 "x_c",  "y_c",  "u_c",  "v_c",  "exx",  "eyy",  "exy",  "e1",  "e2",  "gamma",  "e_vonmises",  "sigma",  "x",  "y",  "u",  "v"
-700,715,0,0,0,0,0,0,0,0,0,-1,524,309,0,0
-693,715,0,0,0,0,0,0,0,0,0,-1,531,309,0,0
-686,715,0,0,0,0,0,0,0,0,0,-1,538,309,0,0
-679,715,0,0,0,0,0,0,0,0,0,-1,545,309,0,0
-672,715,0,0,0,0,0,0,0,0,0,-1,552,309,0,0
-665,715,0,0,0,0,0,0,0,0,0,-1,559,309,0,0
-658,715,0,0,0,0,0,0,0,0,0,-1,566,309,0,0
-651,715,0,0,0,0,0,0,0,0,0,-1,573,309,0,0
-644,715,0,0,0,0,0,0,0,0,0,-1,580,309,0,0
-637,715,0,0,0,0,0,0,0,0,0,-1,587,309,0,0
-630,715,0,0,0,0,0,0,0,0,0,-1,594,309,0,0
-623,715,0,0,0,0,0,0,0,0,0,-1,601,309,0,0
-616,715,0,0,0,0,0,0,0,0,0,-1,608,309,0,0
-609,715,0,0,0,0,0,0,0,0,0,-1,615,309,0,0
-602,715,0,0,0,0,0,0,0,0,0,-1,622,309,0,0
-595,715,0,0,0,0,0,0,0,0,0,-1,629,309,0,0
-588,715,0,0,0,0,0,0,0,0,0,-1,636,309,0,0
-581,715,0,0,0,0,0,0,0,0,0,-1,643,309,0,0
-574,715,0,0,0,0,0,0,0,0,0,-1,650,309,0,0
-567,715,0,0,0,0,0,0,0,0,0,-1,657,309,0,0
-560,715,0,0,0,0,0,0,0,0,0,-1,664,309,0,0
-553,715,0,0,0,0,0,0,0,0,0,-1,671,309,0,0
-546,715,0,0,0,0,0,0,0,0,0,-1,678,309,0,0
-539,715,0,0,0,0,0,0,0,0,0,-1,685,309,0,0
-532,715,0,0,0,0,0,0,0,0,0,-1,692,309,0,0
-525,715,0,0,0,0,0,0,0,0,0,-1,699,309,0,0
-518,715,0,0,0,0,0,0,0,0,0,-1,706,309,0,0
-511,715,0,0,0,0,0,0,0,0,0,-1,713,309,0,0
-504,715,0,0,0,0,0,0,0,0,0,-1,720,309,0,0
-497,715,0,0,0,0,0,0,0,0,0,-1,727,309,0,0
-490,715,0,0,0,0,0,0,0,0,0,-1,734,309,0,0
-483,715,0,0,0,0,0,0,0,0,0,-1,741,309,0,0
-476,715,0,0,0,0,0,0,0,0,0,-1,748,309,0,0
-469,715,0,0,0,0,0,0,0,0,0,-1,755,309,0,0
-462,715,0,0,0,0,0,0,0,0,0,-1,762,309,0,0
-455,715,0,0,0,0,0,0,0,0,0,-1,769,309,0,0
-448,715,0,0,0,0,0,0,0,0,0,-1,776,309,0,0
-441,715,0,0,0,0,0,0,0,0,0,-1,783,309,0,0
-434,715,0,0,0,0,0,0,0,0,0,-1,790,309,0,0
-427,715,0,0,0,0,0,0,0,0,0,-1,797,309,0,0
-420,715,0,0,0,0,0,0,0,0,0,-1,804,309,0,0
-413,715,0,0,0,0,0,0,0,0,0,-1,811,309,0,0
-406,715,0,0,0,0,0,0,0,0,0,-1,818,309,0,0
-399,715,0,0,0,0,0,0,0,0,0,-1,825,309,0,0
-392,715,0,0,0,0,0,0,0,0,0,-1,832,309,0,0
-385,715,0,0,0,0,0,0,0,0,0,-1,839,309,0,0
-378,715,0,0,0,0,0,0,0,0,0,-1,846,309,0,0
-371,715,0,0,0,0,0,0,0,0,0,-1,853,309,0,0
-364,715,0,0,0,0,0,0,0,0,0,-1,860,309,0,0
-357,715,0,0,0,0,0,0,0,0,0,-1,867,309,0,0
-350,715,0,0,0,0,0,0,0,0,0,-1,874,309,0,0
-343,715,0,0,0,0,0,0,0,0,0,-1,881,309,0,0
-336,715,0,0,0,0,0,0,0,0,0,-1,888,309,0,0
-329,715,0,0,0,0,0,0,0,0,0,-1,895,309,0,0
-322,715,0,0,0,0,0,0,0,0,0,-1,902,309,0,0
-315,715,0,0,0,0,0,0,0,0,0,-1,909,309,0,0
-308,715,0,0,0,0,0,0,0,0,0,-1,916,309,0,0
-301,715,0,0,0,0,0,0,0,0,0,-1,923,309,0,0
-294,715,0,0,0,0,0,0,0,0,0,-1,930,309,0,0
-287,715,0,0,0,0,0,0,0,0,0,-1,937,309,0,0
-280,715,0,0,0,0,0,0,0,0,0,-1,944,309,0,0
-273,715,0,0,0,0,0,0,0,0,0,-1,951,309,0,0
-266,715,0,0,0,0,0,0,0,0,0,-1,958,309,0,0
-259,715,0,0,0,0,0,0,0,0,0,-1,965,309,0,0
-252,715,0,0,0,0,0,0,0,0,0,-1,972,309,0,0
-245,715,0,0,0,0,0,0,0,0,0,-1,979,309,0,0
-238,715,0,0,0,0,0,0,0,0,0,-1,986,309,0,0
-231,715,0,0,0,0,0,0,0,0,0,-1,993,309,0,0
-224,715,0,0,0,0,0,0,0,0,0,-1,1000,309,0,0
-217,715,0,0,0,0,0,0,0,0,0,-1,1007,309,0,0
-210,715,0,0,0,0,0,0,0,0,0,-1,1014,309,0,0
-203,715,0,0,0,0,0,0,0,0,0,-1,1021,309,0,0
-196,715,0,0,0,0,0,0,0,0,0,-1,1028,309,0,0
-189,715,0,0,0,0,0,0,0,0,0,-1,1035,309,0,0
-182,715,0,0,0,0,0,0,0,0,0,-1,1042,309,0,0
-175,715,0,0,0,0,0,0,0,0,0,-1,1049,309,0,0
-168,715,0,0,0,0,0,0,0,0,0,-1,1056,309,0,0
-161,715,0,0,0,0,0,0,0,0,0,-1,1063,309,0,0
-154,715,0,0,0,0,0,0,0,0,0,-1,1070,309,0,0
-147,715,0,0,0,0,0,0,0,0,0,-1,1077,309,0,0
-140,715,0,0,0,0,0,0,0,0,0,-1,1084,309,0,0
-133,715,0,0,0,0,0,0,0,0,0,-1,1091,309,0,0
-126,715,0,0,0,0,0,0,0,0,0,-1,1098,309,0,0
-119,715,0,0,0,0,0,0,0,0,0,-1,1105,309,0,0
-112,715,0,0,0,0,0,0,0,0,0,-1,1112,309,0,0
-105,715,0,0,0,0,0,0,0,0,0,-1,1119,309,0,0
-98,715,0,0,0,0,0,0,0,0,0,-1,1126,309,0,0
-91,715,0,0,0,0,0,0,0,0,0,-1,1133,309,0,0
-84,715,0,0,0,0,0,0,0,0,0,-1,1140,309,0,0
-77,715,0,0,0,0,0,0,0,0,0,-1,1147,309,0,0
-70,715,0,0,0,0,0,0,0,0,0,-1,1154,309,0,0
-63,715,0,0,0,0,0,0,0,0,0,-1,1161,309,0,0
-56,715,0,0,0,0,0,0,0,0,0,-1,1168,309,0,0
-49,715,0,0,0,0,0,0,0,0,0,-1,1175,309,0,0
-42,715,0,0,0,0,0,0,0,0,0,-1,1182,309,0,0
-35,715,0,0,0,0,0,0,0,0,0,-1,1189,309,0,0
-28,715,0,0,0,0,0,0,0,0,0,-1,1196,309,0,0
-21,715,0,0,0,0,0,0,0,0,0,-1,1203,309,0,0
-14,715,0,0,0,0,0,0,0,0,0,-1,1210,309,0,0
-7,715,0,0,0,0,0,0,0,0,0,-1,1217,309,0,0
0,715,0,0,0,0,0,0,0,0,0,-1,1224,309,0,0
7,715,0,0,0,0,0,0,0,0,0,-1,1231,309,0,0
14,715,0,0,0,0,0,0,0,0,0,-1,1238,309,0,0
21,715,0,0,0,0,0,0,0,0,0,-1,1245,309,0,0
28,715,0,0,0,0,0,0,0,0,0,-1,1252,309,0,0
35,715,0,0,0,0,0,0,0,0,0,-1,1259,309,0,0
42,715,0,0,0,0,0,0,0,0,0,-1,1266,309,0,0
49,715,0,0,0,0,0,0,0,0,0,-1,1273,309,0,0
56,715,0,0,0,0,0,0,0,0,0,-1,1280,309,0,0
63,715,8.14136,-119.246,0,0,0,0,0,0,0,-1,1287,309,8.14141,119.246
70,715,8.20374,-119.453,0,0,0,0,0,0,0,-1,1294,309,8.20378,119.453
77,715,0,0,0,0,0,0,0,0,0,-1,1301,309,0,0
84,715,0,0,0,0,0,0,0,0,0,-1,1308,309,0,0
91,715,0,0,0,0,0,0,0,0,0,-1,1315,309,0,0
98,715,0,0,0,0,0,0,0,0,0,-1,1322,309,0,0
105,715,0,0,0,0,0,0,0,0,0,-1,1329,309,0,0
112,715,0,0,0,0,0,0,0,0,0,-1,1336,309,0,0
119,715,0,0,0,0,0,0,0,0,0,-1,1343,309,0,0
126,715,0,0,0,0,0,0,0,0,0,-1,1350,309,0,0
133,715,0,0,0,0,0,0,0,0,0,-1,1357,309,0,0
140,715,0,0,0,0,0,0,0,0,0,-1,1364,309,0,0
147,715,0,0,0,0,0,0,0,0,0,-1,1371,309,0,0
154,715,0,0,0,0,0,0,0,0,0,-1,1378,309,0,0
161,715,0,0,0,0,0,0,0,0,0,-1,1385,309,0,0
168,715,0,0,0,0,0,0,0,0,0,-1,1392,309,0,0
175,715,0,0,0,0,0,0,0,0,0,-1,1399,309,0,0
182,715,0,0,0,0,0,0,0,0,0,-1,1406,309,0,0
189,715,0,0,0,0,0,0,0,0,0,-1,1413,309,0,0
196,715,0,0,0,0,0,0,0,0,0,-1,1420,309,0,0
203,715,0,0,0,0,0,0,0,0,0,-1,1427,309,0,0
210,715,0,0,0,0,0,0,0,0,0,-1,1434,309,0,0
217,715,0,0,0,0,0,0,0,0,0,-1,1441,309,0,0
224,715,0,0,0,0,0,0,0,0,0,-1,1448,309,0,0
231,715,0,0,0,0,0,0,0,0,0,-1,1455,309,0,0
238,715,0,0,0,0,0,0,0,0,0,-1,1462,309,0,0
245,715,0,0,0,0,0,0,0,0,0,-1,1469,309,0,0
252,715,0,0,0,0,0,0,0,0,0,-1,1476,309,0,0
259,715,0,0,0,0,0,0,0,0,0,-1,1483,309,0,0
266,715,0,0,0,0,0,0,0,0,0,-1,1490,309,0,0
273,715,0,0,0,0,0,0,0,0,0,-1,1497,309,0,0
280,715,0,0,0,0,0,0,0,0,0,-1,1504,309,0,0
287,715,0,0,0,0,0,0,0,0,0,-1,1511,309,0,0
294,715,0,0,0,0,0,0,0,0,0,-1,1518,309,0,0
301,715,0,0,0,0,0,0,0,0,0,-1,1525,309,0,0
308,715,0,0,0,0,0,0,0,0,0,-1,1532,309,0,0
315,715,0,0,0,0,0,0,0,0,0,-1,1539,309,0,0
322,715,0,0,0,0,0,0,0,0,0,-1,1546,309,0,0
329,715,0,0,0,0,0,0,0,0,0,-1,1553,309,0,0
336,715,0,0,0,0,0,0,0,0,0,-1,1560,309,0,0
343,715,0,0,0,0,0,0,0,0,0,-1,1567,309,0,0
350,715,0,0,0,0,0,0,0,0,0,-1,1574,309,0,0
357,715,0,0,0,0,0,0,0,0,0,-1,1581,309,0,0
364,715,0,0,0,0,0,0,0,0,0,-1,1588,309,0,0
371,715,0,0,0,0,0,0,0,0,0,-1,1595,309,0,0
378,715,0,0,0,0,0,0,0,0,0,-1,1602,309,0,0
385,715,0,0,0,0,0,0,0,0,0,-1,1609,309,0,0
392,715,0,0,0,0,0,0,0,0,0,-1,1616,309,0,0
399,715,0,0,0,0,0,0,0,0,0,-1,1623,309,0,0
406,715,0,0,0,0,0,0,0,0,0,-1,1630,309,0,0
413,715,0,0,0,0,0,0,0,0,0,-1,1637,309,0,0
420,715,0,0,0,0,0,0,0,0,0,-1,1644,309,0,0
427,715,0,0,0,0,0,0,0,0,0,-1,1651,309,0,0
434,715,0,0,0,0,0,0,0,0,0,-1,1658,309,0,0
441,715,0,0,0,0,0,0,0,0,0,-1,1665,309,0,0
448,715,0,0,0,0,0,0,0,0,0,-1,1672,309,0,0
455,715,0,0,0,0,0,0,0,0,0,-1,1679,309,0,0
462,715,0,0,0,0,0,0,0,0,0,-1,1686,309,0,0
469,715,0,0,0,0,0,0,0,0,0,-1,1693,309,0,0
476,715,0,0,0,0,0,0,0,0,0,-1,1700,309,0,0
483,715,0,0,0,0,0,0,0,0,0,-1,1707,309,0,0
490,715,0,0,0,0,0,0,0,0,0,-1,1714,309,0,0
497,715,0,0,0,0,0,0,0,0,0,-1,1721,309,0,0
504,715,0,0,0,0,0,0,0,0,0,-1,1728,309,0,0
511,715,0,0,0,0,0,0,0,0,0,-1,1735,309,0,0
518,715,0,0,0,0,0,0,0,0,0,-1,1742,309,0,0
525,715,0,0,0,0,0,0,0,0,0,-1,1749,309,0,0
532,715,0,0,0,0,0,0,0,0,0,-1,1756,309,0,0
539,715,0,0,0,0,0,0,0,0,0,-1,1763,309,0,0
546,715,0,0,0,0,0,0,0,0,0,-1,1770,309,0,0
553,715,0,0,0,0,0,0,0,0,0,-1,1777,309,0,0
560,715,0,0,0,0,0,0,0,0,0,-1,1784,309,0,0
567,715,0,0,0,0,0,0,0,0,0,-1,1791,309,0,0
574,715,0,0,0,0,0,0,0,0,0,-1,1798,309,0,0
581,715,0,0,0,0,0,0,0,0,0,-1,1805,309,0,0
588,715,0,0,0,0,0,0,0,0,0,-1,1812,309,0,0
595,715,0,0,0,0,0,0,0,0,0,-1,1819,309,0,0
602,715,0,0,0,0,0,0,0,0,0,-1,1826,309,0,0
609,715,0,0,0,0,0,0,0,0,0,-1,1833,309,0,0
616,715,0,0,0,0,0,0,0,0,0,-1,1840,309,0,0
623,715,0,0,0,0,0,0,0,0,0,-1,1847,309,0,0
630,715,0,0,0,0,0,0,0,0,0,-1,1854,309,0,0
637,715,0,0,0,0,0,0,0,0,0,-1,1861,309,0,0
644,715,0,0,0,0,0,0,0,0,0,-1,1868,309,0,0
651,715,0,0,0,0,0,0,0,0,0,-1,1875,309,0,0
658,715,0,0,0,0,0,0,0,0,0,-1,1882,309,0,0
665,715,0,0,0,0,0,0,0,0,0,-1,1889,309,0,0
672,715,0,0,0,0,0,0,0,0,0,-1,1896,309,0,0
679,715,0,0,0,0,0,0,0,0,0,-1,1903,309,0,0
686,715,0,0,0,0,0,0,0,0,0,-1,1910,309,0,0
693,715,0,0,0,0,0,0,0,0,0,-1,1917,309,0,0
700,715,0,0,0,0,0,0,0,0,0,-1,1924,309,0,0
707,715,0,0,0,0,0,0,0,0,0,-1,1931,309,0,0
714,715,0,0,0,0,0,0,0,0,0,-1,1938,309,0,0
721,715,0,0,0,0,0,0,0,0,0,-1,1945,309,0,0
728,715,0,0,0,0,0,0,0,0,0,-1,1952,309,0,0
735,715,0,0,0,0,0,0,0,0,0,-1,1959,309,0,0
742,715,0,0,0,0,0,0,0,0,0,-1,1966,309,0,0
749,715,0,0,0,0,0,0,0,0,0,-1,1973,309,0,0
756,715,0,0,0,0,0,0,0,0,0,-1,1980,309,0,0
763,715,0,0,0,0,0,0,0,0,0,-1,1987,309,0,0
770,715,0,0,0,0,0,0,0,0,0,-1,1994,309,0,0
777,715,0,0,0,0,0,0,0,0,0,-1,2001,309,0,0
784,715,0,0,0,0,0,0,0,0,0,-1,2008,309,0,0
791,715,0,0,0,0,0,0,0,0,0,-1,2015,309,0,0
798,715,0,0,0,0,0,0,0,0,0,-1,2022,309,0,0
805,715,0,0,0,0,0,0,0,0,0,-1,2029,309,0,0
812,715,0,0,0,0,0,0,0,0,0,-1,2036,309,0,0
-700,708,0,0,0,0,0,0,0,0,0,-1,524,316,0,0
-693,708,0,0,0,0,0,0,0,0,0,-1,531,316,0,0
-686,708,0,0,0,0,0,0,0,0,0,-1,538,316,0,0
-679,708,0,0,0,0,0,0,0,0,0,-1,545,316,0,0
-672,708,0,0,0,0,0,0,0,0,0,-1,552,316,0,0
-665,708,0,0,0,0,0,0,0,0,0,-1,559,316,0,0
-658,708,0,0,0,0,0,0,0,0,0,-1,566,316,0,0
-651,708,0,0,0,0,0,0,0,0,0,-1,573,316,0,0
-644,708,0,0,0,0,0,0,0,0,0,-1,580,316,0,0
-637,708,0,0,0,0,0,0,0,0,0,-1,587,316,0,0
-630,708,0,0,0,0,0,0,0,0,0,-1,594,316,0,0
-623,708,0,0,0,0,0,0,0,0,0,-1,601,316,0,0
-616,708,0,0,0,0,0,0,0,0,0,-1,608,316,0,0
-609,708,0,0,0,0,0,0,0,0,0,-1,615,316,0,0
-602,708,0,0,0,0,0,0,0,0,0,-1,622,316,0,0
-595,708,0,0,0,0,0,0,0,0,0,-1,629,316,0,0
-588,708,0,0,0,0,0,0,0,0,0,-1,636,316,0,0
-581,708,0,0,0,0,0,0,0,0,0,-1,643,316,0,0
-574,708,0,0,0,0,0,0,0,0,0,-1,650,316,0,0
-567,708,0,0,0,0,0,0,0,0,0,-1,657,316,0,0
-560,708,0,0,0,0,0,0,0,0,0,-1,664,316,0,0
-553,708,0,0,0,0,0,0,0,0,0,-1,671,316,0,0
-546,708,0,0,0,0,0,0,0,0,0,-1,678,316,0,0
-539,708,0,0,0,0,0,0,0,0,0,-1,685,316,0,0
-532,708,0,0,0,0,0,0,0,0,0,-1,692,316,0,0
-525,708,0,0,0,0,0,0,0,0,0,-1,699,316,0,0
-518,708,0,0,0,0,0,0,0,0,0,-1,706,316,0,0
-511,708,0,0,0,0,0,0,0,0,0,-1,713,316,0,0
-504,708,0,0,0,0,0,0,0,0,0,-1,720,316,0,0
-497,708,0,0,0,0,0,0,0,0,0,-1,727,316,0,0
-490,708,0,0,0,0,0,0,0,0,0,-1,734,316,0,0
-483,708,0,0,0,0,0,0,0,0,0,-1,741,316,0,0
-476,708,0,0,0,0,0,0,0,0,0,-1,748,316,0,0
-469,708,0,0,0,0,0,0,0,0,0,-1,755,316,0,0
-462,708,0,0,0,0,0,0,0,0,0,-1,762,316,0,0
-455,708,0,0,0,0,0,0,0,0,0,-1,769,316,0,0
-448,708,0,0,0,0,0,0,0,0,0,-1,776,316,0,0
-441,708,0,0,0,0,0,0,0,0,0,-1,783,316,0,0
-434,708,0,0,0,0,0,0,0,0,0,-1,790,316,0,0
-427,708,0,0,0,0,0,0,0,0,0,-1,797,316,0,0
-420,708,0,0,0,0,0,0,0,0,0,-1,804,316,0,0
-413,708,0,0,0,0,0,0,0,0,0,-1,811,316,0,0
-406,708,0,0,0,0,0,0,0,0,0,-1,818,316,0,0
-399,708,0,0,0,0,0,0,0,0,0,-1,825,316,0,0
-392,708,0,0,0,0,0,0,0,0,0,-1,832,316,0,0
-385,708,0,0,0,0,0,0,0,0,0,-1,839,316,0,0
-378,708,0,0,0,0,0,0,0,0,0,-1,846,316,0,0
-371,708,0,0,0,0,0,0,0,0,0,-1,853,316,0,0
-364,708,0,0,0,0,0,0,0,0,0,-1,860,316,0,0
-357,708,0,0,0,0,0,0,0,0,0,-1,867,316,0,0
-350,708,0,0,0,0,0,0,0,0,0,-1,874,316,0,0
-343,708,0,0,0,0,0,0,0,0,0,-1,881,316,0,0
-336,708,0,0,0,0,0,0,0,0,0,-1,888,316,0,0
-329,708,0,0,0,0,0,0,0,0,0,-1,895,316,0,0
-322,708,0,0,0,0,0,0,0,0,0,-1,902,316,0,0
-315,708,0,0,0,0,0,0,0,0,0,-1,909,316,0,0
-308,708,0,0,0,0,0,0,0,0,0,-1,916,316,0,0
-301,708,0,0,0,0,0,0,0,0,0,-1,923,316,0,0
-294,708,0,0,0,0,0,0,0,0,0,-1,930,316,0,0
-287,708,0,0,0,0,0,0,0,0,0,-1,937,316,0,0
-280,708,0,0,0,0,0,0,0,0,0,-1,944,316,0,0
-273,708,0,0,0,0,0,0,0,0,0,-1,951,316,0,0
-266,708,0,0,0,0,0,0,0,0,0,-1,958,316,0,0
-259,708,0,0,0,0,0,0,0,0,0,-1,965,316,0,0
-252,708,0,0,0,0,0,0,0,0,0,-1,972,316,0,0
-245,708,0,0,0,0,0,0,0,0,0,-1,979,316,0,0
-238,708,0,0,0,0,0,0,0,0,0,-1,986,316,0,0
-231,708,0,0,0,0,0,0,0,0,0,-1,993,316,0,0
-224,708,0,0,0,0,0,0,0,0,0,-1,1000,316,0,0
-217,708,0,0,0,0,0,0,0,0,0,-1,1007,316,0,0
-210,708,0,0,0,0,0,0,0,0,0,-1,1014,316,0,0
-203,708,0,0,0,0,0,0,0,0,0,-1,1021,316,0,0
-196,708,0,0,0,0,0,0,0,0,0,-1,1028,316,0,0
-189,708,0,0,0,0,0,0,0,0,0,-1,1035,316,0,0
-182,708,0,0,0,0,0,0,0,0,0,-1,1042,316,0,0
-175,708,0,0,0,0,0,0,0,0,0,-1,1049,316,0,0
-168,708,0,0,0,0,0,0,0,0,0,-1,1056,316,0,0
-161,708,0,0,0,0,0,0,0,0,0,-1,1063,316,0,0
-154,708,0,0,0,0,0,0,0,0,0,-1,1070,316,0,0
-147,708,0,0,0,0,0,0,0,0,0,-1,1077,316,0,0
-140,708,0,0,0,0,0,0,0,0,0,-1,1084,316,0,0
-133,708,0,0,0,0,0,0,0,0,0,-1,1091,316,0,0
-126,708,0,0,0,0,0,0,0,0,0,-1,1098,316,0,0
-119,708,0,0,0,0,0,0,0,0,0,-1,1105,316,0,0
-112,708,0,0,0,0,0,0,0,0,0,-1,1112,316,0,0
-105,708,0,0,0,0,0,0,0,0,0,-1,1119,316,0,0
-98,708,0,0,0,0,0,0,0,0,0,-1,1126,316,0,0
-91,708,0,0,0,0,0,0,0,0,0,-1,1133,316,0,0
-84,708,0,0,0,0,0,0,0,0,0,-1,1140,316,0,0
-77,708,0,0,0,0,0,0,0,0,0,-1,1147,316,0,0
-70,708,0,0,0,0,0,0,0,0,0,-1,1154,316,0,0
-63,708,0,0,0,0,0,0,0,0,0,-1,1161,316,0,0
-56,708,0,0,0,0,0,0,0,0,0,-1,1168,316,0,0
-49,708,0,0,0,0,0,0,0,0,0,-1,1175,316,0,0
-42,708,0,0,0,0,0,0,0,0,0,-1,1182,316,0,0
-35,708,-2.71204,-6.31558,0,0,0,0,0,0,0,-1,1189,316,-2.712,6.3156
-28,708,-2.92371,-5.53253,0,0,0,0,0,0,0,-1,1196,316,-2.92375,5.53254
-21,708,-0.417969,-24.5911,0,0,0,0,0,0,0,-1,1203,316,-0.418022,24.5911
-14,708,8.77576,-122.585,0,0,0,0,0,0,0,-1,1210,316,8.77573,122.585
-7,708,8.87292,-123.217,0,0,0,0,0,0,0,-1,1217,316,8.87295,123.217
0,708,8.97021,-123.85,0,0,0,0,0,0,0,-1,1224,316,8.97017,123.85
7,708,6.96973,-121.466,0,0,0,0,0,0,0,-1,1231,316,6.96978,121.466
14,708,7.20691,-119.157,0,0,0,0,0,0,0,-1,1238,316,7.20695,119.157
21,708,6.48389,-119.371,0,0,0,0,0,0,0,-1,1245,316,6.48383,119.371
28,708,6.71021,-119.555,0,0,0,0,0,0,0,-1,1252,316,6.71017,119.555
35,708,7.31689,-119.452,0,0,0,0,0,0,0,-1,1259,316,7.31695,119.452
42,708,8.72363,-120.018,0,0,0,0,0,0,0,-1,1266,316,8.72361,120.018
49,708,8.57825,-119.912,0,0,0,0,0,0,0,-1,1273,316,8.57829,119.912
56,708,8.43506,-119.826,0,0,0,0,0,0,0,-1,1280,316,8.43504,119.826
63,708,8.29907,-119.774,0,0,0,0,0,0,0,-1,1287,316,8.29904,119.774
70,708,8.32617,-119.677,0,0,0,0,0,0,0,-1,1294,316,8.32615,119.677
77,708,8.13086,-119.211,0,0,0,0,0,0,0,-1,1301,316,8.13092,119.211
84,708,7.92749,-118.728,0,0,0,0,0,0,0,-1,1308,316,7.92745,118.728
91,708,8.04431,-118.231,0,0,0,0,0,0,0,-1,1315,316,8.04436,118.231
98,708,7.88989,-117.94,0,0,0,0,0,0,0,-1,1322,316,7.88989,117.94
105,708,7.70032,-117.698,0,0,0,0,0,0,0,-1,1329,316,7.70037,117.698
112,708,8.05212,-116.462,0,0,0,0,0,0,0,-1,1336,316,8.05209,116.462
119,708,4.22241,-117.54,0,0,0,0,0,0,0,-1,1343,316,4.22246,117.54
126,708,3.62878,-116.281,0,0,0,0,0,0,0,-1,1350,316,3.62874,116.281
133,708,7.8053,-117.805,0,0,0,0,0,0,0,-1,1357,316,7.80527,117.805
140,708,7.15955,-118.207,0,0,0,0,0,0,0,-1,1364,316,7.15953,118.207
147,708,-7.81604,-108.593,0,0,0,0,0,0,0,-1,1371,316,-7.81607,108.593
154,708,0,0,0,0,0,0,0,0,0,-1,1378,316,0,0
161,708,0,0,0,0,0,0,0,0,0,-1,1385,316,0,0
168,708,0,0,0,0,0,0,0,0,0,-1,1392,316,0,0
175,708,0,0,0,0,0,0,0,0,0,-1,1399,316,0,0
182,708,0,0,0,0,0,0,0,0,0,-1,1406,316,0,0
189,708,0,0,0,0,0,0,0,0,0,-1,1413,316,0,0
196,708,0,0,0,0,0,0,0,0,0,-1,1420,316,0,0
203,708,0,0,0,0,0,0,0,0,0,-1,1427,316,0,0
210,708,0,0,0,0,0,0,0,0,0,-1,1434,316,0,0
217,708,0,0,0,0,0,0,0,0,0,-1,1441,316,0,0
224,708,0,0,0,0,0,0,0,0,0,-1,1448,316,0,0
231,708,0,0,0,0,0,0,0,0,0,-1,1455,316,0,0
238,708,0,0,0,0,0,0,0,0,0,-1,1462,316,0,0
245,708,0,0,0,0,0,0,0,0,0,-1,1469,316,0,0
252,708,0,0,0,0,0,0,0,0,0,-1,1476,316,0,0
259,708,0,0,0,0,0,0,0,0,0,-1,1483,316,0,0
266,708,0,0,0,0,0,0,0,0,0,-1,1490,316,0,0
273,708,0,0,0,0,0,0,0,0,0,-1,1497,316,0,0
280,708,0,0,0,0,0,0,0,0,0,-1,1504,316,0,0
287,708,0,0,0,0,0,0,0,0,0,-1,1511,316,0,0
294,708,0,0,0,0,0,0,0,0,0,-1,1518,316,0,0
301,708,0,0,0,0,0,0,0,0,0,-1,1525,316,0,0
308,708,0,0,0,0,0,0,0,0,0,-1,1532,316,0,0
315,708,0,0,0,0,0,0,0,0,0,-1,1539,316,0,0
322,708,0,0,0,0,0,0,0,0,0,-1,1546,316,0,0
329,708,0,0,0,0,0,0,0,0,0,-1,1553,316,0,0
336,708,0,0,0,0,0,0,0,0,0,-1,1560,316,0,0
343,708,0,0,0,0,0,0,0,0,0,-1,1567,316,0,0
350,708,0,0,0,0,0,0,0,0,0,-1,1574,316,0,0
357,708,0,0,0,0,0,0,0,0,0,-1,1581,316,0,0
364,708,0,0,0,0,0,0,0,0,0,-1,1588,316,0,0
371,708,0,0,0,0,0,0,0,0,0,-1,1595,316,0,0
378,708,0,0,0,0,0,0,0,0,0,-1,1602,316,0,0
385,708,0,0,0,0,0,0,0,0,0,-1,1609,316,0,0
392,708,0,0,0,0,0,0,0,0,0,-1,1616,316,0,0
399,708,0,0,0,0,0,0,0,0,0,-1,1623,316,0,0
406,708,0,0,0,0,0,0,0,0,0,-1,1630,316,0,0
413,708,0,0,0,0,0,0,0,0,0,-1,1637,316,0,0
420,708,0,0,0,0,0,0,0,0,0,-1,1644,316,0,0
427,708,0,0,0,0,0,0,0,0,0,-1,1651,316,0,0
434,708,0,0,0,0,0,0,0,0,0,-1,1658,316,0,0
441,708,0,0,0,0,0,0,0,0,0,-1,1665,316,0,0
448,708,0,0,0,0,0,0,0,0,0,-1,1672,316,0,0
455,708,0,0,0,0,0,0,0,0,0,-1,1679,316,0,0
462,708,0,0,0,0,0,0,0,0,0,-1,1686,316,0,0
469,708,0,0,0,0,0,0,0,0,0,-1,1693,316,0,0
476,708,0,0,0,0,0,0,0,0,0,-1,1700,316,0,0
483,708,0,0,0,0,0,0,0,0,0,-1,1707,316,0,0
490,708,0,0,0,0,0,0,0,0,0,-1,1714,316,0,0
497,708,0,0,0,0,0,0,0,0,0,-1,1721,316,0,0
504,708,0,0,0,0,0,0,0,0,0,-1,1728,316,0,0
511,708,0,0,0,0,0,0,0,0,0,-1,1735,316,0,0
518,708,0,0,0,0,0,0,0,0,0,-1,1742,316,0,0
525,708,0,0,0,0,0,0,0,0,0,-1,1749,316,0,0
532,708,0,0,0,0,0,0,0,0,0,-1,1756,316,0,0
539,708,0,0,0,0,0,0,0,0,0,-1,1763,316,0,0
546,708,0,0,0,0,0,0,0,0,0,-1,1770,316,0,0
553,708,0,0,0,0,0,0,0,0,0,-1,1777,316,0,0
560,708,0,0,0,0,0,0,0,0,0,-1,1784,316,0,0
567,708,0,0,0,0,0,0,0,0,0,-1,1791,316,0,0
574,708,0,0,0,0,0,0,0,0,0,-1,1798,316,0,0
581,708,0,0,0,0,0,0,0,0,0,-1,1805,316,0,0
588,708,0,0,0,0,0,0,0,0,0,-1,1812,316,0,0
595,708,0,0,0,0,0,0,0,0,0,-1,1819,316,0,0
602,708,0,0,0,0,0,0,0,0,0,-1,1826,316,0,0
609,708,0,0,0,0,0,0,0,0,0,-1,1833,316,0,0
616,708,0,0,0,0,0,0,0,0,0,-1,1840,316,0,0
623,708,0,0,0,0,0,0,0,0,0,-1,1847,316,0,0
630,708,0,0,0,0,0,0,0,0,0,-1,1854,316,0,0
637,708,0,0,0,0,0,0,0,0,0,-1,1861,316,0,0
644,708,0,0,0,0,0,0,0,0,0,-1,1868,316,0,0
651,708,0,0,0,0,0,0,0,0,0,-1,1875,316,0,0
658,708,0,0,0,0,0,0,0,0,0,-1,1882,316,0,0
665,708,0,0,0,0,0,0,0,0,0,-1,1889,316,0,0
672,708,0,0,0,0,0,0,0,0,0,-1,1896,316,0,0
679,708,0,0,0,0,0,0,0,0,0,-1,1903,316,0,0
686,708,0,0,0,0,0,0,0,0,0,-1,1910,316,0,0
693,708,0,0,0,0,0,0,0,0,0,-1,1917,316,0,0
700,708,0,0,0,0,0,0,0,0,0,-1,1924,316,0,0
707,708,0,0,0,0,0,0,0,0,0,-1,1931,316,0,0
714,708,0,0,0,0,0,0,0,0,0,-1,1938,316,0,0
721,708,0,0,0,0,0,0,0,0,0,-1,1945,316,0,0
728,708,0,0,0,0,0,0,0,0,0,-1,1952,316,0,0
735,708,0,0,0,0,0,0,0,0,0,-1,1959,316,0,0
742,708,0,0,0,0,0,0,0,0,0,-1,1966,316,0,0
749,708,0,0,0,0,0,0,0,0,0,-1,1973,316,0,0
756,708,0,0,0,0,0,0,0,0,0,-1,1980,316,0,0
763,708,0,0,0,0,0,0,0,0,0,-1,1987,316,0,0
770,708,0,0,0,0,0,0,0,0,0,-1,1994,316,0,0
777,708,0,0,0,0,0,0,0,0,0,-1,2001,316,0,0
784,708,0,0,0,0,0,0,0,0,0,-1,2008,316,0,0
791,708,0,0,0,0,0,0,0,0,0,-1,2015,316,0,0
798,708,0,0,0,0,0,0,0,0,0,-1,2022,316,0,0
805,708,0,0,0,0,0,0,0,0,0,-1,2029,316,0,0
812,708,0,0,0,0,0,0,0,0,0,-1,2036,316,0,0
-700,701,0,0,0,0,0,0,0,0,0,-1,524,323,0,0
-693,701,0,0,0,0,0,0,0,0,0,-1,531,323,0,0
-686,701,0,0,0,0,0,0,0,0,0,-1,538,323,0,0
-679,701,0,0,0,0,0,0,0,0,0,-1,545,323,0,0
-672,701,0,0,0,0,0,0,0,0,0,-1,552,323,0,0
-665,701,0,0,0,0,0,0,0,0,0,-1,559,323,0,0
-658,701,0,0,0,0,0,0,0,0,0,-1,566,323,0,0
-651,701,0,0,0,0,0,0,0,0,0,-1,573,323,0,0
-644,701,0,0,0,0,0,0,0,0,0,-1,580,323,0,0
-637,701,0,0,0,0,0,0,0,0,0,-1,587,323,0,0
-630,701,0,0,0,0,0,0,0,0,0,-1,594,323,0,0
-623,701,0,0,0,0,0,0,0,0,0,-1,601,323,0,0
-616,701,0,0,0,0,0,0,0,0,0,-1,608,323,0,0
-609,701,0,0,0,0,0,0,0,0,0,-1,615,323,0,0
-602,701,0,0,0,0,0,0,0,0,0,-1,622,323,0,0
-595,701,0,0,0,0,0,0,0,0,0,-1,629,323,0,0
-588,701,0,0,0,0,0,0,0,0,0,-1,636,323,0,0
-581,701,0,0,0,0,0,0,0,0,0,-1,643,323,0,0
-574,701,0,0,0,0,0,0,0,0,0,-1,650,323,0,0
-567,701,0,0,0,0,0,0,0,0,0,-1,657,323,0,0
-560,701,0,0,0,0,0,0,0,0,0,-1,664,323,0,0
-553,701,0,0,0,0,0,0,0,0,0,-1,671,323,0,0
-546,701,0,0,0,0,0,0,0,0,0,-1,678,323,0,0
-539,701,0,0,0,0,0,0,0,0,0,-1,685,323,0,0
-532,701,0,0,0,0,0,0,0,0,0,-1,692,323,0,0
-525,701,0,0,0,0,0,0,0,0,0,-1,699,323,0,0
-518,701,0,0,0,0,0,0,0,0,0,-1,706,323,0,0
-511,701,0,0,0,0,0,0,0,0,0,-1,713,323,0,0
-504,701,0,0,0,0,0,0,0,0,0,-1,720,323,0,0
-497,701,0,0,0,0,0,0,0,0,0,-1,727,323,0,0
-490,701,0,0,0,0,0,0,0,0,0,-1,734,323,0,0
-483,701,0,0,0,0,0,0,0,0,0,-1,741,323,0,0
-476,701,0,0,0,0,0,0,0,0,0,-1,748,323,0,0
-469,701,0,0,0,0,0,0,0,0,0,-1,755,323,0,0
-462,701,0,0,0,0,0,0,0,0,0,-1,762,323,0,0
-455,701,0,0,0,0,0,0,0,0,0,-1,769,323,0,0
-448,701,0,0,0,0,0,0,0,0,0,-1,776,323,0,0
-441,701,0,0,0,0,0,0,0,0,0,-1,783,323,0,0
-434,701,0,0,0,0,0,0,0,0,0,-1,790,323,0,0
-427,701,0,0,0,0,0,0,0,0,0,-1,797,323,0,0
-420,701,0,0,0,0,0,0,0,0,0,-1,804,323,0,0
-413,701,0,0,0,0,0,0,0,0,0,-1,811,323,0,0
-406,701,0,0,0,0,0,0,0,0,0,-1,818,323,0,0
-399,701,0,0,0,0,0,0,0,0,0,-1,825,323,0,0
-392,701,0,0,0,0,0,0,0,0,0,-1,832,323,0,0
-385,701,0,0,0,0,0,0,0,0,0,-1,839,323,0,0
-378,701,0,0,0,0,0,0,0,0,0,-1,846,323,0,0
-371,701,0,0,0,0,0,0,0,0,0,-1,853,323,0,0
-364,701,0,0,0,0,0,0,0,0,0,-1,860,323,0,0
-357,701,0,0,0,0,0,0,0,0,0,-1,867,323,0,0
-350,701,0,0,0,0,0,0,0,0,0,-1,874,323,0,0
-343,701,0,0,0,0,0,0,0,0,0,-1,881,323,0,0
-336,701,0,0,0,0,0,0,0,0,0,-1,888,323,0,0
-329,701,0,0,0,0,0,0,0,0,0,-1,895,323,0,0
-322,701,0,0,0,0,0,0,0,0,0,-1,902,323,0,0
-315,701,0,0,0,0,0,0,0,0,0,-1,909,323,0,0
-308,701,0,0,0,0,0,0,0,0,0,-1,916,323,0,0
-301,701,0,0,0,0,0,0,0,0,0,-1,923,323,0,0
-294,701,0,0,0,0,0,0,0,0,0,-1,930,323,0,0
-287,701,0,0,0,0,0,0,0,0,0,-1,937,323,0,0
-280,701,0,0,0,0,0,0,0,0,0,-1,944,323,0,0
-273,701,0,0,0,0,0,0,0,0,0,-1,951,323,0,0
-266,701,0,0,0,0,0,0,0,0,0,-1,958,323,0,0
-259,701,0,0,0,0,0,0,0,0,0,-1,965,323,0,0
-252,701,0,0,0,0,0,0,0,0,0,-1,972,323,0,0
-245,701,0,0,0,0,0,0,0,0,0,-1,979,323,0,0
-238,701,0,0,0,0,0,0,0,0,0,-1,986,323,0,0
-231,701,0,0,0,0,0,0,0,0,0,-1,993,323,0,0
-224,701,0,0,0,0,0,0,0,0,0,-1,1000,323,0,0
-217,701,0,0,0,0,0,0,0,0,0,-1,1007,323,0,0
-210,701,0,0,0,0,0,0,0,0,0,-1,1014,323,0,0
-203,701,0,0,0,0,0,0,0,0,0,-1,1021,323,0,0
-196,701,0,0,0,0,0,0,0,0,0,-1,1028,323,0,0
-189,701,0,0,0,0,0,0,0,0,0,-1,1035,323,0,0
-182,701,0,0,0,0,0,0,0,0,0,-1,1042,323,0,0
-175,701,0,0,0,0,0,0,0,0,0,-1,1049,323,0,0
-168,701,0,0,0,0,0,0,0,0,0,-1,1056,323,0,0
-161,701,0,0,0,0,0,0,0,0,0,-1,1063,323,0,0
-154,701,0,0,0,0,0,0,0,0,0,-1,1070,323,0,0
-147,701,0,0,0,0,0,0,0,0,0,-1,1077,323,0,0
-140,701,0,0,0,0,0,0,0,0,0,-1,1084,323,0,0
-133,701,0,0,0,0,0,0,0,0,0,-1,1091,323,0,0
-126,701,0,0,0,0,0,0,0,0,0,-1,1098,323,0,0
-119,701,0,0,0,0,0,0,0,0,0,-1,1105,323,0,0
-112,701,0,0,0,0,0,0,0,0,0,-1,1112,323,0,0
-105,701,0,0,0,0,0,0,0,0,0,-1,1119,323,0,0
-98,701,0,0,0,0,0,0,0,0,0,-1,1126,323,0,0
-91,701,0,0,0,0,0,0,0,0,0,-1,1133,323,0,0
-84,701,0,0,0,0,0,0,0,0,0,-1,1140,323,0,0
-77,701,0,0,0,0,0,0,0,0,0,-1,1147,323,0,0
-70,701,-12.7566,-30.413,0,0,0,0,0,0,0,-1,1154,323,-12.7566,30.413
-63,701,-18.3169,-21.2322,0,0,0,0,0,0,0,-1,1161,323,-18.3169,21.2322
-56,701,-0.420166,-0.101776,0,0,0,0,0,0,0,-1,1168,323,-0.420119,0.101777
-49,701,-1.09021,-0.155762,0,0,0,0,0,0,0,-1,1175,323,-1.09024,0.155768
-42,701,-0.210327,-0.299133,0,0,0,0,0,0,0,-1,1182,323,-0.210379,0.29914
-35,701,-2.9635,-7.98676,0,0,0,0,0,0,0,-1,1189,323,-2.9635,7.98676
-28,701,-6.64417,-5.4917,0,0,0,0,0,0,0,-1,1196,323,-6.64411,5.4917
-21,701,11.4597,-104.853,0,0,0,0,0,0,0,-1,1203,323,11.4598,104.853
-14,701,8.23767,-122.245,0,0,0,0,0,0,0,-1,1210,323,8.23766,122.245
-7,701,8.22827,-122.938,0,0,0,0,0,0,0,-1,1217,323,8.22828,122.938
0,701,6.92151,-122.302,0,0,0,0,0,0,0,-1,1224,323,6.92149,122.302
7,701,7.1615,-122.1,0,0,0,0,0,0,0,-1,1231,323,7.16154,122.1
14,701,6.77295,-119.995,0,0,0,0,0,0,0,-1,1238,323,6.7729,119.995
21,701,6.71692,-119.996,0,0,0,0,0,0,0,-1,1245,323,6.71696,119.996
28,701,6.89722,-119.941,0,0,0,0,0,0,0,-1,1252,323,6.89723,119.941
35,701,7.3717,-120.095,0,0,0,0,0,0,0,-1,1259,323,7.37167,120.095
42,701,8.30591,-120.407,0,0,0,0,0,0,0,-1,1266,323,8.30597,120.407
49,701,8.6593,-120.547,0,0,0,0,0,0,0,-1,1273,323,8.65936,120.547
56,701,8.55237,-120.438,0,0,0,0,0,0,0,-1,1280,323,8.55231,120.438
63,701,8.40564,-120.269,0,0,0,0,0,0,0,-1,1287,323,8.40569,120.269
70,701,8.45422,-119.942,0,0,0,0,0,0,0,-1,1294,323,8.45419,119.942
77,701,8.73608,-119.57,0,0,0,0,0,0,0,-1,1301,323,8.73604,119.57
84,701,8.10242,-119.028,0,0,0,0,0,0,0,-1,1308,323,8.10246,119.028
91,701,8.16809,-118.168,0,0,0,0,0,0,0,-1,1315,323,8.16813,118.168
98,701,7.99939,-117.882,0,0,0,0,0,0,0,-1,1322,323,7.99942,117.882
105,701,8.37439,-117.677,0,0,0,0,0,0,0,-1,1329,323,8.37439,117.677
112,701,9.55273,-117.327,0,0,0,0,0,0,0,-1,1336,323,9.55277,117.327
119,701,10.7312,-116.978,0,0,0,0,0,0,0,-1,1343,323,10.7311,116.978
126,701,4.05469,-113.035,0,0,0,0,0,0,0,-1,1350,323,4.05473,113.035
133,701,8.98853,-119.089,0,0,0,0,0,0,0,-1,1357,323,8.98847,119.089
140,701,8.26868,-119.367,0,0,0,0,0,0,0,-1,1364,323,8.26871,119.367
147,701,-6.5968,-110.041,0,0,0,0,0,0,0,-1,1371,323,-6.5968,110.041
154,701,-9.04028,-110.465,0,0,0,0,0,0,0,-1,1378,323,-9.04028,110.465
161,701,-4.83057,-59.3711,0,0,0,0,0,0,0,-1,1385,323,-4.83061,59.3711
168,701,30.7272,1.76184,0,0,0,0,0,0,0,-1,1392,323,30.7272,-1.76184
175,701,31.5035,2.25711,0,0,0,0,0,0,0,-1,1399,323,31.5036,-2.25712
182,701,8.80652,5.42807,0,0,0,0,0,0,0,-1,1406,323,8.8065,-5.42808
189,701,8.58081,4.24493,0,0,0,0,0,0,0,-1,1413,323,8.58082,-4.24494
196,701,0,0,0,0,0,0,0,0,0,-1,1420,323,0,0
203,701,0,0,0,0,0,0,0,0,0,-1,1427,323,0,0
210,701,0,0,0,0,0,0,0,0,0,-1,1434,323,0,0
217,701,0,0,0,0,0,0,0,0,0,-1,1441,323,0,0
224,701,0,0,0,0,0,0,0,0,0,-1,1448,323,0,0
231,701,0,0,0,0,0,0,0,0,0,-1,1455,323,0,0
238,701,0,0,0,0,0,0,0,0,0,-1,1462,323,0,0
245,701,0,0,0,0,0,0,0,0,0,-1,1469,323,0,0
252,701,0,0,0,0,0,0,0,0,0,-1,1476,323,0,0
259,701,0,0,0,0,0,0,0,0,0,-1,1483,323,0,0
266,701,0,0,0,0,0,0,0,0,0,-1,1490,323,0,0
273,701,0,0,0,0,0,0,0,0,0,-1,1497,323,0,0
280,701,0,0,0,0,0,0,0,0,0,-1,1504,323,0,0
287,701,0,0,0,0,0,0,0,0,0,-1,1511,323,0,0
294,701,0,0,0,0,0,0,0,0,0,-1,1518,323,0,0
301,701,0,0,0,0,0,0,0,0,0,-1,1525,323,0,0
308,701,0,0,0,0,0,0,0,0,0,-1,1532,323,0,0
315,701,0,0,0,0,0,0,0,0,0,-1,1539,323,0,0
322,701,0,0,0,0,0,0,0,0,0,-1,1546,323,0,0
329,701,0,0,0,0,0,0,0,0,0,-1,1553,323,0,0
336,701,0,0,0,0,0,0,0,0,0,-1,1560,323,0,0
343,701,0,0,0,0,0,0,0,0,0,-1,1567,323,0,0
350,701,0,0,0,0,0,0,0,0,0,-1,1574,323,0,0
357,701,0,0,0,0,0,0,0,0,0,-1,1581,323,0,0
364,701,0,0,0,0,0,0,0,0,0,-1,1588,323,0,0
371,701,0,0,0,0,0,0,0,0,0,-1,1595,323,0,0
378,701,0,0,0,0,0,0,0,0,0,-1,1602,323,0,0
385,701,0,0,0,0,0,0,0,0,0,-1,1609,323,0,0
392,701,0,0,0,0,0,0,0,0,0,-1,1616,323,0,0
399,701,0,0,0,0,0,0,0,0,0,-1,1623,323,0,0
406,701,0,0,0,0,0,0,0,0,0,-1,1630,323,0,0
413,701,0,0,0,0,0,0,0,0,0,-1,1637,323,0,0
420,701,0,0,0,0,0,0,0,0,0,-1,1644,323,0,0
427,701,0,0,0,0,0,0,0,0,0,-1,1651,323,0,0
434,701,0,0,0,0,0,0,0,0,0,-1,1658,323,0,0
441,701,0,0,0,0,0,0,0,0,0,-1,1665,323,0,0
448,701,0,0,0,0,0,0,0,0,0,-1,1672,323,0,0
455,701,0,0,0,0,0,0,0,0,0,-1,1679,323,0,0
462,701,0,0,0,0,0,0,0,0,0,-1,1686,323,0,0
469,701,0,0,0,0,0,0,0,0,0,-1,1693,323,0,0
476,701,0,0,0,0,0,0,0,0,0,-1,1700,323,0,0
483,701,0,0,0,0,0,0,0,0,0,-1,1707,323,0,0
490,701,0,0,0,0,0,0,0,0,0,-1,1714,323,0,0
497,701,0,0,0,0,0,0,0,0,0,-1,1721,323,0,0
504,701,0,0,0,0,0,0,0,0,0,-1,1728,323,0,0
511,701,0,0,0,0,0,0,0,0,0,-1,1735,323,0,0
518,701,0,0,0,0,0,0,0,0,0,-1,1742,323,0,0
525,701,0,0,0,0,0,0,0,0,0,-1,1749,323,0,0
532,701,0,0,0,0,0,0,0,0,0,-1,1756,323,0,0
539,701,0,0,0,0,0,0,0,0,0,-1,1763,323,0,0
546,701,0,0,0,0,0,0,0,0,0,-1,1770,323,0,0
553,701,0,0,0,0,0,0,0,0,0,-1,1777,323,0,0
560,701,0,0,0,0,0,0,0,0,0,-1,1784,323,0,0
567,701,0,0,0,0,0,0,0,0,0,-1,1791,323,0,0
574,701,0,0,0,0,0,0,0,0,0,-1,1798,323,0,0
581,701,0,0,0,0,0,0,0,0,0,-1,1805,323,0,0
588,701,0,0,0,0,0,0,0,0,0,-1,1812,323,0,0
595,701,0,0,0,0,0,0,0,0,0,-1,1819,323,0,0
602,701,0,0,0,0,0,0,0,0,0,-1,1826,323,0,0
609,701,0,0,0,0,0,0,0,0,0,-1,1833,323,0,0
616,701,0,0,0,0,0,0,0,0,0,-1,1840,323,0,0
623,701,0,0,0,0,0,0,0,0,0,-1,1847,323,0,0
630,701,0,0,0,0,0,0,0,0,0,-1,1854,323,0,0
637,701,0,0,0,0,0,0,0,0,0,-1,1861,323,0,0
644,701,0,0,0,0,0,0,0,0,0,-1,1868,323,0,0
651,701,0,0,0,0,0,0,0,0,0,-1,1875,323,0,0
658,701,0,0,0,0,0,0,0,0,0,-1,1882,323,0,0
665,701,0,0,0,0,0,0,0,0,0,-1,1889,323,0,0
672,701,0,0,0,0,0,0,0,0,0,-1,1896,323,0,0
679,701,0,0,0,0,0,0,0,0,0,-1,1903,323,0,0
686,701,0,0,0,0,0,0,0,0,0,-1,1910,323,0,0
693,701,0,0,0,0,0,0,0,0,0,-1,1917,323,0,0
700,701,0,0,0,0,0,0,0,0,0,-1,1924,323,0,0
707,701,0,0,0,0,0,0,0,0,0,-1,1931,323,0,0
714,701,0,0,0,0,0,0,0,0,0,-1,1938,323,0,0
721,701,0,0,0,0,0,0,0,0,0,-1,1945,323,0,0
728,701,0,0,0,0,0,0,0,0,0,-1,1952,323,0,0
735,701,0,0,0,0,0,0,0,0,0,-1,1959,323,0,0
742,701,0,0,0,0,0,0,0,0,0,-1,1966,323,0,0
749,701,0,0,0,0,0,0,0,0,0,-1,1973,323,0,0
756,701,0,0,0,0,0,0,0,0,0,-1,1980,323,0,0
763,701,0,0,0,0,0,0,0,0,0,-1,1987,323,0,0
770,701,0,0,0,0,0,0,0,0,0,-1,1994,323,0,0
777,701,0,0,0,0,0,0,0,0,0,-1,2001,323,0,0
784,701,0,0,0,0,0,0,0,0,0,-1,2008,323,0,0
791,701,0,0,0,0,0,0,0,0,0,-1,2015,323,0,0
798,701,0,0,0,0,0,0,0,0,0,-1,2022,323,0,0
805,701,0,0,0,0,0,0,0,0,0,-1,2029,323,0,0
812,701,0,0,0,0,0,0,0,0,0,-1,2036,323,0,0
-700,694,0,0,0,0,0,0,0,0,0,-1,524,330,0,0
-693,694,0,0,0,0,0,0,0,0,0,-1,531,330,0,0
-686,694,0,0,0,0,0,0,0,0,0,-1,538,330,0,0
-679,694,0,0,0,0,0,0,0,0,0,-1,545,330,0,0
-672,694,0,0,0,0,0,0,0,0,0,-1,552,330,0,0
-665,694,0,0,0,0,0,0,0,0,0,-1,559,330,0,0
-658,694,0,0,0,0,0,0,0,0,0,-1,566,330,0,0
-651,694,0,0,0,0,0,0,0,0,0,-1,573,330,0,0
-644,694,0,0,0,0,0,0,0,0,0,-1,580,330,0,0
-637,694,0,0,0,0,0,0,0,0,0,-1,587,330,0,0
-630,694,0,0,0,0,0,0,0,0,0,-1,594,330,0,0
-623,694,0,0,0,0,0,0,0,0,0,-1,601,330,0,0
-616,694,0,0,0,0,0,0,0,0,0,-1,608,330,0,0
-609,694,0,0,0,0,0,0,0,0,0,-1,615,330,0,0
-602,694,0,0,0,0,0,0,0,0,0,-1,622,330,0,0
-595,694,0,0,0,0,0,0,0,0,0,-1,629,330,0,0
-588,694,0,0,0,0,0,0,0,0,0,-1,636,330,0,0
-581,694,0,0,0,0,0,0,0,0,0,-1,643,330,0,0
-574,694,0,0,0,0,0,0,0,0,0,-1,650,330,0,0
-567,694,0,0,0,0,0,0,0,0,0,-1,657,330,0,0
-560,694,0,0,0,0,0,0,0,0,0,-1,664,330,0,0
-553,694,0,0,0,0,0,0,0,0,0,-1,671,330,0,0
-546,694,0,0,0,0,0,0,0,0,0,-1,678,330,0,0
-539,694,0,0,0,0,0,0,0,0,0,-1,685,330,0,0
-532,694,0,0,0,0,0,0,0,0,0,-1,692,330,0,0
-525,694,0,0,0,0,0,0,0,0,0,-1,699,330,0,0
-518,694,0,0,0,0,0,0,0,0,0,-1,706,330,0,0
-511,694,0,0,0,0,0,0,0,0,0,-1,713,330,0,0
-504,694,0,0,0,0,0,0,0,0,0,-1,720,330,0,0
-497,694,0,0,0,0,0,0,0,0,0,-1,727,330,0,0
-490,694,0,0,0,0,0,0,0,0,0,-1,734,330,0,0
-483,694,0,0,0,0,0,0,0,0,0,-1,741,330,0,0
-476,694,0,0,0,0,0,0,0,0,0,-1,748,330,0,0
-469,694,0,0,0,0,0,0,0,0,0,-1,755,330,0,0
-462,694,0,0,0,0,0,0,0,0,0,-1,762,330,0,0
-455,694,0,0,0,0,0,0,0,0,0,-1,769,330,0,0
-448,694,0,0,0,0,0,0,0,0,0,-1,776,330,0,0
-441,694,0,0,0,0,0,0,0,0,0,-1,783,330,0,0
-434,694,0,0,0,0,0,0,0,0,0,-1,790,330,0,0
-427,694,0,0,0,0,0,0,0,0,0,-1,797,330,0,0
-420,694,0,0,0,0,0,0,0,0,0,-1,804,330,0,0
-413,694,0,0,0,0,0,0,0,0,0,-1,811,330,0,0
-406,694,0,0,0,0,0,0,0,0,0,-1,818,330,0,0
-399,694,0,0,0,0,0,0,0,0,0,-1,825,330,0,0
-392,694,0,0,0,0,0,0,0,0,0,-1,832,330,0,0
-385,694,0,0,0,0,0,0,0,0,0,-1,839,330,0,0
-378,694,0,0,0,0,0,0,0,0,0,-1,846,330,0,0
-371,694,0,0,0,0,0,0,0,0,0,-1,853,330,0,0
-364,694,0,0,0,0,0,0,0,0,0,-1,860,330,0,0
-357,694,0,0,0,0,0,0,0,0,0,-1,867,330,0,0
-350,694,0,0,0,0,0,0,0,0,0,-1,874,330,0,0
-343,694,0,0,0,0,0,0,0,0,0,-1,881,330,0,0
-336,694,0,0,0,0,0,0,0,0,0,-1,888,330,0,0
-329,694,0,0,0,0,0,0,0,0,0,-1,895,330,0,0
-322,694,0,0,0,0,0,0,0,0,0,-1,902,330,0,0
-315,694,0,0,0,0,0,0,0,0,0,-1,909,330,0,0
-308,694,0,0,0,0,0,0,0,0,0,-1,916,330,0,0
-301,694,0,0,0,0,0,0,0,0,0,-1,923,330,0,0
-294,694,0,0,0,0,0,0,0,0,0,-1,930,330,0,0
-287,694,0,0,0,0,0,0,0,0,0,-1,937,330,0,0
-280,694,0,0,0,0,0,0,0,0,0,-1,944,330,0,0
-273,694,0,0,0,0,0,0,0,0,0,-1,951,330,0,0
-266,694,0,0,0,0,0,0,0,0,0,-1,958,330,0,0
-259,694,0,0,0,0,0,0,0,0,0,-1,965,330,0,0
-252,694,0,0,0,0,0,0,0,0,0,-1,972,330,0,0
-245,694,0,0,0,0,0,0,0,0,0,-1,979,330,0,0
-238,694,0,0,0,0,0,0,0,0,0,-1,986,330,0,0
-231,694,0,0,0,0,0,0,0,0,0,-1,993,330,0,0
-224,694,0,0,0,0,0,0,0,0,0,-1,1000,330,0,0
-217,694,0,0,0,0,0,0,0,0,0,-1,1007,330,0,0
-210,694,0,0,0,0,0,0,0,0,0,-1,1014,330,0,0
-203,694,0,0,0,0,0,0,0,0,0,-1,1021,330,0,0
-196,694,0,0,0,0,0,0,0,0,0,-1,1028,330,0,0
-189,694,0,0,0,0,0,0,0,0,0,-1,1035,330,0,0
-182,694,0,0,0,0,0,0,0,0,0,-1,1042,330,0,0
-175,694,0,0,0,0,0,0,0,0,0,-1,1049,330,0,0
-168,694,0,0,0,0,0,0,0,0,0,-1,1056,330,0,0
-161,694,0,0,0,0,0,0,0,0,0,-1,1063,330,0,0
-154,694,0,0,0,0,0,0,0,0,0,-1,1070,330,0,0
-147,694,0,0,0,0,0,0,0,0,0,-1,1077,330,0,0
-140,694,0,0,0,0,0,0,0,0,0,-1,1084,330,0,0
-133,694,0,0,0,0,0,0,0,0,0,-1,1091,330,0,0
-126,694,0,0,0,0,0,0,0,0,0,-1,1098,330,0,0
-119,694,0,0,0,0,0,0,0,0,0,-1,1105,330,0,0
-112,694,0,0,0,0,0,0,0,0,0,-1,1112,330,0,0
-105,694,2.5188,-19.3963,0,0,0,0,0,0,0,-1,1119,330,2.51882,19.3963
-98,694,1.34875,-10.1051,0,0,0,0,0,0,0,-1,1126,330,1.34874,10.1051
-91,694,6.62366,-46.8039,0,0,0,0,0,0,0,-1,1133,330,6.62363,46.8039
-84,694,0.0577393,-40.8823,0,0,0,0,0,0,0,-1,1140,330,0.0577026,40.8823
-77,694,-5.51379,-31.2714,0,0,0,0,0,0,0,-1,1147,330,-5.51383,31.2714
-70,694,-11.9945,-25.5143,0,0,0,0,0,0,0,-1,1154,330,-11.9945,25.5143
-63,694,-18.4752,-19.7572,0,0,0,0,0,0,0,-1,1161,330,-18.4752,19.7572
-56,694,-6.50623,-0.649139,0,0,0,0,0,0,0,-1,1168,330,-6.5062,0.649126
-49,694,-1.11426,0.0341797,0,0,0,0,0,0,0,-1,1175,330,-1.11424,-0.0341846
-42,694,-0.346313,-0.709595,0,0,0,0,0,0,0,-1,1182,330,-0.346298,0.709581
-35,694,-0.459106,-1.24713,0,0,0,0,0,0,0,-1,1189,330,-0.459142,1.24714
-28,694,-6.48413,-3.95972,0,0,0,0,0,0,0,-1,1196,330,-6.48414,3.9597
-21,694,31.5182,-74.39,0,0,0,0,0,0,0,-1,1203,330,31.5181,74.39
-14,694,7.92517,-122.674,0,0,0,0,0,0,0,-1,1210,330,7.92511,122.674
-7,694,7.75134,-122.815,0,0,0,0,0,0,0,-1,1217,330,7.75129,122.815
0,694,7.14978,-122.909,0,0,0,0,0,0,0,-1,1224,330,7.14975,122.909
7,694,7.41846,-122.763,0,0,0,0,0,0,0,-1,1231,330,7.41849,122.763
14,694,7.78088,-122.135,0,0,0,0,0,0,0,-1,1238,330,7.78094,122.135
21,694,6.76892,-120.556,0,0,0,0,0,0,0,-1,1245,330,6.76892,120.556
28,694,7.16833,-120.65,0,0,0,0,0,0,0,-1,1252,330,7.16829,120.65
35,694,7.62793,-120.881,0,0,0,0,0,0,0,-1,1259,330,7.62788,120.881
42,694,8.2395,-121.018,0,0,0,0,0,0,0,-1,1266,330,8.23955,121.018
49,694,8.58594,-121.055,0,0,0,0,0,0,0,-1,1273,330,8.58592,121.055
56,694,8.64148,-121.065,0,0,0,0,0,0,0,-1,1280,330,8.64148,121.065
63,694,8.6106,-120.929,0,0,0,0,0,0,0,-1,1287,330,8.6106,120.929
70,694,8.56128,-120.253,0,0,0,0,0,0,0,-1,1294,330,8.5613,120.253
77,694,8.91516,-119.88,0,0,0,0,0,0,0,-1,1301,330,8.91519,119.88
84,694,9.26904,-119.493,0,0,0,0,0,0,0,-1,1308,330,9.26907,119.493
91,694,9.6322,-119.327,0,0,0,0,0,0,0,-1,1315,330,9.63225,119.327
98,694,9.97595,-118.849,0,0,0,0,0,0,0,-1,1322,330,9.97595,118.849
105,694,10.3336,-118.418,0,0,0,0,0,0,0,-1,1329,330,10.3337,118.418
112,694,10.949,-118.03,0,0,0,0,0,0,0,-1,1336,330,10.949,118.03
119,694,11.6011,-117.631,0,0,0,0,0,0,0,-1,1343,330,11.601,117.631
126,694,12.0504,-117.05,0,0,0,0,0,0,0,-1,1350,330,12.0504,117.05
133,694,4.19275,-116.184,0,0,0,0,0,0,0,-1,1357,330,4.19273,116.184
140,694,9.5199,-117.237,0,0,0,0,0,0,0,-1,1364,330,9.51991,117.237
147,694,-6.99646,-112.223,0,0,0,0,0,0,0,-1,1371,330,-6.99642,112.223
154,694,-8.39124,-113.068,0,0,0,0,0,0,0,-1,1378,330,-8.39119,113.068
161,694,0.0187988,-38.6779,0,0,0,0,0,0,0,-1,1385,330,0.0187579,38.6779
168,694,30.451,0.196686,0,0,0,0,0,0,0,-1,1392,330,30.4511,-0.196674
175,694,31.0701,0.869873,0,0,0,0,0,0,0,-1,1399,330,31.07,-0.869874
182,694,8.29028,5.75238,0,0,0,0,0,0,0,-1,1406,330,8.29034,-5.75237
189,694,7.9801,4.46118,0,0,0,0,0,0,0,-1,1413,330,7.9801,-4.46118
196,694,7.39331,3.32632,0,0,0,0,0,0,0,-1,1420,330,7.39329,-3.32633
203,694,7.04492,2.20529,0,0,0,0,0,0,0,-1,1427,330,7.04496,-2.20529
210,694,6.44714,0.646912,0,0,0,0,0,0,0,-1,1434,330,6.44717,-0.646903
217,694,7.12061,-0.644958,0,0,0,0,0,0,0,-1,1441,330,7.12059,0.644961
224,694,6.74011,-1.70544,0,0,0,0,0,0,0,-1,1448,330,6.74013,1.70546
231,694,0,0,0,0,0,0,0,0,0,-1,1455,330,0,0
238,694,0,0,0,0,0,0,0,0,0,-1,1462,330,0,0
245,694,0,0,0,0,0,0,0,0,0,-1,1469,330,0,0
252,694,0,0,0,0,0,0,0,0,0,-1,1476,330,0,0
259,694,0,0,0,0,0,0,0,0,0,-1,1483,330,0,0
266,694,0,0,0,0,0,0,0,0,0,-1,1490,330,0,0
273,694,0,0,0,0,0,0,0,0,0,-1,1497,330,0,0
280,694,0,0,0,0,0,0,0,0,0,-1,1504,330,0,0
287,694,0,0,0,0,0,0,0,0,0,-1,1511,330,0,0
294,694,0,0,0,0,0,0,0,0,0,-1,1518,330,0,0
301,694,0,0,0,0,0,0,0,0,0,-1,1525,330,0,0
308,694,0,0,0,0,0,0,0,0,0,-1,1532,330,0,0
315,694,0,0,0,0,0,0,0,0,0,-1,1539,330,0,0
322,694,0,0,0,0,0,0,0,0,0,-1,1546,330,0,0
329,694,0,0,0,0,0,0,0,0,0,-1,1553,330,0,0
336,694,0,0,0,0,0,0,0,0,0,-1,1560,330,0,0
343,694,0,0,0,0,0,0,0,0,0,-1,1567,330,0,0
350,694,0,0,0,0,0,0,0,0,0,-1,1574,330,0,0
357,694,0,0,0,0,0,0,0,0,0,-1,1581,330,0,0
364,694,0,0,0,0,0,0,0,0,0,-1,1588,330,0,0
371,694,0,0,0,0,0,0,0,0,0,-1,1595,330,0,0
378,694,0,0,0,0,0,0,0,0,0,-1,1602,330,0,0
385,694,0,0,0,0,0,0,0,0,0,-1,1609,330,0,0
392,694,0,0,0,0,0,0,0,0,0,-1,1616,330,0,0
399,694,0,0,0,0,0,0,0,0,0,-1,1623,330,0,0
406,694,0,0,0,0,0,0,0,0,0,-1,1630,330,0,0
413,694,0,0,0,0,0,0,0,0,0,-1,1637,330,0,0
420,694,0,0,0,0,0,0,0,0,0,-1,1644,330,0,0
427,694,0,0,0,0,0,0,0,0,0,-1,1651,330,0,0
434,694,0,0,0,0,0,0,0,0,0,-1,1658,330,0,0
441,694,0,0,0,0,0,0,0,0,0,-1,1665,330,0,0
448,694,0,0,0,0,0,0,0,0,0,-1,1672,330,0,0
455,694,0,0,0,0,0,0,0,0,0,-1,1679,330,0,0
462,694,0,0,0,0,0,0,0,0,0,-1,1686,330,0,0
469,694,0,0,0,0,0,0,0,0,0,-1,1693,330,0,0
476,694,0,0,0,0,0,0,0,0,0,-1,1700,330,0,0
483,694,0,0,0,0,0,0,0,0,0,-1,1707,330,0,0
490,694,0,0,0,0,0,0,0,0,0,-1,1714,330,0,0
497,694,0,0,0,0,0,0,0,0,0,-1,1721,330,0,0
504,694,0,0,0,0,0,0,0,0,0,-1,1728,330,0,0
511,694,0,0,0,0,0,0,0,0,0,-1,1735,330,0,0
518,694,0,0,0,0,0,0,0,0,0,-1,1742,330,0,0
525,694,0,0,0,0,0,0,0,0,0,-1,1749,330,0,0
532,694,0,0,0,0,0,0,0,0,0,-1,1756,330,0,0
539,694,0,0,0,0,0,0,0,0,0,-1,1763,330,0,0
546,694,0,0,0,0,0,0,0,0,0,-1,1770,330,0,0
553,694,0,0,0,0,0,0,0,0,0,-1,1777,330,0,0
560,694,0,0,0,0,0,0,0,0,0,-1,1784,330,0,0
567,694,0,0,0,0,0,0,0,0,0,-1,1791,330,0,0
574,694,0,0,0,0,0,0,0,0,0,-1,1798,330,0,0
581,694,0,0,0,0,0,0,0,0,0,-1,1805,330,0,0
588,694,0,0,0,0,0,0,0,0,0,-1,1812,330,0,0
595,694,0,0,0,0,0,0,0,0,0,-1,1819,330,0,0
602,694,0,0,0,0,0,0,0,0,0,-1,1826,330,0,0
609,694,0,0,0,0,0,0,0,0,0,-1,1833,330,0,0
616,694,0,0,0,0,0,0,0,0,0,-1,1840,330,0,0
623,694,0,0,0,0,0,0,0,0,0,-1,1847,330,0,0
630,694,0,0,0,0,0,0,0,0,0,-1,1854,330,0,0
637,694,0,0,0,0,0,0,0,0,0,-1,1861,330,0,0
644,694,0,0,0,0,0,0,0,0,0,-1,1868,330,0,0
651,694,0,0,0,0,0,0,0,0,0,-1,1875,330,0,0
658,694,0,0,0,0,0,0,0,0,0,-1,1882,330,0,0
665,694,0,0,0,0,0,0,0,0,0,-1,1889,330,0,0
672,694,0,0,0,0,0,0,0,0,0,-1,1896,330,0,0
679,694,0,0,0,0,0,0,0,0,0,-1,1903,330,0,0
686,694,0,0,0,0,0,0,0,0,0,-1,1910,330,0,0
693,694,0,0,0,0,0,0,0,0,0,-1,1917,330,0,0
700,694,0,0,0,0,0,0,0,0,0,-1,1924,330,0,0
707,694,0,0,0,0,0,0,0,0,0,-1,1931,330,0,0
714,694,0,0,0,0,0,0,0,0,0,-1,1938,330,0,0
721,694,0,0,0,0,0,0,0,0,0,-1,1945,330,0,0
728,694,0,0,0,0,0,0,0,0,0,-1,1952,330,0,0
735,694,0,0,0,0,0,0,0,0,0,-1,1959,330,0,0
742,694,0,0,0,0,0,0,0,0,0,-1,1966,330,0,0
749,694,0,0,0,0,0,0,0,0,0,-1,1973,330,0,0
756,694,0,0,0,0,0,0,0,0,0,-1,1980,330,0,0
763,694,0,0,0,0,0,0,0,0,0,-1,1987,330,0,0
770,694,0,0,0,0,0,0,0,0,0,-1,1994,330,0,0
777,694,0,0,0,0,0,0,0,0,0,-1,2001,330,0,0
784,694,0,0,0,0,0,0,0,0,0,-1,2008,330,0,0
791,694,0,0,0,0,0,0,0,0,0,-1,2015,330,0,0
798,694,0,0,0,0,0,0,0,0,0,-1,2022,330,0,0
805,694,0,0,0,0,0,0,0,0,0,-1,2029,330,0,0
812,694,0,0,0,0,0,0,0,0,0,-1,2036,330,0,0
-700,687,0,0,0,0,0,0,0,0,0,-1,524,337,0,0
-693,687,0,0,0,0,0,0,0,0,0,-1,531,337,0,0
-686,687,0,0,0,0,0,0,0,0,0,-1,538,337,0,0
-679,687,0,0,0,0,0,0,0,0,0,-1,545,337,0,0
-672,687,0,0,0,0,0,0,0,0,0,-1,552,337,0,0
-665,687,0,0,0,0,0,0,0,0,0,-1,559,337,0,0
-658,687,0,0,0,0,0,0,0,0,0,-1,566,337,0,0
-651,687,0,0,0,0,0,0,0,0,0,-1,573,337,0,0
-644,687,0,0,0,0,0,0,0,0,0,-1,580,337,0,0
-637,687,0,0,0,0,0,0,0,0,0,-1,587,337,0,0
-630,687,0,0,0,0,0,0,0,0,0,-1,594,337,0,0
-623,687,0,0,0,0,0,0,0,0,0,-1,601,337,0,0
-616,687,0,0,0,0,0,0,0,0,0,-1,608,337,0,0
-609,687,0,0,0,0,0,0,0,0,0,-1,615,337,0,0
-602,687,0,0,0,0,0,0,0,0,0,-1,622,337,0,0
-595,687,0,0,0,0,0,0,0,0,0,-1,629,337,0,0
-588,687,0,0,0,0,0,0,0,0,0,-1,636,337,0,0
-581,687,0,0,0,0,0,0,0,0,0,-1,643,337,0,0
-574,687,0,0,0,0,0,0,0,0,0,-1,650,337,0,0
-567,687,0,0,0,0,0,0,0,0,0,-1,657,337,0,0
-560,687,0,0,0,0,0,0,0,0,0,-1,664,337,0,0
-553,687,0,0,0,0,0,0,0,0,0,-1,671,337,0,0
-546,687,0,0,0,0,0,0,0,0,0,-1,678,337,0,0
-539,687,0,0,0,0,0,0,0,0,0,-1,685,337,0,0
-532,687,0,0,0,0,0,0,0,0,0,-1,692,337,0,0
-525,687,0,0,0,0,0,0,0,0,0,-1,699,337,0,0
-518,687,0,0,0,0,0,0,0,0,0,-1,706,337,0,0
-511,687,0,0,0,0,0,0,0,0,0,-1,713,337,0,0
-504,687,0,0,0,0,0,0,0,0,0,-1,720,337,0,0
-497,687,0,0,0,0,0,0,0,0,0,-1,727,337,0,0
-490,687,0,0,0,0,0,0,0,0,0,-1,734,337,0,0
-483,687,0,0,0,0,0,0,0,0,0,-1,741,337,0,0
-476,687,0,0,0,0,0,0,0,0,0,-1,748,337,0,0
-469,687,0,0,0,0,0,0,0,0,0,-1,755,337,0,0
-462,687,0,0,0,0,0,0,0,0,0,-1,762,337,0,0
-455,687,0,0,0,0,0,0,0,0,0,-1,769,337,0,0
-448,687,0,0,0,0,0,0,0,0,0,-1,776,337,0,0
-441,687,0,0,0,0,0,0,0,0,0,-1,783,337,0,0
-434,687,0,0,0,0,0,0,0,0,0,-1,790,337,0,0
-427,687,0,0,0,0,0,0,0,0,0,-1,797,337,0,0
-420,687,0,0,0,0,0,0,0,0,0,-1,804,337,0,0
-413,687,0,0,0,0,0,0,0,0,0,-1,811,337,0,0
-406,687,0,0,0,0,0,0,0,0,0,-1,818,337,0,0
-399,687,0,0,0,0,0,0,0,0,0,-1,825,337,0,0
-392,687,0,0,0,0,0,0,0,0,0,-1,832,337,0,0
-385,687,0,0,0,0,0,0,0,0,0,-1,839,337,0,0
-378,687,0,0,0,0,0,0,0,0,0,-1,846,337,0,0
-371,687,0,0,0,0,0,0,0,0,0,-1,853,337,0,0
-364,687,0,0,0,0,0,0,0,0,0,-1,860,337,0,0
-357,687,0,0,0,0,0,0,0,0,0,-1,867,337,0,0
-350,687,0,0,0,0,0,0,0,0,0,-1,874,337,0,0
-343,687,0,0,0,0,0,0,0,0,0,-1,881,337,0,0
-336,687,0,0,0,0,0,0,0,0,0,-1,888,337,0,0
-329,687,0,0,0,0,0,0,0,0,0,-1,895,337,0,0
-322,687,0,0,0,0,0,0,0,0,0,-1,902,337,0,0
-315,687,0,0,0,0,0,0,0,0,0,-1,909,337,0,0
-308,687,0,0,0,0,0,0,0,0,0,-1,916,337,0,0
-301,687,0,0,0,0,0,0,0,0,0,-1,923,337,0,0
-294,687,0,0,0,0,0,0,0,0,0,-1,930,337,0,0
-287,687,0,0,0,0,0,0,0,0,0,-1,937,337,0,0
-280,687,0,0,0,0,0,0,0,0,0,-1,944,337,0,0
-273,687,0,0,0,0,0,0,0,0,0,-1,951,337,0,0
-266,687,0,0,0,0,0,0,0,0,0,-1,958,337,0,0
-259,687,0,0,0,0,0,0,0,0,0,-1,965,337,0,0
-252,687,0,0,0,0,0,0,0,0,0,-1,972,337,0,0
-245,687,0,0,0,0,0,0,0,0,0,-1,979,337,0,0
-238,687,0,0,0,0,0,0,0,0,0,-1,986,337,0,0
-231,687,0,0,0,0,0,0,0,0,0,-1,993,337,0,0
-224,687,0,0,0,0,0,0,0,0,0,-1,1000,337,0,0
-217,687,0,0,0,0,0,0,0,0,0,-1,1007,337,0,0
-210,687,0,0,0,0,0,0,0,0,0,-1,1014,337,0,0
-203,687,0,0,0,0,0,0,0,0,0,-1,1021,337,0,0
-196,687,0,0,0,0,0,0,0,0,0,-1,1028,337,0,0
-189,687,0,0,0,0,0,0,0,0,0,-1,1035,337,0,0
-182,687,0,0,0,0,0,0,0,0,0,-1,1042,337,0,0
-175,687,0,0,0,0,0,0,0,0,0,-1,1049,337,0,0
-168,687,0,0,0,0,0,0,0,0,0,-1,1056,337,0,0
-161,687,0,0,0,0,0,0,0,0,0,-1,1063,337,0,0
-154,687,0,0,0,0,0,0,0,0,0,-1,1070,337,0,0
-147,687,0,0,0,0,0,0,0,0,0,-1,1077,337,0,0
-140,687,0,0,0,0,0,0,0,0,0,-1,1084,337,0,0
-133,687,7.93958,-37.548,0,0,0,0,0,0,0,-1,1091,337,7.93957,37.548
-126,687,0.688477,-38.7298,0,0,0,0,0,0,0,-1,1098,337,0.688509,38.7298
-119,687,7.70825,-33.9236,0,0,0,0,0,0,0,-1,1105,337,7.70826,33.9236
-112,687,7.99866,-32.2983,0,0,0,0,0,0,0,-1,1112,337,7.99866,32.2983
-105,687,1.3208,-29.8313,0,0,0,0,0,0,0,-1,1119,337,1.3208,29.8313
-98,687,13.7111,-47.5645,0,0,0,0,0,0,0,-1,1126,337,13.711,47.5645
-91,687,7.22083,-41.1667,0,0,0,0,0,0,0,-1,1133,337,7.22079,41.1666
-84,687,0.745117,-35.0345,0,0,0,0,0,0,0,-1,1140,337,0.745155,35.0345
-77,687,-5.74353,-28.9553,0,0,0,0,0,0,0,-1,1147,337,-5.74357,28.9553
-70,687,-11.6842,-19.8473,0,0,0,0,0,0,0,-1,1154,337,-11.6842,19.8473
-63,687,-17.6757,-14.8966,0,0,0,0,0,0,0,-1,1161,337,-17.6756,14.8966
-56,687,-18.104,7.81931,0,0,0,0,0,0,0,-1,1168,337,-18.104,-7.81931
-49,687,-15.6449,-9.94391,0,0,0,0,0,0,0,-1,1175,337,-15.6449,9.94392
-42,687,-4.2019,-0.405609,0,0,0,0,0,0,0,-1,1182,337,-4.20192,0.405614
-35,687,-4.42273,-0.688171,0,0,0,0,0,0,0,-1,1189,337,-4.42276,0.688178
-28,687,-1.14038,-1.39072,0,0,0,0,0,0,0,-1,1196,337,-1.14035,1.3907
-21,687,16.6345,-105.042,0,0,0,0,0,0,0,-1,1203,337,16.6345,105.042
-14,687,7.59106,-123.259,0,0,0,0,0,0,0,-1,1210,337,7.59103,123.259
-7,687,7.42224,-123.35,0,0,0,0,0,0,0,-1,1217,337,7.42229,123.35
0,687,7.39587,-123.522,0,0,0,0,0,0,0,-1,1224,337,7.39589,123.522
7,687,7.6853,-123.321,0,0,0,0,0,0,0,-1,1231,337,7.68532,123.321
14,687,7.70288,-122.894,0,0,0,0,0,0,0,-1,1238,337,7.70289,122.894
21,687,7.54065,-122.255,0,0,0,0,0,0,0,-1,1245,337,7.54062,122.255
28,687,7.47327,-121.694,0,0,0,0,0,0,0,-1,1252,337,7.47321,121.694
35,687,7.8136,-121.703,0,0,0,0,0,0,0,-1,1259,337,7.81359,121.703
42,687,8.28809,-121.786,0,0,0,0,0,0,0,-1,1266,337,8.28803,121.786
49,687,8.6958,-121.88,0,0,0,0,0,0,0,-1,1273,337,8.69581,121.88
56,687,8.67859,-121.752,0,0,0,0,0,0,0,-1,1280,337,8.6786,121.752
63,687,8.66138,-121.624,0,0,0,0,0,0,0,-1,1287,337,8.66139,121.624
70,687,8.69922,-120.527,0,0,0,0,0,0,0,-1,1294,337,8.69924,120.527
77,687,8.96631,-120.172,0,0,0,0,0,0,0,-1,1301,337,8.96626,120.172
84,687,9.16711,-119.717,0,0,0,0,0,0,0,-1,1308,337,9.16708,119.717
91,687,10.5623,-120.067,0,0,0,0,0,0,0,-1,1315,337,10.5623,120.067
98,687,11.1895,-119.641,0,0,0,0,0,0,0,-1,1322,337,11.1895,119.641
105,687,11.7587,-119.117,0,0,0,0,0,0,0,-1,1329,337,11.7587,119.117
112,687,12.2915,-118.735,0,0,0,0,0,0,0,-1,1336,337,12.2914,118.735
119,687,12.8386,-118.392,0,0,0,0,0,0,0,-1,1343,337,12.8386,118.392
126,687,13.3451,-117.901,0,0,0,0,0,0,0,-1,1350,337,13.3451,117.901
133,687,13.8284,-117.484,0,0,0,0,0,0,0,-1,1357,337,13.8283,117.484
140,687,3.97791,-118.856,0,0,0,0,0,0,0,-1,1364,337,3.97789,118.856
147,687,-6.0741,-114.711,0,0,0,0,0,0,0,-1,1371,337,-6.07408,114.711
154,687,3.3324,-99.3925,0,0,0,0,0,0,0,-1,1378,337,3.33246,99.3925
161,687,29.3895,-1.90628,0,0,0,0,0,0,0,-1,1385,337,29.3895,1.90628
168,687,29.8564,-1.19434,0,0,0,0,0,0,0,-1,1392,337,29.8564,1.19434
175,687,30.3419,-0.453583,0,0,0,0,0,0,0,-1,1399,337,30.3419,0.45357
182,687,6.67249,0.289917,0,0,0,0,0,0,0,-1,1406,337,6.67247,-0.289916
189,687,7.76062,4.53635,0,0,0,0,0,0,0,-1,1413,337,7.76064,-4.53636
196,687,6.99048,3.2966,0,0,0,0,0,0,0,-1,1420,337,6.99046,-3.2966
203,687,6.36499,2.1445,0,0,0,0,0,0,0,-1,1427,337,6.36499,-2.14451
210,687,6.68066,0.674652,0,0,0,0,0,0,0,-1,1434,337,6.68062,-0.674655
217,687,5.99683,-0.630493,0,0,0,0,0,0,0,-1,1441,337,5.99684,0.630497
224,687,5.52917,0.524902,0,0,0,0,0,0,0,-1,1448,337,5.5292,-0.524915
231,687,5.85583,-1.73651,0,0,0,0,0,0,0,-1,1455,337,5.85577,1.73651
238,687,5.96582,-2.96774,0,0,0,0,0,0,0,-1,1462,337,5.96577,2.96773
245,687,1.28259,2.32211,0,0,0,0,0,0,0,-1,1469,337,1.28258,-2.32211
252,687,1.97278,3.88422,0,0,0,0,0,0,0,-1,1476,337,1.97281,-3.88421
259,687,0,0,0,0,0,0,0,0,0,-1,1483,337,0,0
266,687,0,0,0,0,0,0,0,0,0,-1,1490,337,0,0
273,687,0,0,0,0,0,0,0,0,0,-1,1497,337,0,0
280,687,0,0,0,0,0,0,0,0,0,-1,1504,337,0,0
287,687,0,0,0,0,0,0,0,0,0,-1,1511,337,0,0
294,687,0,0,0,0,0,0,0,0,0,-1,1518,337,0,0
301,687,0,0,0,0,0,0,0,0,0,-1,1525,337,0,0
308,687,0,0,0,0,0,0,0,0,0,-1,1532,337,0,0
315,687,0,0,0,0,0,0,0,0,0,-1,1539,337,0,0
322,687,0,0,0,0,0,0,0,0,0,-1,1546,337,0,0
329,687,0,0,0,0,0,0,0,0,0,-1,1553,337,0,0
336,687,0,0,0,0,0,0,0,0,0,-1,1560,337,0,0
343,687,0,0,0,0,0,0,0,0,0,-1,1567,337,0,0
350,687,0,0,0,0,0,0,0,0,0,-1,1574,337,0,0
357,687,0,0,0,0,0,0,0,0,0,-1,1581,337,0,0
364,687,0,0,0,0,0,0,0,0,0,-1,1588,337,0,0
371,687,0,0,0,0,0,0,0,0,0,-1,1595,337,0,0
378,687,0,0,0,0,0,0,0,0,0,-1,1602,337,0,0
385,687,0,0,0,0,0,0,0,0,0,-1,1609,337,0,0
392,687,0,0,0,0,0,0,0,0,0,-1,1616,337,0,0
399,687,0,0,0,0,0,0,0,0,0,-1,1623,337,0,0
406,687,0,0,0,0,0,0,0,0,0,-1,1630,337,0,0
413,687,0,0,0,0,0,0,0,0,0,-1,1637,337,0,0
420,687,0,0,0,0,0,0,0,0,0,-1,1644,337,0,0
427,687,0,0,0,0,0,0,0,0,0,-1,1651,337,0,0
434,687,0,0,0,0,0,0,0,0,0,-1,1658,337,0,0
441,687,0,0,0,0,0,0,0,0,0,-1,1665,337,0,0
448,687,0,0,0,0,0,0,0,0,0,-1,1672,337,0,0
455,687,0,0,0,0,0,0,0,0,0,-1,1679,337,0,0
462,687,0,0,0,0,0,0,0,0,0,-1,1686,337,0,0
469,687,0,0,0,0,0,0,0,0,0,-1,1693,337,0,0
476,687,0,0,0,0,0,0,0,0,0,-1,1700,337,0,0
483,687,0,0,0,0,0,0,0,0,0,-1,1707,337,0,0
490,687,0,0,0,0,0,0,0,0,0,-1,1714,337,0,0
497,687,0,0,0,0,0,0,0,0,0,-1,1721,337,0,0
504,687,0,0,0,0,0,0,0,0,0,-1,1728,337,0,0
511,687,0,0,0,0,0,0,0,0,0,-1,1735,337,0,0
518,687,0,0,0,0,0,0,0,0,0,-1,1742,337,0,0
525,687,0,0,0,0,0,0,0,0,0,-1,1749,337,0,0
532,687,0,0,0,0,0,0,0,0,0,-1,1756,337,0,0
539,687,0,0,0,0,0,0,0,0,0,-1,1763,337,0,0
546,687,0,0,0,0,0,0,0,0,0,-1,1770,337,0,0
553,687,0,0,0,0,0,0,0,0,0,-1,1777,337,0,0
560,687,0,0,0,0,0,0,0,0,0,-1,1784,337,0,0
567,687,0,0,0,0,0,0,0,0,0,-1,1791,337,0,0
574,687,0,0,0,0,0,0,0,0,0,-1,1798,337,0,0
581,687,0,0,0,0,0,0,0,0,0,-1,1805,337,0,0
588,687,0,0,0,0,0,0,0,0,0,-1,1812,337,0,0
595,687,0,0,0,0,0,0,0,0,0,-1,1819,337,0,0
602,687,0,0,0,0,0,0,0,0,0,-1,1826,337,0,0
609,687,0,0,0,0,0,0,0,0,0,-1,1833,337,0,0
616,687,0,0,0,0,0,0,0,0,0,-1,1840,337,0,0
623,687,0,0,0,0,0,0,0,0,0,-1,1847,337,0,0
630,687,0,0,0,0,0,0,0,0,0,-1,1854,337,0,0
637,687,0,0,0,0,0,0,0,0,0,-1,1861,337,0,0
644,687,0,0,0,0,0,0,0,0,0,-1,1868,337,0,0
651,687,0,0,0,0,0,0,0,0,0,-1,1875,337,0,0
658,687,0,0,0,0,0,0,0,0,0,-1,1882,337,0,0
665,687,0,0,0,0,0,0,0,0,0,-1,1889,337,0,0
672,687,0,0,0,0,0,0,0,0,0,-1,1896,337,0,0
679,687,0,0,0,0,0,0,0,0,0,-1,1903,337,0,0
686,687,0,0,0,0,0,0,0,0,0,-1,1910,337,0,0
693,687,0,0,0,0,0,0,0,0,0,-1,1917,337,0,0
700,687,0,0,0,0,0,0,0,0,0,-1,1924,337,0,0
707,687,0,0,0,0,0,0,0,0,0,-1,1931,337,0,0
714,687,0,0,0,0,0,0,0,0,0,-1,1938,337,0,0
721,687,0,0,0,0,0,0,0,0,0,-1,1945,337,0,0
728,687,0,0,0,0,0,0,0,0,0,-1,1952,337,0,0
735,687,0,0,0,0,0,0,0,0,0,-1,1959,337,0,0
742,687,0,0,0,0,0,0,0,0,0,-1,1966,337,0,0
749,687,0,0,0,0,0,0,0,0,0,-1,1973,337,0,0
756,687,0,0,0,0,0,0,0,0,0,-1,1980,337,0,0
763,687,0,0,0,0,0,0,0,0,0,-1,1987,337,0,0
770,687,0,0,0,0,0,0,0,0,0,-1,1994,337,0,0
777,687,0,0,0,0,0,0,0,0,0,-1,2001,337,0,0
784,687,0,0,0,0,0,0,0,0,0,-1,2008,337,0,0
791,687,0,0,0,0,0,0,0,0,0,-1,2015,337,0,0
798,687,0,0,0,0,0,0,0,0,0,-1,2022,337,0,0
805,687,0,0,0,0,0,0,0,0,0,-1,2029,337,0,0
812,687,0,0,0,0,0,0,0,0,0,-1,2036,337,0,0
-700,680,0,0,0,0,0,0,0,0,0,-1,524,344,0,0
-693,680,0,0,0,0,0,0,0,0,0,-1,531,344,0,0
-686,680,0,0,0,0,0,0,0,0,0,-1,538,344,0,0
-679,680,0,0,0,0,0,0,0,0,0,-1,545,344,0,0
-672,680,0,0,0,0,0,0,0,0,0,-1,552,344,0,0
-665,680,0,0,0,0,0,0,0,0,0,-1,559,344,0,0
-658,680,0,0,0,0,0,0,0,0,0,-1,566,344,0,0
-651,680,0,0,0,0,0,0,0,0,0,-1,573,344,0,0
-644,680,0,0,0,0,0,0,0,0,0,-1,580,344,0,0
-637,680,0,0,0,0,0,0,0,0,0,-1,587,344,0,0
-630,680,0,0,0,0,0,0,0,0,0,-1,594,344,0,0
-623,680,0,0,0,0,0,0,0,0,0,-1,601,344,0,0
-616,680,0,0,0,0,0,0,0,0,0,-1,608,344,0,0
-609,680,0,0,0,0,0,0,0,0,0,-1,615,344,0,0
-602,680,0,0,0,0,0,0,0,0,0,-1,622,344,0,0
-595,680,0,0,0,0,0,0,0,0,0,-1,629,344,0,0
-588,680,0,0,0,0,0,0,0,0,0,-1,636,344,0,0
-581,680,0,0,0,0,0,0,0,0,0,-1,643,344,0,0
-574,680,0,0,0,0,0,0,0,0,0,-1,650,344,0,0
-567,680,0,0,0,0,0,0,0,0,0,-1,657,344,0,0
-560,680,0,0,0,0,0,0,0,0,0,-1,664,344,0,0
-553,680,0,0,0,0,0,0,0,0,0,-1,671,344,0,0
-546,680,0,0,0,0,0,0,0,0,0,-1,678,344,0,0
-539,680,0,0,0,0,0,0,0,0,0,-1,685,344,0,0
-532,680,0,0,0,0,0,0,0,0,0,-1,692,344,0,0
-525,680,0,0,0,0,0,0,0,0,0,-1,699,344,0,0
-518,680,0,0,0,0,0,0,0,0,0,-1,706,344,0,0
-511,680,0,0,0,0,0,0,0,0,0,-1,713,344,0,0
-504,680,0,0,0,0,0,0,0,0,0,-1,720,344,0,0
-497,680,0,0,0,0,0,0,0,0,0,-1,727,344,0,0
-490,680,0,0,0,0,0,0,0,0,0,-1,734,344,0,0
-483,680,0,0,0,0,0,0,0,0,0,-1,741,344,0,0
-476,680,0,0,0,0,0,0,0,0,0,-1,748,344,0,0
-469,680,0,0,0,0,0,0,0,0,0,-1,755,344,0,0
-462,680,0,0,0,0,0,0,0,0,0,-1,762,344,0,0
-455,680,0,0,0,0,0,0,0,0,0,-1,769,344,0,0
-448,680,0,0,0,0,0,0,0,0,0,-1,776,344,0,0
-441,680,0,0,0,0,0,0,0,0,0,-1,783,344,0,0
-434,680,0,0,0,0,0,0,0,0,0,-1,790,344,0,0
-427,680,0,0,0,0,0,0,0,0,0,-1,797,344,0,0
-420,680,0,0,0,0,0,0,0,0,0,-1,804,344,0,0
-413,680,0,0,0,0,0,0,0,0,0,-1,811,344,0,0
-406,680,0,0,0,0,0,0,0,0,0,-1,818,344,0,0
-399,680,0,0,0,0,0,0,0,0,0,-1,825,344,0,0
-392,680,0,0,0,0,0,0,0,0,0,-1,832,344,0,0
-385,680,0,0,0,0,0,0,0,0,0,-1,839,344,0,0
-378,680,0,0,0,0,0,0,0,0,0,-1,846,344,0,0
-371,680,0,0,0,0,0,0,0,0,0,-1,853,344,0,0
-364,680,0,0,0,0,0,0,0,0,0,-1,860,344,0,0
-357,680,0,0,0,0,0,0,0,0,0,-1,867,344,0,0
-350,680,0,0,0,0,0,0,0,0,0,-1,874,344,0,0
-343,680,0,0,0,0,0,0,0,0,0,-1,881,344,0,0
-336,680,0,0,0,0,0,0,0,0,0,-1,888,344,0,0
-329,680,0,0,0,0,0,0,0,0,0,-1,895,344,0,0
-322,680,0,0,0,0,0,0,0,0,0,-1,902,344,0,0
-315,680,0,0,0,0,0,0,0,0,0,-1,909,344,0,0
-308,680,0,0,0,0,0,0,0,0,0,-1,916,344,0,0
-301,680,0,0,0,0,0,0,0,0,0,-1,923,344,0,0
-294,680,0,0,0,0,0,0,0,0,0,-1,930,344,0,0
-287,680,0,0,0,0,0,0,0,0,0,-1,937,344,0,0
-280,680,0,0,0,0,0,0,0,0,0,-1,944,344,0,0
-273,680,0,0,0,0,0,0,0,0,0,-1,951,344,0,0
-266,680,0,0,0,0,0,0,0,0,0,-1,958,344,0,0
-259,680,0,0,0,0,0,0,0,0,0,-1,965,344,0,0
-252,680,0,0,0,0,0,0,0,0,0,-1,972,344,0,0
-245,680,0,0,0,0,0,0,0,0,0,-1,979,344,0,0
-238,680,0,0,0,0,0,0,0,0,0,-1,986,344,0,0
-231,680,0,0,0,0,0,0,0,0,0,-1,993,344,0,0
-224,680,0,0,0,0,0,0,0,0,0,-1,1000,344,0,0
-217,680,0,0,0,0,0,0,0,0,0,-1,1007,344,0,0
-210,680,0,0,0,0,0,0,0,0,0,-1,1014,344,0,0
-203,680,0,0,0,0,0,0,0,0,0,-1,1021,344,0,0
-196,680,0,0,0,0,0,0,0,0,0,-1,1028,344,0,0
-189,680,0,0,0,0,0,0,0,0,0,-1,1035,344,0,0
-182,680,0,0,0,0,0,0,0,0,0,-1,1042,344,0,0
-175,680,0,0,0,0,0,0,0,0,0,-1,1049,344,0,0
-168,680,0,0,0,0,0,0,0,0,0,-1,1056,344,0,0
-161,680,0,0,0,0,0,0,0,0,0,-1,1063,344,0,0
-154,680,2.25244,-29.1442,0,0,0,0,0,0,0,-1,1070,344,2.25241,29.1442
-147,680,9.29614,-33.0369,0,0,0,0,0,0,0,-1,1077,344,9.29612,33.0369
-140,680,6.98022,-36.6899,0,0,0,0,0,0,0,-1,1084,344,6.98023,36.6899
-133,680,1.85693,-39.7233,0,0,0,0,0,0,0,-1,1091,344,1.85699,39.7233
-126,680,2.30017,-38.3751,0,0,0,0,0,0,0,-1,1098,344,2.30011,38.3751
-119,680,2.74329,-37.0269,0,0,0,0,0,0,0,-1,1105,344,2.74323,37.0269
-112,680,7.7467,-32.4407,0,0,0,0,0,0,0,-1,1112,344,7.74668,32.4407
-105,680,20.6371,-48.461,0,0,0,0,0,0,0,-1,1119,344,20.6371,48.461
-98,680,14.2684,-41.9997,0,0,0,0,0,0,0,-1,1126,344,14.2685,41.9997
-91,680,7.89648,-35.5147,0,0,0,0,0,0,0,-1,1133,344,7.8965,35.5147
-84,680,1.47168,-29.471,0,0,0,0,0,0,0,-1,1140,344,1.47163,29.471
-77,680,-4.95337,-23.3355,0,0,0,0,0,0,0,-1,1147,344,-4.9534,23.3356
-70,680,-11.5099,-17.4337,0,0,0,0,0,0,0,-1,1154,344,-11.5098,17.4338
-63,680,-17.2391,-1.43134,0,0,0,0,0,0,0,-1,1161,344,-17.2392,1.43133
-56,680,-6.96912,-8.83356,0,0,0,0,0,0,0,-1,1168,344,-6.96907,8.83354
-49,680,-6.7677,-2.24063,0,0,0,0,0,0,0,-1,1175,344,-6.76772,2.24063
-42,680,-1.02368,0.618805,0,0,0,0,0,0,0,-1,1182,344,-1.0237,-0.618797
-35,680,-0.947876,-0.942719,0,0,0,0,0,0,0,-1,1189,344,-0.947842,0.942731
-28,680,-1.46118,-1.10574,0,0,0,0,0,0,0,-1,1196,344,-1.4612,1.10575
-21,680,15.6656,-104.844,0,0,0,0,0,0,0,-1,1203,344,15.6656,104.844
-14,680,6.229,-123.017,0,0,0,0,0,0,0,-1,1210,344,6.22897,123.017
-7,680,6.86194,-123.248,0,0,0,0,0,0,0,-1,1217,344,6.86191,123.248
0,680,7.4541,-124.166,0,0,0,0,0,0,0,-1,1224,344,7.45405,124.166
7,680,7.77734,-123.949,0,0,0,0,0,0,0,-1,1231,344,7.77733,123.949
14,680,7.62488,-123.653,0,0,0,0,0,0,0,-1,1238,344,7.62484,123.653
21,680,11.2233,-121.43,0,0,0,0,0,0,0,-1,1245,344,11.2232,121.43
28,680,7.43188,-122.852,0,0,0,0,0,0,0,-1,1252,344,7.43194,122.852
35,680,7.92969,-122.551,0,0,0,0,0,0,0,-1,1259,344,7.92966,122.551
42,680,8.40479,-122.638,0,0,0,0,0,0,0,-1,1266,344,8.40477,122.638
49,680,7.47424,-160.77,0,0,0,0,0,0,0,-1,1273,344,7.47421,160.77
56,680,5.9436,-190.367,0,0,0,0,0,0,0,-1,1280,344,5.94364,190.367
63,680,8.76953,-122.134,0,0,0,0,0,0,0,-1,1287,344,8.76958,122.134
70,680,8.71704,-121.625,0,0,0,0,0,0,0,-1,1294,344,8.71704,121.625
77,680,8.31482,-121.182,0,0,0,0,0,0,0,-1,1301,344,8.31482,121.182
84,680,11.0287,-121.975,0,0,0,0,0,0,0,-1,1308,344,11.0287,121.975
91,680,11.4004,-121.108,0,0,0,0,0,0,0,-1,1315,344,11.4004,121.108
98,680,11.7721,-120.242,0,0,0,0,0,0,0,-1,1322,344,11.7721,120.242
105,680,12.9456,-119.966,0,0,0,0,0,0,0,-1,1329,344,12.9456,119.966
112,680,13.5817,-119.494,0,0,0,0,0,0,0,-1,1336,344,13.5817,119.494
119,680,14.1455,-119.18,0,0,0,0,0,0,0,-1,1343,344,14.1456,119.18
126,680,14.6399,-118.752,0,0,0,0,0,0,0,-1,1350,344,14.6398,118.752
133,680,5.18445,-120.769,0,0,0,0,0,0,0,-1,1357,344,5.18441,120.769
140,680,4.07813,-102.08,0,0,0,0,0,0,0,-1,1364,344,4.0781,102.08
147,680,4.32385,-99.3212,0,0,0,0,0,0,0,-1,1371,344,4.32389,99.3212
154,680,0.195801,-86.2149,0,0,0,0,0,0,0,-1,1378,344,0.19576,86.2149
161,680,-2.63489,-88.0134,0,0,0,0,0,0,0,-1,1385,344,-2.63486,88.0134
168,680,29.4142,-2.51651,0,0,0,0,0,0,0,-1,1392,344,29.4142,2.51652
175,680,6.66541,0.942078,0,0,0,0,0,0,0,-1,1399,344,6.66538,-0.942088
182,680,6.52917,0.532379,0,0,0,0,0,0,0,-1,1406,344,6.52922,-0.532385
189,680,7.55884,4.77695,0,0,0,0,0,0,0,-1,1413,344,7.55886,-4.77694
196,680,6.55627,3.35254,0,0,0,0,0,0,0,-1,1420,344,6.55622,-3.35255
203,680,5.7334,1.90753,0,0,0,0,0,0,0,-1,1427,344,5.73341,-1.90754
210,680,5.27515,0.493622,0,0,0,0,0,0,0,-1,1434,344,5.27514,-0.493632
217,680,6.56384,-0.374176,0,0,0,0,0,0,0,-1,1441,344,6.56379,0.374176
224,680,3.9491,-0.640228,0,0,0,0,0,0,0,-1,1448,344,3.94908,0.64024
231,680,4.24866,-1.96881,0,0,0,0,0,0,0,-1,1455,344,4.2486,1.96882
238,680,4.29333,-3.23984,0,0,0,0,0,0,0,-1,1462,344,4.29332,3.23984
245,680,2.44397,0.985382,0,0,0,0,0,0,0,-1,1469,344,2.44402,-0.985394
252,680,3.07349,2.18951,0,0,0,0,0,0,0,-1,1476,344,3.0735,-2.18952
259,680,2.82971,1.30682,0,0,0,0,0,0,0,-1,1483,344,2.82972,-1.30684
266,680,2.67554,1.44067,0,0,0,0,0,0,0,-1,1490,344,2.67551,-1.44066
273,680,2.46411,1.54666,0,0,0,0,0,0,0,-1,1497,344,2.46407,-1.54666
280,680,0,0,0,0,0,0,0,0,0,-1,1504,344,0,0
287,680,0,0,0,0,0,0,0,0,0,-1,1511,344,0,0
294,680,0,0,0,0,0,0,0,0,0,-1,1518,344,0,0
301,680,0,0,0,0,0,0,0,0,0,-1,1525,344,0,0
308,680,0,0,0,0,0,0,0,0,0,-1,1532,344,0,0
315,680,0,0,0,0,0,0,0,0,0,-1,1539,344,0,0
322,680,0,0,0,0,0,0,0,0,0,-1,1546,344,0,0
329,680,0,0,0,0,0,0,0,0,0,-1,1553,344,0,0
336,680,0,0,0,0,0,0,0,0,0,-1,1560,344,0,0
343,680,0,0,0,0,0,0,0,0,0,-1,1567,344,0,0
350,680,0,0,0,0,0,0,0,0,0,-1,1574,344,0,0
357,680,0,0,0,0,0,0,0,0,0,-1,1581,344,0,0
364,680,0,0,0,0,0,0,0,0,0,-1,1588,344,0,0
371,680,0,0,0,0,0,0,0,0,0,-1,1595,344,0,0
378,680,0,0,0,0,0,0,0,0,0,-1,1602,344,0,0
385,680,0,0,0,0,0,0,0,0,0,-1,1609,344,0,0
392,680,0,0,0,0,0,0,0,0,0,-1,1616,344,0,0
399,680,0,0,0,0,0,0,0,0,0,-1,1623,344,0,0
406,680,0,0,0,0,0,0,0,0,0,-1,1630,344,0,0
413,680,0,0,0,0,0,0,0,0,0,-1,1637,344,0,0
420,680,0,0,0,0,0,0,0,0,0,-1,1644,344,0,0
427,680,0,0,0,0,0,0,0,0,0,-1,1651,344,0,0
434,680,0,0,0,0,0,0,0,0,0,-1,1658,344,0,0
441,680,0,0,0,0,0,0,0,0,0,-1,1665,344,0,0
448,680,0,0,0,0,0,0,0,0,0,-1,1672,344,0,0
455,680,0,0,0,0,0,0,0,0,0,-1,1679,344,0,0
462,680,0,0,0,0,0,0,0,0,0,-1,1686,344,0,0
469,680,0,0,0,0,0,0,0,0,0,-1,1693,344,0,0
476,680,0,0,0,0,0,0,0,0,0,-1,1700,344,0,0
483,680,0,0,0,0,0,0,0,0,0,-1,1707,344,0,0
490,680,0,0,0,0,0,0,0,0,0,-1,1714,344,0,0
497,680,0,0,0,0,0,0,0,0,0,-1,1721,344,0,0
504,680,0,0,0,0,0,0,0,0,0,-1,1728,344,0,0
511,680,0,0,0,0,0,0,0,0,0,-1,1735,344,0,0
518,680,0,0,0,0,0,0,0,0,0,-1,1742,344,0,0
525,680,0,0,0,0,0,0,0,0,0,-1,1749,344,0,0
532,680,0,0,0,0,0,0,0,0,0,-1,1756,344,0,0
539,680,0,0,0,0,0,0,0,0,0,-1,1763,344,0,0
546,680,0,0,0,0,0,0,0,0,0,-1,1770,344,0,0
553,680,0,0,0,0,0,0,0,0,0,-1,1777,344,0,0
560,680,0,0,0,0,0,0,0,0,0,-1,1784,344,0,0
567,680,0,0,0,0,0,0,0,0,0,-1,1791,344,0,0
574,680,0,0,0,0,0,0,0,0,0,-1,1798,344,0,0
581,680,0,0,0,0,0,0,0,0,0,-1,1805,344,0,0
588,680,0,0,0,0,0,0,0,0,0,-1,1812,344,0,0
595,680,0,0,0,0,0,0,0,0,0,-1,1819,344,0,0
602,680,0,0,0,0,0,0,0,0,0,-1,1826,344,0,0
609,680,0,0,0,0,0,0,0,0,0,-1,1833,344,0,0
616,680,0,0,0,0,0,0,0,0,0,-1,1840,344,0,0
623,680,0,0,0,0,0,0,0,0,0,-1,1847,344,0,0
630,680,0,0,0,0,0,0,0,0,0,-1,1854,344,0,0
637,680,0,0,0,0,0,0,0,0,0,-1,1861,344,0,0
644,680,0,0,0,0,0,0,0,0,0,-1,1868,344,0,0
651,680,0,0,0,0,0,0,0,0,0,-1,1875,344,0,0
658,680,0,0,0,0,0,0,0,0,0,-1,1882,344,0,0
665,680,0,0,0,0,0,0,0,0,0,-1,1889,344,0,0
672,680,0,0,0,0,0,0,0,0,0,-1,1896,344,0,0
679,680,0,0,0,0,0,0,0,0,0,-1,1903,344,0,0
686,680,0,0,0,0,0,0,0,0,0,-1,1910,344,0,0
693,680,0,0,0,0,0,0,0,0,0,-1,1917,344,0,0
700,680,0,0,0,0,0,0,0,0,0,-1,1924,344,0,0
707,680,0,0,0,0,0,0,0,0,0,-1,1931,344,0,0
714,680,0,0,0,0,0,0,0,0,0,-1,1938,344,0,0
721,680,0,0,0,0,0,0,0,0,0,-1,1945,344,0,0
728,680,0,0,0,0,0,0,0,0,0,-1,1952,344,0,0
735,680,0,0,0,0,0,0,0,0,0,-1,1959,344,0,0
742,680,0,0,0,0,0,0,0,0,0,-1,1966,344,0,0
749,680,0,0,0,0,0,0,0,0,0,-1,1973,344,0,0
756,680,0,0,0,0,0,0,0,0,0,-1,1980,344,0,0
763,680,0,0,0,0,0,0,0,0,0,-1,1987,344,0,0
770,680,0,0,0,0,0,0,0,0,0,-1,1994,344,0,0
777,680,0,0,0,0,0,0,0,0,0,-1,2001,344,0,0
784,680,0,0,0,0,0,0,0,0,0,-1,2008,344,0,0
791,680,0,0,0,0,0,0,0,0,0,-1,2015,344,0,0
798,680,0,0,0,0,0,0,0,0,0,-1,2022,344,0,0
805,680,0,0,0,0,0,0,0,0,0,-1,2029,344,0,0
812,680,0,0,0,0,0,0,0,0,0,-1,2036,344,0,0
-700,673,0,0,0,0,0,0,0,0,0,-1,524,351,0,0
-693,673,0,0,0,0,0,0,0,0,0,-1,531,351,0,0
-686,673,0,0,0,0,0,0,0,0,0,-1,538,351,0,0
-679,673,0,0,0,0,0,0,0,0,0,-1,545,351,0,0
-672,673,0,0,0,0,0,0,0,0,0,-1,552,351,0,0
-665,673,0,0,0,0,0,0,0,0,0,-1,559,351,0,0
-658,673,0,0,0,0,0,0,0,0,0,-1,566,351,0,0
-651,673,0,0,0,0,0,0,0,0,0,-1,573,351,0,0
-644,673,0,0,0,0,0,0,0,0,0,-1,580,351,0,0
-637,673,0,0,0,0,0,0,0,0,0,-1,587,351,0,0
-630,673,0,0,0,0,0,0,0,0,0,-1,594,351,0,0
-623,673,0,0,0,0,0,0,0,0,0,-1,601,351,0,0
-616,673,0,0,0,0,0,0,0,0,0,-1,608,351,0,0
-609,673,0,0,0,0,0,0,0,0,0,-1,615,351,0,0
-602,673,0,0,0,0,0,0,0,0,0,-1,622,351,0,0
-595,673,0,0,0,0,0,0,0,0,0,-1,629,351,0,0
-588,673,0,0,0,0,0,0,0,0,0,-1,636,351,0,0
-581,673,0,0,0,0,0,0,0,0,0,-1,643,351,0,0
-574,673,0,0,0,0,0,0,0,0,0,-1,650,351,0,0
-567,673,0,0,0,0,0,0,0,0,0,-1,657,351,0,0
-560,673,0,0,0,0,0,0,0,0,0,-1,664,351,0,0
-553,673,0,0,0,0,0,0,0,0,0,-1,671,351,0,0
-546,673,0,0,0,0,0,0,0,0,0,-1,678,351,0,0
-539,673,0,0,0,0,0,0,0,0,0,-1,685,351,0,0
-532,673,0,0,0,0,0,0,0,0,0,-1,692,351,0,0
-525,673,0,0,0,0,0,0,0,0,0,-1,699,351,0,0
-518,673,0,0,0,0,0,0,0,0,0,-1,706,351,0,0
-511,673,0,0,0,0,0,0,0,0,0,-1,713,351,0,0
-504,673,0,0,0,0,0,0,0,0,0,-1,720,351,0,0
-497,673,0,0,0,0,0,0,0,0,0,-1,727,351,0,0
-490,673,0,0,0,0,0,0,0,0,0,-1,734,351,0,0
-483,673,0,0,0,0,0,0,0,0,0,-1,741,351,0,0
-476,673,0,0,0,0,0,0,0,0,0,-1,748,351,0,0
-469,673,0,0,0,0,0,0,0,0,0,-1,755,351,0,0
-462,673,0,0,0,0,0,0,0,0,0,-1,762,351,0,0
-455,673,0,0,0,0,0,0,0,0,0,-1,769,351,0,0
-448,673,0,0,0,0,0,0,0,0,0,-1,776,351,0,0
-441,673,0,0,0,0,0,0,0,0,0,-1,783,351,0,0
-434,673,0,0,0,0,0,0,0,0,0,-1,790,351,0,0
-427,673,0,0,0,0,0,0,0,0,0,-1,797,351,0,0
-420,673,0,0,0,0,0,0,0,0,0,-1,804,351,0,0
-413,673,0,0,0,0,0,0,0,0,0,-1,811,351,0,0
-406,673,0,0,0,0,0,0,0,0,0,-1,818,351,0,0
-399,673,0,0,0,0,0,0,0,0,0,-1,825,351,0,0
-392,673,0,0,0,0,0,0,0,0,0,-1,832,351,0,0
-385,673,0,0,0,0,0,0,0,0,0,-1,839,351,0,0
-378,673,0,0,0,0,0,0,0,0,0,-1,846,351,0,0
-371,673,0,0,0,0,0,0,0,0,0,-1,853,351,0,0
-364,673,0,0,0,0,0,0,0,0,0,-1,860,351,0,0
-357,673,0,0,0,0,0,0,0,0,0,-1,867,351,0,0
-350,673,0,0,0,0,0,0,0,0,0,-1,874,351,0,0
-343,673,0,0,0,0,0,0,0,0,0,-1,881,351,0,0
-336,673,0,0,0,0,0,0,0,0,0,-1,888,351,0,0
-329,673,0,0,0,0,0,0,0,0,0,-1,895,351,0,0
-322,673,0,0,0,0,0,0,0,0,0,-1,902,351,0,0
-315,673,0,0,0,0,0,0,0,0,0,-1,909,351,0,0
-308,673,0,0,0,0,0,0,0,0,0,-1,916,351,0,0
-301,673,0,0,0,0,0,0,0,0,0,-1,923,351,0,0
-294,673,0,0,0,0,0,0,0,0,0,-1,930,351,0,0
-287,673,0,0,0,0,0,0,0,0,0,-1,937,351,0,0
-280,673,0,0,0,0,0,0,0,0,0,-1,944,351,0,0
-273,673,0,0,0,0,0,0,0,0,0,-1,951,351,0,0
-266,673,0,0,0,0,0,0,0,0,0,-1,958,351,0,0
-259,673,0,0,0,0,0,0,0,0,0,-1,965,351,0,0
-252,673,0,0,0,0,0,0,0,0,0,-1,972,351,0,0
-245,673,0,0,0,0,0,0,0,0,0,-1,979,351,0,0
-238,673,0,0,0,0,0,0,0,0,0,-1,986,351,0,0
-231,673,0,0,0,0,0,0,0,0,0,-1,993,351,0,0
-224,673,0,0,0,0,0,0,0,0,0,-1,1000,351,0,0
-217,673,0,0,0,0,0,0,0,0,0,-1,1007,351,0,0
-210,673,0,0,0,0,0,0,0,0,0,-1,1014,351,0,0
-203,673,0,0,0,0,0,0,0,0,0,-1,1021,351,0,0
-196,673,0,0,0,0,0,0,0,0,0,-1,1028,351,0,0
-189,673,0,0,0,0,0,0,0,0,0,-1,1035,351,0,0
-182,673,0,0,0,0,0,0,0,0,0,-1,1042,351,0,0
-175,673,7.10449,-31.8279,0,0,0,0,0,0,0,-1,1049,351,7.10448,31.8279
-168,673,7.33081,-32.7122,0,0,0,0,0,0,0,-1,1056,351,7.33085,32.7122
-161,673,7.8938,-33.5352,0,0,0,0,0,0,0,-1,1063,351,7.89385,33.5352
-154,673,8.80566,-35.3518,0,0,0,0,0,0,0,-1,1070,351,8.80563,35.3518
-147,673,2.89221,-37.7351,0,0,0,0,0,0,0,-1,1077,351,2.89224,37.7351
-140,673,3.35046,-37.7151,0,0,0,0,0,0,0,-1,1084,351,3.35046,37.715
-133,673,3.35339,-39.0288,0,0,0,0,0,0,0,-1,1091,351,3.35342,39.0288
-126,673,3.7533,-38.0453,0,0,0,0,0,0,0,-1,1098,351,3.7533,38.0453
-119,673,4.1532,-37.0618,0,0,0,0,0,0,0,-1,1105,351,4.15318,37.0618
-112,673,7.27234,-32.5801,0,0,0,0,0,0,0,-1,1112,351,7.27231,32.5801
-105,673,21.1144,-43.3143,0,0,0,0,0,0,0,-1,1119,351,21.1143,43.3143
-98,673,14.8014,-36.7519,0,0,0,0,0,0,0,-1,1126,351,14.8014,36.7519
-91,673,8.54944,-29.9639,0,0,0,0,0,0,0,-1,1133,351,8.54949,29.9639
-84,673,2.17102,-24.3204,0,0,0,0,0,0,0,-1,1140,351,2.17107,24.3204
-77,673,-4.25378,-18.8346,0,0,0,0,0,0,0,-1,1147,351,-4.25381,18.8346
-70,673,-10.7933,-13.6681,0,0,0,0,0,0,0,-1,1154,351,-10.7934,13.6681
-63,673,-17.3896,-8.24469,0,0,0,0,0,0,0,-1,1161,351,-17.3896,8.2447
-56,673,-18.0282,2.79053,0,0,0,0,0,0,0,-1,1168,351,-18.0283,-2.79052
-49,673,-0.926758,-0.115448,0,0,0,0,0,0,0,-1,1175,351,-0.926732,0.115444
-42,673,-1.15015,0.289917,0,0,0,0,0,0,0,-1,1182,351,-1.15017,-0.289932
-35,673,-0.919556,-1.00711,0,0,0,0,0,0,0,-1,1189,351,-0.919514,1.00711
-28,673,5.28918,-39.2331,0,0,0,0,0,0,0,-1,1196,351,5.28924,39.2331
-21,673,11.2444,-92.9249,0,0,0,0,0,0,0,-1,1203,351,11.2444,92.9249
-14,673,14.4708,-104.129,0,0,0,0,0,0,0,-1,1210,351,14.4709,104.129
-7,673,11.002,-135.851,0,0,0,0,0,0,0,-1,1217,351,11.0019,135.851
0,673,2.5376,-265.006,0,0,0,0,0,0,0,-1,1224,351,2.53764,265.006
7,673,7.0658,-203.391,0,0,0,0,0,0,0,-1,1231,351,7.06576,203.391
14,673,2.87036,-264.726,0,0,0,0,0,0,0,-1,1238,351,2.8703,264.726
21,673,3.01917,-265.35,0,0,0,0,0,0,0,-1,1245,351,3.01912,265.35
28,673,10.4435,-123.673,0,0,0,0,0,0,0,-1,1252,351,10.4435,123.673
35,673,8.65234,-174.636,0,0,0,0,0,0,0,-1,1259,351,8.65234,174.636
42,673,7.62903,-175.005,0,0,0,0,0,0,0,-1,1266,351,7.62904,175.005
49,673,6.23169,-191.585,0,0,0,0,0,0,0,-1,1273,351,6.23166,191.585
56,673,6.14856,-191.704,0,0,0,0,0,0,0,-1,1280,351,6.1485,191.704
63,673,6.27625,-191.965,0,0,0,0,0,0,0,-1,1287,351,6.27629,191.965
70,673,8.58582,-122.182,0,0,0,0,0,0,0,-1,1294,351,8.5858,122.182
77,673,8.04187,-120.089,0,0,0,0,0,0,0,-1,1301,351,8.04189,120.089
84,673,7.37463,-119.7,0,0,0,0,0,0,0,-1,1308,351,7.37469,119.7
91,673,4.61047,-267.398,0,0,0,0,0,0,0,-1,1315,351,4.6105,267.398
98,673,4.00623,-266.897,0,0,0,0,0,0,0,-1,1322,351,4.00626,266.897
105,673,6.79333,-132.248,0,0,0,0,0,0,0,-1,1329,351,6.79335,132.248
112,673,7.85938,-111.635,0,0,0,0,0,0,0,-1,1336,351,7.85934,111.635
119,673,4.15515,-103.79,0,0,0,0,0,0,0,-1,1343,351,4.15521,103.79
126,673,4.59888,-103.542,0,0,0,0,0,0,0,-1,1350,351,4.59885,103.542
133,673,4.44226,-103.25,0,0,0,0,0,0,0,-1,1357,351,4.4423,103.25
140,673,4.12817,-99.7395,0,0,0,0,0,0,0,-1,1364,351,4.12818,99.7395
147,673,5.25964,-114.259,0,0,0,0,0,0,0,-1,1371,351,5.25959,114.259
154,673,5.15833,-114.149,0,0,0,0,0,0,0,-1,1378,351,5.15829,114.149
161,673,6.22559,-90.9402,0,0,0,0,0,0,0,-1,1385,351,6.22559,90.9402
168,673,6.87061,1.83954,0,0,0,0,0,0,0,-1,1392,351,6.87063,-1.83953
175,673,6.6228,1.1459,0,0,0,0,0,0,0,-1,1399,351,6.62276,-1.14591
182,673,6.37244,0.796112,0,0,0,0,0,0,0,-1,1406,351,6.3724,-0.796102
189,673,6.12097,0.265472,0,0,0,0,0,0,0,-1,1413,351,6.121,-0.265482
196,673,6.02173,3.12717,0,0,0,0,0,0,0,-1,1420,351,6.02176,-3.12717
203,673,5.04456,1.6351,0,0,0,0,0,0,0,-1,1427,351,5.04455,-1.63509
210,673,4.79224,0.447479,0,0,0,0,0,0,0,-1,1434,351,4.79229,-0.447469
217,673,2.01648,0.972687,0,0,0,0,0,0,0,-1,1441,351,2.01644,-0.972691
224,673,2.3689,-1.80539,0,0,0,0,0,0,0,-1,1448,351,2.36896,1.80539
231,673,2.65857,-2.18497,0,0,0,0,0,0,0,-1,1455,351,2.65852,2.18496
238,673,3.77844,-2.06088,0,0,0,0,0,0,0,-1,1462,351,3.77839,2.06088
245,673,3.5376,-0.190399,0,0,0,0,0,0,0,-1,1469,351,3.53759,0.1904
252,673,3.80518,0.55603,0,0,0,0,0,0,0,-1,1476,351,3.80519,-0.556022
259,673,3.88562,1.29617,0,0,0,0,0,0,0,-1,1483,351,3.88562,-1.29618
266,673,4.22424,2.04834,0,0,0,0,0,0,0,-1,1490,351,4.22429,-2.04834
273,673,6.07886,0.385895,0,0,0,0,0,0,0,-1,1497,351,6.0789,-0.385906
280,673,6.97534,-0.0820007,0,0,0,0,0,0,0,-1,1504,351,6.97536,0.0820122
287,673,7.66968,-0.348541,0,0,0,0,0,0,0,-1,1511,351,7.66969,0.348534
294,673,8.20996,0.28537,0,0,0,0,0,0,0,-1,1518,351,8.20993,-0.28536
301,673,0,0,0,0,0,0,0,0,0,-1,1525,351,0,0
308,673,0,0,0,0,0,0,0,0,0,-1,1532,351,0,0
315,673,0,0,0,0,0,0,0,0,0,-1,1539,351,0,0
322,673,0,0,0,0,0,0,0,0,0,-1,1546,351,0,0
329,673,0,0,0,0,0,0,0,0,0,-1,1553,351,0,0
336,673,0,0,0,0,0,0,0,0,0,-1,1560,351,0,0
343,673,0,0,0,0,0,0,0,0,0,-1,1567,351,0,0
350,673,0,0,0,0,0,0,0,0,0,-1,1574,351,0,0
357,673,0,0,0,0,0,0,0,0,0,-1,1581,351,0,0
364,673,0,0,0,0,0,0,0,0,0,-1,1588,351,0,0
371,673,0,0,0,0,0,0,0,0,0,-1,1595,351,0,0
378,673,0,0,0,0,0,0,0,0,0,-1,1602,351,0,0
385,673,0,0,0,0,0,0,0,0,0,-1,1609,351,0,0
392,673,0,0,0,0,0,0,0,0,0,-1,1616,351,0,0
399,673,0,0,0,0,0,0,0,0,0,-1,1623,351,0,0
406,673,0,0,0,0,0,0,0,0,0,-1,1630,351,0,0
413,673,0,0,0,0,0,0,0,0,0,-1,1637,351,0,0
420,673,0,0,0,0,0,0,0,0,0,-1,1644,351,0,0
427,673,0,0,0,0,0,0,0,0,0,-1,1651,351,0,0
434,673,0,0,0,0,0,0,0,0,0,-1,1658,351,0,0
441,673,0,0,0,0,0,0,0,0,0,-1,1665,351,0,0
448,673,0,0,0,0,0,0,0,0,0,-1,1672,351,0,0
455,673,0,0,0,0,0,0,0,0,0,-1,1679,351,0,0
462,673,0,0,0,0,0,0,0,0,0,-1,1686,351,0,0
469,673,0,0,0,0,0,0,0,0,0,-1,1693,351,0,0
476,673,0,0,0,0,0,0,0,0,0,-1,1700,351,0,0
483,673,0,0,0,0,0,0,0,0,0,-1,1707,351,0,0
490,673,0,0,0,0,0,0,0,0,0,-1,1714,351,0,0
497,673,0,0,0,0,0,0,0,0,0,-1,1721,351,0,0
504,673,0,0,0,0,0,0,0,0,0,-1,1728,351,0,0
511,673,0,0,0,0,0,0,0,0,0,-1,1735,351,0,0
518,673,0,0,0,0,0,0,0,0,0,-1,1742,351,0,0
525,673,0,0,0,0,0,0,0,0,0,-1,1749,351,0,0
532,673,0,0,0,0,0,0,0,0,0,-1,1756,351,0,0
539,673,0,0,0,0,0,0,0,0,0,-1,1763,351,0,0
546,673,0,0,0,0,0,0,0,0,0,-1,1770,351,0,0
553,673,0,0,0,0,0,0,0,0,0,-1,1777,351,0,0
560,673,0,0,0,0,0,0,0,0,0,-1,1784,351,0,0
567,673,0,0,0,0,0,0,0,0,0,-1,1791,351,0,0
574,673,0,0,0,0,0,0,0,0,0,-1,1798,351,0,0
581,673,0,0,0,0,0,0,0,0,0,-1,1805,351,0,0
588,673,0,0,0,0,0,0,0,0,0,-1,1812,351,0,0
595,673,0,0,0,0,0,0,0,0,0,-1,1819,351,0,0
602,673,0,0,0,0,0,0,0,0,0,-1,1826,351,0,0
609,673,0,0,0,0,0,0,0,0,0,-1,1833,351,0,0
616,673,0,0,0,0,0,0,0,0,0,-1,1840,351,0,0
623,673,0,0,0,0,0,0,0,0,0,-1,1847,351,0,0
630,673,0,0,0,0,0,0,0,0,0,-1,1854,351,0,0
637,673,0,0,0,0,0,0,0,0,0,-1,1861,351,0,0
644,673,0,0,0,0,0,0,0,0,0,-1,1868,351,0,0
651,673,0,0,0,0,0,0,0,0,0,-1,1875,351,0,0
658,673,0,0,0,0,0,0,0,0,0,-1,1882,351,0,0
665,673,0,0,0,0,0,0,0,0,0,-1,1889,351,0,0
672,673,0,0,0,0,0,0,0,0,0,-1,1896,351,0,0
679,673,0,0,0,0,0,0,0,0,0,-1,1903,351,0,0
686,673,0,0,0,0,0,0,0,0,0,-1,1910,351,0,0
693,673,0,0,0,0,0,0,0,0,0,-1,1917,351,0,0
700,673,0,0,0,0,0,0,0,0,0,-1,1924,351,0,0
707,673,0,0,0,0,0,0,0,0,0,-1,1931,351,0,0
714,673,0,0,0,0,0,0,0,0,0,-1,1938,351,0,0
721,673,0,0,0,0,0,0,0,0,0,-1,1945,351,0,0
728,673,0,0,0,0,0,0,0,0,0,-1,1952,351,0,0
735,673,0,0,0,0,0,0,0,0,0,-1,1959,351,0,0
742,673,0,0,0,0,0,0,0,0,0,-1,1966,351,0,0
749,673,0,0,0,0,0,0,0,0,0,-1,1973,351,0,0
756,673,0,0,0,0,0,0,0,0,0,-1,1980,351,0,0
763,673,0,0,0,0,0,0,0,0,0,-1,1987,351,0,0
770,673,0,0,0,0,0,0,0,0,0,-1,1994,351,0,0
777,673,0,0,0,0,0,0,0,0,0,-1,2001,351,0,0
784,673,0,0,0,0,0,0,0,0,0,-1,2008,351,0,0
791,673,0,0,0,0,0,0,0,0,0,-1,2015,351,0,0
798,673,0,0,0,0,0,0,0,0,0,-1,2022,351,0,0
805,673,0,0,0,0,0,0,0,0,0,-1,2029,351,0,0
812,673,0,0,0,0,0,0,0,0,0,-1,2036,351,0,0
-700,666,0,0,0,0,0,0,0,0,0,-1,524,358,0,0
-693,666,0,0,0,0,0,0,0,0,0,-1,531,358,0,0
-686,666,0,0,0,0,0,0,0,0,0,-1,538,358,0,0
-679,666,0,0,0,0,0,0,0,0,0,-1,545,358,0,0
-672,666,0,0,0,0,0,0,0,0,0,-1,552,358,0,0
-665,666,0,0,0,0,0,0,0,0,0,-1,559,358,0,0
-658,666,0,0,0,0,0,0,0,0,0,-1,566,358,0,0
-651,666,0,0,0,0,0,0,0,0,0,-1,573,358,0,0
-644,666,0,0,0,0,0,0,0,0,0,-1,580,358,0,0
-637,666,0,0,0,0,0,0,0,0,0,-1,587,358,0,0
-630,666,0,0,0,0,0,0,0,0,0,-1,594,358,0,0
-623,666,0,0,0,0,0,0,0,0,0,-1,601,358,0,0
-616,666,0,0,0,0,0,0,0,0,0,-1,608,358,0,0
-609,666,0,0,0,0,0,0,0,0,0,-1,615,358,0,0
-602,666,0,0,0,0,0,0,0,0,0,-1,622,358,0,0
-595,666,0,0,0,0,0,0,0,0,0,-1,629,358,0,0
-588,666,0,0,0,0,0,0,0,0,0,-1,636,358,0,0
-581,666,0,0,0,0,0,0,0,0,0,-1,643,358,0,0
-574,666,0,0,0,0,0,0,0,0,0,-1,650,358,0,0
-567,666,0,0,0,0,0,0,0,0,0,-1,657,358,0,0
-560,666,0,0,0,0,0,0,0,0,0,-1,664,358,0,0
-553,666,0,0,0,0,0,0,0,0,0,-1,671,358,0,0
-546,666,0,0,0,0,0,0,0,0,0,-1,678,358,0,0
-539,666,0,0,0,0,0,0,0,0,0,-1,685,358,0,0
-532,666,0,0,0,0,0,0,0,0,0,-1,692,358,0,0
-525,666,0,0,0,0,0,0,0,0,0,-1,699,358,0,0
-518,666,0,0,0,0,0,0,0,0,0,-1,706,358,0,0
-511,666,0,0,0,0,0,0,0,0,0,-1,713,358,0,0
-504,666,0,0,0,0,0,0,0,0,0,-1,720,358,0,0
-497,666,0,0,0,0,0,0,0,0,0,-1,727,358,0,0
-490,666,0,0,0,0,0,0,0,0,0,-1,734,358,0,0
-483,666,0,0,0,0,0,0,0,0,0,-1,741,358,0,0
-476,666,0,0,0,0,0,0,0,0,0,-1,748,358,0,0
-469,666,0,0,0,0,0,0,0,0,0,-1,755,358,0,0
-462,666,0,0,0,0,0,0,0,0,0,-1,762,358,0,0
-455,666,0,0,0,0,0,0,0,0,0,-1,769,358,0,0
-448,666,0,0,0,0,0,0,0,0,0,-1,776,358,0,0
-441,666,0,0,0,0,0,0,0,0,0,-1,783,358,0,0
-434,666,0,0,0,0,0,0,0,0,0,-1,790,358,0,0
-427,666,0,0,0,0,0,0,0,0,0,-1,797,358,0,0
-420,666,0,0,0,0,0,0,0,0,0,-1,804,358,0,0
-413,666,0,0,0,0,0,0,0,0,0,-1,811,358,0,0
-406,666,0,0,0,0,0,0,0,0,0,-1,818,358,0,0
-399,666,0,0,0,0,0,0,0,0,0,-1,825,358,0,0
-392,666,0,0,0,0,0,0,0,0,0,-1,832,358,0,0
-385,666,0,0,0,0,0,0,0,0,0,-1,839,358,0,0
-378,666,0,0,0,0,0,0,0,0,0,-1,846,358,0,0
-371,666,0,0,0,0,0,0,0,0,0,-1,853,358,0,0
-364,666,0,0,0,0,0,0,0,0,0,-1,860,358,0,0
-357,666,0,0,0,0,0,0,0,0,0,-1,867,358,0,0
-350,666,0,0,0,0,0,0,0,0,0,-1,874,358,0,0
-343,666,0,0,0,0,0,0,0,0,0,-1,881,358,0,0
-336,666,0,0,0,0,0,0,0,0,0,-1,888,358,0,0
-329,666,0,0,0,0,0,0,0,0,0,-1,895,358,0,0
-322,666,0,0,0,0,0,0,0,0,0,-1,902,358,0,0
-315,666,0,0,0,0,0,0,0,0,0,-1,909,358,0,0
-308,666,0,0,0,0,0,0,0,0,0,-1,916,358,0,0
-301,666,0,0,0,0,0,0,0,0,0,-1,923,358,0,0
-294,666,0,0,0,0,0,0,0,0,0,-1,930,358,0,0
-287,666,0,0,0,0,0,0,0,0,0,-1,937,358,0,0
-280,666,0,0,0,0,0,0,0,0,0,-1,944,358,0,0
-273,666,0,0,0,0,0,0,0,0,0,-1,951,358,0,0
-266,666,0,0,0,0,0,0,0,0,0,-1,958,358,0,0
-259,666,0,0,0,0,0,0,0,0,0,-1,965,358,0,0
-252,666,0,0,0,0,0,0,0,0,0,-1,972,358,0,0
-245,666,0,0,0,0,0,0,0,0,0,-1,979,358,0,0
-238,666,0,0,0,0,0,0,0,0,0,-1,986,358,0,0
-231,666,0,0,0,0,0,0,0,0,0,-1,993,358,0,0
-224,666,0,0,0,0,0,0,0,0,0,-1,1000,358,0,0
-217,666,0,0,0,0,0,0,0,0,0,-1,1007,358,0,0
-210,666,0,0,0,0,0,0,0,0,0,-1,1014,358,0,0
-203,666,0,0,0,0,0,0,0,0,0,-1,1021,358,0,0
-196,666,4.03418,-28.8724,0,0,0,0,0,0,0,-1,1028,358,4.03422,28.8724
-189,666,5.00366,-29.597,0,0,0,0,0,0,0,-1,1035,358,5.00363,29.597
-182,666,6.83252,-30.9843,0,0,0,0,0,0,0,-1,1042,358,6.83247,30.9844
-175,666,7.01611,-31.8763,0,0,0,0,0,0,0,-1,1049,358,7.01617,31.8762
-168,666,7.21545,-32.7414,0,0,0,0,0,0,0,-1,1056,358,7.2154,32.7414
-161,666,7.69116,-33.6269,0,0,0,0,0,0,0,-1,1063,358,7.69121,33.6269
-154,666,3.79041,-37.9204,0,0,0,0,0,0,0,-1,1070,358,3.79034,37.9204
-147,666,4.17908,-37.7466,0,0,0,0,0,0,0,-1,1077,358,4.17912,37.7466
-140,666,4.54309,-37.735,0,0,0,0,0,0,0,-1,1084,358,4.54304,37.735
-133,666,4.65723,-39.0643,0,0,0,0,0,0,0,-1,1091,358,4.65727,39.0643
-126,666,5.02368,-38.0699,0,0,0,0,0,0,0,-1,1098,358,5.02363,38.0698
-119,666,5.39001,-37.0754,0,0,0,0,0,0,0,-1,1105,358,5.38999,37.0754
-112,666,6.77014,-32.8165,0,0,0,0,0,0,0,-1,1112,358,6.77013,32.8165
-105,666,6.30908,-29.0855,0,0,0,0,0,0,0,-1,1119,358,6.30905,29.0855
-98,666,15.4427,-31.5168,0,0,0,0,0,0,0,-1,1126,358,15.4428,31.5168
-91,666,9.5127,-25.1347,0,0,0,0,0,0,0,-1,1133,358,9.51269,25.1347
-84,666,2.91589,-19.4071,0,0,0,0,0,0,0,-1,1140,358,2.91592,19.4071
-77,666,-3.48083,-14.0782,0,0,0,0,0,0,0,-1,1147,358,-3.48081,14.0782
-70,666,-9.99438,-8.90146,0,0,0,0,0,0,0,-1,1154,358,-9.99433,8.90146
-63,666,-11.7778,-0.975189,0,0,0,0,0,0,0,-1,1161,358,-11.7778,0.97519
-56,666,0.424683,-2.04132,0,0,0,0,0,0,0,-1,1168,358,0.424665,2.04132
-49,666,0.754395,-2.23169,0,0,0,0,0,0,0,-1,1175,358,0.754383,2.23169
-42,666,1.34473,-3.53897,0,0,0,0,0,0,0,-1,1182,358,1.34476,3.53896
-35,666,-0.859741,-263.814,0,0,0,0,0,0,0,-1,1189,358,-0.859726,263.814
-28,666,-0.63855,-264.234,0,0,0,0,0,0,0,-1,1196,358,-0.638539,264.234
-21,666,0.17981,-265.278,0,0,0,0,0,0,0,-1,1203,358,0.179784,265.277
-14,666,0.394043,-266.094,0,0,0,0,0,0,0,-1,1210,358,0.394047,266.094
-7,666,0.334717,-266.356,0,0,0,0,0,0,0,-1,1217,358,0.334766,266.356
0,666,0.626953,-266.817,0,0,0,0,0,0,0,-1,1224,358,0.627004,266.817
7,666,0.651001,-267.488,0,0,0,0,0,0,0,-1,1231,358,0.651008,267.488
14,666,0.485352,-267.954,0,0,0,0,0,0,0,-1,1238,358,0.485399,267.954
21,666,0.881226,-268.395,0,0,0,0,0,0,0,-1,1245,358,0.881217,268.395
28,666,1.13,-268.866,0,0,0,0,0,0,0,-1,1252,358,1.13003,268.866
35,666,1.47058,-269.288,0,0,0,0,0,0,0,-1,1259,358,1.47058,269.288
42,666,1.89844,-269.546,0,0,0,0,0,0,0,-1,1266,358,1.89846,269.546
49,666,2.31323,-269.769,0,0,0,0,0,0,0,-1,1273,358,2.31329,269.769
56,666,2.67419,-270.036,0,0,0,0,0,0,0,-1,1280,358,2.67418,270.036
63,666,2.65063,-270.225,0,0,0,0,0,0,0,-1,1287,358,2.65059,270.225
70,666,3.0459,-270.247,0,0,0,0,0,0,0,-1,1294,358,3.04588,270.247
77,666,3.41406,-269.796,0,0,0,0,0,0,0,-1,1301,358,3.41405,269.796
84,666,3.76489,-269.742,0,0,0,0,0,0,0,-1,1308,358,3.76494,269.742
91,666,4.12988,-269.561,0,0,0,0,0,0,0,-1,1315,358,4.12983,269.561
98,666,4.1488,-269.218,0,0,0,0,0,0,0,-1,1322,358,4.14884,269.218
105,666,4.40186,-268.776,0,0,0,0,0,0,0,-1,1329,358,4.40183,268.776
112,666,4.8894,-268.443,0,0,0,0,0,0,0,-1,1336,358,4.88943,268.443
119,666,5.38306,-267.859,0,0,0,0,0,0,0,-1,1343,358,5.38308,267.859
126,666,5.86829,-266.803,0,0,0,0,0,0,0,-1,1350,358,5.86823,266.803
133,666,6.04175,-266.003,0,0,0,0,0,0,0,-1,1357,358,6.04181,266.003
140,666,6.07959,-265.846,0,0,0,0,0,0,0,-1,1364,358,6.07958,265.846
147,666,6.31726,-265.223,0,0,0,0,0,0,0,-1,1371,358,6.31726,265.223
154,666,6.7688,-264.461,0,0,0,0,0,0,0,-1,1378,358,6.76882,264.461
161,666,6.61218,-263.303,0,0,0,0,0,0,0,-1,1385,358,6.6122,263.303
168,666,5.7572,-260.518,0,0,0,0,0,0,0,-1,1392,358,5.75715,260.518
175,666,4.89124,-132.772,0,0,0,0,0,0,0,-1,1399,358,4.89125,132.772
182,666,2.60876,-5.17068,0,0,0,0,0,0,0,-1,1406,358,2.6088,5.17068
189,666,2.46973,-5.49979,0,0,0,0,0,0,0,-1,1413,358,2.46975,5.49979
196,666,2.32458,-5.23651,0,0,0,0,0,0,0,-1,1420,358,2.32461,5.23653
203,666,2.28064,-3.88004,0,0,0,0,0,0,0,-1,1427,358,2.28059,3.88003
210,666,3.02576,-5.83548,0,0,0,0,0,0,0,-1,1434,358,3.02581,5.83547
217,666,2.30444,-5.36011,0,0,0,0,0,0,0,-1,1441,358,2.30447,5.3601
224,666,1.82324,-6.03101,0,0,0,0,0,0,0,-1,1448,358,1.82322,6.031
231,666,2.29797,-10.1093,0,0,0,0,0,0,0,-1,1455,358,2.29801,10.1093
238,666,2.52429,-6.10568,0,0,0,0,0,0,0,-1,1462,358,2.52423,6.10567
245,666,4.53345,-1.38205,0,0,0,0,0,0,0,-1,1469,358,4.53349,1.38204
252,666,4.77405,-0.246979,0,0,0,0,0,0,0,-1,1476,358,4.77405,0.246993
259,666,4.83655,1.14087,0,0,0,0,0,0,0,-1,1483,358,4.83652,-1.14087
266,666,6.14148,0.749512,0,0,0,0,0,0,0,-1,1490,358,6.14144,-0.749519
273,666,3.17737,-33.7881,0,0,0,0,0,0,0,-1,1497,358,3.17735,33.7881
280,666,3.37268,-35.2123,0,0,0,0,0,0,0,-1,1504,358,3.37266,35.2123
287,666,-7.06934,-20.3464,0,0,0,0,0,0,0,-1,1511,358,-7.06933,20.3464
294,666,-2.11157,-23.2753,0,0,0,0,0,0,0,-1,1518,358,-2.11162,23.2753
301,666,-3.16162,-22.2271,0,0,0,0,0,0,0,-1,1525,358,-3.16161,22.2271
308,666,-4.24951,-20.9112,0,0,0,0,0,0,0,-1,1532,358,-4.24948,20.9112
315,666,-5.64954,-19.5784,0,0,0,0,0,0,0,-1,1539,358,-5.64959,19.5784
322,666,0,0,0,0,0,0,0,0,0,-1,1546,358,0,0
329,666,0,0,0,0,0,0,0,0,0,-1,1553,358,0,0
336,666,0,0,0,0,0,0,0,0,0,-1,1560,358,0,0
343,666,0,0,0,0,0,0,0,0,0,-1,1567,358,0,0
350,666,0,0,0,0,0,0,0,0,0,-1,1574,358,0,0
357,666,0,0,0,0,0,0,0,0,0,-1,1581,358,0,0
364,666,0,0,0,0,0,0,0,0,0,-1,1588,358,0,0
371,666,0,0,0,0,0,0,0,0,0,-1,1595,358,0,0
378,666,0,0,0,0,0,0,0,0,0,-1,1602,358,0,0
385,666,0,0,0,0,0,0,0,0,0,-1,1609,358,0,0
392,666,0,0,0,0,0,0,0,0,0,-1,1616,358,0,0
399,666,0,0,0,0,0,0,0,0,0,-1,1623,358,0,0
406,666,0,0,0,0,0,0,0,0,0,-1,1630,358,0,0
413,666,0,0,0,0,0,0,0,0,0,-1,1637,358,0,0
420,666,0,0,0,0,0,0,0,0,0,-1,1644,358,0,0
427,666,0,0,0,0,0,0,0,0,0,-1,1651,358,0,0
434,666,0,0,0,0,0,0,0,0,0,-1,1658,358,0,0
441,666,0,0,0,0,0,0,0,0,0,-1,1665,358,0,0
448,666,0,0,0,0,0,0,0,0,0,-1,1672,358,0,0
455,666,0,0,0,0,0,0,0,0,0,-1,1679,358,0,0
462,666,0,0,0,0,0,0,0,0,0,-1,1686,358,0,0
469,666,0,0,0,0,0,0,0,0,0,-1,1693,358,0,0
476,666,0,0,0,0,0,0,0,0,0,-1,1700,358,0,0
483,666,0,0,0,0,0,0,0,0,0,-1,1707,358,0,0
490,666,0,0,0,0,0,0,0,0,0,-1,1714,358,0,0
497,666,0,0,0,0,0,0,0,0,0,-1,1721,358,0,0
504,666,0,0,0,0,0,0,0,0,0,-1,1728,358,0,0
511,666,0,0,0,0,0,0,0,0,0,-1,1735,358,0,0
518,666,0,0,0,0,0,0,0,0,0,-1,1742,358,0,0
525,666,0,0,0,0,0,0,0,0,0,-1,1749,358,0,0
532,666,0,0,0,0,0,0,0,0,0,-1,1756,358,0,0
539,666,0,0,0,0,0,0,0,0,0,-1,1763,358,0,0
546,666,0,0,0,0,0,0,0,0,0,-1,1770,358,0,0
553,666,0,0,0,0,0,0,0,0,0,-1,1777,358,0,0
560,666,0,0,0,0,0,0,0,0,0,-1,1784,358,0,0
567,666,0,0,0,0,0,0,0,0,0,-1,1791,358,0,0
574,666,0,0,0,0,0,0,0,0,0,-1,1798,358,0,0
581,666,0,0,0,0,0,0,0,0,0,-1,1805,358,0,0
588,666,0,0,0,0,0,0,0,0,0,-1,1812,358,0,0
595,666,0,0,0,0,0,0,0,0,0,-1,1819,358,0,0
602,666,0,0,0,0,0,0,0,0,0,-1,1826,358,0,0
609,666,0,0,0,0,0,0,0,0,0,-1,1833,358,0,0
616,666,0,0,0,0,0,0,0,0,0,-1,1840,358,0,0
623,666,0,0,0,0,0,0,0,0,0,-1,1847,358,0,0
630,666,0,0,0,0,0,0,0,0,0,-1,1854,358,0,0
637,666,0,0,0,0,0,0,0,0,0,-1,1861,358,0,0
644,666,0,0,0,0,0,0,0,0,0,-1,1868,358,0,0
651,666,0,0,0,0,0,0,0,0,0,-1,1875,358,0,0
658,666,0,0,0,0,0,0,0,0,0,-1,1882,358,0,0
665,666,0,0,0,0,0,0,0,0,0,-1,1889,358,0,0
672,666,0,0,0,0,0,0,0,0,0,-1,1896,358,0,0
679,666,0,0,0,0,0,0,0,0,0,-1,1903,358,0,0
686,666,0,0,0,0,0,0,0,0,0,-1,1910,358,0,0
693,666,0,0,0,0,0,0,0,0,0,-1,1917,358,0,0
700,666,0,0,0,0,0,0,0,0,0,-1,1924,358,0,0
707,666,0,0,0,0,0,0,0,0,0,-1,1931,358,0,0
714,666,0,0,0,0,0,0,0,0,0,-1,1938,358,0,0
721,666,0,0,0,0,0,0,0,0,0,-1,1945,358,0,0
728,666,0,0,0,0,0,0,0,0,0,-1,1952,358,0,0
735,666,0,0,0,0,0,0,0,0,0,-1,1959,358,0,0
742,666,0,0,0,0,0,0,0,0,0,-1,1966,358,0,0
749,666,0,0,0,0,0,0,0,0,0,-1,1973,358,0,0
756,666,0,0,0,0,0,0,0,0,0,-1,1980,358,0,0
763,666,0,0,0,0,0,0,0,0,0,-1,1987,358,0,0
770,666,0,0,0,0,0,0,0,0,0,-1,1994,358,0,0
777,666,0,0,0,0,0,0,0,0,0,-1,2001,358,0,0
784,666,0,0,0,0,0,0,0,0,0,-1,2008,358,0,0
791,666,0,0,0,0,0,0,0,0,0,-1,2015,358,0,0
798,666,0,0,0,0,0,0,0,0,0,-1,2022,358,0,0
805,666,0,0,0,0,0,0,0,0,0,-1,2029,358,0,0
812,666,0,0,0,0,0,0,0,0,0,-1,2036,358,0,0
-700,659,0,0,0,0,0,0,0,0,0,-1,524,365,0,0
-693,659,0,0,0,0,0,0,0,0,0,-1,531,365,0,0
-686,659,0,0,0,0,0,0,0,0,0,-1,538,365,0,0
-679,659,0,0,0,0,0,0,0,0,0,-1,545,365,0,0
-672,659,0,0,0,0,0,0,0,0,0,-1,552,365,0,0
-665,659,0,0,0,0,0,0,0,0,0,-1,559,365,0,0
-658,659,0,0,0,0,0,0,0,0,0,-1,566,365,0,0
-651,659,0,0,0,0,0,0,0,0,0,-1,573,365,0,0
-644,659,0,0,0,0,0,0,0,0,0,-1,580,365,0,0
-637,659,0,0,0,0,0,0,0,0,0,-1,587,365,0,0
-630,659,0,0,0,0,0,0,0,0,0,-1,594,365,0,0
-623,659,0,0,0,0,0,0,0,0,0,-1,601,365,0,0
-616,659,0,0,0,0,0,0,0,0,0,-1,608,365,0,0
-609,659,0,0,0,0,0,0,0,0,0,-1,615,365,0,0
-602,659,0,0,0,0,0,0,0,0,0,-1,622,365,0,0
-595,659,0,0,0,0,0,0,0,0,0,-1,629,365,0,0
-588,659,0,0,0,0,0,0,0,0,0,-1,636,365,0,0
-581,659,0,0,0,0,0,0,0,0,0,-1,643,365,0,0
-574,659,0,0,0,0,0,0,0,0,0,-1,650,365,0,0
-567,659,0,0,0,0,0,0,0,0,0,-1,657,365,0,0
-560,659,0,0,0,0,0,0,0,0,0,-1,664,365,0,0
-553,659,0,0,0,0,0,0,0,0,0,-1,671,365,0,0
-546,659,0,0,0,0,0,0,0,0,0,-1,678,365,0,0
-539,659,0,0,0,0,0,0,0,0,0,-1,685,365,0,0
-532,659,0,0,0,0,0,0,0,0,0,-1,692,365,0,0
-525,659,0,0,0,0,0,0,0,0,0,-1,699,365,0,0
-518,659,0,0,0,0,0,0,0,0,0,-1,706,365,0,0
-511,659,0,0,0,0,0,0,0,0,0,-1,713,365,0,0
-504,659,0,0,0,0,0,0,0,0,0,-1,720,365,0,0
-497,659,0,0,0,0,0,0,0,0,0,-1,727,365,0,0
-490,659,0,0,0,0,0,0,0,0,0,-1,734,365,0,0
-483,659,0,0,0,0,0,0,0,0,0,-1,741,365,0,0
-476,659,0,0,0,0,0,0,0,0,0,-1,748,365,0,0
-469,659,0,0,0,0,0,0,0,0,0,-1,755,365,0,0
-462,659,0,0,0,0,0,0,0,0,0,-1,762,365,0,0
-455,659,0,0,0,0,0,0,0,0,0,-1,769,365,0,0
-448,659,0,0,0,0,0,0,0,0,0,-1,776,365,0,0
-441,659,0,0,0,0,0,0,0,0,0,-1,783,365,0,0
-434,659,0,0,0,0,0,0,0,0,0,-1,790,365,0,0
-427,659,0,0,0,0,0,0,0,0,0,-1,797,365,0,0
-420,659,0,0,0,0,0,0,0,0,0,-1,804,365,0,0
-413,659,0,0,0,0,0,0,0,0,0,-1,811,365,0,0
-406,659,0,0,0,0,0,0,0,0,0,-1,818,365,0,0
-399,659,0,0,0,0,0,0,0,0,0,-1,825,365,0,0
-392,659,0,0,0,0,0,0,0,0,0,-1,832,365,0,0
-385,659,0,0,0,0,0,0,0,0,0,-1,839,365,0,0
-378,659,0,0,0,0,0,0,0,0,0,-1,846,365,0,0
-371,659,0,0,0,0,0,0,0,0,0,-1,853,365,0,0
-364,659,0,0,0,0,0,0,0,0,0,-1,860,365,0,0
-357,659,0,0,0,0,0,0,0,0,0,-1,867,365,0,0
-350,659,0,0,0,0,0,0,0,0,0,-1,874,365,0,0
-343,659,0,0,0,0,0,0,0,0,0,-1,881,365,0,0
-336,659,0,0,0,0,0,0,0,0,0,-1,888,365,0,0
-329,659,0,0,0,0,0,0,0,0,0,-1,895,365,0,0
-322,659,0,0,0,0,0,0,0,0,0,-1,902,365,0,0
-315,659,0,0,0,0,0,0,0,0,0,-1,909,365,0,0
-308,659,0,0,0,0,0,0,0,0,0,-1,916,365,0,0
-301,659,0,0,0,0,0,0,0,0,0,-1,923,365,0,0
-294,659,0,0,0,0,0,0,0,0,0,-1,930,365,0,0
-287,659,0,0,0,0,0,0,0,0,0,-1,937,365,0,0
-280,659,0,0,0,0,0,0,0,0,0,-1,944,365,0,0
-273,659,0,0,0,0,0,0,0,0,0,-1,951,365,0,0
-266,659,0,0,0,0,0,0,0,0,0,-1,958,365,0,0
-259,659,0,0,0,0,0,0,0,0,0,-1,965,365,0,0
-252,659,0,0,0,0,0,0,0,0,0,-1,972,365,0,0
-245,659,0,0,0,0,0,0,0,0,0,-1,979,365,0,0
-238,659,0,0,0,0,0,0,0,0,0,-1,986,365,0,0
-231,659,0,0,0,0,0,0,0,0,0,-1,993,365,0,0
-224,659,0,0,0,0,0,0,0,0,0,-1,1000,365,0,0
-217,659,10.1305,-25.2622,0,0,0,0,0,0,0,-1,1007,365,10.1305,25.2622
-210,659,9.65643,-25.515,0,0,0,0,0,0,0,-1,1014,365,9.65642,25.515
-203,659,8.58911,-25.7432,0,0,0,0,0,0,0,-1,1021,365,8.58916,25.7432
-196,659,2.68323,-27.8121,0,0,0,0,0,0,0,-1,1028,365,2.6832,27.8121
-189,659,6.88049,-28.9412,0,0,0,0,0,0,0,-1,1035,365,6.88045,28.9412
-182,659,6.94189,-30.6316,0,0,0,0,0,0,0,-1,1042,365,6.94189,30.6316
-175,659,6.948,-32.0092,0,0,0,0,0,0,0,-1,1049,365,6.94798,32.0093
-168,659,7.1416,-32.7405,0,0,0,0,0,0,0,-1,1056,365,7.14157,32.7405
-161,659,7.57361,-33.7099,0,0,0,0,0,0,0,-1,1063,365,7.57355,33.7099
-154,659,7.71448,-34.8995,0,0,0,0,0,0,0,-1,1070,365,7.7145,34.8995
-147,659,5.46606,-37.758,0,0,0,0,0,0,0,-1,1077,365,5.46601,37.758
-140,659,5.7356,-37.755,0,0,0,0,0,0,0,-1,1084,365,5.73562,37.755
-133,659,5.91455,-37.9017,0,0,0,0,0,0,0,-1,1091,365,5.9146,37.9017
-126,659,6.31226,-37.9904,0,0,0,0,0,0,0,-1,1098,365,6.3122,37.9904
-119,659,6.26941,-35.0837,0,0,0,0,0,0,0,-1,1105,365,6.26943,35.0837
-112,659,6.24353,-35.0562,0,0,0,0,0,0,0,-1,1112,365,6.24349,35.0562
-105,659,5.38696,-30.5854,0,0,0,0,0,0,0,-1,1119,365,5.387,30.5854
-98,659,4.68042,-26.2438,0,0,0,0,0,0,0,-1,1126,365,4.68041,26.2438
-91,659,4.20776,-20.8654,0,0,0,0,0,0,0,-1,1133,365,4.20777,20.8654
-84,659,2.8584,-17.8303,0,0,0,0,0,0,0,-1,1140,365,2.85836,17.8303
-77,659,2.80139,-15.3457,0,0,0,0,0,0,0,-1,1147,365,2.80139,15.3457
-70,659,2.9353,-12.7028,0,0,0,0,0,0,0,-1,1154,365,2.93533,12.7028
-63,659,2.11267,-9.7796,0,0,0,0,0,0,0,-1,1161,365,2.11266,9.7796
-56,659,2.11182,-9.91541,0,0,0,0,0,0,0,-1,1168,365,2.11178,9.91541
-49,659,1.90723,-261.049,0,0,0,0,0,0,0,-1,1175,365,1.90726,261.049
-42,659,-2.33667,-263.154,0,0,0,0,0,0,0,-1,1182,365,-2.33669,263.154
-35,659,-1.8302,-263.676,0.0415986,0.0209512,0.00991123,0.0455861,0.0169637,0.382509,0.0266045,0.0439009,1189,365,-1.83017,263.676
-28,659,-1.47632,-264.404,0.0418774,0.0222824,0.010041,0.0461089,0.0180509,0.398836,0.0268292,0.0290656,1196,365,-1.47633,264.404
-21,659,-1.06665,-265.456,0.0417908,0.0234066,0.00997888,0.0461661,0.0190314,0.413207,0.0267905,0.0471275,1203,365,-1.0667,265.456
-14,659,-0.782471,-266.226,0.0423151,0.0243337,0.00999246,0.0467662,0.0198826,0.419061,0.0271011,0.0451528,1210,365,-0.78252,266.226
-7,659,-0.585327,-266.769,0.043539,0.0248312,0.0098279,0.0477529,0.0206174,0.405052,0.0276556,0.0423845,1217,365,-0.58536,266.769
0,659,-0.44873,-267.766,0,0,0,0,0,0,0,-1,1224,365,-0.448786,267.766
7,659,-0.219604,-268.211,0,0,0,0,0,0,0,-1,1231,365,-0.21961,268.211
14,659,0.112305,-268.391,0.0475541,0.0225744,0.00719635,0.0494789,0.0206496,0.261359,0.0286965,0.0286085,1238,365,0.112359,268.391
21,659,0.403931,-268.751,0.049362,0.0214683,0.00635018,0.0507396,0.0200907,0.213632,0.0295052,0.0255569,1245,365,0.403953,268.751
28,659,0.633789,-269.225,0.0510276,0.0193169,0.00547423,0.051946,0.0183984,0.166223,0.0304132,0.0250245,1252,365,0.633806,269.225
35,659,1.09863,-269.581,0.0523339,0.0172522,0.00423172,0.0528372,0.016749,0.118363,0.0311792,0.0278272,1259,365,1.09863,269.581
42,659,1.59534,-269.852,0.0541504,0.0147131,0.00280437,0.0543489,0.0145147,0.0706358,0.0324935,0.0308367,1266,365,1.59532,269.852
49,659,2.02039,-270.095,0.0560535,0.0124999,0.00174484,0.0561233,0.0124301,0.0399765,0.0340373,0.0321538,1273,365,2.02038,270.095
56,659,2.32068,-270.22,0.0570045,0.0110585,0.000895494,0.0570219,0.011041,0.0194803,0.034921,0.0361999,1280,365,2.3207,270.22
63,659,2.53723,-270.295,0.0570173,0.0106439,0.000547331,0.0570237,0.0106374,0.0118005,0.0350129,0.0295652,1287,365,2.53729,270.295
70,659,3.08789,-270.188,0.0573121,0.0108993,0.000754836,0.0573244,0.010887,0.0162578,0.0351538,0.0323308,1294,365,3.08786,270.188
77,659,3.65112,-270.058,0,0,0,0,0,0,0,-1,1301,365,3.65118,270.058
84,659,3.92725,-270.001,0.0573265,0.0136817,0.00126474,0.0573631,0.0136451,0.0289458,0.0346024,0.0211422,1308,365,3.92726,270.001
91,659,4.17188,-269.892,0,0,0,0,0,0,0,-1,1315,365,4.17185,269.892
98,659,4.43091,-269.486,0.0551923,0.0180429,0.000959254,0.055217,0.0180182,0.0257986,0.0325144,0.0170492,1322,365,4.43089,269.486
105,659,4.8728,-269.028,0.0548225,0.0201531,0.00104792,0.0548541,0.0201215,0.0301893,0.0320424,0.0207067,1329,365,4.87281,269.028
112,659,5.36353,-268.616,0.0544693,0.0225793,0.00102419,0.0545022,0.0225465,0.0320724,0.0316228,0.0219887,1336,365,5.36349,268.616
119,659,5.76099,-268.005,0.0539436,0.0245817,0.000679799,0.0539593,0.0245659,0.0231359,0.031195,0.034806,1343,365,5.76095,268.005
126,659,6.15845,-267.263,0.0527025,0.0270024,0.000364822,0.0527077,0.0269972,0.0141915,0.0304338,0.0407314,1350,365,6.15848,267.263
133,659,6.59973,-266.509,0.051547,0.0289095,0.000264995,0.0515501,0.0289064,0.0117038,0.0298356,0.0411436,1357,365,6.59971,266.509
140,659,6.80945,-266.068,0.0502067,0.0303651,0.000246163,0.0502097,0.030362,0.0124039,0.0291997,0.0375971,1364,365,6.80945,266.068
147,659,7.07947,-265.482,0.0480642,0.0314302,-1.51257e-05,0.0480642,0.0314302,-0.000909329,0.0281848,0.0389841,1371,365,7.07953,265.482
154,659,7.5188,-264.641,0.0457377,0.0324994,1.87252e-06,0.0457377,0.0324994,0.000141447,0.027176,0.0430955,1378,365,7.51883,264.641
161,659,7.64563,-263.527,0.0435612,0.0334451,8.35577e-05,0.0435619,0.0334444,0.00825913,0.026325,0.0417479,1385,365,7.64562,263.527
168,659,8.09119,-262.201,0,0,0,0,0,0,0,-1,1392,365,8.09118,262.201
175,659,8.58411,-260.999,0,0,0,0,0,0,0,-1,1399,365,8.58408,260.999
182,659,8.65369,-259.95,0,0,0,0,0,0,0,-1,1406,365,8.6537,259.95
189,659,5.07507,-133.501,0,0,0,0,0,0,0,-1,1413,365,5.07502,133.501
196,659,2.41248,-13.4371,0,0,0,0,0,0,0,-1,1420,365,2.41243,13.4371
203,659,2.38623,-12.2163,0,0,0,0,0,0,0,-1,1427,365,2.38617,12.2163
210,659,2.20789,-13.9792,0,0,0,0,0,0,0,-1,1434,365,2.20794,13.9792
217,659,2.24121,-13.487,0,0,0,0,0,0,0,-1,1441,365,2.24116,13.487
224,659,2.3479,-15.2926,0,0,0,0,0,0,0,-1,1448,365,2.34793,15.2926
231,659,2.47974,-17.8629,0,0,0,0,0,0,0,-1,1455,365,2.47976,17.8628
238,659,3.57886,-21.1258,0,0,0,0,0,0,0,-1,1462,365,3.57889,21.1258
245,659,3.29883,-25.0283,0,0,0,0,0,0,0,-1,1469,365,3.29889,25.0283
252,659,2.81909,-24.1604,0,0,0,0,0,0,0,-1,1476,365,2.81905,24.1604
259,659,2.33069,-3.36703,0,0,0,0,0,0,0,-1,1483,365,2.33073,3.36702
266,659,3.40918,-35.2544,0,0,0,0,0,0,0,-1,1490,365,3.40913,35.2544
273,659,4.45557,-42.3683,0,0,0,0,0,0,0,-1,1497,365,4.45554,42.3683
280,659,4.87903,-41.4995,0,0,0,0,0,0,0,-1,1504,365,4.87898,41.4995
287,659,1.09851,-23.7787,0,0,0,0,0,0,0,-1,1511,365,1.09847,23.7787
294,659,0.115601,-24.0352,0,0,0,0,0,0,0,-1,1518,365,0.115612,24.0352
301,659,-1.21362,-22.6162,0,0,0,0,0,0,0,-1,1525,365,-1.21358,22.6162
308,659,-2.32605,-21.2737,0,0,0,0,0,0,0,-1,1532,365,-2.32606,21.2737
315,659,-3.69629,-19.8803,0,0,0,0,0,0,0,-1,1539,365,-3.69631,19.8803
322,659,-4.9646,-18.5258,0,0,0,0,0,0,0,-1,1546,365,-4.96464,18.5257
329,659,-7.67749,-23.0449,0,0,0,0,0,0,0,-1,1553,365,-7.67745,23.0449
336,659,-7.71436,-22.4188,0,0,0,0,0,0,0,-1,1560,365,-7.71432,22.4188
343,659,0,0,0,0,0,0,0,0,0,-1,1567,365,0,0
350,659,0,0,0,0,0,0,0,0,0,-1,1574,365,0,0
357,659,0,0,0,0,0,0,0,0,0,-1,1581,365,0,0
364,659,0,0,0,0,0,0,0,0,0,-1,1588,365,0,0
371,659,0,0,0,0,0,0,0,0,0,-1,1595,365,0,0
378,659,0,0,0,0,0,0,0,0,0,-1,1602,365,0,0
385,659,0,0,0,0,0,0,0,0,0,-1,1609,365,0,0
392,659,0,0,0,0,0,0,0,0,0,-1,1616,365,0,0
399,659,0,0,0,0,0,0,0,0,0,-1,1623,365,0,0
406,659,0,0,0,0,0,0,0,0,0,-1,1630,365,0,0
413,659,0,0,0,0,0,0,0,0,0,-1,1637,365,0,0
420,659,0,0,0,0,0,0,0,0,0,-1,1644,365,0,0
427,659,0,0,0,0,0,0,0,0,0,-1,1651,365,0,0
434,659,0,0,0,0,0,0,0,0,0,-1,1658,365,0,0
441,659,0,0,0,0,0,0,0,0,0,-1,1665,365,0,0
448,659,0,0,0,0,0,0,0,0,0,-1,1672,365,0,0
455,659,0,0,0,0,0,0,0,0,0,-1,1679,365,0,0
462,659,0,0,0,0,0,0,0,0,0,-1,1686,365,0,0
469,659,0,0,0,0,0,0,0,0,0,-1,1693,365,0,0
476,659,0,0,0,0,0,0,0,0,0,-1,1700,365,0,0
483,659,0,0,0,0,0,0,0,0,0,-1,1707,365,0,0
490,659,0,0,0,0,0,0,0,0,0,-1,1714,365,0,0
497,659,0,0,0,0,0,0,0,0,0,-1,1721,365,0,0
504,659,0,0,0,0,0,0,0,0,0,-1,1728,365,0,0
511,659,0,0,0,0,0,0,0,0,0,-1,1735,365,0,0
518,659,0,0,0,0,0,0,0,0,0,-1,1742,365,0,0
525,659,0,0,0,0,0,0,0,0,0,-1,1749,365,0,0
532,659,0,0,0,0,0,0,0,0,0,-1,1756,365,0,0
539,659,0,0,0,0,0,0,0,0,0,-1,1763,365,0,0
546,659,0,0,0,0,0,0,0,0,0,-1,1770,365,0,0
553,659,0,0,0,0,0,0,0,0,0,-1,1777,365,0,0
560,659,0,0,0,0,0,0,0,0,0,-1,1784,365,0,0
567,659,0,0,0,0,0,0,0,0,0,-1,1791,365,0,0
574,659,0,0,0,0,0,0,0,0,0,-1,1798,365,0,0
581,659,0,0,0,0,0,0,0,0,0,-1,1805,365,0,0
588,659,0,0,0,0,0,0,0,0,0,-1,1812,365,0,0
595,659,0,0,0,0,0,0,0,0,0,-1,1819,365,0,0
602,659,0,0,0,0,0,0,0,0,0,-1,1826,365,0,0
609,659,0,0,0,0,0,0,0,0,0,-1,1833,365,0,0
616,659,0,0,0,0,0,0,0,0,0,-1,1840,365,0,0
623,659,0,0,0,0,0,0,0,0,0,-1,1847,365,0,0
630,659,0,0,0,0,0,0,0,0,0,-1,1854,365,0,0
637,659,0,0,0,0,0,0,0,0,0,-1,1861,365,0,0
644,659,0,0,0,0,0,0,0,0,0,-1,1868,365,0,0
651,659,0,0,0,0,0,0,0,0,0,-1,1875,365,0,0
658,659,0,0,0,0,0,0,0,0,0,-1,1882,365,0,0
665,659,0,0,0,0,0,0,0,0,0,-1,1889,365,0,0
672,659,0,0,0,0,0,0,0,0,0,-1,1896,365,0,0
679,659,0,0,0,0,0,0,0,0,0,-1,1903,365,0,0
686,659,0,0,0,0,0,0,0,0,0,-1,1910,365,0,0
693,659,0,0,0,0,0,0,0,0,0,-1,1917,365,0,0
700,659,0,0,0,0,0,0,0,0,0,-1,1924,365,0,0
707,659,0,0,0,0,0,0,0,0,0,-1,1931,365,0,0
714,659,0,0,0,0,0,0,0,0,0,-1,1938,365,0,0
721,659,0,0,0,0,0,0,0,0,0,-1,1945,365,0,0
728,659,0,0,0,0,0,0,0,0,0,-1,1952,365,0,0
735,659,0,0,0,0,0,0,0,0,0,-1,1959,365,0,0
742,659,0,0,0,0,0,0,0,0,0,-1,1966,365,0,0
749,659,0,0,0,0,0,0,0,0,0,-1,1973,365,0,0
756,659,0,0,0,0,0,0,0,0,0,-1,1980,365,0,0
763,659,0,0,0,0,0,0,0,0,0,-1,1987,365,0,0
770,659,0,0,0,0,0,0,0,0,0,-1,1994,365,0,0
777,659,0,0,0,0,0,0,0,0,0,-1,2001,365,0,0
784,659,0,0,0,0,0,0,0,0,0,-1,2008,365,0,0
791,659,0,0,0,0,0,0,0,0,0,-1,2015,365,0,0
798,659,0,0,0,0,0,0,0,0,0,-1,2022,365,0,0
805,659,0,0,0,0,0,0,0,0,0,-1,2029,365,0,0
812,659,0,0,0,0,0,0,0,0,0,-1,2036,365,0,0
-700,652,0,0,0,0,0,0,0,0,0,-1,524,372,0,0
-693,652,0,0,0,0,0,0,0,0,0,-1,531,372,0,0
-686,652,0,0,0,0,0,0,0,0,0,-1,538,372,0,0
-679,652,0,0,0,0,0,0,0,0,0,-1,545,372,0,0
-672,652,0,0,0,0,0,0,0,0,0,-1,552,372,0,0
-665,652,0,0,0,0,0,0,0,0,0,-1,559,372,0,0
-658,652,0,0,0,0,0,0,0,0,0,-1,566,372,0,0
-651,652,0,0,0,0,0,0,0,0,0,-1,573,372,0,0
-644,652,0,0,0,0,0,0,0,0,0,-1,580,372,0,0
-637,652,0,0,0,0,0,0,0,0,0,-1,587,372,0,0
-630,652,0,0,0,0,0,0,0,0,0,-1,594,372,0,0
-623,652,0,0,0,0,0,0,0,0,0,-1,601,372,0,0
-616,652,0,0,0,0,0,0,0,0,0,-1,608,372,0,0
-609,652,0,0,0,0,0,0,0,0,0,-1,615,372,0,0
-602,652,0,0,0,0,0,0,0,0,0,-1,622,372,0,0
-595,652,0,0,0,0,0,0,0,0,0,-1,629,372,0,0
-588,652,0,0,0,0,0,0,0,0,0,-1,636,372,0,0
-581,652,0,0,0,0,0,0,0,0,0,-1,643,372,0,0
-574,652,0,0,0,0,0,0,0,0,0,-1,650,372,0,0
-567,652,0,0,0,0,0,0,0,0,0,-1,657,372,0,0
-560,652,0,0,0,0,0,0,0,0,0,-1,664,372,0,0
-553,652,0,0,0,0,0,0,0,0,0,-1,671,372,0,0
-546,652,0,0,0,0,0,0,0,0,0,-1,678,372,0,0
-539,652,0,0,0,0,0,0,0,0,0,-1,685,372,0,0
-532,652,0,0,0,0,0,0,0,0,0,-1,692,372,0,0
-525,652,0,0,0,0,0,0,0,0,0,-1,699,372,0,0
-518,652,0,0,0,0,0,0,0,0,0,-1,706,372,0,0
-511,652,0,0,0,0,0,0,0,0,0,-1,713,372,0,0
-504,652,0,0,0,0,0,0,0,0,0,-1,720,372,0,0
-497,652,0,0,0,0,0,0,0,0,0,-1,727,372,0,0
-490,652,0,0,0,0,0,0,0,0,0,-1,734,372,0,0
-483,652,0,0,0,0,0,0,0,0,0,-1,741,372,0,0
-476,652,0,0,0,0,0,0,0,0,0,-1,748,372,0,0
-469,652,0,0,0,0,0,0,0,0,0,-1,755,372,0,0
-462,652,0,0,0,0,0,0,0,0,0,-1,762,372,0,0
-455,652,0,0,0,0,0,0,0,0,0,-1,769,372,0,0
-448,652,0,0,0,0,0,0,0,0,0,-1,776,372,0,0
-441,652,0,0,0,0,0,0,0,0,0,-1,783,372,0,0
-434,652,0,0,0,0,0,0,0,0,0,-1,790,372,0,0
-427,652,0,0,0,0,0,0,0,0,0,-1,797,372,0,0
-420,652,0,0,0,0,0,0,0,0,0,-1,804,372,0,0
-413,652,0,0,0,0,0,0,0,0,0,-1,811,372,0,0
-406,652,0,0,0,0,0,0,0,0,0,-1,818,372,0,0
-399,652,0,0,0,0,0,0,0,0,0,-1,825,372,0,0
-392,652,0,0,0,0,0,0,0,0,0,-1,832,372,0,0
-385,652,0,0,0,0,0,0,0,0,0,-1,839,372,0,0
-378,652,0,0,0,0,0,0,0,0,0,-1,846,372,0,0
-371,652,0,0,0,0,0,0,0,0,0,-1,853,372,0,0
-364,652,0,0,0,0,0,0,0,0,0,-1,860,372,0,0
-357,652,0,0,0,0,0,0,0,0,0,-1,867,372,0,0
-350,652,0,0,0,0,0,0,0,0,0,-1,874,372,0,0
-343,652,0,0,0,0,0,0,0,0,0,-1,881,372,0,0
-336,652,0,0,0,0,0,0,0,0,0,-1,888,372,0,0
-329,652,0,0,0,0,0,0,0,0,0,-1,895,372,0,0
-322,652,0,0,0,0,0,0,0,0,0,-1,902,372,0,0
-315,652,0,0,0,0,0,0,0,0,0,-1,909,372,0,0
-308,652,0,0,0,0,0,0,0,0,0,-1,916,372,0,0
-301,652,0,0,0,0,0,0,0,0,0,-1,923,372,0,0
-294,652,0,0,0,0,0,0,0,0,0,-1,930,372,0,0
-287,652,0,0,0,0,0,0,0,0,0,-1,937,372,0,0
-280,652,0,0,0,0,0,0,0,0,0,-1,944,372,0,0
-273,652,0,0,0,0,0,0,0,0,0,-1,951,372,0,0
-266,652,0,0,0,0,0,0,0,0,0,-1,958,372,0,0
-259,652,0,0,0,0,0,0,0,0,0,-1,965,372,0,0
-252,652,0,0,0,0,0,0,0,0,0,-1,972,372,0,0
-245,652,0,0,0,0,0,0,0,0,0,-1,979,372,0,0
-238,652,0,0,0,0,0,0,0,0,0,-1,986,372,0,0
-231,652,8.79358,-27.1656,0,0,0,0,0,0,0,-1,993,372,8.79357,27.1656
-224,652,8.84552,-27.675,0,0,0,0,0,0,0,-1,1000,372,8.84555,27.675
-217,652,9.03113,-27.7474,0,0,0,0,0,0,0,-1,1007,372,9.0311,27.7474
-210,652,9.72803,-30.4624,0,0,0,0,0,0,0,-1,1014,372,9.72805,30.4624
-203,652,7.2677,-26.0732,0,0,0,0,0,0,0,-1,1021,372,7.26775,26.0732
-196,652,5.90686,-26.957,0,0,0,0,0,0,0,-1,1028,372,5.9068,26.957
-189,652,6.21326,-28.3035,0,0,0,0,0,0,0,-1,1035,372,6.21331,28.3035
-182,652,6.45068,-29.9377,0,0,0,0,0,0,0,-1,1042,372,6.45074,29.9377
-175,652,6.72559,-31.6948,0,0,0,0,0,0,0,-1,1049,372,6.72563,31.6948
-168,652,7.08533,-32.8669,0,0,0,0,0,0,0,-1,1056,372,7.08532,32.8669
-161,652,7.85291,-37.3545,0,0,0,0,0,0,0,-1,1063,372,7.85294,37.3545
-154,652,7.54639,-37.9586,0,0,0,0,0,0,0,-1,1070,372,7.54642,37.9586
-147,652,7.85571,-42.3712,0,0,0,0,0,0,0,-1,1077,372,7.8557,42.3712
-140,652,5.6842,-33.9781,0,0,0,0,0,0,0,-1,1084,372,5.68421,33.9781
-133,652,6.3009,-35.2887,0,0,0,0,0,0,0,-1,1091,372,6.30093,35.2887
-126,652,5.86841,-37.0981,0,0,0,0,0,0,0,-1,1098,372,5.86845,37.0981
-119,652,8.18018,-49.52,0,0,0,0,0,0,0,-1,1105,372,8.18015,49.52
-112,652,7.81982,-48.4793,0,0,0,0,0,0,0,-1,1112,372,7.81981,48.4793
-105,652,6.63855,-39.9965,0,0,0,0,0,0,0,-1,1119,372,6.63852,39.9965
-98,652,5.84302,-35.2455,0,0,0,0,0,0,0,-1,1126,372,5.84307,35.2455
-91,652,5.66296,-32.9003,0,0,0,0,0,0,0,-1,1133,372,5.66297,32.9003
-84,652,5.46057,-34.9186,0,0,0,0,0,0,0,-1,1140,372,5.46057,34.9186
-77,652,-1.64478,-255.661,0,0,0,0,0,0,0,-1,1147,372,-1.64473,255.661
-70,652,-3.63599,-257.829,0,0,0,0,0,0,0,-1,1154,372,-3.63603,257.829
-63,652,-3.43958,-259.159,0,0,0,0,0,0,0,-1,1161,372,-3.4396,259.159
-56,652,-3.44714,-260.623,0,0,0,0,0,0,0,-1,1168,372,-3.44719,260.623
-49,652,-3.10168,-262.001,0,0,0,0,0,0,0,-1,1175,372,-3.10171,262.001
-42,652,-3.14282,-262.777,0,0,0,0,0,0,0,-1,1182,372,-3.14281,262.777
-35,652,-2.69397,-263.622,0.0493289,0.0128689,0.0102981,0.0520366,0.0101612,0.257105,0.0318489,0.0338945,1189,372,-2.69402,263.622
-28,652,-2.4198,-264.583,0.0501861,0.0137529,0.0102686,0.0528809,0.0110581,0.25665,0.0322071,0.0153077,1196,372,-2.41979,264.583
-21,652,-2.19885,-265.536,0.0506392,0.0144602,0.01005,0.0532435,0.0118559,0.253556,0.0322778,0.0213508,1203,372,-2.19886,265.536
-14,652,-1.78723,-266.172,0.0515787,0.0150622,0.00992301,0.054101,0.0125399,0.248912,0.0326989,0.0268292,1210,372,-1.78722,266.172
-7,652,-1.4646,-266.924,0.0531212,0.0153746,0.00972967,0.0554816,0.0130142,0.237995,0.0335031,0.0307801,1217,372,-1.46462,266.924
0,652,-1.29199,-267.623,0.05486,0.0150736,0.00913294,0.0568563,0.0130773,0.215197,0.0343843,0.0283725,1224,372,-1.29204,267.623
7,652,-0.80603,-267.999,0.0564313,0.0143017,0.00830077,0.0580078,0.0127252,0.187687,0.0352053,0.0305285,1231,372,-0.806011,267.999
14,652,-0.253906,-268.603,0.0581756,0.0133136,0.00731022,0.0593367,0.0121524,0.157522,0.0361936,0.0208886,1238,372,-0.253865,268.603
21,652,-0.0383301,-269.094,0.0601531,0.0123323,0.0064837,0.0610165,0.0114688,0.132399,0.0374449,0.0162202,1245,372,-0.0383838,269.094
28,652,0.204224,-269.463,0.0620079,0.0105512,0.00559441,0.0626091,0.00994996,0.107054,0.0388498,0.017564,1252,372,0.204211,269.463
35,652,0.756836,-269.717,0.0635492,0.00874947,0.00439007,0.0638987,0.00840001,0.079436,0.0400935,0.0196027,1259,372,0.756895,269.717
42,652,1.30469,-269.914,0.065388,0.00657361,0.00300079,0.0655408,0.0064209,0.0508454,0.0417186,0.0196334,1266,372,1.30474,269.914
49,652,1.82324,-270.109,0.0672177,0.00459785,0.00190419,0.0672755,0.00453999,0.0303713,0.0434162,0.0229922,1273,372,1.82324,270.109
56,652,2.16174,-270.23,0.0681369,0.00326126,0.000864939,0.0681485,0.00324973,0.0133291,0.0443887,0.0273418,1280,372,2.16177,270.23
63,652,2.41345,-270.318,0.0684371,0.00275997,0.000200922,0.0684377,0.00275936,0.00305919,0.0447337,0.0290681,1287,372,2.41347,270.318
70,652,3.14417,-270.158,0.0688795,0.00276154,-5.90322e-05,0.0688796,0.00276149,-0.000892831,0.0450274,0.023679,1294,372,3.14415,270.158
77,652,3.67261,-270.04,0,0,0,0,0,0,0,-1,1301,372,3.67265,270.04
84,652,4.05737,-270.115,0,0,0,0,0,0,0,-1,1308,372,4.05738,270.115
91,652,4.36902,-270.081,0,0,0,0,0,0,0,-1,1315,372,4.36902,270.081
98,652,4.89343,-269.661,0.0677625,0.00817345,-0.00136205,0.0677936,0.00814233,-0.0228414,0.0427409,0.0206396,1322,372,4.89345,269.661
105,652,5.41199,-269.221,0.0676429,0.00992948,-0.00166047,0.0676906,0.00988174,-0.0287393,0.0422204,0.0222956,1329,372,5.41199,269.221
112,652,5.86707,-268.773,0.0674283,0.0120137,-0.00200673,0.0675009,0.0119411,-0.0361498,0.0415955,0.018805,1336,372,5.86707,268.773
119,652,6.25342,-268.241,0.0668964,0.0138225,-0.00251812,0.0670156,0.0137033,-0.0473039,0.0408822,0.0277699,1343,372,6.25341,268.241
126,652,6.66895,-267.537,0.0655971,0.016046,-0.00293657,0.0657705,0.0158726,-0.0589882,0.0396303,0.0380931,1350,372,6.66896,267.537
133,652,7.14941,-266.808,0.0642314,0.0178549,-0.00310209,0.064438,0.0176483,-0.0664944,0.0384505,0.0312273,1357,372,7.14947,266.808
140,652,7.48145,-266.214,0.0627064,0.0193981,-0.00314525,0.0629336,0.0191709,-0.0721203,0.0372479,0.0194487,1364,372,7.48144,266.214
147,652,7.91089,-265.546,0.060532,0.0205004,-0.00339971,0.0608187,0.0202138,-0.0841229,0.0357655,0.0183449,1371,372,7.91092,265.546
154,652,8.33301,-264.706,0.0580417,0.0215788,-0.00343918,0.0583633,0.0212572,-0.0932243,0.0341077,0.0217707,1378,372,8.33303,264.706
161,652,8.72839,-263.778,0.0555814,0.0225309,-0.00341266,0.0559301,0.0221822,-0.101825,0.0325206,0.0284385,1385,372,8.7284,263.778
168,652,9.1311,-262.777,0.0538073,0.0232669,-0.00370916,0.0542513,0.0228229,-0.119144,0.0314531,0.0334699,1392,372,9.13107,262.777
175,652,9.47021,-261.574,0.0521826,0.0234361,-0.0042593,0.0528004,0.0228183,-0.144046,0.0305777,0.0344033,1399,372,9.47024,261.574
182,652,9.59985,-260.408,0.0513043,0.023448,-0.00461554,0.0520492,0.0227031,-0.159996,0.0301321,0.0440045,1406,372,9.59986,260.408
189,652,9.86011,-259.248,0,0,0,0,0,0,0,-1,1413,372,9.86008,259.248
196,652,9.73303,-258.111,0,0,0,0,0,0,0,-1,1420,372,9.73299,258.111
203,652,9.87341,-256.5,0,0,0,0,0,0,0,-1,1427,372,9.87341,256.5
210,652,10.7235,-254.681,0,0,0,0,0,0,0,-1,1434,372,10.7235,254.681
217,652,6.06433,-252.151,0,0,0,0,0,0,0,-1,1441,372,6.06429,252.151
224,652,3.63794,-31.2791,0,0,0,0,0,0,0,-1,1448,372,3.63799,31.2791
231,652,3.83936,-30.4812,0,0,0,0,0,0,0,-1,1455,372,3.8393,30.4812
238,652,4.42358,-36.4103,0,0,0,0,0,0,0,-1,1462,372,4.4236,36.4103
245,652,4.53296,-41.8512,0,0,0,0,0,0,0,-1,1469,372,4.5329,41.8512
252,652,5.00793,-47.7065,0,0,0,0,0,0,0,-1,1476,372,5.00791,47.7064
259,652,3.44922,-31.2655,0,0,0,0,0,0,0,-1,1483,372,3.44921,31.2655
266,652,5.5387,-50.3915,0,0,0,0,0,0,0,-1,1490,372,5.53875,50.3915
273,652,5.76855,-57.8665,0,0,0,0,0,0,0,-1,1497,372,5.76858,57.8665
280,652,4.05066,-24.6993,0,0,0,0,0,0,0,-1,1504,372,4.05066,24.6993
287,652,3.0979,-23.6951,0,0,0,0,0,0,0,-1,1511,372,3.09796,23.6951
294,652,2.06946,-24.1711,0,0,0,0,0,0,0,-1,1518,372,2.0694,24.1711
301,652,1.78735,-24.3724,0,0,0,0,0,0,0,-1,1525,372,1.78732,24.3724
308,652,-0.706299,-22.1083,0,0,0,0,0,0,0,-1,1532,372,-0.706291,22.1083
315,652,-1.65198,-21.8662,0,0,0,0,0,0,0,-1,1539,372,-1.65204,21.8662
322,652,-2.66101,-21.728,0,0,0,0,0,0,0,-1,1546,372,-2.66097,21.728
329,652,-7.12329,-21.7065,0,0,0,0,0,0,0,-1,1553,372,-7.12334,21.7065
336,652,-3.56519,-22.3688,0,0,0,0,0,0,0,-1,1560,372,-3.56517,22.3688
343,652,-3.58069,-21.9185,0,0,0,0,0,0,0,-1,1567,372,-3.58069,21.9185
350,652,5.28394,-25.6715,0,0,0,0,0,0,0,-1,1574,372,5.28393,25.6715
357,652,0,0,0,0,0,0,0,0,0,-1,1581,372,0,0
364,652,0,0,0,0,0,0,0,0,0,-1,1588,372,0,0
371,652,0,0,0,0,0,0,0,0,0,-1,1595,372,0,0
378,652,0,0,0,0,0,0,0,0,0,-1,1602,372,0,0
385,652,0,0,0,0,0,0,0,0,0,-1,1609,372,0,0
392,652,0,0,0,0,0,0,0,0,0,-1,1616,372,0,0
399,652,0,0,0,0,0,0,0,0,0,-1,1623,372,0,0
406,652,0,0,0,0,0,0,0,0,0,-1,1630,372,0,0
413,652,0,0,0,0,0,0,0,0,0,-1,1637,372,0,0
420,652,0,0,0,0,0,0,0,0,0,-1,1644,372,0,0
427,652,0,0,0,0,0,0,0,0,0,-1,1651,372,0,0
434,652,0,0,0,0,0,0,0,0,0,-1,1658,372,0,0
441,652,0,0,0,0,0,0,0,0,0,-1,1665,372,0,0
448,652,0,0,0,0,0,0,0,0,0,-1,1672,372,0,0
455,652,0,0,0,0,0,0,0,0,0,-1,1679,372,0,0
462,652,0,0,0,0,0,0,0,0,0,-1,1686,372,0,0
469,652,0,0,0,0,0,0,0,0,0,-1,1693,372,0,0
476,652,0,0,0,0,0,0,0,0,0,-1,1700,372,0,0
483,652,0,0,0,0,0,0,0,0,0,-1,1707,372,0,0
490,652,0,0,0,0,0,0,0,0,0,-1,1714,372,0,0
497,652,0,0,0,0,0,0,0,0,0,-1,1721,372,0,0
504,652,0,0,0,0,0,0,0,0,0,-1,1728,372,0,0
511,652,0,0,0,0,0,0,0,0,0,-1,1735,372,0,0
518,652,0,0,0,0,0,0,0,0,0,-1,1742,372,0,0
525,652,0,0,0,0,0,0,0,0,0,-1,1749,372,0,0
532,652,0,0,0,0,0,0,0,0,0,-1,1756,372,0,0
539,652,0,0,0,0,0,0,0,0,0,-1,1763,372,0,0
546,652,0,0,0,0,0,0,0,0,0,-1,1770,372,0,0
553,652,0,0,0,0,0,0,0,0,0,-1,1777,372,0,0
560,652,0,0,0,0,0,0,0,0,0,-1,1784,372,0,0
567,652,0,0,0,0,0,0,0,0,0,-1,1791,372,0,0
574,652,0,0,0,0,0,0,0,0,0,-1,1798,372,0,0
581,652,0,0,0,0,0,0,0,0,0,-1,1805,372,0,0
588,652,0,0,0,0,0,0,0,0,0,-1,1812,372,0,0
595,652,0,0,0,0,0,0,0,0,0,-1,1819,372,0,0
602,652,0,0,0,0,0,0,0,0,0,-1,1826,372,0,0
609,652,0,0,0,0,0,0,0,0,0,-1,1833,372,0,0
616,652,0,0,0,0,0,0,0,0,0,-1,1840,372,0,0
623,652,0,0,0,0,0,0,0,0,0,-1,1847,372,0,0
630,652,0,0,0,0,0,0,0,0,0,-1,1854,372,0,0
637,652,0,0,0,0,0,0,0,0,0,-1,1861,372,0,0
644,652,0,0,0,0,0,0,0,0,0,-1,1868,372,0,0
651,652,0,0,0,0,0,0,0,0,0,-1,1875,372,0,0
658,652,0,0,0,0,0,0,0,0,0,-1,1882,372,0,0
665,652,0,0,0,0,0,0,0,0,0,-1,1889,372,0,0
672,652,0,0,0,0,0,0,0,0,0,-1,1896,372,0,0
679,652,0,0,0,0,0,0,0,0,0,-1,1903,372,0,0
686,652,0,0,0,0,0,0,0,0,0,-1,1910,372,0,0
693,652,0,0,0,0,0,0,0,0,0,-1,1917,372,0,0
700,652,0,0,0,0,0,0,0,0,0,-1,1924,372,0,0
707,652,0,0,0,0,0,0,0,0,0,-1,1931,372,0,0
714,652,0,0,0,0,0,0,0,0,0,-1,1938,372,0,0
721,652,0,0,0,0,0,0,0,0,0,-1,1945,372,0,0
728,652,0,0,0,0,0,0,0,0,0,-1,1952,372,0,0
735,652,0,0,0,0,0,0,0,0,0,-1,1959,372,0,0
742,652,0,0,0,0,0,0,0,0,0,-1,1966,372,0,0
749,652,0,0,0,0,0,0,0,0,0,-1,1973,372,0,0
756,652,0,0,0,0,0,0,0,0,0,-1,1980,372,0,0
763,652,0,0,0,0,0,0,0,0,0,-1,1987,372,0,0
770,652,0,0,0,0,0,0,0,0,0,-1,1994,372,0,0
777,652,0,0,0,0,0,0,0,0,0,-1,2001,372,0,0
784,652,0,0,0,0,0,0,0,0,0,-1,2008,372,0,0
791,652,0,0,0,0,0,0,0,0,0,-1,2015,372,0,0
798,652,0,0,0,0,0,0,0,0,0,-1,2022,372,0,0
805,652,0,0,0,0,0,0,0,0,0,-1,2029,372,0,0
812,652,0,0,0,0,0,0,0,0,0,-1,2036,372,0,0
-700,645,0,0,0,0,0,0,0,0,0,-1,524,379,0,0
-693,645,0,0,0,0,0,0,0,0,0,-1,531,379,0,0
-686,645,0,0,0,0,0,0,0,0,0,-1,538,379,0,0
-679,645,0,0,0,0,0,0,0,0,0,-1,545,379,0,0
-672,645,0,0,0,0,0,0,0,0,0,-1,552,379,0,0
-665,645,0,0,0,0,0,0,0,0,0,-1,559,379,0,0
-658,645,0,0,0,0,0,0,0,0,0,-1,566,379,0,0
-651,645,0,0,0,0,0,0,0,0,0,-1,573,379,0,0
-644,645,0,0,0,0,0,0,0,0,0,-1,580,379,0,0
-637,645,0,0,0,0,0,0,0,0,0,-1,587,379,0,0
-630,645,0,0,0,0,0,0,0,0,0,-1,594,379,0,0
-623,645,0,0,0,0,0,0,0,0,0,-1,601,379,0,0
-616,645,0,0,0,0,0,0,0,0,0,-1,608,379,0,0
-609,645,0,0,0,0,0,0,0,0,0,-1,615,379,0,0
-602,645,0,0,0,0,0,0,0,0,0,-1,622,379,0,0
-595,645,0,0,0,0,0,0,0,0,0,-1,629,379,0,0
-588,645,0,0,0,0,0,0,0,0,0,-1,636,379,0,0
-581,645,0,0,0,0,0,0,0,0,0,-1,643,379,0,0
-574,645,0,0,0,0,0,0,0,0,0,-1,650,379,0,0
-567,645,0,0,0,0,0,0,0,0,0,-1,657,379,0,0
-560,645,0,0,0,0,0,0,0,0,0,-1,664,379,0,0
-553,645,0,0,0,0,0,0,0,0,0,-1,671,379,0,0
-546,645,0,0,0,0,0,0,0,0,0,-1,678,379,0,0
-539,645,0,0,0,0,0,0,0,0,0,-1,685,379,0,0
-532,645,0,0,0,0,0,0,0,0,0,-1,692,379,0,0
-525,645,0,0,0,0,0,0,0,0,0,-1,699,379,0,0
-518,645,0,0,0,0,0,0,0,0,0,-1,706,379,0,0
-511,645,0,0,0,0,0,0,0,0,0,-1,713,379,0,0
-504,645,0,0,0,0,0,0,0,0,0,-1,720,379,0,0
-497,645,0,0,0,0,0,0,0,0,0,-1,727,379,0,0
-490,645,0,0,0,0,0,0,0,0,0,-1,734,379,0,0
-483,645,0,0,0,0,0,0,0,0,0,-1,741,379,0,0
-476,645,0,0,0,0,0,0,0,0,0,-1,748,379,0,0
-469,645,0,0,0,0,0,0,0,0,0,-1,755,379,0,0
-462,645,0,0,0,0,0,0,0,0,0,-1,762,379,0,0
-455,645,0,0,0,0,0,0,0,0,0,-1,769,379,0,0
-448,645,0,0,0,0,0,0,0,0,0,-1,776,379,0,0
-441,645,0,0,0,0,0,0,0,0,0,-1,783,379,0,0
-434,645,0,0,0,0,0,0,0,0,0,-1,790,379,0,0
-427,645,0,0,0,0,0,0,0,0,0,-1,797,379,0,0
-420,645,0,0,0,0,0,0,0,0,0,-1,804,379,0,0
-413,645,0,0,0,0,0,0,0,0,0,-1,811,379,0,0
-406,645,0,0,0,0,0,0,0,0,0,-1,818,379,0,0
-399,645,0,0,0,0,0,0,0,0,0,-1,825,379,0,0
-392,645,0,0,0,0,0,0,0,0,0,-1,832,379,0,0
-385,645,0,0,0,0,0,0,0,0,0,-1,839,379,0,0
-378,645,0,0,0,0,0,0,0,0,0,-1,846,379,0,0
-371,645,0,0,0,0,0,0,0,0,0,-1,853,379,0,0
-364,645,0,0,0,0,0,0,0,0,0,-1,860,379,0,0
-357,645,0,0,0,0,0,0,0,0,0,-1,867,379,0,0
-350,645,0,0,0,0,0,0,0,0,0,-1,874,379,0,0
-343,645,0,0,0,0,0,0,0,0,0,-1,881,379,0,0
-336,645,0,0,0,0,0,0,0,0,0,-1,888,379,0,0
-329,645,0,0,0,0,0,0,0,0,0,-1,895,379,0,0
-322,645,0,0,0,0,0,0,0,0,0,-1,902,379,0,0
-315,645,0,0,0,0,0,0,0,0,0,-1,909,379,0,0
-308,645,0,0,0,0,0,0,0,0,0,-1,916,379,0,0
-301,645,0,0,0,0,0,0,0,0,0,-1,923,379,0,0
-294,645,0,0,0,0,0,0,0,0,0,-1,930,379,0,0
-287,645,0,0,0,0,0,0,0,0,0,-1,937,379,0,0
-280,645,0,0,0,0,0,0,0,0,0,-1,944,379,0,0
-273,645,0,0,0,0,0,0,0,0,0,-1,951,379,0,0
-266,645,0,0,0,0,0,0,0,0,0,-1,958,379,0,0
-259,645,0,0,0,0,0,0,0,0,0,-1,965,379,0,0
-252,645,2.95691,-26.9133,0,0,0,0,0,0,0,-1,972,379,2.9569,26.9133
-245,645,2.73169,-27.0215,0,0,0,0,0,0,0,-1,979,379,2.73172,27.0215
-238,645,2.6665,-26.9464,0,0,0,0,0,0,0,-1,986,379,2.66649,26.9464
-231,645,7.26807,-29.1054,0,0,0,0,0,0,0,-1,993,379,7.26806,29.1054
-224,645,7.69073,-29.5737,0,0,0,0,0,0,0,-1,1000,379,7.69071,29.5737
-217,645,8.65485,-33.4136,0,0,0,0,0,0,0,-1,1007,379,8.65487,33.4136
-210,645,9.21594,-32.5157,0,0,0,0,0,0,0,-1,1014,379,9.21591,32.5156
-203,645,9.77698,-31.6176,0,0,0,0,0,0,0,-1,1021,379,9.77696,31.6177
-196,645,10.2664,-29.7741,0,0,0,0,0,0,0,-1,1028,379,10.2664,29.7741
-189,645,5.88062,-28.2191,0,0,0,0,0,0,0,-1,1035,379,5.88062,28.2191
-182,645,6.34167,-29.2525,0,0,0,0,0,0,0,-1,1042,379,6.3417,29.2525
-175,645,6.36462,-35.5586,0,0,0,0,0,0,0,-1,1049,379,6.3646,35.5586
-168,645,7.19116,-39.5785,0,0,0,0,0,0,0,-1,1056,379,7.19115,39.5785
-161,645,7.22083,-37.6093,0,0,0,0,0,0,0,-1,1063,379,7.22085,37.6094
-154,645,7.42102,-41.6806,0,0,0,0,0,0,0,-1,1070,379,7.42105,41.6806
-147,645,8.89526,-50.6488,0,0,0,0,0,0,0,-1,1077,379,8.89521,50.6488
-140,645,10.4504,-64.9295,0,0,0,0,0,0,0,-1,1084,379,10.4504,64.9295
-133,645,10.6296,-65.2849,0,0,0,0,0,0,0,-1,1091,379,10.6297,65.2849
-126,645,10.2167,-62.2486,0,0,0,0,0,0,0,-1,1098,379,10.2167,62.2486
-119,645,10.1696,-65.1252,0,0,0,0,0,0,0,-1,1105,379,10.1695,65.1252
-112,645,-5.60547,-248.502,0,0,0,0,0,0,0,-1,1112,379,-5.60552,248.502
-105,645,-5.61353,-250.458,0,0,0,0,0,0,0,-1,1119,379,-5.61348,250.458
-98,645,-5.67004,-252.085,0,0,0,0,0,0,0,-1,1126,379,-5.6701,252.085
-91,645,-5.67334,-253.754,0,0,0,0,0,0,0,-1,1133,379,-5.67335,253.754
-84,645,-5.5094,-255.417,0,0,0,0,0,0,0,-1,1140,379,-5.50938,255.417
-77,645,-5.1781,-256.65,0,0,0,0,0,0,0,-1,1147,379,-5.17811,256.65
-70,645,-4.97705,-257.895,0.0491917,0.00494265,0.0085222,0.0507763,0.00335805,0.183838,0.0327889,0.0260384,1154,379,-4.97701,257.895
-63,645,-4.7655,-259.179,0.0513997,0.00482419,0.00950282,0.053264,0.00295995,0.193718,0.0345649,0.0249145,1161,379,-4.76552,259.179
-56,645,-4.5376,-260.337,0,0,0,0,0,0,0,-1,1168,379,-4.53762,260.337
-49,645,-4.29309,-261.603,0,0,0,0,0,0,0,-1,1175,379,-4.29308,261.603
-42,645,-4.34912,-262.743,0,0,0,0,0,0,0,-1,1182,379,-4.34912,262.743
-35,645,-3.71887,-263.576,0.0580413,0.00494681,0.0108833,0.0601855,0.00280257,0.194531,0.0392229,0.0368366,1189,379,-3.71885,263.576
-28,645,-3.38904,-264.607,0.0593074,0.00542718,0.0107332,0.0613668,0.0033678,0.189567,0.0398361,0.0148287,1196,379,-3.38905,264.607
-21,645,-3.10461,-265.49,0.0601924,0.00578015,0.0104248,0.0621213,0.00385127,0.18296,0.040192,0.0231854,1203,379,-3.10465,265.49
-14,645,-2.65381,-266.34,0.0614968,0.00611525,0.0101409,0.0632953,0.00431676,0.175526,0.0408341,0.0189532,1210,379,-2.65386,266.34
-7,645,-2.36755,-267.053,0.0633137,0.00625998,0.00986575,0.0649715,0.00460216,0.166482,0.0418647,0.0206623,1217,379,-2.36761,267.053
0,645,-2.21667,-267.833,0.065325,0.00597294,0.0092449,0.0667316,0.00456626,0.150999,0.0430465,0.0431587,1224,379,-2.21666,267.833
7,645,-1.36719,-268.052,0.0672225,0.00522999,0.00843618,0.06835,0.00410246,0.132866,0.0442626,0.0290826,1231,379,-1.36717,268.052
14,645,-0.765137,-268.517,0.0691679,0.00435502,0.00750646,0.070026,0.00349699,0.11381,0.0455631,0.0276522,1238,379,-0.765157,268.517
21,645,-0.435059,-269.051,0.0712777,0.00348412,0.00666833,0.0719274,0.00283444,0.097122,0.0470353,0.0183285,1245,379,-0.435016,269.051
28,645,-0.0906982,-269.389,0.0732779,0.00204385,0.00575955,0.0737405,0.00158117,0.08016,0.0486419,0.0172422,1252,379,-0.090641,269.389
35,645,0.489746,-269.665,0.0750042,0.000486303,0.004572,0.0752836,0.000206843,0.0610493,0.0501203,0.0179346,1259,379,0.489758,269.665
42,645,1.17249,-269.919,0.0768267,-0.00133462,0.00321889,0.076959,-0.00146695,0.0410899,0.0518019,0.0176341,1266,379,1.17252,269.919
49,645,1.71094,-270.016,0.0785336,-0.00306088,0.00209696,0.0785875,-0.00311473,0.0256772,0.0534602,0.0259772,1273,379,1.711,270.016
56,645,2.14124,-270.174,0.0794505,-0.00426388,0.000866948,0.0794595,-0.00427286,0.0103545,0.0544532,0.0297831,1280,379,2.14128,270.174
63,645,2.67419,-270.369,0.0801117,-0.0048234,-0.000123843,0.0801118,-0.00482358,-0.00145808,0.0550862,0.0212042,1287,379,2.67421,270.369
70,645,3.23987,-270.268,0.0807447,-0.00501277,-0.000842748,0.080753,-0.00502105,-0.00982584,0.0555846,0.0198638,1294,379,3.23985,270.268
77,645,3.85107,-270.149,0.0815303,-0.00473061,-0.00133947,0.081551,-0.00475141,-0.0155231,0.0560184,0.0240209,1301,379,3.85112,270.149
84,645,4.21741,-270.053,0.0817266,-0.0037119,-0.00202934,0.0817748,-0.00376007,-0.0237342,0.0558121,0.0203516,1308,379,4.21738,270.053
91,645,4.66309,-269.959,0.0811281,-0.00242602,-0.00287057,0.0812266,-0.00252452,-0.0343019,0.0550119,0.0260797,1315,379,4.66306,269.959
98,645,5.26233,-269.603,0.0809084,-0.00114149,-0.00358369,0.0810646,-0.00129772,-0.0435663,0.0544808,0.0220613,1322,379,5.26235,269.603
105,645,5.82178,-269.219,0.0810683,0.000277844,-0.00424901,0.0812912,5.49927e-05,-0.0524002,0.0541758,0.0185814,1329,379,5.82173,269.219
112,645,6.33765,-268.795,0.0810077,0.00203859,-0.00490534,0.0813112,0.00173505,-0.0618006,0.0536385,0.0163499,1336,379,6.3377,268.795
119,645,6.83545,-268.265,0.0804125,0.00364481,-0.00556127,0.0808132,0.00324403,-0.0719423,0.0528274,0.018302,1343,379,6.8354,268.265
126,645,7.26575,-267.571,0.0789666,0.00561976,-0.00606163,0.0794642,0.00512218,-0.0819029,0.051354,0.0290876,1350,379,7.26577,267.571
133,645,7.76843,-266.842,0.0773217,0.00727973,-0.00628995,0.077882,0.00671936,-0.0888552,0.0498328,0.0277779,1357,379,7.76841,266.842
140,645,8.28174,-266.311,0.075545,0.0088615,-0.0063729,0.0761486,0.00825791,-0.0944304,0.0482492,0.0205572,1364,379,8.28176,266.311
147,645,8.79785,-265.526,0.0732575,0.00996339,-0.00662656,0.0739438,0.00927706,-0.103204,0.0465129,0.0208597,1371,379,8.79781,265.526
154,645,9.31958,-264.634,0.0705175,0.0110278,-0.00672644,0.0712686,0.0102767,-0.111199,0.0444843,0.0175984,1378,379,9.31963,264.634
161,645,9.78076,-263.792,0.067676,0.0119765,-0.00674433,0.068481,0.0111715,-0.118797,0.0424233,0.025921,1385,379,9.78076,263.792
168,645,10.2064,-262.9,0.0656578,0.0127669,-0.00702823,0.0665758,0.0118489,-0.12988,0.0410088,0.0383115,1392,379,10.2064,262.9
175,645,10.4583,-261.884,0.0640376,0.0131276,-0.00761821,0.0651532,0.012012,-0.145399,0.0400367,0.036573,1399,379,10.4582,261.884
182,645,10.7008,-260.61,0.0630431,0.0134002,-0.00811848,0.064337,0.0121063,-0.158054,0.0394796,0.0242353,1406,379,10.7008,260.61
189,645,11.047,-259.271,0.0624111,0.0138387,-0.00873369,0.0639337,0.012316,-0.172607,0.039168,0.0212266,1413,379,11.047,259.271
196,645,11.2401,-258.142,0.0606646,0.0141305,-0.00930537,0.0624564,0.0123387,-0.190226,0.0381949,0.0229743,1420,379,11.2401,258.142
203,645,11.5254,-256.567,0,0,0,0,0,0,0,-1,1427,379,11.5254,256.567
210,645,12.187,-254.832,0,0,0,0,0,0,0,-1,1434,379,12.187,254.832
217,645,12.7942,-253.25,0,0,0,0,0,0,0,-1,1441,379,12.7942,253.25
224,645,12.8794,-252.561,0,0,0,0,0,0,0,-1,1448,379,12.8794,252.561
231,645,12.978,-250.855,0,0,0,0,0,0,0,-1,1455,379,12.9781,250.855
238,645,13.0736,-248.831,0,0,0,0,0,0,0,-1,1462,379,13.0736,248.831
245,645,11.2317,-246.093,0,0,0,0,0,0,0,-1,1469,379,11.2316,246.093
252,645,6.27942,-52.6305,0,0,0,0,0,0,0,-1,1476,379,6.27947,52.6305
259,645,6.5321,-54.0518,0,0,0,0,0,0,0,-1,1483,379,6.53211,54.0518
266,645,6.84973,-61.1459,0,0,0,0,0,0,0,-1,1490,379,6.84972,61.146
273,645,6.9054,-70.7075,0,0,0,0,0,0,0,-1,1497,379,6.90542,70.7075
280,645,6.67688,-72.5746,0,0,0,0,0,0,0,-1,1504,379,6.67691,72.5746
287,645,7.4104,-62.5272,0,0,0,0,0,0,0,-1,1511,379,7.41036,62.5271
294,645,3.76428,-22.9539,0,0,0,0,0,0,0,-1,1518,379,3.7643,22.9539
301,645,2.74219,-23.503,0,0,0,0,0,0,0,-1,1525,379,2.74222,23.503
308,645,1.82227,-23.9479,0,0,0,0,0,0,0,-1,1532,379,1.82227,23.9479
315,645,0.990356,-24.8735,0,0,0,0,0,0,0,-1,1539,379,0.990376,24.8735
322,645,-0.256714,-24.7577,0,0,0,0,0,0,0,-1,1546,379,-0.256653,24.7577
329,645,-4.45581,-22.707,0,0,0,0,0,0,0,-1,1553,379,-4.45579,22.707
336,645,-5.83154,-22.8404,0,0,0,0,0,0,0,-1,1560,379,-5.83149,22.8404
343,645,4.03186,-38.0623,0,0,0,0,0,0,0,-1,1567,379,4.03187,38.0623
350,645,4.76404,-22.1987,0,0,0,0,0,0,0,-1,1574,379,4.76399,22.1987
357,645,4.61316,-21.967,0,0,0,0,0,0,0,-1,1581,379,4.61316,21.967
364,645,-0.0794678,-3.22021,0,0,0,0,0,0,0,-1,1588,379,-0.0794987,3.22021
371,645,0,0,0,0,0,0,0,0,0,-1,1595,379,0,0
378,645,0,0,0,0,0,0,0,0,0,-1,1602,379,0,0
385,645,0,0,0,0,0,0,0,0,0,-1,1609,379,0,0
392,645,0,0,0,0,0,0,0,0,0,-1,1616,379,0,0
399,645,0,0,0,0,0,0,0,0,0,-1,1623,379,0,0
406,645,0,0,0,0,0,0,0,0,0,-1,1630,379,0,0
413,645,0,0,0,0,0,0,0,0,0,-1,1637,379,0,0
420,645,0,0,0,0,0,0,0,0,0,-1,1644,379,0,0
427,645,0,0,0,0,0,0,0,0,0,-1,1651,379,0,0
434,645,0,0,0,0,0,0,0,0,0,-1,1658,379,0,0
441,645,0,0,0,0,0,0,0,0,0,-1,1665,379,0,0
448,645,0,0,0,0,0,0,0,0,0,-1,1672,379,0,0
455,645,0,0,0,0,0,0,0,0,0,-1,1679,379,0,0
462,645,0,0,0,0,0,0,0,0,0,-1,1686,379,0,0
469,645,0,0,0,0,0,0,0,0,0,-1,1693,379,0,0
476,645,0,0,0,0,0,0,0,0,0,-1,1700,379,0,0
483,645,0,0,0,0,0,0,0,0,0,-1,1707,379,0,0
490,645,0,0,0,0,0,0,0,0,0,-1,1714,379,0,0
497,645,0,0,0,0,0,0,0,0,0,-1,1721,379,0,0
504,645,0,0,0,0,0,0,0,0,0,-1,1728,379,0,0
511,645,0,0,0,0,0,0,0,0,0,-1,1735,379,0,0
518,645,0,0,0,0,0,0,0,0,0,-1,1742,379,0,0
525,645,0,0,0,0,0,0,0,0,0,-1,1749,379,0,0
532,645,0,0,0,0,0,0,0,0,0,-1,1756,379,0,0
539,645,0,0,0,0,0,0,0,0,0,-1,1763,379,0,0
546,645,0,0,0,0,0,0,0,0,0,-1,1770,379,0,0
553,645,0,0,0,0,0,0,0,0,0,-1,1777,379,0,0
560,645,0,0,0,0,0,0,0,0,0,-1,1784,379,0,0
567,645,0,0,0,0,0,0,0,0,0,-1,1791,379,0,0
574,645,0,0,0,0,0,0,0,0,0,-1,1798,379,0,0
581,645,0,0,0,0,0,0,0,0,0,-1,1805,379,0,0
588,645,0,0,0,0,0,0,0,0,0,-1,1812,379,0,0
595,645,0,0,0,0,0,0,0,0,0,-1,1819,379,0,0
602,645,0,0,0,0,0,0,0,0,0,-1,1826,379,0,0
609,645,0,0,0,0,0,0,0,0,0,-1,1833,379,0,0
616,645,0,0,0,0,0,0,0,0,0,-1,1840,379,0,0
623,645,0,0,0,0,0,0,0,0,0,-1,1847,379,0,0
630,645,0,0,0,0,0,0,0,0,0,-1,1854,379,0,0
637,645,0,0,0,0,0,0,0,0,0,-1,1861,379,0,0
644,645,0,0,0,0,0,0,0,0,0,-1,1868,379,0,0
651,645,0,0,0,0,0,0,0,0,0,-1,1875,379,0,0
658,645,0,0,0,0,0,0,0,0,0,-1,1882,379,0,0
665,645,0,0,0,0,0,0,0,0,0,-1,1889,379,0,0
672,645,0,0,0,0,0,0,0,0,0,-1,1896,379,0,0
679,645,0,0,0,0,0,0,0,0,0,-1,1903,379,0,0
686,645,0,0,0,0,0,0,0,0,0,-1,1910,379,0,0
693,645,0,0,0,0,0,0,0,0,0,-1,1917,379,0,0
700,645,0,0,0,0,0,0,0,0,0,-1,1924,379,0,0
707,645,0,0,0,0,0,0,0,0,0,-1,1931,379,0,0
714,645,0,0,0,0,0,0,0,0,0,-1,1938,379,0,0
721,645,0,0,0,0,0,0,0,0,0,-1,1945,379,0,0
728,645,0,0,0,0,0,0,0,0,0,-1,1952,379,0,0
735,645,0,0,0,0,0,0,0,0,0,-1,1959,379,0,0
742,645,0,0,0,0,0,0,0,0,0,-1,1966,379,0,0
749,645,0,0,0,0,0,0,0,0,0,-1,1973,379,0,0
756,645,0,0,0,0,0,0,0,0,0,-1,1980,379,0,0
763,645,0,0,0,0,0,0,0,0,0,-1,1987,379,0,0
770,645,0,0,0,0,0,0,0,0,0,-1,1994,379,0,0
777,645,0,0,0,0,0,0,0,0,0,-1,2001,379,0,0
784,645,0,0,0,0,0,0,0,0,0,-1,2008,379,0,0
791,645,0,0,0,0,0,0,0,0,0,-1,2015,379,0,0
798,645,0,0,0,0,0,0,0,0,0,-1,2022,379,0,0
805,645,0,0,0,0,0,0,0,0,0,-1,2029,379,0,0
812,645,0,0,0,0,0,0,0,0,0,-1,2036,379,0,0
-700,638,0,0,0,0,0,0,0,0,0,-1,524,386,0,0
-693,638,0,0,0,0,0,0,0,0,0,-1,531,386,0,0
-686,638,0,0,0,0,0,0,0,0,0,-1,538,386,0,0
-679,638,0,0,0,0,0,0,0,0,0,-1,545,386,0,0
-672,638,0,0,0,0,0,0,0,0,0,-1,552,386,0,0
-665,638,0,0,0,0,0,0,0,0,0,-1,559,386,0,0
-658,638,0,0,0,0,0,0,0,0,0,-1,566,386,0,0
-651,638,0,0,0,0,0,0,0,0,0,-1,573,386,0,0
-644,638,0,0,0,0,0,0,0,0,0,-1,580,386,0,0
-637,638,0,0,0,0,0,0,0,0,0,-1,587,386,0,0
-630,638,0,0,0,0,0,0,0,0,0,-1,594,386,0,0
-623,638,0,0,0,0,0,0,0,0,0,-1,601,386,0,0
-616,638,0,0,0,0,0,0,0,0,0,-1,608,386,0,0
-609,638,0,0,0,0,0,0,0,0,0,-1,615,386,0,0
-602,638,0,0,0,0,0,0,0,0,0,-1,622,386,0,0
-595,638,0,0,0,0,0,0,0,0,0,-1,629,386,0,0
-588,638,0,0,0,0,0,0,0,0,0,-1,636,386,0,0
-581,638,0,0,0,0,0,0,0,0,0,-1,643,386,0,0
-574,638,0,0,0,0,0,0,0,0,0,-1,650,386,0,0
-567,638,0,0,0,0,0,0,0,0,0,-1,657,386,0,0
-560,638,0,0,0,0,0,0,0,0,0,-1,664,386,0,0
-553,638,0,0,0,0,0,0,0,0,0,-1,671,386,0,0
-546,638,0,0,0,0,0,0,0,0,0,-1,678,386,0,0
-539,638,0,0,0,0,0,0,0,0,0,-1,685,386,0,0
-532,638,0,0,0,0,0,0,0,0,0,-1,692,386,0,0
-525,638,0,0,0,0,0,0,0,0,0,-1,699,386,0,0
-518,638,0,0,0,0,0,0,0,0,0,-1,706,386,0,0
-511,638,0,0,0,0,0,0,0,0,0,-1,713,386,0,0
-504,638,0,0,0,0,0,0,0,0,0,-1,720,386,0,0
-497,638,0,0,0,0,0,0,0,0,0,-1,727,386,0,0
-490,638,0,0,0,0,0,0,0,0,0,-1,734,386,0,0
-483,638,0,0,0,0,0,0,0,0,0,-1,741,386,0,0
-476,638,0,0,0,0,0,0,0,0,0,-1,748,386,0,0
-469,638,0,0,0,0,0,0,0,0,0,-1,755,386,0,0
-462,638,0,0,0,0,0,0,0,0,0,-1,762,386,0,0
-455,638,0,0,0,0,0,0,0,0,0,-1,769,386,0,0
-448,638,0,0,0,0,0,0,0,0,0,-1,776,386,0,0
-441,638,0,0,0,0,0,0,0,0,0,-1,783,386,0,0
-434,638,0,0,0,0,0,0,0,0,0,-1,790,386,0,0
-427,638,0,0,0,0,0,0,0,0,0,-1,797,386,0,0
-420,638,0,0,0,0,0,0,0,0,0,-1,804,386,0,0
-413,638,0,0,0,0,0,0,0,0,0,-1,811,386,0,0
-406,638,0,0,0,0,0,0,0,0,0,-1,818,386,0,0
-399,638,0,0,0,0,0,0,0,0,0,-1,825,386,0,0
-392,638,0,0,0,0,0,0,0,0,0,-1,832,386,0,0
-385,638,0,0,0,0,0,0,0,0,0,-1,839,386,0,0
-378,638,0,0,0,0,0,0,0,0,0,-1,846,386,0,0
-371,638,0,0,0,0,0,0,0,0,0,-1,853,386,0,0
-364,638,0,0,0,0,0,0,0,0,0,-1,860,386,0,0
-357,638,0,0,0,0,0,0,0,0,0,-1,867,386,0,0
-350,638,0,0,0,0,0,0,0,0,0,-1,874,386,0,0
-343,638,0,0,0,0,0,0,0,0,0,-1,881,386,0,0
-336,638,0,0,0,0,0,0,0,0,0,-1,888,386,0,0
-329,638,0,0,0,0,0,0,0,0,0,-1,895,386,0,0
-322,638,0,0,0,0,0,0,0,0,0,-1,902,386,0,0
-315,638,0,0,0,0,0,0,0,0,0,-1,909,386,0,0
-308,638,0,0,0,0,0,0,0,0,0,-1,916,386,0,0
-301,638,0,0,0,0,0,0,0,0,0,-1,923,386,0,0
-294,638,0,0,0,0,0,0,0,0,0,-1,930,386,0,0
-287,638,0,0,0,0,0,0,0,0,0,-1,937,386,0,0
-280,638,0,0,0,0,0,0,0,0,0,-1,944,386,0,0
-273,638,0,0,0,0,0,0,0,0,0,-1,951,386,0,0
-266,638,10.1613,-36.3326,0,0,0,0,0,0,0,-1,958,386,10.1612,36.3326
-259,638,9.95282,-34.6103,0,0,0,0,0,0,0,-1,965,386,9.9528,34.6103
-252,638,9.95746,-33.6964,0,0,0,0,0,0,0,-1,972,386,9.95744,33.6965
-245,638,9.84143,-32.9009,0,0,0,0,0,0,0,-1,979,386,9.84145,32.9009
-238,638,2.93518,-26.3649,0,0,0,0,0,0,0,-1,986,386,2.93516,26.3649
-231,638,2.36829,-26.0088,0,0,0,0,0,0,0,-1,993,386,2.3683,26.0088
-224,638,6.3465,-30.9124,0,0,0,0,0,0,0,-1,1000,386,6.34648,30.9124
-217,638,7.41205,-32.7263,0,0,0,0,0,0,0,-1,1007,386,7.41204,32.7262
-210,638,8.7038,-34.5688,0,0,0,0,0,0,0,-1,1014,386,8.70378,34.5689
-203,638,4.32593,-27.5803,0,0,0,0,0,0,0,-1,1021,386,4.32594,27.5803
-196,638,6.0614,-28.4651,0,0,0,0,0,0,0,-1,1028,386,6.06143,28.4651
-189,638,11.4561,-30.1556,0,0,0,0,0,0,0,-1,1035,386,11.456,30.1556
-182,638,6.45471,-33.4271,0,0,0,0,0,0,0,-1,1042,386,6.45473,33.427
-175,638,8.39648,-48.7238,0,0,0,0,0,0,0,-1,1049,386,8.39643,48.7238
-168,638,10.3712,-61.8581,0,0,0,0,0,0,0,-1,1056,386,10.3712,61.8581
-161,638,11.0891,-91.2155,0,0,0,0,0,0,0,-1,1063,386,11.0892,91.2155
-154,638,10.7274,-91.6196,0,0,0,0,0,0,0,-1,1070,386,10.7275,91.6196
-147,638,10.2598,-87.4278,0,0,0,0,0,0,0,-1,1077,386,10.2598,87.4278
-140,638,-7.85205,-240.832,0,0,0,0,0,0,0,-1,1084,386,-7.85209,240.832
-133,638,-7.71887,-242.89,0,0,0,0,0,0,0,-1,1091,386,-7.71892,242.89
-126,638,-7.50525,-245.007,0,0,0,0,0,0,0,-1,1098,386,-7.50522,245.007
-119,638,-7.51245,-246.904,0,0,0,0,0,0,0,-1,1105,386,-7.51244,246.904
-112,638,-7.50427,-248.603,0.0454449,0.00611932,0.00706098,0.0466743,0.00488994,0.172381,0.029621,0.048947,1112,386,-7.50423,248.603
-105,638,-7.47668,-250.307,0.0473541,0.00396126,0.00786527,0.0487358,0.00257962,0.17389,0.0316657,0.0294695,1119,386,-7.47667,250.307
-98,638,-7.24487,-251.962,0.0489059,0.00235819,0.00855236,0.0504275,0.000836572,0.176075,0.033343,0.0262117,1126,386,-7.24487,251.962
-91,638,-7.13647,-253.565,0.0507991,0.00100439,0.00922144,0.052452,-0.000648461,0.177356,0.0351861,0.0182096,1133,386,-7.13653,253.565
-84,638,-7.02942,-255.2,0.0530147,-0.000202117,0.0100804,0.0548601,-0.00204755,0.181067,0.0372747,0.0200989,1140,386,-7.02943,255.2
-77,638,-6.88867,-256.545,0.0550399,-0.000587845,0.0106905,0.0570237,-0.0025716,0.183475,0.0389013,0.0245696,1147,386,-6.88871,256.545
-70,638,-6.43188,-257.645,0.0573486,-0.000953777,0.0112522,0.0594449,-0.00305006,0.184188,0.0406847,0.0360182,1154,386,-6.43183,257.645
-63,638,-6.0105,-259.037,0.059514,-0.00150326,0.0116639,0.0616676,-0.00365687,0.182583,0.0423833,0.0370443,1161,386,-6.01053,259.037
-56,638,-5.69836,-260.473,0,0,0,0,0,0,0,-1,1168,386,-5.69839,260.473
-49,638,-5.4928,-261.194,0.0628011,-0.00204775,0.0120885,0.0649813,-0.00422789,0.17843,0.0447967,0.0295273,1175,386,-5.49276,261.194
-42,638,-5.26819,-262.448,0.0650933,-0.00265786,0.011893,0.0671203,-0.0046849,0.168818,0.0463874,0.028464,1182,386,-5.26815,262.448
-35,638,-4.76233,-263.485,0.0672563,-0.00287989,0.0117873,0.0691843,-0.00480791,0.162132,0.0478062,0.0173254,1189,386,-4.76231,263.485
-28,638,-4.35291,-264.472,0.0689515,-0.00275429,0.0115228,0.0707576,-0.00456046,0.155482,0.048763,0.0155578,1196,386,-4.35293,264.472
-21,638,-3.90234,-265.392,0.0702788,-0.00269526,0.0111359,0.0719403,-0.00435677,0.14811,0.0494765,0.0186081,1203,386,-3.90229,265.392
-14,638,-3.49719,-266.321,0.0719448,-0.0025692,0.0106633,0.0734407,-0.00406513,0.139378,0.0503702,0.0190389,1210,386,-3.49723,266.321
-7,638,-3.37402,-267.239,0.0740253,-0.002557,0.0102601,0.0753761,-0.00390777,0.1309,0.0516027,0.0277389,1217,386,-3.37401,267.239
0,638,-3.12439,-268.084,0,0,0,0,0,0,0,-1,1224,386,-3.12444,268.084
7,638,-1.90833,-268.061,0.0784276,-0.00351285,0.0087262,0.0793465,-0.00443184,0.104927,0.0544351,0.0407813,1231,386,-1.90832,268.061
14,638,-1.31152,-268.515,0.0805373,-0.00428755,0.00781551,0.0812514,-0.00500163,0.0911149,0.0559094,0.0213513,1238,386,-1.3115,268.515
21,638,-0.833374,-269.04,0.0827624,-0.00505731,0.006928,0.0833055,-0.0056005,0.0782439,0.0574949,0.0205483,1245,386,-0.833354,269.04
28,638,-0.485474,-269.294,0.0848757,-0.00618933,0.00596715,0.085265,-0.00657867,0.065155,0.0591583,0.0168764,1252,386,-0.485456,269.294
35,638,0.149292,-269.534,0.0867363,-0.00752741,0.00477205,0.0869773,-0.00776838,0.0504525,0.0607401,0.0222627,1259,386,0.149318,269.534
42,638,0.981812,-269.853,0.0884988,-0.00900691,0.00344765,0.0886205,-0.00912866,0.0352996,0.0623464,0.0235951,1266,386,0.981782,269.853
49,638,1.44824,-269.997,0.0900304,-0.0104735,0.00230774,0.0900833,-0.0105264,0.0229456,0.0638542,0.0194891,1273,386,1.4483,269.997
56,638,2.08984,-270.104,0.0909772,-0.0115169,0.000878015,0.0909847,-0.0115244,0.00856565,0.0648402,0.0280143,1280,386,2.08989,270.105
63,638,2.83374,-270.344,0.0920692,-0.0121062,-0.000455123,0.0920712,-0.0121082,-0.0043687,0.0657893,0.0225877,1287,386,2.83375,270.344
70,638,3.35059,-270.276,0.0929351,-0.0124194,-0.0016236,0.0929601,-0.0124444,-0.0154059,0.0665107,0.0251202,1294,386,3.35064,270.276
77,638,3.90649,-270.085,0.0939055,-0.0123081,-0.00249866,0.0939643,-0.0123669,-0.0235075,0.0671458,0.0312194,1301,386,3.90654,270.085
84,638,4.38611,-269.891,0.0946354,-0.0116858,-0.00356861,0.0947551,-0.0118055,-0.0335141,0.0674505,0.0321574,1308,386,4.38612,269.891
91,638,5.13452,-269.722,0.0945368,-0.0108321,-0.00468495,0.0947447,-0.01104,-0.0443457,0.0671463,0.0426586,1315,386,5.13452,269.722
98,638,5.68396,-269.46,0.0946636,-0.00987086,-0.00571531,0.0949752,-0.0101824,-0.0544576,0.0669694,0.0296078,1322,386,5.68399,269.46
105,638,6.2041,-269.094,0.0951299,-0.00876957,-0.00672375,0.0955632,-0.00920289,-0.0643563,0.0669875,0.0157937,1329,386,6.20411,269.094
112,638,6.77112,-268.638,0.0952397,-0.00731142,-0.007675,0.0958109,-0.00788264,-0.0742892,0.066657,0.0148032,1336,386,6.77111,268.638
119,638,7.43591,-268.145,0.0945226,-0.00591916,-0.00844993,0.0952285,-0.00662507,-0.0833469,0.0658053,0.0241908,1343,386,7.43589,268.145
126,638,8.07507,-267.566,0.0928442,-0.00424213,-0.00900913,0.0936731,-0.00507106,-0.0917512,0.0642059,0.0305994,1350,386,8.0751,267.566
133,638,8.60913,-267.001,0.0908546,-0.0027769,-0.00929767,0.091769,-0.00369123,-0.0980251,0.0624461,0.0298569,1357,386,8.60911,267.001
140,638,9.22742,-266.441,0.0887589,-0.00120683,-0.00943894,0.0897385,-0.00218647,-0.103417,0.0605677,0.0235669,1364,386,9.22739,266.441
147,638,9.69006,-265.535,0.0862746,-0.000144167,-0.00970076,0.0873502,-0.00121972,-0.110422,0.0586443,0.0251169,1371,386,9.69008,265.535
154,638,10.2277,-264.547,0.0831996,0.000880227,-0.00986762,0.0843659,-0.000286084,-0.11765,0.0563395,0.0235717,1378,386,10.2276,264.547
161,638,10.8124,-263.688,0.0798841,0.00180894,-0.0099227,0.0811255,0.000567578,-0.124456,0.0538954,0.02756,1385,386,10.8123,263.688
168,638,11.2761,-262.635,0.0775954,0.00266874,-0.0101843,0.078955,0.00130912,-0.132717,0.0522058,0.0325826,1392,386,11.2761,262.635
175,638,11.6578,-261.628,0,0,0,0,0,0,0,-1,1399,386,11.6579,261.628
182,638,11.962,-260.475,0.0747349,0.00384565,-0.011551,0.0765696,0.00201096,-0.157518,0.0503895,0.0234857,1406,386,11.9621,260.475
189,638,12.3977,-259.144,0.0736994,0.00458516,-0.0122632,0.0758108,0.00247377,-0.170502,0.0497365,0.0216637,1413,386,12.3978,259.144
196,638,12.9397,-257.849,0.0719217,0.00514623,-0.0128795,0.0743197,0.00274819,-0.184083,0.0486563,0.030706,1420,386,12.9397,257.849
203,638,13.4181,-256.565,0,0,0,0,0,0,0,-1,1427,386,13.4181,256.565
210,638,13.6504,-254.983,0,0,0,0,0,0,0,-1,1434,386,13.6504,254.983
217,638,14.0889,-253.828,0.0666957,0.00755294,-0.0148972,0.0702362,0.00401248,-0.23333,0.0455456,0.0289811,1441,386,14.0889,253.828
224,638,14.5017,-252.339,0.0642035,0.00825601,-0.0155154,0.0682182,0.00424137,-0.253199,0.044133,0.0229,1448,386,14.5017,252.339
231,638,14.8363,-250.691,0.0624457,0.00832213,-0.0168256,0.0672499,0.00351791,-0.278129,0.0437079,0.0288536,1455,386,14.8362,250.691
238,638,15.0028,-248.916,0.0612592,0.00926281,-0.0178586,0.0668021,0.00371998,-0.300946,0.043348,0.0313667,1462,386,15.0028,248.916
245,638,15.0906,-247.06,0,0,0,0,0,0,0,-1,1469,386,15.0905,247.06
252,638,14.9288,-245.477,0,0,0,0,0,0,0,-1,1476,386,14.9288,245.477
259,638,15.0964,-243.449,0,0,0,0,0,0,0,-1,1483,386,15.0964,243.449
266,638,15.4558,-241.4,0,0,0,0,0,0,0,-1,1490,386,15.4558,241.4
273,638,15.5759,-239.408,0,0,0,0,0,0,0,-1,1497,386,15.5759,239.408
280,638,6.75476,-82.5267,0,0,0,0,0,0,0,-1,1504,386,6.7548,82.5267
287,638,6.52307,-79.9485,0,0,0,0,0,0,0,-1,1511,386,6.5231,79.9485
294,638,6.37231,-79.665,0,0,0,0,0,0,0,-1,1518,386,6.37237,79.665
301,638,5.67981,-80.2637,0,0,0,0,0,0,0,-1,1525,386,5.67976,80.2637
308,638,7.54175,-66.9734,0,0,0,0,0,0,0,-1,1532,386,7.54171,66.9734
315,638,3.3927,-28.2032,0,0,0,0,0,0,0,-1,1539,386,3.39269,28.2032
322,638,6.1698,-44.6835,0,0,0,0,0,0,0,-1,1546,386,6.16984,44.6835
329,638,6.06885,-44.2856,0,0,0,0,0,0,0,-1,1553,386,6.06881,44.2855
336,638,5.15234,-38.1966,0,0,0,0,0,0,0,-1,1560,386,5.15238,38.1966
343,638,4.8208,-37.2159,0,0,0,0,0,0,0,-1,1567,386,4.82078,37.2159
350,638,4.35254,-37.1565,0,0,0,0,0,0,0,-1,1574,386,4.35259,37.1565
357,638,0.387329,-3.01077,0,0,0,0,0,0,0,-1,1581,386,0.387332,3.01077
364,638,3.78149,-6.45215,0,0,0,0,0,0,0,-1,1588,386,3.78155,6.45216
371,638,4.18604,-6.71164,0,0,0,0,0,0,0,-1,1595,386,4.18598,6.71164
378,638,4.59045,-6.97113,0,0,0,0,0,0,0,-1,1602,386,4.5904,6.97112
385,638,0,0,0,0,0,0,0,0,0,-1,1609,386,0,0
392,638,0,0,0,0,0,0,0,0,0,-1,1616,386,0,0
399,638,0,0,0,0,0,0,0,0,0,-1,1623,386,0,0
406,638,0,0,0,0,0,0,0,0,0,-1,1630,386,0,0
413,638,0,0,0,0,0,0,0,0,0,-1,1637,386,0,0
420,638,0,0,0,0,0,0,0,0,0,-1,1644,386,0,0
427,638,0,0,0,0,0,0,0,0,0,-1,1651,386,0,0
434,638,0,0,0,0,0,0,0,0,0,-1,1658,386,0,0
441,638,0,0,0,0,0,0,0,0,0,-1,1665,386,0,0
448,638,0,0,0,0,0,0,0,0,0,-1,1672,386,0,0
455,638,0,0,0,0,0,0,0,0,0,-1,1679,386,0,0
462,638,0,0,0,0,0,0,0,0,0,-1,1686,386,0,0
469,638,0,0,0,0,0,0,0,0,0,-1,1693,386,0,0
476,638,0,0,0,0,0,0,0,0,0,-1,1700,386,0,0
483,638,0,0,0,0,0,0,0,0,0,-1,1707,386,0,0
490,638,0,0,0,0,0,0,0,0,0,-1,1714,386,0,0
497,638,0,0,0,0,0,0,0,0,0,-1,1721,386,0,0
504,638,0,0,0,0,0,0,0,0,0,-1,1728,386,0,0
511,638,0,0,0,0,0,0,0,0,0,-1,1735,386,0,0
518,638,0,0,0,0,0,0,0,0,0,-1,1742,386,0,0
525,638,0,0,0,0,0,0,0,0,0,-1,1749,386,0,0
532,638,0,0,0,0,0,0,0,0,0,-1,1756,386,0,0
539,638,0,0,0,0,0,0,0,0,0,-1,1763,386,0,0
546,638,0,0,0,0,0,0,0,0,0,-1,1770,386,0,0
553,638,0,0,0,0,0,0,0,0,0,-1,1777,386,0,0
560,638,0,0,0,0,0,0,0,0,0,-1,1784,386,0,0
567,638,0,0,0,0,0,0,0,0,0,-1,1791,386,0,0
574,638,0,0,0,0,0,0,0,0,0,-1,1798,386,0,0
581,638,0,0,0,0,0,0,0,0,0,-1,1805,386,0,0
588,638,0,0,0,0,0,0,0,0,0,-1,1812,386,0,0
595,638,0,0,0,0,0,0,0,0,0,-1,1819,386,0,0
602,638,0,0,0,0,0,0,0,0,0,-1,1826,386,0,0
609,638,0,0,0,0,0,0,0,0,0,-1,1833,386,0,0
616,638,0,0,0,0,0,0,0,0,0,-1,1840,386,0,0
623,638,0,0,0,0,0,0,0,0,0,-1,1847,386,0,0
630,638,0,0,0,0,0,0,0,0,0,-1,1854,386,0,0
637,638,0,0,0,0,0,0,0,0,0,-1,1861,386,0,0
644,638,0,0,0,0,0,0,0,0,0,-1,1868,386,0,0
651,638,0,0,0,0,0,0,0,0,0,-1,1875,386,0,0
658,638,0,0,0,0,0,0,0,0,0,-1,1882,386,0,0
665,638,0,0,0,0,0,0,0,0,0,-1,1889,386,0,0
672,638,0,0,0,0,0,0,0,0,0,-1,1896,386,0,0
679,638,0,0,0,0,0,0,0,0,0,-1,1903,386,0,0
686,638,0,0,0,0,0,0,0,0,0,-1,1910,386,0,0
693,638,0,0,0,0,0,0,0,0,0,-1,1917,386,0,0
700,638,0,0,0,0,0,0,0,0,0,-1,1924,386,0,0
707,638,0,0,0,0,0,0,0,0,0,-1,1931,386,0,0
714,638,0,0,0,0,0,0,0,0,0,-1,1938,386,0,0
721,638,0,0,0,0,0,0,0,0,0,-1,1945,386,0,0
728,638,0,0,0,0,0,0,0,0,0,-1,1952,386,0,0
735,638,0,0,0,0,0,0,0,0,0,-1,1959,386,0,0
742,638,0,0,0,0,0,0,0,0,0,-1,1966,386,0,0
749,638,0,0,0,0,0,0,0,0,0,-1,1973,386,0,0
756,638,0,0,0,0,0,0,0,0,0,-1,1980,386,0,0
763,638,0,0,0,0,0,0,0,0,0,-1,1987,386,0,0
770,638,0,0,0,0,0,0,0,0,0,-1,1994,386,0,0
777,638,0,0,0,0,0,0,0,0,0,-1,2001,386,0,0
784,638,0,0,0,0,0,0,0,0,0,-1,2008,386,0,0
791,638,0,0,0,0,0,0,0,0,0,-1,2015,386,0,0
798,638,0,0,0,0,0,0,0,0,0,-1,2022,386,0,0
805,638,0,0,0,0,0,0,0,0,0,-1,2029,386,0,0
812,638,0,0,0,0,0,0,0,0,0,-1,2036,386,0,0
-700,631,0,0,0,0,0,0,0,0,0,-1,524,393,0,0
-693,631,0,0,0,0,0,0,0,0,0,-1,531,393,0,0
-686,631,0,0,0,0,0,0,0,0,0,-1,538,393,0,0
-679,631,0,0,0,0,0,0,0,0,0,-1,545,393,0,0
-672,631,0,0,0,0,0,0,0,0,0,-1,552,393,0,0
-665,631,0,0,0,0,0,0,0,0,0,-1,559,393,0,0
-658,631,0,0,0,0,0,0,0,0,0,-1,566,393,0,0
-651,631,0,0,0,0,0,0,0,0,0,-1,573,393,0,0
-644,631,0,0,0,0,0,0,0,0,0,-1,580,393,0,0
-637,631,0,0,0,0,0,0,0,0,0,-1,587,393,0,0
-630,631,0,0,0,0,0,0,0,0,0,-1,594,393,0,0
-623,631,0,0,0,0,0,0,0,0,0,-1,601,393,0,0
-616,631,0,0,0,0,0,0,0,0,0,-1,608,393,0,0
-609,631,0,0,0,0,0,0,0,0,0,-1,615,393,0,0
-602,631,0,0,0,0,0,0,0,0,0,-1,622,393,0,0
-595,631,0,0,0,0,0,0,0,0,0,-1,629,393,0,0
-588,631,0,0,0,0,0,0,0,0,0,-1,636,393,0,0
-581,631,0,0,0,0,0,0,0,0,0,-1,643,393,0,0
-574,631,0,0,0,0,0,0,0,0,0,-1,650,393,0,0
-567,631,0,0,0,0,0,0,0,0,0,-1,657,393,0,0
-560,631,0,0,0,0,0,0,0,0,0,-1,664,393,0,0
-553,631,0,0,0,0,0,0,0,0,0,-1,671,393,0,0
-546,631,0,0,0,0,0,0,0,0,0,-1,678,393,0,0
-539,631,0,0,0,0,0,0,0,0,0,-1,685,393,0,0
-532,631,0,0,0,0,0,0,0,0,0,-1,692,393,0,0
-525,631,0,0,0,0,0,0,0,0,0,-1,699,393,0,0
-518,631,0,0,0,0,0,0,0,0,0,-1,706,393,0,0
-511,631,0,0,0,0,0,0,0,0,0,-1,713,393,0,0
-504,631,0,0,0,0,0,0,0,0,0,-1,720,393,0,0
-497,631,0,0,0,0,0,0,0,0,0,-1,727,393,0,0
-490,631,0,0,0,0,0,0,0,0,0,-1,734,393,0,0
-483,631,0,0,0,0,0,0,0,0,0,-1,741,393,0,0
-476,631,0,0,0,0,0,0,0,0,0,-1,748,393,0,0
-469,631,0,0,0,0,0,0,0,0,0,-1,755,393,0,0
-462,631,0,0,0,0,0,0,0,0,0,-1,762,393,0,0
-455,631,0,0,0,0,0,0,0,0,0,-1,769,393,0,0
-448,631,0,0,0,0,0,0,0,0,0,-1,776,393,0,0
-441,631,0,0,0,0,0,0,0,0,0,-1,783,393,0,0
-434,631,0,0,0,0,0,0,0,0,0,-1,790,393,0,0
-427,631,0,0,0,0,0,0,0,0,0,-1,797,393,0,0
-420,631,0,0,0,0,0,0,0,0,0,-1,804,393,0,0
-413,631,0,0,0,0,0,0,0,0,0,-1,811,393,0,0
-406,631,0,0,0,0,0,0,0,0,0,-1,818,393,0,0
-399,631,0,0,0,0,0,0,0,0,0,-1,825,393,0,0
-392,631,0,0,0,0,0,0,0,0,0,-1,832,393,0,0
-385,631,0,0,0,0,0,0,0,0,0,-1,839,393,0,0
-378,631,0,0,0,0,0,0,0,0,0,-1,846,393,0,0
-371,631,0,0,0,0,0,0,0,0,0,-1,853,393,0,0
-364,631,0,0,0,0,0,0,0,0,0,-1,860,393,0,0
-357,631,0,0,0,0,0,0,0,0,0,-1,867,393,0,0
-350,631,0,0,0,0,0,0,0,0,0,-1,874,393,0,0
-343,631,0,0,0,0,0,0,0,0,0,-1,881,393,0,0
-336,631,0,0,0,0,0,0,0,0,0,-1,888,393,0,0
-329,631,0,0,0,0,0,0,0,0,0,-1,895,393,0,0
-322,631,0,0,0,0,0,0,0,0,0,-1,902,393,0,0
-315,631,0,0,0,0,0,0,0,0,0,-1,909,393,0,0
-308,631,0,0,0,0,0,0,0,0,0,-1,916,393,0,0
-301,631,0,0,0,0,0,0,0,0,0,-1,923,393,0,0
-294,631,0,0,0,0,0,0,0,0,0,-1,930,393,0,0
-287,631,0,0,0,0,0,0,0,0,0,-1,937,393,0,0
-280,631,7.71283,-34.969,0,0,0,0,0,0,0,-1,944,393,7.71282,34.969
-273,631,8.04437,-34.934,0,0,0,0,0,0,0,-1,951,393,8.04436,34.9339
-266,631,8.40277,-34.7584,0,0,0,0,0,0,0,-1,958,393,8.40275,34.7584
-259,631,8.56659,-34.037,0,0,0,0,0,0,0,-1,965,393,8.56662,34.037
-252,631,8.44446,-33.2643,0,0,0,0,0,0,0,-1,972,393,8.44445,33.2644
-245,631,8.34705,-32.527,0,0,0,0,0,0,0,-1,979,393,8.34704,32.527
-238,631,8.41888,-31.8855,0,0,0,0,0,0,0,-1,986,393,8.41887,31.8855
-231,631,2.14966,-25.2306,0,0,0,0,0,0,0,-1,993,393,2.14968,25.2306
-224,631,6.83575,-19.7909,0,0,0,0,0,0,0,-1,1000,393,6.83575,19.7909
-217,631,5.05188,-18.3867,0,0,0,0,0,0,0,-1,1007,393,5.0519,18.3866
-210,631,3.37842,-26.3769,0,0,0,0,0,0,0,-1,1014,393,3.37839,26.3769
-203,631,8.59509,-47.1953,0,0,0,0,0,0,0,-1,1021,393,8.5951,47.1954
-196,631,8.51001,-47.9163,0,0,0,0,0,0,0,-1,1028,393,8.50997,47.9163
-189,631,6.57983,-42.4494,0,0,0,0,0,0,0,-1,1035,393,6.57983,42.4494
-182,631,8.0531,-47.8031,0,0,0,0,0,0,0,-1,1042,393,8.05311,47.8031
-175,631,9.61975,-74.9516,0,0,0,0,0,0,0,-1,1049,393,9.61973,74.9516
-168,631,10.1567,-101.718,0,0,0,0,0,0,0,-1,1056,393,10.1567,101.718
-161,631,-9.35962,-234.369,0,0,0,0,0,0,0,-1,1063,393,-9.35956,234.369
-154,631,-9.64478,-236.884,0,0,0,0,0,0,0,-1,1070,393,-9.6448,236.884
-147,631,-9.90125,-238.938,0,0,0,0,0,0,0,-1,1077,393,-9.90122,238.938
-140,631,-9.78796,-240.981,0.0448711,0.00977725,0.00993398,0.0474879,0.00716038,0.257575,0.0295623,0.0430645,1084,393,-9.78801,240.981
-133,631,-9.6864,-242.894,0.0472974,0.00709063,0.0103924,0.0498247,0.00456333,0.238557,0.0318046,0.0255153,1091,393,-9.68637,242.894
-126,631,-9.46167,-244.921,0.0493275,0.00492313,0.011291,0.0520336,0.00221699,0.235234,0.0339742,0.0280622,1098,393,-9.46168,244.921
-119,631,-9.40479,-246.712,0.0514567,0.00291802,0.0120855,0.0542994,7.53682e-05,0.231013,0.0361745,0.0397219,1105,393,-9.40476,246.712
-112,631,-9.36096,-248.419,0.053432,0.000902223,0.0126161,0.0563049,-0.00197069,0.223899,0.0382105,0.035109,1112,393,-9.36092,248.419
-105,631,-9.09631,-250.157,0.0552921,-0.00105325,0.0131706,0.0582187,-0.00397985,0.218654,0.0402048,0.0365314,1119,393,-9.09631,250.157
-98,631,-8.83923,-251.818,0.056971,-0.00246282,0.0135367,0.0599089,-0.00540072,0.213718,0.0418558,0.0230787,1126,393,-8.83927,251.818
-91,631,-8.65173,-253.407,0.0589654,-0.00375799,0.0137652,0.0618533,-0.0066459,0.206799,0.0436199,0.0233255,1133,393,-8.65172,253.407
-84,631,-8.62427,-255.019,0.0612607,-0.00497872,0.0141111,0.0641415,-0.00785954,0.201386,0.0456072,0.0235491,1140,393,-8.62431,255.019
-77,631,-8.52527,-256.432,0.06344,-0.00576923,0.0142138,0.0662454,-0.00857465,0.194869,0.0472817,0.0278902,1147,393,-8.5253,256.432
-70,631,-7.96191,-257.595,0.0657741,-0.0065775,0.0142623,0.0684841,-0.00928744,0.187769,0.0490459,0.0389956,1154,393,-7.96194,257.595
-63,631,-7.35352,-258.868,0.0679642,-0.00758385,0.0141607,0.0705313,-0.0101509,0.179332,0.050744,0.0413572,1161,393,-7.35356,258.868
-56,631,-6.93384,-259.965,0.0696931,-0.00833733,0.0138688,0.0720848,-0.010729,0.170771,0.0520031,0.0428817,1168,393,-6.93378,259.965
-49,631,-6.73987,-261.098,0.0720253,-0.00918898,0.0136244,0.07425,-0.0114137,0.161857,0.0537103,0.0225464,1175,393,-6.73982,261.098
-42,631,-6.23743,-262.303,0.0745372,-0.0101153,0.0131491,0.0765326,-0.0121107,0.150604,0.0555008,0.0142882,1182,393,-6.23737,262.303
-35,631,-5.76758,-263.358,0.0769538,-0.0105496,0.0129734,0.0788367,-0.0124325,0.144132,0.0571545,0.0145062,1189,393,-5.76762,263.358
-28,631,-5.26343,-264.329,0.0790957,-0.0107323,0.0126007,0.0808298,-0.0124664,0.13676,0.0584865,0.0170413,1196,393,-5.2634,264.329
-21,631,-4.78296,-265.232,0.0808807,-0.0109141,0.0121537,0.0824626,-0.012496,0.12943,0.0595788,0.0161203,1203,393,-4.78295,265.232
-14,631,-4.47339,-266.158,0.0829155,-0.0109445,0.0114644,0.0842955,-0.0123246,0.119797,0.0607235,0.0207402,1210,393,-4.47341,266.158
-7,631,-4.2439,-267.038,0.0852593,-0.0110329,0.0108937,0.0864763,-0.0122499,0.111259,0.062138,0.0345798,1217,393,-4.24391,267.038
0,631,-3.15186,-267.382,0,0,0,0,0,0,0,-1,1224,393,-3.15187,267.382
7,631,-2.31958,-267.891,0.0900644,-0.0118949,0.00916255,0.0908812,-0.0127117,0.0889155,0.0652388,0.0468585,1231,393,-2.3196,267.891
14,631,-1.80029,-268.472,0.092309,-0.012588,0.00823071,0.0929509,-0.0132299,0.0778299,0.0668153,0.0201699,1238,393,-1.80033,268.472
21,631,-1.37476,-268.92,0.0946392,-0.013271,0.00725801,0.0951251,-0.013757,0.0668584,0.0684647,0.0242727,1245,393,-1.37479,268.92
28,631,-0.947388,-269.166,0.0968385,-0.0141325,0.00621499,0.0971855,-0.0144795,0.055773,0.0701169,0.028249,1252,393,-0.947436,269.166
35,631,-0.251587,-269.408,0.0987833,-0.0152822,0.0049855,0.0990008,-0.0154997,0.0435966,0.0717275,0.0281363,1259,393,-0.251596,269.408
42,631,0.653076,-269.73,0.100438,-0.0164396,0.00367717,0.100554,-0.0165552,0.0314203,0.073181,0.0386769,1266,393,0.653125,269.73
49,631,1.20825,-269.86,0.101739,-0.0176388,0.0025221,0.101793,-0.0176921,0.0211144,0.074463,0.0328467,1273,393,1.20825,269.86
56,631,2.08789,-270.063,0.102752,-0.0185001,0.000874491,0.102759,-0.0185064,0.00721165,0.0754352,0.0309649,1280,393,2.08784,270.063
63,631,2.67517,-270.203,0.104341,-0.0190912,-0.000822153,0.104347,-0.0190967,-0.00666037,0.0767262,0.0233299,1287,393,2.67513,270.203
70,631,3.27368,-270.14,0.105481,-0.0194573,-0.00243056,0.105528,-0.0195046,-0.0194443,0.0776741,0.0256718,1294,393,3.27374,270.14
77,631,3.8844,-269.825,0.106697,-0.0194559,-0.003654,0.106802,-0.0195616,-0.0289326,0.0785384,0.0370906,1301,393,3.88436,269.825
84,631,4.77441,-269.615,0.10806,-0.0191607,-0.0050652,0.108262,-0.0193621,-0.0397304,0.0794191,0.0315665,1308,393,4.77441,269.615
91,631,5.45862,-269.503,0.108538,-0.0186768,-0.00642374,0.108861,-0.0190004,-0.0503247,0.0796666,0.0469235,1315,393,5.45863,269.503
98,631,6.00134,-269.399,0,0,0,0,0,0,0,-1,1322,393,6.0013,269.399
105,631,6.63354,-268.92,0.109857,-0.0171813,-0.0090947,0.110505,-0.0178291,-0.071107,0.0802756,0.0190032,1329,393,6.6335,268.92
112,631,7.38721,-268.495,0.110155,-0.0160019,-0.0103231,0.110994,-0.016841,-0.0811084,0.0802012,0.0223367,1336,393,7.38721,268.495
119,631,8.13293,-268.011,0.109257,-0.0148367,-0.0111884,0.110258,-0.0158374,-0.0892023,0.0793133,0.0222661,1343,393,8.13294,268.011
126,631,8.80896,-267.463,0.107264,-0.0135046,-0.0117816,0.108402,-0.0146432,-0.0963451,0.0776112,0.0252812,1350,393,8.80894,267.463
133,631,9.40295,-266.903,0.104868,-0.012276,-0.0121277,0.10611,-0.0135184,-0.102086,0.0756499,0.028719,1357,393,9.40295,266.903
140,631,10.0875,-266.264,0.102385,-0.0107698,-0.0123484,0.103717,-0.0121017,-0.107444,0.0735112,0.0282655,1364,393,10.0875,266.264
147,631,10.6095,-265.409,0.099616,-0.00978733,-0.0126301,0.101055,-0.0112265,-0.113457,0.071407,0.0313303,1371,393,10.6095,265.409
154,631,11.1799,-264.424,0.0961211,-0.00883322,-0.012873,0.0976769,-0.0103891,-0.120279,0.0688428,0.0304111,1378,393,11.18,264.424
161,631,11.939,-263.604,0.0922443,-0.00794864,-0.0129617,0.0938939,-0.00959828,-0.126591,0.0660283,0.0333186,1385,393,11.939,263.604
168,631,12.5045,-262.505,0.0896837,-0.00700833,-0.0131921,0.0914513,-0.00877589,-0.133192,0.0640934,0.036381,1392,393,12.5045,262.505
175,631,12.8916,-261.354,0.0880631,-0.00621048,-0.0139684,0.0900892,-0.0082366,-0.144046,0.0629848,0.0268417,1399,393,12.8916,261.355
182,631,13.1134,-260.188,0.0865146,-0.00524416,-0.0149285,0.0888823,-0.00761183,-0.15729,0.0619482,0.022943,1406,393,13.1134,260.188
189,631,13.4712,-258.942,0,0,0,0,0,0,0,-1,1413,393,13.4712,258.942
196,631,14.4941,-257.581,0.0832364,-0.00337127,-0.0164496,0.0862555,-0.00639034,-0.181514,0.0597478,0.0366127,1420,393,14.4941,257.581
203,631,14.9518,-256.34,0,0,0,0,0,0,0,-1,1427,393,14.9517,256.34
210,631,15.2959,-255.105,0,0,0,0,0,0,0,-1,1434,393,15.296,255.105
217,631,15.7809,-253.692,0.078279,4.77292e-05,-0.0184914,0.0824296,-0.00410286,-0.220801,0.0563705,0.0309117,1441,393,15.7808,253.692
224,631,16.155,-252.113,0.0763149,0.00115052,-0.0192732,0.0809687,-0.00350325,-0.236928,0.055184,0.0232234,1448,393,16.155,252.113
231,631,16.5607,-250.492,0.0747412,0.001781,-0.0205228,0.0801178,-0.00359561,-0.256223,0.0546498,0.0207531,1455,393,16.5607,250.492
238,631,16.8928,-248.796,0.0731679,0.0029748,-0.0214299,0.0791932,-0.00305049,-0.274087,0.0538411,0.0293947,1462,393,16.8929,248.796
245,631,17.043,-247.217,0.0701313,0.00479687,-0.0216782,0.0766698,-0.00174168,-0.292941,0.0517036,0.0259165,1469,393,17.043,247.217
252,631,16.947,-245.319,0.0671644,0.00688488,-0.0215315,0.0740653,-1.60336e-05,-0.310159,0.0493822,0.0301838,1476,393,16.947,245.319
259,631,17.2697,-243.258,0.0642748,0.0086157,-0.021569,0.0716547,0.00123578,-0.329668,0.0473633,0.0249099,1483,393,17.2697,243.258
266,631,17.6497,-241.317,0.0614025,0.00970597,-0.021536,0.0691984,0.00191006,-0.34732,0.045509,0.0214006,1490,393,17.6496,241.317
273,631,17.78,-239.406,0.059377,0.0114737,-0.0206812,0.0670701,0.00378053,-0.356127,0.043508,0.033302,1497,393,17.78,239.406
280,631,17.6501,-237.335,0,0,0,0,0,0,0,-1,1504,393,17.6501,237.335
287,631,17.9988,-234.905,0,0,0,0,0,0,0,-1,1511,393,17.9987,234.905
294,631,8.7467,-231.373,0,0,0,0,0,0,0,-1,1518,393,8.7467,231.373
301,631,6.50122,-101.507,0,0,0,0,0,0,0,-1,1525,393,6.50127,101.507
308,631,6.3407,-98.7534,0,0,0,0,0,0,0,-1,1532,393,6.34066,98.7534
315,631,6.22485,-99.3872,0,0,0,0,0,0,0,-1,1539,393,6.2248,99.3872
322,631,7.49646,-74.1723,0,0,0,0,0,0,0,-1,1546,393,7.4965,74.1723
329,631,5.70972,-38.2651,0,0,0,0,0,0,0,-1,1553,393,5.70967,38.2651
336,631,5.38281,-39.6306,0,0,0,0,0,0,0,-1,1560,393,5.38277,39.6306
343,631,6.21558,-38.7278,0,0,0,0,0,0,0,-1,1567,393,6.21558,38.7278
350,631,5.18359,-35.9677,0,0,0,0,0,0,0,-1,1574,393,5.18355,35.9677
357,631,2.6449,-9.60303,0,0,0,0,0,0,0,-1,1581,393,2.64491,9.60304
364,631,3.39136,-5.7594,0,0,0,0,0,0,0,-1,1588,393,3.39137,5.75939
371,631,3.72839,-6.0574,0,0,0,0,0,0,0,-1,1595,393,3.72845,6.05742
378,631,4.06555,-6.35544,0,0,0,0,0,0,0,-1,1602,393,4.06553,6.35544
385,631,3.90442,-3.58298,0,0,0,0,0,0,0,-1,1609,393,3.90437,3.58299
392,631,0.352295,-2.21301,0,0,0,0,0,0,0,-1,1616,393,0.352345,2.213
399,631,0,0,0,0,0,0,0,0,0,-1,1623,393,0,0
406,631,0,0,0,0,0,0,0,0,0,-1,1630,393,0,0
413,631,0,0,0,0,0,0,0,0,0,-1,1637,393,0,0
420,631,0,0,0,0,0,0,0,0,0,-1,1644,393,0,0
427,631,0,0,0,0,0,0,0,0,0,-1,1651,393,0,0
434,631,0,0,0,0,0,0,0,0,0,-1,1658,393,0,0
441,631,0,0,0,0,0,0,0,0,0,-1,1665,393,0,0
448,631,0,0,0,0,0,0,0,0,0,-1,1672,393,0,0
455,631,0,0,0,0,0,0,0,0,0,-1,1679,393,0,0
462,631,0,0,0,0,0,0,0,0,0,-1,1686,393,0,0
469,631,0,0,0,0,0,0,0,0,0,-1,1693,393,0,0
476,631,0,0,0,0,0,0,0,0,0,-1,1700,393,0,0
483,631,0,0,0,0,0,0,0,0,0,-1,1707,393,0,0
490,631,0,0,0,0,0,0,0,0,0,-1,1714,393,0,0
497,631,0,0,0,0,0,0,0,0,0,-1,1721,393,0,0
504,631,0,0,0,0,0,0,0,0,0,-1,1728,393,0,0
511,631,0,0,0,0,0,0,0,0,0,-1,1735,393,0,0
518,631,0,0,0,0,0,0,0,0,0,-1,1742,393,0,0
525,631,0,0,0,0,0,0,0,0,0,-1,1749,393,0,0
532,631,0,0,0,0,0,0,0,0,0,-1,1756,393,0,0
539,631,0,0,0,0,0,0,0,0,0,-1,1763,393,0,0
546,631,0,0,0,0,0,0,0,0,0,-1,1770,393,0,0
553,631,0,0,0,0,0,0,0,0,0,-1,1777,393,0,0
560,631,0,0,0,0,0,0,0,0,0,-1,1784,393,0,0
567,631,0,0,0,0,0,0,0,0,0,-1,1791,393,0,0
574,631,0,0,0,0,0,0,0,0,0,-1,1798,393,0,0
581,631,0,0,0,0,0,0,0,0,0,-1,1805,393,0,0
588,631,0,0,0,0,0,0,0,0,0,-1,1812,393,0,0
595,631,0,0,0,0,0,0,0,0,0,-1,1819,393,0,0
602,631,0,0,0,0,0,0,0,0,0,-1,1826,393,0,0
609,631,0,0,0,0,0,0,0,0,0,-1,1833,393,0,0
616,631,0,0,0,0,0,0,0,0,0,-1,1840,393,0,0
623,631,0,0,0,0,0,0,0,0,0,-1,1847,393,0,0
630,631,0,0,0,0,0,0,0,0,0,-1,1854,393,0,0
637,631,0,0,0,0,0,0,0,0,0,-1,1861,393,0,0
644,631,0,0,0,0,0,0,0,0,0,-1,1868,393,0,0
651,631,0,0,0,0,0,0,0,0,0,-1,1875,393,0,0
658,631,0,0,0,0,0,0,0,0,0,-1,1882,393,0,0
665,631,0,0,0,0,0,0,0,0,0,-1,1889,393,0,0
672,631,0,0,0,0,0,0,0,0,0,-1,1896,393,0,0
679,631,0,0,0,0,0,0,0,0,0,-1,1903,393,0,0
686,631,0,0,0,0,0,0,0,0,0,-1,1910,393,0,0
693,631,0,0,0,0,0,0,0,0,0,-1,1917,393,0,0
700,631,0,0,0,0,0,0,0,0,0,-1,1924,393,0,0
707,631,0,0,0,0,0,0,0,0,0,-1,1931,393,0,0
714,631,0,0,0,0,0,0,0,0,0,-1,1938,393,0,0
721,631,0,0,0,0,0,0,0,0,0,-1,1945,393,0,0
728,631,0,0,0,0,0,0,0,0,0,-1,1952,393,0,0
735,631,0,0,0,0,0,0,0,0,0,-1,1959,393,0,0
742,631,0,0,0,0,0,0,0,0,0,-1,1966,393,0,0
749,631,0,0,0,0,0,0,0,0,0,-1,1973,393,0,0
756,631,0,0,0,0,0,0,0,0,0,-1,1980,393,0,0
763,631,0,0,0,0,0,0,0,0,0,-1,1987,393,0,0
770,631,0,0,0,0,0,0,0,0,0,-1,1994,393,0,0
777,631,0,0,0,0,0,0,0,0,0,-1,2001,393,0,0
784,631,0,0,0,0,0,0,0,0,0,-1,2008,393,0,0
791,631,0,0,0,0,0,0,0,0,0,-1,2015,393,0,0
798,631,0,0,0,0,0,0,0,0,0,-1,2022,393,0,0
805,631,0,0,0,0,0,0,0,0,0,-1,2029,393,0,0
812,631,0,0,0,0,0,0,0,0,0,-1,2036,393,0,0
-700,624,0,0,0,0,0,0,0,0,0,-1,524,400,0,0
-693,624,0,0,0,0,0,0,0,0,0,-1,531,400,0,0
-686,624,0,0,0,0,0,0,0,0,0,-1,538,400,0,0
-679,624,0,0,0,0,0,0,0,0,0,-1,545,400,0,0
-672,624,0,0,0,0,0,0,0,0,0,-1,552,400,0,0
-665,624,0,0,0,0,0,0,0,0,0,-1,559,400,0,0
-658,624,0,0,0,0,0,0,0,0,0,-1,566,400,0,0
-651,624,0,0,0,0,0,0,0,0,0,-1,573,400,0,0
-644,624,0,0,0,0,0,0,0,0,0,-1,580,400,0,0
-637,624,0,0,0,0,0,0,0,0,0,-1,587,400,0,0
-630,624,0,0,0,0,0,0,0,0,0,-1,594,400,0,0
-623,624,0,0,0,0,0,0,0,0,0,-1,601,400,0,0
-616,624,0,0,0,0,0,0,0,0,0,-1,608,400,0,0
-609,624,0,0,0,0,0,0,0,0,0,-1,615,400,0,0
-602,624,0,0,0,0,0,0,0,0,0,-1,622,400,0,0
-595,624,0,0,0,0,0,0,0,0,0,-1,629,400,0,0
-588,624,0,0,0,0,0,0,0,0,0,-1,636,400,0,0
-581,624,0,0,0,0,0,0,0,0,0,-1,643,400,0,0
-574,624,0,0,0,0,0,0,0,0,0,-1,650,400,0,0
-567,624,0,0,0,0,0,0,0,0,0,-1,657,400,0,0
-560,624,0,0,0,0,0,0,0,0,0,-1,664,400,0,0
-553,624,0,0,0,0,0,0,0,0,0,-1,671,400,0,0
-546,624,0,0,0,0,0,0,0,0,0,-1,678,400,0,0
-539,624,0,0,0,0,0,0,0,0,0,-1,685,400,0,0
-532,624,0,0,0,0,0,0,0,0,0,-1,692,400,0,0
-525,624,0,0,0,0,0,0,0,0,0,-1,699,400,0,0
-518,624,0,0,0,0,0,0,0,0,0,-1,706,400,0,0
-511,624,0,0,0,0,0,0,0,0,0,-1,713,400,0,0
-504,624,0,0,0,0,0,0,0,0,0,-1,720,400,0,0
-497,624,0,0,0,0,0,0,0,0,0,-1,727,400,0,0
-490,624,0,0,0,0,0,0,0,0,0,-1,734,400,0,0
-483,624,0,0,0,0,0,0,0,0,0,-1,741,400,0,0
-476,624,0,0,0,0,0,0,0,0,0,-1,748,400,0,0
-469,624,0,0,0,0,0,0,0,0,0,-1,755,400,0,0
-462,624,0,0,0,0,0,0,0,0,0,-1,762,400,0,0
-455,624,0,0,0,0,0,0,0,0,0,-1,769,400,0,0
-448,624,0,0,0,0,0,0,0,0,0,-1,776,400,0,0
-441,624,0,0,0,0,0,0,0,0,0,-1,783,400,0,0
-434,624,0,0,0,0,0,0,0,0,0,-1,790,400,0,0
-427,624,0,0,0,0,0,0,0,0,0,-1,797,400,0,0
-420,624,0,0,0,0,0,0,0,0,0,-1,804,400,0,0
-413,624,0,0,0,0,0,0,0,0,0,-1,811,400,0,0
-406,624,0,0,0,0,0,0,0,0,0,-1,818,400,0,0
-399,624,0,0,0,0,0,0,0,0,0,-1,825,400,0,0
-392,624,0,0,0,0,0,0,0,0,0,-1,832,400,0,0
-385,624,0,0,0,0,0,0,0,0,0,-1,839,400,0,0
-378,624,0,0,0,0,0,0,0,0,0,-1,846,400,0,0
-371,624,0,0,0,0,0,0,0,0,0,-1,853,400,0,0
-364,624,0,0,0,0,0,0,0,0,0,-1,860,400,0,0
-357,624,0,0,0,0,0,0,0,0,0,-1,867,400,0,0
-350,624,0,0,0,0,0,0,0,0,0,-1,874,400,0,0
-343,624,0,0,0,0,0,0,0,0,0,-1,881,400,0,0
-336,624,0,0,0,0,0,0,0,0,0,-1,888,400,0,0
-329,624,0,0,0,0,0,0,0,0,0,-1,895,400,0,0
-322,624,0,0,0,0,0,0,0,0,0,-1,902,400,0,0
-315,624,0,0,0,0,0,0,0,0,0,-1,909,400,0,0
-308,624,0,0,0,0,0,0,0,0,0,-1,916,400,0,0
-301,624,0,0,0,0,0,0,0,0,0,-1,923,400,0,0
-294,624,5.08527,-28.5311,0,0,0,0,0,0,0,-1,930,400,5.08525,28.5311
-287,624,6.70825,-33.8,0,0,0,0,0,0,0,-1,937,400,6.70827,33.8
-280,624,6.92474,-33.8738,0,0,0,0,0,0,0,-1,944,400,6.92477,33.8739
-273,624,8.617,-37.3463,0,0,0,0,0,0,0,-1,951,400,8.61697,37.3463
-266,624,7.71747,-37.0599,0,0,0,0,0,0,0,-1,958,400,7.7175,37.0599
-259,624,7.33569,-33.1199,0,0,0,0,0,0,0,-1,965,400,7.33567,33.1199
-252,624,7.5528,-32.8158,0,0,0,0,0,0,0,-1,972,400,7.5528,32.8158
-245,624,6.8396,-32.02,0,0,0,0,0,0,0,-1,979,400,6.83963,32.02
-238,624,6.99402,-31.5278,0,0,0,0,0,0,0,-1,986,400,6.99404,31.5278
-231,624,3.86121,-29.6032,0,0,0,0,0,0,0,-1,993,400,3.86122,29.6032
-224,624,4.59351,-27.4048,0,0,0,0,0,0,0,-1,1000,400,4.59353,27.4048
-217,624,9.39142,-50.7224,0,0,0,0,0,0,0,-1,1007,400,9.39142,50.7224
-210,624,9.65839,-57.4372,0,0,0,0,0,0,0,-1,1014,400,9.65841,57.4372
-203,624,9.56946,-68.5125,0,0,0,0,0,0,0,-1,1021,400,9.56951,68.5125
-196,624,9.81567,-88.2332,0,0,0,0,0,0,0,-1,1028,400,9.8157,88.2333
-189,624,9.90796,-108.95,0,0,0,0,0,0,0,-1,1035,400,9.90798,108.95
-182,624,9.73926,-107.138,0,0,0,0,0,0,0,-1,1042,400,9.73923,107.138
-175,624,9.60266,-111.051,0,0,0,0,0,0,0,-1,1049,400,9.60261,111.051
-168,624,-11.6428,-231.971,0,0,0,0,0,0,0,-1,1056,400,-11.6429,231.971
-161,624,-11.6956,-234.441,0.0435186,0.011769,0.0140117,0.0488177,0.00646981,0.36157,0.0306173,0.045639,1063,400,-11.6955,234.441
-154,624,-11.8285,-236.588,0.0463618,0.00873822,0.0148469,0.0515149,0.00358516,0.334071,0.0332128,0.0149156,1070,400,-11.8285,236.588
-147,624,-11.9216,-238.7,0.0493906,0.00593745,0.0152909,0.0542319,0.00109611,0.306631,0.0357949,0.0160292,1077,400,-11.9216,238.7
-140,624,-11.8622,-240.73,0.0523312,0.00356739,0.0156626,0.0569285,-0.00102993,0.285503,0.0383003,0.0149879,1084,400,-11.8622,240.73
-133,624,-11.7321,-242.675,0.0548451,0.00120059,0.0161384,0.0593259,-0.00328022,0.270827,0.0406881,0.0184542,1091,400,-11.7321,242.675
-126,624,-11.4086,-244.589,0.0570301,-0.000711409,0.0168266,0.0615757,-0.00525703,0.263847,0.0429103,0.0230205,1098,400,-11.4086,244.589
-119,624,-11.3242,-246.504,0.0592405,-0.00237081,0.0175332,0.0638806,-0.00701089,0.258715,0.045106,0.0358359,1105,400,-11.3242,246.504
-112,624,-11.0472,-248.272,0.0613079,-0.0040607,0.0180079,0.0659405,-0.00869326,0.251792,0.0471261,0.0452892,1112,400,-11.0472,248.272
-105,624,-10.722,-249.988,0.0631688,-0.00573819,0.0184023,0.0677753,-0.0103448,0.245285,0.0489972,0.0269164,1119,400,-10.722,249.988
-98,624,-10.4562,-251.619,0.0650246,-0.00691467,0.0185602,0.0695308,-0.0114209,0.238181,0.0505924,0.0212689,1126,400,-10.4562,251.619
-91,624,-10.3004,-253.227,0.0671909,-0.00815278,0.0184549,0.0714684,-0.0124303,0.227762,0.0522839,0.0288483,1133,400,-10.3004,253.227
-84,624,-10.2994,-254.74,0.0696472,-0.00946626,0.0183303,0.0736879,-0.0135069,0.216967,0.0541916,0.0260451,1140,400,-10.2995,254.74
-77,624,-9.91504,-256.109,0.0720624,-0.0106384,0.0179303,0.0757825,-0.0143585,0.204574,0.0559256,0.0275675,1147,400,-9.91498,256.109
-70,624,-9.50574,-257.383,0,0,0,0,0,0,0,-1,1154,400,-9.50574,257.383
-63,624,-8.67041,-258.671,0,0,0,0,0,0,0,-1,1161,400,-8.67046,258.671
-56,624,-8.28455,-259.639,0.0788953,-0.0147062,0.0161472,0.0816025,-0.0174134,0.166116,0.0610398,0.0491445,1168,400,-8.28452,259.639
-49,624,-7.85449,-260.969,0.0817183,-0.0161125,0.0154095,0.0840881,-0.0184823,0.152591,0.0631279,0.0280729,1175,400,-7.85448,260.969
-42,624,-7.37451,-262.111,0.0844371,-0.0173921,0.014629,0.0864971,-0.019452,0.139893,0.0651244,0.0163948,1182,400,-7.37448,262.111
-35,624,-6.83008,-263.172,0.0871141,-0.0180092,0.0143955,0.0890498,-0.0199448,0.133661,0.0670116,0.0222229,1189,400,-6.83008,263.172
-28,624,-6.29138,-264.174,0.0897143,-0.0184552,0.013923,0.0914776,-0.0202186,0.125979,0.0687233,0.0253998,1196,400,-6.29133,264.174
-21,624,-5.79077,-265.015,0.0919752,-0.0188299,0.0134434,0.0935829,-0.0204376,0.119024,0.0701999,0.0188967,1203,400,-5.79083,265.015
-14,624,-5.27942,-265.776,0.094397,-0.0189686,0.0125139,0.0957619,-0.0203335,0.108643,0.0715883,0.0231907,1210,400,-5.27944,265.776
-7,624,-4.78735,-266.721,0,0,0,0,0,0,0,-1,1217,400,-4.78732,266.721
0,624,-3.89465,-267.134,0.0996306,-0.0192709,0.0107676,0.100598,-0.0202381,0.0895876,0.0747304,0.0484573,1224,400,-3.89471,267.134
7,624,-2.95068,-267.627,0.102148,-0.0198855,0.00973336,0.102919,-0.0206569,0.0790936,0.0764346,0.0348613,1231,400,-2.95066,267.627
14,624,-2.48035,-268.302,0.104506,-0.0205208,0.00874302,0.105114,-0.0211293,0.0694788,0.0780779,0.023533,1238,400,-2.4803,268.302
21,624,-1.82959,-268.755,0.106938,-0.0211363,0.00765228,0.107394,-0.0215919,0.0594666,0.0797733,0.0277749,1245,400,-1.82962,268.755
28,624,-1.12939,-269.075,0.109203,-0.0217699,0.00650089,0.109525,-0.0220917,0.0494733,0.0813861,0.0289261,1252,400,-1.12941,269.075
35,624,-0.371704,-269.251,0.111183,-0.0227696,0.00520828,0.111385,-0.0229718,0.0388034,0.0829809,0.0298418,1259,400,-0.371692,269.251
42,624,0.438477,-269.586,0.11268,-0.0236306,0.00389862,0.112791,-0.0237421,0.02857,0.0842309,0.0394549,1266,400,0.438472,269.586
49,624,1.04602,-269.665,0.113696,-0.0245579,0.00272679,0.113749,-0.0246116,0.0197129,0.0852296,0.0471368,1273,400,1.04606,269.665
56,624,1.85486,-269.925,0.114816,-0.0252182,0.00083269,0.114821,-0.0252232,0.00594604,0.0861943,0.037197,1280,400,1.85485,269.925
63,624,2.46387,-269.955,0.116963,-0.0257842,-0.0012551,0.116974,-0.0257952,-0.00879158,0.0878524,0.0235746,1287,400,2.46388,269.955
70,624,3.17126,-269.931,0.118415,-0.026129,-0.00329415,0.11849,-0.0262041,-0.0227742,0.0890228,0.0255488,1294,400,3.17127,269.931
77,624,4.10938,-269.711,0.119937,-0.0261736,-0.00483585,0.120097,-0.0263335,-0.033049,0.090134,0.0382405,1301,400,4.10944,269.711
84,624,5.14221,-269.518,0,0,0,0,0,0,0,-1,1308,400,5.14221,269.518
91,624,5.82617,-269.193,0.123163,-0.0259397,-0.00810661,0.123602,-0.0263792,-0.0541567,0.0924574,0.0402922,1315,400,5.82614,269.193
98,624,6.47864,-269.1,0.124128,-0.025457,-0.00976655,0.124763,-0.026092,-0.0649236,0.0930995,0.0305455,1322,400,6.4786,269.1
105,624,7.20313,-268.833,0.125278,-0.0249268,-0.0113764,0.126134,-0.0257835,-0.0751678,0.093872,0.0268578,1329,400,7.20313,268.833
112,624,8.13611,-268.258,0.125783,-0.0239981,-0.0128614,0.126879,-0.0250944,-0.0850388,0.0940732,0.0315201,1336,400,8.1361,268.258
119,624,8.90735,-267.753,0.124647,-0.0230743,-0.0137855,0.125922,-0.0243498,-0.0922597,0.093132,0.0272199,1343,400,8.90735,267.753
126,624,9.21252,-267.279,0.122261,-0.0221312,-0.0143857,0.12368,-0.0235505,-0.0983412,0.0913213,0.0313927,1350,400,9.21252,267.279
133,624,10.1753,-266.642,0.119399,-0.0211783,-0.014786,0.120938,-0.0227166,-0.103669,0.0891671,0.0331606,1357,400,10.1753,266.642
140,624,10.8719,-265.95,0.11646,-0.0197907,-0.0151093,0.118115,-0.0214461,-0.109127,0.0867801,0.0306932,1364,400,10.872,265.95
147,624,11.5326,-265.009,0.113313,-0.0189327,-0.0154251,0.115088,-0.0207081,-0.114591,0.0844783,0.0424353,1371,400,11.5326,265.009
154,624,12.3865,-264.21,0.109314,-0.0180843,-0.0157554,0.111234,-0.0200038,-0.121237,0.0816447,0.0401332,1378,400,12.3864,264.21
161,624,13.165,-263.405,0.104794,-0.0172762,-0.0158774,0.106826,-0.0193075,-0.127247,0.0784491,0.0298691,1385,400,13.1651,263.405
168,624,13.707,-262.382,0.10199,-0.0162473,-0.0160665,0.104135,-0.0183916,-0.132679,0.0762962,0.0292053,1392,400,13.7071,262.382
175,624,14.0704,-261.247,0.100399,-0.0152225,-0.0170045,0.102848,-0.0176715,-0.143036,0.0751519,0.0225587,1399,400,14.0704,261.247
182,624,14.2924,-259.974,0.0984591,-0.0138723,-0.0182787,0.101359,-0.0167718,-0.157316,0.073801,0.0209823,1406,400,14.2924,259.974
189,624,15.0215,-258.594,0.0964208,-0.0124926,-0.0193259,0.0997484,-0.0158201,-0.17051,0.0723512,0.0370368,1413,400,15.0215,258.594
196,624,15.63,-257.348,0.0946584,-0.0114642,-0.0200319,0.0983138,-0.0151195,-0.18049,0.0711201,0.0401418,1420,400,15.63,257.348
203,624,16.2098,-256.152,0,0,0,0,0,0,0,-1,1427,400,16.2098,256.152
210,624,16.7333,-255.026,0,0,0,0,0,0,0,-1,1434,400,16.7332,255.026
217,624,17.3938,-253.344,0.0899742,-0.00718683,-0.0220741,0.0947541,-0.0119667,-0.213246,0.0675127,0.0334146,1441,400,17.3938,253.344
224,624,17.7991,-251.879,0.0884788,-0.00574403,-0.0230008,0.0937938,-0.011059,-0.227091,0.0665227,0.0260178,1448,400,17.7991,251.879
231,624,18.3213,-250.27,0.0870274,-0.00466526,-0.0241764,0.0930114,-0.0106493,-0.242638,0.065845,0.0223417,1455,400,18.3213,250.27
238,624,18.8427,-248.571,0.0850728,-0.00319261,-0.0250163,0.0916699,-0.00978969,-0.257841,0.0646242,0.0295511,1462,400,18.8427,248.571
245,624,19.0481,-246.964,0.0816425,-0.0013326,-0.0252632,0.088729,-0.00841917,-0.273481,0.0621495,0.0251653,1469,400,19.0481,246.964
252,624,18.9963,-245.07,0.0783311,0.000867782,-0.0252538,0.0858368,-0.00663795,-0.288897,0.0595606,0.0238164,1476,400,18.9963,245.07
259,624,19.451,-243.038,0.0751297,0.00285188,-0.0252853,0.0830971,-0.00511552,-0.305252,0.0571796,0.0204844,1483,400,19.451,243.038
266,624,19.8628,-241.077,0.0719773,0.0042587,-0.025274,0.0803699,-0.00413397,-0.32061,0.0550097,0.0220112,1490,400,19.8628,241.077
273,624,19.9535,-239.086,0.0694338,0.00632298,-0.0246026,0.0778913,-0.00213449,-0.331108,0.0526535,0.0211097,1497,400,19.9535,239.086
280,624,19.9564,-236.952,0.0668496,0.0081543,-0.0241368,0.0755002,-0.000496306,-0.344138,0.0504997,0.0264733,1504,400,19.9565,236.952
287,624,20.2913,-234.86,0.0637374,0.00991809,-0.0233743,0.0724716,0.00118383,-0.357603,0.0479247,0.0304124,1511,400,20.2912,234.86
294,624,20.5597,-232.747,0,0,0,0,0,0,0,-1,1518,400,20.5597,232.747
301,624,20.3994,-230.115,0,0,0,0,0,0,0,-1,1525,400,20.3994,230.115
308,624,20.4219,-227.283,0,0,0,0,0,0,0,-1,1532,400,20.4218,227.283
315,624,0.643066,-177.551,0,0,0,0,0,0,0,-1,1539,400,0.643077,177.551
322,624,4.60291,-127.623,0,0,0,0,0,0,0,-1,1546,400,4.60288,127.623
329,624,4.22205,-125.324,0,0,0,0,0,0,0,-1,1553,400,4.22199,125.324
336,624,7.32373,-84.7607,0,0,0,0,0,0,0,-1,1560,400,7.32378,84.7607
343,624,6.53369,-39.5615,0,0,0,0,0,0,0,-1,1567,400,6.53364,39.5615
350,624,1.99194,-7.29742,0,0,0,0,0,0,0,-1,1574,400,1.99198,7.29741
357,624,2.64075,-3.13092,0,0,0,0,0,0,0,-1,1581,400,2.64076,3.13091
364,624,3.16565,-4.9458,0,0,0,0,0,0,0,-1,1588,400,3.16564,4.94579
371,624,3.37561,-5.23529,0,0,0,0,0,0,0,-1,1595,400,3.37563,5.23529
378,624,1.50439,-5.22165,0,0,0,0,0,0,0,-1,1602,400,1.50438,5.22164
385,624,1.2301,-10.5866,0,0,0,0,0,0,0,-1,1609,400,1.2301,10.5866
392,624,4.26819,-5.14236,0,0,0,0,0,0,0,-1,1616,400,4.26818,5.14236
399,624,2.22168,-9.19293,0,0,0,0,0,0,0,-1,1623,400,2.22173,9.19294
406,624,2.68213,-9.91171,0,0,0,0,0,0,0,-1,1630,400,2.68213,9.91171
413,624,0,0,0,0,0,0,0,0,0,-1,1637,400,0,0
420,624,0,0,0,0,0,0,0,0,0,-1,1644,400,0,0
427,624,0,0,0,0,0,0,0,0,0,-1,1651,400,0,0
434,624,0,0,0,0,0,0,0,0,0,-1,1658,400,0,0
441,624,0,0,0,0,0,0,0,0,0,-1,1665,400,0,0
448,624,0,0,0,0,0,0,0,0,0,-1,1672,400,0,0
455,624,0,0,0,0,0,0,0,0,0,-1,1679,400,0,0
462,624,0,0,0,0,0,0,0,0,0,-1,1686,400,0,0
469,624,0,0,0,0,0,0,0,0,0,-1,1693,400,0,0
476,624,0,0,0,0,0,0,0,0,0,-1,1700,400,0,0
483,624,0,0,0,0,0,0,0,0,0,-1,1707,400,0,0
490,624,0,0,0,0,0,0,0,0,0,-1,1714,400,0,0
497,624,0,0,0,0,0,0,0,0,0,-1,1721,400,0,0
504,624,0,0,0,0,0,0,0,0,0,-1,1728,400,0,0
511,624,0,0,0,0,0,0,0,0,0,-1,1735,400,0,0
518,624,0,0,0,0,0,0,0,0,0,-1,1742,400,0,0
525,624,0,0,0,0,0,0,0,0,0,-1,1749,400,0,0
532,624,0,0,0,0,0,0,0,0,0,-1,1756,400,0,0
539,624,0,0,0,0,0,0,0,0,0,-1,1763,400,0,0
546,624,0,0,0,0,0,0,0,0,0,-1,1770,400,0,0
553,624,0,0,0,0,0,0,0,0,0,-1,1777,400,0,0
560,624,0,0,0,0,0,0,0,0,0,-1,1784,400,0,0
567,624,0,0,0,0,0,0,0,0,0,-1,1791,400,0,0
574,624,0,0,0,0,0,0,0,0,0,-1,1798,400,0,0
581,624,0,0,0,0,0,0,0,0,0,-1,1805,400,0,0
588,624,0,0,0,0,0,0,0,0,0,-1,1812,400,0,0
595,624,0,0,0,0,0,0,0,0,0,-1,1819,400,0,0
602,624,0,0,0,0,0,0,0,0,0,-1,1826,400,0,0
609,624,0,0,0,0,0,0,0,0,0,-1,1833,400,0,0
616,624,0,0,0,0,0,0,0,0,0,-1,1840,400,0,0
623,624,0,0,0,0,0,0,0,0,0,-1,1847,400,0,0
630,624,0,0,0,0,0,0,0,0,0,-1,1854,400,0,0
637,624,0,0,0,0,0,0,0,0,0,-1,1861,400,0,0
644,624,0,0,0,0,0,0,0,0,0,-1,1868,400,0,0
651,624,0,0,0,0,0,0,0,0,0,-1,1875,400,0,0
658,624,0,0,0,0,0,0,0,0,0,-1,1882,400,0,0
665,624,0,0,0,0,0,0,0,0,0,-1,1889,400,0,0
672,624,0,0,0,0,0,0,0,0,0,-1,1896,400,0,0
679,624,0,0,0,0,0,0,0,0,0,-1,1903,400,0,0
686,624,0,0,0,0,0,0,0,0,0,-1,1910,400,0,0
693,624,0,0,0,0,0,0,0,0,0,-1,1917,400,0,0
700,624,0,0,0,0,0,0,0,0,0,-1,1924,400,0,0
707,624,0,0,0,0,0,0,0,0,0,-1,1931,400,0,0
714,624,0,0,0,0,0,0,0,0,0,-1,1938,400,0,0
721,624,0,0,0,0,0,0,0,0,0,-1,1945,400,0,0
728,624,0,0,0,0,0,0,0,0,0,-1,1952,400,0,0
735,624,0,0,0,0,0,0,0,0,0,-1,1959,400,0,0
742,624,0,0,0,0,0,0,0,0,0,-1,1966,400,0,0
749,624,0,0,0,0,0,0,0,0,0,-1,1973,400,0,0
756,624,0,0,0,0,0,0,0,0,0,-1,1980,400,0,0
763,624,0,0,0,0,0,0,0,0,0,-1,1987,400,0,0
770,624,0,0,0,0,0,0,0,0,0,-1,1994,400,0,0
777,624,0,0,0,0,0,0,0,0,0,-1,2001,400,0,0
784,624,0,0,0,0,0,0,0,0,0,-1,2008,400,0,0
791,624,0,0,0,0,0,0,0,0,0,-1,2015,400,0,0
798,624,0,0,0,0,0,0,0,0,0,-1,2022,400,0,0
805,624,0,0,0,0,0,0,0,0,0,-1,2029,400,0,0
812,624,0,0,0,0,0,0,0,0,0,-1,2036,400,0,0
-700,617,0,0,0,0,0,0,0,0,0,-1,524,407,0,0
-693,617,0,0,0,0,0,0,0,0,0,-1,531,407,0,0
-686,617,0,0,0,0,0,0,0,0,0,-1,538,407,0,0
-679,617,0,0,0,0,0,0,0,0,0,-1,545,407,0,0
-672,617,0,0,0,0,0,0,0,0,0,-1,552,407,0,0
-665,617,0,0,0,0,0,0,0,0,0,-1,559,407,0,0
-658,617,0,0,0,0,0,0,0,0,0,-1,566,407,0,0
-651,617,0,0,0,0,0,0,0,0,0,-1,573,407,0,0
-644,617,0,0,0,0,0,0,0,0,0,-1,580,407,0,0
-637,617,0,0,0,0,0,0,0,0,0,-1,587,407,0,0
-630,617,0,0,0,0,0,0,0,0,0,-1,594,407,0,0
-623,617,0,0,0,0,0,0,0,0,0,-1,601,407,0,0
-616,617,0,0,0,0,0,0,0,0,0,-1,608,407,0,0
-609,617,0,0,0,0,0,0,0,0,0,-1,615,407,0,0
-602,617,0,0,0,0,0,0,0,0,0,-1,622,407,0,0
-595,617,0,0,0,0,0,0,0,0,0,-1,629,407,0,0
-588,617,0,0,0,0,0,0,0,0,0,-1,636,407,0,0
-581,617,0,0,0,0,0,0,0,0,0,-1,643,407,0,0
-574,617,0,0,0,0,0,0,0,0,0,-1,650,407,0,0
-567,617,0,0,0,0,0,0,0,0,0,-1,657,407,0,0
-560,617,0,0,0,0,0,0,0,0,0,-1,664,407,0,0
-553,617,0,0,0,0,0,0,0,0,0,-1,671,407,0,0
-546,617,0,0,0,0,0,0,0,0,0,-1,678,407,0,0
-539,617,0,0,0,0,0,0,0,0,0,-1,685,407,0,0
-532,617,0,0,0,0,0,0,0,0,0,-1,692,407,0,0
-525,617,0,0,0,0,0,0,0,0,0,-1,699,407,0,0
-518,617,0,0,0,0,0,0,0,0,0,-1,706,407,0,0
-511,617,0,0,0,0,0,0,0,0,0,-1,713,407,0,0
-504,617,0,0,0,0,0,0,0,0,0,-1,720,407,0,0
-497,617,0,0,0,0,0,0,0,0,0,-1,727,407,0,0
-490,617,0,0,0,0,0,0,0,0,0,-1,734,407,0,0
-483,617,0,0,0,0,0,0,0,0,0,-1,741,407,0,0
-476,617,0,0,0,0,0,0,0,0,0,-1,748,407,0,0
-469,617,0,0,0,0,0,0,0,0,0,-1,755,407,0,0
-462,617,0,0,0,0,0,0,0,0,0,-1,762,407,0,0
-455,617,0,0,0,0,0,0,0,0,0,-1,769,407,0,0
-448,617,0,0,0,0,0,0,0,0,0,-1,776,407,0,0
-441,617,0,0,0,0,0,0,0,0,0,-1,783,407,0,0
-434,617,0,0,0,0,0,0,0,0,0,-1,790,407,0,0
-427,617,0,0,0,0,0,0,0,0,0,-1,797,407,0,0
-420,617,0,0,0,0,0,0,0,0,0,-1,804,407,0,0
-413,617,0,0,0,0,0,0,0,0,0,-1,811,407,0,0
-406,617,0,0,0,0,0,0,0,0,0,-1,818,407,0,0
-399,617,0,0,0,0,0,0,0,0,0,-1,825,407,0,0
-392,617,0,0,0,0,0,0,0,0,0,-1,832,407,0,0
-385,617,0,0,0,0,0,0,0,0,0,-1,839,407,0,0
-378,617,0,0,0,0,0,0,0,0,0,-1,846,407,0,0
-371,617,0,0,0,0,0,0,0,0,0,-1,853,407,0,0
-364,617,0,0,0,0,0,0,0,0,0,-1,860,407,0,0
-357,617,0,0,0,0,0,0,0,0,0,-1,867,407,0,0
-350,617,0,0,0,0,0,0,0,0,0,-1,874,407,0,0
-343,617,0,0,0,0,0,0,0,0,0,-1,881,407,0,0
-336,617,0,0,0,0,0,0,0,0,0,-1,888,407,0,0
-329,617,0,0,0,0,0,0,0,0,0,-1,895,407,0,0
-322,617,0,0,0,0,0,0,0,0,0,-1,902,407,0,0
-315,617,0,0,0,0,0,0,0,0,0,-1,909,407,0,0
-308,617,0,0,0,0,0,0,0,0,0,-1,916,407,0,0
-301,617,6.81897,-24.525,0,0,0,0,0,0,0,-1,923,407,6.81899,24.525
-294,617,6.19263,-26.917,0,0,0,0,0,0,0,-1,930,407,6.19261,26.917
-287,617,7.00409,-31.9773,0,0,0,0,0,0,0,-1,937,407,7.00406,31.9773
-280,617,9.1106,-36.5021,0,0,0,0,0,0,0,-1,944,407,9.11059,36.5021
-273,617,8.35004,-36.2751,0,0,0,0,0,0,0,-1,951,407,8.35003,36.2751
-266,617,7.61749,-36.1671,0,0,0,0,0,0,0,-1,958,407,7.61746,36.1671
-259,617,6.83643,-36.3605,0,0,0,0,0,0,0,-1,965,407,6.83643,36.3605
-252,617,6.02264,-36.5001,0,0,0,0,0,0,0,-1,972,407,6.02265,36.5001
-245,617,6.72626,-34.4465,0,0,0,0,0,0,0,-1,979,407,6.72627,34.4465
-238,617,5.6474,-34.6842,0,0,0,0,0,0,0,-1,986,407,5.64741,34.6842
-231,617,8.70416,-54.2625,0,0,0,0,0,0,0,-1,993,407,8.70417,54.2624
-224,617,8.59882,-64.002,0,0,0,0,0,0,0,-1,1000,407,8.59879,64.002
-217,617,8.79517,-79.8425,0,0,0,0,0,0,0,-1,1007,407,8.79519,79.8425
-210,617,7.15131,-152.502,0,0,0,0,0,0,0,-1,1014,407,7.15128,152.502
-203,617,7.49023,-144.245,0,0,0,0,0,0,0,-1,1021,407,7.49021,144.245
-196,617,-4.46631,-220.521,0,0,0,0,0,0,0,-1,1028,407,-4.46632,220.521
-189,617,-13.8655,-224.723,0,0,0,0,0,0,0,-1,1035,407,-13.8655,224.723
-182,617,-14.1281,-227.215,0,0,0,0,0,0,0,-1,1042,407,-14.1281,227.215
-175,617,-14.1223,-229.627,0,0,0,0,0,0,0,-1,1049,407,-14.1223,229.627
-168,617,-14.073,-231.816,0.0486137,0.00727929,0.0176526,0.0551264,0.000766598,0.353445,0.0364981,0.038023,1056,407,-14.073,231.816
-161,617,-14.0875,-234.195,0.0518649,0.00484728,0.0190872,0.0586378,-0.00192565,0.340982,0.0397493,0.0199541,1063,407,-14.0876,234.195
-154,617,-14.1464,-236.303,0.0545817,0.00216439,0.0200274,0.0613578,-0.00461164,0.326248,0.0425258,0.0183347,1070,407,-14.1464,236.303
-147,617,-14.0204,-238.387,0.0574189,-0.000195059,0.0206344,0.0640466,-0.00682282,0.310791,0.0451442,0.0258557,1077,407,-14.0204,238.387
-140,617,-13.9802,-240.48,0.0601754,-0.00226862,0.0211778,0.0666802,-0.00877344,0.298006,0.047648,0.0196486,1084,407,-13.9802,240.48
-133,617,-13.8304,-242.41,0.0625913,-0.00432862,0.0217083,0.0690164,-0.0107537,0.28776,0.0499826,0.0237602,1091,407,-13.8305,242.41
-126,617,-13.4476,-244.258,0.0647901,-0.0059811,0.0222155,0.0711857,-0.0123767,0.280309,0.0520753,0.0251594,1098,407,-13.4476,244.258
-119,617,-13.3282,-246.127,0.0669964,-0.0073321,0.0228887,0.0734793,-0.013815,0.276007,0.0541815,0.0251459,1105,407,-13.3282,246.127
-112,617,-13.0125,-247.826,0.0691109,-0.00865632,0.0233889,0.0756032,-0.0151487,0.270765,0.0561372,0.0282002,1112,407,-13.0125,247.826
-105,617,-12.5688,-249.604,0.0710096,-0.00999067,0.0236518,0.0774101,-0.0163911,0.264283,0.0578497,0.0249749,1119,407,-12.5689,249.604
-98,617,-12.2939,-251.234,0.0730914,-0.0109176,0.0236602,0.0792966,-0.0171229,0.25649,0.0594005,0.0181122,1126,407,-12.294,251.234
-91,617,-12.0498,-252.867,0.0754864,-0.0121113,0.0232747,0.0812865,-0.0179114,0.244225,0.0610438,0.0264947,1133,407,-12.0498,252.867
-84,617,-11.7668,-254.383,0.0781853,-0.0135896,0.0227105,0.0834977,-0.018902,0.229787,0.0629194,0.0270988,1140,407,-11.7668,254.383
-77,617,-11.4153,-255.773,0.0809194,-0.0151405,0.02181,0.0856394,-0.0198605,0.213125,0.0647366,0.0237212,1147,407,-11.4153,255.773
-70,617,-10.9756,-257.168,0,0,0,0,0,0,0,-1,1154,407,-10.9756,257.168
-63,617,-10.0032,-258.903,0,0,0,0,0,0,0,-1,1161,407,-10.0032,258.903
-56,617,-9.42236,-260.026,0,0,0,0,0,0,0,-1,1168,407,-9.42235,260.026
-49,617,-8.93359,-260.86,0.0918716,-0.022758,0.0173954,0.0944532,-0.0253397,0.147336,0.0728985,0.0291909,1175,407,-8.93355,260.86
-42,617,-8.47058,-261.922,0.0947798,-0.0244469,0.0162756,0.0969616,-0.0266288,0.133262,0.0751077,0.0192246,1182,407,-8.47063,261.922
-35,617,-8.02527,-262.874,0.0977196,-0.0252155,0.0159991,0.0997677,-0.0272635,0.127318,0.0772209,0.0254706,1189,407,-8.02522,262.874
-28,617,-7.46436,-263.795,0.10078,-0.0258803,0.0154379,0.102634,-0.0277348,0.119553,0.0793012,0.0276437,1196,407,-7.46434,263.795
-21,617,-6.80481,-264.619,0.103535,-0.0264036,0.0149638,0.105236,-0.0281045,0.113186,0.0811642,0.019196,1203,407,-6.8048,264.619
-14,617,-6.10168,-265.395,0.106372,-0.0266045,0.0137762,0.107785,-0.0280167,0.102153,0.0827908,0.0233528,1210,407,-6.10165,265.395
-7,617,-5.54541,-266.218,0.109283,-0.0268046,0.0127788,0.110473,-0.0279941,0.0928198,0.0845391,0.0332723,1217,407,-5.54539,266.218
0,617,-4.6438,-266.876,0.112058,-0.0268859,0.0116144,0.113022,-0.0278501,0.0828247,0.0861456,0.0360463,1224,407,-4.64374,266.876
7,617,-3.71729,-267.469,0.114689,-0.0274558,0.0104229,0.115449,-0.028216,0.0728071,0.0878945,0.0255475,1231,407,-3.71732,267.469
14,617,-3.1698,-268.102,0.117147,-0.0280615,0.00934075,0.117745,-0.0286598,0.0639752,0.0895914,0.0272572,1238,407,-3.16974,268.102
21,617,-2.12988,-268.54,0.119688,-0.0286334,0.00810304,0.12013,-0.0290747,0.0544157,0.0913338,0.0260931,1245,407,-2.12982,268.54
28,617,-1.1676,-268.998,0.122005,-0.0290868,0.00682252,0.122313,-0.0293942,0.0450326,0.092903,0.0260011,1252,407,-1.16763,268.998
35,617,-0.551025,-269.248,0.123975,-0.0299829,0.00543671,0.124167,-0.0301747,0.0352545,0.0944564,0.025397,1259,407,-0.551019,269.248
42,617,0.203735,-269.346,0.125261,-0.0305805,0.00410416,0.125369,-0.0306885,0.0263112,0.0954673,0.0301213,1266,407,0.203791,269.346
49,617,0.886597,-269.554,0.125937,-0.0312345,0.00290978,0.125991,-0.0312883,0.0185049,0.096136,0.0338415,1273,407,0.88659,269.554
56,617,1.52454,-269.645,0.127213,-0.0316789,0.00072893,0.127217,-0.0316823,0.00458745,0.0971101,0.0301693,1280,407,1.52457,269.645
63,617,2.3678,-269.675,0.129974,-0.0321943,-0.00178495,0.129993,-0.0322139,-0.011005,0.0991601,0.0234527,1287,407,2.36774,269.675
70,617,3.42969,-269.681,0.131774,-0.0324405,-0.00424629,0.131884,-0.0325502,-0.0258351,0.100545,0.0337669,1294,407,3.42968,269.681
77,617,4.46082,-269.549,0.133663,-0.0324651,-0.00607724,0.133885,-0.0326871,-0.0365166,0.101915,0.0291023,1301,407,4.46076,269.549
84,617,5.32861,-269.392,0,0,0,0,0,0,0,-1,1308,407,5.32861,269.392
91,617,5.96411,-269.092,0.138441,-0.0326035,-0.00975755,0.138995,-0.0331583,-0.0568014,0.105468,0.0257699,1315,407,5.96416,269.092
98,617,6.72766,-268.925,0.139897,-0.0322608,-0.0117267,0.140692,-0.0330559,-0.0676995,0.106537,0.0240918,1322,407,6.72767,268.925
105,617,7.64111,-268.573,0.141419,-0.0319765,-0.0135885,0.142478,-0.033035,-0.0777343,0.107699,0.0287122,1329,407,7.64106,268.573
112,617,8.87524,-267.994,0.142151,-0.0312656,-0.015307,0.143492,-0.0326063,-0.0873667,0.108181,0.0352515,1336,407,8.8753,267.994
119,617,10.1985,-267.383,0,0,0,0,0,0,0,-1,1343,407,10.1985,267.383
126,617,9.73889,-267.029,0.13787,-0.0300847,-0.016832,0.13954,-0.031755,-0.0989069,0.105222,0.0406542,1350,407,9.73887,267.029
133,617,10.8561,-266.34,0.134487,-0.0294442,-0.0172819,0.136289,-0.0312463,-0.1039,0.102869,0.0318216,1357,407,10.8561,266.34
140,617,11.7559,-265.559,0.131021,-0.0282329,-0.0177325,0.132972,-0.0301834,-0.109559,0.100235,0.0299072,1364,407,11.7558,265.559
147,617,12.3823,-264.685,0.127394,-0.0275482,-0.0180989,0.129481,-0.0296343,-0.114752,0.0977081,0.0420828,1371,407,12.3823,264.685
154,617,13.3657,-263.922,0.122809,-0.0268471,-0.0185298,0.125069,-0.0291073,-0.121374,0.0945868,0.0414063,1378,407,13.3658,263.922
161,617,14.4309,-263.13,0,0,0,0,0,0,0,-1,1385,407,14.4309,263.13
168,617,14.959,-262.22,0.114589,-0.0250329,-0.0188222,0.117082,-0.0275258,-0.131677,0.0886655,0.0269112,1392,407,14.9589,262.22
175,617,15.3727,-261.124,0.113074,-0.0237867,-0.0199751,0.11593,-0.0266425,-0.142006,0.0875296,0.0236056,1399,407,15.3727,261.124
182,617,15.6566,-259.817,0.110645,-0.0220429,-0.0216258,0.11408,-0.0254785,-0.157552,0.0858167,0.0183203,1406,407,15.6566,259.817
189,617,16.2737,-258.449,0.107968,-0.020357,-0.0229037,0.111933,-0.0243224,-0.171433,0.0839129,0.0257319,1413,407,16.2737,258.449
196,617,17.1002,-257.103,0,0,0,0,0,0,0,-1,1420,407,17.1002,257.103
203,617,15.9843,-255.461,0,0,0,0,0,0,0,-1,1427,407,15.9842,255.461
210,617,18.5986,-254.479,0,0,0,0,0,0,0,-1,1434,407,18.5986,254.478
217,617,19.009,-252.939,0.10177,-0.0141905,-0.0256138,0.107176,-0.0195961,-0.207993,0.0787991,0.0314562,1441,407,19.009,252.939
224,617,19.5715,-251.546,0.100686,-0.0124582,-0.0266624,0.106654,-0.0184264,-0.220212,0.0779741,0.026845,1448,407,19.5716,251.546
231,617,20.0931,-250.011,0.099299,-0.0110262,-0.0277452,0.105884,-0.0176108,-0.233011,0.0771324,0.0244667,1455,407,20.0932,250.011
238,617,20.6635,-248.349,0.0969587,-0.00929576,-0.0285205,0.10413,-0.0164671,-0.246339,0.07551,0.0315923,1462,407,20.6634,248.349
245,617,21.3041,-246.72,0,0,0,0,0,0,0,-1,1469,407,21.304,246.72
252,617,21.2451,-244.791,0.0895741,-0.00500353,-0.0288599,0.0976849,-0.0131144,-0.273976,0.069906,0.0298292,1476,407,21.2452,244.791
259,617,21.6377,-242.729,0.086096,-0.00276725,-0.0289279,0.0946832,-0.0113544,-0.288562,0.0672273,0.0357504,1483,407,21.6377,242.729
266,617,22.0621,-240.688,0.0826073,-0.000968912,-0.0289496,0.0916554,-0.0100171,-0.302929,0.0647016,0.0294902,1490,407,22.0621,240.688
273,617,22.2144,-238.604,0.0794373,0.0013893,-0.0284885,0.0887296,-0.00790305,-0.315297,0.0619557,0.0215239,1497,407,22.2143,238.604
280,617,22.2682,-236.526,0.0763227,0.00356033,-0.028032,0.0858696,-0.00598649,-0.328248,0.0593426,0.0278945,1504,407,22.2682,236.526
287,617,22.498,-234.379,0.0728441,0.00556931,-0.027298,0.0825271,-0.00411369,-0.340868,0.0564393,0.0402876,1511,407,22.4981,234.379
294,617,22.7642,-232.152,0.0695357,0.00745086,-0.0258238,0.0788728,-0.00188619,-0.346943,0.0532217,0.0288392,1518,407,22.7641,232.152
301,617,22.8022,-229.873,0.0667121,0.00950785,-0.0235128,0.0751361,0.00108386,-0.344026,0.0497334,0.0204461,1525,407,22.8022,229.873
308,617,22.8763,-227.361,0.0641066,0.0117848,-0.0209741,0.0714764,0.00441501,-0.337899,0.0462496,0.0392072,1532,407,22.8764,227.361
315,617,22.9293,-224.932,0,0,0,0,0,0,0,-1,1539,407,22.9293,224.932
322,617,22.8156,-222.304,0,0,0,0,0,0,0,-1,1546,407,22.8155,222.303
329,617,13.4055,-218.347,0,0,0,0,0,0,0,-1,1553,407,13.4055,218.347
336,617,3.7113,-147.346,0,0,0,0,0,0,0,-1,1560,407,3.7113,147.346
343,617,4.15369,-139.098,0,0,0,0,0,0,0,-1,1567,407,4.15371,139.098
350,617,2.8457,-140.993,0,0,0,0,0,0,0,-1,1574,407,2.84567,140.993
357,617,2.63464,-139.438,0,0,0,0,0,0,0,-1,1581,407,2.63469,139.438
364,617,0.620972,-140.778,0,0,0,0,0,0,0,-1,1588,407,0.62097,140.778
371,617,2.60266,-6.20667,0,0,0,0,0,0,0,-1,1595,407,2.60261,6.20668
378,617,8.75098,-47.4916,0,0,0,0,0,0,0,-1,1602,407,8.75093,47.4916
385,617,1.74146,-10.3561,0,0,0,0,0,0,0,-1,1609,407,1.7414,10.3561
392,617,1.96936,-5.10449,0,0,0,0,0,0,0,-1,1616,407,1.96931,5.10451
399,617,2.48889,-5.81256,0,0,0,0,0,0,0,-1,1623,407,2.48888,5.81255
406,617,3.01465,-6.51642,0,0,0,0,0,0,0,-1,1630,407,3.01461,6.51643
413,617,5.66919,-50.9252,0,0,0,0,0,0,0,-1,1637,407,5.66925,50.9252
420,617,5.401,-51.0232,0,0,0,0,0,0,0,-1,1644,407,5.40098,51.0232
427,617,0,0,0,0,0,0,0,0,0,-1,1651,407,0,0
434,617,0,0,0,0,0,0,0,0,0,-1,1658,407,0,0
441,617,0,0,0,0,0,0,0,0,0,-1,1665,407,0,0
448,617,0,0,0,0,0,0,0,0,0,-1,1672,407,0,0
455,617,0,0,0,0,0,0,0,0,0,-1,1679,407,0,0
462,617,0,0,0,0,0,0,0,0,0,-1,1686,407,0,0
469,617,0,0,0,0,0,0,0,0,0,-1,1693,407,0,0
476,617,0,0,0,0,0,0,0,0,0,-1,1700,407,0,0
483,617,0,0,0,0,0,0,0,0,0,-1,1707,407,0,0
490,617,0,0,0,0,0,0,0,0,0,-1,1714,407,0,0
497,617,0,0,0,0,0,0,0,0,0,-1,1721,407,0,0
504,617,0,0,0,0,0,0,0,0,0,-1,1728,407,0,0
511,617,0,0,0,0,0,0,0,0,0,-1,1735,407,0,0
518,617,0,0,0,0,0,0,0,0,0,-1,1742,407,0,0
525,617,0,0,0,0,0,0,0,0,0,-1,1749,407,0,0
532,617,0,0,0,0,0,0,0,0,0,-1,1756,407,0,0
539,617,0,0,0,0,0,0,0,0,0,-1,1763,407,0,0
546,617,0,0,0,0,0,0,0,0,0,-1,1770,407,0,0
553,617,0,0,0,0,0,0,0,0,0,-1,1777,407,0,0
560,617,0,0,0,0,0,0,0,0,0,-1,1784,407,0,0
567,617,0,0,0,0,0,0,0,0,0,-1,1791,407,0,0
574,617,0,0,0,0,0,0,0,0,0,-1,1798,407,0,0
581,617,0,0,0,0,0,0,0,0,0,-1,1805,407,0,0
588,617,0,0,0,0,0,0,0,0,0,-1,1812,407,0,0
595,617,0,0,0,0,0,0,0,0,0,-1,1819,407,0,0
602,617,0,0,0,0,0,0,0,0,0,-1,1826,407,0,0
609,617,0,0,0,0,0,0,0,0,0,-1,1833,407,0,0
616,617,0,0,0,0,0,0,0,0,0,-1,1840,407,0,0
623,617,0,0,0,0,0,0,0,0,0,-1,1847,407,0,0
630,617,0,0,0,0,0,0,0,0,0,-1,1854,407,0,0
637,617,0,0,0,0,0,0,0,0,0,-1,1861,407,0,0
644,617,0,0,0,0,0,0,0,0,0,-1,1868,407,0,0
651,617,0,0,0,0,0,0,0,0,0,-1,1875,407,0,0
658,617,0,0,0,0,0,0,0,0,0,-1,1882,407,0,0
665,617,0,0,0,0,0,0,0,0,0,-1,1889,407,0,0
672,617,0,0,0,0,0,0,0,0,0,-1,1896,407,0,0
679,617,0,0,0,0,0,0,0,0,0,-1,1903,407,0,0
686,617,0,0,0,0,0,0,0,0,0,-1,1910,407,0,0
693,617,0,0,0,0,0,0,0,0,0,-1,1917,407,0,0
700,617,0,0,0,0,0,0,0,0,0,-1,1924,407,0,0
707,617,0,0,0,0,0,0,0,0,0,-1,1931,407,0,0
714,617,0,0,0,0,0,0,0,0,0,-1,1938,407,0,0
721,617,0,0,0,0,0,0,0,0,0,-1,1945,407,0,0
728,617,0,0,0,0,0,0,0,0,0,-1,1952,407,0,0
735,617,0,0,0,0,0,0,0,0,0,-1,1959,407,0,0
742,617,0,0,0,0,0,0,0,0,0,-1,1966,407,0,0
749,617,0,0,0,0,0,0,0,0,0,-1,1973,407,0,0
756,617,0,0,0,0,0,0,0,0,0,-1,1980,407,0,0
763,617,0,0,0,0,0,0,0,0,0,-1,1987,407,0,0
770,617,0,0,0,0,0,0,0,0,0,-1,1994,407,0,0
777,617,0,0,0,0,0,0,0,0,0,-1,2001,407,0,0
784,617,0,0,0,0,0,0,0,0,0,-1,2008,407,0,0
791,617,0,0,0,0,0,0,0,0,0,-1,2015,407,0,0
798,617,0,0,0,0,0,0,0,0,0,-1,2022,407,0,0
805,617,0,0,0,0,0,0,0,0,0,-1,2029,407,0,0
812,617,0,0,0,0,0,0,0,0,0,-1,2036,407,0,0
-700,610,0,0,0,0,0,0,0,0,0,-1,524,414,0,0
-693,610,0,0,0,0,0,0,0,0,0,-1,531,414,0,0
-686,610,0,0,0,0,0,0,0,0,0,-1,538,414,0,0
-679,610,0,0,0,0,0,0,0,0,0,-1,545,414,0,0
-672,610,0,0,0,0,0,0,0,0,0,-1,552,414,0,0
-665,610,0,0,0,0,0,0,0,0,0,-1,559,414,0,0
-658,610,0,0,0,0,0,0,0,0,0,-1,566,414,0,0
-651,610,0,0,0,0,0,0,0,0,0,-1,573,414,0,0
-644,610,0,0,0,0,0,0,0,0,0,-1,580,414,0,0
-637,610,0,0,0,0,0,0,0,0,0,-1,587,414,0,0
-630,610,0,0,0,0,0,0,0,0,0,-1,594,414,0,0
-623,610,0,0,0,0,0,0,0,0,0,-1,601,414,0,0
-616,610,0,0,0,0,0,0,0,0,0,-1,608,414,0,0
-609,610,0,0,0,0,0,0,0,0,0,-1,615,414,0,0
-602,610,0,0,0,0,0,0,0,0,0,-1,622,414,0,0
-595,610,0,0,0,0,0,0,0,0,0,-1,629,414,0,0
-588,610,0,0,0,0,0,0,0,0,0,-1,636,414,0,0
-581,610,0,0,0,0,0,0,0,0,0,-1,643,414,0,0
-574,610,0,0,0,0,0,0,0,0,0,-1,650,414,0,0
-567,610,0,0,0,0,0,0,0,0,0,-1,657,414,0,0
-560,610,0,0,0,0,0,0,0,0,0,-1,664,414,0,0
-553,610,0,0,0,0,0,0,0,0,0,-1,671,414,0,0
-546,610,0,0,0,0,0,0,0,0,0,-1,678,414,0,0
-539,610,0,0,0,0,0,0,0,0,0,-1,685,414,0,0
-532,610,0,0,0,0,0,0,0,0,0,-1,692,414,0,0
-525,610,0,0,0,0,0,0,0,0,0,-1,699,414,0,0
-518,610,0,0,0,0,0,0,0,0,0,-1,706,414,0,0
-511,610,0,0,0,0,0,0,0,0,0,-1,713,414,0,0
-504,610,0,0,0,0,0,0,0,0,0,-1,720,414,0,0
-497,610,0,0,0,0,0,0,0,0,0,-1,727,414,0,0
-490,610,0,0,0,0,0,0,0,0,0,-1,734,414,0,0
-483,610,0,0,0,0,0,0,0,0,0,-1,741,414,0,0
-476,610,0,0,0,0,0,0,0,0,0,-1,748,414,0,0
-469,610,0,0,0,0,0,0,0,0,0,-1,755,414,0,0
-462,610,0,0,0,0,0,0,0,0,0,-1,762,414,0,0
-455,610,0,0,0,0,0,0,0,0,0,-1,769,414,0,0
-448,610,0,0,0,0,0,0,0,0,0,-1,776,414,0,0
-441,610,0,0,0,0,0,0,0,0,0,-1,783,414,0,0
-434,610,0,0,0,0,0,0,0,0,0,-1,790,414,0,0
-427,610,0,0,0,0,0,0,0,0,0,-1,797,414,0,0
-420,610,0,0,0,0,0,0,0,0,0,-1,804,414,0,0
-413,610,0,0,0,0,0,0,0,0,0,-1,811,414,0,0
-406,610,0,0,0,0,0,0,0,0,0,-1,818,414,0,0
-399,610,0,0,0,0,0,0,0,0,0,-1,825,414,0,0
-392,610,0,0,0,0,0,0,0,0,0,-1,832,414,0,0
-385,610,0,0,0,0,0,0,0,0,0,-1,839,414,0,0
-378,610,0,0,0,0,0,0,0,0,0,-1,846,414,0,0
-371,610,0,0,0,0,0,0,0,0,0,-1,853,414,0,0
-364,610,0,0,0,0,0,0,0,0,0,-1,860,414,0,0
-357,610,0,0,0,0,0,0,0,0,0,-1,867,414,0,0
-350,610,0,0,0,0,0,0,0,0,0,-1,874,414,0,0
-343,610,0,0,0,0,0,0,0,0,0,-1,881,414,0,0
-336,610,0,0,0,0,0,0,0,0,0,-1,888,414,0,0
-329,610,0,0,0,0,0,0,0,0,0,-1,895,414,0,0
-322,610,0,0,0,0,0,0,0,0,0,-1,902,414,0,0
-315,610,7.68475,-21.5402,0,0,0,0,0,0,0,-1,909,414,7.68475,21.5402
-308,610,3.97211,-23.4133,0,0,0,0,0,0,0,-1,916,414,3.9721,23.4133
-301,610,7.38513,-22.4166,0,0,0,0,0,0,0,-1,923,414,7.38516,22.4166
-294,610,6.77832,-24.1945,0,0,0,0,0,0,0,-1,930,414,6.77829,24.1946
-287,610,3.39276,-28.5804,0,0,0,0,0,0,0,-1,937,414,3.39276,28.5803
-280,610,8.8728,-35.4336,0,0,0,0,0,0,0,-1,944,414,8.87283,35.4336
-273,610,8.14722,-35.5264,0,0,0,0,0,0,0,-1,951,414,8.14723,35.5264
-266,610,7.38361,-35.6366,0,0,0,0,0,0,0,-1,958,414,7.38359,35.6366
-259,610,6.47375,-35.762,0,0,0,0,0,0,0,-1,965,414,6.47373,35.762
-252,610,5.65308,-35.8931,0,0,0,0,0,0,0,-1,972,414,5.65305,35.8931
-245,610,8.48608,-60.1828,0,0,0,0,0,0,0,-1,979,414,8.4861,60.1828
-238,610,7.21301,-70.1616,0,0,0,0,0,0,0,-1,986,414,7.21304,70.1615
-231,610,7.96533,-98.6728,0,0,0,0,0,0,0,-1,993,414,7.96532,98.6728
-224,610,6.0943,-157.78,0,0,0,0,0,0,0,-1,1000,414,6.09428,157.78
-217,610,4.86194,-173.344,0,0,0,0,0,0,0,-1,1007,414,4.86196,173.344
-210,610,-16.0148,-216.439,0,0,0,0,0,0,0,-1,1014,414,-16.0148,216.439
-203,610,-16.0976,-219.478,0,0,0,0,0,0,0,-1,1021,414,-16.0976,219.478
-196,610,-16.3022,-221.941,0,0,0,0,0,0,0,-1,1028,414,-16.3022,221.941
-189,610,-16.4296,-224.383,0.0490965,0.00621844,0.0173141,0.0552149,0.000100056,0.339678,0.0367766,0.0216874,1035,414,-16.4297,224.383
-182,610,-16.543,-226.738,0.0516197,0.00504845,0.0193503,0.0586103,-0.00194222,0.346679,0.0397368,0.0295452,1042,414,-16.5429,226.738
-175,610,-16.4923,-229.179,0.0539313,0.00288628,0.0212432,0.0616153,-0.00479771,0.347074,0.0427659,0.0347799,1049,414,-16.4923,229.179
-168,610,-16.5182,-231.523,0.056795,0.000737619,0.0228402,0.0649227,-0.00739003,0.341876,0.0459437,0.027134,1056,414,-16.5182,231.523
-161,610,-16.5159,-233.838,0.0600193,-0.00161793,0.0240805,0.0683116,-0.00991018,0.331637,0.0491784,0.0188779,1063,414,-16.5159,233.838
-154,610,-16.3683,-235.994,0.0627215,-0.00402886,0.0250756,0.0710918,-0.0123992,0.322174,0.0520225,0.0255374,1070,414,-16.3683,235.994
-147,610,-16.2009,-238.002,0.0654756,-0.00604302,0.0258348,0.0738316,-0.0143991,0.312822,0.0546567,0.0304852,1077,414,-16.201,238.002
-140,610,-16.0868,-240.028,0.0680311,-0.00782523,0.0265376,0.0763932,-0.0161873,0.305255,0.0570946,0.0228883,1084,414,-16.0868,240.028
-133,610,-15.8646,-241.949,0.0703214,-0.00954867,0.0271363,0.0786687,-0.017896,0.298421,0.0593179,0.0244711,1091,414,-15.8646,241.949
-126,610,-15.5548,-243.851,0.0724949,-0.0109202,0.0274697,0.0807283,-0.0191537,0.291208,0.0612107,0.0249232,1098,414,-15.5549,243.851
-119,610,-15.2587,-245.629,0.0746751,-0.011962,0.0281411,0.0830133,-0.0203001,0.288058,0.0632051,0.0198141,1105,414,-15.2587,245.629
-112,610,-14.8395,-247.495,0.0768352,-0.0128671,0.0287252,0.0852453,-0.0212773,0.284819,0.0650923,0.0331598,1112,414,-14.8395,247.495
-105,610,-14.5321,-249.248,0.0788117,-0.0137849,0.0288923,0.0870872,-0.0220604,0.278957,0.06664,0.0326752,1119,414,-14.5321,249.248
-98,610,-14.1628,-250.823,0.0811697,-0.0144254,0.0288148,0.0891834,-0.0224391,0.271257,0.0681775,0.0204858,1126,414,-14.1629,250.823
-91,610,-13.7977,-252.4,0,0,0,0,0,0,0,-1,1133,414,-13.7977,252.4
-84,610,-13.2379,-253.941,0.0868821,-0.0172803,0.0272274,0.0935698,-0.023968,0.240855,0.0717169,0.0317606,1140,414,-13.238,253.941
-77,610,-13.0333,-255.506,0.0900201,-0.0192235,0.025824,0.0958171,-0.0250204,0.220817,0.0736487,0.0220462,1147,414,-13.0333,255.507
-70,610,-12.5156,-256.841,0,0,0,0,0,0,0,-1,1154,414,-12.5156,256.841
-63,610,-11.7274,-258.121,0,0,0,0,0,0,0,-1,1161,414,-11.7274,258.121
-56,610,-11.1514,-259.335,0,0,0,0,0,0,0,-1,1168,414,-11.1514,259.335
-49,610,-10.4434,-260.529,0.102488,-0.0290744,0.019528,0.105325,-0.0319118,0.144288,0.0829265,0.030235,1175,414,-10.4434,260.529
-42,610,-9.71545,-261.588,0.105559,-0.0312512,0.0180224,0.107893,-0.0335855,0.128806,0.0853558,0.0250211,1182,414,-9.7154,261.588
-35,610,-9.06531,-262.582,0.108756,-0.0321366,0.0177208,0.11095,-0.0343313,0.123219,0.0876805,0.0236567,1189,414,-9.0653,262.582
-28,610,-8.48779,-263.55,0.112263,-0.0329753,0.0170849,0.114246,-0.034958,0.115532,0.0901062,0.0233278,1196,414,-8.48776,263.55
-21,610,-7.70825,-264.353,0.11553,-0.0336036,0.0166667,0.11737,-0.0354435,0.109949,0.0923568,0.0188979,1203,414,-7.70826,264.353
-14,610,-7.03015,-265.112,0.11882,-0.0338218,0.015209,0.120321,-0.0353224,0.0983502,0.0942214,0.0202145,1210,414,-7.03014,265.112
-7,610,-6.34082,-265.956,0.122054,-0.0340326,0.0139671,0.123294,-0.0352726,0.0885454,0.0961355,0.0317371,1217,414,-6.34079,265.956
0,610,-5.44666,-266.732,0.124983,-0.0340519,0.012591,0.125974,-0.0350426,0.0785192,0.0977795,0.0292937,1224,414,-5.44662,266.732
7,610,-4.59509,-267.407,0.127698,-0.0345794,0.0112114,0.128468,-0.0353503,0.0686533,0.0995438,0.0310517,1231,414,-4.59512,267.407
14,610,-3.76062,-267.975,0,0,0,0,0,0,0,-1,1238,414,-3.76059,267.975
21,610,-2.29346,-268.261,0,0,0,0,0,0,0,-1,1245,414,-2.29352,268.261
28,610,-1.62964,-268.678,0.135282,-0.0360701,0.00717725,0.135582,-0.0363702,0.0417885,0.10464,0.0439235,1252,414,-1.62963,268.678
35,610,-0.601318,-268.912,0.137199,-0.0369181,0.0056674,0.137383,-0.0371023,0.0325036,0.10614,0.0395245,1259,414,-0.601291,268.912
42,610,-0.263184,-269.181,0,0,0,0,0,0,0,-1,1266,414,-0.263126,269.181
49,610,0.509399,-269.487,0,0,0,0,0,0,0,-1,1273,414,0.509406,269.487
56,610,1.65442,-269.698,0,0,0,0,0,0,0,-1,1280,414,1.6544,269.698
63,610,2.51416,-269.578,0,0,0,0,0,0,0,-1,1287,414,2.51415,269.578
70,610,3.67834,-269.413,0,0,0,0,0,0,0,-1,1294,414,3.67829,269.413
77,610,4.76245,-269.215,0,0,0,0,0,0,0,-1,1301,414,4.76239,269.215
84,610,5.47852,-269.099,0,0,0,0,0,0,0,-1,1308,414,5.47856,269.099
91,610,6.05237,-269.06,0,0,0,0,0,0,0,-1,1315,414,6.05235,269.06
98,610,6.8916,-268.823,0,0,0,0,0,0,0,-1,1322,414,6.89162,268.823
105,610,8.49817,-268.286,0.158307,-0.038303,-0.0157565,0.159562,-0.0395578,-0.0794651,0.121722,0.0436458,1329,414,8.49821,268.286
112,610,9.59729,-267.773,0.159287,-0.0377708,-0.017682,0.160861,-0.0393448,-0.088785,0.122481,0.0288619,1336,414,9.59723,267.773
119,610,10.7625,-267.225,0,0,0,0,0,0,0,-1,1343,414,10.7624,267.225
126,610,10.223,-266.682,0,0,0,0,0,0,0,-1,1350,414,10.2231,266.682
133,610,11.4944,-266.156,0.150167,-0.0370346,-0.0196291,0.152203,-0.0390707,-0.103357,0.116694,0.0456106,1357,414,11.4943,266.155
140,610,12.749,-265.437,0.146105,-0.0360601,-0.020232,0.148325,-0.0382801,-0.10929,0.11381,0.0468159,1364,414,12.749,265.437
147,610,13.4896,-264.537,0.14189,-0.0356034,-0.0206675,0.144264,-0.0379782,-0.114402,0.111022,0.0499229,1371,414,13.4897,264.537
154,610,14.3999,-263.664,0.136636,-0.0350985,-0.0212137,0.139217,-0.0376801,-0.121101,0.107594,0.0477829,1378,414,14.3999,263.664
161,610,15.2784,-262.722,0,0,0,0,0,0,0,-1,1385,414,15.2784,262.722
168,610,16.0066,-261.724,0.127558,-0.0333514,-0.0214727,0.130374,-0.0361675,-0.130406,0.101151,0.0342435,1392,414,16.0066,261.724
175,610,16.5907,-260.61,0.12619,-0.0318968,-0.0228969,0.12944,-0.0351463,-0.140979,0.100087,0.0300387,1399,414,16.5907,260.61
182,610,17.1532,-259.445,0.123146,-0.0297606,-0.0249893,0.127127,-0.0337409,-0.157955,0.0979546,0.031522,1406,414,17.1532,259.445
189,610,17.9938,-258.113,0.119696,-0.0277996,-0.0265308,0.124323,-0.0324267,-0.172667,0.0955431,0.0309049,1413,414,17.9938,258.113
196,610,18.9698,-256.873,0,0,0,0,0,0,0,-1,1420,414,18.9698,256.873
203,610,20.3053,-255.631,0,0,0,0,0,0,0,-1,1427,414,20.3053,255.631
210,610,20.1957,-254.107,0,0,0,0,0,0,0,-1,1434,414,20.1956,254.107
217,610,20.7867,-252.514,0.113645,-0.020993,-0.0290717,0.119655,-0.027002,-0.203828,0.0901289,0.0263013,1441,414,20.7867,252.514
224,610,21.4373,-251.136,0.112921,-0.0190133,-0.0302167,0.119512,-0.0256045,-0.214768,0.0894394,0.0286846,1448,414,21.4372,251.136
231,610,21.9646,-249.707,0.111547,-0.017305,-0.0311852,0.118697,-0.0244557,-0.225402,0.0884181,0.0262106,1455,414,21.9646,249.707
238,610,22.4441,-247.971,0.108821,-0.0153147,-0.0319056,0.116541,-0.023035,-0.23741,0.0864021,0.0264641,1462,414,22.4441,247.971
245,610,23.1626,-246.232,0.104775,-0.0132215,-0.0321272,0.112955,-0.0214017,-0.249323,0.0833582,0.0276892,1469,414,23.1626,246.232
252,610,23.3593,-244.383,0.100903,-0.0107049,-0.032335,0.109594,-0.0193961,-0.262581,0.0803129,0.0251799,1476,414,23.3593,244.383
259,610,23.8151,-242.366,0.0971914,-0.00821455,-0.032486,0.106399,-0.0174223,-0.276195,0.0773967,0.032685,1483,414,23.8151,242.366
266,610,24.2671,-240.327,0.0933309,-0.0059404,-0.0325449,0.103049,-0.0156585,-0.290177,0.0744696,0.0277527,1490,414,24.2671,240.327
273,610,24.5244,-238.266,0.089454,-0.00326453,-0.0323082,0.0996014,-0.0134119,-0.304325,0.0712933,0.0185289,1497,414,24.5244,238.266
280,610,24.7079,-236.182,0.0857028,-0.000723565,-0.0318728,0.0961855,-0.0112063,-0.317749,0.0681668,0.0311388,1504,414,24.7079,236.182
287,610,24.8356,-234.043,0,0,0,0,0,0,0,-1,1511,414,24.8356,234.043
294,610,25.2189,-231.696,0.0778701,0.00367869,-0.029936,0.0884426,-0.00689377,-0.339495,0.0613888,0.0448992,1518,414,25.2188,231.696
301,610,25.3569,-229.49,0.0742525,0.00588191,-0.0280613,0.0842947,-0.00416029,-0.343666,0.0576333,0.0256348,1525,414,25.3569,229.49
308,610,25.4968,-227.061,0.0708955,0.0081151,-0.0259285,0.0802193,-0.00120875,-0.3452,0.053887,0.0278441,1532,414,25.4968,227.061
315,610,25.4796,-224.637,0.0674611,0.010581,-0.0227713,0.0754541,0.00258794,-0.337577,0.0494627,0.0224249,1539,414,25.4797,224.637
322,610,25.4938,-221.755,0.0641398,0.0128132,-0.0196501,0.0707988,0.00615425,-0.326733,0.0452874,0.0357456,1546,414,25.4937,221.755
329,610,25.6879,-218.959,0,0,0,0,0,0,0,-1,1553,414,25.6879,218.959
336,610,22.1915,-216.164,0,0,0,0,0,0,0,-1,1560,414,22.1916,216.164
343,610,25.0604,-213.935,0,0,0,0,0,0,0,-1,1567,414,25.0604,213.935
350,610,2.16211,-169.78,0,0,0,0,0,0,0,-1,1574,414,2.16212,169.78
357,610,2.01099,-161.046,0,0,0,0,0,0,0,-1,1581,414,2.01093,161.046
364,610,1.37036,-160.506,0,0,0,0,0,0,0,-1,1588,414,1.37038,160.506
371,610,2.50562,-141.433,0,0,0,0,0,0,0,-1,1595,414,2.50557,141.433
378,610,10.524,-62.0682,0,0,0,0,0,0,0,-1,1602,414,10.524,62.0682
385,610,9.28003,-47.0623,0,0,0,0,0,0,0,-1,1609,414,9.28002,47.0623
392,610,1.99744,-1.83582,0,0,0,0,0,0,0,-1,1616,414,1.99741,1.8358
399,610,2.77136,-2.60333,0,0,0,0,0,0,0,-1,1623,414,2.77133,2.60332
406,610,7.03125,-48.9078,0,0,0,0,0,0,0,-1,1630,414,7.03126,48.9078
413,610,7.7926,-49.6027,0,0,0,0,0,0,0,-1,1637,414,7.79259,49.6027
420,610,7.58374,-49.1523,0,0,0,0,0,0,0,-1,1644,414,7.58375,49.1523
427,610,7.52539,-48.6574,0,0,0,0,0,0,0,-1,1651,414,7.52544,48.6574
434,610,8.73706,-22.6227,0,0,0,0,0,0,0,-1,1658,414,8.73703,22.6227
441,610,0,0,0,0,0,0,0,0,0,-1,1665,414,0,0
448,610,0,0,0,0,0,0,0,0,0,-1,1672,414,0,0
455,610,0,0,0,0,0,0,0,0,0,-1,1679,414,0,0
462,610,0,0,0,0,0,0,0,0,0,-1,1686,414,0,0
469,610,0,0,0,0,0,0,0,0,0,-1,1693,414,0,0
476,610,0,0,0,0,0,0,0,0,0,-1,1700,414,0,0
483,610,0,0,0,0,0,0,0,0,0,-1,1707,414,0,0
490,610,0,0,0,0,0,0,0,0,0,-1,1714,414,0,0
497,610,0,0,0,0,0,0,0,0,0,-1,1721,414,0,0
504,610,0,0,0,0,0,0,0,0,0,-1,1728,414,0,0
511,610,0,0,0,0,0,0,0,0,0,-1,1735,414,0,0
518,610,0,0,0,0,0,0,0,0,0,-1,1742,414,0,0
525,610,0,0,0,0,0,0,0,0,0,-1,1749,414,0,0
532,610,0,0,0,0,0,0,0,0,0,-1,1756,414,0,0
539,610,0,0,0,0,0,0,0,0,0,-1,1763,414,0,0
546,610,0,0,0,0,0,0,0,0,0,-1,1770,414,0,0
553,610,0,0,0,0,0,0,0,0,0,-1,1777,414,0,0
560,610,0,0,0,0,0,0,0,0,0,-1,1784,414,0,0
567,610,0,0,0,0,0,0,0,0,0,-1,1791,414,0,0
574,610,0,0,0,0,0,0,0,0,0,-1,1798,414,0,0
581,610,0,0,0,0,0,0,0,0,0,-1,1805,414,0,0
588,610,0,0,0,0,0,0,0,0,0,-1,1812,414,0,0
595,610,0,0,0,0,0,0,0,0,0,-1,1819,414,0,0
602,610,0,0,0,0,0,0,0,0,0,-1,1826,414,0,0
609,610,0,0,0,0,0,0,0,0,0,-1,1833,414,0,0
616,610,0,0,0,0,0,0,0,0,0,-1,1840,414,0,0
623,610,0,0,0,0,0,0,0,0,0,-1,1847,414,0,0
630,610,0,0,0,0,0,0,0,0,0,-1,1854,414,0,0
637,610,0,0,0,0,0,0,0,0,0,-1,1861,414,0,0
644,610,0,0,0,0,0,0,0,0,0,-1,1868,414,0,0
651,610,0,0,0,0,0,0,0,0,0,-1,1875,414,0,0
658,610,0,0,0,0,0,0,0,0,0,-1,1882,414,0,0
665,610,0,0,0,0,0,0,0,0,0,-1,1889,414,0,0
672,610,0,0,0,0,0,0,0,0,0,-1,1896,414,0,0
679,610,0,0,0,0,0,0,0,0,0,-1,1903,414,0,0
686,610,0,0,0,0,0,0,0,0,0,-1,1910,414,0,0
693,610,0,0,0,0,0,0,0,0,0,-1,1917,414,0,0
700,610,0,0,0,0,0,0,0,0,0,-1,1924,414,0,0
707,610,0,0,0,0,0,0,0,0,0,-1,1931,414,0,0
714,610,0,0,0,0,0,0,0,0,0,-1,1938,414,0,0
721,610,0,0,0,0,0,0,0,0,0,-1,1945,414,0,0
728,610,0,0,0,0,0,0,0,0,0,-1,1952,414,0,0
735,610,0,0,0,0,0,0,0,0,0,-1,1959,414,0,0
742,610,0,0,0,0,0,0,0,0,0,-1,1966,414,0,0
749,610,0,0,0,0,0,0,0,0,0,-1,1973,414,0,0
756,610,0,0,0,0,0,0,0,0,0,-1,1980,414,0,0
763,610,0,0,0,0,0,0,0,0,0,-1,1987,414,0,0
770,610,0,0,0,0,0,0,0,0,0,-1,1994,414,0,0
777,610,0,0,0,0,0,0,0,0,0,-1,2001,414,0,0
784,610,0,0,0,0,0,0,0,0,0,-1,2008,414,0,0
791,610,0,0,0,0,0,0,0,0,0,-1,2015,414,0,0
798,610,0,0,0,0,0,0,0,0,0,-1,2022,414,0,0
805,610,0,0,0,0,0,0,0,0,0,-1,2029,414,0,0
812,610,0,0,0,0,0,0,0,0,0,-1,2036,414,0,0
-700,603,0,0,0,0,0,0,0,0,0,-1,524,421,0,0
-693,603,0,0,0,0,0,0,0,0,0,-1,531,421,0,0
-686,603,0,0,0,0,0,0,0,0,0,-1,538,421,0,0
-679,603,0,0,0,0,0,0,0,0,0,-1,545,421,0,0
-672,603,0,0,0,0,0,0,0,0,0,-1,552,421,0,0
-665,603,0,0,0,0,0,0,0,0,0,-1,559,421,0,0
-658,603,0,0,0,0,0,0,0,0,0,-1,566,421,0,0
-651,603,0,0,0,0,0,0,0,0,0,-1,573,421,0,0
-644,603,0,0,0,0,0,0,0,0,0,-1,580,421,0,0
-637,603,0,0,0,0,0,0,0,0,0,-1,587,421,0,0
-630,603,0,0,0,0,0,0,0,0,0,-1,594,421,0,0
-623,603,0,0,0,0,0,0,0,0,0,-1,601,421,0,0
-616,603,0,0,0,0,0,0,0,0,0,-1,608,421,0,0
-609,603,0,0,0,0,0,0,0,0,0,-1,615,421,0,0
-602,603,0,0,0,0,0,0,0,0,0,-1,622,421,0,0
-595,603,0,0,0,0,0,0,0,0,0,-1,629,421,0,0
-588,603,0,0,0,0,0,0,0,0,0,-1,636,421,0,0
-581,603,0,0,0,0,0,0,0,0,0,-1,643,421,0,0
-574,603,0,0,0,0,0,0,0,0,0,-1,650,421,0,0
-567,603,0,0,0,0,0,0,0,0,0,-1,657,421,0,0
-560,603,0,0,0,0,0,0,0,0,0,-1,664,421,0,0
-553,603,0,0,0,0,0,0,0,0,0,-1,671,421,0,0
-546,603,0,0,0,0,0,0,0,0,0,-1,678,421,0,0
-539,603,0,0,0,0,0,0,0,0,0,-1,685,421,0,0
-532,603,0,0,0,0,0,0,0,0,0,-1,692,421,0,0
-525,603,0,0,0,0,0,0,0,0,0,-1,699,421,0,0
-518,603,0,0,0,0,0,0,0,0,0,-1,706,421,0,0
-511,603,0,0,0,0,0,0,0,0,0,-1,713,421,0,0
-504,603,0,0,0,0,0,0,0,0,0,-1,720,421,0,0
-497,603,0,0,0,0,0,0,0,0,0,-1,727,421,0,0
-490,603,0,0,0,0,0,0,0,0,0,-1,734,421,0,0
-483,603,0,0,0,0,0,0,0,0,0,-1,741,421,0,0
-476,603,0,0,0,0,0,0,0,0,0,-1,748,421,0,0
-469,603,0,0,0,0,0,0,0,0,0,-1,755,421,0,0
-462,603,0,0,0,0,0,0,0,0,0,-1,762,421,0,0
-455,603,0,0,0,0,0,0,0,0,0,-1,769,421,0,0
-448,603,0,0,0,0,0,0,0,0,0,-1,776,421,0,0
-441,603,0,0,0,0,0,0,0,0,0,-1,783,421,0,0
-434,603,0,0,0,0,0,0,0,0,0,-1,790,421,0,0
-427,603,0,0,0,0,0,0,0,0,0,-1,797,421,0,0
-420,603,0,0,0,0,0,0,0,0,0,-1,804,421,0,0
-413,603,0,0,0,0,0,0,0,0,0,-1,811,421,0,0
-406,603,0,0,0,0,0,0,0,0,0,-1,818,421,0,0
-399,603,0,0,0,0,0,0,0,0,0,-1,825,421,0,0
-392,603,0,0,0,0,0,0,0,0,0,-1,832,421,0,0
-385,603,0,0,0,0,0,0,0,0,0,-1,839,421,0,0
-378,603,0,0,0,0,0,0,0,0,0,-1,846,421,0,0
-371,603,0,0,0,0,0,0,0,0,0,-1,853,421,0,0
-364,603,0,0,0,0,0,0,0,0,0,-1,860,421,0,0
-357,603,0,0,0,0,0,0,0,0,0,-1,867,421,0,0
-350,603,0,0,0,0,0,0,0,0,0,-1,874,421,0,0
-343,603,0,0,0,0,0,0,0,0,0,-1,881,421,0,0
-336,603,0,0,0,0,0,0,0,0,0,-1,888,421,0,0
-329,603,4.09686,-17.9702,0,0,0,0,0,0,0,-1,895,421,4.09687,17.9702
-322,603,8.83179,-28.7376,0,0,0,0,0,0,0,-1,902,421,8.83179,28.7376
-315,603,5.99744,-20.4501,0,0,0,0,0,0,0,-1,909,421,5.99745,20.4501
-308,603,5.92249,-20.778,0,0,0,0,0,0,0,-1,916,421,5.92248,20.778
-301,603,2.72424,-20.9059,0,0,0,0,0,0,0,-1,923,421,2.72424,20.9059
-294,603,2.41553,-20.6767,0,0,0,0,0,0,0,-1,930,421,2.41554,20.6767
-287,603,1.91766,-21.2242,0,0,0,0,0,0,0,-1,937,421,1.91767,21.2242
-280,603,2.36121,-27.3314,0,0,0,0,0,0,0,-1,944,421,2.36119,27.3314
-273,603,7.96613,-34.8225,0,0,0,0,0,0,0,-1,951,421,7.96613,34.8225
-266,603,7.18787,-34.9736,0,0,0,0,0,0,0,-1,958,421,7.18788,34.9736
-259,603,5.44666,-36.8901,0,0,0,0,0,0,0,-1,965,421,5.44664,36.8901
-252,603,7.27246,-79.9079,0,0,0,0,0,0,0,-1,972,421,7.27246,79.9079
-245,603,4.96075,-161.213,0,0,0,0,0,0,0,-1,979,421,4.96073,161.213
-238,603,4.8288,-187.289,0,0,0,0,0,0,0,-1,986,421,4.82878,187.289
-231,603,-18.0209,-207.438,0,0,0,0,0,0,0,-1,993,421,-18.0208,207.438
-224,603,-18.4286,-210.659,0,0,0,0,0,0,0,-1,1000,421,-18.4286,210.659
-217,603,-18.9566,-213.299,0,0,0,0,0,0,0,-1,1007,421,-18.9566,213.299
-210,603,-18.9518,-215.977,0.0492236,0.00396762,0.0170598,0.054934,-0.00174274,0.323004,0.0372172,0.048967,1014,421,-18.9518,215.977
-203,603,-18.9059,-218.924,0.0511733,0.00303695,0.0194715,0.0580634,-0.00385315,0.340106,0.0400551,0.0395219,1021,421,-18.9059,218.924
-196,603,-18.9135,-221.47,0.0536327,0.00208864,0.0214308,0.061379,-0.00565766,0.346844,0.0429297,0.0347856,1028,421,-18.9135,221.47
-189,603,-18.9667,-223.994,0.0564176,0.00109736,0.0232851,0.0649138,-0.00739879,0.349865,0.0459411,0.0253942,1035,421,-18.9667,223.994
-182,603,-19.0318,-226.252,0.0592675,-0.000404903,0.025007,0.0683613,-0.00949874,0.348785,0.049048,0.0229097,1042,421,-19.0318,226.252
-175,603,-18.9766,-228.659,0.0619736,-0.00276435,0.0265894,0.0714943,-0.0122851,0.343842,0.0522416,0.0220004,1049,421,-18.9766,228.659
-168,603,-19.0333,-231.01,0.0650087,-0.00512774,0.0278458,0.0747195,-0.0148386,0.33555,0.0554253,0.0230909,1056,421,-19.0333,231.01
-161,603,-18.9532,-233.289,0.0681677,-0.00758673,0.0288965,0.0779317,-0.0173508,0.325853,0.0586007,0.0228221,1063,421,-18.9533,233.288
-154,603,-18.7294,-235.394,0.0708897,-0.00984128,0.029929,0.0807747,-0.0197264,0.319004,0.0614892,0.0246145,1070,421,-18.7294,235.394
-147,603,-18.5186,-237.517,0.0736216,-0.0116095,0.0308497,0.0836159,-0.0216037,0.313296,0.064169,0.0326316,1077,421,-18.5186,237.517
-140,603,-18.1365,-239.541,0.0759479,-0.0131027,0.0316961,0.0860774,-0.0232322,0.309323,0.0664959,0.0256384,1084,421,-18.1365,239.541
-133,603,-17.9796,-241.513,0.0780703,-0.0144568,0.032377,0.0882744,-0.0246608,0.305308,0.0685644,0.0218134,1091,421,-17.9797,241.513
-126,603,-17.7059,-243.383,0.0801674,-0.0155239,0.0325451,0.090187,-0.0255435,0.29866,0.0702056,0.019132,1098,421,-17.7059,243.383
-119,603,-17.3197,-245.175,0.0822835,-0.016257,0.0332404,0.0924479,-0.0264214,0.296756,0.0720719,0.0189451,1105,421,-17.3197,245.175
-112,603,-17.0023,-247.038,0.0844726,-0.0166852,0.0339782,0.094826,-0.0270386,0.29577,0.0738979,0.0272389,1112,421,-17.0023,247.038
-105,603,-16.6703,-248.776,0.0865677,-0.0171054,0.0340927,0.0967742,-0.0273119,0.290883,0.0752899,0.0318399,1119,421,-16.6703,248.776
-98,603,-16.2871,-250.39,0.0892524,-0.0173996,0.0339995,0.099169,-0.0273162,0.283797,0.0768536,0.0266483,1126,421,-16.2872,250.39
-91,603,-15.6599,-252.016,0,0,0,0,0,0,0,-1,1133,421,-15.6599,252.016
-84,603,-15.0154,-253.562,0.0957675,-0.0204723,0.0319034,0.103948,-0.0286529,0.251008,0.0805663,0.0276469,1140,421,-15.0154,253.562
-77,603,-14.3429,-255.155,0.0994632,-0.0227524,0.0300518,0.106453,-0.0297421,0.228526,0.0826853,0.0285882,1147,421,-14.3429,255.155
-70,603,-14.0154,-256.406,0,0,0,0,0,0,0,-1,1154,421,-14.0154,256.406
-63,603,-13.4517,-257.339,0,0,0,0,0,0,0,-1,1161,421,-13.4516,257.339
-56,603,-12.8805,-258.645,0,0,0,0,0,0,0,-1,1168,421,-12.8804,258.645
-49,603,-11.9503,-260.157,0,0,0,0,0,0,0,-1,1175,421,-11.9504,260.157
-42,603,-11.0848,-261.217,0,0,0,0,0,0,0,-1,1182,421,-11.0848,261.217
-35,603,-10.1744,-262.184,0.121231,-0.0385981,0.0202224,0.12375,-0.041117,0.123924,0.0990911,0.0440922,1189,421,-10.1744,262.184
-28,603,-9.40833,-263.212,0.125262,-0.039466,0.0195767,0.127556,-0.0417606,0.116678,0.101853,0.049224,1196,421,-9.40837,263.212
-21,603,-8.66492,-264.192,0,0,0,0,0,0,0,-1,1203,421,-8.66495,264.192
-14,603,-7.92725,-264.872,0,0,0,0,0,0,0,-1,1210,421,-7.92728,264.872
-7,603,-7.19678,-265.842,0,0,0,0,0,0,0,-1,1217,421,-7.19679,265.842
0,603,-6.23718,-266.782,0,0,0,0,0,0,0,-1,1224,421,-6.23724,266.782
7,603,-5.54785,-267.281,0,0,0,0,0,0,0,-1,1231,421,-5.54785,267.281
14,603,-0.694214,-266.146,0,0,0,0,0,0,0,-1,1238,421,-0.694213,266.146
21,603,1.14038,-238.37,0,0,0,0,0,0,0,-1,1245,421,1.14033,238.37
28,603,-1.92761,-268.209,0,0,0,0,0,0,0,-1,1252,421,-1.9276,268.209
35,603,-0.394653,-268.335,0,0,0,0,0,0,0,-1,1259,421,-0.394692,268.335
42,603,0.486816,-267.764,0,0,0,0,0,0,0,-1,1266,421,0.486779,267.764
49,603,1.06909,-267.79,0,0,0,0,0,0,0,-1,1273,421,1.0691,267.79
56,603,1.74768,-268.154,0,0,0,0,0,0,0,-1,1280,421,1.74771,268.155
63,603,0.223877,-267.238,0,0,0,0,0,0,0,-1,1287,421,0.22382,267.238
70,603,-0.569458,-266.766,0,0,0,0,0,0,0,-1,1294,421,-0.569469,266.766
77,603,-1.32874,-266.156,0,0,0,0,0,0,0,-1,1301,421,-1.3287,266.156
84,603,9.05786,-106.929,0,0,0,0,0,0,0,-1,1308,421,9.05781,106.929
91,603,-1.96924,-265.502,0,0,0,0,0,0,0,-1,1315,421,-1.96921,265.502
98,603,6.91943,-268.754,0,0,0,0,0,0,0,-1,1322,421,6.9194,268.754
105,603,9.50708,-268.178,0,0,0,0,0,0,0,-1,1329,421,9.50709,268.178
112,603,10.3274,-267.496,0,0,0,0,0,0,0,-1,1336,421,10.3274,267.496
119,603,10.9341,-266.683,0,0,0,0,0,0,0,-1,1343,421,10.9341,266.683
126,603,9.06384,-217.198,0,0,0,0,0,0,0,-1,1350,421,9.0639,217.198
133,603,12.0139,-265.877,0,0,0,0,0,0,0,-1,1357,421,12.0139,265.877
140,603,14.1897,-265.084,0,0,0,0,0,0,0,-1,1364,421,14.1896,265.084
147,603,14.8851,-264.04,0,0,0,0,0,0,0,-1,1371,421,14.8851,264.04
154,603,15.3923,-263.194,0,0,0,0,0,0,0,-1,1378,421,15.3923,263.194
161,603,16.1953,-262.274,0,0,0,0,0,0,0,-1,1385,421,16.1953,262.274
168,603,17.0853,-261.243,0,0,0,0,0,0,0,-1,1392,421,17.0854,261.243
175,603,17.8152,-260.027,0,0,0,0,0,0,0,-1,1399,421,17.8152,260.027
182,603,18.7278,-258.959,0,0,0,0,0,0,0,-1,1406,421,18.7277,258.959
189,603,19.7441,-257.623,0,0,0,0,0,0,0,-1,1413,421,19.7441,257.623
196,603,20.5195,-256.349,0,0,0,0,0,0,0,-1,1420,421,20.5196,256.349
203,603,21.6577,-255.106,0,0,0,0,0,0,0,-1,1427,421,21.6577,255.106
210,603,21.902,-254.009,0,0,0,0,0,0,0,-1,1434,421,21.902,254.009
217,603,22.1411,-252.364,0.125569,-0.0276142,-0.0324018,0.132141,-0.034186,-0.200107,0.101428,0.0303604,1441,421,22.1411,252.363
224,603,23.3159,-250.694,0.125161,-0.0254215,-0.0336183,0.132326,-0.0325861,-0.209974,0.10085,0.0378921,1448,421,23.3159,250.694
231,603,23.9989,-249.195,0.123759,-0.0234988,-0.034449,0.131419,-0.0311592,-0.218809,0.0996366,0.025882,1455,421,23.9989,249.195
238,603,24.4401,-247.49,0.120656,-0.0212275,-0.0351346,0.12888,-0.0294513,-0.229924,0.0972351,0.0299176,1462,421,24.4401,247.49
245,603,25.0795,-245.748,0.116402,-0.0189332,-0.0353547,0.125082,-0.0276126,-0.240733,0.0939543,0.0282402,1469,421,25.0795,245.748
252,603,25.6335,-243.853,0.112334,-0.0162081,-0.0356652,0.121567,-0.0254406,-0.253306,0.0907217,0.0183868,1476,421,25.6335,243.853
259,603,26.1571,-241.93,0.108439,-0.0134585,-0.0359507,0.118252,-0.0232713,-0.266462,0.087628,0.0208049,1483,421,26.1571,241.93
266,603,26.5657,-239.912,0.10418,-0.0106397,-0.0360615,0.114567,-0.0210261,-0.280427,0.0842655,0.0221132,1490,421,26.5656,239.912
273,603,26.9308,-237.853,0.0995461,-0.00765951,-0.0360765,0.110556,-0.0186692,-0.296199,0.0806504,0.0202241,1497,421,26.9308,237.853
280,603,27.1742,-235.716,0.0951075,-0.00476926,-0.0356936,0.106552,-0.0162139,-0.310279,0.0770105,0.0285907,1504,421,27.1742,235.716
287,603,27.4894,-233.487,0.0908393,-0.00225093,-0.0350593,0.102566,-0.0139776,-0.322783,0.073481,0.0428025,1511,421,27.4894,233.487
294,603,27.8741,-231.26,0.0863684,0.000115926,-0.0340987,0.0982203,-0.0117359,-0.334513,0.0697222,0.0348134,1518,421,27.8742,231.26
301,603,28.0513,-229.039,0.0820713,0.0024922,-0.0326923,0.0937793,-0.00921577,-0.343896,0.0658069,0.0401318,1525,421,28.0513,229.039
308,603,28.1528,-226.633,0,0,0,0,0,0,0,-1,1532,421,28.1528,226.633
315,603,28.2111,-224.013,0.0740716,0.00699016,-0.0285626,0.0845854,-0.00352362,-0.352705,0.0576008,0.041337,1539,421,28.211,224.013
322,603,28.2162,-221.514,0.0702332,0.00913075,-0.0259912,0.0797933,-0.000429373,-0.352462,0.0533393,0.0417059,1546,421,28.2162,221.514
329,603,28.3928,-218.93,0.0664256,0.0114393,-0.0229636,0.0747543,0.0031107,-0.347934,0.0488323,0.0297282,1553,421,28.3929,218.93
336,603,28.6082,-216.47,0,0,0,0,0,0,0,-1,1560,421,28.6081,216.47
343,603,28.1042,-213.585,0,0,0,0,0,0,0,-1,1567,421,28.1042,213.585
350,603,27.7728,-210.628,0,0,0,0,0,0,0,-1,1574,421,27.7729,210.628
357,603,27.5676,-207.621,0,0,0,0,0,0,0,-1,1581,421,27.5676,207.621
364,603,27.3209,-204.158,0,0,0,0,0,0,0,-1,1588,421,27.3209,204.158
371,603,3.83484,-189.529,0,0,0,0,0,0,0,-1,1595,421,3.83484,189.529
378,603,1.58484,-170.685,0,0,0,0,0,0,0,-1,1602,421,1.58484,170.685
385,603,10.1917,-79.6275,0,0,0,0,0,0,0,-1,1609,421,10.1917,79.6275
392,603,9.09521,-64.8771,0,0,0,0,0,0,0,-1,1616,421,9.09525,64.8771
399,603,8.90503,-65.8219,0,0,0,0,0,0,0,-1,1623,421,8.905,65.8219
406,603,10.679,-50.994,0,0,0,0,0,0,0,-1,1630,421,10.6789,50.994
413,603,7.74963,-48.7354,0,0,0,0,0,0,0,-1,1637,421,7.74968,48.7354
420,603,10.0659,-47.2677,0,0,0,0,0,0,0,-1,1644,421,10.0659,47.2677
427,603,10.1735,-46.1418,0,0,0,0,0,0,0,-1,1651,421,10.1735,46.1418
434,603,8.01489,-22.5655,0,0,0,0,0,0,0,-1,1658,421,8.01493,22.5655
441,603,8.00122,-22.3072,0,0,0,0,0,0,0,-1,1665,421,8.00116,22.3071
448,603,1.14355,-4.59842,0,0,0,0,0,0,0,-1,1672,421,1.14355,4.59841
455,603,0,0,0,0,0,0,0,0,0,-1,1679,421,0,0
462,603,0,0,0,0,0,0,0,0,0,-1,1686,421,0,0
469,603,0,0,0,0,0,0,0,0,0,-1,1693,421,0,0
476,603,0,0,0,0,0,0,0,0,0,-1,1700,421,0,0
483,603,0,0,0,0,0,0,0,0,0,-1,1707,421,0,0
490,603,0,0,0,0,0,0,0,0,0,-1,1714,421,0,0
497,603,0,0,0,0,0,0,0,0,0,-1,1721,421,0,0
504,603,0,0,0,0,0,0,0,0,0,-1,1728,421,0,0
511,603,0,0,0,0,0,0,0,0,0,-1,1735,421,0,0
518,603,0,0,0,0,0,0,0,0,0,-1,1742,421,0,0
525,603,0,0,0,0,0,0,0,0,0,-1,1749,421,0,0
532,603,0,0,0,0,0,0,0,0,0,-1,1756,421,0,0
539,603,0,0,0,0,0,0,0,0,0,-1,1763,421,0,0
546,603,0,0,0,0,0,0,0,0,0,-1,1770,421,0,0
553,603,0,0,0,0,0,0,0,0,0,-1,1777,421,0,0
560,603,0,0,0,0,0,0,0,0,0,-1,1784,421,0,0
567,603,0,0,0,0,0,0,0,0,0,-1,1791,421,0,0
574,603,0,0,0,0,0,0,0,0,0,-1,1798,421,0,0
581,603,0,0,0,0,0,0,0,0,0,-1,1805,421,0,0
588,603,0,0,0,0,0,0,0,0,0,-1,1812,421,0,0
595,603,0,0,0,0,0,0,0,0,0,-1,1819,421,0,0
602,603,0,0,0,0,0,0,0,0,0,-1,1826,421,0,0
609,603,0,0,0,0,0,0,0,0,0,-1,1833,421,0,0
616,603,0,0,0,0,0,0,0,0,0,-1,1840,421,0,0
623,603,0,0,0,0,0,0,0,0,0,-1,1847,421,0,0
630,603,0,0,0,0,0,0,0,0,0,-1,1854,421,0,0
637,603,0,0,0,0,0,0,0,0,0,-1,1861,421,0,0
644,603,0,0,0,0,0,0,0,0,0,-1,1868,421,0,0
651,603,0,0,0,0,0,0,0,0,0,-1,1875,421,0,0
658,603,0,0,0,0,0,0,0,0,0,-1,1882,421,0,0
665,603,0,0,0,0,0,0,0,0,0,-1,1889,421,0,0
672,603,0,0,0,0,0,0,0,0,0,-1,1896,421,0,0
679,603,0,0,0,0,0,0,0,0,0,-1,1903,421,0,0
686,603,0,0,0,0,0,0,0,0,0,-1,1910,421,0,0
693,603,0,0,0,0,0,0,0,0,0,-1,1917,421,0,0
700,603,0,0,0,0,0,0,0,0,0,-1,1924,421,0,0
707,603,0,0,0,0,0,0,0,0,0,-1,1931,421,0,0
714,603,0,0,0,0,0,0,0,0,0,-1,1938,421,0,0
721,603,0,0,0,0,0,0,0,0,0,-1,1945,421,0,0
728,603,0,0,0,0,0,0,0,0,0,-1,1952,421,0,0
735,603,0,0,0,0,0,0,0,0,0,-1,1959,421,0,0
742,603,0,0,0,0,0,0,0,0,0,-1,1966,421,0,0
749,603,0,0,0,0,0,0,0,0,0,-1,1973,421,0,0
756,603,0,0,0,0,0,0,0,0,0,-1,1980,421,0,0
763,603,0,0,0,0,0,0,0,0,0,-1,1987,421,0,0
770,603,0,0,0,0,0,0,0,0,0,-1,1994,421,0,0
777,603,0,0,0,0,0,0,0,0,0,-1,2001,421,0,0
784,603,0,0,0,0,0,0,0,0,0,-1,2008,421,0,0
791,603,0,0,0,0,0,0,0,0,0,-1,2015,421,0,0
798,603,0,0,0,0,0,0,0,0,0,-1,2022,421,0,0
805,603,0,0,0,0,0,0,0,0,0,-1,2029,421,0,0
812,603,0,0,0,0,0,0,0,0,0,-1,2036,421,0,0
-700,596,0,0,0,0,0,0,0,0,0,-1,524,428,0,0
-693,596,0,0,0,0,0,0,0,0,0,-1,531,428,0,0
-686,596,0,0,0,0,0,0,0,0,0,-1,538,428,0,0
-679,596,0,0,0,0,0,0,0,0,0,-1,545,428,0,0
-672,596,0,0,0,0,0,0,0,0,0,-1,552,428,0,0
-665,596,0,0,0,0,0,0,0,0,0,-1,559,428,0,0
-658,596,0,0,0,0,0,0,0,0,0,-1,566,428,0,0
-651,596,0,0,0,0,0,0,0,0,0,-1,573,428,0,0
-644,596,0,0,0,0,0,0,0,0,0,-1,580,428,0,0
-637,596,0,0,0,0,0,0,0,0,0,-1,587,428,0,0
-630,596,0,0,0,0,0,0,0,0,0,-1,594,428,0,0
-623,596,0,0,0,0,0,0,0,0,0,-1,601,428,0,0
-616,596,0,0,0,0,0,0,0,0,0,-1,608,428,0,0
-609,596,0,0,0,0,0,0,0,0,0,-1,615,428,0,0
-602,596,0,0,0,0,0,0,0,0,0,-1,622,428,0,0
-595,596,0,0,0,0,0,0,0,0,0,-1,629,428,0,0
-588,596,0,0,0,0,0,0,0,0,0,-1,636,428,0,0
-581,596,0,0,0,0,0,0,0,0,0,-1,643,428,0,0
-574,596,0,0,0,0,0,0,0,0,0,-1,650,428,0,0
-567,596,0,0,0,0,0,0,0,0,0,-1,657,428,0,0
-560,596,0,0,0,0,0,0,0,0,0,-1,664,428,0,0
-553,596,0,0,0,0,0,0,0,0,0,-1,671,428,0,0
-546,596,0,0,0,0,0,0,0,0,0,-1,678,428,0,0
-539,596,0,0,0,0,0,0,0,0,0,-1,685,428,0,0
-532,596,0,0,0,0,0,0,0,0,0,-1,692,428,0,0
-525,596,0,0,0,0,0,0,0,0,0,-1,699,428,0,0
-518,596,0,0,0,0,0,0,0,0,0,-1,706,428,0,0
-511,596,0,0,0,0,0,0,0,0,0,-1,713,428,0,0
-504,596,0,0,0,0,0,0,0,0,0,-1,720,428,0,0
-497,596,0,0,0,0,0,0,0,0,0,-1,727,428,0,0
-490,596,0,0,0,0,0,0,0,0,0,-1,734,428,0,0
-483,596,0,0,0,0,0,0,0,0,0,-1,741,428,0,0
-476,596,0,0,0,0,0,0,0,0,0,-1,748,428,0,0
-469,596,0,0,0,0,0,0,0,0,0,-1,755,428,0,0
-462,596,0,0,0,0,0,0,0,0,0,-1,762,428,0,0
-455,596,0,0,0,0,0,0,0,0,0,-1,769,428,0,0
-448,596,0,0,0,0,0,0,0,0,0,-1,776,428,0,0
-441,596,0,0,0,0,0,0,0,0,0,-1,783,428,0,0
-434,596,0,0,0,0,0,0,0,0,0,-1,790,428,0,0
-427,596,0,0,0,0,0,0,0,0,0,-1,797,428,0,0
-420,596,0,0,0,0,0,0,0,0,0,-1,804,428,0,0
-413,596,0,0,0,0,0,0,0,0,0,-1,811,428,0,0
-406,596,0,0,0,0,0,0,0,0,0,-1,818,428,0,0
-399,596,0,0,0,0,0,0,0,0,0,-1,825,428,0,0
-392,596,0,0,0,0,0,0,0,0,0,-1,832,428,0,0
-385,596,0,0,0,0,0,0,0,0,0,-1,839,428,0,0
-378,596,0,0,0,0,0,0,0,0,0,-1,846,428,0,0
-371,596,0,0,0,0,0,0,0,0,0,-1,853,428,0,0
-364,596,0,0,0,0,0,0,0,0,0,-1,860,428,0,0
-357,596,0,0,0,0,0,0,0,0,0,-1,867,428,0,0
-350,596,0,0,0,0,0,0,0,0,0,-1,874,428,0,0
-343,596,0,0,0,0,0,0,0,0,0,-1,881,428,0,0
-336,596,6.81445,-30.5258,0,0,0,0,0,0,0,-1,888,428,6.81446,30.5258
-329,596,6.84772,-28.9253,0,0,0,0,0,0,0,-1,895,428,6.84773,28.9253
-322,596,6.97449,-27.9047,0,0,0,0,0,0,0,-1,902,428,6.97451,27.9047
-315,596,7.10132,-26.8841,0,0,0,0,0,0,0,-1,909,428,7.10129,26.8841
-308,596,0.254761,-20.841,0,0,0,0,0,0,0,-1,916,428,0.254731,20.841
-301,596,3.43213,-26.756,0,0,0,0,0,0,0,-1,923,428,3.43214,26.756
-294,596,4.1767,-27.6454,0,0,0,0,0,0,0,-1,930,428,4.17667,27.6454
-287,596,4.36041,-27.6119,0,0,0,0,0,0,0,-1,937,428,4.3604,27.6119
-280,596,5.96619,-42.5634,0,0,0,0,0,0,0,-1,944,428,5.96616,42.5634
-273,596,6.43732,-79.1028,0,0,0,0,0,0,0,-1,951,428,6.43729,79.1027
-266,596,5.98578,-80.1731,0,0,0,0,0,0,0,-1,958,428,5.98578,80.1731
-259,596,4.25879,-131.114,0,0,0,0,0,0,0,-1,965,428,4.25878,131.114
-252,596,1.48248,-192.981,0,0,0,0,0,0,0,-1,972,428,1.4825,192.981
-245,596,-20.2211,-201.767,0,0,0,0,0,0,0,-1,979,428,-20.2211,201.767
-238,596,-20.6745,-204.742,0,0,0,0,0,0,0,-1,986,428,-20.6745,204.742
-231,596,-20.8882,-207.175,0.0467488,0.00433407,0.0200982,0.0547594,-0.00367657,0.379277,0.0377915,0.0430295,993,428,-20.8882,207.175
-224,596,-21.105,-210.133,0.0497291,0.00275253,0.0210025,0.0577496,-0.00526796,0.364792,0.0403704,0.0250179,1000,428,-21.105,210.133
-217,596,-21.5514,-212.829,0.0525887,0.00181339,0.0224164,0.0610689,-0.00666675,0.361661,0.043107,0.0315479,1007,428,-21.5514,212.829
-210,596,-21.7156,-215.527,0.0550938,0.000875013,0.0239453,0.0641548,-0.00818596,0.361751,0.0457433,0.0300697,1014,428,-21.7156,215.527
-203,596,-21.6559,-218.307,0.0574793,-0.000426494,0.0258131,0.0673154,-0.0102626,0.364065,0.0486599,0.0292005,1021,428,-21.6559,218.307
-196,596,-21.6124,-220.855,0.0603526,-0.00170822,0.0274246,0.0707347,-0.0120903,0.361895,0.0516603,0.0269667,1028,428,-21.6124,220.855
-189,596,-21.6984,-223.423,0.0635191,-0.00314181,0.0290066,0.0743735,-0.0139962,0.358073,0.0548463,0.0199284,1035,428,-21.6983,223.423
-182,596,-21.6654,-225.684,0.0667867,-0.00510501,0.0304963,0.0779803,-0.0162986,0.351781,0.0581857,0.0192084,1042,428,-21.6654,225.684
-175,596,-21.5724,-228.053,0.0700402,-0.00781718,0.0317798,0.0813648,-0.0191418,0.342318,0.0616229,0.0195678,1049,428,-21.5724,228.053
-168,596,-21.6221,-230.421,0.0732894,-0.0104764,0.0327016,0.0845437,-0.0217308,0.331457,0.0648317,0.0249465,1056,428,-21.622,230.421
-161,596,-21.4246,-232.69,0.0763702,-0.0131336,0.0335355,0.0875412,-0.0243045,0.321548,0.0679274,0.0273096,1063,428,-21.4245,232.69
-154,596,-21.2583,-234.895,0.0791486,-0.015296,0.0345624,0.0904456,-0.026593,0.315911,0.0708451,0.0335549,1070,428,-21.2583,234.895
-147,596,-20.9039,-236.791,0.0819253,-0.0169058,0.03564,0.0934369,-0.0284173,0.312417,0.0736153,0.0469068,1077,428,-20.9039,236.791
-140,596,-20.2809,-238.551,0,0,0,0,0,0,0,-1,1084,428,-20.2808,238.551
-133,596,-20.2152,-241.087,0,0,0,0,0,0,0,-1,1091,428,-20.2153,241.087
-126,596,-19.7262,-242.935,0.0878397,-0.0197914,0.0373967,0.0995575,-0.0315092,0.303649,0.0789979,0.0217684,1098,428,-19.7262,242.935
-119,596,-19.3295,-244.804,0.0898347,-0.0202202,0.0381332,0.101756,-0.0321417,0.303001,0.0807135,0.0239366,1105,428,-19.3295,244.804
-112,596,-19.2356,-246.568,0.0920137,-0.0201118,0.0391043,0.104304,-0.0324024,0.304526,0.0824864,0.0255764,1112,428,-19.2356,246.567
-105,596,-18.9629,-248.401,0.0942671,-0.0199477,0.039216,0.106436,-0.0321162,0.300874,0.0837412,0.0397499,1119,428,-18.9629,248.401
-98,596,-18.4261,-250.136,0.0973271,-0.0198105,0.0391865,0.109227,-0.0317108,0.294831,0.0853746,0.0497949,1126,428,-18.4261,250.136
-91,596,-17.9109,-251.952,0,0,0,0,0,0,0,-1,1133,428,-17.9109,251.952
-84,596,-16.8962,-253.17,0,0,0,0,0,0,0,-1,1140,428,-16.8963,253.17
-77,596,-15.6195,-254.856,0,0,0,0,0,0,0,-1,1147,428,-15.6194,254.856
-70,596,3.50696,-32.137,0,0,0,0,0,0,0,-1,1154,428,3.50696,32.137
-63,596,1.95569,-12.2758,0,0,0,0,0,0,0,-1,1161,428,1.95563,12.2759
-56,596,1.60107,-10.5827,0,0,0,0,0,0,0,-1,1168,428,1.60108,10.5827
-49,596,1.59473,-10.0393,0,0,0,0,0,0,0,-1,1175,428,1.59472,10.0393
-42,596,1.99585,-6.6246,0,0,0,0,0,0,0,-1,1182,428,1.99586,6.62459
-35,596,-11.282,-261.61,0,0,0,0,0,0,0,-1,1189,428,-11.2819,261.61
-28,596,-10.3693,-262.841,0,0,0,0,0,0,0,-1,1196,428,-10.3692,262.841
-21,596,-6.25891,-262.926,0,0,0,0,0,0,0,-1,1203,428,-6.25895,262.926
-14,596,-8.79456,-264.615,0,0,0,0,0,0,0,-1,1210,428,-8.79458,264.615
-7,596,4.39331,-264.409,0,0,0,0,0,0,0,-1,1217,428,4.39332,264.409
0,596,12.7396,-266.463,0,0,0,0,0,0,0,-1,1224,428,12.7397,266.463
7,596,4.06445,-264.837,0,0,0,0,0,0,0,-1,1231,428,4.06442,264.837
14,596,2.97803,-265.288,0,0,0,0,0,0,0,-1,1238,428,2.97798,265.288
21,596,6.71326,-265.543,0,0,0,0,0,0,0,-1,1245,428,6.71328,265.543
28,596,0.88501,-266.547,0,0,0,0,0,0,0,-1,1252,428,0.884965,266.547
35,596,0.838013,-267.202,0,0,0,0,0,0,0,-1,1259,428,0.837957,267.202
42,596,2.10034,-267.07,0,0,0,0,0,0,0,-1,1266,428,2.1003,267.07
49,596,1.34814,-266.981,0,0,0,0,0,0,0,-1,1273,428,1.34812,266.981
56,596,0.613525,-266.9,0,0,0,0,0,0,0,-1,1280,428,0.61352,266.9
63,596,-0.0212402,-266.511,0,0,0,0,0,0,0,-1,1287,428,-0.0212293,266.511
70,596,-0.734253,-266.064,0,0,0,0,0,0,0,-1,1294,428,-0.73427,266.064
77,596,-1.52344,-265.725,0,0,0,0,0,0,0,-1,1301,428,-1.52341,265.725
84,596,-2.37012,-266.064,0,0,0,0,0,0,0,-1,1308,428,-2.37015,266.064
91,596,-2.32361,-266.101,0,0,0,0,0,0,0,-1,1315,428,-2.32365,266.1
98,596,-2.54797,-265.986,0,0,0,0,0,0,0,-1,1322,428,-2.54803,265.986
105,596,-3.4436,-267.76,0,0,0,0,0,0,0,-1,1329,428,-3.44357,267.76
112,596,-3.93213,-268.186,0,0,0,0,0,0,0,-1,1336,428,-3.93217,268.186
119,596,-4.31152,-268.223,0,0,0,0,0,0,0,-1,1343,428,-4.31151,268.223
126,596,-0.591309,-276.005,0,0,0,0,0,0,0,-1,1350,428,-0.591352,276.005
133,596,2.89343,-279.98,0,0,0,0,0,0,0,-1,1357,428,2.89349,279.98
140,596,3.10706,-281.828,0,0,0,0,0,0,0,-1,1364,428,3.10703,281.828
147,596,-4.47974,-92.1547,0,0,0,0,0,0,0,-1,1371,428,-4.4797,92.1547
154,596,4.89148,-284.744,0,0,0,0,0,0,0,-1,1378,428,4.89149,284.744
161,596,16.9089,-261.45,0,0,0,0,0,0,0,-1,1385,428,16.9089,261.45
168,596,17.8422,-259.395,0,0,0,0,0,0,0,-1,1392,428,17.8421,259.395
175,596,13.1626,-108.734,0,0,0,0,0,0,0,-1,1399,428,13.1625,108.734
182,596,12.1792,-74.929,0,0,0,0,0,0,0,-1,1406,428,12.1791,74.929
189,596,12.5646,-200.22,0,0,0,0,0,0,0,-1,1413,428,12.5645,200.22
196,596,20.7128,-255.233,0,0,0,0,0,0,0,-1,1420,428,20.7128,255.233
203,596,22.5997,-254.672,0,0,0,0,0,0,0,-1,1427,428,22.5998,254.672
210,596,23.186,-253.936,0,0,0,0,0,0,0,-1,1434,428,23.186,253.936
217,596,23.3893,-252.397,0,0,0,0,0,0,0,-1,1441,428,23.3893,252.397
224,596,25.0096,-250.308,0,0,0,0,0,0,0,-1,1448,428,25.0097,250.308
231,596,26.0983,-248.663,0.135875,-0.0295482,-0.0374634,0.143964,-0.037637,-0.212648,0.110676,0.0355043,1455,428,26.0983,248.663
238,596,26.4769,-246.978,0.132464,-0.0270097,-0.0381702,0.14113,-0.0356749,-0.223232,0.107961,0.0399498,1462,428,26.4769,246.978
245,596,27.0034,-245.136,0.128081,-0.0244524,-0.0384128,0.137209,-0.0335798,-0.233287,0.10448,0.0347836,1469,428,27.0035,245.136
252,596,27.7302,-243.312,0.123889,-0.0214803,-0.0388385,0.133615,-0.0312061,-0.245371,0.101097,0.0229864,1476,428,27.7302,243.312
259,596,28.4124,-241.461,0.119868,-0.018463,-0.039316,0.130262,-0.0288563,-0.258442,0.0978881,0.0244739,1483,428,28.4124,241.461
266,596,28.8326,-239.46,0.115154,-0.015016,-0.0394812,0.126193,-0.0260547,-0.272633,0.0940245,0.0225143,1490,428,28.8326,239.46
273,596,29.3071,-237.327,0.109693,-0.0117411,-0.0397694,0.121558,-0.0236062,-0.289941,0.0899458,0.0196695,1497,428,29.3071,237.327
280,596,29.6191,-235.174,0.104506,-0.00852706,-0.0394647,0.116921,-0.0209422,-0.304788,0.0857845,0.0193572,1504,428,29.6191,235.174
287,596,29.993,-232.926,0.0999004,-0.00580464,-0.0389295,0.11269,-0.0185943,-0.317425,0.0820303,0.0247648,1511,428,29.9931,232.926
294,596,30.4147,-230.707,0.0950002,-0.00318484,-0.0382712,0.108155,-0.0163399,-0.331081,0.0781218,0.0266365,1518,428,30.4147,230.707
301,596,30.5894,-228.457,0.0900997,-0.000615905,-0.0373445,0.103495,-0.0140113,-0.344403,0.07411,0.0428811,1525,428,30.5893,228.457
308,596,30.5028,-226.021,0,0,0,0,0,0,0,-1,1532,428,30.5028,226.021
315,596,31.0306,-223.435,0,0,0,0,0,0,0,-1,1539,428,31.0307,223.435
322,596,31.1112,-221.18,0.0767056,0.00590158,-0.0322237,0.089175,-0.00656781,-0.369217,0.0617558,0.0342649,1546,428,31.1112,221.18
329,596,31.1992,-218.513,0.0724883,0.00808594,-0.0295808,0.0840129,-0.00343863,-0.371505,0.0571893,0.0252822,1553,428,31.1992,218.513
336,596,31.239,-215.927,0.0677267,0.0101282,-0.0265869,0.0781226,-0.000267714,-0.372738,0.0521712,0.0188167,1560,428,31.239,215.927
343,596,31.0621,-213.219,0.0620036,0.0128471,-0.0232453,0.0712548,0.00359586,-0.378767,0.0463511,0.0200024,1567,428,31.0622,213.219
350,596,30.803,-210.297,0.0566969,0.0150719,-0.0197682,0.0645888,0.00717998,-0.379835,0.0408766,0.0222419,1574,428,30.8029,210.297
357,596,30.6053,-207.391,0.0509427,0.0172765,-0.0160863,0.0573932,0.010826,-0.381359,0.0352126,0.0254162,1581,428,30.6053,207.391
364,596,30.4021,-204.351,0.0443847,0.0194035,-0.012347,0.0494572,0.014331,-0.389808,0.0293835,0.0495837,1588,428,30.4021,204.351
371,596,30.1449,-201.328,0,0,0,0,0,0,0,-1,1595,428,30.1448,201.328
378,596,29.762,-198.435,0,0,0,0,0,0,0,-1,1602,428,29.762,198.434
385,596,3.64026,-167.129,0,0,0,0,0,0,0,-1,1609,428,3.64024,167.129
392,596,3.25391,-146.365,0,0,0,0,0,0,0,-1,1616,428,3.25394,146.365
399,596,3.38647,-141.819,0,0,0,0,0,0,0,-1,1623,428,3.38653,141.819
406,596,10.4819,-65.187,0,0,0,0,0,0,0,-1,1630,428,10.482,65.187
413,596,12.1365,-50.3984,0,0,0,0,0,0,0,-1,1637,428,12.1364,50.3984
420,596,14.0704,-45.0912,0,0,0,0,0,0,0,-1,1644,428,14.0704,45.0912
427,596,8.40686,-23.8744,0,0,0,0,0,0,0,-1,1651,428,8.40683,23.8744
434,596,5.09753,-22.5213,0,0,0,0,0,0,0,-1,1658,428,5.09755,22.5213
441,596,7.19043,-22.087,0,0,0,0,0,0,0,-1,1665,428,7.19046,22.087
448,596,1.0769,0.0083313,0,0,0,0,0,0,0,-1,1672,428,1.07684,-0.00832231
455,596,2.00769,-1.43329,0,0,0,0,0,0,0,-1,1679,428,2.00765,1.4333
462,596,0,0,0,0,0,0,0,0,0,-1,1686,428,0,0
469,596,0,0,0,0,0,0,0,0,0,-1,1693,428,0,0
476,596,0,0,0,0,0,0,0,0,0,-1,1700,428,0,0
483,596,0,0,0,0,0,0,0,0,0,-1,1707,428,0,0
490,596,0,0,0,0,0,0,0,0,0,-1,1714,428,0,0
497,596,0,0,0,0,0,0,0,0,0,-1,1721,428,0,0
504,596,0,0,0,0,0,0,0,0,0,-1,1728,428,0,0
511,596,0,0,0,0,0,0,0,0,0,-1,1735,428,0,0
518,596,0,0,0,0,0,0,0,0,0,-1,1742,428,0,0
525,596,0,0,0,0,0,0,0,0,0,-1,1749,428,0,0
532,596,0,0,0,0,0,0,0,0,0,-1,1756,428,0,0
539,596,0,0,0,0,0,0,0,0,0,-1,1763,428,0,0
546,596,0,0,0,0,0,0,0,0,0,-1,1770,428,0,0
553,596,0,0,0,0,0,0,0,0,0,-1,1777,428,0,0
560,596,0,0,0,0,0,0,0,0,0,-1,1784,428,0,0
567,596,0,0,0,0,0,0,0,0,0,-1,1791,428,0,0
574,596,0,0,0,0,0,0,0,0,0,-1,1798,428,0,0
581,596,0,0,0,0,0,0,0,0,0,-1,1805,428,0,0
588,596,0,0,0,0,0,0,0,0,0,-1,1812,428,0,0
595,596,0,0,0,0,0,0,0,0,0,-1,1819,428,0,0
602,596,0,0,0,0,0,0,0,0,0,-1,1826,428,0,0
609,596,0,0,0,0,0,0,0,0,0,-1,1833,428,0,0
616,596,0,0,0,0,0,0,0,0,0,-1,1840,428,0,0
623,596,0,0,0,0,0,0,0,0,0,-1,1847,428,0,0
630,596,0,0,0,0,0,0,0,0,0,-1,1854,428,0,0
637,596,0,0,0,0,0,0,0,0,0,-1,1861,428,0,0
644,596,0,0,0,0,0,0,0,0,0,-1,1868,428,0,0
651,596,0,0,0,0,0,0,0,0,0,-1,1875,428,0,0
658,596,0,0,0,0,0,0,0,0,0,-1,1882,428,0,0
665,596,0,0,0,0,0,0,0,0,0,-1,1889,428,0,0
672,596,0,0,0,0,0,0,0,0,0,-1,1896,428,0,0
679,596,0,0,0,0,0,0,0,0,0,-1,1903,428,0,0
686,596,0,0,0,0,0,0,0,0,0,-1,1910,428,0,0
693,596,0,0,0,0,0,0,0,0,0,-1,1917,428,0,0
700,596,0,0,0,0,0,0,0,0,0,-1,1924,428,0,0
707,596,0,0,0,0,0,0,0,0,0,-1,1931,428,0,0
714,596,0,0,0,0,0,0,0,0,0,-1,1938,428,0,0
721,596,0,0,0,0,0,0,0,0,0,-1,1945,428,0,0
728,596,0,0,0,0,0,0,0,0,0,-1,1952,428,0,0
735,596,0,0,0,0,0,0,0,0,0,-1,1959,428,0,0
742,596,0,0,0,0,0,0,0,0,0,-1,1966,428,0,0
749,596,0,0,0,0,0,0,0,0,0,-1,1973,428,0,0
756,596,0,0,0,0,0,0,0,0,0,-1,1980,428,0,0
763,596,0,0,0,0,0,0,0,0,0,-1,1987,428,0,0
770,596,0,0,0,0,0,0,0,0,0,-1,1994,428,0,0
777,596,0,0,0,0,0,0,0,0,0,-1,2001,428,0,0
784,596,0,0,0,0,0,0,0,0,0,-1,2008,428,0,0
791,596,0,0,0,0,0,0,0,0,0,-1,2015,428,0,0
798,596,0,0,0,0,0,0,0,0,0,-1,2022,428,0,0
805,596,0,0,0,0,0,0,0,0,0,-1,2029,428,0,0
812,596,0,0,0,0,0,0,0,0,0,-1,2036,428,0,0
-700,589,0,0,0,0,0,0,0,0,0,-1,524,435,0,0
-693,589,0,0,0,0,0,0,0,0,0,-1,531,435,0,0
-686,589,0,0,0,0,0,0,0,0,0,-1,538,435,0,0
-679,589,0,0,0,0,0,0,0,0,0,-1,545,435,0,0
-672,589,0,0,0,0,0,0,0,0,0,-1,552,435,0,0
-665,589,0,0,0,0,0,0,0,0,0,-1,559,435,0,0
-658,589,0,0,0,0,0,0,0,0,0,-1,566,435,0,0
-651,589,0,0,0,0,0,0,0,0,0,-1,573,435,0,0
-644,589,0,0,0,0,0,0,0,0,0,-1,580,435,0,0
-637,589,0,0,0,0,0,0,0,0,0,-1,587,435,0,0
-630,589,0,0,0,0,0,0,0,0,0,-1,594,435,0,0
-623,589,0,0,0,0,0,0,0,0,0,-1,601,435,0,0
-616,589,0,0,0,0,0,0,0,0,0,-1,608,435,0,0
-609,589,0,0,0,0,0,0,0,0,0,-1,615,435,0,0
-602,589,0,0,0,0,0,0,0,0,0,-1,622,435,0,0
-595,589,0,0,0,0,0,0,0,0,0,-1,629,435,0,0
-588,589,0,0,0,0,0,0,0,0,0,-1,636,435,0,0
-581,589,0,0,0,0,0,0,0,0,0,-1,643,435,0,0
-574,589,0,0,0,0,0,0,0,0,0,-1,650,435,0,0
-567,589,0,0,0,0,0,0,0,0,0,-1,657,435,0,0
-560,589,0,0,0,0,0,0,0,0,0,-1,664,435,0,0
-553,589,0,0,0,0,0,0,0,0,0,-1,671,435,0,0
-546,589,0,0,0,0,0,0,0,0,0,-1,678,435,0,0
-539,589,0,0,0,0,0,0,0,0,0,-1,685,435,0,0
-532,589,0,0,0,0,0,0,0,0,0,-1,692,435,0,0
-525,589,0,0,0,0,0,0,0,0,0,-1,699,435,0,0
-518,589,0,0,0,0,0,0,0,0,0,-1,706,435,0,0
-511,589,0,0,0,0,0,0,0,0,0,-1,713,435,0,0
-504,589,0,0,0,0,0,0,0,0,0,-1,720,435,0,0
-497,589,0,0,0,0,0,0,0,0,0,-1,727,435,0,0
-490,589,0,0,0,0,0,0,0,0,0,-1,734,435,0,0
-483,589,0,0,0,0,0,0,0,0,0,-1,741,435,0,0
-476,589,0,0,0,0,0,0,0,0,0,-1,748,435,0,0
-469,589,0,0,0,0,0,0,0,0,0,-1,755,435,0,0
-462,589,0,0,0,0,0,0,0,0,0,-1,762,435,0,0
-455,589,0,0,0,0,0,0,0,0,0,-1,769,435,0,0
-448,589,0,0,0,0,0,0,0,0,0,-1,776,435,0,0
-441,589,0,0,0,0,0,0,0,0,0,-1,783,435,0,0
-434,589,0,0,0,0,0,0,0,0,0,-1,790,435,0,0
-427,589,0,0,0,0,0,0,0,0,0,-1,797,435,0,0
-420,589,0,0,0,0,0,0,0,0,0,-1,804,435,0,0
-413,589,0,0,0,0,0,0,0,0,0,-1,811,435,0,0
-406,589,0,0,0,0,0,0,0,0,0,-1,818,435,0,0
-399,589,0,0,0,0,0,0,0,0,0,-1,825,435,0,0
-392,589,0,0,0,0,0,0,0,0,0,-1,832,435,0,0
-385,589,0,0,0,0,0,0,0,0,0,-1,839,435,0,0
-378,589,0,0,0,0,0,0,0,0,0,-1,846,435,0,0
-371,589,0,0,0,0,0,0,0,0,0,-1,853,435,0,0
-364,589,0,0,0,0,0,0,0,0,0,-1,860,435,0,0
-357,589,0,0,0,0,0,0,0,0,0,-1,867,435,0,0
-350,589,-0.799927,-20.664,0,0,0,0,0,0,0,-1,874,435,-0.799952,20.664
-343,589,5.15289,-30.4847,0,0,0,0,0,0,0,-1,881,435,5.15291,30.4847
-336,589,5.07684,-29.2368,0,0,0,0,0,0,0,-1,888,435,5.07687,29.2368
-329,589,4.9624,-28.1366,0,0,0,0,0,0,0,-1,895,435,4.96242,28.1366
-322,589,5.10156,-27.065,0,0,0,0,0,0,0,-1,902,435,5.10155,27.065
-315,589,4.22705,-27.9655,0,0,0,0,0,0,0,-1,909,435,4.22705,27.9655
-308,589,4.46698,-29.037,0,0,0,0,0,0,0,-1,916,435,4.46696,29.037
-301,589,4.94867,-33.7458,0,0,0,0,0,0,0,-1,923,435,4.94869,33.7458
-294,589,4.1037,-31.2976,0,0,0,0,0,0,0,-1,930,435,4.10371,31.2976
-287,589,5.97778,-51.672,0,0,0,0,0,0,0,-1,937,435,5.97776,51.672
-280,589,3.64484,-141.037,0,0,0,0,0,0,0,-1,944,435,3.64486,141.037
-273,589,-17.0157,-186.348,0,0,0,0,0,0,0,-1,951,435,-17.0157,186.348
-266,589,-13.2786,-188.804,0,0,0,0,0,0,0,-1,958,435,-13.2786,188.804
-259,589,-22.0867,-193.733,0,0,0,0,0,0,0,-1,965,435,-22.0867,193.733
-252,589,-22.6911,-198.068,0,0,0,0,0,0,0,-1,972,435,-22.6911,198.068
-245,589,-23.2533,-201.034,0.0461156,0.0049953,0.0250628,0.0579725,-0.00686156,0.441886,0.0411267,0.0370689,979,435,-23.2533,201.034
-238,589,-23.7004,-203.913,0.0486715,0.00354924,0.0257413,0.0603393,-0.00811853,0.425571,0.0431875,0.0297366,986,435,-23.7004,203.913
-231,589,-23.8849,-206.72,0.051465,0.00217032,0.0264166,0.0629469,-0.00931164,0.410016,0.045388,0.0278335,993,435,-23.8849,206.72
-224,589,-23.9631,-209.49,0.054536,0.000712641,0.0273438,0.06599,-0.0107413,0.396681,0.0479763,0.0220742,1000,435,-23.9631,209.49
-217,589,-24.2954,-212.312,0.0576191,-0.000372582,0.0285655,0.0693264,-0.0120799,0.388961,0.050726,0.0215198,1007,435,-24.2954,212.312
-210,589,-24.5183,-214.944,0.0605445,-0.00157165,0.0299527,0.0726346,-0.0136618,0.383641,0.053561,0.0251955,1014,435,-24.5183,214.944
-203,589,-24.4391,-217.627,0.0634563,-0.003188,0.0315626,0.0760315,-0.0157632,0.379144,0.0566775,0.0204133,1021,435,-24.4391,217.627
-196,589,-24.3996,-220.297,0.0667242,-0.0048286,0.0330013,0.0796206,-0.017725,0.372536,0.0598698,0.0245967,1028,435,-24.3996,220.297
-189,589,-24.3868,-222.886,0.0703764,-0.00672515,0.0344795,0.083546,-0.0198948,0.364854,0.0633785,0.0252699,1035,435,-24.3868,222.886
-182,589,-24.3217,-225.128,0.0742475,-0.0091966,0.0358153,0.0875115,-0.0224606,0.354683,0.067093,0.0231518,1042,435,-24.3217,225.128
-175,589,-24.1283,-227.465,0.0781924,-0.0123286,0.0367989,0.0912644,-0.0254005,0.341323,0.0708442,0.0279679,1049,435,-24.1283,227.465
-168,589,-24.1416,-229.756,0.0816905,-0.0153218,0.0373804,0.0944227,-0.028054,0.328287,0.0740919,0.0227125,1056,435,-24.1416,229.756
-161,589,-23.8826,-232.004,0.0846832,-0.0182592,0.0379603,0.0971672,-0.0307432,0.317728,0.0770969,0.0236957,1063,435,-23.8826,232.004
-154,589,-23.6013,-234.251,0.0875566,-0.0203963,0.0389343,0.100133,-0.0329732,0.312446,0.0800435,0.0298682,1070,435,-23.6014,234.251
-147,589,-23.4363,-236.388,0.0904617,-0.0219509,0.0401708,0.103341,-0.0348303,0.310263,0.0829778,0.0380964,1077,435,-23.4363,236.388
-140,589,-22.9885,-238.4,0,0,0,0,0,0,0,-1,1084,435,-22.9885,238.4
-133,589,-22.4873,-240.503,0,0,0,0,0,0,0,-1,1091,435,-22.4872,240.503
-126,589,-21.7029,-242.377,0,0,0,0,0,0,0,-1,1098,435,-21.7028,242.377
-119,589,-21.2367,-244.226,0,0,0,0,0,0,0,-1,1105,435,-21.2367,244.226
-112,589,-21.3542,-246.111,0,0,0,0,0,0,0,-1,1112,435,-21.3542,246.111
-105,589,-21.153,-248.048,0,0,0,0,0,0,0,-1,1119,435,-21.1529,248.048
-98,589,-20.7395,-250.196,0,0,0,0,0,0,0,-1,1126,435,-20.7395,250.196
-91,589,3.39563,-37.8231,0,0,0,0,0,0,0,-1,1133,435,3.39565,37.8231
-84,589,2.76538,-22.6013,0,0,0,0,0,0,0,-1,1140,435,2.76539,22.6014
-77,589,2.18152,-14.8023,0,0,0,0,0,0,0,-1,1147,435,2.18155,14.8023
-70,589,1.48267,-9.90961,0,0,0,0,0,0,0,-1,1154,435,1.48264,9.9096
-63,589,0.880127,-5.50586,0,0,0,0,0,0,0,-1,1161,435,0.880186,5.50587
-56,589,-2.78052,-7.28082,0,0,0,0,0,0,0,-1,1168,435,-2.78053,7.28082
-49,589,-0.525757,-2.76703,0,0,0,0,0,0,0,-1,1175,435,-0.525771,2.76702
-42,589,-2.7738,-2.87921,0,0,0,0,0,0,0,-1,1182,435,-2.77383,2.87922
-35,589,-2.55225,-3.27551,0,0,0,0,0,0,0,-1,1189,435,-2.55223,3.27552
-28,589,-0.0632324,-3.42938,0,0,0,0,0,0,0,-1,1196,435,-0.063241,3.42938
-21,589,6.90649,-262.43,0,0,0,0,0,0,0,-1,1203,435,6.90652,262.43
-14,589,6.39551,-263.123,0,0,0,0,0,0,0,-1,1210,435,6.39548,263.123
-7,589,5.91138,-263.611,0,0,0,0,0,0,0,-1,1217,435,5.91134,263.611
0,589,6.07385,-262.932,0,0,0,0,0,0,0,-1,1224,435,6.07387,262.932
7,589,5.09082,-263.487,0,0,0,0,0,0,0,-1,1231,435,5.09084,263.487
14,589,4.05127,-264.221,0,0,0,0,0,0,0,-1,1238,435,4.05132,264.221
21,589,2.73462,-265.097,0,0,0,0,0,0,0,-1,1245,435,2.73459,265.097
28,589,2.38611,-265.486,0,0,0,0,0,0,0,-1,1252,435,2.38607,265.486
35,589,2.27747,-265.966,0,0,0,0,0,0,0,-1,1259,435,2.27743,265.966
42,589,1.99744,-266.308,0,0,0,0,0,0,0,-1,1266,435,1.99745,266.308
49,589,1.48975,-266.157,0,0,0,0,0,0,0,-1,1273,435,1.48977,266.157
56,589,0.777588,-265.906,0,0,0,0,0,0,0,-1,1280,435,0.777642,265.906
63,589,-0.0783691,-265.276,0,0,0,0,0,0,0,-1,1287,435,-0.078329,265.276
70,589,-0.577759,-265.28,0,0,0,0,0,0,0,-1,1294,435,-0.577704,265.28
77,589,-1.40601,-265.485,0,0,0,0,0,0,0,-1,1301,435,-1.40606,265.485
84,589,-2.12122,-265.92,0,0,0,0,0,0,0,-1,1308,435,-2.12116,265.92
91,589,-2.66455,-266.447,0,0,0,0,0,0,0,-1,1315,435,-2.66455,266.447
98,589,-3.11426,-266.839,0,0,0,0,0,0,0,-1,1322,435,-3.11427,266.839
105,589,-3.82104,-267.346,0,0,0,0,0,0,0,-1,1329,435,-3.82101,267.346
112,589,-4.29163,-267.766,0,0,0,0,0,0,0,-1,1336,435,-4.29165,267.766
119,589,-4.75464,-268.095,0,0,0,0,0,0,0,-1,1343,435,-4.75462,268.095
126,589,-5.54346,-268.648,0,0,0,0,0,0,0,-1,1350,435,-5.54343,268.648
133,589,2.43616,-278.882,0,0,0,0,0,0,0,-1,1357,435,2.43613,278.882
140,589,2.60901,-280.497,0,0,0,0,0,0,0,-1,1364,435,2.60899,280.497
147,589,3.27527,-281.792,0,0,0,0,0,0,0,-1,1371,435,3.27523,281.792
154,589,4.47095,-283.577,0,0,0,0,0,0,0,-1,1378,435,4.471,283.577
161,589,5.41846,-285.195,0,0,0,0,0,0,0,-1,1385,435,5.41846,285.195
168,589,13.689,-82.1438,0,0,0,0,0,0,0,-1,1392,435,13.689,82.1438
175,589,8.66992,-7.65527,0,0,0,0,0,0,0,-1,1399,435,8.66994,7.65528
182,589,3.8136,-2.45389,0,0,0,0,0,0,0,-1,1406,435,3.81363,2.4539
189,589,3.69983,-3.68149,0,0,0,0,0,0,0,-1,1413,435,3.69987,3.68147
196,589,3.31055,-5.31677,0,0,0,0,0,0,0,-1,1420,435,3.31059,5.31678
203,589,2.72559,-8.84338,0,0,0,0,0,0,0,-1,1427,435,2.72558,8.84338
210,589,3.62378,-14.4032,0,0,0,0,0,0,0,-1,1434,435,3.62378,14.4032
217,589,4.65601,-22.3745,0,0,0,0,0,0,0,-1,1441,435,4.65607,22.3745
224,589,6.79028,-33.9412,0,0,0,0,0,0,0,-1,1448,435,6.79028,33.9412
231,589,28.152,-248.274,0,0,0,0,0,0,0,-1,1455,435,28.152,248.274
238,589,28.5636,-246.564,0,0,0,0,0,0,0,-1,1462,435,28.5636,246.564
245,589,28.895,-244.627,0,0,0,0,0,0,0,-1,1469,435,28.8951,244.627
252,589,29.6628,-242.838,0,0,0,0,0,0,0,-1,1476,435,29.6629,242.838
259,589,30.3916,-241.116,0.131514,-0.0231873,-0.042579,0.142459,-0.0341321,-0.251602,0.10816,0.0450332,1483,435,30.3916,241.116
266,589,31.1102,-238.876,0.126243,-0.0190143,-0.0427828,0.137907,-0.0306786,-0.266169,0.103688,0.0341269,1490,435,31.1103,238.876
273,589,31.7314,-236.735,0.119864,-0.0154545,-0.0433599,0.132566,-0.028156,-0.28496,0.0991049,0.0212288,1497,435,31.7314,236.735
280,589,32.0515,-234.642,0.113866,-0.0119487,-0.043154,0.127245,-0.0253277,-0.300632,0.0944116,0.0207622,1504,435,32.0515,234.642
287,589,32.4357,-232.469,0.108988,-0.00905522,-0.0427591,0.122849,-0.0229164,-0.313479,0.0905102,0.0272471,1511,435,32.4356,232.47
294,589,32.9662,-230.079,0.103767,-0.00614969,-0.0424428,0.118248,-0.0206306,-0.328801,0.0865327,0.0399475,1518,435,32.9662,230.079
301,589,33.608,-227.695,0,0,0,0,0,0,0,-1,1525,435,33.608,227.695
308,589,27.2095,-224.141,0,0,0,0,0,0,0,-1,1532,435,27.2095,224.141
315,589,33.9968,-223.135,0,0,0,0,0,0,0,-1,1539,435,33.9969,223.135
322,589,34.1012,-220.458,0.083565,0.00315727,-0.0383295,0.0989084,-0.0121862,-0.380768,0.0703537,0.0306105,1546,435,34.1012,220.458
329,589,34.1505,-217.87,0.0790799,0.00533834,-0.036041,0.0937689,-0.0093506,-0.387009,0.0658511,0.0276156,1553,435,34.1505,217.87
336,589,34.0956,-215.368,0.0742378,0.00728151,-0.0335036,0.0881229,-0.00660362,-0.392889,0.061069,0.0191397,1560,435,34.0955,215.368
343,589,33.9958,-212.675,0.0684887,0.00964214,-0.0306418,0.0815466,-0.00341573,-0.402841,0.055538,0.0197344,1567,435,33.9959,212.675
350,589,33.6411,-209.817,0.0630393,0.0117142,-0.027624,0.0750816,-0.000328001,-0.411096,0.0501641,0.0269158,1574,435,33.6411,209.817
357,589,33.5277,-206.864,0.0573314,0.0138553,-0.0244608,0.0683176,0.0028691,-0.422133,0.0446194,0.0266709,1581,435,33.5277,206.864
364,589,33.4357,-203.913,0.0508232,0.015882,-0.0211482,0.0607837,0.00592147,-0.440171,0.0387,0.0227136,1588,435,33.4357,203.913
371,589,33.1371,-200.93,0.0439547,0.0184613,-0.0169934,0.0524508,0.0099653,-0.463616,0.0321642,0.022313,1595,435,33.137,200.93
378,589,32.8127,-197.828,0.0370982,0.0204929,-0.0128669,0.0441087,0.0134825,-0.498877,0.0260995,0.038363,1602,435,32.8128,197.829
385,589,32.46,-194.614,0,0,0,0,0,0,0,-1,1609,435,32.46,194.614
392,589,31.7742,-191.02,0,0,0,0,0,0,0,-1,1616,435,31.7742,191.02
399,589,20.3914,-186.182,0,0,0,0,0,0,0,-1,1623,435,20.3913,186.182
406,589,4.5813,-144.292,0,0,0,0,0,0,0,-1,1630,435,4.58134,144.292
413,589,5.61377,-19.0606,0,0,0,0,0,0,0,-1,1637,435,5.61372,19.0606
420,589,2.79724,-5.79956,0,0,0,0,0,0,0,-1,1644,435,2.7973,5.79955
427,589,10.9475,-45.1117,0,0,0,0,0,0,0,-1,1651,435,10.9475,45.1117
434,589,9.14709,-34.4435,0,0,0,0,0,0,0,-1,1658,435,9.1471,34.4435
441,589,7.85901,-29.8665,0,0,0,0,0,0,0,-1,1665,435,7.85898,29.8666
448,589,0.453735,-3.2868,0,0,0,0,0,0,0,-1,1672,435,0.453701,3.28681
455,589,0.664307,-3.46848,0,0,0,0,0,0,0,-1,1679,435,0.66425,3.46846
462,589,3.46716,-4.41891,0,0,0,0,0,0,0,-1,1686,435,3.4672,4.41891
469,589,0.0238037,-3.81497,0,0,0,0,0,0,0,-1,1693,435,0.0237965,3.81498
476,589,0,0,0,0,0,0,0,0,0,-1,1700,435,0,0
483,589,0,0,0,0,0,0,0,0,0,-1,1707,435,0,0
490,589,0,0,0,0,0,0,0,0,0,-1,1714,435,0,0
497,589,0,0,0,0,0,0,0,0,0,-1,1721,435,0,0
504,589,0,0,0,0,0,0,0,0,0,-1,1728,435,0,0
511,589,0,0,0,0,0,0,0,0,0,-1,1735,435,0,0
518,589,0,0,0,0,0,0,0,0,0,-1,1742,435,0,0
525,589,0,0,0,0,0,0,0,0,0,-1,1749,435,0,0
532,589,0,0,0,0,0,0,0,0,0,-1,1756,435,0,0
539,589,0,0,0,0,0,0,0,0,0,-1,1763,435,0,0
546,589,0,0,0,0,0,0,0,0,0,-1,1770,435,0,0
553,589,0,0,0,0,0,0,0,0,0,-1,1777,435,0,0
560,589,0,0,0,0,0,0,0,0,0,-1,1784,435,0,0
567,589,0,0,0,0,0,0,0,0,0,-1,1791,435,0,0
574,589,0,0,0,0,0,0,0,0,0,-1,1798,435,0,0
581,589,0,0,0,0,0,0,0,0,0,-1,1805,435,0,0
588,589,0,0,0,0,0,0,0,0,0,-1,1812,435,0,0
595,589,0,0,0,0,0,0,0,0,0,-1,1819,435,0,0
602,589,0,0,0,0,0,0,0,0,0,-1,1826,435,0,0
609,589,0,0,0,0,0,0,0,0,0,-1,1833,435,0,0
616,589,0,0,0,0,0,0,0,0,0,-1,1840,435,0,0
623,589,0,0,0,0,0,0,0,0,0,-1,1847,435,0,0
630,589,0,0,0,0,0,0,0,0,0,-1,1854,435,0,0
637,589,0,0,0,0,0,0,0,0,0,-1,1861,435,0,0
644,589,0,0,0,0,0,0,0,0,0,-1,1868,435,0,0
651,589,0,0,0,0,0,0,0,0,0,-1,1875,435,0,0
658,589,0,0,0,0,0,0,0,0,0,-1,1882,435,0,0
665,589,0,0,0,0,0,0,0,0,0,-1,1889,435,0,0
672,589,0,0,0,0,0,0,0,0,0,-1,1896,435,0,0
679,589,0,0,0,0,0,0,0,0,0,-1,1903,435,0,0
686,589,0,0,0,0,0,0,0,0,0,-1,1910,435,0,0
693,589,0,0,0,0,0,0,0,0,0,-1,1917,435,0,0
700,589,0,0,0,0,0,0,0,0,0,-1,1924,435,0,0
707,589,0,0,0,0,0,0,0,0,0,-1,1931,435,0,0
714,589,0,0,0,0,0,0,0,0,0,-1,1938,435,0,0
721,589,0,0,0,0,0,0,0,0,0,-1,1945,435,0,0
728,589,0,0,0,0,0,0,0,0,0,-1,1952,435,0,0
735,589,0,0,0,0,0,0,0,0,0,-1,1959,435,0,0
742,589,0,0,0,0,0,0,0,0,0,-1,1966,435,0,0
749,589,0,0,0,0,0,0,0,0,0,-1,1973,435,0,0
756,589,0,0,0,0,0,0,0,0,0,-1,1980,435,0,0
763,589,0,0,0,0,0,0,0,0,0,-1,1987,435,0,0
770,589,0,0,0,0,0,0,0,0,0,-1,1994,435,0,0
777,589,0,0,0,0,0,0,0,0,0,-1,2001,435,0,0
784,589,0,0,0,0,0,0,0,0,0,-1,2008,435,0,0
791,589,0,0,0,0,0,0,0,0,0,-1,2015,435,0,0
798,589,0,0,0,0,0,0,0,0,0,-1,2022,435,0,0
805,589,0,0,0,0,0,0,0,0,0,-1,2029,435,0,0
812,589,0,0,0,0,0,0,0,0,0,-1,2036,435,0,0
-700,582,0,0,0,0,0,0,0,0,0,-1,524,442,0,0
-693,582,0,0,0,0,0,0,0,0,0,-1,531,442,0,0
-686,582,0,0,0,0,0,0,0,0,0,-1,538,442,0,0
-679,582,0,0,0,0,0,0,0,0,0,-1,545,442,0,0
-672,582,0,0,0,0,0,0,0,0,0,-1,552,442,0,0
-665,582,0,0,0,0,0,0,0,0,0,-1,559,442,0,0
-658,582,0,0,0,0,0,0,0,0,0,-1,566,442,0,0
-651,582,0,0,0,0,0,0,0,0,0,-1,573,442,0,0
-644,582,0,0,0,0,0,0,0,0,0,-1,580,442,0,0
-637,582,0,0,0,0,0,0,0,0,0,-1,587,442,0,0
-630,582,0,0,0,0,0,0,0,0,0,-1,594,442,0,0
-623,582,0,0,0,0,0,0,0,0,0,-1,601,442,0,0
-616,582,0,0,0,0,0,0,0,0,0,-1,608,442,0,0
-609,582,0,0,0,0,0,0,0,0,0,-1,615,442,0,0
-602,582,0,0,0,0,0,0,0,0,0,-1,622,442,0,0
-595,582,0,0,0,0,0,0,0,0,0,-1,629,442,0,0
-588,582,0,0,0,0,0,0,0,0,0,-1,636,442,0,0
-581,582,0,0,0,0,0,0,0,0,0,-1,643,442,0,0
-574,582,0,0,0,0,0,0,0,0,0,-1,650,442,0,0
-567,582,0,0,0,0,0,0,0,0,0,-1,657,442,0,0
-560,582,0,0,0,0,0,0,0,0,0,-1,664,442,0,0
-553,582,0,0,0,0,0,0,0,0,0,-1,671,442,0,0
-546,582,0,0,0,0,0,0,0,0,0,-1,678,442,0,0
-539,582,0,0,0,0,0,0,0,0,0,-1,685,442,0,0
-532,582,0,0,0,0,0,0,0,0,0,-1,692,442,0,0
-525,582,0,0,0,0,0,0,0,0,0,-1,699,442,0,0
-518,582,0,0,0,0,0,0,0,0,0,-1,706,442,0,0
-511,582,0,0,0,0,0,0,0,0,0,-1,713,442,0,0
-504,582,0,0,0,0,0,0,0,0,0,-1,720,442,0,0
-497,582,0,0,0,0,0,0,0,0,0,-1,727,442,0,0
-490,582,0,0,0,0,0,0,0,0,0,-1,734,442,0,0
-483,582,0,0,0,0,0,0,0,0,0,-1,741,442,0,0
-476,582,0,0,0,0,0,0,0,0,0,-1,748,442,0,0
-469,582,0,0,0,0,0,0,0,0,0,-1,755,442,0,0
-462,582,0,0,0,0,0,0,0,0,0,-1,762,442,0,0
-455,582,0,0,0,0,0,0,0,0,0,-1,769,442,0,0
-448,582,0,0,0,0,0,0,0,0,0,-1,776,442,0,0
-441,582,0,0,0,0,0,0,0,0,0,-1,783,442,0,0
-434,582,0,0,0,0,0,0,0,0,0,-1,790,442,0,0
-427,582,0,0,0,0,0,0,0,0,0,-1,797,442,0,0
-420,582,0,0,0,0,0,0,0,0,0,-1,804,442,0,0
-413,582,0,0,0,0,0,0,0,0,0,-1,811,442,0,0
-406,582,0,0,0,0,0,0,0,0,0,-1,818,442,0,0
-399,582,0,0,0,0,0,0,0,0,0,-1,825,442,0,0
-392,582,0,0,0,0,0,0,0,0,0,-1,832,442,0,0
-385,582,0,0,0,0,0,0,0,0,0,-1,839,442,0,0
-378,582,0,0,0,0,0,0,0,0,0,-1,846,442,0,0
-371,582,0,0,0,0,0,0,0,0,0,-1,853,442,0,0
-364,582,0,0,0,0,0,0,0,0,0,-1,860,442,0,0
-357,582,-1.4903,-21.5295,0,0,0,0,0,0,0,-1,867,442,-1.49031,21.5295
-350,582,-0.880859,-19.7966,0,0,0,0,0,0,0,-1,874,442,-0.880885,19.7966
-343,582,0.939941,-19.1705,0,0,0,0,0,0,0,-1,881,442,0.939935,19.1705
-336,582,3.33929,-27.9479,0,0,0,0,0,0,0,-1,888,442,3.33928,27.9479
-329,582,3.63544,-26.4736,0,0,0,0,0,0,0,-1,895,442,3.63546,26.4736
-322,582,3.67145,-27.1796,0,0,0,0,0,0,0,-1,902,442,3.67143,27.1796
-315,582,3.90686,-27.6446,0,0,0,0,0,0,0,-1,909,442,3.90689,27.6446
-308,582,4.07587,-33.1895,0,0,0,0,0,0,0,-1,916,442,4.07588,33.1895
-301,582,4.28662,-65.2938,0,0,0,0,0,0,0,-1,923,442,4.28664,65.2938
-294,582,3.77667,-81.41,0,0,0,0,0,0,0,-1,930,442,3.77669,81.41
-287,582,0.772339,-142.446,0,0,0,0,0,0,0,-1,937,442,0.772344,142.446
-280,582,-20.2786,-182.498,0,0,0,0,0,0,0,-1,944,442,-20.2786,182.498
-273,582,-24.8432,-187.093,0,0,0,0,0,0,0,-1,951,442,-24.8432,187.093
-266,582,-25.2964,-190.225,0,0,0,0,0,0,0,-1,958,442,-25.2965,190.225
-259,582,-25.5445,-193.799,0.045272,0.00688402,0.0289919,0.0608478,-0.00869181,0.493,0.0437512,0.0455933,965,442,-25.5445,193.799
-252,582,-25.8179,-197.216,0.0483705,0.00434538,0.0300039,0.0635706,-0.0108548,0.468918,0.0464236,0.0216608,972,442,-25.8179,197.216
-245,582,-26.3123,-200.204,0.0510776,0.00264311,0.0306486,0.0659219,-0.0122012,0.451042,0.048529,0.019666,979,442,-26.3122,200.204
-238,582,-26.7783,-203.1,0.0535237,0.00139519,0.031345,0.0682253,-0.0133064,0.438562,0.0505067,0.0269129,986,442,-26.7783,203.1
-231,582,-27.0018,-205.908,0.056362,0.000149858,0.0321505,0.0709597,-0.0144478,0.426209,0.0527856,0.0229379,993,442,-27.0018,205.908
-224,582,-27.0936,-208.814,0.0595311,-0.00112578,0.0331313,0.0741192,-0.0157139,0.414768,0.0553987,0.0175729,1000,442,-27.0936,208.814
-217,582,-27.2604,-211.631,0.0628272,-0.00225701,0.0342147,0.0775041,-0.0169339,0.405224,0.0581419,0.0200032,1007,442,-27.2604,211.631
-210,582,-27.4796,-214.294,0.0661104,-0.00359261,0.0355161,0.0810186,-0.0185007,0.397421,0.0611199,0.0240815,1014,442,-27.4796,214.294
-203,582,-27.5332,-216.937,0.0694974,-0.00541939,0.0369271,0.0846388,-0.0205608,0.389128,0.0643833,0.0266345,1021,442,-27.5332,216.937
-196,582,-27.565,-219.64,0,0,0,0,0,0,0,-1,1028,442,-27.565,219.64
-189,582,-26.9998,-222.397,0,0,0,0,0,0,0,-1,1035,442,-26.9998,222.397
-182,582,-27.0399,-224.677,0.0816877,-0.0127043,0.0409327,0.0969653,-0.0279819,0.357224,0.0757145,0.0256641,1042,442,-27.0399,224.677
-175,582,-26.7373,-226.915,0.0864694,-0.0163082,0.0416152,0.101207,-0.0310453,0.340347,0.079857,0.0292607,1049,442,-26.7373,226.915
-168,582,-26.5746,-229.209,0.090259,-0.0196634,0.0418514,0.104379,-0.0337838,0.325401,0.0831672,0.0205935,1056,442,-26.5746,229.209
-161,582,-26.3929,-231.365,0.0931447,-0.0229535,0.0421391,0.106827,-0.0366358,0.313956,0.0860695,0.0228431,1063,442,-26.393,231.365
-154,582,-25.9888,-233.561,0.09614,-0.0251234,0.0429947,0.109837,-0.0388203,0.308408,0.089032,0.0338017,1070,442,-25.9888,233.561
-147,582,-25.6893,-235.754,0.0992676,-0.0267475,0.0443717,0.113324,-0.0408035,0.306779,0.0922103,0.0494951,1077,442,-25.6893,235.754
-140,582,-25.5972,-237.892,0,0,0,0,0,0,0,-1,1084,442,-25.5971,237.892
-133,582,-24.7593,-239.92,0,0,0,0,0,0,0,-1,1091,442,-24.7592,239.92
-126,582,-23.8972,-241.871,0,0,0,0,0,0,0,-1,1098,442,-23.8972,241.871
-119,582,4.06213,-72.0599,0,0,0,0,0,0,0,-1,1105,442,4.06213,72.0599
-112,582,3.47888,-53.7394,0,0,0,0,0,0,0,-1,1112,442,3.47883,53.7394
-105,582,2.87219,-43.073,0,0,0,0,0,0,0,-1,1119,442,2.87217,43.073
-98,582,2.61938,-32.8673,0,0,0,0,0,0,0,-1,1126,442,2.61944,32.8673
-91,582,2.16492,-24.1119,0,0,0,0,0,0,0,-1,1133,442,2.16496,24.1119
-84,582,2.10278,-16.7533,0,0,0,0,0,0,0,-1,1140,442,2.10279,16.7533
-77,582,2.30212,-11.4907,0,0,0,0,0,0,0,-1,1147,442,2.30207,11.4907
-70,582,1.49255,-6.36548,0,0,0,0,0,0,0,-1,1154,442,1.49251,6.36549
-63,582,-4.62915,-4.0347,0,0,0,0,0,0,0,-1,1161,442,-4.6292,4.03471
-56,582,-5.81714,-5.24149,0,0,0,0,0,0,0,-1,1168,442,-5.81718,5.24149
-49,582,-3.88672,-10.1064,0,0,0,0,0,0,0,-1,1175,442,-3.88678,10.1064
-42,582,-0.948975,1.13968,0,0,0,0,0,0,0,-1,1182,442,-0.949003,-1.13969
-35,582,-2.58435,-3.86911,0,0,0,0,0,0,0,-1,1189,442,-2.58437,3.86912
-28,582,-0.825317,-3.45941,0,0,0,0,0,0,0,-1,1196,442,-0.825377,3.45942
-21,582,8.37048,-261.615,0,0,0,0,0,0,0,-1,1203,442,8.37045,261.615
-14,582,7.93384,-262.262,0,0,0,0,0,0,0,-1,1210,442,7.93383,262.262
-7,582,7.42883,-262.781,0,0,0,0,0,0,0,-1,1217,442,7.42879,262.781
0,582,6.22693,-263.176,0,0,0,0,0,0,0,-1,1224,442,6.22689,263.176
7,582,5.66455,-262.416,0,0,0,0,0,0,0,-1,1231,442,5.66454,262.416
14,582,5.0896,-263.243,0,0,0,0,0,0,0,-1,1238,442,5.08962,263.243
21,582,4.38452,-264.07,0,0,0,0,0,0,0,-1,1245,442,4.3845,264.07
28,582,3.85071,-264.505,0,0,0,0,0,0,0,-1,1252,442,3.85074,264.505
35,582,3.71692,-264.73,0,0,0,0,0,0,0,-1,1259,442,3.7169,264.73
42,582,3.10608,-264.919,0,0,0,0,0,0,0,-1,1266,442,3.10608,264.919
49,582,1.6344,-265.322,0,0,0,0,0,0,0,-1,1273,442,1.63436,265.322
56,582,0.821289,-264.879,0,0,0,0,0,0,0,-1,1280,442,0.821247,264.879
63,582,-0.123901,-264.026,0,0,0,0,0,0,0,-1,1287,442,-0.123852,264.026
70,582,-0.44873,-264.351,0,0,0,0,0,0,0,-1,1294,442,-0.448709,264.351
77,582,-1.33411,-264.553,0,0,0,0,0,0,0,-1,1301,442,-1.33415,264.553
84,582,-2.22546,-264.769,0,0,0,0,0,0,0,-1,1308,442,-2.22549,264.769
91,582,-3.04761,-265.071,0,0,0,0,0,0,0,-1,1315,442,-3.04765,265.071
98,582,-3.53723,-266.64,0,0,0,0,0,0,0,-1,1322,442,-3.53721,266.64
105,582,-4.19141,-267.084,0,0,0,0,0,0,0,-1,1329,442,-4.1914,267.084
112,582,-4.64172,-267.533,0,0,0,0,0,0,0,-1,1336,442,-4.64171,267.533
119,582,-5.20044,-267.931,0,0,0,0,0,0,0,-1,1343,442,-5.20049,267.931
126,582,-5.9646,-268.514,0,0,0,0,0,0,0,-1,1350,442,-5.9646,268.514
133,582,1.03235,-277.202,0,0,0,0,0,0,0,-1,1357,442,1.03232,277.202
140,582,2.12305,-278.941,0,0,0,0,0,0,0,-1,1364,442,2.12308,278.941
147,582,2.84558,-280.544,0,0,0,0,0,0,0,-1,1371,442,2.84561,280.544
154,582,3.93237,-282.146,0,0,0,0,0,0,0,-1,1378,442,3.93237,282.146
161,582,4.99646,-283.694,0,0,0,0,0,0,0,-1,1385,442,4.99644,283.694
168,582,-5.84277,-267.909,0,0,0,0,0,0,0,-1,1392,442,-5.84273,267.909
175,582,6.50549,-2.00424,0,0,0,0,0,0,0,-1,1399,442,6.50546,2.00425
182,582,5.18958,-2.18652,0,0,0,0,0,0,0,-1,1406,442,5.1896,2.18652
189,582,6.19751,-0.880951,0,0,0,0,0,0,0,-1,1413,442,6.19754,0.88096
196,582,4.87354,-2.22327,0,0,0,0,0,0,0,-1,1420,442,4.87348,2.22325
203,582,3.11401,-4.48257,0,0,0,0,0,0,0,-1,1427,442,3.11404,4.48259
210,582,2.93115,-11.0731,0,0,0,0,0,0,0,-1,1434,442,2.93113,11.0731
217,582,4.94092,-16.5476,0,0,0,0,0,0,0,-1,1441,442,4.94087,16.5476
224,582,5.21008,-20.9908,0,0,0,0,0,0,0,-1,1448,442,5.21006,20.9908
231,582,5.70032,-25.622,0,0,0,0,0,0,0,-1,1455,442,5.70026,25.6221
238,582,6.44189,-30.7028,0,0,0,0,0,0,0,-1,1462,442,6.44195,30.7028
245,582,10.0378,-45.1569,0,0,0,0,0,0,0,-1,1469,442,10.0379,45.1568
252,582,13.8408,-67.8125,0,0,0,0,0,0,0,-1,1476,442,13.8408,67.8125
259,582,32.3182,-240.805,0,0,0,0,0,0,0,-1,1483,442,32.3182,240.805
266,582,33.2465,-238.364,0,0,0,0,0,0,0,-1,1490,442,33.2465,238.364
273,582,34.282,-236.375,0,0,0,0,0,0,0,-1,1497,442,34.2819,236.375
280,582,34.4363,-233.981,0,0,0,0,0,0,0,-1,1504,442,34.4363,233.981
287,582,35.2943,-231.866,0.118065,-0.0119122,-0.0465196,0.132999,-0.026846,-0.31063,0.0988373,0.0381038,1511,442,35.2943,231.866
294,582,35.824,-229.541,0.11268,-0.00870528,-0.0466078,0.128511,-0.0245364,-0.327439,0.0949159,0.0352162,1518,442,35.824,229.541
301,582,35.9166,-226.956,0,0,0,0,0,0,0,-1,1525,442,35.9166,226.956
308,582,36.6185,-224.693,0,0,0,0,0,0,0,-1,1532,442,36.6185,224.693
315,582,36.6978,-222.381,0,0,0,0,0,0,0,-1,1539,442,36.6978,222.381
322,582,36.8878,-219.774,0.0908043,0.00090763,-0.0442956,0.108963,-0.0172507,-0.389042,0.0790222,0.028757,1546,442,36.8878,219.774
329,582,36.9827,-217.259,0.0861528,0.00316008,-0.0423476,0.103946,-0.0146332,-0.397775,0.0746548,0.0255633,1553,442,36.9827,217.259
336,582,36.9009,-214.673,0.081271,0.00508078,-0.0402481,0.0985938,-0.012242,-0.406436,0.0701668,0.0204721,1560,442,36.9009,214.673
343,582,36.8622,-211.841,0.0755364,0.00716142,-0.0378178,0.0923291,-0.00963122,-0.417887,0.0650014,0.0250184,1567,442,36.8622,211.841
350,582,36.7126,-208.94,0.0699934,0.00914359,-0.0351705,0.0860727,-0.00693566,-0.428809,0.0598278,0.03175,1574,442,36.7127,208.94
357,582,36.7058,-206.009,0.0642975,0.0112629,-0.0323372,0.0795996,-0.00403918,-0.441982,0.0544627,0.0284411,1581,442,36.7058,206.009
364,582,36.6622,-203.144,0.0578132,0.0131951,-0.0292314,0.072276,-0.00126763,-0.459454,0.0486121,0.0219948,1588,442,36.6623,203.144
371,582,36.478,-200.196,0.0512432,0.0152907,-0.0254383,0.0644159,0.002118,-0.477807,0.0422556,0.0280091,1595,442,36.4781,200.196
378,582,36.0398,-197.198,0.0447316,0.0171636,-0.0215623,0.0565392,0.00535594,-0.501003,0.0360404,0.0247337,1602,442,36.0398,197.198
385,582,35.6234,-194.003,0.0386313,0.019366,-0.0173539,0.0488467,0.00915057,-0.532034,0.0299834,0.0254094,1609,442,35.6234,194.003
392,582,35.1272,-190.673,0.0347321,0.0226843,-0.0122258,0.0423375,0.0150789,-0.556495,0.0247784,0.036661,1616,442,35.1272,190.673
399,582,34.4902,-187.553,0,0,0,0,0,0,0,-1,1623,442,34.4902,187.553
406,582,22.9617,-182.932,0,0,0,0,0,0,0,-1,1630,442,22.9617,182.932
413,582,6.4043,-151.33,0,0,0,0,0,0,0,-1,1637,442,6.40426,151.33
420,582,5.51392,-147.772,0,0,0,0,0,0,0,-1,1644,442,5.51396,147.772
427,582,5.48132,-130.472,0,0,0,0,0,0,0,-1,1651,442,5.48131,130.472
434,582,12.3431,-48.7588,0,0,0,0,0,0,0,-1,1658,442,12.3432,48.7588
441,582,10.8484,-36.2891,0,0,0,0,0,0,0,-1,1665,442,10.8484,36.2891
448,582,11.2651,-32.8669,0,0,0,0,0,0,0,-1,1672,442,11.2651,32.8668
455,582,6.4585,-19.4734,0,0,0,0,0,0,0,-1,1679,442,6.45854,19.4734
462,582,5.35022,-19.2616,0,0,0,0,0,0,0,-1,1686,442,5.35025,19.2616
469,582,6.28601,-21.5695,0,0,0,0,0,0,0,-1,1693,442,6.28597,21.5695
476,582,1.93579,-8.53891,0,0,0,0,0,0,0,-1,1700,442,1.93579,8.53892
483,582,0,0,0,0,0,0,0,0,0,-1,1707,442,0,0
490,582,0,0,0,0,0,0,0,0,0,-1,1714,442,0,0
497,582,0,0,0,0,0,0,0,0,0,-1,1721,442,0,0
504,582,0,0,0,0,0,0,0,0,0,-1,1728,442,0,0
511,582,0,0,0,0,0,0,0,0,0,-1,1735,442,0,0
518,582,0,0,0,0,0,0,0,0,0,-1,1742,442,0,0
525,582,0,0,0,0,0,0,0,0,0,-1,1749,442,0,0
532,582,0,0,0,0,0,0,0,0,0,-1,1756,442,0,0
539,582,0,0,0,0,0,0,0,0,0,-1,1763,442,0,0
546,582,0,0,0,0,0,0,0,0,0,-1,1770,442,0,0
553,582,0,0,0,0,0,0,0,0,0,-1,1777,442,0,0
560,582,0,0,0,0,0,0,0,0,0,-1,1784,442,0,0
567,582,0,0,0,0,0,0,0,0,0,-1,1791,442,0,0
574,582,0,0,0,0,0,0,0,0,0,-1,1798,442,0,0
581,582,0,0,0,0,0,0,0,0,0,-1,1805,442,0,0
588,582,0,0,0,0,0,0,0,0,0,-1,1812,442,0,0
595,582,0,0,0,0,0,0,0,0,0,-1,1819,442,0,0
602,582,0,0,0,0,0,0,0,0,0,-1,1826,442,0,0
609,582,0,0,0,0,0,0,0,0,0,-1,1833,442,0,0
616,582,0,0,0,0,0,0,0,0,0,-1,1840,442,0,0
623,582,0,0,0,0,0,0,0,0,0,-1,1847,442,0,0
630,582,0,0,0,0,0,0,0,0,0,-1,1854,442,0,0
637,582,0,0,0,0,0,0,0,0,0,-1,1861,442,0,0
644,582,0,0,0,0,0,0,0,0,0,-1,1868,442,0,0
651,582,0,0,0,0,0,0,0,0,0,-1,1875,442,0,0
658,582,0,0,0,0,0,0,0,0,0,-1,1882,442,0,0
665,582,0,0,0,0,0,0,0,0,0,-1,1889,442,0,0
672,582,0,0,0,0,0,0,0,0,0,-1,1896,442,0,0
679,582,0,0,0,0,0,0,0,0,0,-1,1903,442,0,0
686,582,0,0,0,0,0,0,0,0,0,-1,1910,442,0,0
693,582,0,0,0,0,0,0,0,0,0,-1,1917,442,0,0
700,582,0,0,0,0,0,0,0,0,0,-1,1924,442,0,0
707,582,0,0,0,0,0,0,0,0,0,-1,1931,442,0,0
714,582,0,0,0,0,0,0,0,0,0,-1,1938,442,0,0
721,582,0,0,0,0,0,0,0,0,0,-1,1945,442,0,0
728,582,0,0,0,0,0,0,0,0,0,-1,1952,442,0,0
735,582,0,0,0,0,0,0,0,0,0,-1,1959,442,0,0
742,582,0,0,0,0,0,0,0,0,0,-1,1966,442,0,0
749,582,0,0,0,0,0,0,0,0,0,-1,1973,442,0,0
756,582,0,0,0,0,0,0,0,0,0,-1,1980,442,0,0
763,582,0,0,0,0,0,0,0,0,0,-1,1987,442,0,0
770,582,0,0,0,0,0,0,0,0,0,-1,1994,442,0,0
777,582,0,0,0,0,0,0,0,0,0,-1,2001,442,0,0
784,582,0,0,0,0,0,0,0,0,0,-1,2008,442,0,0
791,582,0,0,0,0,0,0,0,0,0,-1,2015,442,0,0
798,582,0,0,0,0,0,0,0,0,0,-1,2022,442,0,0
805,582,0,0,0,0,0,0,0,0,0,-1,2029,442,0,0
812,582,0,0,0,0,0,0,0,0,0,-1,2036,442,0,0
-700,575,0,0,0,0,0,0,0,0,0,-1,524,449,0,0
-693,575,0,0,0,0,0,0,0,0,0,-1,531,449,0,0
-686,575,0,0,0,0,0,0,0,0,0,-1,538,449,0,0
-679,575,0,0,0,0,0,0,0,0,0,-1,545,449,0,0
-672,575,0,0,0,0,0,0,0,0,0,-1,552,449,0,0
-665,575,0,0,0,0,0,0,0,0,0,-1,559,449,0,0
-658,575,0,0,0,0,0,0,0,0,0,-1,566,449,0,0
-651,575,0,0,0,0,0,0,0,0,0,-1,573,449,0,0
-644,575,0,0,0,0,0,0,0,0,0,-1,580,449,0,0
-637,575,0,0,0,0,0,0,0,0,0,-1,587,449,0,0
-630,575,0,0,0,0,0,0,0,0,0,-1,594,449,0,0
-623,575,0,0,0,0,0,0,0,0,0,-1,601,449,0,0
-616,575,0,0,0,0,0,0,0,0,0,-1,608,449,0,0
-609,575,0,0,0,0,0,0,0,0,0,-1,615,449,0,0
-602,575,0,0,0,0,0,0,0,0,0,-1,622,449,0,0
-595,575,0,0,0,0,0,0,0,0,0,-1,629,449,0,0
-588,575,0,0,0,0,0,0,0,0,0,-1,636,449,0,0
-581,575,0,0,0,0,0,0,0,0,0,-1,643,449,0,0
-574,575,0,0,0,0,0,0,0,0,0,-1,650,449,0,0
-567,575,0,0,0,0,0,0,0,0,0,-1,657,449,0,0
-560,575,0,0,0,0,0,0,0,0,0,-1,664,449,0,0
-553,575,0,0,0,0,0,0,0,0,0,-1,671,449,0,0
-546,575,0,0,0,0,0,0,0,0,0,-1,678,449,0,0
-539,575,0,0,0,0,0,0,0,0,0,-1,685,449,0,0
-532,575,0,0,0,0,0,0,0,0,0,-1,692,449,0,0
-525,575,0,0,0,0,0,0,0,0,0,-1,699,449,0,0
-518,575,0,0,0,0,0,0,0,0,0,-1,706,449,0,0
-511,575,0,0,0,0,0,0,0,0,0,-1,713,449,0,0
-504,575,0,0,0,0,0,0,0,0,0,-1,720,449,0,0
-497,575,0,0,0,0,0,0,0,0,0,-1,727,449,0,0
-490,575,0,0,0,0,0,0,0,0,0,-1,734,449,0,0
-483,575,0,0,0,0,0,0,0,0,0,-1,741,449,0,0
-476,575,0,0,0,0,0,0,0,0,0,-1,748,449,0,0
-469,575,0,0,0,0,0,0,0,0,0,-1,755,449,0,0
-462,575,0,0,0,0,0,0,0,0,0,-1,762,449,0,0
-455,575,0,0,0,0,0,0,0,0,0,-1,769,449,0,0
-448,575,0,0,0,0,0,0,0,0,0,-1,776,449,0,0
-441,575,0,0,0,0,0,0,0,0,0,-1,783,449,0,0
-434,575,0,0,0,0,0,0,0,0,0,-1,790,449,0,0
-427,575,0,0,0,0,0,0,0,0,0,-1,797,449,0,0
-420,575,0,0,0,0,0,0,0,0,0,-1,804,449,0,0
-413,575,0,0,0,0,0,0,0,0,0,-1,811,449,0,0
-406,575,0,0,0,0,0,0,0,0,0,-1,818,449,0,0
-399,575,0,0,0,0,0,0,0,0,0,-1,825,449,0,0
-392,575,0,0,0,0,0,0,0,0,0,-1,832,449,0,0
-385,575,0,0,0,0,0,0,0,0,0,-1,839,449,0,0
-378,575,0,0,0,0,0,0,0,0,0,-1,846,449,0,0
-371,575,0.56897,-3.52304,0,0,0,0,0,0,0,-1,853,449,0.568955,3.52306
-364,575,1.49805,-4.67191,0,0,0,0,0,0,0,-1,860,449,1.49803,4.6719
-357,575,3.15521,-8.29892,0,0,0,0,0,0,0,-1,867,449,3.15521,8.29891
-350,575,-0.825928,-18.5347,0,0,0,0,0,0,0,-1,874,449,-0.825948,18.5347
-343,575,0.465393,-16.3569,0,0,0,0,0,0,0,-1,881,449,0.465397,16.3569
-336,575,3.1994,-17.5725,0,0,0,0,0,0,0,-1,888,449,3.19941,17.5725
-329,575,2.81946,-29.1576,0,0,0,0,0,0,0,-1,895,449,2.81945,29.1576
-322,575,4.28943,-27.9487,0,0,0,0,0,0,0,-1,902,449,4.28944,27.9487
-315,575,6.13507,-35.9424,0,0,0,0,0,0,0,-1,909,449,6.13508,35.9424
-308,575,2.17755,-78.9857,0,0,0,0,0,0,0,-1,916,449,2.17756,78.9857
-301,575,0.565491,-156.994,0,0,0,0,0,0,0,-1,923,449,0.565483,156.994
-294,575,-5.13062,-171.608,0,0,0,0,0,0,0,-1,930,449,-5.13063,171.608
-287,575,-26.631,-179.274,0,0,0,0,0,0,0,-1,937,449,-26.631,179.274
-280,575,-27.5933,-183.007,0,0,0,0,0,0,0,-1,944,449,-27.5933,183.007
-273,575,-28.1099,-186.663,0,0,0,0,0,0,0,-1,951,449,-28.1099,186.663
-266,575,-28.6156,-190.096,0.0470738,0.00681322,0.032328,0.0650267,-0.0111396,0.50693,0.0475017,0.0360551,958,449,-28.6156,190.096
-259,575,-28.8915,-193.246,0.050022,0.00403377,0.0339549,0.068036,-0.0139802,0.48777,0.0506645,0.0238087,965,449,-28.8915,193.246
-252,575,-29.2663,-196.323,0.0531911,0.00187657,0.0350746,0.070991,-0.0159233,0.469619,0.0534319,0.0223598,972,449,-29.2663,196.323
-245,575,-29.6314,-199.281,0.0559978,0.000435569,0.0357681,0.0735063,-0.017073,0.455213,0.0555763,0.0295815,979,449,-29.6314,199.281
-238,575,-29.9347,-202.234,0.0584687,-0.000620873,0.0364532,0.0758465,-0.0179987,0.444847,0.0575105,0.0269852,986,449,-29.9347,202.234
-231,575,-30.0985,-205.196,0.0613777,-0.00170956,0.0373245,0.0787024,-0.0190343,0.434572,0.059831,0.0238628,993,449,-30.0985,205.196
-224,575,-30.2538,-208.162,0.0646375,-0.00274871,0.038336,0.0819824,-0.0200935,0.424884,0.0624399,0.0232886,1000,449,-30.2538,208.162
-217,575,-30.2995,-210.882,0.0681019,-0.00382543,0.0393259,0.0854291,-0.0211526,0.415013,0.0651583,0.0206077,1007,449,-30.2995,210.882
-210,575,-30.4044,-213.567,0.0717237,-0.00519507,0.0405844,0.089177,-0.0226483,0.406138,0.0682648,0.0162835,1014,449,-30.4043,213.567
-203,575,-30.6409,-216.166,0,0,0,0,0,0,0,-1,1021,449,-30.6409,216.166
-196,575,-30.693,-218.555,0,0,0,0,0,0,0,-1,1028,449,-30.693,218.555
-189,575,-29.8968,-221.46,0,0,0,0,0,0,0,-1,1035,449,-29.8968,221.46
-182,575,-29.816,-223.846,0.0891171,-0.0155978,0.0458216,0.106336,-0.0328171,0.359463,0.0839948,0.0264688,1042,449,-29.8161,223.846
-175,575,-29.4815,-226.278,0.0949575,-0.0196899,0.0462108,0.111264,-0.0359966,0.339236,0.0886457,0.0385324,1049,449,-29.4815,226.278
-168,575,-28.9655,-228.607,0.0991455,-0.0233656,0.0461072,0.114559,-0.0387789,0.322614,0.0920628,0.0358281,1056,449,-28.9654,228.608
-161,575,-28.8728,-230.737,0,0,0,0,0,0,0,-1,1063,449,-28.8728,230.737
-154,575,-28.3893,-232.914,0,0,0,0,0,0,0,-1,1070,449,-28.3892,232.914
-147,575,-28.1268,-235.205,0,0,0,0,0,0,0,-1,1077,449,-28.1269,235.205
-140,575,1.74573,-82.2679,0,0,0,0,0,0,0,-1,1084,449,1.74574,82.268
-133,575,3.1123,-72.4413,0,0,0,0,0,0,0,-1,1091,449,3.11224,72.4413
-126,575,3.56506,-62.5804,0,0,0,0,0,0,0,-1,1098,449,3.56505,62.5804
-119,575,3.00208,-52.3971,0,0,0,0,0,0,0,-1,1105,449,3.00204,52.3971
-112,575,2.70337,-43.3701,0,0,0,0,0,0,0,-1,1112,449,2.70333,43.3701
-105,575,2.18347,-36.5414,0,0,0,0,0,0,0,-1,1119,449,2.18351,36.5414
-98,575,1.521,-25.6961,0,0,0,0,0,0,0,-1,1126,449,1.52105,25.6961
-91,575,1.60803,-16.4247,0,0,0,0,0,0,0,-1,1133,449,1.60802,16.4247
-84,575,1.16553,-11.9056,0,0,0,0,0,0,0,-1,1140,449,1.16558,11.9056
-77,575,0.205078,-11.2584,0,0,0,0,0,0,0,-1,1147,449,0.205117,11.2584
-70,575,-4.2467,-1.78738,0,0,0,0,0,0,0,-1,1154,449,-4.24674,1.78739
-63,575,-4.52209,-3.48798,0,0,0,0,0,0,0,-1,1161,449,-4.5221,3.48796
-56,575,-5.5968,-5.4928,0,0,0,0,0,0,0,-1,1168,449,-5.59683,5.49281
-49,575,-5.96863,-7.17612,0,0,0,0,0,0,0,-1,1175,449,-5.96868,7.1761
-42,575,-0.830322,0.773499,0,0,0,0,0,0,0,-1,1182,449,-0.83038,-0.77351
-35,575,-0.62085,0.205139,0,0,0,0,0,0,0,-1,1189,449,-0.620855,-0.205126
-28,575,0.49292,-3.87988,0,0,0,0,0,0,0,-1,1196,449,0.492941,3.87989
-21,575,9.98608,-261.058,0,0,0,0,0,0,0,-1,1203,449,9.98604,261.058
-14,575,9.48535,-261.561,0,0,0,0,0,0,0,-1,1210,449,9.48529,261.561
-7,575,8.92688,-262.036,0,0,0,0,0,0,0,-1,1217,449,8.92693,262.036
0,575,8.073,-262.404,0,0,0,0,0,0,0,-1,1224,449,8.07296,262.404
7,575,7.05505,-261.202,0,0,0,0,0,0,0,-1,1231,449,7.05511,261.202
14,575,6.56995,-262.093,0,0,0,0,0,0,0,-1,1238,449,6.56997,262.093
21,575,5.93188,-263.266,0,0,0,0,0,0,0,-1,1245,449,5.93189,263.266
28,575,5.45349,-263.587,0,0,0,0,0,0,0,-1,1252,449,5.45351,263.587
35,575,4.91113,-263.865,0,0,0,0,0,0,0,-1,1259,449,4.91108,263.865
42,575,4.31555,-263.409,0,0,0,0,0,0,0,-1,1266,449,4.3156,263.409
49,575,0.608765,-261.036,0,0,0,0,0,0,0,-1,1273,449,0.608824,261.036
56,575,0.528809,-262.562,0,0,0,0,0,0,0,-1,1280,449,0.528869,262.562
63,575,-0.294922,-262.754,0,0,0,0,0,0,0,-1,1287,449,-0.29494,262.754
70,575,-0.503418,-263.453,0,0,0,0,0,0,0,-1,1294,449,-0.503433,263.453
77,575,-1.39758,-263.64,0,0,0,0,0,0,0,-1,1301,449,-1.3976,263.64
84,575,-2.45337,-263.518,0,0,0,0,0,0,0,-1,1308,449,-2.45337,263.518
91,575,-2.67786,-266.054,0,0,0,0,0,0,0,-1,1315,449,-2.67792,266.054
98,575,-3.76685,-266.604,0,0,0,0,0,0,0,-1,1322,449,-3.76684,266.604
105,575,-4.55249,-266.972,0,0,0,0,0,0,0,-1,1329,449,-4.55251,266.973
112,575,-5.07507,-267.277,0,0,0,0,0,0,0,-1,1336,449,-5.07511,267.277
119,575,-5.44946,-267.517,0,0,0,0,0,0,0,-1,1343,449,-5.44947,267.517
126,575,0.40564,-274.306,0,0,0,0,0,0,0,-1,1350,449,0.405617,274.306
133,575,0.606689,-275.917,0,0,0,0,0,0,0,-1,1357,449,0.606748,275.917
140,575,1.61279,-277.443,0,0,0,0,0,0,0,-1,1364,449,1.61279,277.443
147,575,2.40149,-278.973,0,0,0,0,0,0,0,-1,1371,449,2.40154,278.973
154,575,3.38416,-280.454,0,0,0,0,0,0,0,-1,1378,449,3.38413,280.454
161,575,4.39758,-282.07,0,0,0,0,0,0,0,-1,1385,449,4.39757,282.07
168,575,-4.97888,-77.9566,0,0,0,0,0,0,0,-1,1392,449,-4.97891,77.9566
175,575,4.32617,1.93634,0,0,0,0,0,0,0,-1,1399,449,4.32612,-1.93634
182,575,6.3147,-2.88345,0,0,0,0,0,0,0,-1,1406,449,6.31466,2.88346
189,575,6.10449,-1.30817,0,0,0,0,0,0,0,-1,1413,449,6.10455,1.30817
196,575,5.79895,0.818359,0,0,0,0,0,0,0,-1,1420,449,5.79895,-0.81837
203,575,3.29724,-1.46378,0,0,0,0,0,0,0,-1,1427,449,3.29722,1.46377
210,575,2.32739,-7.74503,0,0,0,0,0,0,0,-1,1434,449,2.32741,7.74502
217,575,3.33618,-11.5521,0,0,0,0,0,0,0,-1,1441,449,3.3362,11.5521
224,575,5.51709,-16.3903,0,0,0,0,0,0,0,-1,1448,449,5.51713,16.3903
231,575,5.48572,-20.4595,0,0,0,0,0,0,0,-1,1455,449,5.48571,20.4595
238,575,5.33484,-22.3575,0,0,0,0,0,0,0,-1,1462,449,5.33478,22.3575
245,575,5.59741,-23.513,0,0,0,0,0,0,0,-1,1469,449,5.5974,23.513
252,575,10.5602,-44.9309,0,0,0,0,0,0,0,-1,1476,449,10.5602,44.9309
259,575,12.6493,-57.551,0,0,0,0,0,0,0,-1,1483,449,12.6493,57.551
266,575,14.9243,-69.1833,0,0,0,0,0,0,0,-1,1490,449,14.9243,69.1833
273,575,15.9393,-82.0017,0,0,0,0,0,0,0,-1,1497,449,15.9394,82.0017
280,575,31.5233,-232.973,0,0,0,0,0,0,0,-1,1504,449,31.5233,232.973
287,575,38.5056,-231.332,0,0,0,0,0,0,0,-1,1511,449,38.5056,231.332
294,575,38.9851,-228.991,0,0,0,0,0,0,0,-1,1518,449,38.9851,228.991
301,575,39.1801,-226.592,0,0,0,0,0,0,0,-1,1525,449,39.1801,226.592
308,575,39.4989,-224.162,0,0,0,0,0,0,0,-1,1532,449,39.4989,224.162
315,575,39.6045,-221.717,0.103364,-0.00302074,-0.0513425,0.1241,-0.0237573,-0.383852,0.0916846,0.0248268,1539,449,39.6044,221.717
322,575,39.691,-219.157,0.0984187,-0.000849373,-0.0501108,0.119316,-0.0217464,-0.395089,0.087696,0.0201232,1546,449,39.691,219.157
329,575,39.8491,-216.669,0.0937035,0.0015313,-0.048495,0.114518,-0.0192832,-0.405431,0.0835184,0.0198162,1553,449,39.8492,216.669
336,575,39.8967,-213.974,0.0888303,0.00344722,-0.0468228,0.109502,-0.0172248,-0.415759,0.0793686,0.0218811,1560,449,39.8967,213.974
343,575,39.9744,-210.953,0.0831757,0.005221,-0.0448001,0.103581,-0.0151841,-0.427394,0.0746319,0.0334736,1567,449,39.9744,210.953
350,575,40.011,-208.106,0.0776124,0.00707069,-0.0424835,0.0975582,-0.0128751,-0.438948,0.0697278,0.0302466,1574,449,40.011,208.106
357,575,40.0895,-205.546,0.0719482,0.00909021,-0.0399148,0.0913225,-0.010284,-0.451892,0.0645832,0.0439731,1581,449,40.0894,205.546
364,575,40.2747,-202.977,0,0,0,0,0,0,0,-1,1588,449,40.2747,202.977
371,575,39.9391,-199.431,0,0,0,0,0,0,0,-1,1595,449,39.939,199.431
378,575,39.4758,-196.441,0.0531974,0.014174,-0.0298739,0.069367,-0.00199563,-0.496111,0.046924,0.031501,1602,449,39.4758,196.441
385,575,38.9208,-193.365,0.0474049,0.0161159,-0.0259534,0.0620644,0.00145647,-0.514163,0.0408994,0.0276955,1609,449,38.9208,193.365
392,575,38.3337,-190.226,0.0432523,0.0191304,-0.0212165,0.0555964,0.00678632,-0.526942,0.035022,0.0288971,1616,449,38.3338,190.226
399,575,37.4839,-187.231,0,0,0,0,0,0,0,-1,1623,449,37.4839,187.231
406,575,36.6433,-184.122,0,0,0,0,0,0,0,-1,1630,449,36.6433,184.122
413,575,36.912,-179.984,0,0,0,0,0,0,0,-1,1637,449,36.9119,179.984
420,575,20.9784,-175.024,0,0,0,0,0,0,0,-1,1644,449,20.9784,175.024
427,575,7.86377,-144.226,0,0,0,0,0,0,0,-1,1651,449,7.86376,144.226
434,575,7.81628,-127.139,0,0,0,0,0,0,0,-1,1658,449,7.8163,127.139
441,575,14.0811,-51.3901,0,0,0,0,0,0,0,-1,1665,449,14.081,51.3901
448,575,13.4385,-39.1208,0,0,0,0,0,0,0,-1,1672,449,13.4385,39.1208
455,575,11.7931,-31.6917,0,0,0,0,0,0,0,-1,1679,449,11.793,31.6917
462,575,7.12781,-21.7179,0,0,0,0,0,0,0,-1,1686,449,7.12778,21.7178
469,575,13.3328,-39.946,0,0,0,0,0,0,0,-1,1693,449,13.3328,39.946
476,575,12.8243,-36.3585,0,0,0,0,0,0,0,-1,1700,449,12.8244,36.3585
483,575,7.80994,-33.4096,0,0,0,0,0,0,0,-1,1707,449,7.80991,33.4096
490,575,7.42871,-25.5027,0,0,0,0,0,0,0,-1,1714,449,7.42869,25.5027
497,575,0,0,0,0,0,0,0,0,0,-1,1721,449,0,0
504,575,0,0,0,0,0,0,0,0,0,-1,1728,449,0,0
511,575,0,0,0,0,0,0,0,0,0,-1,1735,449,0,0
518,575,0,0,0,0,0,0,0,0,0,-1,1742,449,0,0
525,575,0,0,0,0,0,0,0,0,0,-1,1749,449,0,0
532,575,0,0,0,0,0,0,0,0,0,-1,1756,449,0,0
539,575,0,0,0,0,0,0,0,0,0,-1,1763,449,0,0
546,575,0,0,0,0,0,0,0,0,0,-1,1770,449,0,0
553,575,0,0,0,0,0,0,0,0,0,-1,1777,449,0,0
560,575,0,0,0,0,0,0,0,0,0,-1,1784,449,0,0
567,575,0,0,0,0,0,0,0,0,0,-1,1791,449,0,0
574,575,0,0,0,0,0,0,0,0,0,-1,1798,449,0,0
581,575,0,0,0,0,0,0,0,0,0,-1,1805,449,0,0
588,575,0,0,0,0,0,0,0,0,0,-1,1812,449,0,0
595,575,0,0,0,0,0,0,0,0,0,-1,1819,449,0,0
602,575,0,0,0,0,0,0,0,0,0,-1,1826,449,0,0
609,575,0,0,0,0,0,0,0,0,0,-1,1833,449,0,0
616,575,0,0,0,0,0,0,0,0,0,-1,1840,449,0,0
623,575,0,0,0,0,0,0,0,0,0,-1,1847,449,0,0
630,575,0,0,0,0,0,0,0,0,0,-1,1854,449,0,0
637,575,0,0,0,0,0,0,0,0,0,-1,1861,449,0,0
644,575,0,0,0,0,0,0,0,0,0,-1,1868,449,0,0
651,575,0,0,0,0,0,0,0,0,0,-1,1875,449,0,0
658,575,0,0,0,0,0,0,0,0,0,-1,1882,449,0,0
665,575,0,0,0,0,0,0,0,0,0,-1,1889,449,0,0
672,575,0,0,0,0,0,0,0,0,0,-1,1896,449,0,0
679,575,0,0,0,0,0,0,0,0,0,-1,1903,449,0,0
686,575,0,0,0,0,0,0,0,0,0,-1,1910,449,0,0
693,575,0,0,0,0,0,0,0,0,0,-1,1917,449,0,0
700,575,0,0,0,0,0,0,0,0,0,-1,1924,449,0,0
707,575,0,0,0,0,0,0,0,0,0,-1,1931,449,0,0
714,575,0,0,0,0,0,0,0,0,0,-1,1938,449,0,0
721,575,0,0,0,0,0,0,0,0,0,-1,1945,449,0,0
728,575,0,0,0,0,0,0,0,0,0,-1,1952,449,0,0
735,575,0,0,0,0,0,0,0,0,0,-1,1959,449,0,0
742,575,0,0,0,0,0,0,0,0,0,-1,1966,449,0,0
749,575,0,0,0,0,0,0,0,0,0,-1,1973,449,0,0
756,575,0,0,0,0,0,0,0,0,0,-1,1980,449,0,0
763,575,0,0,0,0,0,0,0,0,0,-1,1987,449,0,0
770,575,0,0,0,0,0,0,0,0,0,-1,1994,449,0,0
777,575,0,0,0,0,0,0,0,0,0,-1,2001,449,0,0
784,575,0,0,0,0,0,0,0,0,0,-1,2008,449,0,0
791,575,0,0,0,0,0,0,0,0,0,-1,2015,449,0,0
798,575,0,0,0,0,0,0,0,0,0,-1,2022,449,0,0
805,575,0,0,0,0,0,0,0,0,0,-1,2029,449,0,0
812,575,0,0,0,0,0,0,0,0,0,-1,2036,449,0,0
-700,568,0,0,0,0,0,0,0,0,0,-1,524,456,0,0
-693,568,0,0,0,0,0,0,0,0,0,-1,531,456,0,0
-686,568,0,0,0,0,0,0,0,0,0,-1,538,456,0,0
-679,568,0,0,0,0,0,0,0,0,0,-1,545,456,0,0
-672,568,0,0,0,0,0,0,0,0,0,-1,552,456,0,0
-665,568,0,0,0,0,0,0,0,0,0,-1,559,456,0,0
-658,568,0,0,0,0,0,0,0,0,0,-1,566,456,0,0
-651,568,0,0,0,0,0,0,0,0,0,-1,573,456,0,0
-644,568,0,0,0,0,0,0,0,0,0,-1,580,456,0,0
-637,568,0,0,0,0,0,0,0,0,0,-1,587,456,0,0
-630,568,0,0,0,0,0,0,0,0,0,-1,594,456,0,0
-623,568,0,0,0,0,0,0,0,0,0,-1,601,456,0,0
-616,568,0,0,0,0,0,0,0,0,0,-1,608,456,0,0
-609,568,0,0,0,0,0,0,0,0,0,-1,615,456,0,0
-602,568,0,0,0,0,0,0,0,0,0,-1,622,456,0,0
-595,568,0,0,0,0,0,0,0,0,0,-1,629,456,0,0
-588,568,0,0,0,0,0,0,0,0,0,-1,636,456,0,0
-581,568,0,0,0,0,0,0,0,0,0,-1,643,456,0,0
-574,568,0,0,0,0,0,0,0,0,0,-1,650,456,0,0
-567,568,0,0,0,0,0,0,0,0,0,-1,657,456,0,0
-560,568,0,0,0,0,0,0,0,0,0,-1,664,456,0,0
-553,568,0,0,0,0,0,0,0,0,0,-1,671,456,0,0
-546,568,0,0,0,0,0,0,0,0,0,-1,678,456,0,0
-539,568,0,0,0,0,0,0,0,0,0,-1,685,456,0,0
-532,568,0,0,0,0,0,0,0,0,0,-1,692,456,0,0
-525,568,0,0,0,0,0,0,0,0,0,-1,699,456,0,0
-518,568,0,0,0,0,0,0,0,0,0,-1,706,456,0,0
-511,568,0,0,0,0,0,0,0,0,0,-1,713,456,0,0
-504,568,0,0,0,0,0,0,0,0,0,-1,720,456,0,0
-497,568,0,0,0,0,0,0,0,0,0,-1,727,456,0,0
-490,568,0,0,0,0,0,0,0,0,0,-1,734,456,0,0
-483,568,0,0,0,0,0,0,0,0,0,-1,741,456,0,0
-476,568,0,0,0,0,0,0,0,0,0,-1,748,456,0,0
-469,568,0,0,0,0,0,0,0,0,0,-1,755,456,0,0
-462,568,0,0,0,0,0,0,0,0,0,-1,762,456,0,0
-455,568,0,0,0,0,0,0,0,0,0,-1,769,456,0,0
-448,568,0,0,0,0,0,0,0,0,0,-1,776,456,0,0
-441,568,0,0,0,0,0,0,0,0,0,-1,783,456,0,0
-434,568,0,0,0,0,0,0,0,0,0,-1,790,456,0,0
-427,568,0,0,0,0,0,0,0,0,0,-1,797,456,0,0
-420,568,0,0,0,0,0,0,0,0,0,-1,804,456,0,0
-413,568,0,0,0,0,0,0,0,0,0,-1,811,456,0,0
-406,568,0,0,0,0,0,0,0,0,0,-1,818,456,0,0
-399,568,0,0,0,0,0,0,0,0,0,-1,825,456,0,0
-392,568,0,0,0,0,0,0,0,0,0,-1,832,456,0,0
-385,568,0,0,0,0,0,0,0,0,0,-1,839,456,0,0
-378,568,0.321777,-7.29929,0,0,0,0,0,0,0,-1,846,456,0.321806,7.29927
-371,568,1.09595,-7.46707,0,0,0,0,0,0,0,-1,853,456,1.09597,7.46707
-364,568,2.70746,-23.4782,0,0,0,0,0,0,0,-1,860,456,2.70746,23.4782
-357,568,2.14166,-7.67645,0,0,0,0,0,0,0,-1,867,456,2.14167,7.67646
-350,568,2.7467,-11.2507,0,0,0,0,0,0,0,-1,874,456,2.7467,11.2507
-343,568,2.16516,-11.3762,0,0,0,0,0,0,0,-1,881,456,2.16514,11.3762
-336,568,1.14984,-29.3232,0,0,0,0,0,0,0,-1,888,456,1.14984,29.3231
-329,568,2.80359,-32.459,0,0,0,0,0,0,0,-1,895,456,2.80357,32.4591
-322,568,0.987793,-58.3259,0,0,0,0,0,0,0,-1,902,456,0.98779,58.3259
-315,568,0.755188,-84.5458,0,0,0,0,0,0,0,-1,909,456,0.755164,84.5458
-308,568,-1.79626,-152.83,0,0,0,0,0,0,0,-1,916,456,-1.79629,152.83
-301,568,-7.60577,-167.248,0,0,0,0,0,0,0,-1,923,456,-7.60576,167.248
-294,568,-30.0417,-174.982,0,0,0,0,0,0,0,-1,930,456,-30.0417,174.982
-287,568,-30.4469,-178.919,0,0,0,0,0,0,0,-1,937,456,-30.4469,178.919
-280,568,-30.799,-182.856,0,0,0,0,0,0,0,-1,944,456,-30.7989,182.856
-273,568,-31.3766,-186.233,0,0,0,0,0,0,0,-1,951,456,-31.3766,186.233
-266,568,-32.0956,-189.318,0.0524379,0.00386821,0.0371477,0.0725345,-0.0162283,0.495899,0.054576,0.0365878,958,456,-32.0956,189.318
-259,568,-32.3856,-192.465,0.0553956,0.00133381,0.038782,0.0756374,-0.018908,0.481045,0.0577684,0.0243414,965,456,-32.3856,192.465
-252,568,-32.7255,-195.463,0.0584296,-0.00049805,0.0398346,0.0785128,-0.0205813,0.466975,0.0603831,0.0249779,972,456,-32.7255,195.463
-245,568,-32.9907,-198.444,0.0611912,-0.00169021,0.0404739,0.0810014,-0.0215004,0.455177,0.0624146,0.0302369,979,456,-32.9906,198.444
-238,568,-33.1746,-201.419,0.0635796,-0.00252889,0.0410729,0.083247,-0.0221963,0.446577,0.064189,0.0258645,986,456,-33.1746,201.419
-231,568,-33.3463,-204.336,0.066456,-0.00341066,0.0419286,0.0860969,-0.0230516,0.43808,0.0664287,0.0209586,993,456,-33.3463,204.336
-224,568,-33.4755,-207.229,0.0697452,-0.00414554,0.0429407,0.0894466,-0.023847,0.430153,0.0689683,0.0228386,1000,456,-33.4755,207.229
-217,568,-33.4739,-209.999,0.0733383,-0.00507124,0.043867,0.0929666,-0.0246995,0.420731,0.0716445,0.0225763,1007,456,-33.4739,209.999
-210,568,-33.3299,-212.719,0.0772901,-0.00637257,0.0451105,0.0969796,-0.0260621,0.411548,0.0748681,0.0210405,1014,456,-33.3299,212.719
-203,568,-33.4648,-215.41,0.0815753,-0.00830722,0.0462936,0.101154,-0.0278858,0.40011,0.0784021,0.0246379,1021,456,-33.4648,215.41
-196,568,-33.6238,-217.682,0,0,0,0,0,0,0,-1,1028,456,-33.6238,217.682
-189,568,-33.5143,-219.712,0,0,0,0,0,0,0,-1,1035,456,-33.5143,219.712
-182,568,-32.6247,-223.019,0,0,0,0,0,0,0,-1,1042,456,-32.6247,223.019
-175,568,-32.11,-225.593,0,0,0,0,0,0,0,-1,1049,456,-32.11,225.593
-168,568,-31.3535,-228.048,0,0,0,0,0,0,0,-1,1056,456,-31.3535,228.048
-161,568,-2.68726,-108.88,0,0,0,0,0,0,0,-1,1063,456,-2.68729,108.88
-154,568,-0.830933,-89.7711,0,0,0,0,0,0,0,-1,1070,456,-0.830932,89.771
-147,568,2.48108,-65.0201,0,0,0,0,0,0,0,-1,1077,456,2.48114,65.0201
-140,568,2.39624,-65.523,0,0,0,0,0,0,0,-1,1084,456,2.39621,65.523
-133,568,2.48999,-60.2435,0,0,0,0,0,0,0,-1,1091,456,2.49001,60.2435
-126,568,2.47339,-55.9059,0,0,0,0,0,0,0,-1,1098,456,2.47343,55.9059
-119,568,1.89978,-50.8443,0,0,0,0,0,0,0,-1,1105,456,1.89978,50.8443
-112,568,1.98242,-35.0942,0,0,0,0,0,0,0,-1,1112,456,1.98247,35.0942
-105,568,2.02454,-25.038,0,0,0,0,0,0,0,-1,1119,456,2.02459,25.038
-98,568,1.58618,-14.7874,0,0,0,0,0,0,0,-1,1126,456,1.58617,14.7874
-91,568,1.11621,-11.1853,0,0,0,0,0,0,0,-1,1133,456,1.11626,11.1853
-84,568,0.461792,-9.7959,0,0,0,0,0,0,0,-1,1140,456,0.461793,9.7959
-77,568,-1.13806,-8.57822,0,0,0,0,0,0,0,-1,1147,456,-1.13807,8.57821
-70,568,-4.09766,-1.42911,0,0,0,0,0,0,0,-1,1154,456,-4.09767,1.4291
-63,568,-5.92273,-3.70752,0,0,0,0,0,0,0,-1,1161,456,-5.92272,3.70751
-56,568,-5.24158,-6.01385,0,0,0,0,0,0,0,-1,1168,456,-5.24161,6.01386
-49,568,-5.24365,-8.33557,0,0,0,0,0,0,0,-1,1175,456,-5.24371,8.33557
-42,568,-0.664795,0.521973,0,0,0,0,0,0,0,-1,1182,456,-0.664829,-0.521984
-35,568,-0.153076,-1.67731,0,0,0,0,0,0,0,-1,1189,456,-0.153068,1.67731
-28,568,1.25439,-4.48798,0,0,0,0,0,0,0,-1,1196,456,1.2544,4.48797
-21,568,11.6106,-260.357,0,0,0,0,0,0,0,-1,1203,456,11.6106,260.357
-14,568,11.0726,-260.852,0,0,0,0,0,0,0,-1,1210,456,11.0727,260.852
-7,568,10.8025,-261.585,0,0,0,0,0,0,0,-1,1217,456,10.8025,261.585
0,568,9.90906,-261.632,0,0,0,0,0,0,0,-1,1224,456,9.90907,261.632
7,568,9.14661,-261.878,0,0,0,0,0,0,0,-1,1231,456,9.14658,261.878
14,568,8.47729,-262.234,0,0,0,0,0,0,0,-1,1238,456,8.47726,262.234
21,568,7.68225,-262.495,0,0,0,0,0,0,0,-1,1245,456,7.68229,262.495
28,568,6.9502,-262.622,0,0,0,0,0,0,0,-1,1252,456,6.95019,262.622
35,568,6.24231,-262.843,0,0,0,0,0,0,0,-1,1259,456,6.24226,262.843
42,568,5.74854,-263.056,0,0,0,0,0,0,0,-1,1266,456,5.74851,263.056
49,568,1.11511,-259.927,0,0,0,0,0,0,0,-1,1273,456,1.11508,259.927
56,568,0.319458,-260.375,0,0,0,0,0,0,0,-1,1280,456,0.319447,260.375
63,568,-0.437134,-261.239,0,0,0,0,0,0,0,-1,1287,456,-0.437192,261.239
70,568,-0.38269,-262.504,0,0,0,0,0,0,0,-1,1294,456,-0.382684,262.504
77,568,-1.32764,-262.858,0,0,0,0,0,0,0,-1,1301,456,-1.32767,262.858
84,568,-2.20618,-262.988,0,0,0,0,0,0,0,-1,1308,456,-2.20614,262.988
91,568,-3.20679,-265.935,0,0,0,0,0,0,0,-1,1315,456,-3.20682,265.935
98,568,-4.34436,-266.463,0,0,0,0,0,0,0,-1,1322,456,-4.34434,266.463
105,568,-5.05347,-266.789,0,0,0,0,0,0,0,-1,1329,456,-5.05352,266.789
112,568,-5.66284,-267.155,0,0,0,0,0,0,0,-1,1336,456,-5.66287,267.155
119,568,-0.0877686,-271.507,0,0,0,0,0,0,0,-1,1343,456,-0.0877874,271.507
126,568,0.186035,-272.839,0,0,0,0,0,0,0,-1,1350,456,0.18605,272.839
133,568,0.181152,-274.631,0,0,0,0,0,0,0,-1,1357,456,0.18118,274.631
140,568,1.26111,-276.211,0,0,0,0,0,0,0,-1,1364,456,1.26112,276.211
147,568,2.00562,-277.526,0,0,0,0,0,0,0,-1,1371,456,2.00555,277.526
154,568,2.62842,-278.542,0,0,0,0,0,0,0,-1,1378,456,2.62838,278.542
161,568,3.58008,-280.036,0,0,0,0,0,0,0,-1,1385,456,3.58013,280.036
168,568,-11.53,-55.4321,0,0,0,0,0,0,0,-1,1392,456,-11.53,55.4321
175,568,10.5151,0.747498,0,0,0,0,0,0,0,-1,1399,456,10.5152,-0.747501
182,568,6.35095,-3.63361,0,0,0,0,0,0,0,-1,1406,456,6.35093,3.63359
189,568,6.17493,-1.70911,0,0,0,0,0,0,0,-1,1413,456,6.17497,1.70911
196,568,6.04724,0.200836,0,0,0,0,0,0,0,-1,1420,456,6.04724,-0.200835
203,568,5.9281,2.08649,0,0,0,0,0,0,0,-1,1427,456,5.92812,-2.08648
210,568,1.46216,-2.50446,0,0,0,0,0,0,0,-1,1434,456,1.46219,2.50446
217,568,2.62366,-7.86703,0,0,0,0,0,0,0,-1,1441,456,2.62365,7.86704
224,568,3.43494,-12.1555,0,0,0,0,0,0,0,-1,1448,456,3.43492,12.1555
231,568,4.38245,-9.3205,0,0,0,0,0,0,0,-1,1455,456,4.38244,9.32048
238,568,5.88879,-20.7448,0,0,0,0,0,0,0,-1,1462,456,5.88876,20.7449
245,568,3.34387,-10.6774,0,0,0,0,0,0,0,-1,1469,456,3.34389,10.6774
252,568,3.56946,-9.28928,0,0,0,0,0,0,0,-1,1476,456,3.56948,9.28928
259,568,3.38843,-8.73068,0,0,0,0,0,0,0,-1,1483,456,3.38842,8.73068
266,568,14.0127,-59.903,0,0,0,0,0,0,0,-1,1490,456,14.0127,59.9029
273,568,15.7317,-67.1277,0,0,0,0,0,0,0,-1,1497,456,15.7317,67.1278
280,568,16.2292,-72.0379,0,0,0,0,0,0,0,-1,1504,456,16.2293,72.0379
287,568,16.8087,-82.9175,0,0,0,0,0,0,0,-1,1511,456,16.8087,82.9175
294,568,19.5126,-106.497,0,0,0,0,0,0,0,-1,1518,456,19.5125,106.497
301,568,42.1104,-226.158,0,0,0,0,0,0,0,-1,1525,456,42.1103,226.158
308,568,42.3793,-223.632,0,0,0,0,0,0,0,-1,1532,456,42.3792,223.632
315,568,42.449,-221.163,0.111492,-0.00443245,-0.056898,0.134752,-0.0276921,-0.388066,0.100347,0.037723,1539,456,42.449,221.163
322,568,42.6775,-218.535,0.106487,-0.00222095,-0.0557884,0.130022,-0.025756,-0.39921,0.0964203,0.0251478,1546,456,42.6775,218.535
329,568,42.9055,-215.928,0.101757,0.000402012,-0.0544927,0.125495,-0.0233359,-0.410829,0.0924293,0.0190979,1553,456,42.9055,215.928
336,568,42.9937,-213.163,0.0969037,0.00234318,-0.0532188,0.120811,-0.0215641,-0.42221,0.0886077,0.0206826,1560,456,42.9937,213.163
343,568,43.2612,-210.298,0.0913609,0.00376317,-0.0515576,0.115212,-0.020088,-0.433292,0.0843056,0.0378919,1567,456,43.2612,210.298
350,568,43.4371,-207.482,0.0858269,0.00543688,-0.0495275,0.109418,-0.0181537,-0.44452,0.0796885,0.0323977,1574,456,43.4371,207.482
357,568,43.5033,-204.746,0.0801998,0.0072969,-0.0471639,0.103357,-0.0158598,-0.45641,0.0747539,0.0454289,1581,456,43.5033,204.746
364,568,43.6392,-202.3,0,0,0,0,0,0,0,-1,1588,456,43.6391,202.3
371,568,43.3965,-198.841,0,0,0,0,0,0,0,-1,1595,456,43.3964,198.841
378,568,42.7666,-195.748,0.0622339,0.0115716,-0.0377828,0.0823913,-0.00858584,-0.490093,0.0580017,0.0350741,1602,456,42.7665,195.748
385,568,42.2428,-192.598,0.0566154,0.0132995,-0.0340749,0.0753327,-0.00541786,-0.502306,0.0521217,0.0270171,1609,456,42.2428,192.598
392,568,41.6652,-189.578,0.0521081,0.0159587,-0.0296532,0.068761,-0.000694256,-0.511697,0.0460738,0.0362266,1616,456,41.6651,189.578
399,568,40.8551,-186.755,0,0,0,0,0,0,0,-1,1623,456,40.8551,186.755
406,568,41.4379,-183.004,0,0,0,0,0,0,0,-1,1630,456,41.4378,183.004
413,568,40.7997,-179.348,0,0,0,0,0,0,0,-1,1637,456,40.7997,179.348
420,568,40.3899,-176.117,0,0,0,0,0,0,0,-1,1644,456,40.3899,176.117
427,568,39.5966,-172.272,0,0,0,0,0,0,0,-1,1651,456,39.5965,172.272
434,568,14.1353,-161.818,0,0,0,0,0,0,0,-1,1658,456,14.1353,161.818
441,568,9.81958,-144.498,0,0,0,0,0,0,0,-1,1665,456,9.8196,144.498
448,568,15.3542,-50.0354,0,0,0,0,0,0,0,-1,1672,456,15.3542,50.0354
455,568,15.1589,-41.3369,0,0,0,0,0,0,0,-1,1679,456,15.1589,41.3369
462,568,14.3977,-40.8195,0,0,0,0,0,0,0,-1,1686,456,14.3977,40.8194
469,568,13.8547,-74.0195,0,0,0,0,0,0,0,-1,1693,456,13.8547,74.0195
476,568,14.7294,-42.0833,0,0,0,0,0,0,0,-1,1700,456,14.7293,42.0833
483,568,13.5175,-35.9629,0,0,0,0,0,0,0,-1,1707,456,13.5174,35.9629
490,568,9.21021,-25.4427,0,0,0,0,0,0,0,-1,1714,456,9.21025,25.4427
497,568,9.19275,-22.8114,0,0,0,0,0,0,0,-1,1721,456,9.19273,22.8114
504,568,0,0,0,0,0,0,0,0,0,-1,1728,456,0,0
511,568,0,0,0,0,0,0,0,0,0,-1,1735,456,0,0
518,568,0,0,0,0,0,0,0,0,0,-1,1742,456,0,0
525,568,0,0,0,0,0,0,0,0,0,-1,1749,456,0,0
532,568,0,0,0,0,0,0,0,0,0,-1,1756,456,0,0
539,568,0,0,0,0,0,0,0,0,0,-1,1763,456,0,0
546,568,0,0,0,0,0,0,0,0,0,-1,1770,456,0,0
553,568,0,0,0,0,0,0,0,0,0,-1,1777,456,0,0
560,568,0,0,0,0,0,0,0,0,0,-1,1784,456,0,0
567,568,0,0,0,0,0,0,0,0,0,-1,1791,456,0,0
574,568,0,0,0,0,0,0,0,0,0,-1,1798,456,0,0
581,568,0,0,0,0,0,0,0,0,0,-1,1805,456,0,0
588,568,0,0,0,0,0,0,0,0,0,-1,1812,456,0,0
595,568,0,0,0,0,0,0,0,0,0,-1,1819,456,0,0
602,568,0,0,0,0,0,0,0,0,0,-1,1826,456,0,0
609,568,0,0,0,0,0,0,0,0,0,-1,1833,456,0,0
616,568,0,0,0,0,0,0,0,0,0,-1,1840,456,0,0
623,568,0,0,0,0,0,0,0,0,0,-1,1847,456,0,0
630,568,0,0,0,0,0,0,0,0,0,-1,1854,456,0,0
637,568,0,0,0,0,0,0,0,0,0,-1,1861,456,0,0
644,568,0,0,0,0,0,0,0,0,0,-1,1868,456,0,0
651,568,0,0,0,0,0,0,0,0,0,-1,1875,456,0,0
658,568,0,0,0,0,0,0,0,0,0,-1,1882,456,0,0
665,568,0,0,0,0,0,0,0,0,0,-1,1889,456,0,0
672,568,0,0,0,0,0,0,0,0,0,-1,1896,456,0,0
679,568,0,0,0,0,0,0,0,0,0,-1,1903,456,0,0
686,568,0,0,0,0,0,0,0,0,0,-1,1910,456,0,0
693,568,0,0,0,0,0,0,0,0,0,-1,1917,456,0,0
700,568,0,0,0,0,0,0,0,0,0,-1,1924,456,0,0
707,568,0,0,0,0,0,0,0,0,0,-1,1931,456,0,0
714,568,0,0,0,0,0,0,0,0,0,-1,1938,456,0,0
721,568,0,0,0,0,0,0,0,0,0,-1,1945,456,0,0
728,568,0,0,0,0,0,0,0,0,0,-1,1952,456,0,0
735,568,0,0,0,0,0,0,0,0,0,-1,1959,456,0,0
742,568,0,0,0,0,0,0,0,0,0,-1,1966,456,0,0
749,568,0,0,0,0,0,0,0,0,0,-1,1973,456,0,0
756,568,0,0,0,0,0,0,0,0,0,-1,1980,456,0,0
763,568,0,0,0,0,0,0,0,0,0,-1,1987,456,0,0
770,568,0,0,0,0,0,0,0,0,0,-1,1994,456,0,0
777,568,0,0,0,0,0,0,0,0,0,-1,2001,456,0,0
784,568,0,0,0,0,0,0,0,0,0,-1,2008,456,0,0
791,568,0,0,0,0,0,0,0,0,0,-1,2015,456,0,0
798,568,0,0,0,0,0,0,0,0,0,-1,2022,456,0,0
805,568,0,0,0,0,0,0,0,0,0,-1,2029,456,0,0
812,568,0,0,0,0,0,0,0,0,0,-1,2036,456,0,0
-700,561,0,0,0,0,0,0,0,0,0,-1,524,463,0,0
-693,561,0,0,0,0,0,0,0,0,0,-1,531,463,0,0
-686,561,0,0,0,0,0,0,0,0,0,-1,538,463,0,0
-679,561,0,0,0,0,0,0,0,0,0,-1,545,463,0,0
-672,561,0,0,0,0,0,0,0,0,0,-1,552,463,0,0
-665,561,0,0,0,0,0,0,0,0,0,-1,559,463,0,0
-658,561,0,0,0,0,0,0,0,0,0,-1,566,463,0,0
-651,561,0,0,0,0,0,0,0,0,0,-1,573,463,0,0
-644,561,0,0,0,0,0,0,0,0,0,-1,580,463,0,0
-637,561,0,0,0,0,0,0,0,0,0,-1,587,463,0,0
-630,561,0,0,0,0,0,0,0,0,0,-1,594,463,0,0
-623,561,0,0,0,0,0,0,0,0,0,-1,601,463,0,0
-616,561,0,0,0,0,0,0,0,0,0,-1,608,463,0,0
-609,561,0,0,0,0,0,0,0,0,0,-1,615,463,0,0
-602,561,0,0,0,0,0,0,0,0,0,-1,622,463,0,0
-595,561,0,0,0,0,0,0,0,0,0,-1,629,463,0,0
-588,561,0,0,0,0,0,0,0,0,0,-1,636,463,0,0
-581,561,0,0,0,0,0,0,0,0,0,-1,643,463,0,0
-574,561,0,0,0,0,0,0,0,0,0,-1,650,463,0,0
-567,561,0,0,0,0,0,0,0,0,0,-1,657,463,0,0
-560,561,0,0,0,0,0,0,0,0,0,-1,664,463,0,0
-553,561,0,0,0,0,0,0,0,0,0,-1,671,463,0,0
-546,561,0,0,0,0,0,0,0,0,0,-1,678,463,0,0
-539,561,0,0,0,0,0,0,0,0,0,-1,685,463,0,0
-532,561,0,0,0,0,0,0,0,0,0,-1,692,463,0,0
-525,561,0,0,0,0,0,0,0,0,0,-1,699,463,0,0
-518,561,0,0,0,0,0,0,0,0,0,-1,706,463,0,0
-511,561,0,0,0,0,0,0,0,0,0,-1,713,463,0,0
-504,561,0,0,0,0,0,0,0,0,0,-1,720,463,0,0
-497,561,0,0,0,0,0,0,0,0,0,-1,727,463,0,0
-490,561,0,0,0,0,0,0,0,0,0,-1,734,463,0,0
-483,561,0,0,0,0,0,0,0,0,0,-1,741,463,0,0
-476,561,0,0,0,0,0,0,0,0,0,-1,748,463,0,0
-469,561,0,0,0,0,0,0,0,0,0,-1,755,463,0,0
-462,561,0,0,0,0,0,0,0,0,0,-1,762,463,0,0
-455,561,0,0,0,0,0,0,0,0,0,-1,769,463,0,0
-448,561,0,0,0,0,0,0,0,0,0,-1,776,463,0,0
-441,561,0,0,0,0,0,0,0,0,0,-1,783,463,0,0
-434,561,0,0,0,0,0,0,0,0,0,-1,790,463,0,0
-427,561,0,0,0,0,0,0,0,0,0,-1,797,463,0,0
-420,561,0,0,0,0,0,0,0,0,0,-1,804,463,0,0
-413,561,0,0,0,0,0,0,0,0,0,-1,811,463,0,0
-406,561,0,0,0,0,0,0,0,0,0,-1,818,463,0,0
-399,561,0,0,0,0,0,0,0,0,0,-1,825,463,0,0
-392,561,4.92407,-2.54578,0,0,0,0,0,0,0,-1,832,463,4.92408,2.54576
-385,561,5.55634,-1.02338,0,0,0,0,0,0,0,-1,839,463,5.55634,1.02338
-378,561,0.160522,-4.51785,0,0,0,0,0,0,0,-1,846,463,0.160542,4.51785
-371,561,2.62524,-27.795,0,0,0,0,0,0,0,-1,853,463,2.62525,27.7949
-364,561,3.72833,-30.5013,0,0,0,0,0,0,0,-1,860,463,3.72835,30.5013
-357,561,2.16742,-23.5582,0,0,0,0,0,0,0,-1,867,463,2.1674,23.5582
-350,561,1.33124,-11.9406,0,0,0,0,0,0,0,-1,874,463,1.33127,11.9406
-343,561,1.13214,-14.1837,0,0,0,0,0,0,0,-1,881,463,1.13217,14.1837
-336,561,2.91016,-36.595,0,0,0,0,0,0,0,-1,888,463,2.91014,36.595
-329,561,-3.06433,-115.89,0,0,0,0,0,0,0,-1,895,463,-3.06431,115.89
-322,561,-13.014,-156.581,0,0,0,0,0,0,0,-1,902,463,-13.014,156.581
-315,561,-31.3036,-163.219,0,0,0,0,0,0,0,-1,909,463,-31.3036,163.219
-308,561,-32.0478,-167.534,0,0,0,0,0,0,0,-1,916,463,-32.0478,167.534
-301,561,-33.2775,-171.084,0,0,0,0,0,0,0,-1,923,463,-33.2775,171.084
-294,561,-33.7797,-174.794,0.0430722,0.0114485,0.0296697,0.0608804,-0.00635966,0.540577,0.0428644,0.0329108,930,463,-33.7797,174.794
-287,561,-34.2172,-178.265,0.0472878,0.00851758,0.0339026,0.0669561,-0.0111507,0.525689,0.048781,0.0251609,937,463,-34.2172,178.265
-280,561,-34.5945,-181.651,0.0514739,0.00587469,0.037102,0.0722217,-0.0148731,0.509887,0.0537953,0.024248,944,463,-34.5945,181.651
-273,561,-35.1439,-185.055,0.0548666,0.0033876,0.0396221,0.0763757,-0.0181215,0.497342,0.0579106,0.0313461,951,463,-35.1439,185.055
-266,561,-35.6364,-188.256,0.0579339,0.00106301,0.041848,0.0800932,-0.0210963,0.486983,0.0616429,0.0205632,958,463,-35.6364,188.256
-259,561,-35.8594,-191.482,0.0608771,-0.00119896,0.0433882,0.083186,-0.0235078,0.474919,0.0647321,0.0176125,965,463,-35.8594,191.482
-252,561,-36.0603,-194.584,0.0637489,-0.00274629,0.0442707,0.0858665,-0.0248639,0.463326,0.0670861,0.0264558,972,463,-36.0603,194.584
-245,561,-36.3453,-197.624,0.0664515,-0.00371452,0.0447914,0.0882639,-0.0255269,0.453175,0.0689452,0.0307383,979,463,-36.3453,197.624
-238,561,-36.4833,-200.542,0.068738,-0.00432847,0.0452358,0.0903508,-0.0259412,0.445714,0.0704904,0.0257138,986,463,-36.4832,200.542
-231,561,-36.6315,-203.459,0.0715152,-0.00496001,0.0459822,0.0930813,-0.026526,0.438548,0.0725315,0.0210282,993,463,-36.6315,203.459
-224,561,-36.8484,-206.316,0.0747671,-0.00531671,0.046938,0.0964223,-0.0269719,0.432258,0.0749086,0.0229686,1000,463,-36.8485,206.316
-217,561,-36.7676,-209.116,0.078416,-0.00597687,0.04781,0.0999874,-0.0275483,0.423843,0.0774908,0.0300652,1007,463,-36.7676,209.116
-210,561,-36.4915,-211.951,0.0826867,-0.00708234,0.0490365,0.104279,-0.0286749,0.414788,0.0807922,0.0309366,1014,463,-36.4915,211.951
-203,561,-36.4233,-214.786,0.087433,-0.00887653,0.050168,0.108818,-0.030261,0.402936,0.0844588,0.0456098,1021,463,-36.4233,214.786
-196,561,-36.5546,-216.808,0,0,0,0,0,0,0,-1,1028,463,-36.5546,216.808
-189,561,-22.7559,-219.203,0,0,0,0,0,0,0,-1,1035,463,-22.7559,219.203
-182,561,-7.18176,-128.216,0,0,0,0,0,0,0,-1,1042,463,-7.18178,128.216
-175,561,-4.55042,-111.222,0,0,0,0,0,0,0,-1,1049,463,-4.55046,111.222
-168,561,-2.89514,-98.4026,0,0,0,0,0,0,0,-1,1056,463,-2.89508,98.4026
-161,561,-2.00903,-88.1659,0,0,0,0,0,0,0,-1,1063,463,-2.00904,88.1659
-154,561,1.63977,-64.6129,0,0,0,0,0,0,0,-1,1070,463,1.63981,64.6129
-147,561,1.70703,-65.0358,0,0,0,0,0,0,0,-1,1077,463,1.70703,65.0359
-140,561,2.1239,-59.8181,0,0,0,0,0,0,0,-1,1084,463,2.12391,59.818
-133,561,1.37939,-55.0099,0,0,0,0,0,0,0,-1,1091,463,1.37945,55.01
-126,561,1.77014,-49.4318,0,0,0,0,0,0,0,-1,1098,463,1.7702,49.4318
-119,561,-0.336304,-35.422,0,0,0,0,0,0,0,-1,1105,463,-0.336245,35.422
-112,561,1.24365,-29.1982,0,0,0,0,0,0,0,-1,1112,463,1.2437,29.1981
-105,561,0.530518,-13.5379,0,0,0,0,0,0,0,-1,1119,463,0.530477,13.5379
-98,561,1.5387,-7.54352,0,0,0,0,0,0,0,-1,1126,463,1.53871,7.54351
-91,561,1.29553,-6.57968,0,0,0,0,0,0,0,-1,1133,463,1.29549,6.5797
-84,561,1.23364,-5.84555,0,0,0,0,0,0,0,-1,1140,463,1.23363,5.84556
-77,561,-2.36023,1.00204,0,0,0,0,0,0,0,-1,1147,463,-2.3602,-1.00205
-70,561,-3.90015,-1.41541,0,0,0,0,0,0,0,-1,1154,463,-3.90009,1.4154
-63,561,-6.95691,-4.02756,0,0,0,0,0,0,0,-1,1161,463,-6.95696,4.02756
-56,561,-5.37988,-6.66855,0,0,0,0,0,0,0,-1,1168,463,-5.37988,6.66854
-49,561,-5.7439,-9.11029,0,0,0,0,0,0,0,-1,1175,463,-5.74387,9.1103
-42,561,-1.72644,-5.63065,0,0,0,0,0,0,0,-1,1182,463,-1.72648,5.63064
-35,561,-1.65674,-4.87994,0,0,0,0,0,0,0,-1,1189,463,-1.6567,4.87993
-28,561,-1.91418,-3.86896,0,0,0,0,0,0,0,-1,1196,463,-1.91414,3.86895
-21,561,12.7426,-259.872,0,0,0,0,0,0,0,-1,1203,463,12.7426,259.872
-14,561,12.769,-260.662,0,0,0,0,0,0,0,-1,1210,463,12.7691,260.662
-7,561,12.8448,-261.441,0,0,0,0,0,0,0,-1,1217,463,12.8448,261.441
0,561,11.5002,-260.36,0,0,0,0,0,0,0,-1,1224,463,11.5002,260.36
7,561,10.8525,-260.671,0,0,0,0,0,0,0,-1,1231,463,10.8525,260.671
14,561,10.1896,-261.032,0,0,0,0,0,0,0,-1,1238,463,10.1895,261.032
21,561,9.42273,-261.312,0,0,0,0,0,0,0,-1,1245,463,9.42268,261.312
28,561,8.49036,-261.359,0,0,0,0,0,0,0,-1,1252,463,8.49035,261.359
35,561,7.64563,-261.577,0,0,0,0,0,0,0,-1,1259,463,7.64561,261.577
42,561,1.6936,-257.837,0,0,0,0,0,0,0,-1,1266,463,1.69366,257.837
49,561,0.853638,-258.268,0,0,0,0,0,0,0,-1,1273,463,0.853634,258.268
56,561,0.222168,-258.944,0,0,0,0,0,0,0,-1,1280,463,0.222148,258.944
63,561,-0.547974,-259.829,0,0,0,0,0,0,0,-1,1287,463,-0.547921,259.829
70,561,-1.12769,-261.114,0,0,0,0,0,0,0,-1,1294,463,-1.12764,261.114
77,561,-1.46765,-261.786,0,0,0,0,0,0,0,-1,1301,463,-1.46763,261.786
84,561,-2.09534,-262.351,0,0,0,0,0,0,0,-1,1308,463,-2.09529,262.351
91,561,-2.66711,-262.921,0,0,0,0,0,0,0,-1,1315,463,-2.66714,262.921
98,561,-3.33997,-263.594,0,0,0,0,0,0,0,-1,1322,463,-3.34,263.594
105,561,-5.52222,-266.626,0,0,0,0,0,0,0,-1,1329,463,-5.52224,266.626
112,561,-0.793457,-268.922,0,0,0,0,0,0,0,-1,1336,463,-0.793418,268.922
119,561,-0.477661,-270.22,0,0,0,0,0,0,0,-1,1343,463,-0.477639,270.22
126,561,-0.150757,-271.556,0,0,0,0,0,0,0,-1,1350,463,-0.150792,271.556
133,561,0.256714,-273.153,0,0,0,0,0,0,0,-1,1357,463,0.256661,273.153
140,561,0.983154,-275.321,0,0,0,0,0,0,0,-1,1364,463,0.983119,275.321
147,561,-2.01367,-261.071,0,0,0,0,0,0,0,-1,1371,463,-2.01365,261.072
154,561,1.76245,-276.836,0,0,0,0,0,0,0,-1,1378,463,1.7624,276.836
161,561,-4.17432,-262.227,0,0,0,0,0,0,0,-1,1385,463,-4.17436,262.227
168,561,-16.1415,-265.938,0,0,0,0,0,0,0,-1,1392,463,-16.1415,265.938
175,561,10.4185,0.276398,0,0,0,0,0,0,0,-1,1399,463,10.4185,-0.276394
182,561,6.45703,-4.02127,0,0,0,0,0,0,0,-1,1406,463,6.45704,4.02127
189,561,6.50854,-2.08685,0,0,0,0,0,0,0,-1,1413,463,6.50851,2.08686
196,561,6.44775,-0.27182,0,0,0,0,0,0,0,-1,1420,463,6.44773,0.271814
203,561,6.18591,1.1301,0,0,0,0,0,0,0,-1,1427,463,6.18592,-1.13009
210,561,5.68713,2.68427,0,0,0,0,0,0,0,-1,1434,463,5.6871,-2.68425
217,561,3.61743,-7.33582,0,0,0,0,0,0,0,-1,1441,463,3.61738,7.33581
224,561,4.27466,-8.59171,0,0,0,0,0,0,0,-1,1448,463,4.27466,8.59171
231,561,4.93188,-9.8476,0,0,0,0,0,0,0,-1,1455,463,4.93193,9.84761
238,561,2.18018,-5.18359,0,0,0,0,0,0,0,-1,1462,463,2.18023,5.18359
245,561,3.07568,-3.50238,0,0,0,0,0,0,0,-1,1469,463,3.0757,3.50238
252,561,3.47412,-3.71109,0,0,0,0,0,0,0,-1,1476,463,3.47413,3.71109
259,561,3.42212,-3.2334,0,0,0,0,0,0,0,-1,1483,463,3.42214,3.2334
266,561,4.44373,-5.90027,0,0,0,0,0,0,0,-1,1490,463,4.44372,5.90026
273,561,16.3015,-62.0638,0,0,0,0,0,0,0,-1,1497,463,16.3016,62.0639
280,561,16.6068,-65.9482,0,0,0,0,0,0,0,-1,1504,463,16.6068,65.9482
287,561,17.3195,-70.585,0,0,0,0,0,0,0,-1,1511,463,17.3194,70.585
294,561,17.6993,-75.0805,0,0,0,0,0,0,0,-1,1518,463,17.6994,75.0805
301,561,20.2274,-97.1867,0,0,0,0,0,0,0,-1,1525,463,20.2275,97.1867
308,561,21.4679,-112.982,0,0,0,0,0,0,0,-1,1532,463,21.4678,112.982
315,561,45.397,-220.871,0,0,0,0,0,0,0,-1,1539,463,45.397,220.871
322,561,45.5885,-217.931,0,0,0,0,0,0,0,-1,1546,463,45.5885,217.931
329,561,45.9078,-215.181,0,0,0,0,0,0,0,-1,1553,463,45.9078,215.181
336,561,46.1964,-212.358,0.105503,0.00191952,-0.0594424,0.132552,-0.0251289,-0.427034,0.097826,0.03446,1560,463,46.1964,212.358
343,561,46.5444,-209.61,0.100061,0.0028241,-0.0580774,0.127184,-0.0242986,-0.436909,0.0939424,0.0317584,1567,463,46.5444,209.61
350,561,46.5934,-206.697,0.0945667,0.00424465,-0.0562734,0.12156,-0.0227484,-0.447258,0.0895905,0.0307955,1574,463,46.5934,206.697
357,561,46.5391,-203.725,0,0,0,0,0,0,0,-1,1581,463,46.539,203.725
364,561,25.8826,-196.416,0,0,0,0,0,0,0,-1,1588,463,25.8825,196.416
371,561,46.1204,-197.932,0,0,0,0,0,0,0,-1,1595,463,46.1203,197.932
378,561,46.1453,-194.91,0,0,0,0,0,0,0,-1,1602,463,46.1452,194.91
385,561,45.8411,-191.682,0.066049,0.0110097,-0.0416564,0.0884552,-0.0113965,-0.493491,0.0631129,0.0232633,1609,463,45.8411,191.682
392,561,45.5944,-188.612,0.0610311,0.0132466,-0.0374909,0.0815956,-0.00731794,-0.501707,0.0569932,0.0365054,1616,463,45.5944,188.612
399,561,45.2133,-185.679,0,0,0,0,0,0,0,-1,1623,463,45.2133,185.679
406,561,45.1283,-182.044,0,0,0,0,0,0,0,-1,1630,463,45.1283,182.044
413,561,44.9102,-178.56,0,0,0,0,0,0,0,-1,1637,463,44.9102,178.56
420,561,43.9636,-175.07,0.0483822,0.0219201,-0.025727,0.064081,0.00622133,-0.547892,0.0408053,0.0204254,1644,463,43.9636,175.07
427,561,43.4031,-171.43,0.0479658,0.0252189,-0.0231696,0.0624029,0.0107818,-0.557237,0.0385144,0.0319866,1651,463,43.4031,171.43
434,561,42.8934,-167.841,0,0,0,0,0,0,0,-1,1658,463,42.8935,167.841
441,561,42.5703,-163.597,0,0,0,0,0,0,0,-1,1665,463,42.5703,163.597
448,561,12.2344,-140.326,0,0,0,0,0,0,0,-1,1672,463,12.2343,140.326
455,561,12.9248,-110.453,0,0,0,0,0,0,0,-1,1679,463,12.9249,110.453
462,561,16.1986,-76.7032,0,0,0,0,0,0,0,-1,1686,463,16.1986,76.7032
469,561,15.9751,-73.8943,0,0,0,0,0,0,0,-1,1693,463,15.9751,73.8943
476,561,15.6277,-72.0689,0,0,0,0,0,0,0,-1,1700,463,15.6277,72.0689
483,561,15.0601,-41.4633,0,0,0,0,0,0,0,-1,1707,463,15.0601,41.4632
490,561,13.1162,-34.5897,0,0,0,0,0,0,0,-1,1714,463,13.1162,34.5897
497,561,11.7618,-20.3894,0,0,0,0,0,0,0,-1,1721,463,11.7618,20.3894
504,561,12.9351,-20.1285,0,0,0,0,0,0,0,-1,1728,463,12.935,20.1285
511,561,0,0,0,0,0,0,0,0,0,-1,1735,463,0,0
518,561,0,0,0,0,0,0,0,0,0,-1,1742,463,0,0
525,561,0,0,0,0,0,0,0,0,0,-1,1749,463,0,0
532,561,0,0,0,0,0,0,0,0,0,-1,1756,463,0,0
539,561,0,0,0,0,0,0,0,0,0,-1,1763,463,0,0
546,561,0,0,0,0,0,0,0,0,0,-1,1770,463,0,0
553,561,0,0,0,0,0,0,0,0,0,-1,1777,463,0,0
560,561,0,0,0,0,0,0,0,0,0,-1,1784,463,0,0
567,561,0,0,0,0,0,0,0,0,0,-1,1791,463,0,0
574,561,0,0,0,0,0,0,0,0,0,-1,1798,463,0,0
581,561,0,0,0,0,0,0,0,0,0,-1,1805,463,0,0
588,561,0,0,0,0,0,0,0,0,0,-1,1812,463,0,0
595,561,0,0,0,0,0,0,0,0,0,-1,1819,463,0,0
602,561,0,0,0,0,0,0,0,0,0,-1,1826,463,0,0
609,561,0,0,0,0,0,0,0,0,0,-1,1833,463,0,0
616,561,0,0,0,0,0,0,0,0,0,-1,1840,463,0,0
623,561,0,0,0,0,0,0,0,0,0,-1,1847,463,0,0
630,561,0,0,0,0,0,0,0,0,0,-1,1854,463,0,0
637,561,0,0,0,0,0,0,0,0,0,-1,1861,463,0,0
644,561,0,0,0,0,0,0,0,0,0,-1,1868,463,0,0
651,561,0,0,0,0,0,0,0,0,0,-1,1875,463,0,0
658,561,0,0,0,0,0,0,0,0,0,-1,1882,463,0,0
665,561,0,0,0,0,0,0,0,0,0,-1,1889,463,0,0
672,561,0,0,0,0,0,0,0,0,0,-1,1896,463,0,0
679,561,0,0,0,0,0,0,0,0,0,-1,1903,463,0,0
686,561,0,0,0,0,0,0,0,0,0,-1,1910,463,0,0
693,561,0,0,0,0,0,0,0,0,0,-1,1917,463,0,0
700,561,0,0,0,0,0,0,0,0,0,-1,1924,463,0,0
707,561,0,0,0,0,0,0,0,0,0,-1,1931,463,0,0
714,561,0,0,0,0,0,0,0,0,0,-1,1938,463,0,0
721,561,0,0,0,0,0,0,0,0,0,-1,1945,463,0,0
728,561,0,0,0,0,0,0,0,0,0,-1,1952,463,0,0
735,561,0,0,0,0,0,0,0,0,0,-1,1959,463,0,0
742,561,0,0,0,0,0,0,0,0,0,-1,1966,463,0,0
749,561,0,0,0,0,0,0,0,0,0,-1,1973,463,0,0
756,561,0,0,0,0,0,0,0,0,0,-1,1980,463,0,0
763,561,0,0,0,0,0,0,0,0,0,-1,1987,463,0,0
770,561,0,0,0,0,0,0,0,0,0,-1,1994,463,0,0
777,561,0,0,0,0,0,0,0,0,0,-1,2001,463,0,0
784,561,0,0,0,0,0,0,0,0,0,-1,2008,463,0,0
791,561,0,0,0,0,0,0,0,0,0,-1,2015,463,0,0
798,561,0,0,0,0,0,0,0,0,0,-1,2022,463,0,0
805,561,0,0,0,0,0,0,0,0,0,-1,2029,463,0,0
812,561,0,0,0,0,0,0,0,0,0,-1,2036,463,0,0
-700,554,0,0,0,0,0,0,0,0,0,-1,524,470,0,0
-693,554,0,0,0,0,0,0,0,0,0,-1,531,470,0,0
-686,554,0,0,0,0,0,0,0,0,0,-1,538,470,0,0
-679,554,0,0,0,0,0,0,0,0,0,-1,545,470,0,0
-672,554,0,0,0,0,0,0,0,0,0,-1,552,470,0,0
-665,554,0,0,0,0,0,0,0,0,0,-1,559,470,0,0
-658,554,0,0,0,0,0,0,0,0,0,-1,566,470,0,0
-651,554,0,0,0,0,0,0,0,0,0,-1,573,470,0,0
-644,554,0,0,0,0,0,0,0,0,0,-1,580,470,0,0
-637,554,0,0,0,0,0,0,0,0,0,-1,587,470,0,0
-630,554,0,0,0,0,0,0,0,0,0,-1,594,470,0,0
-623,554,0,0,0,0,0,0,0,0,0,-1,601,470,0,0
-616,554,0,0,0,0,0,0,0,0,0,-1,608,470,0,0
-609,554,0,0,0,0,0,0,0,0,0,-1,615,470,0,0
-602,554,0,0,0,0,0,0,0,0,0,-1,622,470,0,0
-595,554,0,0,0,0,0,0,0,0,0,-1,629,470,0,0
-588,554,0,0,0,0,0,0,0,0,0,-1,636,470,0,0
-581,554,0,0,0,0,0,0,0,0,0,-1,643,470,0,0
-574,554,0,0,0,0,0,0,0,0,0,-1,650,470,0,0
-567,554,0,0,0,0,0,0,0,0,0,-1,657,470,0,0
-560,554,0,0,0,0,0,0,0,0,0,-1,664,470,0,0
-553,554,0,0,0,0,0,0,0,0,0,-1,671,470,0,0
-546,554,0,0,0,0,0,0,0,0,0,-1,678,470,0,0
-539,554,0,0,0,0,0,0,0,0,0,-1,685,470,0,0
-532,554,0,0,0,0,0,0,0,0,0,-1,692,470,0,0
-525,554,0,0,0,0,0,0,0,0,0,-1,699,470,0,0
-518,554,0,0,0,0,0,0,0,0,0,-1,706,470,0,0
-511,554,0,0,0,0,0,0,0,0,0,-1,713,470,0,0
-504,554,0,0,0,0,0,0,0,0,0,-1,720,470,0,0
-497,554,0,0,0,0,0,0,0,0,0,-1,727,470,0,0
-490,554,0,0,0,0,0,0,0,0,0,-1,734,470,0,0
-483,554,0,0,0,0,0,0,0,0,0,-1,741,470,0,0
-476,554,0,0,0,0,0,0,0,0,0,-1,748,470,0,0
-469,554,0,0,0,0,0,0,0,0,0,-1,755,470,0,0
-462,554,0,0,0,0,0,0,0,0,0,-1,762,470,0,0
-455,554,0,0,0,0,0,0,0,0,0,-1,769,470,0,0
-448,554,0,0,0,0,0,0,0,0,0,-1,776,470,0,0
-441,554,0,0,0,0,0,0,0,0,0,-1,783,470,0,0
-434,554,0,0,0,0,0,0,0,0,0,-1,790,470,0,0
-427,554,0,0,0,0,0,0,0,0,0,-1,797,470,0,0
-420,554,0,0,0,0,0,0,0,0,0,-1,804,470,0,0
-413,554,0,0,0,0,0,0,0,0,0,-1,811,470,0,0
-406,554,0,0,0,0,0,0,0,0,0,-1,818,470,0,0
-399,554,-1.32275,-3.95142,0,0,0,0,0,0,0,-1,825,470,-1.32275,3.95141
-392,554,-1.35632,-3.7406,0,0,0,0,0,0,0,-1,832,470,-1.35632,3.7406
-385,554,1.54614,-28.7236,0,0,0,0,0,0,0,-1,839,470,1.54616,28.7236
-378,554,1.92175,-29.1808,0,0,0,0,0,0,0,-1,846,470,1.92174,29.1808
-371,554,2.90704,-29.4795,0,0,0,0,0,0,0,-1,853,470,2.90703,29.4795
-364,554,2.69928,-30.6884,0,0,0,0,0,0,0,-1,860,470,2.69926,30.6884
-357,554,2.43024,-31.9178,0,0,0,0,0,0,0,-1,867,470,2.43024,31.9178
-350,554,1.17157,-18.1341,0,0,0,0,0,0,0,-1,874,470,1.17156,18.1341
-343,554,2.02539,-41.0046,0,0,0,0,0,0,0,-1,881,470,2.02541,41.0046
-336,554,-5.33704,-112.343,0,0,0,0,0,0,0,-1,888,470,-5.33704,112.343
-329,554,-15.7035,-151.576,0,0,0,0,0,0,0,-1,895,470,-15.7035,151.576
-322,554,-34.687,-158.696,0,0,0,0,0,0,0,-1,902,470,-34.687,158.696
-315,554,-35.2473,-162.615,0.0377763,0.0154833,0.021786,0.0511017,0.00215789,0.548941,0.0333718,0.0498205,909,470,-35.2473,162.615
-308,554,-36.005,-166.506,0.0423018,0.0137336,0.0261691,0.0578314,-0.00179601,0.535577,0.0391667,0.0366163,916,470,-36.005,166.506
-301,554,-36.814,-170.139,0.0456885,0.0112327,0.0308955,0.0638349,-0.00691356,0.531062,0.0450383,0.0274781,923,470,-36.814,170.139
-294,554,-37.4631,-173.638,0.0493102,0.00830686,0.0353695,0.0696903,-0.0120733,0.52274,0.0509636,0.0182391,930,470,-37.4631,173.638
-287,554,-37.9772,-177.119,0.0532537,0.00547415,0.0392702,0.0753299,-0.0166021,0.512132,0.0565719,0.0180072,937,470,-37.9772,177.119
-280,554,-38.508,-180.587,0.0569324,0.00294301,0.0423053,0.0801219,-0.0202465,0.501419,0.0612885,0.0192672,944,470,-38.508,180.587
-273,554,-38.9399,-184.015,0.0602367,0.000498275,0.0446527,0.0840893,-0.0233543,0.490617,0.0652526,0.0240144,951,470,-38.94,184.015
-266,554,-39.3132,-187.276,0.0634297,-0.00161416,0.0466552,0.0877794,-0.0259639,0.48102,0.0688265,0.0197446,958,470,-39.3132,187.276
-259,554,-39.4874,-190.348,0.0663767,-0.00357408,0.0479492,0.0907512,-0.0279485,0.470296,0.0716574,0.020375,965,470,-39.4873,190.348
-252,554,-39.5291,-193.419,0.0691535,-0.0048718,0.0485018,0.093152,-0.0288703,0.459476,0.0736361,0.0249634,972,470,-39.529,193.419
-245,554,-39.5228,-196.641,0.0717686,-0.00564669,0.0488168,0.0953615,-0.0292396,0.450195,0.0752392,0.0231275,979,470,-39.5228,196.641
-238,554,-39.8614,-199.693,0.07392,-0.00603286,0.04901,0.0971899,-0.0293027,0.443284,0.0764561,0.022767,986,470,-39.8614,199.693
-231,554,-39.9976,-202.691,0.0765008,-0.00636678,0.04952,0.0996347,-0.0295007,0.437035,0.0781357,0.0238947,993,470,-39.9976,202.691
-224,554,-40.0323,-205.497,0.0795912,-0.00625233,0.0503175,0.102807,-0.0294678,0.432276,0.080186,0.0305054,1000,470,-40.0323,205.497
-217,554,-39.9763,-208.373,0.0831275,-0.00648843,0.0510989,0.106282,-0.0296426,0.425449,0.0825293,0.0454646,1007,470,-39.9763,208.373
-210,554,-39.8536,-211.323,0,0,0,0,0,0,0,-1,1014,470,-39.8536,211.323
-203,554,-39.4025,-214.223,0,0,0,0,0,0,0,-1,1021,470,-39.4024,214.223
-196,554,-9.70605,-128.487,0,0,0,0,0,0,0,-1,1028,470,-9.70603,128.487
-189,554,-4.25269,-93.2308,0,0,0,0,0,0,0,-1,1035,470,-4.25265,93.2308
-182,554,-3.94775,-89.1434,0,0,0,0,0,0,0,-1,1042,470,-3.94776,89.1434
-175,554,-3.32971,-84.2911,0,0,0,0,0,0,0,-1,1049,470,-3.3297,84.2911
-168,554,-2.08459,-77.5436,0,0,0,0,0,0,0,-1,1056,470,-2.08462,77.5436
-161,554,1.09583,-42.015,0,0,0,0,0,0,0,-1,1063,470,1.09577,42.015
-154,554,1.03186,-42.7216,0,0,0,0,0,0,0,-1,1070,470,1.03187,42.7216
-147,554,1.4552,-41.5187,0,0,0,0,0,0,0,-1,1077,470,1.45525,41.5187
-140,554,0.428101,-38.9893,0,0,0,0,0,0,0,-1,1084,470,0.428152,38.9893
-133,554,2.67163,-32.8187,0,0,0,0,0,0,0,-1,1091,470,2.67161,32.8187
-126,554,0.851929,-33.5393,0,0,0,0,0,0,0,-1,1098,470,0.851942,33.5393
-119,554,-1.03479,-32.1628,0,0,0,0,0,0,0,-1,1105,470,-1.03476,32.1628
-112,554,1.03162,-24.5784,0,0,0,0,0,0,0,-1,1112,470,1.03156,24.5784
-105,554,0.608765,-21.0475,0,0,0,0,0,0,0,-1,1119,470,0.608728,21.0475
-98,554,1.51929,-7.3624,0,0,0,0,0,0,0,-1,1126,470,1.51928,7.36241
-91,554,1.41089,-6.5864,0,0,0,0,0,0,0,-1,1133,470,1.41093,6.58638
-84,554,1.62305,-5.87186,0,0,0,0,0,0,0,-1,1140,470,1.62299,5.87186
-77,554,-2.56958,1.33258,0,0,0,0,0,0,0,-1,1147,470,-2.56959,-1.33257
-70,554,-3.68164,-1.18332,0,0,0,0,0,0,0,-1,1154,470,-3.68158,1.18331
-63,554,-4.86853,-3.88708,0,0,0,0,0,0,0,-1,1161,470,-4.86853,3.88708
-56,554,-5.69958,-6.45422,0,0,0,0,0,0,0,-1,1168,470,-5.69955,6.45422
-49,554,-6.23645,-8.8569,0,0,0,0,0,0,0,-1,1175,470,-6.23643,8.85689
-42,554,-6.62524,-11.5382,0,0,0,0,0,0,0,-1,1182,470,-6.62522,11.5382
-35,554,-2.40173,-4.59482,0,0,0,0,0,0,0,-1,1189,470,-2.40169,4.59481
-28,554,-0.760132,-1.65555,0,0,0,0,0,0,0,-1,1196,470,-0.760095,1.65556
-21,554,7.18884,-69.2834,0,0,0,0,0,0,0,-1,1203,470,7.18885,69.2834
-14,554,14.1346,-260.309,0,0,0,0,0,0,0,-1,1210,470,14.1346,260.309
-7,554,14.3154,-261.317,0,0,0,0,0,0,0,-1,1217,470,14.3154,261.317
0,554,14.8018,-262.266,0,0,0,0,0,0,0,-1,1224,470,14.8018,262.266
7,554,12.5768,-259.507,0,0,0,0,0,0,0,-1,1231,470,12.5768,259.507
14,554,11.8755,-259.834,0,0,0,0,0,0,0,-1,1238,470,11.8754,259.834
21,554,11.1172,-260.12,0,0,0,0,0,0,0,-1,1245,470,11.1172,260.12
28,554,10.2469,-260.253,0,0,0,0,0,0,0,-1,1252,470,10.247,260.253
35,554,4.92322,-261.715,0,0,0,0,0,0,0,-1,1259,470,4.92322,261.715
42,554,3.95569,-261.705,0,0,0,0,0,0,0,-1,1266,470,3.95574,261.705
49,554,0.407104,-256.597,0,0,0,0,0,0,0,-1,1273,470,0.407082,256.597
56,554,0.000610352,-259.092,0,0,0,0,0,0,0,-1,1280,470,0.000602405,259.092
63,554,-0.641113,-259.658,0,0,0,0,0,0,0,-1,1287,470,-0.641105,259.658
70,554,-1.30225,-260.206,0,0,0,0,0,0,0,-1,1294,470,-1.30222,260.206
77,554,-1.91089,-260.733,0,0,0,0,0,0,0,-1,1301,470,-1.91092,260.733
84,554,-2.46851,-261.341,0,0,0,0,0,0,0,-1,1308,470,-2.46855,261.341
91,554,-2.98669,-262.121,0,0,0,0,0,0,0,-1,1315,470,-2.98671,262.121
98,554,-3.45227,-262.777,0,0,0,0,0,0,0,-1,1322,470,-3.45231,262.777
105,554,-3.77502,-263.62,0,0,0,0,0,0,0,-1,1329,470,-3.775,263.62
112,554,-1.43677,-267.517,0,0,0,0,0,0,0,-1,1336,470,-1.4368,267.517
119,554,-1.00391,-268.904,0,0,0,0,0,0,0,-1,1343,470,-1.00391,268.904
126,554,-0.61731,-270.253,0,0,0,0,0,0,0,-1,1350,470,-0.617349,270.253
133,554,-0.0772705,-271.924,0,0,0,0,0,0,0,-1,1357,470,-0.077212,271.924
140,554,0.632446,-273.478,0,0,0,0,0,0,0,-1,1364,470,0.632401,273.478
147,554,-1.17664,-258.791,0,0,0,0,0,0,0,-1,1371,470,-1.1766,258.791
154,554,-1.42676,-259.301,0,0,0,0,0,0,0,-1,1378,470,-1.42674,259.301
161,554,-15.522,-255.882,0,0,0,0,0,0,0,-1,1385,470,-15.5219,255.882
168,554,-15.8523,-254.804,0,0,0,0,0,0,0,-1,1392,470,-15.8523,254.804
175,554,10.663,0.286957,0,0,0,0,0,0,0,-1,1399,470,10.663,-0.286966
182,554,6.71106,-4.50217,0,0,0,0,0,0,0,-1,1406,470,6.71107,4.50215
189,554,6.90479,-2.50348,0,0,0,0,0,0,0,-1,1413,470,6.90477,2.50348
196,554,6.96216,-0.740906,0,0,0,0,0,0,0,-1,1420,470,6.96214,0.740912
203,554,6.43518,0.414154,0,0,0,0,0,0,0,-1,1427,470,6.43523,-0.414141
210,554,6.21167,1.96707,0,0,0,0,0,0,0,-1,1434,470,6.21165,-1.96706
217,554,5.64551,3.4989,0,0,0,0,0,0,0,-1,1441,470,5.64555,-3.49891
224,554,4.85144,-8.85172,0,0,0,0,0,0,0,-1,1448,470,4.85146,8.85173
231,554,3.25073,-5.29642,0,0,0,0,0,0,0,-1,1455,470,3.25078,5.29642
238,554,4.28625,-3.25253,0,0,0,0,0,0,0,-1,1462,470,4.28622,3.25252
245,554,4.0752,-2.90033,0,0,0,0,0,0,0,-1,1469,470,4.07515,2.90032
252,554,3.52112,-0.934998,0,0,0,0,0,0,0,-1,1476,470,3.52113,0.934996
259,554,3.96448,-2.16425,0,0,0,0,0,0,0,-1,1483,470,3.96446,2.16424
266,554,3.0592,-2.71716,0,0,0,0,0,0,0,-1,1490,470,3.05923,2.71718
273,554,2.58521,-3.06876,0,0,0,0,0,0,0,-1,1497,470,2.58524,3.06874
280,554,17.1266,-60.7137,0,0,0,0,0,0,0,-1,1504,470,17.1266,60.7137
287,554,15.8918,-56.7317,0,0,0,0,0,0,0,-1,1511,470,15.8918,56.7317
294,554,18.4086,-63.1683,0,0,0,0,0,0,0,-1,1518,470,18.4085,63.1683
301,554,18.8044,-71.5027,0,0,0,0,0,0,0,-1,1525,470,18.8045,71.5028
308,554,21.7498,-95.5919,0,0,0,0,0,0,0,-1,1532,470,21.7498,95.5919
315,554,22.215,-100.177,0,0,0,0,0,0,0,-1,1539,470,22.215,100.177
322,554,22.08,-98.105,0,0,0,0,0,0,0,-1,1546,470,22.08,98.105
329,554,23.7661,-126.615,0,0,0,0,0,0,0,-1,1553,470,23.7661,126.615
336,554,49.4731,-211.704,0,0,0,0,0,0,0,-1,1560,470,49.4732,211.704
343,554,49.8722,-208.923,0,0,0,0,0,0,0,-1,1567,470,49.8722,208.923
350,554,49.7784,-205.87,0,0,0,0,0,0,0,-1,1574,470,49.7784,205.87
357,554,49.7614,-202.753,0,0,0,0,0,0,0,-1,1581,470,49.7614,202.753
364,554,49.6858,-200.051,0,0,0,0,0,0,0,-1,1588,470,49.6858,200.051
371,554,49.6295,-197.099,0.0873233,0.00681782,-0.0554273,0.115572,-0.0214311,-0.471343,0.0850962,0.0350241,1595,470,49.6295,197.099
378,554,49.524,-193.91,0.0814464,0.00780108,-0.052285,0.108574,-0.0193265,-0.478606,0.0796106,0.020362,1602,470,49.524,193.91
385,554,49.4519,-190.731,0.0755814,0.00938994,-0.0485057,0.101206,-0.0162351,-0.486022,0.0734829,0.0188291,1609,470,49.4519,190.731
392,554,49.3541,-187.633,0.0698428,0.0111426,-0.0444876,0.0937898,-0.0128044,-0.493803,0.0672025,0.0232612,1616,470,49.3541,187.633
399,554,49.0442,-184.23,0.0648128,0.0126207,-0.0409169,0.0872471,-0.00981363,-0.501529,0.0616967,0.0257158,1623,470,49.0442,184.23
406,554,48.8384,-180.865,0.0609583,0.0143737,-0.0379885,0.0822268,-0.00689469,-0.510385,0.0572546,0.0266937,1630,470,48.8384,180.865
413,554,48.3463,-177.53,0.0579031,0.0160076,-0.0350079,0.0777519,-0.00384121,-0.515787,0.0531613,0.0225965,1637,470,48.3463,177.53
420,554,47.58,-174.117,0.0557294,0.0179709,-0.0327421,0.0746453,-0.000944961,-0.523879,0.0500815,0.0237417,1644,470,47.58,174.117
427,554,47.2039,-170.521,0.0544473,0.0204792,-0.0304581,0.0723367,0.00258991,-0.531061,0.0473847,0.0303191,1651,470,47.2038,170.521
434,554,46.8928,-166.981,0.0539163,0.0231236,-0.0287603,0.0711421,0.00589785,-0.539642,0.0455895,0.0363976,1658,470,46.8928,166.981
441,554,46.4717,-163.145,0.0532669,0.0257895,-0.0272708,0.0700642,0.00899216,-0.552062,0.0440193,0.0467886,1665,470,46.4717,163.145
448,554,46.0448,-159.339,0,0,0,0,0,0,0,-1,1672,470,46.0448,159.339
455,554,44.4861,-155.315,0,0,0,0,0,0,0,-1,1679,470,44.4861,155.315
462,554,37.4185,-150.289,0,0,0,0,0,0,0,-1,1686,470,37.4184,150.289
469,554,16.9983,-83.4775,0,0,0,0,0,0,0,-1,1693,470,16.9982,83.4776
476,554,17.3702,-71.8294,0,0,0,0,0,0,0,-1,1700,470,17.3703,71.8294
483,554,16.5232,-37.438,0,0,0,0,0,0,0,-1,1707,470,16.5232,37.438
490,554,12.5504,-17.9805,0,0,0,0,0,0,0,-1,1714,470,12.5505,17.9805
497,554,14.3204,-17.9055,0,0,0,0,0,0,0,-1,1721,470,14.3204,17.9055
504,554,2.13257,-3.81628,0,0,0,0,0,0,0,-1,1728,470,2.1326,3.8163
511,554,1.31396,-4.02713,0,0,0,0,0,0,0,-1,1735,470,1.31398,4.02712
518,554,5.04236,-5.9472,0,0,0,0,0,0,0,-1,1742,470,5.04231,5.94721
525,554,0,0,0,0,0,0,0,0,0,-1,1749,470,0,0
532,554,0,0,0,0,0,0,0,0,0,-1,1756,470,0,0
539,554,0,0,0,0,0,0,0,0,0,-1,1763,470,0,0
546,554,0,0,0,0,0,0,0,0,0,-1,1770,470,0,0
553,554,0,0,0,0,0,0,0,0,0,-1,1777,470,0,0
560,554,0,0,0,0,0,0,0,0,0,-1,1784,470,0,0
567,554,0,0,0,0,0,0,0,0,0,-1,1791,470,0,0
574,554,0,0,0,0,0,0,0,0,0,-1,1798,470,0,0
581,554,0,0,0,0,0,0,0,0,0,-1,1805,470,0,0
588,554,0,0,0,0,0,0,0,0,0,-1,1812,470,0,0
595,554,0,0,0,0,0,0,0,0,0,-1,1819,470,0,0
602,554,0,0,0,0,0,0,0,0,0,-1,1826,470,0,0
609,554,0,0,0,0,0,0,0,0,0,-1,1833,470,0,0
616,554,0,0,0,0,0,0,0,0,0,-1,1840,470,0,0
623,554,0,0,0,0,0,0,0,0,0,-1,1847,470,0,0
630,554,0,0,0,0,0,0,0,0,0,-1,1854,470,0,0
637,554,0,0,0,0,0,0,0,0,0,-1,1861,470,0,0
644,554,0,0,0,0,0,0,0,0,0,-1,1868,470,0,0
651,554,0,0,0,0,0,0,0,0,0,-1,1875,470,0,0
658,554,0,0,0,0,0,0,0,0,0,-1,1882,470,0,0
665,554,0,0,0,0,0,0,0,0,0,-1,1889,470,0,0
672,554,0,0,0,0,0,0,0,0,0,-1,1896,470,0,0
679,554,0,0,0,0,0,0,0,0,0,-1,1903,470,0,0
686,554,0,0,0,0,0,0,0,0,0,-1,1910,470,0,0
693,554,0,0,0,0,0,0,0,0,0,-1,1917,470,0,0
700,554,0,0,0,0,0,0,0,0,0,-1,1924,470,0,0
707,554,0,0,0,0,0,0,0,0,0,-1,1931,470,0,0
714,554,0,0,0,0,0,0,0,0,0,-1,1938,470,0,0
721,554,0,0,0,0,0,0,0,0,0,-1,1945,470,0,0
728,554,0,0,0,0,0,0,0,0,0,-1,1952,470,0,0
735,554,0,0,0,0,0,0,0,0,0,-1,1959,470,0,0
742,554,0,0,0,0,0,0,0,0,0,-1,1966,470,0,0
749,554,0,0,0,0,0,0,0,0,0,-1,1973,470,0,0
756,554,0,0,0,0,0,0,0,0,0,-1,1980,470,0,0
763,554,0,0,0,0,0,0,0,0,0,-1,1987,470,0,0
770,554,0,0,0,0,0,0,0,0,0,-1,1994,470,0,0
777,554,0,0,0,0,0,0,0,0,0,-1,2001,470,0,0
784,554,0,0,0,0,0,0,0,0,0,-1,2008,470,0,0
791,554,0,0,0,0,0,0,0,0,0,-1,2015,470,0,0
798,554,0,0,0,0,0,0,0,0,0,-1,2022,470,0,0
805,554,0,0,0,0,0,0,0,0,0,-1,2029,470,0,0
812,554,0,0,0,0,0,0,0,0,0,-1,2036,470,0,0
-700,547,0,0,0,0,0,0,0,0,0,-1,524,477,0,0
-693,547,0,0,0,0,0,0,0,0,0,-1,531,477,0,0
-686,547,0,0,0,0,0,0,0,0,0,-1,538,477,0,0
-679,547,0,0,0,0,0,0,0,0,0,-1,545,477,0,0
-672,547,0,0,0,0,0,0,0,0,0,-1,552,477,0,0
-665,547,0,0,0,0,0,0,0,0,0,-1,559,477,0,0
-658,547,0,0,0,0,0,0,0,0,0,-1,566,477,0,0
-651,547,0,0,0,0,0,0,0,0,0,-1,573,477,0,0
-644,547,0,0,0,0,0,0,0,0,0,-1,580,477,0,0
-637,547,0,0,0,0,0,0,0,0,0,-1,587,477,0,0
-630,547,0,0,0,0,0,0,0,0,0,-1,594,477,0,0
-623,547,0,0,0,0,0,0,0,0,0,-1,601,477,0,0
-616,547,0,0,0,0,0,0,0,0,0,-1,608,477,0,0
-609,547,0,0,0,0,0,0,0,0,0,-1,615,477,0,0
-602,547,0,0,0,0,0,0,0,0,0,-1,622,477,0,0
-595,547,0,0,0,0,0,0,0,0,0,-1,629,477,0,0
-588,547,0,0,0,0,0,0,0,0,0,-1,636,477,0,0
-581,547,0,0,0,0,0,0,0,0,0,-1,643,477,0,0
-574,547,0,0,0,0,0,0,0,0,0,-1,650,477,0,0
-567,547,0,0,0,0,0,0,0,0,0,-1,657,477,0,0
-560,547,0,0,0,0,0,0,0,0,0,-1,664,477,0,0
-553,547,0,0,0,0,0,0,0,0,0,-1,671,477,0,0
-546,547,0,0,0,0,0,0,0,0,0,-1,678,477,0,0
-539,547,0,0,0,0,0,0,0,0,0,-1,685,477,0,0
-532,547,0,0,0,0,0,0,0,0,0,-1,692,477,0,0
-525,547,0,0,0,0,0,0,0,0,0,-1,699,477,0,0
-518,547,0,0,0,0,0,0,0,0,0,-1,706,477,0,0
-511,547,0,0,0,0,0,0,0,0,0,-1,713,477,0,0
-504,547,0,0,0,0,0,0,0,0,0,-1,720,477,0,0
-497,547,0,0,0,0,0,0,0,0,0,-1,727,477,0,0
-490,547,0,0,0,0,0,0,0,0,0,-1,734,477,0,0
-483,547,0,0,0,0,0,0,0,0,0,-1,741,477,0,0
-476,547,0,0,0,0,0,0,0,0,0,-1,748,477,0,0
-469,547,0,0,0,0,0,0,0,0,0,-1,755,477,0,0
-462,547,0,0,0,0,0,0,0,0,0,-1,762,477,0,0
-455,547,0,0,0,0,0,0,0,0,0,-1,769,477,0,0
-448,547,0,0,0,0,0,0,0,0,0,-1,776,477,0,0
-441,547,0,0,0,0,0,0,0,0,0,-1,783,477,0,0
-434,547,0,0,0,0,0,0,0,0,0,-1,790,477,0,0
-427,547,0,0,0,0,0,0,0,0,0,-1,797,477,0,0
-420,547,0,0,0,0,0,0,0,0,0,-1,804,477,0,0
-413,547,0,0,0,0,0,0,0,0,0,-1,811,477,0,0
-406,547,0.144592,-11.0292,0,0,0,0,0,0,0,-1,818,477,0.144583,11.0292
-399,547,0.775513,-10.0294,0,0,0,0,0,0,0,-1,825,477,0.775482,10.0295
-392,547,0.219055,-28.7913,0,0,0,0,0,0,0,-1,832,477,0.219056,28.7913
-385,547,0.564331,-29.2501,0,0,0,0,0,0,0,-1,839,477,0.564342,29.2501
-378,547,0.934631,-29.7303,0,0,0,0,0,0,0,-1,846,477,0.934644,29.7303
-371,547,1.85028,-29.6768,0,0,0,0,0,0,0,-1,853,477,1.85026,29.6768
-364,547,1.65063,-30.9048,0,0,0,0,0,0,0,-1,860,477,1.65062,30.9048
-357,547,1.38422,-32.116,0,0,0,0,0,0,0,-1,867,477,1.3842,32.116
-350,547,-2.25751,-57.7035,0,0,0,0,0,0,0,-1,874,477,-2.25754,57.7035
-343,547,-7.14227,-105.726,0,0,0,0,0,0,0,-1,881,477,-7.14228,105.726
-336,547,-8.40704,-139.106,0,0,0,0,0,0,0,-1,888,477,-8.40706,139.106
-329,547,-37.7103,-153.683,0,0,0,0,0,0,0,-1,895,477,-37.7104,153.683
-322,547,-38.5085,-157.831,0.0381204,0.0154431,0.0239451,0.0532758,0.000287758,0.564275,0.0354216,0.0381094,902,477,-38.5085,157.831
-315,547,-39.3289,-161.76,0.0426207,0.0133159,0.0286528,0.0601503,-0.00421366,0.549044,0.041576,0.019784,909,477,-39.3289,161.76
-308,547,-40.0087,-165.393,0.0470379,0.0112733,0.0330519,0.0667349,-0.00842375,0.53743,0.0475472,0.0230305,916,477,-40.0087,165.393
-301,547,-40.6351,-168.953,0.0509211,0.0086376,0.0376354,0.0729464,-0.0133877,0.529487,0.0536532,0.0220152,923,477,-40.6351,168.953
-294,547,-41.1399,-172.548,0.055001,0.00558866,0.0417399,0.0787985,-0.0182089,0.518174,0.0595375,0.0170311,930,477,-41.1399,172.548
-287,547,-41.6564,-176.15,0.0589827,0.00274068,0.0452412,0.0841304,-0.022407,0.50733,0.0648592,0.0199033,937,477,-41.6564,176.15
-280,547,-42.1877,-179.645,0.0624375,0.000236492,0.0480005,0.0885321,-0.0258582,0.497942,0.0692688,0.0262141,944,477,-42.1877,179.645
-273,547,-42.6119,-182.939,0.0657433,-0.00224094,0.0500572,0.092259,-0.0287566,0.48713,0.0730044,0.0208853,951,477,-42.6119,182.939
-266,547,-42.9349,-186.136,0.069054,-0.00417854,0.051692,0.0957845,-0.030909,0.477243,0.0762762,0.0203291,958,477,-42.9349,186.136
-259,547,-43.2338,-189.339,0,0,0,0,0,0,0,-1,965,477,-43.2338,189.339
-252,547,-42.8642,-192.636,0.0747369,-0.00687536,0.0526461,0.10054,-0.0326782,0.455711,0.0801708,0.0268659,972,477,-42.8642,192.636
-245,547,-42.5081,-195.833,0.0772986,-0.00749305,0.0526283,0.102483,-0.0326778,0.446334,0.0814306,0.030304,979,477,-42.5081,195.833
-238,547,-43.0295,-198.921,0.0793831,-0.00765418,0.0524096,0.103987,-0.0322578,0.438909,0.0822143,0.0229611,986,477,-43.0295,198.921
-231,547,-43.5261,-201.851,0.0818075,-0.00764699,0.0524443,0.106007,-0.0318467,0.432324,0.0833406,0.0323062,993,477,-43.5261,201.851
-224,547,-43.362,-204.529,0,0,0,0,0,0,0,-1,1000,477,-43.362,204.528
-217,547,-43.126,-207.634,0,0,0,0,0,0,0,-1,1007,477,-43.126,207.634
-210,547,-17.7064,-159.297,0,0,0,0,0,0,0,-1,1014,477,-17.7064,159.297
-203,547,-3.7373,-74.9356,0,0,0,0,0,0,0,-1,1021,477,-3.73728,74.9356
-196,547,-3.4635,-72.0665,0,0,0,0,0,0,0,-1,1028,477,-3.46345,72.0665
-189,547,-3.04053,-72.5745,0,0,0,0,0,0,0,-1,1035,477,-3.04049,72.5745
-182,547,-1.53381,-67.4076,0,0,0,0,0,0,0,-1,1042,477,-1.53385,67.4076
-175,547,1.37634,-47.526,0,0,0,0,0,0,0,-1,1049,477,1.3763,47.526
-168,547,0.761719,-32.9387,0,0,0,0,0,0,0,-1,1056,477,0.761738,32.9387
-161,547,0.0430908,-34.6016,0,0,0,0,0,0,0,-1,1063,477,0.0431231,34.6016
-154,547,-0.284424,-31.1176,0,0,0,0,0,0,0,-1,1070,477,-0.284395,31.1176
-147,547,3.69434,-26.413,0,0,0,0,0,0,0,-1,1077,477,3.69437,26.413
-140,547,1.55676,-22.5229,0,0,0,0,0,0,0,-1,1084,477,1.5568,22.5229
-133,547,2.31665,-17.9421,0,0,0,0,0,0,0,-1,1091,477,2.31667,17.9421
-126,547,-1.15271,-30.6984,0,0,0,0,0,0,0,-1,1098,477,-1.15267,30.6984
-119,547,0.967651,-24.9351,0,0,0,0,0,0,0,-1,1105,477,0.967657,24.9351
-112,547,1.15674,-22.2276,0,0,0,0,0,0,0,-1,1112,477,1.15677,22.2276
-105,547,0.966797,-20.5777,0,0,0,0,0,0,0,-1,1119,477,0.966804,20.5777
-98,547,0.70166,-18.9755,0,0,0,0,0,0,0,-1,1126,477,0.701713,18.9755
-91,547,1.37805,-7.12024,0,0,0,0,0,0,0,-1,1133,477,1.37804,7.12025
-84,547,1.94202,-6.66241,0,0,0,0,0,0,0,-1,1140,477,1.94201,6.66241
-77,547,-2.28357,1.8588,0,0,0,0,0,0,0,-1,1147,477,-2.28356,-1.85879
-70,547,-3.70178,-0.874908,0,0,0,0,0,0,0,-1,1154,477,-3.70182,0.874918
-63,547,-5.12012,-3.60861,0,0,0,0,0,0,0,-1,1161,477,-5.12009,3.60862
-56,547,-6.01917,-6.2399,0,0,0,0,0,0,0,-1,1168,477,-6.01921,6.23991
-49,547,-6.729,-8.60349,0,0,0,0,0,0,0,-1,1175,477,-6.72899,8.60348
-42,547,-2.41736,-5.53012,0,0,0,0,0,0,0,-1,1182,477,-2.41734,5.53011
-35,547,-2.96838,-4.45734,0,0,0,0,0,0,0,-1,1189,477,-2.96839,4.45734
-28,547,-0.869141,-1.29901,0,0,0,0,0,0,0,-1,1196,477,-0.869135,1.29901
-21,547,5.84937,-261.939,0,0,0,0,0,0,0,-1,1203,477,5.84941,261.939
-14,547,15.0142,-260.058,0,0,0,0,0,0,0,-1,1210,477,15.0141,260.058
-7,547,15.5204,-261.019,0,0,0,0,0,0,0,-1,1217,477,15.5203,261.019
0,547,15.7552,-261.981,0,0,0,0,0,0,0,-1,1224,477,15.7552,261.981
7,547,16.2021,-263.085,0,0,0,0,0,0,0,-1,1231,477,16.2022,263.085
14,547,0,0,0,0,0,0,0,0,0,-1,1238,477,0,0
21,547,0,0,0,0,0,0,0,0,0,-1,1245,477,0,0
28,547,0,0,0,0,0,0,0,0,0,-1,1252,477,0,0
35,547,0,0,0,0,0,0,0,0,0,-1,1259,477,0,0
42,547,0,0,0,0,0,0,0,0,0,-1,1266,477,0,0
49,547,0,0,0,0,0,0,0,0,0,-1,1273,477,0,0
56,547,0,0,0,0,0,0,0,0,0,-1,1280,477,0,0
63,547,0,0,0,0,0,0,0,0,0,-1,1287,477,0,0
70,547,0,0,0,0,0,0,0,0,0,-1,1294,477,0,0
77,547,0,0,0,0,0,0,0,0,0,-1,1301,477,0,0
84,547,0,0,0,0,0,0,0,0,0,-1,1308,477,0,0
91,547,0,0,0,0,0,0,0,0,0,-1,1315,477,0,0
98,547,0,0,0,0,0,0,0,0,0,-1,1322,477,0,0
105,547,-2.00659,-265.329,0,0,0,0,0,0,0,-1,1329,477,-2.0066,265.329
112,547,-1.76819,-266.594,0,0,0,0,0,0,0,-1,1336,477,-1.76818,266.594
119,547,-1.37744,-267.89,0,0,0,0,0,0,0,-1,1343,477,-1.3774,267.89
126,547,-1.10327,-268.975,0,0,0,0,0,0,0,-1,1350,477,-1.10323,268.975
133,547,-0.478516,-270.589,0,0,0,0,0,0,0,-1,1357,477,-0.478536,270.589
140,547,-0.0432129,-271.967,0,0,0,0,0,0,0,-1,1364,477,-0.0432618,271.967
147,547,0.373169,-256.995,0,0,0,0,0,0,0,-1,1371,477,0.373115,256.995
154,547,1.21643,-257.896,0,0,0,0,0,0,0,-1,1378,477,1.21646,257.896
161,547,1.99255,-258.622,0,0,0,0,0,0,0,-1,1385,477,1.99257,258.622
168,547,-16.1832,-255.118,0,0,0,0,0,0,0,-1,1392,477,-16.1832,255.118
175,547,3.35034,-0.26532,0,0,0,0,0,0,0,-1,1399,477,3.3503,0.265306
182,547,4.26038,3.72672,0,0,0,0,0,0,0,-1,1406,477,4.26039,-3.7267
189,547,3.40454,1.28671,0,0,0,0,0,0,0,-1,1413,477,3.40457,-1.28673
196,547,3.53931,1.87793,0,0,0,0,0,0,0,-1,1420,477,3.53928,-1.87794
203,547,6.49414,-0.425842,0,0,0,0,0,0,0,-1,1427,477,6.4941,0.425844
210,547,4.82092,0.53595,0,0,0,0,0,0,0,-1,1434,477,4.82096,-0.535942
217,547,4.68579,0.480072,0,0,0,0,0,0,0,-1,1441,477,4.68577,-0.480069
224,547,4.55615,0.739807,0,0,0,0,0,0,0,-1,1448,477,4.55613,-0.73981
231,547,5.90869,-3.57721,0,0,0,0,0,0,0,-1,1455,477,5.90871,3.57722
238,547,5.50049,-3.15356,0,0,0,0,0,0,0,-1,1462,477,5.50045,3.15356
245,547,5.13708,-2.65213,0,0,0,0,0,0,0,-1,1469,477,5.13708,2.65212
252,547,3.73511,-0.645233,0,0,0,0,0,0,0,-1,1476,477,3.73515,0.645237
259,547,5.86816,-3.20816,0,0,0,0,0,0,0,-1,1483,477,5.86815,3.20816
266,547,5.40222,-2.45731,0,0,0,0,0,0,0,-1,1490,477,5.40221,2.45732
273,547,3.05737,0.495789,0,0,0,0,0,0,0,-1,1497,477,3.05742,-0.49578
280,547,2.0885,1.47797,0,0,0,0,0,0,0,-1,1504,477,2.08848,-1.47795
287,547,16.7034,-52.6257,0,0,0,0,0,0,0,-1,1511,477,16.7033,52.6258
294,547,16.8954,-51.6904,0,0,0,0,0,0,0,-1,1518,477,16.8954,51.6904
301,547,16.5122,-48.5859,0,0,0,0,0,0,0,-1,1525,477,16.5122,48.5859
308,547,14.5352,-46.2472,0,0,0,0,0,0,0,-1,1532,477,14.5351,46.2472
315,547,16.3188,-48.3778,0,0,0,0,0,0,0,-1,1539,477,16.3188,48.3778
322,547,17.0029,-52.4161,0,0,0,0,0,0,0,-1,1546,477,17.0029,52.4161
329,547,21.0952,-81.7401,0,0,0,0,0,0,0,-1,1553,477,21.0952,81.7401
336,547,22.9993,-90.8107,0,0,0,0,0,0,0,-1,1560,477,22.9993,90.8107
343,547,25.0878,-120.782,0,0,0,0,0,0,0,-1,1567,477,25.0877,120.782
350,547,52.9471,-205.172,0,0,0,0,0,0,0,-1,1574,477,52.9471,205.172
357,547,53.1416,-202.546,0,0,0,0,0,0,0,-1,1581,477,53.1417,202.546
364,547,53.0967,-199.342,0,0,0,0,0,0,0,-1,1588,477,53.0966,199.342
371,547,53.1582,-196.199,0.0974168,0.00612604,-0.061908,0.128688,-0.0251448,-0.467733,0.0952857,0.018314,1595,477,53.1582,196.199
378,547,53.175,-192.984,0.0913744,0.00679006,-0.0588316,0.121538,-0.0233731,-0.473759,0.0898354,0.019002,1602,477,53.175,192.984
385,547,52.9684,-189.691,0.0850642,0.0084199,-0.0547755,0.113592,-0.0201081,-0.480162,0.0832443,0.0218364,1609,477,52.9684,189.691
392,547,52.8888,-186.496,0.0784528,0.00960608,-0.0508635,0.105447,-0.0173876,-0.487912,0.0767529,0.0313962,1616,477,52.8888,186.496
399,547,52.6819,-183.177,0.0726389,0.0107329,-0.0472028,0.0981322,-0.0147604,-0.495196,0.070856,0.0324739,1623,477,52.6819,183.177
406,547,52.4351,-179.871,0.0681112,0.0122272,-0.0440255,0.0923133,-0.0119748,-0.502634,0.0658974,0.0221714,1630,477,52.435,179.871
413,547,52.0023,-176.426,0.0645635,0.0136109,-0.0408891,0.0872635,-0.00908911,-0.506797,0.0614299,0.0233875,1637,477,52.0023,176.426
420,547,51.3348,-173.001,0.0618545,0.0153141,-0.0384301,0.0835106,-0.00634206,-0.513164,0.0579037,0.038877,1644,477,51.3348,173.001
427,547,50.7194,-169.694,0,0,0,0,0,0,0,-1,1651,477,50.7194,169.694
434,547,50.7903,-166.054,0.0582022,0.0193444,-0.0338632,0.0778143,-0.000267655,-0.524952,0.0519656,0.047292,1658,477,50.7903,166.054
441,547,50.2177,-162.619,0.0566825,0.0215565,-0.0317893,0.0754378,0.00280119,-0.533026,0.0493846,0.0348518,1665,477,50.2176,162.619
448,547,49.344,-158.729,0.0551797,0.0229829,-0.0294414,0.0726365,0.00552609,-0.535209,0.0466915,0.0310555,1672,477,49.344,158.729
455,547,48.625,-154.944,0.0522364,0.024684,-0.0265173,0.0683425,0.00857793,-0.545829,0.0429886,0.0384506,1679,477,48.625,154.944
462,547,48.0115,-150.948,0,0,0,0,0,0,0,-1,1686,477,48.0115,150.948
469,547,40.354,-146.109,0,0,0,0,0,0,0,-1,1693,477,40.354,146.109
476,547,18.7277,-80.9745,0,0,0,0,0,0,0,-1,1700,477,18.7277,80.9745
483,547,17.813,-45.9664,0,0,0,0,0,0,0,-1,1707,477,17.813,45.9664
490,547,3.65271,-3.71707,0,0,0,0,0,0,0,-1,1714,477,3.65277,3.71708
497,547,2.55481,-3.81421,0,0,0,0,0,0,0,-1,1721,477,2.55476,3.8142
504,547,4.01953,-2.22714,0,0,0,0,0,0,0,-1,1728,477,4.0195,2.22713
511,547,5.2146,-6.9552,0,0,0,0,0,0,0,-1,1735,477,5.21464,6.95521
518,547,5.24243,-6.56122,0,0,0,0,0,0,0,-1,1742,477,5.24241,6.56121
525,547,5.89368,-5.49866,0,0,0,0,0,0,0,-1,1749,477,5.89372,5.49866
532,547,0,0,0,0,0,0,0,0,0,-1,1756,477,0,0
539,547,0,0,0,0,0,0,0,0,0,-1,1763,477,0,0
546,547,0,0,0,0,0,0,0,0,0,-1,1770,477,0,0
553,547,0,0,0,0,0,0,0,0,0,-1,1777,477,0,0
560,547,0,0,0,0,0,0,0,0,0,-1,1784,477,0,0
567,547,0,0,0,0,0,0,0,0,0,-1,1791,477,0,0
574,547,0,0,0,0,0,0,0,0,0,-1,1798,477,0,0
581,547,0,0,0,0,0,0,0,0,0,-1,1805,477,0,0
588,547,0,0,0,0,0,0,0,0,0,-1,1812,477,0,0
595,547,0,0,0,0,0,0,0,0,0,-1,1819,477,0,0
602,547,0,0,0,0,0,0,0,0,0,-1,1826,477,0,0
609,547,0,0,0,0,0,0,0,0,0,-1,1833,477,0,0
616,547,0,0,0,0,0,0,0,0,0,-1,1840,477,0,0
623,547,0,0,0,0,0,0,0,0,0,-1,1847,477,0,0
630,547,0,0,0,0,0,0,0,0,0,-1,1854,477,0,0
637,547,0,0,0,0,0,0,0,0,0,-1,1861,477,0,0
644,547,0,0,0,0,0,0,0,0,0,-1,1868,477,0,0
651,547,0,0,0,0,0,0,0,0,0,-1,1875,477,0,0
658,547,0,0,0,0,0,0,0,0,0,-1,1882,477,0,0
665,547,0,0,0,0,0,0,0,0,0,-1,1889,477,0,0
672,547,0,0,0,0,0,0,0,0,0,-1,1896,477,0,0
679,547,0,0,0,0,0,0,0,0,0,-1,1903,477,0,0
686,547,0,0,0,0,0,0,0,0,0,-1,1910,477,0,0
693,547,0,0,0,0,0,0,0,0,0,-1,1917,477,0,0
700,547,0,0,0,0,0,0,0,0,0,-1,1924,477,0,0
707,547,0,0,0,0,0,0,0,0,0,-1,1931,477,0,0
714,547,0,0,0,0,0,0,0,0,0,-1,1938,477,0,0
721,547,0,0,0,0,0,0,0,0,0,-1,1945,477,0,0
728,547,0,0,0,0,0,0,0,0,0,-1,1952,477,0,0
735,547,0,0,0,0,0,0,0,0,0,-1,1959,477,0,0
742,547,0,0,0,0,0,0,0,0,0,-1,1966,477,0,0
749,547,0,0,0,0,0,0,0,0,0,-1,1973,477,0,0
756,547,0,0,0,0,0,0,0,0,0,-1,1980,477,0,0
763,547,0,0,0,0,0,0,0,0,0,-1,1987,477,0,0
770,547,0,0,0,0,0,0,0,0,0,-1,1994,477,0,0
777,547,0,0,0,0,0,0,0,0,0,-1,2001,477,0,0
784,547,0,0,0,0,0,0,0,0,0,-1,2008,477,0,0
791,547,0,0,0,0,0,0,0,0,0,-1,2015,477,0,0
798,547,0,0,0,0,0,0,0,0,0,-1,2022,477,0,0
805,547,0,0,0,0,0,0,0,0,0,-1,2029,477,0,0
812,547,0,0,0,0,0,0,0,0,0,-1,2036,477,0,0
-700,540,0,0,0,0,0,0,0,0,0,-1,524,484,0,0
-693,540,0,0,0,0,0,0,0,0,0,-1,531,484,0,0
-686,540,0,0,0,0,0,0,0,0,0,-1,538,484,0,0
-679,540,0,0,0,0,0,0,0,0,0,-1,545,484,0,0
-672,540,0,0,0,0,0,0,0,0,0,-1,552,484,0,0
-665,540,0,0,0,0,0,0,0,0,0,-1,559,484,0,0
-658,540,0,0,0,0,0,0,0,0,0,-1,566,484,0,0
-651,540,0,0,0,0,0,0,0,0,0,-1,573,484,0,0
-644,540,0,0,0,0,0,0,0,0,0,-1,580,484,0,0
-637,540,0,0,0,0,0,0,0,0,0,-1,587,484,0,0
-630,540,0,0,0,0,0,0,0,0,0,-1,594,484,0,0
-623,540,0,0,0,0,0,0,0,0,0,-1,601,484,0,0
-616,540,0,0,0,0,0,0,0,0,0,-1,608,484,0,0
-609,540,0,0,0,0,0,0,0,0,0,-1,615,484,0,0
-602,540,0,0,0,0,0,0,0,0,0,-1,622,484,0,0
-595,540,0,0,0,0,0,0,0,0,0,-1,629,484,0,0
-588,540,0,0,0,0,0,0,0,0,0,-1,636,484,0,0
-581,540,0,0,0,0,0,0,0,0,0,-1,643,484,0,0
-574,540,0,0,0,0,0,0,0,0,0,-1,650,484,0,0
-567,540,0,0,0,0,0,0,0,0,0,-1,657,484,0,0
-560,540,0,0,0,0,0,0,0,0,0,-1,664,484,0,0
-553,540,0,0,0,0,0,0,0,0,0,-1,671,484,0,0
-546,540,0,0,0,0,0,0,0,0,0,-1,678,484,0,0
-539,540,0,0,0,0,0,0,0,0,0,-1,685,484,0,0
-532,540,0,0,0,0,0,0,0,0,0,-1,692,484,0,0
-525,540,0,0,0,0,0,0,0,0,0,-1,699,484,0,0
-518,540,0,0,0,0,0,0,0,0,0,-1,706,484,0,0
-511,540,0,0,0,0,0,0,0,0,0,-1,713,484,0,0
-504,540,0,0,0,0,0,0,0,0,0,-1,720,484,0,0
-497,540,0,0,0,0,0,0,0,0,0,-1,727,484,0,0
-490,540,0,0,0,0,0,0,0,0,0,-1,734,484,0,0
-483,540,0,0,0,0,0,0,0,0,0,-1,741,484,0,0
-476,540,0,0,0,0,0,0,0,0,0,-1,748,484,0,0
-469,540,0,0,0,0,0,0,0,0,0,-1,755,484,0,0
-462,540,0,0,0,0,0,0,0,0,0,-1,762,484,0,0
-455,540,0,0,0,0,0,0,0,0,0,-1,769,484,0,0
-448,540,0,0,0,0,0,0,0,0,0,-1,776,484,0,0
-441,540,0,0,0,0,0,0,0,0,0,-1,783,484,0,0
-434,540,0,0,0,0,0,0,0,0,0,-1,790,484,0,0
-427,540,0,0,0,0,0,0,0,0,0,-1,797,484,0,0
-420,540,0.227051,-10.0402,0,0,0,0,0,0,0,-1,804,484,0.227063,10.0402
-413,540,-0.0393677,-10.3862,0,0,0,0,0,0,0,-1,811,484,-0.0393683,10.3862
-406,540,-0.518372,-11.5288,0,0,0,0,0,0,0,-1,818,484,-0.518402,11.5288
-399,540,0.0863037,-11.3801,0,0,0,0,0,0,0,-1,825,484,0.0863201,11.3801
-392,540,-0.517395,-10.6735,0,0,0,0,0,0,0,-1,832,484,-0.517377,10.6735
-385,540,-0.41748,-29.7767,0,0,0,0,0,0,0,-1,839,484,-0.417475,29.7767
-378,540,-0.0524292,-30.2798,0,0,0,0,0,0,0,-1,846,484,-0.0524504,30.2798
-371,540,0.825806,-28.765,0,0,0,0,0,0,0,-1,853,484,0.8258,28.765
-364,540,0.631714,-31.1377,0,0,0,0,0,0,0,-1,860,484,0.631715,31.1377
-357,540,-8.12195,-96.1753,0,0,0,0,0,0,0,-1,867,484,-8.12197,96.1753
-350,540,-9.69135,-126.599,0,0,0,0,0,0,0,-1,874,484,-9.69134,126.599
-343,540,-10.6005,-131.501,0,0,0,0,0,0,0,-1,881,484,-10.6005,131.501
-336,540,-40.0807,-148.933,0,0,0,0,0,0,0,-1,888,484,-40.0807,148.933
-329,540,-41.2972,-152.948,0,0,0,0,0,0,0,-1,895,484,-41.2973,152.948
-322,540,-42.4069,-156.82,0.0435559,0.0137726,0.0310887,0.0631355,-0.00580704,0.562043,0.0441535,0.0203974,902,484,-42.4069,156.82
-315,540,-43.3151,-160.6,0.0477432,0.0113724,0.0356264,0.0695571,-0.0104415,0.549413,0.0502151,0.0188975,909,484,-43.3151,160.6
-308,540,-44.0292,-164.129,0.0520126,0.0089753,0.0400686,0.0759752,-0.0149873,0.538977,0.0563147,0.0205617,916,484,-44.0292,164.129
-301,540,-44.5773,-167.617,0.0562447,0.00615221,0.0445899,0.0823412,-0.0199443,0.529507,0.0626102,0.0228959,923,484,-44.5773,167.617
-294,540,-44.9141,-171.339,0.0606462,0.00298216,0.0484584,0.0882013,-0.0245729,0.517036,0.0684776,0.0236411,930,484,-44.9141,171.339
-287,540,-45.2712,-175.082,0.0646914,9.7774e-05,0.0516939,0.0933482,-0.0285591,0.506181,0.073622,0.0182272,937,484,-45.2712,175.082
-280,540,-45.8547,-178.511,0.0680395,-0.00238769,0.0542189,0.0974764,-0.0318246,0.497397,0.0777935,0.0193147,944,484,-45.8547,178.511
-273,540,-46.2767,-181.781,0.071404,-0.00485762,0.0559516,0.100982,-0.034436,0.486299,0.0812697,0.0217615,951,484,-46.2767,181.781
-266,540,-46.4444,-184.956,0.074783,-0.00662337,0.0570983,0.104201,-0.0360412,0.475745,0.084096,0.0327767,958,484,-46.4444,184.956
-259,540,-46.7249,-188.269,0,0,0,0,0,0,0,-1,965,484,-46.7249,188.269
-252,540,-46.2286,-191.486,0,0,0,0,0,0,0,-1,972,484,-46.2285,191.486
-245,540,-45.7322,-194.704,0,0,0,0,0,0,0,-1,979,484,-45.7322,194.704
-238,540,-46.2911,-197.935,0,0,0,0,0,0,0,-1,986,484,-46.2911,197.935
-231,540,-47.1182,-200.93,0,0,0,0,0,0,0,-1,993,484,-47.1182,200.93
-224,540,-22.3848,-166.932,0,0,0,0,0,0,0,-1,1000,484,-22.3847,166.932
-217,540,-11.2583,-111.761,0,0,0,0,0,0,0,-1,1007,484,-11.2583,111.761
-210,540,-2.77222,-65.5617,0,0,0,0,0,0,0,-1,1014,484,-2.77221,65.5617
-203,540,-2.54187,-61.2912,0,0,0,0,0,0,0,-1,1021,484,-2.54189,61.2912
-196,540,-1.87683,-60.7388,0,0,0,0,0,0,0,-1,1028,484,-1.87686,60.7388
-189,540,-2.04358,-57.9892,0,0,0,0,0,0,0,-1,1035,484,-2.04359,57.9892
-182,540,-0.826782,-43.3494,0,0,0,0,0,0,0,-1,1042,484,-0.826777,43.3494
-175,540,1.73413,-10.728,0,0,0,0,0,0,0,-1,1049,484,1.73414,10.728
-168,540,1.18164,-7.65347,0,0,0,0,0,0,0,-1,1056,484,1.18163,7.65347
-161,540,-0.405884,-9.86481,0,0,0,0,0,0,0,-1,1063,484,-0.405886,9.8648
-154,540,1.96863,-22.0727,0,0,0,0,0,0,0,-1,1070,484,1.96859,22.0727
-147,540,1.32764,-21.9952,0,0,0,0,0,0,0,-1,1077,484,1.32762,21.9952
-140,540,1.40735,-15.6289,0,0,0,0,0,0,0,-1,1084,484,1.4073,15.6289
-133,540,2.28345,-17.6413,0,0,0,0,0,0,0,-1,1091,484,2.2835,17.6413
-126,540,1.25293,-23.9108,0,0,0,0,0,0,0,-1,1098,484,1.25288,23.9108
-119,540,1.55969,-23.0125,0,0,0,0,0,0,0,-1,1105,484,1.55968,23.0125
-112,540,1.4801,-21.6515,0,0,0,0,0,0,0,-1,1112,484,1.4801,21.6515
-105,540,1.30078,-19.8938,0,0,0,0,0,0,0,-1,1119,484,1.30077,19.8938
-98,540,1.08105,-18.1304,0,0,0,0,0,0,0,-1,1126,484,1.08101,18.1304
-91,540,1.56519,-7.48666,0,0,0,0,0,0,0,-1,1133,484,1.56514,7.48667
-84,540,-0.945923,4.43073,0,0,0,0,0,0,0,-1,1140,484,-0.945891,-4.43074
-77,540,-2.28894,2.14368,0,0,0,0,0,0,0,-1,1147,484,-2.28894,-2.14368
-70,540,-3.75244,-0.452576,0,0,0,0,0,0,0,-1,1154,484,-3.75244,0.452576
-63,540,-5.26257,-3.04767,0,0,0,0,0,0,0,-1,1161,484,-5.26262,3.04766
-56,540,-5.19055,-6.12595,0,0,0,0,0,0,0,-1,1168,484,-5.19057,6.12595
-49,540,-5.63867,-8.52298,0,0,0,0,0,0,0,-1,1175,484,-5.63871,8.52298
-42,540,0,0,0,0,0,0,0,0,0,-1,1182,484,0,0
-35,540,0,0,0,0,0,0,0,0,0,-1,1189,484,0,0
-28,540,0,0,0,0,0,0,0,0,0,-1,1196,484,0,0
-21,540,0,0,0,0,0,0,0,0,0,-1,1203,484,0,0
-14,540,0,0,0,0,0,0,0,0,0,-1,1210,484,0,0
-7,540,0,0,0,0,0,0,0,0,0,-1,1217,484,0,0
0,540,0,0,0,0,0,0,0,0,0,-1,1224,484,0,0
7,540,0,0,0,0,0,0,0,0,0,-1,1231,484,0,0
14,540,0,0,0,0,0,0,0,0,0,-1,1238,484,0,0
21,540,0,0,0,0,0,0,0,0,0,-1,1245,484,0,0
28,540,0,0,0,0,0,0,0,0,0,-1,1252,484,0,0
35,540,0,0,0,0,0,0,0,0,0,-1,1259,484,0,0
42,540,0,0,0,0,0,0,0,0,0,-1,1266,484,0,0
49,540,0,0,0,0,0,0,0,0,0,-1,1273,484,0,0
56,540,0,0,0,0,0,0,0,0,0,-1,1280,484,0,0
63,540,0,0,0,0,0,0,0,0,0,-1,1287,484,0,0
70,540,0,0,0,0,0,0,0,0,0,-1,1294,484,0,0
77,540,0,0,0,0,0,0,0,0,0,-1,1301,484,0,0
84,540,0,0,0,0,0,0,0,0,0,-1,1308,484,0,0
91,540,0,0,0,0,0,0,0,0,0,-1,1315,484,0,0
98,540,0,0,0,0,0,0,0,0,0,-1,1322,484,0,0
105,540,0,0,0,0,0,0,0,0,0,-1,1329,484,0,0
112,540,0,0,0,0,0,0,0,0,0,-1,1336,484,0,0
119,540,0,0,0,0,0,0,0,0,0,-1,1343,484,0,0
126,540,0,0,0,0,0,0,0,0,0,-1,1350,484,0,0
133,540,0,0,0,0,0,0,0,0,0,-1,1357,484,0,0
140,540,0,0,0,0,0,0,0,0,0,-1,1364,484,0,0
147,540,0,0,0,0,0,0,0,0,0,-1,1371,484,0,0
154,540,0,0,0,0,0,0,0,0,0,-1,1378,484,0,0
161,540,0,0,0,0,0,0,0,0,0,-1,1385,484,0,0
168,540,3.05078,-0.0010376,0,0,0,0,0,0,0,-1,1392,484,3.05084,0.00102554
175,540,3.37708,0.617035,0,0,0,0,0,0,0,-1,1399,484,3.37707,-0.617046
182,540,3.32678,1.23267,0,0,0,0,0,0,0,-1,1406,484,3.32678,-1.23266
189,540,3.5813,2.15619,0,0,0,0,0,0,0,-1,1413,484,3.58129,-2.1562
196,540,1.84448,-0.801483,0,0,0,0,0,0,0,-1,1420,484,1.84446,0.80148
203,540,4.14648,0.702087,0,0,0,0,0,0,0,-1,1427,484,4.14645,-0.702089
210,540,4.50671,-0.56076,0,0,0,0,0,0,0,-1,1434,484,4.50667,0.560771
217,540,5.00452,-0.278717,0,0,0,0,0,0,0,-1,1441,484,5.00452,0.278709
224,540,6.44458,-2.83527,0,0,0,0,0,0,0,-1,1448,484,6.44457,2.83525
231,540,6.9231,-3.10504,0,0,0,0,0,0,0,-1,1455,484,6.92307,3.10505
238,540,6.4823,-2.58365,0,0,0,0,0,0,0,-1,1462,484,6.48225,2.58363
245,540,6.02087,-1.97916,0,0,0,0,0,0,0,-1,1469,484,6.02088,1.97915
252,540,6.50647,-3.56006,0,0,0,0,0,0,0,-1,1476,484,6.50649,3.56006
259,540,6.01941,-2.798,0,0,0,0,0,0,0,-1,1483,484,6.01941,2.79801
266,540,5.5332,-2.02853,0,0,0,0,0,0,0,-1,1490,484,5.53323,2.02855
273,540,5.06787,-1.28137,0,0,0,0,0,0,0,-1,1497,484,5.06786,1.28136
280,540,1.62903,-2.14609,0,0,0,0,0,0,0,-1,1504,484,1.62906,2.1461
287,540,1.97156,-2.45053,0,0,0,0,0,0,0,-1,1511,484,1.97159,2.45053
294,540,2.44165,-2.6185,0,0,0,0,0,0,0,-1,1518,484,2.44167,2.6185
301,540,4.36169,-2.54272,0,0,0,0,0,0,0,-1,1525,484,4.36165,2.54272
308,540,4.2019,-4.30469,0,0,0,0,0,0,0,-1,1532,484,4.20193,4.3047
315,540,4.45923,-5.32101,0,0,0,0,0,0,0,-1,1539,484,4.45923,5.32103
322,540,4.71655,-6.33737,0,0,0,0,0,0,0,-1,1546,484,4.71653,6.33736
329,540,15.0289,-44.3801,0,0,0,0,0,0,0,-1,1553,484,15.0289,44.3801
336,540,17.1764,-48.0145,0,0,0,0,0,0,0,-1,1560,484,17.1764,48.0145
343,540,17.5421,-50.0817,0,0,0,0,0,0,0,-1,1567,484,17.5421,50.0817
350,540,23.2103,-81.6647,0,0,0,0,0,0,0,-1,1574,484,23.2104,81.6648
357,540,26.0358,-101.872,0,0,0,0,0,0,0,-1,1581,484,26.0358,101.872
364,540,56.5122,-198.471,0,0,0,0,0,0,0,-1,1588,484,56.5122,198.471
371,540,56.7379,-195.191,0,0,0,0,0,0,0,-1,1595,484,56.7379,195.191
378,540,57.0961,-192.091,0.102093,0.00674082,-0.0642377,0.134413,-0.02558,-0.46616,0.0992406,0.0484577,1602,484,57.096,192.091
385,540,56.8542,-188.714,0.0947308,0.00846869,-0.0599177,0.125427,-0.0222272,-0.47344,0.091927,0.0365139,1609,484,56.8543,188.714
392,540,56.5128,-185.448,0.0867788,0.00887678,-0.0562972,0.116286,-0.0206306,-0.48277,0.0852373,0.0392106,1616,484,56.5128,185.448
399,540,56.4805,-181.969,0,0,0,0,0,0,0,-1,1623,484,56.4804,181.969
406,540,56.1658,-178.909,0.0745945,0.0108144,-0.0492913,0.101412,-0.0160034,-0.498277,0.0735255,0.0315516,1630,484,56.1658,178.909
413,540,55.677,-175.386,0.0704777,0.0120004,-0.0460774,0.0958104,-0.0133323,-0.502678,0.06875,0.0327995,1637,484,55.677,175.386
420,540,55.192,-171.711,0.0672034,0.0135175,-0.0435179,0.0914912,-0.0107703,-0.509049,0.0648829,0.0466535,1644,484,55.192,171.711
427,540,54.9286,-168.165,0,0,0,0,0,0,0,-1,1651,484,54.9286,168.165
434,540,54.6357,-164.908,0,0,0,0,0,0,0,-1,1658,484,54.6358,164.908
441,540,54.1351,-161.772,0,0,0,0,0,0,0,-1,1665,484,54.1351,161.772
448,540,53.5289,-157.496,0.0579315,0.0201612,-0.0341842,0.0781003,-7.57724e-06,-0.533036,0.0520694,0.0262682,1672,484,53.5289,157.496
455,540,52.8724,-153.714,0.0548916,0.0216233,-0.031277,0.0736826,0.00283223,-0.541003,0.0482054,0.020106,1679,484,52.8724,153.714
462,540,52.141,-149.888,0,0,0,0,0,0,0,-1,1686,484,52.141,149.888
469,540,51.0675,-145.746,0,0,0,0,0,0,0,-1,1693,484,51.0675,145.746
476,540,49.9637,-141.16,0,0,0,0,0,0,0,-1,1700,484,49.9637,141.16
483,540,20.5968,-86.2985,0,0,0,0,0,0,0,-1,1707,484,20.5968,86.2985
490,540,19.4117,-44.4761,0,0,0,0,0,0,0,-1,1714,484,19.4117,44.4761
497,540,10.3452,-16.9359,0,0,0,0,0,0,0,-1,1721,484,10.3453,16.9359
504,540,12.519,-18.0764,0,0,0,0,0,0,0,-1,1728,484,12.519,18.0765
511,540,5.82471,-6.83521,0,0,0,0,0,0,0,-1,1735,484,5.82465,6.83522
518,540,9.98181,-12.4608,0,0,0,0,0,0,0,-1,1742,484,9.98187,12.4608
525,540,12.4843,-16.3481,0,0,0,0,0,0,0,-1,1749,484,12.4842,16.3481
532,540,2.84265,-1.07925,0,0,0,0,0,0,0,-1,1756,484,2.84269,1.07927
539,540,0,0,0,0,0,0,0,0,0,-1,1763,484,0,0
546,540,0,0,0,0,0,0,0,0,0,-1,1770,484,0,0
553,540,0,0,0,0,0,0,0,0,0,-1,1777,484,0,0
560,540,0,0,0,0,0,0,0,0,0,-1,1784,484,0,0
567,540,0,0,0,0,0,0,0,0,0,-1,1791,484,0,0
574,540,0,0,0,0,0,0,0,0,0,-1,1798,484,0,0
581,540,0,0,0,0,0,0,0,0,0,-1,1805,484,0,0
588,540,0,0,0,0,0,0,0,0,0,-1,1812,484,0,0
595,540,0,0,0,0,0,0,0,0,0,-1,1819,484,0,0
602,540,0,0,0,0,0,0,0,0,0,-1,1826,484,0,0
609,540,0,0,0,0,0,0,0,0,0,-1,1833,484,0,0
616,540,0,0,0,0,0,0,0,0,0,-1,1840,484,0,0
623,540,0,0,0,0,0,0,0,0,0,-1,1847,484,0,0
630,540,0,0,0,0,0,0,0,0,0,-1,1854,484,0,0
637,540,0,0,0,0,0,0,0,0,0,-1,1861,484,0,0
644,540,0,0,0,0,0,0,0,0,0,-1,1868,484,0,0
651,540,0,0,0,0,0,0,0,0,0,-1,1875,484,0,0
658,540,0,0,0,0,0,0,0,0,0,-1,1882,484,0,0
665,540,0,0,0,0,0,0,0,0,0,-1,1889,484,0,0
672,540,0,0,0,0,0,0,0,0,0,-1,1896,484,0,0
679,540,0,0,0,0,0,0,0,0,0,-1,1903,484,0,0
686,540,0,0,0,0,0,0,0,0,0,-1,1910,484,0,0
693,540,0,0,0,0,0,0,0,0,0,-1,1917,484,0,0
700,540,0,0,0,0,0,0,0,0,0,-1,1924,484,0,0
707,540,0,0,0,0,0,0,0,0,0,-1,1931,484,0,0
714,540,0,0,0,0,0,0,0,0,0,-1,1938,484,0,0
721,540,0,0,0,0,0,0,0,0,0,-1,1945,484,0,0
728,540,0,0,0,0,0,0,0,0,0,-1,1952,484,0,0
735,540,0,0,0,0,0,0,0,0,0,-1,1959,484,0,0
742,540,0,0,0,0,0,0,0,0,0,-1,1966,484,0,0
749,540,0,0,0,0,0,0,0,0,0,-1,1973,484,0,0
756,540,0,0,0,0,0,0,0,0,0,-1,1980,484,0,0
763,540,0,0,0,0,0,0,0,0,0,-1,1987,484,0,0
770,540,0,0,0,0,0,0,0,0,0,-1,1994,484,0,0
777,540,0,0,0,0,0,0,0,0,0,-1,2001,484,0,0
784,540,0,0,0,0,0,0,0,0,0,-1,2008,484,0,0
791,540,0,0,0,0,0,0,0,0,0,-1,2015,484,0,0
798,540,0,0,0,0,0,0,0,0,0,-1,2022,484,0,0
805,540,0,0,0,0,0,0,0,0,0,-1,2029,484,0,0
812,540,0,0,0,0,0,0,0,0,0,-1,2036,484,0,0
-700,533,0,0,0,0,0,0,0,0,0,-1,524,491,0,0
-693,533,0,0,0,0,0,0,0,0,0,-1,531,491,0,0
-686,533,0,0,0,0,0,0,0,0,0,-1,538,491,0,0
-679,533,0,0,0,0,0,0,0,0,0,-1,545,491,0,0
-672,533,0,0,0,0,0,0,0,0,0,-1,552,491,0,0
-665,533,0,0,0,0,0,0,0,0,0,-1,559,491,0,0
-658,533,0,0,0,0,0,0,0,0,0,-1,566,491,0,0
-651,533,0,0,0,0,0,0,0,0,0,-1,573,491,0,0
-644,533,0,0,0,0,0,0,0,0,0,-1,580,491,0,0
-637,533,0,0,0,0,0,0,0,0,0,-1,587,491,0,0
-630,533,0,0,0,0,0,0,0,0,0,-1,594,491,0,0
-623,533,0,0,0,0,0,0,0,0,0,-1,601,491,0,0
-616,533,0,0,0,0,0,0,0,0,0,-1,608,491,0,0
-609,533,0,0,0,0,0,0,0,0,0,-1,615,491,0,0
-602,533,0,0,0,0,0,0,0,0,0,-1,622,491,0,0
-595,533,0,0,0,0,0,0,0,0,0,-1,629,491,0,0
-588,533,0,0,0,0,0,0,0,0,0,-1,636,491,0,0
-581,533,0,0,0,0,0,0,0,0,0,-1,643,491,0,0
-574,533,0,0,0,0,0,0,0,0,0,-1,650,491,0,0
-567,533,0,0,0,0,0,0,0,0,0,-1,657,491,0,0
-560,533,0,0,0,0,0,0,0,0,0,-1,664,491,0,0
-553,533,0,0,0,0,0,0,0,0,0,-1,671,491,0,0
-546,533,0,0,0,0,0,0,0,0,0,-1,678,491,0,0
-539,533,0,0,0,0,0,0,0,0,0,-1,685,491,0,0
-532,533,0,0,0,0,0,0,0,0,0,-1,692,491,0,0
-525,533,0,0,0,0,0,0,0,0,0,-1,699,491,0,0
-518,533,0,0,0,0,0,0,0,0,0,-1,706,491,0,0
-511,533,0,0,0,0,0,0,0,0,0,-1,713,491,0,0
-504,533,0,0,0,0,0,0,0,0,0,-1,720,491,0,0
-497,533,0,0,0,0,0,0,0,0,0,-1,727,491,0,0
-490,533,0,0,0,0,0,0,0,0,0,-1,734,491,0,0
-483,533,0,0,0,0,0,0,0,0,0,-1,741,491,0,0
-476,533,0,0,0,0,0,0,0,0,0,-1,748,491,0,0
-469,533,0,0,0,0,0,0,0,0,0,-1,755,491,0,0
-462,533,0,0,0,0,0,0,0,0,0,-1,762,491,0,0
-455,533,0,0,0,0,0,0,0,0,0,-1,769,491,0,0
-448,533,0,0,0,0,0,0,0,0,0,-1,776,491,0,0
-441,533,0,0,0,0,0,0,0,0,0,-1,783,491,0,0
-434,533,0,0,0,0,0,0,0,0,0,-1,790,491,0,0
-427,533,0.559814,-4.40222,0,0,0,0,0,0,0,-1,797,491,0.559816,4.40222
-420,533,-1.11127,-10.9054,0,0,0,0,0,0,0,-1,804,491,-1.11124,10.9054
-413,533,-0.704773,-11.0942,0,0,0,0,0,0,0,-1,811,491,-0.704742,11.0942
-406,533,-0.670898,-12.0899,0,0,0,0,0,0,0,-1,818,491,-0.670908,12.0899
-399,533,-0.455017,-12.4423,0,0,0,0,0,0,0,-1,825,491,-0.455032,12.4423
-392,533,-1.89661,-10.3905,0,0,0,0,0,0,0,-1,832,491,-1.89661,10.3905
-385,533,0.797729,-17.0485,0,0,0,0,0,0,0,-1,839,491,0.797746,17.0485
-378,533,-1.89435,-19.6771,0,0,0,0,0,0,0,-1,846,491,-1.89433,19.6771
-371,533,-1.10254,-31.3197,0,0,0,0,0,0,0,-1,853,491,-1.10254,31.3197
-364,533,-10.5637,-92.7236,0,0,0,0,0,0,0,-1,860,491,-10.5636,92.7237
-357,533,-13.6718,-128.381,0,0,0,0,0,0,0,-1,867,491,-13.6718,128.381
-350,533,-42.6022,-139.242,0,0,0,0,0,0,0,-1,874,491,-42.6022,139.242
-343,533,-43.9736,-143.544,0,0,0,0,0,0,0,-1,881,491,-43.9736,143.544
-336,533,-44.8788,-147.725,0,0,0,0,0,0,0,-1,888,491,-44.8788,147.725
-329,533,-45.6695,-151.571,0.0450774,0.0134383,0.0335857,0.0663827,-0.007867,0.5653,0.047097,0.0259948,895,491,-45.6695,151.571
-322,533,-46.5134,-155.376,0.0486442,0.011212,0.0381013,0.072378,-0.0125219,0.557099,0.0529221,0.0197795,902,491,-46.5134,155.376
-315,533,-47.3219,-159.319,0.0526123,0.00878953,0.0425607,0.0785708,-0.017169,0.547679,0.058943,0.0326281,909,491,-47.3219,159.319
-308,533,-47.8839,-163.114,0.0567956,0.00629976,0.0470795,0.0849699,-0.0218746,0.539273,0.0651735,0.0279444,916,491,-47.8839,163.114
-301,533,-48.5403,-166.464,0.0613411,0.00345848,0.0516176,0.0915773,-0.0267778,0.529893,0.0716649,0.019888,923,491,-48.5403,166.464
-294,533,-49.1208,-170.133,0.066033,0.000333779,0.055406,0.0975956,-0.0312288,0.517811,0.077597,0.0239828,930,491,-49.1208,170.133
-287,533,-49.3762,-173.816,0.0702275,-0.00253115,0.0585876,0.102812,-0.0351153,0.507561,0.0827677,0.0244886,937,491,-49.3761,173.816
-280,533,-49.6738,-177.314,0.0736744,-0.00496265,0.0610441,0.106967,-0.0382549,0.49929,0.0869158,0.0202229,944,491,-49.6738,177.314
-273,533,-49.9806,-180.561,0.0770427,-0.00751698,0.0624929,0.110214,-0.0406888,0.48799,0.0901537,0.0242275,951,491,-49.9806,180.561
-266,533,-50.283,-183.795,0.0803985,-0.00923262,0.0631358,0.113007,-0.0418416,0.476752,0.0924958,0.0352579,958,491,-50.283,183.795
-259,533,-50.4138,-187.06,0,0,0,0,0,0,0,-1,965,491,-50.4138,187.06
-252,533,-49.6463,-190.075,0,0,0,0,0,0,0,-1,972,491,-49.6463,190.075
-245,533,-36.4008,-191.7,0,0,0,0,0,0,0,-1,979,491,-36.4008,191.7
-238,533,-37.0947,-195.194,0,0,0,0,0,0,0,-1,986,491,-37.0947,195.194
-231,533,-23.6509,-156.913,0,0,0,0,0,0,0,-1,993,491,-23.6509,156.913
-224,533,-5.08032,-67.3872,0,0,0,0,0,0,0,-1,1000,491,-5.08035,67.3872
-217,533,-3.58942,-61.3351,0,0,0,0,0,0,0,-1,1007,491,-3.58944,61.3351
-210,533,-2.8175,-58.3744,0,0,0,0,0,0,0,-1,1014,491,-2.81753,58.3744
-203,533,-2.78027,-57.4929,0,0,0,0,0,0,0,-1,1021,491,-2.78027,57.4928
-196,533,-2.47253,-52.2668,0,0,0,0,0,0,0,-1,1028,491,-2.47251,52.2669
-189,533,-1.75317,-43.4744,0,0,0,0,0,0,0,-1,1035,491,-1.75312,43.4744
-182,533,1.26123,-11.4969,0,0,0,0,0,0,0,-1,1042,491,1.26128,11.4969
-175,533,0.937744,-7.36966,0,0,0,0,0,0,0,-1,1049,491,0.937769,7.36965
-168,533,2.64807,-2.7543,0,0,0,0,0,0,0,-1,1056,491,2.64812,2.7543
-161,533,1.91833,-1.76553,0,0,0,0,0,0,0,-1,1063,491,1.91836,1.76554
-154,533,0.376709,-11.0633,0,0,0,0,0,0,0,-1,1070,491,0.376715,11.0632
-147,533,0.383789,-12.1586,0,0,0,0,0,0,0,-1,1077,491,0.383829,12.1586
-140,533,1.14001,-15.4608,0,0,0,0,0,0,0,-1,1084,491,1.14005,15.4608
-133,533,0.189941,-16.0795,0,0,0,0,0,0,0,-1,1091,491,0.18994,16.0795
-126,533,2.89612,-2.59003,0,0,0,0,0,0,0,-1,1098,491,2.89608,2.59003
-119,533,1.78284,-22.5394,0,0,0,0,0,0,0,-1,1105,491,1.78279,22.5394
-112,533,1.83862,-21.2401,0,0,0,0,0,0,0,-1,1112,491,1.83859,21.24
-105,533,1.67554,-19.4018,0,0,0,0,0,0,0,-1,1119,491,1.6755,19.4018
-98,533,-1.39392,-5.16367,0,0,0,0,0,0,0,-1,1126,491,-1.39394,5.16367
-91,533,0.367432,4.49753,0,0,0,0,0,0,0,-1,1133,491,0.367468,-4.49754
-84,533,-0.88623,3.03604,0,0,0,0,0,0,0,-1,1140,491,-0.886288,-3.03605
-77,533,0,0,0,0,0,0,0,0,0,-1,1147,491,0,0
-70,533,0,0,0,0,0,0,0,0,0,-1,1154,491,0,0
-63,533,0,0,0,0,0,0,0,0,0,-1,1161,491,0,0
-56,533,0,0,0,0,0,0,0,0,0,-1,1168,491,0,0
-49,533,0,0,0,0,0,0,0,0,0,-1,1175,491,0,0
-42,533,0,0,0,0,0,0,0,0,0,-1,1182,491,0,0
-35,533,0,0,0,0,0,0,0,0,0,-1,1189,491,0,0
-28,533,0,0,0,0,0,0,0,0,0,-1,1196,491,0,0
-21,533,0,0,0,0,0,0,0,0,0,-1,1203,491,0,0
-14,533,0,0,0,0,0,0,0,0,0,-1,1210,491,0,0
-7,533,0,0,0,0,0,0,0,0,0,-1,1217,491,0,0
0,533,0,0,0,0,0,0,0,0,0,-1,1224,491,0,0
7,533,0,0,0,0,0,0,0,0,0,-1,1231,491,0,0
14,533,0,0,0,0,0,0,0,0,0,-1,1238,491,0,0
21,533,0,0,0,0,0,0,0,0,0,-1,1245,491,0,0
28,533,0,0,0,0,0,0,0,0,0,-1,1252,491,0,0
35,533,0,0,0,0,0,0,0,0,0,-1,1259,491,0,0
42,533,0,0,0,0,0,0,0,0,0,-1,1266,491,0,0
49,533,0,0,0,0,0,0,0,0,0,-1,1273,491,0,0
56,533,0,0,0,0,0,0,0,0,0,-1,1280,491,0,0
63,533,0,0,0,0,0,0,0,0,0,-1,1287,491,0,0
70,533,0,0,0,0,0,0,0,0,0,-1,1294,491,0,0
77,533,0,0,0,0,0,0,0,0,0,-1,1301,491,0,0
84,533,0,0,0,0,0,0,0,0,0,-1,1308,491,0,0
91,533,0,0,0,0,0,0,0,0,0,-1,1315,491,0,0
98,533,0,0,0,0,0,0,0,0,0,-1,1322,491,0,0
105,533,0,0,0,0,0,0,0,0,0,-1,1329,491,0,0
112,533,0,0,0,0,0,0,0,0,0,-1,1336,491,0,0
119,533,0,0,0,0,0,0,0,0,0,-1,1343,491,0,0
126,533,0,0,0,0,0,0,0,0,0,-1,1350,491,0,0
133,533,0,0,0,0,0,0,0,0,0,-1,1357,491,0,0
140,533,0,0,0,0,0,0,0,0,0,-1,1364,491,0,0
147,533,0,0,0,0,0,0,0,0,0,-1,1371,491,0,0
154,533,0,0,0,0,0,0,0,0,0,-1,1378,491,0,0
161,533,0,0,0,0,0,0,0,0,0,-1,1385,491,0,0
168,533,0,0,0,0,0,0,0,0,0,-1,1392,491,0,0
175,533,0,0,0,0,0,0,0,0,0,-1,1399,491,0,0
182,533,0,0,0,0,0,0,0,0,0,-1,1406,491,0,0
189,533,0,0,0,0,0,0,0,0,0,-1,1413,491,0,0
196,533,0,0,0,0,0,0,0,0,0,-1,1420,491,0,0
203,533,3.7887,1.16193,0,0,0,0,0,0,0,-1,1427,491,3.78872,-1.16193
210,533,5.09558,-0.216034,0,0,0,0,0,0,0,-1,1434,491,5.09559,0.216028
217,533,6.91614,-2.46814,0,0,0,0,0,0,0,-1,1441,491,6.91618,2.46814
224,533,7.23621,-2.1857,0,0,0,0,0,0,0,-1,1448,491,7.23621,2.1857
231,533,7.23474,-1.92282,0,0,0,0,0,0,0,-1,1455,491,7.2347,1.92282
238,533,7.23535,-1.67258,0,0,0,0,0,0,0,-1,1462,491,7.23539,1.67258
245,533,6.86682,-1.2301,0,0,0,0,0,0,0,-1,1469,491,6.86686,1.23011
252,533,6.63354,-3.07825,0,0,0,0,0,0,0,-1,1476,491,6.6335,3.07824
259,533,6.16431,-2.35037,0,0,0,0,0,0,0,-1,1483,491,6.1643,2.35037
266,533,5.68884,-1.6214,0,0,0,0,0,0,0,-1,1490,491,5.68885,1.6214
273,533,5.21399,-0.864227,0,0,0,0,0,0,0,-1,1497,491,5.21403,0.864227
280,533,1.41089,-1.97946,0,0,0,0,0,0,0,-1,1504,491,1.41087,1.97946
287,533,1.6814,-2.44443,0,0,0,0,0,0,0,-1,1511,491,1.6814,2.44444
294,533,2.2384,-2.57626,0,0,0,0,0,0,0,-1,1518,491,2.23839,2.57625
301,533,3.39941,-4.0817,0,0,0,0,0,0,0,-1,1525,491,3.3994,4.08171
308,533,4.13733,-4.14752,0,0,0,0,0,0,0,-1,1532,491,4.13727,4.14752
315,533,4.80762,-5.29349,0,0,0,0,0,0,0,-1,1539,491,4.80762,5.29347
322,533,5.47803,-6.43942,0,0,0,0,0,0,0,-1,1546,491,5.47798,6.43943
329,533,3.88477,-3.86301,0,0,0,0,0,0,0,-1,1553,491,3.88475,3.86299
336,533,14.5214,-40.908,0,0,0,0,0,0,0,-1,1560,491,14.5214,40.908
343,533,16.3387,-44.9998,0,0,0,0,0,0,0,-1,1567,491,16.3387,44.9998
350,533,17.6749,-47.6289,0,0,0,0,0,0,0,-1,1574,491,17.6749,47.6289
357,533,20.983,-56.1171,0,0,0,0,0,0,0,-1,1581,491,20.983,56.1171
364,533,25.2891,-83.5117,0,0,0,0,0,0,0,-1,1588,491,25.289,83.5117
371,533,27.5264,-99.8054,0,0,0,0,0,0,0,-1,1595,491,27.5263,99.8054
378,533,61.002,-191.089,0,0,0,0,0,0,0,-1,1602,491,61.0019,191.089
385,533,60.7758,-187.718,0,0,0,0,0,0,0,-1,1609,491,60.7757,187.718
392,533,60.1958,-184.732,0,0,0,0,0,0,0,-1,1616,491,60.1958,184.732
399,533,60.0211,-181.352,0,0,0,0,0,0,0,-1,1623,491,60.0211,181.352
406,533,59.9598,-177.92,0,0,0,0,0,0,0,-1,1630,491,59.9599,177.92
413,533,59.8915,-174.5,0,0,0,0,0,0,0,-1,1637,491,59.8915,174.5
420,533,58.8359,-170.886,0.071835,0.0125113,-0.0480265,0.0986211,-0.0142748,-0.508763,0.0709857,0.0495352,1644,491,58.8359,170.886
427,533,59.3235,-167.192,0,0,0,0,0,0,0,-1,1651,491,59.3234,167.192
434,533,59.1761,-163.762,0.0656392,0.0150447,-0.0435533,0.0907091,-0.0100251,-0.522294,0.0640764,0.0385373,1658,491,59.1762,163.762
441,533,58.6194,-159.992,0.0631856,0.0167345,-0.0413602,0.0873951,-0.00747507,-0.529567,0.0609082,0.030363,1665,491,58.6194,159.992
448,533,57.8567,-156.045,0.0607558,0.0181264,-0.0389427,0.0838354,-0.00495322,-0.535001,0.0576123,0.0286909,1672,491,57.8567,156.045
455,533,57.2029,-152.237,0.0576527,0.0193168,-0.0361007,0.0793585,-0.00238906,-0.541345,0.0537197,0.0252004,1679,491,57.2029,152.237
462,533,56.636,-148.51,0.0545867,0.0203546,-0.0326887,0.0743693,0.000571985,-0.544221,0.04939,0.027569,1686,491,56.636,148.51
469,533,55.6321,-144.433,0.0515224,0.021558,-0.0285813,0.0688102,0.0042702,-0.543989,0.0445184,0.0217016,1693,491,55.6321,144.433
476,533,54.5311,-140.014,0.0486849,0.0231441,-0.0240705,0.0631628,0.00866612,-0.541507,0.0395377,0.0377752,1700,491,54.5312,140.014
483,533,53.4813,-135.586,0,0,0,0,0,0,0,-1,1707,491,53.4814,135.586
490,533,22.6746,-83.02,0,0,0,0,0,0,0,-1,1714,491,22.6745,83.02
497,533,20.9993,-43.9825,0,0,0,0,0,0,0,-1,1721,491,20.9992,43.9825
504,533,20.9569,-42.8138,0,0,0,0,0,0,0,-1,1728,491,20.9569,42.8139
511,533,13.6221,-19.2798,0,0,0,0,0,0,0,-1,1735,491,13.6221,19.2798
518,533,14.1954,-19.4995,0,0,0,0,0,0,0,-1,1742,491,14.1955,19.4995
525,533,13.7935,-19.6901,0,0,0,0,0,0,0,-1,1749,491,13.7934,19.6901
532,533,15.4377,-17.9016,0,0,0,0,0,0,0,-1,1756,491,15.4377,17.9015
539,533,12.8733,-18.2556,0,0,0,0,0,0,0,-1,1763,491,12.8733,18.2556
546,533,3.59607,1.65799,0,0,0,0,0,0,0,-1,1770,491,3.59605,-1.658
553,533,0,0,0,0,0,0,0,0,0,-1,1777,491,0,0
560,533,0,0,0,0,0,0,0,0,0,-1,1784,491,0,0
567,533,0,0,0,0,0,0,0,0,0,-1,1791,491,0,0
574,533,0,0,0,0,0,0,0,0,0,-1,1798,491,0,0
581,533,0,0,0,0,0,0,0,0,0,-1,1805,491,0,0
588,533,0,0,0,0,0,0,0,0,0,-1,1812,491,0,0
595,533,0,0,0,0,0,0,0,0,0,-1,1819,491,0,0
602,533,0,0,0,0,0,0,0,0,0,-1,1826,491,0,0
609,533,0,0,0,0,0,0,0,0,0,-1,1833,491,0,0
616,533,0,0,0,0,0,0,0,0,0,-1,1840,491,0,0
623,533,0,0,0,0,0,0,0,0,0,-1,1847,491,0,0
630,533,0,0,0,0,0,0,0,0,0,-1,1854,491,0,0
637,533,0,0,0,0,0,0,0,0,0,-1,1861,491,0,0
644,533,0,0,0,0,0,0,0,0,0,-1,1868,491,0,0
651,533,0,0,0,0,0,0,0,0,0,-1,1875,491,0,0
658,533,0,0,0,0,0,0,0,0,0,-1,1882,491,0,0
665,533,0,0,0,0,0,0,0,0,0,-1,1889,491,0,0
672,533,0,0,0,0,0,0,0,0,0,-1,1896,491,0,0
679,533,0,0,0,0,0,0,0,0,0,-1,1903,491,0,0
686,533,0,0,0,0,0,0,0,0,0,-1,1910,491,0,0
693,533,0,0,0,0,0,0,0,0,0,-1,1917,491,0,0
700,533,0,0,0,0,0,0,0,0,0,-1,1924,491,0,0
707,533,0,0,0,0,0,0,0,0,0,-1,1931,491,0,0
714,533,0,0,0,0,0,0,0,0,0,-1,1938,491,0,0
721,533,0,0,0,0,0,0,0,0,0,-1,1945,491,0,0
728,533,0,0,0,0,0,0,0,0,0,-1,1952,491,0,0
735,533,0,0,0,0,0,0,0,0,0,-1,1959,491,0,0
742,533,0,0,0,0,0,0,0,0,0,-1,1966,491,0,0
749,533,0,0,0,0,0,0,0,0,0,-1,1973,491,0,0
756,533,0,0,0,0,0,0,0,0,0,-1,1980,491,0,0
763,533,0,0,0,0,0,0,0,0,0,-1,1987,491,0,0
770,533,0,0,0,0,0,0,0,0,0,-1,1994,491,0,0
777,533,0,0,0,0,0,0,0,0,0,-1,2001,491,0,0
784,533,0,0,0,0,0,0,0,0,0,-1,2008,491,0,0
791,533,0,0,0,0,0,0,0,0,0,-1,2015,491,0,0
798,533,0,0,0,0,0,0,0,0,0,-1,2022,491,0,0
805,533,0,0,0,0,0,0,0,0,0,-1,2029,491,0,0
812,533,0,0,0,0,0,0,0,0,0,-1,2036,491,0,0
-700,526,0,0,0,0,0,0,0,0,0,-1,524,498,0,0
-693,526,0,0,0,0,0,0,0,0,0,-1,531,498,0,0
-686,526,0,0,0,0,0,0,0,0,0,-1,538,498,0,0
-679,526,0,0,0,0,0,0,0,0,0,-1,545,498,0,0
-672,526,0,0,0,0,0,0,0,0,0,-1,552,498,0,0
-665,526,0,0,0,0,0,0,0,0,0,-1,559,498,0,0
-658,526,0,0,0,0,0,0,0,0,0,-1,566,498,0,0
-651,526,0,0,0,0,0,0,0,0,0,-1,573,498,0,0
-644,526,0,0,0,0,0,0,0,0,0,-1,580,498,0,0
-637,526,0,0,0,0,0,0,0,0,0,-1,587,498,0,0
-630,526,0,0,0,0,0,0,0,0,0,-1,594,498,0,0
-623,526,0,0,0,0,0,0,0,0,0,-1,601,498,0,0
-616,526,0,0,0,0,0,0,0,0,0,-1,608,498,0,0
-609,526,0,0,0,0,0,0,0,0,0,-1,615,498,0,0
-602,526,0,0,0,0,0,0,0,0,0,-1,622,498,0,0
-595,526,0,0,0,0,0,0,0,0,0,-1,629,498,0,0
-588,526,0,0,0,0,0,0,0,0,0,-1,636,498,0,0
-581,526,0,0,0,0,0,0,0,0,0,-1,643,498,0,0
-574,526,0,0,0,0,0,0,0,0,0,-1,650,498,0,0
-567,526,0,0,0,0,0,0,0,0,0,-1,657,498,0,0
-560,526,0,0,0,0,0,0,0,0,0,-1,664,498,0,0
-553,526,0,0,0,0,0,0,0,0,0,-1,671,498,0,0
-546,526,0,0,0,0,0,0,0,0,0,-1,678,498,0,0
-539,526,0,0,0,0,0,0,0,0,0,-1,685,498,0,0
-532,526,0,0,0,0,0,0,0,0,0,-1,692,498,0,0
-525,526,0,0,0,0,0,0,0,0,0,-1,699,498,0,0
-518,526,0,0,0,0,0,0,0,0,0,-1,706,498,0,0
-511,526,0,0,0,0,0,0,0,0,0,-1,713,498,0,0
-504,526,0,0,0,0,0,0,0,0,0,-1,720,498,0,0
-497,526,0,0,0,0,0,0,0,0,0,-1,727,498,0,0
-490,526,0,0,0,0,0,0,0,0,0,-1,734,498,0,0
-483,526,0,0,0,0,0,0,0,0,0,-1,741,498,0,0
-476,526,0,0,0,0,0,0,0,0,0,-1,748,498,0,0
-469,526,0,0,0,0,0,0,0,0,0,-1,755,498,0,0
-462,526,0,0,0,0,0,0,0,0,0,-1,762,498,0,0
-455,526,0,0,0,0,0,0,0,0,0,-1,769,498,0,0
-448,526,0,0,0,0,0,0,0,0,0,-1,776,498,0,0
-441,526,0,0,0,0,0,0,0,0,0,-1,783,498,0,0
-434,526,-0.153564,-5.96649,0,0,0,0,0,0,0,-1,790,498,-0.153589,5.9665
-427,526,1.23206,-4.59808,0,0,0,0,0,0,0,-1,797,498,1.23208,4.59809
-420,526,-1.76373,-11.6241,0,0,0,0,0,0,0,-1,804,498,-1.76373,11.6241
-413,526,-1.38965,-11.7916,0,0,0,0,0,0,0,-1,811,498,-1.38963,11.7916
-406,526,-1.35187,-12.5182,0,0,0,0,0,0,0,-1,818,498,-1.35185,12.5181
-399,526,-1.32715,-13.2116,0,0,0,0,0,0,0,-1,825,498,-1.32713,13.2116
-392,526,0.197571,-15.303,0,0,0,0,0,0,0,-1,832,498,0.197598,15.303
-385,526,-2.69397,-19.6176,0,0,0,0,0,0,0,-1,839,498,-2.69399,19.6176
-378,526,-2.67041,-33.2585,0,0,0,0,0,0,0,-1,846,498,-2.67042,33.2585
-371,526,-12.8555,-82.679,0,0,0,0,0,0,0,-1,853,498,-12.8555,82.6789
-364,526,-16.8508,-122.91,0,0,0,0,0,0,0,-1,860,498,-16.8508,122.91
-357,526,-46.6174,-133.398,0,0,0,0,0,0,0,-1,867,498,-46.6175,133.398
-350,526,-47.0695,-137.871,0.0376414,0.0165528,0.0281483,0.0571555,-0.00296129,0.606189,0.0391281,0.0336377,874,498,-47.0695,137.871
-343,526,-48.3087,-142.081,0.0416675,0.0143941,0.0321585,0.0629611,-0.00689951,0.584867,0.0444528,0.0292837,881,498,-48.3087,142.081
-336,526,-49.2831,-146.138,0.0456354,0.0126641,0.0359359,0.0686866,-0.0103872,0.570344,0.0496172,0.0269583,888,498,-49.2831,146.138
-329,526,-50.0308,-150.163,0.0494882,0.0106074,0.0402639,0.0747592,-0.0146636,0.560491,0.0553783,0.0260133,895,498,-50.0308,150.163
-322,526,-50.8774,-154.016,0.0534299,0.00835643,0.044732,0.0809816,-0.0191953,0.55205,0.0613947,0.0246355,902,498,-50.8774,154.016
-315,526,-51.3695,-158.128,0.05746,0.00598224,0.0492435,0.0872856,-0.0238434,0.544583,0.0675556,0.0343474,909,498,-51.3695,158.128
-308,526,-51.742,-162.3,0.0616831,0.00344786,0.0539559,0.0938768,-0.0287458,0.537965,0.0740503,0.0308099,916,498,-51.742,162.301
-301,526,-52.4402,-165.504,0.0665671,0.000625242,0.0586244,0.100856,-0.0336638,0.529238,0.0808302,0.0207784,923,498,-52.4402,165.504
-294,526,-53.1903,-168.891,0.0714243,-0.00239544,0.0624966,0.107096,-0.0380677,0.518662,0.0869118,0.0184211,930,498,-53.1903,168.891
-287,526,-53.6199,-172.441,0.0756182,-0.00514808,0.0659754,0.112588,-0.0421183,0.510766,0.0923572,0.0244682,937,498,-53.62,172.441
-280,526,-53.7381,-175.877,0.0793715,-0.00742974,0.0684731,0.11704,-0.0450981,0.502935,0.0966332,0.0334814,944,498,-53.7381,175.877
-273,526,-53.6819,-179.326,0.0829214,-0.00991026,0.0696645,0.120217,-0.0472057,0.491532,0.0996781,0.0260534,951,498,-53.6819,179.326
-266,526,-53.761,-182.657,0,0,0,0,0,0,0,-1,958,498,-53.761,182.657
-259,526,-35.0405,-183.592,0,0,0,0,0,0,0,-1,965,498,-35.0405,183.592
-252,526,-20.0807,-125.473,0,0,0,0,0,0,0,-1,972,498,-20.0808,125.473
-245,526,-12.1247,-91.3829,0,0,0,0,0,0,0,-1,979,498,-12.1247,91.3829
-238,526,-5.37366,-62.8764,0,0,0,0,0,0,0,-1,986,498,-5.37368,62.8764
-231,526,-3.13611,-55.2932,0,0,0,0,0,0,0,-1,993,498,-3.13609,55.2932
-224,526,-2.755,-53.1861,0,0,0,0,0,0,0,-1,1000,498,-2.75499,53.1861
-217,526,-2.39459,-50.3551,0,0,0,0,0,0,0,-1,1007,498,-2.39458,50.3551
-210,526,-1.77289,-44.7313,0,0,0,0,0,0,0,-1,1014,498,-1.77289,44.7313
-203,526,-0.659302,-18.8818,0,0,0,0,0,0,0,-1,1021,498,-0.659273,18.8818
-196,526,-0.328247,-12.179,0,0,0,0,0,0,0,-1,1028,498,-0.328238,12.179
-189,526,0.401245,-5.96826,0,0,0,0,0,0,0,-1,1035,498,0.401197,5.96826
-182,526,1.7323,-2.99405,0,0,0,0,0,0,0,-1,1042,498,1.73226,2.99404
-175,526,2.27637,-2.07983,0,0,0,0,0,0,0,-1,1049,498,2.27639,2.07984
-168,526,2.12036,-1.66049,0,0,0,0,0,0,0,-1,1056,498,2.12035,1.66048
-161,526,2.09082,-1.20572,0,0,0,0,0,0,0,-1,1063,498,2.09086,1.2057
-154,526,-1.3446,-5.37799,0,0,0,0,0,0,0,-1,1070,498,-1.34457,5.37799
-147,526,-0.472656,-6.64996,0,0,0,0,0,0,0,-1,1077,498,-0.472659,6.64997
-140,526,0.422852,-8.03339,0,0,0,0,0,0,0,-1,1084,498,0.422844,8.0334
-133,526,1.09583,-9.2215,0,0,0,0,0,0,0,-1,1091,498,1.09581,9.2215
-126,526,3.42529,-2.36053,0,0,0,0,0,0,0,-1,1098,498,3.42523,2.36052
-119,526,2.7771,-0.764099,0,0,0,0,0,0,0,-1,1105,498,2.7771,0.764107
-112,526,2.57715,-1.1893,0,0,0,0,0,0,0,-1,1112,498,2.57718,1.1893
-105,526,0,0,0,0,0,0,0,0,0,-1,1119,498,0,0
-98,526,0,0,0,0,0,0,0,0,0,-1,1126,498,0,0
-91,526,0,0,0,0,0,0,0,0,0,-1,1133,498,0,0
-84,526,0,0,0,0,0,0,0,0,0,-1,1140,498,0,0
-77,526,0,0,0,0,0,0,0,0,0,-1,1147,498,0,0
-70,526,0,0,0,0,0,0,0,0,0,-1,1154,498,0,0
-63,526,0,0,0,0,0,0,0,0,0,-1,1161,498,0,0
-56,526,0,0,0,0,0,0,0,0,0,-1,1168,498,0,0
-49,526,0,0,0,0,0,0,0,0,0,-1,1175,498,0,0
-42,526,0,0,0,0,0,0,0,0,0,-1,1182,498,0,0
-35,526,0,0,0,0,0,0,0,0,0,-1,1189,498,0,0
-28,526,0,0,0,0,0,0,0,0,0,-1,1196,498,0,0
-21,526,0,0,0,0,0,0,0,0,0,-1,1203,498,0,0
-14,526,0,0,0,0,0,0,0,0,0,-1,1210,498,0,0
-7,526,0,0,0,0,0,0,0,0,0,-1,1217,498,0,0
0,526,0,0,0,0,0,0,0,0,0,-1,1224,498,0,0
7,526,0,0,0,0,0,0,0,0,0,-1,1231,498,0,0
14,526,0,0,0,0,0,0,0,0,0,-1,1238,498,0,0
21,526,0,0,0,0,0,0,0,0,0,-1,1245,498,0,0
28,526,0,0,0,0,0,0,0,0,0,-1,1252,498,0,0
35,526,0,0,0,0,0,0,0,0,0,-1,1259,498,0,0
42,526,0,0,0,0,0,0,0,0,0,-1,1266,498,0,0
49,526,0,0,0,0,0,0,0,0,0,-1,1273,498,0,0
56,526,0,0,0,0,0,0,0,0,0,-1,1280,498,0,0
63,526,0,0,0,0,0,0,0,0,0,-1,1287,498,0,0
70,526,0,0,0,0,0,0,0,0,0,-1,1294,498,0,0
77,526,0,0,0,0,0,0,0,0,0,-1,1301,498,0,0
84,526,0,0,0,0,0,0,0,0,0,-1,1308,498,0,0
91,526,0,0,0,0,0,0,0,0,0,-1,1315,498,0,0
98,526,0,0,0,0,0,0,0,0,0,-1,1322,498,0,0
105,526,0,0,0,0,0,0,0,0,0,-1,1329,498,0,0
112,526,0,0,0,0,0,0,0,0,0,-1,1336,498,0,0
119,526,0,0,0,0,0,0,0,0,0,-1,1343,498,0,0
126,526,0,0,0,0,0,0,0,0,0,-1,1350,498,0,0
133,526,0,0,0,0,0,0,0,0,0,-1,1357,498,0,0
140,526,0,0,0,0,0,0,0,0,0,-1,1364,498,0,0
147,526,0,0,0,0,0,0,0,0,0,-1,1371,498,0,0
154,526,0,0,0,0,0,0,0,0,0,-1,1378,498,0,0
161,526,0,0,0,0,0,0,0,0,0,-1,1385,498,0,0
168,526,0,0,0,0,0,0,0,0,0,-1,1392,498,0,0
175,526,0,0,0,0,0,0,0,0,0,-1,1399,498,0,0
182,526,0,0,0,0,0,0,0,0,0,-1,1406,498,0,0
189,526,0,0,0,0,0,0,0,0,0,-1,1413,498,0,0
196,526,0,0,0,0,0,0,0,0,0,-1,1420,498,0,0
203,526,0,0,0,0,0,0,0,0,0,-1,1427,498,0,0
210,526,0,0,0,0,0,0,0,0,0,-1,1434,498,0,0
217,526,0,0,0,0,0,0,0,0,0,-1,1441,498,0,0
224,526,0,0,0,0,0,0,0,0,0,-1,1448,498,0,0
231,526,7.93237,-1.30618,0,0,0,0,0,0,0,-1,1455,498,7.93238,1.30618
238,526,7.97717,-1.08197,0,0,0,0,0,0,0,-1,1462,498,7.97723,1.08196
245,526,7.2793,-0.792938,0,0,0,0,0,0,0,-1,1469,498,7.27931,0.792926
252,526,6.73523,-2.23608,0,0,0,0,0,0,0,-1,1476,498,6.73525,2.23608
259,526,6.22949,-1.84967,0,0,0,0,0,0,0,-1,1483,498,6.22953,1.84968
266,526,5.72375,-1.46329,0,0,0,0,0,0,0,-1,1490,498,5.72381,1.46328
273,526,4.33984,0.49173,0,0,0,0,0,0,0,-1,1497,498,4.33979,-0.491727
280,526,1.4585,-1.59897,0,0,0,0,0,0,0,-1,1504,498,1.45846,1.59895
287,526,1.46411,-2.40134,0,0,0,0,0,0,0,-1,1511,498,1.46406,2.40133
294,526,5.57471,-4.59085,0,0,0,0,0,0,0,-1,1518,498,5.57466,4.59084
301,526,4.42786,-3.99677,0,0,0,0,0,0,0,-1,1525,498,4.42788,3.99676
308,526,5.79529,-4.19366,0,0,0,0,0,0,0,-1,1532,498,5.79528,4.19368
315,526,5.09851,-5.20068,0,0,0,0,0,0,0,-1,1539,498,5.09851,5.20068
322,526,5.50708,-4.72348,0,0,0,0,0,0,0,-1,1546,498,5.50713,4.72347
329,526,3.88672,-4.345,0,0,0,0,0,0,0,-1,1553,498,3.88674,4.34501
336,526,4.97876,-2.23828,0,0,0,0,0,0,0,-1,1560,498,4.97877,2.23828
343,526,3.31665,-2.69696,0,0,0,0,0,0,0,-1,1567,498,3.31667,2.69696
350,526,6.06287,-6.12015,0,0,0,0,0,0,0,-1,1574,498,6.06286,6.12014
357,526,18.325,-47.38,0,0,0,0,0,0,0,-1,1581,498,18.325,47.38
364,526,21.9415,-54.9628,0,0,0,0,0,0,0,-1,1588,498,21.9416,54.9628
371,526,21.4055,-54.6006,0,0,0,0,0,0,0,-1,1595,498,21.4055,54.6007
378,526,24.0167,-70.1567,0,0,0,0,0,0,0,-1,1602,498,24.0167,70.1567
385,526,26.2645,-77.2075,0,0,0,0,0,0,0,-1,1609,498,26.2645,77.2074
392,526,54.6313,-183.259,0,0,0,0,0,0,0,-1,1616,498,54.6313,183.259
399,526,63.4934,-180.595,0,0,0,0,0,0,0,-1,1623,498,63.4935,180.595
406,526,64.025,-177.008,0,0,0,0,0,0,0,-1,1630,498,64.025,177.008
413,526,62.214,-173.644,0,0,0,0,0,0,0,-1,1637,498,62.2139,173.644
420,526,62.5669,-170.221,0,0,0,0,0,0,0,-1,1644,498,62.5668,170.221
427,526,63.1345,-166.454,0,0,0,0,0,0,0,-1,1651,498,63.1345,166.454
434,526,63.4135,-162.678,0.0689483,0.0141161,-0.0481131,0.0969083,-0.0138439,-0.526429,0.0696801,0.0420065,1658,498,63.4135,162.678
441,526,62.8429,-158.646,0.0663126,0.0155295,-0.0461177,0.0935668,-0.0117247,-0.533753,0.0666308,0.0201134,1665,498,62.8429,158.647
448,526,62.0886,-154.764,0.0636959,0.016775,-0.0438359,0.0899545,-0.00948352,-0.539698,0.0633678,0.0180333,1672,498,62.0886,154.764
455,526,61.3823,-150.894,0.0606568,0.0176597,-0.0411207,0.0855597,-0.00724323,-0.544531,0.0596011,0.0244222,1679,498,61.3823,150.894
462,526,60.7704,-147.091,0.0576808,0.0184149,-0.0378397,0.0806776,-0.00458186,-0.546093,0.0553755,0.020441,1686,498,60.7704,147.091
469,526,60.0823,-143.069,0.0546872,0.0193218,-0.0338922,0.0752322,-0.00122321,-0.544956,0.0505675,0.0202101,1693,498,60.0822,143.069
476,526,59.041,-138.884,0.0515982,0.0205259,-0.0294942,0.069398,0.00272615,-0.542988,0.0453839,0.0218543,1700,498,59.041,138.884
483,526,57.9302,-134.494,0.0481,0.0218259,-0.0244741,0.06274,0.00718596,-0.539081,0.039649,0.0369034,1707,498,57.9301,134.494
490,526,56.7599,-129.989,0,0,0,0,0,0,0,-1,1714,498,56.7599,129.989
497,526,25.0912,-69.6101,0,0,0,0,0,0,0,-1,1721,498,25.0911,69.6101
504,526,22.2432,-43.0208,0,0,0,0,0,0,0,-1,1728,498,22.2432,43.0208
511,526,22.3535,-41.4437,0,0,0,0,0,0,0,-1,1735,498,22.3535,41.4437
518,526,14.7889,-20.4046,0,0,0,0,0,0,0,-1,1742,498,14.7889,20.4046
525,526,14.7009,-19.7487,0,0,0,0,0,0,0,-1,1749,498,14.7009,19.7486
532,526,15.7457,-17.9624,0,0,0,0,0,0,0,-1,1756,498,15.7458,17.9624
539,526,16.1064,-16.42,0,0,0,0,0,0,0,-1,1763,498,16.1065,16.42
546,526,12.4675,-17.1617,0,0,0,0,0,0,0,-1,1770,498,12.4675,17.1617
553,526,3.40796,1.37137,0,0,0,0,0,0,0,-1,1777,498,3.40792,-1.37138
560,526,0,0,0,0,0,0,0,0,0,-1,1784,498,0,0
567,526,0,0,0,0,0,0,0,0,0,-1,1791,498,0,0
574,526,0,0,0,0,0,0,0,0,0,-1,1798,498,0,0
581,526,0,0,0,0,0,0,0,0,0,-1,1805,498,0,0
588,526,0,0,0,0,0,0,0,0,0,-1,1812,498,0,0
595,526,0,0,0,0,0,0,0,0,0,-1,1819,498,0,0
602,526,0,0,0,0,0,0,0,0,0,-1,1826,498,0,0
609,526,0,0,0,0,0,0,0,0,0,-1,1833,498,0,0
616,526,0,0,0,0,0,0,0,0,0,-1,1840,498,0,0
623,526,0,0,0,0,0,0,0,0,0,-1,1847,498,0,0
630,526,0,0,0,0,0,0,0,0,0,-1,1854,498,0,0
637,526,0,0,0,0,0,0,0,0,0,-1,1861,498,0,0
644,526,0,0,0,0,0,0,0,0,0,-1,1868,498,0,0
651,526,0,0,0,0,0,0,0,0,0,-1,1875,498,0,0
658,526,0,0,0,0,0,0,0,0,0,-1,1882,498,0,0
665,526,0,0,0,0,0,0,0,0,0,-1,1889,498,0,0
672,526,0,0,0,0,0,0,0,0,0,-1,1896,498,0,0
679,526,0,0,0,0,0,0,0,0,0,-1,1903,498,0,0
686,526,0,0,0,0,0,0,0,0,0,-1,1910,498,0,0
693,526,0,0,0,0,0,0,0,0,0,-1,1917,498,0,0
700,526,0,0,0,0,0,0,0,0,0,-1,1924,498,0,0
707,526,0,0,0,0,0,0,0,0,0,-1,1931,498,0,0
714,526,0,0,0,0,0,0,0,0,0,-1,1938,498,0,0
721,526,0,0,0,0,0,0,0,0,0,-1,1945,498,0,0
728,526,0,0,0,0,0,0,0,0,0,-1,1952,498,0,0
735,526,0,0,0,0,0,0,0,0,0,-1,1959,498,0,0
742,526,0,0,0,0,0,0,0,0,0,-1,1966,498,0,0
749,526,0,0,0,0,0,0,0,0,0,-1,1973,498,0,0
756,526,0,0,0,0,0,0,0,0,0,-1,1980,498,0,0
763,526,0,0,0,0,0,0,0,0,0,-1,1987,498,0,0
770,526,0,0,0,0,0,0,0,0,0,-1,1994,498,0,0
777,526,0,0,0,0,0,0,0,0,0,-1,2001,498,0,0
784,526,0,0,0,0,0,0,0,0,0,-1,2008,498,0,0
791,526,0,0,0,0,0,0,0,0,0,-1,2015,498,0,0
798,526,0,0,0,0,0,0,0,0,0,-1,2022,498,0,0
805,526,0,0,0,0,0,0,0,0,0,-1,2029,498,0,0
812,526,0,0,0,0,0,0,0,0,0,-1,2036,498,0,0
-700,519,0,0,0,0,0,0,0,0,0,-1,524,505,0,0
-693,519,0,0,0,0,0,0,0,0,0,-1,531,505,0,0
-686,519,0,0,0,0,0,0,0,0,0,-1,538,505,0,0
-679,519,0,0,0,0,0,0,0,0,0,-1,545,505,0,0
-672,519,0,0,0,0,0,0,0,0,0,-1,552,505,0,0
-665,519,0,0,0,0,0,0,0,0,0,-1,559,505,0,0
-658,519,0,0,0,0,0,0,0,0,0,-1,566,505,0,0
-651,519,0,0,0,0,0,0,0,0,0,-1,573,505,0,0
-644,519,0,0,0,0,0,0,0,0,0,-1,580,505,0,0
-637,519,0,0,0,0,0,0,0,0,0,-1,587,505,0,0
-630,519,0,0,0,0,0,0,0,0,0,-1,594,505,0,0
-623,519,0,0,0,0,0,0,0,0,0,-1,601,505,0,0
-616,519,0,0,0,0,0,0,0,0,0,-1,608,505,0,0
-609,519,0,0,0,0,0,0,0,0,0,-1,615,505,0,0
-602,519,0,0,0,0,0,0,0,0,0,-1,622,505,0,0
-595,519,0,0,0,0,0,0,0,0,0,-1,629,505,0,0
-588,519,0,0,0,0,0,0,0,0,0,-1,636,505,0,0
-581,519,0,0,0,0,0,0,0,0,0,-1,643,505,0,0
-574,519,0,0,0,0,0,0,0,0,0,-1,650,505,0,0
-567,519,0,0,0,0,0,0,0,0,0,-1,657,505,0,0
-560,519,0,0,0,0,0,0,0,0,0,-1,664,505,0,0
-553,519,0,0,0,0,0,0,0,0,0,-1,671,505,0,0
-546,519,0,0,0,0,0,0,0,0,0,-1,678,505,0,0
-539,519,0,0,0,0,0,0,0,0,0,-1,685,505,0,0
-532,519,0,0,0,0,0,0,0,0,0,-1,692,505,0,0
-525,519,0,0,0,0,0,0,0,0,0,-1,699,505,0,0
-518,519,0,0,0,0,0,0,0,0,0,-1,706,505,0,0
-511,519,0,0,0,0,0,0,0,0,0,-1,713,505,0,0
-504,519,0,0,0,0,0,0,0,0,0,-1,720,505,0,0
-497,519,0,0,0,0,0,0,0,0,0,-1,727,505,0,0
-490,519,0,0,0,0,0,0,0,0,0,-1,734,505,0,0
-483,519,0,0,0,0,0,0,0,0,0,-1,741,505,0,0
-476,519,0,0,0,0,0,0,0,0,0,-1,748,505,0,0
-469,519,0,0,0,0,0,0,0,0,0,-1,755,505,0,0
-462,519,0,0,0,0,0,0,0,0,0,-1,762,505,0,0
-455,519,0,0,0,0,0,0,0,0,0,-1,769,505,0,0
-448,519,0,0,0,0,0,0,0,0,0,-1,776,505,0,0
-441,519,1.34839,-5.29346,0,0,0,0,0,0,0,-1,783,505,1.3484,5.29347
-434,519,0.949585,-5.77313,0,0,0,0,0,0,0,-1,790,505,0.949598,5.77315
-427,519,-0.0523682,-9.31567,0,0,0,0,0,0,0,-1,797,505,-0.0523854,9.31568
-420,519,-2.38867,-12.1938,0,0,0,0,0,0,0,-1,804,505,-2.38867,12.1938
-413,519,-2.2298,-12.4998,0,0,0,0,0,0,0,-1,811,505,-2.22979,12.4998
-406,519,-1.44373,-12.3475,0,0,0,0,0,0,0,-1,818,505,-1.44376,12.3475
-399,519,-1.60516,-15.0849,0,0,0,0,0,0,0,-1,825,505,-1.60518,15.0849
-392,519,-1.94183,-24.8959,0,0,0,0,0,0,0,-1,832,505,-1.94183,24.8958
-385,519,-15.0157,-79.7313,0,0,0,0,0,0,0,-1,839,505,-15.0157,79.7313
-378,519,-14.6688,-79.4247,0,0,0,0,0,0,0,-1,846,505,-14.6688,79.4248
-371,519,-17.8939,-108.971,0,0,0,0,0,0,0,-1,853,505,-17.8938,108.971
-364,519,-49.9545,-127.958,0,0,0,0,0,0,0,-1,860,505,-49.9545,127.958
-357,519,-50.8206,-132.243,0.0389159,0.014081,0.0295675,0.0585676,-0.00557073,0.586597,0.0410282,0.0421726,867,505,-50.8206,132.243
-350,519,-51.6129,-136.504,0.042524,0.0126543,0.0338894,0.0646235,-0.00944518,0.577855,0.0465513,0.0262658,874,505,-51.6129,136.504
-343,519,-52.5945,-140.586,0.0462693,0.0110815,0.0379764,0.0705293,-0.0131786,0.568474,0.0519724,0.0282527,881,505,-52.5945,140.586
-336,519,-53.605,-144.602,0.0501137,0.00970596,0.0419665,0.0764865,-0.0166668,0.561058,0.0573595,0.0307226,888,505,-53.605,144.602
-329,519,-54.3785,-148.66,0.0539338,0.00779527,0.0464785,0.0827533,-0.0210242,0.555039,0.0633507,0.0285686,895,505,-54.3785,148.66
-322,519,-55.168,-152.639,0.0579673,0.00554986,0.0510087,0.0891065,-0.0255893,0.548081,0.069522,0.027635,902,505,-55.168,152.639
-315,519,-55.9927,-156.603,0,0,0,0,0,0,0,-1,909,505,-55.9926,156.603
-308,519,-55.436,-161.365,0,0,0,0,0,0,0,-1,916,505,-55.436,161.365
-301,519,-56.3611,-164.474,0,0,0,0,0,0,0,-1,923,505,-56.3611,164.474
-294,519,-57.2863,-167.582,0,0,0,0,0,0,0,-1,930,505,-57.2863,167.582
-287,519,-57.8185,-170.989,0,0,0,0,0,0,0,-1,937,505,-57.8185,170.989
-280,519,-58.0355,-174.434,0,0,0,0,0,0,0,-1,944,505,-58.0354,174.434
-273,519,-57.4598,-178.18,0,0,0,0,0,0,0,-1,951,505,-57.4598,178.18
-266,519,-37.4893,-179.309,0,0,0,0,0,0,0,-1,958,505,-37.4893,179.309
-259,519,-14.0467,-90.6321,0,0,0,0,0,0,0,-1,965,505,-14.0467,90.6322
-252,519,-1.84009,-26.8372,0,0,0,0,0,0,0,-1,972,505,-1.8401,26.8372
-245,519,-1.23254,-23.2696,0,0,0,0,0,0,0,-1,979,505,-1.23256,23.2696
-238,519,-3.37726,-48.8871,0,0,0,0,0,0,0,-1,986,505,-3.37723,48.8871
-231,519,-2.22742,-51.4121,0,0,0,0,0,0,0,-1,993,505,-2.22742,51.4121
-224,519,-3.33752,-42.7635,0,0,0,0,0,0,0,-1,1000,505,-3.33753,42.7635
-217,519,-2.87396,-38.149,0,0,0,0,0,0,0,-1,1007,505,-2.87394,38.149
-210,519,-0.883362,-34.799,0,0,0,0,0,0,0,-1,1014,505,-0.883379,34.799
-203,519,-0.513611,-5.39017,0,0,0,0,0,0,0,-1,1021,505,-0.513585,5.39017
-196,519,-0.374023,-5.41635,0,0,0,0,0,0,0,-1,1028,505,-0.374047,5.41635
-189,519,-0.234497,-5.44254,0,0,0,0,0,0,0,-1,1035,505,-0.234508,5.44253
-182,519,2.76697,-1.19659,0,0,0,0,0,0,0,-1,1042,505,2.76696,1.19661
-175,519,2.31323,-0.960938,0,0,0,0,0,0,0,-1,1049,505,2.31319,0.960941
-168,519,2.01074,-0.721405,0,0,0,0,0,0,0,-1,1056,505,2.01072,0.721407
-161,519,2.32056,-0.522339,0,0,0,0,0,0,0,-1,1063,505,2.32057,0.522328
-154,519,2.55566,0.116669,0,0,0,0,0,0,0,-1,1070,505,2.55563,-0.116661
-147,519,-0.55127,-6.14001,0,0,0,0,0,0,0,-1,1077,505,-0.551252,6.14001
-140,519,0.240601,-7.53503,0,0,0,0,0,0,0,-1,1084,505,0.240653,7.53501
-133,519,2.70911,-4.4516,0,0,0,0,0,0,0,-1,1091,505,2.70915,4.45161
-126,519,0,0,0,0,0,0,0,0,0,-1,1098,505,0,0
-119,519,0,0,0,0,0,0,0,0,0,-1,1105,505,0,0
-112,519,0,0,0,0,0,0,0,0,0,-1,1112,505,0,0
-105,519,0,0,0,0,0,0,0,0,0,-1,1119,505,0,0
-98,519,0,0,0,0,0,0,0,0,0,-1,1126,505,0,0
-91,519,0,0,0,0,0,0,0,0,0,-1,1133,505,0,0
-84,519,0,0,0,0,0,0,0,0,0,-1,1140,505,0,0
-77,519,0,0,0,0,0,0,0,0,0,-1,1147,505,0,0
-70,519,0,0,0,0,0,0,0,0,0,-1,1154,505,0,0
-63,519,0,0,0,0,0,0,0,0,0,-1,1161,505,0,0
-56,519,0,0,0,0,0,0,0,0,0,-1,1168,505,0,0
-49,519,0,0,0,0,0,0,0,0,0,-1,1175,505,0,0
-42,519,0,0,0,0,0,0,0,0,0,-1,1182,505,0,0
-35,519,0,0,0,0,0,0,0,0,0,-1,1189,505,0,0
-28,519,0,0,0,0,0,0,0,0,0,-1,1196,505,0,0
-21,519,0,0,0,0,0,0,0,0,0,-1,1203,505,0,0
-14,519,0,0,0,0,0,0,0,0,0,-1,1210,505,0,0
-7,519,0,0,0,0,0,0,0,0,0,-1,1217,505,0,0
0,519,0,0,0,0,0,0,0,0,0,-1,1224,505,0,0
7,519,0,0,0,0,0,0,0,0,0,-1,1231,505,0,0
14,519,0,0,0,0,0,0,0,0,0,-1,1238,505,0,0
21,519,0,0,0,0,0,0,0,0,0,-1,1245,505,0,0
28,519,0,0,0,0,0,0,0,0,0,-1,1252,505,0,0
35,519,0,0,0,0,0,0,0,0,0,-1,1259,505,0,0
42,519,0,0,0,0,0,0,0,0,0,-1,1266,505,0,0
49,519,0,0,0,0,0,0,0,0,0,-1,1273,505,0,0
56,519,0,0,0,0,0,0,0,0,0,-1,1280,505,0,0
63,519,0,0,0,0,0,0,0,0,0,-1,1287,505,0,0
70,519,0,0,0,0,0,0,0,0,0,-1,1294,505,0,0
77,519,0,0,0,0,0,0,0,0,0,-1,1301,505,0,0
84,519,0,0,0,0,0,0,0,0,0,-1,1308,505,0,0
91,519,0,0,0,0,0,0,0,0,0,-1,1315,505,0,0
98,519,0,0,0,0,0,0,0,0,0,-1,1322,505,0,0
105,519,0,0,0,0,0,0,0,0,0,-1,1329,505,0,0
112,519,0,0,0,0,0,0,0,0,0,-1,1336,505,0,0
119,519,0,0,0,0,0,0,0,0,0,-1,1343,505,0,0
126,519,0,0,0,0,0,0,0,0,0,-1,1350,505,0,0
133,519,0,0,0,0,0,0,0,0,0,-1,1357,505,0,0
140,519,0,0,0,0,0,0,0,0,0,-1,1364,505,0,0
147,519,0,0,0,0,0,0,0,0,0,-1,1371,505,0,0
154,519,0,0,0,0,0,0,0,0,0,-1,1378,505,0,0
161,519,0,0,0,0,0,0,0,0,0,-1,1385,505,0,0
168,519,0,0,0,0,0,0,0,0,0,-1,1392,505,0,0
175,519,0,0,0,0,0,0,0,0,0,-1,1399,505,0,0
182,519,0,0,0,0,0,0,0,0,0,-1,1406,505,0,0
189,519,0,0,0,0,0,0,0,0,0,-1,1413,505,0,0
196,519,0,0,0,0,0,0,0,0,0,-1,1420,505,0,0
203,519,0,0,0,0,0,0,0,0,0,-1,1427,505,0,0
210,519,0,0,0,0,0,0,0,0,0,-1,1434,505,0,0
217,519,0,0,0,0,0,0,0,0,0,-1,1441,505,0,0
224,519,0,0,0,0,0,0,0,0,0,-1,1448,505,0,0
231,519,0,0,0,0,0,0,0,0,0,-1,1455,505,0,0
238,519,0,0,0,0,0,0,0,0,0,-1,1462,505,0,0
245,519,0,0,0,0,0,0,0,0,0,-1,1469,505,0,0
252,519,5.26208,0.0938416,0,0,0,0,0,0,0,-1,1476,505,5.26207,-0.0938493
259,519,6.14246,-1.36441,0,0,0,0,0,0,0,-1,1483,505,6.14241,1.36441
266,519,5.31909,-0.400787,0,0,0,0,0,0,0,-1,1490,505,5.31912,0.400773
273,519,4.02393,0.325531,0,0,0,0,0,0,0,-1,1497,505,4.0239,-0.325522
280,519,4.68848,0.53006,0,0,0,0,0,0,0,-1,1504,505,4.68842,-0.530073
287,519,7.9519,-3.80801,0,0,0,0,0,0,0,-1,1511,505,7.95193,3.808
294,519,6.92273,-3.38889,0,0,0,0,0,0,0,-1,1518,505,6.92268,3.38888
301,519,5.35669,-2.92661,0,0,0,0,0,0,0,-1,1525,505,5.35675,2.9266
308,519,7.37549,-5.64529,0,0,0,0,0,0,0,-1,1532,505,7.3755,5.64529
315,519,6.30029,-4.53754,0,0,0,0,0,0,0,-1,1539,505,6.30024,4.53753
322,519,5.84302,-5.45117,0,0,0,0,0,0,0,-1,1546,505,5.84303,5.45116
329,519,4.92407,0.62384,0,0,0,0,0,0,0,-1,1553,505,4.92403,-0.623832
336,519,3.10095,-0.329285,0,0,0,0,0,0,0,-1,1560,505,3.1009,0.329283
343,519,2.49146,-2.31119,0,0,0,0,0,0,0,-1,1567,505,2.49145,2.31119
350,519,3.47729,-2.22516,0,0,0,0,0,0,0,-1,1574,505,3.47726,2.22515
357,519,13.271,-29.6344,0,0,0,0,0,0,0,-1,1581,505,13.271,29.6344
364,519,12.8292,-28.3627,0,0,0,0,0,0,0,-1,1588,505,12.8292,28.3627
371,519,12.3875,-27.0911,0,0,0,0,0,0,0,-1,1595,505,12.3874,27.091
378,519,6.36597,-10.0967,0,0,0,0,0,0,0,-1,1602,505,6.36597,10.0967
385,519,6.24756,-9.72186,0,0,0,0,0,0,0,-1,1609,505,6.24752,9.72183
392,519,16.8391,-37.6736,0,0,0,0,0,0,0,-1,1616,505,16.8391,37.6737
399,519,31.8569,-108.321,0,0,0,0,0,0,0,-1,1623,505,31.8569,108.321
406,519,62.7542,-174.802,0,0,0,0,0,0,0,-1,1630,505,62.7541,174.802
413,519,61.9102,-171.173,0,0,0,0,0,0,0,-1,1637,505,61.9101,171.173
420,519,67.8311,-168.831,0,0,0,0,0,0,0,-1,1644,505,67.8311,168.831
427,519,67.8783,-165.087,0,0,0,0,0,0,0,-1,1651,505,67.8783,165.087
434,519,67.72,-161.312,0.0720282,0.0139516,-0.0525396,0.10302,-0.0170404,-0.532944,0.0750082,0.0433683,1658,505,67.72,161.312
441,519,67.0531,-157.372,0.0691743,0.015023,-0.0509522,0.099798,-0.0156007,-0.541176,0.0722955,0.0209861,1665,505,67.0531,157.372
448,519,66.3793,-153.47,0.0664268,0.0159564,-0.0489672,0.0962788,-0.0138957,-0.547473,0.0692838,0.0171768,1672,505,66.3792,153.47
455,519,65.6356,-149.572,0.0635237,0.0164671,-0.0464575,0.0920712,-0.0120803,-0.551002,0.0657784,0.0191594,1679,505,65.6356,149.572
462,519,64.946,-145.605,0.0607424,0.0169013,-0.043353,0.0874016,-0.00975792,-0.551328,0.0617778,0.0205497,1686,505,64.946,145.605
469,519,64.2755,-141.498,0.0580484,0.0174894,-0.0396198,0.0822771,-0.00673932,-0.548856,0.0572303,0.027254,1693,505,64.2755,141.498
476,519,63.3422,-137.38,0.0552488,0.0183183,-0.0354199,0.0767277,-0.00316058,-0.545117,0.0522372,0.0287831,1700,505,63.3421,137.38
483,519,62.3024,-133.262,0.0526323,0.0193788,-0.0306674,0.0708902,0.0011209,-0.536995,0.046891,0.0206683,1707,505,62.3024,133.262
490,519,61.0509,-128.91,0.049875,0.0210717,-0.0251575,0.0644614,0.00648525,-0.525436,0.0409839,0.0188086,1714,505,61.0509,128.91
497,519,59.7893,-124.498,0,0,0,0,0,0,0,-1,1721,505,59.7893,124.498
504,519,59.0116,-119.797,0,0,0,0,0,0,0,-1,1728,505,59.0116,119.797
511,519,26.5901,-66.6717,0,0,0,0,0,0,0,-1,1735,505,26.5901,66.6717
518,519,20.183,-28.4342,0,0,0,0,0,0,0,-1,1742,505,20.183,28.4342
525,519,15.9647,-20.5714,0,0,0,0,0,0,0,-1,1749,505,15.9648,20.5714
532,519,15.825,-19.0025,0,0,0,0,0,0,0,-1,1756,505,15.8249,19.0025
539,519,16.5902,-16.8075,0,0,0,0,0,0,0,-1,1763,505,16.5903,16.8075
546,519,12.4001,-16.5616,0,0,0,0,0,0,0,-1,1770,505,12.4002,16.5616
553,519,4.14136,0.0667419,0,0,0,0,0,0,0,-1,1777,505,4.14141,-0.0667503
560,519,3.77856,0.279724,0,0,0,0,0,0,0,-1,1784,505,3.77861,-0.279731
567,519,0,0,0,0,0,0,0,0,0,-1,1791,505,0,0
574,519,0,0,0,0,0,0,0,0,0,-1,1798,505,0,0
581,519,0,0,0,0,0,0,0,0,0,-1,1805,505,0,0
588,519,0,0,0,0,0,0,0,0,0,-1,1812,505,0,0
595,519,0,0,0,0,0,0,0,0,0,-1,1819,505,0,0
602,519,0,0,0,0,0,0,0,0,0,-1,1826,505,0,0
609,519,0,0,0,0,0,0,0,0,0,-1,1833,505,0,0
616,519,0,0,0,0,0,0,0,0,0,-1,1840,505,0,0
623,519,0,0,0,0,0,0,0,0,0,-1,1847,505,0,0
630,519,0,0,0,0,0,0,0,0,0,-1,1854,505,0,0
637,519,0,0,0,0,0,0,0,0,0,-1,1861,505,0,0
644,519,0,0,0,0,0,0,0,0,0,-1,1868,505,0,0
651,519,0,0,0,0,0,0,0,0,0,-1,1875,505,0,0
658,519,0,0,0,0,0,0,0,0,0,-1,1882,505,0,0
665,519,0,0,0,0,0,0,0,0,0,-1,1889,505,0,0
672,519,0,0,0,0,0,0,0,0,0,-1,1896,505,0,0
679,519,0,0,0,0,0,0,0,0,0,-1,1903,505,0,0
686,519,0,0,0,0,0,0,0,0,0,-1,1910,505,0,0
693,519,0,0,0,0,0,0,0,0,0,-1,1917,505,0,0
700,519,0,0,0,0,0,0,0,0,0,-1,1924,505,0,0
707,519,0,0,0,0,0,0,0,0,0,-1,1931,505,0,0
714,519,0,0,0,0,0,0,0,0,0,-1,1938,505,0,0
721,519,0,0,0,0,0,0,0,0,0,-1,1945,505,0,0
728,519,0,0,0,0,0,0,0,0,0,-1,1952,505,0,0
735,519,0,0,0,0,0,0,0,0,0,-1,1959,505,0,0
742,519,0,0,0,0,0,0,0,0,0,-1,1966,505,0,0
749,519,0,0,0,0,0,0,0,0,0,-1,1973,505,0,0
756,519,0,0,0,0,0,0,0,0,0,-1,1980,505,0,0
763,519,0,0,0,0,0,0,0,0,0,-1,1987,505,0,0
770,519,0,0,0,0,0,0,0,0,0,-1,1994,505,0,0
777,519,0,0,0,0,0,0,0,0,0,-1,2001,505,0,0
784,519,0,0,0,0,0,0,0,0,0,-1,2008,505,0,0
791,519,0,0,0,0,0,0,0,0,0,-1,2015,505,0,0
798,519,0,0,0,0,0,0,0,0,0,-1,2022,505,0,0
805,519,0,0,0,0,0,0,0,0,0,-1,2029,505,0,0
812,519,0,0,0,0,0,0,0,0,0,-1,2036,505,0,0
-700,512,0,0,0,0,0,0,0,0,0,-1,524,512,0,0
-693,512,0,0,0,0,0,0,0,0,0,-1,531,512,0,0
-686,512,0,0,0,0,0,0,0,0,0,-1,538,512,0,0
-679,512,0,0,0,0,0,0,0,0,0,-1,545,512,0,0
-672,512,0,0,0,0,0,0,0,0,0,-1,552,512,0,0
-665,512,0,0,0,0,0,0,0,0,0,-1,559,512,0,0
-658,512,0,0,0,0,0,0,0,0,0,-1,566,512,0,0
-651,512,0,0,0,0,0,0,0,0,0,-1,573,512,0,0
-644,512,0,0,0,0,0,0,0,0,0,-1,580,512,0,0
-637,512,0,0,0,0,0,0,0,0,0,-1,587,512,0,0
-630,512,0,0,0,0,0,0,0,0,0,-1,594,512,0,0
-623,512,0,0,0,0,0,0,0,0,0,-1,601,512,0,0
-616,512,0,0,0,0,0,0,0,0,0,-1,608,512,0,0
-609,512,0,0,0,0,0,0,0,0,0,-1,615,512,0,0
-602,512,0,0,0,0,0,0,0,0,0,-1,622,512,0,0
-595,512,0,0,0,0,0,0,0,0,0,-1,629,512,0,0
-588,512,0,0,0,0,0,0,0,0,0,-1,636,512,0,0
-581,512,0,0,0,0,0,0,0,0,0,-1,643,512,0,0
-574,512,0,0,0,0,0,0,0,0,0,-1,650,512,0,0
-567,512,0,0,0,0,0,0,0,0,0,-1,657,512,0,0
-560,512,0,0,0,0,0,0,0,0,0,-1,664,512,0,0
-553,512,0,0,0,0,0,0,0,0,0,-1,671,512,0,0
-546,512,0,0,0,0,0,0,0,0,0,-1,678,512,0,0
-539,512,0,0,0,0,0,0,0,0,0,-1,685,512,0,0
-532,512,0,0,0,0,0,0,0,0,0,-1,692,512,0,0
-525,512,0,0,0,0,0,0,0,0,0,-1,699,512,0,0
-518,512,0,0,0,0,0,0,0,0,0,-1,706,512,0,0
-511,512,0,0,0,0,0,0,0,0,0,-1,713,512,0,0
-504,512,0,0,0,0,0,0,0,0,0,-1,720,512,0,0
-497,512,0,0,0,0,0,0,0,0,0,-1,727,512,0,0
-490,512,0,0,0,0,0,0,0,0,0,-1,734,512,0,0
-483,512,0,0,0,0,0,0,0,0,0,-1,741,512,0,0
-476,512,0,0,0,0,0,0,0,0,0,-1,748,512,0,0
-469,512,0,0,0,0,0,0,0,0,0,-1,755,512,0,0
-462,512,0,0,0,0,0,0,0,0,0,-1,762,512,0,0
-455,512,0,0,0,0,0,0,0,0,0,-1,769,512,0,0
-448,512,1.96283,-4.15674,0,0,0,0,0,0,0,-1,776,512,1.96285,4.15677
-441,512,1.78198,-4.88824,0,0,0,0,0,0,0,-1,783,512,1.78201,4.88826
-434,512,0.0726929,-9.85822,0,0,0,0,0,0,0,-1,790,512,0.0727008,9.85819
-427,512,-0.384583,-9.94824,0,0,0,0,0,0,0,-1,797,512,-0.384552,9.94823
-420,512,-2.93219,-12.4855,0,0,0,0,0,0,0,-1,804,512,-2.93219,12.4855
-413,512,-2.22711,-11.4485,0,0,0,0,0,0,0,-1,811,512,-2.22712,11.4485
-406,512,-2.38037,-13.5743,0,0,0,0,0,0,0,-1,818,512,-2.38034,13.5743
-399,512,-3.13367,-23.934,0,0,0,0,0,0,0,-1,825,512,-3.13368,23.934
-392,512,-17.0581,-76.7349,0,0,0,0,0,0,0,-1,832,512,-17.0581,76.7349
-385,512,-27.1439,-110.304,0,0,0,0,0,0,0,-1,839,512,-27.1439,110.304
-378,512,-51.2545,-117.32,0,0,0,0,0,0,0,-1,846,512,-51.2545,117.32
-371,512,-52.642,-122.339,0,0,0,0,0,0,0,-1,853,512,-52.642,122.339
-364,512,-53.9614,-126.648,0.0398394,0.0115196,0.030849,0.0596231,-0.00826404,0.570239,0.0427704,0.0425059,860,512,-53.9614,126.648
-357,512,-55.1652,-130.849,0.0433335,0.0104882,0.0349439,0.0655214,-0.0116998,0.565729,0.048058,0.0320516,867,512,-55.1652,130.849
-350,512,-56.1606,-134.989,0.0467506,0.00944058,0.0392945,0.0715935,-0.0154023,0.563777,0.0536059,0.0221882,874,512,-56.1606,134.989
-343,512,-57.1616,-139.095,0.0503286,0.00816971,0.0434693,0.0775599,-0.0190615,0.55964,0.0590942,0.0255743,881,512,-57.1616,139.095
-336,512,-58.0397,-143.1,0.0540973,0.00691318,0.0476955,0.0837165,-0.0227061,0.555723,0.0647213,0.0301355,888,512,-58.0398,143.1
-329,512,-58.7839,-147.124,0.0579418,0.00505092,0.0523949,0.090187,-0.0271942,0.551685,0.0709485,0.0342328,895,512,-58.7839,147.124
-322,512,-59.3654,-151.187,0.0621223,0.00272008,0.0570208,0.0967137,-0.0318713,0.545291,0.077321,0.0326223,902,512,-59.3654,151.187
-315,512,-60.0253,-155.095,0.0661203,0.000166941,0.0618876,0.103269,-0.0369815,0.540608,0.0839341,0.0364187,909,512,-60.0253,155.095
-308,512,-60.5117,-159.016,0.0703895,-0.00273182,0.0672088,0.110338,-0.0426806,0.536291,0.0911787,0.0448738,916,512,-60.5116,159.016
-301,512,-60.2025,-163.455,0,0,0,0,0,0,0,-1,923,512,-60.2025,163.455
-294,512,-60.9348,-165.902,0,0,0,0,0,0,0,-1,930,512,-60.9348,165.902
-287,512,-61.9277,-169.682,0,0,0,0,0,0,0,-1,937,512,-61.9277,169.682
-280,512,-29.0358,-135.184,0,0,0,0,0,0,0,-1,944,512,-29.0358,135.184
-273,512,-15.7443,-87.9698,0,0,0,0,0,0,0,-1,951,512,-15.7443,87.9698
-266,512,-2.33594,-25.9839,0,0,0,0,0,0,0,-1,958,512,-2.33592,25.9839
-259,512,-0.525452,-14.0815,0,0,0,0,0,0,0,-1,965,512,-0.525475,14.0815
-252,512,1.45941,-3.43475,0,0,0,0,0,0,0,-1,972,512,1.45938,3.43475
-245,512,-1.6731,-22.8959,0,0,0,0,0,0,0,-1,979,512,-1.67312,22.8959
-238,512,0.227051,-8.92969,0,0,0,0,0,0,0,-1,986,512,0.227073,8.92968
-231,512,-1.90576,-38.0918,0,0,0,0,0,0,0,-1,993,512,-1.90575,38.0918
-224,512,-1.29974,-33.6304,0,0,0,0,0,0,0,-1,1000,512,-1.29974,33.6304
-217,512,-0.963196,-34.1697,0,0,0,0,0,0,0,-1,1007,512,-0.963226,34.1697
-210,512,-3.76642,-1.94702,0,0,0,0,0,0,0,-1,1014,512,-3.76641,1.94702
-203,512,-2.48328,-5.19061,0,0,0,0,0,0,0,-1,1021,512,-2.48328,5.19059
-196,512,-1.14929,-4.63202,0,0,0,0,0,0,0,-1,1028,512,-1.14934,4.632
-189,512,0.197998,4.55505,0,0,0,0,0,0,0,-1,1035,512,0.197996,-4.55506
-182,512,2.73938,0.0778503,0,0,0,0,0,0,0,-1,1042,512,2.73944,-0.077852
-175,512,2.29565,0.209808,0,0,0,0,0,0,0,-1,1049,512,2.29565,-0.209813
-168,512,2.09399,-0.302856,0,0,0,0,0,0,0,-1,1056,512,2.09403,0.302826
-161,512,2.76636,0.0921021,0,0,0,0,0,0,0,-1,1063,512,2.76633,-0.0921104
-154,512,3.41382,0.466187,0,0,0,0,0,0,0,-1,1070,512,3.41382,-0.466178
-147,512,0,0,0,0,0,0,0,0,0,-1,1077,512,0,0
-140,512,0,0,0,0,0,0,0,0,0,-1,1084,512,0,0
-133,512,0,0,0,0,0,0,0,0,0,-1,1091,512,0,0
-126,512,0,0,0,0,0,0,0,0,0,-1,1098,512,0,0
-119,512,0,0,0,0,0,0,0,0,0,-1,1105,512,0,0
-112,512,0,0,0,0,0,0,0,0,0,-1,1112,512,0,0
-105,512,0,0,0,0,0,0,0,0,0,-1,1119,512,0,0
-98,512,0,0,0,0,0,0,0,0,0,-1,1126,512,0,0
-91,512,0,0,0,0,0,0,0,0,0,-1,1133,512,0,0
-84,512,0,0,0,0,0,0,0,0,0,-1,1140,512,0,0
-77,512,0,0,0,0,0,0,0,0,0,-1,1147,512,0,0
-70,512,0,0,0,0,0,0,0,0,0,-1,1154,512,0,0
-63,512,0,0,0,0,0,0,0,0,0,-1,1161,512,0,0
-56,512,0,0,0,0,0,0,0,0,0,-1,1168,512,0,0
-49,512,0,0,0,0,0,0,0,0,0,-1,1175,512,0,0
-42,512,0,0,0,0,0,0,0,0,0,-1,1182,512,0,0
-35,512,0,0,0,0,0,0,0,0,0,-1,1189,512,0,0
-28,512,0,0,0,0,0,0,0,0,0,-1,1196,512,0,0
-21,512,0,0,0,0,0,0,0,0,0,-1,1203,512,0,0
-14,512,0,0,0,0,0,0,0,0,0,-1,1210,512,0,0
-7,512,0,0,0,0,0,0,0,0,0,-1,1217,512,0,0
0,512,0,0,0,0,0,0,0,0,0,-1,1224,512,0,0
7,512,0,0,0,0,0,0,0,0,0,-1,1231,512,0,0
14,512,0,0,0,0,0,0,0,0,0,-1,1238,512,0,0
21,512,0,0,0,0,0,0,0,0,0,-1,1245,512,0,0
28,512,0,0,0,0,0,0,0,0,0,-1,1252,512,0,0
35,512,0,0,0,0,0,0,0,0,0,-1,1259,512,0,0
42,512,0,0,0,0,0,0,0,0,0,-1,1266,512,0,0
49,512,0,0,0,0,0,0,0,0,0,-1,1273,512,0,0
56,512,0,0,0,0,0,0,0,0,0,-1,1280,512,0,0
63,512,0,0,0,0,0,0,0,0,0,-1,1287,512,0,0
70,512,0,0,0,0,0,0,0,0,0,-1,1294,512,0,0
77,512,0,0,0,0,0,0,0,0,0,-1,1301,512,0,0
84,512,0,0,0,0,0,0,0,0,0,-1,1308,512,0,0
91,512,0,0,0,0,0,0,0,0,0,-1,1315,512,0,0
98,512,0,0,0,0,0,0,0,0,0,-1,1322,512,0,0
105,512,0,0,0,0,0,0,0,0,0,-1,1329,512,0,0
112,512,0,0,0,0,0,0,0,0,0,-1,1336,512,0,0
119,512,0,0,0,0,0,0,0,0,0,-1,1343,512,0,0
126,512,0,0,0,0,0,0,0,0,0,-1,1350,512,0,0
133,512,0,0,0,0,0,0,0,0,0,-1,1357,512,0,0
140,512,0,0,0,0,0,0,0,0,0,-1,1364,512,0,0
147,512,0,0,0,0,0,0,0,0,0,-1,1371,512,0,0
154,512,0,0,0,0,0,0,0,0,0,-1,1378,512,0,0
161,512,0,0,0,0,0,0,0,0,0,-1,1385,512,0,0
168,512,0,0,0,0,0,0,0,0,0,-1,1392,512,0,0
175,512,0,0,0,0,0,0,0,0,0,-1,1399,512,0,0
182,512,0,0,0,0,0,0,0,0,0,-1,1406,512,0,0
189,512,0,0,0,0,0,0,0,0,0,-1,1413,512,0,0
196,512,0,0,0,0,0,0,0,0,0,-1,1420,512,0,0
203,512,0,0,0,0,0,0,0,0,0,-1,1427,512,0,0
210,512,0,0,0,0,0,0,0,0,0,-1,1434,512,0,0
217,512,0,0,0,0,0,0,0,0,0,-1,1441,512,0,0
224,512,0,0,0,0,0,0,0,0,0,-1,1448,512,0,0
231,512,0,0,0,0,0,0,0,0,0,-1,1455,512,0,0
238,512,0,0,0,0,0,0,0,0,0,-1,1462,512,0,0
245,512,0,0,0,0,0,0,0,0,0,-1,1469,512,0,0
252,512,0,0,0,0,0,0,0,0,0,-1,1476,512,0,0
259,512,0,0,0,0,0,0,0,0,0,-1,1483,512,0,0
266,512,0,0,0,0,0,0,0,0,0,-1,1490,512,0,0
273,512,4.00745,0.618622,0,0,0,0,0,0,0,-1,1497,512,4.00747,-0.618611
280,512,4.49609,0.649841,0,0,0,0,0,0,0,-1,1504,512,4.49612,-0.649834
287,512,4.77234,0.458069,0,0,0,0,0,0,0,-1,1511,512,4.77233,-0.458083
294,512,8.54956,-2.36273,0,0,0,0,0,0,0,-1,1518,512,8.54952,2.36274
301,512,6.302,-1.69092,0,0,0,0,0,0,0,-1,1525,512,6.30196,1.69093
308,512,8.2439,-6.22754,0,0,0,0,0,0,0,-1,1532,512,8.24394,6.22757
315,512,7.53687,-6.04211,0,0,0,0,0,0,0,-1,1539,512,7.53691,6.04211
322,512,6.82983,-5.85663,0,0,0,0,0,0,0,-1,1546,512,6.82988,5.85666
329,512,4.38147,-0.329651,0,0,0,0,0,0,0,-1,1553,512,4.38144,0.329662
336,512,4.41467,-0.741455,0,0,0,0,0,0,0,-1,1560,512,4.41467,0.741442
343,512,4.44727,-1.21667,0,0,0,0,0,0,0,-1,1567,512,4.44732,1.21666
350,512,4.55469,-1.65082,0,0,0,0,0,0,0,-1,1574,512,4.5547,1.65083
357,512,5.79993,-2.67456,0,0,0,0,0,0,0,-1,1581,512,5.79991,2.67454
364,512,13.118,-28.5485,0,0,0,0,0,0,0,-1,1588,512,13.1181,28.5485
371,512,5.28467,-7.69269,0,0,0,0,0,0,0,-1,1595,512,5.28464,7.69269
378,512,6.29407,-9.88055,0,0,0,0,0,0,0,-1,1602,512,6.29412,9.88057
385,512,6.45569,-9.32233,0,0,0,0,0,0,0,-1,1609,512,6.45565,9.3223
392,512,6.35522,-8.98425,0,0,0,0,0,0,0,-1,1616,512,6.35526,8.98422
399,512,16.9089,-33.7311,0,0,0,0,0,0,0,-1,1623,512,16.9089,33.7311
406,512,21.3325,-43.5074,0,0,0,0,0,0,0,-1,1630,512,21.3325,43.5074
413,512,66.2461,-169.974,0,0,0,0,0,0,0,-1,1637,512,66.2461,169.974
420,512,65.6412,-166.296,0,0,0,0,0,0,0,-1,1644,512,65.6412,166.296
427,512,72.2698,-163.697,0,0,0,0,0,0,0,-1,1651,512,72.2698,163.697
434,512,72.2036,-159.839,0.0748346,0.0144006,-0.0569436,0.109082,-0.0198466,-0.541466,0.08016,0.0393591,1658,512,72.2036,159.839
441,512,71.4696,-155.994,0.0712612,0.0150209,-0.055996,0.105801,-0.0195191,-0.552703,0.0778603,0.0208243,1665,512,71.4695,155.994
448,512,70.6517,-152.169,0.068117,0.0155098,-0.0544429,0.102278,-0.0186507,-0.560363,0.0751771,0.0189611,1672,512,70.6517,152.169
455,512,69.9122,-148.292,0.0651446,0.0155687,-0.052206,0.0981485,-0.0174353,-0.563751,0.0719517,0.0222279,1679,512,69.9122,148.292
462,512,69.2627,-144.316,0.0624553,0.0156344,-0.0492921,0.0936137,-0.015524,-0.563702,0.0681755,0.0206318,1686,512,69.2626,144.316
469,512,68.4939,-140.038,0.0600549,0.0158883,-0.0457737,0.0887939,-0.0128506,-0.560645,0.0639116,0.0285712,1693,512,68.4939,140.038
476,512,67.6434,-135.883,0.0577851,0.0163297,-0.0417836,0.0836997,-0.00958492,-0.555147,0.0592538,0.0351056,1700,512,67.6434,135.883
483,512,66.7063,-131.777,0.0562901,0.0170599,-0.0373011,0.0788191,-0.00546911,-0.543338,0.0544607,0.024476,1707,512,66.7063,131.777
490,512,65.7046,-127.495,0.0550468,0.0181597,-0.0325082,0.073979,-0.000772472,-0.527365,0.0495788,0.0171087,1714,512,65.7046,127.495
497,512,64.5594,-123.096,0.054005,0.0194252,-0.0279448,0.0695762,0.00385401,-0.508364,0.0451543,0.0175469,1721,512,64.5594,123.096
504,512,63.3989,-118.685,0.0536103,0.0215424,-0.0234271,0.065965,0.00918765,-0.485303,0.0412566,0.0396757,1728,512,63.399,118.685
511,512,62.2324,-114.215,0,0,0,0,0,0,0,-1,1735,512,62.2324,114.215
518,512,28.3206,-64.3033,0,0,0,0,0,0,0,-1,1742,512,28.3206,64.3033
525,512,21.4387,-27.6805,0,0,0,0,0,0,0,-1,1749,512,21.4388,27.6805
532,512,16.6807,-19.0635,0,0,0,0,0,0,0,-1,1756,512,16.6807,19.0635
539,512,12.6367,-16.4022,0,0,0,0,0,0,0,-1,1763,512,12.6367,16.4021
546,512,2.77551,-0.66449,0,0,0,0,0,0,0,-1,1770,512,2.77548,0.664503
553,512,3.927,-0.448853,0,0,0,0,0,0,0,-1,1777,512,3.92704,0.448843
560,512,3.55762,-0.201233,0,0,0,0,0,0,0,-1,1784,512,3.55768,0.201259
567,512,3.09045,0.191193,0,0,0,0,0,0,0,-1,1791,512,3.09045,-0.191203
574,512,0,0,0,0,0,0,0,0,0,-1,1798,512,0,0
581,512,0,0,0,0,0,0,0,0,0,-1,1805,512,0,0
588,512,0,0,0,0,0,0,0,0,0,-1,1812,512,0,0
595,512,0,0,0,0,0,0,0,0,0,-1,1819,512,0,0
602,512,0,0,0,0,0,0,0,0,0,-1,1826,512,0,0
609,512,0,0,0,0,0,0,0,0,0,-1,1833,512,0,0
616,512,0,0,0,0,0,0,0,0,0,-1,1840,512,0,0
623,512,0,0,0,0,0,0,0,0,0,-1,1847,512,0,0
630,512,0,0,0,0,0,0,0,0,0,-1,1854,512,0,0
637,512,0,0,0,0,0,0,0,0,0,-1,1861,512,0,0
644,512,0,0,0,0,0,0,0,0,0,-1,1868,512,0,0
651,512,0,0,0,0,0,0,0,0,0,-1,1875,512,0,0
658,512,0,0,0,0,0,0,0,0,0,-1,1882,512,0,0
665,512,0,0,0,0,0,0,0,0,0,-1,1889,512,0,0
672,512,0,0,0,0,0,0,0,0,0,-1,1896,512,0,0
679,512,0,0,0,0,0,0,0,0,0,-1,1903,512,0,0
686,512,0,0,0,0,0,0,0,0,0,-1,1910,512,0,0
693,512,0,0,0,0,0,0,0,0,0,-1,1917,512,0,0
700,512,0,0,0,0,0,0,0,0,0,-1,1924,512,0,0
707,512,0,0,0,0,0,0,0,0,0,-1,1931,512,0,0
714,512,0,0,0,0,0,0,0,0,0,-1,1938,512,0,0
721,512,0,0,0,0,0,0,0,0,0,-1,1945,512,0,0
728,512,0,0,0,0,0,0,0,0,0,-1,1952,512,0,0
735,512,0,0,0,0,0,0,0,0,0,-1,1959,512,0,0
742,512,0,0,0,0,0,0,0,0,0,-1,1966,512,0,0
749,512,0,0,0,0,0,0,0,0,0,-1,1973,512,0,0
756,512,0,0,0,0,0,0,0,0,0,-1,1980,512,0,0
763,512,0,0,0,0,0,0,0,0,0,-1,1987,512,0,0
770,512,0,0,0,0,0,0,0,0,0,-1,1994,512,0,0
777,512,0,0,0,0,0,0,0,0,0,-1,2001,512,0,0
784,512,0,0,0,0,0,0,0,0,0,-1,2008,512,0,0
791,512,0,0,0,0,0,0,0,0,0,-1,2015,512,0,0
798,512,0,0,0,0,0,0,0,0,0,-1,2022,512,0,0
805,512,0,0,0,0,0,0,0,0,0,-1,2029,512,0,0
812,512,0,0,0,0,0,0,0,0,0,-1,2036,512,0,0
-700,505,0,0,0,0,0,0,0,0,0,-1,524,519,0,0
-693,505,0,0,0,0,0,0,0,0,0,-1,531,519,0,0
-686,505,0,0,0,0,0,0,0,0,0,-1,538,519,0,0
-679,505,0,0,0,0,0,0,0,0,0,-1,545,519,0,0
-672,505,0,0,0,0,0,0,0,0,0,-1,552,519,0,0
-665,505,0,0,0,0,0,0,0,0,0,-1,559,519,0,0
-658,505,0,0,0,0,0,0,0,0,0,-1,566,519,0,0
-651,505,0,0,0,0,0,0,0,0,0,-1,573,519,0,0
-644,505,0,0,0,0,0,0,0,0,0,-1,580,519,0,0
-637,505,0,0,0,0,0,0,0,0,0,-1,587,519,0,0
-630,505,0,0,0,0,0,0,0,0,0,-1,594,519,0,0
-623,505,0,0,0,0,0,0,0,0,0,-1,601,519,0,0
-616,505,0,0,0,0,0,0,0,0,0,-1,608,519,0,0
-609,505,0,0,0,0,0,0,0,0,0,-1,615,519,0,0
-602,505,0,0,0,0,0,0,0,0,0,-1,622,519,0,0
-595,505,0,0,0,0,0,0,0,0,0,-1,629,519,0,0
-588,505,0,0,0,0,0,0,0,0,0,-1,636,519,0,0
-581,505,0,0,0,0,0,0,0,0,0,-1,643,519,0,0
-574,505,0,0,0,0,0,0,0,0,0,-1,650,519,0,0
-567,505,0,0,0,0,0,0,0,0,0,-1,657,519,0,0
-560,505,0,0,0,0,0,0,0,0,0,-1,664,519,0,0
-553,505,0,0,0,0,0,0,0,0,0,-1,671,519,0,0
-546,505,0,0,0,0,0,0,0,0,0,-1,678,519,0,0
-539,505,0,0,0,0,0,0,0,0,0,-1,685,519,0,0
-532,505,0,0,0,0,0,0,0,0,0,-1,692,519,0,0
-525,505,0,0,0,0,0,0,0,0,0,-1,699,519,0,0
-518,505,0,0,0,0,0,0,0,0,0,-1,706,519,0,0
-511,505,0,0,0,0,0,0,0,0,0,-1,713,519,0,0
-504,505,0,0,0,0,0,0,0,0,0,-1,720,519,0,0
-497,505,0,0,0,0,0,0,0,0,0,-1,727,519,0,0
-490,505,0,0,0,0,0,0,0,0,0,-1,734,519,0,0
-483,505,0,0,0,0,0,0,0,0,0,-1,741,519,0,0
-476,505,0,0,0,0,0,0,0,0,0,-1,748,519,0,0
-469,505,0,0,0,0,0,0,0,0,0,-1,755,519,0,0
-462,505,0,0,0,0,0,0,0,0,0,-1,762,519,0,0
-455,505,2.72137,-3.26379,0,0,0,0,0,0,0,-1,769,519,2.72135,3.26377
-448,505,2.51111,-3.94989,0,0,0,0,0,0,0,-1,776,519,2.51112,3.94986
-441,505,2.80212,-6.8902,0,0,0,0,0,0,0,-1,783,519,2.80209,6.89019
-434,505,-0.155212,-10.6374,0,0,0,0,0,0,0,-1,790,519,-0.155194,10.6374
-427,505,-0.474426,-10.4702,0,0,0,0,0,0,0,-1,797,519,-0.474433,10.4702
-420,505,-0.922546,-10.1928,0,0,0,0,0,0,0,-1,804,519,-0.92257,10.1928
-413,505,-3.33948,-13.6183,0,0,0,0,0,0,0,-1,811,519,-3.33949,13.6184
-406,505,-3.2439,-18.3408,0,0,0,0,0,0,0,-1,818,519,-3.24389,18.3408
-399,505,-13.6014,-52.9089,0,0,0,0,0,0,0,-1,825,519,-13.6014,52.9089
-392,505,-30.1122,-103.988,0,0,0,0,0,0,0,-1,832,519,-30.1122,103.988
-385,505,-54.8223,-110.802,0,0,0,0,0,0,0,-1,839,519,-54.8223,110.802
-378,505,-56.047,-115.831,0.0379545,0.0102363,0.0274221,0.0548208,-0.00662994,0.55142,0.0389457,0.032836,846,519,-56.047,115.831
-371,505,-57.3696,-120.492,0.0406252,0.0091373,0.0317956,0.0603613,-0.0105988,0.555514,0.0441994,0.0223004,853,519,-57.3696,120.492
-364,505,-58.4628,-124.935,0.0437895,0.00826859,0.0360436,0.0662108,-0.0141527,0.556483,0.0495366,0.0245793,860,519,-58.4628,124.935
-357,505,-59.6528,-129.292,0.0471059,0.00745843,0.0402201,0.0721223,-0.017558,0.55643,0.0548786,0.0202781,867,519,-59.6528,129.292
-350,505,-60.7935,-133.529,0.0503774,0.00668107,0.0445205,0.0781218,-0.0210632,0.55729,0.0603404,0.0205266,874,519,-60.7935,133.529
-343,505,-61.9092,-137.658,0.0538271,0.00562923,0.0487251,0.0840871,-0.0246307,0.555743,0.0658228,0.0198158,881,519,-61.9092,137.658
-336,505,-62.7539,-141.643,0.0575191,0.00438724,0.0531509,0.0903734,-0.0284671,0.553646,0.0716485,0.0273957,888,519,-62.7539,141.643
-329,505,-63.2588,-145.639,0.0614187,0.00254052,0.057987,0.0970116,-0.0330523,0.55051,0.0780603,0.042494,895,519,-63.2588,145.639
-322,505,-63.5541,-149.656,0,0,0,0,0,0,0,-1,902,519,-63.5541,149.657
-315,505,-64.3416,-153.559,0.0701569,-0.00300571,0.0677754,0.110593,-0.043442,0.537931,0.0917059,0.0397794,909,519,-64.3416,153.559
-308,505,-65.0903,-157.204,0.0744613,-0.00638997,0.0735379,0.117953,-0.0498813,0.534082,0.0995201,0.0388702,916,519,-65.0903,157.204
-301,505,-65.7844,-160.718,0,0,0,0,0,0,0,-1,923,519,-65.7844,160.718
-294,505,-65.1178,-164.511,0,0,0,0,0,0,0,-1,930,519,-65.1178,164.511
-287,505,-18.8856,-88.2983,0,0,0,0,0,0,0,-1,937,519,-18.8856,88.2983
-280,505,-16.3037,-81.0037,0,0,0,0,0,0,0,-1,944,519,-16.3037,81.0037
-273,505,-0.0680542,-9.44867,0,0,0,0,0,0,0,-1,951,519,-0.0680462,9.44866
-266,505,-0.036377,-9.07922,0,0,0,0,0,0,0,-1,958,519,-0.0364055,9.0792
-259,505,0.10321,-6.69824,0,0,0,0,0,0,0,-1,965,519,0.103235,6.69826
-252,505,6.82312,-15.6972,0,0,0,0,0,0,0,-1,972,519,6.82314,15.6972
-245,505,4.26727,-12.9861,0,0,0,0,0,0,0,-1,979,519,4.2673,12.9861
-238,505,1.67432,-11.2307,0,0,0,0,0,0,0,-1,986,519,1.67429,11.2307
-231,505,-0.958435,-8.3075,0,0,0,0,0,0,0,-1,993,519,-0.958421,8.30751
-224,505,-1.46399,-33.4399,0,0,0,0,0,0,0,-1,1000,519,-1.46397,33.4399
-217,505,-6.34302,-1.65533,0,0,0,0,0,0,0,-1,1007,519,-6.34299,1.65535
-210,505,-3.06128,-0.396301,0,0,0,0,0,0,0,-1,1014,519,-3.06129,0.396294
-203,505,-4.26465,2.03607,0,0,0,0,0,0,0,-1,1021,519,-4.26462,-2.03606
-196,505,-5.47595,4.27295,0,0,0,0,0,0,0,-1,1028,519,-5.47597,-4.27292
-189,505,1.51526,5.56207,0,0,0,0,0,0,0,-1,1035,519,1.51523,-5.56209
-182,505,2.97815,7.5097,0,0,0,0,0,0,0,-1,1042,519,2.97812,-7.5097
-175,505,-2.38416,-2.17548,0,0,0,0,0,0,0,-1,1049,519,-2.38411,2.1755
-168,505,0,0,0,0,0,0,0,0,0,-1,1056,519,0,0
-161,505,0,0,0,0,0,0,0,0,0,-1,1063,519,0,0
-154,505,0,0,0,0,0,0,0,0,0,-1,1070,519,0,0
-147,505,0,0,0,0,0,0,0,0,0,-1,1077,519,0,0
-140,505,0,0,0,0,0,0,0,0,0,-1,1084,519,0,0
-133,505,0,0,0,0,0,0,0,0,0,-1,1091,519,0,0
-126,505,0,0,0,0,0,0,0,0,0,-1,1098,519,0,0
-119,505,0,0,0,0,0,0,0,0,0,-1,1105,519,0,0
-112,505,0,0,0,0,0,0,0,0,0,-1,1112,519,0,0
-105,505,0,0,0,0,0,0,0,0,0,-1,1119,519,0,0
-98,505,0,0,0,0,0,0,0,0,0,-1,1126,519,0,0
-91,505,0,0,0,0,0,0,0,0,0,-1,1133,519,0,0
-84,505,0,0,0,0,0,0,0,0,0,-1,1140,519,0,0
-77,505,0,0,0,0,0,0,0,0,0,-1,1147,519,0,0
-70,505,0,0,0,0,0,0,0,0,0,-1,1154,519,0,0
-63,505,0,0,0,0,0,0,0,0,0,-1,1161,519,0,0
-56,505,0,0,0,0,0,0,0,0,0,-1,1168,519,0,0
-49,505,0,0,0,0,0,0,0,0,0,-1,1175,519,0,0
-42,505,0,0,0,0,0,0,0,0,0,-1,1182,519,0,0
-35,505,0,0,0,0,0,0,0,0,0,-1,1189,519,0,0
-28,505,0,0,0,0,0,0,0,0,0,-1,1196,519,0,0
-21,505,0,0,0,0,0,0,0,0,0,-1,1203,519,0,0
-14,505,0,0,0,0,0,0,0,0,0,-1,1210,519,0,0
-7,505,0,0,0,0,0,0,0,0,0,-1,1217,519,0,0
0,505,0,0,0,0,0,0,0,0,0,-1,1224,519,0,0
7,505,0,0,0,0,0,0,0,0,0,-1,1231,519,0,0
14,505,0,0,0,0,0,0,0,0,0,-1,1238,519,0,0
21,505,0,0,0,0,0,0,0,0,0,-1,1245,519,0,0
28,505,0,0,0,0,0,0,0,0,0,-1,1252,519,0,0
35,505,0,0,0,0,0,0,0,0,0,-1,1259,519,0,0
42,505,0,0,0,0,0,0,0,0,0,-1,1266,519,0,0
49,505,0,0,0,0,0,0,0,0,0,-1,1273,519,0,0
56,505,0,0,0,0,0,0,0,0,0,-1,1280,519,0,0
63,505,0,0,0,0,0,0,0,0,0,-1,1287,519,0,0
70,505,0,0,0,0,0,0,0,0,0,-1,1294,519,0,0
77,505,0,0,0,0,0,0,0,0,0,-1,1301,519,0,0
84,505,0,0,0,0,0,0,0,0,0,-1,1308,519,0,0
91,505,0,0,0,0,0,0,0,0,0,-1,1315,519,0,0
98,505,0,0,0,0,0,0,0,0,0,-1,1322,519,0,0
105,505,0,0,0,0,0,0,0,0,0,-1,1329,519,0,0
112,505,0,0,0,0,0,0,0,0,0,-1,1336,519,0,0
119,505,0,0,0,0,0,0,0,0,0,-1,1343,519,0,0
126,505,0,0,0,0,0,0,0,0,0,-1,1350,519,0,0
133,505,0,0,0,0,0,0,0,0,0,-1,1357,519,0,0
140,505,0,0,0,0,0,0,0,0,0,-1,1364,519,0,0
147,505,0,0,0,0,0,0,0,0,0,-1,1371,519,0,0
154,505,0,0,0,0,0,0,0,0,0,-1,1378,519,0,0
161,505,0,0,0,0,0,0,0,0,0,-1,1385,519,0,0
168,505,0,0,0,0,0,0,0,0,0,-1,1392,519,0,0
175,505,0,0,0,0,0,0,0,0,0,-1,1399,519,0,0
182,505,0,0,0,0,0,0,0,0,0,-1,1406,519,0,0
189,505,0,0,0,0,0,0,0,0,0,-1,1413,519,0,0
196,505,0,0,0,0,0,0,0,0,0,-1,1420,519,0,0
203,505,0,0,0,0,0,0,0,0,0,-1,1427,519,0,0
210,505,0,0,0,0,0,0,0,0,0,-1,1434,519,0,0
217,505,0,0,0,0,0,0,0,0,0,-1,1441,519,0,0
224,505,0,0,0,0,0,0,0,0,0,-1,1448,519,0,0
231,505,0,0,0,0,0,0,0,0,0,-1,1455,519,0,0
238,505,0,0,0,0,0,0,0,0,0,-1,1462,519,0,0
245,505,0,0,0,0,0,0,0,0,0,-1,1469,519,0,0
252,505,0,0,0,0,0,0,0,0,0,-1,1476,519,0,0
259,505,0,0,0,0,0,0,0,0,0,-1,1483,519,0,0
266,505,0,0,0,0,0,0,0,0,0,-1,1490,519,0,0
273,505,0,0,0,0,0,0,0,0,0,-1,1497,519,0,0
280,505,0,0,0,0,0,0,0,0,0,-1,1504,519,0,0
287,505,4.39478,0.499512,0,0,0,0,0,0,0,-1,1511,519,4.39476,-0.499506
294,505,4.88867,0.0822754,0,0,0,0,0,0,0,-1,1518,519,4.88871,-0.0822748
301,505,4.82153,-0.0704346,0,0,0,0,0,0,0,-1,1525,519,4.82156,0.0704312
308,505,4.67761,-0.29187,0,0,0,0,0,0,0,-1,1532,519,4.67762,0.291845
315,505,8.44055,-6.54352,0,0,0,0,0,0,0,-1,1539,519,8.44059,6.54349
322,505,4.78955,-0.594116,0,0,0,0,0,0,0,-1,1546,519,4.78957,0.594096
329,505,5.16321,0.434631,0,0,0,0,0,0,0,-1,1553,519,5.16316,-0.434614
336,505,4.94495,-0.920471,0,0,0,0,0,0,0,-1,1560,519,4.945,0.920495
343,505,5.01855,-1.4823,0,0,0,0,0,0,0,-1,1567,519,5.01851,1.48227
350,505,5.33154,-1.77838,0,0,0,0,0,0,0,-1,1574,519,5.33152,1.77838
357,505,5.56567,-1.9425,0,0,0,0,0,0,0,-1,1581,519,5.56562,1.94248
364,505,5.85205,-2.6579,0,0,0,0,0,0,0,-1,1588,519,5.85211,2.65788
371,505,5.88477,-7.00922,0,0,0,0,0,0,0,-1,1595,519,5.88473,7.00924
378,505,5.44104,-7.10162,0,0,0,0,0,0,0,-1,1602,519,5.44099,7.10162
385,505,6.64661,-8.65015,0,0,0,0,0,0,0,-1,1609,519,6.64662,8.65014
392,505,6.34558,-8.3429,0,0,0,0,0,0,0,-1,1616,519,6.34554,8.34288
399,505,7.45898,-9.70386,0,0,0,0,0,0,0,-1,1623,519,7.45899,9.70388
406,505,7.08679,-9.4928,0,0,0,0,0,0,0,-1,1630,519,7.08678,9.49278
413,505,8.4032,-14.0308,0,0,0,0,0,0,0,-1,1637,519,8.4032,14.0308
420,505,24.9926,-49.3197,0,0,0,0,0,0,0,-1,1644,519,24.9925,49.3197
427,505,76.9131,-163.092,0,0,0,0,0,0,0,-1,1651,519,76.9131,163.092
434,505,76.3801,-158.753,0.0772887,0.0153984,-0.0612513,0.114968,-0.0222809,-0.551492,0.0850508,0.047123,1658,519,76.3802,158.753
441,505,75.7426,-154.605,0.0731017,0.0154664,-0.0612388,0.111965,-0.0233964,-0.565481,0.0835411,0.0242733,1665,519,75.7425,154.605
448,505,74.9969,-150.756,0.0696478,0.0153711,-0.0602386,0.108579,-0.0235601,-0.573757,0.0813842,0.0277032,1672,519,74.9969,150.756
455,505,74.4025,-146.857,0.0664824,0.0148604,-0.0582947,0.104425,-0.0230819,-0.576986,0.0784505,0.0311621,1679,519,74.4025,146.857
462,505,73.6766,-142.906,0.0636701,0.0145578,-0.0555496,0.0998491,-0.0216213,-0.577283,0.0748219,0.0236736,1686,519,73.6767,142.906
469,505,72.816,-138.642,0.0612422,0.0144998,-0.0522056,0.0950693,-0.0193272,-0.574939,0.070708,0.0318028,1693,519,72.8161,138.642
476,505,72.0406,-134.463,0.0590082,0.014571,-0.0483681,0.0900168,-0.0164376,-0.570091,0.0661744,0.0362066,1700,519,72.0407,134.463
483,505,71.2092,-130.265,0,0,0,0,0,0,0,-1,1707,519,71.2092,130.265
490,505,70.256,-126.023,0,0,0,0,0,0,0,-1,1714,519,70.256,126.023
497,505,69.1178,-121.605,0.056317,0.016495,-0.0355386,0.0771422,-0.00433023,-0.530053,0.0529306,0.0208856,1721,519,69.1178,121.605
504,505,68.011,-117.198,0.056398,0.0180513,-0.0314303,0.0740415,0.00040783,-0.511518,0.0492256,0.0211116,1728,519,68.0109,117.198
511,505,66.8336,-112.726,0.0569798,0.0200181,-0.0280793,0.0721143,0.00488359,-0.494351,0.0465338,0.0308701,1735,519,66.8336,112.726
518,505,65.6632,-108.123,0,0,0,0,0,0,0,-1,1742,519,65.6632,108.123
525,505,22.7377,-30.1271,0,0,0,0,0,0,0,-1,1749,519,22.7376,30.1271
532,505,20.189,-24.8809,0,0,0,0,0,0,0,-1,1756,519,20.189,24.8808
539,505,13.9879,-13.9018,0,0,0,0,0,0,0,-1,1763,519,13.988,13.9018
546,505,7.94946,-6.64539,0,0,0,0,0,0,0,-1,1770,519,7.94947,6.64539
553,505,2.82837,0.162659,0,0,0,0,0,0,0,-1,1777,519,2.82841,-0.162672
560,505,3.66223,-0.479797,0,0,0,0,0,0,0,-1,1784,519,3.66219,0.47982
567,505,4.65271,-0.950256,0,0,0,0,0,0,0,-1,1791,519,4.65274,0.95028
574,505,5.54443,-1.19977,0,0,0,0,0,0,0,-1,1798,519,5.54443,1.19974
581,505,0,0,0,0,0,0,0,0,0,-1,1805,519,0,0
588,505,0,0,0,0,0,0,0,0,0,-1,1812,519,0,0
595,505,0,0,0,0,0,0,0,0,0,-1,1819,519,0,0
602,505,0,0,0,0,0,0,0,0,0,-1,1826,519,0,0
609,505,0,0,0,0,0,0,0,0,0,-1,1833,519,0,0
616,505,0,0,0,0,0,0,0,0,0,-1,1840,519,0,0
623,505,0,0,0,0,0,0,0,0,0,-1,1847,519,0,0
630,505,0,0,0,0,0,0,0,0,0,-1,1854,519,0,0
637,505,0,0,0,0,0,0,0,0,0,-1,1861,519,0,0
644,505,0,0,0,0,0,0,0,0,0,-1,1868,519,0,0
651,505,0,0,0,0,0,0,0,0,0,-1,1875,519,0,0
658,505,0,0,0,0,0,0,0,0,0,-1,1882,519,0,0
665,505,0,0,0,0,0,0,0,0,0,-1,1889,519,0,0
672,505,0,0,0,0,0,0,0,0,0,-1,1896,519,0,0
679,505,0,0,0,0,0,0,0,0,0,-1,1903,519,0,0
686,505,0,0,0,0,0,0,0,0,0,-1,1910,519,0,0
693,505,0,0,0,0,0,0,0,0,0,-1,1917,519,0,0
700,505,0,0,0,0,0,0,0,0,0,-1,1924,519,0,0
707,505,0,0,0,0,0,0,0,0,0,-1,1931,519,0,0
714,505,0,0,0,0,0,0,0,0,0,-1,1938,519,0,0
721,505,0,0,0,0,0,0,0,0,0,-1,1945,519,0,0
728,505,0,0,0,0,0,0,0,0,0,-1,1952,519,0,0
735,505,0,0,0,0,0,0,0,0,0,-1,1959,519,0,0
742,505,0,0,0,0,0,0,0,0,0,-1,1966,519,0,0
749,505,0,0,0,0,0,0,0,0,0,-1,1973,519,0,0
756,505,0,0,0,0,0,0,0,0,0,-1,1980,519,0,0
763,505,0,0,0,0,0,0,0,0,0,-1,1987,519,0,0
770,505,0,0,0,0,0,0,0,0,0,-1,1994,519,0,0
777,505,0,0,0,0,0,0,0,0,0,-1,2001,519,0,0
784,505,0,0,0,0,0,0,0,0,0,-1,2008,519,0,0
791,505,0,0,0,0,0,0,0,0,0,-1,2015,519,0,0
798,505,0,0,0,0,0,0,0,0,0,-1,2022,519,0,0
805,505,0,0,0,0,0,0,0,0,0,-1,2029,519,0,0
812,505,0,0,0,0,0,0,0,0,0,-1,2036,519,0,0
-700,498,0,0,0,0,0,0,0,0,0,-1,524,526,0,0
-693,498,0,0,0,0,0,0,0,0,0,-1,531,526,0,0
-686,498,0,0,0,0,0,0,0,0,0,-1,538,526,0,0
-679,498,0,0,0,0,0,0,0,0,0,-1,545,526,0,0
-672,498,0,0,0,0,0,0,0,0,0,-1,552,526,0,0
-665,498,0,0,0,0,0,0,0,0,0,-1,559,526,0,0
-658,498,0,0,0,0,0,0,0,0,0,-1,566,526,0,0
-651,498,0,0,0,0,0,0,0,0,0,-1,573,526,0,0
-644,498,0,0,0,0,0,0,0,0,0,-1,580,526,0,0
-637,498,0,0,0,0,0,0,0,0,0,-1,587,526,0,0
-630,498,0,0,0,0,0,0,0,0,0,-1,594,526,0,0
-623,498,0,0,0,0,0,0,0,0,0,-1,601,526,0,0
-616,498,0,0,0,0,0,0,0,0,0,-1,608,526,0,0
-609,498,0,0,0,0,0,0,0,0,0,-1,615,526,0,0
-602,498,0,0,0,0,0,0,0,0,0,-1,622,526,0,0
-595,498,0,0,0,0,0,0,0,0,0,-1,629,526,0,0
-588,498,0,0,0,0,0,0,0,0,0,-1,636,526,0,0
-581,498,0,0,0,0,0,0,0,0,0,-1,643,526,0,0
-574,498,0,0,0,0,0,0,0,0,0,-1,650,526,0,0
-567,498,0,0,0,0,0,0,0,0,0,-1,657,526,0,0
-560,498,0,0,0,0,0,0,0,0,0,-1,664,526,0,0
-553,498,0,0,0,0,0,0,0,0,0,-1,671,526,0,0
-546,498,0,0,0,0,0,0,0,0,0,-1,678,526,0,0
-539,498,0,0,0,0,0,0,0,0,0,-1,685,526,0,0
-532,498,0,0,0,0,0,0,0,0,0,-1,692,526,0,0
-525,498,0,0,0,0,0,0,0,0,0,-1,699,526,0,0
-518,498,0,0,0,0,0,0,0,0,0,-1,706,526,0,0
-511,498,0,0,0,0,0,0,0,0,0,-1,713,526,0,0
-504,498,0,0,0,0,0,0,0,0,0,-1,720,526,0,0
-497,498,0,0,0,0,0,0,0,0,0,-1,727,526,0,0
-490,498,0,0,0,0,0,0,0,0,0,-1,734,526,0,0
-483,498,0,0,0,0,0,0,0,0,0,-1,741,526,0,0
-476,498,0,0,0,0,0,0,0,0,0,-1,748,526,0,0
-469,498,0,0,0,0,0,0,0,0,0,-1,755,526,0,0
-462,498,6.81024,1.15515,0,0,0,0,0,0,0,-1,762,526,6.81026,-1.15514
-455,498,3.25757,-3.0592,0,0,0,0,0,0,0,-1,769,526,3.25754,3.05921
-448,498,3.05939,-3.74298,0,0,0,0,0,0,0,-1,776,526,3.05939,3.74296
-441,498,2.77191,-6.08209,0,0,0,0,0,0,0,-1,783,526,2.77189,6.08207
-434,498,2.10681,-6.95929,0,0,0,0,0,0,0,-1,790,526,2.10682,6.9593
-427,498,-0.368042,-10.7726,0,0,0,0,0,0,0,-1,797,526,-0.36807,10.7726
-420,498,-1.05035,-10.5142,0,0,0,0,0,0,0,-1,804,526,-1.05034,10.5142
-413,498,-4.52112,-18.8354,0,0,0,0,0,0,0,-1,811,526,-4.52111,18.8354
-406,498,-11.5986,-39.3751,0,0,0,0,0,0,0,-1,818,526,-11.5986,39.3751
-399,498,-23.0398,-78.6486,0,0,0,0,0,0,0,-1,825,526,-23.0398,78.6486
-392,498,-58.1522,-105.357,0,0,0,0,0,0,0,-1,832,526,-58.1522,105.357
-385,498,-59.4623,-109.652,0.0383009,0.00879516,0.0293019,0.0563542,-0.00925819,0.552185,0.0410054,0.0425146,839,526,-59.4624,109.652
-378,498,-60.7411,-114.305,0.0409389,0.00779684,0.0333578,0.0616149,-0.0128791,0.554869,0.0459749,0.0183381,846,526,-60.7411,114.305
-371,498,-61.9532,-118.81,0.0436664,0.00681342,0.0372774,0.0668228,-0.016343,0.555857,0.0508788,0.0236971,853,526,-61.9532,118.81
-364,498,-63.0661,-123.23,0.0468235,0.00592758,0.0412772,0.0724399,-0.0196888,0.555425,0.0560216,0.022906,860,526,-63.0661,123.23
-357,498,-64.1117,-127.613,0.0501698,0.00516832,0.0453764,0.0783178,-0.0229797,0.55523,0.0613242,0.0166554,867,526,-64.1117,127.613
-350,498,-65.1892,-131.903,0.0534959,0.00448204,0.0495245,0.0842453,-0.0262674,0.555641,0.0666672,0.0198441,874,526,-65.1892,131.903
-343,498,-66.3521,-136.164,0.0569943,0.00347264,0.0536859,0.0902194,-0.0297525,0.554187,0.0721388,0.0248104,881,526,-66.3521,136.164
-336,498,-67.3417,-140.411,0.0607089,0.00206957,0.0582532,0.0966049,-0.0338264,0.55225,0.0781581,0.0306758,888,526,-67.3418,140.411
-329,498,-67.8882,-144.336,0.0647005,0.000260682,0.0631802,0.103402,-0.038441,0.549603,0.0847076,0.0466768,895,526,-67.8882,144.336
-322,498,-68.3659,-148.275,0,0,0,0,0,0,0,-1,902,526,-68.3659,148.275
-315,498,-68.6509,-152.01,0,0,0,0,0,0,0,-1,909,526,-68.6509,152.01
-308,498,-69.3851,-155.719,0,0,0,0,0,0,0,-1,916,526,-69.3851,155.719
-301,498,-41.2611,-152.612,0,0,0,0,0,0,0,-1,923,526,-41.2611,152.612
-294,498,-17.9421,-77.6995,0,0,0,0,0,0,0,-1,930,526,-17.9421,77.6995
-287,498,-0.91394,-13.4327,0,0,0,0,0,0,0,-1,937,526,-0.913935,13.4327
-280,498,-0.341614,-8.66608,0,0,0,0,0,0,0,-1,944,526,-0.341589,8.66606
-273,498,-0.988892,-8.62921,0,0,0,0,0,0,0,-1,951,526,-0.988906,8.62922
-266,498,0.362488,-6.33545,0,0,0,0,0,0,0,-1,958,526,0.362478,6.33547
-259,498,10.9454,-17.3615,0,0,0,0,0,0,0,-1,965,526,10.9454,17.3614
-252,498,8.56586,-14.6886,0,0,0,0,0,0,0,-1,972,526,8.56584,14.6886
-245,498,5.97382,-11.928,0,0,0,0,0,0,0,-1,979,526,5.97381,11.928
-238,498,2.24841,-13.8145,0,0,0,0,0,0,0,-1,986,526,2.24838,13.8145
-231,498,0.665894,-10.4898,0,0,0,0,0,0,0,-1,993,526,0.665863,10.4898
-224,498,-2.11243,-4.76312,0,0,0,0,0,0,0,-1,1000,526,-2.11245,4.76314
-217,498,-3.82239,-1.42841,0,0,0,0,0,0,0,-1,1007,526,-3.82241,1.42843
-210,498,-1.80591,-0.358215,0,0,0,0,0,0,0,-1,1014,526,-1.8059,0.3582
-203,498,-3.17316,1.06641,0,0,0,0,0,0,0,-1,1021,526,-3.17313,-1.0664
-196,498,-0.103271,5.40527,0,0,0,0,0,0,0,-1,1028,526,-0.103285,-5.40528
-189,498,3.00256,6.47137,0,0,0,0,0,0,0,-1,1035,526,3.00256,-6.47139
-182,498,0,0,0,0,0,0,0,0,0,-1,1042,526,0,0
-175,498,0,0,0,0,0,0,0,0,0,-1,1049,526,0,0
-168,498,0,0,0,0,0,0,0,0,0,-1,1056,526,0,0
-161,498,0,0,0,0,0,0,0,0,0,-1,1063,526,0,0
-154,498,0,0,0,0,0,0,0,0,0,-1,1070,526,0,0
-147,498,0,0,0,0,0,0,0,0,0,-1,1077,526,0,0
-140,498,0,0,0,0,0,0,0,0,0,-1,1084,526,0,0
-133,498,0,0,0,0,0,0,0,0,0,-1,1091,526,0,0
-126,498,0,0,0,0,0,0,0,0,0,-1,1098,526,0,0
-119,498,0,0,0,0,0,0,0,0,0,-1,1105,526,0,0
-112,498,0,0,0,0,0,0,0,0,0,-1,1112,526,0,0
-105,498,0,0,0,0,0,0,0,0,0,-1,1119,526,0,0
-98,498,0,0,0,0,0,0,0,0,0,-1,1126,526,0,0
-91,498,0,0,0,0,0,0,0,0,0,-1,1133,526,0,0
-84,498,0,0,0,0,0,0,0,0,0,-1,1140,526,0,0
-77,498,0,0,0,0,0,0,0,0,0,-1,1147,526,0,0
-70,498,0,0,0,0,0,0,0,0,0,-1,1154,526,0,0
-63,498,0,0,0,0,0,0,0,0,0,-1,1161,526,0,0
-56,498,0,0,0,0,0,0,0,0,0,-1,1168,526,0,0
-49,498,0,0,0,0,0,0,0,0,0,-1,1175,526,0,0
-42,498,0,0,0,0,0,0,0,0,0,-1,1182,526,0,0
-35,498,0,0,0,0,0,0,0,0,0,-1,1189,526,0,0
-28,498,0,0,0,0,0,0,0,0,0,-1,1196,526,0,0
-21,498,0,0,0,0,0,0,0,0,0,-1,1203,526,0,0
-14,498,0,0,0,0,0,0,0,0,0,-1,1210,526,0,0
-7,498,0,0,0,0,0,0,0,0,0,-1,1217,526,0,0
0,498,0,0,0,0,0,0,0,0,0,-1,1224,526,0,0
7,498,0,0,0,0,0,0,0,0,0,-1,1231,526,0,0
14,498,0,0,0,0,0,0,0,0,0,-1,1238,526,0,0
21,498,0,0,0,0,0,0,0,0,0,-1,1245,526,0,0
28,498,0,0,0,0,0,0,0,0,0,-1,1252,526,0,0
35,498,0,0,0,0,0,0,0,0,0,-1,1259,526,0,0
42,498,0,0,0,0,0,0,0,0,0,-1,1266,526,0,0
49,498,0,0,0,0,0,0,0,0,0,-1,1273,526,0,0
56,498,0,0,0,0,0,0,0,0,0,-1,1280,526,0,0
63,498,0,0,0,0,0,0,0,0,0,-1,1287,526,0,0
70,498,0,0,0,0,0,0,0,0,0,-1,1294,526,0,0
77,498,0,0,0,0,0,0,0,0,0,-1,1301,526,0,0
84,498,0,0,0,0,0,0,0,0,0,-1,1308,526,0,0
91,498,0,0,0,0,0,0,0,0,0,-1,1315,526,0,0
98,498,0,0,0,0,0,0,0,0,0,-1,1322,526,0,0
105,498,0,0,0,0,0,0,0,0,0,-1,1329,526,0,0
112,498,0,0,0,0,0,0,0,0,0,-1,1336,526,0,0
119,498,0,0,0,0,0,0,0,0,0,-1,1343,526,0,0
126,498,0,0,0,0,0,0,0,0,0,-1,1350,526,0,0
133,498,0,0,0,0,0,0,0,0,0,-1,1357,526,0,0
140,498,0,0,0,0,0,0,0,0,0,-1,1364,526,0,0
147,498,0,0,0,0,0,0,0,0,0,-1,1371,526,0,0
154,498,0,0,0,0,0,0,0,0,0,-1,1378,526,0,0
161,498,0,0,0,0,0,0,0,0,0,-1,1385,526,0,0
168,498,0,0,0,0,0,0,0,0,0,-1,1392,526,0,0
175,498,0,0,0,0,0,0,0,0,0,-1,1399,526,0,0
182,498,0,0,0,0,0,0,0,0,0,-1,1406,526,0,0
189,498,0,0,0,0,0,0,0,0,0,-1,1413,526,0,0
196,498,0,0,0,0,0,0,0,0,0,-1,1420,526,0,0
203,498,0,0,0,0,0,0,0,0,0,-1,1427,526,0,0
210,498,0,0,0,0,0,0,0,0,0,-1,1434,526,0,0
217,498,0,0,0,0,0,0,0,0,0,-1,1441,526,0,0
224,498,0,0,0,0,0,0,0,0,0,-1,1448,526,0,0
231,498,0,0,0,0,0,0,0,0,0,-1,1455,526,0,0
238,498,0,0,0,0,0,0,0,0,0,-1,1462,526,0,0
245,498,0,0,0,0,0,0,0,0,0,-1,1469,526,0,0
252,498,0,0,0,0,0,0,0,0,0,-1,1476,526,0,0
259,498,0,0,0,0,0,0,0,0,0,-1,1483,526,0,0
266,498,0,0,0,0,0,0,0,0,0,-1,1490,526,0,0
273,498,0,0,0,0,0,0,0,0,0,-1,1497,526,0,0
280,498,0,0,0,0,0,0,0,0,0,-1,1504,526,0,0
287,498,0,0,0,0,0,0,0,0,0,-1,1511,526,0,0
294,498,0,0,0,0,0,0,0,0,0,-1,1518,526,0,0
301,498,0,0,0,0,0,0,0,0,0,-1,1525,526,0,0
308,498,4.77942,-0.293884,0,0,0,0,0,0,0,-1,1532,526,4.77939,0.293899
315,498,4.56091,-0.564148,0,0,0,0,0,0,0,-1,1539,526,4.56097,0.564142
322,498,4.52344,-0.447266,0,0,0,0,0,0,0,-1,1546,526,4.52341,0.447295
329,498,4.63232,-0.156982,0,0,0,0,0,0,0,-1,1553,526,4.63238,0.156991
336,498,5.22644,0.0925903,0,0,0,0,0,0,0,-1,1560,526,5.22648,-0.0926188
343,498,6.22607,-1.67615,0,0,0,0,0,0,0,-1,1567,526,6.22605,1.67617
350,498,6.19373,-1.59906,0,0,0,0,0,0,0,-1,1574,526,6.19367,1.59906
357,498,6.21472,-1.58929,0,0,0,0,0,0,0,-1,1581,526,6.21476,1.58927
364,498,5.73547,-1.2019,0,0,0,0,0,0,0,-1,1588,526,5.73547,1.20192
371,498,3.27087,-4.55334,0,0,0,0,0,0,0,-1,1595,526,3.27089,4.55332
378,498,8.42944,-4.70624,0,0,0,0,0,0,0,-1,1602,526,8.42942,4.70624
385,498,4.7793,-5.15314,0,0,0,0,0,0,0,-1,1609,526,4.77935,5.15311
392,498,9.12439,-8.57953,0,0,0,0,0,0,0,-1,1616,526,9.12443,8.57955
399,498,7.98938,-9.46021,0,0,0,0,0,0,0,-1,1623,526,7.98936,9.4602
406,498,7.58081,-9.26819,0,0,0,0,0,0,0,-1,1630,526,7.58085,9.26817
413,498,7.17236,-9.07611,0,0,0,0,0,0,0,-1,1637,526,7.17234,9.07614
420,498,11.4314,-16.1147,0,0,0,0,0,0,0,-1,1644,526,11.4313,16.1147
427,498,24.2933,-44.8103,0,0,0,0,0,0,0,-1,1651,526,24.2933,44.8103
434,498,80.6488,-157.652,0,0,0,0,0,0,0,-1,1658,526,80.6488,157.652
441,498,79.9065,-153.265,0,0,0,0,0,0,0,-1,1665,526,79.9065,153.265
448,498,79.5205,-149.212,0.0707549,0.0159556,-0.0663489,0.115139,-0.0284286,-0.589583,0.0877836,0.0333973,1672,526,79.5205,149.212
455,498,78.9961,-145.256,0.0670599,0.0145116,-0.0647524,0.110666,-0.0290942,-0.592666,0.0851485,0.026963,1679,526,78.9961,145.256
462,498,78.3362,-141.277,0.0638055,0.0137876,-0.062014,0.105663,-0.0280703,-0.593733,0.0814281,0.0272363,1686,526,78.3362,141.277
469,498,77.5845,-137.116,0.0611328,0.0133992,-0.0586918,0.100625,-0.0260929,-0.592287,0.0772638,0.0290107,1693,526,77.5844,137.116
476,498,76.5851,-133.071,0.0588189,0.0131095,-0.0548836,0.0954163,-0.0234878,-0.588107,0.0727158,0.0278604,1700,526,76.585,133.071
483,498,75.4659,-129.165,0,0,0,0,0,0,0,-1,1707,526,75.466,129.165
490,498,74.4508,-124.863,0,0,0,0,0,0,0,-1,1714,526,74.4508,124.863
497,498,73.657,-120.033,0.0568739,0.0139221,-0.0426134,0.0831171,-0.0123211,-0.551989,0.059942,0.0292936,1721,526,73.657,120.033
504,498,72.6935,-115.525,0.0572995,0.0149775,-0.0387481,0.0802883,-0.00801126,-0.535469,0.056386,0.0249301,1728,526,72.6935,115.525
511,498,71.5452,-111.056,0.0582087,0.0164193,-0.035687,0.078668,-0.00403996,-0.520554,0.0538425,0.0258685,1735,526,71.5452,111.056
518,498,70.4626,-106.537,0,0,0,0,0,0,0,-1,1742,526,70.4627,106.537
525,498,69.2346,-102.07,0,0,0,0,0,0,0,-1,1749,526,69.2346,102.07
532,498,26.9988,-39.1529,0,0,0,0,0,0,0,-1,1756,526,26.9987,39.1529
539,498,21.764,-25.5663,0,0,0,0,0,0,0,-1,1763,526,21.764,25.5663
546,498,10.2014,-8.47589,0,0,0,0,0,0,0,-1,1770,526,10.2014,8.47589
553,498,5.93958,-1.71448,0,0,0,0,0,0,0,-1,1777,526,5.93956,1.71447
560,498,3.69385,-0.615112,0,0,0,0,0,0,0,-1,1784,526,3.69381,0.615118
567,498,5.12695,-0.581604,0,0,0,0,0,0,0,-1,1791,526,5.12699,0.58159
574,498,3.88,0.0286255,0,0,0,0,0,0,0,-1,1798,526,3.87999,-0.0286535
581,498,10.8722,2.58551,0,0,0,0,0,0,0,-1,1805,526,10.8723,-2.58551
588,498,0,0,0,0,0,0,0,0,0,-1,1812,526,0,0
595,498,0,0,0,0,0,0,0,0,0,-1,1819,526,0,0
602,498,0,0,0,0,0,0,0,0,0,-1,1826,526,0,0
609,498,0,0,0,0,0,0,0,0,0,-1,1833,526,0,0
616,498,0,0,0,0,0,0,0,0,0,-1,1840,526,0,0
623,498,0,0,0,0,0,0,0,0,0,-1,1847,526,0,0
630,498,0,0,0,0,0,0,0,0,0,-1,1854,526,0,0
637,498,0,0,0,0,0,0,0,0,0,-1,1861,526,0,0
644,498,0,0,0,0,0,0,0,0,0,-1,1868,526,0,0
651,498,0,0,0,0,0,0,0,0,0,-1,1875,526,0,0
658,498,0,0,0,0,0,0,0,0,0,-1,1882,526,0,0
665,498,0,0,0,0,0,0,0,0,0,-1,1889,526,0,0
672,498,0,0,0,0,0,0,0,0,0,-1,1896,526,0,0
679,498,0,0,0,0,0,0,0,0,0,-1,1903,526,0,0
686,498,0,0,0,0,0,0,0,0,0,-1,1910,526,0,0
693,498,0,0,0,0,0,0,0,0,0,-1,1917,526,0,0
700,498,0,0,0,0,0,0,0,0,0,-1,1924,526,0,0
707,498,0,0,0,0,0,0,0,0,0,-1,1931,526,0,0
714,498,0,0,0,0,0,0,0,0,0,-1,1938,526,0,0
721,498,0,0,0,0,0,0,0,0,0,-1,1945,526,0,0
728,498,0,0,0,0,0,0,0,0,0,-1,1952,526,0,0
735,498,0,0,0,0,0,0,0,0,0,-1,1959,526,0,0
742,498,0,0,0,0,0,0,0,0,0,-1,1966,526,0,0
749,498,0,0,0,0,0,0,0,0,0,-1,1973,526,0,0
756,498,0,0,0,0,0,0,0,0,0,-1,1980,526,0,0
763,498,0,0,0,0,0,0,0,0,0,-1,1987,526,0,0
770,498,0,0,0,0,0,0,0,0,0,-1,1994,526,0,0
777,498,0,0,0,0,0,0,0,0,0,-1,2001,526,0,0
784,498,0,0,0,0,0,0,0,0,0,-1,2008,526,0,0
791,498,0,0,0,0,0,0,0,0,0,-1,2015,526,0,0
798,498,0,0,0,0,0,0,0,0,0,-1,2022,526,0,0
805,498,0,0,0,0,0,0,0,0,0,-1,2029,526,0,0
812,498,0,0,0,0,0,0,0,0,0,-1,2036,526,0,0
-700,491,0,0,0,0,0,0,0,0,0,-1,524,533,0,0
-693,491,0,0,0,0,0,0,0,0,0,-1,531,533,0,0
-686,491,0,0,0,0,0,0,0,0,0,-1,538,533,0,0
-679,491,0,0,0,0,0,0,0,0,0,-1,545,533,0,0
-672,491,0,0,0,0,0,0,0,0,0,-1,552,533,0,0
-665,491,0,0,0,0,0,0,0,0,0,-1,559,533,0,0
-658,491,0,0,0,0,0,0,0,0,0,-1,566,533,0,0
-651,491,0,0,0,0,0,0,0,0,0,-1,573,533,0,0
-644,491,0,0,0,0,0,0,0,0,0,-1,580,533,0,0
-637,491,0,0,0,0,0,0,0,0,0,-1,587,533,0,0
-630,491,0,0,0,0,0,0,0,0,0,-1,594,533,0,0
-623,491,0,0,0,0,0,0,0,0,0,-1,601,533,0,0
-616,491,0,0,0,0,0,0,0,0,0,-1,608,533,0,0
-609,491,0,0,0,0,0,0,0,0,0,-1,615,533,0,0
-602,491,0,0,0,0,0,0,0,0,0,-1,622,533,0,0
-595,491,0,0,0,0,0,0,0,0,0,-1,629,533,0,0
-588,491,0,0,0,0,0,0,0,0,0,-1,636,533,0,0
-581,491,0,0,0,0,0,0,0,0,0,-1,643,533,0,0
-574,491,0,0,0,0,0,0,0,0,0,-1,650,533,0,0
-567,491,0,0,0,0,0,0,0,0,0,-1,657,533,0,0
-560,491,0,0,0,0,0,0,0,0,0,-1,664,533,0,0
-553,491,0,0,0,0,0,0,0,0,0,-1,671,533,0,0
-546,491,0,0,0,0,0,0,0,0,0,-1,678,533,0,0
-539,491,0,0,0,0,0,0,0,0,0,-1,685,533,0,0
-532,491,0,0,0,0,0,0,0,0,0,-1,692,533,0,0
-525,491,0,0,0,0,0,0,0,0,0,-1,699,533,0,0
-518,491,0,0,0,0,0,0,0,0,0,-1,706,533,0,0
-511,491,0,0,0,0,0,0,0,0,0,-1,713,533,0,0
-504,491,0,0,0,0,0,0,0,0,0,-1,720,533,0,0
-497,491,0,0,0,0,0,0,0,0,0,-1,727,533,0,0
-490,491,0,0,0,0,0,0,0,0,0,-1,734,533,0,0
-483,491,0,0,0,0,0,0,0,0,0,-1,741,533,0,0
-476,491,0,0,0,0,0,0,0,0,0,-1,748,533,0,0
-469,491,-5.85913,4.55011,0,0,0,0,0,0,0,-1,755,533,-5.8591,-4.55009
-462,491,-9.93713,4.90381,0,0,0,0,0,0,0,-1,762,533,-9.93716,-4.9038
-455,491,1.9494,-0.27887,0,0,0,0,0,0,0,-1,769,533,1.94941,0.27885
-448,491,2.68909,-1.8999,0,0,0,0,0,0,0,-1,776,533,2.6891,1.89988
-441,491,3.46069,-3.51855,0,0,0,0,0,0,0,-1,783,533,3.46071,3.51854
-434,491,2.67145,-7.44061,0,0,0,0,0,0,0,-1,790,533,2.67146,7.44061
-427,491,2.27136,-8.34546,0,0,0,0,0,0,0,-1,797,533,2.27136,8.34546
-420,491,-6.41321,-22.5922,0,0,0,0,0,0,0,-1,804,533,-6.41323,22.5922
-413,491,-12.8848,-37.5042,0,0,0,0,0,0,0,-1,811,533,-12.8847,37.5042
-406,491,-26.6932,-80.2836,0,0,0,0,0,0,0,-1,818,533,-26.6932,80.2835
-399,491,-61.5156,-99.6942,0,0,0,0,0,0,0,-1,825,533,-61.5155,99.6941
-392,491,-62.8282,-104.023,0.0383962,0.0082221,0.0309358,0.0577277,-0.0111095,0.558523,0.0426731,0.0467306,832,533,-62.8283,104.023
-385,491,-64.129,-108.223,0.0409415,0.00710557,0.034956,0.0628583,-0.0148112,0.560024,0.0476168,0.0188993,839,533,-64.129,108.223
-378,491,-65.3763,-112.612,0.0434505,0.00625062,0.0388454,0.0679194,-0.0182183,0.562118,0.0524185,0.02123,846,533,-65.3763,112.612
-371,491,-66.5671,-117.075,0.0460969,0.00533703,0.0425552,0.0729005,-0.0214666,0.562083,0.0571167,0.0236259,853,533,-66.5671,117.075
-364,491,-67.7243,-121.49,0.0492159,0.00450181,0.0463973,0.0783617,-0.024644,0.560883,0.0621075,0.02268,860,533,-67.7243,121.49
-357,491,-68.6668,-125.796,0.0525814,0.00377448,0.0504252,0.0841979,-0.0278419,0.560034,0.0673587,0.0188813,867,533,-68.6668,125.796
-350,491,-69.5794,-130.084,0.0560102,0.00305784,0.0543896,0.0900255,-0.0309575,0.558887,0.0725716,0.0205476,874,533,-69.5794,130.084
-343,491,-70.5605,-134.417,0.059656,0.00197172,0.0584395,0.0959832,-0.0343555,0.556166,0.0780046,0.0351009,881,533,-70.5605,134.417
-336,491,-71.5906,-138.71,0.0635134,0.000188858,0.0630664,0.102419,-0.0387171,0.552756,0.0842064,0.0376454,888,533,-71.5907,138.71
-329,491,-72.2647,-142.546,0.0676033,-0.00159724,0.0679855,0.109287,-0.0432807,0.550013,0.0907911,0.0418367,895,533,-72.2647,142.546
-322,491,-73.0448,-146.26,0,0,0,0,0,0,0,-1,902,533,-73.0448,146.26
-315,491,-70.8691,-150.031,0,0,0,0,0,0,0,-1,909,533,-70.8691,150.031
-308,491,-33.4544,-112.486,0,0,0,0,0,0,0,-1,916,533,-33.4544,112.486
-301,491,-6.54926,-39.0012,0,0,0,0,0,0,0,-1,923,533,-6.54927,39.0012
-294,491,-0.777283,-8.60913,0,0,0,0,0,0,0,-1,930,533,-0.777288,8.6091
-287,491,-0.26123,-8.69055,0,0,0,0,0,0,0,-1,937,533,-0.261204,8.69053
-280,491,0.2948,-5.99219,0,0,0,0,0,0,0,-1,944,533,0.294811,5.99221
-273,491,0.369995,-5.33691,0,0,0,0,0,0,0,-1,951,533,0.369985,5.33693
-266,491,1.1167,-5.0321,0,0,0,0,0,0,0,-1,958,533,1.11668,5.0321
-259,491,12.0862,-16.9615,0,0,0,0,0,0,0,-1,965,533,12.0862,16.9615
-252,491,9.72443,-13.8417,0,0,0,0,0,0,0,-1,972,533,9.72444,13.8418
-245,491,5.27258,-14.3619,0,0,0,0,0,0,0,-1,979,533,5.27255,14.3619
-238,491,3.65381,-11.1472,0,0,0,0,0,0,0,-1,986,533,3.6538,11.1472
-231,491,2.17719,-7.86835,0,0,0,0,0,0,0,-1,993,533,2.17719,7.86832
-224,491,0.554626,-4.61725,0,0,0,0,0,0,0,-1,1000,533,0.554608,4.61727
-217,491,-2.92743,-1.0766,0,0,0,0,0,0,0,-1,1007,533,-2.92743,1.07659
-210,491,-0.92395,0.374512,0,0,0,0,0,0,0,-1,1014,533,-0.923959,-0.374531
-203,491,0.417419,4.77161,0,0,0,0,0,0,0,-1,1021,533,0.417446,-4.77162
-196,491,0,0,0,0,0,0,0,0,0,-1,1028,533,0,0
-189,491,0,0,0,0,0,0,0,0,0,-1,1035,533,0,0
-182,491,0,0,0,0,0,0,0,0,0,-1,1042,533,0,0
-175,491,0,0,0,0,0,0,0,0,0,-1,1049,533,0,0
-168,491,0,0,0,0,0,0,0,0,0,-1,1056,533,0,0
-161,491,0,0,0,0,0,0,0,0,0,-1,1063,533,0,0
-154,491,0,0,0,0,0,0,0,0,0,-1,1070,533,0,0
-147,491,0,0,0,0,0,0,0,0,0,-1,1077,533,0,0
-140,491,0,0,0,0,0,0,0,0,0,-1,1084,533,0,0
-133,491,0,0,0,0,0,0,0,0,0,-1,1091,533,0,0
-126,491,0,0,0,0,0,0,0,0,0,-1,1098,533,0,0
-119,491,0,0,0,0,0,0,0,0,0,-1,1105,533,0,0
-112,491,0,0,0,0,0,0,0,0,0,-1,1112,533,0,0
-105,491,0,0,0,0,0,0,0,0,0,-1,1119,533,0,0
-98,491,0,0,0,0,0,0,0,0,0,-1,1126,533,0,0
-91,491,0,0,0,0,0,0,0,0,0,-1,1133,533,0,0
-84,491,0,0,0,0,0,0,0,0,0,-1,1140,533,0,0
-77,491,0,0,0,0,0,0,0,0,0,-1,1147,533,0,0
-70,491,0,0,0,0,0,0,0,0,0,-1,1154,533,0,0
-63,491,0,0,0,0,0,0,0,0,0,-1,1161,533,0,0
-56,491,0,0,0,0,0,0,0,0,0,-1,1168,533,0,0
-49,491,0,0,0,0,0,0,0,0,0,-1,1175,533,0,0
-42,491,0,0,0,0,0,0,0,0,0,-1,1182,533,0,0
-35,491,0,0,0,0,0,0,0,0,0,-1,1189,533,0,0
-28,491,0,0,0,0,0,0,0,0,0,-1,1196,533,0,0
-21,491,0,0,0,0,0,0,0,0,0,-1,1203,533,0,0
-14,491,0,0,0,0,0,0,0,0,0,-1,1210,533,0,0
-7,491,0,0,0,0,0,0,0,0,0,-1,1217,533,0,0
0,491,0,0,0,0,0,0,0,0,0,-1,1224,533,0,0
7,491,0,0,0,0,0,0,0,0,0,-1,1231,533,0,0
14,491,0,0,0,0,0,0,0,0,0,-1,1238,533,0,0
21,491,0,0,0,0,0,0,0,0,0,-1,1245,533,0,0
28,491,0,0,0,0,0,0,0,0,0,-1,1252,533,0,0
35,491,0,0,0,0,0,0,0,0,0,-1,1259,533,0,0
42,491,0,0,0,0,0,0,0,0,0,-1,1266,533,0,0
49,491,0,0,0,0,0,0,0,0,0,-1,1273,533,0,0
56,491,0,0,0,0,0,0,0,0,0,-1,1280,533,0,0
63,491,0,0,0,0,0,0,0,0,0,-1,1287,533,0,0
70,491,0,0,0,0,0,0,0,0,0,-1,1294,533,0,0
77,491,0,0,0,0,0,0,0,0,0,-1,1301,533,0,0
84,491,0,0,0,0,0,0,0,0,0,-1,1308,533,0,0
91,491,0,0,0,0,0,0,0,0,0,-1,1315,533,0,0
98,491,0,0,0,0,0,0,0,0,0,-1,1322,533,0,0
105,491,0,0,0,0,0,0,0,0,0,-1,1329,533,0,0
112,491,0,0,0,0,0,0,0,0,0,-1,1336,533,0,0
119,491,0,0,0,0,0,0,0,0,0,-1,1343,533,0,0
126,491,0,0,0,0,0,0,0,0,0,-1,1350,533,0,0
133,491,0,0,0,0,0,0,0,0,0,-1,1357,533,0,0
140,491,0,0,0,0,0,0,0,0,0,-1,1364,533,0,0
147,491,0,0,0,0,0,0,0,0,0,-1,1371,533,0,0
154,491,0,0,0,0,0,0,0,0,0,-1,1378,533,0,0
161,491,0,0,0,0,0,0,0,0,0,-1,1385,533,0,0
168,491,0,0,0,0,0,0,0,0,0,-1,1392,533,0,0
175,491,0,0,0,0,0,0,0,0,0,-1,1399,533,0,0
182,491,0,0,0,0,0,0,0,0,0,-1,1406,533,0,0
189,491,0,0,0,0,0,0,0,0,0,-1,1413,533,0,0
196,491,0,0,0,0,0,0,0,0,0,-1,1420,533,0,0
203,491,0,0,0,0,0,0,0,0,0,-1,1427,533,0,0
210,491,0,0,0,0,0,0,0,0,0,-1,1434,533,0,0
217,491,0,0,0,0,0,0,0,0,0,-1,1441,533,0,0
224,491,0,0,0,0,0,0,0,0,0,-1,1448,533,0,0
231,491,0,0,0,0,0,0,0,0,0,-1,1455,533,0,0
238,491,0,0,0,0,0,0,0,0,0,-1,1462,533,0,0
245,491,0,0,0,0,0,0,0,0,0,-1,1469,533,0,0
252,491,0,0,0,0,0,0,0,0,0,-1,1476,533,0,0
259,491,0,0,0,0,0,0,0,0,0,-1,1483,533,0,0
266,491,0,0,0,0,0,0,0,0,0,-1,1490,533,0,0
273,491,0,0,0,0,0,0,0,0,0,-1,1497,533,0,0
280,491,0,0,0,0,0,0,0,0,0,-1,1504,533,0,0
287,491,0,0,0,0,0,0,0,0,0,-1,1511,533,0,0
294,491,0,0,0,0,0,0,0,0,0,-1,1518,533,0,0
301,491,0,0,0,0,0,0,0,0,0,-1,1525,533,0,0
308,491,0,0,0,0,0,0,0,0,0,-1,1532,533,0,0
315,491,0,0,0,0,0,0,0,0,0,-1,1539,533,0,0
322,491,4.26331,-0.734314,0,0,0,0,0,0,0,-1,1546,533,4.26326,0.734324
329,491,4.25354,-0.783752,0,0,0,0,0,0,0,-1,1553,533,4.25359,0.783734
336,491,4.81604,-0.722107,0,0,0,0,0,0,0,-1,1560,533,4.81605,0.722115
343,491,6.14478,-1.44281,0,0,0,0,0,0,0,-1,1567,533,6.14474,1.44281
350,491,6.36353,-1.30792,0,0,0,0,0,0,0,-1,1574,533,6.36352,1.3079
357,491,6.69482,-1.06018,0,0,0,0,0,0,0,-1,1581,533,6.69489,1.06018
364,491,8.01086,-1.69604,0,0,0,0,0,0,0,-1,1588,533,8.01087,1.69607
371,491,8.2135,-0.539307,0,0,0,0,0,0,0,-1,1595,533,8.21348,0.53929
378,491,13.3589,2.17267,0,0,0,0,0,0,0,-1,1602,533,13.3589,-2.17264
385,491,8.08228,-4.95471,0,0,0,0,0,0,0,-1,1609,533,8.08227,4.95474
392,491,2.88721,-4.30988,0,0,0,0,0,0,0,-1,1616,533,2.88716,4.30986
399,491,8.95862,-8.55518,0,0,0,0,0,0,0,-1,1623,533,8.95864,8.55516
406,491,8.16541,-9.00806,0,0,0,0,0,0,0,-1,1630,533,8.16535,9.00807
413,491,5.31848,-3.7124,0,0,0,0,0,0,0,-1,1637,533,5.31849,3.7124
420,491,4.86389,-3.95892,0,0,0,0,0,0,0,-1,1644,533,4.86387,3.95893
427,491,11.5096,-15.2742,0,0,0,0,0,0,0,-1,1651,533,11.5096,15.2742
434,491,24.1083,-39.8145,0,0,0,0,0,0,0,-1,1658,533,24.1083,39.8145
441,491,56.7123,-148.218,0,0,0,0,0,0,0,-1,1665,533,56.7123,148.218
448,491,83.9315,-147.881,0,0,0,0,0,0,0,-1,1672,533,83.9315,147.881
455,491,83.4403,-143.629,0,0,0,0,0,0,0,-1,1679,533,83.4403,143.629
462,491,82.9794,-139.529,0,0,0,0,0,0,0,-1,1686,533,82.9793,139.529
469,491,82.2737,-135.604,0,0,0,0,0,0,0,-1,1693,533,82.2737,135.604
476,491,81.1434,-131.539,0,0,0,0,0,0,0,-1,1700,533,81.1435,131.539
483,491,79.9225,-127.74,0,0,0,0,0,0,0,-1,1707,533,79.9224,127.74
490,491,78.734,-123.695,0,0,0,0,0,0,0,-1,1714,533,78.7339,123.695
497,491,78.2487,-118.351,0.0556921,0.011743,-0.0490286,0.0874454,-0.0200103,-0.574721,0.0659863,0.0307226,1721,533,78.2487,118.351
504,491,77.3397,-113.781,0.0563908,0.0125113,-0.0451382,0.0846388,-0.0157367,-0.559183,0.0623371,0.0244353,1728,533,77.3397,113.781
511,491,76.303,-109.39,0.0575736,0.013671,-0.04206,0.083066,-0.0118214,-0.544889,0.0597091,0.0233312,1735,533,76.303,109.39
518,491,75.1057,-104.978,0.0589629,0.0151593,-0.0398216,0.0825083,-0.0083861,-0.533977,0.0580033,0.0175025,1742,533,75.1057,104.978
525,491,73.9041,-100.448,0.0604043,0.0171797,-0.0383435,0.082807,-0.00522291,-0.528767,0.0570254,0.020952,1749,533,73.904,100.448
532,491,72.6984,-95.7404,0,0,0,0,0,0,0,-1,1756,533,72.6983,95.7404
539,491,27.2163,-35.1343,0,0,0,0,0,0,0,-1,1763,533,27.2163,35.1343
546,491,22.9856,-26.3007,0,0,0,0,0,0,0,-1,1770,533,22.9856,26.3007
553,491,10.5021,-7.77869,0,0,0,0,0,0,0,-1,1777,533,10.502,7.77871
560,491,6.28455,-1.43585,0,0,0,0,0,0,0,-1,1784,533,6.28458,1.43586
567,491,5.67651,-1.3562,0,0,0,0,0,0,0,-1,1791,533,5.67649,1.3562
574,491,8.0719,1.58325,0,0,0,0,0,0,0,-1,1798,533,8.07195,-1.58326
581,491,9.44812,1.60931,0,0,0,0,0,0,0,-1,1805,533,9.44808,-1.60933
588,491,11.0497,1.54962,0,0,0,0,0,0,0,-1,1812,533,11.0496,-1.54963
595,491,0,0,0,0,0,0,0,0,0,-1,1819,533,0,0
602,491,0,0,0,0,0,0,0,0,0,-1,1826,533,0,0
609,491,0,0,0,0,0,0,0,0,0,-1,1833,533,0,0
616,491,0,0,0,0,0,0,0,0,0,-1,1840,533,0,0
623,491,0,0,0,0,0,0,0,0,0,-1,1847,533,0,0
630,491,0,0,0,0,0,0,0,0,0,-1,1854,533,0,0
637,491,0,0,0,0,0,0,0,0,0,-1,1861,533,0,0
644,491,0,0,0,0,0,0,0,0,0,-1,1868,533,0,0
651,491,0,0,0,0,0,0,0,0,0,-1,1875,533,0,0
658,491,0,0,0,0,0,0,0,0,0,-1,1882,533,0,0
665,491,0,0,0,0,0,0,0,0,0,-1,1889,533,0,0
672,491,0,0,0,0,0,0,0,0,0,-1,1896,533,0,0
679,491,0,0,0,0,0,0,0,0,0,-1,1903,533,0,0
686,491,0,0,0,0,0,0,0,0,0,-1,1910,533,0,0
693,491,0,0,0,0,0,0,0,0,0,-1,1917,533,0,0
700,491,0,0,0,0,0,0,0,0,0,-1,1924,533,0,0
707,491,0,0,0,0,0,0,0,0,0,-1,1931,533,0,0
714,491,0,0,0,0,0,0,0,0,0,-1,1938,533,0,0
721,491,0,0,0,0,0,0,0,0,0,-1,1945,533,0,0
728,491,0,0,0,0,0,0,0,0,0,-1,1952,533,0,0
735,491,0,0,0,0,0,0,0,0,0,-1,1959,533,0,0
742,491,0,0,0,0,0,0,0,0,0,-1,1966,533,0,0
749,491,0,0,0,0,0,0,0,0,0,-1,1973,533,0,0
756,491,0,0,0,0,0,0,0,0,0,-1,1980,533,0,0
763,491,0,0,0,0,0,0,0,0,0,-1,1987,533,0,0
770,491,0,0,0,0,0,0,0,0,0,-1,1994,533,0,0
777,491,0,0,0,0,0,0,0,0,0,-1,2001,533,0,0
784,491,0,0,0,0,0,0,0,0,0,-1,2008,533,0,0
791,491,0,0,0,0,0,0,0,0,0,-1,2015,533,0,0
798,491,0,0,0,0,0,0,0,0,0,-1,2022,533,0,0
805,491,0,0,0,0,0,0,0,0,0,-1,2029,533,0,0
812,491,0,0,0,0,0,0,0,0,0,-1,2036,533,0,0
-700,484,0,0,0,0,0,0,0,0,0,-1,524,540,0,0
-693,484,0,0,0,0,0,0,0,0,0,-1,531,540,0,0
-686,484,0,0,0,0,0,0,0,0,0,-1,538,540,0,0
-679,484,0,0,0,0,0,0,0,0,0,-1,545,540,0,0
-672,484,0,0,0,0,0,0,0,0,0,-1,552,540,0,0
-665,484,0,0,0,0,0,0,0,0,0,-1,559,540,0,0
-658,484,0,0,0,0,0,0,0,0,0,-1,566,540,0,0
-651,484,0,0,0,0,0,0,0,0,0,-1,573,540,0,0
-644,484,0,0,0,0,0,0,0,0,0,-1,580,540,0,0
-637,484,0,0,0,0,0,0,0,0,0,-1,587,540,0,0
-630,484,0,0,0,0,0,0,0,0,0,-1,594,540,0,0
-623,484,0,0,0,0,0,0,0,0,0,-1,601,540,0,0
-616,484,0,0,0,0,0,0,0,0,0,-1,608,540,0,0
-609,484,0,0,0,0,0,0,0,0,0,-1,615,540,0,0
-602,484,0,0,0,0,0,0,0,0,0,-1,622,540,0,0
-595,484,0,0,0,0,0,0,0,0,0,-1,629,540,0,0
-588,484,0,0,0,0,0,0,0,0,0,-1,636,540,0,0
-581,484,0,0,0,0,0,0,0,0,0,-1,643,540,0,0
-574,484,0,0,0,0,0,0,0,0,0,-1,650,540,0,0
-567,484,0,0,0,0,0,0,0,0,0,-1,657,540,0,0
-560,484,0,0,0,0,0,0,0,0,0,-1,664,540,0,0
-553,484,0,0,0,0,0,0,0,0,0,-1,671,540,0,0
-546,484,0,0,0,0,0,0,0,0,0,-1,678,540,0,0
-539,484,0,0,0,0,0,0,0,0,0,-1,685,540,0,0
-532,484,0,0,0,0,0,0,0,0,0,-1,692,540,0,0
-525,484,0,0,0,0,0,0,0,0,0,-1,699,540,0,0
-518,484,0,0,0,0,0,0,0,0,0,-1,706,540,0,0
-511,484,0,0,0,0,0,0,0,0,0,-1,713,540,0,0
-504,484,0,0,0,0,0,0,0,0,0,-1,720,540,0,0
-497,484,0,0,0,0,0,0,0,0,0,-1,727,540,0,0
-490,484,0,0,0,0,0,0,0,0,0,-1,734,540,0,0
-483,484,0,0,0,0,0,0,0,0,0,-1,741,540,0,0
-476,484,-8.46552,1.44702,0,0,0,0,0,0,0,-1,748,540,-8.46554,-1.44702
-469,484,-7.82343,1.70355,0,0,0,0,0,0,0,-1,755,540,-7.82345,-1.70355
-462,484,-8.36987,3.08612,0,0,0,0,0,0,0,-1,762,540,-8.36988,-3.0861
-455,484,-6.77197,2.07092,0,0,0,0,0,0,0,-1,769,540,-6.77197,-2.07094
-448,484,3.54895,-1.40106,0,0,0,0,0,0,0,-1,776,540,3.54897,1.40106
-441,484,4.28906,-3.05884,0,0,0,0,0,0,0,-1,783,540,4.28905,3.05883
-434,484,-2.17548,-5.07245,0,0,0,0,0,0,0,-1,790,540,-2.17546,5.07243
-427,484,-6.97125,-22.7925,0,0,0,0,0,0,0,-1,797,540,-6.97126,22.7925
-420,484,-27.6194,-78.022,0,0,0,0,0,0,0,-1,804,540,-27.6195,78.022
-413,484,-63.8713,-87.727,0,0,0,0,0,0,0,-1,811,540,-63.8714,87.727
-406,484,-65.6695,-92.5425,0,0,0,0,0,0,0,-1,818,540,-65.6695,92.5425
-399,484,-66.3051,-97.585,0,0,0,0,0,0,0,-1,825,540,-66.3051,97.585
-392,484,-67.5345,-101.953,0.0407977,0.0074924,0.0370044,0.0647238,-0.0164337,0.573964,0.0495441,0.0397579,832,540,-67.5345,101.953
-385,484,-68.7717,-106.46,0.0428243,0.00645364,0.0406836,0.0692019,-0.019924,0.575222,0.054015,0.0218025,839,540,-68.7717,106.46
-378,484,-70.156,-110.873,0.045115,0.00562929,0.0443387,0.0739077,-0.0231634,0.57594,0.058541,0.0214042,846,540,-70.156,110.873
-371,484,-71.2986,-115.317,0.0476832,0.00477199,0.0477815,0.0786052,-0.02615,0.574372,0.0629572,0.0253951,853,540,-71.2986,115.317
-364,484,-72.3932,-119.673,0.0508058,0.00401581,0.0514132,0.0838966,-0.0290749,0.57188,0.0677357,0.0185167,860,540,-72.3932,119.673
-357,484,-73.297,-123.99,0.0542399,0.00331978,0.0553107,0.089669,-0.0321093,0.569701,0.0728796,0.0198282,867,540,-73.297,123.99
-350,484,-74.1658,-128.257,0.0578719,0.00247119,0.0590472,0.0953933,-0.0350502,0.566077,0.0779514,0.0206322,874,540,-74.1658,128.257
-343,484,-75.0869,-132.606,0.0617876,0.00118467,0.0629132,0.101316,-0.038344,0.560972,0.0833203,0.0296477,881,540,-75.0869,132.606
-336,484,-76.1471,-136.852,0.0657235,-0.0011306,0.0675751,0.107687,-0.0430943,0.555713,0.0896769,0.0449606,888,540,-76.1471,136.852
-329,484,-76.4238,-140.727,0,0,0,0,0,0,0,-1,895,540,-76.4238,140.727
-322,484,-74.3159,-144.485,0,0,0,0,0,0,0,-1,902,540,-74.3159,144.485
-315,484,-35.3205,-109.059,0,0,0,0,0,0,0,-1,909,540,-35.3205,109.059
-308,484,-1.32623,-8.9317,0,0,0,0,0,0,0,-1,916,540,-1.32626,8.93173
-301,484,-1.33453,-6.52667,0,0,0,0,0,0,0,-1,923,540,-1.33454,6.5267
-294,484,-1.61224,-8.17059,0,0,0,0,0,0,0,-1,930,540,-1.61227,8.17058
-287,484,-0.715759,-5.62103,0,0,0,0,0,0,0,-1,937,540,-0.715772,5.62105
-280,484,2.66742,-1.6795,0,0,0,0,0,0,0,-1,944,540,2.6674,1.67949
-273,484,2.53125,-2.22296,0,0,0,0,0,0,0,-1,951,540,2.53128,2.22295
-266,484,2.6778,-2.72058,0,0,0,0,0,0,0,-1,958,540,2.6778,2.72061
-259,484,2.41718,-2.59894,0,0,0,0,0,0,0,-1,965,540,2.41717,2.59892
-252,484,10.6069,-11.696,0,0,0,0,0,0,0,-1,972,540,10.6069,11.696
-245,484,6.34106,-11.6107,0,0,0,0,0,0,0,-1,979,540,6.34104,11.6107
-238,484,4.89319,-8.54059,0,0,0,0,0,0,0,-1,986,540,4.89321,8.5406
-231,484,3.47675,-5.22064,0,0,0,0,0,0,0,-1,993,540,3.47676,5.22067
-224,484,1.71344,-2.03473,0,0,0,0,0,0,0,-1,1000,540,1.71342,2.03472
-217,484,-0.745056,1.17358,0,0,0,0,0,0,0,-1,1007,540,-0.745043,-1.17359
-210,484,0,0,0,0,0,0,0,0,0,-1,1014,540,0,0
-203,484,0,0,0,0,0,0,0,0,0,-1,1021,540,0,0
-196,484,0,0,0,0,0,0,0,0,0,-1,1028,540,0,0
-189,484,0,0,0,0,0,0,0,0,0,-1,1035,540,0,0
-182,484,0,0,0,0,0,0,0,0,0,-1,1042,540,0,0
-175,484,0,0,0,0,0,0,0,0,0,-1,1049,540,0,0
-168,484,0,0,0,0,0,0,0,0,0,-1,1056,540,0,0
-161,484,0,0,0,0,0,0,0,0,0,-1,1063,540,0,0
-154,484,0,0,0,0,0,0,0,0,0,-1,1070,540,0,0
-147,484,0,0,0,0,0,0,0,0,0,-1,1077,540,0,0
-140,484,0,0,0,0,0,0,0,0,0,-1,1084,540,0,0
-133,484,0,0,0,0,0,0,0,0,0,-1,1091,540,0,0
-126,484,0,0,0,0,0,0,0,0,0,-1,1098,540,0,0
-119,484,0,0,0,0,0,0,0,0,0,-1,1105,540,0,0
-112,484,0,0,0,0,0,0,0,0,0,-1,1112,540,0,0
-105,484,0,0,0,0,0,0,0,0,0,-1,1119,540,0,0
-98,484,0,0,0,0,0,0,0,0,0,-1,1126,540,0,0
-91,484,0,0,0,0,0,0,0,0,0,-1,1133,540,0,0
-84,484,0,0,0,0,0,0,0,0,0,-1,1140,540,0,0
-77,484,0,0,0,0,0,0,0,0,0,-1,1147,540,0,0
-70,484,0,0,0,0,0,0,0,0,0,-1,1154,540,0,0
-63,484,0,0,0,0,0,0,0,0,0,-1,1161,540,0,0
-56,484,0,0,0,0,0,0,0,0,0,-1,1168,540,0,0
-49,484,0,0,0,0,0,0,0,0,0,-1,1175,540,0,0
-42,484,0,0,0,0,0,0,0,0,0,-1,1182,540,0,0
-35,484,0,0,0,0,0,0,0,0,0,-1,1189,540,0,0
-28,484,0,0,0,0,0,0,0,0,0,-1,1196,540,0,0
-21,484,0,0,0,0,0,0,0,0,0,-1,1203,540,0,0
-14,484,0,0,0,0,0,0,0,0,0,-1,1210,540,0,0
-7,484,0,0,0,0,0,0,0,0,0,-1,1217,540,0,0
0,484,0,0,0,0,0,0,0,0,0,-1,1224,540,0,0
7,484,0,0,0,0,0,0,0,0,0,-1,1231,540,0,0
14,484,0,0,0,0,0,0,0,0,0,-1,1238,540,0,0
21,484,0,0,0,0,0,0,0,0,0,-1,1245,540,0,0
28,484,0,0,0,0,0,0,0,0,0,-1,1252,540,0,0
35,484,0,0,0,0,0,0,0,0,0,-1,1259,540,0,0
42,484,0,0,0,0,0,0,0,0,0,-1,1266,540,0,0
49,484,0,0,0,0,0,0,0,0,0,-1,1273,540,0,0
56,484,0,0,0,0,0,0,0,0,0,-1,1280,540,0,0
63,484,0,0,0,0,0,0,0,0,0,-1,1287,540,0,0
70,484,0,0,0,0,0,0,0,0,0,-1,1294,540,0,0
77,484,0,0,0,0,0,0,0,0,0,-1,1301,540,0,0
84,484,0,0,0,0,0,0,0,0,0,-1,1308,540,0,0
91,484,0,0,0,0,0,0,0,0,0,-1,1315,540,0,0
98,484,0,0,0,0,0,0,0,0,0,-1,1322,540,0,0
105,484,0,0,0,0,0,0,0,0,0,-1,1329,540,0,0
112,484,0,0,0,0,0,0,0,0,0,-1,1336,540,0,0
119,484,0,0,0,0,0,0,0,0,0,-1,1343,540,0,0
126,484,0,0,0,0,0,0,0,0,0,-1,1350,540,0,0
133,484,0,0,0,0,0,0,0,0,0,-1,1357,540,0,0
140,484,0,0,0,0,0,0,0,0,0,-1,1364,540,0,0
147,484,0,0,0,0,0,0,0,0,0,-1,1371,540,0,0
154,484,0,0,0,0,0,0,0,0,0,-1,1378,540,0,0
161,484,0,0,0,0,0,0,0,0,0,-1,1385,540,0,0
168,484,0,0,0,0,0,0,0,0,0,-1,1392,540,0,0
175,484,0,0,0,0,0,0,0,0,0,-1,1399,540,0,0
182,484,0,0,0,0,0,0,0,0,0,-1,1406,540,0,0
189,484,0,0,0,0,0,0,0,0,0,-1,1413,540,0,0
196,484,0,0,0,0,0,0,0,0,0,-1,1420,540,0,0
203,484,0,0,0,0,0,0,0,0,0,-1,1427,540,0,0
210,484,0,0,0,0,0,0,0,0,0,-1,1434,540,0,0
217,484,0,0,0,0,0,0,0,0,0,-1,1441,540,0,0
224,484,0,0,0,0,0,0,0,0,0,-1,1448,540,0,0
231,484,0,0,0,0,0,0,0,0,0,-1,1455,540,0,0
238,484,0,0,0,0,0,0,0,0,0,-1,1462,540,0,0
245,484,0,0,0,0,0,0,0,0,0,-1,1469,540,0,0
252,484,0,0,0,0,0,0,0,0,0,-1,1476,540,0,0
259,484,0,0,0,0,0,0,0,0,0,-1,1483,540,0,0
266,484,0,0,0,0,0,0,0,0,0,-1,1490,540,0,0
273,484,0,0,0,0,0,0,0,0,0,-1,1497,540,0,0
280,484,0,0,0,0,0,0,0,0,0,-1,1504,540,0,0
287,484,0,0,0,0,0,0,0,0,0,-1,1511,540,0,0
294,484,0,0,0,0,0,0,0,0,0,-1,1518,540,0,0
301,484,0,0,0,0,0,0,0,0,0,-1,1525,540,0,0
308,484,0,0,0,0,0,0,0,0,0,-1,1532,540,0,0
315,484,0,0,0,0,0,0,0,0,0,-1,1539,540,0,0
322,484,0,0,0,0,0,0,0,0,0,-1,1546,540,0,0
329,484,0,0,0,0,0,0,0,0,0,-1,1553,540,0,0
336,484,4.38708,-1.64136,0,0,0,0,0,0,0,-1,1560,540,4.38704,1.64138
343,484,7.57996,-1.05457,0,0,0,0,0,0,0,-1,1567,540,7.57995,1.05454
350,484,8.10425,-1.18878,0,0,0,0,0,0,0,-1,1574,540,8.1043,1.18877
357,484,7.74902,-3.80286,0,0,0,0,0,0,0,-1,1581,540,7.74901,3.80287
364,484,6.31262,-3.87213,0,0,0,0,0,0,0,-1,1588,540,6.31263,3.87215
371,484,7.21008,0.973511,0,0,0,0,0,0,0,-1,1595,540,7.21014,-0.973541
378,484,11.0563,1.5014,0,0,0,0,0,0,0,-1,1602,540,11.0563,-1.5014
385,484,14.3469,2.5545,0,0,0,0,0,0,0,-1,1609,540,14.3469,-2.55453
392,484,7.39453,-4.95026,0,0,0,0,0,0,0,-1,1616,540,7.39448,4.95023
399,484,7.14417,-2.5639,0,0,0,0,0,0,0,-1,1623,540,7.14417,2.56391
406,484,7.88953,-2.47321,0,0,0,0,0,0,0,-1,1630,540,7.88954,2.47323
413,484,4.4895,-1.08673,0,0,0,0,0,0,0,-1,1637,540,4.48952,1.08674
420,484,4.50012,-2.11255,0,0,0,0,0,0,0,-1,1644,540,4.50012,2.11256
427,484,5.28601,-3.54053,0,0,0,0,0,0,0,-1,1651,540,5.28599,3.54051
434,484,11.1488,-13.5359,0,0,0,0,0,0,0,-1,1658,540,11.1489,13.5359
441,484,24.9087,-38.5439,0,0,0,0,0,0,0,-1,1665,540,24.9087,38.5439
448,484,34.1501,-61.0443,0,0,0,0,0,0,0,-1,1672,540,34.1502,61.0443
455,484,87.1558,-141.862,0,0,0,0,0,0,0,-1,1679,540,87.1558,141.862
462,484,87.5167,-137.972,0,0,0,0,0,0,0,-1,1686,540,87.5167,137.972
469,484,86.2913,-133.732,0,0,0,0,0,0,0,-1,1693,540,86.2913,133.732
476,484,85.5543,-129.882,0,0,0,0,0,0,0,-1,1700,540,85.5543,129.882
483,484,84.3915,-125.91,0,0,0,0,0,0,0,-1,1707,540,84.3915,125.91
490,484,83.7885,-121.18,0.0522584,0.0096111,-0.0593445,0.093994,-0.0321245,-0.612921,0.0756787,0.0465513,1714,540,83.7884,121.18
497,484,83.0194,-116.56,0.0528955,0.00992891,-0.0549685,0.0904297,-0.0276053,-0.59911,0.0712926,0.0324412,1721,540,83.0194,116.56
504,484,82.1257,-112.089,0.0539212,0.0104552,-0.0509144,0.087547,-0.0231706,-0.583678,0.0674286,0.0304124,1728,540,82.1257,112.089
511,484,81.0085,-107.641,0.0553686,0.0113805,-0.0476455,0.0858515,-0.0191024,-0.569162,0.064551,0.0277936,1735,540,81.0086,107.641
518,484,79.7579,-103.275,0.0569497,0.012653,-0.0452072,0.0851426,-0.0155399,-0.557619,0.0625881,0.0235967,1742,540,79.758,103.275
525,484,78.6855,-98.6851,0.0585114,0.0144455,-0.043575,0.0853071,-0.0123502,-0.551327,0.0614035,0.0195841,1749,540,78.6855,98.6851
532,484,77.6047,-94.0162,0.0600035,0.0166983,-0.042709,0.0862351,-0.00953333,-0.55079,0.060917,0.0264304,1756,540,77.6047,94.0162
539,484,76.3276,-89.4835,0,0,0,0,0,0,0,-1,1763,540,76.3276,89.4835
546,484,28.965,-33.8799,0,0,0,0,0,0,0,-1,1770,540,28.965,33.8799
553,484,12.4246,-8.96423,0,0,0,0,0,0,0,-1,1777,540,12.4246,8.96422
560,484,10.0549,-5.47931,0,0,0,0,0,0,0,-1,1784,540,10.055,5.47928
567,484,7.78223,-1.38312,0,0,0,0,0,0,0,-1,1791,540,7.78224,1.38311
574,484,5.74463,1.50922,0,0,0,0,0,0,0,-1,1798,540,5.74463,-1.50924
581,484,10.34,2.9491,0,0,0,0,0,0,0,-1,1805,540,10.34,-2.94912
588,484,10.6669,2.88568,0,0,0,0,0,0,0,-1,1812,540,10.6669,-2.88567
595,484,10.7233,1.04767,0,0,0,0,0,0,0,-1,1819,540,10.7233,-1.04766
602,484,0,0,0,0,0,0,0,0,0,-1,1826,540,0,0
609,484,0,0,0,0,0,0,0,0,0,-1,1833,540,0,0
616,484,0,0,0,0,0,0,0,0,0,-1,1840,540,0,0
623,484,0,0,0,0,0,0,0,0,0,-1,1847,540,0,0
630,484,0,0,0,0,0,0,0,0,0,-1,1854,540,0,0
637,484,0,0,0,0,0,0,0,0,0,-1,1861,540,0,0
644,484,0,0,0,0,0,0,0,0,0,-1,1868,540,0,0
651,484,0,0,0,0,0,0,0,0,0,-1,1875,540,0,0
658,484,0,0,0,0,0,0,0,0,0,-1,1882,540,0,0
665,484,0,0,0,0,0,0,0,0,0,-1,1889,540,0,0
672,484,0,0,0,0,0,0,0,0,0,-1,1896,540,0,0
679,484,0,0,0,0,0,0,0,0,0,-1,1903,540,0,0
686,484,0,0,0,0,0,0,0,0,0,-1,1910,540,0,0
693,484,0,0,0,0,0,0,0,0,0,-1,1917,540,0,0
700,484,0,0,0,0,0,0,0,0,0,-1,1924,540,0,0
707,484,0,0,0,0,0,0,0,0,0,-1,1931,540,0,0
714,484,0,0,0,0,0,0,0,0,0,-1,1938,540,0,0
721,484,0,0,0,0,0,0,0,0,0,-1,1945,540,0,0
728,484,0,0,0,0,0,0,0,0,0,-1,1952,540,0,0
735,484,0,0,0,0,0,0,0,0,0,-1,1959,540,0,0
742,484,0,0,0,0,0,0,0,0,0,-1,1966,540,0,0
749,484,0,0,0,0,0,0,0,0,0,-1,1973,540,0,0
756,484,0,0,0,0,0,0,0,0,0,-1,1980,540,0,0
763,484,0,0,0,0,0,0,0,0,0,-1,1987,540,0,0
770,484,0,0,0,0,0,0,0,0,0,-1,1994,540,0,0
777,484,0,0,0,0,0,0,0,0,0,-1,2001,540,0,0
784,484,0,0,0,0,0,0,0,0,0,-1,2008,540,0,0
791,484,0,0,0,0,0,0,0,0,0,-1,2015,540,0,0
798,484,0,0,0,0,0,0,0,0,0,-1,2022,540,0,0
805,484,0,0,0,0,0,0,0,0,0,-1,2029,540,0,0
812,484,0,0,0,0,0,0,0,0,0,-1,2036,540,0,0
-700,477,0,0,0,0,0,0,0,0,0,-1,524,547,0,0
-693,477,0,0,0,0,0,0,0,0,0,-1,531,547,0,0
-686,477,0,0,0,0,0,0,0,0,0,-1,538,547,0,0
-679,477,0,0,0,0,0,0,0,0,0,-1,545,547,0,0
-672,477,0,0,0,0,0,0,0,0,0,-1,552,547,0,0
-665,477,0,0,0,0,0,0,0,0,0,-1,559,547,0,0
-658,477,0,0,0,0,0,0,0,0,0,-1,566,547,0,0
-651,477,0,0,0,0,0,0,0,0,0,-1,573,547,0,0
-644,477,0,0,0,0,0,0,0,0,0,-1,580,547,0,0
-637,477,0,0,0,0,0,0,0,0,0,-1,587,547,0,0
-630,477,0,0,0,0,0,0,0,0,0,-1,594,547,0,0
-623,477,0,0,0,0,0,0,0,0,0,-1,601,547,0,0
-616,477,0,0,0,0,0,0,0,0,0,-1,608,547,0,0
-609,477,0,0,0,0,0,0,0,0,0,-1,615,547,0,0
-602,477,0,0,0,0,0,0,0,0,0,-1,622,547,0,0
-595,477,0,0,0,0,0,0,0,0,0,-1,629,547,0,0
-588,477,0,0,0,0,0,0,0,0,0,-1,636,547,0,0
-581,477,0,0,0,0,0,0,0,0,0,-1,643,547,0,0
-574,477,0,0,0,0,0,0,0,0,0,-1,650,547,0,0
-567,477,0,0,0,0,0,0,0,0,0,-1,657,547,0,0
-560,477,0,0,0,0,0,0,0,0,0,-1,664,547,0,0
-553,477,0,0,0,0,0,0,0,0,0,-1,671,547,0,0
-546,477,0,0,0,0,0,0,0,0,0,-1,678,547,0,0
-539,477,0,0,0,0,0,0,0,0,0,-1,685,547,0,0
-532,477,0,0,0,0,0,0,0,0,0,-1,692,547,0,0
-525,477,0,0,0,0,0,0,0,0,0,-1,699,547,0,0
-518,477,0,0,0,0,0,0,0,0,0,-1,706,547,0,0
-511,477,0,0,0,0,0,0,0,0,0,-1,713,547,0,0
-504,477,0,0,0,0,0,0,0,0,0,-1,720,547,0,0
-497,477,0,0,0,0,0,0,0,0,0,-1,727,547,0,0
-490,477,0,0,0,0,0,0,0,0,0,-1,734,547,0,0
-483,477,-7.73151,-0.224182,0,0,0,0,0,0,0,-1,741,547,-7.73152,0.224176
-476,477,-6.25806,-0.310547,0,0,0,0,0,0,0,-1,748,547,-6.25804,0.310549
-469,477,-7.26617,0.525085,0,0,0,0,0,0,0,-1,755,547,-7.2662,-0.525111
-462,477,-6.65143,1.06042,0,0,0,0,0,0,0,-1,762,547,-6.65143,-1.06043
-455,477,-5.31757,0.429016,0,0,0,0,0,0,0,-1,769,547,-5.31756,-0.42902
-448,477,-4.0697,0.273376,0,0,0,0,0,0,0,-1,776,547,-4.06971,-0.273363
-441,477,-2.47504,-4.76971,0,0,0,0,0,0,0,-1,783,547,-2.47505,4.76973
-434,477,-7.66589,-22.4534,0,0,0,0,0,0,0,-1,790,547,-7.66591,22.4534
-427,477,-36.6924,-76.6806,0,0,0,0,0,0,0,-1,797,547,-36.6924,76.6806
-420,477,-67.3834,-81.3888,0,0,0,0,0,0,0,-1,804,547,-67.3834,81.3888
-413,477,-68.7482,-86.129,0.0393072,0.0143921,0.0331268,0.0622414,-0.00854207,0.605549,0.044615,0.0440622,811,547,-68.7483,86.129
-406,477,-70.3713,-90.7375,0.0402625,0.01144,0.0362298,0.0648421,-0.0131396,0.596106,0.0482085,0.0310442,818,547,-70.3713,90.7375
-399,477,-71.0779,-95.2543,0,0,0,0,0,0,0,-1,825,547,-71.0779,95.2543
-392,477,-72.3082,-99.9154,0.0420154,0.00759155,0.0428795,0.0710084,-0.0214015,0.594541,0.0558566,0.0278308,832,547,-72.3082,99.9154
-385,477,-73.5505,-104.571,0.0437231,0.00666005,0.0462109,0.0749798,-0.0245967,0.594705,0.0598933,0.0220679,839,547,-73.5505,104.571
-378,477,-74.856,-109.069,0.0458867,0.00589386,0.0496112,0.0793798,-0.0275992,0.593826,0.0641307,0.0198484,846,547,-74.856,109.069
-371,477,-76.0412,-113.416,0.0483987,0.00514248,0.0528203,0.0838474,-0.0303062,0.591079,0.0682803,0.0207419,853,547,-76.0412,113.416
-364,477,-77.0237,-117.781,0.0515338,0.00451512,0.0562651,0.0890036,-0.0329547,0.587507,0.0728491,0.0195133,860,547,-77.0237,117.781
-357,477,-78.0479,-122.098,0.0550625,0.00388398,0.0600608,0.0947581,-0.0358116,0.584016,0.0779031,0.0183928,867,547,-78.0479,122.098
-350,477,-78.9427,-126.359,0.0590171,0.00279586,0.0636201,0.10046,-0.0386472,0.57737,0.0829146,0.0179189,874,547,-78.9427,126.359
-343,477,-79.5688,-131.005,0.0632887,0.00128313,0.0673302,0.106411,-0.0418392,0.56964,0.0882571,0.049076,881,547,-79.5689,131.005
-336,477,-80.6566,-135.062,0,0,0,0,0,0,0,-1,888,547,-80.6566,135.062
-329,477,-15.676,-52.1498,0,0,0,0,0,0,0,-1,895,547,-15.676,52.1498
-322,477,-5.91638,-27.4468,0,0,0,0,0,0,0,-1,902,547,-5.91639,27.4468
-315,477,-1.67358,-9.15253,0,0,0,0,0,0,0,-1,909,547,-1.67356,9.15253
-308,477,-1.30127,-6.55188,0,0,0,0,0,0,0,-1,916,547,-1.30128,6.55185
-301,477,-1.21185,-6.28351,0,0,0,0,0,0,0,-1,923,547,-1.21184,6.28352
-294,477,-0.352905,3.27142,0,0,0,0,0,0,0,-1,930,547,-0.35292,-3.27144
-287,477,3.54364,2.15399,0,0,0,0,0,0,0,-1,937,547,3.54362,-2.15396
-280,477,1.97308,-0.954163,0,0,0,0,0,0,0,-1,944,547,1.9731,0.954178
-273,477,2.11621,-3.76709,0,0,0,0,0,0,0,-1,951,547,2.11619,3.76706
-266,477,2.04669,-3.42389,0,0,0,0,0,0,0,-1,958,547,2.04671,3.42391
-259,477,-1.33478,-3.41205,0,0,0,0,0,0,0,-1,965,547,-1.3348,3.41206
-252,477,0.597168,-5.32922,0,0,0,0,0,0,0,-1,972,547,0.597144,5.32924
-245,477,8.2309,-8.48492,0,0,0,0,0,0,0,-1,979,547,8.23091,8.48494
-238,477,6.60938,-5.64063,0,0,0,0,0,0,0,-1,986,547,6.60938,5.64063
-231,477,4.71716,-2.52484,0,0,0,0,0,0,0,-1,993,547,4.71716,2.52483
-224,477,0,0,0,0,0,0,0,0,0,-1,1000,547,0,0
-217,477,0,0,0,0,0,0,0,0,0,-1,1007,547,0,0
-210,477,0,0,0,0,0,0,0,0,0,-1,1014,547,0,0
-203,477,0,0,0,0,0,0,0,0,0,-1,1021,547,0,0
-196,477,0,0,0,0,0,0,0,0,0,-1,1028,547,0,0
-189,477,0,0,0,0,0,0,0,0,0,-1,1035,547,0,0
-182,477,0,0,0,0,0,0,0,0,0,-1,1042,547,0,0
-175,477,0,0,0,0,0,0,0,0,0,-1,1049,547,0,0
-168,477,0,0,0,0,0,0,0,0,0,-1,1056,547,0,0
-161,477,0,0,0,0,0,0,0,0,0,-1,1063,547,0,0
-154,477,0,0,0,0,0,0,0,0,0,-1,1070,547,0,0
-147,477,0,0,0,0,0,0,0,0,0,-1,1077,547,0,0
-140,477,0,0,0,0,0,0,0,0,0,-1,1084,547,0,0
-133,477,0,0,0,0,0,0,0,0,0,-1,1091,547,0,0
-126,477,0,0,0,0,0,0,0,0,0,-1,1098,547,0,0
-119,477,0,0,0,0,0,0,0,0,0,-1,1105,547,0,0
-112,477,0,0,0,0,0,0,0,0,0,-1,1112,547,0,0
-105,477,0,0,0,0,0,0,0,0,0,-1,1119,547,0,0
-98,477,0,0,0,0,0,0,0,0,0,-1,1126,547,0,0
-91,477,0,0,0,0,0,0,0,0,0,-1,1133,547,0,0
-84,477,0,0,0,0,0,0,0,0,0,-1,1140,547,0,0
-77,477,0,0,0,0,0,0,0,0,0,-1,1147,547,0,0
-70,477,0,0,0,0,0,0,0,0,0,-1,1154,547,0,0
-63,477,0,0,0,0,0,0,0,0,0,-1,1161,547,0,0
-56,477,0,0,0,0,0,0,0,0,0,-1,1168,547,0,0
-49,477,0,0,0,0,0,0,0,0,0,-1,1175,547,0,0
-42,477,0,0,0,0,0,0,0,0,0,-1,1182,547,0,0
-35,477,0,0,0,0,0,0,0,0,0,-1,1189,547,0,0
-28,477,0,0,0,0,0,0,0,0,0,-1,1196,547,0,0
-21,477,0,0,0,0,0,0,0,0,0,-1,1203,547,0,0
-14,477,0,0,0,0,0,0,0,0,0,-1,1210,547,0,0
-7,477,0,0,0,0,0,0,0,0,0,-1,1217,547,0,0
0,477,0,0,0,0,0,0,0,0,0,-1,1224,547,0,0
7,477,0,0,0,0,0,0,0,0,0,-1,1231,547,0,0
14,477,0,0,0,0,0,0,0,0,0,-1,1238,547,0,0
21,477,0,0,0,0,0,0,0,0,0,-1,1245,547,0,0
28,477,0,0,0,0,0,0,0,0,0,-1,1252,547,0,0
35,477,0,0,0,0,0,0,0,0,0,-1,1259,547,0,0
42,477,0,0,0,0,0,0,0,0,0,-1,1266,547,0,0
49,477,0,0,0,0,0,0,0,0,0,-1,1273,547,0,0
56,477,0,0,0,0,0,0,0,0,0,-1,1280,547,0,0
63,477,0,0,0,0,0,0,0,0,0,-1,1287,547,0,0
70,477,0,0,0,0,0,0,0,0,0,-1,1294,547,0,0
77,477,0,0,0,0,0,0,0,0,0,-1,1301,547,0,0
84,477,0,0,0,0,0,0,0,0,0,-1,1308,547,0,0
91,477,0,0,0,0,0,0,0,0,0,-1,1315,547,0,0
98,477,0,0,0,0,0,0,0,0,0,-1,1322,547,0,0
105,477,0,0,0,0,0,0,0,0,0,-1,1329,547,0,0
112,477,0,0,0,0,0,0,0,0,0,-1,1336,547,0,0
119,477,0,0,0,0,0,0,0,0,0,-1,1343,547,0,0
126,477,0,0,0,0,0,0,0,0,0,-1,1350,547,0,0
133,477,0,0,0,0,0,0,0,0,0,-1,1357,547,0,0
140,477,0,0,0,0,0,0,0,0,0,-1,1364,547,0,0
147,477,0,0,0,0,0,0,0,0,0,-1,1371,547,0,0
154,477,0,0,0,0,0,0,0,0,0,-1,1378,547,0,0
161,477,0,0,0,0,0,0,0,0,0,-1,1385,547,0,0
168,477,0,0,0,0,0,0,0,0,0,-1,1392,547,0,0
175,477,0,0,0,0,0,0,0,0,0,-1,1399,547,0,0
182,477,0,0,0,0,0,0,0,0,0,-1,1406,547,0,0
189,477,0,0,0,0,0,0,0,0,0,-1,1413,547,0,0
196,477,0,0,0,0,0,0,0,0,0,-1,1420,547,0,0
203,477,0,0,0,0,0,0,0,0,0,-1,1427,547,0,0
210,477,0,0,0,0,0,0,0,0,0,-1,1434,547,0,0
217,477,0,0,0,0,0,0,0,0,0,-1,1441,547,0,0
224,477,0,0,0,0,0,0,0,0,0,-1,1448,547,0,0
231,477,0,0,0,0,0,0,0,0,0,-1,1455,547,0,0
238,477,0,0,0,0,0,0,0,0,0,-1,1462,547,0,0
245,477,0,0,0,0,0,0,0,0,0,-1,1469,547,0,0
252,477,0,0,0,0,0,0,0,0,0,-1,1476,547,0,0
259,477,0,0,0,0,0,0,0,0,0,-1,1483,547,0,0
266,477,0,0,0,0,0,0,0,0,0,-1,1490,547,0,0
273,477,0,0,0,0,0,0,0,0,0,-1,1497,547,0,0
280,477,0,0,0,0,0,0,0,0,0,-1,1504,547,0,0
287,477,0,0,0,0,0,0,0,0,0,-1,1511,547,0,0
294,477,0,0,0,0,0,0,0,0,0,-1,1518,547,0,0
301,477,0,0,0,0,0,0,0,0,0,-1,1525,547,0,0
308,477,0,0,0,0,0,0,0,0,0,-1,1532,547,0,0
315,477,0,0,0,0,0,0,0,0,0,-1,1539,547,0,0
322,477,0,0,0,0,0,0,0,0,0,-1,1546,547,0,0
329,477,0,0,0,0,0,0,0,0,0,-1,1553,547,0,0
336,477,0,0,0,0,0,0,0,0,0,-1,1560,547,0,0
343,477,0,0,0,0,0,0,0,0,0,-1,1567,547,0,0
350,477,1.7699,-3.32275,0,0,0,0,0,0,0,-1,1574,547,1.7699,3.32272
357,477,3.073,-4.83313,0,0,0,0,0,0,0,-1,1581,547,3.07303,4.83316
364,477,4.30127,-4.22864,0,0,0,0,0,0,0,-1,1588,547,4.30125,4.22865
371,477,4.57703,0.283264,0,0,0,0,0,0,0,-1,1595,547,4.57706,-0.283262
378,477,8.57947,1.05969,0,0,0,0,0,0,0,-1,1602,547,8.5795,-1.05972
385,477,12.3726,2.02356,0,0,0,0,0,0,0,-1,1609,547,12.3725,-2.02355
392,477,16.4678,2.76843,0,0,0,0,0,0,0,-1,1616,547,16.4678,-2.76845
399,477,8.00037,-2.29523,0,0,0,0,0,0,0,-1,1623,547,8.00031,2.2952
406,477,4.82495,2.7475,0,0,0,0,0,0,0,-1,1630,547,4.825,-2.74752
413,477,4.88171,-0.336426,0,0,0,0,0,0,0,-1,1637,547,4.88169,0.336398
420,477,3.34875,0.102722,0,0,0,0,0,0,0,-1,1644,547,3.34871,-0.1027
427,477,1.66772,-0.373108,0,0,0,0,0,0,0,-1,1651,547,1.66768,0.373104
434,477,3.76978,-2.30798,0,0,0,0,0,0,0,-1,1658,547,3.76974,2.30801
441,477,4.05444,-2.80402,0,0,0,0,0,0,0,-1,1665,547,4.05444,2.804
448,477,10.4247,-11.7421,0,0,0,0,0,0,0,-1,1672,547,10.4247,11.7421
455,477,13.3054,-16.8109,0,0,0,0,0,0,0,-1,1679,547,13.3054,16.8109
462,477,41.8641,-79.7932,0,0,0,0,0,0,0,-1,1686,547,41.8641,79.7932
469,477,90.7264,-132.145,0,0,0,0,0,0,0,-1,1693,547,90.7264,132.145
476,477,90.4204,-127.98,0,0,0,0,0,0,0,-1,1700,547,90.4204,127.98
483,477,89.6492,-123.733,0,0,0,0,0,0,0,-1,1707,547,89.6491,123.733
490,477,88.7283,-119.326,0.0471773,0.00835145,-0.0650489,0.0956483,-0.0401195,-0.640388,0.0805413,0.039504,1714,547,88.7283,119.326
497,477,87.8226,-114.756,0.0485453,0.00845068,-0.0604062,0.0921439,-0.035148,-0.62518,0.075908,0.0324346,1721,547,87.8227,114.756
504,477,86.9291,-110.28,0.0500856,0.00871981,-0.0561097,0.089203,-0.0303976,-0.608817,0.0717798,0.0294379,1728,547,86.9291,110.28
511,477,85.7428,-105.817,0.0519353,0.00943622,-0.0525758,0.0873934,-0.0260219,-0.59335,0.0686016,0.0281844,1735,547,85.7429,105.817
518,477,84.6093,-101.299,0.0538286,0.0105755,-0.0499119,0.0865978,-0.0221938,-0.580961,0.0663783,0.0269772,1742,547,84.6093,101.299
525,477,83.5236,-96.9859,0.0556059,0.0122881,-0.0480785,0.0866789,-0.018785,-0.573768,0.0649593,0.0280769,1749,547,83.5236,96.9859
532,477,82.3734,-92.461,0.0572769,0.0146617,-0.0470247,0.0875962,-0.0156575,-0.572677,0.0642557,0.0337002,1756,547,82.3734,92.461
539,477,81.2358,-87.9222,0.058775,0.0172991,-0.0467115,0.089145,-0.0130709,-0.576489,0.0642318,0.033545,1763,547,81.2358,87.9222
546,477,80.1599,-83.59,0,0,0,0,0,0,0,-1,1770,547,80.16,83.59
553,477,33.2839,-37.685,0,0,0,0,0,0,0,-1,1777,547,33.284,37.685
560,477,19.4597,-16.1135,0,0,0,0,0,0,0,-1,1784,547,19.4597,16.1135
567,477,29.3896,-26.2586,0,0,0,0,0,0,0,-1,1791,547,29.3897,26.2586
574,477,6.82593,-0.916992,0,0,0,0,0,0,0,-1,1798,547,6.82598,0.916977
581,477,9.29321,-0.557007,0,0,0,0,0,0,0,-1,1805,547,9.29324,0.55703
588,477,9.75195,0.422729,0,0,0,0,0,0,0,-1,1812,547,9.75198,-0.42273
595,477,9.89172,1.21326,0,0,0,0,0,0,0,-1,1819,547,9.89174,-1.21328
602,477,6.5271,-0.964417,0,0,0,0,0,0,0,-1,1826,547,6.52706,0.964427
609,477,0,0,0,0,0,0,0,0,0,-1,1833,547,0,0
616,477,0,0,0,0,0,0,0,0,0,-1,1840,547,0,0
623,477,0,0,0,0,0,0,0,0,0,-1,1847,547,0,0
630,477,0,0,0,0,0,0,0,0,0,-1,1854,547,0,0
637,477,0,0,0,0,0,0,0,0,0,-1,1861,547,0,0
644,477,0,0,0,0,0,0,0,0,0,-1,1868,547,0,0
651,477,0,0,0,0,0,0,0,0,0,-1,1875,547,0,0
658,477,0,0,0,0,0,0,0,0,0,-1,1882,547,0,0
665,477,0,0,0,0,0,0,0,0,0,-1,1889,547,0,0
672,477,0,0,0,0,0,0,0,0,0,-1,1896,547,0,0
679,477,0,0,0,0,0,0,0,0,0,-1,1903,547,0,0
686,477,0,0,0,0,0,0,0,0,0,-1,1910,547,0,0
693,477,0,0,0,0,0,0,0,0,0,-1,1917,547,0,0
700,477,0,0,0,0,0,0,0,0,0,-1,1924,547,0,0
707,477,0,0,0,0,0,0,0,0,0,-1,1931,547,0,0
714,477,0,0,0,0,0,0,0,0,0,-1,1938,547,0,0
721,477,0,0,0,0,0,0,0,0,0,-1,1945,547,0,0
728,477,0,0,0,0,0,0,0,0,0,-1,1952,547,0,0
735,477,0,0,0,0,0,0,0,0,0,-1,1959,547,0,0
742,477,0,0,0,0,0,0,0,0,0,-1,1966,547,0,0
749,477,0,0,0,0,0,0,0,0,0,-1,1973,547,0,0
756,477,0,0,0,0,0,0,0,0,0,-1,1980,547,0,0
763,477,0,0,0,0,0,0,0,0,0,-1,1987,547,0,0
770,477,0,0,0,0,0,0,0,0,0,-1,1994,547,0,0
777,477,0,0,0,0,0,0,0,0,0,-1,2001,547,0,0
784,477,0,0,0,0,0,0,0,0,0,-1,2008,547,0,0
791,477,0,0,0,0,0,0,0,0,0,-1,2015,547,0,0
798,477,0,0,0,0,0,0,0,0,0,-1,2022,547,0,0
805,477,0,0,0,0,0,0,0,0,0,-1,2029,547,0,0
812,477,0,0,0,0,0,0,0,0,0,-1,2036,547,0,0
-700,470,0,0,0,0,0,0,0,0,0,-1,524,554,0,0
-693,470,0,0,0,0,0,0,0,0,0,-1,531,554,0,0
-686,470,0,0,0,0,0,0,0,0,0,-1,538,554,0,0
-679,470,0,0,0,0,0,0,0,0,0,-1,545,554,0,0
-672,470,0,0,0,0,0,0,0,0,0,-1,552,554,0,0
-665,470,0,0,0,0,0,0,0,0,0,-1,559,554,0,0
-658,470,0,0,0,0,0,0,0,0,0,-1,566,554,0,0
-651,470,0,0,0,0,0,0,0,0,0,-1,573,554,0,0
-644,470,0,0,0,0,0,0,0,0,0,-1,580,554,0,0
-637,470,0,0,0,0,0,0,0,0,0,-1,587,554,0,0
-630,470,0,0,0,0,0,0,0,0,0,-1,594,554,0,0
-623,470,0,0,0,0,0,0,0,0,0,-1,601,554,0,0
-616,470,0,0,0,0,0,0,0,0,0,-1,608,554,0,0
-609,470,0,0,0,0,0,0,0,0,0,-1,615,554,0,0
-602,470,0,0,0,0,0,0,0,0,0,-1,622,554,0,0
-595,470,0,0,0,0,0,0,0,0,0,-1,629,554,0,0
-588,470,0,0,0,0,0,0,0,0,0,-1,636,554,0,0
-581,470,0,0,0,0,0,0,0,0,0,-1,643,554,0,0
-574,470,0,0,0,0,0,0,0,0,0,-1,650,554,0,0
-567,470,0,0,0,0,0,0,0,0,0,-1,657,554,0,0
-560,470,0,0,0,0,0,0,0,0,0,-1,664,554,0,0
-553,470,0,0,0,0,0,0,0,0,0,-1,671,554,0,0
-546,470,0,0,0,0,0,0,0,0,0,-1,678,554,0,0
-539,470,0,0,0,0,0,0,0,0,0,-1,685,554,0,0
-532,470,0,0,0,0,0,0,0,0,0,-1,692,554,0,0
-525,470,0,0,0,0,0,0,0,0,0,-1,699,554,0,0
-518,470,0,0,0,0,0,0,0,0,0,-1,706,554,0,0
-511,470,0,0,0,0,0,0,0,0,0,-1,713,554,0,0
-504,470,0,0,0,0,0,0,0,0,0,-1,720,554,0,0
-497,470,0,0,0,0,0,0,0,0,0,-1,727,554,0,0
-490,470,-9.13263,-1.03125,0,0,0,0,0,0,0,-1,734,554,-9.1326,1.03127
-483,470,-7.68677,-1.03955,0,0,0,0,0,0,0,-1,741,554,-7.68678,1.03958
-476,470,-6.17969,-1.03394,0,0,0,0,0,0,0,-1,748,554,-6.17971,1.03395
-469,470,-6.23016,-0.651855,0,0,0,0,0,0,0,-1,755,554,-6.23014,0.651829
-462,470,-4.87915,-1.03705,0,0,0,0,0,0,0,-1,762,554,-4.87914,1.03702
-455,470,-4.14777,-1.37079,0,0,0,0,0,0,0,-1,769,554,-4.14779,1.37078
-448,470,-2.9314,-5.74518,0,0,0,0,0,0,0,-1,776,554,-2.93137,5.74518
-441,470,-8.03943,-19.0135,0,0,0,0,0,0,0,-1,783,554,-8.03942,19.0135
-434,470,-45.1323,-70.0407,0,0,0,0,0,0,0,-1,790,554,-45.1323,70.0407
-427,470,-70.7473,-75.0596,0,0,0,0,0,0,0,-1,797,554,-70.7472,75.0596
-420,470,-72.2145,-79.7328,0.0399919,0.0186039,0.0375279,0.0683197,-0.00972393,0.646597,0.0491097,0.0481511,804,554,-72.2145,79.7328
-413,470,-73.6606,-84.3989,0.0403822,0.0149117,0.0398989,0.0695291,-0.0142352,0.630915,0.0517545,0.0214729,811,554,-73.6606,84.3989
-406,470,-74.9843,-88.8993,0.0408511,0.0120546,0.0425187,0.0713433,-0.0184375,0.622141,0.0547528,0.0340461,818,554,-74.9843,88.8993
-399,470,-75.7404,-93.4302,0,0,0,0,0,0,0,-1,825,554,-75.7404,93.4302
-392,470,-77.0351,-98.0721,0.0423518,0.00836232,0.04829,0.0765503,-0.0258362,0.616202,0.0614825,0.0273835,832,554,-77.0351,98.0721
-385,470,-78.3171,-102.693,0.0438089,0.00754662,0.051349,0.0801338,-0.0287782,0.615683,0.0651689,0.0183708,839,554,-78.3171,102.693
-378,470,-79.5275,-107.157,0.0457836,0.00692711,0.0545806,0.0842907,-0.0315799,0.614413,0.0691668,0.0239148,846,554,-79.5275,107.157
-371,470,-80.7401,-111.517,0.0481553,0.00641388,0.0576696,0.0886146,-0.0340454,0.611779,0.0731165,0.0210062,853,554,-80.74,111.517
-364,470,-81.7854,-115.934,0.0511609,0.00608323,0.0609873,0.0936409,-0.0363967,0.608399,0.0774641,0.0208073,860,554,-81.7854,115.934
-357,470,-82.8126,-120.308,0.0546065,0.00569087,0.0647212,0.099337,-0.0390396,0.604745,0.0823812,0.026687,867,554,-82.8125,120.308
-350,470,-83.9286,-124.617,0.0587735,0.00446443,0.0680368,0.104874,-0.0416365,0.595526,0.0871751,0.0385724,874,554,-83.9286,124.617
-343,470,-84.3295,-129.514,0,0,0,0,0,0,0,-1,881,554,-84.3295,129.514
-336,470,-14.7072,-46.67,0,0,0,0,0,0,0,-1,888,554,-14.7072,46.67
-329,470,-2.78516,-12.3594,0,0,0,0,0,0,0,-1,895,554,-2.78517,12.3594
-322,470,-2.30829,-11.4527,0,0,0,0,0,0,0,-1,902,554,-2.30827,11.4527
-315,470,-1.04797,-8.29529,0,0,0,0,0,0,0,-1,909,554,-1.04797,8.29526
-308,470,-1.39368,-6.68152,0,0,0,0,0,0,0,-1,916,554,-1.39369,6.68149
-301,470,-0.0340576,3.34888,0,0,0,0,0,0,0,-1,923,554,-0.0340496,-3.3489
-294,470,-1.18378,3.22266,0,0,0,0,0,0,0,-1,930,554,-1.18376,-3.22268
-287,470,-2.15454,3.2204,0,0,0,0,0,0,0,-1,937,554,-2.15452,-3.22037
-280,470,-3.00537,3.099,0,0,0,0,0,0,0,-1,944,554,-3.00536,-3.09898
-273,470,-12.3932,3.65009,0,0,0,0,0,0,0,-1,951,554,-12.3932,-3.65011
-266,470,-11.5706,1.16028,0,0,0,0,0,0,0,-1,958,554,-11.5706,-1.16031
-259,470,-7.50415,-2.77167,0,0,0,0,0,0,0,-1,965,554,-7.50413,2.7717
-252,470,-0.371155,-5.87823,0,0,0,0,0,0,0,-1,972,554,-0.37114,5.87821
-245,470,1.33221,-6.81122,0,0,0,0,0,0,0,-1,979,554,1.33223,6.8112
-238,470,0,0,0,0,0,0,0,0,0,-1,986,554,0,0
-231,470,0,0,0,0,0,0,0,0,0,-1,993,554,0,0
-224,470,0,0,0,0,0,0,0,0,0,-1,1000,554,0,0
-217,470,0,0,0,0,0,0,0,0,0,-1,1007,554,0,0
-210,470,0,0,0,0,0,0,0,0,0,-1,1014,554,0,0
-203,470,0,0,0,0,0,0,0,0,0,-1,1021,554,0,0
-196,470,0,0,0,0,0,0,0,0,0,-1,1028,554,0,0
-189,470,0,0,0,0,0,0,0,0,0,-1,1035,554,0,0
-182,470,0,0,0,0,0,0,0,0,0,-1,1042,554,0,0
-175,470,0,0,0,0,0,0,0,0,0,-1,1049,554,0,0
-168,470,0,0,0,0,0,0,0,0,0,-1,1056,554,0,0
-161,470,0,0,0,0,0,0,0,0,0,-1,1063,554,0,0
-154,470,0,0,0,0,0,0,0,0,0,-1,1070,554,0,0
-147,470,0,0,0,0,0,0,0,0,0,-1,1077,554,0,0
-140,470,0,0,0,0,0,0,0,0,0,-1,1084,554,0,0
-133,470,0,0,0,0,0,0,0,0,0,-1,1091,554,0,0
-126,470,0,0,0,0,0,0,0,0,0,-1,1098,554,0,0
-119,470,0,0,0,0,0,0,0,0,0,-1,1105,554,0,0
-112,470,0,0,0,0,0,0,0,0,0,-1,1112,554,0,0
-105,470,0,0,0,0,0,0,0,0,0,-1,1119,554,0,0
-98,470,0,0,0,0,0,0,0,0,0,-1,1126,554,0,0
-91,470,0,0,0,0,0,0,0,0,0,-1,1133,554,0,0
-84,470,0,0,0,0,0,0,0,0,0,-1,1140,554,0,0
-77,470,0,0,0,0,0,0,0,0,0,-1,1147,554,0,0
-70,470,0,0,0,0,0,0,0,0,0,-1,1154,554,0,0
-63,470,0,0,0,0,0,0,0,0,0,-1,1161,554,0,0
-56,470,0,0,0,0,0,0,0,0,0,-1,1168,554,0,0
-49,470,0,0,0,0,0,0,0,0,0,-1,1175,554,0,0
-42,470,0,0,0,0,0,0,0,0,0,-1,1182,554,0,0
-35,470,0,0,0,0,0,0,0,0,0,-1,1189,554,0,0
-28,470,0,0,0,0,0,0,0,0,0,-1,1196,554,0,0
-21,470,0,0,0,0,0,0,0,0,0,-1,1203,554,0,0
-14,470,0,0,0,0,0,0,0,0,0,-1,1210,554,0,0
-7,470,0,0,0,0,0,0,0,0,0,-1,1217,554,0,0
0,470,0,0,0,0,0,0,0,0,0,-1,1224,554,0,0
7,470,0,0,0,0,0,0,0,0,0,-1,1231,554,0,0
14,470,0,0,0,0,0,0,0,0,0,-1,1238,554,0,0
21,470,0,0,0,0,0,0,0,0,0,-1,1245,554,0,0
28,470,0,0,0,0,0,0,0,0,0,-1,1252,554,0,0
35,470,0,0,0,0,0,0,0,0,0,-1,1259,554,0,0
42,470,0,0,0,0,0,0,0,0,0,-1,1266,554,0,0
49,470,0,0,0,0,0,0,0,0,0,-1,1273,554,0,0
56,470,0,0,0,0,0,0,0,0,0,-1,1280,554,0,0
63,470,0,0,0,0,0,0,0,0,0,-1,1287,554,0,0
70,470,0,0,0,0,0,0,0,0,0,-1,1294,554,0,0
77,470,0,0,0,0,0,0,0,0,0,-1,1301,554,0,0
84,470,0,0,0,0,0,0,0,0,0,-1,1308,554,0,0
91,470,0,0,0,0,0,0,0,0,0,-1,1315,554,0,0
98,470,0,0,0,0,0,0,0,0,0,-1,1322,554,0,0
105,470,0,0,0,0,0,0,0,0,0,-1,1329,554,0,0
112,470,0,0,0,0,0,0,0,0,0,-1,1336,554,0,0
119,470,0,0,0,0,0,0,0,0,0,-1,1343,554,0,0
126,470,0,0,0,0,0,0,0,0,0,-1,1350,554,0,0
133,470,0,0,0,0,0,0,0,0,0,-1,1357,554,0,0
140,470,0,0,0,0,0,0,0,0,0,-1,1364,554,0,0
147,470,0,0,0,0,0,0,0,0,0,-1,1371,554,0,0
154,470,0,0,0,0,0,0,0,0,0,-1,1378,554,0,0
161,470,0,0,0,0,0,0,0,0,0,-1,1385,554,0,0
168,470,0,0,0,0,0,0,0,0,0,-1,1392,554,0,0
175,470,0,0,0,0,0,0,0,0,0,-1,1399,554,0,0
182,470,0,0,0,0,0,0,0,0,0,-1,1406,554,0,0
189,470,0,0,0,0,0,0,0,0,0,-1,1413,554,0,0
196,470,0,0,0,0,0,0,0,0,0,-1,1420,554,0,0
203,470,0,0,0,0,0,0,0,0,0,-1,1427,554,0,0
210,470,0,0,0,0,0,0,0,0,0,-1,1434,554,0,0
217,470,0,0,0,0,0,0,0,0,0,-1,1441,554,0,0
224,470,0,0,0,0,0,0,0,0,0,-1,1448,554,0,0
231,470,0,0,0,0,0,0,0,0,0,-1,1455,554,0,0
238,470,0,0,0,0,0,0,0,0,0,-1,1462,554,0,0
245,470,0,0,0,0,0,0,0,0,0,-1,1469,554,0,0
252,470,0,0,0,0,0,0,0,0,0,-1,1476,554,0,0
259,470,0,0,0,0,0,0,0,0,0,-1,1483,554,0,0
266,470,0,0,0,0,0,0,0,0,0,-1,1490,554,0,0
273,470,0,0,0,0,0,0,0,0,0,-1,1497,554,0,0
280,470,0,0,0,0,0,0,0,0,0,-1,1504,554,0,0
287,470,0,0,0,0,0,0,0,0,0,-1,1511,554,0,0
294,470,0,0,0,0,0,0,0,0,0,-1,1518,554,0,0
301,470,0,0,0,0,0,0,0,0,0,-1,1525,554,0,0
308,470,0,0,0,0,0,0,0,0,0,-1,1532,554,0,0
315,470,0,0,0,0,0,0,0,0,0,-1,1539,554,0,0
322,470,0,0,0,0,0,0,0,0,0,-1,1546,554,0,0
329,470,0,0,0,0,0,0,0,0,0,-1,1553,554,0,0
336,470,0,0,0,0,0,0,0,0,0,-1,1560,554,0,0
343,470,0,0,0,0,0,0,0,0,0,-1,1567,554,0,0
350,470,0,0,0,0,0,0,0,0,0,-1,1574,554,0,0
357,470,0,0,0,0,0,0,0,0,0,-1,1581,554,0,0
364,470,1.33423,0.293335,0,0,0,0,0,0,0,-1,1588,554,1.33422,-0.293348
371,470,2.22498,-0.0305176,0,0,0,0,0,0,0,-1,1595,554,2.22494,0.0305046
378,470,6.27051,0.710083,0,0,0,0,0,0,0,-1,1602,554,6.27054,-0.710093
385,470,10.3657,1.47296,0,0,0,0,0,0,0,-1,1609,554,10.3657,-1.47299
392,470,15.3881,3.01935,0,0,0,0,0,0,0,-1,1616,554,15.388,-3.01937
399,470,18.4479,2.93793,0,0,0,0,0,0,0,-1,1623,554,18.4479,-2.93792
406,470,15.1896,1.36676,0,0,0,0,0,0,0,-1,1630,554,15.1896,-1.36679
413,470,6.55383,1.99207,0,0,0,0,0,0,0,-1,1637,554,6.5538,-1.99208
420,470,4.47095,0.845703,0,0,0,0,0,0,0,-1,1644,554,4.47098,-0.845718
427,470,3.51038,1.19684,0,0,0,0,0,0,0,-1,1651,554,3.51039,-1.19684
434,470,3.31775,-1.37427,0,0,0,0,0,0,0,-1,1658,554,3.31781,1.37426
441,470,2.55457,-2.05902,0,0,0,0,0,0,0,-1,1665,554,2.55461,2.05904
448,470,3.27258,-2.64032,0,0,0,0,0,0,0,-1,1672,554,3.27257,2.64029
455,470,10.3658,-9.82233,0,0,0,0,0,0,0,-1,1679,554,10.3659,9.82233
462,470,11.0651,-11.9958,0,0,0,0,0,0,0,-1,1686,554,11.0651,11.9958
469,470,15.4242,-19.0521,0,0,0,0,0,0,0,-1,1693,554,15.4242,19.0521
476,470,87.6804,-125.185,0,0,0,0,0,0,0,-1,1700,554,87.6804,125.185
483,470,95.8477,-121.244,0,0,0,0,0,0,0,-1,1707,554,95.8477,121.244
490,470,94.0785,-117.108,0.040053,0.00748314,-0.0701506,0.095784,-0.0482479,-0.671347,0.0846531,0.0355069,1714,554,94.0785,117.108
497,470,92.5433,-112.649,0.0425234,0.00747822,-0.0650707,0.0923895,-0.0423879,-0.653875,0.0795788,0.0345548,1721,554,92.5434,112.649
504,470,91.6106,-108.319,0.044834,0.00755812,-0.0604362,0.0894409,-0.0370487,-0.63583,0.075088,0.0300921,1728,554,91.6106,108.319
511,470,90.4697,-103.907,0.0472753,0.0081153,-0.05658,0.0875674,-0.0321768,-0.618818,0.0715574,0.0323554,1735,554,90.4697,103.907
518,470,89.1531,-99.3707,0,0,0,0,0,0,0,-1,1742,554,89.1531,99.3707
525,470,88.2357,-94.9923,0.0518141,0.0108244,-0.0517146,0.086947,-0.0243085,-0.596739,0.0675417,0.0320485,1749,554,88.2357,94.9923
532,470,87.0845,-90.5448,0.05376,0.0131282,-0.05056,0.087933,-0.0210449,-0.594362,0.0667521,0.0319788,1756,554,87.0845,90.5448
539,470,86.0438,-86.1607,0.0554394,0.0156621,-0.0501256,0.0894779,-0.0183763,-0.596536,0.0666275,0.0356567,1763,554,86.0439,86.1607
546,470,84.9287,-81.8463,0.056033,0.0186168,-0.0509166,0.0915697,-0.0169199,-0.609341,0.0673981,0.0292836,1770,554,84.9287,81.8462
553,470,83.6837,-77.4968,0,0,0,0,0,0,0,-1,1777,554,83.6837,77.4968
560,470,47.7207,-71.8304,0,0,0,0,0,0,0,-1,1784,554,47.7207,71.8304
567,470,30.5542,-27.1653,0,0,0,0,0,0,0,-1,1791,554,30.5542,27.1653
574,470,30.1276,-24.6316,0,0,0,0,0,0,0,-1,1798,554,30.1275,24.6316
581,470,8.24646,-4.06317,0,0,0,0,0,0,0,-1,1805,554,8.24648,4.06318
588,470,11.1803,1.74927,0,0,0,0,0,0,0,-1,1812,554,11.1803,-1.74926
595,470,4.72192,3.44116,0,0,0,0,0,0,0,-1,1819,554,4.72191,-3.44116
602,470,14.4307,2.76141,0,0,0,0,0,0,0,-1,1826,554,14.4306,-2.76139
609,470,20.9181,4.41058,0,0,0,0,0,0,0,-1,1833,554,20.9181,-4.4106
616,470,0,0,0,0,0,0,0,0,0,-1,1840,554,0,0
623,470,0,0,0,0,0,0,0,0,0,-1,1847,554,0,0
630,470,0,0,0,0,0,0,0,0,0,-1,1854,554,0,0
637,470,0,0,0,0,0,0,0,0,0,-1,1861,554,0,0
644,470,0,0,0,0,0,0,0,0,0,-1,1868,554,0,0
651,470,0,0,0,0,0,0,0,0,0,-1,1875,554,0,0
658,470,0,0,0,0,0,0,0,0,0,-1,1882,554,0,0
665,470,0,0,0,0,0,0,0,0,0,-1,1889,554,0,0
672,470,0,0,0,0,0,0,0,0,0,-1,1896,554,0,0
679,470,0,0,0,0,0,0,0,0,0,-1,1903,554,0,0
686,470,0,0,0,0,0,0,0,0,0,-1,1910,554,0,0
693,470,0,0,0,0,0,0,0,0,0,-1,1917,554,0,0
700,470,0,0,0,0,0,0,0,0,0,-1,1924,554,0,0
707,470,0,0,0,0,0,0,0,0,0,-1,1931,554,0,0
714,470,0,0,0,0,0,0,0,0,0,-1,1938,554,0,0
721,470,0,0,0,0,0,0,0,0,0,-1,1945,554,0,0
728,470,0,0,0,0,0,0,0,0,0,-1,1952,554,0,0
735,470,0,0,0,0,0,0,0,0,0,-1,1959,554,0,0
742,470,0,0,0,0,0,0,0,0,0,-1,1966,554,0,0
749,470,0,0,0,0,0,0,0,0,0,-1,1973,554,0,0
756,470,0,0,0,0,0,0,0,0,0,-1,1980,554,0,0
763,470,0,0,0,0,0,0,0,0,0,-1,1987,554,0,0
770,470,0,0,0,0,0,0,0,0,0,-1,1994,554,0,0
777,470,0,0,0,0,0,0,0,0,0,-1,2001,554,0,0
784,470,0,0,0,0,0,0,0,0,0,-1,2008,554,0,0
791,470,0,0,0,0,0,0,0,0,0,-1,2015,554,0,0
798,470,0,0,0,0,0,0,0,0,0,-1,2022,554,0,0
805,470,0,0,0,0,0,0,0,0,0,-1,2029,554,0,0
812,470,0,0,0,0,0,0,0,0,0,-1,2036,554,0,0
-700,463,0,0,0,0,0,0,0,0,0,-1,524,561,0,0
-693,463,0,0,0,0,0,0,0,0,0,-1,531,561,0,0
-686,463,0,0,0,0,0,0,0,0,0,-1,538,561,0,0
-679,463,0,0,0,0,0,0,0,0,0,-1,545,561,0,0
-672,463,0,0,0,0,0,0,0,0,0,-1,552,561,0,0
-665,463,0,0,0,0,0,0,0,0,0,-1,559,561,0,0
-658,463,0,0,0,0,0,0,0,0,0,-1,566,561,0,0
-651,463,0,0,0,0,0,0,0,0,0,-1,573,561,0,0
-644,463,0,0,0,0,0,0,0,0,0,-1,580,561,0,0
-637,463,0,0,0,0,0,0,0,0,0,-1,587,561,0,0
-630,463,0,0,0,0,0,0,0,0,0,-1,594,561,0,0
-623,463,0,0,0,0,0,0,0,0,0,-1,601,561,0,0
-616,463,0,0,0,0,0,0,0,0,0,-1,608,561,0,0
-609,463,0,0,0,0,0,0,0,0,0,-1,615,561,0,0
-602,463,0,0,0,0,0,0,0,0,0,-1,622,561,0,0
-595,463,0,0,0,0,0,0,0,0,0,-1,629,561,0,0
-588,463,0,0,0,0,0,0,0,0,0,-1,636,561,0,0
-581,463,0,0,0,0,0,0,0,0,0,-1,643,561,0,0
-574,463,0,0,0,0,0,0,0,0,0,-1,650,561,0,0
-567,463,0,0,0,0,0,0,0,0,0,-1,657,561,0,0
-560,463,0,0,0,0,0,0,0,0,0,-1,664,561,0,0
-553,463,0,0,0,0,0,0,0,0,0,-1,671,561,0,0
-546,463,0,0,0,0,0,0,0,0,0,-1,678,561,0,0
-539,463,0,0,0,0,0,0,0,0,0,-1,685,561,0,0
-532,463,0,0,0,0,0,0,0,0,0,-1,692,561,0,0
-525,463,0,0,0,0,0,0,0,0,0,-1,699,561,0,0
-518,463,0,0,0,0,0,0,0,0,0,-1,706,561,0,0
-511,463,0,0,0,0,0,0,0,0,0,-1,713,561,0,0
-504,463,0,0,0,0,0,0,0,0,0,-1,720,561,0,0
-497,463,-9.81451,-1.67126,0,0,0,0,0,0,0,-1,727,561,-9.81452,1.67127
-490,463,-8.57043,-1.58942,0,0,0,0,0,0,0,-1,734,561,-8.57045,1.58944
-483,463,-7.29224,-1.7226,0,0,0,0,0,0,0,-1,741,561,-7.29226,1.72261
-476,463,-5.77704,-1.7312,0,0,0,0,0,0,0,-1,748,561,-5.77703,1.73121
-469,463,-5.14545,-2.138,0,0,0,0,0,0,0,-1,755,561,-5.14546,2.13799
-462,463,-3.13672,-3.07977,0,0,0,0,0,0,0,-1,762,561,-3.13672,3.07974
-455,463,-2.91406,-5.61798,0,0,0,0,0,0,0,-1,769,561,-2.91406,5.61801
-448,463,-4.00177,-8.54681,0,0,0,0,0,0,0,-1,776,561,-4.00175,8.54683
-441,463,-48.1638,-63.7264,0,0,0,0,0,0,0,-1,783,561,-48.1638,63.7264
-434,463,-74.1791,-68.946,0,0,0,0,0,0,0,-1,790,561,-74.1791,68.946
-427,463,-75.5911,-73.4694,0,0,0,0,0,0,0,-1,797,561,-75.5911,73.4694
-420,463,-77.0826,-78.0449,0.0403388,0.0189397,0.0439568,0.0748795,-0.015601,0.666015,0.0558511,0.017697,804,561,-77.0826,78.0449
-413,463,-78.4949,-82.603,0.0403758,0.0155891,0.0457551,0.0753862,-0.0194213,0.653141,0.0578288,0.0182531,811,561,-78.4949,82.6029
-406,463,-79.7311,-87.1055,0.0404575,0.0129285,0.0479117,0.0765427,-0.0231567,0.645521,0.0602494,0.0303411,818,561,-79.7311,87.1054
-399,463,-80.8245,-91.5495,0.040687,0.0109413,0.0503213,0.0782873,-0.026659,0.64171,0.0629873,0.0333136,825,561,-80.8245,91.5495
-392,463,-81.9316,-96.0771,0.0415817,0.0097194,0.0528983,0.0808958,-0.0295946,0.639135,0.0660439,0.0204594,832,561,-81.9316,96.0771
-385,463,-83.1617,-100.665,0.0427833,0.00912448,0.0557432,0.0841822,-0.0322744,0.638794,0.0694269,0.0195116,839,561,-83.1617,100.665
-378,463,-84.3589,-105.218,0.0445434,0.00880014,0.0588882,0.0882121,-0.0348685,0.638073,0.0732515,0.0205603,846,561,-84.3589,105.218
-371,463,-85.5346,-109.585,0.0468364,0.00874177,0.0620466,0.0926934,-0.0371153,0.636472,0.0772009,0.0305046,853,561,-85.5346,109.585
-364,463,-86.8071,-113.956,0.0498352,0.00898891,0.0654027,0.0979294,-0.0391053,0.634062,0.0815106,0.0487358,860,561,-86.8071,113.956
-357,463,-87.7433,-118.494,0,0,0,0,0,0,0,-1,867,561,-87.7433,118.494
-350,463,-89.1074,-122.834,0,0,0,0,0,0,0,-1,874,561,-89.1074,122.834
-343,463,-21.5904,-55.3489,0,0,0,0,0,0,0,-1,881,561,-21.5904,55.3489
-336,463,-2.94928,-12.2127,0,0,0,0,0,0,0,-1,888,561,-2.94925,12.2127
-329,463,-2.64307,-12.7037,0,0,0,0,0,0,0,-1,895,561,-2.64307,12.7038
-322,463,-1.82898,-9.11957,0,0,0,0,0,0,0,-1,902,561,-1.829,9.11957
-315,463,-0.944763,-5.96234,0,0,0,0,0,0,0,-1,909,561,-0.94479,5.96237
-308,463,-1.1535,-3.17889,0,0,0,0,0,0,0,-1,916,561,-1.15352,3.17889
-301,463,-1.50366,-3.15338,0,0,0,0,0,0,0,-1,923,561,-1.50364,3.15341
-294,463,-2.35889,-3.93463,0,0,0,0,0,0,0,-1,930,561,-2.35886,3.93465
-287,463,-2.80322,2.73999,0,0,0,0,0,0,0,-1,937,561,-2.80322,-2.74
-280,463,-12.864,5.25146,0,0,0,0,0,0,0,-1,944,561,-12.864,-5.25149
-273,463,-12.4598,3.39178,0,0,0,0,0,0,0,-1,951,561,-12.4598,-3.3918
-266,463,-8.78101,-3.7356,0,0,0,0,0,0,0,-1,958,561,-8.78098,3.73562
-259,463,-6.23285,-5.68842,0,0,0,0,0,0,0,-1,965,561,-6.23288,5.68843
-252,463,0,0,0,0,0,0,0,0,0,-1,972,561,0,0
-245,463,0,0,0,0,0,0,0,0,0,-1,979,561,0,0
-238,463,0,0,0,0,0,0,0,0,0,-1,986,561,0,0
-231,463,0,0,0,0,0,0,0,0,0,-1,993,561,0,0
-224,463,0,0,0,0,0,0,0,0,0,-1,1000,561,0,0
-217,463,0,0,0,0,0,0,0,0,0,-1,1007,561,0,0
-210,463,0,0,0,0,0,0,0,0,0,-1,1014,561,0,0
-203,463,0,0,0,0,0,0,0,0,0,-1,1021,561,0,0
-196,463,0,0,0,0,0,0,0,0,0,-1,1028,561,0,0
-189,463,0,0,0,0,0,0,0,0,0,-1,1035,561,0,0
-182,463,0,0,0,0,0,0,0,0,0,-1,1042,561,0,0
-175,463,0,0,0,0,0,0,0,0,0,-1,1049,561,0,0
-168,463,0,0,0,0,0,0,0,0,0,-1,1056,561,0,0
-161,463,0,0,0,0,0,0,0,0,0,-1,1063,561,0,0
-154,463,0,0,0,0,0,0,0,0,0,-1,1070,561,0,0
-147,463,0,0,0,0,0,0,0,0,0,-1,1077,561,0,0
-140,463,0,0,0,0,0,0,0,0,0,-1,1084,561,0,0
-133,463,0,0,0,0,0,0,0,0,0,-1,1091,561,0,0
-126,463,0,0,0,0,0,0,0,0,0,-1,1098,561,0,0
-119,463,0,0,0,0,0,0,0,0,0,-1,1105,561,0,0
-112,463,0,0,0,0,0,0,0,0,0,-1,1112,561,0,0
-105,463,0,0,0,0,0,0,0,0,0,-1,1119,561,0,0
-98,463,0,0,0,0,0,0,0,0,0,-1,1126,561,0,0
-91,463,0,0,0,0,0,0,0,0,0,-1,1133,561,0,0
-84,463,0,0,0,0,0,0,0,0,0,-1,1140,561,0,0
-77,463,0,0,0,0,0,0,0,0,0,-1,1147,561,0,0
-70,463,0,0,0,0,0,0,0,0,0,-1,1154,561,0,0
-63,463,0,0,0,0,0,0,0,0,0,-1,1161,561,0,0
-56,463,0,0,0,0,0,0,0,0,0,-1,1168,561,0,0
-49,463,0,0,0,0,0,0,0,0,0,-1,1175,561,0,0
-42,463,0,0,0,0,0,0,0,0,0,-1,1182,561,0,0
-35,463,0,0,0,0,0,0,0,0,0,-1,1189,561,0,0
-28,463,0,0,0,0,0,0,0,0,0,-1,1196,561,0,0
-21,463,0,0,0,0,0,0,0,0,0,-1,1203,561,0,0
-14,463,0,0,0,0,0,0,0,0,0,-1,1210,561,0,0
-7,463,0,0,0,0,0,0,0,0,0,-1,1217,561,0,0
0,463,0,0,0,0,0,0,0,0,0,-1,1224,561,0,0
7,463,0,0,0,0,0,0,0,0,0,-1,1231,561,0,0
14,463,0,0,0,0,0,0,0,0,0,-1,1238,561,0,0
21,463,0,0,0,0,0,0,0,0,0,-1,1245,561,0,0
28,463,0,0,0,0,0,0,0,0,0,-1,1252,561,0,0
35,463,0,0,0,0,0,0,0,0,0,-1,1259,561,0,0
42,463,0,0,0,0,0,0,0,0,0,-1,1266,561,0,0
49,463,0,0,0,0,0,0,0,0,0,-1,1273,561,0,0
56,463,0,0,0,0,0,0,0,0,0,-1,1280,561,0,0
63,463,0,0,0,0,0,0,0,0,0,-1,1287,561,0,0
70,463,0,0,0,0,0,0,0,0,0,-1,1294,561,0,0
77,463,0,0,0,0,0,0,0,0,0,-1,1301,561,0,0
84,463,0,0,0,0,0,0,0,0,0,-1,1308,561,0,0
91,463,0,0,0,0,0,0,0,0,0,-1,1315,561,0,0
98,463,0,0,0,0,0,0,0,0,0,-1,1322,561,0,0
105,463,0,0,0,0,0,0,0,0,0,-1,1329,561,0,0
112,463,0,0,0,0,0,0,0,0,0,-1,1336,561,0,0
119,463,0,0,0,0,0,0,0,0,0,-1,1343,561,0,0
126,463,0,0,0,0,0,0,0,0,0,-1,1350,561,0,0
133,463,0,0,0,0,0,0,0,0,0,-1,1357,561,0,0
140,463,0,0,0,0,0,0,0,0,0,-1,1364,561,0,0
147,463,0,0,0,0,0,0,0,0,0,-1,1371,561,0,0
154,463,0,0,0,0,0,0,0,0,0,-1,1378,561,0,0
161,463,0,0,0,0,0,0,0,0,0,-1,1385,561,0,0
168,463,0,0,0,0,0,0,0,0,0,-1,1392,561,0,0
175,463,0,0,0,0,0,0,0,0,0,-1,1399,561,0,0
182,463,0,0,0,0,0,0,0,0,0,-1,1406,561,0,0
189,463,0,0,0,0,0,0,0,0,0,-1,1413,561,0,0
196,463,0,0,0,0,0,0,0,0,0,-1,1420,561,0,0
203,463,0,0,0,0,0,0,0,0,0,-1,1427,561,0,0
210,463,0,0,0,0,0,0,0,0,0,-1,1434,561,0,0
217,463,0,0,0,0,0,0,0,0,0,-1,1441,561,0,0
224,463,0,0,0,0,0,0,0,0,0,-1,1448,561,0,0
231,463,0,0,0,0,0,0,0,0,0,-1,1455,561,0,0
238,463,0,0,0,0,0,0,0,0,0,-1,1462,561,0,0
245,463,0,0,0,0,0,0,0,0,0,-1,1469,561,0,0
252,463,0,0,0,0,0,0,0,0,0,-1,1476,561,0,0
259,463,0,0,0,0,0,0,0,0,0,-1,1483,561,0,0
266,463,0,0,0,0,0,0,0,0,0,-1,1490,561,0,0
273,463,0,0,0,0,0,0,0,0,0,-1,1497,561,0,0
280,463,0,0,0,0,0,0,0,0,0,-1,1504,561,0,0
287,463,0,0,0,0,0,0,0,0,0,-1,1511,561,0,0
294,463,0,0,0,0,0,0,0,0,0,-1,1518,561,0,0
301,463,0,0,0,0,0,0,0,0,0,-1,1525,561,0,0
308,463,0,0,0,0,0,0,0,0,0,-1,1532,561,0,0
315,463,0,0,0,0,0,0,0,0,0,-1,1539,561,0,0
322,463,0,0,0,0,0,0,0,0,0,-1,1546,561,0,0
329,463,0,0,0,0,0,0,0,0,0,-1,1553,561,0,0
336,463,0,0,0,0,0,0,0,0,0,-1,1560,561,0,0
343,463,0,0,0,0,0,0,0,0,0,-1,1567,561,0,0
350,463,0,0,0,0,0,0,0,0,0,-1,1574,561,0,0
357,463,0,0,0,0,0,0,0,0,0,-1,1581,561,0,0
364,463,0,0,0,0,0,0,0,0,0,-1,1588,561,0,0
371,463,1.75842,0.152588,0,0,0,0,0,0,0,-1,1595,561,1.75844,-0.152558
378,463,4.58813,-0.0444336,0,0,0,0,0,0,0,-1,1602,561,4.58809,0.0444505
385,463,8.88574,1.65057,0,0,0,0,0,0,0,-1,1609,561,8.88575,-1.65055
392,463,14.0912,2.50513,0,0,0,0,0,0,0,-1,1616,561,14.0912,-2.5051
399,463,21.4769,2.7002,0,0,0,0,0,0,0,-1,1623,561,21.477,-2.70017
406,463,26.2987,4.32318,0,0,0,0,0,0,0,-1,1630,561,26.2987,-4.3232
413,463,26.5011,2.65222,0,0,0,0,0,0,0,-1,1637,561,26.5011,-2.65224
420,463,8.849,2.26611,0,0,0,0,0,0,0,-1,1644,561,8.84899,-2.26613
427,463,5.12207,1.69183,0,0,0,0,0,0,0,-1,1651,561,5.12206,-1.69184
434,463,4.59814,1.81995,0,0,0,0,0,0,0,-1,1658,561,4.59812,-1.81994
441,463,1.76392,-5.99225,0,0,0,0,0,0,0,-1,1665,561,1.7639,5.99225
448,463,2.49939,-4.30536,0,0,0,0,0,0,0,-1,1672,561,2.49941,4.30536
455,463,4.40295,-3.02557,0,0,0,0,0,0,0,-1,1679,561,4.40299,3.02558
462,463,5.38293,-4.06445,0,0,0,0,0,0,0,-1,1686,561,5.38289,4.06444
469,463,5.94373,-4.50647,0,0,0,0,0,0,0,-1,1693,561,5.94368,4.50646
476,463,15.2559,-17.3189,0,0,0,0,0,0,0,-1,1700,561,15.2558,17.3189
483,463,101.537,-118.692,0,0,0,0,0,0,0,-1,1707,561,101.537,118.692
490,463,99.5076,-114.602,0.0305465,0.00707557,-0.0746313,0.0943593,-0.0567373,-0.707414,0.0881324,0.0463581,1714,561,99.5076,114.602
497,463,97.5598,-110.532,0.0348897,0.00715551,-0.0688651,0.09127,-0.0492248,-0.686044,0.0823166,0.0399186,1721,561,97.5598,110.532
504,463,96.3799,-106.358,0.0384597,0.00716953,-0.0637071,0.0884147,-0.0427854,-0.664992,0.0772603,0.027555,1728,561,96.3798,106.358
511,463,95.2407,-102.023,0.0417975,0.00761272,-0.0593904,0.0865061,-0.037096,-0.645286,0.0732377,0.0289526,1735,561,95.2408,102.023
518,463,94.105,-97.4553,0.0448719,0.00868668,-0.0562855,0.0859012,-0.0323426,-0.629892,0.0705638,0.0380875,1742,561,94.105,97.4553
525,463,92.8628,-93.139,0.0474927,0.0101857,-0.0541477,0.0861099,-0.0284315,-0.619518,0.0688686,0.0383564,1749,561,92.8628,93.139
532,463,92.0055,-88.6708,0.049685,0.0122708,-0.0529224,0.0871093,-0.0251535,-0.615511,0.0680256,0.0369771,1756,561,92.0055,88.6708
539,463,90.9117,-84.2311,0.0514315,0.0145404,-0.0524528,0.0885875,-0.0226157,-0.616322,0.0678648,0.0404435,1763,561,90.9118,84.2311
546,463,89.7695,-80.0902,0.0523218,0.016878,-0.0528073,0.0903016,-0.0211018,-0.623506,0.0683299,0.0288937,1770,561,89.7695,80.0902
553,463,88.4731,-75.6935,0.0529968,0.0192406,-0.0538754,0.092576,-0.0203386,-0.6336,0.0694961,0.0175351,1777,561,88.4732,75.6935
560,463,87.0825,-71.1851,0,0,0,0,0,0,0,-1,1784,561,87.0825,71.185
567,463,77.4862,-66.1777,0,0,0,0,0,0,0,-1,1791,561,77.4863,66.1777
574,463,32.9689,-27.5378,0,0,0,0,0,0,0,-1,1798,561,32.9689,27.5379
581,463,9.4939,-3.88245,0,0,0,0,0,0,0,-1,1805,561,9.49392,3.88245
588,463,1.97424,2.16016,0,0,0,0,0,0,0,-1,1812,561,1.97422,-2.16013
595,463,9.98657,2.99854,0,0,0,0,0,0,0,-1,1819,561,9.98662,-2.99856
602,463,17.2202,4.91302,0,0,0,0,0,0,0,-1,1826,561,17.2202,-4.91305
609,463,17.96,4.03131,0,0,0,0,0,0,0,-1,1833,561,17.96,-4.03132
616,463,20.8352,3.15131,0,0,0,0,0,0,0,-1,1840,561,20.8352,-3.1513
623,463,0,0,0,0,0,0,0,0,0,-1,1847,561,0,0
630,463,0,0,0,0,0,0,0,0,0,-1,1854,561,0,0
637,463,0,0,0,0,0,0,0,0,0,-1,1861,561,0,0
644,463,0,0,0,0,0,0,0,0,0,-1,1868,561,0,0
651,463,0,0,0,0,0,0,0,0,0,-1,1875,561,0,0
658,463,0,0,0,0,0,0,0,0,0,-1,1882,561,0,0
665,463,0,0,0,0,0,0,0,0,0,-1,1889,561,0,0
672,463,0,0,0,0,0,0,0,0,0,-1,1896,561,0,0
679,463,0,0,0,0,0,0,0,0,0,-1,1903,561,0,0
686,463,0,0,0,0,0,0,0,0,0,-1,1910,561,0,0
693,463,0,0,0,0,0,0,0,0,0,-1,1917,561,0,0
700,463,0,0,0,0,0,0,0,0,0,-1,1924,561,0,0
707,463,0,0,0,0,0,0,0,0,0,-1,1931,561,0,0
714,463,0,0,0,0,0,0,0,0,0,-1,1938,561,0,0
721,463,0,0,0,0,0,0,0,0,0,-1,1945,561,0,0
728,463,0,0,0,0,0,0,0,0,0,-1,1952,561,0,0
735,463,0,0,0,0,0,0,0,0,0,-1,1959,561,0,0
742,463,0,0,0,0,0,0,0,0,0,-1,1966,561,0,0
749,463,0,0,0,0,0,0,0,0,0,-1,1973,561,0,0
756,463,0,0,0,0,0,0,0,0,0,-1,1980,561,0,0
763,463,0,0,0,0,0,0,0,0,0,-1,1987,561,0,0
770,463,0,0,0,0,0,0,0,0,0,-1,1994,561,0,0
777,463,0,0,0,0,0,0,0,0,0,-1,2001,561,0,0
784,463,0,0,0,0,0,0,0,0,0,-1,2008,561,0,0
791,463,0,0,0,0,0,0,0,0,0,-1,2015,561,0,0
798,463,0,0,0,0,0,0,0,0,0,-1,2022,561,0,0
805,463,0,0,0,0,0,0,0,0,0,-1,2029,561,0,0
812,463,0,0,0,0,0,0,0,0,0,-1,2036,561,0,0
-700,456,0,0,0,0,0,0,0,0,0,-1,524,568,0,0
-693,456,0,0,0,0,0,0,0,0,0,-1,531,568,0,0
-686,456,0,0,0,0,0,0,0,0,0,-1,538,568,0,0
-679,456,0,0,0,0,0,0,0,0,0,-1,545,568,0,0
-672,456,0,0,0,0,0,0,0,0,0,-1,552,568,0,0
-665,456,0,0,0,0,0,0,0,0,0,-1,559,568,0,0
-658,456,0,0,0,0,0,0,0,0,0,-1,566,568,0,0
-651,456,0,0,0,0,0,0,0,0,0,-1,573,568,0,0
-644,456,0,0,0,0,0,0,0,0,0,-1,580,568,0,0
-637,456,0,0,0,0,0,0,0,0,0,-1,587,568,0,0
-630,456,0,0,0,0,0,0,0,0,0,-1,594,568,0,0
-623,456,0,0,0,0,0,0,0,0,0,-1,601,568,0,0
-616,456,0,0,0,0,0,0,0,0,0,-1,608,568,0,0
-609,456,0,0,0,0,0,0,0,0,0,-1,615,568,0,0
-602,456,0,0,0,0,0,0,0,0,0,-1,622,568,0,0
-595,456,0,0,0,0,0,0,0,0,0,-1,629,568,0,0
-588,456,0,0,0,0,0,0,0,0,0,-1,636,568,0,0
-581,456,0,0,0,0,0,0,0,0,0,-1,643,568,0,0
-574,456,0,0,0,0,0,0,0,0,0,-1,650,568,0,0
-567,456,0,0,0,0,0,0,0,0,0,-1,657,568,0,0
-560,456,0,0,0,0,0,0,0,0,0,-1,664,568,0,0
-553,456,0,0,0,0,0,0,0,0,0,-1,671,568,0,0
-546,456,0,0,0,0,0,0,0,0,0,-1,678,568,0,0
-539,456,0,0,0,0,0,0,0,0,0,-1,685,568,0,0
-532,456,0,0,0,0,0,0,0,0,0,-1,692,568,0,0
-525,456,0,0,0,0,0,0,0,0,0,-1,699,568,0,0
-518,456,0,0,0,0,0,0,0,0,0,-1,706,568,0,0
-511,456,0,0,0,0,0,0,0,0,0,-1,713,568,0,0
-504,456,-10.3994,-2.34839,0,0,0,0,0,0,0,-1,720,568,-10.3994,2.3484
-497,456,-9.21375,-2.38068,0,0,0,0,0,0,0,-1,727,568,-9.21372,2.38069
-490,456,-8.09058,-2.31824,0,0,0,0,0,0,0,-1,734,568,-8.09057,2.31821
-483,456,-6.66119,-2.24329,0,0,0,0,0,0,0,-1,741,568,-6.66121,2.24331
-476,456,-5.1499,-2.21185,0,0,0,0,0,0,0,-1,748,568,-5.14992,2.21184
-469,456,-2.81238,-3.51501,0,0,0,0,0,0,0,-1,755,568,-2.81237,3.51501
-462,456,-4.2431,-5.27478,0,0,0,0,0,0,0,-1,762,568,-4.24312,5.27476
-455,456,-5.98364,-8.72119,0,0,0,0,0,0,0,-1,769,568,-5.98364,8.72122
-448,456,-10.723,-19.1761,0,0,0,0,0,0,0,-1,776,568,-10.723,19.1761
-441,456,-75.1968,-61.7155,0,0,0,0,0,0,0,-1,783,568,-75.1968,61.7155
-434,456,-79.8723,-67.0038,0,0,0,0,0,0,0,-1,790,568,-79.8723,67.0039
-427,456,-80.9092,-71.825,0.0398908,0.0234209,0.0478033,0.0801633,-0.0168516,0.700102,0.0598554,0.0317693,797,568,-80.9092,71.825
-420,456,-82.0344,-76.269,0.0398317,0.0194926,0.0486873,0.0794002,-0.0200759,0.682441,0.0607416,0.0164584,804,568,-82.0344,76.269
-413,456,-83.4286,-80.782,0.0394973,0.016434,0.0501534,0.0794277,-0.0234964,0.672399,0.0622793,0.0261605,811,568,-83.4286,80.782
-406,456,-84.6902,-85.2356,0.0392387,0.0140395,0.0520448,0.0801873,-0.0269091,0.666637,0.064332,0.030255,818,568,-84.6902,85.2356
-399,456,-85.7379,-89.5366,0.0391776,0.0124381,0.0542797,0.0817099,-0.0300942,0.664646,0.0668037,0.0266047,825,568,-85.7379,89.5366
-392,456,-86.7796,-94.0522,0.0398216,0.01152,0.0566186,0.084031,-0.0326894,0.662941,0.0695277,0.0181102,832,568,-86.7796,94.0522
-385,456,-87.9968,-98.6271,0.0406276,0.0112237,0.0593602,0.0870794,-0.0352282,0.664004,0.0726988,0.0176268,839,568,-87.9968,98.6272
-378,456,-89.4018,-103.292,0.0419464,0.0113207,0.0625331,0.0910143,-0.0377471,0.665323,0.0764314,0.0271721,846,568,-89.4018,103.292
-371,456,-90.9094,-107.567,0.0438689,0.0119411,0.0659913,0.0957997,-0.0399897,0.666724,0.0805751,0.0473249,853,568,-90.9094,107.567
-364,456,-92.0324,-111.637,0,0,0,0,0,0,0,-1,860,568,-92.0324,111.637
-357,456,-53.2725,-110.042,0,0,0,0,0,0,0,-1,867,568,-53.2725,110.042
-350,456,-24.6786,-56.8698,0,0,0,0,0,0,0,-1,874,568,-24.6786,56.8698
-343,456,-3.39081,-12.0217,0,0,0,0,0,0,0,-1,881,568,-3.39078,12.0217
-336,456,-3.04517,-12.4623,0,0,0,0,0,0,0,-1,888,568,-3.04519,12.4624
-329,456,-1.06183,-10.7184,0,0,0,0,0,0,0,-1,895,568,-1.06184,10.7184
-322,456,-0.662537,-7.66632,0,0,0,0,0,0,0,-1,902,568,-0.662564,7.66633
-315,456,-0.675476,-3.38397,0,0,0,0,0,0,0,-1,909,568,-0.675473,3.38399
-308,456,-1.1618,-3.15314,0,0,0,0,0,0,0,-1,916,568,-1.16178,3.15314
-301,456,-1.83551,-3.26447,0,0,0,0,0,0,0,-1,923,568,-1.8355,3.26449
-294,456,-2.93414,-3.35449,0,0,0,0,0,0,0,-1,930,568,-2.93413,3.35451
-287,456,-3.7569,-3.53101,0,0,0,0,0,0,0,-1,937,568,-3.75692,3.53101
-280,456,-13.072,4.52856,0,0,0,0,0,0,0,-1,944,568,-13.072,-4.52855
-273,456,-8.26538,-6.66748,0,0,0,0,0,0,0,-1,951,568,-8.26536,6.66745
-266,456,-5.71527,-9.36884,0,0,0,0,0,0,0,-1,958,568,-5.71529,9.36885
-259,456,0,0,0,0,0,0,0,0,0,-1,965,568,0,0
-252,456,0,0,0,0,0,0,0,0,0,-1,972,568,0,0
-245,456,0,0,0,0,0,0,0,0,0,-1,979,568,0,0
-238,456,0,0,0,0,0,0,0,0,0,-1,986,568,0,0
-231,456,0,0,0,0,0,0,0,0,0,-1,993,568,0,0
-224,456,0,0,0,0,0,0,0,0,0,-1,1000,568,0,0
-217,456,0,0,0,0,0,0,0,0,0,-1,1007,568,0,0
-210,456,0,0,0,0,0,0,0,0,0,-1,1014,568,0,0
-203,456,0,0,0,0,0,0,0,0,0,-1,1021,568,0,0
-196,456,0,0,0,0,0,0,0,0,0,-1,1028,568,0,0
-189,456,0,0,0,0,0,0,0,0,0,-1,1035,568,0,0
-182,456,0,0,0,0,0,0,0,0,0,-1,1042,568,0,0
-175,456,0,0,0,0,0,0,0,0,0,-1,1049,568,0,0
-168,456,0,0,0,0,0,0,0,0,0,-1,1056,568,0,0
-161,456,0,0,0,0,0,0,0,0,0,-1,1063,568,0,0
-154,456,0,0,0,0,0,0,0,0,0,-1,1070,568,0,0
-147,456,0,0,0,0,0,0,0,0,0,-1,1077,568,0,0
-140,456,0,0,0,0,0,0,0,0,0,-1,1084,568,0,0
-133,456,0,0,0,0,0,0,0,0,0,-1,1091,568,0,0
-126,456,0,0,0,0,0,0,0,0,0,-1,1098,568,0,0
-119,456,0,0,0,0,0,0,0,0,0,-1,1105,568,0,0
-112,456,0,0,0,0,0,0,0,0,0,-1,1112,568,0,0
-105,456,0,0,0,0,0,0,0,0,0,-1,1119,568,0,0
-98,456,0,0,0,0,0,0,0,0,0,-1,1126,568,0,0
-91,456,0,0,0,0,0,0,0,0,0,-1,1133,568,0,0
-84,456,0,0,0,0,0,0,0,0,0,-1,1140,568,0,0
-77,456,0,0,0,0,0,0,0,0,0,-1,1147,568,0,0
-70,456,0,0,0,0,0,0,0,0,0,-1,1154,568,0,0
-63,456,0,0,0,0,0,0,0,0,0,-1,1161,568,0,0
-56,456,0,0,0,0,0,0,0,0,0,-1,1168,568,0,0
-49,456,0,0,0,0,0,0,0,0,0,-1,1175,568,0,0
-42,456,0,0,0,0,0,0,0,0,0,-1,1182,568,0,0
-35,456,0,0,0,0,0,0,0,0,0,-1,1189,568,0,0
-28,456,0,0,0,0,0,0,0,0,0,-1,1196,568,0,0
-21,456,0,0,0,0,0,0,0,0,0,-1,1203,568,0,0
-14,456,0,0,0,0,0,0,0,0,0,-1,1210,568,0,0
-7,456,0,0,0,0,0,0,0,0,0,-1,1217,568,0,0
0,456,0,0,0,0,0,0,0,0,0,-1,1224,568,0,0
7,456,0,0,0,0,0,0,0,0,0,-1,1231,568,0,0
14,456,0,0,0,0,0,0,0,0,0,-1,1238,568,0,0
21,456,0,0,0,0,0,0,0,0,0,-1,1245,568,0,0
28,456,0,0,0,0,0,0,0,0,0,-1,1252,568,0,0
35,456,0,0,0,0,0,0,0,0,0,-1,1259,568,0,0
42,456,0,0,0,0,0,0,0,0,0,-1,1266,568,0,0
49,456,0,0,0,0,0,0,0,0,0,-1,1273,568,0,0
56,456,0,0,0,0,0,0,0,0,0,-1,1280,568,0,0
63,456,0,0,0,0,0,0,0,0,0,-1,1287,568,0,0
70,456,0,0,0,0,0,0,0,0,0,-1,1294,568,0,0
77,456,0,0,0,0,0,0,0,0,0,-1,1301,568,0,0
84,456,0,0,0,0,0,0,0,0,0,-1,1308,568,0,0
91,456,0,0,0,0,0,0,0,0,0,-1,1315,568,0,0
98,456,0,0,0,0,0,0,0,0,0,-1,1322,568,0,0
105,456,0,0,0,0,0,0,0,0,0,-1,1329,568,0,0
112,456,0,0,0,0,0,0,0,0,0,-1,1336,568,0,0
119,456,0,0,0,0,0,0,0,0,0,-1,1343,568,0,0
126,456,0,0,0,0,0,0,0,0,0,-1,1350,568,0,0
133,456,0,0,0,0,0,0,0,0,0,-1,1357,568,0,0
140,456,0,0,0,0,0,0,0,0,0,-1,1364,568,0,0
147,456,0,0,0,0,0,0,0,0,0,-1,1371,568,0,0
154,456,0,0,0,0,0,0,0,0,0,-1,1378,568,0,0
161,456,0,0,0,0,0,0,0,0,0,-1,1385,568,0,0
168,456,0,0,0,0,0,0,0,0,0,-1,1392,568,0,0
175,456,0,0,0,0,0,0,0,0,0,-1,1399,568,0,0
182,456,0,0,0,0,0,0,0,0,0,-1,1406,568,0,0
189,456,0,0,0,0,0,0,0,0,0,-1,1413,568,0,0
196,456,0,0,0,0,0,0,0,0,0,-1,1420,568,0,0
203,456,0,0,0,0,0,0,0,0,0,-1,1427,568,0,0
210,456,0,0,0,0,0,0,0,0,0,-1,1434,568,0,0
217,456,0,0,0,0,0,0,0,0,0,-1,1441,568,0,0
224,456,0,0,0,0,0,0,0,0,0,-1,1448,568,0,0
231,456,0,0,0,0,0,0,0,0,0,-1,1455,568,0,0
238,456,0,0,0,0,0,0,0,0,0,-1,1462,568,0,0
245,456,0,0,0,0,0,0,0,0,0,-1,1469,568,0,0
252,456,0,0,0,0,0,0,0,0,0,-1,1476,568,0,0
259,456,0,0,0,0,0,0,0,0,0,-1,1483,568,0,0
266,456,0,0,0,0,0,0,0,0,0,-1,1490,568,0,0
273,456,0,0,0,0,0,0,0,0,0,-1,1497,568,0,0
280,456,0,0,0,0,0,0,0,0,0,-1,1504,568,0,0
287,456,0,0,0,0,0,0,0,0,0,-1,1511,568,0,0
294,456,0,0,0,0,0,0,0,0,0,-1,1518,568,0,0
301,456,0,0,0,0,0,0,0,0,0,-1,1525,568,0,0
308,456,0,0,0,0,0,0,0,0,0,-1,1532,568,0,0
315,456,0,0,0,0,0,0,0,0,0,-1,1539,568,0,0
322,456,0,0,0,0,0,0,0,0,0,-1,1546,568,0,0
329,456,0,0,0,0,0,0,0,0,0,-1,1553,568,0,0
336,456,0,0,0,0,0,0,0,0,0,-1,1560,568,0,0
343,456,0,0,0,0,0,0,0,0,0,-1,1567,568,0,0
350,456,0,0,0,0,0,0,0,0,0,-1,1574,568,0,0
357,456,0,0,0,0,0,0,0,0,0,-1,1581,568,0,0
364,456,0,0,0,0,0,0,0,0,0,-1,1588,568,0,0
371,456,0,0,0,0,0,0,0,0,0,-1,1595,568,0,0
378,456,0,0,0,0,0,0,0,0,0,-1,1602,568,0,0
385,456,5.66284,0.660645,0,0,0,0,0,0,0,-1,1609,568,5.66285,-0.660615
392,456,17.5027,4.32971,0,0,0,0,0,0,0,-1,1616,568,17.5026,-4.32971
399,456,24.1917,5.99652,0,0,0,0,0,0,0,-1,1623,568,24.1916,-5.99651
406,456,24.446,4.53003,0,0,0,0,0,0,0,-1,1630,568,24.446,-4.53005
413,456,24.9418,2.90521,0,0,0,0,0,0,0,-1,1637,568,24.9418,-2.90524
420,456,25.3048,1.04712,0,0,0,0,0,0,0,-1,1644,568,25.3048,-1.04713
427,456,6.21375,2.02905,0,0,0,0,0,0,0,-1,1651,568,6.21372,-2.02904
434,456,3.0719,-4.86285,0,0,0,0,0,0,0,-1,1658,568,3.07184,4.86287
441,456,2.90344,-4.70459,0,0,0,0,0,0,0,-1,1665,568,2.90346,4.7046
448,456,3.06995,-4.93689,0,0,0,0,0,0,0,-1,1672,568,3.06991,4.93687
455,456,3.46582,-3.43701,0,0,0,0,0,0,0,-1,1679,568,3.46585,3.43698
462,456,4.68445,-4.45831,0,0,0,0,0,0,0,-1,1686,568,4.68439,4.45833
469,456,4.93201,-2.289,0,0,0,0,0,0,0,-1,1693,568,4.93197,2.28903
476,456,4.8363,-2.79364,0,0,0,0,0,0,0,-1,1700,568,4.83636,2.79363
483,456,12.8522,-13.692,0,0,0,0,0,0,0,-1,1707,568,12.8522,13.6919
490,456,104.947,-112.309,0,0,0,0,0,0,0,-1,1714,568,104.947,112.309
497,456,102.666,-108.567,0,0,0,0,0,0,0,-1,1721,568,102.665,108.567
504,456,101.215,-104.404,0.0306168,0.00742896,-0.0659062,0.0859412,-0.0478953,-0.698331,0.0783043,0.0283428,1728,568,101.215,104.404
511,456,100.088,-100.109,0.0352155,0.00769447,-0.061187,0.0841703,-0.0412603,-0.674792,0.0738164,0.0199738,1735,568,100.088,100.109
518,456,98.9178,-95.6903,0.0392468,0.00879056,-0.057922,0.0839091,-0.0358717,-0.656853,0.070985,0.0223118,1742,568,98.9179,95.6903
525,456,97.7599,-91.2991,0.0425507,0.0101927,-0.055677,0.0843518,-0.0316084,-0.643999,0.0692196,0.0261017,1749,568,97.7599,91.2992
532,456,96.6597,-86.8117,0.0451493,0.0120478,-0.0543665,0.0854285,-0.0282314,-0.63764,0.0683352,0.0363221,1756,568,96.6597,86.8117
539,456,95.7183,-82.3372,0,0,0,0,0,0,0,-1,1763,568,95.7182,82.3372
546,456,94.5713,-78.383,0,0,0,0,0,0,0,-1,1770,568,94.5713,78.383
553,456,93.2921,-74.0085,0.0493986,0.0184201,-0.0545,0.0905677,-0.022749,-0.646946,0.069219,0.0291531,1777,568,93.2921,74.0086
560,456,92.3893,-69.7263,0.0504788,0.0204596,-0.0555696,0.0930302,-0.0220918,-0.653493,0.0705467,0.0254642,1784,568,92.3893,69.7263
567,456,91.6931,-65.4519,0,0,0,0,0,0,0,-1,1791,568,91.6931,65.4519
574,456,81.4016,-60.7692,0,0,0,0,0,0,0,-1,1798,568,81.4016,60.7692
581,456,16.2228,-9.08563,0,0,0,0,0,0,0,-1,1805,568,16.2228,9.08562
588,456,5.23901,-0.0901489,0,0,0,0,0,0,0,-1,1812,568,5.23906,0.0901656
595,456,6.90063,3.14886,0,0,0,0,0,0,0,-1,1819,568,6.90066,-3.14887
602,456,16.894,4.10938,0,0,0,0,0,0,0,-1,1826,568,16.8941,-4.1094
609,456,14.9966,3.5708,0,0,0,0,0,0,0,-1,1833,568,14.9966,-3.57083
616,456,17.7407,2.6579,0,0,0,0,0,0,0,-1,1840,568,17.7408,-2.6579
623,456,20.6838,1.7121,0,0,0,0,0,0,0,-1,1847,568,20.6838,-1.71208
630,456,0,0,0,0,0,0,0,0,0,-1,1854,568,0,0
637,456,0,0,0,0,0,0,0,0,0,-1,1861,568,0,0
644,456,0,0,0,0,0,0,0,0,0,-1,1868,568,0,0
651,456,0,0,0,0,0,0,0,0,0,-1,1875,568,0,0
658,456,0,0,0,0,0,0,0,0,0,-1,1882,568,0,0
665,456,0,0,0,0,0,0,0,0,0,-1,1889,568,0,0
672,456,0,0,0,0,0,0,0,0,0,-1,1896,568,0,0
679,456,0,0,0,0,0,0,0,0,0,-1,1903,568,0,0
686,456,0,0,0,0,0,0,0,0,0,-1,1910,568,0,0
693,456,0,0,0,0,0,0,0,0,0,-1,1917,568,0,0
700,456,0,0,0,0,0,0,0,0,0,-1,1924,568,0,0
707,456,0,0,0,0,0,0,0,0,0,-1,1931,568,0,0
714,456,0,0,0,0,0,0,0,0,0,-1,1938,568,0,0
721,456,0,0,0,0,0,0,0,0,0,-1,1945,568,0,0
728,456,0,0,0,0,0,0,0,0,0,-1,1952,568,0,0
735,456,0,0,0,0,0,0,0,0,0,-1,1959,568,0,0
742,456,0,0,0,0,0,0,0,0,0,-1,1966,568,0,0
749,456,0,0,0,0,0,0,0,0,0,-1,1973,568,0,0
756,456,0,0,0,0,0,0,0,0,0,-1,1980,568,0,0
763,456,0,0,0,0,0,0,0,0,0,-1,1987,568,0,0
770,456,0,0,0,0,0,0,0,0,0,-1,1994,568,0,0
777,456,0,0,0,0,0,0,0,0,0,-1,2001,568,0,0
784,456,0,0,0,0,0,0,0,0,0,-1,2008,568,0,0
791,456,0,0,0,0,0,0,0,0,0,-1,2015,568,0,0
798,456,0,0,0,0,0,0,0,0,0,-1,2022,568,0,0
805,456,0,0,0,0,0,0,0,0,0,-1,2029,568,0,0
812,456,0,0,0,0,0,0,0,0,0,-1,2036,568,0,0
-700,449,0,0,0,0,0,0,0,0,0,-1,524,575,0,0
-693,449,0,0,0,0,0,0,0,0,0,-1,531,575,0,0
-686,449,0,0,0,0,0,0,0,0,0,-1,538,575,0,0
-679,449,0,0,0,0,0,0,0,0,0,-1,545,575,0,0
-672,449,0,0,0,0,0,0,0,0,0,-1,552,575,0,0
-665,449,0,0,0,0,0,0,0,0,0,-1,559,575,0,0
-658,449,0,0,0,0,0,0,0,0,0,-1,566,575,0,0
-651,449,0,0,0,0,0,0,0,0,0,-1,573,575,0,0
-644,449,0,0,0,0,0,0,0,0,0,-1,580,575,0,0
-637,449,0,0,0,0,0,0,0,0,0,-1,587,575,0,0
-630,449,0,0,0,0,0,0,0,0,0,-1,594,575,0,0
-623,449,0,0,0,0,0,0,0,0,0,-1,601,575,0,0
-616,449,0,0,0,0,0,0,0,0,0,-1,608,575,0,0
-609,449,0,0,0,0,0,0,0,0,0,-1,615,575,0,0
-602,449,0,0,0,0,0,0,0,0,0,-1,622,575,0,0
-595,449,0,0,0,0,0,0,0,0,0,-1,629,575,0,0
-588,449,0,0,0,0,0,0,0,0,0,-1,636,575,0,0
-581,449,0,0,0,0,0,0,0,0,0,-1,643,575,0,0
-574,449,0,0,0,0,0,0,0,0,0,-1,650,575,0,0
-567,449,0,0,0,0,0,0,0,0,0,-1,657,575,0,0
-560,449,0,0,0,0,0,0,0,0,0,-1,664,575,0,0
-553,449,0,0,0,0,0,0,0,0,0,-1,671,575,0,0
-546,449,0,0,0,0,0,0,0,0,0,-1,678,575,0,0
-539,449,0,0,0,0,0,0,0,0,0,-1,685,575,0,0
-532,449,0,0,0,0,0,0,0,0,0,-1,692,575,0,0
-525,449,0,0,0,0,0,0,0,0,0,-1,699,575,0,0
-518,449,0,0,0,0,0,0,0,0,0,-1,706,575,0,0
-511,449,-0.941345,-4.4519,0,0,0,0,0,0,0,-1,713,575,-0.941356,4.45191
-504,449,-14.1078,0.318237,0,0,0,0,0,0,0,-1,720,575,-14.1078,-0.318231
-497,449,-8.61292,-3.09009,0,0,0,0,0,0,0,-1,727,575,-8.61291,3.09011
-490,449,-7.50995,-2.96252,0,0,0,0,0,0,0,-1,734,575,-7.50995,2.96251
-483,449,-5.77789,-2.50061,0,0,0,0,0,0,0,-1,741,575,-5.77792,2.50059
-476,449,-4.1723,-2.07739,0,0,0,0,0,0,0,-1,748,575,-4.17228,2.0774
-469,449,-5.0976,-5.78448,0,0,0,0,0,0,0,-1,755,575,-5.09758,5.78451
-462,449,-6.54181,-9.54535,0,0,0,0,0,0,0,-1,762,575,-6.54178,9.54536
-455,449,-18.7641,-24.19,0,0,0,0,0,0,0,-1,769,575,-18.7641,24.19
-448,449,-83.4142,-57.0966,0,0,0,0,0,0,0,-1,776,575,-83.4142,57.0966
-441,449,-84.3681,-60.9035,0,0,0,0,0,0,0,-1,783,575,-84.3681,60.9035
-434,449,-85.1603,-65.4501,0,0,0,0,0,0,0,-1,790,575,-85.1602,65.4501
-427,449,-86.0611,-70.0388,0.0387903,0.0235759,0.0514817,0.0832238,-0.0208575,0.712046,0.0635858,0.0385556,797,575,-86.0611,70.0388
-420,449,-87.0898,-74.385,0.0383072,0.0201112,0.0521176,0.082115,-0.0236965,0.698986,0.0641188,0.0225025,804,575,-87.0898,74.385
-413,449,-88.464,-78.8987,0.0376785,0.0173695,0.053294,0.0817768,-0.0267288,0.691258,0.0652777,0.0340278,811,575,-88.464,78.8988
-406,449,-89.4971,-83.2833,0.0371075,0.0153044,0.0549234,0.0822008,-0.0297889,0.687428,0.066976,0.0311865,818,575,-89.4971,83.2833
-399,449,-90.5894,-87.609,0.0367666,0.0141859,0.0569999,0.0835836,-0.0326311,0.687625,0.0692128,0.0197507,825,575,-90.5894,87.609
-392,449,-91.6768,-92.1238,0.0370721,0.0137448,0.0591205,0.0856685,-0.0348516,0.688006,0.0716145,0.0220383,832,575,-91.6767,92.1238
-385,449,-92.885,-96.6414,0.0373888,0.0139075,0.0617022,0.0884575,-0.0371611,0.691383,0.0745143,0.0259881,839,575,-92.885,96.6414
-378,449,-94.4115,-101.412,0.0381066,0.0146754,0.0648371,0.0922781,-0.0394961,0.696016,0.0780877,0.0251809,846,575,-94.4115,101.412
-371,449,-96.2087,-105.425,0,0,0,0,0,0,0,-1,853,575,-96.2087,105.425
-364,449,-54.8773,-103.736,0,0,0,0,0,0,0,-1,860,575,-54.8772,103.736
-357,449,-26.1739,-54.8464,0,0,0,0,0,0,0,-1,867,575,-26.1739,54.8464
-350,449,-2.8764,-9.90204,0,0,0,0,0,0,0,-1,874,575,-2.87638,9.90203
-343,449,-2.98492,-9.2254,0,0,0,0,0,0,0,-1,881,575,-2.98491,9.22541
-336,449,-1.29523,-9.54626,0,0,0,0,0,0,0,-1,888,575,-1.29525,9.54626
-329,449,-0.733398,-7.78937,0,0,0,0,0,0,0,-1,895,575,-0.733398,7.78937
-322,449,-0.628845,-3.16669,0,0,0,0,0,0,0,-1,902,575,-0.628861,3.16667
-315,449,-0.540344,-3.21918,0,0,0,0,0,0,0,-1,909,575,-0.540336,3.21917
-308,449,-1.04413,-2.99341,0,0,0,0,0,0,0,-1,916,575,-1.04415,2.99338
-301,449,-1.58691,-2.80725,0,0,0,0,0,0,0,-1,923,575,-1.58692,2.80728
-294,449,-3.71118,-2.76086,0,0,0,0,0,0,0,-1,930,575,-3.71119,2.76087
-287,449,-4.4082,-2.69525,0,0,0,0,0,0,0,-1,937,575,-4.40822,2.69526
-280,449,0.723999,-14.2697,0,0,0,0,0,0,0,-1,944,575,0.723977,14.2696
-273,449,0,0,0,0,0,0,0,0,0,-1,951,575,0,0
-266,449,0,0,0,0,0,0,0,0,0,-1,958,575,0,0
-259,449,0,0,0,0,0,0,0,0,0,-1,965,575,0,0
-252,449,0,0,0,0,0,0,0,0,0,-1,972,575,0,0
-245,449,0,0,0,0,0,0,0,0,0,-1,979,575,0,0
-238,449,0,0,0,0,0,0,0,0,0,-1,986,575,0,0
-231,449,0,0,0,0,0,0,0,0,0,-1,993,575,0,0
-224,449,0,0,0,0,0,0,0,0,0,-1,1000,575,0,0
-217,449,0,0,0,0,0,0,0,0,0,-1,1007,575,0,0
-210,449,0,0,0,0,0,0,0,0,0,-1,1014,575,0,0
-203,449,0,0,0,0,0,0,0,0,0,-1,1021,575,0,0
-196,449,0,0,0,0,0,0,0,0,0,-1,1028,575,0,0
-189,449,0,0,0,0,0,0,0,0,0,-1,1035,575,0,0
-182,449,0,0,0,0,0,0,0,0,0,-1,1042,575,0,0
-175,449,0,0,0,0,0,0,0,0,0,-1,1049,575,0,0
-168,449,0,0,0,0,0,0,0,0,0,-1,1056,575,0,0
-161,449,0,0,0,0,0,0,0,0,0,-1,1063,575,0,0
-154,449,0,0,0,0,0,0,0,0,0,-1,1070,575,0,0
-147,449,0,0,0,0,0,0,0,0,0,-1,1077,575,0,0
-140,449,0,0,0,0,0,0,0,0,0,-1,1084,575,0,0
-133,449,0,0,0,0,0,0,0,0,0,-1,1091,575,0,0
-126,449,0,0,0,0,0,0,0,0,0,-1,1098,575,0,0
-119,449,0,0,0,0,0,0,0,0,0,-1,1105,575,0,0
-112,449,0,0,0,0,0,0,0,0,0,-1,1112,575,0,0
-105,449,0,0,0,0,0,0,0,0,0,-1,1119,575,0,0
-98,449,0,0,0,0,0,0,0,0,0,-1,1126,575,0,0
-91,449,0,0,0,0,0,0,0,0,0,-1,1133,575,0,0
-84,449,0,0,0,0,0,0,0,0,0,-1,1140,575,0,0
-77,449,0,0,0,0,0,0,0,0,0,-1,1147,575,0,0
-70,449,0,0,0,0,0,0,0,0,0,-1,1154,575,0,0
-63,449,0,0,0,0,0,0,0,0,0,-1,1161,575,0,0
-56,449,0,0,0,0,0,0,0,0,0,-1,1168,575,0,0
-49,449,0,0,0,0,0,0,0,0,0,-1,1175,575,0,0
-42,449,0,0,0,0,0,0,0,0,0,-1,1182,575,0,0
-35,449,0,0,0,0,0,0,0,0,0,-1,1189,575,0,0
-28,449,0,0,0,0,0,0,0,0,0,-1,1196,575,0,0
-21,449,0,0,0,0,0,0,0,0,0,-1,1203,575,0,0
-14,449,0,0,0,0,0,0,0,0,0,-1,1210,575,0,0
-7,449,0,0,0,0,0,0,0,0,0,-1,1217,575,0,0
0,449,0,0,0,0,0,0,0,0,0,-1,1224,575,0,0
7,449,0,0,0,0,0,0,0,0,0,-1,1231,575,0,0
14,449,0,0,0,0,0,0,0,0,0,-1,1238,575,0,0
21,449,0,0,0,0,0,0,0,0,0,-1,1245,575,0,0
28,449,0,0,0,0,0,0,0,0,0,-1,1252,575,0,0
35,449,0,0,0,0,0,0,0,0,0,-1,1259,575,0,0
42,449,0,0,0,0,0,0,0,0,0,-1,1266,575,0,0
49,449,0,0,0,0,0,0,0,0,0,-1,1273,575,0,0
56,449,0,0,0,0,0,0,0,0,0,-1,1280,575,0,0
63,449,0,0,0,0,0,0,0,0,0,-1,1287,575,0,0
70,449,0,0,0,0,0,0,0,0,0,-1,1294,575,0,0
77,449,0,0,0,0,0,0,0,0,0,-1,1301,575,0,0
84,449,0,0,0,0,0,0,0,0,0,-1,1308,575,0,0
91,449,0,0,0,0,0,0,0,0,0,-1,1315,575,0,0
98,449,0,0,0,0,0,0,0,0,0,-1,1322,575,0,0
105,449,0,0,0,0,0,0,0,0,0,-1,1329,575,0,0
112,449,0,0,0,0,0,0,0,0,0,-1,1336,575,0,0
119,449,0,0,0,0,0,0,0,0,0,-1,1343,575,0,0
126,449,0,0,0,0,0,0,0,0,0,-1,1350,575,0,0
133,449,0,0,0,0,0,0,0,0,0,-1,1357,575,0,0
140,449,0,0,0,0,0,0,0,0,0,-1,1364,575,0,0
147,449,0,0,0,0,0,0,0,0,0,-1,1371,575,0,0
154,449,0,0,0,0,0,0,0,0,0,-1,1378,575,0,0
161,449,0,0,0,0,0,0,0,0,0,-1,1385,575,0,0
168,449,0,0,0,0,0,0,0,0,0,-1,1392,575,0,0
175,449,0,0,0,0,0,0,0,0,0,-1,1399,575,0,0
182,449,0,0,0,0,0,0,0,0,0,-1,1406,575,0,0
189,449,0,0,0,0,0,0,0,0,0,-1,1413,575,0,0
196,449,0,0,0,0,0,0,0,0,0,-1,1420,575,0,0
203,449,0,0,0,0,0,0,0,0,0,-1,1427,575,0,0
210,449,0,0,0,0,0,0,0,0,0,-1,1434,575,0,0
217,449,0,0,0,0,0,0,0,0,0,-1,1441,575,0,0
224,449,0,0,0,0,0,0,0,0,0,-1,1448,575,0,0
231,449,0,0,0,0,0,0,0,0,0,-1,1455,575,0,0
238,449,0,0,0,0,0,0,0,0,0,-1,1462,575,0,0
245,449,0,0,0,0,0,0,0,0,0,-1,1469,575,0,0
252,449,0,0,0,0,0,0,0,0,0,-1,1476,575,0,0
259,449,0,0,0,0,0,0,0,0,0,-1,1483,575,0,0
266,449,0,0,0,0,0,0,0,0,0,-1,1490,575,0,0
273,449,0,0,0,0,0,0,0,0,0,-1,1497,575,0,0
280,449,0,0,0,0,0,0,0,0,0,-1,1504,575,0,0
287,449,0,0,0,0,0,0,0,0,0,-1,1511,575,0,0
294,449,0,0,0,0,0,0,0,0,0,-1,1518,575,0,0
301,449,0,0,0,0,0,0,0,0,0,-1,1525,575,0,0
308,449,0,0,0,0,0,0,0,0,0,-1,1532,575,0,0
315,449,0,0,0,0,0,0,0,0,0,-1,1539,575,0,0
322,449,0,0,0,0,0,0,0,0,0,-1,1546,575,0,0
329,449,0,0,0,0,0,0,0,0,0,-1,1553,575,0,0
336,449,0,0,0,0,0,0,0,0,0,-1,1560,575,0,0
343,449,0,0,0,0,0,0,0,0,0,-1,1567,575,0,0
350,449,0,0,0,0,0,0,0,0,0,-1,1574,575,0,0
357,449,0,0,0,0,0,0,0,0,0,-1,1581,575,0,0
364,449,0,0,0,0,0,0,0,0,0,-1,1588,575,0,0
371,449,0,0,0,0,0,0,0,0,0,-1,1595,575,0,0
378,449,0,0,0,0,0,0,0,0,0,-1,1602,575,0,0
385,449,0,0,0,0,0,0,0,0,0,-1,1609,575,0,0
392,449,7.95471,3.66217,0,0,0,0,0,0,0,-1,1616,575,7.95471,-3.66218
399,449,19.9791,5.565,0,0,0,0,0,0,0,-1,1623,575,19.9791,-5.56499
406,449,24.9847,4.55969,0,0,0,0,0,0,0,-1,1630,575,24.9848,-4.55968
413,449,30.4159,3.15027,0,0,0,0,0,0,0,-1,1637,575,30.4159,-3.15028
420,449,23.9675,1.29718,0,0,0,0,0,0,0,-1,1644,575,23.9675,-1.29721
427,449,24.4276,-0.596558,0,0,0,0,0,0,0,-1,1651,575,24.4277,0.596569
434,449,25.61,-2.96594,0,0,0,0,0,0,0,-1,1658,575,25.61,2.96595
441,449,3.89856,-6.06458,0,0,0,0,0,0,0,-1,1665,575,3.89855,6.06459
448,449,4.03198,-5.18207,0,0,0,0,0,0,0,-1,1672,575,4.03197,5.18207
455,449,4.21948,-4.09467,0,0,0,0,0,0,0,-1,1679,575,4.21952,4.09465
462,449,4.23181,-2.96924,0,0,0,0,0,0,0,-1,1686,575,4.23185,2.96926
469,449,4.51672,-2.95135,0,0,0,0,0,0,0,-1,1693,575,4.51672,2.95135
476,449,4.71838,-1.86688,0,0,0,0,0,0,0,-1,1700,575,4.71842,1.86689
483,449,4.87878,-1.73126,0,0,0,0,0,0,0,-1,1707,575,4.87875,1.73128
490,449,5.73279,-2.74573,0,0,0,0,0,0,0,-1,1714,575,5.73282,2.74575
497,449,17.2095,-16.4381,0,0,0,0,0,0,0,-1,1721,575,17.2094,16.4381
504,449,106.036,-102.485,0,0,0,0,0,0,0,-1,1728,575,106.037,102.485
511,449,105.09,-98.3895,0.027909,0.00865205,-0.0615531,0.0805821,-0.0440211,-0.707814,0.0729647,0.0375968,1735,575,105.09,98.3894
518,449,103.771,-93.9128,0.0330781,0.00982941,-0.0582502,0.0808525,-0.037945,-0.686913,0.0700632,0.0258898,1742,575,103.771,93.9128
525,449,102.5,-89.4609,0.0371925,0.0111308,-0.0560154,0.0816727,-0.0333494,-0.671116,0.0683337,0.0274767,1749,575,102.5,89.4609
532,449,101.26,-85.066,0.0402777,0.0126819,-0.0547063,0.0828993,-0.0299398,-0.661866,0.0674971,0.0268684,1756,575,101.26,85.0661
539,449,100.212,-80.8438,0.0425922,0.014517,-0.0541654,0.0845095,-0.0274003,-0.658607,0.0673571,0.0380902,1763,575,100.212,80.8438
546,449,99.1614,-76.7037,0,0,0,0,0,0,0,-1,1770,575,99.1614,76.7036
553,449,98.2781,-72.3935,0.0455784,0.0182691,-0.0544642,0.0880736,-0.0242261,-0.662575,0.0682399,0.0392102,1777,575,98.2781,72.3935
560,449,97.3032,-68.0629,0.0465945,0.0202003,-0.055317,0.0902669,-0.023472,-0.668301,0.0693391,0.0331628,1784,575,97.3032,68.0629
567,449,96.4487,-63.9322,0.047854,0.022367,-0.0561102,0.0926496,-0.0224286,-0.673735,0.070443,0.0223235,1791,575,96.4487,63.9322
574,449,95.3987,-59.8786,0,0,0,0,0,0,0,-1,1798,575,95.3986,59.8786
581,449,40.2885,-30.4276,0,0,0,0,0,0,0,-1,1805,575,40.2884,30.4275
588,449,12.3274,-4.5672,0,0,0,0,0,0,0,-1,1812,575,12.3274,4.5672
595,449,15.9352,-5.65479,0,0,0,0,0,0,0,-1,1819,575,15.9352,5.65478
602,449,9.46167,4.17444,0,0,0,0,0,0,0,-1,1826,575,9.46164,-4.17442
609,449,12.2028,3.18652,0,0,0,0,0,0,0,-1,1833,575,12.2027,-3.18655
616,449,14.9438,2.19867,0,0,0,0,0,0,0,-1,1840,575,14.9438,-2.19867
623,449,9.83789,-0.0820313,0,0,0,0,0,0,0,-1,1847,575,9.83794,0.0820443
630,449,8.90686,4.99329,0,0,0,0,0,0,0,-1,1854,575,8.90685,-4.99327
637,449,0,0,0,0,0,0,0,0,0,-1,1861,575,0,0
644,449,0,0,0,0,0,0,0,0,0,-1,1868,575,0,0
651,449,0,0,0,0,0,0,0,0,0,-1,1875,575,0,0
658,449,0,0,0,0,0,0,0,0,0,-1,1882,575,0,0
665,449,0,0,0,0,0,0,0,0,0,-1,1889,575,0,0
672,449,0,0,0,0,0,0,0,0,0,-1,1896,575,0,0
679,449,0,0,0,0,0,0,0,0,0,-1,1903,575,0,0
686,449,0,0,0,0,0,0,0,0,0,-1,1910,575,0,0
693,449,0,0,0,0,0,0,0,0,0,-1,1917,575,0,0
700,449,0,0,0,0,0,0,0,0,0,-1,1924,575,0,0
707,449,0,0,0,0,0,0,0,0,0,-1,1931,575,0,0
714,449,0,0,0,0,0,0,0,0,0,-1,1938,575,0,0
721,449,0,0,0,0,0,0,0,0,0,-1,1945,575,0,0
728,449,0,0,0,0,0,0,0,0,0,-1,1952,575,0,0
735,449,0,0,0,0,0,0,0,0,0,-1,1959,575,0,0
742,449,0,0,0,0,0,0,0,0,0,-1,1966,575,0,0
749,449,0,0,0,0,0,0,0,0,0,-1,1973,575,0,0
756,449,0,0,0,0,0,0,0,0,0,-1,1980,575,0,0
763,449,0,0,0,0,0,0,0,0,0,-1,1987,575,0,0
770,449,0,0,0,0,0,0,0,0,0,-1,1994,575,0,0
777,449,0,0,0,0,0,0,0,0,0,-1,2001,575,0,0
784,449,0,0,0,0,0,0,0,0,0,-1,2008,575,0,0
791,449,0,0,0,0,0,0,0,0,0,-1,2015,575,0,0
798,449,0,0,0,0,0,0,0,0,0,-1,2022,575,0,0
805,449,0,0,0,0,0,0,0,0,0,-1,2029,575,0,0
812,449,0,0,0,0,0,0,0,0,0,-1,2036,575,0,0
-700,442,0,0,0,0,0,0,0,0,0,-1,524,582,0,0
-693,442,0,0,0,0,0,0,0,0,0,-1,531,582,0,0
-686,442,0,0,0,0,0,0,0,0,0,-1,538,582,0,0
-679,442,0,0,0,0,0,0,0,0,0,-1,545,582,0,0
-672,442,0,0,0,0,0,0,0,0,0,-1,552,582,0,0
-665,442,0,0,0,0,0,0,0,0,0,-1,559,582,0,0
-658,442,0,0,0,0,0,0,0,0,0,-1,566,582,0,0
-651,442,0,0,0,0,0,0,0,0,0,-1,573,582,0,0
-644,442,0,0,0,0,0,0,0,0,0,-1,580,582,0,0
-637,442,0,0,0,0,0,0,0,0,0,-1,587,582,0,0
-630,442,0,0,0,0,0,0,0,0,0,-1,594,582,0,0
-623,442,0,0,0,0,0,0,0,0,0,-1,601,582,0,0
-616,442,0,0,0,0,0,0,0,0,0,-1,608,582,0,0
-609,442,0,0,0,0,0,0,0,0,0,-1,615,582,0,0
-602,442,0,0,0,0,0,0,0,0,0,-1,622,582,0,0
-595,442,0,0,0,0,0,0,0,0,0,-1,629,582,0,0
-588,442,0,0,0,0,0,0,0,0,0,-1,636,582,0,0
-581,442,0,0,0,0,0,0,0,0,0,-1,643,582,0,0
-574,442,0,0,0,0,0,0,0,0,0,-1,650,582,0,0
-567,442,0,0,0,0,0,0,0,0,0,-1,657,582,0,0
-560,442,0,0,0,0,0,0,0,0,0,-1,664,582,0,0
-553,442,0,0,0,0,0,0,0,0,0,-1,671,582,0,0
-546,442,0,0,0,0,0,0,0,0,0,-1,678,582,0,0
-539,442,0,0,0,0,0,0,0,0,0,-1,685,582,0,0
-532,442,0,0,0,0,0,0,0,0,0,-1,692,582,0,0
-525,442,0,0,0,0,0,0,0,0,0,-1,699,582,0,0
-518,442,-0.493774,-5.72943,0,0,0,0,0,0,0,-1,706,582,-0.493791,5.72946
-511,442,-1.33008,-6.18512,0,0,0,0,0,0,0,-1,713,582,-1.33006,6.18511
-504,442,-3.20807,-6.34082,0,0,0,0,0,0,0,-1,720,582,-3.2081,6.34083
-497,442,-13.6886,-0.250122,0,0,0,0,0,0,0,-1,727,582,-13.6886,0.250143
-490,442,-9.09039,-3.64862,0,0,0,0,0,0,0,-1,734,582,-9.09037,3.64861
-483,442,-7.36499,-1.01892,0,0,0,0,0,0,0,-1,741,582,-7.365,1.01895
-476,442,-4.84784,-4.44141,0,0,0,0,0,0,0,-1,748,582,-4.84787,4.44138
-469,442,-13.2483,-15.6807,0,0,0,0,0,0,0,-1,755,582,-13.2483,15.6807
-462,442,-15.0205,-19.2228,0,0,0,0,0,0,0,-1,762,582,-15.0205,19.2229
-455,442,-86.7753,-51.2481,0,0,0,0,0,0,0,-1,769,582,-86.7753,51.2481
-448,442,-88.1269,-55.6755,0.0389838,0.0362016,0.0547188,0.0923292,-0.0171438,0.77269,0.0679917,0.043575,776,582,-88.1269,55.6755
-441,442,-89.3409,-59.8919,0.0384109,0.0314621,0.0538444,0.0888929,-0.0190199,0.753179,0.0665146,0.0269654,783,582,-89.341,59.8919
-434,442,-90.4482,-63.8964,0,0,0,0,0,0,0,-1,790,582,-90.4482,63.8964
-427,442,-91.0534,-68.28,0.0369529,0.0239125,0.0536155,0.0844432,-0.0235778,0.72489,0.0655831,0.0220492,797,582,-91.0534,68.28
-420,442,-92.0724,-72.5311,0.0360754,0.0208428,0.0540506,0.0830436,-0.0261255,0.715404,0.0658224,0.0198431,804,582,-92.0724,72.5311
-413,442,-93.2806,-76.9226,0.0351223,0.0184116,0.0549822,0.0823804,-0.0288465,0.709993,0.0666501,0.0287329,811,582,-93.2806,76.9226
-406,442,-94.3717,-81.3416,0.0341808,0.0167162,0.0563591,0.0824801,-0.0315831,0.708539,0.0680047,0.028451,818,582,-94.3717,81.3416
-399,442,-95.6204,-85.5737,0.0335034,0.016166,0.0582666,0.0837426,-0.0340732,0.711551,0.0700069,0.0243022,825,582,-95.6204,85.5737
-392,442,-97.1541,-89.991,0.0333185,0.016408,0.0601609,0.0856154,-0.0358889,0.715583,0.0720822,0.0412138,832,582,-97.1541,89.991
-385,442,-97.7994,-94.6722,0,0,0,0,0,0,0,-1,839,582,-97.7994,94.6722
-378,442,-99.2203,-99.2669,0,0,0,0,0,0,0,-1,846,582,-99.2203,99.2669
-371,442,-57.6353,-99.1408,0,0,0,0,0,0,0,-1,853,582,-57.6353,99.1408
-364,442,-6.89764,-17.5333,0,0,0,0,0,0,0,-1,860,582,-6.89765,17.5333
-357,442,-4.9115,-11.2649,0,0,0,0,0,0,0,-1,867,582,-4.91147,11.2649
-350,442,-1.75372,-6.27618,0,0,0,0,0,0,0,-1,874,582,-1.75371,6.27618
-343,442,-1.4599,-4.63605,0,0,0,0,0,0,0,-1,881,582,-1.4599,4.63607
-336,442,-1.4054,-2.64313,0,0,0,0,0,0,0,-1,888,582,-1.40539,2.64315
-329,442,-0.952576,-2.76923,0,0,0,0,0,0,0,-1,895,582,-0.952571,2.7692
-322,442,-0.972534,-2.63208,0,0,0,0,0,0,0,-1,902,582,-0.972512,2.6321
-315,442,-0.445557,-2.89764,0,0,0,0,0,0,0,-1,909,582,-0.445582,2.89765
-308,442,-0.654175,-3.07831,0,0,0,0,0,0,0,-1,916,582,-0.654145,3.07832
-301,442,-1.37427,-2.41455,0,0,0,0,0,0,0,-1,923,582,-1.37425,2.41453
-294,442,-2.99963,-2.07855,0,0,0,0,0,0,0,-1,930,582,-2.99964,2.07857
-287,442,3.91034,-10.1913,0,0,0,0,0,0,0,-1,937,582,3.91034,10.1913
-280,442,0,0,0,0,0,0,0,0,0,-1,944,582,0,0
-273,442,0,0,0,0,0,0,0,0,0,-1,951,582,0,0
-266,442,0,0,0,0,0,0,0,0,0,-1,958,582,0,0
-259,442,0,0,0,0,0,0,0,0,0,-1,965,582,0,0
-252,442,0,0,0,0,0,0,0,0,0,-1,972,582,0,0
-245,442,0,0,0,0,0,0,0,0,0,-1,979,582,0,0
-238,442,0,0,0,0,0,0,0,0,0,-1,986,582,0,0
-231,442,0,0,0,0,0,0,0,0,0,-1,993,582,0,0
-224,442,0,0,0,0,0,0,0,0,0,-1,1000,582,0,0
-217,442,0,0,0,0,0,0,0,0,0,-1,1007,582,0,0
-210,442,0,0,0,0,0,0,0,0,0,-1,1014,582,0,0
-203,442,0,0,0,0,0,0,0,0,0,-1,1021,582,0,0
-196,442,0,0,0,0,0,0,0,0,0,-1,1028,582,0,0
-189,442,0,0,0,0,0,0,0,0,0,-1,1035,582,0,0
-182,442,0,0,0,0,0,0,0,0,0,-1,1042,582,0,0
-175,442,0,0,0,0,0,0,0,0,0,-1,1049,582,0,0
-168,442,0,0,0,0,0,0,0,0,0,-1,1056,582,0,0
-161,442,0,0,0,0,0,0,0,0,0,-1,1063,582,0,0
-154,442,0,0,0,0,0,0,0,0,0,-1,1070,582,0,0
-147,442,0,0,0,0,0,0,0,0,0,-1,1077,582,0,0
-140,442,0,0,0,0,0,0,0,0,0,-1,1084,582,0,0
-133,442,0,0,0,0,0,0,0,0,0,-1,1091,582,0,0
-126,442,0,0,0,0,0,0,0,0,0,-1,1098,582,0,0
-119,442,0,0,0,0,0,0,0,0,0,-1,1105,582,0,0
-112,442,0,0,0,0,0,0,0,0,0,-1,1112,582,0,0
-105,442,0,0,0,0,0,0,0,0,0,-1,1119,582,0,0
-98,442,0,0,0,0,0,0,0,0,0,-1,1126,582,0,0
-91,442,0,0,0,0,0,0,0,0,0,-1,1133,582,0,0
-84,442,0,0,0,0,0,0,0,0,0,-1,1140,582,0,0
-77,442,0,0,0,0,0,0,0,0,0,-1,1147,582,0,0
-70,442,0,0,0,0,0,0,0,0,0,-1,1154,582,0,0
-63,442,0,0,0,0,0,0,0,0,0,-1,1161,582,0,0
-56,442,0,0,0,0,0,0,0,0,0,-1,1168,582,0,0
-49,442,0,0,0,0,0,0,0,0,0,-1,1175,582,0,0
-42,442,0,0,0,0,0,0,0,0,0,-1,1182,582,0,0
-35,442,0,0,0,0,0,0,0,0,0,-1,1189,582,0,0
-28,442,0,0,0,0,0,0,0,0,0,-1,1196,582,0,0
-21,442,0,0,0,0,0,0,0,0,0,-1,1203,582,0,0
-14,442,0,0,0,0,0,0,0,0,0,-1,1210,582,0,0
-7,442,0,0,0,0,0,0,0,0,0,-1,1217,582,0,0
0,442,0,0,0,0,0,0,0,0,0,-1,1224,582,0,0
7,442,0,0,0,0,0,0,0,0,0,-1,1231,582,0,0
14,442,0,0,0,0,0,0,0,0,0,-1,1238,582,0,0
21,442,0,0,0,0,0,0,0,0,0,-1,1245,582,0,0
28,442,0,0,0,0,0,0,0,0,0,-1,1252,582,0,0
35,442,0,0,0,0,0,0,0,0,0,-1,1259,582,0,0
42,442,0,0,0,0,0,0,0,0,0,-1,1266,582,0,0
49,442,0,0,0,0,0,0,0,0,0,-1,1273,582,0,0
56,442,0,0,0,0,0,0,0,0,0,-1,1280,582,0,0
63,442,0,0,0,0,0,0,0,0,0,-1,1287,582,0,0
70,442,0,0,0,0,0,0,0,0,0,-1,1294,582,0,0
77,442,0,0,0,0,0,0,0,0,0,-1,1301,582,0,0
84,442,0,0,0,0,0,0,0,0,0,-1,1308,582,0,0
91,442,0,0,0,0,0,0,0,0,0,-1,1315,582,0,0
98,442,0,0,0,0,0,0,0,0,0,-1,1322,582,0,0
105,442,0,0,0,0,0,0,0,0,0,-1,1329,582,0,0
112,442,0,0,0,0,0,0,0,0,0,-1,1336,582,0,0
119,442,0,0,0,0,0,0,0,0,0,-1,1343,582,0,0
126,442,0,0,0,0,0,0,0,0,0,-1,1350,582,0,0
133,442,0,0,0,0,0,0,0,0,0,-1,1357,582,0,0
140,442,0,0,0,0,0,0,0,0,0,-1,1364,582,0,0
147,442,0,0,0,0,0,0,0,0,0,-1,1371,582,0,0
154,442,0,0,0,0,0,0,0,0,0,-1,1378,582,0,0
161,442,0,0,0,0,0,0,0,0,0,-1,1385,582,0,0
168,442,0,0,0,0,0,0,0,0,0,-1,1392,582,0,0
175,442,0,0,0,0,0,0,0,0,0,-1,1399,582,0,0
182,442,0,0,0,0,0,0,0,0,0,-1,1406,582,0,0
189,442,0,0,0,0,0,0,0,0,0,-1,1413,582,0,0
196,442,0,0,0,0,0,0,0,0,0,-1,1420,582,0,0
203,442,0,0,0,0,0,0,0,0,0,-1,1427,582,0,0
210,442,0,0,0,0,0,0,0,0,0,-1,1434,582,0,0
217,442,0,0,0,0,0,0,0,0,0,-1,1441,582,0,0
224,442,0,0,0,0,0,0,0,0,0,-1,1448,582,0,0
231,442,0,0,0,0,0,0,0,0,0,-1,1455,582,0,0
238,442,0,0,0,0,0,0,0,0,0,-1,1462,582,0,0
245,442,0,0,0,0,0,0,0,0,0,-1,1469,582,0,0
252,442,0,0,0,0,0,0,0,0,0,-1,1476,582,0,0
259,442,0,0,0,0,0,0,0,0,0,-1,1483,582,0,0
266,442,0,0,0,0,0,0,0,0,0,-1,1490,582,0,0
273,442,0,0,0,0,0,0,0,0,0,-1,1497,582,0,0
280,442,0,0,0,0,0,0,0,0,0,-1,1504,582,0,0
287,442,0,0,0,0,0,0,0,0,0,-1,1511,582,0,0
294,442,0,0,0,0,0,0,0,0,0,-1,1518,582,0,0
301,442,0,0,0,0,0,0,0,0,0,-1,1525,582,0,0
308,442,0,0,0,0,0,0,0,0,0,-1,1532,582,0,0
315,442,0,0,0,0,0,0,0,0,0,-1,1539,582,0,0
322,442,0,0,0,0,0,0,0,0,0,-1,1546,582,0,0
329,442,0,0,0,0,0,0,0,0,0,-1,1553,582,0,0
336,442,0,0,0,0,0,0,0,0,0,-1,1560,582,0,0
343,442,0,0,0,0,0,0,0,0,0,-1,1567,582,0,0
350,442,0,0,0,0,0,0,0,0,0,-1,1574,582,0,0
357,442,0,0,0,0,0,0,0,0,0,-1,1581,582,0,0
364,442,0,0,0,0,0,0,0,0,0,-1,1588,582,0,0
371,442,0,0,0,0,0,0,0,0,0,-1,1595,582,0,0
378,442,0,0,0,0,0,0,0,0,0,-1,1602,582,0,0
385,442,0,0,0,0,0,0,0,0,0,-1,1609,582,0,0
392,442,0,0,0,0,0,0,0,0,0,-1,1616,582,0,0
399,442,0,0,0,0,0,0,0,0,0,-1,1623,582,0,0
406,442,17.6321,4.08295,0,0,0,0,0,0,0,-1,1630,582,17.6321,-4.08293
413,442,25.4768,2.74445,0,0,0,0,0,0,0,-1,1637,582,25.4768,-2.74444
420,442,22.7478,1.55011,0,0,0,0,0,0,0,-1,1644,582,22.7478,-1.55009
427,442,23.2969,-0.456787,0,0,0,0,0,0,0,-1,1651,582,23.2968,0.456769
434,442,23.9512,-2.49365,0,0,0,0,0,0,0,-1,1658,582,23.9512,2.49366
441,442,24.8251,-4.43958,0,0,0,0,0,0,0,-1,1665,582,24.8251,4.43956
448,442,4.7749,-5.88562,0,0,0,0,0,0,0,-1,1672,582,4.7749,5.8856
455,442,4.87024,-4.60687,0,0,0,0,0,0,0,-1,1679,582,4.87019,4.60686
462,442,5.02307,-3.72821,0,0,0,0,0,0,0,-1,1686,582,5.02311,3.7282
469,442,5.12976,-2.98834,0,0,0,0,0,0,0,-1,1693,582,5.12971,2.98834
476,442,5.4624,1.76947,0,0,0,0,0,0,0,-1,1700,582,5.46234,-1.76944
483,442,5.98486,1.87042,0,0,0,0,0,0,0,-1,1707,582,5.98492,-1.87045
490,442,5.04407,-2.35834,0,0,0,0,0,0,0,-1,1714,582,5.04411,2.35837
497,442,6.20984,-3.07831,0,0,0,0,0,0,0,-1,1721,582,6.2098,3.07833
504,442,20.9276,-19.7709,0,0,0,0,0,0,0,-1,1728,582,20.9276,19.771
511,442,109.968,-96.7753,0,0,0,0,0,0,0,-1,1735,582,109.968,96.7753
518,442,108.491,-92.2139,0,0,0,0,0,0,0,-1,1742,582,108.491,92.2139
525,442,107.394,-87.5562,0.0319579,0.0129014,-0.0552691,0.078514,-0.0336547,-0.700038,0.0664646,0.0419641,1749,582,107.394,87.5562
532,442,105.896,-83.1647,0.0353742,0.0140309,-0.0540131,0.0797598,-0.0303547,-0.687867,0.065673,0.0403002,1756,582,105.896,83.1647
539,442,104.791,-79.0288,0.0379201,0.0155845,-0.0535381,0.0814428,-0.0279382,-0.682575,0.0656212,0.0402385,1763,582,104.791,79.0288
546,442,103.754,-74.7692,0.0402281,0.016971,-0.0532012,0.0830568,-0.0258576,-0.677802,0.0657088,0.046135,1770,582,103.754,74.7692
553,442,102.896,-70.6684,0.0415088,0.0188076,-0.0537837,0.0851266,-0.0248102,-0.681404,0.0665802,0.041615,1777,582,102.896,70.6684
560,442,102.056,-66.6589,0,0,0,0,0,0,0,-1,1784,582,102.056,66.6589
567,442,100.858,-62.3719,0.0436162,0.0222622,-0.0553363,0.0892962,-0.0234178,-0.690096,0.0686806,0.0177684,1791,582,100.858,62.3719
574,442,99.7705,-58.2093,0.0449729,0.0238588,-0.0557602,0.0911666,-0.0223349,-0.691841,0.0694307,0.0235408,1798,582,99.7705,58.2093
581,442,98.6809,-54.0283,0,0,0,0,0,0,0,-1,1805,582,98.6809,54.0283
588,442,35.4717,-22.1596,0,0,0,0,0,0,0,-1,1812,582,35.4717,22.1596
595,442,16.27,-6.47083,0,0,0,0,0,0,0,-1,1819,582,16.27,6.47082
602,442,16.2213,-4.49225,0,0,0,0,0,0,0,-1,1826,582,16.2213,4.49223
609,442,12.761,2.97223,0,0,0,0,0,0,0,-1,1833,582,12.761,-2.97221
616,442,9.78345,-0.103394,0,0,0,0,0,0,0,-1,1840,582,9.78341,0.103424
623,442,9.23828,0.326721,0,0,0,0,0,0,0,-1,1847,582,9.23829,-0.326727
630,442,7.74304,2.3924,0,0,0,0,0,0,0,-1,1854,582,7.7431,-2.39238
637,442,5.87805,1.84027,0,0,0,0,0,0,0,-1,1861,582,5.87807,-1.84025
644,442,0,0,0,0,0,0,0,0,0,-1,1868,582,0,0
651,442,0,0,0,0,0,0,0,0,0,-1,1875,582,0,0
658,442,0,0,0,0,0,0,0,0,0,-1,1882,582,0,0
665,442,0,0,0,0,0,0,0,0,0,-1,1889,582,0,0
672,442,0,0,0,0,0,0,0,0,0,-1,1896,582,0,0
679,442,0,0,0,0,0,0,0,0,0,-1,1903,582,0,0
686,442,0,0,0,0,0,0,0,0,0,-1,1910,582,0,0
693,442,0,0,0,0,0,0,0,0,0,-1,1917,582,0,0
700,442,0,0,0,0,0,0,0,0,0,-1,1924,582,0,0
707,442,0,0,0,0,0,0,0,0,0,-1,1931,582,0,0
714,442,0,0,0,0,0,0,0,0,0,-1,1938,582,0,0
721,442,0,0,0,0,0,0,0,0,0,-1,1945,582,0,0
728,442,0,0,0,0,0,0,0,0,0,-1,1952,582,0,0
735,442,0,0,0,0,0,0,0,0,0,-1,1959,582,0,0
742,442,0,0,0,0,0,0,0,0,0,-1,1966,582,0,0
749,442,0,0,0,0,0,0,0,0,0,-1,1973,582,0,0
756,442,0,0,0,0,0,0,0,0,0,-1,1980,582,0,0
763,442,0,0,0,0,0,0,0,0,0,-1,1987,582,0,0
770,442,0,0,0,0,0,0,0,0,0,-1,1994,582,0,0
777,442,0,0,0,0,0,0,0,0,0,-1,2001,582,0,0
784,442,0,0,0,0,0,0,0,0,0,-1,2008,582,0,0
791,442,0,0,0,0,0,0,0,0,0,-1,2015,582,0,0
798,442,0,0,0,0,0,0,0,0,0,-1,2022,582,0,0
805,442,0,0,0,0,0,0,0,0,0,-1,2029,582,0,0
812,442,0,0,0,0,0,0,0,0,0,-1,2036,582,0,0
-700,435,0,0,0,0,0,0,0,0,0,-1,524,589,0,0
-693,435,0,0,0,0,0,0,0,0,0,-1,531,589,0,0
-686,435,0,0,0,0,0,0,0,0,0,-1,538,589,0,0
-679,435,0,0,0,0,0,0,0,0,0,-1,545,589,0,0
-672,435,0,0,0,0,0,0,0,0,0,-1,552,589,0,0
-665,435,0,0,0,0,0,0,0,0,0,-1,559,589,0,0
-658,435,0,0,0,0,0,0,0,0,0,-1,566,589,0,0
-651,435,0,0,0,0,0,0,0,0,0,-1,573,589,0,0
-644,435,0,0,0,0,0,0,0,0,0,-1,580,589,0,0
-637,435,0,0,0,0,0,0,0,0,0,-1,587,589,0,0
-630,435,0,0,0,0,0,0,0,0,0,-1,594,589,0,0
-623,435,0,0,0,0,0,0,0,0,0,-1,601,589,0,0
-616,435,0,0,0,0,0,0,0,0,0,-1,608,589,0,0
-609,435,0,0,0,0,0,0,0,0,0,-1,615,589,0,0
-602,435,0,0,0,0,0,0,0,0,0,-1,622,589,0,0
-595,435,0,0,0,0,0,0,0,0,0,-1,629,589,0,0
-588,435,0,0,0,0,0,0,0,0,0,-1,636,589,0,0
-581,435,0,0,0,0,0,0,0,0,0,-1,643,589,0,0
-574,435,0,0,0,0,0,0,0,0,0,-1,650,589,0,0
-567,435,0,0,0,0,0,0,0,0,0,-1,657,589,0,0
-560,435,0,0,0,0,0,0,0,0,0,-1,664,589,0,0
-553,435,0,0,0,0,0,0,0,0,0,-1,671,589,0,0
-546,435,0,0,0,0,0,0,0,0,0,-1,678,589,0,0
-539,435,0,0,0,0,0,0,0,0,0,-1,685,589,0,0
-532,435,0,0,0,0,0,0,0,0,0,-1,692,589,0,0
-525,435,-10.0776,10.0547,0,0,0,0,0,0,0,-1,699,589,-10.0776,-10.0547
-518,435,-1.83093,-5.82367,0,0,0,0,0,0,0,-1,706,589,-1.83093,5.8237
-511,435,-2.45154,-5.33118,0,0,0,0,0,0,0,-1,713,589,-2.45151,5.33115
-504,435,-3.07208,-4.83862,0,0,0,0,0,0,0,-1,720,589,-3.0721,4.8386
-497,435,-6.31012,-5.84698,0,0,0,0,0,0,0,-1,727,589,-6.31012,5.84697
-490,435,-5.81903,-0.458679,0,0,0,0,0,0,0,-1,734,589,-5.81902,0.458684
-483,435,-6.96503,-3.01624,0,0,0,0,0,0,0,-1,741,589,-6.96505,3.01623
-476,435,-14.5337,-14.7686,0,0,0,0,0,0,0,-1,748,589,-14.5337,14.7685
-469,435,-19.5134,-19.9833,0,0,0,0,0,0,0,-1,755,589,-19.5134,19.9833
-462,435,-30.1574,-30.2823,0,0,0,0,0,0,0,-1,762,589,-30.1574,30.2823
-455,435,-91.4918,-50.1254,0,0,0,0,0,0,0,-1,769,589,-91.4918,50.1254
-448,435,-92.7204,-54.2119,0.0369497,0.0358323,0.0559155,0.0923093,-0.0195273,0.780403,0.0689762,0.0257041,776,589,-92.7204,54.2119
-441,435,-93.8701,-58.3013,0.0363254,0.031556,0.054983,0.0889754,-0.021094,0.763726,0.0674567,0.0177941,783,589,-93.8701,58.3014
-434,435,-94.7971,-62.369,0.0355517,0.027769,0.0544998,0.0862989,-0.0229781,0.749758,0.0665281,0.0204994,790,589,-94.797,62.369
-427,435,-95.7559,-66.5863,0.0346476,0.0243859,0.0541973,0.0839564,-0.0249229,0.738204,0.0658695,0.0182675,797,589,-95.7558,66.5863
-420,435,-96.8156,-70.7694,0.0334508,0.0216543,0.0544603,0.0823313,-0.0272262,0.731457,0.0658661,0.0163306,804,589,-96.8156,70.7694
-413,435,-97.9473,-75.0481,0.0321491,0.0195105,0.0551959,0.0813863,-0.0297267,0.728402,0.066422,0.0167324,811,589,-97.9473,75.0481
-406,435,-99.238,-79.3504,0.0307075,0.0181376,0.0563862,0.081158,-0.0323129,0.729896,0.0675053,0.0225871,818,589,-99.238,79.3504
-399,435,-100.806,-83.4987,0.0294324,0.0180912,0.0582365,0.0822737,-0.0347502,0.736865,0.069396,0.0372773,825,589,-100.806,83.4986
-392,435,-102.682,-87.4832,0,0,0,0,0,0,0,-1,832,589,-102.682,87.4831
-385,435,-99.7275,-92.8033,0,0,0,0,0,0,0,-1,839,589,-99.7274,92.8033
-378,435,-58.4313,-91.4755,0,0,0,0,0,0,0,-1,846,589,-58.4314,91.4755
-371,435,-10.247,-21.7153,0,0,0,0,0,0,0,-1,853,589,-10.247,21.7153
-364,435,-5.62848,-11.5937,0,0,0,0,0,0,0,-1,860,589,-5.62847,11.5937
-357,435,-5.57343,-10.9666,0,0,0,0,0,0,0,-1,867,589,-5.57342,10.9666
-350,435,-0.86676,-3.69836,0,0,0,0,0,0,0,-1,874,589,-0.866784,3.69834
-343,435,-1.60706,-2.36835,0,0,0,0,0,0,0,-1,881,589,-1.60706,2.36838
-336,435,-2.07263,-1.94012,0,0,0,0,0,0,0,-1,888,589,-2.07265,1.94014
-329,435,-2.55963,-1.5517,0,0,0,0,0,0,0,-1,895,589,-2.5596,1.55168
-322,435,-3.08545,-1.55255,0,0,0,0,0,0,0,-1,902,589,-3.08544,1.55254
-315,435,-0.404297,-2.63763,0,0,0,0,0,0,0,-1,909,589,-0.404276,2.63761
-308,435,-1.70056,-1.90369,0,0,0,0,0,0,0,-1,916,589,-1.70056,1.90367
-301,435,-1.19391,-2.41632,0,0,0,0,0,0,0,-1,923,589,-1.1939,2.41635
-294,435,3.78278,-10.3275,0,0,0,0,0,0,0,-1,930,589,3.78281,10.3275
-287,435,0,0,0,0,0,0,0,0,0,-1,937,589,0,0
-280,435,0,0,0,0,0,0,0,0,0,-1,944,589,0,0
-273,435,0,0,0,0,0,0,0,0,0,-1,951,589,0,0
-266,435,0,0,0,0,0,0,0,0,0,-1,958,589,0,0
-259,435,0,0,0,0,0,0,0,0,0,-1,965,589,0,0
-252,435,0,0,0,0,0,0,0,0,0,-1,972,589,0,0
-245,435,0,0,0,0,0,0,0,0,0,-1,979,589,0,0
-238,435,0,0,0,0,0,0,0,0,0,-1,986,589,0,0
-231,435,0,0,0,0,0,0,0,0,0,-1,993,589,0,0
-224,435,0,0,0,0,0,0,0,0,0,-1,1000,589,0,0
-217,435,0,0,0,0,0,0,0,0,0,-1,1007,589,0,0
-210,435,0,0,0,0,0,0,0,0,0,-1,1014,589,0,0
-203,435,0,0,0,0,0,0,0,0,0,-1,1021,589,0,0
-196,435,0,0,0,0,0,0,0,0,0,-1,1028,589,0,0
-189,435,0,0,0,0,0,0,0,0,0,-1,1035,589,0,0
-182,435,0,0,0,0,0,0,0,0,0,-1,1042,589,0,0
-175,435,0,0,0,0,0,0,0,0,0,-1,1049,589,0,0
-168,435,0,0,0,0,0,0,0,0,0,-1,1056,589,0,0
-161,435,0,0,0,0,0,0,0,0,0,-1,1063,589,0,0
-154,435,0,0,0,0,0,0,0,0,0,-1,1070,589,0,0
-147,435,0,0,0,0,0,0,0,0,0,-1,1077,589,0,0
-140,435,0,0,0,0,0,0,0,0,0,-1,1084,589,0,0
-133,435,0,0,0,0,0,0,0,0,0,-1,1091,589,0,0
-126,435,0,0,0,0,0,0,0,0,0,-1,1098,589,0,0
-119,435,0,0,0,0,0,0,0,0,0,-1,1105,589,0,0
-112,435,0,0,0,0,0,0,0,0,0,-1,1112,589,0,0
-105,435,0,0,0,0,0,0,0,0,0,-1,1119,589,0,0
-98,435,0,0,0,0,0,0,0,0,0,-1,1126,589,0,0
-91,435,0,0,0,0,0,0,0,0,0,-1,1133,589,0,0
-84,435,0,0,0,0,0,0,0,0,0,-1,1140,589,0,0
-77,435,0,0,0,0,0,0,0,0,0,-1,1147,589,0,0
-70,435,0,0,0,0,0,0,0,0,0,-1,1154,589,0,0
-63,435,0,0,0,0,0,0,0,0,0,-1,1161,589,0,0
-56,435,0,0,0,0,0,0,0,0,0,-1,1168,589,0,0
-49,435,0,0,0,0,0,0,0,0,0,-1,1175,589,0,0
-42,435,0,0,0,0,0,0,0,0,0,-1,1182,589,0,0
-35,435,0,0,0,0,0,0,0,0,0,-1,1189,589,0,0
-28,435,0,0,0,0,0,0,0,0,0,-1,1196,589,0,0
-21,435,0,0,0,0,0,0,0,0,0,-1,1203,589,0,0
-14,435,0,0,0,0,0,0,0,0,0,-1,1210,589,0,0
-7,435,0,0,0,0,0,0,0,0,0,-1,1217,589,0,0
0,435,0,0,0,0,0,0,0,0,0,-1,1224,589,0,0
7,435,0,0,0,0,0,0,0,0,0,-1,1231,589,0,0
14,435,0,0,0,0,0,0,0,0,0,-1,1238,589,0,0
21,435,0,0,0,0,0,0,0,0,0,-1,1245,589,0,0
28,435,0,0,0,0,0,0,0,0,0,-1,1252,589,0,0
35,435,0,0,0,0,0,0,0,0,0,-1,1259,589,0,0
42,435,0,0,0,0,0,0,0,0,0,-1,1266,589,0,0
49,435,0,0,0,0,0,0,0,0,0,-1,1273,589,0,0
56,435,0,0,0,0,0,0,0,0,0,-1,1280,589,0,0
63,435,0,0,0,0,0,0,0,0,0,-1,1287,589,0,0
70,435,0,0,0,0,0,0,0,0,0,-1,1294,589,0,0
77,435,0,0,0,0,0,0,0,0,0,-1,1301,589,0,0
84,435,0,0,0,0,0,0,0,0,0,-1,1308,589,0,0
91,435,0,0,0,0,0,0,0,0,0,-1,1315,589,0,0
98,435,0,0,0,0,0,0,0,0,0,-1,1322,589,0,0
105,435,0,0,0,0,0,0,0,0,0,-1,1329,589,0,0
112,435,0,0,0,0,0,0,0,0,0,-1,1336,589,0,0
119,435,0,0,0,0,0,0,0,0,0,-1,1343,589,0,0
126,435,0,0,0,0,0,0,0,0,0,-1,1350,589,0,0
133,435,0,0,0,0,0,0,0,0,0,-1,1357,589,0,0
140,435,0,0,0,0,0,0,0,0,0,-1,1364,589,0,0
147,435,0,0,0,0,0,0,0,0,0,-1,1371,589,0,0
154,435,0,0,0,0,0,0,0,0,0,-1,1378,589,0,0
161,435,0,0,0,0,0,0,0,0,0,-1,1385,589,0,0
168,435,0,0,0,0,0,0,0,0,0,-1,1392,589,0,0
175,435,0,0,0,0,0,0,0,0,0,-1,1399,589,0,0
182,435,0,0,0,0,0,0,0,0,0,-1,1406,589,0,0
189,435,0,0,0,0,0,0,0,0,0,-1,1413,589,0,0
196,435,0,0,0,0,0,0,0,0,0,-1,1420,589,0,0
203,435,0,0,0,0,0,0,0,0,0,-1,1427,589,0,0
210,435,0,0,0,0,0,0,0,0,0,-1,1434,589,0,0
217,435,0,0,0,0,0,0,0,0,0,-1,1441,589,0,0
224,435,0,0,0,0,0,0,0,0,0,-1,1448,589,0,0
231,435,0,0,0,0,0,0,0,0,0,-1,1455,589,0,0
238,435,0,0,0,0,0,0,0,0,0,-1,1462,589,0,0
245,435,0,0,0,0,0,0,0,0,0,-1,1469,589,0,0
252,435,0,0,0,0,0,0,0,0,0,-1,1476,589,0,0
259,435,0,0,0,0,0,0,0,0,0,-1,1483,589,0,0
266,435,0,0,0,0,0,0,0,0,0,-1,1490,589,0,0
273,435,0,0,0,0,0,0,0,0,0,-1,1497,589,0,0
280,435,0,0,0,0,0,0,0,0,0,-1,1504,589,0,0
287,435,0,0,0,0,0,0,0,0,0,-1,1511,589,0,0
294,435,0,0,0,0,0,0,0,0,0,-1,1518,589,0,0
301,435,0,0,0,0,0,0,0,0,0,-1,1525,589,0,0
308,435,0,0,0,0,0,0,0,0,0,-1,1532,589,0,0
315,435,0,0,0,0,0,0,0,0,0,-1,1539,589,0,0
322,435,0,0,0,0,0,0,0,0,0,-1,1546,589,0,0
329,435,0,0,0,0,0,0,0,0,0,-1,1553,589,0,0
336,435,0,0,0,0,0,0,0,0,0,-1,1560,589,0,0
343,435,0,0,0,0,0,0,0,0,0,-1,1567,589,0,0
350,435,0,0,0,0,0,0,0,0,0,-1,1574,589,0,0
357,435,0,0,0,0,0,0,0,0,0,-1,1581,589,0,0
364,435,0,0,0,0,0,0,0,0,0,-1,1588,589,0,0
371,435,0,0,0,0,0,0,0,0,0,-1,1595,589,0,0
378,435,0,0,0,0,0,0,0,0,0,-1,1602,589,0,0
385,435,0,0,0,0,0,0,0,0,0,-1,1609,589,0,0
392,435,0,0,0,0,0,0,0,0,0,-1,1616,589,0,0
399,435,0,0,0,0,0,0,0,0,0,-1,1623,589,0,0
406,435,0,0,0,0,0,0,0,0,0,-1,1630,589,0,0
413,435,20.4565,3.49835,0,0,0,0,0,0,0,-1,1637,589,20.4565,-3.49836
420,435,21.4015,1.49609,0,0,0,0,0,0,0,-1,1644,589,21.4015,-1.49609
427,435,22.0464,-0.373962,0,0,0,0,0,0,0,-1,1651,589,22.0464,0.373972
434,435,22.1863,-1.54407,0,0,0,0,0,0,0,-1,1658,589,22.1862,1.54405
441,435,22.3992,-2.38287,0,0,0,0,0,0,0,-1,1665,589,22.3992,2.38289
448,435,7.4585,-0.00292969,0,0,0,0,0,0,0,-1,1672,589,7.45848,0.00294131
455,435,5.49915,-5.047,0,0,0,0,0,0,0,-1,1679,589,5.49914,5.04703
462,435,5.60669,-4.71466,0,0,0,0,0,0,0,-1,1686,589,5.60675,4.71469
469,435,5.87708,1.22351,0,0,0,0,0,0,0,-1,1693,589,5.87703,-1.22351
476,435,6.14136,1.37714,0,0,0,0,0,0,0,-1,1700,589,6.14138,-1.37712
483,435,6.49243,1.36169,0,0,0,0,0,0,0,-1,1707,589,6.49242,-1.36171
490,435,4.38391,-1.36218,0,0,0,0,0,0,0,-1,1714,589,4.38389,1.3622
497,435,7.23499,-3.64551,0,0,0,0,0,0,0,-1,1721,589,7.23495,3.64551
504,435,7.31189,-3.75909,0,0,0,0,0,0,0,-1,1728,589,7.31184,3.75911
511,435,63.4806,-86.4816,0,0,0,0,0,0,0,-1,1735,589,63.4806,86.4816
518,435,80.7251,-90.1277,0,0,0,0,0,0,0,-1,1742,589,80.7252,90.1278
525,435,112.439,-85.4066,0,0,0,0,0,0,0,-1,1749,589,112.439,85.4066
532,435,110.612,-81.3098,0,0,0,0,0,0,0,-1,1756,589,110.612,81.3098
539,435,109.496,-77.47,0.0332047,0.0171623,-0.0517576,0.0775589,-0.0271919,-0.708521,0.0627651,0.0474596,1763,589,109.496,77.47
546,435,108.395,-73.139,0.0357222,0.0181609,-0.0515414,0.0792255,-0.0253425,-0.701028,0.0629875,0.0382408,1770,589,108.395,73.139
553,435,107.501,-69.0015,0.037127,0.0196497,-0.0522497,0.0813638,-0.024587,-0.702541,0.0640315,0.0231901,1777,589,107.501,69.0015
560,435,106.506,-64.9229,0.0380979,0.0210994,-0.053105,0.0833795,-0.0241822,-0.706048,0.0651604,0.0157205,1784,589,106.506,64.9228
567,435,105.333,-60.7692,0.039105,0.022405,-0.0539824,0.0853794,-0.0238694,-0.708666,0.0663236,0.0172026,1791,589,105.333,60.7692
574,435,104.286,-56.6819,0.0403575,0.0237474,-0.0546469,0.0873268,-0.0232219,-0.709987,0.0673074,0.0187216,1798,589,104.286,56.6819
581,435,103.354,-52.5956,0.041783,0.0249628,-0.0551152,0.0891261,-0.0223803,-0.709686,0.0681143,0.0420575,1805,589,103.354,52.5956
588,435,102.698,-48.5706,0,0,0,0,0,0,0,-1,1812,589,102.698,48.5706
595,435,38.4182,-22.4416,0,0,0,0,0,0,0,-1,1819,589,38.4182,22.4416
602,435,16.8671,-6.39026,0,0,0,0,0,0,0,-1,1826,589,16.867,6.39024
609,435,15.2611,-3.42242,0,0,0,0,0,0,0,-1,1833,589,15.2611,3.42242
616,435,5.05151,-2.75269,0,0,0,0,0,0,0,-1,1840,589,5.05157,2.7527
623,435,11.7588,3.9704,0,0,0,0,0,0,0,-1,1847,589,11.7587,-3.97043
630,435,4.72742,-0.87561,0,0,0,0,0,0,0,-1,1854,589,4.7274,0.875636
637,435,5.05286,1.48792,0,0,0,0,0,0,0,-1,1861,589,5.05291,-1.48792
644,435,0,0,0,0,0,0,0,0,0,-1,1868,589,0,0
651,435,0,0,0,0,0,0,0,0,0,-1,1875,589,0,0
658,435,0,0,0,0,0,0,0,0,0,-1,1882,589,0,0
665,435,0,0,0,0,0,0,0,0,0,-1,1889,589,0,0
672,435,0,0,0,0,0,0,0,0,0,-1,1896,589,0,0
679,435,0,0,0,0,0,0,0,0,0,-1,1903,589,0,0
686,435,0,0,0,0,0,0,0,0,0,-1,1910,589,0,0
693,435,0,0,0,0,0,0,0,0,0,-1,1917,589,0,0
700,435,0,0,0,0,0,0,0,0,0,-1,1924,589,0,0
707,435,0,0,0,0,0,0,0,0,0,-1,1931,589,0,0
714,435,0,0,0,0,0,0,0,0,0,-1,1938,589,0,0
721,435,0,0,0,0,0,0,0,0,0,-1,1945,589,0,0
728,435,0,0,0,0,0,0,0,0,0,-1,1952,589,0,0
735,435,0,0,0,0,0,0,0,0,0,-1,1959,589,0,0
742,435,0,0,0,0,0,0,0,0,0,-1,1966,589,0,0
749,435,0,0,0,0,0,0,0,0,0,-1,1973,589,0,0
756,435,0,0,0,0,0,0,0,0,0,-1,1980,589,0,0
763,435,0,0,0,0,0,0,0,0,0,-1,1987,589,0,0
770,435,0,0,0,0,0,0,0,0,0,-1,1994,589,0,0
777,435,0,0,0,0,0,0,0,0,0,-1,2001,589,0,0
784,435,0,0,0,0,0,0,0,0,0,-1,2008,589,0,0
791,435,0,0,0,0,0,0,0,0,0,-1,2015,589,0,0
798,435,0,0,0,0,0,0,0,0,0,-1,2022,589,0,0
805,435,0,0,0,0,0,0,0,0,0,-1,2029,589,0,0
812,435,0,0,0,0,0,0,0,0,0,-1,2036,589,0,0
-700,428,0,0,0,0,0,0,0,0,0,-1,524,596,0,0
-693,428,0,0,0,0,0,0,0,0,0,-1,531,596,0,0
-686,428,0,0,0,0,0,0,0,0,0,-1,538,596,0,0
-679,428,0,0,0,0,0,0,0,0,0,-1,545,596,0,0
-672,428,0,0,0,0,0,0,0,0,0,-1,552,596,0,0
-665,428,0,0,0,0,0,0,0,0,0,-1,559,596,0,0
-658,428,0,0,0,0,0,0,0,0,0,-1,566,596,0,0
-651,428,0,0,0,0,0,0,0,0,0,-1,573,596,0,0
-644,428,0,0,0,0,0,0,0,0,0,-1,580,596,0,0
-637,428,0,0,0,0,0,0,0,0,0,-1,587,596,0,0
-630,428,0,0,0,0,0,0,0,0,0,-1,594,596,0,0
-623,428,0,0,0,0,0,0,0,0,0,-1,601,596,0,0
-616,428,0,0,0,0,0,0,0,0,0,-1,608,596,0,0
-609,428,0,0,0,0,0,0,0,0,0,-1,615,596,0,0
-602,428,0,0,0,0,0,0,0,0,0,-1,622,596,0,0
-595,428,0,0,0,0,0,0,0,0,0,-1,629,596,0,0
-588,428,0,0,0,0,0,0,0,0,0,-1,636,596,0,0
-581,428,0,0,0,0,0,0,0,0,0,-1,643,596,0,0
-574,428,0,0,0,0,0,0,0,0,0,-1,650,596,0,0
-567,428,0,0,0,0,0,0,0,0,0,-1,657,596,0,0
-560,428,0,0,0,0,0,0,0,0,0,-1,664,596,0,0
-553,428,0,0,0,0,0,0,0,0,0,-1,671,596,0,0
-546,428,0,0,0,0,0,0,0,0,0,-1,678,596,0,0
-539,428,0,0,0,0,0,0,0,0,0,-1,685,596,0,0
-532,428,0,0,0,0,0,0,0,0,0,-1,692,596,0,0
-525,428,-9.59918,7.58618,0,0,0,0,0,0,0,-1,699,596,-9.59918,-7.5862
-518,428,-2.92285,-4.81854,0,0,0,0,0,0,0,-1,706,596,-2.92285,4.81856
-511,428,-3.68811,-4.79474,0,0,0,0,0,0,0,-1,713,596,-3.68811,4.79474
-504,428,-4.45337,-4.77094,0,0,0,0,0,0,0,-1,720,596,-4.45337,4.77092
-497,428,-2.98108,-3.77502,0,0,0,0,0,0,0,-1,727,596,-2.98106,3.77505
-490,428,-6.39044,-2.80481,0,0,0,0,0,0,0,-1,734,596,-6.39047,2.80483
-483,428,-10.8474,-9.11322,0,0,0,0,0,0,0,-1,741,596,-10.8473,9.11321
-476,428,-20.6912,-18.7292,0,0,0,0,0,0,0,-1,748,596,-20.6912,18.7292
-469,428,-23.0342,-21.3403,0,0,0,0,0,0,0,-1,755,596,-23.0342,21.3403
-462,428,-95.6852,-44.6562,0,0,0,0,0,0,0,-1,762,596,-95.6852,44.6562
-455,428,-96.5478,-48.7128,0.035018,0.0397824,0.0572007,0.0946504,-0.0198501,0.806209,0.0706527,0.0300126,769,596,-96.5478,48.7128
-448,428,-97.3117,-52.7246,0.0344176,0.0354686,0.0559282,0.0908738,-0.0209876,0.790096,0.0686561,0.0188757,776,596,-97.3117,52.7246
-441,428,-98.4097,-56.7124,0.0336669,0.0314566,0.054902,0.0874748,-0.0223513,0.775335,0.0670211,0.0182006,783,596,-98.4097,56.7124
-434,428,-99.5306,-60.8195,0.0328316,0.0278204,0.0541311,0.0845151,-0.0238631,0.762271,0.0657572,0.015764,790,596,-99.5306,60.8194
-427,428,-100.55,-64.967,0.0317947,0.0247026,0.0535211,0.0818871,-0.0253898,0.752319,0.0647362,0.0198943,797,596,-100.55,64.967
-420,428,-101.577,-69.1091,0.0303779,0.0222693,0.0535407,0.0800176,-0.0273703,0.747608,0.0644362,0.0178513,804,596,-101.577,69.1091
-413,428,-102.761,-73.3501,0.0288072,0.0204216,0.0540258,0.0788027,-0.0295739,0.746672,0.0646872,0.0190362,811,596,-102.761,73.3501
-406,428,-104.22,-77.6419,0.0269423,0.0193845,0.0549669,0.07826,-0.0319332,0.751078,0.0654674,0.0366131,818,596,-104.22,77.6419
-399,428,-106.04,-81.5208,0,0,0,0,0,0,0,-1,825,596,-106.04,81.5208
-392,428,-91.8439,-84.4954,0,0,0,0,0,0,0,-1,832,596,-91.8439,84.4953
-385,428,-58.4974,-83.2041,0,0,0,0,0,0,0,-1,839,596,-58.4974,83.2041
-378,428,-10.8172,-20.952,0,0,0,0,0,0,0,-1,846,596,-10.8172,20.952
-371,428,-5.96155,-11.0703,0,0,0,0,0,0,0,-1,853,596,-5.96154,11.0702
-364,428,-6.33643,-10.7223,0,0,0,0,0,0,0,-1,860,596,-6.33645,10.7223
-357,428,-3.20996,-4.70966,0,0,0,0,0,0,0,-1,867,596,-3.20997,4.70965
-350,428,-1.62793,-3.94055,0,0,0,0,0,0,0,-1,874,596,-1.62794,3.94055
-343,428,-0.0567017,-4.80994,0,0,0,0,0,0,0,-1,881,596,-0.0567096,4.80996
-336,428,-3.29175,-1.39569,0,0,0,0,0,0,0,-1,888,596,-3.29172,1.39568
-329,428,-3.71564,-0.791321,0,0,0,0,0,0,0,-1,895,596,-3.71564,0.791299
-322,428,-5.52863,-3.59827,0,0,0,0,0,0,0,-1,902,596,-5.52865,3.59829
-315,428,-4.57172,-1.22052,0,0,0,0,0,0,0,-1,909,596,-4.57171,1.22052
-308,428,-5.60742,-3.40961,0,0,0,0,0,0,0,-1,916,596,-5.60744,3.40959
-301,428,0,0,0,0,0,0,0,0,0,-1,923,596,0,0
-294,428,0,0,0,0,0,0,0,0,0,-1,930,596,0,0
-287,428,0,0,0,0,0,0,0,0,0,-1,937,596,0,0
-280,428,0,0,0,0,0,0,0,0,0,-1,944,596,0,0
-273,428,0,0,0,0,0,0,0,0,0,-1,951,596,0,0
-266,428,0,0,0,0,0,0,0,0,0,-1,958,596,0,0
-259,428,0,0,0,0,0,0,0,0,0,-1,965,596,0,0
-252,428,0,0,0,0,0,0,0,0,0,-1,972,596,0,0
-245,428,0,0,0,0,0,0,0,0,0,-1,979,596,0,0
-238,428,0,0,0,0,0,0,0,0,0,-1,986,596,0,0
-231,428,0,0,0,0,0,0,0,0,0,-1,993,596,0,0
-224,428,0,0,0,0,0,0,0,0,0,-1,1000,596,0,0
-217,428,0,0,0,0,0,0,0,0,0,-1,1007,596,0,0
-210,428,0,0,0,0,0,0,0,0,0,-1,1014,596,0,0
-203,428,0,0,0,0,0,0,0,0,0,-1,1021,596,0,0
-196,428,0,0,0,0,0,0,0,0,0,-1,1028,596,0,0
-189,428,0,0,0,0,0,0,0,0,0,-1,1035,596,0,0
-182,428,0,0,0,0,0,0,0,0,0,-1,1042,596,0,0
-175,428,0,0,0,0,0,0,0,0,0,-1,1049,596,0,0
-168,428,0,0,0,0,0,0,0,0,0,-1,1056,596,0,0
-161,428,0,0,0,0,0,0,0,0,0,-1,1063,596,0,0
-154,428,0,0,0,0,0,0,0,0,0,-1,1070,596,0,0
-147,428,0,0,0,0,0,0,0,0,0,-1,1077,596,0,0
-140,428,0,0,0,0,0,0,0,0,0,-1,1084,596,0,0
-133,428,0,0,0,0,0,0,0,0,0,-1,1091,596,0,0
-126,428,0,0,0,0,0,0,0,0,0,-1,1098,596,0,0
-119,428,0,0,0,0,0,0,0,0,0,-1,1105,596,0,0
-112,428,0,0,0,0,0,0,0,0,0,-1,1112,596,0,0
-105,428,0,0,0,0,0,0,0,0,0,-1,1119,596,0,0
-98,428,0,0,0,0,0,0,0,0,0,-1,1126,596,0,0
-91,428,0,0,0,0,0,0,0,0,0,-1,1133,596,0,0
-84,428,0,0,0,0,0,0,0,0,0,-1,1140,596,0,0
-77,428,0,0,0,0,0,0,0,0,0,-1,1147,596,0,0
-70,428,0,0,0,0,0,0,0,0,0,-1,1154,596,0,0
-63,428,0,0,0,0,0,0,0,0,0,-1,1161,596,0,0
-56,428,0,0,0,0,0,0,0,0,0,-1,1168,596,0,0
-49,428,0,0,0,0,0,0,0,0,0,-1,1175,596,0,0
-42,428,0,0,0,0,0,0,0,0,0,-1,1182,596,0,0
-35,428,0,0,0,0,0,0,0,0,0,-1,1189,596,0,0
-28,428,0,0,0,0,0,0,0,0,0,-1,1196,596,0,0
-21,428,0,0,0,0,0,0,0,0,0,-1,1203,596,0,0
-14,428,0,0,0,0,0,0,0,0,0,-1,1210,596,0,0
-7,428,0,0,0,0,0,0,0,0,0,-1,1217,596,0,0
0,428,0,0,0,0,0,0,0,0,0,-1,1224,596,0,0
7,428,0,0,0,0,0,0,0,0,0,-1,1231,596,0,0
14,428,0,0,0,0,0,0,0,0,0,-1,1238,596,0,0
21,428,0,0,0,0,0,0,0,0,0,-1,1245,596,0,0
28,428,0,0,0,0,0,0,0,0,0,-1,1252,596,0,0
35,428,0,0,0,0,0,0,0,0,0,-1,1259,596,0,0
42,428,0,0,0,0,0,0,0,0,0,-1,1266,596,0,0
49,428,0,0,0,0,0,0,0,0,0,-1,1273,596,0,0
56,428,0,0,0,0,0,0,0,0,0,-1,1280,596,0,0
63,428,0,0,0,0,0,0,0,0,0,-1,1287,596,0,0
70,428,0,0,0,0,0,0,0,0,0,-1,1294,596,0,0
77,428,0,0,0,0,0,0,0,0,0,-1,1301,596,0,0
84,428,0,0,0,0,0,0,0,0,0,-1,1308,596,0,0
91,428,0,0,0,0,0,0,0,0,0,-1,1315,596,0,0
98,428,0,0,0,0,0,0,0,0,0,-1,1322,596,0,0
105,428,0,0,0,0,0,0,0,0,0,-1,1329,596,0,0
112,428,0,0,0,0,0,0,0,0,0,-1,1336,596,0,0
119,428,0,0,0,0,0,0,0,0,0,-1,1343,596,0,0
126,428,0,0,0,0,0,0,0,0,0,-1,1350,596,0,0
133,428,0,0,0,0,0,0,0,0,0,-1,1357,596,0,0
140,428,0,0,0,0,0,0,0,0,0,-1,1364,596,0,0
147,428,0,0,0,0,0,0,0,0,0,-1,1371,596,0,0
154,428,0,0,0,0,0,0,0,0,0,-1,1378,596,0,0
161,428,0,0,0,0,0,0,0,0,0,-1,1385,596,0,0
168,428,0,0,0,0,0,0,0,0,0,-1,1392,596,0,0
175,428,0,0,0,0,0,0,0,0,0,-1,1399,596,0,0
182,428,0,0,0,0,0,0,0,0,0,-1,1406,596,0,0
189,428,0,0,0,0,0,0,0,0,0,-1,1413,596,0,0
196,428,0,0,0,0,0,0,0,0,0,-1,1420,596,0,0
203,428,0,0,0,0,0,0,0,0,0,-1,1427,596,0,0
210,428,0,0,0,0,0,0,0,0,0,-1,1434,596,0,0
217,428,0,0,0,0,0,0,0,0,0,-1,1441,596,0,0
224,428,0,0,0,0,0,0,0,0,0,-1,1448,596,0,0
231,428,0,0,0,0,0,0,0,0,0,-1,1455,596,0,0
238,428,0,0,0,0,0,0,0,0,0,-1,1462,596,0,0
245,428,0,0,0,0,0,0,0,0,0,-1,1469,596,0,0
252,428,0,0,0,0,0,0,0,0,0,-1,1476,596,0,0
259,428,0,0,0,0,0,0,0,0,0,-1,1483,596,0,0
266,428,0,0,0,0,0,0,0,0,0,-1,1490,596,0,0
273,428,0,0,0,0,0,0,0,0,0,-1,1497,596,0,0
280,428,0,0,0,0,0,0,0,0,0,-1,1504,596,0,0
287,428,0,0,0,0,0,0,0,0,0,-1,1511,596,0,0
294,428,0,0,0,0,0,0,0,0,0,-1,1518,596,0,0
301,428,0,0,0,0,0,0,0,0,0,-1,1525,596,0,0
308,428,0,0,0,0,0,0,0,0,0,-1,1532,596,0,0
315,428,0,0,0,0,0,0,0,0,0,-1,1539,596,0,0
322,428,0,0,0,0,0,0,0,0,0,-1,1546,596,0,0
329,428,0,0,0,0,0,0,0,0,0,-1,1553,596,0,0
336,428,0,0,0,0,0,0,0,0,0,-1,1560,596,0,0
343,428,0,0,0,0,0,0,0,0,0,-1,1567,596,0,0
350,428,0,0,0,0,0,0,0,0,0,-1,1574,596,0,0
357,428,0,0,0,0,0,0,0,0,0,-1,1581,596,0,0
364,428,0,0,0,0,0,0,0,0,0,-1,1588,596,0,0
371,428,0,0,0,0,0,0,0,0,0,-1,1595,596,0,0
378,428,0,0,0,0,0,0,0,0,0,-1,1602,596,0,0
385,428,0,0,0,0,0,0,0,0,0,-1,1609,596,0,0
392,428,0,0,0,0,0,0,0,0,0,-1,1616,596,0,0
399,428,0,0,0,0,0,0,0,0,0,-1,1623,596,0,0
406,428,0,0,0,0,0,0,0,0,0,-1,1630,596,0,0
413,428,0,0,0,0,0,0,0,0,0,-1,1637,596,0,0
420,428,19.8469,1.3399,0,0,0,0,0,0,0,-1,1644,596,19.8469,-1.33992
427,428,20.7299,-0.225281,0,0,0,0,0,0,0,-1,1651,596,20.7299,0.225262
434,428,19.8915,-0.583069,0,0,0,0,0,0,0,-1,1658,596,19.8915,0.583075
441,428,8.17993,0.607483,0,0,0,0,0,0,0,-1,1665,596,8.17997,-0.607513
448,428,7.84338,-0.385986,0,0,0,0,0,0,0,-1,1672,596,7.84336,0.385978
455,428,6.64038,2.1123,0,0,0,0,0,0,0,-1,1679,596,6.64037,-2.11229
462,428,4.84106,4.12341,0,0,0,0,0,0,0,-1,1686,596,4.84107,-4.12339
469,428,7.83789,3.10083,0,0,0,0,0,0,0,-1,1693,596,7.83785,-3.10086
476,428,7.61255,1.73956,0,0,0,0,0,0,0,-1,1700,596,7.61252,-1.73958
483,428,7.22766,1.05121,0,0,0,0,0,0,0,-1,1707,596,7.2277,-1.05121
490,428,5.4071,-3.2793,0,0,0,0,0,0,0,-1,1714,596,5.40707,3.27929
497,428,7.84106,-3.65491,0,0,0,0,0,0,0,-1,1721,596,7.84107,3.65491
504,428,6.92139,-2.83356,0,0,0,0,0,0,0,-1,1728,596,6.92137,2.83353
511,428,7.88501,-3.78723,0,0,0,0,0,0,0,-1,1735,596,7.88502,3.78722
518,428,66.0958,-82.11,0,0,0,0,0,0,0,-1,1742,596,66.0958,82.11
525,428,89.0146,-85.3292,0,0,0,0,0,0,0,-1,1749,596,89.0147,85.3292
532,428,106.135,-80.9557,0,0,0,0,0,0,0,-1,1756,596,106.135,80.9557
539,428,114.246,-75.9676,0,0,0,0,0,0,0,-1,1763,596,114.246,75.9676
546,428,113.263,-71.5135,0.0313973,0.0198777,-0.048795,0.0747713,-0.0234962,-0.726649,0.0592533,0.0321924,1770,596,113.263,71.5135
553,428,112.271,-67.3768,0.0326983,0.02079,-0.0497844,0.0768834,-0.023395,-0.725881,0.0605789,0.0216221,1777,596,112.271,67.3767
560,428,111.117,-63.3184,0.033489,0.0217763,-0.0508013,0.0787703,-0.0235051,-0.728012,0.0618556,0.0206639,1784,596,111.117,63.3184
567,428,110,-59.2294,0.0343256,0.0226404,-0.0518592,0.0806703,-0.0237043,-0.729303,0.0631817,0.0202202,1791,596,110,59.2295
574,428,109.001,-55.2681,0.035393,0.0237303,-0.0528182,0.0827008,-0.0235775,-0.730419,0.0644471,0.023109,1798,596,109.001,55.2681
581,428,108.073,-51.3587,0.0367357,0.0250462,-0.0536878,0.084896,-0.0231141,-0.731179,0.0656722,0.0179098,1805,596,108.073,51.3587
588,428,107.324,-47.4705,0.0385525,0.0262479,-0.0544823,0.0872287,-0.0224283,-0.729175,0.0668939,0.0389357,1812,596,107.324,47.4705
595,428,106.624,-43.4889,0,0,0,0,0,0,0,-1,1819,596,106.624,43.4889
602,428,39.9447,-21.0615,0,0,0,0,0,0,0,-1,1826,596,39.9447,21.0615
609,428,17.2073,-4.82446,0,0,0,0,0,0,0,-1,1833,596,17.2073,4.82447
616,428,15.7817,-3.09558,0,0,0,0,0,0,0,-1,1840,596,15.7817,3.09556
623,428,9.53577,1.12518,0,0,0,0,0,0,0,-1,1847,596,9.5358,-1.1252
630,428,7.07996,6.88562,0,0,0,0,0,0,0,-1,1854,596,7.0799,-6.88565
637,428,3.95435,1.90857,0,0,0,0,0,0,0,-1,1861,596,3.95439,-1.90858
644,428,5.75476,0.888977,0,0,0,0,0,0,0,-1,1868,596,5.75472,-0.888955
651,428,0,0,0,0,0,0,0,0,0,-1,1875,596,0,0
658,428,0,0,0,0,0,0,0,0,0,-1,1882,596,0,0
665,428,0,0,0,0,0,0,0,0,0,-1,1889,596,0,0
672,428,0,0,0,0,0,0,0,0,0,-1,1896,596,0,0
679,428,0,0,0,0,0,0,0,0,0,-1,1903,596,0,0
686,428,0,0,0,0,0,0,0,0,0,-1,1910,596,0,0
693,428,0,0,0,0,0,0,0,0,0,-1,1917,596,0,0
700,428,0,0,0,0,0,0,0,0,0,-1,1924,596,0,0
707,428,0,0,0,0,0,0,0,0,0,-1,1931,596,0,0
714,428,0,0,0,0,0,0,0,0,0,-1,1938,596,0,0
721,428,0,0,0,0,0,0,0,0,0,-1,1945,596,0,0
728,428,0,0,0,0,0,0,0,0,0,-1,1952,596,0,0
735,428,0,0,0,0,0,0,0,0,0,-1,1959,596,0,0
742,428,0,0,0,0,0,0,0,0,0,-1,1966,596,0,0
749,428,0,0,0,0,0,0,0,0,0,-1,1973,596,0,0
756,428,0,0,0,0,0,0,0,0,0,-1,1980,596,0,0
763,428,0,0,0,0,0,0,0,0,0,-1,1987,596,0,0
770,428,0,0,0,0,0,0,0,0,0,-1,1994,596,0,0
777,428,0,0,0,0,0,0,0,0,0,-1,2001,596,0,0
784,428,0,0,0,0,0,0,0,0,0,-1,2008,596,0,0
791,428,0,0,0,0,0,0,0,0,0,-1,2015,596,0,0
798,428,0,0,0,0,0,0,0,0,0,-1,2022,596,0,0
805,428,0,0,0,0,0,0,0,0,0,-1,2029,596,0,0
812,428,0,0,0,0,0,0,0,0,0,-1,2036,596,0,0
-700,421,0,0,0,0,0,0,0,0,0,-1,524,603,0,0
-693,421,0,0,0,0,0,0,0,0,0,-1,531,603,0,0
-686,421,0,0,0,0,0,0,0,0,0,-1,538,603,0,0
-679,421,0,0,0,0,0,0,0,0,0,-1,545,603,0,0
-672,421,0,0,0,0,0,0,0,0,0,-1,552,603,0,0
-665,421,0,0,0,0,0,0,0,0,0,-1,559,603,0,0
-658,421,0,0,0,0,0,0,0,0,0,-1,566,603,0,0
-651,421,0,0,0,0,0,0,0,0,0,-1,573,603,0,0
-644,421,0,0,0,0,0,0,0,0,0,-1,580,603,0,0
-637,421,0,0,0,0,0,0,0,0,0,-1,587,603,0,0
-630,421,0,0,0,0,0,0,0,0,0,-1,594,603,0,0
-623,421,0,0,0,0,0,0,0,0,0,-1,601,603,0,0
-616,421,0,0,0,0,0,0,0,0,0,-1,608,603,0,0
-609,421,0,0,0,0,0,0,0,0,0,-1,615,603,0,0
-602,421,0,0,0,0,0,0,0,0,0,-1,622,603,0,0
-595,421,0,0,0,0,0,0,0,0,0,-1,629,603,0,0
-588,421,0,0,0,0,0,0,0,0,0,-1,636,603,0,0
-581,421,0,0,0,0,0,0,0,0,0,-1,643,603,0,0
-574,421,0,0,0,0,0,0,0,0,0,-1,650,603,0,0
-567,421,0,0,0,0,0,0,0,0,0,-1,657,603,0,0
-560,421,0,0,0,0,0,0,0,0,0,-1,664,603,0,0
-553,421,0,0,0,0,0,0,0,0,0,-1,671,603,0,0
-546,421,0,0,0,0,0,0,0,0,0,-1,678,603,0,0
-539,421,0,0,0,0,0,0,0,0,0,-1,685,603,0,0
-532,421,-8.97382,6.95636,0,0,0,0,0,0,0,-1,692,603,-8.97384,-6.95634
-525,421,-2.11481,-8.04272,0,0,0,0,0,0,0,-1,699,603,-2.11483,8.0427
-518,421,-3.05908,-5.07233,0,0,0,0,0,0,0,-1,706,603,-3.0591,5.07235
-511,421,-4.63525,-4.08447,0,0,0,0,0,0,0,-1,713,603,-4.63524,4.08449
-504,421,-5.17029,-4.94458,0,0,0,0,0,0,0,-1,720,603,-5.17029,4.9446
-497,421,-6.63141,-2.32501,0,0,0,0,0,0,0,-1,727,603,-6.6314,2.32498
-490,421,-6.7616,-4.14783,0,0,0,0,0,0,0,-1,734,603,-6.76159,4.1478
-483,421,-16.1866,-14.4011,0,0,0,0,0,0,0,-1,741,603,-16.1866,14.4011
-476,421,-80.0347,-36.0903,0,0,0,0,0,0,0,-1,748,603,-80.0347,36.0903
-469,421,-99.4128,-39.3842,0,0,0,0,0,0,0,-1,755,603,-99.4128,39.3842
-462,421,-100.423,-43.4331,0.0335882,0.0439264,0.0577989,0.0967868,-0.0192723,0.829996,0.0718158,0.0353874,762,603,-100.423,43.4331
-455,421,-101.337,-47.3937,0.0326887,0.0391843,0.0563621,0.0923921,-0.0205191,0.814178,0.0694523,0.028653,769,603,-101.337,47.3937
-448,421,-102.137,-51.3188,0.0318262,0.0349281,0.0550544,0.0884534,-0.021699,0.79948,0.0673769,0.0317223,776,603,-102.137,51.3189
-441,421,-103.129,-55.2383,0.0309294,0.0311068,0.0539421,0.0849603,-0.0229241,0.78622,0.06563,0.023894,783,603,-103.129,55.2383
-434,421,-104.253,-59.288,0.0299466,0.0276154,0.0529034,0.0816972,-0.0241353,0.774384,0.0640442,0.0160204,790,603,-104.253,59.288
-427,421,-105.205,-63.3806,0.0286928,0.0247391,0.0519516,0.0787052,-0.0252732,0.766382,0.0626183,0.0159491,797,603,-105.205,63.3806
-420,421,-106.243,-67.5203,0.0269612,0.0225808,0.051551,0.0763685,-0.0268265,0.764168,0.061826,0.0174069,804,603,-106.243,67.5203
-413,421,-107.442,-71.7425,0.0249393,0.0210534,0.0515211,0.0745541,-0.0285614,0.766551,0.061476,0.0203901,811,603,-107.442,71.7425
-406,421,-109.069,-75.9134,0,0,0,0,0,0,0,-1,818,603,-109.069,75.9134
-399,421,-97.8541,-80.3696,0,0,0,0,0,0,0,-1,825,603,-97.8541,80.3696
-392,421,-39.7571,-54.787,0,0,0,0,0,0,0,-1,832,603,-39.7571,54.7871
-385,421,-11.5825,-18.8583,0,0,0,0,0,0,0,-1,839,603,-11.5825,18.8583
-378,421,-4.94733,-8.87909,0,0,0,0,0,0,0,-1,846,603,-4.94731,8.87906
-371,421,-5.65082,-7.01849,0,0,0,0,0,0,0,-1,853,603,-5.65082,7.0185
-364,421,-5.94189,-7.09875,0,0,0,0,0,0,0,-1,860,603,-5.94192,7.09878
-357,421,-7.62531,-8.26337,0,0,0,0,0,0,0,-1,867,603,-7.62532,8.26337
-350,421,-5.38019,-3.75024,0,0,0,0,0,0,0,-1,874,603,-5.38017,3.75026
-343,421,-6.22797,-2.57123,0,0,0,0,0,0,0,-1,881,603,-6.22798,2.57121
-336,421,-6.22882,-2.59369,0,0,0,0,0,0,0,-1,888,603,-6.22883,2.5937
-329,421,-4.50134,-1.49469,0,0,0,0,0,0,0,-1,895,603,-4.50137,1.49468
-322,421,-7.55817,1.13263,0,0,0,0,0,0,0,-1,902,603,-7.55818,-1.13263
-315,421,-4.16144,-1.96649,0,0,0,0,0,0,0,-1,909,603,-4.16146,1.9665
-308,421,0,0,0,0,0,0,0,0,0,-1,916,603,0,0
-301,421,0,0,0,0,0,0,0,0,0,-1,923,603,0,0
-294,421,0,0,0,0,0,0,0,0,0,-1,930,603,0,0
-287,421,0,0,0,0,0,0,0,0,0,-1,937,603,0,0
-280,421,0,0,0,0,0,0,0,0,0,-1,944,603,0,0
-273,421,0,0,0,0,0,0,0,0,0,-1,951,603,0,0
-266,421,0,0,0,0,0,0,0,0,0,-1,958,603,0,0
-259,421,0,0,0,0,0,0,0,0,0,-1,965,603,0,0
-252,421,0,0,0,0,0,0,0,0,0,-1,972,603,0,0
-245,421,0,0,0,0,0,0,0,0,0,-1,979,603,0,0
-238,421,0,0,0,0,0,0,0,0,0,-1,986,603,0,0
-231,421,0,0,0,0,0,0,0,0,0,-1,993,603,0,0
-224,421,0,0,0,0,0,0,0,0,0,-1,1000,603,0,0
-217,421,0,0,0,0,0,0,0,0,0,-1,1007,603,0,0
-210,421,0,0,0,0,0,0,0,0,0,-1,1014,603,0,0
-203,421,0,0,0,0,0,0,0,0,0,-1,1021,603,0,0
-196,421,0,0,0,0,0,0,0,0,0,-1,1028,603,0,0
-189,421,0,0,0,0,0,0,0,0,0,-1,1035,603,0,0
-182,421,0,0,0,0,0,0,0,0,0,-1,1042,603,0,0
-175,421,0,0,0,0,0,0,0,0,0,-1,1049,603,0,0
-168,421,0,0,0,0,0,0,0,0,0,-1,1056,603,0,0
-161,421,0,0,0,0,0,0,0,0,0,-1,1063,603,0,0
-154,421,0,0,0,0,0,0,0,0,0,-1,1070,603,0,0
-147,421,0,0,0,0,0,0,0,0,0,-1,1077,603,0,0
-140,421,0,0,0,0,0,0,0,0,0,-1,1084,603,0,0
-133,421,0,0,0,0,0,0,0,0,0,-1,1091,603,0,0
-126,421,0,0,0,0,0,0,0,0,0,-1,1098,603,0,0
-119,421,0,0,0,0,0,0,0,0,0,-1,1105,603,0,0
-112,421,0,0,0,0,0,0,0,0,0,-1,1112,603,0,0
-105,421,0,0,0,0,0,0,0,0,0,-1,1119,603,0,0
-98,421,0,0,0,0,0,0,0,0,0,-1,1126,603,0,0
-91,421,0,0,0,0,0,0,0,0,0,-1,1133,603,0,0
-84,421,0,0,0,0,0,0,0,0,0,-1,1140,603,0,0
-77,421,0,0,0,0,0,0,0,0,0,-1,1147,603,0,0
-70,421,0,0,0,0,0,0,0,0,0,-1,1154,603,0,0
-63,421,0,0,0,0,0,0,0,0,0,-1,1161,603,0,0
-56,421,0,0,0,0,0,0,0,0,0,-1,1168,603,0,0
-49,421,0,0,0,0,0,0,0,0,0,-1,1175,603,0,0
-42,421,0,0,0,0,0,0,0,0,0,-1,1182,603,0,0
-35,421,0,0,0,0,0,0,0,0,0,-1,1189,603,0,0
-28,421,0,0,0,0,0,0,0,0,0,-1,1196,603,0,0
-21,421,0,0,0,0,0,0,0,0,0,-1,1203,603,0,0
-14,421,0,0,0,0,0,0,0,0,0,-1,1210,603,0,0
-7,421,0,0,0,0,0,0,0,0,0,-1,1217,603,0,0
0,421,0,0,0,0,0,0,0,0,0,-1,1224,603,0,0
7,421,0,0,0,0,0,0,0,0,0,-1,1231,603,0,0
14,421,0,0,0,0,0,0,0,0,0,-1,1238,603,0,0
21,421,0,0,0,0,0,0,0,0,0,-1,1245,603,0,0
28,421,0,0,0,0,0,0,0,0,0,-1,1252,603,0,0
35,421,0,0,0,0,0,0,0,0,0,-1,1259,603,0,0
42,421,0,0,0,0,0,0,0,0,0,-1,1266,603,0,0
49,421,0,0,0,0,0,0,0,0,0,-1,1273,603,0,0
56,421,0,0,0,0,0,0,0,0,0,-1,1280,603,0,0
63,421,0,0,0,0,0,0,0,0,0,-1,1287,603,0,0
70,421,0,0,0,0,0,0,0,0,0,-1,1294,603,0,0
77,421,0,0,0,0,0,0,0,0,0,-1,1301,603,0,0
84,421,0,0,0,0,0,0,0,0,0,-1,1308,603,0,0
91,421,0,0,0,0,0,0,0,0,0,-1,1315,603,0,0
98,421,0,0,0,0,0,0,0,0,0,-1,1322,603,0,0
105,421,0,0,0,0,0,0,0,0,0,-1,1329,603,0,0
112,421,0,0,0,0,0,0,0,0,0,-1,1336,603,0,0
119,421,0,0,0,0,0,0,0,0,0,-1,1343,603,0,0
126,421,0,0,0,0,0,0,0,0,0,-1,1350,603,0,0
133,421,0,0,0,0,0,0,0,0,0,-1,1357,603,0,0
140,421,0,0,0,0,0,0,0,0,0,-1,1364,603,0,0
147,421,0,0,0,0,0,0,0,0,0,-1,1371,603,0,0
154,421,0,0,0,0,0,0,0,0,0,-1,1378,603,0,0
161,421,0,0,0,0,0,0,0,0,0,-1,1385,603,0,0
168,421,0,0,0,0,0,0,0,0,0,-1,1392,603,0,0
175,421,0,0,0,0,0,0,0,0,0,-1,1399,603,0,0
182,421,0,0,0,0,0,0,0,0,0,-1,1406,603,0,0
189,421,0,0,0,0,0,0,0,0,0,-1,1413,603,0,0
196,421,0,0,0,0,0,0,0,0,0,-1,1420,603,0,0
203,421,0,0,0,0,0,0,0,0,0,-1,1427,603,0,0
210,421,0,0,0,0,0,0,0,0,0,-1,1434,603,0,0
217,421,0,0,0,0,0,0,0,0,0,-1,1441,603,0,0
224,421,0,0,0,0,0,0,0,0,0,-1,1448,603,0,0
231,421,0,0,0,0,0,0,0,0,0,-1,1455,603,0,0
238,421,0,0,0,0,0,0,0,0,0,-1,1462,603,0,0
245,421,0,0,0,0,0,0,0,0,0,-1,1469,603,0,0
252,421,0,0,0,0,0,0,0,0,0,-1,1476,603,0,0
259,421,0,0,0,0,0,0,0,0,0,-1,1483,603,0,0
266,421,0,0,0,0,0,0,0,0,0,-1,1490,603,0,0
273,421,0,0,0,0,0,0,0,0,0,-1,1497,603,0,0
280,421,0,0,0,0,0,0,0,0,0,-1,1504,603,0,0
287,421,0,0,0,0,0,0,0,0,0,-1,1511,603,0,0
294,421,0,0,0,0,0,0,0,0,0,-1,1518,603,0,0
301,421,0,0,0,0,0,0,0,0,0,-1,1525,603,0,0
308,421,0,0,0,0,0,0,0,0,0,-1,1532,603,0,0
315,421,0,0,0,0,0,0,0,0,0,-1,1539,603,0,0
322,421,0,0,0,0,0,0,0,0,0,-1,1546,603,0,0
329,421,0,0,0,0,0,0,0,0,0,-1,1553,603,0,0
336,421,0,0,0,0,0,0,0,0,0,-1,1560,603,0,0
343,421,0,0,0,0,0,0,0,0,0,-1,1567,603,0,0
350,421,0,0,0,0,0,0,0,0,0,-1,1574,603,0,0
357,421,0,0,0,0,0,0,0,0,0,-1,1581,603,0,0
364,421,0,0,0,0,0,0,0,0,0,-1,1588,603,0,0
371,421,0,0,0,0,0,0,0,0,0,-1,1595,603,0,0
378,421,0,0,0,0,0,0,0,0,0,-1,1602,603,0,0
385,421,0,0,0,0,0,0,0,0,0,-1,1609,603,0,0
392,421,0,0,0,0,0,0,0,0,0,-1,1616,603,0,0
399,421,0,0,0,0,0,0,0,0,0,-1,1623,603,0,0
406,421,0,0,0,0,0,0,0,0,0,-1,1630,603,0,0
413,421,0,0,0,0,0,0,0,0,0,-1,1637,603,0,0
420,421,0,0,0,0,0,0,0,0,0,-1,1644,603,0,0
427,421,0,0,0,0,0,0,0,0,0,-1,1651,603,0,0
434,421,3.68176,-0.0327759,0,0,0,0,0,0,0,-1,1658,603,3.6818,0.0328037
441,421,8.06689,0.527832,0,0,0,0,0,0,0,-1,1665,603,8.06693,-0.527851
448,421,6.93921,0.802246,0,0,0,0,0,0,0,-1,1672,603,6.93923,-0.802251
455,421,7.29456,2.14825,0,0,0,0,0,0,0,-1,1679,603,7.29461,-2.14827
462,421,7.86902,3.53174,0,0,0,0,0,0,0,-1,1686,603,7.869,-3.53173
469,421,8.06604,2.81213,0,0,0,0,0,0,0,-1,1693,603,8.06606,-2.81212
476,421,8.26306,2.09253,0,0,0,0,0,0,0,-1,1700,603,8.26312,-2.09251
483,421,8.05322,0.798096,0,0,0,0,0,0,0,-1,1707,603,8.05323,-0.7981
490,421,7.51233,0.213074,0,0,0,0,0,0,0,-1,1714,603,7.51235,-0.213043
497,421,7.49634,-2.86688,0,0,0,0,0,0,0,-1,1721,603,7.4963,2.86688
504,421,6.90491,-2.18671,0,0,0,0,0,0,0,-1,1728,603,6.90491,2.18669
511,421,6.31348,-1.50653,0,0,0,0,0,0,0,-1,1735,603,6.31353,1.5065
518,421,6.27588,-2.49878,0,0,0,0,0,0,0,-1,1742,603,6.2759,2.4988
525,421,30.6759,-25.1779,0,0,0,0,0,0,0,-1,1749,603,30.6759,25.1779
532,421,97.0912,-78.8753,0,0,0,0,0,0,0,-1,1756,603,97.0912,78.8753
539,421,118.973,-74.2463,0,0,0,0,0,0,0,-1,1763,603,118.973,74.2463
546,421,117.918,-69.9442,0.0271509,0.0217965,-0.0450205,0.0695738,-0.0206263,-0.7557,0.0545731,0.0253984,1770,603,117.918,69.9441
553,421,116.769,-65.797,0.0283152,0.0220914,-0.0463794,0.071687,-0.0212804,-0.7519,0.0562431,0.0232725,1777,603,116.769,65.797
560,421,115.731,-61.7637,0.0289328,0.0225816,-0.0476828,0.0735457,-0.0220312,-0.752148,0.0577914,0.0233131,1784,603,115.731,61.7636
567,421,114.692,-57.8713,0.0296523,0.0230375,-0.0490121,0.0754684,-0.0227786,-0.751708,0.0593798,0.0260918,1791,603,114.692,57.8713
574,421,113.705,-53.9162,0.0305524,0.0238823,-0.0503047,0.0776325,-0.0231978,-0.752298,0.0609767,0.0317027,1798,603,113.705,53.9162
581,421,112.783,-49.9595,0.0317889,0.0251312,-0.0515871,0.0801544,-0.0232343,-0.753178,0.0626344,0.0277349,1805,603,112.783,49.9595
588,421,111.881,-46.0789,0.0334766,0.0265319,-0.0528466,0.0829647,-0.0229563,-0.752592,0.0643418,0.0180811,1812,603,111.881,46.0789
595,421,111.064,-42.0612,0.0358069,0.0284358,-0.0541517,0.0863984,-0.0221556,-0.751421,0.0662311,0.042253,1819,603,111.064,42.0612
602,421,110.366,-37.9836,0,0,0,0,0,0,0,-1,1826,603,110.366,37.9836
609,421,22.8762,-8.37524,0,0,0,0,0,0,0,-1,1833,603,22.8762,8.37525
616,421,17.7633,-4.72491,0,0,0,0,0,0,0,-1,1840,603,17.7633,4.7249
623,421,6.19885,0.376648,0,0,0,0,0,0,0,-1,1847,603,6.19881,-0.376624
630,421,6.54993,0.778748,0,0,0,0,0,0,0,-1,1854,603,6.54991,-0.778744
637,421,3.74512,1.65405,0,0,0,0,0,0,0,-1,1861,603,3.74517,-1.65407
644,421,3.58081,0.354675,0,0,0,0,0,0,0,-1,1868,603,3.58082,-0.354704
651,421,3.28687,3.66351,0,0,0,0,0,0,0,-1,1875,603,3.28688,-3.66353
658,421,0,0,0,0,0,0,0,0,0,-1,1882,603,0,0
665,421,0,0,0,0,0,0,0,0,0,-1,1889,603,0,0
672,421,0,0,0,0,0,0,0,0,0,-1,1896,603,0,0
679,421,0,0,0,0,0,0,0,0,0,-1,1903,603,0,0
686,421,0,0,0,0,0,0,0,0,0,-1,1910,603,0,0
693,421,0,0,0,0,0,0,0,0,0,-1,1917,603,0,0
700,421,0,0,0,0,0,0,0,0,0,-1,1924,603,0,0
707,421,0,0,0,0,0,0,0,0,0,-1,1931,603,0,0
714,421,0,0,0,0,0,0,0,0,0,-1,1938,603,0,0
721,421,0,0,0,0,0,0,0,0,0,-1,1945,603,0,0
728,421,0,0,0,0,0,0,0,0,0,-1,1952,603,0,0
735,421,0,0,0,0,0,0,0,0,0,-1,1959,603,0,0
742,421,0,0,0,0,0,0,0,0,0,-1,1966,603,0,0
749,421,0,0,0,0,0,0,0,0,0,-1,1973,603,0,0
756,421,0,0,0,0,0,0,0,0,0,-1,1980,603,0,0
763,421,0,0,0,0,0,0,0,0,0,-1,1987,603,0,0
770,421,0,0,0,0,0,0,0,0,0,-1,1994,603,0,0
777,421,0,0,0,0,0,0,0,0,0,-1,2001,603,0,0
784,421,0,0,0,0,0,0,0,0,0,-1,2008,603,0,0
791,421,0,0,0,0,0,0,0,0,0,-1,2015,603,0,0
798,421,0,0,0,0,0,0,0,0,0,-1,2022,603,0,0
805,421,0,0,0,0,0,0,0,0,0,-1,2029,603,0,0
812,421,0,0,0,0,0,0,0,0,0,-1,2036,603,0,0
-700,414,0,0,0,0,0,0,0,0,0,-1,524,610,0,0
-693,414,0,0,0,0,0,0,0,0,0,-1,531,610,0,0
-686,414,0,0,0,0,0,0,0,0,0,-1,538,610,0,0
-679,414,0,0,0,0,0,0,0,0,0,-1,545,610,0,0
-672,414,0,0,0,0,0,0,0,0,0,-1,552,610,0,0
-665,414,0,0,0,0,0,0,0,0,0,-1,559,610,0,0
-658,414,0,0,0,0,0,0,0,0,0,-1,566,610,0,0
-651,414,0,0,0,0,0,0,0,0,0,-1,573,610,0,0
-644,414,0,0,0,0,0,0,0,0,0,-1,580,610,0,0
-637,414,0,0,0,0,0,0,0,0,0,-1,587,610,0,0
-630,414,0,0,0,0,0,0,0,0,0,-1,594,610,0,0
-623,414,0,0,0,0,0,0,0,0,0,-1,601,610,0,0
-616,414,0,0,0,0,0,0,0,0,0,-1,608,610,0,0
-609,414,0,0,0,0,0,0,0,0,0,-1,615,610,0,0
-602,414,0,0,0,0,0,0,0,0,0,-1,622,610,0,0
-595,414,0,0,0,0,0,0,0,0,0,-1,629,610,0,0
-588,414,0,0,0,0,0,0,0,0,0,-1,636,610,0,0
-581,414,0,0,0,0,0,0,0,0,0,-1,643,610,0,0
-574,414,0,0,0,0,0,0,0,0,0,-1,650,610,0,0
-567,414,0,0,0,0,0,0,0,0,0,-1,657,610,0,0
-560,414,0,0,0,0,0,0,0,0,0,-1,664,610,0,0
-553,414,0,0,0,0,0,0,0,0,0,-1,671,610,0,0
-546,414,0,0,0,0,0,0,0,0,0,-1,678,610,0,0
-539,414,-7.50146,5.65619,0,0,0,0,0,0,0,-1,685,610,-7.50149,-5.65617
-532,414,-8.15204,4.01605,0,0,0,0,0,0,0,-1,692,610,-8.15206,-4.01606
-525,414,-3.47137,-3.27924,0,0,0,0,0,0,0,-1,699,610,-3.47136,3.27922
-518,414,-4.12909,-4.36908,0,0,0,0,0,0,0,-1,706,610,-4.12909,4.36909
-511,414,-3.92542,-4.97021,0,0,0,0,0,0,0,-1,713,610,-3.92542,4.97023
-504,414,-9.35394,-5.49896,0,0,0,0,0,0,0,-1,720,610,-9.35394,5.49898
-497,414,-9.67627,-6.54761,0,0,0,0,0,0,0,-1,727,610,-9.6763,6.5476
-490,414,-17.4136,-12.953,0,0,0,0,0,0,0,-1,734,610,-17.4136,12.953
-483,414,-102.817,-30.6549,0,0,0,0,0,0,0,-1,741,610,-102.817,30.6549
-476,414,-103.55,-34.4992,0,0,0,0,0,0,0,-1,748,610,-103.55,34.4992
-469,414,-103.998,-38.2128,0,0,0,0,0,0,0,-1,755,610,-103.998,38.2129
-462,414,-105.037,-42.1393,0.0309564,0.0428113,0.0558898,0.0930871,-0.0193195,0.838229,0.0694001,0.0273505,762,610,-105.037,42.1393
-455,414,-106.019,-46.0661,0.029772,0.0380647,0.0545585,0.0886341,-0.0207975,0.823324,0.0671049,0.032645,769,610,-106.019,46.0661
-448,414,-106.863,-49.9566,0.0286289,0.0337964,0.053265,0.0845403,-0.022115,0.809633,0.0649983,0.0370237,776,610,-106.863,49.9566
-441,414,-107.831,-53.8174,0.0275566,0.0300781,0.0520462,0.0808789,-0.0232442,0.797508,0.0631106,0.0282782,783,610,-107.831,53.8174
-434,414,-108.865,-57.7882,0.0264458,0.0267351,0.0507375,0.0773282,-0.0241473,0.786824,0.06121,0.0152996,790,610,-108.865,57.7882
-427,414,-109.821,-61.8515,0.0250645,0.0241088,0.049423,0.074012,-0.0248386,0.780564,0.0593786,0.0166406,797,610,-109.821,61.8515
-420,414,-110.88,-65.9187,0.0231672,0.0222604,0.0485232,0.0712391,-0.0258116,0.780726,0.0580423,0.0167324,804,610,-110.88,65.9187
-413,414,-112.079,-70.252,0.0208397,0.0211345,0.0478447,0.0688321,-0.0268579,0.786939,0.0569908,0.0293401,811,610,-112.079,70.252
-406,414,-113.455,-74.6609,0,0,0,0,0,0,0,-1,818,610,-113.455,74.6609
-399,414,-38.7434,-47.9197,0,0,0,0,0,0,0,-1,825,610,-38.7434,47.9197
-392,414,-9.43781,-14.5624,0,0,0,0,0,0,0,-1,832,610,-9.43779,14.5624
-385,414,-8.14691,-13.0653,0,0,0,0,0,0,0,-1,839,610,-8.14692,13.0653
-378,414,-8.04907,-11.3331,0,0,0,0,0,0,0,-1,846,610,-8.04905,11.3331
-371,414,-5.20886,-8.05151,0,0,0,0,0,0,0,-1,853,610,-5.20887,8.05153
-364,414,-6.76282,-6.58759,0,0,0,0,0,0,0,-1,860,610,-6.7628,6.58756
-357,414,-9.08685,-8.86188,0,0,0,0,0,0,0,-1,867,610,-9.08688,8.86187
-350,414,-6.4502,-2.41821,0,0,0,0,0,0,0,-1,874,610,-6.45021,2.41822
-343,414,-6.80249,-2.32117,0,0,0,0,0,0,0,-1,881,610,-6.80252,2.32116
-336,414,-7.11017,-2.52026,0,0,0,0,0,0,0,-1,888,610,-7.11016,2.52026
-329,414,-7.59747,-2.70313,0,0,0,0,0,0,0,-1,895,610,-7.59747,2.70315
-322,414,-4.42236,-1.29163,0,0,0,0,0,0,0,-1,902,610,-4.42238,1.2916
-315,414,0,0,0,0,0,0,0,0,0,-1,909,610,0,0
-308,414,0,0,0,0,0,0,0,0,0,-1,916,610,0,0
-301,414,0,0,0,0,0,0,0,0,0,-1,923,610,0,0
-294,414,0,0,0,0,0,0,0,0,0,-1,930,610,0,0
-287,414,0,0,0,0,0,0,0,0,0,-1,937,610,0,0
-280,414,0,0,0,0,0,0,0,0,0,-1,944,610,0,0
-273,414,0,0,0,0,0,0,0,0,0,-1,951,610,0,0
-266,414,0,0,0,0,0,0,0,0,0,-1,958,610,0,0
-259,414,0,0,0,0,0,0,0,0,0,-1,965,610,0,0
-252,414,0,0,0,0,0,0,0,0,0,-1,972,610,0,0
-245,414,0,0,0,0,0,0,0,0,0,-1,979,610,0,0
-238,414,0,0,0,0,0,0,0,0,0,-1,986,610,0,0
-231,414,0,0,0,0,0,0,0,0,0,-1,993,610,0,0
-224,414,0,0,0,0,0,0,0,0,0,-1,1000,610,0,0
-217,414,0,0,0,0,0,0,0,0,0,-1,1007,610,0,0
-210,414,0,0,0,0,0,0,0,0,0,-1,1014,610,0,0
-203,414,0,0,0,0,0,0,0,0,0,-1,1021,610,0,0
-196,414,0,0,0,0,0,0,0,0,0,-1,1028,610,0,0
-189,414,0,0,0,0,0,0,0,0,0,-1,1035,610,0,0
-182,414,0,0,0,0,0,0,0,0,0,-1,1042,610,0,0
-175,414,0,0,0,0,0,0,0,0,0,-1,1049,610,0,0
-168,414,0,0,0,0,0,0,0,0,0,-1,1056,610,0,0
-161,414,0,0,0,0,0,0,0,0,0,-1,1063,610,0,0
-154,414,0,0,0,0,0,0,0,0,0,-1,1070,610,0,0
-147,414,0,0,0,0,0,0,0,0,0,-1,1077,610,0,0
-140,414,0,0,0,0,0,0,0,0,0,-1,1084,610,0,0
-133,414,0,0,0,0,0,0,0,0,0,-1,1091,610,0,0
-126,414,0,0,0,0,0,0,0,0,0,-1,1098,610,0,0
-119,414,0,0,0,0,0,0,0,0,0,-1,1105,610,0,0
-112,414,0,0,0,0,0,0,0,0,0,-1,1112,610,0,0
-105,414,0,0,0,0,0,0,0,0,0,-1,1119,610,0,0
-98,414,0,0,0,0,0,0,0,0,0,-1,1126,610,0,0
-91,414,0,0,0,0,0,0,0,0,0,-1,1133,610,0,0
-84,414,0,0,0,0,0,0,0,0,0,-1,1140,610,0,0
-77,414,0,0,0,0,0,0,0,0,0,-1,1147,610,0,0
-70,414,0,0,0,0,0,0,0,0,0,-1,1154,610,0,0
-63,414,0,0,0,0,0,0,0,0,0,-1,1161,610,0,0
-56,414,0,0,0,0,0,0,0,0,0,-1,1168,610,0,0
-49,414,0,0,0,0,0,0,0,0,0,-1,1175,610,0,0
-42,414,0,0,0,0,0,0,0,0,0,-1,1182,610,0,0
-35,414,0,0,0,0,0,0,0,0,0,-1,1189,610,0,0
-28,414,0,0,0,0,0,0,0,0,0,-1,1196,610,0,0
-21,414,0,0,0,0,0,0,0,0,0,-1,1203,610,0,0
-14,414,0,0,0,0,0,0,0,0,0,-1,1210,610,0,0
-7,414,0,0,0,0,0,0,0,0,0,-1,1217,610,0,0
0,414,0,0,0,0,0,0,0,0,0,-1,1224,610,0,0
7,414,0,0,0,0,0,0,0,0,0,-1,1231,610,0,0
14,414,0,0,0,0,0,0,0,0,0,-1,1238,610,0,0
21,414,0,0,0,0,0,0,0,0,0,-1,1245,610,0,0
28,414,0,0,0,0,0,0,0,0,0,-1,1252,610,0,0
35,414,0,0,0,0,0,0,0,0,0,-1,1259,610,0,0
42,414,0,0,0,0,0,0,0,0,0,-1,1266,610,0,0
49,414,0,0,0,0,0,0,0,0,0,-1,1273,610,0,0
56,414,0,0,0,0,0,0,0,0,0,-1,1280,610,0,0
63,414,0,0,0,0,0,0,0,0,0,-1,1287,610,0,0
70,414,0,0,0,0,0,0,0,0,0,-1,1294,610,0,0
77,414,0,0,0,0,0,0,0,0,0,-1,1301,610,0,0
84,414,0,0,0,0,0,0,0,0,0,-1,1308,610,0,0
91,414,0,0,0,0,0,0,0,0,0,-1,1315,610,0,0
98,414,0,0,0,0,0,0,0,0,0,-1,1322,610,0,0
105,414,0,0,0,0,0,0,0,0,0,-1,1329,610,0,0
112,414,0,0,0,0,0,0,0,0,0,-1,1336,610,0,0
119,414,0,0,0,0,0,0,0,0,0,-1,1343,610,0,0
126,414,0,0,0,0,0,0,0,0,0,-1,1350,610,0,0
133,414,0,0,0,0,0,0,0,0,0,-1,1357,610,0,0
140,414,0,0,0,0,0,0,0,0,0,-1,1364,610,0,0
147,414,0,0,0,0,0,0,0,0,0,-1,1371,610,0,0
154,414,0,0,0,0,0,0,0,0,0,-1,1378,610,0,0
161,414,0,0,0,0,0,0,0,0,0,-1,1385,610,0,0
168,414,0,0,0,0,0,0,0,0,0,-1,1392,610,0,0
175,414,0,0,0,0,0,0,0,0,0,-1,1399,610,0,0
182,414,0,0,0,0,0,0,0,0,0,-1,1406,610,0,0
189,414,0,0,0,0,0,0,0,0,0,-1,1413,610,0,0
196,414,0,0,0,0,0,0,0,0,0,-1,1420,610,0,0
203,414,0,0,0,0,0,0,0,0,0,-1,1427,610,0,0
210,414,0,0,0,0,0,0,0,0,0,-1,1434,610,0,0
217,414,0,0,0,0,0,0,0,0,0,-1,1441,610,0,0
224,414,0,0,0,0,0,0,0,0,0,-1,1448,610,0,0
231,414,0,0,0,0,0,0,0,0,0,-1,1455,610,0,0
238,414,0,0,0,0,0,0,0,0,0,-1,1462,610,0,0
245,414,0,0,0,0,0,0,0,0,0,-1,1469,610,0,0
252,414,0,0,0,0,0,0,0,0,0,-1,1476,610,0,0
259,414,0,0,0,0,0,0,0,0,0,-1,1483,610,0,0
266,414,0,0,0,0,0,0,0,0,0,-1,1490,610,0,0
273,414,0,0,0,0,0,0,0,0,0,-1,1497,610,0,0
280,414,0,0,0,0,0,0,0,0,0,-1,1504,610,0,0
287,414,0,0,0,0,0,0,0,0,0,-1,1511,610,0,0
294,414,0,0,0,0,0,0,0,0,0,-1,1518,610,0,0
301,414,0,0,0,0,0,0,0,0,0,-1,1525,610,0,0
308,414,0,0,0,0,0,0,0,0,0,-1,1532,610,0,0
315,414,0,0,0,0,0,0,0,0,0,-1,1539,610,0,0
322,414,0,0,0,0,0,0,0,0,0,-1,1546,610,0,0
329,414,0,0,0,0,0,0,0,0,0,-1,1553,610,0,0
336,414,0,0,0,0,0,0,0,0,0,-1,1560,610,0,0
343,414,0,0,0,0,0,0,0,0,0,-1,1567,610,0,0
350,414,0,0,0,0,0,0,0,0,0,-1,1574,610,0,0
357,414,0,0,0,0,0,0,0,0,0,-1,1581,610,0,0
364,414,0,0,0,0,0,0,0,0,0,-1,1588,610,0,0
371,414,0,0,0,0,0,0,0,0,0,-1,1595,610,0,0
378,414,0,0,0,0,0,0,0,0,0,-1,1602,610,0,0
385,414,0,0,0,0,0,0,0,0,0,-1,1609,610,0,0
392,414,0,0,0,0,0,0,0,0,0,-1,1616,610,0,0
399,414,0,0,0,0,0,0,0,0,0,-1,1623,610,0,0
406,414,0,0,0,0,0,0,0,0,0,-1,1630,610,0,0
413,414,0,0,0,0,0,0,0,0,0,-1,1637,610,0,0
420,414,0,0,0,0,0,0,0,0,0,-1,1644,610,0,0
427,414,0,0,0,0,0,0,0,0,0,-1,1651,610,0,0
434,414,0,0,0,0,0,0,0,0,0,-1,1658,610,0,0
441,414,7.84375,0.584412,0,0,0,0,0,0,0,-1,1665,610,7.84379,-0.584394
448,414,7.40808,1.25446,0,0,0,0,0,0,0,-1,1672,610,7.40807,-1.25446
455,414,6.3512,1.73846,0,0,0,0,0,0,0,-1,1679,610,6.3512,-1.73847
462,414,8.18103,3.22113,0,0,0,0,0,0,0,-1,1686,610,8.18108,-3.22112
469,414,8.38513,2.49579,0,0,0,0,0,0,0,-1,1693,610,8.38516,-2.49576
476,414,8.64099,1.71161,0,0,0,0,0,0,0,-1,1700,610,8.64097,-1.71164
483,414,8.62744,0.687622,0,0,0,0,0,0,0,-1,1707,610,8.62749,-0.687615
490,414,8.38831,-0.0302734,0,0,0,0,0,0,0,-1,1714,610,8.38835,0.0302913
497,414,4.71094,-0.110046,0,0,0,0,0,0,0,-1,1721,610,4.71089,0.110024
504,414,7.19568,-1.43835,0,0,0,0,0,0,0,-1,1728,610,7.19563,1.43836
511,414,5.94153,-1.28772,0,0,0,0,0,0,0,-1,1735,610,5.94151,1.28769
518,414,4.53381,-0.0996704,0,0,0,0,0,0,0,-1,1742,610,4.53378,0.0996819
525,414,6.18811,-1.64056,0,0,0,0,0,0,0,-1,1749,610,6.18814,1.64055
532,414,32.4541,-24.196,0,0,0,0,0,0,0,-1,1756,610,32.4541,24.196
539,414,123.264,-72.9857,0,0,0,0,0,0,0,-1,1763,610,123.264,72.9857
546,414,122.409,-68.6367,0.0226932,0.0236639,-0.0407322,0.0639137,-0.0175566,-0.791355,0.04951,0.046407,1770,610,122.409,68.6367
553,414,121.389,-64.5203,0.0238044,0.0232771,-0.042388,0.0659296,-0.0188481,-0.782288,0.0514009,0.0424657,1777,610,121.389,64.5203
560,414,120.299,-60.2704,0.0244235,0.0231821,-0.0439764,0.0677836,-0.020178,-0.778341,0.0532061,0.0415977,1784,610,120.299,60.2704
567,414,119.239,-56.4752,0,0,0,0,0,0,0,-1,1791,610,119.239,56.4752
574,414,118.285,-52.3914,0.0258431,0.0239161,-0.0471785,0.072068,-0.0223088,-0.775188,0.056957,0.0387965,1798,610,118.285,52.3913
581,414,117.2,-48.4366,0.0269869,0.0250794,-0.0487936,0.0748361,-0.0227698,-0.775626,0.0589648,0.0310196,1805,610,117.2,48.4366
588,414,116.068,-44.6252,0.0284636,0.026659,-0.0504485,0.0780179,-0.0228953,-0.776456,0.0610909,0.0249381,1812,610,116.068,44.6252
595,414,115.138,-40.7067,0.0302967,0.0288264,-0.052178,0.0817447,-0.0226216,-0.778354,0.0633969,0.0342068,1819,610,115.138,40.7067
602,414,114.35,-37.0794,0,0,0,0,0,0,0,-1,1826,610,114.35,37.0794
609,414,113.53,-33.2501,0,0,0,0,0,0,0,-1,1833,610,113.53,33.2501
616,414,51.8026,-23.4824,0,0,0,0,0,0,0,-1,1840,610,51.8027,23.4824
623,414,9.6969,0.0378418,0,0,0,0,0,0,0,-1,1847,610,9.69685,-0.0378644
630,414,5.47144,0.499329,0,0,0,0,0,0,0,-1,1854,610,5.47142,-0.499303
637,414,8.36707,4.16278,0,0,0,0,0,0,0,-1,1861,610,8.36709,-4.16278
644,414,5.87073,1.51422,0,0,0,0,0,0,0,-1,1868,610,5.87076,-1.51424
651,414,3.6377,0.820557,0,0,0,0,0,0,0,-1,1875,610,3.6377,-0.820543
658,414,2.29761,3.87323,0,0,0,0,0,0,0,-1,1882,610,2.29758,-3.87325
665,414,0,0,0,0,0,0,0,0,0,-1,1889,610,0,0
672,414,0,0,0,0,0,0,0,0,0,-1,1896,610,0,0
679,414,0,0,0,0,0,0,0,0,0,-1,1903,610,0,0
686,414,0,0,0,0,0,0,0,0,0,-1,1910,610,0,0
693,414,0,0,0,0,0,0,0,0,0,-1,1917,610,0,0
700,414,0,0,0,0,0,0,0,0,0,-1,1924,610,0,0
707,414,0,0,0,0,0,0,0,0,0,-1,1931,610,0,0
714,414,0,0,0,0,0,0,0,0,0,-1,1938,610,0,0
721,414,0,0,0,0,0,0,0,0,0,-1,1945,610,0,0
728,414,0,0,0,0,0,0,0,0,0,-1,1952,610,0,0
735,414,0,0,0,0,0,0,0,0,0,-1,1959,610,0,0
742,414,0,0,0,0,0,0,0,0,0,-1,1966,610,0,0
749,414,0,0,0,0,0,0,0,0,0,-1,1973,610,0,0
756,414,0,0,0,0,0,0,0,0,0,-1,1980,610,0,0
763,414,0,0,0,0,0,0,0,0,0,-1,1987,610,0,0
770,414,0,0,0,0,0,0,0,0,0,-1,1994,610,0,0
777,414,0,0,0,0,0,0,0,0,0,-1,2001,610,0,0
784,414,0,0,0,0,0,0,0,0,0,-1,2008,610,0,0
791,414,0,0,0,0,0,0,0,0,0,-1,2015,610,0,0
798,414,0,0,0,0,0,0,0,0,0,-1,2022,610,0,0
805,414,0,0,0,0,0,0,0,0,0,-1,2029,610,0,0
812,414,0,0,0,0,0,0,0,0,0,-1,2036,610,0,0
-700,407,0,0,0,0,0,0,0,0,0,-1,524,617,0,0
-693,407,0,0,0,0,0,0,0,0,0,-1,531,617,0,0
-686,407,0,0,0,0,0,0,0,0,0,-1,538,617,0,0
-679,407,0,0,0,0,0,0,0,0,0,-1,545,617,0,0
-672,407,0,0,0,0,0,0,0,0,0,-1,552,617,0,0
-665,407,0,0,0,0,0,0,0,0,0,-1,559,617,0,0
-658,407,0,0,0,0,0,0,0,0,0,-1,566,617,0,0
-651,407,0,0,0,0,0,0,0,0,0,-1,573,617,0,0
-644,407,0,0,0,0,0,0,0,0,0,-1,580,617,0,0
-637,407,0,0,0,0,0,0,0,0,0,-1,587,617,0,0
-630,407,0,0,0,0,0,0,0,0,0,-1,594,617,0,0
-623,407,0,0,0,0,0,0,0,0,0,-1,601,617,0,0
-616,407,0,0,0,0,0,0,0,0,0,-1,608,617,0,0
-609,407,0,0,0,0,0,0,0,0,0,-1,615,617,0,0
-602,407,0,0,0,0,0,0,0,0,0,-1,622,617,0,0
-595,407,0,0,0,0,0,0,0,0,0,-1,629,617,0,0
-588,407,0,0,0,0,0,0,0,0,0,-1,636,617,0,0
-581,407,0,0,0,0,0,0,0,0,0,-1,643,617,0,0
-574,407,0,0,0,0,0,0,0,0,0,-1,650,617,0,0
-567,407,0,0,0,0,0,0,0,0,0,-1,657,617,0,0
-560,407,0,0,0,0,0,0,0,0,0,-1,664,617,0,0
-553,407,0,0,0,0,0,0,0,0,0,-1,671,617,0,0
-546,407,-8.54517,-0.658142,0,0,0,0,0,0,0,-1,678,617,-8.54515,0.658112
-539,407,-6.09442,-1.01154,0,0,0,0,0,0,0,-1,685,617,-6.09441,1.01155
-532,407,-7.75665,1.62152,0,0,0,0,0,0,0,-1,692,617,-7.75667,-1.62154
-525,407,-3.78247,-2.67639,0,0,0,0,0,0,0,-1,699,617,-3.78246,2.67638
-518,407,-5.013,-5.87323,0,0,0,0,0,0,0,-1,706,617,-5.013,5.87324
-511,407,-9.42743,-4.94189,0,0,0,0,0,0,0,-1,713,617,-9.42745,4.94191
-504,407,-10.8291,-8.05927,0,0,0,0,0,0,0,-1,720,617,-10.8291,8.05927
-497,407,-9.84467,-6.81641,0,0,0,0,0,0,0,-1,727,617,-9.84468,6.8164
-490,407,-106.171,-25.8888,0,0,0,0,0,0,0,-1,734,617,-106.171,25.8888
-483,407,-107.044,-29.808,0.0335789,0.0575168,0.0556943,0.102514,-0.011418,0.89124,0.0724491,0.0449859,741,617,-107.044,29.808
-476,407,-107.843,-33.4032,0.031142,0.0513006,0.0553898,0.0975206,-0.0150781,0.875399,0.0705787,0.0240986,748,617,-107.843,33.4032
-469,407,-108.553,-37.0841,0.0292421,0.0457816,0.0545652,0.0927002,-0.0176764,0.860604,0.0684572,0.0176294,755,617,-108.553,37.0841
-462,407,-109.406,-40.8271,0.0276396,0.0406708,0.0535163,0.0880667,-0.0197563,0.845975,0.0662853,0.0262818,762,617,-109.406,40.8271
-455,407,-110.425,-44.6863,0.02624,0.0360891,0.0522374,0.0836336,-0.0213044,0.832395,0.0640493,0.0277861,769,617,-110.425,44.6863
-448,407,-111.352,-48.523,0.024945,0.0319731,0.0509213,0.0795014,-0.0225833,0.819848,0.0619171,0.0243115,776,617,-111.352,48.523
-441,407,-112.316,-52.3457,0.0237975,0.0284621,0.0495743,0.075759,-0.0234994,0.808904,0.0598959,0.0192916,783,617,-112.316,52.3457
-434,407,-113.333,-56.3218,0.0226514,0.0254014,0.0480193,0.0720654,-0.0240125,0.799711,0.0577369,0.0166942,790,617,-113.332,56.3218
-427,407,-114.379,-60.347,0.0212649,0.0230935,0.0463933,0.0685815,-0.0242232,0.795251,0.0555835,0.016903,797,617,-114.379,60.347
-420,407,-115.508,-64.3809,0.0193747,0.0215395,0.0450079,0.065478,-0.0245639,0.797421,0.0537449,0.0230101,804,617,-115.508,64.3809
-413,407,-116.727,-68.895,0,0,0,0,0,0,0,-1,811,617,-116.727,68.8951
-406,407,-60.2758,-66.5497,0,0,0,0,0,0,0,-1,818,617,-60.2757,66.5497
-399,407,-16.5686,-23.1791,0,0,0,0,0,0,0,-1,825,617,-16.5686,23.1791
-392,407,-8.33612,-12.195,0,0,0,0,0,0,0,-1,832,617,-8.33611,12.195
-385,407,-7.65765,-10.7744,0,0,0,0,0,0,0,-1,839,617,-7.65767,10.7744
-378,407,-6.08655,-7.42291,0,0,0,0,0,0,0,-1,846,617,-6.08652,7.42292
-371,407,-7.4007,-5.79449,0,0,0,0,0,0,0,-1,853,617,-7.40072,5.79447
-364,407,-10.0638,-6.6228,0,0,0,0,0,0,0,-1,860,617,-10.0639,6.62279
-357,407,-6.64447,-1.83337,0,0,0,0,0,0,0,-1,867,617,-6.64446,1.8334
-350,407,-7.03351,-1.77551,0,0,0,0,0,0,0,-1,874,617,-7.03349,1.77551
-343,407,-7.40967,-1.95026,0,0,0,0,0,0,0,-1,881,617,-7.40969,1.95026
-336,407,-8.10229,-2.40662,0,0,0,0,0,0,0,-1,888,617,-8.10229,2.40664
-329,407,-8.81232,-2.76331,0,0,0,0,0,0,0,-1,895,617,-8.81235,2.76331
-322,407,0,0,0,0,0,0,0,0,0,-1,902,617,0,0
-315,407,0,0,0,0,0,0,0,0,0,-1,909,617,0,0
-308,407,0,0,0,0,0,0,0,0,0,-1,916,617,0,0
-301,407,0,0,0,0,0,0,0,0,0,-1,923,617,0,0
-294,407,0,0,0,0,0,0,0,0,0,-1,930,617,0,0
-287,407,0,0,0,0,0,0,0,0,0,-1,937,617,0,0
-280,407,0,0,0,0,0,0,0,0,0,-1,944,617,0,0
-273,407,0,0,0,0,0,0,0,0,0,-1,951,617,0,0
-266,407,0,0,0,0,0,0,0,0,0,-1,958,617,0,0
-259,407,0,0,0,0,0,0,0,0,0,-1,965,617,0,0
-252,407,0,0,0,0,0,0,0,0,0,-1,972,617,0,0
-245,407,0,0,0,0,0,0,0,0,0,-1,979,617,0,0
-238,407,0,0,0,0,0,0,0,0,0,-1,986,617,0,0
-231,407,0,0,0,0,0,0,0,0,0,-1,993,617,0,0
-224,407,0,0,0,0,0,0,0,0,0,-1,1000,617,0,0
-217,407,0,0,0,0,0,0,0,0,0,-1,1007,617,0,0
-210,407,0,0,0,0,0,0,0,0,0,-1,1014,617,0,0
-203,407,0,0,0,0,0,0,0,0,0,-1,1021,617,0,0
-196,407,0,0,0,0,0,0,0,0,0,-1,1028,617,0,0
-189,407,0,0,0,0,0,0,0,0,0,-1,1035,617,0,0
-182,407,0,0,0,0,0,0,0,0,0,-1,1042,617,0,0
-175,407,0,0,0,0,0,0,0,0,0,-1,1049,617,0,0
-168,407,0,0,0,0,0,0,0,0,0,-1,1056,617,0,0
-161,407,0,0,0,0,0,0,0,0,0,-1,1063,617,0,0
-154,407,0,0,0,0,0,0,0,0,0,-1,1070,617,0,0
-147,407,0,0,0,0,0,0,0,0,0,-1,1077,617,0,0
-140,407,0,0,0,0,0,0,0,0,0,-1,1084,617,0,0
-133,407,0,0,0,0,0,0,0,0,0,-1,1091,617,0,0
-126,407,0,0,0,0,0,0,0,0,0,-1,1098,617,0,0
-119,407,0,0,0,0,0,0,0,0,0,-1,1105,617,0,0
-112,407,0,0,0,0,0,0,0,0,0,-1,1112,617,0,0
-105,407,0,0,0,0,0,0,0,0,0,-1,1119,617,0,0
-98,407,0,0,0,0,0,0,0,0,0,-1,1126,617,0,0
-91,407,0,0,0,0,0,0,0,0,0,-1,1133,617,0,0
-84,407,0,0,0,0,0,0,0,0,0,-1,1140,617,0,0
-77,407,0,0,0,0,0,0,0,0,0,-1,1147,617,0,0
-70,407,0,0,0,0,0,0,0,0,0,-1,1154,617,0,0
-63,407,0,0,0,0,0,0,0,0,0,-1,1161,617,0,0
-56,407,0,0,0,0,0,0,0,0,0,-1,1168,617,0,0
-49,407,0,0,0,0,0,0,0,0,0,-1,1175,617,0,0
-42,407,0,0,0,0,0,0,0,0,0,-1,1182,617,0,0
-35,407,0,0,0,0,0,0,0,0,0,-1,1189,617,0,0
-28,407,0,0,0,0,0,0,0,0,0,-1,1196,617,0,0
-21,407,0,0,0,0,0,0,0,0,0,-1,1203,617,0,0
-14,407,0,0,0,0,0,0,0,0,0,-1,1210,617,0,0
-7,407,0,0,0,0,0,0,0,0,0,-1,1217,617,0,0
0,407,0,0,0,0,0,0,0,0,0,-1,1224,617,0,0
7,407,0,0,0,0,0,0,0,0,0,-1,1231,617,0,0
14,407,0,0,0,0,0,0,0,0,0,-1,1238,617,0,0
21,407,0,0,0,0,0,0,0,0,0,-1,1245,617,0,0
28,407,0,0,0,0,0,0,0,0,0,-1,1252,617,0,0
35,407,0,0,0,0,0,0,0,0,0,-1,1259,617,0,0
42,407,0,0,0,0,0,0,0,0,0,-1,1266,617,0,0
49,407,0,0,0,0,0,0,0,0,0,-1,1273,617,0,0
56,407,0,0,0,0,0,0,0,0,0,-1,1280,617,0,0
63,407,0,0,0,0,0,0,0,0,0,-1,1287,617,0,0
70,407,0,0,0,0,0,0,0,0,0,-1,1294,617,0,0
77,407,0,0,0,0,0,0,0,0,0,-1,1301,617,0,0
84,407,0,0,0,0,0,0,0,0,0,-1,1308,617,0,0
91,407,0,0,0,0,0,0,0,0,0,-1,1315,617,0,0
98,407,0,0,0,0,0,0,0,0,0,-1,1322,617,0,0
105,407,0,0,0,0,0,0,0,0,0,-1,1329,617,0,0
112,407,0,0,0,0,0,0,0,0,0,-1,1336,617,0,0
119,407,0,0,0,0,0,0,0,0,0,-1,1343,617,0,0
126,407,0,0,0,0,0,0,0,0,0,-1,1350,617,0,0
133,407,0,0,0,0,0,0,0,0,0,-1,1357,617,0,0
140,407,0,0,0,0,0,0,0,0,0,-1,1364,617,0,0
147,407,0,0,0,0,0,0,0,0,0,-1,1371,617,0,0
154,407,0,0,0,0,0,0,0,0,0,-1,1378,617,0,0
161,407,0,0,0,0,0,0,0,0,0,-1,1385,617,0,0
168,407,0,0,0,0,0,0,0,0,0,-1,1392,617,0,0
175,407,0,0,0,0,0,0,0,0,0,-1,1399,617,0,0
182,407,0,0,0,0,0,0,0,0,0,-1,1406,617,0,0
189,407,0,0,0,0,0,0,0,0,0,-1,1413,617,0,0
196,407,0,0,0,0,0,0,0,0,0,-1,1420,617,0,0
203,407,0,0,0,0,0,0,0,0,0,-1,1427,617,0,0
210,407,0,0,0,0,0,0,0,0,0,-1,1434,617,0,0
217,407,0,0,0,0,0,0,0,0,0,-1,1441,617,0,0
224,407,0,0,0,0,0,0,0,0,0,-1,1448,617,0,0
231,407,0,0,0,0,0,0,0,0,0,-1,1455,617,0,0
238,407,0,0,0,0,0,0,0,0,0,-1,1462,617,0,0
245,407,0,0,0,0,0,0,0,0,0,-1,1469,617,0,0
252,407,0,0,0,0,0,0,0,0,0,-1,1476,617,0,0
259,407,0,0,0,0,0,0,0,0,0,-1,1483,617,0,0
266,407,0,0,0,0,0,0,0,0,0,-1,1490,617,0,0
273,407,0,0,0,0,0,0,0,0,0,-1,1497,617,0,0
280,407,0,0,0,0,0,0,0,0,0,-1,1504,617,0,0
287,407,0,0,0,0,0,0,0,0,0,-1,1511,617,0,0
294,407,0,0,0,0,0,0,0,0,0,-1,1518,617,0,0
301,407,0,0,0,0,0,0,0,0,0,-1,1525,617,0,0
308,407,0,0,0,0,0,0,0,0,0,-1,1532,617,0,0
315,407,0,0,0,0,0,0,0,0,0,-1,1539,617,0,0
322,407,0,0,0,0,0,0,0,0,0,-1,1546,617,0,0
329,407,0,0,0,0,0,0,0,0,0,-1,1553,617,0,0
336,407,0,0,0,0,0,0,0,0,0,-1,1560,617,0,0
343,407,0,0,0,0,0,0,0,0,0,-1,1567,617,0,0
350,407,0,0,0,0,0,0,0,0,0,-1,1574,617,0,0
357,407,0,0,0,0,0,0,0,0,0,-1,1581,617,0,0
364,407,0,0,0,0,0,0,0,0,0,-1,1588,617,0,0
371,407,0,0,0,0,0,0,0,0,0,-1,1595,617,0,0
378,407,0,0,0,0,0,0,0,0,0,-1,1602,617,0,0
385,407,0,0,0,0,0,0,0,0,0,-1,1609,617,0,0
392,407,0,0,0,0,0,0,0,0,0,-1,1616,617,0,0
399,407,0,0,0,0,0,0,0,0,0,-1,1623,617,0,0
406,407,0,0,0,0,0,0,0,0,0,-1,1630,617,0,0
413,407,0,0,0,0,0,0,0,0,0,-1,1637,617,0,0
420,407,0,0,0,0,0,0,0,0,0,-1,1644,617,0,0
427,407,0,0,0,0,0,0,0,0,0,-1,1651,617,0,0
434,407,0,0,0,0,0,0,0,0,0,-1,1658,617,0,0
441,407,0,0,0,0,0,0,0,0,0,-1,1665,617,0,0
448,407,7.02893,2.13843,0,0,0,0,0,0,0,-1,1672,617,7.02899,-2.13844
455,407,7.55237,2.29242,0,0,0,0,0,0,0,-1,1679,617,7.55236,-2.29244
462,407,8.2926,2.46173,0,0,0,0,0,0,0,-1,1686,617,8.29261,-2.46174
469,407,8.71509,2.22681,0,0,0,0,0,0,0,-1,1693,617,8.71511,-2.22681
476,407,8.89917,1.47766,0,0,0,0,0,0,0,-1,1700,617,8.89914,-1.47768
483,407,9.02612,0.682983,0,0,0,0,0,0,0,-1,1707,617,9.02608,-0.683004
490,407,9.12659,0.000671387,0,0,0,0,0,0,0,-1,1714,617,9.12653,-0.000675931
497,407,7.76819,0.855835,0,0,0,0,0,0,0,-1,1721,617,7.7682,-0.855865
504,407,4.69336,0.160706,0,0,0,0,0,0,0,-1,1728,617,4.69337,-0.1607
511,407,4.07104,-0.00140381,0,0,0,0,0,0,0,-1,1735,617,4.07109,0.00141425
518,407,6.09534,1.9411,0,0,0,0,0,0,0,-1,1742,617,6.09532,-1.94113
525,407,5.72534,-1.35986,0,0,0,0,0,0,0,-1,1749,617,5.72529,1.35988
532,407,18.5767,-10.6388,0,0,0,0,0,0,0,-1,1756,617,18.5766,10.6388
539,407,70.3644,-66.1935,0,0,0,0,0,0,0,-1,1763,617,70.3643,66.1935
546,407,126.923,-67.5269,0,0,0,0,0,0,0,-1,1770,617,126.923,67.5268
553,407,125.982,-63.5161,0,0,0,0,0,0,0,-1,1777,617,125.982,63.5161
560,407,124.698,-58.9559,0,0,0,0,0,0,0,-1,1784,617,124.698,58.956
567,407,121.282,-54.4219,0,0,0,0,0,0,0,-1,1791,617,121.282,54.4219
574,407,122.834,-50.8162,0,0,0,0,0,0,0,-1,1798,617,122.834,50.8162
581,407,121.42,-46.9395,0.0227425,0.0249861,-0.0453785,0.0692567,-0.0215281,-0.797756,0.0547759,0.0430649,1805,617,121.42,46.9394
588,407,120.453,-43.3032,0.0239059,0.0265677,-0.0473927,0.0726482,-0.0221745,-0.799436,0.0572728,0.0339439,1812,617,120.453,43.3032
595,407,119.293,-39.3038,0,0,0,0,0,0,0,-1,1819,617,119.293,39.3038
602,407,118.638,-35.7938,0,0,0,0,0,0,0,-1,1826,617,118.638,35.7938
609,407,118.168,-32.0908,0,0,0,0,0,0,0,-1,1833,617,118.168,32.0907
616,407,117.538,-28.7178,0,0,0,0,0,0,0,-1,1840,617,117.538,28.7178
623,407,53.5945,-21.0079,0,0,0,0,0,0,0,-1,1847,617,53.5945,21.0078
630,407,7.06177,0.814575,0,0,0,0,0,0,0,-1,1854,617,7.06178,-0.814579
637,407,11.1063,0.391846,0,0,0,0,0,0,0,-1,1861,617,11.1063,-0.391862
644,407,5.09766,2.27747,0,0,0,0,0,0,0,-1,1868,617,5.09764,-2.27746
651,407,7.37524,0.0513916,0,0,0,0,0,0,0,-1,1875,617,7.3752,-0.0513923
658,407,3.76685,0.594177,0,0,0,0,0,0,0,-1,1882,617,3.76683,-0.594184
665,407,5.76123,0.375061,0,0,0,0,0,0,0,-1,1889,617,5.76118,-0.37509
672,407,0,0,0,0,0,0,0,0,0,-1,1896,617,0,0
679,407,0,0,0,0,0,0,0,0,0,-1,1903,617,0,0
686,407,0,0,0,0,0,0,0,0,0,-1,1910,617,0,0
693,407,0,0,0,0,0,0,0,0,0,-1,1917,617,0,0
700,407,0,0,0,0,0,0,0,0,0,-1,1924,617,0,0
707,407,0,0,0,0,0,0,0,0,0,-1,1931,617,0,0
714,407,0,0,0,0,0,0,0,0,0,-1,1938,617,0,0
721,407,0,0,0,0,0,0,0,0,0,-1,1945,617,0,0
728,407,0,0,0,0,0,0,0,0,0,-1,1952,617,0,0
735,407,0,0,0,0,0,0,0,0,0,-1,1959,617,0,0
742,407,0,0,0,0,0,0,0,0,0,-1,1966,617,0,0
749,407,0,0,0,0,0,0,0,0,0,-1,1973,617,0,0
756,407,0,0,0,0,0,0,0,0,0,-1,1980,617,0,0
763,407,0,0,0,0,0,0,0,0,0,-1,1987,617,0,0
770,407,0,0,0,0,0,0,0,0,0,-1,1994,617,0,0
777,407,0,0,0,0,0,0,0,0,0,-1,2001,617,0,0
784,407,0,0,0,0,0,0,0,0,0,-1,2008,617,0,0
791,407,0,0,0,0,0,0,0,0,0,-1,2015,617,0,0
798,407,0,0,0,0,0,0,0,0,0,-1,2022,617,0,0
805,407,0,0,0,0,0,0,0,0,0,-1,2029,617,0,0
812,407,0,0,0,0,0,0,0,0,0,-1,2036,617,0,0
-700,400,0,0,0,0,0,0,0,0,0,-1,524,624,0,0
-693,400,0,0,0,0,0,0,0,0,0,-1,531,624,0,0
-686,400,0,0,0,0,0,0,0,0,0,-1,538,624,0,0
-679,400,0,0,0,0,0,0,0,0,0,-1,545,624,0,0
-672,400,0,0,0,0,0,0,0,0,0,-1,552,624,0,0
-665,400,0,0,0,0,0,0,0,0,0,-1,559,624,0,0
-658,400,0,0,0,0,0,0,0,0,0,-1,566,624,0,0
-651,400,0,0,0,0,0,0,0,0,0,-1,573,624,0,0
-644,400,0,0,0,0,0,0,0,0,0,-1,580,624,0,0
-637,400,0,0,0,0,0,0,0,0,0,-1,587,624,0,0
-630,400,0,0,0,0,0,0,0,0,0,-1,594,624,0,0
-623,400,0,0,0,0,0,0,0,0,0,-1,601,624,0,0
-616,400,0,0,0,0,0,0,0,0,0,-1,608,624,0,0
-609,400,0,0,0,0,0,0,0,0,0,-1,615,624,0,0
-602,400,0,0,0,0,0,0,0,0,0,-1,622,624,0,0
-595,400,0,0,0,0,0,0,0,0,0,-1,629,624,0,0
-588,400,0,0,0,0,0,0,0,0,0,-1,636,624,0,0
-581,400,0,0,0,0,0,0,0,0,0,-1,643,624,0,0
-574,400,0,0,0,0,0,0,0,0,0,-1,650,624,0,0
-567,400,0,0,0,0,0,0,0,0,0,-1,657,624,0,0
-560,400,0,0,0,0,0,0,0,0,0,-1,664,624,0,0
-553,400,0,0,0,0,0,0,0,0,0,-1,671,624,0,0
-546,400,-8.41174,-1.4599,0,0,0,0,0,0,0,-1,678,624,-8.41173,1.45989
-539,400,-5.69104,-1.7337,0,0,0,0,0,0,0,-1,685,624,-5.69103,1.7337
-532,400,-3.03632,-2.03912,0,0,0,0,0,0,0,-1,692,624,-3.03632,2.03909
-525,400,-6.20813,-7.04071,0,0,0,0,0,0,0,-1,699,624,-6.20814,7.04071
-518,400,-5.26544,-1.58661,0,0,0,0,0,0,0,-1,706,624,-5.26544,1.58658
-511,400,-10.6307,-6.7121,0,0,0,0,0,0,0,-1,713,624,-10.6307,6.71209
-504,400,-10.2663,-6.55109,0,0,0,0,0,0,0,-1,720,624,-10.2663,6.55106
-497,400,-37.1384,-17.8541,0,0,0,0,0,0,0,-1,727,624,-37.1384,17.8541
-490,400,-110.492,-24.95,0,0,0,0,0,0,0,-1,734,624,-110.492,24.95
-483,400,-111.386,-28.7387,0.0300766,0.0536627,0.0535039,0.0966579,-0.0129185,0.893871,0.0691482,0.0220395,741,624,-111.386,28.7387
-476,400,-112.148,-32.3641,0.0275803,0.0479047,0.0530452,0.0917524,-0.0162674,0.880039,0.0672498,0.0181784,748,624,-112.148,32.3641
-469,400,-113.004,-35.9928,0.0255648,0.0426965,0.0521844,0.0870134,-0.0187521,0.866746,0.0651653,0.0208639,755,624,-113.004,35.9928
-462,400,-113.922,-39.705,0.023849,0.0378851,0.0510482,0.0823954,-0.0206613,0.853709,0.0629578,0.0242847,762,624,-113.922,39.705
-455,400,-114.758,-43.3741,0.0223266,0.0335514,0.0496844,0.0779393,-0.0220614,0.84164,0.0606655,0.0253929,769,624,-114.758,43.3741
-448,400,-115.756,-47.1343,0.0209664,0.0296645,0.048245,0.0737561,-0.0231252,0.830349,0.0584251,0.020496,776,624,-115.756,47.1343
-441,400,-116.758,-50.9676,0.0198015,0.0264294,0.0467085,0.0699414,-0.0237105,0.820814,0.0562231,0.0188835,783,624,-116.758,50.9676
-434,400,-117.826,-54.9379,0.0187017,0.0237479,0.0449128,0.0662085,-0.0237588,0.813457,0.0538355,0.0198158,790,624,-117.826,54.9379
-427,400,-118.868,-59.0709,0.017523,0.0218472,0.0430782,0.0628175,-0.0234473,0.810472,0.051505,0.0282564,797,624,-118.868,59.0708
-420,400,-120.091,-62.9629,0,0,0,0,0,0,0,-1,804,624,-120.091,62.9629
-413,400,-63.7141,-63.7772,0,0,0,0,0,0,0,-1,811,624,-63.7141,63.7772
-406,400,-20.0208,-25.2792,0,0,0,0,0,0,0,-1,818,624,-20.0208,25.2792
-399,400,-11.0176,-13.2944,0,0,0,0,0,0,0,-1,825,624,-11.0176,13.2944
-392,400,-4.92285,-6.63354,0,0,0,0,0,0,0,-1,832,624,-4.92285,6.63354
-385,400,-3.68738,-5.04205,0,0,0,0,0,0,0,-1,839,624,-3.68736,5.04207
-378,400,-6.84064,-1.28662,0,0,0,0,0,0,0,-1,846,624,-6.84062,1.28662
-371,400,-6.98865,-1.2572,0,0,0,0,0,0,0,-1,853,624,-6.98865,1.25721
-364,400,-6.97247,-1.24133,0,0,0,0,0,0,0,-1,860,624,-6.97249,1.24135
-357,400,-7.18329,-1.23218,0,0,0,0,0,0,0,-1,867,624,-7.18327,1.2322
-350,400,-7.40186,-1.19409,0,0,0,0,0,0,0,-1,874,624,-7.40187,1.19407
-343,400,-8.09357,-1.51147,0,0,0,0,0,0,0,-1,881,624,-8.09355,1.51148
-336,400,0,0,0,0,0,0,0,0,0,-1,888,624,0,0
-329,400,0,0,0,0,0,0,0,0,0,-1,895,624,0,0
-322,400,0,0,0,0,0,0,0,0,0,-1,902,624,0,0
-315,400,0,0,0,0,0,0,0,0,0,-1,909,624,0,0
-308,400,0,0,0,0,0,0,0,0,0,-1,916,624,0,0
-301,400,0,0,0,0,0,0,0,0,0,-1,923,624,0,0
-294,400,0,0,0,0,0,0,0,0,0,-1,930,624,0,0
-287,400,0,0,0,0,0,0,0,0,0,-1,937,624,0,0
-280,400,0,0,0,0,0,0,0,0,0,-1,944,624,0,0
-273,400,0,0,0,0,0,0,0,0,0,-1,951,624,0,0
-266,400,0,0,0,0,0,0,0,0,0,-1,958,624,0,0
-259,400,0,0,0,0,0,0,0,0,0,-1,965,624,0,0
-252,400,0,0,0,0,0,0,0,0,0,-1,972,624,0,0
-245,400,0,0,0,0,0,0,0,0,0,-1,979,624,0,0
-238,400,0,0,0,0,0,0,0,0,0,-1,986,624,0,0
-231,400,0,0,0,0,0,0,0,0,0,-1,993,624,0,0
-224,400,0,0,0,0,0,0,0,0,0,-1,1000,624,0,0
-217,400,0,0,0,0,0,0,0,0,0,-1,1007,624,0,0
-210,400,0,0,0,0,0,0,0,0,0,-1,1014,624,0,0
-203,400,0,0,0,0,0,0,0,0,0,-1,1021,624,0,0
-196,400,0,0,0,0,0,0,0,0,0,-1,1028,624,0,0
-189,400,0,0,0,0,0,0,0,0,0,-1,1035,624,0,0
-182,400,0,0,0,0,0,0,0,0,0,-1,1042,624,0,0
-175,400,0,0,0,0,0,0,0,0,0,-1,1049,624,0,0
-168,400,0,0,0,0,0,0,0,0,0,-1,1056,624,0,0
-161,400,0,0,0,0,0,0,0,0,0,-1,1063,624,0,0
-154,400,0,0,0,0,0,0,0,0,0,-1,1070,624,0,0
-147,400,0,0,0,0,0,0,0,0,0,-1,1077,624,0,0
-140,400,0,0,0,0,0,0,0,0,0,-1,1084,624,0,0
-133,400,0,0,0,0,0,0,0,0,0,-1,1091,624,0,0
-126,400,0,0,0,0,0,0,0,0,0,-1,1098,624,0,0
-119,400,0,0,0,0,0,0,0,0,0,-1,1105,624,0,0
-112,400,0,0,0,0,0,0,0,0,0,-1,1112,624,0,0
-105,400,0,0,0,0,0,0,0,0,0,-1,1119,624,0,0
-98,400,0,0,0,0,0,0,0,0,0,-1,1126,624,0,0
-91,400,0,0,0,0,0,0,0,0,0,-1,1133,624,0,0
-84,400,0,0,0,0,0,0,0,0,0,-1,1140,624,0,0
-77,400,0,0,0,0,0,0,0,0,0,-1,1147,624,0,0
-70,400,0,0,0,0,0,0,0,0,0,-1,1154,624,0,0
-63,400,0,0,0,0,0,0,0,0,0,-1,1161,624,0,0
-56,400,0,0,0,0,0,0,0,0,0,-1,1168,624,0,0
-49,400,0,0,0,0,0,0,0,0,0,-1,1175,624,0,0
-42,400,0,0,0,0,0,0,0,0,0,-1,1182,624,0,0
-35,400,0,0,0,0,0,0,0,0,0,-1,1189,624,0,0
-28,400,0,0,0,0,0,0,0,0,0,-1,1196,624,0,0
-21,400,0,0,0,0,0,0,0,0,0,-1,1203,624,0,0
-14,400,0,0,0,0,0,0,0,0,0,-1,1210,624,0,0
-7,400,0,0,0,0,0,0,0,0,0,-1,1217,624,0,0
0,400,0,0,0,0,0,0,0,0,0,-1,1224,624,0,0
7,400,0,0,0,0,0,0,0,0,0,-1,1231,624,0,0
14,400,0,0,0,0,0,0,0,0,0,-1,1238,624,0,0
21,400,0,0,0,0,0,0,0,0,0,-1,1245,624,0,0
28,400,0,0,0,0,0,0,0,0,0,-1,1252,624,0,0
35,400,0,0,0,0,0,0,0,0,0,-1,1259,624,0,0
42,400,0,0,0,0,0,0,0,0,0,-1,1266,624,0,0
49,400,0,0,0,0,0,0,0,0,0,-1,1273,624,0,0
56,400,0,0,0,0,0,0,0,0,0,-1,1280,624,0,0
63,400,0,0,0,0,0,0,0,0,0,-1,1287,624,0,0
70,400,0,0,0,0,0,0,0,0,0,-1,1294,624,0,0
77,400,0,0,0,0,0,0,0,0,0,-1,1301,624,0,0
84,400,0,0,0,0,0,0,0,0,0,-1,1308,624,0,0
91,400,0,0,0,0,0,0,0,0,0,-1,1315,624,0,0
98,400,0,0,0,0,0,0,0,0,0,-1,1322,624,0,0
105,400,0,0,0,0,0,0,0,0,0,-1,1329,624,0,0
112,400,0,0,0,0,0,0,0,0,0,-1,1336,624,0,0
119,400,0,0,0,0,0,0,0,0,0,-1,1343,624,0,0
126,400,0,0,0,0,0,0,0,0,0,-1,1350,624,0,0
133,400,0,0,0,0,0,0,0,0,0,-1,1357,624,0,0
140,400,0,0,0,0,0,0,0,0,0,-1,1364,624,0,0
147,400,0,0,0,0,0,0,0,0,0,-1,1371,624,0,0
154,400,0,0,0,0,0,0,0,0,0,-1,1378,624,0,0
161,400,0,0,0,0,0,0,0,0,0,-1,1385,624,0,0
168,400,0,0,0,0,0,0,0,0,0,-1,1392,624,0,0
175,400,0,0,0,0,0,0,0,0,0,-1,1399,624,0,0
182,400,0,0,0,0,0,0,0,0,0,-1,1406,624,0,0
189,400,0,0,0,0,0,0,0,0,0,-1,1413,624,0,0
196,400,0,0,0,0,0,0,0,0,0,-1,1420,624,0,0
203,400,0,0,0,0,0,0,0,0,0,-1,1427,624,0,0
210,400,0,0,0,0,0,0,0,0,0,-1,1434,624,0,0
217,400,0,0,0,0,0,0,0,0,0,-1,1441,624,0,0
224,400,0,0,0,0,0,0,0,0,0,-1,1448,624,0,0
231,400,0,0,0,0,0,0,0,0,0,-1,1455,624,0,0
238,400,0,0,0,0,0,0,0,0,0,-1,1462,624,0,0
245,400,0,0,0,0,0,0,0,0,0,-1,1469,624,0,0
252,400,0,0,0,0,0,0,0,0,0,-1,1476,624,0,0
259,400,0,0,0,0,0,0,0,0,0,-1,1483,624,0,0
266,400,0,0,0,0,0,0,0,0,0,-1,1490,624,0,0
273,400,0,0,0,0,0,0,0,0,0,-1,1497,624,0,0
280,400,0,0,0,0,0,0,0,0,0,-1,1504,624,0,0
287,400,0,0,0,0,0,0,0,0,0,-1,1511,624,0,0
294,400,0,0,0,0,0,0,0,0,0,-1,1518,624,0,0
301,400,0,0,0,0,0,0,0,0,0,-1,1525,624,0,0
308,400,0,0,0,0,0,0,0,0,0,-1,1532,624,0,0
315,400,0,0,0,0,0,0,0,0,0,-1,1539,624,0,0
322,400,0,0,0,0,0,0,0,0,0,-1,1546,624,0,0
329,400,0,0,0,0,0,0,0,0,0,-1,1553,624,0,0
336,400,0,0,0,0,0,0,0,0,0,-1,1560,624,0,0
343,400,0,0,0,0,0,0,0,0,0,-1,1567,624,0,0
350,400,0,0,0,0,0,0,0,0,0,-1,1574,624,0,0
357,400,0,0,0,0,0,0,0,0,0,-1,1581,624,0,0
364,400,0,0,0,0,0,0,0,0,0,-1,1588,624,0,0
371,400,0,0,0,0,0,0,0,0,0,-1,1595,624,0,0
378,400,0,0,0,0,0,0,0,0,0,-1,1602,624,0,0
385,400,0,0,0,0,0,0,0,0,0,-1,1609,624,0,0
392,400,0,0,0,0,0,0,0,0,0,-1,1616,624,0,0
399,400,0,0,0,0,0,0,0,0,0,-1,1623,624,0,0
406,400,0,0,0,0,0,0,0,0,0,-1,1630,624,0,0
413,400,0,0,0,0,0,0,0,0,0,-1,1637,624,0,0
420,400,0,0,0,0,0,0,0,0,0,-1,1644,624,0,0
427,400,0,0,0,0,0,0,0,0,0,-1,1651,624,0,0
434,400,0,0,0,0,0,0,0,0,0,-1,1658,624,0,0
441,400,0,0,0,0,0,0,0,0,0,-1,1665,624,0,0
448,400,0,0,0,0,0,0,0,0,0,-1,1672,624,0,0
455,400,8.91309,2.75885,0,0,0,0,0,0,0,-1,1679,624,8.91312,-2.75885
462,400,8.90356,2.37878,0,0,0,0,0,0,0,-1,1686,624,8.90353,-2.37878
469,400,9.14429,1.76849,0,0,0,0,0,0,0,-1,1693,624,9.14432,-1.76847
476,400,9.23254,1.25995,0,0,0,0,0,0,0,-1,1700,624,9.23252,-1.25994
483,400,9.59766,0.562439,0,0,0,0,0,0,0,-1,1707,624,9.59771,-0.56242
490,400,9.92578,-0.213745,0,0,0,0,0,0,0,-1,1714,624,9.92579,0.21376
497,400,9.19141,0.175232,0,0,0,0,0,0,0,-1,1721,624,9.19138,-0.175209
504,400,9.23438,0.00823975,0,0,0,0,0,0,0,-1,1728,624,9.23436,-0.00823766
511,400,6.16687,3.3501,0,0,0,0,0,0,0,-1,1735,624,6.16682,-3.35007
518,400,6.55237,1.74994,0,0,0,0,0,0,0,-1,1742,624,6.55236,-1.74993
525,400,6.99731,1.08783,0,0,0,0,0,0,0,-1,1749,624,6.99736,-1.08785
532,400,6.96582,-1.74982,0,0,0,0,0,0,0,-1,1756,624,6.96585,1.74983
539,400,21.2305,-10.5841,0,0,0,0,0,0,0,-1,1763,624,21.2304,10.5841
546,400,73.1659,-62.1676,0,0,0,0,0,0,0,-1,1770,624,73.1659,62.1676
553,400,114.791,-63.8492,0,0,0,0,0,0,0,-1,1777,624,114.791,63.8492
560,400,129.573,-58.8965,0,0,0,0,0,0,0,-1,1784,624,129.573,58.8965
567,400,128.182,-53.4771,0,0,0,0,0,0,0,-1,1791,624,128.182,53.4771
574,400,126.938,-49.6708,0,0,0,0,0,0,0,-1,1798,624,126.939,49.6708
581,400,125.719,-45.5555,0,0,0,0,0,0,0,-1,1805,624,125.719,45.5555
588,400,124.872,-42.0208,0,0,0,0,0,0,0,-1,1812,624,124.872,42.0208
595,400,123.601,-38.1758,0,0,0,0,0,0,0,-1,1819,624,123.601,38.1758
602,400,123.117,-34.6938,0,0,0,0,0,0,0,-1,1826,624,123.117,34.6938
609,400,122.452,-31.2097,0.0230242,0.0346216,-0.0510526,0.0802038,-0.022558,-0.841947,0.0623636,0.0312658,1833,624,122.452,31.2097
616,400,121.705,-27.728,0.0242823,0.0387202,-0.0537793,0.0857629,-0.0227604,-0.852116,0.0660818,0.0376854,1840,624,121.705,27.728
623,400,120.876,-24.0371,0,0,0,0,0,0,0,-1,1847,624,120.876,24.0371
630,400,11.9432,0.09021,0,0,0,0,0,0,0,-1,1854,624,11.9432,-0.0902007
637,400,6.92896,1.01917,0,0,0,0,0,0,0,-1,1861,624,6.92899,-1.01918
644,400,8.65381,1.4599,0,0,0,0,0,0,0,-1,1868,624,8.65379,-1.45991
651,400,7.90601,0.424072,0,0,0,0,0,0,0,-1,1875,624,7.90598,-0.424097
658,400,8.69031,1.0484,0,0,0,0,0,0,0,-1,1882,624,8.6903,-1.0484
665,400,5.98438,0.522522,0,0,0,0,0,0,0,-1,1889,624,5.98442,-0.522552
672,400,0,0,0,0,0,0,0,0,0,-1,1896,624,0,0
679,400,0,0,0,0,0,0,0,0,0,-1,1903,624,0,0
686,400,0,0,0,0,0,0,0,0,0,-1,1910,624,0,0
693,400,0,0,0,0,0,0,0,0,0,-1,1917,624,0,0
700,400,0,0,0,0,0,0,0,0,0,-1,1924,624,0,0
707,400,0,0,0,0,0,0,0,0,0,-1,1931,624,0,0
714,400,0,0,0,0,0,0,0,0,0,-1,1938,624,0,0
721,400,0,0,0,0,0,0,0,0,0,-1,1945,624,0,0
728,400,0,0,0,0,0,0,0,0,0,-1,1952,624,0,0
735,400,0,0,0,0,0,0,0,0,0,-1,1959,624,0,0
742,400,0,0,0,0,0,0,0,0,0,-1,1966,624,0,0
749,400,0,0,0,0,0,0,0,0,0,-1,1973,624,0,0
756,400,0,0,0,0,0,0,0,0,0,-1,1980,624,0,0
763,400,0,0,0,0,0,0,0,0,0,-1,1987,624,0,0
770,400,0,0,0,0,0,0,0,0,0,-1,1994,624,0,0
777,400,0,0,0,0,0,0,0,0,0,-1,2001,624,0,0
784,400,0,0,0,0,0,0,0,0,0,-1,2008,624,0,0
791,400,0,0,0,0,0,0,0,0,0,-1,2015,624,0,0
798,400,0,0,0,0,0,0,0,0,0,-1,2022,624,0,0
805,400,0,0,0,0,0,0,0,0,0,-1,2029,624,0,0
812,400,0,0,0,0,0,0,0,0,0,-1,2036,624,0,0
-700,393,0,0,0,0,0,0,0,0,0,-1,524,631,0,0
-693,393,0,0,0,0,0,0,0,0,0,-1,531,631,0,0
-686,393,0,0,0,0,0,0,0,0,0,-1,538,631,0,0
-679,393,0,0,0,0,0,0,0,0,0,-1,545,631,0,0
-672,393,0,0,0,0,0,0,0,0,0,-1,552,631,0,0
-665,393,0,0,0,0,0,0,0,0,0,-1,559,631,0,0
-658,393,0,0,0,0,0,0,0,0,0,-1,566,631,0,0
-651,393,0,0,0,0,0,0,0,0,0,-1,573,631,0,0
-644,393,0,0,0,0,0,0,0,0,0,-1,580,631,0,0
-637,393,0,0,0,0,0,0,0,0,0,-1,587,631,0,0
-630,393,0,0,0,0,0,0,0,0,0,-1,594,631,0,0
-623,393,0,0,0,0,0,0,0,0,0,-1,601,631,0,0
-616,393,0,0,0,0,0,0,0,0,0,-1,608,631,0,0
-609,393,0,0,0,0,0,0,0,0,0,-1,615,631,0,0
-602,393,0,0,0,0,0,0,0,0,0,-1,622,631,0,0
-595,393,0,0,0,0,0,0,0,0,0,-1,629,631,0,0
-588,393,0,0,0,0,0,0,0,0,0,-1,636,631,0,0
-581,393,0,0,0,0,0,0,0,0,0,-1,643,631,0,0
-574,393,0,0,0,0,0,0,0,0,0,-1,650,631,0,0
-567,393,0,0,0,0,0,0,0,0,0,-1,657,631,0,0
-560,393,0,0,0,0,0,0,0,0,0,-1,664,631,0,0
-553,393,-2.35107,3.92633,0,0,0,0,0,0,0,-1,671,631,-2.35108,-3.92634
-546,393,-1.78778,2.4856,0,0,0,0,0,0,0,-1,678,631,-1.78778,-2.48557
-539,393,-5.2113,-2.20245,0,0,0,0,0,0,0,-1,685,631,-5.21128,2.20247
-532,393,-2.83643,-2.01624,0,0,0,0,0,0,0,-1,692,631,-2.83642,2.01626
-525,393,-5.9505,-0.952698,0,0,0,0,0,0,0,-1,699,631,-5.95053,0.95268
-518,393,-5.80219,-1.57739,0,0,0,0,0,0,0,-1,706,631,-5.80219,1.57738
-511,393,-6.15527,-2.09906,0,0,0,0,0,0,0,-1,713,631,-6.15526,2.09903
-504,393,-13.6063,-6.95947,0,0,0,0,0,0,0,-1,720,631,-13.6063,6.95946
-497,393,-114.163,-20.2058,0,0,0,0,0,0,0,-1,727,631,-114.163,20.2058
-490,393,-114.965,-24.0046,0.029166,0.0550682,0.0514172,0.0951403,-0.0109062,0.908773,0.0673572,0.0490152,734,631,-114.965,24.0046
-483,393,-115.743,-27.6599,0.0262852,0.0495037,0.0512206,0.0904142,-0.0146252,0.896841,0.0656961,0.0287912,741,631,-115.743,27.6599
-476,393,-116.447,-31.2654,0.0237463,0.0442141,0.0506335,0.0856376,-0.0176772,0.885113,0.0638057,0.0228064,748,631,-116.447,31.2655
-469,393,-117.359,-34.8569,0.0216128,0.0393232,0.0497252,0.0809755,-0.0200395,0.873516,0.061757,0.018538,755,631,-117.359,34.8569
-462,393,-118.331,-38.5501,0.0197766,0.0348072,0.0485184,0.0763889,-0.021805,0.862236,0.0595404,0.02164,762,631,-118.331,38.5501
-455,393,-119.261,-42.2513,0.0181358,0.0307143,0.0470807,0.0719239,-0.0230738,0.851797,0.0572131,0.0222907,769,631,-119.261,42.2513
-448,393,-120.131,-45.9445,0.0167184,0.0270475,0.045516,0.067691,-0.0239251,0.84189,0.0548695,0.0199969,776,631,-120.131,45.9445
-441,393,-121.107,-49.7078,0.0155317,0.0240495,0.0437464,0.0637438,-0.0241627,0.833922,0.0524397,0.0170704,783,631,-121.107,49.7078
-434,393,-122.21,-53.6669,0.0145036,0.0217181,0.0416798,0.0599465,-0.0237248,0.828564,0.0497936,0.0221804,790,631,-122.21,53.6669
-427,393,-123.256,-57.7195,0,0,0,0,0,0,0,-1,797,631,-123.256,57.7196
-420,393,-93.9938,-64.2738,0,0,0,0,0,0,0,-1,804,631,-93.9939,64.2738
-413,393,-15.0913,-18.3777,0,0,0,0,0,0,0,-1,811,631,-15.0913,18.3777
-406,393,-11.826,-12.7987,0,0,0,0,0,0,0,-1,818,631,-11.8261,12.7987
-399,393,-5.07343,-5.92365,0,0,0,0,0,0,0,-1,825,631,-5.07344,5.92364
-392,393,-2.08063,-3.02386,0,0,0,0,0,0,0,-1,832,631,-2.08063,3.02384
-385,393,-3.16931,-0.624756,0,0,0,0,0,0,0,-1,839,631,-3.16928,0.624764
-378,393,-7.33081,-0.872314,0,0,0,0,0,0,0,-1,846,631,-7.33081,0.872325
-371,393,-7.47858,-0.811096,0,0,0,0,0,0,0,-1,853,631,-7.47859,0.811075
-364,393,-7.64917,-0.662415,0,0,0,0,0,0,0,-1,860,631,-7.64917,0.662406
-357,393,-8.09686,-0.726013,0,0,0,0,0,0,0,-1,867,631,-8.09689,0.726029
-350,393,-8.38788,-0.511841,0,0,0,0,0,0,0,-1,874,631,-8.38785,0.511811
-343,393,0,0,0,0,0,0,0,0,0,-1,881,631,0,0
-336,393,0,0,0,0,0,0,0,0,0,-1,888,631,0,0
-329,393,0,0,0,0,0,0,0,0,0,-1,895,631,0,0
-322,393,0,0,0,0,0,0,0,0,0,-1,902,631,0,0
-315,393,0,0,0,0,0,0,0,0,0,-1,909,631,0,0
-308,393,0,0,0,0,0,0,0,0,0,-1,916,631,0,0
-301,393,0,0,0,0,0,0,0,0,0,-1,923,631,0,0
-294,393,0,0,0,0,0,0,0,0,0,-1,930,631,0,0
-287,393,0,0,0,0,0,0,0,0,0,-1,937,631,0,0
-280,393,0,0,0,0,0,0,0,0,0,-1,944,631,0,0
-273,393,0,0,0,0,0,0,0,0,0,-1,951,631,0,0
-266,393,0,0,0,0,0,0,0,0,0,-1,958,631,0,0
-259,393,0,0,0,0,0,0,0,0,0,-1,965,631,0,0
-252,393,0,0,0,0,0,0,0,0,0,-1,972,631,0,0
-245,393,0,0,0,0,0,0,0,0,0,-1,979,631,0,0
-238,393,0,0,0,0,0,0,0,0,0,-1,986,631,0,0
-231,393,0,0,0,0,0,0,0,0,0,-1,993,631,0,0
-224,393,0,0,0,0,0,0,0,0,0,-1,1000,631,0,0
-217,393,0,0,0,0,0,0,0,0,0,-1,1007,631,0,0
-210,393,0,0,0,0,0,0,0,0,0,-1,1014,631,0,0
-203,393,0,0,0,0,0,0,0,0,0,-1,1021,631,0,0
-196,393,0,0,0,0,0,0,0,0,0,-1,1028,631,0,0
-189,393,0,0,0,0,0,0,0,0,0,-1,1035,631,0,0
-182,393,0,0,0,0,0,0,0,0,0,-1,1042,631,0,0
-175,393,0,0,0,0,0,0,0,0,0,-1,1049,631,0,0
-168,393,0,0,0,0,0,0,0,0,0,-1,1056,631,0,0
-161,393,0,0,0,0,0,0,0,0,0,-1,1063,631,0,0
-154,393,0,0,0,0,0,0,0,0,0,-1,1070,631,0,0
-147,393,0,0,0,0,0,0,0,0,0,-1,1077,631,0,0
-140,393,0,0,0,0,0,0,0,0,0,-1,1084,631,0,0
-133,393,0,0,0,0,0,0,0,0,0,-1,1091,631,0,0
-126,393,0,0,0,0,0,0,0,0,0,-1,1098,631,0,0
-119,393,0,0,0,0,0,0,0,0,0,-1,1105,631,0,0
-112,393,0,0,0,0,0,0,0,0,0,-1,1112,631,0,0
-105,393,0,0,0,0,0,0,0,0,0,-1,1119,631,0,0
-98,393,0,0,0,0,0,0,0,0,0,-1,1126,631,0,0
-91,393,0,0,0,0,0,0,0,0,0,-1,1133,631,0,0
-84,393,0,0,0,0,0,0,0,0,0,-1,1140,631,0,0
-77,393,0,0,0,0,0,0,0,0,0,-1,1147,631,0,0
-70,393,0,0,0,0,0,0,0,0,0,-1,1154,631,0,0
-63,393,0,0,0,0,0,0,0,0,0,-1,1161,631,0,0
-56,393,0,0,0,0,0,0,0,0,0,-1,1168,631,0,0
-49,393,0,0,0,0,0,0,0,0,0,-1,1175,631,0,0
-42,393,0,0,0,0,0,0,0,0,0,-1,1182,631,0,0
-35,393,0,0,0,0,0,0,0,0,0,-1,1189,631,0,0
-28,393,0,0,0,0,0,0,0,0,0,-1,1196,631,0,0
-21,393,0,0,0,0,0,0,0,0,0,-1,1203,631,0,0
-14,393,0,0,0,0,0,0,0,0,0,-1,1210,631,0,0
-7,393,0,0,0,0,0,0,0,0,0,-1,1217,631,0,0
0,393,0,0,0,0,0,0,0,0,0,-1,1224,631,0,0
7,393,0,0,0,0,0,0,0,0,0,-1,1231,631,0,0
14,393,0,0,0,0,0,0,0,0,0,-1,1238,631,0,0
21,393,0,0,0,0,0,0,0,0,0,-1,1245,631,0,0
28,393,0,0,0,0,0,0,0,0,0,-1,1252,631,0,0
35,393,0,0,0,0,0,0,0,0,0,-1,1259,631,0,0
42,393,0,0,0,0,0,0,0,0,0,-1,1266,631,0,0
49,393,0,0,0,0,0,0,0,0,0,-1,1273,631,0,0
56,393,0,0,0,0,0,0,0,0,0,-1,1280,631,0,0
63,393,0,0,0,0,0,0,0,0,0,-1,1287,631,0,0
70,393,0,0,0,0,0,0,0,0,0,-1,1294,631,0,0
77,393,0,0,0,0,0,0,0,0,0,-1,1301,631,0,0
84,393,0,0,0,0,0,0,0,0,0,-1,1308,631,0,0
91,393,0,0,0,0,0,0,0,0,0,-1,1315,631,0,0
98,393,0,0,0,0,0,0,0,0,0,-1,1322,631,0,0
105,393,0,0,0,0,0,0,0,0,0,-1,1329,631,0,0
112,393,0,0,0,0,0,0,0,0,0,-1,1336,631,0,0
119,393,0,0,0,0,0,0,0,0,0,-1,1343,631,0,0
126,393,0,0,0,0,0,0,0,0,0,-1,1350,631,0,0
133,393,0,0,0,0,0,0,0,0,0,-1,1357,631,0,0
140,393,0,0,0,0,0,0,0,0,0,-1,1364,631,0,0
147,393,0,0,0,0,0,0,0,0,0,-1,1371,631,0,0
154,393,0,0,0,0,0,0,0,0,0,-1,1378,631,0,0
161,393,0,0,0,0,0,0,0,0,0,-1,1385,631,0,0
168,393,0,0,0,0,0,0,0,0,0,-1,1392,631,0,0
175,393,0,0,0,0,0,0,0,0,0,-1,1399,631,0,0
182,393,0,0,0,0,0,0,0,0,0,-1,1406,631,0,0
189,393,0,0,0,0,0,0,0,0,0,-1,1413,631,0,0
196,393,0,0,0,0,0,0,0,0,0,-1,1420,631,0,0
203,393,0,0,0,0,0,0,0,0,0,-1,1427,631,0,0
210,393,0,0,0,0,0,0,0,0,0,-1,1434,631,0,0
217,393,0,0,0,0,0,0,0,0,0,-1,1441,631,0,0
224,393,0,0,0,0,0,0,0,0,0,-1,1448,631,0,0
231,393,0,0,0,0,0,0,0,0,0,-1,1455,631,0,0
238,393,0,0,0,0,0,0,0,0,0,-1,1462,631,0,0
245,393,0,0,0,0,0,0,0,0,0,-1,1469,631,0,0
252,393,0,0,0,0,0,0,0,0,0,-1,1476,631,0,0
259,393,0,0,0,0,0,0,0,0,0,-1,1483,631,0,0
266,393,0,0,0,0,0,0,0,0,0,-1,1490,631,0,0
273,393,0,0,0,0,0,0,0,0,0,-1,1497,631,0,0
280,393,0,0,0,0,0,0,0,0,0,-1,1504,631,0,0
287,393,0,0,0,0,0,0,0,0,0,-1,1511,631,0,0
294,393,0,0,0,0,0,0,0,0,0,-1,1518,631,0,0
301,393,0,0,0,0,0,0,0,0,0,-1,1525,631,0,0
308,393,0,0,0,0,0,0,0,0,0,-1,1532,631,0,0
315,393,0,0,0,0,0,0,0,0,0,-1,1539,631,0,0
322,393,0,0,0,0,0,0,0,0,0,-1,1546,631,0,0
329,393,0,0,0,0,0,0,0,0,0,-1,1553,631,0,0
336,393,0,0,0,0,0,0,0,0,0,-1,1560,631,0,0
343,393,0,0,0,0,0,0,0,0,0,-1,1567,631,0,0
350,393,0,0,0,0,0,0,0,0,0,-1,1574,631,0,0
357,393,0,0,0,0,0,0,0,0,0,-1,1581,631,0,0
364,393,0,0,0,0,0,0,0,0,0,-1,1588,631,0,0
371,393,0,0,0,0,0,0,0,0,0,-1,1595,631,0,0
378,393,0,0,0,0,0,0,0,0,0,-1,1602,631,0,0
385,393,0,0,0,0,0,0,0,0,0,-1,1609,631,0,0
392,393,0,0,0,0,0,0,0,0,0,-1,1616,631,0,0
399,393,0,0,0,0,0,0,0,0,0,-1,1623,631,0,0
406,393,0,0,0,0,0,0,0,0,0,-1,1630,631,0,0
413,393,0,0,0,0,0,0,0,0,0,-1,1637,631,0,0
420,393,0,0,0,0,0,0,0,0,0,-1,1644,631,0,0
427,393,0,0,0,0,0,0,0,0,0,-1,1651,631,0,0
434,393,0,0,0,0,0,0,0,0,0,-1,1658,631,0,0
441,393,0,0,0,0,0,0,0,0,0,-1,1665,631,0,0
448,393,0,0,0,0,0,0,0,0,0,-1,1672,631,0,0
455,393,0,0,0,0,0,0,0,0,0,-1,1679,631,0,0
462,393,8.51099,1.89502,0,0,0,0,0,0,0,-1,1686,631,8.51103,-1.89504
469,393,9.39465,1.51703,0,0,0,0,0,0,0,-1,1693,631,9.39465,-1.51703
476,393,9.95569,1.185,0,0,0,0,0,0,0,-1,1700,631,9.95575,-1.18497
483,393,10.5267,0.887329,0,0,0,0,0,0,0,-1,1707,631,10.5267,-0.887321
490,393,10.9303,0.761414,0,0,0,0,0,0,0,-1,1714,631,10.9303,-0.761386
497,393,8.32153,1.88104,0,0,0,0,0,0,0,-1,1721,631,8.32148,-1.88103
504,393,9.46985,1.78711,0,0,0,0,0,0,0,-1,1728,631,9.46986,-1.78713
511,393,9.66565,-0.375977,0,0,0,0,0,0,0,-1,1735,631,9.66571,0.375949
518,393,7.01599,1.62482,0,0,0,0,0,0,0,-1,1742,631,7.01597,-1.62483
525,393,7.88245,-1.13422,0,0,0,0,0,0,0,-1,1749,631,7.88246,1.13423
532,393,7.06335,-1.18103,0,0,0,0,0,0,0,-1,1756,631,7.06332,1.18101
539,393,9.91626,-2.46301,0,0,0,0,0,0,0,-1,1763,631,9.91625,2.46302
546,393,16.4094,-8.04651,0,0,0,0,0,0,0,-1,1770,631,16.4094,8.04649
553,393,71.0729,-54.5511,0,0,0,0,0,0,0,-1,1777,631,71.0729,54.5511
560,393,133.4,-56.3398,0,0,0,0,0,0,0,-1,1784,631,133.4,56.3398
567,393,132.376,-52.3139,0,0,0,0,0,0,0,-1,1791,631,132.376,52.3139
574,393,131.195,-48.4582,0,0,0,0,0,0,0,-1,1798,631,131.195,48.4582
581,393,130.134,-44.6929,0,0,0,0,0,0,0,-1,1805,631,130.134,44.6929
588,393,129.538,-40.8281,0,0,0,0,0,0,0,-1,1812,631,129.538,40.8281
595,393,128.092,-37.3154,0,0,0,0,0,0,0,-1,1819,631,128.092,37.3154
602,393,127.391,-33.712,0.0171405,0.0298199,-0.0446871,0.0686148,-0.0216543,-0.855862,0.0544169,0.0456318,1826,631,127.391,33.712
609,393,126.734,-30.2081,0.0183077,0.0332835,-0.0475413,0.073923,-0.0223317,-0.863508,0.0581727,0.0289828,1833,631,126.734,30.2081
616,393,125.889,-26.7029,0.0195,0.0372339,-0.0504553,0.0795955,-0.0228616,-0.872379,0.062103,0.0235869,1840,631,125.889,26.7029
623,393,125.075,-23.1682,0,0,0,0,0,0,0,-1,1847,631,125.075,23.1682
630,393,50.0315,-15.3729,0,0,0,0,0,0,0,-1,1854,631,50.0316,15.3728
637,393,11.4626,0.608887,0,0,0,0,0,0,0,-1,1861,631,11.4627,-0.608904
644,393,8.97583,1.30585,0,0,0,0,0,0,0,-1,1868,631,8.97586,-1.30584
651,393,11.348,0.53302,0,0,0,0,0,0,0,-1,1875,631,11.348,-0.53305
658,393,9.21338,1.50836,0,0,0,0,0,0,0,-1,1882,631,9.21338,-1.50834
665,393,6.1001,2.32129,0,0,0,0,0,0,0,-1,1889,631,6.10012,-2.3213
672,393,7.14575,2.43225,0,0,0,0,0,0,0,-1,1896,631,7.14572,-2.43222
679,393,0,0,0,0,0,0,0,0,0,-1,1903,631,0,0
686,393,0,0,0,0,0,0,0,0,0,-1,1910,631,0,0
693,393,0,0,0,0,0,0,0,0,0,-1,1917,631,0,0
700,393,0,0,0,0,0,0,0,0,0,-1,1924,631,0,0
707,393,0,0,0,0,0,0,0,0,0,-1,1931,631,0,0
714,393,0,0,0,0,0,0,0,0,0,-1,1938,631,0,0
721,393,0,0,0,0,0,0,0,0,0,-1,1945,631,0,0
728,393,0,0,0,0,0,0,0,0,0,-1,1952,631,0,0
735,393,0,0,0,0,0,0,0,0,0,-1,1959,631,0,0
742,393,0,0,0,0,0,0,0,0,0,-1,1966,631,0,0
749,393,0,0,0,0,0,0,0,0,0,-1,1973,631,0,0
756,393,0,0,0,0,0,0,0,0,0,-1,1980,631,0,0
763,393,0,0,0,0,0,0,0,0,0,-1,1987,631,0,0
770,393,0,0,0,0,0,0,0,0,0,-1,1994,631,0,0
777,393,0,0,0,0,0,0,0,0,0,-1,2001,631,0,0
784,393,0,0,0,0,0,0,0,0,0,-1,2008,631,0,0
791,393,0,0,0,0,0,0,0,0,0,-1,2015,631,0,0
798,393,0,0,0,0,0,0,0,0,0,-1,2022,631,0,0
805,393,0,0,0,0,0,0,0,0,0,-1,2029,631,0,0
812,393,0,0,0,0,0,0,0,0,0,-1,2036,631,0,0
-700,386,0,0,0,0,0,0,0,0,0,-1,524,638,0,0
-693,386,0,0,0,0,0,0,0,0,0,-1,531,638,0,0
-686,386,0,0,0,0,0,0,0,0,0,-1,538,638,0,0
-679,386,0,0,0,0,0,0,0,0,0,-1,545,638,0,0
-672,386,0,0,0,0,0,0,0,0,0,-1,552,638,0,0
-665,386,0,0,0,0,0,0,0,0,0,-1,559,638,0,0
-658,386,0,0,0,0,0,0,0,0,0,-1,566,638,0,0
-651,386,0,0,0,0,0,0,0,0,0,-1,573,638,0,0
-644,386,0,0,0,0,0,0,0,0,0,-1,580,638,0,0
-637,386,0,0,0,0,0,0,0,0,0,-1,587,638,0,0
-630,386,0,0,0,0,0,0,0,0,0,-1,594,638,0,0
-623,386,0,0,0,0,0,0,0,0,0,-1,601,638,0,0
-616,386,0,0,0,0,0,0,0,0,0,-1,608,638,0,0
-609,386,0,0,0,0,0,0,0,0,0,-1,615,638,0,0
-602,386,0,0,0,0,0,0,0,0,0,-1,622,638,0,0
-595,386,0,0,0,0,0,0,0,0,0,-1,629,638,0,0
-588,386,0,0,0,0,0,0,0,0,0,-1,636,638,0,0
-581,386,0,0,0,0,0,0,0,0,0,-1,643,638,0,0
-574,386,0,0,0,0,0,0,0,0,0,-1,650,638,0,0
-567,386,0,0,0,0,0,0,0,0,0,-1,657,638,0,0
-560,386,-3.97229,-5.13898,0,0,0,0,0,0,0,-1,664,638,-3.97232,5.13897
-553,386,-4.94244,-5.54309,0,0,0,0,0,0,0,-1,671,638,-4.94242,5.5431
-546,386,-1.78668,1.72827,0,0,0,0,0,0,0,-1,678,638,-1.78668,-1.72829
-539,386,-0.879456,-2.90009,0,0,0,0,0,0,0,-1,685,638,-0.879442,2.90008
-532,386,-5.4884,1.73328,0,0,0,0,0,0,0,-1,692,638,-5.4884,-1.73325
-525,386,-6.64148,-1.50604,0,0,0,0,0,0,0,-1,699,638,-6.64149,1.50603
-518,386,-11.1217,-4.10382,0,0,0,0,0,0,0,-1,706,638,-11.1217,4.1038
-511,386,-13.0612,-5.05151,0,0,0,0,0,0,0,-1,713,638,-13.0612,5.05149
-504,386,-34.0443,-13.7252,0,0,0,0,0,0,0,-1,720,638,-34.0442,13.7252
-497,386,-118.309,-19.3986,0,0,0,0,0,0,0,-1,727,638,-118.309,19.3986
-490,386,-119.256,-23.0774,0.025418,0.0501561,0.0496211,0.0889265,-0.0133524,0.907544,0.0641997,0.0272189,734,638,-119.256,23.0774
-483,386,-120.122,-26.6978,0.0225708,0.0452915,0.0491067,0.0843348,-0.0164725,0.899068,0.0624425,0.0301037,741,638,-120.122,26.6978
-476,386,-120.778,-30.1631,0.02,0.0405712,0.0483053,0.0796738,-0.0191027,0.890296,0.0604972,0.0248393,748,638,-120.778,30.1631
-469,386,-121.632,-33.6913,0.017722,0.0360659,0.0472673,0.0750429,-0.0212551,0.881229,0.0584171,0.0170189,755,638,-121.632,33.6914
-462,386,-122.624,-37.3787,0.0157189,0.0318444,0.0459164,0.0704005,-0.0228372,0.87231,0.056117,0.0162842,762,638,-122.624,37.3787
-455,386,-123.637,-41.1417,0.0139098,0.0279382,0.0443315,0.065807,-0.023959,0.863858,0.0536709,0.0215863,769,638,-123.637,41.1416
-448,386,-124.428,-44.8205,0.0123841,0.0243897,0.0425297,0.0613382,-0.0245644,0.855507,0.0510882,0.0199786,776,638,-124.428,44.8205
-441,386,-125.37,-48.4917,0.0111477,0.021443,0.0403337,0.0569562,-0.0243655,0.848869,0.0481915,0.0185663,783,638,-125.371,48.4917
-434,386,-126.464,-52.2535,0,0,0,0,0,0,0,-1,790,638,-126.464,52.2535
-427,386,-116.088,-57.1801,0,0,0,0,0,0,0,-1,797,638,-116.088,57.1801
-420,386,-14.5338,-16.0451,0,0,0,0,0,0,0,-1,804,638,-14.5338,16.0451
-413,386,-5.45691,-5.35785,0,0,0,0,0,0,0,-1,811,638,-5.45691,5.35783
-406,386,-4.51135,-4.10999,0,0,0,0,0,0,0,-1,818,638,-4.51135,4.10996
-399,386,-3.57117,-3.42126,0,0,0,0,0,0,0,-1,825,638,-3.57116,3.42129
-392,386,-4.00977,0.403625,0,0,0,0,0,0,0,-1,832,638,-4.0098,-0.403616
-385,386,-3.2406,-0.118469,0,0,0,0,0,0,0,-1,839,638,-3.24058,0.118485
-378,386,-2.55243,-1.22748,0,0,0,0,0,0,0,-1,846,638,-2.55243,1.22748
-371,386,-7.95807,-0.330261,0,0,0,0,0,0,0,-1,853,638,-7.95806,0.330284
-364,386,-8.90637,-0.665955,0,0,0,0,0,0,0,-1,860,638,-8.90635,0.665951
-357,386,-9.10364,-0.388733,0,0,0,0,0,0,0,-1,867,638,-9.10364,0.388744
-350,386,0,0,0,0,0,0,0,0,0,-1,874,638,0,0
-343,386,0,0,0,0,0,0,0,0,0,-1,881,638,0,0
-336,386,0,0,0,0,0,0,0,0,0,-1,888,638,0,0
-329,386,0,0,0,0,0,0,0,0,0,-1,895,638,0,0
-322,386,0,0,0,0,0,0,0,0,0,-1,902,638,0,0
-315,386,0,0,0,0,0,0,0,0,0,-1,909,638,0,0
-308,386,0,0,0,0,0,0,0,0,0,-1,916,638,0,0
-301,386,0,0,0,0,0,0,0,0,0,-1,923,638,0,0
-294,386,0,0,0,0,0,0,0,0,0,-1,930,638,0,0
-287,386,0,0,0,0,0,0,0,0,0,-1,937,638,0,0
-280,386,0,0,0,0,0,0,0,0,0,-1,944,638,0,0
-273,386,0,0,0,0,0,0,0,0,0,-1,951,638,0,0
-266,386,0,0,0,0,0,0,0,0,0,-1,958,638,0,0
-259,386,0,0,0,0,0,0,0,0,0,-1,965,638,0,0
-252,386,0,0,0,0,0,0,0,0,0,-1,972,638,0,0
-245,386,0,0,0,0,0,0,0,0,0,-1,979,638,0,0
-238,386,0,0,0,0,0,0,0,0,0,-1,986,638,0,0
-231,386,0,0,0,0,0,0,0,0,0,-1,993,638,0,0
-224,386,0,0,0,0,0,0,0,0,0,-1,1000,638,0,0
-217,386,0,0,0,0,0,0,0,0,0,-1,1007,638,0,0
-210,386,0,0,0,0,0,0,0,0,0,-1,1014,638,0,0
-203,386,0,0,0,0,0,0,0,0,0,-1,1021,638,0,0
-196,386,0,0,0,0,0,0,0,0,0,-1,1028,638,0,0
-189,386,0,0,0,0,0,0,0,0,0,-1,1035,638,0,0
-182,386,0,0,0,0,0,0,0,0,0,-1,1042,638,0,0
-175,386,0,0,0,0,0,0,0,0,0,-1,1049,638,0,0
-168,386,0,0,0,0,0,0,0,0,0,-1,1056,638,0,0
-161,386,0,0,0,0,0,0,0,0,0,-1,1063,638,0,0
-154,386,0,0,0,0,0,0,0,0,0,-1,1070,638,0,0
-147,386,0,0,0,0,0,0,0,0,0,-1,1077,638,0,0
-140,386,0,0,0,0,0,0,0,0,0,-1,1084,638,0,0
-133,386,0,0,0,0,0,0,0,0,0,-1,1091,638,0,0
-126,386,0,0,0,0,0,0,0,0,0,-1,1098,638,0,0
-119,386,0,0,0,0,0,0,0,0,0,-1,1105,638,0,0
-112,386,0,0,0,0,0,0,0,0,0,-1,1112,638,0,0
-105,386,0,0,0,0,0,0,0,0,0,-1,1119,638,0,0
-98,386,0,0,0,0,0,0,0,0,0,-1,1126,638,0,0
-91,386,0,0,0,0,0,0,0,0,0,-1,1133,638,0,0
-84,386,0,0,0,0,0,0,0,0,0,-1,1140,638,0,0
-77,386,0,0,0,0,0,0,0,0,0,-1,1147,638,0,0
-70,386,0,0,0,0,0,0,0,0,0,-1,1154,638,0,0
-63,386,0,0,0,0,0,0,0,0,0,-1,1161,638,0,0
-56,386,0,0,0,0,0,0,0,0,0,-1,1168,638,0,0
-49,386,0,0,0,0,0,0,0,0,0,-1,1175,638,0,0
-42,386,0,0,0,0,0,0,0,0,0,-1,1182,638,0,0
-35,386,0,0,0,0,0,0,0,0,0,-1,1189,638,0,0
-28,386,0,0,0,0,0,0,0,0,0,-1,1196,638,0,0
-21,386,0,0,0,0,0,0,0,0,0,-1,1203,638,0,0
-14,386,0,0,0,0,0,0,0,0,0,-1,1210,638,0,0
-7,386,0,0,0,0,0,0,0,0,0,-1,1217,638,0,0
0,386,0,0,0,0,0,0,0,0,0,-1,1224,638,0,0
7,386,0,0,0,0,0,0,0,0,0,-1,1231,638,0,0
14,386,0,0,0,0,0,0,0,0,0,-1,1238,638,0,0
21,386,0,0,0,0,0,0,0,0,0,-1,1245,638,0,0
28,386,0,0,0,0,0,0,0,0,0,-1,1252,638,0,0
35,386,0,0,0,0,0,0,0,0,0,-1,1259,638,0,0
42,386,0,0,0,0,0,0,0,0,0,-1,1266,638,0,0
49,386,0,0,0,0,0,0,0,0,0,-1,1273,638,0,0
56,386,0,0,0,0,0,0,0,0,0,-1,1280,638,0,0
63,386,0,0,0,0,0,0,0,0,0,-1,1287,638,0,0
70,386,0,0,0,0,0,0,0,0,0,-1,1294,638,0,0
77,386,0,0,0,0,0,0,0,0,0,-1,1301,638,0,0
84,386,0,0,0,0,0,0,0,0,0,-1,1308,638,0,0
91,386,0,0,0,0,0,0,0,0,0,-1,1315,638,0,0
98,386,0,0,0,0,0,0,0,0,0,-1,1322,638,0,0
105,386,0,0,0,0,0,0,0,0,0,-1,1329,638,0,0
112,386,0,0,0,0,0,0,0,0,0,-1,1336,638,0,0
119,386,0,0,0,0,0,0,0,0,0,-1,1343,638,0,0
126,386,0,0,0,0,0,0,0,0,0,-1,1350,638,0,0
133,386,0,0,0,0,0,0,0,0,0,-1,1357,638,0,0
140,386,0,0,0,0,0,0,0,0,0,-1,1364,638,0,0
147,386,0,0,0,0,0,0,0,0,0,-1,1371,638,0,0
154,386,0,0,0,0,0,0,0,0,0,-1,1378,638,0,0
161,386,0,0,0,0,0,0,0,0,0,-1,1385,638,0,0
168,386,0,0,0,0,0,0,0,0,0,-1,1392,638,0,0
175,386,0,0,0,0,0,0,0,0,0,-1,1399,638,0,0
182,386,0,0,0,0,0,0,0,0,0,-1,1406,638,0,0
189,386,0,0,0,0,0,0,0,0,0,-1,1413,638,0,0
196,386,0,0,0,0,0,0,0,0,0,-1,1420,638,0,0
203,386,0,0,0,0,0,0,0,0,0,-1,1427,638,0,0
210,386,0,0,0,0,0,0,0,0,0,-1,1434,638,0,0
217,386,0,0,0,0,0,0,0,0,0,-1,1441,638,0,0
224,386,0,0,0,0,0,0,0,0,0,-1,1448,638,0,0
231,386,0,0,0,0,0,0,0,0,0,-1,1455,638,0,0
238,386,0,0,0,0,0,0,0,0,0,-1,1462,638,0,0
245,386,0,0,0,0,0,0,0,0,0,-1,1469,638,0,0
252,386,0,0,0,0,0,0,0,0,0,-1,1476,638,0,0
259,386,0,0,0,0,0,0,0,0,0,-1,1483,638,0,0
266,386,0,0,0,0,0,0,0,0,0,-1,1490,638,0,0
273,386,0,0,0,0,0,0,0,0,0,-1,1497,638,0,0
280,386,0,0,0,0,0,0,0,0,0,-1,1504,638,0,0
287,386,0,0,0,0,0,0,0,0,0,-1,1511,638,0,0
294,386,0,0,0,0,0,0,0,0,0,-1,1518,638,0,0
301,386,0,0,0,0,0,0,0,0,0,-1,1525,638,0,0
308,386,0,0,0,0,0,0,0,0,0,-1,1532,638,0,0
315,386,0,0,0,0,0,0,0,0,0,-1,1539,638,0,0
322,386,0,0,0,0,0,0,0,0,0,-1,1546,638,0,0
329,386,0,0,0,0,0,0,0,0,0,-1,1553,638,0,0
336,386,0,0,0,0,0,0,0,0,0,-1,1560,638,0,0
343,386,0,0,0,0,0,0,0,0,0,-1,1567,638,0,0
350,386,0,0,0,0,0,0,0,0,0,-1,1574,638,0,0
357,386,0,0,0,0,0,0,0,0,0,-1,1581,638,0,0
364,386,0,0,0,0,0,0,0,0,0,-1,1588,638,0,0
371,386,0,0,0,0,0,0,0,0,0,-1,1595,638,0,0
378,386,0,0,0,0,0,0,0,0,0,-1,1602,638,0,0
385,386,0,0,0,0,0,0,0,0,0,-1,1609,638,0,0
392,386,0,0,0,0,0,0,0,0,0,-1,1616,638,0,0
399,386,0,0,0,0,0,0,0,0,0,-1,1623,638,0,0
406,386,0,0,0,0,0,0,0,0,0,-1,1630,638,0,0
413,386,0,0,0,0,0,0,0,0,0,-1,1637,638,0,0
420,386,0,0,0,0,0,0,0,0,0,-1,1644,638,0,0
427,386,0,0,0,0,0,0,0,0,0,-1,1651,638,0,0
434,386,0,0,0,0,0,0,0,0,0,-1,1658,638,0,0
441,386,0,0,0,0,0,0,0,0,0,-1,1665,638,0,0
448,386,0,0,0,0,0,0,0,0,0,-1,1672,638,0,0
455,386,0,0,0,0,0,0,0,0,0,-1,1679,638,0,0
462,386,0,0,0,0,0,0,0,0,0,-1,1686,638,0,0
469,386,9.84692,1.55804,0,0,0,0,0,0,0,-1,1693,638,9.84691,-1.55807
476,386,10.6145,0.986511,0,0,0,0,0,0,0,-1,1700,638,10.6145,-0.986529
483,386,11.4113,0.732971,0,0,0,0,0,0,0,-1,1707,638,11.4112,-0.732958
490,386,7.79785,1.79572,0,0,0,0,0,0,0,-1,1714,638,7.79788,-1.7957
497,386,8.96362,1.77081,0,0,0,0,0,0,0,-1,1721,638,8.96357,-1.77081
504,386,10.0555,1.69427,0,0,0,0,0,0,0,-1,1728,638,10.0555,-1.69426
511,386,11.2172,1.534,0,0,0,0,0,0,0,-1,1735,638,11.2172,-1.53398
518,386,7.41553,1.75238,0,0,0,0,0,0,0,-1,1742,638,7.41547,-1.75238
525,386,8.82422,-1.1449,0,0,0,0,0,0,0,-1,1749,638,8.82426,1.14492
532,386,10.6432,0.617371,0,0,0,0,0,0,0,-1,1756,638,10.6432,-0.617359
539,386,9.62061,-0.393616,0,0,0,0,0,0,0,-1,1763,638,9.62059,0.393634
546,386,10.7963,-2.854,0,0,0,0,0,0,0,-1,1770,638,10.7962,2.854
553,386,16.9939,-7.27942,0,0,0,0,0,0,0,-1,1777,638,16.9939,7.27944
560,386,73.2229,-52.2673,0,0,0,0,0,0,0,-1,1784,638,73.2229,52.2673
567,386,136.704,-51.0256,0,0,0,0,0,0,0,-1,1791,638,136.704,51.0256
574,386,135.503,-47.2942,0,0,0,0,0,0,0,-1,1798,638,135.503,47.2942
581,386,134.48,-43.68,0,0,0,0,0,0,0,-1,1805,638,134.48,43.68
588,386,133.826,-40.0078,0.0117322,0.0244592,-0.0347265,0.0534004,-0.017209,-0.876015,0.0425139,0.0470906,1812,638,133.826,40.0078
595,386,132.637,-36.3243,0.0125677,0.0263145,-0.0377673,0.0578288,-0.0189466,-0.87541,0.0461823,0.0478735,1819,638,132.637,36.3243
602,386,131.732,-32.72,0.0133805,0.0287468,-0.0407522,0.0625338,-0.0204065,-0.878571,0.0499021,0.0322106,1826,638,131.732,32.72
609,386,130.95,-29.2067,0.0144004,0.0319733,-0.0438695,0.0679276,-0.0215539,-0.884234,0.0539251,0.021241,1833,638,130.95,29.2067
616,386,129.993,-25.6066,0.0154831,0.035661,-0.046958,0.0736017,-0.0224575,-0.891215,0.0580209,0.0181399,1840,638,129.993,25.6065
623,386,129.123,-22.1369,0.0164678,0.0394699,-0.0499274,0.0792038,-0.023266,-0.898601,0.0620297,0.0165657,1847,638,129.123,22.1369
630,386,128.253,-18.6467,0,0,0,0,0,0,0,-1,1854,638,128.253,18.6466
637,386,51.4513,-13.595,0,0,0,0,0,0,0,-1,1861,638,51.4513,13.595
644,386,11.6521,0.723328,0,0,0,0,0,0,0,-1,1868,638,11.6521,-0.723355
651,386,9.3866,1.31097,0,0,0,0,0,0,0,-1,1875,638,9.3866,-1.31095
658,386,12.0731,-0.00415039,0,0,0,0,0,0,0,-1,1882,638,12.0731,0.00412803
665,386,6.33167,1.78601,0,0,0,0,0,0,0,-1,1889,638,6.33171,-1.78601
672,386,7.23352,2.14435,0,0,0,0,0,0,0,-1,1896,638,7.23353,-2.14433
679,386,8.07764,2.57104,0,0,0,0,0,0,0,-1,1903,638,8.07758,-2.57103
686,386,0,0,0,0,0,0,0,0,0,-1,1910,638,0,0
693,386,0,0,0,0,0,0,0,0,0,-1,1917,638,0,0
700,386,0,0,0,0,0,0,0,0,0,-1,1924,638,0,0
707,386,0,0,0,0,0,0,0,0,0,-1,1931,638,0,0
714,386,0,0,0,0,0,0,0,0,0,-1,1938,638,0,0
721,386,0,0,0,0,0,0,0,0,0,-1,1945,638,0,0
728,386,0,0,0,0,0,0,0,0,0,-1,1952,638,0,0
735,386,0,0,0,0,0,0,0,0,0,-1,1959,638,0,0
742,386,0,0,0,0,0,0,0,0,0,-1,1966,638,0,0
749,386,0,0,0,0,0,0,0,0,0,-1,1973,638,0,0
756,386,0,0,0,0,0,0,0,0,0,-1,1980,638,0,0
763,386,0,0,0,0,0,0,0,0,0,-1,1987,638,0,0
770,386,0,0,0,0,0,0,0,0,0,-1,1994,638,0,0
777,386,0,0,0,0,0,0,0,0,0,-1,2001,638,0,0
784,386,0,0,0,0,0,0,0,0,0,-1,2008,638,0,0
791,386,0,0,0,0,0,0,0,0,0,-1,2015,638,0,0
798,386,0,0,0,0,0,0,0,0,0,-1,2022,638,0,0
805,386,0,0,0,0,0,0,0,0,0,-1,2029,638,0,0
812,386,0,0,0,0,0,0,0,0,0,-1,2036,638,0,0
-700,379,0,0,0,0,0,0,0,0,0,-1,524,645,0,0
-693,379,0,0,0,0,0,0,0,0,0,-1,531,645,0,0
-686,379,0,0,0,0,0,0,0,0,0,-1,538,645,0,0
-679,379,0,0,0,0,0,0,0,0,0,-1,545,645,0,0
-672,379,0,0,0,0,0,0,0,0,0,-1,552,645,0,0
-665,379,0,0,0,0,0,0,0,0,0,-1,559,645,0,0
-658,379,0,0,0,0,0,0,0,0,0,-1,566,645,0,0
-651,379,0,0,0,0,0,0,0,0,0,-1,573,645,0,0
-644,379,0,0,0,0,0,0,0,0,0,-1,580,645,0,0
-637,379,0,0,0,0,0,0,0,0,0,-1,587,645,0,0
-630,379,0,0,0,0,0,0,0,0,0,-1,594,645,0,0
-623,379,0,0,0,0,0,0,0,0,0,-1,601,645,0,0
-616,379,0,0,0,0,0,0,0,0,0,-1,608,645,0,0
-609,379,0,0,0,0,0,0,0,0,0,-1,615,645,0,0
-602,379,0,0,0,0,0,0,0,0,0,-1,622,645,0,0
-595,379,0,0,0,0,0,0,0,0,0,-1,629,645,0,0
-588,379,0,0,0,0,0,0,0,0,0,-1,636,645,0,0
-581,379,0,0,0,0,0,0,0,0,0,-1,643,645,0,0
-574,379,0,0,0,0,0,0,0,0,0,-1,650,645,0,0
-567,379,-8.78058,0.59668,0,0,0,0,0,0,0,-1,657,645,-8.7806,-0.596692
-560,379,-9.53485,-0.211304,0,0,0,0,0,0,0,-1,664,645,-9.53487,0.211282
-553,379,-5.17108,-4.53119,0,0,0,0,0,0,0,-1,671,645,-5.17106,4.53117
-546,379,-6.23053,-4.92102,0,0,0,0,0,0,0,-1,678,645,-6.23054,4.92105
-539,379,-0.71698,-2.19427,0,0,0,0,0,0,0,-1,685,645,-0.716959,2.19427
-532,379,-7.69611,0.217224,0,0,0,0,0,0,0,-1,692,645,-7.69614,-0.217204
-525,379,-7.09833,-1.13043,0,0,0,0,0,0,0,-1,699,645,-7.0983,1.13041
-518,379,-13.126,-5.33893,0,0,0,0,0,0,0,-1,706,645,-13.126,5.33895
-511,379,-38.2532,-12.7537,0,0,0,0,0,0,0,-1,713,645,-38.2533,12.7537
-504,379,-121.85,-14.9297,0,0,0,0,0,0,0,-1,720,645,-121.85,14.9297
-497,379,-122.611,-18.5021,0.0249414,0.0506001,0.0475546,0.0870256,-0.011484,0.917152,0.0621994,0.0427407,727,645,-122.611,18.5021
-490,379,-123.393,-22.0336,0.0217573,0.0458385,0.0471723,0.0824825,-0.0148868,0.910354,0.0605636,0.0263285,734,645,-123.393,22.0336
-483,379,-124.174,-25.6109,0.018861,0.0413133,0.04652,0.0779425,-0.0177682,0.903794,0.0587864,0.0249251,741,645,-124.174,25.6109
-476,379,-124.838,-29.0743,0.0161601,0.0368695,0.045661,0.0733352,-0.0203055,0.896899,0.0568799,0.0217167,748,645,-124.838,29.0743
-469,379,-125.699,-32.5241,0.0136905,0.032557,0.0446073,0.0687176,-0.0224701,0.889599,0.0548578,0.0196604,755,645,-125.699,32.5241
-462,379,-126.677,-36.1532,0.0114894,0.0284635,0.0432495,0.0640508,-0.0240979,0.882284,0.0526063,0.0146131,762,645,-126.677,36.1532
-455,379,-127.693,-39.8845,0.00953521,0.0246147,0.0416656,0.0594173,-0.0252673,0.874909,0.0502003,0.0141235,769,645,-127.693,39.8845
-448,379,-128.636,-43.5973,0.00798127,0.0211106,0.0397505,0.0548348,-0.025743,0.867233,0.0475216,0.0198506,776,645,-128.636,43.5973
-441,379,-129.581,-47.4205,0.00668831,0.0182456,0.0373438,0.0502552,-0.0253212,0.86216,0.0444186,0.0346363,783,645,-129.581,47.4205
-434,379,-130.572,-51.6259,0,0,0,0,0,0,0,-1,790,645,-130.572,51.6258
-427,379,-4.16113,-4.13452,0,0,0,0,0,0,0,-1,797,645,-4.16116,4.1345
-420,379,-4.63953,-3.46869,0,0,0,0,0,0,0,-1,804,645,-4.63953,3.46872
-413,379,-4.62543,-3.7912,0,0,0,0,0,0,0,-1,811,645,-4.62541,3.79123
-406,379,-4.64063,-4.38489,0,0,0,0,0,0,0,-1,818,645,-4.64065,4.3849
-399,379,-2.93536,-1.40118,0,0,0,0,0,0,0,-1,825,645,-2.93534,1.40119
-392,379,-4.16711,-0.466003,0,0,0,0,0,0,0,-1,832,645,-4.16714,0.465992
-385,379,-3.51862,0.441101,0,0,0,0,0,0,0,-1,839,645,-3.51859,-0.441072
-378,379,-5.3504,0.212219,0,0,0,0,0,0,0,-1,846,645,-5.35038,-0.212241
-371,379,-4.32092,-0.186707,0,0,0,0,0,0,0,-1,853,645,-4.3209,0.186707
-364,379,-3.40887,-0.549805,0,0,0,0,0,0,0,-1,860,645,-3.4089,0.549802
-357,379,0,0,0,0,0,0,0,0,0,-1,867,645,0,0
-350,379,0,0,0,0,0,0,0,0,0,-1,874,645,0,0
-343,379,0,0,0,0,0,0,0,0,0,-1,881,645,0,0
-336,379,0,0,0,0,0,0,0,0,0,-1,888,645,0,0
-329,379,0,0,0,0,0,0,0,0,0,-1,895,645,0,0
-322,379,0,0,0,0,0,0,0,0,0,-1,902,645,0,0
-315,379,0,0,0,0,0,0,0,0,0,-1,909,645,0,0
-308,379,0,0,0,0,0,0,0,0,0,-1,916,645,0,0
-301,379,0,0,0,0,0,0,0,0,0,-1,923,645,0,0
-294,379,0,0,0,0,0,0,0,0,0,-1,930,645,0,0
-287,379,0,0,0,0,0,0,0,0,0,-1,937,645,0,0
-280,379,0,0,0,0,0,0,0,0,0,-1,944,645,0,0
-273,379,0,0,0,0,0,0,0,0,0,-1,951,645,0,0
-266,379,0,0,0,0,0,0,0,0,0,-1,958,645,0,0
-259,379,0,0,0,0,0,0,0,0,0,-1,965,645,0,0
-252,379,0,0,0,0,0,0,0,0,0,-1,972,645,0,0
-245,379,0,0,0,0,0,0,0,0,0,-1,979,645,0,0
-238,379,0,0,0,0,0,0,0,0,0,-1,986,645,0,0
-231,379,0,0,0,0,0,0,0,0,0,-1,993,645,0,0
-224,379,0,0,0,0,0,0,0,0,0,-1,1000,645,0,0
-217,379,0,0,0,0,0,0,0,0,0,-1,1007,645,0,0
-210,379,0,0,0,0,0,0,0,0,0,-1,1014,645,0,0
-203,379,0,0,0,0,0,0,0,0,0,-1,1021,645,0,0
-196,379,0,0,0,0,0,0,0,0,0,-1,1028,645,0,0
-189,379,0,0,0,0,0,0,0,0,0,-1,1035,645,0,0
-182,379,0,0,0,0,0,0,0,0,0,-1,1042,645,0,0
-175,379,0,0,0,0,0,0,0,0,0,-1,1049,645,0,0
-168,379,0,0,0,0,0,0,0,0,0,-1,1056,645,0,0
-161,379,0,0,0,0,0,0,0,0,0,-1,1063,645,0,0
-154,379,0,0,0,0,0,0,0,0,0,-1,1070,645,0,0
-147,379,0,0,0,0,0,0,0,0,0,-1,1077,645,0,0
-140,379,0,0,0,0,0,0,0,0,0,-1,1084,645,0,0
-133,379,0,0,0,0,0,0,0,0,0,-1,1091,645,0,0
-126,379,0,0,0,0,0,0,0,0,0,-1,1098,645,0,0
-119,379,0,0,0,0,0,0,0,0,0,-1,1105,645,0,0
-112,379,0,0,0,0,0,0,0,0,0,-1,1112,645,0,0
-105,379,0,0,0,0,0,0,0,0,0,-1,1119,645,0,0
-98,379,0,0,0,0,0,0,0,0,0,-1,1126,645,0,0
-91,379,0,0,0,0,0,0,0,0,0,-1,1133,645,0,0
-84,379,0,0,0,0,0,0,0,0,0,-1,1140,645,0,0
-77,379,0,0,0,0,0,0,0,0,0,-1,1147,645,0,0
-70,379,0,0,0,0,0,0,0,0,0,-1,1154,645,0,0
-63,379,0,0,0,0,0,0,0,0,0,-1,1161,645,0,0
-56,379,0,0,0,0,0,0,0,0,0,-1,1168,645,0,0
-49,379,0,0,0,0,0,0,0,0,0,-1,1175,645,0,0
-42,379,0,0,0,0,0,0,0,0,0,-1,1182,645,0,0
-35,379,0,0,0,0,0,0,0,0,0,-1,1189,645,0,0
-28,379,0,0,0,0,0,0,0,0,0,-1,1196,645,0,0
-21,379,0,0,0,0,0,0,0,0,0,-1,1203,645,0,0
-14,379,0,0,0,0,0,0,0,0,0,-1,1210,645,0,0
-7,379,0,0,0,0,0,0,0,0,0,-1,1217,645,0,0
0,379,0,0,0,0,0,0,0,0,0,-1,1224,645,0,0
7,379,0,0,0,0,0,0,0,0,0,-1,1231,645,0,0
14,379,0,0,0,0,0,0,0,0,0,-1,1238,645,0,0
21,379,0,0,0,0,0,0,0,0,0,-1,1245,645,0,0
28,379,0,0,0,0,0,0,0,0,0,-1,1252,645,0,0
35,379,0,0,0,0,0,0,0,0,0,-1,1259,645,0,0
42,379,0,0,0,0,0,0,0,0,0,-1,1266,645,0,0
49,379,0,0,0,0,0,0,0,0,0,-1,1273,645,0,0
56,379,0,0,0,0,0,0,0,0,0,-1,1280,645,0,0
63,379,0,0,0,0,0,0,0,0,0,-1,1287,645,0,0
70,379,0,0,0,0,0,0,0,0,0,-1,1294,645,0,0
77,379,0,0,0,0,0,0,0,0,0,-1,1301,645,0,0
84,379,0,0,0,0,0,0,0,0,0,-1,1308,645,0,0
91,379,0,0,0,0,0,0,0,0,0,-1,1315,645,0,0
98,379,0,0,0,0,0,0,0,0,0,-1,1322,645,0,0
105,379,0,0,0,0,0,0,0,0,0,-1,1329,645,0,0
112,379,0,0,0,0,0,0,0,0,0,-1,1336,645,0,0
119,379,0,0,0,0,0,0,0,0,0,-1,1343,645,0,0
126,379,0,0,0,0,0,0,0,0,0,-1,1350,645,0,0
133,379,0,0,0,0,0,0,0,0,0,-1,1357,645,0,0
140,379,0,0,0,0,0,0,0,0,0,-1,1364,645,0,0
147,379,0,0,0,0,0,0,0,0,0,-1,1371,645,0,0
154,379,0,0,0,0,0,0,0,0,0,-1,1378,645,0,0
161,379,0,0,0,0,0,0,0,0,0,-1,1385,645,0,0
168,379,0,0,0,0,0,0,0,0,0,-1,1392,645,0,0
175,379,0,0,0,0,0,0,0,0,0,-1,1399,645,0,0
182,379,0,0,0,0,0,0,0,0,0,-1,1406,645,0,0
189,379,0,0,0,0,0,0,0,0,0,-1,1413,645,0,0
196,379,0,0,0,0,0,0,0,0,0,-1,1420,645,0,0
203,379,0,0,0,0,0,0,0,0,0,-1,1427,645,0,0
210,379,0,0,0,0,0,0,0,0,0,-1,1434,645,0,0
217,379,0,0,0,0,0,0,0,0,0,-1,1441,645,0,0
224,379,0,0,0,0,0,0,0,0,0,-1,1448,645,0,0
231,379,0,0,0,0,0,0,0,0,0,-1,1455,645,0,0
238,379,0,0,0,0,0,0,0,0,0,-1,1462,645,0,0
245,379,0,0,0,0,0,0,0,0,0,-1,1469,645,0,0
252,379,0,0,0,0,0,0,0,0,0,-1,1476,645,0,0
259,379,0,0,0,0,0,0,0,0,0,-1,1483,645,0,0
266,379,0,0,0,0,0,0,0,0,0,-1,1490,645,0,0
273,379,0,0,0,0,0,0,0,0,0,-1,1497,645,0,0
280,379,0,0,0,0,0,0,0,0,0,-1,1504,645,0,0
287,379,0,0,0,0,0,0,0,0,0,-1,1511,645,0,0
294,379,0,0,0,0,0,0,0,0,0,-1,1518,645,0,0
301,379,0,0,0,0,0,0,0,0,0,-1,1525,645,0,0
308,379,0,0,0,0,0,0,0,0,0,-1,1532,645,0,0
315,379,0,0,0,0,0,0,0,0,0,-1,1539,645,0,0
322,379,0,0,0,0,0,0,0,0,0,-1,1546,645,0,0
329,379,0,0,0,0,0,0,0,0,0,-1,1553,645,0,0
336,379,0,0,0,0,0,0,0,0,0,-1,1560,645,0,0
343,379,0,0,0,0,0,0,0,0,0,-1,1567,645,0,0
350,379,0,0,0,0,0,0,0,0,0,-1,1574,645,0,0
357,379,0,0,0,0,0,0,0,0,0,-1,1581,645,0,0
364,379,0,0,0,0,0,0,0,0,0,-1,1588,645,0,0
371,379,0,0,0,0,0,0,0,0,0,-1,1595,645,0,0
378,379,0,0,0,0,0,0,0,0,0,-1,1602,645,0,0
385,379,0,0,0,0,0,0,0,0,0,-1,1609,645,0,0
392,379,0,0,0,0,0,0,0,0,0,-1,1616,645,0,0
399,379,0,0,0,0,0,0,0,0,0,-1,1623,645,0,0
406,379,0,0,0,0,0,0,0,0,0,-1,1630,645,0,0
413,379,0,0,0,0,0,0,0,0,0,-1,1637,645,0,0
420,379,0,0,0,0,0,0,0,0,0,-1,1644,645,0,0
427,379,0,0,0,0,0,0,0,0,0,-1,1651,645,0,0
434,379,0,0,0,0,0,0,0,0,0,-1,1658,645,0,0
441,379,0,0,0,0,0,0,0,0,0,-1,1665,645,0,0
448,379,0,0,0,0,0,0,0,0,0,-1,1672,645,0,0
455,379,0,0,0,0,0,0,0,0,0,-1,1679,645,0,0
462,379,0,0,0,0,0,0,0,0,0,-1,1686,645,0,0
469,379,0,0,0,0,0,0,0,0,0,-1,1693,645,0,0
476,379,11.1787,0.830383,0,0,0,0,0,0,0,-1,1700,645,11.1787,-0.830365
483,379,7.4231,1.54321,0,0,0,0,0,0,0,-1,1707,645,7.42314,-1.54324
490,379,8.52881,1.56677,0,0,0,0,0,0,0,-1,1714,645,8.52878,-1.56677
497,379,9.63599,1.49573,0,0,0,0,0,0,0,-1,1721,645,9.63604,-1.4957
504,379,10.0833,1.35229,0,0,0,0,0,0,0,-1,1728,645,10.0832,-1.35227
511,379,8.14343,1.59912,0,0,0,0,0,0,0,-1,1735,645,8.14347,-1.59912
518,379,12.7955,-0.324097,0,0,0,0,0,0,0,-1,1742,645,12.7955,0.324101
525,379,6.03711,1.10352,0,0,0,0,0,0,0,-1,1749,645,6.03711,-1.10351
532,379,8.70947,0.887817,0,0,0,0,0,0,0,-1,1756,645,8.70953,-0.887808
539,379,9.87097,0.111389,0,0,0,0,0,0,0,-1,1763,645,9.87095,-0.111395
546,379,8.42383,-0.730652,0,0,0,0,0,0,0,-1,1770,645,8.42378,0.730638
553,379,19.2905,-7.67834,0,0,0,0,0,0,0,-1,1777,645,19.2905,7.67837
560,379,71.6378,-47.4678,0,0,0,0,0,0,0,-1,1784,645,71.6378,47.4678
567,379,84.3038,-53.5042,0,0,0,0,0,0,0,-1,1791,645,84.3038,53.5041
574,379,139.951,-46.1432,0,0,0,0,0,0,0,-1,1798,645,139.951,46.1432
581,379,138.695,-42.5236,0,0,0,0,0,0,0,-1,1805,645,138.695,42.5236
588,379,137.643,-38.8771,0.00868252,0.0229237,-0.0297534,0.0463967,-0.0147905,-0.902849,0.0368639,0.0445747,1812,645,137.643,38.8771
595,379,136.627,-35.1952,0.00955018,0.0247859,-0.0332051,0.0512358,-0.0168997,-0.898156,0.0409692,0.0368003,1819,645,136.627,35.1952
602,379,135.795,-31.5802,0.0101794,0.0271793,-0.0364808,0.0561373,-0.0187786,-0.899855,0.0450097,0.0271616,1826,645,135.795,31.5802
609,379,134.803,-28.1599,0.0110207,0.0302883,-0.039822,0.0616253,-0.0203163,-0.904079,0.0492721,0.0310587,1833,645,134.803,28.1599
616,379,133.995,-24.6404,0.0119155,0.0338041,-0.0430621,0.0672909,-0.0215713,-0.909839,0.0535203,0.0250274,1840,645,133.995,24.6404
623,379,133.177,-21.1205,0.0127767,0.0373853,-0.0461493,0.0728424,-0.0226804,-0.915677,0.0576292,0.0231206,1847,645,133.177,21.1205
630,379,132.346,-17.8166,0.013585,0.0410181,-0.0489996,0.0781848,-0.0235817,-0.921871,0.0615095,0.0281155,1854,645,132.346,17.8166
637,379,132.125,-14.449,0,0,0,0,0,0,0,-1,1861,645,132.125,14.449
644,379,49.4104,-10.7761,0,0,0,0,0,0,0,-1,1868,645,49.4104,10.7762
651,379,12.9515,0.220825,0,0,0,0,0,0,0,-1,1875,645,12.9515,-0.220814
658,379,13.7498,0.37439,0,0,0,0,0,0,0,-1,1882,645,13.7498,-0.374371
665,379,11.9719,0.353333,0,0,0,0,0,0,0,-1,1889,645,11.9719,-0.353321
672,379,7.57605,2.15326,0,0,0,0,0,0,0,-1,1896,645,7.57599,-2.15326
679,379,8.55078,2.50409,0,0,0,0,0,0,0,-1,1903,645,8.55073,-2.50406
686,379,0,0,0,0,0,0,0,0,0,-1,1910,645,0,0
693,379,0,0,0,0,0,0,0,0,0,-1,1917,645,0,0
700,379,0,0,0,0,0,0,0,0,0,-1,1924,645,0,0
707,379,0,0,0,0,0,0,0,0,0,-1,1931,645,0,0
714,379,0,0,0,0,0,0,0,0,0,-1,1938,645,0,0
721,379,0,0,0,0,0,0,0,0,0,-1,1945,645,0,0
728,379,0,0,0,0,0,0,0,0,0,-1,1952,645,0,0
735,379,0,0,0,0,0,0,0,0,0,-1,1959,645,0,0
742,379,0,0,0,0,0,0,0,0,0,-1,1966,645,0,0
749,379,0,0,0,0,0,0,0,0,0,-1,1973,645,0,0
756,379,0,0,0,0,0,0,0,0,0,-1,1980,645,0,0
763,379,0,0,0,0,0,0,0,0,0,-1,1987,645,0,0
770,379,0,0,0,0,0,0,0,0,0,-1,1994,645,0,0
777,379,0,0,0,0,0,0,0,0,0,-1,2001,645,0,0
784,379,0,0,0,0,0,0,0,0,0,-1,2008,645,0,0
791,379,0,0,0,0,0,0,0,0,0,-1,2015,645,0,0
798,379,0,0,0,0,0,0,0,0,0,-1,2022,645,0,0
805,379,0,0,0,0,0,0,0,0,0,-1,2029,645,0,0
812,379,0,0,0,0,0,0,0,0,0,-1,2036,645,0,0
-700,372,0,0,0,0,0,0,0,0,0,-1,524,652,0,0
-693,372,0,0,0,0,0,0,0,0,0,-1,531,652,0,0
-686,372,0,0,0,0,0,0,0,0,0,-1,538,652,0,0
-679,372,0,0,0,0,0,0,0,0,0,-1,545,652,0,0
-672,372,0,0,0,0,0,0,0,0,0,-1,552,652,0,0
-665,372,0,0,0,0,0,0,0,0,0,-1,559,652,0,0
-658,372,0,0,0,0,0,0,0,0,0,-1,566,652,0,0
-651,372,0,0,0,0,0,0,0,0,0,-1,573,652,0,0
-644,372,0,0,0,0,0,0,0,0,0,-1,580,652,0,0
-637,372,0,0,0,0,0,0,0,0,0,-1,587,652,0,0
-630,372,0,0,0,0,0,0,0,0,0,-1,594,652,0,0
-623,372,0,0,0,0,0,0,0,0,0,-1,601,652,0,0
-616,372,0,0,0,0,0,0,0,0,0,-1,608,652,0,0
-609,372,0,0,0,0,0,0,0,0,0,-1,615,652,0,0
-602,372,0,0,0,0,0,0,0,0,0,-1,622,652,0,0
-595,372,0,0,0,0,0,0,0,0,0,-1,629,652,0,0
-588,372,0,0,0,0,0,0,0,0,0,-1,636,652,0,0
-581,372,0,0,0,0,0,0,0,0,0,-1,643,652,0,0
-574,372,0,0,0,0,0,0,0,0,0,-1,650,652,0,0
-567,372,-7.93744,0.73407,0,0,0,0,0,0,0,-1,657,652,-7.93741,-0.734076
-560,372,-8.78552,-0.158203,0,0,0,0,0,0,0,-1,664,652,-8.78552,0.158216
-553,372,-7.95551,1.61694,0,0,0,0,0,0,0,-1,671,652,-7.95552,-1.61697
-546,372,-4.2403,-3.75372,0,0,0,0,0,0,0,-1,678,652,-4.24028,3.75369
-539,372,-7.92285,-0.0650024,0,0,0,0,0,0,0,-1,685,652,-7.92287,0.0649772
-532,372,-8.59589,-0.419556,0,0,0,0,0,0,0,-1,692,652,-8.59591,0.419539
-525,372,-8.03674,-1.36804,0,0,0,0,0,0,0,-1,699,652,-8.03676,1.36806
-518,372,-39.8794,-10.6113,0,0,0,0,0,0,0,-1,706,652,-39.8794,10.6113
-511,372,-80.2879,-14.7131,0,0,0,0,0,0,0,-1,713,652,-80.2879,14.7131
-504,372,-125.846,-14.4249,0,0,0,0,0,0,0,-1,720,652,-125.846,14.4249
-497,372,-126.75,-17.7773,0.0210363,0.0461957,0.0454549,0.0807795,-0.0135475,0.920395,0.0588905,0.0279605,727,652,-126.75,17.7774
-490,372,-127.635,-21.1309,0.0180325,0.041771,0.0446557,0.0761079,-0.0163044,0.915293,0.0569567,0.0253008,734,652,-127.635,21.1308
-483,372,-128.365,-24.6057,0.0151077,0.0374354,0.0438211,0.0714924,-0.0189493,0.910125,0.0550756,0.0226599,741,652,-128.365,24.6057
-476,372,-128.976,-28.0392,0.0122875,0.0331927,0.0429006,0.0668957,-0.0214156,0.904893,0.0531926,0.0226176,748,652,-128.976,28.0393
-469,372,-129.844,-31.43,0.0096331,0.0290431,0.041866,0.0623142,-0.023638,0.899292,0.0512718,0.0173525,755,652,-129.844,31.43
-462,372,-130.832,-35.0194,0.00725684,0.0250586,0.0405897,0.0577118,-0.0253964,0.893334,0.0491768,0.0143908,762,652,-130.832,35.0194
-455,372,-131.898,-38.6632,0.00520511,0.0212499,0.0391424,0.0531835,-0.0267285,0.886476,0.0469724,0.0220805,769,652,-131.898,38.6632
-448,372,-132.959,-42.4244,0.00354035,0.0178397,0.0373418,0.0487101,-0.0273301,0.879986,0.0444765,0.034772,776,652,-132.959,42.4244
-441,372,-133.663,-46.6776,0,0,0,0,0,0,0,-1,783,652,-133.663,46.6775
-434,372,-9.86865,-9.68494,0,0,0,0,0,0,0,-1,790,652,-9.86863,9.68492
-427,372,-4.54248,-3.56268,0,0,0,0,0,0,0,-1,797,652,-4.54247,3.56266
-420,372,-4.66168,-2.93597,0,0,0,0,0,0,0,-1,804,652,-4.66166,2.93599
-413,372,-4.74762,-3.29541,0,0,0,0,0,0,0,-1,811,652,-4.74763,3.29542
-406,372,-0.885437,-0.583923,0,0,0,0,0,0,0,-1,818,652,-0.885437,0.5839
-399,372,-3.97357,-0.825012,0,0,0,0,0,0,0,-1,825,652,-3.97359,0.825037
-392,372,-7.64337,0.173035,0,0,0,0,0,0,0,-1,832,652,-7.64337,-0.173019
-385,372,-6.48871,-0.0271606,0,0,0,0,0,0,0,-1,839,652,-6.48874,0.0271353
-378,372,-5.33044,-0.242432,0,0,0,0,0,0,0,-1,846,652,-5.33042,0.242457
-371,372,-4.40802,-0.495667,0,0,0,0,0,0,0,-1,853,652,-4.40802,0.495661
-364,372,0,0,0,0,0,0,0,0,0,-1,860,652,0,0
-357,372,0,0,0,0,0,0,0,0,0,-1,867,652,0,0
-350,372,0,0,0,0,0,0,0,0,0,-1,874,652,0,0
-343,372,0,0,0,0,0,0,0,0,0,-1,881,652,0,0
-336,372,0,0,0,0,0,0,0,0,0,-1,888,652,0,0
-329,372,0,0,0,0,0,0,0,0,0,-1,895,652,0,0
-322,372,0,0,0,0,0,0,0,0,0,-1,902,652,0,0
-315,372,0,0,0,0,0,0,0,0,0,-1,909,652,0,0
-308,372,0,0,0,0,0,0,0,0,0,-1,916,652,0,0
-301,372,0,0,0,0,0,0,0,0,0,-1,923,652,0,0
-294,372,0,0,0,0,0,0,0,0,0,-1,930,652,0,0
-287,372,0,0,0,0,0,0,0,0,0,-1,937,652,0,0
-280,372,0,0,0,0,0,0,0,0,0,-1,944,652,0,0
-273,372,0,0,0,0,0,0,0,0,0,-1,951,652,0,0
-266,372,0,0,0,0,0,0,0,0,0,-1,958,652,0,0
-259,372,0,0,0,0,0,0,0,0,0,-1,965,652,0,0
-252,372,0,0,0,0,0,0,0,0,0,-1,972,652,0,0
-245,372,0,0,0,0,0,0,0,0,0,-1,979,652,0,0
-238,372,0,0,0,0,0,0,0,0,0,-1,986,652,0,0
-231,372,0,0,0,0,0,0,0,0,0,-1,993,652,0,0
-224,372,0,0,0,0,0,0,0,0,0,-1,1000,652,0,0
-217,372,0,0,0,0,0,0,0,0,0,-1,1007,652,0,0
-210,372,0,0,0,0,0,0,0,0,0,-1,1014,652,0,0
-203,372,0,0,0,0,0,0,0,0,0,-1,1021,652,0,0
-196,372,0,0,0,0,0,0,0,0,0,-1,1028,652,0,0
-189,372,0,0,0,0,0,0,0,0,0,-1,1035,652,0,0
-182,372,0,0,0,0,0,0,0,0,0,-1,1042,652,0,0
-175,372,0,0,0,0,0,0,0,0,0,-1,1049,652,0,0
-168,372,0,0,0,0,0,0,0,0,0,-1,1056,652,0,0
-161,372,0,0,0,0,0,0,0,0,0,-1,1063,652,0,0
-154,372,0,0,0,0,0,0,0,0,0,-1,1070,652,0,0
-147,372,0,0,0,0,0,0,0,0,0,-1,1077,652,0,0
-140,372,0,0,0,0,0,0,0,0,0,-1,1084,652,0,0
-133,372,0,0,0,0,0,0,0,0,0,-1,1091,652,0,0
-126,372,0,0,0,0,0,0,0,0,0,-1,1098,652,0,0
-119,372,0,0,0,0,0,0,0,0,0,-1,1105,652,0,0
-112,372,0,0,0,0,0,0,0,0,0,-1,1112,652,0,0
-105,372,0,0,0,0,0,0,0,0,0,-1,1119,652,0,0
-98,372,0,0,0,0,0,0,0,0,0,-1,1126,652,0,0
-91,372,0,0,0,0,0,0,0,0,0,-1,1133,652,0,0
-84,372,0,0,0,0,0,0,0,0,0,-1,1140,652,0,0
-77,372,0,0,0,0,0,0,0,0,0,-1,1147,652,0,0
-70,372,0,0,0,0,0,0,0,0,0,-1,1154,652,0,0
-63,372,0,0,0,0,0,0,0,0,0,-1,1161,652,0,0
-56,372,0,0,0,0,0,0,0,0,0,-1,1168,652,0,0
-49,372,0,0,0,0,0,0,0,0,0,-1,1175,652,0,0
-42,372,0,0,0,0,0,0,0,0,0,-1,1182,652,0,0
-35,372,0,0,0,0,0,0,0,0,0,-1,1189,652,0,0
-28,372,0,0,0,0,0,0,0,0,0,-1,1196,652,0,0
-21,372,0,0,0,0,0,0,0,0,0,-1,1203,652,0,0
-14,372,0,0,0,0,0,0,0,0,0,-1,1210,652,0,0
-7,372,0,0,0,0,0,0,0,0,0,-1,1217,652,0,0
0,372,0,0,0,0,0,0,0,0,0,-1,1224,652,0,0
7,372,0,0,0,0,0,0,0,0,0,-1,1231,652,0,0
14,372,0,0,0,0,0,0,0,0,0,-1,1238,652,0,0
21,372,0,0,0,0,0,0,0,0,0,-1,1245,652,0,0
28,372,0,0,0,0,0,0,0,0,0,-1,1252,652,0,0
35,372,0,0,0,0,0,0,0,0,0,-1,1259,652,0,0
42,372,0,0,0,0,0,0,0,0,0,-1,1266,652,0,0
49,372,0,0,0,0,0,0,0,0,0,-1,1273,652,0,0
56,372,0,0,0,0,0,0,0,0,0,-1,1280,652,0,0
63,372,0,0,0,0,0,0,0,0,0,-1,1287,652,0,0
70,372,0,0,0,0,0,0,0,0,0,-1,1294,652,0,0
77,372,0,0,0,0,0,0,0,0,0,-1,1301,652,0,0
84,372,0,0,0,0,0,0,0,0,0,-1,1308,652,0,0
91,372,0,0,0,0,0,0,0,0,0,-1,1315,652,0,0
98,372,0,0,0,0,0,0,0,0,0,-1,1322,652,0,0
105,372,0,0,0,0,0,0,0,0,0,-1,1329,652,0,0
112,372,0,0,0,0,0,0,0,0,0,-1,1336,652,0,0
119,372,0,0,0,0,0,0,0,0,0,-1,1343,652,0,0
126,372,0,0,0,0,0,0,0,0,0,-1,1350,652,0,0
133,372,0,0,0,0,0,0,0,0,0,-1,1357,652,0,0
140,372,0,0,0,0,0,0,0,0,0,-1,1364,652,0,0
147,372,0,0,0,0,0,0,0,0,0,-1,1371,652,0,0
154,372,0,0,0,0,0,0,0,0,0,-1,1378,652,0,0
161,372,0,0,0,0,0,0,0,0,0,-1,1385,652,0,0
168,372,0,0,0,0,0,0,0,0,0,-1,1392,652,0,0
175,372,0,0,0,0,0,0,0,0,0,-1,1399,652,0,0
182,372,0,0,0,0,0,0,0,0,0,-1,1406,652,0,0
189,372,0,0,0,0,0,0,0,0,0,-1,1413,652,0,0
196,372,0,0,0,0,0,0,0,0,0,-1,1420,652,0,0
203,372,0,0,0,0,0,0,0,0,0,-1,1427,652,0,0
210,372,0,0,0,0,0,0,0,0,0,-1,1434,652,0,0
217,372,0,0,0,0,0,0,0,0,0,-1,1441,652,0,0
224,372,0,0,0,0,0,0,0,0,0,-1,1448,652,0,0
231,372,0,0,0,0,0,0,0,0,0,-1,1455,652,0,0
238,372,0,0,0,0,0,0,0,0,0,-1,1462,652,0,0
245,372,0,0,0,0,0,0,0,0,0,-1,1469,652,0,0
252,372,0,0,0,0,0,0,0,0,0,-1,1476,652,0,0
259,372,0,0,0,0,0,0,0,0,0,-1,1483,652,0,0
266,372,0,0,0,0,0,0,0,0,0,-1,1490,652,0,0
273,372,0,0,0,0,0,0,0,0,0,-1,1497,652,0,0
280,372,0,0,0,0,0,0,0,0,0,-1,1504,652,0,0
287,372,0,0,0,0,0,0,0,0,0,-1,1511,652,0,0
294,372,0,0,0,0,0,0,0,0,0,-1,1518,652,0,0
301,372,0,0,0,0,0,0,0,0,0,-1,1525,652,0,0
308,372,0,0,0,0,0,0,0,0,0,-1,1532,652,0,0
315,372,0,0,0,0,0,0,0,0,0,-1,1539,652,0,0
322,372,0,0,0,0,0,0,0,0,0,-1,1546,652,0,0
329,372,0,0,0,0,0,0,0,0,0,-1,1553,652,0,0
336,372,0,0,0,0,0,0,0,0,0,-1,1560,652,0,0
343,372,0,0,0,0,0,0,0,0,0,-1,1567,652,0,0
350,372,0,0,0,0,0,0,0,0,0,-1,1574,652,0,0
357,372,0,0,0,0,0,0,0,0,0,-1,1581,652,0,0
364,372,0,0,0,0,0,0,0,0,0,-1,1588,652,0,0
371,372,0,0,0,0,0,0,0,0,0,-1,1595,652,0,0
378,372,0,0,0,0,0,0,0,0,0,-1,1602,652,0,0
385,372,0,0,0,0,0,0,0,0,0,-1,1609,652,0,0
392,372,0,0,0,0,0,0,0,0,0,-1,1616,652,0,0
399,372,0,0,0,0,0,0,0,0,0,-1,1623,652,0,0
406,372,0,0,0,0,0,0,0,0,0,-1,1630,652,0,0
413,372,0,0,0,0,0,0,0,0,0,-1,1637,652,0,0
420,372,0,0,0,0,0,0,0,0,0,-1,1644,652,0,0
427,372,0,0,0,0,0,0,0,0,0,-1,1651,652,0,0
434,372,0,0,0,0,0,0,0,0,0,-1,1658,652,0,0
441,372,0,0,0,0,0,0,0,0,0,-1,1665,652,0,0
448,372,0,0,0,0,0,0,0,0,0,-1,1672,652,0,0
455,372,0,0,0,0,0,0,0,0,0,-1,1679,652,0,0
462,372,0,0,0,0,0,0,0,0,0,-1,1686,652,0,0
469,372,0,0,0,0,0,0,0,0,0,-1,1693,652,0,0
476,372,0,0,0,0,0,0,0,0,0,-1,1700,652,0,0
483,372,8.74182,1.53125,0,0,0,0,0,0,0,-1,1707,652,8.74186,-1.53126
490,372,9.78455,1.67096,0,0,0,0,0,0,0,-1,1714,652,9.7846,-1.67093
497,372,9.97644,1.46069,0,0,0,0,0,0,0,-1,1721,652,9.97647,-1.46071
504,372,10.1216,1.28375,0,0,0,0,0,0,0,-1,1728,652,10.1216,-1.28376
511,372,11.7367,-0.0272217,0,0,0,0,0,0,0,-1,1735,652,11.7367,0.0272326
518,372,12.0657,-0.0995483,0,0,0,0,0,0,0,-1,1742,652,12.0657,0.0995285
525,372,12.3947,-0.171814,0,0,0,0,0,0,0,-1,1749,652,12.3946,0.171824
532,372,9.36597,1.72034,0,0,0,0,0,0,0,-1,1756,652,9.36597,-1.72036
539,372,7.82886,-0.0865479,0,0,0,0,0,0,0,-1,1763,652,7.82882,0.0865771
546,372,10.953,-0.187195,0,0,0,0,0,0,0,-1,1770,652,10.953,0.187181
553,372,14.1201,-4.83234,0,0,0,0,0,0,0,-1,1777,652,14.1201,4.83235
560,372,73.8258,-45.9283,0,0,0,0,0,0,0,-1,1784,652,73.8258,45.9284
567,372,77.1294,-46.5966,0,0,0,0,0,0,0,-1,1791,652,77.1294,46.5965
574,372,86.9434,-49.3795,0,0,0,0,0,0,0,-1,1798,652,86.9433,49.3795
581,372,142.683,-41.6841,0,0,0,0,0,0,0,-1,1805,652,142.683,41.6841
588,372,141.694,-37.851,0.00605827,0.0212455,-0.0242693,0.0390814,-0.0117777,-0.937018,0.0307416,0.041444,1812,652,141.694,37.851
595,372,140.691,-34.1494,0.00692637,0.0231835,-0.0281929,0.0443963,-0.0142864,-0.925752,0.0353358,0.0195972,1819,652,140.691,34.1494
602,372,139.793,-30.5313,0.00743685,0.0256178,-0.0318218,0.0496221,-0.0165674,-0.924527,0.0397712,0.0323946,1826,652,139.793,30.5312
609,372,138.775,-27.2087,0.0081979,0.0286218,-0.0354104,0.0552633,-0.0184436,-0.925783,0.0442892,0.0407843,1833,652,138.775,27.2087
616,372,137.99,-23.7451,0.00904187,0.0319171,-0.038887,0.0610136,-0.0200547,-0.928427,0.0487555,0.0376831,1840,652,137.99,23.745
623,372,137.245,-20.2407,0.00996108,0.0352244,-0.0422035,0.0666461,-0.0214606,-0.930807,0.0530514,0.0263828,1847,652,137.245,20.2407
630,372,136.478,-16.9583,0.0108776,0.0385385,-0.0453061,0.0720782,-0.022662,-0.933539,0.0571247,0.03219,1854,652,136.478,16.9582
637,372,135.933,-13.6329,0.0119125,0.0418848,-0.0481894,0.0773645,-0.0235672,-0.93615,0.0609698,0.0496537,1861,652,135.933,13.6329
644,372,135.155,-10.0574,0,0,0,0,0,0,0,-1,1868,652,135.155,10.0574
651,372,21.3998,-0.888,0,0,0,0,0,0,0,-1,1875,652,21.3998,0.887992
658,372,14.157,0.280273,0,0,0,0,0,0,0,-1,1882,652,14.157,-0.280264
665,372,15.2286,0.463867,0,0,0,0,0,0,0,-1,1889,652,15.2287,-0.463854
672,372,9.34106,1.48444,0,0,0,0,0,0,0,-1,1896,652,9.34109,-1.48444
679,372,10.7308,2.32391,0,0,0,0,0,0,0,-1,1903,652,10.7309,-2.3239
686,372,11.6295,2.52997,0,0,0,0,0,0,0,-1,1910,652,11.6296,-2.52996
693,372,0,0,0,0,0,0,0,0,0,-1,1917,652,0,0
700,372,0,0,0,0,0,0,0,0,0,-1,1924,652,0,0
707,372,0,0,0,0,0,0,0,0,0,-1,1931,652,0,0
714,372,0,0,0,0,0,0,0,0,0,-1,1938,652,0,0
721,372,0,0,0,0,0,0,0,0,0,-1,1945,652,0,0
728,372,0,0,0,0,0,0,0,0,0,-1,1952,652,0,0
735,372,0,0,0,0,0,0,0,0,0,-1,1959,652,0,0
742,372,0,0,0,0,0,0,0,0,0,-1,1966,652,0,0
749,372,0,0,0,0,0,0,0,0,0,-1,1973,652,0,0
756,372,0,0,0,0,0,0,0,0,0,-1,1980,652,0,0
763,372,0,0,0,0,0,0,0,0,0,-1,1987,652,0,0
770,372,0,0,0,0,0,0,0,0,0,-1,1994,652,0,0
777,372,0,0,0,0,0,0,0,0,0,-1,2001,652,0,0
784,372,0,0,0,0,0,0,0,0,0,-1,2008,652,0,0
791,372,0,0,0,0,0,0,0,0,0,-1,2015,652,0,0
798,372,0,0,0,0,0,0,0,0,0,-1,2022,652,0,0
805,372,0,0,0,0,0,0,0,0,0,-1,2029,652,0,0
812,372,0,0,0,0,0,0,0,0,0,-1,2036,652,0,0
-700,365,0,0,0,0,0,0,0,0,0,-1,524,659,0,0
-693,365,0,0,0,0,0,0,0,0,0,-1,531,659,0,0
-686,365,0,0,0,0,0,0,0,0,0,-1,538,659,0,0
-679,365,0,0,0,0,0,0,0,0,0,-1,545,659,0,0
-672,365,0,0,0,0,0,0,0,0,0,-1,552,659,0,0
-665,365,0,0,0,0,0,0,0,0,0,-1,559,659,0,0
-658,365,0,0,0,0,0,0,0,0,0,-1,566,659,0,0
-651,365,0,0,0,0,0,0,0,0,0,-1,573,659,0,0
-644,365,0,0,0,0,0,0,0,0,0,-1,580,659,0,0
-637,365,0,0,0,0,0,0,0,0,0,-1,587,659,0,0
-630,365,0,0,0,0,0,0,0,0,0,-1,594,659,0,0
-623,365,0,0,0,0,0,0,0,0,0,-1,601,659,0,0
-616,365,0,0,0,0,0,0,0,0,0,-1,608,659,0,0
-609,365,0,0,0,0,0,0,0,0,0,-1,615,659,0,0
-602,365,0,0,0,0,0,0,0,0,0,-1,622,659,0,0
-595,365,0,0,0,0,0,0,0,0,0,-1,629,659,0,0
-588,365,0,0,0,0,0,0,0,0,0,-1,636,659,0,0
-581,365,0,0,0,0,0,0,0,0,0,-1,643,659,0,0
-574,365,-7.69281,1.59015,0,0,0,0,0,0,0,-1,650,659,-7.69282,-1.59018
-567,365,-8.2583,1.72638,0,0,0,0,0,0,0,-1,657,659,-8.25827,-1.72637
-560,365,-7.17767,0.275757,0,0,0,0,0,0,0,-1,664,659,-7.17768,-0.27577
-553,365,-10.0349,-0.169617,0,0,0,0,0,0,0,-1,671,659,-10.0349,0.169593
-546,365,-10.6303,-1.51642,0,0,0,0,0,0,0,-1,678,659,-10.6303,1.5164
-539,365,-8.38599,1.52936,0,0,0,0,0,0,0,-1,685,659,-8.38598,-1.52935
-532,365,-8.52863,0.166504,0,0,0,0,0,0,0,-1,692,659,-8.52863,-0.166501
-525,365,-9.28229,-2.62726,0,0,0,0,0,0,0,-1,699,659,-9.28227,2.62724
-518,365,-51.3718,-12.6115,0,0,0,0,0,0,0,-1,706,659,-51.3718,12.6115
-511,365,-129.101,-9.85834,0,0,0,0,0,0,0,-1,713,659,-129.101,9.85834
-504,365,-129.88,-13.2768,0.0204906,0.0463598,0.0444079,0.0796785,-0.0128281,0.927112,0.0578709,0.0230726,720,659,-129.88,13.2768
-497,365,-130.708,-16.75,0.0175512,0.0422081,0.0432063,0.0748104,-0.0150511,0.924375,0.0555742,0.0190501,727,659,-130.708,16.75
-490,365,-131.56,-20.1652,0.0145606,0.0381536,0.0421083,0.0700866,-0.0173724,0.921971,0.0534644,0.0212166,734,659,-131.56,20.1652
-483,365,-132.385,-23.5018,0.011529,0.0340753,0.0411063,0.0654262,-0.019822,0.91923,0.0515121,0.0186795,741,659,-132.385,23.5018
-476,365,-133.048,-26.993,0.00853199,0.0300505,0.0401101,0.0608194,-0.0222368,0.916435,0.0496472,0.0201854,748,659,-133.048,26.993
-469,365,-133.897,-30.3871,0.00563682,0.0260625,0.0390823,0.0562443,-0.024545,0.913198,0.0478256,0.0211073,755,659,-133.897,30.3872
-462,365,-134.78,-33.7182,0.00297732,0.0221662,0.0379002,0.0516675,-0.026524,0.909369,0.0459153,0.0259036,762,659,-134.78,33.7182
-455,365,-135.968,-37.1794,0.000674942,0.0184417,0.0366471,0.0472667,-0.0281501,0.904306,0.0440057,0.0353216,769,659,-135.968,37.1794
-448,365,-137.458,-41.2821,0,0,0,0,0,0,0,-1,776,659,-137.458,41.2821
-441,365,-105.474,-47.8329,0,0,0,0,0,0,0,-1,783,659,-105.474,47.833
-434,365,-5.45056,-3.98041,0,0,0,0,0,0,0,-1,790,659,-5.45055,3.98042
-427,365,-5.05377,-4.74689,0,0,0,0,0,0,0,-1,797,659,-5.05376,4.7469
-420,365,-4.58813,-3.16376,0,0,0,0,0,0,0,-1,804,659,-4.58816,3.16374
-413,365,0.141357,0.672729,0,0,0,0,0,0,0,-1,811,659,0.141365,-0.672714
-406,365,-1.75067,-0.934448,0,0,0,0,0,0,0,-1,818,659,-1.7507,0.934424
-399,365,-4.10242,-1.25439,0,0,0,0,0,0,0,-1,825,659,-4.10244,1.25438
-392,365,-7.46545,-0.779724,0,0,0,0,0,0,0,-1,832,659,-7.46543,0.779744
-385,365,-6.27875,-0.887573,0,0,0,0,0,0,0,-1,839,659,-6.27874,0.887545
-378,365,-5.34503,-0.263306,0,0,0,0,0,0,0,-1,846,659,-5.34504,0.263275
-371,365,0,0,0,0,0,0,0,0,0,-1,853,659,0,0
-364,365,0,0,0,0,0,0,0,0,0,-1,860,659,0,0
-357,365,0,0,0,0,0,0,0,0,0,-1,867,659,0,0
-350,365,0,0,0,0,0,0,0,0,0,-1,874,659,0,0
-343,365,0,0,0,0,0,0,0,0,0,-1,881,659,0,0
-336,365,0,0,0,0,0,0,0,0,0,-1,888,659,0,0
-329,365,0,0,0,0,0,0,0,0,0,-1,895,659,0,0
-322,365,0,0,0,0,0,0,0,0,0,-1,902,659,0,0
-315,365,0,0,0,0,0,0,0,0,0,-1,909,659,0,0
-308,365,0,0,0,0,0,0,0,0,0,-1,916,659,0,0
-301,365,0,0,0,0,0,0,0,0,0,-1,923,659,0,0
-294,365,0,0,0,0,0,0,0,0,0,-1,930,659,0,0
-287,365,0,0,0,0,0,0,0,0,0,-1,937,659,0,0
-280,365,0,0,0,0,0,0,0,0,0,-1,944,659,0,0
-273,365,0,0,0,0,0,0,0,0,0,-1,951,659,0,0
-266,365,0,0,0,0,0,0,0,0,0,-1,958,659,0,0
-259,365,0,0,0,0,0,0,0,0,0,-1,965,659,0,0
-252,365,0,0,0,0,0,0,0,0,0,-1,972,659,0,0
-245,365,0,0,0,0,0,0,0,0,0,-1,979,659,0,0
-238,365,0,0,0,0,0,0,0,0,0,-1,986,659,0,0
-231,365,0,0,0,0,0,0,0,0,0,-1,993,659,0,0
-224,365,0,0,0,0,0,0,0,0,0,-1,1000,659,0,0
-217,365,0,0,0,0,0,0,0,0,0,-1,1007,659,0,0
-210,365,0,0,0,0,0,0,0,0,0,-1,1014,659,0,0
-203,365,0,0,0,0,0,0,0,0,0,-1,1021,659,0,0
-196,365,0,0,0,0,0,0,0,0,0,-1,1028,659,0,0
-189,365,0,0,0,0,0,0,0,0,0,-1,1035,659,0,0
-182,365,0,0,0,0,0,0,0,0,0,-1,1042,659,0,0
-175,365,0,0,0,0,0,0,0,0,0,-1,1049,659,0,0
-168,365,0,0,0,0,0,0,0,0,0,-1,1056,659,0,0
-161,365,0,0,0,0,0,0,0,0,0,-1,1063,659,0,0
-154,365,0,0,0,0,0,0,0,0,0,-1,1070,659,0,0
-147,365,0,0,0,0,0,0,0,0,0,-1,1077,659,0,0
-140,365,0,0,0,0,0,0,0,0,0,-1,1084,659,0,0
-133,365,0,0,0,0,0,0,0,0,0,-1,1091,659,0,0
-126,365,0,0,0,0,0,0,0,0,0,-1,1098,659,0,0
-119,365,0,0,0,0,0,0,0,0,0,-1,1105,659,0,0
-112,365,0,0,0,0,0,0,0,0,0,-1,1112,659,0,0
-105,365,0,0,0,0,0,0,0,0,0,-1,1119,659,0,0
-98,365,0,0,0,0,0,0,0,0,0,-1,1126,659,0,0
-91,365,0,0,0,0,0,0,0,0,0,-1,1133,659,0,0
-84,365,0,0,0,0,0,0,0,0,0,-1,1140,659,0,0
-77,365,0,0,0,0,0,0,0,0,0,-1,1147,659,0,0
-70,365,0,0,0,0,0,0,0,0,0,-1,1154,659,0,0
-63,365,0,0,0,0,0,0,0,0,0,-1,1161,659,0,0
-56,365,0,0,0,0,0,0,0,0,0,-1,1168,659,0,0
-49,365,0,0,0,0,0,0,0,0,0,-1,1175,659,0,0
-42,365,0,0,0,0,0,0,0,0,0,-1,1182,659,0,0
-35,365,0,0,0,0,0,0,0,0,0,-1,1189,659,0,0
-28,365,0,0,0,0,0,0,0,0,0,-1,1196,659,0,0
-21,365,0,0,0,0,0,0,0,0,0,-1,1203,659,0,0
-14,365,0,0,0,0,0,0,0,0,0,-1,1210,659,0,0
-7,365,0,0,0,0,0,0,0,0,0,-1,1217,659,0,0
0,365,0,0,0,0,0,0,0,0,0,-1,1224,659,0,0
7,365,0,0,0,0,0,0,0,0,0,-1,1231,659,0,0
14,365,0,0,0,0,0,0,0,0,0,-1,1238,659,0,0
21,365,0,0,0,0,0,0,0,0,0,-1,1245,659,0,0
28,365,0,0,0,0,0,0,0,0,0,-1,1252,659,0,0
35,365,0,0,0,0,0,0,0,0,0,-1,1259,659,0,0
42,365,0,0,0,0,0,0,0,0,0,-1,1266,659,0,0
49,365,0,0,0,0,0,0,0,0,0,-1,1273,659,0,0
56,365,0,0,0,0,0,0,0,0,0,-1,1280,659,0,0
63,365,0,0,0,0,0,0,0,0,0,-1,1287,659,0,0
70,365,0,0,0,0,0,0,0,0,0,-1,1294,659,0,0
77,365,0,0,0,0,0,0,0,0,0,-1,1301,659,0,0
84,365,0,0,0,0,0,0,0,0,0,-1,1308,659,0,0
91,365,0,0,0,0,0,0,0,0,0,-1,1315,659,0,0
98,365,0,0,0,0,0,0,0,0,0,-1,1322,659,0,0
105,365,0,0,0,0,0,0,0,0,0,-1,1329,659,0,0
112,365,0,0,0,0,0,0,0,0,0,-1,1336,659,0,0
119,365,0,0,0,0,0,0,0,0,0,-1,1343,659,0,0
126,365,0,0,0,0,0,0,0,0,0,-1,1350,659,0,0
133,365,0,0,0,0,0,0,0,0,0,-1,1357,659,0,0
140,365,0,0,0,0,0,0,0,0,0,-1,1364,659,0,0
147,365,0,0,0,0,0,0,0,0,0,-1,1371,659,0,0
154,365,0,0,0,0,0,0,0,0,0,-1,1378,659,0,0
161,365,0,0,0,0,0,0,0,0,0,-1,1385,659,0,0
168,365,0,0,0,0,0,0,0,0,0,-1,1392,659,0,0
175,365,0,0,0,0,0,0,0,0,0,-1,1399,659,0,0
182,365,0,0,0,0,0,0,0,0,0,-1,1406,659,0,0
189,365,0,0,0,0,0,0,0,0,0,-1,1413,659,0,0
196,365,0,0,0,0,0,0,0,0,0,-1,1420,659,0,0
203,365,0,0,0,0,0,0,0,0,0,-1,1427,659,0,0
210,365,0,0,0,0,0,0,0,0,0,-1,1434,659,0,0
217,365,0,0,0,0,0,0,0,0,0,-1,1441,659,0,0
224,365,0,0,0,0,0,0,0,0,0,-1,1448,659,0,0
231,365,0,0,0,0,0,0,0,0,0,-1,1455,659,0,0
238,365,0,0,0,0,0,0,0,0,0,-1,1462,659,0,0
245,365,0,0,0,0,0,0,0,0,0,-1,1469,659,0,0
252,365,0,0,0,0,0,0,0,0,0,-1,1476,659,0,0
259,365,0,0,0,0,0,0,0,0,0,-1,1483,659,0,0
266,365,0,0,0,0,0,0,0,0,0,-1,1490,659,0,0
273,365,0,0,0,0,0,0,0,0,0,-1,1497,659,0,0
280,365,0,0,0,0,0,0,0,0,0,-1,1504,659,0,0
287,365,0,0,0,0,0,0,0,0,0,-1,1511,659,0,0
294,365,0,0,0,0,0,0,0,0,0,-1,1518,659,0,0
301,365,0,0,0,0,0,0,0,0,0,-1,1525,659,0,0
308,365,0,0,0,0,0,0,0,0,0,-1,1532,659,0,0
315,365,0,0,0,0,0,0,0,0,0,-1,1539,659,0,0
322,365,0,0,0,0,0,0,0,0,0,-1,1546,659,0,0
329,365,0,0,0,0,0,0,0,0,0,-1,1553,659,0,0
336,365,0,0,0,0,0,0,0,0,0,-1,1560,659,0,0
343,365,0,0,0,0,0,0,0,0,0,-1,1567,659,0,0
350,365,0,0,0,0,0,0,0,0,0,-1,1574,659,0,0
357,365,0,0,0,0,0,0,0,0,0,-1,1581,659,0,0
364,365,0,0,0,0,0,0,0,0,0,-1,1588,659,0,0
371,365,0,0,0,0,0,0,0,0,0,-1,1595,659,0,0
378,365,0,0,0,0,0,0,0,0,0,-1,1602,659,0,0
385,365,0,0,0,0,0,0,0,0,0,-1,1609,659,0,0
392,365,0,0,0,0,0,0,0,0,0,-1,1616,659,0,0
399,365,0,0,0,0,0,0,0,0,0,-1,1623,659,0,0
406,365,0,0,0,0,0,0,0,0,0,-1,1630,659,0,0
413,365,0,0,0,0,0,0,0,0,0,-1,1637,659,0,0
420,365,0,0,0,0,0,0,0,0,0,-1,1644,659,0,0
427,365,0,0,0,0,0,0,0,0,0,-1,1651,659,0,0
434,365,0,0,0,0,0,0,0,0,0,-1,1658,659,0,0
441,365,0,0,0,0,0,0,0,0,0,-1,1665,659,0,0
448,365,0,0,0,0,0,0,0,0,0,-1,1672,659,0,0
455,365,0,0,0,0,0,0,0,0,0,-1,1679,659,0,0
462,365,0,0,0,0,0,0,0,0,0,-1,1686,659,0,0
469,365,0,0,0,0,0,0,0,0,0,-1,1693,659,0,0
476,365,0,0,0,0,0,0,0,0,0,-1,1700,659,0,0
483,365,0,0,0,0,0,0,0,0,0,-1,1707,659,0,0
490,365,8.39551,0.471252,0,0,0,0,0,0,0,-1,1714,659,8.39551,-0.471241
497,365,9.89233,1.35394,0,0,0,0,0,0,0,-1,1721,659,9.89237,-1.35396
504,365,10.1414,1.18005,0,0,0,0,0,0,0,-1,1728,659,10.1413,-1.18004
511,365,10.5151,0.993896,0,0,0,0,0,0,0,-1,1735,659,10.5152,-0.993894
518,365,11.2029,0.398132,0,0,0,0,0,0,0,-1,1742,659,11.2029,-0.398136
525,365,15.5748,3.85303,0,0,0,0,0,0,0,-1,1749,659,15.5748,-3.85303
532,365,11.2446,1.00629,0,0,0,0,0,0,0,-1,1756,659,11.2446,-1.00631
539,365,12.6301,1.03204,0,0,0,0,0,0,0,-1,1763,659,12.6302,-1.03204
546,365,11.647,0.84198,0,0,0,0,0,0,0,-1,1770,659,11.6469,-0.841955
553,365,12.028,-0.558899,0,0,0,0,0,0,0,-1,1777,659,12.028,0.558873
560,365,14.5372,-4.55548,0,0,0,0,0,0,0,-1,1784,659,14.5373,4.55547
567,365,76.046,-42.9528,0,0,0,0,0,0,0,-1,1791,659,76.0461,42.9528
574,365,79.3885,-42.8714,0,0,0,0,0,0,0,-1,1798,659,79.3886,42.8714
581,365,132.355,-40.6136,0,0,0,0,0,0,0,-1,1805,659,132.355,40.6136
588,365,146.045,-36.7397,0,0,0,0,0,0,0,-1,1812,659,146.045,36.7397
595,365,144.797,-33.0994,0.00496081,0.0217252,-0.0231518,0.0379656,-0.0112795,-0.959084,0.0297907,0.0294681,1819,659,144.797,33.0994
602,365,143.718,-29.48,0.00534239,0.0244111,-0.0272478,0.0437445,-0.013991,-0.953696,0.0347778,0.0341072,1826,659,143.718,29.48
609,365,142.967,-25.8741,0.00603509,0.0273905,-0.0311267,0.04962,-0.0161944,-0.950629,0.0395978,0.0449883,1833,659,142.967,25.8741
616,365,142.135,-22.5046,0.00678251,0.0304415,-0.0348442,0.0554094,-0.0181855,-0.949042,0.0442647,0.046272,1840,659,142.135,22.5046
623,365,141.215,-19.3365,0.00761205,0.0334073,-0.0383461,0.0609667,-0.0199473,-0.947629,0.0486756,0.0188835,1847,659,141.215,19.3365
630,365,140.492,-15.9713,0.00845897,0.0363048,-0.0416303,0.0662787,-0.0215149,-0.946772,0.0528383,0.0230275,1854,659,140.492,15.9713
637,365,139.801,-12.7722,0.00942355,0.0391696,-0.0447147,0.07142,-0.0228268,-0.945952,0.0567731,0.0313428,1861,659,139.801,12.7722
644,365,138.988,-9.55969,0.0105064,0.0418348,-0.0474385,0.0761283,-0.0237872,-0.944862,0.0602669,0.0405486,1868,659,138.988,9.55972
651,365,138.327,-5.75922,0,0,0,0,0,0,0,-1,1875,659,138.327,5.75924
658,365,24.745,-2.13275,0,0,0,0,0,0,0,-1,1882,659,24.745,2.13277
665,365,14.0961,0.769043,0,0,0,0,0,0,0,-1,1889,659,14.0961,-0.769063
672,365,10.0579,2.15088,0,0,0,0,0,0,0,-1,1896,659,10.0579,-2.15088
679,365,10.9718,2.19208,0,0,0,0,0,0,0,-1,1903,659,10.9718,-2.19211
686,365,12.2134,2.17108,0,0,0,0,0,0,0,-1,1910,659,12.2134,-2.17109
693,365,13.7141,1.98279,0,0,0,0,0,0,0,-1,1917,659,13.7141,-1.98278
700,365,0,0,0,0,0,0,0,0,0,-1,1924,659,0,0
707,365,0,0,0,0,0,0,0,0,0,-1,1931,659,0,0
714,365,0,0,0,0,0,0,0,0,0,-1,1938,659,0,0
721,365,0,0,0,0,0,0,0,0,0,-1,1945,659,0,0
728,365,0,0,0,0,0,0,0,0,0,-1,1952,659,0,0
735,365,0,0,0,0,0,0,0,0,0,-1,1959,659,0,0
742,365,0,0,0,0,0,0,0,0,0,-1,1966,659,0,0
749,365,0,0,0,0,0,0,0,0,0,-1,1973,659,0,0
756,365,0,0,0,0,0,0,0,0,0,-1,1980,659,0,0
763,365,0,0,0,0,0,0,0,0,0,-1,1987,659,0,0
770,365,0,0,0,0,0,0,0,0,0,-1,1994,659,0,0
777,365,0,0,0,0,0,0,0,0,0,-1,2001,659,0,0
784,365,0,0,0,0,0,0,0,0,0,-1,2008,659,0,0
791,365,0,0,0,0,0,0,0,0,0,-1,2015,659,0,0
798,365,0,0,0,0,0,0,0,0,0,-1,2022,659,0,0
805,365,0,0,0,0,0,0,0,0,0,-1,2029,659,0,0
812,365,0,0,0,0,0,0,0,0,0,-1,2036,659,0,0
-700,358,0,0,0,0,0,0,0,0,0,-1,524,666,0,0
-693,358,0,0,0,0,0,0,0,0,0,-1,531,666,0,0
-686,358,0,0,0,0,0,0,0,0,0,-1,538,666,0,0
-679,358,0,0,0,0,0,0,0,0,0,-1,545,666,0,0
-672,358,0,0,0,0,0,0,0,0,0,-1,552,666,0,0
-665,358,0,0,0,0,0,0,0,0,0,-1,559,666,0,0
-658,358,0,0,0,0,0,0,0,0,0,-1,566,666,0,0
-651,358,0,0,0,0,0,0,0,0,0,-1,573,666,0,0
-644,358,0,0,0,0,0,0,0,0,0,-1,580,666,0,0
-637,358,0,0,0,0,0,0,0,0,0,-1,587,666,0,0
-630,358,0,0,0,0,0,0,0,0,0,-1,594,666,0,0
-623,358,0,0,0,0,0,0,0,0,0,-1,601,666,0,0
-616,358,0,0,0,0,0,0,0,0,0,-1,608,666,0,0
-609,358,0,0,0,0,0,0,0,0,0,-1,615,666,0,0
-602,358,0,0,0,0,0,0,0,0,0,-1,622,666,0,0
-595,358,0,0,0,0,0,0,0,0,0,-1,629,666,0,0
-588,358,0,0,0,0,0,0,0,0,0,-1,636,666,0,0
-581,358,-8.31616,1.61993,0,0,0,0,0,0,0,-1,643,666,-8.31614,-1.61993
-574,358,-8.22406,1.75385,0,0,0,0,0,0,0,-1,650,666,-8.22408,-1.75383
-567,358,-8.14215,1.91577,0,0,0,0,0,0,0,-1,657,666,-8.14214,-1.91579
-560,358,-10.6086,2.18872,0,0,0,0,0,0,0,-1,664,666,-10.6086,-2.18873
-553,358,-13.4767,1.09552,0,0,0,0,0,0,0,-1,671,666,-13.4767,-1.09551
-546,358,-13.3743,-0.185059,0,0,0,0,0,0,0,-1,678,666,-13.3743,0.185037
-539,358,-9.43884,-2.04785,0,0,0,0,0,0,0,-1,685,666,-9.43884,2.04785
-532,358,-12.4141,-2.36572,0,0,0,0,0,0,0,-1,692,666,-12.4141,2.3657
-525,358,-12.731,-3.88031,0,0,0,0,0,0,0,-1,699,666,-12.731,3.88029
-518,358,-132.818,-6.04846,0,0,0,0,0,0,0,-1,706,666,-132.818,6.04848
-511,358,-133.295,-9.2652,0.0195704,0.0456851,0.0438209,0.0783526,-0.0130971,0.930195,0.0571036,0.0307521,713,666,-133.295,9.26522
-504,358,-133.829,-12.4987,0.0171857,0.0425253,0.04213,0.0738494,-0.0141383,0.931462,0.0545597,0.0177758,720,666,-133.829,12.4986
-497,358,-134.612,-15.8267,0.0142998,0.0388659,0.0407312,0.0691258,-0.0159601,0.931843,0.0522232,0.0165678,727,666,-134.612,15.8267
-490,358,-135.403,-19.2031,0.0113111,0.0352341,0.0394291,0.0644762,-0.017931,0.93267,0.0500436,0.0156202,734,666,-135.403,19.2031
-483,358,-136.182,-22.5097,0.0081653,0.0314964,0.038297,0.0598651,-0.0202034,0.933237,0.0480809,0.0134716,741,666,-136.182,22.5097
-476,358,-137.018,-25.9196,0.00497657,0.0277341,0.0372292,0.0552846,-0.0225739,0.93371,0.0462551,0.0181739,748,666,-137.018,25.9196
-469,358,-137.932,-29.2735,0.0017923,0.0238944,0.0361839,0.0506772,-0.0249905,0.933606,0.0445179,0.0246028,755,666,-137.932,29.2735
-462,358,-138.771,-32.338,-0.00129137,0.0199812,0.035079,0.0460009,-0.0273111,0.932598,0.0427827,0.0443463,762,666,-138.77,32.3379
-455,358,-140.044,-35.6606,0,0,0,0,0,0,0,-1,769,666,-140.044,35.6606
-448,358,-108.503,-42.5771,0,0,0,0,0,0,0,-1,776,666,-108.503,42.5771
-441,358,-5.56293,-3.98041,0,0,0,0,0,0,0,-1,783,666,-5.56291,3.98043
-434,358,-5.21558,-4.43127,0,0,0,0,0,0,0,-1,790,666,-5.21559,4.43125
-427,358,-3.56189,-3.15729,0,0,0,0,0,0,0,-1,797,666,-3.56192,3.15729
-420,358,0.200195,1.08234,0,0,0,0,0,0,0,-1,804,666,0.200174,-1.08231
-413,358,0.0325317,0.161072,0,0,0,0,0,0,0,-1,811,666,0.0325501,-0.161098
-406,358,-3.85846,0.753113,0,0,0,0,0,0,0,-1,818,666,-3.85846,-0.753129
-399,358,-1.31213,0.190735,0,0,0,0,0,0,0,-1,825,666,-1.31215,-0.190763
-392,358,-3.73914,-0.832214,0,0,0,0,0,0,0,-1,832,666,-3.73915,0.832202
-385,358,-5.95178,-1.69141,0,0,0,0,0,0,0,-1,839,666,-5.9518,1.69143
-378,358,0,0,0,0,0,0,0,0,0,-1,846,666,0,0
-371,358,0,0,0,0,0,0,0,0,0,-1,853,666,0,0
-364,358,0,0,0,0,0,0,0,0,0,-1,860,666,0,0
-357,358,0,0,0,0,0,0,0,0,0,-1,867,666,0,0
-350,358,0,0,0,0,0,0,0,0,0,-1,874,666,0,0
-343,358,0,0,0,0,0,0,0,0,0,-1,881,666,0,0
-336,358,0,0,0,0,0,0,0,0,0,-1,888,666,0,0
-329,358,0,0,0,0,0,0,0,0,0,-1,895,666,0,0
-322,358,0,0,0,0,0,0,0,0,0,-1,902,666,0,0
-315,358,0,0,0,0,0,0,0,0,0,-1,909,666,0,0
-308,358,0,0,0,0,0,0,0,0,0,-1,916,666,0,0
-301,358,0,0,0,0,0,0,0,0,0,-1,923,666,0,0
-294,358,0,0,0,0,0,0,0,0,0,-1,930,666,0,0
-287,358,0,0,0,0,0,0,0,0,0,-1,937,666,0,0
-280,358,0,0,0,0,0,0,0,0,0,-1,944,666,0,0
-273,358,0,0,0,0,0,0,0,0,0,-1,951,666,0,0
-266,358,0,0,0,0,0,0,0,0,0,-1,958,666,0,0
-259,358,0,0,0,0,0,0,0,0,0,-1,965,666,0,0
-252,358,0,0,0,0,0,0,0,0,0,-1,972,666,0,0
-245,358,0,0,0,0,0,0,0,0,0,-1,979,666,0,0
-238,358,0,0,0,0,0,0,0,0,0,-1,986,666,0,0
-231,358,0,0,0,0,0,0,0,0,0,-1,993,666,0,0
-224,358,0,0,0,0,0,0,0,0,0,-1,1000,666,0,0
-217,358,0,0,0,0,0,0,0,0,0,-1,1007,666,0,0
-210,358,0,0,0,0,0,0,0,0,0,-1,1014,666,0,0
-203,358,0,0,0,0,0,0,0,0,0,-1,1021,666,0,0
-196,358,0,0,0,0,0,0,0,0,0,-1,1028,666,0,0
-189,358,0,0,0,0,0,0,0,0,0,-1,1035,666,0,0
-182,358,0,0,0,0,0,0,0,0,0,-1,1042,666,0,0
-175,358,0,0,0,0,0,0,0,0,0,-1,1049,666,0,0
-168,358,0,0,0,0,0,0,0,0,0,-1,1056,666,0,0
-161,358,0,0,0,0,0,0,0,0,0,-1,1063,666,0,0
-154,358,0,0,0,0,0,0,0,0,0,-1,1070,666,0,0
-147,358,0,0,0,0,0,0,0,0,0,-1,1077,666,0,0
-140,358,0,0,0,0,0,0,0,0,0,-1,1084,666,0,0
-133,358,0,0,0,0,0,0,0,0,0,-1,1091,666,0,0
-126,358,0,0,0,0,0,0,0,0,0,-1,1098,666,0,0
-119,358,0,0,0,0,0,0,0,0,0,-1,1105,666,0,0
-112,358,0,0,0,0,0,0,0,0,0,-1,1112,666,0,0
-105,358,0,0,0,0,0,0,0,0,0,-1,1119,666,0,0
-98,358,0,0,0,0,0,0,0,0,0,-1,1126,666,0,0
-91,358,0,0,0,0,0,0,0,0,0,-1,1133,666,0,0
-84,358,0,0,0,0,0,0,0,0,0,-1,1140,666,0,0
-77,358,0,0,0,0,0,0,0,0,0,-1,1147,666,0,0
-70,358,0,0,0,0,0,0,0,0,0,-1,1154,666,0,0
-63,358,0,0,0,0,0,0,0,0,0,-1,1161,666,0,0
-56,358,0,0,0,0,0,0,0,0,0,-1,1168,666,0,0
-49,358,0,0,0,0,0,0,0,0,0,-1,1175,666,0,0
-42,358,0,0,0,0,0,0,0,0,0,-1,1182,666,0,0
-35,358,0,0,0,0,0,0,0,0,0,-1,1189,666,0,0
-28,358,0,0,0,0,0,0,0,0,0,-1,1196,666,0,0
-21,358,0,0,0,0,0,0,0,0,0,-1,1203,666,0,0
-14,358,0,0,0,0,0,0,0,0,0,-1,1210,666,0,0
-7,358,0,0,0,0,0,0,0,0,0,-1,1217,666,0,0
0,358,0,0,0,0,0,0,0,0,0,-1,1224,666,0,0
7,358,0,0,0,0,0,0,0,0,0,-1,1231,666,0,0
14,358,0,0,0,0,0,0,0,0,0,-1,1238,666,0,0
21,358,0,0,0,0,0,0,0,0,0,-1,1245,666,0,0
28,358,0,0,0,0,0,0,0,0,0,-1,1252,666,0,0
35,358,0,0,0,0,0,0,0,0,0,-1,1259,666,0,0
42,358,0,0,0,0,0,0,0,0,0,-1,1266,666,0,0
49,358,0,0,0,0,0,0,0,0,0,-1,1273,666,0,0
56,358,0,0,0,0,0,0,0,0,0,-1,1280,666,0,0
63,358,0,0,0,0,0,0,0,0,0,-1,1287,666,0,0
70,358,0,0,0,0,0,0,0,0,0,-1,1294,666,0,0
77,358,0,0,0,0,0,0,0,0,0,-1,1301,666,0,0
84,358,0,0,0,0,0,0,0,0,0,-1,1308,666,0,0
91,358,0,0,0,0,0,0,0,0,0,-1,1315,666,0,0
98,358,0,0,0,0,0,0,0,0,0,-1,1322,666,0,0
105,358,0,0,0,0,0,0,0,0,0,-1,1329,666,0,0
112,358,0,0,0,0,0,0,0,0,0,-1,1336,666,0,0
119,358,0,0,0,0,0,0,0,0,0,-1,1343,666,0,0
126,358,0,0,0,0,0,0,0,0,0,-1,1350,666,0,0
133,358,0,0,0,0,0,0,0,0,0,-1,1357,666,0,0
140,358,0,0,0,0,0,0,0,0,0,-1,1364,666,0,0
147,358,0,0,0,0,0,0,0,0,0,-1,1371,666,0,0
154,358,0,0,0,0,0,0,0,0,0,-1,1378,666,0,0
161,358,0,0,0,0,0,0,0,0,0,-1,1385,666,0,0
168,358,0,0,0,0,0,0,0,0,0,-1,1392,666,0,0
175,358,0,0,0,0,0,0,0,0,0,-1,1399,666,0,0
182,358,0,0,0,0,0,0,0,0,0,-1,1406,666,0,0
189,358,0,0,0,0,0,0,0,0,0,-1,1413,666,0,0
196,358,0,0,0,0,0,0,0,0,0,-1,1420,666,0,0
203,358,0,0,0,0,0,0,0,0,0,-1,1427,666,0,0
210,358,0,0,0,0,0,0,0,0,0,-1,1434,666,0,0
217,358,0,0,0,0,0,0,0,0,0,-1,1441,666,0,0
224,358,0,0,0,0,0,0,0,0,0,-1,1448,666,0,0
231,358,0,0,0,0,0,0,0,0,0,-1,1455,666,0,0
238,358,0,0,0,0,0,0,0,0,0,-1,1462,666,0,0
245,358,0,0,0,0,0,0,0,0,0,-1,1469,666,0,0
252,358,0,0,0,0,0,0,0,0,0,-1,1476,666,0,0
259,358,0,0,0,0,0,0,0,0,0,-1,1483,666,0,0
266,358,0,0,0,0,0,0,0,0,0,-1,1490,666,0,0
273,358,0,0,0,0,0,0,0,0,0,-1,1497,666,0,0
280,358,0,0,0,0,0,0,0,0,0,-1,1504,666,0,0
287,358,0,0,0,0,0,0,0,0,0,-1,1511,666,0,0
294,358,0,0,0,0,0,0,0,0,0,-1,1518,666,0,0
301,358,0,0,0,0,0,0,0,0,0,-1,1525,666,0,0
308,358,0,0,0,0,0,0,0,0,0,-1,1532,666,0,0
315,358,0,0,0,0,0,0,0,0,0,-1,1539,666,0,0
322,358,0,0,0,0,0,0,0,0,0,-1,1546,666,0,0
329,358,0,0,0,0,0,0,0,0,0,-1,1553,666,0,0
336,358,0,0,0,0,0,0,0,0,0,-1,1560,666,0,0
343,358,0,0,0,0,0,0,0,0,0,-1,1567,666,0,0
350,358,0,0,0,0,0,0,0,0,0,-1,1574,666,0,0
357,358,0,0,0,0,0,0,0,0,0,-1,1581,666,0,0
364,358,0,0,0,0,0,0,0,0,0,-1,1588,666,0,0
371,358,0,0,0,0,0,0,0,0,0,-1,1595,666,0,0
378,358,0,0,0,0,0,0,0,0,0,-1,1602,666,0,0
385,358,0,0,0,0,0,0,0,0,0,-1,1609,666,0,0
392,358,0,0,0,0,0,0,0,0,0,-1,1616,666,0,0
399,358,0,0,0,0,0,0,0,0,0,-1,1623,666,0,0
406,358,0,0,0,0,0,0,0,0,0,-1,1630,666,0,0
413,358,0,0,0,0,0,0,0,0,0,-1,1637,666,0,0
420,358,0,0,0,0,0,0,0,0,0,-1,1644,666,0,0
427,358,0,0,0,0,0,0,0,0,0,-1,1651,666,0,0
434,358,0,0,0,0,0,0,0,0,0,-1,1658,666,0,0
441,358,0,0,0,0,0,0,0,0,0,-1,1665,666,0,0
448,358,0,0,0,0,0,0,0,0,0,-1,1672,666,0,0
455,358,0,0,0,0,0,0,0,0,0,-1,1679,666,0,0
462,358,0,0,0,0,0,0,0,0,0,-1,1686,666,0,0
469,358,0,0,0,0,0,0,0,0,0,-1,1693,666,0,0
476,358,0,0,0,0,0,0,0,0,0,-1,1700,666,0,0
483,358,0,0,0,0,0,0,0,0,0,-1,1707,666,0,0
490,358,0,0,0,0,0,0,0,0,0,-1,1714,666,0,0
497,358,8.57239,1.1322,0,0,0,0,0,0,0,-1,1721,666,8.57234,-1.13219
504,358,10.5972,0.832947,0,0,0,0,0,0,0,-1,1728,666,10.5972,-0.832968
511,358,10.6873,0.868469,0,0,0,0,0,0,0,-1,1735,666,10.6872,-0.868484
518,358,16.5884,2.34894,0,0,0,0,0,0,0,-1,1742,666,16.5884,-2.34894
525,358,15.7626,3.65344,0,0,0,0,0,0,0,-1,1749,666,15.7626,-3.65342
532,358,14.9368,4.95789,0,0,0,0,0,0,0,-1,1756,666,14.9367,-4.9579
539,358,15.1597,3.42694,0,0,0,0,0,0,0,-1,1763,666,15.1597,-3.42692
546,358,12.3792,1.53558,0,0,0,0,0,0,0,-1,1770,666,12.3792,-1.5356
553,358,11.6584,1.26172,0,0,0,0,0,0,0,-1,1777,666,11.6585,-1.26175
560,358,10.8234,1.43042,0,0,0,0,0,0,0,-1,1784,666,10.8233,-1.43041
567,358,10.1333,-0.955139,0,0,0,0,0,0,0,-1,1791,666,10.1333,0.955132
574,358,14.7886,-2.69293,0,0,0,0,0,0,0,-1,1798,666,14.7885,2.6929
581,358,76.2957,-37.3464,0,0,0,0,0,0,0,-1,1805,666,76.2957,37.3464
588,358,149.944,-35.2067,0,0,0,0,0,0,0,-1,1812,666,149.944,35.2067
595,358,148.377,-32.2466,0,0,0,0,0,0,0,-1,1819,666,148.377,32.2467
602,358,147.503,-28.486,0.00364748,0.0236937,-0.0228026,0.0385789,-0.0112377,-0.992467,0.030171,0.0267748,1826,666,147.503,28.486
609,358,146.726,-24.8656,0.00442526,0.0264843,-0.0267856,0.0444223,-0.0135127,-0.980705,0.0349997,0.0393784,1833,666,146.726,24.8656
616,358,146.028,-21.6047,0.00515927,0.0291494,-0.0306186,0.0500387,-0.0157301,-0.972088,0.0396564,0.0364611,1840,666,146.028,21.6047
623,358,145.154,-18.4338,0.00595343,0.031681,-0.0342477,0.0554012,-0.0177667,-0.965051,0.0440668,0.0197634,1847,666,145.154,18.4338
630,358,144.417,-15.1221,0.00684121,0.0341583,-0.0376895,0.0605878,-0.0195883,-0.959236,0.048265,0.0280116,1854,666,144.417,15.1221
637,358,143.706,-12.0654,0.00789128,0.0365819,-0.0409556,0.0656319,-0.0211587,-0.953853,0.0522555,0.0392895,1861,666,143.706,12.0654
644,358,142.849,-8.83801,0.00915429,0.0388682,-0.0439869,0.0704394,-0.0224169,-0.948262,0.0559494,0.0306961,1868,666,142.848,8.83802
651,358,142.261,-5.45013,0,0,0,0,0,0,0,-1,1875,666,142.261,5.45011
658,358,52.9972,-7.31555,0,0,0,0,0,0,0,-1,1882,666,52.9972,7.31555
665,358,28.0272,-2.07764,0,0,0,0,0,0,0,-1,1889,666,28.0272,2.07764
672,358,12.4299,1.47272,0,0,0,0,0,0,0,-1,1896,666,12.4299,-1.4727
679,358,12.1294,2.19702,0,0,0,0,0,0,0,-1,1903,666,12.1294,-2.19703
686,358,11.9557,2.2002,0,0,0,0,0,0,0,-1,1910,666,11.9557,-2.20021
693,358,13.188,2.52203,0,0,0,0,0,0,0,-1,1917,666,13.188,-2.52202
700,358,0,0,0,0,0,0,0,0,0,-1,1924,666,0,0
707,358,0,0,0,0,0,0,0,0,0,-1,1931,666,0,0
714,358,0,0,0,0,0,0,0,0,0,-1,1938,666,0,0
721,358,0,0,0,0,0,0,0,0,0,-1,1945,666,0,0
728,358,0,0,0,0,0,0,0,0,0,-1,1952,666,0,0
735,358,0,0,0,0,0,0,0,0,0,-1,1959,666,0,0
742,358,0,0,0,0,0,0,0,0,0,-1,1966,666,0,0
749,358,0,0,0,0,0,0,0,0,0,-1,1973,666,0,0
756,358,0,0,0,0,0,0,0,0,0,-1,1980,666,0,0
763,358,0,0,0,0,0,0,0,0,0,-1,1987,666,0,0
770,358,0,0,0,0,0,0,0,0,0,-1,1994,666,0,0
777,358,0,0,0,0,0,0,0,0,0,-1,2001,666,0,0
784,358,0,0,0,0,0,0,0,0,0,-1,2008,666,0,0
791,358,0,0,0,0,0,0,0,0,0,-1,2015,666,0,0
798,358,0,0,0,0,0,0,0,0,0,-1,2022,666,0,0
805,358,0,0,0,0,0,0,0,0,0,-1,2029,666,0,0
812,358,0,0,0,0,0,0,0,0,0,-1,2036,666,0,0
-700,351,0,0,0,0,0,0,0,0,0,-1,524,673,0,0
-693,351,0,0,0,0,0,0,0,0,0,-1,531,673,0,0
-686,351,0,0,0,0,0,0,0,0,0,-1,538,673,0,0
-679,351,0,0,0,0,0,0,0,0,0,-1,545,673,0,0
-672,351,0,0,0,0,0,0,0,0,0,-1,552,673,0,0
-665,351,0,0,0,0,0,0,0,0,0,-1,559,673,0,0
-658,351,0,0,0,0,0,0,0,0,0,-1,566,673,0,0
-651,351,0,0,0,0,0,0,0,0,0,-1,573,673,0,0
-644,351,0,0,0,0,0,0,0,0,0,-1,580,673,0,0
-637,351,0,0,0,0,0,0,0,0,0,-1,587,673,0,0
-630,351,0,0,0,0,0,0,0,0,0,-1,594,673,0,0
-623,351,0,0,0,0,0,0,0,0,0,-1,601,673,0,0
-616,351,0,0,0,0,0,0,0,0,0,-1,608,673,0,0
-609,351,0,0,0,0,0,0,0,0,0,-1,615,673,0,0
-602,351,0,0,0,0,0,0,0,0,0,-1,622,673,0,0
-595,351,0,0,0,0,0,0,0,0,0,-1,629,673,0,0
-588,351,0,0,0,0,0,0,0,0,0,-1,636,673,0,0
-581,351,-9.0647,1.71906,0,0,0,0,0,0,0,-1,643,673,-9.06472,-1.71908
-574,351,-8.23584,2.64764,0,0,0,0,0,0,0,-1,650,673,-8.23584,-2.64764
-567,351,-10.8027,4.56836,0,0,0,0,0,0,0,-1,657,673,-10.8027,-4.56839
-560,351,-14.2001,2.17084,0,0,0,0,0,0,0,-1,664,673,-14.2002,-2.17086
-553,351,-13.4979,0.779541,0,0,0,0,0,0,0,-1,671,673,-13.4978,-0.779519
-546,351,-14.0065,0.73645,0,0,0,0,0,0,0,-1,678,673,-14.0065,-0.736473
-539,351,-12.8123,-1.46393,0,0,0,0,0,0,0,-1,685,673,-12.8123,1.46395
-532,351,-16.0198,-4.03937,0,0,0,0,0,0,0,-1,692,673,-16.0198,4.03936
-525,351,-135.842,-1.87762,0,0,0,0,0,0,0,-1,699,673,-135.842,1.8776
-518,351,-136.511,-5.18512,0.0192329,0.0451021,0.0437607,0.0777997,-0.0134648,0.929095,0.0568884,0.0378376,706,673,-136.511,5.18511
-511,351,-137.134,-8.43738,0.0168579,0.0423898,0.0414034,0.0729506,-0.0137029,0.934939,0.0537864,0.0178227,713,673,-137.134,8.43738
-504,351,-137.737,-11.6286,0.0140905,0.0393454,0.0395705,0.0682544,-0.0148185,0.939847,0.0511628,0.0143947,720,673,-137.737,11.6286
-497,351,-138.52,-14.9103,0.0110197,0.0361253,0.0379978,0.0635901,-0.016445,0.944932,0.0488075,0.0143544,727,673,-138.52,14.9103
-490,351,-139.255,-18.2099,0.00784723,0.0329347,0.0365305,0.0590151,-0.0182332,0.95078,0.046625,0.013824,734,673,-139.255,18.2099
-483,351,-140.052,-21.6094,0.00446422,0.0296331,0.0352892,0.0545146,-0.0204172,0.956674,0.04473,0.0170203,741,673,-140.052,21.6094
-476,351,-140.913,-25.0239,0.00100807,0.0262763,0.0341649,0.0500683,-0.0227839,0.962499,0.0430332,0.0162551,748,673,-140.913,25.0239
-469,351,-141.852,-28.3295,-0.00251102,0.0227281,0.0330846,0.0455182,-0.0253011,0.967598,0.0414392,0.0242309,755,673,-141.852,28.3295
-462,351,-142.887,-31.5595,0,0,0,0,0,0,0,-1,762,673,-142.887,31.5595
-455,351,-39.3901,-22.7581,0,0,0,0,0,0,0,-1,769,673,-39.3901,22.758
-448,351,-6.61456,-4.38654,0,0,0,0,0,0,0,-1,776,673,-6.61456,4.38654
-441,351,-4.31567,-2.3009,0,0,0,0,0,0,0,-1,783,673,-4.31565,2.30089
-434,351,-3.81708,-2.28003,0,0,0,0,0,0,0,-1,790,673,-3.81706,2.28006
-427,351,-2.05157,-2.7785,0,0,0,0,0,0,0,-1,797,673,-2.05157,2.77848
-420,351,-1.06989,-2.43665,0,0,0,0,0,0,0,-1,804,673,-1.06991,2.43663
-413,351,-0.392334,-2.06671,0,0,0,0,0,0,0,-1,811,673,-0.392363,2.06672
-406,351,-1.86316,-2.58105,0,0,0,0,0,0,0,-1,818,673,-1.86313,2.58106
-399,351,1.00952,-1.53455,0,0,0,0,0,0,0,-1,825,673,1.00954,1.53457
-392,351,-1.02197,0.877136,0,0,0,0,0,0,0,-1,832,673,-1.02195,-0.877143
-385,351,-1.47205,1.04437,0,0,0,0,0,0,0,-1,839,673,-1.47207,-1.04435
-378,351,0,0,0,0,0,0,0,0,0,-1,846,673,0,0
-371,351,0,0,0,0,0,0,0,0,0,-1,853,673,0,0
-364,351,0,0,0,0,0,0,0,0,0,-1,860,673,0,0
-357,351,0,0,0,0,0,0,0,0,0,-1,867,673,0,0
-350,351,0,0,0,0,0,0,0,0,0,-1,874,673,0,0
-343,351,0,0,0,0,0,0,0,0,0,-1,881,673,0,0
-336,351,0,0,0,0,0,0,0,0,0,-1,888,673,0,0
-329,351,0,0,0,0,0,0,0,0,0,-1,895,673,0,0
-322,351,0,0,0,0,0,0,0,0,0,-1,902,673,0,0
-315,351,0,0,0,0,0,0,0,0,0,-1,909,673,0,0
-308,351,0,0,0,0,0,0,0,0,0,-1,916,673,0,0
-301,351,0,0,0,0,0,0,0,0,0,-1,923,673,0,0
-294,351,0,0,0,0,0,0,0,0,0,-1,930,673,0,0
-287,351,0,0,0,0,0,0,0,0,0,-1,937,673,0,0
-280,351,0,0,0,0,0,0,0,0,0,-1,944,673,0,0
-273,351,0,0,0,0,0,0,0,0,0,-1,951,673,0,0
-266,351,0,0,0,0,0,0,0,0,0,-1,958,673,0,0
-259,351,0,0,0,0,0,0,0,0,0,-1,965,673,0,0
-252,351,0,0,0,0,0,0,0,0,0,-1,972,673,0,0
-245,351,0,0,0,0,0,0,0,0,0,-1,979,673,0,0
-238,351,0,0,0,0,0,0,0,0,0,-1,986,673,0,0
-231,351,0,0,0,0,0,0,0,0,0,-1,993,673,0,0
-224,351,0,0,0,0,0,0,0,0,0,-1,1000,673,0,0
-217,351,0,0,0,0,0,0,0,0,0,-1,1007,673,0,0
-210,351,0,0,0,0,0,0,0,0,0,-1,1014,673,0,0
-203,351,0,0,0,0,0,0,0,0,0,-1,1021,673,0,0
-196,351,0,0,0,0,0,0,0,0,0,-1,1028,673,0,0
-189,351,0,0,0,0,0,0,0,0,0,-1,1035,673,0,0
-182,351,0,0,0,0,0,0,0,0,0,-1,1042,673,0,0
-175,351,0,0,0,0,0,0,0,0,0,-1,1049,673,0,0
-168,351,0,0,0,0,0,0,0,0,0,-1,1056,673,0,0
-161,351,0,0,0,0,0,0,0,0,0,-1,1063,673,0,0
-154,351,0,0,0,0,0,0,0,0,0,-1,1070,673,0,0
-147,351,0,0,0,0,0,0,0,0,0,-1,1077,673,0,0
-140,351,0,0,0,0,0,0,0,0,0,-1,1084,673,0,0
-133,351,0,0,0,0,0,0,0,0,0,-1,1091,673,0,0
-126,351,0,0,0,0,0,0,0,0,0,-1,1098,673,0,0
-119,351,0,0,0,0,0,0,0,0,0,-1,1105,673,0,0
-112,351,0,0,0,0,0,0,0,0,0,-1,1112,673,0,0
-105,351,0,0,0,0,0,0,0,0,0,-1,1119,673,0,0
-98,351,0,0,0,0,0,0,0,0,0,-1,1126,673,0,0
-91,351,0,0,0,0,0,0,0,0,0,-1,1133,673,0,0
-84,351,0,0,0,0,0,0,0,0,0,-1,1140,673,0,0
-77,351,0,0,0,0,0,0,0,0,0,-1,1147,673,0,0
-70,351,0,0,0,0,0,0,0,0,0,-1,1154,673,0,0
-63,351,0,0,0,0,0,0,0,0,0,-1,1161,673,0,0
-56,351,0,0,0,0,0,0,0,0,0,-1,1168,673,0,0
-49,351,0,0,0,0,0,0,0,0,0,-1,1175,673,0,0
-42,351,0,0,0,0,0,0,0,0,0,-1,1182,673,0,0
-35,351,0,0,0,0,0,0,0,0,0,-1,1189,673,0,0
-28,351,0,0,0,0,0,0,0,0,0,-1,1196,673,0,0
-21,351,0,0,0,0,0,0,0,0,0,-1,1203,673,0,0
-14,351,0,0,0,0,0,0,0,0,0,-1,1210,673,0,0
-7,351,0,0,0,0,0,0,0,0,0,-1,1217,673,0,0
0,351,0,0,0,0,0,0,0,0,0,-1,1224,673,0,0
7,351,0,0,0,0,0,0,0,0,0,-1,1231,673,0,0
14,351,0,0,0,0,0,0,0,0,0,-1,1238,673,0,0
21,351,0,0,0,0,0,0,0,0,0,-1,1245,673,0,0
28,351,0,0,0,0,0,0,0,0,0,-1,1252,673,0,0
35,351,0,0,0,0,0,0,0,0,0,-1,1259,673,0,0
42,351,0,0,0,0,0,0,0,0,0,-1,1266,673,0,0
49,351,0,0,0,0,0,0,0,0,0,-1,1273,673,0,0
56,351,0,0,0,0,0,0,0,0,0,-1,1280,673,0,0
63,351,0,0,0,0,0,0,0,0,0,-1,1287,673,0,0
70,351,0,0,0,0,0,0,0,0,0,-1,1294,673,0,0
77,351,0,0,0,0,0,0,0,0,0,-1,1301,673,0,0
84,351,0,0,0,0,0,0,0,0,0,-1,1308,673,0,0
91,351,0,0,0,0,0,0,0,0,0,-1,1315,673,0,0
98,351,0,0,0,0,0,0,0,0,0,-1,1322,673,0,0
105,351,0,0,0,0,0,0,0,0,0,-1,1329,673,0,0
112,351,0,0,0,0,0,0,0,0,0,-1,1336,673,0,0
119,351,0,0,0,0,0,0,0,0,0,-1,1343,673,0,0
126,351,0,0,0,0,0,0,0,0,0,-1,1350,673,0,0
133,351,0,0,0,0,0,0,0,0,0,-1,1357,673,0,0
140,351,0,0,0,0,0,0,0,0,0,-1,1364,673,0,0
147,351,0,0,0,0,0,0,0,0,0,-1,1371,673,0,0
154,351,0,0,0,0,0,0,0,0,0,-1,1378,673,0,0
161,351,0,0,0,0,0,0,0,0,0,-1,1385,673,0,0
168,351,0,0,0,0,0,0,0,0,0,-1,1392,673,0,0
175,351,0,0,0,0,0,0,0,0,0,-1,1399,673,0,0
182,351,0,0,0,0,0,0,0,0,0,-1,1406,673,0,0
189,351,0,0,0,0,0,0,0,0,0,-1,1413,673,0,0
196,351,0,0,0,0,0,0,0,0,0,-1,1420,673,0,0
203,351,0,0,0,0,0,0,0,0,0,-1,1427,673,0,0
210,351,0,0,0,0,0,0,0,0,0,-1,1434,673,0,0
217,351,0,0,0,0,0,0,0,0,0,-1,1441,673,0,0
224,351,0,0,0,0,0,0,0,0,0,-1,1448,673,0,0
231,351,0,0,0,0,0,0,0,0,0,-1,1455,673,0,0
238,351,0,0,0,0,0,0,0,0,0,-1,1462,673,0,0
245,351,0,0,0,0,0,0,0,0,0,-1,1469,673,0,0
252,351,0,0,0,0,0,0,0,0,0,-1,1476,673,0,0
259,351,0,0,0,0,0,0,0,0,0,-1,1483,673,0,0
266,351,0,0,0,0,0,0,0,0,0,-1,1490,673,0,0
273,351,0,0,0,0,0,0,0,0,0,-1,1497,673,0,0
280,351,0,0,0,0,0,0,0,0,0,-1,1504,673,0,0
287,351,0,0,0,0,0,0,0,0,0,-1,1511,673,0,0
294,351,0,0,0,0,0,0,0,0,0,-1,1518,673,0,0
301,351,0,0,0,0,0,0,0,0,0,-1,1525,673,0,0
308,351,0,0,0,0,0,0,0,0,0,-1,1532,673,0,0
315,351,0,0,0,0,0,0,0,0,0,-1,1539,673,0,0
322,351,0,0,0,0,0,0,0,0,0,-1,1546,673,0,0
329,351,0,0,0,0,0,0,0,0,0,-1,1553,673,0,0
336,351,0,0,0,0,0,0,0,0,0,-1,1560,673,0,0
343,351,0,0,0,0,0,0,0,0,0,-1,1567,673,0,0
350,351,0,0,0,0,0,0,0,0,0,-1,1574,673,0,0
357,351,0,0,0,0,0,0,0,0,0,-1,1581,673,0,0
364,351,0,0,0,0,0,0,0,0,0,-1,1588,673,0,0
371,351,0,0,0,0,0,0,0,0,0,-1,1595,673,0,0
378,351,0,0,0,0,0,0,0,0,0,-1,1602,673,0,0
385,351,0,0,0,0,0,0,0,0,0,-1,1609,673,0,0
392,351,0,0,0,0,0,0,0,0,0,-1,1616,673,0,0
399,351,0,0,0,0,0,0,0,0,0,-1,1623,673,0,0
406,351,0,0,0,0,0,0,0,0,0,-1,1630,673,0,0
413,351,0,0,0,0,0,0,0,0,0,-1,1637,673,0,0
420,351,0,0,0,0,0,0,0,0,0,-1,1644,673,0,0
427,351,0,0,0,0,0,0,0,0,0,-1,1651,673,0,0
434,351,0,0,0,0,0,0,0,0,0,-1,1658,673,0,0
441,351,0,0,0,0,0,0,0,0,0,-1,1665,673,0,0
448,351,0,0,0,0,0,0,0,0,0,-1,1672,673,0,0
455,351,0,0,0,0,0,0,0,0,0,-1,1679,673,0,0
462,351,0,0,0,0,0,0,0,0,0,-1,1686,673,0,0
469,351,0,0,0,0,0,0,0,0,0,-1,1693,673,0,0
476,351,0,0,0,0,0,0,0,0,0,-1,1700,673,0,0
483,351,0,0,0,0,0,0,0,0,0,-1,1707,673,0,0
490,351,0,0,0,0,0,0,0,0,0,-1,1714,673,0,0
497,351,0,0,0,0,0,0,0,0,0,-1,1721,673,0,0
504,351,10.8842,1.61615,0,0,0,0,0,0,0,-1,1728,673,10.8842,-1.61618
511,351,15.4548,0.0236816,0,0,0,0,0,0,0,-1,1735,673,15.4549,-0.0236664
518,351,16.7448,2.49268,0,0,0,0,0,0,0,-1,1742,673,16.7448,-2.49269
525,351,16.0701,3.43225,0,0,0,0,0,0,0,-1,1749,673,16.07,-3.43227
532,351,32.3822,3.03021,0,0,0,0,0,0,0,-1,1756,673,32.3822,-3.03019
539,351,15.3387,3.54486,0,0,0,0,0,0,0,-1,1763,673,15.3387,-3.54485
546,351,13.9387,4.59357,0,0,0,0,0,0,0,-1,1770,673,13.9388,-4.59359
553,351,12.0682,2.02832,0,0,0,0,0,0,0,-1,1777,673,12.0683,-2.02831
560,351,12.0173,0.55304,0,0,0,0,0,0,0,-1,1784,673,12.0174,-0.553028
567,351,10.7827,0.130188,0,0,0,0,0,0,0,-1,1791,673,10.7827,-0.130183
574,351,13.405,-1.09204,0,0,0,0,0,0,0,-1,1798,673,13.405,1.09207
581,351,15.2351,-3.06049,0,0,0,0,0,0,0,-1,1805,673,15.2351,3.06046
588,351,79.4626,-35.6771,0,0,0,0,0,0,0,-1,1812,673,79.4626,35.6771
595,351,152.352,-31.3215,0,0,0,0,0,0,0,-1,1819,673,152.352,31.3216
602,351,151.434,-27.6043,0.00275963,0.0229102,-0.0181879,0.033627,-0.00795723,-1.03833,0.0254879,0.0406223,1826,673,151.434,27.6043
609,351,150.452,-24.2425,0.00331864,0.0253323,-0.0222737,0.0391704,-0.0105194,-1.01488,0.0302363,0.0296593,1833,673,150.452,24.2425
616,351,149.683,-20.8663,0.00388259,0.0277013,-0.0262668,0.0446325,-0.0130486,-0.998237,0.0349267,0.0211783,1840,673,149.683,20.8663
623,351,148.944,-17.6293,0.00456906,0.0299334,-0.0300622,0.049879,-0.0153766,-0.985004,0.0393916,0.017667,1847,673,148.944,17.6293
630,351,148.124,-14.4473,0.00541341,0.0321625,-0.0336803,0.0550266,-0.0174507,-0.974402,0.0436792,0.0335039,1854,673,148.124,14.4474
637,351,147.318,-11.2226,0.00646423,0.0343603,-0.0371279,0.0600737,-0.0192492,-0.965079,0.0477761,0.0440006,1861,673,147.318,11.2226
644,351,146.546,-7.98395,0.00776551,0.0365056,-0.0403865,0.0650024,-0.0207313,-0.95632,0.0516513,0.0309776,1868,673,146.546,7.98396
651,351,145.875,-4.78156,0.00932579,0.0386157,-0.0434603,0.0698322,-0.0218907,-0.94791,0.0553149,0.0375519,1875,673,145.875,4.78157
658,351,145.435,-1.71661,0,0,0,0,0,0,0,-1,1882,673,145.435,1.71661
665,351,54.0391,-5.79291,0,0,0,0,0,0,0,-1,1889,673,54.039,5.79288
672,351,34.9646,-3.1748,0,0,0,0,0,0,0,-1,1896,673,34.9646,3.17482
679,351,14.1252,1.85681,0,0,0,0,0,0,0,-1,1903,673,14.1253,-1.85682
686,351,13.0294,2.1189,0,0,0,0,0,0,0,-1,1910,673,13.0294,-2.11892
693,351,13.5187,2.34595,0,0,0,0,0,0,0,-1,1917,673,13.5187,-2.34596
700,351,14.5629,-2.40173,0,0,0,0,0,0,0,-1,1924,673,14.5629,2.40172
707,351,0,0,0,0,0,0,0,0,0,-1,1931,673,0,0
714,351,0,0,0,0,0,0,0,0,0,-1,1938,673,0,0
721,351,0,0,0,0,0,0,0,0,0,-1,1945,673,0,0
728,351,0,0,0,0,0,0,0,0,0,-1,1952,673,0,0
735,351,0,0,0,0,0,0,0,0,0,-1,1959,673,0,0
742,351,0,0,0,0,0,0,0,0,0,-1,1966,673,0,0
749,351,0,0,0,0,0,0,0,0,0,-1,1973,673,0,0
756,351,0,0,0,0,0,0,0,0,0,-1,1980,673,0,0
763,351,0,0,0,0,0,0,0,0,0,-1,1987,673,0,0
770,351,0,0,0,0,0,0,0,0,0,-1,1994,673,0,0
777,351,0,0,0,0,0,0,0,0,0,-1,2001,673,0,0
784,351,0,0,0,0,0,0,0,0,0,-1,2008,673,0,0
791,351,0,0,0,0,0,0,0,0,0,-1,2015,673,0,0
798,351,0,0,0,0,0,0,0,0,0,-1,2022,673,0,0
805,351,0,0,0,0,0,0,0,0,0,-1,2029,673,0,0
812,351,0,0,0,0,0,0,0,0,0,-1,2036,673,0,0
-700,344,0,0,0,0,0,0,0,0,0,-1,524,680,0,0
-693,344,0,0,0,0,0,0,0,0,0,-1,531,680,0,0
-686,344,0,0,0,0,0,0,0,0,0,-1,538,680,0,0
-679,344,0,0,0,0,0,0,0,0,0,-1,545,680,0,0
-672,344,0,0,0,0,0,0,0,0,0,-1,552,680,0,0
-665,344,0,0,0,0,0,0,0,0,0,-1,559,680,0,0
-658,344,0,0,0,0,0,0,0,0,0,-1,566,680,0,0
-651,344,0,0,0,0,0,0,0,0,0,-1,573,680,0,0
-644,344,0,0,0,0,0,0,0,0,0,-1,580,680,0,0
-637,344,0,0,0,0,0,0,0,0,0,-1,587,680,0,0
-630,344,0,0,0,0,0,0,0,0,0,-1,594,680,0,0
-623,344,0,0,0,0,0,0,0,0,0,-1,601,680,0,0
-616,344,0,0,0,0,0,0,0,0,0,-1,608,680,0,0
-609,344,0,0,0,0,0,0,0,0,0,-1,615,680,0,0
-602,344,0,0,0,0,0,0,0,0,0,-1,622,680,0,0
-595,344,0,0,0,0,0,0,0,0,0,-1,629,680,0,0
-588,344,-9.27826,1.47302,0,0,0,0,0,0,0,-1,636,680,-9.27829,-1.473
-581,344,-10.0098,1.71753,0,0,0,0,0,0,0,-1,643,680,-10.0098,-1.7175
-574,344,-10.2208,3.04871,0,0,0,0,0,0,0,-1,650,680,-10.2208,-3.04869
-567,344,-14.3779,2.29016,0,0,0,0,0,0,0,-1,657,680,-14.3779,-2.29014
-560,344,-14.1238,1.8374,0,0,0,0,0,0,0,-1,664,680,-14.1238,-1.83743
-553,344,-14.7884,2.00116,0,0,0,0,0,0,0,-1,671,680,-14.7884,-2.00115
-546,344,-17.4192,0.157654,0,0,0,0,0,0,0,-1,678,680,-17.4192,-0.157635
-539,344,-17.2671,-2.75714,0,0,0,0,0,0,0,-1,685,680,-17.2671,2.75712
-532,344,-18.4417,-4.38605,0,0,0,0,0,0,0,-1,692,680,-18.4417,4.38603
-525,344,-139.554,-1.11713,0,0,0,0,0,0,0,-1,699,680,-139.554,1.11712
-518,344,-140.27,-4.39166,0.0164453,0.0427755,0.0411117,0.0727786,-0.0135577,0.940353,0.0536128,0.0252742,706,680,-140.27,4.39164
-511,344,-141.014,-7.62628,0.0138112,0.0398707,0.0387174,0.067692,-0.0140101,0.947713,0.0504507,0.0215561,713,680,-141.014,7.62627
-504,344,-141.691,-10.8698,0.0108666,0.0368747,0.0367127,0.0628184,-0.0150771,0.955609,0.0477055,0.020279,720,680,-141.691,10.8697
-497,344,-142.386,-14.1309,0.00773055,0.0339653,0.0349567,0.0581847,-0.0164889,0.964892,0.0452978,0.0183275,727,680,-142.386,14.1308
-490,344,-143.096,-17.434,0.00443355,0.0311378,0.0333574,0.0537161,-0.0181448,0.97577,0.0431499,0.0203769,734,680,-143.096,17.434
-483,344,-143.868,-20.7697,0.000842655,0.0282649,0.0320388,0.0494031,-0.0202956,0.987583,0.0413938,0.0216279,741,680,-143.868,20.7697
-476,344,-144.798,-24.099,-0.00291925,0.0253501,0.0309056,0.0451999,-0.0227691,0.999873,0.0399478,0.0231478,748,680,-144.798,24.099
-469,344,-145.729,-27.4492,0,0,0,0,0,0,0,-1,755,680,-145.729,27.4492
-462,344,-147.147,-30.9738,0,0,0,0,0,0,0,-1,762,680,-147.147,30.9738
-455,344,-12.1653,-7.99176,0,0,0,0,0,0,0,-1,769,680,-12.1653,7.99174
-448,344,-5.67657,-2.72864,0,0,0,0,0,0,0,-1,776,680,-5.6766,2.72863
-441,344,-5.09229,-2.34167,0,0,0,0,0,0,0,-1,783,680,-5.09229,2.34168
-434,344,-4.28778,-2.08807,0,0,0,0,0,0,0,-1,790,680,-4.28778,2.08809
-427,344,-3.06506,-1.45404,0,0,0,0,0,0,0,-1,797,680,-3.06505,1.45402
-420,344,-1.96582,-1.57574,0,0,0,0,0,0,0,-1,804,680,-1.96579,1.57574
-413,344,-0.817993,-1.4751,0,0,0,0,0,0,0,-1,811,680,-0.818017,1.47511
-406,344,-0.00714111,-1.25189,0,0,0,0,0,0,0,-1,818,680,-0.00714956,1.25191
-399,344,0.240051,-1.75769,0,0,0,0,0,0,0,-1,825,680,0.240079,1.75767
-392,344,1.11353,-2.05615,0,0,0,0,0,0,0,-1,832,680,1.11351,2.05616
-385,344,0,0,0,0,0,0,0,0,0,-1,839,680,0,0
-378,344,0,0,0,0,0,0,0,0,0,-1,846,680,0,0
-371,344,0,0,0,0,0,0,0,0,0,-1,853,680,0,0
-364,344,0,0,0,0,0,0,0,0,0,-1,860,680,0,0
-357,344,0,0,0,0,0,0,0,0,0,-1,867,680,0,0
-350,344,0,0,0,0,0,0,0,0,0,-1,874,680,0,0
-343,344,0,0,0,0,0,0,0,0,0,-1,881,680,0,0
-336,344,0,0,0,0,0,0,0,0,0,-1,888,680,0,0
-329,344,0,0,0,0,0,0,0,0,0,-1,895,680,0,0
-322,344,0,0,0,0,0,0,0,0,0,-1,902,680,0,0
-315,344,0,0,0,0,0,0,0,0,0,-1,909,680,0,0
-308,344,0,0,0,0,0,0,0,0,0,-1,916,680,0,0
-301,344,0,0,0,0,0,0,0,0,0,-1,923,680,0,0
-294,344,0,0,0,0,0,0,0,0,0,-1,930,680,0,0
-287,344,0,0,0,0,0,0,0,0,0,-1,937,680,0,0
-280,344,0,0,0,0,0,0,0,0,0,-1,944,680,0,0
-273,344,0,0,0,0,0,0,0,0,0,-1,951,680,0,0
-266,344,0,0,0,0,0,0,0,0,0,-1,958,680,0,0
-259,344,0,0,0,0,0,0,0,0,0,-1,965,680,0,0
-252,344,0,0,0,0,0,0,0,0,0,-1,972,680,0,0
-245,344,0,0,0,0,0,0,0,0,0,-1,979,680,0,0
-238,344,0,0,0,0,0,0,0,0,0,-1,986,680,0,0
-231,344,0,0,0,0,0,0,0,0,0,-1,993,680,0,0
-224,344,0,0,0,0,0,0,0,0,0,-1,1000,680,0,0
-217,344,0,0,0,0,0,0,0,0,0,-1,1007,680,0,0
-210,344,0,0,0,0,0,0,0,0,0,-1,1014,680,0,0
-203,344,0,0,0,0,0,0,0,0,0,-1,1021,680,0,0
-196,344,0,0,0,0,0,0,0,0,0,-1,1028,680,0,0
-189,344,0,0,0,0,0,0,0,0,0,-1,1035,680,0,0
-182,344,0,0,0,0,0,0,0,0,0,-1,1042,680,0,0
-175,344,0,0,0,0,0,0,0,0,0,-1,1049,680,0,0
-168,344,0,0,0,0,0,0,0,0,0,-1,1056,680,0,0
-161,344,0,0,0,0,0,0,0,0,0,-1,1063,680,0,0
-154,344,0,0,0,0,0,0,0,0,0,-1,1070,680,0,0
-147,344,0,0,0,0,0,0,0,0,0,-1,1077,680,0,0
-140,344,0,0,0,0,0,0,0,0,0,-1,1084,680,0,0
-133,344,0,0,0,0,0,0,0,0,0,-1,1091,680,0,0
-126,344,0,0,0,0,0,0,0,0,0,-1,1098,680,0,0
-119,344,0,0,0,0,0,0,0,0,0,-1,1105,680,0,0
-112,344,0,0,0,0,0,0,0,0,0,-1,1112,680,0,0
-105,344,0,0,0,0,0,0,0,0,0,-1,1119,680,0,0
-98,344,0,0,0,0,0,0,0,0,0,-1,1126,680,0,0
-91,344,0,0,0,0,0,0,0,0,0,-1,1133,680,0,0
-84,344,0,0,0,0,0,0,0,0,0,-1,1140,680,0,0
-77,344,0,0,0,0,0,0,0,0,0,-1,1147,680,0,0
-70,344,0,0,0,0,0,0,0,0,0,-1,1154,680,0,0
-63,344,0,0,0,0,0,0,0,0,0,-1,1161,680,0,0
-56,344,0,0,0,0,0,0,0,0,0,-1,1168,680,0,0
-49,344,0,0,0,0,0,0,0,0,0,-1,1175,680,0,0
-42,344,0,0,0,0,0,0,0,0,0,-1,1182,680,0,0
-35,344,0,0,0,0,0,0,0,0,0,-1,1189,680,0,0
-28,344,0,0,0,0,0,0,0,0,0,-1,1196,680,0,0
-21,344,0,0,0,0,0,0,0,0,0,-1,1203,680,0,0
-14,344,0,0,0,0,0,0,0,0,0,-1,1210,680,0,0
-7,344,0,0,0,0,0,0,0,0,0,-1,1217,680,0,0
0,344,0,0,0,0,0,0,0,0,0,-1,1224,680,0,0
7,344,0,0,0,0,0,0,0,0,0,-1,1231,680,0,0
14,344,0,0,0,0,0,0,0,0,0,-1,1238,680,0,0
21,344,0,0,0,0,0,0,0,0,0,-1,1245,680,0,0
28,344,0,0,0,0,0,0,0,0,0,-1,1252,680,0,0
35,344,0,0,0,0,0,0,0,0,0,-1,1259,680,0,0
42,344,0,0,0,0,0,0,0,0,0,-1,1266,680,0,0
49,344,0,0,0,0,0,0,0,0,0,-1,1273,680,0,0
56,344,0,0,0,0,0,0,0,0,0,-1,1280,680,0,0
63,344,0,0,0,0,0,0,0,0,0,-1,1287,680,0,0
70,344,0,0,0,0,0,0,0,0,0,-1,1294,680,0,0
77,344,0,0,0,0,0,0,0,0,0,-1,1301,680,0,0
84,344,0,0,0,0,0,0,0,0,0,-1,1308,680,0,0
91,344,0,0,0,0,0,0,0,0,0,-1,1315,680,0,0
98,344,0,0,0,0,0,0,0,0,0,-1,1322,680,0,0
105,344,0,0,0,0,0,0,0,0,0,-1,1329,680,0,0
112,344,0,0,0,0,0,0,0,0,0,-1,1336,680,0,0
119,344,0,0,0,0,0,0,0,0,0,-1,1343,680,0,0
126,344,0,0,0,0,0,0,0,0,0,-1,1350,680,0,0
133,344,0,0,0,0,0,0,0,0,0,-1,1357,680,0,0
140,344,0,0,0,0,0,0,0,0,0,-1,1364,680,0,0
147,344,0,0,0,0,0,0,0,0,0,-1,1371,680,0,0
154,344,0,0,0,0,0,0,0,0,0,-1,1378,680,0,0
161,344,0,0,0,0,0,0,0,0,0,-1,1385,680,0,0
168,344,0,0,0,0,0,0,0,0,0,-1,1392,680,0,0
175,344,0,0,0,0,0,0,0,0,0,-1,1399,680,0,0
182,344,0,0,0,0,0,0,0,0,0,-1,1406,680,0,0
189,344,0,0,0,0,0,0,0,0,0,-1,1413,680,0,0
196,344,0,0,0,0,0,0,0,0,0,-1,1420,680,0,0
203,344,0,0,0,0,0,0,0,0,0,-1,1427,680,0,0
210,344,0,0,0,0,0,0,0,0,0,-1,1434,680,0,0
217,344,0,0,0,0,0,0,0,0,0,-1,1441,680,0,0
224,344,0,0,0,0,0,0,0,0,0,-1,1448,680,0,0
231,344,0,0,0,0,0,0,0,0,0,-1,1455,680,0,0
238,344,0,0,0,0,0,0,0,0,0,-1,1462,680,0,0
245,344,0,0,0,0,0,0,0,0,0,-1,1469,680,0,0
252,344,0,0,0,0,0,0,0,0,0,-1,1476,680,0,0
259,344,0,0,0,0,0,0,0,0,0,-1,1483,680,0,0
266,344,0,0,0,0,0,0,0,0,0,-1,1490,680,0,0
273,344,0,0,0,0,0,0,0,0,0,-1,1497,680,0,0
280,344,0,0,0,0,0,0,0,0,0,-1,1504,680,0,0
287,344,0,0,0,0,0,0,0,0,0,-1,1511,680,0,0
294,344,0,0,0,0,0,0,0,0,0,-1,1518,680,0,0
301,344,0,0,0,0,0,0,0,0,0,-1,1525,680,0,0
308,344,0,0,0,0,0,0,0,0,0,-1,1532,680,0,0
315,344,0,0,0,0,0,0,0,0,0,-1,1539,680,0,0
322,344,0,0,0,0,0,0,0,0,0,-1,1546,680,0,0
329,344,0,0,0,0,0,0,0,0,0,-1,1553,680,0,0
336,344,0,0,0,0,0,0,0,0,0,-1,1560,680,0,0
343,344,0,0,0,0,0,0,0,0,0,-1,1567,680,0,0
350,344,0,0,0,0,0,0,0,0,0,-1,1574,680,0,0
357,344,0,0,0,0,0,0,0,0,0,-1,1581,680,0,0
364,344,0,0,0,0,0,0,0,0,0,-1,1588,680,0,0
371,344,0,0,0,0,0,0,0,0,0,-1,1595,680,0,0
378,344,0,0,0,0,0,0,0,0,0,-1,1602,680,0,0
385,344,0,0,0,0,0,0,0,0,0,-1,1609,680,0,0
392,344,0,0,0,0,0,0,0,0,0,-1,1616,680,0,0
399,344,0,0,0,0,0,0,0,0,0,-1,1623,680,0,0
406,344,0,0,0,0,0,0,0,0,0,-1,1630,680,0,0
413,344,0,0,0,0,0,0,0,0,0,-1,1637,680,0,0
420,344,0,0,0,0,0,0,0,0,0,-1,1644,680,0,0
427,344,0,0,0,0,0,0,0,0,0,-1,1651,680,0,0
434,344,0,0,0,0,0,0,0,0,0,-1,1658,680,0,0
441,344,0,0,0,0,0,0,0,0,0,-1,1665,680,0,0
448,344,0,0,0,0,0,0,0,0,0,-1,1672,680,0,0
455,344,0,0,0,0,0,0,0,0,0,-1,1679,680,0,0
462,344,0,0,0,0,0,0,0,0,0,-1,1686,680,0,0
469,344,0,0,0,0,0,0,0,0,0,-1,1693,680,0,0
476,344,0,0,0,0,0,0,0,0,0,-1,1700,680,0,0
483,344,0,0,0,0,0,0,0,0,0,-1,1707,680,0,0
490,344,0,0,0,0,0,0,0,0,0,-1,1714,680,0,0
497,344,0,0,0,0,0,0,0,0,0,-1,1721,680,0,0
504,344,0,0,0,0,0,0,0,0,0,-1,1728,680,0,0
511,344,15.4819,0.452637,0,0,0,0,0,0,0,-1,1735,680,15.4819,-0.452656
518,344,17.1357,2.31207,0,0,0,0,0,0,0,-1,1742,680,17.1358,-2.31207
525,344,31.5201,2.6217,0,0,0,0,0,0,0,-1,1749,680,31.5201,-2.62168
532,344,31.9766,2.61047,0,0,0,0,0,0,0,-1,1756,680,31.9765,-2.6105
539,344,32.4379,2.65314,0,0,0,0,0,0,0,-1,1763,680,32.4378,-2.65316
546,344,14.6722,4.30243,0,0,0,0,0,0,0,-1,1770,680,14.6722,-4.30241
553,344,14.8136,4.35681,0,0,0,0,0,0,0,-1,1777,680,14.8136,-4.35679
560,344,11.9363,2.14185,0,0,0,0,0,0,0,-1,1784,680,11.9362,-2.14182
567,344,11.397,0.925842,0,0,0,0,0,0,0,-1,1791,680,11.397,-0.92583
574,344,10.0004,0.504639,0,0,0,0,0,0,0,-1,1798,680,10.0004,-0.504645
581,344,13.6709,-0.969604,0,0,0,0,0,0,0,-1,1805,680,13.6709,0.969629
588,344,77.6672,-32.3207,0,0,0,0,0,0,0,-1,1812,680,77.6673,32.3207
595,344,81.5276,-32.8669,0,0,0,0,0,0,0,-1,1819,680,81.5276,32.8669
602,344,155.137,-26.7996,0,0,0,0,0,0,0,-1,1826,680,155.137,26.7996
609,344,154.174,-23.4044,0.00242632,0.024248,-0.0178224,0.0342341,-0.00755983,-1.06007,0.0257158,0.0400835,1833,680,154.174,23.4044
616,344,153.314,-20.014,0.00275634,0.0263835,-0.021933,0.039482,-0.0103422,-1.03243,0.0303617,0.0310757,1840,680,153.314,20.014
623,344,152.461,-16.7992,0.00328582,0.028353,-0.0258767,0.0445717,-0.0129329,-1.01093,0.034835,0.0234985,1847,680,152.461,16.7992
630,344,151.666,-13.5477,0.00403949,0.0303641,-0.0296624,0.0496534,-0.0152497,-0.994215,0.0391874,0.0297833,1854,680,151.666,13.5477
637,344,150.771,-10.3203,0.00502037,0.032395,-0.0332927,0.0547041,-0.0172888,-0.980426,0.0433959,0.0340412,1861,680,150.771,10.3202
644,344,149.991,-7.16461,0.00627501,0.0344216,-0.0367739,0.0597231,-0.0190265,-0.96815,0.0474467,0.0258001,1868,680,149.991,7.16461
651,344,149.508,-4.11407,0.00779348,0.0364506,-0.0400658,0.0646729,-0.0204288,-0.957124,0.0512992,0.0208641,1875,680,149.508,4.11405
658,344,149.002,-1.05829,0,0,0,0,0,0,0,-1,1882,680,149.002,1.05832
665,344,148.781,1.80908,0,0,0,0,0,0,0,-1,1889,680,148.781,-1.80906
672,344,54.3232,-5.07654,0,0,0,0,0,0,0,-1,1896,680,54.3233,5.07656
679,344,36.7468,-2.59857,0,0,0,0,0,0,0,-1,1903,680,36.7468,2.59857
686,344,15.024,1.82709,0,0,0,0,0,0,0,-1,1910,680,15.024,-1.82706
693,344,12.4362,-1.42346,0,0,0,0,0,0,0,-1,1917,680,12.4361,1.42348
700,344,17.5396,2.61206,0,0,0,0,0,0,0,-1,1924,680,17.5396,-2.61204
707,344,18.5829,3.29352,0,0,0,0,0,0,0,-1,1931,680,18.5828,-3.2935
714,344,0,0,0,0,0,0,0,0,0,-1,1938,680,0,0
721,344,0,0,0,0,0,0,0,0,0,-1,1945,680,0,0
728,344,0,0,0,0,0,0,0,0,0,-1,1952,680,0,0
735,344,0,0,0,0,0,0,0,0,0,-1,1959,680,0,0
742,344,0,0,0,0,0,0,0,0,0,-1,1966,680,0,0
749,344,0,0,0,0,0,0,0,0,0,-1,1973,680,0,0
756,344,0,0,0,0,0,0,0,0,0,-1,1980,680,0,0
763,344,0,0,0,0,0,0,0,0,0,-1,1987,680,0,0
770,344,0,0,0,0,0,0,0,0,0,-1,1994,680,0,0
777,344,0,0,0,0,0,0,0,0,0,-1,2001,680,0,0
784,344,0,0,0,0,0,0,0,0,0,-1,2008,680,0,0
791,344,0,0,0,0,0,0,0,0,0,-1,2015,680,0,0
798,344,0,0,0,0,0,0,0,0,0,-1,2022,680,0,0
805,344,0,0,0,0,0,0,0,0,0,-1,2029,680,0,0
812,344,0,0,0,0,0,0,0,0,0,-1,2036,680,0,0
-700,337,0,0,0,0,0,0,0,0,0,-1,524,687,0,0
-693,337,0,0,0,0,0,0,0,0,0,-1,531,687,0,0
-686,337,0,0,0,0,0,0,0,0,0,-1,538,687,0,0
-679,337,0,0,0,0,0,0,0,0,0,-1,545,687,0,0
-672,337,0,0,0,0,0,0,0,0,0,-1,552,687,0,0
-665,337,0,0,0,0,0,0,0,0,0,-1,559,687,0,0
-658,337,0,0,0,0,0,0,0,0,0,-1,566,687,0,0
-651,337,0,0,0,0,0,0,0,0,0,-1,573,687,0,0
-644,337,0,0,0,0,0,0,0,0,0,-1,580,687,0,0
-637,337,0,0,0,0,0,0,0,0,0,-1,587,687,0,0
-630,337,0,0,0,0,0,0,0,0,0,-1,594,687,0,0
-623,337,0,0,0,0,0,0,0,0,0,-1,601,687,0,0
-616,337,0,0,0,0,0,0,0,0,0,-1,608,687,0,0
-609,337,0,0,0,0,0,0,0,0,0,-1,615,687,0,0
-602,337,0,0,0,0,0,0,0,0,0,-1,622,687,0,0
-595,337,0,0,0,0,0,0,0,0,0,-1,629,687,0,0
-588,337,-10.8413,1.27863,0,0,0,0,0,0,0,-1,636,687,-10.8413,-1.27861
-581,337,-11.2157,1.31567,0,0,0,0,0,0,0,-1,643,687,-11.2157,-1.3157
-574,337,-6.03339,2.0321,0,0,0,0,0,0,0,-1,650,687,-6.03337,-2.03213
-567,337,-13.8102,1.56787,0,0,0,0,0,0,0,-1,657,687,-13.8102,-1.56789
-560,337,-15.5435,2.34247,0,0,0,0,0,0,0,-1,664,687,-15.5435,-2.34247
-553,337,-18.0128,1.12927,0,0,0,0,0,0,0,-1,671,687,-18.0128,-1.12926
-546,337,-18.0244,-2.03845,0,0,0,0,0,0,0,-1,678,687,-18.0244,2.03846
-539,337,-19.2426,-3.53815,0,0,0,0,0,0,0,-1,685,687,-19.2426,3.53813
-532,337,-142.802,2.6734,0,0,0,0,0,0,0,-1,692,687,-142.802,-2.67338
-525,337,-143.429,-0.43927,0.0161617,0.0439818,0.0410882,0.0734506,-0.0133071,0.948613,0.0539526,0.0302609,699,687,-143.429,0.439276
-518,337,-144.045,-3.58038,0.0135378,0.0407807,0.0383372,0.0678445,-0.0135259,0.956096,0.0503476,0.0295579,706,687,-144.045,3.58039
-511,337,-144.741,-6.80096,0.010655,0.0378418,0.0358666,0.0626045,-0.0141077,0.966534,0.0471478,0.0276296,713,687,-144.741,6.80096
-504,337,-145.422,-10.045,0.00751301,0.0349728,0.0336699,0.0576045,-0.0151188,0.978996,0.0443108,0.0254218,720,687,-145.422,10.045
-497,337,-146.127,-13.2692,0.00423902,0.0323684,0.0317347,0.0530155,-0.0164081,0.993988,0.041898,0.0196053,727,687,-146.127,13.2692
-490,337,-146.789,-16.6024,0.000756765,0.0299455,0.0300387,0.0487475,-0.0180453,1.01153,0.0398977,0.0209456,734,687,-146.789,16.6024
-483,337,-147.637,-19.987,-0.00307823,0.0275991,0.0286544,0.044762,-0.0202411,1.03114,0.0384093,0.0315686,741,687,-147.637,19.987
-476,337,-148.657,-23.6195,-0.00707502,0.0253351,0.0274459,0.041003,-0.0227429,1.05208,0.0373036,0.0418647,748,687,-148.657,23.6195
-469,337,-149.6,-27.0968,0,0,0,0,0,0,0,-1,755,687,-149.6,27.0968
-462,337,-150.746,-30.0729,0,0,0,0,0,0,0,-1,762,687,-150.746,30.0729
-455,337,-6.00574,-3.12933,0,0,0,0,0,0,0,-1,769,687,-6.00576,3.12934
-448,337,-5.30627,-2.07202,0,0,0,0,0,0,0,-1,776,687,-5.30628,2.07205
-441,337,-4.24762,-1.49597,0,0,0,0,0,0,0,-1,783,687,-4.24762,1.49598
-434,337,-6.86908,1.37531,0,0,0,0,0,0,0,-1,790,687,-6.86908,-1.3753
-427,337,-9.92004,2.487,0,0,0,0,0,0,0,-1,797,687,-9.92002,-2.48701
-420,337,-2.95996,-1.76697,0,0,0,0,0,0,0,-1,804,687,-2.95998,1.76696
-413,337,-1.29169,-1.99487,0,0,0,0,0,0,0,-1,811,687,-1.29171,1.9949
-406,337,-1.02356,-1.89563,0,0,0,0,0,0,0,-1,818,687,-1.02357,1.89564
-399,337,-0.472839,-2.21338,0,0,0,0,0,0,0,-1,825,687,-0.472837,2.2134
-392,337,0,0,0,0,0,0,0,0,0,-1,832,687,0,0
-385,337,0,0,0,0,0,0,0,0,0,-1,839,687,0,0
-378,337,0,0,0,0,0,0,0,0,0,-1,846,687,0,0
-371,337,0,0,0,0,0,0,0,0,0,-1,853,687,0,0
-364,337,0,0,0,0,0,0,0,0,0,-1,860,687,0,0
-357,337,0,0,0,0,0,0,0,0,0,-1,867,687,0,0
-350,337,0,0,0,0,0,0,0,0,0,-1,874,687,0,0
-343,337,0,0,0,0,0,0,0,0,0,-1,881,687,0,0
-336,337,0,0,0,0,0,0,0,0,0,-1,888,687,0,0
-329,337,0,0,0,0,0,0,0,0,0,-1,895,687,0,0
-322,337,0,0,0,0,0,0,0,0,0,-1,902,687,0,0
-315,337,0,0,0,0,0,0,0,0,0,-1,909,687,0,0
-308,337,0,0,0,0,0,0,0,0,0,-1,916,687,0,0
-301,337,0,0,0,0,0,0,0,0,0,-1,923,687,0,0
-294,337,0,0,0,0,0,0,0,0,0,-1,930,687,0,0
-287,337,0,0,0,0,0,0,0,0,0,-1,937,687,0,0
-280,337,0,0,0,0,0,0,0,0,0,-1,944,687,0,0
-273,337,0,0,0,0,0,0,0,0,0,-1,951,687,0,0
-266,337,0,0,0,0,0,0,0,0,0,-1,958,687,0,0
-259,337,0,0,0,0,0,0,0,0,0,-1,965,687,0,0
-252,337,0,0,0,0,0,0,0,0,0,-1,972,687,0,0
-245,337,0,0,0,0,0,0,0,0,0,-1,979,687,0,0
-238,337,0,0,0,0,0,0,0,0,0,-1,986,687,0,0
-231,337,0,0,0,0,0,0,0,0,0,-1,993,687,0,0
-224,337,0,0,0,0,0,0,0,0,0,-1,1000,687,0,0
-217,337,0,0,0,0,0,0,0,0,0,-1,1007,687,0,0
-210,337,0,0,0,0,0,0,0,0,0,-1,1014,687,0,0
-203,337,0,0,0,0,0,0,0,0,0,-1,1021,687,0,0
-196,337,0,0,0,0,0,0,0,0,0,-1,1028,687,0,0
-189,337,0,0,0,0,0,0,0,0,0,-1,1035,687,0,0
-182,337,0,0,0,0,0,0,0,0,0,-1,1042,687,0,0
-175,337,0,0,0,0,0,0,0,0,0,-1,1049,687,0,0
-168,337,0,0,0,0,0,0,0,0,0,-1,1056,687,0,0
-161,337,0,0,0,0,0,0,0,0,0,-1,1063,687,0,0
-154,337,0,0,0,0,0,0,0,0,0,-1,1070,687,0,0
-147,337,0,0,0,0,0,0,0,0,0,-1,1077,687,0,0
-140,337,0,0,0,0,0,0,0,0,0,-1,1084,687,0,0
-133,337,0,0,0,0,0,0,0,0,0,-1,1091,687,0,0
-126,337,0,0,0,0,0,0,0,0,0,-1,1098,687,0,0
-119,337,0,0,0,0,0,0,0,0,0,-1,1105,687,0,0
-112,337,0,0,0,0,0,0,0,0,0,-1,1112,687,0,0
-105,337,0,0,0,0,0,0,0,0,0,-1,1119,687,0,0
-98,337,0,0,0,0,0,0,0,0,0,-1,1126,687,0,0
-91,337,0,0,0,0,0,0,0,0,0,-1,1133,687,0,0
-84,337,0,0,0,0,0,0,0,0,0,-1,1140,687,0,0
-77,337,0,0,0,0,0,0,0,0,0,-1,1147,687,0,0
-70,337,0,0,0,0,0,0,0,0,0,-1,1154,687,0,0
-63,337,0,0,0,0,0,0,0,0,0,-1,1161,687,0,0
-56,337,0,0,0,0,0,0,0,0,0,-1,1168,687,0,0
-49,337,0,0,0,0,0,0,0,0,0,-1,1175,687,0,0
-42,337,0,0,0,0,0,0,0,0,0,-1,1182,687,0,0
-35,337,0,0,0,0,0,0,0,0,0,-1,1189,687,0,0
-28,337,0,0,0,0,0,0,0,0,0,-1,1196,687,0,0
-21,337,0,0,0,0,0,0,0,0,0,-1,1203,687,0,0
-14,337,0,0,0,0,0,0,0,0,0,-1,1210,687,0,0
-7,337,0,0,0,0,0,0,0,0,0,-1,1217,687,0,0
0,337,0,0,0,0,0,0,0,0,0,-1,1224,687,0,0
7,337,0,0,0,0,0,0,0,0,0,-1,1231,687,0,0
14,337,0,0,0,0,0,0,0,0,0,-1,1238,687,0,0
21,337,0,0,0,0,0,0,0,0,0,-1,1245,687,0,0
28,337,0,0,0,0,0,0,0,0,0,-1,1252,687,0,0
35,337,0,0,0,0,0,0,0,0,0,-1,1259,687,0,0
42,337,0,0,0,0,0,0,0,0,0,-1,1266,687,0,0
49,337,0,0,0,0,0,0,0,0,0,-1,1273,687,0,0
56,337,0,0,0,0,0,0,0,0,0,-1,1280,687,0,0
63,337,0,0,0,0,0,0,0,0,0,-1,1287,687,0,0
70,337,0,0,0,0,0,0,0,0,0,-1,1294,687,0,0
77,337,0,0,0,0,0,0,0,0,0,-1,1301,687,0,0
84,337,0,0,0,0,0,0,0,0,0,-1,1308,687,0,0
91,337,0,0,0,0,0,0,0,0,0,-1,1315,687,0,0
98,337,0,0,0,0,0,0,0,0,0,-1,1322,687,0,0
105,337,0,0,0,0,0,0,0,0,0,-1,1329,687,0,0
112,337,0,0,0,0,0,0,0,0,0,-1,1336,687,0,0
119,337,0,0,0,0,0,0,0,0,0,-1,1343,687,0,0
126,337,0,0,0,0,0,0,0,0,0,-1,1350,687,0,0
133,337,0,0,0,0,0,0,0,0,0,-1,1357,687,0,0
140,337,0,0,0,0,0,0,0,0,0,-1,1364,687,0,0
147,337,0,0,0,0,0,0,0,0,0,-1,1371,687,0,0
154,337,0,0,0,0,0,0,0,0,0,-1,1378,687,0,0
161,337,0,0,0,0,0,0,0,0,0,-1,1385,687,0,0
168,337,0,0,0,0,0,0,0,0,0,-1,1392,687,0,0
175,337,0,0,0,0,0,0,0,0,0,-1,1399,687,0,0
182,337,0,0,0,0,0,0,0,0,0,-1,1406,687,0,0
189,337,0,0,0,0,0,0,0,0,0,-1,1413,687,0,0
196,337,0,0,0,0,0,0,0,0,0,-1,1420,687,0,0
203,337,0,0,0,0,0,0,0,0,0,-1,1427,687,0,0
210,337,0,0,0,0,0,0,0,0,0,-1,1434,687,0,0
217,337,0,0,0,0,0,0,0,0,0,-1,1441,687,0,0
224,337,0,0,0,0,0,0,0,0,0,-1,1448,687,0,0
231,337,0,0,0,0,0,0,0,0,0,-1,1455,687,0,0
238,337,0,0,0,0,0,0,0,0,0,-1,1462,687,0,0
245,337,0,0,0,0,0,0,0,0,0,-1,1469,687,0,0
252,337,0,0,0,0,0,0,0,0,0,-1,1476,687,0,0
259,337,0,0,0,0,0,0,0,0,0,-1,1483,687,0,0
266,337,0,0,0,0,0,0,0,0,0,-1,1490,687,0,0
273,337,0,0,0,0,0,0,0,0,0,-1,1497,687,0,0
280,337,0,0,0,0,0,0,0,0,0,-1,1504,687,0,0
287,337,0,0,0,0,0,0,0,0,0,-1,1511,687,0,0
294,337,0,0,0,0,0,0,0,0,0,-1,1518,687,0,0
301,337,0,0,0,0,0,0,0,0,0,-1,1525,687,0,0
308,337,0,0,0,0,0,0,0,0,0,-1,1532,687,0,0
315,337,0,0,0,0,0,0,0,0,0,-1,1539,687,0,0
322,337,0,0,0,0,0,0,0,0,0,-1,1546,687,0,0
329,337,0,0,0,0,0,0,0,0,0,-1,1553,687,0,0
336,337,0,0,0,0,0,0,0,0,0,-1,1560,687,0,0
343,337,0,0,0,0,0,0,0,0,0,-1,1567,687,0,0
350,337,0,0,0,0,0,0,0,0,0,-1,1574,687,0,0
357,337,0,0,0,0,0,0,0,0,0,-1,1581,687,0,0
364,337,0,0,0,0,0,0,0,0,0,-1,1588,687,0,0
371,337,0,0,0,0,0,0,0,0,0,-1,1595,687,0,0
378,337,0,0,0,0,0,0,0,0,0,-1,1602,687,0,0
385,337,0,0,0,0,0,0,0,0,0,-1,1609,687,0,0
392,337,0,0,0,0,0,0,0,0,0,-1,1616,687,0,0
399,337,0,0,0,0,0,0,0,0,0,-1,1623,687,0,0
406,337,0,0,0,0,0,0,0,0,0,-1,1630,687,0,0
413,337,0,0,0,0,0,0,0,0,0,-1,1637,687,0,0
420,337,0,0,0,0,0,0,0,0,0,-1,1644,687,0,0
427,337,0,0,0,0,0,0,0,0,0,-1,1651,687,0,0
434,337,0,0,0,0,0,0,0,0,0,-1,1658,687,0,0
441,337,0,0,0,0,0,0,0,0,0,-1,1665,687,0,0
448,337,0,0,0,0,0,0,0,0,0,-1,1672,687,0,0
455,337,0,0,0,0,0,0,0,0,0,-1,1679,687,0,0
462,337,0,0,0,0,0,0,0,0,0,-1,1686,687,0,0
469,337,0,0,0,0,0,0,0,0,0,-1,1693,687,0,0
476,337,0,0,0,0,0,0,0,0,0,-1,1700,687,0,0
483,337,0,0,0,0,0,0,0,0,0,-1,1707,687,0,0
490,337,0,0,0,0,0,0,0,0,0,-1,1714,687,0,0
497,337,0,0,0,0,0,0,0,0,0,-1,1721,687,0,0
504,337,0,0,0,0,0,0,0,0,0,-1,1728,687,0,0
511,337,0,0,0,0,0,0,0,0,0,-1,1735,687,0,0
518,337,18.0369,1.64581,0,0,0,0,0,0,0,-1,1742,687,18.0368,-1.64581
525,337,31.0717,2.13745,0,0,0,0,0,0,0,-1,1749,687,31.0717,-2.13747
532,337,31.5126,2.13904,0,0,0,0,0,0,0,-1,1756,687,31.5125,-2.13905
539,337,31.9684,2.15594,0,0,0,0,0,0,0,-1,1763,687,31.9684,-2.15596
546,337,32.3584,1.43719,0,0,0,0,0,0,0,-1,1770,687,32.3585,-1.43722
553,337,32.1809,1.36395,0,0,0,0,0,0,0,-1,1777,687,32.181,-1.36396
560,337,18.4053,3.62793,0,0,0,0,0,0,0,-1,1784,687,18.4052,-3.6279
567,337,11.9288,1.38776,0,0,0,0,0,0,0,-1,1791,687,11.9288,-1.38777
574,337,10.704,1.19476,0,0,0,0,0,0,0,-1,1798,687,10.704,-1.19478
581,337,8.50427,0.561768,0,0,0,0,0,0,0,-1,1805,687,8.5043,-0.561754
588,337,8.5885,-0.0536499,0,0,0,0,0,0,0,-1,1812,687,8.58844,0.0536788
595,337,81.6165,-31.2047,0,0,0,0,0,0,0,-1,1819,687,81.6165,31.2047
602,337,88.9606,-31.2034,0,0,0,0,0,0,0,-1,1826,687,88.9605,31.2034
609,337,157.91,-22.8687,0,0,0,0,0,0,0,-1,1833,687,157.91,22.8687
616,337,156.937,-19.3939,0.00157486,0.0253697,-0.0174372,0.0345817,-0.00763708,-1.08477,0.0259771,0.0403949,1840,687,156.937,19.3938
623,337,156.076,-15.8999,0.00195695,0.0270995,-0.0215544,0.0394808,-0.0104243,-1.0494,0.0303971,0.0207969,1847,687,156.076,15.8999
630,337,155.285,-12.5846,0.00264902,0.0289218,-0.0255205,0.0444884,-0.0129176,-1.02308,0.034774,0.0262736,1854,687,155.285,12.5846
637,337,154.49,-9.57544,0.00360546,0.0308164,-0.0293492,0.0495604,-0.0151385,-1.00244,0.0390764,0.029321,1861,687,154.49,9.57543
644,337,153.779,-6.50543,0.00486222,0.0327893,-0.0330381,0.0546935,-0.017042,-0.985337,0.0432763,0.0230335,1868,687,153.779,6.50542
651,337,153.17,-3.43964,0.00638993,0.0347987,-0.0365468,0.0598044,-0.0186158,-0.970746,0.0473118,0.0197723,1875,687,153.17,3.43964
658,337,152.613,-0.447021,0.00821749,0.0369544,-0.0399099,0.0650036,-0.0198316,-0.958186,0.0512418,0.0204792,1882,687,152.613,0.447026
665,337,152.104,2.49915,0.0104093,0.0393443,-0.0430518,0.0702945,-0.0205408,-0.947494,0.0550037,0.0252382,1889,687,152.104,-2.49915
672,337,151.588,5.65625,0,0,0,0,0,0,0,-1,1896,687,151.588,-5.65622
679,337,53.736,-3.5094,0,0,0,0,0,0,0,-1,1903,687,53.736,3.50941
686,337,18.5614,1.68597,0,0,0,0,0,0,0,-1,1910,687,18.5614,-1.68598
693,337,16.5415,2.21411,0,0,0,0,0,0,0,-1,1917,687,16.5415,-2.2141
700,337,17.2661,2.44379,0,0,0,0,0,0,0,-1,1924,687,17.2661,-2.44378
707,337,17.3544,5.61853,0,0,0,0,0,0,0,-1,1931,687,17.3543,-5.61851
714,337,0,0,0,0,0,0,0,0,0,-1,1938,687,0,0
721,337,0,0,0,0,0,0,0,0,0,-1,1945,687,0,0
728,337,0,0,0,0,0,0,0,0,0,-1,1952,687,0,0
735,337,0,0,0,0,0,0,0,0,0,-1,1959,687,0,0
742,337,0,0,0,0,0,0,0,0,0,-1,1966,687,0,0
749,337,0,0,0,0,0,0,0,0,0,-1,1973,687,0,0
756,337,0,0,0,0,0,0,0,0,0,-1,1980,687,0,0
763,337,0,0,0,0,0,0,0,0,0,-1,1987,687,0,0
770,337,0,0,0,0,0,0,0,0,0,-1,1994,687,0,0
777,337,0,0,0,0,0,0,0,0,0,-1,2001,687,0,0
784,337,0,0,0,0,0,0,0,0,0,-1,2008,687,0,0
791,337,0,0,0,0,0,0,0,0,0,-1,2015,687,0,0
798,337,0,0,0,0,0,0,0,0,0,-1,2022,687,0,0
805,337,0,0,0,0,0,0,0,0,0,-1,2029,687,0,0
812,337,0,0,0,0,0,0,0,0,0,-1,2036,687,0,0
-700,330,0,0,0,0,0,0,0,0,0,-1,524,694,0,0
-693,330,0,0,0,0,0,0,0,0,0,-1,531,694,0,0
-686,330,0,0,0,0,0,0,0,0,0,-1,538,694,0,0
-679,330,0,0,0,0,0,0,0,0,0,-1,545,694,0,0
-672,330,0,0,0,0,0,0,0,0,0,-1,552,694,0,0
-665,330,0,0,0,0,0,0,0,0,0,-1,559,694,0,0
-658,330,0,0,0,0,0,0,0,0,0,-1,566,694,0,0
-651,330,0,0,0,0,0,0,0,0,0,-1,573,694,0,0
-644,330,0,0,0,0,0,0,0,0,0,-1,580,694,0,0
-637,330,0,0,0,0,0,0,0,0,0,-1,587,694,0,0
-630,330,0,0,0,0,0,0,0,0,0,-1,594,694,0,0
-623,330,0,0,0,0,0,0,0,0,0,-1,601,694,0,0
-616,330,0,0,0,0,0,0,0,0,0,-1,608,694,0,0
-609,330,0,0,0,0,0,0,0,0,0,-1,615,694,0,0
-602,330,0,0,0,0,0,0,0,0,0,-1,622,694,0,0
-595,330,-4.67883,1.65515,0,0,0,0,0,0,0,-1,629,694,-4.67881,-1.65515
-588,330,-8.5047,2.67346,0,0,0,0,0,0,0,-1,636,694,-8.50469,-2.67348
-581,330,-12.4227,0.947083,0,0,0,0,0,0,0,-1,643,694,-12.4227,-0.947109
-574,330,-9.02118,1.87952,0,0,0,0,0,0,0,-1,650,694,-9.02115,-1.87953
-567,330,-8.35577,0.909973,0,0,0,0,0,0,0,-1,657,694,-8.35575,-0.909945
-560,330,-13.1036,-0.584656,0,0,0,0,0,0,0,-1,664,694,-13.1035,0.584658
-553,330,-17.5484,-1.21545,0,0,0,0,0,0,0,-1,671,694,-17.5484,1.21547
-546,330,-144.85,9.32867,0,0,0,0,0,0,0,-1,678,694,-144.85,-9.32868
-539,330,-146.058,6.41315,0,0,0,0,0,0,0,-1,685,694,-146.058,-6.41312
-532,330,-146.486,3.32703,0.0155569,0.0461704,0.0411602,0.0747779,-0.0130506,0.963415,0.0547233,0.0400513,692,694,-146.486,-3.32704
-525,330,-147.006,0.21228,0.013133,0.042313,0.0382399,0.0686517,-0.0132057,0.967643,0.0507457,0.0161908,699,694,-147.006,-0.21229
-518,330,-147.692,-2.84045,0.0104297,0.0392164,0.0353804,0.0630191,-0.013373,0.978583,0.0471074,0.0195583,706,694,-147.692,2.84043
-511,330,-148.367,-5.97974,0.00745156,0.0363302,0.0328044,0.0577324,-0.0139507,0.99272,0.043884,0.0235432,713,694,-148.367,5.97976
-504,330,-149.051,-9.16907,0.00418875,0.0336165,0.0304318,0.0527049,-0.0148997,1.01058,0.0410154,0.021433,720,694,-149.051,9.16907
-497,330,-149.78,-12.397,0.00075616,0.0312615,0.0283101,0.0481664,-0.0161487,1.03249,0.0386357,0.0183394,727,694,-149.78,12.397
-490,330,-150.483,-15.7889,-0.00299638,0.0291883,0.0265055,0.0441041,-0.0179122,1.05822,0.0368542,0.0241737,734,694,-150.483,15.7889
-483,330,-151.392,-19.3175,0,0,0,0,0,0,0,-1,741,694,-151.392,19.3175
-476,330,-152.45,-23.1471,0,0,0,0,0,0,0,-1,748,694,-152.45,23.1471
-469,330,-152.665,-26.2667,0,0,0,0,0,0,0,-1,755,694,-152.665,26.2667
-462,330,-7.26733,-3.84833,0,0,0,0,0,0,0,-1,762,694,-7.26731,3.84832
-455,330,-5.04254,-1.79303,0,0,0,0,0,0,0,-1,769,694,-5.04252,1.79305
-448,330,-4.89886,-1.66156,0,0,0,0,0,0,0,-1,776,694,-4.89886,1.66157
-441,330,-5.30676,-2.34045,0,0,0,0,0,0,0,-1,783,694,-5.30679,2.34048
-434,330,-7.20428,1.00024,0,0,0,0,0,0,0,-1,790,694,-7.20431,-1.00027
-427,330,-16.0428,2.89258,0,0,0,0,0,0,0,-1,797,694,-16.0428,-2.89259
-420,330,-29.0331,0.271606,0,0,0,0,0,0,0,-1,804,694,-29.0331,-0.27158
-413,330,-29.0896,0.56366,0,0,0,0,0,0,0,-1,811,694,-29.0896,-0.563671
-406,330,-1.65375,-1.74371,0,0,0,0,0,0,0,-1,818,694,-1.65375,1.74371
-399,330,0,0,0,0,0,0,0,0,0,-1,825,694,0,0
-392,330,0,0,0,0,0,0,0,0,0,-1,832,694,0,0
-385,330,0,0,0,0,0,0,0,0,0,-1,839,694,0,0
-378,330,0,0,0,0,0,0,0,0,0,-1,846,694,0,0
-371,330,0,0,0,0,0,0,0,0,0,-1,853,694,0,0
-364,330,0,0,0,0,0,0,0,0,0,-1,860,694,0,0
-357,330,0,0,0,0,0,0,0,0,0,-1,867,694,0,0
-350,330,0,0,0,0,0,0,0,0,0,-1,874,694,0,0
-343,330,0,0,0,0,0,0,0,0,0,-1,881,694,0,0
-336,330,0,0,0,0,0,0,0,0,0,-1,888,694,0,0
-329,330,0,0,0,0,0,0,0,0,0,-1,895,694,0,0
-322,330,0,0,0,0,0,0,0,0,0,-1,902,694,0,0
-315,330,0,0,0,0,0,0,0,0,0,-1,909,694,0,0
-308,330,0,0,0,0,0,0,0,0,0,-1,916,694,0,0
-301,330,0,0,0,0,0,0,0,0,0,-1,923,694,0,0
-294,330,0,0,0,0,0,0,0,0,0,-1,930,694,0,0
-287,330,0,0,0,0,0,0,0,0,0,-1,937,694,0,0
-280,330,0,0,0,0,0,0,0,0,0,-1,944,694,0,0
-273,330,0,0,0,0,0,0,0,0,0,-1,951,694,0,0
-266,330,0,0,0,0,0,0,0,0,0,-1,958,694,0,0
-259,330,0,0,0,0,0,0,0,0,0,-1,965,694,0,0
-252,330,0,0,0,0,0,0,0,0,0,-1,972,694,0,0
-245,330,0,0,0,0,0,0,0,0,0,-1,979,694,0,0
-238,330,0,0,0,0,0,0,0,0,0,-1,986,694,0,0
-231,330,0,0,0,0,0,0,0,0,0,-1,993,694,0,0
-224,330,0,0,0,0,0,0,0,0,0,-1,1000,694,0,0
-217,330,0,0,0,0,0,0,0,0,0,-1,1007,694,0,0
-210,330,0,0,0,0,0,0,0,0,0,-1,1014,694,0,0
-203,330,0,0,0,0,0,0,0,0,0,-1,1021,694,0,0
-196,330,0,0,0,0,0,0,0,0,0,-1,1028,694,0,0
-189,330,0,0,0,0,0,0,0,0,0,-1,1035,694,0,0
-182,330,0,0,0,0,0,0,0,0,0,-1,1042,694,0,0
-175,330,0,0,0,0,0,0,0,0,0,-1,1049,694,0,0
-168,330,0,0,0,0,0,0,0,0,0,-1,1056,694,0,0
-161,330,0,0,0,0,0,0,0,0,0,-1,1063,694,0,0
-154,330,0,0,0,0,0,0,0,0,0,-1,1070,694,0,0
-147,330,0,0,0,0,0,0,0,0,0,-1,1077,694,0,0
-140,330,0,0,0,0,0,0,0,0,0,-1,1084,694,0,0
-133,330,0,0,0,0,0,0,0,0,0,-1,1091,694,0,0
-126,330,0,0,0,0,0,0,0,0,0,-1,1098,694,0,0
-119,330,0,0,0,0,0,0,0,0,0,-1,1105,694,0,0
-112,330,0,0,0,0,0,0,0,0,0,-1,1112,694,0,0
-105,330,0,0,0,0,0,0,0,0,0,-1,1119,694,0,0
-98,330,0,0,0,0,0,0,0,0,0,-1,1126,694,0,0
-91,330,0,0,0,0,0,0,0,0,0,-1,1133,694,0,0
-84,330,0,0,0,0,0,0,0,0,0,-1,1140,694,0,0
-77,330,0,0,0,0,0,0,0,0,0,-1,1147,694,0,0
-70,330,0,0,0,0,0,0,0,0,0,-1,1154,694,0,0
-63,330,0,0,0,0,0,0,0,0,0,-1,1161,694,0,0
-56,330,0,0,0,0,0,0,0,0,0,-1,1168,694,0,0
-49,330,0,0,0,0,0,0,0,0,0,-1,1175,694,0,0
-42,330,0,0,0,0,0,0,0,0,0,-1,1182,694,0,0
-35,330,0,0,0,0,0,0,0,0,0,-1,1189,694,0,0
-28,330,0,0,0,0,0,0,0,0,0,-1,1196,694,0,0
-21,330,0,0,0,0,0,0,0,0,0,-1,1203,694,0,0
-14,330,0,0,0,0,0,0,0,0,0,-1,1210,694,0,0
-7,330,0,0,0,0,0,0,0,0,0,-1,1217,694,0,0
0,330,0,0,0,0,0,0,0,0,0,-1,1224,694,0,0
7,330,0,0,0,0,0,0,0,0,0,-1,1231,694,0,0
14,330,0,0,0,0,0,0,0,0,0,-1,1238,694,0,0
21,330,0,0,0,0,0,0,0,0,0,-1,1245,694,0,0
28,330,0,0,0,0,0,0,0,0,0,-1,1252,694,0,0
35,330,0,0,0,0,0,0,0,0,0,-1,1259,694,0,0
42,330,0,0,0,0,0,0,0,0,0,-1,1266,694,0,0
49,330,0,0,0,0,0,0,0,0,0,-1,1273,694,0,0
56,330,0,0,0,0,0,0,0,0,0,-1,1280,694,0,0
63,330,0,0,0,0,0,0,0,0,0,-1,1287,694,0,0
70,330,0,0,0,0,0,0,0,0,0,-1,1294,694,0,0
77,330,0,0,0,0,0,0,0,0,0,-1,1301,694,0,0
84,330,0,0,0,0,0,0,0,0,0,-1,1308,694,0,0
91,330,0,0,0,0,0,0,0,0,0,-1,1315,694,0,0
98,330,0,0,0,0,0,0,0,0,0,-1,1322,694,0,0
105,330,0,0,0,0,0,0,0,0,0,-1,1329,694,0,0
112,330,0,0,0,0,0,0,0,0,0,-1,1336,694,0,0
119,330,0,0,0,0,0,0,0,0,0,-1,1343,694,0,0
126,330,0,0,0,0,0,0,0,0,0,-1,1350,694,0,0
133,330,0,0,0,0,0,0,0,0,0,-1,1357,694,0,0
140,330,0,0,0,0,0,0,0,0,0,-1,1364,694,0,0
147,330,0,0,0,0,0,0,0,0,0,-1,1371,694,0,0
154,330,0,0,0,0,0,0,0,0,0,-1,1378,694,0,0
161,330,0,0,0,0,0,0,0,0,0,-1,1385,694,0,0
168,330,0,0,0,0,0,0,0,0,0,-1,1392,694,0,0
175,330,0,0,0,0,0,0,0,0,0,-1,1399,694,0,0
182,330,0,0,0,0,0,0,0,0,0,-1,1406,694,0,0
189,330,0,0,0,0,0,0,0,0,0,-1,1413,694,0,0
196,330,0,0,0,0,0,0,0,0,0,-1,1420,694,0,0
203,330,0,0,0,0,0,0,0,0,0,-1,1427,694,0,0
210,330,0,0,0,0,0,0,0,0,0,-1,1434,694,0,0
217,330,0,0,0,0,0,0,0,0,0,-1,1441,694,0,0
224,330,0,0,0,0,0,0,0,0,0,-1,1448,694,0,0
231,330,0,0,0,0,0,0,0,0,0,-1,1455,694,0,0
238,330,0,0,0,0,0,0,0,0,0,-1,1462,694,0,0
245,330,0,0,0,0,0,0,0,0,0,-1,1469,694,0,0
252,330,0,0,0,0,0,0,0,0,0,-1,1476,694,0,0
259,330,0,0,0,0,0,0,0,0,0,-1,1483,694,0,0
266,330,0,0,0,0,0,0,0,0,0,-1,1490,694,0,0
273,330,0,0,0,0,0,0,0,0,0,-1,1497,694,0,0
280,330,0,0,0,0,0,0,0,0,0,-1,1504,694,0,0
287,330,0,0,0,0,0,0,0,0,0,-1,1511,694,0,0
294,330,0,0,0,0,0,0,0,0,0,-1,1518,694,0,0
301,330,0,0,0,0,0,0,0,0,0,-1,1525,694,0,0
308,330,0,0,0,0,0,0,0,0,0,-1,1532,694,0,0
315,330,0,0,0,0,0,0,0,0,0,-1,1539,694,0,0
322,330,0,0,0,0,0,0,0,0,0,-1,1546,694,0,0
329,330,0,0,0,0,0,0,0,0,0,-1,1553,694,0,0
336,330,0,0,0,0,0,0,0,0,0,-1,1560,694,0,0
343,330,0,0,0,0,0,0,0,0,0,-1,1567,694,0,0
350,330,0,0,0,0,0,0,0,0,0,-1,1574,694,0,0
357,330,0,0,0,0,0,0,0,0,0,-1,1581,694,0,0
364,330,0,0,0,0,0,0,0,0,0,-1,1588,694,0,0
371,330,0,0,0,0,0,0,0,0,0,-1,1595,694,0,0
378,330,0,0,0,0,0,0,0,0,0,-1,1602,694,0,0
385,330,0,0,0,0,0,0,0,0,0,-1,1609,694,0,0
392,330,0,0,0,0,0,0,0,0,0,-1,1616,694,0,0
399,330,0,0,0,0,0,0,0,0,0,-1,1623,694,0,0
406,330,0,0,0,0,0,0,0,0,0,-1,1630,694,0,0
413,330,0,0,0,0,0,0,0,0,0,-1,1637,694,0,0
420,330,0,0,0,0,0,0,0,0,0,-1,1644,694,0,0
427,330,0,0,0,0,0,0,0,0,0,-1,1651,694,0,0
434,330,0,0,0,0,0,0,0,0,0,-1,1658,694,0,0
441,330,0,0,0,0,0,0,0,0,0,-1,1665,694,0,0
448,330,0,0,0,0,0,0,0,0,0,-1,1672,694,0,0
455,330,0,0,0,0,0,0,0,0,0,-1,1679,694,0,0
462,330,0,0,0,0,0,0,0,0,0,-1,1686,694,0,0
469,330,0,0,0,0,0,0,0,0,0,-1,1693,694,0,0
476,330,0,0,0,0,0,0,0,0,0,-1,1700,694,0,0
483,330,0,0,0,0,0,0,0,0,0,-1,1707,694,0,0
490,330,0,0,0,0,0,0,0,0,0,-1,1714,694,0,0
497,330,0,0,0,0,0,0,0,0,0,-1,1721,694,0,0
504,330,0,0,0,0,0,0,0,0,0,-1,1728,694,0,0
511,330,0,0,0,0,0,0,0,0,0,-1,1735,694,0,0
518,330,0,0,0,0,0,0,0,0,0,-1,1742,694,0,0
525,330,30.6694,0.69519,0,0,0,0,0,0,0,-1,1749,694,30.6694,-0.695206
532,330,30.9469,1.32501,0,0,0,0,0,0,0,-1,1756,694,30.9469,-1.32501
539,330,31.5155,1.62506,0,0,0,0,0,0,0,-1,1763,694,31.5155,-1.62507
546,330,31.4187,1.85651,0,0,0,0,0,0,0,-1,1770,694,31.4187,-1.85651
553,330,31.8452,1.81476,0,0,0,0,0,0,0,-1,1777,694,31.8452,-1.81475
560,330,32.2401,2.43225,0,0,0,0,0,0,0,-1,1784,694,32.2401,-2.43227
567,330,18.0321,3.98578,0,0,0,0,0,0,0,-1,1791,694,18.0321,-3.98576
574,330,12.0454,2.1662,0,0,0,0,0,0,0,-1,1798,694,12.0455,-2.16618
581,330,11.4215,4.50836,0,0,0,0,0,0,0,-1,1805,694,11.4215,-4.50837
588,330,6.45667,-0.0630493,0,0,0,0,0,0,0,-1,1812,694,6.45661,0.0630695
595,330,79.1702,-27.7747,0,0,0,0,0,0,0,-1,1819,694,79.1702,27.7747
602,330,88.7308,-30.3799,0,0,0,0,0,0,0,-1,1826,694,88.7308,30.38
609,330,161.361,-21.8415,0,0,0,0,0,0,0,-1,1833,694,161.361,21.8415
616,330,160.435,-18.4578,0.000613017,0.0249346,-0.0130311,0.0305978,-0.00505017,-1.16083,0.0222736,0.0490533,1840,694,160.435,18.4578
623,330,159.683,-15.0602,0.000791193,0.0263791,-0.0173583,0.0351489,-0.00797863,-1.10298,0.0264956,0.0209738,1847,694,159.683,15.0602
630,330,158.938,-11.8438,0.00138101,0.0279714,-0.0215042,0.0399585,-0.010606,-1.06227,0.0307894,0.0226672,1854,694,158.938,11.8437
637,330,158.134,-8.7243,0.00227384,0.0296893,-0.0255055,0.0449373,-0.0129741,-1.03197,0.0350917,0.0196267,1861,694,158.134,8.72431
644,330,157.47,-5.6828,0.00346312,0.0315364,-0.029347,0.0500309,-0.0150314,-1.00847,0.0393337,0.0153906,1868,694,157.47,5.68278
651,330,156.759,-2.75128,0.00493841,0.0334727,-0.0330099,0.0551667,-0.0167556,-0.989378,0.0434535,0.0221935,1875,694,156.759,2.75131
658,330,156.143,0.243652,0.00666797,0.0356028,-0.0365152,0.0604122,-0.0181414,-0.974012,0.0474913,0.0201598,1882,694,156.143,-0.243666
665,330,155.496,3.21228,0.00866515,0.0379921,-0.0397995,0.0657435,-0.0190862,-0.961899,0.0513865,0.0188952,1889,694,155.496,-3.21227
672,330,155.315,6.40424,0,0,0,0,0,0,0,-1,1896,694,155.315,-6.40422
679,330,59.6794,-2.67194,0,0,0,0,0,0,0,-1,1903,694,59.6795,2.67195
686,330,30.6691,0.582825,0,0,0,0,0,0,0,-1,1910,694,30.6691,-0.582798
693,330,17.3999,2.5976,0,0,0,0,0,0,0,-1,1917,694,17.4,-2.59759
700,330,17.1072,4.13,0,0,0,0,0,0,0,-1,1924,694,17.1071,-4.13002
707,330,16.663,4.88672,0,0,0,0,0,0,0,-1,1931,694,16.6629,-4.88673
714,330,16.5454,5.80896,0,0,0,0,0,0,0,-1,1938,694,16.5454,-5.80899
721,330,0,0,0,0,0,0,0,0,0,-1,1945,694,0,0
728,330,0,0,0,0,0,0,0,0,0,-1,1952,694,0,0
735,330,0,0,0,0,0,0,0,0,0,-1,1959,694,0,0
742,330,0,0,0,0,0,0,0,0,0,-1,1966,694,0,0
749,330,0,0,0,0,0,0,0,0,0,-1,1973,694,0,0
756,330,0,0,0,0,0,0,0,0,0,-1,1980,694,0,0
763,330,0,0,0,0,0,0,0,0,0,-1,1987,694,0,0
770,330,0,0,0,0,0,0,0,0,0,-1,1994,694,0,0
777,330,0,0,0,0,0,0,0,0,0,-1,2001,694,0,0
784,330,0,0,0,0,0,0,0,0,0,-1,2008,694,0,0
791,330,0,0,0,0,0,0,0,0,0,-1,2015,694,0,0
798,330,0,0,0,0,0,0,0,0,0,-1,2022,694,0,0
805,330,0,0,0,0,0,0,0,0,0,-1,2029,694,0,0
812,330,0,0,0,0,0,0,0,0,0,-1,2036,694,0,0
-700,323,0,0,0,0,0,0,0,0,0,-1,524,701,0,0
-693,323,0,0,0,0,0,0,0,0,0,-1,531,701,0,0
-686,323,0,0,0,0,0,0,0,0,0,-1,538,701,0,0
-679,323,0,0,0,0,0,0,0,0,0,-1,545,701,0,0
-672,323,0,0,0,0,0,0,0,0,0,-1,552,701,0,0
-665,323,0,0,0,0,0,0,0,0,0,-1,559,701,0,0
-658,323,0,0,0,0,0,0,0,0,0,-1,566,701,0,0
-651,323,0,0,0,0,0,0,0,0,0,-1,573,701,0,0
-644,323,0,0,0,0,0,0,0,0,0,-1,580,701,0,0
-637,323,0,0,0,0,0,0,0,0,0,-1,587,701,0,0
-630,323,0,0,0,0,0,0,0,0,0,-1,594,701,0,0
-623,323,0,0,0,0,0,0,0,0,0,-1,601,701,0,0
-616,323,0,0,0,0,0,0,0,0,0,-1,608,701,0,0
-609,323,0,0,0,0,0,0,0,0,0,-1,615,701,0,0
-602,323,-4.15833,2.12256,0,0,0,0,0,0,0,-1,622,701,-4.1583,-2.12257
-595,323,-4.052,1.79156,0,0,0,0,0,0,0,-1,629,701,-4.05198,-1.79158
-588,323,-4.07019,1.94543,0,0,0,0,0,0,0,-1,636,701,-4.07019,-1.94542
-581,323,-6.63727,0.562805,0,0,0,0,0,0,0,-1,643,701,-6.63728,-0.56279
-574,323,-6.15887,0.426697,0,0,0,0,0,0,0,-1,650,701,-6.15887,-0.426727
-567,323,-10.0015,0.0371094,0,0,0,0,0,0,0,-1,657,701,-10.0015,-0.037126
-560,323,-16.3503,-1.16956,0,0,0,0,0,0,0,-1,664,701,-16.3503,1.16957
-553,323,-148.339,12.1888,0,0,0,0,0,0,0,-1,671,701,-148.339,-12.1888
-546,323,-148.818,9.56287,0.0162408,0.0511203,0.0453089,0.08223,-0.0148688,0.969113,0.0603895,0.0434769,678,701,-148.818,-9.56287
-539,323,-149.389,6.74701,0.0142218,0.0477168,0.0416169,0.0758296,-0.013891,0.976694,0.0557631,0.0339481,685,701,-149.389,-6.74699
-532,323,-149.984,3.86023,0.0122224,0.0440308,0.0383265,0.0696219,-0.0133688,0.982069,0.0514531,0.017709,692,701,-149.984,-3.86024
-525,323,-150.512,0.981201,0.00991301,0.0405267,0.0352179,0.0636203,-0.0131806,0.990399,0.0474217,0.0132793,699,701,-150.512,-0.981217
-518,323,-151.165,-2.10486,0.00725256,0.037545,0.0322634,0.0580406,-0.013243,1.00486,0.0437808,0.0140808,706,701,-151.165,2.10484
-511,323,-151.876,-5.22845,0.00427408,0.034782,0.0295748,0.0528049,-0.0137489,1.02349,0.0405704,0.016986,713,701,-151.876,5.22845
-504,323,-152.59,-8.37048,0.000939287,0.0323045,0.027072,0.0479083,-0.0146645,1.04793,0.0377877,0.0190631,720,701,-152.59,8.37046
-497,323,-153.35,-11.5342,-0.00267107,0.0302952,0.0247996,0.0435898,-0.0159657,1.0787,0.035596,0.0200462,727,701,-153.35,11.5342
-490,323,-154.13,-14.8041,-0.00680796,0.0287083,0.0229264,0.0399497,-0.0180493,1.11492,0.0342723,0.0367574,734,701,-154.13,14.8041
-483,323,-154.808,-18.2059,0,0,0,0,0,0,0,-1,741,701,-154.808,18.2059
-476,323,-86.7814,-28.3901,0,0,0,0,0,0,0,-1,748,701,-86.7815,28.3902
-469,323,-8.33301,-3.64001,0,0,0,0,0,0,0,-1,755,701,-8.33298,3.64
-462,323,-5.29431,-1.45697,0,0,0,0,0,0,0,-1,762,701,-5.29431,1.45699
-455,323,-5.0658,-1.36639,0,0,0,0,0,0,0,-1,769,701,-5.06578,1.3664
-448,323,-4.91608,-1.59601,0,0,0,0,0,0,0,-1,776,701,-4.91606,1.59604
-441,323,-14.4006,0.535217,0,0,0,0,0,0,0,-1,783,701,-14.4006,-0.535203
-434,323,-15.3158,2.479,0,0,0,0,0,0,0,-1,790,701,-15.3158,-2.47898
-427,323,-28.3923,1.16797,0,0,0,0,0,0,0,-1,797,701,-28.3923,-1.16796
-420,323,-28.7292,1.09302,0,0,0,0,0,0,0,-1,804,701,-28.7292,-1.09304
-413,323,-28.7955,1.22418,0,0,0,0,0,0,0,-1,811,701,-28.7956,-1.22419
-406,323,0,0,0,0,0,0,0,0,0,-1,818,701,0,0
-399,323,0,0,0,0,0,0,0,0,0,-1,825,701,0,0
-392,323,0,0,0,0,0,0,0,0,0,-1,832,701,0,0
-385,323,0,0,0,0,0,0,0,0,0,-1,839,701,0,0
-378,323,0,0,0,0,0,0,0,0,0,-1,846,701,0,0
-371,323,0,0,0,0,0,0,0,0,0,-1,853,701,0,0
-364,323,0,0,0,0,0,0,0,0,0,-1,860,701,0,0
-357,323,0,0,0,0,0,0,0,0,0,-1,867,701,0,0
-350,323,0,0,0,0,0,0,0,0,0,-1,874,701,0,0
-343,323,0,0,0,0,0,0,0,0,0,-1,881,701,0,0
-336,323,0,0,0,0,0,0,0,0,0,-1,888,701,0,0
-329,323,0,0,0,0,0,0,0,0,0,-1,895,701,0,0
-322,323,0,0,0,0,0,0,0,0,0,-1,902,701,0,0
-315,323,0,0,0,0,0,0,0,0,0,-1,909,701,0,0
-308,323,0,0,0,0,0,0,0,0,0,-1,916,701,0,0
-301,323,0,0,0,0,0,0,0,0,0,-1,923,701,0,0
-294,323,0,0,0,0,0,0,0,0,0,-1,930,701,0,0
-287,323,0,0,0,0,0,0,0,0,0,-1,937,701,0,0
-280,323,0,0,0,0,0,0,0,0,0,-1,944,701,0,0
-273,323,0,0,0,0,0,0,0,0,0,-1,951,701,0,0
-266,323,0,0,0,0,0,0,0,0,0,-1,958,701,0,0
-259,323,0,0,0,0,0,0,0,0,0,-1,965,701,0,0
-252,323,0,0,0,0,0,0,0,0,0,-1,972,701,0,0
-245,323,0,0,0,0,0,0,0,0,0,-1,979,701,0,0
-238,323,0,0,0,0,0,0,0,0,0,-1,986,701,0,0
-231,323,0,0,0,0,0,0,0,0,0,-1,993,701,0,0
-224,323,0,0,0,0,0,0,0,0,0,-1,1000,701,0,0
-217,323,0,0,0,0,0,0,0,0,0,-1,1007,701,0,0
-210,323,0,0,0,0,0,0,0,0,0,-1,1014,701,0,0
-203,323,0,0,0,0,0,0,0,0,0,-1,1021,701,0,0
-196,323,0,0,0,0,0,0,0,0,0,-1,1028,701,0,0
-189,323,0,0,0,0,0,0,0,0,0,-1,1035,701,0,0
-182,323,0,0,0,0,0,0,0,0,0,-1,1042,701,0,0
-175,323,0,0,0,0,0,0,0,0,0,-1,1049,701,0,0
-168,323,0,0,0,0,0,0,0,0,0,-1,1056,701,0,0
-161,323,0,0,0,0,0,0,0,0,0,-1,1063,701,0,0
-154,323,0,0,0,0,0,0,0,0,0,-1,1070,701,0,0
-147,323,0,0,0,0,0,0,0,0,0,-1,1077,701,0,0
-140,323,0,0,0,0,0,0,0,0,0,-1,1084,701,0,0
-133,323,0,0,0,0,0,0,0,0,0,-1,1091,701,0,0
-126,323,0,0,0,0,0,0,0,0,0,-1,1098,701,0,0
-119,323,0,0,0,0,0,0,0,0,0,-1,1105,701,0,0
-112,323,0,0,0,0,0,0,0,0,0,-1,1112,701,0,0
-105,323,0,0,0,0,0,0,0,0,0,-1,1119,701,0,0
-98,323,0,0,0,0,0,0,0,0,0,-1,1126,701,0,0
-91,323,0,0,0,0,0,0,0,0,0,-1,1133,701,0,0
-84,323,0,0,0,0,0,0,0,0,0,-1,1140,701,0,0
-77,323,0,0,0,0,0,0,0,0,0,-1,1147,701,0,0
-70,323,0,0,0,0,0,0,0,0,0,-1,1154,701,0,0
-63,323,0,0,0,0,0,0,0,0,0,-1,1161,701,0,0
-56,323,0,0,0,0,0,0,0,0,0,-1,1168,701,0,0
-49,323,0,0,0,0,0,0,0,0,0,-1,1175,701,0,0
-42,323,0,0,0,0,0,0,0,0,0,-1,1182,701,0,0
-35,323,0,0,0,0,0,0,0,0,0,-1,1189,701,0,0
-28,323,0,0,0,0,0,0,0,0,0,-1,1196,701,0,0
-21,323,0,0,0,0,0,0,0,0,0,-1,1203,701,0,0
-14,323,0,0,0,0,0,0,0,0,0,-1,1210,701,0,0
-7,323,0,0,0,0,0,0,0,0,0,-1,1217,701,0,0
0,323,0,0,0,0,0,0,0,0,0,-1,1224,701,0,0
7,323,0,0,0,0,0,0,0,0,0,-1,1231,701,0,0
14,323,0,0,0,0,0,0,0,0,0,-1,1238,701,0,0
21,323,0,0,0,0,0,0,0,0,0,-1,1245,701,0,0
28,323,0,0,0,0,0,0,0,0,0,-1,1252,701,0,0
35,323,0,0,0,0,0,0,0,0,0,-1,1259,701,0,0
42,323,0,0,0,0,0,0,0,0,0,-1,1266,701,0,0
49,323,0,0,0,0,0,0,0,0,0,-1,1273,701,0,0
56,323,0,0,0,0,0,0,0,0,0,-1,1280,701,0,0
63,323,0,0,0,0,0,0,0,0,0,-1,1287,701,0,0
70,323,0,0,0,0,0,0,0,0,0,-1,1294,701,0,0
77,323,0,0,0,0,0,0,0,0,0,-1,1301,701,0,0
84,323,0,0,0,0,0,0,0,0,0,-1,1308,701,0,0
91,323,0,0,0,0,0,0,0,0,0,-1,1315,701,0,0
98,323,0,0,0,0,0,0,0,0,0,-1,1322,701,0,0
105,323,0,0,0,0,0,0,0,0,0,-1,1329,701,0,0
112,323,0,0,0,0,0,0,0,0,0,-1,1336,701,0,0
119,323,0,0,0,0,0,0,0,0,0,-1,1343,701,0,0
126,323,0,0,0,0,0,0,0,0,0,-1,1350,701,0,0
133,323,0,0,0,0,0,0,0,0,0,-1,1357,701,0,0
140,323,0,0,0,0,0,0,0,0,0,-1,1364,701,0,0
147,323,0,0,0,0,0,0,0,0,0,-1,1371,701,0,0
154,323,0,0,0,0,0,0,0,0,0,-1,1378,701,0,0
161,323,0,0,0,0,0,0,0,0,0,-1,1385,701,0,0
168,323,0,0,0,0,0,0,0,0,0,-1,1392,701,0,0
175,323,0,0,0,0,0,0,0,0,0,-1,1399,701,0,0
182,323,0,0,0,0,0,0,0,0,0,-1,1406,701,0,0
189,323,0,0,0,0,0,0,0,0,0,-1,1413,701,0,0
196,323,0,0,0,0,0,0,0,0,0,-1,1420,701,0,0
203,323,0,0,0,0,0,0,0,0,0,-1,1427,701,0,0
210,323,0,0,0,0,0,0,0,0,0,-1,1434,701,0,0
217,323,0,0,0,0,0,0,0,0,0,-1,1441,701,0,0
224,323,0,0,0,0,0,0,0,0,0,-1,1448,701,0,0
231,323,0,0,0,0,0,0,0,0,0,-1,1455,701,0,0
238,323,0,0,0,0,0,0,0,0,0,-1,1462,701,0,0
245,323,0,0,0,0,0,0,0,0,0,-1,1469,701,0,0
252,323,0,0,0,0,0,0,0,0,0,-1,1476,701,0,0
259,323,0,0,0,0,0,0,0,0,0,-1,1483,701,0,0
266,323,0,0,0,0,0,0,0,0,0,-1,1490,701,0,0
273,323,0,0,0,0,0,0,0,0,0,-1,1497,701,0,0
280,323,0,0,0,0,0,0,0,0,0,-1,1504,701,0,0
287,323,0,0,0,0,0,0,0,0,0,-1,1511,701,0,0
294,323,0,0,0,0,0,0,0,0,0,-1,1518,701,0,0
301,323,0,0,0,0,0,0,0,0,0,-1,1525,701,0,0
308,323,0,0,0,0,0,0,0,0,0,-1,1532,701,0,0
315,323,0,0,0,0,0,0,0,0,0,-1,1539,701,0,0
322,323,0,0,0,0,0,0,0,0,0,-1,1546,701,0,0
329,323,0,0,0,0,0,0,0,0,0,-1,1553,701,0,0
336,323,0,0,0,0,0,0,0,0,0,-1,1560,701,0,0
343,323,0,0,0,0,0,0,0,0,0,-1,1567,701,0,0
350,323,0,0,0,0,0,0,0,0,0,-1,1574,701,0,0
357,323,0,0,0,0,0,0,0,0,0,-1,1581,701,0,0
364,323,0,0,0,0,0,0,0,0,0,-1,1588,701,0,0
371,323,0,0,0,0,0,0,0,0,0,-1,1595,701,0,0
378,323,0,0,0,0,0,0,0,0,0,-1,1602,701,0,0
385,323,0,0,0,0,0,0,0,0,0,-1,1609,701,0,0
392,323,0,0,0,0,0,0,0,0,0,-1,1616,701,0,0
399,323,0,0,0,0,0,0,0,0,0,-1,1623,701,0,0
406,323,0,0,0,0,0,0,0,0,0,-1,1630,701,0,0
413,323,0,0,0,0,0,0,0,0,0,-1,1637,701,0,0
420,323,0,0,0,0,0,0,0,0,0,-1,1644,701,0,0
427,323,0,0,0,0,0,0,0,0,0,-1,1651,701,0,0
434,323,0,0,0,0,0,0,0,0,0,-1,1658,701,0,0
441,323,0,0,0,0,0,0,0,0,0,-1,1665,701,0,0
448,323,0,0,0,0,0,0,0,0,0,-1,1672,701,0,0
455,323,0,0,0,0,0,0,0,0,0,-1,1679,701,0,0
462,323,0,0,0,0,0,0,0,0,0,-1,1686,701,0,0
469,323,0,0,0,0,0,0,0,0,0,-1,1693,701,0,0
476,323,0,0,0,0,0,0,0,0,0,-1,1700,701,0,0
483,323,0,0,0,0,0,0,0,0,0,-1,1707,701,0,0
490,323,0,0,0,0,0,0,0,0,0,-1,1714,701,0,0
497,323,0,0,0,0,0,0,0,0,0,-1,1721,701,0,0
504,323,0,0,0,0,0,0,0,0,0,-1,1728,701,0,0
511,323,0,0,0,0,0,0,0,0,0,-1,1735,701,0,0
518,323,0,0,0,0,0,0,0,0,0,-1,1742,701,0,0
525,323,0,0,0,0,0,0,0,0,0,-1,1749,701,0,0
532,323,33.6193,1.69446,0,0,0,0,0,0,0,-1,1756,701,33.6193,-1.69444
539,323,32.2698,2.44037,0,0,0,0,0,0,0,-1,1763,701,32.2697,-2.44036
546,323,31.1644,3.9444,0,0,0,0,0,0,0,-1,1770,701,31.1644,-3.94438
553,323,30.2488,5.8775,0,0,0,0,0,0,0,-1,1777,701,30.2487,-5.87752
560,323,40.6711,1.25153,0,0,0,0,0,0,0,-1,1784,701,40.6711,-1.25154
567,323,42.1637,2.01208,0,0,0,0,0,0,0,-1,1791,701,42.1637,-2.01207
574,323,12.514,5.89685,0,0,0,0,0,0,0,-1,1798,701,12.5141,-5.89683
581,323,11.821,5.3476,0,0,0,0,0,0,0,-1,1805,701,11.821,-5.34762
588,323,11.7933,7.00818,0,0,0,0,0,0,0,-1,1812,701,11.7933,-7.00819
595,323,6.67847,0.06604,0,0,0,0,0,0,0,-1,1819,701,6.67841,-0.0660418
602,323,82.4321,-26.4705,0,0,0,0,0,0,0,-1,1826,701,82.4321,26.4705
609,323,136.009,-22.1287,0,0,0,0,0,0,0,-1,1833,701,136.009,22.1287
616,323,163.913,-17.6972,0,0,0,0,0,0,0,-1,1840,701,163.913,17.6972
623,323,163.17,-14.3867,-0.000567938,0.0259835,-0.0130573,0.0313287,-0.00591311,-1.18224,0.0231104,0.0273471,1847,701,163.17,14.3866
630,323,162.364,-11.1729,-2.31765e-05,0.0272434,-0.0173978,0.0357133,-0.00849305,-1.11774,0.0270874,0.0219266,1854,701,162.364,11.1729
637,323,161.615,-7.99023,0.000851138,0.0287087,-0.021563,0.0404504,-0.0108906,-1.07216,0.0312365,0.0172493,1861,701,161.615,7.99024
644,323,161.027,-4.97412,0.00200734,0.0303825,-0.0255311,0.0454032,-0.0130134,-1.039,0.0354128,0.0133043,1868,701,161.027,4.9741
651,323,160.334,-1.99341,0.00342083,0.0322602,-0.0292881,0.0504859,-0.0148048,-1.01415,0.0395275,0.0185043,1875,701,160.334,1.99341
658,323,159.707,1.04156,0.00503218,0.0343799,-0.0328632,0.0556965,-0.0162844,-0.995374,0.0435852,0.0205239,1882,701,159.707,-1.04157
665,323,159.089,3.8999,0.00682265,0.0368264,-0.0362041,0.0610137,-0.0173647,-0.981814,0.0475334,0.0214926,1889,701,159.089,-3.89989
672,323,158.657,6.76672,0.0089115,0.0394766,-0.0391558,0.0662266,-0.0178385,-0.971457,0.051145,0.0438819,1896,701,158.657,-6.76672
679,323,158.223,9.92126,0,0,0,0,0,0,0,-1,1903,701,158.223,-9.92126
686,323,30.4916,0.378235,0,0,0,0,0,0,0,-1,1910,701,30.4916,-0.37825
693,323,23.8806,1.08844,0,0,0,0,0,0,0,-1,1917,701,23.8806,-1.08845
700,323,10.7705,0.828613,0,0,0,0,0,0,0,-1,1924,701,10.7705,-0.828591
707,323,16.9005,4.79193,0,0,0,0,0,0,0,-1,1931,701,16.9005,-4.7919
714,323,16.2346,6.25958,0,0,0,0,0,0,0,-1,1938,701,16.2346,-6.25956
721,323,0,0,0,0,0,0,0,0,0,-1,1945,701,0,0
728,323,0,0,0,0,0,0,0,0,0,-1,1952,701,0,0
735,323,0,0,0,0,0,0,0,0,0,-1,1959,701,0,0
742,323,0,0,0,0,0,0,0,0,0,-1,1966,701,0,0
749,323,0,0,0,0,0,0,0,0,0,-1,1973,701,0,0
756,323,0,0,0,0,0,0,0,0,0,-1,1980,701,0,0
763,323,0,0,0,0,0,0,0,0,0,-1,1987,701,0,0
770,323,0,0,0,0,0,0,0,0,0,-1,1994,701,0,0
777,323,0,0,0,0,0,0,0,0,0,-1,2001,701,0,0
784,323,0,0,0,0,0,0,0,0,0,-1,2008,701,0,0
791,323,0,0,0,0,0,0,0,0,0,-1,2015,701,0,0
798,323,0,0,0,0,0,0,0,0,0,-1,2022,701,0,0
805,323,0,0,0,0,0,0,0,0,0,-1,2029,701,0,0
812,323,0,0,0,0,0,0,0,0,0,-1,2036,701,0,0
-700,316,0,0,0,0,0,0,0,0,0,-1,524,708,0,0
-693,316,0,0,0,0,0,0,0,0,0,-1,531,708,0,0
-686,316,0,0,0,0,0,0,0,0,0,-1,538,708,0,0
-679,316,0,0,0,0,0,0,0,0,0,-1,545,708,0,0
-672,316,0,0,0,0,0,0,0,0,0,-1,552,708,0,0
-665,316,0,0,0,0,0,0,0,0,0,-1,559,708,0,0
-658,316,0,0,0,0,0,0,0,0,0,-1,566,708,0,0
-651,316,0,0,0,0,0,0,0,0,0,-1,573,708,0,0
-644,316,0,0,0,0,0,0,0,0,0,-1,580,708,0,0
-637,316,0,0,0,0,0,0,0,0,0,-1,587,708,0,0
-630,316,0,0,0,0,0,0,0,0,0,-1,594,708,0,0
-623,316,0,0,0,0,0,0,0,0,0,-1,601,708,0,0
-616,316,0,0,0,0,0,0,0,0,0,-1,608,708,0,0
-609,316,0,0,0,0,0,0,0,0,0,-1,615,708,0,0
-602,316,-0.451782,-0.0494995,0,0,0,0,0,0,0,-1,622,708,-0.451768,0.0495022
-595,316,-3.3761,2.17188,0,0,0,0,0,0,0,-1,629,708,-3.37609,-2.17189
-588,316,-5.00177,2.60675,0,0,0,0,0,0,0,-1,636,708,-5.00175,-2.60676
-581,316,-3.94653,0.393433,0,0,0,0,0,0,0,-1,643,708,-3.94655,-0.39342
-574,316,-9.67395,1.06067,0,0,0,0,0,0,0,-1,650,708,-9.67396,-1.06065
-567,316,-10.1962,0.448425,0,0,0,0,0,0,0,-1,657,708,-10.1962,-0.448411
-560,316,-18.9941,-1.75067,0,0,0,0,0,0,0,-1,664,708,-18.9941,1.75068
-553,316,-152.003,13.1605,0,0,0,0,0,0,0,-1,671,708,-152.003,-13.1605
-546,316,-152.507,10.235,0.0126986,0.0489938,0.0423647,0.0769342,-0.0152418,0.987757,0.0570528,0.0437092,678,708,-152.507,-10.235
-539,316,-153.03,7.23224,0.0110892,0.0456751,0.0386134,0.070691,-0.0139268,0.99593,0.0523903,0.018597,685,708,-153.03,-7.23227
-532,316,-153.562,4.35846,0.00924785,0.0421905,0.0352065,0.0645882,-0.0131498,1.0042,0.0480457,0.0146317,692,708,-153.562,-4.35843
-525,316,-154.067,1.51447,0.00700988,0.0389577,0.031987,0.0587376,-0.01277,1.01698,0.0440366,0.0154733,699,708,-154.067,-1.51445
-518,316,-154.712,-1.44324,0.00436287,0.0360747,0.0289846,0.0532569,-0.0128193,1.03568,0.0404604,0.0149461,706,708,-154.712,1.44326
-511,316,-155.374,-4.49817,0.00134355,0.0334222,0.0262384,0.0481353,-0.0133696,1.05974,0.037353,0.0142536,713,708,-155.374,4.49819
-504,316,-156.114,-7.68152,-0.00210917,0.0311311,0.0236869,0.0434471,-0.0144251,1.09132,0.0347848,0.0215469,720,708,-156.114,7.6815
-497,316,-156.887,-10.7272,-0.00596978,0.0293857,0.0213435,0.0394216,-0.0160057,1.13126,0.0329391,0.0259141,727,708,-156.887,10.7272
-490,316,-157.813,-13.7954,0,0,0,0,0,0,0,-1,734,708,-157.813,13.7954
-483,316,-156.758,-16.9646,0,0,0,0,0,0,0,-1,741,708,-156.758,16.9646
-476,316,-8.90894,-3.31207,0,0,0,0,0,0,0,-1,748,708,-8.90896,3.31206
-469,316,-6.24194,-1.42725,0,0,0,0,0,0,0,-1,755,708,-6.24192,1.42725
-462,316,-5.74237,-1.40039,0,0,0,0,0,0,0,-1,762,708,-5.74238,1.40039
-455,316,-5.44745,-1.21899,0,0,0,0,0,0,0,-1,769,708,-5.44746,1.21898
-448,316,-14.8945,0.655396,0,0,0,0,0,0,0,-1,776,708,-14.8946,-0.655396
-441,316,-14.9626,0.576111,0,0,0,0,0,0,0,-1,783,708,-14.9626,-0.576115
-434,316,-27.7723,1.15576,0,0,0,0,0,0,0,-1,790,708,-27.7723,-1.15579
-427,316,-28.0504,1.31427,0,0,0,0,0,0,0,-1,797,708,-28.0504,-1.31427
-420,316,-28.198,1.62891,0,0,0,0,0,0,0,-1,804,708,-28.198,-1.62889
-413,316,0,0,0,0,0,0,0,0,0,-1,811,708,0,0
-406,316,0,0,0,0,0,0,0,0,0,-1,818,708,0,0
-399,316,0,0,0,0,0,0,0,0,0,-1,825,708,0,0
-392,316,0,0,0,0,0,0,0,0,0,-1,832,708,0,0
-385,316,0,0,0,0,0,0,0,0,0,-1,839,708,0,0
-378,316,0,0,0,0,0,0,0,0,0,-1,846,708,0,0
-371,316,0,0,0,0,0,0,0,0,0,-1,853,708,0,0
-364,316,0,0,0,0,0,0,0,0,0,-1,860,708,0,0
-357,316,0,0,0,0,0,0,0,0,0,-1,867,708,0,0
-350,316,0,0,0,0,0,0,0,0,0,-1,874,708,0,0
-343,316,0,0,0,0,0,0,0,0,0,-1,881,708,0,0
-336,316,0,0,0,0,0,0,0,0,0,-1,888,708,0,0
-329,316,0,0,0,0,0,0,0,0,0,-1,895,708,0,0
-322,316,0,0,0,0,0,0,0,0,0,-1,902,708,0,0
-315,316,0,0,0,0,0,0,0,0,0,-1,909,708,0,0
-308,316,0,0,0,0,0,0,0,0,0,-1,916,708,0,0
-301,316,0,0,0,0,0,0,0,0,0,-1,923,708,0,0
-294,316,0,0,0,0,0,0,0,0,0,-1,930,708,0,0
-287,316,0,0,0,0,0,0,0,0,0,-1,937,708,0,0
-280,316,0,0,0,0,0,0,0,0,0,-1,944,708,0,0
-273,316,0,0,0,0,0,0,0,0,0,-1,951,708,0,0
-266,316,0,0,0,0,0,0,0,0,0,-1,958,708,0,0
-259,316,0,0,0,0,0,0,0,0,0,-1,965,708,0,0
-252,316,0,0,0,0,0,0,0,0,0,-1,972,708,0,0
-245,316,0,0,0,0,0,0,0,0,0,-1,979,708,0,0
-238,316,0,0,0,0,0,0,0,0,0,-1,986,708,0,0
-231,316,0,0,0,0,0,0,0,0,0,-1,993,708,0,0
-224,316,0,0,0,0,0,0,0,0,0,-1,1000,708,0,0
-217,316,0,0,0,0,0,0,0,0,0,-1,1007,708,0,0
-210,316,0,0,0,0,0,0,0,0,0,-1,1014,708,0,0
-203,316,0,0,0,0,0,0,0,0,0,-1,1021,708,0,0
-196,316,0,0,0,0,0,0,0,0,0,-1,1028,708,0,0
-189,316,0,0,0,0,0,0,0,0,0,-1,1035,708,0,0
-182,316,0,0,0,0,0,0,0,0,0,-1,1042,708,0,0
-175,316,0,0,0,0,0,0,0,0,0,-1,1049,708,0,0
-168,316,0,0,0,0,0,0,0,0,0,-1,1056,708,0,0
-161,316,0,0,0,0,0,0,0,0,0,-1,1063,708,0,0
-154,316,0,0,0,0,0,0,0,0,0,-1,1070,708,0,0
-147,316,0,0,0,0,0,0,0,0,0,-1,1077,708,0,0
-140,316,0,0,0,0,0,0,0,0,0,-1,1084,708,0,0
-133,316,0,0,0,0,0,0,0,0,0,-1,1091,708,0,0
-126,316,0,0,0,0,0,0,0,0,0,-1,1098,708,0,0
-119,316,0,0,0,0,0,0,0,0,0,-1,1105,708,0,0
-112,316,0,0,0,0,0,0,0,0,0,-1,1112,708,0,0
-105,316,0,0,0,0,0,0,0,0,0,-1,1119,708,0,0
-98,316,0,0,0,0,0,0,0,0,0,-1,1126,708,0,0
-91,316,0,0,0,0,0,0,0,0,0,-1,1133,708,0,0
-84,316,0,0,0,0,0,0,0,0,0,-1,1140,708,0,0
-77,316,0,0,0,0,0,0,0,0,0,-1,1147,708,0,0
-70,316,0,0,0,0,0,0,0,0,0,-1,1154,708,0,0
-63,316,0,0,0,0,0,0,0,0,0,-1,1161,708,0,0
-56,316,0,0,0,0,0,0,0,0,0,-1,1168,708,0,0
-49,316,0,0,0,0,0,0,0,0,0,-1,1175,708,0,0
-42,316,0,0,0,0,0,0,0,0,0,-1,1182,708,0,0
-35,316,0,0,0,0,0,0,0,0,0,-1,1189,708,0,0
-28,316,0,0,0,0,0,0,0,0,0,-1,1196,708,0,0
-21,316,0,0,0,0,0,0,0,0,0,-1,1203,708,0,0
-14,316,0,0,0,0,0,0,0,0,0,-1,1210,708,0,0
-7,316,0,0,0,0,0,0,0,0,0,-1,1217,708,0,0
0,316,0,0,0,0,0,0,0,0,0,-1,1224,708,0,0
7,316,0,0,0,0,0,0,0,0,0,-1,1231,708,0,0
14,316,0,0,0,0,0,0,0,0,0,-1,1238,708,0,0
21,316,0,0,0,0,0,0,0,0,0,-1,1245,708,0,0
28,316,0,0,0,0,0,0,0,0,0,-1,1252,708,0,0
35,316,0,0,0,0,0,0,0,0,0,-1,1259,708,0,0
42,316,0,0,0,0,0,0,0,0,0,-1,1266,708,0,0
49,316,0,0,0,0,0,0,0,0,0,-1,1273,708,0,0
56,316,0,0,0,0,0,0,0,0,0,-1,1280,708,0,0
63,316,0,0,0,0,0,0,0,0,0,-1,1287,708,0,0
70,316,0,0,0,0,0,0,0,0,0,-1,1294,708,0,0
77,316,0,0,0,0,0,0,0,0,0,-1,1301,708,0,0
84,316,0,0,0,0,0,0,0,0,0,-1,1308,708,0,0
91,316,0,0,0,0,0,0,0,0,0,-1,1315,708,0,0
98,316,0,0,0,0,0,0,0,0,0,-1,1322,708,0,0
105,316,0,0,0,0,0,0,0,0,0,-1,1329,708,0,0
112,316,0,0,0,0,0,0,0,0,0,-1,1336,708,0,0
119,316,0,0,0,0,0,0,0,0,0,-1,1343,708,0,0
126,316,0,0,0,0,0,0,0,0,0,-1,1350,708,0,0
133,316,0,0,0,0,0,0,0,0,0,-1,1357,708,0,0
140,316,0,0,0,0,0,0,0,0,0,-1,1364,708,0,0
147,316,0,0,0,0,0,0,0,0,0,-1,1371,708,0,0
154,316,0,0,0,0,0,0,0,0,0,-1,1378,708,0,0
161,316,0,0,0,0,0,0,0,0,0,-1,1385,708,0,0
168,316,0,0,0,0,0,0,0,0,0,-1,1392,708,0,0
175,316,0,0,0,0,0,0,0,0,0,-1,1399,708,0,0
182,316,0,0,0,0,0,0,0,0,0,-1,1406,708,0,0
189,316,0,0,0,0,0,0,0,0,0,-1,1413,708,0,0
196,316,0,0,0,0,0,0,0,0,0,-1,1420,708,0,0
203,316,0,0,0,0,0,0,0,0,0,-1,1427,708,0,0
210,316,0,0,0,0,0,0,0,0,0,-1,1434,708,0,0
217,316,0,0,0,0,0,0,0,0,0,-1,1441,708,0,0
224,316,0,0,0,0,0,0,0,0,0,-1,1448,708,0,0
231,316,0,0,0,0,0,0,0,0,0,-1,1455,708,0,0
238,316,0,0,0,0,0,0,0,0,0,-1,1462,708,0,0
245,316,0,0,0,0,0,0,0,0,0,-1,1469,708,0,0
252,316,0,0,0,0,0,0,0,0,0,-1,1476,708,0,0
259,316,0,0,0,0,0,0,0,0,0,-1,1483,708,0,0
266,316,0,0,0,0,0,0,0,0,0,-1,1490,708,0,0
273,316,0,0,0,0,0,0,0,0,0,-1,1497,708,0,0
280,316,0,0,0,0,0,0,0,0,0,-1,1504,708,0,0
287,316,0,0,0,0,0,0,0,0,0,-1,1511,708,0,0
294,316,0,0,0,0,0,0,0,0,0,-1,1518,708,0,0
301,316,0,0,0,0,0,0,0,0,0,-1,1525,708,0,0
308,316,0,0,0,0,0,0,0,0,0,-1,1532,708,0,0
315,316,0,0,0,0,0,0,0,0,0,-1,1539,708,0,0
322,316,0,0,0,0,0,0,0,0,0,-1,1546,708,0,0
329,316,0,0,0,0,0,0,0,0,0,-1,1553,708,0,0
336,316,0,0,0,0,0,0,0,0,0,-1,1560,708,0,0
343,316,0,0,0,0,0,0,0,0,0,-1,1567,708,0,0
350,316,0,0,0,0,0,0,0,0,0,-1,1574,708,0,0
357,316,0,0,0,0,0,0,0,0,0,-1,1581,708,0,0
364,316,0,0,0,0,0,0,0,0,0,-1,1588,708,0,0
371,316,0,0,0,0,0,0,0,0,0,-1,1595,708,0,0
378,316,0,0,0,0,0,0,0,0,0,-1,1602,708,0,0
385,316,0,0,0,0,0,0,0,0,0,-1,1609,708,0,0
392,316,0,0,0,0,0,0,0,0,0,-1,1616,708,0,0
399,316,0,0,0,0,0,0,0,0,0,-1,1623,708,0,0
406,316,0,0,0,0,0,0,0,0,0,-1,1630,708,0,0
413,316,0,0,0,0,0,0,0,0,0,-1,1637,708,0,0
420,316,0,0,0,0,0,0,0,0,0,-1,1644,708,0,0
427,316,0,0,0,0,0,0,0,0,0,-1,1651,708,0,0
434,316,0,0,0,0,0,0,0,0,0,-1,1658,708,0,0
441,316,0,0,0,0,0,0,0,0,0,-1,1665,708,0,0
448,316,0,0,0,0,0,0,0,0,0,-1,1672,708,0,0
455,316,0,0,0,0,0,0,0,0,0,-1,1679,708,0,0
462,316,0,0,0,0,0,0,0,0,0,-1,1686,708,0,0
469,316,0,0,0,0,0,0,0,0,0,-1,1693,708,0,0
476,316,0,0,0,0,0,0,0,0,0,-1,1700,708,0,0
483,316,0,0,0,0,0,0,0,0,0,-1,1707,708,0,0
490,316,0,0,0,0,0,0,0,0,0,-1,1714,708,0,0
497,316,0,0,0,0,0,0,0,0,0,-1,1721,708,0,0
504,316,0,0,0,0,0,0,0,0,0,-1,1728,708,0,0
511,316,0,0,0,0,0,0,0,0,0,-1,1735,708,0,0
518,316,0,0,0,0,0,0,0,0,0,-1,1742,708,0,0
525,316,0,0,0,0,0,0,0,0,0,-1,1749,708,0,0
532,316,33.8604,0.531128,0,0,0,0,0,0,0,-1,1756,708,33.8604,-0.531151
539,316,44.4543,2.73468,0,0,0,0,0,0,0,-1,1763,708,44.4543,-2.7347
546,316,44.713,3.35498,0,0,0,0,0,0,0,-1,1770,708,44.7131,-3.35501
553,316,39.9031,6.57275,0,0,0,0,0,0,0,-1,1777,708,39.9031,-6.57274
560,316,39.1196,1.10046,0,0,0,0,0,0,0,-1,1784,708,39.1197,-1.10048
567,316,47.3683,6.04919,0,0,0,0,0,0,0,-1,1791,708,47.3683,-6.04918
574,316,45.9872,6.7655,0,0,0,0,0,0,0,-1,1798,708,45.9871,-6.76552
581,316,24.6815,7.77496,0,0,0,0,0,0,0,-1,1805,708,24.6815,-7.77499
588,316,19.7659,2.90198,0,0,0,0,0,0,0,-1,1812,708,19.7659,-2.902
595,316,12.5363,1.50702,0,0,0,0,0,0,0,-1,1819,708,12.5363,-1.50701
602,316,7.79919,0.0422363,0,0,0,0,0,0,0,-1,1826,708,7.79923,-0.0422066
609,316,85.3544,-24.1375,0,0,0,0,0,0,0,-1,1833,708,85.3544,24.1375
616,316,167.19,-16.9582,0,0,0,0,0,0,0,-1,1840,708,167.19,16.9582
623,316,166.464,-13.7221,-0.00155961,0.0257093,-0.00863327,0.0282128,-0.00406305,-1.28856,0.0202989,0.0345139,1847,708,166.464,13.7221
630,316,165.768,-10.5057,-0.00125838,0.0266716,-0.0131793,0.0319085,-0.00649531,-1.19257,0.0237356,0.0229828,1854,708,165.768,10.5057
637,316,165.094,-7.34656,-0.000550208,0.0279006,-0.0175073,0.0362333,-0.00888291,-1.12657,0.0275972,0.0199831,1861,708,165.094,7.34656
644,316,164.475,-4.35614,0.000459674,0.0294305,-0.0216092,0.0409602,-0.01107,-1.08067,0.0316488,0.018732,1868,708,164.475,4.35611
651,316,163.816,-1.3562,0.00174168,0.0312631,-0.0254835,0.0459521,-0.0129474,-1.0479,0.035741,0.0227266,1875,708,163.816,1.35621
658,316,163.169,1.61334,0,0,0,0,0,0,0,-1,1882,708,163.169,-1.61334
665,316,162.574,4.52637,0.00485206,0.0359444,-0.0326312,0.0565435,-0.015747,-1.0077,0.0438965,0.0299371,1889,708,162.575,-4.52638
672,316,162.025,7.23865,0.00670413,0.0388497,-0.0357831,0.062004,-0.0164501,-0.996481,0.047773,0.021052,1896,708,162.025,-7.23862
679,316,161.413,10.2172,0,0,0,0,0,0,0,-1,1903,708,161.413,-10.2172
686,316,34.0828,0.223206,0,0,0,0,0,0,0,-1,1910,708,34.0828,-0.223183
693,316,26.4315,1.80652,0,0,0,0,0,0,0,-1,1917,708,26.4315,-1.80651
700,316,12.8749,2.89136,0,0,0,0,0,0,0,-1,1924,708,12.8748,-2.89137
707,316,15.7089,5.41486,0,0,0,0,0,0,0,-1,1931,708,15.7088,-5.41487
714,316,16.1727,5.52045,0,0,0,0,0,0,0,-1,1938,708,16.1728,-5.52042
721,316,16.7094,6.53351,0,0,0,0,0,0,0,-1,1945,708,16.7094,-6.5335
728,316,0,0,0,0,0,0,0,0,0,-1,1952,708,0,0
735,316,0,0,0,0,0,0,0,0,0,-1,1959,708,0,0
742,316,0,0,0,0,0,0,0,0,0,-1,1966,708,0,0
749,316,0,0,0,0,0,0,0,0,0,-1,1973,708,0,0
756,316,0,0,0,0,0,0,0,0,0,-1,1980,708,0,0
763,316,0,0,0,0,0,0,0,0,0,-1,1987,708,0,0
770,316,0,0,0,0,0,0,0,0,0,-1,1994,708,0,0
777,316,0,0,0,0,0,0,0,0,0,-1,2001,708,0,0
784,316,0,0,0,0,0,0,0,0,0,-1,2008,708,0,0
791,316,0,0,0,0,0,0,0,0,0,-1,2015,708,0,0
798,316,0,0,0,0,0,0,0,0,0,-1,2022,708,0,0
805,316,0,0,0,0,0,0,0,0,0,-1,2029,708,0,0
812,316,0,0,0,0,0,0,0,0,0,-1,2036,708,0,0
-700,309,0,0,0,0,0,0,0,0,0,-1,524,715,0,0
-693,309,0,0,0,0,0,0,0,0,0,-1,531,715,0,0
-686,309,0,0,0,0,0,0,0,0,0,-1,538,715,0,0
-679,309,0,0,0,0,0,0,0,0,0,-1,545,715,0,0
-672,309,0,0,0,0,0,0,0,0,0,-1,552,715,0,0
-665,309,0,0,0,0,0,0,0,0,0,-1,559,715,0,0
-658,309,0,0,0,0,0,0,0,0,0,-1,566,715,0,0
-651,309,0,0,0,0,0,0,0,0,0,-1,573,715,0,0
-644,309,0,0,0,0,0,0,0,0,0,-1,580,715,0,0
-637,309,0,0,0,0,0,0,0,0,0,-1,587,715,0,0
-630,309,0,0,0,0,0,0,0,0,0,-1,594,715,0,0
-623,309,0,0,0,0,0,0,0,0,0,-1,601,715,0,0
-616,309,0,0,0,0,0,0,0,0,0,-1,608,715,0,0
-609,309,-5.95392,-3.93689,0,0,0,0,0,0,0,-1,615,715,-5.95392,3.93686
-602,309,-4.99786,-3.31287,0,0,0,0,0,0,0,-1,622,715,-4.99786,3.31284
-595,309,-6.80847,2.4046,0,0,0,0,0,0,0,-1,629,715,-6.80845,-2.40458
-588,309,-6.08795,2.19324,0,0,0,0,0,0,0,-1,636,715,-6.08793,-2.19325
-581,309,-5.97552,1.3277,0,0,0,0,0,0,0,-1,643,715,-5.97552,-1.32769
-574,309,-8.73602,0.208435,0,0,0,0,0,0,0,-1,650,715,-8.73604,-0.208437
-567,309,-10.3909,0.85968,0,0,0,0,0,0,0,-1,657,715,-10.3909,-0.859696
-560,309,-18.6088,-1.73389,0,0,0,0,0,0,0,-1,664,715,-18.6088,1.73389
-553,309,-155.572,13.6305,0,0,0,0,0,0,0,-1,671,715,-155.572,-13.6305
-546,309,-155.936,10.7823,0.0100646,0.0472752,0.0390103,0.0718899,-0.01455,1.00791,0.0534409,0.0417018,678,715,-155.936,-10.7823
-539,309,-156.407,7.91205,0.00853065,0.043885,0.0353898,0.065767,-0.0133513,1.01702,0.0489064,0.0255862,685,715,-156.407,-7.91207
-532,309,-157.006,4.93079,0.00662305,0.040471,0.0320224,0.0597666,-0.0126725,1.02849,0.0446718,0.017966,692,715,-157.006,-4.93081
-525,309,-157.63,2.01123,0.00425533,0.037351,0.0288223,0.0540381,-0.0124317,1.04599,0.0408055,0.0204428,699,715,-157.63,-2.01121
-518,309,-158.251,-0.892578,0.00145446,0.0345375,0.0258115,0.048653,-0.0126611,1.07036,0.0373775,0.0223597,706,715,-158.251,0.892557
-511,309,-158.876,-3.76178,-0.00175358,0.0320212,0.0230021,0.0436694,-0.0134018,1.10204,0.0344601,0.018531,713,715,-158.876,3.7618
-504,309,-159.551,-7.03662,-0.00539549,0.0299799,0.0203561,0.0392593,-0.0146749,1.14308,0.0321992,0.0237415,720,715,-159.551,7.03663
-497,309,-160.411,-10.1835,-0.00955001,0.0286557,0.01785,0.0356975,-0.0165918,1.19504,0.0308536,0.0432841,727,715,-160.411,10.1835
-490,309,-161.643,-13.3935,0,0,0,0,0,0,0,-1,734,715,-161.643,13.3935
-483,309,-150.35,-16.889,0,0,0,0,0,0,0,-1,741,715,-150.35,16.889
-476,309,-5.29486,-1.2262,0,0,0,0,0,0,0,-1,748,715,-5.29484,1.22622
-469,309,-4.22717,-0.592896,0,0,0,0,0,0,0,-1,755,715,-4.2272,0.592905
-462,309,-10.428,2.46948,0,0,0,0,0,0,0,-1,762,715,-10.428,-2.46947
-455,309,-15.8216,0.00915527,0,0,0,0,0,0,0,-1,769,715,-15.8216,-0.00913359
-448,309,-37.3543,-1.02441,0,0,0,0,0,0,0,-1,776,715,-37.3543,1.02444
-441,309,-19.8181,1.4425,0,0,0,0,0,0,0,-1,783,715,-19.8181,-1.44249
-434,309,-46.7953,1.72064,0,0,0,0,0,0,0,-1,790,715,-46.7953,-1.72067
-427,309,-27.8553,1.40332,0,0,0,0,0,0,0,-1,797,715,-27.8553,-1.40334
-420,309,-27.3148,1.90747,0,0,0,0,0,0,0,-1,804,715,-27.3148,-1.90745
-413,309,0,0,0,0,0,0,0,0,0,-1,811,715,0,0
-406,309,0,0,0,0,0,0,0,0,0,-1,818,715,0,0
-399,309,0,0,0,0,0,0,0,0,0,-1,825,715,0,0
-392,309,0,0,0,0,0,0,0,0,0,-1,832,715,0,0
-385,309,0,0,0,0,0,0,0,0,0,-1,839,715,0,0
-378,309,0,0,0,0,0,0,0,0,0,-1,846,715,0,0
-371,309,0,0,0,0,0,0,0,0,0,-1,853,715,0,0
-364,309,0,0,0,0,0,0,0,0,0,-1,860,715,0,0
-357,309,0,0,0,0,0,0,0,0,0,-1,867,715,0,0
-350,309,0,0,0,0,0,0,0,0,0,-1,874,715,0,0
-343,309,0,0,0,0,0,0,0,0,0,-1,881,715,0,0
-336,309,0,0,0,0,0,0,0,0,0,-1,888,715,0,0
-329,309,0,0,0,0,0,0,0,0,0,-1,895,715,0,0
-322,309,0,0,0,0,0,0,0,0,0,-1,902,715,0,0
-315,309,0,0,0,0,0,0,0,0,0,-1,909,715,0,0
-308,309,0,0,0,0,0,0,0,0,0,-1,916,715,0,0
-301,309,0,0,0,0,0,0,0,0,0,-1,923,715,0,0
-294,309,0,0,0,0,0,0,0,0,0,-1,930,715,0,0
-287,309,0,0,0,0,0,0,0,0,0,-1,937,715,0,0
-280,309,0,0,0,0,0,0,0,0,0,-1,944,715,0,0
-273,309,0,0,0,0,0,0,0,0,0,-1,951,715,0,0
-266,309,0,0,0,0,0,0,0,0,0,-1,958,715,0,0
-259,309,0,0,0,0,0,0,0,0,0,-1,965,715,0,0
-252,309,0,0,0,0,0,0,0,0,0,-1,972,715,0,0
-245,309,0,0,0,0,0,0,0,0,0,-1,979,715,0,0
-238,309,0,0,0,0,0,0,0,0,0,-1,986,715,0,0
-231,309,0,0,0,0,0,0,0,0,0,-1,993,715,0,0
-224,309,0,0,0,0,0,0,0,0,0,-1,1000,715,0,0
-217,309,0,0,0,0,0,0,0,0,0,-1,1007,715,0,0
-210,309,0,0,0,0,0,0,0,0,0,-1,1014,715,0,0
-203,309,0,0,0,0,0,0,0,0,0,-1,1021,715,0,0
-196,309,0,0,0,0,0,0,0,0,0,-1,1028,715,0,0
-189,309,0,0,0,0,0,0,0,0,0,-1,1035,715,0,0
-182,309,0,0,0,0,0,0,0,0,0,-1,1042,715,0,0
-175,309,0,0,0,0,0,0,0,0,0,-1,1049,715,0,0
-168,309,0,0,0,0,0,0,0,0,0,-1,1056,715,0,0
-161,309,0,0,0,0,0,0,0,0,0,-1,1063,715,0,0
-154,309,0,0,0,0,0,0,0,0,0,-1,1070,715,0,0
-147,309,0,0,0,0,0,0,0,0,0,-1,1077,715,0,0
-140,309,0,0,0,0,0,0,0,0,0,-1,1084,715,0,0
-133,309,0,0,0,0,0,0,0,0,0,-1,1091,715,0,0
-126,309,0,0,0,0,0,0,0,0,0,-1,1098,715,0,0
-119,309,0,0,0,0,0,0,0,0,0,-1,1105,715,0,0
-112,309,0,0,0,0,0,0,0,0,0,-1,1112,715,0,0
-105,309,0,0,0,0,0,0,0,0,0,-1,1119,715,0,0
-98,309,0,0,0,0,0,0,0,0,0,-1,1126,715,0,0
-91,309,0,0,0,0,0,0,0,0,0,-1,1133,715,0,0
-84,309,0,0,0,0,0,0,0,0,0,-1,1140,715,0,0
-77,309,0,0,0,0,0,0,0,0,0,-1,1147,715,0,0
-70,309,0,0,0,0,0,0,0,0,0,-1,1154,715,0,0
-63,309,0,0,0,0,0,0,0,0,0,-1,1161,715,0,0
-56,309,0,0,0,0,0,0,0,0,0,-1,1168,715,0,0
-49,309,0,0,0,0,0,0,0,0,0,-1,1175,715,0,0
-42,309,0,0,0,0,0,0,0,0,0,-1,1182,715,0,0
-35,309,0,0,0,0,0,0,0,0,0,-1,1189,715,0,0
-28,309,0,0,0,0,0,0,0,0,0,-1,1196,715,0,0
-21,309,0,0,0,0,0,0,0,0,0,-1,1203,715,0,0
-14,309,0,0,0,0,0,0,0,0,0,-1,1210,715,0,0
-7,309,0,0,0,0,0,0,0,0,0,-1,1217,715,0,0
0,309,0,0,0,0,0,0,0,0,0,-1,1224,715,0,0
7,309,0,0,0,0,0,0,0,0,0,-1,1231,715,0,0
14,309,0,0,0,0,0,0,0,0,0,-1,1238,715,0,0
21,309,0,0,0,0,0,0,0,0,0,-1,1245,715,0,0
28,309,0,0,0,0,0,0,0,0,0,-1,1252,715,0,0
35,309,0,0,0,0,0,0,0,0,0,-1,1259,715,0,0
42,309,0,0,0,0,0,0,0,0,0,-1,1266,715,0,0
49,309,0,0,0,0,0,0,0,0,0,-1,1273,715,0,0
56,309,0,0,0,0,0,0,0,0,0,-1,1280,715,0,0
63,309,0,0,0,0,0,0,0,0,0,-1,1287,715,0,0
70,309,0,0,0,0,0,0,0,0,0,-1,1294,715,0,0
77,309,0,0,0,0,0,0,0,0,0,-1,1301,715,0,0
84,309,0,0,0,0,0,0,0,0,0,-1,1308,715,0,0
91,309,0,0,0,0,0,0,0,0,0,-1,1315,715,0,0
98,309,0,0,0,0,0,0,0,0,0,-1,1322,715,0,0
105,309,0,0,0,0,0,0,0,0,0,-1,1329,715,0,0
112,309,0,0,0,0,0,0,0,0,0,-1,1336,715,0,0
119,309,0,0,0,0,0,0,0,0,0,-1,1343,715,0,0
126,309,0,0,0,0,0,0,0,0,0,-1,1350,715,0,0
133,309,0,0,0,0,0,0,0,0,0,-1,1357,715,0,0
140,309,0,0,0,0,0,0,0,0,0,-1,1364,715,0,0
147,309,0,0,0,0,0,0,0,0,0,-1,1371,715,0,0
154,309,0,0,0,0,0,0,0,0,0,-1,1378,715,0,0
161,309,0,0,0,0,0,0,0,0,0,-1,1385,715,0,0
168,309,0,0,0,0,0,0,0,0,0,-1,1392,715,0,0
175,309,0,0,0,0,0,0,0,0,0,-1,1399,715,0,0
182,309,0,0,0,0,0,0,0,0,0,-1,1406,715,0,0
189,309,0,0,0,0,0,0,0,0,0,-1,1413,715,0,0
196,309,0,0,0,0,0,0,0,0,0,-1,1420,715,0,0
203,309,0,0,0,0,0,0,0,0,0,-1,1427,715,0,0
210,309,0,0,0,0,0,0,0,0,0,-1,1434,715,0,0
217,309,0,0,0,0,0,0,0,0,0,-1,1441,715,0,0
224,309,0,0,0,0,0,0,0,0,0,-1,1448,715,0,0
231,309,0,0,0,0,0,0,0,0,0,-1,1455,715,0,0
238,309,0,0,0,0,0,0,0,0,0,-1,1462,715,0,0
245,309,0,0,0,0,0,0,0,0,0,-1,1469,715,0,0
252,309,0,0,0,0,0,0,0,0,0,-1,1476,715,0,0
259,309,0,0,0,0,0,0,0,0,0,-1,1483,715,0,0
266,309,0,0,0,0,0,0,0,0,0,-1,1490,715,0,0
273,309,0,0,0,0,0,0,0,0,0,-1,1497,715,0,0
280,309,0,0,0,0,0,0,0,0,0,-1,1504,715,0,0
287,309,0,0,0,0,0,0,0,0,0,-1,1511,715,0,0
294,309,0,0,0,0,0,0,0,0,0,-1,1518,715,0,0
301,309,0,0,0,0,0,0,0,0,0,-1,1525,715,0,0
308,309,0,0,0,0,0,0,0,0,0,-1,1532,715,0,0
315,309,0,0,0,0,0,0,0,0,0,-1,1539,715,0,0
322,309,0,0,0,0,0,0,0,0,0,-1,1546,715,0,0
329,309,0,0,0,0,0,0,0,0,0,-1,1553,715,0,0
336,309,0,0,0,0,0,0,0,0,0,-1,1560,715,0,0
343,309,0,0,0,0,0,0,0,0,0,-1,1567,715,0,0
350,309,0,0,0,0,0,0,0,0,0,-1,1574,715,0,0
357,309,0,0,0,0,0,0,0,0,0,-1,1581,715,0,0
364,309,0,0,0,0,0,0,0,0,0,-1,1588,715,0,0
371,309,0,0,0,0,0,0,0,0,0,-1,1595,715,0,0
378,309,0,0,0,0,0,0,0,0,0,-1,1602,715,0,0
385,309,0,0,0,0,0,0,0,0,0,-1,1609,715,0,0
392,309,0,0,0,0,0,0,0,0,0,-1,1616,715,0,0
399,309,0,0,0,0,0,0,0,0,0,-1,1623,715,0,0
406,309,0,0,0,0,0,0,0,0,0,-1,1630,715,0,0
413,309,0,0,0,0,0,0,0,0,0,-1,1637,715,0,0
420,309,0,0,0,0,0,0,0,0,0,-1,1644,715,0,0
427,309,0,0,0,0,0,0,0,0,0,-1,1651,715,0,0
434,309,0,0,0,0,0,0,0,0,0,-1,1658,715,0,0
441,309,0,0,0,0,0,0,0,0,0,-1,1665,715,0,0
448,309,0,0,0,0,0,0,0,0,0,-1,1672,715,0,0
455,309,0,0,0,0,0,0,0,0,0,-1,1679,715,0,0
462,309,0,0,0,0,0,0,0,0,0,-1,1686,715,0,0
469,309,0,0,0,0,0,0,0,0,0,-1,1693,715,0,0
476,309,0,0,0,0,0,0,0,0,0,-1,1700,715,0,0
483,309,0,0,0,0,0,0,0,0,0,-1,1707,715,0,0
490,309,0,0,0,0,0,0,0,0,0,-1,1714,715,0,0
497,309,0,0,0,0,0,0,0,0,0,-1,1721,715,0,0
504,309,0,0,0,0,0,0,0,0,0,-1,1728,715,0,0
511,309,0,0,0,0,0,0,0,0,0,-1,1735,715,0,0
518,309,0,0,0,0,0,0,0,0,0,-1,1742,715,0,0
525,309,0,0,0,0,0,0,0,0,0,-1,1749,715,0,0
532,309,0,0,0,0,0,0,0,0,0,-1,1756,715,0,0
539,309,44.2073,2.66235,0,0,0,0,0,0,0,-1,1763,715,44.2073,-2.66238
546,309,44.4976,3.25531,0,0,0,0,0,0,0,-1,1770,715,44.4976,-3.25533
553,309,47.9611,4.06433,0,0,0,0,0,0,0,-1,1777,715,47.9611,-4.06434
560,309,47.9784,4.64801,0,0,0,0,0,0,0,-1,1784,715,47.9784,-4.64799
567,309,47.0073,5.43121,0,0,0,0,0,0,0,-1,1791,715,47.0073,-5.43121
574,309,45.8746,6.53271,0,0,0,0,0,0,0,-1,1798,715,45.8747,-6.53269
581,309,45.0629,7.73468,0,0,0,0,0,0,0,-1,1805,715,45.0629,-7.73471
588,309,26.2064,7.76422,0,0,0,0,0,0,0,-1,1812,715,26.2064,-7.7642
595,309,19.585,3.71558,0,0,0,0,0,0,0,-1,1819,715,19.5849,-3.71555
602,309,11.0811,3.47772,0,0,0,0,0,0,0,-1,1826,715,11.0811,-3.47772
609,309,56.9344,-15.415,0,0,0,0,0,0,0,-1,1833,715,56.9345,15.415
616,309,93.344,-22.6922,0,0,0,0,0,0,0,-1,1840,715,93.344,22.6922
623,309,170.355,-13.329,0,0,0,0,0,0,0,-1,1847,715,170.355,13.329
630,309,169.389,-9.98236,-0.00293484,0.0264157,-0.00902583,0.0289692,-0.0054883,-1.2951,0.0213784,0.0386253,1854,715,169.389,9.98234
637,309,168.425,-6.6814,-0.00216707,0.0272355,-0.0135723,0.0325426,-0.00747419,-1.19805,0.0245684,0.0299126,1861,715,168.425,6.6814
644,309,167.604,-3.71124,-0.00112455,0.028491,-0.0178564,0.0368807,-0.00951425,-1.13157,0.0282968,0.0248265,1868,715,167.604,3.71122
651,309,166.936,-0.797058,0.000170601,0.0302045,-0.0218818,0.0417266,-0.0113515,-1.08613,0.032274,0.0238942,1875,715,166.936,0.797063
658,309,166.401,2.14673,0.00168564,0.0323266,-0.0256741,0.0469039,-0.0128916,-1.0544,0.0363369,0.0386706,1882,715,166.401,-2.14672
665,309,165.766,5.01196,0.00330312,0.0349134,-0.029243,0.0523491,-0.0141326,-1.03315,0.040442,0.0314173,1889,715,165.766,-5.01196
672,309,165.176,7.82446,0.00508478,0.0380171,-0.0325304,0.0580113,-0.0149095,-1.01969,0.0444849,0.0215139,1896,715,165.176,-7.82445
679,309,164.617,10.6649,0.00711524,0.0417887,-0.035424,0.0638909,-0.0149869,-1.01297,0.0483698,0.0394807,1903,715,164.617,-10.6649
686,309,164.224,13.3989,0,0,0,0,0,0,0,-1,1910,715,164.224,-13.3988
693,309,32.7026,1.51727,0,0,0,0,0,0,0,-1,1917,715,32.7026,-1.51727
700,309,23.0179,3.08337,0,0,0,0,0,0,0,-1,1924,715,23.018,-3.08336
707,309,15.6318,4.58655,0,0,0,0,0,0,0,-1,1931,715,15.6318,-4.58657
714,309,16.7573,6.68286,0,0,0,0,0,0,0,-1,1938,715,16.7574,-6.68284
721,309,16.8337,5.4458,0,0,0,0,0,0,0,-1,1945,715,16.8338,-5.44582
728,309,0,0,0,0,0,0,0,0,0,-1,1952,715,0,0
735,309,0,0,0,0,0,0,0,0,0,-1,1959,715,0,0
742,309,0,0,0,0,0,0,0,0,0,-1,1966,715,0,0
749,309,0,0,0,0,0,0,0,0,0,-1,1973,715,0,0
756,309,0,0,0,0,0,0,0,0,0,-1,1980,715,0,0
763,309,0,0,0,0,0,0,0,0,0,-1,1987,715,0,0
770,309,0,0,0,0,0,0,0,0,0,-1,1994,715,0,0
777,309,0,0,0,0,0,0,0,0,0,-1,2001,715,0,0
784,309,0,0,0,0,0,0,0,0,0,-1,2008,715,0,0
791,309,0,0,0,0,0,0,0,0,0,-1,2015,715,0,0
798,309,0,0,0,0,0,0,0,0,0,-1,2022,715,0,0
805,309,0,0,0,0,0,0,0,0,0,-1,2029,715,0,0
812,309,0,0,0,0,0,0,0,0,0,-1,2036,715,0,0
-700,302,0,0,0,0,0,0,0,0,0,-1,524,722,0,0
-693,302,0,0,0,0,0,0,0,0,0,-1,531,722,0,0
-686,302,0,0,0,0,0,0,0,0,0,-1,538,722,0,0
-679,302,0,0,0,0,0,0,0,0,0,-1,545,722,0,0
-672,302,0,0,0,0,0,0,0,0,0,-1,552,722,0,0
-665,302,0,0,0,0,0,0,0,0,0,-1,559,722,0,0
-658,302,0,0,0,0,0,0,0,0,0,-1,566,722,0,0
-651,302,0,0,0,0,0,0,0,0,0,-1,573,722,0,0
-644,302,0,0,0,0,0,0,0,0,0,-1,580,722,0,0
-637,302,0,0,0,0,0,0,0,0,0,-1,587,722,0,0
-630,302,0,0,0,0,0,0,0,0,0,-1,594,722,0,0
-623,302,0,0,0,0,0,0,0,0,0,-1,601,722,0,0
-616,302,0,0,0,0,0,0,0,0,0,-1,608,722,0,0
-609,302,-7.79266,-3.71649,0,0,0,0,0,0,0,-1,615,722,-7.79267,3.7165
-602,302,0.92865,-1.99158,0,0,0,0,0,0,0,-1,622,722,0.928637,1.99157
-595,302,-7.89941,2.13641,0,0,0,0,0,0,0,-1,629,722,-7.89939,-2.13639
-588,302,-7.10895,1.79163,0,0,0,0,0,0,0,-1,636,722,-7.10896,-1.79163
-581,302,-9.17566,1.09448,0,0,0,0,0,0,0,-1,643,722,-9.17569,-1.09445
-574,302,-11.5183,-0.344543,0,0,0,0,0,0,0,-1,650,722,-11.5183,0.344557
-567,302,-12.1534,-0.672241,0,0,0,0,0,0,0,-1,657,722,-12.1535,0.672246
-560,302,-158.478,16.7107,0,0,0,0,0,0,0,-1,664,722,-158.478,-16.7107
-553,302,-158.746,13.9022,0.00769242,0.049549,0.0397845,0.0735739,-0.0163326,1.02753,0.0553033,0.0462838,671,722,-158.746,-13.9022
-546,302,-159.184,11.1984,0.0073172,0.0455699,0.035791,0.0670245,-0.0141374,1.03079,0.0500653,0.0292645,678,722,-159.184,-11.1984
-539,302,-159.763,8.45819,0.00592218,0.042057,0.0321866,0.0609004,-0.0129212,1.04115,0.0455227,0.0280269,685,722,-159.762,-8.45818
-532,302,-160.359,5.48547,0.00406131,0.0386278,0.0287934,0.0549268,-0.0122377,1.0557,0.0413059,0.0236055,692,722,-160.359,-5.48549
-525,302,-161.042,2.49274,0.001703,0.0355178,0.0255629,0.0492588,-0.012038,1.07757,0.0375015,0.0272231,699,722,-161.042,-2.49276
-518,302,-161.664,-0.326843,-0.00112062,0.0327098,0.0225077,0.0439499,-0.0123607,1.10764,0.0341736,0.0331541,706,722,-161.664,0.326835
-511,302,-162.303,-3.1449,-0.00442607,0.0302906,0.0195845,0.0391022,-0.0132376,1.148,0.0314243,0.0202047,713,722,-162.303,3.14491
-504,302,-162.996,-6.2818,-0.00824146,0.0283523,0.0168917,0.0349573,-0.0148465,1.19805,0.0295253,0.028468,720,722,-162.996,6.28183
-497,302,-164.224,-9.45471,-0.0126827,0.0273651,0.0142339,0.0319087,-0.0172262,1.26181,0.0287871,0.0420414,727,722,-164.224,9.45472
-490,302,-165.592,-12.6378,0,0,0,0,0,0,0,-1,734,722,-165.592,12.6378
-483,302,-9.53412,-3.1673,0,0,0,0,0,0,0,-1,741,722,-9.53411,3.1673
-476,302,-4.29749,-0.203491,0,0,0,0,0,0,0,-1,748,722,-4.29751,0.203464
-469,302,-12.369,1.42859,0,0,0,0,0,0,0,-1,755,722,-12.3689,-1.42857
-462,302,-17.4766,0.310791,0,0,0,0,0,0,0,-1,762,722,-17.4766,-0.310788
-455,302,-36.7368,-2.97418,0,0,0,0,0,0,0,-1,769,722,-36.7368,2.97416
-448,302,-42.1174,-1.44232,0,0,0,0,0,0,0,-1,776,722,-42.1174,1.44229
-441,302,-46.7637,0.580078,0,0,0,0,0,0,0,-1,783,722,-46.7636,-0.58007
-434,302,-46.574,1.30511,0,0,0,0,0,0,0,-1,790,722,-46.574,-1.30509
-427,302,-46.7514,1.51532,0,0,0,0,0,0,0,-1,797,722,-46.7514,-1.51532
-420,302,0,0,0,0,0,0,0,0,0,-1,804,722,0,0
-413,302,0,0,0,0,0,0,0,0,0,-1,811,722,0,0
-406,302,0,0,0,0,0,0,0,0,0,-1,818,722,0,0
-399,302,0,0,0,0,0,0,0,0,0,-1,825,722,0,0
-392,302,0,0,0,0,0,0,0,0,0,-1,832,722,0,0
-385,302,0,0,0,0,0,0,0,0,0,-1,839,722,0,0
-378,302,0,0,0,0,0,0,0,0,0,-1,846,722,0,0
-371,302,0,0,0,0,0,0,0,0,0,-1,853,722,0,0
-364,302,0,0,0,0,0,0,0,0,0,-1,860,722,0,0
-357,302,0,0,0,0,0,0,0,0,0,-1,867,722,0,0
-350,302,0,0,0,0,0,0,0,0,0,-1,874,722,0,0
-343,302,0,0,0,0,0,0,0,0,0,-1,881,722,0,0
-336,302,0,0,0,0,0,0,0,0,0,-1,888,722,0,0
-329,302,0,0,0,0,0,0,0,0,0,-1,895,722,0,0
-322,302,0,0,0,0,0,0,0,0,0,-1,902,722,0,0
-315,302,0,0,0,0,0,0,0,0,0,-1,909,722,0,0
-308,302,0,0,0,0,0,0,0,0,0,-1,916,722,0,0
-301,302,0,0,0,0,0,0,0,0,0,-1,923,722,0,0
-294,302,0,0,0,0,0,0,0,0,0,-1,930,722,0,0
-287,302,0,0,0,0,0,0,0,0,0,-1,937,722,0,0
-280,302,0,0,0,0,0,0,0,0,0,-1,944,722,0,0
-273,302,0,0,0,0,0,0,0,0,0,-1,951,722,0,0
-266,302,0,0,0,0,0,0,0,0,0,-1,958,722,0,0
-259,302,0,0,0,0,0,0,0,0,0,-1,965,722,0,0
-252,302,0,0,0,0,0,0,0,0,0,-1,972,722,0,0
-245,302,0,0,0,0,0,0,0,0,0,-1,979,722,0,0
-238,302,0,0,0,0,0,0,0,0,0,-1,986,722,0,0
-231,302,0,0,0,0,0,0,0,0,0,-1,993,722,0,0
-224,302,0,0,0,0,0,0,0,0,0,-1,1000,722,0,0
-217,302,0,0,0,0,0,0,0,0,0,-1,1007,722,0,0
-210,302,0,0,0,0,0,0,0,0,0,-1,1014,722,0,0
-203,302,0,0,0,0,0,0,0,0,0,-1,1021,722,0,0
-196,302,0,0,0,0,0,0,0,0,0,-1,1028,722,0,0
-189,302,0,0,0,0,0,0,0,0,0,-1,1035,722,0,0
-182,302,0,0,0,0,0,0,0,0,0,-1,1042,722,0,0
-175,302,0,0,0,0,0,0,0,0,0,-1,1049,722,0,0
-168,302,0,0,0,0,0,0,0,0,0,-1,1056,722,0,0
-161,302,0,0,0,0,0,0,0,0,0,-1,1063,722,0,0
-154,302,0,0,0,0,0,0,0,0,0,-1,1070,722,0,0
-147,302,0,0,0,0,0,0,0,0,0,-1,1077,722,0,0
-140,302,0,0,0,0,0,0,0,0,0,-1,1084,722,0,0
-133,302,0,0,0,0,0,0,0,0,0,-1,1091,722,0,0
-126,302,0,0,0,0,0,0,0,0,0,-1,1098,722,0,0
-119,302,0,0,0,0,0,0,0,0,0,-1,1105,722,0,0
-112,302,0,0,0,0,0,0,0,0,0,-1,1112,722,0,0
-105,302,0,0,0,0,0,0,0,0,0,-1,1119,722,0,0
-98,302,0,0,0,0,0,0,0,0,0,-1,1126,722,0,0
-91,302,0,0,0,0,0,0,0,0,0,-1,1133,722,0,0
-84,302,0,0,0,0,0,0,0,0,0,-1,1140,722,0,0
-77,302,0,0,0,0,0,0,0,0,0,-1,1147,722,0,0
-70,302,0,0,0,0,0,0,0,0,0,-1,1154,722,0,0
-63,302,0,0,0,0,0,0,0,0,0,-1,1161,722,0,0
-56,302,0,0,0,0,0,0,0,0,0,-1,1168,722,0,0
-49,302,0,0,0,0,0,0,0,0,0,-1,1175,722,0,0
-42,302,0,0,0,0,0,0,0,0,0,-1,1182,722,0,0
-35,302,0,0,0,0,0,0,0,0,0,-1,1189,722,0,0
-28,302,0,0,0,0,0,0,0,0,0,-1,1196,722,0,0
-21,302,0,0,0,0,0,0,0,0,0,-1,1203,722,0,0
-14,302,0,0,0,0,0,0,0,0,0,-1,1210,722,0,0
-7,302,0,0,0,0,0,0,0,0,0,-1,1217,722,0,0
0,302,0,0,0,0,0,0,0,0,0,-1,1224,722,0,0
7,302,0,0,0,0,0,0,0,0,0,-1,1231,722,0,0
14,302,0,0,0,0,0,0,0,0,0,-1,1238,722,0,0
21,302,0,0,0,0,0,0,0,0,0,-1,1245,722,0,0
28,302,0,0,0,0,0,0,0,0,0,-1,1252,722,0,0
35,302,0,0,0,0,0,0,0,0,0,-1,1259,722,0,0
42,302,0,0,0,0,0,0,0,0,0,-1,1266,722,0,0
49,302,0,0,0,0,0,0,0,0,0,-1,1273,722,0,0
56,302,0,0,0,0,0,0,0,0,0,-1,1280,722,0,0
63,302,0,0,0,0,0,0,0,0,0,-1,1287,722,0,0
70,302,0,0,0,0,0,0,0,0,0,-1,1294,722,0,0
77,302,0,0,0,0,0,0,0,0,0,-1,1301,722,0,0
84,302,0,0,0,0,0,0,0,0,0,-1,1308,722,0,0
91,302,0,0,0,0,0,0,0,0,0,-1,1315,722,0,0
98,302,0,0,0,0,0,0,0,0,0,-1,1322,722,0,0
105,302,0,0,0,0,0,0,0,0,0,-1,1329,722,0,0
112,302,0,0,0,0,0,0,0,0,0,-1,1336,722,0,0
119,302,0,0,0,0,0,0,0,0,0,-1,1343,722,0,0
126,302,0,0,0,0,0,0,0,0,0,-1,1350,722,0,0
133,302,0,0,0,0,0,0,0,0,0,-1,1357,722,0,0
140,302,0,0,0,0,0,0,0,0,0,-1,1364,722,0,0
147,302,0,0,0,0,0,0,0,0,0,-1,1371,722,0,0
154,302,0,0,0,0,0,0,0,0,0,-1,1378,722,0,0
161,302,0,0,0,0,0,0,0,0,0,-1,1385,722,0,0
168,302,0,0,0,0,0,0,0,0,0,-1,1392,722,0,0
175,302,0,0,0,0,0,0,0,0,0,-1,1399,722,0,0
182,302,0,0,0,0,0,0,0,0,0,-1,1406,722,0,0
189,302,0,0,0,0,0,0,0,0,0,-1,1413,722,0,0
196,302,0,0,0,0,0,0,0,0,0,-1,1420,722,0,0
203,302,0,0,0,0,0,0,0,0,0,-1,1427,722,0,0
210,302,0,0,0,0,0,0,0,0,0,-1,1434,722,0,0
217,302,0,0,0,0,0,0,0,0,0,-1,1441,722,0,0
224,302,0,0,0,0,0,0,0,0,0,-1,1448,722,0,0
231,302,0,0,0,0,0,0,0,0,0,-1,1455,722,0,0
238,302,0,0,0,0,0,0,0,0,0,-1,1462,722,0,0
245,302,0,0,0,0,0,0,0,0,0,-1,1469,722,0,0
252,302,0,0,0,0,0,0,0,0,0,-1,1476,722,0,0
259,302,0,0,0,0,0,0,0,0,0,-1,1483,722,0,0
266,302,0,0,0,0,0,0,0,0,0,-1,1490,722,0,0
273,302,0,0,0,0,0,0,0,0,0,-1,1497,722,0,0
280,302,0,0,0,0,0,0,0,0,0,-1,1504,722,0,0
287,302,0,0,0,0,0,0,0,0,0,-1,1511,722,0,0
294,302,0,0,0,0,0,0,0,0,0,-1,1518,722,0,0
301,302,0,0,0,0,0,0,0,0,0,-1,1525,722,0,0
308,302,0,0,0,0,0,0,0,0,0,-1,1532,722,0,0
315,302,0,0,0,0,0,0,0,0,0,-1,1539,722,0,0
322,302,0,0,0,0,0,0,0,0,0,-1,1546,722,0,0
329,302,0,0,0,0,0,0,0,0,0,-1,1553,722,0,0
336,302,0,0,0,0,0,0,0,0,0,-1,1560,722,0,0
343,302,0,0,0,0,0,0,0,0,0,-1,1567,722,0,0
350,302,0,0,0,0,0,0,0,0,0,-1,1574,722,0,0
357,302,0,0,0,0,0,0,0,0,0,-1,1581,722,0,0
364,302,0,0,0,0,0,0,0,0,0,-1,1588,722,0,0
371,302,0,0,0,0,0,0,0,0,0,-1,1595,722,0,0
378,302,0,0,0,0,0,0,0,0,0,-1,1602,722,0,0
385,302,0,0,0,0,0,0,0,0,0,-1,1609,722,0,0
392,302,0,0,0,0,0,0,0,0,0,-1,1616,722,0,0
399,302,0,0,0,0,0,0,0,0,0,-1,1623,722,0,0
406,302,0,0,0,0,0,0,0,0,0,-1,1630,722,0,0
413,302,0,0,0,0,0,0,0,0,0,-1,1637,722,0,0
420,302,0,0,0,0,0,0,0,0,0,-1,1644,722,0,0
427,302,0,0,0,0,0,0,0,0,0,-1,1651,722,0,0
434,302,0,0,0,0,0,0,0,0,0,-1,1658,722,0,0
441,302,0,0,0,0,0,0,0,0,0,-1,1665,722,0,0
448,302,0,0,0,0,0,0,0,0,0,-1,1672,722,0,0
455,302,0,0,0,0,0,0,0,0,0,-1,1679,722,0,0
462,302,0,0,0,0,0,0,0,0,0,-1,1686,722,0,0
469,302,0,0,0,0,0,0,0,0,0,-1,1693,722,0,0
476,302,0,0,0,0,0,0,0,0,0,-1,1700,722,0,0
483,302,0,0,0,0,0,0,0,0,0,-1,1707,722,0,0
490,302,0,0,0,0,0,0,0,0,0,-1,1714,722,0,0
497,302,0,0,0,0,0,0,0,0,0,-1,1721,722,0,0
504,302,0,0,0,0,0,0,0,0,0,-1,1728,722,0,0
511,302,0,0,0,0,0,0,0,0,0,-1,1735,722,0,0
518,302,0,0,0,0,0,0,0,0,0,-1,1742,722,0,0
525,302,0,0,0,0,0,0,0,0,0,-1,1749,722,0,0
532,302,0,0,0,0,0,0,0,0,0,-1,1756,722,0,0
539,302,0,0,0,0,0,0,0,0,0,-1,1763,722,0,0
546,302,48.9873,1.50562,0,0,0,0,0,0,0,-1,1770,722,48.9873,-1.50562
553,302,56.7844,3.46533,0,0,0,0,0,0,0,-1,1777,722,56.7844,-3.4653
560,302,56.7115,3.84808,0,0,0,0,0,0,0,-1,1784,722,56.7116,-3.84806
567,302,55.9475,4.24542,0,0,0,0,0,0,0,-1,1791,722,55.9475,-4.24542
574,302,45.9537,6.00867,0,0,0,0,0,0,0,-1,1798,722,45.9537,-6.00864
581,302,45.137,7.38043,0,0,0,0,0,0,0,-1,1805,722,45.1369,-7.38044
588,302,26.9731,7.19983,0,0,0,0,0,0,0,-1,1812,722,26.9732,-7.19981
595,302,27.3826,8.13104,0,0,0,0,0,0,0,-1,1819,722,27.3825,-8.13102
602,302,14.7349,5.21246,0,0,0,0,0,0,0,-1,1826,722,14.7349,-5.21247
609,302,31.1039,-6.34253,0,0,0,0,0,0,0,-1,1833,722,31.1039,6.34254
616,302,74.8665,-16.7825,0,0,0,0,0,0,0,-1,1840,722,74.8664,16.7825
623,302,143.144,-13.0864,0,0,0,0,0,0,0,-1,1847,722,143.143,13.0863
630,302,172.823,-9.17175,0,0,0,0,0,0,0,-1,1854,722,172.823,9.17176
637,302,171.647,-6.00726,0,0,0,0,0,0,0,-1,1861,722,171.647,6.00729
644,302,170.883,-3.10516,-0.00301401,0.0274662,-0.014295,0.0331213,-0.00866907,-1.19409,0.0254672,0.0276408,1868,722,170.883,3.10517
651,302,170.199,-0.213989,-0.00163587,0.0290894,-0.0184858,0.0377629,-0.0103094,-1.13209,0.0292243,0.0246374,1875,722,170.199,0.214016
658,302,169.653,2.57959,-5.59393e-05,0.031207,-0.0223982,0.0428889,-0.0117379,-1.09005,0.0332041,0.031514,1882,722,169.653,-2.57962
665,302,169.015,5.50952,0.00158454,0.0338364,-0.026076,0.0483699,-0.012949,-1.06233,0.0373195,0.0290653,1889,722,169.015,-5.50951
672,302,168.376,8.34271,0.00335164,0.0370322,-0.0294926,0.0541538,-0.0137699,-1.04481,0.0414618,0.0179424,1896,722,168.376,-8.34272
679,302,167.886,11.1209,0.00537414,0.0408734,-0.0325615,0.0602088,-0.0139613,-1.03494,0.0455125,0.0148164,1903,722,167.886,-11.1209
686,302,167.42,13.8305,0.00749053,0.0460483,-0.0353265,0.0670141,-0.0134753,-1.03518,0.0497796,0.0358141,1910,722,167.42,-13.8305
693,302,166.839,16.4819,0,0,0,0,0,0,0,-1,1917,722,166.839,-16.4819
700,302,25.4069,1.97308,0,0,0,0,0,0,0,-1,1924,722,25.4068,-1.97311
707,302,16.7321,4.76685,0,0,0,0,0,0,0,-1,1931,722,16.7321,-4.76687
714,302,17.2,5.77594,0,0,0,0,0,0,0,-1,1938,722,17.2,-5.77595
721,302,17.7914,6.60394,0,0,0,0,0,0,0,-1,1945,722,17.7914,-6.60395
728,302,17.2798,4.81702,0,0,0,0,0,0,0,-1,1952,722,17.2798,-4.81703
735,302,0,0,0,0,0,0,0,0,0,-1,1959,722,0,0
742,302,0,0,0,0,0,0,0,0,0,-1,1966,722,0,0
749,302,0,0,0,0,0,0,0,0,0,-1,1973,722,0,0
756,302,0,0,0,0,0,0,0,0,0,-1,1980,722,0,0
763,302,0,0,0,0,0,0,0,0,0,-1,1987,722,0,0
770,302,0,0,0,0,0,0,0,0,0,-1,1994,722,0,0
777,302,0,0,0,0,0,0,0,0,0,-1,2001,722,0,0
784,302,0,0,0,0,0,0,0,0,0,-1,2008,722,0,0
791,302,0,0,0,0,0,0,0,0,0,-1,2015,722,0,0
798,302,0,0,0,0,0,0,0,0,0,-1,2022,722,0,0
805,302,0,0,0,0,0,0,0,0,0,-1,2029,722,0,0
812,302,0,0,0,0,0,0,0,0,0,-1,2036,722,0,0
-700,295,0,0,0,0,0,0,0,0,0,-1,524,729,0,0
-693,295,0,0,0,0,0,0,0,0,0,-1,531,729,0,0
-686,295,0,0,0,0,0,0,0,0,0,-1,538,729,0,0
-679,295,0,0,0,0,0,0,0,0,0,-1,545,729,0,0
-672,295,0,0,0,0,0,0,0,0,0,-1,552,729,0,0
-665,295,0,0,0,0,0,0,0,0,0,-1,559,729,0,0
-658,295,0,0,0,0,0,0,0,0,0,-1,566,729,0,0
-651,295,0,0,0,0,0,0,0,0,0,-1,573,729,0,0
-644,295,0,0,0,0,0,0,0,0,0,-1,580,729,0,0
-637,295,0,0,0,0,0,0,0,0,0,-1,587,729,0,0
-630,295,0,0,0,0,0,0,0,0,0,-1,594,729,0,0
-623,295,0,0,0,0,0,0,0,0,0,-1,601,729,0,0
-616,295,-13.4911,1.31738,0,0,0,0,0,0,0,-1,608,729,-13.4911,-1.3174
-609,295,-10.2864,0.832031,0,0,0,0,0,0,0,-1,615,729,-10.2863,-0.832034
-602,295,-8.19006,3.01587,0,0,0,0,0,0,0,-1,622,729,-8.19005,-3.01588
-595,295,-0.615479,-1.95447,0,0,0,0,0,0,0,-1,629,729,-0.615481,1.95445
-588,295,-7.98999,1.56903,0,0,0,0,0,0,0,-1,636,729,-7.98997,-1.56905
-581,295,-12.0404,0.150574,0,0,0,0,0,0,0,-1,643,729,-12.0404,-0.150604
-574,295,-12.1605,-0.0739746,0,0,0,0,0,0,0,-1,650,729,-12.1605,0.0739856
-567,295,-62.5502,4.69238,0,0,0,0,0,0,0,-1,657,729,-62.5503,-4.69241
-560,295,-161.532,17.0099,0,0,0,0,0,0,0,-1,664,729,-161.532,-17.0099
-553,295,-161.926,14.2842,0.00557268,0.0476816,0.0364887,0.0687545,-0.0155002,1.04707,0.0517822,0.0306579,671,729,-161.926,-14.2842
-546,295,-162.504,11.6554,0.00506905,0.0437381,0.0326165,0.0623201,-0.0135129,1.05295,0.0467072,0.0280341,678,729,-162.504,-11.6554
-539,295,-163.101,8.86963,0.00372839,0.0401529,0.029033,0.0562131,-0.0123318,1.06552,0.042191,0.0266261,685,729,-163.101,-8.86961
-532,295,-163.566,6.07147,0.00186297,0.0367106,0.0256298,0.0502784,-0.0117048,1.08393,0.0380258,0.0221211,692,729,-163.566,-6.07145
-525,295,-164.138,3.1582,-0.000533222,0.0335871,0.022385,0.0446719,-0.011618,1.11101,0.0343158,0.0200897,699,729,-164.138,-3.15819
-518,295,-164.865,0.31366,-0.00344034,0.0307599,0.019305,0.0394492,-0.0121297,1.14785,0.0311404,0.0164474,706,729,-164.865,-0.313678
-511,295,-165.52,-2.5575,-0.00697923,0.0283109,0.0164106,0.0347627,-0.013431,1.19621,0.0287188,0.020476,713,729,-165.52,2.5575
-504,295,-166.424,-5.6637,-0.0111292,0.0263242,0.0138433,0.0308854,-0.0156905,1.25251,0.0273634,0.0265597,720,729,-166.424,5.66372
-497,295,-168.102,-8.75391,0,0,0,0,0,0,0,-1,727,729,-168.102,8.75389
-490,295,-52.578,-14.2667,0,0,0,0,0,0,0,-1,734,729,-52.578,14.2667
-483,295,-6.84503,-0.454651,0,0,0,0,0,0,0,-1,741,729,-6.84505,0.454639
-476,295,-13.1738,-0.836243,0,0,0,0,0,0,0,-1,748,729,-13.1738,0.836223
-469,295,-26.5608,-0.466187,0,0,0,0,0,0,0,-1,755,729,-26.5608,0.466162
-462,295,-29.7701,-0.792664,0,0,0,0,0,0,0,-1,762,729,-29.7701,0.792642
-455,295,-45.11,-2.79272,0,0,0,0,0,0,0,-1,769,729,-45.11,2.79272
-448,295,-48.0288,1.41229,0,0,0,0,0,0,0,-1,776,729,-48.0288,-1.41227
-441,295,-47.1089,1.03058,0,0,0,0,0,0,0,-1,783,729,-47.109,-1.0306
-434,295,-46.2319,1.10614,0,0,0,0,0,0,0,-1,790,729,-46.2319,-1.10612
-427,295,0,0,0,0,0,0,0,0,0,-1,797,729,0,0
-420,295,0,0,0,0,0,0,0,0,0,-1,804,729,0,0
-413,295,0,0,0,0,0,0,0,0,0,-1,811,729,0,0
-406,295,0,0,0,0,0,0,0,0,0,-1,818,729,0,0
-399,295,0,0,0,0,0,0,0,0,0,-1,825,729,0,0
-392,295,0,0,0,0,0,0,0,0,0,-1,832,729,0,0
-385,295,0,0,0,0,0,0,0,0,0,-1,839,729,0,0
-378,295,0,0,0,0,0,0,0,0,0,-1,846,729,0,0
-371,295,0,0,0,0,0,0,0,0,0,-1,853,729,0,0
-364,295,0,0,0,0,0,0,0,0,0,-1,860,729,0,0
-357,295,0,0,0,0,0,0,0,0,0,-1,867,729,0,0
-350,295,0,0,0,0,0,0,0,0,0,-1,874,729,0,0
-343,295,0,0,0,0,0,0,0,0,0,-1,881,729,0,0
-336,295,0,0,0,0,0,0,0,0,0,-1,888,729,0,0
-329,295,0,0,0,0,0,0,0,0,0,-1,895,729,0,0
-322,295,0,0,0,0,0,0,0,0,0,-1,902,729,0,0
-315,295,0,0,0,0,0,0,0,0,0,-1,909,729,0,0
-308,295,0,0,0,0,0,0,0,0,0,-1,916,729,0,0
-301,295,0,0,0,0,0,0,0,0,0,-1,923,729,0,0
-294,295,0,0,0,0,0,0,0,0,0,-1,930,729,0,0
-287,295,0,0,0,0,0,0,0,0,0,-1,937,729,0,0
-280,295,0,0,0,0,0,0,0,0,0,-1,944,729,0,0
-273,295,0,0,0,0,0,0,0,0,0,-1,951,729,0,0
-266,295,0,0,0,0,0,0,0,0,0,-1,958,729,0,0
-259,295,0,0,0,0,0,0,0,0,0,-1,965,729,0,0
-252,295,0,0,0,0,0,0,0,0,0,-1,972,729,0,0
-245,295,0,0,0,0,0,0,0,0,0,-1,979,729,0,0
-238,295,0,0,0,0,0,0,0,0,0,-1,986,729,0,0
-231,295,0,0,0,0,0,0,0,0,0,-1,993,729,0,0
-224,295,0,0,0,0,0,0,0,0,0,-1,1000,729,0,0
-217,295,0,0,0,0,0,0,0,0,0,-1,1007,729,0,0
-210,295,0,0,0,0,0,0,0,0,0,-1,1014,729,0,0
-203,295,0,0,0,0,0,0,0,0,0,-1,1021,729,0,0
-196,295,0,0,0,0,0,0,0,0,0,-1,1028,729,0,0
-189,295,0,0,0,0,0,0,0,0,0,-1,1035,729,0,0
-182,295,0,0,0,0,0,0,0,0,0,-1,1042,729,0,0
-175,295,0,0,0,0,0,0,0,0,0,-1,1049,729,0,0
-168,295,0,0,0,0,0,0,0,0,0,-1,1056,729,0,0
-161,295,0,0,0,0,0,0,0,0,0,-1,1063,729,0,0
-154,295,0,0,0,0,0,0,0,0,0,-1,1070,729,0,0
-147,295,0,0,0,0,0,0,0,0,0,-1,1077,729,0,0
-140,295,0,0,0,0,0,0,0,0,0,-1,1084,729,0,0
-133,295,0,0,0,0,0,0,0,0,0,-1,1091,729,0,0
-126,295,0,0,0,0,0,0,0,0,0,-1,1098,729,0,0
-119,295,0,0,0,0,0,0,0,0,0,-1,1105,729,0,0
-112,295,0,0,0,0,0,0,0,0,0,-1,1112,729,0,0
-105,295,0,0,0,0,0,0,0,0,0,-1,1119,729,0,0
-98,295,0,0,0,0,0,0,0,0,0,-1,1126,729,0,0
-91,295,0,0,0,0,0,0,0,0,0,-1,1133,729,0,0
-84,295,0,0,0,0,0,0,0,0,0,-1,1140,729,0,0
-77,295,0,0,0,0,0,0,0,0,0,-1,1147,729,0,0
-70,295,0,0,0,0,0,0,0,0,0,-1,1154,729,0,0
-63,295,0,0,0,0,0,0,0,0,0,-1,1161,729,0,0
-56,295,0,0,0,0,0,0,0,0,0,-1,1168,729,0,0
-49,295,0,0,0,0,0,0,0,0,0,-1,1175,729,0,0
-42,295,0,0,0,0,0,0,0,0,0,-1,1182,729,0,0
-35,295,0,0,0,0,0,0,0,0,0,-1,1189,729,0,0
-28,295,0,0,0,0,0,0,0,0,0,-1,1196,729,0,0
-21,295,0,0,0,0,0,0,0,0,0,-1,1203,729,0,0
-14,295,0,0,0,0,0,0,0,0,0,-1,1210,729,0,0
-7,295,0,0,0,0,0,0,0,0,0,-1,1217,729,0,0
0,295,0,0,0,0,0,0,0,0,0,-1,1224,729,0,0
7,295,0,0,0,0,0,0,0,0,0,-1,1231,729,0,0
14,295,0,0,0,0,0,0,0,0,0,-1,1238,729,0,0
21,295,0,0,0,0,0,0,0,0,0,-1,1245,729,0,0
28,295,0,0,0,0,0,0,0,0,0,-1,1252,729,0,0
35,295,0,0,0,0,0,0,0,0,0,-1,1259,729,0,0
42,295,0,0,0,0,0,0,0,0,0,-1,1266,729,0,0
49,295,0,0,0,0,0,0,0,0,0,-1,1273,729,0,0
56,295,0,0,0,0,0,0,0,0,0,-1,1280,729,0,0
63,295,0,0,0,0,0,0,0,0,0,-1,1287,729,0,0
70,295,0,0,0,0,0,0,0,0,0,-1,1294,729,0,0
77,295,0,0,0,0,0,0,0,0,0,-1,1301,729,0,0
84,295,0,0,0,0,0,0,0,0,0,-1,1308,729,0,0
91,295,0,0,0,0,0,0,0,0,0,-1,1315,729,0,0
98,295,0,0,0,0,0,0,0,0,0,-1,1322,729,0,0
105,295,0,0,0,0,0,0,0,0,0,-1,1329,729,0,0
112,295,0,0,0,0,0,0,0,0,0,-1,1336,729,0,0
119,295,0,0,0,0,0,0,0,0,0,-1,1343,729,0,0
126,295,0,0,0,0,0,0,0,0,0,-1,1350,729,0,0
133,295,0,0,0,0,0,0,0,0,0,-1,1357,729,0,0
140,295,0,0,0,0,0,0,0,0,0,-1,1364,729,0,0
147,295,0,0,0,0,0,0,0,0,0,-1,1371,729,0,0
154,295,0,0,0,0,0,0,0,0,0,-1,1378,729,0,0
161,295,0,0,0,0,0,0,0,0,0,-1,1385,729,0,0
168,295,0,0,0,0,0,0,0,0,0,-1,1392,729,0,0
175,295,0,0,0,0,0,0,0,0,0,-1,1399,729,0,0
182,295,0,0,0,0,0,0,0,0,0,-1,1406,729,0,0
189,295,0,0,0,0,0,0,0,0,0,-1,1413,729,0,0
196,295,0,0,0,0,0,0,0,0,0,-1,1420,729,0,0
203,295,0,0,0,0,0,0,0,0,0,-1,1427,729,0,0
210,295,0,0,0,0,0,0,0,0,0,-1,1434,729,0,0
217,295,0,0,0,0,0,0,0,0,0,-1,1441,729,0,0
224,295,0,0,0,0,0,0,0,0,0,-1,1448,729,0,0
231,295,0,0,0,0,0,0,0,0,0,-1,1455,729,0,0
238,295,0,0,0,0,0,0,0,0,0,-1,1462,729,0,0
245,295,0,0,0,0,0,0,0,0,0,-1,1469,729,0,0
252,295,0,0,0,0,0,0,0,0,0,-1,1476,729,0,0
259,295,0,0,0,0,0,0,0,0,0,-1,1483,729,0,0
266,295,0,0,0,0,0,0,0,0,0,-1,1490,729,0,0
273,295,0,0,0,0,0,0,0,0,0,-1,1497,729,0,0
280,295,0,0,0,0,0,0,0,0,0,-1,1504,729,0,0
287,295,0,0,0,0,0,0,0,0,0,-1,1511,729,0,0
294,295,0,0,0,0,0,0,0,0,0,-1,1518,729,0,0
301,295,0,0,0,0,0,0,0,0,0,-1,1525,729,0,0
308,295,0,0,0,0,0,0,0,0,0,-1,1532,729,0,0
315,295,0,0,0,0,0,0,0,0,0,-1,1539,729,0,0
322,295,0,0,0,0,0,0,0,0,0,-1,1546,729,0,0
329,295,0,0,0,0,0,0,0,0,0,-1,1553,729,0,0
336,295,0,0,0,0,0,0,0,0,0,-1,1560,729,0,0
343,295,0,0,0,0,0,0,0,0,0,-1,1567,729,0,0
350,295,0,0,0,0,0,0,0,0,0,-1,1574,729,0,0
357,295,0,0,0,0,0,0,0,0,0,-1,1581,729,0,0
364,295,0,0,0,0,0,0,0,0,0,-1,1588,729,0,0
371,295,0,0,0,0,0,0,0,0,0,-1,1595,729,0,0
378,295,0,0,0,0,0,0,0,0,0,-1,1602,729,0,0
385,295,0,0,0,0,0,0,0,0,0,-1,1609,729,0,0
392,295,0,0,0,0,0,0,0,0,0,-1,1616,729,0,0
399,295,0,0,0,0,0,0,0,0,0,-1,1623,729,0,0
406,295,0,0,0,0,0,0,0,0,0,-1,1630,729,0,0
413,295,0,0,0,0,0,0,0,0,0,-1,1637,729,0,0
420,295,0,0,0,0,0,0,0,0,0,-1,1644,729,0,0
427,295,0,0,0,0,0,0,0,0,0,-1,1651,729,0,0
434,295,0,0,0,0,0,0,0,0,0,-1,1658,729,0,0
441,295,0,0,0,0,0,0,0,0,0,-1,1665,729,0,0
448,295,0,0,0,0,0,0,0,0,0,-1,1672,729,0,0
455,295,0,0,0,0,0,0,0,0,0,-1,1679,729,0,0
462,295,0,0,0,0,0,0,0,0,0,-1,1686,729,0,0
469,295,0,0,0,0,0,0,0,0,0,-1,1693,729,0,0
476,295,0,0,0,0,0,0,0,0,0,-1,1700,729,0,0
483,295,0,0,0,0,0,0,0,0,0,-1,1707,729,0,0
490,295,0,0,0,0,0,0,0,0,0,-1,1714,729,0,0
497,295,0,0,0,0,0,0,0,0,0,-1,1721,729,0,0
504,295,0,0,0,0,0,0,0,0,0,-1,1728,729,0,0
511,295,0,0,0,0,0,0,0,0,0,-1,1735,729,0,0
518,295,0,0,0,0,0,0,0,0,0,-1,1742,729,0,0
525,295,0,0,0,0,0,0,0,0,0,-1,1749,729,0,0
532,295,0,0,0,0,0,0,0,0,0,-1,1756,729,0,0
539,295,0,0,0,0,0,0,0,0,0,-1,1763,729,0,0
546,295,57.4674,2.36884,0,0,0,0,0,0,0,-1,1770,729,57.4674,-2.36883
553,295,57.1969,2.73846,0,0,0,0,0,0,0,-1,1777,729,57.197,-2.73843
560,295,57.0291,3.27454,0,0,0,0,0,0,0,-1,1784,729,57.029,-3.27454
567,295,56.6243,3.88239,0,0,0,0,0,0,0,-1,1791,729,56.6242,-3.8824
574,295,56.5275,4.755,0,0,0,0,0,0,0,-1,1798,729,56.5274,-4.75501
581,295,37.8191,2.19592,0,0,0,0,0,0,0,-1,1805,729,37.8191,-2.19594
588,295,39.0542,2.45679,0,0,0,0,0,0,0,-1,1812,729,39.0542,-2.45676
595,295,27.2102,6.99121,0,0,0,0,0,0,0,-1,1819,729,27.2103,-6.99121
602,295,26.9065,7.82141,0,0,0,0,0,0,0,-1,1826,729,26.9064,-7.8214
609,295,11.7737,2.19989,0,0,0,0,0,0,0,-1,1833,729,11.7736,-2.19988
616,295,45.2537,-10.4867,0,0,0,0,0,0,0,-1,1840,729,45.2537,10.4867
623,295,86.2454,-17.1973,0,0,0,0,0,0,0,-1,1847,729,86.2454,17.1973
630,295,145.647,-9.03015,0,0,0,0,0,0,0,-1,1854,729,145.647,9.03017
637,295,174.946,-5.53705,0,0,0,0,0,0,0,-1,1861,729,174.946,5.53703
644,295,174.202,-2.59125,-0.00460598,0.0261719,-0.0107901,0.0295778,-0.00801188,-1.26504,0.022862,0.0434742,1868,729,174.202,2.59123
651,295,173.521,0.456848,-0.00331768,0.02777,-0.0152593,0.0340082,-0.00955584,-1.18272,0.0264394,0.0205301,1875,729,173.521,-0.456854
658,295,172.875,3.33368,-0.0018621,0.0299415,-0.0193616,0.0390944,-0.011015,-1.1292,0.030407,0.0242704,1882,729,172.875,-3.33366
665,295,172.178,6.0907,-0.000284273,0.0326395,-0.0231676,0.0445983,-0.012243,-1.09429,0.0345441,0.0206806,1889,729,172.178,-6.09069
672,295,171.657,8.8515,0.00140844,0.0359009,-0.0267037,0.0504434,-0.013134,-1.07212,0.038756,0.0214087,1896,729,171.657,-8.85149
679,295,171.17,11.634,0.00333316,0.0397696,-0.0299142,0.0565765,-0.0134738,-1.05891,0.0429198,0.0192002,1903,729,171.17,-11.634
686,295,170.614,14.2536,0.00545156,0.0446954,-0.0328067,0.0633005,-0.0131535,-1.05491,0.0471997,0.0189986,1910,729,170.613,-14.2536
693,295,170.054,16.8486,0,0,0,0,0,0,0,-1,1917,729,170.054,-16.8486
700,295,31.3757,2.06982,0,0,0,0,0,0,0,-1,1924,729,31.3758,-2.0698
707,295,22.2661,3.05206,0,0,0,0,0,0,0,-1,1931,729,22.2662,-3.05207
714,295,17.4906,4.63068,0,0,0,0,0,0,0,-1,1938,729,17.4906,-4.63066
721,295,18.3792,5.32281,0,0,0,0,0,0,0,-1,1945,729,18.3791,-5.32283
728,295,17.379,3.74866,0,0,0,0,0,0,0,-1,1952,729,17.379,-3.74863
735,295,0,0,0,0,0,0,0,0,0,-1,1959,729,0,0
742,295,0,0,0,0,0,0,0,0,0,-1,1966,729,0,0
749,295,0,0,0,0,0,0,0,0,0,-1,1973,729,0,0
756,295,0,0,0,0,0,0,0,0,0,-1,1980,729,0,0
763,295,0,0,0,0,0,0,0,0,0,-1,1987,729,0,0
770,295,0,0,0,0,0,0,0,0,0,-1,1994,729,0,0
777,295,0,0,0,0,0,0,0,0,0,-1,2001,729,0,0
784,295,0,0,0,0,0,0,0,0,0,-1,2008,729,0,0
791,295,0,0,0,0,0,0,0,0,0,-1,2015,729,0,0
798,295,0,0,0,0,0,0,0,0,0,-1,2022,729,0,0
805,295,0,0,0,0,0,0,0,0,0,-1,2029,729,0,0
812,295,0,0,0,0,0,0,0,0,0,-1,2036,729,0,0
-700,288,0,0,0,0,0,0,0,0,0,-1,524,736,0,0
-693,288,0,0,0,0,0,0,0,0,0,-1,531,736,0,0
-686,288,0,0,0,0,0,0,0,0,0,-1,538,736,0,0
-679,288,0,0,0,0,0,0,0,0,0,-1,545,736,0,0
-672,288,0,0,0,0,0,0,0,0,0,-1,552,736,0,0
-665,288,0,0,0,0,0,0,0,0,0,-1,559,736,0,0
-658,288,0,0,0,0,0,0,0,0,0,-1,566,736,0,0
-651,288,0,0,0,0,0,0,0,0,0,-1,573,736,0,0
-644,288,0,0,0,0,0,0,0,0,0,-1,580,736,0,0
-637,288,0,0,0,0,0,0,0,0,0,-1,587,736,0,0
-630,288,0,0,0,0,0,0,0,0,0,-1,594,736,0,0
-623,288,0,0,0,0,0,0,0,0,0,-1,601,736,0,0
-616,288,-11.7584,2.4425,0,0,0,0,0,0,0,-1,608,736,-11.7584,-2.44251
-609,288,-10.3007,2.32178,0,0,0,0,0,0,0,-1,615,736,-10.3007,-2.32178
-602,288,-10.1458,-1.85559,0,0,0,0,0,0,0,-1,622,736,-10.1458,1.85556
-595,288,-7.63208,1.81769,0,0,0,0,0,0,0,-1,629,736,-7.63205,-1.81766
-588,288,-8.19269,1.50598,0,0,0,0,0,0,0,-1,636,736,-8.19268,-1.50601
-581,288,-59.2949,7.2605,0,0,0,0,0,0,0,-1,643,736,-59.2949,-7.26048
-574,288,-74.4278,8.36401,0,0,0,0,0,0,0,-1,650,736,-74.4278,-8.36403
-567,288,-164.273,19.8479,0,0,0,0,0,0,0,-1,657,736,-164.273,-19.8479
-560,288,-164.737,17.1322,0.0038253,0.05,0.0369246,0.0704609,-0.0166356,1.06479,0.0533902,0.0292597,664,736,-164.737,-17.1322
-553,288,-165.099,14.7403,0.00387175,0.0457927,0.0332356,0.0641253,-0.0144609,1.06673,0.0482976,0.0301385,671,736,-165.099,-14.7403
-546,288,-165.715,12.1265,0.00324851,0.0418184,0.029523,0.057797,-0.0127301,1.07471,0.0434016,0.0317108,678,736,-165.715,-12.1264
-539,288,-166.322,9.35565,0.00193473,0.0381295,0.0260009,0.0517112,-0.0116469,1.08943,0.0389414,0.0231104,685,736,-166.322,-9.35567
-532,288,-166.715,6.58765,6.2254e-05,0.0346257,0.0226219,0.0458116,-0.0111237,1.11158,0.0348459,0.0186917,692,736,-166.715,-6.58764
-525,288,-167.272,3.78735,-0.00237152,0.0314159,0.0193868,0.0402368,-0.0111925,1.14379,0.0312312,0.0171152,699,736,-167.272,-3.78735
-518,288,-167.998,0.913452,-0.00539841,0.0285278,0.0163167,0.0351015,-0.0119721,1.18781,0.0282504,0.0216078,706,736,-167.998,-0.913438
-511,288,-168.891,-1.9906,-0.00926358,0.025961,0.0134924,0.0305352,-0.0138377,1.24394,0.0262163,0.0242966,713,736,-168.891,1.99057
-504,288,-169.554,-5.00604,0,0,0,0,0,0,0,-1,720,736,-169.554,5.00607
-497,288,-81.8885,-16.6532,0,0,0,0,0,0,0,-1,727,736,-81.8885,16.6532
-490,288,-50.7991,-12.983,0,0,0,0,0,0,0,-1,734,736,-50.799,12.9831
-483,288,-17.3287,0.564758,0,0,0,0,0,0,0,-1,741,736,-17.3287,-0.56477
-476,288,-26.136,0.452148,0,0,0,0,0,0,0,-1,748,736,-26.136,-0.452177
-469,288,-27.7904,0.649841,0,0,0,0,0,0,0,-1,755,736,-27.7904,-0.649854
-462,288,-44.999,-2.65112,0,0,0,0,0,0,0,-1,762,736,-44.999,2.65111
-455,288,-49.1631,1.86432,0,0,0,0,0,0,0,-1,769,736,-49.1632,-1.8643
-448,288,-55.5283,0.0455933,0,0,0,0,0,0,0,-1,776,736,-55.5284,-0.0456
-441,288,-55.0096,0.39325,0,0,0,0,0,0,0,-1,783,736,-55.0096,-0.393269
-434,288,-46.7119,1.66388,0,0,0,0,0,0,0,-1,790,736,-46.7119,-1.66385
-427,288,0,0,0,0,0,0,0,0,0,-1,797,736,0,0
-420,288,0,0,0,0,0,0,0,0,0,-1,804,736,0,0
-413,288,0,0,0,0,0,0,0,0,0,-1,811,736,0,0
-406,288,0,0,0,0,0,0,0,0,0,-1,818,736,0,0
-399,288,0,0,0,0,0,0,0,0,0,-1,825,736,0,0
-392,288,0,0,0,0,0,0,0,0,0,-1,832,736,0,0
-385,288,0,0,0,0,0,0,0,0,0,-1,839,736,0,0
-378,288,0,0,0,0,0,0,0,0,0,-1,846,736,0,0
-371,288,0,0,0,0,0,0,0,0,0,-1,853,736,0,0
-364,288,0,0,0,0,0,0,0,0,0,-1,860,736,0,0
-357,288,0,0,0,0,0,0,0,0,0,-1,867,736,0,0
-350,288,0,0,0,0,0,0,0,0,0,-1,874,736,0,0
-343,288,0,0,0,0,0,0,0,0,0,-1,881,736,0,0
-336,288,0,0,0,0,0,0,0,0,0,-1,888,736,0,0
-329,288,0,0,0,0,0,0,0,0,0,-1,895,736,0,0
-322,288,0,0,0,0,0,0,0,0,0,-1,902,736,0,0
-315,288,0,0,0,0,0,0,0,0,0,-1,909,736,0,0
-308,288,0,0,0,0,0,0,0,0,0,-1,916,736,0,0
-301,288,0,0,0,0,0,0,0,0,0,-1,923,736,0,0
-294,288,0,0,0,0,0,0,0,0,0,-1,930,736,0,0
-287,288,0,0,0,0,0,0,0,0,0,-1,937,736,0,0
-280,288,0,0,0,0,0,0,0,0,0,-1,944,736,0,0
-273,288,0,0,0,0,0,0,0,0,0,-1,951,736,0,0
-266,288,0,0,0,0,0,0,0,0,0,-1,958,736,0,0
-259,288,0,0,0,0,0,0,0,0,0,-1,965,736,0,0
-252,288,0,0,0,0,0,0,0,0,0,-1,972,736,0,0
-245,288,0,0,0,0,0,0,0,0,0,-1,979,736,0,0
-238,288,0,0,0,0,0,0,0,0,0,-1,986,736,0,0
-231,288,0,0,0,0,0,0,0,0,0,-1,993,736,0,0
-224,288,0,0,0,0,0,0,0,0,0,-1,1000,736,0,0
-217,288,0,0,0,0,0,0,0,0,0,-1,1007,736,0,0
-210,288,0,0,0,0,0,0,0,0,0,-1,1014,736,0,0
-203,288,0,0,0,0,0,0,0,0,0,-1,1021,736,0,0
-196,288,0,0,0,0,0,0,0,0,0,-1,1028,736,0,0
-189,288,0,0,0,0,0,0,0,0,0,-1,1035,736,0,0
-182,288,0,0,0,0,0,0,0,0,0,-1,1042,736,0,0
-175,288,0,0,0,0,0,0,0,0,0,-1,1049,736,0,0
-168,288,0,0,0,0,0,0,0,0,0,-1,1056,736,0,0
-161,288,0,0,0,0,0,0,0,0,0,-1,1063,736,0,0
-154,288,0,0,0,0,0,0,0,0,0,-1,1070,736,0,0
-147,288,0,0,0,0,0,0,0,0,0,-1,1077,736,0,0
-140,288,0,0,0,0,0,0,0,0,0,-1,1084,736,0,0
-133,288,0,0,0,0,0,0,0,0,0,-1,1091,736,0,0
-126,288,0,0,0,0,0,0,0,0,0,-1,1098,736,0,0
-119,288,0,0,0,0,0,0,0,0,0,-1,1105,736,0,0
-112,288,0,0,0,0,0,0,0,0,0,-1,1112,736,0,0
-105,288,0,0,0,0,0,0,0,0,0,-1,1119,736,0,0
-98,288,0,0,0,0,0,0,0,0,0,-1,1126,736,0,0
-91,288,0,0,0,0,0,0,0,0,0,-1,1133,736,0,0
-84,288,0,0,0,0,0,0,0,0,0,-1,1140,736,0,0
-77,288,0,0,0,0,0,0,0,0,0,-1,1147,736,0,0
-70,288,0,0,0,0,0,0,0,0,0,-1,1154,736,0,0
-63,288,0,0,0,0,0,0,0,0,0,-1,1161,736,0,0
-56,288,0,0,0,0,0,0,0,0,0,-1,1168,736,0,0
-49,288,0,0,0,0,0,0,0,0,0,-1,1175,736,0,0
-42,288,0,0,0,0,0,0,0,0,0,-1,1182,736,0,0
-35,288,0,0,0,0,0,0,0,0,0,-1,1189,736,0,0
-28,288,0,0,0,0,0,0,0,0,0,-1,1196,736,0,0
-21,288,0,0,0,0,0,0,0,0,0,-1,1203,736,0,0
-14,288,0,0,0,0,0,0,0,0,0,-1,1210,736,0,0
-7,288,0,0,0,0,0,0,0,0,0,-1,1217,736,0,0
0,288,0,0,0,0,0,0,0,0,0,-1,1224,736,0,0
7,288,0,0,0,0,0,0,0,0,0,-1,1231,736,0,0
14,288,0,0,0,0,0,0,0,0,0,-1,1238,736,0,0
21,288,0,0,0,0,0,0,0,0,0,-1,1245,736,0,0
28,288,0,0,0,0,0,0,0,0,0,-1,1252,736,0,0
35,288,0,0,0,0,0,0,0,0,0,-1,1259,736,0,0
42,288,0,0,0,0,0,0,0,0,0,-1,1266,736,0,0
49,288,0,0,0,0,0,0,0,0,0,-1,1273,736,0,0
56,288,0,0,0,0,0,0,0,0,0,-1,1280,736,0,0
63,288,0,0,0,0,0,0,0,0,0,-1,1287,736,0,0
70,288,0,0,0,0,0,0,0,0,0,-1,1294,736,0,0
77,288,0,0,0,0,0,0,0,0,0,-1,1301,736,0,0
84,288,0,0,0,0,0,0,0,0,0,-1,1308,736,0,0
91,288,0,0,0,0,0,0,0,0,0,-1,1315,736,0,0
98,288,0,0,0,0,0,0,0,0,0,-1,1322,736,0,0
105,288,0,0,0,0,0,0,0,0,0,-1,1329,736,0,0
112,288,0,0,0,0,0,0,0,0,0,-1,1336,736,0,0
119,288,0,0,0,0,0,0,0,0,0,-1,1343,736,0,0
126,288,0,0,0,0,0,0,0,0,0,-1,1350,736,0,0
133,288,0,0,0,0,0,0,0,0,0,-1,1357,736,0,0
140,288,0,0,0,0,0,0,0,0,0,-1,1364,736,0,0
147,288,0,0,0,0,0,0,0,0,0,-1,1371,736,0,0
154,288,0,0,0,0,0,0,0,0,0,-1,1378,736,0,0
161,288,0,0,0,0,0,0,0,0,0,-1,1385,736,0,0
168,288,0,0,0,0,0,0,0,0,0,-1,1392,736,0,0
175,288,0,0,0,0,0,0,0,0,0,-1,1399,736,0,0
182,288,0,0,0,0,0,0,0,0,0,-1,1406,736,0,0
189,288,0,0,0,0,0,0,0,0,0,-1,1413,736,0,0
196,288,0,0,0,0,0,0,0,0,0,-1,1420,736,0,0
203,288,0,0,0,0,0,0,0,0,0,-1,1427,736,0,0
210,288,0,0,0,0,0,0,0,0,0,-1,1434,736,0,0
217,288,0,0,0,0,0,0,0,0,0,-1,1441,736,0,0
224,288,0,0,0,0,0,0,0,0,0,-1,1448,736,0,0
231,288,0,0,0,0,0,0,0,0,0,-1,1455,736,0,0
238,288,0,0,0,0,0,0,0,0,0,-1,1462,736,0,0
245,288,0,0,0,0,0,0,0,0,0,-1,1469,736,0,0
252,288,0,0,0,0,0,0,0,0,0,-1,1476,736,0,0
259,288,0,0,0,0,0,0,0,0,0,-1,1483,736,0,0
266,288,0,0,0,0,0,0,0,0,0,-1,1490,736,0,0
273,288,0,0,0,0,0,0,0,0,0,-1,1497,736,0,0
280,288,0,0,0,0,0,0,0,0,0,-1,1504,736,0,0
287,288,0,0,0,0,0,0,0,0,0,-1,1511,736,0,0
294,288,0,0,0,0,0,0,0,0,0,-1,1518,736,0,0
301,288,0,0,0,0,0,0,0,0,0,-1,1525,736,0,0
308,288,0,0,0,0,0,0,0,0,0,-1,1532,736,0,0
315,288,0,0,0,0,0,0,0,0,0,-1,1539,736,0,0
322,288,0,0,0,0,0,0,0,0,0,-1,1546,736,0,0
329,288,0,0,0,0,0,0,0,0,0,-1,1553,736,0,0
336,288,0,0,0,0,0,0,0,0,0,-1,1560,736,0,0
343,288,0,0,0,0,0,0,0,0,0,-1,1567,736,0,0
350,288,0,0,0,0,0,0,0,0,0,-1,1574,736,0,0
357,288,0,0,0,0,0,0,0,0,0,-1,1581,736,0,0
364,288,0,0,0,0,0,0,0,0,0,-1,1588,736,0,0
371,288,0,0,0,0,0,0,0,0,0,-1,1595,736,0,0
378,288,0,0,0,0,0,0,0,0,0,-1,1602,736,0,0
385,288,0,0,0,0,0,0,0,0,0,-1,1609,736,0,0
392,288,0,0,0,0,0,0,0,0,0,-1,1616,736,0,0
399,288,0,0,0,0,0,0,0,0,0,-1,1623,736,0,0
406,288,0,0,0,0,0,0,0,0,0,-1,1630,736,0,0
413,288,0,0,0,0,0,0,0,0,0,-1,1637,736,0,0
420,288,0,0,0,0,0,0,0,0,0,-1,1644,736,0,0
427,288,0,0,0,0,0,0,0,0,0,-1,1651,736,0,0
434,288,0,0,0,0,0,0,0,0,0,-1,1658,736,0,0
441,288,0,0,0,0,0,0,0,0,0,-1,1665,736,0,0
448,288,0,0,0,0,0,0,0,0,0,-1,1672,736,0,0
455,288,0,0,0,0,0,0,0,0,0,-1,1679,736,0,0
462,288,0,0,0,0,0,0,0,0,0,-1,1686,736,0,0
469,288,0,0,0,0,0,0,0,0,0,-1,1693,736,0,0
476,288,0,0,0,0,0,0,0,0,0,-1,1700,736,0,0
483,288,0,0,0,0,0,0,0,0,0,-1,1707,736,0,0
490,288,0,0,0,0,0,0,0,0,0,-1,1714,736,0,0
497,288,0,0,0,0,0,0,0,0,0,-1,1721,736,0,0
504,288,0,0,0,0,0,0,0,0,0,-1,1728,736,0,0
511,288,0,0,0,0,0,0,0,0,0,-1,1735,736,0,0
518,288,0,0,0,0,0,0,0,0,0,-1,1742,736,0,0
525,288,0,0,0,0,0,0,0,0,0,-1,1749,736,0,0
532,288,0,0,0,0,0,0,0,0,0,-1,1756,736,0,0
539,288,0,0,0,0,0,0,0,0,0,-1,1763,736,0,0
546,288,0,0,0,0,0,0,0,0,0,-1,1770,736,0,0
553,288,57.4934,2.28064,0,0,0,0,0,0,0,-1,1777,736,57.4934,-2.28064
560,288,57.3807,3.02881,0,0,0,0,0,0,0,-1,1784,736,57.3808,-3.0288
567,288,57.2081,3.74274,0,0,0,0,0,0,0,-1,1791,736,57.2081,-3.74273
574,288,56.9817,4.36981,0,0,0,0,0,0,0,-1,1798,736,56.9816,-4.36984
581,288,53.4904,5.33215,0,0,0,0,0,0,0,-1,1805,736,53.4904,-5.33218
588,288,54.9313,3.29852,0,0,0,0,0,0,0,-1,1812,736,54.9313,-3.29849
595,288,47.035,3.35156,0,0,0,0,0,0,0,-1,1819,736,47.035,-3.35157
602,288,26.7634,7.61279,0,0,0,0,0,0,0,-1,1826,736,26.7635,-7.61279
609,288,17.5223,4.86414,0,0,0,0,0,0,0,-1,1833,736,17.5223,-4.86412
616,288,13.4886,0.801331,0,0,0,0,0,0,0,-1,1840,736,13.4886,-0.80132
623,288,57.6567,-12.0563,0,0,0,0,0,0,0,-1,1847,736,57.6568,12.0563
630,288,180.105,-6.7774,0,0,0,0,0,0,0,-1,1854,736,180.105,6.77742
637,288,178.682,-4.57184,0,0,0,0,0,0,0,-1,1861,736,178.681,4.57183
644,288,177.373,-2.01105,-0.00608125,0.024893,-0.00766381,0.0266855,-0.00787374,-1.34104,0.0209149,0.0469099,1868,736,177.373,2.01102
651,288,176.601,0.997742,-0.00499205,0.0262906,-0.0122675,0.0305275,-0.00922893,-1.23825,0.0240262,0.0277728,1875,736,176.601,-0.997745
658,288,175.856,3.93097,-0.00375373,0.0283872,-0.0164434,0.035309,-0.0106755,-1.17236,0.02779,0.0261433,1882,736,175.856,-3.93095
665,288,175.271,6.64777,-0.00229869,0.0310885,-0.0203343,0.0407039,-0.0119141,-1.12909,0.0318587,0.0256665,1889,736,175.271,-6.6478
672,288,174.835,9.35956,-0.000705064,0.0343713,-0.0239591,0.0465254,-0.0128591,-1.10134,0.0360755,0.0278531,1896,736,174.835,-9.35956
679,288,174.334,12.1222,0.00114387,0.0382315,-0.0272952,0.0526862,-0.0133108,-1.08378,0.0403006,0.0259261,1903,736,174.334,-12.1222
686,288,173.748,14.6431,0.00328944,0.0429572,-0.0303263,0.0593596,-0.013113,-1.07499,0.0445915,0.0205702,1910,736,173.748,-14.6431
693,288,173.284,17.2684,0.00576588,0.0482662,-0.0330769,0.0663308,-0.0122987,-1.07092,0.048839,0.0414204,1917,736,173.284,-17.2683
700,288,172.805,19.9745,0,0,0,0,0,0,0,-1,1924,736,172.805,-19.9745
707,288,30.9496,3.07977,0,0,0,0,0,0,0,-1,1931,736,30.9496,-3.07975
714,288,23.0149,3.82544,0,0,0,0,0,0,0,-1,1938,736,23.0149,-3.82541
721,288,18.0732,3.69385,0,0,0,0,0,0,0,-1,1945,736,18.0732,-3.69387
728,288,19.3208,3.91455,0,0,0,0,0,0,0,-1,1952,736,19.3209,-3.91455
735,288,18.7712,3.51312,0,0,0,0,0,0,0,-1,1959,736,18.7713,-3.51309
742,288,0,0,0,0,0,0,0,0,0,-1,1966,736,0,0
749,288,0,0,0,0,0,0,0,0,0,-1,1973,736,0,0
756,288,0,0,0,0,0,0,0,0,0,-1,1980,736,0,0
763,288,0,0,0,0,0,0,0,0,0,-1,1987,736,0,0
770,288,0,0,0,0,0,0,0,0,0,-1,1994,736,0,0
777,288,0,0,0,0,0,0,0,0,0,-1,2001,736,0,0
784,288,0,0,0,0,0,0,0,0,0,-1,2008,736,0,0
791,288,0,0,0,0,0,0,0,0,0,-1,2015,736,0,0
798,288,0,0,0,0,0,0,0,0,0,-1,2022,736,0,0
805,288,0,0,0,0,0,0,0,0,0,-1,2029,736,0,0
812,288,0,0,0,0,0,0,0,0,0,-1,2036,736,0,0
-700,281,0,0,0,0,0,0,0,0,0,-1,524,743,0,0
-693,281,0,0,0,0,0,0,0,0,0,-1,531,743,0,0
-686,281,0,0,0,0,0,0,0,0,0,-1,538,743,0,0
-679,281,0,0,0,0,0,0,0,0,0,-1,545,743,0,0
-672,281,0,0,0,0,0,0,0,0,0,-1,552,743,0,0
-665,281,0,0,0,0,0,0,0,0,0,-1,559,743,0,0
-658,281,0,0,0,0,0,0,0,0,0,-1,566,743,0,0
-651,281,0,0,0,0,0,0,0,0,0,-1,573,743,0,0
-644,281,0,0,0,0,0,0,0,0,0,-1,580,743,0,0
-637,281,0,0,0,0,0,0,0,0,0,-1,587,743,0,0
-630,281,0,0,0,0,0,0,0,0,0,-1,594,743,0,0
-623,281,-19.1697,5.67017,0,0,0,0,0,0,0,-1,601,743,-19.1697,-5.67019
-616,281,-11.5906,2.6853,0,0,0,0,0,0,0,-1,608,743,-11.5906,-2.68529
-609,281,-16.1972,4.14838,0,0,0,0,0,0,0,-1,615,743,-16.1972,-4.14837
-602,281,-21.9772,6.77417,0,0,0,0,0,0,0,-1,622,743,-21.9771,-6.77415
-595,281,-10.4797,-1.07404,0,0,0,0,0,0,0,-1,629,743,-10.4798,1.07402
-588,281,-61.8041,9.54553,0,0,0,0,0,0,0,-1,636,743,-61.8041,-9.54551
-581,281,-76.5182,10.7938,0,0,0,0,0,0,0,-1,643,743,-76.5183,-10.7938
-574,281,-167.215,22.5122,0,0,0,0,0,0,0,-1,650,743,-167.215,-22.5122
-567,281,-167.467,20.0502,0.00228542,0.0531535,0.037023,0.0726371,-0.0171982,1.08636,0.0550602,0.0334446,657,743,-167.467,-20.0502
-560,281,-167.9,17.5512,0.00262612,0.0483004,0.0335778,0.0660711,-0.0151446,1.08403,0.0498682,0.014859,664,743,-167.9,-17.5512
-553,281,-168.387,14.9986,0.00242078,0.0438922,0.0300694,0.0596824,-0.0133693,1.08725,0.0449129,0.032113,671,743,-168.387,-14.9986
-546,281,-168.837,12.4609,0.00163235,0.0398297,0.0265198,0.0534122,-0.0119502,1.09746,0.0401882,0.0361628,678,743,-168.837,-12.461
-539,281,-169.375,9.73004,0.000300284,0.0360234,0.0230703,0.0473385,-0.0110147,1.11481,0.0357999,0.0222741,685,743,-169.375,-9.73003
-532,281,-169.898,7.0639,-0.00158633,0.0324265,0.0197465,0.0414804,-0.0106403,1.14089,0.0317994,0.0186423,692,743,-169.898,-7.06389
-525,281,-170.393,4.25562,-0.00404884,0.0290997,0.0165591,0.0359542,-0.0109034,1.17833,0.0283126,0.0289838,699,743,-170.393,-4.25561
-518,281,-171.048,1.36713,-0.00717842,0.0261155,0.0135504,0.0309333,-0.0119962,1.22919,0.0255766,0.0386199,706,743,-171.048,-1.36714
-511,281,-172.305,-1.47211,0,0,0,0,0,0,0,-1,713,743,-172.305,1.47213
-504,281,-170.901,-4.57568,0,0,0,0,0,0,0,-1,720,743,-170.901,4.57568
-497,281,-73.8456,-14.3827,0,0,0,0,0,0,0,-1,727,743,-73.8456,14.3827
-490,281,-27.6985,-9.63165,0,0,0,0,0,0,0,-1,734,743,-27.6986,9.63165
-483,281,-22.1078,-2.34973,0,0,0,0,0,0,0,-1,741,743,-22.1078,2.3497
-476,281,-28.0016,2.17786,0,0,0,0,0,0,0,-1,748,743,-28.0016,-2.17786
-469,281,-34.6448,0.171692,0,0,0,0,0,0,0,-1,755,743,-34.6448,-0.171685
-462,281,-46.6214,0.0193481,0,0,0,0,0,0,0,-1,762,743,-46.6214,-0.0193665
-455,281,-56.0239,-0.1521,0,0,0,0,0,0,0,-1,769,743,-56.024,0.152123
-448,281,-55.8145,0.304321,0,0,0,0,0,0,0,-1,776,743,-55.8145,-0.304294
-441,281,-55.4486,0.766052,0,0,0,0,0,0,0,-1,783,743,-55.4486,-0.766078
-434,281,0,0,0,0,0,0,0,0,0,-1,790,743,0,0
-427,281,0,0,0,0,0,0,0,0,0,-1,797,743,0,0
-420,281,0,0,0,0,0,0,0,0,0,-1,804,743,0,0
-413,281,0,0,0,0,0,0,0,0,0,-1,811,743,0,0
-406,281,0,0,0,0,0,0,0,0,0,-1,818,743,0,0
-399,281,0,0,0,0,0,0,0,0,0,-1,825,743,0,0
-392,281,0,0,0,0,0,0,0,0,0,-1,832,743,0,0
-385,281,0,0,0,0,0,0,0,0,0,-1,839,743,0,0
-378,281,0,0,0,0,0,0,0,0,0,-1,846,743,0,0
-371,281,0,0,0,0,0,0,0,0,0,-1,853,743,0,0
-364,281,0,0,0,0,0,0,0,0,0,-1,860,743,0,0
-357,281,0,0,0,0,0,0,0,0,0,-1,867,743,0,0
-350,281,0,0,0,0,0,0,0,0,0,-1,874,743,0,0
-343,281,0,0,0,0,0,0,0,0,0,-1,881,743,0,0
-336,281,0,0,0,0,0,0,0,0,0,-1,888,743,0,0
-329,281,0,0,0,0,0,0,0,0,0,-1,895,743,0,0
-322,281,0,0,0,0,0,0,0,0,0,-1,902,743,0,0
-315,281,0,0,0,0,0,0,0,0,0,-1,909,743,0,0
-308,281,0,0,0,0,0,0,0,0,0,-1,916,743,0,0
-301,281,0,0,0,0,0,0,0,0,0,-1,923,743,0,0
-294,281,0,0,0,0,0,0,0,0,0,-1,930,743,0,0
-287,281,0,0,0,0,0,0,0,0,0,-1,937,743,0,0
-280,281,0,0,0,0,0,0,0,0,0,-1,944,743,0,0
-273,281,0,0,0,0,0,0,0,0,0,-1,951,743,0,0
-266,281,0,0,0,0,0,0,0,0,0,-1,958,743,0,0
-259,281,0,0,0,0,0,0,0,0,0,-1,965,743,0,0
-252,281,0,0,0,0,0,0,0,0,0,-1,972,743,0,0
-245,281,0,0,0,0,0,0,0,0,0,-1,979,743,0,0
-238,281,0,0,0,0,0,0,0,0,0,-1,986,743,0,0
-231,281,0,0,0,0,0,0,0,0,0,-1,993,743,0,0
-224,281,0,0,0,0,0,0,0,0,0,-1,1000,743,0,0
-217,281,0,0,0,0,0,0,0,0,0,-1,1007,743,0,0
-210,281,0,0,0,0,0,0,0,0,0,-1,1014,743,0,0
-203,281,0,0,0,0,0,0,0,0,0,-1,1021,743,0,0
-196,281,0,0,0,0,0,0,0,0,0,-1,1028,743,0,0
-189,281,0,0,0,0,0,0,0,0,0,-1,1035,743,0,0
-182,281,0,0,0,0,0,0,0,0,0,-1,1042,743,0,0
-175,281,0,0,0,0,0,0,0,0,0,-1,1049,743,0,0
-168,281,0,0,0,0,0,0,0,0,0,-1,1056,743,0,0
-161,281,0,0,0,0,0,0,0,0,0,-1,1063,743,0,0
-154,281,0,0,0,0,0,0,0,0,0,-1,1070,743,0,0
-147,281,0,0,0,0,0,0,0,0,0,-1,1077,743,0,0
-140,281,0,0,0,0,0,0,0,0,0,-1,1084,743,0,0
-133,281,0,0,0,0,0,0,0,0,0,-1,1091,743,0,0
-126,281,0,0,0,0,0,0,0,0,0,-1,1098,743,0,0
-119,281,0,0,0,0,0,0,0,0,0,-1,1105,743,0,0
-112,281,0,0,0,0,0,0,0,0,0,-1,1112,743,0,0
-105,281,0,0,0,0,0,0,0,0,0,-1,1119,743,0,0
-98,281,0,0,0,0,0,0,0,0,0,-1,1126,743,0,0
-91,281,0,0,0,0,0,0,0,0,0,-1,1133,743,0,0
-84,281,0,0,0,0,0,0,0,0,0,-1,1140,743,0,0
-77,281,0,0,0,0,0,0,0,0,0,-1,1147,743,0,0
-70,281,0,0,0,0,0,0,0,0,0,-1,1154,743,0,0
-63,281,0,0,0,0,0,0,0,0,0,-1,1161,743,0,0
-56,281,0,0,0,0,0,0,0,0,0,-1,1168,743,0,0
-49,281,0,0,0,0,0,0,0,0,0,-1,1175,743,0,0
-42,281,0,0,0,0,0,0,0,0,0,-1,1182,743,0,0
-35,281,0,0,0,0,0,0,0,0,0,-1,1189,743,0,0
-28,281,0,0,0,0,0,0,0,0,0,-1,1196,743,0,0
-21,281,0,0,0,0,0,0,0,0,0,-1,1203,743,0,0
-14,281,0,0,0,0,0,0,0,0,0,-1,1210,743,0,0
-7,281,0,0,0,0,0,0,0,0,0,-1,1217,743,0,0
0,281,0,0,0,0,0,0,0,0,0,-1,1224,743,0,0
7,281,0,0,0,0,0,0,0,0,0,-1,1231,743,0,0
14,281,0,0,0,0,0,0,0,0,0,-1,1238,743,0,0
21,281,0,0,0,0,0,0,0,0,0,-1,1245,743,0,0
28,281,0,0,0,0,0,0,0,0,0,-1,1252,743,0,0
35,281,0,0,0,0,0,0,0,0,0,-1,1259,743,0,0
42,281,0,0,0,0,0,0,0,0,0,-1,1266,743,0,0
49,281,0,0,0,0,0,0,0,0,0,-1,1273,743,0,0
56,281,0,0,0,0,0,0,0,0,0,-1,1280,743,0,0
63,281,0,0,0,0,0,0,0,0,0,-1,1287,743,0,0
70,281,0,0,0,0,0,0,0,0,0,-1,1294,743,0,0
77,281,0,0,0,0,0,0,0,0,0,-1,1301,743,0,0
84,281,0,0,0,0,0,0,0,0,0,-1,1308,743,0,0
91,281,0,0,0,0,0,0,0,0,0,-1,1315,743,0,0
98,281,0,0,0,0,0,0,0,0,0,-1,1322,743,0,0
105,281,0,0,0,0,0,0,0,0,0,-1,1329,743,0,0
112,281,0,0,0,0,0,0,0,0,0,-1,1336,743,0,0
119,281,0,0,0,0,0,0,0,0,0,-1,1343,743,0,0
126,281,0,0,0,0,0,0,0,0,0,-1,1350,743,0,0
133,281,0,0,0,0,0,0,0,0,0,-1,1357,743,0,0
140,281,0,0,0,0,0,0,0,0,0,-1,1364,743,0,0
147,281,0,0,0,0,0,0,0,0,0,-1,1371,743,0,0
154,281,0,0,0,0,0,0,0,0,0,-1,1378,743,0,0
161,281,0,0,0,0,0,0,0,0,0,-1,1385,743,0,0
168,281,0,0,0,0,0,0,0,0,0,-1,1392,743,0,0
175,281,0,0,0,0,0,0,0,0,0,-1,1399,743,0,0
182,281,0,0,0,0,0,0,0,0,0,-1,1406,743,0,0
189,281,0,0,0,0,0,0,0,0,0,-1,1413,743,0,0
196,281,0,0,0,0,0,0,0,0,0,-1,1420,743,0,0
203,281,0,0,0,0,0,0,0,0,0,-1,1427,743,0,0
210,281,0,0,0,0,0,0,0,0,0,-1,1434,743,0,0
217,281,0,0,0,0,0,0,0,0,0,-1,1441,743,0,0
224,281,0,0,0,0,0,0,0,0,0,-1,1448,743,0,0
231,281,0,0,0,0,0,0,0,0,0,-1,1455,743,0,0
238,281,0,0,0,0,0,0,0,0,0,-1,1462,743,0,0
245,281,0,0,0,0,0,0,0,0,0,-1,1469,743,0,0
252,281,0,0,0,0,0,0,0,0,0,-1,1476,743,0,0
259,281,0,0,0,0,0,0,0,0,0,-1,1483,743,0,0
266,281,0,0,0,0,0,0,0,0,0,-1,1490,743,0,0
273,281,0,0,0,0,0,0,0,0,0,-1,1497,743,0,0
280,281,0,0,0,0,0,0,0,0,0,-1,1504,743,0,0
287,281,0,0,0,0,0,0,0,0,0,-1,1511,743,0,0
294,281,0,0,0,0,0,0,0,0,0,-1,1518,743,0,0
301,281,0,0,0,0,0,0,0,0,0,-1,1525,743,0,0
308,281,0,0,0,0,0,0,0,0,0,-1,1532,743,0,0
315,281,0,0,0,0,0,0,0,0,0,-1,1539,743,0,0
322,281,0,0,0,0,0,0,0,0,0,-1,1546,743,0,0
329,281,0,0,0,0,0,0,0,0,0,-1,1553,743,0,0
336,281,0,0,0,0,0,0,0,0,0,-1,1560,743,0,0
343,281,0,0,0,0,0,0,0,0,0,-1,1567,743,0,0
350,281,0,0,0,0,0,0,0,0,0,-1,1574,743,0,0
357,281,0,0,0,0,0,0,0,0,0,-1,1581,743,0,0
364,281,0,0,0,0,0,0,0,0,0,-1,1588,743,0,0
371,281,0,0,0,0,0,0,0,0,0,-1,1595,743,0,0
378,281,0,0,0,0,0,0,0,0,0,-1,1602,743,0,0
385,281,0,0,0,0,0,0,0,0,0,-1,1609,743,0,0
392,281,0,0,0,0,0,0,0,0,0,-1,1616,743,0,0
399,281,0,0,0,0,0,0,0,0,0,-1,1623,743,0,0
406,281,0,0,0,0,0,0,0,0,0,-1,1630,743,0,0
413,281,0,0,0,0,0,0,0,0,0,-1,1637,743,0,0
420,281,0,0,0,0,0,0,0,0,0,-1,1644,743,0,0
427,281,0,0,0,0,0,0,0,0,0,-1,1651,743,0,0
434,281,0,0,0,0,0,0,0,0,0,-1,1658,743,0,0
441,281,0,0,0,0,0,0,0,0,0,-1,1665,743,0,0
448,281,0,0,0,0,0,0,0,0,0,-1,1672,743,0,0
455,281,0,0,0,0,0,0,0,0,0,-1,1679,743,0,0
462,281,0,0,0,0,0,0,0,0,0,-1,1686,743,0,0
469,281,0,0,0,0,0,0,0,0,0,-1,1693,743,0,0
476,281,0,0,0,0,0,0,0,0,0,-1,1700,743,0,0
483,281,0,0,0,0,0,0,0,0,0,-1,1707,743,0,0
490,281,0,0,0,0,0,0,0,0,0,-1,1714,743,0,0
497,281,0,0,0,0,0,0,0,0,0,-1,1721,743,0,0
504,281,0,0,0,0,0,0,0,0,0,-1,1728,743,0,0
511,281,0,0,0,0,0,0,0,0,0,-1,1735,743,0,0
518,281,0,0,0,0,0,0,0,0,0,-1,1742,743,0,0
525,281,0,0,0,0,0,0,0,0,0,-1,1749,743,0,0
532,281,0,0,0,0,0,0,0,0,0,-1,1756,743,0,0
539,281,0,0,0,0,0,0,0,0,0,-1,1763,743,0,0
546,281,0,0,0,0,0,0,0,0,0,-1,1770,743,0,0
553,281,0,0,0,0,0,0,0,0,0,-1,1777,743,0,0
560,281,57.8354,3.06482,0,0,0,0,0,0,0,-1,1784,743,57.8354,-3.06479
567,281,57.6156,3.64508,0,0,0,0,0,0,0,-1,1791,743,57.6156,-3.64511
574,281,57.3431,4.17767,0,0,0,0,0,0,0,-1,1798,743,57.3431,-4.17769
581,281,57.0648,4.53906,0,0,0,0,0,0,0,-1,1805,743,57.0648,-4.53908
588,281,53.5422,6.00092,0,0,0,0,0,0,0,-1,1812,743,53.5422,-6.00092
595,281,54.8569,3.32269,0,0,0,0,0,0,0,-1,1819,743,54.857,-3.32269
602,281,45.9985,3.98254,0,0,0,0,0,0,0,-1,1826,743,45.9985,-3.98254
609,281,32.7925,1.28723,0,0,0,0,0,0,0,-1,1833,743,32.7925,-1.28722
616,281,21.3191,-0.253906,0,0,0,0,0,0,0,-1,1840,743,21.3191,0.253931
623,281,31.8741,-4.74182,0,0,0,0,0,0,0,-1,1847,743,31.8741,4.74184
630,281,83.0317,-13.8112,0,0,0,0,0,0,0,-1,1854,743,83.0318,13.8112
637,281,181.361,-3.80139,0,0,0,0,0,0,0,-1,1861,743,181.361,3.80142
644,281,180.127,-1.1499,0,0,0,0,0,0,0,-1,1868,743,180.127,1.1499
651,281,179.562,1.5874,0,0,0,0,0,0,0,-1,1875,743,179.562,-1.5874
658,281,178.988,4.33228,-0.00558362,0.0263902,-0.0136987,0.0314564,-0.0106498,-1.21656,0.02528,0.031595,1882,743,178.988,-4.33229
665,281,178.328,7.06433,-0.0042641,0.0291393,-0.0176398,0.0367298,-0.0118546,-1.16444,0.0292501,0.0318551,1889,743,178.328,-7.06434
672,281,177.871,9.83905,-0.00277185,0.0324962,-0.0213403,0.0425455,-0.0128211,-1.13069,0.0334663,0.0230411,1896,743,177.871,-9.83907
679,281,177.348,12.5055,-0.00102141,0.036399,-0.0248082,0.0487616,-0.013384,-1.10849,0.037768,0.0390123,1903,743,177.348,-12.5055
686,281,176.858,15.0363,0.00107888,0.0410019,-0.0280103,0.0554357,-0.0133549,-1.09498,0.0421205,0.0329039,1910,743,176.858,-15.0363
693,281,176.363,17.5191,0.00355907,0.0462213,-0.0309542,0.0624825,-0.0127021,-1.08709,0.0464713,0.0242461,1917,743,176.363,-17.5191
700,281,175.954,20.1969,0,0,0,0,0,0,0,-1,1924,743,175.954,-20.1969
707,281,53.7238,1.7442,0,0,0,0,0,0,0,-1,1931,743,53.7237,-1.74422
714,281,25.0125,2.5105,0,0,0,0,0,0,0,-1,1938,743,25.0124,-2.51053
721,281,16.9656,3.22174,0,0,0,0,0,0,0,-1,1945,743,16.9656,-3.22172
728,281,19.0251,3.63934,0,0,0,0,0,0,0,-1,1952,743,19.0252,-3.63932
735,281,19.0869,2.50311,0,0,0,0,0,0,0,-1,1959,743,19.0869,-2.5031
742,281,0,0,0,0,0,0,0,0,0,-1,1966,743,0,0
749,281,0,0,0,0,0,0,0,0,0,-1,1973,743,0,0
756,281,0,0,0,0,0,0,0,0,0,-1,1980,743,0,0
763,281,0,0,0,0,0,0,0,0,0,-1,1987,743,0,0
770,281,0,0,0,0,0,0,0,0,0,-1,1994,743,0,0
777,281,0,0,0,0,0,0,0,0,0,-1,2001,743,0,0
784,281,0,0,0,0,0,0,0,0,0,-1,2008,743,0,0
791,281,0,0,0,0,0,0,0,0,0,-1,2015,743,0,0
798,281,0,0,0,0,0,0,0,0,0,-1,2022,743,0,0
805,281,0,0,0,0,0,0,0,0,0,-1,2029,743,0,0
812,281,0,0,0,0,0,0,0,0,0,-1,2036,743,0,0
-700,274,0,0,0,0,0,0,0,0,0,-1,524,750,0,0
-693,274,0,0,0,0,0,0,0,0,0,-1,531,750,0,0
-686,274,0,0,0,0,0,0,0,0,0,-1,538,750,0,0
-679,274,0,0,0,0,0,0,0,0,0,-1,545,750,0,0
-672,274,0,0,0,0,0,0,0,0,0,-1,552,750,0,0
-665,274,0,0,0,0,0,0,0,0,0,-1,559,750,0,0
-658,274,0,0,0,0,0,0,0,0,0,-1,566,750,0,0
-651,274,0,0,0,0,0,0,0,0,0,-1,573,750,0,0
-644,274,0,0,0,0,0,0,0,0,0,-1,580,750,0,0
-637,274,0,0,0,0,0,0,0,0,0,-1,587,750,0,0
-630,274,0,0,0,0,0,0,0,0,0,-1,594,750,0,0
-623,274,-19.6909,5.12701,0,0,0,0,0,0,0,-1,601,750,-19.6908,-5.12703
-616,274,-17.9133,3.9024,0,0,0,0,0,0,0,-1,608,750,-17.9133,-3.90239
-609,274,-26.0861,5.57306,0,0,0,0,0,0,0,-1,615,750,-26.0861,-5.57307
-602,274,-25.7372,3.73846,0,0,0,0,0,0,0,-1,622,750,-25.7372,-3.73849
-595,274,-25.258,2.53473,0,0,0,0,0,0,0,-1,629,750,-25.258,-2.53474
-588,274,-73.9796,12.9916,0,0,0,0,0,0,0,-1,636,750,-73.9796,-12.9916
-581,274,-110.397,18.036,0,0,0,0,0,0,0,-1,643,750,-110.397,-18.036
-574,274,-169.88,23.0662,0,0,0,0,0,0,0,-1,650,750,-169.88,-23.0662
-567,274,-170.399,20.4413,0.00136185,0.0514185,0.0337574,0.0684138,-0.0156334,1.10439,0.0516156,0.0475049,657,750,-170.399,-20.4413
-560,274,-170.917,18.1853,0.00144663,0.0463914,0.0305161,0.0618168,-0.0139788,1.10277,0.0465754,0.0235608,664,750,-170.917,-18.1853
-553,274,-171.557,15.4332,0.00110815,0.0418322,0.0271262,0.0553883,-0.012448,1.10735,0.0416989,0.0190705,671,750,-171.557,-15.4332
-546,274,-171.968,12.8093,0.000253933,0.0376789,0.0236871,0.0491531,-0.0112203,1.1197,0.0370791,0.0220202,678,750,-171.968,-12.8093
-539,274,-172.394,10.1827,-0.00105381,0.0337693,0.0202848,0.0430904,-0.010375,1.14006,0.0327379,0.0176177,685,750,-172.394,-10.1827
-532,274,-172.916,7.55945,-0.00289514,0.0300964,0.0169844,0.0372772,-0.0100759,1.1708,0.0288037,0.019772,692,750,-172.916,-7.55942
-525,274,-173.362,4.70782,-0.00531435,0.026804,0.0137628,0.0318945,-0.0104049,1.21652,0.0254504,0.0299946,699,750,-173.362,-4.70783
-518,274,-173.902,1.96075,-0.00848054,0.0238599,0.010731,0.0270966,-0.0117173,1.27785,0.0229881,0.0399668,706,750,-173.902,-1.96074
-511,274,-174.633,-0.817749,0,0,0,0,0,0,0,-1,713,750,-174.632,0.817729
-504,274,-78.1935,-12.3701,0,0,0,0,0,0,0,-1,720,750,-78.1935,12.3701
-497,274,-40.4099,-10.8548,0,0,0,0,0,0,0,-1,727,750,-40.4099,10.8548
-490,274,-13.6545,-3.58826,0,0,0,0,0,0,0,-1,734,750,-13.6546,3.58825
-483,274,-27.8608,1.30981,0,0,0,0,0,0,0,-1,741,750,-27.8608,-1.30979
-476,274,-33.7561,-0.508606,0,0,0,0,0,0,0,-1,748,750,-33.7561,0.508636
-469,274,-41.1387,0.907715,0,0,0,0,0,0,0,-1,755,750,-41.1387,-0.907744
-462,274,-56.4362,0.240723,0,0,0,0,0,0,0,-1,762,750,-56.4362,-0.240732
-455,274,-67.431,1.67236,0,0,0,0,0,0,0,-1,769,750,-67.431,-1.67238
-448,274,-56.1052,0.421143,0,0,0,0,0,0,0,-1,776,750,-56.1052,-0.421134
-441,274,0,0,0,0,0,0,0,0,0,-1,783,750,0,0
-434,274,0,0,0,0,0,0,0,0,0,-1,790,750,0,0
-427,274,0,0,0,0,0,0,0,0,0,-1,797,750,0,0
-420,274,0,0,0,0,0,0,0,0,0,-1,804,750,0,0
-413,274,0,0,0,0,0,0,0,0,0,-1,811,750,0,0
-406,274,0,0,0,0,0,0,0,0,0,-1,818,750,0,0
-399,274,0,0,0,0,0,0,0,0,0,-1,825,750,0,0
-392,274,0,0,0,0,0,0,0,0,0,-1,832,750,0,0
-385,274,0,0,0,0,0,0,0,0,0,-1,839,750,0,0
-378,274,0,0,0,0,0,0,0,0,0,-1,846,750,0,0
-371,274,0,0,0,0,0,0,0,0,0,-1,853,750,0,0
-364,274,0,0,0,0,0,0,0,0,0,-1,860,750,0,0
-357,274,0,0,0,0,0,0,0,0,0,-1,867,750,0,0
-350,274,0,0,0,0,0,0,0,0,0,-1,874,750,0,0
-343,274,0,0,0,0,0,0,0,0,0,-1,881,750,0,0
-336,274,0,0,0,0,0,0,0,0,0,-1,888,750,0,0
-329,274,0,0,0,0,0,0,0,0,0,-1,895,750,0,0
-322,274,0,0,0,0,0,0,0,0,0,-1,902,750,0,0
-315,274,0,0,0,0,0,0,0,0,0,-1,909,750,0,0
-308,274,0,0,0,0,0,0,0,0,0,-1,916,750,0,0
-301,274,0,0,0,0,0,0,0,0,0,-1,923,750,0,0
-294,274,0,0,0,0,0,0,0,0,0,-1,930,750,0,0
-287,274,0,0,0,0,0,0,0,0,0,-1,937,750,0,0
-280,274,0,0,0,0,0,0,0,0,0,-1,944,750,0,0
-273,274,0,0,0,0,0,0,0,0,0,-1,951,750,0,0
-266,274,0,0,0,0,0,0,0,0,0,-1,958,750,0,0
-259,274,0,0,0,0,0,0,0,0,0,-1,965,750,0,0
-252,274,0,0,0,0,0,0,0,0,0,-1,972,750,0,0
-245,274,0,0,0,0,0,0,0,0,0,-1,979,750,0,0
-238,274,0,0,0,0,0,0,0,0,0,-1,986,750,0,0
-231,274,0,0,0,0,0,0,0,0,0,-1,993,750,0,0
-224,274,0,0,0,0,0,0,0,0,0,-1,1000,750,0,0
-217,274,0,0,0,0,0,0,0,0,0,-1,1007,750,0,0
-210,274,0,0,0,0,0,0,0,0,0,-1,1014,750,0,0
-203,274,0,0,0,0,0,0,0,0,0,-1,1021,750,0,0
-196,274,0,0,0,0,0,0,0,0,0,-1,1028,750,0,0
-189,274,0,0,0,0,0,0,0,0,0,-1,1035,750,0,0
-182,274,0,0,0,0,0,0,0,0,0,-1,1042,750,0,0
-175,274,0,0,0,0,0,0,0,0,0,-1,1049,750,0,0
-168,274,0,0,0,0,0,0,0,0,0,-1,1056,750,0,0
-161,274,0,0,0,0,0,0,0,0,0,-1,1063,750,0,0
-154,274,0,0,0,0,0,0,0,0,0,-1,1070,750,0,0
-147,274,0,0,0,0,0,0,0,0,0,-1,1077,750,0,0
-140,274,0,0,0,0,0,0,0,0,0,-1,1084,750,0,0
-133,274,0,0,0,0,0,0,0,0,0,-1,1091,750,0,0
-126,274,0,0,0,0,0,0,0,0,0,-1,1098,750,0,0
-119,274,0,0,0,0,0,0,0,0,0,-1,1105,750,0,0
-112,274,0,0,0,0,0,0,0,0,0,-1,1112,750,0,0
-105,274,0,0,0,0,0,0,0,0,0,-1,1119,750,0,0
-98,274,0,0,0,0,0,0,0,0,0,-1,1126,750,0,0
-91,274,0,0,0,0,0,0,0,0,0,-1,1133,750,0,0
-84,274,0,0,0,0,0,0,0,0,0,-1,1140,750,0,0
-77,274,0,0,0,0,0,0,0,0,0,-1,1147,750,0,0
-70,274,0,0,0,0,0,0,0,0,0,-1,1154,750,0,0
-63,274,0,0,0,0,0,0,0,0,0,-1,1161,750,0,0
-56,274,0,0,0,0,0,0,0,0,0,-1,1168,750,0,0
-49,274,0,0,0,0,0,0,0,0,0,-1,1175,750,0,0
-42,274,0,0,0,0,0,0,0,0,0,-1,1182,750,0,0
-35,274,0,0,0,0,0,0,0,0,0,-1,1189,750,0,0
-28,274,0,0,0,0,0,0,0,0,0,-1,1196,750,0,0
-21,274,0,0,0,0,0,0,0,0,0,-1,1203,750,0,0
-14,274,0,0,0,0,0,0,0,0,0,-1,1210,750,0,0
-7,274,0,0,0,0,0,0,0,0,0,-1,1217,750,0,0
0,274,0,0,0,0,0,0,0,0,0,-1,1224,750,0,0
7,274,0,0,0,0,0,0,0,0,0,-1,1231,750,0,0
14,274,0,0,0,0,0,0,0,0,0,-1,1238,750,0,0
21,274,0,0,0,0,0,0,0,0,0,-1,1245,750,0,0
28,274,0,0,0,0,0,0,0,0,0,-1,1252,750,0,0
35,274,0,0,0,0,0,0,0,0,0,-1,1259,750,0,0
42,274,0,0,0,0,0,0,0,0,0,-1,1266,750,0,0
49,274,0,0,0,0,0,0,0,0,0,-1,1273,750,0,0
56,274,0,0,0,0,0,0,0,0,0,-1,1280,750,0,0
63,274,0,0,0,0,0,0,0,0,0,-1,1287,750,0,0
70,274,0,0,0,0,0,0,0,0,0,-1,1294,750,0,0
77,274,0,0,0,0,0,0,0,0,0,-1,1301,750,0,0
84,274,0,0,0,0,0,0,0,0,0,-1,1308,750,0,0
91,274,0,0,0,0,0,0,0,0,0,-1,1315,750,0,0
98,274,0,0,0,0,0,0,0,0,0,-1,1322,750,0,0
105,274,0,0,0,0,0,0,0,0,0,-1,1329,750,0,0
112,274,0,0,0,0,0,0,0,0,0,-1,1336,750,0,0
119,274,0,0,0,0,0,0,0,0,0,-1,1343,750,0,0
126,274,0,0,0,0,0,0,0,0,0,-1,1350,750,0,0
133,274,0,0,0,0,0,0,0,0,0,-1,1357,750,0,0
140,274,0,0,0,0,0,0,0,0,0,-1,1364,750,0,0
147,274,0,0,0,0,0,0,0,0,0,-1,1371,750,0,0
154,274,0,0,0,0,0,0,0,0,0,-1,1378,750,0,0
161,274,0,0,0,0,0,0,0,0,0,-1,1385,750,0,0
168,274,0,0,0,0,0,0,0,0,0,-1,1392,750,0,0
175,274,0,0,0,0,0,0,0,0,0,-1,1399,750,0,0
182,274,0,0,0,0,0,0,0,0,0,-1,1406,750,0,0
189,274,0,0,0,0,0,0,0,0,0,-1,1413,750,0,0
196,274,0,0,0,0,0,0,0,0,0,-1,1420,750,0,0
203,274,0,0,0,0,0,0,0,0,0,-1,1427,750,0,0
210,274,0,0,0,0,0,0,0,0,0,-1,1434,750,0,0
217,274,0,0,0,0,0,0,0,0,0,-1,1441,750,0,0
224,274,0,0,0,0,0,0,0,0,0,-1,1448,750,0,0
231,274,0,0,0,0,0,0,0,0,0,-1,1455,750,0,0
238,274,0,0,0,0,0,0,0,0,0,-1,1462,750,0,0
245,274,0,0,0,0,0,0,0,0,0,-1,1469,750,0,0
252,274,0,0,0,0,0,0,0,0,0,-1,1476,750,0,0
259,274,0,0,0,0,0,0,0,0,0,-1,1483,750,0,0
266,274,0,0,0,0,0,0,0,0,0,-1,1490,750,0,0
273,274,0,0,0,0,0,0,0,0,0,-1,1497,750,0,0
280,274,0,0,0,0,0,0,0,0,0,-1,1504,750,0,0
287,274,0,0,0,0,0,0,0,0,0,-1,1511,750,0,0
294,274,0,0,0,0,0,0,0,0,0,-1,1518,750,0,0
301,274,0,0,0,0,0,0,0,0,0,-1,1525,750,0,0
308,274,0,0,0,0,0,0,0,0,0,-1,1532,750,0,0
315,274,0,0,0,0,0,0,0,0,0,-1,1539,750,0,0
322,274,0,0,0,0,0,0,0,0,0,-1,1546,750,0,0
329,274,0,0,0,0,0,0,0,0,0,-1,1553,750,0,0
336,274,0,0,0,0,0,0,0,0,0,-1,1560,750,0,0
343,274,0,0,0,0,0,0,0,0,0,-1,1567,750,0,0
350,274,0,0,0,0,0,0,0,0,0,-1,1574,750,0,0
357,274,0,0,0,0,0,0,0,0,0,-1,1581,750,0,0
364,274,0,0,0,0,0,0,0,0,0,-1,1588,750,0,0
371,274,0,0,0,0,0,0,0,0,0,-1,1595,750,0,0
378,274,0,0,0,0,0,0,0,0,0,-1,1602,750,0,0
385,274,0,0,0,0,0,0,0,0,0,-1,1609,750,0,0
392,274,0,0,0,0,0,0,0,0,0,-1,1616,750,0,0
399,274,0,0,0,0,0,0,0,0,0,-1,1623,750,0,0
406,274,0,0,0,0,0,0,0,0,0,-1,1630,750,0,0
413,274,0,0,0,0,0,0,0,0,0,-1,1637,750,0,0
420,274,0,0,0,0,0,0,0,0,0,-1,1644,750,0,0
427,274,0,0,0,0,0,0,0,0,0,-1,1651,750,0,0
434,274,0,0,0,0,0,0,0,0,0,-1,1658,750,0,0
441,274,0,0,0,0,0,0,0,0,0,-1,1665,750,0,0
448,274,0,0,0,0,0,0,0,0,0,-1,1672,750,0,0
455,274,0,0,0,0,0,0,0,0,0,-1,1679,750,0,0
462,274,0,0,0,0,0,0,0,0,0,-1,1686,750,0,0
469,274,0,0,0,0,0,0,0,0,0,-1,1693,750,0,0
476,274,0,0,0,0,0,0,0,0,0,-1,1700,750,0,0
483,274,0,0,0,0,0,0,0,0,0,-1,1707,750,0,0
490,274,0,0,0,0,0,0,0,0,0,-1,1714,750,0,0
497,274,0,0,0,0,0,0,0,0,0,-1,1721,750,0,0
504,274,0,0,0,0,0,0,0,0,0,-1,1728,750,0,0
511,274,0,0,0,0,0,0,0,0,0,-1,1735,750,0,0
518,274,0,0,0,0,0,0,0,0,0,-1,1742,750,0,0
525,274,0,0,0,0,0,0,0,0,0,-1,1749,750,0,0
532,274,0,0,0,0,0,0,0,0,0,-1,1756,750,0,0
539,274,0,0,0,0,0,0,0,0,0,-1,1763,750,0,0
546,274,0,0,0,0,0,0,0,0,0,-1,1770,750,0,0
553,274,0,0,0,0,0,0,0,0,0,-1,1777,750,0,0
560,274,57.9182,3.24518,0,0,0,0,0,0,0,-1,1784,750,57.9182,-3.24516
567,274,57.8315,3.4137,0,0,0,0,0,0,0,-1,1791,750,57.8315,-3.41368
574,274,58.2571,3.11115,0,0,0,0,0,0,0,-1,1798,750,58.2571,-3.11114
581,274,54.4941,4.68127,0,0,0,0,0,0,0,-1,1805,750,54.4941,-4.68125
588,274,53.9908,5.6676,0,0,0,0,0,0,0,-1,1812,750,53.9908,-5.66763
595,274,66.2316,2.66986,0,0,0,0,0,0,0,-1,1819,750,66.2315,-2.66988
602,274,55.6321,2.56519,0,0,0,0,0,0,0,-1,1826,750,55.6321,-2.56521
609,274,44.6676,3.10461,0,0,0,0,0,0,0,-1,1833,750,44.6676,-3.1046
616,274,32.7869,1.78436,0,0,0,0,0,0,0,-1,1840,750,32.7868,-1.78437
623,274,24.8231,-1.80353,0,0,0,0,0,0,0,-1,1847,750,24.8232,1.80351
630,274,58.5311,-10.4259,0,0,0,0,0,0,0,-1,1854,750,58.5312,10.4259
637,274,93.1326,-11.4611,0,0,0,0,0,0,0,-1,1861,750,93.1325,11.4611
644,274,96.5939,-11.506,0,0,0,0,0,0,0,-1,1868,750,96.5939,11.506
651,274,182.554,1.89551,0,0,0,0,0,0,0,-1,1875,750,182.554,-1.89551
658,274,181.987,4.85028,-0.00733119,0.0241775,-0.0111523,0.0277253,-0.010879,-1.2628,0.0229847,0.0290989,1882,750,181.987,-4.85026
665,274,181.446,7.57251,-0.00603894,0.0269471,-0.0151436,0.0328449,-0.0119368,-1.19941,0.0267776,0.0242133,1889,750,181.446,-7.57252
672,274,180.834,10.2943,-0.00459377,0.0303078,-0.0189217,0.0385973,-0.0128832,-1.15789,0.0309335,0.0215839,1896,750,180.834,-10.2943
679,274,180.324,12.9445,-0.00294872,0.0342124,-0.0224975,0.0448102,-0.0135465,-1.13056,0.0352671,0.025662,1903,750,180.324,-12.9445
686,274,179.854,15.4226,-0.000973603,0.0386757,-0.0258479,0.0514261,-0.0137239,-1.11254,0.0396583,0.0300421,1910,750,179.854,-15.4226
693,274,179.368,17.9407,0.00136705,0.0437255,-0.0289776,0.0584386,-0.0133461,-1.10097,0.0440864,0.021514,1917,750,179.368,-17.9407
700,274,178.855,20.4748,0.00421122,0.0494312,-0.031844,0.0658756,-0.0122333,-1.09411,0.0485118,0.0337102,1924,750,178.855,-20.4748
707,274,178.591,22.8311,0,0,0,0,0,0,0,-1,1931,750,178.591,-22.8311
714,274,49.125,2.56622,0,0,0,0,0,0,0,-1,1938,750,49.1251,-2.5662
721,274,25.6215,3.91144,0,0,0,0,0,0,0,-1,1945,750,25.6214,-3.91141
728,274,19.2209,3.95154,0,0,0,0,0,0,0,-1,1952,750,19.221,-3.95151
735,274,20.6608,4.10931,0,0,0,0,0,0,0,-1,1959,750,20.6607,-4.10932
742,274,11.7815,-0.740234,0,0,0,0,0,0,0,-1,1966,750,11.7815,0.740253
749,274,0,0,0,0,0,0,0,0,0,-1,1973,750,0,0
756,274,0,0,0,0,0,0,0,0,0,-1,1980,750,0,0
763,274,0,0,0,0,0,0,0,0,0,-1,1987,750,0,0
770,274,0,0,0,0,0,0,0,0,0,-1,1994,750,0,0
777,274,0,0,0,0,0,0,0,0,0,-1,2001,750,0,0
784,274,0,0,0,0,0,0,0,0,0,-1,2008,750,0,0
791,274,0,0,0,0,0,0,0,0,0,-1,2015,750,0,0
798,274,0,0,0,0,0,0,0,0,0,-1,2022,750,0,0
805,274,0,0,0,0,0,0,0,0,0,-1,2029,750,0,0
812,274,0,0,0,0,0,0,0,0,0,-1,2036,750,0,0
-700,267,0,0,0,0,0,0,0,0,0,-1,524,757,0,0
-693,267,0,0,0,0,0,0,0,0,0,-1,531,757,0,0
-686,267,0,0,0,0,0,0,0,0,0,-1,538,757,0,0
-679,267,0,0,0,0,0,0,0,0,0,-1,545,757,0,0
-672,267,0,0,0,0,0,0,0,0,0,-1,552,757,0,0
-665,267,0,0,0,0,0,0,0,0,0,-1,559,757,0,0
-658,267,0,0,0,0,0,0,0,0,0,-1,566,757,0,0
-651,267,0,0,0,0,0,0,0,0,0,-1,573,757,0,0
-644,267,0,0,0,0,0,0,0,0,0,-1,580,757,0,0
-637,267,0,0,0,0,0,0,0,0,0,-1,587,757,0,0
-630,267,-21.3979,5.17529,0,0,0,0,0,0,0,-1,594,757,-21.3979,-5.17529
-623,267,-20.043,4.43115,0,0,0,0,0,0,0,-1,601,757,-20.043,-4.43116
-616,267,-27.1628,5.9325,0,0,0,0,0,0,0,-1,608,757,-27.1629,-5.93249
-609,267,-26.9868,4.99658,0,0,0,0,0,0,0,-1,615,757,-26.9868,-4.99656
-602,267,-26.6637,3.74072,0,0,0,0,0,0,0,-1,622,757,-26.6637,-3.74075
-595,267,-32.7299,2.1203,0,0,0,0,0,0,0,-1,629,757,-32.7299,-2.12028
-588,267,-96.1294,17.3846,0,0,0,0,0,0,0,-1,636,757,-96.1294,-17.3846
-581,267,-172.691,25.5863,0,0,0,0,0,0,0,-1,643,757,-172.691,-25.5863
-574,267,-172.924,23.2397,0,0,0,0,0,0,0,-1,650,757,-172.924,-23.2397
-567,267,-173.463,20.7692,0.000759073,0.0495955,0.0304138,0.0641805,-0.0138259,1.12364,0.0480631,0.0457095,657,757,-173.463,-20.7691
-560,267,-173.928,18.4645,0.000602206,0.0444123,0.0273773,0.0575692,-0.0125548,1.1228,0.0431772,0.0321676,664,757,-173.928,-18.4645
-553,267,-174.356,15.9866,0.000133996,0.0397161,0.0241502,0.0511487,-0.0112986,1.12866,0.0384231,0.0284431,671,757,-174.356,-15.9866
-546,267,-174.871,13.3275,-0.000778387,0.0354733,0.020874,0.0449929,-0.010298,1.14292,0.0339525,0.0164483,678,757,-174.871,-13.3274
-539,267,-175.223,10.613,-0.00207624,0.0314828,0.0175992,0.0390196,-0.00961302,1.16618,0.0297399,0.0220927,685,757,-175.223,-10.613
-532,267,-175.786,7.73706,-0.003879,0.0277957,0.0144064,0.0333678,-0.00945112,1.20174,0.0259752,0.0372229,692,757,-175.786,-7.73706
-525,267,-176.397,5.11902,-0.00625921,0.0246513,0.0112376,0.0283049,-0.00991279,1.25645,0.0229009,0.0337592,699,757,-176.397,-5.11903
-518,267,-176.855,2.48474,-0.00950997,0.0218597,0.00830793,0.0239241,-0.0115744,1.32724,0.0209044,0.0418834,706,757,-176.855,-2.48476
-511,267,-177.322,-0.183594,0,0,0,0,0,0,0,-1,713,757,-177.322,0.183613
-504,267,-67.1038,-11.0731,0,0,0,0,0,0,0,-1,720,757,-67.1038,11.073
-497,267,-31.5913,-8.72119,0,0,0,0,0,0,0,-1,727,757,-31.5913,8.72117
-490,267,-23.4949,-0.494995,0,0,0,0,0,0,0,-1,734,757,-23.4949,0.494981
-483,267,-33.2785,-0.448425,0,0,0,0,0,0,0,-1,741,757,-33.2785,0.448407
-476,267,-40.2954,0.52002,0,0,0,0,0,0,0,-1,748,757,-40.2954,-0.520037
-469,267,-52.9857,0.187744,0,0,0,0,0,0,0,-1,755,757,-52.9857,-0.187726
-462,267,-67.6375,0.974915,0,0,0,0,0,0,0,-1,762,757,-67.6374,-0.974935
-455,267,-71.4348,0.0582886,0,0,0,0,0,0,0,-1,769,757,-71.4348,-0.0582862
-448,267,-68.0212,1.50757,0,0,0,0,0,0,0,-1,776,757,-68.0212,-1.50758
-441,267,0,0,0,0,0,0,0,0,0,-1,783,757,0,0
-434,267,0,0,0,0,0,0,0,0,0,-1,790,757,0,0
-427,267,0,0,0,0,0,0,0,0,0,-1,797,757,0,0
-420,267,0,0,0,0,0,0,0,0,0,-1,804,757,0,0
-413,267,0,0,0,0,0,0,0,0,0,-1,811,757,0,0
-406,267,0,0,0,0,0,0,0,0,0,-1,818,757,0,0
-399,267,0,0,0,0,0,0,0,0,0,-1,825,757,0,0
-392,267,0,0,0,0,0,0,0,0,0,-1,832,757,0,0
-385,267,0,0,0,0,0,0,0,0,0,-1,839,757,0,0
-378,267,0,0,0,0,0,0,0,0,0,-1,846,757,0,0
-371,267,0,0,0,0,0,0,0,0,0,-1,853,757,0,0
-364,267,0,0,0,0,0,0,0,0,0,-1,860,757,0,0
-357,267,0,0,0,0,0,0,0,0,0,-1,867,757,0,0
-350,267,0,0,0,0,0,0,0,0,0,-1,874,757,0,0
-343,267,0,0,0,0,0,0,0,0,0,-1,881,757,0,0
-336,267,0,0,0,0,0,0,0,0,0,-1,888,757,0,0
-329,267,0,0,0,0,0,0,0,0,0,-1,895,757,0,0
-322,267,0,0,0,0,0,0,0,0,0,-1,902,757,0,0
-315,267,0,0,0,0,0,0,0,0,0,-1,909,757,0,0
-308,267,0,0,0,0,0,0,0,0,0,-1,916,757,0,0
-301,267,0,0,0,0,0,0,0,0,0,-1,923,757,0,0
-294,267,0,0,0,0,0,0,0,0,0,-1,930,757,0,0
-287,267,0,0,0,0,0,0,0,0,0,-1,937,757,0,0
-280,267,0,0,0,0,0,0,0,0,0,-1,944,757,0,0
-273,267,0,0,0,0,0,0,0,0,0,-1,951,757,0,0
-266,267,0,0,0,0,0,0,0,0,0,-1,958,757,0,0
-259,267,0,0,0,0,0,0,0,0,0,-1,965,757,0,0
-252,267,0,0,0,0,0,0,0,0,0,-1,972,757,0,0
-245,267,0,0,0,0,0,0,0,0,0,-1,979,757,0,0
-238,267,0,0,0,0,0,0,0,0,0,-1,986,757,0,0
-231,267,0,0,0,0,0,0,0,0,0,-1,993,757,0,0
-224,267,0,0,0,0,0,0,0,0,0,-1,1000,757,0,0
-217,267,0,0,0,0,0,0,0,0,0,-1,1007,757,0,0
-210,267,0,0,0,0,0,0,0,0,0,-1,1014,757,0,0
-203,267,0,0,0,0,0,0,0,0,0,-1,1021,757,0,0
-196,267,0,0,0,0,0,0,0,0,0,-1,1028,757,0,0
-189,267,0,0,0,0,0,0,0,0,0,-1,1035,757,0,0
-182,267,0,0,0,0,0,0,0,0,0,-1,1042,757,0,0
-175,267,0,0,0,0,0,0,0,0,0,-1,1049,757,0,0
-168,267,0,0,0,0,0,0,0,0,0,-1,1056,757,0,0
-161,267,0,0,0,0,0,0,0,0,0,-1,1063,757,0,0
-154,267,0,0,0,0,0,0,0,0,0,-1,1070,757,0,0
-147,267,0,0,0,0,0,0,0,0,0,-1,1077,757,0,0
-140,267,0,0,0,0,0,0,0,0,0,-1,1084,757,0,0
-133,267,0,0,0,0,0,0,0,0,0,-1,1091,757,0,0
-126,267,0,0,0,0,0,0,0,0,0,-1,1098,757,0,0
-119,267,0,0,0,0,0,0,0,0,0,-1,1105,757,0,0
-112,267,0,0,0,0,0,0,0,0,0,-1,1112,757,0,0
-105,267,0,0,0,0,0,0,0,0,0,-1,1119,757,0,0
-98,267,0,0,0,0,0,0,0,0,0,-1,1126,757,0,0
-91,267,0,0,0,0,0,0,0,0,0,-1,1133,757,0,0
-84,267,0,0,0,0,0,0,0,0,0,-1,1140,757,0,0
-77,267,0,0,0,0,0,0,0,0,0,-1,1147,757,0,0
-70,267,0,0,0,0,0,0,0,0,0,-1,1154,757,0,0
-63,267,0,0,0,0,0,0,0,0,0,-1,1161,757,0,0
-56,267,0,0,0,0,0,0,0,0,0,-1,1168,757,0,0
-49,267,0,0,0,0,0,0,0,0,0,-1,1175,757,0,0
-42,267,0,0,0,0,0,0,0,0,0,-1,1182,757,0,0
-35,267,0,0,0,0,0,0,0,0,0,-1,1189,757,0,0
-28,267,0,0,0,0,0,0,0,0,0,-1,1196,757,0,0
-21,267,0,0,0,0,0,0,0,0,0,-1,1203,757,0,0
-14,267,0,0,0,0,0,0,0,0,0,-1,1210,757,0,0
-7,267,0,0,0,0,0,0,0,0,0,-1,1217,757,0,0
0,267,0,0,0,0,0,0,0,0,0,-1,1224,757,0,0
7,267,0,0,0,0,0,0,0,0,0,-1,1231,757,0,0
14,267,0,0,0,0,0,0,0,0,0,-1,1238,757,0,0
21,267,0,0,0,0,0,0,0,0,0,-1,1245,757,0,0
28,267,0,0,0,0,0,0,0,0,0,-1,1252,757,0,0
35,267,0,0,0,0,0,0,0,0,0,-1,1259,757,0,0
42,267,0,0,0,0,0,0,0,0,0,-1,1266,757,0,0
49,267,0,0,0,0,0,0,0,0,0,-1,1273,757,0,0
56,267,0,0,0,0,0,0,0,0,0,-1,1280,757,0,0
63,267,0,0,0,0,0,0,0,0,0,-1,1287,757,0,0
70,267,0,0,0,0,0,0,0,0,0,-1,1294,757,0,0
77,267,0,0,0,0,0,0,0,0,0,-1,1301,757,0,0
84,267,0,0,0,0,0,0,0,0,0,-1,1308,757,0,0
91,267,0,0,0,0,0,0,0,0,0,-1,1315,757,0,0
98,267,0,0,0,0,0,0,0,0,0,-1,1322,757,0,0
105,267,0,0,0,0,0,0,0,0,0,-1,1329,757,0,0
112,267,0,0,0,0,0,0,0,0,0,-1,1336,757,0,0
119,267,0,0,0,0,0,0,0,0,0,-1,1343,757,0,0
126,267,0,0,0,0,0,0,0,0,0,-1,1350,757,0,0
133,267,0,0,0,0,0,0,0,0,0,-1,1357,757,0,0
140,267,0,0,0,0,0,0,0,0,0,-1,1364,757,0,0
147,267,0,0,0,0,0,0,0,0,0,-1,1371,757,0,0
154,267,0,0,0,0,0,0,0,0,0,-1,1378,757,0,0
161,267,0,0,0,0,0,0,0,0,0,-1,1385,757,0,0
168,267,0,0,0,0,0,0,0,0,0,-1,1392,757,0,0
175,267,0,0,0,0,0,0,0,0,0,-1,1399,757,0,0
182,267,0,0,0,0,0,0,0,0,0,-1,1406,757,0,0
189,267,0,0,0,0,0,0,0,0,0,-1,1413,757,0,0
196,267,0,0,0,0,0,0,0,0,0,-1,1420,757,0,0
203,267,0,0,0,0,0,0,0,0,0,-1,1427,757,0,0
210,267,0,0,0,0,0,0,0,0,0,-1,1434,757,0,0
217,267,0,0,0,0,0,0,0,0,0,-1,1441,757,0,0
224,267,0,0,0,0,0,0,0,0,0,-1,1448,757,0,0
231,267,0,0,0,0,0,0,0,0,0,-1,1455,757,0,0
238,267,0,0,0,0,0,0,0,0,0,-1,1462,757,0,0
245,267,0,0,0,0,0,0,0,0,0,-1,1469,757,0,0
252,267,0,0,0,0,0,0,0,0,0,-1,1476,757,0,0
259,267,0,0,0,0,0,0,0,0,0,-1,1483,757,0,0
266,267,0,0,0,0,0,0,0,0,0,-1,1490,757,0,0
273,267,0,0,0,0,0,0,0,0,0,-1,1497,757,0,0
280,267,0,0,0,0,0,0,0,0,0,-1,1504,757,0,0
287,267,0,0,0,0,0,0,0,0,0,-1,1511,757,0,0
294,267,0,0,0,0,0,0,0,0,0,-1,1518,757,0,0
301,267,0,0,0,0,0,0,0,0,0,-1,1525,757,0,0
308,267,0,0,0,0,0,0,0,0,0,-1,1532,757,0,0
315,267,0,0,0,0,0,0,0,0,0,-1,1539,757,0,0
322,267,0,0,0,0,0,0,0,0,0,-1,1546,757,0,0
329,267,0,0,0,0,0,0,0,0,0,-1,1553,757,0,0
336,267,0,0,0,0,0,0,0,0,0,-1,1560,757,0,0
343,267,0,0,0,0,0,0,0,0,0,-1,1567,757,0,0
350,267,0,0,0,0,0,0,0,0,0,-1,1574,757,0,0
357,267,0,0,0,0,0,0,0,0,0,-1,1581,757,0,0
364,267,0,0,0,0,0,0,0,0,0,-1,1588,757,0,0
371,267,0,0,0,0,0,0,0,0,0,-1,1595,757,0,0
378,267,0,0,0,0,0,0,0,0,0,-1,1602,757,0,0
385,267,0,0,0,0,0,0,0,0,0,-1,1609,757,0,0
392,267,0,0,0,0,0,0,0,0,0,-1,1616,757,0,0
399,267,0,0,0,0,0,0,0,0,0,-1,1623,757,0,0
406,267,0,0,0,0,0,0,0,0,0,-1,1630,757,0,0
413,267,0,0,0,0,0,0,0,0,0,-1,1637,757,0,0
420,267,0,0,0,0,0,0,0,0,0,-1,1644,757,0,0
427,267,0,0,0,0,0,0,0,0,0,-1,1651,757,0,0
434,267,0,0,0,0,0,0,0,0,0,-1,1658,757,0,0
441,267,0,0,0,0,0,0,0,0,0,-1,1665,757,0,0
448,267,0,0,0,0,0,0,0,0,0,-1,1672,757,0,0
455,267,0,0,0,0,0,0,0,0,0,-1,1679,757,0,0
462,267,0,0,0,0,0,0,0,0,0,-1,1686,757,0,0
469,267,0,0,0,0,0,0,0,0,0,-1,1693,757,0,0
476,267,0,0,0,0,0,0,0,0,0,-1,1700,757,0,0
483,267,0,0,0,0,0,0,0,0,0,-1,1707,757,0,0
490,267,0,0,0,0,0,0,0,0,0,-1,1714,757,0,0
497,267,0,0,0,0,0,0,0,0,0,-1,1721,757,0,0
504,267,0,0,0,0,0,0,0,0,0,-1,1728,757,0,0
511,267,0,0,0,0,0,0,0,0,0,-1,1735,757,0,0
518,267,0,0,0,0,0,0,0,0,0,-1,1742,757,0,0
525,267,0,0,0,0,0,0,0,0,0,-1,1749,757,0,0
532,267,0,0,0,0,0,0,0,0,0,-1,1756,757,0,0
539,267,0,0,0,0,0,0,0,0,0,-1,1763,757,0,0
546,267,0,0,0,0,0,0,0,0,0,-1,1770,757,0,0
553,267,0,0,0,0,0,0,0,0,0,-1,1777,757,0,0
560,267,0,0,0,0,0,0,0,0,0,-1,1784,757,0,0
567,267,58.0104,3.24304,0,0,0,0,0,0,0,-1,1791,757,58.0104,-3.24306
574,267,64.5414,2.91858,0,0,0,0,0,0,0,-1,1798,757,64.5414,-2.91855
581,267,58.374,2.95636,0,0,0,0,0,0,0,-1,1805,757,58.3741,-2.95639
588,267,65.9681,2.6438,0,0,0,0,0,0,0,-1,1812,757,65.9682,-2.64382
595,267,66.191,2.60791,0,0,0,0,0,0,0,-1,1819,757,66.191,-2.60792
602,267,66.4139,2.57202,0,0,0,0,0,0,0,-1,1826,757,66.4139,-2.57203
609,267,54.5498,3.24054,0,0,0,0,0,0,0,-1,1833,757,54.5498,-3.24052
616,267,44.2543,3.28918,0,0,0,0,0,0,0,-1,1840,757,44.2542,-3.28918
623,267,24.1475,-1.1391,0,0,0,0,0,0,0,-1,1847,757,24.1475,1.13913
630,267,40.7198,-5.42108,0,0,0,0,0,0,0,-1,1854,757,40.7198,5.4211
637,267,89.6044,-11.636,0,0,0,0,0,0,0,-1,1861,757,89.6043,11.636
644,267,94.4562,-10.2131,0,0,0,0,0,0,0,-1,1868,757,94.4562,10.2131
651,267,185.43,2.35327,0,0,0,0,0,0,0,-1,1875,757,185.43,-2.35325
658,267,184.88,5.23456,-0.0082091,0.0217363,-0.00883526,0.0241487,-0.0106216,-1.30425,0.0205748,0.0389847,1882,757,184.88,-5.23458
665,267,184.368,8.00818,-0.00721034,0.0245114,-0.0128069,0.0290365,-0.0117353,-1.23116,0.0242358,0.0345785,1889,757,184.368,-8.0082
672,267,183.707,10.7075,-0.00606726,0.0278575,-0.0165989,0.0346279,-0.0128377,-1.18351,0.0283505,0.0222967,1896,757,183.707,-10.7075
679,267,183.224,13.2731,-0.00472723,0.0317122,-0.0202453,0.0407291,-0.0137441,-1.15179,0.0327111,0.0184489,1903,757,183.224,-13.2731
686,267,182.709,15.7703,-0.00306533,0.0360168,-0.0237265,0.0472134,-0.0142619,-1.12988,0.0371535,0.0301359,1910,757,182.709,-15.7703
693,267,182.116,18.1882,-0.00106536,0.040849,-0.0270399,0.0541023,-0.0143186,-1.11507,0.0416694,0.0330669,1917,757,182.116,-18.1882
700,267,181.736,20.6393,0.00135333,0.0461519,-0.0301489,0.0613117,-0.0138065,-1.10489,0.04617,0.0277866,1924,757,181.736,-20.6393
707,267,181.484,22.95,0.00425665,0.0516581,-0.0329834,0.068573,-0.0126583,-1.09694,0.0504667,0.0470618,1931,757,181.484,-22.9499
714,267,181.195,25.32,0,0,0,0,0,0,0,-1,1938,757,181.195,-25.32
721,267,47.0829,3.73804,0,0,0,0,0,0,0,-1,1945,757,47.0828,-3.73803
728,267,26.7886,3.90027,0,0,0,0,0,0,0,-1,1952,757,26.7886,-3.90028
735,267,24.6713,2.82483,0,0,0,0,0,0,0,-1,1959,757,24.6713,-2.82483
742,267,18.1177,3.56561,0,0,0,0,0,0,0,-1,1966,757,18.1176,-3.56564
749,267,0,0,0,0,0,0,0,0,0,-1,1973,757,0,0
756,267,0,0,0,0,0,0,0,0,0,-1,1980,757,0,0
763,267,0,0,0,0,0,0,0,0,0,-1,1987,757,0,0
770,267,0,0,0,0,0,0,0,0,0,-1,1994,757,0,0
777,267,0,0,0,0,0,0,0,0,0,-1,2001,757,0,0
784,267,0,0,0,0,0,0,0,0,0,-1,2008,757,0,0
791,267,0,0,0,0,0,0,0,0,0,-1,2015,757,0,0
798,267,0,0,0,0,0,0,0,0,0,-1,2022,757,0,0
805,267,0,0,0,0,0,0,0,0,0,-1,2029,757,0,0
812,267,0,0,0,0,0,0,0,0,0,-1,2036,757,0,0
-700,260,0,0,0,0,0,0,0,0,0,-1,524,764,0,0
-693,260,0,0,0,0,0,0,0,0,0,-1,531,764,0,0
-686,260,0,0,0,0,0,0,0,0,0,-1,538,764,0,0
-679,260,0,0,0,0,0,0,0,0,0,-1,545,764,0,0
-672,260,0,0,0,0,0,0,0,0,0,-1,552,764,0,0
-665,260,0,0,0,0,0,0,0,0,0,-1,559,764,0,0
-658,260,0,0,0,0,0,0,0,0,0,-1,566,764,0,0
-651,260,0,0,0,0,0,0,0,0,0,-1,573,764,0,0
-644,260,0,0,0,0,0,0,0,0,0,-1,580,764,0,0
-637,260,0,0,0,0,0,0,0,0,0,-1,587,764,0,0
-630,260,-21.8905,4.49341,0,0,0,0,0,0,0,-1,594,764,-21.8905,-4.49342
-623,260,-20.3127,3.53546,0,0,0,0,0,0,0,-1,601,764,-20.3127,-3.53544
-616,260,-23.4346,3.65009,0,0,0,0,0,0,0,-1,608,764,-23.4345,-3.65008
-609,260,-27.8874,4.42004,0,0,0,0,0,0,0,-1,615,764,-27.8874,-4.42005
-602,260,-32.8671,3.61243,0,0,0,0,0,0,0,-1,622,764,-32.867,-3.61241
-595,260,-44.4068,5.76526,0,0,0,0,0,0,0,-1,629,764,-44.4068,-5.76525
-588,260,-175.449,28.5006,0,0,0,0,0,0,0,-1,636,764,-175.449,-28.5006
-581,260,-175.526,25.8856,-0.000530464,0.0607987,0.0323922,0.0747387,-0.0144705,1.1644,0.0552842,0.0478474,643,764,-175.526,-25.8856
-574,260,-175.877,23.4413,-0.000213721,0.0535945,0.0301301,0.0670841,-0.0137034,1.14985,0.0499215,0.0351573,650,764,-175.877,-23.4413
-567,260,-176.417,21.0021,-0.00036349,0.0477494,0.0275694,0.0602823,-0.0128964,1.14413,0.0451058,0.0240958,657,764,-176.417,-21.0021
-560,260,-176.842,18.671,-0.000581365,0.0423914,0.0246762,0.0536247,-0.0118147,1.1436,0.0402699,0.0287268,664,764,-176.842,-18.6709
-553,260,-177.28,16.2519,-0.00105684,0.0375095,0.0215595,0.0471513,-0.0106986,1.15026,0.0355413,0.0294492,671,764,-177.28,-16.2519
-546,260,-177.666,13.7455,-0.00189258,0.0330772,0.0183769,0.0409583,-0.00977368,1.16566,0.0310799,0.0196078,678,764,-177.666,-13.7455
-539,260,-177.936,10.9426,-0.00308417,0.0289178,0.015179,0.034972,-0.00913846,1.19127,0.0268837,0.0288721,685,764,-177.936,-10.9426
-532,260,-178.75,7.92389,-0.00473503,0.0251039,0.0120367,0.0293541,-0.00898516,1.23137,0.0231531,0.0456921,692,764,-178.751,-7.9239
-525,260,-179.428,5.63782,-0.00690478,0.0219938,0.00887279,0.0245006,-0.00941156,1.29545,0.0202149,0.0323278,699,764,-179.428,-5.63782
-518,260,-179.832,2.94427,0,0,0,0,0,0,0,-1,706,764,-179.832,-2.94425
-511,260,-83.9215,-10.0087,0,0,0,0,0,0,0,-1,713,764,-83.9215,10.0087
-504,260,-34.7117,-8.67163,0,0,0,0,0,0,0,-1,720,764,-34.7117,8.6716
-497,260,-16.6542,-3.67334,0,0,0,0,0,0,0,-1,727,764,-16.6542,3.67331
-490,260,-29.4557,0.921387,0,0,0,0,0,0,0,-1,734,764,-29.4557,-0.921369
-483,260,-40.8972,1.04193,0,0,0,0,0,0,0,-1,741,764,-40.8972,-1.04193
-476,260,-53.8282,0.00378418,0,0,0,0,0,0,0,-1,748,764,-53.8283,-0.00378825
-469,260,-67.7608,1.11853,0,0,0,0,0,0,0,-1,755,764,-67.7608,-1.11852
-462,260,-71.5759,0.041748,0,0,0,0,0,0,0,-1,762,764,-71.5759,-0.0417456
-455,260,-71.384,0.305603,0,0,0,0,0,0,0,-1,769,764,-71.384,-0.305624
-448,260,0,0,0,0,0,0,0,0,0,-1,776,764,0,0
-441,260,0,0,0,0,0,0,0,0,0,-1,783,764,0,0
-434,260,0,0,0,0,0,0,0,0,0,-1,790,764,0,0
-427,260,0,0,0,0,0,0,0,0,0,-1,797,764,0,0
-420,260,0,0,0,0,0,0,0,0,0,-1,804,764,0,0
-413,260,0,0,0,0,0,0,0,0,0,-1,811,764,0,0
-406,260,0,0,0,0,0,0,0,0,0,-1,818,764,0,0
-399,260,0,0,0,0,0,0,0,0,0,-1,825,764,0,0
-392,260,0,0,0,0,0,0,0,0,0,-1,832,764,0,0
-385,260,0,0,0,0,0,0,0,0,0,-1,839,764,0,0
-378,260,0,0,0,0,0,0,0,0,0,-1,846,764,0,0
-371,260,0,0,0,0,0,0,0,0,0,-1,853,764,0,0
-364,260,0,0,0,0,0,0,0,0,0,-1,860,764,0,0
-357,260,0,0,0,0,0,0,0,0,0,-1,867,764,0,0
-350,260,0,0,0,0,0,0,0,0,0,-1,874,764,0,0
-343,260,0,0,0,0,0,0,0,0,0,-1,881,764,0,0
-336,260,0,0,0,0,0,0,0,0,0,-1,888,764,0,0
-329,260,0,0,0,0,0,0,0,0,0,-1,895,764,0,0
-322,260,0,0,0,0,0,0,0,0,0,-1,902,764,0,0
-315,260,0,0,0,0,0,0,0,0,0,-1,909,764,0,0
-308,260,0,0,0,0,0,0,0,0,0,-1,916,764,0,0
-301,260,0,0,0,0,0,0,0,0,0,-1,923,764,0,0
-294,260,0,0,0,0,0,0,0,0,0,-1,930,764,0,0
-287,260,0,0,0,0,0,0,0,0,0,-1,937,764,0,0
-280,260,0,0,0,0,0,0,0,0,0,-1,944,764,0,0
-273,260,0,0,0,0,0,0,0,0,0,-1,951,764,0,0
-266,260,0,0,0,0,0,0,0,0,0,-1,958,764,0,0
-259,260,0,0,0,0,0,0,0,0,0,-1,965,764,0,0
-252,260,0,0,0,0,0,0,0,0,0,-1,972,764,0,0
-245,260,0,0,0,0,0,0,0,0,0,-1,979,764,0,0
-238,260,0,0,0,0,0,0,0,0,0,-1,986,764,0,0
-231,260,0,0,0,0,0,0,0,0,0,-1,993,764,0,0
-224,260,0,0,0,0,0,0,0,0,0,-1,1000,764,0,0
-217,260,0,0,0,0,0,0,0,0,0,-1,1007,764,0,0
-210,260,0,0,0,0,0,0,0,0,0,-1,1014,764,0,0
-203,260,0,0,0,0,0,0,0,0,0,-1,1021,764,0,0
-196,260,0,0,0,0,0,0,0,0,0,-1,1028,764,0,0
-189,260,0,0,0,0,0,0,0,0,0,-1,1035,764,0,0
-182,260,0,0,0,0,0,0,0,0,0,-1,1042,764,0,0
-175,260,0,0,0,0,0,0,0,0,0,-1,1049,764,0,0
-168,260,0,0,0,0,0,0,0,0,0,-1,1056,764,0,0
-161,260,0,0,0,0,0,0,0,0,0,-1,1063,764,0,0
-154,260,0,0,0,0,0,0,0,0,0,-1,1070,764,0,0
-147,260,0,0,0,0,0,0,0,0,0,-1,1077,764,0,0
-140,260,0,0,0,0,0,0,0,0,0,-1,1084,764,0,0
-133,260,0,0,0,0,0,0,0,0,0,-1,1091,764,0,0
-126,260,0,0,0,0,0,0,0,0,0,-1,1098,764,0,0
-119,260,0,0,0,0,0,0,0,0,0,-1,1105,764,0,0
-112,260,0,0,0,0,0,0,0,0,0,-1,1112,764,0,0
-105,260,0,0,0,0,0,0,0,0,0,-1,1119,764,0,0
-98,260,0,0,0,0,0,0,0,0,0,-1,1126,764,0,0
-91,260,0,0,0,0,0,0,0,0,0,-1,1133,764,0,0
-84,260,0,0,0,0,0,0,0,0,0,-1,1140,764,0,0
-77,260,0,0,0,0,0,0,0,0,0,-1,1147,764,0,0
-70,260,0,0,0,0,0,0,0,0,0,-1,1154,764,0,0
-63,260,0,0,0,0,0,0,0,0,0,-1,1161,764,0,0
-56,260,0,0,0,0,0,0,0,0,0,-1,1168,764,0,0
-49,260,0,0,0,0,0,0,0,0,0,-1,1175,764,0,0
-42,260,0,0,0,0,0,0,0,0,0,-1,1182,764,0,0
-35,260,0,0,0,0,0,0,0,0,0,-1,1189,764,0,0
-28,260,0,0,0,0,0,0,0,0,0,-1,1196,764,0,0
-21,260,0,0,0,0,0,0,0,0,0,-1,1203,764,0,0
-14,260,0,0,0,0,0,0,0,0,0,-1,1210,764,0,0
-7,260,0,0,0,0,0,0,0,0,0,-1,1217,764,0,0
0,260,0,0,0,0,0,0,0,0,0,-1,1224,764,0,0
7,260,0,0,0,0,0,0,0,0,0,-1,1231,764,0,0
14,260,0,0,0,0,0,0,0,0,0,-1,1238,764,0,0
21,260,0,0,0,0,0,0,0,0,0,-1,1245,764,0,0
28,260,0,0,0,0,0,0,0,0,0,-1,1252,764,0,0
35,260,0,0,0,0,0,0,0,0,0,-1,1259,764,0,0
42,260,0,0,0,0,0,0,0,0,0,-1,1266,764,0,0
49,260,0,0,0,0,0,0,0,0,0,-1,1273,764,0,0
56,260,0,0,0,0,0,0,0,0,0,-1,1280,764,0,0
63,260,0,0,0,0,0,0,0,0,0,-1,1287,764,0,0
70,260,0,0,0,0,0,0,0,0,0,-1,1294,764,0,0
77,260,0,0,0,0,0,0,0,0,0,-1,1301,764,0,0
84,260,0,0,0,0,0,0,0,0,0,-1,1308,764,0,0
91,260,0,0,0,0,0,0,0,0,0,-1,1315,764,0,0
98,260,0,0,0,0,0,0,0,0,0,-1,1322,764,0,0
105,260,0,0,0,0,0,0,0,0,0,-1,1329,764,0,0
112,260,0,0,0,0,0,0,0,0,0,-1,1336,764,0,0
119,260,0,0,0,0,0,0,0,0,0,-1,1343,764,0,0
126,260,0,0,0,0,0,0,0,0,0,-1,1350,764,0,0
133,260,0,0,0,0,0,0,0,0,0,-1,1357,764,0,0
140,260,0,0,0,0,0,0,0,0,0,-1,1364,764,0,0
147,260,0,0,0,0,0,0,0,0,0,-1,1371,764,0,0
154,260,0,0,0,0,0,0,0,0,0,-1,1378,764,0,0
161,260,0,0,0,0,0,0,0,0,0,-1,1385,764,0,0
168,260,0,0,0,0,0,0,0,0,0,-1,1392,764,0,0
175,260,0,0,0,0,0,0,0,0,0,-1,1399,764,0,0
182,260,0,0,0,0,0,0,0,0,0,-1,1406,764,0,0
189,260,0,0,0,0,0,0,0,0,0,-1,1413,764,0,0
196,260,0,0,0,0,0,0,0,0,0,-1,1420,764,0,0
203,260,0,0,0,0,0,0,0,0,0,-1,1427,764,0,0
210,260,0,0,0,0,0,0,0,0,0,-1,1434,764,0,0
217,260,0,0,0,0,0,0,0,0,0,-1,1441,764,0,0
224,260,0,0,0,0,0,0,0,0,0,-1,1448,764,0,0
231,260,0,0,0,0,0,0,0,0,0,-1,1455,764,0,0
238,260,0,0,0,0,0,0,0,0,0,-1,1462,764,0,0
245,260,0,0,0,0,0,0,0,0,0,-1,1469,764,0,0
252,260,0,0,0,0,0,0,0,0,0,-1,1476,764,0,0
259,260,0,0,0,0,0,0,0,0,0,-1,1483,764,0,0
266,260,0,0,0,0,0,0,0,0,0,-1,1490,764,0,0
273,260,0,0,0,0,0,0,0,0,0,-1,1497,764,0,0
280,260,0,0,0,0,0,0,0,0,0,-1,1504,764,0,0
287,260,0,0,0,0,0,0,0,0,0,-1,1511,764,0,0
294,260,0,0,0,0,0,0,0,0,0,-1,1518,764,0,0
301,260,0,0,0,0,0,0,0,0,0,-1,1525,764,0,0
308,260,0,0,0,0,0,0,0,0,0,-1,1532,764,0,0
315,260,0,0,0,0,0,0,0,0,0,-1,1539,764,0,0
322,260,0,0,0,0,0,0,0,0,0,-1,1546,764,0,0
329,260,0,0,0,0,0,0,0,0,0,-1,1553,764,0,0
336,260,0,0,0,0,0,0,0,0,0,-1,1560,764,0,0
343,260,0,0,0,0,0,0,0,0,0,-1,1567,764,0,0
350,260,0,0,0,0,0,0,0,0,0,-1,1574,764,0,0
357,260,0,0,0,0,0,0,0,0,0,-1,1581,764,0,0
364,260,0,0,0,0,0,0,0,0,0,-1,1588,764,0,0
371,260,0,0,0,0,0,0,0,0,0,-1,1595,764,0,0
378,260,0,0,0,0,0,0,0,0,0,-1,1602,764,0,0
385,260,0,0,0,0,0,0,0,0,0,-1,1609,764,0,0
392,260,0,0,0,0,0,0,0,0,0,-1,1616,764,0,0
399,260,0,0,0,0,0,0,0,0,0,-1,1623,764,0,0
406,260,0,0,0,0,0,0,0,0,0,-1,1630,764,0,0
413,260,0,0,0,0,0,0,0,0,0,-1,1637,764,0,0
420,260,0,0,0,0,0,0,0,0,0,-1,1644,764,0,0
427,260,0,0,0,0,0,0,0,0,0,-1,1651,764,0,0
434,260,0,0,0,0,0,0,0,0,0,-1,1658,764,0,0
441,260,0,0,0,0,0,0,0,0,0,-1,1665,764,0,0
448,260,0,0,0,0,0,0,0,0,0,-1,1672,764,0,0
455,260,0,0,0,0,0,0,0,0,0,-1,1679,764,0,0
462,260,0,0,0,0,0,0,0,0,0,-1,1686,764,0,0
469,260,0,0,0,0,0,0,0,0,0,-1,1693,764,0,0
476,260,0,0,0,0,0,0,0,0,0,-1,1700,764,0,0
483,260,0,0,0,0,0,0,0,0,0,-1,1707,764,0,0
490,260,0,0,0,0,0,0,0,0,0,-1,1714,764,0,0
497,260,0,0,0,0,0,0,0,0,0,-1,1721,764,0,0
504,260,0,0,0,0,0,0,0,0,0,-1,1728,764,0,0
511,260,0,0,0,0,0,0,0,0,0,-1,1735,764,0,0
518,260,0,0,0,0,0,0,0,0,0,-1,1742,764,0,0
525,260,0,0,0,0,0,0,0,0,0,-1,1749,764,0,0
532,260,0,0,0,0,0,0,0,0,0,-1,1756,764,0,0
539,260,0,0,0,0,0,0,0,0,0,-1,1763,764,0,0
546,260,0,0,0,0,0,0,0,0,0,-1,1770,764,0,0
553,260,0,0,0,0,0,0,0,0,0,-1,1777,764,0,0
560,260,0,0,0,0,0,0,0,0,0,-1,1784,764,0,0
567,260,0,0,0,0,0,0,0,0,0,-1,1791,764,0,0
574,260,123.775,3.97382,0,0,0,0,0,0,0,-1,1798,764,123.775,-3.97382
581,260,123.673,4.10852,0,0,0,0,0,0,0,-1,1805,764,123.673,-4.10852
588,260,78.047,2.81091,0,0,0,0,0,0,0,-1,1812,764,78.047,-2.81091
595,260,66.1678,2.56989,0,0,0,0,0,0,0,-1,1819,764,66.1678,-2.56989
602,260,65.9274,2.69824,0,0,0,0,0,0,0,-1,1826,764,65.9274,-2.69825
609,260,65.4674,3.08105,0,0,0,0,0,0,0,-1,1833,764,65.4673,-3.08107
616,260,46.0709,2.74542,0,0,0,0,0,0,0,-1,1840,764,46.0709,-2.74545
623,260,32.2268,3.25836,0,0,0,0,0,0,0,-1,1847,764,32.2268,-3.25833
630,260,24.3739,-0.536316,0,0,0,0,0,0,0,-1,1854,764,24.3739,0.536343
637,260,42.7155,-5.35486,0,0,0,0,0,0,0,-1,1861,764,42.7154,5.35488
644,260,91.3242,-9.78699,0,0,0,0,0,0,0,-1,1868,764,91.3243,9.78696
651,260,76.7991,-7.37592,0,0,0,0,0,0,0,-1,1875,764,76.7991,7.37592
658,260,188.161,5.41339,0,0,0,0,0,0,0,-1,1882,764,188.161,-5.41341
665,260,186.945,8.46387,0,0,0,0,0,0,0,-1,1889,764,186.945,-8.46387
672,260,186.573,11.2072,-0.00729461,0.0252893,-0.0140893,0.0305365,-0.0125418,-1.21428,0.0255844,0.0329953,1896,764,186.573,-11.2071
679,260,186.074,13.7117,-0.00607129,0.0291519,-0.0178699,0.0366302,-0.0135496,-1.17446,0.0299754,0.0182447,1903,764,186.074,-13.7117
686,260,185.458,16.1156,-0.00460344,0.033381,-0.0215098,0.0430833,-0.0143058,-1.14706,0.0344942,0.0379889,1910,764,185.457,-16.1156
693,260,184.875,18.3961,-0.00285767,0.0380463,-0.024985,0.0498826,-0.014694,-1.12838,0.0390849,0.0390054,1917,764,184.875,-18.3961
700,260,184.543,20.7442,-0.000765258,0.0430722,-0.0282663,0.0569224,-0.0146154,-1.11519,0.0436435,0.0285614,1924,764,184.544,-20.7442
707,260,184.372,23.1195,0.00173119,0.048313,-0.0312926,0.064031,-0.0139868,-1.10532,0.0480332,0.035306,1931,764,184.372,-23.1195
714,260,184.068,25.5554,0,0,0,0,0,0,0,-1,1938,764,184.068,-25.5554
721,260,59.4307,4.13696,0,0,0,0,0,0,0,-1,1945,764,59.4307,-4.13694
728,260,33.4344,5.75409,0,0,0,0,0,0,0,-1,1952,764,33.4345,-5.75408
735,260,26.9788,4.85681,0,0,0,0,0,0,0,-1,1959,764,26.9787,-4.85678
742,260,32.1443,1.73688,0,0,0,0,0,0,0,-1,1966,764,32.1442,-1.73688
749,260,33.6013,2.94733,0,0,0,0,0,0,0,-1,1973,764,33.6013,-2.9473
756,260,0,0,0,0,0,0,0,0,0,-1,1980,764,0,0
763,260,0,0,0,0,0,0,0,0,0,-1,1987,764,0,0
770,260,0,0,0,0,0,0,0,0,0,-1,1994,764,0,0
777,260,0,0,0,0,0,0,0,0,0,-1,2001,764,0,0
784,260,0,0,0,0,0,0,0,0,0,-1,2008,764,0,0
791,260,0,0,0,0,0,0,0,0,0,-1,2015,764,0,0
798,260,0,0,0,0,0,0,0,0,0,-1,2022,764,0,0
805,260,0,0,0,0,0,0,0,0,0,-1,2029,764,0,0
812,260,0,0,0,0,0,0,0,0,0,-1,2036,764,0,0
-700,253,0,0,0,0,0,0,0,0,0,-1,524,771,0,0
-693,253,0,0,0,0,0,0,0,0,0,-1,531,771,0,0
-686,253,0,0,0,0,0,0,0,0,0,-1,538,771,0,0
-679,253,0,0,0,0,0,0,0,0,0,-1,545,771,0,0
-672,253,0,0,0,0,0,0,0,0,0,-1,552,771,0,0
-665,253,0,0,0,0,0,0,0,0,0,-1,559,771,0,0
-658,253,0,0,0,0,0,0,0,0,0,-1,566,771,0,0
-651,253,0,0,0,0,0,0,0,0,0,-1,573,771,0,0
-644,253,0,0,0,0,0,0,0,0,0,-1,580,771,0,0
-637,253,-24.7979,-0.491394,0,0,0,0,0,0,0,-1,587,771,-24.7978,0.491371
-630,253,-25.156,0.540405,0,0,0,0,0,0,0,-1,594,771,-25.156,-0.540421
-623,253,-20.808,2.84314,0,0,0,0,0,0,0,-1,601,771,-20.8081,-2.84312
-616,253,-25.0877,2.96875,0,0,0,0,0,0,0,-1,608,771,-25.0877,-2.96876
-609,253,-24.28,2.08228,0,0,0,0,0,0,0,-1,615,771,-24.2801,-2.08227
-602,253,-45.6953,6.73285,0,0,0,0,0,0,0,-1,622,771,-45.6953,-6.73285
-595,253,-50.7667,7.12732,0,0,0,0,0,0,0,-1,629,771,-50.7667,-7.1273
-588,253,-178.55,28.1439,0,0,0,0,0,0,0,-1,636,771,-178.55,-28.1439
-581,253,-178.306,25.8931,-0.00122416,0.0588982,0.0295846,0.0710143,-0.0133403,1.18209,0.0523592,0.0470348,643,771,-178.306,-25.8932
-574,253,-178.674,23.6265,-0.00113999,0.0516881,0.0275026,0.0634067,-0.0128585,1.168,0.0471455,0.041079,650,771,-178.674,-23.6266
-567,253,-179.206,21.34,-0.00141328,0.0456322,0.0250643,0.056483,-0.0122641,1.16224,0.0423396,0.0219752,657,771,-179.206,-21.3401
-560,253,-179.604,18.9553,-0.00175605,0.0401025,0.0222876,0.0497473,-0.0114008,1.16239,0.0375466,0.0185539,664,771,-179.604,-18.9552
-553,253,-180.035,16.5648,-0.00229435,0.0350429,0.0192654,0.043201,-0.0104525,1.17023,0.032844,0.0185135,671,771,-180.035,-16.5648
-546,253,-180.448,14.1352,-0.00310738,0.0303919,0.0161359,0.0368999,-0.00961535,1.18743,0.0283538,0.0195424,678,771,-180.448,-14.1352
-539,253,-180.888,11.6724,0,0,0,0,0,0,0,-1,685,771,-180.888,-11.6724
-532,253,-181.678,8.84088,-0.00575645,0.0221071,0.00981271,0.025216,-0.00886532,1.26398,0.0204177,0.0418787,692,771,-181.678,-8.84091
-525,253,-182.299,6.03467,-0.00771695,0.0189938,0.00655279,0.0205148,-0.0092379,1.34273,0.0175842,0.0318882,699,771,-182.299,-6.0347
-518,253,-182.776,3.25116,0,0,0,0,0,0,0,-1,706,771,-182.776,-3.25118
-511,253,-68.3588,-8.90771,0,0,0,0,0,0,0,-1,713,771,-68.3588,8.90769
-504,253,-19.317,-4.1723,0,0,0,0,0,0,0,-1,720,771,-19.317,4.1723
-497,253,-21.7737,-1.76837,0,0,0,0,0,0,0,-1,727,771,-21.7738,1.7684
-490,253,-29.7674,0.438354,0,0,0,0,0,0,0,-1,734,771,-29.7674,-0.438339
-483,253,-45.4489,1.59302,0,0,0,0,0,0,0,-1,741,771,-45.4489,-1.59303
-476,253,-64.2688,0.0551758,0,0,0,0,0,0,0,-1,748,771,-64.2688,-0.0552001
-469,253,-71.0914,0.867859,0,0,0,0,0,0,0,-1,755,771,-71.0914,-0.867851
-462,253,-71.4388,0.379639,0,0,0,0,0,0,0,-1,762,771,-71.4388,-0.379644
-455,253,-71.35,0.581238,0,0,0,0,0,0,0,-1,769,771,-71.35,-0.581243
-448,253,0,0,0,0,0,0,0,0,0,-1,776,771,0,0
-441,253,0,0,0,0,0,0,0,0,0,-1,783,771,0,0
-434,253,0,0,0,0,0,0,0,0,0,-1,790,771,0,0
-427,253,0,0,0,0,0,0,0,0,0,-1,797,771,0,0
-420,253,0,0,0,0,0,0,0,0,0,-1,804,771,0,0
-413,253,0,0,0,0,0,0,0,0,0,-1,811,771,0,0
-406,253,0,0,0,0,0,0,0,0,0,-1,818,771,0,0
-399,253,0,0,0,0,0,0,0,0,0,-1,825,771,0,0
-392,253,0,0,0,0,0,0,0,0,0,-1,832,771,0,0
-385,253,0,0,0,0,0,0,0,0,0,-1,839,771,0,0
-378,253,0,0,0,0,0,0,0,0,0,-1,846,771,0,0
-371,253,0,0,0,0,0,0,0,0,0,-1,853,771,0,0
-364,253,0,0,0,0,0,0,0,0,0,-1,860,771,0,0
-357,253,0,0,0,0,0,0,0,0,0,-1,867,771,0,0
-350,253,0,0,0,0,0,0,0,0,0,-1,874,771,0,0
-343,253,0,0,0,0,0,0,0,0,0,-1,881,771,0,0
-336,253,0,0,0,0,0,0,0,0,0,-1,888,771,0,0
-329,253,0,0,0,0,0,0,0,0,0,-1,895,771,0,0
-322,253,0,0,0,0,0,0,0,0,0,-1,902,771,0,0
-315,253,0,0,0,0,0,0,0,0,0,-1,909,771,0,0
-308,253,0,0,0,0,0,0,0,0,0,-1,916,771,0,0
-301,253,0,0,0,0,0,0,0,0,0,-1,923,771,0,0
-294,253,0,0,0,0,0,0,0,0,0,-1,930,771,0,0
-287,253,0,0,0,0,0,0,0,0,0,-1,937,771,0,0
-280,253,0,0,0,0,0,0,0,0,0,-1,944,771,0,0
-273,253,0,0,0,0,0,0,0,0,0,-1,951,771,0,0
-266,253,0,0,0,0,0,0,0,0,0,-1,958,771,0,0
-259,253,0,0,0,0,0,0,0,0,0,-1,965,771,0,0
-252,253,0,0,0,0,0,0,0,0,0,-1,972,771,0,0
-245,253,0,0,0,0,0,0,0,0,0,-1,979,771,0,0
-238,253,0,0,0,0,0,0,0,0,0,-1,986,771,0,0
-231,253,0,0,0,0,0,0,0,0,0,-1,993,771,0,0
-224,253,0,0,0,0,0,0,0,0,0,-1,1000,771,0,0
-217,253,0,0,0,0,0,0,0,0,0,-1,1007,771,0,0
-210,253,0,0,0,0,0,0,0,0,0,-1,1014,771,0,0
-203,253,0,0,0,0,0,0,0,0,0,-1,1021,771,0,0
-196,253,0,0,0,0,0,0,0,0,0,-1,1028,771,0,0
-189,253,0,0,0,0,0,0,0,0,0,-1,1035,771,0,0
-182,253,0,0,0,0,0,0,0,0,0,-1,1042,771,0,0
-175,253,0,0,0,0,0,0,0,0,0,-1,1049,771,0,0
-168,253,0,0,0,0,0,0,0,0,0,-1,1056,771,0,0
-161,253,0,0,0,0,0,0,0,0,0,-1,1063,771,0,0
-154,253,0,0,0,0,0,0,0,0,0,-1,1070,771,0,0
-147,253,0,0,0,0,0,0,0,0,0,-1,1077,771,0,0
-140,253,0,0,0,0,0,0,0,0,0,-1,1084,771,0,0
-133,253,0,0,0,0,0,0,0,0,0,-1,1091,771,0,0
-126,253,0,0,0,0,0,0,0,0,0,-1,1098,771,0,0
-119,253,0,0,0,0,0,0,0,0,0,-1,1105,771,0,0
-112,253,0,0,0,0,0,0,0,0,0,-1,1112,771,0,0
-105,253,0,0,0,0,0,0,0,0,0,-1,1119,771,0,0
-98,253,0,0,0,0,0,0,0,0,0,-1,1126,771,0,0
-91,253,0,0,0,0,0,0,0,0,0,-1,1133,771,0,0
-84,253,0,0,0,0,0,0,0,0,0,-1,1140,771,0,0
-77,253,0,0,0,0,0,0,0,0,0,-1,1147,771,0,0
-70,253,0,0,0,0,0,0,0,0,0,-1,1154,771,0,0
-63,253,0,0,0,0,0,0,0,0,0,-1,1161,771,0,0
-56,253,0,0,0,0,0,0,0,0,0,-1,1168,771,0,0
-49,253,0,0,0,0,0,0,0,0,0,-1,1175,771,0,0
-42,253,0,0,0,0,0,0,0,0,0,-1,1182,771,0,0
-35,253,0,0,0,0,0,0,0,0,0,-1,1189,771,0,0
-28,253,0,0,0,0,0,0,0,0,0,-1,1196,771,0,0
-21,253,0,0,0,0,0,0,0,0,0,-1,1203,771,0,0
-14,253,0,0,0,0,0,0,0,0,0,-1,1210,771,0,0
-7,253,0,0,0,0,0,0,0,0,0,-1,1217,771,0,0
0,253,0,0,0,0,0,0,0,0,0,-1,1224,771,0,0
7,253,0,0,0,0,0,0,0,0,0,-1,1231,771,0,0
14,253,0,0,0,0,0,0,0,0,0,-1,1238,771,0,0
21,253,0,0,0,0,0,0,0,0,0,-1,1245,771,0,0
28,253,0,0,0,0,0,0,0,0,0,-1,1252,771,0,0
35,253,0,0,0,0,0,0,0,0,0,-1,1259,771,0,0
42,253,0,0,0,0,0,0,0,0,0,-1,1266,771,0,0
49,253,0,0,0,0,0,0,0,0,0,-1,1273,771,0,0
56,253,0,0,0,0,0,0,0,0,0,-1,1280,771,0,0
63,253,0,0,0,0,0,0,0,0,0,-1,1287,771,0,0
70,253,0,0,0,0,0,0,0,0,0,-1,1294,771,0,0
77,253,0,0,0,0,0,0,0,0,0,-1,1301,771,0,0
84,253,0,0,0,0,0,0,0,0,0,-1,1308,771,0,0
91,253,0,0,0,0,0,0,0,0,0,-1,1315,771,0,0
98,253,0,0,0,0,0,0,0,0,0,-1,1322,771,0,0
105,253,0,0,0,0,0,0,0,0,0,-1,1329,771,0,0
112,253,0,0,0,0,0,0,0,0,0,-1,1336,771,0,0
119,253,0,0,0,0,0,0,0,0,0,-1,1343,771,0,0
126,253,0,0,0,0,0,0,0,0,0,-1,1350,771,0,0
133,253,0,0,0,0,0,0,0,0,0,-1,1357,771,0,0
140,253,0,0,0,0,0,0,0,0,0,-1,1364,771,0,0
147,253,0,0,0,0,0,0,0,0,0,-1,1371,771,0,0
154,253,0,0,0,0,0,0,0,0,0,-1,1378,771,0,0
161,253,0,0,0,0,0,0,0,0,0,-1,1385,771,0,0
168,253,0,0,0,0,0,0,0,0,0,-1,1392,771,0,0
175,253,0,0,0,0,0,0,0,0,0,-1,1399,771,0,0
182,253,0,0,0,0,0,0,0,0,0,-1,1406,771,0,0
189,253,0,0,0,0,0,0,0,0,0,-1,1413,771,0,0
196,253,0,0,0,0,0,0,0,0,0,-1,1420,771,0,0
203,253,0,0,0,0,0,0,0,0,0,-1,1427,771,0,0
210,253,0,0,0,0,0,0,0,0,0,-1,1434,771,0,0
217,253,0,0,0,0,0,0,0,0,0,-1,1441,771,0,0
224,253,0,0,0,0,0,0,0,0,0,-1,1448,771,0,0
231,253,0,0,0,0,0,0,0,0,0,-1,1455,771,0,0
238,253,0,0,0,0,0,0,0,0,0,-1,1462,771,0,0
245,253,0,0,0,0,0,0,0,0,0,-1,1469,771,0,0
252,253,0,0,0,0,0,0,0,0,0,-1,1476,771,0,0
259,253,0,0,0,0,0,0,0,0,0,-1,1483,771,0,0
266,253,0,0,0,0,0,0,0,0,0,-1,1490,771,0,0
273,253,0,0,0,0,0,0,0,0,0,-1,1497,771,0,0
280,253,0,0,0,0,0,0,0,0,0,-1,1504,771,0,0
287,253,0,0,0,0,0,0,0,0,0,-1,1511,771,0,0
294,253,0,0,0,0,0,0,0,0,0,-1,1518,771,0,0
301,253,0,0,0,0,0,0,0,0,0,-1,1525,771,0,0
308,253,0,0,0,0,0,0,0,0,0,-1,1532,771,0,0
315,253,0,0,0,0,0,0,0,0,0,-1,1539,771,0,0
322,253,0,0,0,0,0,0,0,0,0,-1,1546,771,0,0
329,253,0,0,0,0,0,0,0,0,0,-1,1553,771,0,0
336,253,0,0,0,0,0,0,0,0,0,-1,1560,771,0,0
343,253,0,0,0,0,0,0,0,0,0,-1,1567,771,0,0
350,253,0,0,0,0,0,0,0,0,0,-1,1574,771,0,0
357,253,0,0,0,0,0,0,0,0,0,-1,1581,771,0,0
364,253,0,0,0,0,0,0,0,0,0,-1,1588,771,0,0
371,253,0,0,0,0,0,0,0,0,0,-1,1595,771,0,0
378,253,0,0,0,0,0,0,0,0,0,-1,1602,771,0,0
385,253,0,0,0,0,0,0,0,0,0,-1,1609,771,0,0
392,253,0,0,0,0,0,0,0,0,0,-1,1616,771,0,0
399,253,0,0,0,0,0,0,0,0,0,-1,1623,771,0,0
406,253,0,0,0,0,0,0,0,0,0,-1,1630,771,0,0
413,253,0,0,0,0,0,0,0,0,0,-1,1637,771,0,0
420,253,0,0,0,0,0,0,0,0,0,-1,1644,771,0,0
427,253,0,0,0,0,0,0,0,0,0,-1,1651,771,0,0
434,253,0,0,0,0,0,0,0,0,0,-1,1658,771,0,0
441,253,0,0,0,0,0,0,0,0,0,-1,1665,771,0,0
448,253,0,0,0,0,0,0,0,0,0,-1,1672,771,0,0
455,253,0,0,0,0,0,0,0,0,0,-1,1679,771,0,0
462,253,0,0,0,0,0,0,0,0,0,-1,1686,771,0,0
469,253,0,0,0,0,0,0,0,0,0,-1,1693,771,0,0
476,253,0,0,0,0,0,0,0,0,0,-1,1700,771,0,0
483,253,0,0,0,0,0,0,0,0,0,-1,1707,771,0,0
490,253,0,0,0,0,0,0,0,0,0,-1,1714,771,0,0
497,253,0,0,0,0,0,0,0,0,0,-1,1721,771,0,0
504,253,0,0,0,0,0,0,0,0,0,-1,1728,771,0,0
511,253,0,0,0,0,0,0,0,0,0,-1,1735,771,0,0
518,253,0,0,0,0,0,0,0,0,0,-1,1742,771,0,0
525,253,0,0,0,0,0,0,0,0,0,-1,1749,771,0,0
532,253,0,0,0,0,0,0,0,0,0,-1,1756,771,0,0
539,253,0,0,0,0,0,0,0,0,0,-1,1763,771,0,0
546,253,0,0,0,0,0,0,0,0,0,-1,1770,771,0,0
553,253,0,0,0,0,0,0,0,0,0,-1,1777,771,0,0
560,253,0,0,0,0,0,0,0,0,0,-1,1784,771,0,0
567,253,0,0,0,0,0,0,0,0,0,-1,1791,771,0,0
574,253,123.62,3.96124,0,0,0,0,0,0,0,-1,1798,771,123.62,-3.96124
581,253,235.872,8.91693,0,0,0,0,0,0,0,-1,1805,771,235.872,-8.91695
588,253,125.995,4.1709,0,0,0,0,0,0,0,-1,1812,771,125.995,-4.17091
595,253,107.31,2.72931,0,0,0,0,0,0,0,-1,1819,771,107.31,-2.72928
602,253,66.4502,2.6098,0,0,0,0,0,0,0,-1,1826,771,66.4502,-2.60979
609,253,65.2542,3.18195,0,0,0,0,0,0,0,-1,1833,771,65.2541,-3.18193
616,253,58.416,2.69031,0,0,0,0,0,0,0,-1,1840,771,58.4161,-2.69031
623,253,48.8328,3.01001,0,0,0,0,0,0,0,-1,1847,771,48.8328,-3.01002
630,253,33.561,2.96838,0,0,0,0,0,0,0,-1,1854,771,33.561,-2.96836
637,253,22.3192,-0.604004,0,0,0,0,0,0,0,-1,1861,771,22.3192,0.603986
644,253,48.2843,-5.22784,0,0,0,0,0,0,0,-1,1868,771,48.2843,5.22783
651,253,71.8274,-7.87415,0,0,0,0,0,0,0,-1,1875,771,71.8274,7.87416
658,253,74.8138,-4.5741,0,0,0,0,0,0,0,-1,1882,771,74.8138,4.57408
665,253,186.111,8.97632,0,0,0,0,0,0,0,-1,1889,771,186.111,-8.9763
672,253,189.466,11.6815,0,0,0,0,0,0,0,-1,1896,771,189.466,-11.6815
679,253,188.909,14.0921,-0.0065981,0.0268188,-0.0153735,0.0328153,-0.0125946,-1.19889,0.02707,0.0194681,1903,771,188.909,-14.0921
686,253,188.265,16.4999,-0.00558615,0.0310144,-0.0191594,0.0392091,-0.0137808,-1.16663,0.0317462,0.0426513,1910,771,188.265,-16.4999
693,253,187.745,18.8035,-0.00430878,0.035494,-0.0227682,0.0458326,-0.0146474,-1.14455,0.0364326,0.0426664,1917,771,187.745,-18.8035
700,253,187.425,21.0137,-0.00274973,0.0402675,-0.026173,0.0526358,-0.015118,-1.12934,0.0410681,0.0314029,1924,771,187.425,-21.0137
707,253,187.154,23.3351,-0.000909947,0.045283,-0.029316,0.0595078,-0.0151347,-1.11904,0.0455625,0.0287552,1931,771,187.154,-23.3351
714,253,186.772,25.7816,0,0,0,0,0,0,0,-1,1938,771,186.772,-25.7815
721,253,113.766,17.9685,0,0,0,0,0,0,0,-1,1945,771,113.766,-17.9685
728,253,96.8784,15.2808,0,0,0,0,0,0,0,-1,1952,771,96.8783,-15.2808
735,253,34.5735,6.15118,0,0,0,0,0,0,0,-1,1959,771,34.5734,-6.1512
742,253,31.0571,5.7337,0,0,0,0,0,0,0,-1,1966,771,31.0571,-5.73373
749,253,33.7754,3.21533,0,0,0,0,0,0,0,-1,1973,771,33.7754,-3.21533
756,253,0,0,0,0,0,0,0,0,0,-1,1980,771,0,0
763,253,0,0,0,0,0,0,0,0,0,-1,1987,771,0,0
770,253,0,0,0,0,0,0,0,0,0,-1,1994,771,0,0
777,253,0,0,0,0,0,0,0,0,0,-1,2001,771,0,0
784,253,0,0,0,0,0,0,0,0,0,-1,2008,771,0,0
791,253,0,0,0,0,0,0,0,0,0,-1,2015,771,0,0
798,253,0,0,0,0,0,0,0,0,0,-1,2022,771,0,0
805,253,0,0,0,0,0,0,0,0,0,-1,2029,771,0,0
812,253,0,0,0,0,0,0,0,0,0,-1,2036,771,0,0
-700,246,0,0,0,0,0,0,0,0,0,-1,524,778,0,0
-693,246,0,0,0,0,0,0,0,0,0,-1,531,778,0,0
-686,246,0,0,0,0,0,0,0,0,0,-1,538,778,0,0
-679,246,0,0,0,0,0,0,0,0,0,-1,545,778,0,0
-672,246,0,0,0,0,0,0,0,0,0,-1,552,778,0,0
-665,246,0,0,0,0,0,0,0,0,0,-1,559,778,0,0
-658,246,0,0,0,0,0,0,0,0,0,-1,566,778,0,0
-651,246,0,0,0,0,0,0,0,0,0,-1,573,778,0,0
-644,246,0,0,0,0,0,0,0,0,0,-1,580,778,0,0
-637,246,-24.1234,0.130432,0,0,0,0,0,0,0,-1,587,778,-24.1234,-0.130438
-630,246,-24.0781,1.38916,0,0,0,0,0,0,0,-1,594,778,-24.0781,-1.38913
-623,246,-23.9183,2.49573,0,0,0,0,0,0,0,-1,601,778,-23.9183,-2.49575
-616,246,-26.8182,2.0705,0,0,0,0,0,0,0,-1,608,778,-26.8182,-2.07052
-609,246,-26.0615,1.16388,0,0,0,0,0,0,0,-1,615,778,-26.0615,-1.16388
-602,246,-51.7078,9.6991,0,0,0,0,0,0,0,-1,622,778,-51.7078,-9.69909
-595,246,-62.918,10.173,0,0,0,0,0,0,0,-1,629,778,-62.918,-10.173
-588,246,-180.835,28.3648,0,0,0,0,0,0,0,-1,636,778,-180.835,-28.3648
-581,246,-181.147,26.0923,-0.00243258,0.0565698,0.0272527,0.0672311,-0.013094,1.1979,0.049763,0.0398577,643,778,-181.147,-26.0923
-574,246,-181.509,23.7401,-0.00231532,0.0494853,0.0252518,0.0597579,-0.0125879,1.18444,0.0446302,0.0307996,650,778,-181.509,-23.74
-567,246,-181.963,21.4777,-0.00253439,0.043347,0.0228856,0.0528104,-0.0119978,1.1787,0.0398134,0.0260988,657,778,-181.963,-21.4777
-560,246,-182.325,19.2145,-0.00287505,0.037731,0.0201904,0.0460613,-0.0112053,1.17949,0.035045,0.0200428,664,778,-182.325,-19.2145
-553,246,-182.759,16.8634,-0.00337592,0.0325655,0.0172432,0.0395001,-0.0103105,1.18843,0.0303595,0.0168699,671,778,-182.759,-16.8634
-546,246,-183.233,14.4091,-0.00405119,0.0277542,0.0141411,0.0331321,-0.00942916,1.20738,0.0258118,0.0210481,678,778,-183.233,-14.409
-539,246,-183.676,12.1141,0,0,0,0,0,0,0,-1,685,778,-183.676,-12.1141
-532,246,-184.464,9.39063,0,0,0,0,0,0,0,-1,692,778,-184.464,-9.39062
-525,246,-185.044,6.43652,0,0,0,0,0,0,0,-1,699,778,-185.044,-6.4365
-518,246,-78.9205,-6.83978,0,0,0,0,0,0,0,-1,706,778,-78.9205,6.83976
-511,246,-28.5886,-5.38635,0,0,0,0,0,0,0,-1,713,778,-28.5886,5.38633
-504,246,-20.0047,-2.88214,0,0,0,0,0,0,0,-1,720,778,-20.0047,2.88216
-497,246,-29.4669,1.82684,0,0,0,0,0,0,0,-1,727,778,-29.4669,-1.82687
-490,246,-40.4299,1.04309,0,0,0,0,0,0,0,-1,734,778,-40.4299,-1.04308
-483,246,-55.5514,-0.0795898,0,0,0,0,0,0,0,-1,741,778,-55.5514,0.0795595
-476,246,-71.3194,0.512817,0,0,0,0,0,0,0,-1,748,778,-71.3194,-0.512787
-469,246,-71.1252,0.834961,0,0,0,0,0,0,0,-1,755,778,-71.1252,-0.834941
-462,246,-71.2921,0.690796,0,0,0,0,0,0,0,-1,762,778,-71.2921,-0.690778
-455,246,0,0,0,0,0,0,0,0,0,-1,769,778,0,0
-448,246,0,0,0,0,0,0,0,0,0,-1,776,778,0,0
-441,246,0,0,0,0,0,0,0,0,0,-1,783,778,0,0
-434,246,0,0,0,0,0,0,0,0,0,-1,790,778,0,0
-427,246,0,0,0,0,0,0,0,0,0,-1,797,778,0,0
-420,246,0,0,0,0,0,0,0,0,0,-1,804,778,0,0
-413,246,0,0,0,0,0,0,0,0,0,-1,811,778,0,0
-406,246,0,0,0,0,0,0,0,0,0,-1,818,778,0,0
-399,246,0,0,0,0,0,0,0,0,0,-1,825,778,0,0
-392,246,0,0,0,0,0,0,0,0,0,-1,832,778,0,0
-385,246,0,0,0,0,0,0,0,0,0,-1,839,778,0,0
-378,246,0,0,0,0,0,0,0,0,0,-1,846,778,0,0
-371,246,0,0,0,0,0,0,0,0,0,-1,853,778,0,0
-364,246,0,0,0,0,0,0,0,0,0,-1,860,778,0,0
-357,246,0,0,0,0,0,0,0,0,0,-1,867,778,0,0
-350,246,0,0,0,0,0,0,0,0,0,-1,874,778,0,0
-343,246,0,0,0,0,0,0,0,0,0,-1,881,778,0,0
-336,246,0,0,0,0,0,0,0,0,0,-1,888,778,0,0
-329,246,0,0,0,0,0,0,0,0,0,-1,895,778,0,0
-322,246,0,0,0,0,0,0,0,0,0,-1,902,778,0,0
-315,246,0,0,0,0,0,0,0,0,0,-1,909,778,0,0
-308,246,0,0,0,0,0,0,0,0,0,-1,916,778,0,0
-301,246,0,0,0,0,0,0,0,0,0,-1,923,778,0,0
-294,246,0,0,0,0,0,0,0,0,0,-1,930,778,0,0
-287,246,0,0,0,0,0,0,0,0,0,-1,937,778,0,0
-280,246,0,0,0,0,0,0,0,0,0,-1,944,778,0,0
-273,246,0,0,0,0,0,0,0,0,0,-1,951,778,0,0
-266,246,0,0,0,0,0,0,0,0,0,-1,958,778,0,0
-259,246,0,0,0,0,0,0,0,0,0,-1,965,778,0,0
-252,246,0,0,0,0,0,0,0,0,0,-1,972,778,0,0
-245,246,0,0,0,0,0,0,0,0,0,-1,979,778,0,0
-238,246,0,0,0,0,0,0,0,0,0,-1,986,778,0,0
-231,246,0,0,0,0,0,0,0,0,0,-1,993,778,0,0
-224,246,0,0,0,0,0,0,0,0,0,-1,1000,778,0,0
-217,246,0,0,0,0,0,0,0,0,0,-1,1007,778,0,0
-210,246,0,0,0,0,0,0,0,0,0,-1,1014,778,0,0
-203,246,0,0,0,0,0,0,0,0,0,-1,1021,778,0,0
-196,246,0,0,0,0,0,0,0,0,0,-1,1028,778,0,0
-189,246,0,0,0,0,0,0,0,0,0,-1,1035,778,0,0
-182,246,0,0,0,0,0,0,0,0,0,-1,1042,778,0,0
-175,246,0,0,0,0,0,0,0,0,0,-1,1049,778,0,0
-168,246,0,0,0,0,0,0,0,0,0,-1,1056,778,0,0
-161,246,0,0,0,0,0,0,0,0,0,-1,1063,778,0,0
-154,246,0,0,0,0,0,0,0,0,0,-1,1070,778,0,0
-147,246,0,0,0,0,0,0,0,0,0,-1,1077,778,0,0
-140,246,0,0,0,0,0,0,0,0,0,-1,1084,778,0,0
-133,246,0,0,0,0,0,0,0,0,0,-1,1091,778,0,0
-126,246,0,0,0,0,0,0,0,0,0,-1,1098,778,0,0
-119,246,0,0,0,0,0,0,0,0,0,-1,1105,778,0,0
-112,246,0,0,0,0,0,0,0,0,0,-1,1112,778,0,0
-105,246,0,0,0,0,0,0,0,0,0,-1,1119,778,0,0
-98,246,0,0,0,0,0,0,0,0,0,-1,1126,778,0,0
-91,246,0,0,0,0,0,0,0,0,0,-1,1133,778,0,0
-84,246,0,0,0,0,0,0,0,0,0,-1,1140,778,0,0
-77,246,0,0,0,0,0,0,0,0,0,-1,1147,778,0,0
-70,246,0,0,0,0,0,0,0,0,0,-1,1154,778,0,0
-63,246,0,0,0,0,0,0,0,0,0,-1,1161,778,0,0
-56,246,0,0,0,0,0,0,0,0,0,-1,1168,778,0,0
-49,246,0,0,0,0,0,0,0,0,0,-1,1175,778,0,0
-42,246,0,0,0,0,0,0,0,0,0,-1,1182,778,0,0
-35,246,0,0,0,0,0,0,0,0,0,-1,1189,778,0,0
-28,246,0,0,0,0,0,0,0,0,0,-1,1196,778,0,0
-21,246,0,0,0,0,0,0,0,0,0,-1,1203,778,0,0
-14,246,0,0,0,0,0,0,0,0,0,-1,1210,778,0,0
-7,246,0,0,0,0,0,0,0,0,0,-1,1217,778,0,0
0,246,0,0,0,0,0,0,0,0,0,-1,1224,778,0,0
7,246,0,0,0,0,0,0,0,0,0,-1,1231,778,0,0
14,246,0,0,0,0,0,0,0,0,0,-1,1238,778,0,0
21,246,0,0,0,0,0,0,0,0,0,-1,1245,778,0,0
28,246,0,0,0,0,0,0,0,0,0,-1,1252,778,0,0
35,246,0,0,0,0,0,0,0,0,0,-1,1259,778,0,0
42,246,0,0,0,0,0,0,0,0,0,-1,1266,778,0,0
49,246,0,0,0,0,0,0,0,0,0,-1,1273,778,0,0
56,246,0,0,0,0,0,0,0,0,0,-1,1280,778,0,0
63,246,0,0,0,0,0,0,0,0,0,-1,1287,778,0,0
70,246,0,0,0,0,0,0,0,0,0,-1,1294,778,0,0
77,246,0,0,0,0,0,0,0,0,0,-1,1301,778,0,0
84,246,0,0,0,0,0,0,0,0,0,-1,1308,778,0,0
91,246,0,0,0,0,0,0,0,0,0,-1,1315,778,0,0
98,246,0,0,0,0,0,0,0,0,0,-1,1322,778,0,0
105,246,0,0,0,0,0,0,0,0,0,-1,1329,778,0,0
112,246,0,0,0,0,0,0,0,0,0,-1,1336,778,0,0
119,246,0,0,0,0,0,0,0,0,0,-1,1343,778,0,0
126,246,0,0,0,0,0,0,0,0,0,-1,1350,778,0,0
133,246,0,0,0,0,0,0,0,0,0,-1,1357,778,0,0
140,246,0,0,0,0,0,0,0,0,0,-1,1364,778,0,0
147,246,0,0,0,0,0,0,0,0,0,-1,1371,778,0,0
154,246,0,0,0,0,0,0,0,0,0,-1,1378,778,0,0
161,246,0,0,0,0,0,0,0,0,0,-1,1385,778,0,0
168,246,0,0,0,0,0,0,0,0,0,-1,1392,778,0,0
175,246,0,0,0,0,0,0,0,0,0,-1,1399,778,0,0
182,246,0,0,0,0,0,0,0,0,0,-1,1406,778,0,0
189,246,0,0,0,0,0,0,0,0,0,-1,1413,778,0,0
196,246,0,0,0,0,0,0,0,0,0,-1,1420,778,0,0
203,246,0,0,0,0,0,0,0,0,0,-1,1427,778,0,0
210,246,0,0,0,0,0,0,0,0,0,-1,1434,778,0,0
217,246,0,0,0,0,0,0,0,0,0,-1,1441,778,0,0
224,246,0,0,0,0,0,0,0,0,0,-1,1448,778,0,0
231,246,0,0,0,0,0,0,0,0,0,-1,1455,778,0,0
238,246,0,0,0,0,0,0,0,0,0,-1,1462,778,0,0
245,246,0,0,0,0,0,0,0,0,0,-1,1469,778,0,0
252,246,0,0,0,0,0,0,0,0,0,-1,1476,778,0,0
259,246,0,0,0,0,0,0,0,0,0,-1,1483,778,0,0
266,246,0,0,0,0,0,0,0,0,0,-1,1490,778,0,0
273,246,0,0,0,0,0,0,0,0,0,-1,1497,778,0,0
280,246,0,0,0,0,0,0,0,0,0,-1,1504,778,0,0
287,246,0,0,0,0,0,0,0,0,0,-1,1511,778,0,0
294,246,0,0,0,0,0,0,0,0,0,-1,1518,778,0,0
301,246,0,0,0,0,0,0,0,0,0,-1,1525,778,0,0
308,246,0,0,0,0,0,0,0,0,0,-1,1532,778,0,0
315,246,0,0,0,0,0,0,0,0,0,-1,1539,778,0,0
322,246,0,0,0,0,0,0,0,0,0,-1,1546,778,0,0
329,246,0,0,0,0,0,0,0,0,0,-1,1553,778,0,0
336,246,0,0,0,0,0,0,0,0,0,-1,1560,778,0,0
343,246,0,0,0,0,0,0,0,0,0,-1,1567,778,0,0
350,246,0,0,0,0,0,0,0,0,0,-1,1574,778,0,0
357,246,0,0,0,0,0,0,0,0,0,-1,1581,778,0,0
364,246,0,0,0,0,0,0,0,0,0,-1,1588,778,0,0
371,246,0,0,0,0,0,0,0,0,0,-1,1595,778,0,0
378,246,0,0,0,0,0,0,0,0,0,-1,1602,778,0,0
385,246,0,0,0,0,0,0,0,0,0,-1,1609,778,0,0
392,246,0,0,0,0,0,0,0,0,0,-1,1616,778,0,0
399,246,0,0,0,0,0,0,0,0,0,-1,1623,778,0,0
406,246,0,0,0,0,0,0,0,0,0,-1,1630,778,0,0
413,246,0,0,0,0,0,0,0,0,0,-1,1637,778,0,0
420,246,0,0,0,0,0,0,0,0,0,-1,1644,778,0,0
427,246,0,0,0,0,0,0,0,0,0,-1,1651,778,0,0
434,246,0,0,0,0,0,0,0,0,0,-1,1658,778,0,0
441,246,0,0,0,0,0,0,0,0,0,-1,1665,778,0,0
448,246,0,0,0,0,0,0,0,0,0,-1,1672,778,0,0
455,246,0,0,0,0,0,0,0,0,0,-1,1679,778,0,0
462,246,0,0,0,0,0,0,0,0,0,-1,1686,778,0,0
469,246,0,0,0,0,0,0,0,0,0,-1,1693,778,0,0
476,246,0,0,0,0,0,0,0,0,0,-1,1700,778,0,0
483,246,0,0,0,0,0,0,0,0,0,-1,1707,778,0,0
490,246,0,0,0,0,0,0,0,0,0,-1,1714,778,0,0
497,246,0,0,0,0,0,0,0,0,0,-1,1721,778,0,0
504,246,0,0,0,0,0,0,0,0,0,-1,1728,778,0,0
511,246,0,0,0,0,0,0,0,0,0,-1,1735,778,0,0
518,246,0,0,0,0,0,0,0,0,0,-1,1742,778,0,0
525,246,0,0,0,0,0,0,0,0,0,-1,1749,778,0,0
532,246,0,0,0,0,0,0,0,0,0,-1,1756,778,0,0
539,246,0,0,0,0,0,0,0,0,0,-1,1763,778,0,0
546,246,0,0,0,0,0,0,0,0,0,-1,1770,778,0,0
553,246,0,0,0,0,0,0,0,0,0,-1,1777,778,0,0
560,246,0,0,0,0,0,0,0,0,0,-1,1784,778,0,0
567,246,0,0,0,0,0,0,0,0,0,-1,1791,778,0,0
574,246,0,0,0,0,0,0,0,0,0,-1,1798,778,0,0
581,246,235.972,8.86188,0,0,0,0,0,0,0,-1,1805,778,235.972,-8.86185
588,246,236.034,8.8938,0,0,0,0,0,0,0,-1,1812,778,236.034,-8.89378
595,246,236.091,8.70227,0,0,0,0,0,0,0,-1,1819,778,236.091,-8.70228
602,246,107.337,2.6972,0,0,0,0,0,0,0,-1,1826,778,107.337,-2.69723
609,246,65.04,3.03278,0,0,0,0,0,0,0,-1,1833,778,65.04,-3.03277
616,246,60.4568,3.98492,0,0,0,0,0,0,0,-1,1840,778,60.4568,-3.98491
623,246,55.8947,3.95953,0,0,0,0,0,0,0,-1,1847,778,55.8947,-3.95952
630,246,49.5938,1.99902,0,0,0,0,0,0,0,-1,1854,778,49.5937,-1.999
637,246,29.5785,0.837585,0,0,0,0,0,0,0,-1,1861,778,29.5785,-0.837606
644,246,28.1232,-1.43188,0,0,0,0,0,0,0,-1,1868,778,28.1232,1.43188
651,246,48.5865,-4.32922,0,0,0,0,0,0,0,-1,1875,778,48.5865,4.32921
658,246,72.3572,-5.37158,0,0,0,0,0,0,0,-1,1882,778,72.3571,5.37156
665,246,86.7817,-3.43433,0,0,0,0,0,0,0,-1,1889,778,86.7817,3.43432
672,246,192.119,11.965,0,0,0,0,0,0,0,-1,1896,778,192.119,-11.965
679,246,191.677,14.3629,-0.00675825,0.0246424,-0.0124785,0.0289974,-0.0111132,-1.23502,0.0239128,0.0345741,1903,778,191.677,-14.3629
686,246,191.165,16.8511,-0.00623792,0.0287206,-0.0164878,0.0352698,-0.0127872,-1.19269,0.02874,0.0375442,1910,778,191.164,-16.8511
693,246,190.696,19.2239,-0.00547913,0.0331044,-0.0203261,0.0418362,-0.014211,-1.16505,0.0336436,0.030797,1917,778,190.696,-19.2239
700,246,190.297,21.4326,-0.00448815,0.0377889,-0.0239829,0.0486193,-0.0153186,-1.14662,0.0385474,0.0259672,1924,778,190.297,-21.4326
707,246,189.778,23.6349,-0.00328581,0.0428067,-0.0274418,0.0555959,-0.016075,-1.13468,0.0434256,0.0228459,1931,778,189.778,-23.6349
714,246,189.423,25.8367,-0.00169218,0.0484581,-0.0306873,0.0630121,-0.0162462,-1.12794,0.0483422,0.0326899,1938,778,189.423,-25.8367
721,246,189.044,28.0078,0,0,0,0,0,0,0,-1,1945,778,189.044,-28.0077
728,246,115.72,20.5336,0,0,0,0,0,0,0,-1,1952,778,115.72,-20.5337
735,246,98.2612,18.2271,0,0,0,0,0,0,0,-1,1959,778,98.2612,-18.2271
742,246,31.7356,6.70013,0,0,0,0,0,0,0,-1,1966,778,31.7356,-6.70011
749,246,32.3883,7.69324,0,0,0,0,0,0,0,-1,1973,778,32.3883,-7.69322
756,246,33.6919,3.45264,0,0,0,0,0,0,0,-1,1980,778,33.6919,-3.45262
763,246,0,0,0,0,0,0,0,0,0,-1,1987,778,0,0
770,246,0,0,0,0,0,0,0,0,0,-1,1994,778,0,0
777,246,0,0,0,0,0,0,0,0,0,-1,2001,778,0,0
784,246,0,0,0,0,0,0,0,0,0,-1,2008,778,0,0
791,246,0,0,0,0,0,0,0,0,0,-1,2015,778,0,0
798,246,0,0,0,0,0,0,0,0,0,-1,2022,778,0,0
805,246,0,0,0,0,0,0,0,0,0,-1,2029,778,0,0
812,246,0,0,0,0,0,0,0,0,0,-1,2036,778,0,0
-700,239,0,0,0,0,0,0,0,0,0,-1,524,785,0,0
-693,239,0,0,0,0,0,0,0,0,0,-1,531,785,0,0
-686,239,0,0,0,0,0,0,0,0,0,-1,538,785,0,0
-679,239,0,0,0,0,0,0,0,0,0,-1,545,785,0,0
-672,239,0,0,0,0,0,0,0,0,0,-1,552,785,0,0
-665,239,0,0,0,0,0,0,0,0,0,-1,559,785,0,0
-658,239,0,0,0,0,0,0,0,0,0,-1,566,785,0,0
-651,239,0,0,0,0,0,0,0,0,0,-1,573,785,0,0
-644,239,0,0,0,0,0,0,0,0,0,-1,580,785,0,0
-637,239,-23.2709,0.465088,0,0,0,0,0,0,0,-1,587,785,-23.271,-0.465116
-630,239,-23.4006,0.956299,0,0,0,0,0,0,0,-1,594,785,-23.4005,-0.956285
-623,239,-30.6328,2.52185,0,0,0,0,0,0,0,-1,601,785,-30.6328,-2.52183
-616,239,-29.1425,1.42139,0,0,0,0,0,0,0,-1,608,785,-29.1425,-1.42139
-609,239,-52.9622,11.0265,0,0,0,0,0,0,0,-1,615,785,-52.9622,-11.0265
-602,239,-60.6862,12.3326,0,0,0,0,0,0,0,-1,622,785,-60.6862,-12.3326
-595,239,-170.357,30.5814,0,0,0,0,0,0,0,-1,629,785,-170.357,-30.5814
-588,239,-183.636,28.5478,0,0,0,0,0,0,0,-1,636,785,-183.636,-28.5478
-581,239,-183.959,26.2397,-0.00390544,0.0539498,0.0251579,0.0633593,-0.0133149,1.21289,0.0473066,0.0254564,643,785,-183.959,-26.2397
-574,239,-184.342,23.9138,-0.00352204,0.0470926,0.023146,0.056081,-0.0125105,1.20039,0.0421805,0.0190737,650,785,-184.342,-23.9138
-567,239,-184.659,21.7043,-0.00352468,0.0409814,0.0207925,0.0491836,-0.011727,1.19506,0.0373174,0.0197331,657,785,-184.659,-21.7044
-560,239,-185.05,19.5167,-0.00373731,0.0353476,0.0181362,0.0424666,-0.0108563,1.19675,0.0325392,0.0188152,664,785,-185.05,-19.5167
-553,239,-185.515,17.2125,-0.00413058,0.0301115,0.0152355,0.0359088,-0.00992787,1.2072,0.0278448,0.0270134,671,785,-185.515,-17.2125
-546,239,-186.044,14.7163,-0.00479521,0.0252472,0.0121744,0.0295613,-0.00910924,1.23025,0.0233441,0.038499,678,785,-186.044,-14.7163
-539,239,-186.386,12.1368,-0.00576052,0.0207734,0.00900809,0.0235426,-0.00852971,1.27255,0.0191812,0.0410328,685,785,-186.386,-12.1368
-532,239,-187.253,9.5744,0,0,0,0,0,0,0,-1,692,785,-187.253,-9.57443
-525,239,-188.068,6.9137,0,0,0,0,0,0,0,-1,699,785,-188.068,-6.91371
-518,239,-40.5128,-6.22827,0,0,0,0,0,0,0,-1,706,785,-40.5128,6.22828
-511,239,-20.9849,-2.09235,0,0,0,0,0,0,0,-1,713,785,-20.9848,2.09234
-504,239,-25.5015,2.00421,0,0,0,0,0,0,0,-1,720,785,-25.5015,-2.00422
-497,239,-40.2453,1.4447,0,0,0,0,0,0,0,-1,727,785,-40.2453,-1.4447
-490,239,-55.7633,-0.30426,0,0,0,0,0,0,0,-1,734,785,-55.7633,0.304271
-483,239,-71.5136,0.470825,0,0,0,0,0,0,0,-1,741,785,-71.5136,-0.470807
-476,239,-71.3347,0.550476,0,0,0,0,0,0,0,-1,748,785,-71.3347,-0.550462
-469,239,-71.1616,0.772156,0,0,0,0,0,0,0,-1,755,785,-71.1616,-0.772161
-462,239,-71.1605,0.909424,0,0,0,0,0,0,0,-1,762,785,-71.1605,-0.909427
-455,239,0,0,0,0,0,0,0,0,0,-1,769,785,0,0
-448,239,0,0,0,0,0,0,0,0,0,-1,776,785,0,0
-441,239,0,0,0,0,0,0,0,0,0,-1,783,785,0,0
-434,239,0,0,0,0,0,0,0,0,0,-1,790,785,0,0
-427,239,0,0,0,0,0,0,0,0,0,-1,797,785,0,0
-420,239,0,0,0,0,0,0,0,0,0,-1,804,785,0,0
-413,239,0,0,0,0,0,0,0,0,0,-1,811,785,0,0
-406,239,0,0,0,0,0,0,0,0,0,-1,818,785,0,0
-399,239,0,0,0,0,0,0,0,0,0,-1,825,785,0,0
-392,239,0,0,0,0,0,0,0,0,0,-1,832,785,0,0
-385,239,0,0,0,0,0,0,0,0,0,-1,839,785,0,0
-378,239,0,0,0,0,0,0,0,0,0,-1,846,785,0,0
-371,239,0,0,0,0,0,0,0,0,0,-1,853,785,0,0
-364,239,0,0,0,0,0,0,0,0,0,-1,860,785,0,0
-357,239,0,0,0,0,0,0,0,0,0,-1,867,785,0,0
-350,239,0,0,0,0,0,0,0,0,0,-1,874,785,0,0
-343,239,0,0,0,0,0,0,0,0,0,-1,881,785,0,0
-336,239,0,0,0,0,0,0,0,0,0,-1,888,785,0,0
-329,239,0,0,0,0,0,0,0,0,0,-1,895,785,0,0
-322,239,0,0,0,0,0,0,0,0,0,-1,902,785,0,0
-315,239,0,0,0,0,0,0,0,0,0,-1,909,785,0,0
-308,239,0,0,0,0,0,0,0,0,0,-1,916,785,0,0
-301,239,0,0,0,0,0,0,0,0,0,-1,923,785,0,0
-294,239,0,0,0,0,0,0,0,0,0,-1,930,785,0,0
-287,239,0,0,0,0,0,0,0,0,0,-1,937,785,0,0
-280,239,0,0,0,0,0,0,0,0,0,-1,944,785,0,0
-273,239,0,0,0,0,0,0,0,0,0,-1,951,785,0,0
-266,239,0,0,0,0,0,0,0,0,0,-1,958,785,0,0
-259,239,0,0,0,0,0,0,0,0,0,-1,965,785,0,0
-252,239,0,0,0,0,0,0,0,0,0,-1,972,785,0,0
-245,239,0,0,0,0,0,0,0,0,0,-1,979,785,0,0
-238,239,0,0,0,0,0,0,0,0,0,-1,986,785,0,0
-231,239,0,0,0,0,0,0,0,0,0,-1,993,785,0,0
-224,239,0,0,0,0,0,0,0,0,0,-1,1000,785,0,0
-217,239,0,0,0,0,0,0,0,0,0,-1,1007,785,0,0
-210,239,0,0,0,0,0,0,0,0,0,-1,1014,785,0,0
-203,239,0,0,0,0,0,0,0,0,0,-1,1021,785,0,0
-196,239,0,0,0,0,0,0,0,0,0,-1,1028,785,0,0
-189,239,0,0,0,0,0,0,0,0,0,-1,1035,785,0,0
-182,239,0,0,0,0,0,0,0,0,0,-1,1042,785,0,0
-175,239,0,0,0,0,0,0,0,0,0,-1,1049,785,0,0
-168,239,0,0,0,0,0,0,0,0,0,-1,1056,785,0,0
-161,239,0,0,0,0,0,0,0,0,0,-1,1063,785,0,0
-154,239,0,0,0,0,0,0,0,0,0,-1,1070,785,0,0
-147,239,0,0,0,0,0,0,0,0,0,-1,1077,785,0,0
-140,239,0,0,0,0,0,0,0,0,0,-1,1084,785,0,0
-133,239,0,0,0,0,0,0,0,0,0,-1,1091,785,0,0
-126,239,0,0,0,0,0,0,0,0,0,-1,1098,785,0,0
-119,239,0,0,0,0,0,0,0,0,0,-1,1105,785,0,0
-112,239,0,0,0,0,0,0,0,0,0,-1,1112,785,0,0
-105,239,0,0,0,0,0,0,0,0,0,-1,1119,785,0,0
-98,239,0,0,0,0,0,0,0,0,0,-1,1126,785,0,0
-91,239,0,0,0,0,0,0,0,0,0,-1,1133,785,0,0
-84,239,0,0,0,0,0,0,0,0,0,-1,1140,785,0,0
-77,239,0,0,0,0,0,0,0,0,0,-1,1147,785,0,0
-70,239,0,0,0,0,0,0,0,0,0,-1,1154,785,0,0
-63,239,0,0,0,0,0,0,0,0,0,-1,1161,785,0,0
-56,239,0,0,0,0,0,0,0,0,0,-1,1168,785,0,0
-49,239,0,0,0,0,0,0,0,0,0,-1,1175,785,0,0
-42,239,0,0,0,0,0,0,0,0,0,-1,1182,785,0,0
-35,239,0,0,0,0,0,0,0,0,0,-1,1189,785,0,0
-28,239,0,0,0,0,0,0,0,0,0,-1,1196,785,0,0
-21,239,0,0,0,0,0,0,0,0,0,-1,1203,785,0,0
-14,239,0,0,0,0,0,0,0,0,0,-1,1210,785,0,0
-7,239,0,0,0,0,0,0,0,0,0,-1,1217,785,0,0
0,239,0,0,0,0,0,0,0,0,0,-1,1224,785,0,0
7,239,0,0,0,0,0,0,0,0,0,-1,1231,785,0,0
14,239,0,0,0,0,0,0,0,0,0,-1,1238,785,0,0
21,239,0,0,0,0,0,0,0,0,0,-1,1245,785,0,0
28,239,0,0,0,0,0,0,0,0,0,-1,1252,785,0,0
35,239,0,0,0,0,0,0,0,0,0,-1,1259,785,0,0
42,239,0,0,0,0,0,0,0,0,0,-1,1266,785,0,0
49,239,0,0,0,0,0,0,0,0,0,-1,1273,785,0,0
56,239,0,0,0,0,0,0,0,0,0,-1,1280,785,0,0
63,239,0,0,0,0,0,0,0,0,0,-1,1287,785,0,0
70,239,0,0,0,0,0,0,0,0,0,-1,1294,785,0,0
77,239,0,0,0,0,0,0,0,0,0,-1,1301,785,0,0
84,239,0,0,0,0,0,0,0,0,0,-1,1308,785,0,0
91,239,0,0,0,0,0,0,0,0,0,-1,1315,785,0,0
98,239,0,0,0,0,0,0,0,0,0,-1,1322,785,0,0
105,239,0,0,0,0,0,0,0,0,0,-1,1329,785,0,0
112,239,0,0,0,0,0,0,0,0,0,-1,1336,785,0,0
119,239,0,0,0,0,0,0,0,0,0,-1,1343,785,0,0
126,239,0,0,0,0,0,0,0,0,0,-1,1350,785,0,0
133,239,0,0,0,0,0,0,0,0,0,-1,1357,785,0,0
140,239,0,0,0,0,0,0,0,0,0,-1,1364,785,0,0
147,239,0,0,0,0,0,0,0,0,0,-1,1371,785,0,0
154,239,0,0,0,0,0,0,0,0,0,-1,1378,785,0,0
161,239,0,0,0,0,0,0,0,0,0,-1,1385,785,0,0
168,239,0,0,0,0,0,0,0,0,0,-1,1392,785,0,0
175,239,0,0,0,0,0,0,0,0,0,-1,1399,785,0,0
182,239,0,0,0,0,0,0,0,0,0,-1,1406,785,0,0
189,239,0,0,0,0,0,0,0,0,0,-1,1413,785,0,0
196,239,0,0,0,0,0,0,0,0,0,-1,1420,785,0,0
203,239,0,0,0,0,0,0,0,0,0,-1,1427,785,0,0
210,239,0,0,0,0,0,0,0,0,0,-1,1434,785,0,0
217,239,0,0,0,0,0,0,0,0,0,-1,1441,785,0,0
224,239,0,0,0,0,0,0,0,0,0,-1,1448,785,0,0
231,239,0,0,0,0,0,0,0,0,0,-1,1455,785,0,0
238,239,0,0,0,0,0,0,0,0,0,-1,1462,785,0,0
245,239,0,0,0,0,0,0,0,0,0,-1,1469,785,0,0
252,239,0,0,0,0,0,0,0,0,0,-1,1476,785,0,0
259,239,0,0,0,0,0,0,0,0,0,-1,1483,785,0,0
266,239,0,0,0,0,0,0,0,0,0,-1,1490,785,0,0
273,239,0,0,0,0,0,0,0,0,0,-1,1497,785,0,0
280,239,0,0,0,0,0,0,0,0,0,-1,1504,785,0,0
287,239,0,0,0,0,0,0,0,0,0,-1,1511,785,0,0
294,239,0,0,0,0,0,0,0,0,0,-1,1518,785,0,0
301,239,0,0,0,0,0,0,0,0,0,-1,1525,785,0,0
308,239,0,0,0,0,0,0,0,0,0,-1,1532,785,0,0
315,239,0,0,0,0,0,0,0,0,0,-1,1539,785,0,0
322,239,0,0,0,0,0,0,0,0,0,-1,1546,785,0,0
329,239,0,0,0,0,0,0,0,0,0,-1,1553,785,0,0
336,239,0,0,0,0,0,0,0,0,0,-1,1560,785,0,0
343,239,0,0,0,0,0,0,0,0,0,-1,1567,785,0,0
350,239,0,0,0,0,0,0,0,0,0,-1,1574,785,0,0
357,239,0,0,0,0,0,0,0,0,0,-1,1581,785,0,0
364,239,0,0,0,0,0,0,0,0,0,-1,1588,785,0,0
371,239,0,0,0,0,0,0,0,0,0,-1,1595,785,0,0
378,239,0,0,0,0,0,0,0,0,0,-1,1602,785,0,0
385,239,0,0,0,0,0,0,0,0,0,-1,1609,785,0,0
392,239,0,0,0,0,0,0,0,0,0,-1,1616,785,0,0
399,239,0,0,0,0,0,0,0,0,0,-1,1623,785,0,0
406,239,0,0,0,0,0,0,0,0,0,-1,1630,785,0,0
413,239,0,0,0,0,0,0,0,0,0,-1,1637,785,0,0
420,239,0,0,0,0,0,0,0,0,0,-1,1644,785,0,0
427,239,0,0,0,0,0,0,0,0,0,-1,1651,785,0,0
434,239,0,0,0,0,0,0,0,0,0,-1,1658,785,0,0
441,239,0,0,0,0,0,0,0,0,0,-1,1665,785,0,0
448,239,0,0,0,0,0,0,0,0,0,-1,1672,785,0,0
455,239,0,0,0,0,0,0,0,0,0,-1,1679,785,0,0
462,239,0,0,0,0,0,0,0,0,0,-1,1686,785,0,0
469,239,0,0,0,0,0,0,0,0,0,-1,1693,785,0,0
476,239,0,0,0,0,0,0,0,0,0,-1,1700,785,0,0
483,239,0,0,0,0,0,0,0,0,0,-1,1707,785,0,0
490,239,0,0,0,0,0,0,0,0,0,-1,1714,785,0,0
497,239,0,0,0,0,0,0,0,0,0,-1,1721,785,0,0
504,239,0,0,0,0,0,0,0,0,0,-1,1728,785,0,0
511,239,0,0,0,0,0,0,0,0,0,-1,1735,785,0,0
518,239,0,0,0,0,0,0,0,0,0,-1,1742,785,0,0
525,239,0,0,0,0,0,0,0,0,0,-1,1749,785,0,0
532,239,0,0,0,0,0,0,0,0,0,-1,1756,785,0,0
539,239,0,0,0,0,0,0,0,0,0,-1,1763,785,0,0
546,239,0,0,0,0,0,0,0,0,0,-1,1770,785,0,0
553,239,0,0,0,0,0,0,0,0,0,-1,1777,785,0,0
560,239,0,0,0,0,0,0,0,0,0,-1,1784,785,0,0
567,239,0,0,0,0,0,0,0,0,0,-1,1791,785,0,0
574,239,0,0,0,0,0,0,0,0,0,-1,1798,785,0,0
581,239,236.021,8.85205,0,0,0,0,0,0,0,-1,1805,785,236.021,-8.85204
588,239,235.942,8.91321,0,0,0,0,0,0,0,-1,1812,785,235.942,-8.91319
595,239,236.028,8.87805,0,0,0,0,0,0,0,-1,1819,785,236.028,-8.87806
602,239,236.119,8.69458,0,0,0,0,0,0,0,-1,1826,785,236.119,-8.69456
609,239,100.036,2.43237,0,0,0,0,0,0,0,-1,1833,785,100.036,-2.43237
616,239,55.8469,3.72443,0,0,0,0,0,0,0,-1,1840,785,55.8469,-3.72445
623,239,65.0618,2.66516,0,0,0,0,0,0,0,-1,1847,785,65.0617,-2.66519
630,239,54.5767,3.64667,0,0,0,0,0,0,0,-1,1854,785,54.5766,-3.64667
637,239,39.5542,2.54114,0,0,0,0,0,0,0,-1,1861,785,39.5543,-2.54114
644,239,18.3466,0.735413,0,0,0,0,0,0,0,-1,1868,785,18.3465,-0.735414
651,239,34.2471,-2.15778,0,0,0,0,0,0,0,-1,1875,785,34.2471,2.1578
658,239,77.917,-5.03833,0,0,0,0,0,0,0,-1,1882,785,77.917,5.03835
665,239,79.9928,-3.56384,0,0,0,0,0,0,0,-1,1889,785,79.9928,3.56385
672,239,193.979,12.3402,0,0,0,0,0,0,0,-1,1896,785,193.979,-12.3402
679,239,194.097,14.7832,0,0,0,0,0,0,0,-1,1903,785,194.097,-14.7832
686,239,194.302,17.3329,0,0,0,0,0,0,0,-1,1910,785,194.302,-17.333
693,239,193.524,19.5815,-0.00602532,0.0309726,-0.0178832,0.0382034,-0.0132561,-1.18656,0.030852,0.0351637,1917,785,193.524,-19.5815
700,239,192.987,21.7896,-0.00548725,0.035535,-0.0217799,0.0449416,-0.0148938,-1.1631,0.0359687,0.0231445,1924,785,192.987,-21.7896
707,239,192.46,23.8572,-0.00478402,0.0404664,-0.0255687,0.0519829,-0.0163005,-1.1476,0.0411786,0.0187696,1931,785,192.46,-23.8572
714,239,192.05,25.9944,-0.00379068,0.0459727,-0.0292853,0.0595193,-0.0173372,-1.13754,0.0465476,0.0234779,1938,785,192.05,-25.9944
721,239,191.567,28.0292,0,0,0,0,0,0,0,-1,1945,785,191.567,-28.0292
728,239,137.158,26.5078,0,0,0,0,0,0,0,-1,1952,785,137.158,-26.5077
735,239,77.1766,10.8863,0,0,0,0,0,0,0,-1,1959,785,77.1767,-10.8863
742,239,32.4141,7.6665,0,0,0,0,0,0,0,-1,1966,785,32.4141,-7.6665
749,239,32.1489,3.4411,0,0,0,0,0,0,0,-1,1973,785,32.149,-3.44109
756,239,32.9064,3.6687,0,0,0,0,0,0,0,-1,1980,785,32.9063,-3.66873
763,239,0,0,0,0,0,0,0,0,0,-1,1987,785,0,0
770,239,0,0,0,0,0,0,0,0,0,-1,1994,785,0,0
777,239,0,0,0,0,0,0,0,0,0,-1,2001,785,0,0
784,239,0,0,0,0,0,0,0,0,0,-1,2008,785,0,0
791,239,0,0,0,0,0,0,0,0,0,-1,2015,785,0,0
798,239,0,0,0,0,0,0,0,0,0,-1,2022,785,0,0
805,239,0,0,0,0,0,0,0,0,0,-1,2029,785,0,0
812,239,0,0,0,0,0,0,0,0,0,-1,2036,785,0,0
-700,232,0,0,0,0,0,0,0,0,0,-1,524,792,0,0
-693,232,0,0,0,0,0,0,0,0,0,-1,531,792,0,0
-686,232,0,0,0,0,0,0,0,0,0,-1,538,792,0,0
-679,232,0,0,0,0,0,0,0,0,0,-1,545,792,0,0
-672,232,0,0,0,0,0,0,0,0,0,-1,552,792,0,0
-665,232,0,0,0,0,0,0,0,0,0,-1,559,792,0,0
-658,232,0,0,0,0,0,0,0,0,0,-1,566,792,0,0
-651,232,0,0,0,0,0,0,0,0,0,-1,573,792,0,0
-644,232,-41.2348,4.28168,0,0,0,0,0,0,0,-1,580,792,-41.2348,-4.28166
-637,232,-42.1427,3.51453,0,0,0,0,0,0,0,-1,587,792,-42.1427,-3.51452
-630,232,-32.2345,1.80212,0,0,0,0,0,0,0,-1,594,792,-32.2345,-1.80211
-623,232,-31.5665,1.05115,0,0,0,0,0,0,0,-1,601,792,-31.5664,-1.05112
-616,232,-30.6812,0.432861,0,0,0,0,0,0,0,-1,608,792,-30.6812,-0.432881
-609,232,-100.422,23.6974,0,0,0,0,0,0,0,-1,615,792,-100.422,-23.6974
-602,232,-80.7242,16.2311,0,0,0,0,0,0,0,-1,622,792,-80.7242,-16.2311
-595,232,-186.205,30.9863,0,0,0,0,0,0,0,-1,629,792,-186.205,-30.9863
-588,232,-186.299,28.6133,-0.00694132,0.0584357,0.0247048,0.0667211,-0.0152268,1.24721,0.0503301,0.0324241,636,792,-186.299,-28.6133
-581,232,-186.587,26.2926,-0.00548672,0.0512454,0.0231612,0.0595,-0.0137413,1.22843,0.0449528,0.0147955,643,792,-186.587,-26.2926
-574,232,-186.895,24.1994,-0.00458219,0.0444334,0.0211622,0.0523057,-0.0124545,1.21466,0.0396789,0.0128316,650,792,-186.895,-24.1994
-567,232,-187.308,21.9786,-0.00411917,0.0382305,0.0188753,0.0454221,-0.0113107,1.20677,0.0346721,0.0151064,657,792,-187.308,-21.9787
-560,232,-187.728,19.8025,-0.00393437,0.0324666,0.0163121,0.0387067,-0.0101745,1.20543,0.029781,0.0188601,664,792,-187.728,-19.8025
-553,232,-188.228,17.566,-0.00401989,0.0271192,0.013524,0.0321727,-0.00907337,1.21319,0.0250273,0.0281133,671,792,-188.228,-17.566
-546,232,-188.738,15.194,0,0,0,0,0,0,0,-1,678,792,-188.738,-15.194
-539,232,-189.173,12.629,0,0,0,0,0,0,0,-1,685,792,-189.173,-12.629
-532,232,-190.136,9.64642,0,0,0,0,0,0,0,-1,692,792,-190.136,-9.64642
-525,232,-72.6752,-4.75323,0,0,0,0,0,0,0,-1,699,792,-72.6752,4.75324
-518,232,-20.8098,-3.08154,0,0,0,0,0,0,0,-1,706,792,-20.8098,3.08155
-511,232,-21.6708,-0.962708,0,0,0,0,0,0,0,-1,713,792,-21.6708,0.962731
-504,232,-34.2155,0.346985,0,0,0,0,0,0,0,-1,720,792,-34.2155,-0.346955
-497,232,-52.7195,0.518677,0,0,0,0,0,0,0,-1,727,792,-52.7195,-0.518678
-490,232,-71.4019,0.270386,0,0,0,0,0,0,0,-1,734,792,-71.4019,-0.270382
-483,232,-71.4127,0.497375,0,0,0,0,0,0,0,-1,741,792,-71.4127,-0.497367
-476,232,-71.2791,0.580017,0,0,0,0,0,0,0,-1,748,792,-71.2791,-0.580024
-469,232,-71.2144,0.716919,0,0,0,0,0,0,0,-1,755,792,-71.2143,-0.716921
-462,232,0,0,0,0,0,0,0,0,0,-1,762,792,0,0
-455,232,0,0,0,0,0,0,0,0,0,-1,769,792,0,0
-448,232,0,0,0,0,0,0,0,0,0,-1,776,792,0,0
-441,232,0,0,0,0,0,0,0,0,0,-1,783,792,0,0
-434,232,0,0,0,0,0,0,0,0,0,-1,790,792,0,0
-427,232,0,0,0,0,0,0,0,0,0,-1,797,792,0,0
-420,232,0,0,0,0,0,0,0,0,0,-1,804,792,0,0
-413,232,0,0,0,0,0,0,0,0,0,-1,811,792,0,0
-406,232,0,0,0,0,0,0,0,0,0,-1,818,792,0,0
-399,232,0,0,0,0,0,0,0,0,0,-1,825,792,0,0
-392,232,0,0,0,0,0,0,0,0,0,-1,832,792,0,0
-385,232,0,0,0,0,0,0,0,0,0,-1,839,792,0,0
-378,232,0,0,0,0,0,0,0,0,0,-1,846,792,0,0
-371,232,0,0,0,0,0,0,0,0,0,-1,853,792,0,0
-364,232,0,0,0,0,0,0,0,0,0,-1,860,792,0,0
-357,232,0,0,0,0,0,0,0,0,0,-1,867,792,0,0
-350,232,0,0,0,0,0,0,0,0,0,-1,874,792,0,0
-343,232,0,0,0,0,0,0,0,0,0,-1,881,792,0,0
-336,232,0,0,0,0,0,0,0,0,0,-1,888,792,0,0
-329,232,0,0,0,0,0,0,0,0,0,-1,895,792,0,0
-322,232,0,0,0,0,0,0,0,0,0,-1,902,792,0,0
-315,232,0,0,0,0,0,0,0,0,0,-1,909,792,0,0
-308,232,0,0,0,0,0,0,0,0,0,-1,916,792,0,0
-301,232,0,0,0,0,0,0,0,0,0,-1,923,792,0,0
-294,232,0,0,0,0,0,0,0,0,0,-1,930,792,0,0
-287,232,0,0,0,0,0,0,0,0,0,-1,937,792,0,0
-280,232,0,0,0,0,0,0,0,0,0,-1,944,792,0,0
-273,232,0,0,0,0,0,0,0,0,0,-1,951,792,0,0
-266,232,0,0,0,0,0,0,0,0,0,-1,958,792,0,0
-259,232,0,0,0,0,0,0,0,0,0,-1,965,792,0,0
-252,232,0,0,0,0,0,0,0,0,0,-1,972,792,0,0
-245,232,0,0,0,0,0,0,0,0,0,-1,979,792,0,0
-238,232,0,0,0,0,0,0,0,0,0,-1,986,792,0,0
-231,232,0,0,0,0,0,0,0,0,0,-1,993,792,0,0
-224,232,0,0,0,0,0,0,0,0,0,-1,1000,792,0,0
-217,232,0,0,0,0,0,0,0,0,0,-1,1007,792,0,0
-210,232,0,0,0,0,0,0,0,0,0,-1,1014,792,0,0
-203,232,0,0,0,0,0,0,0,0,0,-1,1021,792,0,0
-196,232,0,0,0,0,0,0,0,0,0,-1,1028,792,0,0
-189,232,0,0,0,0,0,0,0,0,0,-1,1035,792,0,0
-182,232,0,0,0,0,0,0,0,0,0,-1,1042,792,0,0
-175,232,0,0,0,0,0,0,0,0,0,-1,1049,792,0,0
-168,232,0,0,0,0,0,0,0,0,0,-1,1056,792,0,0
-161,232,0,0,0,0,0,0,0,0,0,-1,1063,792,0,0
-154,232,0,0,0,0,0,0,0,0,0,-1,1070,792,0,0
-147,232,0,0,0,0,0,0,0,0,0,-1,1077,792,0,0
-140,232,0,0,0,0,0,0,0,0,0,-1,1084,792,0,0
-133,232,0,0,0,0,0,0,0,0,0,-1,1091,792,0,0
-126,232,0,0,0,0,0,0,0,0,0,-1,1098,792,0,0
-119,232,0,0,0,0,0,0,0,0,0,-1,1105,792,0,0
-112,232,0,0,0,0,0,0,0,0,0,-1,1112,792,0,0
-105,232,0,0,0,0,0,0,0,0,0,-1,1119,792,0,0
-98,232,0,0,0,0,0,0,0,0,0,-1,1126,792,0,0
-91,232,0,0,0,0,0,0,0,0,0,-1,1133,792,0,0
-84,232,0,0,0,0,0,0,0,0,0,-1,1140,792,0,0
-77,232,0,0,0,0,0,0,0,0,0,-1,1147,792,0,0
-70,232,0,0,0,0,0,0,0,0,0,-1,1154,792,0,0
-63,232,0,0,0,0,0,0,0,0,0,-1,1161,792,0,0
-56,232,0,0,0,0,0,0,0,0,0,-1,1168,792,0,0
-49,232,0,0,0,0,0,0,0,0,0,-1,1175,792,0,0
-42,232,0,0,0,0,0,0,0,0,0,-1,1182,792,0,0
-35,232,0,0,0,0,0,0,0,0,0,-1,1189,792,0,0
-28,232,0,0,0,0,0,0,0,0,0,-1,1196,792,0,0
-21,232,0,0,0,0,0,0,0,0,0,-1,1203,792,0,0
-14,232,0,0,0,0,0,0,0,0,0,-1,1210,792,0,0
-7,232,0,0,0,0,0,0,0,0,0,-1,1217,792,0,0
0,232,0,0,0,0,0,0,0,0,0,-1,1224,792,0,0
7,232,0,0,0,0,0,0,0,0,0,-1,1231,792,0,0
14,232,0,0,0,0,0,0,0,0,0,-1,1238,792,0,0
21,232,0,0,0,0,0,0,0,0,0,-1,1245,792,0,0
28,232,0,0,0,0,0,0,0,0,0,-1,1252,792,0,0
35,232,0,0,0,0,0,0,0,0,0,-1,1259,792,0,0
42,232,0,0,0,0,0,0,0,0,0,-1,1266,792,0,0
49,232,0,0,0,0,0,0,0,0,0,-1,1273,792,0,0
56,232,0,0,0,0,0,0,0,0,0,-1,1280,792,0,0
63,232,0,0,0,0,0,0,0,0,0,-1,1287,792,0,0
70,232,0,0,0,0,0,0,0,0,0,-1,1294,792,0,0
77,232,0,0,0,0,0,0,0,0,0,-1,1301,792,0,0
84,232,0,0,0,0,0,0,0,0,0,-1,1308,792,0,0
91,232,0,0,0,0,0,0,0,0,0,-1,1315,792,0,0
98,232,0,0,0,0,0,0,0,0,0,-1,1322,792,0,0
105,232,0,0,0,0,0,0,0,0,0,-1,1329,792,0,0
112,232,0,0,0,0,0,0,0,0,0,-1,1336,792,0,0
119,232,0,0,0,0,0,0,0,0,0,-1,1343,792,0,0
126,232,0,0,0,0,0,0,0,0,0,-1,1350,792,0,0
133,232,0,0,0,0,0,0,0,0,0,-1,1357,792,0,0
140,232,0,0,0,0,0,0,0,0,0,-1,1364,792,0,0
147,232,0,0,0,0,0,0,0,0,0,-1,1371,792,0,0
154,232,0,0,0,0,0,0,0,0,0,-1,1378,792,0,0
161,232,0,0,0,0,0,0,0,0,0,-1,1385,792,0,0
168,232,0,0,0,0,0,0,0,0,0,-1,1392,792,0,0
175,232,0,0,0,0,0,0,0,0,0,-1,1399,792,0,0
182,232,0,0,0,0,0,0,0,0,0,-1,1406,792,0,0
189,232,0,0,0,0,0,0,0,0,0,-1,1413,792,0,0
196,232,0,0,0,0,0,0,0,0,0,-1,1420,792,0,0
203,232,0,0,0,0,0,0,0,0,0,-1,1427,792,0,0
210,232,0,0,0,0,0,0,0,0,0,-1,1434,792,0,0
217,232,0,0,0,0,0,0,0,0,0,-1,1441,792,0,0
224,232,0,0,0,0,0,0,0,0,0,-1,1448,792,0,0
231,232,0,0,0,0,0,0,0,0,0,-1,1455,792,0,0
238,232,0,0,0,0,0,0,0,0,0,-1,1462,792,0,0
245,232,0,0,0,0,0,0,0,0,0,-1,1469,792,0,0
252,232,0,0,0,0,0,0,0,0,0,-1,1476,792,0,0
259,232,0,0,0,0,0,0,0,0,0,-1,1483,792,0,0
266,232,0,0,0,0,0,0,0,0,0,-1,1490,792,0,0
273,232,0,0,0,0,0,0,0,0,0,-1,1497,792,0,0
280,232,0,0,0,0,0,0,0,0,0,-1,1504,792,0,0
287,232,0,0,0,0,0,0,0,0,0,-1,1511,792,0,0
294,232,0,0,0,0,0,0,0,0,0,-1,1518,792,0,0
301,232,0,0,0,0,0,0,0,0,0,-1,1525,792,0,0
308,232,0,0,0,0,0,0,0,0,0,-1,1532,792,0,0
315,232,0,0,0,0,0,0,0,0,0,-1,1539,792,0,0
322,232,0,0,0,0,0,0,0,0,0,-1,1546,792,0,0
329,232,0,0,0,0,0,0,0,0,0,-1,1553,792,0,0
336,232,0,0,0,0,0,0,0,0,0,-1,1560,792,0,0
343,232,0,0,0,0,0,0,0,0,0,-1,1567,792,0,0
350,232,0,0,0,0,0,0,0,0,0,-1,1574,792,0,0
357,232,0,0,0,0,0,0,0,0,0,-1,1581,792,0,0
364,232,0,0,0,0,0,0,0,0,0,-1,1588,792,0,0
371,232,0,0,0,0,0,0,0,0,0,-1,1595,792,0,0
378,232,0,0,0,0,0,0,0,0,0,-1,1602,792,0,0
385,232,0,0,0,0,0,0,0,0,0,-1,1609,792,0,0
392,232,0,0,0,0,0,0,0,0,0,-1,1616,792,0,0
399,232,0,0,0,0,0,0,0,0,0,-1,1623,792,0,0
406,232,0,0,0,0,0,0,0,0,0,-1,1630,792,0,0
413,232,0,0,0,0,0,0,0,0,0,-1,1637,792,0,0
420,232,0,0,0,0,0,0,0,0,0,-1,1644,792,0,0
427,232,0,0,0,0,0,0,0,0,0,-1,1651,792,0,0
434,232,0,0,0,0,0,0,0,0,0,-1,1658,792,0,0
441,232,0,0,0,0,0,0,0,0,0,-1,1665,792,0,0
448,232,0,0,0,0,0,0,0,0,0,-1,1672,792,0,0
455,232,0,0,0,0,0,0,0,0,0,-1,1679,792,0,0
462,232,0,0,0,0,0,0,0,0,0,-1,1686,792,0,0
469,232,0,0,0,0,0,0,0,0,0,-1,1693,792,0,0
476,232,0,0,0,0,0,0,0,0,0,-1,1700,792,0,0
483,232,0,0,0,0,0,0,0,0,0,-1,1707,792,0,0
490,232,0,0,0,0,0,0,0,0,0,-1,1714,792,0,0
497,232,0,0,0,0,0,0,0,0,0,-1,1721,792,0,0
504,232,0,0,0,0,0,0,0,0,0,-1,1728,792,0,0
511,232,0,0,0,0,0,0,0,0,0,-1,1735,792,0,0
518,232,0,0,0,0,0,0,0,0,0,-1,1742,792,0,0
525,232,0,0,0,0,0,0,0,0,0,-1,1749,792,0,0
532,232,0,0,0,0,0,0,0,0,0,-1,1756,792,0,0
539,232,0,0,0,0,0,0,0,0,0,-1,1763,792,0,0
546,232,0,0,0,0,0,0,0,0,0,-1,1770,792,0,0
553,232,0,0,0,0,0,0,0,0,0,-1,1777,792,0,0
560,232,0,0,0,0,0,0,0,0,0,-1,1784,792,0,0
567,232,0,0,0,0,0,0,0,0,0,-1,1791,792,0,0
574,232,0,0,0,0,0,0,0,0,0,-1,1798,792,0,0
581,232,0,0,0,0,0,0,0,0,0,-1,1805,792,0,0
588,232,235.958,8.80798,0,0,0,0,0,0,0,-1,1812,792,235.958,-8.80801
595,232,235.978,8.83813,0,0,0,0,0,0,0,-1,1819,792,235.978,-8.83815
602,232,235.971,8.76837,0,0,0,0,0,0,0,-1,1826,792,235.971,-8.76834
609,232,236.041,8.67236,0,0,0,0,0,0,0,-1,1833,792,236.041,-8.67234
616,232,95.6742,2.46368,0,0,0,0,0,0,0,-1,1840,792,95.6742,-2.46369
623,232,74.9668,2.53278,0,0,0,0,0,0,0,-1,1847,792,74.9667,-2.5328
630,232,64.9034,2.97992,0,0,0,0,0,0,0,-1,1854,792,64.9035,-2.9799
637,232,47.0471,4.04309,0,0,0,0,0,0,0,-1,1861,792,47.0471,-4.04309
644,232,30.7756,4.24139,0,0,0,0,0,0,0,-1,1868,792,30.7757,-4.24141
651,232,31.6797,-0.564087,0,0,0,0,0,0,0,-1,1875,792,31.6797,0.564059
658,232,79.729,-4.87579,0,0,0,0,0,0,0,-1,1882,792,79.729,4.87581
665,232,79.3129,-3.47662,0,0,0,0,0,0,0,-1,1889,792,79.3128,3.47662
672,232,196.525,13.1836,0,0,0,0,0,0,0,-1,1896,792,196.525,-13.1836
679,232,196.426,15.4487,0,0,0,0,0,0,0,-1,1903,792,196.425,-15.4487
686,232,196.343,17.6799,-0.0051377,0.0247594,-0.0114362,0.0286323,-0.00901058,-1.24427,0.022696,0.045581,1910,792,196.343,-17.68
693,232,195.938,19.877,-0.00553081,0.0288148,-0.0155382,0.034801,-0.011517,-1.20306,0.0278452,0.0247061,1917,792,195.938,-19.877
700,232,195.509,22.0356,-0.00584997,0.033263,-0.0195619,0.0413674,-0.0139544,-1.17803,0.0332214,0.0233543,1924,792,195.509,-22.0356
707,232,195.09,24.1407,-0.00613913,0.0380634,-0.0234911,0.0482158,-0.0162915,-1.16286,0.0387338,0.0219411,1931,792,195.09,-24.1407
714,232,194.592,26.251,-0.0063809,0.0432876,-0.0273457,0.0553929,-0.0184862,-1.15405,0.0443928,0.0302908,1938,792,194.592,-26.251
721,232,193.975,28.2787,0,0,0,0,0,0,0,-1,1945,792,193.975,-28.2787
728,232,180.091,29.92,0,0,0,0,0,0,0,-1,1952,792,180.091,-29.92
735,232,75.9558,10.0535,0,0,0,0,0,0,0,-1,1959,792,75.9558,-10.0535
742,232,25.6461,6.00684,0,0,0,0,0,0,0,-1,1966,792,25.6461,-6.00684
749,232,31.2874,3.74713,0,0,0,0,0,0,0,-1,1973,792,31.2874,-3.74713
756,232,34.9586,15.3984,0,0,0,0,0,0,0,-1,1980,792,34.9586,-15.3984
763,232,35.741,16.6099,0,0,0,0,0,0,0,-1,1987,792,35.741,-16.6099
770,232,0,0,0,0,0,0,0,0,0,-1,1994,792,0,0
777,232,0,0,0,0,0,0,0,0,0,-1,2001,792,0,0
784,232,0,0,0,0,0,0,0,0,0,-1,2008,792,0,0
791,232,0,0,0,0,0,0,0,0,0,-1,2015,792,0,0
798,232,0,0,0,0,0,0,0,0,0,-1,2022,792,0,0
805,232,0,0,0,0,0,0,0,0,0,-1,2029,792,0,0
812,232,0,0,0,0,0,0,0,0,0,-1,2036,792,0,0
-700,225,0,0,0,0,0,0,0,0,0,-1,524,799,0,0
-693,225,0,0,0,0,0,0,0,0,0,-1,531,799,0,0
-686,225,0,0,0,0,0,0,0,0,0,-1,538,799,0,0
-679,225,0,0,0,0,0,0,0,0,0,-1,545,799,0,0
-672,225,0,0,0,0,0,0,0,0,0,-1,552,799,0,0
-665,225,0,0,0,0,0,0,0,0,0,-1,559,799,0,0
-658,225,0,0,0,0,0,0,0,0,0,-1,566,799,0,0
-651,225,0,0,0,0,0,0,0,0,0,-1,573,799,0,0
-644,225,-40.8898,4.14661,0,0,0,0,0,0,0,-1,580,799,-40.8898,-4.14661
-637,225,-41.61,3.36749,0,0,0,0,0,0,0,-1,587,799,-41.61,-3.36751
-630,225,-30.244,4.82196,0,0,0,0,0,0,0,-1,594,799,-30.244,-4.82193
-623,225,-32.8276,-0.00836182,0,0,0,0,0,0,0,-1,601,799,-32.8276,0.00837668
-616,225,-101.933,24.8918,0,0,0,0,0,0,0,-1,608,799,-101.933,-24.8918
-609,225,-126.364,27.8994,0,0,0,0,0,0,0,-1,615,799,-126.364,-27.8994
-602,225,-130.831,27.6741,0,0,0,0,0,0,0,-1,622,799,-130.831,-27.6741
-595,225,-188.275,31.265,0,0,0,0,0,0,0,-1,629,799,-188.275,-31.265
-588,225,-188.789,28.5587,-0.00886785,0.0556981,0.0230609,0.0630888,-0.0162585,1.26065,0.0483977,0.0264349,636,799,-188.789,-28.5587
-581,225,-189.079,26.4663,-0.00670652,0.0485183,0.0214974,0.0558999,-0.0140881,1.24004,0.0427437,0.0166701,643,799,-189.079,-26.4663
-574,225,-189.458,24.4492,-0.00518514,0.0417157,0.0195995,0.0488277,-0.0122971,1.22271,0.0373321,0.0129729,650,799,-189.458,-24.4492
-567,225,-189.886,22.2722,-0.00414513,0.0353988,0.0174532,0.0420001,-0.0107464,1.2092,0.0321858,0.0168327,657,799,-189.886,-22.2722
-560,225,-190.23,20.0884,-0.00348434,0.0294989,0.0150447,0.0353303,-0.00931574,1.20102,0.0271959,0.0175442,664,799,-190.23,-20.0884
-553,225,-190.611,17.8755,-0.00318309,0.0240189,0.0124192,0.0288359,-0.00800009,1.20079,0.0223726,0.0223138,671,799,-190.611,-17.8755
-546,225,-190.896,15.7164,0,0,0,0,0,0,0,-1,678,799,-190.896,-15.7164
-539,225,-191.882,12.9413,0,0,0,0,0,0,0,-1,685,799,-191.882,-12.9414
-532,225,-73.9179,-3.04211,0,0,0,0,0,0,0,-1,692,799,-73.9179,3.04213
-525,225,-29.1705,-3.88239,0,0,0,0,0,0,0,-1,699,799,-29.1705,3.88237
-518,225,-21.963,0.171326,0,0,0,0,0,0,0,-1,706,799,-21.9629,-0.171319
-511,225,-33.0002,0.660217,0,0,0,0,0,0,0,-1,713,799,-33.0002,-0.660239
-504,225,-50.4542,0.524109,0,0,0,0,0,0,0,-1,720,799,-50.4542,-0.524105
-497,225,-71.3785,0.302002,0,0,0,0,0,0,0,-1,727,799,-71.3785,-0.302022
-490,225,-71.3395,0.410217,0,0,0,0,0,0,0,-1,734,799,-71.3395,-0.410223
-483,225,-71.3074,0.58075,0,0,0,0,0,0,0,-1,741,799,-71.3074,-0.580749
-476,225,-71.2732,0.59375,0,0,0,0,0,0,0,-1,748,799,-71.2732,-0.593749
-469,225,-71.2862,0.688171,0,0,0,0,0,0,0,-1,755,799,-71.2862,-0.688153
-462,225,0,0,0,0,0,0,0,0,0,-1,762,799,0,0
-455,225,0,0,0,0,0,0,0,0,0,-1,769,799,0,0
-448,225,0,0,0,0,0,0,0,0,0,-1,776,799,0,0
-441,225,0,0,0,0,0,0,0,0,0,-1,783,799,0,0
-434,225,0,0,0,0,0,0,0,0,0,-1,790,799,0,0
-427,225,0,0,0,0,0,0,0,0,0,-1,797,799,0,0
-420,225,0,0,0,0,0,0,0,0,0,-1,804,799,0,0
-413,225,0,0,0,0,0,0,0,0,0,-1,811,799,0,0
-406,225,0,0,0,0,0,0,0,0,0,-1,818,799,0,0
-399,225,0,0,0,0,0,0,0,0,0,-1,825,799,0,0
-392,225,0,0,0,0,0,0,0,0,0,-1,832,799,0,0
-385,225,0,0,0,0,0,0,0,0,0,-1,839,799,0,0
-378,225,0,0,0,0,0,0,0,0,0,-1,846,799,0,0
-371,225,0,0,0,0,0,0,0,0,0,-1,853,799,0,0
-364,225,0,0,0,0,0,0,0,0,0,-1,860,799,0,0
-357,225,0,0,0,0,0,0,0,0,0,-1,867,799,0,0
-350,225,0,0,0,0,0,0,0,0,0,-1,874,799,0,0
-343,225,0,0,0,0,0,0,0,0,0,-1,881,799,0,0
-336,225,0,0,0,0,0,0,0,0,0,-1,888,799,0,0
-329,225,0,0,0,0,0,0,0,0,0,-1,895,799,0,0
-322,225,0,0,0,0,0,0,0,0,0,-1,902,799,0,0
-315,225,0,0,0,0,0,0,0,0,0,-1,909,799,0,0
-308,225,0,0,0,0,0,0,0,0,0,-1,916,799,0,0
-301,225,0,0,0,0,0,0,0,0,0,-1,923,799,0,0
-294,225,0,0,0,0,0,0,0,0,0,-1,930,799,0,0
-287,225,0,0,0,0,0,0,0,0,0,-1,937,799,0,0
-280,225,0,0,0,0,0,0,0,0,0,-1,944,799,0,0
-273,225,0,0,0,0,0,0,0,0,0,-1,951,799,0,0
-266,225,0,0,0,0,0,0,0,0,0,-1,958,799,0,0
-259,225,0,0,0,0,0,0,0,0,0,-1,965,799,0,0
-252,225,0,0,0,0,0,0,0,0,0,-1,972,799,0,0
-245,225,0,0,0,0,0,0,0,0,0,-1,979,799,0,0
-238,225,0,0,0,0,0,0,0,0,0,-1,986,799,0,0
-231,225,0,0,0,0,0,0,0,0,0,-1,993,799,0,0
-224,225,0,0,0,0,0,0,0,0,0,-1,1000,799,0,0
-217,225,0,0,0,0,0,0,0,0,0,-1,1007,799,0,0
-210,225,0,0,0,0,0,0,0,0,0,-1,1014,799,0,0
-203,225,0,0,0,0,0,0,0,0,0,-1,1021,799,0,0
-196,225,0,0,0,0,0,0,0,0,0,-1,1028,799,0,0
-189,225,0,0,0,0,0,0,0,0,0,-1,1035,799,0,0
-182,225,0,0,0,0,0,0,0,0,0,-1,1042,799,0,0
-175,225,0,0,0,0,0,0,0,0,0,-1,1049,799,0,0
-168,225,0,0,0,0,0,0,0,0,0,-1,1056,799,0,0
-161,225,0,0,0,0,0,0,0,0,0,-1,1063,799,0,0
-154,225,0,0,0,0,0,0,0,0,0,-1,1070,799,0,0
-147,225,0,0,0,0,0,0,0,0,0,-1,1077,799,0,0
-140,225,0,0,0,0,0,0,0,0,0,-1,1084,799,0,0
-133,225,0,0,0,0,0,0,0,0,0,-1,1091,799,0,0
-126,225,0,0,0,0,0,0,0,0,0,-1,1098,799,0,0
-119,225,0,0,0,0,0,0,0,0,0,-1,1105,799,0,0
-112,225,0,0,0,0,0,0,0,0,0,-1,1112,799,0,0
-105,225,0,0,0,0,0,0,0,0,0,-1,1119,799,0,0
-98,225,0,0,0,0,0,0,0,0,0,-1,1126,799,0,0
-91,225,0,0,0,0,0,0,0,0,0,-1,1133,799,0,0
-84,225,0,0,0,0,0,0,0,0,0,-1,1140,799,0,0
-77,225,0,0,0,0,0,0,0,0,0,-1,1147,799,0,0
-70,225,0,0,0,0,0,0,0,0,0,-1,1154,799,0,0
-63,225,0,0,0,0,0,0,0,0,0,-1,1161,799,0,0
-56,225,0,0,0,0,0,0,0,0,0,-1,1168,799,0,0
-49,225,0,0,0,0,0,0,0,0,0,-1,1175,799,0,0
-42,225,0,0,0,0,0,0,0,0,0,-1,1182,799,0,0
-35,225,0,0,0,0,0,0,0,0,0,-1,1189,799,0,0
-28,225,0,0,0,0,0,0,0,0,0,-1,1196,799,0,0
-21,225,0,0,0,0,0,0,0,0,0,-1,1203,799,0,0
-14,225,0,0,0,0,0,0,0,0,0,-1,1210,799,0,0
-7,225,0,0,0,0,0,0,0,0,0,-1,1217,799,0,0
0,225,0,0,0,0,0,0,0,0,0,-1,1224,799,0,0
7,225,0,0,0,0,0,0,0,0,0,-1,1231,799,0,0
14,225,0,0,0,0,0,0,0,0,0,-1,1238,799,0,0
21,225,0,0,0,0,0,0,0,0,0,-1,1245,799,0,0
28,225,0,0,0,0,0,0,0,0,0,-1,1252,799,0,0
35,225,0,0,0,0,0,0,0,0,0,-1,1259,799,0,0
42,225,0,0,0,0,0,0,0,0,0,-1,1266,799,0,0
49,225,0,0,0,0,0,0,0,0,0,-1,1273,799,0,0
56,225,0,0,0,0,0,0,0,0,0,-1,1280,799,0,0
63,225,0,0,0,0,0,0,0,0,0,-1,1287,799,0,0
70,225,0,0,0,0,0,0,0,0,0,-1,1294,799,0,0
77,225,0,0,0,0,0,0,0,0,0,-1,1301,799,0,0
84,225,0,0,0,0,0,0,0,0,0,-1,1308,799,0,0
91,225,0,0,0,0,0,0,0,0,0,-1,1315,799,0,0
98,225,0,0,0,0,0,0,0,0,0,-1,1322,799,0,0
105,225,0,0,0,0,0,0,0,0,0,-1,1329,799,0,0
112,225,0,0,0,0,0,0,0,0,0,-1,1336,799,0,0
119,225,0,0,0,0,0,0,0,0,0,-1,1343,799,0,0
126,225,0,0,0,0,0,0,0,0,0,-1,1350,799,0,0
133,225,0,0,0,0,0,0,0,0,0,-1,1357,799,0,0
140,225,0,0,0,0,0,0,0,0,0,-1,1364,799,0,0
147,225,0,0,0,0,0,0,0,0,0,-1,1371,799,0,0
154,225,0,0,0,0,0,0,0,0,0,-1,1378,799,0,0
161,225,0,0,0,0,0,0,0,0,0,-1,1385,799,0,0
168,225,0,0,0,0,0,0,0,0,0,-1,1392,799,0,0
175,225,0,0,0,0,0,0,0,0,0,-1,1399,799,0,0
182,225,0,0,0,0,0,0,0,0,0,-1,1406,799,0,0
189,225,0,0,0,0,0,0,0,0,0,-1,1413,799,0,0
196,225,0,0,0,0,0,0,0,0,0,-1,1420,799,0,0
203,225,0,0,0,0,0,0,0,0,0,-1,1427,799,0,0
210,225,0,0,0,0,0,0,0,0,0,-1,1434,799,0,0
217,225,0,0,0,0,0,0,0,0,0,-1,1441,799,0,0
224,225,0,0,0,0,0,0,0,0,0,-1,1448,799,0,0
231,225,0,0,0,0,0,0,0,0,0,-1,1455,799,0,0
238,225,0,0,0,0,0,0,0,0,0,-1,1462,799,0,0
245,225,0,0,0,0,0,0,0,0,0,-1,1469,799,0,0
252,225,0,0,0,0,0,0,0,0,0,-1,1476,799,0,0
259,225,0,0,0,0,0,0,0,0,0,-1,1483,799,0,0
266,225,0,0,0,0,0,0,0,0,0,-1,1490,799,0,0
273,225,0,0,0,0,0,0,0,0,0,-1,1497,799,0,0
280,225,0,0,0,0,0,0,0,0,0,-1,1504,799,0,0
287,225,0,0,0,0,0,0,0,0,0,-1,1511,799,0,0
294,225,0,0,0,0,0,0,0,0,0,-1,1518,799,0,0
301,225,0,0,0,0,0,0,0,0,0,-1,1525,799,0,0
308,225,0,0,0,0,0,0,0,0,0,-1,1532,799,0,0
315,225,0,0,0,0,0,0,0,0,0,-1,1539,799,0,0
322,225,0,0,0,0,0,0,0,0,0,-1,1546,799,0,0
329,225,0,0,0,0,0,0,0,0,0,-1,1553,799,0,0
336,225,0,0,0,0,0,0,0,0,0,-1,1560,799,0,0
343,225,0,0,0,0,0,0,0,0,0,-1,1567,799,0,0
350,225,0,0,0,0,0,0,0,0,0,-1,1574,799,0,0
357,225,0,0,0,0,0,0,0,0,0,-1,1581,799,0,0
364,225,0,0,0,0,0,0,0,0,0,-1,1588,799,0,0
371,225,0,0,0,0,0,0,0,0,0,-1,1595,799,0,0
378,225,0,0,0,0,0,0,0,0,0,-1,1602,799,0,0
385,225,0,0,0,0,0,0,0,0,0,-1,1609,799,0,0
392,225,0,0,0,0,0,0,0,0,0,-1,1616,799,0,0
399,225,0,0,0,0,0,0,0,0,0,-1,1623,799,0,0
406,225,0,0,0,0,0,0,0,0,0,-1,1630,799,0,0
413,225,0,0,0,0,0,0,0,0,0,-1,1637,799,0,0
420,225,0,0,0,0,0,0,0,0,0,-1,1644,799,0,0
427,225,0,0,0,0,0,0,0,0,0,-1,1651,799,0,0
434,225,0,0,0,0,0,0,0,0,0,-1,1658,799,0,0
441,225,0,0,0,0,0,0,0,0,0,-1,1665,799,0,0
448,225,0,0,0,0,0,0,0,0,0,-1,1672,799,0,0
455,225,0,0,0,0,0,0,0,0,0,-1,1679,799,0,0
462,225,0,0,0,0,0,0,0,0,0,-1,1686,799,0,0
469,225,0,0,0,0,0,0,0,0,0,-1,1693,799,0,0
476,225,0,0,0,0,0,0,0,0,0,-1,1700,799,0,0
483,225,0,0,0,0,0,0,0,0,0,-1,1707,799,0,0
490,225,0,0,0,0,0,0,0,0,0,-1,1714,799,0,0
497,225,0,0,0,0,0,0,0,0,0,-1,1721,799,0,0
504,225,0,0,0,0,0,0,0,0,0,-1,1728,799,0,0
511,225,0,0,0,0,0,0,0,0,0,-1,1735,799,0,0
518,225,0,0,0,0,0,0,0,0,0,-1,1742,799,0,0
525,225,0,0,0,0,0,0,0,0,0,-1,1749,799,0,0
532,225,0,0,0,0,0,0,0,0,0,-1,1756,799,0,0
539,225,0,0,0,0,0,0,0,0,0,-1,1763,799,0,0
546,225,0,0,0,0,0,0,0,0,0,-1,1770,799,0,0
553,225,0,0,0,0,0,0,0,0,0,-1,1777,799,0,0
560,225,0,0,0,0,0,0,0,0,0,-1,1784,799,0,0
567,225,0,0,0,0,0,0,0,0,0,-1,1791,799,0,0
574,225,0,0,0,0,0,0,0,0,0,-1,1798,799,0,0
581,225,0,0,0,0,0,0,0,0,0,-1,1805,799,0,0
588,225,235.953,8.71027,0,0,0,0,0,0,0,-1,1812,799,235.953,-8.71025
595,225,235.997,8.66571,0,0,0,0,0,0,0,-1,1819,799,235.997,-8.66573
602,225,235.987,8.70746,0,0,0,0,0,0,0,-1,1826,799,235.987,-8.70743
609,225,236.026,8.78687,0,0,0,0,0,0,0,-1,1833,799,236.026,-8.78687
616,225,236.059,8.59235,0,0,0,0,0,0,0,-1,1840,799,236.059,-8.59233
623,225,98.7035,2.56226,0,0,0,0,0,0,0,-1,1847,799,98.7035,-2.56224
630,225,75.2485,2.28778,0,0,0,0,0,0,0,-1,1854,799,75.2485,-2.28778
637,225,55.6359,2.8064,0,0,0,0,0,0,0,-1,1861,799,55.6359,-2.80637
644,225,42.0298,2.46411,0,0,0,0,0,0,0,-1,1868,799,42.0298,-2.4641
651,225,27.9657,0.579529,0,0,0,0,0,0,0,-1,1875,799,27.9657,-0.579541
658,225,79.1904,-4.22021,0,0,0,0,0,0,0,-1,1882,799,79.1905,4.22019
665,225,80.8872,-3.34991,0,0,0,0,0,0,0,-1,1889,799,80.8872,3.34992
672,225,85.205,-1.42188,0,0,0,0,0,0,0,-1,1896,799,85.205,1.4219
679,225,198.979,15.5033,0,0,0,0,0,0,0,-1,1903,799,198.98,-15.5033
686,225,198.635,17.8532,-0.00360557,0.0224623,-0.00915832,0.0253581,-0.00650143,-1.26454,0.0194384,0.0357757,1910,799,198.635,-17.8532
693,225,198.315,20.0747,-0.00465349,0.0265583,-0.0132483,0.0314234,-0.00951857,-1.21886,0.0247399,0.0198887,1917,799,198.315,-20.0747
700,225,197.983,22.2484,-0.00569984,0.0310901,-0.017273,0.0379287,-0.0125384,-1.19382,0.0303415,0.0207724,1924,799,197.983,-22.2484
707,225,197.468,24.4167,-0.00682204,0.0359776,-0.0211825,0.0446885,-0.0155329,-1.18065,0.0361015,0.0488053,1931,799,197.468,-24.4167
714,225,196.818,26.4764,0,0,0,0,0,0,0,-1,1938,799,196.818,-26.4763
721,225,196.763,28.3493,0,0,0,0,0,0,0,-1,1945,799,196.763,-28.3493
728,225,196.708,30.2223,0,0,0,0,0,0,0,-1,1952,799,196.708,-30.2223
735,225,95.1782,15.2966,0,0,0,0,0,0,0,-1,1959,799,95.1782,-15.2966
742,225,77.4065,11.2324,0,0,0,0,0,0,0,-1,1966,799,77.4065,-11.2324
749,225,29.9529,4.45538,0,0,0,0,0,0,0,-1,1973,799,29.9529,-4.45537
756,225,42.6417,11.3672,0,0,0,0,0,0,0,-1,1980,799,42.6417,-11.3672
763,225,42.6943,10.949,0,0,0,0,0,0,0,-1,1987,799,42.6943,-10.9489
770,225,0,0,0,0,0,0,0,0,0,-1,1994,799,0,0
777,225,0,0,0,0,0,0,0,0,0,-1,2001,799,0,0
784,225,0,0,0,0,0,0,0,0,0,-1,2008,799,0,0
791,225,0,0,0,0,0,0,0,0,0,-1,2015,799,0,0
798,225,0,0,0,0,0,0,0,0,0,-1,2022,799,0,0
805,225,0,0,0,0,0,0,0,0,0,-1,2029,799,0,0
812,225,0,0,0,0,0,0,0,0,0,-1,2036,799,0,0
-700,218,0,0,0,0,0,0,0,0,0,-1,524,806,0,0
-693,218,0,0,0,0,0,0,0,0,0,-1,531,806,0,0
-686,218,0,0,0,0,0,0,0,0,0,-1,538,806,0,0
-679,218,0,0,0,0,0,0,0,0,0,-1,545,806,0,0
-672,218,0,0,0,0,0,0,0,0,0,-1,552,806,0,0
-665,218,0,0,0,0,0,0,0,0,0,-1,559,806,0,0
-658,218,0,0,0,0,0,0,0,0,0,-1,566,806,0,0
-651,218,-40.3778,5.1792,0,0,0,0,0,0,0,-1,573,806,-40.3778,-5.1792
-644,218,-40.7704,4.19714,0,0,0,0,0,0,0,-1,580,806,-40.7704,-4.19714
-637,218,-41.541,3.36328,0,0,0,0,0,0,0,-1,587,806,-41.541,-3.36326
-630,218,-42.1423,2.85565,0,0,0,0,0,0,0,-1,594,806,-42.1423,-2.85567
-623,218,-42.7292,2.59015,0,0,0,0,0,0,0,-1,601,806,-42.7292,-2.59015
-616,218,-128.5,29.2946,0,0,0,0,0,0,0,-1,608,806,-128.5,-29.2946
-609,218,-148.764,32.5039,0,0,0,0,0,0,0,-1,615,806,-148.764,-32.5039
-602,218,-190.576,32.9999,0,0,0,0,0,0,0,-1,622,806,-190.576,-33
-595,218,-190.878,30.8312,-0.012729,0.0601271,0.0230969,0.0668322,-0.0194341,1.28826,0.0522518,0.0421758,629,806,-190.878,-30.8312
-588,218,-191.161,28.7349,-0.00961158,0.0527351,0.021746,0.0595706,-0.016447,1.26624,0.0461828,0.0253575,636,806,-191.161,-28.7349
-581,218,-191.512,26.6769,-0.00708414,0.0456378,0.0200943,0.0524232,-0.0138696,1.24514,0.0403741,0.0173149,643,806,-191.512,-26.6769
-574,218,-191.886,24.6554,-0.00518734,0.03889,0.0182123,0.0454414,-0.0117387,1.22549,0.0348721,0.0151323,650,806,-191.886,-24.6554
-567,218,-192.222,22.4142,-0.00376866,0.0325266,0.0161174,0.0386505,-0.00989257,1.20769,0.0296204,0.0246384,657,806,-192.222,-22.4142
-560,218,-192.64,20.366,-0.00279665,0.0265333,0.0137789,0.0319909,-0.00825427,1.19367,0.0245458,0.0253552,664,806,-192.64,-20.366
-553,218,-192.965,18.0381,-0.00225829,0.020926,0.0112257,0.0254706,-0.00680287,1.18613,0.0196446,0.0300984,671,806,-192.965,-18.0382
-546,218,-193.406,15.7398,-0.00296878,0.0158619,0.00848315,0.0191199,-0.00622674,1.20411,0.0152519,0.033148,678,806,-193.406,-15.7398
-539,218,-193.732,13.5975,0,0,0,0,0,0,0,-1,685,806,-193.732,-13.5975
-532,218,-65.3845,-3.26965,0,0,0,0,0,0,0,-1,692,806,-65.3845,3.26966
-525,218,-29.3521,-3.64417,0,0,0,0,0,0,0,-1,699,806,-29.3521,3.64414
-518,218,-23.61,2.54181,0,0,0,0,0,0,0,-1,706,806,-23.61,-2.54183
-511,218,-41.0953,1.06879,0,0,0,0,0,0,0,-1,713,806,-41.0953,-1.06876
-504,218,-59.1388,0.682068,0,0,0,0,0,0,0,-1,720,806,-59.1388,-0.682072
-497,218,-71.1117,0.685852,0,0,0,0,0,0,0,-1,727,806,-71.1117,-0.685864
-490,218,-71.2746,0.549255,0,0,0,0,0,0,0,-1,734,806,-71.2746,-0.54923
-483,218,-71.272,0.618164,0,0,0,0,0,0,0,-1,741,806,-71.272,-0.618135
-476,218,-71.212,0.670837,0,0,0,0,0,0,0,-1,748,806,-71.212,-0.670823
-469,218,0,0,0,0,0,0,0,0,0,-1,755,806,0,0
-462,218,0,0,0,0,0,0,0,0,0,-1,762,806,0,0
-455,218,0,0,0,0,0,0,0,0,0,-1,769,806,0,0
-448,218,0,0,0,0,0,0,0,0,0,-1,776,806,0,0
-441,218,0,0,0,0,0,0,0,0,0,-1,783,806,0,0
-434,218,0,0,0,0,0,0,0,0,0,-1,790,806,0,0
-427,218,0,0,0,0,0,0,0,0,0,-1,797,806,0,0
-420,218,0,0,0,0,0,0,0,0,0,-1,804,806,0,0
-413,218,0,0,0,0,0,0,0,0,0,-1,811,806,0,0
-406,218,0,0,0,0,0,0,0,0,0,-1,818,806,0,0
-399,218,0,0,0,0,0,0,0,0,0,-1,825,806,0,0
-392,218,0,0,0,0,0,0,0,0,0,-1,832,806,0,0
-385,218,0,0,0,0,0,0,0,0,0,-1,839,806,0,0
-378,218,0,0,0,0,0,0,0,0,0,-1,846,806,0,0
-371,218,0,0,0,0,0,0,0,0,0,-1,853,806,0,0
-364,218,0,0,0,0,0,0,0,0,0,-1,860,806,0,0
-357,218,0,0,0,0,0,0,0,0,0,-1,867,806,0,0
-350,218,0,0,0,0,0,0,0,0,0,-1,874,806,0,0
-343,218,0,0,0,0,0,0,0,0,0,-1,881,806,0,0
-336,218,0,0,0,0,0,0,0,0,0,-1,888,806,0,0
-329,218,0,0,0,0,0,0,0,0,0,-1,895,806,0,0
-322,218,0,0,0,0,0,0,0,0,0,-1,902,806,0,0
-315,218,0,0,0,0,0,0,0,0,0,-1,909,806,0,0
-308,218,0,0,0,0,0,0,0,0,0,-1,916,806,0,0
-301,218,0,0,0,0,0,0,0,0,0,-1,923,806,0,0
-294,218,0,0,0,0,0,0,0,0,0,-1,930,806,0,0
-287,218,0,0,0,0,0,0,0,0,0,-1,937,806,0,0
-280,218,0,0,0,0,0,0,0,0,0,-1,944,806,0,0
-273,218,0,0,0,0,0,0,0,0,0,-1,951,806,0,0
-266,218,0,0,0,0,0,0,0,0,0,-1,958,806,0,0
-259,218,0,0,0,0,0,0,0,0,0,-1,965,806,0,0
-252,218,0,0,0,0,0,0,0,0,0,-1,972,806,0,0
-245,218,0,0,0,0,0,0,0,0,0,-1,979,806,0,0
-238,218,0,0,0,0,0,0,0,0,0,-1,986,806,0,0
-231,218,0,0,0,0,0,0,0,0,0,-1,993,806,0,0
-224,218,0,0,0,0,0,0,0,0,0,-1,1000,806,0,0
-217,218,0,0,0,0,0,0,0,0,0,-1,1007,806,0,0
-210,218,0,0,0,0,0,0,0,0,0,-1,1014,806,0,0
-203,218,0,0,0,0,0,0,0,0,0,-1,1021,806,0,0
-196,218,0,0,0,0,0,0,0,0,0,-1,1028,806,0,0
-189,218,0,0,0,0,0,0,0,0,0,-1,1035,806,0,0
-182,218,0,0,0,0,0,0,0,0,0,-1,1042,806,0,0
-175,218,0,0,0,0,0,0,0,0,0,-1,1049,806,0,0
-168,218,0,0,0,0,0,0,0,0,0,-1,1056,806,0,0
-161,218,0,0,0,0,0,0,0,0,0,-1,1063,806,0,0
-154,218,0,0,0,0,0,0,0,0,0,-1,1070,806,0,0
-147,218,0,0,0,0,0,0,0,0,0,-1,1077,806,0,0
-140,218,0,0,0,0,0,0,0,0,0,-1,1084,806,0,0
-133,218,0,0,0,0,0,0,0,0,0,-1,1091,806,0,0
-126,218,0,0,0,0,0,0,0,0,0,-1,1098,806,0,0
-119,218,0,0,0,0,0,0,0,0,0,-1,1105,806,0,0
-112,218,0,0,0,0,0,0,0,0,0,-1,1112,806,0,0
-105,218,0,0,0,0,0,0,0,0,0,-1,1119,806,0,0
-98,218,0,0,0,0,0,0,0,0,0,-1,1126,806,0,0
-91,218,0,0,0,0,0,0,0,0,0,-1,1133,806,0,0
-84,218,0,0,0,0,0,0,0,0,0,-1,1140,806,0,0
-77,218,0,0,0,0,0,0,0,0,0,-1,1147,806,0,0
-70,218,0,0,0,0,0,0,0,0,0,-1,1154,806,0,0
-63,218,0,0,0,0,0,0,0,0,0,-1,1161,806,0,0
-56,218,0,0,0,0,0,0,0,0,0,-1,1168,806,0,0
-49,218,0,0,0,0,0,0,0,0,0,-1,1175,806,0,0
-42,218,0,0,0,0,0,0,0,0,0,-1,1182,806,0,0
-35,218,0,0,0,0,0,0,0,0,0,-1,1189,806,0,0
-28,218,0,0,0,0,0,0,0,0,0,-1,1196,806,0,0
-21,218,0,0,0,0,0,0,0,0,0,-1,1203,806,0,0
-14,218,0,0,0,0,0,0,0,0,0,-1,1210,806,0,0
-7,218,0,0,0,0,0,0,0,0,0,-1,1217,806,0,0
0,218,0,0,0,0,0,0,0,0,0,-1,1224,806,0,0
7,218,0,0,0,0,0,0,0,0,0,-1,1231,806,0,0
14,218,0,0,0,0,0,0,0,0,0,-1,1238,806,0,0
21,218,0,0,0,0,0,0,0,0,0,-1,1245,806,0,0
28,218,0,0,0,0,0,0,0,0,0,-1,1252,806,0,0
35,218,0,0,0,0,0,0,0,0,0,-1,1259,806,0,0
42,218,0,0,0,0,0,0,0,0,0,-1,1266,806,0,0
49,218,0,0,0,0,0,0,0,0,0,-1,1273,806,0,0
56,218,0,0,0,0,0,0,0,0,0,-1,1280,806,0,0
63,218,0,0,0,0,0,0,0,0,0,-1,1287,806,0,0
70,218,0,0,0,0,0,0,0,0,0,-1,1294,806,0,0
77,218,0,0,0,0,0,0,0,0,0,-1,1301,806,0,0
84,218,0,0,0,0,0,0,0,0,0,-1,1308,806,0,0
91,218,0,0,0,0,0,0,0,0,0,-1,1315,806,0,0
98,218,0,0,0,0,0,0,0,0,0,-1,1322,806,0,0
105,218,0,0,0,0,0,0,0,0,0,-1,1329,806,0,0
112,218,0,0,0,0,0,0,0,0,0,-1,1336,806,0,0
119,218,0,0,0,0,0,0,0,0,0,-1,1343,806,0,0
126,218,0,0,0,0,0,0,0,0,0,-1,1350,806,0,0
133,218,0,0,0,0,0,0,0,0,0,-1,1357,806,0,0
140,218,0,0,0,0,0,0,0,0,0,-1,1364,806,0,0
147,218,0,0,0,0,0,0,0,0,0,-1,1371,806,0,0
154,218,0,0,0,0,0,0,0,0,0,-1,1378,806,0,0
161,218,0,0,0,0,0,0,0,0,0,-1,1385,806,0,0
168,218,0,0,0,0,0,0,0,0,0,-1,1392,806,0,0
175,218,0,0,0,0,0,0,0,0,0,-1,1399,806,0,0
182,218,0,0,0,0,0,0,0,0,0,-1,1406,806,0,0
189,218,0,0,0,0,0,0,0,0,0,-1,1413,806,0,0
196,218,0,0,0,0,0,0,0,0,0,-1,1420,806,0,0
203,218,0,0,0,0,0,0,0,0,0,-1,1427,806,0,0
210,218,0,0,0,0,0,0,0,0,0,-1,1434,806,0,0
217,218,0,0,0,0,0,0,0,0,0,-1,1441,806,0,0
224,218,0,0,0,0,0,0,0,0,0,-1,1448,806,0,0
231,218,0,0,0,0,0,0,0,0,0,-1,1455,806,0,0
238,218,0,0,0,0,0,0,0,0,0,-1,1462,806,0,0
245,218,0,0,0,0,0,0,0,0,0,-1,1469,806,0,0
252,218,0,0,0,0,0,0,0,0,0,-1,1476,806,0,0
259,218,0,0,0,0,0,0,0,0,0,-1,1483,806,0,0
266,218,0,0,0,0,0,0,0,0,0,-1,1490,806,0,0
273,218,0,0,0,0,0,0,0,0,0,-1,1497,806,0,0
280,218,0,0,0,0,0,0,0,0,0,-1,1504,806,0,0
287,218,0,0,0,0,0,0,0,0,0,-1,1511,806,0,0
294,218,0,0,0,0,0,0,0,0,0,-1,1518,806,0,0
301,218,0,0,0,0,0,0,0,0,0,-1,1525,806,0,0
308,218,0,0,0,0,0,0,0,0,0,-1,1532,806,0,0
315,218,0,0,0,0,0,0,0,0,0,-1,1539,806,0,0
322,218,0,0,0,0,0,0,0,0,0,-1,1546,806,0,0
329,218,0,0,0,0,0,0,0,0,0,-1,1553,806,0,0
336,218,0,0,0,0,0,0,0,0,0,-1,1560,806,0,0
343,218,0,0,0,0,0,0,0,0,0,-1,1567,806,0,0
350,218,0,0,0,0,0,0,0,0,0,-1,1574,806,0,0
357,218,0,0,0,0,0,0,0,0,0,-1,1581,806,0,0
364,218,0,0,0,0,0,0,0,0,0,-1,1588,806,0,0
371,218,0,0,0,0,0,0,0,0,0,-1,1595,806,0,0
378,218,0,0,0,0,0,0,0,0,0,-1,1602,806,0,0
385,218,0,0,0,0,0,0,0,0,0,-1,1609,806,0,0
392,218,0,0,0,0,0,0,0,0,0,-1,1616,806,0,0
399,218,0,0,0,0,0,0,0,0,0,-1,1623,806,0,0
406,218,0,0,0,0,0,0,0,0,0,-1,1630,806,0,0
413,218,0,0,0,0,0,0,0,0,0,-1,1637,806,0,0
420,218,0,0,0,0,0,0,0,0,0,-1,1644,806,0,0
427,218,0,0,0,0,0,0,0,0,0,-1,1651,806,0,0
434,218,0,0,0,0,0,0,0,0,0,-1,1658,806,0,0
441,218,0,0,0,0,0,0,0,0,0,-1,1665,806,0,0
448,218,0,0,0,0,0,0,0,0,0,-1,1672,806,0,0
455,218,0,0,0,0,0,0,0,0,0,-1,1679,806,0,0
462,218,0,0,0,0,0,0,0,0,0,-1,1686,806,0,0
469,218,0,0,0,0,0,0,0,0,0,-1,1693,806,0,0
476,218,0,0,0,0,0,0,0,0,0,-1,1700,806,0,0
483,218,0,0,0,0,0,0,0,0,0,-1,1707,806,0,0
490,218,0,0,0,0,0,0,0,0,0,-1,1714,806,0,0
497,218,0,0,0,0,0,0,0,0,0,-1,1721,806,0,0
504,218,0,0,0,0,0,0,0,0,0,-1,1728,806,0,0
511,218,0,0,0,0,0,0,0,0,0,-1,1735,806,0,0
518,218,0,0,0,0,0,0,0,0,0,-1,1742,806,0,0
525,218,0,0,0,0,0,0,0,0,0,-1,1749,806,0,0
532,218,0,0,0,0,0,0,0,0,0,-1,1756,806,0,0
539,218,0,0,0,0,0,0,0,0,0,-1,1763,806,0,0
546,218,0,0,0,0,0,0,0,0,0,-1,1770,806,0,0
553,218,0,0,0,0,0,0,0,0,0,-1,1777,806,0,0
560,218,0,0,0,0,0,0,0,0,0,-1,1784,806,0,0
567,218,0,0,0,0,0,0,0,0,0,-1,1791,806,0,0
574,218,0,0,0,0,0,0,0,0,0,-1,1798,806,0,0
581,218,0,0,0,0,0,0,0,0,0,-1,1805,806,0,0
588,218,0,0,0,0,0,0,0,0,0,-1,1812,806,0,0
595,218,236.042,8.7262,0,0,0,0,0,0,0,-1,1819,806,236.041,-8.72622
602,218,236.044,8.71893,0,0,0,0,0,0,0,-1,1826,806,236.044,-8.71891
609,218,235.961,8.87604,0,0,0,0,0,0,0,-1,1833,806,235.961,-8.87602
616,218,235.911,8.79211,0,0,0,0,0,0,0,-1,1840,806,235.911,-8.79214
623,218,235.817,8.61761,0,0,0,0,0,0,0,-1,1847,806,235.817,-8.61759
630,218,98.8997,2.35669,0,0,0,0,0,0,0,-1,1854,806,98.8997,-2.3567
637,218,75.0532,2.44513,0,0,0,0,0,0,0,-1,1861,806,75.0532,-2.44515
644,218,52.4042,2.47949,0,0,0,0,0,0,0,-1,1868,806,52.4041,-2.47949
651,218,41.7338,1.99164,0,0,0,0,0,0,0,-1,1875,806,41.7338,-1.99162
658,218,28.41,0.514954,0,0,0,0,0,0,0,-1,1882,806,28.41,-0.514983
665,218,87.3844,-2.94836,0,0,0,0,0,0,0,-1,1889,806,87.3844,2.94834
672,218,105.041,-0.09729,0,0,0,0,0,0,0,-1,1896,806,105.041,0.0972892
679,218,201.35,15.6503,0,0,0,0,0,0,0,-1,1903,806,201.35,-15.6503
686,218,201.033,18.051,-0.00124358,0.0203657,-0.00648153,0.0221606,-0.00303857,-1.30063,0.0158838,0.0464653,1910,806,201.034,-18.0509
693,218,200.74,20.3492,-0.00298056,0.0245133,-0.010701,0.0281874,-0.00665461,-1.24007,0.0213582,0.0197109,1917,806,200.74,-20.3493
700,218,200.469,22.5244,-0.00475271,0.0291264,-0.0148659,0.0347244,-0.0103507,-1.21065,0.0272629,0.0188786,1924,806,200.469,-22.5243
707,218,199.879,24.6421,-0.00667938,0.0340675,-0.0188981,0.0414828,-0.0140947,-1.19687,0.0333611,0.0374097,1931,806,199.879,-24.6421
714,218,199.529,26.6211,0,0,0,0,0,0,0,-1,1938,806,199.529,-26.6211
721,218,199.335,28.5239,0,0,0,0,0,0,0,-1,1945,806,199.336,-28.5239
728,218,199.119,30.7988,0,0,0,0,0,0,0,-1,1952,806,199.119,-30.7988
735,218,118.738,21.3044,0,0,0,0,0,0,0,-1,1959,806,118.738,-21.3045
742,218,47.8733,6.84155,0,0,0,0,0,0,0,-1,1966,806,47.8733,-6.84158
749,218,42.0249,6.64703,0,0,0,0,0,0,0,-1,1973,806,42.0249,-6.64703
756,218,68.6807,8.39844,0,0,0,0,0,0,0,-1,1980,806,68.6807,-8.39847
763,218,70.9336,11.1503,0,0,0,0,0,0,0,-1,1987,806,70.9336,-11.1503
770,218,0,0,0,0,0,0,0,0,0,-1,1994,806,0,0
777,218,0,0,0,0,0,0,0,0,0,-1,2001,806,0,0
784,218,0,0,0,0,0,0,0,0,0,-1,2008,806,0,0
791,218,0,0,0,0,0,0,0,0,0,-1,2015,806,0,0
798,218,0,0,0,0,0,0,0,0,0,-1,2022,806,0,0
805,218,0,0,0,0,0,0,0,0,0,-1,2029,806,0,0
812,218,0,0,0,0,0,0,0,0,0,-1,2036,806,0,0
-700,211,0,0,0,0,0,0,0,0,0,-1,524,813,0,0
-693,211,0,0,0,0,0,0,0,0,0,-1,531,813,0,0
-686,211,0,0,0,0,0,0,0,0,0,-1,538,813,0,0
-679,211,0,0,0,0,0,0,0,0,0,-1,545,813,0,0
-672,211,0,0,0,0,0,0,0,0,0,-1,552,813,0,0
-665,211,0,0,0,0,0,0,0,0,0,-1,559,813,0,0
-658,211,0,0,0,0,0,0,0,0,0,-1,566,813,0,0
-651,211,-40.2495,5.20386,0,0,0,0,0,0,0,-1,573,813,-40.2494,-5.20384
-644,211,-40.6288,4.32092,0,0,0,0,0,0,0,-1,580,813,-40.6288,-4.3209
-637,211,-41.3664,3.51849,0,0,0,0,0,0,0,-1,587,813,-41.3664,-3.51847
-630,211,-41.9262,2.94977,0,0,0,0,0,0,0,-1,594,813,-41.9262,-2.94975
-623,211,-42.5012,2.62903,0,0,0,0,0,0,0,-1,601,813,-42.5011,-2.629
-616,211,-151.41,34.4951,0,0,0,0,0,0,0,-1,608,813,-151.41,-34.495
-609,211,-192.14,34.5928,0,0,0,0,0,0,0,-1,615,813,-192.14,-34.5928
-602,211,-192.715,32.6397,-0.0177604,0.0648617,0.0235091,0.0710826,-0.0239812,1.31211,0.0570866,0.0450333,622,813,-192.715,-32.6397
-595,211,-193.3,30.688,-0.0136121,0.0568439,0.0221279,0.063217,-0.0199853,1.29037,0.0501518,0.0282867,629,813,-193.3,-30.688
-588,211,-193.698,28.7545,-0.0100806,0.0495579,0.0205851,0.055973,-0.0164958,1.26869,0.0438605,0.0235277,636,813,-193.698,-28.7545
-581,211,-193.997,26.8538,-0.00707474,0.0425151,0.0188705,0.0488792,-0.0134388,1.24552,0.0378691,0.0184638,643,813,-193.997,-26.8538
-574,211,-194.296,24.7299,-0.00463837,0.035797,0.0169978,0.041993,-0.0108344,1.22125,0.0322198,0.018359,650,813,-194.296,-24.7299
-567,211,-194.748,22.6213,-0.00265837,0.0293922,0.0149309,0.0352699,-0.00853606,1.19577,0.0268154,0.0286529,657,813,-194.748,-22.6213
-560,211,-195.055,20.6871,0,0,0,0,0,0,0,-1,664,813,-195.055,-20.6871
-553,211,-195.353,18.1509,0,0,0,0,0,0,0,-1,671,813,-195.353,-18.1509
-546,211,-195.836,15.9665,0,0,0,0,0,0,0,-1,678,813,-195.836,-15.9665
-539,211,-196.424,13.961,0,0,0,0,0,0,0,-1,685,813,-196.424,-13.961
-532,211,-56.3252,-3.37701,0,0,0,0,0,0,0,-1,692,813,-56.3252,3.37701
-525,211,-14.3009,2.3233,0,0,0,0,0,0,0,-1,699,813,-14.3009,-2.3233
-518,211,-34.952,1.93011,0,0,0,0,0,0,0,-1,706,813,-34.952,-1.9301
-511,211,-53.0876,0.677734,0,0,0,0,0,0,0,-1,713,813,-53.0876,-0.677737
-504,211,-71.0793,0.713501,0,0,0,0,0,0,0,-1,720,813,-71.0793,-0.713471
-497,211,-71.1944,0.650879,0,0,0,0,0,0,0,-1,727,813,-71.1944,-0.650871
-490,211,-71.2502,0.66217,0,0,0,0,0,0,0,-1,734,813,-71.2502,-0.662185
-483,211,-71.1762,0.722412,0,0,0,0,0,0,0,-1,741,813,-71.1762,-0.722423
-476,211,-71.2107,0.635254,0,0,0,0,0,0,0,-1,748,813,-71.2107,-0.635269
-469,211,0,0,0,0,0,0,0,0,0,-1,755,813,0,0
-462,211,0,0,0,0,0,0,0,0,0,-1,762,813,0,0
-455,211,0,0,0,0,0,0,0,0,0,-1,769,813,0,0
-448,211,0,0,0,0,0,0,0,0,0,-1,776,813,0,0
-441,211,0,0,0,0,0,0,0,0,0,-1,783,813,0,0
-434,211,0,0,0,0,0,0,0,0,0,-1,790,813,0,0
-427,211,0,0,0,0,0,0,0,0,0,-1,797,813,0,0
-420,211,0,0,0,0,0,0,0,0,0,-1,804,813,0,0
-413,211,0,0,0,0,0,0,0,0,0,-1,811,813,0,0
-406,211,0,0,0,0,0,0,0,0,0,-1,818,813,0,0
-399,211,0,0,0,0,0,0,0,0,0,-1,825,813,0,0
-392,211,0,0,0,0,0,0,0,0,0,-1,832,813,0,0
-385,211,0,0,0,0,0,0,0,0,0,-1,839,813,0,0
-378,211,0,0,0,0,0,0,0,0,0,-1,846,813,0,0
-371,211,0,0,0,0,0,0,0,0,0,-1,853,813,0,0
-364,211,0,0,0,0,0,0,0,0,0,-1,860,813,0,0
-357,211,0,0,0,0,0,0,0,0,0,-1,867,813,0,0
-350,211,0,0,0,0,0,0,0,0,0,-1,874,813,0,0
-343,211,0,0,0,0,0,0,0,0,0,-1,881,813,0,0
-336,211,0,0,0,0,0,0,0,0,0,-1,888,813,0,0
-329,211,0,0,0,0,0,0,0,0,0,-1,895,813,0,0
-322,211,0,0,0,0,0,0,0,0,0,-1,902,813,0,0
-315,211,0,0,0,0,0,0,0,0,0,-1,909,813,0,0
-308,211,0,0,0,0,0,0,0,0,0,-1,916,813,0,0
-301,211,0,0,0,0,0,0,0,0,0,-1,923,813,0,0
-294,211,0,0,0,0,0,0,0,0,0,-1,930,813,0,0
-287,211,0,0,0,0,0,0,0,0,0,-1,937,813,0,0
-280,211,0,0,0,0,0,0,0,0,0,-1,944,813,0,0
-273,211,0,0,0,0,0,0,0,0,0,-1,951,813,0,0
-266,211,0,0,0,0,0,0,0,0,0,-1,958,813,0,0
-259,211,0,0,0,0,0,0,0,0,0,-1,965,813,0,0
-252,211,0,0,0,0,0,0,0,0,0,-1,972,813,0,0
-245,211,0,0,0,0,0,0,0,0,0,-1,979,813,0,0
-238,211,0,0,0,0,0,0,0,0,0,-1,986,813,0,0
-231,211,0,0,0,0,0,0,0,0,0,-1,993,813,0,0
-224,211,0,0,0,0,0,0,0,0,0,-1,1000,813,0,0
-217,211,0,0,0,0,0,0,0,0,0,-1,1007,813,0,0
-210,211,0,0,0,0,0,0,0,0,0,-1,1014,813,0,0
-203,211,0,0,0,0,0,0,0,0,0,-1,1021,813,0,0
-196,211,0,0,0,0,0,0,0,0,0,-1,1028,813,0,0
-189,211,0,0,0,0,0,0,0,0,0,-1,1035,813,0,0
-182,211,0,0,0,0,0,0,0,0,0,-1,1042,813,0,0
-175,211,0,0,0,0,0,0,0,0,0,-1,1049,813,0,0
-168,211,0,0,0,0,0,0,0,0,0,-1,1056,813,0,0
-161,211,0,0,0,0,0,0,0,0,0,-1,1063,813,0,0
-154,211,0,0,0,0,0,0,0,0,0,-1,1070,813,0,0
-147,211,0,0,0,0,0,0,0,0,0,-1,1077,813,0,0
-140,211,0,0,0,0,0,0,0,0,0,-1,1084,813,0,0
-133,211,0,0,0,0,0,0,0,0,0,-1,1091,813,0,0
-126,211,0,0,0,0,0,0,0,0,0,-1,1098,813,0,0
-119,211,0,0,0,0,0,0,0,0,0,-1,1105,813,0,0
-112,211,0,0,0,0,0,0,0,0,0,-1,1112,813,0,0
-105,211,0,0,0,0,0,0,0,0,0,-1,1119,813,0,0
-98,211,0,0,0,0,0,0,0,0,0,-1,1126,813,0,0
-91,211,0,0,0,0,0,0,0,0,0,-1,1133,813,0,0
-84,211,0,0,0,0,0,0,0,0,0,-1,1140,813,0,0
-77,211,0,0,0,0,0,0,0,0,0,-1,1147,813,0,0
-70,211,0,0,0,0,0,0,0,0,0,-1,1154,813,0,0
-63,211,0,0,0,0,0,0,0,0,0,-1,1161,813,0,0
-56,211,0,0,0,0,0,0,0,0,0,-1,1168,813,0,0
-49,211,0,0,0,0,0,0,0,0,0,-1,1175,813,0,0
-42,211,0,0,0,0,0,0,0,0,0,-1,1182,813,0,0
-35,211,0,0,0,0,0,0,0,0,0,-1,1189,813,0,0
-28,211,0,0,0,0,0,0,0,0,0,-1,1196,813,0,0
-21,211,0,0,0,0,0,0,0,0,0,-1,1203,813,0,0
-14,211,0,0,0,0,0,0,0,0,0,-1,1210,813,0,0
-7,211,0,0,0,0,0,0,0,0,0,-1,1217,813,0,0
0,211,0,0,0,0,0,0,0,0,0,-1,1224,813,0,0
7,211,0,0,0,0,0,0,0,0,0,-1,1231,813,0,0
14,211,0,0,0,0,0,0,0,0,0,-1,1238,813,0,0
21,211,0,0,0,0,0,0,0,0,0,-1,1245,813,0,0
28,211,0,0,0,0,0,0,0,0,0,-1,1252,813,0,0
35,211,0,0,0,0,0,0,0,0,0,-1,1259,813,0,0
42,211,0,0,0,0,0,0,0,0,0,-1,1266,813,0,0
49,211,0,0,0,0,0,0,0,0,0,-1,1273,813,0,0
56,211,0,0,0,0,0,0,0,0,0,-1,1280,813,0,0
63,211,0,0,0,0,0,0,0,0,0,-1,1287,813,0,0
70,211,0,0,0,0,0,0,0,0,0,-1,1294,813,0,0
77,211,0,0,0,0,0,0,0,0,0,-1,1301,813,0,0
84,211,0,0,0,0,0,0,0,0,0,-1,1308,813,0,0
91,211,0,0,0,0,0,0,0,0,0,-1,1315,813,0,0
98,211,0,0,0,0,0,0,0,0,0,-1,1322,813,0,0
105,211,0,0,0,0,0,0,0,0,0,-1,1329,813,0,0
112,211,0,0,0,0,0,0,0,0,0,-1,1336,813,0,0
119,211,0,0,0,0,0,0,0,0,0,-1,1343,813,0,0
126,211,0,0,0,0,0,0,0,0,0,-1,1350,813,0,0
133,211,0,0,0,0,0,0,0,0,0,-1,1357,813,0,0
140,211,0,0,0,0,0,0,0,0,0,-1,1364,813,0,0
147,211,0,0,0,0,0,0,0,0,0,-1,1371,813,0,0
154,211,0,0,0,0,0,0,0,0,0,-1,1378,813,0,0
161,211,0,0,0,0,0,0,0,0,0,-1,1385,813,0,0
168,211,0,0,0,0,0,0,0,0,0,-1,1392,813,0,0
175,211,0,0,0,0,0,0,0,0,0,-1,1399,813,0,0
182,211,0,0,0,0,0,0,0,0,0,-1,1406,813,0,0
189,211,0,0,0,0,0,0,0,0,0,-1,1413,813,0,0
196,211,0,0,0,0,0,0,0,0,0,-1,1420,813,0,0
203,211,0,0,0,0,0,0,0,0,0,-1,1427,813,0,0
210,211,0,0,0,0,0,0,0,0,0,-1,1434,813,0,0
217,211,0,0,0,0,0,0,0,0,0,-1,1441,813,0,0
224,211,0,0,0,0,0,0,0,0,0,-1,1448,813,0,0
231,211,0,0,0,0,0,0,0,0,0,-1,1455,813,0,0
238,211,0,0,0,0,0,0,0,0,0,-1,1462,813,0,0
245,211,0,0,0,0,0,0,0,0,0,-1,1469,813,0,0
252,211,0,0,0,0,0,0,0,0,0,-1,1476,813,0,0
259,211,0,0,0,0,0,0,0,0,0,-1,1483,813,0,0
266,211,0,0,0,0,0,0,0,0,0,-1,1490,813,0,0
273,211,0,0,0,0,0,0,0,0,0,-1,1497,813,0,0
280,211,0,0,0,0,0,0,0,0,0,-1,1504,813,0,0
287,211,0,0,0,0,0,0,0,0,0,-1,1511,813,0,0
294,211,0,0,0,0,0,0,0,0,0,-1,1518,813,0,0
301,211,0,0,0,0,0,0,0,0,0,-1,1525,813,0,0
308,211,0,0,0,0,0,0,0,0,0,-1,1532,813,0,0
315,211,0,0,0,0,0,0,0,0,0,-1,1539,813,0,0
322,211,0,0,0,0,0,0,0,0,0,-1,1546,813,0,0
329,211,0,0,0,0,0,0,0,0,0,-1,1553,813,0,0
336,211,0,0,0,0,0,0,0,0,0,-1,1560,813,0,0
343,211,0,0,0,0,0,0,0,0,0,-1,1567,813,0,0
350,211,0,0,0,0,0,0,0,0,0,-1,1574,813,0,0
357,211,0,0,0,0,0,0,0,0,0,-1,1581,813,0,0
364,211,0,0,0,0,0,0,0,0,0,-1,1588,813,0,0
371,211,0,0,0,0,0,0,0,0,0,-1,1595,813,0,0
378,211,0,0,0,0,0,0,0,0,0,-1,1602,813,0,0
385,211,0,0,0,0,0,0,0,0,0,-1,1609,813,0,0
392,211,0,0,0,0,0,0,0,0,0,-1,1616,813,0,0
399,211,0,0,0,0,0,0,0,0,0,-1,1623,813,0,0
406,211,0,0,0,0,0,0,0,0,0,-1,1630,813,0,0
413,211,0,0,0,0,0,0,0,0,0,-1,1637,813,0,0
420,211,0,0,0,0,0,0,0,0,0,-1,1644,813,0,0
427,211,0,0,0,0,0,0,0,0,0,-1,1651,813,0,0
434,211,0,0,0,0,0,0,0,0,0,-1,1658,813,0,0
441,211,0,0,0,0,0,0,0,0,0,-1,1665,813,0,0
448,211,0,0,0,0,0,0,0,0,0,-1,1672,813,0,0
455,211,0,0,0,0,0,0,0,0,0,-1,1679,813,0,0
462,211,0,0,0,0,0,0,0,0,0,-1,1686,813,0,0
469,211,0,0,0,0,0,0,0,0,0,-1,1693,813,0,0
476,211,0,0,0,0,0,0,0,0,0,-1,1700,813,0,0
483,211,0,0,0,0,0,0,0,0,0,-1,1707,813,0,0
490,211,0,0,0,0,0,0,0,0,0,-1,1714,813,0,0
497,211,0,0,0,0,0,0,0,0,0,-1,1721,813,0,0
504,211,0,0,0,0,0,0,0,0,0,-1,1728,813,0,0
511,211,0,0,0,0,0,0,0,0,0,-1,1735,813,0,0
518,211,0,0,0,0,0,0,0,0,0,-1,1742,813,0,0
525,211,0,0,0,0,0,0,0,0,0,-1,1749,813,0,0
532,211,0,0,0,0,0,0,0,0,0,-1,1756,813,0,0
539,211,0,0,0,0,0,0,0,0,0,-1,1763,813,0,0
546,211,0,0,0,0,0,0,0,0,0,-1,1770,813,0,0
553,211,0,0,0,0,0,0,0,0,0,-1,1777,813,0,0
560,211,0,0,0,0,0,0,0,0,0,-1,1784,813,0,0
567,211,0,0,0,0,0,0,0,0,0,-1,1791,813,0,0
574,211,0,0,0,0,0,0,0,0,0,-1,1798,813,0,0
581,211,0,0,0,0,0,0,0,0,0,-1,1805,813,0,0
588,211,0,0,0,0,0,0,0,0,0,-1,1812,813,0,0
595,211,236.058,8.67249,0,0,0,0,0,0,0,-1,1819,813,236.058,-8.67247
602,211,236.112,8.72321,0,0,0,0,0,0,0,-1,1826,813,236.112,-8.72318
609,211,236.105,8.79071,0,0,0,0,0,0,0,-1,1833,813,236.105,-8.79072
616,211,235.985,8.91681,0,0,0,0,0,0,0,-1,1840,813,235.985,-8.91684
623,211,235.963,8.82648,0,0,0,0,0,0,0,-1,1847,813,235.963,-8.82648
630,211,235.912,8.60162,0,0,0,0,0,0,0,-1,1854,813,235.912,-8.60164
637,211,93.1104,2.29517,0,0,0,0,0,0,0,-1,1861,813,93.1103,-2.29517
644,211,66.401,2.3595,0,0,0,0,0,0,0,-1,1868,813,66.401,-2.35952
651,211,48.5043,2.95557,0,0,0,0,0,0,0,-1,1875,813,48.5043,-2.95558
658,211,27.7909,1.52234,0,0,0,0,0,0,0,-1,1882,813,27.7909,-1.52234
665,211,42.2053,-0.745605,0,0,0,0,0,0,0,-1,1889,813,42.2054,0.745605
672,211,88.5627,-1.52313,0,0,0,0,0,0,0,-1,1896,813,88.5627,1.52312
679,211,202.809,16.4307,0,0,0,0,0,0,0,-1,1903,813,202.809,-16.4307
686,211,203.861,18.1819,0,0,0,0,0,0,0,-1,1910,813,203.861,-18.1819
693,211,203.076,20.5917,-0.000514538,0.0223314,-0.00857917,0.0251943,-0.00337745,-1.24871,0.0180278,0.0255057,1917,813,203.076,-20.5917
700,211,202.712,22.8865,-0.0031423,0.0270401,-0.0127121,0.0316807,-0.00778282,-1.22078,0.0241367,0.0227124,1924,813,202.712,-22.8865
707,211,202.406,24.942,-0.00598942,0.0319763,-0.0167328,0.0382983,-0.0123114,-1.20956,0.0304765,0.0439285,1931,813,202.406,-24.9419
714,211,201.834,26.7988,0,0,0,0,0,0,0,-1,1938,813,201.834,-26.7988
721,211,201.583,28.843,-0.0116786,0.0424495,-0.0246077,0.0519642,-0.0211933,-1.20185,0.043465,0.0454513,1945,813,201.583,-28.843
728,211,201.338,30.8159,-0.0143391,0.0478322,-0.0285687,0.0589661,-0.025473,-1.19918,0.050013,0.046169,1952,813,201.338,-30.8159
735,211,201.046,32.7527,0,0,0,0,0,0,0,-1,1959,813,201.046,-32.7527
742,211,84.2058,12.8079,0,0,0,0,0,0,0,-1,1966,813,84.2058,-12.8079
749,211,73.5072,9.75317,0,0,0,0,0,0,0,-1,1973,813,73.5072,-9.75319
756,211,69.7454,8.43085,0,0,0,0,0,0,0,-1,1980,813,69.7454,-8.43087
763,211,79.0168,15.136,0,0,0,0,0,0,0,-1,1987,813,79.017,-15.136
770,211,69.272,8.75696,0,0,0,0,0,0,0,-1,1994,813,69.2719,-8.75697
777,211,0,0,0,0,0,0,0,0,0,-1,2001,813,0,0
784,211,0,0,0,0,0,0,0,0,0,-1,2008,813,0,0
791,211,0,0,0,0,0,0,0,0,0,-1,2015,813,0,0
798,211,0,0,0,0,0,0,0,0,0,-1,2022,813,0,0
805,211,0,0,0,0,0,0,0,0,0,-1,2029,813,0,0
812,211,0,0,0,0,0,0,0,0,0,-1,2036,813,0,0
-700,204,0,0,0,0,0,0,0,0,0,-1,524,820,0,0
-693,204,0,0,0,0,0,0,0,0,0,-1,531,820,0,0
-686,204,0,0,0,0,0,0,0,0,0,-1,538,820,0,0
-679,204,0,0,0,0,0,0,0,0,0,-1,545,820,0,0
-672,204,0,0,0,0,0,0,0,0,0,-1,552,820,0,0
-665,204,0,0,0,0,0,0,0,0,0,-1,559,820,0,0
-658,204,0,0,0,0,0,0,0,0,0,-1,566,820,0,0
-651,204,-40.064,5.25806,0,0,0,0,0,0,0,-1,573,820,-40.064,-5.25806
-644,204,-40.4117,4.54321,0,0,0,0,0,0,0,-1,580,820,-40.4117,-4.54323
-637,204,-40.8671,3.93817,0,0,0,0,0,0,0,-1,587,820,-40.8671,-3.93819
-630,204,-41.7101,3.04382,0,0,0,0,0,0,0,-1,594,820,-41.7101,-3.04383
-623,204,-41.8597,2.11951,0,0,0,0,0,0,0,-1,601,820,-41.8597,-2.11951
-616,204,-172.704,35.5907,0,0,0,0,0,0,0,-1,608,820,-172.704,-35.5907
-609,204,-194.725,34.5239,0,0,0,0,0,0,0,-1,615,820,-194.725,-34.5239
-602,204,-195.15,32.6317,-0.0185538,0.0610278,0.0227062,0.0670505,-0.0245765,1.31152,0.0547627,0.0357962,622,820,-195.15,-32.6317
-595,204,-195.562,30.8373,-0.0140795,0.0534457,0.021234,0.0595678,-0.0202017,1.29009,0.0478879,0.0304465,629,820,-195.562,-30.8373
-588,204,-196.018,28.8997,-0.0100795,0.0463541,0.0196115,0.0525001,-0.0162254,1.2671,0.0414802,0.0269229,636,820,-196.018,-28.8997
-581,204,-196.284,26.8652,-0.00646107,0.0394396,0.0178732,0.0455782,-0.0125998,1.23996,0.0353422,0.0303567,643,820,-196.284,-26.8652
-574,204,-196.614,24.8683,-0.00322725,0.0328127,0.0159619,0.0388656,-0.00928012,1.20834,0.0294945,0.023092,650,820,-196.614,-24.8683
-567,204,-197.121,22.9761,-0.000358284,0.0264737,0.0138707,0.032355,-0.00623957,1.16977,0.0239226,0.0231362,657,820,-197.121,-22.9761
-560,204,-197.645,21.1251,0,0,0,0,0,0,0,-1,664,820,-197.645,-21.1251
-553,204,-194.698,18.7164,0,0,0,0,0,0,0,-1,671,820,-194.698,-18.7164
-546,204,-198.542,16.3418,0,0,0,0,0,0,0,-1,678,820,-198.542,-16.3418
-539,204,-196.757,14.6017,0,0,0,0,0,0,0,-1,685,820,-196.757,-14.6017
-532,204,-30.0565,-3.29065,0,0,0,0,0,0,0,-1,692,820,-30.0565,3.29063
-525,204,-25.7137,1.52496,0,0,0,0,0,0,0,-1,699,820,-25.7137,-1.52496
-518,204,-43.4591,0.383972,0,0,0,0,0,0,0,-1,706,820,-43.4591,-0.383942
-511,204,-67.4779,0.469788,0,0,0,0,0,0,0,-1,713,820,-67.4779,-0.469764
-504,204,-71.0822,0.762695,0,0,0,0,0,0,0,-1,720,820,-71.0822,-0.762675
-497,204,-71.2341,0.638,0,0,0,0,0,0,0,-1,727,820,-71.2341,-0.638005
-490,204,-71.2697,0.596191,0,0,0,0,0,0,0,-1,734,820,-71.2697,-0.596182
-483,204,-71.1739,0.642822,0,0,0,0,0,0,0,-1,741,820,-71.1739,-0.6428
-476,204,0,0,0,0,0,0,0,0,0,-1,748,820,0,0
-469,204,0,0,0,0,0,0,0,0,0,-1,755,820,0,0
-462,204,0,0,0,0,0,0,0,0,0,-1,762,820,0,0
-455,204,0,0,0,0,0,0,0,0,0,-1,769,820,0,0
-448,204,0,0,0,0,0,0,0,0,0,-1,776,820,0,0
-441,204,0,0,0,0,0,0,0,0,0,-1,783,820,0,0
-434,204,0,0,0,0,0,0,0,0,0,-1,790,820,0,0
-427,204,0,0,0,0,0,0,0,0,0,-1,797,820,0,0
-420,204,0,0,0,0,0,0,0,0,0,-1,804,820,0,0
-413,204,0,0,0,0,0,0,0,0,0,-1,811,820,0,0
-406,204,0,0,0,0,0,0,0,0,0,-1,818,820,0,0
-399,204,0,0,0,0,0,0,0,0,0,-1,825,820,0,0
-392,204,0,0,0,0,0,0,0,0,0,-1,832,820,0,0
-385,204,0,0,0,0,0,0,0,0,0,-1,839,820,0,0
-378,204,0,0,0,0,0,0,0,0,0,-1,846,820,0,0
-371,204,0,0,0,0,0,0,0,0,0,-1,853,820,0,0
-364,204,0,0,0,0,0,0,0,0,0,-1,860,820,0,0
-357,204,0,0,0,0,0,0,0,0,0,-1,867,820,0,0
-350,204,0,0,0,0,0,0,0,0,0,-1,874,820,0,0
-343,204,0,0,0,0,0,0,0,0,0,-1,881,820,0,0
-336,204,0,0,0,0,0,0,0,0,0,-1,888,820,0,0
-329,204,0,0,0,0,0,0,0,0,0,-1,895,820,0,0
-322,204,0,0,0,0,0,0,0,0,0,-1,902,820,0,0
-315,204,0,0,0,0,0,0,0,0,0,-1,909,820,0,0
-308,204,0,0,0,0,0,0,0,0,0,-1,916,820,0,0
-301,204,0,0,0,0,0,0,0,0,0,-1,923,820,0,0
-294,204,0,0,0,0,0,0,0,0,0,-1,930,820,0,0
-287,204,0,0,0,0,0,0,0,0,0,-1,937,820,0,0
-280,204,0,0,0,0,0,0,0,0,0,-1,944,820,0,0
-273,204,0,0,0,0,0,0,0,0,0,-1,951,820,0,0
-266,204,0,0,0,0,0,0,0,0,0,-1,958,820,0,0
-259,204,0,0,0,0,0,0,0,0,0,-1,965,820,0,0
-252,204,0,0,0,0,0,0,0,0,0,-1,972,820,0,0
-245,204,0,0,0,0,0,0,0,0,0,-1,979,820,0,0
-238,204,0,0,0,0,0,0,0,0,0,-1,986,820,0,0
-231,204,0,0,0,0,0,0,0,0,0,-1,993,820,0,0
-224,204,0,0,0,0,0,0,0,0,0,-1,1000,820,0,0
-217,204,0,0,0,0,0,0,0,0,0,-1,1007,820,0,0
-210,204,0,0,0,0,0,0,0,0,0,-1,1014,820,0,0
-203,204,0,0,0,0,0,0,0,0,0,-1,1021,820,0,0
-196,204,0,0,0,0,0,0,0,0,0,-1,1028,820,0,0
-189,204,0,0,0,0,0,0,0,0,0,-1,1035,820,0,0
-182,204,0,0,0,0,0,0,0,0,0,-1,1042,820,0,0
-175,204,0,0,0,0,0,0,0,0,0,-1,1049,820,0,0
-168,204,0,0,0,0,0,0,0,0,0,-1,1056,820,0,0
-161,204,0,0,0,0,0,0,0,0,0,-1,1063,820,0,0
-154,204,0,0,0,0,0,0,0,0,0,-1,1070,820,0,0
-147,204,0,0,0,0,0,0,0,0,0,-1,1077,820,0,0
-140,204,0,0,0,0,0,0,0,0,0,-1,1084,820,0,0
-133,204,0,0,0,0,0,0,0,0,0,-1,1091,820,0,0
-126,204,0,0,0,0,0,0,0,0,0,-1,1098,820,0,0
-119,204,0,0,0,0,0,0,0,0,0,-1,1105,820,0,0
-112,204,0,0,0,0,0,0,0,0,0,-1,1112,820,0,0
-105,204,0,0,0,0,0,0,0,0,0,-1,1119,820,0,0
-98,204,0,0,0,0,0,0,0,0,0,-1,1126,820,0,0
-91,204,0,0,0,0,0,0,0,0,0,-1,1133,820,0,0
-84,204,0,0,0,0,0,0,0,0,0,-1,1140,820,0,0
-77,204,0,0,0,0,0,0,0,0,0,-1,1147,820,0,0
-70,204,0,0,0,0,0,0,0,0,0,-1,1154,820,0,0
-63,204,0,0,0,0,0,0,0,0,0,-1,1161,820,0,0
-56,204,0,0,0,0,0,0,0,0,0,-1,1168,820,0,0
-49,204,0,0,0,0,0,0,0,0,0,-1,1175,820,0,0
-42,204,0,0,0,0,0,0,0,0,0,-1,1182,820,0,0
-35,204,0,0,0,0,0,0,0,0,0,-1,1189,820,0,0
-28,204,0,0,0,0,0,0,0,0,0,-1,1196,820,0,0
-21,204,0,0,0,0,0,0,0,0,0,-1,1203,820,0,0
-14,204,0,0,0,0,0,0,0,0,0,-1,1210,820,0,0
-7,204,0,0,0,0,0,0,0,0,0,-1,1217,820,0,0
0,204,0,0,0,0,0,0,0,0,0,-1,1224,820,0,0
7,204,0,0,0,0,0,0,0,0,0,-1,1231,820,0,0
14,204,0,0,0,0,0,0,0,0,0,-1,1238,820,0,0
21,204,0,0,0,0,0,0,0,0,0,-1,1245,820,0,0
28,204,0,0,0,0,0,0,0,0,0,-1,1252,820,0,0
35,204,0,0,0,0,0,0,0,0,0,-1,1259,820,0,0
42,204,0,0,0,0,0,0,0,0,0,-1,1266,820,0,0
49,204,0,0,0,0,0,0,0,0,0,-1,1273,820,0,0
56,204,0,0,0,0,0,0,0,0,0,-1,1280,820,0,0
63,204,0,0,0,0,0,0,0,0,0,-1,1287,820,0,0
70,204,0,0,0,0,0,0,0,0,0,-1,1294,820,0,0
77,204,0,0,0,0,0,0,0,0,0,-1,1301,820,0,0
84,204,0,0,0,0,0,0,0,0,0,-1,1308,820,0,0
91,204,0,0,0,0,0,0,0,0,0,-1,1315,820,0,0
98,204,0,0,0,0,0,0,0,0,0,-1,1322,820,0,0
105,204,0,0,0,0,0,0,0,0,0,-1,1329,820,0,0
112,204,0,0,0,0,0,0,0,0,0,-1,1336,820,0,0
119,204,0,0,0,0,0,0,0,0,0,-1,1343,820,0,0
126,204,0,0,0,0,0,0,0,0,0,-1,1350,820,0,0
133,204,0,0,0,0,0,0,0,0,0,-1,1357,820,0,0
140,204,0,0,0,0,0,0,0,0,0,-1,1364,820,0,0
147,204,0,0,0,0,0,0,0,0,0,-1,1371,820,0,0
154,204,0,0,0,0,0,0,0,0,0,-1,1378,820,0,0
161,204,0,0,0,0,0,0,0,0,0,-1,1385,820,0,0
168,204,0,0,0,0,0,0,0,0,0,-1,1392,820,0,0
175,204,0,0,0,0,0,0,0,0,0,-1,1399,820,0,0
182,204,0,0,0,0,0,0,0,0,0,-1,1406,820,0,0
189,204,0,0,0,0,0,0,0,0,0,-1,1413,820,0,0
196,204,0,0,0,0,0,0,0,0,0,-1,1420,820,0,0
203,204,0,0,0,0,0,0,0,0,0,-1,1427,820,0,0
210,204,0,0,0,0,0,0,0,0,0,-1,1434,820,0,0
217,204,0,0,0,0,0,0,0,0,0,-1,1441,820,0,0
224,204,0,0,0,0,0,0,0,0,0,-1,1448,820,0,0
231,204,0,0,0,0,0,0,0,0,0,-1,1455,820,0,0
238,204,0,0,0,0,0,0,0,0,0,-1,1462,820,0,0
245,204,0,0,0,0,0,0,0,0,0,-1,1469,820,0,0
252,204,0,0,0,0,0,0,0,0,0,-1,1476,820,0,0
259,204,0,0,0,0,0,0,0,0,0,-1,1483,820,0,0
266,204,0,0,0,0,0,0,0,0,0,-1,1490,820,0,0
273,204,0,0,0,0,0,0,0,0,0,-1,1497,820,0,0
280,204,0,0,0,0,0,0,0,0,0,-1,1504,820,0,0
287,204,0,0,0,0,0,0,0,0,0,-1,1511,820,0,0
294,204,0,0,0,0,0,0,0,0,0,-1,1518,820,0,0
301,204,0,0,0,0,0,0,0,0,0,-1,1525,820,0,0
308,204,0,0,0,0,0,0,0,0,0,-1,1532,820,0,0
315,204,0,0,0,0,0,0,0,0,0,-1,1539,820,0,0
322,204,0,0,0,0,0,0,0,0,0,-1,1546,820,0,0
329,204,0,0,0,0,0,0,0,0,0,-1,1553,820,0,0
336,204,0,0,0,0,0,0,0,0,0,-1,1560,820,0,0
343,204,0,0,0,0,0,0,0,0,0,-1,1567,820,0,0
350,204,0,0,0,0,0,0,0,0,0,-1,1574,820,0,0
357,204,0,0,0,0,0,0,0,0,0,-1,1581,820,0,0
364,204,0,0,0,0,0,0,0,0,0,-1,1588,820,0,0
371,204,0,0,0,0,0,0,0,0,0,-1,1595,820,0,0
378,204,0,0,0,0,0,0,0,0,0,-1,1602,820,0,0
385,204,0,0,0,0,0,0,0,0,0,-1,1609,820,0,0
392,204,0,0,0,0,0,0,0,0,0,-1,1616,820,0,0
399,204,0,0,0,0,0,0,0,0,0,-1,1623,820,0,0
406,204,0,0,0,0,0,0,0,0,0,-1,1630,820,0,0
413,204,0,0,0,0,0,0,0,0,0,-1,1637,820,0,0
420,204,0,0,0,0,0,0,0,0,0,-1,1644,820,0,0
427,204,0,0,0,0,0,0,0,0,0,-1,1651,820,0,0
434,204,0,0,0,0,0,0,0,0,0,-1,1658,820,0,0
441,204,0,0,0,0,0,0,0,0,0,-1,1665,820,0,0
448,204,0,0,0,0,0,0,0,0,0,-1,1672,820,0,0
455,204,0,0,0,0,0,0,0,0,0,-1,1679,820,0,0
462,204,0,0,0,0,0,0,0,0,0,-1,1686,820,0,0
469,204,0,0,0,0,0,0,0,0,0,-1,1693,820,0,0
476,204,0,0,0,0,0,0,0,0,0,-1,1700,820,0,0
483,204,0,0,0,0,0,0,0,0,0,-1,1707,820,0,0
490,204,0,0,0,0,0,0,0,0,0,-1,1714,820,0,0
497,204,0,0,0,0,0,0,0,0,0,-1,1721,820,0,0
504,204,0,0,0,0,0,0,0,0,0,-1,1728,820,0,0
511,204,0,0,0,0,0,0,0,0,0,-1,1735,820,0,0
518,204,0,0,0,0,0,0,0,0,0,-1,1742,820,0,0
525,204,0,0,0,0,0,0,0,0,0,-1,1749,820,0,0
532,204,0,0,0,0,0,0,0,0,0,-1,1756,820,0,0
539,204,0,0,0,0,0,0,0,0,0,-1,1763,820,0,0
546,204,0,0,0,0,0,0,0,0,0,-1,1770,820,0,0
553,204,0,0,0,0,0,0,0,0,0,-1,1777,820,0,0
560,204,0,0,0,0,0,0,0,0,0,-1,1784,820,0,0
567,204,0,0,0,0,0,0,0,0,0,-1,1791,820,0,0
574,204,0,0,0,0,0,0,0,0,0,-1,1798,820,0,0
581,204,0,0,0,0,0,0,0,0,0,-1,1805,820,0,0
588,204,0,0,0,0,0,0,0,0,0,-1,1812,820,0,0
595,204,0,0,0,0,0,0,0,0,0,-1,1819,820,0,0
602,204,236.155,8.86383,0,0,0,0,0,0,0,-1,1826,820,236.155,-8.86384
609,204,236.156,8.85046,0,0,0,0,0,0,0,-1,1833,820,236.156,-8.85048
616,204,236.096,8.75665,0,0,0,0,0,0,0,-1,1840,820,236.096,-8.75667
623,204,236.041,8.86273,0,0,0,0,0,0,0,-1,1847,820,236.041,-8.86271
630,204,235.985,8.8299,0,0,0,0,0,0,0,-1,1854,820,235.985,-8.82989
637,204,235.813,8.77429,0,0,0,0,0,0,0,-1,1861,820,235.813,-8.77428
644,204,80.9747,2.19354,0,0,0,0,0,0,0,-1,1868,820,80.9747,-2.19357
651,204,53.7611,2.32251,0,0,0,0,0,0,0,-1,1875,820,53.7611,-2.32249
658,204,34.9631,1.64844,0,0,0,0,0,0,0,-1,1882,820,34.9631,-1.64842
665,204,21.8292,1.51099,0,0,0,0,0,0,0,-1,1889,820,21.8292,-1.51099
672,204,76.1548,-2.67474,0,0,0,0,0,0,0,-1,1896,820,76.1548,2.67474
679,204,206.245,16.8883,0,0,0,0,0,0,0,-1,1903,820,206.245,-16.8883
686,204,205.977,18.6641,0,0,0,0,0,0,0,-1,1910,820,205.977,-18.6641
693,204,204.787,20.8491,0,0,0,0,0,0,0,-1,1917,820,204.787,-20.8491
700,204,204.83,22.9309,-0.000921416,0.0251731,-0.0107145,0.0290087,-0.004757,-1.22703,0.0211042,0.0248476,1924,820,204.829,-22.9309
707,204,204.749,24.9674,-0.00462196,0.0301348,-0.0146464,0.0354836,-0.00997078,-1.22065,0.0275866,0.0229728,1931,820,204.749,-24.9674
714,204,204.472,26.8878,-0.00828998,0.0353016,-0.0185114,0.0421017,-0.0150901,-1.21875,0.0342253,0.0409258,1938,820,204.472,-26.8878
721,204,203.888,28.9355,-0.0118317,0.0405906,-0.0223698,0.0488386,-0.0200797,-1.21755,0.0409285,0.0487197,1945,820,203.889,-28.9355
728,204,203.622,30.7721,-0.0151516,0.0459201,-0.0262769,0.0556696,-0.0249012,-1.21551,0.0476348,0.034617,1952,820,203.622,-30.7721
735,204,203.255,32.4714,0,0,0,0,0,0,0,-1,1959,820,203.255,-32.4714
742,204,202.962,34.1189,0,0,0,0,0,0,0,-1,1966,820,202.962,-34.1189
749,204,101.314,18.9936,0,0,0,0,0,0,0,-1,1973,820,101.314,-18.9936
756,204,92.436,17.8448,0,0,0,0,0,0,0,-1,1980,820,92.436,-17.8448
763,204,100.431,20.1368,0,0,0,0,0,0,0,-1,1987,820,100.431,-20.1368
770,204,81.447,15.5807,0,0,0,0,0,0,0,-1,1994,820,81.4469,-15.5807
777,204,0,0,0,0,0,0,0,0,0,-1,2001,820,0,0
784,204,0,0,0,0,0,0,0,0,0,-1,2008,820,0,0
791,204,0,0,0,0,0,0,0,0,0,-1,2015,820,0,0
798,204,0,0,0,0,0,0,0,0,0,-1,2022,820,0,0
805,204,0,0,0,0,0,0,0,0,0,-1,2029,820,0,0
812,204,0,0,0,0,0,0,0,0,0,-1,2036,820,0,0
-700,197,0,0,0,0,0,0,0,0,0,-1,524,827,0,0
-693,197,0,0,0,0,0,0,0,0,0,-1,531,827,0,0
-686,197,0,0,0,0,0,0,0,0,0,-1,538,827,0,0
-679,197,0,0,0,0,0,0,0,0,0,-1,545,827,0,0
-672,197,0,0,0,0,0,0,0,0,0,-1,552,827,0,0
-665,197,0,0,0,0,0,0,0,0,0,-1,559,827,0,0
-658,197,-39.9774,5.66638,0,0,0,0,0,0,0,-1,566,827,-39.9774,-5.66637
-651,197,-39.9665,5.23578,0,0,0,0,0,0,0,-1,573,827,-39.9665,-5.23575
-644,197,-38.9225,4.75665,0,0,0,0,0,0,0,-1,580,827,-38.9225,-4.75665
-637,197,-45.2572,7.41498,0,0,0,0,0,0,0,-1,587,827,-45.2572,-7.415
-630,197,-40.4908,2.45648,0,0,0,0,0,0,0,-1,594,827,-40.4908,-2.45649
-623,197,-74.227,17.6605,0,0,0,0,0,0,0,-1,601,827,-74.227,-17.6605
-616,197,-196.082,36.8762,0,0,0,0,0,0,0,-1,608,827,-196.082,-36.8762
-609,197,-197.231,34.275,0,0,0,0,0,0,0,-1,615,827,-197.231,-34.275
-602,197,-197.42,32.4798,-0.0182712,0.0574988,0.02136,0.0631054,-0.0238779,1.3141,0.0518942,0.032321,622,827,-197.42,-32.4798
-595,197,-197.848,30.7997,-0.0136365,0.0503019,0.0199563,0.0560193,-0.0193539,1.29177,0.0452005,0.0292824,629,827,-197.848,-30.7997
-588,197,-198.249,29.0195,-0.00927259,0.0433945,0.0184112,0.0491924,-0.0150704,1.26572,0.0388064,0.0404943,636,827,-198.249,-29.0195
-581,197,-198.521,27.015,-0.00511155,0.0366376,0.0167622,0.0425347,-0.0110086,1.23251,0.0326506,0.0283969,643,827,-198.521,-27.015
-574,197,-198.883,25.0555,-0.00116994,0.0301024,0.0149854,0.0361238,-0.00719138,1.18872,0.0268032,0.0263488,650,827,-198.883,-25.0556
-567,197,-199.146,23.2073,0.00251178,0.023854,0.0130508,0.030041,-0.00367523,1.12811,0.0213581,0.0322469,657,827,-199.146,-23.2073
-560,197,-199.312,21.3619,0,0,0,0,0,0,0,-1,664,827,-199.312,-21.362
-553,197,-196.897,19.1068,0,0,0,0,0,0,0,-1,671,827,-196.897,-19.1067
-546,197,-197.524,17.3717,0,0,0,0,0,0,0,-1,678,827,-197.524,-17.3717
-539,197,-32.8993,-2.61737,0,0,0,0,0,0,0,-1,685,827,-32.8993,2.61737
-532,197,-16.0519,0.0410156,0,0,0,0,0,0,0,-1,692,827,-16.0519,-0.0410415
-525,197,-35.3785,2.11829,0,0,0,0,0,0,0,-1,699,827,-35.3785,-2.11826
-518,197,-57.6698,0.308533,0,0,0,0,0,0,0,-1,706,827,-57.6698,-0.308561
-511,197,-72.6749,0.492554,0,0,0,0,0,0,0,-1,713,827,-72.6749,-0.492524
-504,197,-71.1552,0.703064,0,0,0,0,0,0,0,-1,720,827,-71.1552,-0.703067
-497,197,-71.2643,0.608765,0,0,0,0,0,0,0,-1,727,827,-71.2643,-0.608793
-490,197,-71.2889,0.46698,0,0,0,0,0,0,0,-1,734,827,-71.2889,-0.466976
-483,197,-71.1486,0.482544,0,0,0,0,0,0,0,-1,741,827,-71.1485,-0.482525
-476,197,0,0,0,0,0,0,0,0,0,-1,748,827,0,0
-469,197,0,0,0,0,0,0,0,0,0,-1,755,827,0,0
-462,197,0,0,0,0,0,0,0,0,0,-1,762,827,0,0
-455,197,0,0,0,0,0,0,0,0,0,-1,769,827,0,0
-448,197,0,0,0,0,0,0,0,0,0,-1,776,827,0,0
-441,197,0,0,0,0,0,0,0,0,0,-1,783,827,0,0
-434,197,0,0,0,0,0,0,0,0,0,-1,790,827,0,0
-427,197,0,0,0,0,0,0,0,0,0,-1,797,827,0,0
-420,197,0,0,0,0,0,0,0,0,0,-1,804,827,0,0
-413,197,0,0,0,0,0,0,0,0,0,-1,811,827,0,0
-406,197,0,0,0,0,0,0,0,0,0,-1,818,827,0,0
-399,197,0,0,0,0,0,0,0,0,0,-1,825,827,0,0
-392,197,0,0,0,0,0,0,0,0,0,-1,832,827,0,0
-385,197,0,0,0,0,0,0,0,0,0,-1,839,827,0,0
-378,197,0,0,0,0,0,0,0,0,0,-1,846,827,0,0
-371,197,0,0,0,0,0,0,0,0,0,-1,853,827,0,0
-364,197,0,0,0,0,0,0,0,0,0,-1,860,827,0,0
-357,197,0,0,0,0,0,0,0,0,0,-1,867,827,0,0
-350,197,0,0,0,0,0,0,0,0,0,-1,874,827,0,0
-343,197,0,0,0,0,0,0,0,0,0,-1,881,827,0,0
-336,197,0,0,0,0,0,0,0,0,0,-1,888,827,0,0
-329,197,0,0,0,0,0,0,0,0,0,-1,895,827,0,0
-322,197,0,0,0,0,0,0,0,0,0,-1,902,827,0,0
-315,197,0,0,0,0,0,0,0,0,0,-1,909,827,0,0
-308,197,0,0,0,0,0,0,0,0,0,-1,916,827,0,0
-301,197,0,0,0,0,0,0,0,0,0,-1,923,827,0,0
-294,197,0,0,0,0,0,0,0,0,0,-1,930,827,0,0
-287,197,0,0,0,0,0,0,0,0,0,-1,937,827,0,0
-280,197,0,0,0,0,0,0,0,0,0,-1,944,827,0,0
-273,197,0,0,0,0,0,0,0,0,0,-1,951,827,0,0
-266,197,0,0,0,0,0,0,0,0,0,-1,958,827,0,0
-259,197,0,0,0,0,0,0,0,0,0,-1,965,827,0,0
-252,197,0,0,0,0,0,0,0,0,0,-1,972,827,0,0
-245,197,0,0,0,0,0,0,0,0,0,-1,979,827,0,0
-238,197,0,0,0,0,0,0,0,0,0,-1,986,827,0,0
-231,197,0,0,0,0,0,0,0,0,0,-1,993,827,0,0
-224,197,0,0,0,0,0,0,0,0,0,-1,1000,827,0,0
-217,197,0,0,0,0,0,0,0,0,0,-1,1007,827,0,0
-210,197,0,0,0,0,0,0,0,0,0,-1,1014,827,0,0
-203,197,0,0,0,0,0,0,0,0,0,-1,1021,827,0,0
-196,197,0,0,0,0,0,0,0,0,0,-1,1028,827,0,0
-189,197,0,0,0,0,0,0,0,0,0,-1,1035,827,0,0
-182,197,0,0,0,0,0,0,0,0,0,-1,1042,827,0,0
-175,197,0,0,0,0,0,0,0,0,0,-1,1049,827,0,0
-168,197,0,0,0,0,0,0,0,0,0,-1,1056,827,0,0
-161,197,0,0,0,0,0,0,0,0,0,-1,1063,827,0,0
-154,197,0,0,0,0,0,0,0,0,0,-1,1070,827,0,0
-147,197,0,0,0,0,0,0,0,0,0,-1,1077,827,0,0
-140,197,0,0,0,0,0,0,0,0,0,-1,1084,827,0,0
-133,197,0,0,0,0,0,0,0,0,0,-1,1091,827,0,0
-126,197,0,0,0,0,0,0,0,0,0,-1,1098,827,0,0
-119,197,0,0,0,0,0,0,0,0,0,-1,1105,827,0,0
-112,197,0,0,0,0,0,0,0,0,0,-1,1112,827,0,0
-105,197,0,0,0,0,0,0,0,0,0,-1,1119,827,0,0
-98,197,0,0,0,0,0,0,0,0,0,-1,1126,827,0,0
-91,197,0,0,0,0,0,0,0,0,0,-1,1133,827,0,0
-84,197,0,0,0,0,0,0,0,0,0,-1,1140,827,0,0
-77,197,0,0,0,0,0,0,0,0,0,-1,1147,827,0,0
-70,197,0,0,0,0,0,0,0,0,0,-1,1154,827,0,0
-63,197,0,0,0,0,0,0,0,0,0,-1,1161,827,0,0
-56,197,0,0,0,0,0,0,0,0,0,-1,1168,827,0,0
-49,197,0,0,0,0,0,0,0,0,0,-1,1175,827,0,0
-42,197,0,0,0,0,0,0,0,0,0,-1,1182,827,0,0
-35,197,0,0,0,0,0,0,0,0,0,-1,1189,827,0,0
-28,197,0,0,0,0,0,0,0,0,0,-1,1196,827,0,0
-21,197,0,0,0,0,0,0,0,0,0,-1,1203,827,0,0
-14,197,0,0,0,0,0,0,0,0,0,-1,1210,827,0,0
-7,197,0,0,0,0,0,0,0,0,0,-1,1217,827,0,0
0,197,0,0,0,0,0,0,0,0,0,-1,1224,827,0,0
7,197,0,0,0,0,0,0,0,0,0,-1,1231,827,0,0
14,197,0,0,0,0,0,0,0,0,0,-1,1238,827,0,0
21,197,0,0,0,0,0,0,0,0,0,-1,1245,827,0,0
28,197,0,0,0,0,0,0,0,0,0,-1,1252,827,0,0
35,197,0,0,0,0,0,0,0,0,0,-1,1259,827,0,0
42,197,0,0,0,0,0,0,0,0,0,-1,1266,827,0,0
49,197,0,0,0,0,0,0,0,0,0,-1,1273,827,0,0
56,197,0,0,0,0,0,0,0,0,0,-1,1280,827,0,0
63,197,0,0,0,0,0,0,0,0,0,-1,1287,827,0,0
70,197,0,0,0,0,0,0,0,0,0,-1,1294,827,0,0
77,197,0,0,0,0,0,0,0,0,0,-1,1301,827,0,0
84,197,0,0,0,0,0,0,0,0,0,-1,1308,827,0,0
91,197,0,0,0,0,0,0,0,0,0,-1,1315,827,0,0
98,197,0,0,0,0,0,0,0,0,0,-1,1322,827,0,0
105,197,0,0,0,0,0,0,0,0,0,-1,1329,827,0,0
112,197,0,0,0,0,0,0,0,0,0,-1,1336,827,0,0
119,197,0,0,0,0,0,0,0,0,0,-1,1343,827,0,0
126,197,0,0,0,0,0,0,0,0,0,-1,1350,827,0,0
133,197,0,0,0,0,0,0,0,0,0,-1,1357,827,0,0
140,197,0,0,0,0,0,0,0,0,0,-1,1364,827,0,0
147,197,0,0,0,0,0,0,0,0,0,-1,1371,827,0,0
154,197,0,0,0,0,0,0,0,0,0,-1,1378,827,0,0
161,197,0,0,0,0,0,0,0,0,0,-1,1385,827,0,0
168,197,0,0,0,0,0,0,0,0,0,-1,1392,827,0,0
175,197,0,0,0,0,0,0,0,0,0,-1,1399,827,0,0
182,197,0,0,0,0,0,0,0,0,0,-1,1406,827,0,0
189,197,0,0,0,0,0,0,0,0,0,-1,1413,827,0,0
196,197,0,0,0,0,0,0,0,0,0,-1,1420,827,0,0
203,197,0,0,0,0,0,0,0,0,0,-1,1427,827,0,0
210,197,0,0,0,0,0,0,0,0,0,-1,1434,827,0,0
217,197,0,0,0,0,0,0,0,0,0,-1,1441,827,0,0
224,197,0,0,0,0,0,0,0,0,0,-1,1448,827,0,0
231,197,0,0,0,0,0,0,0,0,0,-1,1455,827,0,0
238,197,0,0,0,0,0,0,0,0,0,-1,1462,827,0,0
245,197,0,0,0,0,0,0,0,0,0,-1,1469,827,0,0
252,197,0,0,0,0,0,0,0,0,0,-1,1476,827,0,0
259,197,0,0,0,0,0,0,0,0,0,-1,1483,827,0,0
266,197,0,0,0,0,0,0,0,0,0,-1,1490,827,0,0
273,197,0,0,0,0,0,0,0,0,0,-1,1497,827,0,0
280,197,0,0,0,0,0,0,0,0,0,-1,1504,827,0,0
287,197,0,0,0,0,0,0,0,0,0,-1,1511,827,0,0
294,197,0,0,0,0,0,0,0,0,0,-1,1518,827,0,0
301,197,0,0,0,0,0,0,0,0,0,-1,1525,827,0,0
308,197,0,0,0,0,0,0,0,0,0,-1,1532,827,0,0
315,197,0,0,0,0,0,0,0,0,0,-1,1539,827,0,0
322,197,0,0,0,0,0,0,0,0,0,-1,1546,827,0,0
329,197,0,0,0,0,0,0,0,0,0,-1,1553,827,0,0
336,197,0,0,0,0,0,0,0,0,0,-1,1560,827,0,0
343,197,0,0,0,0,0,0,0,0,0,-1,1567,827,0,0
350,197,0,0,0,0,0,0,0,0,0,-1,1574,827,0,0
357,197,0,0,0,0,0,0,0,0,0,-1,1581,827,0,0
364,197,0,0,0,0,0,0,0,0,0,-1,1588,827,0,0
371,197,0,0,0,0,0,0,0,0,0,-1,1595,827,0,0
378,197,0,0,0,0,0,0,0,0,0,-1,1602,827,0,0
385,197,0,0,0,0,0,0,0,0,0,-1,1609,827,0,0
392,197,0,0,0,0,0,0,0,0,0,-1,1616,827,0,0
399,197,0,0,0,0,0,0,0,0,0,-1,1623,827,0,0
406,197,0,0,0,0,0,0,0,0,0,-1,1630,827,0,0
413,197,0,0,0,0,0,0,0,0,0,-1,1637,827,0,0
420,197,0,0,0,0,0,0,0,0,0,-1,1644,827,0,0
427,197,0,0,0,0,0,0,0,0,0,-1,1651,827,0,0
434,197,0,0,0,0,0,0,0,0,0,-1,1658,827,0,0
441,197,0,0,0,0,0,0,0,0,0,-1,1665,827,0,0
448,197,0,0,0,0,0,0,0,0,0,-1,1672,827,0,0
455,197,0,0,0,0,0,0,0,0,0,-1,1679,827,0,0
462,197,0,0,0,0,0,0,0,0,0,-1,1686,827,0,0
469,197,0,0,0,0,0,0,0,0,0,-1,1693,827,0,0
476,197,0,0,0,0,0,0,0,0,0,-1,1700,827,0,0
483,197,0,0,0,0,0,0,0,0,0,-1,1707,827,0,0
490,197,0,0,0,0,0,0,0,0,0,-1,1714,827,0,0
497,197,0,0,0,0,0,0,0,0,0,-1,1721,827,0,0
504,197,0,0,0,0,0,0,0,0,0,-1,1728,827,0,0
511,197,0,0,0,0,0,0,0,0,0,-1,1735,827,0,0
518,197,0,0,0,0,0,0,0,0,0,-1,1742,827,0,0
525,197,0,0,0,0,0,0,0,0,0,-1,1749,827,0,0
532,197,0,0,0,0,0,0,0,0,0,-1,1756,827,0,0
539,197,0,0,0,0,0,0,0,0,0,-1,1763,827,0,0
546,197,0,0,0,0,0,0,0,0,0,-1,1770,827,0,0
553,197,0,0,0,0,0,0,0,0,0,-1,1777,827,0,0
560,197,0,0,0,0,0,0,0,0,0,-1,1784,827,0,0
567,197,0,0,0,0,0,0,0,0,0,-1,1791,827,0,0
574,197,0,0,0,0,0,0,0,0,0,-1,1798,827,0,0
581,197,0,0,0,0,0,0,0,0,0,-1,1805,827,0,0
588,197,0,0,0,0,0,0,0,0,0,-1,1812,827,0,0
595,197,0,0,0,0,0,0,0,0,0,-1,1819,827,0,0
602,197,236.086,8.79785,0,0,0,0,0,0,0,-1,1826,827,236.086,-8.79783
609,197,236.092,8.72595,0,0,0,0,0,0,0,-1,1833,827,236.092,-8.72598
616,197,236.089,8.68109,0,0,0,0,0,0,0,-1,1840,827,236.089,-8.68107
623,197,236.078,8.67609,0,0,0,0,0,0,0,-1,1847,827,236.078,-8.6761
630,197,236.111,8.6123,0,0,0,0,0,0,0,-1,1854,827,236.111,-8.6123
637,197,235.969,8.672,0,0,0,0,0,0,0,-1,1861,827,235.968,-8.67202
644,197,235.803,8.72375,0,0,0,0,0,0,0,-1,1868,827,235.803,-8.72374
651,197,73.8147,2.2644,0,0,0,0,0,0,0,-1,1875,827,73.8147,-2.26442
658,197,40.4694,3.05927,0,0,0,0,0,0,0,-1,1882,827,40.4694,-3.05926
665,197,14.0618,1.80304,0,0,0,0,0,0,0,-1,1889,827,14.0617,-1.80303
672,197,73.9781,-2.86737,0,0,0,0,0,0,0,-1,1896,827,73.9782,2.86738
679,197,208.679,17.1554,0,0,0,0,0,0,0,-1,1903,827,208.679,-17.1554
686,197,208.115,19.0665,0,0,0,0,0,0,0,-1,1910,827,208.115,-19.0665
693,197,207.795,21.3099,0,0,0,0,0,0,0,-1,1917,827,207.795,-21.3099
700,197,207.075,22.8809,0,0,0,0,0,0,0,-1,1924,827,207.075,-22.8809
707,197,206.882,25.0687,-0.00287153,0.0280098,-0.0128855,0.03268,-0.00754178,-1.22308,0.0246876,0.0150655,1931,827,206.882,-25.0687
714,197,206.597,27.0007,-0.00708457,0.0333793,-0.0165738,0.0393012,-0.0130065,-1.22763,0.0314461,0.0191396,1938,827,206.597,-27.0008
721,197,206.192,28.9321,-0.0111431,0.0388151,-0.0203044,0.0460265,-0.0183545,-1.22953,0.0382978,0.021258,1945,827,206.192,-28.9321
728,197,205.854,30.7086,-0.0149618,0.044238,-0.024119,0.0528203,-0.0235441,-1.22894,0.0451561,0.021931,1952,827,205.854,-30.7086
735,197,205.546,32.397,-0.0184705,0.0495736,-0.0280463,0.0596435,-0.0285404,-1.22609,0.0519579,0.0326377,1959,827,205.546,-32.3971
742,197,205.311,34.0435,-0.0216177,0.0549175,-0.0320545,0.0665689,-0.033269,-1.22216,0.0587005,0.0460365,1966,827,205.311,-34.0435
749,197,205.264,35.6474,0,0,0,0,0,0,0,-1,1973,827,205.264,-35.6474
756,197,121.426,24.1558,0,0,0,0,0,0,0,-1,1980,827,121.426,-24.1558
763,197,104.387,22.0678,0,0,0,0,0,0,0,-1,1987,827,104.387,-22.0678
770,197,101.281,21.3771,0,0,0,0,0,0,0,-1,1994,827,101.281,-21.3772
777,197,0,0,0,0,0,0,0,0,0,-1,2001,827,0,0
784,197,0,0,0,0,0,0,0,0,0,-1,2008,827,0,0
791,197,0,0,0,0,0,0,0,0,0,-1,2015,827,0,0
798,197,0,0,0,0,0,0,0,0,0,-1,2022,827,0,0
805,197,0,0,0,0,0,0,0,0,0,-1,2029,827,0,0
812,197,0,0,0,0,0,0,0,0,0,-1,2036,827,0,0
-700,190,0,0,0,0,0,0,0,0,0,-1,524,834,0,0
-693,190,0,0,0,0,0,0,0,0,0,-1,531,834,0,0
-686,190,0,0,0,0,0,0,0,0,0,-1,538,834,0,0
-679,190,0,0,0,0,0,0,0,0,0,-1,545,834,0,0
-672,190,0,0,0,0,0,0,0,0,0,-1,552,834,0,0
-665,190,0,0,0,0,0,0,0,0,0,-1,559,834,0,0
-658,190,-41.9736,5.50092,0,0,0,0,0,0,0,-1,566,834,-41.9736,-5.50089
-651,190,-40.1895,4.99677,0,0,0,0,0,0,0,-1,573,834,-40.1894,-4.99677
-644,190,-106.669,29.3985,0,0,0,0,0,0,0,-1,580,834,-106.669,-29.3985
-637,190,-64.9345,16.5327,0,0,0,0,0,0,0,-1,587,834,-64.9345,-16.5327
-630,190,-50.036,11.1152,0,0,0,0,0,0,0,-1,594,834,-50.036,-11.1152
-623,190,-194.921,35.9394,0,0,0,0,0,0,0,-1,601,834,-194.921,-35.9394
-616,190,-174.894,35.7552,0,0,0,0,0,0,0,-1,608,834,-174.894,-35.7553
-609,190,-199.029,34.3725,0,0,0,0,0,0,0,-1,615,834,-199.029,-34.3725
-602,190,-199.66,32.585,-0.0170688,0.0543122,0.020037,0.0595521,-0.0223086,1.31502,0.0488656,0.0358652,622,834,-199.66,-32.585
-595,190,-200.171,30.7357,-0.0126763,0.0473424,0.0186957,0.0526897,-0.0180236,1.29222,0.0424301,0.0269018,629,834,-200.171,-30.7357
-588,190,-200.491,28.959,-0.00827903,0.0405201,0.0172315,0.0459914,-0.0137503,1.26335,0.0361274,0.0285092,636,834,-200.491,-28.959
-581,190,-200.759,27.0634,-0.00385103,0.0338055,0.0156754,0.0394767,-0.00952219,1.22366,0.0299999,0.0224664,643,834,-200.759,-27.0633
-574,190,-201.07,25.1812,0.000564155,0.0272751,0.0140083,0.0332742,-0.00543496,1.16617,0.0241988,0.0216539,650,834,-201.07,-25.1812
-567,190,-201.258,23.1011,0.00491322,0.021003,0.0122054,0.0275764,-0.00166013,1.07678,0.0189619,0.0323916,657,834,-201.258,-23.1011
-560,190,-201.357,21.1102,0,0,0,0,0,0,0,-1,664,834,-201.357,-21.1101
-553,190,-201.824,19.1653,0,0,0,0,0,0,0,-1,671,834,-201.824,-19.1654
-546,190,-81.8255,2.11407,0,0,0,0,0,0,0,-1,678,834,-81.8255,-2.11409
-539,190,-16.4624,-0.542542,0,0,0,0,0,0,0,-1,685,834,-16.4624,0.542527
-532,190,-21.6292,2.06122,0,0,0,0,0,0,0,-1,692,834,-21.6292,-2.06123
-525,190,-38.9377,1.03369,0,0,0,0,0,0,0,-1,699,834,-38.9377,-1.0337
-518,190,-72.4769,0.710876,0,0,0,0,0,0,0,-1,706,834,-72.4768,-0.710856
-511,190,-72.7098,0.459412,0,0,0,0,0,0,0,-1,713,834,-72.7098,-0.459385
-504,190,-72.9623,0.199707,0,0,0,0,0,0,0,-1,720,834,-72.9624,-0.199699
-497,190,-71.3149,0.34845,0,0,0,0,0,0,0,-1,727,834,-71.3149,-0.348457
-490,190,-72.7162,1.22229,0,0,0,0,0,0,0,-1,734,834,-72.7163,-1.22232
-483,190,0,0,0,0,0,0,0,0,0,-1,741,834,0,0
-476,190,0,0,0,0,0,0,0,0,0,-1,748,834,0,0
-469,190,0,0,0,0,0,0,0,0,0,-1,755,834,0,0
-462,190,0,0,0,0,0,0,0,0,0,-1,762,834,0,0
-455,190,0,0,0,0,0,0,0,0,0,-1,769,834,0,0
-448,190,0,0,0,0,0,0,0,0,0,-1,776,834,0,0
-441,190,0,0,0,0,0,0,0,0,0,-1,783,834,0,0
-434,190,0,0,0,0,0,0,0,0,0,-1,790,834,0,0
-427,190,0,0,0,0,0,0,0,0,0,-1,797,834,0,0
-420,190,0,0,0,0,0,0,0,0,0,-1,804,834,0,0
-413,190,0,0,0,0,0,0,0,0,0,-1,811,834,0,0
-406,190,0,0,0,0,0,0,0,0,0,-1,818,834,0,0
-399,190,0,0,0,0,0,0,0,0,0,-1,825,834,0,0
-392,190,0,0,0,0,0,0,0,0,0,-1,832,834,0,0
-385,190,0,0,0,0,0,0,0,0,0,-1,839,834,0,0
-378,190,0,0,0,0,0,0,0,0,0,-1,846,834,0,0
-371,190,0,0,0,0,0,0,0,0,0,-1,853,834,0,0
-364,190,0,0,0,0,0,0,0,0,0,-1,860,834,0,0
-357,190,0,0,0,0,0,0,0,0,0,-1,867,834,0,0
-350,190,0,0,0,0,0,0,0,0,0,-1,874,834,0,0
-343,190,0,0,0,0,0,0,0,0,0,-1,881,834,0,0
-336,190,0,0,0,0,0,0,0,0,0,-1,888,834,0,0
-329,190,0,0,0,0,0,0,0,0,0,-1,895,834,0,0
-322,190,0,0,0,0,0,0,0,0,0,-1,902,834,0,0
-315,190,0,0,0,0,0,0,0,0,0,-1,909,834,0,0
-308,190,0,0,0,0,0,0,0,0,0,-1,916,834,0,0
-301,190,0,0,0,0,0,0,0,0,0,-1,923,834,0,0
-294,190,0,0,0,0,0,0,0,0,0,-1,930,834,0,0
-287,190,0,0,0,0,0,0,0,0,0,-1,937,834,0,0
-280,190,0,0,0,0,0,0,0,0,0,-1,944,834,0,0
-273,190,0,0,0,0,0,0,0,0,0,-1,951,834,0,0
-266,190,0,0,0,0,0,0,0,0,0,-1,958,834,0,0
-259,190,0,0,0,0,0,0,0,0,0,-1,965,834,0,0
-252,190,0,0,0,0,0,0,0,0,0,-1,972,834,0,0
-245,190,0,0,0,0,0,0,0,0,0,-1,979,834,0,0
-238,190,0,0,0,0,0,0,0,0,0,-1,986,834,0,0
-231,190,0,0,0,0,0,0,0,0,0,-1,993,834,0,0
-224,190,0,0,0,0,0,0,0,0,0,-1,1000,834,0,0
-217,190,0,0,0,0,0,0,0,0,0,-1,1007,834,0,0
-210,190,0,0,0,0,0,0,0,0,0,-1,1014,834,0,0
-203,190,0,0,0,0,0,0,0,0,0,-1,1021,834,0,0
-196,190,0,0,0,0,0,0,0,0,0,-1,1028,834,0,0
-189,190,0,0,0,0,0,0,0,0,0,-1,1035,834,0,0
-182,190,0,0,0,0,0,0,0,0,0,-1,1042,834,0,0
-175,190,0,0,0,0,0,0,0,0,0,-1,1049,834,0,0
-168,190,0,0,0,0,0,0,0,0,0,-1,1056,834,0,0
-161,190,0,0,0,0,0,0,0,0,0,-1,1063,834,0,0
-154,190,0,0,0,0,0,0,0,0,0,-1,1070,834,0,0
-147,190,0,0,0,0,0,0,0,0,0,-1,1077,834,0,0
-140,190,0,0,0,0,0,0,0,0,0,-1,1084,834,0,0
-133,190,0,0,0,0,0,0,0,0,0,-1,1091,834,0,0
-126,190,0,0,0,0,0,0,0,0,0,-1,1098,834,0,0
-119,190,0,0,0,0,0,0,0,0,0,-1,1105,834,0,0
-112,190,0,0,0,0,0,0,0,0,0,-1,1112,834,0,0
-105,190,0,0,0,0,0,0,0,0,0,-1,1119,834,0,0
-98,190,0,0,0,0,0,0,0,0,0,-1,1126,834,0,0
-91,190,0,0,0,0,0,0,0,0,0,-1,1133,834,0,0
-84,190,0,0,0,0,0,0,0,0,0,-1,1140,834,0,0
-77,190,0,0,0,0,0,0,0,0,0,-1,1147,834,0,0
-70,190,0,0,0,0,0,0,0,0,0,-1,1154,834,0,0
-63,190,0,0,0,0,0,0,0,0,0,-1,1161,834,0,0
-56,190,0,0,0,0,0,0,0,0,0,-1,1168,834,0,0
-49,190,0,0,0,0,0,0,0,0,0,-1,1175,834,0,0
-42,190,0,0,0,0,0,0,0,0,0,-1,1182,834,0,0
-35,190,0,0,0,0,0,0,0,0,0,-1,1189,834,0,0
-28,190,0,0,0,0,0,0,0,0,0,-1,1196,834,0,0
-21,190,0,0,0,0,0,0,0,0,0,-1,1203,834,0,0
-14,190,0,0,0,0,0,0,0,0,0,-1,1210,834,0,0
-7,190,0,0,0,0,0,0,0,0,0,-1,1217,834,0,0
0,190,0,0,0,0,0,0,0,0,0,-1,1224,834,0,0
7,190,0,0,0,0,0,0,0,0,0,-1,1231,834,0,0
14,190,0,0,0,0,0,0,0,0,0,-1,1238,834,0,0
21,190,0,0,0,0,0,0,0,0,0,-1,1245,834,0,0
28,190,0,0,0,0,0,0,0,0,0,-1,1252,834,0,0
35,190,0,0,0,0,0,0,0,0,0,-1,1259,834,0,0
42,190,0,0,0,0,0,0,0,0,0,-1,1266,834,0,0
49,190,0,0,0,0,0,0,0,0,0,-1,1273,834,0,0
56,190,0,0,0,0,0,0,0,0,0,-1,1280,834,0,0
63,190,0,0,0,0,0,0,0,0,0,-1,1287,834,0,0
70,190,0,0,0,0,0,0,0,0,0,-1,1294,834,0,0
77,190,0,0,0,0,0,0,0,0,0,-1,1301,834,0,0
84,190,0,0,0,0,0,0,0,0,0,-1,1308,834,0,0
91,190,0,0,0,0,0,0,0,0,0,-1,1315,834,0,0
98,190,0,0,0,0,0,0,0,0,0,-1,1322,834,0,0
105,190,0,0,0,0,0,0,0,0,0,-1,1329,834,0,0
112,190,0,0,0,0,0,0,0,0,0,-1,1336,834,0,0
119,190,0,0,0,0,0,0,0,0,0,-1,1343,834,0,0
126,190,0,0,0,0,0,0,0,0,0,-1,1350,834,0,0
133,190,0,0,0,0,0,0,0,0,0,-1,1357,834,0,0
140,190,0,0,0,0,0,0,0,0,0,-1,1364,834,0,0
147,190,0,0,0,0,0,0,0,0,0,-1,1371,834,0,0
154,190,0,0,0,0,0,0,0,0,0,-1,1378,834,0,0
161,190,0,0,0,0,0,0,0,0,0,-1,1385,834,0,0
168,190,0,0,0,0,0,0,0,0,0,-1,1392,834,0,0
175,190,0,0,0,0,0,0,0,0,0,-1,1399,834,0,0
182,190,0,0,0,0,0,0,0,0,0,-1,1406,834,0,0
189,190,0,0,0,0,0,0,0,0,0,-1,1413,834,0,0
196,190,0,0,0,0,0,0,0,0,0,-1,1420,834,0,0
203,190,0,0,0,0,0,0,0,0,0,-1,1427,834,0,0
210,190,0,0,0,0,0,0,0,0,0,-1,1434,834,0,0
217,190,0,0,0,0,0,0,0,0,0,-1,1441,834,0,0
224,190,0,0,0,0,0,0,0,0,0,-1,1448,834,0,0
231,190,0,0,0,0,0,0,0,0,0,-1,1455,834,0,0
238,190,0,0,0,0,0,0,0,0,0,-1,1462,834,0,0
245,190,0,0,0,0,0,0,0,0,0,-1,1469,834,0,0
252,190,0,0,0,0,0,0,0,0,0,-1,1476,834,0,0
259,190,0,0,0,0,0,0,0,0,0,-1,1483,834,0,0
266,190,0,0,0,0,0,0,0,0,0,-1,1490,834,0,0
273,190,0,0,0,0,0,0,0,0,0,-1,1497,834,0,0
280,190,0,0,0,0,0,0,0,0,0,-1,1504,834,0,0
287,190,0,0,0,0,0,0,0,0,0,-1,1511,834,0,0
294,190,0,0,0,0,0,0,0,0,0,-1,1518,834,0,0
301,190,0,0,0,0,0,0,0,0,0,-1,1525,834,0,0
308,190,0,0,0,0,0,0,0,0,0,-1,1532,834,0,0
315,190,0,0,0,0,0,0,0,0,0,-1,1539,834,0,0
322,190,0,0,0,0,0,0,0,0,0,-1,1546,834,0,0
329,190,0,0,0,0,0,0,0,0,0,-1,1553,834,0,0
336,190,0,0,0,0,0,0,0,0,0,-1,1560,834,0,0
343,190,0,0,0,0,0,0,0,0,0,-1,1567,834,0,0
350,190,0,0,0,0,0,0,0,0,0,-1,1574,834,0,0
357,190,0,0,0,0,0,0,0,0,0,-1,1581,834,0,0
364,190,0,0,0,0,0,0,0,0,0,-1,1588,834,0,0
371,190,0,0,0,0,0,0,0,0,0,-1,1595,834,0,0
378,190,0,0,0,0,0,0,0,0,0,-1,1602,834,0,0
385,190,0,0,0,0,0,0,0,0,0,-1,1609,834,0,0
392,190,0,0,0,0,0,0,0,0,0,-1,1616,834,0,0
399,190,0,0,0,0,0,0,0,0,0,-1,1623,834,0,0
406,190,0,0,0,0,0,0,0,0,0,-1,1630,834,0,0
413,190,0,0,0,0,0,0,0,0,0,-1,1637,834,0,0
420,190,0,0,0,0,0,0,0,0,0,-1,1644,834,0,0
427,190,0,0,0,0,0,0,0,0,0,-1,1651,834,0,0
434,190,0,0,0,0,0,0,0,0,0,-1,1658,834,0,0
441,190,0,0,0,0,0,0,0,0,0,-1,1665,834,0,0
448,190,0,0,0,0,0,0,0,0,0,-1,1672,834,0,0
455,190,0,0,0,0,0,0,0,0,0,-1,1679,834,0,0
462,190,0,0,0,0,0,0,0,0,0,-1,1686,834,0,0
469,190,0,0,0,0,0,0,0,0,0,-1,1693,834,0,0
476,190,0,0,0,0,0,0,0,0,0,-1,1700,834,0,0
483,190,0,0,0,0,0,0,0,0,0,-1,1707,834,0,0
490,190,0,0,0,0,0,0,0,0,0,-1,1714,834,0,0
497,190,0,0,0,0,0,0,0,0,0,-1,1721,834,0,0
504,190,0,0,0,0,0,0,0,0,0,-1,1728,834,0,0
511,190,0,0,0,0,0,0,0,0,0,-1,1735,834,0,0
518,190,0,0,0,0,0,0,0,0,0,-1,1742,834,0,0
525,190,0,0,0,0,0,0,0,0,0,-1,1749,834,0,0
532,190,0,0,0,0,0,0,0,0,0,-1,1756,834,0,0
539,190,0,0,0,0,0,0,0,0,0,-1,1763,834,0,0
546,190,0,0,0,0,0,0,0,0,0,-1,1770,834,0,0
553,190,0,0,0,0,0,0,0,0,0,-1,1777,834,0,0
560,190,0,0,0,0,0,0,0,0,0,-1,1784,834,0,0
567,190,0,0,0,0,0,0,0,0,0,-1,1791,834,0,0
574,190,0,0,0,0,0,0,0,0,0,-1,1798,834,0,0
581,190,0,0,0,0,0,0,0,0,0,-1,1805,834,0,0
588,190,0,0,0,0,0,0,0,0,0,-1,1812,834,0,0
595,190,0,0,0,0,0,0,0,0,0,-1,1819,834,0,0
602,190,235.916,8.72247,0,0,0,0,0,0,0,-1,1826,834,235.915,-8.72248
609,190,236.139,8.6084,0,0,0,0,0,0,0,-1,1833,834,236.139,-8.60842
616,190,236.06,8.70135,0,0,0,0,0,0,0,-1,1840,834,236.06,-8.70134
623,190,236.113,8.77728,0,0,0,0,0,0,0,-1,1847,834,236.113,-8.77727
630,190,236.222,8.70837,0,0,0,0,0,0,0,-1,1854,834,236.222,-8.70835
637,190,236.094,8.73309,0,0,0,0,0,0,0,-1,1861,834,236.094,-8.7331
644,190,235.925,8.76843,0,0,0,0,0,0,0,-1,1868,834,235.925,-8.76841
651,190,166.686,6.40106,0,0,0,0,0,0,0,-1,1875,834,166.686,-6.40108
658,190,54.0599,3.0943,0,0,0,0,0,0,0,-1,1882,834,54.0599,-3.09428
665,190,25.9916,3.05157,0,0,0,0,0,0,0,-1,1889,834,25.9916,-3.05156
672,190,27.2662,1.70862,0,0,0,0,0,0,0,-1,1896,834,27.2662,-1.70861
679,190,211.06,17.4943,0,0,0,0,0,0,0,-1,1903,834,211.059,-17.4943
686,190,210.41,19.4247,0,0,0,0,0,0,0,-1,1910,834,210.41,-19.4248
693,190,209.808,21.4828,0.00837724,0.0149171,-0.00454765,0.0172484,0.00604596,-1.09709,0.0101056,0.0426007,1917,834,209.808,-21.4828
700,190,209.364,23.3471,0,0,0,0,0,0,0,-1,1924,834,209.364,-23.3471
707,190,208.965,25.2668,-0.000766277,0.0259497,-0.0114244,0.0301688,-0.00498537,-1.21703,0.0219637,0.0230457,1931,834,208.965,-25.2669
714,190,208.726,27.1132,-0.00542761,0.0314086,-0.0149463,0.0367101,-0.0107291,-1.22994,0.0287256,0.0206086,1938,834,208.726,-27.1132
721,190,208.458,28.9738,-0.00998757,0.0368586,-0.0185681,0.0433256,-0.0164546,-1.23565,0.0356574,0.01904,1945,834,208.458,-28.9737
728,190,208.115,30.7315,-0.0143575,0.0422315,-0.0223087,0.0499683,-0.0220943,-1.23697,0.0426302,0.0219793,1952,834,208.115,-30.7315
735,190,207.748,32.376,-0.0184609,0.0474672,-0.0261752,0.0565956,-0.0275892,-1.23524,0.0495565,0.0198483,1959,834,207.748,-32.376
742,190,207.638,34.0057,-0.0222455,0.052598,-0.0301381,0.0632251,-0.0328726,-1.2318,0.0563969,0.0243215,1966,834,207.638,-34.0058
749,190,207.443,35.4979,0,0,0,0,0,0,0,-1,1973,834,207.443,-35.4979
756,190,201.793,37.4233,0,0,0,0,0,0,0,-1,1980,834,201.793,-37.4233
763,190,122.597,25.3192,0,0,0,0,0,0,0,-1,1987,834,122.597,-25.3191
770,190,106.929,24.4991,0,0,0,0,0,0,0,-1,1994,834,106.929,-24.4992
777,190,51.4365,10.3331,0,0,0,0,0,0,0,-1,2001,834,51.4366,-10.3331
784,190,0,0,0,0,0,0,0,0,0,-1,2008,834,0,0
791,190,0,0,0,0,0,0,0,0,0,-1,2015,834,0,0
798,190,0,0,0,0,0,0,0,0,0,-1,2022,834,0,0
805,190,0,0,0,0,0,0,0,0,0,-1,2029,834,0,0
812,190,0,0,0,0,0,0,0,0,0,-1,2036,834,0,0
-700,183,0,0,0,0,0,0,0,0,0,-1,524,841,0,0
-693,183,0,0,0,0,0,0,0,0,0,-1,531,841,0,0
-686,183,0,0,0,0,0,0,0,0,0,-1,538,841,0,0
-679,183,0,0,0,0,0,0,0,0,0,-1,545,841,0,0
-672,183,0,0,0,0,0,0,0,0,0,-1,552,841,0,0
-665,183,0,0,0,0,0,0,0,0,0,-1,559,841,0,0
-658,183,-56.7401,1.32843,0,0,0,0,0,0,0,-1,566,841,-56.7401,-1.32844
-651,183,-107.228,30.9319,0,0,0,0,0,0,0,-1,573,841,-107.228,-30.9319
-644,183,-131.669,32.186,0,0,0,0,0,0,0,-1,580,841,-131.669,-32.186
-637,183,-108.134,28.3177,0,0,0,0,0,0,0,-1,587,841,-108.134,-28.3177
-630,183,-196.381,38.0604,0,0,0,0,0,0,0,-1,594,841,-196.381,-38.0604
-623,183,-203.517,36.422,0,0,0,0,0,0,0,-1,601,841,-203.517,-36.422
-616,183,-201.278,36.3331,0,0,0,0,0,0,0,-1,608,841,-201.278,-36.3331
-609,183,-201.431,34.4665,0,0,0,0,0,0,0,-1,615,841,-201.431,-34.4665
-602,183,-201.931,32.5303,-0.0158357,0.0512479,0.0186892,0.0561032,-0.020691,1.31662,0.0458816,0.0231067,622,841,-201.931,-32.5303
-595,183,-202.319,30.7737,-0.0114636,0.0444641,0.017452,0.0494631,-0.0164626,1.29182,0.0396199,0.0164848,629,841,-202.319,-30.7737
-588,183,-202.602,28.9924,-0.00686414,0.0377214,0.0161117,0.0429341,-0.0120769,1.25789,0.0333847,0.0195915,636,841,-202.602,-28.9924
-581,183,-202.887,27.1664,-0.00202027,0.0310381,0.014689,0.0366218,-0.00760402,1.20754,0.0273045,0.0220992,643,841,-202.887,-27.1665
-574,183,-203.16,25.261,0.00302485,0.024489,0.0131689,0.0307451,-0.00323122,1.1273,0.0216543,0.0298976,650,841,-203.16,-25.261
-567,183,-203.141,23.268,0.0082279,0.0181511,0.0115316,0.0257432,0.000635844,0.988559,0.0169542,0.0382194,657,841,-203.141,-23.268
-560,183,-203.267,21.2635,0,0,0,0,0,0,0,-1,664,841,-203.267,-21.2636
-553,183,-202.477,19.2947,0,0,0,0,0,0,0,-1,671,841,-202.477,-19.2947
-546,183,-27.8053,-1.91199,0,0,0,0,0,0,0,-1,678,841,-27.8053,1.91201
-539,183,-16.8032,-0.417297,0,0,0,0,0,0,0,-1,685,841,-16.8032,0.41732
-532,183,-29.9686,0.953613,0,0,0,0,0,0,0,-1,692,841,-29.9686,-0.953627
-525,183,-55.6847,0.842468,0,0,0,0,0,0,0,-1,699,841,-55.6847,-0.842446
-518,183,-72.6883,0.389221,0,0,0,0,0,0,0,-1,706,841,-72.6883,-0.389223
-511,183,-72.7325,0.370056,0,0,0,0,0,0,0,-1,713,841,-72.7325,-0.370065
-504,183,-72.9583,0.115173,0,0,0,0,0,0,0,-1,720,841,-72.9583,-0.115146
-497,183,-73.1502,-0.125122,0,0,0,0,0,0,0,-1,727,841,-73.1502,0.125119
-490,183,-72.6449,0.85791,0,0,0,0,0,0,0,-1,734,841,-72.6449,-0.857887
-483,183,0,0,0,0,0,0,0,0,0,-1,741,841,0,0
-476,183,0,0,0,0,0,0,0,0,0,-1,748,841,0,0
-469,183,0,0,0,0,0,0,0,0,0,-1,755,841,0,0
-462,183,0,0,0,0,0,0,0,0,0,-1,762,841,0,0
-455,183,0,0,0,0,0,0,0,0,0,-1,769,841,0,0
-448,183,0,0,0,0,0,0,0,0,0,-1,776,841,0,0
-441,183,0,0,0,0,0,0,0,0,0,-1,783,841,0,0
-434,183,0,0,0,0,0,0,0,0,0,-1,790,841,0,0
-427,183,0,0,0,0,0,0,0,0,0,-1,797,841,0,0
-420,183,0,0,0,0,0,0,0,0,0,-1,804,841,0,0
-413,183,0,0,0,0,0,0,0,0,0,-1,811,841,0,0
-406,183,0,0,0,0,0,0,0,0,0,-1,818,841,0,0
-399,183,0,0,0,0,0,0,0,0,0,-1,825,841,0,0
-392,183,0,0,0,0,0,0,0,0,0,-1,832,841,0,0
-385,183,0,0,0,0,0,0,0,0,0,-1,839,841,0,0
-378,183,0,0,0,0,0,0,0,0,0,-1,846,841,0,0
-371,183,0,0,0,0,0,0,0,0,0,-1,853,841,0,0
-364,183,0,0,0,0,0,0,0,0,0,-1,860,841,0,0
-357,183,0,0,0,0,0,0,0,0,0,-1,867,841,0,0
-350,183,0,0,0,0,0,0,0,0,0,-1,874,841,0,0
-343,183,0,0,0,0,0,0,0,0,0,-1,881,841,0,0
-336,183,0,0,0,0,0,0,0,0,0,-1,888,841,0,0
-329,183,0,0,0,0,0,0,0,0,0,-1,895,841,0,0
-322,183,0,0,0,0,0,0,0,0,0,-1,902,841,0,0
-315,183,0,0,0,0,0,0,0,0,0,-1,909,841,0,0
-308,183,0,0,0,0,0,0,0,0,0,-1,916,841,0,0
-301,183,0,0,0,0,0,0,0,0,0,-1,923,841,0,0
-294,183,0,0,0,0,0,0,0,0,0,-1,930,841,0,0
-287,183,0,0,0,0,0,0,0,0,0,-1,937,841,0,0
-280,183,0,0,0,0,0,0,0,0,0,-1,944,841,0,0
-273,183,0,0,0,0,0,0,0,0,0,-1,951,841,0,0
-266,183,0,0,0,0,0,0,0,0,0,-1,958,841,0,0
-259,183,0,0,0,0,0,0,0,0,0,-1,965,841,0,0
-252,183,0,0,0,0,0,0,0,0,0,-1,972,841,0,0
-245,183,0,0,0,0,0,0,0,0,0,-1,979,841,0,0
-238,183,0,0,0,0,0,0,0,0,0,-1,986,841,0,0
-231,183,0,0,0,0,0,0,0,0,0,-1,993,841,0,0
-224,183,0,0,0,0,0,0,0,0,0,-1,1000,841,0,0
-217,183,0,0,0,0,0,0,0,0,0,-1,1007,841,0,0
-210,183,0,0,0,0,0,0,0,0,0,-1,1014,841,0,0
-203,183,0,0,0,0,0,0,0,0,0,-1,1021,841,0,0
-196,183,0,0,0,0,0,0,0,0,0,-1,1028,841,0,0
-189,183,0,0,0,0,0,0,0,0,0,-1,1035,841,0,0
-182,183,0,0,0,0,0,0,0,0,0,-1,1042,841,0,0
-175,183,0,0,0,0,0,0,0,0,0,-1,1049,841,0,0
-168,183,0,0,0,0,0,0,0,0,0,-1,1056,841,0,0
-161,183,0,0,0,0,0,0,0,0,0,-1,1063,841,0,0
-154,183,0,0,0,0,0,0,0,0,0,-1,1070,841,0,0
-147,183,0,0,0,0,0,0,0,0,0,-1,1077,841,0,0
-140,183,0,0,0,0,0,0,0,0,0,-1,1084,841,0,0
-133,183,0,0,0,0,0,0,0,0,0,-1,1091,841,0,0
-126,183,0,0,0,0,0,0,0,0,0,-1,1098,841,0,0
-119,183,0,0,0,0,0,0,0,0,0,-1,1105,841,0,0
-112,183,0,0,0,0,0,0,0,0,0,-1,1112,841,0,0
-105,183,0,0,0,0,0,0,0,0,0,-1,1119,841,0,0
-98,183,0,0,0,0,0,0,0,0,0,-1,1126,841,0,0
-91,183,0,0,0,0,0,0,0,0,0,-1,1133,841,0,0
-84,183,0,0,0,0,0,0,0,0,0,-1,1140,841,0,0
-77,183,0,0,0,0,0,0,0,0,0,-1,1147,841,0,0
-70,183,0,0,0,0,0,0,0,0,0,-1,1154,841,0,0
-63,183,0,0,0,0,0,0,0,0,0,-1,1161,841,0,0
-56,183,0,0,0,0,0,0,0,0,0,-1,1168,841,0,0
-49,183,0,0,0,0,0,0,0,0,0,-1,1175,841,0,0
-42,183,0,0,0,0,0,0,0,0,0,-1,1182,841,0,0
-35,183,0,0,0,0,0,0,0,0,0,-1,1189,841,0,0
-28,183,0,0,0,0,0,0,0,0,0,-1,1196,841,0,0
-21,183,0,0,0,0,0,0,0,0,0,-1,1203,841,0,0
-14,183,0,0,0,0,0,0,0,0,0,-1,1210,841,0,0
-7,183,0,0,0,0,0,0,0,0,0,-1,1217,841,0,0
0,183,0,0,0,0,0,0,0,0,0,-1,1224,841,0,0
7,183,0,0,0,0,0,0,0,0,0,-1,1231,841,0,0
14,183,0,0,0,0,0,0,0,0,0,-1,1238,841,0,0
21,183,0,0,0,0,0,0,0,0,0,-1,1245,841,0,0
28,183,0,0,0,0,0,0,0,0,0,-1,1252,841,0,0
35,183,0,0,0,0,0,0,0,0,0,-1,1259,841,0,0
42,183,0,0,0,0,0,0,0,0,0,-1,1266,841,0,0
49,183,0,0,0,0,0,0,0,0,0,-1,1273,841,0,0
56,183,0,0,0,0,0,0,0,0,0,-1,1280,841,0,0
63,183,0,0,0,0,0,0,0,0,0,-1,1287,841,0,0
70,183,0,0,0,0,0,0,0,0,0,-1,1294,841,0,0
77,183,0,0,0,0,0,0,0,0,0,-1,1301,841,0,0
84,183,0,0,0,0,0,0,0,0,0,-1,1308,841,0,0
91,183,0,0,0,0,0,0,0,0,0,-1,1315,841,0,0
98,183,0,0,0,0,0,0,0,0,0,-1,1322,841,0,0
105,183,0,0,0,0,0,0,0,0,0,-1,1329,841,0,0
112,183,0,0,0,0,0,0,0,0,0,-1,1336,841,0,0
119,183,0,0,0,0,0,0,0,0,0,-1,1343,841,0,0
126,183,0,0,0,0,0,0,0,0,0,-1,1350,841,0,0
133,183,0,0,0,0,0,0,0,0,0,-1,1357,841,0,0
140,183,0,0,0,0,0,0,0,0,0,-1,1364,841,0,0
147,183,0,0,0,0,0,0,0,0,0,-1,1371,841,0,0
154,183,0,0,0,0,0,0,0,0,0,-1,1378,841,0,0
161,183,0,0,0,0,0,0,0,0,0,-1,1385,841,0,0
168,183,0,0,0,0,0,0,0,0,0,-1,1392,841,0,0
175,183,0,0,0,0,0,0,0,0,0,-1,1399,841,0,0
182,183,0,0,0,0,0,0,0,0,0,-1,1406,841,0,0
189,183,0,0,0,0,0,0,0,0,0,-1,1413,841,0,0
196,183,0,0,0,0,0,0,0,0,0,-1,1420,841,0,0
203,183,0,0,0,0,0,0,0,0,0,-1,1427,841,0,0
210,183,0,0,0,0,0,0,0,0,0,-1,1434,841,0,0
217,183,0,0,0,0,0,0,0,0,0,-1,1441,841,0,0
224,183,0,0,0,0,0,0,0,0,0,-1,1448,841,0,0
231,183,0,0,0,0,0,0,0,0,0,-1,1455,841,0,0
238,183,0,0,0,0,0,0,0,0,0,-1,1462,841,0,0
245,183,0,0,0,0,0,0,0,0,0,-1,1469,841,0,0
252,183,0,0,0,0,0,0,0,0,0,-1,1476,841,0,0
259,183,0,0,0,0,0,0,0,0,0,-1,1483,841,0,0
266,183,0,0,0,0,0,0,0,0,0,-1,1490,841,0,0
273,183,0,0,0,0,0,0,0,0,0,-1,1497,841,0,0
280,183,0,0,0,0,0,0,0,0,0,-1,1504,841,0,0
287,183,0,0,0,0,0,0,0,0,0,-1,1511,841,0,0
294,183,0,0,0,0,0,0,0,0,0,-1,1518,841,0,0
301,183,0,0,0,0,0,0,0,0,0,-1,1525,841,0,0
308,183,0,0,0,0,0,0,0,0,0,-1,1532,841,0,0
315,183,0,0,0,0,0,0,0,0,0,-1,1539,841,0,0
322,183,0,0,0,0,0,0,0,0,0,-1,1546,841,0,0
329,183,0,0,0,0,0,0,0,0,0,-1,1553,841,0,0
336,183,0,0,0,0,0,0,0,0,0,-1,1560,841,0,0
343,183,0,0,0,0,0,0,0,0,0,-1,1567,841,0,0
350,183,0,0,0,0,0,0,0,0,0,-1,1574,841,0,0
357,183,0,0,0,0,0,0,0,0,0,-1,1581,841,0,0
364,183,0,0,0,0,0,0,0,0,0,-1,1588,841,0,0
371,183,0,0,0,0,0,0,0,0,0,-1,1595,841,0,0
378,183,0,0,0,0,0,0,0,0,0,-1,1602,841,0,0
385,183,0,0,0,0,0,0,0,0,0,-1,1609,841,0,0
392,183,0,0,0,0,0,0,0,0,0,-1,1616,841,0,0
399,183,0,0,0,0,0,0,0,0,0,-1,1623,841,0,0
406,183,0,0,0,0,0,0,0,0,0,-1,1630,841,0,0
413,183,0,0,0,0,0,0,0,0,0,-1,1637,841,0,0
420,183,0,0,0,0,0,0,0,0,0,-1,1644,841,0,0
427,183,0,0,0,0,0,0,0,0,0,-1,1651,841,0,0
434,183,0,0,0,0,0,0,0,0,0,-1,1658,841,0,0
441,183,0,0,0,0,0,0,0,0,0,-1,1665,841,0,0
448,183,0,0,0,0,0,0,0,0,0,-1,1672,841,0,0
455,183,0,0,0,0,0,0,0,0,0,-1,1679,841,0,0
462,183,0,0,0,0,0,0,0,0,0,-1,1686,841,0,0
469,183,0,0,0,0,0,0,0,0,0,-1,1693,841,0,0
476,183,0,0,0,0,0,0,0,0,0,-1,1700,841,0,0
483,183,0,0,0,0,0,0,0,0,0,-1,1707,841,0,0
490,183,0,0,0,0,0,0,0,0,0,-1,1714,841,0,0
497,183,0,0,0,0,0,0,0,0,0,-1,1721,841,0,0
504,183,0,0,0,0,0,0,0,0,0,-1,1728,841,0,0
511,183,0,0,0,0,0,0,0,0,0,-1,1735,841,0,0
518,183,0,0,0,0,0,0,0,0,0,-1,1742,841,0,0
525,183,0,0,0,0,0,0,0,0,0,-1,1749,841,0,0
532,183,0,0,0,0,0,0,0,0,0,-1,1756,841,0,0
539,183,0,0,0,0,0,0,0,0,0,-1,1763,841,0,0
546,183,0,0,0,0,0,0,0,0,0,-1,1770,841,0,0
553,183,0,0,0,0,0,0,0,0,0,-1,1777,841,0,0
560,183,0,0,0,0,0,0,0,0,0,-1,1784,841,0,0
567,183,0,0,0,0,0,0,0,0,0,-1,1791,841,0,0
574,183,0,0,0,0,0,0,0,0,0,-1,1798,841,0,0
581,183,0,0,0,0,0,0,0,0,0,-1,1805,841,0,0
588,183,0,0,0,0,0,0,0,0,0,-1,1812,841,0,0
595,183,0,0,0,0,0,0,0,0,0,-1,1819,841,0,0
602,183,0,0,0,0,0,0,0,0,0,-1,1826,841,0,0
609,183,235.819,8.93109,0,0,0,0,0,0,0,-1,1833,841,235.819,-8.93112
616,183,235.992,8.70697,0,0,0,0,0,0,0,-1,1840,841,235.992,-8.707
623,183,236.147,8.74286,0,0,0,0,0,0,0,-1,1847,841,236.147,-8.74289
630,183,236.139,8.75702,0,0,0,0,0,0,0,-1,1854,841,236.139,-8.75703
637,183,236.041,8.67694,0,0,0,0,0,0,0,-1,1861,841,236.041,-8.67692
644,183,235.875,8.73865,0,0,0,0,0,0,0,-1,1868,841,235.875,-8.73865
651,183,235.816,8.8515,0,0,0,0,0,0,0,-1,1875,841,235.816,-8.85153
658,183,83.877,2.72919,0,0,0,0,0,0,0,-1,1882,841,83.8769,-2.72919
665,183,38.4337,2.66992,0,0,0,0,0,0,0,-1,1889,841,38.4337,-2.6699
672,183,29.168,1.54572,0,0,0,0,0,0,0,-1,1896,841,29.168,-1.54574
679,183,78.9729,-1.12219,0,0,0,0,0,0,0,-1,1903,841,78.9729,1.12222
686,183,212.644,19.9553,0,0,0,0,0,0,0,-1,1910,841,212.643,-19.9553
693,183,211.775,21.658,0,0,0,0,0,0,0,-1,1917,841,211.775,-21.6579
700,183,211.082,23.5286,0,0,0,0,0,0,0,-1,1924,841,211.082,-23.5286
707,183,211.008,25.3926,0.0014674,0.0240944,-0.00987185,0.0277958,-0.00223405,-1.21207,0.0193184,0.0211878,1931,841,211.008,-25.3926
714,183,210.958,27.1617,-0.00353681,0.0295796,-0.0132727,0.0342425,-0.00819978,-1.23295,0.0259963,0.0269469,1938,841,210.958,-27.1617
721,183,210.847,29.0364,-0.0085057,0.0349984,-0.0167864,0.0407225,-0.0142298,-1.24217,0.0329328,0.0271965,1945,841,210.847,-29.0364
728,183,210.452,30.8547,-0.0133379,0.0402893,-0.0204267,0.0471835,-0.0202322,-1.24529,0.0399458,0.0243523,1952,841,210.452,-30.8547
735,183,210.027,32.4543,-0.0179212,0.0454183,-0.0241735,0.0535898,-0.0260927,-1.24482,0.0469089,0.0227822,1959,841,210.027,-32.4543
742,183,209.585,34.0153,-0.0221574,0.0504114,-0.027974,0.059943,-0.031689,-1.2424,0.0537355,0.0180742,1966,841,209.585,-34.0153
749,183,209.234,35.4967,-0.0264975,0.0551033,-0.0316889,0.0659639,-0.0373581,-1.24062,0.0604103,0.0408569,1973,841,209.234,-35.4967
756,183,208.844,36.9301,0,0,0,0,0,0,0,-1,1980,841,208.844,-36.9301
763,183,202.426,39.2178,0,0,0,0,0,0,0,-1,1987,841,202.426,-39.2178
770,183,51.5659,9.50665,0,0,0,0,0,0,0,-1,1994,841,51.5659,-9.50663
777,183,42.1948,7.22906,0,0,0,0,0,0,0,-1,2001,841,42.1948,-7.22905
784,183,0,0,0,0,0,0,0,0,0,-1,2008,841,0,0
791,183,0,0,0,0,0,0,0,0,0,-1,2015,841,0,0
798,183,0,0,0,0,0,0,0,0,0,-1,2022,841,0,0
805,183,0,0,0,0,0,0,0,0,0,-1,2029,841,0,0
812,183,0,0,0,0,0,0,0,0,0,-1,2036,841,0,0
-700,176,0,0,0,0,0,0,0,0,0,-1,524,848,0,0
-693,176,0,0,0,0,0,0,0,0,0,-1,531,848,0,0
-686,176,0,0,0,0,0,0,0,0,0,-1,538,848,0,0
-679,176,0,0,0,0,0,0,0,0,0,-1,545,848,0,0
-672,176,0,0,0,0,0,0,0,0,0,-1,552,848,0,0
-665,176,-59.6962,8.75854,0,0,0,0,0,0,0,-1,559,848,-59.6962,-8.75853
-658,176,-59.6349,7.95142,0,0,0,0,0,0,0,-1,566,848,-59.6349,-7.95144
-651,176,-133.25,33.5839,0,0,0,0,0,0,0,-1,573,848,-133.25,-33.5838
-644,176,-133.137,32.3544,0,0,0,0,0,0,0,-1,580,848,-133.137,-32.3544
-637,176,-133.18,31.4319,0,0,0,0,0,0,0,-1,587,848,-133.18,-31.4319
-630,176,-205.13,37.7166,0,0,0,0,0,0,0,-1,594,848,-205.13,-37.7166
-623,176,-204.467,37.3865,0,0,0,0,0,0,0,-1,601,848,-204.467,-37.3865
-616,176,-204.084,35.6077,0,0,0,0,0,0,0,-1,608,848,-204.084,-35.6077
-609,176,-204.154,34.2792,0,0,0,0,0,0,0,-1,615,848,-204.154,-34.2792
-602,176,-204.133,32.5594,-0.0146636,0.0483893,0.0176717,0.0530043,-0.0192786,1.31535,0.0432202,0.0197615,622,848,-204.133,-32.5595
-595,176,-204.419,30.8047,-0.0103064,0.0417915,0.016444,0.0465476,-0.0150625,1.28925,0.0370866,0.0177295,629,848,-204.419,-30.8048
-588,176,-204.694,29.0782,-0.00552863,0.0351748,0.0151524,0.0401961,-0.0105499,1.2508,0.0309199,0.0229328,636,848,-204.694,-29.0782
-581,176,-204.94,27.337,-0.000318213,0.0285792,0.013806,0.0341147,-0.00585379,1.18947,0.0249246,0.0288249,643,848,-204.94,-27.337
-574,176,-205.322,25.5757,0.00530071,0.0220752,0.0123935,0.0286527,-0.00127687,1.08287,0.0195414,0.0346925,650,848,-205.322,-25.5757
-567,176,-205.296,23.6155,0.0112987,0.0157349,0.0109154,0.0246553,0.00237832,0.885636,0.0157042,0.032939,657,848,-205.296,-23.6154
-560,176,-205.43,21.5458,0,0,0,0,0,0,0,-1,664,848,-205.43,-21.5459
-553,176,-130.914,10.5666,0,0,0,0,0,0,0,-1,671,848,-130.914,-10.5666
-546,176,-16.657,-0.403198,0,0,0,0,0,0,0,-1,678,848,-16.657,0.403182
-539,176,-22.7061,1.48657,0,0,0,0,0,0,0,-1,685,848,-22.7061,-1.48657
-532,176,-38.8326,1.29749,0,0,0,0,0,0,0,-1,692,848,-38.8326,-1.29747
-525,176,-72.6287,0.52948,0,0,0,0,0,0,0,-1,699,848,-72.6287,-0.529456
-518,176,-72.6528,0.501587,0,0,0,0,0,0,0,-1,706,848,-72.6528,-0.501577
-511,176,-72.6872,0.485535,0,0,0,0,0,0,0,-1,713,848,-72.6872,-0.485559
-504,176,-72.8505,0.407227,0,0,0,0,0,0,0,-1,720,848,-72.8506,-0.407217
-497,176,-72.7821,0.65387,0,0,0,0,0,0,0,-1,727,848,-72.7821,-0.653851
-490,176,-72.6411,0.631165,0,0,0,0,0,0,0,-1,734,848,-72.641,-0.631162
-483,176,0,0,0,0,0,0,0,0,0,-1,741,848,0,0
-476,176,0,0,0,0,0,0,0,0,0,-1,748,848,0,0
-469,176,0,0,0,0,0,0,0,0,0,-1,755,848,0,0
-462,176,0,0,0,0,0,0,0,0,0,-1,762,848,0,0
-455,176,0,0,0,0,0,0,0,0,0,-1,769,848,0,0
-448,176,0,0,0,0,0,0,0,0,0,-1,776,848,0,0
-441,176,0,0,0,0,0,0,0,0,0,-1,783,848,0,0
-434,176,0,0,0,0,0,0,0,0,0,-1,790,848,0,0
-427,176,0,0,0,0,0,0,0,0,0,-1,797,848,0,0
-420,176,0,0,0,0,0,0,0,0,0,-1,804,848,0,0
-413,176,0,0,0,0,0,0,0,0,0,-1,811,848,0,0
-406,176,0,0,0,0,0,0,0,0,0,-1,818,848,0,0
-399,176,0,0,0,0,0,0,0,0,0,-1,825,848,0,0
-392,176,0,0,0,0,0,0,0,0,0,-1,832,848,0,0
-385,176,0,0,0,0,0,0,0,0,0,-1,839,848,0,0
-378,176,0,0,0,0,0,0,0,0,0,-1,846,848,0,0
-371,176,0,0,0,0,0,0,0,0,0,-1,853,848,0,0
-364,176,0,0,0,0,0,0,0,0,0,-1,860,848,0,0
-357,176,0,0,0,0,0,0,0,0,0,-1,867,848,0,0
-350,176,0,0,0,0,0,0,0,0,0,-1,874,848,0,0
-343,176,0,0,0,0,0,0,0,0,0,-1,881,848,0,0
-336,176,0,0,0,0,0,0,0,0,0,-1,888,848,0,0
-329,176,0,0,0,0,0,0,0,0,0,-1,895,848,0,0
-322,176,0,0,0,0,0,0,0,0,0,-1,902,848,0,0
-315,176,0,0,0,0,0,0,0,0,0,-1,909,848,0,0
-308,176,0,0,0,0,0,0,0,0,0,-1,916,848,0,0
-301,176,0,0,0,0,0,0,0,0,0,-1,923,848,0,0
-294,176,0,0,0,0,0,0,0,0,0,-1,930,848,0,0
-287,176,0,0,0,0,0,0,0,0,0,-1,937,848,0,0
-280,176,0,0,0,0,0,0,0,0,0,-1,944,848,0,0
-273,176,0,0,0,0,0,0,0,0,0,-1,951,848,0,0
-266,176,0,0,0,0,0,0,0,0,0,-1,958,848,0,0
-259,176,0,0,0,0,0,0,0,0,0,-1,965,848,0,0
-252,176,0,0,0,0,0,0,0,0,0,-1,972,848,0,0
-245,176,0,0,0,0,0,0,0,0,0,-1,979,848,0,0
-238,176,0,0,0,0,0,0,0,0,0,-1,986,848,0,0
-231,176,0,0,0,0,0,0,0,0,0,-1,993,848,0,0
-224,176,0,0,0,0,0,0,0,0,0,-1,1000,848,0,0
-217,176,0,0,0,0,0,0,0,0,0,-1,1007,848,0,0
-210,176,0,0,0,0,0,0,0,0,0,-1,1014,848,0,0
-203,176,0,0,0,0,0,0,0,0,0,-1,1021,848,0,0
-196,176,0,0,0,0,0,0,0,0,0,-1,1028,848,0,0
-189,176,0,0,0,0,0,0,0,0,0,-1,1035,848,0,0
-182,176,0,0,0,0,0,0,0,0,0,-1,1042,848,0,0
-175,176,0,0,0,0,0,0,0,0,0,-1,1049,848,0,0
-168,176,0,0,0,0,0,0,0,0,0,-1,1056,848,0,0
-161,176,0,0,0,0,0,0,0,0,0,-1,1063,848,0,0
-154,176,0,0,0,0,0,0,0,0,0,-1,1070,848,0,0
-147,176,0,0,0,0,0,0,0,0,0,-1,1077,848,0,0
-140,176,0,0,0,0,0,0,0,0,0,-1,1084,848,0,0
-133,176,0,0,0,0,0,0,0,0,0,-1,1091,848,0,0
-126,176,0,0,0,0,0,0,0,0,0,-1,1098,848,0,0
-119,176,0,0,0,0,0,0,0,0,0,-1,1105,848,0,0
-112,176,0,0,0,0,0,0,0,0,0,-1,1112,848,0,0
-105,176,0,0,0,0,0,0,0,0,0,-1,1119,848,0,0
-98,176,0,0,0,0,0,0,0,0,0,-1,1126,848,0,0
-91,176,0,0,0,0,0,0,0,0,0,-1,1133,848,0,0
-84,176,0,0,0,0,0,0,0,0,0,-1,1140,848,0,0
-77,176,0,0,0,0,0,0,0,0,0,-1,1147,848,0,0
-70,176,0,0,0,0,0,0,0,0,0,-1,1154,848,0,0
-63,176,0,0,0,0,0,0,0,0,0,-1,1161,848,0,0
-56,176,0,0,0,0,0,0,0,0,0,-1,1168,848,0,0
-49,176,0,0,0,0,0,0,0,0,0,-1,1175,848,0,0
-42,176,0,0,0,0,0,0,0,0,0,-1,1182,848,0,0
-35,176,0,0,0,0,0,0,0,0,0,-1,1189,848,0,0
-28,176,0,0,0,0,0,0,0,0,0,-1,1196,848,0,0
-21,176,0,0,0,0,0,0,0,0,0,-1,1203,848,0,0
-14,176,0,0,0,0,0,0,0,0,0,-1,1210,848,0,0
-7,176,0,0,0,0,0,0,0,0,0,-1,1217,848,0,0
0,176,0,0,0,0,0,0,0,0,0,-1,1224,848,0,0
7,176,0,0,0,0,0,0,0,0,0,-1,1231,848,0,0
14,176,0,0,0,0,0,0,0,0,0,-1,1238,848,0,0
21,176,0,0,0,0,0,0,0,0,0,-1,1245,848,0,0
28,176,0,0,0,0,0,0,0,0,0,-1,1252,848,0,0
35,176,0,0,0,0,0,0,0,0,0,-1,1259,848,0,0
42,176,0,0,0,0,0,0,0,0,0,-1,1266,848,0,0
49,176,0,0,0,0,0,0,0,0,0,-1,1273,848,0,0
56,176,0,0,0,0,0,0,0,0,0,-1,1280,848,0,0
63,176,0,0,0,0,0,0,0,0,0,-1,1287,848,0,0
70,176,0,0,0,0,0,0,0,0,0,-1,1294,848,0,0
77,176,0,0,0,0,0,0,0,0,0,-1,1301,848,0,0
84,176,0,0,0,0,0,0,0,0,0,-1,1308,848,0,0
91,176,0,0,0,0,0,0,0,0,0,-1,1315,848,0,0
98,176,0,0,0,0,0,0,0,0,0,-1,1322,848,0,0
105,176,0,0,0,0,0,0,0,0,0,-1,1329,848,0,0
112,176,0,0,0,0,0,0,0,0,0,-1,1336,848,0,0
119,176,0,0,0,0,0,0,0,0,0,-1,1343,848,0,0
126,176,0,0,0,0,0,0,0,0,0,-1,1350,848,0,0
133,176,0,0,0,0,0,0,0,0,0,-1,1357,848,0,0
140,176,0,0,0,0,0,0,0,0,0,-1,1364,848,0,0
147,176,0,0,0,0,0,0,0,0,0,-1,1371,848,0,0
154,176,0,0,0,0,0,0,0,0,0,-1,1378,848,0,0
161,176,0,0,0,0,0,0,0,0,0,-1,1385,848,0,0
168,176,0,0,0,0,0,0,0,0,0,-1,1392,848,0,0
175,176,0,0,0,0,0,0,0,0,0,-1,1399,848,0,0
182,176,0,0,0,0,0,0,0,0,0,-1,1406,848,0,0
189,176,0,0,0,0,0,0,0,0,0,-1,1413,848,0,0
196,176,0,0,0,0,0,0,0,0,0,-1,1420,848,0,0
203,176,0,0,0,0,0,0,0,0,0,-1,1427,848,0,0
210,176,0,0,0,0,0,0,0,0,0,-1,1434,848,0,0
217,176,0,0,0,0,0,0,0,0,0,-1,1441,848,0,0
224,176,0,0,0,0,0,0,0,0,0,-1,1448,848,0,0
231,176,0,0,0,0,0,0,0,0,0,-1,1455,848,0,0
238,176,0,0,0,0,0,0,0,0,0,-1,1462,848,0,0
245,176,0,0,0,0,0,0,0,0,0,-1,1469,848,0,0
252,176,0,0,0,0,0,0,0,0,0,-1,1476,848,0,0
259,176,0,0,0,0,0,0,0,0,0,-1,1483,848,0,0
266,176,0,0,0,0,0,0,0,0,0,-1,1490,848,0,0
273,176,0,0,0,0,0,0,0,0,0,-1,1497,848,0,0
280,176,0,0,0,0,0,0,0,0,0,-1,1504,848,0,0
287,176,0,0,0,0,0,0,0,0,0,-1,1511,848,0,0
294,176,0,0,0,0,0,0,0,0,0,-1,1518,848,0,0
301,176,0,0,0,0,0,0,0,0,0,-1,1525,848,0,0
308,176,0,0,0,0,0,0,0,0,0,-1,1532,848,0,0
315,176,0,0,0,0,0,0,0,0,0,-1,1539,848,0,0
322,176,0,0,0,0,0,0,0,0,0,-1,1546,848,0,0
329,176,0,0,0,0,0,0,0,0,0,-1,1553,848,0,0
336,176,0,0,0,0,0,0,0,0,0,-1,1560,848,0,0
343,176,0,0,0,0,0,0,0,0,0,-1,1567,848,0,0
350,176,0,0,0,0,0,0,0,0,0,-1,1574,848,0,0
357,176,0,0,0,0,0,0,0,0,0,-1,1581,848,0,0
364,176,0,0,0,0,0,0,0,0,0,-1,1588,848,0,0
371,176,0,0,0,0,0,0,0,0,0,-1,1595,848,0,0
378,176,0,0,0,0,0,0,0,0,0,-1,1602,848,0,0
385,176,0,0,0,0,0,0,0,0,0,-1,1609,848,0,0
392,176,0,0,0,0,0,0,0,0,0,-1,1616,848,0,0
399,176,0,0,0,0,0,0,0,0,0,-1,1623,848,0,0
406,176,0,0,0,0,0,0,0,0,0,-1,1630,848,0,0
413,176,0,0,0,0,0,0,0,0,0,-1,1637,848,0,0
420,176,0,0,0,0,0,0,0,0,0,-1,1644,848,0,0
427,176,0,0,0,0,0,0,0,0,0,-1,1651,848,0,0
434,176,0,0,0,0,0,0,0,0,0,-1,1658,848,0,0
441,176,0,0,0,0,0,0,0,0,0,-1,1665,848,0,0
448,176,0,0,0,0,0,0,0,0,0,-1,1672,848,0,0
455,176,0,0,0,0,0,0,0,0,0,-1,1679,848,0,0
462,176,0,0,0,0,0,0,0,0,0,-1,1686,848,0,0
469,176,0,0,0,0,0,0,0,0,0,-1,1693,848,0,0
476,176,0,0,0,0,0,0,0,0,0,-1,1700,848,0,0
483,176,0,0,0,0,0,0,0,0,0,-1,1707,848,0,0
490,176,0,0,0,0,0,0,0,0,0,-1,1714,848,0,0
497,176,0,0,0,0,0,0,0,0,0,-1,1721,848,0,0
504,176,0,0,0,0,0,0,0,0,0,-1,1728,848,0,0
511,176,0,0,0,0,0,0,0,0,0,-1,1735,848,0,0
518,176,0,0,0,0,0,0,0,0,0,-1,1742,848,0,0
525,176,0,0,0,0,0,0,0,0,0,-1,1749,848,0,0
532,176,0,0,0,0,0,0,0,0,0,-1,1756,848,0,0
539,176,0,0,0,0,0,0,0,0,0,-1,1763,848,0,0
546,176,0,0,0,0,0,0,0,0,0,-1,1770,848,0,0
553,176,0,0,0,0,0,0,0,0,0,-1,1777,848,0,0
560,176,0,0,0,0,0,0,0,0,0,-1,1784,848,0,0
567,176,0,0,0,0,0,0,0,0,0,-1,1791,848,0,0
574,176,0,0,0,0,0,0,0,0,0,-1,1798,848,0,0
581,176,0,0,0,0,0,0,0,0,0,-1,1805,848,0,0
588,176,0,0,0,0,0,0,0,0,0,-1,1812,848,0,0
595,176,0,0,0,0,0,0,0,0,0,-1,1819,848,0,0
602,176,0,0,0,0,0,0,0,0,0,-1,1826,848,0,0
609,176,235.708,8.89386,0,0,0,0,0,0,0,-1,1833,848,235.708,-8.89383
616,176,235.778,8.67859,0,0,0,0,0,0,0,-1,1840,848,235.778,-8.67861
623,176,236.083,8.82813,0,0,0,0,0,0,0,-1,1847,848,236.082,-8.8281
630,176,236.047,8.76245,0,0,0,0,0,0,0,-1,1854,848,236.047,-8.76244
637,176,236.028,8.65472,0,0,0,0,0,0,0,-1,1861,848,236.028,-8.65474
644,176,235.872,8.68488,0,0,0,0,0,0,0,-1,1868,848,235.872,-8.68485
651,176,235.809,8.86346,0,0,0,0,0,0,0,-1,1875,848,235.809,-8.86344
658,176,235.859,8.78088,0,0,0,0,0,0,0,-1,1882,848,235.859,-8.7809
665,176,54.3333,2.34277,0,0,0,0,0,0,0,-1,1889,848,54.3333,-2.34279
672,176,16.9304,2.80719,0,0,0,0,0,0,0,-1,1896,848,16.9305,-2.80719
679,176,50.9341,0.315979,0,0,0,0,0,0,0,-1,1903,848,50.9341,-0.315984
686,176,166.622,18.533,0,0,0,0,0,0,0,-1,1910,848,166.622,-18.533
693,176,213.71,21.8098,0,0,0,0,0,0,0,-1,1917,848,213.71,-21.8098
700,176,213.55,23.955,0,0,0,0,0,0,0,-1,1924,848,213.55,-23.955
707,176,213.231,25.6948,0.00299913,0.021296,-0.00836109,0.0245412,-0.000246047,-1.20057,0.0164434,0.0460668,1931,848,213.231,-25.6948
714,176,212.961,27.3306,-0.00220073,0.0270263,-0.0116856,0.031124,-0.00629842,-1.23353,0.0231363,0.0248108,1938,848,212.961,-27.3307
721,176,212.841,29.1483,-0.00733503,0.0326556,-0.0150631,0.0376944,-0.0123739,-1.24798,0.0301139,0.0239451,1945,848,212.841,-29.1483
728,176,212.522,30.9045,-0.012326,0.0381097,-0.0185475,0.044196,-0.0184123,-1.25372,0.0371546,0.0299241,1952,848,212.522,-30.9045
735,176,211.942,32.4855,-0.0170237,0.0433798,-0.0221038,0.0506043,-0.0242482,-1.2549,0.0441,0.0261517,1959,848,211.942,-32.4855
742,176,211.458,34.0909,-0.021279,0.0484952,-0.0256732,0.0569235,-0.0297073,-1.25359,0.0508325,0.0273976,1966,848,211.458,-34.0909
749,176,211.18,35.4147,-0.0253227,0.0533992,-0.0290993,0.0629878,-0.0349113,-1.25249,0.0572916,0.0418876,1973,848,211.18,-35.4147
756,176,210.932,36.726,0,0,0,0,0,0,0,-1,1980,848,210.932,-36.726
763,176,115.493,23.4837,0,0,0,0,0,0,0,-1,1987,848,115.493,-23.4837
770,176,36.4186,4.25641,0,0,0,0,0,0,0,-1,1994,848,36.4186,-4.25639
777,176,43.8328,7.50177,0,0,0,0,0,0,0,-1,2001,848,43.8328,-7.50178
784,176,0,0,0,0,0,0,0,0,0,-1,2008,848,0,0
791,176,0,0,0,0,0,0,0,0,0,-1,2015,848,0,0
798,176,0,0,0,0,0,0,0,0,0,-1,2022,848,0,0
805,176,0,0,0,0,0,0,0,0,0,-1,2029,848,0,0
812,176,0,0,0,0,0,0,0,0,0,-1,2036,848,0,0
-700,169,0,0,0,0,0,0,0,0,0,-1,524,855,0,0
-693,169,0,0,0,0,0,0,0,0,0,-1,531,855,0,0
-686,169,0,0,0,0,0,0,0,0,0,-1,538,855,0,0
-679,169,0,0,0,0,0,0,0,0,0,-1,545,855,0,0
-672,169,0,0,0,0,0,0,0,0,0,-1,552,855,0,0
-665,169,-50.4697,8.3269,0,0,0,0,0,0,0,-1,559,855,-50.4697,-8.32688
-658,169,-58.8608,8.22839,0,0,0,0,0,0,0,-1,566,855,-58.8608,-8.2284
-651,169,-134.47,33.6487,0,0,0,0,0,0,0,-1,573,855,-134.47,-33.6487
-644,169,-134.489,32.519,0,0,0,0,0,0,0,-1,580,855,-134.489,-32.5191
-637,169,-139.811,32.4285,0,0,0,0,0,0,0,-1,587,855,-139.811,-32.4285
-630,169,-205.861,39.2898,0,0,0,0,0,0,0,-1,594,855,-205.861,-39.2898
-623,169,-205.874,37.3821,0,0,0,0,0,0,0,-1,601,855,-205.874,-37.3821
-616,169,-205.777,35.6018,-0.0200498,0.0584984,0.0185282,0.0626495,-0.0242009,1.35039,0.0517551,0.0387293,608,855,-205.777,-35.6018
-609,169,-205.881,34.1209,-0.0169217,0.052287,0.0175147,0.056467,-0.0211017,1.33652,0.0463099,0.0220961,615,855,-205.881,-34.1209
-602,169,-206.141,32.4975,-0.0132652,0.0458388,0.0165155,0.0501406,-0.0175671,1.31599,0.040571,0.0182231,622,855,-206.141,-32.4975
-595,169,-206.429,30.8036,-0.009085,0.0392799,0.0154681,0.0438038,-0.0136089,1.28627,0.0346416,0.019902,629,855,-206.429,-30.8036
-588,169,-206.688,29.1331,-0.00437239,0.0326512,0.0143943,0.037589,-0.00931018,1.24034,0.0286711,0.0202586,636,855,-206.688,-29.1331
-581,169,-206.919,27.4419,0.000897269,0.0260015,0.0132959,0.0317343,-0.00483548,1.16371,0.0229385,0.0367056,643,855,-206.919,-27.4419
-574,169,-207.526,25.9472,0,0,0,0,0,0,0,-1,650,855,-207.526,-25.9472
-567,169,-207.74,23.6636,0,0,0,0,0,0,0,-1,657,855,-207.74,-23.6635
-560,169,-208.275,21.8594,0,0,0,0,0,0,0,-1,664,855,-208.275,-21.8594
-553,169,-201.997,20.2534,0,0,0,0,0,0,0,-1,671,855,-201.997,-20.2534
-546,169,-19.0852,-1.05609,0,0,0,0,0,0,0,-1,678,855,-19.0852,1.05612
-539,169,-33.2307,1.10706,0,0,0,0,0,0,0,-1,685,855,-33.2307,-1.10708
-532,169,-71.3272,0.203064,0,0,0,0,0,0,0,-1,692,855,-71.3272,-0.203058
-525,169,-72.7736,0.297241,0,0,0,0,0,0,0,-1,699,855,-72.7736,-0.297265
-518,169,-72.6509,0.381287,0,0,0,0,0,0,0,-1,706,855,-72.6509,-0.38129
-511,169,-72.4978,0.552429,0,0,0,0,0,0,0,-1,713,855,-72.4978,-0.552413
-504,169,-72.7489,0.517273,0,0,0,0,0,0,0,-1,720,855,-72.7489,-0.517272
-497,169,-72.8129,0.525146,0,0,0,0,0,0,0,-1,727,855,-72.8129,-0.525136
-490,169,0,0,0,0,0,0,0,0,0,-1,734,855,0,0
-483,169,0,0,0,0,0,0,0,0,0,-1,741,855,0,0
-476,169,0,0,0,0,0,0,0,0,0,-1,748,855,0,0
-469,169,0,0,0,0,0,0,0,0,0,-1,755,855,0,0
-462,169,0,0,0,0,0,0,0,0,0,-1,762,855,0,0
-455,169,0,0,0,0,0,0,0,0,0,-1,769,855,0,0
-448,169,0,0,0,0,0,0,0,0,0,-1,776,855,0,0
-441,169,0,0,0,0,0,0,0,0,0,-1,783,855,0,0
-434,169,0,0,0,0,0,0,0,0,0,-1,790,855,0,0
-427,169,0,0,0,0,0,0,0,0,0,-1,797,855,0,0
-420,169,0,0,0,0,0,0,0,0,0,-1,804,855,0,0
-413,169,0,0,0,0,0,0,0,0,0,-1,811,855,0,0
-406,169,0,0,0,0,0,0,0,0,0,-1,818,855,0,0
-399,169,0,0,0,0,0,0,0,0,0,-1,825,855,0,0
-392,169,0,0,0,0,0,0,0,0,0,-1,832,855,0,0
-385,169,0,0,0,0,0,0,0,0,0,-1,839,855,0,0
-378,169,0,0,0,0,0,0,0,0,0,-1,846,855,0,0
-371,169,0,0,0,0,0,0,0,0,0,-1,853,855,0,0
-364,169,0,0,0,0,0,0,0,0,0,-1,860,855,0,0
-357,169,0,0,0,0,0,0,0,0,0,-1,867,855,0,0
-350,169,0,0,0,0,0,0,0,0,0,-1,874,855,0,0
-343,169,0,0,0,0,0,0,0,0,0,-1,881,855,0,0
-336,169,0,0,0,0,0,0,0,0,0,-1,888,855,0,0
-329,169,0,0,0,0,0,0,0,0,0,-1,895,855,0,0
-322,169,0,0,0,0,0,0,0,0,0,-1,902,855,0,0
-315,169,0,0,0,0,0,0,0,0,0,-1,909,855,0,0
-308,169,0,0,0,0,0,0,0,0,0,-1,916,855,0,0
-301,169,0,0,0,0,0,0,0,0,0,-1,923,855,0,0
-294,169,0,0,0,0,0,0,0,0,0,-1,930,855,0,0
-287,169,0,0,0,0,0,0,0,0,0,-1,937,855,0,0
-280,169,0,0,0,0,0,0,0,0,0,-1,944,855,0,0
-273,169,0,0,0,0,0,0,0,0,0,-1,951,855,0,0
-266,169,0,0,0,0,0,0,0,0,0,-1,958,855,0,0
-259,169,0,0,0,0,0,0,0,0,0,-1,965,855,0,0
-252,169,0,0,0,0,0,0,0,0,0,-1,972,855,0,0
-245,169,0,0,0,0,0,0,0,0,0,-1,979,855,0,0
-238,169,0,0,0,0,0,0,0,0,0,-1,986,855,0,0
-231,169,0,0,0,0,0,0,0,0,0,-1,993,855,0,0
-224,169,0,0,0,0,0,0,0,0,0,-1,1000,855,0,0
-217,169,0,0,0,0,0,0,0,0,0,-1,1007,855,0,0
-210,169,0,0,0,0,0,0,0,0,0,-1,1014,855,0,0
-203,169,0,0,0,0,0,0,0,0,0,-1,1021,855,0,0
-196,169,0,0,0,0,0,0,0,0,0,-1,1028,855,0,0
-189,169,0,0,0,0,0,0,0,0,0,-1,1035,855,0,0
-182,169,0,0,0,0,0,0,0,0,0,-1,1042,855,0,0
-175,169,0,0,0,0,0,0,0,0,0,-1,1049,855,0,0
-168,169,0,0,0,0,0,0,0,0,0,-1,1056,855,0,0
-161,169,0,0,0,0,0,0,0,0,0,-1,1063,855,0,0
-154,169,0,0,0,0,0,0,0,0,0,-1,1070,855,0,0
-147,169,0,0,0,0,0,0,0,0,0,-1,1077,855,0,0
-140,169,0,0,0,0,0,0,0,0,0,-1,1084,855,0,0
-133,169,0,0,0,0,0,0,0,0,0,-1,1091,855,0,0
-126,169,0,0,0,0,0,0,0,0,0,-1,1098,855,0,0
-119,169,0,0,0,0,0,0,0,0,0,-1,1105,855,0,0
-112,169,0,0,0,0,0,0,0,0,0,-1,1112,855,0,0
-105,169,0,0,0,0,0,0,0,0,0,-1,1119,855,0,0
-98,169,0,0,0,0,0,0,0,0,0,-1,1126,855,0,0
-91,169,0,0,0,0,0,0,0,0,0,-1,1133,855,0,0
-84,169,0,0,0,0,0,0,0,0,0,-1,1140,855,0,0
-77,169,0,0,0,0,0,0,0,0,0,-1,1147,855,0,0
-70,169,0,0,0,0,0,0,0,0,0,-1,1154,855,0,0
-63,169,0,0,0,0,0,0,0,0,0,-1,1161,855,0,0
-56,169,0,0,0,0,0,0,0,0,0,-1,1168,855,0,0
-49,169,0,0,0,0,0,0,0,0,0,-1,1175,855,0,0
-42,169,0,0,0,0,0,0,0,0,0,-1,1182,855,0,0
-35,169,0,0,0,0,0,0,0,0,0,-1,1189,855,0,0
-28,169,0,0,0,0,0,0,0,0,0,-1,1196,855,0,0
-21,169,0,0,0,0,0,0,0,0,0,-1,1203,855,0,0
-14,169,0,0,0,0,0,0,0,0,0,-1,1210,855,0,0
-7,169,0,0,0,0,0,0,0,0,0,-1,1217,855,0,0
0,169,0,0,0,0,0,0,0,0,0,-1,1224,855,0,0
7,169,0,0,0,0,0,0,0,0,0,-1,1231,855,0,0
14,169,0,0,0,0,0,0,0,0,0,-1,1238,855,0,0
21,169,0,0,0,0,0,0,0,0,0,-1,1245,855,0,0
28,169,0,0,0,0,0,0,0,0,0,-1,1252,855,0,0
35,169,0,0,0,0,0,0,0,0,0,-1,1259,855,0,0
42,169,0,0,0,0,0,0,0,0,0,-1,1266,855,0,0
49,169,0,0,0,0,0,0,0,0,0,-1,1273,855,0,0
56,169,0,0,0,0,0,0,0,0,0,-1,1280,855,0,0
63,169,0,0,0,0,0,0,0,0,0,-1,1287,855,0,0
70,169,0,0,0,0,0,0,0,0,0,-1,1294,855,0,0
77,169,0,0,0,0,0,0,0,0,0,-1,1301,855,0,0
84,169,0,0,0,0,0,0,0,0,0,-1,1308,855,0,0
91,169,0,0,0,0,0,0,0,0,0,-1,1315,855,0,0
98,169,0,0,0,0,0,0,0,0,0,-1,1322,855,0,0
105,169,0,0,0,0,0,0,0,0,0,-1,1329,855,0,0
112,169,0,0,0,0,0,0,0,0,0,-1,1336,855,0,0
119,169,0,0,0,0,0,0,0,0,0,-1,1343,855,0,0
126,169,0,0,0,0,0,0,0,0,0,-1,1350,855,0,0
133,169,0,0,0,0,0,0,0,0,0,-1,1357,855,0,0
140,169,0,0,0,0,0,0,0,0,0,-1,1364,855,0,0
147,169,0,0,0,0,0,0,0,0,0,-1,1371,855,0,0
154,169,0,0,0,0,0,0,0,0,0,-1,1378,855,0,0
161,169,0,0,0,0,0,0,0,0,0,-1,1385,855,0,0
168,169,0,0,0,0,0,0,0,0,0,-1,1392,855,0,0
175,169,0,0,0,0,0,0,0,0,0,-1,1399,855,0,0
182,169,0,0,0,0,0,0,0,0,0,-1,1406,855,0,0
189,169,0,0,0,0,0,0,0,0,0,-1,1413,855,0,0
196,169,0,0,0,0,0,0,0,0,0,-1,1420,855,0,0
203,169,0,0,0,0,0,0,0,0,0,-1,1427,855,0,0
210,169,0,0,0,0,0,0,0,0,0,-1,1434,855,0,0
217,169,0,0,0,0,0,0,0,0,0,-1,1441,855,0,0
224,169,0,0,0,0,0,0,0,0,0,-1,1448,855,0,0
231,169,0,0,0,0,0,0,0,0,0,-1,1455,855,0,0
238,169,0,0,0,0,0,0,0,0,0,-1,1462,855,0,0
245,169,0,0,0,0,0,0,0,0,0,-1,1469,855,0,0
252,169,0,0,0,0,0,0,0,0,0,-1,1476,855,0,0
259,169,0,0,0,0,0,0,0,0,0,-1,1483,855,0,0
266,169,0,0,0,0,0,0,0,0,0,-1,1490,855,0,0
273,169,0,0,0,0,0,0,0,0,0,-1,1497,855,0,0
280,169,0,0,0,0,0,0,0,0,0,-1,1504,855,0,0
287,169,0,0,0,0,0,0,0,0,0,-1,1511,855,0,0
294,169,0,0,0,0,0,0,0,0,0,-1,1518,855,0,0
301,169,0,0,0,0,0,0,0,0,0,-1,1525,855,0,0
308,169,0,0,0,0,0,0,0,0,0,-1,1532,855,0,0
315,169,0,0,0,0,0,0,0,0,0,-1,1539,855,0,0
322,169,0,0,0,0,0,0,0,0,0,-1,1546,855,0,0
329,169,0,0,0,0,0,0,0,0,0,-1,1553,855,0,0
336,169,0,0,0,0,0,0,0,0,0,-1,1560,855,0,0
343,169,0,0,0,0,0,0,0,0,0,-1,1567,855,0,0
350,169,0,0,0,0,0,0,0,0,0,-1,1574,855,0,0
357,169,0,0,0,0,0,0,0,0,0,-1,1581,855,0,0
364,169,0,0,0,0,0,0,0,0,0,-1,1588,855,0,0
371,169,0,0,0,0,0,0,0,0,0,-1,1595,855,0,0
378,169,0,0,0,0,0,0,0,0,0,-1,1602,855,0,0
385,169,0,0,0,0,0,0,0,0,0,-1,1609,855,0,0
392,169,0,0,0,0,0,0,0,0,0,-1,1616,855,0,0
399,169,0,0,0,0,0,0,0,0,0,-1,1623,855,0,0
406,169,0,0,0,0,0,0,0,0,0,-1,1630,855,0,0
413,169,0,0,0,0,0,0,0,0,0,-1,1637,855,0,0
420,169,0,0,0,0,0,0,0,0,0,-1,1644,855,0,0
427,169,0,0,0,0,0,0,0,0,0,-1,1651,855,0,0
434,169,0,0,0,0,0,0,0,0,0,-1,1658,855,0,0
441,169,0,0,0,0,0,0,0,0,0,-1,1665,855,0,0
448,169,0,0,0,0,0,0,0,0,0,-1,1672,855,0,0
455,169,0,0,0,0,0,0,0,0,0,-1,1679,855,0,0
462,169,0,0,0,0,0,0,0,0,0,-1,1686,855,0,0
469,169,0,0,0,0,0,0,0,0,0,-1,1693,855,0,0
476,169,0,0,0,0,0,0,0,0,0,-1,1700,855,0,0
483,169,0,0,0,0,0,0,0,0,0,-1,1707,855,0,0
490,169,0,0,0,0,0,0,0,0,0,-1,1714,855,0,0
497,169,0,0,0,0,0,0,0,0,0,-1,1721,855,0,0
504,169,0,0,0,0,0,0,0,0,0,-1,1728,855,0,0
511,169,0,0,0,0,0,0,0,0,0,-1,1735,855,0,0
518,169,0,0,0,0,0,0,0,0,0,-1,1742,855,0,0
525,169,0,0,0,0,0,0,0,0,0,-1,1749,855,0,0
532,169,0,0,0,0,0,0,0,0,0,-1,1756,855,0,0
539,169,0,0,0,0,0,0,0,0,0,-1,1763,855,0,0
546,169,0,0,0,0,0,0,0,0,0,-1,1770,855,0,0
553,169,0,0,0,0,0,0,0,0,0,-1,1777,855,0,0
560,169,0,0,0,0,0,0,0,0,0,-1,1784,855,0,0
567,169,0,0,0,0,0,0,0,0,0,-1,1791,855,0,0
574,169,0,0,0,0,0,0,0,0,0,-1,1798,855,0,0
581,169,0,0,0,0,0,0,0,0,0,-1,1805,855,0,0
588,169,0,0,0,0,0,0,0,0,0,-1,1812,855,0,0
595,169,0,0,0,0,0,0,0,0,0,-1,1819,855,0,0
602,169,0,0,0,0,0,0,0,0,0,-1,1826,855,0,0
609,169,0,0,0,0,0,0,0,0,0,-1,1833,855,0,0
616,169,235.671,8.91772,0,0,0,0,0,0,0,-1,1840,855,235.671,-8.91772
623,169,235.735,8.96362,0,0,0,0,0,0,0,-1,1847,855,235.735,-8.9636
630,169,235.952,8.80011,0,0,0,0,0,0,0,-1,1854,855,235.952,-8.80012
637,169,235.952,8.72321,0,0,0,0,0,0,0,-1,1861,855,235.952,-8.7232
644,169,235.861,8.71808,0,0,0,0,0,0,0,-1,1868,855,235.861,-8.71807
651,169,235.844,8.83881,0,0,0,0,0,0,0,-1,1875,855,235.844,-8.83879
658,169,235.859,8.85089,0,0,0,0,0,0,0,-1,1882,855,235.859,-8.85086
665,169,74.1068,1.9809,0,0,0,0,0,0,0,-1,1889,855,74.1069,-1.98093
672,169,31.2465,2.96387,0,0,0,0,0,0,0,-1,1896,855,31.2464,-2.9639
679,169,38.4297,1.08197,0,0,0,0,0,0,0,-1,1903,855,38.4296,-1.08194
686,169,170.483,18.8353,0,0,0,0,0,0,0,-1,1910,855,170.483,-18.8353
693,169,212.115,21.7001,0,0,0,0,0,0,0,-1,1917,855,212.115,-21.7001
700,169,212.151,23.8943,0,0,0,0,0,0,0,-1,1924,855,212.151,-23.8943
707,169,214.828,25.6285,0,0,0,0,0,0,0,-1,1931,855,214.828,-25.6285
714,169,214.729,27.3906,-0.00157273,0.0244563,-0.0102198,0.0279894,-0.00510576,-1.23795,0.0205738,0.0344599,1938,855,214.729,-27.3906
721,169,214.619,29.136,-0.00671692,0.0301749,-0.0134191,0.0345396,-0.0110816,-1.25633,0.0274755,0.0309599,1945,855,214.619,-29.136
728,169,214.31,30.7655,-0.0116723,0.0357002,-0.016687,0.040988,-0.0169601,-1.26393,0.0344017,0.0254021,1952,855,214.31,-30.7655
735,169,213.821,32.368,-0.0162628,0.0410447,-0.0199818,0.0473239,-0.0225419,-1.26632,0.0411742,0.0320622,1959,855,213.821,-32.368
742,169,213.422,33.895,-0.0203223,0.0462436,-0.0232438,0.0535565,-0.0276353,-1.26598,0.0476658,0.0271798,1966,855,213.422,-33.895
749,169,213.135,35.2795,0,0,0,0,0,0,0,-1,1973,855,213.136,-35.2795
756,169,212.427,35.6575,0,0,0,0,0,0,0,-1,1980,855,212.427,-35.6575
763,169,61.2976,7.40009,0,0,0,0,0,0,0,-1,1987,855,61.2975,-7.40007
770,169,37.2059,3.97021,0,0,0,0,0,0,0,-1,1994,855,37.2059,-3.97022
777,169,41.7505,8.7085,0,0,0,0,0,0,0,-1,2001,855,41.7505,-8.70852
784,169,40.7385,9.24359,0,0,0,0,0,0,0,-1,2008,855,40.7384,-9.24361
791,169,0,0,0,0,0,0,0,0,0,-1,2015,855,0,0
798,169,0,0,0,0,0,0,0,0,0,-1,2022,855,0,0
805,169,0,0,0,0,0,0,0,0,0,-1,2029,855,0,0
812,169,0,0,0,0,0,0,0,0,0,-1,2036,855,0,0
-700,162,0,0,0,0,0,0,0,0,0,-1,524,862,0,0
-693,162,0,0,0,0,0,0,0,0,0,-1,531,862,0,0
-686,162,0,0,0,0,0,0,0,0,0,-1,538,862,0,0
-679,162,0,0,0,0,0,0,0,0,0,-1,545,862,0,0
-672,162,0,0,0,0,0,0,0,0,0,-1,552,862,0,0
-665,162,-50.6751,7.18884,0,0,0,0,0,0,0,-1,559,862,-50.6751,-7.18885
-658,162,-50.7888,6.02673,0,0,0,0,0,0,0,-1,566,862,-50.7888,-6.02673
-651,162,-132.896,33.8102,0,0,0,0,0,0,0,-1,573,862,-132.896,-33.8102
-644,162,-140.793,32.8753,0,0,0,0,0,0,0,-1,580,862,-140.793,-32.8753
-637,162,-150.535,35.4913,0,0,0,0,0,0,0,-1,587,862,-150.535,-35.4913
-630,162,-207.754,38.2187,0,0,0,0,0,0,0,-1,594,862,-207.754,-38.2187
-623,162,-207.851,36.5383,0,0,0,0,0,0,0,-1,601,862,-207.851,-36.5383
-616,162,-207.593,35.4553,-0.017877,0.0559362,0.0172237,0.0597573,-0.0216982,1.35248,0.0487094,0.0349493,608,862,-207.593,-35.4553
-609,162,-207.833,33.9904,-0.0152205,0.0497307,0.016363,0.05362,-0.0191099,1.33743,0.0435378,0.0222609,615,862,-207.833,-33.9904
-602,162,-208.079,32.4458,-0.0119896,0.0433601,0.0155298,0.0474197,-0.0160492,1.31511,0.0381065,0.0185336,622,862,-208.079,-32.4458
-595,162,-208.316,30.8583,-0.00813949,0.03685,0.014722,0.0412393,-0.0125288,1.28104,0.0324848,0.0216378,629,862,-208.316,-30.8584
-588,162,-208.516,29.2175,-0.00361729,0.0302301,0.0139412,0.0352328,-0.00862003,1.22626,0.0268276,0.02882,636,862,-208.516,-29.2175
-581,162,-208.624,27.4625,0,0,0,0,0,0,0,-1,643,862,-208.624,-27.4625
-574,162,-209.221,25.5748,0,0,0,0,0,0,0,-1,650,862,-209.221,-25.5748
-567,162,-210.426,23.5419,0,0,0,0,0,0,0,-1,657,862,-210.426,-23.5418
-560,162,-204.476,21.896,0,0,0,0,0,0,0,-1,664,862,-204.476,-21.896
-553,162,-205.086,20.0856,0,0,0,0,0,0,0,-1,671,862,-205.086,-20.0856
-546,162,-22.8181,-1.51154,0,0,0,0,0,0,0,-1,678,862,-22.8181,1.51155
-539,162,-53.0229,0.9328,0,0,0,0,0,0,0,-1,685,862,-53.0229,-0.932798
-532,162,-72.6682,0.448364,0,0,0,0,0,0,0,-1,692,862,-72.6681,-0.44835
-525,162,-72.7237,0.432861,0,0,0,0,0,0,0,-1,699,862,-72.7237,-0.432833
-518,162,-72.6802,0.400024,0,0,0,0,0,0,0,-1,706,862,-72.6803,-0.400041
-511,162,-72.5015,0.546997,0,0,0,0,0,0,0,-1,713,862,-72.5015,-0.54698
-504,162,-72.6396,0.532898,0,0,0,0,0,0,0,-1,720,862,-72.6396,-0.532875
-497,162,-72.7673,0.427124,0,0,0,0,0,0,0,-1,727,862,-72.7673,-0.427125
-490,162,0,0,0,0,0,0,0,0,0,-1,734,862,0,0
-483,162,0,0,0,0,0,0,0,0,0,-1,741,862,0,0
-476,162,0,0,0,0,0,0,0,0,0,-1,748,862,0,0
-469,162,0,0,0,0,0,0,0,0,0,-1,755,862,0,0
-462,162,0,0,0,0,0,0,0,0,0,-1,762,862,0,0
-455,162,0,0,0,0,0,0,0,0,0,-1,769,862,0,0
-448,162,0,0,0,0,0,0,0,0,0,-1,776,862,0,0
-441,162,0,0,0,0,0,0,0,0,0,-1,783,862,0,0
-434,162,0,0,0,0,0,0,0,0,0,-1,790,862,0,0
-427,162,0,0,0,0,0,0,0,0,0,-1,797,862,0,0
-420,162,0,0,0,0,0,0,0,0,0,-1,804,862,0,0
-413,162,0,0,0,0,0,0,0,0,0,-1,811,862,0,0
-406,162,0,0,0,0,0,0,0,0,0,-1,818,862,0,0
-399,162,0,0,0,0,0,0,0,0,0,-1,825,862,0,0
-392,162,0,0,0,0,0,0,0,0,0,-1,832,862,0,0
-385,162,0,0,0,0,0,0,0,0,0,-1,839,862,0,0
-378,162,0,0,0,0,0,0,0,0,0,-1,846,862,0,0
-371,162,0,0,0,0,0,0,0,0,0,-1,853,862,0,0
-364,162,0,0,0,0,0,0,0,0,0,-1,860,862,0,0
-357,162,0,0,0,0,0,0,0,0,0,-1,867,862,0,0
-350,162,0,0,0,0,0,0,0,0,0,-1,874,862,0,0
-343,162,0,0,0,0,0,0,0,0,0,-1,881,862,0,0
-336,162,0,0,0,0,0,0,0,0,0,-1,888,862,0,0
-329,162,0,0,0,0,0,0,0,0,0,-1,895,862,0,0
-322,162,0,0,0,0,0,0,0,0,0,-1,902,862,0,0
-315,162,0,0,0,0,0,0,0,0,0,-1,909,862,0,0
-308,162,0,0,0,0,0,0,0,0,0,-1,916,862,0,0
-301,162,0,0,0,0,0,0,0,0,0,-1,923,862,0,0
-294,162,0,0,0,0,0,0,0,0,0,-1,930,862,0,0
-287,162,0,0,0,0,0,0,0,0,0,-1,937,862,0,0
-280,162,0,0,0,0,0,0,0,0,0,-1,944,862,0,0
-273,162,0,0,0,0,0,0,0,0,0,-1,951,862,0,0
-266,162,0,0,0,0,0,0,0,0,0,-1,958,862,0,0
-259,162,0,0,0,0,0,0,0,0,0,-1,965,862,0,0
-252,162,0,0,0,0,0,0,0,0,0,-1,972,862,0,0
-245,162,0,0,0,0,0,0,0,0,0,-1,979,862,0,0
-238,162,0,0,0,0,0,0,0,0,0,-1,986,862,0,0
-231,162,0,0,0,0,0,0,0,0,0,-1,993,862,0,0
-224,162,0,0,0,0,0,0,0,0,0,-1,1000,862,0,0
-217,162,0,0,0,0,0,0,0,0,0,-1,1007,862,0,0
-210,162,0,0,0,0,0,0,0,0,0,-1,1014,862,0,0
-203,162,0,0,0,0,0,0,0,0,0,-1,1021,862,0,0
-196,162,0,0,0,0,0,0,0,0,0,-1,1028,862,0,0
-189,162,0,0,0,0,0,0,0,0,0,-1,1035,862,0,0
-182,162,0,0,0,0,0,0,0,0,0,-1,1042,862,0,0
-175,162,0,0,0,0,0,0,0,0,0,-1,1049,862,0,0
-168,162,0,0,0,0,0,0,0,0,0,-1,1056,862,0,0
-161,162,0,0,0,0,0,0,0,0,0,-1,1063,862,0,0
-154,162,0,0,0,0,0,0,0,0,0,-1,1070,862,0,0
-147,162,0,0,0,0,0,0,0,0,0,-1,1077,862,0,0
-140,162,0,0,0,0,0,0,0,0,0,-1,1084,862,0,0
-133,162,0,0,0,0,0,0,0,0,0,-1,1091,862,0,0
-126,162,0,0,0,0,0,0,0,0,0,-1,1098,862,0,0
-119,162,0,0,0,0,0,0,0,0,0,-1,1105,862,0,0
-112,162,0,0,0,0,0,0,0,0,0,-1,1112,862,0,0
-105,162,0,0,0,0,0,0,0,0,0,-1,1119,862,0,0
-98,162,0,0,0,0,0,0,0,0,0,-1,1126,862,0,0
-91,162,0,0,0,0,0,0,0,0,0,-1,1133,862,0,0
-84,162,0,0,0,0,0,0,0,0,0,-1,1140,862,0,0
-77,162,0,0,0,0,0,0,0,0,0,-1,1147,862,0,0
-70,162,0,0,0,0,0,0,0,0,0,-1,1154,862,0,0
-63,162,0,0,0,0,0,0,0,0,0,-1,1161,862,0,0
-56,162,0,0,0,0,0,0,0,0,0,-1,1168,862,0,0
-49,162,0,0,0,0,0,0,0,0,0,-1,1175,862,0,0
-42,162,0,0,0,0,0,0,0,0,0,-1,1182,862,0,0
-35,162,0,0,0,0,0,0,0,0,0,-1,1189,862,0,0
-28,162,0,0,0,0,0,0,0,0,0,-1,1196,862,0,0
-21,162,0,0,0,0,0,0,0,0,0,-1,1203,862,0,0
-14,162,0,0,0,0,0,0,0,0,0,-1,1210,862,0,0
-7,162,0,0,0,0,0,0,0,0,0,-1,1217,862,0,0
0,162,0,0,0,0,0,0,0,0,0,-1,1224,862,0,0
7,162,0,0,0,0,0,0,0,0,0,-1,1231,862,0,0
14,162,0,0,0,0,0,0,0,0,0,-1,1238,862,0,0
21,162,0,0,0,0,0,0,0,0,0,-1,1245,862,0,0
28,162,0,0,0,0,0,0,0,0,0,-1,1252,862,0,0
35,162,0,0,0,0,0,0,0,0,0,-1,1259,862,0,0
42,162,0,0,0,0,0,0,0,0,0,-1,1266,862,0,0
49,162,0,0,0,0,0,0,0,0,0,-1,1273,862,0,0
56,162,0,0,0,0,0,0,0,0,0,-1,1280,862,0,0
63,162,0,0,0,0,0,0,0,0,0,-1,1287,862,0,0
70,162,0,0,0,0,0,0,0,0,0,-1,1294,862,0,0
77,162,0,0,0,0,0,0,0,0,0,-1,1301,862,0,0
84,162,0,0,0,0,0,0,0,0,0,-1,1308,862,0,0
91,162,0,0,0,0,0,0,0,0,0,-1,1315,862,0,0
98,162,0,0,0,0,0,0,0,0,0,-1,1322,862,0,0
105,162,0,0,0,0,0,0,0,0,0,-1,1329,862,0,0
112,162,0,0,0,0,0,0,0,0,0,-1,1336,862,0,0
119,162,0,0,0,0,0,0,0,0,0,-1,1343,862,0,0
126,162,0,0,0,0,0,0,0,0,0,-1,1350,862,0,0
133,162,0,0,0,0,0,0,0,0,0,-1,1357,862,0,0
140,162,0,0,0,0,0,0,0,0,0,-1,1364,862,0,0
147,162,0,0,0,0,0,0,0,0,0,-1,1371,862,0,0
154,162,0,0,0,0,0,0,0,0,0,-1,1378,862,0,0
161,162,0,0,0,0,0,0,0,0,0,-1,1385,862,0,0
168,162,0,0,0,0,0,0,0,0,0,-1,1392,862,0,0
175,162,0,0,0,0,0,0,0,0,0,-1,1399,862,0,0
182,162,0,0,0,0,0,0,0,0,0,-1,1406,862,0,0
189,162,0,0,0,0,0,0,0,0,0,-1,1413,862,0,0
196,162,0,0,0,0,0,0,0,0,0,-1,1420,862,0,0
203,162,0,0,0,0,0,0,0,0,0,-1,1427,862,0,0
210,162,0,0,0,0,0,0,0,0,0,-1,1434,862,0,0
217,162,0,0,0,0,0,0,0,0,0,-1,1441,862,0,0
224,162,0,0,0,0,0,0,0,0,0,-1,1448,862,0,0
231,162,0,0,0,0,0,0,0,0,0,-1,1455,862,0,0
238,162,0,0,0,0,0,0,0,0,0,-1,1462,862,0,0
245,162,0,0,0,0,0,0,0,0,0,-1,1469,862,0,0
252,162,0,0,0,0,0,0,0,0,0,-1,1476,862,0,0
259,162,0,0,0,0,0,0,0,0,0,-1,1483,862,0,0
266,162,0,0,0,0,0,0,0,0,0,-1,1490,862,0,0
273,162,0,0,0,0,0,0,0,0,0,-1,1497,862,0,0
280,162,0,0,0,0,0,0,0,0,0,-1,1504,862,0,0
287,162,0,0,0,0,0,0,0,0,0,-1,1511,862,0,0
294,162,0,0,0,0,0,0,0,0,0,-1,1518,862,0,0
301,162,0,0,0,0,0,0,0,0,0,-1,1525,862,0,0
308,162,0,0,0,0,0,0,0,0,0,-1,1532,862,0,0
315,162,0,0,0,0,0,0,0,0,0,-1,1539,862,0,0
322,162,0,0,0,0,0,0,0,0,0,-1,1546,862,0,0
329,162,0,0,0,0,0,0,0,0,0,-1,1553,862,0,0
336,162,0,0,0,0,0,0,0,0,0,-1,1560,862,0,0
343,162,0,0,0,0,0,0,0,0,0,-1,1567,862,0,0
350,162,0,0,0,0,0,0,0,0,0,-1,1574,862,0,0
357,162,0,0,0,0,0,0,0,0,0,-1,1581,862,0,0
364,162,0,0,0,0,0,0,0,0,0,-1,1588,862,0,0
371,162,0,0,0,0,0,0,0,0,0,-1,1595,862,0,0
378,162,0,0,0,0,0,0,0,0,0,-1,1602,862,0,0
385,162,0,0,0,0,0,0,0,0,0,-1,1609,862,0,0
392,162,0,0,0,0,0,0,0,0,0,-1,1616,862,0,0
399,162,0,0,0,0,0,0,0,0,0,-1,1623,862,0,0
406,162,0,0,0,0,0,0,0,0,0,-1,1630,862,0,0
413,162,0,0,0,0,0,0,0,0,0,-1,1637,862,0,0
420,162,0,0,0,0,0,0,0,0,0,-1,1644,862,0,0
427,162,0,0,0,0,0,0,0,0,0,-1,1651,862,0,0
434,162,0,0,0,0,0,0,0,0,0,-1,1658,862,0,0
441,162,0,0,0,0,0,0,0,0,0,-1,1665,862,0,0
448,162,0,0,0,0,0,0,0,0,0,-1,1672,862,0,0
455,162,0,0,0,0,0,0,0,0,0,-1,1679,862,0,0
462,162,0,0,0,0,0,0,0,0,0,-1,1686,862,0,0
469,162,0,0,0,0,0,0,0,0,0,-1,1693,862,0,0
476,162,0,0,0,0,0,0,0,0,0,-1,1700,862,0,0
483,162,0,0,0,0,0,0,0,0,0,-1,1707,862,0,0
490,162,0,0,0,0,0,0,0,0,0,-1,1714,862,0,0
497,162,0,0,0,0,0,0,0,0,0,-1,1721,862,0,0
504,162,0,0,0,0,0,0,0,0,0,-1,1728,862,0,0
511,162,0,0,0,0,0,0,0,0,0,-1,1735,862,0,0
518,162,0,0,0,0,0,0,0,0,0,-1,1742,862,0,0
525,162,0,0,0,0,0,0,0,0,0,-1,1749,862,0,0
532,162,0,0,0,0,0,0,0,0,0,-1,1756,862,0,0
539,162,0,0,0,0,0,0,0,0,0,-1,1763,862,0,0
546,162,0,0,0,0,0,0,0,0,0,-1,1770,862,0,0
553,162,0,0,0,0,0,0,0,0,0,-1,1777,862,0,0
560,162,0,0,0,0,0,0,0,0,0,-1,1784,862,0,0
567,162,0,0,0,0,0,0,0,0,0,-1,1791,862,0,0
574,162,0,0,0,0,0,0,0,0,0,-1,1798,862,0,0
581,162,0,0,0,0,0,0,0,0,0,-1,1805,862,0,0
588,162,0,0,0,0,0,0,0,0,0,-1,1812,862,0,0
595,162,0,0,0,0,0,0,0,0,0,-1,1819,862,0,0
602,162,0,0,0,0,0,0,0,0,0,-1,1826,862,0,0
609,162,0,0,0,0,0,0,0,0,0,-1,1833,862,0,0
616,162,235.767,8.75427,0,0,0,0,0,0,0,-1,1840,862,235.767,-8.75427
623,162,235.818,8.80981,0,0,0,0,0,0,0,-1,1847,862,235.818,-8.80983
630,162,235.925,8.66284,0,0,0,0,0,0,0,-1,1854,862,235.925,-8.66287
637,162,235.865,8.72101,0,0,0,0,0,0,0,-1,1861,862,235.864,-8.72103
644,162,235.882,8.71051,0,0,0,0,0,0,0,-1,1868,862,235.882,-8.71051
651,162,235.935,8.72357,0,0,0,0,0,0,0,-1,1875,862,235.935,-8.72355
658,162,235.95,8.66858,0,0,0,0,0,0,0,-1,1882,862,235.95,-8.66856
665,162,235.919,8.49799,0,0,0,0,0,0,0,-1,1889,862,235.919,-8.498
672,162,56.9712,3.04034,0,0,0,0,0,0,0,-1,1896,862,56.9711,-3.04034
679,162,26.5077,2.54785,0,0,0,0,0,0,0,-1,1903,862,26.5077,-2.54787
686,162,69.0739,-0.282166,0,0,0,0,0,0,0,-1,1910,862,69.0738,0.28219
693,162,172.14,20.9952,0,0,0,0,0,0,0,-1,1917,862,172.14,-20.9951
700,162,216.136,24.9159,0,0,0,0,0,0,0,-1,1924,862,216.136,-24.9159
707,162,216.692,25.6056,0,0,0,0,0,0,0,-1,1931,862,216.692,-25.6056
714,162,216.519,27.3242,0,0,0,0,0,0,0,-1,1938,862,216.519,-27.3242
721,162,216.162,29.2574,0,0,0,0,0,0,0,-1,1945,862,216.162,-29.2574
728,162,215.917,30.7913,-0.0111952,0.0334825,-0.0149358,0.0380155,-0.0157283,-1.27613,0.031906,0.0398606,1952,862,215.917,-30.7913
735,162,215.724,32.3046,-0.0155259,0.0387434,-0.0179524,0.0441445,-0.020927,-1.27855,0.0383579,0.0194899,1959,862,215.724,-32.3046
742,162,215.368,33.7495,-0.0192666,0.0439163,-0.0208928,0.0502,-0.0255504,-1.27864,0.0444996,0.0260572,1966,862,215.368,-33.7495
749,162,214.92,34.9849,-0.0224305,0.0490358,-0.0236218,0.0561378,-0.0295325,-1.27874,0.0502505,0.0461108,1973,862,214.92,-34.9848
756,162,214.376,36.018,0,0,0,0,0,0,0,-1,1980,862,214.376,-36.018
763,162,87.7278,14.9944,0,0,0,0,0,0,0,-1,1987,862,87.7277,-14.9944
770,162,54.8257,9.36987,0,0,0,0,0,0,0,-1,1994,862,54.8256,-9.36988
777,162,66.324,10.5801,0,0,0,0,0,0,0,-1,2001,862,66.3239,-10.5802
784,162,55.6492,10.6049,0,0,0,0,0,0,0,-1,2008,862,55.6491,-10.6049
791,162,0,0,0,0,0,0,0,0,0,-1,2015,862,0,0
798,162,0,0,0,0,0,0,0,0,0,-1,2022,862,0,0
805,162,0,0,0,0,0,0,0,0,0,-1,2029,862,0,0
812,162,0,0,0,0,0,0,0,0,0,-1,2036,862,0,0
-700,155,0,0,0,0,0,0,0,0,0,-1,524,869,0,0
-693,155,0,0,0,0,0,0,0,0,0,-1,531,869,0,0
-686,155,0,0,0,0,0,0,0,0,0,-1,538,869,0,0
-679,155,0,0,0,0,0,0,0,0,0,-1,545,869,0,0
-672,155,0,0,0,0,0,0,0,0,0,-1,552,869,0,0
-665,155,-50.9639,6.01917,0,0,0,0,0,0,0,-1,559,869,-50.9639,-6.01917
-658,155,-51.2028,4.90723,0,0,0,0,0,0,0,-1,566,869,-51.2028,-4.90722
-651,155,-51.22,3.81226,0,0,0,0,0,0,0,-1,573,869,-51.2201,-3.81228
-644,155,-134.493,32.0388,0,0,0,0,0,0,0,-1,580,869,-134.493,-32.0388
-637,155,-142.264,31.7313,0,0,0,0,0,0,0,-1,587,869,-142.264,-31.7313
-630,155,-209.183,38.5607,0,0,0,0,0,0,0,-1,594,869,-209.183,-38.5607
-623,155,-209.19,36.9548,0,0,0,0,0,0,0,-1,601,869,-209.19,-36.9548
-616,155,-209.393,35.4114,-0.0154767,0.0533558,0.0162305,0.0569909,-0.0191118,1.35046,0.0457161,0.0318878,608,869,-209.393,-35.4114
-609,155,-209.673,33.8449,-0.0134542,0.0471963,0.0154116,0.0508878,-0.0171457,1.3357,0.0408578,0.0246197,615,869,-209.673,-33.8449
-602,155,-209.919,32.3601,-0.0109387,0.0408972,0.0146598,0.0447559,-0.0147975,1.31342,0.035804,0.0206096,622,869,-209.919,-32.3601
-595,155,-210.136,30.8213,-0.00786077,0.0344781,0.0139702,0.0386722,-0.0120549,1.27914,0.0306018,0.0197548,629,869,-210.136,-30.8213
-588,155,-210.252,29.34,-0.00413889,0.0279638,0.0133409,0.0327841,-0.00895917,1.22408,0.0253752,0.035307,636,869,-210.252,-29.34
-581,155,-210.083,27.788,0,0,0,0,0,0,0,-1,643,869,-210.083,-27.788
-574,155,-50.6295,2.30585,0,0,0,0,0,0,0,-1,650,869,-50.6295,-2.30585
-567,155,-38.0134,0.582214,0,0,0,0,0,0,0,-1,657,869,-38.0134,-0.582192
-560,155,-207.328,21.4937,0,0,0,0,0,0,0,-1,664,869,-207.328,-21.4936
-553,155,-36.7729,-1.71521,0,0,0,0,0,0,0,-1,671,869,-36.7729,1.71523
-546,155,-22.7988,0.873657,0,0,0,0,0,0,0,-1,678,869,-22.7988,-0.873645
-539,155,-72.6761,0.243042,0,0,0,0,0,0,0,-1,685,869,-72.6761,-0.243061
-532,155,-72.5966,0.578491,0,0,0,0,0,0,0,-1,692,869,-72.5965,-0.578462
-525,155,-72.6186,0.610901,0,0,0,0,0,0,0,-1,699,869,-72.6186,-0.61091
-518,155,-72.5714,0.588013,0,0,0,0,0,0,0,-1,706,869,-72.5714,-0.588003
-511,155,-72.443,0.543091,0,0,0,0,0,0,0,-1,713,869,-72.443,-0.543098
-504,155,-72.4114,0.27301,0,0,0,0,0,0,0,-1,720,869,-72.4115,-0.27298
-497,155,0,0,0,0,0,0,0,0,0,-1,727,869,0,0
-490,155,0,0,0,0,0,0,0,0,0,-1,734,869,0,0
-483,155,0,0,0,0,0,0,0,0,0,-1,741,869,0,0
-476,155,0,0,0,0,0,0,0,0,0,-1,748,869,0,0
-469,155,0,0,0,0,0,0,0,0,0,-1,755,869,0,0
-462,155,0,0,0,0,0,0,0,0,0,-1,762,869,0,0
-455,155,0,0,0,0,0,0,0,0,0,-1,769,869,0,0
-448,155,0,0,0,0,0,0,0,0,0,-1,776,869,0,0
-441,155,0,0,0,0,0,0,0,0,0,-1,783,869,0,0
-434,155,0,0,0,0,0,0,0,0,0,-1,790,869,0,0
-427,155,0,0,0,0,0,0,0,0,0,-1,797,869,0,0
-420,155,0,0,0,0,0,0,0,0,0,-1,804,869,0,0
-413,155,0,0,0,0,0,0,0,0,0,-1,811,869,0,0
-406,155,0,0,0,0,0,0,0,0,0,-1,818,869,0,0
-399,155,0,0,0,0,0,0,0,0,0,-1,825,869,0,0
-392,155,0,0,0,0,0,0,0,0,0,-1,832,869,0,0
-385,155,0,0,0,0,0,0,0,0,0,-1,839,869,0,0
-378,155,0,0,0,0,0,0,0,0,0,-1,846,869,0,0
-371,155,0,0,0,0,0,0,0,0,0,-1,853,869,0,0
-364,155,0,0,0,0,0,0,0,0,0,-1,860,869,0,0
-357,155,0,0,0,0,0,0,0,0,0,-1,867,869,0,0
-350,155,0,0,0,0,0,0,0,0,0,-1,874,869,0,0
-343,155,0,0,0,0,0,0,0,0,0,-1,881,869,0,0
-336,155,0,0,0,0,0,0,0,0,0,-1,888,869,0,0
-329,155,0,0,0,0,0,0,0,0,0,-1,895,869,0,0
-322,155,0,0,0,0,0,0,0,0,0,-1,902,869,0,0
-315,155,0,0,0,0,0,0,0,0,0,-1,909,869,0,0
-308,155,0,0,0,0,0,0,0,0,0,-1,916,869,0,0
-301,155,0,0,0,0,0,0,0,0,0,-1,923,869,0,0
-294,155,0,0,0,0,0,0,0,0,0,-1,930,869,0,0
-287,155,0,0,0,0,0,0,0,0,0,-1,937,869,0,0
-280,155,0,0,0,0,0,0,0,0,0,-1,944,869,0,0
-273,155,0,0,0,0,0,0,0,0,0,-1,951,869,0,0
-266,155,0,0,0,0,0,0,0,0,0,-1,958,869,0,0
-259,155,0,0,0,0,0,0,0,0,0,-1,965,869,0,0
-252,155,0,0,0,0,0,0,0,0,0,-1,972,869,0,0
-245,155,0,0,0,0,0,0,0,0,0,-1,979,869,0,0
-238,155,0,0,0,0,0,0,0,0,0,-1,986,869,0,0
-231,155,0,0,0,0,0,0,0,0,0,-1,993,869,0,0
-224,155,0,0,0,0,0,0,0,0,0,-1,1000,869,0,0
-217,155,0,0,0,0,0,0,0,0,0,-1,1007,869,0,0
-210,155,0,0,0,0,0,0,0,0,0,-1,1014,869,0,0
-203,155,0,0,0,0,0,0,0,0,0,-1,1021,869,0,0
-196,155,0,0,0,0,0,0,0,0,0,-1,1028,869,0,0
-189,155,0,0,0,0,0,0,0,0,0,-1,1035,869,0,0
-182,155,0,0,0,0,0,0,0,0,0,-1,1042,869,0,0
-175,155,0,0,0,0,0,0,0,0,0,-1,1049,869,0,0
-168,155,0,0,0,0,0,0,0,0,0,-1,1056,869,0,0
-161,155,0,0,0,0,0,0,0,0,0,-1,1063,869,0,0
-154,155,0,0,0,0,0,0,0,0,0,-1,1070,869,0,0
-147,155,0,0,0,0,0,0,0,0,0,-1,1077,869,0,0
-140,155,0,0,0,0,0,0,0,0,0,-1,1084,869,0,0
-133,155,0,0,0,0,0,0,0,0,0,-1,1091,869,0,0
-126,155,0,0,0,0,0,0,0,0,0,-1,1098,869,0,0
-119,155,0,0,0,0,0,0,0,0,0,-1,1105,869,0,0
-112,155,0,0,0,0,0,0,0,0,0,-1,1112,869,0,0
-105,155,0,0,0,0,0,0,0,0,0,-1,1119,869,0,0
-98,155,0,0,0,0,0,0,0,0,0,-1,1126,869,0,0
-91,155,0,0,0,0,0,0,0,0,0,-1,1133,869,0,0
-84,155,0,0,0,0,0,0,0,0,0,-1,1140,869,0,0
-77,155,0,0,0,0,0,0,0,0,0,-1,1147,869,0,0
-70,155,0,0,0,0,0,0,0,0,0,-1,1154,869,0,0
-63,155,0,0,0,0,0,0,0,0,0,-1,1161,869,0,0
-56,155,0,0,0,0,0,0,0,0,0,-1,1168,869,0,0
-49,155,0,0,0,0,0,0,0,0,0,-1,1175,869,0,0
-42,155,0,0,0,0,0,0,0,0,0,-1,1182,869,0,0
-35,155,0,0,0,0,0,0,0,0,0,-1,1189,869,0,0
-28,155,0,0,0,0,0,0,0,0,0,-1,1196,869,0,0
-21,155,0,0,0,0,0,0,0,0,0,-1,1203,869,0,0
-14,155,0,0,0,0,0,0,0,0,0,-1,1210,869,0,0
-7,155,0,0,0,0,0,0,0,0,0,-1,1217,869,0,0
0,155,0,0,0,0,0,0,0,0,0,-1,1224,869,0,0
7,155,0,0,0,0,0,0,0,0,0,-1,1231,869,0,0
14,155,0,0,0,0,0,0,0,0,0,-1,1238,869,0,0
21,155,0,0,0,0,0,0,0,0,0,-1,1245,869,0,0
28,155,0,0,0,0,0,0,0,0,0,-1,1252,869,0,0
35,155,0,0,0,0,0,0,0,0,0,-1,1259,869,0,0
42,155,0,0,0,0,0,0,0,0,0,-1,1266,869,0,0
49,155,0,0,0,0,0,0,0,0,0,-1,1273,869,0,0
56,155,0,0,0,0,0,0,0,0,0,-1,1280,869,0,0
63,155,0,0,0,0,0,0,0,0,0,-1,1287,869,0,0
70,155,0,0,0,0,0,0,0,0,0,-1,1294,869,0,0
77,155,0,0,0,0,0,0,0,0,0,-1,1301,869,0,0
84,155,0,0,0,0,0,0,0,0,0,-1,1308,869,0,0
91,155,0,0,0,0,0,0,0,0,0,-1,1315,869,0,0
98,155,0,0,0,0,0,0,0,0,0,-1,1322,869,0,0
105,155,0,0,0,0,0,0,0,0,0,-1,1329,869,0,0
112,155,0,0,0,0,0,0,0,0,0,-1,1336,869,0,0
119,155,0,0,0,0,0,0,0,0,0,-1,1343,869,0,0
126,155,0,0,0,0,0,0,0,0,0,-1,1350,869,0,0
133,155,0,0,0,0,0,0,0,0,0,-1,1357,869,0,0
140,155,0,0,0,0,0,0,0,0,0,-1,1364,869,0,0
147,155,0,0,0,0,0,0,0,0,0,-1,1371,869,0,0
154,155,0,0,0,0,0,0,0,0,0,-1,1378,869,0,0
161,155,0,0,0,0,0,0,0,0,0,-1,1385,869,0,0
168,155,0,0,0,0,0,0,0,0,0,-1,1392,869,0,0
175,155,0,0,0,0,0,0,0,0,0,-1,1399,869,0,0
182,155,0,0,0,0,0,0,0,0,0,-1,1406,869,0,0
189,155,0,0,0,0,0,0,0,0,0,-1,1413,869,0,0
196,155,0,0,0,0,0,0,0,0,0,-1,1420,869,0,0
203,155,0,0,0,0,0,0,0,0,0,-1,1427,869,0,0
210,155,0,0,0,0,0,0,0,0,0,-1,1434,869,0,0
217,155,0,0,0,0,0,0,0,0,0,-1,1441,869,0,0
224,155,0,0,0,0,0,0,0,0,0,-1,1448,869,0,0
231,155,0,0,0,0,0,0,0,0,0,-1,1455,869,0,0
238,155,0,0,0,0,0,0,0,0,0,-1,1462,869,0,0
245,155,0,0,0,0,0,0,0,0,0,-1,1469,869,0,0
252,155,0,0,0,0,0,0,0,0,0,-1,1476,869,0,0
259,155,0,0,0,0,0,0,0,0,0,-1,1483,869,0,0
266,155,0,0,0,0,0,0,0,0,0,-1,1490,869,0,0
273,155,0,0,0,0,0,0,0,0,0,-1,1497,869,0,0
280,155,0,0,0,0,0,0,0,0,0,-1,1504,869,0,0
287,155,0,0,0,0,0,0,0,0,0,-1,1511,869,0,0
294,155,0,0,0,0,0,0,0,0,0,-1,1518,869,0,0
301,155,0,0,0,0,0,0,0,0,0,-1,1525,869,0,0
308,155,0,0,0,0,0,0,0,0,0,-1,1532,869,0,0
315,155,0,0,0,0,0,0,0,0,0,-1,1539,869,0,0
322,155,0,0,0,0,0,0,0,0,0,-1,1546,869,0,0
329,155,0,0,0,0,0,0,0,0,0,-1,1553,869,0,0
336,155,0,0,0,0,0,0,0,0,0,-1,1560,869,0,0
343,155,0,0,0,0,0,0,0,0,0,-1,1567,869,0,0
350,155,0,0,0,0,0,0,0,0,0,-1,1574,869,0,0
357,155,0,0,0,0,0,0,0,0,0,-1,1581,869,0,0
364,155,0,0,0,0,0,0,0,0,0,-1,1588,869,0,0
371,155,0,0,0,0,0,0,0,0,0,-1,1595,869,0,0
378,155,0,0,0,0,0,0,0,0,0,-1,1602,869,0,0
385,155,0,0,0,0,0,0,0,0,0,-1,1609,869,0,0
392,155,0,0,0,0,0,0,0,0,0,-1,1616,869,0,0
399,155,0,0,0,0,0,0,0,0,0,-1,1623,869,0,0
406,155,0,0,0,0,0,0,0,0,0,-1,1630,869,0,0
413,155,0,0,0,0,0,0,0,0,0,-1,1637,869,0,0
420,155,0,0,0,0,0,0,0,0,0,-1,1644,869,0,0
427,155,0,0,0,0,0,0,0,0,0,-1,1651,869,0,0
434,155,0,0,0,0,0,0,0,0,0,-1,1658,869,0,0
441,155,0,0,0,0,0,0,0,0,0,-1,1665,869,0,0
448,155,0,0,0,0,0,0,0,0,0,-1,1672,869,0,0
455,155,0,0,0,0,0,0,0,0,0,-1,1679,869,0,0
462,155,0,0,0,0,0,0,0,0,0,-1,1686,869,0,0
469,155,0,0,0,0,0,0,0,0,0,-1,1693,869,0,0
476,155,0,0,0,0,0,0,0,0,0,-1,1700,869,0,0
483,155,0,0,0,0,0,0,0,0,0,-1,1707,869,0,0
490,155,0,0,0,0,0,0,0,0,0,-1,1714,869,0,0
497,155,0,0,0,0,0,0,0,0,0,-1,1721,869,0,0
504,155,0,0,0,0,0,0,0,0,0,-1,1728,869,0,0
511,155,0,0,0,0,0,0,0,0,0,-1,1735,869,0,0
518,155,0,0,0,0,0,0,0,0,0,-1,1742,869,0,0
525,155,0,0,0,0,0,0,0,0,0,-1,1749,869,0,0
532,155,0,0,0,0,0,0,0,0,0,-1,1756,869,0,0
539,155,0,0,0,0,0,0,0,0,0,-1,1763,869,0,0
546,155,0,0,0,0,0,0,0,0,0,-1,1770,869,0,0
553,155,0,0,0,0,0,0,0,0,0,-1,1777,869,0,0
560,155,0,0,0,0,0,0,0,0,0,-1,1784,869,0,0
567,155,0,0,0,0,0,0,0,0,0,-1,1791,869,0,0
574,155,0,0,0,0,0,0,0,0,0,-1,1798,869,0,0
581,155,0,0,0,0,0,0,0,0,0,-1,1805,869,0,0
588,155,0,0,0,0,0,0,0,0,0,-1,1812,869,0,0
595,155,0,0,0,0,0,0,0,0,0,-1,1819,869,0,0
602,155,0,0,0,0,0,0,0,0,0,-1,1826,869,0,0
609,155,0,0,0,0,0,0,0,0,0,-1,1833,869,0,0
616,155,235.938,8.86237,0,0,0,0,0,0,0,-1,1840,869,235.938,-8.86236
623,155,235.91,8.70758,0,0,0,0,0,0,0,-1,1847,869,235.91,-8.70757
630,155,235.899,8.54865,0,0,0,0,0,0,0,-1,1854,869,235.899,-8.54862
637,155,235.846,8.65607,0,0,0,0,0,0,0,-1,1861,869,235.847,-8.65607
644,155,235.907,8.74213,0,0,0,0,0,0,0,-1,1868,869,235.907,-8.74211
651,155,235.942,8.62726,0,0,0,0,0,0,0,-1,1875,869,235.942,-8.62728
658,155,235.904,8.59174,0,0,0,0,0,0,0,-1,1882,869,235.904,-8.59172
665,155,235.882,8.53992,0,0,0,0,0,0,0,-1,1889,869,235.882,-8.5399
672,155,235.802,8.51007,0,0,0,0,0,0,0,-1,1896,869,235.803,-8.51009
679,155,35.1565,2.78528,0,0,0,0,0,0,0,-1,1903,869,35.1565,-2.7853
686,155,43.6101,1.63361,0,0,0,0,0,0,0,-1,1910,869,43.6101,-1.63362
693,155,70.7813,1.23804,0,0,0,0,0,0,0,-1,1917,869,70.7813,-1.23802
700,155,217.597,24.8088,0,0,0,0,0,0,0,-1,1924,869,217.597,-24.8088
707,155,217.851,26.4109,0,0,0,0,0,0,0,-1,1931,869,217.851,-26.4109
714,155,219.41,27.5892,0,0,0,0,0,0,0,-1,1938,869,219.41,-27.5892
721,155,217.86,29.3114,0,0,0,0,0,0,0,-1,1945,869,217.86,-29.3114
728,155,217.652,30.8165,-0.0110551,0.0310518,-0.0134146,0.0349623,-0.0149657,-1.28714,0.0295865,0.0312457,1952,869,217.652,-30.8165
735,155,217.443,32.2774,-0.015008,0.0362869,-0.0161439,0.0409448,-0.019666,-1.2899,0.0357053,0.0240152,1959,869,217.443,-32.2774
742,155,217.19,33.6844,-0.0183213,0.041504,-0.0187496,0.0468945,-0.0237118,-1.29085,0.0414906,0.0307873,1966,869,217.19,-33.6844
749,155,216.781,35.0433,-0.0209734,0.0467481,-0.0211222,0.0527959,-0.0270213,-1.29193,0.0468766,0.0361256,1973,869,216.781,-35.0433
756,155,216.54,36.402,0,0,0,0,0,0,0,-1,1980,869,216.54,-36.402
763,155,154.673,33.9367,0,0,0,0,0,0,0,-1,1987,869,154.673,-33.9367
770,155,74.0938,12.5649,0,0,0,0,0,0,0,-1,1994,869,74.0936,-12.565
777,155,73.948,14.0645,0,0,0,0,0,0,0,-1,2001,869,73.948,-14.0645
784,155,69.9526,8.4718,0,0,0,0,0,0,0,-1,2008,869,69.9525,-8.47183
791,155,0,0,0,0,0,0,0,0,0,-1,2015,869,0,0
798,155,0,0,0,0,0,0,0,0,0,-1,2022,869,0,0
805,155,0,0,0,0,0,0,0,0,0,-1,2029,869,0,0
812,155,0,0,0,0,0,0,0,0,0,-1,2036,869,0,0
-700,148,0,0,0,0,0,0,0,0,0,-1,524,876,0,0
-693,148,0,0,0,0,0,0,0,0,0,-1,531,876,0,0
-686,148,0,0,0,0,0,0,0,0,0,-1,538,876,0,0
-679,148,0,0,0,0,0,0,0,0,0,-1,545,876,0,0
-672,148,-48.1407,-0.726746,0,0,0,0,0,0,0,-1,552,876,-48.1407,0.726755
-665,148,-48.2041,-3.97095,0,0,0,0,0,0,0,-1,559,876,-48.2041,3.97096
-658,148,-51.7661,3.82794,0,0,0,0,0,0,0,-1,566,876,-51.7661,-3.82797
-651,148,-52.0392,2.79663,0,0,0,0,0,0,0,-1,573,876,-52.0392,-2.79661
-644,148,-52.2687,1.81482,0,0,0,0,0,0,0,-1,580,876,-52.2687,-1.81482
-637,148,-52.5708,0.881165,0,0,0,0,0,0,0,-1,587,876,-52.5708,-0.88117
-630,148,-209.162,40.0281,0,0,0,0,0,0,0,-1,594,876,-209.162,-40.0281
-623,148,-210.529,37.3713,0,0,0,0,0,0,0,-1,601,876,-210.529,-37.3713
-616,148,-211.107,35.4261,-0.0140876,0.0505662,0.0157252,0.054188,-0.0177095,1.34442,0.0432543,0.0318316,608,876,-211.107,-35.4261
-609,148,-211.471,33.83,-0.0124823,0.044566,0.0146387,0.048103,-0.0160193,1.33372,0.0385348,0.0211928,615,876,-211.471,-33.83
-602,148,-211.681,32.2727,-0.0105044,0.0384639,0.0136289,0.0420016,-0.0140421,1.31683,0.0336723,0.0215679,622,876,-211.681,-32.2727
-595,148,-211.842,30.7441,-0.00807256,0.0322724,0.0126868,0.0359302,-0.0117304,1.29009,0.0286749,0.0195545,629,876,-211.842,-30.7442
-588,148,-212.089,29.2464,-0.00509037,0.0260089,0.0118032,0.0299812,-0.00906265,1.24616,0.0235958,0.039168,636,876,-212.089,-29.2464
-581,148,-212.136,27.7381,0,0,0,0,0,0,0,-1,643,876,-212.136,-27.7381
-574,148,-141.084,19.3962,0,0,0,0,0,0,0,-1,650,876,-141.084,-19.3962
-567,148,-35.6293,0.615784,0,0,0,0,0,0,0,-1,657,876,-35.6293,-0.615792
-560,148,-37.7973,-0.588135,0,0,0,0,0,0,0,-1,664,876,-37.7973,0.588143
-553,148,-18.3896,-0.00280762,0,0,0,0,0,0,0,-1,671,876,-18.3897,0.00278524
-546,148,-72.6356,0.278809,0,0,0,0,0,0,0,-1,678,876,-72.6356,-0.278824
-539,148,-72.5992,0.387451,0,0,0,0,0,0,0,-1,685,876,-72.5992,-0.387442
-532,148,-72.5662,0.512207,0,0,0,0,0,0,0,-1,692,876,-72.5661,-0.512225
-525,148,-72.5568,0.659302,0,0,0,0,0,0,0,-1,699,876,-72.5568,-0.659294
-518,148,-72.5514,0.678345,0,0,0,0,0,0,0,-1,706,876,-72.5514,-0.678346
-511,148,-72.4734,0.641174,0,0,0,0,0,0,0,-1,713,876,-72.4734,-0.64118
-504,148,-72.4635,0.438782,0,0,0,0,0,0,0,-1,720,876,-72.4635,-0.438791
-497,148,0,0,0,0,0,0,0,0,0,-1,727,876,0,0
-490,148,0,0,0,0,0,0,0,0,0,-1,734,876,0,0
-483,148,0,0,0,0,0,0,0,0,0,-1,741,876,0,0
-476,148,0,0,0,0,0,0,0,0,0,-1,748,876,0,0
-469,148,0,0,0,0,0,0,0,0,0,-1,755,876,0,0
-462,148,0,0,0,0,0,0,0,0,0,-1,762,876,0,0
-455,148,0,0,0,0,0,0,0,0,0,-1,769,876,0,0
-448,148,0,0,0,0,0,0,0,0,0,-1,776,876,0,0
-441,148,0,0,0,0,0,0,0,0,0,-1,783,876,0,0
-434,148,0,0,0,0,0,0,0,0,0,-1,790,876,0,0
-427,148,0,0,0,0,0,0,0,0,0,-1,797,876,0,0
-420,148,0,0,0,0,0,0,0,0,0,-1,804,876,0,0
-413,148,0,0,0,0,0,0,0,0,0,-1,811,876,0,0
-406,148,0,0,0,0,0,0,0,0,0,-1,818,876,0,0
-399,148,0,0,0,0,0,0,0,0,0,-1,825,876,0,0
-392,148,0,0,0,0,0,0,0,0,0,-1,832,876,0,0
-385,148,0,0,0,0,0,0,0,0,0,-1,839,876,0,0
-378,148,0,0,0,0,0,0,0,0,0,-1,846,876,0,0
-371,148,0,0,0,0,0,0,0,0,0,-1,853,876,0,0
-364,148,0,0,0,0,0,0,0,0,0,-1,860,876,0,0
-357,148,0,0,0,0,0,0,0,0,0,-1,867,876,0,0
-350,148,0,0,0,0,0,0,0,0,0,-1,874,876,0,0
-343,148,0,0,0,0,0,0,0,0,0,-1,881,876,0,0
-336,148,0,0,0,0,0,0,0,0,0,-1,888,876,0,0
-329,148,0,0,0,0,0,0,0,0,0,-1,895,876,0,0
-322,148,0,0,0,0,0,0,0,0,0,-1,902,876,0,0
-315,148,0,0,0,0,0,0,0,0,0,-1,909,876,0,0
-308,148,0,0,0,0,0,0,0,0,0,-1,916,876,0,0
-301,148,0,0,0,0,0,0,0,0,0,-1,923,876,0,0
-294,148,0,0,0,0,0,0,0,0,0,-1,930,876,0,0
-287,148,0,0,0,0,0,0,0,0,0,-1,937,876,0,0
-280,148,0,0,0,0,0,0,0,0,0,-1,944,876,0,0
-273,148,0,0,0,0,0,0,0,0,0,-1,951,876,0,0
-266,148,0,0,0,0,0,0,0,0,0,-1,958,876,0,0
-259,148,0,0,0,0,0,0,0,0,0,-1,965,876,0,0
-252,148,0,0,0,0,0,0,0,0,0,-1,972,876,0,0
-245,148,0,0,0,0,0,0,0,0,0,-1,979,876,0,0
-238,148,0,0,0,0,0,0,0,0,0,-1,986,876,0,0
-231,148,0,0,0,0,0,0,0,0,0,-1,993,876,0,0
-224,148,0,0,0,0,0,0,0,0,0,-1,1000,876,0,0
-217,148,0,0,0,0,0,0,0,0,0,-1,1007,876,0,0
-210,148,0,0,0,0,0,0,0,0,0,-1,1014,876,0,0
-203,148,0,0,0,0,0,0,0,0,0,-1,1021,876,0,0
-196,148,0,0,0,0,0,0,0,0,0,-1,1028,876,0,0
-189,148,0,0,0,0,0,0,0,0,0,-1,1035,876,0,0
-182,148,0,0,0,0,0,0,0,0,0,-1,1042,876,0,0
-175,148,0,0,0,0,0,0,0,0,0,-1,1049,876,0,0
-168,148,0,0,0,0,0,0,0,0,0,-1,1056,876,0,0
-161,148,0,0,0,0,0,0,0,0,0,-1,1063,876,0,0
-154,148,0,0,0,0,0,0,0,0,0,-1,1070,876,0,0
-147,148,0,0,0,0,0,0,0,0,0,-1,1077,876,0,0
-140,148,0,0,0,0,0,0,0,0,0,-1,1084,876,0,0
-133,148,0,0,0,0,0,0,0,0,0,-1,1091,876,0,0
-126,148,0,0,0,0,0,0,0,0,0,-1,1098,876,0,0
-119,148,0,0,0,0,0,0,0,0,0,-1,1105,876,0,0
-112,148,0,0,0,0,0,0,0,0,0,-1,1112,876,0,0
-105,148,0,0,0,0,0,0,0,0,0,-1,1119,876,0,0
-98,148,0,0,0,0,0,0,0,0,0,-1,1126,876,0,0
-91,148,0,0,0,0,0,0,0,0,0,-1,1133,876,0,0
-84,148,0,0,0,0,0,0,0,0,0,-1,1140,876,0,0
-77,148,0,0,0,0,0,0,0,0,0,-1,1147,876,0,0
-70,148,0,0,0,0,0,0,0,0,0,-1,1154,876,0,0
-63,148,0,0,0,0,0,0,0,0,0,-1,1161,876,0,0
-56,148,0,0,0,0,0,0,0,0,0,-1,1168,876,0,0
-49,148,0,0,0,0,0,0,0,0,0,-1,1175,876,0,0
-42,148,0,0,0,0,0,0,0,0,0,-1,1182,876,0,0
-35,148,0,0,0,0,0,0,0,0,0,-1,1189,876,0,0
-28,148,0,0,0,0,0,0,0,0,0,-1,1196,876,0,0
-21,148,0,0,0,0,0,0,0,0,0,-1,1203,876,0,0
-14,148,0,0,0,0,0,0,0,0,0,-1,1210,876,0,0
-7,148,0,0,0,0,0,0,0,0,0,-1,1217,876,0,0
0,148,0,0,0,0,0,0,0,0,0,-1,1224,876,0,0
7,148,0,0,0,0,0,0,0,0,0,-1,1231,876,0,0
14,148,0,0,0,0,0,0,0,0,0,-1,1238,876,0,0
21,148,0,0,0,0,0,0,0,0,0,-1,1245,876,0,0
28,148,0,0,0,0,0,0,0,0,0,-1,1252,876,0,0
35,148,0,0,0,0,0,0,0,0,0,-1,1259,876,0,0
42,148,0,0,0,0,0,0,0,0,0,-1,1266,876,0,0
49,148,0,0,0,0,0,0,0,0,0,-1,1273,876,0,0
56,148,0,0,0,0,0,0,0,0,0,-1,1280,876,0,0
63,148,0,0,0,0,0,0,0,0,0,-1,1287,876,0,0
70,148,0,0,0,0,0,0,0,0,0,-1,1294,876,0,0
77,148,0,0,0,0,0,0,0,0,0,-1,1301,876,0,0
84,148,0,0,0,0,0,0,0,0,0,-1,1308,876,0,0
91,148,0,0,0,0,0,0,0,0,0,-1,1315,876,0,0
98,148,0,0,0,0,0,0,0,0,0,-1,1322,876,0,0
105,148,0,0,0,0,0,0,0,0,0,-1,1329,876,0,0
112,148,0,0,0,0,0,0,0,0,0,-1,1336,876,0,0
119,148,0,0,0,0,0,0,0,0,0,-1,1343,876,0,0
126,148,0,0,0,0,0,0,0,0,0,-1,1350,876,0,0
133,148,0,0,0,0,0,0,0,0,0,-1,1357,876,0,0
140,148,0,0,0,0,0,0,0,0,0,-1,1364,876,0,0
147,148,0,0,0,0,0,0,0,0,0,-1,1371,876,0,0
154,148,0,0,0,0,0,0,0,0,0,-1,1378,876,0,0
161,148,0,0,0,0,0,0,0,0,0,-1,1385,876,0,0
168,148,0,0,0,0,0,0,0,0,0,-1,1392,876,0,0
175,148,0,0,0,0,0,0,0,0,0,-1,1399,876,0,0
182,148,0,0,0,0,0,0,0,0,0,-1,1406,876,0,0
189,148,0,0,0,0,0,0,0,0,0,-1,1413,876,0,0
196,148,0,0,0,0,0,0,0,0,0,-1,1420,876,0,0
203,148,0,0,0,0,0,0,0,0,0,-1,1427,876,0,0
210,148,0,0,0,0,0,0,0,0,0,-1,1434,876,0,0
217,148,0,0,0,0,0,0,0,0,0,-1,1441,876,0,0
224,148,0,0,0,0,0,0,0,0,0,-1,1448,876,0,0
231,148,0,0,0,0,0,0,0,0,0,-1,1455,876,0,0
238,148,0,0,0,0,0,0,0,0,0,-1,1462,876,0,0
245,148,0,0,0,0,0,0,0,0,0,-1,1469,876,0,0
252,148,0,0,0,0,0,0,0,0,0,-1,1476,876,0,0
259,148,0,0,0,0,0,0,0,0,0,-1,1483,876,0,0
266,148,0,0,0,0,0,0,0,0,0,-1,1490,876,0,0
273,148,0,0,0,0,0,0,0,0,0,-1,1497,876,0,0
280,148,0,0,0,0,0,0,0,0,0,-1,1504,876,0,0
287,148,0,0,0,0,0,0,0,0,0,-1,1511,876,0,0
294,148,0,0,0,0,0,0,0,0,0,-1,1518,876,0,0
301,148,0,0,0,0,0,0,0,0,0,-1,1525,876,0,0
308,148,0,0,0,0,0,0,0,0,0,-1,1532,876,0,0
315,148,0,0,0,0,0,0,0,0,0,-1,1539,876,0,0
322,148,0,0,0,0,0,0,0,0,0,-1,1546,876,0,0
329,148,0,0,0,0,0,0,0,0,0,-1,1553,876,0,0
336,148,0,0,0,0,0,0,0,0,0,-1,1560,876,0,0
343,148,0,0,0,0,0,0,0,0,0,-1,1567,876,0,0
350,148,0,0,0,0,0,0,0,0,0,-1,1574,876,0,0
357,148,0,0,0,0,0,0,0,0,0,-1,1581,876,0,0
364,148,0,0,0,0,0,0,0,0,0,-1,1588,876,0,0
371,148,0,0,0,0,0,0,0,0,0,-1,1595,876,0,0
378,148,0,0,0,0,0,0,0,0,0,-1,1602,876,0,0
385,148,0,0,0,0,0,0,0,0,0,-1,1609,876,0,0
392,148,0,0,0,0,0,0,0,0,0,-1,1616,876,0,0
399,148,0,0,0,0,0,0,0,0,0,-1,1623,876,0,0
406,148,0,0,0,0,0,0,0,0,0,-1,1630,876,0,0
413,148,0,0,0,0,0,0,0,0,0,-1,1637,876,0,0
420,148,0,0,0,0,0,0,0,0,0,-1,1644,876,0,0
427,148,0,0,0,0,0,0,0,0,0,-1,1651,876,0,0
434,148,0,0,0,0,0,0,0,0,0,-1,1658,876,0,0
441,148,0,0,0,0,0,0,0,0,0,-1,1665,876,0,0
448,148,0,0,0,0,0,0,0,0,0,-1,1672,876,0,0
455,148,0,0,0,0,0,0,0,0,0,-1,1679,876,0,0
462,148,0,0,0,0,0,0,0,0,0,-1,1686,876,0,0
469,148,0,0,0,0,0,0,0,0,0,-1,1693,876,0,0
476,148,0,0,0,0,0,0,0,0,0,-1,1700,876,0,0
483,148,0,0,0,0,0,0,0,0,0,-1,1707,876,0,0
490,148,0,0,0,0,0,0,0,0,0,-1,1714,876,0,0
497,148,0,0,0,0,0,0,0,0,0,-1,1721,876,0,0
504,148,0,0,0,0,0,0,0,0,0,-1,1728,876,0,0
511,148,0,0,0,0,0,0,0,0,0,-1,1735,876,0,0
518,148,0,0,0,0,0,0,0,0,0,-1,1742,876,0,0
525,148,0,0,0,0,0,0,0,0,0,-1,1749,876,0,0
532,148,0,0,0,0,0,0,0,0,0,-1,1756,876,0,0
539,148,0,0,0,0,0,0,0,0,0,-1,1763,876,0,0
546,148,0,0,0,0,0,0,0,0,0,-1,1770,876,0,0
553,148,0,0,0,0,0,0,0,0,0,-1,1777,876,0,0
560,148,0,0,0,0,0,0,0,0,0,-1,1784,876,0,0
567,148,0,0,0,0,0,0,0,0,0,-1,1791,876,0,0
574,148,0,0,0,0,0,0,0,0,0,-1,1798,876,0,0
581,148,0,0,0,0,0,0,0,0,0,-1,1805,876,0,0
588,148,0,0,0,0,0,0,0,0,0,-1,1812,876,0,0
595,148,0,0,0,0,0,0,0,0,0,-1,1819,876,0,0
602,148,0,0,0,0,0,0,0,0,0,-1,1826,876,0,0
609,148,0,0,0,0,0,0,0,0,0,-1,1833,876,0,0
616,148,0,0,0,0,0,0,0,0,0,-1,1840,876,0,0
623,148,235.849,8.72314,0,0,0,0,0,0,0,-1,1847,876,235.849,-8.72312
630,148,235.768,8.58899,0,0,0,0,0,0,0,-1,1854,876,235.768,-8.58897
637,148,235.801,8.71991,0,0,0,0,0,0,0,-1,1861,876,235.801,-8.7199
644,148,235.868,8.68201,0,0,0,0,0,0,0,-1,1868,876,235.869,-8.68198
651,148,235.869,8.58374,0,0,0,0,0,0,0,-1,1875,876,235.869,-8.58377
658,148,235.857,8.63995,0,0,0,0,0,0,0,-1,1882,876,235.857,-8.63996
665,148,235.813,8.73029,0,0,0,0,0,0,0,-1,1889,876,235.813,-8.73029
672,148,235.842,8.58423,0,0,0,0,0,0,0,-1,1896,876,235.842,-8.58423
679,148,235.915,8.41962,0,0,0,0,0,0,0,-1,1903,876,235.915,-8.41963
686,148,21.6195,2.40845,0,0,0,0,0,0,0,-1,1910,876,21.6196,-2.40846
693,148,48.1387,1.97351,0,0,0,0,0,0,0,-1,1917,876,48.1387,-1.97351
700,148,172.962,23.575,0,0,0,0,0,0,0,-1,1924,876,172.962,-23.5749
707,148,220.52,26.3557,0,0,0,0,0,0,0,-1,1931,876,220.52,-26.3557
714,148,220.25,27.7847,0,0,0,0,0,0,0,-1,1938,876,220.25,-27.7847
721,148,219.658,29.2558,-0.0070701,0.0232492,-0.00926622,0.0258569,-0.00967777,-1.29647,0.0212129,0.0437589,1945,876,219.658,-29.2558
728,148,219.501,30.7552,-0.0108965,0.0286024,-0.0118241,0.0318715,-0.0141655,-1.30106,0.0272269,0.0285001,1952,876,219.501,-30.7552
735,148,219.354,32.2458,-0.0141679,0.0339294,-0.0142877,0.0378535,-0.0180921,-1.30276,0.032965,0.0285539,1959,876,219.354,-32.2459
742,148,218.864,33.5446,-0.0167646,0.039282,-0.0165853,0.0438221,-0.0213047,-1.3036,0.0383428,0.0314197,1966,876,218.864,-33.5446
749,148,218.473,34.8475,-0.0186295,0.0447169,-0.0186213,0.0497853,-0.0236979,-1.30505,0.0433076,0.0363267,1973,876,218.473,-34.8475
756,148,218.35,36.3711,-0.0196328,0.0502992,-0.0203578,0.0557938,-0.0251274,-1.30718,0.0478251,0.0420522,1980,876,218.35,-36.3711
763,148,218.26,38.0521,0,0,0,0,0,0,0,-1,1987,876,218.26,-38.0522
770,148,108.528,22.8148,0,0,0,0,0,0,0,-1,1994,876,108.528,-22.8148
777,148,75.2727,13.6713,0,0,0,0,0,0,0,-1,2001,876,75.2726,-13.6714
784,148,75.4836,15.2984,0,0,0,0,0,0,0,-1,2008,876,75.4836,-15.2984
791,148,71.4524,10.6003,0,0,0,0,0,0,0,-1,2015,876,71.4523,-10.6003
798,148,0,0,0,0,0,0,0,0,0,-1,2022,876,0,0
805,148,0,0,0,0,0,0,0,0,0,-1,2029,876,0,0
812,148,0,0,0,0,0,0,0,0,0,-1,2036,876,0,0
-700,141,0,0,0,0,0,0,0,0,0,-1,524,883,0,0
-693,141,0,0,0,0,0,0,0,0,0,-1,531,883,0,0
-686,141,0,0,0,0,0,0,0,0,0,-1,538,883,0,0
-679,141,0,0,0,0,0,0,0,0,0,-1,545,883,0,0
-672,141,-48.7804,-0.600891,0,0,0,0,0,0,0,-1,552,883,-48.7804,0.600898
-665,141,-48.764,-3.67065,0,0,0,0,0,0,0,-1,559,883,-48.764,3.67066
-658,141,-52.3438,3.12531,0,0,0,0,0,0,0,-1,566,883,-52.3438,-3.1253
-651,141,-53.1779,1.50293,0,0,0,0,0,0,0,-1,573,883,-53.1778,-1.50292
-644,141,-52.4205,-0.191956,0,0,0,0,0,0,0,-1,580,883,-52.4205,0.191941
-637,141,-52.859,0.400024,0,0,0,0,0,0,0,-1,587,883,-52.859,-0.400006
-630,141,-179.258,37.9363,0,0,0,0,0,0,0,-1,594,883,-179.258,-37.9364
-623,141,-212.373,36.8212,0,0,0,0,0,0,0,-1,601,883,-212.373,-36.8212
-616,141,-212.892,35.2119,-0.0133619,0.0482762,0.0150861,0.0517705,-0.0168562,1.34319,0.0412955,0.0276915,608,883,-212.892,-35.2119
-609,141,-213.241,33.6638,-0.0119091,0.0422492,0.0137271,0.0455298,-0.0151897,1.33621,0.036486,0.0208539,615,883,-213.241,-33.6638
-602,141,-213.395,32.1713,-0.0102001,0.0361591,0.0124667,0.0392989,-0.01334,1.32407,0.0315989,0.0220871,622,883,-213.395,-32.1712
-595,141,-213.447,30.7314,-0.00815262,0.0300121,0.0113008,0.0331073,-0.0112478,1.30346,0.0266249,0.0262356,629,883,-213.447,-30.7315
-588,141,-214.111,29.2471,-0.00566381,0.0238184,0.0102218,0.0270157,-0.00886111,1.26765,0.0215794,0.0409468,636,883,-214.111,-29.2472
-581,141,-214.689,27.6918,0,0,0,0,0,0,0,-1,643,883,-214.689,-27.6918
-574,141,-171.227,25.0035,0,0,0,0,0,0,0,-1,650,883,-171.227,-25.0035
-567,141,-30.5335,0.480103,0,0,0,0,0,0,0,-1,657,883,-30.5335,-0.480081
-560,141,-30.5542,0.23175,0,0,0,0,0,0,0,-1,664,883,-30.5542,-0.231742
-553,141,-32.0876,1.39459,0,0,0,0,0,0,0,-1,671,883,-32.0876,-1.3946
-546,141,-72.5951,0.447754,0,0,0,0,0,0,0,-1,678,883,-72.5951,-0.447775
-539,141,-72.5854,0.451538,0,0,0,0,0,0,0,-1,685,883,-72.5855,-0.451528
-532,141,-72.5859,0.468872,0,0,0,0,0,0,0,-1,692,883,-72.5859,-0.468888
-525,141,-72.6156,0.501648,0,0,0,0,0,0,0,-1,699,883,-72.6156,-0.501667
-518,141,-72.6504,0.630859,0,0,0,0,0,0,0,-1,706,883,-72.6504,-0.630879
-511,141,-72.6628,0.72522,0,0,0,0,0,0,0,-1,713,883,-72.6628,-0.725227
-504,141,-72.6421,0.891968,0,0,0,0,0,0,0,-1,720,883,-72.6421,-0.891968
-497,141,0,0,0,0,0,0,0,0,0,-1,727,883,0,0
-490,141,0,0,0,0,0,0,0,0,0,-1,734,883,0,0
-483,141,0,0,0,0,0,0,0,0,0,-1,741,883,0,0
-476,141,0,0,0,0,0,0,0,0,0,-1,748,883,0,0
-469,141,0,0,0,0,0,0,0,0,0,-1,755,883,0,0
-462,141,0,0,0,0,0,0,0,0,0,-1,762,883,0,0
-455,141,0,0,0,0,0,0,0,0,0,-1,769,883,0,0
-448,141,0,0,0,0,0,0,0,0,0,-1,776,883,0,0
-441,141,0,0,0,0,0,0,0,0,0,-1,783,883,0,0
-434,141,0,0,0,0,0,0,0,0,0,-1,790,883,0,0
-427,141,0,0,0,0,0,0,0,0,0,-1,797,883,0,0
-420,141,0,0,0,0,0,0,0,0,0,-1,804,883,0,0
-413,141,0,0,0,0,0,0,0,0,0,-1,811,883,0,0
-406,141,0,0,0,0,0,0,0,0,0,-1,818,883,0,0
-399,141,0,0,0,0,0,0,0,0,0,-1,825,883,0,0
-392,141,0,0,0,0,0,0,0,0,0,-1,832,883,0,0
-385,141,0,0,0,0,0,0,0,0,0,-1,839,883,0,0
-378,141,0,0,0,0,0,0,0,0,0,-1,846,883,0,0
-371,141,0,0,0,0,0,0,0,0,0,-1,853,883,0,0
-364,141,0,0,0,0,0,0,0,0,0,-1,860,883,0,0
-357,141,0,0,0,0,0,0,0,0,0,-1,867,883,0,0
-350,141,0,0,0,0,0,0,0,0,0,-1,874,883,0,0
-343,141,0,0,0,0,0,0,0,0,0,-1,881,883,0,0
-336,141,0,0,0,0,0,0,0,0,0,-1,888,883,0,0
-329,141,0,0,0,0,0,0,0,0,0,-1,895,883,0,0
-322,141,0,0,0,0,0,0,0,0,0,-1,902,883,0,0
-315,141,0,0,0,0,0,0,0,0,0,-1,909,883,0,0
-308,141,0,0,0,0,0,0,0,0,0,-1,916,883,0,0
-301,141,0,0,0,0,0,0,0,0,0,-1,923,883,0,0
-294,141,0,0,0,0,0,0,0,0,0,-1,930,883,0,0
-287,141,0,0,0,0,0,0,0,0,0,-1,937,883,0,0
-280,141,0,0,0,0,0,0,0,0,0,-1,944,883,0,0
-273,141,0,0,0,0,0,0,0,0,0,-1,951,883,0,0
-266,141,0,0,0,0,0,0,0,0,0,-1,958,883,0,0
-259,141,0,0,0,0,0,0,0,0,0,-1,965,883,0,0
-252,141,0,0,0,0,0,0,0,0,0,-1,972,883,0,0
-245,141,0,0,0,0,0,0,0,0,0,-1,979,883,0,0
-238,141,0,0,0,0,0,0,0,0,0,-1,986,883,0,0
-231,141,0,0,0,0,0,0,0,0,0,-1,993,883,0,0
-224,141,0,0,0,0,0,0,0,0,0,-1,1000,883,0,0
-217,141,0,0,0,0,0,0,0,0,0,-1,1007,883,0,0
-210,141,0,0,0,0,0,0,0,0,0,-1,1014,883,0,0
-203,141,0,0,0,0,0,0,0,0,0,-1,1021,883,0,0
-196,141,0,0,0,0,0,0,0,0,0,-1,1028,883,0,0
-189,141,0,0,0,0,0,0,0,0,0,-1,1035,883,0,0
-182,141,0,0,0,0,0,0,0,0,0,-1,1042,883,0,0
-175,141,0,0,0,0,0,0,0,0,0,-1,1049,883,0,0
-168,141,0,0,0,0,0,0,0,0,0,-1,1056,883,0,0
-161,141,0,0,0,0,0,0,0,0,0,-1,1063,883,0,0
-154,141,0,0,0,0,0,0,0,0,0,-1,1070,883,0,0
-147,141,0,0,0,0,0,0,0,0,0,-1,1077,883,0,0
-140,141,0,0,0,0,0,0,0,0,0,-1,1084,883,0,0
-133,141,0,0,0,0,0,0,0,0,0,-1,1091,883,0,0
-126,141,0,0,0,0,0,0,0,0,0,-1,1098,883,0,0
-119,141,0,0,0,0,0,0,0,0,0,-1,1105,883,0,0
-112,141,0,0,0,0,0,0,0,0,0,-1,1112,883,0,0
-105,141,0,0,0,0,0,0,0,0,0,-1,1119,883,0,0
-98,141,0,0,0,0,0,0,0,0,0,-1,1126,883,0,0
-91,141,0,0,0,0,0,0,0,0,0,-1,1133,883,0,0
-84,141,0,0,0,0,0,0,0,0,0,-1,1140,883,0,0
-77,141,0,0,0,0,0,0,0,0,0,-1,1147,883,0,0
-70,141,0,0,0,0,0,0,0,0,0,-1,1154,883,0,0
-63,141,0,0,0,0,0,0,0,0,0,-1,1161,883,0,0
-56,141,0,0,0,0,0,0,0,0,0,-1,1168,883,0,0
-49,141,0,0,0,0,0,0,0,0,0,-1,1175,883,0,0
-42,141,0,0,0,0,0,0,0,0,0,-1,1182,883,0,0
-35,141,0,0,0,0,0,0,0,0,0,-1,1189,883,0,0
-28,141,0,0,0,0,0,0,0,0,0,-1,1196,883,0,0
-21,141,0,0,0,0,0,0,0,0,0,-1,1203,883,0,0
-14,141,0,0,0,0,0,0,0,0,0,-1,1210,883,0,0
-7,141,0,0,0,0,0,0,0,0,0,-1,1217,883,0,0
0,141,0,0,0,0,0,0,0,0,0,-1,1224,883,0,0
7,141,0,0,0,0,0,0,0,0,0,-1,1231,883,0,0
14,141,0,0,0,0,0,0,0,0,0,-1,1238,883,0,0
21,141,0,0,0,0,0,0,0,0,0,-1,1245,883,0,0
28,141,0,0,0,0,0,0,0,0,0,-1,1252,883,0,0
35,141,0,0,0,0,0,0,0,0,0,-1,1259,883,0,0
42,141,0,0,0,0,0,0,0,0,0,-1,1266,883,0,0
49,141,0,0,0,0,0,0,0,0,0,-1,1273,883,0,0
56,141,0,0,0,0,0,0,0,0,0,-1,1280,883,0,0
63,141,0,0,0,0,0,0,0,0,0,-1,1287,883,0,0
70,141,0,0,0,0,0,0,0,0,0,-1,1294,883,0,0
77,141,0,0,0,0,0,0,0,0,0,-1,1301,883,0,0
84,141,0,0,0,0,0,0,0,0,0,-1,1308,883,0,0
91,141,0,0,0,0,0,0,0,0,0,-1,1315,883,0,0
98,141,0,0,0,0,0,0,0,0,0,-1,1322,883,0,0
105,141,0,0,0,0,0,0,0,0,0,-1,1329,883,0,0
112,141,0,0,0,0,0,0,0,0,0,-1,1336,883,0,0
119,141,0,0,0,0,0,0,0,0,0,-1,1343,883,0,0
126,141,0,0,0,0,0,0,0,0,0,-1,1350,883,0,0
133,141,0,0,0,0,0,0,0,0,0,-1,1357,883,0,0
140,141,0,0,0,0,0,0,0,0,0,-1,1364,883,0,0
147,141,0,0,0,0,0,0,0,0,0,-1,1371,883,0,0
154,141,0,0,0,0,0,0,0,0,0,-1,1378,883,0,0
161,141,0,0,0,0,0,0,0,0,0,-1,1385,883,0,0
168,141,0,0,0,0,0,0,0,0,0,-1,1392,883,0,0
175,141,0,0,0,0,0,0,0,0,0,-1,1399,883,0,0
182,141,0,0,0,0,0,0,0,0,0,-1,1406,883,0,0
189,141,0,0,0,0,0,0,0,0,0,-1,1413,883,0,0
196,141,0,0,0,0,0,0,0,0,0,-1,1420,883,0,0
203,141,0,0,0,0,0,0,0,0,0,-1,1427,883,0,0
210,141,0,0,0,0,0,0,0,0,0,-1,1434,883,0,0
217,141,0,0,0,0,0,0,0,0,0,-1,1441,883,0,0
224,141,0,0,0,0,0,0,0,0,0,-1,1448,883,0,0
231,141,0,0,0,0,0,0,0,0,0,-1,1455,883,0,0
238,141,0,0,0,0,0,0,0,0,0,-1,1462,883,0,0
245,141,0,0,0,0,0,0,0,0,0,-1,1469,883,0,0
252,141,0,0,0,0,0,0,0,0,0,-1,1476,883,0,0
259,141,0,0,0,0,0,0,0,0,0,-1,1483,883,0,0
266,141,0,0,0,0,0,0,0,0,0,-1,1490,883,0,0
273,141,0,0,0,0,0,0,0,0,0,-1,1497,883,0,0
280,141,0,0,0,0,0,0,0,0,0,-1,1504,883,0,0
287,141,0,0,0,0,0,0,0,0,0,-1,1511,883,0,0
294,141,0,0,0,0,0,0,0,0,0,-1,1518,883,0,0
301,141,0,0,0,0,0,0,0,0,0,-1,1525,883,0,0
308,141,0,0,0,0,0,0,0,0,0,-1,1532,883,0,0
315,141,0,0,0,0,0,0,0,0,0,-1,1539,883,0,0
322,141,0,0,0,0,0,0,0,0,0,-1,1546,883,0,0
329,141,0,0,0,0,0,0,0,0,0,-1,1553,883,0,0
336,141,0,0,0,0,0,0,0,0,0,-1,1560,883,0,0
343,141,0,0,0,0,0,0,0,0,0,-1,1567,883,0,0
350,141,0,0,0,0,0,0,0,0,0,-1,1574,883,0,0
357,141,0,0,0,0,0,0,0,0,0,-1,1581,883,0,0
364,141,0,0,0,0,0,0,0,0,0,-1,1588,883,0,0
371,141,0,0,0,0,0,0,0,0,0,-1,1595,883,0,0
378,141,0,0,0,0,0,0,0,0,0,-1,1602,883,0,0
385,141,0,0,0,0,0,0,0,0,0,-1,1609,883,0,0
392,141,0,0,0,0,0,0,0,0,0,-1,1616,883,0,0
399,141,0,0,0,0,0,0,0,0,0,-1,1623,883,0,0
406,141,0,0,0,0,0,0,0,0,0,-1,1630,883,0,0
413,141,0,0,0,0,0,0,0,0,0,-1,1637,883,0,0
420,141,0,0,0,0,0,0,0,0,0,-1,1644,883,0,0
427,141,0,0,0,0,0,0,0,0,0,-1,1651,883,0,0
434,141,0,0,0,0,0,0,0,0,0,-1,1658,883,0,0
441,141,0,0,0,0,0,0,0,0,0,-1,1665,883,0,0
448,141,0,0,0,0,0,0,0,0,0,-1,1672,883,0,0
455,141,0,0,0,0,0,0,0,0,0,-1,1679,883,0,0
462,141,0,0,0,0,0,0,0,0,0,-1,1686,883,0,0
469,141,0,0,0,0,0,0,0,0,0,-1,1693,883,0,0
476,141,0,0,0,0,0,0,0,0,0,-1,1700,883,0,0
483,141,0,0,0,0,0,0,0,0,0,-1,1707,883,0,0
490,141,0,0,0,0,0,0,0,0,0,-1,1714,883,0,0
497,141,0,0,0,0,0,0,0,0,0,-1,1721,883,0,0
504,141,0,0,0,0,0,0,0,0,0,-1,1728,883,0,0
511,141,0,0,0,0,0,0,0,0,0,-1,1735,883,0,0
518,141,0,0,0,0,0,0,0,0,0,-1,1742,883,0,0
525,141,0,0,0,0,0,0,0,0,0,-1,1749,883,0,0
532,141,0,0,0,0,0,0,0,0,0,-1,1756,883,0,0
539,141,0,0,0,0,0,0,0,0,0,-1,1763,883,0,0
546,141,0,0,0,0,0,0,0,0,0,-1,1770,883,0,0
553,141,0,0,0,0,0,0,0,0,0,-1,1777,883,0,0
560,141,0,0,0,0,0,0,0,0,0,-1,1784,883,0,0
567,141,0,0,0,0,0,0,0,0,0,-1,1791,883,0,0
574,141,0,0,0,0,0,0,0,0,0,-1,1798,883,0,0
581,141,0,0,0,0,0,0,0,0,0,-1,1805,883,0,0
588,141,0,0,0,0,0,0,0,0,0,-1,1812,883,0,0
595,141,0,0,0,0,0,0,0,0,0,-1,1819,883,0,0
602,141,0,0,0,0,0,0,0,0,0,-1,1826,883,0,0
609,141,0,0,0,0,0,0,0,0,0,-1,1833,883,0,0
616,141,0,0,0,0,0,0,0,0,0,-1,1840,883,0,0
623,141,235.832,8.97308,0,0,0,0,0,0,0,-1,1847,883,235.832,-8.97306
630,141,235.635,8.6767,0,0,0,0,0,0,0,-1,1854,883,235.635,-8.6767
637,141,235.886,8.89563,0,0,0,0,0,0,0,-1,1861,883,235.886,-8.89566
644,141,235.866,8.74719,0,0,0,0,0,0,0,-1,1868,883,235.866,-8.74721
651,141,235.856,8.72504,0,0,0,0,0,0,0,-1,1875,883,235.856,-8.72506
658,141,235.831,8.71368,0,0,0,0,0,0,0,-1,1882,883,235.831,-8.71368
665,141,235.732,8.70795,0,0,0,0,0,0,0,-1,1889,883,235.732,-8.70793
672,141,235.751,8.7041,0,0,0,0,0,0,0,-1,1896,883,235.751,-8.7041
679,141,235.882,8.65076,0,0,0,0,0,0,0,-1,1903,883,235.882,-8.65076
686,141,189.992,7.97687,0,0,0,0,0,0,0,-1,1910,883,189.992,-7.97685
693,141,51.7202,1.76593,0,0,0,0,0,0,0,-1,1917,883,51.7202,-1.76595
700,141,62.7651,1.95361,0,0,0,0,0,0,0,-1,1924,883,62.7651,-1.95364
707,141,214.729,26.7035,0,0,0,0,0,0,0,-1,1931,883,214.729,-26.7035
714,141,221.09,27.9801,0,0,0,0,0,0,0,-1,1938,883,221.09,-27.9801
721,141,221.266,29.3165,-0.0080232,0.0210983,-0.00797618,0.0231398,-0.0100647,-1.32023,0.0196598,0.0283885,1945,883,221.266,-29.3165
728,141,221.267,30.8169,-0.0111066,0.026404,-0.0103073,0.0290497,-0.0137523,-1.31954,0.0252324,0.0216307,1952,883,221.267,-30.8169
735,141,221.024,32.4009,-0.0135991,0.0317361,-0.0125102,0.0349592,-0.0168221,-1.31865,0.0305011,0.0261211,1959,883,221.024,-32.4009
742,141,220.562,33.6068,-0.0154155,0.0371393,-0.0145189,0.0408836,-0.0191597,-1.31841,0.0354142,0.0275801,1966,883,220.562,-33.6068
749,141,220.325,34.8419,-0.0165081,0.0426634,-0.0162575,0.0468359,-0.0206807,-1.31956,0.0399438,0.0230237,1973,883,220.325,-34.8419
756,141,220.252,36.2672,-0.0168175,0.0483608,-0.0176818,0.0528486,-0.0213053,-1.32224,0.044085,0.0310501,1980,883,220.252,-36.2672
763,141,220.288,37.7964,0,0,0,0,0,0,0,-1,1987,883,220.288,-37.7965
770,141,144.087,31.3549,0,0,0,0,0,0,0,-1,1994,883,144.087,-31.3548
777,141,110.394,25.0393,0,0,0,0,0,0,0,-1,2001,883,110.394,-25.0393
784,141,73.3435,9.80182,0,0,0,0,0,0,0,-1,2008,883,73.3434,-9.80183
791,141,73.7993,11.1595,0,0,0,0,0,0,0,-1,2015,883,73.7994,-11.1595
798,141,0,0,0,0,0,0,0,0,0,-1,2022,883,0,0
805,141,0,0,0,0,0,0,0,0,0,-1,2029,883,0,0
812,141,0,0,0,0,0,0,0,0,0,-1,2036,883,0,0
-700,134,0,0,0,0,0,0,0,0,0,-1,524,890,0,0
-693,134,0,0,0,0,0,0,0,0,0,-1,531,890,0,0
-686,134,0,0,0,0,0,0,0,0,0,-1,538,890,0,0
-679,134,0,0,0,0,0,0,0,0,0,-1,545,890,0,0
-672,134,-49.3306,-0.500671,0,0,0,0,0,0,0,-1,552,890,-49.3306,0.500651
-665,134,-49.3356,-3.00098,0,0,0,0,0,0,0,-1,559,890,-49.3356,3.00096
-658,134,-49.3368,-5.46246,0,0,0,0,0,0,0,-1,566,890,-49.3368,5.46248
-651,134,-53.0905,0.530762,0,0,0,0,0,0,0,-1,573,890,-53.0905,-0.530792
-644,134,-51.8253,-1.26782,0,0,0,0,0,0,0,-1,580,890,-51.8253,1.26783
-637,134,-50.5067,-2.83545,0,0,0,0,0,0,0,-1,587,890,-50.5066,2.83545
-630,134,-182.257,36.1755,0,0,0,0,0,0,0,-1,594,890,-182.257,-36.1755
-623,134,-214.057,36.2536,0,0,0,0,0,0,0,-1,601,890,-214.057,-36.2536
-616,134,-214.512,35.0593,-0.0128848,0.0464948,0.0145955,0.0498884,-0.0162785,1.34234,0.0398104,0.0295447,608,890,-214.512,-35.0592
-609,134,-214.885,33.655,-0.0115438,0.0401745,0.0129587,0.0432398,-0.0146091,1.33852,0.0347358,0.0180159,615,890,-214.885,-33.655
-602,134,-215.07,32.1894,-0.010059,0.033789,0.0114366,0.0365926,-0.0128627,1.33039,0.0296284,0.0200702,622,890,-215.07,-32.1894
-595,134,-215.511,31.1177,0,0,0,0,0,0,0,-1,629,890,-215.511,-31.1177
-588,134,-215.68,29.3661,0,0,0,0,0,0,0,-1,636,890,-215.68,-29.3661
-581,134,-215.85,27.6145,0,0,0,0,0,0,0,-1,643,890,-215.85,-27.6145
-574,134,-31.1517,0.757751,0,0,0,0,0,0,0,-1,650,890,-31.1517,-0.757758
-567,134,-30.9003,0.296326,0,0,0,0,0,0,0,-1,657,890,-30.9002,-0.296302
-560,134,-22.9123,0.106567,0,0,0,0,0,0,0,-1,664,890,-22.9123,-0.106594
-553,134,-72.5416,0.452454,0,0,0,0,0,0,0,-1,671,890,-72.5416,-0.452462
-546,134,-72.5792,0.43927,0,0,0,0,0,0,0,-1,678,890,-72.5792,-0.439291
-539,134,-72.602,0.427246,0,0,0,0,0,0,0,-1,685,890,-72.602,-0.42724
-532,134,-72.6031,0.462463,0,0,0,0,0,0,0,-1,692,890,-72.6031,-0.462467
-525,134,-72.651,0.554382,0,0,0,0,0,0,0,-1,699,890,-72.651,-0.554408
-518,134,-72.6708,0.689209,0,0,0,0,0,0,0,-1,706,890,-72.6708,-0.689198
-511,134,-72.619,0.895386,0,0,0,0,0,0,0,-1,713,890,-72.619,-0.895374
-504,134,0,0,0,0,0,0,0,0,0,-1,720,890,0,0
-497,134,0,0,0,0,0,0,0,0,0,-1,727,890,0,0
-490,134,0,0,0,0,0,0,0,0,0,-1,734,890,0,0
-483,134,0,0,0,0,0,0,0,0,0,-1,741,890,0,0
-476,134,0,0,0,0,0,0,0,0,0,-1,748,890,0,0
-469,134,0,0,0,0,0,0,0,0,0,-1,755,890,0,0
-462,134,0,0,0,0,0,0,0,0,0,-1,762,890,0,0
-455,134,0,0,0,0,0,0,0,0,0,-1,769,890,0,0
-448,134,0,0,0,0,0,0,0,0,0,-1,776,890,0,0
-441,134,0,0,0,0,0,0,0,0,0,-1,783,890,0,0
-434,134,0,0,0,0,0,0,0,0,0,-1,790,890,0,0
-427,134,0,0,0,0,0,0,0,0,0,-1,797,890,0,0
-420,134,0,0,0,0,0,0,0,0,0,-1,804,890,0,0
-413,134,0,0,0,0,0,0,0,0,0,-1,811,890,0,0
-406,134,0,0,0,0,0,0,0,0,0,-1,818,890,0,0
-399,134,0,0,0,0,0,0,0,0,0,-1,825,890,0,0
-392,134,0,0,0,0,0,0,0,0,0,-1,832,890,0,0
-385,134,0,0,0,0,0,0,0,0,0,-1,839,890,0,0
-378,134,0,0,0,0,0,0,0,0,0,-1,846,890,0,0
-371,134,0,0,0,0,0,0,0,0,0,-1,853,890,0,0
-364,134,0,0,0,0,0,0,0,0,0,-1,860,890,0,0
-357,134,0,0,0,0,0,0,0,0,0,-1,867,890,0,0
-350,134,0,0,0,0,0,0,0,0,0,-1,874,890,0,0
-343,134,0,0,0,0,0,0,0,0,0,-1,881,890,0,0
-336,134,0,0,0,0,0,0,0,0,0,-1,888,890,0,0
-329,134,0,0,0,0,0,0,0,0,0,-1,895,890,0,0
-322,134,0,0,0,0,0,0,0,0,0,-1,902,890,0,0
-315,134,0,0,0,0,0,0,0,0,0,-1,909,890,0,0
-308,134,0,0,0,0,0,0,0,0,0,-1,916,890,0,0
-301,134,0,0,0,0,0,0,0,0,0,-1,923,890,0,0
-294,134,0,0,0,0,0,0,0,0,0,-1,930,890,0,0
-287,134,0,0,0,0,0,0,0,0,0,-1,937,890,0,0
-280,134,0,0,0,0,0,0,0,0,0,-1,944,890,0,0
-273,134,0,0,0,0,0,0,0,0,0,-1,951,890,0,0
-266,134,0,0,0,0,0,0,0,0,0,-1,958,890,0,0
-259,134,0,0,0,0,0,0,0,0,0,-1,965,890,0,0
-252,134,0,0,0,0,0,0,0,0,0,-1,972,890,0,0
-245,134,0,0,0,0,0,0,0,0,0,-1,979,890,0,0
-238,134,0,0,0,0,0,0,0,0,0,-1,986,890,0,0
-231,134,0,0,0,0,0,0,0,0,0,-1,993,890,0,0
-224,134,0,0,0,0,0,0,0,0,0,-1,1000,890,0,0
-217,134,0,0,0,0,0,0,0,0,0,-1,1007,890,0,0
-210,134,0,0,0,0,0,0,0,0,0,-1,1014,890,0,0
-203,134,0,0,0,0,0,0,0,0,0,-1,1021,890,0,0
-196,134,0,0,0,0,0,0,0,0,0,-1,1028,890,0,0
-189,134,0,0,0,0,0,0,0,0,0,-1,1035,890,0,0
-182,134,0,0,0,0,0,0,0,0,0,-1,1042,890,0,0
-175,134,0,0,0,0,0,0,0,0,0,-1,1049,890,0,0
-168,134,0,0,0,0,0,0,0,0,0,-1,1056,890,0,0
-161,134,0,0,0,0,0,0,0,0,0,-1,1063,890,0,0
-154,134,0,0,0,0,0,0,0,0,0,-1,1070,890,0,0
-147,134,0,0,0,0,0,0,0,0,0,-1,1077,890,0,0
-140,134,0,0,0,0,0,0,0,0,0,-1,1084,890,0,0
-133,134,0,0,0,0,0,0,0,0,0,-1,1091,890,0,0
-126,134,0,0,0,0,0,0,0,0,0,-1,1098,890,0,0
-119,134,0,0,0,0,0,0,0,0,0,-1,1105,890,0,0
-112,134,0,0,0,0,0,0,0,0,0,-1,1112,890,0,0
-105,134,0,0,0,0,0,0,0,0,0,-1,1119,890,0,0
-98,134,0,0,0,0,0,0,0,0,0,-1,1126,890,0,0
-91,134,0,0,0,0,0,0,0,0,0,-1,1133,890,0,0
-84,134,0,0,0,0,0,0,0,0,0,-1,1140,890,0,0
-77,134,0,0,0,0,0,0,0,0,0,-1,1147,890,0,0
-70,134,0,0,0,0,0,0,0,0,0,-1,1154,890,0,0
-63,134,0,0,0,0,0,0,0,0,0,-1,1161,890,0,0
-56,134,0,0,0,0,0,0,0,0,0,-1,1168,890,0,0
-49,134,0,0,0,0,0,0,0,0,0,-1,1175,890,0,0
-42,134,0,0,0,0,0,0,0,0,0,-1,1182,890,0,0
-35,134,0,0,0,0,0,0,0,0,0,-1,1189,890,0,0
-28,134,0,0,0,0,0,0,0,0,0,-1,1196,890,0,0
-21,134,0,0,0,0,0,0,0,0,0,-1,1203,890,0,0
-14,134,0,0,0,0,0,0,0,0,0,-1,1210,890,0,0
-7,134,0,0,0,0,0,0,0,0,0,-1,1217,890,0,0
0,134,0,0,0,0,0,0,0,0,0,-1,1224,890,0,0
7,134,0,0,0,0,0,0,0,0,0,-1,1231,890,0,0
14,134,0,0,0,0,0,0,0,0,0,-1,1238,890,0,0
21,134,0,0,0,0,0,0,0,0,0,-1,1245,890,0,0
28,134,0,0,0,0,0,0,0,0,0,-1,1252,890,0,0
35,134,0,0,0,0,0,0,0,0,0,-1,1259,890,0,0
42,134,0,0,0,0,0,0,0,0,0,-1,1266,890,0,0
49,134,0,0,0,0,0,0,0,0,0,-1,1273,890,0,0
56,134,0,0,0,0,0,0,0,0,0,-1,1280,890,0,0
63,134,0,0,0,0,0,0,0,0,0,-1,1287,890,0,0
70,134,0,0,0,0,0,0,0,0,0,-1,1294,890,0,0
77,134,0,0,0,0,0,0,0,0,0,-1,1301,890,0,0
84,134,0,0,0,0,0,0,0,0,0,-1,1308,890,0,0
91,134,0,0,0,0,0,0,0,0,0,-1,1315,890,0,0
98,134,0,0,0,0,0,0,0,0,0,-1,1322,890,0,0
105,134,0,0,0,0,0,0,0,0,0,-1,1329,890,0,0
112,134,0,0,0,0,0,0,0,0,0,-1,1336,890,0,0
119,134,0,0,0,0,0,0,0,0,0,-1,1343,890,0,0
126,134,0,0,0,0,0,0,0,0,0,-1,1350,890,0,0
133,134,0,0,0,0,0,0,0,0,0,-1,1357,890,0,0
140,134,0,0,0,0,0,0,0,0,0,-1,1364,890,0,0
147,134,0,0,0,0,0,0,0,0,0,-1,1371,890,0,0
154,134,0,0,0,0,0,0,0,0,0,-1,1378,890,0,0
161,134,0,0,0,0,0,0,0,0,0,-1,1385,890,0,0
168,134,0,0,0,0,0,0,0,0,0,-1,1392,890,0,0
175,134,0,0,0,0,0,0,0,0,0,-1,1399,890,0,0
182,134,0,0,0,0,0,0,0,0,0,-1,1406,890,0,0
189,134,0,0,0,0,0,0,0,0,0,-1,1413,890,0,0
196,134,0,0,0,0,0,0,0,0,0,-1,1420,890,0,0
203,134,0,0,0,0,0,0,0,0,0,-1,1427,890,0,0
210,134,0,0,0,0,0,0,0,0,0,-1,1434,890,0,0
217,134,0,0,0,0,0,0,0,0,0,-1,1441,890,0,0
224,134,0,0,0,0,0,0,0,0,0,-1,1448,890,0,0
231,134,0,0,0,0,0,0,0,0,0,-1,1455,890,0,0
238,134,0,0,0,0,0,0,0,0,0,-1,1462,890,0,0
245,134,0,0,0,0,0,0,0,0,0,-1,1469,890,0,0
252,134,0,0,0,0,0,0,0,0,0,-1,1476,890,0,0
259,134,0,0,0,0,0,0,0,0,0,-1,1483,890,0,0
266,134,0,0,0,0,0,0,0,0,0,-1,1490,890,0,0
273,134,0,0,0,0,0,0,0,0,0,-1,1497,890,0,0
280,134,0,0,0,0,0,0,0,0,0,-1,1504,890,0,0
287,134,0,0,0,0,0,0,0,0,0,-1,1511,890,0,0
294,134,0,0,0,0,0,0,0,0,0,-1,1518,890,0,0
301,134,0,0,0,0,0,0,0,0,0,-1,1525,890,0,0
308,134,0,0,0,0,0,0,0,0,0,-1,1532,890,0,0
315,134,0,0,0,0,0,0,0,0,0,-1,1539,890,0,0
322,134,0,0,0,0,0,0,0,0,0,-1,1546,890,0,0
329,134,0,0,0,0,0,0,0,0,0,-1,1553,890,0,0
336,134,0,0,0,0,0,0,0,0,0,-1,1560,890,0,0
343,134,0,0,0,0,0,0,0,0,0,-1,1567,890,0,0
350,134,0,0,0,0,0,0,0,0,0,-1,1574,890,0,0
357,134,0,0,0,0,0,0,0,0,0,-1,1581,890,0,0
364,134,0,0,0,0,0,0,0,0,0,-1,1588,890,0,0
371,134,0,0,0,0,0,0,0,0,0,-1,1595,890,0,0
378,134,0,0,0,0,0,0,0,0,0,-1,1602,890,0,0
385,134,0,0,0,0,0,0,0,0,0,-1,1609,890,0,0
392,134,0,0,0,0,0,0,0,0,0,-1,1616,890,0,0
399,134,0,0,0,0,0,0,0,0,0,-1,1623,890,0,0
406,134,0,0,0,0,0,0,0,0,0,-1,1630,890,0,0
413,134,0,0,0,0,0,0,0,0,0,-1,1637,890,0,0
420,134,0,0,0,0,0,0,0,0,0,-1,1644,890,0,0
427,134,0,0,0,0,0,0,0,0,0,-1,1651,890,0,0
434,134,0,0,0,0,0,0,0,0,0,-1,1658,890,0,0
441,134,0,0,0,0,0,0,0,0,0,-1,1665,890,0,0
448,134,0,0,0,0,0,0,0,0,0,-1,1672,890,0,0
455,134,0,0,0,0,0,0,0,0,0,-1,1679,890,0,0
462,134,0,0,0,0,0,0,0,0,0,-1,1686,890,0,0
469,134,0,0,0,0,0,0,0,0,0,-1,1693,890,0,0
476,134,0,0,0,0,0,0,0,0,0,-1,1700,890,0,0
483,134,0,0,0,0,0,0,0,0,0,-1,1707,890,0,0
490,134,0,0,0,0,0,0,0,0,0,-1,1714,890,0,0
497,134,0,0,0,0,0,0,0,0,0,-1,1721,890,0,0
504,134,0,0,0,0,0,0,0,0,0,-1,1728,890,0,0
511,134,0,0,0,0,0,0,0,0,0,-1,1735,890,0,0
518,134,0,0,0,0,0,0,0,0,0,-1,1742,890,0,0
525,134,0,0,0,0,0,0,0,0,0,-1,1749,890,0,0
532,134,0,0,0,0,0,0,0,0,0,-1,1756,890,0,0
539,134,0,0,0,0,0,0,0,0,0,-1,1763,890,0,0
546,134,0,0,0,0,0,0,0,0,0,-1,1770,890,0,0
553,134,0,0,0,0,0,0,0,0,0,-1,1777,890,0,0
560,134,0,0,0,0,0,0,0,0,0,-1,1784,890,0,0
567,134,0,0,0,0,0,0,0,0,0,-1,1791,890,0,0
574,134,0,0,0,0,0,0,0,0,0,-1,1798,890,0,0
581,134,0,0,0,0,0,0,0,0,0,-1,1805,890,0,0
588,134,0,0,0,0,0,0,0,0,0,-1,1812,890,0,0
595,134,0,0,0,0,0,0,0,0,0,-1,1819,890,0,0
602,134,0,0,0,0,0,0,0,0,0,-1,1826,890,0,0
609,134,0,0,0,0,0,0,0,0,0,-1,1833,890,0,0
616,134,0,0,0,0,0,0,0,0,0,-1,1840,890,0,0
623,134,235.898,9.16339,0,0,0,0,0,0,0,-1,1847,890,235.898,-9.16337
630,134,235.745,8.95612,0,0,0,0,0,0,0,-1,1854,890,235.745,-8.9561
637,134,235.888,9.08423,0,0,0,0,0,0,0,-1,1861,890,235.889,-9.08422
644,134,235.956,8.94128,0,0,0,0,0,0,0,-1,1868,890,235.956,-8.94131
651,134,235.846,8.8551,0,0,0,0,0,0,0,-1,1875,890,235.846,-8.85513
658,134,235.791,8.72363,0,0,0,0,0,0,0,-1,1882,890,235.791,-8.72362
665,134,235.774,8.49872,0,0,0,0,0,0,0,-1,1889,890,235.774,-8.49874
672,134,235.802,8.51831,0,0,0,0,0,0,0,-1,1896,890,235.802,-8.51832
679,134,235.842,8.58545,0,0,0,0,0,0,0,-1,1903,890,235.842,-8.58548
686,134,235.769,8.58417,0,0,0,0,0,0,0,-1,1910,890,235.769,-8.58414
693,134,34.5778,2.48096,0,0,0,0,0,0,0,-1,1917,890,34.5777,-2.48099
700,134,148.722,16.1923,0,0,0,0,0,0,0,-1,1924,890,148.722,-16.1923
707,134,222.363,26.4445,0,0,0,0,0,0,0,-1,1931,890,222.363,-26.4445
714,134,222.843,27.411,0,0,0,0,0,0,0,-1,1938,890,222.843,-27.411
721,134,222.95,29.104,-0.00886489,0.0188053,-0.00639979,0.0202138,-0.0102734,-1.35416,0.0179109,0.0303245,1945,890,222.95,-29.104
728,134,222.894,30.7018,-0.0114584,0.0241593,-0.0086086,0.0261309,-0.0134299,-1.34566,0.0232295,0.0279101,1952,890,222.894,-30.7018
735,134,222.614,32.3165,-0.0134276,0.029576,-0.0106618,0.0320743,-0.0159258,-1.34063,0.0282308,0.0382658,1959,890,222.614,-32.3165
742,134,222.229,33.5895,-0.0147405,0.0350896,-0.012495,0.0380472,-0.0176981,-1.33837,0.0328916,0.0245168,1966,890,222.229,-33.5895
749,134,222.032,34.7757,-0.0153726,0.040738,-0.0140497,0.0440594,-0.0186939,-1.33866,0.0372041,0.0185571,1973,890,222.032,-34.7757
756,134,221.856,36.0384,-0.0153031,0.0465633,-0.015272,0.0501278,-0.0188676,-1.34149,0.0411749,0.0229126,1980,890,221.856,-36.0384
763,134,221.67,37.4962,-0.0143578,0.0525673,-0.0162207,0.0562915,-0.018082,-1.34511,0.0447887,0.0440124,1987,890,221.67,-37.4962
770,134,221.412,38.9969,0,0,0,0,0,0,0,-1,1994,890,221.412,-38.9969
777,134,74.8572,9.58441,0,0,0,0,0,0,0,-1,2001,890,74.8572,-9.58442
784,134,75.1489,10.8398,0,0,0,0,0,0,0,-1,2008,890,75.1489,-10.8398
791,134,75.4202,12.0895,0,0,0,0,0,0,0,-1,2015,890,75.4202,-12.0896
798,134,0,0,0,0,0,0,0,0,0,-1,2022,890,0,0
805,134,0,0,0,0,0,0,0,0,0,-1,2029,890,0,0
812,134,0,0,0,0,0,0,0,0,0,-1,2036,890,0,0
-700,127,0,0,0,0,0,0,0,0,0,-1,524,897,0,0
-693,127,0,0,0,0,0,0,0,0,0,-1,531,897,0,0
-686,127,0,0,0,0,0,0,0,0,0,-1,538,897,0,0
-679,127,-52.0821,4.30957,0,0,0,0,0,0,0,-1,545,897,-52.0821,-4.30955
-672,127,-50.373,4.8219,0,0,0,0,0,0,0,-1,552,897,-50.373,-4.8219
-665,127,-49.6271,-2.44153,0,0,0,0,0,0,0,-1,559,897,-49.6271,2.44154
-658,127,-48.965,-4.18744,0,0,0,0,0,0,0,-1,566,897,-48.965,4.18745
-651,127,-52.9149,-0.455505,0,0,0,0,0,0,0,-1,573,897,-52.9149,0.455524
-644,127,-51.6913,-2.33765,0,0,0,0,0,0,0,-1,580,897,-51.6914,2.33763
-637,127,-50.3104,-4.18658,0,0,0,0,0,0,0,-1,587,897,-50.3104,4.18656
-630,127,-215.763,36.7645,0,0,0,0,0,0,0,-1,594,897,-215.763,-36.7645
-623,127,-215.88,35.9227,-0.0131468,0.0510146,0.0161535,0.054852,-0.0169842,1.33756,0.0433529,0.0368917,601,897,-215.88,-35.9227
-616,127,-216.099,34.8729,-0.01225,0.0445968,0.0140453,0.0478777,-0.0155308,1.34132,0.0381637,0.026488,608,897,-216.099,-34.8729
-609,127,-216.454,33.543,-0.0112418,0.0381637,0.0120707,0.0409551,-0.0140332,1.34354,0.0329915,0.0225615,615,897,-216.454,-33.543
-602,127,-216.645,32.1901,-0.0102485,0.0316918,0.0101972,0.0340397,-0.0125964,1.34449,0.0278579,0.0242659,622,897,-216.645,-32.19
-595,127,-217.17,31.1339,0,0,0,0,0,0,0,-1,629,897,-217.17,-31.1339
-588,127,-216.788,29.225,0,0,0,0,0,0,0,-1,636,897,-216.788,-29.225
-581,127,-216.405,27.3162,0,0,0,0,0,0,0,-1,643,897,-216.405,-27.3161
-574,127,-25.2603,0.511169,0,0,0,0,0,0,0,-1,650,897,-25.2603,-0.51117
-567,127,-24.5417,-0.0447388,0,0,0,0,0,0,0,-1,657,897,-24.5417,0.0447226
-560,127,-18.9678,1.21667,0,0,0,0,0,0,0,-1,664,897,-18.9677,-1.2167
-553,127,-72.5789,0.438843,0,0,0,0,0,0,0,-1,671,897,-72.5789,-0.438847
-546,127,-72.5634,0.41156,0,0,0,0,0,0,0,-1,678,897,-72.5634,-0.411548
-539,127,-72.5593,0.420044,0,0,0,0,0,0,0,-1,685,897,-72.5593,-0.420028
-532,127,-72.5491,0.465576,0,0,0,0,0,0,0,-1,692,897,-72.5491,-0.465589
-525,127,-72.5822,0.586487,0,0,0,0,0,0,0,-1,699,897,-72.5822,-0.586498
-518,127,-72.545,0.665894,0,0,0,0,0,0,0,-1,706,897,-72.5451,-0.665918
-511,127,-72.4194,0.653198,0,0,0,0,0,0,0,-1,713,897,-72.4195,-0.653199
-504,127,0,0,0,0,0,0,0,0,0,-1,720,897,0,0
-497,127,0,0,0,0,0,0,0,0,0,-1,727,897,0,0
-490,127,0,0,0,0,0,0,0,0,0,-1,734,897,0,0
-483,127,0,0,0,0,0,0,0,0,0,-1,741,897,0,0
-476,127,0,0,0,0,0,0,0,0,0,-1,748,897,0,0
-469,127,0,0,0,0,0,0,0,0,0,-1,755,897,0,0
-462,127,0,0,0,0,0,0,0,0,0,-1,762,897,0,0
-455,127,0,0,0,0,0,0,0,0,0,-1,769,897,0,0
-448,127,0,0,0,0,0,0,0,0,0,-1,776,897,0,0
-441,127,0,0,0,0,0,0,0,0,0,-1,783,897,0,0
-434,127,0,0,0,0,0,0,0,0,0,-1,790,897,0,0
-427,127,0,0,0,0,0,0,0,0,0,-1,797,897,0,0
-420,127,0,0,0,0,0,0,0,0,0,-1,804,897,0,0
-413,127,0,0,0,0,0,0,0,0,0,-1,811,897,0,0
-406,127,0,0,0,0,0,0,0,0,0,-1,818,897,0,0
-399,127,0,0,0,0,0,0,0,0,0,-1,825,897,0,0
-392,127,0,0,0,0,0,0,0,0,0,-1,832,897,0,0
-385,127,0,0,0,0,0,0,0,0,0,-1,839,897,0,0
-378,127,0,0,0,0,0,0,0,0,0,-1,846,897,0,0
-371,127,0,0,0,0,0,0,0,0,0,-1,853,897,0,0
-364,127,0,0,0,0,0,0,0,0,0,-1,860,897,0,0
-357,127,0,0,0,0,0,0,0,0,0,-1,867,897,0,0
-350,127,0,0,0,0,0,0,0,0,0,-1,874,897,0,0
-343,127,0,0,0,0,0,0,0,0,0,-1,881,897,0,0
-336,127,0,0,0,0,0,0,0,0,0,-1,888,897,0,0
-329,127,0,0,0,0,0,0,0,0,0,-1,895,897,0,0
-322,127,0,0,0,0,0,0,0,0,0,-1,902,897,0,0
-315,127,0,0,0,0,0,0,0,0,0,-1,909,897,0,0
-308,127,0,0,0,0,0,0,0,0,0,-1,916,897,0,0
-301,127,0,0,0,0,0,0,0,0,0,-1,923,897,0,0
-294,127,0,0,0,0,0,0,0,0,0,-1,930,897,0,0
-287,127,0,0,0,0,0,0,0,0,0,-1,937,897,0,0
-280,127,0,0,0,0,0,0,0,0,0,-1,944,897,0,0
-273,127,0,0,0,0,0,0,0,0,0,-1,951,897,0,0
-266,127,0,0,0,0,0,0,0,0,0,-1,958,897,0,0
-259,127,0,0,0,0,0,0,0,0,0,-1,965,897,0,0
-252,127,0,0,0,0,0,0,0,0,0,-1,972,897,0,0
-245,127,0,0,0,0,0,0,0,0,0,-1,979,897,0,0
-238,127,0,0,0,0,0,0,0,0,0,-1,986,897,0,0
-231,127,0,0,0,0,0,0,0,0,0,-1,993,897,0,0
-224,127,0,0,0,0,0,0,0,0,0,-1,1000,897,0,0
-217,127,0,0,0,0,0,0,0,0,0,-1,1007,897,0,0
-210,127,0,0,0,0,0,0,0,0,0,-1,1014,897,0,0
-203,127,0,0,0,0,0,0,0,0,0,-1,1021,897,0,0
-196,127,0,0,0,0,0,0,0,0,0,-1,1028,897,0,0
-189,127,0,0,0,0,0,0,0,0,0,-1,1035,897,0,0
-182,127,0,0,0,0,0,0,0,0,0,-1,1042,897,0,0
-175,127,0,0,0,0,0,0,0,0,0,-1,1049,897,0,0
-168,127,0,0,0,0,0,0,0,0,0,-1,1056,897,0,0
-161,127,0,0,0,0,0,0,0,0,0,-1,1063,897,0,0
-154,127,0,0,0,0,0,0,0,0,0,-1,1070,897,0,0
-147,127,0,0,0,0,0,0,0,0,0,-1,1077,897,0,0
-140,127,0,0,0,0,0,0,0,0,0,-1,1084,897,0,0
-133,127,0,0,0,0,0,0,0,0,0,-1,1091,897,0,0
-126,127,0,0,0,0,0,0,0,0,0,-1,1098,897,0,0
-119,127,0,0,0,0,0,0,0,0,0,-1,1105,897,0,0
-112,127,0,0,0,0,0,0,0,0,0,-1,1112,897,0,0
-105,127,0,0,0,0,0,0,0,0,0,-1,1119,897,0,0
-98,127,0,0,0,0,0,0,0,0,0,-1,1126,897,0,0
-91,127,0,0,0,0,0,0,0,0,0,-1,1133,897,0,0
-84,127,0,0,0,0,0,0,0,0,0,-1,1140,897,0,0
-77,127,0,0,0,0,0,0,0,0,0,-1,1147,897,0,0
-70,127,0,0,0,0,0,0,0,0,0,-1,1154,897,0,0
-63,127,0,0,0,0,0,0,0,0,0,-1,1161,897,0,0
-56,127,0,0,0,0,0,0,0,0,0,-1,1168,897,0,0
-49,127,0,0,0,0,0,0,0,0,0,-1,1175,897,0,0
-42,127,0,0,0,0,0,0,0,0,0,-1,1182,897,0,0
-35,127,0,0,0,0,0,0,0,0,0,-1,1189,897,0,0
-28,127,0,0,0,0,0,0,0,0,0,-1,1196,897,0,0
-21,127,0,0,0,0,0,0,0,0,0,-1,1203,897,0,0
-14,127,0,0,0,0,0,0,0,0,0,-1,1210,897,0,0
-7,127,0,0,0,0,0,0,0,0,0,-1,1217,897,0,0
0,127,0,0,0,0,0,0,0,0,0,-1,1224,897,0,0
7,127,0,0,0,0,0,0,0,0,0,-1,1231,897,0,0
14,127,0,0,0,0,0,0,0,0,0,-1,1238,897,0,0
21,127,0,0,0,0,0,0,0,0,0,-1,1245,897,0,0
28,127,0,0,0,0,0,0,0,0,0,-1,1252,897,0,0
35,127,0,0,0,0,0,0,0,0,0,-1,1259,897,0,0
42,127,0,0,0,0,0,0,0,0,0,-1,1266,897,0,0
49,127,0,0,0,0,0,0,0,0,0,-1,1273,897,0,0
56,127,0,0,0,0,0,0,0,0,0,-1,1280,897,0,0
63,127,0,0,0,0,0,0,0,0,0,-1,1287,897,0,0
70,127,0,0,0,0,0,0,0,0,0,-1,1294,897,0,0
77,127,0,0,0,0,0,0,0,0,0,-1,1301,897,0,0
84,127,0,0,0,0,0,0,0,0,0,-1,1308,897,0,0
91,127,0,0,0,0,0,0,0,0,0,-1,1315,897,0,0
98,127,0,0,0,0,0,0,0,0,0,-1,1322,897,0,0
105,127,0,0,0,0,0,0,0,0,0,-1,1329,897,0,0
112,127,0,0,0,0,0,0,0,0,0,-1,1336,897,0,0
119,127,0,0,0,0,0,0,0,0,0,-1,1343,897,0,0
126,127,0,0,0,0,0,0,0,0,0,-1,1350,897,0,0
133,127,0,0,0,0,0,0,0,0,0,-1,1357,897,0,0
140,127,0,0,0,0,0,0,0,0,0,-1,1364,897,0,0
147,127,0,0,0,0,0,0,0,0,0,-1,1371,897,0,0
154,127,0,0,0,0,0,0,0,0,0,-1,1378,897,0,0
161,127,0,0,0,0,0,0,0,0,0,-1,1385,897,0,0
168,127,0,0,0,0,0,0,0,0,0,-1,1392,897,0,0
175,127,0,0,0,0,0,0,0,0,0,-1,1399,897,0,0
182,127,0,0,0,0,0,0,0,0,0,-1,1406,897,0,0
189,127,0,0,0,0,0,0,0,0,0,-1,1413,897,0,0
196,127,0,0,0,0,0,0,0,0,0,-1,1420,897,0,0
203,127,0,0,0,0,0,0,0,0,0,-1,1427,897,0,0
210,127,0,0,0,0,0,0,0,0,0,-1,1434,897,0,0
217,127,0,0,0,0,0,0,0,0,0,-1,1441,897,0,0
224,127,0,0,0,0,0,0,0,0,0,-1,1448,897,0,0
231,127,0,0,0,0,0,0,0,0,0,-1,1455,897,0,0
238,127,0,0,0,0,0,0,0,0,0,-1,1462,897,0,0
245,127,0,0,0,0,0,0,0,0,0,-1,1469,897,0,0
252,127,0,0,0,0,0,0,0,0,0,-1,1476,897,0,0
259,127,0,0,0,0,0,0,0,0,0,-1,1483,897,0,0
266,127,0,0,0,0,0,0,0,0,0,-1,1490,897,0,0
273,127,0,0,0,0,0,0,0,0,0,-1,1497,897,0,0
280,127,0,0,0,0,0,0,0,0,0,-1,1504,897,0,0
287,127,0,0,0,0,0,0,0,0,0,-1,1511,897,0,0
294,127,0,0,0,0,0,0,0,0,0,-1,1518,897,0,0
301,127,0,0,0,0,0,0,0,0,0,-1,1525,897,0,0
308,127,0,0,0,0,0,0,0,0,0,-1,1532,897,0,0
315,127,0,0,0,0,0,0,0,0,0,-1,1539,897,0,0
322,127,0,0,0,0,0,0,0,0,0,-1,1546,897,0,0
329,127,0,0,0,0,0,0,0,0,0,-1,1553,897,0,0
336,127,0,0,0,0,0,0,0,0,0,-1,1560,897,0,0
343,127,0,0,0,0,0,0,0,0,0,-1,1567,897,0,0
350,127,0,0,0,0,0,0,0,0,0,-1,1574,897,0,0
357,127,0,0,0,0,0,0,0,0,0,-1,1581,897,0,0
364,127,0,0,0,0,0,0,0,0,0,-1,1588,897,0,0
371,127,0,0,0,0,0,0,0,0,0,-1,1595,897,0,0
378,127,0,0,0,0,0,0,0,0,0,-1,1602,897,0,0
385,127,0,0,0,0,0,0,0,0,0,-1,1609,897,0,0
392,127,0,0,0,0,0,0,0,0,0,-1,1616,897,0,0
399,127,0,0,0,0,0,0,0,0,0,-1,1623,897,0,0
406,127,0,0,0,0,0,0,0,0,0,-1,1630,897,0,0
413,127,0,0,0,0,0,0,0,0,0,-1,1637,897,0,0
420,127,0,0,0,0,0,0,0,0,0,-1,1644,897,0,0
427,127,0,0,0,0,0,0,0,0,0,-1,1651,897,0,0
434,127,0,0,0,0,0,0,0,0,0,-1,1658,897,0,0
441,127,0,0,0,0,0,0,0,0,0,-1,1665,897,0,0
448,127,0,0,0,0,0,0,0,0,0,-1,1672,897,0,0
455,127,0,0,0,0,0,0,0,0,0,-1,1679,897,0,0
462,127,0,0,0,0,0,0,0,0,0,-1,1686,897,0,0
469,127,0,0,0,0,0,0,0,0,0,-1,1693,897,0,0
476,127,0,0,0,0,0,0,0,0,0,-1,1700,897,0,0
483,127,0,0,0,0,0,0,0,0,0,-1,1707,897,0,0
490,127,0,0,0,0,0,0,0,0,0,-1,1714,897,0,0
497,127,0,0,0,0,0,0,0,0,0,-1,1721,897,0,0
504,127,0,0,0,0,0,0,0,0,0,-1,1728,897,0,0
511,127,0,0,0,0,0,0,0,0,0,-1,1735,897,0,0
518,127,0,0,0,0,0,0,0,0,0,-1,1742,897,0,0
525,127,0,0,0,0,0,0,0,0,0,-1,1749,897,0,0
532,127,0,0,0,0,0,0,0,0,0,-1,1756,897,0,0
539,127,0,0,0,0,0,0,0,0,0,-1,1763,897,0,0
546,127,0,0,0,0,0,0,0,0,0,-1,1770,897,0,0
553,127,0,0,0,0,0,0,0,0,0,-1,1777,897,0,0
560,127,0,0,0,0,0,0,0,0,0,-1,1784,897,0,0
567,127,0,0,0,0,0,0,0,0,0,-1,1791,897,0,0
574,127,0,0,0,0,0,0,0,0,0,-1,1798,897,0,0
581,127,0,0,0,0,0,0,0,0,0,-1,1805,897,0,0
588,127,0,0,0,0,0,0,0,0,0,-1,1812,897,0,0
595,127,0,0,0,0,0,0,0,0,0,-1,1819,897,0,0
602,127,0,0,0,0,0,0,0,0,0,-1,1826,897,0,0
609,127,0,0,0,0,0,0,0,0,0,-1,1833,897,0,0
616,127,0,0,0,0,0,0,0,0,0,-1,1840,897,0,0
623,127,0,0,0,0,0,0,0,0,0,-1,1847,897,0,0
630,127,235.654,8.93854,0,0,0,0,0,0,0,-1,1854,897,235.654,-8.93851
637,127,235.755,8.93744,0,0,0,0,0,0,0,-1,1861,897,235.755,-8.93742
644,127,235.906,8.77209,0,0,0,0,0,0,0,-1,1868,897,235.906,-8.77212
651,127,235.799,8.62347,0,0,0,0,0,0,0,-1,1875,897,235.799,-8.62349
658,127,235.766,8.62225,0,0,0,0,0,0,0,-1,1882,897,235.766,-8.62223
665,127,235.817,8.52307,0,0,0,0,0,0,0,-1,1889,897,235.817,-8.52306
672,127,235.716,8.52789,0,0,0,0,0,0,0,-1,1896,897,235.716,-8.52789
679,127,235.801,8.58997,0,0,0,0,0,0,0,-1,1903,897,235.801,-8.58994
686,127,235.799,8.67474,0,0,0,0,0,0,0,-1,1910,897,235.799,-8.67477
693,127,235.737,8.64319,0,0,0,0,0,0,0,-1,1917,897,235.737,-8.64318
700,127,145.75,15.071,0,0,0,0,0,0,0,-1,1924,897,145.749,-15.071
707,127,224.961,25.881,0,0,0,0,0,0,0,-1,1931,897,224.961,-25.881
714,127,224.884,27.6448,0,0,0,0,0,0,0,-1,1938,897,224.884,-27.6448
721,127,224.657,29.3215,-0.0104118,0.0164763,-0.00469476,0.0172725,-0.0112079,-1.40281,0.0165669,0.0312001,1945,897,224.657,-29.3215
728,127,224.39,30.7542,-0.0121064,0.021913,-0.00697307,0.0232868,-0.0134802,-1.37627,0.0214776,0.0313922,1952,897,224.39,-30.7542
735,127,224.07,32.138,-0.0133397,0.027465,-0.00902378,0.0293715,-0.0152462,-1.36258,0.0261868,0.0335188,1959,897,224.07,-32.138
742,127,223.79,33.4628,-0.0140723,0.0331563,-0.0108013,0.0355093,-0.0164253,-1.3563,0.0306518,0.0281968,1966,897,223.79,-33.4628
749,127,223.566,34.687,-0.0142666,0.0390144,-0.0122629,0.0417013,-0.0169534,-1.3551,0.0348546,0.0185678,1973,897,223.567,-34.687
756,127,223.362,35.8833,-0.0138855,0.0450708,-0.0133673,0.0479601,-0.0167747,-1.35793,0.0387933,0.0243431,1980,897,223.362,-35.8833
763,127,223.197,37.1612,-0.0128683,0.0513425,-0.0141233,0.0543117,-0.0158374,-1.36358,0.0424826,0.0346943,1987,897,223.197,-37.1612
770,127,223.246,38.4672,0,0,0,0,0,0,0,-1,1994,897,223.246,-38.4671
777,127,76.3003,10.8735,0,0,0,0,0,0,0,-1,2001,897,76.3003,-10.8735
784,127,78.9905,10.8276,0,0,0,0,0,0,0,-1,2008,897,78.9905,-10.8276
791,127,76.7629,12.9143,0,0,0,0,0,0,0,-1,2015,897,76.763,-12.9143
798,127,0,0,0,0,0,0,0,0,0,-1,2022,897,0,0
805,127,0,0,0,0,0,0,0,0,0,-1,2029,897,0,0
812,127,0,0,0,0,0,0,0,0,0,-1,2036,897,0,0
-700,120,0,0,0,0,0,0,0,0,0,-1,524,904,0,0
-693,120,0,0,0,0,0,0,0,0,0,-1,531,904,0,0
-686,120,0,0,0,0,0,0,0,0,0,-1,538,904,0,0
-679,120,-52.0888,4.76025,0,0,0,0,0,0,0,-1,545,904,-52.0888,-4.76024
-672,120,-51.1454,5.42755,0,0,0,0,0,0,0,-1,552,904,-51.1454,-5.42753
-665,120,-50.2376,-2.67987,0,0,0,0,0,0,0,-1,559,904,-50.2376,2.67988
-658,120,-54.6443,7.5307,0,0,0,0,0,0,0,-1,566,904,-54.6443,-7.53071
-651,120,-52.9452,-1.22644,0,0,0,0,0,0,0,-1,573,904,-52.9452,1.22647
-644,120,-51.6526,-3.15863,0,0,0,0,0,0,0,-1,580,904,-51.6526,3.15864
-637,120,-63.5991,12.2592,0,0,0,0,0,0,0,-1,587,904,-63.5991,-12.2592
-630,120,-217.353,36.9272,0,0,0,0,0,0,0,-1,594,904,-217.353,-36.9272
-623,120,-217.483,35.7742,-0.012631,0.0491109,0.0155685,0.0528144,-0.0163346,1.33725,0.041734,0.027874,601,904,-217.483,-35.7741
-616,120,-217.673,34.6193,-0.0117145,0.042618,0.0132972,0.0456977,-0.0147943,1.3432,0.0364126,0.0188789,608,904,-217.673,-34.6193
-609,120,-217.918,33.4029,-0.0109092,0.0360837,0.011033,0.0385451,-0.0133706,1.3513,0.031126,0.0192628,615,904,-217.918,-33.4029
-602,120,-218.125,32.1174,-0.0102443,0.0295205,0.0087872,0.0313757,-0.0120995,1.36272,0.0259098,0.0217713,622,904,-218.125,-32.1174
-595,120,-218.212,30.8334,-0.0097487,0.0229409,0.00656918,0.0242116,-0.0110194,1.37972,0.0208106,0.0352447,629,904,-218.212,-30.8334
-588,120,-218.176,28.9868,0,0,0,0,0,0,0,-1,636,904,-218.176,-28.9868
-581,120,-218.891,28.4629,0,0,0,0,0,0,0,-1,643,904,-218.891,-28.4629
-574,120,-27.5438,0.505066,0,0,0,0,0,0,0,-1,650,904,-27.5438,-0.505085
-567,120,-25.2822,-0.410645,0,0,0,0,0,0,0,-1,657,904,-25.2821,0.410629
-560,120,-27.3358,1.10327,0,0,0,0,0,0,0,-1,664,904,-27.3358,-1.10324
-553,120,-72.493,0.529297,0,0,0,0,0,0,0,-1,671,904,-72.493,-0.529275
-546,120,-72.4564,0.473267,0,0,0,0,0,0,0,-1,678,904,-72.4564,-0.47327
-539,120,-72.4779,0.478088,0,0,0,0,0,0,0,-1,685,904,-72.4779,-0.478083
-532,120,-72.5178,0.429443,0,0,0,0,0,0,0,-1,692,904,-72.5178,-0.429422
-525,120,-72.5717,0.447632,0,0,0,0,0,0,0,-1,699,904,-72.5716,-0.447629
-518,120,-72.5829,0.531921,0,0,0,0,0,0,0,-1,706,904,-72.5829,-0.531914
-511,120,-72.8918,0.68634,0,0,0,0,0,0,0,-1,713,904,-72.8918,-0.686362
-504,120,0,0,0,0,0,0,0,0,0,-1,720,904,0,0
-497,120,0,0,0,0,0,0,0,0,0,-1,727,904,0,0
-490,120,0,0,0,0,0,0,0,0,0,-1,734,904,0,0
-483,120,0,0,0,0,0,0,0,0,0,-1,741,904,0,0
-476,120,0,0,0,0,0,0,0,0,0,-1,748,904,0,0
-469,120,0,0,0,0,0,0,0,0,0,-1,755,904,0,0
-462,120,0,0,0,0,0,0,0,0,0,-1,762,904,0,0
-455,120,0,0,0,0,0,0,0,0,0,-1,769,904,0,0
-448,120,0,0,0,0,0,0,0,0,0,-1,776,904,0,0
-441,120,0,0,0,0,0,0,0,0,0,-1,783,904,0,0
-434,120,0,0,0,0,0,0,0,0,0,-1,790,904,0,0
-427,120,0,0,0,0,0,0,0,0,0,-1,797,904,0,0
-420,120,0,0,0,0,0,0,0,0,0,-1,804,904,0,0
-413,120,0,0,0,0,0,0,0,0,0,-1,811,904,0,0
-406,120,0,0,0,0,0,0,0,0,0,-1,818,904,0,0
-399,120,0,0,0,0,0,0,0,0,0,-1,825,904,0,0
-392,120,0,0,0,0,0,0,0,0,0,-1,832,904,0,0
-385,120,0,0,0,0,0,0,0,0,0,-1,839,904,0,0
-378,120,0,0,0,0,0,0,0,0,0,-1,846,904,0,0
-371,120,0,0,0,0,0,0,0,0,0,-1,853,904,0,0
-364,120,0,0,0,0,0,0,0,0,0,-1,860,904,0,0
-357,120,0,0,0,0,0,0,0,0,0,-1,867,904,0,0
-350,120,0,0,0,0,0,0,0,0,0,-1,874,904,0,0
-343,120,0,0,0,0,0,0,0,0,0,-1,881,904,0,0
-336,120,0,0,0,0,0,0,0,0,0,-1,888,904,0,0
-329,120,0,0,0,0,0,0,0,0,0,-1,895,904,0,0
-322,120,0,0,0,0,0,0,0,0,0,-1,902,904,0,0
-315,120,0,0,0,0,0,0,0,0,0,-1,909,904,0,0
-308,120,0,0,0,0,0,0,0,0,0,-1,916,904,0,0
-301,120,0,0,0,0,0,0,0,0,0,-1,923,904,0,0
-294,120,0,0,0,0,0,0,0,0,0,-1,930,904,0,0
-287,120,0,0,0,0,0,0,0,0,0,-1,937,904,0,0
-280,120,0,0,0,0,0,0,0,0,0,-1,944,904,0,0
-273,120,0,0,0,0,0,0,0,0,0,-1,951,904,0,0
-266,120,0,0,0,0,0,0,0,0,0,-1,958,904,0,0
-259,120,0,0,0,0,0,0,0,0,0,-1,965,904,0,0
-252,120,0,0,0,0,0,0,0,0,0,-1,972,904,0,0
-245,120,0,0,0,0,0,0,0,0,0,-1,979,904,0,0
-238,120,0,0,0,0,0,0,0,0,0,-1,986,904,0,0
-231,120,0,0,0,0,0,0,0,0,0,-1,993,904,0,0
-224,120,0,0,0,0,0,0,0,0,0,-1,1000,904,0,0
-217,120,0,0,0,0,0,0,0,0,0,-1,1007,904,0,0
-210,120,0,0,0,0,0,0,0,0,0,-1,1014,904,0,0
-203,120,0,0,0,0,0,0,0,0,0,-1,1021,904,0,0
-196,120,0,0,0,0,0,0,0,0,0,-1,1028,904,0,0
-189,120,0,0,0,0,0,0,0,0,0,-1,1035,904,0,0
-182,120,0,0,0,0,0,0,0,0,0,-1,1042,904,0,0
-175,120,0,0,0,0,0,0,0,0,0,-1,1049,904,0,0
-168,120,0,0,0,0,0,0,0,0,0,-1,1056,904,0,0
-161,120,0,0,0,0,0,0,0,0,0,-1,1063,904,0,0
-154,120,0,0,0,0,0,0,0,0,0,-1,1070,904,0,0
-147,120,0,0,0,0,0,0,0,0,0,-1,1077,904,0,0
-140,120,0,0,0,0,0,0,0,0,0,-1,1084,904,0,0
-133,120,0,0,0,0,0,0,0,0,0,-1,1091,904,0,0
-126,120,0,0,0,0,0,0,0,0,0,-1,1098,904,0,0
-119,120,0,0,0,0,0,0,0,0,0,-1,1105,904,0,0
-112,120,0,0,0,0,0,0,0,0,0,-1,1112,904,0,0
-105,120,0,0,0,0,0,0,0,0,0,-1,1119,904,0,0
-98,120,0,0,0,0,0,0,0,0,0,-1,1126,904,0,0
-91,120,0,0,0,0,0,0,0,0,0,-1,1133,904,0,0
-84,120,0,0,0,0,0,0,0,0,0,-1,1140,904,0,0
-77,120,0,0,0,0,0,0,0,0,0,-1,1147,904,0,0
-70,120,0,0,0,0,0,0,0,0,0,-1,1154,904,0,0
-63,120,0,0,0,0,0,0,0,0,0,-1,1161,904,0,0
-56,120,0,0,0,0,0,0,0,0,0,-1,1168,904,0,0
-49,120,0,0,0,0,0,0,0,0,0,-1,1175,904,0,0
-42,120,0,0,0,0,0,0,0,0,0,-1,1182,904,0,0
-35,120,0,0,0,0,0,0,0,0,0,-1,1189,904,0,0
-28,120,0,0,0,0,0,0,0,0,0,-1,1196,904,0,0
-21,120,0,0,0,0,0,0,0,0,0,-1,1203,904,0,0
-14,120,0,0,0,0,0,0,0,0,0,-1,1210,904,0,0
-7,120,0,0,0,0,0,0,0,0,0,-1,1217,904,0,0
0,120,0,0,0,0,0,0,0,0,0,-1,1224,904,0,0
7,120,0,0,0,0,0,0,0,0,0,-1,1231,904,0,0
14,120,0,0,0,0,0,0,0,0,0,-1,1238,904,0,0
21,120,0,0,0,0,0,0,0,0,0,-1,1245,904,0,0
28,120,0,0,0,0,0,0,0,0,0,-1,1252,904,0,0
35,120,0,0,0,0,0,0,0,0,0,-1,1259,904,0,0
42,120,0,0,0,0,0,0,0,0,0,-1,1266,904,0,0
49,120,0,0,0,0,0,0,0,0,0,-1,1273,904,0,0
56,120,0,0,0,0,0,0,0,0,0,-1,1280,904,0,0
63,120,0,0,0,0,0,0,0,0,0,-1,1287,904,0,0
70,120,0,0,0,0,0,0,0,0,0,-1,1294,904,0,0
77,120,0,0,0,0,0,0,0,0,0,-1,1301,904,0,0
84,120,0,0,0,0,0,0,0,0,0,-1,1308,904,0,0
91,120,0,0,0,0,0,0,0,0,0,-1,1315,904,0,0
98,120,0,0,0,0,0,0,0,0,0,-1,1322,904,0,0
105,120,0,0,0,0,0,0,0,0,0,-1,1329,904,0,0
112,120,0,0,0,0,0,0,0,0,0,-1,1336,904,0,0
119,120,0,0,0,0,0,0,0,0,0,-1,1343,904,0,0
126,120,0,0,0,0,0,0,0,0,0,-1,1350,904,0,0
133,120,0,0,0,0,0,0,0,0,0,-1,1357,904,0,0
140,120,0,0,0,0,0,0,0,0,0,-1,1364,904,0,0
147,120,0,0,0,0,0,0,0,0,0,-1,1371,904,0,0
154,120,0,0,0,0,0,0,0,0,0,-1,1378,904,0,0
161,120,0,0,0,0,0,0,0,0,0,-1,1385,904,0,0
168,120,0,0,0,0,0,0,0,0,0,-1,1392,904,0,0
175,120,0,0,0,0,0,0,0,0,0,-1,1399,904,0,0
182,120,0,0,0,0,0,0,0,0,0,-1,1406,904,0,0
189,120,0,0,0,0,0,0,0,0,0,-1,1413,904,0,0
196,120,0,0,0,0,0,0,0,0,0,-1,1420,904,0,0
203,120,0,0,0,0,0,0,0,0,0,-1,1427,904,0,0
210,120,0,0,0,0,0,0,0,0,0,-1,1434,904,0,0
217,120,0,0,0,0,0,0,0,0,0,-1,1441,904,0,0
224,120,0,0,0,0,0,0,0,0,0,-1,1448,904,0,0
231,120,0,0,0,0,0,0,0,0,0,-1,1455,904,0,0
238,120,0,0,0,0,0,0,0,0,0,-1,1462,904,0,0
245,120,0,0,0,0,0,0,0,0,0,-1,1469,904,0,0
252,120,0,0,0,0,0,0,0,0,0,-1,1476,904,0,0
259,120,0,0,0,0,0,0,0,0,0,-1,1483,904,0,0
266,120,0,0,0,0,0,0,0,0,0,-1,1490,904,0,0
273,120,0,0,0,0,0,0,0,0,0,-1,1497,904,0,0
280,120,0,0,0,0,0,0,0,0,0,-1,1504,904,0,0
287,120,0,0,0,0,0,0,0,0,0,-1,1511,904,0,0
294,120,0,0,0,0,0,0,0,0,0,-1,1518,904,0,0
301,120,0,0,0,0,0,0,0,0,0,-1,1525,904,0,0
308,120,0,0,0,0,0,0,0,0,0,-1,1532,904,0,0
315,120,0,0,0,0,0,0,0,0,0,-1,1539,904,0,0
322,120,0,0,0,0,0,0,0,0,0,-1,1546,904,0,0
329,120,0,0,0,0,0,0,0,0,0,-1,1553,904,0,0
336,120,0,0,0,0,0,0,0,0,0,-1,1560,904,0,0
343,120,0,0,0,0,0,0,0,0,0,-1,1567,904,0,0
350,120,0,0,0,0,0,0,0,0,0,-1,1574,904,0,0
357,120,0,0,0,0,0,0,0,0,0,-1,1581,904,0,0
364,120,0,0,0,0,0,0,0,0,0,-1,1588,904,0,0
371,120,0,0,0,0,0,0,0,0,0,-1,1595,904,0,0
378,120,0,0,0,0,0,0,0,0,0,-1,1602,904,0,0
385,120,0,0,0,0,0,0,0,0,0,-1,1609,904,0,0
392,120,0,0,0,0,0,0,0,0,0,-1,1616,904,0,0
399,120,0,0,0,0,0,0,0,0,0,-1,1623,904,0,0
406,120,0,0,0,0,0,0,0,0,0,-1,1630,904,0,0
413,120,0,0,0,0,0,0,0,0,0,-1,1637,904,0,0
420,120,0,0,0,0,0,0,0,0,0,-1,1644,904,0,0
427,120,0,0,0,0,0,0,0,0,0,-1,1651,904,0,0
434,120,0,0,0,0,0,0,0,0,0,-1,1658,904,0,0
441,120,0,0,0,0,0,0,0,0,0,-1,1665,904,0,0
448,120,0,0,0,0,0,0,0,0,0,-1,1672,904,0,0
455,120,0,0,0,0,0,0,0,0,0,-1,1679,904,0,0
462,120,0,0,0,0,0,0,0,0,0,-1,1686,904,0,0
469,120,0,0,0,0,0,0,0,0,0,-1,1693,904,0,0
476,120,0,0,0,0,0,0,0,0,0,-1,1700,904,0,0
483,120,0,0,0,0,0,0,0,0,0,-1,1707,904,0,0
490,120,0,0,0,0,0,0,0,0,0,-1,1714,904,0,0
497,120,0,0,0,0,0,0,0,0,0,-1,1721,904,0,0
504,120,0,0,0,0,0,0,0,0,0,-1,1728,904,0,0
511,120,0,0,0,0,0,0,0,0,0,-1,1735,904,0,0
518,120,0,0,0,0,0,0,0,0,0,-1,1742,904,0,0
525,120,0,0,0,0,0,0,0,0,0,-1,1749,904,0,0
532,120,0,0,0,0,0,0,0,0,0,-1,1756,904,0,0
539,120,0,0,0,0,0,0,0,0,0,-1,1763,904,0,0
546,120,0,0,0,0,0,0,0,0,0,-1,1770,904,0,0
553,120,0,0,0,0,0,0,0,0,0,-1,1777,904,0,0
560,120,0,0,0,0,0,0,0,0,0,-1,1784,904,0,0
567,120,0,0,0,0,0,0,0,0,0,-1,1791,904,0,0
574,120,0,0,0,0,0,0,0,0,0,-1,1798,904,0,0
581,120,0,0,0,0,0,0,0,0,0,-1,1805,904,0,0
588,120,0,0,0,0,0,0,0,0,0,-1,1812,904,0,0
595,120,0,0,0,0,0,0,0,0,0,-1,1819,904,0,0
602,120,0,0,0,0,0,0,0,0,0,-1,1826,904,0,0
609,120,0,0,0,0,0,0,0,0,0,-1,1833,904,0,0
616,120,0,0,0,0,0,0,0,0,0,-1,1840,904,0,0
623,120,0,0,0,0,0,0,0,0,0,-1,1847,904,0,0
630,120,235.645,8.94116,0,0,0,0,0,0,0,-1,1854,904,235.645,-8.94116
637,120,235.744,8.89258,0,0,0,0,0,0,0,-1,1861,904,235.744,-8.89259
644,120,235.803,8.63904,0,0,0,0,0,0,0,-1,1868,904,235.803,-8.63904
651,120,235.677,8.63898,0,0,0,0,0,0,0,-1,1875,904,235.677,-8.63895
658,120,235.599,8.62189,0,0,0,0,0,0,0,-1,1882,904,235.599,-8.62189
665,120,235.707,8.66156,0,0,0,0,0,0,0,-1,1889,904,235.707,-8.66156
672,120,235.691,8.60345,0,0,0,0,0,0,0,-1,1896,904,235.691,-8.60344
679,120,235.762,8.57813,0,0,0,0,0,0,0,-1,1903,904,235.762,-8.57815
686,120,235.791,8.61804,0,0,0,0,0,0,0,-1,1910,904,235.791,-8.61802
693,120,235.868,8.64612,0,0,0,0,0,0,0,-1,1917,904,235.868,-8.64614
700,120,42.2007,3.00946,0,0,0,0,0,0,0,-1,1924,904,42.2007,-3.00944
707,120,226.191,26.9536,0,0,0,0,0,0,0,-1,1931,904,226.191,-26.9535
714,120,226.925,27.8787,0,0,0,0,0,0,0,-1,1938,904,226.925,-27.8787
721,120,226.055,29.6492,-0.0108701,0.0141438,-0.00336861,0.0145895,-0.0113158,-1.43925,0.0149962,0.032803,1945,904,226.055,-29.6492
728,120,225.689,30.8549,-0.0121188,0.0196404,-0.00569444,0.0206306,-0.0131089,-1.39864,0.0196402,0.0231691,1952,904,225.69,-30.8549
735,120,225.499,32.1114,-0.0130357,0.0253269,-0.0077275,0.0268249,-0.0145338,-1.37931,0.0242274,0.0222431,1959,904,225.499,-32.1114
742,120,225.254,33.3638,-0.0135792,0.0312108,-0.00944401,0.0331207,-0.015489,-1.37126,0.0286736,0.0217132,1966,904,225.254,-33.3638
749,120,225.036,34.6169,-0.0137046,0.0373052,-0.0108176,0.0395044,-0.0159039,-1.37023,0.0329431,0.0156121,1973,904,225.036,-34.6169
756,120,224.704,35.8744,-0.013364,0.0436272,-0.0118192,0.0459811,-0.0157179,-1.37421,0.0370228,0.0260775,1980,904,224.704,-35.8744
763,120,224.439,36.9831,-0.0125061,0.0501986,-0.0124175,0.0525681,-0.0148756,-1.38224,0.0409155,0.0499153,1987,904,224.439,-36.9831
770,120,224.352,38.1058,0,0,0,0,0,0,0,-1,1994,904,224.352,-38.1058
777,120,77.7629,11.9034,0,0,0,0,0,0,0,-1,2001,904,77.763,-11.9034
784,120,78.0063,12.8853,0,0,0,0,0,0,0,-1,2008,904,78.0063,-12.8852
791,120,78.2561,13.8319,0,0,0,0,0,0,0,-1,2015,904,78.2561,-13.8319
798,120,78.5127,14.8143,0,0,0,0,0,0,0,-1,2022,904,78.5128,-14.8143
805,120,0,0,0,0,0,0,0,0,0,-1,2029,904,0,0
812,120,0,0,0,0,0,0,0,0,0,-1,2036,904,0,0
-700,113,0,0,0,0,0,0,0,0,0,-1,524,911,0,0
-693,113,0,0,0,0,0,0,0,0,0,-1,531,911,0,0
-686,113,0,0,0,0,0,0,0,0,0,-1,538,911,0,0
-679,113,-55.9637,4.78546,0,0,0,0,0,0,0,-1,545,911,-55.9637,-4.78548
-672,113,-52.5881,5.49811,0,0,0,0,0,0,0,-1,552,911,-52.5881,-5.49808
-665,113,-56.8114,7.23682,0,0,0,0,0,0,0,-1,559,911,-56.8114,-7.23679
-658,113,-54.1535,7.58624,0,0,0,0,0,0,0,-1,566,911,-54.1535,-7.58627
-651,113,-53.3762,7.8313,0,0,0,0,0,0,0,-1,573,911,-53.3762,-7.8313
-644,113,-48.5211,7.83691,0,0,0,0,0,0,0,-1,580,911,-48.5211,-7.83694
-637,113,-218.973,37.8374,0,0,0,0,0,0,0,-1,587,911,-218.973,-37.8374
-630,113,-218.988,36.7977,-0.0134824,0.0541258,0.0171061,0.0582076,-0.0175641,1.33656,0.0457966,0.0353324,594,911,-218.988,-36.7977
-623,113,-219.051,35.6226,-0.0123901,0.0474312,0.0147867,0.0508866,-0.0158455,1.34123,0.0402594,0.0213474,601,911,-219.051,-35.6226
-616,113,-219.201,34.4743,-0.0113579,0.0407045,0.012431,0.0435204,-0.0141737,1.34804,0.0347164,0.0155927,608,911,-219.201,-34.4743
-609,113,-219.36,33.3171,-0.0104142,0.0339555,0.0100487,0.0361252,-0.0125839,1.35814,0.0291965,0.0164271,615,911,-219.36,-33.3171
-602,113,-219.562,32.0863,-0.00958915,0.0271949,0.0076474,0.0287215,-0.0111157,1.37377,0.0237369,0.0253766,622,911,-219.562,-32.0863
-595,113,-219.764,30.954,-0.00891399,0.0204344,0.00523313,0.0213396,-0.00981919,1.39952,0.0183948,0.0335156,629,911,-219.764,-30.954
-588,113,-219.819,29.6015,0,0,0,0,0,0,0,-1,636,911,-219.819,-29.6015
-581,113,-220.094,28.3223,0,0,0,0,0,0,0,-1,643,911,-220.094,-28.3223
-574,113,-220.442,26.7778,0,0,0,0,0,0,0,-1,650,911,-220.442,-26.7778
-567,113,-21.8396,0.437378,0,0,0,0,0,0,0,-1,657,911,-21.8396,-0.437351
-560,113,-72.5729,0.38501,0,0,0,0,0,0,0,-1,664,911,-72.5729,-0.385037
-553,113,-72.5334,0.569885,0,0,0,0,0,0,0,-1,671,911,-72.5334,-0.5699
-546,113,-72.5052,0.60083,0,0,0,0,0,0,0,-1,678,911,-72.5052,-0.60083
-539,113,-72.4194,0.534973,0,0,0,0,0,0,0,-1,685,911,-72.4194,-0.534962
-532,113,-72.4289,0.388855,0,0,0,0,0,0,0,-1,692,911,-72.4289,-0.388827
-525,113,-72.5496,0.299011,0,0,0,0,0,0,0,-1,699,911,-72.5496,-0.299028
-518,113,-72.7172,0.401367,0,0,0,0,0,0,0,-1,706,911,-72.7172,-0.401357
-511,113,-72.8064,0.46875,0,0,0,0,0,0,0,-1,713,911,-72.8064,-0.468774
-504,113,0,0,0,0,0,0,0,0,0,-1,720,911,0,0
-497,113,0,0,0,0,0,0,0,0,0,-1,727,911,0,0
-490,113,0,0,0,0,0,0,0,0,0,-1,734,911,0,0
-483,113,0,0,0,0,0,0,0,0,0,-1,741,911,0,0
-476,113,0,0,0,0,0,0,0,0,0,-1,748,911,0,0
-469,113,0,0,0,0,0,0,0,0,0,-1,755,911,0,0
-462,113,0,0,0,0,0,0,0,0,0,-1,762,911,0,0
-455,113,0,0,0,0,0,0,0,0,0,-1,769,911,0,0
-448,113,0,0,0,0,0,0,0,0,0,-1,776,911,0,0
-441,113,0,0,0,0,0,0,0,0,0,-1,783,911,0,0
-434,113,0,0,0,0,0,0,0,0,0,-1,790,911,0,0
-427,113,0,0,0,0,0,0,0,0,0,-1,797,911,0,0
-420,113,0,0,0,0,0,0,0,0,0,-1,804,911,0,0
-413,113,0,0,0,0,0,0,0,0,0,-1,811,911,0,0
-406,113,0,0,0,0,0,0,0,0,0,-1,818,911,0,0
-399,113,0,0,0,0,0,0,0,0,0,-1,825,911,0,0
-392,113,0,0,0,0,0,0,0,0,0,-1,832,911,0,0
-385,113,0,0,0,0,0,0,0,0,0,-1,839,911,0,0
-378,113,0,0,0,0,0,0,0,0,0,-1,846,911,0,0
-371,113,0,0,0,0,0,0,0,0,0,-1,853,911,0,0
-364,113,0,0,0,0,0,0,0,0,0,-1,860,911,0,0
-357,113,0,0,0,0,0,0,0,0,0,-1,867,911,0,0
-350,113,0,0,0,0,0,0,0,0,0,-1,874,911,0,0
-343,113,0,0,0,0,0,0,0,0,0,-1,881,911,0,0
-336,113,0,0,0,0,0,0,0,0,0,-1,888,911,0,0
-329,113,0,0,0,0,0,0,0,0,0,-1,895,911,0,0
-322,113,0,0,0,0,0,0,0,0,0,-1,902,911,0,0
-315,113,0,0,0,0,0,0,0,0,0,-1,909,911,0,0
-308,113,0,0,0,0,0,0,0,0,0,-1,916,911,0,0
-301,113,0,0,0,0,0,0,0,0,0,-1,923,911,0,0
-294,113,0,0,0,0,0,0,0,0,0,-1,930,911,0,0
-287,113,0,0,0,0,0,0,0,0,0,-1,937,911,0,0
-280,113,0,0,0,0,0,0,0,0,0,-1,944,911,0,0
-273,113,0,0,0,0,0,0,0,0,0,-1,951,911,0,0
-266,113,0,0,0,0,0,0,0,0,0,-1,958,911,0,0
-259,113,0,0,0,0,0,0,0,0,0,-1,965,911,0,0
-252,113,0,0,0,0,0,0,0,0,0,-1,972,911,0,0
-245,113,0,0,0,0,0,0,0,0,0,-1,979,911,0,0
-238,113,0,0,0,0,0,0,0,0,0,-1,986,911,0,0
-231,113,0,0,0,0,0,0,0,0,0,-1,993,911,0,0
-224,113,0,0,0,0,0,0,0,0,0,-1,1000,911,0,0
-217,113,0,0,0,0,0,0,0,0,0,-1,1007,911,0,0
-210,113,0,0,0,0,0,0,0,0,0,-1,1014,911,0,0
-203,113,0,0,0,0,0,0,0,0,0,-1,1021,911,0,0
-196,113,0,0,0,0,0,0,0,0,0,-1,1028,911,0,0
-189,113,0,0,0,0,0,0,0,0,0,-1,1035,911,0,0
-182,113,0,0,0,0,0,0,0,0,0,-1,1042,911,0,0
-175,113,0,0,0,0,0,0,0,0,0,-1,1049,911,0,0
-168,113,0,0,0,0,0,0,0,0,0,-1,1056,911,0,0
-161,113,0,0,0,0,0,0,0,0,0,-1,1063,911,0,0
-154,113,0,0,0,0,0,0,0,0,0,-1,1070,911,0,0
-147,113,0,0,0,0,0,0,0,0,0,-1,1077,911,0,0
-140,113,0,0,0,0,0,0,0,0,0,-1,1084,911,0,0
-133,113,0,0,0,0,0,0,0,0,0,-1,1091,911,0,0
-126,113,0,0,0,0,0,0,0,0,0,-1,1098,911,0,0
-119,113,0,0,0,0,0,0,0,0,0,-1,1105,911,0,0
-112,113,0,0,0,0,0,0,0,0,0,-1,1112,911,0,0
-105,113,0,0,0,0,0,0,0,0,0,-1,1119,911,0,0
-98,113,0,0,0,0,0,0,0,0,0,-1,1126,911,0,0
-91,113,0,0,0,0,0,0,0,0,0,-1,1133,911,0,0
-84,113,0,0,0,0,0,0,0,0,0,-1,1140,911,0,0
-77,113,0,0,0,0,0,0,0,0,0,-1,1147,911,0,0
-70,113,0,0,0,0,0,0,0,0,0,-1,1154,911,0,0
-63,113,0,0,0,0,0,0,0,0,0,-1,1161,911,0,0
-56,113,0,0,0,0,0,0,0,0,0,-1,1168,911,0,0
-49,113,0,0,0,0,0,0,0,0,0,-1,1175,911,0,0
-42,113,0,0,0,0,0,0,0,0,0,-1,1182,911,0,0
-35,113,0,0,0,0,0,0,0,0,0,-1,1189,911,0,0
-28,113,0,0,0,0,0,0,0,0,0,-1,1196,911,0,0
-21,113,0,0,0,0,0,0,0,0,0,-1,1203,911,0,0
-14,113,0,0,0,0,0,0,0,0,0,-1,1210,911,0,0
-7,113,0,0,0,0,0,0,0,0,0,-1,1217,911,0,0
0,113,0,0,0,0,0,0,0,0,0,-1,1224,911,0,0
7,113,0,0,0,0,0,0,0,0,0,-1,1231,911,0,0
14,113,0,0,0,0,0,0,0,0,0,-1,1238,911,0,0
21,113,0,0,0,0,0,0,0,0,0,-1,1245,911,0,0
28,113,0,0,0,0,0,0,0,0,0,-1,1252,911,0,0
35,113,0,0,0,0,0,0,0,0,0,-1,1259,911,0,0
42,113,0,0,0,0,0,0,0,0,0,-1,1266,911,0,0
49,113,0,0,0,0,0,0,0,0,0,-1,1273,911,0,0
56,113,0,0,0,0,0,0,0,0,0,-1,1280,911,0,0
63,113,0,0,0,0,0,0,0,0,0,-1,1287,911,0,0
70,113,0,0,0,0,0,0,0,0,0,-1,1294,911,0,0
77,113,0,0,0,0,0,0,0,0,0,-1,1301,911,0,0
84,113,0,0,0,0,0,0,0,0,0,-1,1308,911,0,0
91,113,0,0,0,0,0,0,0,0,0,-1,1315,911,0,0
98,113,0,0,0,0,0,0,0,0,0,-1,1322,911,0,0
105,113,0,0,0,0,0,0,0,0,0,-1,1329,911,0,0
112,113,0,0,0,0,0,0,0,0,0,-1,1336,911,0,0
119,113,0,0,0,0,0,0,0,0,0,-1,1343,911,0,0
126,113,0,0,0,0,0,0,0,0,0,-1,1350,911,0,0
133,113,0,0,0,0,0,0,0,0,0,-1,1357,911,0,0
140,113,0,0,0,0,0,0,0,0,0,-1,1364,911,0,0
147,113,0,0,0,0,0,0,0,0,0,-1,1371,911,0,0
154,113,0,0,0,0,0,0,0,0,0,-1,1378,911,0,0
161,113,0,0,0,0,0,0,0,0,0,-1,1385,911,0,0
168,113,0,0,0,0,0,0,0,0,0,-1,1392,911,0,0
175,113,0,0,0,0,0,0,0,0,0,-1,1399,911,0,0
182,113,0,0,0,0,0,0,0,0,0,-1,1406,911,0,0
189,113,0,0,0,0,0,0,0,0,0,-1,1413,911,0,0
196,113,0,0,0,0,0,0,0,0,0,-1,1420,911,0,0
203,113,0,0,0,0,0,0,0,0,0,-1,1427,911,0,0
210,113,0,0,0,0,0,0,0,0,0,-1,1434,911,0,0
217,113,0,0,0,0,0,0,0,0,0,-1,1441,911,0,0
224,113,0,0,0,0,0,0,0,0,0,-1,1448,911,0,0
231,113,0,0,0,0,0,0,0,0,0,-1,1455,911,0,0
238,113,0,0,0,0,0,0,0,0,0,-1,1462,911,0,0
245,113,0,0,0,0,0,0,0,0,0,-1,1469,911,0,0
252,113,0,0,0,0,0,0,0,0,0,-1,1476,911,0,0
259,113,0,0,0,0,0,0,0,0,0,-1,1483,911,0,0
266,113,0,0,0,0,0,0,0,0,0,-1,1490,911,0,0
273,113,0,0,0,0,0,0,0,0,0,-1,1497,911,0,0
280,113,0,0,0,0,0,0,0,0,0,-1,1504,911,0,0
287,113,0,0,0,0,0,0,0,0,0,-1,1511,911,0,0
294,113,0,0,0,0,0,0,0,0,0,-1,1518,911,0,0
301,113,0,0,0,0,0,0,0,0,0,-1,1525,911,0,0
308,113,0,0,0,0,0,0,0,0,0,-1,1532,911,0,0
315,113,0,0,0,0,0,0,0,0,0,-1,1539,911,0,0
322,113,0,0,0,0,0,0,0,0,0,-1,1546,911,0,0
329,113,0,0,0,0,0,0,0,0,0,-1,1553,911,0,0
336,113,0,0,0,0,0,0,0,0,0,-1,1560,911,0,0
343,113,0,0,0,0,0,0,0,0,0,-1,1567,911,0,0
350,113,0,0,0,0,0,0,0,0,0,-1,1574,911,0,0
357,113,0,0,0,0,0,0,0,0,0,-1,1581,911,0,0
364,113,0,0,0,0,0,0,0,0,0,-1,1588,911,0,0
371,113,0,0,0,0,0,0,0,0,0,-1,1595,911,0,0
378,113,0,0,0,0,0,0,0,0,0,-1,1602,911,0,0
385,113,0,0,0,0,0,0,0,0,0,-1,1609,911,0,0
392,113,0,0,0,0,0,0,0,0,0,-1,1616,911,0,0
399,113,0,0,0,0,0,0,0,0,0,-1,1623,911,0,0
406,113,0,0,0,0,0,0,0,0,0,-1,1630,911,0,0
413,113,0,0,0,0,0,0,0,0,0,-1,1637,911,0,0
420,113,0,0,0,0,0,0,0,0,0,-1,1644,911,0,0
427,113,0,0,0,0,0,0,0,0,0,-1,1651,911,0,0
434,113,0,0,0,0,0,0,0,0,0,-1,1658,911,0,0
441,113,0,0,0,0,0,0,0,0,0,-1,1665,911,0,0
448,113,0,0,0,0,0,0,0,0,0,-1,1672,911,0,0
455,113,0,0,0,0,0,0,0,0,0,-1,1679,911,0,0
462,113,0,0,0,0,0,0,0,0,0,-1,1686,911,0,0
469,113,0,0,0,0,0,0,0,0,0,-1,1693,911,0,0
476,113,0,0,0,0,0,0,0,0,0,-1,1700,911,0,0
483,113,0,0,0,0,0,0,0,0,0,-1,1707,911,0,0
490,113,0,0,0,0,0,0,0,0,0,-1,1714,911,0,0
497,113,0,0,0,0,0,0,0,0,0,-1,1721,911,0,0
504,113,0,0,0,0,0,0,0,0,0,-1,1728,911,0,0
511,113,0,0,0,0,0,0,0,0,0,-1,1735,911,0,0
518,113,0,0,0,0,0,0,0,0,0,-1,1742,911,0,0
525,113,0,0,0,0,0,0,0,0,0,-1,1749,911,0,0
532,113,0,0,0,0,0,0,0,0,0,-1,1756,911,0,0
539,113,0,0,0,0,0,0,0,0,0,-1,1763,911,0,0
546,113,0,0,0,0,0,0,0,0,0,-1,1770,911,0,0
553,113,0,0,0,0,0,0,0,0,0,-1,1777,911,0,0
560,113,0,0,0,0,0,0,0,0,0,-1,1784,911,0,0
567,113,0,0,0,0,0,0,0,0,0,-1,1791,911,0,0
574,113,0,0,0,0,0,0,0,0,0,-1,1798,911,0,0
581,113,0,0,0,0,0,0,0,0,0,-1,1805,911,0,0
588,113,0,0,0,0,0,0,0,0,0,-1,1812,911,0,0
595,113,0,0,0,0,0,0,0,0,0,-1,1819,911,0,0
602,113,0,0,0,0,0,0,0,0,0,-1,1826,911,0,0
609,113,0,0,0,0,0,0,0,0,0,-1,1833,911,0,0
616,113,0,0,0,0,0,0,0,0,0,-1,1840,911,0,0
623,113,0,0,0,0,0,0,0,0,0,-1,1847,911,0,0
630,113,235.754,8.78925,0,0,0,0,0,0,0,-1,1854,911,235.754,-8.78925
637,113,235.822,8.91766,0,0,0,0,0,0,0,-1,1861,911,235.822,-8.91765
644,113,235.832,8.81372,0,0,0,0,0,0,0,-1,1868,911,235.832,-8.8137
651,113,235.751,8.73688,0,0,0,0,0,0,0,-1,1875,911,235.751,-8.73686
658,113,235.74,8.59418,0,0,0,0,0,0,0,-1,1882,911,235.74,-8.59417
665,113,235.738,8.67401,0,0,0,0,0,0,0,-1,1889,911,235.738,-8.67399
672,113,235.697,8.72815,0,0,0,0,0,0,0,-1,1896,911,235.697,-8.72812
679,113,235.709,8.59302,0,0,0,0,0,0,0,-1,1903,911,235.709,-8.59301
686,113,235.835,8.54364,0,0,0,0,0,0,0,-1,1910,911,235.835,-8.54362
693,113,235.829,8.52002,0,0,0,0,0,0,0,-1,1917,911,235.829,-8.52001
700,113,43.897,2.79669,0,0,0,0,0,0,0,-1,1924,911,43.897,-2.79671
707,113,227.584,26.8167,0,0,0,0,0,0,0,-1,1931,911,227.584,-26.8167
714,113,227.539,28.2615,-0.00991841,0.00685431,0.000403504,0.00686402,-0.00992811,1.54676,0.00974859,0.0286198,1938,911,227.539,-28.2615
721,113,227.316,29.5782,-0.0115604,0.0118123,-0.00259486,0.0120969,-0.011845,-1.46155,0.0138231,0.0307598,1945,911,227.316,-29.5783
728,113,227.026,30.8328,-0.0123969,0.0175137,-0.00483784,0.0182767,-0.01316,-1.41437,0.0182299,0.0282358,1952,911,227.026,-30.8328
735,113,226.893,32.0344,-0.0131133,0.0233357,-0.00677792,0.0245553,-0.0143329,-1.39277,0.0227092,0.0244206,1959,911,226.893,-32.0345
742,113,226.655,33.2382,-0.0135977,0.0293241,-0.00841057,0.0309133,-0.0151869,-1.38404,0.0271273,0.0185176,1966,911,226.654,-33.2382
749,113,226.492,34.5054,-0.013802,0.0354798,-0.00971017,0.037324,-0.0156463,-1.38311,0.0314245,0.0158344,1973,911,226.492,-34.5054
756,113,226.166,35.7806,-0.013678,0.0418066,-0.010649,0.0437802,-0.0156516,-1.38754,0.035571,0.027081,1980,911,226.166,-35.7806
763,113,225.813,37.3154,0,0,0,0,0,0,0,-1,1987,911,225.813,-37.3154
770,113,211.768,38.637,0,0,0,0,0,0,0,-1,1994,911,211.768,-38.6369
777,113,58.1719,9.65338,0,0,0,0,0,0,0,-1,2001,911,58.172,-9.6534
784,113,79.3757,13.6559,0,0,0,0,0,0,0,-1,2008,911,79.3756,-13.6559
791,113,74.5583,10.0654,0,0,0,0,0,0,0,-1,2015,911,74.5583,-10.0654
798,113,74.8208,11.6051,0,0,0,0,0,0,0,-1,2022,911,74.8207,-11.6051
805,113,0,0,0,0,0,0,0,0,0,-1,2029,911,0,0
812,113,0,0,0,0,0,0,0,0,0,-1,2036,911,0,0
-700,106,0,0,0,0,0,0,0,0,0,-1,524,918,0,0
-693,106,0,0,0,0,0,0,0,0,0,-1,531,918,0,0
-686,106,0,0,0,0,0,0,0,0,0,-1,538,918,0,0
-679,106,-60.4137,10.3801,0,0,0,0,0,0,0,-1,545,918,-60.4137,-10.3802
-672,106,-59.9378,11.2709,0,0,0,0,0,0,0,-1,552,918,-59.9378,-11.271
-665,106,-53.5263,9.70886,0,0,0,0,0,0,0,-1,559,918,-53.5263,-9.70888
-658,106,-53.7712,10.2163,0,0,0,0,0,0,0,-1,566,918,-53.7712,-10.2163
-651,106,-52.8008,8.01733,0,0,0,0,0,0,0,-1,573,918,-52.8008,-8.01734
-644,106,-64.0154,12.8989,0,0,0,0,0,0,0,-1,580,918,-64.0155,-12.8989
-637,106,-220.241,37.4604,0,0,0,0,0,0,0,-1,587,918,-220.241,-37.4604
-630,106,-220.308,36.4714,-0.0117296,0.0527109,0.0154745,0.0562342,-0.015253,1.34693,0.0434751,0.0284318,594,918,-220.308,-36.4714
-623,106,-220.502,35.3984,-0.0110329,0.0457774,0.0134654,0.0488074,-0.014063,1.34946,0.0381011,0.0262172,601,918,-220.502,-35.3984
-616,106,-220.663,34.2989,-0.0102325,0.038869,0.0113212,0.0413536,-0.0127171,1.35476,0.0326445,0.02426,608,918,-220.663,-34.2989
-609,106,-220.75,33.2216,-0.00938373,0.0319886,0.00907125,0.0338901,-0.0112853,1.36416,0.0271486,0.0189886,615,918,-220.75,-33.2216
-602,106,-220.887,32.0032,-0.00853815,0.025141,0.0067385,0.0264392,-0.00983635,1.38048,0.0216626,0.0248369,622,918,-220.887,-32.0032
-595,106,-221.198,30.8353,-0.00774509,0.0183332,0.00434078,0.0190367,-0.00844864,1.41011,0.0162564,0.0319064,629,918,-221.198,-30.8353
-588,106,-221.465,29.6179,0,0,0,0,0,0,0,-1,636,918,-221.465,-29.6179
-581,106,-221.381,28.2352,0,0,0,0,0,0,0,-1,643,918,-221.381,-28.2352
-574,106,-221.819,26.9436,0,0,0,0,0,0,0,-1,650,918,-221.819,-26.9436
-567,106,-41.3706,0.420776,0,0,0,0,0,0,0,-1,657,918,-41.3706,-0.420794
-560,106,-72.5184,0.346619,0,0,0,0,0,0,0,-1,664,918,-72.5184,-0.346624
-553,106,-72.5411,0.640625,0,0,0,0,0,0,0,-1,671,918,-72.5411,-0.640601
-546,106,-72.6151,0.578125,0,0,0,0,0,0,0,-1,678,918,-72.6151,-0.578127
-539,106,-72.566,0.447876,0,0,0,0,0,0,0,-1,685,918,-72.566,-0.4479
-532,106,-72.3527,0.214966,0,0,0,0,0,0,0,-1,692,918,-72.3527,-0.214992
-525,106,-72.5553,0.141418,0,0,0,0,0,0,0,-1,699,918,-72.5553,-0.141448
-518,106,-72.6719,0.387268,0,0,0,0,0,0,0,-1,706,918,-72.672,-0.387285
-511,106,0,0,0,0,0,0,0,0,0,-1,713,918,0,0
-504,106,0,0,0,0,0,0,0,0,0,-1,720,918,0,0
-497,106,0,0,0,0,0,0,0,0,0,-1,727,918,0,0
-490,106,0,0,0,0,0,0,0,0,0,-1,734,918,0,0
-483,106,0,0,0,0,0,0,0,0,0,-1,741,918,0,0
-476,106,0,0,0,0,0,0,0,0,0,-1,748,918,0,0
-469,106,0,0,0,0,0,0,0,0,0,-1,755,918,0,0
-462,106,0,0,0,0,0,0,0,0,0,-1,762,918,0,0
-455,106,0,0,0,0,0,0,0,0,0,-1,769,918,0,0
-448,106,0,0,0,0,0,0,0,0,0,-1,776,918,0,0
-441,106,0,0,0,0,0,0,0,0,0,-1,783,918,0,0
-434,106,0,0,0,0,0,0,0,0,0,-1,790,918,0,0
-427,106,0,0,0,0,0,0,0,0,0,-1,797,918,0,0
-420,106,0,0,0,0,0,0,0,0,0,-1,804,918,0,0
-413,106,0,0,0,0,0,0,0,0,0,-1,811,918,0,0
-406,106,0,0,0,0,0,0,0,0,0,-1,818,918,0,0
-399,106,0,0,0,0,0,0,0,0,0,-1,825,918,0,0
-392,106,0,0,0,0,0,0,0,0,0,-1,832,918,0,0
-385,106,0,0,0,0,0,0,0,0,0,-1,839,918,0,0
-378,106,0,0,0,0,0,0,0,0,0,-1,846,918,0,0
-371,106,0,0,0,0,0,0,0,0,0,-1,853,918,0,0
-364,106,0,0,0,0,0,0,0,0,0,-1,860,918,0,0
-357,106,0,0,0,0,0,0,0,0,0,-1,867,918,0,0
-350,106,0,0,0,0,0,0,0,0,0,-1,874,918,0,0
-343,106,0,0,0,0,0,0,0,0,0,-1,881,918,0,0
-336,106,0,0,0,0,0,0,0,0,0,-1,888,918,0,0
-329,106,0,0,0,0,0,0,0,0,0,-1,895,918,0,0
-322,106,0,0,0,0,0,0,0,0,0,-1,902,918,0,0
-315,106,0,0,0,0,0,0,0,0,0,-1,909,918,0,0
-308,106,0,0,0,0,0,0,0,0,0,-1,916,918,0,0
-301,106,0,0,0,0,0,0,0,0,0,-1,923,918,0,0
-294,106,0,0,0,0,0,0,0,0,0,-1,930,918,0,0
-287,106,0,0,0,0,0,0,0,0,0,-1,937,918,0,0
-280,106,0,0,0,0,0,0,0,0,0,-1,944,918,0,0
-273,106,0,0,0,0,0,0,0,0,0,-1,951,918,0,0
-266,106,0,0,0,0,0,0,0,0,0,-1,958,918,0,0
-259,106,0,0,0,0,0,0,0,0,0,-1,965,918,0,0
-252,106,0,0,0,0,0,0,0,0,0,-1,972,918,0,0
-245,106,0,0,0,0,0,0,0,0,0,-1,979,918,0,0
-238,106,0,0,0,0,0,0,0,0,0,-1,986,918,0,0
-231,106,0,0,0,0,0,0,0,0,0,-1,993,918,0,0
-224,106,0,0,0,0,0,0,0,0,0,-1,1000,918,0,0
-217,106,0,0,0,0,0,0,0,0,0,-1,1007,918,0,0
-210,106,0,0,0,0,0,0,0,0,0,-1,1014,918,0,0
-203,106,0,0,0,0,0,0,0,0,0,-1,1021,918,0,0
-196,106,0,0,0,0,0,0,0,0,0,-1,1028,918,0,0
-189,106,0,0,0,0,0,0,0,0,0,-1,1035,918,0,0
-182,106,0,0,0,0,0,0,0,0,0,-1,1042,918,0,0
-175,106,0,0,0,0,0,0,0,0,0,-1,1049,918,0,0
-168,106,0,0,0,0,0,0,0,0,0,-1,1056,918,0,0
-161,106,0,0,0,0,0,0,0,0,0,-1,1063,918,0,0
-154,106,0,0,0,0,0,0,0,0,0,-1,1070,918,0,0
-147,106,0,0,0,0,0,0,0,0,0,-1,1077,918,0,0
-140,106,0,0,0,0,0,0,0,0,0,-1,1084,918,0,0
-133,106,0,0,0,0,0,0,0,0,0,-1,1091,918,0,0
-126,106,0,0,0,0,0,0,0,0,0,-1,1098,918,0,0
-119,106,0,0,0,0,0,0,0,0,0,-1,1105,918,0,0
-112,106,0,0,0,0,0,0,0,0,0,-1,1112,918,0,0
-105,106,0,0,0,0,0,0,0,0,0,-1,1119,918,0,0
-98,106,0,0,0,0,0,0,0,0,0,-1,1126,918,0,0
-91,106,0,0,0,0,0,0,0,0,0,-1,1133,918,0,0
-84,106,0,0,0,0,0,0,0,0,0,-1,1140,918,0,0
-77,106,0,0,0,0,0,0,0,0,0,-1,1147,918,0,0
-70,106,0,0,0,0,0,0,0,0,0,-1,1154,918,0,0
-63,106,0,0,0,0,0,0,0,0,0,-1,1161,918,0,0
-56,106,0,0,0,0,0,0,0,0,0,-1,1168,918,0,0
-49,106,0,0,0,0,0,0,0,0,0,-1,1175,918,0,0
-42,106,0,0,0,0,0,0,0,0,0,-1,1182,918,0,0
-35,106,0,0,0,0,0,0,0,0,0,-1,1189,918,0,0
-28,106,0,0,0,0,0,0,0,0,0,-1,1196,918,0,0
-21,106,0,0,0,0,0,0,0,0,0,-1,1203,918,0,0
-14,106,0,0,0,0,0,0,0,0,0,-1,1210,918,0,0
-7,106,0,0,0,0,0,0,0,0,0,-1,1217,918,0,0
0,106,0,0,0,0,0,0,0,0,0,-1,1224,918,0,0
7,106,0,0,0,0,0,0,0,0,0,-1,1231,918,0,0
14,106,0,0,0,0,0,0,0,0,0,-1,1238,918,0,0
21,106,0,0,0,0,0,0,0,0,0,-1,1245,918,0,0
28,106,0,0,0,0,0,0,0,0,0,-1,1252,918,0,0
35,106,0,0,0,0,0,0,0,0,0,-1,1259,918,0,0
42,106,0,0,0,0,0,0,0,0,0,-1,1266,918,0,0
49,106,0,0,0,0,0,0,0,0,0,-1,1273,918,0,0
56,106,0,0,0,0,0,0,0,0,0,-1,1280,918,0,0
63,106,0,0,0,0,0,0,0,0,0,-1,1287,918,0,0
70,106,0,0,0,0,0,0,0,0,0,-1,1294,918,0,0
77,106,0,0,0,0,0,0,0,0,0,-1,1301,918,0,0
84,106,0,0,0,0,0,0,0,0,0,-1,1308,918,0,0
91,106,0,0,0,0,0,0,0,0,0,-1,1315,918,0,0
98,106,0,0,0,0,0,0,0,0,0,-1,1322,918,0,0
105,106,0,0,0,0,0,0,0,0,0,-1,1329,918,0,0
112,106,0,0,0,0,0,0,0,0,0,-1,1336,918,0,0
119,106,0,0,0,0,0,0,0,0,0,-1,1343,918,0,0
126,106,0,0,0,0,0,0,0,0,0,-1,1350,918,0,0
133,106,0,0,0,0,0,0,0,0,0,-1,1357,918,0,0
140,106,0,0,0,0,0,0,0,0,0,-1,1364,918,0,0
147,106,0,0,0,0,0,0,0,0,0,-1,1371,918,0,0
154,106,0,0,0,0,0,0,0,0,0,-1,1378,918,0,0
161,106,0,0,0,0,0,0,0,0,0,-1,1385,918,0,0
168,106,0,0,0,0,0,0,0,0,0,-1,1392,918,0,0
175,106,0,0,0,0,0,0,0,0,0,-1,1399,918,0,0
182,106,0,0,0,0,0,0,0,0,0,-1,1406,918,0,0
189,106,0,0,0,0,0,0,0,0,0,-1,1413,918,0,0
196,106,0,0,0,0,0,0,0,0,0,-1,1420,918,0,0
203,106,0,0,0,0,0,0,0,0,0,-1,1427,918,0,0
210,106,0,0,0,0,0,0,0,0,0,-1,1434,918,0,0
217,106,0,0,0,0,0,0,0,0,0,-1,1441,918,0,0
224,106,0,0,0,0,0,0,0,0,0,-1,1448,918,0,0
231,106,0,0,0,0,0,0,0,0,0,-1,1455,918,0,0
238,106,0,0,0,0,0,0,0,0,0,-1,1462,918,0,0
245,106,0,0,0,0,0,0,0,0,0,-1,1469,918,0,0
252,106,0,0,0,0,0,0,0,0,0,-1,1476,918,0,0
259,106,0,0,0,0,0,0,0,0,0,-1,1483,918,0,0
266,106,0,0,0,0,0,0,0,0,0,-1,1490,918,0,0
273,106,0,0,0,0,0,0,0,0,0,-1,1497,918,0,0
280,106,0,0,0,0,0,0,0,0,0,-1,1504,918,0,0
287,106,0,0,0,0,0,0,0,0,0,-1,1511,918,0,0
294,106,0,0,0,0,0,0,0,0,0,-1,1518,918,0,0
301,106,0,0,0,0,0,0,0,0,0,-1,1525,918,0,0
308,106,0,0,0,0,0,0,0,0,0,-1,1532,918,0,0
315,106,0,0,0,0,0,0,0,0,0,-1,1539,918,0,0
322,106,0,0,0,0,0,0,0,0,0,-1,1546,918,0,0
329,106,0,0,0,0,0,0,0,0,0,-1,1553,918,0,0
336,106,0,0,0,0,0,0,0,0,0,-1,1560,918,0,0
343,106,0,0,0,0,0,0,0,0,0,-1,1567,918,0,0
350,106,0,0,0,0,0,0,0,0,0,-1,1574,918,0,0
357,106,0,0,0,0,0,0,0,0,0,-1,1581,918,0,0
364,106,0,0,0,0,0,0,0,0,0,-1,1588,918,0,0
371,106,0,0,0,0,0,0,0,0,0,-1,1595,918,0,0
378,106,0,0,0,0,0,0,0,0,0,-1,1602,918,0,0
385,106,0,0,0,0,0,0,0,0,0,-1,1609,918,0,0
392,106,0,0,0,0,0,0,0,0,0,-1,1616,918,0,0
399,106,0,0,0,0,0,0,0,0,0,-1,1623,918,0,0
406,106,0,0,0,0,0,0,0,0,0,-1,1630,918,0,0
413,106,0,0,0,0,0,0,0,0,0,-1,1637,918,0,0
420,106,0,0,0,0,0,0,0,0,0,-1,1644,918,0,0
427,106,0,0,0,0,0,0,0,0,0,-1,1651,918,0,0
434,106,0,0,0,0,0,0,0,0,0,-1,1658,918,0,0
441,106,0,0,0,0,0,0,0,0,0,-1,1665,918,0,0
448,106,0,0,0,0,0,0,0,0,0,-1,1672,918,0,0
455,106,0,0,0,0,0,0,0,0,0,-1,1679,918,0,0
462,106,0,0,0,0,0,0,0,0,0,-1,1686,918,0,0
469,106,0,0,0,0,0,0,0,0,0,-1,1693,918,0,0
476,106,0,0,0,0,0,0,0,0,0,-1,1700,918,0,0
483,106,0,0,0,0,0,0,0,0,0,-1,1707,918,0,0
490,106,0,0,0,0,0,0,0,0,0,-1,1714,918,0,0
497,106,0,0,0,0,0,0,0,0,0,-1,1721,918,0,0
504,106,0,0,0,0,0,0,0,0,0,-1,1728,918,0,0
511,106,0,0,0,0,0,0,0,0,0,-1,1735,918,0,0
518,106,0,0,0,0,0,0,0,0,0,-1,1742,918,0,0
525,106,0,0,0,0,0,0,0,0,0,-1,1749,918,0,0
532,106,0,0,0,0,0,0,0,0,0,-1,1756,918,0,0
539,106,0,0,0,0,0,0,0,0,0,-1,1763,918,0,0
546,106,0,0,0,0,0,0,0,0,0,-1,1770,918,0,0
553,106,0,0,0,0,0,0,0,0,0,-1,1777,918,0,0
560,106,0,0,0,0,0,0,0,0,0,-1,1784,918,0,0
567,106,0,0,0,0,0,0,0,0,0,-1,1791,918,0,0
574,106,0,0,0,0,0,0,0,0,0,-1,1798,918,0,0
581,106,0,0,0,0,0,0,0,0,0,-1,1805,918,0,0
588,106,0,0,0,0,0,0,0,0,0,-1,1812,918,0,0
595,106,0,0,0,0,0,0,0,0,0,-1,1819,918,0,0
602,106,0,0,0,0,0,0,0,0,0,-1,1826,918,0,0
609,106,0,0,0,0,0,0,0,0,0,-1,1833,918,0,0
616,106,0,0,0,0,0,0,0,0,0,-1,1840,918,0,0
623,106,0,0,0,0,0,0,0,0,0,-1,1847,918,0,0
630,106,235.863,8.76154,0,0,0,0,0,0,0,-1,1854,918,235.863,-8.76154
637,106,235.924,8.90002,0,0,0,0,0,0,0,-1,1861,918,235.924,-8.90001
644,106,235.992,8.78363,0,0,0,0,0,0,0,-1,1868,918,235.992,-8.78362
651,106,235.975,8.55518,0,0,0,0,0,0,0,-1,1875,918,235.975,-8.55517
658,106,235.866,8.45526,0,0,0,0,0,0,0,-1,1882,918,235.866,-8.45529
665,106,235.671,8.76971,0,0,0,0,0,0,0,-1,1889,918,235.671,-8.76971
672,106,235.658,8.91455,0,0,0,0,0,0,0,-1,1896,918,235.658,-8.91454
679,106,235.711,8.75781,0,0,0,0,0,0,0,-1,1903,918,235.711,-8.75781
686,106,235.916,8.68384,0,0,0,0,0,0,0,-1,1910,918,235.916,-8.68386
693,106,235.928,8.48065,0,0,0,0,0,0,0,-1,1917,918,235.928,-8.48063
700,106,235.726,8.18372,0,0,0,0,0,0,0,-1,1924,918,235.726,-8.18369
707,106,229.045,26.7905,0,0,0,0,0,0,0,-1,1931,918,229.045,-26.7905
714,106,228.833,28.249,-0.0105346,0.00517218,0.000974497,0.00523241,-0.0105948,1.50907,0.00931103,0.0329182,1938,918,228.833,-28.249
721,106,228.631,29.6685,-0.0118809,0.0101683,-0.00199223,0.0103468,-0.0120595,-1.48141,0.0129489,0.0380867,1945,918,228.631,-29.6685
728,106,228.494,30.9094,-0.012521,0.0159691,-0.00408561,0.0165435,-0.0130954,-1.43114,0.0171505,0.032965,1952,918,228.494,-30.9094
735,106,228.355,32.0255,-0.0131684,0.0218319,-0.00588749,0.0227957,-0.0141322,-1.40853,0.0215151,0.0247708,1959,918,228.355,-32.0254
742,106,228.089,33.2557,-0.0136737,0.02784,-0.00739889,0.0291192,-0.014953,-1.39959,0.0258795,0.0361729,1966,918,228.089,-33.2558
749,106,227.956,34.562,-0.0139901,0.0339846,-0.0086049,0.0354813,-0.0154868,-1.39858,0.0301718,0.0439593,1973,918,227.955,-34.562
756,106,227.521,35.4565,0,0,0,0,0,0,0,-1,1980,918,227.52,-35.4565
763,106,227.32,36.8206,0,0,0,0,0,0,0,-1,1987,918,227.32,-36.8205
770,106,227.119,38.1846,0,0,0,0,0,0,0,-1,1994,918,227.119,-38.1846
777,106,88.3054,13.259,0,0,0,0,0,0,0,-1,2001,918,88.3054,-13.259
784,106,89.1936,14.7273,0,0,0,0,0,0,0,-1,2008,918,89.1936,-14.7273
791,106,83.1514,12.6997,0,0,0,0,0,0,0,-1,2015,918,83.1513,-12.6997
798,106,85.3481,12.517,0,0,0,0,0,0,0,-1,2022,918,85.3481,-12.517
805,106,0,0,0,0,0,0,0,0,0,-1,2029,918,0,0
812,106,0,0,0,0,0,0,0,0,0,-1,2036,918,0,0
-700,99,0,0,0,0,0,0,0,0,0,-1,524,925,0,0
-693,99,0,0,0,0,0,0,0,0,0,-1,531,925,0,0
-686,99,0,0,0,0,0,0,0,0,0,-1,538,925,0,0
-679,99,-60.0285,9.58405,0,0,0,0,0,0,0,-1,545,925,-60.0285,-9.58402
-672,99,-59.5222,10.1797,0,0,0,0,0,0,0,-1,552,925,-59.5222,-10.1797
-665,99,-58.8331,10.9661,0,0,0,0,0,0,0,-1,559,925,-58.8331,-10.9661
-658,99,-58.6227,11.3068,0,0,0,0,0,0,0,-1,566,925,-58.6227,-11.3068
-651,99,-58.2084,11.0227,0,0,0,0,0,0,0,-1,573,925,-58.2084,-11.0227
-644,99,-92.0863,19.8066,0,0,0,0,0,0,0,-1,580,925,-92.0863,-19.8066
-637,99,-221.578,37.4283,0,0,0,0,0,0,0,-1,587,925,-221.578,-37.4283
-630,99,-221.622,36.4531,-0.0110386,0.0511848,0.0143744,0.054345,-0.0141987,1.35439,0.0417751,0.0346358,594,925,-221.622,-36.453
-623,99,-221.849,35.4404,-0.0102445,0.0441244,0.0124453,0.0468378,-0.0129578,1.35613,0.0363233,0.0185056,601,925,-221.849,-35.4404
-616,99,-221.943,34.254,-0.0093192,0.0371245,0.0103274,0.0393174,-0.0115121,1.36157,0.0307753,0.0212385,608,925,-221.943,-34.254
-609,99,-222.051,33.1567,-0.00831828,0.0301842,0.00805487,0.0318013,-0.00993547,1.37266,0.0251749,0.0161055,615,925,-222.051,-33.1567
-602,99,-222.161,32.0426,-0.00729457,0.0233042,0.00565405,0.0243155,-0.0083059,1.3938,0.0195754,0.0204895,622,925,-222.161,-32.0426
-595,99,-222.423,30.8589,-0.00629942,0.0164873,0.0031445,0.0169133,-0.00672539,1.43615,0.0140639,0.0286294,629,925,-222.423,-30.859
-588,99,-222.599,29.6453,-0.00520167,0.00983138,0.000269062,0.00983619,-0.00520649,1.55291,0.00882094,0.0313289,636,925,-222.599,-29.6453
-581,99,-222.98,28.2695,0,0,0,0,0,0,0,-1,643,925,-222.98,-28.2695
-574,99,-223.605,26.8943,0,0,0,0,0,0,0,-1,650,925,-223.605,-26.8943
-567,99,-50.5977,0.659485,0,0,0,0,0,0,0,-1,657,925,-50.5977,-0.659461
-560,99,-72.4919,0.276306,0,0,0,0,0,0,0,-1,664,925,-72.4919,-0.276328
-553,99,-72.5533,0.815918,0,0,0,0,0,0,0,-1,671,925,-72.5533,-0.815947
-546,99,-72.6324,0.722656,0,0,0,0,0,0,0,-1,678,925,-72.6324,-0.722639
-539,99,-72.7263,0.40863,0,0,0,0,0,0,0,-1,685,925,-72.7263,-0.408647
-532,99,-72.3987,0.165527,0,0,0,0,0,0,0,-1,692,925,-72.3988,-0.165522
-525,99,-72.4885,0.298767,0,0,0,0,0,0,0,-1,699,925,-72.4885,-0.29878
-518,99,-72.6053,0.533752,0,0,0,0,0,0,0,-1,706,925,-72.6053,-0.533766
-511,99,0,0,0,0,0,0,0,0,0,-1,713,925,0,0
-504,99,0,0,0,0,0,0,0,0,0,-1,720,925,0,0
-497,99,0,0,0,0,0,0,0,0,0,-1,727,925,0,0
-490,99,0,0,0,0,0,0,0,0,0,-1,734,925,0,0
-483,99,0,0,0,0,0,0,0,0,0,-1,741,925,0,0
-476,99,0,0,0,0,0,0,0,0,0,-1,748,925,0,0
-469,99,0,0,0,0,0,0,0,0,0,-1,755,925,0,0
-462,99,0,0,0,0,0,0,0,0,0,-1,762,925,0,0
-455,99,0,0,0,0,0,0,0,0,0,-1,769,925,0,0
-448,99,0,0,0,0,0,0,0,0,0,-1,776,925,0,0
-441,99,0,0,0,0,0,0,0,0,0,-1,783,925,0,0
-434,99,0,0,0,0,0,0,0,0,0,-1,790,925,0,0
-427,99,0,0,0,0,0,0,0,0,0,-1,797,925,0,0
-420,99,0,0,0,0,0,0,0,0,0,-1,804,925,0,0
-413,99,0,0,0,0,0,0,0,0,0,-1,811,925,0,0
-406,99,0,0,0,0,0,0,0,0,0,-1,818,925,0,0
-399,99,0,0,0,0,0,0,0,0,0,-1,825,925,0,0
-392,99,0,0,0,0,0,0,0,0,0,-1,832,925,0,0
-385,99,0,0,0,0,0,0,0,0,0,-1,839,925,0,0
-378,99,0,0,0,0,0,0,0,0,0,-1,846,925,0,0
-371,99,0,0,0,0,0,0,0,0,0,-1,853,925,0,0
-364,99,0,0,0,0,0,0,0,0,0,-1,860,925,0,0
-357,99,0,0,0,0,0,0,0,0,0,-1,867,925,0,0
-350,99,0,0,0,0,0,0,0,0,0,-1,874,925,0,0
-343,99,0,0,0,0,0,0,0,0,0,-1,881,925,0,0
-336,99,0,0,0,0,0,0,0,0,0,-1,888,925,0,0
-329,99,0,0,0,0,0,0,0,0,0,-1,895,925,0,0
-322,99,0,0,0,0,0,0,0,0,0,-1,902,925,0,0
-315,99,0,0,0,0,0,0,0,0,0,-1,909,925,0,0
-308,99,0,0,0,0,0,0,0,0,0,-1,916,925,0,0
-301,99,0,0,0,0,0,0,0,0,0,-1,923,925,0,0
-294,99,0,0,0,0,0,0,0,0,0,-1,930,925,0,0
-287,99,0,0,0,0,0,0,0,0,0,-1,937,925,0,0
-280,99,0,0,0,0,0,0,0,0,0,-1,944,925,0,0
-273,99,0,0,0,0,0,0,0,0,0,-1,951,925,0,0
-266,99,0,0,0,0,0,0,0,0,0,-1,958,925,0,0
-259,99,0,0,0,0,0,0,0,0,0,-1,965,925,0,0
-252,99,0,0,0,0,0,0,0,0,0,-1,972,925,0,0
-245,99,0,0,0,0,0,0,0,0,0,-1,979,925,0,0
-238,99,0,0,0,0,0,0,0,0,0,-1,986,925,0,0
-231,99,0,0,0,0,0,0,0,0,0,-1,993,925,0,0
-224,99,0,0,0,0,0,0,0,0,0,-1,1000,925,0,0
-217,99,0,0,0,0,0,0,0,0,0,-1,1007,925,0,0
-210,99,0,0,0,0,0,0,0,0,0,-1,1014,925,0,0
-203,99,0,0,0,0,0,0,0,0,0,-1,1021,925,0,0
-196,99,0,0,0,0,0,0,0,0,0,-1,1028,925,0,0
-189,99,0,0,0,0,0,0,0,0,0,-1,1035,925,0,0
-182,99,0,0,0,0,0,0,0,0,0,-1,1042,925,0,0
-175,99,0,0,0,0,0,0,0,0,0,-1,1049,925,0,0
-168,99,0,0,0,0,0,0,0,0,0,-1,1056,925,0,0
-161,99,0,0,0,0,0,0,0,0,0,-1,1063,925,0,0
-154,99,0,0,0,0,0,0,0,0,0,-1,1070,925,0,0
-147,99,0,0,0,0,0,0,0,0,0,-1,1077,925,0,0
-140,99,0,0,0,0,0,0,0,0,0,-1,1084,925,0,0
-133,99,0,0,0,0,0,0,0,0,0,-1,1091,925,0,0
-126,99,0,0,0,0,0,0,0,0,0,-1,1098,925,0,0
-119,99,0,0,0,0,0,0,0,0,0,-1,1105,925,0,0
-112,99,0,0,0,0,0,0,0,0,0,-1,1112,925,0,0
-105,99,0,0,0,0,0,0,0,0,0,-1,1119,925,0,0
-98,99,0,0,0,0,0,0,0,0,0,-1,1126,925,0,0
-91,99,0,0,0,0,0,0,0,0,0,-1,1133,925,0,0
-84,99,0,0,0,0,0,0,0,0,0,-1,1140,925,0,0
-77,99,0,0,0,0,0,0,0,0,0,-1,1147,925,0,0
-70,99,0,0,0,0,0,0,0,0,0,-1,1154,925,0,0
-63,99,0,0,0,0,0,0,0,0,0,-1,1161,925,0,0
-56,99,0,0,0,0,0,0,0,0,0,-1,1168,925,0,0
-49,99,0,0,0,0,0,0,0,0,0,-1,1175,925,0,0
-42,99,0,0,0,0,0,0,0,0,0,-1,1182,925,0,0
-35,99,0,0,0,0,0,0,0,0,0,-1,1189,925,0,0
-28,99,0,0,0,0,0,0,0,0,0,-1,1196,925,0,0
-21,99,0,0,0,0,0,0,0,0,0,-1,1203,925,0,0
-14,99,0,0,0,0,0,0,0,0,0,-1,1210,925,0,0
-7,99,0,0,0,0,0,0,0,0,0,-1,1217,925,0,0
0,99,0,0,0,0,0,0,0,0,0,-1,1224,925,0,0
7,99,0,0,0,0,0,0,0,0,0,-1,1231,925,0,0
14,99,0,0,0,0,0,0,0,0,0,-1,1238,925,0,0
21,99,0,0,0,0,0,0,0,0,0,-1,1245,925,0,0
28,99,0,0,0,0,0,0,0,0,0,-1,1252,925,0,0
35,99,0,0,0,0,0,0,0,0,0,-1,1259,925,0,0
42,99,0,0,0,0,0,0,0,0,0,-1,1266,925,0,0
49,99,0,0,0,0,0,0,0,0,0,-1,1273,925,0,0
56,99,0,0,0,0,0,0,0,0,0,-1,1280,925,0,0
63,99,0,0,0,0,0,0,0,0,0,-1,1287,925,0,0
70,99,0,0,0,0,0,0,0,0,0,-1,1294,925,0,0
77,99,0,0,0,0,0,0,0,0,0,-1,1301,925,0,0
84,99,0,0,0,0,0,0,0,0,0,-1,1308,925,0,0
91,99,0,0,0,0,0,0,0,0,0,-1,1315,925,0,0
98,99,0,0,0,0,0,0,0,0,0,-1,1322,925,0,0
105,99,0,0,0,0,0,0,0,0,0,-1,1329,925,0,0
112,99,0,0,0,0,0,0,0,0,0,-1,1336,925,0,0
119,99,0,0,0,0,0,0,0,0,0,-1,1343,925,0,0
126,99,0,0,0,0,0,0,0,0,0,-1,1350,925,0,0
133,99,0,0,0,0,0,0,0,0,0,-1,1357,925,0,0
140,99,0,0,0,0,0,0,0,0,0,-1,1364,925,0,0
147,99,0,0,0,0,0,0,0,0,0,-1,1371,925,0,0
154,99,0,0,0,0,0,0,0,0,0,-1,1378,925,0,0
161,99,0,0,0,0,0,0,0,0,0,-1,1385,925,0,0
168,99,0,0,0,0,0,0,0,0,0,-1,1392,925,0,0
175,99,0,0,0,0,0,0,0,0,0,-1,1399,925,0,0
182,99,0,0,0,0,0,0,0,0,0,-1,1406,925,0,0
189,99,0,0,0,0,0,0,0,0,0,-1,1413,925,0,0
196,99,0,0,0,0,0,0,0,0,0,-1,1420,925,0,0
203,99,0,0,0,0,0,0,0,0,0,-1,1427,925,0,0
210,99,0,0,0,0,0,0,0,0,0,-1,1434,925,0,0
217,99,0,0,0,0,0,0,0,0,0,-1,1441,925,0,0
224,99,0,0,0,0,0,0,0,0,0,-1,1448,925,0,0
231,99,0,0,0,0,0,0,0,0,0,-1,1455,925,0,0
238,99,0,0,0,0,0,0,0,0,0,-1,1462,925,0,0
245,99,0,0,0,0,0,0,0,0,0,-1,1469,925,0,0
252,99,0,0,0,0,0,0,0,0,0,-1,1476,925,0,0
259,99,0,0,0,0,0,0,0,0,0,-1,1483,925,0,0
266,99,0,0,0,0,0,0,0,0,0,-1,1490,925,0,0
273,99,0,0,0,0,0,0,0,0,0,-1,1497,925,0,0
280,99,0,0,0,0,0,0,0,0,0,-1,1504,925,0,0
287,99,0,0,0,0,0,0,0,0,0,-1,1511,925,0,0
294,99,0,0,0,0,0,0,0,0,0,-1,1518,925,0,0
301,99,0,0,0,0,0,0,0,0,0,-1,1525,925,0,0
308,99,0,0,0,0,0,0,0,0,0,-1,1532,925,0,0
315,99,0,0,0,0,0,0,0,0,0,-1,1539,925,0,0
322,99,0,0,0,0,0,0,0,0,0,-1,1546,925,0,0
329,99,0,0,0,0,0,0,0,0,0,-1,1553,925,0,0
336,99,0,0,0,0,0,0,0,0,0,-1,1560,925,0,0
343,99,0,0,0,0,0,0,0,0,0,-1,1567,925,0,0
350,99,0,0,0,0,0,0,0,0,0,-1,1574,925,0,0
357,99,0,0,0,0,0,0,0,0,0,-1,1581,925,0,0
364,99,0,0,0,0,0,0,0,0,0,-1,1588,925,0,0
371,99,0,0,0,0,0,0,0,0,0,-1,1595,925,0,0
378,99,0,0,0,0,0,0,0,0,0,-1,1602,925,0,0
385,99,0,0,0,0,0,0,0,0,0,-1,1609,925,0,0
392,99,0,0,0,0,0,0,0,0,0,-1,1616,925,0,0
399,99,0,0,0,0,0,0,0,0,0,-1,1623,925,0,0
406,99,0,0,0,0,0,0,0,0,0,-1,1630,925,0,0
413,99,0,0,0,0,0,0,0,0,0,-1,1637,925,0,0
420,99,0,0,0,0,0,0,0,0,0,-1,1644,925,0,0
427,99,0,0,0,0,0,0,0,0,0,-1,1651,925,0,0
434,99,0,0,0,0,0,0,0,0,0,-1,1658,925,0,0
441,99,0,0,0,0,0,0,0,0,0,-1,1665,925,0,0
448,99,0,0,0,0,0,0,0,0,0,-1,1672,925,0,0
455,99,0,0,0,0,0,0,0,0,0,-1,1679,925,0,0
462,99,0,0,0,0,0,0,0,0,0,-1,1686,925,0,0
469,99,0,0,0,0,0,0,0,0,0,-1,1693,925,0,0
476,99,0,0,0,0,0,0,0,0,0,-1,1700,925,0,0
483,99,0,0,0,0,0,0,0,0,0,-1,1707,925,0,0
490,99,0,0,0,0,0,0,0,0,0,-1,1714,925,0,0
497,99,0,0,0,0,0,0,0,0,0,-1,1721,925,0,0
504,99,0,0,0,0,0,0,0,0,0,-1,1728,925,0,0
511,99,0,0,0,0,0,0,0,0,0,-1,1735,925,0,0
518,99,0,0,0,0,0,0,0,0,0,-1,1742,925,0,0
525,99,0,0,0,0,0,0,0,0,0,-1,1749,925,0,0
532,99,0,0,0,0,0,0,0,0,0,-1,1756,925,0,0
539,99,0,0,0,0,0,0,0,0,0,-1,1763,925,0,0
546,99,0,0,0,0,0,0,0,0,0,-1,1770,925,0,0
553,99,0,0,0,0,0,0,0,0,0,-1,1777,925,0,0
560,99,0,0,0,0,0,0,0,0,0,-1,1784,925,0,0
567,99,0,0,0,0,0,0,0,0,0,-1,1791,925,0,0
574,99,0,0,0,0,0,0,0,0,0,-1,1798,925,0,0
581,99,0,0,0,0,0,0,0,0,0,-1,1805,925,0,0
588,99,0,0,0,0,0,0,0,0,0,-1,1812,925,0,0
595,99,0,0,0,0,0,0,0,0,0,-1,1819,925,0,0
602,99,0,0,0,0,0,0,0,0,0,-1,1826,925,0,0
609,99,0,0,0,0,0,0,0,0,0,-1,1833,925,0,0
616,99,0,0,0,0,0,0,0,0,0,-1,1840,925,0,0
623,99,0,0,0,0,0,0,0,0,0,-1,1847,925,0,0
630,99,0,0,0,0,0,0,0,0,0,-1,1854,925,0,0
637,99,236.031,8.67438,0,0,0,0,0,0,0,-1,1861,925,236.03,-8.67438
644,99,236.094,8.57831,0,0,0,0,0,0,0,-1,1868,925,236.095,-8.57832
651,99,236.089,8.40894,0,0,0,0,0,0,0,-1,1875,925,236.089,-8.40893
658,99,235.907,8.37341,0,0,0,0,0,0,0,-1,1882,925,235.907,-8.37343
665,99,235.772,8.64929,0,0,0,0,0,0,0,-1,1889,925,235.772,-8.64927
672,99,235.775,8.94299,0,0,0,0,0,0,0,-1,1896,925,235.775,-8.94302
679,99,235.737,8.80475,0,0,0,0,0,0,0,-1,1903,925,235.737,-8.80473
686,99,235.722,8.51392,0,0,0,0,0,0,0,-1,1910,925,235.722,-8.51391
693,99,236.041,8.52368,0,0,0,0,0,0,0,-1,1917,925,236.041,-8.52367
700,99,202.766,8.29431,0,0,0,0,0,0,0,-1,1924,925,202.766,-8.29432
707,99,231.037,27.1625,0,0,0,0,0,0,0,-1,1931,925,231.037,-27.1625
714,99,230.224,28.3616,0,0,0,0,0,0,0,-1,1938,925,230.224,-28.3616
721,99,229.734,29.4843,0,0,0,0,0,0,0,-1,1945,925,229.734,-29.4843
728,99,229.745,30.8454,-0.0126042,0.0141317,-0.0033267,0.0145394,-0.0130119,-1.44884,0.0159149,0.0361918,1952,925,229.745,-30.8454
735,99,229.655,32.032,-0.0132946,0.0201285,-0.00510719,0.0208915,-0.0140576,-1.4225,0.020306,0.0242421,1959,925,229.655,-32.032
742,99,229.529,33.3438,-0.0139079,0.026269,-0.00662534,0.0273333,-0.0149723,-1.41151,0.0247702,0.0475934,1966,925,229.529,-33.3438
749,99,229.246,34.765,0,0,0,0,0,0,0,-1,1973,925,229.246,-34.765
756,99,229.072,35.3895,-0.0147279,0.0388982,-0.00883372,0.0403159,-0.0161456,-1.41167,0.0335789,0.0420351,1980,925,229.072,-35.3896
763,99,228.886,36.3726,-0.0148529,0.0453432,-0.0095004,0.046807,-0.0163167,-1.41792,0.0378351,0.0260097,1987,925,228.887,-36.3726
770,99,229.034,37.4896,-0.014709,0.0521068,-0.00961832,0.0534638,-0.016066,-1.43063,0.0420341,0.0491367,1994,925,229.034,-37.4896
777,99,229.326,38.4695,0,0,0,0,0,0,0,-1,2001,925,229.326,-38.4695
784,99,90.0874,14.4108,0,0,0,0,0,0,0,-1,2008,925,90.0873,-14.4108
791,99,91.6816,15.5447,0,0,0,0,0,0,0,-1,2015,925,91.6815,-15.5447
798,99,91.3784,14.3621,0,0,0,0,0,0,0,-1,2022,925,91.3783,-14.3621
805,99,0,0,0,0,0,0,0,0,0,-1,2029,925,0,0
812,99,0,0,0,0,0,0,0,0,0,-1,2036,925,0,0
-700,92,0,0,0,0,0,0,0,0,0,-1,524,932,0,0
-693,92,0,0,0,0,0,0,0,0,0,-1,531,932,0,0
-686,92,-71.6475,-3.3797,0,0,0,0,0,0,0,-1,538,932,-71.6475,3.3797
-679,92,-69.8624,-2.1322,0,0,0,0,0,0,0,-1,545,932,-69.8624,2.1322
-672,92,-59.2169,9.25281,0,0,0,0,0,0,0,-1,552,932,-59.2169,-9.25281
-665,92,-58.6809,9.84479,0,0,0,0,0,0,0,-1,559,932,-58.6809,-9.8448
-658,92,-58.4986,10.1044,0,0,0,0,0,0,0,-1,566,932,-58.4986,-10.1044
-651,92,-58.3638,10.0627,0,0,0,0,0,0,0,-1,573,932,-58.3637,-10.0627
-644,92,-100.671,21.8364,0,0,0,0,0,0,0,-1,580,932,-100.671,-21.8364
-637,92,-222.684,37.2927,0,0,0,0,0,0,0,-1,587,932,-222.684,-37.2926
-630,92,-222.849,36.2995,-0.0104325,0.0500822,0.0133679,0.0529037,-0.013254,1.36279,0.0404181,0.0325953,594,932,-222.849,-36.2995
-623,92,-223.064,35.2991,-0.00945149,0.0427452,0.0114975,0.0451656,-0.0118719,1.36331,0.0347504,0.017338,601,932,-223.064,-35.2991
-616,92,-223.144,34.2153,-0.00832305,0.0354878,0.00942557,0.0374296,-0.0102648,1.36763,0.0289869,0.0159188,608,932,-223.144,-34.2153
-609,92,-223.305,33.1052,-0.00709475,0.0283072,0.00718591,0.0297102,-0.00849774,1.37798,0.0231649,0.012406,615,932,-223.305,-33.1052
-602,92,-223.425,31.9836,-0.00581185,0.021202,0.00480312,0.0220306,-0.00664044,1.39997,0.01733,0.0147243,622,932,-223.425,-31.9836
-595,92,-223.503,30.7319,-0.00451833,0.0141717,0.00229361,0.014449,-0.00479568,1.45046,0.0115675,0.0264451,629,932,-223.503,-30.7319
-588,92,-223.595,29.5814,-0.00311265,0.00734807,-0.000682952,0.00739247,-0.00315705,-1.50588,0.00625225,0.0351351,636,932,-223.595,-29.5814
-581,92,-223.627,28.4446,0,0,0,0,0,0,0,-1,643,932,-223.627,-28.4446
-574,92,-224.994,27.2302,0,0,0,0,0,0,0,-1,650,932,-224.994,-27.2302
-567,92,-70.9372,0.522583,0,0,0,0,0,0,0,-1,657,932,-70.9372,-0.522612
-560,92,-72.371,0.383606,0,0,0,0,0,0,0,-1,664,932,-72.371,-0.383636
-553,92,-72.4481,0.722412,0,0,0,0,0,0,0,-1,671,932,-72.448,-0.722438
-546,92,-72.5264,0.623535,0,0,0,0,0,0,0,-1,678,932,-72.5265,-0.62354
-539,92,-72.5651,0.373596,0,0,0,0,0,0,0,-1,685,932,-72.5652,-0.373594
-532,92,-72.5598,0.387268,0,0,0,0,0,0,0,-1,692,932,-72.5598,-0.387249
-525,92,-72.5999,0.502197,0,0,0,0,0,0,0,-1,699,932,-72.5999,-0.502169
-518,92,-72.532,0.667786,0,0,0,0,0,0,0,-1,706,932,-72.532,-0.667758
-511,92,0,0,0,0,0,0,0,0,0,-1,713,932,0,0
-504,92,0,0,0,0,0,0,0,0,0,-1,720,932,0,0
-497,92,0,0,0,0,0,0,0,0,0,-1,727,932,0,0
-490,92,0,0,0,0,0,0,0,0,0,-1,734,932,0,0
-483,92,0,0,0,0,0,0,0,0,0,-1,741,932,0,0
-476,92,0,0,0,0,0,0,0,0,0,-1,748,932,0,0
-469,92,0,0,0,0,0,0,0,0,0,-1,755,932,0,0
-462,92,0,0,0,0,0,0,0,0,0,-1,762,932,0,0
-455,92,0,0,0,0,0,0,0,0,0,-1,769,932,0,0
-448,92,0,0,0,0,0,0,0,0,0,-1,776,932,0,0
-441,92,0,0,0,0,0,0,0,0,0,-1,783,932,0,0
-434,92,0,0,0,0,0,0,0,0,0,-1,790,932,0,0
-427,92,0,0,0,0,0,0,0,0,0,-1,797,932,0,0
-420,92,0,0,0,0,0,0,0,0,0,-1,804,932,0,0
-413,92,0,0,0,0,0,0,0,0,0,-1,811,932,0,0
-406,92,0,0,0,0,0,0,0,0,0,-1,818,932,0,0
-399,92,0,0,0,0,0,0,0,0,0,-1,825,932,0,0
-392,92,0,0,0,0,0,0,0,0,0,-1,832,932,0,0
-385,92,0,0,0,0,0,0,0,0,0,-1,839,932,0,0
-378,92,0,0,0,0,0,0,0,0,0,-1,846,932,0,0
-371,92,0,0,0,0,0,0,0,0,0,-1,853,932,0,0
-364,92,0,0,0,0,0,0,0,0,0,-1,860,932,0,0
-357,92,0,0,0,0,0,0,0,0,0,-1,867,932,0,0
-350,92,0,0,0,0,0,0,0,0,0,-1,874,932,0,0
-343,92,0,0,0,0,0,0,0,0,0,-1,881,932,0,0
-336,92,0,0,0,0,0,0,0,0,0,-1,888,932,0,0
-329,92,0,0,0,0,0,0,0,0,0,-1,895,932,0,0
-322,92,0,0,0,0,0,0,0,0,0,-1,902,932,0,0
-315,92,0,0,0,0,0,0,0,0,0,-1,909,932,0,0
-308,92,0,0,0,0,0,0,0,0,0,-1,916,932,0,0
-301,92,0,0,0,0,0,0,0,0,0,-1,923,932,0,0
-294,92,0,0,0,0,0,0,0,0,0,-1,930,932,0,0
-287,92,0,0,0,0,0,0,0,0,0,-1,937,932,0,0
-280,92,0,0,0,0,0,0,0,0,0,-1,944,932,0,0
-273,92,0,0,0,0,0,0,0,0,0,-1,951,932,0,0
-266,92,0,0,0,0,0,0,0,0,0,-1,958,932,0,0
-259,92,0,0,0,0,0,0,0,0,0,-1,965,932,0,0
-252,92,0,0,0,0,0,0,0,0,0,-1,972,932,0,0
-245,92,0,0,0,0,0,0,0,0,0,-1,979,932,0,0
-238,92,0,0,0,0,0,0,0,0,0,-1,986,932,0,0
-231,92,0,0,0,0,0,0,0,0,0,-1,993,932,0,0
-224,92,0,0,0,0,0,0,0,0,0,-1,1000,932,0,0
-217,92,0,0,0,0,0,0,0,0,0,-1,1007,932,0,0
-210,92,0,0,0,0,0,0,0,0,0,-1,1014,932,0,0
-203,92,0,0,0,0,0,0,0,0,0,-1,1021,932,0,0
-196,92,0,0,0,0,0,0,0,0,0,-1,1028,932,0,0
-189,92,0,0,0,0,0,0,0,0,0,-1,1035,932,0,0
-182,92,0,0,0,0,0,0,0,0,0,-1,1042,932,0,0
-175,92,0,0,0,0,0,0,0,0,0,-1,1049,932,0,0
-168,92,0,0,0,0,0,0,0,0,0,-1,1056,932,0,0
-161,92,0,0,0,0,0,0,0,0,0,-1,1063,932,0,0
-154,92,0,0,0,0,0,0,0,0,0,-1,1070,932,0,0
-147,92,0,0,0,0,0,0,0,0,0,-1,1077,932,0,0
-140,92,0,0,0,0,0,0,0,0,0,-1,1084,932,0,0
-133,92,0,0,0,0,0,0,0,0,0,-1,1091,932,0,0
-126,92,0,0,0,0,0,0,0,0,0,-1,1098,932,0,0
-119,92,0,0,0,0,0,0,0,0,0,-1,1105,932,0,0
-112,92,0,0,0,0,0,0,0,0,0,-1,1112,932,0,0
-105,92,0,0,0,0,0,0,0,0,0,-1,1119,932,0,0
-98,92,0,0,0,0,0,0,0,0,0,-1,1126,932,0,0
-91,92,0,0,0,0,0,0,0,0,0,-1,1133,932,0,0
-84,92,0,0,0,0,0,0,0,0,0,-1,1140,932,0,0
-77,92,0,0,0,0,0,0,0,0,0,-1,1147,932,0,0
-70,92,0,0,0,0,0,0,0,0,0,-1,1154,932,0,0
-63,92,0,0,0,0,0,0,0,0,0,-1,1161,932,0,0
-56,92,0,0,0,0,0,0,0,0,0,-1,1168,932,0,0
-49,92,0,0,0,0,0,0,0,0,0,-1,1175,932,0,0
-42,92,0,0,0,0,0,0,0,0,0,-1,1182,932,0,0
-35,92,0,0,0,0,0,0,0,0,0,-1,1189,932,0,0
-28,92,0,0,0,0,0,0,0,0,0,-1,1196,932,0,0
-21,92,0,0,0,0,0,0,0,0,0,-1,1203,932,0,0
-14,92,0,0,0,0,0,0,0,0,0,-1,1210,932,0,0
-7,92,0,0,0,0,0,0,0,0,0,-1,1217,932,0,0
0,92,0,0,0,0,0,0,0,0,0,-1,1224,932,0,0
7,92,0,0,0,0,0,0,0,0,0,-1,1231,932,0,0
14,92,0,0,0,0,0,0,0,0,0,-1,1238,932,0,0
21,92,0,0,0,0,0,0,0,0,0,-1,1245,932,0,0
28,92,0,0,0,0,0,0,0,0,0,-1,1252,932,0,0
35,92,0,0,0,0,0,0,0,0,0,-1,1259,932,0,0
42,92,0,0,0,0,0,0,0,0,0,-1,1266,932,0,0
49,92,0,0,0,0,0,0,0,0,0,-1,1273,932,0,0
56,92,0,0,0,0,0,0,0,0,0,-1,1280,932,0,0
63,92,0,0,0,0,0,0,0,0,0,-1,1287,932,0,0
70,92,0,0,0,0,0,0,0,0,0,-1,1294,932,0,0
77,92,0,0,0,0,0,0,0,0,0,-1,1301,932,0,0
84,92,0,0,0,0,0,0,0,0,0,-1,1308,932,0,0
91,92,0,0,0,0,0,0,0,0,0,-1,1315,932,0,0
98,92,0,0,0,0,0,0,0,0,0,-1,1322,932,0,0
105,92,0,0,0,0,0,0,0,0,0,-1,1329,932,0,0
112,92,0,0,0,0,0,0,0,0,0,-1,1336,932,0,0
119,92,0,0,0,0,0,0,0,0,0,-1,1343,932,0,0
126,92,0,0,0,0,0,0,0,0,0,-1,1350,932,0,0
133,92,0,0,0,0,0,0,0,0,0,-1,1357,932,0,0
140,92,0,0,0,0,0,0,0,0,0,-1,1364,932,0,0
147,92,0,0,0,0,0,0,0,0,0,-1,1371,932,0,0
154,92,0,0,0,0,0,0,0,0,0,-1,1378,932,0,0
161,92,0,0,0,0,0,0,0,0,0,-1,1385,932,0,0
168,92,0,0,0,0,0,0,0,0,0,-1,1392,932,0,0
175,92,0,0,0,0,0,0,0,0,0,-1,1399,932,0,0
182,92,0,0,0,0,0,0,0,0,0,-1,1406,932,0,0
189,92,0,0,0,0,0,0,0,0,0,-1,1413,932,0,0
196,92,0,0,0,0,0,0,0,0,0,-1,1420,932,0,0
203,92,0,0,0,0,0,0,0,0,0,-1,1427,932,0,0
210,92,0,0,0,0,0,0,0,0,0,-1,1434,932,0,0
217,92,0,0,0,0,0,0,0,0,0,-1,1441,932,0,0
224,92,0,0,0,0,0,0,0,0,0,-1,1448,932,0,0
231,92,0,0,0,0,0,0,0,0,0,-1,1455,932,0,0
238,92,0,0,0,0,0,0,0,0,0,-1,1462,932,0,0
245,92,0,0,0,0,0,0,0,0,0,-1,1469,932,0,0
252,92,0,0,0,0,0,0,0,0,0,-1,1476,932,0,0
259,92,0,0,0,0,0,0,0,0,0,-1,1483,932,0,0
266,92,0,0,0,0,0,0,0,0,0,-1,1490,932,0,0
273,92,0,0,0,0,0,0,0,0,0,-1,1497,932,0,0
280,92,0,0,0,0,0,0,0,0,0,-1,1504,932,0,0
287,92,0,0,0,0,0,0,0,0,0,-1,1511,932,0,0
294,92,0,0,0,0,0,0,0,0,0,-1,1518,932,0,0
301,92,0,0,0,0,0,0,0,0,0,-1,1525,932,0,0
308,92,0,0,0,0,0,0,0,0,0,-1,1532,932,0,0
315,92,0,0,0,0,0,0,0,0,0,-1,1539,932,0,0
322,92,0,0,0,0,0,0,0,0,0,-1,1546,932,0,0
329,92,0,0,0,0,0,0,0,0,0,-1,1553,932,0,0
336,92,0,0,0,0,0,0,0,0,0,-1,1560,932,0,0
343,92,0,0,0,0,0,0,0,0,0,-1,1567,932,0,0
350,92,0,0,0,0,0,0,0,0,0,-1,1574,932,0,0
357,92,0,0,0,0,0,0,0,0,0,-1,1581,932,0,0
364,92,0,0,0,0,0,0,0,0,0,-1,1588,932,0,0
371,92,0,0,0,0,0,0,0,0,0,-1,1595,932,0,0
378,92,0,0,0,0,0,0,0,0,0,-1,1602,932,0,0
385,92,0,0,0,0,0,0,0,0,0,-1,1609,932,0,0
392,92,0,0,0,0,0,0,0,0,0,-1,1616,932,0,0
399,92,0,0,0,0,0,0,0,0,0,-1,1623,932,0,0
406,92,0,0,0,0,0,0,0,0,0,-1,1630,932,0,0
413,92,0,0,0,0,0,0,0,0,0,-1,1637,932,0,0
420,92,0,0,0,0,0,0,0,0,0,-1,1644,932,0,0
427,92,0,0,0,0,0,0,0,0,0,-1,1651,932,0,0
434,92,0,0,0,0,0,0,0,0,0,-1,1658,932,0,0
441,92,0,0,0,0,0,0,0,0,0,-1,1665,932,0,0
448,92,0,0,0,0,0,0,0,0,0,-1,1672,932,0,0
455,92,0,0,0,0,0,0,0,0,0,-1,1679,932,0,0
462,92,0,0,0,0,0,0,0,0,0,-1,1686,932,0,0
469,92,0,0,0,0,0,0,0,0,0,-1,1693,932,0,0
476,92,0,0,0,0,0,0,0,0,0,-1,1700,932,0,0
483,92,0,0,0,0,0,0,0,0,0,-1,1707,932,0,0
490,92,0,0,0,0,0,0,0,0,0,-1,1714,932,0,0
497,92,0,0,0,0,0,0,0,0,0,-1,1721,932,0,0
504,92,0,0,0,0,0,0,0,0,0,-1,1728,932,0,0
511,92,0,0,0,0,0,0,0,0,0,-1,1735,932,0,0
518,92,0,0,0,0,0,0,0,0,0,-1,1742,932,0,0
525,92,0,0,0,0,0,0,0,0,0,-1,1749,932,0,0
532,92,0,0,0,0,0,0,0,0,0,-1,1756,932,0,0
539,92,0,0,0,0,0,0,0,0,0,-1,1763,932,0,0
546,92,0,0,0,0,0,0,0,0,0,-1,1770,932,0,0
553,92,0,0,0,0,0,0,0,0,0,-1,1777,932,0,0
560,92,0,0,0,0,0,0,0,0,0,-1,1784,932,0,0
567,92,0,0,0,0,0,0,0,0,0,-1,1791,932,0,0
574,92,0,0,0,0,0,0,0,0,0,-1,1798,932,0,0
581,92,0,0,0,0,0,0,0,0,0,-1,1805,932,0,0
588,92,0,0,0,0,0,0,0,0,0,-1,1812,932,0,0
595,92,0,0,0,0,0,0,0,0,0,-1,1819,932,0,0
602,92,0,0,0,0,0,0,0,0,0,-1,1826,932,0,0
609,92,0,0,0,0,0,0,0,0,0,-1,1833,932,0,0
616,92,0,0,0,0,0,0,0,0,0,-1,1840,932,0,0
623,92,0,0,0,0,0,0,0,0,0,-1,1847,932,0,0
630,92,0,0,0,0,0,0,0,0,0,-1,1854,932,0,0
637,92,235.995,8.5022,0,0,0,0,0,0,0,-1,1861,932,235.995,-8.50219
644,92,235.982,8.44305,0,0,0,0,0,0,0,-1,1868,932,235.982,-8.44306
651,92,236.043,8.39233,0,0,0,0,0,0,0,-1,1875,932,236.043,-8.39231
658,92,235.887,8.53259,0,0,0,0,0,0,0,-1,1882,932,235.887,-8.53262
665,92,235.788,8.80206,0,0,0,0,0,0,0,-1,1889,932,235.788,-8.80207
672,92,235.807,8.90234,0,0,0,0,0,0,0,-1,1896,932,235.807,-8.90235
679,92,235.791,8.7337,0,0,0,0,0,0,0,-1,1903,932,235.791,-8.73371
686,92,235.717,8.5097,0,0,0,0,0,0,0,-1,1910,932,235.717,-8.50968
693,92,214.728,8.79572,0,0,0,0,0,0,0,-1,1917,932,214.728,-8.79572
700,92,235.787,8.87451,0,0,0,0,0,0,0,-1,1924,932,235.787,-8.8745
707,92,140.011,15.4938,0,0,0,0,0,0,0,-1,1931,932,140.011,-15.4939
714,92,231.625,28.5256,0,0,0,0,0,0,0,-1,1938,932,231.625,-28.5256
721,92,231.327,29.746,-0.0108673,0.0060658,-0.000491275,0.00608004,-0.0108816,-1.54182,0.00992273,0.0449047,1945,932,231.327,-29.746
728,92,231,30.8928,-0.0117386,0.0123127,-0.00249553,0.0125689,-0.0119948,-1.46849,0.0141832,0.0342684,1952,932,231,-30.8927
735,92,230.853,31.9622,-0.0127548,0.0185056,-0.00428698,0.0190829,-0.013332,-1.43695,0.0188127,0.0257851,1959,932,230.853,-31.9622
742,92,230.802,33.0714,-0.0137371,0.024821,-0.00584968,0.0256889,-0.014605,-1.4235,0.0235553,0.0496572,1966,932,230.802,-33.0713
749,92,230.512,34.0873,0,0,0,0,0,0,0,-1,1973,932,230.512,-34.0873
756,92,230.221,35.2803,-0.0154217,0.0376936,-0.00827105,0.0389517,-0.0166798,-1.41984,0.0329657,0.033985,1980,932,230.221,-35.2803
763,92,230.15,36.2142,-0.0160424,0.0441846,-0.00911956,0.0455351,-0.0173929,-1.42377,0.0375231,0.0245736,1987,932,230.15,-36.2143
770,92,230.181,37.1188,-0.0164871,0.0508686,-0.00956316,0.0522001,-0.0178186,-1.43246,0.0420184,0.041543,1994,932,230.181,-37.1188
777,92,230.248,38.0083,0,0,0,0,0,0,0,-1,2001,932,230.248,-38.0083
784,92,117.767,21.7665,0,0,0,0,0,0,0,-1,2008,932,117.767,-21.7665
791,92,95.6941,14.4346,0,0,0,0,0,0,0,-1,2015,932,95.694,-14.4346
798,92,92.6777,13.6,0,0,0,0,0,0,0,-1,2022,932,92.6777,-13.6
805,92,0,0,0,0,0,0,0,0,0,-1,2029,932,0,0
812,92,0,0,0,0,0,0,0,0,0,-1,2036,932,0,0
-700,85,0,0,0,0,0,0,0,0,0,-1,524,939,0,0
-693,85,0,0,0,0,0,0,0,0,0,-1,531,939,0,0
-686,85,-71.3799,-3.12042,0,0,0,0,0,0,0,-1,538,939,-71.3799,3.1204
-679,85,-70.2184,-2.08044,0,0,0,0,0,0,0,-1,545,939,-70.2184,2.08043
-672,85,-58.9819,8.30292,0,0,0,0,0,0,0,-1,552,939,-58.9819,-8.30292
-665,85,-58.5912,8.72552,0,0,0,0,0,0,0,-1,559,939,-58.5912,-8.7255
-658,85,-58.3745,8.90198,0,0,0,0,0,0,0,-1,566,939,-58.3745,-8.90199
-651,85,-58.5191,9.10278,0,0,0,0,0,0,0,-1,573,939,-58.5191,-9.1028
-644,85,-67.919,11.7991,0,0,0,0,0,0,0,-1,580,939,-67.919,-11.7991
-637,85,-223.937,37.0619,0,0,0,0,0,0,0,-1,587,939,-223.937,-37.0619
-630,85,-224.075,35.9939,-0.0101607,0.049186,0.0124382,0.0516874,-0.0126622,1.37234,0.0393638,0.0308489,594,939,-224.075,-35.9939
-623,85,-224.273,35.0101,-0.00879533,0.0415799,0.0105992,0.0437191,-0.0109346,1.37164,0.0333931,0.0160479,601,939,-224.273,-35.0101
-616,85,-224.362,34.0443,-0.00726121,0.0340928,0.00855377,0.0357923,-0.00896065,1.37467,0.0273423,0.0161155,608,939,-224.362,-34.0443
-609,85,-224.535,33.0076,-0.00559305,0.0267264,0.00634046,0.0279257,-0.00679242,1.38384,0.0212464,0.0188927,615,939,-224.535,-33.0076
-602,85,-224.697,31.9396,-0.00382102,0.0194826,0.00398812,0.0201462,-0.00448464,1.40591,0.0151486,0.0218087,622,939,-224.697,-31.9396
-595,85,-224.725,30.8244,-0.00197197,0.0123636,0.00151687,0.0125223,-0.00213072,1.46652,0.00914159,0.0210652,629,939,-224.725,-30.8244
-588,85,-224.783,29.6911,5.18678e-05,0.00556923,-0.00146062,0.00593205,-0.000310947,-1.32733,0.00406232,0.0274646,636,939,-224.783,-29.6911
-581,85,-224.901,28.4877,0,0,0,0,0,0,0,-1,643,939,-224.901,-28.4877
-574,85,-225.52,27.8905,0,0,0,0,0,0,0,-1,650,939,-225.52,-27.8905
-567,85,-72.4246,0.480103,0,0,0,0,0,0,0,-1,657,939,-72.4246,-0.480077
-560,85,-72.3094,0.425659,0,0,0,0,0,0,0,-1,664,939,-72.3094,-0.425637
-553,85,-72.3888,0.423218,0,0,0,0,0,0,0,-1,671,939,-72.3888,-0.423207
-546,85,-72.4185,0.450989,0,0,0,0,0,0,0,-1,678,939,-72.4184,-0.450987
-539,85,-72.4494,0.444458,0,0,0,0,0,0,0,-1,685,939,-72.4494,-0.444476
-532,85,-72.5694,0.691101,0,0,0,0,0,0,0,-1,692,939,-72.5694,-0.691116
-525,85,-72.6234,0.690491,0,0,0,0,0,0,0,-1,699,939,-72.6234,-0.690502
-518,85,-72.5887,0.684326,0,0,0,0,0,0,0,-1,706,939,-72.5888,-0.684306
-511,85,0,0,0,0,0,0,0,0,0,-1,713,939,0,0
-504,85,0,0,0,0,0,0,0,0,0,-1,720,939,0,0
-497,85,0,0,0,0,0,0,0,0,0,-1,727,939,0,0
-490,85,0,0,0,0,0,0,0,0,0,-1,734,939,0,0
-483,85,0,0,0,0,0,0,0,0,0,-1,741,939,0,0
-476,85,0,0,0,0,0,0,0,0,0,-1,748,939,0,0
-469,85,0,0,0,0,0,0,0,0,0,-1,755,939,0,0
-462,85,0,0,0,0,0,0,0,0,0,-1,762,939,0,0
-455,85,0,0,0,0,0,0,0,0,0,-1,769,939,0,0
-448,85,0,0,0,0,0,0,0,0,0,-1,776,939,0,0
-441,85,0,0,0,0,0,0,0,0,0,-1,783,939,0,0
-434,85,0,0,0,0,0,0,0,0,0,-1,790,939,0,0
-427,85,0,0,0,0,0,0,0,0,0,-1,797,939,0,0
-420,85,0,0,0,0,0,0,0,0,0,-1,804,939,0,0
-413,85,0,0,0,0,0,0,0,0,0,-1,811,939,0,0
-406,85,0,0,0,0,0,0,0,0,0,-1,818,939,0,0
-399,85,0,0,0,0,0,0,0,0,0,-1,825,939,0,0
-392,85,0,0,0,0,0,0,0,0,0,-1,832,939,0,0
-385,85,0,0,0,0,0,0,0,0,0,-1,839,939,0,0
-378,85,0,0,0,0,0,0,0,0,0,-1,846,939,0,0
-371,85,0,0,0,0,0,0,0,0,0,-1,853,939,0,0
-364,85,0,0,0,0,0,0,0,0,0,-1,860,939,0,0
-357,85,0,0,0,0,0,0,0,0,0,-1,867,939,0,0
-350,85,0,0,0,0,0,0,0,0,0,-1,874,939,0,0
-343,85,0,0,0,0,0,0,0,0,0,-1,881,939,0,0
-336,85,0,0,0,0,0,0,0,0,0,-1,888,939,0,0
-329,85,0,0,0,0,0,0,0,0,0,-1,895,939,0,0
-322,85,0,0,0,0,0,0,0,0,0,-1,902,939,0,0
-315,85,0,0,0,0,0,0,0,0,0,-1,909,939,0,0
-308,85,0,0,0,0,0,0,0,0,0,-1,916,939,0,0
-301,85,0,0,0,0,0,0,0,0,0,-1,923,939,0,0
-294,85,0,0,0,0,0,0,0,0,0,-1,930,939,0,0
-287,85,0,0,0,0,0,0,0,0,0,-1,937,939,0,0
-280,85,0,0,0,0,0,0,0,0,0,-1,944,939,0,0
-273,85,0,0,0,0,0,0,0,0,0,-1,951,939,0,0
-266,85,0,0,0,0,0,0,0,0,0,-1,958,939,0,0
-259,85,0,0,0,0,0,0,0,0,0,-1,965,939,0,0
-252,85,0,0,0,0,0,0,0,0,0,-1,972,939,0,0
-245,85,0,0,0,0,0,0,0,0,0,-1,979,939,0,0
-238,85,0,0,0,0,0,0,0,0,0,-1,986,939,0,0
-231,85,0,0,0,0,0,0,0,0,0,-1,993,939,0,0
-224,85,0,0,0,0,0,0,0,0,0,-1,1000,939,0,0
-217,85,0,0,0,0,0,0,0,0,0,-1,1007,939,0,0
-210,85,0,0,0,0,0,0,0,0,0,-1,1014,939,0,0
-203,85,0,0,0,0,0,0,0,0,0,-1,1021,939,0,0
-196,85,0,0,0,0,0,0,0,0,0,-1,1028,939,0,0
-189,85,0,0,0,0,0,0,0,0,0,-1,1035,939,0,0
-182,85,0,0,0,0,0,0,0,0,0,-1,1042,939,0,0
-175,85,0,0,0,0,0,0,0,0,0,-1,1049,939,0,0
-168,85,0,0,0,0,0,0,0,0,0,-1,1056,939,0,0
-161,85,0,0,0,0,0,0,0,0,0,-1,1063,939,0,0
-154,85,0,0,0,0,0,0,0,0,0,-1,1070,939,0,0
-147,85,0,0,0,0,0,0,0,0,0,-1,1077,939,0,0
-140,85,0,0,0,0,0,0,0,0,0,-1,1084,939,0,0
-133,85,0,0,0,0,0,0,0,0,0,-1,1091,939,0,0
-126,85,0,0,0,0,0,0,0,0,0,-1,1098,939,0,0
-119,85,0,0,0,0,0,0,0,0,0,-1,1105,939,0,0
-112,85,0,0,0,0,0,0,0,0,0,-1,1112,939,0,0
-105,85,0,0,0,0,0,0,0,0,0,-1,1119,939,0,0
-98,85,0,0,0,0,0,0,0,0,0,-1,1126,939,0,0
-91,85,0,0,0,0,0,0,0,0,0,-1,1133,939,0,0
-84,85,0,0,0,0,0,0,0,0,0,-1,1140,939,0,0
-77,85,0,0,0,0,0,0,0,0,0,-1,1147,939,0,0
-70,85,0,0,0,0,0,0,0,0,0,-1,1154,939,0,0
-63,85,0,0,0,0,0,0,0,0,0,-1,1161,939,0,0
-56,85,0,0,0,0,0,0,0,0,0,-1,1168,939,0,0
-49,85,0,0,0,0,0,0,0,0,0,-1,1175,939,0,0
-42,85,0,0,0,0,0,0,0,0,0,-1,1182,939,0,0
-35,85,0,0,0,0,0,0,0,0,0,-1,1189,939,0,0
-28,85,0,0,0,0,0,0,0,0,0,-1,1196,939,0,0
-21,85,0,0,0,0,0,0,0,0,0,-1,1203,939,0,0
-14,85,0,0,0,0,0,0,0,0,0,-1,1210,939,0,0
-7,85,0,0,0,0,0,0,0,0,0,-1,1217,939,0,0
0,85,0,0,0,0,0,0,0,0,0,-1,1224,939,0,0
7,85,0,0,0,0,0,0,0,0,0,-1,1231,939,0,0
14,85,0,0,0,0,0,0,0,0,0,-1,1238,939,0,0
21,85,0,0,0,0,0,0,0,0,0,-1,1245,939,0,0
28,85,0,0,0,0,0,0,0,0,0,-1,1252,939,0,0
35,85,0,0,0,0,0,0,0,0,0,-1,1259,939,0,0
42,85,0,0,0,0,0,0,0,0,0,-1,1266,939,0,0
49,85,0,0,0,0,0,0,0,0,0,-1,1273,939,0,0
56,85,0,0,0,0,0,0,0,0,0,-1,1280,939,0,0
63,85,0,0,0,0,0,0,0,0,0,-1,1287,939,0,0
70,85,0,0,0,0,0,0,0,0,0,-1,1294,939,0,0
77,85,0,0,0,0,0,0,0,0,0,-1,1301,939,0,0
84,85,0,0,0,0,0,0,0,0,0,-1,1308,939,0,0
91,85,0,0,0,0,0,0,0,0,0,-1,1315,939,0,0
98,85,0,0,0,0,0,0,0,0,0,-1,1322,939,0,0
105,85,0,0,0,0,0,0,0,0,0,-1,1329,939,0,0
112,85,0,0,0,0,0,0,0,0,0,-1,1336,939,0,0
119,85,0,0,0,0,0,0,0,0,0,-1,1343,939,0,0
126,85,0,0,0,0,0,0,0,0,0,-1,1350,939,0,0
133,85,0,0,0,0,0,0,0,0,0,-1,1357,939,0,0
140,85,0,0,0,0,0,0,0,0,0,-1,1364,939,0,0
147,85,0,0,0,0,0,0,0,0,0,-1,1371,939,0,0
154,85,0,0,0,0,0,0,0,0,0,-1,1378,939,0,0
161,85,0,0,0,0,0,0,0,0,0,-1,1385,939,0,0
168,85,0,0,0,0,0,0,0,0,0,-1,1392,939,0,0
175,85,0,0,0,0,0,0,0,0,0,-1,1399,939,0,0
182,85,0,0,0,0,0,0,0,0,0,-1,1406,939,0,0
189,85,0,0,0,0,0,0,0,0,0,-1,1413,939,0,0
196,85,0,0,0,0,0,0,0,0,0,-1,1420,939,0,0
203,85,0,0,0,0,0,0,0,0,0,-1,1427,939,0,0
210,85,0,0,0,0,0,0,0,0,0,-1,1434,939,0,0
217,85,0,0,0,0,0,0,0,0,0,-1,1441,939,0,0
224,85,0,0,0,0,0,0,0,0,0,-1,1448,939,0,0
231,85,0,0,0,0,0,0,0,0,0,-1,1455,939,0,0
238,85,0,0,0,0,0,0,0,0,0,-1,1462,939,0,0
245,85,0,0,0,0,0,0,0,0,0,-1,1469,939,0,0
252,85,0,0,0,0,0,0,0,0,0,-1,1476,939,0,0
259,85,0,0,0,0,0,0,0,0,0,-1,1483,939,0,0
266,85,0,0,0,0,0,0,0,0,0,-1,1490,939,0,0
273,85,0,0,0,0,0,0,0,0,0,-1,1497,939,0,0
280,85,0,0,0,0,0,0,0,0,0,-1,1504,939,0,0
287,85,0,0,0,0,0,0,0,0,0,-1,1511,939,0,0
294,85,0,0,0,0,0,0,0,0,0,-1,1518,939,0,0
301,85,0,0,0,0,0,0,0,0,0,-1,1525,939,0,0
308,85,0,0,0,0,0,0,0,0,0,-1,1532,939,0,0
315,85,0,0,0,0,0,0,0,0,0,-1,1539,939,0,0
322,85,0,0,0,0,0,0,0,0,0,-1,1546,939,0,0
329,85,0,0,0,0,0,0,0,0,0,-1,1553,939,0,0
336,85,0,0,0,0,0,0,0,0,0,-1,1560,939,0,0
343,85,0,0,0,0,0,0,0,0,0,-1,1567,939,0,0
350,85,0,0,0,0,0,0,0,0,0,-1,1574,939,0,0
357,85,0,0,0,0,0,0,0,0,0,-1,1581,939,0,0
364,85,0,0,0,0,0,0,0,0,0,-1,1588,939,0,0
371,85,0,0,0,0,0,0,0,0,0,-1,1595,939,0,0
378,85,0,0,0,0,0,0,0,0,0,-1,1602,939,0,0
385,85,0,0,0,0,0,0,0,0,0,-1,1609,939,0,0
392,85,0,0,0,0,0,0,0,0,0,-1,1616,939,0,0
399,85,0,0,0,0,0,0,0,0,0,-1,1623,939,0,0
406,85,0,0,0,0,0,0,0,0,0,-1,1630,939,0,0
413,85,0,0,0,0,0,0,0,0,0,-1,1637,939,0,0
420,85,0,0,0,0,0,0,0,0,0,-1,1644,939,0,0
427,85,0,0,0,0,0,0,0,0,0,-1,1651,939,0,0
434,85,0,0,0,0,0,0,0,0,0,-1,1658,939,0,0
441,85,0,0,0,0,0,0,0,0,0,-1,1665,939,0,0
448,85,0,0,0,0,0,0,0,0,0,-1,1672,939,0,0
455,85,0,0,0,0,0,0,0,0,0,-1,1679,939,0,0
462,85,0,0,0,0,0,0,0,0,0,-1,1686,939,0,0
469,85,0,0,0,0,0,0,0,0,0,-1,1693,939,0,0
476,85,0,0,0,0,0,0,0,0,0,-1,1700,939,0,0
483,85,0,0,0,0,0,0,0,0,0,-1,1707,939,0,0
490,85,0,0,0,0,0,0,0,0,0,-1,1714,939,0,0
497,85,0,0,0,0,0,0,0,0,0,-1,1721,939,0,0
504,85,0,0,0,0,0,0,0,0,0,-1,1728,939,0,0
511,85,0,0,0,0,0,0,0,0,0,-1,1735,939,0,0
518,85,0,0,0,0,0,0,0,0,0,-1,1742,939,0,0
525,85,0,0,0,0,0,0,0,0,0,-1,1749,939,0,0
532,85,0,0,0,0,0,0,0,0,0,-1,1756,939,0,0
539,85,0,0,0,0,0,0,0,0,0,-1,1763,939,0,0
546,85,0,0,0,0,0,0,0,0,0,-1,1770,939,0,0
553,85,0,0,0,0,0,0,0,0,0,-1,1777,939,0,0
560,85,0,0,0,0,0,0,0,0,0,-1,1784,939,0,0
567,85,0,0,0,0,0,0,0,0,0,-1,1791,939,0,0
574,85,0,0,0,0,0,0,0,0,0,-1,1798,939,0,0
581,85,0,0,0,0,0,0,0,0,0,-1,1805,939,0,0
588,85,0,0,0,0,0,0,0,0,0,-1,1812,939,0,0
595,85,0,0,0,0,0,0,0,0,0,-1,1819,939,0,0
602,85,0,0,0,0,0,0,0,0,0,-1,1826,939,0,0
609,85,0,0,0,0,0,0,0,0,0,-1,1833,939,0,0
616,85,0,0,0,0,0,0,0,0,0,-1,1840,939,0,0
623,85,0,0,0,0,0,0,0,0,0,-1,1847,939,0,0
630,85,0,0,0,0,0,0,0,0,0,-1,1854,939,0,0
637,85,235.835,9.00354,0,0,0,0,0,0,0,-1,1861,939,235.835,-9.00352
644,85,235.673,8.73523,0,0,0,0,0,0,0,-1,1868,939,235.673,-8.73524
651,85,235.867,8.37897,0,0,0,0,0,0,0,-1,1875,939,235.867,-8.37895
658,85,235.729,8.61829,0,0,0,0,0,0,0,-1,1882,939,235.729,-8.61829
665,85,235.639,8.83826,0,0,0,0,0,0,0,-1,1889,939,235.639,-8.83824
672,85,235.892,8.48029,0,0,0,0,0,0,0,-1,1896,939,235.892,-8.48029
679,85,235.907,8.48163,0,0,0,0,0,0,0,-1,1903,939,235.907,-8.48163
686,85,235.763,8.60144,0,0,0,0,0,0,0,-1,1910,939,235.764,-8.60147
693,85,235.752,8.57819,0,0,0,0,0,0,0,-1,1917,939,235.752,-8.57821
700,85,235.788,8.74054,0,0,0,0,0,0,0,-1,1924,939,235.788,-8.74053
707,85,235.723,8.67395,0,0,0,0,0,0,0,-1,1931,939,235.723,-8.67392
714,85,233.189,28.5174,0,0,0,0,0,0,0,-1,1938,939,233.189,-28.5174
721,85,232.546,29.7764,0,0,0,0,0,0,0,-1,1945,939,232.546,-29.7764
728,85,232.173,30.994,0,0,0,0,0,0,0,-1,1952,939,232.173,-30.994
735,85,232.106,31.9472,0,0,0,0,0,0,0,-1,1959,939,232.106,-31.9472
742,85,231.961,33.0379,-0.0134046,0.0234867,-0.00501358,0.0241559,-0.0140738,-1.4381,0.0223263,0.0364732,1966,939,231.961,-33.0379
749,85,231.634,34.0453,-0.0149277,0.0300294,-0.00643968,0.0309336,-0.0158319,-1.43129,0.0274654,0.0211553,1973,939,231.634,-34.0453
756,85,231.375,35.0121,-0.0163619,0.0365816,-0.00767216,0.0376709,-0.0174513,-1.42975,0.0325307,0.0179911,1980,939,231.374,-35.0121
763,85,231.221,35.9838,-0.0176712,0.0430996,-0.00871349,0.0443242,-0.0188959,-1.43116,0.0374714,0.0185562,1987,939,231.221,-35.9838
770,85,230.987,36.9081,-0.0188722,0.0496896,-0.00947078,0.0509738,-0.0201564,-1.43602,0.0423323,0.0283021,1994,939,230.987,-36.9081
777,85,230.655,37.8412,0,0,0,0,0,0,0,-1,2001,939,230.655,-37.8412
784,85,114.733,22.3542,0,0,0,0,0,0,0,-1,2008,939,114.733,-22.3543
791,85,108.085,18.0881,0,0,0,0,0,0,0,-1,2015,939,108.085,-18.0881
798,85,93.9771,12.838,0,0,0,0,0,0,0,-1,2022,939,93.9771,-12.838
805,85,67.4045,8.44751,0,0,0,0,0,0,0,-1,2029,939,67.4046,-8.4475
812,85,0,0,0,0,0,0,0,0,0,-1,2036,939,0,0
-700,78,0,0,0,0,0,0,0,0,0,-1,524,946,0,0
-693,78,0,0,0,0,0,0,0,0,0,-1,531,946,0,0
-686,78,-71.3092,-3.06555,0,0,0,0,0,0,0,-1,538,946,-71.3092,3.06553
-679,78,-70.2859,-2.42047,0,0,0,0,0,0,0,-1,545,946,-70.2859,2.42045
-672,78,-68.8298,-1.27698,0,0,0,0,0,0,0,-1,552,946,-68.8298,1.27699
-665,78,-58.3835,7.82446,0,0,0,0,0,0,0,-1,559,946,-58.3835,-7.82444
-658,78,-68.3195,14.526,0,0,0,0,0,0,0,-1,566,946,-68.3195,-14.526
-651,78,-57.2355,9.40192,0,0,0,0,0,0,0,-1,573,946,-57.2355,-9.40191
-644,78,-68.5534,11.7624,0,0,0,0,0,0,0,-1,580,946,-68.5534,-11.7624
-637,78,-225.328,36.4654,0,0,0,0,0,0,0,-1,587,946,-225.328,-36.4654
-630,78,-225.36,35.6338,-0.00952203,0.0483284,0.0114069,0.0504964,-0.01169,1.38298,0.0381625,0.0360519,594,946,-225.36,-35.6338
-623,78,-225.392,34.7986,-0.00794753,0.0406092,0.00965131,0.0424572,-0.00979553,1.38161,0.0320725,0.0169439,601,946,-225.392,-34.7986
-616,78,-225.541,33.8535,-0.00619453,0.033021,0.00767601,0.03447,-0.00764349,1.38423,0.0259064,0.0168596,608,946,-225.541,-33.8535
-609,78,-225.673,32.9327,-0.00429438,0.025572,0.005526,0.0265617,-0.00528403,1.39359,0.0197067,0.0182156,615,946,-225.673,-32.9327
-602,78,-225.754,31.8707,-0.0022725,0.0182712,0.00323688,0.0187691,-0.00277043,1.41816,0.0135311,0.0204987,622,946,-225.754,-31.8707
-595,78,-225.738,30.8915,-0.000149592,0.0111281,0.00083584,0.0111897,-0.000211204,1.49722,0.00753118,0.0189716,629,946,-225.738,-30.8915
-588,78,-225.87,29.9106,0.0021993,0.00435647,-0.00209379,0.00563316,0.000922615,-1.02324,0.0034888,0.0197597,636,946,-225.87,-29.9107
-581,78,-226.244,28.8664,0,0,0,0,0,0,0,-1,643,946,-226.244,-28.8664
-574,78,-226.937,27.738,0,0,0,0,0,0,0,-1,650,946,-226.937,-27.738
-567,78,-72.409,0.433167,0,0,0,0,0,0,0,-1,657,946,-72.409,-0.433163
-560,78,-72.4455,0.42749,0,0,0,0,0,0,0,-1,664,946,-72.4455,-0.427491
-553,78,-72.4747,0.470947,0,0,0,0,0,0,0,-1,671,946,-72.4747,-0.47097
-546,78,-72.4727,0.549438,0,0,0,0,0,0,0,-1,678,946,-72.4727,-0.549428
-539,78,-72.4183,0.590637,0,0,0,0,0,0,0,-1,685,946,-72.4183,-0.590633
-532,78,-72.4738,0.447388,0,0,0,0,0,0,0,-1,692,946,-72.4738,-0.447377
-525,78,-72.4651,0.455017,0,0,0,0,0,0,0,-1,699,946,-72.4652,-0.455003
-518,78,-72.4155,0.587219,0,0,0,0,0,0,0,-1,706,946,-72.4155,-0.587229
-511,78,0,0,0,0,0,0,0,0,0,-1,713,946,0,0
-504,78,0,0,0,0,0,0,0,0,0,-1,720,946,0,0
-497,78,0,0,0,0,0,0,0,0,0,-1,727,946,0,0
-490,78,0,0,0,0,0,0,0,0,0,-1,734,946,0,0
-483,78,0,0,0,0,0,0,0,0,0,-1,741,946,0,0
-476,78,0,0,0,0,0,0,0,0,0,-1,748,946,0,0
-469,78,0,0,0,0,0,0,0,0,0,-1,755,946,0,0
-462,78,0,0,0,0,0,0,0,0,0,-1,762,946,0,0
-455,78,0,0,0,0,0,0,0,0,0,-1,769,946,0,0
-448,78,0,0,0,0,0,0,0,0,0,-1,776,946,0,0
-441,78,0,0,0,0,0,0,0,0,0,-1,783,946,0,0
-434,78,0,0,0,0,0,0,0,0,0,-1,790,946,0,0
-427,78,0,0,0,0,0,0,0,0,0,-1,797,946,0,0
-420,78,0,0,0,0,0,0,0,0,0,-1,804,946,0,0
-413,78,0,0,0,0,0,0,0,0,0,-1,811,946,0,0
-406,78,0,0,0,0,0,0,0,0,0,-1,818,946,0,0
-399,78,0,0,0,0,0,0,0,0,0,-1,825,946,0,0
-392,78,0,0,0,0,0,0,0,0,0,-1,832,946,0,0
-385,78,0,0,0,0,0,0,0,0,0,-1,839,946,0,0
-378,78,0,0,0,0,0,0,0,0,0,-1,846,946,0,0
-371,78,0,0,0,0,0,0,0,0,0,-1,853,946,0,0
-364,78,0,0,0,0,0,0,0,0,0,-1,860,946,0,0
-357,78,0,0,0,0,0,0,0,0,0,-1,867,946,0,0
-350,78,0,0,0,0,0,0,0,0,0,-1,874,946,0,0
-343,78,0,0,0,0,0,0,0,0,0,-1,881,946,0,0
-336,78,0,0,0,0,0,0,0,0,0,-1,888,946,0,0
-329,78,0,0,0,0,0,0,0,0,0,-1,895,946,0,0
-322,78,0,0,0,0,0,0,0,0,0,-1,902,946,0,0
-315,78,0,0,0,0,0,0,0,0,0,-1,909,946,0,0
-308,78,0,0,0,0,0,0,0,0,0,-1,916,946,0,0
-301,78,0,0,0,0,0,0,0,0,0,-1,923,946,0,0
-294,78,0,0,0,0,0,0,0,0,0,-1,930,946,0,0
-287,78,0,0,0,0,0,0,0,0,0,-1,937,946,0,0
-280,78,0,0,0,0,0,0,0,0,0,-1,944,946,0,0
-273,78,0,0,0,0,0,0,0,0,0,-1,951,946,0,0
-266,78,0,0,0,0,0,0,0,0,0,-1,958,946,0,0
-259,78,0,0,0,0,0,0,0,0,0,-1,965,946,0,0
-252,78,0,0,0,0,0,0,0,0,0,-1,972,946,0,0
-245,78,0,0,0,0,0,0,0,0,0,-1,979,946,0,0
-238,78,0,0,0,0,0,0,0,0,0,-1,986,946,0,0
-231,78,0,0,0,0,0,0,0,0,0,-1,993,946,0,0
-224,78,0,0,0,0,0,0,0,0,0,-1,1000,946,0,0
-217,78,0,0,0,0,0,0,0,0,0,-1,1007,946,0,0
-210,78,0,0,0,0,0,0,0,0,0,-1,1014,946,0,0
-203,78,0,0,0,0,0,0,0,0,0,-1,1021,946,0,0
-196,78,0,0,0,0,0,0,0,0,0,-1,1028,946,0,0
-189,78,0,0,0,0,0,0,0,0,0,-1,1035,946,0,0
-182,78,0,0,0,0,0,0,0,0,0,-1,1042,946,0,0
-175,78,0,0,0,0,0,0,0,0,0,-1,1049,946,0,0
-168,78,0,0,0,0,0,0,0,0,0,-1,1056,946,0,0
-161,78,0,0,0,0,0,0,0,0,0,-1,1063,946,0,0
-154,78,0,0,0,0,0,0,0,0,0,-1,1070,946,0,0
-147,78,0,0,0,0,0,0,0,0,0,-1,1077,946,0,0
-140,78,0,0,0,0,0,0,0,0,0,-1,1084,946,0,0
-133,78,0,0,0,0,0,0,0,0,0,-1,1091,946,0,0
-126,78,0,0,0,0,0,0,0,0,0,-1,1098,946,0,0
-119,78,0,0,0,0,0,0,0,0,0,-1,1105,946,0,0
-112,78,0,0,0,0,0,0,0,0,0,-1,1112,946,0,0
-105,78,0,0,0,0,0,0,0,0,0,-1,1119,946,0,0
-98,78,0,0,0,0,0,0,0,0,0,-1,1126,946,0,0
-91,78,0,0,0,0,0,0,0,0,0,-1,1133,946,0,0
-84,78,0,0,0,0,0,0,0,0,0,-1,1140,946,0,0
-77,78,0,0,0,0,0,0,0,0,0,-1,1147,946,0,0
-70,78,0,0,0,0,0,0,0,0,0,-1,1154,946,0,0
-63,78,0,0,0,0,0,0,0,0,0,-1,1161,946,0,0
-56,78,0,0,0,0,0,0,0,0,0,-1,1168,946,0,0
-49,78,0,0,0,0,0,0,0,0,0,-1,1175,946,0,0
-42,78,0,0,0,0,0,0,0,0,0,-1,1182,946,0,0
-35,78,0,0,0,0,0,0,0,0,0,-1,1189,946,0,0
-28,78,0,0,0,0,0,0,0,0,0,-1,1196,946,0,0
-21,78,0,0,0,0,0,0,0,0,0,-1,1203,946,0,0
-14,78,0,0,0,0,0,0,0,0,0,-1,1210,946,0,0
-7,78,0,0,0,0,0,0,0,0,0,-1,1217,946,0,0
0,78,0,0,0,0,0,0,0,0,0,-1,1224,946,0,0
7,78,0,0,0,0,0,0,0,0,0,-1,1231,946,0,0
14,78,0,0,0,0,0,0,0,0,0,-1,1238,946,0,0
21,78,0,0,0,0,0,0,0,0,0,-1,1245,946,0,0
28,78,0,0,0,0,0,0,0,0,0,-1,1252,946,0,0
35,78,0,0,0,0,0,0,0,0,0,-1,1259,946,0,0
42,78,0,0,0,0,0,0,0,0,0,-1,1266,946,0,0
49,78,0,0,0,0,0,0,0,0,0,-1,1273,946,0,0
56,78,0,0,0,0,0,0,0,0,0,-1,1280,946,0,0
63,78,0,0,0,0,0,0,0,0,0,-1,1287,946,0,0
70,78,0,0,0,0,0,0,0,0,0,-1,1294,946,0,0
77,78,0,0,0,0,0,0,0,0,0,-1,1301,946,0,0
84,78,0,0,0,0,0,0,0,0,0,-1,1308,946,0,0
91,78,0,0,0,0,0,0,0,0,0,-1,1315,946,0,0
98,78,0,0,0,0,0,0,0,0,0,-1,1322,946,0,0
105,78,0,0,0,0,0,0,0,0,0,-1,1329,946,0,0
112,78,0,0,0,0,0,0,0,0,0,-1,1336,946,0,0
119,78,0,0,0,0,0,0,0,0,0,-1,1343,946,0,0
126,78,0,0,0,0,0,0,0,0,0,-1,1350,946,0,0
133,78,0,0,0,0,0,0,0,0,0,-1,1357,946,0,0
140,78,0,0,0,0,0,0,0,0,0,-1,1364,946,0,0
147,78,0,0,0,0,0,0,0,0,0,-1,1371,946,0,0
154,78,0,0,0,0,0,0,0,0,0,-1,1378,946,0,0
161,78,0,0,0,0,0,0,0,0,0,-1,1385,946,0,0
168,78,0,0,0,0,0,0,0,0,0,-1,1392,946,0,0
175,78,0,0,0,0,0,0,0,0,0,-1,1399,946,0,0
182,78,0,0,0,0,0,0,0,0,0,-1,1406,946,0,0
189,78,0,0,0,0,0,0,0,0,0,-1,1413,946,0,0
196,78,0,0,0,0,0,0,0,0,0,-1,1420,946,0,0
203,78,0,0,0,0,0,0,0,0,0,-1,1427,946,0,0
210,78,0,0,0,0,0,0,0,0,0,-1,1434,946,0,0
217,78,0,0,0,0,0,0,0,0,0,-1,1441,946,0,0
224,78,0,0,0,0,0,0,0,0,0,-1,1448,946,0,0
231,78,0,0,0,0,0,0,0,0,0,-1,1455,946,0,0
238,78,0,0,0,0,0,0,0,0,0,-1,1462,946,0,0
245,78,0,0,0,0,0,0,0,0,0,-1,1469,946,0,0
252,78,0,0,0,0,0,0,0,0,0,-1,1476,946,0,0
259,78,0,0,0,0,0,0,0,0,0,-1,1483,946,0,0
266,78,0,0,0,0,0,0,0,0,0,-1,1490,946,0,0
273,78,0,0,0,0,0,0,0,0,0,-1,1497,946,0,0
280,78,0,0,0,0,0,0,0,0,0,-1,1504,946,0,0
287,78,0,0,0,0,0,0,0,0,0,-1,1511,946,0,0
294,78,0,0,0,0,0,0,0,0,0,-1,1518,946,0,0
301,78,0,0,0,0,0,0,0,0,0,-1,1525,946,0,0
308,78,0,0,0,0,0,0,0,0,0,-1,1532,946,0,0
315,78,0,0,0,0,0,0,0,0,0,-1,1539,946,0,0
322,78,0,0,0,0,0,0,0,0,0,-1,1546,946,0,0
329,78,0,0,0,0,0,0,0,0,0,-1,1553,946,0,0
336,78,0,0,0,0,0,0,0,0,0,-1,1560,946,0,0
343,78,0,0,0,0,0,0,0,0,0,-1,1567,946,0,0
350,78,0,0,0,0,0,0,0,0,0,-1,1574,946,0,0
357,78,0,0,0,0,0,0,0,0,0,-1,1581,946,0,0
364,78,0,0,0,0,0,0,0,0,0,-1,1588,946,0,0
371,78,0,0,0,0,0,0,0,0,0,-1,1595,946,0,0
378,78,0,0,0,0,0,0,0,0,0,-1,1602,946,0,0
385,78,0,0,0,0,0,0,0,0,0,-1,1609,946,0,0
392,78,0,0,0,0,0,0,0,0,0,-1,1616,946,0,0
399,78,0,0,0,0,0,0,0,0,0,-1,1623,946,0,0
406,78,0,0,0,0,0,0,0,0,0,-1,1630,946,0,0
413,78,0,0,0,0,0,0,0,0,0,-1,1637,946,0,0
420,78,0,0,0,0,0,0,0,0,0,-1,1644,946,0,0
427,78,0,0,0,0,0,0,0,0,0,-1,1651,946,0,0
434,78,0,0,0,0,0,0,0,0,0,-1,1658,946,0,0
441,78,0,0,0,0,0,0,0,0,0,-1,1665,946,0,0
448,78,0,0,0,0,0,0,0,0,0,-1,1672,946,0,0
455,78,0,0,0,0,0,0,0,0,0,-1,1679,946,0,0
462,78,0,0,0,0,0,0,0,0,0,-1,1686,946,0,0
469,78,0,0,0,0,0,0,0,0,0,-1,1693,946,0,0
476,78,0,0,0,0,0,0,0,0,0,-1,1700,946,0,0
483,78,0,0,0,0,0,0,0,0,0,-1,1707,946,0,0
490,78,0,0,0,0,0,0,0,0,0,-1,1714,946,0,0
497,78,0,0,0,0,0,0,0,0,0,-1,1721,946,0,0
504,78,0,0,0,0,0,0,0,0,0,-1,1728,946,0,0
511,78,0,0,0,0,0,0,0,0,0,-1,1735,946,0,0
518,78,0,0,0,0,0,0,0,0,0,-1,1742,946,0,0
525,78,0,0,0,0,0,0,0,0,0,-1,1749,946,0,0
532,78,0,0,0,0,0,0,0,0,0,-1,1756,946,0,0
539,78,0,0,0,0,0,0,0,0,0,-1,1763,946,0,0
546,78,0,0,0,0,0,0,0,0,0,-1,1770,946,0,0
553,78,0,0,0,0,0,0,0,0,0,-1,1777,946,0,0
560,78,0,0,0,0,0,0,0,0,0,-1,1784,946,0,0
567,78,0,0,0,0,0,0,0,0,0,-1,1791,946,0,0
574,78,0,0,0,0,0,0,0,0,0,-1,1798,946,0,0
581,78,0,0,0,0,0,0,0,0,0,-1,1805,946,0,0
588,78,0,0,0,0,0,0,0,0,0,-1,1812,946,0,0
595,78,0,0,0,0,0,0,0,0,0,-1,1819,946,0,0
602,78,0,0,0,0,0,0,0,0,0,-1,1826,946,0,0
609,78,0,0,0,0,0,0,0,0,0,-1,1833,946,0,0
616,78,0,0,0,0,0,0,0,0,0,-1,1840,946,0,0
623,78,0,0,0,0,0,0,0,0,0,-1,1847,946,0,0
630,78,0,0,0,0,0,0,0,0,0,-1,1854,946,0,0
637,78,235.851,8.96301,0,0,0,0,0,0,0,-1,1861,946,235.851,-8.96304
644,78,235.693,8.81946,0,0,0,0,0,0,0,-1,1868,946,235.693,-8.81946
651,78,235.702,8.52502,0,0,0,0,0,0,0,-1,1875,946,235.702,-8.525
658,78,235.731,8.64771,0,0,0,0,0,0,0,-1,1882,946,235.731,-8.64772
665,78,235.784,8.77325,0,0,0,0,0,0,0,-1,1889,946,235.784,-8.77326
672,78,235.851,8.24707,0,0,0,0,0,0,0,-1,1896,946,235.851,-8.24705
679,78,235.846,8.58075,0,0,0,0,0,0,0,-1,1903,946,235.846,-8.58076
686,78,235.805,8.68488,0,0,0,0,0,0,0,-1,1910,946,235.805,-8.68485
693,78,235.712,8.56946,0,0,0,0,0,0,0,-1,1917,946,235.712,-8.56944
700,78,235.768,8.58795,0,0,0,0,0,0,0,-1,1924,946,235.768,-8.58798
707,78,235.737,8.66748,0,0,0,0,0,0,0,-1,1931,946,235.736,-8.66748
714,78,234.083,28.5206,0,0,0,0,0,0,0,-1,1938,946,234.083,-28.5207
721,78,233.485,29.7626,0,0,0,0,0,0,0,-1,1945,946,233.485,-29.7626
728,78,233.083,31.3911,0,0,0,0,0,0,0,-1,1952,946,233.082,-31.3911
735,78,233.199,32.0566,-0.0103631,0.0153683,-0.00279541,0.0156685,-0.0106633,-1.46382,0.0152939,0.046477,1959,946,233.199,-32.0566
742,78,233.072,32.9412,-0.0126376,0.0220183,-0.00449645,0.0225922,-0.0132115,-1.44385,0.0209064,0.0383614,1966,946,233.072,-32.9412
749,78,232.757,33.9789,-0.0148592,0.0286827,-0.00604052,0.0295051,-0.0156816,-1.43547,0.0264924,0.0230241,1973,946,232.757,-33.9789
756,78,232.587,34.8295,-0.0169914,0.0353119,-0.00743529,0.0363483,-0.0180278,-1.43229,0.0319825,0.0209739,1980,946,232.587,-34.8296
763,78,232.314,35.746,-0.0190013,0.0418545,-0.0086885,0.0430706,-0.0202175,-1.43173,0.0373251,0.0260773,1987,946,232.314,-35.746
770,78,232.02,36.6823,-0.0209132,0.0483718,-0.00974927,0.0497175,-0.0222589,-1.43363,0.0425516,0.0338511,1994,946,232.02,-36.6822
777,78,231.564,37.4989,0,0,0,0,0,0,0,-1,2001,946,231.564,-37.4989
784,78,231.158,38.09,0,0,0,0,0,0,0,-1,2008,946,231.158,-38.0899
791,78,175.01,38.6979,0,0,0,0,0,0,0,-1,2015,946,175.01,-38.6979
798,78,70.8296,7.99933,0,0,0,0,0,0,0,-1,2022,946,70.8295,-7.99931
805,78,68.5852,7.34106,0,0,0,0,0,0,0,-1,2029,946,68.5853,-7.34105
812,78,0,0,0,0,0,0,0,0,0,-1,2036,946,0,0
-700,71,0,0,0,0,0,0,0,0,0,-1,524,953,0,0
-693,71,0,0,0,0,0,0,0,0,0,-1,531,953,0,0
-686,71,-71.189,-2.98248,0,0,0,0,0,0,0,-1,538,953,-71.189,2.98245
-679,71,-70.2738,-2.17017,0,0,0,0,0,0,0,-1,545,953,-70.2738,2.17015
-672,71,-69.1418,-1.21301,0,0,0,0,0,0,0,-1,552,953,-69.1418,1.21302
-665,71,-68.7411,12.514,0,0,0,0,0,0,0,-1,559,953,-68.7411,-12.514
-658,71,-68.6742,12.8325,0,0,0,0,0,0,0,-1,566,953,-68.6741,-12.8325
-651,71,-162.769,34.3455,0,0,0,0,0,0,0,-1,573,953,-162.769,-34.3455
-644,71,-223.762,37.8016,0,0,0,0,0,0,0,-1,580,953,-223.762,-37.8016
-637,71,-226.3,36.1476,0,0,0,0,0,0,0,-1,587,953,-226.3,-36.1476
-630,71,-226.381,35.423,-0.008909,0.0473529,0.0103103,0.0491828,-0.0107389,1.39514,0.0368929,0.0279269,594,953,-226.381,-35.423
-623,71,-226.446,34.611,-0.00709272,0.0395813,0.0086188,0.041122,-0.00863341,1.39391,0.0306998,0.0204271,601,953,-226.446,-34.611
-616,71,-226.599,33.6304,-0.00509424,0.0319596,0.00670356,0.033135,-0.00626972,1.39721,0.0244494,0.0205392,608,953,-226.599,-33.6304
-609,71,-226.681,32.7122,-0.0029391,0.0245,0.00461447,0.0252553,-0.00369434,1.40857,0.0181938,0.0202346,615,953,-226.681,-32.7121
-602,71,-226.729,31.8322,-0.000646491,0.0172174,0.00239284,0.0175324,-0.000961456,1.43992,0.0120216,0.0189809,622,953,-226.729,-31.8322
-595,71,-226.795,30.8806,0.00176991,0.0101286,7.22469e-05,0.0101292,0.00176928,1.56215,0.00624715,0.0224591,629,953,-226.795,-30.8805
-588,71,-226.865,29.972,0.0044644,0.00347598,-0.00279589,0.00680943,0.00113096,-0.697921,0.00421353,0.0288246,636,953,-226.865,-29.972
-581,71,-227.235,28.9584,0,0,0,0,0,0,0,-1,643,953,-227.235,-28.9583
-574,71,-72.4724,0.236389,0,0,0,0,0,0,0,-1,650,953,-72.4724,-0.236367
-567,71,-72.4236,0.345825,0,0,0,0,0,0,0,-1,657,953,-72.4236,-0.345807
-560,71,-72.4896,0.420471,0,0,0,0,0,0,0,-1,664,953,-72.4896,-0.420502
-553,71,-72.5439,0.572449,0,0,0,0,0,0,0,-1,671,953,-72.5439,-0.572455
-546,71,-72.5021,0.74353,0,0,0,0,0,0,0,-1,678,953,-72.5022,-0.743537
-539,71,-72.4401,0.409424,0,0,0,0,0,0,0,-1,685,953,-72.4401,-0.409447
-532,71,-72.476,0.163879,0,0,0,0,0,0,0,-1,692,953,-72.4759,-0.163905
-525,71,-72.3993,0.277771,0,0,0,0,0,0,0,-1,699,953,-72.3993,-0.277776
-518,71,0,0,0,0,0,0,0,0,0,-1,706,953,0,0
-511,71,0,0,0,0,0,0,0,0,0,-1,713,953,0,0
-504,71,0,0,0,0,0,0,0,0,0,-1,720,953,0,0
-497,71,0,0,0,0,0,0,0,0,0,-1,727,953,0,0
-490,71,0,0,0,0,0,0,0,0,0,-1,734,953,0,0
-483,71,0,0,0,0,0,0,0,0,0,-1,741,953,0,0
-476,71,0,0,0,0,0,0,0,0,0,-1,748,953,0,0
-469,71,0,0,0,0,0,0,0,0,0,-1,755,953,0,0
-462,71,0,0,0,0,0,0,0,0,0,-1,762,953,0,0
-455,71,0,0,0,0,0,0,0,0,0,-1,769,953,0,0
-448,71,0,0,0,0,0,0,0,0,0,-1,776,953,0,0
-441,71,0,0,0,0,0,0,0,0,0,-1,783,953,0,0
-434,71,0,0,0,0,0,0,0,0,0,-1,790,953,0,0
-427,71,0,0,0,0,0,0,0,0,0,-1,797,953,0,0
-420,71,0,0,0,0,0,0,0,0,0,-1,804,953,0,0
-413,71,0,0,0,0,0,0,0,0,0,-1,811,953,0,0
-406,71,0,0,0,0,0,0,0,0,0,-1,818,953,0,0
-399,71,0,0,0,0,0,0,0,0,0,-1,825,953,0,0
-392,71,0,0,0,0,0,0,0,0,0,-1,832,953,0,0
-385,71,0,0,0,0,0,0,0,0,0,-1,839,953,0,0
-378,71,0,0,0,0,0,0,0,0,0,-1,846,953,0,0
-371,71,0,0,0,0,0,0,0,0,0,-1,853,953,0,0
-364,71,0,0,0,0,0,0,0,0,0,-1,860,953,0,0
-357,71,0,0,0,0,0,0,0,0,0,-1,867,953,0,0
-350,71,0,0,0,0,0,0,0,0,0,-1,874,953,0,0
-343,71,0,0,0,0,0,0,0,0,0,-1,881,953,0,0
-336,71,0,0,0,0,0,0,0,0,0,-1,888,953,0,0
-329,71,0,0,0,0,0,0,0,0,0,-1,895,953,0,0
-322,71,0,0,0,0,0,0,0,0,0,-1,902,953,0,0
-315,71,0,0,0,0,0,0,0,0,0,-1,909,953,0,0
-308,71,0,0,0,0,0,0,0,0,0,-1,916,953,0,0
-301,71,0,0,0,0,0,0,0,0,0,-1,923,953,0,0
-294,71,0,0,0,0,0,0,0,0,0,-1,930,953,0,0
-287,71,0,0,0,0,0,0,0,0,0,-1,937,953,0,0
-280,71,0,0,0,0,0,0,0,0,0,-1,944,953,0,0
-273,71,0,0,0,0,0,0,0,0,0,-1,951,953,0,0
-266,71,0,0,0,0,0,0,0,0,0,-1,958,953,0,0
-259,71,0,0,0,0,0,0,0,0,0,-1,965,953,0,0
-252,71,0,0,0,0,0,0,0,0,0,-1,972,953,0,0
-245,71,0,0,0,0,0,0,0,0,0,-1,979,953,0,0
-238,71,0,0,0,0,0,0,0,0,0,-1,986,953,0,0
-231,71,0,0,0,0,0,0,0,0,0,-1,993,953,0,0
-224,71,0,0,0,0,0,0,0,0,0,-1,1000,953,0,0
-217,71,0,0,0,0,0,0,0,0,0,-1,1007,953,0,0
-210,71,0,0,0,0,0,0,0,0,0,-1,1014,953,0,0
-203,71,0,0,0,0,0,0,0,0,0,-1,1021,953,0,0
-196,71,0,0,0,0,0,0,0,0,0,-1,1028,953,0,0
-189,71,0,0,0,0,0,0,0,0,0,-1,1035,953,0,0
-182,71,0,0,0,0,0,0,0,0,0,-1,1042,953,0,0
-175,71,0,0,0,0,0,0,0,0,0,-1,1049,953,0,0
-168,71,0,0,0,0,0,0,0,0,0,-1,1056,953,0,0
-161,71,0,0,0,0,0,0,0,0,0,-1,1063,953,0,0
-154,71,0,0,0,0,0,0,0,0,0,-1,1070,953,0,0
-147,71,0,0,0,0,0,0,0,0,0,-1,1077,953,0,0
-140,71,0,0,0,0,0,0,0,0,0,-1,1084,953,0,0
-133,71,0,0,0,0,0,0,0,0,0,-1,1091,953,0,0
-126,71,0,0,0,0,0,0,0,0,0,-1,1098,953,0,0
-119,71,0,0,0,0,0,0,0,0,0,-1,1105,953,0,0
-112,71,0,0,0,0,0,0,0,0,0,-1,1112,953,0,0
-105,71,0,0,0,0,0,0,0,0,0,-1,1119,953,0,0
-98,71,0,0,0,0,0,0,0,0,0,-1,1126,953,0,0
-91,71,0,0,0,0,0,0,0,0,0,-1,1133,953,0,0
-84,71,0,0,0,0,0,0,0,0,0,-1,1140,953,0,0
-77,71,0,0,0,0,0,0,0,0,0,-1,1147,953,0,0
-70,71,0,0,0,0,0,0,0,0,0,-1,1154,953,0,0
-63,71,0,0,0,0,0,0,0,0,0,-1,1161,953,0,0
-56,71,0,0,0,0,0,0,0,0,0,-1,1168,953,0,0
-49,71,0,0,0,0,0,0,0,0,0,-1,1175,953,0,0
-42,71,0,0,0,0,0,0,0,0,0,-1,1182,953,0,0
-35,71,0,0,0,0,0,0,0,0,0,-1,1189,953,0,0
-28,71,0,0,0,0,0,0,0,0,0,-1,1196,953,0,0
-21,71,0,0,0,0,0,0,0,0,0,-1,1203,953,0,0
-14,71,0,0,0,0,0,0,0,0,0,-1,1210,953,0,0
-7,71,0,0,0,0,0,0,0,0,0,-1,1217,953,0,0
0,71,0,0,0,0,0,0,0,0,0,-1,1224,953,0,0
7,71,0,0,0,0,0,0,0,0,0,-1,1231,953,0,0
14,71,0,0,0,0,0,0,0,0,0,-1,1238,953,0,0
21,71,0,0,0,0,0,0,0,0,0,-1,1245,953,0,0
28,71,0,0,0,0,0,0,0,0,0,-1,1252,953,0,0
35,71,0,0,0,0,0,0,0,0,0,-1,1259,953,0,0
42,71,0,0,0,0,0,0,0,0,0,-1,1266,953,0,0
49,71,0,0,0,0,0,0,0,0,0,-1,1273,953,0,0
56,71,0,0,0,0,0,0,0,0,0,-1,1280,953,0,0
63,71,0,0,0,0,0,0,0,0,0,-1,1287,953,0,0
70,71,0,0,0,0,0,0,0,0,0,-1,1294,953,0,0
77,71,0,0,0,0,0,0,0,0,0,-1,1301,953,0,0
84,71,0,0,0,0,0,0,0,0,0,-1,1308,953,0,0
91,71,0,0,0,0,0,0,0,0,0,-1,1315,953,0,0
98,71,0,0,0,0,0,0,0,0,0,-1,1322,953,0,0
105,71,0,0,0,0,0,0,0,0,0,-1,1329,953,0,0
112,71,0,0,0,0,0,0,0,0,0,-1,1336,953,0,0
119,71,0,0,0,0,0,0,0,0,0,-1,1343,953,0,0
126,71,0,0,0,0,0,0,0,0,0,-1,1350,953,0,0
133,71,0,0,0,0,0,0,0,0,0,-1,1357,953,0,0
140,71,0,0,0,0,0,0,0,0,0,-1,1364,953,0,0
147,71,0,0,0,0,0,0,0,0,0,-1,1371,953,0,0
154,71,0,0,0,0,0,0,0,0,0,-1,1378,953,0,0
161,71,0,0,0,0,0,0,0,0,0,-1,1385,953,0,0
168,71,0,0,0,0,0,0,0,0,0,-1,1392,953,0,0
175,71,0,0,0,0,0,0,0,0,0,-1,1399,953,0,0
182,71,0,0,0,0,0,0,0,0,0,-1,1406,953,0,0
189,71,0,0,0,0,0,0,0,0,0,-1,1413,953,0,0
196,71,0,0,0,0,0,0,0,0,0,-1,1420,953,0,0
203,71,0,0,0,0,0,0,0,0,0,-1,1427,953,0,0
210,71,0,0,0,0,0,0,0,0,0,-1,1434,953,0,0
217,71,0,0,0,0,0,0,0,0,0,-1,1441,953,0,0
224,71,0,0,0,0,0,0,0,0,0,-1,1448,953,0,0
231,71,0,0,0,0,0,0,0,0,0,-1,1455,953,0,0
238,71,0,0,0,0,0,0,0,0,0,-1,1462,953,0,0
245,71,0,0,0,0,0,0,0,0,0,-1,1469,953,0,0
252,71,0,0,0,0,0,0,0,0,0,-1,1476,953,0,0
259,71,0,0,0,0,0,0,0,0,0,-1,1483,953,0,0
266,71,0,0,0,0,0,0,0,0,0,-1,1490,953,0,0
273,71,0,0,0,0,0,0,0,0,0,-1,1497,953,0,0
280,71,0,0,0,0,0,0,0,0,0,-1,1504,953,0,0
287,71,0,0,0,0,0,0,0,0,0,-1,1511,953,0,0
294,71,0,0,0,0,0,0,0,0,0,-1,1518,953,0,0
301,71,0,0,0,0,0,0,0,0,0,-1,1525,953,0,0
308,71,0,0,0,0,0,0,0,0,0,-1,1532,953,0,0
315,71,0,0,0,0,0,0,0,0,0,-1,1539,953,0,0
322,71,0,0,0,0,0,0,0,0,0,-1,1546,953,0,0
329,71,0,0,0,0,0,0,0,0,0,-1,1553,953,0,0
336,71,0,0,0,0,0,0,0,0,0,-1,1560,953,0,0
343,71,0,0,0,0,0,0,0,0,0,-1,1567,953,0,0
350,71,0,0,0,0,0,0,0,0,0,-1,1574,953,0,0
357,71,0,0,0,0,0,0,0,0,0,-1,1581,953,0,0
364,71,0,0,0,0,0,0,0,0,0,-1,1588,953,0,0
371,71,0,0,0,0,0,0,0,0,0,-1,1595,953,0,0
378,71,0,0,0,0,0,0,0,0,0,-1,1602,953,0,0
385,71,0,0,0,0,0,0,0,0,0,-1,1609,953,0,0
392,71,0,0,0,0,0,0,0,0,0,-1,1616,953,0,0
399,71,0,0,0,0,0,0,0,0,0,-1,1623,953,0,0
406,71,0,0,0,0,0,0,0,0,0,-1,1630,953,0,0
413,71,0,0,0,0,0,0,0,0,0,-1,1637,953,0,0
420,71,0,0,0,0,0,0,0,0,0,-1,1644,953,0,0
427,71,0,0,0,0,0,0,0,0,0,-1,1651,953,0,0
434,71,0,0,0,0,0,0,0,0,0,-1,1658,953,0,0
441,71,0,0,0,0,0,0,0,0,0,-1,1665,953,0,0
448,71,0,0,0,0,0,0,0,0,0,-1,1672,953,0,0
455,71,0,0,0,0,0,0,0,0,0,-1,1679,953,0,0
462,71,0,0,0,0,0,0,0,0,0,-1,1686,953,0,0
469,71,0,0,0,0,0,0,0,0,0,-1,1693,953,0,0
476,71,0,0,0,0,0,0,0,0,0,-1,1700,953,0,0
483,71,0,0,0,0,0,0,0,0,0,-1,1707,953,0,0
490,71,0,0,0,0,0,0,0,0,0,-1,1714,953,0,0
497,71,0,0,0,0,0,0,0,0,0,-1,1721,953,0,0
504,71,0,0,0,0,0,0,0,0,0,-1,1728,953,0,0
511,71,0,0,0,0,0,0,0,0,0,-1,1735,953,0,0
518,71,0,0,0,0,0,0,0,0,0,-1,1742,953,0,0
525,71,0,0,0,0,0,0,0,0,0,-1,1749,953,0,0
532,71,0,0,0,0,0,0,0,0,0,-1,1756,953,0,0
539,71,0,0,0,0,0,0,0,0,0,-1,1763,953,0,0
546,71,0,0,0,0,0,0,0,0,0,-1,1770,953,0,0
553,71,0,0,0,0,0,0,0,0,0,-1,1777,953,0,0
560,71,0,0,0,0,0,0,0,0,0,-1,1784,953,0,0
567,71,0,0,0,0,0,0,0,0,0,-1,1791,953,0,0
574,71,0,0,0,0,0,0,0,0,0,-1,1798,953,0,0
581,71,0,0,0,0,0,0,0,0,0,-1,1805,953,0,0
588,71,0,0,0,0,0,0,0,0,0,-1,1812,953,0,0
595,71,0,0,0,0,0,0,0,0,0,-1,1819,953,0,0
602,71,0,0,0,0,0,0,0,0,0,-1,1826,953,0,0
609,71,0,0,0,0,0,0,0,0,0,-1,1833,953,0,0
616,71,0,0,0,0,0,0,0,0,0,-1,1840,953,0,0
623,71,0,0,0,0,0,0,0,0,0,-1,1847,953,0,0
630,71,0,0,0,0,0,0,0,0,0,-1,1854,953,0,0
637,71,235.845,8.7074,0,0,0,0,0,0,0,-1,1861,953,235.845,-8.70741
644,71,235.678,8.89575,0,0,0,0,0,0,0,-1,1868,953,235.678,-8.89576
651,71,235.663,8.76123,0,0,0,0,0,0,0,-1,1875,953,235.663,-8.76124
658,71,235.738,8.6441,0,0,0,0,0,0,0,-1,1882,953,235.738,-8.64409
665,71,235.836,8.69037,0,0,0,0,0,0,0,-1,1889,953,235.836,-8.69037
672,71,235.818,8.61011,0,0,0,0,0,0,0,-1,1896,953,235.818,-8.61011
679,71,235.78,8.67517,0,0,0,0,0,0,0,-1,1903,953,235.78,-8.67517
686,71,235.719,8.35785,0,0,0,0,0,0,0,-1,1910,953,235.719,-8.35786
693,71,235.725,8.36151,0,0,0,0,0,0,0,-1,1917,953,235.725,-8.36151
700,71,235.823,8.30652,0,0,0,0,0,0,0,-1,1924,953,235.823,-8.30655
707,71,223.075,8.47913,0,0,0,0,0,0,0,-1,1931,953,223.075,-8.47912
714,71,234.996,28.6431,0,0,0,0,0,0,0,-1,1938,953,234.996,-28.6431
721,71,234.472,29.881,0,0,0,0,0,0,0,-1,1945,953,234.472,-29.881
728,71,234.052,31.1747,0,0,0,0,0,0,0,-1,1952,953,234.053,-31.1748
735,71,234.05,32.1646,-0.00869003,0.0139802,-0.00215586,0.0141834,-0.00889322,-1.47682,0.0134395,0.0367726,1959,953,234.05,-32.1646
742,71,234.026,33.0566,-0.0116482,0.0208087,-0.00394675,0.0212817,-0.0121212,-1.45151,0.0195254,0.0391653,1966,953,234.026,-33.0566
749,71,233.846,33.8947,-0.0145299,0.0276335,-0.0056039,0.0283656,-0.015262,-1.44089,0.0255643,0.0312264,1973,953,233.846,-33.8947
756,71,233.637,34.6412,-0.0172997,0.0343992,-0.00714099,0.0353675,-0.0182679,-1.43603,0.0314866,0.0257787,1980,953,233.637,-34.6412
763,71,233.436,35.5417,-0.0199256,0.0410486,-0.00857225,0.0422309,-0.0211078,-1.43375,0.0372403,0.0399071,1987,953,233.436,-35.5417
770,71,233.003,36.3167,-0.0224281,0.0476053,-0.00987506,0.0489711,-0.0237939,-1.43336,0.042841,0.0423721,1994,953,233.003,-36.3167
777,71,232.761,36.5811,0,0,0,0,0,0,0,-1,2001,953,232.761,-36.5811
784,71,232.07,37.8361,0,0,0,0,0,0,0,-1,2008,953,232.07,-37.8361
791,71,231.609,39.2339,0,0,0,0,0,0,0,-1,2015,953,231.609,-39.2339
798,71,176.074,39.0334,0,0,0,0,0,0,0,-1,2022,953,176.075,-39.0334
805,71,59.978,6.41992,0,0,0,0,0,0,0,-1,2029,953,59.9781,-6.41992
812,71,0,0,0,0,0,0,0,0,0,-1,2036,953,0,0
-700,64,0,0,0,0,0,0,0,0,0,-1,524,960,0,0
-693,64,0,0,0,0,0,0,0,0,0,-1,531,960,0,0
-686,64,-73.4523,4.74207,0,0,0,0,0,0,0,-1,538,960,-73.4523,-4.74207
-679,64,-81.7646,8.53833,0,0,0,0,0,0,0,-1,545,960,-81.7646,-8.53834
-672,64,-69.4809,11.0681,0,0,0,0,0,0,0,-1,552,960,-69.4809,-11.0681
-665,64,-69.2921,11.0865,0,0,0,0,0,0,0,-1,559,960,-69.2921,-11.0865
-658,64,-163.936,34.8105,0,0,0,0,0,0,0,-1,566,960,-163.936,-34.8106
-651,64,-225.018,38.4536,0,0,0,0,0,0,0,-1,573,960,-225.018,-38.4536
-644,64,-227.323,36.6713,0,0,0,0,0,0,0,-1,580,960,-227.323,-36.6713
-637,64,-227.277,35.9222,-0.0104634,0.0543194,0.010753,0.0560576,-0.0122016,1.41053,0.0420334,0.0299312,587,960,-227.277,-35.9222
-630,64,-227.34,35.1907,-0.00850847,0.0463077,0.00935175,0.0478592,-0.01006,1.40639,0.0357346,0.0217664,594,960,-227.34,-35.1907
-623,64,-227.452,34.4199,-0.00636123,0.038469,0.00767642,0.039747,-0.00763925,1.40582,0.0293774,0.0204815,601,960,-227.452,-34.4199
-616,64,-227.557,33.5452,-0.00404665,0.0308143,0.00578494,0.0317492,-0.00498155,1.41057,0.0230071,0.025055,608,960,-227.557,-33.5452
-609,64,-227.655,32.6849,-0.00158247,0.0233586,0.00372754,0.0239038,-0.00212765,1.42557,0.0166903,0.0236969,615,960,-227.655,-32.6849
-602,64,-227.727,31.8464,0.00102034,0.0161214,0.00154732,0.0162783,0.000863425,1.46973,0.0105761,0.0197664,622,960,-227.727,-31.8464
-595,64,-227.845,30.9328,0.00375703,0.00912625,-0.000719091,0.00922089,0.00366239,-1.43994,0.00536107,0.0296069,629,960,-227.845,-30.9328
-588,64,-227.715,30.0356,0.00681392,0.00268624,-0.0035677,0.00887172,0.000628437,-0.523175,0.00571653,0.0438754,636,960,-227.715,-30.0356
-581,64,-227.402,28.9656,0,0,0,0,0,0,0,-1,643,960,-227.402,-28.9655
-574,64,-72.4006,0.371521,0,0,0,0,0,0,0,-1,650,960,-72.4006,-0.37155
-567,64,-72.3788,0.370911,0,0,0,0,0,0,0,-1,657,960,-72.3788,-0.370913
-560,64,-72.4356,0.388611,0,0,0,0,0,0,0,-1,664,960,-72.4356,-0.388604
-553,64,-72.4363,0.548584,0,0,0,0,0,0,0,-1,671,960,-72.4363,-0.5486
-546,64,-72.4562,0.710083,0,0,0,0,0,0,0,-1,678,960,-72.4563,-0.710067
-539,64,-72.674,0.512695,0,0,0,0,0,0,0,-1,685,960,-72.674,-0.512709
-532,64,-72.5784,0.511841,0,0,0,0,0,0,0,-1,692,960,-72.5783,-0.511854
-525,64,-72.2922,0.433228,0,0,0,0,0,0,0,-1,699,960,-72.2922,-0.433254
-518,64,0,0,0,0,0,0,0,0,0,-1,706,960,0,0
-511,64,0,0,0,0,0,0,0,0,0,-1,713,960,0,0
-504,64,0,0,0,0,0,0,0,0,0,-1,720,960,0,0
-497,64,0,0,0,0,0,0,0,0,0,-1,727,960,0,0
-490,64,0,0,0,0,0,0,0,0,0,-1,734,960,0,0
-483,64,0,0,0,0,0,0,0,0,0,-1,741,960,0,0
-476,64,0,0,0,0,0,0,0,0,0,-1,748,960,0,0
-469,64,0,0,0,0,0,0,0,0,0,-1,755,960,0,0
-462,64,0,0,0,0,0,0,0,0,0,-1,762,960,0,0
-455,64,0,0,0,0,0,0,0,0,0,-1,769,960,0,0
-448,64,0,0,0,0,0,0,0,0,0,-1,776,960,0,0
-441,64,0,0,0,0,0,0,0,0,0,-1,783,960,0,0
-434,64,0,0,0,0,0,0,0,0,0,-1,790,960,0,0
-427,64,0,0,0,0,0,0,0,0,0,-1,797,960,0,0
-420,64,0,0,0,0,0,0,0,0,0,-1,804,960,0,0
-413,64,0,0,0,0,0,0,0,0,0,-1,811,960,0,0
-406,64,0,0,0,0,0,0,0,0,0,-1,818,960,0,0
-399,64,0,0,0,0,0,0,0,0,0,-1,825,960,0,0
-392,64,0,0,0,0,0,0,0,0,0,-1,832,960,0,0
-385,64,0,0,0,0,0,0,0,0,0,-1,839,960,0,0
-378,64,0,0,0,0,0,0,0,0,0,-1,846,960,0,0
-371,64,0,0,0,0,0,0,0,0,0,-1,853,960,0,0
-364,64,0,0,0,0,0,0,0,0,0,-1,860,960,0,0
-357,64,0,0,0,0,0,0,0,0,0,-1,867,960,0,0
-350,64,0,0,0,0,0,0,0,0,0,-1,874,960,0,0
-343,64,0,0,0,0,0,0,0,0,0,-1,881,960,0,0
-336,64,0,0,0,0,0,0,0,0,0,-1,888,960,0,0
-329,64,0,0,0,0,0,0,0,0,0,-1,895,960,0,0
-322,64,0,0,0,0,0,0,0,0,0,-1,902,960,0,0
-315,64,0,0,0,0,0,0,0,0,0,-1,909,960,0,0
-308,64,0,0,0,0,0,0,0,0,0,-1,916,960,0,0
-301,64,0,0,0,0,0,0,0,0,0,-1,923,960,0,0
-294,64,0,0,0,0,0,0,0,0,0,-1,930,960,0,0
-287,64,0,0,0,0,0,0,0,0,0,-1,937,960,0,0
-280,64,0,0,0,0,0,0,0,0,0,-1,944,960,0,0
-273,64,0,0,0,0,0,0,0,0,0,-1,951,960,0,0
-266,64,0,0,0,0,0,0,0,0,0,-1,958,960,0,0
-259,64,0,0,0,0,0,0,0,0,0,-1,965,960,0,0
-252,64,0,0,0,0,0,0,0,0,0,-1,972,960,0,0
-245,64,0,0,0,0,0,0,0,0,0,-1,979,960,0,0
-238,64,0,0,0,0,0,0,0,0,0,-1,986,960,0,0
-231,64,0,0,0,0,0,0,0,0,0,-1,993,960,0,0
-224,64,0,0,0,0,0,0,0,0,0,-1,1000,960,0,0
-217,64,0,0,0,0,0,0,0,0,0,-1,1007,960,0,0
-210,64,0,0,0,0,0,0,0,0,0,-1,1014,960,0,0
-203,64,0,0,0,0,0,0,0,0,0,-1,1021,960,0,0
-196,64,0,0,0,0,0,0,0,0,0,-1,1028,960,0,0
-189,64,0,0,0,0,0,0,0,0,0,-1,1035,960,0,0
-182,64,0,0,0,0,0,0,0,0,0,-1,1042,960,0,0
-175,64,0,0,0,0,0,0,0,0,0,-1,1049,960,0,0
-168,64,0,0,0,0,0,0,0,0,0,-1,1056,960,0,0
-161,64,0,0,0,0,0,0,0,0,0,-1,1063,960,0,0
-154,64,0,0,0,0,0,0,0,0,0,-1,1070,960,0,0
-147,64,0,0,0,0,0,0,0,0,0,-1,1077,960,0,0
-140,64,0,0,0,0,0,0,0,0,0,-1,1084,960,0,0
-133,64,0,0,0,0,0,0,0,0,0,-1,1091,960,0,0
-126,64,0,0,0,0,0,0,0,0,0,-1,1098,960,0,0
-119,64,0,0,0,0,0,0,0,0,0,-1,1105,960,0,0
-112,64,0,0,0,0,0,0,0,0,0,-1,1112,960,0,0
-105,64,0,0,0,0,0,0,0,0,0,-1,1119,960,0,0
-98,64,0,0,0,0,0,0,0,0,0,-1,1126,960,0,0
-91,64,0,0,0,0,0,0,0,0,0,-1,1133,960,0,0
-84,64,0,0,0,0,0,0,0,0,0,-1,1140,960,0,0
-77,64,0,0,0,0,0,0,0,0,0,-1,1147,960,0,0
-70,64,0,0,0,0,0,0,0,0,0,-1,1154,960,0,0
-63,64,0,0,0,0,0,0,0,0,0,-1,1161,960,0,0
-56,64,0,0,0,0,0,0,0,0,0,-1,1168,960,0,0
-49,64,0,0,0,0,0,0,0,0,0,-1,1175,960,0,0
-42,64,0,0,0,0,0,0,0,0,0,-1,1182,960,0,0
-35,64,0,0,0,0,0,0,0,0,0,-1,1189,960,0,0
-28,64,0,0,0,0,0,0,0,0,0,-1,1196,960,0,0
-21,64,0,0,0,0,0,0,0,0,0,-1,1203,960,0,0
-14,64,0,0,0,0,0,0,0,0,0,-1,1210,960,0,0
-7,64,0,0,0,0,0,0,0,0,0,-1,1217,960,0,0
0,64,0,0,0,0,0,0,0,0,0,-1,1224,960,0,0
7,64,0,0,0,0,0,0,0,0,0,-1,1231,960,0,0
14,64,0,0,0,0,0,0,0,0,0,-1,1238,960,0,0
21,64,0,0,0,0,0,0,0,0,0,-1,1245,960,0,0
28,64,0,0,0,0,0,0,0,0,0,-1,1252,960,0,0
35,64,0,0,0,0,0,0,0,0,0,-1,1259,960,0,0
42,64,0,0,0,0,0,0,0,0,0,-1,1266,960,0,0
49,64,0,0,0,0,0,0,0,0,0,-1,1273,960,0,0
56,64,0,0,0,0,0,0,0,0,0,-1,1280,960,0,0
63,64,0,0,0,0,0,0,0,0,0,-1,1287,960,0,0
70,64,0,0,0,0,0,0,0,0,0,-1,1294,960,0,0
77,64,0,0,0,0,0,0,0,0,0,-1,1301,960,0,0
84,64,0,0,0,0,0,0,0,0,0,-1,1308,960,0,0
91,64,0,0,0,0,0,0,0,0,0,-1,1315,960,0,0
98,64,0,0,0,0,0,0,0,0,0,-1,1322,960,0,0
105,64,0,0,0,0,0,0,0,0,0,-1,1329,960,0,0
112,64,0,0,0,0,0,0,0,0,0,-1,1336,960,0,0
119,64,0,0,0,0,0,0,0,0,0,-1,1343,960,0,0
126,64,0,0,0,0,0,0,0,0,0,-1,1350,960,0,0
133,64,0,0,0,0,0,0,0,0,0,-1,1357,960,0,0
140,64,0,0,0,0,0,0,0,0,0,-1,1364,960,0,0
147,64,0,0,0,0,0,0,0,0,0,-1,1371,960,0,0
154,64,0,0,0,0,0,0,0,0,0,-1,1378,960,0,0
161,64,0,0,0,0,0,0,0,0,0,-1,1385,960,0,0
168,64,0,0,0,0,0,0,0,0,0,-1,1392,960,0,0
175,64,0,0,0,0,0,0,0,0,0,-1,1399,960,0,0
182,64,0,0,0,0,0,0,0,0,0,-1,1406,960,0,0
189,64,0,0,0,0,0,0,0,0,0,-1,1413,960,0,0
196,64,0,0,0,0,0,0,0,0,0,-1,1420,960,0,0
203,64,0,0,0,0,0,0,0,0,0,-1,1427,960,0,0
210,64,0,0,0,0,0,0,0,0,0,-1,1434,960,0,0
217,64,0,0,0,0,0,0,0,0,0,-1,1441,960,0,0
224,64,0,0,0,0,0,0,0,0,0,-1,1448,960,0,0
231,64,0,0,0,0,0,0,0,0,0,-1,1455,960,0,0
238,64,0,0,0,0,0,0,0,0,0,-1,1462,960,0,0
245,64,0,0,0,0,0,0,0,0,0,-1,1469,960,0,0
252,64,0,0,0,0,0,0,0,0,0,-1,1476,960,0,0
259,64,0,0,0,0,0,0,0,0,0,-1,1483,960,0,0
266,64,0,0,0,0,0,0,0,0,0,-1,1490,960,0,0
273,64,0,0,0,0,0,0,0,0,0,-1,1497,960,0,0
280,64,0,0,0,0,0,0,0,0,0,-1,1504,960,0,0
287,64,0,0,0,0,0,0,0,0,0,-1,1511,960,0,0
294,64,0,0,0,0,0,0,0,0,0,-1,1518,960,0,0
301,64,0,0,0,0,0,0,0,0,0,-1,1525,960,0,0
308,64,0,0,0,0,0,0,0,0,0,-1,1532,960,0,0
315,64,0,0,0,0,0,0,0,0,0,-1,1539,960,0,0
322,64,0,0,0,0,0,0,0,0,0,-1,1546,960,0,0
329,64,0,0,0,0,0,0,0,0,0,-1,1553,960,0,0
336,64,0,0,0,0,0,0,0,0,0,-1,1560,960,0,0
343,64,0,0,0,0,0,0,0,0,0,-1,1567,960,0,0
350,64,0,0,0,0,0,0,0,0,0,-1,1574,960,0,0
357,64,0,0,0,0,0,0,0,0,0,-1,1581,960,0,0
364,64,0,0,0,0,0,0,0,0,0,-1,1588,960,0,0
371,64,0,0,0,0,0,0,0,0,0,-1,1595,960,0,0
378,64,0,0,0,0,0,0,0,0,0,-1,1602,960,0,0
385,64,0,0,0,0,0,0,0,0,0,-1,1609,960,0,0
392,64,0,0,0,0,0,0,0,0,0,-1,1616,960,0,0
399,64,0,0,0,0,0,0,0,0,0,-1,1623,960,0,0
406,64,0,0,0,0,0,0,0,0,0,-1,1630,960,0,0
413,64,0,0,0,0,0,0,0,0,0,-1,1637,960,0,0
420,64,0,0,0,0,0,0,0,0,0,-1,1644,960,0,0
427,64,0,0,0,0,0,0,0,0,0,-1,1651,960,0,0
434,64,0,0,0,0,0,0,0,0,0,-1,1658,960,0,0
441,64,0,0,0,0,0,0,0,0,0,-1,1665,960,0,0
448,64,0,0,0,0,0,0,0,0,0,-1,1672,960,0,0
455,64,0,0,0,0,0,0,0,0,0,-1,1679,960,0,0
462,64,0,0,0,0,0,0,0,0,0,-1,1686,960,0,0
469,64,0,0,0,0,0,0,0,0,0,-1,1693,960,0,0
476,64,0,0,0,0,0,0,0,0,0,-1,1700,960,0,0
483,64,0,0,0,0,0,0,0,0,0,-1,1707,960,0,0
490,64,0,0,0,0,0,0,0,0,0,-1,1714,960,0,0
497,64,0,0,0,0,0,0,0,0,0,-1,1721,960,0,0
504,64,0,0,0,0,0,0,0,0,0,-1,1728,960,0,0
511,64,0,0,0,0,0,0,0,0,0,-1,1735,960,0,0
518,64,0,0,0,0,0,0,0,0,0,-1,1742,960,0,0
525,64,0,0,0,0,0,0,0,0,0,-1,1749,960,0,0
532,64,0,0,0,0,0,0,0,0,0,-1,1756,960,0,0
539,64,0,0,0,0,0,0,0,0,0,-1,1763,960,0,0
546,64,0,0,0,0,0,0,0,0,0,-1,1770,960,0,0
553,64,0,0,0,0,0,0,0,0,0,-1,1777,960,0,0
560,64,0,0,0,0,0,0,0,0,0,-1,1784,960,0,0
567,64,0,0,0,0,0,0,0,0,0,-1,1791,960,0,0
574,64,0,0,0,0,0,0,0,0,0,-1,1798,960,0,0
581,64,0,0,0,0,0,0,0,0,0,-1,1805,960,0,0
588,64,0,0,0,0,0,0,0,0,0,-1,1812,960,0,0
595,64,0,0,0,0,0,0,0,0,0,-1,1819,960,0,0
602,64,0,0,0,0,0,0,0,0,0,-1,1826,960,0,0
609,64,0,0,0,0,0,0,0,0,0,-1,1833,960,0,0
616,64,0,0,0,0,0,0,0,0,0,-1,1840,960,0,0
623,64,0,0,0,0,0,0,0,0,0,-1,1847,960,0,0
630,64,0,0,0,0,0,0,0,0,0,-1,1854,960,0,0
637,64,0,0,0,0,0,0,0,0,0,-1,1861,960,0,0
644,64,235.844,8.78021,0,0,0,0,0,0,0,-1,1868,960,235.844,-8.78024
651,64,235.792,8.74744,0,0,0,0,0,0,0,-1,1875,960,235.792,-8.74743
658,64,235.721,8.57538,0,0,0,0,0,0,0,-1,1882,960,235.721,-8.57539
665,64,235.753,8.59497,0,0,0,0,0,0,0,-1,1889,960,235.753,-8.595
672,64,235.816,8.57642,0,0,0,0,0,0,0,-1,1896,960,235.816,-8.57643
679,64,235.85,8.7182,0,0,0,0,0,0,0,-1,1903,960,235.85,-8.7182
686,64,235.651,8.32892,0,0,0,0,0,0,0,-1,1910,960,235.651,-8.32891
693,64,235.675,8.35669,0,0,0,0,0,0,0,-1,1917,960,235.675,-8.35671
700,64,235.821,8.34967,0,0,0,0,0,0,0,-1,1924,960,235.821,-8.34969
707,64,190.186,7.72693,0,0,0,0,0,0,0,-1,1931,960,190.186,-7.72695
714,64,217.992,28.7947,0,0,0,0,0,0,0,-1,1938,960,217.992,-28.7947
721,64,235.407,29.8489,0,0,0,0,0,0,0,-1,1945,960,235.407,-29.8489
728,64,234.964,31.0057,0,0,0,0,0,0,0,-1,1952,960,234.964,-31.0058
735,64,234.757,31.8742,0,0,0,0,0,0,0,-1,1959,960,234.757,-31.8742
742,64,234.979,32.9202,-0.0103577,0.0195873,-0.00341264,0.0199713,-0.0107417,-1.45875,0.0179971,0.0428433,1966,960,234.979,-32.9202
749,64,234.844,33.7007,-0.0138377,0.0266596,-0.00521124,0.0273194,-0.0144975,-1.44485,0.0245184,0.0243697,1973,960,234.844,-33.7007
756,64,234.594,34.4601,-0.017149,0.0336474,-0.0069059,0.0345695,-0.0180711,-1.43805,0.0308856,0.0225195,1980,960,234.594,-34.4601
763,64,234.517,35.2621,-0.020264,0.0404912,-0.00851441,0.0416619,-0.0214347,-1.43416,0.0370475,0.0339437,1987,960,234.517,-35.2621
770,64,234.148,35.8969,-0.0232003,0.0471931,-0.0100338,0.0485954,-0.0246026,-1.43194,0.0430109,0.0340579,1994,960,234.148,-35.8969
777,64,233.808,36.597,-0.0261407,0.0536591,-0.0115134,0.055287,-0.0277686,-1.43033,0.0488216,0.0498193,2001,960,233.808,-36.597
784,64,233.248,37.77,0,0,0,0,0,0,0,-1,2008,960,233.248,-37.77
791,64,232.839,39.0574,0,0,0,0,0,0,0,-1,2015,960,232.839,-39.0575
798,64,204.88,41.7885,0,0,0,0,0,0,0,-1,2022,960,204.88,-41.7885
805,64,71.8018,7.16925,0,0,0,0,0,0,0,-1,2029,960,71.8016,-7.16926
812,64,0,0,0,0,0,0,0,0,0,-1,2036,960,0,0
-700,57,0,0,0,0,0,0,0,0,0,-1,524,967,0,0
-693,57,0,0,0,0,0,0,0,0,0,-1,531,967,0,0
-686,57,-103.514,6.7984,0,0,0,0,0,0,0,-1,538,967,-103.514,-6.79842
-679,57,-81.4638,7.94403,0,0,0,0,0,0,0,-1,545,967,-81.4638,-7.94406
-672,57,-81.1378,8.84052,0,0,0,0,0,0,0,-1,552,967,-81.1378,-8.84049
-665,57,-69.8138,9.20465,0,0,0,0,0,0,0,-1,559,967,-69.8138,-9.20464
-658,57,-69.5607,9.87787,0,0,0,0,0,0,0,-1,566,967,-69.5607,-9.87786
-651,57,-228.772,37.2142,0,0,0,0,0,0,0,-1,573,967,-228.772,-37.2142
-644,57,-228.43,36.386,-0.0127317,0.0627525,0.0108762,0.0642884,-0.0142676,1.43051,0.0483221,0.0464491,580,967,-228.43,-36.3861
-637,57,-228.187,35.5859,-0.0107998,0.0534651,0.0100427,0.0549979,-0.0123326,1.41933,0.0413931,0.0290078,587,967,-228.187,-35.5859
-630,57,-228.315,34.9337,-0.00837971,0.0453619,0.00865391,0.046721,-0.00973886,1.41501,0.0348502,0.0210109,594,967,-228.314,-34.9336
-623,57,-228.436,34.2319,-0.0057874,0.0374485,0.00700365,0.0385547,-0.0068936,1.41414,0.0282825,0.0190848,601,967,-228.436,-34.2319
-616,57,-228.484,33.4485,-0.00304116,0.0297405,0.00514615,0.0305293,-0.00383003,1.41869,0.0217423,0.0222255,608,967,-228.484,-33.4485
-609,57,-228.574,32.6418,-0.000152795,0.0222587,0.00312969,0.0226876,-0.000581638,1.43462,0.0153226,0.0229882,615,967,-228.574,-32.6419
-602,57,-228.642,31.7805,0.00287237,0.0150304,0.000996885,0.0151116,0.00279117,1.48953,0.00928489,0.0138578,622,967,-228.642,-31.7805
-595,57,-228.738,30.9172,0.00603527,0.0080887,-0.00121485,0.00865259,0.00547138,-1.13623,0.00505357,0.0231842,629,967,-228.738,-30.9171
-588,57,-228.551,30.1064,0.00957962,0.0018319,-0.00407486,0.0113282,8.33627e-05,-0.40534,0.00752447,0.0417612,636,967,-228.551,-30.1064
-581,57,-228.362,29.1932,0,0,0,0,0,0,0,-1,643,967,-228.362,-29.1932
-574,57,-72.3458,0.503174,0,0,0,0,0,0,0,-1,650,967,-72.3458,-0.503146
-567,57,-72.3713,0.355774,0,0,0,0,0,0,0,-1,657,967,-72.3714,-0.355774
-560,57,-72.4128,0.327271,0,0,0,0,0,0,0,-1,664,967,-72.4128,-0.327253
-553,57,-72.379,0.421326,0,0,0,0,0,0,0,-1,671,967,-72.379,-0.4213
-546,57,-72.3694,0.425354,0,0,0,0,0,0,0,-1,678,967,-72.3694,-0.425354
-539,57,-72.5713,0.431824,0,0,0,0,0,0,0,-1,685,967,-72.5713,-0.431793
-532,57,-72.5948,0.583679,0,0,0,0,0,0,0,-1,692,967,-72.5948,-0.583709
-525,57,-72.3409,0.563782,0,0,0,0,0,0,0,-1,699,967,-72.3409,-0.563798
-518,57,0,0,0,0,0,0,0,0,0,-1,706,967,0,0
-511,57,0,0,0,0,0,0,0,0,0,-1,713,967,0,0
-504,57,0,0,0,0,0,0,0,0,0,-1,720,967,0,0
-497,57,0,0,0,0,0,0,0,0,0,-1,727,967,0,0
-490,57,0,0,0,0,0,0,0,0,0,-1,734,967,0,0
-483,57,0,0,0,0,0,0,0,0,0,-1,741,967,0,0
-476,57,0,0,0,0,0,0,0,0,0,-1,748,967,0,0
-469,57,0,0,0,0,0,0,0,0,0,-1,755,967,0,0
-462,57,0,0,0,0,0,0,0,0,0,-1,762,967,0,0
-455,57,0,0,0,0,0,0,0,0,0,-1,769,967,0,0
-448,57,0,0,0,0,0,0,0,0,0,-1,776,967,0,0
-441,57,0,0,0,0,0,0,0,0,0,-1,783,967,0,0
-434,57,0,0,0,0,0,0,0,0,0,-1,790,967,0,0
-427,57,0,0,0,0,0,0,0,0,0,-1,797,967,0,0
-420,57,0,0,0,0,0,0,0,0,0,-1,804,967,0,0
-413,57,0,0,0,0,0,0,0,0,0,-1,811,967,0,0
-406,57,0,0,0,0,0,0,0,0,0,-1,818,967,0,0
-399,57,0,0,0,0,0,0,0,0,0,-1,825,967,0,0
-392,57,0,0,0,0,0,0,0,0,0,-1,832,967,0,0
-385,57,0,0,0,0,0,0,0,0,0,-1,839,967,0,0
-378,57,0,0,0,0,0,0,0,0,0,-1,846,967,0,0
-371,57,0,0,0,0,0,0,0,0,0,-1,853,967,0,0
-364,57,0,0,0,0,0,0,0,0,0,-1,860,967,0,0
-357,57,0,0,0,0,0,0,0,0,0,-1,867,967,0,0
-350,57,0,0,0,0,0,0,0,0,0,-1,874,967,0,0
-343,57,0,0,0,0,0,0,0,0,0,-1,881,967,0,0
-336,57,0,0,0,0,0,0,0,0,0,-1,888,967,0,0
-329,57,0,0,0,0,0,0,0,0,0,-1,895,967,0,0
-322,57,0,0,0,0,0,0,0,0,0,-1,902,967,0,0
-315,57,0,0,0,0,0,0,0,0,0,-1,909,967,0,0
-308,57,0,0,0,0,0,0,0,0,0,-1,916,967,0,0
-301,57,0,0,0,0,0,0,0,0,0,-1,923,967,0,0
-294,57,0,0,0,0,0,0,0,0,0,-1,930,967,0,0
-287,57,0,0,0,0,0,0,0,0,0,-1,937,967,0,0
-280,57,0,0,0,0,0,0,0,0,0,-1,944,967,0,0
-273,57,0,0,0,0,0,0,0,0,0,-1,951,967,0,0
-266,57,0,0,0,0,0,0,0,0,0,-1,958,967,0,0
-259,57,0,0,0,0,0,0,0,0,0,-1,965,967,0,0
-252,57,0,0,0,0,0,0,0,0,0,-1,972,967,0,0
-245,57,0,0,0,0,0,0,0,0,0,-1,979,967,0,0
-238,57,0,0,0,0,0,0,0,0,0,-1,986,967,0,0
-231,57,0,0,0,0,0,0,0,0,0,-1,993,967,0,0
-224,57,0,0,0,0,0,0,0,0,0,-1,1000,967,0,0
-217,57,0,0,0,0,0,0,0,0,0,-1,1007,967,0,0
-210,57,0,0,0,0,0,0,0,0,0,-1,1014,967,0,0
-203,57,0,0,0,0,0,0,0,0,0,-1,1021,967,0,0
-196,57,0,0,0,0,0,0,0,0,0,-1,1028,967,0,0
-189,57,0,0,0,0,0,0,0,0,0,-1,1035,967,0,0
-182,57,0,0,0,0,0,0,0,0,0,-1,1042,967,0,0
-175,57,0,0,0,0,0,0,0,0,0,-1,1049,967,0,0
-168,57,0,0,0,0,0,0,0,0,0,-1,1056,967,0,0
-161,57,0,0,0,0,0,0,0,0,0,-1,1063,967,0,0
-154,57,0,0,0,0,0,0,0,0,0,-1,1070,967,0,0
-147,57,0,0,0,0,0,0,0,0,0,-1,1077,967,0,0
-140,57,0,0,0,0,0,0,0,0,0,-1,1084,967,0,0
-133,57,0,0,0,0,0,0,0,0,0,-1,1091,967,0,0
-126,57,0,0,0,0,0,0,0,0,0,-1,1098,967,0,0
-119,57,0,0,0,0,0,0,0,0,0,-1,1105,967,0,0
-112,57,0,0,0,0,0,0,0,0,0,-1,1112,967,0,0
-105,57,0,0,0,0,0,0,0,0,0,-1,1119,967,0,0
-98,57,0,0,0,0,0,0,0,0,0,-1,1126,967,0,0
-91,57,0,0,0,0,0,0,0,0,0,-1,1133,967,0,0
-84,57,0,0,0,0,0,0,0,0,0,-1,1140,967,0,0
-77,57,0,0,0,0,0,0,0,0,0,-1,1147,967,0,0
-70,57,0,0,0,0,0,0,0,0,0,-1,1154,967,0,0
-63,57,0,0,0,0,0,0,0,0,0,-1,1161,967,0,0
-56,57,0,0,0,0,0,0,0,0,0,-1,1168,967,0,0
-49,57,0,0,0,0,0,0,0,0,0,-1,1175,967,0,0
-42,57,0,0,0,0,0,0,0,0,0,-1,1182,967,0,0
-35,57,0,0,0,0,0,0,0,0,0,-1,1189,967,0,0
-28,57,0,0,0,0,0,0,0,0,0,-1,1196,967,0,0
-21,57,0,0,0,0,0,0,0,0,0,-1,1203,967,0,0
-14,57,0,0,0,0,0,0,0,0,0,-1,1210,967,0,0
-7,57,0,0,0,0,0,0,0,0,0,-1,1217,967,0,0
0,57,0,0,0,0,0,0,0,0,0,-1,1224,967,0,0
7,57,0,0,0,0,0,0,0,0,0,-1,1231,967,0,0
14,57,0,0,0,0,0,0,0,0,0,-1,1238,967,0,0
21,57,0,0,0,0,0,0,0,0,0,-1,1245,967,0,0
28,57,0,0,0,0,0,0,0,0,0,-1,1252,967,0,0
35,57,0,0,0,0,0,0,0,0,0,-1,1259,967,0,0
42,57,0,0,0,0,0,0,0,0,0,-1,1266,967,0,0
49,57,0,0,0,0,0,0,0,0,0,-1,1273,967,0,0
56,57,0,0,0,0,0,0,0,0,0,-1,1280,967,0,0
63,57,0,0,0,0,0,0,0,0,0,-1,1287,967,0,0
70,57,0,0,0,0,0,0,0,0,0,-1,1294,967,0,0
77,57,0,0,0,0,0,0,0,0,0,-1,1301,967,0,0
84,57,0,0,0,0,0,0,0,0,0,-1,1308,967,0,0
91,57,0,0,0,0,0,0,0,0,0,-1,1315,967,0,0
98,57,0,0,0,0,0,0,0,0,0,-1,1322,967,0,0
105,57,0,0,0,0,0,0,0,0,0,-1,1329,967,0,0
112,57,0,0,0,0,0,0,0,0,0,-1,1336,967,0,0
119,57,0,0,0,0,0,0,0,0,0,-1,1343,967,0,0
126,57,0,0,0,0,0,0,0,0,0,-1,1350,967,0,0
133,57,0,0,0,0,0,0,0,0,0,-1,1357,967,0,0
140,57,0,0,0,0,0,0,0,0,0,-1,1364,967,0,0
147,57,0,0,0,0,0,0,0,0,0,-1,1371,967,0,0
154,57,0,0,0,0,0,0,0,0,0,-1,1378,967,0,0
161,57,0,0,0,0,0,0,0,0,0,-1,1385,967,0,0
168,57,0,0,0,0,0,0,0,0,0,-1,1392,967,0,0
175,57,0,0,0,0,0,0,0,0,0,-1,1399,967,0,0
182,57,0,0,0,0,0,0,0,0,0,-1,1406,967,0,0
189,57,0,0,0,0,0,0,0,0,0,-1,1413,967,0,0
196,57,0,0,0,0,0,0,0,0,0,-1,1420,967,0,0
203,57,0,0,0,0,0,0,0,0,0,-1,1427,967,0,0
210,57,0,0,0,0,0,0,0,0,0,-1,1434,967,0,0
217,57,0,0,0,0,0,0,0,0,0,-1,1441,967,0,0
224,57,0,0,0,0,0,0,0,0,0,-1,1448,967,0,0
231,57,0,0,0,0,0,0,0,0,0,-1,1455,967,0,0
238,57,0,0,0,0,0,0,0,0,0,-1,1462,967,0,0
245,57,0,0,0,0,0,0,0,0,0,-1,1469,967,0,0
252,57,0,0,0,0,0,0,0,0,0,-1,1476,967,0,0
259,57,0,0,0,0,0,0,0,0,0,-1,1483,967,0,0
266,57,0,0,0,0,0,0,0,0,0,-1,1490,967,0,0
273,57,0,0,0,0,0,0,0,0,0,-1,1497,967,0,0
280,57,0,0,0,0,0,0,0,0,0,-1,1504,967,0,0
287,57,0,0,0,0,0,0,0,0,0,-1,1511,967,0,0
294,57,0,0,0,0,0,0,0,0,0,-1,1518,967,0,0
301,57,0,0,0,0,0,0,0,0,0,-1,1525,967,0,0
308,57,0,0,0,0,0,0,0,0,0,-1,1532,967,0,0
315,57,0,0,0,0,0,0,0,0,0,-1,1539,967,0,0
322,57,0,0,0,0,0,0,0,0,0,-1,1546,967,0,0
329,57,0,0,0,0,0,0,0,0,0,-1,1553,967,0,0
336,57,0,0,0,0,0,0,0,0,0,-1,1560,967,0,0
343,57,0,0,0,0,0,0,0,0,0,-1,1567,967,0,0
350,57,0,0,0,0,0,0,0,0,0,-1,1574,967,0,0
357,57,0,0,0,0,0,0,0,0,0,-1,1581,967,0,0
364,57,0,0,0,0,0,0,0,0,0,-1,1588,967,0,0
371,57,0,0,0,0,0,0,0,0,0,-1,1595,967,0,0
378,57,0,0,0,0,0,0,0,0,0,-1,1602,967,0,0
385,57,0,0,0,0,0,0,0,0,0,-1,1609,967,0,0
392,57,0,0,0,0,0,0,0,0,0,-1,1616,967,0,0
399,57,0,0,0,0,0,0,0,0,0,-1,1623,967,0,0
406,57,0,0,0,0,0,0,0,0,0,-1,1630,967,0,0
413,57,0,0,0,0,0,0,0,0,0,-1,1637,967,0,0
420,57,0,0,0,0,0,0,0,0,0,-1,1644,967,0,0
427,57,0,0,0,0,0,0,0,0,0,-1,1651,967,0,0
434,57,0,0,0,0,0,0,0,0,0,-1,1658,967,0,0
441,57,0,0,0,0,0,0,0,0,0,-1,1665,967,0,0
448,57,0,0,0,0,0,0,0,0,0,-1,1672,967,0,0
455,57,0,0,0,0,0,0,0,0,0,-1,1679,967,0,0
462,57,0,0,0,0,0,0,0,0,0,-1,1686,967,0,0
469,57,0,0,0,0,0,0,0,0,0,-1,1693,967,0,0
476,57,0,0,0,0,0,0,0,0,0,-1,1700,967,0,0
483,57,0,0,0,0,0,0,0,0,0,-1,1707,967,0,0
490,57,0,0,0,0,0,0,0,0,0,-1,1714,967,0,0
497,57,0,0,0,0,0,0,0,0,0,-1,1721,967,0,0
504,57,0,0,0,0,0,0,0,0,0,-1,1728,967,0,0
511,57,0,0,0,0,0,0,0,0,0,-1,1735,967,0,0
518,57,0,0,0,0,0,0,0,0,0,-1,1742,967,0,0
525,57,0,0,0,0,0,0,0,0,0,-1,1749,967,0,0
532,57,0,0,0,0,0,0,0,0,0,-1,1756,967,0,0
539,57,0,0,0,0,0,0,0,0,0,-1,1763,967,0,0
546,57,0,0,0,0,0,0,0,0,0,-1,1770,967,0,0
553,57,0,0,0,0,0,0,0,0,0,-1,1777,967,0,0
560,57,0,0,0,0,0,0,0,0,0,-1,1784,967,0,0
567,57,0,0,0,0,0,0,0,0,0,-1,1791,967,0,0
574,57,0,0,0,0,0,0,0,0,0,-1,1798,967,0,0
581,57,0,0,0,0,0,0,0,0,0,-1,1805,967,0,0
588,57,0,0,0,0,0,0,0,0,0,-1,1812,967,0,0
595,57,0,0,0,0,0,0,0,0,0,-1,1819,967,0,0
602,57,0,0,0,0,0,0,0,0,0,-1,1826,967,0,0
609,57,0,0,0,0,0,0,0,0,0,-1,1833,967,0,0
616,57,0,0,0,0,0,0,0,0,0,-1,1840,967,0,0
623,57,0,0,0,0,0,0,0,0,0,-1,1847,967,0,0
630,57,0,0,0,0,0,0,0,0,0,-1,1854,967,0,0
637,57,0,0,0,0,0,0,0,0,0,-1,1861,967,0,0
644,57,235.768,8.85822,0,0,0,0,0,0,0,-1,1868,967,235.768,-8.85822
651,57,235.752,8.73389,0,0,0,0,0,0,0,-1,1875,967,235.752,-8.7339
658,57,235.798,8.56213,0,0,0,0,0,0,0,-1,1882,967,235.798,-8.56214
665,57,235.811,8.45966,0,0,0,0,0,0,0,-1,1889,967,235.811,-8.45968
672,57,235.855,8.40826,0,0,0,0,0,0,0,-1,1896,967,235.855,-8.40824
679,57,235.842,8.64099,0,0,0,0,0,0,0,-1,1903,967,235.842,-8.64097
686,57,235.737,8.49603,0,0,0,0,0,0,0,-1,1910,967,235.737,-8.49601
693,57,235.604,8.4032,0,0,0,0,0,0,0,-1,1917,967,235.604,-8.4032
700,57,235.705,8.49133,0,0,0,0,0,0,0,-1,1924,967,235.704,-8.49136
707,57,222.851,9.51062,0,0,0,0,0,0,0,-1,1931,967,222.851,-9.51064
714,57,218.394,29.1464,0,0,0,0,0,0,0,-1,1938,967,218.394,-29.1464
721,57,236.435,30.1296,0,0,0,0,0,0,0,-1,1945,967,236.435,-30.1296
728,57,236.03,31.0505,-0.000439151,0.00323465,0.00134904,0.00367681,-0.000881312,1.25407,0.00279174,0.0332975,1952,967,236.03,-31.0505
735,57,235.902,31.9529,-0.0048317,0.0107261,-0.000770471,0.0107642,-0.00486976,-1.52143,0.00923763,0.0442244,1959,967,235.902,-31.9529
742,57,235.859,32.6445,-0.00903916,0.0181804,-0.00277825,0.0184611,-0.00931984,-1.47011,0.0163262,0.0304499,1966,967,235.859,-32.6446
749,57,235.717,33.4912,-0.0130338,0.0255492,-0.00468938,0.0261109,-0.0135956,-1.45157,0.0233011,0.0199554,1973,967,235.717,-33.4912
756,57,235.526,34.2936,-0.0167901,0.0327831,-0.00652076,0.0336264,-0.0176335,-1.44217,0.0300713,0.019844,1980,967,235.526,-34.2937
763,57,235.286,35.0783,-0.0202843,0.0398308,-0.00829158,0.0409534,-0.021407,-1.43622,0.0365886,0.0230853,1987,967,235.286,-35.0783
770,57,235.033,35.8069,-0.0235108,0.0466661,-0.010013,0.0480668,-0.0249115,-1.43181,0.0428352,0.0230835,1994,967,235.033,-35.8069
777,57,234.81,36.5313,-0.0266115,0.053237,-0.0117371,0.0549265,-0.028301,-1.42783,0.0488642,0.041546,2001,967,234.81,-36.5313
784,57,234.513,37.2368,0,0,0,0,0,0,0,-1,2008,967,234.513,-37.2368
791,57,233.769,37.8365,0,0,0,0,0,0,0,-1,2015,967,233.769,-37.8365
798,57,225.598,39.144,0,0,0,0,0,0,0,-1,2022,967,225.598,-39.1441
805,57,206.221,43.4042,0,0,0,0,0,0,0,-1,2029,967,206.221,-43.4043
812,57,0,0,0,0,0,0,0,0,0,-1,2036,967,0,0
-700,50,0,0,0,0,0,0,0,0,0,-1,524,974,0,0
-693,50,-102.432,2.85944,0,0,0,0,0,0,0,-1,531,974,-102.432,-2.85945
-686,50,-102.001,5.11273,0,0,0,0,0,0,0,-1,538,974,-102.001,-5.11273
-679,50,-100.914,6.28094,0,0,0,0,0,0,0,-1,545,974,-100.914,-6.28094
-672,50,-81.1913,8.17609,0,0,0,0,0,0,0,-1,552,974,-81.1913,-8.17607
-665,50,-66.1696,0.16217,0,0,0,0,0,0,0,-1,559,974,-66.1696,-0.162174
-658,50,-67.4576,10.0194,0,0,0,0,0,0,0,-1,566,974,-67.4576,-10.0194
-651,50,-228.666,36.5447,0,0,0,0,0,0,0,-1,573,974,-228.666,-36.5447
-644,50,-228.91,35.9557,-0.013275,0.0622748,0.0104274,0.0636876,-0.0146878,1.43613,0.0481076,0.044798,580,974,-228.91,-35.9557
-637,50,-229.046,35.3308,-0.0107447,0.0529259,0.00951132,0.0543163,-0.0121352,1.42563,0.0408611,0.0264741,587,974,-229.046,-35.3308
-630,50,-229.17,34.7344,-0.00787562,0.0447202,0.0081229,0.0459461,-0.00910155,1.421,0.0340723,0.0169316,594,974,-229.17,-34.7344
-623,50,-229.285,34.1055,-0.00486037,0.0367069,0.00649236,0.0376973,-0.00585081,1.41941,0.0272917,0.0182928,601,974,-229.285,-34.1055
-616,50,-229.401,33.3889,-0.00170644,0.0289064,0.00466834,0.0296025,-0.00240252,1.42278,0.0205826,0.0183535,608,974,-229.401,-33.3889
-609,50,-229.426,32.5528,0.00158277,0.0213463,0.00269507,0.0217073,0.00122185,1.43767,0.0140819,0.0172078,615,974,-229.426,-32.5528
-602,50,-229.49,31.7527,0.00500827,0.0140621,0.000612413,0.0141033,0.00496704,1.50356,0.00826032,0.0142645,622,974,-229.49,-31.7528
-595,50,-229.536,30.934,0.00857568,0.00709738,-0.00154398,0.00954831,0.00612475,-0.562155,0.00558577,0.0178023,629,974,-229.536,-30.9339
-588,50,-229.508,29.8303,0.0125803,0.000931447,-0.00441417,0.0140641,-0.000552256,-0.324259,0.00956544,0.0407693,636,974,-229.508,-29.8303
-581,50,-229.426,28.4681,0,0,0,0,0,0,0,-1,643,974,-229.426,-28.4681
-574,50,-72.3653,0.396179,0,0,0,0,0,0,0,-1,650,974,-72.3653,-0.396162
-567,50,-72.3264,0.2995,0,0,0,0,0,0,0,-1,657,974,-72.3264,-0.299482
-560,50,-72.3513,0.199829,0,0,0,0,0,0,0,-1,664,974,-72.3513,-0.199808
-553,50,-72.4231,0.359375,0,0,0,0,0,0,0,-1,671,974,-72.4231,-0.359398
-546,50,-72.4158,0.498962,0,0,0,0,0,0,0,-1,678,974,-72.4158,-0.498949
-539,50,-72.4652,0.52063,0,0,0,0,0,0,0,-1,685,974,-72.4652,-0.520637
-532,50,-72.4564,0.349854,0,0,0,0,0,0,0,-1,692,974,-72.4564,-0.349861
-525,50,-72.4167,0.362976,0,0,0,0,0,0,0,-1,699,974,-72.4167,-0.362984
-518,50,0,0,0,0,0,0,0,0,0,-1,706,974,0,0
-511,50,0,0,0,0,0,0,0,0,0,-1,713,974,0,0
-504,50,0,0,0,0,0,0,0,0,0,-1,720,974,0,0
-497,50,0,0,0,0,0,0,0,0,0,-1,727,974,0,0
-490,50,0,0,0,0,0,0,0,0,0,-1,734,974,0,0
-483,50,0,0,0,0,0,0,0,0,0,-1,741,974,0,0
-476,50,0,0,0,0,0,0,0,0,0,-1,748,974,0,0
-469,50,0,0,0,0,0,0,0,0,0,-1,755,974,0,0
-462,50,0,0,0,0,0,0,0,0,0,-1,762,974,0,0
-455,50,0,0,0,0,0,0,0,0,0,-1,769,974,0,0
-448,50,0,0,0,0,0,0,0,0,0,-1,776,974,0,0
-441,50,0,0,0,0,0,0,0,0,0,-1,783,974,0,0
-434,50,0,0,0,0,0,0,0,0,0,-1,790,974,0,0
-427,50,0,0,0,0,0,0,0,0,0,-1,797,974,0,0
-420,50,0,0,0,0,0,0,0,0,0,-1,804,974,0,0
-413,50,0,0,0,0,0,0,0,0,0,-1,811,974,0,0
-406,50,0,0,0,0,0,0,0,0,0,-1,818,974,0,0
-399,50,0,0,0,0,0,0,0,0,0,-1,825,974,0,0
-392,50,0,0,0,0,0,0,0,0,0,-1,832,974,0,0
-385,50,0,0,0,0,0,0,0,0,0,-1,839,974,0,0
-378,50,0,0,0,0,0,0,0,0,0,-1,846,974,0,0
-371,50,0,0,0,0,0,0,0,0,0,-1,853,974,0,0
-364,50,0,0,0,0,0,0,0,0,0,-1,860,974,0,0
-357,50,0,0,0,0,0,0,0,0,0,-1,867,974,0,0
-350,50,0,0,0,0,0,0,0,0,0,-1,874,974,0,0
-343,50,0,0,0,0,0,0,0,0,0,-1,881,974,0,0
-336,50,0,0,0,0,0,0,0,0,0,-1,888,974,0,0
-329,50,0,0,0,0,0,0,0,0,0,-1,895,974,0,0
-322,50,0,0,0,0,0,0,0,0,0,-1,902,974,0,0
-315,50,0,0,0,0,0,0,0,0,0,-1,909,974,0,0
-308,50,0,0,0,0,0,0,0,0,0,-1,916,974,0,0
-301,50,0,0,0,0,0,0,0,0,0,-1,923,974,0,0
-294,50,0,0,0,0,0,0,0,0,0,-1,930,974,0,0
-287,50,0,0,0,0,0,0,0,0,0,-1,937,974,0,0
-280,50,0,0,0,0,0,0,0,0,0,-1,944,974,0,0
-273,50,0,0,0,0,0,0,0,0,0,-1,951,974,0,0
-266,50,0,0,0,0,0,0,0,0,0,-1,958,974,0,0
-259,50,0,0,0,0,0,0,0,0,0,-1,965,974,0,0
-252,50,0,0,0,0,0,0,0,0,0,-1,972,974,0,0
-245,50,0,0,0,0,0,0,0,0,0,-1,979,974,0,0
-238,50,0,0,0,0,0,0,0,0,0,-1,986,974,0,0
-231,50,0,0,0,0,0,0,0,0,0,-1,993,974,0,0
-224,50,0,0,0,0,0,0,0,0,0,-1,1000,974,0,0
-217,50,0,0,0,0,0,0,0,0,0,-1,1007,974,0,0
-210,50,0,0,0,0,0,0,0,0,0,-1,1014,974,0,0
-203,50,0,0,0,0,0,0,0,0,0,-1,1021,974,0,0
-196,50,0,0,0,0,0,0,0,0,0,-1,1028,974,0,0
-189,50,0,0,0,0,0,0,0,0,0,-1,1035,974,0,0
-182,50,0,0,0,0,0,0,0,0,0,-1,1042,974,0,0
-175,50,0,0,0,0,0,0,0,0,0,-1,1049,974,0,0
-168,50,0,0,0,0,0,0,0,0,0,-1,1056,974,0,0
-161,50,0,0,0,0,0,0,0,0,0,-1,1063,974,0,0
-154,50,0,0,0,0,0,0,0,0,0,-1,1070,974,0,0
-147,50,0,0,0,0,0,0,0,0,0,-1,1077,974,0,0
-140,50,0,0,0,0,0,0,0,0,0,-1,1084,974,0,0
-133,50,0,0,0,0,0,0,0,0,0,-1,1091,974,0,0
-126,50,0,0,0,0,0,0,0,0,0,-1,1098,974,0,0
-119,50,0,0,0,0,0,0,0,0,0,-1,1105,974,0,0
-112,50,0,0,0,0,0,0,0,0,0,-1,1112,974,0,0
-105,50,0,0,0,0,0,0,0,0,0,-1,1119,974,0,0
-98,50,0,0,0,0,0,0,0,0,0,-1,1126,974,0,0
-91,50,0,0,0,0,0,0,0,0,0,-1,1133,974,0,0
-84,50,0,0,0,0,0,0,0,0,0,-1,1140,974,0,0
-77,50,0,0,0,0,0,0,0,0,0,-1,1147,974,0,0
-70,50,0,0,0,0,0,0,0,0,0,-1,1154,974,0,0
-63,50,0,0,0,0,0,0,0,0,0,-1,1161,974,0,0
-56,50,0,0,0,0,0,0,0,0,0,-1,1168,974,0,0
-49,50,0,0,0,0,0,0,0,0,0,-1,1175,974,0,0
-42,50,0,0,0,0,0,0,0,0,0,-1,1182,974,0,0
-35,50,0,0,0,0,0,0,0,0,0,-1,1189,974,0,0
-28,50,0,0,0,0,0,0,0,0,0,-1,1196,974,0,0
-21,50,0,0,0,0,0,0,0,0,0,-1,1203,974,0,0
-14,50,0,0,0,0,0,0,0,0,0,-1,1210,974,0,0
-7,50,0,0,0,0,0,0,0,0,0,-1,1217,974,0,0
0,50,0,0,0,0,0,0,0,0,0,-1,1224,974,0,0
7,50,0,0,0,0,0,0,0,0,0,-1,1231,974,0,0
14,50,0,0,0,0,0,0,0,0,0,-1,1238,974,0,0
21,50,0,0,0,0,0,0,0,0,0,-1,1245,974,0,0
28,50,0,0,0,0,0,0,0,0,0,-1,1252,974,0,0
35,50,0,0,0,0,0,0,0,0,0,-1,1259,974,0,0
42,50,0,0,0,0,0,0,0,0,0,-1,1266,974,0,0
49,50,0,0,0,0,0,0,0,0,0,-1,1273,974,0,0
56,50,0,0,0,0,0,0,0,0,0,-1,1280,974,0,0
63,50,0,0,0,0,0,0,0,0,0,-1,1287,974,0,0
70,50,0,0,0,0,0,0,0,0,0,-1,1294,974,0,0
77,50,0,0,0,0,0,0,0,0,0,-1,1301,974,0,0
84,50,0,0,0,0,0,0,0,0,0,-1,1308,974,0,0
91,50,0,0,0,0,0,0,0,0,0,-1,1315,974,0,0
98,50,0,0,0,0,0,0,0,0,0,-1,1322,974,0,0
105,50,0,0,0,0,0,0,0,0,0,-1,1329,974,0,0
112,50,0,0,0,0,0,0,0,0,0,-1,1336,974,0,0
119,50,0,0,0,0,0,0,0,0,0,-1,1343,974,0,0
126,50,0,0,0,0,0,0,0,0,0,-1,1350,974,0,0
133,50,0,0,0,0,0,0,0,0,0,-1,1357,974,0,0
140,50,0,0,0,0,0,0,0,0,0,-1,1364,974,0,0
147,50,0,0,0,0,0,0,0,0,0,-1,1371,974,0,0
154,50,0,0,0,0,0,0,0,0,0,-1,1378,974,0,0
161,50,0,0,0,0,0,0,0,0,0,-1,1385,974,0,0
168,50,0,0,0,0,0,0,0,0,0,-1,1392,974,0,0
175,50,0,0,0,0,0,0,0,0,0,-1,1399,974,0,0
182,50,0,0,0,0,0,0,0,0,0,-1,1406,974,0,0
189,50,0,0,0,0,0,0,0,0,0,-1,1413,974,0,0
196,50,0,0,0,0,0,0,0,0,0,-1,1420,974,0,0
203,50,0,0,0,0,0,0,0,0,0,-1,1427,974,0,0
210,50,0,0,0,0,0,0,0,0,0,-1,1434,974,0,0
217,50,0,0,0,0,0,0,0,0,0,-1,1441,974,0,0
224,50,0,0,0,0,0,0,0,0,0,-1,1448,974,0,0
231,50,0,0,0,0,0,0,0,0,0,-1,1455,974,0,0
238,50,0,0,0,0,0,0,0,0,0,-1,1462,974,0,0
245,50,0,0,0,0,0,0,0,0,0,-1,1469,974,0,0
252,50,0,0,0,0,0,0,0,0,0,-1,1476,974,0,0
259,50,0,0,0,0,0,0,0,0,0,-1,1483,974,0,0
266,50,0,0,0,0,0,0,0,0,0,-1,1490,974,0,0
273,50,0,0,0,0,0,0,0,0,0,-1,1497,974,0,0
280,50,0,0,0,0,0,0,0,0,0,-1,1504,974,0,0
287,50,0,0,0,0,0,0,0,0,0,-1,1511,974,0,0
294,50,0,0,0,0,0,0,0,0,0,-1,1518,974,0,0
301,50,0,0,0,0,0,0,0,0,0,-1,1525,974,0,0
308,50,0,0,0,0,0,0,0,0,0,-1,1532,974,0,0
315,50,0,0,0,0,0,0,0,0,0,-1,1539,974,0,0
322,50,0,0,0,0,0,0,0,0,0,-1,1546,974,0,0
329,50,0,0,0,0,0,0,0,0,0,-1,1553,974,0,0
336,50,0,0,0,0,0,0,0,0,0,-1,1560,974,0,0
343,50,0,0,0,0,0,0,0,0,0,-1,1567,974,0,0
350,50,0,0,0,0,0,0,0,0,0,-1,1574,974,0,0
357,50,0,0,0,0,0,0,0,0,0,-1,1581,974,0,0
364,50,0,0,0,0,0,0,0,0,0,-1,1588,974,0,0
371,50,0,0,0,0,0,0,0,0,0,-1,1595,974,0,0
378,50,0,0,0,0,0,0,0,0,0,-1,1602,974,0,0
385,50,0,0,0,0,0,0,0,0,0,-1,1609,974,0,0
392,50,0,0,0,0,0,0,0,0,0,-1,1616,974,0,0
399,50,0,0,0,0,0,0,0,0,0,-1,1623,974,0,0
406,50,0,0,0,0,0,0,0,0,0,-1,1630,974,0,0
413,50,0,0,0,0,0,0,0,0,0,-1,1637,974,0,0
420,50,0,0,0,0,0,0,0,0,0,-1,1644,974,0,0
427,50,0,0,0,0,0,0,0,0,0,-1,1651,974,0,0
434,50,0,0,0,0,0,0,0,0,0,-1,1658,974,0,0
441,50,0,0,0,0,0,0,0,0,0,-1,1665,974,0,0
448,50,0,0,0,0,0,0,0,0,0,-1,1672,974,0,0
455,50,0,0,0,0,0,0,0,0,0,-1,1679,974,0,0
462,50,0,0,0,0,0,0,0,0,0,-1,1686,974,0,0
469,50,0,0,0,0,0,0,0,0,0,-1,1693,974,0,0
476,50,0,0,0,0,0,0,0,0,0,-1,1700,974,0,0
483,50,0,0,0,0,0,0,0,0,0,-1,1707,974,0,0
490,50,0,0,0,0,0,0,0,0,0,-1,1714,974,0,0
497,50,0,0,0,0,0,0,0,0,0,-1,1721,974,0,0
504,50,0,0,0,0,0,0,0,0,0,-1,1728,974,0,0
511,50,0,0,0,0,0,0,0,0,0,-1,1735,974,0,0
518,50,0,0,0,0,0,0,0,0,0,-1,1742,974,0,0
525,50,0,0,0,0,0,0,0,0,0,-1,1749,974,0,0
532,50,0,0,0,0,0,0,0,0,0,-1,1756,974,0,0
539,50,0,0,0,0,0,0,0,0,0,-1,1763,974,0,0
546,50,0,0,0,0,0,0,0,0,0,-1,1770,974,0,0
553,50,0,0,0,0,0,0,0,0,0,-1,1777,974,0,0
560,50,0,0,0,0,0,0,0,0,0,-1,1784,974,0,0
567,50,0,0,0,0,0,0,0,0,0,-1,1791,974,0,0
574,50,0,0,0,0,0,0,0,0,0,-1,1798,974,0,0
581,50,0,0,0,0,0,0,0,0,0,-1,1805,974,0,0
588,50,0,0,0,0,0,0,0,0,0,-1,1812,974,0,0
595,50,0,0,0,0,0,0,0,0,0,-1,1819,974,0,0
602,50,0,0,0,0,0,0,0,0,0,-1,1826,974,0,0
609,50,0,0,0,0,0,0,0,0,0,-1,1833,974,0,0
616,50,0,0,0,0,0,0,0,0,0,-1,1840,974,0,0
623,50,0,0,0,0,0,0,0,0,0,-1,1847,974,0,0
630,50,0,0,0,0,0,0,0,0,0,-1,1854,974,0,0
637,50,0,0,0,0,0,0,0,0,0,-1,1861,974,0,0
644,50,235.677,8.85797,0,0,0,0,0,0,0,-1,1868,974,235.677,-8.85796
651,50,235.608,8.84186,0,0,0,0,0,0,0,-1,1875,974,235.608,-8.84188
658,50,235.776,8.68329,0,0,0,0,0,0,0,-1,1882,974,235.776,-8.68332
665,50,235.917,8.36359,0,0,0,0,0,0,0,-1,1889,974,235.916,-8.36357
672,50,235.869,8.19525,0,0,0,0,0,0,0,-1,1896,974,235.869,-8.19525
679,50,235.741,8.44666,0,0,0,0,0,0,0,-1,1903,974,235.742,-8.44664
686,50,235.69,8.54401,0,0,0,0,0,0,0,-1,1910,974,235.69,-8.54401
693,50,235.505,8.50873,0,0,0,0,0,0,0,-1,1917,974,235.505,-8.50874
700,50,235.502,8.56683,0,0,0,0,0,0,0,-1,1924,974,235.502,-8.56685
707,50,222.772,9.27673,0,0,0,0,0,0,0,-1,1931,974,222.772,-9.27674
714,50,205.916,7.94446,0,0,0,0,0,0,0,-1,1938,974,205.916,-7.94446
721,50,236.879,30.3081,0,0,0,0,0,0,0,-1,1945,974,236.879,-30.3081
728,50,236.98,31.0174,0.00192039,0.00139767,0.00210303,0.00377824,-0.000460172,0.723576,0.00268539,0.0268224,1952,974,236.98,-31.0174
735,50,236.877,31.8746,-0.00306418,0.00923891,-7.23096e-05,0.00923934,-0.0030646,-1.56492,0.00739586,0.0263088,1959,974,236.877,-31.8746
742,50,236.682,32.7216,-0.00779156,0.0169939,-0.00214878,0.0171788,-0.00797647,-1.48495,0.0148438,0.0205798,1966,974,236.682,-32.7216
749,50,236.584,33.4125,-0.0122381,0.0246272,-0.00413962,0.0250863,-0.0126972,-1.46034,0.0222018,0.0228217,1973,974,236.584,-33.4125
756,50,236.416,34.1234,-0.0163817,0.0321016,-0.0060609,0.0328477,-0.0171279,-1.4483,0.0293254,0.02339,1980,974,236.416,-34.1234
763,50,236.19,34.8522,-0.0202012,0.0393766,-0.00793166,0.0404144,-0.0212391,-1.44068,0.036165,0.0231944,1987,974,236.191,-34.8522
770,50,235.974,35.5126,-0.0236754,0.0464083,-0.00977413,0.0477459,-0.025013,-1.43479,0.0426854,0.0223846,1994,974,235.974,-35.5126
777,50,235.886,36.2998,-0.0269287,0.0531958,-0.0116266,0.0548488,-0.0285817,-1.42957,0.0489579,0.037811,2001,974,235.886,-36.2998
784,50,235.716,37.1097,0,0,0,0,0,0,0,-1,2008,974,235.716,-37.1097
791,50,235.206,38.1998,0,0,0,0,0,0,0,-1,2015,974,235.206,-38.1998
798,50,232.041,38.8164,0,0,0,0,0,0,0,-1,2022,974,232.041,-38.8164
805,50,95.884,13.8399,0,0,0,0,0,0,0,-1,2029,974,95.8841,-13.8399
812,50,0,0,0,0,0,0,0,0,0,-1,2036,974,0,0
-700,43,0,0,0,0,0,0,0,0,0,-1,524,981,0,0
-693,43,-100.95,1.95203,0,0,0,0,0,0,0,-1,531,981,-100.95,-1.95204
-686,43,-100.614,3.59869,0,0,0,0,0,0,0,-1,538,981,-100.614,-3.5987
-679,43,-99.7601,5.06866,0,0,0,0,0,0,0,-1,545,981,-99.7601,-5.06869
-672,43,-98.6341,6.25378,0,0,0,0,0,0,0,-1,552,981,-98.6341,-6.25376
-665,43,-62.4393,6.80096,0,0,0,0,0,0,0,-1,559,981,-62.4393,-6.80097
-658,43,-96.4501,16.9009,0,0,0,0,0,0,0,-1,566,981,-96.4501,-16.9009
-651,43,-229.149,36.0431,0,0,0,0,0,0,0,-1,573,981,-229.149,-36.0431
-644,43,-229.655,35.6111,-0.0135724,0.0618415,0.0101264,0.0631775,-0.0149085,1.43961,0.0478681,0.039137,580,981,-229.655,-35.6111
-637,43,-229.905,35.0954,-0.0105659,0.0525182,0.00906898,0.053796,-0.0118437,1.43081,0.0403949,0.0242933,587,981,-229.905,-35.0954
-630,43,-229.969,34.5372,-0.00728901,0.0442298,0.00765905,0.0453443,-0.00840354,1.42629,0.0333851,0.0181932,594,981,-229.969,-34.5372
-623,43,-230.072,33.8858,-0.00389862,0.0361078,0.0060392,0.0369996,-0.00479039,1.42419,0.0264084,0.0169967,601,981,-230.072,-33.8858
-616,43,-230.143,33.1852,-0.000389789,0.0281784,0.00425148,0.0287977,-0.00100907,1.42615,0.0195435,0.0168537,608,981,-230.143,-33.1853
-609,43,-230.236,32.4279,0.0032441,0.0204763,0.00233487,0.0207871,0.00293334,1.43848,0.0129911,0.01984,615,981,-230.236,-32.4279
-602,43,-230.245,31.707,0.00701186,0.0130455,0.000324878,0.013063,0.00699442,1.51716,0.00754822,0.0191823,622,981,-230.245,-31.707
-595,43,-230.318,31.0191,0.0109249,0.00594027,-0.0017466,0.011476,0.00538919,-0.30563,0.00662973,0.0371106,629,981,-230.318,-31.0191
-588,43,-230.449,30.2484,0,0,0,0,0,0,0,-1,636,981,-230.449,-30.2484
-581,43,-72.4127,0.449585,0,0,0,0,0,0,0,-1,643,981,-72.4127,-0.449601
-574,43,-72.3796,0.402466,0,0,0,0,0,0,0,-1,650,981,-72.3796,-0.402445
-567,43,-72.3245,0.34906,0,0,0,0,0,0,0,-1,657,981,-72.3245,-0.349055
-560,43,-72.3109,0.30719,0,0,0,0,0,0,0,-1,664,981,-72.3109,-0.307183
-553,43,-72.4063,0.408447,0,0,0,0,0,0,0,-1,671,981,-72.4063,-0.408433
-546,43,-72.4841,0.671204,0,0,0,0,0,0,0,-1,678,981,-72.4841,-0.671202
-539,43,-72.3586,0.661743,0,0,0,0,0,0,0,-1,685,981,-72.3586,-0.661716
-532,43,-72.2639,0.142639,0,0,0,0,0,0,0,-1,692,981,-72.2639,-0.142642
-525,43,-72.2532,0.235413,0,0,0,0,0,0,0,-1,699,981,-72.2533,-0.235409
-518,43,0,0,0,0,0,0,0,0,0,-1,706,981,0,0
-511,43,0,0,0,0,0,0,0,0,0,-1,713,981,0,0
-504,43,0,0,0,0,0,0,0,0,0,-1,720,981,0,0
-497,43,0,0,0,0,0,0,0,0,0,-1,727,981,0,0
-490,43,0,0,0,0,0,0,0,0,0,-1,734,981,0,0
-483,43,0,0,0,0,0,0,0,0,0,-1,741,981,0,0
-476,43,0,0,0,0,0,0,0,0,0,-1,748,981,0,0
-469,43,0,0,0,0,0,0,0,0,0,-1,755,981,0,0
-462,43,0,0,0,0,0,0,0,0,0,-1,762,981,0,0
-455,43,0,0,0,0,0,0,0,0,0,-1,769,981,0,0
-448,43,0,0,0,0,0,0,0,0,0,-1,776,981,0,0
-441,43,0,0,0,0,0,0,0,0,0,-1,783,981,0,0
-434,43,0,0,0,0,0,0,0,0,0,-1,790,981,0,0
-427,43,0,0,0,0,0,0,0,0,0,-1,797,981,0,0
-420,43,0,0,0,0,0,0,0,0,0,-1,804,981,0,0
-413,43,0,0,0,0,0,0,0,0,0,-1,811,981,0,0
-406,43,0,0,0,0,0,0,0,0,0,-1,818,981,0,0
-399,43,0,0,0,0,0,0,0,0,0,-1,825,981,0,0
-392,43,0,0,0,0,0,0,0,0,0,-1,832,981,0,0
-385,43,0,0,0,0,0,0,0,0,0,-1,839,981,0,0
-378,43,0,0,0,0,0,0,0,0,0,-1,846,981,0,0
-371,43,0,0,0,0,0,0,0,0,0,-1,853,981,0,0
-364,43,0,0,0,0,0,0,0,0,0,-1,860,981,0,0
-357,43,0,0,0,0,0,0,0,0,0,-1,867,981,0,0
-350,43,0,0,0,0,0,0,0,0,0,-1,874,981,0,0
-343,43,0,0,0,0,0,0,0,0,0,-1,881,981,0,0
-336,43,0,0,0,0,0,0,0,0,0,-1,888,981,0,0
-329,43,0,0,0,0,0,0,0,0,0,-1,895,981,0,0
-322,43,0,0,0,0,0,0,0,0,0,-1,902,981,0,0
-315,43,0,0,0,0,0,0,0,0,0,-1,909,981,0,0
-308,43,0,0,0,0,0,0,0,0,0,-1,916,981,0,0
-301,43,0,0,0,0,0,0,0,0,0,-1,923,981,0,0
-294,43,0,0,0,0,0,0,0,0,0,-1,930,981,0,0
-287,43,0,0,0,0,0,0,0,0,0,-1,937,981,0,0
-280,43,0,0,0,0,0,0,0,0,0,-1,944,981,0,0
-273,43,0,0,0,0,0,0,0,0,0,-1,951,981,0,0
-266,43,0,0,0,0,0,0,0,0,0,-1,958,981,0,0
-259,43,0,0,0,0,0,0,0,0,0,-1,965,981,0,0
-252,43,0,0,0,0,0,0,0,0,0,-1,972,981,0,0
-245,43,0,0,0,0,0,0,0,0,0,-1,979,981,0,0
-238,43,0,0,0,0,0,0,0,0,0,-1,986,981,0,0
-231,43,0,0,0,0,0,0,0,0,0,-1,993,981,0,0
-224,43,0,0,0,0,0,0,0,0,0,-1,1000,981,0,0
-217,43,0,0,0,0,0,0,0,0,0,-1,1007,981,0,0
-210,43,0,0,0,0,0,0,0,0,0,-1,1014,981,0,0
-203,43,0,0,0,0,0,0,0,0,0,-1,1021,981,0,0
-196,43,0,0,0,0,0,0,0,0,0,-1,1028,981,0,0
-189,43,0,0,0,0,0,0,0,0,0,-1,1035,981,0,0
-182,43,0,0,0,0,0,0,0,0,0,-1,1042,981,0,0
-175,43,0,0,0,0,0,0,0,0,0,-1,1049,981,0,0
-168,43,0,0,0,0,0,0,0,0,0,-1,1056,981,0,0
-161,43,0,0,0,0,0,0,0,0,0,-1,1063,981,0,0
-154,43,0,0,0,0,0,0,0,0,0,-1,1070,981,0,0
-147,43,0,0,0,0,0,0,0,0,0,-1,1077,981,0,0
-140,43,0,0,0,0,0,0,0,0,0,-1,1084,981,0,0
-133,43,0,0,0,0,0,0,0,0,0,-1,1091,981,0,0
-126,43,0,0,0,0,0,0,0,0,0,-1,1098,981,0,0
-119,43,0,0,0,0,0,0,0,0,0,-1,1105,981,0,0
-112,43,0,0,0,0,0,0,0,0,0,-1,1112,981,0,0
-105,43,0,0,0,0,0,0,0,0,0,-1,1119,981,0,0
-98,43,0,0,0,0,0,0,0,0,0,-1,1126,981,0,0
-91,43,0,0,0,0,0,0,0,0,0,-1,1133,981,0,0
-84,43,0,0,0,0,0,0,0,0,0,-1,1140,981,0,0
-77,43,0,0,0,0,0,0,0,0,0,-1,1147,981,0,0
-70,43,0,0,0,0,0,0,0,0,0,-1,1154,981,0,0
-63,43,0,0,0,0,0,0,0,0,0,-1,1161,981,0,0
-56,43,0,0,0,0,0,0,0,0,0,-1,1168,981,0,0
-49,43,0,0,0,0,0,0,0,0,0,-1,1175,981,0,0
-42,43,0,0,0,0,0,0,0,0,0,-1,1182,981,0,0
-35,43,0,0,0,0,0,0,0,0,0,-1,1189,981,0,0
-28,43,0,0,0,0,0,0,0,0,0,-1,1196,981,0,0
-21,43,0,0,0,0,0,0,0,0,0,-1,1203,981,0,0
-14,43,0,0,0,0,0,0,0,0,0,-1,1210,981,0,0
-7,43,0,0,0,0,0,0,0,0,0,-1,1217,981,0,0
0,43,0,0,0,0,0,0,0,0,0,-1,1224,981,0,0
7,43,0,0,0,0,0,0,0,0,0,-1,1231,981,0,0
14,43,0,0,0,0,0,0,0,0,0,-1,1238,981,0,0
21,43,0,0,0,0,0,0,0,0,0,-1,1245,981,0,0
28,43,0,0,0,0,0,0,0,0,0,-1,1252,981,0,0
35,43,0,0,0,0,0,0,0,0,0,-1,1259,981,0,0
42,43,0,0,0,0,0,0,0,0,0,-1,1266,981,0,0
49,43,0,0,0,0,0,0,0,0,0,-1,1273,981,0,0
56,43,0,0,0,0,0,0,0,0,0,-1,1280,981,0,0
63,43,0,0,0,0,0,0,0,0,0,-1,1287,981,0,0
70,43,0,0,0,0,0,0,0,0,0,-1,1294,981,0,0
77,43,0,0,0,0,0,0,0,0,0,-1,1301,981,0,0
84,43,0,0,0,0,0,0,0,0,0,-1,1308,981,0,0
91,43,0,0,0,0,0,0,0,0,0,-1,1315,981,0,0
98,43,0,0,0,0,0,0,0,0,0,-1,1322,981,0,0
105,43,0,0,0,0,0,0,0,0,0,-1,1329,981,0,0
112,43,0,0,0,0,0,0,0,0,0,-1,1336,981,0,0
119,43,0,0,0,0,0,0,0,0,0,-1,1343,981,0,0
126,43,0,0,0,0,0,0,0,0,0,-1,1350,981,0,0
133,43,0,0,0,0,0,0,0,0,0,-1,1357,981,0,0
140,43,0,0,0,0,0,0,0,0,0,-1,1364,981,0,0
147,43,0,0,0,0,0,0,0,0,0,-1,1371,981,0,0
154,43,0,0,0,0,0,0,0,0,0,-1,1378,981,0,0
161,43,0,0,0,0,0,0,0,0,0,-1,1385,981,0,0
168,43,0,0,0,0,0,0,0,0,0,-1,1392,981,0,0
175,43,0,0,0,0,0,0,0,0,0,-1,1399,981,0,0
182,43,0,0,0,0,0,0,0,0,0,-1,1406,981,0,0
189,43,0,0,0,0,0,0,0,0,0,-1,1413,981,0,0
196,43,0,0,0,0,0,0,0,0,0,-1,1420,981,0,0
203,43,0,0,0,0,0,0,0,0,0,-1,1427,981,0,0
210,43,0,0,0,0,0,0,0,0,0,-1,1434,981,0,0
217,43,0,0,0,0,0,0,0,0,0,-1,1441,981,0,0
224,43,0,0,0,0,0,0,0,0,0,-1,1448,981,0,0
231,43,0,0,0,0,0,0,0,0,0,-1,1455,981,0,0
238,43,0,0,0,0,0,0,0,0,0,-1,1462,981,0,0
245,43,0,0,0,0,0,0,0,0,0,-1,1469,981,0,0
252,43,0,0,0,0,0,0,0,0,0,-1,1476,981,0,0
259,43,0,0,0,0,0,0,0,0,0,-1,1483,981,0,0
266,43,0,0,0,0,0,0,0,0,0,-1,1490,981,0,0
273,43,0,0,0,0,0,0,0,0,0,-1,1497,981,0,0
280,43,0,0,0,0,0,0,0,0,0,-1,1504,981,0,0
287,43,0,0,0,0,0,0,0,0,0,-1,1511,981,0,0
294,43,0,0,0,0,0,0,0,0,0,-1,1518,981,0,0
301,43,0,0,0,0,0,0,0,0,0,-1,1525,981,0,0
308,43,0,0,0,0,0,0,0,0,0,-1,1532,981,0,0
315,43,0,0,0,0,0,0,0,0,0,-1,1539,981,0,0
322,43,0,0,0,0,0,0,0,0,0,-1,1546,981,0,0
329,43,0,0,0,0,0,0,0,0,0,-1,1553,981,0,0
336,43,0,0,0,0,0,0,0,0,0,-1,1560,981,0,0
343,43,0,0,0,0,0,0,0,0,0,-1,1567,981,0,0
350,43,0,0,0,0,0,0,0,0,0,-1,1574,981,0,0
357,43,0,0,0,0,0,0,0,0,0,-1,1581,981,0,0
364,43,0,0,0,0,0,0,0,0,0,-1,1588,981,0,0
371,43,0,0,0,0,0,0,0,0,0,-1,1595,981,0,0
378,43,0,0,0,0,0,0,0,0,0,-1,1602,981,0,0
385,43,0,0,0,0,0,0,0,0,0,-1,1609,981,0,0
392,43,0,0,0,0,0,0,0,0,0,-1,1616,981,0,0
399,43,0,0,0,0,0,0,0,0,0,-1,1623,981,0,0
406,43,0,0,0,0,0,0,0,0,0,-1,1630,981,0,0
413,43,0,0,0,0,0,0,0,0,0,-1,1637,981,0,0
420,43,0,0,0,0,0,0,0,0,0,-1,1644,981,0,0
427,43,0,0,0,0,0,0,0,0,0,-1,1651,981,0,0
434,43,0,0,0,0,0,0,0,0,0,-1,1658,981,0,0
441,43,0,0,0,0,0,0,0,0,0,-1,1665,981,0,0
448,43,0,0,0,0,0,0,0,0,0,-1,1672,981,0,0
455,43,0,0,0,0,0,0,0,0,0,-1,1679,981,0,0
462,43,0,0,0,0,0,0,0,0,0,-1,1686,981,0,0
469,43,0,0,0,0,0,0,0,0,0,-1,1693,981,0,0
476,43,0,0,0,0,0,0,0,0,0,-1,1700,981,0,0
483,43,0,0,0,0,0,0,0,0,0,-1,1707,981,0,0
490,43,0,0,0,0,0,0,0,0,0,-1,1714,981,0,0
497,43,0,0,0,0,0,0,0,0,0,-1,1721,981,0,0
504,43,0,0,0,0,0,0,0,0,0,-1,1728,981,0,0
511,43,0,0,0,0,0,0,0,0,0,-1,1735,981,0,0
518,43,0,0,0,0,0,0,0,0,0,-1,1742,981,0,0
525,43,0,0,0,0,0,0,0,0,0,-1,1749,981,0,0
532,43,0,0,0,0,0,0,0,0,0,-1,1756,981,0,0
539,43,0,0,0,0,0,0,0,0,0,-1,1763,981,0,0
546,43,0,0,0,0,0,0,0,0,0,-1,1770,981,0,0
553,43,0,0,0,0,0,0,0,0,0,-1,1777,981,0,0
560,43,0,0,0,0,0,0,0,0,0,-1,1784,981,0,0
567,43,0,0,0,0,0,0,0,0,0,-1,1791,981,0,0
574,43,0,0,0,0,0,0,0,0,0,-1,1798,981,0,0
581,43,0,0,0,0,0,0,0,0,0,-1,1805,981,0,0
588,43,0,0,0,0,0,0,0,0,0,-1,1812,981,0,0
595,43,0,0,0,0,0,0,0,0,0,-1,1819,981,0,0
602,43,0,0,0,0,0,0,0,0,0,-1,1826,981,0,0
609,43,0,0,0,0,0,0,0,0,0,-1,1833,981,0,0
616,43,0,0,0,0,0,0,0,0,0,-1,1840,981,0,0
623,43,0,0,0,0,0,0,0,0,0,-1,1847,981,0,0
630,43,0,0,0,0,0,0,0,0,0,-1,1854,981,0,0
637,43,0,0,0,0,0,0,0,0,0,-1,1861,981,0,0
644,43,235.575,8.68665,0,0,0,0,0,0,0,-1,1868,981,235.576,-8.68663
651,43,235.547,8.83685,0,0,0,0,0,0,0,-1,1875,981,235.547,-8.83686
658,43,235.732,8.65967,0,0,0,0,0,0,0,-1,1882,981,235.732,-8.65966
665,43,235.878,8.4118,0,0,0,0,0,0,0,-1,1889,981,235.878,-8.41182
672,43,235.823,8.18933,0,0,0,0,0,0,0,-1,1896,981,235.823,-8.18931
679,43,235.666,8.28308,0,0,0,0,0,0,0,-1,1903,981,235.666,-8.28311
686,43,235.729,8.38269,0,0,0,0,0,0,0,-1,1910,981,235.729,-8.38269
693,43,235.677,8.67023,0,0,0,0,0,0,0,-1,1917,981,235.677,-8.67021
700,43,235.59,8.77289,0,0,0,0,0,0,0,-1,1924,981,235.59,-8.77292
707,43,220.713,8.7287,0,0,0,0,0,0,0,-1,1931,981,220.713,-8.72867
714,43,193.781,8.07935,0,0,0,0,0,0,0,-1,1938,981,193.78,-8.07934
721,43,237.302,30.4139,0,0,0,0,0,0,0,-1,1945,981,237.302,-30.414
728,43,237.528,31.1922,0.0042931,-0.000206854,0.00272418,0.00557633,-0.00149008,0.440222,0.00430116,0.0259736,1952,981,237.528,-31.1922
735,43,237.635,31.9318,-0.00127534,0.00791016,0.000534627,0.00794117,-0.00130635,1.51285,0.00577899,0.0188564,1959,981,237.636,-31.9317
742,43,237.488,32.6619,-0.00653189,0.0159476,-0.00154945,0.0160539,-0.00663819,-1.5023,0.013472,0.0201059,1966,981,237.488,-32.6619
749,43,237.411,33.2863,-0.0114563,0.0238708,-0.00354678,0.0242233,-0.0118089,-1.47172,0.0212108,0.023036,1973,981,237.411,-33.2863
756,43,237.265,33.9443,-0.0160286,0.0316426,-0.0054788,0.0322642,-0.0166502,-1.45783,0.0287163,0.0284711,1980,981,237.265,-33.9443
763,43,237.164,34.5504,-0.0202277,0.0392233,-0.00736976,0.0401233,-0.0211277,-1.44928,0.0359257,0.0325773,1987,981,237.164,-34.5504
770,43,236.951,35.3026,-0.0240312,0.0465698,-0.00924693,0.0477608,-0.0252222,-1.4427,0.0428013,0.0316749,1994,981,236.951,-35.3026
777,43,237.009,36.0026,-0.0275153,0.053681,-0.011146,0.0551832,-0.0290176,-1.43682,0.0493896,0.0380527,2001,981,237.009,-36.0026
784,43,237.145,36.7982,0,0,0,0,0,0,0,-1,2008,981,237.145,-36.7982
791,43,236.844,38.4177,0,0,0,0,0,0,0,-1,2015,981,236.844,-38.4177
798,43,199.719,37.7299,0,0,0,0,0,0,0,-1,2022,981,199.72,-37.7299
805,43,100.68,14.4006,0,0,0,0,0,0,0,-1,2029,981,100.68,-14.4006
812,43,88.1521,11.3432,0,0,0,0,0,0,0,-1,2036,981,88.1521,-11.3432
-700,36,0,0,0,0,0,0,0,0,0,-1,524,988,0,0
-693,36,-99.4285,1.0423,0,0,0,0,0,0,0,-1,531,988,-99.4285,-1.0423
-686,36,-99.1122,2.69891,0,0,0,0,0,0,0,-1,538,988,-99.1122,-2.69891
-679,36,-98.9387,3.27319,0,0,0,0,0,0,0,-1,545,988,-98.9387,-3.27319
-672,36,-92.8255,3.66522,0,0,0,0,0,0,0,-1,552,988,-92.8255,-3.66522
-665,36,-76.8934,4.69366,0,0,0,0,0,0,0,-1,559,988,-76.8934,-4.69369
-658,36,-90.5589,15.0411,0,0,0,0,0,0,0,-1,566,988,-90.5589,-15.0411
-651,36,-229.975,35.3094,0,0,0,0,0,0,0,-1,573,988,-229.975,-35.3094
-644,36,-230.38,35.1542,-0.0145909,0.06159,0.00960771,0.062783,-0.0157839,1.44726,0.0479898,0.0476636,580,988,-230.38,-35.1542
-637,36,-230.67,34.7191,-0.0109553,0.0521346,0.00852355,0.0532659,-0.0120865,1.43885,0.0401505,0.0307437,587,988,-230.67,-34.7191
-630,36,-230.823,34.2314,-0.00719971,0.0437252,0.00712438,0.0447031,-0.00817763,1.43439,0.0328688,0.0214278,594,988,-230.823,-34.2315
-623,36,-230.913,33.6243,-0.00338238,0.0354845,0.00553818,0.0362582,-0.00415612,1.43198,0.0256699,0.018088,601,988,-230.913,-33.6243
-616,36,-230.897,33.0571,0.000510108,0.0274391,0.00380064,0.0279652,-1.60197e-05,1.43324,0.0186488,0.0146293,608,988,-230.897,-33.0571
-609,36,-230.838,32.5064,0.00449203,0.019625,0.0019456,0.0198711,0.00424589,1.44496,0.0120834,0.0211235,615,988,-230.838,-32.5064
-602,36,-230.88,31.787,0.00857905,0.0120882,4.58957e-06,0.0120882,0.00857904,1.56949,0.00718083,0.0244641,622,988,-230.88,-31.787
-595,36,-230.734,30.9874,0,0,0,0,0,0,0,-1,629,988,-230.735,-30.9874
-588,36,-178.321,28.7643,0,0,0,0,0,0,0,-1,636,988,-178.321,-28.7643
-581,36,-72.3473,0.507568,0,0,0,0,0,0,0,-1,643,988,-72.3473,-0.50759
-574,36,-72.3412,0.423096,0,0,0,0,0,0,0,-1,650,988,-72.3412,-0.423081
-567,36,-72.3419,0.350952,0,0,0,0,0,0,0,-1,657,988,-72.3419,-0.350938
-560,36,-72.3801,0.31012,0,0,0,0,0,0,0,-1,664,988,-72.3801,-0.310147
-553,36,-72.459,0.418152,0,0,0,0,0,0,0,-1,671,988,-72.459,-0.418138
-546,36,-72.4573,0.761353,0,0,0,0,0,0,0,-1,678,988,-72.4573,-0.761375
-539,36,-72.3875,0.629822,0,0,0,0,0,0,0,-1,685,988,-72.3875,-0.629807
-532,36,-72.3541,0.460571,0,0,0,0,0,0,0,-1,692,988,-72.3541,-0.460576
-525,36,-72.4338,0.453003,0,0,0,0,0,0,0,-1,699,988,-72.4338,-0.453011
-518,36,0,0,0,0,0,0,0,0,0,-1,706,988,0,0
-511,36,0,0,0,0,0,0,0,0,0,-1,713,988,0,0
-504,36,0,0,0,0,0,0,0,0,0,-1,720,988,0,0
-497,36,0,0,0,0,0,0,0,0,0,-1,727,988,0,0
-490,36,0,0,0,0,0,0,0,0,0,-1,734,988,0,0
-483,36,0,0,0,0,0,0,0,0,0,-1,741,988,0,0
-476,36,0,0,0,0,0,0,0,0,0,-1,748,988,0,0
-469,36,0,0,0,0,0,0,0,0,0,-1,755,988,0,0
-462,36,0,0,0,0,0,0,0,0,0,-1,762,988,0,0
-455,36,0,0,0,0,0,0,0,0,0,-1,769,988,0,0
-448,36,0,0,0,0,0,0,0,0,0,-1,776,988,0,0
-441,36,0,0,0,0,0,0,0,0,0,-1,783,988,0,0
-434,36,0,0,0,0,0,0,0,0,0,-1,790,988,0,0
-427,36,0,0,0,0,0,0,0,0,0,-1,797,988,0,0
-420,36,0,0,0,0,0,0,0,0,0,-1,804,988,0,0
-413,36,0,0,0,0,0,0,0,0,0,-1,811,988,0,0
-406,36,0,0,0,0,0,0,0,0,0,-1,818,988,0,0
-399,36,0,0,0,0,0,0,0,0,0,-1,825,988,0,0
-392,36,0,0,0,0,0,0,0,0,0,-1,832,988,0,0
-385,36,0,0,0,0,0,0,0,0,0,-1,839,988,0,0
-378,36,0,0,0,0,0,0,0,0,0,-1,846,988,0,0
-371,36,0,0,0,0,0,0,0,0,0,-1,853,988,0,0
-364,36,0,0,0,0,0,0,0,0,0,-1,860,988,0,0
-357,36,0,0,0,0,0,0,0,0,0,-1,867,988,0,0
-350,36,0,0,0,0,0,0,0,0,0,-1,874,988,0,0
-343,36,0,0,0,0,0,0,0,0,0,-1,881,988,0,0
-336,36,0,0,0,0,0,0,0,0,0,-1,888,988,0,0
-329,36,0,0,0,0,0,0,0,0,0,-1,895,988,0,0
-322,36,0,0,0,0,0,0,0,0,0,-1,902,988,0,0
-315,36,0,0,0,0,0,0,0,0,0,-1,909,988,0,0
-308,36,0,0,0,0,0,0,0,0,0,-1,916,988,0,0
-301,36,0,0,0,0,0,0,0,0,0,-1,923,988,0,0
-294,36,0,0,0,0,0,0,0,0,0,-1,930,988,0,0
-287,36,0,0,0,0,0,0,0,0,0,-1,937,988,0,0
-280,36,0,0,0,0,0,0,0,0,0,-1,944,988,0,0
-273,36,0,0,0,0,0,0,0,0,0,-1,951,988,0,0
-266,36,0,0,0,0,0,0,0,0,0,-1,958,988,0,0
-259,36,0,0,0,0,0,0,0,0,0,-1,965,988,0,0
-252,36,0,0,0,0,0,0,0,0,0,-1,972,988,0,0
-245,36,0,0,0,0,0,0,0,0,0,-1,979,988,0,0
-238,36,0,0,0,0,0,0,0,0,0,-1,986,988,0,0
-231,36,0,0,0,0,0,0,0,0,0,-1,993,988,0,0
-224,36,0,0,0,0,0,0,0,0,0,-1,1000,988,0,0
-217,36,0,0,0,0,0,0,0,0,0,-1,1007,988,0,0
-210,36,0,0,0,0,0,0,0,0,0,-1,1014,988,0,0
-203,36,0,0,0,0,0,0,0,0,0,-1,1021,988,0,0
-196,36,0,0,0,0,0,0,0,0,0,-1,1028,988,0,0
-189,36,0,0,0,0,0,0,0,0,0,-1,1035,988,0,0
-182,36,0,0,0,0,0,0,0,0,0,-1,1042,988,0,0
-175,36,0,0,0,0,0,0,0,0,0,-1,1049,988,0,0
-168,36,0,0,0,0,0,0,0,0,0,-1,1056,988,0,0
-161,36,0,0,0,0,0,0,0,0,0,-1,1063,988,0,0
-154,36,0,0,0,0,0,0,0,0,0,-1,1070,988,0,0
-147,36,0,0,0,0,0,0,0,0,0,-1,1077,988,0,0
-140,36,0,0,0,0,0,0,0,0,0,-1,1084,988,0,0
-133,36,0,0,0,0,0,0,0,0,0,-1,1091,988,0,0
-126,36,0,0,0,0,0,0,0,0,0,-1,1098,988,0,0
-119,36,0,0,0,0,0,0,0,0,0,-1,1105,988,0,0
-112,36,0,0,0,0,0,0,0,0,0,-1,1112,988,0,0
-105,36,0,0,0,0,0,0,0,0,0,-1,1119,988,0,0
-98,36,0,0,0,0,0,0,0,0,0,-1,1126,988,0,0
-91,36,0,0,0,0,0,0,0,0,0,-1,1133,988,0,0
-84,36,0,0,0,0,0,0,0,0,0,-1,1140,988,0,0
-77,36,0,0,0,0,0,0,0,0,0,-1,1147,988,0,0
-70,36,0,0,0,0,0,0,0,0,0,-1,1154,988,0,0
-63,36,0,0,0,0,0,0,0,0,0,-1,1161,988,0,0
-56,36,0,0,0,0,0,0,0,0,0,-1,1168,988,0,0
-49,36,0,0,0,0,0,0,0,0,0,-1,1175,988,0,0
-42,36,0,0,0,0,0,0,0,0,0,-1,1182,988,0,0
-35,36,0,0,0,0,0,0,0,0,0,-1,1189,988,0,0
-28,36,0,0,0,0,0,0,0,0,0,-1,1196,988,0,0
-21,36,0,0,0,0,0,0,0,0,0,-1,1203,988,0,0
-14,36,0,0,0,0,0,0,0,0,0,-1,1210,988,0,0
-7,36,0,0,0,0,0,0,0,0,0,-1,1217,988,0,0
0,36,0,0,0,0,0,0,0,0,0,-1,1224,988,0,0
7,36,0,0,0,0,0,0,0,0,0,-1,1231,988,0,0
14,36,0,0,0,0,0,0,0,0,0,-1,1238,988,0,0
21,36,0,0,0,0,0,0,0,0,0,-1,1245,988,0,0
28,36,0,0,0,0,0,0,0,0,0,-1,1252,988,0,0
35,36,0,0,0,0,0,0,0,0,0,-1,1259,988,0,0
42,36,0,0,0,0,0,0,0,0,0,-1,1266,988,0,0
49,36,0,0,0,0,0,0,0,0,0,-1,1273,988,0,0
56,36,0,0,0,0,0,0,0,0,0,-1,1280,988,0,0
63,36,0,0,0,0,0,0,0,0,0,-1,1287,988,0,0
70,36,0,0,0,0,0,0,0,0,0,-1,1294,988,0,0
77,36,0,0,0,0,0,0,0,0,0,-1,1301,988,0,0
84,36,0,0,0,0,0,0,0,0,0,-1,1308,988,0,0
91,36,0,0,0,0,0,0,0,0,0,-1,1315,988,0,0
98,36,0,0,0,0,0,0,0,0,0,-1,1322,988,0,0
105,36,0,0,0,0,0,0,0,0,0,-1,1329,988,0,0
112,36,0,0,0,0,0,0,0,0,0,-1,1336,988,0,0
119,36,0,0,0,0,0,0,0,0,0,-1,1343,988,0,0
126,36,0,0,0,0,0,0,0,0,0,-1,1350,988,0,0
133,36,0,0,0,0,0,0,0,0,0,-1,1357,988,0,0
140,36,0,0,0,0,0,0,0,0,0,-1,1364,988,0,0
147,36,0,0,0,0,0,0,0,0,0,-1,1371,988,0,0
154,36,0,0,0,0,0,0,0,0,0,-1,1378,988,0,0
161,36,0,0,0,0,0,0,0,0,0,-1,1385,988,0,0
168,36,0,0,0,0,0,0,0,0,0,-1,1392,988,0,0
175,36,0,0,0,0,0,0,0,0,0,-1,1399,988,0,0
182,36,0,0,0,0,0,0,0,0,0,-1,1406,988,0,0
189,36,0,0,0,0,0,0,0,0,0,-1,1413,988,0,0
196,36,0,0,0,0,0,0,0,0,0,-1,1420,988,0,0
203,36,0,0,0,0,0,0,0,0,0,-1,1427,988,0,0
210,36,0,0,0,0,0,0,0,0,0,-1,1434,988,0,0
217,36,0,0,0,0,0,0,0,0,0,-1,1441,988,0,0
224,36,0,0,0,0,0,0,0,0,0,-1,1448,988,0,0
231,36,0,0,0,0,0,0,0,0,0,-1,1455,988,0,0
238,36,0,0,0,0,0,0,0,0,0,-1,1462,988,0,0
245,36,0,0,0,0,0,0,0,0,0,-1,1469,988,0,0
252,36,0,0,0,0,0,0,0,0,0,-1,1476,988,0,0
259,36,0,0,0,0,0,0,0,0,0,-1,1483,988,0,0
266,36,0,0,0,0,0,0,0,0,0,-1,1490,988,0,0
273,36,0,0,0,0,0,0,0,0,0,-1,1497,988,0,0
280,36,0,0,0,0,0,0,0,0,0,-1,1504,988,0,0
287,36,0,0,0,0,0,0,0,0,0,-1,1511,988,0,0
294,36,0,0,0,0,0,0,0,0,0,-1,1518,988,0,0
301,36,0,0,0,0,0,0,0,0,0,-1,1525,988,0,0
308,36,0,0,0,0,0,0,0,0,0,-1,1532,988,0,0
315,36,0,0,0,0,0,0,0,0,0,-1,1539,988,0,0
322,36,0,0,0,0,0,0,0,0,0,-1,1546,988,0,0
329,36,0,0,0,0,0,0,0,0,0,-1,1553,988,0,0
336,36,0,0,0,0,0,0,0,0,0,-1,1560,988,0,0
343,36,0,0,0,0,0,0,0,0,0,-1,1567,988,0,0
350,36,0,0,0,0,0,0,0,0,0,-1,1574,988,0,0
357,36,0,0,0,0,0,0,0,0,0,-1,1581,988,0,0
364,36,0,0,0,0,0,0,0,0,0,-1,1588,988,0,0
371,36,0,0,0,0,0,0,0,0,0,-1,1595,988,0,0
378,36,0,0,0,0,0,0,0,0,0,-1,1602,988,0,0
385,36,0,0,0,0,0,0,0,0,0,-1,1609,988,0,0
392,36,0,0,0,0,0,0,0,0,0,-1,1616,988,0,0
399,36,0,0,0,0,0,0,0,0,0,-1,1623,988,0,0
406,36,0,0,0,0,0,0,0,0,0,-1,1630,988,0,0
413,36,0,0,0,0,0,0,0,0,0,-1,1637,988,0,0
420,36,0,0,0,0,0,0,0,0,0,-1,1644,988,0,0
427,36,0,0,0,0,0,0,0,0,0,-1,1651,988,0,0
434,36,0,0,0,0,0,0,0,0,0,-1,1658,988,0,0
441,36,0,0,0,0,0,0,0,0,0,-1,1665,988,0,0
448,36,0,0,0,0,0,0,0,0,0,-1,1672,988,0,0
455,36,0,0,0,0,0,0,0,0,0,-1,1679,988,0,0
462,36,0,0,0,0,0,0,0,0,0,-1,1686,988,0,0
469,36,0,0,0,0,0,0,0,0,0,-1,1693,988,0,0
476,36,0,0,0,0,0,0,0,0,0,-1,1700,988,0,0
483,36,0,0,0,0,0,0,0,0,0,-1,1707,988,0,0
490,36,0,0,0,0,0,0,0,0,0,-1,1714,988,0,0
497,36,0,0,0,0,0,0,0,0,0,-1,1721,988,0,0
504,36,0,0,0,0,0,0,0,0,0,-1,1728,988,0,0
511,36,0,0,0,0,0,0,0,0,0,-1,1735,988,0,0
518,36,0,0,0,0,0,0,0,0,0,-1,1742,988,0,0
525,36,0,0,0,0,0,0,0,0,0,-1,1749,988,0,0
532,36,0,0,0,0,0,0,0,0,0,-1,1756,988,0,0
539,36,0,0,0,0,0,0,0,0,0,-1,1763,988,0,0
546,36,0,0,0,0,0,0,0,0,0,-1,1770,988,0,0
553,36,0,0,0,0,0,0,0,0,0,-1,1777,988,0,0
560,36,0,0,0,0,0,0,0,0,0,-1,1784,988,0,0
567,36,0,0,0,0,0,0,0,0,0,-1,1791,988,0,0
574,36,0,0,0,0,0,0,0,0,0,-1,1798,988,0,0
581,36,0,0,0,0,0,0,0,0,0,-1,1805,988,0,0
588,36,0,0,0,0,0,0,0,0,0,-1,1812,988,0,0
595,36,0,0,0,0,0,0,0,0,0,-1,1819,988,0,0
602,36,0,0,0,0,0,0,0,0,0,-1,1826,988,0,0
609,36,0,0,0,0,0,0,0,0,0,-1,1833,988,0,0
616,36,0,0,0,0,0,0,0,0,0,-1,1840,988,0,0
623,36,0,0,0,0,0,0,0,0,0,-1,1847,988,0,0
630,36,0,0,0,0,0,0,0,0,0,-1,1854,988,0,0
637,36,0,0,0,0,0,0,0,0,0,-1,1861,988,0,0
644,36,235.631,8.72144,0,0,0,0,0,0,0,-1,1868,988,235.631,-8.72143
651,36,235.509,8.87097,0,0,0,0,0,0,0,-1,1875,988,235.509,-8.87099
658,36,235.658,8.90393,0,0,0,0,0,0,0,-1,1882,988,235.658,-8.90392
665,36,235.723,8.90601,0,0,0,0,0,0,0,-1,1889,988,235.723,-8.90602
672,36,235.666,8.69348,0,0,0,0,0,0,0,-1,1896,988,235.666,-8.69348
679,36,235.571,8.54669,0,0,0,0,0,0,0,-1,1903,988,235.571,-8.54668
686,36,235.636,8.52704,0,0,0,0,0,0,0,-1,1910,988,235.636,-8.52703
693,36,235.688,8.61761,0,0,0,0,0,0,0,-1,1917,988,235.688,-8.6176
700,36,235.583,8.78723,0,0,0,0,0,0,0,-1,1924,988,235.583,-8.78725
707,36,234.391,8.0235,0,0,0,0,0,0,0,-1,1931,988,234.391,-8.02352
714,36,196.268,8.11206,0,0,0,0,0,0,0,-1,1938,988,196.268,-8.11206
721,36,237.804,30.3903,0,0,0,0,0,0,0,-1,1945,988,237.804,-30.3903
728,36,238.078,31.173,0.00715196,-0.00172447,0.0032579,0.00821934,-0.00279186,0.31661,0.00660973,0.0325544,1952,988,238.078,-31.173
735,36,238.213,31.9476,0.000780567,0.00671493,0.00105316,0.00689629,0.000599206,1.40026,0.00441138,0.0237547,1959,988,238.213,-31.9476
742,36,238.124,32.4872,-0.00514406,0.0150691,-0.00101966,0.0151204,-0.00519537,-1.52052,0.0121869,0.0187123,1966,988,238.124,-32.4873
749,36,238.042,33.1478,-0.0106149,0.0233054,-0.00298306,0.0235658,-0.0108752,-1.48374,0.0203295,0.0218268,1973,988,238.042,-33.1478
756,36,237.93,33.7899,-0.0156222,0.0313884,-0.00486152,0.0318859,-0.0161197,-1.46882,0.0282099,0.0238734,1980,988,237.93,-33.7899
763,36,237.769,34.3382,-0.020153,0.0392795,-0.00668165,0.0400214,-0.0208949,-1.46021,0.0357432,0.0251966,1987,988,237.769,-34.3382
770,36,237.594,34.9748,-0.0241903,0.0469373,-0.0084724,0.0479326,-0.0251855,-1.45386,0.0428903,0.0242075,1994,988,237.594,-34.9748
777,36,237.435,35.7293,0,0,0,0,0,0,0,-1,2001,988,237.435,-35.7293
784,36,237.62,37.2502,0,0,0,0,0,0,0,-1,2008,988,237.62,-37.2502
791,36,202.26,37.1884,0,0,0,0,0,0,0,-1,2015,988,202.26,-37.1884
798,36,114.126,20.1268,0,0,0,0,0,0,0,-1,2022,988,114.126,-20.1268
805,36,114.409,21.1661,0,0,0,0,0,0,0,-1,2029,988,114.409,-21.1661
812,36,80.2622,5.14569,0,0,0,0,0,0,0,-1,2036,988,80.2621,-5.1457
-700,29,0,0,0,0,0,0,0,0,0,-1,524,995,0,0
-693,29,-97.8289,0.372925,0,0,0,0,0,0,0,-1,531,995,-97.8289,-0.372929
-686,29,-97.6048,1.65991,0,0,0,0,0,0,0,-1,538,995,-97.6048,-1.65989
-679,29,-97.4024,2.89258,0,0,0,0,0,0,0,-1,545,995,-97.4024,-2.8926
-672,29,-97.1027,4.07483,0,0,0,0,0,0,0,-1,552,995,-97.1027,-4.07484
-665,29,-76.1727,4.00098,0,0,0,0,0,0,0,-1,559,995,-76.1727,-4.00097
-658,29,-74.8002,4.05365,0,0,0,0,0,0,0,-1,566,995,-74.8002,-4.05367
-651,29,-91.399,14.4346,0,0,0,0,0,0,0,-1,573,995,-91.399,-14.4346
-644,29,-230.873,34.6307,0,0,0,0,0,0,0,-1,580,995,-230.873,-34.6306
-637,29,-231.353,34.4184,-0.0117191,0.0515908,0.00771971,0.0525186,-0.0126468,1.4512,0.0399017,0.0389041,587,995,-231.353,-34.4184
-630,29,-231.481,33.8932,-0.00743266,0.0430234,0.00643041,0.0438301,-0.0082393,1.44601,0.0323185,0.0217889,594,995,-231.481,-33.8932
-623,29,-231.535,33.358,-0.00314787,0.0346563,0.00495663,0.0352954,-0.00378695,1.44257,0.0248888,0.018634,601,995,-231.536,-33.358
-616,29,-231.563,32.9191,0.00115087,0.0265115,0.00333262,0.0269422,0.000720248,1.44229,0.0177262,0.0220118,608,995,-231.563,-32.9191
-609,29,-231.459,32.418,0.00548008,0.0186205,0.00159133,0.0188105,0.00529011,1.45198,0.0112014,0.0290866,615,995,-231.459,-32.418
-602,29,-231.428,31.7441,0.00985755,0.011025,-0.00023612,0.011071,0.00981161,-1.37861,0.00699874,0.0298981,622,995,-231.428,-31.7442
-595,29,-231.254,30.9504,0,0,0,0,0,0,0,-1,629,995,-231.254,-30.9504
-588,29,-184.78,29.9845,0,0,0,0,0,0,0,-1,636,995,-184.78,-29.9845
-581,29,-72.3035,0.499573,0,0,0,0,0,0,0,-1,643,995,-72.3036,-0.499578
-574,29,-72.31,0.427063,0,0,0,0,0,0,0,-1,650,995,-72.31,-0.427046
-567,29,-72.3035,0.407288,0,0,0,0,0,0,0,-1,657,995,-72.3035,-0.407297
-560,29,-72.4127,0.387878,0,0,0,0,0,0,0,-1,664,995,-72.4127,-0.387875
-553,29,-72.4764,0.807861,0,0,0,0,0,0,0,-1,671,995,-72.4764,-0.807876
-546,29,-72.4146,0.674622,0,0,0,0,0,0,0,-1,678,995,-72.4146,-0.674645
-539,29,-72.316,0.321289,0,0,0,0,0,0,0,-1,685,995,-72.316,-0.321271
-532,29,-72.0922,0.0151978,0,0,0,0,0,0,0,-1,692,995,-72.0922,-0.0152197
-525,29,-72.4575,0.468079,0,0,0,0,0,0,0,-1,699,995,-72.4575,-0.4681
-518,29,0,0,0,0,0,0,0,0,0,-1,706,995,0,0
-511,29,0,0,0,0,0,0,0,0,0,-1,713,995,0,0
-504,29,0,0,0,0,0,0,0,0,0,-1,720,995,0,0
-497,29,0,0,0,0,0,0,0,0,0,-1,727,995,0,0
-490,29,0,0,0,0,0,0,0,0,0,-1,734,995,0,0
-483,29,0,0,0,0,0,0,0,0,0,-1,741,995,0,0
-476,29,0,0,0,0,0,0,0,0,0,-1,748,995,0,0
-469,29,0,0,0,0,0,0,0,0,0,-1,755,995,0,0
-462,29,0,0,0,0,0,0,0,0,0,-1,762,995,0,0
-455,29,0,0,0,0,0,0,0,0,0,-1,769,995,0,0
-448,29,0,0,0,0,0,0,0,0,0,-1,776,995,0,0
-441,29,0,0,0,0,0,0,0,0,0,-1,783,995,0,0
-434,29,0,0,0,0,0,0,0,0,0,-1,790,995,0,0
-427,29,0,0,0,0,0,0,0,0,0,-1,797,995,0,0
-420,29,0,0,0,0,0,0,0,0,0,-1,804,995,0,0
-413,29,0,0,0,0,0,0,0,0,0,-1,811,995,0,0
-406,29,0,0,0,0,0,0,0,0,0,-1,818,995,0,0
-399,29,0,0,0,0,0,0,0,0,0,-1,825,995,0,0
-392,29,0,0,0,0,0,0,0,0,0,-1,832,995,0,0
-385,29,0,0,0,0,0,0,0,0,0,-1,839,995,0,0
-378,29,0,0,0,0,0,0,0,0,0,-1,846,995,0,0
-371,29,0,0,0,0,0,0,0,0,0,-1,853,995,0,0
-364,29,0,0,0,0,0,0,0,0,0,-1,860,995,0,0
-357,29,0,0,0,0,0,0,0,0,0,-1,867,995,0,0
-350,29,0,0,0,0,0,0,0,0,0,-1,874,995,0,0
-343,29,0,0,0,0,0,0,0,0,0,-1,881,995,0,0
-336,29,0,0,0,0,0,0,0,0,0,-1,888,995,0,0
-329,29,0,0,0,0,0,0,0,0,0,-1,895,995,0,0
-322,29,0,0,0,0,0,0,0,0,0,-1,902,995,0,0
-315,29,0,0,0,0,0,0,0,0,0,-1,909,995,0,0
-308,29,0,0,0,0,0,0,0,0,0,-1,916,995,0,0
-301,29,0,0,0,0,0,0,0,0,0,-1,923,995,0,0
-294,29,0,0,0,0,0,0,0,0,0,-1,930,995,0,0
-287,29,0,0,0,0,0,0,0,0,0,-1,937,995,0,0
-280,29,0,0,0,0,0,0,0,0,0,-1,944,995,0,0
-273,29,0,0,0,0,0,0,0,0,0,-1,951,995,0,0
-266,29,0,0,0,0,0,0,0,0,0,-1,958,995,0,0
-259,29,0,0,0,0,0,0,0,0,0,-1,965,995,0,0
-252,29,0,0,0,0,0,0,0,0,0,-1,972,995,0,0
-245,29,0,0,0,0,0,0,0,0,0,-1,979,995,0,0
-238,29,0,0,0,0,0,0,0,0,0,-1,986,995,0,0
-231,29,0,0,0,0,0,0,0,0,0,-1,993,995,0,0
-224,29,0,0,0,0,0,0,0,0,0,-1,1000,995,0,0
-217,29,0,0,0,0,0,0,0,0,0,-1,1007,995,0,0
-210,29,0,0,0,0,0,0,0,0,0,-1,1014,995,0,0
-203,29,0,0,0,0,0,0,0,0,0,-1,1021,995,0,0
-196,29,0,0,0,0,0,0,0,0,0,-1,1028,995,0,0
-189,29,0,0,0,0,0,0,0,0,0,-1,1035,995,0,0
-182,29,0,0,0,0,0,0,0,0,0,-1,1042,995,0,0
-175,29,0,0,0,0,0,0,0,0,0,-1,1049,995,0,0
-168,29,0,0,0,0,0,0,0,0,0,-1,1056,995,0,0
-161,29,0,0,0,0,0,0,0,0,0,-1,1063,995,0,0
-154,29,0,0,0,0,0,0,0,0,0,-1,1070,995,0,0
-147,29,0,0,0,0,0,0,0,0,0,-1,1077,995,0,0
-140,29,0,0,0,0,0,0,0,0,0,-1,1084,995,0,0
-133,29,0,0,0,0,0,0,0,0,0,-1,1091,995,0,0
-126,29,0,0,0,0,0,0,0,0,0,-1,1098,995,0,0
-119,29,0,0,0,0,0,0,0,0,0,-1,1105,995,0,0
-112,29,0,0,0,0,0,0,0,0,0,-1,1112,995,0,0
-105,29,0,0,0,0,0,0,0,0,0,-1,1119,995,0,0
-98,29,0,0,0,0,0,0,0,0,0,-1,1126,995,0,0
-91,29,0,0,0,0,0,0,0,0,0,-1,1133,995,0,0
-84,29,0,0,0,0,0,0,0,0,0,-1,1140,995,0,0
-77,29,0,0,0,0,0,0,0,0,0,-1,1147,995,0,0
-70,29,0,0,0,0,0,0,0,0,0,-1,1154,995,0,0
-63,29,0,0,0,0,0,0,0,0,0,-1,1161,995,0,0
-56,29,0,0,0,0,0,0,0,0,0,-1,1168,995,0,0
-49,29,0,0,0,0,0,0,0,0,0,-1,1175,995,0,0
-42,29,0,0,0,0,0,0,0,0,0,-1,1182,995,0,0
-35,29,0,0,0,0,0,0,0,0,0,-1,1189,995,0,0
-28,29,0,0,0,0,0,0,0,0,0,-1,1196,995,0,0
-21,29,0,0,0,0,0,0,0,0,0,-1,1203,995,0,0
-14,29,0,0,0,0,0,0,0,0,0,-1,1210,995,0,0
-7,29,0,0,0,0,0,0,0,0,0,-1,1217,995,0,0
0,29,0,0,0,0,0,0,0,0,0,-1,1224,995,0,0
7,29,0,0,0,0,0,0,0,0,0,-1,1231,995,0,0
14,29,0,0,0,0,0,0,0,0,0,-1,1238,995,0,0
21,29,0,0,0,0,0,0,0,0,0,-1,1245,995,0,0
28,29,0,0,0,0,0,0,0,0,0,-1,1252,995,0,0
35,29,0,0,0,0,0,0,0,0,0,-1,1259,995,0,0
42,29,0,0,0,0,0,0,0,0,0,-1,1266,995,0,0
49,29,0,0,0,0,0,0,0,0,0,-1,1273,995,0,0
56,29,0,0,0,0,0,0,0,0,0,-1,1280,995,0,0
63,29,0,0,0,0,0,0,0,0,0,-1,1287,995,0,0
70,29,0,0,0,0,0,0,0,0,0,-1,1294,995,0,0
77,29,0,0,0,0,0,0,0,0,0,-1,1301,995,0,0
84,29,0,0,0,0,0,0,0,0,0,-1,1308,995,0,0
91,29,0,0,0,0,0,0,0,0,0,-1,1315,995,0,0
98,29,0,0,0,0,0,0,0,0,0,-1,1322,995,0,0
105,29,0,0,0,0,0,0,0,0,0,-1,1329,995,0,0
112,29,0,0,0,0,0,0,0,0,0,-1,1336,995,0,0
119,29,0,0,0,0,0,0,0,0,0,-1,1343,995,0,0
126,29,0,0,0,0,0,0,0,0,0,-1,1350,995,0,0
133,29,0,0,0,0,0,0,0,0,0,-1,1357,995,0,0
140,29,0,0,0,0,0,0,0,0,0,-1,1364,995,0,0
147,29,0,0,0,0,0,0,0,0,0,-1,1371,995,0,0
154,29,0,0,0,0,0,0,0,0,0,-1,1378,995,0,0
161,29,0,0,0,0,0,0,0,0,0,-1,1385,995,0,0
168,29,0,0,0,0,0,0,0,0,0,-1,1392,995,0,0
175,29,0,0,0,0,0,0,0,0,0,-1,1399,995,0,0
182,29,0,0,0,0,0,0,0,0,0,-1,1406,995,0,0
189,29,0,0,0,0,0,0,0,0,0,-1,1413,995,0,0
196,29,0,0,0,0,0,0,0,0,0,-1,1420,995,0,0
203,29,0,0,0,0,0,0,0,0,0,-1,1427,995,0,0
210,29,0,0,0,0,0,0,0,0,0,-1,1434,995,0,0
217,29,0,0,0,0,0,0,0,0,0,-1,1441,995,0,0
224,29,0,0,0,0,0,0,0,0,0,-1,1448,995,0,0
231,29,0,0,0,0,0,0,0,0,0,-1,1455,995,0,0
238,29,0,0,0,0,0,0,0,0,0,-1,1462,995,0,0
245,29,0,0,0,0,0,0,0,0,0,-1,1469,995,0,0
252,29,0,0,0,0,0,0,0,0,0,-1,1476,995,0,0
259,29,0,0,0,0,0,0,0,0,0,-1,1483,995,0,0
266,29,0,0,0,0,0,0,0,0,0,-1,1490,995,0,0
273,29,0,0,0,0,0,0,0,0,0,-1,1497,995,0,0
280,29,0,0,0,0,0,0,0,0,0,-1,1504,995,0,0
287,29,0,0,0,0,0,0,0,0,0,-1,1511,995,0,0
294,29,0,0,0,0,0,0,0,0,0,-1,1518,995,0,0
301,29,0,0,0,0,0,0,0,0,0,-1,1525,995,0,0
308,29,0,0,0,0,0,0,0,0,0,-1,1532,995,0,0
315,29,0,0,0,0,0,0,0,0,0,-1,1539,995,0,0
322,29,0,0,0,0,0,0,0,0,0,-1,1546,995,0,0
329,29,0,0,0,0,0,0,0,0,0,-1,1553,995,0,0
336,29,0,0,0,0,0,0,0,0,0,-1,1560,995,0,0
343,29,0,0,0,0,0,0,0,0,0,-1,1567,995,0,0
350,29,0,0,0,0,0,0,0,0,0,-1,1574,995,0,0
357,29,0,0,0,0,0,0,0,0,0,-1,1581,995,0,0
364,29,0,0,0,0,0,0,0,0,0,-1,1588,995,0,0
371,29,0,0,0,0,0,0,0,0,0,-1,1595,995,0,0
378,29,0,0,0,0,0,0,0,0,0,-1,1602,995,0,0
385,29,0,0,0,0,0,0,0,0,0,-1,1609,995,0,0
392,29,0,0,0,0,0,0,0,0,0,-1,1616,995,0,0
399,29,0,0,0,0,0,0,0,0,0,-1,1623,995,0,0
406,29,0,0,0,0,0,0,0,0,0,-1,1630,995,0,0
413,29,0,0,0,0,0,0,0,0,0,-1,1637,995,0,0
420,29,0,0,0,0,0,0,0,0,0,-1,1644,995,0,0
427,29,0,0,0,0,0,0,0,0,0,-1,1651,995,0,0
434,29,0,0,0,0,0,0,0,0,0,-1,1658,995,0,0
441,29,0,0,0,0,0,0,0,0,0,-1,1665,995,0,0
448,29,0,0,0,0,0,0,0,0,0,-1,1672,995,0,0
455,29,0,0,0,0,0,0,0,0,0,-1,1679,995,0,0
462,29,0,0,0,0,0,0,0,0,0,-1,1686,995,0,0
469,29,0,0,0,0,0,0,0,0,0,-1,1693,995,0,0
476,29,0,0,0,0,0,0,0,0,0,-1,1700,995,0,0
483,29,0,0,0,0,0,0,0,0,0,-1,1707,995,0,0
490,29,0,0,0,0,0,0,0,0,0,-1,1714,995,0,0
497,29,0,0,0,0,0,0,0,0,0,-1,1721,995,0,0
504,29,0,0,0,0,0,0,0,0,0,-1,1728,995,0,0
511,29,0,0,0,0,0,0,0,0,0,-1,1735,995,0,0
518,29,0,0,0,0,0,0,0,0,0,-1,1742,995,0,0
525,29,0,0,0,0,0,0,0,0,0,-1,1749,995,0,0
532,29,0,0,0,0,0,0,0,0,0,-1,1756,995,0,0
539,29,0,0,0,0,0,0,0,0,0,-1,1763,995,0,0
546,29,0,0,0,0,0,0,0,0,0,-1,1770,995,0,0
553,29,0,0,0,0,0,0,0,0,0,-1,1777,995,0,0
560,29,0,0,0,0,0,0,0,0,0,-1,1784,995,0,0
567,29,0,0,0,0,0,0,0,0,0,-1,1791,995,0,0
574,29,0,0,0,0,0,0,0,0,0,-1,1798,995,0,0
581,29,0,0,0,0,0,0,0,0,0,-1,1805,995,0,0
588,29,0,0,0,0,0,0,0,0,0,-1,1812,995,0,0
595,29,0,0,0,0,0,0,0,0,0,-1,1819,995,0,0
602,29,0,0,0,0,0,0,0,0,0,-1,1826,995,0,0
609,29,0,0,0,0,0,0,0,0,0,-1,1833,995,0,0
616,29,0,0,0,0,0,0,0,0,0,-1,1840,995,0,0
623,29,0,0,0,0,0,0,0,0,0,-1,1847,995,0,0
630,29,0,0,0,0,0,0,0,0,0,-1,1854,995,0,0
637,29,0,0,0,0,0,0,0,0,0,-1,1861,995,0,0
644,29,235.655,8.9646,0,0,0,0,0,0,0,-1,1868,995,235.655,-8.96461
651,29,235.63,8.95105,0,0,0,0,0,0,0,-1,1875,995,235.63,-8.95105
658,29,235.565,8.82776,0,0,0,0,0,0,0,-1,1882,995,235.565,-8.82778
665,29,235.531,9.1192,0,0,0,0,0,0,0,-1,1889,995,235.531,-9.11922
672,29,235.516,8.91449,0,0,0,0,0,0,0,-1,1896,995,235.516,-8.91446
679,29,235.511,8.6908,0,0,0,0,0,0,0,-1,1903,995,235.511,-8.69082
686,29,235.553,8.66907,0,0,0,0,0,0,0,-1,1910,995,235.553,-8.66905
693,29,235.605,8.75934,0,0,0,0,0,0,0,-1,1917,995,235.605,-8.75937
700,29,235.585,8.75922,0,0,0,0,0,0,0,-1,1924,995,235.585,-8.75922
707,29,235.502,8.8703,0,0,0,0,0,0,0,-1,1931,995,235.502,-8.87031
714,29,234.195,8.34058,0,0,0,0,0,0,0,-1,1938,995,234.195,-8.34057
721,29,238.235,30.7129,0,0,0,0,0,0,0,-1,1945,995,238.235,-30.7129
728,29,238.679,31.2307,0.00871973,-0.0027543,0.00373138,0.00982644,-0.00386101,0.28833,0.00814879,0.0404855,1952,995,238.679,-31.2307
735,29,238.868,31.8173,0.00205529,0.00579496,0.00167213,0.00643357,0.00141668,1.20598,0.00390348,0.0202468,1959,995,238.868,-31.8173
742,29,238.746,32.395,-0.00411742,0.0142601,-0.000252836,0.0142636,-0.0041209,-1.55704,0.0111397,0.0171677,1966,995,238.746,-32.395
749,29,238.683,33.015,-0.00979592,0.0226088,-0.0020666,0.0227401,-0.00992719,-1.50736,0.019338,0.0174328,1973,995,238.683,-33.015
756,29,238.56,33.6072,-0.0149741,0.0308064,-0.00379324,0.0311185,-0.0152863,-1.48869,0.0273067,0.019802,1980,995,238.56,-33.6073
763,29,238.428,34.0826,-0.0196416,0.0388156,-0.00545785,0.0393208,-0.0201468,-1.47849,0.0349235,0.0194676,1987,995,238.428,-34.0826
770,29,238.253,34.5753,-0.0237829,0.0465968,-0.00708667,0.0473032,-0.0244894,-1.47143,0.0421413,0.0281519,1994,995,238.253,-34.5753
777,29,237.999,35.1785,0,0,0,0,0,0,0,-1,2001,995,237.999,-35.1784
784,29,233.458,35.9602,0,0,0,0,0,0,0,-1,2008,995,233.457,-35.9602
791,29,114.385,18.9071,0,0,0,0,0,0,0,-1,2015,995,114.385,-18.9071
798,29,114.547,20.011,0,0,0,0,0,0,0,-1,2022,995,114.547,-20.011
805,29,89.9102,12.0472,0,0,0,0,0,0,0,-1,2029,995,89.9103,-12.0472
812,29,74.3464,11.3901,0,0,0,0,0,0,0,-1,2036,995,74.3464,-11.3901
-700,22,0,0,0,0,0,0,0,0,0,-1,524,1002,0,0
-693,22,-96.5399,0.00201416,0,0,0,0,0,0,0,-1,531,1002,-96.5399,-0.00198688
-686,22,-96.4305,1.45563,0,0,0,0,0,0,0,-1,538,1002,-96.4305,-1.45565
-679,22,-96.1309,2.72589,0,0,0,0,0,0,0,-1,545,1002,-96.1309,-2.72589
-672,22,-95.7907,3.92188,0,0,0,0,0,0,0,-1,552,1002,-95.7907,-3.9219
-665,22,-87.7646,3.7699,0,0,0,0,0,0,0,-1,559,1002,-87.7646,-3.76988
-658,22,-68.7921,5.42706,0,0,0,0,0,0,0,-1,566,1002,-68.7921,-5.42709
-651,22,-70.0956,8.71375,0,0,0,0,0,0,0,-1,573,1002,-70.0956,-8.71376
-644,22,-231.783,34.4232,0,0,0,0,0,0,0,-1,580,1002,-231.783,-34.4232
-637,22,-232.079,33.9954,-0.0128666,0.0510594,0.00711078,0.0518408,-0.013648,1.46134,0.0398958,0.0426696,587,1002,-232.079,-33.9954
-630,22,-232.082,33.5687,-0.00802442,0.0423339,0.00586791,0.0430086,-0.00869912,1.45632,0.0319691,0.0251129,594,1002,-232.082,-33.5687
-623,22,-232.162,33.0751,-0.00320956,0.0338116,0.00446693,0.034343,-0.00374091,1.4524,0.0242387,0.0208452,601,1002,-232.162,-33.0751
-616,22,-232.202,32.629,0.00159042,0.0255141,0.00293494,0.0258689,0.00123563,1.45049,0.0168491,0.031966,608,1002,-232.202,-32.629
-609,22,-232.104,32.2828,0.00638906,0.017472,0.0012986,0.0176221,0.00623894,1.4557,0.0103176,0.0376504,615,1002,-232.104,-32.2828
-602,22,-231.99,31.5763,0.0112013,0.0097265,-0.000416095,0.0113106,0.0096172,-0.256867,0.00704411,0.0378337,622,1002,-231.99,-31.5763
-595,22,-231.765,30.8552,0,0,0,0,0,0,0,-1,629,1002,-231.765,-30.8552
-588,22,-209.999,30.4661,0,0,0,0,0,0,0,-1,636,1002,-209.999,-30.4661
-581,22,-72.3125,0.418152,0,0,0,0,0,0,0,-1,643,1002,-72.3125,-0.41816
-574,22,-72.3202,0.457031,0,0,0,0,0,0,0,-1,650,1002,-72.3202,-0.457039
-567,22,-72.3143,0.489685,0,0,0,0,0,0,0,-1,657,1002,-72.3143,-0.48969
-560,22,-72.375,0.517212,0,0,0,0,0,0,0,-1,664,1002,-72.375,-0.517202
-553,22,-72.4261,0.57373,0,0,0,0,0,0,0,-1,671,1002,-72.4261,-0.573721
-546,22,-72.3248,0.688538,0,0,0,0,0,0,0,-1,678,1002,-72.3248,-0.688512
-539,22,-72.3094,0.448792,0,0,0,0,0,0,0,-1,685,1002,-72.3094,-0.448788
-532,22,-72.2036,0.229858,0,0,0,0,0,0,0,-1,692,1002,-72.2036,-0.229864
-525,22,0,0,0,0,0,0,0,0,0,-1,699,1002,0,0
-518,22,0,0,0,0,0,0,0,0,0,-1,706,1002,0,0
-511,22,0,0,0,0,0,0,0,0,0,-1,713,1002,0,0
-504,22,0,0,0,0,0,0,0,0,0,-1,720,1002,0,0
-497,22,0,0,0,0,0,0,0,0,0,-1,727,1002,0,0
-490,22,0,0,0,0,0,0,0,0,0,-1,734,1002,0,0
-483,22,0,0,0,0,0,0,0,0,0,-1,741,1002,0,0
-476,22,0,0,0,0,0,0,0,0,0,-1,748,1002,0,0
-469,22,0,0,0,0,0,0,0,0,0,-1,755,1002,0,0
-462,22,0,0,0,0,0,0,0,0,0,-1,762,1002,0,0
-455,22,0,0,0,0,0,0,0,0,0,-1,769,1002,0,0
-448,22,0,0,0,0,0,0,0,0,0,-1,776,1002,0,0
-441,22,0,0,0,0,0,0,0,0,0,-1,783,1002,0,0
-434,22,0,0,0,0,0,0,0,0,0,-1,790,1002,0,0
-427,22,0,0,0,0,0,0,0,0,0,-1,797,1002,0,0
-420,22,0,0,0,0,0,0,0,0,0,-1,804,1002,0,0
-413,22,0,0,0,0,0,0,0,0,0,-1,811,1002,0,0
-406,22,0,0,0,0,0,0,0,0,0,-1,818,1002,0,0
-399,22,0,0,0,0,0,0,0,0,0,-1,825,1002,0,0
-392,22,0,0,0,0,0,0,0,0,0,-1,832,1002,0,0
-385,22,0,0,0,0,0,0,0,0,0,-1,839,1002,0,0
-378,22,0,0,0,0,0,0,0,0,0,-1,846,1002,0,0
-371,22,0,0,0,0,0,0,0,0,0,-1,853,1002,0,0
-364,22,0,0,0,0,0,0,0,0,0,-1,860,1002,0,0
-357,22,0,0,0,0,0,0,0,0,0,-1,867,1002,0,0
-350,22,0,0,0,0,0,0,0,0,0,-1,874,1002,0,0
-343,22,0,0,0,0,0,0,0,0,0,-1,881,1002,0,0
-336,22,0,0,0,0,0,0,0,0,0,-1,888,1002,0,0
-329,22,0,0,0,0,0,0,0,0,0,-1,895,1002,0,0
-322,22,0,0,0,0,0,0,0,0,0,-1,902,1002,0,0
-315,22,0,0,0,0,0,0,0,0,0,-1,909,1002,0,0
-308,22,0,0,0,0,0,0,0,0,0,-1,916,1002,0,0
-301,22,0,0,0,0,0,0,0,0,0,-1,923,1002,0,0
-294,22,0,0,0,0,0,0,0,0,0,-1,930,1002,0,0
-287,22,0,0,0,0,0,0,0,0,0,-1,937,1002,0,0
-280,22,0,0,0,0,0,0,0,0,0,-1,944,1002,0,0
-273,22,0,0,0,0,0,0,0,0,0,-1,951,1002,0,0
-266,22,0,0,0,0,0,0,0,0,0,-1,958,1002,0,0
-259,22,0,0,0,0,0,0,0,0,0,-1,965,1002,0,0
-252,22,0,0,0,0,0,0,0,0,0,-1,972,1002,0,0
-245,22,0,0,0,0,0,0,0,0,0,-1,979,1002,0,0
-238,22,0,0,0,0,0,0,0,0,0,-1,986,1002,0,0
-231,22,0,0,0,0,0,0,0,0,0,-1,993,1002,0,0
-224,22,0,0,0,0,0,0,0,0,0,-1,1000,1002,0,0
-217,22,0,0,0,0,0,0,0,0,0,-1,1007,1002,0,0
-210,22,0,0,0,0,0,0,0,0,0,-1,1014,1002,0,0
-203,22,0,0,0,0,0,0,0,0,0,-1,1021,1002,0,0
-196,22,0,0,0,0,0,0,0,0,0,-1,1028,1002,0,0
-189,22,0,0,0,0,0,0,0,0,0,-1,1035,1002,0,0
-182,22,0,0,0,0,0,0,0,0,0,-1,1042,1002,0,0
-175,22,0,0,0,0,0,0,0,0,0,-1,1049,1002,0,0
-168,22,0,0,0,0,0,0,0,0,0,-1,1056,1002,0,0
-161,22,0,0,0,0,0,0,0,0,0,-1,1063,1002,0,0
-154,22,0,0,0,0,0,0,0,0,0,-1,1070,1002,0,0
-147,22,0,0,0,0,0,0,0,0,0,-1,1077,1002,0,0
-140,22,0,0,0,0,0,0,0,0,0,-1,1084,1002,0,0
-133,22,0,0,0,0,0,0,0,0,0,-1,1091,1002,0,0
-126,22,0,0,0,0,0,0,0,0,0,-1,1098,1002,0,0
-119,22,0,0,0,0,0,0,0,0,0,-1,1105,1002,0,0
-112,22,0,0,0,0,0,0,0,0,0,-1,1112,1002,0,0
-105,22,0,0,0,0,0,0,0,0,0,-1,1119,1002,0,0
-98,22,0,0,0,0,0,0,0,0,0,-1,1126,1002,0,0
-91,22,0,0,0,0,0,0,0,0,0,-1,1133,1002,0,0
-84,22,0,0,0,0,0,0,0,0,0,-1,1140,1002,0,0
-77,22,0,0,0,0,0,0,0,0,0,-1,1147,1002,0,0
-70,22,0,0,0,0,0,0,0,0,0,-1,1154,1002,0,0
-63,22,0,0,0,0,0,0,0,0,0,-1,1161,1002,0,0
-56,22,0,0,0,0,0,0,0,0,0,-1,1168,1002,0,0
-49,22,0,0,0,0,0,0,0,0,0,-1,1175,1002,0,0
-42,22,0,0,0,0,0,0,0,0,0,-1,1182,1002,0,0
-35,22,0,0,0,0,0,0,0,0,0,-1,1189,1002,0,0
-28,22,0,0,0,0,0,0,0,0,0,-1,1196,1002,0,0
-21,22,0,0,0,0,0,0,0,0,0,-1,1203,1002,0,0
-14,22,0,0,0,0,0,0,0,0,0,-1,1210,1002,0,0
-7,22,0,0,0,0,0,0,0,0,0,-1,1217,1002,0,0
0,22,0,0,0,0,0,0,0,0,0,-1,1224,1002,0,0
7,22,0,0,0,0,0,0,0,0,0,-1,1231,1002,0,0
14,22,0,0,0,0,0,0,0,0,0,-1,1238,1002,0,0
21,22,0,0,0,0,0,0,0,0,0,-1,1245,1002,0,0
28,22,0,0,0,0,0,0,0,0,0,-1,1252,1002,0,0
35,22,0,0,0,0,0,0,0,0,0,-1,1259,1002,0,0
42,22,0,0,0,0,0,0,0,0,0,-1,1266,1002,0,0
49,22,0,0,0,0,0,0,0,0,0,-1,1273,1002,0,0
56,22,0,0,0,0,0,0,0,0,0,-1,1280,1002,0,0
63,22,0,0,0,0,0,0,0,0,0,-1,1287,1002,0,0
70,22,0,0,0,0,0,0,0,0,0,-1,1294,1002,0,0
77,22,0,0,0,0,0,0,0,0,0,-1,1301,1002,0,0
84,22,0,0,0,0,0,0,0,0,0,-1,1308,1002,0,0
91,22,0,0,0,0,0,0,0,0,0,-1,1315,1002,0,0
98,22,0,0,0,0,0,0,0,0,0,-1,1322,1002,0,0
105,22,0,0,0,0,0,0,0,0,0,-1,1329,1002,0,0
112,22,0,0,0,0,0,0,0,0,0,-1,1336,1002,0,0
119,22,0,0,0,0,0,0,0,0,0,-1,1343,1002,0,0
126,22,0,0,0,0,0,0,0,0,0,-1,1350,1002,0,0
133,22,0,0,0,0,0,0,0,0,0,-1,1357,1002,0,0
140,22,0,0,0,0,0,0,0,0,0,-1,1364,1002,0,0
147,22,0,0,0,0,0,0,0,0,0,-1,1371,1002,0,0
154,22,0,0,0,0,0,0,0,0,0,-1,1378,1002,0,0
161,22,0,0,0,0,0,0,0,0,0,-1,1385,1002,0,0
168,22,0,0,0,0,0,0,0,0,0,-1,1392,1002,0,0
175,22,0,0,0,0,0,0,0,0,0,-1,1399,1002,0,0
182,22,0,0,0,0,0,0,0,0,0,-1,1406,1002,0,0
189,22,0,0,0,0,0,0,0,0,0,-1,1413,1002,0,0
196,22,0,0,0,0,0,0,0,0,0,-1,1420,1002,0,0
203,22,0,0,0,0,0,0,0,0,0,-1,1427,1002,0,0
210,22,0,0,0,0,0,0,0,0,0,-1,1434,1002,0,0
217,22,0,0,0,0,0,0,0,0,0,-1,1441,1002,0,0
224,22,0,0,0,0,0,0,0,0,0,-1,1448,1002,0,0
231,22,0,0,0,0,0,0,0,0,0,-1,1455,1002,0,0
238,22,0,0,0,0,0,0,0,0,0,-1,1462,1002,0,0
245,22,0,0,0,0,0,0,0,0,0,-1,1469,1002,0,0
252,22,0,0,0,0,0,0,0,0,0,-1,1476,1002,0,0
259,22,0,0,0,0,0,0,0,0,0,-1,1483,1002,0,0
266,22,0,0,0,0,0,0,0,0,0,-1,1490,1002,0,0
273,22,0,0,0,0,0,0,0,0,0,-1,1497,1002,0,0
280,22,0,0,0,0,0,0,0,0,0,-1,1504,1002,0,0
287,22,0,0,0,0,0,0,0,0,0,-1,1511,1002,0,0
294,22,0,0,0,0,0,0,0,0,0,-1,1518,1002,0,0
301,22,0,0,0,0,0,0,0,0,0,-1,1525,1002,0,0
308,22,0,0,0,0,0,0,0,0,0,-1,1532,1002,0,0
315,22,0,0,0,0,0,0,0,0,0,-1,1539,1002,0,0
322,22,0,0,0,0,0,0,0,0,0,-1,1546,1002,0,0
329,22,0,0,0,0,0,0,0,0,0,-1,1553,1002,0,0
336,22,0,0,0,0,0,0,0,0,0,-1,1560,1002,0,0
343,22,0,0,0,0,0,0,0,0,0,-1,1567,1002,0,0
350,22,0,0,0,0,0,0,0,0,0,-1,1574,1002,0,0
357,22,0,0,0,0,0,0,0,0,0,-1,1581,1002,0,0
364,22,0,0,0,0,0,0,0,0,0,-1,1588,1002,0,0
371,22,0,0,0,0,0,0,0,0,0,-1,1595,1002,0,0
378,22,0,0,0,0,0,0,0,0,0,-1,1602,1002,0,0
385,22,0,0,0,0,0,0,0,0,0,-1,1609,1002,0,0
392,22,0,0,0,0,0,0,0,0,0,-1,1616,1002,0,0
399,22,0,0,0,0,0,0,0,0,0,-1,1623,1002,0,0
406,22,0,0,0,0,0,0,0,0,0,-1,1630,1002,0,0
413,22,0,0,0,0,0,0,0,0,0,-1,1637,1002,0,0
420,22,0,0,0,0,0,0,0,0,0,-1,1644,1002,0,0
427,22,0,0,0,0,0,0,0,0,0,-1,1651,1002,0,0
434,22,0,0,0,0,0,0,0,0,0,-1,1658,1002,0,0
441,22,0,0,0,0,0,0,0,0,0,-1,1665,1002,0,0
448,22,0,0,0,0,0,0,0,0,0,-1,1672,1002,0,0
455,22,0,0,0,0,0,0,0,0,0,-1,1679,1002,0,0
462,22,0,0,0,0,0,0,0,0,0,-1,1686,1002,0,0
469,22,0,0,0,0,0,0,0,0,0,-1,1693,1002,0,0
476,22,0,0,0,0,0,0,0,0,0,-1,1700,1002,0,0
483,22,0,0,0,0,0,0,0,0,0,-1,1707,1002,0,0
490,22,0,0,0,0,0,0,0,0,0,-1,1714,1002,0,0
497,22,0,0,0,0,0,0,0,0,0,-1,1721,1002,0,0
504,22,0,0,0,0,0,0,0,0,0,-1,1728,1002,0,0
511,22,0,0,0,0,0,0,0,0,0,-1,1735,1002,0,0
518,22,0,0,0,0,0,0,0,0,0,-1,1742,1002,0,0
525,22,0,0,0,0,0,0,0,0,0,-1,1749,1002,0,0
532,22,0,0,0,0,0,0,0,0,0,-1,1756,1002,0,0
539,22,0,0,0,0,0,0,0,0,0,-1,1763,1002,0,0
546,22,0,0,0,0,0,0,0,0,0,-1,1770,1002,0,0
553,22,0,0,0,0,0,0,0,0,0,-1,1777,1002,0,0
560,22,0,0,0,0,0,0,0,0,0,-1,1784,1002,0,0
567,22,0,0,0,0,0,0,0,0,0,-1,1791,1002,0,0
574,22,0,0,0,0,0,0,0,0,0,-1,1798,1002,0,0
581,22,0,0,0,0,0,0,0,0,0,-1,1805,1002,0,0
588,22,0,0,0,0,0,0,0,0,0,-1,1812,1002,0,0
595,22,0,0,0,0,0,0,0,0,0,-1,1819,1002,0,0
602,22,0,0,0,0,0,0,0,0,0,-1,1826,1002,0,0
609,22,0,0,0,0,0,0,0,0,0,-1,1833,1002,0,0
616,22,0,0,0,0,0,0,0,0,0,-1,1840,1002,0,0
623,22,0,0,0,0,0,0,0,0,0,-1,1847,1002,0,0
630,22,0,0,0,0,0,0,0,0,0,-1,1854,1002,0,0
637,22,0,0,0,0,0,0,0,0,0,-1,1861,1002,0,0
644,22,235.563,9.05487,0,0,0,0,0,0,0,-1,1868,1002,235.564,-9.05485
651,22,235.606,8.92725,0,0,0,0,0,0,0,-1,1875,1002,235.606,-8.92722
658,22,235.572,8.83478,0,0,0,0,0,0,0,-1,1882,1002,235.572,-8.83479
665,22,235.451,8.99188,0,0,0,0,0,0,0,-1,1889,1002,235.451,-8.99188
672,22,235.522,8.83929,0,0,0,0,0,0,0,-1,1896,1002,235.522,-8.83929
679,22,235.482,8.67456,0,0,0,0,0,0,0,-1,1903,1002,235.482,-8.67454
686,22,235.514,8.69965,0,0,0,0,0,0,0,-1,1910,1002,235.515,-8.69964
693,22,235.601,8.7821,0,0,0,0,0,0,0,-1,1917,1002,235.601,-8.78212
700,22,235.652,8.73132,0,0,0,0,0,0,0,-1,1924,1002,235.652,-8.73135
707,22,235.667,8.70758,0,0,0,0,0,0,0,-1,1931,1002,235.667,-8.70757
714,22,235.783,8.9574,0,0,0,0,0,0,0,-1,1938,1002,235.783,-8.95738
721,22,76.814,2.41211,0,0,0,0,0,0,0,-1,1945,1002,76.814,-2.41212
728,22,239.487,31.2568,0,0,0,0,0,0,0,-1,1952,1002,239.487,-31.2568
735,22,239.42,31.8559,0.000507453,0.00522299,0.00190486,0.00589633,-0.000165881,1.23102,0.00398733,0.0196417,1959,1002,239.42,-31.8559
742,22,239.367,32.371,-0.00520486,0.0136027,0.000236165,0.0136057,-0.00520782,1.55824,0.0112169,0.0210295,1966,1002,239.367,-32.371
749,22,239.276,32.9083,-0.0104588,0.0218874,-0.00130864,0.0219403,-0.0105116,-1.53043,0.0191195,0.0147723,1973,1002,239.276,-32.9083
756,22,239.206,33.3561,-0.0152497,0.0300473,-0.00275316,0.030214,-0.0154164,-1.51031,0.0268025,0.022859,1980,1002,239.206,-33.3561
763,22,239.032,33.9337,-0.0195661,0.038049,-0.00412104,0.0383423,-0.0198593,-1.49975,0.0341629,0.0297792,1987,1002,239.032,-33.9337
770,22,238.761,34.379,-0.0233895,0.0458557,-0.00543605,0.0462799,-0.0238137,-1.49293,0.0411556,0.031088,1994,1002,238.761,-34.379
777,22,238.337,34.6879,0,0,0,0,0,0,0,-1,2001,1002,238.337,-34.6879
784,22,176.982,32.8964,0,0,0,0,0,0,0,-1,2008,1002,176.982,-32.8964
791,22,100.772,12.5767,0,0,0,0,0,0,0,-1,2015,1002,100.772,-12.5767
798,22,88.1873,9.98132,0,0,0,0,0,0,0,-1,2022,1002,88.1872,-9.98132
805,22,75.3247,9.49249,0,0,0,0,0,0,0,-1,2029,1002,75.3248,-9.49248
812,22,75.3965,9.88782,0,0,0,0,0,0,0,-1,2036,1002,75.3966,-9.88781
-700,15,0,0,0,0,0,0,0,0,0,-1,524,1009,0,0
-693,15,-95.7462,0.0612793,0,0,0,0,0,0,0,-1,531,1009,-95.7463,-0.0612602
-686,15,-95.0714,1.24689,0,0,0,0,0,0,0,-1,538,1009,-95.0714,-1.24687
-679,15,-94.2675,2.47766,0,0,0,0,0,0,0,-1,545,1009,-94.2675,-2.47764
-672,15,-92.8383,3.98071,0,0,0,0,0,0,0,-1,552,1009,-92.8382,-3.98072
-665,15,-91.6124,4.78375,0,0,0,0,0,0,0,-1,559,1009,-91.6124,-4.78375
-658,15,-67.7799,6.4903,0,0,0,0,0,0,0,-1,566,1009,-67.7799,-6.49027
-651,15,-51.4943,3.62128,0,0,0,0,0,0,0,-1,573,1009,-51.4943,-3.62128
-644,15,-232.578,34.2345,0,0,0,0,0,0,0,-1,580,1009,-232.578,-34.2345
-637,15,-232.535,33.8154,-0.013842,0.0508618,0.00665449,0.0515391,-0.0145193,1.46937,0.0400854,0.0428613,587,1009,-232.535,-33.8154
-630,15,-232.57,33.4084,-0.00858355,0.0419403,0.0054309,0.0425175,-0.00916073,1.46492,0.0318409,0.0246108,594,1009,-232.57,-33.4084
-623,15,-232.667,32.9453,-0.00338435,0.0332114,0.00407461,0.0336596,-0.00383253,1.46124,0.0238203,0.0172811,601,1009,-232.667,-32.9453
-616,15,-232.564,32.4909,0.00176329,0.0246917,0.0026034,0.0249836,0.0014714,1.45915,0.0161876,0.0226644,608,1009,-232.564,-32.4909
-609,15,-232.482,32.0687,0.00686654,0.0164076,0.00103565,0.0165188,0.00675542,1.46391,0.00958967,0.026243,615,1009,-232.482,-32.0686
-602,15,-232.336,31.5607,0.0119325,0.00839669,-0.000609598,0.0120347,0.00829454,-0.166022,0.00711215,0.0313649,622,1009,-232.336,-31.5607
-595,15,-232.49,31.0454,0,0,0,0,0,0,0,-1,629,1009,-232.49,-31.0454
-588,15,-72.2071,0.610718,0,0,0,0,0,0,0,-1,636,1009,-72.2071,-0.61074
-581,15,-72.2703,0.514465,0,0,0,0,0,0,0,-1,643,1009,-72.2703,-0.514438
-574,15,-72.299,0.44397,0,0,0,0,0,0,0,-1,650,1009,-72.299,-0.443981
-567,15,-72.3457,0.428711,0,0,0,0,0,0,0,-1,657,1009,-72.3457,-0.428701
-560,15,-72.3326,0.582153,0,0,0,0,0,0,0,-1,664,1009,-72.3326,-0.582123
-553,15,-72.2341,0.739929,0,0,0,0,0,0,0,-1,671,1009,-72.2341,-0.739918
-546,15,-72.1395,0.576538,0,0,0,0,0,0,0,-1,678,1009,-72.1395,-0.576547
-539,15,-72.1952,0.250854,0,0,0,0,0,0,0,-1,685,1009,-72.1952,-0.250863
-532,15,-72.2346,0.0326538,0,0,0,0,0,0,0,-1,692,1009,-72.2346,-0.0326423
-525,15,0,0,0,0,0,0,0,0,0,-1,699,1009,0,0
-518,15,0,0,0,0,0,0,0,0,0,-1,706,1009,0,0
-511,15,0,0,0,0,0,0,0,0,0,-1,713,1009,0,0
-504,15,0,0,0,0,0,0,0,0,0,-1,720,1009,0,0
-497,15,0,0,0,0,0,0,0,0,0,-1,727,1009,0,0
-490,15,0,0,0,0,0,0,0,0,0,-1,734,1009,0,0
-483,15,0,0,0,0,0,0,0,0,0,-1,741,1009,0,0
-476,15,0,0,0,0,0,0,0,0,0,-1,748,1009,0,0
-469,15,0,0,0,0,0,0,0,0,0,-1,755,1009,0,0
-462,15,0,0,0,0,0,0,0,0,0,-1,762,1009,0,0
-455,15,0,0,0,0,0,0,0,0,0,-1,769,1009,0,0
-448,15,0,0,0,0,0,0,0,0,0,-1,776,1009,0,0
-441,15,0,0,0,0,0,0,0,0,0,-1,783,1009,0,0
-434,15,0,0,0,0,0,0,0,0,0,-1,790,1009,0,0
-427,15,0,0,0,0,0,0,0,0,0,-1,797,1009,0,0
-420,15,0,0,0,0,0,0,0,0,0,-1,804,1009,0,0
-413,15,0,0,0,0,0,0,0,0,0,-1,811,1009,0,0
-406,15,0,0,0,0,0,0,0,0,0,-1,818,1009,0,0
-399,15,0,0,0,0,0,0,0,0,0,-1,825,1009,0,0
-392,15,0,0,0,0,0,0,0,0,0,-1,832,1009,0,0
-385,15,0,0,0,0,0,0,0,0,0,-1,839,1009,0,0
-378,15,0,0,0,0,0,0,0,0,0,-1,846,1009,0,0
-371,15,0,0,0,0,0,0,0,0,0,-1,853,1009,0,0
-364,15,0,0,0,0,0,0,0,0,0,-1,860,1009,0,0
-357,15,0,0,0,0,0,0,0,0,0,-1,867,1009,0,0
-350,15,0,0,0,0,0,0,0,0,0,-1,874,1009,0,0
-343,15,0,0,0,0,0,0,0,0,0,-1,881,1009,0,0
-336,15,0,0,0,0,0,0,0,0,0,-1,888,1009,0,0
-329,15,0,0,0,0,0,0,0,0,0,-1,895,1009,0,0
-322,15,0,0,0,0,0,0,0,0,0,-1,902,1009,0,0
-315,15,0,0,0,0,0,0,0,0,0,-1,909,1009,0,0
-308,15,0,0,0,0,0,0,0,0,0,-1,916,1009,0,0
-301,15,0,0,0,0,0,0,0,0,0,-1,923,1009,0,0
-294,15,0,0,0,0,0,0,0,0,0,-1,930,1009,0,0
-287,15,0,0,0,0,0,0,0,0,0,-1,937,1009,0,0
-280,15,0,0,0,0,0,0,0,0,0,-1,944,1009,0,0
-273,15,0,0,0,0,0,0,0,0,0,-1,951,1009,0,0
-266,15,0,0,0,0,0,0,0,0,0,-1,958,1009,0,0
-259,15,0,0,0,0,0,0,0,0,0,-1,965,1009,0,0
-252,15,0,0,0,0,0,0,0,0,0,-1,972,1009,0,0
-245,15,0,0,0,0,0,0,0,0,0,-1,979,1009,0,0
-238,15,0,0,0,0,0,0,0,0,0,-1,986,1009,0,0
-231,15,0,0,0,0,0,0,0,0,0,-1,993,1009,0,0
-224,15,0,0,0,0,0,0,0,0,0,-1,1000,1009,0,0
-217,15,0,0,0,0,0,0,0,0,0,-1,1007,1009,0,0
-210,15,0,0,0,0,0,0,0,0,0,-1,1014,1009,0,0
-203,15,0,0,0,0,0,0,0,0,0,-1,1021,1009,0,0
-196,15,0,0,0,0,0,0,0,0,0,-1,1028,1009,0,0
-189,15,0,0,0,0,0,0,0,0,0,-1,1035,1009,0,0
-182,15,0,0,0,0,0,0,0,0,0,-1,1042,1009,0,0
-175,15,0,0,0,0,0,0,0,0,0,-1,1049,1009,0,0
-168,15,0,0,0,0,0,0,0,0,0,-1,1056,1009,0,0
-161,15,0,0,0,0,0,0,0,0,0,-1,1063,1009,0,0
-154,15,0,0,0,0,0,0,0,0,0,-1,1070,1009,0,0
-147,15,0,0,0,0,0,0,0,0,0,-1,1077,1009,0,0
-140,15,0,0,0,0,0,0,0,0,0,-1,1084,1009,0,0
-133,15,0,0,0,0,0,0,0,0,0,-1,1091,1009,0,0
-126,15,0,0,0,0,0,0,0,0,0,-1,1098,1009,0,0
-119,15,0,0,0,0,0,0,0,0,0,-1,1105,1009,0,0
-112,15,0,0,0,0,0,0,0,0,0,-1,1112,1009,0,0
-105,15,0,0,0,0,0,0,0,0,0,-1,1119,1009,0,0
-98,15,0,0,0,0,0,0,0,0,0,-1,1126,1009,0,0
-91,15,0,0,0,0,0,0,0,0,0,-1,1133,1009,0,0
-84,15,0,0,0,0,0,0,0,0,0,-1,1140,1009,0,0
-77,15,0,0,0,0,0,0,0,0,0,-1,1147,1009,0,0
-70,15,0,0,0,0,0,0,0,0,0,-1,1154,1009,0,0
-63,15,0,0,0,0,0,0,0,0,0,-1,1161,1009,0,0
-56,15,0,0,0,0,0,0,0,0,0,-1,1168,1009,0,0
-49,15,0,0,0,0,0,0,0,0,0,-1,1175,1009,0,0
-42,15,0,0,0,0,0,0,0,0,0,-1,1182,1009,0,0
-35,15,0,0,0,0,0,0,0,0,0,-1,1189,1009,0,0
-28,15,0,0,0,0,0,0,0,0,0,-1,1196,1009,0,0
-21,15,0,0,0,0,0,0,0,0,0,-1,1203,1009,0,0
-14,15,0,0,0,0,0,0,0,0,0,-1,1210,1009,0,0
-7,15,0,0,0,0,0,0,0,0,0,-1,1217,1009,0,0
0,15,0,0,0,0,0,0,0,0,0,-1,1224,1009,0,0
7,15,0,0,0,0,0,0,0,0,0,-1,1231,1009,0,0
14,15,0,0,0,0,0,0,0,0,0,-1,1238,1009,0,0
21,15,0,0,0,0,0,0,0,0,0,-1,1245,1009,0,0
28,15,0,0,0,0,0,0,0,0,0,-1,1252,1009,0,0
35,15,0,0,0,0,0,0,0,0,0,-1,1259,1009,0,0
42,15,0,0,0,0,0,0,0,0,0,-1,1266,1009,0,0
49,15,0,0,0,0,0,0,0,0,0,-1,1273,1009,0,0
56,15,0,0,0,0,0,0,0,0,0,-1,1280,1009,0,0
63,15,0,0,0,0,0,0,0,0,0,-1,1287,1009,0,0
70,15,0,0,0,0,0,0,0,0,0,-1,1294,1009,0,0
77,15,0,0,0,0,0,0,0,0,0,-1,1301,1009,0,0
84,15,0,0,0,0,0,0,0,0,0,-1,1308,1009,0,0
91,15,0,0,0,0,0,0,0,0,0,-1,1315,1009,0,0
98,15,0,0,0,0,0,0,0,0,0,-1,1322,1009,0,0
105,15,0,0,0,0,0,0,0,0,0,-1,1329,1009,0,0
112,15,0,0,0,0,0,0,0,0,0,-1,1336,1009,0,0
119,15,0,0,0,0,0,0,0,0,0,-1,1343,1009,0,0
126,15,0,0,0,0,0,0,0,0,0,-1,1350,1009,0,0
133,15,0,0,0,0,0,0,0,0,0,-1,1357,1009,0,0
140,15,0,0,0,0,0,0,0,0,0,-1,1364,1009,0,0
147,15,0,0,0,0,0,0,0,0,0,-1,1371,1009,0,0
154,15,0,0,0,0,0,0,0,0,0,-1,1378,1009,0,0
161,15,0,0,0,0,0,0,0,0,0,-1,1385,1009,0,0
168,15,0,0,0,0,0,0,0,0,0,-1,1392,1009,0,0
175,15,0,0,0,0,0,0,0,0,0,-1,1399,1009,0,0
182,15,0,0,0,0,0,0,0,0,0,-1,1406,1009,0,0
189,15,0,0,0,0,0,0,0,0,0,-1,1413,1009,0,0
196,15,0,0,0,0,0,0,0,0,0,-1,1420,1009,0,0
203,15,0,0,0,0,0,0,0,0,0,-1,1427,1009,0,0
210,15,0,0,0,0,0,0,0,0,0,-1,1434,1009,0,0
217,15,0,0,0,0,0,0,0,0,0,-1,1441,1009,0,0
224,15,0,0,0,0,0,0,0,0,0,-1,1448,1009,0,0
231,15,0,0,0,0,0,0,0,0,0,-1,1455,1009,0,0
238,15,0,0,0,0,0,0,0,0,0,-1,1462,1009,0,0
245,15,0,0,0,0,0,0,0,0,0,-1,1469,1009,0,0
252,15,0,0,0,0,0,0,0,0,0,-1,1476,1009,0,0
259,15,0,0,0,0,0,0,0,0,0,-1,1483,1009,0,0
266,15,0,0,0,0,0,0,0,0,0,-1,1490,1009,0,0
273,15,0,0,0,0,0,0,0,0,0,-1,1497,1009,0,0
280,15,0,0,0,0,0,0,0,0,0,-1,1504,1009,0,0
287,15,0,0,0,0,0,0,0,0,0,-1,1511,1009,0,0
294,15,0,0,0,0,0,0,0,0,0,-1,1518,1009,0,0
301,15,0,0,0,0,0,0,0,0,0,-1,1525,1009,0,0
308,15,0,0,0,0,0,0,0,0,0,-1,1532,1009,0,0
315,15,0,0,0,0,0,0,0,0,0,-1,1539,1009,0,0
322,15,0,0,0,0,0,0,0,0,0,-1,1546,1009,0,0
329,15,0,0,0,0,0,0,0,0,0,-1,1553,1009,0,0
336,15,0,0,0,0,0,0,0,0,0,-1,1560,1009,0,0
343,15,0,0,0,0,0,0,0,0,0,-1,1567,1009,0,0
350,15,0,0,0,0,0,0,0,0,0,-1,1574,1009,0,0
357,15,0,0,0,0,0,0,0,0,0,-1,1581,1009,0,0
364,15,0,0,0,0,0,0,0,0,0,-1,1588,1009,0,0
371,15,0,0,0,0,0,0,0,0,0,-1,1595,1009,0,0
378,15,0,0,0,0,0,0,0,0,0,-1,1602,1009,0,0
385,15,0,0,0,0,0,0,0,0,0,-1,1609,1009,0,0
392,15,0,0,0,0,0,0,0,0,0,-1,1616,1009,0,0
399,15,0,0,0,0,0,0,0,0,0,-1,1623,1009,0,0
406,15,0,0,0,0,0,0,0,0,0,-1,1630,1009,0,0
413,15,0,0,0,0,0,0,0,0,0,-1,1637,1009,0,0
420,15,0,0,0,0,0,0,0,0,0,-1,1644,1009,0,0
427,15,0,0,0,0,0,0,0,0,0,-1,1651,1009,0,0
434,15,0,0,0,0,0,0,0,0,0,-1,1658,1009,0,0
441,15,0,0,0,0,0,0,0,0,0,-1,1665,1009,0,0
448,15,0,0,0,0,0,0,0,0,0,-1,1672,1009,0,0
455,15,0,0,0,0,0,0,0,0,0,-1,1679,1009,0,0
462,15,0,0,0,0,0,0,0,0,0,-1,1686,1009,0,0
469,15,0,0,0,0,0,0,0,0,0,-1,1693,1009,0,0
476,15,0,0,0,0,0,0,0,0,0,-1,1700,1009,0,0
483,15,0,0,0,0,0,0,0,0,0,-1,1707,1009,0,0
490,15,0,0,0,0,0,0,0,0,0,-1,1714,1009,0,0
497,15,0,0,0,0,0,0,0,0,0,-1,1721,1009,0,0
504,15,0,0,0,0,0,0,0,0,0,-1,1728,1009,0,0
511,15,0,0,0,0,0,0,0,0,0,-1,1735,1009,0,0
518,15,0,0,0,0,0,0,0,0,0,-1,1742,1009,0,0
525,15,0,0,0,0,0,0,0,0,0,-1,1749,1009,0,0
532,15,0,0,0,0,0,0,0,0,0,-1,1756,1009,0,0
539,15,0,0,0,0,0,0,0,0,0,-1,1763,1009,0,0
546,15,0,0,0,0,0,0,0,0,0,-1,1770,1009,0,0
553,15,0,0,0,0,0,0,0,0,0,-1,1777,1009,0,0
560,15,0,0,0,0,0,0,0,0,0,-1,1784,1009,0,0
567,15,0,0,0,0,0,0,0,0,0,-1,1791,1009,0,0
574,15,0,0,0,0,0,0,0,0,0,-1,1798,1009,0,0
581,15,0,0,0,0,0,0,0,0,0,-1,1805,1009,0,0
588,15,0,0,0,0,0,0,0,0,0,-1,1812,1009,0,0
595,15,0,0,0,0,0,0,0,0,0,-1,1819,1009,0,0
602,15,0,0,0,0,0,0,0,0,0,-1,1826,1009,0,0
609,15,0,0,0,0,0,0,0,0,0,-1,1833,1009,0,0
616,15,0,0,0,0,0,0,0,0,0,-1,1840,1009,0,0
623,15,0,0,0,0,0,0,0,0,0,-1,1847,1009,0,0
630,15,0,0,0,0,0,0,0,0,0,-1,1854,1009,0,0
637,15,0,0,0,0,0,0,0,0,0,-1,1861,1009,0,0
644,15,235.615,8.87274,0,0,0,0,0,0,0,-1,1868,1009,235.615,-8.87276
651,15,235.611,8.76941,0,0,0,0,0,0,0,-1,1875,1009,235.611,-8.76944
658,15,235.536,8.79993,0,0,0,0,0,0,0,-1,1882,1009,235.536,-8.79995
665,15,235.491,8.88208,0,0,0,0,0,0,0,-1,1889,1009,235.491,-8.8821
672,15,235.575,8.79462,0,0,0,0,0,0,0,-1,1896,1009,235.575,-8.79464
679,15,235.682,8.64703,0,0,0,0,0,0,0,-1,1903,1009,235.682,-8.64703
686,15,235.674,8.56274,0,0,0,0,0,0,0,-1,1910,1009,235.674,-8.56276
693,15,235.604,8.6026,0,0,0,0,0,0,0,-1,1917,1009,235.605,-8.6026
700,15,235.606,8.59637,0,0,0,0,0,0,0,-1,1924,1009,235.606,-8.59638
707,15,235.671,8.62225,0,0,0,0,0,0,0,-1,1931,1009,235.671,-8.62228
714,15,236.006,8.81329,0,0,0,0,0,0,0,-1,1938,1009,236.006,-8.8133
721,15,105.871,3.06104,0,0,0,0,0,0,0,-1,1945,1009,105.871,-3.06104
728,15,240.017,31.3879,0,0,0,0,0,0,0,-1,1952,1009,240.017,-31.3879
735,15,239.884,31.9185,0,0,0,0,0,0,0,-1,1959,1009,239.884,-31.9185
742,15,239.773,32.8593,0,0,0,0,0,0,0,-1,1966,1009,239.773,-32.8592
749,15,239.792,32.8989,-0.0114887,0.0215799,-0.000767175,0.0215977,-0.0115065,-1.54761,0.0194064,0.0348622,1973,1009,239.792,-32.8989
756,15,239.736,33.1552,-0.0157663,0.0295828,-0.00178149,0.0296527,-0.0158362,-1.53159,0.0266638,0.0277057,1980,1009,239.736,-33.1552
763,15,239.57,33.6868,-0.0196055,0.037491,-0.00269157,0.0376176,-0.0197321,-1.52379,0.0336433,0.021019,1987,1009,239.57,-33.6868
770,15,239.332,33.9385,-0.0229875,0.0452702,-0.00351967,0.0454512,-0.0231685,-1.51941,0.0403079,0.0288381,1994,1009,239.332,-33.9385
777,15,238.882,34.1463,0,0,0,0,0,0,0,-1,2001,1009,238.882,-34.1463
784,15,183.132,33.4588,0,0,0,0,0,0,0,-1,2008,1009,183.132,-33.4588
791,15,77.2153,5.6933,0,0,0,0,0,0,0,-1,2015,1009,77.2154,-5.69328
798,15,88.0789,8.15259,0,0,0,0,0,0,0,-1,2022,1009,88.0789,-8.1526
805,15,88.3564,8.5954,0,0,0,0,0,0,0,-1,2029,1009,88.3564,-8.59542
812,15,88.9314,8.58789,0,0,0,0,0,0,0,-1,2036,1009,88.9313,-8.58789
-700,8,0,0,0,0,0,0,0,0,0,-1,524,1016,0,0
-693,8,-94.4625,-0.110535,0,0,0,0,0,0,0,-1,531,1016,-94.4625,0.110518
-686,8,-93.652,1.13306,0,0,0,0,0,0,0,-1,538,1016,-93.652,-1.13308
-679,8,-92.8582,2.35199,0,0,0,0,0,0,0,-1,545,1016,-92.8582,-2.35199
-672,8,-91.9374,3.4234,0,0,0,0,0,0,0,-1,552,1016,-91.9374,-3.42337
-665,8,-91.0598,4.48438,0,0,0,0,0,0,0,-1,559,1016,-91.0598,-4.48439
-658,8,-67.093,6.67358,0,0,0,0,0,0,0,-1,566,1016,-67.093,-6.67358
-651,8,-66.0091,7.37134,0,0,0,0,0,0,0,-1,573,1016,-66.0091,-7.37133
-644,8,-231.952,33.3612,0,0,0,0,0,0,0,-1,580,1016,-231.952,-33.3612
-637,8,-232.946,33.5724,0,0,0,0,0,0,0,-1,587,1016,-232.946,-33.5724
-630,8,-232.977,33.1951,-0.00902625,0.0417024,0.00509738,0.0422095,-0.00953338,1.47163,0.0317975,0.0335452,594,1016,-232.977,-33.1951
-623,8,-233.056,32.8137,-0.0036389,0.0327782,0.00379484,0.0331694,-0.00403014,1.46806,0.0235715,0.0221312,601,1016,-233.056,-32.8137
-616,8,-233.067,32.4371,0.00166972,0.0240337,0.00241837,0.0242922,0.00141119,1.4643,0.0157455,0.0197561,608,1016,-233.067,-32.4371
-609,8,-233.014,32.0182,0.00689524,0.0154892,0.000974831,0.0155984,0.00678605,1.45925,0.00903102,0.0183692,615,1016,-233.014,-32.0182
-602,8,-232.83,31.6849,0.0120302,0.00717657,-0.000527555,0.0120869,0.00711989,-0.107027,0.00701519,0.0311383,622,1016,-232.83,-31.6849
-595,8,-232.644,31.2768,0,0,0,0,0,0,0,-1,629,1016,-232.644,-31.2768
-588,8,-72.1575,0.396667,0,0,0,0,0,0,0,-1,636,1016,-72.1575,-0.396696
-581,8,-72.2949,0.488342,0,0,0,0,0,0,0,-1,643,1016,-72.2949,-0.488366
-574,8,-72.2419,0.491821,0,0,0,0,0,0,0,-1,650,1016,-72.242,-0.491798
-567,8,-72.2828,0.555176,0,0,0,0,0,0,0,-1,657,1016,-72.2828,-0.555176
-560,8,-72.3215,0.677917,0,0,0,0,0,0,0,-1,664,1016,-72.3215,-0.677912
-553,8,-72.1692,0.698608,0,0,0,0,0,0,0,-1,671,1016,-72.1692,-0.698607
-546,8,-72.1154,0.481506,0,0,0,0,0,0,0,-1,678,1016,-72.1154,-0.481502
-539,8,-72.0368,0.219299,0,0,0,0,0,0,0,-1,685,1016,-72.0368,-0.219299
-532,8,-72.2081,0.637329,0,0,0,0,0,0,0,-1,692,1016,-72.2082,-0.637349
-525,8,0,0,0,0,0,0,0,0,0,-1,699,1016,0,0
-518,8,0,0,0,0,0,0,0,0,0,-1,706,1016,0,0
-511,8,0,0,0,0,0,0,0,0,0,-1,713,1016,0,0
-504,8,0,0,0,0,0,0,0,0,0,-1,720,1016,0,0
-497,8,0,0,0,0,0,0,0,0,0,-1,727,1016,0,0
-490,8,0,0,0,0,0,0,0,0,0,-1,734,1016,0,0
-483,8,0,0,0,0,0,0,0,0,0,-1,741,1016,0,0
-476,8,0,0,0,0,0,0,0,0,0,-1,748,1016,0,0
-469,8,0,0,0,0,0,0,0,0,0,-1,755,1016,0,0
-462,8,0,0,0,0,0,0,0,0,0,-1,762,1016,0,0
-455,8,0,0,0,0,0,0,0,0,0,-1,769,1016,0,0
-448,8,0,0,0,0,0,0,0,0,0,-1,776,1016,0,0
-441,8,0,0,0,0,0,0,0,0,0,-1,783,1016,0,0
-434,8,0,0,0,0,0,0,0,0,0,-1,790,1016,0,0
-427,8,0,0,0,0,0,0,0,0,0,-1,797,1016,0,0
-420,8,0,0,0,0,0,0,0,0,0,-1,804,1016,0,0
-413,8,0,0,0,0,0,0,0,0,0,-1,811,1016,0,0
-406,8,0,0,0,0,0,0,0,0,0,-1,818,1016,0,0
-399,8,0,0,0,0,0,0,0,0,0,-1,825,1016,0,0
-392,8,0,0,0,0,0,0,0,0,0,-1,832,1016,0,0
-385,8,0,0,0,0,0,0,0,0,0,-1,839,1016,0,0
-378,8,0,0,0,0,0,0,0,0,0,-1,846,1016,0,0
-371,8,0,0,0,0,0,0,0,0,0,-1,853,1016,0,0
-364,8,0,0,0,0,0,0,0,0,0,-1,860,1016,0,0
-357,8,0,0,0,0,0,0,0,0,0,-1,867,1016,0,0
-350,8,0,0,0,0,0,0,0,0,0,-1,874,1016,0,0
-343,8,0,0,0,0,0,0,0,0,0,-1,881,1016,0,0
-336,8,0,0,0,0,0,0,0,0,0,-1,888,1016,0,0
-329,8,0,0,0,0,0,0,0,0,0,-1,895,1016,0,0
-322,8,0,0,0,0,0,0,0,0,0,-1,902,1016,0,0
-315,8,0,0,0,0,0,0,0,0,0,-1,909,1016,0,0
-308,8,0,0,0,0,0,0,0,0,0,-1,916,1016,0,0
-301,8,0,0,0,0,0,0,0,0,0,-1,923,1016,0,0
-294,8,0,0,0,0,0,0,0,0,0,-1,930,1016,0,0
-287,8,0,0,0,0,0,0,0,0,0,-1,937,1016,0,0
-280,8,0,0,0,0,0,0,0,0,0,-1,944,1016,0,0
-273,8,0,0,0,0,0,0,0,0,0,-1,951,1016,0,0
-266,8,0,0,0,0,0,0,0,0,0,-1,958,1016,0,0
-259,8,0,0,0,0,0,0,0,0,0,-1,965,1016,0,0
-252,8,0,0,0,0,0,0,0,0,0,-1,972,1016,0,0
-245,8,0,0,0,0,0,0,0,0,0,-1,979,1016,0,0
-238,8,0,0,0,0,0,0,0,0,0,-1,986,1016,0,0
-231,8,0,0,0,0,0,0,0,0,0,-1,993,1016,0,0
-224,8,0,0,0,0,0,0,0,0,0,-1,1000,1016,0,0
-217,8,0,0,0,0,0,0,0,0,0,-1,1007,1016,0,0
-210,8,0,0,0,0,0,0,0,0,0,-1,1014,1016,0,0
-203,8,0,0,0,0,0,0,0,0,0,-1,1021,1016,0,0
-196,8,0,0,0,0,0,0,0,0,0,-1,1028,1016,0,0
-189,8,0,0,0,0,0,0,0,0,0,-1,1035,1016,0,0
-182,8,0,0,0,0,0,0,0,0,0,-1,1042,1016,0,0
-175,8,0,0,0,0,0,0,0,0,0,-1,1049,1016,0,0
-168,8,0,0,0,0,0,0,0,0,0,-1,1056,1016,0,0
-161,8,0,0,0,0,0,0,0,0,0,-1,1063,1016,0,0
-154,8,0,0,0,0,0,0,0,0,0,-1,1070,1016,0,0
-147,8,0,0,0,0,0,0,0,0,0,-1,1077,1016,0,0
-140,8,0,0,0,0,0,0,0,0,0,-1,1084,1016,0,0
-133,8,0,0,0,0,0,0,0,0,0,-1,1091,1016,0,0
-126,8,0,0,0,0,0,0,0,0,0,-1,1098,1016,0,0
-119,8,0,0,0,0,0,0,0,0,0,-1,1105,1016,0,0
-112,8,0,0,0,0,0,0,0,0,0,-1,1112,1016,0,0
-105,8,0,0,0,0,0,0,0,0,0,-1,1119,1016,0,0
-98,8,0,0,0,0,0,0,0,0,0,-1,1126,1016,0,0
-91,8,0,0,0,0,0,0,0,0,0,-1,1133,1016,0,0
-84,8,0,0,0,0,0,0,0,0,0,-1,1140,1016,0,0
-77,8,0,0,0,0,0,0,0,0,0,-1,1147,1016,0,0
-70,8,0,0,0,0,0,0,0,0,0,-1,1154,1016,0,0
-63,8,0,0,0,0,0,0,0,0,0,-1,1161,1016,0,0
-56,8,0,0,0,0,0,0,0,0,0,-1,1168,1016,0,0
-49,8,0,0,0,0,0,0,0,0,0,-1,1175,1016,0,0
-42,8,0,0,0,0,0,0,0,0,0,-1,1182,1016,0,0
-35,8,0,0,0,0,0,0,0,0,0,-1,1189,1016,0,0
-28,8,0,0,0,0,0,0,0,0,0,-1,1196,1016,0,0
-21,8,0,0,0,0,0,0,0,0,0,-1,1203,1016,0,0
-14,8,0,0,0,0,0,0,0,0,0,-1,1210,1016,0,0
-7,8,0,0,0,0,0,0,0,0,0,-1,1217,1016,0,0
0,8,0,0,0,0,0,0,0,0,0,-1,1224,1016,0,0
7,8,0,0,0,0,0,0,0,0,0,-1,1231,1016,0,0
14,8,0,0,0,0,0,0,0,0,0,-1,1238,1016,0,0
21,8,0,0,0,0,0,0,0,0,0,-1,1245,1016,0,0
28,8,0,0,0,0,0,0,0,0,0,-1,1252,1016,0,0
35,8,0,0,0,0,0,0,0,0,0,-1,1259,1016,0,0
42,8,0,0,0,0,0,0,0,0,0,-1,1266,1016,0,0
49,8,0,0,0,0,0,0,0,0,0,-1,1273,1016,0,0
56,8,0,0,0,0,0,0,0,0,0,-1,1280,1016,0,0
63,8,0,0,0,0,0,0,0,0,0,-1,1287,1016,0,0
70,8,0,0,0,0,0,0,0,0,0,-1,1294,1016,0,0
77,8,0,0,0,0,0,0,0,0,0,-1,1301,1016,0,0
84,8,0,0,0,0,0,0,0,0,0,-1,1308,1016,0,0
91,8,0,0,0,0,0,0,0,0,0,-1,1315,1016,0,0
98,8,0,0,0,0,0,0,0,0,0,-1,1322,1016,0,0
105,8,0,0,0,0,0,0,0,0,0,-1,1329,1016,0,0
112,8,0,0,0,0,0,0,0,0,0,-1,1336,1016,0,0
119,8,0,0,0,0,0,0,0,0,0,-1,1343,1016,0,0
126,8,0,0,0,0,0,0,0,0,0,-1,1350,1016,0,0
133,8,0,0,0,0,0,0,0,0,0,-1,1357,1016,0,0
140,8,0,0,0,0,0,0,0,0,0,-1,1364,1016,0,0
147,8,0,0,0,0,0,0,0,0,0,-1,1371,1016,0,0
154,8,0,0,0,0,0,0,0,0,0,-1,1378,1016,0,0
161,8,0,0,0,0,0,0,0,0,0,-1,1385,1016,0,0
168,8,0,0,0,0,0,0,0,0,0,-1,1392,1016,0,0
175,8,0,0,0,0,0,0,0,0,0,-1,1399,1016,0,0
182,8,0,0,0,0,0,0,0,0,0,-1,1406,1016,0,0
189,8,0,0,0,0,0,0,0,0,0,-1,1413,1016,0,0
196,8,0,0,0,0,0,0,0,0,0,-1,1420,1016,0,0
203,8,0,0,0,0,0,0,0,0,0,-1,1427,1016,0,0
210,8,0,0,0,0,0,0,0,0,0,-1,1434,1016,0,0
217,8,0,0,0,0,0,0,0,0,0,-1,1441,1016,0,0
224,8,0,0,0,0,0,0,0,0,0,-1,1448,1016,0,0
231,8,0,0,0,0,0,0,0,0,0,-1,1455,1016,0,0
238,8,0,0,0,0,0,0,0,0,0,-1,1462,1016,0,0
245,8,0,0,0,0,0,0,0,0,0,-1,1469,1016,0,0
252,8,0,0,0,0,0,0,0,0,0,-1,1476,1016,0,0
259,8,0,0,0,0,0,0,0,0,0,-1,1483,1016,0,0
266,8,0,0,0,0,0,0,0,0,0,-1,1490,1016,0,0
273,8,0,0,0,0,0,0,0,0,0,-1,1497,1016,0,0
280,8,0,0,0,0,0,0,0,0,0,-1,1504,1016,0,0
287,8,0,0,0,0,0,0,0,0,0,-1,1511,1016,0,0
294,8,0,0,0,0,0,0,0,0,0,-1,1518,1016,0,0
301,8,0,0,0,0,0,0,0,0,0,-1,1525,1016,0,0
308,8,0,0,0,0,0,0,0,0,0,-1,1532,1016,0,0
315,8,0,0,0,0,0,0,0,0,0,-1,1539,1016,0,0
322,8,0,0,0,0,0,0,0,0,0,-1,1546,1016,0,0
329,8,0,0,0,0,0,0,0,0,0,-1,1553,1016,0,0
336,8,0,0,0,0,0,0,0,0,0,-1,1560,1016,0,0
343,8,0,0,0,0,0,0,0,0,0,-1,1567,1016,0,0
350,8,0,0,0,0,0,0,0,0,0,-1,1574,1016,0,0
357,8,0,0,0,0,0,0,0,0,0,-1,1581,1016,0,0
364,8,0,0,0,0,0,0,0,0,0,-1,1588,1016,0,0
371,8,0,0,0,0,0,0,0,0,0,-1,1595,1016,0,0
378,8,0,0,0,0,0,0,0,0,0,-1,1602,1016,0,0
385,8,0,0,0,0,0,0,0,0,0,-1,1609,1016,0,0
392,8,0,0,0,0,0,0,0,0,0,-1,1616,1016,0,0
399,8,0,0,0,0,0,0,0,0,0,-1,1623,1016,0,0
406,8,0,0,0,0,0,0,0,0,0,-1,1630,1016,0,0
413,8,0,0,0,0,0,0,0,0,0,-1,1637,1016,0,0
420,8,0,0,0,0,0,0,0,0,0,-1,1644,1016,0,0
427,8,0,0,0,0,0,0,0,0,0,-1,1651,1016,0,0
434,8,0,0,0,0,0,0,0,0,0,-1,1658,1016,0,0
441,8,0,0,0,0,0,0,0,0,0,-1,1665,1016,0,0
448,8,0,0,0,0,0,0,0,0,0,-1,1672,1016,0,0
455,8,0,0,0,0,0,0,0,0,0,-1,1679,1016,0,0
462,8,0,0,0,0,0,0,0,0,0,-1,1686,1016,0,0
469,8,0,0,0,0,0,0,0,0,0,-1,1693,1016,0,0
476,8,0,0,0,0,0,0,0,0,0,-1,1700,1016,0,0
483,8,0,0,0,0,0,0,0,0,0,-1,1707,1016,0,0
490,8,0,0,0,0,0,0,0,0,0,-1,1714,1016,0,0
497,8,0,0,0,0,0,0,0,0,0,-1,1721,1016,0,0
504,8,0,0,0,0,0,0,0,0,0,-1,1728,1016,0,0
511,8,0,0,0,0,0,0,0,0,0,-1,1735,1016,0,0
518,8,0,0,0,0,0,0,0,0,0,-1,1742,1016,0,0
525,8,0,0,0,0,0,0,0,0,0,-1,1749,1016,0,0
532,8,0,0,0,0,0,0,0,0,0,-1,1756,1016,0,0
539,8,0,0,0,0,0,0,0,0,0,-1,1763,1016,0,0
546,8,0,0,0,0,0,0,0,0,0,-1,1770,1016,0,0
553,8,0,0,0,0,0,0,0,0,0,-1,1777,1016,0,0
560,8,0,0,0,0,0,0,0,0,0,-1,1784,1016,0,0
567,8,0,0,0,0,0,0,0,0,0,-1,1791,1016,0,0
574,8,0,0,0,0,0,0,0,0,0,-1,1798,1016,0,0
581,8,0,0,0,0,0,0,0,0,0,-1,1805,1016,0,0
588,8,0,0,0,0,0,0,0,0,0,-1,1812,1016,0,0
595,8,0,0,0,0,0,0,0,0,0,-1,1819,1016,0,0
602,8,0,0,0,0,0,0,0,0,0,-1,1826,1016,0,0
609,8,0,0,0,0,0,0,0,0,0,-1,1833,1016,0,0
616,8,0,0,0,0,0,0,0,0,0,-1,1840,1016,0,0
623,8,0,0,0,0,0,0,0,0,0,-1,1847,1016,0,0
630,8,0,0,0,0,0,0,0,0,0,-1,1854,1016,0,0
637,8,0,0,0,0,0,0,0,0,0,-1,1861,1016,0,0
644,8,235.573,8.8736,0,0,0,0,0,0,0,-1,1868,1016,235.573,-8.8736
651,8,235.601,8.70013,0,0,0,0,0,0,0,-1,1875,1016,235.601,-8.70016
658,8,235.57,8.68549,0,0,0,0,0,0,0,-1,1882,1016,235.57,-8.6855
665,8,235.523,8.6886,0,0,0,0,0,0,0,-1,1889,1016,235.523,-8.6886
672,8,235.585,8.56836,0,0,0,0,0,0,0,-1,1896,1016,235.585,-8.56838
679,8,235.673,8.46301,0,0,0,0,0,0,0,-1,1903,1016,235.673,-8.46302
686,8,235.719,8.40375,0,0,0,0,0,0,0,-1,1910,1016,235.719,-8.40374
693,8,235.583,8.65131,0,0,0,0,0,0,0,-1,1917,1016,235.583,-8.65131
700,8,235.475,8.59692,0,0,0,0,0,0,0,-1,1924,1016,235.475,-8.59693
707,8,235.602,8.60736,0,0,0,0,0,0,0,-1,1931,1016,235.602,-8.60734
714,8,235.643,8.68628,0,0,0,0,0,0,0,-1,1938,1016,235.643,-8.68625
721,8,222.525,8.33405,0,0,0,0,0,0,0,-1,1945,1016,222.525,-8.33405
728,8,52.1681,5.36774,0,0,0,0,0,0,0,-1,1952,1016,52.168,-5.36773
735,8,240.345,31.969,0,0,0,0,0,0,0,-1,1959,1016,240.345,-31.969
742,8,83.9912,8.48407,0,0,0,0,0,0,0,-1,1966,1016,83.9913,-8.48409
749,8,240.39,32.9352,0,0,0,0,0,0,0,-1,1973,1016,240.39,-32.9352
756,8,240.331,33.0371,0,0,0,0,0,0,0,-1,1980,1016,240.331,-33.0371
763,8,240.167,33.1453,0,0,0,0,0,0,0,-1,1987,1016,240.168,-33.1453
770,8,239.827,33.5542,0,0,0,0,0,0,0,-1,1994,1016,239.827,-33.5542
777,8,239.57,33.8794,0,0,0,0,0,0,0,-1,2001,1016,239.57,-33.8794
784,8,134.481,19.9537,0,0,0,0,0,0,0,-1,2008,1016,134.481,-19.9537
791,8,88.1389,7.42731,0,0,0,0,0,0,0,-1,2015,1016,88.1389,-7.42729
798,8,88.519,7.40491,0,0,0,0,0,0,0,-1,2022,1016,88.519,-7.40488
805,8,94.8618,12.5284,0,0,0,0,0,0,0,-1,2029,1016,94.8618,-12.5284
812,8,95.3872,12.9834,0,0,0,0,0,0,0,-1,2036,1016,95.3873,-12.9834
-700,1,0,0,0,0,0,0,0,0,0,-1,524,1023,0,0
-693,1,-89.0085,15.0234,0,0,0,0,0,0,0,-1,531,1023,-89.0085,-15.0233
-686,1,-92.1439,0.987854,0,0,0,0,0,0,0,-1,538,1023,-92.1439,-0.987837
-679,1,-91.2599,2.24536,0,0,0,0,0,0,0,-1,545,1023,-91.2599,-2.24535
-672,1,-90.748,2.95911,0,0,0,0,0,0,0,-1,552,1023,-90.748,-2.95909
-665,1,-89.907,3.96826,0,0,0,0,0,0,0,-1,559,1023,-89.907,-3.96827
-658,1,-71.1587,7.20117,0,0,0,0,0,0,0,-1,566,1023,-71.1587,-7.20115
-651,1,-67.7609,7.71844,0,0,0,0,0,0,0,-1,573,1023,-67.7609,-7.71845
-644,1,-211.26,34.5236,0,0,0,0,0,0,0,-1,580,1023,-211.26,-34.5236
-637,1,-233.493,33.1204,0,0,0,0,0,0,0,-1,587,1023,-233.493,-33.1204
-630,1,-233.511,32.8766,-0.0100568,0.0414688,0.00474775,0.0419026,-0.0104906,1.47968,0.0320102,0.0457699,594,1023,-233.511,-32.8766
-623,1,-233.438,32.6387,-0.00432836,0.0323285,0.0035454,0.0326682,-0.00466812,1.47526,0.02349,0.0214026,601,1023,-233.438,-32.6387
-616,1,-233.58,32.2083,0.00125257,0.023305,0.00229237,0.0235408,0.00101679,1.46831,0.0153662,0.0241284,608,1023,-233.58,-32.2083
-609,1,-233.563,31.9573,0.00668365,0.0144063,0.000984114,0.0145297,0.00656021,1.44602,0.00840187,0.0191983,615,1023,-233.563,-31.9573
-602,1,-233.307,31.5846,0.011956,0.00564948,-0.000383456,0.0119792,0.00562625,-0.0605065,0.00692043,0.0183161,622,1023,-233.307,-31.5846
-595,1,-233.096,31.2109,0,0,0,0,0,0,0,-1,629,1023,-233.096,-31.211
-588,1,-232.801,31.0231,0,0,0,0,0,0,0,-1,636,1023,-232.801,-31.0232
-581,1,-72.3068,0.48175,0,0,0,0,0,0,0,-1,643,1023,-72.3068,-0.481753
-574,1,-72.3138,0.632874,0,0,0,0,0,0,0,-1,650,1023,-72.3138,-0.632846
-567,1,-72.231,0.548584,0,0,0,0,0,0,0,-1,657,1023,-72.231,-0.548607
-560,1,-72.2925,0.673706,0,0,0,0,0,0,0,-1,664,1023,-72.2926,-0.673701
-553,1,-72.1824,-0.118774,0,0,0,0,0,0,0,-1,671,1023,-72.1824,0.118785
-546,1,-72.0557,0.329224,0,0,0,0,0,0,0,-1,678,1023,-72.0557,-0.329219
-539,1,-72.0885,0.710022,0,0,0,0,0,0,0,-1,685,1023,-72.0885,-0.710042
-532,1,-72.1794,0.856262,0,0,0,0,0,0,0,-1,692,1023,-72.1794,-0.856276
-525,1,0,0,0,0,0,0,0,0,0,-1,699,1023,0,0
-518,1,0,0,0,0,0,0,0,0,0,-1,706,1023,0,0
-511,1,0,0,0,0,0,0,0,0,0,-1,713,1023,0,0
-504,1,0,0,0,0,0,0,0,0,0,-1,720,1023,0,0
-497,1,0,0,0,0,0,0,0,0,0,-1,727,1023,0,0
-490,1,0,0,0,0,0,0,0,0,0,-1,734,1023,0,0
-483,1,0,0,0,0,0,0,0,0,0,-1,741,1023,0,0
-476,1,0,0,0,0,0,0,0,0,0,-1,748,1023,0,0
-469,1,0,0,0,0,0,0,0,0,0,-1,755,1023,0,0
-462,1,0,0,0,0,0,0,0,0,0,-1,762,1023,0,0
-455,1,0,0,0,0,0,0,0,0,0,-1,769,1023,0,0
-448,1,0,0,0,0,0,0,0,0,0,-1,776,1023,0,0
-441,1,0,0,0,0,0,0,0,0,0,-1,783,1023,0,0
-434,1,0,0,0,0,0,0,0,0,0,-1,790,1023,0,0
-427,1,0,0,0,0,0,0,0,0,0,-1,797,1023,0,0
-420,1,0,0,0,0,0,0,0,0,0,-1,804,1023,0,0
-413,1,0,0,0,0,0,0,0,0,0,-1,811,1023,0,0
-406,1,0,0,0,0,0,0,0,0,0,-1,818,1023,0,0
-399,1,0,0,0,0,0,0,0,0,0,-1,825,1023,0,0
-392,1,0,0,0,0,0,0,0,0,0,-1,832,1023,0,0
-385,1,0,0,0,0,0,0,0,0,0,-1,839,1023,0,0
-378,1,0,0,0,0,0,0,0,0,0,-1,846,1023,0,0
-371,1,0,0,0,0,0,0,0,0,0,-1,853,1023,0,0
-364,1,0,0,0,0,0,0,0,0,0,-1,860,1023,0,0
-357,1,0,0,0,0,0,0,0,0,0,-1,867,1023,0,0
-350,1,0,0,0,0,0,0,0,0,0,-1,874,1023,0,0
-343,1,0,0,0,0,0,0,0,0,0,-1,881,1023,0,0
-336,1,0,0,0,0,0,0,0,0,0,-1,888,1023,0,0
-329,1,0,0,0,0,0,0,0,0,0,-1,895,1023,0,0
-322,1,0,0,0,0,0,0,0,0,0,-1,902,1023,0,0
-315,1,0,0,0,0,0,0,0,0,0,-1,909,1023,0,0
-308,1,0,0,0,0,0,0,0,0,0,-1,916,1023,0,0
-301,1,0,0,0,0,0,0,0,0,0,-1,923,1023,0,0
-294,1,0,0,0,0,0,0,0,0,0,-1,930,1023,0,0
-287,1,0,0,0,0,0,0,0,0,0,-1,937,1023,0,0
-280,1,0,0,0,0,0,0,0,0,0,-1,944,1023,0,0
-273,1,0,0,0,0,0,0,0,0,0,-1,951,1023,0,0
-266,1,0,0,0,0,0,0,0,0,0,-1,958,1023,0,0
-259,1,0,0,0,0,0,0,0,0,0,-1,965,1023,0,0
-252,1,0,0,0,0,0,0,0,0,0,-1,972,1023,0,0
-245,1,0,0,0,0,0,0,0,0,0,-1,979,1023,0,0
-238,1,0,0,0,0,0,0,0,0,0,-1,986,1023,0,0
-231,1,0,0,0,0,0,0,0,0,0,-1,993,1023,0,0
-224,1,0,0,0,0,0,0,0,0,0,-1,1000,1023,0,0
-217,1,0,0,0,0,0,0,0,0,0,-1,1007,1023,0,0
-210,1,0,0,0,0,0,0,0,0,0,-1,1014,1023,0,0
-203,1,0,0,0,0,0,0,0,0,0,-1,1021,1023,0,0
-196,1,0,0,0,0,0,0,0,0,0,-1,1028,1023,0,0
-189,1,0,0,0,0,0,0,0,0,0,-1,1035,1023,0,0
-182,1,0,0,0,0,0,0,0,0,0,-1,1042,1023,0,0
-175,1,0,0,0,0,0,0,0,0,0,-1,1049,1023,0,0
-168,1,0,0,0,0,0,0,0,0,0,-1,1056,1023,0,0
-161,1,0,0,0,0,0,0,0,0,0,-1,1063,1023,0,0
-154,1,0,0,0,0,0,0,0,0,0,-1,1070,1023,0,0
-147,1,0,0,0,0,0,0,0,0,0,-1,1077,1023,0,0
-140,1,0,0,0,0,0,0,0,0,0,-1,1084,1023,0,0
-133,1,0,0,0,0,0,0,0,0,0,-1,1091,1023,0,0
-126,1,0,0,0,0,0,0,0,0,0,-1,1098,1023,0,0
-119,1,0,0,0,0,0,0,0,0,0,-1,1105,1023,0,0
-112,1,0,0,0,0,0,0,0,0,0,-1,1112,1023,0,0
-105,1,0,0,0,0,0,0,0,0,0,-1,1119,1023,0,0
-98,1,0,0,0,0,0,0,0,0,0,-1,1126,1023,0,0
-91,1,0,0,0,0,0,0,0,0,0,-1,1133,1023,0,0
-84,1,0,0,0,0,0,0,0,0,0,-1,1140,1023,0,0
-77,1,0,0,0,0,0,0,0,0,0,-1,1147,1023,0,0
-70,1,0,0,0,0,0,0,0,0,0,-1,1154,1023,0,0
-63,1,0,0,0,0,0,0,0,0,0,-1,1161,1023,0,0
-56,1,0,0,0,0,0,0,0,0,0,-1,1168,1023,0,0
-49,1,0,0,0,0,0,0,0,0,0,-1,1175,1023,0,0
-42,1,0,0,0,0,0,0,0,0,0,-1,1182,1023,0,0
-35,1,0,0,0,0,0,0,0,0,0,-1,1189,1023,0,0
-28,1,0,0,0,0,0,0,0,0,0,-1,1196,1023,0,0
-21,1,0,0,0,0,0,0,0,0,0,-1,1203,1023,0,0
-14,1,0,0,0,0,0,0,0,0,0,-1,1210,1023,0,0
-7,1,0,0,0,0,0,0,0,0,0,-1,1217,1023,0,0
0,1,0,0,0,0,0,0,0,0,0,-1,1224,1023,0,0
7,1,0,0,0,0,0,0,0,0,0,-1,1231,1023,0,0
14,1,0,0,0,0,0,0,0,0,0,-1,1238,1023,0,0
21,1,0,0,0,0,0,0,0,0,0,-1,1245,1023,0,0
28,1,0,0,0,0,0,0,0,0,0,-1,1252,1023,0,0
35,1,0,0,0,0,0,0,0,0,0,-1,1259,1023,0,0
42,1,0,0,0,0,0,0,0,0,0,-1,1266,1023,0,0
49,1,0,0,0,0,0,0,0,0,0,-1,1273,1023,0,0
56,1,0,0,0,0,0,0,0,0,0,-1,1280,1023,0,0
63,1,0,0,0,0,0,0,0,0,0,-1,1287,1023,0,0
70,1,0,0,0,0,0,0,0,0,0,-1,1294,1023,0,0
77,1,0,0,0,0,0,0,0,0,0,-1,1301,1023,0,0
84,1,0,0,0,0,0,0,0,0,0,-1,1308,1023,0,0
91,1,0,0,0,0,0,0,0,0,0,-1,1315,1023,0,0
98,1,0,0,0,0,0,0,0,0,0,-1,1322,1023,0,0
105,1,0,0,0,0,0,0,0,0,0,-1,1329,1023,0,0
112,1,0,0,0,0,0,0,0,0,0,-1,1336,1023,0,0
119,1,0,0,0,0,0,0,0,0,0,-1,1343,1023,0,0
126,1,0,0,0,0,0,0,0,0,0,-1,1350,1023,0,0
133,1,0,0,0,0,0,0,0,0,0,-1,1357,1023,0,0
140,1,0,0,0,0,0,0,0,0,0,-1,1364,1023,0,0
147,1,0,0,0,0,0,0,0,0,0,-1,1371,1023,0,0
154,1,0,0,0,0,0,0,0,0,0,-1,1378,1023,0,0
161,1,0,0,0,0,0,0,0,0,0,-1,1385,1023,0,0
168,1,0,0,0,0,0,0,0,0,0,-1,1392,1023,0,0
175,1,0,0,0,0,0,0,0,0,0,-1,1399,1023,0,0
182,1,0,0,0,0,0,0,0,0,0,-1,1406,1023,0,0
189,1,0,0,0,0,0,0,0,0,0,-1,1413,1023,0,0
196,1,0,0,0,0,0,0,0,0,0,-1,1420,1023,0,0
203,1,0,0,0,0,0,0,0,0,0,-1,1427,1023,0,0
210,1,0,0,0,0,0,0,0,0,0,-1,1434,1023,0,0
217,1,0,0,0,0,0,0,0,0,0,-1,1441,1023,0,0
224,1,0,0,0,0,0,0,0,0,0,-1,1448,1023,0,0
231,1,0,0,0,0,0,0,0,0,0,-1,1455,1023,0,0
238,1,0,0,0,0,0,0,0,0,0,-1,1462,1023,0,0
245,1,0,0,0,0,0,0,0,0,0,-1,1469,1023,0,0
252,1,0,0,0,0,0,0,0,0,0,-1,1476,1023,0,0
259,1,0,0,0,0,0,0,0,0,0,-1,1483,1023,0,0
266,1,0,0,0,0,0,0,0,0,0,-1,1490,1023,0,0
273,1,0,0,0,0,0,0,0,0,0,-1,1497,1023,0,0
280,1,0,0,0,0,0,0,0,0,0,-1,1504,1023,0,0
287,1,0,0,0,0,0,0,0,0,0,-1,1511,1023,0,0
294,1,0,0,0,0,0,0,0,0,0,-1,1518,1023,0,0
301,1,0,0,0,0,0,0,0,0,0,-1,1525,1023,0,0
308,1,0,0,0,0,0,0,0,0,0,-1,1532,1023,0,0
315,1,0,0,0,0,0,0,0,0,0,-1,1539,1023,0,0
322,1,0,0,0,0,0,0,0,0,0,-1,1546,1023,0,0
329,1,0,0,0,0,0,0,0,0,0,-1,1553,1023,0,0
336,1,0,0,0,0,0,0,0,0,0,-1,1560,1023,0,0
343,1,0,0,0,0,0,0,0,0,0,-1,1567,1023,0,0
350,1,0,0,0,0,0,0,0,0,0,-1,1574,1023,0,0
357,1,0,0,0,0,0,0,0,0,0,-1,1581,1023,0,0
364,1,0,0,0,0,0,0,0,0,0,-1,1588,1023,0,0
371,1,0,0,0,0,0,0,0,0,0,-1,1595,1023,0,0
378,1,0,0,0,0,0,0,0,0,0,-1,1602,1023,0,0
385,1,0,0,0,0,0,0,0,0,0,-1,1609,1023,0,0
392,1,0,0,0,0,0,0,0,0,0,-1,1616,1023,0,0
399,1,0,0,0,0,0,0,0,0,0,-1,1623,1023,0,0
406,1,0,0,0,0,0,0,0,0,0,-1,1630,1023,0,0
413,1,0,0,0,0,0,0,0,0,0,-1,1637,1023,0,0
420,1,0,0,0,0,0,0,0,0,0,-1,1644,1023,0,0
427,1,0,0,0,0,0,0,0,0,0,-1,1651,1023,0,0
434,1,0,0,0,0,0,0,0,0,0,-1,1658,1023,0,0
441,1,0,0,0,0,0,0,0,0,0,-1,1665,1023,0,0
448,1,0,0,0,0,0,0,0,0,0,-1,1672,1023,0,0
455,1,0,0,0,0,0,0,0,0,0,-1,1679,1023,0,0
462,1,0,0,0,0,0,0,0,0,0,-1,1686,1023,0,0
469,1,0,0,0,0,0,0,0,0,0,-1,1693,1023,0,0
476,1,0,0,0,0,0,0,0,0,0,-1,1700,1023,0,0
483,1,0,0,0,0,0,0,0,0,0,-1,1707,1023,0,0
490,1,0,0,0,0,0,0,0,0,0,-1,1714,1023,0,0
497,1,0,0,0,0,0,0,0,0,0,-1,1721,1023,0,0
504,1,0,0,0,0,0,0,0,0,0,-1,1728,1023,0,0
511,1,0,0,0,0,0,0,0,0,0,-1,1735,1023,0,0
518,1,0,0,0,0,0,0,0,0,0,-1,1742,1023,0,0
525,1,0,0,0,0,0,0,0,0,0,-1,1749,1023,0,0
532,1,0,0,0,0,0,0,0,0,0,-1,1756,1023,0,0
539,1,0,0,0,0,0,0,0,0,0,-1,1763,1023,0,0
546,1,0,0,0,0,0,0,0,0,0,-1,1770,1023,0,0
553,1,0,0,0,0,0,0,0,0,0,-1,1777,1023,0,0
560,1,0,0,0,0,0,0,0,0,0,-1,1784,1023,0,0
567,1,0,0,0,0,0,0,0,0,0,-1,1791,1023,0,0
574,1,0,0,0,0,0,0,0,0,0,-1,1798,1023,0,0
581,1,0,0,0,0,0,0,0,0,0,-1,1805,1023,0,0
588,1,0,0,0,0,0,0,0,0,0,-1,1812,1023,0,0
595,1,0,0,0,0,0,0,0,0,0,-1,1819,1023,0,0
602,1,0,0,0,0,0,0,0,0,0,-1,1826,1023,0,0
609,1,0,0,0,0,0,0,0,0,0,-1,1833,1023,0,0
616,1,0,0,0,0,0,0,0,0,0,-1,1840,1023,0,0
623,1,0,0,0,0,0,0,0,0,0,-1,1847,1023,0,0
630,1,0,0,0,0,0,0,0,0,0,-1,1854,1023,0,0
637,1,0,0,0,0,0,0,0,0,0,-1,1861,1023,0,0
644,1,0,0,0,0,0,0,0,0,0,-1,1868,1023,0,0
651,1,235.572,8.67206,0,0,0,0,0,0,0,-1,1875,1023,235.571,-8.67207
658,1,235.589,8.62854,0,0,0,0,0,0,0,-1,1882,1023,235.589,-8.62855
665,1,235.554,8.65936,0,0,0,0,0,0,0,-1,1889,1023,235.554,-8.65936
672,1,235.624,8.48224,0,0,0,0,0,0,0,-1,1896,1023,235.624,-8.48224
679,1,235.642,8.31116,0,0,0,0,0,0,0,-1,1903,1023,235.642,-8.31118
686,1,235.668,8.19922,0,0,0,0,0,0,0,-1,1910,1023,235.668,-8.1992
693,1,235.416,8.64423,0,0,0,0,0,0,0,-1,1917,1023,235.416,-8.64425
700,1,235.404,8.64899,0,0,0,0,0,0,0,-1,1924,1023,235.404,-8.64899
707,1,235.542,8.56726,0,0,0,0,0,0,0,-1,1931,1023,235.542,-8.56727
714,1,235.539,8.53906,0,0,0,0,0,0,0,-1,1938,1023,235.539,-8.53906
721,1,235.419,8.60168,0,0,0,0,0,0,0,-1,1945,1023,235.42,-8.60169
728,1,52.4639,5.59277,0,0,0,0,0,0,0,-1,1952,1023,52.4639,-5.59276
735,1,53.3617,6.10699,0,0,0,0,0,0,0,-1,1959,1023,53.3617,-6.10698
742,1,52.4393,5.81525,0,0,0,0,0,0,0,-1,1966,1023,52.4393,-5.81527
749,1,82.8113,7.83478,0,0,0,0,0,0,0,-1,1973,1023,82.8112,-7.8348
756,1,210.199,33.1948,0,0,0,0,0,0,0,-1,1980,1023,210.199,-33.1948
763,1,240.508,33.0156,0,0,0,0,0,0,0,-1,1987,1023,240.508,-33.0156
770,1,240.245,33.2869,-0.0220794,0.0450135,-0.000521804,0.0450176,-0.0220834,-1.56302,0.0394879,0.0300413,1994,1023,240.245,-33.2869
777,1,240.024,33.5372,-0.0240785,0.0533457,-0.000382789,0.0533476,-0.0240804,-1.56585,0.0457552,0.0472175,2001,1023,240.024,-33.5373
784,1,239.851,33.6965,0,0,0,0,0,0,0,-1,2008,1023,239.851,-33.6965
791,1,100.412,8.00543,0,0,0,0,0,0,0,-1,2015,1023,100.411,-8.00544
798,1,101.517,12.6337,0,0,0,0,0,0,0,-1,2022,1023,101.517,-12.6337
805,1,104.376,19.1456,0,0,0,0,0,0,0,-1,2029,1023,104.376,-19.1455
812,1,104.873,17.9626,0,0,0,0,0,0,0,-1,2036,1023,104.873,-17.9627
-700,-6,0,0,0,0,0,0,0,0,0,-1,524,1030,0,0
-693,-6,-88.6603,13.7856,0,0,0,0,0,0,0,-1,531,1030,-88.6604,-13.7856
-686,-6,-90.5388,13.9272,0,0,0,0,0,0,0,-1,538,1030,-90.5388,-13.9272
-679,-6,-91.8646,14.2508,0,0,0,0,0,0,0,-1,545,1030,-91.8646,-14.2508
-672,-6,-89.5654,2.59106,0,0,0,0,0,0,0,-1,552,1030,-89.5654,-2.59105
-665,-6,-87.2815,3.90417,0,0,0,0,0,0,0,-1,559,1030,-87.2815,-3.90414
-658,-6,-85.4016,4.85437,0,0,0,0,0,0,0,-1,566,1030,-85.4016,-4.85436
-651,-6,-87.49,11.0592,0,0,0,0,0,0,0,-1,573,1030,-87.4899,-11.0592
-644,-6,-194.497,33.6895,0,0,0,0,0,0,0,-1,580,1030,-194.497,-33.6895
-637,-6,-233.595,32.7775,0,0,0,0,0,0,0,-1,587,1030,-233.595,-32.7775
-630,-6,-233.859,32.6584,-0.0102567,0.0410553,0.00420633,0.0413978,-0.0105993,1.48954,0.0317274,0.0383523,594,1030,-233.859,-32.6584
-623,-6,-233.795,32.4404,-0.00460143,0.0316972,0.00328108,0.0319914,-0.00489562,1.48137,0.0231328,0.0235196,601,1030,-233.795,-32.4404
-616,-6,-233.863,32.0909,0.000939814,0.0224173,0.00232427,0.022666,0.000691164,1.46422,0.0148856,0.0246338,608,1030,-233.863,-32.0909
-609,-6,-233.856,31.8715,0.00637362,0.0131975,0.00133317,0.0134487,0.00612241,1.38455,0.00777496,0.0192874,615,1030,-233.856,-31.8715
-602,-6,-233.772,31.5513,0.0117019,0.00402159,0.000307486,0.0117142,0.0040093,0.0399504,0.00687446,0.0180198,622,1030,-233.772,-31.5513
-595,-6,-233.685,31.2131,0,0,0,0,0,0,0,-1,629,1030,-233.685,-31.2131
-588,-6,-228.492,30.7119,0,0,0,0,0,0,0,-1,636,1030,-228.492,-30.7119
-581,-6,-72.2767,0.400757,0,0,0,0,0,0,0,-1,643,1030,-72.2767,-0.400731
-574,-6,-72.3219,0.456665,0,0,0,0,0,0,0,-1,650,1030,-72.3219,-0.456675
-567,-6,-72.2971,0.412842,0,0,0,0,0,0,0,-1,657,1030,-72.2971,-0.412811
-560,-6,-72.3146,0.529053,0,0,0,0,0,0,0,-1,664,1030,-72.3146,-0.529107
-553,-6,-72.132,0.543579,0,0,0,0,0,0,0,-1,671,1030,-72.132,-0.543622
-546,-6,-72.027,0.153687,0,0,0,0,0,0,0,-1,678,1030,-72.0271,-0.153691
-539,-6,-72.1198,0.670776,0,0,0,0,0,0,0,-1,685,1030,-72.1198,-0.670789
-532,-6,-72.3258,1.02258,0,0,0,0,0,0,0,-1,692,1030,-72.3258,-1.02254
-525,-6,0,0,0,0,0,0,0,0,0,-1,699,1030,0,0
-518,-6,0,0,0,0,0,0,0,0,0,-1,706,1030,0,0
-511,-6,0,0,0,0,0,0,0,0,0,-1,713,1030,0,0
-504,-6,0,0,0,0,0,0,0,0,0,-1,720,1030,0,0
-497,-6,0,0,0,0,0,0,0,0,0,-1,727,1030,0,0
-490,-6,0,0,0,0,0,0,0,0,0,-1,734,1030,0,0
-483,-6,0,0,0,0,0,0,0,0,0,-1,741,1030,0,0
-476,-6,0,0,0,0,0,0,0,0,0,-1,748,1030,0,0
-469,-6,0,0,0,0,0,0,0,0,0,-1,755,1030,0,0
-462,-6,0,0,0,0,0,0,0,0,0,-1,762,1030,0,0
-455,-6,0,0,0,0,0,0,0,0,0,-1,769,1030,0,0
-448,-6,0,0,0,0,0,0,0,0,0,-1,776,1030,0,0
-441,-6,0,0,0,0,0,0,0,0,0,-1,783,1030,0,0
-434,-6,0,0,0,0,0,0,0,0,0,-1,790,1030,0,0
-427,-6,0,0,0,0,0,0,0,0,0,-1,797,1030,0,0
-420,-6,0,0,0,0,0,0,0,0,0,-1,804,1030,0,0
-413,-6,0,0,0,0,0,0,0,0,0,-1,811,1030,0,0
-406,-6,0,0,0,0,0,0,0,0,0,-1,818,1030,0,0
-399,-6,0,0,0,0,0,0,0,0,0,-1,825,1030,0,0
-392,-6,0,0,0,0,0,0,0,0,0,-1,832,1030,0,0
-385,-6,0,0,0,0,0,0,0,0,0,-1,839,1030,0,0
-378,-6,0,0,0,0,0,0,0,0,0,-1,846,1030,0,0
-371,-6,0,0,0,0,0,0,0,0,0,-1,853,1030,0,0
-364,-6,0,0,0,0,0,0,0,0,0,-1,860,1030,0,0
-357,-6,0,0,0,0,0,0,0,0,0,-1,867,1030,0,0
-350,-6,0,0,0,0,0,0,0,0,0,-1,874,1030,0,0
-343,-6,0,0,0,0,0,0,0,0,0,-1,881,1030,0,0
-336,-6,0,0,0,0,0,0,0,0,0,-1,888,1030,0,0
-329,-6,0,0,0,0,0,0,0,0,0,-1,895,1030,0,0
-322,-6,0,0,0,0,0,0,0,0,0,-1,902,1030,0,0
-315,-6,0,0,0,0,0,0,0,0,0,-1,909,1030,0,0
-308,-6,0,0,0,0,0,0,0,0,0,-1,916,1030,0,0
-301,-6,0,0,0,0,0,0,0,0,0,-1,923,1030,0,0
-294,-6,0,0,0,0,0,0,0,0,0,-1,930,1030,0,0
-287,-6,0,0,0,0,0,0,0,0,0,-1,937,1030,0,0
-280,-6,0,0,0,0,0,0,0,0,0,-1,944,1030,0,0
-273,-6,0,0,0,0,0,0,0,0,0,-1,951,1030,0,0
-266,-6,0,0,0,0,0,0,0,0,0,-1,958,1030,0,0
-259,-6,0,0,0,0,0,0,0,0,0,-1,965,1030,0,0
-252,-6,0,0,0,0,0,0,0,0,0,-1,972,1030,0,0
-245,-6,0,0,0,0,0,0,0,0,0,-1,979,1030,0,0
-238,-6,0,0,0,0,0,0,0,0,0,-1,986,1030,0,0
-231,-6,0,0,0,0,0,0,0,0,0,-1,993,1030,0,0
-224,-6,0,0,0,0,0,0,0,0,0,-1,1000,1030,0,0
-217,-6,0,0,0,0,0,0,0,0,0,-1,1007,1030,0,0
-210,-6,0,0,0,0,0,0,0,0,0,-1,1014,1030,0,0
-203,-6,0,0,0,0,0,0,0,0,0,-1,1021,1030,0,0
-196,-6,0,0,0,0,0,0,0,0,0,-1,1028,1030,0,0
-189,-6,0,0,0,0,0,0,0,0,0,-1,1035,1030,0,0
-182,-6,0,0,0,0,0,0,0,0,0,-1,1042,1030,0,0
-175,-6,0,0,0,0,0,0,0,0,0,-1,1049,1030,0,0
-168,-6,0,0,0,0,0,0,0,0,0,-1,1056,1030,0,0
-161,-6,0,0,0,0,0,0,0,0,0,-1,1063,1030,0,0
-154,-6,0,0,0,0,0,0,0,0,0,-1,1070,1030,0,0
-147,-6,0,0,0,0,0,0,0,0,0,-1,1077,1030,0,0
-140,-6,0,0,0,0,0,0,0,0,0,-1,1084,1030,0,0
-133,-6,0,0,0,0,0,0,0,0,0,-1,1091,1030,0,0
-126,-6,0,0,0,0,0,0,0,0,0,-1,1098,1030,0,0
-119,-6,0,0,0,0,0,0,0,0,0,-1,1105,1030,0,0
-112,-6,0,0,0,0,0,0,0,0,0,-1,1112,1030,0,0
-105,-6,0,0,0,0,0,0,0,0,0,-1,1119,1030,0,0
-98,-6,0,0,0,0,0,0,0,0,0,-1,1126,1030,0,0
-91,-6,0,0,0,0,0,0,0,0,0,-1,1133,1030,0,0
-84,-6,0,0,0,0,0,0,0,0,0,-1,1140,1030,0,0
-77,-6,0,0,0,0,0,0,0,0,0,-1,1147,1030,0,0
-70,-6,0,0,0,0,0,0,0,0,0,-1,1154,1030,0,0
-63,-6,0,0,0,0,0,0,0,0,0,-1,1161,1030,0,0
-56,-6,0,0,0,0,0,0,0,0,0,-1,1168,1030,0,0
-49,-6,0,0,0,0,0,0,0,0,0,-1,1175,1030,0,0
-42,-6,0,0,0,0,0,0,0,0,0,-1,1182,1030,0,0
-35,-6,0,0,0,0,0,0,0,0,0,-1,1189,1030,0,0
-28,-6,0,0,0,0,0,0,0,0,0,-1,1196,1030,0,0
-21,-6,0,0,0,0,0,0,0,0,0,-1,1203,1030,0,0
-14,-6,0,0,0,0,0,0,0,0,0,-1,1210,1030,0,0
-7,-6,0,0,0,0,0,0,0,0,0,-1,1217,1030,0,0
0,-6,0,0,0,0,0,0,0,0,0,-1,1224,1030,0,0
7,-6,0,0,0,0,0,0,0,0,0,-1,1231,1030,0,0
14,-6,0,0,0,0,0,0,0,0,0,-1,1238,1030,0,0
21,-6,0,0,0,0,0,0,0,0,0,-1,1245,1030,0,0
28,-6,0,0,0,0,0,0,0,0,0,-1,1252,1030,0,0
35,-6,0,0,0,0,0,0,0,0,0,-1,1259,1030,0,0
42,-6,0,0,0,0,0,0,0,0,0,-1,1266,1030,0,0
49,-6,0,0,0,0,0,0,0,0,0,-1,1273,1030,0,0
56,-6,0,0,0,0,0,0,0,0,0,-1,1280,1030,0,0
63,-6,0,0,0,0,0,0,0,0,0,-1,1287,1030,0,0
70,-6,0,0,0,0,0,0,0,0,0,-1,1294,1030,0,0
77,-6,0,0,0,0,0,0,0,0,0,-1,1301,1030,0,0
84,-6,0,0,0,0,0,0,0,0,0,-1,1308,1030,0,0
91,-6,0,0,0,0,0,0,0,0,0,-1,1315,1030,0,0
98,-6,0,0,0,0,0,0,0,0,0,-1,1322,1030,0,0
105,-6,0,0,0,0,0,0,0,0,0,-1,1329,1030,0,0
112,-6,0,0,0,0,0,0,0,0,0,-1,1336,1030,0,0
119,-6,0,0,0,0,0,0,0,0,0,-1,1343,1030,0,0
126,-6,0,0,0,0,0,0,0,0,0,-1,1350,1030,0,0
133,-6,0,0,0,0,0,0,0,0,0,-1,1357,1030,0,0
140,-6,0,0,0,0,0,0,0,0,0,-1,1364,1030,0,0
147,-6,0,0,0,0,0,0,0,0,0,-1,1371,1030,0,0
154,-6,0,0,0,0,0,0,0,0,0,-1,1378,1030,0,0
161,-6,0,0,0,0,0,0,0,0,0,-1,1385,1030,0,0
168,-6,0,0,0,0,0,0,0,0,0,-1,1392,1030,0,0
175,-6,0,0,0,0,0,0,0,0,0,-1,1399,1030,0,0
182,-6,0,0,0,0,0,0,0,0,0,-1,1406,1030,0,0
189,-6,0,0,0,0,0,0,0,0,0,-1,1413,1030,0,0
196,-6,0,0,0,0,0,0,0,0,0,-1,1420,1030,0,0
203,-6,0,0,0,0,0,0,0,0,0,-1,1427,1030,0,0
210,-6,0,0,0,0,0,0,0,0,0,-1,1434,1030,0,0
217,-6,0,0,0,0,0,0,0,0,0,-1,1441,1030,0,0
224,-6,0,0,0,0,0,0,0,0,0,-1,1448,1030,0,0
231,-6,0,0,0,0,0,0,0,0,0,-1,1455,1030,0,0
238,-6,0,0,0,0,0,0,0,0,0,-1,1462,1030,0,0
245,-6,0,0,0,0,0,0,0,0,0,-1,1469,1030,0,0
252,-6,0,0,0,0,0,0,0,0,0,-1,1476,1030,0,0
259,-6,0,0,0,0,0,0,0,0,0,-1,1483,1030,0,0
266,-6,0,0,0,0,0,0,0,0,0,-1,1490,1030,0,0
273,-6,0,0,0,0,0,0,0,0,0,-1,1497,1030,0,0
280,-6,0,0,0,0,0,0,0,0,0,-1,1504,1030,0,0
287,-6,0,0,0,0,0,0,0,0,0,-1,1511,1030,0,0
294,-6,0,0,0,0,0,0,0,0,0,-1,1518,1030,0,0
301,-6,0,0,0,0,0,0,0,0,0,-1,1525,1030,0,0
308,-6,0,0,0,0,0,0,0,0,0,-1,1532,1030,0,0
315,-6,0,0,0,0,0,0,0,0,0,-1,1539,1030,0,0
322,-6,0,0,0,0,0,0,0,0,0,-1,1546,1030,0,0
329,-6,0,0,0,0,0,0,0,0,0,-1,1553,1030,0,0
336,-6,0,0,0,0,0,0,0,0,0,-1,1560,1030,0,0
343,-6,0,0,0,0,0,0,0,0,0,-1,1567,1030,0,0
350,-6,0,0,0,0,0,0,0,0,0,-1,1574,1030,0,0
357,-6,0,0,0,0,0,0,0,0,0,-1,1581,1030,0,0
364,-6,0,0,0,0,0,0,0,0,0,-1,1588,1030,0,0
371,-6,0,0,0,0,0,0,0,0,0,-1,1595,1030,0,0
378,-6,0,0,0,0,0,0,0,0,0,-1,1602,1030,0,0
385,-6,0,0,0,0,0,0,0,0,0,-1,1609,1030,0,0
392,-6,0,0,0,0,0,0,0,0,0,-1,1616,1030,0,0
399,-6,0,0,0,0,0,0,0,0,0,-1,1623,1030,0,0
406,-6,0,0,0,0,0,0,0,0,0,-1,1630,1030,0,0
413,-6,0,0,0,0,0,0,0,0,0,-1,1637,1030,0,0
420,-6,0,0,0,0,0,0,0,0,0,-1,1644,1030,0,0
427,-6,0,0,0,0,0,0,0,0,0,-1,1651,1030,0,0
434,-6,0,0,0,0,0,0,0,0,0,-1,1658,1030,0,0
441,-6,0,0,0,0,0,0,0,0,0,-1,1665,1030,0,0
448,-6,0,0,0,0,0,0,0,0,0,-1,1672,1030,0,0
455,-6,0,0,0,0,0,0,0,0,0,-1,1679,1030,0,0
462,-6,0,0,0,0,0,0,0,0,0,-1,1686,1030,0,0
469,-6,0,0,0,0,0,0,0,0,0,-1,1693,1030,0,0
476,-6,0,0,0,0,0,0,0,0,0,-1,1700,1030,0,0
483,-6,0,0,0,0,0,0,0,0,0,-1,1707,1030,0,0
490,-6,0,0,0,0,0,0,0,0,0,-1,1714,1030,0,0
497,-6,0,0,0,0,0,0,0,0,0,-1,1721,1030,0,0
504,-6,0,0,0,0,0,0,0,0,0,-1,1728,1030,0,0
511,-6,0,0,0,0,0,0,0,0,0,-1,1735,1030,0,0
518,-6,0,0,0,0,0,0,0,0,0,-1,1742,1030,0,0
525,-6,0,0,0,0,0,0,0,0,0,-1,1749,1030,0,0
532,-6,0,0,0,0,0,0,0,0,0,-1,1756,1030,0,0
539,-6,0,0,0,0,0,0,0,0,0,-1,1763,1030,0,0
546,-6,0,0,0,0,0,0,0,0,0,-1,1770,1030,0,0
553,-6,0,0,0,0,0,0,0,0,0,-1,1777,1030,0,0
560,-6,0,0,0,0,0,0,0,0,0,-1,1784,1030,0,0
567,-6,0,0,0,0,0,0,0,0,0,-1,1791,1030,0,0
574,-6,0,0,0,0,0,0,0,0,0,-1,1798,1030,0,0
581,-6,0,0,0,0,0,0,0,0,0,-1,1805,1030,0,0
588,-6,0,0,0,0,0,0,0,0,0,-1,1812,1030,0,0
595,-6,0,0,0,0,0,0,0,0,0,-1,1819,1030,0,0
602,-6,0,0,0,0,0,0,0,0,0,-1,1826,1030,0,0
609,-6,0,0,0,0,0,0,0,0,0,-1,1833,1030,0,0
616,-6,0,0,0,0,0,0,0,0,0,-1,1840,1030,0,0
623,-6,0,0,0,0,0,0,0,0,0,-1,1847,1030,0,0
630,-6,0,0,0,0,0,0,0,0,0,-1,1854,1030,0,0
637,-6,0,0,0,0,0,0,0,0,0,-1,1861,1030,0,0
644,-6,0,0,0,0,0,0,0,0,0,-1,1868,1030,0,0
651,-6,235.626,8.67737,0,0,0,0,0,0,0,-1,1875,1030,235.626,-8.67739
658,-6,235.679,8.62988,0,0,0,0,0,0,0,-1,1882,1030,235.68,-8.6299
665,-6,235.867,8.7868,0,0,0,0,0,0,0,-1,1889,1030,235.867,-8.78681
672,-6,235.714,8.48907,0,0,0,0,0,0,0,-1,1896,1030,235.714,-8.4891
679,-6,235.534,8.52655,0,0,0,0,0,0,0,-1,1903,1030,235.534,-8.52656
686,-6,235.464,8.63458,0,0,0,0,0,0,0,-1,1910,1030,235.464,-8.63459
693,-6,235.374,8.52191,0,0,0,0,0,0,0,-1,1917,1030,235.374,-8.52189
700,-6,235.36,8.58411,0,0,0,0,0,0,0,-1,1924,1030,235.36,-8.58408
707,-6,235.521,8.38934,0,0,0,0,0,0,0,-1,1931,1030,235.521,-8.38937
714,-6,235.769,7.89563,0,0,0,0,0,0,0,-1,1938,1030,235.769,-7.89564
721,-6,184.064,6.99164,0,0,0,0,0,0,0,-1,1945,1030,184.064,-6.99162
728,-6,53.1713,6.25494,0,0,0,0,0,0,0,-1,1952,1030,53.1713,-6.25495
735,-6,78.4772,7.47345,0,0,0,0,0,0,0,-1,1959,1030,78.4772,-7.47343
742,-6,93.9734,9.68024,0,0,0,0,0,0,0,-1,1966,1030,93.9735,-9.68022
749,-6,210.681,32.5361,0,0,0,0,0,0,0,-1,1973,1030,210.681,-32.5361
756,-6,240.771,32.6801,0,0,0,0,0,0,0,-1,1980,1030,240.771,-32.6801
763,-6,240.698,32.6396,-0.020004,0.0358823,0.00041961,0.0358854,-0.0200072,1.56329,0.0327008,0.0464903,1987,1030,240.698,-32.6396
770,-6,240.502,32.9862,-0.0222235,0.0441875,0.000943274,0.0442009,-0.0222369,1.5566,0.0390504,0.0235787,1994,1030,240.502,-32.9862
777,-6,240.37,33.1531,-0.024173,0.0524978,0.00157841,0.0525303,-0.0242055,1.55022,0.0452983,0.0334055,2001,1030,240.37,-33.1531
784,-6,240.215,33.2709,0,0,0,0,0,0,0,-1,2008,1030,240.215,-33.2709
791,-6,122.263,16.3963,0,0,0,0,0,0,0,-1,2015,1030,122.263,-16.3963
798,-6,109.146,16.0051,0,0,0,0,0,0,0,-1,2022,1030,109.146,-16.0051
805,-6,108.771,15.1763,0,0,0,0,0,0,0,-1,2029,1030,108.771,-15.1763
812,-6,108.805,14.3323,0,0,0,0,0,0,0,-1,2036,1030,108.805,-14.3324
-700,-13,0,0,0,0,0,0,0,0,0,-1,524,1037,0,0
-693,-13,-88.6181,12.3467,0,0,0,0,0,0,0,-1,531,1037,-88.6181,-12.3467
-686,-13,-90.2635,12.9246,0,0,0,0,0,0,0,-1,538,1037,-90.2636,-12.9246
-679,-13,-91.6175,13.3315,0,0,0,0,0,0,0,-1,545,1037,-91.6175,-13.3315
-672,-13,-92.9723,13.725,0,0,0,0,0,0,0,-1,552,1037,-92.9723,-13.725
-665,-13,-102.499,14.6928,0,0,0,0,0,0,0,-1,559,1037,-102.499,-14.6928
-658,-13,-86.5689,5.10486,0,0,0,0,0,0,0,-1,566,1037,-86.569,-5.10484
-651,-13,-194.564,33.5059,0,0,0,0,0,0,0,-1,573,1037,-194.564,-33.5059
-644,-13,-233.413,32.6619,0,0,0,0,0,0,0,-1,580,1037,-233.413,-32.6619
-637,-13,-233.695,32.4032,-0.0159344,0.0497665,0.0044091,0.050061,-0.016229,1.50409,0.0398995,0.0390682,587,1037,-233.695,-32.4032
-630,-13,-233.969,32.1778,-0.0103775,0.040386,0.00370885,0.0406556,-0.0106471,1.49825,0.031263,0.0223806,594,1037,-233.969,-32.1778
-623,-13,-234.016,32.1231,-0.00491238,0.0311546,0.00298932,0.0314007,-0.00515846,1.48866,0.0228482,0.0215734,601,1037,-234.016,-32.1231
-616,-13,-234.078,31.9338,0.000475257,0.022052,0.00224763,0.0222836,0.000243611,1.4681,0.0147752,0.0183967,608,1037,-234.078,-31.9338
-609,-13,-234.081,31.7074,0.00579806,0.0130618,0.00148393,0.0133533,0.0055066,1.37685,0.00774887,0.0211795,615,1037,-234.081,-31.7074
-602,-13,-234.005,31.5424,0.011067,0.00417151,0.000701115,0.0111376,0.00410094,0.100309,0.00650433,0.0174332,622,1037,-234.005,-31.5424
-595,-13,-234.052,31.3627,0,0,0,0,0,0,0,-1,629,1037,-234.052,-31.3628
-588,-13,-72.2089,0.594238,0,0,0,0,0,0,0,-1,636,1037,-72.2089,-0.594287
-581,-13,-72.2836,0.314087,0,0,0,0,0,0,0,-1,643,1037,-72.2836,-0.314046
-574,-13,-72.244,0.27478,0,0,0,0,0,0,0,-1,650,1037,-72.244,-0.274767
-567,-13,-72.2231,0.455933,0,0,0,0,0,0,0,-1,657,1037,-72.2231,-0.455912
-560,-13,-72.3318,0.672241,0,0,0,0,0,0,0,-1,664,1037,-72.3318,-0.672274
-553,-13,-72.1812,0.473267,0,0,0,0,0,0,0,-1,671,1037,-72.1812,-0.473223
-546,-13,-72.0977,0.129761,0,0,0,0,0,0,0,-1,678,1037,-72.0977,-0.129714
-539,-13,-72.2216,0.659302,0,0,0,0,0,0,0,-1,685,1037,-72.2216,-0.659334
-532,-13,-72.4635,0.773682,0,0,0,0,0,0,0,-1,692,1037,-72.4635,-0.77364
-525,-13,0,0,0,0,0,0,0,0,0,-1,699,1037,0,0
-518,-13,0,0,0,0,0,0,0,0,0,-1,706,1037,0,0
-511,-13,0,0,0,0,0,0,0,0,0,-1,713,1037,0,0
-504,-13,0,0,0,0,0,0,0,0,0,-1,720,1037,0,0
-497,-13,0,0,0,0,0,0,0,0,0,-1,727,1037,0,0
-490,-13,0,0,0,0,0,0,0,0,0,-1,734,1037,0,0
-483,-13,0,0,0,0,0,0,0,0,0,-1,741,1037,0,0
-476,-13,0,0,0,0,0,0,0,0,0,-1,748,1037,0,0
-469,-13,0,0,0,0,0,0,0,0,0,-1,755,1037,0,0
-462,-13,0,0,0,0,0,0,0,0,0,-1,762,1037,0,0
-455,-13,0,0,0,0,0,0,0,0,0,-1,769,1037,0,0
-448,-13,0,0,0,0,0,0,0,0,0,-1,776,1037,0,0
-441,-13,0,0,0,0,0,0,0,0,0,-1,783,1037,0,0
-434,-13,0,0,0,0,0,0,0,0,0,-1,790,1037,0,0
-427,-13,0,0,0,0,0,0,0,0,0,-1,797,1037,0,0
-420,-13,0,0,0,0,0,0,0,0,0,-1,804,1037,0,0
-413,-13,0,0,0,0,0,0,0,0,0,-1,811,1037,0,0
-406,-13,0,0,0,0,0,0,0,0,0,-1,818,1037,0,0
-399,-13,0,0,0,0,0,0,0,0,0,-1,825,1037,0,0
-392,-13,0,0,0,0,0,0,0,0,0,-1,832,1037,0,0
-385,-13,0,0,0,0,0,0,0,0,0,-1,839,1037,0,0
-378,-13,0,0,0,0,0,0,0,0,0,-1,846,1037,0,0
-371,-13,0,0,0,0,0,0,0,0,0,-1,853,1037,0,0
-364,-13,0,0,0,0,0,0,0,0,0,-1,860,1037,0,0
-357,-13,0,0,0,0,0,0,0,0,0,-1,867,1037,0,0
-350,-13,0,0,0,0,0,0,0,0,0,-1,874,1037,0,0
-343,-13,0,0,0,0,0,0,0,0,0,-1,881,1037,0,0
-336,-13,0,0,0,0,0,0,0,0,0,-1,888,1037,0,0
-329,-13,0,0,0,0,0,0,0,0,0,-1,895,1037,0,0
-322,-13,0,0,0,0,0,0,0,0,0,-1,902,1037,0,0
-315,-13,0,0,0,0,0,0,0,0,0,-1,909,1037,0,0
-308,-13,0,0,0,0,0,0,0,0,0,-1,916,1037,0,0
-301,-13,0,0,0,0,0,0,0,0,0,-1,923,1037,0,0
-294,-13,0,0,0,0,0,0,0,0,0,-1,930,1037,0,0
-287,-13,0,0,0,0,0,0,0,0,0,-1,937,1037,0,0
-280,-13,0,0,0,0,0,0,0,0,0,-1,944,1037,0,0
-273,-13,0,0,0,0,0,0,0,0,0,-1,951,1037,0,0
-266,-13,0,0,0,0,0,0,0,0,0,-1,958,1037,0,0
-259,-13,0,0,0,0,0,0,0,0,0,-1,965,1037,0,0
-252,-13,0,0,0,0,0,0,0,0,0,-1,972,1037,0,0
-245,-13,0,0,0,0,0,0,0,0,0,-1,979,1037,0,0
-238,-13,0,0,0,0,0,0,0,0,0,-1,986,1037,0,0
-231,-13,0,0,0,0,0,0,0,0,0,-1,993,1037,0,0
-224,-13,0,0,0,0,0,0,0,0,0,-1,1000,1037,0,0
-217,-13,0,0,0,0,0,0,0,0,0,-1,1007,1037,0,0
-210,-13,0,0,0,0,0,0,0,0,0,-1,1014,1037,0,0
-203,-13,0,0,0,0,0,0,0,0,0,-1,1021,1037,0,0
-196,-13,0,0,0,0,0,0,0,0,0,-1,1028,1037,0,0
-189,-13,0,0,0,0,0,0,0,0,0,-1,1035,1037,0,0
-182,-13,0,0,0,0,0,0,0,0,0,-1,1042,1037,0,0
-175,-13,0,0,0,0,0,0,0,0,0,-1,1049,1037,0,0
-168,-13,0,0,0,0,0,0,0,0,0,-1,1056,1037,0,0
-161,-13,0,0,0,0,0,0,0,0,0,-1,1063,1037,0,0
-154,-13,0,0,0,0,0,0,0,0,0,-1,1070,1037,0,0
-147,-13,0,0,0,0,0,0,0,0,0,-1,1077,1037,0,0
-140,-13,0,0,0,0,0,0,0,0,0,-1,1084,1037,0,0
-133,-13,0,0,0,0,0,0,0,0,0,-1,1091,1037,0,0
-126,-13,0,0,0,0,0,0,0,0,0,-1,1098,1037,0,0
-119,-13,0,0,0,0,0,0,0,0,0,-1,1105,1037,0,0
-112,-13,0,0,0,0,0,0,0,0,0,-1,1112,1037,0,0
-105,-13,0,0,0,0,0,0,0,0,0,-1,1119,1037,0,0
-98,-13,0,0,0,0,0,0,0,0,0,-1,1126,1037,0,0
-91,-13,0,0,0,0,0,0,0,0,0,-1,1133,1037,0,0
-84,-13,0,0,0,0,0,0,0,0,0,-1,1140,1037,0,0
-77,-13,0,0,0,0,0,0,0,0,0,-1,1147,1037,0,0
-70,-13,0,0,0,0,0,0,0,0,0,-1,1154,1037,0,0
-63,-13,0,0,0,0,0,0,0,0,0,-1,1161,1037,0,0
-56,-13,0,0,0,0,0,0,0,0,0,-1,1168,1037,0,0
-49,-13,0,0,0,0,0,0,0,0,0,-1,1175,1037,0,0
-42,-13,0,0,0,0,0,0,0,0,0,-1,1182,1037,0,0
-35,-13,0,0,0,0,0,0,0,0,0,-1,1189,1037,0,0
-28,-13,0,0,0,0,0,0,0,0,0,-1,1196,1037,0,0
-21,-13,0,0,0,0,0,0,0,0,0,-1,1203,1037,0,0
-14,-13,0,0,0,0,0,0,0,0,0,-1,1210,1037,0,0
-7,-13,0,0,0,0,0,0,0,0,0,-1,1217,1037,0,0
0,-13,0,0,0,0,0,0,0,0,0,-1,1224,1037,0,0
7,-13,0,0,0,0,0,0,0,0,0,-1,1231,1037,0,0
14,-13,0,0,0,0,0,0,0,0,0,-1,1238,1037,0,0
21,-13,0,0,0,0,0,0,0,0,0,-1,1245,1037,0,0
28,-13,0,0,0,0,0,0,0,0,0,-1,1252,1037,0,0
35,-13,0,0,0,0,0,0,0,0,0,-1,1259,1037,0,0
42,-13,0,0,0,0,0,0,0,0,0,-1,1266,1037,0,0
49,-13,0,0,0,0,0,0,0,0,0,-1,1273,1037,0,0
56,-13,0,0,0,0,0,0,0,0,0,-1,1280,1037,0,0
63,-13,0,0,0,0,0,0,0,0,0,-1,1287,1037,0,0
70,-13,0,0,0,0,0,0,0,0,0,-1,1294,1037,0,0
77,-13,0,0,0,0,0,0,0,0,0,-1,1301,1037,0,0
84,-13,0,0,0,0,0,0,0,0,0,-1,1308,1037,0,0
91,-13,0,0,0,0,0,0,0,0,0,-1,1315,1037,0,0
98,-13,0,0,0,0,0,0,0,0,0,-1,1322,1037,0,0
105,-13,0,0,0,0,0,0,0,0,0,-1,1329,1037,0,0
112,-13,0,0,0,0,0,0,0,0,0,-1,1336,1037,0,0
119,-13,0,0,0,0,0,0,0,0,0,-1,1343,1037,0,0
126,-13,0,0,0,0,0,0,0,0,0,-1,1350,1037,0,0
133,-13,0,0,0,0,0,0,0,0,0,-1,1357,1037,0,0
140,-13,0,0,0,0,0,0,0,0,0,-1,1364,1037,0,0
147,-13,0,0,0,0,0,0,0,0,0,-1,1371,1037,0,0
154,-13,0,0,0,0,0,0,0,0,0,-1,1378,1037,0,0
161,-13,0,0,0,0,0,0,0,0,0,-1,1385,1037,0,0
168,-13,0,0,0,0,0,0,0,0,0,-1,1392,1037,0,0
175,-13,0,0,0,0,0,0,0,0,0,-1,1399,1037,0,0
182,-13,0,0,0,0,0,0,0,0,0,-1,1406,1037,0,0
189,-13,0,0,0,0,0,0,0,0,0,-1,1413,1037,0,0
196,-13,0,0,0,0,0,0,0,0,0,-1,1420,1037,0,0
203,-13,0,0,0,0,0,0,0,0,0,-1,1427,1037,0,0
210,-13,0,0,0,0,0,0,0,0,0,-1,1434,1037,0,0
217,-13,0,0,0,0,0,0,0,0,0,-1,1441,1037,0,0
224,-13,0,0,0,0,0,0,0,0,0,-1,1448,1037,0,0
231,-13,0,0,0,0,0,0,0,0,0,-1,1455,1037,0,0
238,-13,0,0,0,0,0,0,0,0,0,-1,1462,1037,0,0
245,-13,0,0,0,0,0,0,0,0,0,-1,1469,1037,0,0
252,-13,0,0,0,0,0,0,0,0,0,-1,1476,1037,0,0
259,-13,0,0,0,0,0,0,0,0,0,-1,1483,1037,0,0
266,-13,0,0,0,0,0,0,0,0,0,-1,1490,1037,0,0
273,-13,0,0,0,0,0,0,0,0,0,-1,1497,1037,0,0
280,-13,0,0,0,0,0,0,0,0,0,-1,1504,1037,0,0
287,-13,0,0,0,0,0,0,0,0,0,-1,1511,1037,0,0
294,-13,0,0,0,0,0,0,0,0,0,-1,1518,1037,0,0
301,-13,0,0,0,0,0,0,0,0,0,-1,1525,1037,0,0
308,-13,0,0,0,0,0,0,0,0,0,-1,1532,1037,0,0
315,-13,0,0,0,0,0,0,0,0,0,-1,1539,1037,0,0
322,-13,0,0,0,0,0,0,0,0,0,-1,1546,1037,0,0
329,-13,0,0,0,0,0,0,0,0,0,-1,1553,1037,0,0
336,-13,0,0,0,0,0,0,0,0,0,-1,1560,1037,0,0
343,-13,0,0,0,0,0,0,0,0,0,-1,1567,1037,0,0
350,-13,0,0,0,0,0,0,0,0,0,-1,1574,1037,0,0
357,-13,0,0,0,0,0,0,0,0,0,-1,1581,1037,0,0
364,-13,0,0,0,0,0,0,0,0,0,-1,1588,1037,0,0
371,-13,0,0,0,0,0,0,0,0,0,-1,1595,1037,0,0
378,-13,0,0,0,0,0,0,0,0,0,-1,1602,1037,0,0
385,-13,0,0,0,0,0,0,0,0,0,-1,1609,1037,0,0
392,-13,0,0,0,0,0,0,0,0,0,-1,1616,1037,0,0
399,-13,0,0,0,0,0,0,0,0,0,-1,1623,1037,0,0
406,-13,0,0,0,0,0,0,0,0,0,-1,1630,1037,0,0
413,-13,0,0,0,0,0,0,0,0,0,-1,1637,1037,0,0
420,-13,0,0,0,0,0,0,0,0,0,-1,1644,1037,0,0
427,-13,0,0,0,0,0,0,0,0,0,-1,1651,1037,0,0
434,-13,0,0,0,0,0,0,0,0,0,-1,1658,1037,0,0
441,-13,0,0,0,0,0,0,0,0,0,-1,1665,1037,0,0
448,-13,0,0,0,0,0,0,0,0,0,-1,1672,1037,0,0
455,-13,0,0,0,0,0,0,0,0,0,-1,1679,1037,0,0
462,-13,0,0,0,0,0,0,0,0,0,-1,1686,1037,0,0
469,-13,0,0,0,0,0,0,0,0,0,-1,1693,1037,0,0
476,-13,0,0,0,0,0,0,0,0,0,-1,1700,1037,0,0
483,-13,0,0,0,0,0,0,0,0,0,-1,1707,1037,0,0
490,-13,0,0,0,0,0,0,0,0,0,-1,1714,1037,0,0
497,-13,0,0,0,0,0,0,0,0,0,-1,1721,1037,0,0
504,-13,0,0,0,0,0,0,0,0,0,-1,1728,1037,0,0
511,-13,0,0,0,0,0,0,0,0,0,-1,1735,1037,0,0
518,-13,0,0,0,0,0,0,0,0,0,-1,1742,1037,0,0
525,-13,0,0,0,0,0,0,0,0,0,-1,1749,1037,0,0
532,-13,0,0,0,0,0,0,0,0,0,-1,1756,1037,0,0
539,-13,0,0,0,0,0,0,0,0,0,-1,1763,1037,0,0
546,-13,0,0,0,0,0,0,0,0,0,-1,1770,1037,0,0
553,-13,0,0,0,0,0,0,0,0,0,-1,1777,1037,0,0
560,-13,0,0,0,0,0,0,0,0,0,-1,1784,1037,0,0
567,-13,0,0,0,0,0,0,0,0,0,-1,1791,1037,0,0
574,-13,0,0,0,0,0,0,0,0,0,-1,1798,1037,0,0
581,-13,0,0,0,0,0,0,0,0,0,-1,1805,1037,0,0
588,-13,0,0,0,0,0,0,0,0,0,-1,1812,1037,0,0
595,-13,0,0,0,0,0,0,0,0,0,-1,1819,1037,0,0
602,-13,0,0,0,0,0,0,0,0,0,-1,1826,1037,0,0
609,-13,0,0,0,0,0,0,0,0,0,-1,1833,1037,0,0
616,-13,0,0,0,0,0,0,0,0,0,-1,1840,1037,0,0
623,-13,0,0,0,0,0,0,0,0,0,-1,1847,1037,0,0
630,-13,0,0,0,0,0,0,0,0,0,-1,1854,1037,0,0
637,-13,0,0,0,0,0,0,0,0,0,-1,1861,1037,0,0
644,-13,0,0,0,0,0,0,0,0,0,-1,1868,1037,0,0
651,-13,235.776,8.49109,0,0,0,0,0,0,0,-1,1875,1037,235.776,-8.49113
658,-13,235.672,9.15259,0,0,0,0,0,0,0,-1,1882,1037,235.672,-9.15255
665,-13,235.715,8.94275,0,0,0,0,0,0,0,-1,1889,1037,235.715,-8.94275
672,-13,235.73,8.64868,0,0,0,0,0,0,0,-1,1896,1037,235.73,-8.64873
679,-13,235.531,8.41943,0,0,0,0,0,0,0,-1,1903,1037,235.531,-8.41946
686,-13,235.527,8.52917,0,0,0,0,0,0,0,-1,1910,1037,235.527,-8.52923
693,-13,235.475,8.56604,0,0,0,0,0,0,0,-1,1917,1037,235.475,-8.56605
700,-13,235.459,8.58618,0,0,0,0,0,0,0,-1,1924,1037,235.459,-8.58622
707,-13,235.724,8.31165,0,0,0,0,0,0,0,-1,1931,1037,235.724,-8.31167
714,-13,236.184,7.7345,0,0,0,0,0,0,0,-1,1938,1037,236.184,-7.73444
721,-13,178.453,6.83362,0,0,0,0,0,0,0,-1,1945,1037,178.453,-6.83357
728,-13,78.576,7.60706,0,0,0,0,0,0,0,-1,1952,1037,78.5761,-7.60708
735,-13,241.046,31.7709,0,0,0,0,0,0,0,-1,1959,1037,241.046,-31.7709
742,-13,93.698,9.32483,0,0,0,0,0,0,0,-1,1966,1037,93.6979,-9.32482
749,-13,241.399,32.4466,0,0,0,0,0,0,0,-1,1973,1037,241.399,-32.4466
756,-13,241.113,32.4001,-0.0186622,0.0269433,0.00060718,0.0269514,-0.0186702,1.55749,0.0264839,0.0310372,1980,1037,241.113,-32.4002
763,-13,240.83,32.326,-0.0207155,0.0351021,0.00123059,0.0351292,-0.0207426,1.54876,0.0326121,0.0313749,1987,1037,240.83,-32.326
770,-13,240.745,32.4657,-0.0225841,0.0433117,0.00197972,0.0433711,-0.0226435,1.54079,0.0387347,0.0258609,1994,1037,240.745,-32.4657
777,-13,240.64,32.7991,-0.0242484,0.0515663,0.00281934,0.051671,-0.0243531,1.53368,0.0448271,0.0286605,2001,1037,240.64,-32.7991
784,-13,240.428,32.8611,0,0,0,0,0,0,0,-1,2008,1037,240.428,-32.8611
791,-13,221.358,33.3361,0,0,0,0,0,0,0,-1,2015,1037,221.358,-33.3362
798,-13,141.364,21.8746,0,0,0,0,0,0,0,-1,2022,1037,141.364,-21.8746
805,-13,141.104,21.3998,0,0,0,0,0,0,0,-1,2029,1037,141.104,-21.3998
812,-13,118.83,15.0224,0,0,0,0,0,0,0,-1,2036,1037,118.83,-15.0224
-700,-20,-93.2781,-2.50916,0,0,0,0,0,0,0,-1,524,1044,-93.2781,2.50913
-693,-20,-89.4135,12.1685,0,0,0,0,0,0,0,-1,531,1044,-89.4135,-12.1684
-686,-20,-90.3054,12.3282,0,0,0,0,0,0,0,-1,538,1044,-90.3054,-12.3283
-679,-20,-91.2314,12.5063,0,0,0,0,0,0,0,-1,545,1044,-91.2314,-12.5063
-672,-20,-102.373,14.449,0,0,0,0,0,0,0,-1,552,1044,-102.373,-14.449
-665,-20,-183.108,31.8218,0,0,0,0,0,0,0,-1,559,1044,-183.108,-31.8218
-658,-20,-215.865,33.2686,0,0,0,0,0,0,0,-1,566,1044,-215.865,-33.2686
-651,-20,-233.725,32.6726,0,0,0,0,0,0,0,-1,573,1044,-233.725,-32.6726
-644,-20,-233.706,32.248,-0.0212827,0.0581326,0.00420684,0.0583548,-0.0215049,1.51802,0.0477152,0.038978,580,1044,-233.706,-32.248
-637,-20,-233.888,31.9036,-0.0159401,0.0488291,0.00367375,0.0490368,-0.0161479,1.51432,0.0391987,0.029196,587,1044,-233.888,-31.9035
-630,-20,-233.971,31.9813,-0.0106951,0.039713,0.00314579,0.0399086,-0.0108906,1.50871,0.0308828,0.0219239,594,1044,-233.971,-31.9813
-623,-20,-234.141,31.9442,-0.00553417,0.0307609,0.00261805,0.0309487,-0.00572204,1.49916,0.0227807,0.0200592,601,1044,-234.141,-31.9442
-616,-20,-234.245,31.7777,-0.000444718,0.0219547,0.00208952,0.022148,-0.00063797,1.47857,0.0149825,0.0189769,608,1044,-234.245,-31.7777
-609,-20,-234.252,31.6706,0.00458546,0.0132822,0.00156277,0.0135545,0.00431316,1.39829,0.00799624,0.0200251,615,1044,-234.252,-31.6706
-602,-20,-234.232,31.5414,0.00956811,0.00473614,0.00104371,0.00978391,0.00452034,0.203892,0.00565417,0.0163378,622,1044,-234.232,-31.5414
-595,-20,-234.268,31.4287,0,0,0,0,0,0,0,-1,629,1044,-234.268,-31.4287
-588,-20,-72.2241,0.531372,0,0,0,0,0,0,0,-1,636,1044,-72.2241,-0.531387
-581,-20,-72.261,0.247192,0,0,0,0,0,0,0,-1,643,1044,-72.261,-0.247205
-574,-20,-72.2443,0.32019,0,0,0,0,0,0,0,-1,650,1044,-72.2443,-0.320219
-567,-20,-72.0424,0.520142,0,0,0,0,0,0,0,-1,657,1044,-72.0424,-0.520167
-560,-20,-71.8108,0.804077,0,0,0,0,0,0,0,-1,664,1044,-71.8108,-0.804076
-553,-20,-72.0823,0.542358,0,0,0,0,0,0,0,-1,671,1044,-72.0823,-0.542369
-546,-20,-72.0886,0.290649,0,0,0,0,0,0,0,-1,678,1044,-72.0885,-0.290684
-539,-20,-72.2553,0.547974,0,0,0,0,0,0,0,-1,685,1044,-72.2553,-0.547983
-532,-20,-72.5035,0.667969,0,0,0,0,0,0,0,-1,692,1044,-72.5035,-0.667925
-525,-20,0,0,0,0,0,0,0,0,0,-1,699,1044,0,0
-518,-20,0,0,0,0,0,0,0,0,0,-1,706,1044,0,0
-511,-20,0,0,0,0,0,0,0,0,0,-1,713,1044,0,0
-504,-20,0,0,0,0,0,0,0,0,0,-1,720,1044,0,0
-497,-20,0,0,0,0,0,0,0,0,0,-1,727,1044,0,0
-490,-20,0,0,0,0,0,0,0,0,0,-1,734,1044,0,0
-483,-20,0,0,0,0,0,0,0,0,0,-1,741,1044,0,0
-476,-20,0,0,0,0,0,0,0,0,0,-1,748,1044,0,0
-469,-20,0,0,0,0,0,0,0,0,0,-1,755,1044,0,0
-462,-20,0,0,0,0,0,0,0,0,0,-1,762,1044,0,0
-455,-20,0,0,0,0,0,0,0,0,0,-1,769,1044,0,0
-448,-20,0,0,0,0,0,0,0,0,0,-1,776,1044,0,0
-441,-20,0,0,0,0,0,0,0,0,0,-1,783,1044,0,0
-434,-20,0,0,0,0,0,0,0,0,0,-1,790,1044,0,0
-427,-20,0,0,0,0,0,0,0,0,0,-1,797,1044,0,0
-420,-20,0,0,0,0,0,0,0,0,0,-1,804,1044,0,0
-413,-20,0,0,0,0,0,0,0,0,0,-1,811,1044,0,0
-406,-20,0,0,0,0,0,0,0,0,0,-1,818,1044,0,0
-399,-20,0,0,0,0,0,0,0,0,0,-1,825,1044,0,0
-392,-20,0,0,0,0,0,0,0,0,0,-1,832,1044,0,0
-385,-20,0,0,0,0,0,0,0,0,0,-1,839,1044,0,0
-378,-20,0,0,0,0,0,0,0,0,0,-1,846,1044,0,0
-371,-20,0,0,0,0,0,0,0,0,0,-1,853,1044,0,0
-364,-20,0,0,0,0,0,0,0,0,0,-1,860,1044,0,0
-357,-20,0,0,0,0,0,0,0,0,0,-1,867,1044,0,0
-350,-20,0,0,0,0,0,0,0,0,0,-1,874,1044,0,0
-343,-20,0,0,0,0,0,0,0,0,0,-1,881,1044,0,0
-336,-20,0,0,0,0,0,0,0,0,0,-1,888,1044,0,0
-329,-20,0,0,0,0,0,0,0,0,0,-1,895,1044,0,0
-322,-20,0,0,0,0,0,0,0,0,0,-1,902,1044,0,0
-315,-20,0,0,0,0,0,0,0,0,0,-1,909,1044,0,0
-308,-20,0,0,0,0,0,0,0,0,0,-1,916,1044,0,0
-301,-20,0,0,0,0,0,0,0,0,0,-1,923,1044,0,0
-294,-20,0,0,0,0,0,0,0,0,0,-1,930,1044,0,0
-287,-20,0,0,0,0,0,0,0,0,0,-1,937,1044,0,0
-280,-20,0,0,0,0,0,0,0,0,0,-1,944,1044,0,0
-273,-20,0,0,0,0,0,0,0,0,0,-1,951,1044,0,0
-266,-20,0,0,0,0,0,0,0,0,0,-1,958,1044,0,0
-259,-20,0,0,0,0,0,0,0,0,0,-1,965,1044,0,0
-252,-20,0,0,0,0,0,0,0,0,0,-1,972,1044,0,0
-245,-20,0,0,0,0,0,0,0,0,0,-1,979,1044,0,0
-238,-20,0,0,0,0,0,0,0,0,0,-1,986,1044,0,0
-231,-20,0,0,0,0,0,0,0,0,0,-1,993,1044,0,0
-224,-20,0,0,0,0,0,0,0,0,0,-1,1000,1044,0,0
-217,-20,0,0,0,0,0,0,0,0,0,-1,1007,1044,0,0
-210,-20,0,0,0,0,0,0,0,0,0,-1,1014,1044,0,0
-203,-20,0,0,0,0,0,0,0,0,0,-1,1021,1044,0,0
-196,-20,0,0,0,0,0,0,0,0,0,-1,1028,1044,0,0
-189,-20,0,0,0,0,0,0,0,0,0,-1,1035,1044,0,0
-182,-20,0,0,0,0,0,0,0,0,0,-1,1042,1044,0,0
-175,-20,0,0,0,0,0,0,0,0,0,-1,1049,1044,0,0
-168,-20,0,0,0,0,0,0,0,0,0,-1,1056,1044,0,0
-161,-20,0,0,0,0,0,0,0,0,0,-1,1063,1044,0,0
-154,-20,0,0,0,0,0,0,0,0,0,-1,1070,1044,0,0
-147,-20,0,0,0,0,0,0,0,0,0,-1,1077,1044,0,0
-140,-20,0,0,0,0,0,0,0,0,0,-1,1084,1044,0,0
-133,-20,0,0,0,0,0,0,0,0,0,-1,1091,1044,0,0
-126,-20,0,0,0,0,0,0,0,0,0,-1,1098,1044,0,0
-119,-20,0,0,0,0,0,0,0,0,0,-1,1105,1044,0,0
-112,-20,0,0,0,0,0,0,0,0,0,-1,1112,1044,0,0
-105,-20,0,0,0,0,0,0,0,0,0,-1,1119,1044,0,0
-98,-20,0,0,0,0,0,0,0,0,0,-1,1126,1044,0,0
-91,-20,0,0,0,0,0,0,0,0,0,-1,1133,1044,0,0
-84,-20,0,0,0,0,0,0,0,0,0,-1,1140,1044,0,0
-77,-20,0,0,0,0,0,0,0,0,0,-1,1147,1044,0,0
-70,-20,0,0,0,0,0,0,0,0,0,-1,1154,1044,0,0
-63,-20,0,0,0,0,0,0,0,0,0,-1,1161,1044,0,0
-56,-20,0,0,0,0,0,0,0,0,0,-1,1168,1044,0,0
-49,-20,0,0,0,0,0,0,0,0,0,-1,1175,1044,0,0
-42,-20,0,0,0,0,0,0,0,0,0,-1,1182,1044,0,0
-35,-20,0,0,0,0,0,0,0,0,0,-1,1189,1044,0,0
-28,-20,0,0,0,0,0,0,0,0,0,-1,1196,1044,0,0
-21,-20,0,0,0,0,0,0,0,0,0,-1,1203,1044,0,0
-14,-20,0,0,0,0,0,0,0,0,0,-1,1210,1044,0,0
-7,-20,0,0,0,0,0,0,0,0,0,-1,1217,1044,0,0
0,-20,0,0,0,0,0,0,0,0,0,-1,1224,1044,0,0
7,-20,0,0,0,0,0,0,0,0,0,-1,1231,1044,0,0
14,-20,0,0,0,0,0,0,0,0,0,-1,1238,1044,0,0
21,-20,0,0,0,0,0,0,0,0,0,-1,1245,1044,0,0
28,-20,0,0,0,0,0,0,0,0,0,-1,1252,1044,0,0
35,-20,0,0,0,0,0,0,0,0,0,-1,1259,1044,0,0
42,-20,0,0,0,0,0,0,0,0,0,-1,1266,1044,0,0
49,-20,0,0,0,0,0,0,0,0,0,-1,1273,1044,0,0
56,-20,0,0,0,0,0,0,0,0,0,-1,1280,1044,0,0
63,-20,0,0,0,0,0,0,0,0,0,-1,1287,1044,0,0
70,-20,0,0,0,0,0,0,0,0,0,-1,1294,1044,0,0
77,-20,0,0,0,0,0,0,0,0,0,-1,1301,1044,0,0
84,-20,0,0,0,0,0,0,0,0,0,-1,1308,1044,0,0
91,-20,0,0,0,0,0,0,0,0,0,-1,1315,1044,0,0
98,-20,0,0,0,0,0,0,0,0,0,-1,1322,1044,0,0
105,-20,0,0,0,0,0,0,0,0,0,-1,1329,1044,0,0
112,-20,0,0,0,0,0,0,0,0,0,-1,1336,1044,0,0
119,-20,0,0,0,0,0,0,0,0,0,-1,1343,1044,0,0
126,-20,0,0,0,0,0,0,0,0,0,-1,1350,1044,0,0
133,-20,0,0,0,0,0,0,0,0,0,-1,1357,1044,0,0
140,-20,0,0,0,0,0,0,0,0,0,-1,1364,1044,0,0
147,-20,0,0,0,0,0,0,0,0,0,-1,1371,1044,0,0
154,-20,0,0,0,0,0,0,0,0,0,-1,1378,1044,0,0
161,-20,0,0,0,0,0,0,0,0,0,-1,1385,1044,0,0
168,-20,0,0,0,0,0,0,0,0,0,-1,1392,1044,0,0
175,-20,0,0,0,0,0,0,0,0,0,-1,1399,1044,0,0
182,-20,0,0,0,0,0,0,0,0,0,-1,1406,1044,0,0
189,-20,0,0,0,0,0,0,0,0,0,-1,1413,1044,0,0
196,-20,0,0,0,0,0,0,0,0,0,-1,1420,1044,0,0
203,-20,0,0,0,0,0,0,0,0,0,-1,1427,1044,0,0
210,-20,0,0,0,0,0,0,0,0,0,-1,1434,1044,0,0
217,-20,0,0,0,0,0,0,0,0,0,-1,1441,1044,0,0
224,-20,0,0,0,0,0,0,0,0,0,-1,1448,1044,0,0
231,-20,0,0,0,0,0,0,0,0,0,-1,1455,1044,0,0
238,-20,0,0,0,0,0,0,0,0,0,-1,1462,1044,0,0
245,-20,0,0,0,0,0,0,0,0,0,-1,1469,1044,0,0
252,-20,0,0,0,0,0,0,0,0,0,-1,1476,1044,0,0
259,-20,0,0,0,0,0,0,0,0,0,-1,1483,1044,0,0
266,-20,0,0,0,0,0,0,0,0,0,-1,1490,1044,0,0
273,-20,0,0,0,0,0,0,0,0,0,-1,1497,1044,0,0
280,-20,0,0,0,0,0,0,0,0,0,-1,1504,1044,0,0
287,-20,0,0,0,0,0,0,0,0,0,-1,1511,1044,0,0
294,-20,0,0,0,0,0,0,0,0,0,-1,1518,1044,0,0
301,-20,0,0,0,0,0,0,0,0,0,-1,1525,1044,0,0
308,-20,0,0,0,0,0,0,0,0,0,-1,1532,1044,0,0
315,-20,0,0,0,0,0,0,0,0,0,-1,1539,1044,0,0
322,-20,0,0,0,0,0,0,0,0,0,-1,1546,1044,0,0
329,-20,0,0,0,0,0,0,0,0,0,-1,1553,1044,0,0
336,-20,0,0,0,0,0,0,0,0,0,-1,1560,1044,0,0
343,-20,0,0,0,0,0,0,0,0,0,-1,1567,1044,0,0
350,-20,0,0,0,0,0,0,0,0,0,-1,1574,1044,0,0
357,-20,0,0,0,0,0,0,0,0,0,-1,1581,1044,0,0
364,-20,0,0,0,0,0,0,0,0,0,-1,1588,1044,0,0
371,-20,0,0,0,0,0,0,0,0,0,-1,1595,1044,0,0
378,-20,0,0,0,0,0,0,0,0,0,-1,1602,1044,0,0
385,-20,0,0,0,0,0,0,0,0,0,-1,1609,1044,0,0
392,-20,0,0,0,0,0,0,0,0,0,-1,1616,1044,0,0
399,-20,0,0,0,0,0,0,0,0,0,-1,1623,1044,0,0
406,-20,0,0,0,0,0,0,0,0,0,-1,1630,1044,0,0
413,-20,0,0,0,0,0,0,0,0,0,-1,1637,1044,0,0
420,-20,0,0,0,0,0,0,0,0,0,-1,1644,1044,0,0
427,-20,0,0,0,0,0,0,0,0,0,-1,1651,1044,0,0
434,-20,0,0,0,0,0,0,0,0,0,-1,1658,1044,0,0
441,-20,0,0,0,0,0,0,0,0,0,-1,1665,1044,0,0
448,-20,0,0,0,0,0,0,0,0,0,-1,1672,1044,0,0
455,-20,0,0,0,0,0,0,0,0,0,-1,1679,1044,0,0
462,-20,0,0,0,0,0,0,0,0,0,-1,1686,1044,0,0
469,-20,0,0,0,0,0,0,0,0,0,-1,1693,1044,0,0
476,-20,0,0,0,0,0,0,0,0,0,-1,1700,1044,0,0
483,-20,0,0,0,0,0,0,0,0,0,-1,1707,1044,0,0
490,-20,0,0,0,0,0,0,0,0,0,-1,1714,1044,0,0
497,-20,0,0,0,0,0,0,0,0,0,-1,1721,1044,0,0
504,-20,0,0,0,0,0,0,0,0,0,-1,1728,1044,0,0
511,-20,0,0,0,0,0,0,0,0,0,-1,1735,1044,0,0
518,-20,0,0,0,0,0,0,0,0,0,-1,1742,1044,0,0
525,-20,0,0,0,0,0,0,0,0,0,-1,1749,1044,0,0
532,-20,0,0,0,0,0,0,0,0,0,-1,1756,1044,0,0
539,-20,0,0,0,0,0,0,0,0,0,-1,1763,1044,0,0
546,-20,0,0,0,0,0,0,0,0,0,-1,1770,1044,0,0
553,-20,0,0,0,0,0,0,0,0,0,-1,1777,1044,0,0
560,-20,0,0,0,0,0,0,0,0,0,-1,1784,1044,0,0
567,-20,0,0,0,0,0,0,0,0,0,-1,1791,1044,0,0
574,-20,0,0,0,0,0,0,0,0,0,-1,1798,1044,0,0
581,-20,0,0,0,0,0,0,0,0,0,-1,1805,1044,0,0
588,-20,0,0,0,0,0,0,0,0,0,-1,1812,1044,0,0
595,-20,0,0,0,0,0,0,0,0,0,-1,1819,1044,0,0
602,-20,0,0,0,0,0,0,0,0,0,-1,1826,1044,0,0
609,-20,0,0,0,0,0,0,0,0,0,-1,1833,1044,0,0
616,-20,0,0,0,0,0,0,0,0,0,-1,1840,1044,0,0
623,-20,0,0,0,0,0,0,0,0,0,-1,1847,1044,0,0
630,-20,0,0,0,0,0,0,0,0,0,-1,1854,1044,0,0
637,-20,0,0,0,0,0,0,0,0,0,-1,1861,1044,0,0
644,-20,0,0,0,0,0,0,0,0,0,-1,1868,1044,0,0
651,-20,235.65,8.61609,0,0,0,0,0,0,0,-1,1875,1044,235.65,-8.61605
658,-20,235.581,8.83105,0,0,0,0,0,0,0,-1,1882,1044,235.581,-8.831
665,-20,235.526,8.94629,0,0,0,0,0,0,0,-1,1889,1044,235.526,-8.94628
672,-20,235.519,8.77686,0,0,0,0,0,0,0,-1,1896,1044,235.519,-8.77691
679,-20,235.535,8.64404,0,0,0,0,0,0,0,-1,1903,1044,235.535,-8.64408
686,-20,235.602,8.45081,0,0,0,0,0,0,0,-1,1910,1044,235.602,-8.45084
693,-20,235.685,8.25586,0,0,0,0,0,0,0,-1,1917,1044,235.685,-8.25583
700,-20,235.378,8.61072,0,0,0,0,0,0,0,-1,1924,1044,235.378,-8.61071
707,-20,235.558,8.55322,0,0,0,0,0,0,0,-1,1931,1044,235.558,-8.55325
714,-20,210.085,8.54321,0,0,0,0,0,0,0,-1,1938,1044,210.085,-8.54319
721,-20,178.509,7.30029,0,0,0,0,0,0,0,-1,1945,1044,178.509,-7.30034
728,-20,241.896,31.8746,0,0,0,0,0,0,0,-1,1952,1044,241.896,-31.8746
735,-20,241.571,31.8989,0,0,0,0,0,0,0,-1,1959,1044,241.571,-31.899
742,-20,241.246,31.9233,0,0,0,0,0,0,0,-1,1966,1044,241.246,-31.9233
749,-20,241.51,32.2189,0,0,0,0,0,0,0,-1,1973,1044,241.51,-32.2189
756,-20,241.303,32.1899,0,0,0,0,0,0,0,-1,1980,1044,241.303,-32.1899
763,-20,241.095,32.1609,0,0,0,0,0,0,0,-1,1987,1044,241.095,-32.1609
770,-20,240.899,32.1706,-0.0226384,0.0421671,0.00260008,0.0422712,-0.0227426,1.53076,0.038096,0.025938,1994,1044,240.899,-32.1706
777,-20,240.75,32.579,-0.0238994,0.0502937,0.00343804,0.0504526,-0.0240584,1.52459,0.0439094,0.0291169,2001,1044,240.75,-32.579
784,-20,240.583,32.9436,0,0,0,0,0,0,0,-1,2008,1044,240.583,-32.9436
791,-20,239.778,32.7796,0,0,0,0,0,0,0,-1,2015,1044,239.778,-32.7796
798,-20,221.642,33.224,0,0,0,0,0,0,0,-1,2022,1044,221.642,-33.224
805,-20,145.318,17.1595,0,0,0,0,0,0,0,-1,2029,1044,145.318,-17.1595
812,-20,146.059,16.0255,0,0,0,0,0,0,0,-1,2036,1044,146.059,-16.0255
-700,-27,-88.3745,10.9375,0,0,0,0,0,0,0,-1,524,1051,-88.3745,-10.9374
-693,-27,-89.2953,11.3148,0,0,0,0,0,0,0,-1,531,1051,-89.2953,-11.3148
-686,-27,-90.1198,11.5474,0,0,0,0,0,0,0,-1,538,1051,-90.1198,-11.5473
-679,-27,-101.677,13.863,0,0,0,0,0,0,0,-1,545,1051,-101.677,-13.863
-672,-27,-183.888,31.3157,0,0,0,0,0,0,0,-1,552,1051,-183.889,-31.3157
-665,-27,-216.17,33.3818,0,0,0,0,0,0,0,-1,559,1051,-216.17,-33.3818
-658,-27,-233.384,32.1111,0,0,0,0,0,0,0,-1,566,1051,-233.384,-32.1111
-651,-27,-233.857,32.1495,0,0,0,0,0,0,0,-1,573,1051,-233.857,-32.1494
-644,-27,-233.891,31.795,-0.0216753,0.0572766,0.00394973,0.0574737,-0.0218724,1.52094,0.0473226,0.0295011,580,1051,-233.891,-31.795
-637,-27,-234.061,31.6821,-0.0164767,0.0481468,0.00339506,0.0483247,-0.0166546,1.51845,0.0389728,0.0227445,587,1051,-234.061,-31.6821
-630,-27,-234.094,31.7913,-0.011417,0.0392086,0.0028617,0.0393698,-0.0115782,1.51451,0.0308392,0.0246197,594,1051,-234.094,-31.7913
-623,-27,-234.283,31.7859,-0.00648479,0.030438,0.00233999,0.0305857,-0.00663249,1.50776,0.0229234,0.0214828,601,1051,-234.283,-31.7859
-616,-27,-234.318,31.7074,-0.00166959,0.0218174,0.00182445,0.0219583,-0.00181047,1.49373,0.0152781,0.0186635,608,1051,-234.318,-31.7074
-609,-27,-234.34,31.6541,0.00303834,0.0133351,0.00131348,0.0135,0.00287343,1.4459,0.0082115,0.0188537,615,1051,-234.34,-31.6541
-602,-27,-234.333,31.5614,0.00764802,0.0049856,0.000809133,0.00787464,0.00475899,0.273074,0.00457931,0.016074,622,1051,-234.333,-31.5614
-595,-27,-234.351,31.4657,0,0,0,0,0,0,0,-1,629,1051,-234.351,-31.4657
-588,-27,-220.749,31.8921,0,0,0,0,0,0,0,-1,636,1051,-220.749,-31.8921
-581,-27,-72.1835,0.374878,0,0,0,0,0,0,0,-1,643,1051,-72.1835,-0.37492
-574,-27,-72.1907,0.398804,0,0,0,0,0,0,0,-1,650,1051,-72.1907,-0.398771
-567,-27,-72.0397,0.301392,0,0,0,0,0,0,0,-1,657,1051,-72.0396,-0.301375
-560,-27,-72.0294,0.408813,0,0,0,0,0,0,0,-1,664,1051,-72.0294,-0.408812
-553,-27,-72.0273,0.499268,0,0,0,0,0,0,0,-1,671,1051,-72.0273,-0.499301
-546,-27,-72.1342,0.19397,0,0,0,0,0,0,0,-1,678,1051,-72.1342,-0.193915
-539,-27,-72.2832,0.279175,0,0,0,0,0,0,0,-1,685,1051,-72.2832,-0.279193
-532,-27,-72.424,0.484375,0,0,0,0,0,0,0,-1,692,1051,-72.424,-0.484377
-525,-27,0,0,0,0,0,0,0,0,0,-1,699,1051,0,0
-518,-27,0,0,0,0,0,0,0,0,0,-1,706,1051,0,0
-511,-27,0,0,0,0,0,0,0,0,0,-1,713,1051,0,0
-504,-27,0,0,0,0,0,0,0,0,0,-1,720,1051,0,0
-497,-27,0,0,0,0,0,0,0,0,0,-1,727,1051,0,0
-490,-27,0,0,0,0,0,0,0,0,0,-1,734,1051,0,0
-483,-27,0,0,0,0,0,0,0,0,0,-1,741,1051,0,0
-476,-27,0,0,0,0,0,0,0,0,0,-1,748,1051,0,0
-469,-27,0,0,0,0,0,0,0,0,0,-1,755,1051,0,0
-462,-27,0,0,0,0,0,0,0,0,0,-1,762,1051,0,0
-455,-27,0,0,0,0,0,0,0,0,0,-1,769,1051,0,0
-448,-27,0,0,0,0,0,0,0,0,0,-1,776,1051,0,0
-441,-27,0,0,0,0,0,0,0,0,0,-1,783,1051,0,0
-434,-27,0,0,0,0,0,0,0,0,0,-1,790,1051,0,0
-427,-27,0,0,0,0,0,0,0,0,0,-1,797,1051,0,0
-420,-27,0,0,0,0,0,0,0,0,0,-1,804,1051,0,0
-413,-27,0,0,0,0,0,0,0,0,0,-1,811,1051,0,0
-406,-27,0,0,0,0,0,0,0,0,0,-1,818,1051,0,0
-399,-27,0,0,0,0,0,0,0,0,0,-1,825,1051,0,0
-392,-27,0,0,0,0,0,0,0,0,0,-1,832,1051,0,0
-385,-27,0,0,0,0,0,0,0,0,0,-1,839,1051,0,0
-378,-27,0,0,0,0,0,0,0,0,0,-1,846,1051,0,0
-371,-27,0,0,0,0,0,0,0,0,0,-1,853,1051,0,0
-364,-27,0,0,0,0,0,0,0,0,0,-1,860,1051,0,0
-357,-27,0,0,0,0,0,0,0,0,0,-1,867,1051,0,0
-350,-27,0,0,0,0,0,0,0,0,0,-1,874,1051,0,0
-343,-27,0,0,0,0,0,0,0,0,0,-1,881,1051,0,0
-336,-27,0,0,0,0,0,0,0,0,0,-1,888,1051,0,0
-329,-27,0,0,0,0,0,0,0,0,0,-1,895,1051,0,0
-322,-27,0,0,0,0,0,0,0,0,0,-1,902,1051,0,0
-315,-27,0,0,0,0,0,0,0,0,0,-1,909,1051,0,0
-308,-27,0,0,0,0,0,0,0,0,0,-1,916,1051,0,0
-301,-27,0,0,0,0,0,0,0,0,0,-1,923,1051,0,0
-294,-27,0,0,0,0,0,0,0,0,0,-1,930,1051,0,0
-287,-27,0,0,0,0,0,0,0,0,0,-1,937,1051,0,0
-280,-27,0,0,0,0,0,0,0,0,0,-1,944,1051,0,0
-273,-27,0,0,0,0,0,0,0,0,0,-1,951,1051,0,0
-266,-27,0,0,0,0,0,0,0,0,0,-1,958,1051,0,0
-259,-27,0,0,0,0,0,0,0,0,0,-1,965,1051,0,0
-252,-27,0,0,0,0,0,0,0,0,0,-1,972,1051,0,0
-245,-27,0,0,0,0,0,0,0,0,0,-1,979,1051,0,0
-238,-27,0,0,0,0,0,0,0,0,0,-1,986,1051,0,0
-231,-27,0,0,0,0,0,0,0,0,0,-1,993,1051,0,0
-224,-27,0,0,0,0,0,0,0,0,0,-1,1000,1051,0,0
-217,-27,0,0,0,0,0,0,0,0,0,-1,1007,1051,0,0
-210,-27,0,0,0,0,0,0,0,0,0,-1,1014,1051,0,0
-203,-27,0,0,0,0,0,0,0,0,0,-1,1021,1051,0,0
-196,-27,0,0,0,0,0,0,0,0,0,-1,1028,1051,0,0
-189,-27,0,0,0,0,0,0,0,0,0,-1,1035,1051,0,0
-182,-27,0,0,0,0,0,0,0,0,0,-1,1042,1051,0,0
-175,-27,0,0,0,0,0,0,0,0,0,-1,1049,1051,0,0
-168,-27,0,0,0,0,0,0,0,0,0,-1,1056,1051,0,0
-161,-27,0,0,0,0,0,0,0,0,0,-1,1063,1051,0,0
-154,-27,0,0,0,0,0,0,0,0,0,-1,1070,1051,0,0
-147,-27,0,0,0,0,0,0,0,0,0,-1,1077,1051,0,0
-140,-27,0,0,0,0,0,0,0,0,0,-1,1084,1051,0,0
-133,-27,0,0,0,0,0,0,0,0,0,-1,1091,1051,0,0
-126,-27,0,0,0,0,0,0,0,0,0,-1,1098,1051,0,0
-119,-27,0,0,0,0,0,0,0,0,0,-1,1105,1051,0,0
-112,-27,0,0,0,0,0,0,0,0,0,-1,1112,1051,0,0
-105,-27,0,0,0,0,0,0,0,0,0,-1,1119,1051,0,0
-98,-27,0,0,0,0,0,0,0,0,0,-1,1126,1051,0,0
-91,-27,0,0,0,0,0,0,0,0,0,-1,1133,1051,0,0
-84,-27,0,0,0,0,0,0,0,0,0,-1,1140,1051,0,0
-77,-27,0,0,0,0,0,0,0,0,0,-1,1147,1051,0,0
-70,-27,0,0,0,0,0,0,0,0,0,-1,1154,1051,0,0
-63,-27,0,0,0,0,0,0,0,0,0,-1,1161,1051,0,0
-56,-27,0,0,0,0,0,0,0,0,0,-1,1168,1051,0,0
-49,-27,0,0,0,0,0,0,0,0,0,-1,1175,1051,0,0
-42,-27,0,0,0,0,0,0,0,0,0,-1,1182,1051,0,0
-35,-27,0,0,0,0,0,0,0,0,0,-1,1189,1051,0,0
-28,-27,0,0,0,0,0,0,0,0,0,-1,1196,1051,0,0
-21,-27,0,0,0,0,0,0,0,0,0,-1,1203,1051,0,0
-14,-27,0,0,0,0,0,0,0,0,0,-1,1210,1051,0,0
-7,-27,0,0,0,0,0,0,0,0,0,-1,1217,1051,0,0
0,-27,0,0,0,0,0,0,0,0,0,-1,1224,1051,0,0
7,-27,0,0,0,0,0,0,0,0,0,-1,1231,1051,0,0
14,-27,0,0,0,0,0,0,0,0,0,-1,1238,1051,0,0
21,-27,0,0,0,0,0,0,0,0,0,-1,1245,1051,0,0
28,-27,0,0,0,0,0,0,0,0,0,-1,1252,1051,0,0
35,-27,0,0,0,0,0,0,0,0,0,-1,1259,1051,0,0
42,-27,0,0,0,0,0,0,0,0,0,-1,1266,1051,0,0
49,-27,0,0,0,0,0,0,0,0,0,-1,1273,1051,0,0
56,-27,0,0,0,0,0,0,0,0,0,-1,1280,1051,0,0
63,-27,0,0,0,0,0,0,0,0,0,-1,1287,1051,0,0
70,-27,0,0,0,0,0,0,0,0,0,-1,1294,1051,0,0
77,-27,0,0,0,0,0,0,0,0,0,-1,1301,1051,0,0
84,-27,0,0,0,0,0,0,0,0,0,-1,1308,1051,0,0
91,-27,0,0,0,0,0,0,0,0,0,-1,1315,1051,0,0
98,-27,0,0,0,0,0,0,0,0,0,-1,1322,1051,0,0
105,-27,0,0,0,0,0,0,0,0,0,-1,1329,1051,0,0
112,-27,0,0,0,0,0,0,0,0,0,-1,1336,1051,0,0
119,-27,0,0,0,0,0,0,0,0,0,-1,1343,1051,0,0
126,-27,0,0,0,0,0,0,0,0,0,-1,1350,1051,0,0
133,-27,0,0,0,0,0,0,0,0,0,-1,1357,1051,0,0
140,-27,0,0,0,0,0,0,0,0,0,-1,1364,1051,0,0
147,-27,0,0,0,0,0,0,0,0,0,-1,1371,1051,0,0
154,-27,0,0,0,0,0,0,0,0,0,-1,1378,1051,0,0
161,-27,0,0,0,0,0,0,0,0,0,-1,1385,1051,0,0
168,-27,0,0,0,0,0,0,0,0,0,-1,1392,1051,0,0
175,-27,0,0,0,0,0,0,0,0,0,-1,1399,1051,0,0
182,-27,0,0,0,0,0,0,0,0,0,-1,1406,1051,0,0
189,-27,0,0,0,0,0,0,0,0,0,-1,1413,1051,0,0
196,-27,0,0,0,0,0,0,0,0,0,-1,1420,1051,0,0
203,-27,0,0,0,0,0,0,0,0,0,-1,1427,1051,0,0
210,-27,0,0,0,0,0,0,0,0,0,-1,1434,1051,0,0
217,-27,0,0,0,0,0,0,0,0,0,-1,1441,1051,0,0
224,-27,0,0,0,0,0,0,0,0,0,-1,1448,1051,0,0
231,-27,0,0,0,0,0,0,0,0,0,-1,1455,1051,0,0
238,-27,0,0,0,0,0,0,0,0,0,-1,1462,1051,0,0
245,-27,0,0,0,0,0,0,0,0,0,-1,1469,1051,0,0
252,-27,0,0,0,0,0,0,0,0,0,-1,1476,1051,0,0
259,-27,0,0,0,0,0,0,0,0,0,-1,1483,1051,0,0
266,-27,0,0,0,0,0,0,0,0,0,-1,1490,1051,0,0
273,-27,0,0,0,0,0,0,0,0,0,-1,1497,1051,0,0
280,-27,0,0,0,0,0,0,0,0,0,-1,1504,1051,0,0
287,-27,0,0,0,0,0,0,0,0,0,-1,1511,1051,0,0
294,-27,0,0,0,0,0,0,0,0,0,-1,1518,1051,0,0
301,-27,0,0,0,0,0,0,0,0,0,-1,1525,1051,0,0
308,-27,0,0,0,0,0,0,0,0,0,-1,1532,1051,0,0
315,-27,0,0,0,0,0,0,0,0,0,-1,1539,1051,0,0
322,-27,0,0,0,0,0,0,0,0,0,-1,1546,1051,0,0
329,-27,0,0,0,0,0,0,0,0,0,-1,1553,1051,0,0
336,-27,0,0,0,0,0,0,0,0,0,-1,1560,1051,0,0
343,-27,0,0,0,0,0,0,0,0,0,-1,1567,1051,0,0
350,-27,0,0,0,0,0,0,0,0,0,-1,1574,1051,0,0
357,-27,0,0,0,0,0,0,0,0,0,-1,1581,1051,0,0
364,-27,0,0,0,0,0,0,0,0,0,-1,1588,1051,0,0
371,-27,0,0,0,0,0,0,0,0,0,-1,1595,1051,0,0
378,-27,0,0,0,0,0,0,0,0,0,-1,1602,1051,0,0
385,-27,0,0,0,0,0,0,0,0,0,-1,1609,1051,0,0
392,-27,0,0,0,0,0,0,0,0,0,-1,1616,1051,0,0
399,-27,0,0,0,0,0,0,0,0,0,-1,1623,1051,0,0
406,-27,0,0,0,0,0,0,0,0,0,-1,1630,1051,0,0
413,-27,0,0,0,0,0,0,0,0,0,-1,1637,1051,0,0
420,-27,0,0,0,0,0,0,0,0,0,-1,1644,1051,0,0
427,-27,0,0,0,0,0,0,0,0,0,-1,1651,1051,0,0
434,-27,0,0,0,0,0,0,0,0,0,-1,1658,1051,0,0
441,-27,0,0,0,0,0,0,0,0,0,-1,1665,1051,0,0
448,-27,0,0,0,0,0,0,0,0,0,-1,1672,1051,0,0
455,-27,0,0,0,0,0,0,0,0,0,-1,1679,1051,0,0
462,-27,0,0,0,0,0,0,0,0,0,-1,1686,1051,0,0
469,-27,0,0,0,0,0,0,0,0,0,-1,1693,1051,0,0
476,-27,0,0,0,0,0,0,0,0,0,-1,1700,1051,0,0
483,-27,0,0,0,0,0,0,0,0,0,-1,1707,1051,0,0
490,-27,0,0,0,0,0,0,0,0,0,-1,1714,1051,0,0
497,-27,0,0,0,0,0,0,0,0,0,-1,1721,1051,0,0
504,-27,0,0,0,0,0,0,0,0,0,-1,1728,1051,0,0
511,-27,0,0,0,0,0,0,0,0,0,-1,1735,1051,0,0
518,-27,0,0,0,0,0,0,0,0,0,-1,1742,1051,0,0
525,-27,0,0,0,0,0,0,0,0,0,-1,1749,1051,0,0
532,-27,0,0,0,0,0,0,0,0,0,-1,1756,1051,0,0
539,-27,0,0,0,0,0,0,0,0,0,-1,1763,1051,0,0
546,-27,0,0,0,0,0,0,0,0,0,-1,1770,1051,0,0
553,-27,0,0,0,0,0,0,0,0,0,-1,1777,1051,0,0
560,-27,0,0,0,0,0,0,0,0,0,-1,1784,1051,0,0
567,-27,0,0,0,0,0,0,0,0,0,-1,1791,1051,0,0
574,-27,0,0,0,0,0,0,0,0,0,-1,1798,1051,0,0
581,-27,0,0,0,0,0,0,0,0,0,-1,1805,1051,0,0
588,-27,0,0,0,0,0,0,0,0,0,-1,1812,1051,0,0
595,-27,0,0,0,0,0,0,0,0,0,-1,1819,1051,0,0
602,-27,0,0,0,0,0,0,0,0,0,-1,1826,1051,0,0
609,-27,0,0,0,0,0,0,0,0,0,-1,1833,1051,0,0
616,-27,0,0,0,0,0,0,0,0,0,-1,1840,1051,0,0
623,-27,0,0,0,0,0,0,0,0,0,-1,1847,1051,0,0
630,-27,0,0,0,0,0,0,0,0,0,-1,1854,1051,0,0
637,-27,0,0,0,0,0,0,0,0,0,-1,1861,1051,0,0
644,-27,0,0,0,0,0,0,0,0,0,-1,1868,1051,0,0
651,-27,235.634,8.71155,0,0,0,0,0,0,0,-1,1875,1051,235.634,-8.71151
658,-27,235.545,8.71777,0,0,0,0,0,0,0,-1,1882,1051,235.545,-8.7178
665,-27,235.511,8.67798,0,0,0,0,0,0,0,-1,1889,1051,235.511,-8.67794
672,-27,235.485,8.67896,0,0,0,0,0,0,0,-1,1896,1051,235.485,-8.67891
679,-27,235.538,8.64392,0,0,0,0,0,0,0,-1,1903,1051,235.538,-8.64397
686,-27,235.621,8.45447,0,0,0,0,0,0,0,-1,1910,1051,235.621,-8.45448
693,-27,235.655,8.31067,0,0,0,0,0,0,0,-1,1917,1051,235.655,-8.31061
700,-27,235.416,8.5304,0,0,0,0,0,0,0,-1,1924,1051,235.416,-8.53038
707,-27,235.396,8.53406,0,0,0,0,0,0,0,-1,1931,1051,235.396,-8.53404
714,-27,235.462,8.42224,0,0,0,0,0,0,0,-1,1938,1051,235.462,-8.42222
721,-27,202.48,8.61157,0,0,0,0,0,0,0,-1,1945,1051,202.48,-8.61152
728,-27,242.263,31.8753,0,0,0,0,0,0,0,-1,1952,1051,242.263,-31.8753
735,-27,241.777,31.9414,-0.0180192,0.00177125,6.41134e-05,0.00177146,-0.0180194,1.56756,0.0126448,0.0300801,1959,1051,241.777,-31.9414
742,-27,241.525,31.9816,-0.0187941,0.00958135,0.000515246,0.0095907,-0.0188035,1.55265,0.0166785,0.0248264,1966,1051,241.525,-31.9815
749,-27,241.531,31.9379,-0.0197192,0.0174577,0.0011017,0.0174903,-0.0197518,1.5412,0.0215149,0.0222174,1973,1051,241.531,-31.9379
756,-27,241.394,31.9968,-0.0207386,0.0253949,0.00179461,0.0254646,-0.0208083,1.53197,0.0267608,0.022764,1980,1051,241.394,-31.9968
763,-27,241.212,32.0879,-0.0217971,0.0333907,0.00256216,0.0335094,-0.0219158,1.5245,0.0322323,0.0208899,1987,1051,241.212,-32.0879
770,-27,241.087,32.1351,-0.02284,0.0414458,0.00336921,0.0416219,-0.0230161,1.51858,0.0378306,0.0211176,1994,1051,241.087,-32.1351
777,-27,240.892,32.4139,-0.0238136,0.0495645,0.00417685,0.0498014,-0.0240505,1.51412,0.0434939,0.0315588,2001,1051,240.892,-32.4139
784,-27,240.825,32.8358,0,0,0,0,0,0,0,-1,2008,1051,240.826,-32.8358
791,-27,240.933,33.2134,0,0,0,0,0,0,0,-1,2015,1051,240.933,-33.2135
798,-27,148.048,15.4778,0,0,0,0,0,0,0,-1,2022,1051,148.048,-15.4778
805,-27,149.532,12.9192,0,0,0,0,0,0,0,-1,2029,1051,149.532,-12.9192
812,-27,122.348,7.61328,0,0,0,0,0,0,0,-1,2036,1051,122.348,-7.61324
-700,-34,-88.641,10.5408,0,0,0,0,0,0,0,-1,524,1058,-88.641,-10.5407
-693,-34,-89.3244,10.6776,0,0,0,0,0,0,0,-1,531,1058,-89.3244,-10.6776
-686,-34,-89.9775,10.8049,0,0,0,0,0,0,0,-1,538,1058,-89.9775,-10.805
-679,-34,-90.4781,10.9393,0,0,0,0,0,0,0,-1,545,1058,-90.4781,-10.9394
-672,-34,-102.759,13.5153,0,0,0,0,0,0,0,-1,552,1058,-102.759,-13.5153
-665,-34,-184.19,31.0149,0,0,0,0,0,0,0,-1,559,1058,-184.19,-31.0149
-658,-34,-233.551,31.3442,0,0,0,0,0,0,0,-1,566,1058,-233.551,-31.3443
-651,-34,-233.876,31.3799,-0.0283353,0.067759,0.00421861,0.0679438,-0.0285201,1.52701,0.0572229,0.0468119,573,1058,-233.876,-31.3799
-644,-34,-234.14,31.4205,-0.0227072,0.0578179,0.00351882,0.0579714,-0.0228607,1.52721,0.0481136,0.0236368,580,1058,-234.14,-31.4205
-637,-34,-234.2,31.4717,-0.0174762,0.0485292,0.002987,0.0486641,-0.0176111,1.52567,0.0396394,0.0235727,587,1058,-234.2,-31.4717
-630,-34,-234.15,31.5239,-0.012416,0.0394497,0.0025035,0.0395702,-0.0125366,1.52268,0.0314045,0.0214515,594,1058,-234.15,-31.5239
-623,-34,-234.258,31.5438,-0.00752193,0.0305582,0.00205398,0.0306687,-0.0076324,1.51707,0.0234084,0.0187175,601,1058,-234.258,-31.5438
-616,-34,-234.247,31.6478,-0.0027891,0.0218385,0.00162807,0.0219457,-0.00289627,1.50507,0.0156853,0.0282977,608,1058,-234.247,-31.6478
-609,-34,-234.287,31.6068,0.0017871,0.0132789,0.00121915,0.0134068,0.00165918,1.46626,0.00843934,0.0244771,615,1058,-234.287,-31.6069
-602,-34,-234.375,31.5139,0.00621122,0.00487278,0.00082424,0.00660371,0.00448029,0.444413,0.00389275,0.02096,622,1058,-234.375,-31.5139
-595,-34,-234.393,31.4983,0,0,0,0,0,0,0,-1,629,1058,-234.393,-31.4983
-588,-34,-231.713,32.0077,0,0,0,0,0,0,0,-1,636,1058,-231.713,-32.0077
-581,-34,-72.1434,0.436035,0,0,0,0,0,0,0,-1,643,1058,-72.1434,-0.436062
-574,-34,-72.0847,0.55542,0,0,0,0,0,0,0,-1,650,1058,-72.0847,-0.555444
-567,-34,-72.0326,0.461548,0,0,0,0,0,0,0,-1,657,1058,-72.0326,-0.461549
-560,-34,-71.9365,0.331909,0,0,0,0,0,0,0,-1,664,1058,-71.9365,-0.331852
-553,-34,-72.034,0.347778,0,0,0,0,0,0,0,-1,671,1058,-72.034,-0.347718
-546,-34,-72.1083,0.333984,0,0,0,0,0,0,0,-1,678,1058,-72.1083,-0.334014
-539,-34,-72.1866,0.363037,0,0,0,0,0,0,0,-1,685,1058,-72.1866,-0.363007
-532,-34,-72.3097,0.421509,0,0,0,0,0,0,0,-1,692,1058,-72.3097,-0.421536
-525,-34,0,0,0,0,0,0,0,0,0,-1,699,1058,0,0
-518,-34,0,0,0,0,0,0,0,0,0,-1,706,1058,0,0
-511,-34,0,0,0,0,0,0,0,0,0,-1,713,1058,0,0
-504,-34,0,0,0,0,0,0,0,0,0,-1,720,1058,0,0
-497,-34,0,0,0,0,0,0,0,0,0,-1,727,1058,0,0
-490,-34,0,0,0,0,0,0,0,0,0,-1,734,1058,0,0
-483,-34,0,0,0,0,0,0,0,0,0,-1,741,1058,0,0
-476,-34,0,0,0,0,0,0,0,0,0,-1,748,1058,0,0
-469,-34,0,0,0,0,0,0,0,0,0,-1,755,1058,0,0
-462,-34,0,0,0,0,0,0,0,0,0,-1,762,1058,0,0
-455,-34,0,0,0,0,0,0,0,0,0,-1,769,1058,0,0
-448,-34,0,0,0,0,0,0,0,0,0,-1,776,1058,0,0
-441,-34,0,0,0,0,0,0,0,0,0,-1,783,1058,0,0
-434,-34,0,0,0,0,0,0,0,0,0,-1,790,1058,0,0
-427,-34,0,0,0,0,0,0,0,0,0,-1,797,1058,0,0
-420,-34,0,0,0,0,0,0,0,0,0,-1,804,1058,0,0
-413,-34,0,0,0,0,0,0,0,0,0,-1,811,1058,0,0
-406,-34,0,0,0,0,0,0,0,0,0,-1,818,1058,0,0
-399,-34,0,0,0,0,0,0,0,0,0,-1,825,1058,0,0
-392,-34,0,0,0,0,0,0,0,0,0,-1,832,1058,0,0
-385,-34,0,0,0,0,0,0,0,0,0,-1,839,1058,0,0
-378,-34,0,0,0,0,0,0,0,0,0,-1,846,1058,0,0
-371,-34,0,0,0,0,0,0,0,0,0,-1,853,1058,0,0
-364,-34,0,0,0,0,0,0,0,0,0,-1,860,1058,0,0
-357,-34,0,0,0,0,0,0,0,0,0,-1,867,1058,0,0
-350,-34,0,0,0,0,0,0,0,0,0,-1,874,1058,0,0
-343,-34,0,0,0,0,0,0,0,0,0,-1,881,1058,0,0
-336,-34,0,0,0,0,0,0,0,0,0,-1,888,1058,0,0
-329,-34,0,0,0,0,0,0,0,0,0,-1,895,1058,0,0
-322,-34,0,0,0,0,0,0,0,0,0,-1,902,1058,0,0
-315,-34,0,0,0,0,0,0,0,0,0,-1,909,1058,0,0
-308,-34,0,0,0,0,0,0,0,0,0,-1,916,1058,0,0
-301,-34,0,0,0,0,0,0,0,0,0,-1,923,1058,0,0
-294,-34,0,0,0,0,0,0,0,0,0,-1,930,1058,0,0
-287,-34,0,0,0,0,0,0,0,0,0,-1,937,1058,0,0
-280,-34,0,0,0,0,0,0,0,0,0,-1,944,1058,0,0
-273,-34,0,0,0,0,0,0,0,0,0,-1,951,1058,0,0
-266,-34,0,0,0,0,0,0,0,0,0,-1,958,1058,0,0
-259,-34,0,0,0,0,0,0,0,0,0,-1,965,1058,0,0
-252,-34,0,0,0,0,0,0,0,0,0,-1,972,1058,0,0
-245,-34,0,0,0,0,0,0,0,0,0,-1,979,1058,0,0
-238,-34,0,0,0,0,0,0,0,0,0,-1,986,1058,0,0
-231,-34,0,0,0,0,0,0,0,0,0,-1,993,1058,0,0
-224,-34,0,0,0,0,0,0,0,0,0,-1,1000,1058,0,0
-217,-34,0,0,0,0,0,0,0,0,0,-1,1007,1058,0,0
-210,-34,0,0,0,0,0,0,0,0,0,-1,1014,1058,0,0
-203,-34,0,0,0,0,0,0,0,0,0,-1,1021,1058,0,0
-196,-34,0,0,0,0,0,0,0,0,0,-1,1028,1058,0,0
-189,-34,0,0,0,0,0,0,0,0,0,-1,1035,1058,0,0
-182,-34,0,0,0,0,0,0,0,0,0,-1,1042,1058,0,0
-175,-34,0,0,0,0,0,0,0,0,0,-1,1049,1058,0,0
-168,-34,0,0,0,0,0,0,0,0,0,-1,1056,1058,0,0
-161,-34,0,0,0,0,0,0,0,0,0,-1,1063,1058,0,0
-154,-34,0,0,0,0,0,0,0,0,0,-1,1070,1058,0,0
-147,-34,0,0,0,0,0,0,0,0,0,-1,1077,1058,0,0
-140,-34,0,0,0,0,0,0,0,0,0,-1,1084,1058,0,0
-133,-34,0,0,0,0,0,0,0,0,0,-1,1091,1058,0,0
-126,-34,0,0,0,0,0,0,0,0,0,-1,1098,1058,0,0
-119,-34,0,0,0,0,0,0,0,0,0,-1,1105,1058,0,0
-112,-34,0,0,0,0,0,0,0,0,0,-1,1112,1058,0,0
-105,-34,0,0,0,0,0,0,0,0,0,-1,1119,1058,0,0
-98,-34,0,0,0,0,0,0,0,0,0,-1,1126,1058,0,0
-91,-34,0,0,0,0,0,0,0,0,0,-1,1133,1058,0,0
-84,-34,0,0,0,0,0,0,0,0,0,-1,1140,1058,0,0
-77,-34,0,0,0,0,0,0,0,0,0,-1,1147,1058,0,0
-70,-34,0,0,0,0,0,0,0,0,0,-1,1154,1058,0,0
-63,-34,0,0,0,0,0,0,0,0,0,-1,1161,1058,0,0
-56,-34,0,0,0,0,0,0,0,0,0,-1,1168,1058,0,0
-49,-34,0,0,0,0,0,0,0,0,0,-1,1175,1058,0,0
-42,-34,0,0,0,0,0,0,0,0,0,-1,1182,1058,0,0
-35,-34,0,0,0,0,0,0,0,0,0,-1,1189,1058,0,0
-28,-34,0,0,0,0,0,0,0,0,0,-1,1196,1058,0,0
-21,-34,0,0,0,0,0,0,0,0,0,-1,1203,1058,0,0
-14,-34,0,0,0,0,0,0,0,0,0,-1,1210,1058,0,0
-7,-34,0,0,0,0,0,0,0,0,0,-1,1217,1058,0,0
0,-34,0,0,0,0,0,0,0,0,0,-1,1224,1058,0,0
7,-34,0,0,0,0,0,0,0,0,0,-1,1231,1058,0,0
14,-34,0,0,0,0,0,0,0,0,0,-1,1238,1058,0,0
21,-34,0,0,0,0,0,0,0,0,0,-1,1245,1058,0,0
28,-34,0,0,0,0,0,0,0,0,0,-1,1252,1058,0,0
35,-34,0,0,0,0,0,0,0,0,0,-1,1259,1058,0,0
42,-34,0,0,0,0,0,0,0,0,0,-1,1266,1058,0,0
49,-34,0,0,0,0,0,0,0,0,0,-1,1273,1058,0,0
56,-34,0,0,0,0,0,0,0,0,0,-1,1280,1058,0,0
63,-34,0,0,0,0,0,0,0,0,0,-1,1287,1058,0,0
70,-34,0,0,0,0,0,0,0,0,0,-1,1294,1058,0,0
77,-34,0,0,0,0,0,0,0,0,0,-1,1301,1058,0,0
84,-34,0,0,0,0,0,0,0,0,0,-1,1308,1058,0,0
91,-34,0,0,0,0,0,0,0,0,0,-1,1315,1058,0,0
98,-34,0,0,0,0,0,0,0,0,0,-1,1322,1058,0,0
105,-34,0,0,0,0,0,0,0,0,0,-1,1329,1058,0,0
112,-34,0,0,0,0,0,0,0,0,0,-1,1336,1058,0,0
119,-34,0,0,0,0,0,0,0,0,0,-1,1343,1058,0,0
126,-34,0,0,0,0,0,0,0,0,0,-1,1350,1058,0,0
133,-34,0,0,0,0,0,0,0,0,0,-1,1357,1058,0,0
140,-34,0,0,0,0,0,0,0,0,0,-1,1364,1058,0,0
147,-34,0,0,0,0,0,0,0,0,0,-1,1371,1058,0,0
154,-34,0,0,0,0,0,0,0,0,0,-1,1378,1058,0,0
161,-34,0,0,0,0,0,0,0,0,0,-1,1385,1058,0,0
168,-34,0,0,0,0,0,0,0,0,0,-1,1392,1058,0,0
175,-34,0,0,0,0,0,0,0,0,0,-1,1399,1058,0,0
182,-34,0,0,0,0,0,0,0,0,0,-1,1406,1058,0,0
189,-34,0,0,0,0,0,0,0,0,0,-1,1413,1058,0,0
196,-34,0,0,0,0,0,0,0,0,0,-1,1420,1058,0,0
203,-34,0,0,0,0,0,0,0,0,0,-1,1427,1058,0,0
210,-34,0,0,0,0,0,0,0,0,0,-1,1434,1058,0,0
217,-34,0,0,0,0,0,0,0,0,0,-1,1441,1058,0,0
224,-34,0,0,0,0,0,0,0,0,0,-1,1448,1058,0,0
231,-34,0,0,0,0,0,0,0,0,0,-1,1455,1058,0,0
238,-34,0,0,0,0,0,0,0,0,0,-1,1462,1058,0,0
245,-34,0,0,0,0,0,0,0,0,0,-1,1469,1058,0,0
252,-34,0,0,0,0,0,0,0,0,0,-1,1476,1058,0,0
259,-34,0,0,0,0,0,0,0,0,0,-1,1483,1058,0,0
266,-34,0,0,0,0,0,0,0,0,0,-1,1490,1058,0,0
273,-34,0,0,0,0,0,0,0,0,0,-1,1497,1058,0,0
280,-34,0,0,0,0,0,0,0,0,0,-1,1504,1058,0,0
287,-34,0,0,0,0,0,0,0,0,0,-1,1511,1058,0,0
294,-34,0,0,0,0,0,0,0,0,0,-1,1518,1058,0,0
301,-34,0,0,0,0,0,0,0,0,0,-1,1525,1058,0,0
308,-34,0,0,0,0,0,0,0,0,0,-1,1532,1058,0,0
315,-34,0,0,0,0,0,0,0,0,0,-1,1539,1058,0,0
322,-34,0,0,0,0,0,0,0,0,0,-1,1546,1058,0,0
329,-34,0,0,0,0,0,0,0,0,0,-1,1553,1058,0,0
336,-34,0,0,0,0,0,0,0,0,0,-1,1560,1058,0,0
343,-34,0,0,0,0,0,0,0,0,0,-1,1567,1058,0,0
350,-34,0,0,0,0,0,0,0,0,0,-1,1574,1058,0,0
357,-34,0,0,0,0,0,0,0,0,0,-1,1581,1058,0,0
364,-34,0,0,0,0,0,0,0,0,0,-1,1588,1058,0,0
371,-34,0,0,0,0,0,0,0,0,0,-1,1595,1058,0,0
378,-34,0,0,0,0,0,0,0,0,0,-1,1602,1058,0,0
385,-34,0,0,0,0,0,0,0,0,0,-1,1609,1058,0,0
392,-34,0,0,0,0,0,0,0,0,0,-1,1616,1058,0,0
399,-34,0,0,0,0,0,0,0,0,0,-1,1623,1058,0,0
406,-34,0,0,0,0,0,0,0,0,0,-1,1630,1058,0,0
413,-34,0,0,0,0,0,0,0,0,0,-1,1637,1058,0,0
420,-34,0,0,0,0,0,0,0,0,0,-1,1644,1058,0,0
427,-34,0,0,0,0,0,0,0,0,0,-1,1651,1058,0,0
434,-34,0,0,0,0,0,0,0,0,0,-1,1658,1058,0,0
441,-34,0,0,0,0,0,0,0,0,0,-1,1665,1058,0,0
448,-34,0,0,0,0,0,0,0,0,0,-1,1672,1058,0,0
455,-34,0,0,0,0,0,0,0,0,0,-1,1679,1058,0,0
462,-34,0,0,0,0,0,0,0,0,0,-1,1686,1058,0,0
469,-34,0,0,0,0,0,0,0,0,0,-1,1693,1058,0,0
476,-34,0,0,0,0,0,0,0,0,0,-1,1700,1058,0,0
483,-34,0,0,0,0,0,0,0,0,0,-1,1707,1058,0,0
490,-34,0,0,0,0,0,0,0,0,0,-1,1714,1058,0,0
497,-34,0,0,0,0,0,0,0,0,0,-1,1721,1058,0,0
504,-34,0,0,0,0,0,0,0,0,0,-1,1728,1058,0,0
511,-34,0,0,0,0,0,0,0,0,0,-1,1735,1058,0,0
518,-34,0,0,0,0,0,0,0,0,0,-1,1742,1058,0,0
525,-34,0,0,0,0,0,0,0,0,0,-1,1749,1058,0,0
532,-34,0,0,0,0,0,0,0,0,0,-1,1756,1058,0,0
539,-34,0,0,0,0,0,0,0,0,0,-1,1763,1058,0,0
546,-34,0,0,0,0,0,0,0,0,0,-1,1770,1058,0,0
553,-34,0,0,0,0,0,0,0,0,0,-1,1777,1058,0,0
560,-34,0,0,0,0,0,0,0,0,0,-1,1784,1058,0,0
567,-34,0,0,0,0,0,0,0,0,0,-1,1791,1058,0,0
574,-34,0,0,0,0,0,0,0,0,0,-1,1798,1058,0,0
581,-34,0,0,0,0,0,0,0,0,0,-1,1805,1058,0,0
588,-34,0,0,0,0,0,0,0,0,0,-1,1812,1058,0,0
595,-34,0,0,0,0,0,0,0,0,0,-1,1819,1058,0,0
602,-34,0,0,0,0,0,0,0,0,0,-1,1826,1058,0,0
609,-34,0,0,0,0,0,0,0,0,0,-1,1833,1058,0,0
616,-34,0,0,0,0,0,0,0,0,0,-1,1840,1058,0,0
623,-34,0,0,0,0,0,0,0,0,0,-1,1847,1058,0,0
630,-34,0,0,0,0,0,0,0,0,0,-1,1854,1058,0,0
637,-34,0,0,0,0,0,0,0,0,0,-1,1861,1058,0,0
644,-34,0,0,0,0,0,0,0,0,0,-1,1868,1058,0,0
651,-34,235.515,8.72449,0,0,0,0,0,0,0,-1,1875,1058,235.515,-8.72446
658,-34,235.517,8.64026,0,0,0,0,0,0,0,-1,1882,1058,235.517,-8.64026
665,-34,235.643,8.48096,0,0,0,0,0,0,0,-1,1889,1058,235.643,-8.48096
672,-34,235.623,8.49023,0,0,0,0,0,0,0,-1,1896,1058,235.623,-8.49028
679,-34,235.607,8.57446,0,0,0,0,0,0,0,-1,1903,1058,235.607,-8.57445
686,-34,235.631,8.39319,0,0,0,0,0,0,0,-1,1910,1058,235.631,-8.39318
693,-34,235.616,8.53357,0,0,0,0,0,0,0,-1,1917,1058,235.617,-8.53362
700,-34,235.465,8.67896,0,0,0,0,0,0,0,-1,1924,1058,235.465,-8.67891
707,-34,235.384,8.62561,0,0,0,0,0,0,0,-1,1931,1058,235.384,-8.62557
714,-34,235.452,8.66284,0,0,0,0,0,0,0,-1,1938,1058,235.452,-8.66286
721,-34,235.367,8.63867,0,0,0,0,0,0,0,-1,1945,1058,235.367,-8.63862
728,-34,241.886,31.7255,0,0,0,0,0,0,0,-1,1952,1058,241.886,-31.7255
735,-34,241.736,31.8607,-0.0180365,0.000976022,0.00132259,0.00106759,-0.018128,1.50168,0.0124565,0.0308285,1959,1058,241.736,-31.8607
742,-34,241.597,31.8741,-0.0187238,0.00886623,0.00161237,0.00896014,-0.0188177,1.51262,0.0163707,0.0222904,1966,1058,241.597,-31.8742
749,-34,241.532,31.8644,-0.0196391,0.0168207,0.00203664,0.0169341,-0.0197525,1.51517,0.0212018,0.0232663,1973,1058,241.532,-31.8644
756,-34,241.433,31.8229,-0.0207166,0.0248327,0.00256709,0.0249769,-0.0208608,1.51467,0.0264999,0.0192948,1980,1058,241.433,-31.8228
763,-34,241.241,31.8551,-0.0218879,0.0328976,0.0031723,0.0330807,-0.0220709,1.51315,0.0320526,0.0183751,1987,1058,241.241,-31.8552
770,-34,241.03,31.9349,-0.0230829,0.0410135,0.00381734,0.0412401,-0.0233094,1.51152,0.0377439,0.025272,1994,1058,241.03,-31.9349
777,-34,240.827,32.0831,-0.0242304,0.0491815,0.00446326,0.0494518,-0.0245008,1.5103,0.0434991,0.0312841,2001,1058,240.827,-32.0832
784,-34,240.669,32.1824,0,0,0,0,0,0,0,-1,2008,1058,240.669,-32.1824
791,-34,159.261,24.1865,0,0,0,0,0,0,0,-1,2015,1058,159.261,-24.1865
798,-34,121.588,12.5922,0,0,0,0,0,0,0,-1,2022,1058,121.588,-12.5921
805,-34,125.464,13.6713,0,0,0,0,0,0,0,-1,2029,1058,125.464,-13.6713
812,-34,120.777,11.1539,0,0,0,0,0,0,0,-1,2036,1058,120.777,-11.154
-700,-41,-89.518,-1.90662,0,0,0,0,0,0,0,-1,524,1065,-89.5181,1.90658
-693,-41,-89.1671,9.85364,0,0,0,0,0,0,0,-1,531,1065,-89.167,-9.85359
-686,-41,-89.8336,9.96179,0,0,0,0,0,0,0,-1,538,1065,-89.8336,-9.96181
-679,-41,-89.9981,10.0525,0,0,0,0,0,0,0,-1,545,1065,-89.9981,-10.0525
-672,-41,-87.9003,9.43982,0,0,0,0,0,0,0,-1,552,1065,-87.9003,-9.43984
-665,-41,-100.841,12.2817,0,0,0,0,0,0,0,-1,559,1065,-100.841,-12.2818
-658,-41,-233.746,30.553,0,0,0,0,0,0,0,-1,566,1065,-233.746,-30.553
-651,-41,-233.897,30.8542,-0.0283565,0.0693906,0.00454244,0.0696013,-0.0285671,1.52446,0.0583046,0.0387792,573,1065,-233.897,-30.8543
-644,-41,-234.09,31.106,-0.0228356,0.0591132,0.0037031,0.0592802,-0.0230026,1.52573,0.0490209,0.024616,580,1065,-234.09,-31.106
-637,-41,-234.257,31.2163,-0.0178307,0.0495672,0.00307086,0.0497068,-0.0179704,1.52536,0.0404802,0.0274826,587,1065,-234.257,-31.2163
-630,-41,-234.275,31.2737,-0.0130169,0.0402753,0.00250931,0.0403932,-0.0131348,1.52385,0.0322124,0.0201958,594,1065,-234.275,-31.2736
-623,-41,-234.248,31.3168,-0.00839079,0.0312169,0.0020037,0.031318,-0.00849189,1.52038,0.0242109,0.0192359,601,1065,-234.248,-31.3167
-616,-41,-234.327,31.4554,-0.00394897,0.0223756,0.00154269,0.0224657,-0.00403907,1.51246,0.0164892,0.0276069,608,1065,-234.327,-31.4554
-609,-41,-234.289,31.4757,0.000311377,0.0137396,0.00111807,0.013832,0.000218919,1.48829,0.00914926,0.0277399,615,1065,-234.289,-31.4757
-602,-41,-234.362,31.5123,0.00439271,0.00530163,0.000724703,0.00570258,0.00399176,1.06545,0.00337904,0.0192375,622,1065,-234.362,-31.5124
-595,-41,-234.487,31.5388,0,0,0,0,0,0,0,-1,629,1065,-234.487,-31.5388
-588,-41,-232.843,32.0277,0,0,0,0,0,0,0,-1,636,1065,-232.843,-32.0276
-581,-41,-72.1207,0.19458,0,0,0,0,0,0,0,-1,643,1065,-72.1207,-0.194633
-574,-41,-72.1909,0.302856,0,0,0,0,0,0,0,-1,650,1065,-72.1909,-0.302903
-567,-41,-72.1972,0.48999,0,0,0,0,0,0,0,-1,657,1065,-72.1972,-0.490016
-560,-41,-72.1502,0.519897,0,0,0,0,0,0,0,-1,664,1065,-72.1502,-0.519944
-553,-41,-72.0277,0.413452,0,0,0,0,0,0,0,-1,671,1065,-72.0277,-0.413458
-546,-41,-72.038,0.488159,0,0,0,0,0,0,0,-1,678,1065,-72.038,-0.488107
-539,-41,-72.1121,0.595093,0,0,0,0,0,0,0,-1,685,1065,-72.112,-0.595043
-532,-41,-72.0419,0.654419,0,0,0,0,0,0,0,-1,692,1065,-72.0419,-0.654407
-525,-41,0,0,0,0,0,0,0,0,0,-1,699,1065,0,0
-518,-41,0,0,0,0,0,0,0,0,0,-1,706,1065,0,0
-511,-41,0,0,0,0,0,0,0,0,0,-1,713,1065,0,0
-504,-41,0,0,0,0,0,0,0,0,0,-1,720,1065,0,0
-497,-41,0,0,0,0,0,0,0,0,0,-1,727,1065,0,0
-490,-41,0,0,0,0,0,0,0,0,0,-1,734,1065,0,0
-483,-41,0,0,0,0,0,0,0,0,0,-1,741,1065,0,0
-476,-41,0,0,0,0,0,0,0,0,0,-1,748,1065,0,0
-469,-41,0,0,0,0,0,0,0,0,0,-1,755,1065,0,0
-462,-41,0,0,0,0,0,0,0,0,0,-1,762,1065,0,0
-455,-41,0,0,0,0,0,0,0,0,0,-1,769,1065,0,0
-448,-41,0,0,0,0,0,0,0,0,0,-1,776,1065,0,0
-441,-41,0,0,0,0,0,0,0,0,0,-1,783,1065,0,0
-434,-41,0,0,0,0,0,0,0,0,0,-1,790,1065,0,0
-427,-41,0,0,0,0,0,0,0,0,0,-1,797,1065,0,0
-420,-41,0,0,0,0,0,0,0,0,0,-1,804,1065,0,0
-413,-41,0,0,0,0,0,0,0,0,0,-1,811,1065,0,0
-406,-41,0,0,0,0,0,0,0,0,0,-1,818,1065,0,0
-399,-41,0,0,0,0,0,0,0,0,0,-1,825,1065,0,0
-392,-41,0,0,0,0,0,0,0,0,0,-1,832,1065,0,0
-385,-41,0,0,0,0,0,0,0,0,0,-1,839,1065,0,0
-378,-41,0,0,0,0,0,0,0,0,0,-1,846,1065,0,0
-371,-41,0,0,0,0,0,0,0,0,0,-1,853,1065,0,0
-364,-41,0,0,0,0,0,0,0,0,0,-1,860,1065,0,0
-357,-41,0,0,0,0,0,0,0,0,0,-1,867,1065,0,0
-350,-41,0,0,0,0,0,0,0,0,0,-1,874,1065,0,0
-343,-41,0,0,0,0,0,0,0,0,0,-1,881,1065,0,0
-336,-41,0,0,0,0,0,0,0,0,0,-1,888,1065,0,0
-329,-41,0,0,0,0,0,0,0,0,0,-1,895,1065,0,0
-322,-41,0,0,0,0,0,0,0,0,0,-1,902,1065,0,0
-315,-41,0,0,0,0,0,0,0,0,0,-1,909,1065,0,0
-308,-41,0,0,0,0,0,0,0,0,0,-1,916,1065,0,0
-301,-41,0,0,0,0,0,0,0,0,0,-1,923,1065,0,0
-294,-41,0,0,0,0,0,0,0,0,0,-1,930,1065,0,0
-287,-41,0,0,0,0,0,0,0,0,0,-1,937,1065,0,0
-280,-41,0,0,0,0,0,0,0,0,0,-1,944,1065,0,0
-273,-41,0,0,0,0,0,0,0,0,0,-1,951,1065,0,0
-266,-41,0,0,0,0,0,0,0,0,0,-1,958,1065,0,0
-259,-41,0,0,0,0,0,0,0,0,0,-1,965,1065,0,0
-252,-41,0,0,0,0,0,0,0,0,0,-1,972,1065,0,0
-245,-41,0,0,0,0,0,0,0,0,0,-1,979,1065,0,0
-238,-41,0,0,0,0,0,0,0,0,0,-1,986,1065,0,0
-231,-41,0,0,0,0,0,0,0,0,0,-1,993,1065,0,0
-224,-41,0,0,0,0,0,0,0,0,0,-1,1000,1065,0,0
-217,-41,0,0,0,0,0,0,0,0,0,-1,1007,1065,0,0
-210,-41,0,0,0,0,0,0,0,0,0,-1,1014,1065,0,0
-203,-41,0,0,0,0,0,0,0,0,0,-1,1021,1065,0,0
-196,-41,0,0,0,0,0,0,0,0,0,-1,1028,1065,0,0
-189,-41,0,0,0,0,0,0,0,0,0,-1,1035,1065,0,0
-182,-41,0,0,0,0,0,0,0,0,0,-1,1042,1065,0,0
-175,-41,0,0,0,0,0,0,0,0,0,-1,1049,1065,0,0
-168,-41,0,0,0,0,0,0,0,0,0,-1,1056,1065,0,0
-161,-41,0,0,0,0,0,0,0,0,0,-1,1063,1065,0,0
-154,-41,0,0,0,0,0,0,0,0,0,-1,1070,1065,0,0
-147,-41,0,0,0,0,0,0,0,0,0,-1,1077,1065,0,0
-140,-41,0,0,0,0,0,0,0,0,0,-1,1084,1065,0,0
-133,-41,0,0,0,0,0,0,0,0,0,-1,1091,1065,0,0
-126,-41,0,0,0,0,0,0,0,0,0,-1,1098,1065,0,0
-119,-41,0,0,0,0,0,0,0,0,0,-1,1105,1065,0,0
-112,-41,0,0,0,0,0,0,0,0,0,-1,1112,1065,0,0
-105,-41,0,0,0,0,0,0,0,0,0,-1,1119,1065,0,0
-98,-41,0,0,0,0,0,0,0,0,0,-1,1126,1065,0,0
-91,-41,0,0,0,0,0,0,0,0,0,-1,1133,1065,0,0
-84,-41,0,0,0,0,0,0,0,0,0,-1,1140,1065,0,0
-77,-41,0,0,0,0,0,0,0,0,0,-1,1147,1065,0,0
-70,-41,0,0,0,0,0,0,0,0,0,-1,1154,1065,0,0
-63,-41,0,0,0,0,0,0,0,0,0,-1,1161,1065,0,0
-56,-41,0,0,0,0,0,0,0,0,0,-1,1168,1065,0,0
-49,-41,0,0,0,0,0,0,0,0,0,-1,1175,1065,0,0
-42,-41,0,0,0,0,0,0,0,0,0,-1,1182,1065,0,0
-35,-41,0,0,0,0,0,0,0,0,0,-1,1189,1065,0,0
-28,-41,0,0,0,0,0,0,0,0,0,-1,1196,1065,0,0
-21,-41,0,0,0,0,0,0,0,0,0,-1,1203,1065,0,0
-14,-41,0,0,0,0,0,0,0,0,0,-1,1210,1065,0,0
-7,-41,0,0,0,0,0,0,0,0,0,-1,1217,1065,0,0
0,-41,0,0,0,0,0,0,0,0,0,-1,1224,1065,0,0
7,-41,0,0,0,0,0,0,0,0,0,-1,1231,1065,0,0
14,-41,0,0,0,0,0,0,0,0,0,-1,1238,1065,0,0
21,-41,0,0,0,0,0,0,0,0,0,-1,1245,1065,0,0
28,-41,0,0,0,0,0,0,0,0,0,-1,1252,1065,0,0
35,-41,0,0,0,0,0,0,0,0,0,-1,1259,1065,0,0
42,-41,0,0,0,0,0,0,0,0,0,-1,1266,1065,0,0
49,-41,0,0,0,0,0,0,0,0,0,-1,1273,1065,0,0
56,-41,0,0,0,0,0,0,0,0,0,-1,1280,1065,0,0
63,-41,0,0,0,0,0,0,0,0,0,-1,1287,1065,0,0
70,-41,0,0,0,0,0,0,0,0,0,-1,1294,1065,0,0
77,-41,0,0,0,0,0,0,0,0,0,-1,1301,1065,0,0
84,-41,0,0,0,0,0,0,0,0,0,-1,1308,1065,0,0
91,-41,0,0,0,0,0,0,0,0,0,-1,1315,1065,0,0
98,-41,0,0,0,0,0,0,0,0,0,-1,1322,1065,0,0
105,-41,0,0,0,0,0,0,0,0,0,-1,1329,1065,0,0
112,-41,0,0,0,0,0,0,0,0,0,-1,1336,1065,0,0
119,-41,0,0,0,0,0,0,0,0,0,-1,1343,1065,0,0
126,-41,0,0,0,0,0,0,0,0,0,-1,1350,1065,0,0
133,-41,0,0,0,0,0,0,0,0,0,-1,1357,1065,0,0
140,-41,0,0,0,0,0,0,0,0,0,-1,1364,1065,0,0
147,-41,0,0,0,0,0,0,0,0,0,-1,1371,1065,0,0
154,-41,0,0,0,0,0,0,0,0,0,-1,1378,1065,0,0
161,-41,0,0,0,0,0,0,0,0,0,-1,1385,1065,0,0
168,-41,0,0,0,0,0,0,0,0,0,-1,1392,1065,0,0
175,-41,0,0,0,0,0,0,0,0,0,-1,1399,1065,0,0
182,-41,0,0,0,0,0,0,0,0,0,-1,1406,1065,0,0
189,-41,0,0,0,0,0,0,0,0,0,-1,1413,1065,0,0
196,-41,0,0,0,0,0,0,0,0,0,-1,1420,1065,0,0
203,-41,0,0,0,0,0,0,0,0,0,-1,1427,1065,0,0
210,-41,0,0,0,0,0,0,0,0,0,-1,1434,1065,0,0
217,-41,0,0,0,0,0,0,0,0,0,-1,1441,1065,0,0
224,-41,0,0,0,0,0,0,0,0,0,-1,1448,1065,0,0
231,-41,0,0,0,0,0,0,0,0,0,-1,1455,1065,0,0
238,-41,0,0,0,0,0,0,0,0,0,-1,1462,1065,0,0
245,-41,0,0,0,0,0,0,0,0,0,-1,1469,1065,0,0
252,-41,0,0,0,0,0,0,0,0,0,-1,1476,1065,0,0
259,-41,0,0,0,0,0,0,0,0,0,-1,1483,1065,0,0
266,-41,0,0,0,0,0,0,0,0,0,-1,1490,1065,0,0
273,-41,0,0,0,0,0,0,0,0,0,-1,1497,1065,0,0
280,-41,0,0,0,0,0,0,0,0,0,-1,1504,1065,0,0
287,-41,0,0,0,0,0,0,0,0,0,-1,1511,1065,0,0
294,-41,0,0,0,0,0,0,0,0,0,-1,1518,1065,0,0
301,-41,0,0,0,0,0,0,0,0,0,-1,1525,1065,0,0
308,-41,0,0,0,0,0,0,0,0,0,-1,1532,1065,0,0
315,-41,0,0,0,0,0,0,0,0,0,-1,1539,1065,0,0
322,-41,0,0,0,0,0,0,0,0,0,-1,1546,1065,0,0
329,-41,0,0,0,0,0,0,0,0,0,-1,1553,1065,0,0
336,-41,0,0,0,0,0,0,0,0,0,-1,1560,1065,0,0
343,-41,0,0,0,0,0,0,0,0,0,-1,1567,1065,0,0
350,-41,0,0,0,0,0,0,0,0,0,-1,1574,1065,0,0
357,-41,0,0,0,0,0,0,0,0,0,-1,1581,1065,0,0
364,-41,0,0,0,0,0,0,0,0,0,-1,1588,1065,0,0
371,-41,0,0,0,0,0,0,0,0,0,-1,1595,1065,0,0
378,-41,0,0,0,0,0,0,0,0,0,-1,1602,1065,0,0
385,-41,0,0,0,0,0,0,0,0,0,-1,1609,1065,0,0
392,-41,0,0,0,0,0,0,0,0,0,-1,1616,1065,0,0
399,-41,0,0,0,0,0,0,0,0,0,-1,1623,1065,0,0
406,-41,0,0,0,0,0,0,0,0,0,-1,1630,1065,0,0
413,-41,0,0,0,0,0,0,0,0,0,-1,1637,1065,0,0
420,-41,0,0,0,0,0,0,0,0,0,-1,1644,1065,0,0
427,-41,0,0,0,0,0,0,0,0,0,-1,1651,1065,0,0
434,-41,0,0,0,0,0,0,0,0,0,-1,1658,1065,0,0
441,-41,0,0,0,0,0,0,0,0,0,-1,1665,1065,0,0
448,-41,0,0,0,0,0,0,0,0,0,-1,1672,1065,0,0
455,-41,0,0,0,0,0,0,0,0,0,-1,1679,1065,0,0
462,-41,0,0,0,0,0,0,0,0,0,-1,1686,1065,0,0
469,-41,0,0,0,0,0,0,0,0,0,-1,1693,1065,0,0
476,-41,0,0,0,0,0,0,0,0,0,-1,1700,1065,0,0
483,-41,0,0,0,0,0,0,0,0,0,-1,1707,1065,0,0
490,-41,0,0,0,0,0,0,0,0,0,-1,1714,1065,0,0
497,-41,0,0,0,0,0,0,0,0,0,-1,1721,1065,0,0
504,-41,0,0,0,0,0,0,0,0,0,-1,1728,1065,0,0
511,-41,0,0,0,0,0,0,0,0,0,-1,1735,1065,0,0
518,-41,0,0,0,0,0,0,0,0,0,-1,1742,1065,0,0
525,-41,0,0,0,0,0,0,0,0,0,-1,1749,1065,0,0
532,-41,0,0,0,0,0,0,0,0,0,-1,1756,1065,0,0
539,-41,0,0,0,0,0,0,0,0,0,-1,1763,1065,0,0
546,-41,0,0,0,0,0,0,0,0,0,-1,1770,1065,0,0
553,-41,0,0,0,0,0,0,0,0,0,-1,1777,1065,0,0
560,-41,0,0,0,0,0,0,0,0,0,-1,1784,1065,0,0
567,-41,0,0,0,0,0,0,0,0,0,-1,1791,1065,0,0
574,-41,0,0,0,0,0,0,0,0,0,-1,1798,1065,0,0
581,-41,0,0,0,0,0,0,0,0,0,-1,1805,1065,0,0
588,-41,0,0,0,0,0,0,0,0,0,-1,1812,1065,0,0
595,-41,0,0,0,0,0,0,0,0,0,-1,1819,1065,0,0
602,-41,0,0,0,0,0,0,0,0,0,-1,1826,1065,0,0
609,-41,0,0,0,0,0,0,0,0,0,-1,1833,1065,0,0
616,-41,0,0,0,0,0,0,0,0,0,-1,1840,1065,0,0
623,-41,0,0,0,0,0,0,0,0,0,-1,1847,1065,0,0
630,-41,0,0,0,0,0,0,0,0,0,-1,1854,1065,0,0
637,-41,0,0,0,0,0,0,0,0,0,-1,1861,1065,0,0
644,-41,0,0,0,0,0,0,0,0,0,-1,1868,1065,0,0
651,-41,235.451,8.73657,0,0,0,0,0,0,0,-1,1875,1065,235.451,-8.73657
658,-41,235.408,8.81396,0,0,0,0,0,0,0,-1,1882,1065,235.408,-8.81394
665,-41,235.57,8.57434,0,0,0,0,0,0,0,-1,1889,1065,235.57,-8.57429
672,-41,235.543,8.51208,0,0,0,0,0,0,0,-1,1896,1065,235.543,-8.51204
679,-41,235.472,8.59924,0,0,0,0,0,0,0,-1,1903,1065,235.472,-8.59922
686,-41,235.572,8.4895,0,0,0,0,0,0,0,-1,1910,1065,235.572,-8.48956
693,-41,235.648,8.4292,0,0,0,0,0,0,0,-1,1917,1065,235.648,-8.4292
700,-41,235.467,8.54028,0,0,0,0,0,0,0,-1,1924,1065,235.467,-8.54034
707,-41,235.403,8.604,0,0,0,0,0,0,0,-1,1931,1065,235.403,-8.60396
714,-41,235.467,8.70093,0,0,0,0,0,0,0,-1,1938,1065,235.467,-8.70091
721,-41,235.496,8.72217,0,0,0,0,0,0,0,-1,1945,1065,235.496,-8.72223
728,-41,242.073,31.6892,0,0,0,0,0,0,0,-1,1952,1065,242.073,-31.6892
735,-41,241.763,31.7118,-0.0167408,-0.000348662,0.00266494,7.37067e-05,-0.0171631,1.41361,0.0114667,0.0417275,1959,1065,241.763,-31.7118
742,-41,241.532,31.6766,-0.0177721,0.00783715,0.00279001,0.00813759,-0.0180725,1.46353,0.0154905,0.0262809,1966,1065,241.533,-31.6766
749,-41,241.436,31.7502,-0.0190143,0.0160386,0.0030374,0.0162998,-0.0192756,1.485,0.0205634,0.0242825,1973,1065,241.436,-31.7502
756,-41,241.38,31.7683,-0.0204097,0.0242566,0.00337966,0.0245108,-0.020664,1.4957,0.0261132,0.0225529,1980,1065,241.38,-31.7684
763,-41,241.222,31.6567,-0.0218948,0.0324926,0.00378633,0.0327549,-0.0221572,1.50162,0.0318997,0.0200714,1987,1065,241.222,-31.6567
770,-41,240.983,31.6093,-0.0234007,0.0407496,0.0042233,0.0410264,-0.0236776,1.50534,0.0378018,0.025183,1994,1065,240.983,-31.6093
777,-41,240.767,31.5868,-0.0248539,0.0490327,0.00465217,0.0493244,-0.0251456,1.50816,0.0437442,0.0281348,2001,1065,240.767,-31.5868
784,-41,240.595,31.5149,-0.026177,0.0573495,0.00502979,0.0576513,-0.0264788,1.51087,0.0496715,0.0431615,2008,1065,240.595,-31.5149
791,-41,240.512,31.4506,0,0,0,0,0,0,0,-1,2015,1065,240.512,-31.4505
798,-41,144.406,18.5679,0,0,0,0,0,0,0,-1,2022,1065,144.406,-18.5679
805,-41,143.496,17.1398,0,0,0,0,0,0,0,-1,2029,1065,143.496,-17.1397
812,-41,130.787,15.5538,0,0,0,0,0,0,0,-1,2036,1065,130.787,-15.5539
-700,-48,-88.5808,-1.61304,0,0,0,0,0,0,0,-1,524,1072,-88.5808,1.61309
-693,-48,-89.1802,8.5564,0,0,0,0,0,0,0,-1,531,1072,-89.1802,-8.55644
-686,-48,-89.7466,8.80872,0,0,0,0,0,0,0,-1,538,1072,-89.7466,-8.80872
-679,-48,-90.313,9.06104,0,0,0,0,0,0,0,-1,545,1072,-90.313,-9.06099
-672,-48,-85.5398,3.31128,0,0,0,0,0,0,0,-1,552,1072,-85.5398,-3.31128
-665,-48,-84.2753,4.37109,0,0,0,0,0,0,0,-1,559,1072,-84.2753,-4.37112
-658,-48,-98.2539,10.8611,0,0,0,0,0,0,0,-1,566,1072,-98.2539,-10.8611
-651,-48,-233.604,30.5941,0,0,0,0,0,0,0,-1,573,1072,-233.604,-30.5942
-644,-48,-233.894,30.8256,-0.022715,0.0599711,0.00342717,0.0601129,-0.0228568,1.52944,0.0494862,0.0324491,580,1072,-233.894,-30.8255
-637,-48,-234.134,30.7595,-0.017983,0.0502848,0.00279113,0.0503987,-0.0180969,1.53,0.0409856,0.0322903,587,1072,-234.134,-30.7595
-630,-48,-234.294,30.9772,-0.0134629,0.0409081,0.00224432,0.0410005,-0.0135553,1.52961,0.0327995,0.034664,594,1072,-234.294,-30.9772
-623,-48,-234.367,31.0803,-0.00915046,0.0318112,0.0017662,0.0318872,-0.00922648,1.52778,0.0249098,0.0202699,601,1072,-234.367,-31.0803
-616,-48,-234.335,31.2059,-0.00504225,0.0229702,0.0013397,0.0230341,-0.00510618,1.52312,0.017311,0.0185499,608,1072,-234.335,-31.2059
-609,-48,-234.23,31.4352,-0.00113521,0.0143672,0.000950854,0.0144253,-0.00119331,1.50977,0.0100383,0.018364,615,1072,-234.23,-31.4352
-602,-48,-234.272,31.4857,0.00257304,0.00599018,0.000588697,0.00608876,0.00247446,1.40489,0.00353582,0.0186327,622,1072,-234.272,-31.4857
-595,-48,-234.241,31.5162,0,0,0,0,0,0,0,-1,629,1072,-234.241,-31.5162
-588,-48,-232.53,31.8658,0,0,0,0,0,0,0,-1,636,1072,-232.53,-31.8658
-581,-48,-72.1721,0.0887451,0,0,0,0,0,0,0,-1,643,1072,-72.172,-0.0887806
-574,-48,-72.2043,0.252686,0,0,0,0,0,0,0,-1,650,1072,-72.2043,-0.25272
-567,-48,-72.2415,0.488281,0,0,0,0,0,0,0,-1,657,1072,-72.2414,-0.488321
-560,-48,-72.2725,0.536499,0,0,0,0,0,0,0,-1,664,1072,-72.2725,-0.536524
-553,-48,-72.2182,0.4552,0,0,0,0,0,0,0,-1,671,1072,-72.2182,-0.45517
-546,-48,-72.1917,0.478149,0,0,0,0,0,0,0,-1,678,1072,-72.1916,-0.478111
-539,-48,-72.183,0.666382,0,0,0,0,0,0,0,-1,685,1072,-72.183,-0.66641
-532,-48,-72.2211,0.694214,0,0,0,0,0,0,0,-1,692,1072,-72.2211,-0.694174
-525,-48,0,0,0,0,0,0,0,0,0,-1,699,1072,0,0
-518,-48,0,0,0,0,0,0,0,0,0,-1,706,1072,0,0
-511,-48,0,0,0,0,0,0,0,0,0,-1,713,1072,0,0
-504,-48,0,0,0,0,0,0,0,0,0,-1,720,1072,0,0
-497,-48,0,0,0,0,0,0,0,0,0,-1,727,1072,0,0
-490,-48,0,0,0,0,0,0,0,0,0,-1,734,1072,0,0
-483,-48,0,0,0,0,0,0,0,0,0,-1,741,1072,0,0
-476,-48,0,0,0,0,0,0,0,0,0,-1,748,1072,0,0
-469,-48,0,0,0,0,0,0,0,0,0,-1,755,1072,0,0
-462,-48,0,0,0,0,0,0,0,0,0,-1,762,1072,0,0
-455,-48,0,0,0,0,0,0,0,0,0,-1,769,1072,0,0
-448,-48,0,0,0,0,0,0,0,0,0,-1,776,1072,0,0
-441,-48,0,0,0,0,0,0,0,0,0,-1,783,1072,0,0
-434,-48,0,0,0,0,0,0,0,0,0,-1,790,1072,0,0
-427,-48,0,0,0,0,0,0,0,0,0,-1,797,1072,0,0
-420,-48,0,0,0,0,0,0,0,0,0,-1,804,1072,0,0
-413,-48,0,0,0,0,0,0,0,0,0,-1,811,1072,0,0
-406,-48,0,0,0,0,0,0,0,0,0,-1,818,1072,0,0
-399,-48,0,0,0,0,0,0,0,0,0,-1,825,1072,0,0
-392,-48,0,0,0,0,0,0,0,0,0,-1,832,1072,0,0
-385,-48,0,0,0,0,0,0,0,0,0,-1,839,1072,0,0
-378,-48,0,0,0,0,0,0,0,0,0,-1,846,1072,0,0
-371,-48,0,0,0,0,0,0,0,0,0,-1,853,1072,0,0
-364,-48,0,0,0,0,0,0,0,0,0,-1,860,1072,0,0
-357,-48,0,0,0,0,0,0,0,0,0,-1,867,1072,0,0
-350,-48,0,0,0,0,0,0,0,0,0,-1,874,1072,0,0
-343,-48,0,0,0,0,0,0,0,0,0,-1,881,1072,0,0
-336,-48,0,0,0,0,0,0,0,0,0,-1,888,1072,0,0
-329,-48,0,0,0,0,0,0,0,0,0,-1,895,1072,0,0
-322,-48,0,0,0,0,0,0,0,0,0,-1,902,1072,0,0
-315,-48,0,0,0,0,0,0,0,0,0,-1,909,1072,0,0
-308,-48,0,0,0,0,0,0,0,0,0,-1,916,1072,0,0
-301,-48,0,0,0,0,0,0,0,0,0,-1,923,1072,0,0
-294,-48,0,0,0,0,0,0,0,0,0,-1,930,1072,0,0
-287,-48,0,0,0,0,0,0,0,0,0,-1,937,1072,0,0
-280,-48,0,0,0,0,0,0,0,0,0,-1,944,1072,0,0
-273,-48,0,0,0,0,0,0,0,0,0,-1,951,1072,0,0
-266,-48,0,0,0,0,0,0,0,0,0,-1,958,1072,0,0
-259,-48,0,0,0,0,0,0,0,0,0,-1,965,1072,0,0
-252,-48,0,0,0,0,0,0,0,0,0,-1,972,1072,0,0
-245,-48,0,0,0,0,0,0,0,0,0,-1,979,1072,0,0
-238,-48,0,0,0,0,0,0,0,0,0,-1,986,1072,0,0
-231,-48,0,0,0,0,0,0,0,0,0,-1,993,1072,0,0
-224,-48,0,0,0,0,0,0,0,0,0,-1,1000,1072,0,0
-217,-48,0,0,0,0,0,0,0,0,0,-1,1007,1072,0,0
-210,-48,0,0,0,0,0,0,0,0,0,-1,1014,1072,0,0
-203,-48,0,0,0,0,0,0,0,0,0,-1,1021,1072,0,0
-196,-48,0,0,0,0,0,0,0,0,0,-1,1028,1072,0,0
-189,-48,0,0,0,0,0,0,0,0,0,-1,1035,1072,0,0
-182,-48,0,0,0,0,0,0,0,0,0,-1,1042,1072,0,0
-175,-48,0,0,0,0,0,0,0,0,0,-1,1049,1072,0,0
-168,-48,0,0,0,0,0,0,0,0,0,-1,1056,1072,0,0
-161,-48,0,0,0,0,0,0,0,0,0,-1,1063,1072,0,0
-154,-48,0,0,0,0,0,0,0,0,0,-1,1070,1072,0,0
-147,-48,0,0,0,0,0,0,0,0,0,-1,1077,1072,0,0
-140,-48,0,0,0,0,0,0,0,0,0,-1,1084,1072,0,0
-133,-48,0,0,0,0,0,0,0,0,0,-1,1091,1072,0,0
-126,-48,0,0,0,0,0,0,0,0,0,-1,1098,1072,0,0
-119,-48,0,0,0,0,0,0,0,0,0,-1,1105,1072,0,0
-112,-48,0,0,0,0,0,0,0,0,0,-1,1112,1072,0,0
-105,-48,0,0,0,0,0,0,0,0,0,-1,1119,1072,0,0
-98,-48,0,0,0,0,0,0,0,0,0,-1,1126,1072,0,0
-91,-48,0,0,0,0,0,0,0,0,0,-1,1133,1072,0,0
-84,-48,0,0,0,0,0,0,0,0,0,-1,1140,1072,0,0
-77,-48,0,0,0,0,0,0,0,0,0,-1,1147,1072,0,0
-70,-48,0,0,0,0,0,0,0,0,0,-1,1154,1072,0,0
-63,-48,0,0,0,0,0,0,0,0,0,-1,1161,1072,0,0
-56,-48,0,0,0,0,0,0,0,0,0,-1,1168,1072,0,0
-49,-48,0,0,0,0,0,0,0,0,0,-1,1175,1072,0,0
-42,-48,0,0,0,0,0,0,0,0,0,-1,1182,1072,0,0
-35,-48,0,0,0,0,0,0,0,0,0,-1,1189,1072,0,0
-28,-48,0,0,0,0,0,0,0,0,0,-1,1196,1072,0,0
-21,-48,0,0,0,0,0,0,0,0,0,-1,1203,1072,0,0
-14,-48,0,0,0,0,0,0,0,0,0,-1,1210,1072,0,0
-7,-48,0,0,0,0,0,0,0,0,0,-1,1217,1072,0,0
0,-48,0,0,0,0,0,0,0,0,0,-1,1224,1072,0,0
7,-48,0,0,0,0,0,0,0,0,0,-1,1231,1072,0,0
14,-48,0,0,0,0,0,0,0,0,0,-1,1238,1072,0,0
21,-48,0,0,0,0,0,0,0,0,0,-1,1245,1072,0,0
28,-48,0,0,0,0,0,0,0,0,0,-1,1252,1072,0,0
35,-48,0,0,0,0,0,0,0,0,0,-1,1259,1072,0,0
42,-48,0,0,0,0,0,0,0,0,0,-1,1266,1072,0,0
49,-48,0,0,0,0,0,0,0,0,0,-1,1273,1072,0,0
56,-48,0,0,0,0,0,0,0,0,0,-1,1280,1072,0,0
63,-48,0,0,0,0,0,0,0,0,0,-1,1287,1072,0,0
70,-48,0,0,0,0,0,0,0,0,0,-1,1294,1072,0,0
77,-48,0,0,0,0,0,0,0,0,0,-1,1301,1072,0,0
84,-48,0,0,0,0,0,0,0,0,0,-1,1308,1072,0,0
91,-48,0,0,0,0,0,0,0,0,0,-1,1315,1072,0,0
98,-48,0,0,0,0,0,0,0,0,0,-1,1322,1072,0,0
105,-48,0,0,0,0,0,0,0,0,0,-1,1329,1072,0,0
112,-48,0,0,0,0,0,0,0,0,0,-1,1336,1072,0,0
119,-48,0,0,0,0,0,0,0,0,0,-1,1343,1072,0,0
126,-48,0,0,0,0,0,0,0,0,0,-1,1350,1072,0,0
133,-48,0,0,0,0,0,0,0,0,0,-1,1357,1072,0,0
140,-48,0,0,0,0,0,0,0,0,0,-1,1364,1072,0,0
147,-48,0,0,0,0,0,0,0,0,0,-1,1371,1072,0,0
154,-48,0,0,0,0,0,0,0,0,0,-1,1378,1072,0,0
161,-48,0,0,0,0,0,0,0,0,0,-1,1385,1072,0,0
168,-48,0,0,0,0,0,0,0,0,0,-1,1392,1072,0,0
175,-48,0,0,0,0,0,0,0,0,0,-1,1399,1072,0,0
182,-48,0,0,0,0,0,0,0,0,0,-1,1406,1072,0,0
189,-48,0,0,0,0,0,0,0,0,0,-1,1413,1072,0,0
196,-48,0,0,0,0,0,0,0,0,0,-1,1420,1072,0,0
203,-48,0,0,0,0,0,0,0,0,0,-1,1427,1072,0,0
210,-48,0,0,0,0,0,0,0,0,0,-1,1434,1072,0,0
217,-48,0,0,0,0,0,0,0,0,0,-1,1441,1072,0,0
224,-48,0,0,0,0,0,0,0,0,0,-1,1448,1072,0,0
231,-48,0,0,0,0,0,0,0,0,0,-1,1455,1072,0,0
238,-48,0,0,0,0,0,0,0,0,0,-1,1462,1072,0,0
245,-48,0,0,0,0,0,0,0,0,0,-1,1469,1072,0,0
252,-48,0,0,0,0,0,0,0,0,0,-1,1476,1072,0,0
259,-48,0,0,0,0,0,0,0,0,0,-1,1483,1072,0,0
266,-48,0,0,0,0,0,0,0,0,0,-1,1490,1072,0,0
273,-48,0,0,0,0,0,0,0,0,0,-1,1497,1072,0,0
280,-48,0,0,0,0,0,0,0,0,0,-1,1504,1072,0,0
287,-48,0,0,0,0,0,0,0,0,0,-1,1511,1072,0,0
294,-48,0,0,0,0,0,0,0,0,0,-1,1518,1072,0,0
301,-48,0,0,0,0,0,0,0,0,0,-1,1525,1072,0,0
308,-48,0,0,0,0,0,0,0,0,0,-1,1532,1072,0,0
315,-48,0,0,0,0,0,0,0,0,0,-1,1539,1072,0,0
322,-48,0,0,0,0,0,0,0,0,0,-1,1546,1072,0,0
329,-48,0,0,0,0,0,0,0,0,0,-1,1553,1072,0,0
336,-48,0,0,0,0,0,0,0,0,0,-1,1560,1072,0,0
343,-48,0,0,0,0,0,0,0,0,0,-1,1567,1072,0,0
350,-48,0,0,0,0,0,0,0,0,0,-1,1574,1072,0,0
357,-48,0,0,0,0,0,0,0,0,0,-1,1581,1072,0,0
364,-48,0,0,0,0,0,0,0,0,0,-1,1588,1072,0,0
371,-48,0,0,0,0,0,0,0,0,0,-1,1595,1072,0,0
378,-48,0,0,0,0,0,0,0,0,0,-1,1602,1072,0,0
385,-48,0,0,0,0,0,0,0,0,0,-1,1609,1072,0,0
392,-48,0,0,0,0,0,0,0,0,0,-1,1616,1072,0,0
399,-48,0,0,0,0,0,0,0,0,0,-1,1623,1072,0,0
406,-48,0,0,0,0,0,0,0,0,0,-1,1630,1072,0,0
413,-48,0,0,0,0,0,0,0,0,0,-1,1637,1072,0,0
420,-48,0,0,0,0,0,0,0,0,0,-1,1644,1072,0,0
427,-48,0,0,0,0,0,0,0,0,0,-1,1651,1072,0,0
434,-48,0,0,0,0,0,0,0,0,0,-1,1658,1072,0,0
441,-48,0,0,0,0,0,0,0,0,0,-1,1665,1072,0,0
448,-48,0,0,0,0,0,0,0,0,0,-1,1672,1072,0,0
455,-48,0,0,0,0,0,0,0,0,0,-1,1679,1072,0,0
462,-48,0,0,0,0,0,0,0,0,0,-1,1686,1072,0,0
469,-48,0,0,0,0,0,0,0,0,0,-1,1693,1072,0,0
476,-48,0,0,0,0,0,0,0,0,0,-1,1700,1072,0,0
483,-48,0,0,0,0,0,0,0,0,0,-1,1707,1072,0,0
490,-48,0,0,0,0,0,0,0,0,0,-1,1714,1072,0,0
497,-48,0,0,0,0,0,0,0,0,0,-1,1721,1072,0,0
504,-48,0,0,0,0,0,0,0,0,0,-1,1728,1072,0,0
511,-48,0,0,0,0,0,0,0,0,0,-1,1735,1072,0,0
518,-48,0,0,0,0,0,0,0,0,0,-1,1742,1072,0,0
525,-48,0,0,0,0,0,0,0,0,0,-1,1749,1072,0,0
532,-48,0,0,0,0,0,0,0,0,0,-1,1756,1072,0,0
539,-48,0,0,0,0,0,0,0,0,0,-1,1763,1072,0,0
546,-48,0,0,0,0,0,0,0,0,0,-1,1770,1072,0,0
553,-48,0,0,0,0,0,0,0,0,0,-1,1777,1072,0,0
560,-48,0,0,0,0,0,0,0,0,0,-1,1784,1072,0,0
567,-48,0,0,0,0,0,0,0,0,0,-1,1791,1072,0,0
574,-48,0,0,0,0,0,0,0,0,0,-1,1798,1072,0,0
581,-48,0,0,0,0,0,0,0,0,0,-1,1805,1072,0,0
588,-48,0,0,0,0,0,0,0,0,0,-1,1812,1072,0,0
595,-48,0,0,0,0,0,0,0,0,0,-1,1819,1072,0,0
602,-48,0,0,0,0,0,0,0,0,0,-1,1826,1072,0,0
609,-48,0,0,0,0,0,0,0,0,0,-1,1833,1072,0,0
616,-48,0,0,0,0,0,0,0,0,0,-1,1840,1072,0,0
623,-48,0,0,0,0,0,0,0,0,0,-1,1847,1072,0,0
630,-48,0,0,0,0,0,0,0,0,0,-1,1854,1072,0,0
637,-48,0,0,0,0,0,0,0,0,0,-1,1861,1072,0,0
644,-48,0,0,0,0,0,0,0,0,0,-1,1868,1072,0,0
651,-48,235.426,8.67822,0,0,0,0,0,0,0,-1,1875,1072,235.426,-8.67817
658,-48,235.475,8.79248,0,0,0,0,0,0,0,-1,1882,1072,235.475,-8.79247
665,-48,235.365,8.94958,0,0,0,0,0,0,0,-1,1889,1072,235.365,-8.94963
672,-48,235.363,8.87585,0,0,0,0,0,0,0,-1,1896,1072,235.363,-8.87586
679,-48,235.328,8.67578,0,0,0,0,0,0,0,-1,1903,1072,235.328,-8.67583
686,-48,235.418,8.47681,0,0,0,0,0,0,0,-1,1910,1072,235.418,-8.47683
693,-48,235.561,8.41443,0,0,0,0,0,0,0,-1,1917,1072,235.561,-8.41438
700,-48,235.52,8.60425,0,0,0,0,0,0,0,-1,1924,1072,235.52,-8.6042
707,-48,235.566,8.61218,0,0,0,0,0,0,0,-1,1931,1072,235.566,-8.61216
714,-48,235.475,8.54858,0,0,0,0,0,0,0,-1,1938,1072,235.475,-8.54863
721,-48,235.416,8.5415,0,0,0,0,0,0,0,-1,1945,1072,235.416,-8.54151
728,-48,241.988,31.9325,0,0,0,0,0,0,0,-1,1952,1072,241.988,-31.9325
735,-48,241.643,31.874,-0.0145759,-0.00102487,0.00286213,-0.000445161,-0.0151556,1.37095,0.00995868,0.0426407,1959,1072,241.643,-31.874
742,-48,241.305,31.7214,-0.0161554,0.0074441,0.00290307,0.00779597,-0.0165073,1.45018,0.0143288,0.0251421,1966,1072,241.305,-31.7215
749,-48,241.316,31.5968,-0.0179244,0.015894,0.00306641,0.0161698,-0.0182002,1.4811,0.0198551,0.0251614,1973,1072,241.316,-31.5968
756,-48,241.241,31.527,-0.0198244,0.0243313,0.00332234,0.0245798,-0.020073,1.49612,0.0258241,0.0232463,1980,1072,241.241,-31.5269
763,-48,241.111,31.4264,-0.021791,0.0327625,0.00363834,0.033004,-0.0220325,1.50449,0.0319852,0.0207942,1987,1072,241.111,-31.4264
770,-48,240.948,31.3137,-0.0237537,0.0411949,0.00397854,0.0414377,-0.0239965,1.50984,0.0382231,0.0264662,1994,1072,240.949,-31.3137
777,-48,240.727,31.2151,-0.0256364,0.0496372,0.0043032,0.0498824,-0.0258817,1.51388,0.044468,0.0250138,2001,1072,240.727,-31.2151
784,-48,240.514,31.1068,-0.0273584,0.0581002,0.00456829,0.0583437,-0.0276019,1.51754,0.0506678,0.0383697,2008,1072,240.514,-31.1068
791,-48,240.4,30.9376,0,0,0,0,0,0,0,-1,2015,1072,240.4,-30.9376
798,-48,235.946,30.6484,0,0,0,0,0,0,0,-1,2022,1072,235.946,-30.6485
805,-48,145.94,17.7681,0,0,0,0,0,0,0,-1,2029,1072,145.94,-17.768
812,-48,145.715,16.424,0,0,0,0,0,0,0,-1,2036,1072,145.715,-16.424
-700,-55,-87.3454,-1.32239,0,0,0,0,0,0,0,-1,524,1079,-87.3454,1.32238
-693,-55,-88.6417,7.0238,0,0,0,0,0,0,0,-1,531,1079,-88.6417,-7.02386
-686,-55,-89.3746,7.15051,0,0,0,0,0,0,0,-1,538,1079,-89.3746,-7.15048
-679,-55,-90.1075,7.2771,0,0,0,0,0,0,0,-1,545,1079,-90.1075,-7.27709
-672,-55,-85.4192,2.81006,0,0,0,0,0,0,0,-1,552,1079,-85.4192,-2.81005
-665,-55,-84.8889,2.23938,0,0,0,0,0,0,0,-1,559,1079,-84.8889,-2.23935
-658,-55,-84.2544,2.53162,0,0,0,0,0,0,0,-1,566,1079,-84.2544,-2.53157
-651,-55,-233.706,30.4487,0,0,0,0,0,0,0,-1,573,1079,-233.706,-30.4488
-644,-55,-233.855,30.4821,-0.0231171,0.061252,0.00300731,0.0613591,-0.0232241,1.53521,0.0504615,0.0406995,580,1079,-233.855,-30.4821
-637,-55,-233.998,30.4335,-0.0186116,0.0512959,0.00238603,0.0513772,-0.018693,1.53672,0.0418964,0.0286421,587,1079,-233.998,-30.4334
-630,-55,-234.149,30.678,-0.0143012,0.0417207,0.00187822,0.0417836,-0.0143641,1.53732,0.0336807,0.0314002,594,1079,-234.149,-30.678
-623,-55,-234.335,30.9478,-0.0101816,0.0324848,0.00145567,0.0325344,-0.0102312,1.53673,0.0257857,0.025852,601,1079,-234.335,-30.9478
-616,-55,-234.323,31.0725,-0.00624969,0.0235542,0.00109405,0.0235943,-0.00628979,1.53415,0.0181922,0.0241928,608,1079,-234.323,-31.0725
-609,-55,-234.194,31.3267,-0.0025034,0.0149023,0.000772545,0.0149366,-0.00253762,1.52653,0.0109025,0.0257317,615,1079,-234.194,-31.3267
-602,-55,-234.128,31.4458,0.00105812,0.00651015,0.000473622,0.00655099,0.00101728,1.48478,0.00407083,0.0191789,622,1079,-234.128,-31.4458
-595,-55,-234.018,31.5253,0,0,0,0,0,0,0,-1,629,1079,-234.018,-31.5252
-588,-55,-233.639,31.8527,0,0,0,0,0,0,0,-1,636,1079,-233.639,-31.8527
-581,-55,-72.2021,0.568848,0,0,0,0,0,0,0,-1,643,1079,-72.2021,-0.568903
-574,-55,-72.1902,0.588257,0,0,0,0,0,0,0,-1,650,1079,-72.1903,-0.588203
-567,-55,-72.2176,0.383911,0,0,0,0,0,0,0,-1,657,1079,-72.2176,-0.383936
-560,-55,-72.2438,0.371704,0,0,0,0,0,0,0,-1,664,1079,-72.2438,-0.371714
-553,-55,-72.1981,0.384766,0,0,0,0,0,0,0,-1,671,1079,-72.1981,-0.384818
-546,-55,-72.202,0.425049,0,0,0,0,0,0,0,-1,678,1079,-72.202,-0.425034
-539,-55,-72.2377,0.464722,0,0,0,0,0,0,0,-1,685,1079,-72.2377,-0.464753
-532,-55,-76.1212,-0.043335,0,0,0,0,0,0,0,-1,692,1079,-76.1211,0.043395
-525,-55,0,0,0,0,0,0,0,0,0,-1,699,1079,0,0
-518,-55,0,0,0,0,0,0,0,0,0,-1,706,1079,0,0
-511,-55,0,0,0,0,0,0,0,0,0,-1,713,1079,0,0
-504,-55,0,0,0,0,0,0,0,0,0,-1,720,1079,0,0
-497,-55,0,0,0,0,0,0,0,0,0,-1,727,1079,0,0
-490,-55,0,0,0,0,0,0,0,0,0,-1,734,1079,0,0
-483,-55,0,0,0,0,0,0,0,0,0,-1,741,1079,0,0
-476,-55,0,0,0,0,0,0,0,0,0,-1,748,1079,0,0
-469,-55,0,0,0,0,0,0,0,0,0,-1,755,1079,0,0
-462,-55,0,0,0,0,0,0,0,0,0,-1,762,1079,0,0
-455,-55,0,0,0,0,0,0,0,0,0,-1,769,1079,0,0
-448,-55,0,0,0,0,0,0,0,0,0,-1,776,1079,0,0
-441,-55,0,0,0,0,0,0,0,0,0,-1,783,1079,0,0
-434,-55,0,0,0,0,0,0,0,0,0,-1,790,1079,0,0
-427,-55,0,0,0,0,0,0,0,0,0,-1,797,1079,0,0
-420,-55,0,0,0,0,0,0,0,0,0,-1,804,1079,0,0
-413,-55,0,0,0,0,0,0,0,0,0,-1,811,1079,0,0
-406,-55,0,0,0,0,0,0,0,0,0,-1,818,1079,0,0
-399,-55,0,0,0,0,0,0,0,0,0,-1,825,1079,0,0
-392,-55,0,0,0,0,0,0,0,0,0,-1,832,1079,0,0
-385,-55,0,0,0,0,0,0,0,0,0,-1,839,1079,0,0
-378,-55,0,0,0,0,0,0,0,0,0,-1,846,1079,0,0
-371,-55,0,0,0,0,0,0,0,0,0,-1,853,1079,0,0
-364,-55,0,0,0,0,0,0,0,0,0,-1,860,1079,0,0
-357,-55,0,0,0,0,0,0,0,0,0,-1,867,1079,0,0
-350,-55,0,0,0,0,0,0,0,0,0,-1,874,1079,0,0
-343,-55,0,0,0,0,0,0,0,0,0,-1,881,1079,0,0
-336,-55,0,0,0,0,0,0,0,0,0,-1,888,1079,0,0
-329,-55,0,0,0,0,0,0,0,0,0,-1,895,1079,0,0
-322,-55,0,0,0,0,0,0,0,0,0,-1,902,1079,0,0
-315,-55,0,0,0,0,0,0,0,0,0,-1,909,1079,0,0
-308,-55,0,0,0,0,0,0,0,0,0,-1,916,1079,0,0
-301,-55,0,0,0,0,0,0,0,0,0,-1,923,1079,0,0
-294,-55,0,0,0,0,0,0,0,0,0,-1,930,1079,0,0
-287,-55,0,0,0,0,0,0,0,0,0,-1,937,1079,0,0
-280,-55,0,0,0,0,0,0,0,0,0,-1,944,1079,0,0
-273,-55,0,0,0,0,0,0,0,0,0,-1,951,1079,0,0
-266,-55,0,0,0,0,0,0,0,0,0,-1,958,1079,0,0
-259,-55,0,0,0,0,0,0,0,0,0,-1,965,1079,0,0
-252,-55,0,0,0,0,0,0,0,0,0,-1,972,1079,0,0
-245,-55,0,0,0,0,0,0,0,0,0,-1,979,1079,0,0
-238,-55,0,0,0,0,0,0,0,0,0,-1,986,1079,0,0
-231,-55,0,0,0,0,0,0,0,0,0,-1,993,1079,0,0
-224,-55,0,0,0,0,0,0,0,0,0,-1,1000,1079,0,0
-217,-55,0,0,0,0,0,0,0,0,0,-1,1007,1079,0,0
-210,-55,0,0,0,0,0,0,0,0,0,-1,1014,1079,0,0
-203,-55,0,0,0,0,0,0,0,0,0,-1,1021,1079,0,0
-196,-55,0,0,0,0,0,0,0,0,0,-1,1028,1079,0,0
-189,-55,0,0,0,0,0,0,0,0,0,-1,1035,1079,0,0
-182,-55,0,0,0,0,0,0,0,0,0,-1,1042,1079,0,0
-175,-55,0,0,0,0,0,0,0,0,0,-1,1049,1079,0,0
-168,-55,0,0,0,0,0,0,0,0,0,-1,1056,1079,0,0
-161,-55,0,0,0,0,0,0,0,0,0,-1,1063,1079,0,0
-154,-55,0,0,0,0,0,0,0,0,0,-1,1070,1079,0,0
-147,-55,0,0,0,0,0,0,0,0,0,-1,1077,1079,0,0
-140,-55,0,0,0,0,0,0,0,0,0,-1,1084,1079,0,0
-133,-55,0,0,0,0,0,0,0,0,0,-1,1091,1079,0,0
-126,-55,0,0,0,0,0,0,0,0,0,-1,1098,1079,0,0
-119,-55,0,0,0,0,0,0,0,0,0,-1,1105,1079,0,0
-112,-55,0,0,0,0,0,0,0,0,0,-1,1112,1079,0,0
-105,-55,0,0,0,0,0,0,0,0,0,-1,1119,1079,0,0
-98,-55,0,0,0,0,0,0,0,0,0,-1,1126,1079,0,0
-91,-55,0,0,0,0,0,0,0,0,0,-1,1133,1079,0,0
-84,-55,0,0,0,0,0,0,0,0,0,-1,1140,1079,0,0
-77,-55,0,0,0,0,0,0,0,0,0,-1,1147,1079,0,0
-70,-55,0,0,0,0,0,0,0,0,0,-1,1154,1079,0,0
-63,-55,0,0,0,0,0,0,0,0,0,-1,1161,1079,0,0
-56,-55,0,0,0,0,0,0,0,0,0,-1,1168,1079,0,0
-49,-55,0,0,0,0,0,0,0,0,0,-1,1175,1079,0,0
-42,-55,0,0,0,0,0,0,0,0,0,-1,1182,1079,0,0
-35,-55,0,0,0,0,0,0,0,0,0,-1,1189,1079,0,0
-28,-55,0,0,0,0,0,0,0,0,0,-1,1196,1079,0,0
-21,-55,0,0,0,0,0,0,0,0,0,-1,1203,1079,0,0
-14,-55,0,0,0,0,0,0,0,0,0,-1,1210,1079,0,0
-7,-55,0,0,0,0,0,0,0,0,0,-1,1217,1079,0,0
0,-55,0,0,0,0,0,0,0,0,0,-1,1224,1079,0,0
7,-55,0,0,0,0,0,0,0,0,0,-1,1231,1079,0,0
14,-55,0,0,0,0,0,0,0,0,0,-1,1238,1079,0,0
21,-55,0,0,0,0,0,0,0,0,0,-1,1245,1079,0,0
28,-55,0,0,0,0,0,0,0,0,0,-1,1252,1079,0,0
35,-55,0,0,0,0,0,0,0,0,0,-1,1259,1079,0,0
42,-55,0,0,0,0,0,0,0,0,0,-1,1266,1079,0,0
49,-55,0,0,0,0,0,0,0,0,0,-1,1273,1079,0,0
56,-55,0,0,0,0,0,0,0,0,0,-1,1280,1079,0,0
63,-55,0,0,0,0,0,0,0,0,0,-1,1287,1079,0,0
70,-55,0,0,0,0,0,0,0,0,0,-1,1294,1079,0,0
77,-55,0,0,0,0,0,0,0,0,0,-1,1301,1079,0,0
84,-55,0,0,0,0,0,0,0,0,0,-1,1308,1079,0,0
91,-55,0,0,0,0,0,0,0,0,0,-1,1315,1079,0,0
98,-55,0,0,0,0,0,0,0,0,0,-1,1322,1079,0,0
105,-55,0,0,0,0,0,0,0,0,0,-1,1329,1079,0,0
112,-55,0,0,0,0,0,0,0,0,0,-1,1336,1079,0,0
119,-55,0,0,0,0,0,0,0,0,0,-1,1343,1079,0,0
126,-55,0,0,0,0,0,0,0,0,0,-1,1350,1079,0,0
133,-55,0,0,0,0,0,0,0,0,0,-1,1357,1079,0,0
140,-55,0,0,0,0,0,0,0,0,0,-1,1364,1079,0,0
147,-55,0,0,0,0,0,0,0,0,0,-1,1371,1079,0,0
154,-55,0,0,0,0,0,0,0,0,0,-1,1378,1079,0,0
161,-55,0,0,0,0,0,0,0,0,0,-1,1385,1079,0,0
168,-55,0,0,0,0,0,0,0,0,0,-1,1392,1079,0,0
175,-55,0,0,0,0,0,0,0,0,0,-1,1399,1079,0,0
182,-55,0,0,0,0,0,0,0,0,0,-1,1406,1079,0,0
189,-55,0,0,0,0,0,0,0,0,0,-1,1413,1079,0,0
196,-55,0,0,0,0,0,0,0,0,0,-1,1420,1079,0,0
203,-55,0,0,0,0,0,0,0,0,0,-1,1427,1079,0,0
210,-55,0,0,0,0,0,0,0,0,0,-1,1434,1079,0,0
217,-55,0,0,0,0,0,0,0,0,0,-1,1441,1079,0,0
224,-55,0,0,0,0,0,0,0,0,0,-1,1448,1079,0,0
231,-55,0,0,0,0,0,0,0,0,0,-1,1455,1079,0,0
238,-55,0,0,0,0,0,0,0,0,0,-1,1462,1079,0,0
245,-55,0,0,0,0,0,0,0,0,0,-1,1469,1079,0,0
252,-55,0,0,0,0,0,0,0,0,0,-1,1476,1079,0,0
259,-55,0,0,0,0,0,0,0,0,0,-1,1483,1079,0,0
266,-55,0,0,0,0,0,0,0,0,0,-1,1490,1079,0,0
273,-55,0,0,0,0,0,0,0,0,0,-1,1497,1079,0,0
280,-55,0,0,0,0,0,0,0,0,0,-1,1504,1079,0,0
287,-55,0,0,0,0,0,0,0,0,0,-1,1511,1079,0,0
294,-55,0,0,0,0,0,0,0,0,0,-1,1518,1079,0,0
301,-55,0,0,0,0,0,0,0,0,0,-1,1525,1079,0,0
308,-55,0,0,0,0,0,0,0,0,0,-1,1532,1079,0,0
315,-55,0,0,0,0,0,0,0,0,0,-1,1539,1079,0,0
322,-55,0,0,0,0,0,0,0,0,0,-1,1546,1079,0,0
329,-55,0,0,0,0,0,0,0,0,0,-1,1553,1079,0,0
336,-55,0,0,0,0,0,0,0,0,0,-1,1560,1079,0,0
343,-55,0,0,0,0,0,0,0,0,0,-1,1567,1079,0,0
350,-55,0,0,0,0,0,0,0,0,0,-1,1574,1079,0,0
357,-55,0,0,0,0,0,0,0,0,0,-1,1581,1079,0,0
364,-55,0,0,0,0,0,0,0,0,0,-1,1588,1079,0,0
371,-55,0,0,0,0,0,0,0,0,0,-1,1595,1079,0,0
378,-55,0,0,0,0,0,0,0,0,0,-1,1602,1079,0,0
385,-55,0,0,0,0,0,0,0,0,0,-1,1609,1079,0,0
392,-55,0,0,0,0,0,0,0,0,0,-1,1616,1079,0,0
399,-55,0,0,0,0,0,0,0,0,0,-1,1623,1079,0,0
406,-55,0,0,0,0,0,0,0,0,0,-1,1630,1079,0,0
413,-55,0,0,0,0,0,0,0,0,0,-1,1637,1079,0,0
420,-55,0,0,0,0,0,0,0,0,0,-1,1644,1079,0,0
427,-55,0,0,0,0,0,0,0,0,0,-1,1651,1079,0,0
434,-55,0,0,0,0,0,0,0,0,0,-1,1658,1079,0,0
441,-55,0,0,0,0,0,0,0,0,0,-1,1665,1079,0,0
448,-55,0,0,0,0,0,0,0,0,0,-1,1672,1079,0,0
455,-55,0,0,0,0,0,0,0,0,0,-1,1679,1079,0,0
462,-55,0,0,0,0,0,0,0,0,0,-1,1686,1079,0,0
469,-55,0,0,0,0,0,0,0,0,0,-1,1693,1079,0,0
476,-55,0,0,0,0,0,0,0,0,0,-1,1700,1079,0,0
483,-55,0,0,0,0,0,0,0,0,0,-1,1707,1079,0,0
490,-55,0,0,0,0,0,0,0,0,0,-1,1714,1079,0,0
497,-55,0,0,0,0,0,0,0,0,0,-1,1721,1079,0,0
504,-55,0,0,0,0,0,0,0,0,0,-1,1728,1079,0,0
511,-55,0,0,0,0,0,0,0,0,0,-1,1735,1079,0,0
518,-55,0,0,0,0,0,0,0,0,0,-1,1742,1079,0,0
525,-55,0,0,0,0,0,0,0,0,0,-1,1749,1079,0,0
532,-55,0,0,0,0,0,0,0,0,0,-1,1756,1079,0,0
539,-55,0,0,0,0,0,0,0,0,0,-1,1763,1079,0,0
546,-55,0,0,0,0,0,0,0,0,0,-1,1770,1079,0,0
553,-55,0,0,0,0,0,0,0,0,0,-1,1777,1079,0,0
560,-55,0,0,0,0,0,0,0,0,0,-1,1784,1079,0,0
567,-55,0,0,0,0,0,0,0,0,0,-1,1791,1079,0,0
574,-55,0,0,0,0,0,0,0,0,0,-1,1798,1079,0,0
581,-55,0,0,0,0,0,0,0,0,0,-1,1805,1079,0,0
588,-55,0,0,0,0,0,0,0,0,0,-1,1812,1079,0,0
595,-55,0,0,0,0,0,0,0,0,0,-1,1819,1079,0,0
602,-55,0,0,0,0,0,0,0,0,0,-1,1826,1079,0,0
609,-55,0,0,0,0,0,0,0,0,0,-1,1833,1079,0,0
616,-55,0,0,0,0,0,0,0,0,0,-1,1840,1079,0,0
623,-55,0,0,0,0,0,0,0,0,0,-1,1847,1079,0,0
630,-55,0,0,0,0,0,0,0,0,0,-1,1854,1079,0,0
637,-55,0,0,0,0,0,0,0,0,0,-1,1861,1079,0,0
644,-55,0,0,0,0,0,0,0,0,0,-1,1868,1079,0,0
651,-55,235.436,8.65881,0,0,0,0,0,0,0,-1,1875,1079,235.436,-8.65877
658,-55,235.492,8.72437,0,0,0,0,0,0,0,-1,1882,1079,235.492,-8.72431
665,-55,235.364,8.81091,0,0,0,0,0,0,0,-1,1889,1079,235.364,-8.81097
672,-55,235.309,8.88916,0,0,0,0,0,0,0,-1,1896,1079,235.308,-8.88922
679,-55,235.397,8.67749,0,0,0,0,0,0,0,-1,1903,1079,235.397,-8.67745
686,-55,235.463,8.4718,0,0,0,0,0,0,0,-1,1910,1079,235.463,-8.47182
693,-55,235.497,8.57996,0,0,0,0,0,0,0,-1,1917,1079,235.497,-8.57995
700,-55,235.523,8.7406,0,0,0,0,0,0,0,-1,1924,1079,235.523,-8.74064
707,-55,235.516,8.60376,0,0,0,0,0,0,0,-1,1931,1079,235.516,-8.60381
714,-55,235.379,8.34668,0,0,0,0,0,0,0,-1,1938,1079,235.379,-8.34667
721,-55,233.805,8.33838,0,0,0,0,0,0,0,-1,1945,1079,233.805,-8.33843
728,-55,241.549,32.076,0,0,0,0,0,0,0,-1,1952,1079,241.549,-32.0761
735,-55,241.312,31.8988,-0.012496,-0.00120041,0.00273867,-0.00057143,-0.013125,1.34505,0.00856586,0.0317813,1959,1079,241.312,-31.8988
742,-55,241.285,31.7898,-0.0145922,0.00749666,0.00277944,0.00784103,-0.0149366,1.44753,0.0133617,0.0315861,1966,1079,241.286,-31.7898
749,-55,241.273,31.5886,-0.0168554,0.0161398,0.00294064,0.0163998,-0.0171154,1.4826,0.0193515,0.025155,1973,1079,241.273,-31.5886
756,-55,241.06,31.3667,-0.0192282,0.0247417,0.00319007,0.024972,-0.0194584,1.49875,0.0257176,0.0224379,1980,1079,241.059,-31.3668
763,-55,240.953,31.2432,-0.0216478,0.0333149,0.00349302,0.0335359,-0.0218689,1.50758,0.0322236,0.0230428,1987,1079,240.953,-31.2431
770,-55,240.781,31.0872,-0.0240456,0.0418718,0.00381177,0.0420915,-0.0242653,1.51323,0.0387692,0.0278838,1994,1079,240.781,-31.0872
777,-55,240.589,30.9366,-0.0263467,0.0504262,0.00410509,0.0506451,-0.0265656,1.51753,0.0452945,0.0252849,2001,1079,240.589,-30.9366
784,-55,240.439,30.7698,-0.0284708,0.058993,0.0043279,0.0592066,-0.0286845,1.52147,0.0517538,0.0434714,2008,1079,240.439,-30.7698
791,-55,240.314,30.6116,0,0,0,0,0,0,0,-1,2015,1079,240.314,-30.6115
798,-55,227.13,30.9592,0,0,0,0,0,0,0,-1,2022,1079,227.13,-30.9592
805,-55,144.886,17.7817,0,0,0,0,0,0,0,-1,2029,1079,144.886,-17.7818
812,-55,144.398,16.9786,0,0,0,0,0,0,0,-1,2036,1079,144.398,-16.9786
-700,-62,-85.9905,-1.22083,0,0,0,0,0,0,0,-1,524,1086,-85.9906,1.22079
-693,-62,-86.1433,0.277466,0,0,0,0,0,0,0,-1,531,1086,-86.1434,-0.277479
-686,-62,-88.9893,5.4032,0,0,0,0,0,0,0,-1,538,1086,-88.9893,-5.40321
-679,-62,-85.3067,3.15723,0,0,0,0,0,0,0,-1,545,1086,-85.3067,-3.15717
-672,-62,-84.727,4.49841,0,0,0,0,0,0,0,-1,552,1086,-84.727,-4.4984
-665,-62,-84.3833,2.66711,0,0,0,0,0,0,0,-1,559,1086,-84.3833,-2.66709
-658,-62,-84.1052,2.85754,0,0,0,0,0,0,0,-1,566,1086,-84.1052,-2.8576
-651,-62,-233.5,29.3843,0,0,0,0,0,0,0,-1,573,1086,-233.5,-29.3842
-644,-62,-233.728,30.0186,-0.0236753,0.0625133,0.00236766,0.0625783,-0.0237403,1.54335,0.0514901,0.0488408,580,1086,-233.728,-30.0185
-637,-62,-233.855,30.3285,-0.0193779,0.0522621,0.00181047,0.0523078,-0.0194236,1.54555,0.0428402,0.023675,587,1086,-233.855,-30.3285
-630,-62,-233.98,30.5359,-0.0152499,0.0424872,0.00139371,0.0425208,-0.0152835,1.54668,0.0345863,0.0218658,594,1086,-233.98,-30.5359
-623,-62,-234.106,30.8308,-0.011285,0.0331316,0.00108217,0.0331579,-0.0113113,1.54645,0.0266871,0.0244724,601,1086,-234.106,-30.8308
-616,-62,-234.117,31.1119,-0.00747812,0.0241476,0.000845102,0.0241702,-0.00750069,1.5441,0.0191108,0.0267443,608,1086,-234.117,-31.1119
-609,-62,-234.065,31.2161,-0.00382559,0.015497,0.000655748,0.0155192,-0.00384781,1.53691,0.011839,0.0273469,615,1086,-234.065,-31.216
-602,-62,-233.982,31.3649,-0.000325006,0.00715004,0.000490872,0.00718213,-0.000357103,1.5055,0.00491145,0.0223341,622,1086,-233.982,-31.3648
-595,-62,-233.924,31.7073,0.00287779,-0.000700146,0.000490225,0.00294375,-0.000766098,0.13373,0.00226154,0.0454057,629,1086,-233.924,-31.7073
-588,-62,-233.859,32.0583,0,0,0,0,0,0,0,-1,636,1086,-233.859,-32.0583
-581,-62,-72.1781,0.615723,0,0,0,0,0,0,0,-1,643,1086,-72.1781,-0.615709
-574,-62,-72.2164,0.539185,0,0,0,0,0,0,0,-1,650,1086,-72.2164,-0.539192
-567,-62,-72.2147,0.359985,0,0,0,0,0,0,0,-1,657,1086,-72.2147,-0.360028
-560,-62,-72.1146,0.307617,0,0,0,0,0,0,0,-1,664,1086,-72.1146,-0.307569
-553,-62,-72.0814,0.354126,0,0,0,0,0,0,0,-1,671,1086,-72.0814,-0.354185
-546,-62,-72.1473,0.42334,0,0,0,0,0,0,0,-1,678,1086,-72.1473,-0.423366
-539,-62,-72.1967,0.42981,0,0,0,0,0,0,0,-1,685,1086,-72.1967,-0.429812
-532,-62,-72.1149,0.448608,0,0,0,0,0,0,0,-1,692,1086,-72.1149,-0.448575
-525,-62,0,0,0,0,0,0,0,0,0,-1,699,1086,0,0
-518,-62,0,0,0,0,0,0,0,0,0,-1,706,1086,0,0
-511,-62,0,0,0,0,0,0,0,0,0,-1,713,1086,0,0
-504,-62,0,0,0,0,0,0,0,0,0,-1,720,1086,0,0
-497,-62,0,0,0,0,0,0,0,0,0,-1,727,1086,0,0
-490,-62,0,0,0,0,0,0,0,0,0,-1,734,1086,0,0
-483,-62,0,0,0,0,0,0,0,0,0,-1,741,1086,0,0
-476,-62,0,0,0,0,0,0,0,0,0,-1,748,1086,0,0
-469,-62,0,0,0,0,0,0,0,0,0,-1,755,1086,0,0
-462,-62,0,0,0,0,0,0,0,0,0,-1,762,1086,0,0
-455,-62,0,0,0,0,0,0,0,0,0,-1,769,1086,0,0
-448,-62,0,0,0,0,0,0,0,0,0,-1,776,1086,0,0
-441,-62,0,0,0,0,0,0,0,0,0,-1,783,1086,0,0
-434,-62,0,0,0,0,0,0,0,0,0,-1,790,1086,0,0
-427,-62,0,0,0,0,0,0,0,0,0,-1,797,1086,0,0
-420,-62,0,0,0,0,0,0,0,0,0,-1,804,1086,0,0
-413,-62,0,0,0,0,0,0,0,0,0,-1,811,1086,0,0
-406,-62,0,0,0,0,0,0,0,0,0,-1,818,1086,0,0
-399,-62,0,0,0,0,0,0,0,0,0,-1,825,1086,0,0
-392,-62,0,0,0,0,0,0,0,0,0,-1,832,1086,0,0
-385,-62,0,0,0,0,0,0,0,0,0,-1,839,1086,0,0
-378,-62,0,0,0,0,0,0,0,0,0,-1,846,1086,0,0
-371,-62,0,0,0,0,0,0,0,0,0,-1,853,1086,0,0
-364,-62,0,0,0,0,0,0,0,0,0,-1,860,1086,0,0
-357,-62,0,0,0,0,0,0,0,0,0,-1,867,1086,0,0
-350,-62,0,0,0,0,0,0,0,0,0,-1,874,1086,0,0
-343,-62,0,0,0,0,0,0,0,0,0,-1,881,1086,0,0
-336,-62,0,0,0,0,0,0,0,0,0,-1,888,1086,0,0
-329,-62,0,0,0,0,0,0,0,0,0,-1,895,1086,0,0
-322,-62,0,0,0,0,0,0,0,0,0,-1,902,1086,0,0
-315,-62,0,0,0,0,0,0,0,0,0,-1,909,1086,0,0
-308,-62,0,0,0,0,0,0,0,0,0,-1,916,1086,0,0
-301,-62,0,0,0,0,0,0,0,0,0,-1,923,1086,0,0
-294,-62,0,0,0,0,0,0,0,0,0,-1,930,1086,0,0
-287,-62,0,0,0,0,0,0,0,0,0,-1,937,1086,0,0
-280,-62,0,0,0,0,0,0,0,0,0,-1,944,1086,0,0
-273,-62,0,0,0,0,0,0,0,0,0,-1,951,1086,0,0
-266,-62,0,0,0,0,0,0,0,0,0,-1,958,1086,0,0
-259,-62,0,0,0,0,0,0,0,0,0,-1,965,1086,0,0
-252,-62,0,0,0,0,0,0,0,0,0,-1,972,1086,0,0
-245,-62,0,0,0,0,0,0,0,0,0,-1,979,1086,0,0
-238,-62,0,0,0,0,0,0,0,0,0,-1,986,1086,0,0
-231,-62,0,0,0,0,0,0,0,0,0,-1,993,1086,0,0
-224,-62,0,0,0,0,0,0,0,0,0,-1,1000,1086,0,0
-217,-62,0,0,0,0,0,0,0,0,0,-1,1007,1086,0,0
-210,-62,0,0,0,0,0,0,0,0,0,-1,1014,1086,0,0
-203,-62,0,0,0,0,0,0,0,0,0,-1,1021,1086,0,0
-196,-62,0,0,0,0,0,0,0,0,0,-1,1028,1086,0,0
-189,-62,0,0,0,0,0,0,0,0,0,-1,1035,1086,0,0
-182,-62,0,0,0,0,0,0,0,0,0,-1,1042,1086,0,0
-175,-62,0,0,0,0,0,0,0,0,0,-1,1049,1086,0,0
-168,-62,0,0,0,0,0,0,0,0,0,-1,1056,1086,0,0
-161,-62,0,0,0,0,0,0,0,0,0,-1,1063,1086,0,0
-154,-62,0,0,0,0,0,0,0,0,0,-1,1070,1086,0,0
-147,-62,0,0,0,0,0,0,0,0,0,-1,1077,1086,0,0
-140,-62,0,0,0,0,0,0,0,0,0,-1,1084,1086,0,0
-133,-62,0,0,0,0,0,0,0,0,0,-1,1091,1086,0,0
-126,-62,0,0,0,0,0,0,0,0,0,-1,1098,1086,0,0
-119,-62,0,0,0,0,0,0,0,0,0,-1,1105,1086,0,0
-112,-62,0,0,0,0,0,0,0,0,0,-1,1112,1086,0,0
-105,-62,0,0,0,0,0,0,0,0,0,-1,1119,1086,0,0
-98,-62,0,0,0,0,0,0,0,0,0,-1,1126,1086,0,0
-91,-62,0,0,0,0,0,0,0,0,0,-1,1133,1086,0,0
-84,-62,0,0,0,0,0,0,0,0,0,-1,1140,1086,0,0
-77,-62,0,0,0,0,0,0,0,0,0,-1,1147,1086,0,0
-70,-62,0,0,0,0,0,0,0,0,0,-1,1154,1086,0,0
-63,-62,0,0,0,0,0,0,0,0,0,-1,1161,1086,0,0
-56,-62,0,0,0,0,0,0,0,0,0,-1,1168,1086,0,0
-49,-62,0,0,0,0,0,0,0,0,0,-1,1175,1086,0,0
-42,-62,0,0,0,0,0,0,0,0,0,-1,1182,1086,0,0
-35,-62,0,0,0,0,0,0,0,0,0,-1,1189,1086,0,0
-28,-62,0,0,0,0,0,0,0,0,0,-1,1196,1086,0,0
-21,-62,0,0,0,0,0,0,0,0,0,-1,1203,1086,0,0
-14,-62,0,0,0,0,0,0,0,0,0,-1,1210,1086,0,0
-7,-62,0,0,0,0,0,0,0,0,0,-1,1217,1086,0,0
0,-62,0,0,0,0,0,0,0,0,0,-1,1224,1086,0,0
7,-62,0,0,0,0,0,0,0,0,0,-1,1231,1086,0,0
14,-62,0,0,0,0,0,0,0,0,0,-1,1238,1086,0,0
21,-62,0,0,0,0,0,0,0,0,0,-1,1245,1086,0,0
28,-62,0,0,0,0,0,0,0,0,0,-1,1252,1086,0,0
35,-62,0,0,0,0,0,0,0,0,0,-1,1259,1086,0,0
42,-62,0,0,0,0,0,0,0,0,0,-1,1266,1086,0,0
49,-62,0,0,0,0,0,0,0,0,0,-1,1273,1086,0,0
56,-62,0,0,0,0,0,0,0,0,0,-1,1280,1086,0,0
63,-62,0,0,0,0,0,0,0,0,0,-1,1287,1086,0,0
70,-62,0,0,0,0,0,0,0,0,0,-1,1294,1086,0,0
77,-62,0,0,0,0,0,0,0,0,0,-1,1301,1086,0,0
84,-62,0,0,0,0,0,0,0,0,0,-1,1308,1086,0,0
91,-62,0,0,0,0,0,0,0,0,0,-1,1315,1086,0,0
98,-62,0,0,0,0,0,0,0,0,0,-1,1322,1086,0,0
105,-62,0,0,0,0,0,0,0,0,0,-1,1329,1086,0,0
112,-62,0,0,0,0,0,0,0,0,0,-1,1336,1086,0,0
119,-62,0,0,0,0,0,0,0,0,0,-1,1343,1086,0,0
126,-62,0,0,0,0,0,0,0,0,0,-1,1350,1086,0,0
133,-62,0,0,0,0,0,0,0,0,0,-1,1357,1086,0,0
140,-62,0,0,0,0,0,0,0,0,0,-1,1364,1086,0,0
147,-62,0,0,0,0,0,0,0,0,0,-1,1371,1086,0,0
154,-62,0,0,0,0,0,0,0,0,0,-1,1378,1086,0,0
161,-62,0,0,0,0,0,0,0,0,0,-1,1385,1086,0,0
168,-62,0,0,0,0,0,0,0,0,0,-1,1392,1086,0,0
175,-62,0,0,0,0,0,0,0,0,0,-1,1399,1086,0,0
182,-62,0,0,0,0,0,0,0,0,0,-1,1406,1086,0,0
189,-62,0,0,0,0,0,0,0,0,0,-1,1413,1086,0,0
196,-62,0,0,0,0,0,0,0,0,0,-1,1420,1086,0,0
203,-62,0,0,0,0,0,0,0,0,0,-1,1427,1086,0,0
210,-62,0,0,0,0,0,0,0,0,0,-1,1434,1086,0,0
217,-62,0,0,0,0,0,0,0,0,0,-1,1441,1086,0,0
224,-62,0,0,0,0,0,0,0,0,0,-1,1448,1086,0,0
231,-62,0,0,0,0,0,0,0,0,0,-1,1455,1086,0,0
238,-62,0,0,0,0,0,0,0,0,0,-1,1462,1086,0,0
245,-62,0,0,0,0,0,0,0,0,0,-1,1469,1086,0,0
252,-62,0,0,0,0,0,0,0,0,0,-1,1476,1086,0,0
259,-62,0,0,0,0,0,0,0,0,0,-1,1483,1086,0,0
266,-62,0,0,0,0,0,0,0,0,0,-1,1490,1086,0,0
273,-62,0,0,0,0,0,0,0,0,0,-1,1497,1086,0,0
280,-62,0,0,0,0,0,0,0,0,0,-1,1504,1086,0,0
287,-62,0,0,0,0,0,0,0,0,0,-1,1511,1086,0,0
294,-62,0,0,0,0,0,0,0,0,0,-1,1518,1086,0,0
301,-62,0,0,0,0,0,0,0,0,0,-1,1525,1086,0,0
308,-62,0,0,0,0,0,0,0,0,0,-1,1532,1086,0,0
315,-62,0,0,0,0,0,0,0,0,0,-1,1539,1086,0,0
322,-62,0,0,0,0,0,0,0,0,0,-1,1546,1086,0,0
329,-62,0,0,0,0,0,0,0,0,0,-1,1553,1086,0,0
336,-62,0,0,0,0,0,0,0,0,0,-1,1560,1086,0,0
343,-62,0,0,0,0,0,0,0,0,0,-1,1567,1086,0,0
350,-62,0,0,0,0,0,0,0,0,0,-1,1574,1086,0,0
357,-62,0,0,0,0,0,0,0,0,0,-1,1581,1086,0,0
364,-62,0,0,0,0,0,0,0,0,0,-1,1588,1086,0,0
371,-62,0,0,0,0,0,0,0,0,0,-1,1595,1086,0,0
378,-62,0,0,0,0,0,0,0,0,0,-1,1602,1086,0,0
385,-62,0,0,0,0,0,0,0,0,0,-1,1609,1086,0,0
392,-62,0,0,0,0,0,0,0,0,0,-1,1616,1086,0,0
399,-62,0,0,0,0,0,0,0,0,0,-1,1623,1086,0,0
406,-62,0,0,0,0,0,0,0,0,0,-1,1630,1086,0,0
413,-62,0,0,0,0,0,0,0,0,0,-1,1637,1086,0,0
420,-62,0,0,0,0,0,0,0,0,0,-1,1644,1086,0,0
427,-62,0,0,0,0,0,0,0,0,0,-1,1651,1086,0,0
434,-62,0,0,0,0,0,0,0,0,0,-1,1658,1086,0,0
441,-62,0,0,0,0,0,0,0,0,0,-1,1665,1086,0,0
448,-62,0,0,0,0,0,0,0,0,0,-1,1672,1086,0,0
455,-62,0,0,0,0,0,0,0,0,0,-1,1679,1086,0,0
462,-62,0,0,0,0,0,0,0,0,0,-1,1686,1086,0,0
469,-62,0,0,0,0,0,0,0,0,0,-1,1693,1086,0,0
476,-62,0,0,0,0,0,0,0,0,0,-1,1700,1086,0,0
483,-62,0,0,0,0,0,0,0,0,0,-1,1707,1086,0,0
490,-62,0,0,0,0,0,0,0,0,0,-1,1714,1086,0,0
497,-62,0,0,0,0,0,0,0,0,0,-1,1721,1086,0,0
504,-62,0,0,0,0,0,0,0,0,0,-1,1728,1086,0,0
511,-62,0,0,0,0,0,0,0,0,0,-1,1735,1086,0,0
518,-62,0,0,0,0,0,0,0,0,0,-1,1742,1086,0,0
525,-62,0,0,0,0,0,0,0,0,0,-1,1749,1086,0,0
532,-62,0,0,0,0,0,0,0,0,0,-1,1756,1086,0,0
539,-62,0,0,0,0,0,0,0,0,0,-1,1763,1086,0,0
546,-62,0,0,0,0,0,0,0,0,0,-1,1770,1086,0,0
553,-62,0,0,0,0,0,0,0,0,0,-1,1777,1086,0,0
560,-62,0,0,0,0,0,0,0,0,0,-1,1784,1086,0,0
567,-62,0,0,0,0,0,0,0,0,0,-1,1791,1086,0,0
574,-62,0,0,0,0,0,0,0,0,0,-1,1798,1086,0,0
581,-62,0,0,0,0,0,0,0,0,0,-1,1805,1086,0,0
588,-62,0,0,0,0,0,0,0,0,0,-1,1812,1086,0,0
595,-62,0,0,0,0,0,0,0,0,0,-1,1819,1086,0,0
602,-62,0,0,0,0,0,0,0,0,0,-1,1826,1086,0,0
609,-62,0,0,0,0,0,0,0,0,0,-1,1833,1086,0,0
616,-62,0,0,0,0,0,0,0,0,0,-1,1840,1086,0,0
623,-62,0,0,0,0,0,0,0,0,0,-1,1847,1086,0,0
630,-62,0,0,0,0,0,0,0,0,0,-1,1854,1086,0,0
637,-62,0,0,0,0,0,0,0,0,0,-1,1861,1086,0,0
644,-62,0,0,0,0,0,0,0,0,0,-1,1868,1086,0,0
651,-62,235.441,8.57483,0,0,0,0,0,0,0,-1,1875,1086,235.441,-8.57489
658,-62,235.646,8.32678,0,0,0,0,0,0,0,-1,1882,1086,235.646,-8.32679
665,-62,235.392,8.53284,0,0,0,0,0,0,0,-1,1889,1086,235.392,-8.5328
672,-62,235.172,8.75244,0,0,0,0,0,0,0,-1,1896,1086,235.172,-8.75239
679,-62,235.347,8.63635,0,0,0,0,0,0,0,-1,1903,1086,235.347,-8.63637
686,-62,235.538,8.53979,0,0,0,0,0,0,0,-1,1910,1086,235.538,-8.53983
693,-62,235.462,8.64783,0,0,0,0,0,0,0,-1,1917,1086,235.462,-8.64783
700,-62,235.516,8.68677,0,0,0,0,0,0,0,-1,1924,1086,235.516,-8.68675
707,-62,235.431,8.47998,0,0,0,0,0,0,0,-1,1931,1086,235.431,-8.47997
714,-62,235.282,8.38855,0,0,0,0,0,0,0,-1,1938,1086,235.282,-8.38852
721,-62,235.084,8.40784,0,0,0,0,0,0,0,-1,1945,1086,235.084,-8.40788
728,-62,241.242,32.3035,0,0,0,0,0,0,0,-1,1952,1086,241.242,-32.3034
735,-62,241.177,31.8694,-0.0108331,-0.00153674,0.002813,-0.000751824,-0.011618,1.29869,0.00750732,0.0415356,1959,1086,241.177,-31.8694
742,-62,241.14,31.7561,-0.0133424,0.00747497,0.00274503,0.00783085,-0.0136983,1.44187,0.0125828,0.0466627,1966,1086,241.14,-31.7561
749,-62,241.069,31.583,-0.0160405,0.0163983,0.00281833,0.0166413,-0.0162835,1.48477,0.0190095,0.0355594,1973,1086,241.069,-31.583
756,-62,240.857,31.2642,-0.0188627,0.0252519,0.00299687,0.0254546,-0.0190653,1.50328,0.0257917,0.022418,1980,1086,240.857,-31.2642
763,-62,240.676,31.0586,-0.0217411,0.0340554,0.00324249,0.0342432,-0.0219289,1.51294,0.0326897,0.0264862,1987,1086,240.676,-31.0585
770,-62,240.531,30.8445,-0.0246041,0.0428284,0.00351449,0.0430111,-0.0247868,1.51887,0.0396117,0.0271071,1994,1086,240.531,-30.8444
777,-62,240.26,30.5013,-0.027375,0.0515916,0.00376917,0.0517711,-0.0275545,1.52321,0.0465046,0.0296272,2001,1086,240.26,-30.5014
784,-62,240.293,30.3014,-0.0299555,0.060346,0.00397506,0.0605206,-0.0301301,1.52689,0.0533086,0.0453591,2008,1086,240.293,-30.3014
791,-62,240.45,30.29,0,0,0,0,0,0,0,-1,2015,1086,240.45,-30.2901
798,-62,145.367,17.0892,0,0,0,0,0,0,0,-1,2022,1086,145.367,-17.0892
805,-62,143.891,17.6748,0,0,0,0,0,0,0,-1,2029,1086,143.891,-17.6749
812,-62,143.176,17.629,0,0,0,0,0,0,0,-1,2036,1086,143.175,-17.629
-700,-69,-84.8301,-0.922119,0,0,0,0,0,0,0,-1,524,1093,-84.8301,0.922103
-693,-69,-85.0201,0.548096,0,0,0,0,0,0,0,-1,531,1093,-85.0201,-0.548078
-686,-69,-85.1974,2.0426,0,0,0,0,0,0,0,-1,538,1093,-85.1974,-2.04259
-679,-69,-85.5246,3.56934,0,0,0,0,0,0,0,-1,545,1093,-85.5246,-3.56928
-672,-69,-83.949,2.89832,0,0,0,0,0,0,0,-1,552,1093,-83.949,-2.89829
-665,-69,-83.4005,3.32349,0,0,0,0,0,0,0,-1,559,1093,-83.4005,-3.32348
-658,-69,-82.7957,3.74512,0,0,0,0,0,0,0,-1,566,1093,-82.7957,-3.74516
-651,-69,-91.5511,10.6301,0,0,0,0,0,0,0,-1,573,1093,-91.5511,-10.6301
-644,-69,-233.52,29.7745,0,0,0,0,0,0,0,-1,580,1093,-233.52,-29.7745
-637,-69,-233.505,30.0607,-0.0198595,0.053068,0.00111008,0.0530849,-0.0198764,1.55558,0.0435543,0.0295952,587,1093,-233.505,-30.0606
-630,-69,-233.622,30.3245,-0.0159287,0.0431508,0.000787506,0.0431613,-0.0159391,1.55747,0.0353076,0.0224464,594,1093,-233.622,-30.3244
-623,-69,-233.621,30.5273,-0.012172,0.0337305,0.000589094,0.0337381,-0.0121796,1.55797,0.0274673,0.0281739,601,1093,-233.621,-30.5273
-616,-69,-233.726,30.7687,-0.00857942,0.024743,0.000478695,0.0247499,-0.00858629,1.55643,0.0199865,0.0357983,608,1093,-233.726,-30.7687
-609,-69,-233.878,31.1083,-0.00514184,0.0161355,0.000424293,0.016144,-0.00515029,1.55087,0.0128288,0.0320003,615,1093,-233.878,-31.1083
-602,-69,-233.838,31.3743,-0.00185157,0.00786611,0.000397374,0.00788233,-0.00186779,1.53,0.00597559,0.0281603,622,1093,-233.838,-31.3742
-595,-69,-233.791,31.6345,0.00115097,8.55086e-05,0.000511213,0.00135657,-0.000120098,0.382395,0.000946956,0.0449146,629,1093,-233.791,-31.6345
-588,-69,-233.79,31.8729,0,0,0,0,0,0,0,-1,636,1093,-233.79,-31.8729
-581,-69,-72.1123,0.543701,0,0,0,0,0,0,0,-1,643,1093,-72.1123,-0.543654
-574,-69,-72.1184,0.475464,0,0,0,0,0,0,0,-1,650,1093,-72.1184,-0.475443
-567,-69,-72.0325,0.365845,0,0,0,0,0,0,0,-1,657,1093,-72.0325,-0.365815
-560,-69,-72.1545,0.69043,0,0,0,0,0,0,0,-1,664,1093,-72.1545,-0.690484
-553,-69,-72.1738,0.429199,0,0,0,0,0,0,0,-1,671,1093,-72.1738,-0.429245
-546,-69,-72.1447,0.32312,0,0,0,0,0,0,0,-1,678,1093,-72.1447,-0.323069
-539,-69,-72.1819,0.331909,0,0,0,0,0,0,0,-1,685,1093,-72.1819,-0.331935
-532,-69,-72.0621,0.311523,0,0,0,0,0,0,0,-1,692,1093,-72.0621,-0.31155
-525,-69,0,0,0,0,0,0,0,0,0,-1,699,1093,0,0
-518,-69,0,0,0,0,0,0,0,0,0,-1,706,1093,0,0
-511,-69,0,0,0,0,0,0,0,0,0,-1,713,1093,0,0
-504,-69,0,0,0,0,0,0,0,0,0,-1,720,1093,0,0
-497,-69,0,0,0,0,0,0,0,0,0,-1,727,1093,0,0
-490,-69,0,0,0,0,0,0,0,0,0,-1,734,1093,0,0
-483,-69,0,0,0,0,0,0,0,0,0,-1,741,1093,0,0
-476,-69,0,0,0,0,0,0,0,0,0,-1,748,1093,0,0
-469,-69,0,0,0,0,0,0,0,0,0,-1,755,1093,0,0
-462,-69,0,0,0,0,0,0,0,0,0,-1,762,1093,0,0
-455,-69,0,0,0,0,0,0,0,0,0,-1,769,1093,0,0
-448,-69,0,0,0,0,0,0,0,0,0,-1,776,1093,0,0
-441,-69,0,0,0,0,0,0,0,0,0,-1,783,1093,0,0
-434,-69,0,0,0,0,0,0,0,0,0,-1,790,1093,0,0
-427,-69,0,0,0,0,0,0,0,0,0,-1,797,1093,0,0
-420,-69,0,0,0,0,0,0,0,0,0,-1,804,1093,0,0
-413,-69,0,0,0,0,0,0,0,0,0,-1,811,1093,0,0
-406,-69,0,0,0,0,0,0,0,0,0,-1,818,1093,0,0
-399,-69,0,0,0,0,0,0,0,0,0,-1,825,1093,0,0
-392,-69,0,0,0,0,0,0,0,0,0,-1,832,1093,0,0
-385,-69,0,0,0,0,0,0,0,0,0,-1,839,1093,0,0
-378,-69,0,0,0,0,0,0,0,0,0,-1,846,1093,0,0
-371,-69,0,0,0,0,0,0,0,0,0,-1,853,1093,0,0
-364,-69,0,0,0,0,0,0,0,0,0,-1,860,1093,0,0
-357,-69,0,0,0,0,0,0,0,0,0,-1,867,1093,0,0
-350,-69,0,0,0,0,0,0,0,0,0,-1,874,1093,0,0
-343,-69,0,0,0,0,0,0,0,0,0,-1,881,1093,0,0
-336,-69,0,0,0,0,0,0,0,0,0,-1,888,1093,0,0
-329,-69,0,0,0,0,0,0,0,0,0,-1,895,1093,0,0
-322,-69,0,0,0,0,0,0,0,0,0,-1,902,1093,0,0
-315,-69,0,0,0,0,0,0,0,0,0,-1,909,1093,0,0
-308,-69,0,0,0,0,0,0,0,0,0,-1,916,1093,0,0
-301,-69,0,0,0,0,0,0,0,0,0,-1,923,1093,0,0
-294,-69,0,0,0,0,0,0,0,0,0,-1,930,1093,0,0
-287,-69,0,0,0,0,0,0,0,0,0,-1,937,1093,0,0
-280,-69,0,0,0,0,0,0,0,0,0,-1,944,1093,0,0
-273,-69,0,0,0,0,0,0,0,0,0,-1,951,1093,0,0
-266,-69,0,0,0,0,0,0,0,0,0,-1,958,1093,0,0
-259,-69,0,0,0,0,0,0,0,0,0,-1,965,1093,0,0
-252,-69,0,0,0,0,0,0,0,0,0,-1,972,1093,0,0
-245,-69,0,0,0,0,0,0,0,0,0,-1,979,1093,0,0
-238,-69,0,0,0,0,0,0,0,0,0,-1,986,1093,0,0
-231,-69,0,0,0,0,0,0,0,0,0,-1,993,1093,0,0
-224,-69,0,0,0,0,0,0,0,0,0,-1,1000,1093,0,0
-217,-69,0,0,0,0,0,0,0,0,0,-1,1007,1093,0,0
-210,-69,0,0,0,0,0,0,0,0,0,-1,1014,1093,0,0
-203,-69,0,0,0,0,0,0,0,0,0,-1,1021,1093,0,0
-196,-69,0,0,0,0,0,0,0,0,0,-1,1028,1093,0,0
-189,-69,0,0,0,0,0,0,0,0,0,-1,1035,1093,0,0
-182,-69,0,0,0,0,0,0,0,0,0,-1,1042,1093,0,0
-175,-69,0,0,0,0,0,0,0,0,0,-1,1049,1093,0,0
-168,-69,0,0,0,0,0,0,0,0,0,-1,1056,1093,0,0
-161,-69,0,0,0,0,0,0,0,0,0,-1,1063,1093,0,0
-154,-69,0,0,0,0,0,0,0,0,0,-1,1070,1093,0,0
-147,-69,0,0,0,0,0,0,0,0,0,-1,1077,1093,0,0
-140,-69,0,0,0,0,0,0,0,0,0,-1,1084,1093,0,0
-133,-69,0,0,0,0,0,0,0,0,0,-1,1091,1093,0,0
-126,-69,0,0,0,0,0,0,0,0,0,-1,1098,1093,0,0
-119,-69,0,0,0,0,0,0,0,0,0,-1,1105,1093,0,0
-112,-69,0,0,0,0,0,0,0,0,0,-1,1112,1093,0,0
-105,-69,0,0,0,0,0,0,0,0,0,-1,1119,1093,0,0
-98,-69,0,0,0,0,0,0,0,0,0,-1,1126,1093,0,0
-91,-69,0,0,0,0,0,0,0,0,0,-1,1133,1093,0,0
-84,-69,0,0,0,0,0,0,0,0,0,-1,1140,1093,0,0
-77,-69,0,0,0,0,0,0,0,0,0,-1,1147,1093,0,0
-70,-69,0,0,0,0,0,0,0,0,0,-1,1154,1093,0,0
-63,-69,0,0,0,0,0,0,0,0,0,-1,1161,1093,0,0
-56,-69,0,0,0,0,0,0,0,0,0,-1,1168,1093,0,0
-49,-69,0,0,0,0,0,0,0,0,0,-1,1175,1093,0,0
-42,-69,0,0,0,0,0,0,0,0,0,-1,1182,1093,0,0
-35,-69,0,0,0,0,0,0,0,0,0,-1,1189,1093,0,0
-28,-69,0,0,0,0,0,0,0,0,0,-1,1196,1093,0,0
-21,-69,0,0,0,0,0,0,0,0,0,-1,1203,1093,0,0
-14,-69,0,0,0,0,0,0,0,0,0,-1,1210,1093,0,0
-7,-69,0,0,0,0,0,0,0,0,0,-1,1217,1093,0,0
0,-69,0,0,0,0,0,0,0,0,0,-1,1224,1093,0,0
7,-69,0,0,0,0,0,0,0,0,0,-1,1231,1093,0,0
14,-69,0,0,0,0,0,0,0,0,0,-1,1238,1093,0,0
21,-69,0,0,0,0,0,0,0,0,0,-1,1245,1093,0,0
28,-69,0,0,0,0,0,0,0,0,0,-1,1252,1093,0,0
35,-69,0,0,0,0,0,0,0,0,0,-1,1259,1093,0,0
42,-69,0,0,0,0,0,0,0,0,0,-1,1266,1093,0,0
49,-69,0,0,0,0,0,0,0,0,0,-1,1273,1093,0,0
56,-69,0,0,0,0,0,0,0,0,0,-1,1280,1093,0,0
63,-69,0,0,0,0,0,0,0,0,0,-1,1287,1093,0,0
70,-69,0,0,0,0,0,0,0,0,0,-1,1294,1093,0,0
77,-69,0,0,0,0,0,0,0,0,0,-1,1301,1093,0,0
84,-69,0,0,0,0,0,0,0,0,0,-1,1308,1093,0,0
91,-69,0,0,0,0,0,0,0,0,0,-1,1315,1093,0,0
98,-69,0,0,0,0,0,0,0,0,0,-1,1322,1093,0,0
105,-69,0,0,0,0,0,0,0,0,0,-1,1329,1093,0,0
112,-69,0,0,0,0,0,0,0,0,0,-1,1336,1093,0,0
119,-69,0,0,0,0,0,0,0,0,0,-1,1343,1093,0,0
126,-69,0,0,0,0,0,0,0,0,0,-1,1350,1093,0,0
133,-69,0,0,0,0,0,0,0,0,0,-1,1357,1093,0,0
140,-69,0,0,0,0,0,0,0,0,0,-1,1364,1093,0,0
147,-69,0,0,0,0,0,0,0,0,0,-1,1371,1093,0,0
154,-69,0,0,0,0,0,0,0,0,0,-1,1378,1093,0,0
161,-69,0,0,0,0,0,0,0,0,0,-1,1385,1093,0,0
168,-69,0,0,0,0,0,0,0,0,0,-1,1392,1093,0,0
175,-69,0,0,0,0,0,0,0,0,0,-1,1399,1093,0,0
182,-69,0,0,0,0,0,0,0,0,0,-1,1406,1093,0,0
189,-69,0,0,0,0,0,0,0,0,0,-1,1413,1093,0,0
196,-69,0,0,0,0,0,0,0,0,0,-1,1420,1093,0,0
203,-69,0,0,0,0,0,0,0,0,0,-1,1427,1093,0,0
210,-69,0,0,0,0,0,0,0,0,0,-1,1434,1093,0,0
217,-69,0,0,0,0,0,0,0,0,0,-1,1441,1093,0,0
224,-69,0,0,0,0,0,0,0,0,0,-1,1448,1093,0,0
231,-69,0,0,0,0,0,0,0,0,0,-1,1455,1093,0,0
238,-69,0,0,0,0,0,0,0,0,0,-1,1462,1093,0,0
245,-69,0,0,0,0,0,0,0,0,0,-1,1469,1093,0,0
252,-69,0,0,0,0,0,0,0,0,0,-1,1476,1093,0,0
259,-69,0,0,0,0,0,0,0,0,0,-1,1483,1093,0,0
266,-69,0,0,0,0,0,0,0,0,0,-1,1490,1093,0,0
273,-69,0,0,0,0,0,0,0,0,0,-1,1497,1093,0,0
280,-69,0,0,0,0,0,0,0,0,0,-1,1504,1093,0,0
287,-69,0,0,0,0,0,0,0,0,0,-1,1511,1093,0,0
294,-69,0,0,0,0,0,0,0,0,0,-1,1518,1093,0,0
301,-69,0,0,0,0,0,0,0,0,0,-1,1525,1093,0,0
308,-69,0,0,0,0,0,0,0,0,0,-1,1532,1093,0,0
315,-69,0,0,0,0,0,0,0,0,0,-1,1539,1093,0,0
322,-69,0,0,0,0,0,0,0,0,0,-1,1546,1093,0,0
329,-69,0,0,0,0,0,0,0,0,0,-1,1553,1093,0,0
336,-69,0,0,0,0,0,0,0,0,0,-1,1560,1093,0,0
343,-69,0,0,0,0,0,0,0,0,0,-1,1567,1093,0,0
350,-69,0,0,0,0,0,0,0,0,0,-1,1574,1093,0,0
357,-69,0,0,0,0,0,0,0,0,0,-1,1581,1093,0,0
364,-69,0,0,0,0,0,0,0,0,0,-1,1588,1093,0,0
371,-69,0,0,0,0,0,0,0,0,0,-1,1595,1093,0,0
378,-69,0,0,0,0,0,0,0,0,0,-1,1602,1093,0,0
385,-69,0,0,0,0,0,0,0,0,0,-1,1609,1093,0,0
392,-69,0,0,0,0,0,0,0,0,0,-1,1616,1093,0,0
399,-69,0,0,0,0,0,0,0,0,0,-1,1623,1093,0,0
406,-69,0,0,0,0,0,0,0,0,0,-1,1630,1093,0,0
413,-69,0,0,0,0,0,0,0,0,0,-1,1637,1093,0,0
420,-69,0,0,0,0,0,0,0,0,0,-1,1644,1093,0,0
427,-69,0,0,0,0,0,0,0,0,0,-1,1651,1093,0,0
434,-69,0,0,0,0,0,0,0,0,0,-1,1658,1093,0,0
441,-69,0,0,0,0,0,0,0,0,0,-1,1665,1093,0,0
448,-69,0,0,0,0,0,0,0,0,0,-1,1672,1093,0,0
455,-69,0,0,0,0,0,0,0,0,0,-1,1679,1093,0,0
462,-69,0,0,0,0,0,0,0,0,0,-1,1686,1093,0,0
469,-69,0,0,0,0,0,0,0,0,0,-1,1693,1093,0,0
476,-69,0,0,0,0,0,0,0,0,0,-1,1700,1093,0,0
483,-69,0,0,0,0,0,0,0,0,0,-1,1707,1093,0,0
490,-69,0,0,0,0,0,0,0,0,0,-1,1714,1093,0,0
497,-69,0,0,0,0,0,0,0,0,0,-1,1721,1093,0,0
504,-69,0,0,0,0,0,0,0,0,0,-1,1728,1093,0,0
511,-69,0,0,0,0,0,0,0,0,0,-1,1735,1093,0,0
518,-69,0,0,0,0,0,0,0,0,0,-1,1742,1093,0,0
525,-69,0,0,0,0,0,0,0,0,0,-1,1749,1093,0,0
532,-69,0,0,0,0,0,0,0,0,0,-1,1756,1093,0,0
539,-69,0,0,0,0,0,0,0,0,0,-1,1763,1093,0,0
546,-69,0,0,0,0,0,0,0,0,0,-1,1770,1093,0,0
553,-69,0,0,0,0,0,0,0,0,0,-1,1777,1093,0,0
560,-69,0,0,0,0,0,0,0,0,0,-1,1784,1093,0,0
567,-69,0,0,0,0,0,0,0,0,0,-1,1791,1093,0,0
574,-69,0,0,0,0,0,0,0,0,0,-1,1798,1093,0,0
581,-69,0,0,0,0,0,0,0,0,0,-1,1805,1093,0,0
588,-69,0,0,0,0,0,0,0,0,0,-1,1812,1093,0,0
595,-69,0,0,0,0,0,0,0,0,0,-1,1819,1093,0,0
602,-69,0,0,0,0,0,0,0,0,0,-1,1826,1093,0,0
609,-69,0,0,0,0,0,0,0,0,0,-1,1833,1093,0,0
616,-69,0,0,0,0,0,0,0,0,0,-1,1840,1093,0,0
623,-69,0,0,0,0,0,0,0,0,0,-1,1847,1093,0,0
630,-69,0,0,0,0,0,0,0,0,0,-1,1854,1093,0,0
637,-69,0,0,0,0,0,0,0,0,0,-1,1861,1093,0,0
644,-69,0,0,0,0,0,0,0,0,0,-1,1868,1093,0,0
651,-69,235.384,8.65381,0,0,0,0,0,0,0,-1,1875,1093,235.383,-8.6538
658,-69,235.385,8.48462,0,0,0,0,0,0,0,-1,1882,1093,235.385,-8.48465
665,-69,235.321,8.43335,0,0,0,0,0,0,0,-1,1889,1093,235.321,-8.43338
672,-69,235.213,8.56274,0,0,0,0,0,0,0,-1,1896,1093,235.213,-8.56272
679,-69,235.294,8.54736,0,0,0,0,0,0,0,-1,1903,1093,235.295,-8.54737
686,-69,235.445,8.4696,0,0,0,0,0,0,0,-1,1910,1093,235.445,-8.46955
693,-69,235.412,8.49072,0,0,0,0,0,0,0,-1,1917,1093,235.412,-8.49069
700,-69,235.433,8.46753,0,0,0,0,0,0,0,-1,1924,1093,235.433,-8.46748
707,-69,235.39,8.43359,0,0,0,0,0,0,0,-1,1931,1093,235.39,-8.43353
714,-69,235.311,8.47754,0,0,0,0,0,0,0,-1,1938,1093,235.311,-8.4775
721,-69,235.16,8.62463,0,0,0,0,0,0,0,-1,1945,1093,235.161,-8.62459
728,-69,240.54,32.4341,0,0,0,0,0,0,0,-1,1952,1093,240.54,-32.4341
735,-69,240.77,32.0094,-0.00957933,-0.00171057,0.00353694,-0.00035446,-0.0109354,1.20467,0.00717506,0.0483005,1959,1093,240.77,-32.0094
742,-69,240.717,31.78,-0.0123703,0.00771119,0.00321501,0.00821335,-0.0128724,1.41586,0.0122725,0.0438154,1966,1093,240.717,-31.7801
749,-69,240.496,31.4304,-0.0154352,0.0170199,0.00307055,0.0173079,-0.0157231,1.47729,0.0190778,0.0448038,1973,1093,240.496,-31.4304
756,-69,240.514,31.0671,-0.0186942,0.0262369,0.00305877,0.0264442,-0.0189015,1.50314,0.0263008,0.0210879,1980,1093,240.514,-31.0671
763,-69,240.334,30.8164,-0.0220664,0.0353851,0.00313424,0.0355556,-0.0222369,1.51646,0.0336605,0.0317903,1987,1093,240.334,-30.8164
770,-69,240.05,30.6759,-0.0254684,0.0444887,0.00325063,0.0446394,-0.0256191,1.52446,0.0410563,0.040854,1994,1093,240.05,-30.6759
777,-69,239.945,30.475,-0.028814,0.0535729,0.00336011,0.0537097,-0.0289508,1.5301,0.0484324,0.0458791,2001,1093,239.945,-30.475
784,-69,239.875,30.1975,0,0,0,0,0,0,0,-1,2008,1093,239.875,-30.1975
791,-69,211.786,30.1648,0,0,0,0,0,0,0,-1,2015,1093,211.786,-30.1648
798,-69,130.727,14.436,0,0,0,0,0,0,0,-1,2022,1093,130.727,-14.4361
805,-69,141.347,18.6334,0,0,0,0,0,0,0,-1,2029,1093,141.347,-18.6334
812,-69,141.898,18.0513,0,0,0,0,0,0,0,-1,2036,1093,141.898,-18.0513
-700,-76,0,0,0,0,0,0,0,0,0,-1,524,1100,0,0
-693,-76,-84.1913,0.912598,0,0,0,0,0,0,0,-1,531,1100,-84.1913,-0.912564
-686,-76,-84.7185,2.40625,0,0,0,0,0,0,0,-1,538,1100,-84.7185,-2.40624
-679,-76,-85.125,4.04797,0,0,0,0,0,0,0,-1,545,1100,-85.125,-4.04794
-672,-76,-85.447,5.35437,0,0,0,0,0,0,0,-1,552,1100,-85.447,-5.35438
-665,-76,-85.3085,6.47705,0,0,0,0,0,0,0,-1,559,1100,-85.3085,-6.47707
-658,-76,-67.4031,4.96143,0,0,0,0,0,0,0,-1,566,1100,-67.4031,-4.9614
-651,-76,-182.68,30.7188,0,0,0,0,0,0,0,-1,573,1100,-182.68,-30.7187
-644,-76,-233.001,29.4292,0,0,0,0,0,0,0,-1,580,1100,-233.001,-29.4292
-637,-76,-233.087,29.6793,-0.0203278,0.0541552,0.000527835,0.0541589,-0.0203315,1.56371,0.0444607,0.0340534,587,1100,-233.087,-29.6793
-630,-76,-233.159,30.0054,-0.0166529,0.0440953,0.000247455,0.0440964,-0.0166539,1.56672,0.0362474,0.0213136,594,1100,-233.159,-30.0054
-623,-76,-233.249,30.2484,-0.0131615,0.0345773,0.000120908,0.0345776,-0.0131618,1.56826,0.0284718,0.0313431,601,1100,-233.249,-30.2484
-616,-76,-233.391,30.5815,-0.00984012,0.0255245,0.000105434,0.0255248,-0.00984043,1.56782,0.0210768,0.0325684,608,1100,-233.391,-30.5816
-609,-76,-233.505,31.0033,-0.00667633,0.0168736,0.000162603,0.0168747,-0.00667746,1.56389,0.0140163,0.0318331,615,1100,-233.505,-31.0033
-602,-76,-233.453,31.3309,-0.00365808,0.00857354,0.000257634,0.00857897,-0.0036635,1.54975,0.00725562,0.0275567,622,1100,-233.453,-31.331
-595,-76,-233.581,31.4271,-0.000927471,0.000731428,0.000483707,0.000862166,-0.00105821,1.30682,0.00111065,0.0451376,629,1100,-233.581,-31.4272
-588,-76,-233.889,31.3916,0,0,0,0,0,0,0,-1,636,1100,-233.889,-31.3916
-581,-76,-72.097,0.376953,0,0,0,0,0,0,0,-1,643,1100,-72.097,-0.377007
-574,-76,-72.0711,0.447632,0,0,0,0,0,0,0,-1,650,1100,-72.0711,-0.44758
-567,-76,-72.015,0.546509,0,0,0,0,0,0,0,-1,657,1100,-72.015,-0.546474
-560,-76,-72.2302,0.441284,0,0,0,0,0,0,0,-1,664,1100,-72.2302,-0.44127
-553,-76,-72.1963,0.22937,0,0,0,0,0,0,0,-1,671,1100,-72.1963,-0.229379
-546,-76,-72.09,0.186401,0,0,0,0,0,0,0,-1,678,1100,-72.09,-0.186419
-539,-76,-72.1268,0.189087,0,0,0,0,0,0,0,-1,685,1100,-72.1268,-0.18903
-532,-76,-72.0507,0.187256,0,0,0,0,0,0,0,-1,692,1100,-72.0507,-0.187309
-525,-76,0,0,0,0,0,0,0,0,0,-1,699,1100,0,0
-518,-76,0,0,0,0,0,0,0,0,0,-1,706,1100,0,0
-511,-76,0,0,0,0,0,0,0,0,0,-1,713,1100,0,0
-504,-76,0,0,0,0,0,0,0,0,0,-1,720,1100,0,0
-497,-76,0,0,0,0,0,0,0,0,0,-1,727,1100,0,0
-490,-76,0,0,0,0,0,0,0,0,0,-1,734,1100,0,0
-483,-76,0,0,0,0,0,0,0,0,0,-1,741,1100,0,0
-476,-76,0,0,0,0,0,0,0,0,0,-1,748,1100,0,0
-469,-76,0,0,0,0,0,0,0,0,0,-1,755,1100,0,0
-462,-76,0,0,0,0,0,0,0,0,0,-1,762,1100,0,0
-455,-76,0,0,0,0,0,0,0,0,0,-1,769,1100,0,0
-448,-76,0,0,0,0,0,0,0,0,0,-1,776,1100,0,0
-441,-76,0,0,0,0,0,0,0,0,0,-1,783,1100,0,0
-434,-76,0,0,0,0,0,0,0,0,0,-1,790,1100,0,0
-427,-76,0,0,0,0,0,0,0,0,0,-1,797,1100,0,0
-420,-76,0,0,0,0,0,0,0,0,0,-1,804,1100,0,0
-413,-76,0,0,0,0,0,0,0,0,0,-1,811,1100,0,0
-406,-76,0,0,0,0,0,0,0,0,0,-1,818,1100,0,0
-399,-76,0,0,0,0,0,0,0,0,0,-1,825,1100,0,0
-392,-76,0,0,0,0,0,0,0,0,0,-1,832,1100,0,0
-385,-76,0,0,0,0,0,0,0,0,0,-1,839,1100,0,0
-378,-76,0,0,0,0,0,0,0,0,0,-1,846,1100,0,0
-371,-76,0,0,0,0,0,0,0,0,0,-1,853,1100,0,0
-364,-76,0,0,0,0,0,0,0,0,0,-1,860,1100,0,0
-357,-76,0,0,0,0,0,0,0,0,0,-1,867,1100,0,0
-350,-76,0,0,0,0,0,0,0,0,0,-1,874,1100,0,0
-343,-76,0,0,0,0,0,0,0,0,0,-1,881,1100,0,0
-336,-76,0,0,0,0,0,0,0,0,0,-1,888,1100,0,0
-329,-76,0,0,0,0,0,0,0,0,0,-1,895,1100,0,0
-322,-76,0,0,0,0,0,0,0,0,0,-1,902,1100,0,0
-315,-76,0,0,0,0,0,0,0,0,0,-1,909,1100,0,0
-308,-76,0,0,0,0,0,0,0,0,0,-1,916,1100,0,0
-301,-76,0,0,0,0,0,0,0,0,0,-1,923,1100,0,0
-294,-76,0,0,0,0,0,0,0,0,0,-1,930,1100,0,0
-287,-76,0,0,0,0,0,0,0,0,0,-1,937,1100,0,0
-280,-76,0,0,0,0,0,0,0,0,0,-1,944,1100,0,0
-273,-76,0,0,0,0,0,0,0,0,0,-1,951,1100,0,0
-266,-76,0,0,0,0,0,0,0,0,0,-1,958,1100,0,0
-259,-76,0,0,0,0,0,0,0,0,0,-1,965,1100,0,0
-252,-76,0,0,0,0,0,0,0,0,0,-1,972,1100,0,0
-245,-76,0,0,0,0,0,0,0,0,0,-1,979,1100,0,0
-238,-76,0,0,0,0,0,0,0,0,0,-1,986,1100,0,0
-231,-76,0,0,0,0,0,0,0,0,0,-1,993,1100,0,0
-224,-76,0,0,0,0,0,0,0,0,0,-1,1000,1100,0,0
-217,-76,0,0,0,0,0,0,0,0,0,-1,1007,1100,0,0
-210,-76,0,0,0,0,0,0,0,0,0,-1,1014,1100,0,0
-203,-76,0,0,0,0,0,0,0,0,0,-1,1021,1100,0,0
-196,-76,0,0,0,0,0,0,0,0,0,-1,1028,1100,0,0
-189,-76,0,0,0,0,0,0,0,0,0,-1,1035,1100,0,0
-182,-76,0,0,0,0,0,0,0,0,0,-1,1042,1100,0,0
-175,-76,0,0,0,0,0,0,0,0,0,-1,1049,1100,0,0
-168,-76,0,0,0,0,0,0,0,0,0,-1,1056,1100,0,0
-161,-76,0,0,0,0,0,0,0,0,0,-1,1063,1100,0,0
-154,-76,0,0,0,0,0,0,0,0,0,-1,1070,1100,0,0
-147,-76,0,0,0,0,0,0,0,0,0,-1,1077,1100,0,0
-140,-76,0,0,0,0,0,0,0,0,0,-1,1084,1100,0,0
-133,-76,0,0,0,0,0,0,0,0,0,-1,1091,1100,0,0
-126,-76,0,0,0,0,0,0,0,0,0,-1,1098,1100,0,0
-119,-76,0,0,0,0,0,0,0,0,0,-1,1105,1100,0,0
-112,-76,0,0,0,0,0,0,0,0,0,-1,1112,1100,0,0
-105,-76,0,0,0,0,0,0,0,0,0,-1,1119,1100,0,0
-98,-76,0,0,0,0,0,0,0,0,0,-1,1126,1100,0,0
-91,-76,0,0,0,0,0,0,0,0,0,-1,1133,1100,0,0
-84,-76,0,0,0,0,0,0,0,0,0,-1,1140,1100,0,0
-77,-76,0,0,0,0,0,0,0,0,0,-1,1147,1100,0,0
-70,-76,0,0,0,0,0,0,0,0,0,-1,1154,1100,0,0
-63,-76,0,0,0,0,0,0,0,0,0,-1,1161,1100,0,0
-56,-76,0,0,0,0,0,0,0,0,0,-1,1168,1100,0,0
-49,-76,0,0,0,0,0,0,0,0,0,-1,1175,1100,0,0
-42,-76,0,0,0,0,0,0,0,0,0,-1,1182,1100,0,0
-35,-76,0,0,0,0,0,0,0,0,0,-1,1189,1100,0,0
-28,-76,0,0,0,0,0,0,0,0,0,-1,1196,1100,0,0
-21,-76,0,0,0,0,0,0,0,0,0,-1,1203,1100,0,0
-14,-76,0,0,0,0,0,0,0,0,0,-1,1210,1100,0,0
-7,-76,0,0,0,0,0,0,0,0,0,-1,1217,1100,0,0
0,-76,0,0,0,0,0,0,0,0,0,-1,1224,1100,0,0
7,-76,0,0,0,0,0,0,0,0,0,-1,1231,1100,0,0
14,-76,0,0,0,0,0,0,0,0,0,-1,1238,1100,0,0
21,-76,0,0,0,0,0,0,0,0,0,-1,1245,1100,0,0
28,-76,0,0,0,0,0,0,0,0,0,-1,1252,1100,0,0
35,-76,0,0,0,0,0,0,0,0,0,-1,1259,1100,0,0
42,-76,0,0,0,0,0,0,0,0,0,-1,1266,1100,0,0
49,-76,0,0,0,0,0,0,0,0,0,-1,1273,1100,0,0
56,-76,0,0,0,0,0,0,0,0,0,-1,1280,1100,0,0
63,-76,0,0,0,0,0,0,0,0,0,-1,1287,1100,0,0
70,-76,0,0,0,0,0,0,0,0,0,-1,1294,1100,0,0
77,-76,0,0,0,0,0,0,0,0,0,-1,1301,1100,0,0
84,-76,0,0,0,0,0,0,0,0,0,-1,1308,1100,0,0
91,-76,0,0,0,0,0,0,0,0,0,-1,1315,1100,0,0
98,-76,0,0,0,0,0,0,0,0,0,-1,1322,1100,0,0
105,-76,0,0,0,0,0,0,0,0,0,-1,1329,1100,0,0
112,-76,0,0,0,0,0,0,0,0,0,-1,1336,1100,0,0
119,-76,0,0,0,0,0,0,0,0,0,-1,1343,1100,0,0
126,-76,0,0,0,0,0,0,0,0,0,-1,1350,1100,0,0
133,-76,0,0,0,0,0,0,0,0,0,-1,1357,1100,0,0
140,-76,0,0,0,0,0,0,0,0,0,-1,1364,1100,0,0
147,-76,0,0,0,0,0,0,0,0,0,-1,1371,1100,0,0
154,-76,0,0,0,0,0,0,0,0,0,-1,1378,1100,0,0
161,-76,0,0,0,0,0,0,0,0,0,-1,1385,1100,0,0
168,-76,0,0,0,0,0,0,0,0,0,-1,1392,1100,0,0
175,-76,0,0,0,0,0,0,0,0,0,-1,1399,1100,0,0
182,-76,0,0,0,0,0,0,0,0,0,-1,1406,1100,0,0
189,-76,0,0,0,0,0,0,0,0,0,-1,1413,1100,0,0
196,-76,0,0,0,0,0,0,0,0,0,-1,1420,1100,0,0
203,-76,0,0,0,0,0,0,0,0,0,-1,1427,1100,0,0
210,-76,0,0,0,0,0,0,0,0,0,-1,1434,1100,0,0
217,-76,0,0,0,0,0,0,0,0,0,-1,1441,1100,0,0
224,-76,0,0,0,0,0,0,0,0,0,-1,1448,1100,0,0
231,-76,0,0,0,0,0,0,0,0,0,-1,1455,1100,0,0
238,-76,0,0,0,0,0,0,0,0,0,-1,1462,1100,0,0
245,-76,0,0,0,0,0,0,0,0,0,-1,1469,1100,0,0
252,-76,0,0,0,0,0,0,0,0,0,-1,1476,1100,0,0
259,-76,0,0,0,0,0,0,0,0,0,-1,1483,1100,0,0
266,-76,0,0,0,0,0,0,0,0,0,-1,1490,1100,0,0
273,-76,0,0,0,0,0,0,0,0,0,-1,1497,1100,0,0
280,-76,0,0,0,0,0,0,0,0,0,-1,1504,1100,0,0
287,-76,0,0,0,0,0,0,0,0,0,-1,1511,1100,0,0
294,-76,0,0,0,0,0,0,0,0,0,-1,1518,1100,0,0
301,-76,0,0,0,0,0,0,0,0,0,-1,1525,1100,0,0
308,-76,0,0,0,0,0,0,0,0,0,-1,1532,1100,0,0
315,-76,0,0,0,0,0,0,0,0,0,-1,1539,1100,0,0
322,-76,0,0,0,0,0,0,0,0,0,-1,1546,1100,0,0
329,-76,0,0,0,0,0,0,0,0,0,-1,1553,1100,0,0
336,-76,0,0,0,0,0,0,0,0,0,-1,1560,1100,0,0
343,-76,0,0,0,0,0,0,0,0,0,-1,1567,1100,0,0
350,-76,0,0,0,0,0,0,0,0,0,-1,1574,1100,0,0
357,-76,0,0,0,0,0,0,0,0,0,-1,1581,1100,0,0
364,-76,0,0,0,0,0,0,0,0,0,-1,1588,1100,0,0
371,-76,0,0,0,0,0,0,0,0,0,-1,1595,1100,0,0
378,-76,0,0,0,0,0,0,0,0,0,-1,1602,1100,0,0
385,-76,0,0,0,0,0,0,0,0,0,-1,1609,1100,0,0
392,-76,0,0,0,0,0,0,0,0,0,-1,1616,1100,0,0
399,-76,0,0,0,0,0,0,0,0,0,-1,1623,1100,0,0
406,-76,0,0,0,0,0,0,0,0,0,-1,1630,1100,0,0
413,-76,0,0,0,0,0,0,0,0,0,-1,1637,1100,0,0
420,-76,0,0,0,0,0,0,0,0,0,-1,1644,1100,0,0
427,-76,0,0,0,0,0,0,0,0,0,-1,1651,1100,0,0
434,-76,0,0,0,0,0,0,0,0,0,-1,1658,1100,0,0
441,-76,0,0,0,0,0,0,0,0,0,-1,1665,1100,0,0
448,-76,0,0,0,0,0,0,0,0,0,-1,1672,1100,0,0
455,-76,0,0,0,0,0,0,0,0,0,-1,1679,1100,0,0
462,-76,0,0,0,0,0,0,0,0,0,-1,1686,1100,0,0
469,-76,0,0,0,0,0,0,0,0,0,-1,1693,1100,0,0
476,-76,0,0,0,0,0,0,0,0,0,-1,1700,1100,0,0
483,-76,0,0,0,0,0,0,0,0,0,-1,1707,1100,0,0
490,-76,0,0,0,0,0,0,0,0,0,-1,1714,1100,0,0
497,-76,0,0,0,0,0,0,0,0,0,-1,1721,1100,0,0
504,-76,0,0,0,0,0,0,0,0,0,-1,1728,1100,0,0
511,-76,0,0,0,0,0,0,0,0,0,-1,1735,1100,0,0
518,-76,0,0,0,0,0,0,0,0,0,-1,1742,1100,0,0
525,-76,0,0,0,0,0,0,0,0,0,-1,1749,1100,0,0
532,-76,0,0,0,0,0,0,0,0,0,-1,1756,1100,0,0
539,-76,0,0,0,0,0,0,0,0,0,-1,1763,1100,0,0
546,-76,0,0,0,0,0,0,0,0,0,-1,1770,1100,0,0
553,-76,0,0,0,0,0,0,0,0,0,-1,1777,1100,0,0
560,-76,0,0,0,0,0,0,0,0,0,-1,1784,1100,0,0
567,-76,0,0,0,0,0,0,0,0,0,-1,1791,1100,0,0
574,-76,0,0,0,0,0,0,0,0,0,-1,1798,1100,0,0
581,-76,0,0,0,0,0,0,0,0,0,-1,1805,1100,0,0
588,-76,0,0,0,0,0,0,0,0,0,-1,1812,1100,0,0
595,-76,0,0,0,0,0,0,0,0,0,-1,1819,1100,0,0
602,-76,0,0,0,0,0,0,0,0,0,-1,1826,1100,0,0
609,-76,0,0,0,0,0,0,0,0,0,-1,1833,1100,0,0
616,-76,0,0,0,0,0,0,0,0,0,-1,1840,1100,0,0
623,-76,0,0,0,0,0,0,0,0,0,-1,1847,1100,0,0
630,-76,0,0,0,0,0,0,0,0,0,-1,1854,1100,0,0
637,-76,0,0,0,0,0,0,0,0,0,-1,1861,1100,0,0
644,-76,0,0,0,0,0,0,0,0,0,-1,1868,1100,0,0
651,-76,235.446,8.68042,0,0,0,0,0,0,0,-1,1875,1100,235.446,-8.68046
658,-76,235.326,8.6438,0,0,0,0,0,0,0,-1,1882,1100,235.326,-8.64385
665,-76,235.208,8.46814,0,0,0,0,0,0,0,-1,1889,1100,235.208,-8.46819
672,-76,235.282,8.53613,0,0,0,0,0,0,0,-1,1896,1100,235.282,-8.53609
679,-76,235.332,8.56055,0,0,0,0,0,0,0,-1,1903,1100,235.332,-8.56053
686,-76,235.411,8.53845,0,0,0,0,0,0,0,-1,1910,1100,235.411,-8.53844
693,-76,235.404,8.46875,0,0,0,0,0,0,0,-1,1917,1100,235.404,-8.4687
700,-76,235.37,8.37292,0,0,0,0,0,0,0,-1,1924,1100,235.37,-8.37291
707,-76,235.371,8.48438,0,0,0,0,0,0,0,-1,1931,1100,235.371,-8.48442
714,-76,235.436,8.51636,0,0,0,0,0,0,0,-1,1938,1100,235.436,-8.51631
721,-76,45.1713,3.04919,0,0,0,0,0,0,0,-1,1945,1100,45.1713,-3.04915
728,-76,156.902,25.9305,0,0,0,0,0,0,0,-1,1952,1100,156.902,-25.9305
735,-76,240.477,32.1241,0,0,0,0,0,0,0,-1,1959,1100,240.477,-32.1241
742,-76,240.289,31.7646,-0.0115752,0.00842336,0.00376031,0.00910703,-0.0122589,1.39095,0.0123803,0.0439947,1966,1100,240.289,-31.7646
749,-76,240.108,31.3066,-0.0149861,0.0182001,0.00335652,0.0185362,-0.0153222,1.471,0.0195775,0.0385237,1973,1100,240.108,-31.3066
756,-76,240.127,30.9515,-0.0186433,0.027846,0.0031269,0.0280554,-0.0188527,1.50394,0.0272556,0.0235538,1980,1100,240.127,-30.9515
763,-76,239.912,30.7131,-0.022464,0.0373839,0.00302052,0.037536,-0.0226161,1.5205,0.0350831,0.0308719,1987,1100,239.912,-30.7131
770,-76,239.675,30.444,-0.0263623,0.0468384,0.00298659,0.04696,-0.026484,1.53009,0.0429487,0.0336409,1994,1100,239.675,-30.444
777,-76,239.455,30.272,-0.0302493,0.0562354,0.00297418,0.0563375,-0.0303514,1.53646,0.0507939,0.0467888,2001,1100,239.455,-30.272
784,-76,239.298,29.9082,0,0,0,0,0,0,0,-1,2008,1100,239.298,-29.9082
791,-76,210.776,29.9143,0,0,0,0,0,0,0,-1,2015,1100,210.776,-29.9144
798,-76,154.434,19.4275,0,0,0,0,0,0,0,-1,2022,1100,154.434,-19.4275
805,-76,125.512,12.9398,0,0,0,0,0,0,0,-1,2029,1100,125.512,-12.9399
812,-76,140.617,18.4784,0,0,0,0,0,0,0,-1,2036,1100,140.617,-18.4783
-700,-83,0,0,0,0,0,0,0,0,0,-1,524,1107,0,0
-693,-83,-83.7391,1.26392,0,0,0,0,0,0,0,-1,531,1107,-83.7391,-1.26397
-686,-83,-83.9973,2.73779,0,0,0,0,0,0,0,-1,538,1107,-83.9973,-2.73779
-679,-83,-84.214,4.20288,0,0,0,0,0,0,0,-1,545,1107,-84.214,-4.20288
-672,-83,-84.4678,5.47815,0,0,0,0,0,0,0,-1,552,1107,-84.4678,-5.47815
-665,-83,-85.1248,6.91895,0,0,0,0,0,0,0,-1,559,1107,-85.1248,-6.91893
-658,-83,-85.575,8.10474,0,0,0,0,0,0,0,-1,566,1107,-85.575,-8.10475
-651,-83,-231.668,29.1128,0,0,0,0,0,0,0,-1,573,1107,-231.668,-29.1128
-644,-83,-232.281,29.2007,-0.0240928,0.0664618,6.92241e-05,0.0664618,-0.0240928,1.57003,0.0541557,0.0433165,580,1107,-232.281,-29.2007
-637,-83,-232.68,29.3959,-0.0205694,0.0555052,-0.000304369,0.0555064,-0.0205707,-1.5668,0.0454406,0.0247251,587,1107,-232.68,-29.3959
-630,-83,-232.737,29.707,-0.0172478,0.0452288,-0.00044926,0.0452321,-0.0172511,-1.56361,0.0372609,0.0258906,594,1107,-232.737,-29.7071
-623,-83,-232.812,29.9652,-0.0141144,0.0355306,-0.000421704,0.0355342,-0.014118,-1.5623,0.0295422,0.0386993,601,1107,-232.812,-29.9652
-616,-83,-233.028,30.343,0,0,0,0,0,0,0,-1,608,1107,-233.028,-30.343
-609,-83,-233.113,30.8096,-0.00836137,0.0175333,-4.46123e-05,0.0175333,-0.00836144,-1.56907,0.0152598,0.0349481,615,1107,-233.113,-30.8095
-602,-83,-233.109,31.3293,-0.00571627,0.00910102,0.00021979,0.00910428,-0.00571953,1.55597,0.00863258,0.0282578,622,1107,-233.109,-31.3293
-595,-83,-233.102,31.5294,-0.00336694,0.00109483,0.000603474,0.00117501,-0.00344712,1.4387,0.00277398,0.0453351,629,1107,-233.102,-31.5294
-588,-83,-233.357,31.2449,0,0,0,0,0,0,0,-1,636,1107,-233.357,-31.2448
-581,-83,-72.0923,0.283447,0,0,0,0,0,0,0,-1,643,1107,-72.0923,-0.283507
-574,-83,-72.0815,0.412354,0,0,0,0,0,0,0,-1,650,1107,-72.0815,-0.412369
-567,-83,-72.0112,0.552002,0,0,0,0,0,0,0,-1,657,1107,-72.0112,-0.551955
-560,-83,-72.1143,0.244629,0,0,0,0,0,0,0,-1,664,1107,-72.1142,-0.244629
-553,-83,-72.1241,0.0872803,0,0,0,0,0,0,0,-1,671,1107,-72.1241,-0.0872678
-546,-83,-72.0452,0.189331,0,0,0,0,0,0,0,-1,678,1107,-72.0452,-0.189338
-539,-83,-72.0553,0.273926,0,0,0,0,0,0,0,-1,685,1107,-72.0553,-0.273949
-532,-83,-72.0438,0.221191,0,0,0,0,0,0,0,-1,692,1107,-72.0438,-0.221206
-525,-83,0,0,0,0,0,0,0,0,0,-1,699,1107,0,0
-518,-83,0,0,0,0,0,0,0,0,0,-1,706,1107,0,0
-511,-83,0,0,0,0,0,0,0,0,0,-1,713,1107,0,0
-504,-83,0,0,0,0,0,0,0,0,0,-1,720,1107,0,0
-497,-83,0,0,0,0,0,0,0,0,0,-1,727,1107,0,0
-490,-83,0,0,0,0,0,0,0,0,0,-1,734,1107,0,0
-483,-83,0,0,0,0,0,0,0,0,0,-1,741,1107,0,0
-476,-83,0,0,0,0,0,0,0,0,0,-1,748,1107,0,0
-469,-83,0,0,0,0,0,0,0,0,0,-1,755,1107,0,0
-462,-83,0,0,0,0,0,0,0,0,0,-1,762,1107,0,0
-455,-83,0,0,0,0,0,0,0,0,0,-1,769,1107,0,0
-448,-83,0,0,0,0,0,0,0,0,0,-1,776,1107,0,0
-441,-83,0,0,0,0,0,0,0,0,0,-1,783,1107,0,0
-434,-83,0,0,0,0,0,0,0,0,0,-1,790,1107,0,0
-427,-83,0,0,0,0,0,0,0,0,0,-1,797,1107,0,0
-420,-83,0,0,0,0,0,0,0,0,0,-1,804,1107,0,0
-413,-83,0,0,0,0,0,0,0,0,0,-1,811,1107,0,0
-406,-83,0,0,0,0,0,0,0,0,0,-1,818,1107,0,0
-399,-83,0,0,0,0,0,0,0,0,0,-1,825,1107,0,0
-392,-83,0,0,0,0,0,0,0,0,0,-1,832,1107,0,0
-385,-83,0,0,0,0,0,0,0,0,0,-1,839,1107,0,0
-378,-83,0,0,0,0,0,0,0,0,0,-1,846,1107,0,0
-371,-83,0,0,0,0,0,0,0,0,0,-1,853,1107,0,0
-364,-83,0,0,0,0,0,0,0,0,0,-1,860,1107,0,0
-357,-83,0,0,0,0,0,0,0,0,0,-1,867,1107,0,0
-350,-83,0,0,0,0,0,0,0,0,0,-1,874,1107,0,0
-343,-83,0,0,0,0,0,0,0,0,0,-1,881,1107,0,0
-336,-83,0,0,0,0,0,0,0,0,0,-1,888,1107,0,0
-329,-83,0,0,0,0,0,0,0,0,0,-1,895,1107,0,0
-322,-83,0,0,0,0,0,0,0,0,0,-1,902,1107,0,0
-315,-83,0,0,0,0,0,0,0,0,0,-1,909,1107,0,0
-308,-83,0,0,0,0,0,0,0,0,0,-1,916,1107,0,0
-301,-83,0,0,0,0,0,0,0,0,0,-1,923,1107,0,0
-294,-83,0,0,0,0,0,0,0,0,0,-1,930,1107,0,0
-287,-83,0,0,0,0,0,0,0,0,0,-1,937,1107,0,0
-280,-83,0,0,0,0,0,0,0,0,0,-1,944,1107,0,0
-273,-83,0,0,0,0,0,0,0,0,0,-1,951,1107,0,0
-266,-83,0,0,0,0,0,0,0,0,0,-1,958,1107,0,0
-259,-83,0,0,0,0,0,0,0,0,0,-1,965,1107,0,0
-252,-83,0,0,0,0,0,0,0,0,0,-1,972,1107,0,0
-245,-83,0,0,0,0,0,0,0,0,0,-1,979,1107,0,0
-238,-83,0,0,0,0,0,0,0,0,0,-1,986,1107,0,0
-231,-83,0,0,0,0,0,0,0,0,0,-1,993,1107,0,0
-224,-83,0,0,0,0,0,0,0,0,0,-1,1000,1107,0,0
-217,-83,0,0,0,0,0,0,0,0,0,-1,1007,1107,0,0
-210,-83,0,0,0,0,0,0,0,0,0,-1,1014,1107,0,0
-203,-83,0,0,0,0,0,0,0,0,0,-1,1021,1107,0,0
-196,-83,0,0,0,0,0,0,0,0,0,-1,1028,1107,0,0
-189,-83,0,0,0,0,0,0,0,0,0,-1,1035,1107,0,0
-182,-83,0,0,0,0,0,0,0,0,0,-1,1042,1107,0,0
-175,-83,0,0,0,0,0,0,0,0,0,-1,1049,1107,0,0
-168,-83,0,0,0,0,0,0,0,0,0,-1,1056,1107,0,0
-161,-83,0,0,0,0,0,0,0,0,0,-1,1063,1107,0,0
-154,-83,0,0,0,0,0,0,0,0,0,-1,1070,1107,0,0
-147,-83,0,0,0,0,0,0,0,0,0,-1,1077,1107,0,0
-140,-83,0,0,0,0,0,0,0,0,0,-1,1084,1107,0,0
-133,-83,0,0,0,0,0,0,0,0,0,-1,1091,1107,0,0
-126,-83,0,0,0,0,0,0,0,0,0,-1,1098,1107,0,0
-119,-83,0,0,0,0,0,0,0,0,0,-1,1105,1107,0,0
-112,-83,0,0,0,0,0,0,0,0,0,-1,1112,1107,0,0
-105,-83,0,0,0,0,0,0,0,0,0,-1,1119,1107,0,0
-98,-83,0,0,0,0,0,0,0,0,0,-1,1126,1107,0,0
-91,-83,0,0,0,0,0,0,0,0,0,-1,1133,1107,0,0
-84,-83,0,0,0,0,0,0,0,0,0,-1,1140,1107,0,0
-77,-83,0,0,0,0,0,0,0,0,0,-1,1147,1107,0,0
-70,-83,0,0,0,0,0,0,0,0,0,-1,1154,1107,0,0
-63,-83,0,0,0,0,0,0,0,0,0,-1,1161,1107,0,0
-56,-83,0,0,0,0,0,0,0,0,0,-1,1168,1107,0,0
-49,-83,0,0,0,0,0,0,0,0,0,-1,1175,1107,0,0
-42,-83,0,0,0,0,0,0,0,0,0,-1,1182,1107,0,0
-35,-83,0,0,0,0,0,0,0,0,0,-1,1189,1107,0,0
-28,-83,0,0,0,0,0,0,0,0,0,-1,1196,1107,0,0
-21,-83,0,0,0,0,0,0,0,0,0,-1,1203,1107,0,0
-14,-83,0,0,0,0,0,0,0,0,0,-1,1210,1107,0,0
-7,-83,0,0,0,0,0,0,0,0,0,-1,1217,1107,0,0
0,-83,0,0,0,0,0,0,0,0,0,-1,1224,1107,0,0
7,-83,0,0,0,0,0,0,0,0,0,-1,1231,1107,0,0
14,-83,0,0,0,0,0,0,0,0,0,-1,1238,1107,0,0
21,-83,0,0,0,0,0,0,0,0,0,-1,1245,1107,0,0
28,-83,0,0,0,0,0,0,0,0,0,-1,1252,1107,0,0
35,-83,0,0,0,0,0,0,0,0,0,-1,1259,1107,0,0
42,-83,0,0,0,0,0,0,0,0,0,-1,1266,1107,0,0
49,-83,0,0,0,0,0,0,0,0,0,-1,1273,1107,0,0
56,-83,0,0,0,0,0,0,0,0,0,-1,1280,1107,0,0
63,-83,0,0,0,0,0,0,0,0,0,-1,1287,1107,0,0
70,-83,0,0,0,0,0,0,0,0,0,-1,1294,1107,0,0
77,-83,0,0,0,0,0,0,0,0,0,-1,1301,1107,0,0
84,-83,0,0,0,0,0,0,0,0,0,-1,1308,1107,0,0
91,-83,0,0,0,0,0,0,0,0,0,-1,1315,1107,0,0
98,-83,0,0,0,0,0,0,0,0,0,-1,1322,1107,0,0
105,-83,0,0,0,0,0,0,0,0,0,-1,1329,1107,0,0
112,-83,0,0,0,0,0,0,0,0,0,-1,1336,1107,0,0
119,-83,0,0,0,0,0,0,0,0,0,-1,1343,1107,0,0
126,-83,0,0,0,0,0,0,0,0,0,-1,1350,1107,0,0
133,-83,0,0,0,0,0,0,0,0,0,-1,1357,1107,0,0
140,-83,0,0,0,0,0,0,0,0,0,-1,1364,1107,0,0
147,-83,0,0,0,0,0,0,0,0,0,-1,1371,1107,0,0
154,-83,0,0,0,0,0,0,0,0,0,-1,1378,1107,0,0
161,-83,0,0,0,0,0,0,0,0,0,-1,1385,1107,0,0
168,-83,0,0,0,0,0,0,0,0,0,-1,1392,1107,0,0
175,-83,0,0,0,0,0,0,0,0,0,-1,1399,1107,0,0
182,-83,0,0,0,0,0,0,0,0,0,-1,1406,1107,0,0
189,-83,0,0,0,0,0,0,0,0,0,-1,1413,1107,0,0
196,-83,0,0,0,0,0,0,0,0,0,-1,1420,1107,0,0
203,-83,0,0,0,0,0,0,0,0,0,-1,1427,1107,0,0
210,-83,0,0,0,0,0,0,0,0,0,-1,1434,1107,0,0
217,-83,0,0,0,0,0,0,0,0,0,-1,1441,1107,0,0
224,-83,0,0,0,0,0,0,0,0,0,-1,1448,1107,0,0
231,-83,0,0,0,0,0,0,0,0,0,-1,1455,1107,0,0
238,-83,0,0,0,0,0,0,0,0,0,-1,1462,1107,0,0
245,-83,0,0,0,0,0,0,0,0,0,-1,1469,1107,0,0
252,-83,0,0,0,0,0,0,0,0,0,-1,1476,1107,0,0
259,-83,0,0,0,0,0,0,0,0,0,-1,1483,1107,0,0
266,-83,0,0,0,0,0,0,0,0,0,-1,1490,1107,0,0
273,-83,0,0,0,0,0,0,0,0,0,-1,1497,1107,0,0
280,-83,0,0,0,0,0,0,0,0,0,-1,1504,1107,0,0
287,-83,0,0,0,0,0,0,0,0,0,-1,1511,1107,0,0
294,-83,0,0,0,0,0,0,0,0,0,-1,1518,1107,0,0
301,-83,0,0,0,0,0,0,0,0,0,-1,1525,1107,0,0
308,-83,0,0,0,0,0,0,0,0,0,-1,1532,1107,0,0
315,-83,0,0,0,0,0,0,0,0,0,-1,1539,1107,0,0
322,-83,0,0,0,0,0,0,0,0,0,-1,1546,1107,0,0
329,-83,0,0,0,0,0,0,0,0,0,-1,1553,1107,0,0
336,-83,0,0,0,0,0,0,0,0,0,-1,1560,1107,0,0
343,-83,0,0,0,0,0,0,0,0,0,-1,1567,1107,0,0
350,-83,0,0,0,0,0,0,0,0,0,-1,1574,1107,0,0
357,-83,0,0,0,0,0,0,0,0,0,-1,1581,1107,0,0
364,-83,0,0,0,0,0,0,0,0,0,-1,1588,1107,0,0
371,-83,0,0,0,0,0,0,0,0,0,-1,1595,1107,0,0
378,-83,0,0,0,0,0,0,0,0,0,-1,1602,1107,0,0
385,-83,0,0,0,0,0,0,0,0,0,-1,1609,1107,0,0
392,-83,0,0,0,0,0,0,0,0,0,-1,1616,1107,0,0
399,-83,0,0,0,0,0,0,0,0,0,-1,1623,1107,0,0
406,-83,0,0,0,0,0,0,0,0,0,-1,1630,1107,0,0
413,-83,0,0,0,0,0,0,0,0,0,-1,1637,1107,0,0
420,-83,0,0,0,0,0,0,0,0,0,-1,1644,1107,0,0
427,-83,0,0,0,0,0,0,0,0,0,-1,1651,1107,0,0
434,-83,0,0,0,0,0,0,0,0,0,-1,1658,1107,0,0
441,-83,0,0,0,0,0,0,0,0,0,-1,1665,1107,0,0
448,-83,0,0,0,0,0,0,0,0,0,-1,1672,1107,0,0
455,-83,0,0,0,0,0,0,0,0,0,-1,1679,1107,0,0
462,-83,0,0,0,0,0,0,0,0,0,-1,1686,1107,0,0
469,-83,0,0,0,0,0,0,0,0,0,-1,1693,1107,0,0
476,-83,0,0,0,0,0,0,0,0,0,-1,1700,1107,0,0
483,-83,0,0,0,0,0,0,0,0,0,-1,1707,1107,0,0
490,-83,0,0,0,0,0,0,0,0,0,-1,1714,1107,0,0
497,-83,0,0,0,0,0,0,0,0,0,-1,1721,1107,0,0
504,-83,0,0,0,0,0,0,0,0,0,-1,1728,1107,0,0
511,-83,0,0,0,0,0,0,0,0,0,-1,1735,1107,0,0
518,-83,0,0,0,0,0,0,0,0,0,-1,1742,1107,0,0
525,-83,0,0,0,0,0,0,0,0,0,-1,1749,1107,0,0
532,-83,0,0,0,0,0,0,0,0,0,-1,1756,1107,0,0
539,-83,0,0,0,0,0,0,0,0,0,-1,1763,1107,0,0
546,-83,0,0,0,0,0,0,0,0,0,-1,1770,1107,0,0
553,-83,0,0,0,0,0,0,0,0,0,-1,1777,1107,0,0
560,-83,0,0,0,0,0,0,0,0,0,-1,1784,1107,0,0
567,-83,0,0,0,0,0,0,0,0,0,-1,1791,1107,0,0
574,-83,0,0,0,0,0,0,0,0,0,-1,1798,1107,0,0
581,-83,0,0,0,0,0,0,0,0,0,-1,1805,1107,0,0
588,-83,0,0,0,0,0,0,0,0,0,-1,1812,1107,0,0
595,-83,0,0,0,0,0,0,0,0,0,-1,1819,1107,0,0
602,-83,0,0,0,0,0,0,0,0,0,-1,1826,1107,0,0
609,-83,0,0,0,0,0,0,0,0,0,-1,1833,1107,0,0
616,-83,0,0,0,0,0,0,0,0,0,-1,1840,1107,0,0
623,-83,0,0,0,0,0,0,0,0,0,-1,1847,1107,0,0
630,-83,0,0,0,0,0,0,0,0,0,-1,1854,1107,0,0
637,-83,0,0,0,0,0,0,0,0,0,-1,1861,1107,0,0
644,-83,235.407,8.73145,0,0,0,0,0,0,0,-1,1868,1107,235.407,-8.73141
651,-83,235.482,8.61707,0,0,0,0,0,0,0,-1,1875,1107,235.482,-8.61703
658,-83,235.494,8.69531,0,0,0,0,0,0,0,-1,1882,1107,235.494,-8.6953
665,-83,235.262,8.69873,0,0,0,0,0,0,0,-1,1889,1107,235.262,-8.69871
672,-83,235.248,8.64417,0,0,0,0,0,0,0,-1,1896,1107,235.248,-8.64416
679,-83,235.282,8.65454,0,0,0,0,0,0,0,-1,1903,1107,235.282,-8.65453
686,-83,235.345,8.57605,0,0,0,0,0,0,0,-1,1910,1107,235.345,-8.57601
693,-83,235.33,8.4303,0,0,0,0,0,0,0,-1,1917,1107,235.33,-8.43034
700,-83,235.316,8.48413,0,0,0,0,0,0,0,-1,1924,1107,235.316,-8.48409
707,-83,235.359,8.55286,0,0,0,0,0,0,0,-1,1931,1107,235.359,-8.55287
714,-83,235.489,8.50024,0,0,0,0,0,0,0,-1,1938,1107,235.489,-8.50019
721,-83,49.1162,7.36719,0,0,0,0,0,0,0,-1,1945,1107,49.1162,-7.36721
728,-83,66.6315,8.32141,0,0,0,0,0,0,0,-1,1952,1107,66.6314,-8.32147
735,-83,239.749,32.0648,0,0,0,0,0,0,0,-1,1959,1107,239.749,-32.0648
742,-83,239.81,31.6295,-0.0107649,0.00915898,0.00396456,0.00991889,-0.0115248,1.38142,0.0123921,0.0487266,1966,1107,239.81,-31.6295
749,-83,239.873,31.192,-0.0144927,0.0193604,0.00348866,0.0197162,-0.0148485,1.46917,0.0200218,0.0318557,1973,1107,239.873,-31.192
756,-83,239.787,30.7448,-0.0185079,0.0294093,0.00320684,0.0296229,-0.0187215,1.50427,0.0281473,0.0261796,1980,1107,239.787,-30.7448
763,-83,239.637,30.3219,-0.0227366,0.0393315,0.00306285,0.0394822,-0.0228874,1.52161,0.0364315,0.0194474,1987,1107,239.637,-30.3218
770,-83,239.385,30.0439,-0.0271007,0.049154,0.00300148,0.0492719,-0.0272187,1.53152,0.0447695,0.0256087,1994,1107,239.385,-30.0439
777,-83,238.905,29.7025,-0.031518,0.0589045,0.00296836,0.0590018,-0.0316153,1.53802,0.0531083,0.0392332,2001,1107,238.905,-29.7025
784,-83,238.392,29.3694,0,0,0,0,0,0,0,-1,2008,1107,238.392,-29.3694
791,-83,203.463,30.1829,0,0,0,0,0,0,0,-1,2015,1107,203.463,-30.1829
798,-83,131.871,16.2344,0,0,0,0,0,0,0,-1,2022,1107,131.871,-16.2344
805,-83,124.276,12.3838,0,0,0,0,0,0,0,-1,2029,1107,124.276,-12.3837
812,-83,124.219,11.7633,0,0,0,0,0,0,0,-1,2036,1107,124.219,-11.7633
-700,-90,0,0,0,0,0,0,0,0,0,-1,524,1114,0,0
-693,-90,-90.692,3.47388,0,0,0,0,0,0,0,-1,531,1114,-90.692,-3.4739
-686,-90,-90.7303,5.27307,0,0,0,0,0,0,0,-1,538,1114,-90.7303,-5.27313
-679,-90,-90.8391,6.87366,0,0,0,0,0,0,0,-1,545,1114,-90.8391,-6.8736
-672,-90,-90.992,7.98755,0,0,0,0,0,0,0,-1,552,1114,-90.9921,-7.98753
-665,-90,-90.9703,9.08142,0,0,0,0,0,0,0,-1,559,1114,-90.9703,-9.08142
-658,-90,-91.029,9.63928,0,0,0,0,0,0,0,-1,566,1114,-91.029,-9.63924
-651,-90,-231.881,27.5724,0,0,0,0,0,0,0,-1,573,1114,-231.881,-27.5724
-644,-90,-232.111,28.3311,-0.0237851,0.0679159,-0.00110032,0.0679291,-0.0237983,-1.5588,0.0549639,0.0339978,580,1114,-232.111,-28.331
-637,-90,-232.206,29.0146,-0.0207382,0.05679,-0.0012959,0.0568117,-0.0207599,-1.55409,0.0463702,0.0282668,587,1114,-232.206,-29.0147
-630,-90,-232.286,29.5031,-0.0178603,0.0463994,-0.00123972,0.0464233,-0.0178842,-1.55151,0.0383273,0.0254772,594,1114,-232.286,-29.5031
-623,-90,-232.402,29.9296,-0.0151462,0.0366278,-0.000997856,0.036647,-0.0151654,-1.55153,0.030759,0.0248966,601,1114,-232.402,-29.9295
-616,-90,-232.562,30.3727,-0.0125919,0.027374,-0.000628734,0.0273839,-0.0126018,-1.55507,0.0236057,0.0220169,608,1114,-232.562,-30.3727
-609,-90,-232.597,30.8196,-0.0101937,0.0185508,-0.000183951,0.0185519,-0.0101949,-1.5644,0.0168291,0.035581,615,1114,-232.597,-30.8196
-602,-90,-232.75,31.2778,-0.00794684,0.0100837,0.000290833,0.0100884,-0.00795153,1.55467,0.0104397,0.0297274,622,1114,-232.75,-31.2778
-595,-90,-232.811,31.6102,-0.00591569,0.00197253,0.000855664,0.00206428,-0.00600744,1.46398,0.00484202,0.0359745,629,1114,-232.811,-31.6103
-588,-90,-233.148,31.4851,0,0,0,0,0,0,0,-1,636,1114,-233.148,-31.4851
-581,-90,-72.1534,0.511597,0,0,0,0,0,0,0,-1,643,1114,-72.1535,-0.511617
-574,-90,-72.1114,0.455933,0,0,0,0,0,0,0,-1,650,1114,-72.1114,-0.455892
-567,-90,-71.9807,0.329224,0,0,0,0,0,0,0,-1,657,1114,-71.9807,-0.329208
-560,-90,-71.8557,0.221558,0,0,0,0,0,0,0,-1,664,1114,-71.8556,-0.221563
-553,-90,-72.0052,0.168823,0,0,0,0,0,0,0,-1,671,1114,-72.0052,-0.16887
-546,-90,-72.0448,0.128662,0,0,0,0,0,0,0,-1,678,1114,-72.0448,-0.128629
-539,-90,-72.0883,0.242065,0,0,0,0,0,0,0,-1,685,1114,-72.0882,-0.242084
-532,-90,-72.1111,0.248169,0,0,0,0,0,0,0,-1,692,1114,-72.1112,-0.248142
-525,-90,0,0,0,0,0,0,0,0,0,-1,699,1114,0,0
-518,-90,0,0,0,0,0,0,0,0,0,-1,706,1114,0,0
-511,-90,0,0,0,0,0,0,0,0,0,-1,713,1114,0,0
-504,-90,0,0,0,0,0,0,0,0,0,-1,720,1114,0,0
-497,-90,0,0,0,0,0,0,0,0,0,-1,727,1114,0,0
-490,-90,0,0,0,0,0,0,0,0,0,-1,734,1114,0,0
-483,-90,0,0,0,0,0,0,0,0,0,-1,741,1114,0,0
-476,-90,0,0,0,0,0,0,0,0,0,-1,748,1114,0,0
-469,-90,0,0,0,0,0,0,0,0,0,-1,755,1114,0,0
-462,-90,0,0,0,0,0,0,0,0,0,-1,762,1114,0,0
-455,-90,0,0,0,0,0,0,0,0,0,-1,769,1114,0,0
-448,-90,0,0,0,0,0,0,0,0,0,-1,776,1114,0,0
-441,-90,0,0,0,0,0,0,0,0,0,-1,783,1114,0,0
-434,-90,0,0,0,0,0,0,0,0,0,-1,790,1114,0,0
-427,-90,0,0,0,0,0,0,0,0,0,-1,797,1114,0,0
-420,-90,0,0,0,0,0,0,0,0,0,-1,804,1114,0,0
-413,-90,0,0,0,0,0,0,0,0,0,-1,811,1114,0,0
-406,-90,0,0,0,0,0,0,0,0,0,-1,818,1114,0,0
-399,-90,0,0,0,0,0,0,0,0,0,-1,825,1114,0,0
-392,-90,0,0,0,0,0,0,0,0,0,-1,832,1114,0,0
-385,-90,0,0,0,0,0,0,0,0,0,-1,839,1114,0,0
-378,-90,0,0,0,0,0,0,0,0,0,-1,846,1114,0,0
-371,-90,0,0,0,0,0,0,0,0,0,-1,853,1114,0,0
-364,-90,0,0,0,0,0,0,0,0,0,-1,860,1114,0,0
-357,-90,0,0,0,0,0,0,0,0,0,-1,867,1114,0,0
-350,-90,0,0,0,0,0,0,0,0,0,-1,874,1114,0,0
-343,-90,0,0,0,0,0,0,0,0,0,-1,881,1114,0,0
-336,-90,0,0,0,0,0,0,0,0,0,-1,888,1114,0,0
-329,-90,0,0,0,0,0,0,0,0,0,-1,895,1114,0,0
-322,-90,0,0,0,0,0,0,0,0,0,-1,902,1114,0,0
-315,-90,0,0,0,0,0,0,0,0,0,-1,909,1114,0,0
-308,-90,0,0,0,0,0,0,0,0,0,-1,916,1114,0,0
-301,-90,0,0,0,0,0,0,0,0,0,-1,923,1114,0,0
-294,-90,0,0,0,0,0,0,0,0,0,-1,930,1114,0,0
-287,-90,0,0,0,0,0,0,0,0,0,-1,937,1114,0,0
-280,-90,0,0,0,0,0,0,0,0,0,-1,944,1114,0,0
-273,-90,0,0,0,0,0,0,0,0,0,-1,951,1114,0,0
-266,-90,0,0,0,0,0,0,0,0,0,-1,958,1114,0,0
-259,-90,0,0,0,0,0,0,0,0,0,-1,965,1114,0,0
-252,-90,0,0,0,0,0,0,0,0,0,-1,972,1114,0,0
-245,-90,0,0,0,0,0,0,0,0,0,-1,979,1114,0,0
-238,-90,0,0,0,0,0,0,0,0,0,-1,986,1114,0,0
-231,-90,0,0,0,0,0,0,0,0,0,-1,993,1114,0,0
-224,-90,0,0,0,0,0,0,0,0,0,-1,1000,1114,0,0
-217,-90,0,0,0,0,0,0,0,0,0,-1,1007,1114,0,0
-210,-90,0,0,0,0,0,0,0,0,0,-1,1014,1114,0,0
-203,-90,0,0,0,0,0,0,0,0,0,-1,1021,1114,0,0
-196,-90,0,0,0,0,0,0,0,0,0,-1,1028,1114,0,0
-189,-90,0,0,0,0,0,0,0,0,0,-1,1035,1114,0,0
-182,-90,0,0,0,0,0,0,0,0,0,-1,1042,1114,0,0
-175,-90,0,0,0,0,0,0,0,0,0,-1,1049,1114,0,0
-168,-90,0,0,0,0,0,0,0,0,0,-1,1056,1114,0,0
-161,-90,0,0,0,0,0,0,0,0,0,-1,1063,1114,0,0
-154,-90,0,0,0,0,0,0,0,0,0,-1,1070,1114,0,0
-147,-90,0,0,0,0,0,0,0,0,0,-1,1077,1114,0,0
-140,-90,0,0,0,0,0,0,0,0,0,-1,1084,1114,0,0
-133,-90,0,0,0,0,0,0,0,0,0,-1,1091,1114,0,0
-126,-90,0,0,0,0,0,0,0,0,0,-1,1098,1114,0,0
-119,-90,0,0,0,0,0,0,0,0,0,-1,1105,1114,0,0
-112,-90,0,0,0,0,0,0,0,0,0,-1,1112,1114,0,0
-105,-90,0,0,0,0,0,0,0,0,0,-1,1119,1114,0,0
-98,-90,0,0,0,0,0,0,0,0,0,-1,1126,1114,0,0
-91,-90,0,0,0,0,0,0,0,0,0,-1,1133,1114,0,0
-84,-90,0,0,0,0,0,0,0,0,0,-1,1140,1114,0,0
-77,-90,0,0,0,0,0,0,0,0,0,-1,1147,1114,0,0
-70,-90,0,0,0,0,0,0,0,0,0,-1,1154,1114,0,0
-63,-90,0,0,0,0,0,0,0,0,0,-1,1161,1114,0,0
-56,-90,0,0,0,0,0,0,0,0,0,-1,1168,1114,0,0
-49,-90,0,0,0,0,0,0,0,0,0,-1,1175,1114,0,0
-42,-90,0,0,0,0,0,0,0,0,0,-1,1182,1114,0,0
-35,-90,0,0,0,0,0,0,0,0,0,-1,1189,1114,0,0
-28,-90,0,0,0,0,0,0,0,0,0,-1,1196,1114,0,0
-21,-90,0,0,0,0,0,0,0,0,0,-1,1203,1114,0,0
-14,-90,0,0,0,0,0,0,0,0,0,-1,1210,1114,0,0
-7,-90,0,0,0,0,0,0,0,0,0,-1,1217,1114,0,0
0,-90,0,0,0,0,0,0,0,0,0,-1,1224,1114,0,0
7,-90,0,0,0,0,0,0,0,0,0,-1,1231,1114,0,0
14,-90,0,0,0,0,0,0,0,0,0,-1,1238,1114,0,0
21,-90,0,0,0,0,0,0,0,0,0,-1,1245,1114,0,0
28,-90,0,0,0,0,0,0,0,0,0,-1,1252,1114,0,0
35,-90,0,0,0,0,0,0,0,0,0,-1,1259,1114,0,0
42,-90,0,0,0,0,0,0,0,0,0,-1,1266,1114,0,0
49,-90,0,0,0,0,0,0,0,0,0,-1,1273,1114,0,0
56,-90,0,0,0,0,0,0,0,0,0,-1,1280,1114,0,0
63,-90,0,0,0,0,0,0,0,0,0,-1,1287,1114,0,0
70,-90,0,0,0,0,0,0,0,0,0,-1,1294,1114,0,0
77,-90,0,0,0,0,0,0,0,0,0,-1,1301,1114,0,0
84,-90,0,0,0,0,0,0,0,0,0,-1,1308,1114,0,0
91,-90,0,0,0,0,0,0,0,0,0,-1,1315,1114,0,0
98,-90,0,0,0,0,0,0,0,0,0,-1,1322,1114,0,0
105,-90,0,0,0,0,0,0,0,0,0,-1,1329,1114,0,0
112,-90,0,0,0,0,0,0,0,0,0,-1,1336,1114,0,0
119,-90,0,0,0,0,0,0,0,0,0,-1,1343,1114,0,0
126,-90,0,0,0,0,0,0,0,0,0,-1,1350,1114,0,0
133,-90,0,0,0,0,0,0,0,0,0,-1,1357,1114,0,0
140,-90,0,0,0,0,0,0,0,0,0,-1,1364,1114,0,0
147,-90,0,0,0,0,0,0,0,0,0,-1,1371,1114,0,0
154,-90,0,0,0,0,0,0,0,0,0,-1,1378,1114,0,0
161,-90,0,0,0,0,0,0,0,0,0,-1,1385,1114,0,0
168,-90,0,0,0,0,0,0,0,0,0,-1,1392,1114,0,0
175,-90,0,0,0,0,0,0,0,0,0,-1,1399,1114,0,0
182,-90,0,0,0,0,0,0,0,0,0,-1,1406,1114,0,0
189,-90,0,0,0,0,0,0,0,0,0,-1,1413,1114,0,0
196,-90,0,0,0,0,0,0,0,0,0,-1,1420,1114,0,0
203,-90,0,0,0,0,0,0,0,0,0,-1,1427,1114,0,0
210,-90,0,0,0,0,0,0,0,0,0,-1,1434,1114,0,0
217,-90,0,0,0,0,0,0,0,0,0,-1,1441,1114,0,0
224,-90,0,0,0,0,0,0,0,0,0,-1,1448,1114,0,0
231,-90,0,0,0,0,0,0,0,0,0,-1,1455,1114,0,0
238,-90,0,0,0,0,0,0,0,0,0,-1,1462,1114,0,0
245,-90,0,0,0,0,0,0,0,0,0,-1,1469,1114,0,0
252,-90,0,0,0,0,0,0,0,0,0,-1,1476,1114,0,0
259,-90,0,0,0,0,0,0,0,0,0,-1,1483,1114,0,0
266,-90,0,0,0,0,0,0,0,0,0,-1,1490,1114,0,0
273,-90,0,0,0,0,0,0,0,0,0,-1,1497,1114,0,0
280,-90,0,0,0,0,0,0,0,0,0,-1,1504,1114,0,0
287,-90,0,0,0,0,0,0,0,0,0,-1,1511,1114,0,0
294,-90,0,0,0,0,0,0,0,0,0,-1,1518,1114,0,0
301,-90,0,0,0,0,0,0,0,0,0,-1,1525,1114,0,0
308,-90,0,0,0,0,0,0,0,0,0,-1,1532,1114,0,0
315,-90,0,0,0,0,0,0,0,0,0,-1,1539,1114,0,0
322,-90,0,0,0,0,0,0,0,0,0,-1,1546,1114,0,0
329,-90,0,0,0,0,0,0,0,0,0,-1,1553,1114,0,0
336,-90,0,0,0,0,0,0,0,0,0,-1,1560,1114,0,0
343,-90,0,0,0,0,0,0,0,0,0,-1,1567,1114,0,0
350,-90,0,0,0,0,0,0,0,0,0,-1,1574,1114,0,0
357,-90,0,0,0,0,0,0,0,0,0,-1,1581,1114,0,0
364,-90,0,0,0,0,0,0,0,0,0,-1,1588,1114,0,0
371,-90,0,0,0,0,0,0,0,0,0,-1,1595,1114,0,0
378,-90,0,0,0,0,0,0,0,0,0,-1,1602,1114,0,0
385,-90,0,0,0,0,0,0,0,0,0,-1,1609,1114,0,0
392,-90,0,0,0,0,0,0,0,0,0,-1,1616,1114,0,0
399,-90,0,0,0,0,0,0,0,0,0,-1,1623,1114,0,0
406,-90,0,0,0,0,0,0,0,0,0,-1,1630,1114,0,0
413,-90,0,0,0,0,0,0,0,0,0,-1,1637,1114,0,0
420,-90,0,0,0,0,0,0,0,0,0,-1,1644,1114,0,0
427,-90,0,0,0,0,0,0,0,0,0,-1,1651,1114,0,0
434,-90,0,0,0,0,0,0,0,0,0,-1,1658,1114,0,0
441,-90,0,0,0,0,0,0,0,0,0,-1,1665,1114,0,0
448,-90,0,0,0,0,0,0,0,0,0,-1,1672,1114,0,0
455,-90,0,0,0,0,0,0,0,0,0,-1,1679,1114,0,0
462,-90,0,0,0,0,0,0,0,0,0,-1,1686,1114,0,0
469,-90,0,0,0,0,0,0,0,0,0,-1,1693,1114,0,0
476,-90,0,0,0,0,0,0,0,0,0,-1,1700,1114,0,0
483,-90,0,0,0,0,0,0,0,0,0,-1,1707,1114,0,0
490,-90,0,0,0,0,0,0,0,0,0,-1,1714,1114,0,0
497,-90,0,0,0,0,0,0,0,0,0,-1,1721,1114,0,0
504,-90,0,0,0,0,0,0,0,0,0,-1,1728,1114,0,0
511,-90,0,0,0,0,0,0,0,0,0,-1,1735,1114,0,0
518,-90,0,0,0,0,0,0,0,0,0,-1,1742,1114,0,0
525,-90,0,0,0,0,0,0,0,0,0,-1,1749,1114,0,0
532,-90,0,0,0,0,0,0,0,0,0,-1,1756,1114,0,0
539,-90,0,0,0,0,0,0,0,0,0,-1,1763,1114,0,0
546,-90,0,0,0,0,0,0,0,0,0,-1,1770,1114,0,0
553,-90,0,0,0,0,0,0,0,0,0,-1,1777,1114,0,0
560,-90,0,0,0,0,0,0,0,0,0,-1,1784,1114,0,0
567,-90,0,0,0,0,0,0,0,0,0,-1,1791,1114,0,0
574,-90,0,0,0,0,0,0,0,0,0,-1,1798,1114,0,0
581,-90,0,0,0,0,0,0,0,0,0,-1,1805,1114,0,0
588,-90,0,0,0,0,0,0,0,0,0,-1,1812,1114,0,0
595,-90,0,0,0,0,0,0,0,0,0,-1,1819,1114,0,0
602,-90,0,0,0,0,0,0,0,0,0,-1,1826,1114,0,0
609,-90,0,0,0,0,0,0,0,0,0,-1,1833,1114,0,0
616,-90,0,0,0,0,0,0,0,0,0,-1,1840,1114,0,0
623,-90,0,0,0,0,0,0,0,0,0,-1,1847,1114,0,0
630,-90,0,0,0,0,0,0,0,0,0,-1,1854,1114,0,0
637,-90,0,0,0,0,0,0,0,0,0,-1,1861,1114,0,0
644,-90,235.293,8.73364,0,0,0,0,0,0,0,-1,1868,1114,235.293,-8.73363
651,-90,235.316,8.61084,0,0,0,0,0,0,0,-1,1875,1114,235.316,-8.61079
658,-90,235.343,8.68323,0,0,0,0,0,0,0,-1,1882,1114,235.342,-8.68324
665,-90,235.275,8.73987,0,0,0,0,0,0,0,-1,1889,1114,235.275,-8.7399
672,-90,235.313,8.64758,0,0,0,0,0,0,0,-1,1896,1114,235.313,-8.64754
679,-90,235.336,8.69067,0,0,0,0,0,0,0,-1,1903,1114,235.336,-8.69073
686,-90,235.34,8.66345,0,0,0,0,0,0,0,-1,1910,1114,235.34,-8.66339
693,-90,235.255,8.51331,0,0,0,0,0,0,0,-1,1917,1114,235.255,-8.51326
700,-90,235.079,8.43225,0,0,0,0,0,0,0,-1,1924,1114,235.079,-8.43228
707,-90,235.387,8.56604,0,0,0,0,0,0,0,-1,1931,1114,235.387,-8.56604
714,-90,209.027,8.35974,0,0,0,0,0,0,0,-1,1938,1114,209.027,-8.35976
721,-90,63.521,8.76965,0,0,0,0,0,0,0,-1,1945,1114,63.521,-8.7697
728,-90,135.37,21.8513,0,0,0,0,0,0,0,-1,1952,1114,135.37,-21.8513
735,-90,235.163,32.3972,0,0,0,0,0,0,0,-1,1959,1114,235.162,-32.3972
742,-90,239.017,31.3293,0,0,0,0,0,0,0,-1,1966,1114,239.017,-31.3294
749,-90,239.465,30.7642,-0.0143381,0.0206799,0.00362955,0.0210521,-0.0147103,1.4686,0.0207554,0.0349502,1973,1114,239.465,-30.7642
756,-90,239.482,30.41,-0.0185191,0.0311102,0.00337386,0.0313385,-0.0187474,1.50323,0.0292201,0.0259487,1980,1114,239.482,-30.41
763,-90,239.251,30.0236,-0.0229565,0.0414074,0.00327919,0.0415741,-0.0231231,1.52002,0.0378559,0.0193342,1987,1114,239.251,-30.0236
770,-90,239.058,29.5752,-0.0275826,0.0516032,0.00328574,0.0517393,-0.0277187,1.5294,0.0465686,0.0304122,1994,1114,239.058,-29.5752
777,-90,238.64,29.2913,-0.0323245,0.0617299,0.00333536,0.061848,-0.0324426,1.53539,0.0553141,0.0375582,2001,1114,238.64,-29.2912
784,-90,238.325,28.8431,0,0,0,0,0,0,0,-1,2008,1114,238.325,-28.8432
791,-90,187.555,29.4889,0,0,0,0,0,0,0,-1,2015,1114,187.555,-29.4889
798,-90,134.395,15.3065,0,0,0,0,0,0,0,-1,2022,1114,134.394,-15.3065
805,-90,131.621,15.2422,0,0,0,0,0,0,0,-1,2029,1114,131.621,-15.2421
812,-90,123.027,11.3015,0,0,0,0,0,0,0,-1,2036,1114,123.027,-11.3016
-700,-97,0,0,0,0,0,0,0,0,0,-1,524,1121,0,0
-693,-97,-89.9478,2.73914,0,0,0,0,0,0,0,-1,531,1121,-89.9478,-2.73918
-686,-97,-89.8224,4.55396,0,0,0,0,0,0,0,-1,538,1121,-89.8224,-4.55392
-679,-97,-89.7606,6.30127,0,0,0,0,0,0,0,-1,545,1121,-89.7606,-6.3013
-672,-97,-89.9535,7.65637,0,0,0,0,0,0,0,-1,552,1121,-89.9534,-7.65637
-665,-97,-90.0474,8.70679,0,0,0,0,0,0,0,-1,559,1121,-90.0474,-8.7068
-658,-97,-90.24,9.39502,0,0,0,0,0,0,0,-1,566,1121,-90.24,-9.39496
-651,-97,-230.957,27.7097,0,0,0,0,0,0,0,-1,573,1121,-230.957,-27.7097
-644,-97,-231.882,27.97,0,0,0,0,0,0,0,-1,580,1121,-231.882,-27.97
-637,-97,-231.733,28.6674,-0.0207333,0.0575766,-0.00259385,0.0576624,-0.0208192,-1.53772,0.0469462,0.0263298,587,1121,-231.733,-28.6674
-630,-97,-231.783,29.2637,-0.0182934,0.0472408,-0.00229323,0.047321,-0.0183735,-1.53586,0.0391369,0.0230244,594,1121,-231.783,-29.2637
-623,-97,-231.97,29.624,-0.0159963,0.0375753,-0.00181504,0.0376367,-0.0160577,-1.53697,0.031824,0.0294524,601,1121,-231.97,-29.624
-616,-97,-232.129,30.1708,-0.0138443,0.0284639,-0.0012169,0.0284989,-0.0138792,-1.54207,0.0249476,0.027102,608,1121,-232.129,-30.1708
-609,-97,-232.157,30.7264,-0.0118421,0.0198047,-0.00054922,0.0198142,-0.0118516,-1.55345,0.018474,0.0381617,615,1121,-232.157,-30.7265
-602,-97,-232.402,31.1625,-0.00999522,0.0115081,0.000143989,0.0115091,-0.00999618,1.5641,0.0124263,0.0381553,622,1121,-232.402,-31.1625
-595,-97,-232.516,31.5677,-0.00830813,0.00349554,0.000824207,0.00355281,-0.0083654,1.50142,0.0070655,0.03595,629,1121,-232.516,-31.5678
-588,-97,-233.11,31.6991,0,0,0,0,0,0,0,-1,636,1121,-233.11,-31.6991
-581,-97,-51.2355,3.23926,0,0,0,0,0,0,0,-1,643,1121,-51.2355,-3.23926
-574,-97,-72.1288,0.532715,0,0,0,0,0,0,0,-1,650,1121,-72.1289,-0.532768
-567,-97,-72.0277,0.395386,0,0,0,0,0,0,0,-1,657,1121,-72.0277,-0.395328
-560,-97,-71.9832,0.468018,0,0,0,0,0,0,0,-1,664,1121,-71.9832,-0.467976
-553,-97,-72.03,0.328735,0,0,0,0,0,0,0,-1,671,1121,-72.03,-0.328706
-546,-97,-72.0363,0.304321,0,0,0,0,0,0,0,-1,678,1121,-72.0362,-0.30431
-539,-97,-72.1473,0.396973,0,0,0,0,0,0,0,-1,685,1121,-72.1474,-0.396945
-532,-97,-72.1843,0.338135,0,0,0,0,0,0,0,-1,692,1121,-72.1843,-0.338076
-525,-97,0,0,0,0,0,0,0,0,0,-1,699,1121,0,0
-518,-97,0,0,0,0,0,0,0,0,0,-1,706,1121,0,0
-511,-97,0,0,0,0,0,0,0,0,0,-1,713,1121,0,0
-504,-97,0,0,0,0,0,0,0,0,0,-1,720,1121,0,0
-497,-97,0,0,0,0,0,0,0,0,0,-1,727,1121,0,0
-490,-97,0,0,0,0,0,0,0,0,0,-1,734,1121,0,0
-483,-97,0,0,0,0,0,0,0,0,0,-1,741,1121,0,0
-476,-97,0,0,0,0,0,0,0,0,0,-1,748,1121,0,0
-469,-97,0,0,0,0,0,0,0,0,0,-1,755,1121,0,0
-462,-97,0,0,0,0,0,0,0,0,0,-1,762,1121,0,0
-455,-97,0,0,0,0,0,0,0,0,0,-1,769,1121,0,0
-448,-97,0,0,0,0,0,0,0,0,0,-1,776,1121,0,0
-441,-97,0,0,0,0,0,0,0,0,0,-1,783,1121,0,0
-434,-97,0,0,0,0,0,0,0,0,0,-1,790,1121,0,0
-427,-97,0,0,0,0,0,0,0,0,0,-1,797,1121,0,0
-420,-97,0,0,0,0,0,0,0,0,0,-1,804,1121,0,0
-413,-97,0,0,0,0,0,0,0,0,0,-1,811,1121,0,0
-406,-97,0,0,0,0,0,0,0,0,0,-1,818,1121,0,0
-399,-97,0,0,0,0,0,0,0,0,0,-1,825,1121,0,0
-392,-97,0,0,0,0,0,0,0,0,0,-1,832,1121,0,0
-385,-97,0,0,0,0,0,0,0,0,0,-1,839,1121,0,0
-378,-97,0,0,0,0,0,0,0,0,0,-1,846,1121,0,0
-371,-97,0,0,0,0,0,0,0,0,0,-1,853,1121,0,0
-364,-97,0,0,0,0,0,0,0,0,0,-1,860,1121,0,0
-357,-97,0,0,0,0,0,0,0,0,0,-1,867,1121,0,0
-350,-97,0,0,0,0,0,0,0,0,0,-1,874,1121,0,0
-343,-97,0,0,0,0,0,0,0,0,0,-1,881,1121,0,0
-336,-97,0,0,0,0,0,0,0,0,0,-1,888,1121,0,0
-329,-97,0,0,0,0,0,0,0,0,0,-1,895,1121,0,0
-322,-97,0,0,0,0,0,0,0,0,0,-1,902,1121,0,0
-315,-97,0,0,0,0,0,0,0,0,0,-1,909,1121,0,0
-308,-97,0,0,0,0,0,0,0,0,0,-1,916,1121,0,0
-301,-97,0,0,0,0,0,0,0,0,0,-1,923,1121,0,0
-294,-97,0,0,0,0,0,0,0,0,0,-1,930,1121,0,0
-287,-97,0,0,0,0,0,0,0,0,0,-1,937,1121,0,0
-280,-97,0,0,0,0,0,0,0,0,0,-1,944,1121,0,0
-273,-97,0,0,0,0,0,0,0,0,0,-1,951,1121,0,0
-266,-97,0,0,0,0,0,0,0,0,0,-1,958,1121,0,0
-259,-97,0,0,0,0,0,0,0,0,0,-1,965,1121,0,0
-252,-97,0,0,0,0,0,0,0,0,0,-1,972,1121,0,0
-245,-97,0,0,0,0,0,0,0,0,0,-1,979,1121,0,0
-238,-97,0,0,0,0,0,0,0,0,0,-1,986,1121,0,0
-231,-97,0,0,0,0,0,0,0,0,0,-1,993,1121,0,0
-224,-97,0,0,0,0,0,0,0,0,0,-1,1000,1121,0,0
-217,-97,0,0,0,0,0,0,0,0,0,-1,1007,1121,0,0
-210,-97,0,0,0,0,0,0,0,0,0,-1,1014,1121,0,0
-203,-97,0,0,0,0,0,0,0,0,0,-1,1021,1121,0,0
-196,-97,0,0,0,0,0,0,0,0,0,-1,1028,1121,0,0
-189,-97,0,0,0,0,0,0,0,0,0,-1,1035,1121,0,0
-182,-97,0,0,0,0,0,0,0,0,0,-1,1042,1121,0,0
-175,-97,0,0,0,0,0,0,0,0,0,-1,1049,1121,0,0
-168,-97,0,0,0,0,0,0,0,0,0,-1,1056,1121,0,0
-161,-97,0,0,0,0,0,0,0,0,0,-1,1063,1121,0,0
-154,-97,0,0,0,0,0,0,0,0,0,-1,1070,1121,0,0
-147,-97,0,0,0,0,0,0,0,0,0,-1,1077,1121,0,0
-140,-97,0,0,0,0,0,0,0,0,0,-1,1084,1121,0,0
-133,-97,0,0,0,0,0,0,0,0,0,-1,1091,1121,0,0
-126,-97,0,0,0,0,0,0,0,0,0,-1,1098,1121,0,0
-119,-97,0,0,0,0,0,0,0,0,0,-1,1105,1121,0,0
-112,-97,0,0,0,0,0,0,0,0,0,-1,1112,1121,0,0
-105,-97,0,0,0,0,0,0,0,0,0,-1,1119,1121,0,0
-98,-97,0,0,0,0,0,0,0,0,0,-1,1126,1121,0,0
-91,-97,0,0,0,0,0,0,0,0,0,-1,1133,1121,0,0
-84,-97,0,0,0,0,0,0,0,0,0,-1,1140,1121,0,0
-77,-97,0,0,0,0,0,0,0,0,0,-1,1147,1121,0,0
-70,-97,0,0,0,0,0,0,0,0,0,-1,1154,1121,0,0
-63,-97,0,0,0,0,0,0,0,0,0,-1,1161,1121,0,0
-56,-97,0,0,0,0,0,0,0,0,0,-1,1168,1121,0,0
-49,-97,0,0,0,0,0,0,0,0,0,-1,1175,1121,0,0
-42,-97,0,0,0,0,0,0,0,0,0,-1,1182,1121,0,0
-35,-97,0,0,0,0,0,0,0,0,0,-1,1189,1121,0,0
-28,-97,0,0,0,0,0,0,0,0,0,-1,1196,1121,0,0
-21,-97,0,0,0,0,0,0,0,0,0,-1,1203,1121,0,0
-14,-97,0,0,0,0,0,0,0,0,0,-1,1210,1121,0,0
-7,-97,0,0,0,0,0,0,0,0,0,-1,1217,1121,0,0
0,-97,0,0,0,0,0,0,0,0,0,-1,1224,1121,0,0
7,-97,0,0,0,0,0,0,0,0,0,-1,1231,1121,0,0
14,-97,0,0,0,0,0,0,0,0,0,-1,1238,1121,0,0
21,-97,0,0,0,0,0,0,0,0,0,-1,1245,1121,0,0
28,-97,0,0,0,0,0,0,0,0,0,-1,1252,1121,0,0
35,-97,0,0,0,0,0,0,0,0,0,-1,1259,1121,0,0
42,-97,0,0,0,0,0,0,0,0,0,-1,1266,1121,0,0
49,-97,0,0,0,0,0,0,0,0,0,-1,1273,1121,0,0
56,-97,0,0,0,0,0,0,0,0,0,-1,1280,1121,0,0
63,-97,0,0,0,0,0,0,0,0,0,-1,1287,1121,0,0
70,-97,0,0,0,0,0,0,0,0,0,-1,1294,1121,0,0
77,-97,0,0,0,0,0,0,0,0,0,-1,1301,1121,0,0
84,-97,0,0,0,0,0,0,0,0,0,-1,1308,1121,0,0
91,-97,0,0,0,0,0,0,0,0,0,-1,1315,1121,0,0
98,-97,0,0,0,0,0,0,0,0,0,-1,1322,1121,0,0
105,-97,0,0,0,0,0,0,0,0,0,-1,1329,1121,0,0
112,-97,0,0,0,0,0,0,0,0,0,-1,1336,1121,0,0
119,-97,0,0,0,0,0,0,0,0,0,-1,1343,1121,0,0
126,-97,0,0,0,0,0,0,0,0,0,-1,1350,1121,0,0
133,-97,0,0,0,0,0,0,0,0,0,-1,1357,1121,0,0
140,-97,0,0,0,0,0,0,0,0,0,-1,1364,1121,0,0
147,-97,0,0,0,0,0,0,0,0,0,-1,1371,1121,0,0
154,-97,0,0,0,0,0,0,0,0,0,-1,1378,1121,0,0
161,-97,0,0,0,0,0,0,0,0,0,-1,1385,1121,0,0
168,-97,0,0,0,0,0,0,0,0,0,-1,1392,1121,0,0
175,-97,0,0,0,0,0,0,0,0,0,-1,1399,1121,0,0
182,-97,0,0,0,0,0,0,0,0,0,-1,1406,1121,0,0
189,-97,0,0,0,0,0,0,0,0,0,-1,1413,1121,0,0
196,-97,0,0,0,0,0,0,0,0,0,-1,1420,1121,0,0
203,-97,0,0,0,0,0,0,0,0,0,-1,1427,1121,0,0
210,-97,0,0,0,0,0,0,0,0,0,-1,1434,1121,0,0
217,-97,0,0,0,0,0,0,0,0,0,-1,1441,1121,0,0
224,-97,0,0,0,0,0,0,0,0,0,-1,1448,1121,0,0
231,-97,0,0,0,0,0,0,0,0,0,-1,1455,1121,0,0
238,-97,0,0,0,0,0,0,0,0,0,-1,1462,1121,0,0
245,-97,0,0,0,0,0,0,0,0,0,-1,1469,1121,0,0
252,-97,0,0,0,0,0,0,0,0,0,-1,1476,1121,0,0
259,-97,0,0,0,0,0,0,0,0,0,-1,1483,1121,0,0
266,-97,0,0,0,0,0,0,0,0,0,-1,1490,1121,0,0
273,-97,0,0,0,0,0,0,0,0,0,-1,1497,1121,0,0
280,-97,0,0,0,0,0,0,0,0,0,-1,1504,1121,0,0
287,-97,0,0,0,0,0,0,0,0,0,-1,1511,1121,0,0
294,-97,0,0,0,0,0,0,0,0,0,-1,1518,1121,0,0
301,-97,0,0,0,0,0,0,0,0,0,-1,1525,1121,0,0
308,-97,0,0,0,0,0,0,0,0,0,-1,1532,1121,0,0
315,-97,0,0,0,0,0,0,0,0,0,-1,1539,1121,0,0
322,-97,0,0,0,0,0,0,0,0,0,-1,1546,1121,0,0
329,-97,0,0,0,0,0,0,0,0,0,-1,1553,1121,0,0
336,-97,0,0,0,0,0,0,0,0,0,-1,1560,1121,0,0
343,-97,0,0,0,0,0,0,0,0,0,-1,1567,1121,0,0
350,-97,0,0,0,0,0,0,0,0,0,-1,1574,1121,0,0
357,-97,0,0,0,0,0,0,0,0,0,-1,1581,1121,0,0
364,-97,0,0,0,0,0,0,0,0,0,-1,1588,1121,0,0
371,-97,0,0,0,0,0,0,0,0,0,-1,1595,1121,0,0
378,-97,0,0,0,0,0,0,0,0,0,-1,1602,1121,0,0
385,-97,0,0,0,0,0,0,0,0,0,-1,1609,1121,0,0
392,-97,0,0,0,0,0,0,0,0,0,-1,1616,1121,0,0
399,-97,0,0,0,0,0,0,0,0,0,-1,1623,1121,0,0
406,-97,0,0,0,0,0,0,0,0,0,-1,1630,1121,0,0
413,-97,0,0,0,0,0,0,0,0,0,-1,1637,1121,0,0
420,-97,0,0,0,0,0,0,0,0,0,-1,1644,1121,0,0
427,-97,0,0,0,0,0,0,0,0,0,-1,1651,1121,0,0
434,-97,0,0,0,0,0,0,0,0,0,-1,1658,1121,0,0
441,-97,0,0,0,0,0,0,0,0,0,-1,1665,1121,0,0
448,-97,0,0,0,0,0,0,0,0,0,-1,1672,1121,0,0
455,-97,0,0,0,0,0,0,0,0,0,-1,1679,1121,0,0
462,-97,0,0,0,0,0,0,0,0,0,-1,1686,1121,0,0
469,-97,0,0,0,0,0,0,0,0,0,-1,1693,1121,0,0
476,-97,0,0,0,0,0,0,0,0,0,-1,1700,1121,0,0
483,-97,0,0,0,0,0,0,0,0,0,-1,1707,1121,0,0
490,-97,0,0,0,0,0,0,0,0,0,-1,1714,1121,0,0
497,-97,0,0,0,0,0,0,0,0,0,-1,1721,1121,0,0
504,-97,0,0,0,0,0,0,0,0,0,-1,1728,1121,0,0
511,-97,0,0,0,0,0,0,0,0,0,-1,1735,1121,0,0
518,-97,0,0,0,0,0,0,0,0,0,-1,1742,1121,0,0
525,-97,0,0,0,0,0,0,0,0,0,-1,1749,1121,0,0
532,-97,0,0,0,0,0,0,0,0,0,-1,1756,1121,0,0
539,-97,0,0,0,0,0,0,0,0,0,-1,1763,1121,0,0
546,-97,0,0,0,0,0,0,0,0,0,-1,1770,1121,0,0
553,-97,0,0,0,0,0,0,0,0,0,-1,1777,1121,0,0
560,-97,0,0,0,0,0,0,0,0,0,-1,1784,1121,0,0
567,-97,0,0,0,0,0,0,0,0,0,-1,1791,1121,0,0
574,-97,0,0,0,0,0,0,0,0,0,-1,1798,1121,0,0
581,-97,0,0,0,0,0,0,0,0,0,-1,1805,1121,0,0
588,-97,0,0,0,0,0,0,0,0,0,-1,1812,1121,0,0
595,-97,0,0,0,0,0,0,0,0,0,-1,1819,1121,0,0
602,-97,0,0,0,0,0,0,0,0,0,-1,1826,1121,0,0
609,-97,0,0,0,0,0,0,0,0,0,-1,1833,1121,0,0
616,-97,0,0,0,0,0,0,0,0,0,-1,1840,1121,0,0
623,-97,0,0,0,0,0,0,0,0,0,-1,1847,1121,0,0
630,-97,0,0,0,0,0,0,0,0,0,-1,1854,1121,0,0
637,-97,0,0,0,0,0,0,0,0,0,-1,1861,1121,0,0
644,-97,235.291,8.8252,0,0,0,0,0,0,0,-1,1868,1121,235.29,-8.82514
651,-97,235.246,8.70325,0,0,0,0,0,0,0,-1,1875,1121,235.246,-8.70325
658,-97,235.284,8.61292,0,0,0,0,0,0,0,-1,1882,1121,235.284,-8.61294
665,-97,235.276,8.66589,0,0,0,0,0,0,0,-1,1889,1121,235.276,-8.66591
672,-97,235.379,8.61938,0,0,0,0,0,0,0,-1,1896,1121,235.379,-8.6194
679,-97,235.394,8.88525,0,0,0,0,0,0,0,-1,1903,1121,235.394,-8.88522
686,-97,235.345,8.90698,0,0,0,0,0,0,0,-1,1910,1121,235.345,-8.90701
693,-97,235.259,8.68018,0,0,0,0,0,0,0,-1,1917,1121,235.259,-8.68022
700,-97,235.199,8.48499,0,0,0,0,0,0,0,-1,1924,1121,235.199,-8.48499
707,-97,235.326,8.48535,0,0,0,0,0,0,0,-1,1931,1121,235.326,-8.48539
714,-97,222.677,8.56311,0,0,0,0,0,0,0,-1,1938,1121,222.676,-8.56317
721,-97,134.605,22.2906,0,0,0,0,0,0,0,-1,1945,1121,134.605,-22.2907
728,-97,235.497,32.0941,0,0,0,0,0,0,0,-1,1952,1121,235.497,-32.0941
735,-97,238.484,32.0365,0,0,0,0,0,0,0,-1,1959,1121,238.484,-32.0365
742,-97,238.714,31.1909,-0.0105046,0.0113872,0.004333,0.0122136,-0.0113311,1.38233,0.0135967,0.0372475,1966,1121,238.714,-31.191
749,-97,238.848,30.6526,-0.0144684,0.0221036,0.00390105,0.0225151,-0.0148799,1.4657,0.0217395,0.0386205,1973,1121,238.848,-30.6526
756,-97,239.199,30.3025,0,0,0,0,0,0,0,-1,1980,1121,239.199,-30.3024
763,-97,238.707,29.7506,-0.0233303,0.043133,0.0037107,0.0433395,-0.0235369,1.5152,0.0391713,0.0343863,1987,1121,238.707,-29.7506
770,-97,238.513,29.3209,-0.0281293,0.0535104,0.00381984,0.0536887,-0.0283076,1.52414,0.0480907,0.0331285,1994,1121,238.513,-29.3209
777,-97,238.29,28.8394,-0.0330962,0.0638399,0.00397954,0.064003,-0.0332593,1.52983,0.0570818,0.0383072,2001,1121,238.29,-28.8394
784,-97,238.105,28.2742,0,0,0,0,0,0,0,-1,2008,1121,238.105,-28.2741
791,-97,134.17,15.504,0,0,0,0,0,0,0,-1,2015,1121,134.17,-15.504
798,-97,131.522,15.1385,0,0,0,0,0,0,0,-1,2022,1121,131.522,-15.1386
805,-97,124.571,12.1506,0,0,0,0,0,0,0,-1,2029,1121,124.571,-12.1506
812,-97,126.348,9.70874,0,0,0,0,0,0,0,-1,2036,1121,126.348,-9.70871
-700,-104,0,0,0,0,0,0,0,0,0,-1,524,1128,0,0
-693,-104,-88.4984,2.96033,0,0,0,0,0,0,0,-1,531,1128,-88.4984,-2.96029
-686,-104,-88.6273,4.21045,0,0,0,0,0,0,0,-1,538,1128,-88.6273,-4.21046
-679,-104,-88.796,5.63074,0,0,0,0,0,0,0,-1,545,1128,-88.796,-5.63079
-672,-104,-88.9519,7.09509,0,0,0,0,0,0,0,-1,552,1128,-88.9519,-7.09509
-665,-104,-89.3686,8.08325,0,0,0,0,0,0,0,-1,559,1128,-89.3686,-8.0833
-658,-104,-89.5414,8.89392,0,0,0,0,0,0,0,-1,566,1128,-89.5414,-8.89391
-651,-104,-230.706,27.3643,0,0,0,0,0,0,0,-1,573,1128,-230.706,-27.3643
-644,-104,-230.97,27.9565,0,0,0,0,0,0,0,-1,580,1128,-230.97,-27.9566
-637,-104,-231.076,28.452,-0.0203243,0.0581235,-0.00374229,0.0583016,-0.0205024,-1.52324,0.0472099,0.0249903,587,1128,-231.076,-28.452
-630,-104,-231.287,28.8467,-0.018373,0.0480392,-0.00331803,0.0482046,-0.0185383,-1.521,0.0397826,0.0300808,594,1128,-231.287,-28.8467
-623,-104,-231.55,29.415,-0.0165143,0.038645,-0.00269213,0.0387761,-0.0166454,-1.52214,0.0328369,0.0365062,601,1128,-231.55,-29.415
-616,-104,-231.884,30.0236,-0.0147515,0.0298201,-0.00192364,0.029903,-0.0148344,-1.52774,0.026313,0.0363725,608,1128,-231.884,-30.0235
-609,-104,-232.023,30.5376,0,0,0,0,0,0,0,-1,615,1128,-232.023,-30.5375
-602,-104,-232.097,31.03,0,0,0,0,0,0,0,-1,622,1128,-232.097,-31.0301
-595,-104,-232.052,31.5378,0,0,0,0,0,0,0,-1,629,1128,-232.052,-31.5378
-588,-104,-230.475,32.7125,0,0,0,0,0,0,0,-1,636,1128,-230.475,-32.7125
-581,-104,-23.9373,2.85864,0,0,0,0,0,0,0,-1,643,1128,-23.9373,-2.85861
-574,-104,-72.0505,0.37915,0,0,0,0,0,0,0,-1,650,1128,-72.0505,-0.379201
-567,-104,-71.9956,0.300293,0,0,0,0,0,0,0,-1,657,1128,-71.9956,-0.300253
-560,-104,-72.1018,0.113281,0,0,0,0,0,0,0,-1,664,1128,-72.1018,-0.113305
-553,-104,-72.0447,0.12207,0,0,0,0,0,0,0,-1,671,1128,-72.0447,-0.122018
-546,-104,-72.1016,0.472168,0,0,0,0,0,0,0,-1,678,1128,-72.1016,-0.472146
-539,-104,-72.235,0.630371,0,0,0,0,0,0,0,-1,685,1128,-72.235,-0.630384
-532,-104,-72.246,0.490479,0,0,0,0,0,0,0,-1,692,1128,-72.246,-0.490481
-525,-104,-81.894,1.1532,0,0,0,0,0,0,0,-1,699,1128,-81.8941,-1.1532
-518,-104,0,0,0,0,0,0,0,0,0,-1,706,1128,0,0
-511,-104,0,0,0,0,0,0,0,0,0,-1,713,1128,0,0
-504,-104,0,0,0,0,0,0,0,0,0,-1,720,1128,0,0
-497,-104,0,0,0,0,0,0,0,0,0,-1,727,1128,0,0
-490,-104,0,0,0,0,0,0,0,0,0,-1,734,1128,0,0
-483,-104,0,0,0,0,0,0,0,0,0,-1,741,1128,0,0
-476,-104,0,0,0,0,0,0,0,0,0,-1,748,1128,0,0
-469,-104,0,0,0,0,0,0,0,0,0,-1,755,1128,0,0
-462,-104,0,0,0,0,0,0,0,0,0,-1,762,1128,0,0
-455,-104,0,0,0,0,0,0,0,0,0,-1,769,1128,0,0
-448,-104,0,0,0,0,0,0,0,0,0,-1,776,1128,0,0
-441,-104,0,0,0,0,0,0,0,0,0,-1,783,1128,0,0
-434,-104,0,0,0,0,0,0,0,0,0,-1,790,1128,0,0
-427,-104,0,0,0,0,0,0,0,0,0,-1,797,1128,0,0
-420,-104,0,0,0,0,0,0,0,0,0,-1,804,1128,0,0
-413,-104,0,0,0,0,0,0,0,0,0,-1,811,1128,0,0
-406,-104,0,0,0,0,0,0,0,0,0,-1,818,1128,0,0
-399,-104,0,0,0,0,0,0,0,0,0,-1,825,1128,0,0
-392,-104,0,0,0,0,0,0,0,0,0,-1,832,1128,0,0
-385,-104,0,0,0,0,0,0,0,0,0,-1,839,1128,0,0
-378,-104,0,0,0,0,0,0,0,0,0,-1,846,1128,0,0
-371,-104,0,0,0,0,0,0,0,0,0,-1,853,1128,0,0
-364,-104,0,0,0,0,0,0,0,0,0,-1,860,1128,0,0
-357,-104,0,0,0,0,0,0,0,0,0,-1,867,1128,0,0
-350,-104,0,0,0,0,0,0,0,0,0,-1,874,1128,0,0
-343,-104,0,0,0,0,0,0,0,0,0,-1,881,1128,0,0
-336,-104,0,0,0,0,0,0,0,0,0,-1,888,1128,0,0
-329,-104,0,0,0,0,0,0,0,0,0,-1,895,1128,0,0
-322,-104,0,0,0,0,0,0,0,0,0,-1,902,1128,0,0
-315,-104,0,0,0,0,0,0,0,0,0,-1,909,1128,0,0
-308,-104,0,0,0,0,0,0,0,0,0,-1,916,1128,0,0
-301,-104,0,0,0,0,0,0,0,0,0,-1,923,1128,0,0
-294,-104,0,0,0,0,0,0,0,0,0,-1,930,1128,0,0
-287,-104,0,0,0,0,0,0,0,0,0,-1,937,1128,0,0
-280,-104,0,0,0,0,0,0,0,0,0,-1,944,1128,0,0
-273,-104,0,0,0,0,0,0,0,0,0,-1,951,1128,0,0
-266,-104,0,0,0,0,0,0,0,0,0,-1,958,1128,0,0
-259,-104,0,0,0,0,0,0,0,0,0,-1,965,1128,0,0
-252,-104,0,0,0,0,0,0,0,0,0,-1,972,1128,0,0
-245,-104,0,0,0,0,0,0,0,0,0,-1,979,1128,0,0
-238,-104,0,0,0,0,0,0,0,0,0,-1,986,1128,0,0
-231,-104,0,0,0,0,0,0,0,0,0,-1,993,1128,0,0
-224,-104,0,0,0,0,0,0,0,0,0,-1,1000,1128,0,0
-217,-104,0,0,0,0,0,0,0,0,0,-1,1007,1128,0,0
-210,-104,0,0,0,0,0,0,0,0,0,-1,1014,1128,0,0
-203,-104,0,0,0,0,0,0,0,0,0,-1,1021,1128,0,0
-196,-104,0,0,0,0,0,0,0,0,0,-1,1028,1128,0,0
-189,-104,0,0,0,0,0,0,0,0,0,-1,1035,1128,0,0
-182,-104,0,0,0,0,0,0,0,0,0,-1,1042,1128,0,0
-175,-104,0,0,0,0,0,0,0,0,0,-1,1049,1128,0,0
-168,-104,0,0,0,0,0,0,0,0,0,-1,1056,1128,0,0
-161,-104,0,0,0,0,0,0,0,0,0,-1,1063,1128,0,0
-154,-104,0,0,0,0,0,0,0,0,0,-1,1070,1128,0,0
-147,-104,0,0,0,0,0,0,0,0,0,-1,1077,1128,0,0
-140,-104,0,0,0,0,0,0,0,0,0,-1,1084,1128,0,0
-133,-104,0,0,0,0,0,0,0,0,0,-1,1091,1128,0,0
-126,-104,0,0,0,0,0,0,0,0,0,-1,1098,1128,0,0
-119,-104,0,0,0,0,0,0,0,0,0,-1,1105,1128,0,0
-112,-104,0,0,0,0,0,0,0,0,0,-1,1112,1128,0,0
-105,-104,0,0,0,0,0,0,0,0,0,-1,1119,1128,0,0
-98,-104,0,0,0,0,0,0,0,0,0,-1,1126,1128,0,0
-91,-104,0,0,0,0,0,0,0,0,0,-1,1133,1128,0,0
-84,-104,0,0,0,0,0,0,0,0,0,-1,1140,1128,0,0
-77,-104,0,0,0,0,0,0,0,0,0,-1,1147,1128,0,0
-70,-104,0,0,0,0,0,0,0,0,0,-1,1154,1128,0,0
-63,-104,0,0,0,0,0,0,0,0,0,-1,1161,1128,0,0
-56,-104,0,0,0,0,0,0,0,0,0,-1,1168,1128,0,0
-49,-104,0,0,0,0,0,0,0,0,0,-1,1175,1128,0,0
-42,-104,0,0,0,0,0,0,0,0,0,-1,1182,1128,0,0
-35,-104,0,0,0,0,0,0,0,0,0,-1,1189,1128,0,0
-28,-104,0,0,0,0,0,0,0,0,0,-1,1196,1128,0,0
-21,-104,0,0,0,0,0,0,0,0,0,-1,1203,1128,0,0
-14,-104,0,0,0,0,0,0,0,0,0,-1,1210,1128,0,0
-7,-104,0,0,0,0,0,0,0,0,0,-1,1217,1128,0,0
0,-104,0,0,0,0,0,0,0,0,0,-1,1224,1128,0,0
7,-104,0,0,0,0,0,0,0,0,0,-1,1231,1128,0,0
14,-104,0,0,0,0,0,0,0,0,0,-1,1238,1128,0,0
21,-104,0,0,0,0,0,0,0,0,0,-1,1245,1128,0,0
28,-104,0,0,0,0,0,0,0,0,0,-1,1252,1128,0,0
35,-104,0,0,0,0,0,0,0,0,0,-1,1259,1128,0,0
42,-104,0,0,0,0,0,0,0,0,0,-1,1266,1128,0,0
49,-104,0,0,0,0,0,0,0,0,0,-1,1273,1128,0,0
56,-104,0,0,0,0,0,0,0,0,0,-1,1280,1128,0,0
63,-104,0,0,0,0,0,0,0,0,0,-1,1287,1128,0,0
70,-104,0,0,0,0,0,0,0,0,0,-1,1294,1128,0,0
77,-104,0,0,0,0,0,0,0,0,0,-1,1301,1128,0,0
84,-104,0,0,0,0,0,0,0,0,0,-1,1308,1128,0,0
91,-104,0,0,0,0,0,0,0,0,0,-1,1315,1128,0,0
98,-104,0,0,0,0,0,0,0,0,0,-1,1322,1128,0,0
105,-104,0,0,0,0,0,0,0,0,0,-1,1329,1128,0,0
112,-104,0,0,0,0,0,0,0,0,0,-1,1336,1128,0,0
119,-104,0,0,0,0,0,0,0,0,0,-1,1343,1128,0,0
126,-104,0,0,0,0,0,0,0,0,0,-1,1350,1128,0,0
133,-104,0,0,0,0,0,0,0,0,0,-1,1357,1128,0,0
140,-104,0,0,0,0,0,0,0,0,0,-1,1364,1128,0,0
147,-104,0,0,0,0,0,0,0,0,0,-1,1371,1128,0,0
154,-104,0,0,0,0,0,0,0,0,0,-1,1378,1128,0,0
161,-104,0,0,0,0,0,0,0,0,0,-1,1385,1128,0,0
168,-104,0,0,0,0,0,0,0,0,0,-1,1392,1128,0,0
175,-104,0,0,0,0,0,0,0,0,0,-1,1399,1128,0,0
182,-104,0,0,0,0,0,0,0,0,0,-1,1406,1128,0,0
189,-104,0,0,0,0,0,0,0,0,0,-1,1413,1128,0,0
196,-104,0,0,0,0,0,0,0,0,0,-1,1420,1128,0,0
203,-104,0,0,0,0,0,0,0,0,0,-1,1427,1128,0,0
210,-104,0,0,0,0,0,0,0,0,0,-1,1434,1128,0,0
217,-104,0,0,0,0,0,0,0,0,0,-1,1441,1128,0,0
224,-104,0,0,0,0,0,0,0,0,0,-1,1448,1128,0,0
231,-104,0,0,0,0,0,0,0,0,0,-1,1455,1128,0,0
238,-104,0,0,0,0,0,0,0,0,0,-1,1462,1128,0,0
245,-104,0,0,0,0,0,0,0,0,0,-1,1469,1128,0,0
252,-104,0,0,0,0,0,0,0,0,0,-1,1476,1128,0,0
259,-104,0,0,0,0,0,0,0,0,0,-1,1483,1128,0,0
266,-104,0,0,0,0,0,0,0,0,0,-1,1490,1128,0,0
273,-104,0,0,0,0,0,0,0,0,0,-1,1497,1128,0,0
280,-104,0,0,0,0,0,0,0,0,0,-1,1504,1128,0,0
287,-104,0,0,0,0,0,0,0,0,0,-1,1511,1128,0,0
294,-104,0,0,0,0,0,0,0,0,0,-1,1518,1128,0,0
301,-104,0,0,0,0,0,0,0,0,0,-1,1525,1128,0,0
308,-104,0,0,0,0,0,0,0,0,0,-1,1532,1128,0,0
315,-104,0,0,0,0,0,0,0,0,0,-1,1539,1128,0,0
322,-104,0,0,0,0,0,0,0,0,0,-1,1546,1128,0,0
329,-104,0,0,0,0,0,0,0,0,0,-1,1553,1128,0,0
336,-104,0,0,0,0,0,0,0,0,0,-1,1560,1128,0,0
343,-104,0,0,0,0,0,0,0,0,0,-1,1567,1128,0,0
350,-104,0,0,0,0,0,0,0,0,0,-1,1574,1128,0,0
357,-104,0,0,0,0,0,0,0,0,0,-1,1581,1128,0,0
364,-104,0,0,0,0,0,0,0,0,0,-1,1588,1128,0,0
371,-104,0,0,0,0,0,0,0,0,0,-1,1595,1128,0,0
378,-104,0,0,0,0,0,0,0,0,0,-1,1602,1128,0,0
385,-104,0,0,0,0,0,0,0,0,0,-1,1609,1128,0,0
392,-104,0,0,0,0,0,0,0,0,0,-1,1616,1128,0,0
399,-104,0,0,0,0,0,0,0,0,0,-1,1623,1128,0,0
406,-104,0,0,0,0,0,0,0,0,0,-1,1630,1128,0,0
413,-104,0,0,0,0,0,0,0,0,0,-1,1637,1128,0,0
420,-104,0,0,0,0,0,0,0,0,0,-1,1644,1128,0,0
427,-104,0,0,0,0,0,0,0,0,0,-1,1651,1128,0,0
434,-104,0,0,0,0,0,0,0,0,0,-1,1658,1128,0,0
441,-104,0,0,0,0,0,0,0,0,0,-1,1665,1128,0,0
448,-104,0,0,0,0,0,0,0,0,0,-1,1672,1128,0,0
455,-104,0,0,0,0,0,0,0,0,0,-1,1679,1128,0,0
462,-104,0,0,0,0,0,0,0,0,0,-1,1686,1128,0,0
469,-104,0,0,0,0,0,0,0,0,0,-1,1693,1128,0,0
476,-104,0,0,0,0,0,0,0,0,0,-1,1700,1128,0,0
483,-104,0,0,0,0,0,0,0,0,0,-1,1707,1128,0,0
490,-104,0,0,0,0,0,0,0,0,0,-1,1714,1128,0,0
497,-104,0,0,0,0,0,0,0,0,0,-1,1721,1128,0,0
504,-104,0,0,0,0,0,0,0,0,0,-1,1728,1128,0,0
511,-104,0,0,0,0,0,0,0,0,0,-1,1735,1128,0,0
518,-104,0,0,0,0,0,0,0,0,0,-1,1742,1128,0,0
525,-104,0,0,0,0,0,0,0,0,0,-1,1749,1128,0,0
532,-104,0,0,0,0,0,0,0,0,0,-1,1756,1128,0,0
539,-104,0,0,0,0,0,0,0,0,0,-1,1763,1128,0,0
546,-104,0,0,0,0,0,0,0,0,0,-1,1770,1128,0,0
553,-104,0,0,0,0,0,0,0,0,0,-1,1777,1128,0,0
560,-104,0,0,0,0,0,0,0,0,0,-1,1784,1128,0,0
567,-104,0,0,0,0,0,0,0,0,0,-1,1791,1128,0,0
574,-104,0,0,0,0,0,0,0,0,0,-1,1798,1128,0,0
581,-104,0,0,0,0,0,0,0,0,0,-1,1805,1128,0,0
588,-104,0,0,0,0,0,0,0,0,0,-1,1812,1128,0,0
595,-104,0,0,0,0,0,0,0,0,0,-1,1819,1128,0,0
602,-104,0,0,0,0,0,0,0,0,0,-1,1826,1128,0,0
609,-104,0,0,0,0,0,0,0,0,0,-1,1833,1128,0,0
616,-104,0,0,0,0,0,0,0,0,0,-1,1840,1128,0,0
623,-104,0,0,0,0,0,0,0,0,0,-1,1847,1128,0,0
630,-104,0,0,0,0,0,0,0,0,0,-1,1854,1128,0,0
637,-104,0,0,0,0,0,0,0,0,0,-1,1861,1128,0,0
644,-104,235.237,8.85718,0,0,0,0,0,0,0,-1,1868,1128,235.237,-8.85717
651,-104,235.264,8.83081,0,0,0,0,0,0,0,-1,1875,1128,235.264,-8.83084
658,-104,235.344,8.69849,0,0,0,0,0,0,0,-1,1882,1128,235.343,-8.69845
665,-104,235.476,8.41846,0,0,0,0,0,0,0,-1,1889,1128,235.476,-8.4185
672,-104,235.218,8.64331,0,0,0,0,0,0,0,-1,1896,1128,235.218,-8.64326
679,-104,235.282,8.83655,0,0,0,0,0,0,0,-1,1903,1128,235.282,-8.83659
686,-104,235.24,8.86011,0,0,0,0,0,0,0,-1,1910,1128,235.24,-8.86008
693,-104,235.272,8.7196,0,0,0,0,0,0,0,-1,1917,1128,235.272,-8.71966
700,-104,235.255,8.56519,0,0,0,0,0,0,0,-1,1924,1128,235.255,-8.56515
707,-104,235.407,8.64331,0,0,0,0,0,0,0,-1,1931,1128,235.408,-8.64334
714,-104,211.875,8.83447,0,0,0,0,0,0,0,-1,1938,1128,211.875,-8.83449
721,-104,148.973,26.0243,0,0,0,0,0,0,0,-1,1945,1128,148.973,-26.0243
728,-104,238.709,32.2195,0,0,0,0,0,0,0,-1,1952,1128,238.709,-32.2195
735,-104,238.65,31.7826,0,0,0,0,0,0,0,-1,1959,1128,238.65,-31.7826
742,-104,238.437,31.1438,-0.0104882,0.0131688,0.00470639,0.0140708,-0.0113901,1.38146,0.014727,0.0381218,1966,1128,238.437,-31.1437
749,-104,238.308,30.5765,-0.0143512,0.023594,0.00445222,0.0241094,-0.0148666,1.45555,0.0227127,0.0337476,1973,1128,238.308,-30.5766
756,-104,238.281,30.0009,-0.0185139,0.0338592,0.0045037,0.0342437,-0.0188984,1.48564,0.0311051,0.0284365,1980,1128,238.281,-30.0009
763,-104,237.843,29.2557,0,0,0,0,0,0,0,-1,1987,1128,237.843,-29.2557
770,-104,237.928,28.9679,0,0,0,0,0,0,0,-1,1994,1128,237.928,-28.9679
777,-104,237.847,28.5458,0,0,0,0,0,0,0,-1,2001,1128,237.847,-28.5457
784,-104,198.008,29.3326,0,0,0,0,0,0,0,-1,2008,1128,198.008,-29.3327
791,-104,124.777,12.4595,0,0,0,0,0,0,0,-1,2015,1128,124.777,-12.4595
798,-104,117.724,5.89856,0,0,0,0,0,0,0,-1,2022,1128,117.724,-5.89853
805,-104,116.657,4.51953,0,0,0,0,0,0,0,-1,2029,1128,116.657,-4.51951
812,-104,115.406,3.27905,0,0,0,0,0,0,0,-1,2036,1128,115.406,-3.27907
-700,-111,0,0,0,0,0,0,0,0,0,-1,524,1135,0,0
-693,-111,-87.3786,2.87793,0,0,0,0,0,0,0,-1,531,1135,-87.3786,-2.87792
-686,-111,-87.7664,3.81384,0,0,0,0,0,0,0,-1,538,1135,-87.7664,-3.81379
-679,-111,-87.8987,5.0907,0,0,0,0,0,0,0,-1,545,1135,-87.8987,-5.09074
-672,-111,-87.9348,6.62744,0,0,0,0,0,0,0,-1,552,1135,-87.9348,-6.62745
-665,-111,-89.323,7.58716,0,0,0,0,0,0,0,-1,559,1135,-89.323,-7.58714
-658,-111,-88.7458,8.3031,0,0,0,0,0,0,0,-1,566,1135,-88.7457,-8.30306
-651,-111,-211.441,28.2211,0,0,0,0,0,0,0,-1,573,1135,-211.441,-28.2211
-644,-111,-230.173,27.8993,0,0,0,0,0,0,0,-1,580,1135,-230.173,-27.8993
-637,-111,-230.485,28.1774,-0.0207586,0.0584273,-0.00551377,0.0588094,-0.0211407,-1.50161,0.0478365,0.0253167,587,1135,-230.485,-28.1773
-630,-111,-230.716,28.5269,-0.0193113,0.0486896,-0.00494652,0.0490475,-0.0196692,-1.49856,0.0408644,0.0403907,594,1135,-230.716,-28.5269
-623,-111,-230.829,29.2784,-0.0179322,0.0396039,-0.00418638,0.0399069,-0.0182352,-1.49854,0.0343369,0.0412233,601,1135,-230.829,-29.2785
-616,-111,-231.192,29.8804,-0.0166106,0.0310578,-0.00328947,0.0312837,-0.0168366,-1.50222,0.0281966,0.0481573,608,1135,-231.192,-29.8804
-609,-111,-231.747,30.2651,0,0,0,0,0,0,0,-1,615,1135,-231.747,-30.2651
-602,-111,-230.28,31.3748,0,0,0,0,0,0,0,-1,622,1135,-230.28,-31.3747
-595,-111,-229.289,31.7587,0,0,0,0,0,0,0,-1,629,1135,-229.289,-31.7587
-588,-111,-229.095,32.5962,0,0,0,0,0,0,0,-1,636,1135,-229.095,-32.5962
-581,-111,-21.0555,3.14551,0,0,0,0,0,0,0,-1,643,1135,-21.0555,-3.14548
-574,-111,-72.0052,0.325439,0,0,0,0,0,0,0,-1,650,1135,-72.0053,-0.325442
-567,-111,-71.9791,0.25293,0,0,0,0,0,0,0,-1,657,1135,-71.979,-0.25289
-560,-111,-72.0156,-0.0426025,0,0,0,0,0,0,0,-1,664,1135,-72.0156,0.0426468
-553,-111,-71.9611,0.0412598,0,0,0,0,0,0,0,-1,671,1135,-71.9611,-0.0412414
-546,-111,-71.9863,0.294189,0,0,0,0,0,0,0,-1,678,1135,-71.9863,-0.294224
-539,-111,-72.1181,0.645142,0,0,0,0,0,0,0,-1,685,1135,-72.1181,-0.645102
-532,-111,-72.2086,0.617065,0,0,0,0,0,0,0,-1,692,1135,-72.2085,-0.617046
-525,-111,-72.1599,0.566895,0,0,0,0,0,0,0,-1,699,1135,-72.1599,-0.56687
-518,-111,0,0,0,0,0,0,0,0,0,-1,706,1135,0,0
-511,-111,0,0,0,0,0,0,0,0,0,-1,713,1135,0,0
-504,-111,0,0,0,0,0,0,0,0,0,-1,720,1135,0,0
-497,-111,0,0,0,0,0,0,0,0,0,-1,727,1135,0,0
-490,-111,0,0,0,0,0,0,0,0,0,-1,734,1135,0,0
-483,-111,0,0,0,0,0,0,0,0,0,-1,741,1135,0,0
-476,-111,0,0,0,0,0,0,0,0,0,-1,748,1135,0,0
-469,-111,0,0,0,0,0,0,0,0,0,-1,755,1135,0,0
-462,-111,0,0,0,0,0,0,0,0,0,-1,762,1135,0,0
-455,-111,0,0,0,0,0,0,0,0,0,-1,769,1135,0,0
-448,-111,0,0,0,0,0,0,0,0,0,-1,776,1135,0,0
-441,-111,0,0,0,0,0,0,0,0,0,-1,783,1135,0,0
-434,-111,0,0,0,0,0,0,0,0,0,-1,790,1135,0,0
-427,-111,0,0,0,0,0,0,0,0,0,-1,797,1135,0,0
-420,-111,0,0,0,0,0,0,0,0,0,-1,804,1135,0,0
-413,-111,0,0,0,0,0,0,0,0,0,-1,811,1135,0,0
-406,-111,0,0,0,0,0,0,0,0,0,-1,818,1135,0,0
-399,-111,0,0,0,0,0,0,0,0,0,-1,825,1135,0,0
-392,-111,0,0,0,0,0,0,0,0,0,-1,832,1135,0,0
-385,-111,0,0,0,0,0,0,0,0,0,-1,839,1135,0,0
-378,-111,0,0,0,0,0,0,0,0,0,-1,846,1135,0,0
-371,-111,0,0,0,0,0,0,0,0,0,-1,853,1135,0,0
-364,-111,0,0,0,0,0,0,0,0,0,-1,860,1135,0,0
-357,-111,0,0,0,0,0,0,0,0,0,-1,867,1135,0,0
-350,-111,0,0,0,0,0,0,0,0,0,-1,874,1135,0,0
-343,-111,0,0,0,0,0,0,0,0,0,-1,881,1135,0,0
-336,-111,0,0,0,0,0,0,0,0,0,-1,888,1135,0,0
-329,-111,0,0,0,0,0,0,0,0,0,-1,895,1135,0,0
-322,-111,0,0,0,0,0,0,0,0,0,-1,902,1135,0,0
-315,-111,0,0,0,0,0,0,0,0,0,-1,909,1135,0,0
-308,-111,0,0,0,0,0,0,0,0,0,-1,916,1135,0,0
-301,-111,0,0,0,0,0,0,0,0,0,-1,923,1135,0,0
-294,-111,0,0,0,0,0,0,0,0,0,-1,930,1135,0,0
-287,-111,0,0,0,0,0,0,0,0,0,-1,937,1135,0,0
-280,-111,0,0,0,0,0,0,0,0,0,-1,944,1135,0,0
-273,-111,0,0,0,0,0,0,0,0,0,-1,951,1135,0,0
-266,-111,0,0,0,0,0,0,0,0,0,-1,958,1135,0,0
-259,-111,0,0,0,0,0,0,0,0,0,-1,965,1135,0,0
-252,-111,0,0,0,0,0,0,0,0,0,-1,972,1135,0,0
-245,-111,0,0,0,0,0,0,0,0,0,-1,979,1135,0,0
-238,-111,0,0,0,0,0,0,0,0,0,-1,986,1135,0,0
-231,-111,0,0,0,0,0,0,0,0,0,-1,993,1135,0,0
-224,-111,0,0,0,0,0,0,0,0,0,-1,1000,1135,0,0
-217,-111,0,0,0,0,0,0,0,0,0,-1,1007,1135,0,0
-210,-111,0,0,0,0,0,0,0,0,0,-1,1014,1135,0,0
-203,-111,0,0,0,0,0,0,0,0,0,-1,1021,1135,0,0
-196,-111,0,0,0,0,0,0,0,0,0,-1,1028,1135,0,0
-189,-111,0,0,0,0,0,0,0,0,0,-1,1035,1135,0,0
-182,-111,0,0,0,0,0,0,0,0,0,-1,1042,1135,0,0
-175,-111,0,0,0,0,0,0,0,0,0,-1,1049,1135,0,0
-168,-111,0,0,0,0,0,0,0,0,0,-1,1056,1135,0,0
-161,-111,0,0,0,0,0,0,0,0,0,-1,1063,1135,0,0
-154,-111,0,0,0,0,0,0,0,0,0,-1,1070,1135,0,0
-147,-111,0,0,0,0,0,0,0,0,0,-1,1077,1135,0,0
-140,-111,0,0,0,0,0,0,0,0,0,-1,1084,1135,0,0
-133,-111,0,0,0,0,0,0,0,0,0,-1,1091,1135,0,0
-126,-111,0,0,0,0,0,0,0,0,0,-1,1098,1135,0,0
-119,-111,0,0,0,0,0,0,0,0,0,-1,1105,1135,0,0
-112,-111,0,0,0,0,0,0,0,0,0,-1,1112,1135,0,0
-105,-111,0,0,0,0,0,0,0,0,0,-1,1119,1135,0,0
-98,-111,0,0,0,0,0,0,0,0,0,-1,1126,1135,0,0
-91,-111,0,0,0,0,0,0,0,0,0,-1,1133,1135,0,0
-84,-111,0,0,0,0,0,0,0,0,0,-1,1140,1135,0,0
-77,-111,0,0,0,0,0,0,0,0,0,-1,1147,1135,0,0
-70,-111,0,0,0,0,0,0,0,0,0,-1,1154,1135,0,0
-63,-111,0,0,0,0,0,0,0,0,0,-1,1161,1135,0,0
-56,-111,0,0,0,0,0,0,0,0,0,-1,1168,1135,0,0
-49,-111,0,0,0,0,0,0,0,0,0,-1,1175,1135,0,0
-42,-111,0,0,0,0,0,0,0,0,0,-1,1182,1135,0,0
-35,-111,0,0,0,0,0,0,0,0,0,-1,1189,1135,0,0
-28,-111,0,0,0,0,0,0,0,0,0,-1,1196,1135,0,0
-21,-111,0,0,0,0,0,0,0,0,0,-1,1203,1135,0,0
-14,-111,0,0,0,0,0,0,0,0,0,-1,1210,1135,0,0
-7,-111,0,0,0,0,0,0,0,0,0,-1,1217,1135,0,0
0,-111,0,0,0,0,0,0,0,0,0,-1,1224,1135,0,0
7,-111,0,0,0,0,0,0,0,0,0,-1,1231,1135,0,0
14,-111,0,0,0,0,0,0,0,0,0,-1,1238,1135,0,0
21,-111,0,0,0,0,0,0,0,0,0,-1,1245,1135,0,0
28,-111,0,0,0,0,0,0,0,0,0,-1,1252,1135,0,0
35,-111,0,0,0,0,0,0,0,0,0,-1,1259,1135,0,0
42,-111,0,0,0,0,0,0,0,0,0,-1,1266,1135,0,0
49,-111,0,0,0,0,0,0,0,0,0,-1,1273,1135,0,0
56,-111,0,0,0,0,0,0,0,0,0,-1,1280,1135,0,0
63,-111,0,0,0,0,0,0,0,0,0,-1,1287,1135,0,0
70,-111,0,0,0,0,0,0,0,0,0,-1,1294,1135,0,0
77,-111,0,0,0,0,0,0,0,0,0,-1,1301,1135,0,0
84,-111,0,0,0,0,0,0,0,0,0,-1,1308,1135,0,0
91,-111,0,0,0,0,0,0,0,0,0,-1,1315,1135,0,0
98,-111,0,0,0,0,0,0,0,0,0,-1,1322,1135,0,0
105,-111,0,0,0,0,0,0,0,0,0,-1,1329,1135,0,0
112,-111,0,0,0,0,0,0,0,0,0,-1,1336,1135,0,0
119,-111,0,0,0,0,0,0,0,0,0,-1,1343,1135,0,0
126,-111,0,0,0,0,0,0,0,0,0,-1,1350,1135,0,0
133,-111,0,0,0,0,0,0,0,0,0,-1,1357,1135,0,0
140,-111,0,0,0,0,0,0,0,0,0,-1,1364,1135,0,0
147,-111,0,0,0,0,0,0,0,0,0,-1,1371,1135,0,0
154,-111,0,0,0,0,0,0,0,0,0,-1,1378,1135,0,0
161,-111,0,0,0,0,0,0,0,0,0,-1,1385,1135,0,0
168,-111,0,0,0,0,0,0,0,0,0,-1,1392,1135,0,0
175,-111,0,0,0,0,0,0,0,0,0,-1,1399,1135,0,0
182,-111,0,0,0,0,0,0,0,0,0,-1,1406,1135,0,0
189,-111,0,0,0,0,0,0,0,0,0,-1,1413,1135,0,0
196,-111,0,0,0,0,0,0,0,0,0,-1,1420,1135,0,0
203,-111,0,0,0,0,0,0,0,0,0,-1,1427,1135,0,0
210,-111,0,0,0,0,0,0,0,0,0,-1,1434,1135,0,0
217,-111,0,0,0,0,0,0,0,0,0,-1,1441,1135,0,0
224,-111,0,0,0,0,0,0,0,0,0,-1,1448,1135,0,0
231,-111,0,0,0,0,0,0,0,0,0,-1,1455,1135,0,0
238,-111,0,0,0,0,0,0,0,0,0,-1,1462,1135,0,0
245,-111,0,0,0,0,0,0,0,0,0,-1,1469,1135,0,0
252,-111,0,0,0,0,0,0,0,0,0,-1,1476,1135,0,0
259,-111,0,0,0,0,0,0,0,0,0,-1,1483,1135,0,0
266,-111,0,0,0,0,0,0,0,0,0,-1,1490,1135,0,0
273,-111,0,0,0,0,0,0,0,0,0,-1,1497,1135,0,0
280,-111,0,0,0,0,0,0,0,0,0,-1,1504,1135,0,0
287,-111,0,0,0,0,0,0,0,0,0,-1,1511,1135,0,0
294,-111,0,0,0,0,0,0,0,0,0,-1,1518,1135,0,0
301,-111,0,0,0,0,0,0,0,0,0,-1,1525,1135,0,0
308,-111,0,0,0,0,0,0,0,0,0,-1,1532,1135,0,0
315,-111,0,0,0,0,0,0,0,0,0,-1,1539,1135,0,0
322,-111,0,0,0,0,0,0,0,0,0,-1,1546,1135,0,0
329,-111,0,0,0,0,0,0,0,0,0,-1,1553,1135,0,0
336,-111,0,0,0,0,0,0,0,0,0,-1,1560,1135,0,0
343,-111,0,0,0,0,0,0,0,0,0,-1,1567,1135,0,0
350,-111,0,0,0,0,0,0,0,0,0,-1,1574,1135,0,0
357,-111,0,0,0,0,0,0,0,0,0,-1,1581,1135,0,0
364,-111,0,0,0,0,0,0,0,0,0,-1,1588,1135,0,0
371,-111,0,0,0,0,0,0,0,0,0,-1,1595,1135,0,0
378,-111,0,0,0,0,0,0,0,0,0,-1,1602,1135,0,0
385,-111,0,0,0,0,0,0,0,0,0,-1,1609,1135,0,0
392,-111,0,0,0,0,0,0,0,0,0,-1,1616,1135,0,0
399,-111,0,0,0,0,0,0,0,0,0,-1,1623,1135,0,0
406,-111,0,0,0,0,0,0,0,0,0,-1,1630,1135,0,0
413,-111,0,0,0,0,0,0,0,0,0,-1,1637,1135,0,0
420,-111,0,0,0,0,0,0,0,0,0,-1,1644,1135,0,0
427,-111,0,0,0,0,0,0,0,0,0,-1,1651,1135,0,0
434,-111,0,0,0,0,0,0,0,0,0,-1,1658,1135,0,0
441,-111,0,0,0,0,0,0,0,0,0,-1,1665,1135,0,0
448,-111,0,0,0,0,0,0,0,0,0,-1,1672,1135,0,0
455,-111,0,0,0,0,0,0,0,0,0,-1,1679,1135,0,0
462,-111,0,0,0,0,0,0,0,0,0,-1,1686,1135,0,0
469,-111,0,0,0,0,0,0,0,0,0,-1,1693,1135,0,0
476,-111,0,0,0,0,0,0,0,0,0,-1,1700,1135,0,0
483,-111,0,0,0,0,0,0,0,0,0,-1,1707,1135,0,0
490,-111,0,0,0,0,0,0,0,0,0,-1,1714,1135,0,0
497,-111,0,0,0,0,0,0,0,0,0,-1,1721,1135,0,0
504,-111,0,0,0,0,0,0,0,0,0,-1,1728,1135,0,0
511,-111,0,0,0,0,0,0,0,0,0,-1,1735,1135,0,0
518,-111,0,0,0,0,0,0,0,0,0,-1,1742,1135,0,0
525,-111,0,0,0,0,0,0,0,0,0,-1,1749,1135,0,0
532,-111,0,0,0,0,0,0,0,0,0,-1,1756,1135,0,0
539,-111,0,0,0,0,0,0,0,0,0,-1,1763,1135,0,0
546,-111,0,0,0,0,0,0,0,0,0,-1,1770,1135,0,0
553,-111,0,0,0,0,0,0,0,0,0,-1,1777,1135,0,0
560,-111,0,0,0,0,0,0,0,0,0,-1,1784,1135,0,0
567,-111,0,0,0,0,0,0,0,0,0,-1,1791,1135,0,0
574,-111,0,0,0,0,0,0,0,0,0,-1,1798,1135,0,0
581,-111,0,0,0,0,0,0,0,0,0,-1,1805,1135,0,0
588,-111,0,0,0,0,0,0,0,0,0,-1,1812,1135,0,0
595,-111,0,0,0,0,0,0,0,0,0,-1,1819,1135,0,0
602,-111,0,0,0,0,0,0,0,0,0,-1,1826,1135,0,0
609,-111,0,0,0,0,0,0,0,0,0,-1,1833,1135,0,0
616,-111,0,0,0,0,0,0,0,0,0,-1,1840,1135,0,0
623,-111,0,0,0,0,0,0,0,0,0,-1,1847,1135,0,0
630,-111,0,0,0,0,0,0,0,0,0,-1,1854,1135,0,0
637,-111,0,0,0,0,0,0,0,0,0,-1,1861,1135,0,0
644,-111,235.215,8.84851,0,0,0,0,0,0,0,-1,1868,1135,235.215,-8.84846
651,-111,235.292,8.93042,0,0,0,0,0,0,0,-1,1875,1135,235.293,-8.93037
658,-111,235.438,8.96179,0,0,0,0,0,0,0,-1,1882,1135,235.438,-8.96179
665,-111,235.517,8.84009,0,0,0,0,0,0,0,-1,1889,1135,235.517,-8.84011
672,-111,235.286,8.76636,0,0,0,0,0,0,0,-1,1896,1135,235.286,-8.76631
679,-111,235.168,8.7782,0,0,0,0,0,0,0,-1,1903,1135,235.168,-8.77816
686,-111,235.163,8.7417,0,0,0,0,0,0,0,-1,1910,1135,235.163,-8.74174
693,-111,235.205,8.57813,0,0,0,0,0,0,0,-1,1917,1135,235.205,-8.57817
700,-111,235.294,8.60352,0,0,0,0,0,0,0,-1,1924,1135,235.294,-8.60355
707,-111,235.491,8.79785,0,0,0,0,0,0,0,-1,1931,1135,235.491,-8.79788
714,-111,45.1654,7.39746,0,0,0,0,0,0,0,-1,1938,1135,45.1654,-7.39745
721,-111,238.319,32.8348,0,0,0,0,0,0,0,-1,1945,1135,238.319,-32.8349
728,-111,238.167,32.2217,-0.00490554,-0.00566907,0.00640758,0.00113163,-0.0117062,0.755643,0.00820742,0.0497094,1952,1135,238.167,-32.2216
735,-111,238.116,31.6758,-0.00785914,0.00480914,0.00553912,0.00688946,-0.00993946,1.21153,0.00976922,0.0431121,1959,1135,238.116,-31.6758
742,-111,237.882,31.1979,-0.0110341,0.01505,0.00512346,0.0160203,-0.0120044,1.38364,0.0162353,0.0283644,1966,1135,237.882,-31.1978
749,-111,237.661,30.5334,-0.0145539,0.0250675,0.00511806,0.025718,-0.0152043,1.44439,0.023885,0.0290302,1973,1135,237.661,-30.5334
756,-111,237.525,29.8448,-0.0184041,0.0348849,0.00546817,0.0354402,-0.0189594,1.46959,0.0318844,0.0271994,1980,1135,237.525,-29.8448
763,-111,237.341,29.1218,0,0,0,0,0,0,0,-1,1987,1135,237.341,-29.1218
770,-111,237.35,28.7673,0,0,0,0,0,0,0,-1,1994,1135,237.35,-28.7673
777,-111,237.021,28.0463,0,0,0,0,0,0,0,-1,2001,1135,237.021,-28.0462
784,-111,196.202,28.8839,0,0,0,0,0,0,0,-1,2008,1135,196.202,-28.8839
791,-111,196.289,28.3062,0,0,0,0,0,0,0,-1,2015,1135,196.289,-28.3061
798,-111,117.362,5.41443,0,0,0,0,0,0,0,-1,2022,1135,117.362,-5.41445
805,-111,116.808,4.02344,0,0,0,0,0,0,0,-1,2029,1135,116.808,-4.02344
812,-111,115.569,2.60425,0,0,0,0,0,0,0,-1,2036,1135,115.569,-2.60429
-700,-118,0,0,0,0,0,0,0,0,0,-1,524,1142,0,0
-693,-118,-86.2747,2.6283,0,0,0,0,0,0,0,-1,531,1142,-86.2747,-2.62824
-686,-118,-86.7041,3.22351,0,0,0,0,0,0,0,-1,538,1142,-86.7041,-3.22351
-679,-118,-86.7281,4.65881,0,0,0,0,0,0,0,-1,545,1142,-86.7281,-4.65885
-672,-118,-86.7669,6.11426,0,0,0,0,0,0,0,-1,552,1142,-86.7669,-6.11421
-665,-118,-81.5959,6.78015,0,0,0,0,0,0,0,-1,559,1142,-81.5959,-6.78018
-658,-118,-83.8181,6.78662,0,0,0,0,0,0,0,-1,566,1142,-83.8181,-6.78663
-651,-118,-178.296,28.0144,0,0,0,0,0,0,0,-1,573,1142,-178.296,-28.0145
-644,-118,-229.309,27.5144,0,0,0,0,0,0,0,-1,580,1142,-229.309,-27.5144
-637,-118,-229.656,27.9575,-0.0213261,0.0581594,-0.00785764,0.0589288,-0.0220954,-1.4732,0.0483637,0.0366712,587,1142,-229.656,-27.9575
-630,-118,-229.954,28.4429,-0.0203925,0.0489784,-0.00690267,0.0496586,-0.0210726,-1.47258,0.0419337,0.0390714,594,1142,-229.954,-28.4429
-623,-118,-229.947,29.1788,-0.0195275,0.0403677,-0.00585759,0.0409352,-0.0200949,-1.47422,0.035914,0.0369444,601,1142,-229.947,-29.1789
-616,-118,-229.54,29.9523,0,0,0,0,0,0,0,-1,608,1142,-229.54,-29.9522
-609,-118,-229.991,30.4467,0,0,0,0,0,0,0,-1,615,1142,-229.991,-30.4466
-602,-118,-229.389,31.4172,0,0,0,0,0,0,0,-1,622,1142,-229.389,-31.4173
-595,-118,-228.664,31.5518,0,0,0,0,0,0,0,-1,629,1142,-228.664,-31.5518
-588,-118,-228.097,32.621,0,0,0,0,0,0,0,-1,636,1142,-228.097,-32.621
-581,-118,-24.6116,3.89648,0,0,0,0,0,0,0,-1,643,1142,-24.6116,-3.89645
-574,-118,-72.0256,0.515259,0,0,0,0,0,0,0,-1,650,1142,-72.0257,-0.515318
-567,-118,-72.0513,0.48877,0,0,0,0,0,0,0,-1,657,1142,-72.0513,-0.488796
-560,-118,-71.967,0.49707,0,0,0,0,0,0,0,-1,664,1142,-71.967,-0.497115
-553,-118,-71.8315,0.429077,0,0,0,0,0,0,0,-1,671,1142,-71.8316,-0.429054
-546,-118,-71.9034,0.514893,0,0,0,0,0,0,0,-1,678,1142,-71.9035,-0.514945
-539,-118,-72.0641,0.645264,0,0,0,0,0,0,0,-1,685,1142,-72.0641,-0.645291
-532,-118,-72.1383,0.627808,0,0,0,0,0,0,0,-1,692,1142,-72.1383,-0.627791
-525,-118,-72.0248,0.533691,0,0,0,0,0,0,0,-1,699,1142,-72.0248,-0.533746
-518,-118,0,0,0,0,0,0,0,0,0,-1,706,1142,0,0
-511,-118,0,0,0,0,0,0,0,0,0,-1,713,1142,0,0
-504,-118,0,0,0,0,0,0,0,0,0,-1,720,1142,0,0
-497,-118,0,0,0,0,0,0,0,0,0,-1,727,1142,0,0
-490,-118,0,0,0,0,0,0,0,0,0,-1,734,1142,0,0
-483,-118,0,0,0,0,0,0,0,0,0,-1,741,1142,0,0
-476,-118,0,0,0,0,0,0,0,0,0,-1,748,1142,0,0
-469,-118,0,0,0,0,0,0,0,0,0,-1,755,1142,0,0
-462,-118,0,0,0,0,0,0,0,0,0,-1,762,1142,0,0
-455,-118,0,0,0,0,0,0,0,0,0,-1,769,1142,0,0
-448,-118,0,0,0,0,0,0,0,0,0,-1,776,1142,0,0
-441,-118,0,0,0,0,0,0,0,0,0,-1,783,1142,0,0
-434,-118,0,0,0,0,0,0,0,0,0,-1,790,1142,0,0
-427,-118,0,0,0,0,0,0,0,0,0,-1,797,1142,0,0
-420,-118,0,0,0,0,0,0,0,0,0,-1,804,1142,0,0
-413,-118,0,0,0,0,0,0,0,0,0,-1,811,1142,0,0
-406,-118,0,0,0,0,0,0,0,0,0,-1,818,1142,0,0
-399,-118,0,0,0,0,0,0,0,0,0,-1,825,1142,0,0
-392,-118,0,0,0,0,0,0,0,0,0,-1,832,1142,0,0
-385,-118,0,0,0,0,0,0,0,0,0,-1,839,1142,0,0
-378,-118,0,0,0,0,0,0,0,0,0,-1,846,1142,0,0
-371,-118,0,0,0,0,0,0,0,0,0,-1,853,1142,0,0
-364,-118,0,0,0,0,0,0,0,0,0,-1,860,1142,0,0
-357,-118,0,0,0,0,0,0,0,0,0,-1,867,1142,0,0
-350,-118,0,0,0,0,0,0,0,0,0,-1,874,1142,0,0
-343,-118,0,0,0,0,0,0,0,0,0,-1,881,1142,0,0
-336,-118,0,0,0,0,0,0,0,0,0,-1,888,1142,0,0
-329,-118,0,0,0,0,0,0,0,0,0,-1,895,1142,0,0
-322,-118,0,0,0,0,0,0,0,0,0,-1,902,1142,0,0
-315,-118,0,0,0,0,0,0,0,0,0,-1,909,1142,0,0
-308,-118,0,0,0,0,0,0,0,0,0,-1,916,1142,0,0
-301,-118,0,0,0,0,0,0,0,0,0,-1,923,1142,0,0
-294,-118,0,0,0,0,0,0,0,0,0,-1,930,1142,0,0
-287,-118,0,0,0,0,0,0,0,0,0,-1,937,1142,0,0
-280,-118,0,0,0,0,0,0,0,0,0,-1,944,1142,0,0
-273,-118,0,0,0,0,0,0,0,0,0,-1,951,1142,0,0
-266,-118,0,0,0,0,0,0,0,0,0,-1,958,1142,0,0
-259,-118,0,0,0,0,0,0,0,0,0,-1,965,1142,0,0
-252,-118,0,0,0,0,0,0,0,0,0,-1,972,1142,0,0
-245,-118,0,0,0,0,0,0,0,0,0,-1,979,1142,0,0
-238,-118,0,0,0,0,0,0,0,0,0,-1,986,1142,0,0
-231,-118,0,0,0,0,0,0,0,0,0,-1,993,1142,0,0
-224,-118,0,0,0,0,0,0,0,0,0,-1,1000,1142,0,0
-217,-118,0,0,0,0,0,0,0,0,0,-1,1007,1142,0,0
-210,-118,0,0,0,0,0,0,0,0,0,-1,1014,1142,0,0
-203,-118,0,0,0,0,0,0,0,0,0,-1,1021,1142,0,0
-196,-118,0,0,0,0,0,0,0,0,0,-1,1028,1142,0,0
-189,-118,0,0,0,0,0,0,0,0,0,-1,1035,1142,0,0
-182,-118,0,0,0,0,0,0,0,0,0,-1,1042,1142,0,0
-175,-118,0,0,0,0,0,0,0,0,0,-1,1049,1142,0,0
-168,-118,0,0,0,0,0,0,0,0,0,-1,1056,1142,0,0
-161,-118,0,0,0,0,0,0,0,0,0,-1,1063,1142,0,0
-154,-118,0,0,0,0,0,0,0,0,0,-1,1070,1142,0,0
-147,-118,0,0,0,0,0,0,0,0,0,-1,1077,1142,0,0
-140,-118,0,0,0,0,0,0,0,0,0,-1,1084,1142,0,0
-133,-118,0,0,0,0,0,0,0,0,0,-1,1091,1142,0,0
-126,-118,0,0,0,0,0,0,0,0,0,-1,1098,1142,0,0
-119,-118,0,0,0,0,0,0,0,0,0,-1,1105,1142,0,0
-112,-118,0,0,0,0,0,0,0,0,0,-1,1112,1142,0,0
-105,-118,0,0,0,0,0,0,0,0,0,-1,1119,1142,0,0
-98,-118,0,0,0,0,0,0,0,0,0,-1,1126,1142,0,0
-91,-118,0,0,0,0,0,0,0,0,0,-1,1133,1142,0,0
-84,-118,0,0,0,0,0,0,0,0,0,-1,1140,1142,0,0
-77,-118,0,0,0,0,0,0,0,0,0,-1,1147,1142,0,0
-70,-118,0,0,0,0,0,0,0,0,0,-1,1154,1142,0,0
-63,-118,0,0,0,0,0,0,0,0,0,-1,1161,1142,0,0
-56,-118,0,0,0,0,0,0,0,0,0,-1,1168,1142,0,0
-49,-118,0,0,0,0,0,0,0,0,0,-1,1175,1142,0,0
-42,-118,0,0,0,0,0,0,0,0,0,-1,1182,1142,0,0
-35,-118,0,0,0,0,0,0,0,0,0,-1,1189,1142,0,0
-28,-118,0,0,0,0,0,0,0,0,0,-1,1196,1142,0,0
-21,-118,0,0,0,0,0,0,0,0,0,-1,1203,1142,0,0
-14,-118,0,0,0,0,0,0,0,0,0,-1,1210,1142,0,0
-7,-118,0,0,0,0,0,0,0,0,0,-1,1217,1142,0,0
0,-118,0,0,0,0,0,0,0,0,0,-1,1224,1142,0,0
7,-118,0,0,0,0,0,0,0,0,0,-1,1231,1142,0,0
14,-118,0,0,0,0,0,0,0,0,0,-1,1238,1142,0,0
21,-118,0,0,0,0,0,0,0,0,0,-1,1245,1142,0,0
28,-118,0,0,0,0,0,0,0,0,0,-1,1252,1142,0,0
35,-118,0,0,0,0,0,0,0,0,0,-1,1259,1142,0,0
42,-118,0,0,0,0,0,0,0,0,0,-1,1266,1142,0,0
49,-118,0,0,0,0,0,0,0,0,0,-1,1273,1142,0,0
56,-118,0,0,0,0,0,0,0,0,0,-1,1280,1142,0,0
63,-118,0,0,0,0,0,0,0,0,0,-1,1287,1142,0,0
70,-118,0,0,0,0,0,0,0,0,0,-1,1294,1142,0,0
77,-118,0,0,0,0,0,0,0,0,0,-1,1301,1142,0,0
84,-118,0,0,0,0,0,0,0,0,0,-1,1308,1142,0,0
91,-118,0,0,0,0,0,0,0,0,0,-1,1315,1142,0,0
98,-118,0,0,0,0,0,0,0,0,0,-1,1322,1142,0,0
105,-118,0,0,0,0,0,0,0,0,0,-1,1329,1142,0,0
112,-118,0,0,0,0,0,0,0,0,0,-1,1336,1142,0,0
119,-118,0,0,0,0,0,0,0,0,0,-1,1343,1142,0,0
126,-118,0,0,0,0,0,0,0,0,0,-1,1350,1142,0,0
133,-118,0,0,0,0,0,0,0,0,0,-1,1357,1142,0,0
140,-118,0,0,0,0,0,0,0,0,0,-1,1364,1142,0,0
147,-118,0,0,0,0,0,0,0,0,0,-1,1371,1142,0,0
154,-118,0,0,0,0,0,0,0,0,0,-1,1378,1142,0,0
161,-118,0,0,0,0,0,0,0,0,0,-1,1385,1142,0,0
168,-118,0,0,0,0,0,0,0,0,0,-1,1392,1142,0,0
175,-118,0,0,0,0,0,0,0,0,0,-1,1399,1142,0,0
182,-118,0,0,0,0,0,0,0,0,0,-1,1406,1142,0,0
189,-118,0,0,0,0,0,0,0,0,0,-1,1413,1142,0,0
196,-118,0,0,0,0,0,0,0,0,0,-1,1420,1142,0,0
203,-118,0,0,0,0,0,0,0,0,0,-1,1427,1142,0,0
210,-118,0,0,0,0,0,0,0,0,0,-1,1434,1142,0,0
217,-118,0,0,0,0,0,0,0,0,0,-1,1441,1142,0,0
224,-118,0,0,0,0,0,0,0,0,0,-1,1448,1142,0,0
231,-118,0,0,0,0,0,0,0,0,0,-1,1455,1142,0,0
238,-118,0,0,0,0,0,0,0,0,0,-1,1462,1142,0,0
245,-118,0,0,0,0,0,0,0,0,0,-1,1469,1142,0,0
252,-118,0,0,0,0,0,0,0,0,0,-1,1476,1142,0,0
259,-118,0,0,0,0,0,0,0,0,0,-1,1483,1142,0,0
266,-118,0,0,0,0,0,0,0,0,0,-1,1490,1142,0,0
273,-118,0,0,0,0,0,0,0,0,0,-1,1497,1142,0,0
280,-118,0,0,0,0,0,0,0,0,0,-1,1504,1142,0,0
287,-118,0,0,0,0,0,0,0,0,0,-1,1511,1142,0,0
294,-118,0,0,0,0,0,0,0,0,0,-1,1518,1142,0,0
301,-118,0,0,0,0,0,0,0,0,0,-1,1525,1142,0,0
308,-118,0,0,0,0,0,0,0,0,0,-1,1532,1142,0,0
315,-118,0,0,0,0,0,0,0,0,0,-1,1539,1142,0,0
322,-118,0,0,0,0,0,0,0,0,0,-1,1546,1142,0,0
329,-118,0,0,0,0,0,0,0,0,0,-1,1553,1142,0,0
336,-118,0,0,0,0,0,0,0,0,0,-1,1560,1142,0,0
343,-118,0,0,0,0,0,0,0,0,0,-1,1567,1142,0,0
350,-118,0,0,0,0,0,0,0,0,0,-1,1574,1142,0,0
357,-118,0,0,0,0,0,0,0,0,0,-1,1581,1142,0,0
364,-118,0,0,0,0,0,0,0,0,0,-1,1588,1142,0,0
371,-118,0,0,0,0,0,0,0,0,0,-1,1595,1142,0,0
378,-118,0,0,0,0,0,0,0,0,0,-1,1602,1142,0,0
385,-118,0,0,0,0,0,0,0,0,0,-1,1609,1142,0,0
392,-118,0,0,0,0,0,0,0,0,0,-1,1616,1142,0,0
399,-118,0,0,0,0,0,0,0,0,0,-1,1623,1142,0,0
406,-118,0,0,0,0,0,0,0,0,0,-1,1630,1142,0,0
413,-118,0,0,0,0,0,0,0,0,0,-1,1637,1142,0,0
420,-118,0,0,0,0,0,0,0,0,0,-1,1644,1142,0,0
427,-118,0,0,0,0,0,0,0,0,0,-1,1651,1142,0,0
434,-118,0,0,0,0,0,0,0,0,0,-1,1658,1142,0,0
441,-118,0,0,0,0,0,0,0,0,0,-1,1665,1142,0,0
448,-118,0,0,0,0,0,0,0,0,0,-1,1672,1142,0,0
455,-118,0,0,0,0,0,0,0,0,0,-1,1679,1142,0,0
462,-118,0,0,0,0,0,0,0,0,0,-1,1686,1142,0,0
469,-118,0,0,0,0,0,0,0,0,0,-1,1693,1142,0,0
476,-118,0,0,0,0,0,0,0,0,0,-1,1700,1142,0,0
483,-118,0,0,0,0,0,0,0,0,0,-1,1707,1142,0,0
490,-118,0,0,0,0,0,0,0,0,0,-1,1714,1142,0,0
497,-118,0,0,0,0,0,0,0,0,0,-1,1721,1142,0,0
504,-118,0,0,0,0,0,0,0,0,0,-1,1728,1142,0,0
511,-118,0,0,0,0,0,0,0,0,0,-1,1735,1142,0,0
518,-118,0,0,0,0,0,0,0,0,0,-1,1742,1142,0,0
525,-118,0,0,0,0,0,0,0,0,0,-1,1749,1142,0,0
532,-118,0,0,0,0,0,0,0,0,0,-1,1756,1142,0,0
539,-118,0,0,0,0,0,0,0,0,0,-1,1763,1142,0,0
546,-118,0,0,0,0,0,0,0,0,0,-1,1770,1142,0,0
553,-118,0,0,0,0,0,0,0,0,0,-1,1777,1142,0,0
560,-118,0,0,0,0,0,0,0,0,0,-1,1784,1142,0,0
567,-118,0,0,0,0,0,0,0,0,0,-1,1791,1142,0,0
574,-118,0,0,0,0,0,0,0,0,0,-1,1798,1142,0,0
581,-118,0,0,0,0,0,0,0,0,0,-1,1805,1142,0,0
588,-118,0,0,0,0,0,0,0,0,0,-1,1812,1142,0,0
595,-118,0,0,0,0,0,0,0,0,0,-1,1819,1142,0,0
602,-118,0,0,0,0,0,0,0,0,0,-1,1826,1142,0,0
609,-118,0,0,0,0,0,0,0,0,0,-1,1833,1142,0,0
616,-118,0,0,0,0,0,0,0,0,0,-1,1840,1142,0,0
623,-118,0,0,0,0,0,0,0,0,0,-1,1847,1142,0,0
630,-118,0,0,0,0,0,0,0,0,0,-1,1854,1142,0,0
637,-118,0,0,0,0,0,0,0,0,0,-1,1861,1142,0,0
644,-118,235.278,8.89819,0,0,0,0,0,0,0,-1,1868,1142,235.278,-8.89819
651,-118,235.266,8.8335,0,0,0,0,0,0,0,-1,1875,1142,235.266,-8.83348
658,-118,235.232,8.85571,0,0,0,0,0,0,0,-1,1882,1142,235.232,-8.85568
665,-118,235.343,8.97546,0,0,0,0,0,0,0,-1,1889,1142,235.343,-8.97541
672,-118,235.412,9.02356,0,0,0,0,0,0,0,-1,1896,1142,235.412,-9.0236
679,-118,235.099,8.83801,0,0,0,0,0,0,0,-1,1903,1142,235.099,-8.83803
686,-118,235.184,8.72876,0,0,0,0,0,0,0,-1,1910,1142,235.183,-8.72872
693,-118,235.124,8.60522,0,0,0,0,0,0,0,-1,1917,1142,235.123,-8.60523
700,-118,235.238,8.63391,0,0,0,0,0,0,0,-1,1924,1142,235.238,-8.63397
707,-118,235.514,8.61462,0,0,0,0,0,0,0,-1,1931,1142,235.514,-8.61456
714,-118,50.4819,8.53809,0,0,0,0,0,0,0,-1,1938,1142,50.4819,-8.53809
721,-118,237.844,32.9568,0,0,0,0,0,0,0,-1,1945,1142,237.844,-32.9568
728,-118,237.544,32.3091,-0.00504786,-0.00243309,0.00596782,0.00236888,-0.00984982,0.893231,0.00748223,0.0337224,1952,1142,237.544,-32.309
735,-118,237.375,31.8074,-0.00783633,0.0075313,0.00530382,0.00918406,-0.00948908,1.26872,0.0107814,0.0323573,1959,1142,237.375,-31.8074
742,-118,237.225,31.2135,-0.0109732,0.0172835,0.00513066,0.0181863,-0.0118759,1.39663,0.0174834,0.0448201,1966,1142,237.225,-31.2135
749,-118,236.828,30.525,0,0,0,0,0,0,0,-1,1973,1142,236.828,-30.525
756,-118,236.82,29.7194,0,0,0,0,0,0,0,-1,1980,1142,236.82,-29.7194
763,-118,236.897,29.0698,0,0,0,0,0,0,0,-1,1987,1142,236.897,-29.0698
770,-118,236.443,28.5162,-0.0270018,0.0545703,0.00836105,0.0554185,-0.02785,1.4697,0.0489455,0.028464,1994,1142,236.443,-28.5162
777,-118,236.106,27.8672,0,0,0,0,0,0,0,-1,2001,1142,236.107,-27.8672
784,-118,235.826,27.1383,0,0,0,0,0,0,0,-1,2008,1142,235.826,-27.1383
791,-118,148.07,17.4791,0,0,0,0,0,0,0,-1,2015,1142,148.07,-17.4791
798,-118,133.874,10.8453,0,0,0,0,0,0,0,-1,2022,1142,133.874,-10.8454
805,-118,117.066,3.61499,0,0,0,0,0,0,0,-1,2029,1142,117.066,-3.61499
812,-118,115.738,2.09705,0,0,0,0,0,0,0,-1,2036,1142,115.738,-2.09702
-700,-125,0,0,0,0,0,0,0,0,0,-1,524,1149,0,0
-693,-125,-85.8903,0.790649,0,0,0,0,0,0,0,-1,531,1149,-85.8903,-0.790608
-686,-125,-85.7074,2.69226,0,0,0,0,0,0,0,-1,538,1149,-85.7074,-2.6923
-679,-125,-85.6257,4.22424,0,0,0,0,0,0,0,-1,545,1149,-85.6257,-4.22429
-672,-125,-85.823,5.55298,0,0,0,0,0,0,0,-1,552,1149,-85.823,-5.55295
-665,-125,-80.6827,9.34875,0,0,0,0,0,0,0,-1,559,1149,-80.6827,-9.34879
-658,-125,-81.5901,7.77625,0,0,0,0,0,0,0,-1,566,1149,-81.59,-7.77628
-651,-125,-92.6542,11.2368,0,0,0,0,0,0,0,-1,573,1149,-92.6542,-11.2368
-644,-125,-228.969,27.0413,0,0,0,0,0,0,0,-1,580,1149,-228.969,-27.0412
-637,-125,-228.841,27.642,-0.0216999,0.0576204,-0.00997764,0.0588562,-0.0229357,-1.44756,0.0487169,0.0316593,587,1149,-228.841,-27.642
-630,-125,-229.025,28.2603,-0.0210168,0.049166,-0.00859699,0.0502038,-0.0220545,-1.45067,0.0427605,0.0306165,594,1149,-229.025,-28.2603
-623,-125,-229.093,28.9666,-0.0204079,0.0411286,-0.00722755,0.041966,-0.0212454,-1.45544,0.037143,0.0240629,601,1149,-229.093,-28.9665
-616,-125,-229.039,29.7966,0,0,0,0,0,0,0,-1,608,1149,-229.039,-29.7966
-609,-125,-228.973,30.4019,0,0,0,0,0,0,0,-1,615,1149,-228.973,-30.4019
-602,-125,-228.481,31.5698,0,0,0,0,0,0,0,-1,622,1149,-228.481,-31.5698
-595,-125,-227.897,31.7433,0,0,0,0,0,0,0,-1,629,1149,-227.897,-31.7432
-588,-125,-226.956,32.6725,0,0,0,0,0,0,0,-1,636,1149,-226.956,-32.6725
-581,-125,-26.4055,4.83203,0,0,0,0,0,0,0,-1,643,1149,-26.4055,-4.83204
-574,-125,-37.674,0.655151,0,0,0,0,0,0,0,-1,650,1149,-37.674,-0.655195
-567,-125,-72.0776,0.557861,0,0,0,0,0,0,0,-1,657,1149,-72.0776,-0.557844
-560,-125,-72.0543,0.454834,0,0,0,0,0,0,0,-1,664,1149,-72.0543,-0.45488
-553,-125,-71.9824,0.501099,0,0,0,0,0,0,0,-1,671,1149,-71.9824,-0.501113
-546,-125,-72.0555,0.591553,0,0,0,0,0,0,0,-1,678,1149,-72.0555,-0.591532
-539,-125,-72.1036,0.750366,0,0,0,0,0,0,0,-1,685,1149,-72.1036,-0.750355
-532,-125,-72.1306,0.628418,0,0,0,0,0,0,0,-1,692,1149,-72.1305,-0.628371
-525,-125,-71.9377,0.417236,0,0,0,0,0,0,0,-1,699,1149,-71.9377,-0.417244
-518,-125,0,0,0,0,0,0,0,0,0,-1,706,1149,0,0
-511,-125,0,0,0,0,0,0,0,0,0,-1,713,1149,0,0
-504,-125,0,0,0,0,0,0,0,0,0,-1,720,1149,0,0
-497,-125,0,0,0,0,0,0,0,0,0,-1,727,1149,0,0
-490,-125,0,0,0,0,0,0,0,0,0,-1,734,1149,0,0
-483,-125,0,0,0,0,0,0,0,0,0,-1,741,1149,0,0
-476,-125,0,0,0,0,0,0,0,0,0,-1,748,1149,0,0
-469,-125,0,0,0,0,0,0,0,0,0,-1,755,1149,0,0
-462,-125,0,0,0,0,0,0,0,0,0,-1,762,1149,0,0
-455,-125,0,0,0,0,0,0,0,0,0,-1,769,1149,0,0
-448,-125,0,0,0,0,0,0,0,0,0,-1,776,1149,0,0
-441,-125,0,0,0,0,0,0,0,0,0,-1,783,1149,0,0
-434,-125,0,0,0,0,0,0,0,0,0,-1,790,1149,0,0
-427,-125,0,0,0,0,0,0,0,0,0,-1,797,1149,0,0
-420,-125,0,0,0,0,0,0,0,0,0,-1,804,1149,0,0
-413,-125,0,0,0,0,0,0,0,0,0,-1,811,1149,0,0
-406,-125,0,0,0,0,0,0,0,0,0,-1,818,1149,0,0
-399,-125,0,0,0,0,0,0,0,0,0,-1,825,1149,0,0
-392,-125,0,0,0,0,0,0,0,0,0,-1,832,1149,0,0
-385,-125,0,0,0,0,0,0,0,0,0,-1,839,1149,0,0
-378,-125,0,0,0,0,0,0,0,0,0,-1,846,1149,0,0
-371,-125,0,0,0,0,0,0,0,0,0,-1,853,1149,0,0
-364,-125,0,0,0,0,0,0,0,0,0,-1,860,1149,0,0
-357,-125,0,0,0,0,0,0,0,0,0,-1,867,1149,0,0
-350,-125,0,0,0,0,0,0,0,0,0,-1,874,1149,0,0
-343,-125,0,0,0,0,0,0,0,0,0,-1,881,1149,0,0
-336,-125,0,0,0,0,0,0,0,0,0,-1,888,1149,0,0
-329,-125,0,0,0,0,0,0,0,0,0,-1,895,1149,0,0
-322,-125,0,0,0,0,0,0,0,0,0,-1,902,1149,0,0
-315,-125,0,0,0,0,0,0,0,0,0,-1,909,1149,0,0
-308,-125,0,0,0,0,0,0,0,0,0,-1,916,1149,0,0
-301,-125,0,0,0,0,0,0,0,0,0,-1,923,1149,0,0
-294,-125,0,0,0,0,0,0,0,0,0,-1,930,1149,0,0
-287,-125,0,0,0,0,0,0,0,0,0,-1,937,1149,0,0
-280,-125,0,0,0,0,0,0,0,0,0,-1,944,1149,0,0
-273,-125,0,0,0,0,0,0,0,0,0,-1,951,1149,0,0
-266,-125,0,0,0,0,0,0,0,0,0,-1,958,1149,0,0
-259,-125,0,0,0,0,0,0,0,0,0,-1,965,1149,0,0
-252,-125,0,0,0,0,0,0,0,0,0,-1,972,1149,0,0
-245,-125,0,0,0,0,0,0,0,0,0,-1,979,1149,0,0
-238,-125,0,0,0,0,0,0,0,0,0,-1,986,1149,0,0
-231,-125,0,0,0,0,0,0,0,0,0,-1,993,1149,0,0
-224,-125,0,0,0,0,0,0,0,0,0,-1,1000,1149,0,0
-217,-125,0,0,0,0,0,0,0,0,0,-1,1007,1149,0,0
-210,-125,0,0,0,0,0,0,0,0,0,-1,1014,1149,0,0
-203,-125,0,0,0,0,0,0,0,0,0,-1,1021,1149,0,0
-196,-125,0,0,0,0,0,0,0,0,0,-1,1028,1149,0,0
-189,-125,0,0,0,0,0,0,0,0,0,-1,1035,1149,0,0
-182,-125,0,0,0,0,0,0,0,0,0,-1,1042,1149,0,0
-175,-125,0,0,0,0,0,0,0,0,0,-1,1049,1149,0,0
-168,-125,0,0,0,0,0,0,0,0,0,-1,1056,1149,0,0
-161,-125,0,0,0,0,0,0,0,0,0,-1,1063,1149,0,0
-154,-125,0,0,0,0,0,0,0,0,0,-1,1070,1149,0,0
-147,-125,0,0,0,0,0,0,0,0,0,-1,1077,1149,0,0
-140,-125,0,0,0,0,0,0,0,0,0,-1,1084,1149,0,0
-133,-125,0,0,0,0,0,0,0,0,0,-1,1091,1149,0,0
-126,-125,0,0,0,0,0,0,0,0,0,-1,1098,1149,0,0
-119,-125,0,0,0,0,0,0,0,0,0,-1,1105,1149,0,0
-112,-125,0,0,0,0,0,0,0,0,0,-1,1112,1149,0,0
-105,-125,0,0,0,0,0,0,0,0,0,-1,1119,1149,0,0
-98,-125,0,0,0,0,0,0,0,0,0,-1,1126,1149,0,0
-91,-125,0,0,0,0,0,0,0,0,0,-1,1133,1149,0,0
-84,-125,0,0,0,0,0,0,0,0,0,-1,1140,1149,0,0
-77,-125,0,0,0,0,0,0,0,0,0,-1,1147,1149,0,0
-70,-125,0,0,0,0,0,0,0,0,0,-1,1154,1149,0,0
-63,-125,0,0,0,0,0,0,0,0,0,-1,1161,1149,0,0
-56,-125,0,0,0,0,0,0,0,0,0,-1,1168,1149,0,0
-49,-125,0,0,0,0,0,0,0,0,0,-1,1175,1149,0,0
-42,-125,0,0,0,0,0,0,0,0,0,-1,1182,1149,0,0
-35,-125,0,0,0,0,0,0,0,0,0,-1,1189,1149,0,0
-28,-125,0,0,0,0,0,0,0,0,0,-1,1196,1149,0,0
-21,-125,0,0,0,0,0,0,0,0,0,-1,1203,1149,0,0
-14,-125,0,0,0,0,0,0,0,0,0,-1,1210,1149,0,0
-7,-125,0,0,0,0,0,0,0,0,0,-1,1217,1149,0,0
0,-125,0,0,0,0,0,0,0,0,0,-1,1224,1149,0,0
7,-125,0,0,0,0,0,0,0,0,0,-1,1231,1149,0,0
14,-125,0,0,0,0,0,0,0,0,0,-1,1238,1149,0,0
21,-125,0,0,0,0,0,0,0,0,0,-1,1245,1149,0,0
28,-125,0,0,0,0,0,0,0,0,0,-1,1252,1149,0,0
35,-125,0,0,0,0,0,0,0,0,0,-1,1259,1149,0,0
42,-125,0,0,0,0,0,0,0,0,0,-1,1266,1149,0,0
49,-125,0,0,0,0,0,0,0,0,0,-1,1273,1149,0,0
56,-125,0,0,0,0,0,0,0,0,0,-1,1280,1149,0,0
63,-125,0,0,0,0,0,0,0,0,0,-1,1287,1149,0,0
70,-125,0,0,0,0,0,0,0,0,0,-1,1294,1149,0,0
77,-125,0,0,0,0,0,0,0,0,0,-1,1301,1149,0,0
84,-125,0,0,0,0,0,0,0,0,0,-1,1308,1149,0,0
91,-125,0,0,0,0,0,0,0,0,0,-1,1315,1149,0,0
98,-125,0,0,0,0,0,0,0,0,0,-1,1322,1149,0,0
105,-125,0,0,0,0,0,0,0,0,0,-1,1329,1149,0,0
112,-125,0,0,0,0,0,0,0,0,0,-1,1336,1149,0,0
119,-125,0,0,0,0,0,0,0,0,0,-1,1343,1149,0,0
126,-125,0,0,0,0,0,0,0,0,0,-1,1350,1149,0,0
133,-125,0,0,0,0,0,0,0,0,0,-1,1357,1149,0,0
140,-125,0,0,0,0,0,0,0,0,0,-1,1364,1149,0,0
147,-125,0,0,0,0,0,0,0,0,0,-1,1371,1149,0,0
154,-125,0,0,0,0,0,0,0,0,0,-1,1378,1149,0,0
161,-125,0,0,0,0,0,0,0,0,0,-1,1385,1149,0,0
168,-125,0,0,0,0,0,0,0,0,0,-1,1392,1149,0,0
175,-125,0,0,0,0,0,0,0,0,0,-1,1399,1149,0,0
182,-125,0,0,0,0,0,0,0,0,0,-1,1406,1149,0,0
189,-125,0,0,0,0,0,0,0,0,0,-1,1413,1149,0,0
196,-125,0,0,0,0,0,0,0,0,0,-1,1420,1149,0,0
203,-125,0,0,0,0,0,0,0,0,0,-1,1427,1149,0,0
210,-125,0,0,0,0,0,0,0,0,0,-1,1434,1149,0,0
217,-125,0,0,0,0,0,0,0,0,0,-1,1441,1149,0,0
224,-125,0,0,0,0,0,0,0,0,0,-1,1448,1149,0,0
231,-125,0,0,0,0,0,0,0,0,0,-1,1455,1149,0,0
238,-125,0,0,0,0,0,0,0,0,0,-1,1462,1149,0,0
245,-125,0,0,0,0,0,0,0,0,0,-1,1469,1149,0,0
252,-125,0,0,0,0,0,0,0,0,0,-1,1476,1149,0,0
259,-125,0,0,0,0,0,0,0,0,0,-1,1483,1149,0,0
266,-125,0,0,0,0,0,0,0,0,0,-1,1490,1149,0,0
273,-125,0,0,0,0,0,0,0,0,0,-1,1497,1149,0,0
280,-125,0,0,0,0,0,0,0,0,0,-1,1504,1149,0,0
287,-125,0,0,0,0,0,0,0,0,0,-1,1511,1149,0,0
294,-125,0,0,0,0,0,0,0,0,0,-1,1518,1149,0,0
301,-125,0,0,0,0,0,0,0,0,0,-1,1525,1149,0,0
308,-125,0,0,0,0,0,0,0,0,0,-1,1532,1149,0,0
315,-125,0,0,0,0,0,0,0,0,0,-1,1539,1149,0,0
322,-125,0,0,0,0,0,0,0,0,0,-1,1546,1149,0,0
329,-125,0,0,0,0,0,0,0,0,0,-1,1553,1149,0,0
336,-125,0,0,0,0,0,0,0,0,0,-1,1560,1149,0,0
343,-125,0,0,0,0,0,0,0,0,0,-1,1567,1149,0,0
350,-125,0,0,0,0,0,0,0,0,0,-1,1574,1149,0,0
357,-125,0,0,0,0,0,0,0,0,0,-1,1581,1149,0,0
364,-125,0,0,0,0,0,0,0,0,0,-1,1588,1149,0,0
371,-125,0,0,0,0,0,0,0,0,0,-1,1595,1149,0,0
378,-125,0,0,0,0,0,0,0,0,0,-1,1602,1149,0,0
385,-125,0,0,0,0,0,0,0,0,0,-1,1609,1149,0,0
392,-125,0,0,0,0,0,0,0,0,0,-1,1616,1149,0,0
399,-125,0,0,0,0,0,0,0,0,0,-1,1623,1149,0,0
406,-125,0,0,0,0,0,0,0,0,0,-1,1630,1149,0,0
413,-125,0,0,0,0,0,0,0,0,0,-1,1637,1149,0,0
420,-125,0,0,0,0,0,0,0,0,0,-1,1644,1149,0,0
427,-125,0,0,0,0,0,0,0,0,0,-1,1651,1149,0,0
434,-125,0,0,0,0,0,0,0,0,0,-1,1658,1149,0,0
441,-125,0,0,0,0,0,0,0,0,0,-1,1665,1149,0,0
448,-125,0,0,0,0,0,0,0,0,0,-1,1672,1149,0,0
455,-125,0,0,0,0,0,0,0,0,0,-1,1679,1149,0,0
462,-125,0,0,0,0,0,0,0,0,0,-1,1686,1149,0,0
469,-125,0,0,0,0,0,0,0,0,0,-1,1693,1149,0,0
476,-125,0,0,0,0,0,0,0,0,0,-1,1700,1149,0,0
483,-125,0,0,0,0,0,0,0,0,0,-1,1707,1149,0,0
490,-125,0,0,0,0,0,0,0,0,0,-1,1714,1149,0,0
497,-125,0,0,0,0,0,0,0,0,0,-1,1721,1149,0,0
504,-125,0,0,0,0,0,0,0,0,0,-1,1728,1149,0,0
511,-125,0,0,0,0,0,0,0,0,0,-1,1735,1149,0,0
518,-125,0,0,0,0,0,0,0,0,0,-1,1742,1149,0,0
525,-125,0,0,0,0,0,0,0,0,0,-1,1749,1149,0,0
532,-125,0,0,0,0,0,0,0,0,0,-1,1756,1149,0,0
539,-125,0,0,0,0,0,0,0,0,0,-1,1763,1149,0,0
546,-125,0,0,0,0,0,0,0,0,0,-1,1770,1149,0,0
553,-125,0,0,0,0,0,0,0,0,0,-1,1777,1149,0,0
560,-125,0,0,0,0,0,0,0,0,0,-1,1784,1149,0,0
567,-125,0,0,0,0,0,0,0,0,0,-1,1791,1149,0,0
574,-125,0,0,0,0,0,0,0,0,0,-1,1798,1149,0,0
581,-125,0,0,0,0,0,0,0,0,0,-1,1805,1149,0,0
588,-125,0,0,0,0,0,0,0,0,0,-1,1812,1149,0,0
595,-125,0,0,0,0,0,0,0,0,0,-1,1819,1149,0,0
602,-125,0,0,0,0,0,0,0,0,0,-1,1826,1149,0,0
609,-125,0,0,0,0,0,0,0,0,0,-1,1833,1149,0,0
616,-125,0,0,0,0,0,0,0,0,0,-1,1840,1149,0,0
623,-125,0,0,0,0,0,0,0,0,0,-1,1847,1149,0,0
630,-125,0,0,0,0,0,0,0,0,0,-1,1854,1149,0,0
637,-125,0,0,0,0,0,0,0,0,0,-1,1861,1149,0,0
644,-125,235.331,8.89771,0,0,0,0,0,0,0,-1,1868,1149,235.331,-8.89774
651,-125,235.149,8.65417,0,0,0,0,0,0,0,-1,1875,1149,235.149,-8.65415
658,-125,235.141,8.64917,0,0,0,0,0,0,0,-1,1882,1149,235.141,-8.64916
665,-125,235.287,8.80664,0,0,0,0,0,0,0,-1,1889,1149,235.287,-8.80661
672,-125,235.294,8.89087,0,0,0,0,0,0,0,-1,1896,1149,235.294,-8.89093
679,-125,235.168,8.81116,0,0,0,0,0,0,0,-1,1903,1149,235.169,-8.81118
686,-125,235.197,8.69287,0,0,0,0,0,0,0,-1,1910,1149,235.197,-8.69288
693,-125,235.177,8.59497,0,0,0,0,0,0,0,-1,1917,1149,235.177,-8.59502
700,-125,235.204,8.51648,0,0,0,0,0,0,0,-1,1924,1149,235.204,-8.51649
707,-125,235.441,7.99683,0,0,0,0,0,0,0,-1,1931,1149,235.441,-7.99678
714,-125,54.8745,9.21375,0,0,0,0,0,0,0,-1,1938,1149,54.8746,-9.21371
721,-125,236.72,33.1479,0,0,0,0,0,0,0,-1,1945,1149,236.72,-33.1479
728,-125,236.522,32.4971,-0.00407027,0.00124316,0.00554826,0.00473798,-0.00756508,1.00869,0.00716541,0.035809,1952,1149,236.522,-32.497
735,-125,236.48,31.859,-0.00709399,0.0104602,0.00511836,0.0118436,-0.00847736,1.30683,0.0117858,0.0391257,1959,1149,236.48,-31.859
742,-125,236.323,31.0077,-0.0103885,0.0195435,0.00517187,0.0204119,-0.0112569,1.40443,0.0185369,0.0450533,1966,1149,236.323,-31.0077
749,-125,236.019,30.3026,-0.0139584,0.0285117,0.00566602,0.0292546,-0.0147013,1.44042,0.0258375,0.0378351,1973,1149,236.019,-30.3026
756,-125,235.881,29.4871,-0.0178041,0.0373756,0.00656112,0.038145,-0.0185735,1.45406,0.03339,0.0367667,1980,1149,235.881,-29.487
763,-125,235.935,28.8934,-0.0219218,0.0461374,0.00782186,0.0470248,-0.0228092,1.45783,0.0411187,0.0208284,1987,1149,235.935,-28.8934
770,-125,235.588,28.0531,-0.0263038,0.054791,0.00941823,0.0558705,-0.0273832,1.45668,0.0489955,0.0298406,1994,1149,235.588,-28.0532
777,-125,235.22,27.2463,0,0,0,0,0,0,0,-1,2001,1149,235.22,-27.2463
784,-125,147.026,18.6482,0,0,0,0,0,0,0,-1,2008,1149,147.026,-18.6482
791,-125,132.727,12.136,0,0,0,0,0,0,0,-1,2015,1149,132.727,-12.136
798,-125,113.704,2.52368,0,0,0,0,0,0,0,-1,2022,1149,113.704,-2.52367
805,-125,114.45,3.41956,0,0,0,0,0,0,0,-1,2029,1149,114.451,-3.41951
812,-125,115.883,3.97852,0,0,0,0,0,0,0,-1,2036,1149,115.883,-3.97857
-700,-132,0,0,0,0,0,0,0,0,0,-1,524,1156,0,0
-693,-132,-84.8775,-0.206787,0,0,0,0,0,0,0,-1,531,1156,-84.8775,0.20675
-686,-132,-84.7945,1.61938,0,0,0,0,0,0,0,-1,538,1156,-84.7945,-1.6194
-679,-132,-84.6419,3.61133,0,0,0,0,0,0,0,-1,545,1156,-84.6419,-3.61137
-672,-132,-81.5812,8.59778,0,0,0,0,0,0,0,-1,552,1156,-81.5813,-8.59783
-665,-132,-80.6072,9.95984,0,0,0,0,0,0,0,-1,559,1156,-80.6072,-9.95988
-658,-132,-91.9766,9.54736,0,0,0,0,0,0,0,-1,566,1156,-91.9766,-9.54732
-651,-132,-116.257,16.9509,0,0,0,0,0,0,0,-1,573,1156,-116.257,-16.9509
-644,-132,-228.304,26.5884,0,0,0,0,0,0,0,-1,580,1156,-228.304,-26.5884
-637,-132,-228.203,27.2434,-0.0224004,0.0567607,-0.0125648,0.0587072,-0.0243469,-1.4171,0.0493002,0.0312435,587,1156,-228.203,-27.2434
-630,-132,-228.302,27.9113,-0.0219523,0.0493185,-0.0103202,0.0507827,-0.0234166,-1.42985,0.0437995,0.0230648,594,1156,-228.302,-27.9112
-623,-132,-228.389,28.6299,-0.0216123,0.0420814,-0.00812873,0.0431025,-0.0226333,-1.44584,0.038561,0.026781,601,1156,-228.389,-28.6298
-616,-132,-228.449,29.3889,0,0,0,0,0,0,0,-1,608,1156,-228.449,-29.3889
-609,-132,-227.893,30.389,0,0,0,0,0,0,0,-1,615,1156,-227.893,-30.389
-602,-132,-223.501,31.574,0,0,0,0,0,0,0,-1,622,1156,-223.501,-31.574
-595,-132,-227.136,31.9764,0,0,0,0,0,0,0,-1,629,1156,-227.136,-31.9765
-588,-132,-42.6534,6.92969,0,0,0,0,0,0,0,-1,636,1156,-42.6535,-6.92967
-581,-132,-35.9343,6.42957,0,0,0,0,0,0,0,-1,643,1156,-35.9342,-6.42957
-574,-132,-33.2071,2.86963,0,0,0,0,0,0,0,-1,650,1156,-33.2071,-2.86963
-567,-132,-72.0044,0.526489,0,0,0,0,0,0,0,-1,657,1156,-72.0044,-0.526461
-560,-132,-72.1078,0.445068,0,0,0,0,0,0,0,-1,664,1156,-72.1078,-0.445009
-553,-132,-72.0989,0.435669,0,0,0,0,0,0,0,-1,671,1156,-72.0989,-0.435641
-546,-132,-72.072,0.571045,0,0,0,0,0,0,0,-1,678,1156,-72.0721,-0.570985
-539,-132,-72.0065,0.603271,0,0,0,0,0,0,0,-1,685,1156,-72.0065,-0.603318
-532,-132,-71.9823,0.505493,0,0,0,0,0,0,0,-1,692,1156,-71.9823,-0.505447
-525,-132,-72.0096,0.454956,0,0,0,0,0,0,0,-1,699,1156,-72.0097,-0.455012
-518,-132,0,0,0,0,0,0,0,0,0,-1,706,1156,0,0
-511,-132,0,0,0,0,0,0,0,0,0,-1,713,1156,0,0
-504,-132,0,0,0,0,0,0,0,0,0,-1,720,1156,0,0
-497,-132,0,0,0,0,0,0,0,0,0,-1,727,1156,0,0
-490,-132,0,0,0,0,0,0,0,0,0,-1,734,1156,0,0
-483,-132,0,0,0,0,0,0,0,0,0,-1,741,1156,0,0
-476,-132,0,0,0,0,0,0,0,0,0,-1,748,1156,0,0
-469,-132,0,0,0,0,0,0,0,0,0,-1,755,1156,0,0
-462,-132,0,0,0,0,0,0,0,0,0,-1,762,1156,0,0
-455,-132,0,0,0,0,0,0,0,0,0,-1,769,1156,0,0
-448,-132,0,0,0,0,0,0,0,0,0,-1,776,1156,0,0
-441,-132,0,0,0,0,0,0,0,0,0,-1,783,1156,0,0
-434,-132,0,0,0,0,0,0,0,0,0,-1,790,1156,0,0
-427,-132,0,0,0,0,0,0,0,0,0,-1,797,1156,0,0
-420,-132,0,0,0,0,0,0,0,0,0,-1,804,1156,0,0
-413,-132,0,0,0,0,0,0,0,0,0,-1,811,1156,0,0
-406,-132,0,0,0,0,0,0,0,0,0,-1,818,1156,0,0
-399,-132,0,0,0,0,0,0,0,0,0,-1,825,1156,0,0
-392,-132,0,0,0,0,0,0,0,0,0,-1,832,1156,0,0
-385,-132,0,0,0,0,0,0,0,0,0,-1,839,1156,0,0
-378,-132,0,0,0,0,0,0,0,0,0,-1,846,1156,0,0
-371,-132,0,0,0,0,0,0,0,0,0,-1,853,1156,0,0
-364,-132,0,0,0,0,0,0,0,0,0,-1,860,1156,0,0
-357,-132,0,0,0,0,0,0,0,0,0,-1,867,1156,0,0
-350,-132,0,0,0,0,0,0,0,0,0,-1,874,1156,0,0
-343,-132,0,0,0,0,0,0,0,0,0,-1,881,1156,0,0
-336,-132,0,0,0,0,0,0,0,0,0,-1,888,1156,0,0
-329,-132,0,0,0,0,0,0,0,0,0,-1,895,1156,0,0
-322,-132,0,0,0,0,0,0,0,0,0,-1,902,1156,0,0
-315,-132,0,0,0,0,0,0,0,0,0,-1,909,1156,0,0
-308,-132,0,0,0,0,0,0,0,0,0,-1,916,1156,0,0
-301,-132,0,0,0,0,0,0,0,0,0,-1,923,1156,0,0
-294,-132,0,0,0,0,0,0,0,0,0,-1,930,1156,0,0
-287,-132,0,0,0,0,0,0,0,0,0,-1,937,1156,0,0
-280,-132,0,0,0,0,0,0,0,0,0,-1,944,1156,0,0
-273,-132,0,0,0,0,0,0,0,0,0,-1,951,1156,0,0
-266,-132,0,0,0,0,0,0,0,0,0,-1,958,1156,0,0
-259,-132,0,0,0,0,0,0,0,0,0,-1,965,1156,0,0
-252,-132,0,0,0,0,0,0,0,0,0,-1,972,1156,0,0
-245,-132,0,0,0,0,0,0,0,0,0,-1,979,1156,0,0
-238,-132,0,0,0,0,0,0,0,0,0,-1,986,1156,0,0
-231,-132,0,0,0,0,0,0,0,0,0,-1,993,1156,0,0
-224,-132,0,0,0,0,0,0,0,0,0,-1,1000,1156,0,0
-217,-132,0,0,0,0,0,0,0,0,0,-1,1007,1156,0,0
-210,-132,0,0,0,0,0,0,0,0,0,-1,1014,1156,0,0
-203,-132,0,0,0,0,0,0,0,0,0,-1,1021,1156,0,0
-196,-132,0,0,0,0,0,0,0,0,0,-1,1028,1156,0,0
-189,-132,0,0,0,0,0,0,0,0,0,-1,1035,1156,0,0
-182,-132,0,0,0,0,0,0,0,0,0,-1,1042,1156,0,0
-175,-132,0,0,0,0,0,0,0,0,0,-1,1049,1156,0,0
-168,-132,0,0,0,0,0,0,0,0,0,-1,1056,1156,0,0
-161,-132,0,0,0,0,0,0,0,0,0,-1,1063,1156,0,0
-154,-132,0,0,0,0,0,0,0,0,0,-1,1070,1156,0,0
-147,-132,0,0,0,0,0,0,0,0,0,-1,1077,1156,0,0
-140,-132,0,0,0,0,0,0,0,0,0,-1,1084,1156,0,0
-133,-132,0,0,0,0,0,0,0,0,0,-1,1091,1156,0,0
-126,-132,0,0,0,0,0,0,0,0,0,-1,1098,1156,0,0
-119,-132,0,0,0,0,0,0,0,0,0,-1,1105,1156,0,0
-112,-132,0,0,0,0,0,0,0,0,0,-1,1112,1156,0,0
-105,-132,0,0,0,0,0,0,0,0,0,-1,1119,1156,0,0
-98,-132,0,0,0,0,0,0,0,0,0,-1,1126,1156,0,0
-91,-132,0,0,0,0,0,0,0,0,0,-1,1133,1156,0,0
-84,-132,0,0,0,0,0,0,0,0,0,-1,1140,1156,0,0
-77,-132,0,0,0,0,0,0,0,0,0,-1,1147,1156,0,0
-70,-132,0,0,0,0,0,0,0,0,0,-1,1154,1156,0,0
-63,-132,0,0,0,0,0,0,0,0,0,-1,1161,1156,0,0
-56,-132,0,0,0,0,0,0,0,0,0,-1,1168,1156,0,0
-49,-132,0,0,0,0,0,0,0,0,0,-1,1175,1156,0,0
-42,-132,0,0,0,0,0,0,0,0,0,-1,1182,1156,0,0
-35,-132,0,0,0,0,0,0,0,0,0,-1,1189,1156,0,0
-28,-132,0,0,0,0,0,0,0,0,0,-1,1196,1156,0,0
-21,-132,0,0,0,0,0,0,0,0,0,-1,1203,1156,0,0
-14,-132,0,0,0,0,0,0,0,0,0,-1,1210,1156,0,0
-7,-132,0,0,0,0,0,0,0,0,0,-1,1217,1156,0,0
0,-132,0,0,0,0,0,0,0,0,0,-1,1224,1156,0,0
7,-132,0,0,0,0,0,0,0,0,0,-1,1231,1156,0,0
14,-132,0,0,0,0,0,0,0,0,0,-1,1238,1156,0,0
21,-132,0,0,0,0,0,0,0,0,0,-1,1245,1156,0,0
28,-132,0,0,0,0,0,0,0,0,0,-1,1252,1156,0,0
35,-132,0,0,0,0,0,0,0,0,0,-1,1259,1156,0,0
42,-132,0,0,0,0,0,0,0,0,0,-1,1266,1156,0,0
49,-132,0,0,0,0,0,0,0,0,0,-1,1273,1156,0,0
56,-132,0,0,0,0,0,0,0,0,0,-1,1280,1156,0,0
63,-132,0,0,0,0,0,0,0,0,0,-1,1287,1156,0,0
70,-132,0,0,0,0,0,0,0,0,0,-1,1294,1156,0,0
77,-132,0,0,0,0,0,0,0,0,0,-1,1301,1156,0,0
84,-132,0,0,0,0,0,0,0,0,0,-1,1308,1156,0,0
91,-132,0,0,0,0,0,0,0,0,0,-1,1315,1156,0,0
98,-132,0,0,0,0,0,0,0,0,0,-1,1322,1156,0,0
105,-132,0,0,0,0,0,0,0,0,0,-1,1329,1156,0,0
112,-132,0,0,0,0,0,0,0,0,0,-1,1336,1156,0,0
119,-132,0,0,0,0,0,0,0,0,0,-1,1343,1156,0,0
126,-132,0,0,0,0,0,0,0,0,0,-1,1350,1156,0,0
133,-132,0,0,0,0,0,0,0,0,0,-1,1357,1156,0,0
140,-132,0,0,0,0,0,0,0,0,0,-1,1364,1156,0,0
147,-132,0,0,0,0,0,0,0,0,0,-1,1371,1156,0,0
154,-132,0,0,0,0,0,0,0,0,0,-1,1378,1156,0,0
161,-132,0,0,0,0,0,0,0,0,0,-1,1385,1156,0,0
168,-132,0,0,0,0,0,0,0,0,0,-1,1392,1156,0,0
175,-132,0,0,0,0,0,0,0,0,0,-1,1399,1156,0,0
182,-132,0,0,0,0,0,0,0,0,0,-1,1406,1156,0,0
189,-132,0,0,0,0,0,0,0,0,0,-1,1413,1156,0,0
196,-132,0,0,0,0,0,0,0,0,0,-1,1420,1156,0,0
203,-132,0,0,0,0,0,0,0,0,0,-1,1427,1156,0,0
210,-132,0,0,0,0,0,0,0,0,0,-1,1434,1156,0,0
217,-132,0,0,0,0,0,0,0,0,0,-1,1441,1156,0,0
224,-132,0,0,0,0,0,0,0,0,0,-1,1448,1156,0,0
231,-132,0,0,0,0,0,0,0,0,0,-1,1455,1156,0,0
238,-132,0,0,0,0,0,0,0,0,0,-1,1462,1156,0,0
245,-132,0,0,0,0,0,0,0,0,0,-1,1469,1156,0,0
252,-132,0,0,0,0,0,0,0,0,0,-1,1476,1156,0,0
259,-132,0,0,0,0,0,0,0,0,0,-1,1483,1156,0,0
266,-132,0,0,0,0,0,0,0,0,0,-1,1490,1156,0,0
273,-132,0,0,0,0,0,0,0,0,0,-1,1497,1156,0,0
280,-132,0,0,0,0,0,0,0,0,0,-1,1504,1156,0,0
287,-132,0,0,0,0,0,0,0,0,0,-1,1511,1156,0,0
294,-132,0,0,0,0,0,0,0,0,0,-1,1518,1156,0,0
301,-132,0,0,0,0,0,0,0,0,0,-1,1525,1156,0,0
308,-132,0,0,0,0,0,0,0,0,0,-1,1532,1156,0,0
315,-132,0,0,0,0,0,0,0,0,0,-1,1539,1156,0,0
322,-132,0,0,0,0,0,0,0,0,0,-1,1546,1156,0,0
329,-132,0,0,0,0,0,0,0,0,0,-1,1553,1156,0,0
336,-132,0,0,0,0,0,0,0,0,0,-1,1560,1156,0,0
343,-132,0,0,0,0,0,0,0,0,0,-1,1567,1156,0,0
350,-132,0,0,0,0,0,0,0,0,0,-1,1574,1156,0,0
357,-132,0,0,0,0,0,0,0,0,0,-1,1581,1156,0,0
364,-132,0,0,0,0,0,0,0,0,0,-1,1588,1156,0,0
371,-132,0,0,0,0,0,0,0,0,0,-1,1595,1156,0,0
378,-132,0,0,0,0,0,0,0,0,0,-1,1602,1156,0,0
385,-132,0,0,0,0,0,0,0,0,0,-1,1609,1156,0,0
392,-132,0,0,0,0,0,0,0,0,0,-1,1616,1156,0,0
399,-132,0,0,0,0,0,0,0,0,0,-1,1623,1156,0,0
406,-132,0,0,0,0,0,0,0,0,0,-1,1630,1156,0,0
413,-132,0,0,0,0,0,0,0,0,0,-1,1637,1156,0,0
420,-132,0,0,0,0,0,0,0,0,0,-1,1644,1156,0,0
427,-132,0,0,0,0,0,0,0,0,0,-1,1651,1156,0,0
434,-132,0,0,0,0,0,0,0,0,0,-1,1658,1156,0,0
441,-132,0,0,0,0,0,0,0,0,0,-1,1665,1156,0,0
448,-132,0,0,0,0,0,0,0,0,0,-1,1672,1156,0,0
455,-132,0,0,0,0,0,0,0,0,0,-1,1679,1156,0,0
462,-132,0,0,0,0,0,0,0,0,0,-1,1686,1156,0,0
469,-132,0,0,0,0,0,0,0,0,0,-1,1693,1156,0,0
476,-132,0,0,0,0,0,0,0,0,0,-1,1700,1156,0,0
483,-132,0,0,0,0,0,0,0,0,0,-1,1707,1156,0,0
490,-132,0,0,0,0,0,0,0,0,0,-1,1714,1156,0,0
497,-132,0,0,0,0,0,0,0,0,0,-1,1721,1156,0,0
504,-132,0,0,0,0,0,0,0,0,0,-1,1728,1156,0,0
511,-132,0,0,0,0,0,0,0,0,0,-1,1735,1156,0,0
518,-132,0,0,0,0,0,0,0,0,0,-1,1742,1156,0,0
525,-132,0,0,0,0,0,0,0,0,0,-1,1749,1156,0,0
532,-132,0,0,0,0,0,0,0,0,0,-1,1756,1156,0,0
539,-132,0,0,0,0,0,0,0,0,0,-1,1763,1156,0,0
546,-132,0,0,0,0,0,0,0,0,0,-1,1770,1156,0,0
553,-132,0,0,0,0,0,0,0,0,0,-1,1777,1156,0,0
560,-132,0,0,0,0,0,0,0,0,0,-1,1784,1156,0,0
567,-132,0,0,0,0,0,0,0,0,0,-1,1791,1156,0,0
574,-132,0,0,0,0,0,0,0,0,0,-1,1798,1156,0,0
581,-132,0,0,0,0,0,0,0,0,0,-1,1805,1156,0,0
588,-132,0,0,0,0,0,0,0,0,0,-1,1812,1156,0,0
595,-132,0,0,0,0,0,0,0,0,0,-1,1819,1156,0,0
602,-132,0,0,0,0,0,0,0,0,0,-1,1826,1156,0,0
609,-132,0,0,0,0,0,0,0,0,0,-1,1833,1156,0,0
616,-132,0,0,0,0,0,0,0,0,0,-1,1840,1156,0,0
623,-132,0,0,0,0,0,0,0,0,0,-1,1847,1156,0,0
630,-132,0,0,0,0,0,0,0,0,0,-1,1854,1156,0,0
637,-132,0,0,0,0,0,0,0,0,0,-1,1861,1156,0,0
644,-132,235.355,8.92969,0,0,0,0,0,0,0,-1,1868,1156,235.355,-8.92971
651,-132,235.163,8.81555,0,0,0,0,0,0,0,-1,1875,1156,235.163,-8.81561
658,-132,235.171,8.61609,0,0,0,0,0,0,0,-1,1882,1156,235.171,-8.61611
665,-132,235.286,8.70984,0,0,0,0,0,0,0,-1,1889,1156,235.286,-8.70989
672,-132,235.281,9.02026,0,0,0,0,0,0,0,-1,1896,1156,235.281,-9.02023
679,-132,235.17,8.97998,0,0,0,0,0,0,0,-1,1903,1156,235.17,-8.97999
686,-132,235.159,8.82129,0,0,0,0,0,0,0,-1,1910,1156,235.16,-8.82123
693,-132,235.25,8.89636,0,0,0,0,0,0,0,-1,1917,1156,235.25,-8.89641
700,-132,235.234,8.42493,0,0,0,0,0,0,0,-1,1924,1156,235.234,-8.42494
707,-132,57.9275,3.01367,0,0,0,0,0,0,0,-1,1931,1156,57.9275,-3.01369
714,-132,57.8083,9.22156,0,0,0,0,0,0,0,-1,1938,1156,57.8084,-9.22151
721,-132,232.943,33.2585,0,0,0,0,0,0,0,-1,1945,1156,232.943,-33.2586
728,-132,235.513,32.7015,0,0,0,0,0,0,0,-1,1952,1156,235.513,-32.7016
735,-132,235.55,31.7698,-0.00614104,0.0131332,0.00519548,0.0144445,-0.0074523,1.32357,0.0128552,0.0486171,1959,1156,235.55,-31.7698
742,-132,235.494,30.879,-0.00963638,0.0213974,0.00553871,0.0223562,-0.0105953,1.39937,0.0194243,0.0349813,1966,1156,235.494,-30.879
749,-132,235.243,30.0344,-0.0132935,0.0296002,0.00629083,0.0305038,-0.0141971,1.42814,0.0263743,0.0350309,1973,1156,235.243,-30.0344
756,-132,234.899,29.2286,-0.0171178,0.0377385,0.00742652,0.0387261,-0.0181054,1.43858,0.0335239,0.0412664,1980,1156,234.899,-29.2286
763,-132,234.956,28.6685,-0.0211108,0.0458,0.00892543,0.0469701,-0.0222809,1.44044,0.0408203,0.0252273,1987,1156,234.956,-28.6684
770,-132,234.914,28.2308,0,0,0,0,0,0,0,-1,1994,1156,234.914,-28.2308
777,-132,234.046,27.4218,0,0,0,0,0,0,0,-1,2001,1156,234.046,-27.4218
784,-132,109.483,2.9032,0,0,0,0,0,0,0,-1,2008,1156,109.483,-2.9032
791,-132,109.441,3.19641,0,0,0,0,0,0,0,-1,2015,1156,109.441,-3.19635
798,-132,114.092,2.5321,0,0,0,0,0,0,0,-1,2022,1156,114.092,-2.53215
805,-132,115.147,3.21765,0,0,0,0,0,0,0,-1,2029,1156,115.147,-3.21762
812,-132,116.501,3.68884,0,0,0,0,0,0,0,-1,2036,1156,116.501,-3.68888
-700,-139,0,0,0,0,0,0,0,0,0,-1,524,1163,0,0
-693,-139,-83.8602,-1.02612,0,0,0,0,0,0,0,-1,531,1163,-83.8602,1.02614
-686,-139,-84.5963,0.895996,0,0,0,0,0,0,0,-1,538,1163,-84.5963,-0.895989
-679,-139,-76.4769,6.57263,0,0,0,0,0,0,0,-1,545,1163,-76.4769,-6.5726
-672,-139,-81.4354,9.16565,0,0,0,0,0,0,0,-1,552,1163,-81.4354,-9.16571
-665,-139,-76.317,6.78796,0,0,0,0,0,0,0,-1,559,1163,-76.317,-6.78797
-658,-139,-77.2073,6.44202,0,0,0,0,0,0,0,-1,566,1163,-77.2073,-6.44196
-651,-139,-119.496,17.2479,0,0,0,0,0,0,0,-1,573,1163,-119.496,-17.2479
-644,-139,-227.202,26.028,0,0,0,0,0,0,0,-1,580,1163,-227.202,-26.028
-637,-139,-227.293,26.8203,-0.0223622,0.054532,-0.0152945,0.0574625,-0.0252926,-1.38149,0.0489672,0.0295033,587,1163,-227.293,-26.8203
-630,-139,-227.427,27.5421,-0.022478,0.0490306,-0.0121061,0.0510245,-0.024472,-1.40756,0.0444774,0.0166088,594,1163,-227.427,-27.5422
-623,-139,-227.42,28.2413,-0.0227122,0.0434341,-0.00898468,0.0446328,-0.0239109,-1.43817,0.040172,0.0251055,601,1163,-227.42,-28.2413
-616,-139,-227.787,29.1387,-0.0230188,0.0376804,-0.00597506,0.038263,-0.0236013,-1.4736,0.0360502,0.0324022,608,1163,-227.787,-29.1386
-609,-139,-228.205,30.0378,0,0,0,0,0,0,0,-1,615,1163,-228.205,-30.0378
-602,-139,-222.597,31.3386,0,0,0,0,0,0,0,-1,622,1163,-222.597,-31.3387
-595,-139,-199.748,33.3462,0,0,0,0,0,0,0,-1,629,1163,-199.748,-33.3462
-588,-139,-51.0773,9.1781,0,0,0,0,0,0,0,-1,636,1163,-51.0773,-9.17806
-581,-139,-34.4892,6.72473,0,0,0,0,0,0,0,-1,643,1163,-34.4892,-6.72476
-574,-139,-23.0725,2.4043,0,0,0,0,0,0,0,-1,650,1163,-23.0725,-2.40433
-567,-139,-71.9699,0.449097,0,0,0,0,0,0,0,-1,657,1163,-71.9699,-0.449152
-560,-139,-72.0389,0.474487,0,0,0,0,0,0,0,-1,664,1163,-72.0389,-0.4745
-553,-139,-71.9187,0.398071,0,0,0,0,0,0,0,-1,671,1163,-71.9187,-0.39804
-546,-139,-72.0151,0.339478,0,0,0,0,0,0,0,-1,678,1163,-72.0151,-0.339479
-539,-139,-72.0318,0.385498,0,0,0,0,0,0,0,-1,685,1163,-72.0318,-0.385501
-532,-139,-71.9254,0.387329,0,0,0,0,0,0,0,-1,692,1163,-71.9254,-0.387287
-525,-139,-72.0009,0.424561,0,0,0,0,0,0,0,-1,699,1163,-72.0009,-0.424544
-518,-139,0,0,0,0,0,0,0,0,0,-1,706,1163,0,0
-511,-139,0,0,0,0,0,0,0,0,0,-1,713,1163,0,0
-504,-139,0,0,0,0,0,0,0,0,0,-1,720,1163,0,0
-497,-139,0,0,0,0,0,0,0,0,0,-1,727,1163,0,0
-490,-139,0,0,0,0,0,0,0,0,0,-1,734,1163,0,0
-483,-139,0,0,0,0,0,0,0,0,0,-1,741,1163,0,0
-476,-139,0,0,0,0,0,0,0,0,0,-1,748,1163,0,0
-469,-139,0,0,0,0,0,0,0,0,0,-1,755,1163,0,0
-462,-139,0,0,0,0,0,0,0,0,0,-1,762,1163,0,0
-455,-139,0,0,0,0,0,0,0,0,0,-1,769,1163,0,0
-448,-139,0,0,0,0,0,0,0,0,0,-1,776,1163,0,0
-441,-139,0,0,0,0,0,0,0,0,0,-1,783,1163,0,0
-434,-139,0,0,0,0,0,0,0,0,0,-1,790,1163,0,0
-427,-139,0,0,0,0,0,0,0,0,0,-1,797,1163,0,0
-420,-139,0,0,0,0,0,0,0,0,0,-1,804,1163,0,0
-413,-139,0,0,0,0,0,0,0,0,0,-1,811,1163,0,0
-406,-139,0,0,0,0,0,0,0,0,0,-1,818,1163,0,0
-399,-139,0,0,0,0,0,0,0,0,0,-1,825,1163,0,0
-392,-139,0,0,0,0,0,0,0,0,0,-1,832,1163,0,0
-385,-139,0,0,0,0,0,0,0,0,0,-1,839,1163,0,0
-378,-139,0,0,0,0,0,0,0,0,0,-1,846,1163,0,0
-371,-139,0,0,0,0,0,0,0,0,0,-1,853,1163,0,0
-364,-139,0,0,0,0,0,0,0,0,0,-1,860,1163,0,0
-357,-139,0,0,0,0,0,0,0,0,0,-1,867,1163,0,0
-350,-139,0,0,0,0,0,0,0,0,0,-1,874,1163,0,0
-343,-139,0,0,0,0,0,0,0,0,0,-1,881,1163,0,0
-336,-139,0,0,0,0,0,0,0,0,0,-1,888,1163,0,0
-329,-139,0,0,0,0,0,0,0,0,0,-1,895,1163,0,0
-322,-139,0,0,0,0,0,0,0,0,0,-1,902,1163,0,0
-315,-139,0,0,0,0,0,0,0,0,0,-1,909,1163,0,0
-308,-139,0,0,0,0,0,0,0,0,0,-1,916,1163,0,0
-301,-139,0,0,0,0,0,0,0,0,0,-1,923,1163,0,0
-294,-139,0,0,0,0,0,0,0,0,0,-1,930,1163,0,0
-287,-139,0,0,0,0,0,0,0,0,0,-1,937,1163,0,0
-280,-139,0,0,0,0,0,0,0,0,0,-1,944,1163,0,0
-273,-139,0,0,0,0,0,0,0,0,0,-1,951,1163,0,0
-266,-139,0,0,0,0,0,0,0,0,0,-1,958,1163,0,0
-259,-139,0,0,0,0,0,0,0,0,0,-1,965,1163,0,0
-252,-139,0,0,0,0,0,0,0,0,0,-1,972,1163,0,0
-245,-139,0,0,0,0,0,0,0,0,0,-1,979,1163,0,0
-238,-139,0,0,0,0,0,0,0,0,0,-1,986,1163,0,0
-231,-139,0,0,0,0,0,0,0,0,0,-1,993,1163,0,0
-224,-139,0,0,0,0,0,0,0,0,0,-1,1000,1163,0,0
-217,-139,0,0,0,0,0,0,0,0,0,-1,1007,1163,0,0
-210,-139,0,0,0,0,0,0,0,0,0,-1,1014,1163,0,0
-203,-139,0,0,0,0,0,0,0,0,0,-1,1021,1163,0,0
-196,-139,0,0,0,0,0,0,0,0,0,-1,1028,1163,0,0
-189,-139,0,0,0,0,0,0,0,0,0,-1,1035,1163,0,0
-182,-139,0,0,0,0,0,0,0,0,0,-1,1042,1163,0,0
-175,-139,0,0,0,0,0,0,0,0,0,-1,1049,1163,0,0
-168,-139,0,0,0,0,0,0,0,0,0,-1,1056,1163,0,0
-161,-139,0,0,0,0,0,0,0,0,0,-1,1063,1163,0,0
-154,-139,0,0,0,0,0,0,0,0,0,-1,1070,1163,0,0
-147,-139,0,0,0,0,0,0,0,0,0,-1,1077,1163,0,0
-140,-139,0,0,0,0,0,0,0,0,0,-1,1084,1163,0,0
-133,-139,0,0,0,0,0,0,0,0,0,-1,1091,1163,0,0
-126,-139,0,0,0,0,0,0,0,0,0,-1,1098,1163,0,0
-119,-139,0,0,0,0,0,0,0,0,0,-1,1105,1163,0,0
-112,-139,0,0,0,0,0,0,0,0,0,-1,1112,1163,0,0
-105,-139,0,0,0,0,0,0,0,0,0,-1,1119,1163,0,0
-98,-139,0,0,0,0,0,0,0,0,0,-1,1126,1163,0,0
-91,-139,0,0,0,0,0,0,0,0,0,-1,1133,1163,0,0
-84,-139,0,0,0,0,0,0,0,0,0,-1,1140,1163,0,0
-77,-139,0,0,0,0,0,0,0,0,0,-1,1147,1163,0,0
-70,-139,0,0,0,0,0,0,0,0,0,-1,1154,1163,0,0
-63,-139,0,0,0,0,0,0,0,0,0,-1,1161,1163,0,0
-56,-139,0,0,0,0,0,0,0,0,0,-1,1168,1163,0,0
-49,-139,0,0,0,0,0,0,0,0,0,-1,1175,1163,0,0
-42,-139,0,0,0,0,0,0,0,0,0,-1,1182,1163,0,0
-35,-139,0,0,0,0,0,0,0,0,0,-1,1189,1163,0,0
-28,-139,0,0,0,0,0,0,0,0,0,-1,1196,1163,0,0
-21,-139,0,0,0,0,0,0,0,0,0,-1,1203,1163,0,0
-14,-139,0,0,0,0,0,0,0,0,0,-1,1210,1163,0,0
-7,-139,0,0,0,0,0,0,0,0,0,-1,1217,1163,0,0
0,-139,0,0,0,0,0,0,0,0,0,-1,1224,1163,0,0
7,-139,0,0,0,0,0,0,0,0,0,-1,1231,1163,0,0
14,-139,0,0,0,0,0,0,0,0,0,-1,1238,1163,0,0
21,-139,0,0,0,0,0,0,0,0,0,-1,1245,1163,0,0
28,-139,0,0,0,0,0,0,0,0,0,-1,1252,1163,0,0
35,-139,0,0,0,0,0,0,0,0,0,-1,1259,1163,0,0
42,-139,0,0,0,0,0,0,0,0,0,-1,1266,1163,0,0
49,-139,0,0,0,0,0,0,0,0,0,-1,1273,1163,0,0
56,-139,0,0,0,0,0,0,0,0,0,-1,1280,1163,0,0
63,-139,0,0,0,0,0,0,0,0,0,-1,1287,1163,0,0
70,-139,0,0,0,0,0,0,0,0,0,-1,1294,1163,0,0
77,-139,0,0,0,0,0,0,0,0,0,-1,1301,1163,0,0
84,-139,0,0,0,0,0,0,0,0,0,-1,1308,1163,0,0
91,-139,0,0,0,0,0,0,0,0,0,-1,1315,1163,0,0
98,-139,0,0,0,0,0,0,0,0,0,-1,1322,1163,0,0
105,-139,0,0,0,0,0,0,0,0,0,-1,1329,1163,0,0
112,-139,0,0,0,0,0,0,0,0,0,-1,1336,1163,0,0
119,-139,0,0,0,0,0,0,0,0,0,-1,1343,1163,0,0
126,-139,0,0,0,0,0,0,0,0,0,-1,1350,1163,0,0
133,-139,0,0,0,0,0,0,0,0,0,-1,1357,1163,0,0
140,-139,0,0,0,0,0,0,0,0,0,-1,1364,1163,0,0
147,-139,0,0,0,0,0,0,0,0,0,-1,1371,1163,0,0
154,-139,0,0,0,0,0,0,0,0,0,-1,1378,1163,0,0
161,-139,0,0,0,0,0,0,0,0,0,-1,1385,1163,0,0
168,-139,0,0,0,0,0,0,0,0,0,-1,1392,1163,0,0
175,-139,0,0,0,0,0,0,0,0,0,-1,1399,1163,0,0
182,-139,0,0,0,0,0,0,0,0,0,-1,1406,1163,0,0
189,-139,0,0,0,0,0,0,0,0,0,-1,1413,1163,0,0
196,-139,0,0,0,0,0,0,0,0,0,-1,1420,1163,0,0
203,-139,0,0,0,0,0,0,0,0,0,-1,1427,1163,0,0
210,-139,0,0,0,0,0,0,0,0,0,-1,1434,1163,0,0
217,-139,0,0,0,0,0,0,0,0,0,-1,1441,1163,0,0
224,-139,0,0,0,0,0,0,0,0,0,-1,1448,1163,0,0
231,-139,0,0,0,0,0,0,0,0,0,-1,1455,1163,0,0
238,-139,0,0,0,0,0,0,0,0,0,-1,1462,1163,0,0
245,-139,0,0,0,0,0,0,0,0,0,-1,1469,1163,0,0
252,-139,0,0,0,0,0,0,0,0,0,-1,1476,1163,0,0
259,-139,0,0,0,0,0,0,0,0,0,-1,1483,1163,0,0
266,-139,0,0,0,0,0,0,0,0,0,-1,1490,1163,0,0
273,-139,0,0,0,0,0,0,0,0,0,-1,1497,1163,0,0
280,-139,0,0,0,0,0,0,0,0,0,-1,1504,1163,0,0
287,-139,0,0,0,0,0,0,0,0,0,-1,1511,1163,0,0
294,-139,0,0,0,0,0,0,0,0,0,-1,1518,1163,0,0
301,-139,0,0,0,0,0,0,0,0,0,-1,1525,1163,0,0
308,-139,0,0,0,0,0,0,0,0,0,-1,1532,1163,0,0
315,-139,0,0,0,0,0,0,0,0,0,-1,1539,1163,0,0
322,-139,0,0,0,0,0,0,0,0,0,-1,1546,1163,0,0
329,-139,0,0,0,0,0,0,0,0,0,-1,1553,1163,0,0
336,-139,0,0,0,0,0,0,0,0,0,-1,1560,1163,0,0
343,-139,0,0,0,0,0,0,0,0,0,-1,1567,1163,0,0
350,-139,0,0,0,0,0,0,0,0,0,-1,1574,1163,0,0
357,-139,0,0,0,0,0,0,0,0,0,-1,1581,1163,0,0
364,-139,0,0,0,0,0,0,0,0,0,-1,1588,1163,0,0
371,-139,0,0,0,0,0,0,0,0,0,-1,1595,1163,0,0
378,-139,0,0,0,0,0,0,0,0,0,-1,1602,1163,0,0
385,-139,0,0,0,0,0,0,0,0,0,-1,1609,1163,0,0
392,-139,0,0,0,0,0,0,0,0,0,-1,1616,1163,0,0
399,-139,0,0,0,0,0,0,0,0,0,-1,1623,1163,0,0
406,-139,0,0,0,0,0,0,0,0,0,-1,1630,1163,0,0
413,-139,0,0,0,0,0,0,0,0,0,-1,1637,1163,0,0
420,-139,0,0,0,0,0,0,0,0,0,-1,1644,1163,0,0
427,-139,0,0,0,0,0,0,0,0,0,-1,1651,1163,0,0
434,-139,0,0,0,0,0,0,0,0,0,-1,1658,1163,0,0
441,-139,0,0,0,0,0,0,0,0,0,-1,1665,1163,0,0
448,-139,0,0,0,0,0,0,0,0,0,-1,1672,1163,0,0
455,-139,0,0,0,0,0,0,0,0,0,-1,1679,1163,0,0
462,-139,0,0,0,0,0,0,0,0,0,-1,1686,1163,0,0
469,-139,0,0,0,0,0,0,0,0,0,-1,1693,1163,0,0
476,-139,0,0,0,0,0,0,0,0,0,-1,1700,1163,0,0
483,-139,0,0,0,0,0,0,0,0,0,-1,1707,1163,0,0
490,-139,0,0,0,0,0,0,0,0,0,-1,1714,1163,0,0
497,-139,0,0,0,0,0,0,0,0,0,-1,1721,1163,0,0
504,-139,0,0,0,0,0,0,0,0,0,-1,1728,1163,0,0
511,-139,0,0,0,0,0,0,0,0,0,-1,1735,1163,0,0
518,-139,0,0,0,0,0,0,0,0,0,-1,1742,1163,0,0
525,-139,0,0,0,0,0,0,0,0,0,-1,1749,1163,0,0
532,-139,0,0,0,0,0,0,0,0,0,-1,1756,1163,0,0
539,-139,0,0,0,0,0,0,0,0,0,-1,1763,1163,0,0
546,-139,0,0,0,0,0,0,0,0,0,-1,1770,1163,0,0
553,-139,0,0,0,0,0,0,0,0,0,-1,1777,1163,0,0
560,-139,0,0,0,0,0,0,0,0,0,-1,1784,1163,0,0
567,-139,0,0,0,0,0,0,0,0,0,-1,1791,1163,0,0
574,-139,0,0,0,0,0,0,0,0,0,-1,1798,1163,0,0
581,-139,0,0,0,0,0,0,0,0,0,-1,1805,1163,0,0
588,-139,0,0,0,0,0,0,0,0,0,-1,1812,1163,0,0
595,-139,0,0,0,0,0,0,0,0,0,-1,1819,1163,0,0
602,-139,0,0,0,0,0,0,0,0,0,-1,1826,1163,0,0
609,-139,0,0,0,0,0,0,0,0,0,-1,1833,1163,0,0
616,-139,0,0,0,0,0,0,0,0,0,-1,1840,1163,0,0
623,-139,0,0,0,0,0,0,0,0,0,-1,1847,1163,0,0
630,-139,0,0,0,0,0,0,0,0,0,-1,1854,1163,0,0
637,-139,0,0,0,0,0,0,0,0,0,-1,1861,1163,0,0
644,-139,235.314,8.82288,0,0,0,0,0,0,0,-1,1868,1163,235.314,-8.82282
651,-139,235.237,8.74011,0,0,0,0,0,0,0,-1,1875,1163,235.237,-8.7401
658,-139,235.269,8.66858,0,0,0,0,0,0,0,-1,1882,1163,235.269,-8.66858
665,-139,235.264,8.69409,0,0,0,0,0,0,0,-1,1889,1163,235.264,-8.69415
672,-139,235.26,9.00073,0,0,0,0,0,0,0,-1,1896,1163,235.26,-9.00078
679,-139,235.236,9.02979,0,0,0,0,0,0,0,-1,1903,1163,235.235,-9.02977
686,-139,235.153,9.11304,0,0,0,0,0,0,0,-1,1910,1163,235.153,-9.11305
693,-139,227.913,8.95776,0,0,0,0,0,0,0,-1,1917,1163,227.913,-8.95779
700,-139,228.028,8.70691,0,0,0,0,0,0,0,-1,1924,1163,228.028,-8.70694
707,-139,32.116,6.54346,0,0,0,0,0,0,0,-1,1931,1163,32.116,-6.54343
714,-139,62.1425,10.1428,0,0,0,0,0,0,0,-1,1938,1163,62.1424,-10.1428
721,-139,72.1608,11.011,0,0,0,0,0,0,0,-1,1945,1163,72.1608,-11.0109
728,-139,234.68,32.6146,0,0,0,0,0,0,0,-1,1952,1163,234.68,-32.6147
735,-139,234.73,31.5764,-0.00566149,0.0154134,0.00470086,0.0164144,-0.00666249,1.36099,0.0137143,0.049208,1959,1163,234.731,-31.5765
742,-139,234.639,30.6559,-0.00918691,0.0229694,0.00562657,0.0239255,-0.010143,1.40248,0.0201989,0.0351551,1966,1163,234.639,-30.6559
749,-139,234.373,29.8586,-0.0127529,0.030431,0.00691782,0.0315121,-0.013834,1.41577,0.0268356,0.0276796,1973,1163,234.373,-29.8587
756,-139,234.184,29.1409,-0.0163592,0.0377999,0.00856736,0.0391229,-0.0176821,1.41759,0.0335661,0.0188716,1980,1163,234.184,-29.1409
763,-139,234.048,28.4393,-0.0200044,0.0450649,0.0105733,0.0467399,-0.0216793,1.41369,0.0403755,0.0217511,1987,1163,234.047,-28.4393
770,-139,233.916,27.6823,-0.0236852,0.0522024,0.0129398,0.0543481,-0.0258309,1.40647,0.0472573,0.0299849,1994,1163,233.916,-27.6823
777,-139,233.802,26.7974,0,0,0,0,0,0,0,-1,2001,1163,233.802,-26.7974
784,-139,111.54,4.47424,0,0,0,0,0,0,0,-1,2008,1163,111.54,-4.47423
791,-139,113.788,9.25476,0,0,0,0,0,0,0,-1,2015,1163,113.788,-9.25476
798,-139,114.748,2.3186,0,0,0,0,0,0,0,-1,2022,1163,114.748,-2.31858
805,-139,115.784,2.98291,0,0,0,0,0,0,0,-1,2029,1163,115.784,-2.98296
812,-139,0,0,0,0,0,0,0,0,0,-1,2036,1163,0,0
-700,-146,0,0,0,0,0,0,0,0,0,-1,524,1170,0,0
-693,-146,-82.7482,-2.19629,0,0,0,0,0,0,0,-1,531,1170,-82.7482,2.19632
-686,-146,-140.813,8.43152,0,0,0,0,0,0,0,-1,538,1170,-140.813,-8.43151
-679,-146,-83.9792,1.00256,0,0,0,0,0,0,0,-1,545,1170,-83.9791,-1.00257
-672,-146,-74.9213,7.40356,0,0,0,0,0,0,0,-1,552,1170,-74.9213,-7.40356
-665,-146,-75.6855,5.98706,0,0,0,0,0,0,0,-1,559,1170,-75.6855,-5.98704
-658,-146,-76.8463,5.53369,0,0,0,0,0,0,0,-1,566,1170,-76.8463,-5.53366
-651,-146,-118.127,17.3252,0,0,0,0,0,0,0,-1,573,1170,-118.127,-17.3252
-644,-146,-226.268,25.9054,0,0,0,0,0,0,0,-1,580,1170,-226.268,-25.9054
-637,-146,-226.373,26.5306,-0.0242415,0.0522548,-0.0188575,0.0566508,-0.0286375,-1.34177,0.0501188,0.0347257,587,1170,-226.373,-26.5306
-630,-146,-226.529,27.2047,-0.0234489,0.0487046,-0.0143428,0.0514511,-0.0261955,-1.38159,0.0456129,0.0211549,594,1170,-226.529,-27.2047
-623,-146,-226.577,27.9935,-0.022873,0.0448978,-0.0099888,0.0463394,-0.0243146,-1.42747,0.0414475,0.0245337,601,1170,-226.577,-27.9935
-616,-146,-226.835,28.6843,-0.0224881,0.0407947,-0.00582273,0.041326,-0.0230194,-1.4798,0.0376476,0.0363609,608,1170,-226.835,-28.6843
-609,-146,-227.086,29.249,0,0,0,0,0,0,0,-1,615,1170,-227.086,-29.249
-602,-146,-199.416,32.1975,0,0,0,0,0,0,0,-1,622,1170,-199.416,-32.1975
-595,-146,-109.641,23.5803,0,0,0,0,0,0,0,-1,629,1170,-109.641,-23.5803
-588,-146,-45.0034,7.81934,0,0,0,0,0,0,0,-1,636,1170,-45.0034,-7.81931
-581,-146,-31.7815,6.30347,0,0,0,0,0,0,0,-1,643,1170,-31.7815,-6.3035
-574,-146,-17.9915,3.79114,0,0,0,0,0,0,0,-1,650,1170,-17.9915,-3.79118
-567,-146,-44.4572,0.6604,0,0,0,0,0,0,0,-1,657,1170,-44.4572,-0.660404
-560,-146,-71.9951,0.45874,0,0,0,0,0,0,0,-1,664,1170,-71.9951,-0.458771
-553,-146,-71.8871,0.505371,0,0,0,0,0,0,0,-1,671,1170,-71.8871,-0.505387
-546,-146,-71.9315,0.423218,0,0,0,0,0,0,0,-1,678,1170,-71.9315,-0.423264
-539,-146,-71.9998,0.394165,0,0,0,0,0,0,0,-1,685,1170,-71.9998,-0.394152
-532,-146,-71.8738,0.287109,0,0,0,0,0,0,0,-1,692,1170,-71.8738,-0.287159
-525,-146,-71.8591,0.315796,0,0,0,0,0,0,0,-1,699,1170,-71.8591,-0.315751
-518,-146,0,0,0,0,0,0,0,0,0,-1,706,1170,0,0
-511,-146,0,0,0,0,0,0,0,0,0,-1,713,1170,0,0
-504,-146,0,0,0,0,0,0,0,0,0,-1,720,1170,0,0
-497,-146,0,0,0,0,0,0,0,0,0,-1,727,1170,0,0
-490,-146,0,0,0,0,0,0,0,0,0,-1,734,1170,0,0
-483,-146,0,0,0,0,0,0,0,0,0,-1,741,1170,0,0
-476,-146,0,0,0,0,0,0,0,0,0,-1,748,1170,0,0
-469,-146,0,0,0,0,0,0,0,0,0,-1,755,1170,0,0
-462,-146,0,0,0,0,0,0,0,0,0,-1,762,1170,0,0
-455,-146,0,0,0,0,0,0,0,0,0,-1,769,1170,0,0
-448,-146,0,0,0,0,0,0,0,0,0,-1,776,1170,0,0
-441,-146,0,0,0,0,0,0,0,0,0,-1,783,1170,0,0
-434,-146,0,0,0,0,0,0,0,0,0,-1,790,1170,0,0
-427,-146,0,0,0,0,0,0,0,0,0,-1,797,1170,0,0
-420,-146,0,0,0,0,0,0,0,0,0,-1,804,1170,0,0
-413,-146,0,0,0,0,0,0,0,0,0,-1,811,1170,0,0
-406,-146,0,0,0,0,0,0,0,0,0,-1,818,1170,0,0
-399,-146,0,0,0,0,0,0,0,0,0,-1,825,1170,0,0
-392,-146,0,0,0,0,0,0,0,0,0,-1,832,1170,0,0
-385,-146,0,0,0,0,0,0,0,0,0,-1,839,1170,0,0
-378,-146,0,0,0,0,0,0,0,0,0,-1,846,1170,0,0
-371,-146,0,0,0,0,0,0,0,0,0,-1,853,1170,0,0
-364,-146,0,0,0,0,0,0,0,0,0,-1,860,1170,0,0
-357,-146,0,0,0,0,0,0,0,0,0,-1,867,1170,0,0
-350,-146,0,0,0,0,0,0,0,0,0,-1,874,1170,0,0
-343,-146,0,0,0,0,0,0,0,0,0,-1,881,1170,0,0
-336,-146,0,0,0,0,0,0,0,0,0,-1,888,1170,0,0
-329,-146,0,0,0,0,0,0,0,0,0,-1,895,1170,0,0
-322,-146,0,0,0,0,0,0,0,0,0,-1,902,1170,0,0
-315,-146,0,0,0,0,0,0,0,0,0,-1,909,1170,0,0
-308,-146,0,0,0,0,0,0,0,0,0,-1,916,1170,0,0
-301,-146,0,0,0,0,0,0,0,0,0,-1,923,1170,0,0
-294,-146,0,0,0,0,0,0,0,0,0,-1,930,1170,0,0
-287,-146,0,0,0,0,0,0,0,0,0,-1,937,1170,0,0
-280,-146,0,0,0,0,0,0,0,0,0,-1,944,1170,0,0
-273,-146,0,0,0,0,0,0,0,0,0,-1,951,1170,0,0
-266,-146,0,0,0,0,0,0,0,0,0,-1,958,1170,0,0
-259,-146,0,0,0,0,0,0,0,0,0,-1,965,1170,0,0
-252,-146,0,0,0,0,0,0,0,0,0,-1,972,1170,0,0
-245,-146,0,0,0,0,0,0,0,0,0,-1,979,1170,0,0
-238,-146,0,0,0,0,0,0,0,0,0,-1,986,1170,0,0
-231,-146,0,0,0,0,0,0,0,0,0,-1,993,1170,0,0
-224,-146,0,0,0,0,0,0,0,0,0,-1,1000,1170,0,0
-217,-146,0,0,0,0,0,0,0,0,0,-1,1007,1170,0,0
-210,-146,0,0,0,0,0,0,0,0,0,-1,1014,1170,0,0
-203,-146,0,0,0,0,0,0,0,0,0,-1,1021,1170,0,0
-196,-146,0,0,0,0,0,0,0,0,0,-1,1028,1170,0,0
-189,-146,0,0,0,0,0,0,0,0,0,-1,1035,1170,0,0
-182,-146,0,0,0,0,0,0,0,0,0,-1,1042,1170,0,0
-175,-146,0,0,0,0,0,0,0,0,0,-1,1049,1170,0,0
-168,-146,0,0,0,0,0,0,0,0,0,-1,1056,1170,0,0
-161,-146,0,0,0,0,0,0,0,0,0,-1,1063,1170,0,0
-154,-146,0,0,0,0,0,0,0,0,0,-1,1070,1170,0,0
-147,-146,0,0,0,0,0,0,0,0,0,-1,1077,1170,0,0
-140,-146,0,0,0,0,0,0,0,0,0,-1,1084,1170,0,0
-133,-146,0,0,0,0,0,0,0,0,0,-1,1091,1170,0,0
-126,-146,0,0,0,0,0,0,0,0,0,-1,1098,1170,0,0
-119,-146,0,0,0,0,0,0,0,0,0,-1,1105,1170,0,0
-112,-146,0,0,0,0,0,0,0,0,0,-1,1112,1170,0,0
-105,-146,0,0,0,0,0,0,0,0,0,-1,1119,1170,0,0
-98,-146,0,0,0,0,0,0,0,0,0,-1,1126,1170,0,0
-91,-146,0,0,0,0,0,0,0,0,0,-1,1133,1170,0,0
-84,-146,0,0,0,0,0,0,0,0,0,-1,1140,1170,0,0
-77,-146,0,0,0,0,0,0,0,0,0,-1,1147,1170,0,0
-70,-146,0,0,0,0,0,0,0,0,0,-1,1154,1170,0,0
-63,-146,0,0,0,0,0,0,0,0,0,-1,1161,1170,0,0
-56,-146,0,0,0,0,0,0,0,0,0,-1,1168,1170,0,0
-49,-146,0,0,0,0,0,0,0,0,0,-1,1175,1170,0,0
-42,-146,0,0,0,0,0,0,0,0,0,-1,1182,1170,0,0
-35,-146,0,0,0,0,0,0,0,0,0,-1,1189,1170,0,0
-28,-146,0,0,0,0,0,0,0,0,0,-1,1196,1170,0,0
-21,-146,0,0,0,0,0,0,0,0,0,-1,1203,1170,0,0
-14,-146,0,0,0,0,0,0,0,0,0,-1,1210,1170,0,0
-7,-146,0,0,0,0,0,0,0,0,0,-1,1217,1170,0,0
0,-146,0,0,0,0,0,0,0,0,0,-1,1224,1170,0,0
7,-146,0,0,0,0,0,0,0,0,0,-1,1231,1170,0,0
14,-146,0,0,0,0,0,0,0,0,0,-1,1238,1170,0,0
21,-146,0,0,0,0,0,0,0,0,0,-1,1245,1170,0,0
28,-146,0,0,0,0,0,0,0,0,0,-1,1252,1170,0,0
35,-146,0,0,0,0,0,0,0,0,0,-1,1259,1170,0,0
42,-146,0,0,0,0,0,0,0,0,0,-1,1266,1170,0,0
49,-146,0,0,0,0,0,0,0,0,0,-1,1273,1170,0,0
56,-146,0,0,0,0,0,0,0,0,0,-1,1280,1170,0,0
63,-146,0,0,0,0,0,0,0,0,0,-1,1287,1170,0,0
70,-146,0,0,0,0,0,0,0,0,0,-1,1294,1170,0,0
77,-146,0,0,0,0,0,0,0,0,0,-1,1301,1170,0,0
84,-146,0,0,0,0,0,0,0,0,0,-1,1308,1170,0,0
91,-146,0,0,0,0,0,0,0,0,0,-1,1315,1170,0,0
98,-146,0,0,0,0,0,0,0,0,0,-1,1322,1170,0,0
105,-146,0,0,0,0,0,0,0,0,0,-1,1329,1170,0,0
112,-146,0,0,0,0,0,0,0,0,0,-1,1336,1170,0,0
119,-146,0,0,0,0,0,0,0,0,0,-1,1343,1170,0,0
126,-146,0,0,0,0,0,0,0,0,0,-1,1350,1170,0,0
133,-146,0,0,0,0,0,0,0,0,0,-1,1357,1170,0,0
140,-146,0,0,0,0,0,0,0,0,0,-1,1364,1170,0,0
147,-146,0,0,0,0,0,0,0,0,0,-1,1371,1170,0,0
154,-146,0,0,0,0,0,0,0,0,0,-1,1378,1170,0,0
161,-146,0,0,0,0,0,0,0,0,0,-1,1385,1170,0,0
168,-146,0,0,0,0,0,0,0,0,0,-1,1392,1170,0,0
175,-146,0,0,0,0,0,0,0,0,0,-1,1399,1170,0,0
182,-146,0,0,0,0,0,0,0,0,0,-1,1406,1170,0,0
189,-146,0,0,0,0,0,0,0,0,0,-1,1413,1170,0,0
196,-146,0,0,0,0,0,0,0,0,0,-1,1420,1170,0,0
203,-146,0,0,0,0,0,0,0,0,0,-1,1427,1170,0,0
210,-146,0,0,0,0,0,0,0,0,0,-1,1434,1170,0,0
217,-146,0,0,0,0,0,0,0,0,0,-1,1441,1170,0,0
224,-146,0,0,0,0,0,0,0,0,0,-1,1448,1170,0,0
231,-146,0,0,0,0,0,0,0,0,0,-1,1455,1170,0,0
238,-146,0,0,0,0,0,0,0,0,0,-1,1462,1170,0,0
245,-146,0,0,0,0,0,0,0,0,0,-1,1469,1170,0,0
252,-146,0,0,0,0,0,0,0,0,0,-1,1476,1170,0,0
259,-146,0,0,0,0,0,0,0,0,0,-1,1483,1170,0,0
266,-146,0,0,0,0,0,0,0,0,0,-1,1490,1170,0,0
273,-146,0,0,0,0,0,0,0,0,0,-1,1497,1170,0,0
280,-146,0,0,0,0,0,0,0,0,0,-1,1504,1170,0,0
287,-146,0,0,0,0,0,0,0,0,0,-1,1511,1170,0,0
294,-146,0,0,0,0,0,0,0,0,0,-1,1518,1170,0,0
301,-146,0,0,0,0,0,0,0,0,0,-1,1525,1170,0,0
308,-146,0,0,0,0,0,0,0,0,0,-1,1532,1170,0,0
315,-146,0,0,0,0,0,0,0,0,0,-1,1539,1170,0,0
322,-146,0,0,0,0,0,0,0,0,0,-1,1546,1170,0,0
329,-146,0,0,0,0,0,0,0,0,0,-1,1553,1170,0,0
336,-146,0,0,0,0,0,0,0,0,0,-1,1560,1170,0,0
343,-146,0,0,0,0,0,0,0,0,0,-1,1567,1170,0,0
350,-146,0,0,0,0,0,0,0,0,0,-1,1574,1170,0,0
357,-146,0,0,0,0,0,0,0,0,0,-1,1581,1170,0,0
364,-146,0,0,0,0,0,0,0,0,0,-1,1588,1170,0,0
371,-146,0,0,0,0,0,0,0,0,0,-1,1595,1170,0,0
378,-146,0,0,0,0,0,0,0,0,0,-1,1602,1170,0,0
385,-146,0,0,0,0,0,0,0,0,0,-1,1609,1170,0,0
392,-146,0,0,0,0,0,0,0,0,0,-1,1616,1170,0,0
399,-146,0,0,0,0,0,0,0,0,0,-1,1623,1170,0,0
406,-146,0,0,0,0,0,0,0,0,0,-1,1630,1170,0,0
413,-146,0,0,0,0,0,0,0,0,0,-1,1637,1170,0,0
420,-146,0,0,0,0,0,0,0,0,0,-1,1644,1170,0,0
427,-146,0,0,0,0,0,0,0,0,0,-1,1651,1170,0,0
434,-146,0,0,0,0,0,0,0,0,0,-1,1658,1170,0,0
441,-146,0,0,0,0,0,0,0,0,0,-1,1665,1170,0,0
448,-146,0,0,0,0,0,0,0,0,0,-1,1672,1170,0,0
455,-146,0,0,0,0,0,0,0,0,0,-1,1679,1170,0,0
462,-146,0,0,0,0,0,0,0,0,0,-1,1686,1170,0,0
469,-146,0,0,0,0,0,0,0,0,0,-1,1693,1170,0,0
476,-146,0,0,0,0,0,0,0,0,0,-1,1700,1170,0,0
483,-146,0,0,0,0,0,0,0,0,0,-1,1707,1170,0,0
490,-146,0,0,0,0,0,0,0,0,0,-1,1714,1170,0,0
497,-146,0,0,0,0,0,0,0,0,0,-1,1721,1170,0,0
504,-146,0,0,0,0,0,0,0,0,0,-1,1728,1170,0,0
511,-146,0,0,0,0,0,0,0,0,0,-1,1735,1170,0,0
518,-146,0,0,0,0,0,0,0,0,0,-1,1742,1170,0,0
525,-146,0,0,0,0,0,0,0,0,0,-1,1749,1170,0,0
532,-146,0,0,0,0,0,0,0,0,0,-1,1756,1170,0,0
539,-146,0,0,0,0,0,0,0,0,0,-1,1763,1170,0,0
546,-146,0,0,0,0,0,0,0,0,0,-1,1770,1170,0,0
553,-146,0,0,0,0,0,0,0,0,0,-1,1777,1170,0,0
560,-146,0,0,0,0,0,0,0,0,0,-1,1784,1170,0,0
567,-146,0,0,0,0,0,0,0,0,0,-1,1791,1170,0,0
574,-146,0,0,0,0,0,0,0,0,0,-1,1798,1170,0,0
581,-146,0,0,0,0,0,0,0,0,0,-1,1805,1170,0,0
588,-146,0,0,0,0,0,0,0,0,0,-1,1812,1170,0,0
595,-146,0,0,0,0,0,0,0,0,0,-1,1819,1170,0,0
602,-146,0,0,0,0,0,0,0,0,0,-1,1826,1170,0,0
609,-146,0,0,0,0,0,0,0,0,0,-1,1833,1170,0,0
616,-146,0,0,0,0,0,0,0,0,0,-1,1840,1170,0,0
623,-146,0,0,0,0,0,0,0,0,0,-1,1847,1170,0,0
630,-146,0,0,0,0,0,0,0,0,0,-1,1854,1170,0,0
637,-146,235.281,8.64783,0,0,0,0,0,0,0,-1,1861,1170,235.282,-8.64782
644,-146,235.266,8.66357,0,0,0,0,0,0,0,-1,1868,1170,235.266,-8.6636
651,-146,235.278,8.69324,0,0,0,0,0,0,0,-1,1875,1170,235.278,-8.69323
658,-146,235.22,8.6676,0,0,0,0,0,0,0,-1,1882,1170,235.22,-8.66756
665,-146,235.199,8.70251,0,0,0,0,0,0,0,-1,1889,1170,235.199,-8.70247
672,-146,235.202,8.87561,0,0,0,0,0,0,0,-1,1896,1170,235.202,-8.87566
679,-146,235.239,8.78748,0,0,0,0,0,0,0,-1,1903,1170,235.239,-8.7875
686,-146,235.164,8.55225,0,0,0,0,0,0,0,-1,1910,1170,235.164,-8.55226
693,-146,227.882,8.70618,0,0,0,0,0,0,0,-1,1917,1170,227.882,-8.70621
700,-146,227.925,8.66785,0,0,0,0,0,0,0,-1,1924,1170,227.925,-8.66783
707,-146,29.9441,6.94653,0,0,0,0,0,0,0,-1,1931,1170,29.9441,-6.94652
714,-146,31.325,6.13245,0,0,0,0,0,0,0,-1,1938,1170,31.325,-6.1325
721,-146,61.3608,9.47766,0,0,0,0,0,0,0,-1,1945,1170,61.3608,-9.47767
728,-146,233.936,32.0698,0,0,0,0,0,0,0,-1,1952,1170,233.936,-32.0699
735,-146,233.89,31.3326,-0.00552807,0.0174431,0.0037324,0.0180343,-0.0061193,1.4137,0.0144997,0.0416682,1959,1170,233.89,-31.3326
742,-146,233.712,30.553,-0.00892718,0.0244712,0.005287,0.0252881,-0.00974413,1.41749,0.020879,0.0296316,1966,1170,233.712,-30.5529
749,-146,233.467,29.7783,-0.0123495,0.0313608,0.00715453,0.032502,-0.0134908,1.41261,0.0272996,0.0235492,1973,1170,233.467,-29.7783
756,-146,233.314,28.9163,-0.0157736,0.0381208,0.00934779,0.0396961,-0.0173489,1.40384,0.0337669,0.018992,1980,1170,233.314,-28.9163
763,-146,233.054,28.0874,-0.0191805,0.0447437,0.0118855,0.046882,-0.0213188,1.39279,0.0402872,0.0189266,1987,1170,233.054,-28.0874
770,-146,232.864,27.2249,-0.0225521,0.0512062,0.0147926,0.0540624,-0.0254082,1.38007,0.046866,0.0282132,1994,1170,232.864,-27.2248
777,-146,232.873,26.3956,0,0,0,0,0,0,0,-1,2001,1170,232.873,-26.3956
784,-146,231.48,26.073,0,0,0,0,0,0,0,-1,2008,1170,231.48,-26.073
791,-146,203.29,27.1288,0,0,0,0,0,0,0,-1,2015,1170,203.289,-27.1288
798,-146,202.691,24.5387,0,0,0,0,0,0,0,-1,2022,1170,202.691,-24.5388
805,-146,204.107,23.8569,0,0,0,0,0,0,0,-1,2029,1170,204.107,-23.8569
812,-146,0,0,0,0,0,0,0,0,0,-1,2036,1170,0,0
-700,-153,0,0,0,0,0,0,0,0,0,-1,524,1177,0,0
-693,-153,0,0,0,0,0,0,0,0,0,-1,531,1177,0,0
-686,-153,-168.385,19.0377,0,0,0,0,0,0,0,-1,538,1177,-168.385,-19.0377
-679,-153,-140.842,11.0273,0,0,0,0,0,0,0,-1,545,1177,-140.842,-11.0274
-672,-153,-177.624,20.2991,0,0,0,0,0,0,0,-1,552,1177,-177.624,-20.2991
-665,-153,-109.895,18.7006,0,0,0,0,0,0,0,-1,559,1177,-109.895,-18.7006
-658,-153,-76.2853,4.375,0,0,0,0,0,0,0,-1,566,1177,-76.2853,-4.375
-651,-153,-73.9761,7.67358,0,0,0,0,0,0,0,-1,573,1177,-73.9761,-7.67353
-644,-153,-225.265,25.6569,0,0,0,0,0,0,0,-1,580,1177,-225.265,-25.6569
-637,-153,-225.405,26.2997,-0.0266895,0.0511868,-0.020768,0.056379,-0.0318817,-1.32581,0.0516074,0.0404787,587,1177,-225.405,-26.2997
-630,-153,-225.54,27.0408,-0.024289,0.0487896,-0.0160672,0.0521662,-0.0276656,-1.36366,0.0468089,0.0234624,594,1177,-225.54,-27.0408
-623,-153,-225.734,27.5276,-0.0221141,0.0464059,-0.0114881,0.0482807,-0.0239889,-1.40903,0.0425033,0.0327994,601,1177,-225.734,-27.5276
-616,-153,-225.862,28.4471,-0.0201792,0.0440444,-0.00704027,0.0448071,-0.0209419,-1.46288,0.0387848,0.0493847,608,1177,-225.862,-28.4472
-609,-153,-225.967,29.5442,0,0,0,0,0,0,0,-1,615,1177,-225.967,-29.5441
-602,-153,-108.822,22.9852,0,0,0,0,0,0,0,-1,622,1177,-108.822,-22.9852
-595,-153,-43.9551,7.35718,0,0,0,0,0,0,0,-1,629,1177,-43.9551,-7.35722
-588,-153,-32.348,5.51038,0,0,0,0,0,0,0,-1,636,1177,-32.348,-5.51034
-581,-153,-33.4568,6.41492,0,0,0,0,0,0,0,-1,643,1177,-33.4568,-6.41497
-574,-153,-25.4814,5.16956,0,0,0,0,0,0,0,-1,650,1177,-25.4814,-5.16961
-567,-153,-35.3121,1.09485,0,0,0,0,0,0,0,-1,657,1177,-35.3121,-1.09482
-560,-153,-72.0881,0.687866,0,0,0,0,0,0,0,-1,664,1177,-72.0881,-0.687857
-553,-153,-71.9505,0.579346,0,0,0,0,0,0,0,-1,671,1177,-71.9505,-0.579368
-546,-153,-71.9724,0.468628,0,0,0,0,0,0,0,-1,678,1177,-71.9724,-0.468682
-539,-153,-72.1825,0.396606,0,0,0,0,0,0,0,-1,685,1177,-72.1825,-0.396654
-532,-153,-72.1336,0.405396,0,0,0,0,0,0,0,-1,692,1177,-72.1336,-0.405355
-525,-153,-71.8697,0.428833,0,0,0,0,0,0,0,-1,699,1177,-71.8697,-0.428859
-518,-153,0,0,0,0,0,0,0,0,0,-1,706,1177,0,0
-511,-153,0,0,0,0,0,0,0,0,0,-1,713,1177,0,0
-504,-153,0,0,0,0,0,0,0,0,0,-1,720,1177,0,0
-497,-153,0,0,0,0,0,0,0,0,0,-1,727,1177,0,0
-490,-153,0,0,0,0,0,0,0,0,0,-1,734,1177,0,0
-483,-153,0,0,0,0,0,0,0,0,0,-1,741,1177,0,0
-476,-153,0,0,0,0,0,0,0,0,0,-1,748,1177,0,0
-469,-153,0,0,0,0,0,0,0,0,0,-1,755,1177,0,0
-462,-153,0,0,0,0,0,0,0,0,0,-1,762,1177,0,0
-455,-153,0,0,0,0,0,0,0,0,0,-1,769,1177,0,0
-448,-153,0,0,0,0,0,0,0,0,0,-1,776,1177,0,0
-441,-153,0,0,0,0,0,0,0,0,0,-1,783,1177,0,0
-434,-153,0,0,0,0,0,0,0,0,0,-1,790,1177,0,0
-427,-153,0,0,0,0,0,0,0,0,0,-1,797,1177,0,0
-420,-153,0,0,0,0,0,0,0,0,0,-1,804,1177,0,0
-413,-153,0,0,0,0,0,0,0,0,0,-1,811,1177,0,0
-406,-153,0,0,0,0,0,0,0,0,0,-1,818,1177,0,0
-399,-153,0,0,0,0,0,0,0,0,0,-1,825,1177,0,0
-392,-153,0,0,0,0,0,0,0,0,0,-1,832,1177,0,0
-385,-153,0,0,0,0,0,0,0,0,0,-1,839,1177,0,0
-378,-153,0,0,0,0,0,0,0,0,0,-1,846,1177,0,0
-371,-153,0,0,0,0,0,0,0,0,0,-1,853,1177,0,0
-364,-153,0,0,0,0,0,0,0,0,0,-1,860,1177,0,0
-357,-153,0,0,0,0,0,0,0,0,0,-1,867,1177,0,0
-350,-153,0,0,0,0,0,0,0,0,0,-1,874,1177,0,0
-343,-153,0,0,0,0,0,0,0,0,0,-1,881,1177,0,0
-336,-153,0,0,0,0,0,0,0,0,0,-1,888,1177,0,0
-329,-153,0,0,0,0,0,0,0,0,0,-1,895,1177,0,0
-322,-153,0,0,0,0,0,0,0,0,0,-1,902,1177,0,0
-315,-153,0,0,0,0,0,0,0,0,0,-1,909,1177,0,0
-308,-153,0,0,0,0,0,0,0,0,0,-1,916,1177,0,0
-301,-153,0,0,0,0,0,0,0,0,0,-1,923,1177,0,0
-294,-153,0,0,0,0,0,0,0,0,0,-1,930,1177,0,0
-287,-153,0,0,0,0,0,0,0,0,0,-1,937,1177,0,0
-280,-153,0,0,0,0,0,0,0,0,0,-1,944,1177,0,0
-273,-153,0,0,0,0,0,0,0,0,0,-1,951,1177,0,0
-266,-153,0,0,0,0,0,0,0,0,0,-1,958,1177,0,0
-259,-153,0,0,0,0,0,0,0,0,0,-1,965,1177,0,0
-252,-153,0,0,0,0,0,0,0,0,0,-1,972,1177,0,0
-245,-153,0,0,0,0,0,0,0,0,0,-1,979,1177,0,0
-238,-153,0,0,0,0,0,0,0,0,0,-1,986,1177,0,0
-231,-153,0,0,0,0,0,0,0,0,0,-1,993,1177,0,0
-224,-153,0,0,0,0,0,0,0,0,0,-1,1000,1177,0,0
-217,-153,0,0,0,0,0,0,0,0,0,-1,1007,1177,0,0
-210,-153,0,0,0,0,0,0,0,0,0,-1,1014,1177,0,0
-203,-153,0,0,0,0,0,0,0,0,0,-1,1021,1177,0,0
-196,-153,0,0,0,0,0,0,0,0,0,-1,1028,1177,0,0
-189,-153,0,0,0,0,0,0,0,0,0,-1,1035,1177,0,0
-182,-153,0,0,0,0,0,0,0,0,0,-1,1042,1177,0,0
-175,-153,0,0,0,0,0,0,0,0,0,-1,1049,1177,0,0
-168,-153,0,0,0,0,0,0,0,0,0,-1,1056,1177,0,0
-161,-153,0,0,0,0,0,0,0,0,0,-1,1063,1177,0,0
-154,-153,0,0,0,0,0,0,0,0,0,-1,1070,1177,0,0
-147,-153,0,0,0,0,0,0,0,0,0,-1,1077,1177,0,0
-140,-153,0,0,0,0,0,0,0,0,0,-1,1084,1177,0,0
-133,-153,0,0,0,0,0,0,0,0,0,-1,1091,1177,0,0
-126,-153,0,0,0,0,0,0,0,0,0,-1,1098,1177,0,0
-119,-153,0,0,0,0,0,0,0,0,0,-1,1105,1177,0,0
-112,-153,0,0,0,0,0,0,0,0,0,-1,1112,1177,0,0
-105,-153,0,0,0,0,0,0,0,0,0,-1,1119,1177,0,0
-98,-153,0,0,0,0,0,0,0,0,0,-1,1126,1177,0,0
-91,-153,0,0,0,0,0,0,0,0,0,-1,1133,1177,0,0
-84,-153,0,0,0,0,0,0,0,0,0,-1,1140,1177,0,0
-77,-153,0,0,0,0,0,0,0,0,0,-1,1147,1177,0,0
-70,-153,0,0,0,0,0,0,0,0,0,-1,1154,1177,0,0
-63,-153,0,0,0,0,0,0,0,0,0,-1,1161,1177,0,0
-56,-153,0,0,0,0,0,0,0,0,0,-1,1168,1177,0,0
-49,-153,0,0,0,0,0,0,0,0,0,-1,1175,1177,0,0
-42,-153,0,0,0,0,0,0,0,0,0,-1,1182,1177,0,0
-35,-153,0,0,0,0,0,0,0,0,0,-1,1189,1177,0,0
-28,-153,0,0,0,0,0,0,0,0,0,-1,1196,1177,0,0
-21,-153,0,0,0,0,0,0,0,0,0,-1,1203,1177,0,0
-14,-153,0,0,0,0,0,0,0,0,0,-1,1210,1177,0,0
-7,-153,0,0,0,0,0,0,0,0,0,-1,1217,1177,0,0
0,-153,0,0,0,0,0,0,0,0,0,-1,1224,1177,0,0
7,-153,0,0,0,0,0,0,0,0,0,-1,1231,1177,0,0
14,-153,0,0,0,0,0,0,0,0,0,-1,1238,1177,0,0
21,-153,0,0,0,0,0,0,0,0,0,-1,1245,1177,0,0
28,-153,0,0,0,0,0,0,0,0,0,-1,1252,1177,0,0
35,-153,0,0,0,0,0,0,0,0,0,-1,1259,1177,0,0
42,-153,0,0,0,0,0,0,0,0,0,-1,1266,1177,0,0
49,-153,0,0,0,0,0,0,0,0,0,-1,1273,1177,0,0
56,-153,0,0,0,0,0,0,0,0,0,-1,1280,1177,0,0
63,-153,0,0,0,0,0,0,0,0,0,-1,1287,1177,0,0
70,-153,0,0,0,0,0,0,0,0,0,-1,1294,1177,0,0
77,-153,0,0,0,0,0,0,0,0,0,-1,1301,1177,0,0
84,-153,0,0,0,0,0,0,0,0,0,-1,1308,1177,0,0
91,-153,0,0,0,0,0,0,0,0,0,-1,1315,1177,0,0
98,-153,0,0,0,0,0,0,0,0,0,-1,1322,1177,0,0
105,-153,0,0,0,0,0,0,0,0,0,-1,1329,1177,0,0
112,-153,0,0,0,0,0,0,0,0,0,-1,1336,1177,0,0
119,-153,0,0,0,0,0,0,0,0,0,-1,1343,1177,0,0
126,-153,0,0,0,0,0,0,0,0,0,-1,1350,1177,0,0
133,-153,0,0,0,0,0,0,0,0,0,-1,1357,1177,0,0
140,-153,0,0,0,0,0,0,0,0,0,-1,1364,1177,0,0
147,-153,0,0,0,0,0,0,0,0,0,-1,1371,1177,0,0
154,-153,0,0,0,0,0,0,0,0,0,-1,1378,1177,0,0
161,-153,0,0,0,0,0,0,0,0,0,-1,1385,1177,0,0
168,-153,0,0,0,0,0,0,0,0,0,-1,1392,1177,0,0
175,-153,0,0,0,0,0,0,0,0,0,-1,1399,1177,0,0
182,-153,0,0,0,0,0,0,0,0,0,-1,1406,1177,0,0
189,-153,0,0,0,0,0,0,0,0,0,-1,1413,1177,0,0
196,-153,0,0,0,0,0,0,0,0,0,-1,1420,1177,0,0
203,-153,0,0,0,0,0,0,0,0,0,-1,1427,1177,0,0
210,-153,0,0,0,0,0,0,0,0,0,-1,1434,1177,0,0
217,-153,0,0,0,0,0,0,0,0,0,-1,1441,1177,0,0
224,-153,0,0,0,0,0,0,0,0,0,-1,1448,1177,0,0
231,-153,0,0,0,0,0,0,0,0,0,-1,1455,1177,0,0
238,-153,0,0,0,0,0,0,0,0,0,-1,1462,1177,0,0
245,-153,0,0,0,0,0,0,0,0,0,-1,1469,1177,0,0
252,-153,0,0,0,0,0,0,0,0,0,-1,1476,1177,0,0
259,-153,0,0,0,0,0,0,0,0,0,-1,1483,1177,0,0
266,-153,0,0,0,0,0,0,0,0,0,-1,1490,1177,0,0
273,-153,0,0,0,0,0,0,0,0,0,-1,1497,1177,0,0
280,-153,0,0,0,0,0,0,0,0,0,-1,1504,1177,0,0
287,-153,0,0,0,0,0,0,0,0,0,-1,1511,1177,0,0
294,-153,0,0,0,0,0,0,0,0,0,-1,1518,1177,0,0
301,-153,0,0,0,0,0,0,0,0,0,-1,1525,1177,0,0
308,-153,0,0,0,0,0,0,0,0,0,-1,1532,1177,0,0
315,-153,0,0,0,0,0,0,0,0,0,-1,1539,1177,0,0
322,-153,0,0,0,0,0,0,0,0,0,-1,1546,1177,0,0
329,-153,0,0,0,0,0,0,0,0,0,-1,1553,1177,0,0
336,-153,0,0,0,0,0,0,0,0,0,-1,1560,1177,0,0
343,-153,0,0,0,0,0,0,0,0,0,-1,1567,1177,0,0
350,-153,0,0,0,0,0,0,0,0,0,-1,1574,1177,0,0
357,-153,0,0,0,0,0,0,0,0,0,-1,1581,1177,0,0
364,-153,0,0,0,0,0,0,0,0,0,-1,1588,1177,0,0
371,-153,0,0,0,0,0,0,0,0,0,-1,1595,1177,0,0
378,-153,0,0,0,0,0,0,0,0,0,-1,1602,1177,0,0
385,-153,0,0,0,0,0,0,0,0,0,-1,1609,1177,0,0
392,-153,0,0,0,0,0,0,0,0,0,-1,1616,1177,0,0
399,-153,0,0,0,0,0,0,0,0,0,-1,1623,1177,0,0
406,-153,0,0,0,0,0,0,0,0,0,-1,1630,1177,0,0
413,-153,0,0,0,0,0,0,0,0,0,-1,1637,1177,0,0
420,-153,0,0,0,0,0,0,0,0,0,-1,1644,1177,0,0
427,-153,0,0,0,0,0,0,0,0,0,-1,1651,1177,0,0
434,-153,0,0,0,0,0,0,0,0,0,-1,1658,1177,0,0
441,-153,0,0,0,0,0,0,0,0,0,-1,1665,1177,0,0
448,-153,0,0,0,0,0,0,0,0,0,-1,1672,1177,0,0
455,-153,0,0,0,0,0,0,0,0,0,-1,1679,1177,0,0
462,-153,0,0,0,0,0,0,0,0,0,-1,1686,1177,0,0
469,-153,0,0,0,0,0,0,0,0,0,-1,1693,1177,0,0
476,-153,0,0,0,0,0,0,0,0,0,-1,1700,1177,0,0
483,-153,0,0,0,0,0,0,0,0,0,-1,1707,1177,0,0
490,-153,0,0,0,0,0,0,0,0,0,-1,1714,1177,0,0
497,-153,0,0,0,0,0,0,0,0,0,-1,1721,1177,0,0
504,-153,0,0,0,0,0,0,0,0,0,-1,1728,1177,0,0
511,-153,0,0,0,0,0,0,0,0,0,-1,1735,1177,0,0
518,-153,0,0,0,0,0,0,0,0,0,-1,1742,1177,0,0
525,-153,0,0,0,0,0,0,0,0,0,-1,1749,1177,0,0
532,-153,0,0,0,0,0,0,0,0,0,-1,1756,1177,0,0
539,-153,0,0,0,0,0,0,0,0,0,-1,1763,1177,0,0
546,-153,0,0,0,0,0,0,0,0,0,-1,1770,1177,0,0
553,-153,0,0,0,0,0,0,0,0,0,-1,1777,1177,0,0
560,-153,0,0,0,0,0,0,0,0,0,-1,1784,1177,0,0
567,-153,0,0,0,0,0,0,0,0,0,-1,1791,1177,0,0
574,-153,0,0,0,0,0,0,0,0,0,-1,1798,1177,0,0
581,-153,0,0,0,0,0,0,0,0,0,-1,1805,1177,0,0
588,-153,0,0,0,0,0,0,0,0,0,-1,1812,1177,0,0
595,-153,0,0,0,0,0,0,0,0,0,-1,1819,1177,0,0
602,-153,0,0,0,0,0,0,0,0,0,-1,1826,1177,0,0
609,-153,0,0,0,0,0,0,0,0,0,-1,1833,1177,0,0
616,-153,0,0,0,0,0,0,0,0,0,-1,1840,1177,0,0
623,-153,0,0,0,0,0,0,0,0,0,-1,1847,1177,0,0
630,-153,0,0,0,0,0,0,0,0,0,-1,1854,1177,0,0
637,-153,235.194,8.66357,0,0,0,0,0,0,0,-1,1861,1177,235.194,-8.66352
644,-153,235.192,8.68921,0,0,0,0,0,0,0,-1,1868,1177,235.192,-8.68922
651,-153,235.272,8.63745,0,0,0,0,0,0,0,-1,1875,1177,235.272,-8.63745
658,-153,235.201,8.62183,0,0,0,0,0,0,0,-1,1882,1177,235.201,-8.62187
665,-153,235.18,8.70178,0,0,0,0,0,0,0,-1,1889,1177,235.18,-8.70181
672,-153,235.146,8.83911,0,0,0,0,0,0,0,-1,1896,1177,235.146,-8.8391
679,-153,235.114,8.7207,0,0,0,0,0,0,0,-1,1903,1177,235.114,-8.72068
686,-153,235.1,8.64795,0,0,0,0,0,0,0,-1,1910,1177,235.1,-8.64789
693,-153,235.313,8.54358,0,0,0,0,0,0,0,-1,1917,1177,235.313,-8.54363
700,-153,79.9266,2.01807,0,0,0,0,0,0,0,-1,1924,1177,79.9267,-2.01805
707,-153,29.6483,6.6842,0,0,0,0,0,0,0,-1,1931,1177,29.6483,-6.68415
714,-153,36.0046,6.78418,0,0,0,0,0,0,0,-1,1938,1177,36.0046,-6.78418
721,-153,36.4866,6.47595,0,0,0,0,0,0,0,-1,1945,1177,36.4866,-6.47593
728,-153,47.7305,7.37024,0,0,0,0,0,0,0,-1,1952,1177,47.7304,-7.37022
735,-153,232.247,31.3978,0,0,0,0,0,0,0,-1,1959,1177,232.247,-31.3978
742,-153,232.436,30.6224,-0.00864656,0.0261709,0.00507844,0.0268965,-0.00937217,1.42888,0.0217393,0.0285862,1966,1177,232.436,-30.6225
749,-153,232.449,29.7236,-0.012147,0.0324978,0.00739439,0.0336906,-0.0133398,1.41086,0.0279876,0.0251857,1973,1177,232.449,-29.7236
756,-153,232.288,28.7975,-0.0156017,0.038689,0.0100076,0.0404749,-0.0173877,1.39419,0.0342819,0.0189116,1980,1177,232.288,-28.7975
763,-153,232.104,27.859,-0.0189947,0.0447196,0.0129623,0.0472557,-0.0215308,1.37758,0.0406291,0.0198713,1987,1177,232.104,-27.8589
770,-153,231.831,27.0667,-0.0223096,0.0505518,0.0163087,0.0540356,-0.0257935,1.36034,0.047041,0.0210239,1994,1177,231.831,-27.0667
777,-153,231.721,26.3129,-0.0254106,0.0562823,0.0200663,0.0609451,-0.0300734,1.34248,0.0535477,0.0385615,2001,1177,231.722,-26.3129
784,-153,231.904,25.5763,0,0,0,0,0,0,0,-1,2008,1177,231.904,-25.5763
791,-153,230.637,25.3278,0,0,0,0,0,0,0,-1,2015,1177,230.637,-25.3278
798,-153,202.484,25.9869,0,0,0,0,0,0,0,-1,2022,1177,202.484,-25.9869
805,-153,202.37,25.3752,0,0,0,0,0,0,0,-1,2029,1177,202.37,-25.3752
812,-153,0,0,0,0,0,0,0,0,0,-1,2036,1177,0,0
-700,-160,0,0,0,0,0,0,0,0,0,-1,524,1184,0,0
-693,-160,0,0,0,0,0,0,0,0,0,-1,531,1184,0,0
-686,-160,-167.674,18.0548,0,0,0,0,0,0,0,-1,538,1184,-167.674,-18.0549
-679,-160,-181.141,19.9757,0,0,0,0,0,0,0,-1,545,1184,-181.141,-19.9757
-672,-160,-180.457,21.9385,0,0,0,0,0,0,0,-1,552,1184,-180.457,-21.9385
-665,-160,-180.104,23.5477,0,0,0,0,0,0,0,-1,559,1184,-180.104,-23.5477
-658,-160,-108.842,18.2297,0,0,0,0,0,0,0,-1,566,1184,-108.842,-18.2297
-651,-160,-73.1214,7.68677,0,0,0,0,0,0,0,-1,573,1184,-73.1214,-7.68675
-644,-160,-223.822,25.3496,0,0,0,0,0,0,0,-1,580,1184,-223.822,-25.3496
-637,-160,-224.152,26.0444,-0.0289534,0.0511521,-0.0217991,0.0567,-0.0345014,-1.32158,0.0531725,0.046106,587,1184,-224.152,-26.0444
-630,-160,-224.524,26.7446,-0.0248979,0.0489695,-0.0173854,0.0528568,-0.0287851,-1.35082,0.047814,0.0238455,594,1184,-224.524,-26.7446
-623,-160,-224.967,27.149,-0.0210252,0.046762,-0.0131249,0.0492145,-0.0234777,-1.38607,0.0428367,0.0463866,601,1184,-224.967,-27.149
-616,-160,-225.187,27.6251,0,0,0,0,0,0,0,-1,608,1184,-225.187,-27.6251
-609,-160,-172.537,31.3198,0,0,0,0,0,0,0,-1,615,1184,-172.537,-31.3198
-602,-160,-172.736,32.4874,0,0,0,0,0,0,0,-1,622,1184,-172.736,-32.4875
-595,-160,-33.0669,5.93445,0,0,0,0,0,0,0,-1,629,1184,-33.0669,-5.93446
-588,-160,-33.4845,5.66699,0,0,0,0,0,0,0,-1,636,1184,-33.4845,-5.66697
-581,-160,-33.1338,6.41174,0,0,0,0,0,0,0,-1,643,1184,-33.1338,-6.41176
-574,-160,-32.7831,7.15649,0,0,0,0,0,0,0,-1,650,1184,-32.7831,-7.15655
-567,-160,-29.5828,0.643921,0,0,0,0,0,0,0,-1,657,1184,-29.5828,-0.643968
-560,-160,-57.0784,0.200806,0,0,0,0,0,0,0,-1,664,1184,-57.0784,-0.200768
-553,-160,-71.9811,0.620483,0,0,0,0,0,0,0,-1,671,1184,-71.9811,-0.620473
-546,-160,-72.0035,0.388306,0,0,0,0,0,0,0,-1,678,1184,-72.0035,-0.388251
-539,-160,-72.1849,0.41272,0,0,0,0,0,0,0,-1,685,1184,-72.1849,-0.412664
-532,-160,-72.0911,0.559814,0,0,0,0,0,0,0,-1,692,1184,-72.091,-0.559809
-525,-160,-71.9916,0.556885,0,0,0,0,0,0,0,-1,699,1184,-71.9916,-0.556882
-518,-160,-71.9895,0.636475,0,0,0,0,0,0,0,-1,706,1184,-71.9895,-0.636494
-511,-160,0,0,0,0,0,0,0,0,0,-1,713,1184,0,0
-504,-160,0,0,0,0,0,0,0,0,0,-1,720,1184,0,0
-497,-160,0,0,0,0,0,0,0,0,0,-1,727,1184,0,0
-490,-160,0,0,0,0,0,0,0,0,0,-1,734,1184,0,0
-483,-160,0,0,0,0,0,0,0,0,0,-1,741,1184,0,0
-476,-160,0,0,0,0,0,0,0,0,0,-1,748,1184,0,0
-469,-160,0,0,0,0,0,0,0,0,0,-1,755,1184,0,0
-462,-160,0,0,0,0,0,0,0,0,0,-1,762,1184,0,0
-455,-160,0,0,0,0,0,0,0,0,0,-1,769,1184,0,0
-448,-160,0,0,0,0,0,0,0,0,0,-1,776,1184,0,0
-441,-160,0,0,0,0,0,0,0,0,0,-1,783,1184,0,0
-434,-160,0,0,0,0,0,0,0,0,0,-1,790,1184,0,0
-427,-160,0,0,0,0,0,0,0,0,0,-1,797,1184,0,0
-420,-160,0,0,0,0,0,0,0,0,0,-1,804,1184,0,0
-413,-160,0,0,0,0,0,0,0,0,0,-1,811,1184,0,0
-406,-160,0,0,0,0,0,0,0,0,0,-1,818,1184,0,0
-399,-160,0,0,0,0,0,0,0,0,0,-1,825,1184,0,0
-392,-160,0,0,0,0,0,0,0,0,0,-1,832,1184,0,0
-385,-160,0,0,0,0,0,0,0,0,0,-1,839,1184,0,0
-378,-160,0,0,0,0,0,0,0,0,0,-1,846,1184,0,0
-371,-160,0,0,0,0,0,0,0,0,0,-1,853,1184,0,0
-364,-160,0,0,0,0,0,0,0,0,0,-1,860,1184,0,0
-357,-160,0,0,0,0,0,0,0,0,0,-1,867,1184,0,0
-350,-160,0,0,0,0,0,0,0,0,0,-1,874,1184,0,0
-343,-160,0,0,0,0,0,0,0,0,0,-1,881,1184,0,0
-336,-160,0,0,0,0,0,0,0,0,0,-1,888,1184,0,0
-329,-160,0,0,0,0,0,0,0,0,0,-1,895,1184,0,0
-322,-160,0,0,0,0,0,0,0,0,0,-1,902,1184,0,0
-315,-160,0,0,0,0,0,0,0,0,0,-1,909,1184,0,0
-308,-160,0,0,0,0,0,0,0,0,0,-1,916,1184,0,0
-301,-160,0,0,0,0,0,0,0,0,0,-1,923,1184,0,0
-294,-160,0,0,0,0,0,0,0,0,0,-1,930,1184,0,0
-287,-160,0,0,0,0,0,0,0,0,0,-1,937,1184,0,0
-280,-160,0,0,0,0,0,0,0,0,0,-1,944,1184,0,0
-273,-160,0,0,0,0,0,0,0,0,0,-1,951,1184,0,0
-266,-160,0,0,0,0,0,0,0,0,0,-1,958,1184,0,0
-259,-160,0,0,0,0,0,0,0,0,0,-1,965,1184,0,0
-252,-160,0,0,0,0,0,0,0,0,0,-1,972,1184,0,0
-245,-160,0,0,0,0,0,0,0,0,0,-1,979,1184,0,0
-238,-160,0,0,0,0,0,0,0,0,0,-1,986,1184,0,0
-231,-160,0,0,0,0,0,0,0,0,0,-1,993,1184,0,0
-224,-160,0,0,0,0,0,0,0,0,0,-1,1000,1184,0,0
-217,-160,0,0,0,0,0,0,0,0,0,-1,1007,1184,0,0
-210,-160,0,0,0,0,0,0,0,0,0,-1,1014,1184,0,0
-203,-160,0,0,0,0,0,0,0,0,0,-1,1021,1184,0,0
-196,-160,0,0,0,0,0,0,0,0,0,-1,1028,1184,0,0
-189,-160,0,0,0,0,0,0,0,0,0,-1,1035,1184,0,0
-182,-160,0,0,0,0,0,0,0,0,0,-1,1042,1184,0,0
-175,-160,0,0,0,0,0,0,0,0,0,-1,1049,1184,0,0
-168,-160,0,0,0,0,0,0,0,0,0,-1,1056,1184,0,0
-161,-160,0,0,0,0,0,0,0,0,0,-1,1063,1184,0,0
-154,-160,0,0,0,0,0,0,0,0,0,-1,1070,1184,0,0
-147,-160,0,0,0,0,0,0,0,0,0,-1,1077,1184,0,0
-140,-160,0,0,0,0,0,0,0,0,0,-1,1084,1184,0,0
-133,-160,0,0,0,0,0,0,0,0,0,-1,1091,1184,0,0
-126,-160,0,0,0,0,0,0,0,0,0,-1,1098,1184,0,0
-119,-160,0,0,0,0,0,0,0,0,0,-1,1105,1184,0,0
-112,-160,0,0,0,0,0,0,0,0,0,-1,1112,1184,0,0
-105,-160,0,0,0,0,0,0,0,0,0,-1,1119,1184,0,0
-98,-160,0,0,0,0,0,0,0,0,0,-1,1126,1184,0,0
-91,-160,0,0,0,0,0,0,0,0,0,-1,1133,1184,0,0
-84,-160,0,0,0,0,0,0,0,0,0,-1,1140,1184,0,0
-77,-160,0,0,0,0,0,0,0,0,0,-1,1147,1184,0,0
-70,-160,0,0,0,0,0,0,0,0,0,-1,1154,1184,0,0
-63,-160,0,0,0,0,0,0,0,0,0,-1,1161,1184,0,0
-56,-160,0,0,0,0,0,0,0,0,0,-1,1168,1184,0,0
-49,-160,0,0,0,0,0,0,0,0,0,-1,1175,1184,0,0
-42,-160,0,0,0,0,0,0,0,0,0,-1,1182,1184,0,0
-35,-160,0,0,0,0,0,0,0,0,0,-1,1189,1184,0,0
-28,-160,0,0,0,0,0,0,0,0,0,-1,1196,1184,0,0
-21,-160,0,0,0,0,0,0,0,0,0,-1,1203,1184,0,0
-14,-160,0,0,0,0,0,0,0,0,0,-1,1210,1184,0,0
-7,-160,0,0,0,0,0,0,0,0,0,-1,1217,1184,0,0
0,-160,0,0,0,0,0,0,0,0,0,-1,1224,1184,0,0
7,-160,0,0,0,0,0,0,0,0,0,-1,1231,1184,0,0
14,-160,0,0,0,0,0,0,0,0,0,-1,1238,1184,0,0
21,-160,0,0,0,0,0,0,0,0,0,-1,1245,1184,0,0
28,-160,0,0,0,0,0,0,0,0,0,-1,1252,1184,0,0
35,-160,0,0,0,0,0,0,0,0,0,-1,1259,1184,0,0
42,-160,0,0,0,0,0,0,0,0,0,-1,1266,1184,0,0
49,-160,0,0,0,0,0,0,0,0,0,-1,1273,1184,0,0
56,-160,0,0,0,0,0,0,0,0,0,-1,1280,1184,0,0
63,-160,0,0,0,0,0,0,0,0,0,-1,1287,1184,0,0
70,-160,0,0,0,0,0,0,0,0,0,-1,1294,1184,0,0
77,-160,0,0,0,0,0,0,0,0,0,-1,1301,1184,0,0
84,-160,0,0,0,0,0,0,0,0,0,-1,1308,1184,0,0
91,-160,0,0,0,0,0,0,0,0,0,-1,1315,1184,0,0
98,-160,0,0,0,0,0,0,0,0,0,-1,1322,1184,0,0
105,-160,0,0,0,0,0,0,0,0,0,-1,1329,1184,0,0
112,-160,0,0,0,0,0,0,0,0,0,-1,1336,1184,0,0
119,-160,0,0,0,0,0,0,0,0,0,-1,1343,1184,0,0
126,-160,0,0,0,0,0,0,0,0,0,-1,1350,1184,0,0
133,-160,0,0,0,0,0,0,0,0,0,-1,1357,1184,0,0
140,-160,0,0,0,0,0,0,0,0,0,-1,1364,1184,0,0
147,-160,0,0,0,0,0,0,0,0,0,-1,1371,1184,0,0
154,-160,0,0,0,0,0,0,0,0,0,-1,1378,1184,0,0
161,-160,0,0,0,0,0,0,0,0,0,-1,1385,1184,0,0
168,-160,0,0,0,0,0,0,0,0,0,-1,1392,1184,0,0
175,-160,0,0,0,0,0,0,0,0,0,-1,1399,1184,0,0
182,-160,0,0,0,0,0,0,0,0,0,-1,1406,1184,0,0
189,-160,0,0,0,0,0,0,0,0,0,-1,1413,1184,0,0
196,-160,0,0,0,0,0,0,0,0,0,-1,1420,1184,0,0
203,-160,0,0,0,0,0,0,0,0,0,-1,1427,1184,0,0
210,-160,0,0,0,0,0,0,0,0,0,-1,1434,1184,0,0
217,-160,0,0,0,0,0,0,0,0,0,-1,1441,1184,0,0
224,-160,0,0,0,0,0,0,0,0,0,-1,1448,1184,0,0
231,-160,0,0,0,0,0,0,0,0,0,-1,1455,1184,0,0
238,-160,0,0,0,0,0,0,0,0,0,-1,1462,1184,0,0
245,-160,0,0,0,0,0,0,0,0,0,-1,1469,1184,0,0
252,-160,0,0,0,0,0,0,0,0,0,-1,1476,1184,0,0
259,-160,0,0,0,0,0,0,0,0,0,-1,1483,1184,0,0
266,-160,0,0,0,0,0,0,0,0,0,-1,1490,1184,0,0
273,-160,0,0,0,0,0,0,0,0,0,-1,1497,1184,0,0
280,-160,0,0,0,0,0,0,0,0,0,-1,1504,1184,0,0
287,-160,0,0,0,0,0,0,0,0,0,-1,1511,1184,0,0
294,-160,0,0,0,0,0,0,0,0,0,-1,1518,1184,0,0
301,-160,0,0,0,0,0,0,0,0,0,-1,1525,1184,0,0
308,-160,0,0,0,0,0,0,0,0,0,-1,1532,1184,0,0
315,-160,0,0,0,0,0,0,0,0,0,-1,1539,1184,0,0
322,-160,0,0,0,0,0,0,0,0,0,-1,1546,1184,0,0
329,-160,0,0,0,0,0,0,0,0,0,-1,1553,1184,0,0
336,-160,0,0,0,0,0,0,0,0,0,-1,1560,1184,0,0
343,-160,0,0,0,0,0,0,0,0,0,-1,1567,1184,0,0
350,-160,0,0,0,0,0,0,0,0,0,-1,1574,1184,0,0
357,-160,0,0,0,0,0,0,0,0,0,-1,1581,1184,0,0
364,-160,0,0,0,0,0,0,0,0,0,-1,1588,1184,0,0
371,-160,0,0,0,0,0,0,0,0,0,-1,1595,1184,0,0
378,-160,0,0,0,0,0,0,0,0,0,-1,1602,1184,0,0
385,-160,0,0,0,0,0,0,0,0,0,-1,1609,1184,0,0
392,-160,0,0,0,0,0,0,0,0,0,-1,1616,1184,0,0
399,-160,0,0,0,0,0,0,0,0,0,-1,1623,1184,0,0
406,-160,0,0,0,0,0,0,0,0,0,-1,1630,1184,0,0
413,-160,0,0,0,0,0,0,0,0,0,-1,1637,1184,0,0
420,-160,0,0,0,0,0,0,0,0,0,-1,1644,1184,0,0
427,-160,0,0,0,0,0,0,0,0,0,-1,1651,1184,0,0
434,-160,0,0,0,0,0,0,0,0,0,-1,1658,1184,0,0
441,-160,0,0,0,0,0,0,0,0,0,-1,1665,1184,0,0
448,-160,0,0,0,0,0,0,0,0,0,-1,1672,1184,0,0
455,-160,0,0,0,0,0,0,0,0,0,-1,1679,1184,0,0
462,-160,0,0,0,0,0,0,0,0,0,-1,1686,1184,0,0
469,-160,0,0,0,0,0,0,0,0,0,-1,1693,1184,0,0
476,-160,0,0,0,0,0,0,0,0,0,-1,1700,1184,0,0
483,-160,0,0,0,0,0,0,0,0,0,-1,1707,1184,0,0
490,-160,0,0,0,0,0,0,0,0,0,-1,1714,1184,0,0
497,-160,0,0,0,0,0,0,0,0,0,-1,1721,1184,0,0
504,-160,0,0,0,0,0,0,0,0,0,-1,1728,1184,0,0
511,-160,0,0,0,0,0,0,0,0,0,-1,1735,1184,0,0
518,-160,0,0,0,0,0,0,0,0,0,-1,1742,1184,0,0
525,-160,0,0,0,0,0,0,0,0,0,-1,1749,1184,0,0
532,-160,0,0,0,0,0,0,0,0,0,-1,1756,1184,0,0
539,-160,0,0,0,0,0,0,0,0,0,-1,1763,1184,0,0
546,-160,0,0,0,0,0,0,0,0,0,-1,1770,1184,0,0
553,-160,0,0,0,0,0,0,0,0,0,-1,1777,1184,0,0
560,-160,0,0,0,0,0,0,0,0,0,-1,1784,1184,0,0
567,-160,0,0,0,0,0,0,0,0,0,-1,1791,1184,0,0
574,-160,0,0,0,0,0,0,0,0,0,-1,1798,1184,0,0
581,-160,0,0,0,0,0,0,0,0,0,-1,1805,1184,0,0
588,-160,0,0,0,0,0,0,0,0,0,-1,1812,1184,0,0
595,-160,0,0,0,0,0,0,0,0,0,-1,1819,1184,0,0
602,-160,0,0,0,0,0,0,0,0,0,-1,1826,1184,0,0
609,-160,0,0,0,0,0,0,0,0,0,-1,1833,1184,0,0
616,-160,0,0,0,0,0,0,0,0,0,-1,1840,1184,0,0
623,-160,0,0,0,0,0,0,0,0,0,-1,1847,1184,0,0
630,-160,0,0,0,0,0,0,0,0,0,-1,1854,1184,0,0
637,-160,235.172,8.70508,0,0,0,0,0,0,0,-1,1861,1184,235.172,-8.70509
644,-160,235.205,8.49695,0,0,0,0,0,0,0,-1,1868,1184,235.205,-8.49697
651,-160,235.243,8.35583,0,0,0,0,0,0,0,-1,1875,1184,235.243,-8.35588
658,-160,235.135,8.48047,0,0,0,0,0,0,0,-1,1882,1184,235.135,-8.48042
665,-160,235.138,8.62915,0,0,0,0,0,0,0,-1,1889,1184,235.138,-8.62917
672,-160,235.149,8.70923,0,0,0,0,0,0,0,-1,1896,1184,235.149,-8.7092
679,-160,235.1,8.73059,0,0,0,0,0,0,0,-1,1903,1184,235.1,-8.73064
686,-160,235.137,8.60889,0,0,0,0,0,0,0,-1,1910,1184,235.137,-8.60885
693,-160,235.3,8.40527,0,0,0,0,0,0,0,-1,1917,1184,235.3,-8.40525
700,-160,42.8784,2.44617,0,0,0,0,0,0,0,-1,1924,1184,42.8785,-2.4462
707,-160,24.5115,6.27405,0,0,0,0,0,0,0,-1,1931,1184,24.5115,-6.27401
714,-160,35.6892,6.8905,0,0,0,0,0,0,0,-1,1938,1184,35.6892,-6.89048
721,-160,36.2388,6.37878,0,0,0,0,0,0,0,-1,1945,1184,36.2388,-6.37876
728,-160,52.2174,8.57385,0,0,0,0,0,0,0,-1,1952,1184,52.2174,-8.57381
735,-160,231.517,32.172,0,0,0,0,0,0,0,-1,1959,1184,231.517,-32.172
742,-160,231.364,30.4637,-0.00798695,0.0279245,0.0049291,0.0285887,-0.00865122,1.43684,0.0225042,0.0314923,1966,1184,231.364,-30.4638
749,-160,231.345,29.4891,-0.0117321,0.0337489,0.0073825,0.0349172,-0.0129004,1.41384,0.0285663,0.0271224,1973,1184,231.345,-29.4892
756,-160,231.188,28.6085,-0.0154044,0.0394584,0.0101028,0.0412597,-0.0172057,1.39436,0.0346942,0.0202079,1980,1184,231.188,-28.6086
763,-160,230.835,27.8118,0,0,0,0,0,0,0,-1,1987,1184,230.835,-27.8117
770,-160,230.585,26.9904,-0.0224538,0.0503516,0.0165655,0.0539436,-0.0260458,1.35727,0.0471088,0.0381723,1994,1184,230.585,-26.9903
777,-160,230.332,26.1703,-0.0256031,0.05569,0.0204405,0.0605402,-0.0304533,1.33782,0.0534839,0.048326,2001,1184,230.332,-26.1703
784,-160,230.29,25.2531,0,0,0,0,0,0,0,-1,2008,1184,230.29,-25.2531
791,-160,229.603,25.9014,0,0,0,0,0,0,0,-1,2015,1184,229.603,-25.9014
798,-160,201.334,25.6141,0,0,0,0,0,0,0,-1,2022,1184,201.335,-25.6141
805,-160,201.37,24.9214,0,0,0,0,0,0,0,-1,2029,1184,201.37,-24.9214
812,-160,0,0,0,0,0,0,0,0,0,-1,2036,1184,0,0
-700,-167,0,0,0,0,0,0,0,0,0,-1,524,1191,0,0
-693,-167,0,0,0,0,0,0,0,0,0,-1,531,1191,0,0
-686,-167,-181.577,17.9915,0,0,0,0,0,0,0,-1,538,1191,-181.577,-17.9914
-679,-167,-180.486,19.9419,0,0,0,0,0,0,0,-1,545,1191,-180.486,-19.9419
-672,-167,-183.377,20.8622,0,0,0,0,0,0,0,-1,552,1191,-183.377,-20.8622
-665,-167,-182.894,22.3654,0,0,0,0,0,0,0,-1,559,1191,-182.894,-22.3654
-658,-167,-183.22,23.9731,0,0,0,0,0,0,0,-1,566,1191,-183.22,-23.9731
-651,-167,-182.867,24.7874,0,0,0,0,0,0,0,-1,573,1191,-182.867,-24.7874
-644,-167,-222.696,25.293,0,0,0,0,0,0,0,-1,580,1191,-222.696,-25.293
-637,-167,-222.956,25.8706,-0.0308857,0.0512653,-0.0227849,0.0571616,-0.036782,-1.31757,0.0546621,0.0481103,587,1191,-222.956,-25.8706
-630,-167,-223.344,26.4597,-0.0255916,0.0492964,-0.0185036,0.0536189,-0.029914,-1.34131,0.0488708,0.0241561,594,1191,-223.344,-26.4597
-623,-167,-223.717,27.3354,-0.0204739,0.0472454,-0.0143611,0.050165,-0.0233935,-1.37023,0.0433965,0.0400366,601,1191,-223.717,-27.3354
-616,-167,-224.026,28.1451,0,0,0,0,0,0,0,-1,608,1191,-224.026,-28.1451
-609,-167,-188.495,31.2517,0,0,0,0,0,0,0,-1,615,1191,-188.495,-31.2517
-602,-167,-171.534,32.4463,0,0,0,0,0,0,0,-1,622,1191,-171.534,-32.4463
-595,-167,-53.8502,10.2292,0,0,0,0,0,0,0,-1,629,1191,-53.8502,-10.2292
-588,-167,-42.7112,7.92004,0,0,0,0,0,0,0,-1,636,1191,-42.7112,-7.92007
-581,-167,-32.8646,6.30542,0,0,0,0,0,0,0,-1,643,1191,-32.8646,-6.30537
-574,-167,-32.4808,7.37524,0,0,0,0,0,0,0,-1,650,1191,-32.4808,-7.37525
-567,-167,-27.3643,2.55859,0,0,0,0,0,0,0,-1,657,1191,-27.3643,-2.55864
-560,-167,-48.2598,0.834839,0,0,0,0,0,0,0,-1,664,1191,-48.2598,-0.834822
-553,-167,-71.9608,0.495361,0,0,0,0,0,0,0,-1,671,1191,-71.9607,-0.495325
-546,-167,-71.9877,0.515503,0,0,0,0,0,0,0,-1,678,1191,-71.9877,-0.515464
-539,-167,-71.9675,0.487549,0,0,0,0,0,0,0,-1,685,1191,-71.9675,-0.487605
-532,-167,-71.9727,0.365723,0,0,0,0,0,0,0,-1,692,1191,-71.9727,-0.36578
-525,-167,-72.0439,0.532471,0,0,0,0,0,0,0,-1,699,1191,-72.0439,-0.532526
-518,-167,-72.0834,0.718506,0,0,0,0,0,0,0,-1,706,1191,-72.0834,-0.718521
-511,-167,0,0,0,0,0,0,0,0,0,-1,713,1191,0,0
-504,-167,0,0,0,0,0,0,0,0,0,-1,720,1191,0,0
-497,-167,0,0,0,0,0,0,0,0,0,-1,727,1191,0,0
-490,-167,0,0,0,0,0,0,0,0,0,-1,734,1191,0,0
-483,-167,0,0,0,0,0,0,0,0,0,-1,741,1191,0,0
-476,-167,0,0,0,0,0,0,0,0,0,-1,748,1191,0,0
-469,-167,0,0,0,0,0,0,0,0,0,-1,755,1191,0,0
-462,-167,0,0,0,0,0,0,0,0,0,-1,762,1191,0,0
-455,-167,0,0,0,0,0,0,0,0,0,-1,769,1191,0,0
-448,-167,0,0,0,0,0,0,0,0,0,-1,776,1191,0,0
-441,-167,0,0,0,0,0,0,0,0,0,-1,783,1191,0,0
-434,-167,0,0,0,0,0,0,0,0,0,-1,790,1191,0,0
-427,-167,0,0,0,0,0,0,0,0,0,-1,797,1191,0,0
-420,-167,0,0,0,0,0,0,0,0,0,-1,804,1191,0,0
-413,-167,0,0,0,0,0,0,0,0,0,-1,811,1191,0,0
-406,-167,0,0,0,0,0,0,0,0,0,-1,818,1191,0,0
-399,-167,0,0,0,0,0,0,0,0,0,-1,825,1191,0,0
-392,-167,0,0,0,0,0,0,0,0,0,-1,832,1191,0,0
-385,-167,0,0,0,0,0,0,0,0,0,-1,839,1191,0,0
-378,-167,0,0,0,0,0,0,0,0,0,-1,846,1191,0,0
-371,-167,0,0,0,0,0,0,0,0,0,-1,853,1191,0,0
-364,-167,0,0,0,0,0,0,0,0,0,-1,860,1191,0,0
-357,-167,0,0,0,0,0,0,0,0,0,-1,867,1191,0,0
-350,-167,0,0,0,0,0,0,0,0,0,-1,874,1191,0,0
-343,-167,0,0,0,0,0,0,0,0,0,-1,881,1191,0,0
-336,-167,0,0,0,0,0,0,0,0,0,-1,888,1191,0,0
-329,-167,0,0,0,0,0,0,0,0,0,-1,895,1191,0,0
-322,-167,0,0,0,0,0,0,0,0,0,-1,902,1191,0,0
-315,-167,0,0,0,0,0,0,0,0,0,-1,909,1191,0,0
-308,-167,0,0,0,0,0,0,0,0,0,-1,916,1191,0,0
-301,-167,0,0,0,0,0,0,0,0,0,-1,923,1191,0,0
-294,-167,0,0,0,0,0,0,0,0,0,-1,930,1191,0,0
-287,-167,0,0,0,0,0,0,0,0,0,-1,937,1191,0,0
-280,-167,0,0,0,0,0,0,0,0,0,-1,944,1191,0,0
-273,-167,0,0,0,0,0,0,0,0,0,-1,951,1191,0,0
-266,-167,0,0,0,0,0,0,0,0,0,-1,958,1191,0,0
-259,-167,0,0,0,0,0,0,0,0,0,-1,965,1191,0,0
-252,-167,0,0,0,0,0,0,0,0,0,-1,972,1191,0,0
-245,-167,0,0,0,0,0,0,0,0,0,-1,979,1191,0,0
-238,-167,0,0,0,0,0,0,0,0,0,-1,986,1191,0,0
-231,-167,0,0,0,0,0,0,0,0,0,-1,993,1191,0,0
-224,-167,0,0,0,0,0,0,0,0,0,-1,1000,1191,0,0
-217,-167,0,0,0,0,0,0,0,0,0,-1,1007,1191,0,0
-210,-167,0,0,0,0,0,0,0,0,0,-1,1014,1191,0,0
-203,-167,0,0,0,0,0,0,0,0,0,-1,1021,1191,0,0
-196,-167,0,0,0,0,0,0,0,0,0,-1,1028,1191,0,0
-189,-167,0,0,0,0,0,0,0,0,0,-1,1035,1191,0,0
-182,-167,0,0,0,0,0,0,0,0,0,-1,1042,1191,0,0
-175,-167,0,0,0,0,0,0,0,0,0,-1,1049,1191,0,0
-168,-167,0,0,0,0,0,0,0,0,0,-1,1056,1191,0,0
-161,-167,0,0,0,0,0,0,0,0,0,-1,1063,1191,0,0
-154,-167,0,0,0,0,0,0,0,0,0,-1,1070,1191,0,0
-147,-167,0,0,0,0,0,0,0,0,0,-1,1077,1191,0,0
-140,-167,0,0,0,0,0,0,0,0,0,-1,1084,1191,0,0
-133,-167,0,0,0,0,0,0,0,0,0,-1,1091,1191,0,0
-126,-167,0,0,0,0,0,0,0,0,0,-1,1098,1191,0,0
-119,-167,0,0,0,0,0,0,0,0,0,-1,1105,1191,0,0
-112,-167,0,0,0,0,0,0,0,0,0,-1,1112,1191,0,0
-105,-167,0,0,0,0,0,0,0,0,0,-1,1119,1191,0,0
-98,-167,0,0,0,0,0,0,0,0,0,-1,1126,1191,0,0
-91,-167,0,0,0,0,0,0,0,0,0,-1,1133,1191,0,0
-84,-167,0,0,0,0,0,0,0,0,0,-1,1140,1191,0,0
-77,-167,0,0,0,0,0,0,0,0,0,-1,1147,1191,0,0
-70,-167,0,0,0,0,0,0,0,0,0,-1,1154,1191,0,0
-63,-167,0,0,0,0,0,0,0,0,0,-1,1161,1191,0,0
-56,-167,0,0,0,0,0,0,0,0,0,-1,1168,1191,0,0
-49,-167,0,0,0,0,0,0,0,0,0,-1,1175,1191,0,0
-42,-167,0,0,0,0,0,0,0,0,0,-1,1182,1191,0,0
-35,-167,0,0,0,0,0,0,0,0,0,-1,1189,1191,0,0
-28,-167,0,0,0,0,0,0,0,0,0,-1,1196,1191,0,0
-21,-167,0,0,0,0,0,0,0,0,0,-1,1203,1191,0,0
-14,-167,0,0,0,0,0,0,0,0,0,-1,1210,1191,0,0
-7,-167,0,0,0,0,0,0,0,0,0,-1,1217,1191,0,0
0,-167,0,0,0,0,0,0,0,0,0,-1,1224,1191,0,0
7,-167,0,0,0,0,0,0,0,0,0,-1,1231,1191,0,0
14,-167,0,0,0,0,0,0,0,0,0,-1,1238,1191,0,0
21,-167,0,0,0,0,0,0,0,0,0,-1,1245,1191,0,0
28,-167,0,0,0,0,0,0,0,0,0,-1,1252,1191,0,0
35,-167,0,0,0,0,0,0,0,0,0,-1,1259,1191,0,0
42,-167,0,0,0,0,0,0,0,0,0,-1,1266,1191,0,0
49,-167,0,0,0,0,0,0,0,0,0,-1,1273,1191,0,0
56,-167,0,0,0,0,0,0,0,0,0,-1,1280,1191,0,0
63,-167,0,0,0,0,0,0,0,0,0,-1,1287,1191,0,0
70,-167,0,0,0,0,0,0,0,0,0,-1,1294,1191,0,0
77,-167,0,0,0,0,0,0,0,0,0,-1,1301,1191,0,0
84,-167,0,0,0,0,0,0,0,0,0,-1,1308,1191,0,0
91,-167,0,0,0,0,0,0,0,0,0,-1,1315,1191,0,0
98,-167,0,0,0,0,0,0,0,0,0,-1,1322,1191,0,0
105,-167,0,0,0,0,0,0,0,0,0,-1,1329,1191,0,0
112,-167,0,0,0,0,0,0,0,0,0,-1,1336,1191,0,0
119,-167,0,0,0,0,0,0,0,0,0,-1,1343,1191,0,0
126,-167,0,0,0,0,0,0,0,0,0,-1,1350,1191,0,0
133,-167,0,0,0,0,0,0,0,0,0,-1,1357,1191,0,0
140,-167,0,0,0,0,0,0,0,0,0,-1,1364,1191,0,0
147,-167,0,0,0,0,0,0,0,0,0,-1,1371,1191,0,0
154,-167,0,0,0,0,0,0,0,0,0,-1,1378,1191,0,0
161,-167,0,0,0,0,0,0,0,0,0,-1,1385,1191,0,0
168,-167,0,0,0,0,0,0,0,0,0,-1,1392,1191,0,0
175,-167,0,0,0,0,0,0,0,0,0,-1,1399,1191,0,0
182,-167,0,0,0,0,0,0,0,0,0,-1,1406,1191,0,0
189,-167,0,0,0,0,0,0,0,0,0,-1,1413,1191,0,0
196,-167,0,0,0,0,0,0,0,0,0,-1,1420,1191,0,0
203,-167,0,0,0,0,0,0,0,0,0,-1,1427,1191,0,0
210,-167,0,0,0,0,0,0,0,0,0,-1,1434,1191,0,0
217,-167,0,0,0,0,0,0,0,0,0,-1,1441,1191,0,0
224,-167,0,0,0,0,0,0,0,0,0,-1,1448,1191,0,0
231,-167,0,0,0,0,0,0,0,0,0,-1,1455,1191,0,0
238,-167,0,0,0,0,0,0,0,0,0,-1,1462,1191,0,0
245,-167,0,0,0,0,0,0,0,0,0,-1,1469,1191,0,0
252,-167,0,0,0,0,0,0,0,0,0,-1,1476,1191,0,0
259,-167,0,0,0,0,0,0,0,0,0,-1,1483,1191,0,0
266,-167,0,0,0,0,0,0,0,0,0,-1,1490,1191,0,0
273,-167,0,0,0,0,0,0,0,0,0,-1,1497,1191,0,0
280,-167,0,0,0,0,0,0,0,0,0,-1,1504,1191,0,0
287,-167,0,0,0,0,0,0,0,0,0,-1,1511,1191,0,0
294,-167,0,0,0,0,0,0,0,0,0,-1,1518,1191,0,0
301,-167,0,0,0,0,0,0,0,0,0,-1,1525,1191,0,0
308,-167,0,0,0,0,0,0,0,0,0,-1,1532,1191,0,0
315,-167,0,0,0,0,0,0,0,0,0,-1,1539,1191,0,0
322,-167,0,0,0,0,0,0,0,0,0,-1,1546,1191,0,0
329,-167,0,0,0,0,0,0,0,0,0,-1,1553,1191,0,0
336,-167,0,0,0,0,0,0,0,0,0,-1,1560,1191,0,0
343,-167,0,0,0,0,0,0,0,0,0,-1,1567,1191,0,0
350,-167,0,0,0,0,0,0,0,0,0,-1,1574,1191,0,0
357,-167,0,0,0,0,0,0,0,0,0,-1,1581,1191,0,0
364,-167,0,0,0,0,0,0,0,0,0,-1,1588,1191,0,0
371,-167,0,0,0,0,0,0,0,0,0,-1,1595,1191,0,0
378,-167,0,0,0,0,0,0,0,0,0,-1,1602,1191,0,0
385,-167,0,0,0,0,0,0,0,0,0,-1,1609,1191,0,0
392,-167,0,0,0,0,0,0,0,0,0,-1,1616,1191,0,0
399,-167,0,0,0,0,0,0,0,0,0,-1,1623,1191,0,0
406,-167,0,0,0,0,0,0,0,0,0,-1,1630,1191,0,0
413,-167,0,0,0,0,0,0,0,0,0,-1,1637,1191,0,0
420,-167,0,0,0,0,0,0,0,0,0,-1,1644,1191,0,0
427,-167,0,0,0,0,0,0,0,0,0,-1,1651,1191,0,0
434,-167,0,0,0,0,0,0,0,0,0,-1,1658,1191,0,0
441,-167,0,0,0,0,0,0,0,0,0,-1,1665,1191,0,0
448,-167,0,0,0,0,0,0,0,0,0,-1,1672,1191,0,0
455,-167,0,0,0,0,0,0,0,0,0,-1,1679,1191,0,0
462,-167,0,0,0,0,0,0,0,0,0,-1,1686,1191,0,0
469,-167,0,0,0,0,0,0,0,0,0,-1,1693,1191,0,0
476,-167,0,0,0,0,0,0,0,0,0,-1,1700,1191,0,0
483,-167,0,0,0,0,0,0,0,0,0,-1,1707,1191,0,0
490,-167,0,0,0,0,0,0,0,0,0,-1,1714,1191,0,0
497,-167,0,0,0,0,0,0,0,0,0,-1,1721,1191,0,0
504,-167,0,0,0,0,0,0,0,0,0,-1,1728,1191,0,0
511,-167,0,0,0,0,0,0,0,0,0,-1,1735,1191,0,0
518,-167,0,0,0,0,0,0,0,0,0,-1,1742,1191,0,0
525,-167,0,0,0,0,0,0,0,0,0,-1,1749,1191,0,0
532,-167,0,0,0,0,0,0,0,0,0,-1,1756,1191,0,0
539,-167,0,0,0,0,0,0,0,0,0,-1,1763,1191,0,0
546,-167,0,0,0,0,0,0,0,0,0,-1,1770,1191,0,0
553,-167,0,0,0,0,0,0,0,0,0,-1,1777,1191,0,0
560,-167,0,0,0,0,0,0,0,0,0,-1,1784,1191,0,0
567,-167,0,0,0,0,0,0,0,0,0,-1,1791,1191,0,0
574,-167,0,0,0,0,0,0,0,0,0,-1,1798,1191,0,0
581,-167,0,0,0,0,0,0,0,0,0,-1,1805,1191,0,0
588,-167,0,0,0,0,0,0,0,0,0,-1,1812,1191,0,0
595,-167,0,0,0,0,0,0,0,0,0,-1,1819,1191,0,0
602,-167,0,0,0,0,0,0,0,0,0,-1,1826,1191,0,0
609,-167,0,0,0,0,0,0,0,0,0,-1,1833,1191,0,0
616,-167,0,0,0,0,0,0,0,0,0,-1,1840,1191,0,0
623,-167,0,0,0,0,0,0,0,0,0,-1,1847,1191,0,0
630,-167,0,0,0,0,0,0,0,0,0,-1,1854,1191,0,0
637,-167,235.279,8.57886,0,0,0,0,0,0,0,-1,1861,1191,235.279,-8.57884
644,-167,235.238,8.43274,0,0,0,0,0,0,0,-1,1868,1191,235.238,-8.43279
651,-167,235.193,8.44702,0,0,0,0,0,0,0,-1,1875,1191,235.193,-8.44699
658,-167,234.989,8.60571,0,0,0,0,0,0,0,-1,1882,1191,234.989,-8.6057
665,-167,235.044,8.73059,0,0,0,0,0,0,0,-1,1889,1191,235.044,-8.73065
672,-167,235.095,8.71777,0,0,0,0,0,0,0,-1,1896,1191,235.095,-8.71774
679,-167,235.08,8.6405,0,0,0,0,0,0,0,-1,1903,1191,235.08,-8.64047
686,-167,235.15,8.4187,0,0,0,0,0,0,0,-1,1910,1191,235.15,-8.4187
693,-167,83.0426,2.22205,0,0,0,0,0,0,0,-1,1917,1191,83.0426,-2.22204
700,-167,28.0459,2.70508,0,0,0,0,0,0,0,-1,1924,1191,28.0459,-2.70513
707,-167,29.4708,7.10168,0,0,0,0,0,0,0,-1,1931,1191,29.4708,-7.10172
714,-167,35.9202,6.84668,0,0,0,0,0,0,0,-1,1938,1191,35.9202,-6.84664
721,-167,36.2072,6.38892,0,0,0,0,0,0,0,-1,1945,1191,36.2072,-6.38891
728,-167,229.749,32.953,0,0,0,0,0,0,0,-1,1952,1191,229.749,-32.953
735,-167,230.212,31.8918,-0.0027744,0.0245376,0.00244546,0.0247549,-0.00299163,1.4822,0.0175855,0.0460123,1959,1191,230.212,-31.8919
742,-167,230.276,30.4921,-0.00707875,0.0297662,0.00486114,0.0303968,-0.00770932,1.4418,0.023264,0.0281782,1966,1191,230.276,-30.4921
749,-167,230.164,29.4132,-0.0112751,0.0349868,0.00745881,0.0361597,-0.012448,1.41483,0.0291554,0.0226517,1973,1191,230.164,-29.4132
756,-167,230.065,28.4551,-0.0153523,0.0401533,0.0102842,0.0419975,-0.0171965,1.39336,0.0351614,0.0187121,1980,1191,230.065,-28.4551
763,-167,229.648,27.4374,-0.0192956,0.045209,0.0133937,0.0478795,-0.0219661,1.37399,0.0412401,0.0238619,1987,1191,229.648,-27.4374
770,-167,229.225,26.4419,0,0,0,0,0,0,0,-1,1994,1191,229.225,-26.442
777,-167,229.077,26.0394,0,0,0,0,0,0,0,-1,2001,1191,229.077,-26.0394
784,-167,228.316,26.2039,0,0,0,0,0,0,0,-1,2008,1191,228.316,-26.2039
791,-167,200.445,25.1343,0,0,0,0,0,0,0,-1,2015,1191,200.445,-25.1342
798,-167,200.385,24.8876,0,0,0,0,0,0,0,-1,2022,1191,200.385,-24.8875
805,-167,200.37,24.4675,0,0,0,0,0,0,0,-1,2029,1191,200.37,-24.4675
812,-167,0,0,0,0,0,0,0,0,0,-1,2036,1191,0,0
-700,-174,0,0,0,0,0,0,0,0,0,-1,524,1198,0,0
-693,-174,0,0,0,0,0,0,0,0,0,-1,531,1198,0,0
-686,-174,-181.3,18.2295,0,0,0,0,0,0,0,-1,538,1198,-181.3,-18.2295
-679,-174,-182.095,19.8165,0,0,0,0,0,0,0,-1,545,1198,-182.095,-19.8165
-672,-174,-181.861,21.2617,0,0,0,0,0,0,0,-1,552,1198,-181.861,-21.2617
-665,-174,-181.892,22.6538,0,0,0,0,0,0,0,-1,559,1198,-181.892,-22.6539
-658,-174,-181.998,24.1498,0,0,0,0,0,0,0,-1,566,1198,-181.998,-24.1497
-651,-174,-181.661,25.0159,0,0,0,0,0,0,0,-1,573,1198,-181.661,-25.0159
-644,-174,-194.594,26.0352,0,0,0,0,0,0,0,-1,580,1198,-194.594,-26.0351
-637,-174,-221.66,25.5814,0,0,0,0,0,0,0,-1,587,1198,-221.66,-25.5814
-630,-174,-222.052,26.2323,-0.0256969,0.0499212,-0.0193357,0.0545786,-0.0303543,-1.33443,0.0496964,0.0302575,594,1198,-222.052,-26.2323
-623,-174,-222.299,27.156,-0.0204294,0.0476407,-0.0154801,0.0509957,-0.0237844,-1.35737,0.0441168,0.0244258,601,1198,-222.299,-27.156
-616,-174,-222.402,28.1926,-0.0153571,0.0452058,-0.0117322,0.0473991,-0.0175504,-1.38598,0.0387961,0.031035,608,1198,-222.402,-28.1926
-609,-174,-223.194,29.1456,0,0,0,0,0,0,0,-1,615,1198,-223.194,-29.1457
-602,-174,-220.822,30.5454,0,0,0,0,0,0,0,-1,622,1198,-220.822,-30.5455
-595,-174,-52.4874,10.4403,0,0,0,0,0,0,0,-1,629,1198,-52.4874,-10.4403
-588,-174,-82.5152,19.7214,0,0,0,0,0,0,0,-1,636,1198,-82.5152,-19.7215
-581,-174,-51.1051,11.6198,0,0,0,0,0,0,0,-1,643,1198,-51.1051,-11.6197
-574,-174,-31.7448,7.09595,0,0,0,0,0,0,0,-1,650,1198,-31.7448,-7.09599
-567,-174,-26.6597,3.04041,0,0,0,0,0,0,0,-1,657,1198,-26.6597,-3.04039
-560,-174,-42.6953,1.07178,0,0,0,0,0,0,0,-1,664,1198,-42.6953,-1.07181
-553,-174,-71.9143,0.470703,0,0,0,0,0,0,0,-1,671,1198,-71.9143,-0.470669
-546,-174,-71.9802,0.492554,0,0,0,0,0,0,0,-1,678,1198,-71.9802,-0.492513
-539,-174,-71.983,0.482666,0,0,0,0,0,0,0,-1,685,1198,-71.983,-0.48269
-532,-174,-72.0311,0.235718,0,0,0,0,0,0,0,-1,692,1198,-72.0311,-0.235711
-525,-174,-72.1511,0.398926,0,0,0,0,0,0,0,-1,699,1198,-72.1511,-0.398868
-518,-174,-72.131,0.657959,0,0,0,0,0,0,0,-1,706,1198,-72.131,-0.657944
-511,-174,0,0,0,0,0,0,0,0,0,-1,713,1198,0,0
-504,-174,0,0,0,0,0,0,0,0,0,-1,720,1198,0,0
-497,-174,0,0,0,0,0,0,0,0,0,-1,727,1198,0,0
-490,-174,0,0,0,0,0,0,0,0,0,-1,734,1198,0,0
-483,-174,0,0,0,0,0,0,0,0,0,-1,741,1198,0,0
-476,-174,0,0,0,0,0,0,0,0,0,-1,748,1198,0,0
-469,-174,0,0,0,0,0,0,0,0,0,-1,755,1198,0,0
-462,-174,0,0,0,0,0,0,0,0,0,-1,762,1198,0,0
-455,-174,0,0,0,0,0,0,0,0,0,-1,769,1198,0,0
-448,-174,0,0,0,0,0,0,0,0,0,-1,776,1198,0,0
-441,-174,0,0,0,0,0,0,0,0,0,-1,783,1198,0,0
-434,-174,0,0,0,0,0,0,0,0,0,-1,790,1198,0,0
-427,-174,0,0,0,0,0,0,0,0,0,-1,797,1198,0,0
-420,-174,0,0,0,0,0,0,0,0,0,-1,804,1198,0,0
-413,-174,0,0,0,0,0,0,0,0,0,-1,811,1198,0,0
-406,-174,0,0,0,0,0,0,0,0,0,-1,818,1198,0,0
-399,-174,0,0,0,0,0,0,0,0,0,-1,825,1198,0,0
-392,-174,0,0,0,0,0,0,0,0,0,-1,832,1198,0,0
-385,-174,0,0,0,0,0,0,0,0,0,-1,839,1198,0,0
-378,-174,0,0,0,0,0,0,0,0,0,-1,846,1198,0,0
-371,-174,0,0,0,0,0,0,0,0,0,-1,853,1198,0,0
-364,-174,0,0,0,0,0,0,0,0,0,-1,860,1198,0,0
-357,-174,0,0,0,0,0,0,0,0,0,-1,867,1198,0,0
-350,-174,0,0,0,0,0,0,0,0,0,-1,874,1198,0,0
-343,-174,0,0,0,0,0,0,0,0,0,-1,881,1198,0,0
-336,-174,0,0,0,0,0,0,0,0,0,-1,888,1198,0,0
-329,-174,0,0,0,0,0,0,0,0,0,-1,895,1198,0,0
-322,-174,0,0,0,0,0,0,0,0,0,-1,902,1198,0,0
-315,-174,0,0,0,0,0,0,0,0,0,-1,909,1198,0,0
-308,-174,0,0,0,0,0,0,0,0,0,-1,916,1198,0,0
-301,-174,0,0,0,0,0,0,0,0,0,-1,923,1198,0,0
-294,-174,0,0,0,0,0,0,0,0,0,-1,930,1198,0,0
-287,-174,0,0,0,0,0,0,0,0,0,-1,937,1198,0,0
-280,-174,0,0,0,0,0,0,0,0,0,-1,944,1198,0,0
-273,-174,0,0,0,0,0,0,0,0,0,-1,951,1198,0,0
-266,-174,0,0,0,0,0,0,0,0,0,-1,958,1198,0,0
-259,-174,0,0,0,0,0,0,0,0,0,-1,965,1198,0,0
-252,-174,0,0,0,0,0,0,0,0,0,-1,972,1198,0,0
-245,-174,0,0,0,0,0,0,0,0,0,-1,979,1198,0,0
-238,-174,0,0,0,0,0,0,0,0,0,-1,986,1198,0,0
-231,-174,0,0,0,0,0,0,0,0,0,-1,993,1198,0,0
-224,-174,0,0,0,0,0,0,0,0,0,-1,1000,1198,0,0
-217,-174,0,0,0,0,0,0,0,0,0,-1,1007,1198,0,0
-210,-174,0,0,0,0,0,0,0,0,0,-1,1014,1198,0,0
-203,-174,0,0,0,0,0,0,0,0,0,-1,1021,1198,0,0
-196,-174,0,0,0,0,0,0,0,0,0,-1,1028,1198,0,0
-189,-174,0,0,0,0,0,0,0,0,0,-1,1035,1198,0,0
-182,-174,0,0,0,0,0,0,0,0,0,-1,1042,1198,0,0
-175,-174,0,0,0,0,0,0,0,0,0,-1,1049,1198,0,0
-168,-174,0,0,0,0,0,0,0,0,0,-1,1056,1198,0,0
-161,-174,0,0,0,0,0,0,0,0,0,-1,1063,1198,0,0
-154,-174,0,0,0,0,0,0,0,0,0,-1,1070,1198,0,0
-147,-174,0,0,0,0,0,0,0,0,0,-1,1077,1198,0,0
-140,-174,0,0,0,0,0,0,0,0,0,-1,1084,1198,0,0
-133,-174,0,0,0,0,0,0,0,0,0,-1,1091,1198,0,0
-126,-174,0,0,0,0,0,0,0,0,0,-1,1098,1198,0,0
-119,-174,0,0,0,0,0,0,0,0,0,-1,1105,1198,0,0
-112,-174,0,0,0,0,0,0,0,0,0,-1,1112,1198,0,0
-105,-174,0,0,0,0,0,0,0,0,0,-1,1119,1198,0,0
-98,-174,0,0,0,0,0,0,0,0,0,-1,1126,1198,0,0
-91,-174,0,0,0,0,0,0,0,0,0,-1,1133,1198,0,0
-84,-174,0,0,0,0,0,0,0,0,0,-1,1140,1198,0,0
-77,-174,0,0,0,0,0,0,0,0,0,-1,1147,1198,0,0
-70,-174,0,0,0,0,0,0,0,0,0,-1,1154,1198,0,0
-63,-174,0,0,0,0,0,0,0,0,0,-1,1161,1198,0,0
-56,-174,0,0,0,0,0,0,0,0,0,-1,1168,1198,0,0
-49,-174,0,0,0,0,0,0,0,0,0,-1,1175,1198,0,0
-42,-174,0,0,0,0,0,0,0,0,0,-1,1182,1198,0,0
-35,-174,0,0,0,0,0,0,0,0,0,-1,1189,1198,0,0
-28,-174,0,0,0,0,0,0,0,0,0,-1,1196,1198,0,0
-21,-174,0,0,0,0,0,0,0,0,0,-1,1203,1198,0,0
-14,-174,0,0,0,0,0,0,0,0,0,-1,1210,1198,0,0
-7,-174,0,0,0,0,0,0,0,0,0,-1,1217,1198,0,0
0,-174,0,0,0,0,0,0,0,0,0,-1,1224,1198,0,0
7,-174,0,0,0,0,0,0,0,0,0,-1,1231,1198,0,0
14,-174,0,0,0,0,0,0,0,0,0,-1,1238,1198,0,0
21,-174,0,0,0,0,0,0,0,0,0,-1,1245,1198,0,0
28,-174,0,0,0,0,0,0,0,0,0,-1,1252,1198,0,0
35,-174,0,0,0,0,0,0,0,0,0,-1,1259,1198,0,0
42,-174,0,0,0,0,0,0,0,0,0,-1,1266,1198,0,0
49,-174,0,0,0,0,0,0,0,0,0,-1,1273,1198,0,0
56,-174,0,0,0,0,0,0,0,0,0,-1,1280,1198,0,0
63,-174,0,0,0,0,0,0,0,0,0,-1,1287,1198,0,0
70,-174,0,0,0,0,0,0,0,0,0,-1,1294,1198,0,0
77,-174,0,0,0,0,0,0,0,0,0,-1,1301,1198,0,0
84,-174,0,0,0,0,0,0,0,0,0,-1,1308,1198,0,0
91,-174,0,0,0,0,0,0,0,0,0,-1,1315,1198,0,0
98,-174,0,0,0,0,0,0,0,0,0,-1,1322,1198,0,0
105,-174,0,0,0,0,0,0,0,0,0,-1,1329,1198,0,0
112,-174,0,0,0,0,0,0,0,0,0,-1,1336,1198,0,0
119,-174,0,0,0,0,0,0,0,0,0,-1,1343,1198,0,0
126,-174,0,0,0,0,0,0,0,0,0,-1,1350,1198,0,0
133,-174,0,0,0,0,0,0,0,0,0,-1,1357,1198,0,0
140,-174,0,0,0,0,0,0,0,0,0,-1,1364,1198,0,0
147,-174,0,0,0,0,0,0,0,0,0,-1,1371,1198,0,0
154,-174,0,0,0,0,0,0,0,0,0,-1,1378,1198,0,0
161,-174,0,0,0,0,0,0,0,0,0,-1,1385,1198,0,0
168,-174,0,0,0,0,0,0,0,0,0,-1,1392,1198,0,0
175,-174,0,0,0,0,0,0,0,0,0,-1,1399,1198,0,0
182,-174,0,0,0,0,0,0,0,0,0,-1,1406,1198,0,0
189,-174,0,0,0,0,0,0,0,0,0,-1,1413,1198,0,0
196,-174,0,0,0,0,0,0,0,0,0,-1,1420,1198,0,0
203,-174,0,0,0,0,0,0,0,0,0,-1,1427,1198,0,0
210,-174,0,0,0,0,0,0,0,0,0,-1,1434,1198,0,0
217,-174,0,0,0,0,0,0,0,0,0,-1,1441,1198,0,0
224,-174,0,0,0,0,0,0,0,0,0,-1,1448,1198,0,0
231,-174,0,0,0,0,0,0,0,0,0,-1,1455,1198,0,0
238,-174,0,0,0,0,0,0,0,0,0,-1,1462,1198,0,0
245,-174,0,0,0,0,0,0,0,0,0,-1,1469,1198,0,0
252,-174,0,0,0,0,0,0,0,0,0,-1,1476,1198,0,0
259,-174,0,0,0,0,0,0,0,0,0,-1,1483,1198,0,0
266,-174,0,0,0,0,0,0,0,0,0,-1,1490,1198,0,0
273,-174,0,0,0,0,0,0,0,0,0,-1,1497,1198,0,0
280,-174,0,0,0,0,0,0,0,0,0,-1,1504,1198,0,0
287,-174,0,0,0,0,0,0,0,0,0,-1,1511,1198,0,0
294,-174,0,0,0,0,0,0,0,0,0,-1,1518,1198,0,0
301,-174,0,0,0,0,0,0,0,0,0,-1,1525,1198,0,0
308,-174,0,0,0,0,0,0,0,0,0,-1,1532,1198,0,0
315,-174,0,0,0,0,0,0,0,0,0,-1,1539,1198,0,0
322,-174,0,0,0,0,0,0,0,0,0,-1,1546,1198,0,0
329,-174,0,0,0,0,0,0,0,0,0,-1,1553,1198,0,0
336,-174,0,0,0,0,0,0,0,0,0,-1,1560,1198,0,0
343,-174,0,0,0,0,0,0,0,0,0,-1,1567,1198,0,0
350,-174,0,0,0,0,0,0,0,0,0,-1,1574,1198,0,0
357,-174,0,0,0,0,0,0,0,0,0,-1,1581,1198,0,0
364,-174,0,0,0,0,0,0,0,0,0,-1,1588,1198,0,0
371,-174,0,0,0,0,0,0,0,0,0,-1,1595,1198,0,0
378,-174,0,0,0,0,0,0,0,0,0,-1,1602,1198,0,0
385,-174,0,0,0,0,0,0,0,0,0,-1,1609,1198,0,0
392,-174,0,0,0,0,0,0,0,0,0,-1,1616,1198,0,0
399,-174,0,0,0,0,0,0,0,0,0,-1,1623,1198,0,0
406,-174,0,0,0,0,0,0,0,0,0,-1,1630,1198,0,0
413,-174,0,0,0,0,0,0,0,0,0,-1,1637,1198,0,0
420,-174,0,0,0,0,0,0,0,0,0,-1,1644,1198,0,0
427,-174,0,0,0,0,0,0,0,0,0,-1,1651,1198,0,0
434,-174,0,0,0,0,0,0,0,0,0,-1,1658,1198,0,0
441,-174,0,0,0,0,0,0,0,0,0,-1,1665,1198,0,0
448,-174,0,0,0,0,0,0,0,0,0,-1,1672,1198,0,0
455,-174,0,0,0,0,0,0,0,0,0,-1,1679,1198,0,0
462,-174,0,0,0,0,0,0,0,0,0,-1,1686,1198,0,0
469,-174,0,0,0,0,0,0,0,0,0,-1,1693,1198,0,0
476,-174,0,0,0,0,0,0,0,0,0,-1,1700,1198,0,0
483,-174,0,0,0,0,0,0,0,0,0,-1,1707,1198,0,0
490,-174,0,0,0,0,0,0,0,0,0,-1,1714,1198,0,0
497,-174,0,0,0,0,0,0,0,0,0,-1,1721,1198,0,0
504,-174,0,0,0,0,0,0,0,0,0,-1,1728,1198,0,0
511,-174,0,0,0,0,0,0,0,0,0,-1,1735,1198,0,0
518,-174,0,0,0,0,0,0,0,0,0,-1,1742,1198,0,0
525,-174,0,0,0,0,0,0,0,0,0,-1,1749,1198,0,0
532,-174,0,0,0,0,0,0,0,0,0,-1,1756,1198,0,0
539,-174,0,0,0,0,0,0,0,0,0,-1,1763,1198,0,0
546,-174,0,0,0,0,0,0,0,0,0,-1,1770,1198,0,0
553,-174,0,0,0,0,0,0,0,0,0,-1,1777,1198,0,0
560,-174,0,0,0,0,0,0,0,0,0,-1,1784,1198,0,0
567,-174,0,0,0,0,0,0,0,0,0,-1,1791,1198,0,0
574,-174,0,0,0,0,0,0,0,0,0,-1,1798,1198,0,0
581,-174,0,0,0,0,0,0,0,0,0,-1,1805,1198,0,0
588,-174,0,0,0,0,0,0,0,0,0,-1,1812,1198,0,0
595,-174,0,0,0,0,0,0,0,0,0,-1,1819,1198,0,0
602,-174,0,0,0,0,0,0,0,0,0,-1,1826,1198,0,0
609,-174,0,0,0,0,0,0,0,0,0,-1,1833,1198,0,0
616,-174,0,0,0,0,0,0,0,0,0,-1,1840,1198,0,0
623,-174,0,0,0,0,0,0,0,0,0,-1,1847,1198,0,0
630,-174,0,0,0,0,0,0,0,0,0,-1,1854,1198,0,0
637,-174,235.114,8.65259,0,0,0,0,0,0,0,-1,1861,1198,235.114,-8.65257
644,-174,235.164,8.71826,0,0,0,0,0,0,0,-1,1868,1198,235.164,-8.71825
651,-174,235.301,8.71094,0,0,0,0,0,0,0,-1,1875,1198,235.301,-8.71093
658,-174,235.127,9.12671,0,0,0,0,0,0,0,-1,1882,1198,235.127,-9.12669
665,-174,235.142,8.93506,0,0,0,0,0,0,0,-1,1889,1198,235.142,-8.93506
672,-174,235.124,8.71326,0,0,0,0,0,0,0,-1,1896,1198,235.124,-8.71323
679,-174,235.113,8.55969,0,0,0,0,0,0,0,-1,1903,1198,235.113,-8.55966
686,-174,235.206,8.29895,0,0,0,0,0,0,0,-1,1910,1198,235.206,-8.29892
693,-174,51.1324,2.57349,0,0,0,0,0,0,0,-1,1917,1198,51.1325,-2.57343
700,-174,25.4004,6.11792,0,0,0,0,0,0,0,-1,1924,1198,25.4004,-6.11797
707,-174,34.7908,7.34473,0,0,0,0,0,0,0,-1,1931,1198,34.7908,-7.34475
714,-174,40.1135,7.79871,0,0,0,0,0,0,0,-1,1938,1198,40.1135,-7.79875
721,-174,40.8693,7.59863,0,0,0,0,0,0,0,-1,1945,1198,40.8693,-7.59859
728,-174,228.893,32.564,0,0,0,0,0,0,0,-1,1952,1198,228.893,-32.564
735,-174,228.902,31.5635,-0.0018937,0.0260927,0.00178186,0.0262057,-0.0020067,1.50747,0.0181763,0.0415114,1959,1198,228.902,-31.5635
742,-174,229.077,30.3564,-0.00682771,0.0309551,0.00474782,0.0315426,-0.00741519,1.44769,0.0238869,0.0325684,1966,1198,229.077,-30.3565
749,-174,229.007,29.2288,-0.0115415,0.035895,0.00779618,0.0371435,-0.0127899,1.41201,0.0299502,0.026064,1973,1198,229.007,-29.2288
756,-174,228.768,28.165,-0.0160379,0.0408497,0.0109792,0.0428951,-0.0180834,1.38661,0.0361644,0.0187064,1980,1198,228.768,-28.1651
763,-174,228.518,27.1021,-0.0203154,0.0457482,0.014361,0.048735,-0.0233022,1.36574,0.0424459,0.0262487,1987,1198,228.518,-27.102
770,-174,228.321,25.9944,0,0,0,0,0,0,0,-1,1994,1198,228.32,-25.9944
777,-174,112.049,4.95313,0,0,0,0,0,0,0,-1,2001,1198,112.049,-4.95312
784,-174,111.412,4.28589,0,0,0,0,0,0,0,-1,2008,1198,111.412,-4.28584
791,-174,202.178,23.3279,0,0,0,0,0,0,0,-1,2015,1198,202.178,-23.3279
798,-174,199.414,24.0172,0,0,0,0,0,0,0,-1,2022,1198,199.414,-24.0172
805,-174,110.032,10.519,0,0,0,0,0,0,0,-1,2029,1198,110.032,-10.5191
812,-174,0,0,0,0,0,0,0,0,0,-1,2036,1198,0,0
-700,-181,0,0,0,0,0,0,0,0,0,-1,524,1205,0,0
-693,-181,0,0,0,0,0,0,0,0,0,-1,531,1205,0,0
-686,-181,-181.035,18.4607,0,0,0,0,0,0,0,-1,538,1205,-181.035,-18.4607
-679,-181,-180.687,19.6251,0,0,0,0,0,0,0,-1,545,1205,-180.687,-19.6251
-672,-181,-181.005,21.6814,0,0,0,0,0,0,0,-1,552,1205,-181.005,-21.6814
-665,-181,-180.938,22.9178,0,0,0,0,0,0,0,-1,559,1205,-180.938,-22.9179
-658,-181,-180.849,24.1835,0,0,0,0,0,0,0,-1,566,1205,-180.849,-24.1834
-651,-181,-193.665,24.5267,0,0,0,0,0,0,0,-1,573,1205,-193.665,-24.5267
-644,-181,-195.325,25.5333,0,0,0,0,0,0,0,-1,580,1205,-195.325,-25.5334
-637,-181,-220.534,24.7251,0,0,0,0,0,0,0,-1,587,1205,-220.534,-24.7251
-630,-181,-220.761,25.9395,-0.0255291,0.0510198,-0.0201443,0.0559973,-0.0305065,-1.32856,0.0506607,0.025757,594,1205,-220.761,-25.9395
-623,-181,-221.092,27.0645,-0.0201534,0.0481127,-0.0166608,0.0519619,-0.0240026,-1.34375,0.0448374,0.0204541,601,1205,-221.092,-27.0644
-616,-181,-221.224,28.168,-0.0149546,0.0450029,-0.0132321,0.0477933,-0.0177449,-1.36296,0.0391417,0.019605,608,1205,-221.224,-28.1679
-609,-181,-221.607,29.2224,-0.00992465,0.0416827,-0.00983956,0.043495,-0.011737,-1.38864,0.0335995,0.0314329,615,1205,-221.607,-29.2225
-602,-181,-222.09,30.2856,0,0,0,0,0,0,0,-1,622,1205,-222.09,-30.2857
-595,-181,-218.598,32.0737,0,0,0,0,0,0,0,-1,629,1205,-218.598,-32.0737
-588,-181,-81.3058,19.9136,0,0,0,0,0,0,0,-1,636,1205,-81.3058,-19.9135
-581,-181,-81.564,20.8275,0,0,0,0,0,0,0,-1,643,1205,-81.564,-20.8275
-574,-181,-49.6119,12.3185,0,0,0,0,0,0,0,-1,650,1205,-49.6119,-12.3185
-567,-181,-25.8839,3.34485,0,0,0,0,0,0,0,-1,657,1205,-25.8839,-3.3449
-560,-181,-31.7396,1.63306,0,0,0,0,0,0,0,-1,664,1205,-31.7396,-1.63303
-553,-181,-57.8761,0.527832,0,0,0,0,0,0,0,-1,671,1205,-57.8761,-0.527787
-546,-181,-71.9266,0.492798,0,0,0,0,0,0,0,-1,678,1205,-71.9266,-0.492781
-539,-181,-71.897,0.373657,0,0,0,0,0,0,0,-1,685,1205,-71.8971,-0.373697
-532,-181,-71.999,0.237061,0,0,0,0,0,0,0,-1,692,1205,-71.999,-0.237102
-525,-181,-72.1212,0.416626,0,0,0,0,0,0,0,-1,699,1205,-72.1212,-0.416618
-518,-181,-71.9969,0.632813,0,0,0,0,0,0,0,-1,706,1205,-71.997,-0.632783
-511,-181,0,0,0,0,0,0,0,0,0,-1,713,1205,0,0
-504,-181,0,0,0,0,0,0,0,0,0,-1,720,1205,0,0
-497,-181,0,0,0,0,0,0,0,0,0,-1,727,1205,0,0
-490,-181,0,0,0,0,0,0,0,0,0,-1,734,1205,0,0
-483,-181,0,0,0,0,0,0,0,0,0,-1,741,1205,0,0
-476,-181,0,0,0,0,0,0,0,0,0,-1,748,1205,0,0
-469,-181,0,0,0,0,0,0,0,0,0,-1,755,1205,0,0
-462,-181,0,0,0,0,0,0,0,0,0,-1,762,1205,0,0
-455,-181,0,0,0,0,0,0,0,0,0,-1,769,1205,0,0
-448,-181,0,0,0,0,0,0,0,0,0,-1,776,1205,0,0
-441,-181,0,0,0,0,0,0,0,0,0,-1,783,1205,0,0
-434,-181,0,0,0,0,0,0,0,0,0,-1,790,1205,0,0
-427,-181,0,0,0,0,0,0,0,0,0,-1,797,1205,0,0
-420,-181,0,0,0,0,0,0,0,0,0,-1,804,1205,0,0
-413,-181,0,0,0,0,0,0,0,0,0,-1,811,1205,0,0
-406,-181,0,0,0,0,0,0,0,0,0,-1,818,1205,0,0
-399,-181,0,0,0,0,0,0,0,0,0,-1,825,1205,0,0
-392,-181,0,0,0,0,0,0,0,0,0,-1,832,1205,0,0
-385,-181,0,0,0,0,0,0,0,0,0,-1,839,1205,0,0
-378,-181,0,0,0,0,0,0,0,0,0,-1,846,1205,0,0
-371,-181,0,0,0,0,0,0,0,0,0,-1,853,1205,0,0
-364,-181,0,0,0,0,0,0,0,0,0,-1,860,1205,0,0
-357,-181,0,0,0,0,0,0,0,0,0,-1,867,1205,0,0
-350,-181,0,0,0,0,0,0,0,0,0,-1,874,1205,0,0
-343,-181,0,0,0,0,0,0,0,0,0,-1,881,1205,0,0
-336,-181,0,0,0,0,0,0,0,0,0,-1,888,1205,0,0
-329,-181,0,0,0,0,0,0,0,0,0,-1,895,1205,0,0
-322,-181,0,0,0,0,0,0,0,0,0,-1,902,1205,0,0
-315,-181,0,0,0,0,0,0,0,0,0,-1,909,1205,0,0
-308,-181,0,0,0,0,0,0,0,0,0,-1,916,1205,0,0
-301,-181,0,0,0,0,0,0,0,0,0,-1,923,1205,0,0
-294,-181,0,0,0,0,0,0,0,0,0,-1,930,1205,0,0
-287,-181,0,0,0,0,0,0,0,0,0,-1,937,1205,0,0
-280,-181,0,0,0,0,0,0,0,0,0,-1,944,1205,0,0
-273,-181,0,0,0,0,0,0,0,0,0,-1,951,1205,0,0
-266,-181,0,0,0,0,0,0,0,0,0,-1,958,1205,0,0
-259,-181,0,0,0,0,0,0,0,0,0,-1,965,1205,0,0
-252,-181,0,0,0,0,0,0,0,0,0,-1,972,1205,0,0
-245,-181,0,0,0,0,0,0,0,0,0,-1,979,1205,0,0
-238,-181,0,0,0,0,0,0,0,0,0,-1,986,1205,0,0
-231,-181,0,0,0,0,0,0,0,0,0,-1,993,1205,0,0
-224,-181,0,0,0,0,0,0,0,0,0,-1,1000,1205,0,0
-217,-181,0,0,0,0,0,0,0,0,0,-1,1007,1205,0,0
-210,-181,0,0,0,0,0,0,0,0,0,-1,1014,1205,0,0
-203,-181,0,0,0,0,0,0,0,0,0,-1,1021,1205,0,0
-196,-181,0,0,0,0,0,0,0,0,0,-1,1028,1205,0,0
-189,-181,0,0,0,0,0,0,0,0,0,-1,1035,1205,0,0
-182,-181,0,0,0,0,0,0,0,0,0,-1,1042,1205,0,0
-175,-181,0,0,0,0,0,0,0,0,0,-1,1049,1205,0,0
-168,-181,0,0,0,0,0,0,0,0,0,-1,1056,1205,0,0
-161,-181,0,0,0,0,0,0,0,0,0,-1,1063,1205,0,0
-154,-181,0,0,0,0,0,0,0,0,0,-1,1070,1205,0,0
-147,-181,0,0,0,0,0,0,0,0,0,-1,1077,1205,0,0
-140,-181,0,0,0,0,0,0,0,0,0,-1,1084,1205,0,0
-133,-181,0,0,0,0,0,0,0,0,0,-1,1091,1205,0,0
-126,-181,0,0,0,0,0,0,0,0,0,-1,1098,1205,0,0
-119,-181,0,0,0,0,0,0,0,0,0,-1,1105,1205,0,0
-112,-181,0,0,0,0,0,0,0,0,0,-1,1112,1205,0,0
-105,-181,0,0,0,0,0,0,0,0,0,-1,1119,1205,0,0
-98,-181,0,0,0,0,0,0,0,0,0,-1,1126,1205,0,0
-91,-181,0,0,0,0,0,0,0,0,0,-1,1133,1205,0,0
-84,-181,0,0,0,0,0,0,0,0,0,-1,1140,1205,0,0
-77,-181,0,0,0,0,0,0,0,0,0,-1,1147,1205,0,0
-70,-181,0,0,0,0,0,0,0,0,0,-1,1154,1205,0,0
-63,-181,0,0,0,0,0,0,0,0,0,-1,1161,1205,0,0
-56,-181,0,0,0,0,0,0,0,0,0,-1,1168,1205,0,0
-49,-181,0,0,0,0,0,0,0,0,0,-1,1175,1205,0,0
-42,-181,0,0,0,0,0,0,0,0,0,-1,1182,1205,0,0
-35,-181,0,0,0,0,0,0,0,0,0,-1,1189,1205,0,0
-28,-181,0,0,0,0,0,0,0,0,0,-1,1196,1205,0,0
-21,-181,0,0,0,0,0,0,0,0,0,-1,1203,1205,0,0
-14,-181,0,0,0,0,0,0,0,0,0,-1,1210,1205,0,0
-7,-181,0,0,0,0,0,0,0,0,0,-1,1217,1205,0,0
0,-181,0,0,0,0,0,0,0,0,0,-1,1224,1205,0,0
7,-181,0,0,0,0,0,0,0,0,0,-1,1231,1205,0,0
14,-181,0,0,0,0,0,0,0,0,0,-1,1238,1205,0,0
21,-181,0,0,0,0,0,0,0,0,0,-1,1245,1205,0,0
28,-181,0,0,0,0,0,0,0,0,0,-1,1252,1205,0,0
35,-181,0,0,0,0,0,0,0,0,0,-1,1259,1205,0,0
42,-181,0,0,0,0,0,0,0,0,0,-1,1266,1205,0,0
49,-181,0,0,0,0,0,0,0,0,0,-1,1273,1205,0,0
56,-181,0,0,0,0,0,0,0,0,0,-1,1280,1205,0,0
63,-181,0,0,0,0,0,0,0,0,0,-1,1287,1205,0,0
70,-181,0,0,0,0,0,0,0,0,0,-1,1294,1205,0,0
77,-181,0,0,0,0,0,0,0,0,0,-1,1301,1205,0,0
84,-181,0,0,0,0,0,0,0,0,0,-1,1308,1205,0,0
91,-181,0,0,0,0,0,0,0,0,0,-1,1315,1205,0,0
98,-181,0,0,0,0,0,0,0,0,0,-1,1322,1205,0,0
105,-181,0,0,0,0,0,0,0,0,0,-1,1329,1205,0,0
112,-181,0,0,0,0,0,0,0,0,0,-1,1336,1205,0,0
119,-181,0,0,0,0,0,0,0,0,0,-1,1343,1205,0,0
126,-181,0,0,0,0,0,0,0,0,0,-1,1350,1205,0,0
133,-181,0,0,0,0,0,0,0,0,0,-1,1357,1205,0,0
140,-181,0,0,0,0,0,0,0,0,0,-1,1364,1205,0,0
147,-181,0,0,0,0,0,0,0,0,0,-1,1371,1205,0,0
154,-181,0,0,0,0,0,0,0,0,0,-1,1378,1205,0,0
161,-181,0,0,0,0,0,0,0,0,0,-1,1385,1205,0,0
168,-181,0,0,0,0,0,0,0,0,0,-1,1392,1205,0,0
175,-181,0,0,0,0,0,0,0,0,0,-1,1399,1205,0,0
182,-181,0,0,0,0,0,0,0,0,0,-1,1406,1205,0,0
189,-181,0,0,0,0,0,0,0,0,0,-1,1413,1205,0,0
196,-181,0,0,0,0,0,0,0,0,0,-1,1420,1205,0,0
203,-181,0,0,0,0,0,0,0,0,0,-1,1427,1205,0,0
210,-181,0,0,0,0,0,0,0,0,0,-1,1434,1205,0,0
217,-181,0,0,0,0,0,0,0,0,0,-1,1441,1205,0,0
224,-181,0,0,0,0,0,0,0,0,0,-1,1448,1205,0,0
231,-181,0,0,0,0,0,0,0,0,0,-1,1455,1205,0,0
238,-181,0,0,0,0,0,0,0,0,0,-1,1462,1205,0,0
245,-181,0,0,0,0,0,0,0,0,0,-1,1469,1205,0,0
252,-181,0,0,0,0,0,0,0,0,0,-1,1476,1205,0,0
259,-181,0,0,0,0,0,0,0,0,0,-1,1483,1205,0,0
266,-181,0,0,0,0,0,0,0,0,0,-1,1490,1205,0,0
273,-181,0,0,0,0,0,0,0,0,0,-1,1497,1205,0,0
280,-181,0,0,0,0,0,0,0,0,0,-1,1504,1205,0,0
287,-181,0,0,0,0,0,0,0,0,0,-1,1511,1205,0,0
294,-181,0,0,0,0,0,0,0,0,0,-1,1518,1205,0,0
301,-181,0,0,0,0,0,0,0,0,0,-1,1525,1205,0,0
308,-181,0,0,0,0,0,0,0,0,0,-1,1532,1205,0,0
315,-181,0,0,0,0,0,0,0,0,0,-1,1539,1205,0,0
322,-181,0,0,0,0,0,0,0,0,0,-1,1546,1205,0,0
329,-181,0,0,0,0,0,0,0,0,0,-1,1553,1205,0,0
336,-181,0,0,0,0,0,0,0,0,0,-1,1560,1205,0,0
343,-181,0,0,0,0,0,0,0,0,0,-1,1567,1205,0,0
350,-181,0,0,0,0,0,0,0,0,0,-1,1574,1205,0,0
357,-181,0,0,0,0,0,0,0,0,0,-1,1581,1205,0,0
364,-181,0,0,0,0,0,0,0,0,0,-1,1588,1205,0,0
371,-181,0,0,0,0,0,0,0,0,0,-1,1595,1205,0,0
378,-181,0,0,0,0,0,0,0,0,0,-1,1602,1205,0,0
385,-181,0,0,0,0,0,0,0,0,0,-1,1609,1205,0,0
392,-181,0,0,0,0,0,0,0,0,0,-1,1616,1205,0,0
399,-181,0,0,0,0,0,0,0,0,0,-1,1623,1205,0,0
406,-181,0,0,0,0,0,0,0,0,0,-1,1630,1205,0,0
413,-181,0,0,0,0,0,0,0,0,0,-1,1637,1205,0,0
420,-181,0,0,0,0,0,0,0,0,0,-1,1644,1205,0,0
427,-181,0,0,0,0,0,0,0,0,0,-1,1651,1205,0,0
434,-181,0,0,0,0,0,0,0,0,0,-1,1658,1205,0,0
441,-181,0,0,0,0,0,0,0,0,0,-1,1665,1205,0,0
448,-181,0,0,0,0,0,0,0,0,0,-1,1672,1205,0,0
455,-181,0,0,0,0,0,0,0,0,0,-1,1679,1205,0,0
462,-181,0,0,0,0,0,0,0,0,0,-1,1686,1205,0,0
469,-181,0,0,0,0,0,0,0,0,0,-1,1693,1205,0,0
476,-181,0,0,0,0,0,0,0,0,0,-1,1700,1205,0,0
483,-181,0,0,0,0,0,0,0,0,0,-1,1707,1205,0,0
490,-181,0,0,0,0,0,0,0,0,0,-1,1714,1205,0,0
497,-181,0,0,0,0,0,0,0,0,0,-1,1721,1205,0,0
504,-181,0,0,0,0,0,0,0,0,0,-1,1728,1205,0,0
511,-181,0,0,0,0,0,0,0,0,0,-1,1735,1205,0,0
518,-181,0,0,0,0,0,0,0,0,0,-1,1742,1205,0,0
525,-181,0,0,0,0,0,0,0,0,0,-1,1749,1205,0,0
532,-181,0,0,0,0,0,0,0,0,0,-1,1756,1205,0,0
539,-181,0,0,0,0,0,0,0,0,0,-1,1763,1205,0,0
546,-181,0,0,0,0,0,0,0,0,0,-1,1770,1205,0,0
553,-181,0,0,0,0,0,0,0,0,0,-1,1777,1205,0,0
560,-181,0,0,0,0,0,0,0,0,0,-1,1784,1205,0,0
567,-181,0,0,0,0,0,0,0,0,0,-1,1791,1205,0,0
574,-181,0,0,0,0,0,0,0,0,0,-1,1798,1205,0,0
581,-181,0,0,0,0,0,0,0,0,0,-1,1805,1205,0,0
588,-181,0,0,0,0,0,0,0,0,0,-1,1812,1205,0,0
595,-181,0,0,0,0,0,0,0,0,0,-1,1819,1205,0,0
602,-181,0,0,0,0,0,0,0,0,0,-1,1826,1205,0,0
609,-181,0,0,0,0,0,0,0,0,0,-1,1833,1205,0,0
616,-181,0,0,0,0,0,0,0,0,0,-1,1840,1205,0,0
623,-181,0,0,0,0,0,0,0,0,0,-1,1847,1205,0,0
630,-181,235.1,8.83264,0,0,0,0,0,0,0,-1,1854,1205,235.1,-8.8327
637,-181,235.093,8.67163,0,0,0,0,0,0,0,-1,1861,1205,235.093,-8.67165
644,-181,235.12,8.87476,0,0,0,0,0,0,0,-1,1868,1205,235.12,-8.8748
651,-181,235.282,8.89368,0,0,0,0,0,0,0,-1,1875,1205,235.282,-8.89367
658,-181,235.231,8.79126,0,0,0,0,0,0,0,-1,1882,1205,235.232,-8.79127
665,-181,235.155,8.96948,0,0,0,0,0,0,0,-1,1889,1205,235.155,-8.96953
672,-181,235.13,8.71716,0,0,0,0,0,0,0,-1,1896,1205,235.13,-8.71711
679,-181,235.2,8.45764,0,0,0,0,0,0,0,-1,1903,1205,235.2,-8.45769
686,-181,84.0454,1.91431,0,0,0,0,0,0,0,-1,1910,1205,84.0455,-1.91427
693,-181,36.1301,2.91016,0,0,0,0,0,0,0,-1,1917,1205,36.1302,-2.9102
700,-181,29.5845,6.58398,0,0,0,0,0,0,0,-1,1924,1205,29.5844,-6.58395
707,-181,55.4949,10.6722,0,0,0,0,0,0,0,-1,1931,1205,55.4949,-10.6722
714,-181,89.1893,18.8728,0,0,0,0,0,0,0,-1,1938,1205,89.1894,-18.8728
721,-181,227.734,33.8485,0,0,0,0,0,0,0,-1,1945,1205,227.734,-33.8485
728,-181,227.837,32.193,0,0,0,0,0,0,0,-1,1952,1205,227.837,-32.1929
735,-181,227.931,31.3956,-0.001195,0.0273502,0.00165499,0.0274459,-0.00129063,1.51308,0.0187423,0.0354069,1959,1205,227.931,-31.3956
742,-181,227.86,30.4191,-0.00701212,0.0321647,0.00507179,0.0328107,-0.00765806,1.44412,0.0248234,0.0273592,1966,1205,227.86,-30.4191
749,-181,227.72,29.2067,-0.012486,0.0371535,0.00847122,0.0385593,-0.0138919,1.40634,0.0313792,0.0233282,1973,1205,227.72,-29.2067
756,-181,227.558,28.0713,-0.0176294,0.0422445,0.011916,0.0445289,-0.0199138,1.38139,0.0380999,0.0199664,1980,1205,227.558,-28.0713
763,-181,227.406,26.9656,-0.0224522,0.0473587,0.0154797,0.0506372,-0.0257307,1.36209,0.0448658,0.0280723,1987,1205,227.406,-26.9656
770,-181,227.418,25.8643,0,0,0,0,0,0,0,-1,1994,1205,227.418,-25.8642
777,-181,112.389,5.52087,0,0,0,0,0,0,0,-1,2001,1205,112.389,-5.52082
784,-181,111.663,4.77502,0,0,0,0,0,0,0,-1,2008,1205,111.663,-4.77498
791,-181,110.522,4.12244,0,0,0,0,0,0,0,-1,2015,1205,110.522,-4.12243
798,-181,118.47,0.938965,0,0,0,0,0,0,0,-1,2022,1205,118.47,-0.938971
805,-181,0,0,0,0,0,0,0,0,0,-1,2029,1205,0,0
812,-181,0,0,0,0,0,0,0,0,0,-1,2036,1205,0,0
-700,-188,0,0,0,0,0,0,0,0,0,-1,524,1212,0,0
-693,-188,0,0,0,0,0,0,0,0,0,-1,531,1212,0,0
-686,-188,0,0,0,0,0,0,0,0,0,-1,538,1212,0,0
-679,-188,-180.175,20.2563,0,0,0,0,0,0,0,-1,545,1212,-180.175,-20.2563
-672,-188,-179.93,21.7358,0,0,0,0,0,0,0,-1,552,1212,-179.93,-21.7358
-665,-188,-179.946,23.1642,0,0,0,0,0,0,0,-1,559,1212,-179.946,-23.1642
-658,-188,-179.795,24.5853,0,0,0,0,0,0,0,-1,566,1212,-179.795,-24.5854
-651,-188,-179.422,25.6511,0,0,0,0,0,0,0,-1,573,1212,-179.422,-25.6511
-644,-188,-192.648,25.5492,0,0,0,0,0,0,0,-1,580,1212,-192.648,-25.5492
-637,-188,-219.28,24.5369,0,0,0,0,0,0,0,-1,587,1212,-219.28,-24.5368
-630,-188,-219.455,25.7439,-0.0256544,0.0527881,-0.0207809,0.0579533,-0.0308196,-1.32718,0.052045,0.0286588,594,1212,-219.455,-25.7439
-623,-188,-219.725,26.8876,-0.0203301,0.0491067,-0.0175862,0.0533067,-0.02453,-1.33636,0.0459514,0.0191,601,1212,-219.725,-26.8875
-616,-188,-219.936,27.9045,-0.0151924,0.0452336,-0.0143758,0.0484794,-0.0184382,-1.34874,0.0399115,0.0177489,608,1212,-219.936,-27.9045
-609,-188,-220.197,29.123,-0.0102515,0.0411614,-0.0111368,0.0434701,-0.0125602,-1.36639,0.0339503,0.0233698,615,1212,-220.197,-29.123
-602,-188,-220.387,30.4541,0,0,0,0,0,0,0,-1,622,1212,-220.387,-30.4541
-595,-188,-218.598,32.2623,0,0,0,0,0,0,0,-1,629,1212,-218.598,-32.2623
-588,-188,-80.1454,20.0868,0,0,0,0,0,0,0,-1,636,1212,-80.1454,-20.0868
-581,-188,-80.2917,21.2421,0,0,0,0,0,0,0,-1,643,1212,-80.2917,-21.2421
-574,-188,-51.8871,13.5398,0,0,0,0,0,0,0,-1,650,1212,-51.8871,-13.5398
-567,-188,-19.5786,4.10388,0,0,0,0,0,0,0,-1,657,1212,-19.5785,-4.10383
-560,-188,-23.9507,0.416626,0,0,0,0,0,0,0,-1,664,1212,-23.9508,-0.416602
-553,-188,-49.2368,1.03101,0,0,0,0,0,0,0,-1,671,1212,-49.2367,-1.03099
-546,-188,-71.8369,0.494629,0,0,0,0,0,0,0,-1,678,1212,-71.8369,-0.494635
-539,-188,-71.8539,0.373535,0,0,0,0,0,0,0,-1,685,1212,-71.854,-0.373478
-532,-188,-72.0013,0.373047,0,0,0,0,0,0,0,-1,692,1212,-72.0014,-0.373048
-525,-188,-72.0408,0.373535,0,0,0,0,0,0,0,-1,699,1212,-72.0408,-0.373498
-518,-188,-71.9813,0.422363,0,0,0,0,0,0,0,-1,706,1212,-71.9813,-0.422411
-511,-188,-71.7823,0.477417,0,0,0,0,0,0,0,-1,713,1212,-71.7823,-0.477475
-504,-188,0,0,0,0,0,0,0,0,0,-1,720,1212,0,0
-497,-188,0,0,0,0,0,0,0,0,0,-1,727,1212,0,0
-490,-188,0,0,0,0,0,0,0,0,0,-1,734,1212,0,0
-483,-188,0,0,0,0,0,0,0,0,0,-1,741,1212,0,0
-476,-188,0,0,0,0,0,0,0,0,0,-1,748,1212,0,0
-469,-188,0,0,0,0,0,0,0,0,0,-1,755,1212,0,0
-462,-188,0,0,0,0,0,0,0,0,0,-1,762,1212,0,0
-455,-188,0,0,0,0,0,0,0,0,0,-1,769,1212,0,0
-448,-188,0,0,0,0,0,0,0,0,0,-1,776,1212,0,0
-441,-188,0,0,0,0,0,0,0,0,0,-1,783,1212,0,0
-434,-188,0,0,0,0,0,0,0,0,0,-1,790,1212,0,0
-427,-188,0,0,0,0,0,0,0,0,0,-1,797,1212,0,0
-420,-188,0,0,0,0,0,0,0,0,0,-1,804,1212,0,0
-413,-188,0,0,0,0,0,0,0,0,0,-1,811,1212,0,0
-406,-188,0,0,0,0,0,0,0,0,0,-1,818,1212,0,0
-399,-188,0,0,0,0,0,0,0,0,0,-1,825,1212,0,0
-392,-188,0,0,0,0,0,0,0,0,0,-1,832,1212,0,0
-385,-188,0,0,0,0,0,0,0,0,0,-1,839,1212,0,0
-378,-188,0,0,0,0,0,0,0,0,0,-1,846,1212,0,0
-371,-188,0,0,0,0,0,0,0,0,0,-1,853,1212,0,0
-364,-188,0,0,0,0,0,0,0,0,0,-1,860,1212,0,0
-357,-188,0,0,0,0,0,0,0,0,0,-1,867,1212,0,0
-350,-188,0,0,0,0,0,0,0,0,0,-1,874,1212,0,0
-343,-188,0,0,0,0,0,0,0,0,0,-1,881,1212,0,0
-336,-188,0,0,0,0,0,0,0,0,0,-1,888,1212,0,0
-329,-188,0,0,0,0,0,0,0,0,0,-1,895,1212,0,0
-322,-188,0,0,0,0,0,0,0,0,0,-1,902,1212,0,0
-315,-188,0,0,0,0,0,0,0,0,0,-1,909,1212,0,0
-308,-188,0,0,0,0,0,0,0,0,0,-1,916,1212,0,0
-301,-188,0,0,0,0,0,0,0,0,0,-1,923,1212,0,0
-294,-188,0,0,0,0,0,0,0,0,0,-1,930,1212,0,0
-287,-188,0,0,0,0,0,0,0,0,0,-1,937,1212,0,0
-280,-188,0,0,0,0,0,0,0,0,0,-1,944,1212,0,0
-273,-188,0,0,0,0,0,0,0,0,0,-1,951,1212,0,0
-266,-188,0,0,0,0,0,0,0,0,0,-1,958,1212,0,0
-259,-188,0,0,0,0,0,0,0,0,0,-1,965,1212,0,0
-252,-188,0,0,0,0,0,0,0,0,0,-1,972,1212,0,0
-245,-188,0,0,0,0,0,0,0,0,0,-1,979,1212,0,0
-238,-188,0,0,0,0,0,0,0,0,0,-1,986,1212,0,0
-231,-188,0,0,0,0,0,0,0,0,0,-1,993,1212,0,0
-224,-188,0,0,0,0,0,0,0,0,0,-1,1000,1212,0,0
-217,-188,0,0,0,0,0,0,0,0,0,-1,1007,1212,0,0
-210,-188,0,0,0,0,0,0,0,0,0,-1,1014,1212,0,0
-203,-188,0,0,0,0,0,0,0,0,0,-1,1021,1212,0,0
-196,-188,0,0,0,0,0,0,0,0,0,-1,1028,1212,0,0
-189,-188,0,0,0,0,0,0,0,0,0,-1,1035,1212,0,0
-182,-188,0,0,0,0,0,0,0,0,0,-1,1042,1212,0,0
-175,-188,0,0,0,0,0,0,0,0,0,-1,1049,1212,0,0
-168,-188,0,0,0,0,0,0,0,0,0,-1,1056,1212,0,0
-161,-188,0,0,0,0,0,0,0,0,0,-1,1063,1212,0,0
-154,-188,0,0,0,0,0,0,0,0,0,-1,1070,1212,0,0
-147,-188,0,0,0,0,0,0,0,0,0,-1,1077,1212,0,0
-140,-188,0,0,0,0,0,0,0,0,0,-1,1084,1212,0,0
-133,-188,0,0,0,0,0,0,0,0,0,-1,1091,1212,0,0
-126,-188,0,0,0,0,0,0,0,0,0,-1,1098,1212,0,0
-119,-188,0,0,0,0,0,0,0,0,0,-1,1105,1212,0,0
-112,-188,0,0,0,0,0,0,0,0,0,-1,1112,1212,0,0
-105,-188,0,0,0,0,0,0,0,0,0,-1,1119,1212,0,0
-98,-188,0,0,0,0,0,0,0,0,0,-1,1126,1212,0,0
-91,-188,0,0,0,0,0,0,0,0,0,-1,1133,1212,0,0
-84,-188,0,0,0,0,0,0,0,0,0,-1,1140,1212,0,0
-77,-188,0,0,0,0,0,0,0,0,0,-1,1147,1212,0,0
-70,-188,0,0,0,0,0,0,0,0,0,-1,1154,1212,0,0
-63,-188,0,0,0,0,0,0,0,0,0,-1,1161,1212,0,0
-56,-188,0,0,0,0,0,0,0,0,0,-1,1168,1212,0,0
-49,-188,0,0,0,0,0,0,0,0,0,-1,1175,1212,0,0
-42,-188,0,0,0,0,0,0,0,0,0,-1,1182,1212,0,0
-35,-188,0,0,0,0,0,0,0,0,0,-1,1189,1212,0,0
-28,-188,0,0,0,0,0,0,0,0,0,-1,1196,1212,0,0
-21,-188,0,0,0,0,0,0,0,0,0,-1,1203,1212,0,0
-14,-188,0,0,0,0,0,0,0,0,0,-1,1210,1212,0,0
-7,-188,0,0,0,0,0,0,0,0,0,-1,1217,1212,0,0
0,-188,0,0,0,0,0,0,0,0,0,-1,1224,1212,0,0
7,-188,0,0,0,0,0,0,0,0,0,-1,1231,1212,0,0
14,-188,0,0,0,0,0,0,0,0,0,-1,1238,1212,0,0
21,-188,0,0,0,0,0,0,0,0,0,-1,1245,1212,0,0
28,-188,0,0,0,0,0,0,0,0,0,-1,1252,1212,0,0
35,-188,0,0,0,0,0,0,0,0,0,-1,1259,1212,0,0
42,-188,0,0,0,0,0,0,0,0,0,-1,1266,1212,0,0
49,-188,0,0,0,0,0,0,0,0,0,-1,1273,1212,0,0
56,-188,0,0,0,0,0,0,0,0,0,-1,1280,1212,0,0
63,-188,0,0,0,0,0,0,0,0,0,-1,1287,1212,0,0
70,-188,0,0,0,0,0,0,0,0,0,-1,1294,1212,0,0
77,-188,0,0,0,0,0,0,0,0,0,-1,1301,1212,0,0
84,-188,0,0,0,0,0,0,0,0,0,-1,1308,1212,0,0
91,-188,0,0,0,0,0,0,0,0,0,-1,1315,1212,0,0
98,-188,0,0,0,0,0,0,0,0,0,-1,1322,1212,0,0
105,-188,0,0,0,0,0,0,0,0,0,-1,1329,1212,0,0
112,-188,0,0,0,0,0,0,0,0,0,-1,1336,1212,0,0
119,-188,0,0,0,0,0,0,0,0,0,-1,1343,1212,0,0
126,-188,0,0,0,0,0,0,0,0,0,-1,1350,1212,0,0
133,-188,0,0,0,0,0,0,0,0,0,-1,1357,1212,0,0
140,-188,0,0,0,0,0,0,0,0,0,-1,1364,1212,0,0
147,-188,0,0,0,0,0,0,0,0,0,-1,1371,1212,0,0
154,-188,0,0,0,0,0,0,0,0,0,-1,1378,1212,0,0
161,-188,0,0,0,0,0,0,0,0,0,-1,1385,1212,0,0
168,-188,0,0,0,0,0,0,0,0,0,-1,1392,1212,0,0
175,-188,0,0,0,0,0,0,0,0,0,-1,1399,1212,0,0
182,-188,0,0,0,0,0,0,0,0,0,-1,1406,1212,0,0
189,-188,0,0,0,0,0,0,0,0,0,-1,1413,1212,0,0
196,-188,0,0,0,0,0,0,0,0,0,-1,1420,1212,0,0
203,-188,0,0,0,0,0,0,0,0,0,-1,1427,1212,0,0
210,-188,0,0,0,0,0,0,0,0,0,-1,1434,1212,0,0
217,-188,0,0,0,0,0,0,0,0,0,-1,1441,1212,0,0
224,-188,0,0,0,0,0,0,0,0,0,-1,1448,1212,0,0
231,-188,0,0,0,0,0,0,0,0,0,-1,1455,1212,0,0
238,-188,0,0,0,0,0,0,0,0,0,-1,1462,1212,0,0
245,-188,0,0,0,0,0,0,0,0,0,-1,1469,1212,0,0
252,-188,0,0,0,0,0,0,0,0,0,-1,1476,1212,0,0
259,-188,0,0,0,0,0,0,0,0,0,-1,1483,1212,0,0
266,-188,0,0,0,0,0,0,0,0,0,-1,1490,1212,0,0
273,-188,0,0,0,0,0,0,0,0,0,-1,1497,1212,0,0
280,-188,0,0,0,0,0,0,0,0,0,-1,1504,1212,0,0
287,-188,0,0,0,0,0,0,0,0,0,-1,1511,1212,0,0
294,-188,0,0,0,0,0,0,0,0,0,-1,1518,1212,0,0
301,-188,0,0,0,0,0,0,0,0,0,-1,1525,1212,0,0
308,-188,0,0,0,0,0,0,0,0,0,-1,1532,1212,0,0
315,-188,0,0,0,0,0,0,0,0,0,-1,1539,1212,0,0
322,-188,0,0,0,0,0,0,0,0,0,-1,1546,1212,0,0
329,-188,0,0,0,0,0,0,0,0,0,-1,1553,1212,0,0
336,-188,0,0,0,0,0,0,0,0,0,-1,1560,1212,0,0
343,-188,0,0,0,0,0,0,0,0,0,-1,1567,1212,0,0
350,-188,0,0,0,0,0,0,0,0,0,-1,1574,1212,0,0
357,-188,0,0,0,0,0,0,0,0,0,-1,1581,1212,0,0
364,-188,0,0,0,0,0,0,0,0,0,-1,1588,1212,0,0
371,-188,0,0,0,0,0,0,0,0,0,-1,1595,1212,0,0
378,-188,0,0,0,0,0,0,0,0,0,-1,1602,1212,0,0
385,-188,0,0,0,0,0,0,0,0,0,-1,1609,1212,0,0
392,-188,0,0,0,0,0,0,0,0,0,-1,1616,1212,0,0
399,-188,0,0,0,0,0,0,0,0,0,-1,1623,1212,0,0
406,-188,0,0,0,0,0,0,0,0,0,-1,1630,1212,0,0
413,-188,0,0,0,0,0,0,0,0,0,-1,1637,1212,0,0
420,-188,0,0,0,0,0,0,0,0,0,-1,1644,1212,0,0
427,-188,0,0,0,0,0,0,0,0,0,-1,1651,1212,0,0
434,-188,0,0,0,0,0,0,0,0,0,-1,1658,1212,0,0
441,-188,0,0,0,0,0,0,0,0,0,-1,1665,1212,0,0
448,-188,0,0,0,0,0,0,0,0,0,-1,1672,1212,0,0
455,-188,0,0,0,0,0,0,0,0,0,-1,1679,1212,0,0
462,-188,0,0,0,0,0,0,0,0,0,-1,1686,1212,0,0
469,-188,0,0,0,0,0,0,0,0,0,-1,1693,1212,0,0
476,-188,0,0,0,0,0,0,0,0,0,-1,1700,1212,0,0
483,-188,0,0,0,0,0,0,0,0,0,-1,1707,1212,0,0
490,-188,0,0,0,0,0,0,0,0,0,-1,1714,1212,0,0
497,-188,0,0,0,0,0,0,0,0,0,-1,1721,1212,0,0
504,-188,0,0,0,0,0,0,0,0,0,-1,1728,1212,0,0
511,-188,0,0,0,0,0,0,0,0,0,-1,1735,1212,0,0
518,-188,0,0,0,0,0,0,0,0,0,-1,1742,1212,0,0
525,-188,0,0,0,0,0,0,0,0,0,-1,1749,1212,0,0
532,-188,0,0,0,0,0,0,0,0,0,-1,1756,1212,0,0
539,-188,0,0,0,0,0,0,0,0,0,-1,1763,1212,0,0
546,-188,0,0,0,0,0,0,0,0,0,-1,1770,1212,0,0
553,-188,0,0,0,0,0,0,0,0,0,-1,1777,1212,0,0
560,-188,0,0,0,0,0,0,0,0,0,-1,1784,1212,0,0
567,-188,0,0,0,0,0,0,0,0,0,-1,1791,1212,0,0
574,-188,0,0,0,0,0,0,0,0,0,-1,1798,1212,0,0
581,-188,0,0,0,0,0,0,0,0,0,-1,1805,1212,0,0
588,-188,0,0,0,0,0,0,0,0,0,-1,1812,1212,0,0
595,-188,0,0,0,0,0,0,0,0,0,-1,1819,1212,0,0
602,-188,0,0,0,0,0,0,0,0,0,-1,1826,1212,0,0
609,-188,0,0,0,0,0,0,0,0,0,-1,1833,1212,0,0
616,-188,0,0,0,0,0,0,0,0,0,-1,1840,1212,0,0
623,-188,0,0,0,0,0,0,0,0,0,-1,1847,1212,0,0
630,-188,235.08,8.81348,0,0,0,0,0,0,0,-1,1854,1212,235.08,-8.81352
637,-188,235.056,8.72473,0,0,0,0,0,0,0,-1,1861,1212,235.056,-8.72469
644,-188,235.061,8.95776,0,0,0,0,0,0,0,-1,1868,1212,235.061,-8.95782
651,-188,235.116,8.84692,0,0,0,0,0,0,0,-1,1875,1212,235.116,-8.84695
658,-188,235.122,8.76428,0,0,0,0,0,0,0,-1,1882,1212,235.121,-8.76428
665,-188,235.009,8.83398,0,0,0,0,0,0,0,-1,1889,1212,235.009,-8.83403
672,-188,235.1,8.59363,0,0,0,0,0,0,0,-1,1896,1212,235.1,-8.59361
679,-188,143.12,4.60071,0,0,0,0,0,0,0,-1,1903,1212,143.12,-4.60066
686,-188,60.1007,2.41321,0,0,0,0,0,0,0,-1,1910,1212,60.1007,-2.41325
693,-188,35.9054,2.18042,0,0,0,0,0,0,0,-1,1917,1212,35.9054,-2.18038
700,-188,54.452,11.2678,0,0,0,0,0,0,0,-1,1924,1212,54.452,-11.2678
707,-188,87.9962,19.8148,0,0,0,0,0,0,0,-1,1931,1212,87.9962,-19.8148
714,-188,226.797,35.6078,0,0,0,0,0,0,0,-1,1938,1212,226.797,-35.6078
721,-188,226.784,33.9717,0,0,0,0,0,0,0,-1,1945,1212,226.784,-33.9716
728,-188,226.921,32.4733,0.00492496,0.0233918,-0.00079552,0.023426,0.00489075,-1.52782,0.0142692,0.0437801,1952,1212,226.921,-32.4733
735,-188,226.786,31.3557,-0.00169934,0.0282588,0.0027732,0.0285134,-0.00195389,1.47926,0.0196926,0.0361696,1959,1212,226.786,-31.3558
742,-188,226.44,30.2804,-0.00795252,0.0333808,0.00621577,0.0342953,-0.00886702,1.42472,0.0263219,0.0234567,1966,1212,226.44,-30.2804
749,-188,226.302,29.0996,-0.013849,0.0387063,0.00958401,0.0403995,-0.0155422,1.39593,0.0333438,0.0239259,1973,1212,226.302,-29.0996
756,-188,226.17,27.9392,-0.0194011,0.044175,0.0129406,0.0467081,-0.0219342,1.37749,0.0404819,0.021783,1980,1212,226.17,-27.9392
763,-188,225.977,26.741,-0.0246183,0.0497173,0.0163601,0.0531586,-0.0280596,1.36347,0.0476319,0.0367018,1987,1212,225.977,-26.741
770,-188,225.8,25.5504,0,0,0,0,0,0,0,-1,1994,1212,225.8,-25.5504
777,-188,112.896,6.17334,0,0,0,0,0,0,0,-1,2001,1212,112.896,-6.17339
784,-188,112.584,4.92078,0,0,0,0,0,0,0,-1,2008,1212,112.585,-4.92083
791,-188,110.442,4.34192,0,0,0,0,0,0,0,-1,2015,1212,110.442,-4.34196
798,-188,109.589,3.68896,0,0,0,0,0,0,0,-1,2022,1212,109.589,-3.68891
805,-188,0,0,0,0,0,0,0,0,0,-1,2029,1212,0,0
812,-188,0,0,0,0,0,0,0,0,0,-1,2036,1212,0,0
-700,-195,0,0,0,0,0,0,0,0,0,-1,524,1219,0,0
-693,-195,0,0,0,0,0,0,0,0,0,-1,531,1219,0,0
-686,-195,0,0,0,0,0,0,0,0,0,-1,538,1219,0,0
-679,-195,-179.567,20.6488,0,0,0,0,0,0,0,-1,545,1219,-179.567,-20.6488
-672,-195,-179.524,22.1337,0,0,0,0,0,0,0,-1,552,1219,-179.524,-22.1337
-665,-195,-179.025,23.479,0,0,0,0,0,0,0,-1,559,1219,-179.025,-23.479
-658,-195,-178.41,25.1653,0,0,0,0,0,0,0,-1,566,1219,-178.41,-25.1653
-651,-195,-172.918,25.9795,0,0,0,0,0,0,0,-1,573,1219,-172.918,-25.9794
-644,-195,-156.917,22.6722,0,0,0,0,0,0,0,-1,580,1219,-156.917,-22.6723
-637,-195,-217.696,24.5242,0,0,0,0,0,0,0,-1,587,1219,-217.696,-24.5241
-630,-195,-218.156,25.4431,-0.0269694,0.055208,-0.0207166,0.0601352,-0.0318965,-1.3373,0.0539618,0.0396967,594,1219,-218.156,-25.4431
-623,-195,-218.379,26.5784,-0.0210431,0.0506347,-0.0181126,0.0549517,-0.0253601,-1.33682,0.0474056,0.0218024,601,1219,-218.379,-26.5783
-616,-195,-218.601,27.7722,-0.0152503,0.0459293,-0.0154496,0.0496094,-0.0189304,-1.33695,0.0408715,0.0187722,608,1219,-218.601,-27.7722
-609,-195,-218.609,29.1469,-0.009615,0.0410856,-0.0127228,0.0440991,-0.0126285,-1.33822,0.0343907,0.0278402,615,1219,-218.609,-29.1469
-602,-195,-218.817,30.2238,0,0,0,0,0,0,0,-1,622,1219,-218.817,-30.2238
-595,-195,-218.973,31.649,0,0,0,0,0,0,0,-1,629,1219,-218.973,-31.6491
-588,-195,-79.0808,20.1426,0,0,0,0,0,0,0,-1,636,1219,-79.0808,-20.1426
-581,-195,-79.1722,21.3226,0,0,0,0,0,0,0,-1,643,1219,-79.1723,-21.3226
-574,-195,-50.9985,13.5392,0,0,0,0,0,0,0,-1,650,1219,-50.9985,-13.5392
-567,-195,-20.6388,3.78369,0,0,0,0,0,0,0,-1,657,1219,-20.6388,-3.78369
-560,-195,-20.878,2.10388,0,0,0,0,0,0,0,-1,664,1219,-20.878,-2.10385
-553,-195,-41.595,0.613281,0,0,0,0,0,0,0,-1,671,1219,-41.595,-0.61334
-546,-195,-63.8136,0.917603,0,0,0,0,0,0,0,-1,678,1219,-63.8136,-0.917637
-539,-195,-71.8246,0.420898,0,0,0,0,0,0,0,-1,685,1219,-71.8246,-0.420894
-532,-195,-71.9599,0.428955,0,0,0,0,0,0,0,-1,692,1219,-71.9599,-0.428942
-525,-195,-72.043,0.315674,0,0,0,0,0,0,0,-1,699,1219,-72.043,-0.315645
-518,-195,-72.0127,0.386719,0,0,0,0,0,0,0,-1,706,1219,-72.0127,-0.386762
-511,-195,-71.9944,0.641724,0,0,0,0,0,0,0,-1,713,1219,-71.9944,-0.64174
-504,-195,0,0,0,0,0,0,0,0,0,-1,720,1219,0,0
-497,-195,0,0,0,0,0,0,0,0,0,-1,727,1219,0,0
-490,-195,0,0,0,0,0,0,0,0,0,-1,734,1219,0,0
-483,-195,0,0,0,0,0,0,0,0,0,-1,741,1219,0,0
-476,-195,0,0,0,0,0,0,0,0,0,-1,748,1219,0,0
-469,-195,0,0,0,0,0,0,0,0,0,-1,755,1219,0,0
-462,-195,0,0,0,0,0,0,0,0,0,-1,762,1219,0,0
-455,-195,0,0,0,0,0,0,0,0,0,-1,769,1219,0,0
-448,-195,0,0,0,0,0,0,0,0,0,-1,776,1219,0,0
-441,-195,0,0,0,0,0,0,0,0,0,-1,783,1219,0,0
-434,-195,0,0,0,0,0,0,0,0,0,-1,790,1219,0,0
-427,-195,0,0,0,0,0,0,0,0,0,-1,797,1219,0,0
-420,-195,0,0,0,0,0,0,0,0,0,-1,804,1219,0,0
-413,-195,0,0,0,0,0,0,0,0,0,-1,811,1219,0,0
-406,-195,0,0,0,0,0,0,0,0,0,-1,818,1219,0,0
-399,-195,0,0,0,0,0,0,0,0,0,-1,825,1219,0,0
-392,-195,0,0,0,0,0,0,0,0,0,-1,832,1219,0,0
-385,-195,0,0,0,0,0,0,0,0,0,-1,839,1219,0,0
-378,-195,0,0,0,0,0,0,0,0,0,-1,846,1219,0,0
-371,-195,0,0,0,0,0,0,0,0,0,-1,853,1219,0,0
-364,-195,0,0,0,0,0,0,0,0,0,-1,860,1219,0,0
-357,-195,0,0,0,0,0,0,0,0,0,-1,867,1219,0,0
-350,-195,0,0,0,0,0,0,0,0,0,-1,874,1219,0,0
-343,-195,0,0,0,0,0,0,0,0,0,-1,881,1219,0,0
-336,-195,0,0,0,0,0,0,0,0,0,-1,888,1219,0,0
-329,-195,0,0,0,0,0,0,0,0,0,-1,895,1219,0,0
-322,-195,0,0,0,0,0,0,0,0,0,-1,902,1219,0,0
-315,-195,0,0,0,0,0,0,0,0,0,-1,909,1219,0,0
-308,-195,0,0,0,0,0,0,0,0,0,-1,916,1219,0,0
-301,-195,0,0,0,0,0,0,0,0,0,-1,923,1219,0,0
-294,-195,0,0,0,0,0,0,0,0,0,-1,930,1219,0,0
-287,-195,0,0,0,0,0,0,0,0,0,-1,937,1219,0,0
-280,-195,0,0,0,0,0,0,0,0,0,-1,944,1219,0,0
-273,-195,0,0,0,0,0,0,0,0,0,-1,951,1219,0,0
-266,-195,0,0,0,0,0,0,0,0,0,-1,958,1219,0,0
-259,-195,0,0,0,0,0,0,0,0,0,-1,965,1219,0,0
-252,-195,0,0,0,0,0,0,0,0,0,-1,972,1219,0,0
-245,-195,0,0,0,0,0,0,0,0,0,-1,979,1219,0,0
-238,-195,0,0,0,0,0,0,0,0,0,-1,986,1219,0,0
-231,-195,0,0,0,0,0,0,0,0,0,-1,993,1219,0,0
-224,-195,0,0,0,0,0,0,0,0,0,-1,1000,1219,0,0
-217,-195,0,0,0,0,0,0,0,0,0,-1,1007,1219,0,0
-210,-195,0,0,0,0,0,0,0,0,0,-1,1014,1219,0,0
-203,-195,0,0,0,0,0,0,0,0,0,-1,1021,1219,0,0
-196,-195,0,0,0,0,0,0,0,0,0,-1,1028,1219,0,0
-189,-195,0,0,0,0,0,0,0,0,0,-1,1035,1219,0,0
-182,-195,0,0,0,0,0,0,0,0,0,-1,1042,1219,0,0
-175,-195,0,0,0,0,0,0,0,0,0,-1,1049,1219,0,0
-168,-195,0,0,0,0,0,0,0,0,0,-1,1056,1219,0,0
-161,-195,0,0,0,0,0,0,0,0,0,-1,1063,1219,0,0
-154,-195,0,0,0,0,0,0,0,0,0,-1,1070,1219,0,0
-147,-195,0,0,0,0,0,0,0,0,0,-1,1077,1219,0,0
-140,-195,0,0,0,0,0,0,0,0,0,-1,1084,1219,0,0
-133,-195,0,0,0,0,0,0,0,0,0,-1,1091,1219,0,0
-126,-195,0,0,0,0,0,0,0,0,0,-1,1098,1219,0,0
-119,-195,0,0,0,0,0,0,0,0,0,-1,1105,1219,0,0
-112,-195,0,0,0,0,0,0,0,0,0,-1,1112,1219,0,0
-105,-195,0,0,0,0,0,0,0,0,0,-1,1119,1219,0,0
-98,-195,0,0,0,0,0,0,0,0,0,-1,1126,1219,0,0
-91,-195,0,0,0,0,0,0,0,0,0,-1,1133,1219,0,0
-84,-195,0,0,0,0,0,0,0,0,0,-1,1140,1219,0,0
-77,-195,0,0,0,0,0,0,0,0,0,-1,1147,1219,0,0
-70,-195,0,0,0,0,0,0,0,0,0,-1,1154,1219,0,0
-63,-195,0,0,0,0,0,0,0,0,0,-1,1161,1219,0,0
-56,-195,0,0,0,0,0,0,0,0,0,-1,1168,1219,0,0
-49,-195,0,0,0,0,0,0,0,0,0,-1,1175,1219,0,0
-42,-195,0,0,0,0,0,0,0,0,0,-1,1182,1219,0,0
-35,-195,0,0,0,0,0,0,0,0,0,-1,1189,1219,0,0
-28,-195,0,0,0,0,0,0,0,0,0,-1,1196,1219,0,0
-21,-195,0,0,0,0,0,0,0,0,0,-1,1203,1219,0,0
-14,-195,0,0,0,0,0,0,0,0,0,-1,1210,1219,0,0
-7,-195,0,0,0,0,0,0,0,0,0,-1,1217,1219,0,0
0,-195,0,0,0,0,0,0,0,0,0,-1,1224,1219,0,0
7,-195,0,0,0,0,0,0,0,0,0,-1,1231,1219,0,0
14,-195,0,0,0,0,0,0,0,0,0,-1,1238,1219,0,0
21,-195,0,0,0,0,0,0,0,0,0,-1,1245,1219,0,0
28,-195,0,0,0,0,0,0,0,0,0,-1,1252,1219,0,0
35,-195,0,0,0,0,0,0,0,0,0,-1,1259,1219,0,0
42,-195,0,0,0,0,0,0,0,0,0,-1,1266,1219,0,0
49,-195,0,0,0,0,0,0,0,0,0,-1,1273,1219,0,0
56,-195,0,0,0,0,0,0,0,0,0,-1,1280,1219,0,0
63,-195,0,0,0,0,0,0,0,0,0,-1,1287,1219,0,0
70,-195,0,0,0,0,0,0,0,0,0,-1,1294,1219,0,0
77,-195,0,0,0,0,0,0,0,0,0,-1,1301,1219,0,0
84,-195,0,0,0,0,0,0,0,0,0,-1,1308,1219,0,0
91,-195,0,0,0,0,0,0,0,0,0,-1,1315,1219,0,0
98,-195,0,0,0,0,0,0,0,0,0,-1,1322,1219,0,0
105,-195,0,0,0,0,0,0,0,0,0,-1,1329,1219,0,0
112,-195,0,0,0,0,0,0,0,0,0,-1,1336,1219,0,0
119,-195,0,0,0,0,0,0,0,0,0,-1,1343,1219,0,0
126,-195,0,0,0,0,0,0,0,0,0,-1,1350,1219,0,0
133,-195,0,0,0,0,0,0,0,0,0,-1,1357,1219,0,0
140,-195,0,0,0,0,0,0,0,0,0,-1,1364,1219,0,0
147,-195,0,0,0,0,0,0,0,0,0,-1,1371,1219,0,0
154,-195,0,0,0,0,0,0,0,0,0,-1,1378,1219,0,0
161,-195,0,0,0,0,0,0,0,0,0,-1,1385,1219,0,0
168,-195,0,0,0,0,0,0,0,0,0,-1,1392,1219,0,0
175,-195,0,0,0,0,0,0,0,0,0,-1,1399,1219,0,0
182,-195,0,0,0,0,0,0,0,0,0,-1,1406,1219,0,0
189,-195,0,0,0,0,0,0,0,0,0,-1,1413,1219,0,0
196,-195,0,0,0,0,0,0,0,0,0,-1,1420,1219,0,0
203,-195,0,0,0,0,0,0,0,0,0,-1,1427,1219,0,0
210,-195,0,0,0,0,0,0,0,0,0,-1,1434,1219,0,0
217,-195,0,0,0,0,0,0,0,0,0,-1,1441,1219,0,0
224,-195,0,0,0,0,0,0,0,0,0,-1,1448,1219,0,0
231,-195,0,0,0,0,0,0,0,0,0,-1,1455,1219,0,0
238,-195,0,0,0,0,0,0,0,0,0,-1,1462,1219,0,0
245,-195,0,0,0,0,0,0,0,0,0,-1,1469,1219,0,0
252,-195,0,0,0,0,0,0,0,0,0,-1,1476,1219,0,0
259,-195,0,0,0,0,0,0,0,0,0,-1,1483,1219,0,0
266,-195,0,0,0,0,0,0,0,0,0,-1,1490,1219,0,0
273,-195,0,0,0,0,0,0,0,0,0,-1,1497,1219,0,0
280,-195,0,0,0,0,0,0,0,0,0,-1,1504,1219,0,0
287,-195,0,0,0,0,0,0,0,0,0,-1,1511,1219,0,0
294,-195,0,0,0,0,0,0,0,0,0,-1,1518,1219,0,0
301,-195,0,0,0,0,0,0,0,0,0,-1,1525,1219,0,0
308,-195,0,0,0,0,0,0,0,0,0,-1,1532,1219,0,0
315,-195,0,0,0,0,0,0,0,0,0,-1,1539,1219,0,0
322,-195,0,0,0,0,0,0,0,0,0,-1,1546,1219,0,0
329,-195,0,0,0,0,0,0,0,0,0,-1,1553,1219,0,0
336,-195,0,0,0,0,0,0,0,0,0,-1,1560,1219,0,0
343,-195,0,0,0,0,0,0,0,0,0,-1,1567,1219,0,0
350,-195,0,0,0,0,0,0,0,0,0,-1,1574,1219,0,0
357,-195,0,0,0,0,0,0,0,0,0,-1,1581,1219,0,0
364,-195,0,0,0,0,0,0,0,0,0,-1,1588,1219,0,0
371,-195,0,0,0,0,0,0,0,0,0,-1,1595,1219,0,0
378,-195,0,0,0,0,0,0,0,0,0,-1,1602,1219,0,0
385,-195,0,0,0,0,0,0,0,0,0,-1,1609,1219,0,0
392,-195,0,0,0,0,0,0,0,0,0,-1,1616,1219,0,0
399,-195,0,0,0,0,0,0,0,0,0,-1,1623,1219,0,0
406,-195,0,0,0,0,0,0,0,0,0,-1,1630,1219,0,0
413,-195,0,0,0,0,0,0,0,0,0,-1,1637,1219,0,0
420,-195,0,0,0,0,0,0,0,0,0,-1,1644,1219,0,0
427,-195,0,0,0,0,0,0,0,0,0,-1,1651,1219,0,0
434,-195,0,0,0,0,0,0,0,0,0,-1,1658,1219,0,0
441,-195,0,0,0,0,0,0,0,0,0,-1,1665,1219,0,0
448,-195,0,0,0,0,0,0,0,0,0,-1,1672,1219,0,0
455,-195,0,0,0,0,0,0,0,0,0,-1,1679,1219,0,0
462,-195,0,0,0,0,0,0,0,0,0,-1,1686,1219,0,0
469,-195,0,0,0,0,0,0,0,0,0,-1,1693,1219,0,0
476,-195,0,0,0,0,0,0,0,0,0,-1,1700,1219,0,0
483,-195,0,0,0,0,0,0,0,0,0,-1,1707,1219,0,0
490,-195,0,0,0,0,0,0,0,0,0,-1,1714,1219,0,0
497,-195,0,0,0,0,0,0,0,0,0,-1,1721,1219,0,0
504,-195,0,0,0,0,0,0,0,0,0,-1,1728,1219,0,0
511,-195,0,0,0,0,0,0,0,0,0,-1,1735,1219,0,0
518,-195,0,0,0,0,0,0,0,0,0,-1,1742,1219,0,0
525,-195,0,0,0,0,0,0,0,0,0,-1,1749,1219,0,0
532,-195,0,0,0,0,0,0,0,0,0,-1,1756,1219,0,0
539,-195,0,0,0,0,0,0,0,0,0,-1,1763,1219,0,0
546,-195,0,0,0,0,0,0,0,0,0,-1,1770,1219,0,0
553,-195,0,0,0,0,0,0,0,0,0,-1,1777,1219,0,0
560,-195,0,0,0,0,0,0,0,0,0,-1,1784,1219,0,0
567,-195,0,0,0,0,0,0,0,0,0,-1,1791,1219,0,0
574,-195,0,0,0,0,0,0,0,0,0,-1,1798,1219,0,0
581,-195,0,0,0,0,0,0,0,0,0,-1,1805,1219,0,0
588,-195,0,0,0,0,0,0,0,0,0,-1,1812,1219,0,0
595,-195,0,0,0,0,0,0,0,0,0,-1,1819,1219,0,0
602,-195,0,0,0,0,0,0,0,0,0,-1,1826,1219,0,0
609,-195,0,0,0,0,0,0,0,0,0,-1,1833,1219,0,0
616,-195,0,0,0,0,0,0,0,0,0,-1,1840,1219,0,0
623,-195,0,0,0,0,0,0,0,0,0,-1,1847,1219,0,0
630,-195,235.148,8.77441,0,0,0,0,0,0,0,-1,1854,1219,235.148,-8.77436
637,-195,235.13,8.8092,0,0,0,0,0,0,0,-1,1861,1219,235.13,-8.80918
644,-195,235.151,8.95117,0,0,0,0,0,0,0,-1,1868,1219,235.151,-8.95114
651,-195,235.129,8.83887,0,0,0,0,0,0,0,-1,1875,1219,235.129,-8.83886
658,-195,235.137,8.75671,0,0,0,0,0,0,0,-1,1882,1219,235.137,-8.75671
665,-195,235.12,8.73462,0,0,0,0,0,0,0,-1,1889,1219,235.12,-8.73464
672,-195,235.157,8.55273,0,0,0,0,0,0,0,-1,1896,1219,235.157,-8.55274
679,-195,88.1234,1.78857,0,0,0,0,0,0,0,-1,1903,1219,88.1234,-1.78854
686,-195,51.2117,1.94312,0,0,0,0,0,0,0,-1,1910,1219,51.2117,-1.9431
693,-195,24.4368,5.68298,0,0,0,0,0,0,0,-1,1917,1219,24.4368,-5.68293
700,-195,68.4086,14.5306,0,0,0,0,0,0,0,-1,1924,1219,68.4086,-14.5306
707,-195,75.7532,15.8331,0,0,0,0,0,0,0,-1,1931,1219,75.7532,-15.8332
714,-195,224.563,35.5599,0,0,0,0,0,0,0,-1,1938,1219,224.563,-35.5599
721,-195,225.858,34.5402,0,0,0,0,0,0,0,-1,1945,1219,225.858,-34.5401
728,-195,225.867,32.6825,0.00337709,0.0243532,0.000316144,0.024358,0.00337232,1.55573,0.0152394,0.0333661,1952,1219,225.867,-32.6825
735,-195,225.551,31.2845,-0.00326987,0.0293935,0.00430464,0.0299513,-0.00382764,1.44194,0.0213581,0.0352882,1959,1219,225.551,-31.2845
742,-195,225.087,30.0465,-0.00964229,0.0346933,0.00812832,0.0361365,-0.0110855,1.39507,0.0285138,0.0257606,1966,1219,225.087,-30.0465
749,-195,224.891,28.8795,-0.0157267,0.0402196,0.0118173,0.0426133,-0.0181204,1.37094,0.0360025,0.0249513,1973,1219,224.891,-28.8795
756,-195,224.716,27.7548,-0.0215424,0.0459248,0.0154262,0.0492847,-0.0249023,1.35634,0.0435961,0.0252416,1980,1219,224.716,-27.7548
763,-195,224.484,26.4626,-0.0270531,0.0517561,0.0190086,0.0561014,-0.0313983,1.34606,0.0511847,0.0473024,1987,1219,224.484,-26.4626
770,-195,224.338,25.0892,0,0,0,0,0,0,0,-1,1994,1219,224.338,-25.0893
777,-195,67.0903,5.65259,0,0,0,0,0,0,0,-1,2001,1219,67.0904,-5.65253
784,-195,113.331,5.10986,0,0,0,0,0,0,0,-1,2008,1219,113.331,-5.10985
791,-195,68.9104,-1.24268,0,0,0,0,0,0,0,-1,2015,1219,68.9103,1.24264
798,-195,66.05,2.49902,0,0,0,0,0,0,0,-1,2022,1219,66.0501,-2.499
805,-195,0,0,0,0,0,0,0,0,0,-1,2029,1219,0,0
812,-195,0,0,0,0,0,0,0,0,0,-1,2036,1219,0,0
-700,-202,0,0,0,0,0,0,0,0,0,-1,524,1226,0,0
-693,-202,0,0,0,0,0,0,0,0,0,-1,531,1226,0,0
-686,-202,0,0,0,0,0,0,0,0,0,-1,538,1226,0,0
-679,-202,-179.012,21.0378,0,0,0,0,0,0,0,-1,545,1226,-179.012,-21.0378
-672,-202,-178.975,22.5787,0,0,0,0,0,0,0,-1,552,1226,-178.975,-22.5787
-665,-202,-178.984,24.1697,0,0,0,0,0,0,0,-1,559,1226,-178.984,-24.1697
-658,-202,-174.612,24.4117,0,0,0,0,0,0,0,-1,566,1226,-174.612,-24.4117
-651,-202,-156.909,20.6821,0,0,0,0,0,0,0,-1,573,1226,-156.909,-20.6821
-644,-202,-53.0106,6.29651,0,0,0,0,0,0,0,-1,580,1226,-53.0105,-6.29651
-637,-202,-89.9309,14.75,0,0,0,0,0,0,0,-1,587,1226,-89.9309,-14.75
-630,-202,-216.703,25.1995,0,0,0,0,0,0,0,-1,594,1226,-216.703,-25.1994
-623,-202,-216.991,26.4288,-0.020452,0.0517792,-0.018674,0.0563213,-0.0249942,-1.33219,0.0480949,0.0216644,601,1226,-216.991,-26.4288
-616,-202,-217.13,27.583,-0.0153332,0.0473354,-0.0164259,0.0513798,-0.0193775,-1.32938,0.0422215,0.0162792,608,1226,-217.13,-27.583
-609,-202,-217.016,28.8141,-0.0107245,0.0425292,-0.0141363,0.046049,-0.0142443,-1.32676,0.0363889,0.0353618,615,1226,-217.016,-28.8141
-602,-202,-216.738,30.1167,0,0,0,0,0,0,0,-1,622,1226,-216.738,-30.1167
-595,-202,-214.109,30.9442,0,0,0,0,0,0,0,-1,629,1226,-214.109,-30.9442
-588,-202,-77.8618,20.3673,0,0,0,0,0,0,0,-1,636,1226,-77.8618,-20.3673
-581,-202,-77.893,21.4277,0,0,0,0,0,0,0,-1,643,1226,-77.893,-21.4278
-574,-202,-77.9501,22.582,0,0,0,0,0,0,0,-1,650,1226,-77.9501,-22.5821
-567,-202,-22.1768,4.56995,0,0,0,0,0,0,0,-1,657,1226,-22.1768,-4.56991
-560,-202,-10.929,2.73096,0,0,0,0,0,0,0,-1,664,1226,-10.929,-2.73092
-553,-202,-30.2701,1.474,0,0,0,0,0,0,0,-1,671,1226,-30.2701,-1.47395
-546,-202,-53.2803,0.580933,0,0,0,0,0,0,0,-1,678,1226,-53.2803,-0.580945
-539,-202,-71.7885,0.485962,0,0,0,0,0,0,0,-1,685,1226,-71.7885,-0.486007
-532,-202,-71.8226,0.46228,0,0,0,0,0,0,0,-1,692,1226,-71.8226,-0.462257
-525,-202,-71.8826,0.379639,0,0,0,0,0,0,0,-1,699,1226,-71.8826,-0.379652
-518,-202,-72.0466,0.453613,0,0,0,0,0,0,0,-1,706,1226,-72.0466,-0.453633
-511,-202,-72.2618,0.686035,0,0,0,0,0,0,0,-1,713,1226,-72.2618,-0.686083
-504,-202,0,0,0,0,0,0,0,0,0,-1,720,1226,0,0
-497,-202,0,0,0,0,0,0,0,0,0,-1,727,1226,0,0
-490,-202,0,0,0,0,0,0,0,0,0,-1,734,1226,0,0
-483,-202,0,0,0,0,0,0,0,0,0,-1,741,1226,0,0
-476,-202,0,0,0,0,0,0,0,0,0,-1,748,1226,0,0
-469,-202,0,0,0,0,0,0,0,0,0,-1,755,1226,0,0
-462,-202,0,0,0,0,0,0,0,0,0,-1,762,1226,0,0
-455,-202,0,0,0,0,0,0,0,0,0,-1,769,1226,0,0
-448,-202,0,0,0,0,0,0,0,0,0,-1,776,1226,0,0
-441,-202,0,0,0,0,0,0,0,0,0,-1,783,1226,0,0
-434,-202,0,0,0,0,0,0,0,0,0,-1,790,1226,0,0
-427,-202,0,0,0,0,0,0,0,0,0,-1,797,1226,0,0
-420,-202,0,0,0,0,0,0,0,0,0,-1,804,1226,0,0
-413,-202,0,0,0,0,0,0,0,0,0,-1,811,1226,0,0
-406,-202,0,0,0,0,0,0,0,0,0,-1,818,1226,0,0
-399,-202,0,0,0,0,0,0,0,0,0,-1,825,1226,0,0
-392,-202,0,0,0,0,0,0,0,0,0,-1,832,1226,0,0
-385,-202,0,0,0,0,0,0,0,0,0,-1,839,1226,0,0
-378,-202,0,0,0,0,0,0,0,0,0,-1,846,1226,0,0
-371,-202,0,0,0,0,0,0,0,0,0,-1,853,1226,0,0
-364,-202,0,0,0,0,0,0,0,0,0,-1,860,1226,0,0
-357,-202,0,0,0,0,0,0,0,0,0,-1,867,1226,0,0
-350,-202,0,0,0,0,0,0,0,0,0,-1,874,1226,0,0
-343,-202,0,0,0,0,0,0,0,0,0,-1,881,1226,0,0
-336,-202,0,0,0,0,0,0,0,0,0,-1,888,1226,0,0
-329,-202,0,0,0,0,0,0,0,0,0,-1,895,1226,0,0
-322,-202,0,0,0,0,0,0,0,0,0,-1,902,1226,0,0
-315,-202,0,0,0,0,0,0,0,0,0,-1,909,1226,0,0
-308,-202,0,0,0,0,0,0,0,0,0,-1,916,1226,0,0
-301,-202,0,0,0,0,0,0,0,0,0,-1,923,1226,0,0
-294,-202,0,0,0,0,0,0,0,0,0,-1,930,1226,0,0
-287,-202,0,0,0,0,0,0,0,0,0,-1,937,1226,0,0
-280,-202,0,0,0,0,0,0,0,0,0,-1,944,1226,0,0
-273,-202,0,0,0,0,0,0,0,0,0,-1,951,1226,0,0
-266,-202,0,0,0,0,0,0,0,0,0,-1,958,1226,0,0
-259,-202,0,0,0,0,0,0,0,0,0,-1,965,1226,0,0
-252,-202,0,0,0,0,0,0,0,0,0,-1,972,1226,0,0
-245,-202,0,0,0,0,0,0,0,0,0,-1,979,1226,0,0
-238,-202,0,0,0,0,0,0,0,0,0,-1,986,1226,0,0
-231,-202,0,0,0,0,0,0,0,0,0,-1,993,1226,0,0
-224,-202,0,0,0,0,0,0,0,0,0,-1,1000,1226,0,0
-217,-202,0,0,0,0,0,0,0,0,0,-1,1007,1226,0,0
-210,-202,0,0,0,0,0,0,0,0,0,-1,1014,1226,0,0
-203,-202,0,0,0,0,0,0,0,0,0,-1,1021,1226,0,0
-196,-202,0,0,0,0,0,0,0,0,0,-1,1028,1226,0,0
-189,-202,0,0,0,0,0,0,0,0,0,-1,1035,1226,0,0
-182,-202,0,0,0,0,0,0,0,0,0,-1,1042,1226,0,0
-175,-202,0,0,0,0,0,0,0,0,0,-1,1049,1226,0,0
-168,-202,0,0,0,0,0,0,0,0,0,-1,1056,1226,0,0
-161,-202,0,0,0,0,0,0,0,0,0,-1,1063,1226,0,0
-154,-202,0,0,0,0,0,0,0,0,0,-1,1070,1226,0,0
-147,-202,0,0,0,0,0,0,0,0,0,-1,1077,1226,0,0
-140,-202,0,0,0,0,0,0,0,0,0,-1,1084,1226,0,0
-133,-202,0,0,0,0,0,0,0,0,0,-1,1091,1226,0,0
-126,-202,0,0,0,0,0,0,0,0,0,-1,1098,1226,0,0
-119,-202,0,0,0,0,0,0,0,0,0,-1,1105,1226,0,0
-112,-202,0,0,0,0,0,0,0,0,0,-1,1112,1226,0,0
-105,-202,0,0,0,0,0,0,0,0,0,-1,1119,1226,0,0
-98,-202,0,0,0,0,0,0,0,0,0,-1,1126,1226,0,0
-91,-202,0,0,0,0,0,0,0,0,0,-1,1133,1226,0,0
-84,-202,0,0,0,0,0,0,0,0,0,-1,1140,1226,0,0
-77,-202,0,0,0,0,0,0,0,0,0,-1,1147,1226,0,0
-70,-202,0,0,0,0,0,0,0,0,0,-1,1154,1226,0,0
-63,-202,0,0,0,0,0,0,0,0,0,-1,1161,1226,0,0
-56,-202,0,0,0,0,0,0,0,0,0,-1,1168,1226,0,0
-49,-202,0,0,0,0,0,0,0,0,0,-1,1175,1226,0,0
-42,-202,0,0,0,0,0,0,0,0,0,-1,1182,1226,0,0
-35,-202,0,0,0,0,0,0,0,0,0,-1,1189,1226,0,0
-28,-202,0,0,0,0,0,0,0,0,0,-1,1196,1226,0,0
-21,-202,0,0,0,0,0,0,0,0,0,-1,1203,1226,0,0
-14,-202,0,0,0,0,0,0,0,0,0,-1,1210,1226,0,0
-7,-202,0,0,0,0,0,0,0,0,0,-1,1217,1226,0,0
0,-202,0,0,0,0,0,0,0,0,0,-1,1224,1226,0,0
7,-202,0,0,0,0,0,0,0,0,0,-1,1231,1226,0,0
14,-202,0,0,0,0,0,0,0,0,0,-1,1238,1226,0,0
21,-202,0,0,0,0,0,0,0,0,0,-1,1245,1226,0,0
28,-202,0,0,0,0,0,0,0,0,0,-1,1252,1226,0,0
35,-202,0,0,0,0,0,0,0,0,0,-1,1259,1226,0,0
42,-202,0,0,0,0,0,0,0,0,0,-1,1266,1226,0,0
49,-202,0,0,0,0,0,0,0,0,0,-1,1273,1226,0,0
56,-202,0,0,0,0,0,0,0,0,0,-1,1280,1226,0,0
63,-202,0,0,0,0,0,0,0,0,0,-1,1287,1226,0,0
70,-202,0,0,0,0,0,0,0,0,0,-1,1294,1226,0,0
77,-202,0,0,0,0,0,0,0,0,0,-1,1301,1226,0,0
84,-202,0,0,0,0,0,0,0,0,0,-1,1308,1226,0,0
91,-202,0,0,0,0,0,0,0,0,0,-1,1315,1226,0,0
98,-202,0,0,0,0,0,0,0,0,0,-1,1322,1226,0,0
105,-202,0,0,0,0,0,0,0,0,0,-1,1329,1226,0,0
112,-202,0,0,0,0,0,0,0,0,0,-1,1336,1226,0,0
119,-202,0,0,0,0,0,0,0,0,0,-1,1343,1226,0,0
126,-202,0,0,0,0,0,0,0,0,0,-1,1350,1226,0,0
133,-202,0,0,0,0,0,0,0,0,0,-1,1357,1226,0,0
140,-202,0,0,0,0,0,0,0,0,0,-1,1364,1226,0,0
147,-202,0,0,0,0,0,0,0,0,0,-1,1371,1226,0,0
154,-202,0,0,0,0,0,0,0,0,0,-1,1378,1226,0,0
161,-202,0,0,0,0,0,0,0,0,0,-1,1385,1226,0,0
168,-202,0,0,0,0,0,0,0,0,0,-1,1392,1226,0,0
175,-202,0,0,0,0,0,0,0,0,0,-1,1399,1226,0,0
182,-202,0,0,0,0,0,0,0,0,0,-1,1406,1226,0,0
189,-202,0,0,0,0,0,0,0,0,0,-1,1413,1226,0,0
196,-202,0,0,0,0,0,0,0,0,0,-1,1420,1226,0,0
203,-202,0,0,0,0,0,0,0,0,0,-1,1427,1226,0,0
210,-202,0,0,0,0,0,0,0,0,0,-1,1434,1226,0,0
217,-202,0,0,0,0,0,0,0,0,0,-1,1441,1226,0,0
224,-202,0,0,0,0,0,0,0,0,0,-1,1448,1226,0,0
231,-202,0,0,0,0,0,0,0,0,0,-1,1455,1226,0,0
238,-202,0,0,0,0,0,0,0,0,0,-1,1462,1226,0,0
245,-202,0,0,0,0,0,0,0,0,0,-1,1469,1226,0,0
252,-202,0,0,0,0,0,0,0,0,0,-1,1476,1226,0,0
259,-202,0,0,0,0,0,0,0,0,0,-1,1483,1226,0,0
266,-202,0,0,0,0,0,0,0,0,0,-1,1490,1226,0,0
273,-202,0,0,0,0,0,0,0,0,0,-1,1497,1226,0,0
280,-202,0,0,0,0,0,0,0,0,0,-1,1504,1226,0,0
287,-202,0,0,0,0,0,0,0,0,0,-1,1511,1226,0,0
294,-202,0,0,0,0,0,0,0,0,0,-1,1518,1226,0,0
301,-202,0,0,0,0,0,0,0,0,0,-1,1525,1226,0,0
308,-202,0,0,0,0,0,0,0,0,0,-1,1532,1226,0,0
315,-202,0,0,0,0,0,0,0,0,0,-1,1539,1226,0,0
322,-202,0,0,0,0,0,0,0,0,0,-1,1546,1226,0,0
329,-202,0,0,0,0,0,0,0,0,0,-1,1553,1226,0,0
336,-202,0,0,0,0,0,0,0,0,0,-1,1560,1226,0,0
343,-202,0,0,0,0,0,0,0,0,0,-1,1567,1226,0,0
350,-202,0,0,0,0,0,0,0,0,0,-1,1574,1226,0,0
357,-202,0,0,0,0,0,0,0,0,0,-1,1581,1226,0,0
364,-202,0,0,0,0,0,0,0,0,0,-1,1588,1226,0,0
371,-202,0,0,0,0,0,0,0,0,0,-1,1595,1226,0,0
378,-202,0,0,0,0,0,0,0,0,0,-1,1602,1226,0,0
385,-202,0,0,0,0,0,0,0,0,0,-1,1609,1226,0,0
392,-202,0,0,0,0,0,0,0,0,0,-1,1616,1226,0,0
399,-202,0,0,0,0,0,0,0,0,0,-1,1623,1226,0,0
406,-202,0,0,0,0,0,0,0,0,0,-1,1630,1226,0,0
413,-202,0,0,0,0,0,0,0,0,0,-1,1637,1226,0,0
420,-202,0,0,0,0,0,0,0,0,0,-1,1644,1226,0,0
427,-202,0,0,0,0,0,0,0,0,0,-1,1651,1226,0,0
434,-202,0,0,0,0,0,0,0,0,0,-1,1658,1226,0,0
441,-202,0,0,0,0,0,0,0,0,0,-1,1665,1226,0,0
448,-202,0,0,0,0,0,0,0,0,0,-1,1672,1226,0,0
455,-202,0,0,0,0,0,0,0,0,0,-1,1679,1226,0,0
462,-202,0,0,0,0,0,0,0,0,0,-1,1686,1226,0,0
469,-202,0,0,0,0,0,0,0,0,0,-1,1693,1226,0,0
476,-202,0,0,0,0,0,0,0,0,0,-1,1700,1226,0,0
483,-202,0,0,0,0,0,0,0,0,0,-1,1707,1226,0,0
490,-202,0,0,0,0,0,0,0,0,0,-1,1714,1226,0,0
497,-202,0,0,0,0,0,0,0,0,0,-1,1721,1226,0,0
504,-202,0,0,0,0,0,0,0,0,0,-1,1728,1226,0,0
511,-202,0,0,0,0,0,0,0,0,0,-1,1735,1226,0,0
518,-202,0,0,0,0,0,0,0,0,0,-1,1742,1226,0,0
525,-202,0,0,0,0,0,0,0,0,0,-1,1749,1226,0,0
532,-202,0,0,0,0,0,0,0,0,0,-1,1756,1226,0,0
539,-202,0,0,0,0,0,0,0,0,0,-1,1763,1226,0,0
546,-202,0,0,0,0,0,0,0,0,0,-1,1770,1226,0,0
553,-202,0,0,0,0,0,0,0,0,0,-1,1777,1226,0,0
560,-202,0,0,0,0,0,0,0,0,0,-1,1784,1226,0,0
567,-202,0,0,0,0,0,0,0,0,0,-1,1791,1226,0,0
574,-202,0,0,0,0,0,0,0,0,0,-1,1798,1226,0,0
581,-202,0,0,0,0,0,0,0,0,0,-1,1805,1226,0,0
588,-202,0,0,0,0,0,0,0,0,0,-1,1812,1226,0,0
595,-202,0,0,0,0,0,0,0,0,0,-1,1819,1226,0,0
602,-202,0,0,0,0,0,0,0,0,0,-1,1826,1226,0,0
609,-202,0,0,0,0,0,0,0,0,0,-1,1833,1226,0,0
616,-202,0,0,0,0,0,0,0,0,0,-1,1840,1226,0,0
623,-202,0,0,0,0,0,0,0,0,0,-1,1847,1226,0,0
630,-202,235.061,8.67432,0,0,0,0,0,0,0,-1,1854,1226,235.061,-8.67428
637,-202,235.146,8.78088,0,0,0,0,0,0,0,-1,1861,1226,235.146,-8.7809
644,-202,235.146,8.94287,0,0,0,0,0,0,0,-1,1868,1226,235.145,-8.94282
651,-202,235.149,8.80469,0,0,0,0,0,0,0,-1,1875,1226,235.149,-8.80473
658,-202,235.162,8.75635,0,0,0,0,0,0,0,-1,1882,1226,235.162,-8.75632
665,-202,235.183,8.74646,0,0,0,0,0,0,0,-1,1889,1226,235.183,-8.74642
672,-202,235.186,8.56665,0,0,0,0,0,0,0,-1,1896,1226,235.185,-8.56666
679,-202,72.3511,2.32935,0,0,0,0,0,0,0,-1,1903,1226,72.3511,-2.32932
686,-202,49.1708,2.15198,0,0,0,0,0,0,0,-1,1910,1226,49.1708,-2.15195
693,-202,52.1176,12.0886,0,0,0,0,0,0,0,-1,1917,1226,52.1176,-12.0886
700,-202,74.741,16.6233,0,0,0,0,0,0,0,-1,1924,1226,74.741,-16.6233
707,-202,92.8003,22.7876,0,0,0,0,0,0,0,-1,1931,1226,92.8003,-22.7876
714,-202,224.275,35.8286,0,0,0,0,0,0,0,-1,1938,1226,224.275,-35.8286
721,-202,224.38,34.2675,0.00986887,0.0211589,-0.00339077,0.022099,0.00892878,-1.30034,0.0128369,0.0384432,1945,1226,224.38,-34.2675
728,-202,224.412,32.701,0.00239734,0.0258655,0.00126171,0.0259331,0.0023297,1.51724,0.0165669,0.0282607,1952,1226,224.412,-32.7011
735,-202,224.048,31.332,-0.00478801,0.0308249,0.00590656,0.031779,-0.00574208,1.41065,0.0233367,0.0274991,1959,1226,224.048,-31.332
742,-202,223.733,30.0825,-0.0117181,0.0360989,0.0103732,0.0382522,-0.0138714,1.36612,0.0311717,0.0232724,1966,1226,223.733,-30.0826
749,-202,223.424,28.9165,-0.0183647,0.0416672,0.0146718,0.0450611,-0.0217586,1.34347,0.0393526,0.0249202,1973,1226,223.424,-28.9165
756,-202,223.238,27.5803,-0.0247623,0.0474944,0.018842,0.0521125,-0.0293804,1.33044,0.0476563,0.0244108,1980,1226,223.238,-27.5803
763,-202,223.072,26.2289,0,0,0,0,0,0,0,-1,1987,1226,223.072,-26.2288
770,-202,219.638,25.0242,0,0,0,0,0,0,0,-1,1994,1226,219.638,-25.0242
777,-202,67.5615,-0.236572,0,0,0,0,0,0,0,-1,2001,1226,67.5615,0.236573
784,-202,66.7117,0.754517,0,0,0,0,0,0,0,-1,2008,1226,66.7118,-0.754543
791,-202,66.512,1.74207,0,0,0,0,0,0,0,-1,2015,1226,66.512,-1.74201
798,-202,51.8999,3.58789,0,0,0,0,0,0,0,-1,2022,1226,51.9,-3.58791
805,-202,0,0,0,0,0,0,0,0,0,-1,2029,1226,0,0
812,-202,0,0,0,0,0,0,0,0,0,-1,2036,1226,0,0
-700,-209,0,0,0,0,0,0,0,0,0,-1,524,1233,0,0
-693,-209,0,0,0,0,0,0,0,0,0,-1,531,1233,0,0
-686,-209,0,0,0,0,0,0,0,0,0,-1,538,1233,0,0
-679,-209,-178.342,21.2993,0,0,0,0,0,0,0,-1,545,1233,-178.342,-21.2994
-672,-209,-178.497,22.929,0,0,0,0,0,0,0,-1,552,1233,-178.497,-22.929
-665,-209,-178.528,24.5173,0,0,0,0,0,0,0,-1,559,1233,-178.528,-24.5173
-658,-209,-172.306,23.4949,0,0,0,0,0,0,0,-1,566,1233,-172.306,-23.4948
-651,-209,-48.544,5.83411,0,0,0,0,0,0,0,-1,573,1233,-48.544,-5.83409
-644,-209,-64.1546,-2.03052,0,0,0,0,0,0,0,-1,580,1233,-64.1546,2.03054
-637,-209,-93.7946,16.2063,0,0,0,0,0,0,0,-1,587,1233,-93.7946,-16.2063
-630,-209,-215.233,24.8651,0,0,0,0,0,0,0,-1,594,1233,-215.233,-24.8652
-623,-209,-215.428,26.224,-0.0203408,0.0530362,-0.0196063,0.0579465,-0.025251,-1.3254,0.049255,0.0297265,601,1233,-215.428,-26.2239
-616,-209,-215.603,27.3473,-0.0155035,0.0490394,-0.0174384,0.0534496,-0.0199137,-1.32309,0.0438067,0.0195232,608,1233,-215.603,-27.3473
-609,-209,-215.728,28.509,-0.0109971,0.0443692,-0.0146872,0.048024,-0.014652,-1.3269,0.0378572,0.0209747,615,1233,-215.728,-28.5091
-602,-209,-215.772,29.8457,-0.00666904,0.0394479,-0.0114038,0.0421138,-0.00933487,-1.34115,0.0316497,0.0457114,622,1233,-215.771,-29.8457
-595,-209,-215.663,31.0645,0,0,0,0,0,0,0,-1,629,1233,-215.663,-31.0644
-588,-209,-76.5599,20.4441,0,0,0,0,0,0,0,-1,636,1233,-76.5598,-20.4441
-581,-209,-76.5614,21.6544,0,0,0,0,0,0,0,-1,643,1233,-76.5614,-21.6544
-574,-209,-76.64,22.7886,0,0,0,0,0,0,0,-1,650,1233,-76.6399,-22.7886
-567,-209,-76.9697,24.0137,0,0,0,0,0,0,0,-1,657,1233,-76.9698,-24.0137
-560,-209,-13.9294,4.16626,0,0,0,0,0,0,0,-1,664,1233,-13.9294,-4.16621
-553,-209,-22.7542,0.748779,0,0,0,0,0,0,0,-1,671,1233,-22.7541,-0.748796
-546,-209,-44.691,0.142822,0,0,0,0,0,0,0,-1,678,1233,-44.6911,-0.142844
-539,-209,-65.5246,0.622681,0,0,0,0,0,0,0,-1,685,1233,-65.5246,-0.622625
-532,-209,-71.7545,0.510864,0,0,0,0,0,0,0,-1,692,1233,-71.7545,-0.510841
-525,-209,-71.8335,0.54895,0,0,0,0,0,0,0,-1,699,1233,-71.8335,-0.548929
-518,-209,-72.0107,0.633545,0,0,0,0,0,0,0,-1,706,1233,-72.0108,-0.633602
-511,-209,-72.1729,0.666382,0,0,0,0,0,0,0,-1,713,1233,-72.1729,-0.666353
-504,-209,0,0,0,0,0,0,0,0,0,-1,720,1233,0,0
-497,-209,0,0,0,0,0,0,0,0,0,-1,727,1233,0,0
-490,-209,0,0,0,0,0,0,0,0,0,-1,734,1233,0,0
-483,-209,0,0,0,0,0,0,0,0,0,-1,741,1233,0,0
-476,-209,0,0,0,0,0,0,0,0,0,-1,748,1233,0,0
-469,-209,0,0,0,0,0,0,0,0,0,-1,755,1233,0,0
-462,-209,0,0,0,0,0,0,0,0,0,-1,762,1233,0,0
-455,-209,0,0,0,0,0,0,0,0,0,-1,769,1233,0,0
-448,-209,0,0,0,0,0,0,0,0,0,-1,776,1233,0,0
-441,-209,0,0,0,0,0,0,0,0,0,-1,783,1233,0,0
-434,-209,0,0,0,0,0,0,0,0,0,-1,790,1233,0,0
-427,-209,0,0,0,0,0,0,0,0,0,-1,797,1233,0,0
-420,-209,0,0,0,0,0,0,0,0,0,-1,804,1233,0,0
-413,-209,0,0,0,0,0,0,0,0,0,-1,811,1233,0,0
-406,-209,0,0,0,0,0,0,0,0,0,-1,818,1233,0,0
-399,-209,0,0,0,0,0,0,0,0,0,-1,825,1233,0,0
-392,-209,0,0,0,0,0,0,0,0,0,-1,832,1233,0,0
-385,-209,0,0,0,0,0,0,0,0,0,-1,839,1233,0,0
-378,-209,0,0,0,0,0,0,0,0,0,-1,846,1233,0,0
-371,-209,0,0,0,0,0,0,0,0,0,-1,853,1233,0,0
-364,-209,0,0,0,0,0,0,0,0,0,-1,860,1233,0,0
-357,-209,0,0,0,0,0,0,0,0,0,-1,867,1233,0,0
-350,-209,0,0,0,0,0,0,0,0,0,-1,874,1233,0,0
-343,-209,0,0,0,0,0,0,0,0,0,-1,881,1233,0,0
-336,-209,0,0,0,0,0,0,0,0,0,-1,888,1233,0,0
-329,-209,0,0,0,0,0,0,0,0,0,-1,895,1233,0,0
-322,-209,0,0,0,0,0,0,0,0,0,-1,902,1233,0,0
-315,-209,0,0,0,0,0,0,0,0,0,-1,909,1233,0,0
-308,-209,0,0,0,0,0,0,0,0,0,-1,916,1233,0,0
-301,-209,0,0,0,0,0,0,0,0,0,-1,923,1233,0,0
-294,-209,0,0,0,0,0,0,0,0,0,-1,930,1233,0,0
-287,-209,0,0,0,0,0,0,0,0,0,-1,937,1233,0,0
-280,-209,0,0,0,0,0,0,0,0,0,-1,944,1233,0,0
-273,-209,0,0,0,0,0,0,0,0,0,-1,951,1233,0,0
-266,-209,0,0,0,0,0,0,0,0,0,-1,958,1233,0,0
-259,-209,0,0,0,0,0,0,0,0,0,-1,965,1233,0,0
-252,-209,0,0,0,0,0,0,0,0,0,-1,972,1233,0,0
-245,-209,0,0,0,0,0,0,0,0,0,-1,979,1233,0,0
-238,-209,0,0,0,0,0,0,0,0,0,-1,986,1233,0,0
-231,-209,0,0,0,0,0,0,0,0,0,-1,993,1233,0,0
-224,-209,0,0,0,0,0,0,0,0,0,-1,1000,1233,0,0
-217,-209,0,0,0,0,0,0,0,0,0,-1,1007,1233,0,0
-210,-209,0,0,0,0,0,0,0,0,0,-1,1014,1233,0,0
-203,-209,0,0,0,0,0,0,0,0,0,-1,1021,1233,0,0
-196,-209,0,0,0,0,0,0,0,0,0,-1,1028,1233,0,0
-189,-209,0,0,0,0,0,0,0,0,0,-1,1035,1233,0,0
-182,-209,0,0,0,0,0,0,0,0,0,-1,1042,1233,0,0
-175,-209,0,0,0,0,0,0,0,0,0,-1,1049,1233,0,0
-168,-209,0,0,0,0,0,0,0,0,0,-1,1056,1233,0,0
-161,-209,0,0,0,0,0,0,0,0,0,-1,1063,1233,0,0
-154,-209,0,0,0,0,0,0,0,0,0,-1,1070,1233,0,0
-147,-209,0,0,0,0,0,0,0,0,0,-1,1077,1233,0,0
-140,-209,0,0,0,0,0,0,0,0,0,-1,1084,1233,0,0
-133,-209,0,0,0,0,0,0,0,0,0,-1,1091,1233,0,0
-126,-209,0,0,0,0,0,0,0,0,0,-1,1098,1233,0,0
-119,-209,0,0,0,0,0,0,0,0,0,-1,1105,1233,0,0
-112,-209,0,0,0,0,0,0,0,0,0,-1,1112,1233,0,0
-105,-209,0,0,0,0,0,0,0,0,0,-1,1119,1233,0,0
-98,-209,0,0,0,0,0,0,0,0,0,-1,1126,1233,0,0
-91,-209,0,0,0,0,0,0,0,0,0,-1,1133,1233,0,0
-84,-209,0,0,0,0,0,0,0,0,0,-1,1140,1233,0,0
-77,-209,0,0,0,0,0,0,0,0,0,-1,1147,1233,0,0
-70,-209,0,0,0,0,0,0,0,0,0,-1,1154,1233,0,0
-63,-209,0,0,0,0,0,0,0,0,0,-1,1161,1233,0,0
-56,-209,0,0,0,0,0,0,0,0,0,-1,1168,1233,0,0
-49,-209,0,0,0,0,0,0,0,0,0,-1,1175,1233,0,0
-42,-209,0,0,0,0,0,0,0,0,0,-1,1182,1233,0,0
-35,-209,0,0,0,0,0,0,0,0,0,-1,1189,1233,0,0
-28,-209,0,0,0,0,0,0,0,0,0,-1,1196,1233,0,0
-21,-209,0,0,0,0,0,0,0,0,0,-1,1203,1233,0,0
-14,-209,0,0,0,0,0,0,0,0,0,-1,1210,1233,0,0
-7,-209,0,0,0,0,0,0,0,0,0,-1,1217,1233,0,0
0,-209,0,0,0,0,0,0,0,0,0,-1,1224,1233,0,0
7,-209,0,0,0,0,0,0,0,0,0,-1,1231,1233,0,0
14,-209,0,0,0,0,0,0,0,0,0,-1,1238,1233,0,0
21,-209,0,0,0,0,0,0,0,0,0,-1,1245,1233,0,0
28,-209,0,0,0,0,0,0,0,0,0,-1,1252,1233,0,0
35,-209,0,0,0,0,0,0,0,0,0,-1,1259,1233,0,0
42,-209,0,0,0,0,0,0,0,0,0,-1,1266,1233,0,0
49,-209,0,0,0,0,0,0,0,0,0,-1,1273,1233,0,0
56,-209,0,0,0,0,0,0,0,0,0,-1,1280,1233,0,0
63,-209,0,0,0,0,0,0,0,0,0,-1,1287,1233,0,0
70,-209,0,0,0,0,0,0,0,0,0,-1,1294,1233,0,0
77,-209,0,0,0,0,0,0,0,0,0,-1,1301,1233,0,0
84,-209,0,0,0,0,0,0,0,0,0,-1,1308,1233,0,0
91,-209,0,0,0,0,0,0,0,0,0,-1,1315,1233,0,0
98,-209,0,0,0,0,0,0,0,0,0,-1,1322,1233,0,0
105,-209,0,0,0,0,0,0,0,0,0,-1,1329,1233,0,0
112,-209,0,0,0,0,0,0,0,0,0,-1,1336,1233,0,0
119,-209,0,0,0,0,0,0,0,0,0,-1,1343,1233,0,0
126,-209,0,0,0,0,0,0,0,0,0,-1,1350,1233,0,0
133,-209,0,0,0,0,0,0,0,0,0,-1,1357,1233,0,0
140,-209,0,0,0,0,0,0,0,0,0,-1,1364,1233,0,0
147,-209,0,0,0,0,0,0,0,0,0,-1,1371,1233,0,0
154,-209,0,0,0,0,0,0,0,0,0,-1,1378,1233,0,0
161,-209,0,0,0,0,0,0,0,0,0,-1,1385,1233,0,0
168,-209,0,0,0,0,0,0,0,0,0,-1,1392,1233,0,0
175,-209,0,0,0,0,0,0,0,0,0,-1,1399,1233,0,0
182,-209,0,0,0,0,0,0,0,0,0,-1,1406,1233,0,0
189,-209,0,0,0,0,0,0,0,0,0,-1,1413,1233,0,0
196,-209,0,0,0,0,0,0,0,0,0,-1,1420,1233,0,0
203,-209,0,0,0,0,0,0,0,0,0,-1,1427,1233,0,0
210,-209,0,0,0,0,0,0,0,0,0,-1,1434,1233,0,0
217,-209,0,0,0,0,0,0,0,0,0,-1,1441,1233,0,0
224,-209,0,0,0,0,0,0,0,0,0,-1,1448,1233,0,0
231,-209,0,0,0,0,0,0,0,0,0,-1,1455,1233,0,0
238,-209,0,0,0,0,0,0,0,0,0,-1,1462,1233,0,0
245,-209,0,0,0,0,0,0,0,0,0,-1,1469,1233,0,0
252,-209,0,0,0,0,0,0,0,0,0,-1,1476,1233,0,0
259,-209,0,0,0,0,0,0,0,0,0,-1,1483,1233,0,0
266,-209,0,0,0,0,0,0,0,0,0,-1,1490,1233,0,0
273,-209,0,0,0,0,0,0,0,0,0,-1,1497,1233,0,0
280,-209,0,0,0,0,0,0,0,0,0,-1,1504,1233,0,0
287,-209,0,0,0,0,0,0,0,0,0,-1,1511,1233,0,0
294,-209,0,0,0,0,0,0,0,0,0,-1,1518,1233,0,0
301,-209,0,0,0,0,0,0,0,0,0,-1,1525,1233,0,0
308,-209,0,0,0,0,0,0,0,0,0,-1,1532,1233,0,0
315,-209,0,0,0,0,0,0,0,0,0,-1,1539,1233,0,0
322,-209,0,0,0,0,0,0,0,0,0,-1,1546,1233,0,0
329,-209,0,0,0,0,0,0,0,0,0,-1,1553,1233,0,0
336,-209,0,0,0,0,0,0,0,0,0,-1,1560,1233,0,0
343,-209,0,0,0,0,0,0,0,0,0,-1,1567,1233,0,0
350,-209,0,0,0,0,0,0,0,0,0,-1,1574,1233,0,0
357,-209,0,0,0,0,0,0,0,0,0,-1,1581,1233,0,0
364,-209,0,0,0,0,0,0,0,0,0,-1,1588,1233,0,0
371,-209,0,0,0,0,0,0,0,0,0,-1,1595,1233,0,0
378,-209,0,0,0,0,0,0,0,0,0,-1,1602,1233,0,0
385,-209,0,0,0,0,0,0,0,0,0,-1,1609,1233,0,0
392,-209,0,0,0,0,0,0,0,0,0,-1,1616,1233,0,0
399,-209,0,0,0,0,0,0,0,0,0,-1,1623,1233,0,0
406,-209,0,0,0,0,0,0,0,0,0,-1,1630,1233,0,0
413,-209,0,0,0,0,0,0,0,0,0,-1,1637,1233,0,0
420,-209,0,0,0,0,0,0,0,0,0,-1,1644,1233,0,0
427,-209,0,0,0,0,0,0,0,0,0,-1,1651,1233,0,0
434,-209,0,0,0,0,0,0,0,0,0,-1,1658,1233,0,0
441,-209,0,0,0,0,0,0,0,0,0,-1,1665,1233,0,0
448,-209,0,0,0,0,0,0,0,0,0,-1,1672,1233,0,0
455,-209,0,0,0,0,0,0,0,0,0,-1,1679,1233,0,0
462,-209,0,0,0,0,0,0,0,0,0,-1,1686,1233,0,0
469,-209,0,0,0,0,0,0,0,0,0,-1,1693,1233,0,0
476,-209,0,0,0,0,0,0,0,0,0,-1,1700,1233,0,0
483,-209,0,0,0,0,0,0,0,0,0,-1,1707,1233,0,0
490,-209,0,0,0,0,0,0,0,0,0,-1,1714,1233,0,0
497,-209,0,0,0,0,0,0,0,0,0,-1,1721,1233,0,0
504,-209,0,0,0,0,0,0,0,0,0,-1,1728,1233,0,0
511,-209,0,0,0,0,0,0,0,0,0,-1,1735,1233,0,0
518,-209,0,0,0,0,0,0,0,0,0,-1,1742,1233,0,0
525,-209,0,0,0,0,0,0,0,0,0,-1,1749,1233,0,0
532,-209,0,0,0,0,0,0,0,0,0,-1,1756,1233,0,0
539,-209,0,0,0,0,0,0,0,0,0,-1,1763,1233,0,0
546,-209,0,0,0,0,0,0,0,0,0,-1,1770,1233,0,0
553,-209,0,0,0,0,0,0,0,0,0,-1,1777,1233,0,0
560,-209,0,0,0,0,0,0,0,0,0,-1,1784,1233,0,0
567,-209,0,0,0,0,0,0,0,0,0,-1,1791,1233,0,0
574,-209,0,0,0,0,0,0,0,0,0,-1,1798,1233,0,0
581,-209,0,0,0,0,0,0,0,0,0,-1,1805,1233,0,0
588,-209,0,0,0,0,0,0,0,0,0,-1,1812,1233,0,0
595,-209,0,0,0,0,0,0,0,0,0,-1,1819,1233,0,0
602,-209,0,0,0,0,0,0,0,0,0,-1,1826,1233,0,0
609,-209,0,0,0,0,0,0,0,0,0,-1,1833,1233,0,0
616,-209,0,0,0,0,0,0,0,0,0,-1,1840,1233,0,0
623,-209,235.064,8.75037,0,0,0,0,0,0,0,-1,1847,1233,235.064,-8.75035
630,-209,235.078,8.57996,0,0,0,0,0,0,0,-1,1854,1233,235.078,-8.5799
637,-209,235.11,8.71423,0,0,0,0,0,0,0,-1,1861,1233,235.11,-8.71422
644,-209,235.131,8.80469,0,0,0,0,0,0,0,-1,1868,1233,235.131,-8.80466
651,-209,235.158,8.7345,0,0,0,0,0,0,0,-1,1875,1233,235.158,-8.7345
658,-209,235.115,8.75806,0,0,0,0,0,0,0,-1,1882,1233,235.115,-8.75801
665,-209,235.224,8.71033,0,0,0,0,0,0,0,-1,1889,1233,235.224,-8.71035
672,-209,87.3463,1.96936,0,0,0,0,0,0,0,-1,1896,1233,87.3464,-1.96942
679,-209,55.2465,2.78674,0,0,0,0,0,0,0,-1,1903,1233,55.2464,-2.78678
686,-209,33.3711,3.89856,0,0,0,0,0,0,0,-1,1910,1233,33.3711,-3.89855
693,-209,60.7567,13.6616,0,0,0,0,0,0,0,-1,1917,1233,60.7567,-13.6616
700,-209,84.3783,20.4895,0,0,0,0,0,0,0,-1,1924,1233,84.3783,-20.4894
707,-209,222.772,36.8969,0,0,0,0,0,0,0,-1,1931,1233,222.772,-36.8969
714,-209,222.976,35.4971,0,0,0,0,0,0,0,-1,1938,1233,222.976,-35.4971
721,-209,222.956,34.1105,0.00730684,0.0228395,-0.00211415,0.0231221,0.00702422,-1.43791,0.0136879,0.0320285,1945,1233,222.956,-34.1105
728,-209,222.88,32.6841,-2.40433e-05,0.0274411,0.00295579,0.0277556,-0.000338543,1.46479,0.0186176,0.0323101,1952,1233,222.88,-32.6841
735,-209,222.578,31.3846,0,0,0,0,0,0,0,-1,1959,1233,222.578,-31.3847
742,-209,222.223,30.0579,0,0,0,0,0,0,0,-1,1966,1233,222.223,-30.0579
749,-209,221.973,28.8187,-0.0211224,0.0433255,0.0172801,0.0476664,-0.0254632,1.32468,0.0428652,0.0484061,1973,1233,221.973,-28.8187
756,-209,221.632,27.3713,-0.0278026,0.0493697,0.0216693,0.0550379,-0.0334708,1.31495,0.0516037,0.0276219,1980,1233,221.632,-27.3713
763,-209,221.426,25.9175,0,0,0,0,0,0,0,-1,1987,1233,221.426,-25.9175
770,-209,205.474,26.182,0,0,0,0,0,0,0,-1,1994,1233,205.474,-26.182
777,-209,68.0347,-0.36377,0,0,0,0,0,0,0,-1,2001,1233,68.0346,0.363742
784,-209,67.6289,0.771729,0,0,0,0,0,0,0,-1,2008,1233,67.6289,-0.771742
791,-209,67.1841,1.90906,0,0,0,0,0,0,0,-1,2015,1233,67.1841,-1.90909
798,-209,53.6404,3.71179,0,0,0,0,0,0,0,-1,2022,1233,53.6404,-3.71185
805,-209,0,0,0,0,0,0,0,0,0,-1,2029,1233,0,0
812,-209,0,0,0,0,0,0,0,0,0,-1,2036,1233,0,0
-700,-216,0,0,0,0,0,0,0,0,0,-1,524,1240,0,0
-693,-216,0,0,0,0,0,0,0,0,0,-1,531,1240,0,0
-686,-216,0,0,0,0,0,0,0,0,0,-1,538,1240,0,0
-679,-216,-177.594,21.6741,0,0,0,0,0,0,0,-1,545,1240,-177.594,-21.674
-672,-216,-178.041,23.2711,0,0,0,0,0,0,0,-1,552,1240,-178.041,-23.2711
-665,-216,-175.086,22.3207,0,0,0,0,0,0,0,-1,559,1240,-175.086,-22.3207
-658,-216,-78.3845,24.0464,0,0,0,0,0,0,0,-1,566,1240,-78.3845,-24.0463
-651,-216,-63.4149,-2.69446,0,0,0,0,0,0,0,-1,573,1240,-63.4149,2.69441
-644,-216,-63.9308,-2.41199,0,0,0,0,0,0,0,-1,580,1240,-63.9308,2.41198
-637,-216,-196.014,24.4456,0,0,0,0,0,0,0,-1,587,1240,-196.014,-24.4455
-630,-216,-213.412,24.5911,0,0,0,0,0,0,0,-1,594,1240,-213.412,-24.591
-623,-216,-213.787,26.0448,-0.0200037,0.0543989,-0.0201493,0.0595052,-0.02511,-1.3226,0.0501799,0.0316473,601,1240,-213.787,-26.0448
-616,-216,-214.021,27.1428,-0.0155972,0.0510496,-0.0182899,0.0557389,-0.0202866,-1.31981,0.0454563,0.0218434,608,1240,-214.021,-27.1428
-609,-216,-214.231,28.3796,-0.0113302,0.0465341,-0.0156025,0.050473,-0.0152691,-1.32351,0.0397288,0.0198858,615,1240,-214.231,-28.3797
-602,-216,-214.315,29.8453,-0.00711184,0.0416657,-0.0122935,0.0445889,-0.010035,-1.33735,0.0335746,0.0310826,622,1240,-214.315,-29.8454
-595,-216,-214.244,31.3281,0,0,0,0,0,0,0,-1,629,1240,-214.244,-31.3282
-588,-216,-76.3784,20.2157,0,0,0,0,0,0,0,-1,636,1240,-76.3784,-20.2156
-581,-216,-75.1554,21.9757,0,0,0,0,0,0,0,-1,643,1240,-75.1554,-21.9757
-574,-216,-75.3052,22.9486,0,0,0,0,0,0,0,-1,650,1240,-75.3051,-22.9486
-567,-216,-48.2406,14.5559,0,0,0,0,0,0,0,-1,657,1240,-48.2406,-14.5559
-560,-216,-16.5087,5.4574,0,0,0,0,0,0,0,-1,664,1240,-16.5087,-5.45746
-553,-216,-16.2355,1.22351,0,0,0,0,0,0,0,-1,671,1240,-16.2356,-1.22356
-546,-216,-37.1617,-0.25415,0,0,0,0,0,0,0,-1,678,1240,-37.1618,0.254161
-539,-216,-47.7817,1.47327,0,0,0,0,0,0,0,-1,685,1240,-47.7818,-1.4733
-532,-216,-68.0657,0.361084,0,0,0,0,0,0,0,-1,692,1240,-68.0657,-0.361113
-525,-216,-71.8069,0.608032,0,0,0,0,0,0,0,-1,699,1240,-71.8069,-0.608086
-518,-216,-71.9826,0.685303,0,0,0,0,0,0,0,-1,706,1240,-71.9826,-0.685246
-511,-216,-72.0073,0.585571,0,0,0,0,0,0,0,-1,713,1240,-72.0072,-0.585511
-504,-216,-71.8983,0.502075,0,0,0,0,0,0,0,-1,720,1240,-71.8983,-0.502107
-497,-216,0,0,0,0,0,0,0,0,0,-1,727,1240,0,0
-490,-216,0,0,0,0,0,0,0,0,0,-1,734,1240,0,0
-483,-216,0,0,0,0,0,0,0,0,0,-1,741,1240,0,0
-476,-216,0,0,0,0,0,0,0,0,0,-1,748,1240,0,0
-469,-216,0,0,0,0,0,0,0,0,0,-1,755,1240,0,0
-462,-216,0,0,0,0,0,0,0,0,0,-1,762,1240,0,0
-455,-216,0,0,0,0,0,0,0,0,0,-1,769,1240,0,0
-448,-216,0,0,0,0,0,0,0,0,0,-1,776,1240,0,0
-441,-216,0,0,0,0,0,0,0,0,0,-1,783,1240,0,0
-434,-216,0,0,0,0,0,0,0,0,0,-1,790,1240,0,0
-427,-216,0,0,0,0,0,0,0,0,0,-1,797,1240,0,0
-420,-216,0,0,0,0,0,0,0,0,0,-1,804,1240,0,0
-413,-216,0,0,0,0,0,0,0,0,0,-1,811,1240,0,0
-406,-216,0,0,0,0,0,0,0,0,0,-1,818,1240,0,0
-399,-216,0,0,0,0,0,0,0,0,0,-1,825,1240,0,0
-392,-216,0,0,0,0,0,0,0,0,0,-1,832,1240,0,0
-385,-216,0,0,0,0,0,0,0,0,0,-1,839,1240,0,0
-378,-216,0,0,0,0,0,0,0,0,0,-1,846,1240,0,0
-371,-216,0,0,0,0,0,0,0,0,0,-1,853,1240,0,0
-364,-216,0,0,0,0,0,0,0,0,0,-1,860,1240,0,0
-357,-216,0,0,0,0,0,0,0,0,0,-1,867,1240,0,0
-350,-216,0,0,0,0,0,0,0,0,0,-1,874,1240,0,0
-343,-216,0,0,0,0,0,0,0,0,0,-1,881,1240,0,0
-336,-216,0,0,0,0,0,0,0,0,0,-1,888,1240,0,0
-329,-216,0,0,0,0,0,0,0,0,0,-1,895,1240,0,0
-322,-216,0,0,0,0,0,0,0,0,0,-1,902,1240,0,0
-315,-216,0,0,0,0,0,0,0,0,0,-1,909,1240,0,0
-308,-216,0,0,0,0,0,0,0,0,0,-1,916,1240,0,0
-301,-216,0,0,0,0,0,0,0,0,0,-1,923,1240,0,0
-294,-216,0,0,0,0,0,0,0,0,0,-1,930,1240,0,0
-287,-216,0,0,0,0,0,0,0,0,0,-1,937,1240,0,0
-280,-216,0,0,0,0,0,0,0,0,0,-1,944,1240,0,0
-273,-216,0,0,0,0,0,0,0,0,0,-1,951,1240,0,0
-266,-216,0,0,0,0,0,0,0,0,0,-1,958,1240,0,0
-259,-216,0,0,0,0,0,0,0,0,0,-1,965,1240,0,0
-252,-216,0,0,0,0,0,0,0,0,0,-1,972,1240,0,0
-245,-216,0,0,0,0,0,0,0,0,0,-1,979,1240,0,0
-238,-216,0,0,0,0,0,0,0,0,0,-1,986,1240,0,0
-231,-216,0,0,0,0,0,0,0,0,0,-1,993,1240,0,0
-224,-216,0,0,0,0,0,0,0,0,0,-1,1000,1240,0,0
-217,-216,0,0,0,0,0,0,0,0,0,-1,1007,1240,0,0
-210,-216,0,0,0,0,0,0,0,0,0,-1,1014,1240,0,0
-203,-216,0,0,0,0,0,0,0,0,0,-1,1021,1240,0,0
-196,-216,0,0,0,0,0,0,0,0,0,-1,1028,1240,0,0
-189,-216,0,0,0,0,0,0,0,0,0,-1,1035,1240,0,0
-182,-216,0,0,0,0,0,0,0,0,0,-1,1042,1240,0,0
-175,-216,0,0,0,0,0,0,0,0,0,-1,1049,1240,0,0
-168,-216,0,0,0,0,0,0,0,0,0,-1,1056,1240,0,0
-161,-216,0,0,0,0,0,0,0,0,0,-1,1063,1240,0,0
-154,-216,0,0,0,0,0,0,0,0,0,-1,1070,1240,0,0
-147,-216,0,0,0,0,0,0,0,0,0,-1,1077,1240,0,0
-140,-216,0,0,0,0,0,0,0,0,0,-1,1084,1240,0,0
-133,-216,0,0,0,0,0,0,0,0,0,-1,1091,1240,0,0
-126,-216,0,0,0,0,0,0,0,0,0,-1,1098,1240,0,0
-119,-216,0,0,0,0,0,0,0,0,0,-1,1105,1240,0,0
-112,-216,0,0,0,0,0,0,0,0,0,-1,1112,1240,0,0
-105,-216,0,0,0,0,0,0,0,0,0,-1,1119,1240,0,0
-98,-216,0,0,0,0,0,0,0,0,0,-1,1126,1240,0,0
-91,-216,0,0,0,0,0,0,0,0,0,-1,1133,1240,0,0
-84,-216,0,0,0,0,0,0,0,0,0,-1,1140,1240,0,0
-77,-216,0,0,0,0,0,0,0,0,0,-1,1147,1240,0,0
-70,-216,0,0,0,0,0,0,0,0,0,-1,1154,1240,0,0
-63,-216,0,0,0,0,0,0,0,0,0,-1,1161,1240,0,0
-56,-216,0,0,0,0,0,0,0,0,0,-1,1168,1240,0,0
-49,-216,0,0,0,0,0,0,0,0,0,-1,1175,1240,0,0
-42,-216,0,0,0,0,0,0,0,0,0,-1,1182,1240,0,0
-35,-216,0,0,0,0,0,0,0,0,0,-1,1189,1240,0,0
-28,-216,0,0,0,0,0,0,0,0,0,-1,1196,1240,0,0
-21,-216,0,0,0,0,0,0,0,0,0,-1,1203,1240,0,0
-14,-216,0,0,0,0,0,0,0,0,0,-1,1210,1240,0,0
-7,-216,0,0,0,0,0,0,0,0,0,-1,1217,1240,0,0
0,-216,0,0,0,0,0,0,0,0,0,-1,1224,1240,0,0
7,-216,0,0,0,0,0,0,0,0,0,-1,1231,1240,0,0
14,-216,0,0,0,0,0,0,0,0,0,-1,1238,1240,0,0
21,-216,0,0,0,0,0,0,0,0,0,-1,1245,1240,0,0
28,-216,0,0,0,0,0,0,0,0,0,-1,1252,1240,0,0
35,-216,0,0,0,0,0,0,0,0,0,-1,1259,1240,0,0
42,-216,0,0,0,0,0,0,0,0,0,-1,1266,1240,0,0
49,-216,0,0,0,0,0,0,0,0,0,-1,1273,1240,0,0
56,-216,0,0,0,0,0,0,0,0,0,-1,1280,1240,0,0
63,-216,0,0,0,0,0,0,0,0,0,-1,1287,1240,0,0
70,-216,0,0,0,0,0,0,0,0,0,-1,1294,1240,0,0
77,-216,0,0,0,0,0,0,0,0,0,-1,1301,1240,0,0
84,-216,0,0,0,0,0,0,0,0,0,-1,1308,1240,0,0
91,-216,0,0,0,0,0,0,0,0,0,-1,1315,1240,0,0
98,-216,0,0,0,0,0,0,0,0,0,-1,1322,1240,0,0
105,-216,0,0,0,0,0,0,0,0,0,-1,1329,1240,0,0
112,-216,0,0,0,0,0,0,0,0,0,-1,1336,1240,0,0
119,-216,0,0,0,0,0,0,0,0,0,-1,1343,1240,0,0
126,-216,0,0,0,0,0,0,0,0,0,-1,1350,1240,0,0
133,-216,0,0,0,0,0,0,0,0,0,-1,1357,1240,0,0
140,-216,0,0,0,0,0,0,0,0,0,-1,1364,1240,0,0
147,-216,0,0,0,0,0,0,0,0,0,-1,1371,1240,0,0
154,-216,0,0,0,0,0,0,0,0,0,-1,1378,1240,0,0
161,-216,0,0,0,0,0,0,0,0,0,-1,1385,1240,0,0
168,-216,0,0,0,0,0,0,0,0,0,-1,1392,1240,0,0
175,-216,0,0,0,0,0,0,0,0,0,-1,1399,1240,0,0
182,-216,0,0,0,0,0,0,0,0,0,-1,1406,1240,0,0
189,-216,0,0,0,0,0,0,0,0,0,-1,1413,1240,0,0
196,-216,0,0,0,0,0,0,0,0,0,-1,1420,1240,0,0
203,-216,0,0,0,0,0,0,0,0,0,-1,1427,1240,0,0
210,-216,0,0,0,0,0,0,0,0,0,-1,1434,1240,0,0
217,-216,0,0,0,0,0,0,0,0,0,-1,1441,1240,0,0
224,-216,0,0,0,0,0,0,0,0,0,-1,1448,1240,0,0
231,-216,0,0,0,0,0,0,0,0,0,-1,1455,1240,0,0
238,-216,0,0,0,0,0,0,0,0,0,-1,1462,1240,0,0
245,-216,0,0,0,0,0,0,0,0,0,-1,1469,1240,0,0
252,-216,0,0,0,0,0,0,0,0,0,-1,1476,1240,0,0
259,-216,0,0,0,0,0,0,0,0,0,-1,1483,1240,0,0
266,-216,0,0,0,0,0,0,0,0,0,-1,1490,1240,0,0
273,-216,0,0,0,0,0,0,0,0,0,-1,1497,1240,0,0
280,-216,0,0,0,0,0,0,0,0,0,-1,1504,1240,0,0
287,-216,0,0,0,0,0,0,0,0,0,-1,1511,1240,0,0
294,-216,0,0,0,0,0,0,0,0,0,-1,1518,1240,0,0
301,-216,0,0,0,0,0,0,0,0,0,-1,1525,1240,0,0
308,-216,0,0,0,0,0,0,0,0,0,-1,1532,1240,0,0
315,-216,0,0,0,0,0,0,0,0,0,-1,1539,1240,0,0
322,-216,0,0,0,0,0,0,0,0,0,-1,1546,1240,0,0
329,-216,0,0,0,0,0,0,0,0,0,-1,1553,1240,0,0
336,-216,0,0,0,0,0,0,0,0,0,-1,1560,1240,0,0
343,-216,0,0,0,0,0,0,0,0,0,-1,1567,1240,0,0
350,-216,0,0,0,0,0,0,0,0,0,-1,1574,1240,0,0
357,-216,0,0,0,0,0,0,0,0,0,-1,1581,1240,0,0
364,-216,0,0,0,0,0,0,0,0,0,-1,1588,1240,0,0
371,-216,0,0,0,0,0,0,0,0,0,-1,1595,1240,0,0
378,-216,0,0,0,0,0,0,0,0,0,-1,1602,1240,0,0
385,-216,0,0,0,0,0,0,0,0,0,-1,1609,1240,0,0
392,-216,0,0,0,0,0,0,0,0,0,-1,1616,1240,0,0
399,-216,0,0,0,0,0,0,0,0,0,-1,1623,1240,0,0
406,-216,0,0,0,0,0,0,0,0,0,-1,1630,1240,0,0
413,-216,0,0,0,0,0,0,0,0,0,-1,1637,1240,0,0
420,-216,0,0,0,0,0,0,0,0,0,-1,1644,1240,0,0
427,-216,0,0,0,0,0,0,0,0,0,-1,1651,1240,0,0
434,-216,0,0,0,0,0,0,0,0,0,-1,1658,1240,0,0
441,-216,0,0,0,0,0,0,0,0,0,-1,1665,1240,0,0
448,-216,0,0,0,0,0,0,0,0,0,-1,1672,1240,0,0
455,-216,0,0,0,0,0,0,0,0,0,-1,1679,1240,0,0
462,-216,0,0,0,0,0,0,0,0,0,-1,1686,1240,0,0
469,-216,0,0,0,0,0,0,0,0,0,-1,1693,1240,0,0
476,-216,0,0,0,0,0,0,0,0,0,-1,1700,1240,0,0
483,-216,0,0,0,0,0,0,0,0,0,-1,1707,1240,0,0
490,-216,0,0,0,0,0,0,0,0,0,-1,1714,1240,0,0
497,-216,0,0,0,0,0,0,0,0,0,-1,1721,1240,0,0
504,-216,0,0,0,0,0,0,0,0,0,-1,1728,1240,0,0
511,-216,0,0,0,0,0,0,0,0,0,-1,1735,1240,0,0
518,-216,0,0,0,0,0,0,0,0,0,-1,1742,1240,0,0
525,-216,0,0,0,0,0,0,0,0,0,-1,1749,1240,0,0
532,-216,0,0,0,0,0,0,0,0,0,-1,1756,1240,0,0
539,-216,0,0,0,0,0,0,0,0,0,-1,1763,1240,0,0
546,-216,0,0,0,0,0,0,0,0,0,-1,1770,1240,0,0
553,-216,0,0,0,0,0,0,0,0,0,-1,1777,1240,0,0
560,-216,0,0,0,0,0,0,0,0,0,-1,1784,1240,0,0
567,-216,0,0,0,0,0,0,0,0,0,-1,1791,1240,0,0
574,-216,0,0,0,0,0,0,0,0,0,-1,1798,1240,0,0
581,-216,0,0,0,0,0,0,0,0,0,-1,1805,1240,0,0
588,-216,0,0,0,0,0,0,0,0,0,-1,1812,1240,0,0
595,-216,0,0,0,0,0,0,0,0,0,-1,1819,1240,0,0
602,-216,0,0,0,0,0,0,0,0,0,-1,1826,1240,0,0
609,-216,0,0,0,0,0,0,0,0,0,-1,1833,1240,0,0
616,-216,0,0,0,0,0,0,0,0,0,-1,1840,1240,0,0
623,-216,234.964,8.80688,0,0,0,0,0,0,0,-1,1847,1240,234.964,-8.80689
630,-216,235.018,8.79578,0,0,0,0,0,0,0,-1,1854,1240,235.018,-8.79584
637,-216,235.075,8.84473,0,0,0,0,0,0,0,-1,1861,1240,235.075,-8.84469
644,-216,235.055,8.87341,0,0,0,0,0,0,0,-1,1868,1240,235.055,-8.87345
651,-216,235.063,8.81067,0,0,0,0,0,0,0,-1,1875,1240,235.063,-8.8107
658,-216,235.112,8.81982,0,0,0,0,0,0,0,-1,1882,1240,235.112,-8.81985
665,-216,101.954,2.26392,0,0,0,0,0,0,0,-1,1889,1240,101.954,-2.26386
672,-216,68.6339,1.33826,0,0,0,0,0,0,0,-1,1896,1240,68.6339,-1.33828
679,-216,47.3159,3.82703,0,0,0,0,0,0,0,-1,1903,1240,47.316,-3.82708
686,-216,21.5172,6.19458,0,0,0,0,0,0,0,-1,1910,1240,21.5172,-6.19453
693,-216,56.1224,12.7039,0,0,0,0,0,0,0,-1,1917,1240,56.1224,-12.7038
700,-216,82.1761,20.2852,0,0,0,0,0,0,0,-1,1924,1240,82.1761,-20.2852
707,-216,170.891,39.0442,0,0,0,0,0,0,0,-1,1931,1240,170.891,-39.0442
714,-216,221.201,35.6854,0,0,0,0,0,0,0,-1,1938,1240,221.201,-35.6854
721,-216,221.328,34.0873,0.00479928,0.0243911,-0.000242355,0.0243941,0.00479629,-1.55843,0.0149231,0.0304161,1945,1240,221.328,-34.0873
728,-216,221.304,32.5743,-0.00237872,0.0289612,0.00510903,0.0297731,-0.00319056,1.41321,0.0209932,0.0279202,1952,1240,221.305,-32.5743
735,-216,221.04,31.1833,0,0,0,0,0,0,0,-1,1959,1240,221.04,-31.1834
742,-216,177.203,31.9943,0,0,0,0,0,0,0,-1,1966,1240,177.203,-31.9942
749,-216,220.392,28.4119,0,0,0,0,0,0,0,-1,1973,1240,220.392,-28.4119
756,-216,219.955,27.1887,-0.0305311,0.0511372,0.0249679,0.0581656,-0.0375595,1.2964,0.0556921,0.0256587,1980,1240,219.955,-27.1887
763,-216,219.586,25.8042,0,0,0,0,0,0,0,-1,1987,1240,219.586,-25.8042
770,-216,219.481,24.3408,0,0,0,0,0,0,0,-1,1994,1240,219.481,-24.3408
777,-216,71.583,6.68445,0,0,0,0,0,0,0,-1,2001,1240,71.5829,-6.6844
784,-216,68.2205,0.660034,0,0,0,0,0,0,0,-1,2008,1240,68.2204,-0.660033
791,-216,67.71,1.8468,0,0,0,0,0,0,0,-1,2015,1240,67.7099,-1.84686
798,-216,0,0,0,0,0,0,0,0,0,-1,2022,1240,0,0
805,-216,0,0,0,0,0,0,0,0,0,-1,2029,1240,0,0
812,-216,0,0,0,0,0,0,0,0,0,-1,2036,1240,0,0
-700,-223,0,0,0,0,0,0,0,0,0,-1,524,1247,0,0
-693,-223,0,0,0,0,0,0,0,0,0,-1,531,1247,0,0
-686,-223,0,0,0,0,0,0,0,0,0,-1,538,1247,0,0
-679,-223,0,0,0,0,0,0,0,0,0,-1,545,1247,0,0
-672,-223,-149.914,11.8156,0,0,0,0,0,0,0,-1,552,1247,-149.914,-11.8155
-665,-223,-129.016,15.0405,0,0,0,0,0,0,0,-1,559,1247,-129.016,-15.0406
-658,-223,-81.3573,25.3363,0,0,0,0,0,0,0,-1,566,1247,-81.3573,-25.3363
-651,-223,-81.1982,27.5779,0,0,0,0,0,0,0,-1,573,1247,-81.1982,-27.5779
-644,-223,-63.6605,-3.14734,0,0,0,0,0,0,0,-1,580,1247,-63.6605,3.14729
-637,-223,-49.2922,0.294189,0,0,0,0,0,0,0,-1,587,1247,-49.2922,-0.294245
-630,-223,-194.692,25.8456,0,0,0,0,0,0,0,-1,594,1247,-194.692,-25.8455
-623,-223,-212.243,25.8894,0,0,0,0,0,0,0,-1,601,1247,-212.243,-25.8894
-616,-223,-212.318,26.8905,-0.0160419,0.0528417,-0.0192795,0.0578707,-0.0210708,-1.31564,0.0471988,0.0257817,608,1247,-212.318,-26.8905
-609,-223,-212.551,28.1908,-0.0122595,0.0485681,-0.0167605,0.0528806,-0.016572,-1.31896,0.0418851,0.019185,615,1247,-212.551,-28.1908
-602,-223,-212.731,29.6122,-0.00833961,0.0438638,-0.0135228,0.0471587,-0.0116346,-1.33179,0.0359505,0.0282387,622,1247,-212.731,-29.6121
-595,-223,-212.824,31.0248,0,0,0,0,0,0,0,-1,629,1247,-212.824,-31.0247
-588,-223,-212.931,31.4536,0,0,0,0,0,0,0,-1,636,1247,-212.931,-31.4536
-581,-223,-73.8349,22.21,0,0,0,0,0,0,0,-1,643,1247,-73.8349,-22.21
-574,-223,-47.5632,13.7034,0,0,0,0,0,0,0,-1,650,1247,-47.5632,-13.7034
-567,-223,-57.4084,18.6537,0,0,0,0,0,0,0,-1,657,1247,-57.4084,-18.6536
-560,-223,-31.8748,9.50732,0,0,0,0,0,0,0,-1,664,1247,-31.8748,-9.50735
-553,-223,-11.4025,4.14722,0,0,0,0,0,0,0,-1,671,1247,-11.4025,-4.14719
-546,-223,-26.9034,-0.148682,0,0,0,0,0,0,0,-1,678,1247,-26.9034,0.14867
-539,-223,-36.7405,0.35376,0,0,0,0,0,0,0,-1,685,1247,-36.7405,-0.353807
-532,-223,-47.6184,1.39844,0,0,0,0,0,0,0,-1,692,1247,-47.6184,-1.3984
-525,-223,-68.3091,0.599243,0,0,0,0,0,0,0,-1,699,1247,-68.3091,-0.599261
-518,-223,-71.9418,0.685669,0,0,0,0,0,0,0,-1,706,1247,-71.9418,-0.685676
-511,-223,-71.9317,0.546631,0,0,0,0,0,0,0,-1,713,1247,-71.9317,-0.546598
-504,-223,-71.9573,0.504639,0,0,0,0,0,0,0,-1,720,1247,-71.9573,-0.504659
-497,-223,0,0,0,0,0,0,0,0,0,-1,727,1247,0,0
-490,-223,0,0,0,0,0,0,0,0,0,-1,734,1247,0,0
-483,-223,0,0,0,0,0,0,0,0,0,-1,741,1247,0,0
-476,-223,0,0,0,0,0,0,0,0,0,-1,748,1247,0,0
-469,-223,0,0,0,0,0,0,0,0,0,-1,755,1247,0,0
-462,-223,0,0,0,0,0,0,0,0,0,-1,762,1247,0,0
-455,-223,0,0,0,0,0,0,0,0,0,-1,769,1247,0,0
-448,-223,0,0,0,0,0,0,0,0,0,-1,776,1247,0,0
-441,-223,0,0,0,0,0,0,0,0,0,-1,783,1247,0,0
-434,-223,0,0,0,0,0,0,0,0,0,-1,790,1247,0,0
-427,-223,0,0,0,0,0,0,0,0,0,-1,797,1247,0,0
-420,-223,0,0,0,0,0,0,0,0,0,-1,804,1247,0,0
-413,-223,0,0,0,0,0,0,0,0,0,-1,811,1247,0,0
-406,-223,0,0,0,0,0,0,0,0,0,-1,818,1247,0,0
-399,-223,0,0,0,0,0,0,0,0,0,-1,825,1247,0,0
-392,-223,0,0,0,0,0,0,0,0,0,-1,832,1247,0,0
-385,-223,0,0,0,0,0,0,0,0,0,-1,839,1247,0,0
-378,-223,0,0,0,0,0,0,0,0,0,-1,846,1247,0,0
-371,-223,0,0,0,0,0,0,0,0,0,-1,853,1247,0,0
-364,-223,0,0,0,0,0,0,0,0,0,-1,860,1247,0,0
-357,-223,0,0,0,0,0,0,0,0,0,-1,867,1247,0,0
-350,-223,0,0,0,0,0,0,0,0,0,-1,874,1247,0,0
-343,-223,0,0,0,0,0,0,0,0,0,-1,881,1247,0,0
-336,-223,0,0,0,0,0,0,0,0,0,-1,888,1247,0,0
-329,-223,0,0,0,0,0,0,0,0,0,-1,895,1247,0,0
-322,-223,0,0,0,0,0,0,0,0,0,-1,902,1247,0,0
-315,-223,0,0,0,0,0,0,0,0,0,-1,909,1247,0,0
-308,-223,0,0,0,0,0,0,0,0,0,-1,916,1247,0,0
-301,-223,0,0,0,0,0,0,0,0,0,-1,923,1247,0,0
-294,-223,0,0,0,0,0,0,0,0,0,-1,930,1247,0,0
-287,-223,0,0,0,0,0,0,0,0,0,-1,937,1247,0,0
-280,-223,0,0,0,0,0,0,0,0,0,-1,944,1247,0,0
-273,-223,0,0,0,0,0,0,0,0,0,-1,951,1247,0,0
-266,-223,0,0,0,0,0,0,0,0,0,-1,958,1247,0,0
-259,-223,0,0,0,0,0,0,0,0,0,-1,965,1247,0,0
-252,-223,0,0,0,0,0,0,0,0,0,-1,972,1247,0,0
-245,-223,0,0,0,0,0,0,0,0,0,-1,979,1247,0,0
-238,-223,0,0,0,0,0,0,0,0,0,-1,986,1247,0,0
-231,-223,0,0,0,0,0,0,0,0,0,-1,993,1247,0,0
-224,-223,0,0,0,0,0,0,0,0,0,-1,1000,1247,0,0
-217,-223,0,0,0,0,0,0,0,0,0,-1,1007,1247,0,0
-210,-223,0,0,0,0,0,0,0,0,0,-1,1014,1247,0,0
-203,-223,0,0,0,0,0,0,0,0,0,-1,1021,1247,0,0
-196,-223,0,0,0,0,0,0,0,0,0,-1,1028,1247,0,0
-189,-223,0,0,0,0,0,0,0,0,0,-1,1035,1247,0,0
-182,-223,0,0,0,0,0,0,0,0,0,-1,1042,1247,0,0
-175,-223,0,0,0,0,0,0,0,0,0,-1,1049,1247,0,0
-168,-223,0,0,0,0,0,0,0,0,0,-1,1056,1247,0,0
-161,-223,0,0,0,0,0,0,0,0,0,-1,1063,1247,0,0
-154,-223,0,0,0,0,0,0,0,0,0,-1,1070,1247,0,0
-147,-223,0,0,0,0,0,0,0,0,0,-1,1077,1247,0,0
-140,-223,0,0,0,0,0,0,0,0,0,-1,1084,1247,0,0
-133,-223,0,0,0,0,0,0,0,0,0,-1,1091,1247,0,0
-126,-223,0,0,0,0,0,0,0,0,0,-1,1098,1247,0,0
-119,-223,0,0,0,0,0,0,0,0,0,-1,1105,1247,0,0
-112,-223,0,0,0,0,0,0,0,0,0,-1,1112,1247,0,0
-105,-223,0,0,0,0,0,0,0,0,0,-1,1119,1247,0,0
-98,-223,0,0,0,0,0,0,0,0,0,-1,1126,1247,0,0
-91,-223,0,0,0,0,0,0,0,0,0,-1,1133,1247,0,0
-84,-223,0,0,0,0,0,0,0,0,0,-1,1140,1247,0,0
-77,-223,0,0,0,0,0,0,0,0,0,-1,1147,1247,0,0
-70,-223,0,0,0,0,0,0,0,0,0,-1,1154,1247,0,0
-63,-223,0,0,0,0,0,0,0,0,0,-1,1161,1247,0,0
-56,-223,0,0,0,0,0,0,0,0,0,-1,1168,1247,0,0
-49,-223,0,0,0,0,0,0,0,0,0,-1,1175,1247,0,0
-42,-223,0,0,0,0,0,0,0,0,0,-1,1182,1247,0,0
-35,-223,0,0,0,0,0,0,0,0,0,-1,1189,1247,0,0
-28,-223,0,0,0,0,0,0,0,0,0,-1,1196,1247,0,0
-21,-223,0,0,0,0,0,0,0,0,0,-1,1203,1247,0,0
-14,-223,0,0,0,0,0,0,0,0,0,-1,1210,1247,0,0
-7,-223,0,0,0,0,0,0,0,0,0,-1,1217,1247,0,0
0,-223,0,0,0,0,0,0,0,0,0,-1,1224,1247,0,0
7,-223,0,0,0,0,0,0,0,0,0,-1,1231,1247,0,0
14,-223,0,0,0,0,0,0,0,0,0,-1,1238,1247,0,0
21,-223,0,0,0,0,0,0,0,0,0,-1,1245,1247,0,0
28,-223,0,0,0,0,0,0,0,0,0,-1,1252,1247,0,0
35,-223,0,0,0,0,0,0,0,0,0,-1,1259,1247,0,0
42,-223,0,0,0,0,0,0,0,0,0,-1,1266,1247,0,0
49,-223,0,0,0,0,0,0,0,0,0,-1,1273,1247,0,0
56,-223,0,0,0,0,0,0,0,0,0,-1,1280,1247,0,0
63,-223,0,0,0,0,0,0,0,0,0,-1,1287,1247,0,0
70,-223,0,0,0,0,0,0,0,0,0,-1,1294,1247,0,0
77,-223,0,0,0,0,0,0,0,0,0,-1,1301,1247,0,0
84,-223,0,0,0,0,0,0,0,0,0,-1,1308,1247,0,0
91,-223,0,0,0,0,0,0,0,0,0,-1,1315,1247,0,0
98,-223,0,0,0,0,0,0,0,0,0,-1,1322,1247,0,0
105,-223,0,0,0,0,0,0,0,0,0,-1,1329,1247,0,0
112,-223,0,0,0,0,0,0,0,0,0,-1,1336,1247,0,0
119,-223,0,0,0,0,0,0,0,0,0,-1,1343,1247,0,0
126,-223,0,0,0,0,0,0,0,0,0,-1,1350,1247,0,0
133,-223,0,0,0,0,0,0,0,0,0,-1,1357,1247,0,0
140,-223,0,0,0,0,0,0,0,0,0,-1,1364,1247,0,0
147,-223,0,0,0,0,0,0,0,0,0,-1,1371,1247,0,0
154,-223,0,0,0,0,0,0,0,0,0,-1,1378,1247,0,0
161,-223,0,0,0,0,0,0,0,0,0,-1,1385,1247,0,0
168,-223,0,0,0,0,0,0,0,0,0,-1,1392,1247,0,0
175,-223,0,0,0,0,0,0,0,0,0,-1,1399,1247,0,0
182,-223,0,0,0,0,0,0,0,0,0,-1,1406,1247,0,0
189,-223,0,0,0,0,0,0,0,0,0,-1,1413,1247,0,0
196,-223,0,0,0,0,0,0,0,0,0,-1,1420,1247,0,0
203,-223,0,0,0,0,0,0,0,0,0,-1,1427,1247,0,0
210,-223,0,0,0,0,0,0,0,0,0,-1,1434,1247,0,0
217,-223,0,0,0,0,0,0,0,0,0,-1,1441,1247,0,0
224,-223,0,0,0,0,0,0,0,0,0,-1,1448,1247,0,0
231,-223,0,0,0,0,0,0,0,0,0,-1,1455,1247,0,0
238,-223,0,0,0,0,0,0,0,0,0,-1,1462,1247,0,0
245,-223,0,0,0,0,0,0,0,0,0,-1,1469,1247,0,0
252,-223,0,0,0,0,0,0,0,0,0,-1,1476,1247,0,0
259,-223,0,0,0,0,0,0,0,0,0,-1,1483,1247,0,0
266,-223,0,0,0,0,0,0,0,0,0,-1,1490,1247,0,0
273,-223,0,0,0,0,0,0,0,0,0,-1,1497,1247,0,0
280,-223,0,0,0,0,0,0,0,0,0,-1,1504,1247,0,0
287,-223,0,0,0,0,0,0,0,0,0,-1,1511,1247,0,0
294,-223,0,0,0,0,0,0,0,0,0,-1,1518,1247,0,0
301,-223,0,0,0,0,0,0,0,0,0,-1,1525,1247,0,0
308,-223,0,0,0,0,0,0,0,0,0,-1,1532,1247,0,0
315,-223,0,0,0,0,0,0,0,0,0,-1,1539,1247,0,0
322,-223,0,0,0,0,0,0,0,0,0,-1,1546,1247,0,0
329,-223,0,0,0,0,0,0,0,0,0,-1,1553,1247,0,0
336,-223,0,0,0,0,0,0,0,0,0,-1,1560,1247,0,0
343,-223,0,0,0,0,0,0,0,0,0,-1,1567,1247,0,0
350,-223,0,0,0,0,0,0,0,0,0,-1,1574,1247,0,0
357,-223,0,0,0,0,0,0,0,0,0,-1,1581,1247,0,0
364,-223,0,0,0,0,0,0,0,0,0,-1,1588,1247,0,0
371,-223,0,0,0,0,0,0,0,0,0,-1,1595,1247,0,0
378,-223,0,0,0,0,0,0,0,0,0,-1,1602,1247,0,0
385,-223,0,0,0,0,0,0,0,0,0,-1,1609,1247,0,0
392,-223,0,0,0,0,0,0,0,0,0,-1,1616,1247,0,0
399,-223,0,0,0,0,0,0,0,0,0,-1,1623,1247,0,0
406,-223,0,0,0,0,0,0,0,0,0,-1,1630,1247,0,0
413,-223,0,0,0,0,0,0,0,0,0,-1,1637,1247,0,0
420,-223,0,0,0,0,0,0,0,0,0,-1,1644,1247,0,0
427,-223,0,0,0,0,0,0,0,0,0,-1,1651,1247,0,0
434,-223,0,0,0,0,0,0,0,0,0,-1,1658,1247,0,0
441,-223,0,0,0,0,0,0,0,0,0,-1,1665,1247,0,0
448,-223,0,0,0,0,0,0,0,0,0,-1,1672,1247,0,0
455,-223,0,0,0,0,0,0,0,0,0,-1,1679,1247,0,0
462,-223,0,0,0,0,0,0,0,0,0,-1,1686,1247,0,0
469,-223,0,0,0,0,0,0,0,0,0,-1,1693,1247,0,0
476,-223,0,0,0,0,0,0,0,0,0,-1,1700,1247,0,0
483,-223,0,0,0,0,0,0,0,0,0,-1,1707,1247,0,0
490,-223,0,0,0,0,0,0,0,0,0,-1,1714,1247,0,0
497,-223,0,0,0,0,0,0,0,0,0,-1,1721,1247,0,0
504,-223,0,0,0,0,0,0,0,0,0,-1,1728,1247,0,0
511,-223,0,0,0,0,0,0,0,0,0,-1,1735,1247,0,0
518,-223,0,0,0,0,0,0,0,0,0,-1,1742,1247,0,0
525,-223,0,0,0,0,0,0,0,0,0,-1,1749,1247,0,0
532,-223,0,0,0,0,0,0,0,0,0,-1,1756,1247,0,0
539,-223,0,0,0,0,0,0,0,0,0,-1,1763,1247,0,0
546,-223,0,0,0,0,0,0,0,0,0,-1,1770,1247,0,0
553,-223,0,0,0,0,0,0,0,0,0,-1,1777,1247,0,0
560,-223,0,0,0,0,0,0,0,0,0,-1,1784,1247,0,0
567,-223,0,0,0,0,0,0,0,0,0,-1,1791,1247,0,0
574,-223,0,0,0,0,0,0,0,0,0,-1,1798,1247,0,0
581,-223,0,0,0,0,0,0,0,0,0,-1,1805,1247,0,0
588,-223,0,0,0,0,0,0,0,0,0,-1,1812,1247,0,0
595,-223,0,0,0,0,0,0,0,0,0,-1,1819,1247,0,0
602,-223,0,0,0,0,0,0,0,0,0,-1,1826,1247,0,0
609,-223,0,0,0,0,0,0,0,0,0,-1,1833,1247,0,0
616,-223,0,0,0,0,0,0,0,0,0,-1,1840,1247,0,0
623,-223,234.904,8.90649,0,0,0,0,0,0,0,-1,1847,1247,234.904,-8.90646
630,-223,234.947,8.95337,0,0,0,0,0,0,0,-1,1854,1247,234.947,-8.95337
637,-223,235.045,8.89941,0,0,0,0,0,0,0,-1,1861,1247,235.045,-8.89936
644,-223,235.003,8.84692,0,0,0,0,0,0,0,-1,1868,1247,235.003,-8.84694
651,-223,235.199,8.69946,0,0,0,0,0,0,0,-1,1875,1247,235.199,-8.69951
658,-223,113.084,3.32898,0,0,0,0,0,0,0,-1,1882,1247,113.084,-3.32899
665,-223,68.7177,1.6427,0,0,0,0,0,0,0,-1,1889,1247,68.7176,-1.64275
672,-223,56.4625,2.72424,0,0,0,0,0,0,0,-1,1896,1247,56.4626,-2.72418
679,-223,43.2783,2.46973,0,0,0,0,0,0,0,-1,1903,1247,43.2784,-2.46978
686,-223,40.7926,10.0316,0,0,0,0,0,0,0,-1,1910,1247,40.7926,-10.0316
693,-223,81.1904,21.5211,0,0,0,0,0,0,0,-1,1917,1247,81.1904,-21.5211
700,-223,102.817,28.546,0,0,0,0,0,0,0,-1,1924,1247,102.817,-28.546
707,-223,220.443,37.0182,0,0,0,0,0,0,0,-1,1931,1247,220.443,-37.0182
714,-223,218.333,35.9081,0,0,0,0,0,0,0,-1,1938,1247,218.332,-35.908
721,-223,219.397,34.4144,0,0,0,0,0,0,0,-1,1945,1247,219.397,-34.4144
728,-223,219.469,32.588,0,0,0,0,0,0,0,-1,1952,1247,219.468,-32.588
735,-223,219.249,31.4338,0,0,0,0,0,0,0,-1,1959,1247,219.249,-31.4338
742,-223,218.821,29.9144,0,0,0,0,0,0,0,-1,1966,1247,218.821,-29.9144
749,-223,218.558,28.3029,-0.0261466,0.0460558,0.0242449,0.0534415,-0.0335324,1.2751,0.050651,0.0409606,1973,1247,218.558,-28.3029
756,-223,218.208,27.1364,-0.0332691,0.0522298,0.0295785,0.061465,-0.0425042,1.26816,0.0603585,0.0285122,1980,1247,218.208,-27.1363
763,-223,217.892,25.9086,0,0,0,0,0,0,0,-1,1987,1247,217.892,-25.9086
770,-223,216.754,25.0126,0,0,0,0,0,0,0,-1,1994,1247,216.754,-25.0126
777,-223,69.5923,7.03833,0,0,0,0,0,0,0,-1,2001,1247,69.5922,-7.03835
784,-223,68.8677,0.507813,0,0,0,0,0,0,0,-1,2008,1247,68.8676,-0.507816
791,-223,34.7136,2.92554,0,0,0,0,0,0,0,-1,2015,1247,34.7137,-2.92555
798,-223,0,0,0,0,0,0,0,0,0,-1,2022,1247,0,0
805,-223,0,0,0,0,0,0,0,0,0,-1,2029,1247,0,0
812,-223,0,0,0,0,0,0,0,0,0,-1,2036,1247,0,0
-700,-230,0,0,0,0,0,0,0,0,0,-1,524,1254,0,0
-693,-230,0,0,0,0,0,0,0,0,0,-1,531,1254,0,0
-686,-230,0,0,0,0,0,0,0,0,0,-1,538,1254,0,0
-679,-230,0,0,0,0,0,0,0,0,0,-1,545,1254,0,0
-672,-230,-127.6,12.7964,0,0,0,0,0,0,0,-1,552,1254,-127.6,-12.7964
-665,-230,-81.2452,24.4174,0,0,0,0,0,0,0,-1,559,1254,-81.2452,-24.4173
-658,-230,-81.4997,26.5293,0,0,0,0,0,0,0,-1,566,1254,-81.4997,-26.5293
-651,-230,-81.583,28.701,0,0,0,0,0,0,0,-1,573,1254,-81.583,-28.701
-644,-230,-62.1854,10.1193,0,0,0,0,0,0,0,-1,580,1254,-62.1854,-10.1193
-637,-230,-49.1636,-0.158325,0,0,0,0,0,0,0,-1,587,1254,-49.1636,0.158288
-630,-230,-41.3331,5.24744,0,0,0,0,0,0,0,-1,594,1254,-41.3331,-5.24744
-623,-230,-210.375,25.3094,0,0,0,0,0,0,0,-1,601,1254,-210.375,-25.3094
-616,-230,-210.542,26.7328,-0.0170984,0.0541936,-0.0204476,0.0596419,-0.0225467,-1.31039,0.0490362,0.0266926,608,1254,-210.542,-26.7327
-609,-230,-210.8,28.1251,-0.0135746,0.050228,-0.018102,0.0550061,-0.0183526,-1.31273,0.0440807,0.0187442,615,1254,-210.8,-28.1252
-602,-230,-211.042,29.4525,-0.00980003,0.0457444,-0.0150145,0.0495432,-0.0135989,-1.32299,0.0383736,0.0227074,622,1254,-211.042,-29.4525
-595,-230,-211.222,30.8093,0,0,0,0,0,0,0,-1,629,1254,-211.222,-30.8093
-588,-230,-207.332,32.0292,0,0,0,0,0,0,0,-1,636,1254,-207.332,-32.0292
-581,-230,-58.0035,16.7986,0,0,0,0,0,0,0,-1,643,1254,-58.0036,-16.7985
-574,-230,-191.794,37.9409,0,0,0,0,0,0,0,-1,650,1254,-191.794,-37.9409
-567,-230,-56.2896,18.8512,0,0,0,0,0,0,0,-1,657,1254,-56.2896,-18.8512
-560,-230,-56.3123,19.355,0,0,0,0,0,0,0,-1,664,1254,-56.3123,-19.355
-553,-230,-13.1939,4.9718,0,0,0,0,0,0,0,-1,671,1254,-13.1939,-4.97175
-546,-230,-15.23,0.453979,0,0,0,0,0,0,0,-1,678,1254,-15.23,-0.453996
-539,-230,-25.8232,0.512817,0,0,0,0,0,0,0,-1,685,1254,-25.8232,-0.512878
-532,-230,-21.1644,1.52966,0,0,0,0,0,0,0,-1,692,1254,-21.1644,-1.52969
-525,-230,-29.4775,0.731445,0,0,0,0,0,0,0,-1,699,1254,-29.4775,-0.731432
-518,-230,-71.6359,0.529785,0,0,0,0,0,0,0,-1,706,1254,-71.6359,-0.529735
-511,-230,-71.8687,0.53125,0,0,0,0,0,0,0,-1,713,1254,-71.8687,-0.531259
-504,-230,-72.0195,0.526123,0,0,0,0,0,0,0,-1,720,1254,-72.0195,-0.526122
-497,-230,0,0,0,0,0,0,0,0,0,-1,727,1254,0,0
-490,-230,0,0,0,0,0,0,0,0,0,-1,734,1254,0,0
-483,-230,0,0,0,0,0,0,0,0,0,-1,741,1254,0,0
-476,-230,0,0,0,0,0,0,0,0,0,-1,748,1254,0,0
-469,-230,0,0,0,0,0,0,0,0,0,-1,755,1254,0,0
-462,-230,0,0,0,0,0,0,0,0,0,-1,762,1254,0,0
-455,-230,0,0,0,0,0,0,0,0,0,-1,769,1254,0,0
-448,-230,0,0,0,0,0,0,0,0,0,-1,776,1254,0,0
-441,-230,0,0,0,0,0,0,0,0,0,-1,783,1254,0,0
-434,-230,0,0,0,0,0,0,0,0,0,-1,790,1254,0,0
-427,-230,0,0,0,0,0,0,0,0,0,-1,797,1254,0,0
-420,-230,0,0,0,0,0,0,0,0,0,-1,804,1254,0,0
-413,-230,0,0,0,0,0,0,0,0,0,-1,811,1254,0,0
-406,-230,0,0,0,0,0,0,0,0,0,-1,818,1254,0,0
-399,-230,0,0,0,0,0,0,0,0,0,-1,825,1254,0,0
-392,-230,0,0,0,0,0,0,0,0,0,-1,832,1254,0,0
-385,-230,0,0,0,0,0,0,0,0,0,-1,839,1254,0,0
-378,-230,0,0,0,0,0,0,0,0,0,-1,846,1254,0,0
-371,-230,0,0,0,0,0,0,0,0,0,-1,853,1254,0,0
-364,-230,0,0,0,0,0,0,0,0,0,-1,860,1254,0,0
-357,-230,0,0,0,0,0,0,0,0,0,-1,867,1254,0,0
-350,-230,0,0,0,0,0,0,0,0,0,-1,874,1254,0,0
-343,-230,0,0,0,0,0,0,0,0,0,-1,881,1254,0,0
-336,-230,0,0,0,0,0,0,0,0,0,-1,888,1254,0,0
-329,-230,0,0,0,0,0,0,0,0,0,-1,895,1254,0,0
-322,-230,0,0,0,0,0,0,0,0,0,-1,902,1254,0,0
-315,-230,0,0,0,0,0,0,0,0,0,-1,909,1254,0,0
-308,-230,0,0,0,0,0,0,0,0,0,-1,916,1254,0,0
-301,-230,0,0,0,0,0,0,0,0,0,-1,923,1254,0,0
-294,-230,0,0,0,0,0,0,0,0,0,-1,930,1254,0,0
-287,-230,0,0,0,0,0,0,0,0,0,-1,937,1254,0,0
-280,-230,0,0,0,0,0,0,0,0,0,-1,944,1254,0,0
-273,-230,0,0,0,0,0,0,0,0,0,-1,951,1254,0,0
-266,-230,0,0,0,0,0,0,0,0,0,-1,958,1254,0,0
-259,-230,0,0,0,0,0,0,0,0,0,-1,965,1254,0,0
-252,-230,0,0,0,0,0,0,0,0,0,-1,972,1254,0,0
-245,-230,0,0,0,0,0,0,0,0,0,-1,979,1254,0,0
-238,-230,0,0,0,0,0,0,0,0,0,-1,986,1254,0,0
-231,-230,0,0,0,0,0,0,0,0,0,-1,993,1254,0,0
-224,-230,0,0,0,0,0,0,0,0,0,-1,1000,1254,0,0
-217,-230,0,0,0,0,0,0,0,0,0,-1,1007,1254,0,0
-210,-230,0,0,0,0,0,0,0,0,0,-1,1014,1254,0,0
-203,-230,0,0,0,0,0,0,0,0,0,-1,1021,1254,0,0
-196,-230,0,0,0,0,0,0,0,0,0,-1,1028,1254,0,0
-189,-230,0,0,0,0,0,0,0,0,0,-1,1035,1254,0,0
-182,-230,0,0,0,0,0,0,0,0,0,-1,1042,1254,0,0
-175,-230,0,0,0,0,0,0,0,0,0,-1,1049,1254,0,0
-168,-230,0,0,0,0,0,0,0,0,0,-1,1056,1254,0,0
-161,-230,0,0,0,0,0,0,0,0,0,-1,1063,1254,0,0
-154,-230,0,0,0,0,0,0,0,0,0,-1,1070,1254,0,0
-147,-230,0,0,0,0,0,0,0,0,0,-1,1077,1254,0,0
-140,-230,0,0,0,0,0,0,0,0,0,-1,1084,1254,0,0
-133,-230,0,0,0,0,0,0,0,0,0,-1,1091,1254,0,0
-126,-230,0,0,0,0,0,0,0,0,0,-1,1098,1254,0,0
-119,-230,0,0,0,0,0,0,0,0,0,-1,1105,1254,0,0
-112,-230,0,0,0,0,0,0,0,0,0,-1,1112,1254,0,0
-105,-230,0,0,0,0,0,0,0,0,0,-1,1119,1254,0,0
-98,-230,0,0,0,0,0,0,0,0,0,-1,1126,1254,0,0
-91,-230,0,0,0,0,0,0,0,0,0,-1,1133,1254,0,0
-84,-230,0,0,0,0,0,0,0,0,0,-1,1140,1254,0,0
-77,-230,0,0,0,0,0,0,0,0,0,-1,1147,1254,0,0
-70,-230,0,0,0,0,0,0,0,0,0,-1,1154,1254,0,0
-63,-230,0,0,0,0,0,0,0,0,0,-1,1161,1254,0,0
-56,-230,0,0,0,0,0,0,0,0,0,-1,1168,1254,0,0
-49,-230,0,0,0,0,0,0,0,0,0,-1,1175,1254,0,0
-42,-230,0,0,0,0,0,0,0,0,0,-1,1182,1254,0,0
-35,-230,0,0,0,0,0,0,0,0,0,-1,1189,1254,0,0
-28,-230,0,0,0,0,0,0,0,0,0,-1,1196,1254,0,0
-21,-230,0,0,0,0,0,0,0,0,0,-1,1203,1254,0,0
-14,-230,0,0,0,0,0,0,0,0,0,-1,1210,1254,0,0
-7,-230,0,0,0,0,0,0,0,0,0,-1,1217,1254,0,0
0,-230,0,0,0,0,0,0,0,0,0,-1,1224,1254,0,0
7,-230,0,0,0,0,0,0,0,0,0,-1,1231,1254,0,0
14,-230,0,0,0,0,0,0,0,0,0,-1,1238,1254,0,0
21,-230,0,0,0,0,0,0,0,0,0,-1,1245,1254,0,0
28,-230,0,0,0,0,0,0,0,0,0,-1,1252,1254,0,0
35,-230,0,0,0,0,0,0,0,0,0,-1,1259,1254,0,0
42,-230,0,0,0,0,0,0,0,0,0,-1,1266,1254,0,0
49,-230,0,0,0,0,0,0,0,0,0,-1,1273,1254,0,0
56,-230,0,0,0,0,0,0,0,0,0,-1,1280,1254,0,0
63,-230,0,0,0,0,0,0,0,0,0,-1,1287,1254,0,0
70,-230,0,0,0,0,0,0,0,0,0,-1,1294,1254,0,0
77,-230,0,0,0,0,0,0,0,0,0,-1,1301,1254,0,0
84,-230,0,0,0,0,0,0,0,0,0,-1,1308,1254,0,0
91,-230,0,0,0,0,0,0,0,0,0,-1,1315,1254,0,0
98,-230,0,0,0,0,0,0,0,0,0,-1,1322,1254,0,0
105,-230,0,0,0,0,0,0,0,0,0,-1,1329,1254,0,0
112,-230,0,0,0,0,0,0,0,0,0,-1,1336,1254,0,0
119,-230,0,0,0,0,0,0,0,0,0,-1,1343,1254,0,0
126,-230,0,0,0,0,0,0,0,0,0,-1,1350,1254,0,0
133,-230,0,0,0,0,0,0,0,0,0,-1,1357,1254,0,0
140,-230,0,0,0,0,0,0,0,0,0,-1,1364,1254,0,0
147,-230,0,0,0,0,0,0,0,0,0,-1,1371,1254,0,0
154,-230,0,0,0,0,0,0,0,0,0,-1,1378,1254,0,0
161,-230,0,0,0,0,0,0,0,0,0,-1,1385,1254,0,0
168,-230,0,0,0,0,0,0,0,0,0,-1,1392,1254,0,0
175,-230,0,0,0,0,0,0,0,0,0,-1,1399,1254,0,0
182,-230,0,0,0,0,0,0,0,0,0,-1,1406,1254,0,0
189,-230,0,0,0,0,0,0,0,0,0,-1,1413,1254,0,0
196,-230,0,0,0,0,0,0,0,0,0,-1,1420,1254,0,0
203,-230,0,0,0,0,0,0,0,0,0,-1,1427,1254,0,0
210,-230,0,0,0,0,0,0,0,0,0,-1,1434,1254,0,0
217,-230,0,0,0,0,0,0,0,0,0,-1,1441,1254,0,0
224,-230,0,0,0,0,0,0,0,0,0,-1,1448,1254,0,0
231,-230,0,0,0,0,0,0,0,0,0,-1,1455,1254,0,0
238,-230,0,0,0,0,0,0,0,0,0,-1,1462,1254,0,0
245,-230,0,0,0,0,0,0,0,0,0,-1,1469,1254,0,0
252,-230,0,0,0,0,0,0,0,0,0,-1,1476,1254,0,0
259,-230,0,0,0,0,0,0,0,0,0,-1,1483,1254,0,0
266,-230,0,0,0,0,0,0,0,0,0,-1,1490,1254,0,0
273,-230,0,0,0,0,0,0,0,0,0,-1,1497,1254,0,0
280,-230,0,0,0,0,0,0,0,0,0,-1,1504,1254,0,0
287,-230,0,0,0,0,0,0,0,0,0,-1,1511,1254,0,0
294,-230,0,0,0,0,0,0,0,0,0,-1,1518,1254,0,0
301,-230,0,0,0,0,0,0,0,0,0,-1,1525,1254,0,0
308,-230,0,0,0,0,0,0,0,0,0,-1,1532,1254,0,0
315,-230,0,0,0,0,0,0,0,0,0,-1,1539,1254,0,0
322,-230,0,0,0,0,0,0,0,0,0,-1,1546,1254,0,0
329,-230,0,0,0,0,0,0,0,0,0,-1,1553,1254,0,0
336,-230,0,0,0,0,0,0,0,0,0,-1,1560,1254,0,0
343,-230,0,0,0,0,0,0,0,0,0,-1,1567,1254,0,0
350,-230,0,0,0,0,0,0,0,0,0,-1,1574,1254,0,0
357,-230,0,0,0,0,0,0,0,0,0,-1,1581,1254,0,0
364,-230,0,0,0,0,0,0,0,0,0,-1,1588,1254,0,0
371,-230,0,0,0,0,0,0,0,0,0,-1,1595,1254,0,0
378,-230,0,0,0,0,0,0,0,0,0,-1,1602,1254,0,0
385,-230,0,0,0,0,0,0,0,0,0,-1,1609,1254,0,0
392,-230,0,0,0,0,0,0,0,0,0,-1,1616,1254,0,0
399,-230,0,0,0,0,0,0,0,0,0,-1,1623,1254,0,0
406,-230,0,0,0,0,0,0,0,0,0,-1,1630,1254,0,0
413,-230,0,0,0,0,0,0,0,0,0,-1,1637,1254,0,0
420,-230,0,0,0,0,0,0,0,0,0,-1,1644,1254,0,0
427,-230,0,0,0,0,0,0,0,0,0,-1,1651,1254,0,0
434,-230,0,0,0,0,0,0,0,0,0,-1,1658,1254,0,0
441,-230,0,0,0,0,0,0,0,0,0,-1,1665,1254,0,0
448,-230,0,0,0,0,0,0,0,0,0,-1,1672,1254,0,0
455,-230,0,0,0,0,0,0,0,0,0,-1,1679,1254,0,0
462,-230,0,0,0,0,0,0,0,0,0,-1,1686,1254,0,0
469,-230,0,0,0,0,0,0,0,0,0,-1,1693,1254,0,0
476,-230,0,0,0,0,0,0,0,0,0,-1,1700,1254,0,0
483,-230,0,0,0,0,0,0,0,0,0,-1,1707,1254,0,0
490,-230,0,0,0,0,0,0,0,0,0,-1,1714,1254,0,0
497,-230,0,0,0,0,0,0,0,0,0,-1,1721,1254,0,0
504,-230,0,0,0,0,0,0,0,0,0,-1,1728,1254,0,0
511,-230,0,0,0,0,0,0,0,0,0,-1,1735,1254,0,0
518,-230,0,0,0,0,0,0,0,0,0,-1,1742,1254,0,0
525,-230,0,0,0,0,0,0,0,0,0,-1,1749,1254,0,0
532,-230,0,0,0,0,0,0,0,0,0,-1,1756,1254,0,0
539,-230,0,0,0,0,0,0,0,0,0,-1,1763,1254,0,0
546,-230,0,0,0,0,0,0,0,0,0,-1,1770,1254,0,0
553,-230,0,0,0,0,0,0,0,0,0,-1,1777,1254,0,0
560,-230,0,0,0,0,0,0,0,0,0,-1,1784,1254,0,0
567,-230,0,0,0,0,0,0,0,0,0,-1,1791,1254,0,0
574,-230,0,0,0,0,0,0,0,0,0,-1,1798,1254,0,0
581,-230,0,0,0,0,0,0,0,0,0,-1,1805,1254,0,0
588,-230,0,0,0,0,0,0,0,0,0,-1,1812,1254,0,0
595,-230,0,0,0,0,0,0,0,0,0,-1,1819,1254,0,0
602,-230,0,0,0,0,0,0,0,0,0,-1,1826,1254,0,0
609,-230,0,0,0,0,0,0,0,0,0,-1,1833,1254,0,0
616,-230,235.179,8.81152,0,0,0,0,0,0,0,-1,1840,1254,235.179,-8.81151
623,-230,235.07,8.85168,0,0,0,0,0,0,0,-1,1847,1254,235.07,-8.85169
630,-230,235.034,8.87097,0,0,0,0,0,0,0,-1,1854,1254,235.034,-8.87098
637,-230,235.027,8.88098,0,0,0,0,0,0,0,-1,1861,1254,235.027,-8.88102
644,-230,235.054,8.77869,0,0,0,0,0,0,0,-1,1868,1254,235.054,-8.77873
651,-230,235.133,8.64294,0,0,0,0,0,0,0,-1,1875,1254,235.133,-8.64298
658,-230,92.1161,1.86768,0,0,0,0,0,0,0,-1,1882,1254,92.116,-1.86765
665,-230,56.2585,2.51587,0,0,0,0,0,0,0,-1,1889,1254,56.2586,-2.51586
672,-230,43.0962,2.78699,0,0,0,0,0,0,0,-1,1896,1254,43.0962,-2.78698
679,-230,27.9967,2.37708,0,0,0,0,0,0,0,-1,1903,1254,27.9967,-2.3771
686,-230,40.8854,10.1788,0,0,0,0,0,0,0,-1,1910,1254,40.8853,-10.1788
693,-230,84.3876,23.9386,0,0,0,0,0,0,0,-1,1917,1254,84.3876,-23.9386
700,-230,219.246,38.8568,0,0,0,0,0,0,0,-1,1924,1254,219.246,-38.8568
707,-230,218.508,37.4706,0,0,0,0,0,0,0,-1,1931,1254,218.508,-37.4705
714,-230,217.485,36.2653,0,0,0,0,0,0,0,-1,1938,1254,217.485,-36.2653
721,-230,217.608,34.5475,-0.00101622,0.0269596,0.00438278,0.0276302,-0.00168677,1.41898,0.0190073,0.0300698,1945,1254,217.608,-34.5474
728,-230,217.647,32.833,-0.0078652,0.0315255,0.0103452,0.0340772,-0.0104169,1.32897,0.0268721,0.0227726,1952,1254,217.647,-32.8331
735,-230,217.42,31.3108,-0.0148402,0.036354,0.0163791,0.0411458,-0.019632,1.28618,0.0358154,0.0234287,1959,1254,217.42,-31.3108
742,-230,217.095,29.7463,-0.021874,0.0415094,0.0224348,0.0486466,-0.0290111,1.26279,0.0453109,0.0174081,1966,1254,217.095,-29.7463
749,-230,216.783,28.1488,-0.0289142,0.0470538,0.0284709,0.0565395,-0.0384,1.24919,0.0551458,0.0239425,1973,1254,216.783,-28.1488
756,-230,216.229,26.8307,-0.0362764,0.0530723,0.034618,0.0649152,-0.0481194,1.24117,0.0655003,0.0449472,1980,1254,216.229,-26.8307
763,-230,215.696,25.5028,0,0,0,0,0,0,0,-1,1987,1254,215.696,-25.5028
770,-230,107.623,16.1041,0,0,0,0,0,0,0,-1,1994,1254,107.623,-16.1041
777,-230,41.8693,3.74707,0,0,0,0,0,0,0,-1,2001,1254,41.8692,-3.74713
784,-230,35.8896,1.80334,0,0,0,0,0,0,0,-1,2008,1254,35.8897,-1.80338
791,-230,35.6028,2.20642,0,0,0,0,0,0,0,-1,2015,1254,35.6027,-2.2064
798,-230,0,0,0,0,0,0,0,0,0,-1,2022,1254,0,0
805,-230,0,0,0,0,0,0,0,0,0,-1,2029,1254,0,0
812,-230,0,0,0,0,0,0,0,0,0,-1,2036,1254,0,0
-700,-237,0,0,0,0,0,0,0,0,0,-1,524,1261,0,0
-693,-237,0,0,0,0,0,0,0,0,0,-1,531,1261,0,0
-686,-237,0,0,0,0,0,0,0,0,0,-1,538,1261,0,0
-679,-237,0,0,0,0,0,0,0,0,0,-1,545,1261,0,0
-672,-237,-81.1678,23.7125,0,0,0,0,0,0,0,-1,552,1261,-81.1678,-23.7125
-665,-237,-81.6478,25.696,0,0,0,0,0,0,0,-1,559,1261,-81.6478,-25.6961
-658,-237,-81.9223,27.0465,0,0,0,0,0,0,0,-1,566,1261,-81.9223,-27.0465
-651,-237,-81.7989,29.6414,0,0,0,0,0,0,0,-1,573,1261,-81.7989,-29.6414
-644,-237,-62.5868,9.75488,0,0,0,0,0,0,0,-1,580,1261,-62.5868,-9.75482
-637,-237,-33.4961,2.71313,0,0,0,0,0,0,0,-1,587,1261,-33.4961,-2.71312
-630,-237,-45.178,6.85889,0,0,0,0,0,0,0,-1,594,1261,-45.1781,-6.85892
-623,-237,-208.423,24.9309,0,0,0,0,0,0,0,-1,601,1261,-208.423,-24.9309
-616,-237,-208.599,26.5641,-0.0179941,0.0555067,-0.0219111,0.0615429,-0.0240302,-1.30198,0.0509635,0.0277332,608,1261,-208.599,-26.5641
-609,-237,-209.092,28.0134,-0.0145024,0.0517167,-0.0196936,0.0571309,-0.0199166,-1.3025,0.0461806,0.0253271,615,1261,-209.092,-28.0134
-602,-237,-209.322,29.4703,-0.0107313,0.0473571,-0.0166907,0.0518113,-0.0151855,-1.31001,0.0405616,0.0224359,622,1261,-209.322,-29.4703
-595,-237,-209.811,31.0172,-0.00660929,0.0423777,-0.012831,0.045535,-0.00976658,-1.32952,0.0340819,0.0427608,629,1261,-209.811,-31.0172
-588,-237,-210.287,32.7305,0,0,0,0,0,0,0,-1,636,1261,-210.287,-32.7305
-581,-237,-189.68,36.1119,0,0,0,0,0,0,0,-1,643,1261,-189.68,-36.1119
-574,-237,-210.484,35.7461,0,0,0,0,0,0,0,-1,650,1261,-210.484,-35.7461
-567,-237,-190.192,39.7859,0,0,0,0,0,0,0,-1,657,1261,-190.192,-39.7858
-560,-237,-55.2889,19.8724,0,0,0,0,0,0,0,-1,664,1261,-55.2889,-19.8725
-553,-237,-20.6102,6.92139,0,0,0,0,0,0,0,-1,671,1261,-20.6102,-6.92138
-546,-237,-11.192,1.14014,0,0,0,0,0,0,0,-1,678,1261,-11.192,-1.14011
-539,-237,-16.512,1.53455,0,0,0,0,0,0,0,-1,685,1261,-16.512,-1.53457
-532,-237,-29.7025,1.23621,0,0,0,0,0,0,0,-1,692,1261,-29.7025,-1.23618
-525,-237,-47.2925,0.590942,0,0,0,0,0,0,0,-1,699,1261,-47.2925,-0.590989
-518,-237,-48.2897,0.765869,0,0,0,0,0,0,0,-1,706,1261,-48.2897,-0.765854
-511,-237,-71.7244,0.621704,0,0,0,0,0,0,0,-1,713,1261,-71.7244,-0.621723
-504,-237,-72.0632,0.737671,0,0,0,0,0,0,0,-1,720,1261,-72.0632,-0.737635
-497,-237,-72.178,0.960449,0,0,0,0,0,0,0,-1,727,1261,-72.178,-0.960392
-490,-237,0,0,0,0,0,0,0,0,0,-1,734,1261,0,0
-483,-237,0,0,0,0,0,0,0,0,0,-1,741,1261,0,0
-476,-237,0,0,0,0,0,0,0,0,0,-1,748,1261,0,0
-469,-237,0,0,0,0,0,0,0,0,0,-1,755,1261,0,0
-462,-237,0,0,0,0,0,0,0,0,0,-1,762,1261,0,0
-455,-237,0,0,0,0,0,0,0,0,0,-1,769,1261,0,0
-448,-237,0,0,0,0,0,0,0,0,0,-1,776,1261,0,0
-441,-237,0,0,0,0,0,0,0,0,0,-1,783,1261,0,0
-434,-237,0,0,0,0,0,0,0,0,0,-1,790,1261,0,0
-427,-237,0,0,0,0,0,0,0,0,0,-1,797,1261,0,0
-420,-237,0,0,0,0,0,0,0,0,0,-1,804,1261,0,0
-413,-237,0,0,0,0,0,0,0,0,0,-1,811,1261,0,0
-406,-237,0,0,0,0,0,0,0,0,0,-1,818,1261,0,0
-399,-237,0,0,0,0,0,0,0,0,0,-1,825,1261,0,0
-392,-237,0,0,0,0,0,0,0,0,0,-1,832,1261,0,0
-385,-237,0,0,0,0,0,0,0,0,0,-1,839,1261,0,0
-378,-237,0,0,0,0,0,0,0,0,0,-1,846,1261,0,0
-371,-237,0,0,0,0,0,0,0,0,0,-1,853,1261,0,0
-364,-237,0,0,0,0,0,0,0,0,0,-1,860,1261,0,0
-357,-237,0,0,0,0,0,0,0,0,0,-1,867,1261,0,0
-350,-237,0,0,0,0,0,0,0,0,0,-1,874,1261,0,0
-343,-237,0,0,0,0,0,0,0,0,0,-1,881,1261,0,0
-336,-237,0,0,0,0,0,0,0,0,0,-1,888,1261,0,0
-329,-237,0,0,0,0,0,0,0,0,0,-1,895,1261,0,0
-322,-237,0,0,0,0,0,0,0,0,0,-1,902,1261,0,0
-315,-237,0,0,0,0,0,0,0,0,0,-1,909,1261,0,0
-308,-237,0,0,0,0,0,0,0,0,0,-1,916,1261,0,0
-301,-237,0,0,0,0,0,0,0,0,0,-1,923,1261,0,0
-294,-237,0,0,0,0,0,0,0,0,0,-1,930,1261,0,0
-287,-237,0,0,0,0,0,0,0,0,0,-1,937,1261,0,0
-280,-237,0,0,0,0,0,0,0,0,0,-1,944,1261,0,0
-273,-237,0,0,0,0,0,0,0,0,0,-1,951,1261,0,0
-266,-237,0,0,0,0,0,0,0,0,0,-1,958,1261,0,0
-259,-237,0,0,0,0,0,0,0,0,0,-1,965,1261,0,0
-252,-237,0,0,0,0,0,0,0,0,0,-1,972,1261,0,0
-245,-237,0,0,0,0,0,0,0,0,0,-1,979,1261,0,0
-238,-237,0,0,0,0,0,0,0,0,0,-1,986,1261,0,0
-231,-237,0,0,0,0,0,0,0,0,0,-1,993,1261,0,0
-224,-237,0,0,0,0,0,0,0,0,0,-1,1000,1261,0,0
-217,-237,0,0,0,0,0,0,0,0,0,-1,1007,1261,0,0
-210,-237,0,0,0,0,0,0,0,0,0,-1,1014,1261,0,0
-203,-237,0,0,0,0,0,0,0,0,0,-1,1021,1261,0,0
-196,-237,0,0,0,0,0,0,0,0,0,-1,1028,1261,0,0
-189,-237,0,0,0,0,0,0,0,0,0,-1,1035,1261,0,0
-182,-237,0,0,0,0,0,0,0,0,0,-1,1042,1261,0,0
-175,-237,0,0,0,0,0,0,0,0,0,-1,1049,1261,0,0
-168,-237,0,0,0,0,0,0,0,0,0,-1,1056,1261,0,0
-161,-237,0,0,0,0,0,0,0,0,0,-1,1063,1261,0,0
-154,-237,0,0,0,0,0,0,0,0,0,-1,1070,1261,0,0
-147,-237,0,0,0,0,0,0,0,0,0,-1,1077,1261,0,0
-140,-237,0,0,0,0,0,0,0,0,0,-1,1084,1261,0,0
-133,-237,0,0,0,0,0,0,0,0,0,-1,1091,1261,0,0
-126,-237,0,0,0,0,0,0,0,0,0,-1,1098,1261,0,0
-119,-237,0,0,0,0,0,0,0,0,0,-1,1105,1261,0,0
-112,-237,0,0,0,0,0,0,0,0,0,-1,1112,1261,0,0
-105,-237,0,0,0,0,0,0,0,0,0,-1,1119,1261,0,0
-98,-237,0,0,0,0,0,0,0,0,0,-1,1126,1261,0,0
-91,-237,0,0,0,0,0,0,0,0,0,-1,1133,1261,0,0
-84,-237,0,0,0,0,0,0,0,0,0,-1,1140,1261,0,0
-77,-237,0,0,0,0,0,0,0,0,0,-1,1147,1261,0,0
-70,-237,0,0,0,0,0,0,0,0,0,-1,1154,1261,0,0
-63,-237,0,0,0,0,0,0,0,0,0,-1,1161,1261,0,0
-56,-237,0,0,0,0,0,0,0,0,0,-1,1168,1261,0,0
-49,-237,0,0,0,0,0,0,0,0,0,-1,1175,1261,0,0
-42,-237,0,0,0,0,0,0,0,0,0,-1,1182,1261,0,0
-35,-237,0,0,0,0,0,0,0,0,0,-1,1189,1261,0,0
-28,-237,0,0,0,0,0,0,0,0,0,-1,1196,1261,0,0
-21,-237,0,0,0,0,0,0,0,0,0,-1,1203,1261,0,0
-14,-237,0,0,0,0,0,0,0,0,0,-1,1210,1261,0,0
-7,-237,0,0,0,0,0,0,0,0,0,-1,1217,1261,0,0
0,-237,0,0,0,0,0,0,0,0,0,-1,1224,1261,0,0
7,-237,0,0,0,0,0,0,0,0,0,-1,1231,1261,0,0
14,-237,0,0,0,0,0,0,0,0,0,-1,1238,1261,0,0
21,-237,0,0,0,0,0,0,0,0,0,-1,1245,1261,0,0
28,-237,0,0,0,0,0,0,0,0,0,-1,1252,1261,0,0
35,-237,0,0,0,0,0,0,0,0,0,-1,1259,1261,0,0
42,-237,0,0,0,0,0,0,0,0,0,-1,1266,1261,0,0
49,-237,0,0,0,0,0,0,0,0,0,-1,1273,1261,0,0
56,-237,0,0,0,0,0,0,0,0,0,-1,1280,1261,0,0
63,-237,0,0,0,0,0,0,0,0,0,-1,1287,1261,0,0
70,-237,0,0,0,0,0,0,0,0,0,-1,1294,1261,0,0
77,-237,0,0,0,0,0,0,0,0,0,-1,1301,1261,0,0
84,-237,0,0,0,0,0,0,0,0,0,-1,1308,1261,0,0
91,-237,0,0,0,0,0,0,0,0,0,-1,1315,1261,0,0
98,-237,0,0,0,0,0,0,0,0,0,-1,1322,1261,0,0
105,-237,0,0,0,0,0,0,0,0,0,-1,1329,1261,0,0
112,-237,0,0,0,0,0,0,0,0,0,-1,1336,1261,0,0
119,-237,0,0,0,0,0,0,0,0,0,-1,1343,1261,0,0
126,-237,0,0,0,0,0,0,0,0,0,-1,1350,1261,0,0
133,-237,0,0,0,0,0,0,0,0,0,-1,1357,1261,0,0
140,-237,0,0,0,0,0,0,0,0,0,-1,1364,1261,0,0
147,-237,0,0,0,0,0,0,0,0,0,-1,1371,1261,0,0
154,-237,0,0,0,0,0,0,0,0,0,-1,1378,1261,0,0
161,-237,0,0,0,0,0,0,0,0,0,-1,1385,1261,0,0
168,-237,0,0,0,0,0,0,0,0,0,-1,1392,1261,0,0
175,-237,0,0,0,0,0,0,0,0,0,-1,1399,1261,0,0
182,-237,0,0,0,0,0,0,0,0,0,-1,1406,1261,0,0
189,-237,0,0,0,0,0,0,0,0,0,-1,1413,1261,0,0
196,-237,0,0,0,0,0,0,0,0,0,-1,1420,1261,0,0
203,-237,0,0,0,0,0,0,0,0,0,-1,1427,1261,0,0
210,-237,0,0,0,0,0,0,0,0,0,-1,1434,1261,0,0
217,-237,0,0,0,0,0,0,0,0,0,-1,1441,1261,0,0
224,-237,0,0,0,0,0,0,0,0,0,-1,1448,1261,0,0
231,-237,0,0,0,0,0,0,0,0,0,-1,1455,1261,0,0
238,-237,0,0,0,0,0,0,0,0,0,-1,1462,1261,0,0
245,-237,0,0,0,0,0,0,0,0,0,-1,1469,1261,0,0
252,-237,0,0,0,0,0,0,0,0,0,-1,1476,1261,0,0
259,-237,0,0,0,0,0,0,0,0,0,-1,1483,1261,0,0
266,-237,0,0,0,0,0,0,0,0,0,-1,1490,1261,0,0
273,-237,0,0,0,0,0,0,0,0,0,-1,1497,1261,0,0
280,-237,0,0,0,0,0,0,0,0,0,-1,1504,1261,0,0
287,-237,0,0,0,0,0,0,0,0,0,-1,1511,1261,0,0
294,-237,0,0,0,0,0,0,0,0,0,-1,1518,1261,0,0
301,-237,0,0,0,0,0,0,0,0,0,-1,1525,1261,0,0
308,-237,0,0,0,0,0,0,0,0,0,-1,1532,1261,0,0
315,-237,0,0,0,0,0,0,0,0,0,-1,1539,1261,0,0
322,-237,0,0,0,0,0,0,0,0,0,-1,1546,1261,0,0
329,-237,0,0,0,0,0,0,0,0,0,-1,1553,1261,0,0
336,-237,0,0,0,0,0,0,0,0,0,-1,1560,1261,0,0
343,-237,0,0,0,0,0,0,0,0,0,-1,1567,1261,0,0
350,-237,0,0,0,0,0,0,0,0,0,-1,1574,1261,0,0
357,-237,0,0,0,0,0,0,0,0,0,-1,1581,1261,0,0
364,-237,0,0,0,0,0,0,0,0,0,-1,1588,1261,0,0
371,-237,0,0,0,0,0,0,0,0,0,-1,1595,1261,0,0
378,-237,0,0,0,0,0,0,0,0,0,-1,1602,1261,0,0
385,-237,0,0,0,0,0,0,0,0,0,-1,1609,1261,0,0
392,-237,0,0,0,0,0,0,0,0,0,-1,1616,1261,0,0
399,-237,0,0,0,0,0,0,0,0,0,-1,1623,1261,0,0
406,-237,0,0,0,0,0,0,0,0,0,-1,1630,1261,0,0
413,-237,0,0,0,0,0,0,0,0,0,-1,1637,1261,0,0
420,-237,0,0,0,0,0,0,0,0,0,-1,1644,1261,0,0
427,-237,0,0,0,0,0,0,0,0,0,-1,1651,1261,0,0
434,-237,0,0,0,0,0,0,0,0,0,-1,1658,1261,0,0
441,-237,0,0,0,0,0,0,0,0,0,-1,1665,1261,0,0
448,-237,0,0,0,0,0,0,0,0,0,-1,1672,1261,0,0
455,-237,0,0,0,0,0,0,0,0,0,-1,1679,1261,0,0
462,-237,0,0,0,0,0,0,0,0,0,-1,1686,1261,0,0
469,-237,0,0,0,0,0,0,0,0,0,-1,1693,1261,0,0
476,-237,0,0,0,0,0,0,0,0,0,-1,1700,1261,0,0
483,-237,0,0,0,0,0,0,0,0,0,-1,1707,1261,0,0
490,-237,0,0,0,0,0,0,0,0,0,-1,1714,1261,0,0
497,-237,0,0,0,0,0,0,0,0,0,-1,1721,1261,0,0
504,-237,0,0,0,0,0,0,0,0,0,-1,1728,1261,0,0
511,-237,0,0,0,0,0,0,0,0,0,-1,1735,1261,0,0
518,-237,0,0,0,0,0,0,0,0,0,-1,1742,1261,0,0
525,-237,0,0,0,0,0,0,0,0,0,-1,1749,1261,0,0
532,-237,0,0,0,0,0,0,0,0,0,-1,1756,1261,0,0
539,-237,0,0,0,0,0,0,0,0,0,-1,1763,1261,0,0
546,-237,0,0,0,0,0,0,0,0,0,-1,1770,1261,0,0
553,-237,0,0,0,0,0,0,0,0,0,-1,1777,1261,0,0
560,-237,0,0,0,0,0,0,0,0,0,-1,1784,1261,0,0
567,-237,0,0,0,0,0,0,0,0,0,-1,1791,1261,0,0
574,-237,0,0,0,0,0,0,0,0,0,-1,1798,1261,0,0
581,-237,0,0,0,0,0,0,0,0,0,-1,1805,1261,0,0
588,-237,0,0,0,0,0,0,0,0,0,-1,1812,1261,0,0
595,-237,0,0,0,0,0,0,0,0,0,-1,1819,1261,0,0
602,-237,0,0,0,0,0,0,0,0,0,-1,1826,1261,0,0
609,-237,0,0,0,0,0,0,0,0,0,-1,1833,1261,0,0
616,-237,235.191,8.72729,0,0,0,0,0,0,0,-1,1840,1261,235.191,-8.72735
623,-237,235.22,8.74634,0,0,0,0,0,0,0,-1,1847,1261,235.22,-8.74634
630,-237,235.096,8.74316,0,0,0,0,0,0,0,-1,1854,1261,235.096,-8.7432
637,-237,235.014,8.71716,0,0,0,0,0,0,0,-1,1861,1261,235.014,-8.71722
644,-237,235.091,8.6925,0,0,0,0,0,0,0,-1,1868,1261,235.091,-8.6925
651,-237,102.834,1.94067,0,0,0,0,0,0,0,-1,1875,1261,102.834,-1.94072
658,-237,76.8235,1.29675,0,0,0,0,0,0,0,-1,1882,1261,76.8235,-1.2968
665,-237,57.9302,3.30676,0,0,0,0,0,0,0,-1,1889,1261,57.9302,-3.30671
672,-237,45.3922,1.95618,0,0,0,0,0,0,0,-1,1896,1261,45.3922,-1.95623
679,-237,23.1501,7.37488,0,0,0,0,0,0,0,-1,1903,1261,23.1502,-7.37493
686,-237,67.415,18.053,0,0,0,0,0,0,0,-1,1910,1261,67.415,-18.053
693,-237,90.6783,27.291,0,0,0,0,0,0,0,-1,1917,1261,90.6784,-27.291
700,-237,217.235,39.4148,0,0,0,0,0,0,0,-1,1924,1261,217.235,-39.4148
707,-237,216.795,37.7155,0,0,0,0,0,0,0,-1,1931,1261,216.795,-37.7154
714,-237,216.193,36.0347,0,0,0,0,0,0,0,-1,1938,1261,216.193,-36.0347
721,-237,216.023,34.4347,-0.00349067,0.0283348,0.00681,0.0297308,-0.00488664,1.36861,0.0216341,0.0335273,1945,1261,216.023,-34.4347
728,-237,215.806,32.8353,-0.0102814,0.032851,0.0130651,0.0364999,-0.0139302,1.29845,0.0300721,0.0223755,1952,1261,215.806,-32.8354
735,-237,215.527,31.2172,-0.017295,0.0375665,0.0194986,0.0437905,-0.023519,1.26182,0.0394442,0.0295026,1959,1261,215.527,-31.2171
742,-237,215.333,29.7402,-0.0244754,0.0425477,0.0260687,0.0514932,-0.0334209,1.24024,0.0493939,0.0268202,1966,1261,215.333,-29.7403
749,-237,215.135,28.2288,0,0,0,0,0,0,0,-1,1973,1261,215.135,-28.2287
756,-237,213.972,26.4238,0,0,0,0,0,0,0,-1,1980,1261,213.972,-26.4238
763,-237,106.22,17.7108,0,0,0,0,0,0,0,-1,1987,1261,106.22,-17.7108
770,-237,105.618,16.0095,0,0,0,0,0,0,0,-1,1994,1261,105.618,-16.0095
777,-237,56.8215,4.47815,0,0,0,0,0,0,0,-1,2001,1261,56.8214,-4.47817
784,-237,36.3441,1.68591,0,0,0,0,0,0,0,-1,2008,1261,36.3441,-1.68592
791,-237,32.3025,6.03235,0,0,0,0,0,0,0,-1,2015,1261,32.3025,-6.03229
798,-237,0,0,0,0,0,0,0,0,0,-1,2022,1261,0,0
805,-237,0,0,0,0,0,0,0,0,0,-1,2029,1261,0,0
812,-237,0,0,0,0,0,0,0,0,0,-1,2036,1261,0,0
-700,-244,0,0,0,0,0,0,0,0,0,-1,524,1268,0,0
-693,-244,0,0,0,0,0,0,0,0,0,-1,531,1268,0,0
-686,-244,0,0,0,0,0,0,0,0,0,-1,538,1268,0,0
-679,-244,0,0,0,0,0,0,0,0,0,-1,545,1268,0,0
-672,-244,-74.9612,20.7479,0,0,0,0,0,0,0,-1,552,1268,-74.9612,-20.7479
-665,-244,-75.2466,22.6189,0,0,0,0,0,0,0,-1,559,1268,-75.2466,-22.6189
-658,-244,-82.4415,27.5525,0,0,0,0,0,0,0,-1,566,1268,-82.4415,-27.5525
-651,-244,-75.8113,25.9297,0,0,0,0,0,0,0,-1,573,1268,-75.8113,-25.9297
-644,-244,-62.6064,9.31079,0,0,0,0,0,0,0,-1,580,1268,-62.6065,-9.31082
-637,-244,-51.7188,8.54675,0,0,0,0,0,0,0,-1,587,1268,-51.7187,-8.54672
-630,-244,-51.6189,9.35242,0,0,0,0,0,0,0,-1,594,1268,-51.6189,-9.35244
-623,-244,-206.594,24.8247,0,0,0,0,0,0,0,-1,601,1268,-206.594,-24.8248
-616,-244,-206.743,26.417,-0.0184336,0.0569575,-0.0232529,0.0635525,-0.0250286,-1.29443,0.0527298,0.0386699,608,1268,-206.743,-26.417
-609,-244,-207.272,27.9102,-0.0152335,0.0532637,-0.0212738,0.0593331,-0.0213029,-1.29288,0.0482503,0.0249803,615,1268,-207.272,-27.9101
-602,-244,-207.544,29.3611,-0.011712,0.0489655,-0.0184561,0.0541382,-0.0168848,-1.29753,0.0428442,0.0233443,622,1268,-207.544,-29.3611
-595,-244,-207.936,30.9562,-0.00781838,0.0440378,-0.0147385,0.047934,-0.0117146,-1.31235,0.0364931,0.0276255,629,1268,-207.936,-30.9562
-588,-244,-208.289,32.5547,0,0,0,0,0,0,0,-1,636,1268,-208.289,-32.5547
-581,-244,-208.907,34.3873,0,0,0,0,0,0,0,-1,643,1268,-208.907,-34.3873
-574,-244,-208.521,35.7389,0,0,0,0,0,0,0,-1,650,1268,-208.521,-35.7388
-567,-244,-208.759,37.5826,0,0,0,0,0,0,0,-1,657,1268,-208.759,-37.5827
-560,-244,-159.489,42.7916,0,0,0,0,0,0,0,-1,664,1268,-159.489,-42.7916
-553,-244,-54.347,20.9492,0,0,0,0,0,0,0,-1,671,1268,-54.347,-20.9492
-546,-244,-11.2686,4.41772,0,0,0,0,0,0,0,-1,678,1268,-11.2686,-4.41767
-539,-244,-12.8706,0.3302,0,0,0,0,0,0,0,-1,685,1268,-12.8706,-0.330156
-532,-244,-18.1502,0.816528,0,0,0,0,0,0,0,-1,692,1268,-18.1502,-0.816514
-525,-244,-33.0835,0.693604,0,0,0,0,0,0,0,-1,699,1268,-33.0835,-0.69365
-518,-244,-47.5015,0.609131,0,0,0,0,0,0,0,-1,706,1268,-47.5015,-0.60919
-511,-244,-48.6138,1.11877,0,0,0,0,0,0,0,-1,713,1268,-48.6138,-1.11872
-504,-244,-72.0964,0.876465,0,0,0,0,0,0,0,-1,720,1268,-72.0964,-0.876515
-497,-244,-72.4528,1.26904,0,0,0,0,0,0,0,-1,727,1268,-72.4529,-1.26907
-490,-244,0,0,0,0,0,0,0,0,0,-1,734,1268,0,0
-483,-244,0,0,0,0,0,0,0,0,0,-1,741,1268,0,0
-476,-244,0,0,0,0,0,0,0,0,0,-1,748,1268,0,0
-469,-244,0,0,0,0,0,0,0,0,0,-1,755,1268,0,0
-462,-244,0,0,0,0,0,0,0,0,0,-1,762,1268,0,0
-455,-244,0,0,0,0,0,0,0,0,0,-1,769,1268,0,0
-448,-244,0,0,0,0,0,0,0,0,0,-1,776,1268,0,0
-441,-244,0,0,0,0,0,0,0,0,0,-1,783,1268,0,0
-434,-244,0,0,0,0,0,0,0,0,0,-1,790,1268,0,0
-427,-244,0,0,0,0,0,0,0,0,0,-1,797,1268,0,0
-420,-244,0,0,0,0,0,0,0,0,0,-1,804,1268,0,0
-413,-244,0,0,0,0,0,0,0,0,0,-1,811,1268,0,0
-406,-244,0,0,0,0,0,0,0,0,0,-1,818,1268,0,0
-399,-244,0,0,0,0,0,0,0,0,0,-1,825,1268,0,0
-392,-244,0,0,0,0,0,0,0,0,0,-1,832,1268,0,0
-385,-244,0,0,0,0,0,0,0,0,0,-1,839,1268,0,0
-378,-244,0,0,0,0,0,0,0,0,0,-1,846,1268,0,0
-371,-244,0,0,0,0,0,0,0,0,0,-1,853,1268,0,0
-364,-244,0,0,0,0,0,0,0,0,0,-1,860,1268,0,0
-357,-244,0,0,0,0,0,0,0,0,0,-1,867,1268,0,0
-350,-244,0,0,0,0,0,0,0,0,0,-1,874,1268,0,0
-343,-244,0,0,0,0,0,0,0,0,0,-1,881,1268,0,0
-336,-244,0,0,0,0,0,0,0,0,0,-1,888,1268,0,0
-329,-244,0,0,0,0,0,0,0,0,0,-1,895,1268,0,0
-322,-244,0,0,0,0,0,0,0,0,0,-1,902,1268,0,0
-315,-244,0,0,0,0,0,0,0,0,0,-1,909,1268,0,0
-308,-244,0,0,0,0,0,0,0,0,0,-1,916,1268,0,0
-301,-244,0,0,0,0,0,0,0,0,0,-1,923,1268,0,0
-294,-244,0,0,0,0,0,0,0,0,0,-1,930,1268,0,0
-287,-244,0,0,0,0,0,0,0,0,0,-1,937,1268,0,0
-280,-244,0,0,0,0,0,0,0,0,0,-1,944,1268,0,0
-273,-244,0,0,0,0,0,0,0,0,0,-1,951,1268,0,0
-266,-244,0,0,0,0,0,0,0,0,0,-1,958,1268,0,0
-259,-244,0,0,0,0,0,0,0,0,0,-1,965,1268,0,0
-252,-244,0,0,0,0,0,0,0,0,0,-1,972,1268,0,0
-245,-244,0,0,0,0,0,0,0,0,0,-1,979,1268,0,0
-238,-244,0,0,0,0,0,0,0,0,0,-1,986,1268,0,0
-231,-244,0,0,0,0,0,0,0,0,0,-1,993,1268,0,0
-224,-244,0,0,0,0,0,0,0,0,0,-1,1000,1268,0,0
-217,-244,0,0,0,0,0,0,0,0,0,-1,1007,1268,0,0
-210,-244,0,0,0,0,0,0,0,0,0,-1,1014,1268,0,0
-203,-244,0,0,0,0,0,0,0,0,0,-1,1021,1268,0,0
-196,-244,0,0,0,0,0,0,0,0,0,-1,1028,1268,0,0
-189,-244,0,0,0,0,0,0,0,0,0,-1,1035,1268,0,0
-182,-244,0,0,0,0,0,0,0,0,0,-1,1042,1268,0,0
-175,-244,0,0,0,0,0,0,0,0,0,-1,1049,1268,0,0
-168,-244,0,0,0,0,0,0,0,0,0,-1,1056,1268,0,0
-161,-244,0,0,0,0,0,0,0,0,0,-1,1063,1268,0,0
-154,-244,0,0,0,0,0,0,0,0,0,-1,1070,1268,0,0
-147,-244,0,0,0,0,0,0,0,0,0,-1,1077,1268,0,0
-140,-244,0,0,0,0,0,0,0,0,0,-1,1084,1268,0,0
-133,-244,0,0,0,0,0,0,0,0,0,-1,1091,1268,0,0
-126,-244,0,0,0,0,0,0,0,0,0,-1,1098,1268,0,0
-119,-244,0,0,0,0,0,0,0,0,0,-1,1105,1268,0,0
-112,-244,0,0,0,0,0,0,0,0,0,-1,1112,1268,0,0
-105,-244,0,0,0,0,0,0,0,0,0,-1,1119,1268,0,0
-98,-244,0,0,0,0,0,0,0,0,0,-1,1126,1268,0,0
-91,-244,0,0,0,0,0,0,0,0,0,-1,1133,1268,0,0
-84,-244,0,0,0,0,0,0,0,0,0,-1,1140,1268,0,0
-77,-244,0,0,0,0,0,0,0,0,0,-1,1147,1268,0,0
-70,-244,0,0,0,0,0,0,0,0,0,-1,1154,1268,0,0
-63,-244,0,0,0,0,0,0,0,0,0,-1,1161,1268,0,0
-56,-244,0,0,0,0,0,0,0,0,0,-1,1168,1268,0,0
-49,-244,0,0,0,0,0,0,0,0,0,-1,1175,1268,0,0
-42,-244,0,0,0,0,0,0,0,0,0,-1,1182,1268,0,0
-35,-244,0,0,0,0,0,0,0,0,0,-1,1189,1268,0,0
-28,-244,0,0,0,0,0,0,0,0,0,-1,1196,1268,0,0
-21,-244,0,0,0,0,0,0,0,0,0,-1,1203,1268,0,0
-14,-244,0,0,0,0,0,0,0,0,0,-1,1210,1268,0,0
-7,-244,0,0,0,0,0,0,0,0,0,-1,1217,1268,0,0
0,-244,0,0,0,0,0,0,0,0,0,-1,1224,1268,0,0
7,-244,0,0,0,0,0,0,0,0,0,-1,1231,1268,0,0
14,-244,0,0,0,0,0,0,0,0,0,-1,1238,1268,0,0
21,-244,0,0,0,0,0,0,0,0,0,-1,1245,1268,0,0
28,-244,0,0,0,0,0,0,0,0,0,-1,1252,1268,0,0
35,-244,0,0,0,0,0,0,0,0,0,-1,1259,1268,0,0
42,-244,0,0,0,0,0,0,0,0,0,-1,1266,1268,0,0
49,-244,0,0,0,0,0,0,0,0,0,-1,1273,1268,0,0
56,-244,0,0,0,0,0,0,0,0,0,-1,1280,1268,0,0
63,-244,0,0,0,0,0,0,0,0,0,-1,1287,1268,0,0
70,-244,0,0,0,0,0,0,0,0,0,-1,1294,1268,0,0
77,-244,0,0,0,0,0,0,0,0,0,-1,1301,1268,0,0
84,-244,0,0,0,0,0,0,0,0,0,-1,1308,1268,0,0
91,-244,0,0,0,0,0,0,0,0,0,-1,1315,1268,0,0
98,-244,0,0,0,0,0,0,0,0,0,-1,1322,1268,0,0
105,-244,0,0,0,0,0,0,0,0,0,-1,1329,1268,0,0
112,-244,0,0,0,0,0,0,0,0,0,-1,1336,1268,0,0
119,-244,0,0,0,0,0,0,0,0,0,-1,1343,1268,0,0
126,-244,0,0,0,0,0,0,0,0,0,-1,1350,1268,0,0
133,-244,0,0,0,0,0,0,0,0,0,-1,1357,1268,0,0
140,-244,0,0,0,0,0,0,0,0,0,-1,1364,1268,0,0
147,-244,0,0,0,0,0,0,0,0,0,-1,1371,1268,0,0
154,-244,0,0,0,0,0,0,0,0,0,-1,1378,1268,0,0
161,-244,0,0,0,0,0,0,0,0,0,-1,1385,1268,0,0
168,-244,0,0,0,0,0,0,0,0,0,-1,1392,1268,0,0
175,-244,0,0,0,0,0,0,0,0,0,-1,1399,1268,0,0
182,-244,0,0,0,0,0,0,0,0,0,-1,1406,1268,0,0
189,-244,0,0,0,0,0,0,0,0,0,-1,1413,1268,0,0
196,-244,0,0,0,0,0,0,0,0,0,-1,1420,1268,0,0
203,-244,0,0,0,0,0,0,0,0,0,-1,1427,1268,0,0
210,-244,0,0,0,0,0,0,0,0,0,-1,1434,1268,0,0
217,-244,0,0,0,0,0,0,0,0,0,-1,1441,1268,0,0
224,-244,0,0,0,0,0,0,0,0,0,-1,1448,1268,0,0
231,-244,0,0,0,0,0,0,0,0,0,-1,1455,1268,0,0
238,-244,0,0,0,0,0,0,0,0,0,-1,1462,1268,0,0
245,-244,0,0,0,0,0,0,0,0,0,-1,1469,1268,0,0
252,-244,0,0,0,0,0,0,0,0,0,-1,1476,1268,0,0
259,-244,0,0,0,0,0,0,0,0,0,-1,1483,1268,0,0
266,-244,0,0,0,0,0,0,0,0,0,-1,1490,1268,0,0
273,-244,0,0,0,0,0,0,0,0,0,-1,1497,1268,0,0
280,-244,0,0,0,0,0,0,0,0,0,-1,1504,1268,0,0
287,-244,0,0,0,0,0,0,0,0,0,-1,1511,1268,0,0
294,-244,0,0,0,0,0,0,0,0,0,-1,1518,1268,0,0
301,-244,0,0,0,0,0,0,0,0,0,-1,1525,1268,0,0
308,-244,0,0,0,0,0,0,0,0,0,-1,1532,1268,0,0
315,-244,0,0,0,0,0,0,0,0,0,-1,1539,1268,0,0
322,-244,0,0,0,0,0,0,0,0,0,-1,1546,1268,0,0
329,-244,0,0,0,0,0,0,0,0,0,-1,1553,1268,0,0
336,-244,0,0,0,0,0,0,0,0,0,-1,1560,1268,0,0
343,-244,0,0,0,0,0,0,0,0,0,-1,1567,1268,0,0
350,-244,0,0,0,0,0,0,0,0,0,-1,1574,1268,0,0
357,-244,0,0,0,0,0,0,0,0,0,-1,1581,1268,0,0
364,-244,0,0,0,0,0,0,0,0,0,-1,1588,1268,0,0
371,-244,0,0,0,0,0,0,0,0,0,-1,1595,1268,0,0
378,-244,0,0,0,0,0,0,0,0,0,-1,1602,1268,0,0
385,-244,0,0,0,0,0,0,0,0,0,-1,1609,1268,0,0
392,-244,0,0,0,0,0,0,0,0,0,-1,1616,1268,0,0
399,-244,0,0,0,0,0,0,0,0,0,-1,1623,1268,0,0
406,-244,0,0,0,0,0,0,0,0,0,-1,1630,1268,0,0
413,-244,0,0,0,0,0,0,0,0,0,-1,1637,1268,0,0
420,-244,0,0,0,0,0,0,0,0,0,-1,1644,1268,0,0
427,-244,0,0,0,0,0,0,0,0,0,-1,1651,1268,0,0
434,-244,0,0,0,0,0,0,0,0,0,-1,1658,1268,0,0
441,-244,0,0,0,0,0,0,0,0,0,-1,1665,1268,0,0
448,-244,0,0,0,0,0,0,0,0,0,-1,1672,1268,0,0
455,-244,0,0,0,0,0,0,0,0,0,-1,1679,1268,0,0
462,-244,0,0,0,0,0,0,0,0,0,-1,1686,1268,0,0
469,-244,0,0,0,0,0,0,0,0,0,-1,1693,1268,0,0
476,-244,0,0,0,0,0,0,0,0,0,-1,1700,1268,0,0
483,-244,0,0,0,0,0,0,0,0,0,-1,1707,1268,0,0
490,-244,0,0,0,0,0,0,0,0,0,-1,1714,1268,0,0
497,-244,0,0,0,0,0,0,0,0,0,-1,1721,1268,0,0
504,-244,0,0,0,0,0,0,0,0,0,-1,1728,1268,0,0
511,-244,0,0,0,0,0,0,0,0,0,-1,1735,1268,0,0
518,-244,0,0,0,0,0,0,0,0,0,-1,1742,1268,0,0
525,-244,0,0,0,0,0,0,0,0,0,-1,1749,1268,0,0
532,-244,0,0,0,0,0,0,0,0,0,-1,1756,1268,0,0
539,-244,0,0,0,0,0,0,0,0,0,-1,1763,1268,0,0
546,-244,0,0,0,0,0,0,0,0,0,-1,1770,1268,0,0
553,-244,0,0,0,0,0,0,0,0,0,-1,1777,1268,0,0
560,-244,0,0,0,0,0,0,0,0,0,-1,1784,1268,0,0
567,-244,0,0,0,0,0,0,0,0,0,-1,1791,1268,0,0
574,-244,0,0,0,0,0,0,0,0,0,-1,1798,1268,0,0
581,-244,0,0,0,0,0,0,0,0,0,-1,1805,1268,0,0
588,-244,0,0,0,0,0,0,0,0,0,-1,1812,1268,0,0
595,-244,0,0,0,0,0,0,0,0,0,-1,1819,1268,0,0
602,-244,0,0,0,0,0,0,0,0,0,-1,1826,1268,0,0
609,-244,0,0,0,0,0,0,0,0,0,-1,1833,1268,0,0
616,-244,235.134,8.76599,0,0,0,0,0,0,0,-1,1840,1268,235.134,-8.76605
623,-244,235.18,8.86865,0,0,0,0,0,0,0,-1,1847,1268,235.18,-8.8687
630,-244,235.073,8.81409,0,0,0,0,0,0,0,-1,1854,1268,235.073,-8.81404
637,-244,234.985,8.61377,0,0,0,0,0,0,0,-1,1861,1268,234.985,-8.61378
644,-244,114.925,3.12561,0,0,0,0,0,0,0,-1,1868,1268,114.925,-3.12563
651,-244,90.5771,1.93823,0,0,0,0,0,0,0,-1,1875,1268,90.5771,-1.93817
658,-244,71.6105,1.55334,0,0,0,0,0,0,0,-1,1882,1268,71.6104,-1.55332
665,-244,50.7988,1.09888,0,0,0,0,0,0,0,-1,1889,1268,50.7989,-1.09893
672,-244,32.224,3.6123,0,0,0,0,0,0,0,-1,1896,1268,32.224,-3.6123
679,-244,27.2593,7.90649,0,0,0,0,0,0,0,-1,1903,1268,27.2592,-7.9065
686,-244,84.4209,27.0175,0,0,0,0,0,0,0,-1,1910,1268,84.4209,-27.0174
693,-244,215.533,41.5474,0,0,0,0,0,0,0,-1,1917,1268,215.533,-41.5473
700,-244,215.313,39.7964,0.011748,0.0185828,-0.00888399,0.024684,0.00564679,-0.96901,0.014934,0.0482588,1924,1268,215.312,-39.7964
707,-244,214.991,37.9072,0,0,0,0,0,0,0,-1,1931,1268,214.991,-37.9072
714,-244,214.804,35.9081,0,0,0,0,0,0,0,-1,1938,1268,214.804,-35.9081
721,-244,214.3,34.4471,-0.00576367,0.0298634,0.00929138,0.032141,-0.00804122,1.33041,0.0245507,0.0422839,1945,1268,214.3,-34.4472
728,-244,213.812,32.8939,-0.0126015,0.034096,0.0158165,0.0389488,-0.0174543,1.2731,0.0333432,0.0466155,1952,1268,213.812,-32.8939
735,-244,213.463,30.999,-0.0197411,0.0384639,0.0226087,0.0462139,-0.0274911,1.24056,0.0430088,0.0423439,1959,1268,213.463,-30.9991
742,-244,213.27,29.7513,-0.0271421,0.0430322,0.0296439,0.0538784,-0.0379882,1.22004,0.053303,0.03296,1966,1268,213.27,-29.7514
749,-244,213.007,28.5836,-0.0347752,0.0478699,0.0369054,0.061951,-0.0488563,1.2063,0.0641234,0.0433806,1973,1268,213.007,-28.5836
756,-244,212.446,27.1757,0,0,0,0,0,0,0,-1,1980,1268,212.446,-27.1756
763,-244,104.206,18.0935,0,0,0,0,0,0,0,-1,1987,1268,104.206,-18.0935
770,-244,56.2969,5.43298,0,0,0,0,0,0,0,-1,1994,1268,56.2969,-5.43297
777,-244,48.7119,2.7002,0,0,0,0,0,0,0,-1,2001,1268,48.712,-2.70019
784,-244,31.7908,5.20081,0,0,0,0,0,0,0,-1,2008,1268,31.7907,-5.20083
791,-244,0,0,0,0,0,0,0,0,0,-1,2015,1268,0,0
798,-244,0,0,0,0,0,0,0,0,0,-1,2022,1268,0,0
805,-244,0,0,0,0,0,0,0,0,0,-1,2029,1268,0,0
812,-244,0,0,0,0,0,0,0,0,0,-1,2036,1268,0,0
-700,-251,0,0,0,0,0,0,0,0,0,-1,524,1275,0,0
-693,-251,0,0,0,0,0,0,0,0,0,-1,531,1275,0,0
-686,-251,0,0,0,0,0,0,0,0,0,-1,538,1275,0,0
-679,-251,0,0,0,0,0,0,0,0,0,-1,545,1275,0,0
-672,-251,0,0,0,0,0,0,0,0,0,-1,552,1275,0,0
-665,-251,-75.6944,23.8195,0,0,0,0,0,0,0,-1,559,1275,-75.6944,-23.8195
-658,-251,-75.8995,25.6963,0,0,0,0,0,0,0,-1,566,1275,-75.8995,-25.6963
-651,-251,-76.1266,27.5671,0,0,0,0,0,0,0,-1,573,1275,-76.1266,-27.5671
-644,-251,-50.9809,8.08691,0,0,0,0,0,0,0,-1,580,1275,-50.9809,-8.08686
-637,-251,-50.8358,8.91528,0,0,0,0,0,0,0,-1,587,1275,-50.8358,-8.91532
-630,-251,-71.7939,14.9017,0,0,0,0,0,0,0,-1,594,1275,-71.7939,-14.9018
-623,-251,-206.289,25.071,0,0,0,0,0,0,0,-1,601,1275,-206.289,-25.071
-616,-251,-205.389,26.4243,-0.018693,0.058663,-0.0246466,0.0658483,-0.0258783,-1.28713,0.0546086,0.0416386,608,1275,-205.389,-26.4243
-609,-251,-205.326,27.7031,-0.015878,0.0549022,-0.0229025,0.0616664,-0.0226422,-1.28361,0.0503837,0.0329412,615,1275,-205.326,-27.7031
-602,-251,-205.526,29.3096,-0.0126279,0.0505507,-0.0202777,0.056499,-0.0185762,-1.28546,0.0451504,0.0228405,622,1275,-205.526,-29.3095
-595,-251,-205.802,30.9481,-0.00890901,0.045607,-0.0167237,0.0503284,-0.0136304,-1.29564,0.0389001,0.0210103,629,1275,-205.802,-30.9481
-588,-251,-206.431,32.551,-0.00471026,0.0400605,-0.0122312,0.0431841,-0.00783383,-1.32076,0.0317247,0.0272922,636,1275,-206.431,-32.5511
-581,-251,-206.33,34.2413,0,0,0,0,0,0,0,-1,643,1275,-206.33,-34.2413
-574,-251,-206.575,35.8511,0.0050751,0.0270798,-0.000581449,0.0270952,0.00505975,-1.5444,0.0166354,0.0363348,650,1275,-206.575,-35.8511
-567,-251,-206.817,37.6377,0.0106891,0.0195417,0.00636681,0.0228696,0.0073611,1.08915,0.0134802,0.046171,657,1275,-206.817,-37.6376
-560,-251,-207.029,39.306,0,0,0,0,0,0,0,-1,664,1275,-207.029,-39.306
-553,-251,-73.401,29.2515,0,0,0,0,0,0,0,-1,671,1275,-73.401,-29.2514
-546,-251,-12.995,4.5675,0,0,0,0,0,0,0,-1,678,1275,-12.995,-4.56745
-539,-251,-10.7916,0.366333,0,0,0,0,0,0,0,-1,685,1275,-10.7916,-0.366282
-532,-251,-10.7391,-0.00769043,0,0,0,0,0,0,0,-1,692,1275,-10.7391,0.00773227
-525,-251,-29.4286,-0.250244,0,0,0,0,0,0,0,-1,699,1275,-29.4286,0.250266
-518,-251,-32.6981,0.678833,0,0,0,0,0,0,0,-1,706,1275,-32.6981,-0.678787
-511,-251,-29.4731,0.637085,0,0,0,0,0,0,0,-1,713,1275,-29.4731,-0.637025
-504,-251,-30.6428,0.792358,0,0,0,0,0,0,0,-1,720,1275,-30.6427,-0.792335
-497,-251,-54.1249,0.753784,0,0,0,0,0,0,0,-1,727,1275,-54.1249,-0.753774
-490,-251,0,0,0,0,0,0,0,0,0,-1,734,1275,0,0
-483,-251,0,0,0,0,0,0,0,0,0,-1,741,1275,0,0
-476,-251,0,0,0,0,0,0,0,0,0,-1,748,1275,0,0
-469,-251,0,0,0,0,0,0,0,0,0,-1,755,1275,0,0
-462,-251,0,0,0,0,0,0,0,0,0,-1,762,1275,0,0
-455,-251,0,0,0,0,0,0,0,0,0,-1,769,1275,0,0
-448,-251,0,0,0,0,0,0,0,0,0,-1,776,1275,0,0
-441,-251,0,0,0,0,0,0,0,0,0,-1,783,1275,0,0
-434,-251,0,0,0,0,0,0,0,0,0,-1,790,1275,0,0
-427,-251,0,0,0,0,0,0,0,0,0,-1,797,1275,0,0
-420,-251,0,0,0,0,0,0,0,0,0,-1,804,1275,0,0
-413,-251,0,0,0,0,0,0,0,0,0,-1,811,1275,0,0
-406,-251,0,0,0,0,0,0,0,0,0,-1,818,1275,0,0
-399,-251,0,0,0,0,0,0,0,0,0,-1,825,1275,0,0
-392,-251,0,0,0,0,0,0,0,0,0,-1,832,1275,0,0
-385,-251,0,0,0,0,0,0,0,0,0,-1,839,1275,0,0
-378,-251,0,0,0,0,0,0,0,0,0,-1,846,1275,0,0
-371,-251,0,0,0,0,0,0,0,0,0,-1,853,1275,0,0
-364,-251,0,0,0,0,0,0,0,0,0,-1,860,1275,0,0
-357,-251,0,0,0,0,0,0,0,0,0,-1,867,1275,0,0
-350,-251,0,0,0,0,0,0,0,0,0,-1,874,1275,0,0
-343,-251,0,0,0,0,0,0,0,0,0,-1,881,1275,0,0
-336,-251,0,0,0,0,0,0,0,0,0,-1,888,1275,0,0
-329,-251,0,0,0,0,0,0,0,0,0,-1,895,1275,0,0
-322,-251,0,0,0,0,0,0,0,0,0,-1,902,1275,0,0
-315,-251,0,0,0,0,0,0,0,0,0,-1,909,1275,0,0
-308,-251,0,0,0,0,0,0,0,0,0,-1,916,1275,0,0
-301,-251,0,0,0,0,0,0,0,0,0,-1,923,1275,0,0
-294,-251,0,0,0,0,0,0,0,0,0,-1,930,1275,0,0
-287,-251,0,0,0,0,0,0,0,0,0,-1,937,1275,0,0
-280,-251,0,0,0,0,0,0,0,0,0,-1,944,1275,0,0
-273,-251,0,0,0,0,0,0,0,0,0,-1,951,1275,0,0
-266,-251,0,0,0,0,0,0,0,0,0,-1,958,1275,0,0
-259,-251,0,0,0,0,0,0,0,0,0,-1,965,1275,0,0
-252,-251,0,0,0,0,0,0,0,0,0,-1,972,1275,0,0
-245,-251,0,0,0,0,0,0,0,0,0,-1,979,1275,0,0
-238,-251,0,0,0,0,0,0,0,0,0,-1,986,1275,0,0
-231,-251,0,0,0,0,0,0,0,0,0,-1,993,1275,0,0
-224,-251,0,0,0,0,0,0,0,0,0,-1,1000,1275,0,0
-217,-251,0,0,0,0,0,0,0,0,0,-1,1007,1275,0,0
-210,-251,0,0,0,0,0,0,0,0,0,-1,1014,1275,0,0
-203,-251,0,0,0,0,0,0,0,0,0,-1,1021,1275,0,0
-196,-251,0,0,0,0,0,0,0,0,0,-1,1028,1275,0,0
-189,-251,0,0,0,0,0,0,0,0,0,-1,1035,1275,0,0
-182,-251,0,0,0,0,0,0,0,0,0,-1,1042,1275,0,0
-175,-251,0,0,0,0,0,0,0,0,0,-1,1049,1275,0,0
-168,-251,0,0,0,0,0,0,0,0,0,-1,1056,1275,0,0
-161,-251,0,0,0,0,0,0,0,0,0,-1,1063,1275,0,0
-154,-251,0,0,0,0,0,0,0,0,0,-1,1070,1275,0,0
-147,-251,0,0,0,0,0,0,0,0,0,-1,1077,1275,0,0
-140,-251,0,0,0,0,0,0,0,0,0,-1,1084,1275,0,0
-133,-251,0,0,0,0,0,0,0,0,0,-1,1091,1275,0,0
-126,-251,0,0,0,0,0,0,0,0,0,-1,1098,1275,0,0
-119,-251,0,0,0,0,0,0,0,0,0,-1,1105,1275,0,0
-112,-251,0,0,0,0,0,0,0,0,0,-1,1112,1275,0,0
-105,-251,0,0,0,0,0,0,0,0,0,-1,1119,1275,0,0
-98,-251,0,0,0,0,0,0,0,0,0,-1,1126,1275,0,0
-91,-251,0,0,0,0,0,0,0,0,0,-1,1133,1275,0,0
-84,-251,0,0,0,0,0,0,0,0,0,-1,1140,1275,0,0
-77,-251,0,0,0,0,0,0,0,0,0,-1,1147,1275,0,0
-70,-251,0,0,0,0,0,0,0,0,0,-1,1154,1275,0,0
-63,-251,0,0,0,0,0,0,0,0,0,-1,1161,1275,0,0
-56,-251,0,0,0,0,0,0,0,0,0,-1,1168,1275,0,0
-49,-251,0,0,0,0,0,0,0,0,0,-1,1175,1275,0,0
-42,-251,0,0,0,0,0,0,0,0,0,-1,1182,1275,0,0
-35,-251,0,0,0,0,0,0,0,0,0,-1,1189,1275,0,0
-28,-251,0,0,0,0,0,0,0,0,0,-1,1196,1275,0,0
-21,-251,0,0,0,0,0,0,0,0,0,-1,1203,1275,0,0
-14,-251,0,0,0,0,0,0,0,0,0,-1,1210,1275,0,0
-7,-251,0,0,0,0,0,0,0,0,0,-1,1217,1275,0,0
0,-251,0,0,0,0,0,0,0,0,0,-1,1224,1275,0,0
7,-251,0,0,0,0,0,0,0,0,0,-1,1231,1275,0,0
14,-251,0,0,0,0,0,0,0,0,0,-1,1238,1275,0,0
21,-251,0,0,0,0,0,0,0,0,0,-1,1245,1275,0,0
28,-251,0,0,0,0,0,0,0,0,0,-1,1252,1275,0,0
35,-251,0,0,0,0,0,0,0,0,0,-1,1259,1275,0,0
42,-251,0,0,0,0,0,0,0,0,0,-1,1266,1275,0,0
49,-251,0,0,0,0,0,0,0,0,0,-1,1273,1275,0,0
56,-251,0,0,0,0,0,0,0,0,0,-1,1280,1275,0,0
63,-251,0,0,0,0,0,0,0,0,0,-1,1287,1275,0,0
70,-251,0,0,0,0,0,0,0,0,0,-1,1294,1275,0,0
77,-251,0,0,0,0,0,0,0,0,0,-1,1301,1275,0,0
84,-251,0,0,0,0,0,0,0,0,0,-1,1308,1275,0,0
91,-251,0,0,0,0,0,0,0,0,0,-1,1315,1275,0,0
98,-251,0,0,0,0,0,0,0,0,0,-1,1322,1275,0,0
105,-251,0,0,0,0,0,0,0,0,0,-1,1329,1275,0,0
112,-251,0,0,0,0,0,0,0,0,0,-1,1336,1275,0,0
119,-251,0,0,0,0,0,0,0,0,0,-1,1343,1275,0,0
126,-251,0,0,0,0,0,0,0,0,0,-1,1350,1275,0,0
133,-251,0,0,0,0,0,0,0,0,0,-1,1357,1275,0,0
140,-251,0,0,0,0,0,0,0,0,0,-1,1364,1275,0,0
147,-251,0,0,0,0,0,0,0,0,0,-1,1371,1275,0,0
154,-251,0,0,0,0,0,0,0,0,0,-1,1378,1275,0,0
161,-251,0,0,0,0,0,0,0,0,0,-1,1385,1275,0,0
168,-251,0,0,0,0,0,0,0,0,0,-1,1392,1275,0,0
175,-251,0,0,0,0,0,0,0,0,0,-1,1399,1275,0,0
182,-251,0,0,0,0,0,0,0,0,0,-1,1406,1275,0,0
189,-251,0,0,0,0,0,0,0,0,0,-1,1413,1275,0,0
196,-251,0,0,0,0,0,0,0,0,0,-1,1420,1275,0,0
203,-251,0,0,0,0,0,0,0,0,0,-1,1427,1275,0,0
210,-251,0,0,0,0,0,0,0,0,0,-1,1434,1275,0,0
217,-251,0,0,0,0,0,0,0,0,0,-1,1441,1275,0,0
224,-251,0,0,0,0,0,0,0,0,0,-1,1448,1275,0,0
231,-251,0,0,0,0,0,0,0,0,0,-1,1455,1275,0,0
238,-251,0,0,0,0,0,0,0,0,0,-1,1462,1275,0,0
245,-251,0,0,0,0,0,0,0,0,0,-1,1469,1275,0,0
252,-251,0,0,0,0,0,0,0,0,0,-1,1476,1275,0,0
259,-251,0,0,0,0,0,0,0,0,0,-1,1483,1275,0,0
266,-251,0,0,0,0,0,0,0,0,0,-1,1490,1275,0,0
273,-251,0,0,0,0,0,0,0,0,0,-1,1497,1275,0,0
280,-251,0,0,0,0,0,0,0,0,0,-1,1504,1275,0,0
287,-251,0,0,0,0,0,0,0,0,0,-1,1511,1275,0,0
294,-251,0,0,0,0,0,0,0,0,0,-1,1518,1275,0,0
301,-251,0,0,0,0,0,0,0,0,0,-1,1525,1275,0,0
308,-251,0,0,0,0,0,0,0,0,0,-1,1532,1275,0,0
315,-251,0,0,0,0,0,0,0,0,0,-1,1539,1275,0,0
322,-251,0,0,0,0,0,0,0,0,0,-1,1546,1275,0,0
329,-251,0,0,0,0,0,0,0,0,0,-1,1553,1275,0,0
336,-251,0,0,0,0,0,0,0,0,0,-1,1560,1275,0,0
343,-251,0,0,0,0,0,0,0,0,0,-1,1567,1275,0,0
350,-251,0,0,0,0,0,0,0,0,0,-1,1574,1275,0,0
357,-251,0,0,0,0,0,0,0,0,0,-1,1581,1275,0,0
364,-251,0,0,0,0,0,0,0,0,0,-1,1588,1275,0,0
371,-251,0,0,0,0,0,0,0,0,0,-1,1595,1275,0,0
378,-251,0,0,0,0,0,0,0,0,0,-1,1602,1275,0,0
385,-251,0,0,0,0,0,0,0,0,0,-1,1609,1275,0,0
392,-251,0,0,0,0,0,0,0,0,0,-1,1616,1275,0,0
399,-251,0,0,0,0,0,0,0,0,0,-1,1623,1275,0,0
406,-251,0,0,0,0,0,0,0,0,0,-1,1630,1275,0,0
413,-251,0,0,0,0,0,0,0,0,0,-1,1637,1275,0,0
420,-251,0,0,0,0,0,0,0,0,0,-1,1644,1275,0,0
427,-251,0,0,0,0,0,0,0,0,0,-1,1651,1275,0,0
434,-251,0,0,0,0,0,0,0,0,0,-1,1658,1275,0,0
441,-251,0,0,0,0,0,0,0,0,0,-1,1665,1275,0,0
448,-251,0,0,0,0,0,0,0,0,0,-1,1672,1275,0,0
455,-251,0,0,0,0,0,0,0,0,0,-1,1679,1275,0,0
462,-251,0,0,0,0,0,0,0,0,0,-1,1686,1275,0,0
469,-251,0,0,0,0,0,0,0,0,0,-1,1693,1275,0,0
476,-251,0,0,0,0,0,0,0,0,0,-1,1700,1275,0,0
483,-251,0,0,0,0,0,0,0,0,0,-1,1707,1275,0,0
490,-251,0,0,0,0,0,0,0,0,0,-1,1714,1275,0,0
497,-251,0,0,0,0,0,0,0,0,0,-1,1721,1275,0,0
504,-251,0,0,0,0,0,0,0,0,0,-1,1728,1275,0,0
511,-251,0,0,0,0,0,0,0,0,0,-1,1735,1275,0,0
518,-251,0,0,0,0,0,0,0,0,0,-1,1742,1275,0,0
525,-251,0,0,0,0,0,0,0,0,0,-1,1749,1275,0,0
532,-251,0,0,0,0,0,0,0,0,0,-1,1756,1275,0,0
539,-251,0,0,0,0,0,0,0,0,0,-1,1763,1275,0,0
546,-251,0,0,0,0,0,0,0,0,0,-1,1770,1275,0,0
553,-251,0,0,0,0,0,0,0,0,0,-1,1777,1275,0,0
560,-251,0,0,0,0,0,0,0,0,0,-1,1784,1275,0,0
567,-251,0,0,0,0,0,0,0,0,0,-1,1791,1275,0,0
574,-251,0,0,0,0,0,0,0,0,0,-1,1798,1275,0,0
581,-251,0,0,0,0,0,0,0,0,0,-1,1805,1275,0,0
588,-251,0,0,0,0,0,0,0,0,0,-1,1812,1275,0,0
595,-251,0,0,0,0,0,0,0,0,0,-1,1819,1275,0,0
602,-251,0,0,0,0,0,0,0,0,0,-1,1826,1275,0,0
609,-251,235.077,8.85962,0,0,0,0,0,0,0,-1,1833,1275,235.077,-8.85956
616,-251,235.077,8.83679,0,0,0,0,0,0,0,-1,1840,1275,235.077,-8.83679
623,-251,235.036,8.86975,0,0,0,0,0,0,0,-1,1847,1275,235.036,-8.86979
630,-251,234.977,8.88086,0,0,0,0,0,0,0,-1,1854,1275,234.977,-8.88087
637,-251,119.813,3.21826,0,0,0,0,0,0,0,-1,1861,1275,119.813,-3.21831
644,-251,103.02,2.53735,0,0,0,0,0,0,0,-1,1868,1275,103.02,-2.53738
651,-251,83.6721,2.65125,0,0,0,0,0,0,0,-1,1875,1275,83.6722,-2.65119
658,-251,64.3931,2.57288,0,0,0,0,0,0,0,-1,1882,1275,64.393,-2.57287
665,-251,32.9579,2.60229,0,0,0,0,0,0,0,-1,1889,1275,32.9579,-2.60231
672,-251,26.0721,4.53064,0,0,0,0,0,0,0,-1,1896,1275,26.0721,-4.53063
679,-251,66.3422,18.9362,0,0,0,0,0,0,0,-1,1903,1275,66.3421,-18.9362
686,-251,94.9014,31.4364,0,0,0,0,0,0,0,-1,1910,1275,94.9014,-31.4364
693,-251,213.564,41.6602,0,0,0,0,0,0,0,-1,1917,1275,213.564,-41.6601
700,-251,213.319,39.9967,0,0,0,0,0,0,0,-1,1924,1275,213.319,-39.9967
707,-251,213.108,37.8831,0,0,0,0,0,0,0,-1,1931,1275,213.108,-37.883
714,-251,212.612,36.2926,-0.00150167,0.0268628,0.00597467,0.0280699,-0.0027088,1.37144,0.0196784,0.0467511,1938,1275,212.612,-36.2926
721,-251,212.383,34.4879,-0.00789906,0.0308912,0.0122699,0.0344465,-0.0114543,1.28876,0.0275868,0.0498976,1945,1275,212.383,-34.4879
728,-251,211.764,33.2336,0,0,0,0,0,0,0,-1,1952,1275,211.764,-33.2337
735,-251,211.637,31.207,-0.0219391,0.0390443,0.0258815,0.0485476,-0.0314423,1.2189,0.0465328,0.0349187,1959,1275,211.637,-31.207
742,-251,211.223,29.8071,-0.0295286,0.0432618,0.0331831,0.0561183,-0.0423851,1.20116,0.0570549,0.0327328,1966,1275,211.223,-29.8072
749,-251,210.691,28.7021,-0.0374766,0.0476477,0.040818,0.0640571,-0.053886,1.18855,0.0681788,0.0472045,1973,1275,210.691,-28.7021
756,-251,209.999,27.5349,0,0,0,0,0,0,0,-1,1980,1275,209.999,-27.535
763,-251,43.3652,5.7583,0,0,0,0,0,0,0,-1,1987,1275,43.3653,-5.75827
770,-251,49.4386,3.45508,0,0,0,0,0,0,0,-1,1994,1275,49.4386,-3.4551
777,-251,31.5731,4.33252,0,0,0,0,0,0,0,-1,2001,1275,31.5731,-4.33251
784,-251,32.0776,5.78247,0,0,0,0,0,0,0,-1,2008,1275,32.0776,-5.78247
791,-251,0,0,0,0,0,0,0,0,0,-1,2015,1275,0,0
798,-251,0,0,0,0,0,0,0,0,0,-1,2022,1275,0,0
805,-251,0,0,0,0,0,0,0,0,0,-1,2029,1275,0,0
812,-251,0,0,0,0,0,0,0,0,0,-1,2036,1275,0,0
-700,-258,0,0,0,0,0,0,0,0,0,-1,524,1282,0,0
-693,-258,0,0,0,0,0,0,0,0,0,-1,531,1282,0,0
-686,-258,0,0,0,0,0,0,0,0,0,-1,538,1282,0,0
-679,-258,0,0,0,0,0,0,0,0,0,-1,545,1282,0,0
-672,-258,0,0,0,0,0,0,0,0,0,-1,552,1282,0,0
-665,-258,-76.3329,25.1647,0,0,0,0,0,0,0,-1,559,1282,-76.3329,-25.1646
-658,-258,-76.3535,27.1967,0,0,0,0,0,0,0,-1,566,1282,-76.3535,-27.1966
-651,-258,-45.5418,0.0863037,0,0,0,0,0,0,0,-1,573,1282,-45.5418,-0.0863288
-644,-258,-62.455,9.17346,0,0,0,0,0,0,0,-1,580,1282,-62.455,-9.17347
-637,-258,-49.9528,9.28394,0,0,0,0,0,0,0,-1,587,1282,-49.9528,-9.28393
-630,-258,-69.9883,14.4841,0,0,0,0,0,0,0,-1,594,1282,-69.9883,-14.4841
-623,-258,-96.8689,21.0114,0,0,0,0,0,0,0,-1,601,1282,-96.8689,-21.0114
-616,-258,-204.362,26.4948,0,0,0,0,0,0,0,-1,608,1282,-204.362,-26.4948
-609,-258,-203.344,27.6335,-0.0161898,0.0566392,-0.0243234,0.0640156,-0.0235662,-1.27635,0.0523321,0.0286925,615,1282,-203.344,-27.6336
-602,-258,-203.517,29.2758,-0.0131834,0.0521332,-0.0219663,0.0588333,-0.0198834,-1.27474,0.0472653,0.0217991,622,1282,-203.517,-29.2757
-595,-258,-203.751,30.9142,-0.00956149,0.0471456,-0.0186475,0.052728,-0.0151439,-1.27992,0.0411398,0.0210362,629,1282,-203.751,-30.9142
-588,-258,-204.028,32.5288,-0.00533421,0.0416646,-0.0143743,0.0457123,-0.00938189,-1.29631,0.0340359,0.0232498,636,1282,-204.028,-32.5288
-581,-258,-204.251,34.199,0,0,0,0,0,0,0,-1,643,1282,-204.252,-34.199
-574,-258,-204.758,35.7001,0.00481523,0.0291159,-0.00315047,0.0295177,0.00441343,-1.44394,0.0183848,0.0401257,650,1282,-204.758,-35.7001
-567,-258,-204.948,38.053,0.0107322,0.0219403,0.00360121,0.0229976,0.0096749,1.28521,0.0133333,0.03872,657,1282,-204.948,-38.053
-560,-258,-205.01,40.0448,0,0,0,0,0,0,0,-1,664,1282,-205.01,-40.0448
-553,-258,-32.5081,11.6642,0,0,0,0,0,0,0,-1,671,1282,-32.5081,-11.6641
-546,-258,-14.2231,5.92029,0,0,0,0,0,0,0,-1,678,1282,-14.2231,-5.92028
-539,-258,-10.2228,4.05823,0,0,0,0,0,0,0,-1,685,1282,-10.2228,-4.05823
-532,-258,-10.2173,-0.353882,0,0,0,0,0,0,0,-1,692,1282,-10.2173,0.353836
-525,-258,-21.8661,-1.5929,0,0,0,0,0,0,0,-1,699,1282,-21.8661,1.59285
-518,-258,-29.2484,0.123169,0,0,0,0,0,0,0,-1,706,1282,-29.2484,-0.123186
-511,-258,-23.5061,1.16833,0,0,0,0,0,0,0,-1,713,1282,-23.5061,-1.16833
-504,-258,-22.9178,0.484131,0,0,0,0,0,0,0,-1,720,1282,-22.9178,-0.484106
-497,-258,-17.8047,0.730469,0,0,0,0,0,0,0,-1,727,1282,-17.8048,-0.730489
-490,-258,-15.4346,0.632935,0,0,0,0,0,0,0,-1,734,1282,-15.4346,-0.632917
-483,-258,0,0,0,0,0,0,0,0,0,-1,741,1282,0,0
-476,-258,0,0,0,0,0,0,0,0,0,-1,748,1282,0,0
-469,-258,0,0,0,0,0,0,0,0,0,-1,755,1282,0,0
-462,-258,0,0,0,0,0,0,0,0,0,-1,762,1282,0,0
-455,-258,0,0,0,0,0,0,0,0,0,-1,769,1282,0,0
-448,-258,0,0,0,0,0,0,0,0,0,-1,776,1282,0,0
-441,-258,0,0,0,0,0,0,0,0,0,-1,783,1282,0,0
-434,-258,0,0,0,0,0,0,0,0,0,-1,790,1282,0,0
-427,-258,0,0,0,0,0,0,0,0,0,-1,797,1282,0,0
-420,-258,0,0,0,0,0,0,0,0,0,-1,804,1282,0,0
-413,-258,0,0,0,0,0,0,0,0,0,-1,811,1282,0,0
-406,-258,0,0,0,0,0,0,0,0,0,-1,818,1282,0,0
-399,-258,0,0,0,0,0,0,0,0,0,-1,825,1282,0,0
-392,-258,0,0,0,0,0,0,0,0,0,-1,832,1282,0,0
-385,-258,0,0,0,0,0,0,0,0,0,-1,839,1282,0,0
-378,-258,0,0,0,0,0,0,0,0,0,-1,846,1282,0,0
-371,-258,0,0,0,0,0,0,0,0,0,-1,853,1282,0,0
-364,-258,0,0,0,0,0,0,0,0,0,-1,860,1282,0,0
-357,-258,0,0,0,0,0,0,0,0,0,-1,867,1282,0,0
-350,-258,0,0,0,0,0,0,0,0,0,-1,874,1282,0,0
-343,-258,0,0,0,0,0,0,0,0,0,-1,881,1282,0,0
-336,-258,0,0,0,0,0,0,0,0,0,-1,888,1282,0,0
-329,-258,0,0,0,0,0,0,0,0,0,-1,895,1282,0,0
-322,-258,0,0,0,0,0,0,0,0,0,-1,902,1282,0,0
-315,-258,0,0,0,0,0,0,0,0,0,-1,909,1282,0,0
-308,-258,0,0,0,0,0,0,0,0,0,-1,916,1282,0,0
-301,-258,0,0,0,0,0,0,0,0,0,-1,923,1282,0,0
-294,-258,0,0,0,0,0,0,0,0,0,-1,930,1282,0,0
-287,-258,0,0,0,0,0,0,0,0,0,-1,937,1282,0,0
-280,-258,0,0,0,0,0,0,0,0,0,-1,944,1282,0,0
-273,-258,0,0,0,0,0,0,0,0,0,-1,951,1282,0,0
-266,-258,0,0,0,0,0,0,0,0,0,-1,958,1282,0,0
-259,-258,0,0,0,0,0,0,0,0,0,-1,965,1282,0,0
-252,-258,0,0,0,0,0,0,0,0,0,-1,972,1282,0,0
-245,-258,0,0,0,0,0,0,0,0,0,-1,979,1282,0,0
-238,-258,0,0,0,0,0,0,0,0,0,-1,986,1282,0,0
-231,-258,0,0,0,0,0,0,0,0,0,-1,993,1282,0,0
-224,-258,0,0,0,0,0,0,0,0,0,-1,1000,1282,0,0
-217,-258,0,0,0,0,0,0,0,0,0,-1,1007,1282,0,0
-210,-258,0,0,0,0,0,0,0,0,0,-1,1014,1282,0,0
-203,-258,0,0,0,0,0,0,0,0,0,-1,1021,1282,0,0
-196,-258,0,0,0,0,0,0,0,0,0,-1,1028,1282,0,0
-189,-258,0,0,0,0,0,0,0,0,0,-1,1035,1282,0,0
-182,-258,0,0,0,0,0,0,0,0,0,-1,1042,1282,0,0
-175,-258,0,0,0,0,0,0,0,0,0,-1,1049,1282,0,0
-168,-258,0,0,0,0,0,0,0,0,0,-1,1056,1282,0,0
-161,-258,0,0,0,0,0,0,0,0,0,-1,1063,1282,0,0
-154,-258,0,0,0,0,0,0,0,0,0,-1,1070,1282,0,0
-147,-258,0,0,0,0,0,0,0,0,0,-1,1077,1282,0,0
-140,-258,0,0,0,0,0,0,0,0,0,-1,1084,1282,0,0
-133,-258,0,0,0,0,0,0,0,0,0,-1,1091,1282,0,0
-126,-258,0,0,0,0,0,0,0,0,0,-1,1098,1282,0,0
-119,-258,0,0,0,0,0,0,0,0,0,-1,1105,1282,0,0
-112,-258,0,0,0,0,0,0,0,0,0,-1,1112,1282,0,0
-105,-258,0,0,0,0,0,0,0,0,0,-1,1119,1282,0,0
-98,-258,0,0,0,0,0,0,0,0,0,-1,1126,1282,0,0
-91,-258,0,0,0,0,0,0,0,0,0,-1,1133,1282,0,0
-84,-258,0,0,0,0,0,0,0,0,0,-1,1140,1282,0,0
-77,-258,0,0,0,0,0,0,0,0,0,-1,1147,1282,0,0
-70,-258,0,0,0,0,0,0,0,0,0,-1,1154,1282,0,0
-63,-258,0,0,0,0,0,0,0,0,0,-1,1161,1282,0,0
-56,-258,0,0,0,0,0,0,0,0,0,-1,1168,1282,0,0
-49,-258,0,0,0,0,0,0,0,0,0,-1,1175,1282,0,0
-42,-258,0,0,0,0,0,0,0,0,0,-1,1182,1282,0,0
-35,-258,0,0,0,0,0,0,0,0,0,-1,1189,1282,0,0
-28,-258,0,0,0,0,0,0,0,0,0,-1,1196,1282,0,0
-21,-258,0,0,0,0,0,0,0,0,0,-1,1203,1282,0,0
-14,-258,0,0,0,0,0,0,0,0,0,-1,1210,1282,0,0
-7,-258,0,0,0,0,0,0,0,0,0,-1,1217,1282,0,0
0,-258,0,0,0,0,0,0,0,0,0,-1,1224,1282,0,0
7,-258,0,0,0,0,0,0,0,0,0,-1,1231,1282,0,0
14,-258,0,0,0,0,0,0,0,0,0,-1,1238,1282,0,0
21,-258,0,0,0,0,0,0,0,0,0,-1,1245,1282,0,0
28,-258,0,0,0,0,0,0,0,0,0,-1,1252,1282,0,0
35,-258,0,0,0,0,0,0,0,0,0,-1,1259,1282,0,0
42,-258,0,0,0,0,0,0,0,0,0,-1,1266,1282,0,0
49,-258,0,0,0,0,0,0,0,0,0,-1,1273,1282,0,0
56,-258,0,0,0,0,0,0,0,0,0,-1,1280,1282,0,0
63,-258,0,0,0,0,0,0,0,0,0,-1,1287,1282,0,0
70,-258,0,0,0,0,0,0,0,0,0,-1,1294,1282,0,0
77,-258,0,0,0,0,0,0,0,0,0,-1,1301,1282,0,0
84,-258,0,0,0,0,0,0,0,0,0,-1,1308,1282,0,0
91,-258,0,0,0,0,0,0,0,0,0,-1,1315,1282,0,0
98,-258,0,0,0,0,0,0,0,0,0,-1,1322,1282,0,0
105,-258,0,0,0,0,0,0,0,0,0,-1,1329,1282,0,0
112,-258,0,0,0,0,0,0,0,0,0,-1,1336,1282,0,0
119,-258,0,0,0,0,0,0,0,0,0,-1,1343,1282,0,0
126,-258,0,0,0,0,0,0,0,0,0,-1,1350,1282,0,0
133,-258,0,0,0,0,0,0,0,0,0,-1,1357,1282,0,0
140,-258,0,0,0,0,0,0,0,0,0,-1,1364,1282,0,0
147,-258,0,0,0,0,0,0,0,0,0,-1,1371,1282,0,0
154,-258,0,0,0,0,0,0,0,0,0,-1,1378,1282,0,0
161,-258,0,0,0,0,0,0,0,0,0,-1,1385,1282,0,0
168,-258,0,0,0,0,0,0,0,0,0,-1,1392,1282,0,0
175,-258,0,0,0,0,0,0,0,0,0,-1,1399,1282,0,0
182,-258,0,0,0,0,0,0,0,0,0,-1,1406,1282,0,0
189,-258,0,0,0,0,0,0,0,0,0,-1,1413,1282,0,0
196,-258,0,0,0,0,0,0,0,0,0,-1,1420,1282,0,0
203,-258,0,0,0,0,0,0,0,0,0,-1,1427,1282,0,0
210,-258,0,0,0,0,0,0,0,0,0,-1,1434,1282,0,0
217,-258,0,0,0,0,0,0,0,0,0,-1,1441,1282,0,0
224,-258,0,0,0,0,0,0,0,0,0,-1,1448,1282,0,0
231,-258,0,0,0,0,0,0,0,0,0,-1,1455,1282,0,0
238,-258,0,0,0,0,0,0,0,0,0,-1,1462,1282,0,0
245,-258,0,0,0,0,0,0,0,0,0,-1,1469,1282,0,0
252,-258,0,0,0,0,0,0,0,0,0,-1,1476,1282,0,0
259,-258,0,0,0,0,0,0,0,0,0,-1,1483,1282,0,0
266,-258,0,0,0,0,0,0,0,0,0,-1,1490,1282,0,0
273,-258,0,0,0,0,0,0,0,0,0,-1,1497,1282,0,0
280,-258,0,0,0,0,0,0,0,0,0,-1,1504,1282,0,0
287,-258,0,0,0,0,0,0,0,0,0,-1,1511,1282,0,0
294,-258,0,0,0,0,0,0,0,0,0,-1,1518,1282,0,0
301,-258,0,0,0,0,0,0,0,0,0,-1,1525,1282,0,0
308,-258,0,0,0,0,0,0,0,0,0,-1,1532,1282,0,0
315,-258,0,0,0,0,0,0,0,0,0,-1,1539,1282,0,0
322,-258,0,0,0,0,0,0,0,0,0,-1,1546,1282,0,0
329,-258,0,0,0,0,0,0,0,0,0,-1,1553,1282,0,0
336,-258,0,0,0,0,0,0,0,0,0,-1,1560,1282,0,0
343,-258,0,0,0,0,0,0,0,0,0,-1,1567,1282,0,0
350,-258,0,0,0,0,0,0,0,0,0,-1,1574,1282,0,0
357,-258,0,0,0,0,0,0,0,0,0,-1,1581,1282,0,0
364,-258,0,0,0,0,0,0,0,0,0,-1,1588,1282,0,0
371,-258,0,0,0,0,0,0,0,0,0,-1,1595,1282,0,0
378,-258,0,0,0,0,0,0,0,0,0,-1,1602,1282,0,0
385,-258,0,0,0,0,0,0,0,0,0,-1,1609,1282,0,0
392,-258,0,0,0,0,0,0,0,0,0,-1,1616,1282,0,0
399,-258,0,0,0,0,0,0,0,0,0,-1,1623,1282,0,0
406,-258,0,0,0,0,0,0,0,0,0,-1,1630,1282,0,0
413,-258,0,0,0,0,0,0,0,0,0,-1,1637,1282,0,0
420,-258,0,0,0,0,0,0,0,0,0,-1,1644,1282,0,0
427,-258,0,0,0,0,0,0,0,0,0,-1,1651,1282,0,0
434,-258,0,0,0,0,0,0,0,0,0,-1,1658,1282,0,0
441,-258,0,0,0,0,0,0,0,0,0,-1,1665,1282,0,0
448,-258,0,0,0,0,0,0,0,0,0,-1,1672,1282,0,0
455,-258,0,0,0,0,0,0,0,0,0,-1,1679,1282,0,0
462,-258,0,0,0,0,0,0,0,0,0,-1,1686,1282,0,0
469,-258,0,0,0,0,0,0,0,0,0,-1,1693,1282,0,0
476,-258,0,0,0,0,0,0,0,0,0,-1,1700,1282,0,0
483,-258,0,0,0,0,0,0,0,0,0,-1,1707,1282,0,0
490,-258,0,0,0,0,0,0,0,0,0,-1,1714,1282,0,0
497,-258,0,0,0,0,0,0,0,0,0,-1,1721,1282,0,0
504,-258,0,0,0,0,0,0,0,0,0,-1,1728,1282,0,0
511,-258,0,0,0,0,0,0,0,0,0,-1,1735,1282,0,0
518,-258,0,0,0,0,0,0,0,0,0,-1,1742,1282,0,0
525,-258,0,0,0,0,0,0,0,0,0,-1,1749,1282,0,0
532,-258,0,0,0,0,0,0,0,0,0,-1,1756,1282,0,0
539,-258,0,0,0,0,0,0,0,0,0,-1,1763,1282,0,0
546,-258,0,0,0,0,0,0,0,0,0,-1,1770,1282,0,0
553,-258,0,0,0,0,0,0,0,0,0,-1,1777,1282,0,0
560,-258,0,0,0,0,0,0,0,0,0,-1,1784,1282,0,0
567,-258,0,0,0,0,0,0,0,0,0,-1,1791,1282,0,0
574,-258,0,0,0,0,0,0,0,0,0,-1,1798,1282,0,0
581,-258,0,0,0,0,0,0,0,0,0,-1,1805,1282,0,0
588,-258,0,0,0,0,0,0,0,0,0,-1,1812,1282,0,0
595,-258,0,0,0,0,0,0,0,0,0,-1,1819,1282,0,0
602,-258,0,0,0,0,0,0,0,0,0,-1,1826,1282,0,0
609,-258,235.03,8.89709,0,0,0,0,0,0,0,-1,1833,1282,235.03,-8.89711
616,-258,235.001,8.78503,0,0,0,0,0,0,0,-1,1840,1282,235.001,-8.78506
623,-258,234.873,8.6438,0,0,0,0,0,0,0,-1,1847,1282,234.873,-8.64377
630,-258,123.931,3.52234,0,0,0,0,0,0,0,-1,1854,1282,123.931,-3.52233
637,-258,104.7,2.59534,0,0,0,0,0,0,0,-1,1861,1282,104.7,-2.59538
644,-258,88.6257,1.45276,0,0,0,0,0,0,0,-1,1868,1282,88.6257,-1.45271
651,-258,77.8041,3.65466,0,0,0,0,0,0,0,-1,1875,1282,77.8041,-3.65469
658,-258,45.4424,3.1405,0,0,0,0,0,0,0,-1,1882,1282,45.4423,-3.14046
665,-258,35.4747,1.1864,0,0,0,0,0,0,0,-1,1889,1282,35.4747,-1.18637
672,-258,22.703,2.80957,0,0,0,0,0,0,0,-1,1896,1282,22.703,-2.80962
679,-258,26.8693,8.19543,0,0,0,0,0,0,0,-1,1903,1282,26.8692,-8.19548
686,-258,177.352,44.9663,0,0,0,0,0,0,0,-1,1910,1282,177.351,-44.9663
693,-258,211.668,41.9834,0,0,0,0,0,0,0,-1,1917,1282,211.669,-41.9834
700,-258,211.25,40.2427,0,0,0,0,0,0,0,-1,1924,1282,211.25,-40.2427
707,-258,211.053,38.3049,0.000499769,0.0250024,0.00438,0.0257618,-0.000259648,1.39912,0.0172618,0.0389705,1931,1282,211.053,-38.305
714,-258,210.711,36.3372,-0.00486211,0.0284107,0.00963988,0.0310018,-0.00745321,1.30821,0.0235488,0.0302724,1938,1282,210.711,-36.3371
721,-258,210.46,34.5939,-0.0107221,0.032027,0.0155084,0.0370604,-0.0157556,1.25696,0.0313093,0.0438888,1945,1282,210.46,-34.5939
728,-258,210.089,32.9794,0,0,0,0,0,0,0,-1,1952,1282,210.089,-32.9794
735,-258,209.761,31.3326,-0.023886,0.0396655,0.0288316,0.0507961,-0.0350166,1.20237,0.0498224,0.0289886,1959,1282,209.761,-31.3327
742,-258,209.381,29.7877,-0.0311819,0.0437521,0.0362779,0.0584374,-0.0458671,1.18616,0.0603658,0.0307302,1966,1282,209.381,-29.7877
749,-258,208.807,28.4286,0,0,0,0,0,0,0,-1,1973,1282,208.807,-28.4286
756,-258,146.302,29.0245,0,0,0,0,0,0,0,-1,1980,1282,146.302,-29.0245
763,-258,39.3638,5.09753,0,0,0,0,0,0,0,-1,1987,1282,39.3638,-5.09751
770,-258,40.3713,4.08325,0,0,0,0,0,0,0,-1,1994,1282,40.3713,-4.08323
777,-258,31.912,4.83093,0,0,0,0,0,0,0,-1,2001,1282,31.912,-4.8309
784,-258,32.6525,6.43091,0,0,0,0,0,0,0,-1,2008,1282,32.6525,-6.43091
791,-258,0,0,0,0,0,0,0,0,0,-1,2015,1282,0,0
798,-258,0,0,0,0,0,0,0,0,0,-1,2022,1282,0,0
805,-258,0,0,0,0,0,0,0,0,0,-1,2029,1282,0,0
812,-258,0,0,0,0,0,0,0,0,0,-1,2036,1282,0,0
-700,-265,0,0,0,0,0,0,0,0,0,-1,524,1289,0,0
-693,-265,0,0,0,0,0,0,0,0,0,-1,531,1289,0,0
-686,-265,0,0,0,0,0,0,0,0,0,-1,538,1289,0,0
-679,-265,0,0,0,0,0,0,0,0,0,-1,545,1289,0,0
-672,-265,0,0,0,0,0,0,0,0,0,-1,552,1289,0,0
-665,-265,-76.8365,26.342,0,0,0,0,0,0,0,-1,559,1289,-76.8365,-26.342
-658,-265,-65.901,0.884277,0,0,0,0,0,0,0,-1,566,1289,-65.901,-0.884263
-651,-265,-44.821,1.0614,0,0,0,0,0,0,0,-1,573,1289,-44.821,-1.06141
-644,-265,-44.4684,0.304932,0,0,0,0,0,0,0,-1,580,1289,-44.4684,-0.304991
-637,-265,-44.6157,0.250122,0,0,0,0,0,0,0,-1,587,1289,-44.6157,-0.250067
-630,-265,-44.5689,0.900269,0,0,0,0,0,0,0,-1,594,1289,-44.5689,-0.900302
-623,-265,-68.8688,15.7357,0,0,0,0,0,0,0,-1,601,1289,-68.8688,-15.7357
-616,-265,-200.841,25.3331,0,0,0,0,0,0,0,-1,608,1289,-200.841,-25.3331
-609,-265,-200.967,27.4088,-0.0159512,0.0583734,-0.0256283,0.0663536,-0.0239314,-1.26893,0.0540101,0.0371399,615,1289,-200.967,-27.4089
-602,-265,-201.392,29.3184,-0.01318,0.0538739,-0.0236352,0.0613675,-0.0206735,-1.26377,0.0492704,0.0245081,622,1289,-201.392,-29.3184
-595,-265,-201.691,30.9609,-0.0096774,0.0489666,-0.0206638,0.0555163,-0.016227,-1.26385,0.0434421,0.0224385,629,1289,-201.691,-30.9609
-588,-265,-201.956,32.5444,-0.0054762,0.0436461,-0.0167431,0.0488101,-0.0106402,-1.27163,0.0366059,0.0217129,636,1289,-201.956,-32.5445
-581,-265,-202.166,34.1063,0,0,0,0,0,0,0,-1,643,1289,-202.166,-34.1063
-574,-265,-202.908,35.4443,0,0,0,0,0,0,0,-1,650,1289,-202.908,-35.4444
-567,-265,-202.94,38.0947,0,0,0,0,0,0,0,-1,657,1289,-202.94,-38.0947
-560,-265,-203.275,40.4258,0,0,0,0,0,0,0,-1,664,1289,-203.275,-40.4258
-553,-265,-68.6046,28.845,0,0,0,0,0,0,0,-1,671,1289,-68.6046,-28.8449
-546,-265,-24.2283,10.2581,0,0,0,0,0,0,0,-1,678,1289,-24.2283,-10.258
-539,-265,-13.7668,6.39917,0,0,0,0,0,0,0,-1,685,1289,-13.7668,-6.39915
-532,-265,-8.53998,3.41467,0,0,0,0,0,0,0,-1,692,1289,-8.53996,-3.41473
-525,-265,-12.1317,0.514648,0,0,0,0,0,0,0,-1,699,1289,-12.1317,-0.514634
-518,-265,-24.1604,0.712402,0,0,0,0,0,0,0,-1,706,1289,-24.1604,-0.712425
-511,-265,-23.233,0.791626,0,0,0,0,0,0,0,-1,713,1289,-23.233,-0.791617
-504,-265,-22.3056,0.87085,0,0,0,0,0,0,0,-1,720,1289,-22.3056,-0.87081
-497,-265,-18.689,-0.278442,0,0,0,0,0,0,0,-1,727,1289,-18.689,0.278423
-490,-265,-15.1696,0.492676,0,0,0,0,0,0,0,-1,734,1289,-15.1696,-0.492688
-483,-265,0,0,0,0,0,0,0,0,0,-1,741,1289,0,0
-476,-265,0,0,0,0,0,0,0,0,0,-1,748,1289,0,0
-469,-265,0,0,0,0,0,0,0,0,0,-1,755,1289,0,0
-462,-265,0,0,0,0,0,0,0,0,0,-1,762,1289,0,0
-455,-265,0,0,0,0,0,0,0,0,0,-1,769,1289,0,0
-448,-265,0,0,0,0,0,0,0,0,0,-1,776,1289,0,0
-441,-265,0,0,0,0,0,0,0,0,0,-1,783,1289,0,0
-434,-265,0,0,0,0,0,0,0,0,0,-1,790,1289,0,0
-427,-265,0,0,0,0,0,0,0,0,0,-1,797,1289,0,0
-420,-265,0,0,0,0,0,0,0,0,0,-1,804,1289,0,0
-413,-265,0,0,0,0,0,0,0,0,0,-1,811,1289,0,0
-406,-265,0,0,0,0,0,0,0,0,0,-1,818,1289,0,0
-399,-265,0,0,0,0,0,0,0,0,0,-1,825,1289,0,0
-392,-265,0,0,0,0,0,0,0,0,0,-1,832,1289,0,0
-385,-265,0,0,0,0,0,0,0,0,0,-1,839,1289,0,0
-378,-265,0,0,0,0,0,0,0,0,0,-1,846,1289,0,0
-371,-265,0,0,0,0,0,0,0,0,0,-1,853,1289,0,0
-364,-265,0,0,0,0,0,0,0,0,0,-1,860,1289,0,0
-357,-265,0,0,0,0,0,0,0,0,0,-1,867,1289,0,0
-350,-265,0,0,0,0,0,0,0,0,0,-1,874,1289,0,0
-343,-265,0,0,0,0,0,0,0,0,0,-1,881,1289,0,0
-336,-265,0,0,0,0,0,0,0,0,0,-1,888,1289,0,0
-329,-265,0,0,0,0,0,0,0,0,0,-1,895,1289,0,0
-322,-265,0,0,0,0,0,0,0,0,0,-1,902,1289,0,0
-315,-265,0,0,0,0,0,0,0,0,0,-1,909,1289,0,0
-308,-265,0,0,0,0,0,0,0,0,0,-1,916,1289,0,0
-301,-265,0,0,0,0,0,0,0,0,0,-1,923,1289,0,0
-294,-265,0,0,0,0,0,0,0,0,0,-1,930,1289,0,0
-287,-265,0,0,0,0,0,0,0,0,0,-1,937,1289,0,0
-280,-265,0,0,0,0,0,0,0,0,0,-1,944,1289,0,0
-273,-265,0,0,0,0,0,0,0,0,0,-1,951,1289,0,0
-266,-265,0,0,0,0,0,0,0,0,0,-1,958,1289,0,0
-259,-265,0,0,0,0,0,0,0,0,0,-1,965,1289,0,0
-252,-265,0,0,0,0,0,0,0,0,0,-1,972,1289,0,0
-245,-265,0,0,0,0,0,0,0,0,0,-1,979,1289,0,0
-238,-265,0,0,0,0,0,0,0,0,0,-1,986,1289,0,0
-231,-265,0,0,0,0,0,0,0,0,0,-1,993,1289,0,0
-224,-265,0,0,0,0,0,0,0,0,0,-1,1000,1289,0,0
-217,-265,0,0,0,0,0,0,0,0,0,-1,1007,1289,0,0
-210,-265,0,0,0,0,0,0,0,0,0,-1,1014,1289,0,0
-203,-265,0,0,0,0,0,0,0,0,0,-1,1021,1289,0,0
-196,-265,0,0,0,0,0,0,0,0,0,-1,1028,1289,0,0
-189,-265,0,0,0,0,0,0,0,0,0,-1,1035,1289,0,0
-182,-265,0,0,0,0,0,0,0,0,0,-1,1042,1289,0,0
-175,-265,0,0,0,0,0,0,0,0,0,-1,1049,1289,0,0
-168,-265,0,0,0,0,0,0,0,0,0,-1,1056,1289,0,0
-161,-265,0,0,0,0,0,0,0,0,0,-1,1063,1289,0,0
-154,-265,0,0,0,0,0,0,0,0,0,-1,1070,1289,0,0
-147,-265,0,0,0,0,0,0,0,0,0,-1,1077,1289,0,0
-140,-265,0,0,0,0,0,0,0,0,0,-1,1084,1289,0,0
-133,-265,0,0,0,0,0,0,0,0,0,-1,1091,1289,0,0
-126,-265,0,0,0,0,0,0,0,0,0,-1,1098,1289,0,0
-119,-265,0,0,0,0,0,0,0,0,0,-1,1105,1289,0,0
-112,-265,0,0,0,0,0,0,0,0,0,-1,1112,1289,0,0
-105,-265,0,0,0,0,0,0,0,0,0,-1,1119,1289,0,0
-98,-265,0,0,0,0,0,0,0,0,0,-1,1126,1289,0,0
-91,-265,0,0,0,0,0,0,0,0,0,-1,1133,1289,0,0
-84,-265,0,0,0,0,0,0,0,0,0,-1,1140,1289,0,0
-77,-265,0,0,0,0,0,0,0,0,0,-1,1147,1289,0,0
-70,-265,0,0,0,0,0,0,0,0,0,-1,1154,1289,0,0
-63,-265,0,0,0,0,0,0,0,0,0,-1,1161,1289,0,0
-56,-265,0,0,0,0,0,0,0,0,0,-1,1168,1289,0,0
-49,-265,0,0,0,0,0,0,0,0,0,-1,1175,1289,0,0
-42,-265,0,0,0,0,0,0,0,0,0,-1,1182,1289,0,0
-35,-265,0,0,0,0,0,0,0,0,0,-1,1189,1289,0,0
-28,-265,0,0,0,0,0,0,0,0,0,-1,1196,1289,0,0
-21,-265,0,0,0,0,0,0,0,0,0,-1,1203,1289,0,0
-14,-265,0,0,0,0,0,0,0,0,0,-1,1210,1289,0,0
-7,-265,0,0,0,0,0,0,0,0,0,-1,1217,1289,0,0
0,-265,0,0,0,0,0,0,0,0,0,-1,1224,1289,0,0
7,-265,0,0,0,0,0,0,0,0,0,-1,1231,1289,0,0
14,-265,0,0,0,0,0,0,0,0,0,-1,1238,1289,0,0
21,-265,0,0,0,0,0,0,0,0,0,-1,1245,1289,0,0
28,-265,0,0,0,0,0,0,0,0,0,-1,1252,1289,0,0
35,-265,0,0,0,0,0,0,0,0,0,-1,1259,1289,0,0
42,-265,0,0,0,0,0,0,0,0,0,-1,1266,1289,0,0
49,-265,0,0,0,0,0,0,0,0,0,-1,1273,1289,0,0
56,-265,0,0,0,0,0,0,0,0,0,-1,1280,1289,0,0
63,-265,0,0,0,0,0,0,0,0,0,-1,1287,1289,0,0
70,-265,0,0,0,0,0,0,0,0,0,-1,1294,1289,0,0
77,-265,0,0,0,0,0,0,0,0,0,-1,1301,1289,0,0
84,-265,0,0,0,0,0,0,0,0,0,-1,1308,1289,0,0
91,-265,0,0,0,0,0,0,0,0,0,-1,1315,1289,0,0
98,-265,0,0,0,0,0,0,0,0,0,-1,1322,1289,0,0
105,-265,0,0,0,0,0,0,0,0,0,-1,1329,1289,0,0
112,-265,0,0,0,0,0,0,0,0,0,-1,1336,1289,0,0
119,-265,0,0,0,0,0,0,0,0,0,-1,1343,1289,0,0
126,-265,0,0,0,0,0,0,0,0,0,-1,1350,1289,0,0
133,-265,0,0,0,0,0,0,0,0,0,-1,1357,1289,0,0
140,-265,0,0,0,0,0,0,0,0,0,-1,1364,1289,0,0
147,-265,0,0,0,0,0,0,0,0,0,-1,1371,1289,0,0
154,-265,0,0,0,0,0,0,0,0,0,-1,1378,1289,0,0
161,-265,0,0,0,0,0,0,0,0,0,-1,1385,1289,0,0
168,-265,0,0,0,0,0,0,0,0,0,-1,1392,1289,0,0
175,-265,0,0,0,0,0,0,0,0,0,-1,1399,1289,0,0
182,-265,0,0,0,0,0,0,0,0,0,-1,1406,1289,0,0
189,-265,0,0,0,0,0,0,0,0,0,-1,1413,1289,0,0
196,-265,0,0,0,0,0,0,0,0,0,-1,1420,1289,0,0
203,-265,0,0,0,0,0,0,0,0,0,-1,1427,1289,0,0
210,-265,0,0,0,0,0,0,0,0,0,-1,1434,1289,0,0
217,-265,0,0,0,0,0,0,0,0,0,-1,1441,1289,0,0
224,-265,0,0,0,0,0,0,0,0,0,-1,1448,1289,0,0
231,-265,0,0,0,0,0,0,0,0,0,-1,1455,1289,0,0
238,-265,0,0,0,0,0,0,0,0,0,-1,1462,1289,0,0
245,-265,0,0,0,0,0,0,0,0,0,-1,1469,1289,0,0
252,-265,0,0,0,0,0,0,0,0,0,-1,1476,1289,0,0
259,-265,0,0,0,0,0,0,0,0,0,-1,1483,1289,0,0
266,-265,0,0,0,0,0,0,0,0,0,-1,1490,1289,0,0
273,-265,0,0,0,0,0,0,0,0,0,-1,1497,1289,0,0
280,-265,0,0,0,0,0,0,0,0,0,-1,1504,1289,0,0
287,-265,0,0,0,0,0,0,0,0,0,-1,1511,1289,0,0
294,-265,0,0,0,0,0,0,0,0,0,-1,1518,1289,0,0
301,-265,0,0,0,0,0,0,0,0,0,-1,1525,1289,0,0
308,-265,0,0,0,0,0,0,0,0,0,-1,1532,1289,0,0
315,-265,0,0,0,0,0,0,0,0,0,-1,1539,1289,0,0
322,-265,0,0,0,0,0,0,0,0,0,-1,1546,1289,0,0
329,-265,0,0,0,0,0,0,0,0,0,-1,1553,1289,0,0
336,-265,0,0,0,0,0,0,0,0,0,-1,1560,1289,0,0
343,-265,0,0,0,0,0,0,0,0,0,-1,1567,1289,0,0
350,-265,0,0,0,0,0,0,0,0,0,-1,1574,1289,0,0
357,-265,0,0,0,0,0,0,0,0,0,-1,1581,1289,0,0
364,-265,0,0,0,0,0,0,0,0,0,-1,1588,1289,0,0
371,-265,0,0,0,0,0,0,0,0,0,-1,1595,1289,0,0
378,-265,0,0,0,0,0,0,0,0,0,-1,1602,1289,0,0
385,-265,0,0,0,0,0,0,0,0,0,-1,1609,1289,0,0
392,-265,0,0,0,0,0,0,0,0,0,-1,1616,1289,0,0
399,-265,0,0,0,0,0,0,0,0,0,-1,1623,1289,0,0
406,-265,0,0,0,0,0,0,0,0,0,-1,1630,1289,0,0
413,-265,0,0,0,0,0,0,0,0,0,-1,1637,1289,0,0
420,-265,0,0,0,0,0,0,0,0,0,-1,1644,1289,0,0
427,-265,0,0,0,0,0,0,0,0,0,-1,1651,1289,0,0
434,-265,0,0,0,0,0,0,0,0,0,-1,1658,1289,0,0
441,-265,0,0,0,0,0,0,0,0,0,-1,1665,1289,0,0
448,-265,0,0,0,0,0,0,0,0,0,-1,1672,1289,0,0
455,-265,0,0,0,0,0,0,0,0,0,-1,1679,1289,0,0
462,-265,0,0,0,0,0,0,0,0,0,-1,1686,1289,0,0
469,-265,0,0,0,0,0,0,0,0,0,-1,1693,1289,0,0
476,-265,0,0,0,0,0,0,0,0,0,-1,1700,1289,0,0
483,-265,0,0,0,0,0,0,0,0,0,-1,1707,1289,0,0
490,-265,0,0,0,0,0,0,0,0,0,-1,1714,1289,0,0
497,-265,0,0,0,0,0,0,0,0,0,-1,1721,1289,0,0
504,-265,0,0,0,0,0,0,0,0,0,-1,1728,1289,0,0
511,-265,0,0,0,0,0,0,0,0,0,-1,1735,1289,0,0
518,-265,0,0,0,0,0,0,0,0,0,-1,1742,1289,0,0
525,-265,0,0,0,0,0,0,0,0,0,-1,1749,1289,0,0
532,-265,0,0,0,0,0,0,0,0,0,-1,1756,1289,0,0
539,-265,0,0,0,0,0,0,0,0,0,-1,1763,1289,0,0
546,-265,0,0,0,0,0,0,0,0,0,-1,1770,1289,0,0
553,-265,0,0,0,0,0,0,0,0,0,-1,1777,1289,0,0
560,-265,0,0,0,0,0,0,0,0,0,-1,1784,1289,0,0
567,-265,0,0,0,0,0,0,0,0,0,-1,1791,1289,0,0
574,-265,0,0,0,0,0,0,0,0,0,-1,1798,1289,0,0
581,-265,0,0,0,0,0,0,0,0,0,-1,1805,1289,0,0
588,-265,0,0,0,0,0,0,0,0,0,-1,1812,1289,0,0
595,-265,0,0,0,0,0,0,0,0,0,-1,1819,1289,0,0
602,-265,235.005,8.94385,0,0,0,0,0,0,0,-1,1826,1289,235.005,-8.94384
609,-265,234.931,8.83582,0,0,0,0,0,0,0,-1,1833,1289,234.931,-8.83583
616,-265,234.956,8.66577,0,0,0,0,0,0,0,-1,1840,1289,234.956,-8.66583
623,-265,125.862,3.50574,0,0,0,0,0,0,0,-1,1847,1289,125.862,-3.5057
630,-265,107.643,2.78882,0,0,0,0,0,0,0,-1,1854,1289,107.643,-2.78883
637,-265,92.8903,1.12158,0,0,0,0,0,0,0,-1,1861,1289,92.8903,-1.12158
644,-265,77.3746,2.97742,0,0,0,0,0,0,0,-1,1868,1289,77.3746,-2.97738
651,-265,53.6781,1.57166,0,0,0,0,0,0,0,-1,1875,1289,53.6781,-1.57167
658,-265,41.7163,3.71619,0,0,0,0,0,0,0,-1,1882,1289,41.7163,-3.71624
665,-265,34.7902,1.43164,0,0,0,0,0,0,0,-1,1889,1289,34.7901,-1.43162
672,-265,20.0045,6.62671,0,0,0,0,0,0,0,-1,1896,1289,20.0045,-6.62668
679,-265,82.8594,29.2052,0,0,0,0,0,0,0,-1,1903,1289,82.8594,-29.2052
686,-265,205.614,43.775,0,0,0,0,0,0,0,-1,1910,1289,205.614,-43.775
693,-265,208.867,42.9293,0,0,0,0,0,0,0,-1,1917,1289,208.867,-42.9294
700,-265,209.068,40.5771,0,0,0,0,0,0,0,-1,1924,1289,209.068,-40.5772
707,-265,209.006,38.4662,-0.0031435,0.0259443,0.00782526,0.0279158,-0.00511504,1.32399,0.0205291,0.0276982,1931,1289,209.006,-38.4662
714,-265,208.821,36.5128,-0.00795346,0.0292462,0.0127382,0.03319,-0.0118973,1.27055,0.0269814,0.0267191,1938,1289,208.821,-36.5128
721,-265,208.367,34.726,-0.0132465,0.0327748,0.018347,0.0391938,-0.0196654,1.23424,0.0346002,0.0364461,1945,1289,208.367,-34.7259
728,-265,207.936,33.0842,-0.0190154,0.0364765,0.0245854,0.0458019,-0.0283407,1.20826,0.0432001,0.0359777,1952,1289,207.936,-33.0842
735,-265,207.761,31.3768,-0.0253101,0.0403036,0.0314957,0.052975,-0.0379815,1.18829,0.052751,0.0263095,1959,1289,207.761,-31.3768
742,-265,207.467,29.7794,-0.0320897,0.0444893,0.0390956,0.0609223,-0.0485227,1.17289,0.0633231,0.0326209,1966,1289,207.467,-29.7794
749,-265,207.128,28.2018,0,0,0,0,0,0,0,-1,1973,1289,207.128,-28.2018
756,-265,69.9429,10.3409,0,0,0,0,0,0,0,-1,1980,1289,69.9429,-10.341
763,-265,39.1299,4.9679,0,0,0,0,0,0,0,-1,1987,1289,39.1299,-4.96791
770,-265,35.1674,5.07715,0,0,0,0,0,0,0,-1,1994,1289,35.1673,-5.07718
777,-265,32.1664,5.3457,0,0,0,0,0,0,0,-1,2001,1289,32.1664,-5.34568
784,-265,0,0,0,0,0,0,0,0,0,-1,2008,1289,0,0
791,-265,0,0,0,0,0,0,0,0,0,-1,2015,1289,0,0
798,-265,0,0,0,0,0,0,0,0,0,-1,2022,1289,0,0
805,-265,0,0,0,0,0,0,0,0,0,-1,2029,1289,0,0
812,-265,0,0,0,0,0,0,0,0,0,-1,2036,1289,0,0
-700,-272,0,0,0,0,0,0,0,0,0,-1,524,1296,0,0
-693,-272,0,0,0,0,0,0,0,0,0,-1,531,1296,0,0
-686,-272,0,0,0,0,0,0,0,0,0,-1,538,1296,0,0
-679,-272,0,0,0,0,0,0,0,0,0,-1,545,1296,0,0
-672,-272,0,0,0,0,0,0,0,0,0,-1,552,1296,0,0
-665,-272,0,0,0,0,0,0,0,0,0,-1,559,1296,0,0
-658,-272,-44.6526,1.54443,0,0,0,0,0,0,0,-1,566,1296,-44.6526,-1.5444
-651,-272,-44.3723,1.53772,0,0,0,0,0,0,0,-1,573,1296,-44.3723,-1.53774
-644,-272,-44.1104,1.46021,0,0,0,0,0,0,0,-1,580,1296,-44.1104,-1.46022
-637,-272,-43.9348,1.25171,0,0,0,0,0,0,0,-1,587,1296,-43.9348,-1.25175
-630,-272,-43.5906,0.784912,0,0,0,0,0,0,0,-1,594,1296,-43.5906,-0.784935
-623,-272,-36.8673,6.23547,0,0,0,0,0,0,0,-1,601,1296,-36.8673,-6.23548
-616,-272,-161.404,29.9991,0,0,0,0,0,0,0,-1,608,1296,-161.404,-29.9991
-609,-272,-198.832,27.3212,0,0,0,0,0,0,0,-1,615,1296,-198.832,-27.3212
-602,-272,-199.153,29.1213,-0.0129812,0.0557591,-0.0251807,0.0639962,-0.0212183,-1.25465,0.0512233,0.0276779,622,1296,-199.153,-29.1213
-595,-272,-199.52,30.9054,-0.00937962,0.0507807,-0.0225976,0.0583232,-0.0169221,-1.24865,0.0455822,0.0218637,629,1296,-199.52,-30.9053
-588,-272,-199.864,32.6206,-0.00498389,0.045478,-0.0190814,0.0518809,-0.0113868,-1.24705,0.0389418,0.0232834,636,1296,-199.864,-32.6206
-581,-272,-200.175,34.4242,0.000144767,0.0398379,-0.0146997,0.0446888,-0.00470617,-1.25205,0.0314787,0.0321699,643,1296,-200.175,-34.4242
-574,-272,-200.397,36.5226,0,0,0,0,0,0,0,-1,650,1296,-200.397,-36.5226
-567,-272,-200.757,38.0856,0,0,0,0,0,0,0,-1,657,1296,-200.757,-38.0855
-560,-272,-76.906,31.7885,0,0,0,0,0,0,0,-1,664,1296,-76.906,-31.7884
-553,-272,-77.0592,33.2899,0,0,0,0,0,0,0,-1,671,1296,-77.0592,-33.2899
-546,-272,-66.9853,29.9088,0,0,0,0,0,0,0,-1,678,1296,-66.9853,-29.9089
-539,-272,-24.1416,11.0325,0,0,0,0,0,0,0,-1,685,1296,-24.1416,-11.0324
-532,-272,-10.5572,4.53943,0,0,0,0,0,0,0,-1,692,1296,-10.5572,-4.53943
-525,-272,-11.9599,0.0393066,0,0,0,0,0,0,0,-1,699,1296,-11.9599,-0.0393577
-518,-272,-21.1357,-1.41382,0,0,0,0,0,0,0,-1,706,1296,-21.1357,1.41379
-511,-272,-23.2565,0.226318,0,0,0,0,0,0,0,-1,713,1296,-23.2565,-0.22626
-504,-272,-19.7397,0.114746,0,0,0,0,0,0,0,-1,720,1296,-19.7397,-0.114701
-497,-272,-19.2225,1.71301,0,0,0,0,0,0,0,-1,727,1296,-19.2225,-1.71302
-490,-272,-20.1948,2.4032,0,0,0,0,0,0,0,-1,734,1296,-20.1948,-2.40322
-483,-272,-15.3736,0.792603,0,0,0,0,0,0,0,-1,741,1296,-15.3736,-0.79263
-476,-272,0,0,0,0,0,0,0,0,0,-1,748,1296,0,0
-469,-272,0,0,0,0,0,0,0,0,0,-1,755,1296,0,0
-462,-272,0,0,0,0,0,0,0,0,0,-1,762,1296,0,0
-455,-272,0,0,0,0,0,0,0,0,0,-1,769,1296,0,0
-448,-272,0,0,0,0,0,0,0,0,0,-1,776,1296,0,0
-441,-272,0,0,0,0,0,0,0,0,0,-1,783,1296,0,0
-434,-272,0,0,0,0,0,0,0,0,0,-1,790,1296,0,0
-427,-272,0,0,0,0,0,0,0,0,0,-1,797,1296,0,0
-420,-272,0,0,0,0,0,0,0,0,0,-1,804,1296,0,0
-413,-272,0,0,0,0,0,0,0,0,0,-1,811,1296,0,0
-406,-272,0,0,0,0,0,0,0,0,0,-1,818,1296,0,0
-399,-272,0,0,0,0,0,0,0,0,0,-1,825,1296,0,0
-392,-272,0,0,0,0,0,0,0,0,0,-1,832,1296,0,0
-385,-272,0,0,0,0,0,0,0,0,0,-1,839,1296,0,0
-378,-272,0,0,0,0,0,0,0,0,0,-1,846,1296,0,0
-371,-272,0,0,0,0,0,0,0,0,0,-1,853,1296,0,0
-364,-272,0,0,0,0,0,0,0,0,0,-1,860,1296,0,0
-357,-272,0,0,0,0,0,0,0,0,0,-1,867,1296,0,0
-350,-272,0,0,0,0,0,0,0,0,0,-1,874,1296,0,0
-343,-272,0,0,0,0,0,0,0,0,0,-1,881,1296,0,0
-336,-272,0,0,0,0,0,0,0,0,0,-1,888,1296,0,0
-329,-272,0,0,0,0,0,0,0,0,0,-1,895,1296,0,0
-322,-272,0,0,0,0,0,0,0,0,0,-1,902,1296,0,0
-315,-272,0,0,0,0,0,0,0,0,0,-1,909,1296,0,0
-308,-272,0,0,0,0,0,0,0,0,0,-1,916,1296,0,0
-301,-272,0,0,0,0,0,0,0,0,0,-1,923,1296,0,0
-294,-272,0,0,0,0,0,0,0,0,0,-1,930,1296,0,0
-287,-272,0,0,0,0,0,0,0,0,0,-1,937,1296,0,0
-280,-272,0,0,0,0,0,0,0,0,0,-1,944,1296,0,0
-273,-272,0,0,0,0,0,0,0,0,0,-1,951,1296,0,0
-266,-272,0,0,0,0,0,0,0,0,0,-1,958,1296,0,0
-259,-272,0,0,0,0,0,0,0,0,0,-1,965,1296,0,0
-252,-272,0,0,0,0,0,0,0,0,0,-1,972,1296,0,0
-245,-272,0,0,0,0,0,0,0,0,0,-1,979,1296,0,0
-238,-272,0,0,0,0,0,0,0,0,0,-1,986,1296,0,0
-231,-272,0,0,0,0,0,0,0,0,0,-1,993,1296,0,0
-224,-272,0,0,0,0,0,0,0,0,0,-1,1000,1296,0,0
-217,-272,0,0,0,0,0,0,0,0,0,-1,1007,1296,0,0
-210,-272,0,0,0,0,0,0,0,0,0,-1,1014,1296,0,0
-203,-272,0,0,0,0,0,0,0,0,0,-1,1021,1296,0,0
-196,-272,0,0,0,0,0,0,0,0,0,-1,1028,1296,0,0
-189,-272,0,0,0,0,0,0,0,0,0,-1,1035,1296,0,0
-182,-272,0,0,0,0,0,0,0,0,0,-1,1042,1296,0,0
-175,-272,0,0,0,0,0,0,0,0,0,-1,1049,1296,0,0
-168,-272,0,0,0,0,0,0,0,0,0,-1,1056,1296,0,0
-161,-272,0,0,0,0,0,0,0,0,0,-1,1063,1296,0,0
-154,-272,0,0,0,0,0,0,0,0,0,-1,1070,1296,0,0
-147,-272,0,0,0,0,0,0,0,0,0,-1,1077,1296,0,0
-140,-272,0,0,0,0,0,0,0,0,0,-1,1084,1296,0,0
-133,-272,0,0,0,0,0,0,0,0,0,-1,1091,1296,0,0
-126,-272,0,0,0,0,0,0,0,0,0,-1,1098,1296,0,0
-119,-272,0,0,0,0,0,0,0,0,0,-1,1105,1296,0,0
-112,-272,0,0,0,0,0,0,0,0,0,-1,1112,1296,0,0
-105,-272,0,0,0,0,0,0,0,0,0,-1,1119,1296,0,0
-98,-272,0,0,0,0,0,0,0,0,0,-1,1126,1296,0,0
-91,-272,0,0,0,0,0,0,0,0,0,-1,1133,1296,0,0
-84,-272,0,0,0,0,0,0,0,0,0,-1,1140,1296,0,0
-77,-272,0,0,0,0,0,0,0,0,0,-1,1147,1296,0,0
-70,-272,0,0,0,0,0,0,0,0,0,-1,1154,1296,0,0
-63,-272,0,0,0,0,0,0,0,0,0,-1,1161,1296,0,0
-56,-272,0,0,0,0,0,0,0,0,0,-1,1168,1296,0,0
-49,-272,0,0,0,0,0,0,0,0,0,-1,1175,1296,0,0
-42,-272,0,0,0,0,0,0,0,0,0,-1,1182,1296,0,0
-35,-272,0,0,0,0,0,0,0,0,0,-1,1189,1296,0,0
-28,-272,0,0,0,0,0,0,0,0,0,-1,1196,1296,0,0
-21,-272,0,0,0,0,0,0,0,0,0,-1,1203,1296,0,0
-14,-272,0,0,0,0,0,0,0,0,0,-1,1210,1296,0,0
-7,-272,0,0,0,0,0,0,0,0,0,-1,1217,1296,0,0
0,-272,0,0,0,0,0,0,0,0,0,-1,1224,1296,0,0
7,-272,0,0,0,0,0,0,0,0,0,-1,1231,1296,0,0
14,-272,0,0,0,0,0,0,0,0,0,-1,1238,1296,0,0
21,-272,0,0,0,0,0,0,0,0,0,-1,1245,1296,0,0
28,-272,0,0,0,0,0,0,0,0,0,-1,1252,1296,0,0
35,-272,0,0,0,0,0,0,0,0,0,-1,1259,1296,0,0
42,-272,0,0,0,0,0,0,0,0,0,-1,1266,1296,0,0
49,-272,0,0,0,0,0,0,0,0,0,-1,1273,1296,0,0
56,-272,0,0,0,0,0,0,0,0,0,-1,1280,1296,0,0
63,-272,0,0,0,0,0,0,0,0,0,-1,1287,1296,0,0
70,-272,0,0,0,0,0,0,0,0,0,-1,1294,1296,0,0
77,-272,0,0,0,0,0,0,0,0,0,-1,1301,1296,0,0
84,-272,0,0,0,0,0,0,0,0,0,-1,1308,1296,0,0
91,-272,0,0,0,0,0,0,0,0,0,-1,1315,1296,0,0
98,-272,0,0,0,0,0,0,0,0,0,-1,1322,1296,0,0
105,-272,0,0,0,0,0,0,0,0,0,-1,1329,1296,0,0
112,-272,0,0,0,0,0,0,0,0,0,-1,1336,1296,0,0
119,-272,0,0,0,0,0,0,0,0,0,-1,1343,1296,0,0
126,-272,0,0,0,0,0,0,0,0,0,-1,1350,1296,0,0
133,-272,0,0,0,0,0,0,0,0,0,-1,1357,1296,0,0
140,-272,0,0,0,0,0,0,0,0,0,-1,1364,1296,0,0
147,-272,0,0,0,0,0,0,0,0,0,-1,1371,1296,0,0
154,-272,0,0,0,0,0,0,0,0,0,-1,1378,1296,0,0
161,-272,0,0,0,0,0,0,0,0,0,-1,1385,1296,0,0
168,-272,0,0,0,0,0,0,0,0,0,-1,1392,1296,0,0
175,-272,0,0,0,0,0,0,0,0,0,-1,1399,1296,0,0
182,-272,0,0,0,0,0,0,0,0,0,-1,1406,1296,0,0
189,-272,0,0,0,0,0,0,0,0,0,-1,1413,1296,0,0
196,-272,0,0,0,0,0,0,0,0,0,-1,1420,1296,0,0
203,-272,0,0,0,0,0,0,0,0,0,-1,1427,1296,0,0
210,-272,0,0,0,0,0,0,0,0,0,-1,1434,1296,0,0
217,-272,0,0,0,0,0,0,0,0,0,-1,1441,1296,0,0
224,-272,0,0,0,0,0,0,0,0,0,-1,1448,1296,0,0
231,-272,0,0,0,0,0,0,0,0,0,-1,1455,1296,0,0
238,-272,0,0,0,0,0,0,0,0,0,-1,1462,1296,0,0
245,-272,0,0,0,0,0,0,0,0,0,-1,1469,1296,0,0
252,-272,0,0,0,0,0,0,0,0,0,-1,1476,1296,0,0
259,-272,0,0,0,0,0,0,0,0,0,-1,1483,1296,0,0
266,-272,0,0,0,0,0,0,0,0,0,-1,1490,1296,0,0
273,-272,0,0,0,0,0,0,0,0,0,-1,1497,1296,0,0
280,-272,0,0,0,0,0,0,0,0,0,-1,1504,1296,0,0
287,-272,0,0,0,0,0,0,0,0,0,-1,1511,1296,0,0
294,-272,0,0,0,0,0,0,0,0,0,-1,1518,1296,0,0
301,-272,0,0,0,0,0,0,0,0,0,-1,1525,1296,0,0
308,-272,0,0,0,0,0,0,0,0,0,-1,1532,1296,0,0
315,-272,0,0,0,0,0,0,0,0,0,-1,1539,1296,0,0
322,-272,0,0,0,0,0,0,0,0,0,-1,1546,1296,0,0
329,-272,0,0,0,0,0,0,0,0,0,-1,1553,1296,0,0
336,-272,0,0,0,0,0,0,0,0,0,-1,1560,1296,0,0
343,-272,0,0,0,0,0,0,0,0,0,-1,1567,1296,0,0
350,-272,0,0,0,0,0,0,0,0,0,-1,1574,1296,0,0
357,-272,0,0,0,0,0,0,0,0,0,-1,1581,1296,0,0
364,-272,0,0,0,0,0,0,0,0,0,-1,1588,1296,0,0
371,-272,0,0,0,0,0,0,0,0,0,-1,1595,1296,0,0
378,-272,0,0,0,0,0,0,0,0,0,-1,1602,1296,0,0
385,-272,0,0,0,0,0,0,0,0,0,-1,1609,1296,0,0
392,-272,0,0,0,0,0,0,0,0,0,-1,1616,1296,0,0
399,-272,0,0,0,0,0,0,0,0,0,-1,1623,1296,0,0
406,-272,0,0,0,0,0,0,0,0,0,-1,1630,1296,0,0
413,-272,0,0,0,0,0,0,0,0,0,-1,1637,1296,0,0
420,-272,0,0,0,0,0,0,0,0,0,-1,1644,1296,0,0
427,-272,0,0,0,0,0,0,0,0,0,-1,1651,1296,0,0
434,-272,0,0,0,0,0,0,0,0,0,-1,1658,1296,0,0
441,-272,0,0,0,0,0,0,0,0,0,-1,1665,1296,0,0
448,-272,0,0,0,0,0,0,0,0,0,-1,1672,1296,0,0
455,-272,0,0,0,0,0,0,0,0,0,-1,1679,1296,0,0
462,-272,0,0,0,0,0,0,0,0,0,-1,1686,1296,0,0
469,-272,0,0,0,0,0,0,0,0,0,-1,1693,1296,0,0
476,-272,0,0,0,0,0,0,0,0,0,-1,1700,1296,0,0
483,-272,0,0,0,0,0,0,0,0,0,-1,1707,1296,0,0
490,-272,0,0,0,0,0,0,0,0,0,-1,1714,1296,0,0
497,-272,0,0,0,0,0,0,0,0,0,-1,1721,1296,0,0
504,-272,0,0,0,0,0,0,0,0,0,-1,1728,1296,0,0
511,-272,0,0,0,0,0,0,0,0,0,-1,1735,1296,0,0
518,-272,0,0,0,0,0,0,0,0,0,-1,1742,1296,0,0
525,-272,0,0,0,0,0,0,0,0,0,-1,1749,1296,0,0
532,-272,0,0,0,0,0,0,0,0,0,-1,1756,1296,0,0
539,-272,0,0,0,0,0,0,0,0,0,-1,1763,1296,0,0
546,-272,0,0,0,0,0,0,0,0,0,-1,1770,1296,0,0
553,-272,0,0,0,0,0,0,0,0,0,-1,1777,1296,0,0
560,-272,0,0,0,0,0,0,0,0,0,-1,1784,1296,0,0
567,-272,0,0,0,0,0,0,0,0,0,-1,1791,1296,0,0
574,-272,0,0,0,0,0,0,0,0,0,-1,1798,1296,0,0
581,-272,0,0,0,0,0,0,0,0,0,-1,1805,1296,0,0
588,-272,0,0,0,0,0,0,0,0,0,-1,1812,1296,0,0
595,-272,0,0,0,0,0,0,0,0,0,-1,1819,1296,0,0
602,-272,235.046,8.91296,0,0,0,0,0,0,0,-1,1826,1296,235.046,-8.91294
609,-272,234.963,8.74377,0,0,0,0,0,0,0,-1,1833,1296,234.963,-8.74378
616,-272,126.119,3.40002,0,0,0,0,0,0,0,-1,1840,1296,126.119,-3.40006
623,-272,109.517,3.08215,0,0,0,0,0,0,0,-1,1847,1296,109.517,-3.08218
630,-272,97.5989,2.35938,0,0,0,0,0,0,0,-1,1854,1296,97.5989,-2.35936
637,-272,81.689,1.84167,0,0,0,0,0,0,0,-1,1861,1296,81.6889,-1.84169
644,-272,53.563,1.44336,0,0,0,0,0,0,0,-1,1868,1296,53.5629,-1.4433
651,-272,41.9225,4.27161,0,0,0,0,0,0,0,-1,1875,1296,41.9225,-4.27157
658,-272,35.1527,2.10571,0,0,0,0,0,0,0,-1,1882,1296,35.1527,-2.10573
665,-272,22.0238,4.14417,0,0,0,0,0,0,0,-1,1889,1296,22.0238,-4.14421
672,-272,22.661,7.21765,0,0,0,0,0,0,0,-1,1896,1296,22.661,-7.21761
679,-272,51.5885,15.1158,0,0,0,0,0,0,0,-1,1903,1296,51.5885,-15.1159
686,-272,207.141,45.016,0,0,0,0,0,0,0,-1,1910,1296,207.141,-45.016
693,-272,207.825,42.5602,0,0,0,0,0,0,0,-1,1917,1296,207.825,-42.5602
700,-272,207.178,40.5883,0,0,0,0,0,0,0,-1,1924,1296,207.178,-40.5883
707,-272,206.877,38.6,-0.00678574,0.0266443,0.0106996,0.0297755,-0.00991694,1.2861,0.0238533,0.0248048,1931,1296,206.877,-38.6
714,-272,206.634,36.7319,-0.0107324,0.0301403,0.0153833,0.0352831,-0.0158752,1.24817,0.0302365,0.0266396,1938,1296,206.634,-36.732
721,-272,206.292,34.889,-0.0152192,0.0337773,0.0207573,0.0413886,-0.0228306,1.21934,0.0375895,0.0391162,1945,1296,206.292,-34.889
728,-272,205.782,33.0464,-0.0202185,0.0375406,0.0267838,0.0480489,-0.0307267,1.19691,0.0458462,0.0424069,1952,1296,205.782,-33.0463
735,-272,205.438,31.3989,-0.0259142,0.0413219,0.0336282,0.0552541,-0.0398464,1.17802,0.055146,0.032778,1959,1296,205.438,-31.399
742,-272,205.398,29.7806,0,0,0,0,0,0,0,-1,1966,1296,205.398,-29.7807
749,-272,204.146,28.105,0,0,0,0,0,0,0,-1,1973,1296,204.146,-28.1049
756,-272,95.0237,19.6219,0,0,0,0,0,0,0,-1,1980,1296,95.0237,-19.622
763,-272,34.3995,5.88416,0,0,0,0,0,0,0,-1,1987,1296,34.3996,-5.88419
770,-272,25.9485,3.67749,0,0,0,0,0,0,0,-1,1994,1296,25.9485,-3.67744
777,-272,32.3619,6.13257,0,0,0,0,0,0,0,-1,2001,1296,32.362,-6.1326
784,-272,0,0,0,0,0,0,0,0,0,-1,2008,1296,0,0
791,-272,0,0,0,0,0,0,0,0,0,-1,2015,1296,0,0
798,-272,0,0,0,0,0,0,0,0,0,-1,2022,1296,0,0
805,-272,0,0,0,0,0,0,0,0,0,-1,2029,1296,0,0
812,-272,0,0,0,0,0,0,0,0,0,-1,2036,1296,0,0
-700,-279,0,0,0,0,0,0,0,0,0,-1,524,1303,0,0
-693,-279,0,0,0,0,0,0,0,0,0,-1,531,1303,0,0
-686,-279,0,0,0,0,0,0,0,0,0,-1,538,1303,0,0
-679,-279,0,0,0,0,0,0,0,0,0,-1,545,1303,0,0
-672,-279,0,0,0,0,0,0,0,0,0,-1,552,1303,0,0
-665,-279,0,0,0,0,0,0,0,0,0,-1,559,1303,0,0
-658,-279,-44.3733,1.65881,0,0,0,0,0,0,0,-1,566,1303,-44.3733,-1.65883
-651,-279,-44.1603,1.61462,0,0,0,0,0,0,0,-1,573,1303,-44.1604,-1.61462
-644,-279,-43.8069,1.50903,0,0,0,0,0,0,0,-1,580,1303,-43.8069,-1.50909
-637,-279,-43.2951,1.33704,0,0,0,0,0,0,0,-1,587,1303,-43.2951,-1.33703
-630,-279,-42.6152,1.22852,0,0,0,0,0,0,0,-1,594,1303,-42.6152,-1.22856
-623,-279,-41.8359,0.907715,0,0,0,0,0,0,0,-1,601,1303,-41.8358,-0.907688
-616,-279,-36.7089,8.0625,0,0,0,0,0,0,0,-1,608,1303,-36.7089,-8.06252
-609,-279,-196.934,27.04,0,0,0,0,0,0,0,-1,615,1303,-196.934,-27.04
-602,-279,-197.039,29.0356,-0.0129317,0.0580174,-0.0265735,0.0668666,-0.0217809,-1.24934,0.0533415,0.0342878,622,1303,-197.039,-29.0357
-595,-279,-197.395,30.8478,-0.00918529,0.0528565,-0.0242552,0.0612133,-0.0175422,-1.23899,0.0477429,0.0215543,629,1303,-197.395,-30.8478
-588,-279,-197.715,32.6302,-0.00462816,0.0474637,-0.0210559,0.0549101,-0.0120746,-1.23087,0.0412253,0.0251402,636,1303,-197.715,-32.6302
-581,-279,-198.022,34.4258,0.00066869,0.041828,-0.0170399,0.0479669,-0.00547022,-1.22501,0.0339486,0.0259837,643,1303,-198.022,-34.4258
-574,-279,-198.207,36.3425,0.0066313,0.0359371,-0.0122869,0.0404069,0.00216154,-1.2219,0.0262471,0.04685,650,1303,-198.207,-36.3426
-567,-279,-198.051,38.4156,0,0,0,0,0,0,0,-1,657,1303,-198.051,-38.4156
-560,-279,-75.499,31.936,0,0,0,0,0,0,0,-1,664,1303,-75.499,-31.936
-553,-279,-91.6979,38.8201,0,0,0,0,0,0,0,-1,671,1303,-91.6979,-38.82
-546,-279,-75.6956,34.5919,0,0,0,0,0,0,0,-1,678,1303,-75.6955,-34.5919
-539,-279,-43.8463,20.5084,0,0,0,0,0,0,0,-1,685,1303,-43.8463,-20.5085
-532,-279,-14.9813,7.89917,0,0,0,0,0,0,0,-1,692,1303,-14.9813,-7.89918
-525,-279,-11.7063,-0.539185,0,0,0,0,0,0,0,-1,699,1303,-11.7063,0.539166
-518,-279,-16.8138,1.11963,0,0,0,0,0,0,0,-1,706,1303,-16.8138,-1.11968
-511,-279,-20.1063,-1.37915,0,0,0,0,0,0,0,-1,713,1303,-20.1062,1.37918
-504,-279,-18.3766,1.04578,0,0,0,0,0,0,0,-1,720,1303,-18.3767,-1.04577
-497,-279,-19.0046,2.08911,0,0,0,0,0,0,0,-1,727,1303,-19.0046,-2.08905
-490,-279,-20.0176,2.55188,0,0,0,0,0,0,0,-1,734,1303,-20.0176,-2.55183
-483,-279,-20.8064,2.99792,0,0,0,0,0,0,0,-1,741,1303,-20.8064,-2.99797
-476,-279,0,0,0,0,0,0,0,0,0,-1,748,1303,0,0
-469,-279,0,0,0,0,0,0,0,0,0,-1,755,1303,0,0
-462,-279,0,0,0,0,0,0,0,0,0,-1,762,1303,0,0
-455,-279,0,0,0,0,0,0,0,0,0,-1,769,1303,0,0
-448,-279,0,0,0,0,0,0,0,0,0,-1,776,1303,0,0
-441,-279,0,0,0,0,0,0,0,0,0,-1,783,1303,0,0
-434,-279,0,0,0,0,0,0,0,0,0,-1,790,1303,0,0
-427,-279,0,0,0,0,0,0,0,0,0,-1,797,1303,0,0
-420,-279,0,0,0,0,0,0,0,0,0,-1,804,1303,0,0
-413,-279,0,0,0,0,0,0,0,0,0,-1,811,1303,0,0
-406,-279,0,0,0,0,0,0,0,0,0,-1,818,1303,0,0
-399,-279,0,0,0,0,0,0,0,0,0,-1,825,1303,0,0
-392,-279,0,0,0,0,0,0,0,0,0,-1,832,1303,0,0
-385,-279,0,0,0,0,0,0,0,0,0,-1,839,1303,0,0
-378,-279,0,0,0,0,0,0,0,0,0,-1,846,1303,0,0
-371,-279,0,0,0,0,0,0,0,0,0,-1,853,1303,0,0
-364,-279,0,0,0,0,0,0,0,0,0,-1,860,1303,0,0
-357,-279,0,0,0,0,0,0,0,0,0,-1,867,1303,0,0
-350,-279,0,0,0,0,0,0,0,0,0,-1,874,1303,0,0
-343,-279,0,0,0,0,0,0,0,0,0,-1,881,1303,0,0
-336,-279,0,0,0,0,0,0,0,0,0,-1,888,1303,0,0
-329,-279,0,0,0,0,0,0,0,0,0,-1,895,1303,0,0
-322,-279,0,0,0,0,0,0,0,0,0,-1,902,1303,0,0
-315,-279,0,0,0,0,0,0,0,0,0,-1,909,1303,0,0
-308,-279,0,0,0,0,0,0,0,0,0,-1,916,1303,0,0
-301,-279,0,0,0,0,0,0,0,0,0,-1,923,1303,0,0
-294,-279,0,0,0,0,0,0,0,0,0,-1,930,1303,0,0
-287,-279,0,0,0,0,0,0,0,0,0,-1,937,1303,0,0
-280,-279,0,0,0,0,0,0,0,0,0,-1,944,1303,0,0
-273,-279,0,0,0,0,0,0,0,0,0,-1,951,1303,0,0
-266,-279,0,0,0,0,0,0,0,0,0,-1,958,1303,0,0
-259,-279,0,0,0,0,0,0,0,0,0,-1,965,1303,0,0
-252,-279,0,0,0,0,0,0,0,0,0,-1,972,1303,0,0
-245,-279,0,0,0,0,0,0,0,0,0,-1,979,1303,0,0
-238,-279,0,0,0,0,0,0,0,0,0,-1,986,1303,0,0
-231,-279,0,0,0,0,0,0,0,0,0,-1,993,1303,0,0
-224,-279,0,0,0,0,0,0,0,0,0,-1,1000,1303,0,0
-217,-279,0,0,0,0,0,0,0,0,0,-1,1007,1303,0,0
-210,-279,0,0,0,0,0,0,0,0,0,-1,1014,1303,0,0
-203,-279,0,0,0,0,0,0,0,0,0,-1,1021,1303,0,0
-196,-279,0,0,0,0,0,0,0,0,0,-1,1028,1303,0,0
-189,-279,0,0,0,0,0,0,0,0,0,-1,1035,1303,0,0
-182,-279,0,0,0,0,0,0,0,0,0,-1,1042,1303,0,0
-175,-279,0,0,0,0,0,0,0,0,0,-1,1049,1303,0,0
-168,-279,0,0,0,0,0,0,0,0,0,-1,1056,1303,0,0
-161,-279,0,0,0,0,0,0,0,0,0,-1,1063,1303,0,0
-154,-279,0,0,0,0,0,0,0,0,0,-1,1070,1303,0,0
-147,-279,0,0,0,0,0,0,0,0,0,-1,1077,1303,0,0
-140,-279,0,0,0,0,0,0,0,0,0,-1,1084,1303,0,0
-133,-279,0,0,0,0,0,0,0,0,0,-1,1091,1303,0,0
-126,-279,0,0,0,0,0,0,0,0,0,-1,1098,1303,0,0
-119,-279,0,0,0,0,0,0,0,0,0,-1,1105,1303,0,0
-112,-279,0,0,0,0,0,0,0,0,0,-1,1112,1303,0,0
-105,-279,0,0,0,0,0,0,0,0,0,-1,1119,1303,0,0
-98,-279,0,0,0,0,0,0,0,0,0,-1,1126,1303,0,0
-91,-279,0,0,0,0,0,0,0,0,0,-1,1133,1303,0,0
-84,-279,0,0,0,0,0,0,0,0,0,-1,1140,1303,0,0
-77,-279,0,0,0,0,0,0,0,0,0,-1,1147,1303,0,0
-70,-279,0,0,0,0,0,0,0,0,0,-1,1154,1303,0,0
-63,-279,0,0,0,0,0,0,0,0,0,-1,1161,1303,0,0
-56,-279,0,0,0,0,0,0,0,0,0,-1,1168,1303,0,0
-49,-279,0,0,0,0,0,0,0,0,0,-1,1175,1303,0,0
-42,-279,0,0,0,0,0,0,0,0,0,-1,1182,1303,0,0
-35,-279,0,0,0,0,0,0,0,0,0,-1,1189,1303,0,0
-28,-279,0,0,0,0,0,0,0,0,0,-1,1196,1303,0,0
-21,-279,0,0,0,0,0,0,0,0,0,-1,1203,1303,0,0
-14,-279,0,0,0,0,0,0,0,0,0,-1,1210,1303,0,0
-7,-279,0,0,0,0,0,0,0,0,0,-1,1217,1303,0,0
0,-279,0,0,0,0,0,0,0,0,0,-1,1224,1303,0,0
7,-279,0,0,0,0,0,0,0,0,0,-1,1231,1303,0,0
14,-279,0,0,0,0,0,0,0,0,0,-1,1238,1303,0,0
21,-279,0,0,0,0,0,0,0,0,0,-1,1245,1303,0,0
28,-279,0,0,0,0,0,0,0,0,0,-1,1252,1303,0,0
35,-279,0,0,0,0,0,0,0,0,0,-1,1259,1303,0,0
42,-279,0,0,0,0,0,0,0,0,0,-1,1266,1303,0,0
49,-279,0,0,0,0,0,0,0,0,0,-1,1273,1303,0,0
56,-279,0,0,0,0,0,0,0,0,0,-1,1280,1303,0,0
63,-279,0,0,0,0,0,0,0,0,0,-1,1287,1303,0,0
70,-279,0,0,0,0,0,0,0,0,0,-1,1294,1303,0,0
77,-279,0,0,0,0,0,0,0,0,0,-1,1301,1303,0,0
84,-279,0,0,0,0,0,0,0,0,0,-1,1308,1303,0,0
91,-279,0,0,0,0,0,0,0,0,0,-1,1315,1303,0,0
98,-279,0,0,0,0,0,0,0,0,0,-1,1322,1303,0,0
105,-279,0,0,0,0,0,0,0,0,0,-1,1329,1303,0,0
112,-279,0,0,0,0,0,0,0,0,0,-1,1336,1303,0,0
119,-279,0,0,0,0,0,0,0,0,0,-1,1343,1303,0,0
126,-279,0,0,0,0,0,0,0,0,0,-1,1350,1303,0,0
133,-279,0,0,0,0,0,0,0,0,0,-1,1357,1303,0,0
140,-279,0,0,0,0,0,0,0,0,0,-1,1364,1303,0,0
147,-279,0,0,0,0,0,0,0,0,0,-1,1371,1303,0,0
154,-279,0,0,0,0,0,0,0,0,0,-1,1378,1303,0,0
161,-279,0,0,0,0,0,0,0,0,0,-1,1385,1303,0,0
168,-279,0,0,0,0,0,0,0,0,0,-1,1392,1303,0,0
175,-279,0,0,0,0,0,0,0,0,0,-1,1399,1303,0,0
182,-279,0,0,0,0,0,0,0,0,0,-1,1406,1303,0,0
189,-279,0,0,0,0,0,0,0,0,0,-1,1413,1303,0,0
196,-279,0,0,0,0,0,0,0,0,0,-1,1420,1303,0,0
203,-279,0,0,0,0,0,0,0,0,0,-1,1427,1303,0,0
210,-279,0,0,0,0,0,0,0,0,0,-1,1434,1303,0,0
217,-279,0,0,0,0,0,0,0,0,0,-1,1441,1303,0,0
224,-279,0,0,0,0,0,0,0,0,0,-1,1448,1303,0,0
231,-279,0,0,0,0,0,0,0,0,0,-1,1455,1303,0,0
238,-279,0,0,0,0,0,0,0,0,0,-1,1462,1303,0,0
245,-279,0,0,0,0,0,0,0,0,0,-1,1469,1303,0,0
252,-279,0,0,0,0,0,0,0,0,0,-1,1476,1303,0,0
259,-279,0,0,0,0,0,0,0,0,0,-1,1483,1303,0,0
266,-279,0,0,0,0,0,0,0,0,0,-1,1490,1303,0,0
273,-279,0,0,0,0,0,0,0,0,0,-1,1497,1303,0,0
280,-279,0,0,0,0,0,0,0,0,0,-1,1504,1303,0,0
287,-279,0,0,0,0,0,0,0,0,0,-1,1511,1303,0,0
294,-279,0,0,0,0,0,0,0,0,0,-1,1518,1303,0,0
301,-279,0,0,0,0,0,0,0,0,0,-1,1525,1303,0,0
308,-279,0,0,0,0,0,0,0,0,0,-1,1532,1303,0,0
315,-279,0,0,0,0,0,0,0,0,0,-1,1539,1303,0,0
322,-279,0,0,0,0,0,0,0,0,0,-1,1546,1303,0,0
329,-279,0,0,0,0,0,0,0,0,0,-1,1553,1303,0,0
336,-279,0,0,0,0,0,0,0,0,0,-1,1560,1303,0,0
343,-279,0,0,0,0,0,0,0,0,0,-1,1567,1303,0,0
350,-279,0,0,0,0,0,0,0,0,0,-1,1574,1303,0,0
357,-279,0,0,0,0,0,0,0,0,0,-1,1581,1303,0,0
364,-279,0,0,0,0,0,0,0,0,0,-1,1588,1303,0,0
371,-279,0,0,0,0,0,0,0,0,0,-1,1595,1303,0,0
378,-279,0,0,0,0,0,0,0,0,0,-1,1602,1303,0,0
385,-279,0,0,0,0,0,0,0,0,0,-1,1609,1303,0,0
392,-279,0,0,0,0,0,0,0,0,0,-1,1616,1303,0,0
399,-279,0,0,0,0,0,0,0,0,0,-1,1623,1303,0,0
406,-279,0,0,0,0,0,0,0,0,0,-1,1630,1303,0,0
413,-279,0,0,0,0,0,0,0,0,0,-1,1637,1303,0,0
420,-279,0,0,0,0,0,0,0,0,0,-1,1644,1303,0,0
427,-279,0,0,0,0,0,0,0,0,0,-1,1651,1303,0,0
434,-279,0,0,0,0,0,0,0,0,0,-1,1658,1303,0,0
441,-279,0,0,0,0,0,0,0,0,0,-1,1665,1303,0,0
448,-279,0,0,0,0,0,0,0,0,0,-1,1672,1303,0,0
455,-279,0,0,0,0,0,0,0,0,0,-1,1679,1303,0,0
462,-279,0,0,0,0,0,0,0,0,0,-1,1686,1303,0,0
469,-279,0,0,0,0,0,0,0,0,0,-1,1693,1303,0,0
476,-279,0,0,0,0,0,0,0,0,0,-1,1700,1303,0,0
483,-279,0,0,0,0,0,0,0,0,0,-1,1707,1303,0,0
490,-279,0,0,0,0,0,0,0,0,0,-1,1714,1303,0,0
497,-279,0,0,0,0,0,0,0,0,0,-1,1721,1303,0,0
504,-279,0,0,0,0,0,0,0,0,0,-1,1728,1303,0,0
511,-279,0,0,0,0,0,0,0,0,0,-1,1735,1303,0,0
518,-279,0,0,0,0,0,0,0,0,0,-1,1742,1303,0,0
525,-279,0,0,0,0,0,0,0,0,0,-1,1749,1303,0,0
532,-279,0,0,0,0,0,0,0,0,0,-1,1756,1303,0,0
539,-279,0,0,0,0,0,0,0,0,0,-1,1763,1303,0,0
546,-279,0,0,0,0,0,0,0,0,0,-1,1770,1303,0,0
553,-279,0,0,0,0,0,0,0,0,0,-1,1777,1303,0,0
560,-279,0,0,0,0,0,0,0,0,0,-1,1784,1303,0,0
567,-279,0,0,0,0,0,0,0,0,0,-1,1791,1303,0,0
574,-279,0,0,0,0,0,0,0,0,0,-1,1798,1303,0,0
581,-279,0,0,0,0,0,0,0,0,0,-1,1805,1303,0,0
588,-279,0,0,0,0,0,0,0,0,0,-1,1812,1303,0,0
595,-279,0,0,0,0,0,0,0,0,0,-1,1819,1303,0,0
602,-279,209.374,8.67725,0,0,0,0,0,0,0,-1,1826,1303,209.374,-8.67723
609,-279,126.095,3.35498,0,0,0,0,0,0,0,-1,1833,1303,126.095,-3.35493
616,-279,109.392,2.99854,0,0,0,0,0,0,0,-1,1840,1303,109.392,-2.99857
623,-279,99.0006,2.2428,0,0,0,0,0,0,0,-1,1847,1303,99.0006,-2.24284
630,-279,88.6062,2.73572,0,0,0,0,0,0,0,-1,1854,1303,88.6063,-2.73567
637,-279,73.1141,1.62744,0,0,0,0,0,0,0,-1,1861,1303,73.1142,-1.62742
644,-279,33.5021,3.40234,0,0,0,0,0,0,0,-1,1868,1303,33.5021,-3.40237
651,-279,29.8456,2.3562,0,0,0,0,0,0,0,-1,1875,1303,29.8455,-2.35615
658,-279,21.5076,7.65649,0,0,0,0,0,0,0,-1,1882,1303,21.5076,-7.65648
665,-279,18.9794,6.09607,0,0,0,0,0,0,0,-1,1889,1303,18.9793,-6.09601
672,-279,23.5206,8.32507,0,0,0,0,0,0,0,-1,1896,1303,23.5206,-8.32512
679,-279,63.2394,20.0441,0,0,0,0,0,0,0,-1,1903,1303,63.2394,-20.0441
686,-279,84.6371,29.4445,0,0,0,0,0,0,0,-1,1910,1303,84.6371,-29.4445
693,-279,204.97,43.2627,0,0,0,0,0,0,0,-1,1917,1303,204.97,-43.2627
700,-279,204.971,40.8257,0,0,0,0,0,0,0,-1,1924,1303,204.971,-40.8257
707,-279,204.734,38.7976,-0.00871758,0.0281204,0.0134708,0.0325207,-0.0131179,1.25507,0.0271316,0.0241585,1931,1303,204.734,-38.7976
714,-279,204.366,36.8387,-0.0120348,0.0315102,0.0178801,0.0379111,-0.0184357,1.22702,0.0331732,0.0180555,1938,1303,204.366,-36.8387
721,-279,203.97,34.9307,-0.0159252,0.0350203,0.0229357,0.0438245,-0.0247294,1.20428,0.0400882,0.0281955,1945,1303,203.97,-34.9307
728,-279,203.585,33.1729,-0.0203677,0.0386496,0.0286167,0.0502466,-0.0319647,1.18577,0.0478543,0.0389477,1952,1303,203.585,-33.1728
735,-279,203.101,31.6846,0,0,0,0,0,0,0,-1,1959,1303,203.101,-31.6845
742,-279,202.628,29.9818,0,0,0,0,0,0,0,-1,1966,1303,202.628,-29.9819
749,-279,198.153,27.5447,0,0,0,0,0,0,0,-1,1973,1303,198.153,-27.5447
756,-279,103.538,20.6768,0,0,0,0,0,0,0,-1,1980,1303,103.538,-20.6768
763,-279,27.1613,3.46265,0,0,0,0,0,0,0,-1,1987,1303,27.1613,-3.4627
770,-279,21.5828,3.54199,0,0,0,0,0,0,0,-1,1994,1303,21.5827,-3.54198
777,-279,32.5369,6.99609,0,0,0,0,0,0,0,-1,2001,1303,32.5369,-6.99608
784,-279,0,0,0,0,0,0,0,0,0,-1,2008,1303,0,0
791,-279,0,0,0,0,0,0,0,0,0,-1,2015,1303,0,0
798,-279,0,0,0,0,0,0,0,0,0,-1,2022,1303,0,0
805,-279,0,0,0,0,0,0,0,0,0,-1,2029,1303,0,0
812,-279,0,0,0,0,0,0,0,0,0,-1,2036,1303,0,0
-700,-286,0,0,0,0,0,0,0,0,0,-1,524,1310,0,0
-693,-286,0,0,0,0,0,0,0,0,0,-1,531,1310,0,0
-686,-286,0,0,0,0,0,0,0,0,0,-1,538,1310,0,0
-679,-286,0,0,0,0,0,0,0,0,0,-1,545,1310,0,0
-672,-286,0,0,0,0,0,0,0,0,0,-1,552,1310,0,0
-665,-286,0,0,0,0,0,0,0,0,0,-1,559,1310,0,0
-658,-286,-44.103,1.76782,0,0,0,0,0,0,0,-1,566,1310,-44.103,-1.76778
-651,-286,-43.6417,1.98254,0,0,0,0,0,0,0,-1,573,1310,-43.6416,-1.98254
-644,-286,-43.3175,1.59558,0,0,0,0,0,0,0,-1,580,1310,-43.3175,-1.59556
-637,-286,-42.8448,1.15039,0,0,0,0,0,0,0,-1,587,1310,-42.8448,-1.15043
-630,-286,-42.1176,0.443848,0,0,0,0,0,0,0,-1,594,1310,-42.1176,-0.443802
-623,-286,-41.3121,-0.468384,0,0,0,0,0,0,0,-1,601,1310,-41.3121,0.468376
-616,-286,-22.0634,2.37744,0,0,0,0,0,0,0,-1,608,1310,-22.0633,-2.37746
-609,-286,-174.147,29.3362,0,0,0,0,0,0,0,-1,615,1310,-174.147,-29.3361
-602,-286,-195.091,28.9771,0,0,0,0,0,0,0,-1,622,1310,-195.091,-28.977
-595,-286,-195.268,30.9147,-0.00943953,0.0549833,-0.0257385,0.0640036,-0.0184597,-1.23372,0.049972,0.0252038,629,1310,-195.268,-30.9147
-588,-286,-195.556,32.6592,-0.00465812,0.049625,-0.0228816,0.0579832,-0.0130163,-1.22057,0.0436461,0.0277185,636,1310,-195.556,-32.6592
-581,-286,-195.79,34.5269,0.000830926,0.0441187,-0.0192906,0.0514677,-0.00651806,-1.20681,0.036678,0.02733,643,1310,-195.79,-34.5269
-574,-286,-196.041,36.4447,0.00695161,0.0384654,-0.015043,0.0444932,0.000923868,-1.18969,0.029359,0.0478357,650,1310,-196.041,-36.4447
-567,-286,-196.127,38.4525,0,0,0,0,0,0,0,-1,657,1310,-196.127,-38.4525
-560,-286,-89.4232,37.6656,0,0,0,0,0,0,0,-1,664,1310,-89.4232,-37.6656
-553,-286,-194.037,42.964,0,0,0,0,0,0,0,-1,671,1310,-194.037,-42.964
-546,-286,-90.5775,40.3599,0,0,0,0,0,0,0,-1,678,1310,-90.5775,-40.3599
-539,-286,-60.7808,29.4718,0,0,0,0,0,0,0,-1,685,1310,-60.7808,-29.4718
-532,-286,-21.6771,10.4924,0,0,0,0,0,0,0,-1,692,1310,-21.6771,-10.4924
-525,-286,-11.4528,-1.11768,0,0,0,0,0,0,0,-1,699,1310,-11.4528,1.11769
-518,-286,-11.0701,1.37329,0,0,0,0,0,0,0,-1,706,1310,-11.0701,-1.37332
-511,-286,-17.7545,-0.0791016,0,0,0,0,0,0,0,-1,713,1310,-17.7544,0.0791606
-504,-286,-18.0455,1.29602,0,0,0,0,0,0,0,-1,720,1310,-18.0455,-1.29601
-497,-286,-18.3367,2.67114,0,0,0,0,0,0,0,-1,727,1310,-18.3366,-2.67118
-490,-286,-19.5795,2.47266,0,0,0,0,0,0,0,-1,734,1310,-19.5795,-2.4727
-483,-286,-19.7277,2.74744,0,0,0,0,0,0,0,-1,741,1310,-19.7277,-2.74747
-476,-286,-20.0391,3.06177,0,0,0,0,0,0,0,-1,748,1310,-20.0391,-3.06178
-469,-286,0,0,0,0,0,0,0,0,0,-1,755,1310,0,0
-462,-286,0,0,0,0,0,0,0,0,0,-1,762,1310,0,0
-455,-286,0,0,0,0,0,0,0,0,0,-1,769,1310,0,0
-448,-286,0,0,0,0,0,0,0,0,0,-1,776,1310,0,0
-441,-286,0,0,0,0,0,0,0,0,0,-1,783,1310,0,0
-434,-286,0,0,0,0,0,0,0,0,0,-1,790,1310,0,0
-427,-286,0,0,0,0,0,0,0,0,0,-1,797,1310,0,0
-420,-286,0,0,0,0,0,0,0,0,0,-1,804,1310,0,0
-413,-286,0,0,0,0,0,0,0,0,0,-1,811,1310,0,0
-406,-286,0,0,0,0,0,0,0,0,0,-1,818,1310,0,0
-399,-286,0,0,0,0,0,0,0,0,0,-1,825,1310,0,0
-392,-286,0,0,0,0,0,0,0,0,0,-1,832,1310,0,0
-385,-286,0,0,0,0,0,0,0,0,0,-1,839,1310,0,0
-378,-286,0,0,0,0,0,0,0,0,0,-1,846,1310,0,0
-371,-286,0,0,0,0,0,0,0,0,0,-1,853,1310,0,0
-364,-286,0,0,0,0,0,0,0,0,0,-1,860,1310,0,0
-357,-286,0,0,0,0,0,0,0,0,0,-1,867,1310,0,0
-350,-286,0,0,0,0,0,0,0,0,0,-1,874,1310,0,0
-343,-286,0,0,0,0,0,0,0,0,0,-1,881,1310,0,0
-336,-286,0,0,0,0,0,0,0,0,0,-1,888,1310,0,0
-329,-286,0,0,0,0,0,0,0,0,0,-1,895,1310,0,0
-322,-286,0,0,0,0,0,0,0,0,0,-1,902,1310,0,0
-315,-286,0,0,0,0,0,0,0,0,0,-1,909,1310,0,0
-308,-286,0,0,0,0,0,0,0,0,0,-1,916,1310,0,0
-301,-286,0,0,0,0,0,0,0,0,0,-1,923,1310,0,0
-294,-286,0,0,0,0,0,0,0,0,0,-1,930,1310,0,0
-287,-286,0,0,0,0,0,0,0,0,0,-1,937,1310,0,0
-280,-286,0,0,0,0,0,0,0,0,0,-1,944,1310,0,0
-273,-286,0,0,0,0,0,0,0,0,0,-1,951,1310,0,0
-266,-286,0,0,0,0,0,0,0,0,0,-1,958,1310,0,0
-259,-286,0,0,0,0,0,0,0,0,0,-1,965,1310,0,0
-252,-286,0,0,0,0,0,0,0,0,0,-1,972,1310,0,0
-245,-286,0,0,0,0,0,0,0,0,0,-1,979,1310,0,0
-238,-286,0,0,0,0,0,0,0,0,0,-1,986,1310,0,0
-231,-286,0,0,0,0,0,0,0,0,0,-1,993,1310,0,0
-224,-286,0,0,0,0,0,0,0,0,0,-1,1000,1310,0,0
-217,-286,0,0,0,0,0,0,0,0,0,-1,1007,1310,0,0
-210,-286,0,0,0,0,0,0,0,0,0,-1,1014,1310,0,0
-203,-286,0,0,0,0,0,0,0,0,0,-1,1021,1310,0,0
-196,-286,0,0,0,0,0,0,0,0,0,-1,1028,1310,0,0
-189,-286,0,0,0,0,0,0,0,0,0,-1,1035,1310,0,0
-182,-286,0,0,0,0,0,0,0,0,0,-1,1042,1310,0,0
-175,-286,0,0,0,0,0,0,0,0,0,-1,1049,1310,0,0
-168,-286,0,0,0,0,0,0,0,0,0,-1,1056,1310,0,0
-161,-286,0,0,0,0,0,0,0,0,0,-1,1063,1310,0,0
-154,-286,0,0,0,0,0,0,0,0,0,-1,1070,1310,0,0
-147,-286,0,0,0,0,0,0,0,0,0,-1,1077,1310,0,0
-140,-286,0,0,0,0,0,0,0,0,0,-1,1084,1310,0,0
-133,-286,0,0,0,0,0,0,0,0,0,-1,1091,1310,0,0
-126,-286,0,0,0,0,0,0,0,0,0,-1,1098,1310,0,0
-119,-286,0,0,0,0,0,0,0,0,0,-1,1105,1310,0,0
-112,-286,0,0,0,0,0,0,0,0,0,-1,1112,1310,0,0
-105,-286,0,0,0,0,0,0,0,0,0,-1,1119,1310,0,0
-98,-286,0,0,0,0,0,0,0,0,0,-1,1126,1310,0,0
-91,-286,0,0,0,0,0,0,0,0,0,-1,1133,1310,0,0
-84,-286,0,0,0,0,0,0,0,0,0,-1,1140,1310,0,0
-77,-286,0,0,0,0,0,0,0,0,0,-1,1147,1310,0,0
-70,-286,0,0,0,0,0,0,0,0,0,-1,1154,1310,0,0
-63,-286,0,0,0,0,0,0,0,0,0,-1,1161,1310,0,0
-56,-286,0,0,0,0,0,0,0,0,0,-1,1168,1310,0,0
-49,-286,0,0,0,0,0,0,0,0,0,-1,1175,1310,0,0
-42,-286,0,0,0,0,0,0,0,0,0,-1,1182,1310,0,0
-35,-286,0,0,0,0,0,0,0,0,0,-1,1189,1310,0,0
-28,-286,0,0,0,0,0,0,0,0,0,-1,1196,1310,0,0
-21,-286,0,0,0,0,0,0,0,0,0,-1,1203,1310,0,0
-14,-286,0,0,0,0,0,0,0,0,0,-1,1210,1310,0,0
-7,-286,0,0,0,0,0,0,0,0,0,-1,1217,1310,0,0
0,-286,0,0,0,0,0,0,0,0,0,-1,1224,1310,0,0
7,-286,0,0,0,0,0,0,0,0,0,-1,1231,1310,0,0
14,-286,0,0,0,0,0,0,0,0,0,-1,1238,1310,0,0
21,-286,0,0,0,0,0,0,0,0,0,-1,1245,1310,0,0
28,-286,0,0,0,0,0,0,0,0,0,-1,1252,1310,0,0
35,-286,0,0,0,0,0,0,0,0,0,-1,1259,1310,0,0
42,-286,0,0,0,0,0,0,0,0,0,-1,1266,1310,0,0
49,-286,0,0,0,0,0,0,0,0,0,-1,1273,1310,0,0
56,-286,0,0,0,0,0,0,0,0,0,-1,1280,1310,0,0
63,-286,0,0,0,0,0,0,0,0,0,-1,1287,1310,0,0
70,-286,0,0,0,0,0,0,0,0,0,-1,1294,1310,0,0
77,-286,0,0,0,0,0,0,0,0,0,-1,1301,1310,0,0
84,-286,0,0,0,0,0,0,0,0,0,-1,1308,1310,0,0
91,-286,0,0,0,0,0,0,0,0,0,-1,1315,1310,0,0
98,-286,0,0,0,0,0,0,0,0,0,-1,1322,1310,0,0
105,-286,0,0,0,0,0,0,0,0,0,-1,1329,1310,0,0
112,-286,0,0,0,0,0,0,0,0,0,-1,1336,1310,0,0
119,-286,0,0,0,0,0,0,0,0,0,-1,1343,1310,0,0
126,-286,0,0,0,0,0,0,0,0,0,-1,1350,1310,0,0
133,-286,0,0,0,0,0,0,0,0,0,-1,1357,1310,0,0
140,-286,0,0,0,0,0,0,0,0,0,-1,1364,1310,0,0
147,-286,0,0,0,0,0,0,0,0,0,-1,1371,1310,0,0
154,-286,0,0,0,0,0,0,0,0,0,-1,1378,1310,0,0
161,-286,0,0,0,0,0,0,0,0,0,-1,1385,1310,0,0
168,-286,0,0,0,0,0,0,0,0,0,-1,1392,1310,0,0
175,-286,0,0,0,0,0,0,0,0,0,-1,1399,1310,0,0
182,-286,0,0,0,0,0,0,0,0,0,-1,1406,1310,0,0
189,-286,0,0,0,0,0,0,0,0,0,-1,1413,1310,0,0
196,-286,0,0,0,0,0,0,0,0,0,-1,1420,1310,0,0
203,-286,0,0,0,0,0,0,0,0,0,-1,1427,1310,0,0
210,-286,0,0,0,0,0,0,0,0,0,-1,1434,1310,0,0
217,-286,0,0,0,0,0,0,0,0,0,-1,1441,1310,0,0
224,-286,0,0,0,0,0,0,0,0,0,-1,1448,1310,0,0
231,-286,0,0,0,0,0,0,0,0,0,-1,1455,1310,0,0
238,-286,0,0,0,0,0,0,0,0,0,-1,1462,1310,0,0
245,-286,0,0,0,0,0,0,0,0,0,-1,1469,1310,0,0
252,-286,0,0,0,0,0,0,0,0,0,-1,1476,1310,0,0
259,-286,0,0,0,0,0,0,0,0,0,-1,1483,1310,0,0
266,-286,0,0,0,0,0,0,0,0,0,-1,1490,1310,0,0
273,-286,0,0,0,0,0,0,0,0,0,-1,1497,1310,0,0
280,-286,0,0,0,0,0,0,0,0,0,-1,1504,1310,0,0
287,-286,0,0,0,0,0,0,0,0,0,-1,1511,1310,0,0
294,-286,0,0,0,0,0,0,0,0,0,-1,1518,1310,0,0
301,-286,0,0,0,0,0,0,0,0,0,-1,1525,1310,0,0
308,-286,0,0,0,0,0,0,0,0,0,-1,1532,1310,0,0
315,-286,0,0,0,0,0,0,0,0,0,-1,1539,1310,0,0
322,-286,0,0,0,0,0,0,0,0,0,-1,1546,1310,0,0
329,-286,0,0,0,0,0,0,0,0,0,-1,1553,1310,0,0
336,-286,0,0,0,0,0,0,0,0,0,-1,1560,1310,0,0
343,-286,0,0,0,0,0,0,0,0,0,-1,1567,1310,0,0
350,-286,0,0,0,0,0,0,0,0,0,-1,1574,1310,0,0
357,-286,0,0,0,0,0,0,0,0,0,-1,1581,1310,0,0
364,-286,0,0,0,0,0,0,0,0,0,-1,1588,1310,0,0
371,-286,0,0,0,0,0,0,0,0,0,-1,1595,1310,0,0
378,-286,0,0,0,0,0,0,0,0,0,-1,1602,1310,0,0
385,-286,0,0,0,0,0,0,0,0,0,-1,1609,1310,0,0
392,-286,0,0,0,0,0,0,0,0,0,-1,1616,1310,0,0
399,-286,0,0,0,0,0,0,0,0,0,-1,1623,1310,0,0
406,-286,0,0,0,0,0,0,0,0,0,-1,1630,1310,0,0
413,-286,0,0,0,0,0,0,0,0,0,-1,1637,1310,0,0
420,-286,0,0,0,0,0,0,0,0,0,-1,1644,1310,0,0
427,-286,0,0,0,0,0,0,0,0,0,-1,1651,1310,0,0
434,-286,0,0,0,0,0,0,0,0,0,-1,1658,1310,0,0
441,-286,0,0,0,0,0,0,0,0,0,-1,1665,1310,0,0
448,-286,0,0,0,0,0,0,0,0,0,-1,1672,1310,0,0
455,-286,0,0,0,0,0,0,0,0,0,-1,1679,1310,0,0
462,-286,0,0,0,0,0,0,0,0,0,-1,1686,1310,0,0
469,-286,0,0,0,0,0,0,0,0,0,-1,1693,1310,0,0
476,-286,0,0,0,0,0,0,0,0,0,-1,1700,1310,0,0
483,-286,0,0,0,0,0,0,0,0,0,-1,1707,1310,0,0
490,-286,0,0,0,0,0,0,0,0,0,-1,1714,1310,0,0
497,-286,0,0,0,0,0,0,0,0,0,-1,1721,1310,0,0
504,-286,0,0,0,0,0,0,0,0,0,-1,1728,1310,0,0
511,-286,0,0,0,0,0,0,0,0,0,-1,1735,1310,0,0
518,-286,0,0,0,0,0,0,0,0,0,-1,1742,1310,0,0
525,-286,0,0,0,0,0,0,0,0,0,-1,1749,1310,0,0
532,-286,0,0,0,0,0,0,0,0,0,-1,1756,1310,0,0
539,-286,0,0,0,0,0,0,0,0,0,-1,1763,1310,0,0
546,-286,0,0,0,0,0,0,0,0,0,-1,1770,1310,0,0
553,-286,0,0,0,0,0,0,0,0,0,-1,1777,1310,0,0
560,-286,0,0,0,0,0,0,0,0,0,-1,1784,1310,0,0
567,-286,0,0,0,0,0,0,0,0,0,-1,1791,1310,0,0
574,-286,0,0,0,0,0,0,0,0,0,-1,1798,1310,0,0
581,-286,0,0,0,0,0,0,0,0,0,-1,1805,1310,0,0
588,-286,0,0,0,0,0,0,0,0,0,-1,1812,1310,0,0
595,-286,85.6449,2.23169,0,0,0,0,0,0,0,-1,1819,1310,85.6449,-2.23175
602,-286,124.014,3.47412,0,0,0,0,0,0,0,-1,1826,1310,124.014,-3.4741
609,-286,92.1185,1.80212,0,0,0,0,0,0,0,-1,1833,1310,92.1185,-1.80215
616,-286,99.723,2.9939,0,0,0,0,0,0,0,-1,1840,1310,99.7231,-2.99387
623,-286,91.3973,1.46118,0,0,0,0,0,0,0,-1,1847,1310,91.3974,-1.46122
630,-286,73.3732,1.46594,0,0,0,0,0,0,0,-1,1854,1310,73.3731,-1.46595
637,-286,47.8409,3.69824,0,0,0,0,0,0,0,-1,1861,1310,47.841,-3.69823
644,-286,25.6433,1.33862,0,0,0,0,0,0,0,-1,1868,1310,25.6433,-1.33858
651,-286,25.2507,1.88245,0,0,0,0,0,0,0,-1,1875,1310,25.2508,-1.88245
658,-286,25.9475,9.43689,0,0,0,0,0,0,0,-1,1882,1310,25.9475,-9.43693
665,-286,24.9838,8.03101,0,0,0,0,0,0,0,-1,1889,1310,24.9837,-8.03104
672,-286,40.2175,12.9626,0,0,0,0,0,0,0,-1,1896,1310,40.2175,-12.9627
679,-286,95.2627,37.8113,0,0,0,0,0,0,0,-1,1903,1310,95.2627,-37.8113
686,-286,82.3354,29.6196,0,0,0,0,0,0,0,-1,1910,1310,82.3354,-29.6197
693,-286,183.931,45.243,0,0,0,0,0,0,0,-1,1917,1310,183.931,-45.2431
700,-286,202.853,41.0789,0,0,0,0,0,0,0,-1,1924,1310,202.853,-41.0789
707,-286,202.496,38.9895,-0.0106436,0.0291864,0.0163989,0.0350693,-0.0165265,1.22636,0.0304233,0.0204817,1931,1310,202.496,-38.9895
714,-286,202.135,36.9694,-0.0131782,0.0326108,0.0204302,0.040401,-0.0209684,1.20651,0.0360189,0.0162008,1938,1310,202.135,-36.9693
721,-286,201.766,35.0667,-0.0162101,0.0361085,0.0250958,0.0461999,-0.0263015,1.18847,0.0423809,0.0212856,1945,1310,201.766,-35.0666
728,-286,201.396,33.2565,-0.0197168,0.0396824,0.0303891,0.0524747,-0.0325092,1.17236,0.0495147,0.0305301,1952,1310,201.396,-33.2565
735,-286,200.96,31.3477,0,0,0,0,0,0,0,-1,1959,1310,200.96,-31.3476
742,-286,198.226,29.3346,0,0,0,0,0,0,0,-1,1966,1310,198.226,-29.3347
749,-286,102.236,22.6971,0,0,0,0,0,0,0,-1,1973,1310,102.236,-22.6971
756,-286,24.8226,4.43481,0,0,0,0,0,0,0,-1,1980,1310,24.8227,-4.43479
763,-286,20.6671,3.99683,0,0,0,0,0,0,0,-1,1987,1310,20.6671,-3.99683
770,-286,23.9147,4.45679,0,0,0,0,0,0,0,-1,1994,1310,23.9146,-4.45675
777,-286,0,0,0,0,0,0,0,0,0,-1,2001,1310,0,0
784,-286,0,0,0,0,0,0,0,0,0,-1,2008,1310,0,0
791,-286,0,0,0,0,0,0,0,0,0,-1,2015,1310,0,0
798,-286,0,0,0,0,0,0,0,0,0,-1,2022,1310,0,0
805,-286,0,0,0,0,0,0,0,0,0,-1,2029,1310,0,0
812,-286,0,0,0,0,0,0,0,0,0,-1,2036,1310,0,0
-700,-293,0,0,0,0,0,0,0,0,0,-1,524,1317,0,0
-693,-293,0,0,0,0,0,0,0,0,0,-1,531,1317,0,0
-686,-293,0,0,0,0,0,0,0,0,0,-1,538,1317,0,0
-679,-293,0,0,0,0,0,0,0,0,0,-1,545,1317,0,0
-672,-293,0,0,0,0,0,0,0,0,0,-1,552,1317,0,0
-665,-293,0,0,0,0,0,0,0,0,0,-1,559,1317,0,0
-658,-293,0,0,0,0,0,0,0,0,0,-1,566,1317,0,0
-651,-293,-42.6636,2.1897,0,0,0,0,0,0,0,-1,573,1317,-42.6636,-2.18965
-644,-293,-42.6672,1.56262,0,0,0,0,0,0,0,-1,580,1317,-42.6672,-1.5626
-637,-293,-42.7898,0.963745,0,0,0,0,0,0,0,-1,587,1317,-42.7898,-0.963689
-630,-293,-42.7558,0.296021,0,0,0,0,0,0,0,-1,594,1317,-42.7558,-0.295997
-623,-293,-15.6058,0.229614,0,0,0,0,0,0,0,-1,601,1317,-15.6058,-0.229666
-616,-293,-15.5056,2.17737,0,0,0,0,0,0,0,-1,608,1317,-15.5055,-2.17742
-609,-293,-25.3796,5.07373,0,0,0,0,0,0,0,-1,615,1317,-25.3796,-5.07369
-602,-293,-192.908,28.9535,0,0,0,0,0,0,0,-1,622,1317,-192.908,-28.9535
-595,-293,-192.986,30.8735,-0.0092122,0.0569986,-0.0272337,0.066761,-0.0189745,-1.2266,0.0519992,0.044714,629,1317,-192.986,-30.8736
-588,-293,-193.241,32.7148,-0.00439464,0.0516684,-0.0247833,0.0610531,-0.0137794,-1.20881,0.0459886,0.0273228,636,1317,-193.241,-32.7149
-581,-293,-193.444,34.5861,0.000967509,0.0462743,-0.0217226,0.0550064,-0.00776459,-1.18858,0.0395143,0.0309794,643,1317,-193.444,-34.5861
-574,-293,-193.664,36.5754,0.00678361,0.0408183,-0.0181517,0.0486822,-0.00108027,-1.16198,0.0328208,0.0386776,650,1317,-193.664,-36.5755
-567,-293,-193.764,38.5958,0,0,0,0,0,0,0,-1,657,1317,-193.764,-38.5958
-560,-293,-191.86,40.6852,0,0,0,0,0,0,0,-1,664,1317,-191.86,-40.6852
-553,-293,-191.852,42.9893,0,0,0,0,0,0,0,-1,671,1317,-191.852,-42.9892
-546,-293,-191.845,45.2932,0,0,0,0,0,0,0,-1,678,1317,-191.845,-45.2933
-539,-293,-75.0351,37.2535,0,0,0,0,0,0,0,-1,685,1317,-75.0351,-37.2536
-532,-293,-27.4858,13.6715,0,0,0,0,0,0,0,-1,692,1317,-27.4858,-13.6715
-525,-293,-8.20642,3.62256,0,0,0,0,0,0,0,-1,699,1317,-8.20639,-3.6226
-518,-293,-10.1053,0.314209,0,0,0,0,0,0,0,-1,706,1317,-10.1053,-0.314234
-511,-293,-11.6276,0.235352,0,0,0,0,0,0,0,-1,713,1317,-11.6276,-0.235372
-504,-293,-17.9086,1.25427,0,0,0,0,0,0,0,-1,720,1317,-17.9086,-1.25423
-497,-293,-18.8006,1.62122,0,0,0,0,0,0,0,-1,727,1317,-18.8006,-1.62119
-490,-293,-18.8961,1.99255,0,0,0,0,0,0,0,-1,734,1317,-18.8961,-1.99251
-483,-293,-19.0831,2.35498,0,0,0,0,0,0,0,-1,741,1317,-19.0831,-2.35497
-476,-293,-19.5228,2.61243,0,0,0,0,0,0,0,-1,748,1317,-19.5228,-2.61237
-469,-293,0,0,0,0,0,0,0,0,0,-1,755,1317,0,0
-462,-293,0,0,0,0,0,0,0,0,0,-1,762,1317,0,0
-455,-293,0,0,0,0,0,0,0,0,0,-1,769,1317,0,0
-448,-293,0,0,0,0,0,0,0,0,0,-1,776,1317,0,0
-441,-293,0,0,0,0,0,0,0,0,0,-1,783,1317,0,0
-434,-293,0,0,0,0,0,0,0,0,0,-1,790,1317,0,0
-427,-293,0,0,0,0,0,0,0,0,0,-1,797,1317,0,0
-420,-293,0,0,0,0,0,0,0,0,0,-1,804,1317,0,0
-413,-293,0,0,0,0,0,0,0,0,0,-1,811,1317,0,0
-406,-293,0,0,0,0,0,0,0,0,0,-1,818,1317,0,0
-399,-293,0,0,0,0,0,0,0,0,0,-1,825,1317,0,0
-392,-293,0,0,0,0,0,0,0,0,0,-1,832,1317,0,0
-385,-293,0,0,0,0,0,0,0,0,0,-1,839,1317,0,0
-378,-293,0,0,0,0,0,0,0,0,0,-1,846,1317,0,0
-371,-293,0,0,0,0,0,0,0,0,0,-1,853,1317,0,0
-364,-293,0,0,0,0,0,0,0,0,0,-1,860,1317,0,0
-357,-293,0,0,0,0,0,0,0,0,0,-1,867,1317,0,0
-350,-293,0,0,0,0,0,0,0,0,0,-1,874,1317,0,0
-343,-293,0,0,0,0,0,0,0,0,0,-1,881,1317,0,0
-336,-293,0,0,0,0,0,0,0,0,0,-1,888,1317,0,0
-329,-293,0,0,0,0,0,0,0,0,0,-1,895,1317,0,0
-322,-293,0,0,0,0,0,0,0,0,0,-1,902,1317,0,0
-315,-293,0,0,0,0,0,0,0,0,0,-1,909,1317,0,0
-308,-293,0,0,0,0,0,0,0,0,0,-1,916,1317,0,0
-301,-293,0,0,0,0,0,0,0,0,0,-1,923,1317,0,0
-294,-293,0,0,0,0,0,0,0,0,0,-1,930,1317,0,0
-287,-293,0,0,0,0,0,0,0,0,0,-1,937,1317,0,0
-280,-293,0,0,0,0,0,0,0,0,0,-1,944,1317,0,0
-273,-293,0,0,0,0,0,0,0,0,0,-1,951,1317,0,0
-266,-293,0,0,0,0,0,0,0,0,0,-1,958,1317,0,0
-259,-293,0,0,0,0,0,0,0,0,0,-1,965,1317,0,0
-252,-293,0,0,0,0,0,0,0,0,0,-1,972,1317,0,0
-245,-293,0,0,0,0,0,0,0,0,0,-1,979,1317,0,0
-238,-293,0,0,0,0,0,0,0,0,0,-1,986,1317,0,0
-231,-293,0,0,0,0,0,0,0,0,0,-1,993,1317,0,0
-224,-293,0,0,0,0,0,0,0,0,0,-1,1000,1317,0,0
-217,-293,0,0,0,0,0,0,0,0,0,-1,1007,1317,0,0
-210,-293,0,0,0,0,0,0,0,0,0,-1,1014,1317,0,0
-203,-293,0,0,0,0,0,0,0,0,0,-1,1021,1317,0,0
-196,-293,0,0,0,0,0,0,0,0,0,-1,1028,1317,0,0
-189,-293,0,0,0,0,0,0,0,0,0,-1,1035,1317,0,0
-182,-293,0,0,0,0,0,0,0,0,0,-1,1042,1317,0,0
-175,-293,0,0,0,0,0,0,0,0,0,-1,1049,1317,0,0
-168,-293,0,0,0,0,0,0,0,0,0,-1,1056,1317,0,0
-161,-293,0,0,0,0,0,0,0,0,0,-1,1063,1317,0,0
-154,-293,0,0,0,0,0,0,0,0,0,-1,1070,1317,0,0
-147,-293,0,0,0,0,0,0,0,0,0,-1,1077,1317,0,0
-140,-293,0,0,0,0,0,0,0,0,0,-1,1084,1317,0,0
-133,-293,0,0,0,0,0,0,0,0,0,-1,1091,1317,0,0
-126,-293,0,0,0,0,0,0,0,0,0,-1,1098,1317,0,0
-119,-293,0,0,0,0,0,0,0,0,0,-1,1105,1317,0,0
-112,-293,0,0,0,0,0,0,0,0,0,-1,1112,1317,0,0
-105,-293,0,0,0,0,0,0,0,0,0,-1,1119,1317,0,0
-98,-293,0,0,0,0,0,0,0,0,0,-1,1126,1317,0,0
-91,-293,0,0,0,0,0,0,0,0,0,-1,1133,1317,0,0
-84,-293,0,0,0,0,0,0,0,0,0,-1,1140,1317,0,0
-77,-293,0,0,0,0,0,0,0,0,0,-1,1147,1317,0,0
-70,-293,0,0,0,0,0,0,0,0,0,-1,1154,1317,0,0
-63,-293,0,0,0,0,0,0,0,0,0,-1,1161,1317,0,0
-56,-293,0,0,0,0,0,0,0,0,0,-1,1168,1317,0,0
-49,-293,0,0,0,0,0,0,0,0,0,-1,1175,1317,0,0
-42,-293,0,0,0,0,0,0,0,0,0,-1,1182,1317,0,0
-35,-293,0,0,0,0,0,0,0,0,0,-1,1189,1317,0,0
-28,-293,0,0,0,0,0,0,0,0,0,-1,1196,1317,0,0
-21,-293,0,0,0,0,0,0,0,0,0,-1,1203,1317,0,0
-14,-293,0,0,0,0,0,0,0,0,0,-1,1210,1317,0,0
-7,-293,0,0,0,0,0,0,0,0,0,-1,1217,1317,0,0
0,-293,0,0,0,0,0,0,0,0,0,-1,1224,1317,0,0
7,-293,0,0,0,0,0,0,0,0,0,-1,1231,1317,0,0
14,-293,0,0,0,0,0,0,0,0,0,-1,1238,1317,0,0
21,-293,0,0,0,0,0,0,0,0,0,-1,1245,1317,0,0
28,-293,0,0,0,0,0,0,0,0,0,-1,1252,1317,0,0
35,-293,0,0,0,0,0,0,0,0,0,-1,1259,1317,0,0
42,-293,0,0,0,0,0,0,0,0,0,-1,1266,1317,0,0
49,-293,0,0,0,0,0,0,0,0,0,-1,1273,1317,0,0
56,-293,0,0,0,0,0,0,0,0,0,-1,1280,1317,0,0
63,-293,0,0,0,0,0,0,0,0,0,-1,1287,1317,0,0
70,-293,0,0,0,0,0,0,0,0,0,-1,1294,1317,0,0
77,-293,0,0,0,0,0,0,0,0,0,-1,1301,1317,0,0
84,-293,0,0,0,0,0,0,0,0,0,-1,1308,1317,0,0
91,-293,0,0,0,0,0,0,0,0,0,-1,1315,1317,0,0
98,-293,0,0,0,0,0,0,0,0,0,-1,1322,1317,0,0
105,-293,0,0,0,0,0,0,0,0,0,-1,1329,1317,0,0
112,-293,0,0,0,0,0,0,0,0,0,-1,1336,1317,0,0
119,-293,0,0,0,0,0,0,0,0,0,-1,1343,1317,0,0
126,-293,0,0,0,0,0,0,0,0,0,-1,1350,1317,0,0
133,-293,0,0,0,0,0,0,0,0,0,-1,1357,1317,0,0
140,-293,0,0,0,0,0,0,0,0,0,-1,1364,1317,0,0
147,-293,0,0,0,0,0,0,0,0,0,-1,1371,1317,0,0
154,-293,0,0,0,0,0,0,0,0,0,-1,1378,1317,0,0
161,-293,0,0,0,0,0,0,0,0,0,-1,1385,1317,0,0
168,-293,0,0,0,0,0,0,0,0,0,-1,1392,1317,0,0
175,-293,0,0,0,0,0,0,0,0,0,-1,1399,1317,0,0
182,-293,0,0,0,0,0,0,0,0,0,-1,1406,1317,0,0
189,-293,0,0,0,0,0,0,0,0,0,-1,1413,1317,0,0
196,-293,0,0,0,0,0,0,0,0,0,-1,1420,1317,0,0
203,-293,0,0,0,0,0,0,0,0,0,-1,1427,1317,0,0
210,-293,0,0,0,0,0,0,0,0,0,-1,1434,1317,0,0
217,-293,0,0,0,0,0,0,0,0,0,-1,1441,1317,0,0
224,-293,0,0,0,0,0,0,0,0,0,-1,1448,1317,0,0
231,-293,0,0,0,0,0,0,0,0,0,-1,1455,1317,0,0
238,-293,0,0,0,0,0,0,0,0,0,-1,1462,1317,0,0
245,-293,0,0,0,0,0,0,0,0,0,-1,1469,1317,0,0
252,-293,0,0,0,0,0,0,0,0,0,-1,1476,1317,0,0
259,-293,0,0,0,0,0,0,0,0,0,-1,1483,1317,0,0
266,-293,0,0,0,0,0,0,0,0,0,-1,1490,1317,0,0
273,-293,0,0,0,0,0,0,0,0,0,-1,1497,1317,0,0
280,-293,0,0,0,0,0,0,0,0,0,-1,1504,1317,0,0
287,-293,0,0,0,0,0,0,0,0,0,-1,1511,1317,0,0
294,-293,0,0,0,0,0,0,0,0,0,-1,1518,1317,0,0
301,-293,0,0,0,0,0,0,0,0,0,-1,1525,1317,0,0
308,-293,0,0,0,0,0,0,0,0,0,-1,1532,1317,0,0
315,-293,0,0,0,0,0,0,0,0,0,-1,1539,1317,0,0
322,-293,0,0,0,0,0,0,0,0,0,-1,1546,1317,0,0
329,-293,0,0,0,0,0,0,0,0,0,-1,1553,1317,0,0
336,-293,0,0,0,0,0,0,0,0,0,-1,1560,1317,0,0
343,-293,0,0,0,0,0,0,0,0,0,-1,1567,1317,0,0
350,-293,0,0,0,0,0,0,0,0,0,-1,1574,1317,0,0
357,-293,0,0,0,0,0,0,0,0,0,-1,1581,1317,0,0
364,-293,0,0,0,0,0,0,0,0,0,-1,1588,1317,0,0
371,-293,0,0,0,0,0,0,0,0,0,-1,1595,1317,0,0
378,-293,0,0,0,0,0,0,0,0,0,-1,1602,1317,0,0
385,-293,0,0,0,0,0,0,0,0,0,-1,1609,1317,0,0
392,-293,0,0,0,0,0,0,0,0,0,-1,1616,1317,0,0
399,-293,0,0,0,0,0,0,0,0,0,-1,1623,1317,0,0
406,-293,0,0,0,0,0,0,0,0,0,-1,1630,1317,0,0
413,-293,0,0,0,0,0,0,0,0,0,-1,1637,1317,0,0
420,-293,0,0,0,0,0,0,0,0,0,-1,1644,1317,0,0
427,-293,0,0,0,0,0,0,0,0,0,-1,1651,1317,0,0
434,-293,0,0,0,0,0,0,0,0,0,-1,1658,1317,0,0
441,-293,0,0,0,0,0,0,0,0,0,-1,1665,1317,0,0
448,-293,0,0,0,0,0,0,0,0,0,-1,1672,1317,0,0
455,-293,0,0,0,0,0,0,0,0,0,-1,1679,1317,0,0
462,-293,0,0,0,0,0,0,0,0,0,-1,1686,1317,0,0
469,-293,0,0,0,0,0,0,0,0,0,-1,1693,1317,0,0
476,-293,0,0,0,0,0,0,0,0,0,-1,1700,1317,0,0
483,-293,0,0,0,0,0,0,0,0,0,-1,1707,1317,0,0
490,-293,0,0,0,0,0,0,0,0,0,-1,1714,1317,0,0
497,-293,0,0,0,0,0,0,0,0,0,-1,1721,1317,0,0
504,-293,0,0,0,0,0,0,0,0,0,-1,1728,1317,0,0
511,-293,0,0,0,0,0,0,0,0,0,-1,1735,1317,0,0
518,-293,0,0,0,0,0,0,0,0,0,-1,1742,1317,0,0
525,-293,0,0,0,0,0,0,0,0,0,-1,1749,1317,0,0
532,-293,0,0,0,0,0,0,0,0,0,-1,1756,1317,0,0
539,-293,0,0,0,0,0,0,0,0,0,-1,1763,1317,0,0
546,-293,0,0,0,0,0,0,0,0,0,-1,1770,1317,0,0
553,-293,0,0,0,0,0,0,0,0,0,-1,1777,1317,0,0
560,-293,0,0,0,0,0,0,0,0,0,-1,1784,1317,0,0
567,-293,0,0,0,0,0,0,0,0,0,-1,1791,1317,0,0
574,-293,0,0,0,0,0,0,0,0,0,-1,1798,1317,0,0
581,-293,0,0,0,0,0,0,0,0,0,-1,1805,1317,0,0
588,-293,0,0,0,0,0,0,0,0,0,-1,1812,1317,0,0
595,-293,85.9399,2.10144,0,0,0,0,0,0,0,-1,1819,1317,85.94,-2.1015
602,-293,85.9573,1.71106,0,0,0,0,0,0,0,-1,1826,1317,85.9573,-1.71108
609,-293,86.5338,0.772461,0,0,0,0,0,0,0,-1,1833,1317,86.5338,-0.772455
616,-293,91.9178,1.40967,0,0,0,0,0,0,0,-1,1840,1317,91.9178,-1.40968
623,-293,64.6224,0.448364,0,0,0,0,0,0,0,-1,1847,1317,64.6224,-0.448318
630,-293,46.6716,3.21558,0,0,0,0,0,0,0,-1,1854,1317,46.6716,-3.2156
637,-293,42.7729,4.95544,0,0,0,0,0,0,0,-1,1861,1317,42.773,-4.95546
644,-293,24.4565,0.520752,0,0,0,0,0,0,0,-1,1868,1317,24.4566,-0.520709
651,-293,25.8926,9.51245,0,0,0,0,0,0,0,-1,1875,1317,25.8926,-9.51246
658,-293,25.4904,9.10205,0,0,0,0,0,0,0,-1,1882,1317,25.4904,-9.10209
665,-293,39.7999,13.4221,0,0,0,0,0,0,0,-1,1889,1317,39.8,-13.4221
672,-293,93.4913,39.5636,0,0,0,0,0,0,0,-1,1896,1317,93.4913,-39.5636
679,-293,104.875,42.3218,0,0,0,0,0,0,0,-1,1903,1317,104.875,-42.3218
686,-293,94.0323,36.5354,0,0,0,0,0,0,0,-1,1910,1317,94.0324,-36.5354
693,-293,201.008,43.7079,0,0,0,0,0,0,0,-1,1917,1317,201.008,-43.7079
700,-293,200.647,41.4755,-0.00930756,0.0272454,0.0157396,0.0330887,-0.0151509,1.21532,0.0284857,0.0326969,1924,1317,200.647,-41.4754
707,-293,200.211,39.1591,-0.0111237,0.0307201,0.0187753,0.0379094,-0.018313,1.20511,0.0331108,0.0196854,1931,1317,200.212,-39.159
714,-293,199.862,37.1683,-0.0133514,0.0342266,0.022394,0.0431088,-0.0222337,1.1932,0.0383619,0.0131553,1938,1317,199.862,-37.1683
721,-293,199.523,35.184,-0.0160079,0.0378056,0.0266046,0.0487377,-0.02694,1.18092,0.0442926,0.0178241,1945,1317,199.523,-35.184
728,-293,198.952,33.3196,-0.0190356,0.0415114,0.0314233,0.0548718,-0.0323959,1.16878,0.050938,0.0346954,1952,1317,198.952,-33.3196
735,-293,198.357,31.5736,0,0,0,0,0,0,0,-1,1959,1317,198.357,-31.5736
742,-293,105.342,25.7426,0,0,0,0,0,0,0,-1,1966,1317,105.342,-25.7425
749,-293,74.3734,16.1273,0,0,0,0,0,0,0,-1,1973,1317,74.3734,-16.1274
756,-293,24.978,3.9718,0,0,0,0,0,0,0,-1,1980,1317,24.978,-3.97186
763,-293,26.6713,4.74097,0,0,0,0,0,0,0,-1,1987,1317,26.6713,-4.74098
770,-293,24.1349,4.69153,0,0,0,0,0,0,0,-1,1994,1317,24.1348,-4.69159
777,-293,0,0,0,0,0,0,0,0,0,-1,2001,1317,0,0
784,-293,0,0,0,0,0,0,0,0,0,-1,2008,1317,0,0
791,-293,0,0,0,0,0,0,0,0,0,-1,2015,1317,0,0
798,-293,0,0,0,0,0,0,0,0,0,-1,2022,1317,0,0
805,-293,0,0,0,0,0,0,0,0,0,-1,2029,1317,0,0
812,-293,0,0,0,0,0,0,0,0,0,-1,2036,1317,0,0
-700,-300,0,0,0,0,0,0,0,0,0,-1,524,1324,0,0
-693,-300,0,0,0,0,0,0,0,0,0,-1,531,1324,0,0
-686,-300,0,0,0,0,0,0,0,0,0,-1,538,1324,0,0
-679,-300,0,0,0,0,0,0,0,0,0,-1,545,1324,0,0
-672,-300,0,0,0,0,0,0,0,0,0,-1,552,1324,0,0
-665,-300,0,0,0,0,0,0,0,0,0,-1,559,1324,0,0
-658,-300,0,0,0,0,0,0,0,0,0,-1,566,1324,0,0
-651,-300,-41.7632,2.33789,0,0,0,0,0,0,0,-1,573,1324,-41.7632,-2.33789
-644,-300,-42.3084,1.3728,0,0,0,0,0,0,0,-1,580,1324,-42.3084,-1.37282
-637,-300,-42.6259,0.807251,0,0,0,0,0,0,0,-1,587,1324,-42.6259,-0.807209
-630,-300,-21.1108,2.26306,0,0,0,0,0,0,0,-1,594,1324,-21.1109,-2.2631
-623,-300,-12.7067,1.48462,0,0,0,0,0,0,0,-1,601,1324,-12.7067,-1.48462
-616,-300,-14.9988,1.68628,0,0,0,0,0,0,0,-1,608,1324,-14.9988,-1.68627
-609,-300,-15.5027,3.29907,0,0,0,0,0,0,0,-1,615,1324,-15.5027,-3.29902
-602,-300,-42.3108,13.1433,0,0,0,0,0,0,0,-1,622,1324,-42.3108,-13.1433
-595,-300,-190.719,30.7323,0,0,0,0,0,0,0,-1,629,1324,-190.719,-30.7323
-588,-300,-190.709,32.7308,-0.00448659,0.0540279,-0.0262787,0.0640969,-0.0145556,-1.20489,0.0483196,0.0278155,636,1324,-190.709,-32.7308
-581,-300,-191.053,34.6543,0.000759769,0.0486028,-0.0236194,0.0582985,-0.00893591,-1.18127,0.0421612,0.0323484,643,1324,-191.053,-34.6543
-574,-300,-191.237,36.6642,0.00635928,0.0432076,-0.0206277,0.0524413,-0.00287434,-1.14991,0.0359573,0.039487,650,1324,-191.237,-36.6641
-567,-300,-191.106,38.7795,0,0,0,0,0,0,0,-1,657,1324,-191.106,-38.7795
-560,-300,-189.504,40.9482,0,0,0,0,0,0,0,-1,664,1324,-189.504,-40.9482
-553,-300,-189.584,43.0984,0,0,0,0,0,0,0,-1,671,1324,-189.584,-43.0984
-546,-300,-189.617,45.3585,0,0,0,0,0,0,0,-1,678,1324,-189.617,-45.3586
-539,-300,-84.1171,42.1063,0,0,0,0,0,0,0,-1,685,1324,-84.1171,-42.1063
-532,-300,-63.239,34.0382,0,0,0,0,0,0,0,-1,692,1324,-63.239,-34.0382
-525,-300,-13.5115,6.27783,0,0,0,0,0,0,0,-1,699,1324,-13.5115,-6.2778
-518,-300,-9.8349,-0.537109,0,0,0,0,0,0,0,-1,706,1324,-9.83487,0.537068
-511,-300,-12.8644,0.081665,0,0,0,0,0,0,0,-1,713,1324,-12.8644,-0.0817016
-504,-300,-13.4829,-0.165527,0,0,0,0,0,0,0,-1,720,1324,-13.4829,0.165544
-497,-300,-18.1063,0.956543,0,0,0,0,0,0,0,-1,727,1324,-18.1063,-0.9565
-490,-300,-18.2293,1.53625,0,0,0,0,0,0,0,-1,734,1324,-18.2293,-1.53626
-483,-300,-18.3522,1.61084,0,0,0,0,0,0,0,-1,741,1324,-18.3522,-1.6108
-476,-300,-18.7489,1.96387,0,0,0,0,0,0,0,-1,748,1324,-18.7489,-1.96387
-469,-300,0,0,0,0,0,0,0,0,0,-1,755,1324,0,0
-462,-300,0,0,0,0,0,0,0,0,0,-1,762,1324,0,0
-455,-300,0,0,0,0,0,0,0,0,0,-1,769,1324,0,0
-448,-300,0,0,0,0,0,0,0,0,0,-1,776,1324,0,0
-441,-300,0,0,0,0,0,0,0,0,0,-1,783,1324,0,0
-434,-300,0,0,0,0,0,0,0,0,0,-1,790,1324,0,0
-427,-300,0,0,0,0,0,0,0,0,0,-1,797,1324,0,0
-420,-300,0,0,0,0,0,0,0,0,0,-1,804,1324,0,0
-413,-300,0,0,0,0,0,0,0,0,0,-1,811,1324,0,0
-406,-300,0,0,0,0,0,0,0,0,0,-1,818,1324,0,0
-399,-300,0,0,0,0,0,0,0,0,0,-1,825,1324,0,0
-392,-300,0,0,0,0,0,0,0,0,0,-1,832,1324,0,0
-385,-300,0,0,0,0,0,0,0,0,0,-1,839,1324,0,0
-378,-300,0,0,0,0,0,0,0,0,0,-1,846,1324,0,0
-371,-300,0,0,0,0,0,0,0,0,0,-1,853,1324,0,0
-364,-300,0,0,0,0,0,0,0,0,0,-1,860,1324,0,0
-357,-300,0,0,0,0,0,0,0,0,0,-1,867,1324,0,0
-350,-300,0,0,0,0,0,0,0,0,0,-1,874,1324,0,0
-343,-300,0,0,0,0,0,0,0,0,0,-1,881,1324,0,0
-336,-300,0,0,0,0,0,0,0,0,0,-1,888,1324,0,0
-329,-300,0,0,0,0,0,0,0,0,0,-1,895,1324,0,0
-322,-300,0,0,0,0,0,0,0,0,0,-1,902,1324,0,0
-315,-300,0,0,0,0,0,0,0,0,0,-1,909,1324,0,0
-308,-300,0,0,0,0,0,0,0,0,0,-1,916,1324,0,0
-301,-300,0,0,0,0,0,0,0,0,0,-1,923,1324,0,0
-294,-300,0,0,0,0,0,0,0,0,0,-1,930,1324,0,0
-287,-300,0,0,0,0,0,0,0,0,0,-1,937,1324,0,0
-280,-300,0,0,0,0,0,0,0,0,0,-1,944,1324,0,0
-273,-300,0,0,0,0,0,0,0,0,0,-1,951,1324,0,0
-266,-300,0,0,0,0,0,0,0,0,0,-1,958,1324,0,0
-259,-300,0,0,0,0,0,0,0,0,0,-1,965,1324,0,0
-252,-300,0,0,0,0,0,0,0,0,0,-1,972,1324,0,0
-245,-300,0,0,0,0,0,0,0,0,0,-1,979,1324,0,0
-238,-300,0,0,0,0,0,0,0,0,0,-1,986,1324,0,0
-231,-300,0,0,0,0,0,0,0,0,0,-1,993,1324,0,0
-224,-300,0,0,0,0,0,0,0,0,0,-1,1000,1324,0,0
-217,-300,0,0,0,0,0,0,0,0,0,-1,1007,1324,0,0
-210,-300,0,0,0,0,0,0,0,0,0,-1,1014,1324,0,0
-203,-300,0,0,0,0,0,0,0,0,0,-1,1021,1324,0,0
-196,-300,0,0,0,0,0,0,0,0,0,-1,1028,1324,0,0
-189,-300,0,0,0,0,0,0,0,0,0,-1,1035,1324,0,0
-182,-300,0,0,0,0,0,0,0,0,0,-1,1042,1324,0,0
-175,-300,0,0,0,0,0,0,0,0,0,-1,1049,1324,0,0
-168,-300,0,0,0,0,0,0,0,0,0,-1,1056,1324,0,0
-161,-300,0,0,0,0,0,0,0,0,0,-1,1063,1324,0,0
-154,-300,0,0,0,0,0,0,0,0,0,-1,1070,1324,0,0
-147,-300,0,0,0,0,0,0,0,0,0,-1,1077,1324,0,0
-140,-300,0,0,0,0,0,0,0,0,0,-1,1084,1324,0,0
-133,-300,0,0,0,0,0,0,0,0,0,-1,1091,1324,0,0
-126,-300,0,0,0,0,0,0,0,0,0,-1,1098,1324,0,0
-119,-300,0,0,0,0,0,0,0,0,0,-1,1105,1324,0,0
-112,-300,0,0,0,0,0,0,0,0,0,-1,1112,1324,0,0
-105,-300,0,0,0,0,0,0,0,0,0,-1,1119,1324,0,0
-98,-300,0,0,0,0,0,0,0,0,0,-1,1126,1324,0,0
-91,-300,0,0,0,0,0,0,0,0,0,-1,1133,1324,0,0
-84,-300,0,0,0,0,0,0,0,0,0,-1,1140,1324,0,0
-77,-300,0,0,0,0,0,0,0,0,0,-1,1147,1324,0,0
-70,-300,0,0,0,0,0,0,0,0,0,-1,1154,1324,0,0
-63,-300,0,0,0,0,0,0,0,0,0,-1,1161,1324,0,0
-56,-300,0,0,0,0,0,0,0,0,0,-1,1168,1324,0,0
-49,-300,0,0,0,0,0,0,0,0,0,-1,1175,1324,0,0
-42,-300,0,0,0,0,0,0,0,0,0,-1,1182,1324,0,0
-35,-300,0,0,0,0,0,0,0,0,0,-1,1189,1324,0,0
-28,-300,0,0,0,0,0,0,0,0,0,-1,1196,1324,0,0
-21,-300,0,0,0,0,0,0,0,0,0,-1,1203,1324,0,0
-14,-300,0,0,0,0,0,0,0,0,0,-1,1210,1324,0,0
-7,-300,0,0,0,0,0,0,0,0,0,-1,1217,1324,0,0
0,-300,0,0,0,0,0,0,0,0,0,-1,1224,1324,0,0
7,-300,0,0,0,0,0,0,0,0,0,-1,1231,1324,0,0
14,-300,0,0,0,0,0,0,0,0,0,-1,1238,1324,0,0
21,-300,0,0,0,0,0,0,0,0,0,-1,1245,1324,0,0
28,-300,0,0,0,0,0,0,0,0,0,-1,1252,1324,0,0
35,-300,0,0,0,0,0,0,0,0,0,-1,1259,1324,0,0
42,-300,0,0,0,0,0,0,0,0,0,-1,1266,1324,0,0
49,-300,0,0,0,0,0,0,0,0,0,-1,1273,1324,0,0
56,-300,0,0,0,0,0,0,0,0,0,-1,1280,1324,0,0
63,-300,0,0,0,0,0,0,0,0,0,-1,1287,1324,0,0
70,-300,0,0,0,0,0,0,0,0,0,-1,1294,1324,0,0
77,-300,0,0,0,0,0,0,0,0,0,-1,1301,1324,0,0
84,-300,0,0,0,0,0,0,0,0,0,-1,1308,1324,0,0
91,-300,0,0,0,0,0,0,0,0,0,-1,1315,1324,0,0
98,-300,0,0,0,0,0,0,0,0,0,-1,1322,1324,0,0
105,-300,0,0,0,0,0,0,0,0,0,-1,1329,1324,0,0
112,-300,0,0,0,0,0,0,0,0,0,-1,1336,1324,0,0
119,-300,0,0,0,0,0,0,0,0,0,-1,1343,1324,0,0
126,-300,0,0,0,0,0,0,0,0,0,-1,1350,1324,0,0
133,-300,0,0,0,0,0,0,0,0,0,-1,1357,1324,0,0
140,-300,0,0,0,0,0,0,0,0,0,-1,1364,1324,0,0
147,-300,0,0,0,0,0,0,0,0,0,-1,1371,1324,0,0
154,-300,0,0,0,0,0,0,0,0,0,-1,1378,1324,0,0
161,-300,0,0,0,0,0,0,0,0,0,-1,1385,1324,0,0
168,-300,0,0,0,0,0,0,0,0,0,-1,1392,1324,0,0
175,-300,0,0,0,0,0,0,0,0,0,-1,1399,1324,0,0
182,-300,0,0,0,0,0,0,0,0,0,-1,1406,1324,0,0
189,-300,0,0,0,0,0,0,0,0,0,-1,1413,1324,0,0
196,-300,0,0,0,0,0,0,0,0,0,-1,1420,1324,0,0
203,-300,0,0,0,0,0,0,0,0,0,-1,1427,1324,0,0
210,-300,0,0,0,0,0,0,0,0,0,-1,1434,1324,0,0
217,-300,0,0,0,0,0,0,0,0,0,-1,1441,1324,0,0
224,-300,0,0,0,0,0,0,0,0,0,-1,1448,1324,0,0
231,-300,0,0,0,0,0,0,0,0,0,-1,1455,1324,0,0
238,-300,0,0,0,0,0,0,0,0,0,-1,1462,1324,0,0
245,-300,0,0,0,0,0,0,0,0,0,-1,1469,1324,0,0
252,-300,0,0,0,0,0,0,0,0,0,-1,1476,1324,0,0
259,-300,0,0,0,0,0,0,0,0,0,-1,1483,1324,0,0
266,-300,0,0,0,0,0,0,0,0,0,-1,1490,1324,0,0
273,-300,0,0,0,0,0,0,0,0,0,-1,1497,1324,0,0
280,-300,0,0,0,0,0,0,0,0,0,-1,1504,1324,0,0
287,-300,0,0,0,0,0,0,0,0,0,-1,1511,1324,0,0
294,-300,0,0,0,0,0,0,0,0,0,-1,1518,1324,0,0
301,-300,0,0,0,0,0,0,0,0,0,-1,1525,1324,0,0
308,-300,0,0,0,0,0,0,0,0,0,-1,1532,1324,0,0
315,-300,0,0,0,0,0,0,0,0,0,-1,1539,1324,0,0
322,-300,0,0,0,0,0,0,0,0,0,-1,1546,1324,0,0
329,-300,0,0,0,0,0,0,0,0,0,-1,1553,1324,0,0
336,-300,0,0,0,0,0,0,0,0,0,-1,1560,1324,0,0
343,-300,0,0,0,0,0,0,0,0,0,-1,1567,1324,0,0
350,-300,0,0,0,0,0,0,0,0,0,-1,1574,1324,0,0
357,-300,0,0,0,0,0,0,0,0,0,-1,1581,1324,0,0
364,-300,0,0,0,0,0,0,0,0,0,-1,1588,1324,0,0
371,-300,0,0,0,0,0,0,0,0,0,-1,1595,1324,0,0
378,-300,0,0,0,0,0,0,0,0,0,-1,1602,1324,0,0
385,-300,0,0,0,0,0,0,0,0,0,-1,1609,1324,0,0
392,-300,0,0,0,0,0,0,0,0,0,-1,1616,1324,0,0
399,-300,0,0,0,0,0,0,0,0,0,-1,1623,1324,0,0
406,-300,0,0,0,0,0,0,0,0,0,-1,1630,1324,0,0
413,-300,0,0,0,0,0,0,0,0,0,-1,1637,1324,0,0
420,-300,0,0,0,0,0,0,0,0,0,-1,1644,1324,0,0
427,-300,0,0,0,0,0,0,0,0,0,-1,1651,1324,0,0
434,-300,0,0,0,0,0,0,0,0,0,-1,1658,1324,0,0
441,-300,0,0,0,0,0,0,0,0,0,-1,1665,1324,0,0
448,-300,0,0,0,0,0,0,0,0,0,-1,1672,1324,0,0
455,-300,0,0,0,0,0,0,0,0,0,-1,1679,1324,0,0
462,-300,0,0,0,0,0,0,0,0,0,-1,1686,1324,0,0
469,-300,0,0,0,0,0,0,0,0,0,-1,1693,1324,0,0
476,-300,0,0,0,0,0,0,0,0,0,-1,1700,1324,0,0
483,-300,0,0,0,0,0,0,0,0,0,-1,1707,1324,0,0
490,-300,0,0,0,0,0,0,0,0,0,-1,1714,1324,0,0
497,-300,0,0,0,0,0,0,0,0,0,-1,1721,1324,0,0
504,-300,0,0,0,0,0,0,0,0,0,-1,1728,1324,0,0
511,-300,0,0,0,0,0,0,0,0,0,-1,1735,1324,0,0
518,-300,0,0,0,0,0,0,0,0,0,-1,1742,1324,0,0
525,-300,0,0,0,0,0,0,0,0,0,-1,1749,1324,0,0
532,-300,0,0,0,0,0,0,0,0,0,-1,1756,1324,0,0
539,-300,0,0,0,0,0,0,0,0,0,-1,1763,1324,0,0
546,-300,0,0,0,0,0,0,0,0,0,-1,1770,1324,0,0
553,-300,0,0,0,0,0,0,0,0,0,-1,1777,1324,0,0
560,-300,0,0,0,0,0,0,0,0,0,-1,1784,1324,0,0
567,-300,0,0,0,0,0,0,0,0,0,-1,1791,1324,0,0
574,-300,0,0,0,0,0,0,0,0,0,-1,1798,1324,0,0
581,-300,0,0,0,0,0,0,0,0,0,-1,1805,1324,0,0
588,-300,66.4561,1.99207,0,0,0,0,0,0,0,-1,1812,1324,66.456,-1.99202
595,-300,66.4685,1.95496,0,0,0,0,0,0,0,-1,1819,1324,66.4685,-1.95499
602,-300,66.5259,1.72363,0,0,0,0,0,0,0,-1,1826,1324,66.5259,-1.72367
609,-300,64.2576,2.90149,0,0,0,0,0,0,0,-1,1833,1324,64.2575,-2.90154
616,-300,65.1267,2.84033,0,0,0,0,0,0,0,-1,1840,1324,65.1267,-2.84037
623,-300,47.4474,2.43188,0,0,0,0,0,0,0,-1,1847,1324,47.4474,-2.43194
630,-300,42.4099,3.9165,0,0,0,0,0,0,0,-1,1854,1324,42.4099,-3.91649
637,-300,31.1719,4.6366,0,0,0,0,0,0,0,-1,1861,1324,31.1718,-4.63665
644,-300,22.9836,3.44934,0,0,0,0,0,0,0,-1,1868,1324,22.9836,-3.4493
651,-300,25.5004,9.11853,0,0,0,0,0,0,0,-1,1875,1324,25.5004,-9.11851
658,-300,25.4012,9.20032,0,0,0,0,0,0,0,-1,1882,1324,25.4012,-9.20036
665,-300,91.6304,40.3275,0,0,0,0,0,0,0,-1,1889,1324,91.6304,-40.3276
672,-300,105.809,45.0531,0,0,0,0,0,0,0,-1,1896,1324,105.809,-45.0531
679,-300,199.972,48.3912,0,0,0,0,0,0,0,-1,1903,1324,199.972,-48.3912
686,-300,199.704,46.8573,0,0,0,0,0,0,0,-1,1910,1324,199.704,-46.8573
693,-300,198.571,43.8009,0,0,0,0,0,0,0,-1,1917,1324,198.571,-43.8009
700,-300,198.24,41.5581,-0.00944127,0.0288392,0.0179783,0.0359586,-0.0165607,1.19374,0.0310038,0.0258355,1924,1324,198.24,-41.5581
707,-300,197.844,39.4728,-0.0109583,0.0324581,0.0207312,0.040767,-0.0192672,1.18961,0.0353939,0.0162323,1931,1324,197.844,-39.4728
714,-300,197.512,37.3988,-0.0128655,0.0360591,0.0239549,0.0458348,-0.0226412,1.18334,0.0402835,0.0200397,1938,1324,197.512,-37.3988
721,-300,197.119,35.3905,-0.0152048,0.0396964,0.0276465,0.0512056,-0.0267139,1.17632,0.0457216,0.0219676,1945,1324,197.119,-35.3905
728,-300,196.698,33.3723,0,0,0,0,0,0,0,-1,1952,1324,196.698,-33.3723
735,-300,193.283,32.2756,0,0,0,0,0,0,0,-1,1959,1324,193.283,-32.2756
742,-300,101.949,26.0653,0,0,0,0,0,0,0,-1,1966,1324,101.949,-26.0653
749,-300,27.4065,5.9718,0,0,0,0,0,0,0,-1,1973,1324,27.4065,-5.97181
756,-300,22.1423,3.45642,0,0,0,0,0,0,0,-1,1980,1324,22.1423,-3.45638
763,-300,22.6136,5.1571,0,0,0,0,0,0,0,-1,1987,1324,22.6136,-5.15706
770,-300,24.859,4.77979,0,0,0,0,0,0,0,-1,1994,1324,24.859,-4.77972
777,-300,0,0,0,0,0,0,0,0,0,-1,2001,1324,0,0
784,-300,0,0,0,0,0,0,0,0,0,-1,2008,1324,0,0
791,-300,0,0,0,0,0,0,0,0,0,-1,2015,1324,0,0
798,-300,0,0,0,0,0,0,0,0,0,-1,2022,1324,0,0
805,-300,0,0,0,0,0,0,0,0,0,-1,2029,1324,0,0
812,-300,0,0,0,0,0,0,0,0,0,-1,2036,1324,0,0
-700,-307,0,0,0,0,0,0,0,0,0,-1,524,1331,0,0
-693,-307,0,0,0,0,0,0,0,0,0,-1,531,1331,0,0
-686,-307,0,0,0,0,0,0,0,0,0,-1,538,1331,0,0
-679,-307,0,0,0,0,0,0,0,0,0,-1,545,1331,0,0
-672,-307,0,0,0,0,0,0,0,0,0,-1,552,1331,0,0
-665,-307,0,0,0,0,0,0,0,0,0,-1,559,1331,0,0
-658,-307,0,0,0,0,0,0,0,0,0,-1,566,1331,0,0
-651,-307,-40.7436,1.98755,0,0,0,0,0,0,0,-1,573,1331,-40.7436,-1.98753
-644,-307,-41.7838,1.24817,0,0,0,0,0,0,0,-1,580,1331,-41.7838,-1.2482
-637,-307,-41.9006,0.477783,0,0,0,0,0,0,0,-1,587,1331,-41.9006,-0.477844
-630,-307,-12.0005,0.767212,0,0,0,0,0,0,0,-1,594,1331,-12.0005,-0.767266
-623,-307,-12.2128,2.93811,0,0,0,0,0,0,0,-1,601,1331,-12.2128,-2.93813
-616,-307,-12.6612,2.08289,0,0,0,0,0,0,0,-1,608,1331,-12.6612,-2.08293
-609,-307,-12.2767,1.83228,0,0,0,0,0,0,0,-1,615,1331,-12.2768,-1.83224
-602,-307,-27.5659,6.93335,0,0,0,0,0,0,0,-1,622,1331,-27.5658,-6.9333
-595,-307,-187.968,30.8589,0,0,0,0,0,0,0,-1,629,1331,-187.968,-30.8589
-588,-307,-188.258,32.8551,-0.00569337,0.0567703,-0.0267816,0.0666806,-0.0156037,-1.21638,0.0504656,0.035228,636,1331,-188.258,-32.8551
-581,-307,-188.628,34.8148,3.55785e-05,0.0512311,-0.024817,0.0612863,-0.0100196,-1.18584,0.0445743,0.0250947,643,1331,-188.628,-34.8148
-574,-307,-188.888,36.8315,0.0056785,0.0459534,-0.0228094,0.0562426,-0.00461078,-1.14703,0.0391227,0.0266878,650,1331,-188.888,-36.8316
-567,-307,-189.124,39.1212,0.0111067,0.040871,-0.0208871,0.0516355,0.000342224,-1.09493,0.0343102,0.039109,657,1331,-189.124,-39.1213
-560,-307,-189.486,41.528,0,0,0,0,0,0,0,-1,664,1331,-189.486,-41.5279
-553,-307,-187.188,43.1907,0,0,0,0,0,0,0,-1,671,1331,-187.188,-43.1907
-546,-307,-187.341,45.3569,0,0,0,0,0,0,0,-1,678,1331,-187.341,-45.357
-539,-307,-165.706,50.8354,0,0,0,0,0,0,0,-1,685,1331,-165.706,-50.8355
-532,-307,-82.0417,43.2467,0,0,0,0,0,0,0,-1,692,1331,-82.0417,-43.2467
-525,-307,-13.2009,6.91309,0,0,0,0,0,0,0,-1,699,1331,-13.2009,-6.9131
-518,-307,-9.77777,-1.56653,0,0,0,0,0,0,0,-1,706,1331,-9.77777,1.56651
-511,-307,-12.5226,0.26709,0,0,0,0,0,0,0,-1,713,1331,-12.5226,-0.267038
-504,-307,-12.5913,-0.308105,0,0,0,0,0,0,0,-1,720,1331,-12.5913,0.308124
-497,-307,-13.8586,-0.115845,0,0,0,0,0,0,0,-1,727,1331,-13.8587,0.115861
-490,-307,-17.9429,0.982178,0,0,0,0,0,0,0,-1,734,1331,-17.9429,-0.982198
-483,-307,-18.1066,0.927612,0,0,0,0,0,0,0,-1,741,1331,-18.1066,-0.927609
-476,-307,-18.1288,1.1228,0,0,0,0,0,0,0,-1,748,1331,-18.1289,-1.12286
-469,-307,-18.2028,0.798584,0,0,0,0,0,0,0,-1,755,1331,-18.2027,-0.798546
-462,-307,0,0,0,0,0,0,0,0,0,-1,762,1331,0,0
-455,-307,0,0,0,0,0,0,0,0,0,-1,769,1331,0,0
-448,-307,0,0,0,0,0,0,0,0,0,-1,776,1331,0,0
-441,-307,0,0,0,0,0,0,0,0,0,-1,783,1331,0,0
-434,-307,0,0,0,0,0,0,0,0,0,-1,790,1331,0,0
-427,-307,0,0,0,0,0,0,0,0,0,-1,797,1331,0,0
-420,-307,0,0,0,0,0,0,0,0,0,-1,804,1331,0,0
-413,-307,0,0,0,0,0,0,0,0,0,-1,811,1331,0,0
-406,-307,0,0,0,0,0,0,0,0,0,-1,818,1331,0,0
-399,-307,0,0,0,0,0,0,0,0,0,-1,825,1331,0,0
-392,-307,0,0,0,0,0,0,0,0,0,-1,832,1331,0,0
-385,-307,0,0,0,0,0,0,0,0,0,-1,839,1331,0,0
-378,-307,0,0,0,0,0,0,0,0,0,-1,846,1331,0,0
-371,-307,0,0,0,0,0,0,0,0,0,-1,853,1331,0,0
-364,-307,0,0,0,0,0,0,0,0,0,-1,860,1331,0,0
-357,-307,0,0,0,0,0,0,0,0,0,-1,867,1331,0,0
-350,-307,0,0,0,0,0,0,0,0,0,-1,874,1331,0,0
-343,-307,0,0,0,0,0,0,0,0,0,-1,881,1331,0,0
-336,-307,0,0,0,0,0,0,0,0,0,-1,888,1331,0,0
-329,-307,0,0,0,0,0,0,0,0,0,-1,895,1331,0,0
-322,-307,0,0,0,0,0,0,0,0,0,-1,902,1331,0,0
-315,-307,0,0,0,0,0,0,0,0,0,-1,909,1331,0,0
-308,-307,0,0,0,0,0,0,0,0,0,-1,916,1331,0,0
-301,-307,0,0,0,0,0,0,0,0,0,-1,923,1331,0,0
-294,-307,0,0,0,0,0,0,0,0,0,-1,930,1331,0,0
-287,-307,0,0,0,0,0,0,0,0,0,-1,937,1331,0,0
-280,-307,0,0,0,0,0,0,0,0,0,-1,944,1331,0,0
-273,-307,0,0,0,0,0,0,0,0,0,-1,951,1331,0,0
-266,-307,0,0,0,0,0,0,0,0,0,-1,958,1331,0,0
-259,-307,0,0,0,0,0,0,0,0,0,-1,965,1331,0,0
-252,-307,0,0,0,0,0,0,0,0,0,-1,972,1331,0,0
-245,-307,0,0,0,0,0,0,0,0,0,-1,979,1331,0,0
-238,-307,0,0,0,0,0,0,0,0,0,-1,986,1331,0,0
-231,-307,0,0,0,0,0,0,0,0,0,-1,993,1331,0,0
-224,-307,0,0,0,0,0,0,0,0,0,-1,1000,1331,0,0
-217,-307,0,0,0,0,0,0,0,0,0,-1,1007,1331,0,0
-210,-307,0,0,0,0,0,0,0,0,0,-1,1014,1331,0,0
-203,-307,0,0,0,0,0,0,0,0,0,-1,1021,1331,0,0
-196,-307,0,0,0,0,0,0,0,0,0,-1,1028,1331,0,0
-189,-307,0,0,0,0,0,0,0,0,0,-1,1035,1331,0,0
-182,-307,0,0,0,0,0,0,0,0,0,-1,1042,1331,0,0
-175,-307,0,0,0,0,0,0,0,0,0,-1,1049,1331,0,0
-168,-307,0,0,0,0,0,0,0,0,0,-1,1056,1331,0,0
-161,-307,0,0,0,0,0,0,0,0,0,-1,1063,1331,0,0
-154,-307,0,0,0,0,0,0,0,0,0,-1,1070,1331,0,0
-147,-307,0,0,0,0,0,0,0,0,0,-1,1077,1331,0,0
-140,-307,0,0,0,0,0,0,0,0,0,-1,1084,1331,0,0
-133,-307,0,0,0,0,0,0,0,0,0,-1,1091,1331,0,0
-126,-307,0,0,0,0,0,0,0,0,0,-1,1098,1331,0,0
-119,-307,0,0,0,0,0,0,0,0,0,-1,1105,1331,0,0
-112,-307,0,0,0,0,0,0,0,0,0,-1,1112,1331,0,0
-105,-307,0,0,0,0,0,0,0,0,0,-1,1119,1331,0,0
-98,-307,0,0,0,0,0,0,0,0,0,-1,1126,1331,0,0
-91,-307,0,0,0,0,0,0,0,0,0,-1,1133,1331,0,0
-84,-307,0,0,0,0,0,0,0,0,0,-1,1140,1331,0,0
-77,-307,0,0,0,0,0,0,0,0,0,-1,1147,1331,0,0
-70,-307,0,0,0,0,0,0,0,0,0,-1,1154,1331,0,0
-63,-307,0,0,0,0,0,0,0,0,0,-1,1161,1331,0,0
-56,-307,0,0,0,0,0,0,0,0,0,-1,1168,1331,0,0
-49,-307,0,0,0,0,0,0,0,0,0,-1,1175,1331,0,0
-42,-307,0,0,0,0,0,0,0,0,0,-1,1182,1331,0,0
-35,-307,0,0,0,0,0,0,0,0,0,-1,1189,1331,0,0
-28,-307,0,0,0,0,0,0,0,0,0,-1,1196,1331,0,0
-21,-307,0,0,0,0,0,0,0,0,0,-1,1203,1331,0,0
-14,-307,0,0,0,0,0,0,0,0,0,-1,1210,1331,0,0
-7,-307,0,0,0,0,0,0,0,0,0,-1,1217,1331,0,0
0,-307,0,0,0,0,0,0,0,0,0,-1,1224,1331,0,0
7,-307,0,0,0,0,0,0,0,0,0,-1,1231,1331,0,0
14,-307,0,0,0,0,0,0,0,0,0,-1,1238,1331,0,0
21,-307,0,0,0,0,0,0,0,0,0,-1,1245,1331,0,0
28,-307,0,0,0,0,0,0,0,0,0,-1,1252,1331,0,0
35,-307,0,0,0,0,0,0,0,0,0,-1,1259,1331,0,0
42,-307,0,0,0,0,0,0,0,0,0,-1,1266,1331,0,0
49,-307,0,0,0,0,0,0,0,0,0,-1,1273,1331,0,0
56,-307,0,0,0,0,0,0,0,0,0,-1,1280,1331,0,0
63,-307,0,0,0,0,0,0,0,0,0,-1,1287,1331,0,0
70,-307,0,0,0,0,0,0,0,0,0,-1,1294,1331,0,0
77,-307,0,0,0,0,0,0,0,0,0,-1,1301,1331,0,0
84,-307,0,0,0,0,0,0,0,0,0,-1,1308,1331,0,0
91,-307,0,0,0,0,0,0,0,0,0,-1,1315,1331,0,0
98,-307,0,0,0,0,0,0,0,0,0,-1,1322,1331,0,0
105,-307,0,0,0,0,0,0,0,0,0,-1,1329,1331,0,0
112,-307,0,0,0,0,0,0,0,0,0,-1,1336,1331,0,0
119,-307,0,0,0,0,0,0,0,0,0,-1,1343,1331,0,0
126,-307,0,0,0,0,0,0,0,0,0,-1,1350,1331,0,0
133,-307,0,0,0,0,0,0,0,0,0,-1,1357,1331,0,0
140,-307,0,0,0,0,0,0,0,0,0,-1,1364,1331,0,0
147,-307,0,0,0,0,0,0,0,0,0,-1,1371,1331,0,0
154,-307,0,0,0,0,0,0,0,0,0,-1,1378,1331,0,0
161,-307,0,0,0,0,0,0,0,0,0,-1,1385,1331,0,0
168,-307,0,0,0,0,0,0,0,0,0,-1,1392,1331,0,0
175,-307,0,0,0,0,0,0,0,0,0,-1,1399,1331,0,0
182,-307,0,0,0,0,0,0,0,0,0,-1,1406,1331,0,0
189,-307,0,0,0,0,0,0,0,0,0,-1,1413,1331,0,0
196,-307,0,0,0,0,0,0,0,0,0,-1,1420,1331,0,0
203,-307,0,0,0,0,0,0,0,0,0,-1,1427,1331,0,0
210,-307,0,0,0,0,0,0,0,0,0,-1,1434,1331,0,0
217,-307,0,0,0,0,0,0,0,0,0,-1,1441,1331,0,0
224,-307,0,0,0,0,0,0,0,0,0,-1,1448,1331,0,0
231,-307,0,0,0,0,0,0,0,0,0,-1,1455,1331,0,0
238,-307,0,0,0,0,0,0,0,0,0,-1,1462,1331,0,0
245,-307,0,0,0,0,0,0,0,0,0,-1,1469,1331,0,0
252,-307,0,0,0,0,0,0,0,0,0,-1,1476,1331,0,0
259,-307,0,0,0,0,0,0,0,0,0,-1,1483,1331,0,0
266,-307,0,0,0,0,0,0,0,0,0,-1,1490,1331,0,0
273,-307,0,0,0,0,0,0,0,0,0,-1,1497,1331,0,0
280,-307,0,0,0,0,0,0,0,0,0,-1,1504,1331,0,0
287,-307,0,0,0,0,0,0,0,0,0,-1,1511,1331,0,0
294,-307,0,0,0,0,0,0,0,0,0,-1,1518,1331,0,0
301,-307,0,0,0,0,0,0,0,0,0,-1,1525,1331,0,0
308,-307,0,0,0,0,0,0,0,0,0,-1,1532,1331,0,0
315,-307,0,0,0,0,0,0,0,0,0,-1,1539,1331,0,0
322,-307,0,0,0,0,0,0,0,0,0,-1,1546,1331,0,0
329,-307,0,0,0,0,0,0,0,0,0,-1,1553,1331,0,0
336,-307,0,0,0,0,0,0,0,0,0,-1,1560,1331,0,0
343,-307,0,0,0,0,0,0,0,0,0,-1,1567,1331,0,0
350,-307,0,0,0,0,0,0,0,0,0,-1,1574,1331,0,0
357,-307,0,0,0,0,0,0,0,0,0,-1,1581,1331,0,0
364,-307,0,0,0,0,0,0,0,0,0,-1,1588,1331,0,0
371,-307,0,0,0,0,0,0,0,0,0,-1,1595,1331,0,0
378,-307,0,0,0,0,0,0,0,0,0,-1,1602,1331,0,0
385,-307,0,0,0,0,0,0,0,0,0,-1,1609,1331,0,0
392,-307,0,0,0,0,0,0,0,0,0,-1,1616,1331,0,0
399,-307,0,0,0,0,0,0,0,0,0,-1,1623,1331,0,0
406,-307,0,0,0,0,0,0,0,0,0,-1,1630,1331,0,0
413,-307,0,0,0,0,0,0,0,0,0,-1,1637,1331,0,0
420,-307,0,0,0,0,0,0,0,0,0,-1,1644,1331,0,0
427,-307,0,0,0,0,0,0,0,0,0,-1,1651,1331,0,0
434,-307,0,0,0,0,0,0,0,0,0,-1,1658,1331,0,0
441,-307,0,0,0,0,0,0,0,0,0,-1,1665,1331,0,0
448,-307,0,0,0,0,0,0,0,0,0,-1,1672,1331,0,0
455,-307,0,0,0,0,0,0,0,0,0,-1,1679,1331,0,0
462,-307,0,0,0,0,0,0,0,0,0,-1,1686,1331,0,0
469,-307,0,0,0,0,0,0,0,0,0,-1,1693,1331,0,0
476,-307,0,0,0,0,0,0,0,0,0,-1,1700,1331,0,0
483,-307,0,0,0,0,0,0,0,0,0,-1,1707,1331,0,0
490,-307,0,0,0,0,0,0,0,0,0,-1,1714,1331,0,0
497,-307,0,0,0,0,0,0,0,0,0,-1,1721,1331,0,0
504,-307,0,0,0,0,0,0,0,0,0,-1,1728,1331,0,0
511,-307,0,0,0,0,0,0,0,0,0,-1,1735,1331,0,0
518,-307,0,0,0,0,0,0,0,0,0,-1,1742,1331,0,0
525,-307,0,0,0,0,0,0,0,0,0,-1,1749,1331,0,0
532,-307,0,0,0,0,0,0,0,0,0,-1,1756,1331,0,0
539,-307,0,0,0,0,0,0,0,0,0,-1,1763,1331,0,0
546,-307,0,0,0,0,0,0,0,0,0,-1,1770,1331,0,0
553,-307,0,0,0,0,0,0,0,0,0,-1,1777,1331,0,0
560,-307,0,0,0,0,0,0,0,0,0,-1,1784,1331,0,0
567,-307,0,0,0,0,0,0,0,0,0,-1,1791,1331,0,0
574,-307,0,0,0,0,0,0,0,0,0,-1,1798,1331,0,0
581,-307,0,0,0,0,0,0,0,0,0,-1,1805,1331,0,0
588,-307,66.5917,1.60864,0,0,0,0,0,0,0,-1,1812,1331,66.5917,-1.60867
595,-307,66.708,1.85352,0,0,0,0,0,0,0,-1,1819,1331,66.708,-1.85351
602,-307,66.111,1.49976,0,0,0,0,0,0,0,-1,1826,1331,66.1109,-1.49974
609,-307,63.8848,2.78992,0,0,0,0,0,0,0,-1,1833,1331,63.8848,-2.78989
616,-307,53.2878,0.135498,0,0,0,0,0,0,0,-1,1840,1331,53.2878,-0.135477
623,-307,44.3966,2.84888,0,0,0,0,0,0,0,-1,1847,1331,44.3966,-2.84884
630,-307,29.8116,1.51184,0,0,0,0,0,0,0,-1,1854,1331,29.8116,-1.51188
637,-307,24.6407,4.09106,0,0,0,0,0,0,0,-1,1861,1331,24.6407,-4.09103
644,-307,22.6885,5.80408,0,0,0,0,0,0,0,-1,1868,1331,22.6884,-5.80408
651,-307,17.5013,5.80078,0,0,0,0,0,0,0,-1,1875,1331,17.5014,-5.80072
658,-307,37.4427,13.9775,0,0,0,0,0,0,0,-1,1882,1331,37.4427,-13.9776
665,-307,104.043,47.2717,0,0,0,0,0,0,0,-1,1889,1331,104.043,-47.2717
672,-307,197.697,50.7338,0,0,0,0,0,0,0,-1,1896,1331,197.697,-50.7337
679,-307,197.213,48.5314,-0.00774896,0.0180819,0.0142221,0.0243779,-0.0140449,1.15404,0.0224492,0.0412097,1903,1331,197.213,-48.5314
686,-307,196.909,46.5143,-0.00811836,0.0223251,0.0157313,0.0289934,-0.0147867,1.16987,0.0257163,0.0495974,1910,1331,196.909,-46.5143
693,-307,196.678,43.8861,0,0,0,0,0,0,0,-1,1917,1331,196.678,-43.8861
700,-307,195.854,41.7778,-0.00934941,0.0303163,0.0199449,0.0386107,-0.0176437,1.17669,0.033222,0.0260668,1924,1331,195.854,-41.7778
707,-307,195.246,39.7638,-0.0102787,0.0341322,0.022542,0.0435689,-0.0197154,1.17434,0.0373924,0.0269593,1931,1331,195.246,-39.7637
714,-307,194.971,37.5994,-0.0114538,0.0379082,0.0254655,0.0486905,-0.0222361,1.17028,0.0418882,0.0213231,1938,1331,194.972,-37.5993
721,-307,194.649,35.6224,-0.0128989,0.0417003,0.0286942,0.0540066,-0.0252052,1.16565,0.0467297,0.0250187,1945,1331,194.649,-35.6224
728,-307,194.307,33.6199,0,0,0,0,0,0,0,-1,1952,1331,194.307,-33.6198
735,-307,100.371,27.8601,0,0,0,0,0,0,0,-1,1959,1331,100.371,-27.86
742,-307,26.677,6.09192,0,0,0,0,0,0,0,-1,1966,1331,26.677,-6.0919
749,-307,26.7727,5.9032,0,0,0,0,0,0,0,-1,1973,1331,26.7727,-5.90323
756,-307,27.1556,5.74756,0,0,0,0,0,0,0,-1,1980,1331,27.1557,-5.7475
763,-307,18.7522,3.55298,0,0,0,0,0,0,0,-1,1987,1331,18.7522,-3.55301
770,-307,0,0,0,0,0,0,0,0,0,-1,1994,1331,0,0
777,-307,0,0,0,0,0,0,0,0,0,-1,2001,1331,0,0
784,-307,0,0,0,0,0,0,0,0,0,-1,2008,1331,0,0
791,-307,0,0,0,0,0,0,0,0,0,-1,2015,1331,0,0
798,-307,0,0,0,0,0,0,0,0,0,-1,2022,1331,0,0
805,-307,0,0,0,0,0,0,0,0,0,-1,2029,1331,0,0
812,-307,0,0,0,0,0,0,0,0,0,-1,2036,1331,0,0
-700,-314,0,0,0,0,0,0,0,0,0,-1,524,1338,0,0
-693,-314,0,0,0,0,0,0,0,0,0,-1,531,1338,0,0
-686,-314,0,0,0,0,0,0,0,0,0,-1,538,1338,0,0
-679,-314,0,0,0,0,0,0,0,0,0,-1,545,1338,0,0
-672,-314,0,0,0,0,0,0,0,0,0,-1,552,1338,0,0
-665,-314,0,0,0,0,0,0,0,0,0,-1,559,1338,0,0
-658,-314,0,0,0,0,0,0,0,0,0,-1,566,1338,0,0
-651,-314,0,0,0,0,0,0,0,0,0,-1,573,1338,0,0
-644,-314,-41.2806,1.17566,0,0,0,0,0,0,0,-1,580,1338,-41.2806,-1.17565
-637,-314,-58.369,7.97375,0,0,0,0,0,0,0,-1,587,1338,-58.369,-7.97376
-630,-314,-59.7463,6.72742,0,0,0,0,0,0,0,-1,594,1338,-59.7463,-6.72739
-623,-314,-13.3542,3.00903,0,0,0,0,0,0,0,-1,601,1338,-13.3542,-3.00907
-616,-314,-9.93311,1.15088,0,0,0,0,0,0,0,-1,608,1338,-9.93308,-1.15093
-609,-314,-9.4361,2.86292,0,0,0,0,0,0,0,-1,615,1338,-9.43612,-2.86286
-602,-314,-11.8027,2.42798,0,0,0,0,0,0,0,-1,622,1338,-11.8027,-2.42802
-595,-314,-52.7681,19.3807,0,0,0,0,0,0,0,-1,629,1338,-52.7681,-19.3807
-588,-314,-185.796,32.9381,0,0,0,0,0,0,0,-1,636,1338,-185.796,-32.9381
-581,-314,-186.036,34.9607,0.00020098,0.0539381,-0.0245316,0.0634525,-0.00931342,-1.20081,0.0457234,0.021142,643,1338,-186.036,-34.9607
-574,-314,-186.416,37.0908,0.00471324,0.0485126,-0.0247513,0.0596617,-0.00643586,-1.14757,0.0420841,0.0218523,650,1338,-186.416,-37.0908
-567,-314,-186.694,39.1907,0.00875918,0.0432432,-0.0252388,0.0565672,-0.00456485,-1.08506,0.0393215,0.0209133,657,1338,-186.694,-39.1907
-560,-314,-186.993,41.4731,0.0122471,0.0380631,-0.0260883,0.054262,-0.00395188,-1.01513,0.0375613,0.0420024,664,1338,-186.993,-41.4731
-553,-314,-187.031,43.7422,0,0,0,0,0,0,0,-1,671,1338,-187.031,-43.7422
-546,-314,-163.63,48.2896,0,0,0,0,0,0,0,-1,678,1338,-163.63,-48.2895
-539,-314,-79.5233,41.916,0,0,0,0,0,0,0,-1,685,1338,-79.5232,-41.916
-532,-314,-52.4742,29.8778,0,0,0,0,0,0,0,-1,692,1338,-52.4742,-29.8779
-525,-314,-13.3017,7.50671,0,0,0,0,0,0,0,-1,699,1338,-13.3017,-7.50669
-518,-314,-8.52753,4.70032,0,0,0,0,0,0,0,-1,706,1338,-8.52755,-4.70034
-511,-314,-11.8597,0.384888,0,0,0,0,0,0,0,-1,713,1338,-11.8597,-0.384927
-504,-314,-11.4322,-0.187378,0,0,0,0,0,0,0,-1,720,1338,-11.4322,0.187381
-497,-314,-11.0047,-0.759644,0,0,0,0,0,0,0,-1,727,1338,-11.0047,0.759689
-490,-314,-18.5143,0.471069,0,0,0,0,0,0,0,-1,734,1338,-18.5143,-0.47103
-483,-314,-17.8528,0.577271,0,0,0,0,0,0,0,-1,741,1338,-17.8528,-0.577327
-476,-314,-17.714,0.665405,0,0,0,0,0,0,0,-1,748,1338,-17.714,-0.665388
-469,-314,-17.7246,0.794678,0,0,0,0,0,0,0,-1,755,1338,-17.7246,-0.794645
-462,-314,0,0,0,0,0,0,0,0,0,-1,762,1338,0,0
-455,-314,0,0,0,0,0,0,0,0,0,-1,769,1338,0,0
-448,-314,0,0,0,0,0,0,0,0,0,-1,776,1338,0,0
-441,-314,0,0,0,0,0,0,0,0,0,-1,783,1338,0,0
-434,-314,0,0,0,0,0,0,0,0,0,-1,790,1338,0,0
-427,-314,0,0,0,0,0,0,0,0,0,-1,797,1338,0,0
-420,-314,0,0,0,0,0,0,0,0,0,-1,804,1338,0,0
-413,-314,0,0,0,0,0,0,0,0,0,-1,811,1338,0,0
-406,-314,0,0,0,0,0,0,0,0,0,-1,818,1338,0,0
-399,-314,0,0,0,0,0,0,0,0,0,-1,825,1338,0,0
-392,-314,0,0,0,0,0,0,0,0,0,-1,832,1338,0,0
-385,-314,0,0,0,0,0,0,0,0,0,-1,839,1338,0,0
-378,-314,0,0,0,0,0,0,0,0,0,-1,846,1338,0,0
-371,-314,0,0,0,0,0,0,0,0,0,-1,853,1338,0,0
-364,-314,0,0,0,0,0,0,0,0,0,-1,860,1338,0,0
-357,-314,0,0,0,0,0,0,0,0,0,-1,867,1338,0,0
-350,-314,0,0,0,0,0,0,0,0,0,-1,874,1338,0,0
-343,-314,0,0,0,0,0,0,0,0,0,-1,881,1338,0,0
-336,-314,0,0,0,0,0,0,0,0,0,-1,888,1338,0,0
-329,-314,0,0,0,0,0,0,0,0,0,-1,895,1338,0,0
-322,-314,0,0,0,0,0,0,0,0,0,-1,902,1338,0,0
-315,-314,0,0,0,0,0,0,0,0,0,-1,909,1338,0,0
-308,-314,0,0,0,0,0,0,0,0,0,-1,916,1338,0,0
-301,-314,0,0,0,0,0,0,0,0,0,-1,923,1338,0,0
-294,-314,0,0,0,0,0,0,0,0,0,-1,930,1338,0,0
-287,-314,0,0,0,0,0,0,0,0,0,-1,937,1338,0,0
-280,-314,0,0,0,0,0,0,0,0,0,-1,944,1338,0,0
-273,-314,0,0,0,0,0,0,0,0,0,-1,951,1338,0,0
-266,-314,0,0,0,0,0,0,0,0,0,-1,958,1338,0,0
-259,-314,0,0,0,0,0,0,0,0,0,-1,965,1338,0,0
-252,-314,0,0,0,0,0,0,0,0,0,-1,972,1338,0,0
-245,-314,0,0,0,0,0,0,0,0,0,-1,979,1338,0,0
-238,-314,0,0,0,0,0,0,0,0,0,-1,986,1338,0,0
-231,-314,0,0,0,0,0,0,0,0,0,-1,993,1338,0,0
-224,-314,0,0,0,0,0,0,0,0,0,-1,1000,1338,0,0
-217,-314,0,0,0,0,0,0,0,0,0,-1,1007,1338,0,0
-210,-314,0,0,0,0,0,0,0,0,0,-1,1014,1338,0,0
-203,-314,0,0,0,0,0,0,0,0,0,-1,1021,1338,0,0
-196,-314,0,0,0,0,0,0,0,0,0,-1,1028,1338,0,0
-189,-314,0,0,0,0,0,0,0,0,0,-1,1035,1338,0,0
-182,-314,0,0,0,0,0,0,0,0,0,-1,1042,1338,0,0
-175,-314,0,0,0,0,0,0,0,0,0,-1,1049,1338,0,0
-168,-314,0,0,0,0,0,0,0,0,0,-1,1056,1338,0,0
-161,-314,0,0,0,0,0,0,0,0,0,-1,1063,1338,0,0
-154,-314,0,0,0,0,0,0,0,0,0,-1,1070,1338,0,0
-147,-314,0,0,0,0,0,0,0,0,0,-1,1077,1338,0,0
-140,-314,0,0,0,0,0,0,0,0,0,-1,1084,1338,0,0
-133,-314,0,0,0,0,0,0,0,0,0,-1,1091,1338,0,0
-126,-314,0,0,0,0,0,0,0,0,0,-1,1098,1338,0,0
-119,-314,0,0,0,0,0,0,0,0,0,-1,1105,1338,0,0
-112,-314,0,0,0,0,0,0,0,0,0,-1,1112,1338,0,0
-105,-314,0,0,0,0,0,0,0,0,0,-1,1119,1338,0,0
-98,-314,0,0,0,0,0,0,0,0,0,-1,1126,1338,0,0
-91,-314,0,0,0,0,0,0,0,0,0,-1,1133,1338,0,0
-84,-314,0,0,0,0,0,0,0,0,0,-1,1140,1338,0,0
-77,-314,0,0,0,0,0,0,0,0,0,-1,1147,1338,0,0
-70,-314,0,0,0,0,0,0,0,0,0,-1,1154,1338,0,0
-63,-314,0,0,0,0,0,0,0,0,0,-1,1161,1338,0,0
-56,-314,0,0,0,0,0,0,0,0,0,-1,1168,1338,0,0
-49,-314,0,0,0,0,0,0,0,0,0,-1,1175,1338,0,0
-42,-314,0,0,0,0,0,0,0,0,0,-1,1182,1338,0,0
-35,-314,0,0,0,0,0,0,0,0,0,-1,1189,1338,0,0
-28,-314,0,0,0,0,0,0,0,0,0,-1,1196,1338,0,0
-21,-314,0,0,0,0,0,0,0,0,0,-1,1203,1338,0,0
-14,-314,0,0,0,0,0,0,0,0,0,-1,1210,1338,0,0
-7,-314,0,0,0,0,0,0,0,0,0,-1,1217,1338,0,0
0,-314,0,0,0,0,0,0,0,0,0,-1,1224,1338,0,0
7,-314,0,0,0,0,0,0,0,0,0,-1,1231,1338,0,0
14,-314,0,0,0,0,0,0,0,0,0,-1,1238,1338,0,0
21,-314,0,0,0,0,0,0,0,0,0,-1,1245,1338,0,0
28,-314,0,0,0,0,0,0,0,0,0,-1,1252,1338,0,0
35,-314,0,0,0,0,0,0,0,0,0,-1,1259,1338,0,0
42,-314,0,0,0,0,0,0,0,0,0,-1,1266,1338,0,0
49,-314,0,0,0,0,0,0,0,0,0,-1,1273,1338,0,0
56,-314,0,0,0,0,0,0,0,0,0,-1,1280,1338,0,0
63,-314,0,0,0,0,0,0,0,0,0,-1,1287,1338,0,0
70,-314,0,0,0,0,0,0,0,0,0,-1,1294,1338,0,0
77,-314,0,0,0,0,0,0,0,0,0,-1,1301,1338,0,0
84,-314,0,0,0,0,0,0,0,0,0,-1,1308,1338,0,0
91,-314,0,0,0,0,0,0,0,0,0,-1,1315,1338,0,0
98,-314,0,0,0,0,0,0,0,0,0,-1,1322,1338,0,0
105,-314,0,0,0,0,0,0,0,0,0,-1,1329,1338,0,0
112,-314,0,0,0,0,0,0,0,0,0,-1,1336,1338,0,0
119,-314,0,0,0,0,0,0,0,0,0,-1,1343,1338,0,0
126,-314,0,0,0,0,0,0,0,0,0,-1,1350,1338,0,0
133,-314,0,0,0,0,0,0,0,0,0,-1,1357,1338,0,0
140,-314,0,0,0,0,0,0,0,0,0,-1,1364,1338,0,0
147,-314,0,0,0,0,0,0,0,0,0,-1,1371,1338,0,0
154,-314,0,0,0,0,0,0,0,0,0,-1,1378,1338,0,0
161,-314,0,0,0,0,0,0,0,0,0,-1,1385,1338,0,0
168,-314,0,0,0,0,0,0,0,0,0,-1,1392,1338,0,0
175,-314,0,0,0,0,0,0,0,0,0,-1,1399,1338,0,0
182,-314,0,0,0,0,0,0,0,0,0,-1,1406,1338,0,0
189,-314,0,0,0,0,0,0,0,0,0,-1,1413,1338,0,0
196,-314,0,0,0,0,0,0,0,0,0,-1,1420,1338,0,0
203,-314,0,0,0,0,0,0,0,0,0,-1,1427,1338,0,0
210,-314,0,0,0,0,0,0,0,0,0,-1,1434,1338,0,0
217,-314,0,0,0,0,0,0,0,0,0,-1,1441,1338,0,0
224,-314,0,0,0,0,0,0,0,0,0,-1,1448,1338,0,0
231,-314,0,0,0,0,0,0,0,0,0,-1,1455,1338,0,0
238,-314,0,0,0,0,0,0,0,0,0,-1,1462,1338,0,0
245,-314,0,0,0,0,0,0,0,0,0,-1,1469,1338,0,0
252,-314,0,0,0,0,0,0,0,0,0,-1,1476,1338,0,0
259,-314,0,0,0,0,0,0,0,0,0,-1,1483,1338,0,0
266,-314,0,0,0,0,0,0,0,0,0,-1,1490,1338,0,0
273,-314,0,0,0,0,0,0,0,0,0,-1,1497,1338,0,0
280,-314,0,0,0,0,0,0,0,0,0,-1,1504,1338,0,0
287,-314,0,0,0,0,0,0,0,0,0,-1,1511,1338,0,0
294,-314,0,0,0,0,0,0,0,0,0,-1,1518,1338,0,0
301,-314,0,0,0,0,0,0,0,0,0,-1,1525,1338,0,0
308,-314,0,0,0,0,0,0,0,0,0,-1,1532,1338,0,0
315,-314,0,0,0,0,0,0,0,0,0,-1,1539,1338,0,0
322,-314,0,0,0,0,0,0,0,0,0,-1,1546,1338,0,0
329,-314,0,0,0,0,0,0,0,0,0,-1,1553,1338,0,0
336,-314,0,0,0,0,0,0,0,0,0,-1,1560,1338,0,0
343,-314,0,0,0,0,0,0,0,0,0,-1,1567,1338,0,0
350,-314,0,0,0,0,0,0,0,0,0,-1,1574,1338,0,0
357,-314,0,0,0,0,0,0,0,0,0,-1,1581,1338,0,0
364,-314,0,0,0,0,0,0,0,0,0,-1,1588,1338,0,0
371,-314,0,0,0,0,0,0,0,0,0,-1,1595,1338,0,0
378,-314,0,0,0,0,0,0,0,0,0,-1,1602,1338,0,0
385,-314,0,0,0,0,0,0,0,0,0,-1,1609,1338,0,0
392,-314,0,0,0,0,0,0,0,0,0,-1,1616,1338,0,0
399,-314,0,0,0,0,0,0,0,0,0,-1,1623,1338,0,0
406,-314,0,0,0,0,0,0,0,0,0,-1,1630,1338,0,0
413,-314,0,0,0,0,0,0,0,0,0,-1,1637,1338,0,0
420,-314,0,0,0,0,0,0,0,0,0,-1,1644,1338,0,0
427,-314,0,0,0,0,0,0,0,0,0,-1,1651,1338,0,0
434,-314,0,0,0,0,0,0,0,0,0,-1,1658,1338,0,0
441,-314,0,0,0,0,0,0,0,0,0,-1,1665,1338,0,0
448,-314,0,0,0,0,0,0,0,0,0,-1,1672,1338,0,0
455,-314,0,0,0,0,0,0,0,0,0,-1,1679,1338,0,0
462,-314,0,0,0,0,0,0,0,0,0,-1,1686,1338,0,0
469,-314,0,0,0,0,0,0,0,0,0,-1,1693,1338,0,0
476,-314,0,0,0,0,0,0,0,0,0,-1,1700,1338,0,0
483,-314,0,0,0,0,0,0,0,0,0,-1,1707,1338,0,0
490,-314,0,0,0,0,0,0,0,0,0,-1,1714,1338,0,0
497,-314,0,0,0,0,0,0,0,0,0,-1,1721,1338,0,0
504,-314,0,0,0,0,0,0,0,0,0,-1,1728,1338,0,0
511,-314,0,0,0,0,0,0,0,0,0,-1,1735,1338,0,0
518,-314,0,0,0,0,0,0,0,0,0,-1,1742,1338,0,0
525,-314,0,0,0,0,0,0,0,0,0,-1,1749,1338,0,0
532,-314,0,0,0,0,0,0,0,0,0,-1,1756,1338,0,0
539,-314,0,0,0,0,0,0,0,0,0,-1,1763,1338,0,0
546,-314,0,0,0,0,0,0,0,0,0,-1,1770,1338,0,0
553,-314,0,0,0,0,0,0,0,0,0,-1,1777,1338,0,0
560,-314,0,0,0,0,0,0,0,0,0,-1,1784,1338,0,0
567,-314,0,0,0,0,0,0,0,0,0,-1,1791,1338,0,0
574,-314,0,0,0,0,0,0,0,0,0,-1,1798,1338,0,0
581,-314,66.1637,1.86658,0,0,0,0,0,0,0,-1,1805,1338,66.1637,-1.86663
588,-314,66.4303,1.43481,0,0,0,0,0,0,0,-1,1812,1338,66.4303,-1.43487
595,-314,66.7465,0.982788,0,0,0,0,0,0,0,-1,1819,1338,66.7464,-0.982795
602,-314,66.322,1.38416,0,0,0,0,0,0,0,-1,1826,1338,66.322,-1.3842
609,-314,60.2225,1.27014,0,0,0,0,0,0,0,-1,1833,1338,60.2225,-1.27017
616,-314,48.1149,3.005,0,0,0,0,0,0,0,-1,1840,1338,48.1149,-3.00505
623,-314,38.7728,2.71741,0,0,0,0,0,0,0,-1,1847,1338,38.7728,-2.71737
630,-314,29.4308,6.23206,0,0,0,0,0,0,0,-1,1854,1338,29.4308,-6.23202
637,-314,22.1349,5.16418,0,0,0,0,0,0,0,-1,1861,1338,22.1349,-5.16414
644,-314,18.7517,6.2605,0,0,0,0,0,0,0,-1,1868,1338,18.7517,-6.26053
651,-314,23.1317,8.005,0,0,0,0,0,0,0,-1,1875,1338,23.1317,-8.00506
658,-314,49.9191,18.822,0,0,0,0,0,0,0,-1,1882,1338,49.9191,-18.8221
665,-314,102.126,47.7522,0,0,0,0,0,0,0,-1,1889,1338,102.126,-47.7522
672,-314,195.334,51.1849,0,0,0,0,0,0,0,-1,1896,1338,195.334,-51.185
679,-314,194.681,48.8317,-0.00766818,0.0188192,0.0157633,0.0261638,-0.0150128,1.13477,0.0240621,0.0409441,1903,1338,194.681,-48.8316
686,-314,194.156,46.4563,-0.00795715,0.0233542,0.0175104,0.0311871,-0.0157901,1.15017,0.0276036,0.0461124,1910,1338,194.156,-46.4562
693,-314,193.872,44.1897,-0.00830865,0.0276799,0.0195526,0.0362581,-0.0168869,1.15736,0.0313553,0.027236,1917,1338,193.872,-44.1897
700,-314,193.328,41.9277,-0.00875438,0.031819,0.0218466,0.0413455,-0.0182809,1.15959,0.0352733,0.026244,1924,1338,193.328,-41.9277
707,-314,192.743,39.8921,-0.00932631,0.0358286,0.0244121,0.046503,-0.0200008,1.15859,0.0393992,0.0239491,1931,1338,192.743,-39.8921
714,-314,192.464,37.8917,-0.0100527,0.0397586,0.0272542,0.0517729,-0.022067,1.1556,0.0437663,0.0184211,1938,1338,192.464,-37.8918
721,-314,192.048,35.8145,-0.0109867,0.0436324,0.0303745,0.0571692,-0.0245235,1.15156,0.0484044,0.0365423,1945,1338,192.048,-35.8144
728,-314,191.65,33.6921,0,0,0,0,0,0,0,-1,1952,1338,191.65,-33.6921
735,-314,26.3665,6.21582,0,0,0,0,0,0,0,-1,1959,1338,26.3664,-6.21581
742,-314,26.2235,6.0166,0,0,0,0,0,0,0,-1,1966,1338,26.2235,-6.01662
749,-314,26.2223,5.47046,0,0,0,0,0,0,0,-1,1973,1338,26.2223,-5.47041
756,-314,24.2521,5.93408,0,0,0,0,0,0,0,-1,1980,1338,24.252,-5.93413
763,-314,19.2207,4.07239,0,0,0,0,0,0,0,-1,1987,1338,19.2206,-4.07239
770,-314,0,0,0,0,0,0,0,0,0,-1,1994,1338,0,0
777,-314,0,0,0,0,0,0,0,0,0,-1,2001,1338,0,0
784,-314,0,0,0,0,0,0,0,0,0,-1,2008,1338,0,0
791,-314,0,0,0,0,0,0,0,0,0,-1,2015,1338,0,0
798,-314,0,0,0,0,0,0,0,0,0,-1,2022,1338,0,0
805,-314,0,0,0,0,0,0,0,0,0,-1,2029,1338,0,0
812,-314,0,0,0,0,0,0,0,0,0,-1,2036,1338,0,0
-700,-321,0,0,0,0,0,0,0,0,0,-1,524,1345,0,0
-693,-321,0,0,0,0,0,0,0,0,0,-1,531,1345,0,0
-686,-321,0,0,0,0,0,0,0,0,0,-1,538,1345,0,0
-679,-321,0,0,0,0,0,0,0,0,0,-1,545,1345,0,0
-672,-321,0,0,0,0,0,0,0,0,0,-1,552,1345,0,0
-665,-321,0,0,0,0,0,0,0,0,0,-1,559,1345,0,0
-658,-321,0,0,0,0,0,0,0,0,0,-1,566,1345,0,0
-651,-321,0,0,0,0,0,0,0,0,0,-1,573,1345,0,0
-644,-321,-58.7329,10.2313,0,0,0,0,0,0,0,-1,580,1345,-58.7329,-10.2313
-637,-321,-59.9981,9.06421,0,0,0,0,0,0,0,-1,587,1345,-59.9981,-9.06417
-630,-321,-61.377,8.07166,0,0,0,0,0,0,0,-1,594,1345,-61.3769,-8.07168
-623,-321,-13.2242,3.14148,0,0,0,0,0,0,0,-1,601,1345,-13.2243,-3.14146
-616,-321,-11.6754,3.13794,0,0,0,0,0,0,0,-1,608,1345,-11.6754,-3.13789
-609,-321,-7.95209,1.14758,0,0,0,0,0,0,0,-1,615,1345,-7.95208,-1.14757
-602,-321,-8.85791,2.50049,0,0,0,0,0,0,0,-1,622,1345,-8.85791,-2.50048
-595,-321,-19.8463,5.36584,0,0,0,0,0,0,0,-1,629,1345,-19.8462,-5.36589
-588,-321,-183.202,32.7615,0,0,0,0,0,0,0,-1,636,1345,-183.202,-32.7614
-581,-321,-183.485,35.0837,0.00134976,0.0565333,-0.0245112,0.0658482,-0.00796518,-1.20763,0.0467805,0.0228994,643,1345,-183.485,-35.0838
-574,-321,-183.879,37.2677,0.00479609,0.0513691,-0.0250973,0.062319,-0.00615389,-1.15939,0.0437419,0.0259975,650,1345,-183.879,-37.2677
-567,-321,-184.172,39.3945,0.0075429,0.0462147,-0.026033,0.0593071,-0.00554951,-1.10482,0.0415118,0.0295173,657,1345,-184.172,-39.3945
-560,-321,-184.154,41.6445,0.00952021,0.0410433,-0.0273698,0.0568655,-0.00630201,-1.04664,0.0401761,0.0499982,664,1345,-184.154,-41.6446
-553,-321,-184.171,43.991,0,0,0,0,0,0,0,-1,671,1345,-184.171,-43.991
-546,-321,-73.3562,38.6277,0,0,0,0,0,0,0,-1,678,1345,-73.3562,-38.6277
-539,-321,-62.9611,33.6246,0,0,0,0,0,0,0,-1,685,1345,-62.9611,-33.6247
-532,-321,-58.1584,32.4453,0,0,0,0,0,0,0,-1,692,1345,-58.1584,-32.4453
-525,-321,-60.7136,36.2605,0,0,0,0,0,0,0,-1,699,1345,-60.7136,-36.2605
-518,-321,-10.3564,6.75696,0,0,0,0,0,0,0,-1,706,1345,-10.3564,-6.75694
-511,-321,-9.3302,5.29297,0,0,0,0,0,0,0,-1,713,1345,-9.33023,-5.29294
-504,-321,-10.4713,0.0145264,0,0,0,0,0,0,0,-1,720,1345,-10.4713,-0.0145296
-497,-321,-9.96771,0.313599,0,0,0,0,0,0,0,-1,727,1345,-9.96769,-0.313618
-490,-321,-10.7631,0.973511,0,0,0,0,0,0,0,-1,734,1345,-10.7631,-0.97353
-483,-321,-17.5908,0.2323,0,0,0,0,0,0,0,-1,741,1345,-17.5908,-0.232355
-476,-321,-17.2915,0.297363,0,0,0,0,0,0,0,-1,748,1345,-17.2915,-0.297342
-469,-321,-17.2441,0.478027,0,0,0,0,0,0,0,-1,755,1345,-17.2441,-0.477994
-462,-321,-17.1672,0.526489,0,0,0,0,0,0,0,-1,762,1345,-17.1672,-0.526533
-455,-321,0,0,0,0,0,0,0,0,0,-1,769,1345,0,0
-448,-321,0,0,0,0,0,0,0,0,0,-1,776,1345,0,0
-441,-321,0,0,0,0,0,0,0,0,0,-1,783,1345,0,0
-434,-321,0,0,0,0,0,0,0,0,0,-1,790,1345,0,0
-427,-321,0,0,0,0,0,0,0,0,0,-1,797,1345,0,0
-420,-321,0,0,0,0,0,0,0,0,0,-1,804,1345,0,0
-413,-321,0,0,0,0,0,0,0,0,0,-1,811,1345,0,0
-406,-321,0,0,0,0,0,0,0,0,0,-1,818,1345,0,0
-399,-321,0,0,0,0,0,0,0,0,0,-1,825,1345,0,0
-392,-321,0,0,0,0,0,0,0,0,0,-1,832,1345,0,0
-385,-321,0,0,0,0,0,0,0,0,0,-1,839,1345,0,0
-378,-321,0,0,0,0,0,0,0,0,0,-1,846,1345,0,0
-371,-321,0,0,0,0,0,0,0,0,0,-1,853,1345,0,0
-364,-321,0,0,0,0,0,0,0,0,0,-1,860,1345,0,0
-357,-321,0,0,0,0,0,0,0,0,0,-1,867,1345,0,0
-350,-321,0,0,0,0,0,0,0,0,0,-1,874,1345,0,0
-343,-321,0,0,0,0,0,0,0,0,0,-1,881,1345,0,0
-336,-321,0,0,0,0,0,0,0,0,0,-1,888,1345,0,0
-329,-321,0,0,0,0,0,0,0,0,0,-1,895,1345,0,0
-322,-321,0,0,0,0,0,0,0,0,0,-1,902,1345,0,0
-315,-321,0,0,0,0,0,0,0,0,0,-1,909,1345,0,0
-308,-321,0,0,0,0,0,0,0,0,0,-1,916,1345,0,0
-301,-321,0,0,0,0,0,0,0,0,0,-1,923,1345,0,0
-294,-321,0,0,0,0,0,0,0,0,0,-1,930,1345,0,0
-287,-321,0,0,0,0,0,0,0,0,0,-1,937,1345,0,0
-280,-321,0,0,0,0,0,0,0,0,0,-1,944,1345,0,0
-273,-321,0,0,0,0,0,0,0,0,0,-1,951,1345,0,0
-266,-321,0,0,0,0,0,0,0,0,0,-1,958,1345,0,0
-259,-321,0,0,0,0,0,0,0,0,0,-1,965,1345,0,0
-252,-321,0,0,0,0,0,0,0,0,0,-1,972,1345,0,0
-245,-321,0,0,0,0,0,0,0,0,0,-1,979,1345,0,0
-238,-321,0,0,0,0,0,0,0,0,0,-1,986,1345,0,0
-231,-321,0,0,0,0,0,0,0,0,0,-1,993,1345,0,0
-224,-321,0,0,0,0,0,0,0,0,0,-1,1000,1345,0,0
-217,-321,0,0,0,0,0,0,0,0,0,-1,1007,1345,0,0
-210,-321,0,0,0,0,0,0,0,0,0,-1,1014,1345,0,0
-203,-321,0,0,0,0,0,0,0,0,0,-1,1021,1345,0,0
-196,-321,0,0,0,0,0,0,0,0,0,-1,1028,1345,0,0
-189,-321,0,0,0,0,0,0,0,0,0,-1,1035,1345,0,0
-182,-321,0,0,0,0,0,0,0,0,0,-1,1042,1345,0,0
-175,-321,0,0,0,0,0,0,0,0,0,-1,1049,1345,0,0
-168,-321,0,0,0,0,0,0,0,0,0,-1,1056,1345,0,0
-161,-321,0,0,0,0,0,0,0,0,0,-1,1063,1345,0,0
-154,-321,0,0,0,0,0,0,0,0,0,-1,1070,1345,0,0
-147,-321,0,0,0,0,0,0,0,0,0,-1,1077,1345,0,0
-140,-321,0,0,0,0,0,0,0,0,0,-1,1084,1345,0,0
-133,-321,0,0,0,0,0,0,0,0,0,-1,1091,1345,0,0
-126,-321,0,0,0,0,0,0,0,0,0,-1,1098,1345,0,0
-119,-321,0,0,0,0,0,0,0,0,0,-1,1105,1345,0,0
-112,-321,0,0,0,0,0,0,0,0,0,-1,1112,1345,0,0
-105,-321,0,0,0,0,0,0,0,0,0,-1,1119,1345,0,0
-98,-321,0,0,0,0,0,0,0,0,0,-1,1126,1345,0,0
-91,-321,0,0,0,0,0,0,0,0,0,-1,1133,1345,0,0
-84,-321,0,0,0,0,0,0,0,0,0,-1,1140,1345,0,0
-77,-321,0,0,0,0,0,0,0,0,0,-1,1147,1345,0,0
-70,-321,0,0,0,0,0,0,0,0,0,-1,1154,1345,0,0
-63,-321,0,0,0,0,0,0,0,0,0,-1,1161,1345,0,0
-56,-321,0,0,0,0,0,0,0,0,0,-1,1168,1345,0,0
-49,-321,0,0,0,0,0,0,0,0,0,-1,1175,1345,0,0
-42,-321,0,0,0,0,0,0,0,0,0,-1,1182,1345,0,0
-35,-321,0,0,0,0,0,0,0,0,0,-1,1189,1345,0,0
-28,-321,0,0,0,0,0,0,0,0,0,-1,1196,1345,0,0
-21,-321,0,0,0,0,0,0,0,0,0,-1,1203,1345,0,0
-14,-321,0,0,0,0,0,0,0,0,0,-1,1210,1345,0,0
-7,-321,0,0,0,0,0,0,0,0,0,-1,1217,1345,0,0
0,-321,0,0,0,0,0,0,0,0,0,-1,1224,1345,0,0
7,-321,0,0,0,0,0,0,0,0,0,-1,1231,1345,0,0
14,-321,0,0,0,0,0,0,0,0,0,-1,1238,1345,0,0
21,-321,0,0,0,0,0,0,0,0,0,-1,1245,1345,0,0
28,-321,0,0,0,0,0,0,0,0,0,-1,1252,1345,0,0
35,-321,0,0,0,0,0,0,0,0,0,-1,1259,1345,0,0
42,-321,0,0,0,0,0,0,0,0,0,-1,1266,1345,0,0
49,-321,0,0,0,0,0,0,0,0,0,-1,1273,1345,0,0
56,-321,0,0,0,0,0,0,0,0,0,-1,1280,1345,0,0
63,-321,0,0,0,0,0,0,0,0,0,-1,1287,1345,0,0
70,-321,0,0,0,0,0,0,0,0,0,-1,1294,1345,0,0
77,-321,0,0,0,0,0,0,0,0,0,-1,1301,1345,0,0
84,-321,0,0,0,0,0,0,0,0,0,-1,1308,1345,0,0
91,-321,0,0,0,0,0,0,0,0,0,-1,1315,1345,0,0
98,-321,0,0,0,0,0,0,0,0,0,-1,1322,1345,0,0
105,-321,0,0,0,0,0,0,0,0,0,-1,1329,1345,0,0
112,-321,0,0,0,0,0,0,0,0,0,-1,1336,1345,0,0
119,-321,0,0,0,0,0,0,0,0,0,-1,1343,1345,0,0
126,-321,0,0,0,0,0,0,0,0,0,-1,1350,1345,0,0
133,-321,0,0,0,0,0,0,0,0,0,-1,1357,1345,0,0
140,-321,0,0,0,0,0,0,0,0,0,-1,1364,1345,0,0
147,-321,0,0,0,0,0,0,0,0,0,-1,1371,1345,0,0
154,-321,0,0,0,0,0,0,0,0,0,-1,1378,1345,0,0
161,-321,0,0,0,0,0,0,0,0,0,-1,1385,1345,0,0
168,-321,0,0,0,0,0,0,0,0,0,-1,1392,1345,0,0
175,-321,0,0,0,0,0,0,0,0,0,-1,1399,1345,0,0
182,-321,0,0,0,0,0,0,0,0,0,-1,1406,1345,0,0
189,-321,0,0,0,0,0,0,0,0,0,-1,1413,1345,0,0
196,-321,0,0,0,0,0,0,0,0,0,-1,1420,1345,0,0
203,-321,0,0,0,0,0,0,0,0,0,-1,1427,1345,0,0
210,-321,0,0,0,0,0,0,0,0,0,-1,1434,1345,0,0
217,-321,0,0,0,0,0,0,0,0,0,-1,1441,1345,0,0
224,-321,0,0,0,0,0,0,0,0,0,-1,1448,1345,0,0
231,-321,0,0,0,0,0,0,0,0,0,-1,1455,1345,0,0
238,-321,0,0,0,0,0,0,0,0,0,-1,1462,1345,0,0
245,-321,0,0,0,0,0,0,0,0,0,-1,1469,1345,0,0
252,-321,0,0,0,0,0,0,0,0,0,-1,1476,1345,0,0
259,-321,0,0,0,0,0,0,0,0,0,-1,1483,1345,0,0
266,-321,0,0,0,0,0,0,0,0,0,-1,1490,1345,0,0
273,-321,0,0,0,0,0,0,0,0,0,-1,1497,1345,0,0
280,-321,0,0,0,0,0,0,0,0,0,-1,1504,1345,0,0
287,-321,0,0,0,0,0,0,0,0,0,-1,1511,1345,0,0
294,-321,0,0,0,0,0,0,0,0,0,-1,1518,1345,0,0
301,-321,0,0,0,0,0,0,0,0,0,-1,1525,1345,0,0
308,-321,0,0,0,0,0,0,0,0,0,-1,1532,1345,0,0
315,-321,0,0,0,0,0,0,0,0,0,-1,1539,1345,0,0
322,-321,0,0,0,0,0,0,0,0,0,-1,1546,1345,0,0
329,-321,0,0,0,0,0,0,0,0,0,-1,1553,1345,0,0
336,-321,0,0,0,0,0,0,0,0,0,-1,1560,1345,0,0
343,-321,0,0,0,0,0,0,0,0,0,-1,1567,1345,0,0
350,-321,0,0,0,0,0,0,0,0,0,-1,1574,1345,0,0
357,-321,0,0,0,0,0,0,0,0,0,-1,1581,1345,0,0
364,-321,0,0,0,0,0,0,0,0,0,-1,1588,1345,0,0
371,-321,0,0,0,0,0,0,0,0,0,-1,1595,1345,0,0
378,-321,0,0,0,0,0,0,0,0,0,-1,1602,1345,0,0
385,-321,0,0,0,0,0,0,0,0,0,-1,1609,1345,0,0
392,-321,0,0,0,0,0,0,0,0,0,-1,1616,1345,0,0
399,-321,0,0,0,0,0,0,0,0,0,-1,1623,1345,0,0
406,-321,0,0,0,0,0,0,0,0,0,-1,1630,1345,0,0
413,-321,0,0,0,0,0,0,0,0,0,-1,1637,1345,0,0
420,-321,0,0,0,0,0,0,0,0,0,-1,1644,1345,0,0
427,-321,0,0,0,0,0,0,0,0,0,-1,1651,1345,0,0
434,-321,0,0,0,0,0,0,0,0,0,-1,1658,1345,0,0
441,-321,0,0,0,0,0,0,0,0,0,-1,1665,1345,0,0
448,-321,0,0,0,0,0,0,0,0,0,-1,1672,1345,0,0
455,-321,0,0,0,0,0,0,0,0,0,-1,1679,1345,0,0
462,-321,0,0,0,0,0,0,0,0,0,-1,1686,1345,0,0
469,-321,0,0,0,0,0,0,0,0,0,-1,1693,1345,0,0
476,-321,0,0,0,0,0,0,0,0,0,-1,1700,1345,0,0
483,-321,0,0,0,0,0,0,0,0,0,-1,1707,1345,0,0
490,-321,0,0,0,0,0,0,0,0,0,-1,1714,1345,0,0
497,-321,0,0,0,0,0,0,0,0,0,-1,1721,1345,0,0
504,-321,0,0,0,0,0,0,0,0,0,-1,1728,1345,0,0
511,-321,0,0,0,0,0,0,0,0,0,-1,1735,1345,0,0
518,-321,0,0,0,0,0,0,0,0,0,-1,1742,1345,0,0
525,-321,0,0,0,0,0,0,0,0,0,-1,1749,1345,0,0
532,-321,0,0,0,0,0,0,0,0,0,-1,1756,1345,0,0
539,-321,0,0,0,0,0,0,0,0,0,-1,1763,1345,0,0
546,-321,0,0,0,0,0,0,0,0,0,-1,1770,1345,0,0
553,-321,0,0,0,0,0,0,0,0,0,-1,1777,1345,0,0
560,-321,0,0,0,0,0,0,0,0,0,-1,1784,1345,0,0
567,-321,0,0,0,0,0,0,0,0,0,-1,1791,1345,0,0
574,-321,0,0,0,0,0,0,0,0,0,-1,1798,1345,0,0
581,-321,66.1073,1.6543,0,0,0,0,0,0,0,-1,1805,1345,66.1073,-1.65427
588,-321,66.6576,0.7948,0,0,0,0,0,0,0,-1,1812,1345,66.6575,-0.794774
595,-321,67.2585,-0.216431,0,0,0,0,0,0,0,-1,1819,1345,67.2586,0.216484
602,-321,60.3523,1.24133,0,0,0,0,0,0,0,-1,1826,1345,60.3523,-1.2413
609,-321,48.311,3.39575,0,0,0,0,0,0,0,-1,1833,1345,48.311,-3.39571
616,-321,37.8107,2.58704,0,0,0,0,0,0,0,-1,1840,1345,37.8106,-2.58705
623,-321,37.6854,3.68933,0,0,0,0,0,0,0,-1,1847,1345,37.6854,-3.68931
630,-321,23.6674,4.34106,0,0,0,0,0,0,0,-1,1854,1345,23.6674,-4.34112
637,-321,21.7925,6.79224,0,0,0,0,0,0,0,-1,1861,1345,21.7925,-6.7922
644,-321,16.8844,6.71973,0,0,0,0,0,0,0,-1,1868,1345,16.8844,-6.71971
651,-321,27.4924,10.0319,0,0,0,0,0,0,0,-1,1875,1345,27.4924,-10.0319
658,-321,66.9578,30.2902,0,0,0,0,0,0,0,-1,1882,1345,66.9577,-30.2901
665,-321,90.8429,42.8761,0,0,0,0,0,0,0,-1,1889,1345,90.8429,-42.8761
672,-321,192.985,51.7449,0,0,0,0,0,0,0,-1,1896,1345,192.985,-51.7449
679,-321,192.292,49.4369,-0.00648701,0.0201366,0.016764,0.0282313,-0.0145816,1.12096,0.0251333,0.0440508,1903,1345,192.292,-49.4369
686,-321,191.479,47.1528,-0.00698026,0.0246928,0.0188129,0.0334474,-0.0157348,1.13525,0.0290027,0.038115,1910,1345,191.48,-47.1528
693,-321,191.163,44.5791,-0.0074076,0.0290936,0.0210233,0.038683,-0.016997,1.14286,0.0329496,0.0234,1917,1345,191.163,-44.5791
700,-321,190.693,42.1732,-0.00780562,0.0333449,0.0234106,0.0439369,-0.0183976,1.14591,0.036982,0.0260667,1924,1345,190.693,-42.1733
707,-321,190.269,40.0157,-0.00821326,0.0374691,0.0260027,0.049238,-0.0199822,1.14578,0.0411369,0.0239716,1931,1345,190.269,-40.0157
714,-321,189.936,37.9811,-0.00865459,0.0415347,0.0288072,0.0546448,-0.0217646,1.14371,0.0454561,0.0217601,1938,1345,189.936,-37.981
721,-321,189.584,35.9186,0,0,0,0,0,0,0,-1,1945,1345,189.584,-35.9185
728,-321,69.6017,20.2322,0,0,0,0,0,0,0,-1,1952,1345,69.6017,-20.2322
735,-321,22.0081,5.65479,0,0,0,0,0,0,0,-1,1959,1345,22.008,-5.65481
742,-321,24.5398,5.05725,0,0,0,0,0,0,0,-1,1966,1345,24.5398,-5.05729
749,-321,24.0675,5.4458,0,0,0,0,0,0,0,-1,1973,1345,24.0675,-5.44581
756,-321,19.6251,4.98315,0,0,0,0,0,0,0,-1,1980,1345,19.6251,-4.98311
763,-321,19.6747,4.61438,0,0,0,0,0,0,0,-1,1987,1345,19.6747,-4.61436
770,-321,0,0,0,0,0,0,0,0,0,-1,1994,1345,0,0
777,-321,0,0,0,0,0,0,0,0,0,-1,2001,1345,0,0
784,-321,0,0,0,0,0,0,0,0,0,-1,2008,1345,0,0
791,-321,0,0,0,0,0,0,0,0,0,-1,2015,1345,0,0
798,-321,0,0,0,0,0,0,0,0,0,-1,2022,1345,0,0
805,-321,0,0,0,0,0,0,0,0,0,-1,2029,1345,0,0
812,-321,0,0,0,0,0,0,0,0,0,-1,2036,1345,0,0
-700,-328,0,0,0,0,0,0,0,0,0,-1,524,1352,0,0
-693,-328,0,0,0,0,0,0,0,0,0,-1,531,1352,0,0
-686,-328,0,0,0,0,0,0,0,0,0,-1,538,1352,0,0
-679,-328,0,0,0,0,0,0,0,0,0,-1,545,1352,0,0
-672,-328,0,0,0,0,0,0,0,0,0,-1,552,1352,0,0
-665,-328,0,0,0,0,0,0,0,0,0,-1,559,1352,0,0
-658,-328,0,0,0,0,0,0,0,0,0,-1,566,1352,0,0
-651,-328,0,0,0,0,0,0,0,0,0,-1,573,1352,0,0
-644,-328,0,0,0,0,0,0,0,0,0,-1,580,1352,0,0
-637,-328,-61.3883,10.1125,0,0,0,0,0,0,0,-1,587,1352,-61.3883,-10.1126
-630,-328,-62.8012,9.14563,0,0,0,0,0,0,0,-1,594,1352,-62.8012,-9.14564
-623,-328,-10.7739,4.55042,0,0,0,0,0,0,0,-1,601,1352,-10.7739,-4.55041
-616,-328,-8.22198,-0.25708,0,0,0,0,0,0,0,-1,608,1352,-8.22201,0.257067
-609,-328,-7.87439,0.192871,0,0,0,0,0,0,0,-1,615,1352,-7.87441,-0.192822
-602,-328,-7.63062,1.31665,0,0,0,0,0,0,0,-1,622,1352,-7.63064,-1.3166
-595,-328,-9.42639,2.93494,0,0,0,0,0,0,0,-1,629,1352,-9.42638,-2.93499
-588,-328,-180.639,32.4313,0,0,0,0,0,0,0,-1,636,1352,-180.639,-32.4313
-581,-328,-180.855,35.0605,0.00312164,0.0599171,-0.0240938,0.068761,-0.00572233,-1.219,0.0478623,0.0453215,643,1352,-180.855,-35.0605
-574,-328,-181.188,37.3448,0.00560955,0.0546576,-0.0251075,0.0652308,-0.00496365,-1.17222,0.0452326,0.0243214,650,1352,-181.188,-37.3448
-567,-328,-181.604,39.5129,0.00734757,0.0493645,-0.0264645,0.0621455,-0.00543339,-1.12088,0.0433551,0.0271766,657,1352,-181.604,-39.513
-560,-328,-181.895,41.9384,0.0083301,0.0440297,-0.0281857,0.0595422,-0.00718246,-1.06767,0.0422928,0.0396053,664,1352,-181.895,-41.9384
-553,-328,-182.191,44.3274,0,0,0,0,0,0,0,-1,671,1352,-182.191,-44.3274
-546,-328,-74.9383,40.7139,0,0,0,0,0,0,0,-1,678,1352,-74.9383,-40.7139
-539,-328,-67.9141,38.4679,0,0,0,0,0,0,0,-1,685,1352,-67.9141,-38.468
-532,-328,-63.8609,37.8448,0,0,0,0,0,0,0,-1,692,1352,-63.8609,-37.8448
-525,-328,-58.8255,36.8346,0,0,0,0,0,0,0,-1,699,1352,-58.8255,-36.8346
-518,-328,-66.7287,42.3196,0,0,0,0,0,0,0,-1,706,1352,-66.7287,-42.3196
-511,-328,-9.39868,7.16113,0,0,0,0,0,0,0,-1,713,1352,-9.39869,-7.16113
-504,-328,-8.60626,-0.905762,0,0,0,0,0,0,0,-1,720,1352,-8.60623,0.905787
-497,-328,-9.29102,-0.0517578,0,0,0,0,0,0,0,-1,727,1352,-9.29104,0.0518175
-490,-328,-10.0663,0.882813,0,0,0,0,0,0,0,-1,734,1352,-10.0663,-0.882795
-483,-328,-10.8181,1.72375,0,0,0,0,0,0,0,-1,741,1352,-10.8181,-1.72374
-476,-328,-16.8951,-0.150757,0,0,0,0,0,0,0,-1,748,1352,-16.8951,0.150795
-469,-328,-16.8412,0.00158691,0,0,0,0,0,0,0,-1,755,1352,-16.8412,-0.00161515
-462,-328,-16.3546,-0.203491,0,0,0,0,0,0,0,-1,762,1352,-16.3545,0.203532
-455,-328,0,0,0,0,0,0,0,0,0,-1,769,1352,0,0
-448,-328,0,0,0,0,0,0,0,0,0,-1,776,1352,0,0
-441,-328,0,0,0,0,0,0,0,0,0,-1,783,1352,0,0
-434,-328,0,0,0,0,0,0,0,0,0,-1,790,1352,0,0
-427,-328,0,0,0,0,0,0,0,0,0,-1,797,1352,0,0
-420,-328,0,0,0,0,0,0,0,0,0,-1,804,1352,0,0
-413,-328,0,0,0,0,0,0,0,0,0,-1,811,1352,0,0
-406,-328,0,0,0,0,0,0,0,0,0,-1,818,1352,0,0
-399,-328,0,0,0,0,0,0,0,0,0,-1,825,1352,0,0
-392,-328,0,0,0,0,0,0,0,0,0,-1,832,1352,0,0
-385,-328,0,0,0,0,0,0,0,0,0,-1,839,1352,0,0
-378,-328,0,0,0,0,0,0,0,0,0,-1,846,1352,0,0
-371,-328,0,0,0,0,0,0,0,0,0,-1,853,1352,0,0
-364,-328,0,0,0,0,0,0,0,0,0,-1,860,1352,0,0
-357,-328,0,0,0,0,0,0,0,0,0,-1,867,1352,0,0
-350,-328,0,0,0,0,0,0,0,0,0,-1,874,1352,0,0
-343,-328,0,0,0,0,0,0,0,0,0,-1,881,1352,0,0
-336,-328,0,0,0,0,0,0,0,0,0,-1,888,1352,0,0
-329,-328,0,0,0,0,0,0,0,0,0,-1,895,1352,0,0
-322,-328,0,0,0,0,0,0,0,0,0,-1,902,1352,0,0
-315,-328,0,0,0,0,0,0,0,0,0,-1,909,1352,0,0
-308,-328,0,0,0,0,0,0,0,0,0,-1,916,1352,0,0
-301,-328,0,0,0,0,0,0,0,0,0,-1,923,1352,0,0
-294,-328,0,0,0,0,0,0,0,0,0,-1,930,1352,0,0
-287,-328,0,0,0,0,0,0,0,0,0,-1,937,1352,0,0
-280,-328,0,0,0,0,0,0,0,0,0,-1,944,1352,0,0
-273,-328,0,0,0,0,0,0,0,0,0,-1,951,1352,0,0
-266,-328,0,0,0,0,0,0,0,0,0,-1,958,1352,0,0
-259,-328,0,0,0,0,0,0,0,0,0,-1,965,1352,0,0
-252,-328,0,0,0,0,0,0,0,0,0,-1,972,1352,0,0
-245,-328,0,0,0,0,0,0,0,0,0,-1,979,1352,0,0
-238,-328,0,0,0,0,0,0,0,0,0,-1,986,1352,0,0
-231,-328,0,0,0,0,0,0,0,0,0,-1,993,1352,0,0
-224,-328,0,0,0,0,0,0,0,0,0,-1,1000,1352,0,0
-217,-328,0,0,0,0,0,0,0,0,0,-1,1007,1352,0,0
-210,-328,0,0,0,0,0,0,0,0,0,-1,1014,1352,0,0
-203,-328,0,0,0,0,0,0,0,0,0,-1,1021,1352,0,0
-196,-328,0,0,0,0,0,0,0,0,0,-1,1028,1352,0,0
-189,-328,0,0,0,0,0,0,0,0,0,-1,1035,1352,0,0
-182,-328,0,0,0,0,0,0,0,0,0,-1,1042,1352,0,0
-175,-328,0,0,0,0,0,0,0,0,0,-1,1049,1352,0,0
-168,-328,0,0,0,0,0,0,0,0,0,-1,1056,1352,0,0
-161,-328,0,0,0,0,0,0,0,0,0,-1,1063,1352,0,0
-154,-328,0,0,0,0,0,0,0,0,0,-1,1070,1352,0,0
-147,-328,0,0,0,0,0,0,0,0,0,-1,1077,1352,0,0
-140,-328,0,0,0,0,0,0,0,0,0,-1,1084,1352,0,0
-133,-328,0,0,0,0,0,0,0,0,0,-1,1091,1352,0,0
-126,-328,0,0,0,0,0,0,0,0,0,-1,1098,1352,0,0
-119,-328,0,0,0,0,0,0,0,0,0,-1,1105,1352,0,0
-112,-328,0,0,0,0,0,0,0,0,0,-1,1112,1352,0,0
-105,-328,0,0,0,0,0,0,0,0,0,-1,1119,1352,0,0
-98,-328,0,0,0,0,0,0,0,0,0,-1,1126,1352,0,0
-91,-328,0,0,0,0,0,0,0,0,0,-1,1133,1352,0,0
-84,-328,0,0,0,0,0,0,0,0,0,-1,1140,1352,0,0
-77,-328,0,0,0,0,0,0,0,0,0,-1,1147,1352,0,0
-70,-328,0,0,0,0,0,0,0,0,0,-1,1154,1352,0,0
-63,-328,0,0,0,0,0,0,0,0,0,-1,1161,1352,0,0
-56,-328,0,0,0,0,0,0,0,0,0,-1,1168,1352,0,0
-49,-328,0,0,0,0,0,0,0,0,0,-1,1175,1352,0,0
-42,-328,0,0,0,0,0,0,0,0,0,-1,1182,1352,0,0
-35,-328,0,0,0,0,0,0,0,0,0,-1,1189,1352,0,0
-28,-328,0,0,0,0,0,0,0,0,0,-1,1196,1352,0,0
-21,-328,0,0,0,0,0,0,0,0,0,-1,1203,1352,0,0
-14,-328,0,0,0,0,0,0,0,0,0,-1,1210,1352,0,0
-7,-328,0,0,0,0,0,0,0,0,0,-1,1217,1352,0,0
0,-328,0,0,0,0,0,0,0,0,0,-1,1224,1352,0,0
7,-328,0,0,0,0,0,0,0,0,0,-1,1231,1352,0,0
14,-328,0,0,0,0,0,0,0,0,0,-1,1238,1352,0,0
21,-328,0,0,0,0,0,0,0,0,0,-1,1245,1352,0,0
28,-328,0,0,0,0,0,0,0,0,0,-1,1252,1352,0,0
35,-328,0,0,0,0,0,0,0,0,0,-1,1259,1352,0,0
42,-328,0,0,0,0,0,0,0,0,0,-1,1266,1352,0,0
49,-328,0,0,0,0,0,0,0,0,0,-1,1273,1352,0,0
56,-328,0,0,0,0,0,0,0,0,0,-1,1280,1352,0,0
63,-328,0,0,0,0,0,0,0,0,0,-1,1287,1352,0,0
70,-328,0,0,0,0,0,0,0,0,0,-1,1294,1352,0,0
77,-328,0,0,0,0,0,0,0,0,0,-1,1301,1352,0,0
84,-328,0,0,0,0,0,0,0,0,0,-1,1308,1352,0,0
91,-328,0,0,0,0,0,0,0,0,0,-1,1315,1352,0,0
98,-328,0,0,0,0,0,0,0,0,0,-1,1322,1352,0,0
105,-328,0,0,0,0,0,0,0,0,0,-1,1329,1352,0,0
112,-328,0,0,0,0,0,0,0,0,0,-1,1336,1352,0,0
119,-328,0,0,0,0,0,0,0,0,0,-1,1343,1352,0,0
126,-328,0,0,0,0,0,0,0,0,0,-1,1350,1352,0,0
133,-328,0,0,0,0,0,0,0,0,0,-1,1357,1352,0,0
140,-328,0,0,0,0,0,0,0,0,0,-1,1364,1352,0,0
147,-328,0,0,0,0,0,0,0,0,0,-1,1371,1352,0,0
154,-328,0,0,0,0,0,0,0,0,0,-1,1378,1352,0,0
161,-328,0,0,0,0,0,0,0,0,0,-1,1385,1352,0,0
168,-328,0,0,0,0,0,0,0,0,0,-1,1392,1352,0,0
175,-328,0,0,0,0,0,0,0,0,0,-1,1399,1352,0,0
182,-328,0,0,0,0,0,0,0,0,0,-1,1406,1352,0,0
189,-328,0,0,0,0,0,0,0,0,0,-1,1413,1352,0,0
196,-328,0,0,0,0,0,0,0,0,0,-1,1420,1352,0,0
203,-328,0,0,0,0,0,0,0,0,0,-1,1427,1352,0,0
210,-328,0,0,0,0,0,0,0,0,0,-1,1434,1352,0,0
217,-328,0,0,0,0,0,0,0,0,0,-1,1441,1352,0,0
224,-328,0,0,0,0,0,0,0,0,0,-1,1448,1352,0,0
231,-328,0,0,0,0,0,0,0,0,0,-1,1455,1352,0,0
238,-328,0,0,0,0,0,0,0,0,0,-1,1462,1352,0,0
245,-328,0,0,0,0,0,0,0,0,0,-1,1469,1352,0,0
252,-328,0,0,0,0,0,0,0,0,0,-1,1476,1352,0,0
259,-328,0,0,0,0,0,0,0,0,0,-1,1483,1352,0,0
266,-328,0,0,0,0,0,0,0,0,0,-1,1490,1352,0,0
273,-328,0,0,0,0,0,0,0,0,0,-1,1497,1352,0,0
280,-328,0,0,0,0,0,0,0,0,0,-1,1504,1352,0,0
287,-328,0,0,0,0,0,0,0,0,0,-1,1511,1352,0,0
294,-328,0,0,0,0,0,0,0,0,0,-1,1518,1352,0,0
301,-328,0,0,0,0,0,0,0,0,0,-1,1525,1352,0,0
308,-328,0,0,0,0,0,0,0,0,0,-1,1532,1352,0,0
315,-328,0,0,0,0,0,0,0,0,0,-1,1539,1352,0,0
322,-328,0,0,0,0,0,0,0,0,0,-1,1546,1352,0,0
329,-328,0,0,0,0,0,0,0,0,0,-1,1553,1352,0,0
336,-328,0,0,0,0,0,0,0,0,0,-1,1560,1352,0,0
343,-328,0,0,0,0,0,0,0,0,0,-1,1567,1352,0,0
350,-328,0,0,0,0,0,0,0,0,0,-1,1574,1352,0,0
357,-328,0,0,0,0,0,0,0,0,0,-1,1581,1352,0,0
364,-328,0,0,0,0,0,0,0,0,0,-1,1588,1352,0,0
371,-328,0,0,0,0,0,0,0,0,0,-1,1595,1352,0,0
378,-328,0,0,0,0,0,0,0,0,0,-1,1602,1352,0,0
385,-328,0,0,0,0,0,0,0,0,0,-1,1609,1352,0,0
392,-328,0,0,0,0,0,0,0,0,0,-1,1616,1352,0,0
399,-328,0,0,0,0,0,0,0,0,0,-1,1623,1352,0,0
406,-328,0,0,0,0,0,0,0,0,0,-1,1630,1352,0,0
413,-328,0,0,0,0,0,0,0,0,0,-1,1637,1352,0,0
420,-328,0,0,0,0,0,0,0,0,0,-1,1644,1352,0,0
427,-328,0,0,0,0,0,0,0,0,0,-1,1651,1352,0,0
434,-328,0,0,0,0,0,0,0,0,0,-1,1658,1352,0,0
441,-328,0,0,0,0,0,0,0,0,0,-1,1665,1352,0,0
448,-328,0,0,0,0,0,0,0,0,0,-1,1672,1352,0,0
455,-328,0,0,0,0,0,0,0,0,0,-1,1679,1352,0,0
462,-328,0,0,0,0,0,0,0,0,0,-1,1686,1352,0,0
469,-328,0,0,0,0,0,0,0,0,0,-1,1693,1352,0,0
476,-328,0,0,0,0,0,0,0,0,0,-1,1700,1352,0,0
483,-328,0,0,0,0,0,0,0,0,0,-1,1707,1352,0,0
490,-328,0,0,0,0,0,0,0,0,0,-1,1714,1352,0,0
497,-328,0,0,0,0,0,0,0,0,0,-1,1721,1352,0,0
504,-328,0,0,0,0,0,0,0,0,0,-1,1728,1352,0,0
511,-328,0,0,0,0,0,0,0,0,0,-1,1735,1352,0,0
518,-328,0,0,0,0,0,0,0,0,0,-1,1742,1352,0,0
525,-328,0,0,0,0,0,0,0,0,0,-1,1749,1352,0,0
532,-328,0,0,0,0,0,0,0,0,0,-1,1756,1352,0,0
539,-328,0,0,0,0,0,0,0,0,0,-1,1763,1352,0,0
546,-328,0,0,0,0,0,0,0,0,0,-1,1770,1352,0,0
553,-328,0,0,0,0,0,0,0,0,0,-1,1777,1352,0,0
560,-328,0,0,0,0,0,0,0,0,0,-1,1784,1352,0,0
567,-328,0,0,0,0,0,0,0,0,0,-1,1791,1352,0,0
574,-328,65.0565,3.09021,0,0,0,0,0,0,0,-1,1798,1352,65.0565,-3.09019
581,-328,66.3988,1.74048,0,0,0,0,0,0,0,-1,1805,1352,66.3989,-1.74051
588,-328,67.0304,0.506714,0,0,0,0,0,0,0,-1,1812,1352,67.0304,-0.506669
595,-328,60.5831,1.52856,0,0,0,0,0,0,0,-1,1819,1352,60.5832,-1.52861
602,-328,48.7734,3.66785,0,0,0,0,0,0,0,-1,1826,1352,48.7734,-3.66782
609,-328,37.0468,1.17407,0,0,0,0,0,0,0,-1,1833,1352,37.0468,-1.17407
616,-328,36.999,2.42859,0,0,0,0,0,0,0,-1,1840,1352,36.999,-2.42862
623,-328,34.345,5.14722,0,0,0,0,0,0,0,-1,1847,1352,34.3449,-5.14718
630,-328,22.0211,5.026,0,0,0,0,0,0,0,-1,1854,1352,22.0212,-5.02603
637,-328,21.15,5.53699,0,0,0,0,0,0,0,-1,1861,1352,21.15,-5.53704
644,-328,16.9579,6.3396,0,0,0,0,0,0,0,-1,1868,1352,16.9579,-6.33959
651,-328,36.2629,14.6906,0,0,0,0,0,0,0,-1,1875,1352,36.263,-14.6905
658,-328,74.4406,36.167,0,0,0,0,0,0,0,-1,1882,1352,74.4405,-36.167
665,-328,86.4988,42.1331,0,0,0,0,0,0,0,-1,1889,1352,86.4988,-42.133
672,-328,189.154,52.2593,0,0,0,0,0,0,0,-1,1896,1352,189.154,-52.2593
679,-328,189.437,49.6794,0,0,0,0,0,0,0,-1,1903,1352,189.437,-49.6794
686,-328,188.986,47.306,-0.00595256,0.0263962,0.0202435,0.0361334,-0.0156898,1.12246,0.0306864,0.0277522,1910,1352,188.986,-47.3061
693,-328,188.555,44.827,-0.00632191,0.03069,0.0225708,0.0413716,-0.0170035,1.12878,0.0346679,0.0183065,1917,1352,188.555,-44.8271
700,-328,187.985,42.3281,-0.00660994,0.0349276,0.0250249,0.0466794,-0.0183617,1.13176,0.0387197,0.0269149,1924,1352,187.985,-42.3281
707,-328,187.652,40.1864,-0.00685861,0.0391105,0.0276403,0.0520742,-0.0198223,1.13224,0.042879,0.0260819,1931,1352,187.652,-40.1863
714,-328,187.39,38.1296,-0.00702853,0.0433345,0.0303969,0.0576255,-0.0213196,1.13131,0.0471582,0.0395604,1938,1352,187.39,-38.1297
721,-328,187.16,35.8293,0,0,0,0,0,0,0,-1,1945,1352,187.16,-35.8293
728,-328,29.2787,6.74695,0,0,0,0,0,0,0,-1,1952,1352,29.2787,-6.74693
735,-328,20.8927,5.23523,0,0,0,0,0,0,0,-1,1959,1352,20.8927,-5.23528
742,-328,20.3547,4.11316,0,0,0,0,0,0,0,-1,1966,1352,20.3547,-4.11321
749,-328,20.0669,5.66321,0,0,0,0,0,0,0,-1,1973,1352,20.0669,-5.66319
756,-328,19.9543,5.50464,0,0,0,0,0,0,0,-1,1980,1352,19.9543,-5.50463
763,-328,0,0,0,0,0,0,0,0,0,-1,1987,1352,0,0
770,-328,0,0,0,0,0,0,0,0,0,-1,1994,1352,0,0
777,-328,0,0,0,0,0,0,0,0,0,-1,2001,1352,0,0
784,-328,0,0,0,0,0,0,0,0,0,-1,2008,1352,0,0
791,-328,0,0,0,0,0,0,0,0,0,-1,2015,1352,0,0
798,-328,0,0,0,0,0,0,0,0,0,-1,2022,1352,0,0
805,-328,0,0,0,0,0,0,0,0,0,-1,2029,1352,0,0
812,-328,0,0,0,0,0,0,0,0,0,-1,2036,1352,0,0
-700,-335,0,0,0,0,0,0,0,0,0,-1,524,1359,0,0
-693,-335,0,0,0,0,0,0,0,0,0,-1,531,1359,0,0
-686,-335,0,0,0,0,0,0,0,0,0,-1,538,1359,0,0
-679,-335,0,0,0,0,0,0,0,0,0,-1,545,1359,0,0
-672,-335,0,0,0,0,0,0,0,0,0,-1,552,1359,0,0
-665,-335,0,0,0,0,0,0,0,0,0,-1,559,1359,0,0
-658,-335,0,0,0,0,0,0,0,0,0,-1,566,1359,0,0
-651,-335,0,0,0,0,0,0,0,0,0,-1,573,1359,0,0
-644,-335,0,0,0,0,0,0,0,0,0,-1,580,1359,0,0
-637,-335,-62.7114,11.0491,0,0,0,0,0,0,0,-1,587,1359,-62.7114,-11.0491
-630,-335,-64.2532,9.91284,0,0,0,0,0,0,0,-1,594,1359,-64.2532,-9.91285
-623,-335,-8.43304,1.09509,0,0,0,0,0,0,0,-1,601,1359,-8.43301,-1.09507
-616,-335,-7.80927,-0.485352,0,0,0,0,0,0,0,-1,608,1359,-7.80926,0.485291
-609,-335,-7.12256,-2.03601,0,0,0,0,0,0,0,-1,615,1359,-7.12253,2.03601
-602,-335,-9.39935,2.25146,0,0,0,0,0,0,0,-1,622,1359,-9.39935,-2.25145
-595,-335,-9.54767,3.01917,0,0,0,0,0,0,0,-1,629,1359,-9.54768,-3.01911
-588,-335,-34.9862,13.5168,0,0,0,0,0,0,0,-1,636,1359,-34.9862,-13.5169
-581,-335,-178.045,35.0662,0,0,0,0,0,0,0,-1,643,1359,-178.045,-35.0662
-574,-335,-178.4,37.3893,0.00757015,0.0584401,-0.0248789,0.0685846,-0.00257434,-1.18362,0.0466049,0.0205715,650,1359,-178.4,-37.3893
-567,-335,-178.844,39.7678,0.00789555,0.052874,-0.0267239,0.0653123,-0.00454273,-1.13518,0.045132,0.0240258,657,1359,-178.844,-39.7678
-560,-335,-179.248,42.1124,0.00751089,0.0472189,-0.0288462,0.0623833,-0.00765343,-1.0868,0.0443606,0.0326958,664,1359,-179.248,-42.1124
-553,-335,-179.545,44.3627,0,0,0,0,0,0,0,-1,671,1359,-179.545,-44.3626
-546,-335,-141.761,51.2694,0,0,0,0,0,0,0,-1,678,1359,-141.761,-51.2694
-539,-335,-70.172,41.3423,0,0,0,0,0,0,0,-1,685,1359,-70.172,-41.3422
-532,-335,-66.527,40.0629,0,0,0,0,0,0,0,-1,692,1359,-66.527,-40.0629
-525,-335,-64.6355,40.8328,0,0,0,0,0,0,0,-1,699,1359,-64.6355,-40.8328
-518,-335,-64.9236,42.5958,0,0,0,0,0,0,0,-1,706,1359,-64.9236,-42.5958
-511,-335,-65.4062,44.1842,0,0,0,0,0,0,0,-1,713,1359,-65.4062,-44.1843
-504,-335,-9.35767,5.99695,0,0,0,0,0,0,0,-1,720,1359,-9.35767,-5.99694
-497,-335,-8.75024,-0.650513,0,0,0,0,0,0,0,-1,727,1359,-8.75024,0.650521
-490,-335,-9.51971,0.417603,0,0,0,0,0,0,0,-1,734,1359,-9.51974,-0.41765
-483,-335,-10.2883,1.29224,0,0,0,0,0,0,0,-1,741,1359,-10.2883,-1.2922
-476,-335,-11.9938,-0.173462,0,0,0,0,0,0,0,-1,748,1359,-11.9938,0.173429
-469,-335,-12.8704,-0.204102,0,0,0,0,0,0,0,-1,755,1359,-12.8704,0.204117
-462,-335,-13.486,0.0218506,0,0,0,0,0,0,0,-1,762,1359,-13.4859,-0.0217908
-455,-335,-14.1504,0.549561,0,0,0,0,0,0,0,-1,769,1359,-14.1504,-0.549583
-448,-335,0,0,0,0,0,0,0,0,0,-1,776,1359,0,0
-441,-335,0,0,0,0,0,0,0,0,0,-1,783,1359,0,0
-434,-335,0,0,0,0,0,0,0,0,0,-1,790,1359,0,0
-427,-335,0,0,0,0,0,0,0,0,0,-1,797,1359,0,0
-420,-335,0,0,0,0,0,0,0,0,0,-1,804,1359,0,0
-413,-335,0,0,0,0,0,0,0,0,0,-1,811,1359,0,0
-406,-335,0,0,0,0,0,0,0,0,0,-1,818,1359,0,0
-399,-335,0,0,0,0,0,0,0,0,0,-1,825,1359,0,0
-392,-335,0,0,0,0,0,0,0,0,0,-1,832,1359,0,0
-385,-335,0,0,0,0,0,0,0,0,0,-1,839,1359,0,0
-378,-335,0,0,0,0,0,0,0,0,0,-1,846,1359,0,0
-371,-335,0,0,0,0,0,0,0,0,0,-1,853,1359,0,0
-364,-335,0,0,0,0,0,0,0,0,0,-1,860,1359,0,0
-357,-335,0,0,0,0,0,0,0,0,0,-1,867,1359,0,0
-350,-335,0,0,0,0,0,0,0,0,0,-1,874,1359,0,0
-343,-335,0,0,0,0,0,0,0,0,0,-1,881,1359,0,0
-336,-335,0,0,0,0,0,0,0,0,0,-1,888,1359,0,0
-329,-335,0,0,0,0,0,0,0,0,0,-1,895,1359,0,0
-322,-335,0,0,0,0,0,0,0,0,0,-1,902,1359,0,0
-315,-335,0,0,0,0,0,0,0,0,0,-1,909,1359,0,0
-308,-335,0,0,0,0,0,0,0,0,0,-1,916,1359,0,0
-301,-335,0,0,0,0,0,0,0,0,0,-1,923,1359,0,0
-294,-335,0,0,0,0,0,0,0,0,0,-1,930,1359,0,0
-287,-335,0,0,0,0,0,0,0,0,0,-1,937,1359,0,0
-280,-335,0,0,0,0,0,0,0,0,0,-1,944,1359,0,0
-273,-335,0,0,0,0,0,0,0,0,0,-1,951,1359,0,0
-266,-335,0,0,0,0,0,0,0,0,0,-1,958,1359,0,0
-259,-335,0,0,0,0,0,0,0,0,0,-1,965,1359,0,0
-252,-335,0,0,0,0,0,0,0,0,0,-1,972,1359,0,0
-245,-335,0,0,0,0,0,0,0,0,0,-1,979,1359,0,0
-238,-335,0,0,0,0,0,0,0,0,0,-1,986,1359,0,0
-231,-335,0,0,0,0,0,0,0,0,0,-1,993,1359,0,0
-224,-335,0,0,0,0,0,0,0,0,0,-1,1000,1359,0,0
-217,-335,0,0,0,0,0,0,0,0,0,-1,1007,1359,0,0
-210,-335,0,0,0,0,0,0,0,0,0,-1,1014,1359,0,0
-203,-335,0,0,0,0,0,0,0,0,0,-1,1021,1359,0,0
-196,-335,0,0,0,0,0,0,0,0,0,-1,1028,1359,0,0
-189,-335,0,0,0,0,0,0,0,0,0,-1,1035,1359,0,0
-182,-335,0,0,0,0,0,0,0,0,0,-1,1042,1359,0,0
-175,-335,0,0,0,0,0,0,0,0,0,-1,1049,1359,0,0
-168,-335,0,0,0,0,0,0,0,0,0,-1,1056,1359,0,0
-161,-335,0,0,0,0,0,0,0,0,0,-1,1063,1359,0,0
-154,-335,0,0,0,0,0,0,0,0,0,-1,1070,1359,0,0
-147,-335,0,0,0,0,0,0,0,0,0,-1,1077,1359,0,0
-140,-335,0,0,0,0,0,0,0,0,0,-1,1084,1359,0,0
-133,-335,0,0,0,0,0,0,0,0,0,-1,1091,1359,0,0
-126,-335,0,0,0,0,0,0,0,0,0,-1,1098,1359,0,0
-119,-335,0,0,0,0,0,0,0,0,0,-1,1105,1359,0,0
-112,-335,0,0,0,0,0,0,0,0,0,-1,1112,1359,0,0
-105,-335,0,0,0,0,0,0,0,0,0,-1,1119,1359,0,0
-98,-335,0,0,0,0,0,0,0,0,0,-1,1126,1359,0,0
-91,-335,0,0,0,0,0,0,0,0,0,-1,1133,1359,0,0
-84,-335,0,0,0,0,0,0,0,0,0,-1,1140,1359,0,0
-77,-335,0,0,0,0,0,0,0,0,0,-1,1147,1359,0,0
-70,-335,0,0,0,0,0,0,0,0,0,-1,1154,1359,0,0
-63,-335,0,0,0,0,0,0,0,0,0,-1,1161,1359,0,0
-56,-335,0,0,0,0,0,0,0,0,0,-1,1168,1359,0,0
-49,-335,0,0,0,0,0,0,0,0,0,-1,1175,1359,0,0
-42,-335,0,0,0,0,0,0,0,0,0,-1,1182,1359,0,0
-35,-335,0,0,0,0,0,0,0,0,0,-1,1189,1359,0,0
-28,-335,0,0,0,0,0,0,0,0,0,-1,1196,1359,0,0
-21,-335,0,0,0,0,0,0,0,0,0,-1,1203,1359,0,0
-14,-335,0,0,0,0,0,0,0,0,0,-1,1210,1359,0,0
-7,-335,0,0,0,0,0,0,0,0,0,-1,1217,1359,0,0
0,-335,0,0,0,0,0,0,0,0,0,-1,1224,1359,0,0
7,-335,0,0,0,0,0,0,0,0,0,-1,1231,1359,0,0
14,-335,0,0,0,0,0,0,0,0,0,-1,1238,1359,0,0
21,-335,0,0,0,0,0,0,0,0,0,-1,1245,1359,0,0
28,-335,0,0,0,0,0,0,0,0,0,-1,1252,1359,0,0
35,-335,0,0,0,0,0,0,0,0,0,-1,1259,1359,0,0
42,-335,0,0,0,0,0,0,0,0,0,-1,1266,1359,0,0
49,-335,0,0,0,0,0,0,0,0,0,-1,1273,1359,0,0
56,-335,0,0,0,0,0,0,0,0,0,-1,1280,1359,0,0
63,-335,0,0,0,0,0,0,0,0,0,-1,1287,1359,0,0
70,-335,0,0,0,0,0,0,0,0,0,-1,1294,1359,0,0
77,-335,0,0,0,0,0,0,0,0,0,-1,1301,1359,0,0
84,-335,0,0,0,0,0,0,0,0,0,-1,1308,1359,0,0
91,-335,0,0,0,0,0,0,0,0,0,-1,1315,1359,0,0
98,-335,0,0,0,0,0,0,0,0,0,-1,1322,1359,0,0
105,-335,0,0,0,0,0,0,0,0,0,-1,1329,1359,0,0
112,-335,0,0,0,0,0,0,0,0,0,-1,1336,1359,0,0
119,-335,0,0,0,0,0,0,0,0,0,-1,1343,1359,0,0
126,-335,0,0,0,0,0,0,0,0,0,-1,1350,1359,0,0
133,-335,0,0,0,0,0,0,0,0,0,-1,1357,1359,0,0
140,-335,0,0,0,0,0,0,0,0,0,-1,1364,1359,0,0
147,-335,0,0,0,0,0,0,0,0,0,-1,1371,1359,0,0
154,-335,0,0,0,0,0,0,0,0,0,-1,1378,1359,0,0
161,-335,0,0,0,0,0,0,0,0,0,-1,1385,1359,0,0
168,-335,0,0,0,0,0,0,0,0,0,-1,1392,1359,0,0
175,-335,0,0,0,0,0,0,0,0,0,-1,1399,1359,0,0
182,-335,0,0,0,0,0,0,0,0,0,-1,1406,1359,0,0
189,-335,0,0,0,0,0,0,0,0,0,-1,1413,1359,0,0
196,-335,0,0,0,0,0,0,0,0,0,-1,1420,1359,0,0
203,-335,0,0,0,0,0,0,0,0,0,-1,1427,1359,0,0
210,-335,0,0,0,0,0,0,0,0,0,-1,1434,1359,0,0
217,-335,0,0,0,0,0,0,0,0,0,-1,1441,1359,0,0
224,-335,0,0,0,0,0,0,0,0,0,-1,1448,1359,0,0
231,-335,0,0,0,0,0,0,0,0,0,-1,1455,1359,0,0
238,-335,0,0,0,0,0,0,0,0,0,-1,1462,1359,0,0
245,-335,0,0,0,0,0,0,0,0,0,-1,1469,1359,0,0
252,-335,0,0,0,0,0,0,0,0,0,-1,1476,1359,0,0
259,-335,0,0,0,0,0,0,0,0,0,-1,1483,1359,0,0
266,-335,0,0,0,0,0,0,0,0,0,-1,1490,1359,0,0
273,-335,0,0,0,0,0,0,0,0,0,-1,1497,1359,0,0
280,-335,0,0,0,0,0,0,0,0,0,-1,1504,1359,0,0
287,-335,0,0,0,0,0,0,0,0,0,-1,1511,1359,0,0
294,-335,0,0,0,0,0,0,0,0,0,-1,1518,1359,0,0
301,-335,0,0,0,0,0,0,0,0,0,-1,1525,1359,0,0
308,-335,0,0,0,0,0,0,0,0,0,-1,1532,1359,0,0
315,-335,0,0,0,0,0,0,0,0,0,-1,1539,1359,0,0
322,-335,0,0,0,0,0,0,0,0,0,-1,1546,1359,0,0
329,-335,0,0,0,0,0,0,0,0,0,-1,1553,1359,0,0
336,-335,0,0,0,0,0,0,0,0,0,-1,1560,1359,0,0
343,-335,0,0,0,0,0,0,0,0,0,-1,1567,1359,0,0
350,-335,0,0,0,0,0,0,0,0,0,-1,1574,1359,0,0
357,-335,0,0,0,0,0,0,0,0,0,-1,1581,1359,0,0
364,-335,0,0,0,0,0,0,0,0,0,-1,1588,1359,0,0
371,-335,0,0,0,0,0,0,0,0,0,-1,1595,1359,0,0
378,-335,0,0,0,0,0,0,0,0,0,-1,1602,1359,0,0
385,-335,0,0,0,0,0,0,0,0,0,-1,1609,1359,0,0
392,-335,0,0,0,0,0,0,0,0,0,-1,1616,1359,0,0
399,-335,0,0,0,0,0,0,0,0,0,-1,1623,1359,0,0
406,-335,0,0,0,0,0,0,0,0,0,-1,1630,1359,0,0
413,-335,0,0,0,0,0,0,0,0,0,-1,1637,1359,0,0
420,-335,0,0,0,0,0,0,0,0,0,-1,1644,1359,0,0
427,-335,0,0,0,0,0,0,0,0,0,-1,1651,1359,0,0
434,-335,0,0,0,0,0,0,0,0,0,-1,1658,1359,0,0
441,-335,0,0,0,0,0,0,0,0,0,-1,1665,1359,0,0
448,-335,0,0,0,0,0,0,0,0,0,-1,1672,1359,0,0
455,-335,0,0,0,0,0,0,0,0,0,-1,1679,1359,0,0
462,-335,0,0,0,0,0,0,0,0,0,-1,1686,1359,0,0
469,-335,0,0,0,0,0,0,0,0,0,-1,1693,1359,0,0
476,-335,0,0,0,0,0,0,0,0,0,-1,1700,1359,0,0
483,-335,0,0,0,0,0,0,0,0,0,-1,1707,1359,0,0
490,-335,0,0,0,0,0,0,0,0,0,-1,1714,1359,0,0
497,-335,0,0,0,0,0,0,0,0,0,-1,1721,1359,0,0
504,-335,0,0,0,0,0,0,0,0,0,-1,1728,1359,0,0
511,-335,0,0,0,0,0,0,0,0,0,-1,1735,1359,0,0
518,-335,0,0,0,0,0,0,0,0,0,-1,1742,1359,0,0
525,-335,0,0,0,0,0,0,0,0,0,-1,1749,1359,0,0
532,-335,0,0,0,0,0,0,0,0,0,-1,1756,1359,0,0
539,-335,0,0,0,0,0,0,0,0,0,-1,1763,1359,0,0
546,-335,0,0,0,0,0,0,0,0,0,-1,1770,1359,0,0
553,-335,0,0,0,0,0,0,0,0,0,-1,1777,1359,0,0
560,-335,0,0,0,0,0,0,0,0,0,-1,1784,1359,0,0
567,-335,0,0,0,0,0,0,0,0,0,-1,1791,1359,0,0
574,-335,65.0712,2.80188,0,0,0,0,0,0,0,-1,1798,1359,65.0712,-2.80193
581,-335,66.5206,1.60327,0,0,0,0,0,0,0,-1,1805,1359,66.5206,-1.60333
588,-335,67.826,0.334961,0,0,0,0,0,0,0,-1,1812,1359,67.8261,-0.335018
595,-335,49.984,3.76465,0,0,0,0,0,0,0,-1,1819,1359,49.984,-3.76467
602,-335,36.5643,0.0861816,0,0,0,0,0,0,0,-1,1826,1359,36.5643,-0.0862283
609,-335,36.2933,0.993896,0,0,0,0,0,0,0,-1,1833,1359,36.2934,-0.993911
616,-335,34.6969,4.82666,0,0,0,0,0,0,0,-1,1840,1359,34.6969,-4.82667
623,-335,26.6051,6.54333,0,0,0,0,0,0,0,-1,1847,1359,26.6051,-6.54339
630,-335,19.1707,1.00952,0,0,0,0,0,0,0,-1,1854,1359,19.1707,-1.00953
637,-335,18.2009,6.65454,0,0,0,0,0,0,0,-1,1861,1359,18.2009,-6.6546
644,-335,28.1042,12.067,0,0,0,0,0,0,0,-1,1868,1359,28.1042,-12.067
651,-335,56.3635,25.3947,0,0,0,0,0,0,0,-1,1875,1359,56.3636,-25.3946
658,-335,82.4652,42.7295,0,0,0,0,0,0,0,-1,1882,1359,82.4652,-42.7295
665,-335,89.772,45.6466,0,0,0,0,0,0,0,-1,1889,1359,89.772,-45.6466
672,-335,186.98,52.9958,0,0,0,0,0,0,0,-1,1896,1359,186.98,-52.9958
679,-335,186.774,49.9503,-0.00437457,0.0237975,0.0194675,0.0337406,-0.0143177,1.09858,0.0284918,0.030025,1903,1359,186.774,-49.9503
686,-335,186.338,47.6436,-0.00480844,0.0280394,0.0219003,0.03899,-0.0157591,1.10713,0.0325441,0.0231641,1910,1359,186.338,-47.6435
693,-335,185.871,45.2764,-0.00515851,0.0323396,0.0243722,0.04434,-0.0171589,1.11326,0.0366442,0.0184488,1917,1359,185.871,-45.2764
700,-335,185.259,42.7596,-0.00541127,0.0366463,0.0269098,0.0497693,-0.0185343,1.11706,0.0407864,0.0194256,1924,1359,185.259,-42.7596
707,-335,184.857,40.4539,-0.00564732,0.0409702,0.0295647,0.0553094,-0.0199865,1.11921,0.0450384,0.0250659,1931,1359,184.857,-40.4539
714,-335,184.698,38.3088,0,0,0,0,0,0,0,-1,1938,1359,184.698,-38.3088
721,-335,63.0804,18.417,0,0,0,0,0,0,0,-1,1945,1359,63.0804,-18.417
728,-335,20.8126,5.21167,0,0,0,0,0,0,0,-1,1952,1359,20.8127,-5.21172
735,-335,20.2725,5.34729,0,0,0,0,0,0,0,-1,1959,1359,20.2724,-5.34734
742,-335,19.8624,4.72229,0,0,0,0,0,0,0,-1,1966,1359,19.8624,-4.72225
749,-335,20.5887,6.05322,0,0,0,0,0,0,0,-1,1973,1359,20.5887,-6.05322
756,-335,20.7832,6.00452,0,0,0,0,0,0,0,-1,1980,1359,20.7832,-6.00447
763,-335,0,0,0,0,0,0,0,0,0,-1,1987,1359,0,0
770,-335,0,0,0,0,0,0,0,0,0,-1,1994,1359,0,0
777,-335,0,0,0,0,0,0,0,0,0,-1,2001,1359,0,0
784,-335,0,0,0,0,0,0,0,0,0,-1,2008,1359,0,0
791,-335,0,0,0,0,0,0,0,0,0,-1,2015,1359,0,0
798,-335,0,0,0,0,0,0,0,0,0,-1,2022,1359,0,0
805,-335,0,0,0,0,0,0,0,0,0,-1,2029,1359,0,0
812,-335,0,0,0,0,0,0,0,0,0,-1,2036,1359,0,0
-700,-342,0,0,0,0,0,0,0,0,0,-1,524,1366,0,0
-693,-342,0,0,0,0,0,0,0,0,0,-1,531,1366,0,0
-686,-342,0,0,0,0,0,0,0,0,0,-1,538,1366,0,0
-679,-342,0,0,0,0,0,0,0,0,0,-1,545,1366,0,0
-672,-342,0,0,0,0,0,0,0,0,0,-1,552,1366,0,0
-665,-342,0,0,0,0,0,0,0,0,0,-1,559,1366,0,0
-658,-342,0,0,0,0,0,0,0,0,0,-1,566,1366,0,0
-651,-342,0,0,0,0,0,0,0,0,0,-1,573,1366,0,0
-644,-342,0,0,0,0,0,0,0,0,0,-1,580,1366,0,0
-637,-342,-63.7546,12.2344,0,0,0,0,0,0,0,-1,587,1366,-63.7546,-12.2343
-630,-342,-8.60132,2.71777,0,0,0,0,0,0,0,-1,594,1366,-8.60135,-2.71779
-623,-342,-8.41168,0.662476,0,0,0,0,0,0,0,-1,601,1366,-8.41168,-0.662442
-616,-342,-6.625,-1.28015,0,0,0,0,0,0,0,-1,608,1366,-6.62499,1.28011
-609,-342,-7.83154,0.674561,0,0,0,0,0,0,0,-1,615,1366,-7.83155,-0.674598
-602,-342,-9.65765,2.25195,0,0,0,0,0,0,0,-1,622,1366,-9.65767,-2.25192
-595,-342,-9.47687,3.00671,0,0,0,0,0,0,0,-1,629,1366,-9.47686,-3.00668
-588,-342,-9.78467,3.57727,0,0,0,0,0,0,0,-1,636,1366,-9.78468,-3.57723
-581,-342,-175.656,35.3967,0,0,0,0,0,0,0,-1,643,1366,-175.656,-35.3967
-574,-342,-175.781,37.6331,0.0106564,0.062842,-0.0242732,0.0723866,0.0011118,-1.19615,0.0478914,0.0315157,650,1366,-175.781,-37.633
-567,-342,-175.871,39.9093,0.00974268,0.0568991,-0.0265323,0.0688159,-0.00217411,-1.14866,0.0466189,0.0241711,657,1366,-175.871,-39.9093
-560,-342,-176.271,42.2833,0.00801191,0.0507744,-0.0289156,0.0653552,-0.00656894,-1.10375,0.0459167,0.032108,664,1366,-176.271,-42.2834
-553,-342,-176.789,44.5172,0.00560727,0.0444867,-0.0314004,0.0619779,-0.0118839,-1.06257,0.0457967,0.0345953,671,1366,-176.789,-44.5172
-546,-342,-177.351,46.8943,0,0,0,0,0,0,0,-1,678,1366,-177.351,-46.8943
-539,-342,-81.4354,46.4868,0,0,0,0,0,0,0,-1,685,1366,-81.4353,-46.4869
-532,-342,-67.7392,42.2123,0,0,0,0,0,0,0,-1,692,1366,-67.7392,-42.2123
-525,-342,-65.3508,41.8672,0,0,0,0,0,0,0,-1,699,1366,-65.3508,-41.8671
-518,-342,-63.2446,42.9529,0,0,0,0,0,0,0,-1,706,1366,-63.2446,-42.9529
-511,-342,-63.2302,44.5254,0,0,0,0,0,0,0,-1,713,1366,-63.2302,-44.5253
-504,-342,-8.95709,6.5719,0,0,0,0,0,0,0,-1,720,1366,-8.95707,-6.57192
-497,-342,-8.26587,-0.943604,0,0,0,0,0,0,0,-1,727,1366,-8.26586,0.943543
-490,-342,-9.07153,-0.0227051,0,0,0,0,0,0,0,-1,734,1366,-9.07155,0.0227087
-483,-342,-9.87726,0.898071,0,0,0,0,0,0,0,-1,741,1366,-9.87724,-0.898125
-476,-342,-11.6371,-0.736328,0,0,0,0,0,0,0,-1,748,1366,-11.6371,0.736281
-469,-342,-12.6245,-0.987549,0,0,0,0,0,0,0,-1,755,1366,-12.6245,0.987553
-462,-342,-13.0912,-0.533203,0,0,0,0,0,0,0,-1,762,1366,-13.0912,0.533224
-455,-342,-13.7612,0.122925,0,0,0,0,0,0,0,-1,769,1366,-13.7612,-0.122896
-448,-342,-14.5278,0.826904,0,0,0,0,0,0,0,-1,776,1366,-14.5277,-0.826861
-441,-342,0,0,0,0,0,0,0,0,0,-1,783,1366,0,0
-434,-342,0,0,0,0,0,0,0,0,0,-1,790,1366,0,0
-427,-342,0,0,0,0,0,0,0,0,0,-1,797,1366,0,0
-420,-342,0,0,0,0,0,0,0,0,0,-1,804,1366,0,0
-413,-342,0,0,0,0,0,0,0,0,0,-1,811,1366,0,0
-406,-342,0,0,0,0,0,0,0,0,0,-1,818,1366,0,0
-399,-342,0,0,0,0,0,0,0,0,0,-1,825,1366,0,0
-392,-342,0,0,0,0,0,0,0,0,0,-1,832,1366,0,0
-385,-342,0,0,0,0,0,0,0,0,0,-1,839,1366,0,0
-378,-342,0,0,0,0,0,0,0,0,0,-1,846,1366,0,0
-371,-342,0,0,0,0,0,0,0,0,0,-1,853,1366,0,0
-364,-342,0,0,0,0,0,0,0,0,0,-1,860,1366,0,0
-357,-342,0,0,0,0,0,0,0,0,0,-1,867,1366,0,0
-350,-342,0,0,0,0,0,0,0,0,0,-1,874,1366,0,0
-343,-342,0,0,0,0,0,0,0,0,0,-1,881,1366,0,0
-336,-342,0,0,0,0,0,0,0,0,0,-1,888,1366,0,0
-329,-342,0,0,0,0,0,0,0,0,0,-1,895,1366,0,0
-322,-342,0,0,0,0,0,0,0,0,0,-1,902,1366,0,0
-315,-342,0,0,0,0,0,0,0,0,0,-1,909,1366,0,0
-308,-342,0,0,0,0,0,0,0,0,0,-1,916,1366,0,0
-301,-342,0,0,0,0,0,0,0,0,0,-1,923,1366,0,0
-294,-342,0,0,0,0,0,0,0,0,0,-1,930,1366,0,0
-287,-342,0,0,0,0,0,0,0,0,0,-1,937,1366,0,0
-280,-342,0,0,0,0,0,0,0,0,0,-1,944,1366,0,0
-273,-342,0,0,0,0,0,0,0,0,0,-1,951,1366,0,0
-266,-342,0,0,0,0,0,0,0,0,0,-1,958,1366,0,0
-259,-342,0,0,0,0,0,0,0,0,0,-1,965,1366,0,0
-252,-342,0,0,0,0,0,0,0,0,0,-1,972,1366,0,0
-245,-342,0,0,0,0,0,0,0,0,0,-1,979,1366,0,0
-238,-342,0,0,0,0,0,0,0,0,0,-1,986,1366,0,0
-231,-342,0,0,0,0,0,0,0,0,0,-1,993,1366,0,0
-224,-342,0,0,0,0,0,0,0,0,0,-1,1000,1366,0,0
-217,-342,0,0,0,0,0,0,0,0,0,-1,1007,1366,0,0
-210,-342,0,0,0,0,0,0,0,0,0,-1,1014,1366,0,0
-203,-342,0,0,0,0,0,0,0,0,0,-1,1021,1366,0,0
-196,-342,0,0,0,0,0,0,0,0,0,-1,1028,1366,0,0
-189,-342,0,0,0,0,0,0,0,0,0,-1,1035,1366,0,0
-182,-342,0,0,0,0,0,0,0,0,0,-1,1042,1366,0,0
-175,-342,0,0,0,0,0,0,0,0,0,-1,1049,1366,0,0
-168,-342,0,0,0,0,0,0,0,0,0,-1,1056,1366,0,0
-161,-342,0,0,0,0,0,0,0,0,0,-1,1063,1366,0,0
-154,-342,0,0,0,0,0,0,0,0,0,-1,1070,1366,0,0
-147,-342,0,0,0,0,0,0,0,0,0,-1,1077,1366,0,0
-140,-342,0,0,0,0,0,0,0,0,0,-1,1084,1366,0,0
-133,-342,0,0,0,0,0,0,0,0,0,-1,1091,1366,0,0
-126,-342,0,0,0,0,0,0,0,0,0,-1,1098,1366,0,0
-119,-342,0,0,0,0,0,0,0,0,0,-1,1105,1366,0,0
-112,-342,0,0,0,0,0,0,0,0,0,-1,1112,1366,0,0
-105,-342,0,0,0,0,0,0,0,0,0,-1,1119,1366,0,0
-98,-342,0,0,0,0,0,0,0,0,0,-1,1126,1366,0,0
-91,-342,0,0,0,0,0,0,0,0,0,-1,1133,1366,0,0
-84,-342,0,0,0,0,0,0,0,0,0,-1,1140,1366,0,0
-77,-342,0,0,0,0,0,0,0,0,0,-1,1147,1366,0,0
-70,-342,0,0,0,0,0,0,0,0,0,-1,1154,1366,0,0
-63,-342,0,0,0,0,0,0,0,0,0,-1,1161,1366,0,0
-56,-342,0,0,0,0,0,0,0,0,0,-1,1168,1366,0,0
-49,-342,0,0,0,0,0,0,0,0,0,-1,1175,1366,0,0
-42,-342,0,0,0,0,0,0,0,0,0,-1,1182,1366,0,0
-35,-342,0,0,0,0,0,0,0,0,0,-1,1189,1366,0,0
-28,-342,0,0,0,0,0,0,0,0,0,-1,1196,1366,0,0
-21,-342,0,0,0,0,0,0,0,0,0,-1,1203,1366,0,0
-14,-342,0,0,0,0,0,0,0,0,0,-1,1210,1366,0,0
-7,-342,0,0,0,0,0,0,0,0,0,-1,1217,1366,0,0
0,-342,0,0,0,0,0,0,0,0,0,-1,1224,1366,0,0
7,-342,0,0,0,0,0,0,0,0,0,-1,1231,1366,0,0
14,-342,0,0,0,0,0,0,0,0,0,-1,1238,1366,0,0
21,-342,0,0,0,0,0,0,0,0,0,-1,1245,1366,0,0
28,-342,0,0,0,0,0,0,0,0,0,-1,1252,1366,0,0
35,-342,0,0,0,0,0,0,0,0,0,-1,1259,1366,0,0
42,-342,0,0,0,0,0,0,0,0,0,-1,1266,1366,0,0
49,-342,0,0,0,0,0,0,0,0,0,-1,1273,1366,0,0
56,-342,0,0,0,0,0,0,0,0,0,-1,1280,1366,0,0
63,-342,0,0,0,0,0,0,0,0,0,-1,1287,1366,0,0
70,-342,0,0,0,0,0,0,0,0,0,-1,1294,1366,0,0
77,-342,0,0,0,0,0,0,0,0,0,-1,1301,1366,0,0
84,-342,0,0,0,0,0,0,0,0,0,-1,1308,1366,0,0
91,-342,0,0,0,0,0,0,0,0,0,-1,1315,1366,0,0
98,-342,0,0,0,0,0,0,0,0,0,-1,1322,1366,0,0
105,-342,0,0,0,0,0,0,0,0,0,-1,1329,1366,0,0
112,-342,0,0,0,0,0,0,0,0,0,-1,1336,1366,0,0
119,-342,0,0,0,0,0,0,0,0,0,-1,1343,1366,0,0
126,-342,0,0,0,0,0,0,0,0,0,-1,1350,1366,0,0
133,-342,0,0,0,0,0,0,0,0,0,-1,1357,1366,0,0
140,-342,0,0,0,0,0,0,0,0,0,-1,1364,1366,0,0
147,-342,0,0,0,0,0,0,0,0,0,-1,1371,1366,0,0
154,-342,0,0,0,0,0,0,0,0,0,-1,1378,1366,0,0
161,-342,0,0,0,0,0,0,0,0,0,-1,1385,1366,0,0
168,-342,0,0,0,0,0,0,0,0,0,-1,1392,1366,0,0
175,-342,0,0,0,0,0,0,0,0,0,-1,1399,1366,0,0
182,-342,0,0,0,0,0,0,0,0,0,-1,1406,1366,0,0
189,-342,0,0,0,0,0,0,0,0,0,-1,1413,1366,0,0
196,-342,0,0,0,0,0,0,0,0,0,-1,1420,1366,0,0
203,-342,0,0,0,0,0,0,0,0,0,-1,1427,1366,0,0
210,-342,0,0,0,0,0,0,0,0,0,-1,1434,1366,0,0
217,-342,0,0,0,0,0,0,0,0,0,-1,1441,1366,0,0
224,-342,0,0,0,0,0,0,0,0,0,-1,1448,1366,0,0
231,-342,0,0,0,0,0,0,0,0,0,-1,1455,1366,0,0
238,-342,0,0,0,0,0,0,0,0,0,-1,1462,1366,0,0
245,-342,0,0,0,0,0,0,0,0,0,-1,1469,1366,0,0
252,-342,0,0,0,0,0,0,0,0,0,-1,1476,1366,0,0
259,-342,0,0,0,0,0,0,0,0,0,-1,1483,1366,0,0
266,-342,0,0,0,0,0,0,0,0,0,-1,1490,1366,0,0
273,-342,0,0,0,0,0,0,0,0,0,-1,1497,1366,0,0
280,-342,0,0,0,0,0,0,0,0,0,-1,1504,1366,0,0
287,-342,0,0,0,0,0,0,0,0,0,-1,1511,1366,0,0
294,-342,0,0,0,0,0,0,0,0,0,-1,1518,1366,0,0
301,-342,0,0,0,0,0,0,0,0,0,-1,1525,1366,0,0
308,-342,0,0,0,0,0,0,0,0,0,-1,1532,1366,0,0
315,-342,0,0,0,0,0,0,0,0,0,-1,1539,1366,0,0
322,-342,0,0,0,0,0,0,0,0,0,-1,1546,1366,0,0
329,-342,0,0,0,0,0,0,0,0,0,-1,1553,1366,0,0
336,-342,0,0,0,0,0,0,0,0,0,-1,1560,1366,0,0
343,-342,0,0,0,0,0,0,0,0,0,-1,1567,1366,0,0
350,-342,0,0,0,0,0,0,0,0,0,-1,1574,1366,0,0
357,-342,0,0,0,0,0,0,0,0,0,-1,1581,1366,0,0
364,-342,0,0,0,0,0,0,0,0,0,-1,1588,1366,0,0
371,-342,0,0,0,0,0,0,0,0,0,-1,1595,1366,0,0
378,-342,0,0,0,0,0,0,0,0,0,-1,1602,1366,0,0
385,-342,0,0,0,0,0,0,0,0,0,-1,1609,1366,0,0
392,-342,0,0,0,0,0,0,0,0,0,-1,1616,1366,0,0
399,-342,0,0,0,0,0,0,0,0,0,-1,1623,1366,0,0
406,-342,0,0,0,0,0,0,0,0,0,-1,1630,1366,0,0
413,-342,0,0,0,0,0,0,0,0,0,-1,1637,1366,0,0
420,-342,0,0,0,0,0,0,0,0,0,-1,1644,1366,0,0
427,-342,0,0,0,0,0,0,0,0,0,-1,1651,1366,0,0
434,-342,0,0,0,0,0,0,0,0,0,-1,1658,1366,0,0
441,-342,0,0,0,0,0,0,0,0,0,-1,1665,1366,0,0
448,-342,0,0,0,0,0,0,0,0,0,-1,1672,1366,0,0
455,-342,0,0,0,0,0,0,0,0,0,-1,1679,1366,0,0
462,-342,0,0,0,0,0,0,0,0,0,-1,1686,1366,0,0
469,-342,0,0,0,0,0,0,0,0,0,-1,1693,1366,0,0
476,-342,0,0,0,0,0,0,0,0,0,-1,1700,1366,0,0
483,-342,0,0,0,0,0,0,0,0,0,-1,1707,1366,0,0
490,-342,0,0,0,0,0,0,0,0,0,-1,1714,1366,0,0
497,-342,0,0,0,0,0,0,0,0,0,-1,1721,1366,0,0
504,-342,0,0,0,0,0,0,0,0,0,-1,1728,1366,0,0
511,-342,0,0,0,0,0,0,0,0,0,-1,1735,1366,0,0
518,-342,0,0,0,0,0,0,0,0,0,-1,1742,1366,0,0
525,-342,0,0,0,0,0,0,0,0,0,-1,1749,1366,0,0
532,-342,0,0,0,0,0,0,0,0,0,-1,1756,1366,0,0
539,-342,0,0,0,0,0,0,0,0,0,-1,1763,1366,0,0
546,-342,0,0,0,0,0,0,0,0,0,-1,1770,1366,0,0
553,-342,0,0,0,0,0,0,0,0,0,-1,1777,1366,0,0
560,-342,0,0,0,0,0,0,0,0,0,-1,1784,1366,0,0
567,-342,64.6937,3.24878,0,0,0,0,0,0,0,-1,1791,1366,64.6938,-3.24881
574,-342,65.4669,2.18384,0,0,0,0,0,0,0,-1,1798,1366,65.4669,-2.18381
581,-342,66.542,1.36292,0,0,0,0,0,0,0,-1,1805,1366,66.542,-1.36295
588,-342,43.9108,7.22559,0,0,0,0,0,0,0,-1,1812,1366,43.9107,-7.22554
595,-342,35.7993,0.709961,0,0,0,0,0,0,0,-1,1819,1366,35.7993,-0.709913
602,-342,36.3618,3.28723,0,0,0,0,0,0,0,-1,1826,1366,36.3619,-3.28719
609,-342,35.3777,4.14978,0,0,0,0,0,0,0,-1,1833,1366,35.3777,-4.14976
616,-342,34.199,5.8158,0,0,0,0,0,0,0,-1,1840,1366,34.199,-5.81579
623,-342,26.0299,6.86865,0,0,0,0,0,0,0,-1,1847,1366,26.0299,-6.86863
630,-342,17.3431,0.773071,0,0,0,0,0,0,0,-1,1854,1366,17.3432,-0.773095
637,-342,16.196,6.76172,0,0,0,0,0,0,0,-1,1861,1366,16.1961,-6.76174
644,-342,31.8916,14.0614,0,0,0,0,0,0,0,-1,1868,1366,31.8916,-14.0613
651,-342,80.5938,43.9689,0,0,0,0,0,0,0,-1,1875,1366,80.5937,-43.9688
658,-342,87.5692,47.3271,0,0,0,0,0,0,0,-1,1882,1366,87.5692,-47.3271
665,-342,184.349,55.3799,0,0,0,0,0,0,0,-1,1889,1366,184.349,-55.3799
672,-342,184.097,53.0663,-0.00276531,0.0212744,0.0184224,0.0312514,-0.0127423,1.07445,0.0261383,0.0373059,1896,1366,184.097,-53.0662
679,-342,183.895,50.5135,-0.00333766,0.0253235,0.021054,0.0364613,-0.0144754,1.08421,0.0303077,0.0216749,1903,1366,183.895,-50.5135
686,-342,183.441,48.0287,-0.00386807,0.0295628,0.0236596,0.041816,-0.0161212,1.09294,0.0345292,0.0218056,1910,1366,183.441,-48.0287
693,-342,182.996,45.5969,-0.00428402,0.0339099,0.0262534,0.0472773,-0.0176514,1.09984,0.0387655,0.020865,1917,1366,182.996,-45.5969
700,-342,182.49,43.2045,-0.00456397,0.0383055,0.0288568,0.0528175,-0.0190759,1.10484,0.0430045,0.0224635,1924,1366,182.49,-43.2044
707,-342,181.927,40.6652,-0.00486094,0.0427877,0.0315428,0.0584924,-0.0205657,1.10884,0.0473627,0.0227517,1931,1366,181.927,-40.6651
714,-342,181.414,38.1311,0,0,0,0,0,0,0,-1,1938,1366,181.414,-38.1311
721,-342,22.4666,6.08679,0,0,0,0,0,0,0,-1,1945,1366,22.4666,-6.08678
728,-342,19.8912,5.26636,0,0,0,0,0,0,0,-1,1952,1366,19.8913,-5.26636
735,-342,19.481,4.41968,0,0,0,0,0,0,0,-1,1959,1366,19.4809,-4.41962
742,-342,19.309,2.66943,0,0,0,0,0,0,0,-1,1966,1366,19.3089,-2.66948
749,-342,21.0934,6.47729,0,0,0,0,0,0,0,-1,1973,1366,21.0934,-6.4773
756,-342,0,0,0,0,0,0,0,0,0,-1,1980,1366,0,0
763,-342,0,0,0,0,0,0,0,0,0,-1,1987,1366,0,0
770,-342,0,0,0,0,0,0,0,0,0,-1,1994,1366,0,0
777,-342,0,0,0,0,0,0,0,0,0,-1,2001,1366,0,0
784,-342,0,0,0,0,0,0,0,0,0,-1,2008,1366,0,0
791,-342,0,0,0,0,0,0,0,0,0,-1,2015,1366,0,0
798,-342,0,0,0,0,0,0,0,0,0,-1,2022,1366,0,0
805,-342,0,0,0,0,0,0,0,0,0,-1,2029,1366,0,0
812,-342,0,0,0,0,0,0,0,0,0,-1,2036,1366,0,0
-700,-349,0,0,0,0,0,0,0,0,0,-1,524,1373,0,0
-693,-349,0,0,0,0,0,0,0,0,0,-1,531,1373,0,0
-686,-349,0,0,0,0,0,0,0,0,0,-1,538,1373,0,0
-679,-349,0,0,0,0,0,0,0,0,0,-1,545,1373,0,0
-672,-349,0,0,0,0,0,0,0,0,0,-1,552,1373,0,0
-665,-349,0,0,0,0,0,0,0,0,0,-1,559,1373,0,0
-658,-349,0,0,0,0,0,0,0,0,0,-1,566,1373,0,0
-651,-349,0,0,0,0,0,0,0,0,0,-1,573,1373,0,0
-644,-349,0,0,0,0,0,0,0,0,0,-1,580,1373,0,0
-637,-349,0,0,0,0,0,0,0,0,0,-1,587,1373,0,0
-630,-349,-7.64117,-5.06177,0,0,0,0,0,0,0,-1,594,1373,-7.64118,5.0618
-623,-349,-8.63507,0.51123,0,0,0,0,0,0,0,-1,601,1373,-8.63505,-0.511275
-616,-349,-5.2066,-0.188232,0,0,0,0,0,0,0,-1,608,1373,-5.20659,0.188211
-609,-349,-7.12073,1.37048,0,0,0,0,0,0,0,-1,615,1373,-7.12072,-1.37044
-602,-349,-9.00623,3.39587,0,0,0,0,0,0,0,-1,622,1373,-9.0062,-3.39591
-595,-349,-9.50568,2.96912,0,0,0,0,0,0,0,-1,629,1373,-9.50569,-2.96906
-588,-349,-8.60046,3.56042,0,0,0,0,0,0,0,-1,636,1373,-8.60046,-3.56047
-581,-349,-31.1797,14.1667,0,0,0,0,0,0,0,-1,643,1373,-31.1798,-14.1667
-574,-349,-173.248,37.7493,0,0,0,0,0,0,0,-1,650,1373,-173.248,-37.7493
-567,-349,-172.956,40.0828,0.0123788,0.0610311,-0.0259369,0.0722646,0.00114531,-1.16208,0.0477992,0.0284805,657,1373,-172.956,-40.0827
-560,-349,-173.306,42.559,0.0095732,0.0546533,-0.0285667,0.0685015,-0.00427505,-1.11941,0.0471574,0.0282283,664,1373,-173.306,-42.559
-553,-349,-173.773,45.0243,0.0063059,0.048161,-0.0312339,0.0648302,-0.0103633,-1.08056,0.0470565,0.0362942,671,1373,-173.773,-45.0243
-546,-349,-174.212,47.4635,0,0,0,0,0,0,0,-1,678,1373,-174.212,-47.4635
-539,-349,-175.075,50.0002,0,0,0,0,0,0,0,-1,685,1373,-175.075,-50.0003
-532,-349,-80.009,48.7177,0,0,0,0,0,0,0,-1,692,1373,-80.0089,-48.7177
-525,-349,-69.8218,45.8181,0,0,0,0,0,0,0,-1,699,1373,-69.8218,-45.8181
-518,-349,-88.0445,55.7136,0,0,0,0,0,0,0,-1,706,1373,-88.0445,-55.7136
-511,-349,-58.4487,42.8572,0,0,0,0,0,0,0,-1,713,1373,-58.4487,-42.8572
-504,-349,-9.60516,7.88831,0,0,0,0,0,0,0,-1,720,1373,-9.60519,-7.88825
-497,-349,-7.9339,5.58789,0,0,0,0,0,0,0,-1,727,1373,-7.93388,-5.58785
-490,-349,-8.73969,-0.503784,0,0,0,0,0,0,0,-1,734,1373,-8.73966,0.503752
-483,-349,-5.66974,3.7395,0,0,0,0,0,0,0,-1,741,1373,-5.66975,-3.73949
-476,-349,-10.8496,1.15759,0,0,0,0,0,0,0,-1,748,1373,-10.8496,-1.15756
-469,-349,-12.3314,-1.74878,0,0,0,0,0,0,0,-1,755,1373,-12.3314,1.74882
-462,-349,-12.6559,-0.995361,0,0,0,0,0,0,0,-1,762,1373,-12.656,0.995351
-455,-349,-13.2897,-0.234253,0,0,0,0,0,0,0,-1,769,1373,-13.2897,0.234261
-448,-349,-14.045,0.712891,0,0,0,0,0,0,0,-1,776,1373,-14.045,-0.712838
-441,-349,0,0,0,0,0,0,0,0,0,-1,783,1373,0,0
-434,-349,0,0,0,0,0,0,0,0,0,-1,790,1373,0,0
-427,-349,0,0,0,0,0,0,0,0,0,-1,797,1373,0,0
-420,-349,0,0,0,0,0,0,0,0,0,-1,804,1373,0,0
-413,-349,0,0,0,0,0,0,0,0,0,-1,811,1373,0,0
-406,-349,0,0,0,0,0,0,0,0,0,-1,818,1373,0,0
-399,-349,0,0,0,0,0,0,0,0,0,-1,825,1373,0,0
-392,-349,0,0,0,0,0,0,0,0,0,-1,832,1373,0,0
-385,-349,0,0,0,0,0,0,0,0,0,-1,839,1373,0,0
-378,-349,0,0,0,0,0,0,0,0,0,-1,846,1373,0,0
-371,-349,0,0,0,0,0,0,0,0,0,-1,853,1373,0,0
-364,-349,0,0,0,0,0,0,0,0,0,-1,860,1373,0,0
-357,-349,0,0,0,0,0,0,0,0,0,-1,867,1373,0,0
-350,-349,0,0,0,0,0,0,0,0,0,-1,874,1373,0,0
-343,-349,0,0,0,0,0,0,0,0,0,-1,881,1373,0,0
-336,-349,0,0,0,0,0,0,0,0,0,-1,888,1373,0,0
-329,-349,0,0,0,0,0,0,0,0,0,-1,895,1373,0,0
-322,-349,0,0,0,0,0,0,0,0,0,-1,902,1373,0,0
-315,-349,0,0,0,0,0,0,0,0,0,-1,909,1373,0,0
-308,-349,0,0,0,0,0,0,0,0,0,-1,916,1373,0,0
-301,-349,0,0,0,0,0,0,0,0,0,-1,923,1373,0,0
-294,-349,0,0,0,0,0,0,0,0,0,-1,930,1373,0,0
-287,-349,0,0,0,0,0,0,0,0,0,-1,937,1373,0,0
-280,-349,0,0,0,0,0,0,0,0,0,-1,944,1373,0,0
-273,-349,0,0,0,0,0,0,0,0,0,-1,951,1373,0,0
-266,-349,0,0,0,0,0,0,0,0,0,-1,958,1373,0,0
-259,-349,0,0,0,0,0,0,0,0,0,-1,965,1373,0,0
-252,-349,0,0,0,0,0,0,0,0,0,-1,972,1373,0,0
-245,-349,0,0,0,0,0,0,0,0,0,-1,979,1373,0,0
-238,-349,0,0,0,0,0,0,0,0,0,-1,986,1373,0,0
-231,-349,0,0,0,0,0,0,0,0,0,-1,993,1373,0,0
-224,-349,0,0,0,0,0,0,0,0,0,-1,1000,1373,0,0
-217,-349,0,0,0,0,0,0,0,0,0,-1,1007,1373,0,0
-210,-349,0,0,0,0,0,0,0,0,0,-1,1014,1373,0,0
-203,-349,0,0,0,0,0,0,0,0,0,-1,1021,1373,0,0
-196,-349,0,0,0,0,0,0,0,0,0,-1,1028,1373,0,0
-189,-349,0,0,0,0,0,0,0,0,0,-1,1035,1373,0,0
-182,-349,0,0,0,0,0,0,0,0,0,-1,1042,1373,0,0
-175,-349,0,0,0,0,0,0,0,0,0,-1,1049,1373,0,0
-168,-349,0,0,0,0,0,0,0,0,0,-1,1056,1373,0,0
-161,-349,0,0,0,0,0,0,0,0,0,-1,1063,1373,0,0
-154,-349,0,0,0,0,0,0,0,0,0,-1,1070,1373,0,0
-147,-349,0,0,0,0,0,0,0,0,0,-1,1077,1373,0,0
-140,-349,0,0,0,0,0,0,0,0,0,-1,1084,1373,0,0
-133,-349,0,0,0,0,0,0,0,0,0,-1,1091,1373,0,0
-126,-349,0,0,0,0,0,0,0,0,0,-1,1098,1373,0,0
-119,-349,0,0,0,0,0,0,0,0,0,-1,1105,1373,0,0
-112,-349,0,0,0,0,0,0,0,0,0,-1,1112,1373,0,0
-105,-349,0,0,0,0,0,0,0,0,0,-1,1119,1373,0,0
-98,-349,0,0,0,0,0,0,0,0,0,-1,1126,1373,0,0
-91,-349,0,0,0,0,0,0,0,0,0,-1,1133,1373,0,0
-84,-349,0,0,0,0,0,0,0,0,0,-1,1140,1373,0,0
-77,-349,0,0,0,0,0,0,0,0,0,-1,1147,1373,0,0
-70,-349,0,0,0,0,0,0,0,0,0,-1,1154,1373,0,0
-63,-349,0,0,0,0,0,0,0,0,0,-1,1161,1373,0,0
-56,-349,0,0,0,0,0,0,0,0,0,-1,1168,1373,0,0
-49,-349,0,0,0,0,0,0,0,0,0,-1,1175,1373,0,0
-42,-349,0,0,0,0,0,0,0,0,0,-1,1182,1373,0,0
-35,-349,0,0,0,0,0,0,0,0,0,-1,1189,1373,0,0
-28,-349,0,0,0,0,0,0,0,0,0,-1,1196,1373,0,0
-21,-349,0,0,0,0,0,0,0,0,0,-1,1203,1373,0,0
-14,-349,0,0,0,0,0,0,0,0,0,-1,1210,1373,0,0
-7,-349,0,0,0,0,0,0,0,0,0,-1,1217,1373,0,0
0,-349,0,0,0,0,0,0,0,0,0,-1,1224,1373,0,0
7,-349,0,0,0,0,0,0,0,0,0,-1,1231,1373,0,0
14,-349,0,0,0,0,0,0,0,0,0,-1,1238,1373,0,0
21,-349,0,0,0,0,0,0,0,0,0,-1,1245,1373,0,0
28,-349,0,0,0,0,0,0,0,0,0,-1,1252,1373,0,0
35,-349,0,0,0,0,0,0,0,0,0,-1,1259,1373,0,0
42,-349,0,0,0,0,0,0,0,0,0,-1,1266,1373,0,0
49,-349,0,0,0,0,0,0,0,0,0,-1,1273,1373,0,0
56,-349,0,0,0,0,0,0,0,0,0,-1,1280,1373,0,0
63,-349,0,0,0,0,0,0,0,0,0,-1,1287,1373,0,0
70,-349,0,0,0,0,0,0,0,0,0,-1,1294,1373,0,0
77,-349,0,0,0,0,0,0,0,0,0,-1,1301,1373,0,0
84,-349,0,0,0,0,0,0,0,0,0,-1,1308,1373,0,0
91,-349,0,0,0,0,0,0,0,0,0,-1,1315,1373,0,0
98,-349,0,0,0,0,0,0,0,0,0,-1,1322,1373,0,0
105,-349,0,0,0,0,0,0,0,0,0,-1,1329,1373,0,0
112,-349,0,0,0,0,0,0,0,0,0,-1,1336,1373,0,0
119,-349,0,0,0,0,0,0,0,0,0,-1,1343,1373,0,0
126,-349,0,0,0,0,0,0,0,0,0,-1,1350,1373,0,0
133,-349,0,0,0,0,0,0,0,0,0,-1,1357,1373,0,0
140,-349,0,0,0,0,0,0,0,0,0,-1,1364,1373,0,0
147,-349,0,0,0,0,0,0,0,0,0,-1,1371,1373,0,0
154,-349,0,0,0,0,0,0,0,0,0,-1,1378,1373,0,0
161,-349,0,0,0,0,0,0,0,0,0,-1,1385,1373,0,0
168,-349,0,0,0,0,0,0,0,0,0,-1,1392,1373,0,0
175,-349,0,0,0,0,0,0,0,0,0,-1,1399,1373,0,0
182,-349,0,0,0,0,0,0,0,0,0,-1,1406,1373,0,0
189,-349,0,0,0,0,0,0,0,0,0,-1,1413,1373,0,0
196,-349,0,0,0,0,0,0,0,0,0,-1,1420,1373,0,0
203,-349,0,0,0,0,0,0,0,0,0,-1,1427,1373,0,0
210,-349,0,0,0,0,0,0,0,0,0,-1,1434,1373,0,0
217,-349,0,0,0,0,0,0,0,0,0,-1,1441,1373,0,0
224,-349,0,0,0,0,0,0,0,0,0,-1,1448,1373,0,0
231,-349,0,0,0,0,0,0,0,0,0,-1,1455,1373,0,0
238,-349,0,0,0,0,0,0,0,0,0,-1,1462,1373,0,0
245,-349,0,0,0,0,0,0,0,0,0,-1,1469,1373,0,0
252,-349,0,0,0,0,0,0,0,0,0,-1,1476,1373,0,0
259,-349,0,0,0,0,0,0,0,0,0,-1,1483,1373,0,0
266,-349,0,0,0,0,0,0,0,0,0,-1,1490,1373,0,0
273,-349,0,0,0,0,0,0,0,0,0,-1,1497,1373,0,0
280,-349,0,0,0,0,0,0,0,0,0,-1,1504,1373,0,0
287,-349,0,0,0,0,0,0,0,0,0,-1,1511,1373,0,0
294,-349,0,0,0,0,0,0,0,0,0,-1,1518,1373,0,0
301,-349,0,0,0,0,0,0,0,0,0,-1,1525,1373,0,0
308,-349,0,0,0,0,0,0,0,0,0,-1,1532,1373,0,0
315,-349,0,0,0,0,0,0,0,0,0,-1,1539,1373,0,0
322,-349,0,0,0,0,0,0,0,0,0,-1,1546,1373,0,0
329,-349,0,0,0,0,0,0,0,0,0,-1,1553,1373,0,0
336,-349,0,0,0,0,0,0,0,0,0,-1,1560,1373,0,0
343,-349,0,0,0,0,0,0,0,0,0,-1,1567,1373,0,0
350,-349,0,0,0,0,0,0,0,0,0,-1,1574,1373,0,0
357,-349,0,0,0,0,0,0,0,0,0,-1,1581,1373,0,0
364,-349,0,0,0,0,0,0,0,0,0,-1,1588,1373,0,0
371,-349,0,0,0,0,0,0,0,0,0,-1,1595,1373,0,0
378,-349,0,0,0,0,0,0,0,0,0,-1,1602,1373,0,0
385,-349,0,0,0,0,0,0,0,0,0,-1,1609,1373,0,0
392,-349,0,0,0,0,0,0,0,0,0,-1,1616,1373,0,0
399,-349,0,0,0,0,0,0,0,0,0,-1,1623,1373,0,0
406,-349,0,0,0,0,0,0,0,0,0,-1,1630,1373,0,0
413,-349,0,0,0,0,0,0,0,0,0,-1,1637,1373,0,0
420,-349,0,0,0,0,0,0,0,0,0,-1,1644,1373,0,0
427,-349,0,0,0,0,0,0,0,0,0,-1,1651,1373,0,0
434,-349,0,0,0,0,0,0,0,0,0,-1,1658,1373,0,0
441,-349,0,0,0,0,0,0,0,0,0,-1,1665,1373,0,0
448,-349,0,0,0,0,0,0,0,0,0,-1,1672,1373,0,0
455,-349,0,0,0,0,0,0,0,0,0,-1,1679,1373,0,0
462,-349,0,0,0,0,0,0,0,0,0,-1,1686,1373,0,0
469,-349,0,0,0,0,0,0,0,0,0,-1,1693,1373,0,0
476,-349,0,0,0,0,0,0,0,0,0,-1,1700,1373,0,0
483,-349,0,0,0,0,0,0,0,0,0,-1,1707,1373,0,0
490,-349,0,0,0,0,0,0,0,0,0,-1,1714,1373,0,0
497,-349,0,0,0,0,0,0,0,0,0,-1,1721,1373,0,0
504,-349,0,0,0,0,0,0,0,0,0,-1,1728,1373,0,0
511,-349,0,0,0,0,0,0,0,0,0,-1,1735,1373,0,0
518,-349,0,0,0,0,0,0,0,0,0,-1,1742,1373,0,0
525,-349,0,0,0,0,0,0,0,0,0,-1,1749,1373,0,0
532,-349,0,0,0,0,0,0,0,0,0,-1,1756,1373,0,0
539,-349,0,0,0,0,0,0,0,0,0,-1,1763,1373,0,0
546,-349,0,0,0,0,0,0,0,0,0,-1,1770,1373,0,0
553,-349,0,0,0,0,0,0,0,0,0,-1,1777,1373,0,0
560,-349,63.5519,3.94397,0,0,0,0,0,0,0,-1,1784,1373,63.5519,-3.94394
567,-349,64.7863,2.54688,0,0,0,0,0,0,0,-1,1791,1373,64.7863,-2.5469
574,-349,65.8214,1.63818,0,0,0,0,0,0,0,-1,1798,1373,65.8214,-1.63813
581,-349,42.8947,6.78381,0,0,0,0,0,0,0,-1,1805,1373,42.8946,-6.78376
588,-349,44.8121,5.06213,0,0,0,0,0,0,0,-1,1812,1373,44.8121,-5.06215
595,-349,44.4338,6.14099,0,0,0,0,0,0,0,-1,1819,1373,44.4338,-6.14095
602,-349,35.6641,3.26465,0,0,0,0,0,0,0,-1,1826,1373,35.6641,-3.26468
609,-349,34.7175,4.401,0,0,0,0,0,0,0,-1,1833,1373,34.7175,-4.40096
616,-349,27.1451,6.68274,0,0,0,0,0,0,0,-1,1840,1373,27.1451,-6.6828
623,-349,18.8478,2.75769,0,0,0,0,0,0,0,-1,1847,1373,18.8478,-2.75774
630,-349,15.4948,6.47644,0,0,0,0,0,0,0,-1,1854,1373,15.4947,-6.4765
637,-349,16.5161,6.92639,0,0,0,0,0,0,0,-1,1861,1373,16.5161,-6.92636
644,-349,44.2694,19.8312,0,0,0,0,0,0,0,-1,1868,1373,44.2695,-19.8311
651,-349,78.9188,43.9373,0,0,0,0,0,0,0,-1,1875,1373,78.9188,-43.9372
658,-349,87.4794,48.3646,0,0,0,0,0,0,0,-1,1882,1373,87.4794,-48.3647
665,-349,181.541,55.476,0,0,0,0,0,0,0,-1,1889,1373,181.541,-55.476
672,-349,181.325,53.3427,-0.00212386,0.0232124,0.0202876,0.0344622,-0.0133737,1.06449,0.0284986,0.0404893,1896,1373,181.325,-53.3427
679,-349,180.929,50.9028,-0.00269968,0.0271269,0.0229579,0.0395901,-0.0151629,1.07344,0.0326435,0.0226984,1903,1373,180.929,-50.9028
686,-349,180.422,48.3179,-0.00319018,0.0312926,0.0255906,0.044908,-0.0168056,1.08184,0.0368412,0.0254598,1910,1373,180.422,-48.3179
693,-349,180.096,45.8329,-0.00354227,0.0356385,0.0281859,0.0503734,-0.0182772,1.08909,0.041054,0.027209,1917,1373,180.096,-45.8329
700,-349,179.578,43.4808,-0.00371226,0.0400994,0.0307497,0.0559482,-0.019561,1.0949,0.0452511,0.0254762,1924,1373,179.578,-43.4809
707,-349,178.957,40.9948,0,0,0,0,0,0,0,-1,1931,1373,178.957,-40.9947
714,-349,65.1287,22.8026,0,0,0,0,0,0,0,-1,1938,1373,65.1287,-22.8026
721,-349,19.6688,5.93604,0,0,0,0,0,0,0,-1,1945,1373,19.6688,-5.93606
728,-349,18.6333,3.73218,0,0,0,0,0,0,0,-1,1952,1373,18.6333,-3.73214
735,-349,18.1918,3.39954,0,0,0,0,0,0,0,-1,1959,1373,18.1918,-3.3995
742,-349,20.7345,2.07483,0,0,0,0,0,0,0,-1,1966,1373,20.7345,-2.07485
749,-349,21.9037,1.45789,0,0,0,0,0,0,0,-1,1973,1373,21.9037,-1.45788
756,-349,0,0,0,0,0,0,0,0,0,-1,1980,1373,0,0
763,-349,0,0,0,0,0,0,0,0,0,-1,1987,1373,0,0
770,-349,0,0,0,0,0,0,0,0,0,-1,1994,1373,0,0
777,-349,0,0,0,0,0,0,0,0,0,-1,2001,1373,0,0
784,-349,0,0,0,0,0,0,0,0,0,-1,2008,1373,0,0
791,-349,0,0,0,0,0,0,0,0,0,-1,2015,1373,0,0
798,-349,0,0,0,0,0,0,0,0,0,-1,2022,1373,0,0
805,-349,0,0,0,0,0,0,0,0,0,-1,2029,1373,0,0
812,-349,0,0,0,0,0,0,0,0,0,-1,2036,1373,0,0
-700,-356,0,0,0,0,0,0,0,0,0,-1,524,1380,0,0
-693,-356,0,0,0,0,0,0,0,0,0,-1,531,1380,0,0
-686,-356,0,0,0,0,0,0,0,0,0,-1,538,1380,0,0
-679,-356,0,0,0,0,0,0,0,0,0,-1,545,1380,0,0
-672,-356,0,0,0,0,0,0,0,0,0,-1,552,1380,0,0
-665,-356,0,0,0,0,0,0,0,0,0,-1,559,1380,0,0
-658,-356,0,0,0,0,0,0,0,0,0,-1,566,1380,0,0
-651,-356,0,0,0,0,0,0,0,0,0,-1,573,1380,0,0
-644,-356,0,0,0,0,0,0,0,0,0,-1,580,1380,0,0
-637,-356,0,0,0,0,0,0,0,0,0,-1,587,1380,0,0
-630,-356,-8.23126,-5.01917,0,0,0,0,0,0,0,-1,594,1380,-8.23124,5.0192
-623,-356,-0.263855,-0.675781,0,0,0,0,0,0,0,-1,601,1380,-0.263835,0.675841
-616,-356,-8.26532,-3.43945,0,0,0,0,0,0,0,-1,608,1380,-8.2653,3.43948
-609,-356,-4.88483,0.734497,0,0,0,0,0,0,0,-1,615,1380,-4.88485,-0.734532
-602,-356,-9.06635,2.4021,0,0,0,0,0,0,0,-1,622,1380,-9.06634,-2.40206
-595,-356,-8.45703,3.61853,0,0,0,0,0,0,0,-1,629,1380,-8.45706,-3.61848
-588,-356,-9.31738,4.14258,0,0,0,0,0,0,0,-1,636,1380,-9.31736,-4.14255
-581,-356,-16.5185,7.32312,0,0,0,0,0,0,0,-1,643,1380,-16.5185,-7.32306
-574,-356,-169.937,37.6698,0,0,0,0,0,0,0,-1,650,1380,-169.937,-37.6697
-567,-356,-170.073,40.1783,0.0159268,0.0652053,-0.0251654,0.0757852,0.00534687,-1.17282,0.0488388,0.045419,657,1380,-170.073,-40.1783
-560,-356,-170.345,42.7876,0.0122031,0.0587573,-0.0280714,0.071947,-0.000986617,-1.13155,0.0482969,0.0289615,664,1380,-170.345,-42.7876
-553,-356,-170.757,45.3278,0.00831516,0.0522893,-0.0308846,0.0682138,-0.00760941,-1.09474,0.0482129,0.0326928,671,1380,-170.757,-45.3278
-546,-356,-171.381,47.8254,0.0047481,0.0462278,-0.0333144,0.0647307,-0.0137548,-1.06382,0.0483947,0.0323143,678,1380,-171.381,-47.8255
-539,-356,-171.877,50.4041,0.00135365,0.0404769,-0.0354644,0.0614169,-0.0195864,-1.03743,0.0488016,0.0384015,685,1380,-171.877,-50.404
-532,-356,-172.33,53.0491,0,0,0,0,0,0,0,-1,692,1380,-172.33,-53.0491
-525,-356,-93.0189,56.4785,0,0,0,0,0,0,0,-1,699,1380,-93.0188,-56.4785
-518,-356,-93.6779,58.5238,0,0,0,0,0,0,0,-1,706,1380,-93.6779,-58.5238
-511,-356,-86.5028,58.0922,0,0,0,0,0,0,0,-1,713,1380,-86.5028,-58.0921
-504,-356,-14.3925,12.3971,0,0,0,0,0,0,0,-1,720,1380,-14.3925,-12.3971
-497,-356,-5.68604,4.96387,0,0,0,0,0,0,0,-1,727,1380,-5.68605,-4.96385
-490,-356,-7.95288,5.5625,0,0,0,0,0,0,0,-1,734,1380,-7.95285,-5.56246
-483,-356,-7.2627,4.07446,0,0,0,0,0,0,0,-1,741,1380,-7.2627,-4.07441
-476,-356,-5.1936,4.16016,0,0,0,0,0,0,0,-1,748,1380,-5.1936,-4.16012
-469,-356,-10.0883,0.536011,0,0,0,0,0,0,0,-1,755,1380,-10.0883,-0.535989
-462,-356,-12.3481,-0.215698,0,0,0,0,0,0,0,-1,762,1380,-12.3481,0.215641
-455,-356,-13.1367,-0.264648,0,0,0,0,0,0,0,-1,769,1380,-13.1367,0.264647
-448,-356,-13.9116,-0.310181,0,0,0,0,0,0,0,-1,776,1380,-13.9115,0.310207
-441,-356,-13.1602,3.05603,0,0,0,0,0,0,0,-1,783,1380,-13.1602,-3.05609
-434,-356,0,0,0,0,0,0,0,0,0,-1,790,1380,0,0
-427,-356,0,0,0,0,0,0,0,0,0,-1,797,1380,0,0
-420,-356,0,0,0,0,0,0,0,0,0,-1,804,1380,0,0
-413,-356,0,0,0,0,0,0,0,0,0,-1,811,1380,0,0
-406,-356,0,0,0,0,0,0,0,0,0,-1,818,1380,0,0
-399,-356,0,0,0,0,0,0,0,0,0,-1,825,1380,0,0
-392,-356,0,0,0,0,0,0,0,0,0,-1,832,1380,0,0
-385,-356,0,0,0,0,0,0,0,0,0,-1,839,1380,0,0
-378,-356,0,0,0,0,0,0,0,0,0,-1,846,1380,0,0
-371,-356,0,0,0,0,0,0,0,0,0,-1,853,1380,0,0
-364,-356,0,0,0,0,0,0,0,0,0,-1,860,1380,0,0
-357,-356,0,0,0,0,0,0,0,0,0,-1,867,1380,0,0
-350,-356,0,0,0,0,0,0,0,0,0,-1,874,1380,0,0
-343,-356,0,0,0,0,0,0,0,0,0,-1,881,1380,0,0
-336,-356,0,0,0,0,0,0,0,0,0,-1,888,1380,0,0
-329,-356,0,0,0,0,0,0,0,0,0,-1,895,1380,0,0
-322,-356,0,0,0,0,0,0,0,0,0,-1,902,1380,0,0
-315,-356,0,0,0,0,0,0,0,0,0,-1,909,1380,0,0
-308,-356,0,0,0,0,0,0,0,0,0,-1,916,1380,0,0
-301,-356,0,0,0,0,0,0,0,0,0,-1,923,1380,0,0
-294,-356,0,0,0,0,0,0,0,0,0,-1,930,1380,0,0
-287,-356,0,0,0,0,0,0,0,0,0,-1,937,1380,0,0
-280,-356,0,0,0,0,0,0,0,0,0,-1,944,1380,0,0
-273,-356,0,0,0,0,0,0,0,0,0,-1,951,1380,0,0
-266,-356,0,0,0,0,0,0,0,0,0,-1,958,1380,0,0
-259,-356,0,0,0,0,0,0,0,0,0,-1,965,1380,0,0
-252,-356,0,0,0,0,0,0,0,0,0,-1,972,1380,0,0
-245,-356,0,0,0,0,0,0,0,0,0,-1,979,1380,0,0
-238,-356,0,0,0,0,0,0,0,0,0,-1,986,1380,0,0
-231,-356,0,0,0,0,0,0,0,0,0,-1,993,1380,0,0
-224,-356,0,0,0,0,0,0,0,0,0,-1,1000,1380,0,0
-217,-356,0,0,0,0,0,0,0,0,0,-1,1007,1380,0,0
-210,-356,0,0,0,0,0,0,0,0,0,-1,1014,1380,0,0
-203,-356,0,0,0,0,0,0,0,0,0,-1,1021,1380,0,0
-196,-356,0,0,0,0,0,0,0,0,0,-1,1028,1380,0,0
-189,-356,0,0,0,0,0,0,0,0,0,-1,1035,1380,0,0
-182,-356,0,0,0,0,0,0,0,0,0,-1,1042,1380,0,0
-175,-356,0,0,0,0,0,0,0,0,0,-1,1049,1380,0,0
-168,-356,0,0,0,0,0,0,0,0,0,-1,1056,1380,0,0
-161,-356,0,0,0,0,0,0,0,0,0,-1,1063,1380,0,0
-154,-356,0,0,0,0,0,0,0,0,0,-1,1070,1380,0,0
-147,-356,0,0,0,0,0,0,0,0,0,-1,1077,1380,0,0
-140,-356,0,0,0,0,0,0,0,0,0,-1,1084,1380,0,0
-133,-356,0,0,0,0,0,0,0,0,0,-1,1091,1380,0,0
-126,-356,0,0,0,0,0,0,0,0,0,-1,1098,1380,0,0
-119,-356,0,0,0,0,0,0,0,0,0,-1,1105,1380,0,0
-112,-356,0,0,0,0,0,0,0,0,0,-1,1112,1380,0,0
-105,-356,0,0,0,0,0,0,0,0,0,-1,1119,1380,0,0
-98,-356,0,0,0,0,0,0,0,0,0,-1,1126,1380,0,0
-91,-356,0,0,0,0,0,0,0,0,0,-1,1133,1380,0,0
-84,-356,0,0,0,0,0,0,0,0,0,-1,1140,1380,0,0
-77,-356,0,0,0,0,0,0,0,0,0,-1,1147,1380,0,0
-70,-356,0,0,0,0,0,0,0,0,0,-1,1154,1380,0,0
-63,-356,0,0,0,0,0,0,0,0,0,-1,1161,1380,0,0
-56,-356,0,0,0,0,0,0,0,0,0,-1,1168,1380,0,0
-49,-356,0,0,0,0,0,0,0,0,0,-1,1175,1380,0,0
-42,-356,0,0,0,0,0,0,0,0,0,-1,1182,1380,0,0
-35,-356,0,0,0,0,0,0,0,0,0,-1,1189,1380,0,0
-28,-356,0,0,0,0,0,0,0,0,0,-1,1196,1380,0,0
-21,-356,0,0,0,0,0,0,0,0,0,-1,1203,1380,0,0
-14,-356,0,0,0,0,0,0,0,0,0,-1,1210,1380,0,0
-7,-356,0,0,0,0,0,0,0,0,0,-1,1217,1380,0,0
0,-356,0,0,0,0,0,0,0,0,0,-1,1224,1380,0,0
7,-356,0,0,0,0,0,0,0,0,0,-1,1231,1380,0,0
14,-356,0,0,0,0,0,0,0,0,0,-1,1238,1380,0,0
21,-356,0,0,0,0,0,0,0,0,0,-1,1245,1380,0,0
28,-356,0,0,0,0,0,0,0,0,0,-1,1252,1380,0,0
35,-356,0,0,0,0,0,0,0,0,0,-1,1259,1380,0,0
42,-356,0,0,0,0,0,0,0,0,0,-1,1266,1380,0,0
49,-356,0,0,0,0,0,0,0,0,0,-1,1273,1380,0,0
56,-356,0,0,0,0,0,0,0,0,0,-1,1280,1380,0,0
63,-356,0,0,0,0,0,0,0,0,0,-1,1287,1380,0,0
70,-356,0,0,0,0,0,0,0,0,0,-1,1294,1380,0,0
77,-356,0,0,0,0,0,0,0,0,0,-1,1301,1380,0,0
84,-356,0,0,0,0,0,0,0,0,0,-1,1308,1380,0,0
91,-356,0,0,0,0,0,0,0,0,0,-1,1315,1380,0,0
98,-356,0,0,0,0,0,0,0,0,0,-1,1322,1380,0,0
105,-356,0,0,0,0,0,0,0,0,0,-1,1329,1380,0,0
112,-356,0,0,0,0,0,0,0,0,0,-1,1336,1380,0,0
119,-356,0,0,0,0,0,0,0,0,0,-1,1343,1380,0,0
126,-356,0,0,0,0,0,0,0,0,0,-1,1350,1380,0,0
133,-356,0,0,0,0,0,0,0,0,0,-1,1357,1380,0,0
140,-356,0,0,0,0,0,0,0,0,0,-1,1364,1380,0,0
147,-356,0,0,0,0,0,0,0,0,0,-1,1371,1380,0,0
154,-356,0,0,0,0,0,0,0,0,0,-1,1378,1380,0,0
161,-356,0,0,0,0,0,0,0,0,0,-1,1385,1380,0,0
168,-356,0,0,0,0,0,0,0,0,0,-1,1392,1380,0,0
175,-356,0,0,0,0,0,0,0,0,0,-1,1399,1380,0,0
182,-356,0,0,0,0,0,0,0,0,0,-1,1406,1380,0,0
189,-356,0,0,0,0,0,0,0,0,0,-1,1413,1380,0,0
196,-356,0,0,0,0,0,0,0,0,0,-1,1420,1380,0,0
203,-356,0,0,0,0,0,0,0,0,0,-1,1427,1380,0,0
210,-356,0,0,0,0,0,0,0,0,0,-1,1434,1380,0,0
217,-356,0,0,0,0,0,0,0,0,0,-1,1441,1380,0,0
224,-356,0,0,0,0,0,0,0,0,0,-1,1448,1380,0,0
231,-356,0,0,0,0,0,0,0,0,0,-1,1455,1380,0,0
238,-356,0,0,0,0,0,0,0,0,0,-1,1462,1380,0,0
245,-356,0,0,0,0,0,0,0,0,0,-1,1469,1380,0,0
252,-356,0,0,0,0,0,0,0,0,0,-1,1476,1380,0,0
259,-356,0,0,0,0,0,0,0,0,0,-1,1483,1380,0,0
266,-356,0,0,0,0,0,0,0,0,0,-1,1490,1380,0,0
273,-356,0,0,0,0,0,0,0,0,0,-1,1497,1380,0,0
280,-356,0,0,0,0,0,0,0,0,0,-1,1504,1380,0,0
287,-356,0,0,0,0,0,0,0,0,0,-1,1511,1380,0,0
294,-356,0,0,0,0,0,0,0,0,0,-1,1518,1380,0,0
301,-356,0,0,0,0,0,0,0,0,0,-1,1525,1380,0,0
308,-356,0,0,0,0,0,0,0,0,0,-1,1532,1380,0,0
315,-356,0,0,0,0,0,0,0,0,0,-1,1539,1380,0,0
322,-356,0,0,0,0,0,0,0,0,0,-1,1546,1380,0,0
329,-356,0,0,0,0,0,0,0,0,0,-1,1553,1380,0,0
336,-356,0,0,0,0,0,0,0,0,0,-1,1560,1380,0,0
343,-356,0,0,0,0,0,0,0,0,0,-1,1567,1380,0,0
350,-356,0,0,0,0,0,0,0,0,0,-1,1574,1380,0,0
357,-356,0,0,0,0,0,0,0,0,0,-1,1581,1380,0,0
364,-356,0,0,0,0,0,0,0,0,0,-1,1588,1380,0,0
371,-356,0,0,0,0,0,0,0,0,0,-1,1595,1380,0,0
378,-356,0,0,0,0,0,0,0,0,0,-1,1602,1380,0,0
385,-356,0,0,0,0,0,0,0,0,0,-1,1609,1380,0,0
392,-356,0,0,0,0,0,0,0,0,0,-1,1616,1380,0,0
399,-356,0,0,0,0,0,0,0,0,0,-1,1623,1380,0,0
406,-356,0,0,0,0,0,0,0,0,0,-1,1630,1380,0,0
413,-356,0,0,0,0,0,0,0,0,0,-1,1637,1380,0,0
420,-356,0,0,0,0,0,0,0,0,0,-1,1644,1380,0,0
427,-356,0,0,0,0,0,0,0,0,0,-1,1651,1380,0,0
434,-356,0,0,0,0,0,0,0,0,0,-1,1658,1380,0,0
441,-356,0,0,0,0,0,0,0,0,0,-1,1665,1380,0,0
448,-356,0,0,0,0,0,0,0,0,0,-1,1672,1380,0,0
455,-356,0,0,0,0,0,0,0,0,0,-1,1679,1380,0,0
462,-356,0,0,0,0,0,0,0,0,0,-1,1686,1380,0,0
469,-356,0,0,0,0,0,0,0,0,0,-1,1693,1380,0,0
476,-356,0,0,0,0,0,0,0,0,0,-1,1700,1380,0,0
483,-356,0,0,0,0,0,0,0,0,0,-1,1707,1380,0,0
490,-356,0,0,0,0,0,0,0,0,0,-1,1714,1380,0,0
497,-356,0,0,0,0,0,0,0,0,0,-1,1721,1380,0,0
504,-356,0,0,0,0,0,0,0,0,0,-1,1728,1380,0,0
511,-356,0,0,0,0,0,0,0,0,0,-1,1735,1380,0,0
518,-356,0,0,0,0,0,0,0,0,0,-1,1742,1380,0,0
525,-356,0,0,0,0,0,0,0,0,0,-1,1749,1380,0,0
532,-356,0,0,0,0,0,0,0,0,0,-1,1756,1380,0,0
539,-356,0,0,0,0,0,0,0,0,0,-1,1763,1380,0,0
546,-356,0,0,0,0,0,0,0,0,0,-1,1770,1380,0,0
553,-356,0,0,0,0,0,0,0,0,0,-1,1777,1380,0,0
560,-356,63.6171,3.12183,0,0,0,0,0,0,0,-1,1784,1380,63.617,-3.12183
567,-356,65.0425,1.89966,0,0,0,0,0,0,0,-1,1791,1380,65.0424,-1.8996
574,-356,45.5742,3.39575,0,0,0,0,0,0,0,-1,1798,1380,45.5742,-3.39574
581,-356,45.6708,3.64172,0,0,0,0,0,0,0,-1,1805,1380,45.6707,-3.64175
588,-356,44.4739,4.87085,0,0,0,0,0,0,0,-1,1812,1380,44.4739,-4.87086
595,-356,32.0834,5.86084,0,0,0,0,0,0,0,-1,1819,1380,32.0834,-5.86079
602,-356,30.1604,6.07104,0,0,0,0,0,0,0,-1,1826,1380,30.1604,-6.07104
609,-356,28.3435,6.48901,0,0,0,0,0,0,0,-1,1833,1380,28.3435,-6.48899
616,-356,26.9358,6.80872,0,0,0,0,0,0,0,-1,1840,1380,26.9358,-6.80877
623,-356,16.1803,1.07532,0,0,0,0,0,0,0,-1,1847,1380,16.1803,-1.07529
630,-356,16.4138,6.91553,0,0,0,0,0,0,0,-1,1854,1380,16.4138,-6.9155
637,-356,24.8021,12.0151,0,0,0,0,0,0,0,-1,1861,1380,24.8022,-12.0151
644,-356,80.338,48.7954,0,0,0,0,0,0,0,-1,1868,1380,80.338,-48.7954
651,-356,87.4346,51.2051,0,0,0,0,0,0,0,-1,1875,1380,87.4345,-51.205
658,-356,94.4417,53.7695,0,0,0,0,0,0,0,-1,1882,1380,94.4416,-53.7695
665,-356,178.998,56.7682,0,0,0,0,0,0,0,-1,1889,1380,178.998,-56.7682
672,-356,178.544,54.0093,-0.00197895,0.0251998,0.0224673,0.0378678,-0.014647,1.05739,0.0312919,0.0362032,1896,1380,178.544,-54.0092
679,-356,178.023,51.2826,-0.00236943,0.0291039,0.0249801,0.042891,-0.0161565,1.06648,0.0352365,0.0268424,1903,1380,178.023,-51.2826
686,-356,177.375,48.6904,-0.00275268,0.0332214,0.0275285,0.0481183,-0.0176496,1.07478,0.0393059,0.0278629,1910,1380,177.375,-48.6905
693,-356,177.108,46.2255,-0.00307334,0.0374904,0.0301293,0.0535283,-0.0191113,1.08164,0.0434793,0.0226488,1917,1380,177.108,-46.2254
700,-356,176.769,43.8711,-0.00327603,0.0419326,0.0327088,0.0590878,-0.0204312,1.08775,0.0476843,0.0360989,1924,1380,176.769,-43.871
707,-356,176.469,41.4965,0,0,0,0,0,0,0,-1,1931,1380,176.469,-41.4964
714,-356,19.6907,5.82129,0,0,0,0,0,0,0,-1,1938,1380,19.6907,-5.82132
721,-356,17.2948,4.1958,0,0,0,0,0,0,0,-1,1945,1380,17.2948,-4.19584
728,-356,19.1846,2.31519,0,0,0,0,0,0,0,-1,1952,1380,19.1846,-2.31514
735,-356,20.0731,2.50842,0,0,0,0,0,0,0,-1,1959,1380,20.0731,-2.50844
742,-356,21.0111,2.43762,0,0,0,0,0,0,0,-1,1966,1380,21.0112,-2.43762
749,-356,22.1411,1.83276,0,0,0,0,0,0,0,-1,1973,1380,22.1411,-1.83275
756,-356,0,0,0,0,0,0,0,0,0,-1,1980,1380,0,0
763,-356,0,0,0,0,0,0,0,0,0,-1,1987,1380,0,0
770,-356,0,0,0,0,0,0,0,0,0,-1,1994,1380,0,0
777,-356,0,0,0,0,0,0,0,0,0,-1,2001,1380,0,0
784,-356,0,0,0,0,0,0,0,0,0,-1,2008,1380,0,0
791,-356,0,0,0,0,0,0,0,0,0,-1,2015,1380,0,0
798,-356,0,0,0,0,0,0,0,0,0,-1,2022,1380,0,0
805,-356,0,0,0,0,0,0,0,0,0,-1,2029,1380,0,0
812,-356,0,0,0,0,0,0,0,0,0,-1,2036,1380,0,0
-700,-363,0,0,0,0,0,0,0,0,0,-1,524,1387,0,0
-693,-363,0,0,0,0,0,0,0,0,0,-1,531,1387,0,0
-686,-363,0,0,0,0,0,0,0,0,0,-1,538,1387,0,0
-679,-363,0,0,0,0,0,0,0,0,0,-1,545,1387,0,0
-672,-363,0,0,0,0,0,0,0,0,0,-1,552,1387,0,0
-665,-363,0,0,0,0,0,0,0,0,0,-1,559,1387,0,0
-658,-363,0,0,0,0,0,0,0,0,0,-1,566,1387,0,0
-651,-363,0,0,0,0,0,0,0,0,0,-1,573,1387,0,0
-644,-363,0,0,0,0,0,0,0,0,0,-1,580,1387,0,0
-637,-363,0,0,0,0,0,0,0,0,0,-1,587,1387,0,0
-630,-363,0,0,0,0,0,0,0,0,0,-1,594,1387,0,0
-623,-363,-9.67566,-5.91846,0,0,0,0,0,0,0,-1,601,1387,-9.67563,5.91847
-616,-363,-9.02985,-2.98083,0,0,0,0,0,0,0,-1,608,1387,-9.02987,2.98079
-609,-363,-4.90265,0.195679,0,0,0,0,0,0,0,-1,615,1387,-4.90263,-0.195721
-602,-363,-9.65009,3.5321,0,0,0,0,0,0,0,-1,622,1387,-9.65007,-3.53211
-595,-363,-8.00256,3.48853,0,0,0,0,0,0,0,-1,629,1387,-8.00256,-3.48855
-588,-363,-10.8846,4.49768,0,0,0,0,0,0,0,-1,636,1387,-10.8846,-4.49773
-581,-363,-11.7469,5.15161,0,0,0,0,0,0,0,-1,643,1387,-11.747,-5.15167
-574,-363,-17.8334,8.33801,0,0,0,0,0,0,0,-1,650,1387,-17.8334,-8.33804
-567,-363,-166.975,40.4042,0,0,0,0,0,0,0,-1,657,1387,-166.975,-40.4042
-560,-363,-167.33,43.0214,0.01564,0.0631903,-0.0278288,0.076017,0.00281319,-1.1389,0.0497668,0.0271211,664,1387,-167.33,-43.0213
-553,-363,-167.605,45.606,0.010954,0.0564203,-0.0308646,0.0720202,-0.0046459,-1.10282,0.0496347,0.0237116,671,1387,-167.605,-45.606
-546,-363,-168.156,48.1951,0.00700935,0.0502515,-0.033136,0.0681964,-0.0109355,-1.07446,0.0495136,0.0210064,678,1387,-168.156,-48.195
-539,-363,-168.563,50.9468,0.00371284,0.0446525,-0.0347079,0.0644773,-0.0161119,-1.05183,0.0492421,0.0280636,685,1387,-168.563,-50.9468
-532,-363,-169.061,53.7493,0,0,0,0,0,0,0,-1,692,1387,-169.061,-53.7492
-525,-363,-128.902,61.2649,0,0,0,0,0,0,0,-1,699,1387,-128.902,-61.2649
-518,-363,-91.1656,58.6323,0,0,0,0,0,0,0,-1,706,1387,-91.1656,-58.6323
-511,-363,-91.3474,60.9979,0,0,0,0,0,0,0,-1,713,1387,-91.3474,-60.998
-504,-363,-82.3174,59.6276,0,0,0,0,0,0,0,-1,720,1387,-82.3174,-59.6276
-497,-363,-7.18842,7.29944,0,0,0,0,0,0,0,-1,727,1387,-7.18839,-7.29945
-490,-363,-5.42413,4.6958,0,0,0,0,0,0,0,-1,734,1387,-5.42412,-4.69583
-483,-363,-6.28375,4.1394,0,0,0,0,0,0,0,-1,741,1387,-6.28374,-4.13944
-476,-363,-5.83807,4.31018,0,0,0,0,0,0,0,-1,748,1387,-5.8381,-4.31013
-469,-363,-10.7125,0.697754,0,0,0,0,0,0,0,-1,755,1387,-10.7125,-0.697811
-462,-363,-9.55951,-0.0830078,0,0,0,0,0,0,0,-1,762,1387,-9.55949,0.0830163
-455,-363,-13.1008,-0.290894,0,0,0,0,0,0,0,-1,769,1387,-13.1008,0.290921
-448,-363,-11.7324,2.46606,0,0,0,0,0,0,0,-1,776,1387,-11.7324,-2.46605
-441,-363,-12.4464,2.5354,0,0,0,0,0,0,0,-1,783,1387,-12.4463,-2.53537
-434,-363,-13.6918,2.14661,0,0,0,0,0,0,0,-1,790,1387,-13.6918,-2.14662
-427,-363,0,0,0,0,0,0,0,0,0,-1,797,1387,0,0
-420,-363,0,0,0,0,0,0,0,0,0,-1,804,1387,0,0
-413,-363,0,0,0,0,0,0,0,0,0,-1,811,1387,0,0
-406,-363,0,0,0,0,0,0,0,0,0,-1,818,1387,0,0
-399,-363,0,0,0,0,0,0,0,0,0,-1,825,1387,0,0
-392,-363,0,0,0,0,0,0,0,0,0,-1,832,1387,0,0
-385,-363,0,0,0,0,0,0,0,0,0,-1,839,1387,0,0
-378,-363,0,0,0,0,0,0,0,0,0,-1,846,1387,0,0
-371,-363,0,0,0,0,0,0,0,0,0,-1,853,1387,0,0
-364,-363,0,0,0,0,0,0,0,0,0,-1,860,1387,0,0
-357,-363,0,0,0,0,0,0,0,0,0,-1,867,1387,0,0
-350,-363,0,0,0,0,0,0,0,0,0,-1,874,1387,0,0
-343,-363,0,0,0,0,0,0,0,0,0,-1,881,1387,0,0
-336,-363,0,0,0,0,0,0,0,0,0,-1,888,1387,0,0
-329,-363,0,0,0,0,0,0,0,0,0,-1,895,1387,0,0
-322,-363,0,0,0,0,0,0,0,0,0,-1,902,1387,0,0
-315,-363,0,0,0,0,0,0,0,0,0,-1,909,1387,0,0
-308,-363,0,0,0,0,0,0,0,0,0,-1,916,1387,0,0
-301,-363,0,0,0,0,0,0,0,0,0,-1,923,1387,0,0
-294,-363,0,0,0,0,0,0,0,0,0,-1,930,1387,0,0
-287,-363,0,0,0,0,0,0,0,0,0,-1,937,1387,0,0
-280,-363,0,0,0,0,0,0,0,0,0,-1,944,1387,0,0
-273,-363,0,0,0,0,0,0,0,0,0,-1,951,1387,0,0
-266,-363,0,0,0,0,0,0,0,0,0,-1,958,1387,0,0
-259,-363,0,0,0,0,0,0,0,0,0,-1,965,1387,0,0
-252,-363,0,0,0,0,0,0,0,0,0,-1,972,1387,0,0
-245,-363,0,0,0,0,0,0,0,0,0,-1,979,1387,0,0
-238,-363,0,0,0,0,0,0,0,0,0,-1,986,1387,0,0
-231,-363,0,0,0,0,0,0,0,0,0,-1,993,1387,0,0
-224,-363,0,0,0,0,0,0,0,0,0,-1,1000,1387,0,0
-217,-363,0,0,0,0,0,0,0,0,0,-1,1007,1387,0,0
-210,-363,0,0,0,0,0,0,0,0,0,-1,1014,1387,0,0
-203,-363,0,0,0,0,0,0,0,0,0,-1,1021,1387,0,0
-196,-363,0,0,0,0,0,0,0,0,0,-1,1028,1387,0,0
-189,-363,0,0,0,0,0,0,0,0,0,-1,1035,1387,0,0
-182,-363,0,0,0,0,0,0,0,0,0,-1,1042,1387,0,0
-175,-363,0,0,0,0,0,0,0,0,0,-1,1049,1387,0,0
-168,-363,0,0,0,0,0,0,0,0,0,-1,1056,1387,0,0
-161,-363,0,0,0,0,0,0,0,0,0,-1,1063,1387,0,0
-154,-363,0,0,0,0,0,0,0,0,0,-1,1070,1387,0,0
-147,-363,0,0,0,0,0,0,0,0,0,-1,1077,1387,0,0
-140,-363,0,0,0,0,0,0,0,0,0,-1,1084,1387,0,0
-133,-363,0,0,0,0,0,0,0,0,0,-1,1091,1387,0,0
-126,-363,0,0,0,0,0,0,0,0,0,-1,1098,1387,0,0
-119,-363,0,0,0,0,0,0,0,0,0,-1,1105,1387,0,0
-112,-363,0,0,0,0,0,0,0,0,0,-1,1112,1387,0,0
-105,-363,0,0,0,0,0,0,0,0,0,-1,1119,1387,0,0
-98,-363,0,0,0,0,0,0,0,0,0,-1,1126,1387,0,0
-91,-363,0,0,0,0,0,0,0,0,0,-1,1133,1387,0,0
-84,-363,0,0,0,0,0,0,0,0,0,-1,1140,1387,0,0
-77,-363,0,0,0,0,0,0,0,0,0,-1,1147,1387,0,0
-70,-363,0,0,0,0,0,0,0,0,0,-1,1154,1387,0,0
-63,-363,0,0,0,0,0,0,0,0,0,-1,1161,1387,0,0
-56,-363,0,0,0,0,0,0,0,0,0,-1,1168,1387,0,0
-49,-363,0,0,0,0,0,0,0,0,0,-1,1175,1387,0,0
-42,-363,0,0,0,0,0,0,0,0,0,-1,1182,1387,0,0
-35,-363,0,0,0,0,0,0,0,0,0,-1,1189,1387,0,0
-28,-363,0,0,0,0,0,0,0,0,0,-1,1196,1387,0,0
-21,-363,0,0,0,0,0,0,0,0,0,-1,1203,1387,0,0
-14,-363,0,0,0,0,0,0,0,0,0,-1,1210,1387,0,0
-7,-363,0,0,0,0,0,0,0,0,0,-1,1217,1387,0,0
0,-363,0,0,0,0,0,0,0,0,0,-1,1224,1387,0,0
7,-363,0,0,0,0,0,0,0,0,0,-1,1231,1387,0,0
14,-363,0,0,0,0,0,0,0,0,0,-1,1238,1387,0,0
21,-363,0,0,0,0,0,0,0,0,0,-1,1245,1387,0,0
28,-363,0,0,0,0,0,0,0,0,0,-1,1252,1387,0,0
35,-363,0,0,0,0,0,0,0,0,0,-1,1259,1387,0,0
42,-363,0,0,0,0,0,0,0,0,0,-1,1266,1387,0,0
49,-363,0,0,0,0,0,0,0,0,0,-1,1273,1387,0,0
56,-363,0,0,0,0,0,0,0,0,0,-1,1280,1387,0,0
63,-363,0,0,0,0,0,0,0,0,0,-1,1287,1387,0,0
70,-363,0,0,0,0,0,0,0,0,0,-1,1294,1387,0,0
77,-363,0,0,0,0,0,0,0,0,0,-1,1301,1387,0,0
84,-363,0,0,0,0,0,0,0,0,0,-1,1308,1387,0,0
91,-363,0,0,0,0,0,0,0,0,0,-1,1315,1387,0,0
98,-363,0,0,0,0,0,0,0,0,0,-1,1322,1387,0,0
105,-363,0,0,0,0,0,0,0,0,0,-1,1329,1387,0,0
112,-363,0,0,0,0,0,0,0,0,0,-1,1336,1387,0,0
119,-363,0,0,0,0,0,0,0,0,0,-1,1343,1387,0,0
126,-363,0,0,0,0,0,0,0,0,0,-1,1350,1387,0,0
133,-363,0,0,0,0,0,0,0,0,0,-1,1357,1387,0,0
140,-363,0,0,0,0,0,0,0,0,0,-1,1364,1387,0,0
147,-363,0,0,0,0,0,0,0,0,0,-1,1371,1387,0,0
154,-363,0,0,0,0,0,0,0,0,0,-1,1378,1387,0,0
161,-363,0,0,0,0,0,0,0,0,0,-1,1385,1387,0,0
168,-363,0,0,0,0,0,0,0,0,0,-1,1392,1387,0,0
175,-363,0,0,0,0,0,0,0,0,0,-1,1399,1387,0,0
182,-363,0,0,0,0,0,0,0,0,0,-1,1406,1387,0,0
189,-363,0,0,0,0,0,0,0,0,0,-1,1413,1387,0,0
196,-363,0,0,0,0,0,0,0,0,0,-1,1420,1387,0,0
203,-363,0,0,0,0,0,0,0,0,0,-1,1427,1387,0,0
210,-363,0,0,0,0,0,0,0,0,0,-1,1434,1387,0,0
217,-363,0,0,0,0,0,0,0,0,0,-1,1441,1387,0,0
224,-363,0,0,0,0,0,0,0,0,0,-1,1448,1387,0,0
231,-363,0,0,0,0,0,0,0,0,0,-1,1455,1387,0,0
238,-363,0,0,0,0,0,0,0,0,0,-1,1462,1387,0,0
245,-363,0,0,0,0,0,0,0,0,0,-1,1469,1387,0,0
252,-363,0,0,0,0,0,0,0,0,0,-1,1476,1387,0,0
259,-363,0,0,0,0,0,0,0,0,0,-1,1483,1387,0,0
266,-363,0,0,0,0,0,0,0,0,0,-1,1490,1387,0,0
273,-363,0,0,0,0,0,0,0,0,0,-1,1497,1387,0,0
280,-363,0,0,0,0,0,0,0,0,0,-1,1504,1387,0,0
287,-363,0,0,0,0,0,0,0,0,0,-1,1511,1387,0,0
294,-363,0,0,0,0,0,0,0,0,0,-1,1518,1387,0,0
301,-363,0,0,0,0,0,0,0,0,0,-1,1525,1387,0,0
308,-363,0,0,0,0,0,0,0,0,0,-1,1532,1387,0,0
315,-363,0,0,0,0,0,0,0,0,0,-1,1539,1387,0,0
322,-363,0,0,0,0,0,0,0,0,0,-1,1546,1387,0,0
329,-363,0,0,0,0,0,0,0,0,0,-1,1553,1387,0,0
336,-363,0,0,0,0,0,0,0,0,0,-1,1560,1387,0,0
343,-363,0,0,0,0,0,0,0,0,0,-1,1567,1387,0,0
350,-363,0,0,0,0,0,0,0,0,0,-1,1574,1387,0,0
357,-363,0,0,0,0,0,0,0,0,0,-1,1581,1387,0,0
364,-363,0,0,0,0,0,0,0,0,0,-1,1588,1387,0,0
371,-363,0,0,0,0,0,0,0,0,0,-1,1595,1387,0,0
378,-363,0,0,0,0,0,0,0,0,0,-1,1602,1387,0,0
385,-363,0,0,0,0,0,0,0,0,0,-1,1609,1387,0,0
392,-363,0,0,0,0,0,0,0,0,0,-1,1616,1387,0,0
399,-363,0,0,0,0,0,0,0,0,0,-1,1623,1387,0,0
406,-363,0,0,0,0,0,0,0,0,0,-1,1630,1387,0,0
413,-363,0,0,0,0,0,0,0,0,0,-1,1637,1387,0,0
420,-363,0,0,0,0,0,0,0,0,0,-1,1644,1387,0,0
427,-363,0,0,0,0,0,0,0,0,0,-1,1651,1387,0,0
434,-363,0,0,0,0,0,0,0,0,0,-1,1658,1387,0,0
441,-363,0,0,0,0,0,0,0,0,0,-1,1665,1387,0,0
448,-363,0,0,0,0,0,0,0,0,0,-1,1672,1387,0,0
455,-363,0,0,0,0,0,0,0,0,0,-1,1679,1387,0,0
462,-363,0,0,0,0,0,0,0,0,0,-1,1686,1387,0,0
469,-363,0,0,0,0,0,0,0,0,0,-1,1693,1387,0,0
476,-363,0,0,0,0,0,0,0,0,0,-1,1700,1387,0,0
483,-363,0,0,0,0,0,0,0,0,0,-1,1707,1387,0,0
490,-363,0,0,0,0,0,0,0,0,0,-1,1714,1387,0,0
497,-363,0,0,0,0,0,0,0,0,0,-1,1721,1387,0,0
504,-363,0,0,0,0,0,0,0,0,0,-1,1728,1387,0,0
511,-363,0,0,0,0,0,0,0,0,0,-1,1735,1387,0,0
518,-363,0,0,0,0,0,0,0,0,0,-1,1742,1387,0,0
525,-363,0,0,0,0,0,0,0,0,0,-1,1749,1387,0,0
532,-363,0,0,0,0,0,0,0,0,0,-1,1756,1387,0,0
539,-363,0,0,0,0,0,0,0,0,0,-1,1763,1387,0,0
546,-363,0,0,0,0,0,0,0,0,0,-1,1770,1387,0,0
553,-363,62.1395,3.42249,0,0,0,0,0,0,0,-1,1777,1387,62.1395,-3.42245
560,-363,63.2896,2.40808,0,0,0,0,0,0,0,-1,1784,1387,63.2896,-2.40811
567,-363,64.4463,1.38135,0,0,0,0,0,0,0,-1,1791,1387,64.4463,-1.38131
574,-363,45.7261,2.8075,0,0,0,0,0,0,0,-1,1798,1387,45.7261,-2.80754
581,-363,39.2413,1.97632,0,0,0,0,0,0,0,-1,1805,1387,39.2413,-1.97636
588,-363,32.5608,6.72131,0,0,0,0,0,0,0,-1,1812,1387,32.5608,-6.72131
595,-363,31.4688,6.95435,0,0,0,0,0,0,0,-1,1819,1387,31.4688,-6.95431
602,-363,25.7437,5.33667,0,0,0,0,0,0,0,-1,1826,1387,25.7437,-5.33667
609,-363,27.7048,7.06885,0,0,0,0,0,0,0,-1,1833,1387,27.7048,-7.06882
616,-363,16.229,1.08704,0,0,0,0,0,0,0,-1,1840,1387,16.229,-1.08706
623,-363,15.7283,7.16663,0,0,0,0,0,0,0,-1,1847,1387,15.7282,-7.16665
630,-363,18.3192,9.27844,0,0,0,0,0,0,0,-1,1854,1387,18.3192,-9.27843
637,-363,78.6736,50.8374,0,0,0,0,0,0,0,-1,1861,1387,78.6736,-50.8373
644,-363,93.6857,58.8877,0,0,0,0,0,0,0,-1,1868,1387,93.6857,-58.8877
651,-363,129.548,66.186,0,0,0,0,0,0,0,-1,1875,1387,129.548,-66.186
658,-363,176.834,60.4103,0,0,0,0,0,0,0,-1,1882,1387,176.835,-60.4103
665,-363,176.214,57.1359,-0.00142892,0.0222932,0.021554,0.0350342,-0.0141699,1.03693,0.0292469,0.0336057,1889,1387,176.214,-57.1359
672,-363,175.6,54.4702,-0.00161285,0.0264211,0.0241343,0.0403137,-0.0155054,1.04849,0.0332712,0.0224366,1896,1387,175.6,-54.4702
679,-363,175.054,51.7847,-0.00190369,0.0306913,0.0268381,0.0457927,-0.0170052,1.05826,0.0375047,0.0247329,1903,1387,175.055,-51.7846
686,-363,174.459,49.219,-0.00224262,0.0351244,0.0296359,0.0514746,-0.0185928,1.06665,0.041912,0.0279203,1910,1387,174.459,-49.219
693,-363,174.014,46.6932,-0.00256557,0.0397155,0.032509,0.0573533,-0.0202034,1.07369,0.0464582,0.0250327,1917,1387,174.014,-46.6932
700,-363,173.607,44.267,0,0,0,0,0,0,0,-1,1924,1387,173.607,-44.267
707,-363,128.989,44.6556,0,0,0,0,0,0,0,-1,1931,1387,128.989,-44.6556
714,-363,16.5782,5.3147,0,0,0,0,0,0,0,-1,1938,1387,16.5783,-5.31472
721,-363,14.4045,4.51685,0,0,0,0,0,0,0,-1,1945,1387,14.4045,-4.51685
728,-363,19.9756,0.853027,0,0,0,0,0,0,0,-1,1952,1387,19.9756,-0.853059
735,-363,21.4297,1.2981,0,0,0,0,0,0,0,-1,1959,1387,21.4297,-1.29811
742,-363,21.3621,2.79663,0,0,0,0,0,0,0,-1,1966,1387,21.362,-2.7966
749,-363,0,0,0,0,0,0,0,0,0,-1,1973,1387,0,0
756,-363,0,0,0,0,0,0,0,0,0,-1,1980,1387,0,0
763,-363,0,0,0,0,0,0,0,0,0,-1,1987,1387,0,0
770,-363,0,0,0,0,0,0,0,0,0,-1,1994,1387,0,0
777,-363,0,0,0,0,0,0,0,0,0,-1,2001,1387,0,0
784,-363,0,0,0,0,0,0,0,0,0,-1,2008,1387,0,0
791,-363,0,0,0,0,0,0,0,0,0,-1,2015,1387,0,0
798,-363,0,0,0,0,0,0,0,0,0,-1,2022,1387,0,0
805,-363,0,0,0,0,0,0,0,0,0,-1,2029,1387,0,0
812,-363,0,0,0,0,0,0,0,0,0,-1,2036,1387,0,0
-700,-370,0,0,0,0,0,0,0,0,0,-1,524,1394,0,0
-693,-370,0,0,0,0,0,0,0,0,0,-1,531,1394,0,0
-686,-370,0,0,0,0,0,0,0,0,0,-1,538,1394,0,0
-679,-370,0,0,0,0,0,0,0,0,0,-1,545,1394,0,0
-672,-370,0,0,0,0,0,0,0,0,0,-1,552,1394,0,0
-665,-370,0,0,0,0,0,0,0,0,0,-1,559,1394,0,0
-658,-370,0,0,0,0,0,0,0,0,0,-1,566,1394,0,0
-651,-370,0,0,0,0,0,0,0,0,0,-1,573,1394,0,0
-644,-370,0,0,0,0,0,0,0,0,0,-1,580,1394,0,0
-637,-370,0,0,0,0,0,0,0,0,0,-1,587,1394,0,0
-630,-370,0,0,0,0,0,0,0,0,0,-1,594,1394,0,0
-623,-370,-10.1758,-7.10486,0,0,0,0,0,0,0,-1,601,1394,-10.1758,7.10483
-616,-370,-8.85925,-1.61475,0,0,0,0,0,0,0,-1,608,1394,-8.85925,1.61476
-609,-370,-5.39325,0.0421143,0,0,0,0,0,0,0,-1,615,1394,-5.39328,-0.0421372
-602,-370,-12.3151,3.44592,0,0,0,0,0,0,0,-1,622,1394,-12.3151,-3.44595
-595,-370,-7.53284,5.44214,0,0,0,0,0,0,0,-1,629,1394,-7.53284,-5.44216
-588,-370,-11.2422,4.50598,0,0,0,0,0,0,0,-1,636,1394,-11.2422,-4.50596
-581,-370,-13.1575,5.84888,0,0,0,0,0,0,0,-1,643,1394,-13.1575,-5.84887
-574,-370,-13.0107,6.69861,0,0,0,0,0,0,0,-1,650,1394,-13.0108,-6.69866
-567,-370,-39.5869,22.689,0,0,0,0,0,0,0,-1,657,1394,-39.5868,-22.689
-560,-370,-164.392,43.3495,0,0,0,0,0,0,0,-1,664,1394,-164.392,-43.3495
-553,-370,-164.511,45.9583,0.0139555,0.0604955,-0.0309164,0.0759207,-0.00146971,-1.108,0.0511108,0.0193578,671,1394,-164.511,-45.9583
-546,-370,-164.89,48.6571,0.00944338,0.0539466,-0.0331986,0.071661,-0.00827103,-1.08064,0.0507561,0.0250326,678,1394,-164.89,-48.6571
-539,-370,-165.402,51.3363,0.0061363,0.0484968,-0.0343668,0.0676859,-0.0130528,-1.06156,0.0500455,0.0319374,685,1394,-165.402,-51.3363
-532,-370,-166.003,54.0247,0.00370782,0.0439159,-0.0346311,0.0638555,-0.0162317,-1.04838,0.0488875,0.0492253,692,1394,-166.003,-54.0247
-525,-370,-166.416,56.7137,0,0,0,0,0,0,0,-1,699,1394,-166.416,-56.7137
-518,-370,-166.106,59.6028,0,0,0,0,0,0,0,-1,706,1394,-166.106,-59.6028
-511,-370,-129.568,67.5051,0,0,0,0,0,0,0,-1,713,1394,-129.568,-67.5051
-504,-370,-88.5164,63.4016,0,0,0,0,0,0,0,-1,720,1394,-88.5164,-63.4016
-497,-370,-73.6671,59.0852,0,0,0,0,0,0,0,-1,727,1394,-73.667,-59.0852
-490,-370,-5.30695,4.5271,0,0,0,0,0,0,0,-1,734,1394,-5.30698,-4.52704
-483,-370,-6.02997,4.59253,0,0,0,0,0,0,0,-1,741,1394,-6.02994,-4.5925
-476,-370,-6.75293,4.65796,0,0,0,0,0,0,0,-1,748,1394,-6.7529,-4.65795
-469,-370,-10.584,1.14294,0,0,0,0,0,0,0,-1,755,1394,-10.584,-1.14293
-462,-370,-9.54462,0.387207,0,0,0,0,0,0,0,-1,762,1394,-9.5446,-0.387176
-455,-370,-8.50525,-0.36853,0,0,0,0,0,0,0,-1,769,1394,-8.50523,0.368582
-448,-370,-10.9543,2.28833,0,0,0,0,0,0,0,-1,776,1394,-10.9543,-2.28835
-441,-370,-11.8699,1.8313,0,0,0,0,0,0,0,-1,783,1394,-11.8699,-1.83127
-434,-370,-12.7855,1.37415,0,0,0,0,0,0,0,-1,790,1394,-12.7855,-1.37419
-427,-370,0,0,0,0,0,0,0,0,0,-1,797,1394,0,0
-420,-370,0,0,0,0,0,0,0,0,0,-1,804,1394,0,0
-413,-370,0,0,0,0,0,0,0,0,0,-1,811,1394,0,0
-406,-370,0,0,0,0,0,0,0,0,0,-1,818,1394,0,0
-399,-370,0,0,0,0,0,0,0,0,0,-1,825,1394,0,0
-392,-370,0,0,0,0,0,0,0,0,0,-1,832,1394,0,0
-385,-370,0,0,0,0,0,0,0,0,0,-1,839,1394,0,0
-378,-370,0,0,0,0,0,0,0,0,0,-1,846,1394,0,0
-371,-370,0,0,0,0,0,0,0,0,0,-1,853,1394,0,0
-364,-370,0,0,0,0,0,0,0,0,0,-1,860,1394,0,0
-357,-370,0,0,0,0,0,0,0,0,0,-1,867,1394,0,0
-350,-370,0,0,0,0,0,0,0,0,0,-1,874,1394,0,0
-343,-370,0,0,0,0,0,0,0,0,0,-1,881,1394,0,0
-336,-370,0,0,0,0,0,0,0,0,0,-1,888,1394,0,0
-329,-370,0,0,0,0,0,0,0,0,0,-1,895,1394,0,0
-322,-370,0,0,0,0,0,0,0,0,0,-1,902,1394,0,0
-315,-370,0,0,0,0,0,0,0,0,0,-1,909,1394,0,0
-308,-370,0,0,0,0,0,0,0,0,0,-1,916,1394,0,0
-301,-370,0,0,0,0,0,0,0,0,0,-1,923,1394,0,0
-294,-370,0,0,0,0,0,0,0,0,0,-1,930,1394,0,0
-287,-370,0,0,0,0,0,0,0,0,0,-1,937,1394,0,0
-280,-370,0,0,0,0,0,0,0,0,0,-1,944,1394,0,0
-273,-370,0,0,0,0,0,0,0,0,0,-1,951,1394,0,0
-266,-370,0,0,0,0,0,0,0,0,0,-1,958,1394,0,0
-259,-370,0,0,0,0,0,0,0,0,0,-1,965,1394,0,0
-252,-370,0,0,0,0,0,0,0,0,0,-1,972,1394,0,0
-245,-370,0,0,0,0,0,0,0,0,0,-1,979,1394,0,0
-238,-370,0,0,0,0,0,0,0,0,0,-1,986,1394,0,0
-231,-370,0,0,0,0,0,0,0,0,0,-1,993,1394,0,0
-224,-370,0,0,0,0,0,0,0,0,0,-1,1000,1394,0,0
-217,-370,0,0,0,0,0,0,0,0,0,-1,1007,1394,0,0
-210,-370,0,0,0,0,0,0,0,0,0,-1,1014,1394,0,0
-203,-370,0,0,0,0,0,0,0,0,0,-1,1021,1394,0,0
-196,-370,0,0,0,0,0,0,0,0,0,-1,1028,1394,0,0
-189,-370,0,0,0,0,0,0,0,0,0,-1,1035,1394,0,0
-182,-370,0,0,0,0,0,0,0,0,0,-1,1042,1394,0,0
-175,-370,0,0,0,0,0,0,0,0,0,-1,1049,1394,0,0
-168,-370,0,0,0,0,0,0,0,0,0,-1,1056,1394,0,0
-161,-370,0,0,0,0,0,0,0,0,0,-1,1063,1394,0,0
-154,-370,0,0,0,0,0,0,0,0,0,-1,1070,1394,0,0
-147,-370,0,0,0,0,0,0,0,0,0,-1,1077,1394,0,0
-140,-370,0,0,0,0,0,0,0,0,0,-1,1084,1394,0,0
-133,-370,0,0,0,0,0,0,0,0,0,-1,1091,1394,0,0
-126,-370,0,0,0,0,0,0,0,0,0,-1,1098,1394,0,0
-119,-370,0,0,0,0,0,0,0,0,0,-1,1105,1394,0,0
-112,-370,0,0,0,0,0,0,0,0,0,-1,1112,1394,0,0
-105,-370,0,0,0,0,0,0,0,0,0,-1,1119,1394,0,0
-98,-370,0,0,0,0,0,0,0,0,0,-1,1126,1394,0,0
-91,-370,0,0,0,0,0,0,0,0,0,-1,1133,1394,0,0
-84,-370,0,0,0,0,0,0,0,0,0,-1,1140,1394,0,0
-77,-370,0,0,0,0,0,0,0,0,0,-1,1147,1394,0,0
-70,-370,0,0,0,0,0,0,0,0,0,-1,1154,1394,0,0
-63,-370,0,0,0,0,0,0,0,0,0,-1,1161,1394,0,0
-56,-370,0,0,0,0,0,0,0,0,0,-1,1168,1394,0,0
-49,-370,0,0,0,0,0,0,0,0,0,-1,1175,1394,0,0
-42,-370,0,0,0,0,0,0,0,0,0,-1,1182,1394,0,0
-35,-370,0,0,0,0,0,0,0,0,0,-1,1189,1394,0,0
-28,-370,0,0,0,0,0,0,0,0,0,-1,1196,1394,0,0
-21,-370,0,0,0,0,0,0,0,0,0,-1,1203,1394,0,0
-14,-370,0,0,0,0,0,0,0,0,0,-1,1210,1394,0,0
-7,-370,0,0,0,0,0,0,0,0,0,-1,1217,1394,0,0
0,-370,0,0,0,0,0,0,0,0,0,-1,1224,1394,0,0
7,-370,0,0,0,0,0,0,0,0,0,-1,1231,1394,0,0
14,-370,0,0,0,0,0,0,0,0,0,-1,1238,1394,0,0
21,-370,0,0,0,0,0,0,0,0,0,-1,1245,1394,0,0
28,-370,0,0,0,0,0,0,0,0,0,-1,1252,1394,0,0
35,-370,0,0,0,0,0,0,0,0,0,-1,1259,1394,0,0
42,-370,0,0,0,0,0,0,0,0,0,-1,1266,1394,0,0
49,-370,0,0,0,0,0,0,0,0,0,-1,1273,1394,0,0
56,-370,0,0,0,0,0,0,0,0,0,-1,1280,1394,0,0
63,-370,0,0,0,0,0,0,0,0,0,-1,1287,1394,0,0
70,-370,0,0,0,0,0,0,0,0,0,-1,1294,1394,0,0
77,-370,0,0,0,0,0,0,0,0,0,-1,1301,1394,0,0
84,-370,0,0,0,0,0,0,0,0,0,-1,1308,1394,0,0
91,-370,0,0,0,0,0,0,0,0,0,-1,1315,1394,0,0
98,-370,0,0,0,0,0,0,0,0,0,-1,1322,1394,0,0
105,-370,0,0,0,0,0,0,0,0,0,-1,1329,1394,0,0
112,-370,0,0,0,0,0,0,0,0,0,-1,1336,1394,0,0
119,-370,0,0,0,0,0,0,0,0,0,-1,1343,1394,0,0
126,-370,0,0,0,0,0,0,0,0,0,-1,1350,1394,0,0
133,-370,0,0,0,0,0,0,0,0,0,-1,1357,1394,0,0
140,-370,0,0,0,0,0,0,0,0,0,-1,1364,1394,0,0
147,-370,0,0,0,0,0,0,0,0,0,-1,1371,1394,0,0
154,-370,0,0,0,0,0,0,0,0,0,-1,1378,1394,0,0
161,-370,0,0,0,0,0,0,0,0,0,-1,1385,1394,0,0
168,-370,0,0,0,0,0,0,0,0,0,-1,1392,1394,0,0
175,-370,0,0,0,0,0,0,0,0,0,-1,1399,1394,0,0
182,-370,0,0,0,0,0,0,0,0,0,-1,1406,1394,0,0
189,-370,0,0,0,0,0,0,0,0,0,-1,1413,1394,0,0
196,-370,0,0,0,0,0,0,0,0,0,-1,1420,1394,0,0
203,-370,0,0,0,0,0,0,0,0,0,-1,1427,1394,0,0
210,-370,0,0,0,0,0,0,0,0,0,-1,1434,1394,0,0
217,-370,0,0,0,0,0,0,0,0,0,-1,1441,1394,0,0
224,-370,0,0,0,0,0,0,0,0,0,-1,1448,1394,0,0
231,-370,0,0,0,0,0,0,0,0,0,-1,1455,1394,0,0
238,-370,0,0,0,0,0,0,0,0,0,-1,1462,1394,0,0
245,-370,0,0,0,0,0,0,0,0,0,-1,1469,1394,0,0
252,-370,0,0,0,0,0,0,0,0,0,-1,1476,1394,0,0
259,-370,0,0,0,0,0,0,0,0,0,-1,1483,1394,0,0
266,-370,0,0,0,0,0,0,0,0,0,-1,1490,1394,0,0
273,-370,0,0,0,0,0,0,0,0,0,-1,1497,1394,0,0
280,-370,0,0,0,0,0,0,0,0,0,-1,1504,1394,0,0
287,-370,0,0,0,0,0,0,0,0,0,-1,1511,1394,0,0
294,-370,0,0,0,0,0,0,0,0,0,-1,1518,1394,0,0
301,-370,0,0,0,0,0,0,0,0,0,-1,1525,1394,0,0
308,-370,0,0,0,0,0,0,0,0,0,-1,1532,1394,0,0
315,-370,0,0,0,0,0,0,0,0,0,-1,1539,1394,0,0
322,-370,0,0,0,0,0,0,0,0,0,-1,1546,1394,0,0
329,-370,0,0,0,0,0,0,0,0,0,-1,1553,1394,0,0
336,-370,0,0,0,0,0,0,0,0,0,-1,1560,1394,0,0
343,-370,0,0,0,0,0,0,0,0,0,-1,1567,1394,0,0
350,-370,0,0,0,0,0,0,0,0,0,-1,1574,1394,0,0
357,-370,0,0,0,0,0,0,0,0,0,-1,1581,1394,0,0
364,-370,0,0,0,0,0,0,0,0,0,-1,1588,1394,0,0
371,-370,0,0,0,0,0,0,0,0,0,-1,1595,1394,0,0
378,-370,0,0,0,0,0,0,0,0,0,-1,1602,1394,0,0
385,-370,0,0,0,0,0,0,0,0,0,-1,1609,1394,0,0
392,-370,0,0,0,0,0,0,0,0,0,-1,1616,1394,0,0
399,-370,0,0,0,0,0,0,0,0,0,-1,1623,1394,0,0
406,-370,0,0,0,0,0,0,0,0,0,-1,1630,1394,0,0
413,-370,0,0,0,0,0,0,0,0,0,-1,1637,1394,0,0
420,-370,0,0,0,0,0,0,0,0,0,-1,1644,1394,0,0
427,-370,0,0,0,0,0,0,0,0,0,-1,1651,1394,0,0
434,-370,0,0,0,0,0,0,0,0,0,-1,1658,1394,0,0
441,-370,0,0,0,0,0,0,0,0,0,-1,1665,1394,0,0
448,-370,0,0,0,0,0,0,0,0,0,-1,1672,1394,0,0
455,-370,0,0,0,0,0,0,0,0,0,-1,1679,1394,0,0
462,-370,0,0,0,0,0,0,0,0,0,-1,1686,1394,0,0
469,-370,0,0,0,0,0,0,0,0,0,-1,1693,1394,0,0
476,-370,0,0,0,0,0,0,0,0,0,-1,1700,1394,0,0
483,-370,0,0,0,0,0,0,0,0,0,-1,1707,1394,0,0
490,-370,0,0,0,0,0,0,0,0,0,-1,1714,1394,0,0
497,-370,0,0,0,0,0,0,0,0,0,-1,1721,1394,0,0
504,-370,0,0,0,0,0,0,0,0,0,-1,1728,1394,0,0
511,-370,0,0,0,0,0,0,0,0,0,-1,1735,1394,0,0
518,-370,0,0,0,0,0,0,0,0,0,-1,1742,1394,0,0
525,-370,0,0,0,0,0,0,0,0,0,-1,1749,1394,0,0
532,-370,0,0,0,0,0,0,0,0,0,-1,1756,1394,0,0
539,-370,0,0,0,0,0,0,0,0,0,-1,1763,1394,0,0
546,-370,60.9257,3.80493,0,0,0,0,0,0,0,-1,1770,1394,60.9256,-3.80494
553,-370,61.9966,2.87524,0,0,0,0,0,0,0,-1,1777,1394,61.9966,-2.8753
560,-370,63.1577,1.82617,0,0,0,0,0,0,0,-1,1784,1394,63.1578,-1.82617
567,-370,46.1089,3.11719,0,0,0,0,0,0,0,-1,1791,1394,46.1089,-3.1172
574,-370,38.8953,1.49353,0,0,0,0,0,0,0,-1,1798,1394,38.8952,-1.49348
581,-370,39.178,2.86145,0,0,0,0,0,0,0,-1,1805,1394,39.1779,-2.86145
588,-370,39.2102,4.27661,0,0,0,0,0,0,0,-1,1812,1394,39.2102,-4.27657
595,-370,25.793,4.5271,0,0,0,0,0,0,0,-1,1819,1394,25.793,-4.52711
602,-370,25.1077,5.34937,0,0,0,0,0,0,0,-1,1826,1394,25.1077,-5.34932
609,-370,16.712,0.993286,0,0,0,0,0,0,0,-1,1833,1394,16.7121,-0.99323
616,-370,16.7764,7.23315,0,0,0,0,0,0,0,-1,1840,1394,16.7764,-7.23313
623,-370,17.6625,8.94263,0,0,0,0,0,0,0,-1,1847,1394,17.6624,-8.94258
630,-370,20.9681,11.1785,0,0,0,0,0,0,0,-1,1854,1394,20.9681,-11.1784
637,-370,91.8469,61.3878,0,0,0,0,0,0,0,-1,1861,1394,91.847,-61.3879
644,-370,175.186,66.0293,0,0,0,0,0,0,0,-1,1868,1394,175.186,-66.0293
651,-370,174.474,63.5662,0,0,0,0,0,0,0,-1,1875,1394,174.474,-63.5662
658,-370,173.726,60.7274,-0.00133756,0.0202315,0.0218641,0.0338262,-0.0149322,1.01452,0.0288466,0.0402994,1882,1394,173.726,-60.7274
665,-370,173.207,57.7563,-0.00116618,0.0244201,0.0240403,0.0388593,-0.0156054,1.02992,0.0323865,0.023191,1889,1394,173.207,-57.7564
672,-370,172.611,54.9462,-0.0011688,0.0286067,0.0264336,0.0440567,-0.0166188,1.04186,0.0362052,0.0231331,1896,1394,172.61,-54.9461
679,-370,171.994,52.3247,-0.00133281,0.0328507,0.0289891,0.0494116,-0.0178936,1.05176,0.0402539,0.0219327,1903,1394,171.994,-52.3247
686,-370,171.423,49.7473,-0.00159536,0.0371266,0.0317327,0.0549383,-0.0194071,1.05931,0.0445274,0.0235858,1910,1394,171.423,-49.7473
693,-370,170.869,47.0913,-0.00189746,0.0415217,0.0345745,0.0606374,-0.0210132,1.06574,0.0489563,0.0242833,1917,1394,170.869,-47.0913
700,-370,170.414,44.3588,0,0,0,0,0,0,0,-1,1924,1394,170.414,-44.3587
707,-370,39.2391,11.5549,0,0,0,0,0,0,0,-1,1931,1394,39.2392,-11.555
714,-370,16.9116,5.93018,0,0,0,0,0,0,0,-1,1938,1394,16.9116,-5.93014
721,-370,17.2007,4.69153,0,0,0,0,0,0,0,-1,1945,1394,17.2007,-4.69158
728,-370,20.5315,-0.313354,0,0,0,0,0,0,0,-1,1952,1394,20.5315,0.313332
735,-370,22.3652,0.233398,0,0,0,0,0,0,0,-1,1959,1394,22.3652,-0.233355
742,-370,24.1989,0.780029,0,0,0,0,0,0,0,-1,1966,1394,24.1989,-0.780041
749,-370,0,0,0,0,0,0,0,0,0,-1,1973,1394,0,0
756,-370,0,0,0,0,0,0,0,0,0,-1,1980,1394,0,0
763,-370,0,0,0,0,0,0,0,0,0,-1,1987,1394,0,0
770,-370,0,0,0,0,0,0,0,0,0,-1,1994,1394,0,0
777,-370,0,0,0,0,0,0,0,0,0,-1,2001,1394,0,0
784,-370,0,0,0,0,0,0,0,0,0,-1,2008,1394,0,0
791,-370,0,0,0,0,0,0,0,0,0,-1,2015,1394,0,0
798,-370,0,0,0,0,0,0,0,0,0,-1,2022,1394,0,0
805,-370,0,0,0,0,0,0,0,0,0,-1,2029,1394,0,0
812,-370,0,0,0,0,0,0,0,0,0,-1,2036,1394,0,0
-700,-377,0,0,0,0,0,0,0,0,0,-1,524,1401,0,0
-693,-377,0,0,0,0,0,0,0,0,0,-1,531,1401,0,0
-686,-377,0,0,0,0,0,0,0,0,0,-1,538,1401,0,0
-679,-377,0,0,0,0,0,0,0,0,0,-1,545,1401,0,0
-672,-377,0,0,0,0,0,0,0,0,0,-1,552,1401,0,0
-665,-377,0,0,0,0,0,0,0,0,0,-1,559,1401,0,0
-658,-377,0,0,0,0,0,0,0,0,0,-1,566,1401,0,0
-651,-377,0,0,0,0,0,0,0,0,0,-1,573,1401,0,0
-644,-377,0,0,0,0,0,0,0,0,0,-1,580,1401,0,0
-637,-377,0,0,0,0,0,0,0,0,0,-1,587,1401,0,0
-630,-377,0,0,0,0,0,0,0,0,0,-1,594,1401,0,0
-623,-377,0,0,0,0,0,0,0,0,0,-1,601,1401,0,0
-616,-377,-9.43915,-2.4906,0,0,0,0,0,0,0,-1,608,1401,-9.43915,2.49062
-609,-377,-7.2821,-1.35278,0,0,0,0,0,0,0,-1,615,1401,-7.28208,1.35279
-602,-377,-14.9736,3.98279,0,0,0,0,0,0,0,-1,622,1401,-14.9737,-3.98276
-595,-377,-6.9082,1.18201,0,0,0,0,0,0,0,-1,629,1401,-6.90822,-1.18204
-588,-377,-12.8003,3.44751,0,0,0,0,0,0,0,-1,636,1401,-12.8003,-3.44754
-581,-377,-11.8243,6.21521,0,0,0,0,0,0,0,-1,643,1401,-11.8244,-6.21519
-574,-377,-12.2761,6.60547,0,0,0,0,0,0,0,-1,650,1401,-12.2761,-6.60552
-567,-377,-13.4844,7.41931,0,0,0,0,0,0,0,-1,657,1401,-13.4845,-7.41926
-560,-377,-160.675,43.1686,0,0,0,0,0,0,0,-1,664,1401,-160.675,-43.1686
-553,-377,-161.156,46.2139,0.0173157,0.0641546,-0.0314104,0.0799153,0.00155503,-1.10574,0.0527661,0.0292846,671,1401,-161.156,-46.2139
-546,-377,-161.732,49.033,0.0118138,0.0574194,-0.03389,0.0754639,-0.00623072,-1.08153,0.0525095,0.0268693,678,1401,-161.732,-49.033
-539,-377,-162.166,51.6558,0.00820698,0.0521837,-0.0348533,0.071405,-0.0110144,-1.06681,0.0516676,0.030442,685,1401,-162.166,-51.6558
-532,-377,-162.642,54.5104,0.00565427,0.0478828,-0.0348083,0.0674801,-0.013943,-1.05802,0.050283,0.0328987,692,1401,-162.642,-54.5103
-525,-377,-163.163,57.3795,0,0,0,0,0,0,0,-1,699,1401,-163.163,-57.3795
-518,-377,-162.809,60.339,0,0,0,0,0,0,0,-1,706,1401,-162.809,-60.339
-511,-377,-165.483,63.1279,0,0,0,0,0,0,0,-1,713,1401,-165.483,-63.128
-504,-377,-127.546,70.9412,0,0,0,0,0,0,0,-1,720,1401,-127.546,-70.9412
-497,-377,-84.5035,65.3524,0,0,0,0,0,0,0,-1,727,1401,-84.5036,-65.3525
-490,-377,-8.88409,10.1245,0,0,0,0,0,0,0,-1,734,1401,-8.8841,-10.1245
-483,-377,-5.6524,5.07324,0,0,0,0,0,0,0,-1,741,1401,-5.6524,-5.07325
-476,-377,-6.11682,5.10535,0,0,0,0,0,0,0,-1,748,1401,-6.11681,-5.10537
-469,-377,-10.3211,1.9281,0,0,0,0,0,0,0,-1,755,1401,-10.3211,-1.92808
-462,-377,-9.2204,1.0022,0,0,0,0,0,0,0,-1,762,1401,-9.22039,-1.00218
-455,-377,-8.11969,0.0762939,0,0,0,0,0,0,0,-1,769,1401,-8.11968,-0.0762759
-448,-377,-9.05334,0.877319,0,0,0,0,0,0,0,-1,776,1401,-9.05332,-0.877324
-441,-377,-11.212,0.763428,0,0,0,0,0,0,0,-1,783,1401,-11.212,-0.763415
-434,-377,-11.0984,0.996216,0,0,0,0,0,0,0,-1,790,1401,-11.0984,-0.996265
-427,-377,-11.1733,1.25732,0,0,0,0,0,0,0,-1,797,1401,-11.1733,-1.25732
-420,-377,0,0,0,0,0,0,0,0,0,-1,804,1401,0,0
-413,-377,0,0,0,0,0,0,0,0,0,-1,811,1401,0,0
-406,-377,0,0,0,0,0,0,0,0,0,-1,818,1401,0,0
-399,-377,0,0,0,0,0,0,0,0,0,-1,825,1401,0,0
-392,-377,0,0,0,0,0,0,0,0,0,-1,832,1401,0,0
-385,-377,0,0,0,0,0,0,0,0,0,-1,839,1401,0,0
-378,-377,0,0,0,0,0,0,0,0,0,-1,846,1401,0,0
-371,-377,0,0,0,0,0,0,0,0,0,-1,853,1401,0,0
-364,-377,0,0,0,0,0,0,0,0,0,-1,860,1401,0,0
-357,-377,0,0,0,0,0,0,0,0,0,-1,867,1401,0,0
-350,-377,0,0,0,0,0,0,0,0,0,-1,874,1401,0,0
-343,-377,0,0,0,0,0,0,0,0,0,-1,881,1401,0,0
-336,-377,0,0,0,0,0,0,0,0,0,-1,888,1401,0,0
-329,-377,0,0,0,0,0,0,0,0,0,-1,895,1401,0,0
-322,-377,0,0,0,0,0,0,0,0,0,-1,902,1401,0,0
-315,-377,0,0,0,0,0,0,0,0,0,-1,909,1401,0,0
-308,-377,0,0,0,0,0,0,0,0,0,-1,916,1401,0,0
-301,-377,0,0,0,0,0,0,0,0,0,-1,923,1401,0,0
-294,-377,0,0,0,0,0,0,0,0,0,-1,930,1401,0,0
-287,-377,0,0,0,0,0,0,0,0,0,-1,937,1401,0,0
-280,-377,0,0,0,0,0,0,0,0,0,-1,944,1401,0,0
-273,-377,0,0,0,0,0,0,0,0,0,-1,951,1401,0,0
-266,-377,0,0,0,0,0,0,0,0,0,-1,958,1401,0,0
-259,-377,0,0,0,0,0,0,0,0,0,-1,965,1401,0,0
-252,-377,0,0,0,0,0,0,0,0,0,-1,972,1401,0,0
-245,-377,0,0,0,0,0,0,0,0,0,-1,979,1401,0,0
-238,-377,0,0,0,0,0,0,0,0,0,-1,986,1401,0,0
-231,-377,0,0,0,0,0,0,0,0,0,-1,993,1401,0,0
-224,-377,0,0,0,0,0,0,0,0,0,-1,1000,1401,0,0
-217,-377,0,0,0,0,0,0,0,0,0,-1,1007,1401,0,0
-210,-377,0,0,0,0,0,0,0,0,0,-1,1014,1401,0,0
-203,-377,0,0,0,0,0,0,0,0,0,-1,1021,1401,0,0
-196,-377,0,0,0,0,0,0,0,0,0,-1,1028,1401,0,0
-189,-377,0,0,0,0,0,0,0,0,0,-1,1035,1401,0,0
-182,-377,0,0,0,0,0,0,0,0,0,-1,1042,1401,0,0
-175,-377,0,0,0,0,0,0,0,0,0,-1,1049,1401,0,0
-168,-377,0,0,0,0,0,0,0,0,0,-1,1056,1401,0,0
-161,-377,0,0,0,0,0,0,0,0,0,-1,1063,1401,0,0
-154,-377,0,0,0,0,0,0,0,0,0,-1,1070,1401,0,0
-147,-377,0,0,0,0,0,0,0,0,0,-1,1077,1401,0,0
-140,-377,0,0,0,0,0,0,0,0,0,-1,1084,1401,0,0
-133,-377,0,0,0,0,0,0,0,0,0,-1,1091,1401,0,0
-126,-377,0,0,0,0,0,0,0,0,0,-1,1098,1401,0,0
-119,-377,0,0,0,0,0,0,0,0,0,-1,1105,1401,0,0
-112,-377,0,0,0,0,0,0,0,0,0,-1,1112,1401,0,0
-105,-377,0,0,0,0,0,0,0,0,0,-1,1119,1401,0,0
-98,-377,0,0,0,0,0,0,0,0,0,-1,1126,1401,0,0
-91,-377,0,0,0,0,0,0,0,0,0,-1,1133,1401,0,0
-84,-377,0,0,0,0,0,0,0,0,0,-1,1140,1401,0,0
-77,-377,0,0,0,0,0,0,0,0,0,-1,1147,1401,0,0
-70,-377,0,0,0,0,0,0,0,0,0,-1,1154,1401,0,0
-63,-377,0,0,0,0,0,0,0,0,0,-1,1161,1401,0,0
-56,-377,0,0,0,0,0,0,0,0,0,-1,1168,1401,0,0
-49,-377,0,0,0,0,0,0,0,0,0,-1,1175,1401,0,0
-42,-377,0,0,0,0,0,0,0,0,0,-1,1182,1401,0,0
-35,-377,0,0,0,0,0,0,0,0,0,-1,1189,1401,0,0
-28,-377,0,0,0,0,0,0,0,0,0,-1,1196,1401,0,0
-21,-377,0,0,0,0,0,0,0,0,0,-1,1203,1401,0,0
-14,-377,0,0,0,0,0,0,0,0,0,-1,1210,1401,0,0
-7,-377,0,0,0,0,0,0,0,0,0,-1,1217,1401,0,0
0,-377,0,0,0,0,0,0,0,0,0,-1,1224,1401,0,0
7,-377,0,0,0,0,0,0,0,0,0,-1,1231,1401,0,0
14,-377,0,0,0,0,0,0,0,0,0,-1,1238,1401,0,0
21,-377,0,0,0,0,0,0,0,0,0,-1,1245,1401,0,0
28,-377,0,0,0,0,0,0,0,0,0,-1,1252,1401,0,0
35,-377,0,0,0,0,0,0,0,0,0,-1,1259,1401,0,0
42,-377,0,0,0,0,0,0,0,0,0,-1,1266,1401,0,0
49,-377,0,0,0,0,0,0,0,0,0,-1,1273,1401,0,0
56,-377,0,0,0,0,0,0,0,0,0,-1,1280,1401,0,0
63,-377,0,0,0,0,0,0,0,0,0,-1,1287,1401,0,0
70,-377,0,0,0,0,0,0,0,0,0,-1,1294,1401,0,0
77,-377,0,0,0,0,0,0,0,0,0,-1,1301,1401,0,0
84,-377,0,0,0,0,0,0,0,0,0,-1,1308,1401,0,0
91,-377,0,0,0,0,0,0,0,0,0,-1,1315,1401,0,0
98,-377,0,0,0,0,0,0,0,0,0,-1,1322,1401,0,0
105,-377,0,0,0,0,0,0,0,0,0,-1,1329,1401,0,0
112,-377,0,0,0,0,0,0,0,0,0,-1,1336,1401,0,0
119,-377,0,0,0,0,0,0,0,0,0,-1,1343,1401,0,0
126,-377,0,0,0,0,0,0,0,0,0,-1,1350,1401,0,0
133,-377,0,0,0,0,0,0,0,0,0,-1,1357,1401,0,0
140,-377,0,0,0,0,0,0,0,0,0,-1,1364,1401,0,0
147,-377,0,0,0,0,0,0,0,0,0,-1,1371,1401,0,0
154,-377,0,0,0,0,0,0,0,0,0,-1,1378,1401,0,0
161,-377,0,0,0,0,0,0,0,0,0,-1,1385,1401,0,0
168,-377,0,0,0,0,0,0,0,0,0,-1,1392,1401,0,0
175,-377,0,0,0,0,0,0,0,0,0,-1,1399,1401,0,0
182,-377,0,0,0,0,0,0,0,0,0,-1,1406,1401,0,0
189,-377,0,0,0,0,0,0,0,0,0,-1,1413,1401,0,0
196,-377,0,0,0,0,0,0,0,0,0,-1,1420,1401,0,0
203,-377,0,0,0,0,0,0,0,0,0,-1,1427,1401,0,0
210,-377,0,0,0,0,0,0,0,0,0,-1,1434,1401,0,0
217,-377,0,0,0,0,0,0,0,0,0,-1,1441,1401,0,0
224,-377,0,0,0,0,0,0,0,0,0,-1,1448,1401,0,0
231,-377,0,0,0,0,0,0,0,0,0,-1,1455,1401,0,0
238,-377,0,0,0,0,0,0,0,0,0,-1,1462,1401,0,0
245,-377,0,0,0,0,0,0,0,0,0,-1,1469,1401,0,0
252,-377,0,0,0,0,0,0,0,0,0,-1,1476,1401,0,0
259,-377,0,0,0,0,0,0,0,0,0,-1,1483,1401,0,0
266,-377,0,0,0,0,0,0,0,0,0,-1,1490,1401,0,0
273,-377,0,0,0,0,0,0,0,0,0,-1,1497,1401,0,0
280,-377,0,0,0,0,0,0,0,0,0,-1,1504,1401,0,0
287,-377,0,0,0,0,0,0,0,0,0,-1,1511,1401,0,0
294,-377,0,0,0,0,0,0,0,0,0,-1,1518,1401,0,0
301,-377,0,0,0,0,0,0,0,0,0,-1,1525,1401,0,0
308,-377,0,0,0,0,0,0,0,0,0,-1,1532,1401,0,0
315,-377,0,0,0,0,0,0,0,0,0,-1,1539,1401,0,0
322,-377,0,0,0,0,0,0,0,0,0,-1,1546,1401,0,0
329,-377,0,0,0,0,0,0,0,0,0,-1,1553,1401,0,0
336,-377,0,0,0,0,0,0,0,0,0,-1,1560,1401,0,0
343,-377,0,0,0,0,0,0,0,0,0,-1,1567,1401,0,0
350,-377,0,0,0,0,0,0,0,0,0,-1,1574,1401,0,0
357,-377,0,0,0,0,0,0,0,0,0,-1,1581,1401,0,0
364,-377,0,0,0,0,0,0,0,0,0,-1,1588,1401,0,0
371,-377,0,0,0,0,0,0,0,0,0,-1,1595,1401,0,0
378,-377,0,0,0,0,0,0,0,0,0,-1,1602,1401,0,0
385,-377,0,0,0,0,0,0,0,0,0,-1,1609,1401,0,0
392,-377,0,0,0,0,0,0,0,0,0,-1,1616,1401,0,0
399,-377,0,0,0,0,0,0,0,0,0,-1,1623,1401,0,0
406,-377,0,0,0,0,0,0,0,0,0,-1,1630,1401,0,0
413,-377,0,0,0,0,0,0,0,0,0,-1,1637,1401,0,0
420,-377,0,0,0,0,0,0,0,0,0,-1,1644,1401,0,0
427,-377,0,0,0,0,0,0,0,0,0,-1,1651,1401,0,0
434,-377,0,0,0,0,0,0,0,0,0,-1,1658,1401,0,0
441,-377,0,0,0,0,0,0,0,0,0,-1,1665,1401,0,0
448,-377,0,0,0,0,0,0,0,0,0,-1,1672,1401,0,0
455,-377,0,0,0,0,0,0,0,0,0,-1,1679,1401,0,0
462,-377,0,0,0,0,0,0,0,0,0,-1,1686,1401,0,0
469,-377,0,0,0,0,0,0,0,0,0,-1,1693,1401,0,0
476,-377,0,0,0,0,0,0,0,0,0,-1,1700,1401,0,0
483,-377,0,0,0,0,0,0,0,0,0,-1,1707,1401,0,0
490,-377,0,0,0,0,0,0,0,0,0,-1,1714,1401,0,0
497,-377,0,0,0,0,0,0,0,0,0,-1,1721,1401,0,0
504,-377,0,0,0,0,0,0,0,0,0,-1,1728,1401,0,0
511,-377,0,0,0,0,0,0,0,0,0,-1,1735,1401,0,0
518,-377,0,0,0,0,0,0,0,0,0,-1,1742,1401,0,0
525,-377,0,0,0,0,0,0,0,0,0,-1,1749,1401,0,0
532,-377,0,0,0,0,0,0,0,0,0,-1,1756,1401,0,0
539,-377,0,0,0,0,0,0,0,0,0,-1,1763,1401,0,0
546,-377,27.8485,2.34094,0,0,0,0,0,0,0,-1,1770,1401,27.8486,-2.34091
553,-377,61.8907,2.39148,0,0,0,0,0,0,0,-1,1777,1401,61.8908,-2.39149
560,-377,38.3577,-2.15015,0,0,0,0,0,0,0,-1,1784,1401,38.3576,2.1501
567,-377,38.4889,-0.285645,0,0,0,0,0,0,0,-1,1791,1401,38.4889,0.2857
574,-377,38.6221,1.61694,0,0,0,0,0,0,0,-1,1798,1401,38.6221,-1.61689
581,-377,39.1818,3.76367,0,0,0,0,0,0,0,-1,1805,1401,39.1818,-3.76366
588,-377,25.882,4.35217,0,0,0,0,0,0,0,-1,1812,1401,25.8819,-4.3522
595,-377,25.5392,5.11804,0,0,0,0,0,0,0,-1,1819,1401,25.5392,-5.11808
602,-377,24.816,5.79126,0,0,0,0,0,0,0,-1,1826,1401,24.816,-5.79124
609,-377,15.0223,4.76135,0,0,0,0,0,0,0,-1,1833,1401,15.0224,-4.76129
616,-377,14.1842,5.78992,0,0,0,0,0,0,0,-1,1840,1401,14.1842,-5.78987
623,-377,15.8248,8.76721,0,0,0,0,0,0,0,-1,1847,1401,15.8248,-8.76725
630,-377,37.4343,20.0704,0,0,0,0,0,0,0,-1,1854,1401,37.4344,-20.0704
637,-377,172.471,69.8412,0,0,0,0,0,0,0,-1,1861,1401,172.471,-69.8412
644,-377,171.94,66.7737,0,0,0,0,0,0,0,-1,1868,1401,171.94,-66.7737
651,-377,171.307,63.8406,-0.00104254,0.0180632,0.0231317,0.033537,-0.0165163,0.98122,0.02945,0.0290148,1875,1401,171.307,-63.8406
658,-377,170.57,61.1147,-0.000715446,0.0226112,0.0247932,0.0383474,-0.0164517,1.00525,0.0324692,0.0247573,1882,1401,170.569,-61.1147
665,-377,170.123,58.2463,-0.000589587,0.0269547,0.0266866,0.0432133,-0.0168483,1.02361,0.0357729,0.0284916,1889,1401,170.123,-58.2463
672,-377,169.575,55.5001,-0.000670512,0.0311284,0.02879,0.0481175,-0.0176596,1.03769,0.0393101,0.0290629,1896,1401,169.575,-55.5002
679,-377,168.904,52.8242,-0.000963325,0.0352087,0.0310604,0.053065,-0.0188196,1.04904,0.0430438,0.0268345,1903,1401,168.904,-52.8242
686,-377,168.381,50.2531,-0.00138779,0.0390674,0.0336021,0.0580604,-0.0203808,1.05633,0.0469974,0.0249692,1910,1401,168.381,-50.2531
693,-377,167.89,47.6528,0,0,0,0,0,0,0,-1,1917,1401,167.89,-47.6528
700,-377,69.8997,32.8438,0,0,0,0,0,0,0,-1,1924,1401,69.8996,-32.8438
707,-377,28.6234,9.18152,0,0,0,0,0,0,0,-1,1931,1401,28.6234,-9.18151
714,-377,16.5369,5.45959,0,0,0,0,0,0,0,-1,1938,1401,16.5369,-5.4596
721,-377,17.0913,5.42529,0,0,0,0,0,0,0,-1,1945,1401,17.0914,-5.42529
728,-377,14.5396,2.79724,0,0,0,0,0,0,0,-1,1952,1401,14.5396,-2.7972
735,-377,23.2977,-0.991089,0,0,0,0,0,0,0,-1,1959,1401,23.2978,0.991076
742,-377,0,0,0,0,0,0,0,0,0,-1,1966,1401,0,0
749,-377,0,0,0,0,0,0,0,0,0,-1,1973,1401,0,0
756,-377,0,0,0,0,0,0,0,0,0,-1,1980,1401,0,0
763,-377,0,0,0,0,0,0,0,0,0,-1,1987,1401,0,0
770,-377,0,0,0,0,0,0,0,0,0,-1,1994,1401,0,0
777,-377,0,0,0,0,0,0,0,0,0,-1,2001,1401,0,0
784,-377,0,0,0,0,0,0,0,0,0,-1,2008,1401,0,0
791,-377,0,0,0,0,0,0,0,0,0,-1,2015,1401,0,0
798,-377,0,0,0,0,0,0,0,0,0,-1,2022,1401,0,0
805,-377,0,0,0,0,0,0,0,0,0,-1,2029,1401,0,0
812,-377,0,0,0,0,0,0,0,0,0,-1,2036,1401,0,0
-700,-384,0,0,0,0,0,0,0,0,0,-1,524,1408,0,0
-693,-384,0,0,0,0,0,0,0,0,0,-1,531,1408,0,0
-686,-384,0,0,0,0,0,0,0,0,0,-1,538,1408,0,0
-679,-384,0,0,0,0,0,0,0,0,0,-1,545,1408,0,0
-672,-384,0,0,0,0,0,0,0,0,0,-1,552,1408,0,0
-665,-384,0,0,0,0,0,0,0,0,0,-1,559,1408,0,0
-658,-384,0,0,0,0,0,0,0,0,0,-1,566,1408,0,0
-651,-384,0,0,0,0,0,0,0,0,0,-1,573,1408,0,0
-644,-384,0,0,0,0,0,0,0,0,0,-1,580,1408,0,0
-637,-384,0,0,0,0,0,0,0,0,0,-1,587,1408,0,0
-630,-384,0,0,0,0,0,0,0,0,0,-1,594,1408,0,0
-623,-384,0,0,0,0,0,0,0,0,0,-1,601,1408,0,0
-616,-384,-10.019,-3.36646,0,0,0,0,0,0,0,-1,608,1408,-10.019,3.36648
-609,-384,-7.72357,-2.3418,0,0,0,0,0,0,0,-1,615,1408,-7.72358,2.34182
-602,-384,-11.7632,-2.85156,0,0,0,0,0,0,0,-1,622,1408,-11.7632,2.85157
-595,-384,-10.2217,2.8855,0,0,0,0,0,0,0,-1,629,1408,-10.2218,-2.88548
-588,-384,-12.1653,2.29041,0,0,0,0,0,0,0,-1,636,1408,-12.1654,-2.29038
-581,-384,-11.9297,3.60376,0,0,0,0,0,0,0,-1,643,1408,-11.9298,-3.6038
-574,-384,-11.8677,6.02722,0,0,0,0,0,0,0,-1,650,1408,-11.8677,-6.02722
-567,-384,-12.0743,7.04639,0,0,0,0,0,0,0,-1,657,1408,-12.0743,-7.04641
-560,-384,-19.9478,11.6345,0,0,0,0,0,0,0,-1,664,1408,-19.9478,-11.6345
-553,-384,-157.942,46.5103,0,0,0,0,0,0,0,-1,671,1408,-157.942,-46.5103
-546,-384,-158.527,49.4098,0.0139851,0.060244,-0.0351137,0.0791615,-0.00493236,-1.07663,0.0544929,0.0252144,678,1408,-158.527,-49.4098
-539,-384,-158.958,52.0896,0.0105062,0.0551105,-0.0360404,0.0751911,-0.00957436,-1.06247,0.0536046,0.0248208,685,1408,-158.958,-52.0896
-532,-384,-159.392,54.7096,0.00808979,0.0509533,-0.0358399,0.0712806,-0.0122375,-1.05487,0.052081,0.0285549,692,1408,-159.392,-54.7096
-525,-384,-160.071,57.5587,0.00668275,0.0477098,-0.0345663,0.0673912,-0.0129986,-1.05319,0.0498287,0.0331033,699,1408,-160.071,-57.5587
-518,-384,-160.667,60.6754,0,0,0,0,0,0,0,-1,706,1408,-160.667,-60.6754
-511,-384,-161.828,63.5212,0,0,0,0,0,0,0,-1,713,1408,-161.828,-63.5212
-504,-384,-163.419,66.5389,0,0,0,0,0,0,0,-1,720,1408,-163.419,-66.5389
-497,-384,-95.1385,71.2412,0,0,0,0,0,0,0,-1,727,1408,-95.1386,-71.2413
-490,-384,-82.2095,67.7151,0,0,0,0,0,0,0,-1,734,1408,-82.2096,-67.7151
-483,-384,-6.26471,7.61194,0,0,0,0,0,0,0,-1,741,1408,-6.26469,-7.61191
-476,-384,-6.02734,5.67761,0,0,0,0,0,0,0,-1,748,1408,-6.02736,-5.6776
-469,-384,-10.206,2.63721,0,0,0,0,0,0,0,-1,755,1408,-10.206,-2.6372
-462,-384,-9.04291,1.43542,0,0,0,0,0,0,0,-1,762,1408,-9.04293,-1.43545
-455,-384,-7.87988,0.233765,0,0,0,0,0,0,0,-1,769,1408,-7.87986,-0.233709
-448,-384,-9.35529,7.19226,0,0,0,0,0,0,0,-1,776,1408,-9.35531,-7.19226
-441,-384,-10.4697,1.79004,0,0,0,0,0,0,0,-1,783,1408,-10.4697,-1.79003
-434,-384,-10.6449,0.552246,0,0,0,0,0,0,0,-1,790,1408,-10.6449,-0.552216
-427,-384,-10.968,1.10583,0,0,0,0,0,0,0,-1,797,1408,-10.968,-1.10588
-420,-384,-12.5607,4.54858,0,0,0,0,0,0,0,-1,804,1408,-12.5607,-4.54859
-413,-384,0,0,0,0,0,0,0,0,0,-1,811,1408,0,0
-406,-384,0,0,0,0,0,0,0,0,0,-1,818,1408,0,0
-399,-384,0,0,0,0,0,0,0,0,0,-1,825,1408,0,0
-392,-384,0,0,0,0,0,0,0,0,0,-1,832,1408,0,0
-385,-384,0,0,0,0,0,0,0,0,0,-1,839,1408,0,0
-378,-384,0,0,0,0,0,0,0,0,0,-1,846,1408,0,0
-371,-384,0,0,0,0,0,0,0,0,0,-1,853,1408,0,0
-364,-384,0,0,0,0,0,0,0,0,0,-1,860,1408,0,0
-357,-384,0,0,0,0,0,0,0,0,0,-1,867,1408,0,0
-350,-384,0,0,0,0,0,0,0,0,0,-1,874,1408,0,0
-343,-384,0,0,0,0,0,0,0,0,0,-1,881,1408,0,0
-336,-384,0,0,0,0,0,0,0,0,0,-1,888,1408,0,0
-329,-384,0,0,0,0,0,0,0,0,0,-1,895,1408,0,0
-322,-384,0,0,0,0,0,0,0,0,0,-1,902,1408,0,0
-315,-384,0,0,0,0,0,0,0,0,0,-1,909,1408,0,0
-308,-384,0,0,0,0,0,0,0,0,0,-1,916,1408,0,0
-301,-384,0,0,0,0,0,0,0,0,0,-1,923,1408,0,0
-294,-384,0,0,0,0,0,0,0,0,0,-1,930,1408,0,0
-287,-384,0,0,0,0,0,0,0,0,0,-1,937,1408,0,0
-280,-384,0,0,0,0,0,0,0,0,0,-1,944,1408,0,0
-273,-384,0,0,0,0,0,0,0,0,0,-1,951,1408,0,0
-266,-384,0,0,0,0,0,0,0,0,0,-1,958,1408,0,0
-259,-384,0,0,0,0,0,0,0,0,0,-1,965,1408,0,0
-252,-384,0,0,0,0,0,0,0,0,0,-1,972,1408,0,0
-245,-384,0,0,0,0,0,0,0,0,0,-1,979,1408,0,0
-238,-384,0,0,0,0,0,0,0,0,0,-1,986,1408,0,0
-231,-384,0,0,0,0,0,0,0,0,0,-1,993,1408,0,0
-224,-384,0,0,0,0,0,0,0,0,0,-1,1000,1408,0,0
-217,-384,0,0,0,0,0,0,0,0,0,-1,1007,1408,0,0
-210,-384,0,0,0,0,0,0,0,0,0,-1,1014,1408,0,0
-203,-384,0,0,0,0,0,0,0,0,0,-1,1021,1408,0,0
-196,-384,0,0,0,0,0,0,0,0,0,-1,1028,1408,0,0
-189,-384,0,0,0,0,0,0,0,0,0,-1,1035,1408,0,0
-182,-384,0,0,0,0,0,0,0,0,0,-1,1042,1408,0,0
-175,-384,0,0,0,0,0,0,0,0,0,-1,1049,1408,0,0
-168,-384,0,0,0,0,0,0,0,0,0,-1,1056,1408,0,0
-161,-384,0,0,0,0,0,0,0,0,0,-1,1063,1408,0,0
-154,-384,0,0,0,0,0,0,0,0,0,-1,1070,1408,0,0
-147,-384,0,0,0,0,0,0,0,0,0,-1,1077,1408,0,0
-140,-384,0,0,0,0,0,0,0,0,0,-1,1084,1408,0,0
-133,-384,0,0,0,0,0,0,0,0,0,-1,1091,1408,0,0
-126,-384,0,0,0,0,0,0,0,0,0,-1,1098,1408,0,0
-119,-384,0,0,0,0,0,0,0,0,0,-1,1105,1408,0,0
-112,-384,0,0,0,0,0,0,0,0,0,-1,1112,1408,0,0
-105,-384,0,0,0,0,0,0,0,0,0,-1,1119,1408,0,0
-98,-384,0,0,0,0,0,0,0,0,0,-1,1126,1408,0,0
-91,-384,0,0,0,0,0,0,0,0,0,-1,1133,1408,0,0
-84,-384,0,0,0,0,0,0,0,0,0,-1,1140,1408,0,0
-77,-384,0,0,0,0,0,0,0,0,0,-1,1147,1408,0,0
-70,-384,0,0,0,0,0,0,0,0,0,-1,1154,1408,0,0
-63,-384,0,0,0,0,0,0,0,0,0,-1,1161,1408,0,0
-56,-384,0,0,0,0,0,0,0,0,0,-1,1168,1408,0,0
-49,-384,0,0,0,0,0,0,0,0,0,-1,1175,1408,0,0
-42,-384,0,0,0,0,0,0,0,0,0,-1,1182,1408,0,0
-35,-384,0,0,0,0,0,0,0,0,0,-1,1189,1408,0,0
-28,-384,0,0,0,0,0,0,0,0,0,-1,1196,1408,0,0
-21,-384,0,0,0,0,0,0,0,0,0,-1,1203,1408,0,0
-14,-384,0,0,0,0,0,0,0,0,0,-1,1210,1408,0,0
-7,-384,0,0,0,0,0,0,0,0,0,-1,1217,1408,0,0
0,-384,0,0,0,0,0,0,0,0,0,-1,1224,1408,0,0
7,-384,0,0,0,0,0,0,0,0,0,-1,1231,1408,0,0
14,-384,0,0,0,0,0,0,0,0,0,-1,1238,1408,0,0
21,-384,0,0,0,0,0,0,0,0,0,-1,1245,1408,0,0
28,-384,0,0,0,0,0,0,0,0,0,-1,1252,1408,0,0
35,-384,0,0,0,0,0,0,0,0,0,-1,1259,1408,0,0
42,-384,0,0,0,0,0,0,0,0,0,-1,1266,1408,0,0
49,-384,0,0,0,0,0,0,0,0,0,-1,1273,1408,0,0
56,-384,0,0,0,0,0,0,0,0,0,-1,1280,1408,0,0
63,-384,0,0,0,0,0,0,0,0,0,-1,1287,1408,0,0
70,-384,0,0,0,0,0,0,0,0,0,-1,1294,1408,0,0
77,-384,0,0,0,0,0,0,0,0,0,-1,1301,1408,0,0
84,-384,0,0,0,0,0,0,0,0,0,-1,1308,1408,0,0
91,-384,0,0,0,0,0,0,0,0,0,-1,1315,1408,0,0
98,-384,0,0,0,0,0,0,0,0,0,-1,1322,1408,0,0
105,-384,0,0,0,0,0,0,0,0,0,-1,1329,1408,0,0
112,-384,0,0,0,0,0,0,0,0,0,-1,1336,1408,0,0
119,-384,0,0,0,0,0,0,0,0,0,-1,1343,1408,0,0
126,-384,0,0,0,0,0,0,0,0,0,-1,1350,1408,0,0
133,-384,0,0,0,0,0,0,0,0,0,-1,1357,1408,0,0
140,-384,0,0,0,0,0,0,0,0,0,-1,1364,1408,0,0
147,-384,0,0,0,0,0,0,0,0,0,-1,1371,1408,0,0
154,-384,0,0,0,0,0,0,0,0,0,-1,1378,1408,0,0
161,-384,0,0,0,0,0,0,0,0,0,-1,1385,1408,0,0
168,-384,0,0,0,0,0,0,0,0,0,-1,1392,1408,0,0
175,-384,0,0,0,0,0,0,0,0,0,-1,1399,1408,0,0
182,-384,0,0,0,0,0,0,0,0,0,-1,1406,1408,0,0
189,-384,0,0,0,0,0,0,0,0,0,-1,1413,1408,0,0
196,-384,0,0,0,0,0,0,0,0,0,-1,1420,1408,0,0
203,-384,0,0,0,0,0,0,0,0,0,-1,1427,1408,0,0
210,-384,0,0,0,0,0,0,0,0,0,-1,1434,1408,0,0
217,-384,0,0,0,0,0,0,0,0,0,-1,1441,1408,0,0
224,-384,0,0,0,0,0,0,0,0,0,-1,1448,1408,0,0
231,-384,0,0,0,0,0,0,0,0,0,-1,1455,1408,0,0
238,-384,0,0,0,0,0,0,0,0,0,-1,1462,1408,0,0
245,-384,0,0,0,0,0,0,0,0,0,-1,1469,1408,0,0
252,-384,0,0,0,0,0,0,0,0,0,-1,1476,1408,0,0
259,-384,0,0,0,0,0,0,0,0,0,-1,1483,1408,0,0
266,-384,0,0,0,0,0,0,0,0,0,-1,1490,1408,0,0
273,-384,0,0,0,0,0,0,0,0,0,-1,1497,1408,0,0
280,-384,0,0,0,0,0,0,0,0,0,-1,1504,1408,0,0
287,-384,0,0,0,0,0,0,0,0,0,-1,1511,1408,0,0
294,-384,0,0,0,0,0,0,0,0,0,-1,1518,1408,0,0
301,-384,0,0,0,0,0,0,0,0,0,-1,1525,1408,0,0
308,-384,0,0,0,0,0,0,0,0,0,-1,1532,1408,0,0
315,-384,0,0,0,0,0,0,0,0,0,-1,1539,1408,0,0
322,-384,0,0,0,0,0,0,0,0,0,-1,1546,1408,0,0
329,-384,0,0,0,0,0,0,0,0,0,-1,1553,1408,0,0
336,-384,0,0,0,0,0,0,0,0,0,-1,1560,1408,0,0
343,-384,0,0,0,0,0,0,0,0,0,-1,1567,1408,0,0
350,-384,0,0,0,0,0,0,0,0,0,-1,1574,1408,0,0
357,-384,0,0,0,0,0,0,0,0,0,-1,1581,1408,0,0
364,-384,0,0,0,0,0,0,0,0,0,-1,1588,1408,0,0
371,-384,0,0,0,0,0,0,0,0,0,-1,1595,1408,0,0
378,-384,0,0,0,0,0,0,0,0,0,-1,1602,1408,0,0
385,-384,0,0,0,0,0,0,0,0,0,-1,1609,1408,0,0
392,-384,0,0,0,0,0,0,0,0,0,-1,1616,1408,0,0
399,-384,0,0,0,0,0,0,0,0,0,-1,1623,1408,0,0
406,-384,0,0,0,0,0,0,0,0,0,-1,1630,1408,0,0
413,-384,0,0,0,0,0,0,0,0,0,-1,1637,1408,0,0
420,-384,0,0,0,0,0,0,0,0,0,-1,1644,1408,0,0
427,-384,0,0,0,0,0,0,0,0,0,-1,1651,1408,0,0
434,-384,0,0,0,0,0,0,0,0,0,-1,1658,1408,0,0
441,-384,0,0,0,0,0,0,0,0,0,-1,1665,1408,0,0
448,-384,0,0,0,0,0,0,0,0,0,-1,1672,1408,0,0
455,-384,0,0,0,0,0,0,0,0,0,-1,1679,1408,0,0
462,-384,0,0,0,0,0,0,0,0,0,-1,1686,1408,0,0
469,-384,0,0,0,0,0,0,0,0,0,-1,1693,1408,0,0
476,-384,0,0,0,0,0,0,0,0,0,-1,1700,1408,0,0
483,-384,0,0,0,0,0,0,0,0,0,-1,1707,1408,0,0
490,-384,0,0,0,0,0,0,0,0,0,-1,1714,1408,0,0
497,-384,0,0,0,0,0,0,0,0,0,-1,1721,1408,0,0
504,-384,0,0,0,0,0,0,0,0,0,-1,1728,1408,0,0
511,-384,0,0,0,0,0,0,0,0,0,-1,1735,1408,0,0
518,-384,0,0,0,0,0,0,0,0,0,-1,1742,1408,0,0
525,-384,0,0,0,0,0,0,0,0,0,-1,1749,1408,0,0
532,-384,0,0,0,0,0,0,0,0,0,-1,1756,1408,0,0
539,-384,27.6886,2.85803,0,0,0,0,0,0,0,-1,1763,1408,27.6886,-2.85807
546,-384,27.5044,2.9425,0,0,0,0,0,0,0,-1,1770,1408,27.5044,-2.94255
553,-384,27.3052,2.78394,0,0,0,0,0,0,0,-1,1777,1408,27.3051,-2.78394
560,-384,26.833,3.19812,0,0,0,0,0,0,0,-1,1784,1408,26.833,-3.19816
567,-384,38.2566,0.109985,0,0,0,0,0,0,0,-1,1791,1408,38.2566,-0.110044
574,-384,38.4003,2.05945,0,0,0,0,0,0,0,-1,1798,1408,38.4003,-2.05949
581,-384,25.819,3.91846,0,0,0,0,0,0,0,-1,1805,1408,25.8189,-3.91848
588,-384,23.3721,4.25439,0,0,0,0,0,0,0,-1,1812,1408,23.3721,-4.25442
595,-384,24.981,5.59595,0,0,0,0,0,0,0,-1,1819,1408,24.981,-5.59598
602,-384,20.6605,4.17261,0,0,0,0,0,0,0,-1,1826,1408,20.6606,-4.17265
609,-384,14.158,5.49475,0,0,0,0,0,0,0,-1,1833,1408,14.158,-5.49474
616,-384,14.7997,7.6908,0,0,0,0,0,0,0,-1,1840,1408,14.7996,-7.69079
623,-384,16.4293,9.58899,0,0,0,0,0,0,0,-1,1847,1408,16.4294,-9.58901
630,-384,81.8457,60.5172,0,0,0,0,0,0,0,-1,1854,1408,81.8457,-60.5173
637,-384,167.307,71.3063,0,0,0,0,0,0,0,-1,1861,1408,167.307,-71.3062
644,-384,168.872,67.2344,0,0,0,0,0,0,0,-1,1868,1408,168.872,-67.2344
651,-384,168.041,64.3644,-0.0018057,0.0196126,0.0260362,0.0370561,-0.0192492,0.98051,0.0330453,0.0354833,1875,1408,168.041,-64.3643
658,-384,167.321,61.528,-0.00105906,0.0245901,0.0274032,0.0420212,-0.0184902,1.00426,0.035806,0.0285692,1882,1408,167.321,-61.528
665,-384,166.808,58.6984,-0.000545562,0.0292688,0.0290253,0.0469912,-0.018268,1.02263,0.0388749,0.0273488,1889,1408,166.808,-58.6983
672,-384,166.28,55.9724,-0.000278131,0.0337091,0.0308567,0.0519422,-0.0185112,1.0371,0.0421751,0.025898,1896,1408,166.28,-55.9724
679,-384,165.639,53.2871,-0.000313971,0.0379838,0.0328913,0.0568943,-0.0192245,1.04901,0.0457059,0.0258511,1903,1408,165.639,-53.2871
686,-384,165.164,50.686,-0.000471985,0.0418098,0.0352762,0.0617949,-0.0204571,1.05535,0.0494469,0.0358974,1910,1408,165.164,-50.6861
693,-384,164.864,47.8823,0,0,0,0,0,0,0,-1,1917,1408,164.864,-47.8824
700,-384,41.9762,14.4678,0,0,0,0,0,0,0,-1,1924,1408,41.9762,-14.4678
707,-384,17.0566,6.62842,0,0,0,0,0,0,0,-1,1931,1408,17.0567,-6.62848
714,-384,16.038,5.0282,0,0,0,0,0,0,0,-1,1938,1408,16.038,-5.02819
721,-384,13.8843,2.8717,0,0,0,0,0,0,0,-1,1945,1408,13.8843,-2.87171
728,-384,15.4409,6.25745,0,0,0,0,0,0,0,-1,1952,1408,15.4409,-6.2574
735,-384,16.7598,6.71289,0,0,0,0,0,0,0,-1,1959,1408,16.7598,-6.71287
742,-384,0,0,0,0,0,0,0,0,0,-1,1966,1408,0,0
749,-384,0,0,0,0,0,0,0,0,0,-1,1973,1408,0,0
756,-384,0,0,0,0,0,0,0,0,0,-1,1980,1408,0,0
763,-384,0,0,0,0,0,0,0,0,0,-1,1987,1408,0,0
770,-384,0,0,0,0,0,0,0,0,0,-1,1994,1408,0,0
777,-384,0,0,0,0,0,0,0,0,0,-1,2001,1408,0,0
784,-384,0,0,0,0,0,0,0,0,0,-1,2008,1408,0,0
791,-384,0,0,0,0,0,0,0,0,0,-1,2015,1408,0,0
798,-384,0,0,0,0,0,0,0,0,0,-1,2022,1408,0,0
805,-384,0,0,0,0,0,0,0,0,0,-1,2029,1408,0,0
812,-384,0,0,0,0,0,0,0,0,0,-1,2036,1408,0,0
-700,-391,0,0,0,0,0,0,0,0,0,-1,524,1415,0,0
-693,-391,0,0,0,0,0,0,0,0,0,-1,531,1415,0,0
-686,-391,0,0,0,0,0,0,0,0,0,-1,538,1415,0,0
-679,-391,0,0,0,0,0,0,0,0,0,-1,545,1415,0,0
-672,-391,0,0,0,0,0,0,0,0,0,-1,552,1415,0,0
-665,-391,0,0,0,0,0,0,0,0,0,-1,559,1415,0,0
-658,-391,0,0,0,0,0,0,0,0,0,-1,566,1415,0,0
-651,-391,0,0,0,0,0,0,0,0,0,-1,573,1415,0,0
-644,-391,0,0,0,0,0,0,0,0,0,-1,580,1415,0,0
-637,-391,0,0,0,0,0,0,0,0,0,-1,587,1415,0,0
-630,-391,0,0,0,0,0,0,0,0,0,-1,594,1415,0,0
-623,-391,0,0,0,0,0,0,0,0,0,-1,601,1415,0,0
-616,-391,0,0,0,0,0,0,0,0,0,-1,608,1415,0,0
-609,-391,-7.71753,-3.69763,0,0,0,0,0,0,0,-1,615,1415,-7.71751,3.69759
-602,-391,-13.9493,-4.12805,0,0,0,0,0,0,0,-1,622,1415,-13.9493,4.12803
-595,-391,-10.8315,1.76172,0,0,0,0,0,0,0,-1,629,1415,-10.8315,-1.76171
-588,-391,-10.265,2.16431,0,0,0,0,0,0,0,-1,636,1415,-10.265,-2.16431
-581,-391,-11.3325,2.44836,0,0,0,0,0,0,0,-1,643,1415,-11.3325,-2.44842
-574,-391,-11.1471,6.19983,0,0,0,0,0,0,0,-1,650,1415,-11.1471,-6.19981
-567,-391,-11.5172,6.82458,0,0,0,0,0,0,0,-1,657,1415,-11.5171,-6.82454
-560,-391,-11.2459,7.37195,0,0,0,0,0,0,0,-1,664,1415,-11.2459,-7.37191
-553,-391,-154.787,46.9031,0,0,0,0,0,0,0,-1,671,1415,-154.787,-46.9031
-546,-391,-155.092,49.6935,0.0155023,0.0623994,-0.03691,0.0826793,-0.00477764,-1.06838,0.0567791,0.04141,678,1415,-155.092,-49.6935
-539,-391,-155.451,52.5732,0.0122921,0.0571909,-0.0377279,0.0786433,-0.00916034,-1.05378,0.0557338,0.022205,685,1415,-155.451,-52.5733
-532,-391,-156.025,55.3156,0.0100858,0.053166,-0.0373712,0.0747604,-0.0115086,-1.04683,0.0540861,0.0320304,692,1415,-156.025,-55.3155
-525,-391,-156.663,58.2085,0.00880932,0.0501067,-0.0360165,0.0709737,-0.0120577,-1.04568,0.0518049,0.0282994,699,1415,-156.663,-58.2085
-518,-391,-157.222,61.1493,0.00845596,0.0480749,-0.0336863,0.0673446,-0.0108137,-1.05119,0.0489012,0.0264301,706,1415,-157.222,-61.1492
-511,-391,-158.139,63.792,0,0,0,0,0,0,0,-1,713,1415,-158.139,-63.792
-504,-391,-159.324,66.2213,0,0,0,0,0,0,0,-1,720,1415,-159.324,-66.2213
-497,-391,-141.719,72.4164,0,0,0,0,0,0,0,-1,727,1415,-141.719,-72.4164
-490,-391,-93.2216,74.1921,0,0,0,0,0,0,0,-1,734,1415,-93.2216,-74.1922
-483,-391,-11.1018,12.9382,0,0,0,0,0,0,0,-1,741,1415,-11.1018,-12.9382
-476,-391,-6.05731,6.85303,0,0,0,0,0,0,0,-1,748,1415,-6.05728,-6.85304
-469,-391,-3.88953,5.0979,0,0,0,0,0,0,0,-1,755,1415,-3.88955,-5.09794
-462,-391,-8.67688,2.03125,0,0,0,0,0,0,0,-1,762,1415,-8.67685,-2.03121
-455,-391,-8.65576,6.46997,0,0,0,0,0,0,0,-1,769,1415,-8.65579,-6.46999
-448,-391,-8.39618,4.38403,0,0,0,0,0,0,0,-1,776,1415,-8.39617,-4.38405
-441,-391,-9.77704,2.5946,0,0,0,0,0,0,0,-1,783,1415,-9.77702,-2.5946
-434,-391,-11.5403,2.12878,0,0,0,0,0,0,0,-1,790,1415,-11.5403,-2.12881
-427,-391,-10.5311,2.50403,0,0,0,0,0,0,0,-1,797,1415,-10.5311,-2.504
-420,-391,-14.7087,1.24365,0,0,0,0,0,0,0,-1,804,1415,-14.7088,-1.24365
-413,-391,0,0,0,0,0,0,0,0,0,-1,811,1415,0,0
-406,-391,0,0,0,0,0,0,0,0,0,-1,818,1415,0,0
-399,-391,0,0,0,0,0,0,0,0,0,-1,825,1415,0,0
-392,-391,0,0,0,0,0,0,0,0,0,-1,832,1415,0,0
-385,-391,0,0,0,0,0,0,0,0,0,-1,839,1415,0,0
-378,-391,0,0,0,0,0,0,0,0,0,-1,846,1415,0,0
-371,-391,0,0,0,0,0,0,0,0,0,-1,853,1415,0,0
-364,-391,0,0,0,0,0,0,0,0,0,-1,860,1415,0,0
-357,-391,0,0,0,0,0,0,0,0,0,-1,867,1415,0,0
-350,-391,0,0,0,0,0,0,0,0,0,-1,874,1415,0,0
-343,-391,0,0,0,0,0,0,0,0,0,-1,881,1415,0,0
-336,-391,0,0,0,0,0,0,0,0,0,-1,888,1415,0,0
-329,-391,0,0,0,0,0,0,0,0,0,-1,895,1415,0,0
-322,-391,0,0,0,0,0,0,0,0,0,-1,902,1415,0,0
-315,-391,0,0,0,0,0,0,0,0,0,-1,909,1415,0,0
-308,-391,0,0,0,0,0,0,0,0,0,-1,916,1415,0,0
-301,-391,0,0,0,0,0,0,0,0,0,-1,923,1415,0,0
-294,-391,0,0,0,0,0,0,0,0,0,-1,930,1415,0,0
-287,-391,0,0,0,0,0,0,0,0,0,-1,937,1415,0,0
-280,-391,0,0,0,0,0,0,0,0,0,-1,944,1415,0,0
-273,-391,0,0,0,0,0,0,0,0,0,-1,951,1415,0,0
-266,-391,0,0,0,0,0,0,0,0,0,-1,958,1415,0,0
-259,-391,0,0,0,0,0,0,0,0,0,-1,965,1415,0,0
-252,-391,0,0,0,0,0,0,0,0,0,-1,972,1415,0,0
-245,-391,0,0,0,0,0,0,0,0,0,-1,979,1415,0,0
-238,-391,0,0,0,0,0,0,0,0,0,-1,986,1415,0,0
-231,-391,0,0,0,0,0,0,0,0,0,-1,993,1415,0,0
-224,-391,0,0,0,0,0,0,0,0,0,-1,1000,1415,0,0
-217,-391,0,0,0,0,0,0,0,0,0,-1,1007,1415,0,0
-210,-391,0,0,0,0,0,0,0,0,0,-1,1014,1415,0,0
-203,-391,0,0,0,0,0,0,0,0,0,-1,1021,1415,0,0
-196,-391,0,0,0,0,0,0,0,0,0,-1,1028,1415,0,0
-189,-391,0,0,0,0,0,0,0,0,0,-1,1035,1415,0,0
-182,-391,0,0,0,0,0,0,0,0,0,-1,1042,1415,0,0
-175,-391,0,0,0,0,0,0,0,0,0,-1,1049,1415,0,0
-168,-391,0,0,0,0,0,0,0,0,0,-1,1056,1415,0,0
-161,-391,0,0,0,0,0,0,0,0,0,-1,1063,1415,0,0
-154,-391,0,0,0,0,0,0,0,0,0,-1,1070,1415,0,0
-147,-391,0,0,0,0,0,0,0,0,0,-1,1077,1415,0,0
-140,-391,0,0,0,0,0,0,0,0,0,-1,1084,1415,0,0
-133,-391,0,0,0,0,0,0,0,0,0,-1,1091,1415,0,0
-126,-391,0,0,0,0,0,0,0,0,0,-1,1098,1415,0,0
-119,-391,0,0,0,0,0,0,0,0,0,-1,1105,1415,0,0
-112,-391,0,0,0,0,0,0,0,0,0,-1,1112,1415,0,0
-105,-391,0,0,0,0,0,0,0,0,0,-1,1119,1415,0,0
-98,-391,0,0,0,0,0,0,0,0,0,-1,1126,1415,0,0
-91,-391,0,0,0,0,0,0,0,0,0,-1,1133,1415,0,0
-84,-391,0,0,0,0,0,0,0,0,0,-1,1140,1415,0,0
-77,-391,0,0,0,0,0,0,0,0,0,-1,1147,1415,0,0
-70,-391,0,0,0,0,0,0,0,0,0,-1,1154,1415,0,0
-63,-391,0,0,0,0,0,0,0,0,0,-1,1161,1415,0,0
-56,-391,0,0,0,0,0,0,0,0,0,-1,1168,1415,0,0
-49,-391,0,0,0,0,0,0,0,0,0,-1,1175,1415,0,0
-42,-391,0,0,0,0,0,0,0,0,0,-1,1182,1415,0,0
-35,-391,0,0,0,0,0,0,0,0,0,-1,1189,1415,0,0
-28,-391,0,0,0,0,0,0,0,0,0,-1,1196,1415,0,0
-21,-391,0,0,0,0,0,0,0,0,0,-1,1203,1415,0,0
-14,-391,0,0,0,0,0,0,0,0,0,-1,1210,1415,0,0
-7,-391,0,0,0,0,0,0,0,0,0,-1,1217,1415,0,0
0,-391,0,0,0,0,0,0,0,0,0,-1,1224,1415,0,0
7,-391,0,0,0,0,0,0,0,0,0,-1,1231,1415,0,0
14,-391,0,0,0,0,0,0,0,0,0,-1,1238,1415,0,0
21,-391,0,0,0,0,0,0,0,0,0,-1,1245,1415,0,0
28,-391,0,0,0,0,0,0,0,0,0,-1,1252,1415,0,0
35,-391,0,0,0,0,0,0,0,0,0,-1,1259,1415,0,0
42,-391,0,0,0,0,0,0,0,0,0,-1,1266,1415,0,0
49,-391,0,0,0,0,0,0,0,0,0,-1,1273,1415,0,0
56,-391,0,0,0,0,0,0,0,0,0,-1,1280,1415,0,0
63,-391,0,0,0,0,0,0,0,0,0,-1,1287,1415,0,0
70,-391,0,0,0,0,0,0,0,0,0,-1,1294,1415,0,0
77,-391,0,0,0,0,0,0,0,0,0,-1,1301,1415,0,0
84,-391,0,0,0,0,0,0,0,0,0,-1,1308,1415,0,0
91,-391,0,0,0,0,0,0,0,0,0,-1,1315,1415,0,0
98,-391,0,0,0,0,0,0,0,0,0,-1,1322,1415,0,0
105,-391,0,0,0,0,0,0,0,0,0,-1,1329,1415,0,0
112,-391,0,0,0,0,0,0,0,0,0,-1,1336,1415,0,0
119,-391,0,0,0,0,0,0,0,0,0,-1,1343,1415,0,0
126,-391,0,0,0,0,0,0,0,0,0,-1,1350,1415,0,0
133,-391,0,0,0,0,0,0,0,0,0,-1,1357,1415,0,0
140,-391,0,0,0,0,0,0,0,0,0,-1,1364,1415,0,0
147,-391,0,0,0,0,0,0,0,0,0,-1,1371,1415,0,0
154,-391,0,0,0,0,0,0,0,0,0,-1,1378,1415,0,0
161,-391,0,0,0,0,0,0,0,0,0,-1,1385,1415,0,0
168,-391,0,0,0,0,0,0,0,0,0,-1,1392,1415,0,0
175,-391,0,0,0,0,0,0,0,0,0,-1,1399,1415,0,0
182,-391,0,0,0,0,0,0,0,0,0,-1,1406,1415,0,0
189,-391,0,0,0,0,0,0,0,0,0,-1,1413,1415,0,0
196,-391,0,0,0,0,0,0,0,0,0,-1,1420,1415,0,0
203,-391,0,0,0,0,0,0,0,0,0,-1,1427,1415,0,0
210,-391,0,0,0,0,0,0,0,0,0,-1,1434,1415,0,0
217,-391,0,0,0,0,0,0,0,0,0,-1,1441,1415,0,0
224,-391,0,0,0,0,0,0,0,0,0,-1,1448,1415,0,0
231,-391,0,0,0,0,0,0,0,0,0,-1,1455,1415,0,0
238,-391,0,0,0,0,0,0,0,0,0,-1,1462,1415,0,0
245,-391,0,0,0,0,0,0,0,0,0,-1,1469,1415,0,0
252,-391,0,0,0,0,0,0,0,0,0,-1,1476,1415,0,0
259,-391,0,0,0,0,0,0,0,0,0,-1,1483,1415,0,0
266,-391,0,0,0,0,0,0,0,0,0,-1,1490,1415,0,0
273,-391,0,0,0,0,0,0,0,0,0,-1,1497,1415,0,0
280,-391,0,0,0,0,0,0,0,0,0,-1,1504,1415,0,0
287,-391,0,0,0,0,0,0,0,0,0,-1,1511,1415,0,0
294,-391,0,0,0,0,0,0,0,0,0,-1,1518,1415,0,0
301,-391,0,0,0,0,0,0,0,0,0,-1,1525,1415,0,0
308,-391,0,0,0,0,0,0,0,0,0,-1,1532,1415,0,0
315,-391,0,0,0,0,0,0,0,0,0,-1,1539,1415,0,0
322,-391,0,0,0,0,0,0,0,0,0,-1,1546,1415,0,0
329,-391,0,0,0,0,0,0,0,0,0,-1,1553,1415,0,0
336,-391,0,0,0,0,0,0,0,0,0,-1,1560,1415,0,0
343,-391,0,0,0,0,0,0,0,0,0,-1,1567,1415,0,0
350,-391,0,0,0,0,0,0,0,0,0,-1,1574,1415,0,0
357,-391,0,0,0,0,0,0,0,0,0,-1,1581,1415,0,0
364,-391,0,0,0,0,0,0,0,0,0,-1,1588,1415,0,0
371,-391,0,0,0,0,0,0,0,0,0,-1,1595,1415,0,0
378,-391,0,0,0,0,0,0,0,0,0,-1,1602,1415,0,0
385,-391,0,0,0,0,0,0,0,0,0,-1,1609,1415,0,0
392,-391,0,0,0,0,0,0,0,0,0,-1,1616,1415,0,0
399,-391,0,0,0,0,0,0,0,0,0,-1,1623,1415,0,0
406,-391,0,0,0,0,0,0,0,0,0,-1,1630,1415,0,0
413,-391,0,0,0,0,0,0,0,0,0,-1,1637,1415,0,0
420,-391,0,0,0,0,0,0,0,0,0,-1,1644,1415,0,0
427,-391,0,0,0,0,0,0,0,0,0,-1,1651,1415,0,0
434,-391,0,0,0,0,0,0,0,0,0,-1,1658,1415,0,0
441,-391,0,0,0,0,0,0,0,0,0,-1,1665,1415,0,0
448,-391,0,0,0,0,0,0,0,0,0,-1,1672,1415,0,0
455,-391,0,0,0,0,0,0,0,0,0,-1,1679,1415,0,0
462,-391,0,0,0,0,0,0,0,0,0,-1,1686,1415,0,0
469,-391,0,0,0,0,0,0,0,0,0,-1,1693,1415,0,0
476,-391,0,0,0,0,0,0,0,0,0,-1,1700,1415,0,0
483,-391,0,0,0,0,0,0,0,0,0,-1,1707,1415,0,0
490,-391,0,0,0,0,0,0,0,0,0,-1,1714,1415,0,0
497,-391,0,0,0,0,0,0,0,0,0,-1,1721,1415,0,0
504,-391,0,0,0,0,0,0,0,0,0,-1,1728,1415,0,0
511,-391,0,0,0,0,0,0,0,0,0,-1,1735,1415,0,0
518,-391,0,0,0,0,0,0,0,0,0,-1,1742,1415,0,0
525,-391,0,0,0,0,0,0,0,0,0,-1,1749,1415,0,0
532,-391,28.5959,3.02356,0,0,0,0,0,0,0,-1,1756,1415,28.596,-3.02358
539,-391,27.5881,3.25012,0,0,0,0,0,0,0,-1,1763,1415,27.5882,-3.25016
546,-391,27.2837,3.28064,0,0,0,0,0,0,0,-1,1770,1415,27.2837,-3.28064
553,-391,32.5952,5.04553,0,0,0,0,0,0,0,-1,1777,1415,32.5952,-5.04551
560,-391,31.2947,5.67017,0,0,0,0,0,0,0,-1,1784,1415,31.2947,-5.67011
567,-391,30.1473,6.17603,0,0,0,0,0,0,0,-1,1791,1415,30.1473,-6.17602
574,-391,27.5656,5.6842,0,0,0,0,0,0,0,-1,1798,1415,27.5655,-5.68422
581,-391,25.8883,5.76123,0,0,0,0,0,0,0,-1,1805,1415,25.8883,-5.76124
588,-391,24.2717,5.47986,0,0,0,0,0,0,0,-1,1812,1415,24.2717,-5.47982
595,-391,22.8827,6.1991,0,0,0,0,0,0,0,-1,1819,1415,22.8827,-6.19909
602,-391,15.1635,5.69849,0,0,0,0,0,0,0,-1,1826,1415,15.1635,-5.69847
609,-391,14.8285,7.50476,0,0,0,0,0,0,0,-1,1833,1415,14.8285,-7.50479
616,-391,20.7952,12.0503,0,0,0,0,0,0,0,-1,1840,1415,20.7952,-12.0503
623,-391,36.6426,20.3677,0,0,0,0,0,0,0,-1,1847,1415,36.6426,-20.3676
630,-391,163.63,73.2515,0,0,0,0,0,0,0,-1,1854,1415,163.63,-73.2515
637,-391,166.492,70.5009,0,0,0,0,0,0,0,-1,1861,1415,166.492,-70.5008
644,-391,165.396,68.1232,0,0,0,0,0,0,0,-1,1868,1415,165.396,-68.1232
651,-391,164.77,65.1857,-0.00141381,0.0220572,0.0283359,0.0409917,-0.0203483,0.981723,0.0360769,0.0308069,1875,1415,164.77,-65.1857
658,-391,164.145,62.2203,-0.000423449,0.0272563,0.0295094,0.04601,-0.0191772,1.00467,0.0386841,0.0255017,1882,1415,164.145,-62.2204
665,-391,163.539,59.3292,0.000351959,0.0321366,0.0309664,0.0510507,-0.0185621,1.02248,0.0416244,0.0190378,1889,1415,163.539,-59.3292
672,-391,162.982,56.5699,0.000852917,0.0367643,0.032689,0.0561044,-0.0184872,1.03655,0.0448538,0.0190226,1896,1415,162.982,-56.5699
679,-391,162.317,53.8228,0.00105829,0.0411826,0.0346506,0.0611599,-0.018919,1.04781,0.0483301,0.0217068,1903,1415,162.317,-53.8228
686,-391,161.698,51.1759,0,0,0,0,0,0,0,-1,1910,1415,161.699,-51.1759
693,-391,55.7168,25.5087,0,0,0,0,0,0,0,-1,1917,1415,55.7168,-25.5087
700,-391,39.8163,14.4929,0,0,0,0,0,0,0,-1,1924,1415,39.8163,-14.4929
707,-391,12.9524,5.96851,0,0,0,0,0,0,0,-1,1931,1415,12.9524,-5.96849
714,-391,15.6875,7.67896,0,0,0,0,0,0,0,-1,1938,1415,15.6875,-7.67893
721,-391,14.1808,8.08435,0,0,0,0,0,0,0,-1,1945,1415,14.1808,-8.08439
728,-391,13.8102,7.28174,0,0,0,0,0,0,0,-1,1952,1415,13.8102,-7.28174
735,-391,0,0,0,0,0,0,0,0,0,-1,1959,1415,0,0
742,-391,0,0,0,0,0,0,0,0,0,-1,1966,1415,0,0
749,-391,0,0,0,0,0,0,0,0,0,-1,1973,1415,0,0
756,-391,0,0,0,0,0,0,0,0,0,-1,1980,1415,0,0
763,-391,0,0,0,0,0,0,0,0,0,-1,1987,1415,0,0
770,-391,0,0,0,0,0,0,0,0,0,-1,1994,1415,0,0
777,-391,0,0,0,0,0,0,0,0,0,-1,2001,1415,0,0
784,-391,0,0,0,0,0,0,0,0,0,-1,2008,1415,0,0
791,-391,0,0,0,0,0,0,0,0,0,-1,2015,1415,0,0
798,-391,0,0,0,0,0,0,0,0,0,-1,2022,1415,0,0
805,-391,0,0,0,0,0,0,0,0,0,-1,2029,1415,0,0
812,-391,0,0,0,0,0,0,0,0,0,-1,2036,1415,0,0
-700,-398,0,0,0,0,0,0,0,0,0,-1,524,1422,0,0
-693,-398,0,0,0,0,0,0,0,0,0,-1,531,1422,0,0
-686,-398,0,0,0,0,0,0,0,0,0,-1,538,1422,0,0
-679,-398,0,0,0,0,0,0,0,0,0,-1,545,1422,0,0
-672,-398,0,0,0,0,0,0,0,0,0,-1,552,1422,0,0
-665,-398,0,0,0,0,0,0,0,0,0,-1,559,1422,0,0
-658,-398,0,0,0,0,0,0,0,0,0,-1,566,1422,0,0
-651,-398,0,0,0,0,0,0,0,0,0,-1,573,1422,0,0
-644,-398,0,0,0,0,0,0,0,0,0,-1,580,1422,0,0
-637,-398,0,0,0,0,0,0,0,0,0,-1,587,1422,0,0
-630,-398,0,0,0,0,0,0,0,0,0,-1,594,1422,0,0
-623,-398,0,0,0,0,0,0,0,0,0,-1,601,1422,0,0
-616,-398,0,0,0,0,0,0,0,0,0,-1,608,1422,0,0
-609,-398,-7.47125,-4.05322,0,0,0,0,0,0,0,-1,615,1422,-7.47128,4.05317
-602,-398,-4.58868,-2.77026,0,0,0,0,0,0,0,-1,622,1422,-4.58869,2.77023
-595,-398,-12.2224,-1.82007,0,0,0,0,0,0,0,-1,629,1422,-12.2224,1.82006
-588,-398,-10.6939,1.32336,0,0,0,0,0,0,0,-1,636,1422,-10.6939,-1.32337
-581,-398,-10.433,3.1123,0,0,0,0,0,0,0,-1,643,1422,-10.433,-3.11233
-574,-398,-10.4475,5.89807,0,0,0,0,0,0,0,-1,650,1422,-10.4475,-5.89802
-567,-398,-10.4904,6.80115,0,0,0,0,0,0,0,-1,657,1422,-10.4904,-6.80115
-560,-398,-10.5333,7.70435,0,0,0,0,0,0,0,-1,664,1422,-10.5333,-7.70429
-553,-398,-26.3343,18.9387,0,0,0,0,0,0,0,-1,671,1422,-26.3343,-18.9387
-546,-398,-151.558,49.8646,0,0,0,0,0,0,0,-1,678,1422,-151.558,-49.8646
-539,-398,-152.018,53.0226,0.0132051,0.0589813,-0.0401666,0.0823233,-0.010137,-1.04437,0.0585544,0.0197294,685,1422,-152.018,-53.0226
-532,-398,-152.659,55.9326,0.0113382,0.0550558,-0.0395926,0.0784228,-0.0120289,-1.03762,0.0567183,0.0279979,692,1422,-152.659,-55.9326
-525,-398,-153.289,58.8248,0.0102085,0.0520375,-0.0380939,0.0745806,-0.0123346,-1.03645,0.054301,0.0250803,699,1422,-153.289,-58.8248
-518,-398,-153.798,61.757,0.00984865,0.0499653,-0.0357171,0.0708709,-0.011057,-1.04125,0.0513315,0.0264343,706,1422,-153.798,-61.7569
-511,-398,-154.214,64.6166,0,0,0,0,0,0,0,-1,713,1422,-154.214,-64.6165
-504,-398,-155.214,67.9332,0,0,0,0,0,0,0,-1,720,1422,-155.214,-67.9332
-497,-398,-155.784,71.1078,0,0,0,0,0,0,0,-1,727,1422,-155.784,-71.1078
-490,-398,-115.703,78.3671,0,0,0,0,0,0,0,-1,734,1422,-115.703,-78.3671
-483,-398,-89.6431,76.8677,0,0,0,0,0,0,0,-1,741,1422,-89.6431,-76.8676
-476,-398,-8.64392,11.9448,0,0,0,0,0,0,0,-1,748,1422,-8.6439,-11.9448
-469,-398,-8.91699,10.6276,0,0,0,0,0,0,0,-1,755,1422,-8.91697,-10.6275
-462,-398,-9.59753,9.32532,0,0,0,0,0,0,0,-1,762,1422,-9.59753,-9.32531
-455,-398,-8.08331,6.75024,0,0,0,0,0,0,0,-1,769,1422,-8.08333,-6.75022
-448,-398,-7.4505,5.25293,0,0,0,0,0,0,0,-1,776,1422,-7.4505,-5.25291
-441,-398,-7.61639,3.32141,0,0,0,0,0,0,0,-1,783,1422,-7.61637,-3.32145
-434,-398,-10.7618,3.297,0,0,0,0,0,0,0,-1,790,1422,-10.7618,-3.29704
-427,-398,-11.9061,2.24939,0,0,0,0,0,0,0,-1,797,1422,-11.9061,-2.24941
-420,-398,-13.467,2.32788,0,0,0,0,0,0,0,-1,804,1422,-13.467,-2.32787
-413,-398,-14.7983,2.15515,0,0,0,0,0,0,0,-1,811,1422,-14.7983,-2.15516
-406,-398,0,0,0,0,0,0,0,0,0,-1,818,1422,0,0
-399,-398,0,0,0,0,0,0,0,0,0,-1,825,1422,0,0
-392,-398,0,0,0,0,0,0,0,0,0,-1,832,1422,0,0
-385,-398,0,0,0,0,0,0,0,0,0,-1,839,1422,0,0
-378,-398,0,0,0,0,0,0,0,0,0,-1,846,1422,0,0
-371,-398,0,0,0,0,0,0,0,0,0,-1,853,1422,0,0
-364,-398,0,0,0,0,0,0,0,0,0,-1,860,1422,0,0
-357,-398,0,0,0,0,0,0,0,0,0,-1,867,1422,0,0
-350,-398,0,0,0,0,0,0,0,0,0,-1,874,1422,0,0
-343,-398,0,0,0,0,0,0,0,0,0,-1,881,1422,0,0
-336,-398,0,0,0,0,0,0,0,0,0,-1,888,1422,0,0
-329,-398,0,0,0,0,0,0,0,0,0,-1,895,1422,0,0
-322,-398,0,0,0,0,0,0,0,0,0,-1,902,1422,0,0
-315,-398,0,0,0,0,0,0,0,0,0,-1,909,1422,0,0
-308,-398,0,0,0,0,0,0,0,0,0,-1,916,1422,0,0
-301,-398,0,0,0,0,0,0,0,0,0,-1,923,1422,0,0
-294,-398,0,0,0,0,0,0,0,0,0,-1,930,1422,0,0
-287,-398,0,0,0,0,0,0,0,0,0,-1,937,1422,0,0
-280,-398,0,0,0,0,0,0,0,0,0,-1,944,1422,0,0
-273,-398,0,0,0,0,0,0,0,0,0,-1,951,1422,0,0
-266,-398,0,0,0,0,0,0,0,0,0,-1,958,1422,0,0
-259,-398,0,0,0,0,0,0,0,0,0,-1,965,1422,0,0
-252,-398,0,0,0,0,0,0,0,0,0,-1,972,1422,0,0
-245,-398,0,0,0,0,0,0,0,0,0,-1,979,1422,0,0
-238,-398,0,0,0,0,0,0,0,0,0,-1,986,1422,0,0
-231,-398,0,0,0,0,0,0,0,0,0,-1,993,1422,0,0
-224,-398,0,0,0,0,0,0,0,0,0,-1,1000,1422,0,0
-217,-398,0,0,0,0,0,0,0,0,0,-1,1007,1422,0,0
-210,-398,0,0,0,0,0,0,0,0,0,-1,1014,1422,0,0
-203,-398,0,0,0,0,0,0,0,0,0,-1,1021,1422,0,0
-196,-398,0,0,0,0,0,0,0,0,0,-1,1028,1422,0,0
-189,-398,0,0,0,0,0,0,0,0,0,-1,1035,1422,0,0
-182,-398,0,0,0,0,0,0,0,0,0,-1,1042,1422,0,0
-175,-398,0,0,0,0,0,0,0,0,0,-1,1049,1422,0,0
-168,-398,0,0,0,0,0,0,0,0,0,-1,1056,1422,0,0
-161,-398,0,0,0,0,0,0,0,0,0,-1,1063,1422,0,0
-154,-398,0,0,0,0,0,0,0,0,0,-1,1070,1422,0,0
-147,-398,0,0,0,0,0,0,0,0,0,-1,1077,1422,0,0
-140,-398,0,0,0,0,0,0,0,0,0,-1,1084,1422,0,0
-133,-398,0,0,0,0,0,0,0,0,0,-1,1091,1422,0,0
-126,-398,0,0,0,0,0,0,0,0,0,-1,1098,1422,0,0
-119,-398,0,0,0,0,0,0,0,0,0,-1,1105,1422,0,0
-112,-398,0,0,0,0,0,0,0,0,0,-1,1112,1422,0,0
-105,-398,0,0,0,0,0,0,0,0,0,-1,1119,1422,0,0
-98,-398,0,0,0,0,0,0,0,0,0,-1,1126,1422,0,0
-91,-398,0,0,0,0,0,0,0,0,0,-1,1133,1422,0,0
-84,-398,0,0,0,0,0,0,0,0,0,-1,1140,1422,0,0
-77,-398,0,0,0,0,0,0,0,0,0,-1,1147,1422,0,0
-70,-398,0,0,0,0,0,0,0,0,0,-1,1154,1422,0,0
-63,-398,0,0,0,0,0,0,0,0,0,-1,1161,1422,0,0
-56,-398,0,0,0,0,0,0,0,0,0,-1,1168,1422,0,0
-49,-398,0,0,0,0,0,0,0,0,0,-1,1175,1422,0,0
-42,-398,0,0,0,0,0,0,0,0,0,-1,1182,1422,0,0
-35,-398,0,0,0,0,0,0,0,0,0,-1,1189,1422,0,0
-28,-398,0,0,0,0,0,0,0,0,0,-1,1196,1422,0,0
-21,-398,0,0,0,0,0,0,0,0,0,-1,1203,1422,0,0
-14,-398,0,0,0,0,0,0,0,0,0,-1,1210,1422,0,0
-7,-398,0,0,0,0,0,0,0,0,0,-1,1217,1422,0,0
0,-398,0,0,0,0,0,0,0,0,0,-1,1224,1422,0,0
7,-398,0,0,0,0,0,0,0,0,0,-1,1231,1422,0,0
14,-398,0,0,0,0,0,0,0,0,0,-1,1238,1422,0,0
21,-398,0,0,0,0,0,0,0,0,0,-1,1245,1422,0,0
28,-398,0,0,0,0,0,0,0,0,0,-1,1252,1422,0,0
35,-398,0,0,0,0,0,0,0,0,0,-1,1259,1422,0,0
42,-398,0,0,0,0,0,0,0,0,0,-1,1266,1422,0,0
49,-398,0,0,0,0,0,0,0,0,0,-1,1273,1422,0,0
56,-398,0,0,0,0,0,0,0,0,0,-1,1280,1422,0,0
63,-398,0,0,0,0,0,0,0,0,0,-1,1287,1422,0,0
70,-398,0,0,0,0,0,0,0,0,0,-1,1294,1422,0,0
77,-398,0,0,0,0,0,0,0,0,0,-1,1301,1422,0,0
84,-398,0,0,0,0,0,0,0,0,0,-1,1308,1422,0,0
91,-398,0,0,0,0,0,0,0,0,0,-1,1315,1422,0,0
98,-398,0,0,0,0,0,0,0,0,0,-1,1322,1422,0,0
105,-398,0,0,0,0,0,0,0,0,0,-1,1329,1422,0,0
112,-398,0,0,0,0,0,0,0,0,0,-1,1336,1422,0,0
119,-398,0,0,0,0,0,0,0,0,0,-1,1343,1422,0,0
126,-398,0,0,0,0,0,0,0,0,0,-1,1350,1422,0,0
133,-398,0,0,0,0,0,0,0,0,0,-1,1357,1422,0,0
140,-398,0,0,0,0,0,0,0,0,0,-1,1364,1422,0,0
147,-398,0,0,0,0,0,0,0,0,0,-1,1371,1422,0,0
154,-398,0,0,0,0,0,0,0,0,0,-1,1378,1422,0,0
161,-398,0,0,0,0,0,0,0,0,0,-1,1385,1422,0,0
168,-398,0,0,0,0,0,0,0,0,0,-1,1392,1422,0,0
175,-398,0,0,0,0,0,0,0,0,0,-1,1399,1422,0,0
182,-398,0,0,0,0,0,0,0,0,0,-1,1406,1422,0,0
189,-398,0,0,0,0,0,0,0,0,0,-1,1413,1422,0,0
196,-398,0,0,0,0,0,0,0,0,0,-1,1420,1422,0,0
203,-398,0,0,0,0,0,0,0,0,0,-1,1427,1422,0,0
210,-398,0,0,0,0,0,0,0,0,0,-1,1434,1422,0,0
217,-398,0,0,0,0,0,0,0,0,0,-1,1441,1422,0,0
224,-398,0,0,0,0,0,0,0,0,0,-1,1448,1422,0,0
231,-398,0,0,0,0,0,0,0,0,0,-1,1455,1422,0,0
238,-398,0,0,0,0,0,0,0,0,0,-1,1462,1422,0,0
245,-398,0,0,0,0,0,0,0,0,0,-1,1469,1422,0,0
252,-398,0,0,0,0,0,0,0,0,0,-1,1476,1422,0,0
259,-398,0,0,0,0,0,0,0,0,0,-1,1483,1422,0,0
266,-398,0,0,0,0,0,0,0,0,0,-1,1490,1422,0,0
273,-398,0,0,0,0,0,0,0,0,0,-1,1497,1422,0,0
280,-398,0,0,0,0,0,0,0,0,0,-1,1504,1422,0,0
287,-398,0,0,0,0,0,0,0,0,0,-1,1511,1422,0,0
294,-398,0,0,0,0,0,0,0,0,0,-1,1518,1422,0,0
301,-398,0,0,0,0,0,0,0,0,0,-1,1525,1422,0,0
308,-398,0,0,0,0,0,0,0,0,0,-1,1532,1422,0,0
315,-398,0,0,0,0,0,0,0,0,0,-1,1539,1422,0,0
322,-398,0,0,0,0,0,0,0,0,0,-1,1546,1422,0,0
329,-398,0,0,0,0,0,0,0,0,0,-1,1553,1422,0,0
336,-398,0,0,0,0,0,0,0,0,0,-1,1560,1422,0,0
343,-398,0,0,0,0,0,0,0,0,0,-1,1567,1422,0,0
350,-398,0,0,0,0,0,0,0,0,0,-1,1574,1422,0,0
357,-398,0,0,0,0,0,0,0,0,0,-1,1581,1422,0,0
364,-398,0,0,0,0,0,0,0,0,0,-1,1588,1422,0,0
371,-398,0,0,0,0,0,0,0,0,0,-1,1595,1422,0,0
378,-398,0,0,0,0,0,0,0,0,0,-1,1602,1422,0,0
385,-398,0,0,0,0,0,0,0,0,0,-1,1609,1422,0,0
392,-398,0,0,0,0,0,0,0,0,0,-1,1616,1422,0,0
399,-398,0,0,0,0,0,0,0,0,0,-1,1623,1422,0,0
406,-398,0,0,0,0,0,0,0,0,0,-1,1630,1422,0,0
413,-398,0,0,0,0,0,0,0,0,0,-1,1637,1422,0,0
420,-398,0,0,0,0,0,0,0,0,0,-1,1644,1422,0,0
427,-398,0,0,0,0,0,0,0,0,0,-1,1651,1422,0,0
434,-398,0,0,0,0,0,0,0,0,0,-1,1658,1422,0,0
441,-398,0,0,0,0,0,0,0,0,0,-1,1665,1422,0,0
448,-398,0,0,0,0,0,0,0,0,0,-1,1672,1422,0,0
455,-398,0,0,0,0,0,0,0,0,0,-1,1679,1422,0,0
462,-398,0,0,0,0,0,0,0,0,0,-1,1686,1422,0,0
469,-398,0,0,0,0,0,0,0,0,0,-1,1693,1422,0,0
476,-398,0,0,0,0,0,0,0,0,0,-1,1700,1422,0,0
483,-398,0,0,0,0,0,0,0,0,0,-1,1707,1422,0,0
490,-398,0,0,0,0,0,0,0,0,0,-1,1714,1422,0,0
497,-398,0,0,0,0,0,0,0,0,0,-1,1721,1422,0,0
504,-398,0,0,0,0,0,0,0,0,0,-1,1728,1422,0,0
511,-398,0,0,0,0,0,0,0,0,0,-1,1735,1422,0,0
518,-398,0,0,0,0,0,0,0,0,0,-1,1742,1422,0,0
525,-398,0,0,0,0,0,0,0,0,0,-1,1749,1422,0,0
532,-398,28.4558,3.84094,0,0,0,0,0,0,0,-1,1756,1422,28.4558,-3.8409
539,-398,27.0594,3.33887,0,0,0,0,0,0,0,-1,1763,1422,27.0595,-3.3389
546,-398,31.6873,5.58582,0,0,0,0,0,0,0,-1,1770,1422,31.6872,-5.58585
553,-398,30.4392,5.92383,0,0,0,0,0,0,0,-1,1777,1422,30.4392,-5.92386
560,-398,29.1621,6.30469,0,0,0,0,0,0,0,-1,1784,1422,29.1621,-6.30469
567,-398,27.8411,6.55029,0,0,0,0,0,0,0,-1,1791,1422,27.8411,-6.55033
574,-398,26.411,6.8916,0,0,0,0,0,0,0,-1,1798,1422,26.411,-6.8916
581,-398,24.75,7.11145,0,0,0,0,0,0,0,-1,1805,1422,24.7499,-7.11142
588,-398,23.1649,7.67969,0,0,0,0,0,0,0,-1,1812,1422,23.1649,-7.67975
595,-398,21.4253,7.86023,0,0,0,0,0,0,0,-1,1819,1422,21.4253,-7.86029
602,-398,19.6857,8.04077,0,0,0,0,0,0,0,-1,1826,1422,19.6856,-8.04083
609,-398,21.1835,13.2628,0,0,0,0,0,0,0,-1,1833,1422,21.1835,-13.2628
616,-398,35.7712,21.4,0,0,0,0,0,0,0,-1,1840,1422,35.7713,-21.4
623,-398,160.664,77.3129,0,0,0,0,0,0,0,-1,1847,1422,160.664,-77.3129
630,-398,163.795,74.2523,0,0,0,0,0,0,0,-1,1854,1422,163.795,-74.2523
637,-398,162.99,71.5385,0,0,0,0,0,0,0,-1,1861,1422,162.99,-71.5385
644,-398,162.239,68.6489,0,0,0,0,0,0,0,-1,1868,1422,162.239,-68.649
651,-398,161.502,65.8466,-0.00104883,0.0247276,0.0305162,0.0449656,-0.0212868,0.985206,0.0390567,0.0367716,1875,1422,161.502,-65.8466
658,-398,160.844,63.0553,0.000485962,0.0301202,0.0315543,0.0501632,-0.019557,1.0049,0.0415257,0.0279614,1882,1422,160.844,-63.0553
665,-398,160.238,60.0958,0.00178142,0.0353085,0.0328693,0.0554423,-0.0183523,1.02121,0.0443629,0.0193006,1889,1422,160.238,-60.0958
672,-398,159.578,57.173,0.00279408,0.0402962,0.0344925,0.0608049,-0.0177147,1.03437,0.0475544,0.0188778,1896,1422,159.578,-57.173
679,-398,158.958,54.2808,0.00364177,0.0450463,0.0363303,0.0661588,-0.0174707,1.04437,0.0509381,0.0462111,1903,1422,158.958,-54.2808
686,-398,158.326,51.2395,0,0,0,0,0,0,0,-1,1910,1422,158.326,-51.2395
693,-398,43.5162,17.3228,0,0,0,0,0,0,0,-1,1917,1422,43.5162,-17.3228
700,-398,38.7251,14.4174,0,0,0,0,0,0,0,-1,1924,1422,38.725,-14.4174
707,-398,10.9731,5.479,0,0,0,0,0,0,0,-1,1931,1422,10.9732,-5.47896
714,-398,11.7313,6.17346,0,0,0,0,0,0,0,-1,1938,1422,11.7313,-6.17348
721,-398,13.9371,8.05103,0,0,0,0,0,0,0,-1,1945,1422,13.9372,-8.05102
728,-398,14.786,7.0282,0,0,0,0,0,0,0,-1,1952,1422,14.786,-7.0282
735,-398,0,0,0,0,0,0,0,0,0,-1,1959,1422,0,0
742,-398,0,0,0,0,0,0,0,0,0,-1,1966,1422,0,0
749,-398,0,0,0,0,0,0,0,0,0,-1,1973,1422,0,0
756,-398,0,0,0,0,0,0,0,0,0,-1,1980,1422,0,0
763,-398,0,0,0,0,0,0,0,0,0,-1,1987,1422,0,0
770,-398,0,0,0,0,0,0,0,0,0,-1,1994,1422,0,0
777,-398,0,0,0,0,0,0,0,0,0,-1,2001,1422,0,0
784,-398,0,0,0,0,0,0,0,0,0,-1,2008,1422,0,0
791,-398,0,0,0,0,0,0,0,0,0,-1,2015,1422,0,0
798,-398,0,0,0,0,0,0,0,0,0,-1,2022,1422,0,0
805,-398,0,0,0,0,0,0,0,0,0,-1,2029,1422,0,0
812,-398,0,0,0,0,0,0,0,0,0,-1,2036,1422,0,0
-700,-405,0,0,0,0,0,0,0,0,0,-1,524,1429,0,0
-693,-405,0,0,0,0,0,0,0,0,0,-1,531,1429,0,0
-686,-405,0,0,0,0,0,0,0,0,0,-1,538,1429,0,0
-679,-405,0,0,0,0,0,0,0,0,0,-1,545,1429,0,0
-672,-405,0,0,0,0,0,0,0,0,0,-1,552,1429,0,0
-665,-405,0,0,0,0,0,0,0,0,0,-1,559,1429,0,0
-658,-405,0,0,0,0,0,0,0,0,0,-1,566,1429,0,0
-651,-405,0,0,0,0,0,0,0,0,0,-1,573,1429,0,0
-644,-405,0,0,0,0,0,0,0,0,0,-1,580,1429,0,0
-637,-405,0,0,0,0,0,0,0,0,0,-1,587,1429,0,0
-630,-405,0,0,0,0,0,0,0,0,0,-1,594,1429,0,0
-623,-405,0,0,0,0,0,0,0,0,0,-1,601,1429,0,0
-616,-405,0,0,0,0,0,0,0,0,0,-1,608,1429,0,0
-609,-405,0,0,0,0,0,0,0,0,0,-1,615,1429,0,0
-602,-405,-5.80988,-3.46594,0,0,0,0,0,0,0,-1,622,1429,-5.80987,3.46592
-595,-405,-9.35413,2.01477,0,0,0,0,0,0,0,-1,629,1429,-9.35411,-2.01476
-588,-405,-7.35693,0.507202,0,0,0,0,0,0,0,-1,636,1429,-7.35696,-0.507187
-581,-405,-10.1284,1.62927,0,0,0,0,0,0,0,-1,643,1429,-10.1284,-1.62922
-574,-405,-9.32074,3.05896,0,0,0,0,0,0,0,-1,650,1429,-9.32077,-3.0589
-567,-405,-9.68781,6.92163,0,0,0,0,0,0,0,-1,657,1429,-9.68782,-6.92166
-560,-405,-9.28674,7.20886,0,0,0,0,0,0,0,-1,664,1429,-9.28675,-7.20885
-553,-405,-20.6244,15.8638,0,0,0,0,0,0,0,-1,671,1429,-20.6244,-15.8637
-546,-405,-148.086,50.3927,0,0,0,0,0,0,0,-1,678,1429,-148.086,-50.3927
-539,-405,-148.706,53.4702,0.0137532,0.0604561,-0.043264,0.0862683,-0.012059,-1.03287,0.0619245,0.033141,685,1429,-148.706,-53.4702
-532,-405,-149.313,56.391,0.0120061,0.0566369,-0.0425916,0.082405,-0.0137619,-1.02671,0.0600519,0.0252715,692,1429,-149.313,-56.391
-525,-405,-149.72,59.3337,0.0108752,0.0535799,-0.0410698,0.0785163,-0.0140612,-1.02512,0.0576062,0.0262793,699,1429,-149.72,-59.3338
-518,-405,-150.156,62.264,0.010328,0.0513096,-0.0387665,0.0746675,-0.01303,-1.02852,0.054642,0.0247625,706,1429,-150.156,-62.2641
-511,-405,-150.73,65.3011,0.0103955,0.0498063,-0.0357719,0.0709412,-0.0107394,-1.03715,0.0512504,0.0227853,713,1429,-150.73,-65.3012
-504,-405,-151.499,68.4894,0.0110591,0.0490389,-0.0321422,0.0673817,-0.00728375,-1.05222,0.0475355,0.0321066,720,1429,-151.499,-68.4894
-497,-405,-151.991,71.8861,0.0122477,0.0490411,-0.0279018,0.0640652,-0.00277642,-1.07685,0.043665,0.0465102,727,1429,-151.991,-71.8861
-490,-405,-152.55,74.9373,0,0,0,0,0,0,0,-1,734,1429,-152.55,-74.9373
-483,-405,-95.8985,80.5236,0,0,0,0,0,0,0,-1,741,1429,-95.8985,-80.5236
-476,-405,-87.4611,80.198,0,0,0,0,0,0,0,-1,748,1429,-87.4612,-80.198
-469,-405,-9.65692,12.8171,0,0,0,0,0,0,0,-1,755,1429,-9.65691,-12.8172
-462,-405,-9.14862,11.3597,0,0,0,0,0,0,0,-1,762,1429,-9.14865,-11.3597
-455,-405,-9.021,9.51111,0,0,0,0,0,0,0,-1,769,1429,-9.021,-9.51109
-448,-405,-8.4649,6.82813,0,0,0,0,0,0,0,-1,776,1429,-8.46492,-6.82817
-441,-405,-6.6712,4.23767,0,0,0,0,0,0,0,-1,783,1429,-6.67121,-4.23764
-434,-405,-9.62549,3.94189,0,0,0,0,0,0,0,-1,790,1429,-9.62546,-3.94191
-427,-405,-10.9764,3.73926,0,0,0,0,0,0,0,-1,797,1429,-10.9764,-3.73923
-420,-405,-12.1187,3.68506,0,0,0,0,0,0,0,-1,804,1429,-12.1187,-3.68512
-413,-405,-13.5353,3.75659,0,0,0,0,0,0,0,-1,811,1429,-13.5353,-3.75655
-406,-405,-14.7374,3.99817,0,0,0,0,0,0,0,-1,818,1429,-14.7374,-3.99814
-399,-405,0,0,0,0,0,0,0,0,0,-1,825,1429,0,0
-392,-405,0,0,0,0,0,0,0,0,0,-1,832,1429,0,0
-385,-405,0,0,0,0,0,0,0,0,0,-1,839,1429,0,0
-378,-405,0,0,0,0,0,0,0,0,0,-1,846,1429,0,0
-371,-405,0,0,0,0,0,0,0,0,0,-1,853,1429,0,0
-364,-405,0,0,0,0,0,0,0,0,0,-1,860,1429,0,0
-357,-405,0,0,0,0,0,0,0,0,0,-1,867,1429,0,0
-350,-405,0,0,0,0,0,0,0,0,0,-1,874,1429,0,0
-343,-405,0,0,0,0,0,0,0,0,0,-1,881,1429,0,0
-336,-405,0,0,0,0,0,0,0,0,0,-1,888,1429,0,0
-329,-405,0,0,0,0,0,0,0,0,0,-1,895,1429,0,0
-322,-405,0,0,0,0,0,0,0,0,0,-1,902,1429,0,0
-315,-405,0,0,0,0,0,0,0,0,0,-1,909,1429,0,0
-308,-405,0,0,0,0,0,0,0,0,0,-1,916,1429,0,0
-301,-405,0,0,0,0,0,0,0,0,0,-1,923,1429,0,0
-294,-405,0,0,0,0,0,0,0,0,0,-1,930,1429,0,0
-287,-405,0,0,0,0,0,0,0,0,0,-1,937,1429,0,0
-280,-405,0,0,0,0,0,0,0,0,0,-1,944,1429,0,0
-273,-405,0,0,0,0,0,0,0,0,0,-1,951,1429,0,0
-266,-405,0,0,0,0,0,0,0,0,0,-1,958,1429,0,0
-259,-405,0,0,0,0,0,0,0,0,0,-1,965,1429,0,0
-252,-405,0,0,0,0,0,0,0,0,0,-1,972,1429,0,0
-245,-405,0,0,0,0,0,0,0,0,0,-1,979,1429,0,0
-238,-405,0,0,0,0,0,0,0,0,0,-1,986,1429,0,0
-231,-405,0,0,0,0,0,0,0,0,0,-1,993,1429,0,0
-224,-405,0,0,0,0,0,0,0,0,0,-1,1000,1429,0,0
-217,-405,0,0,0,0,0,0,0,0,0,-1,1007,1429,0,0
-210,-405,0,0,0,0,0,0,0,0,0,-1,1014,1429,0,0
-203,-405,0,0,0,0,0,0,0,0,0,-1,1021,1429,0,0
-196,-405,0,0,0,0,0,0,0,0,0,-1,1028,1429,0,0
-189,-405,0,0,0,0,0,0,0,0,0,-1,1035,1429,0,0
-182,-405,0,0,0,0,0,0,0,0,0,-1,1042,1429,0,0
-175,-405,0,0,0,0,0,0,0,0,0,-1,1049,1429,0,0
-168,-405,0,0,0,0,0,0,0,0,0,-1,1056,1429,0,0
-161,-405,0,0,0,0,0,0,0,0,0,-1,1063,1429,0,0
-154,-405,0,0,0,0,0,0,0,0,0,-1,1070,1429,0,0
-147,-405,0,0,0,0,0,0,0,0,0,-1,1077,1429,0,0
-140,-405,0,0,0,0,0,0,0,0,0,-1,1084,1429,0,0
-133,-405,0,0,0,0,0,0,0,0,0,-1,1091,1429,0,0
-126,-405,0,0,0,0,0,0,0,0,0,-1,1098,1429,0,0
-119,-405,0,0,0,0,0,0,0,0,0,-1,1105,1429,0,0
-112,-405,0,0,0,0,0,0,0,0,0,-1,1112,1429,0,0
-105,-405,0,0,0,0,0,0,0,0,0,-1,1119,1429,0,0
-98,-405,0,0,0,0,0,0,0,0,0,-1,1126,1429,0,0
-91,-405,0,0,0,0,0,0,0,0,0,-1,1133,1429,0,0
-84,-405,0,0,0,0,0,0,0,0,0,-1,1140,1429,0,0
-77,-405,0,0,0,0,0,0,0,0,0,-1,1147,1429,0,0
-70,-405,0,0,0,0,0,0,0,0,0,-1,1154,1429,0,0
-63,-405,0,0,0,0,0,0,0,0,0,-1,1161,1429,0,0
-56,-405,0,0,0,0,0,0,0,0,0,-1,1168,1429,0,0
-49,-405,0,0,0,0,0,0,0,0,0,-1,1175,1429,0,0
-42,-405,0,0,0,0,0,0,0,0,0,-1,1182,1429,0,0
-35,-405,0,0,0,0,0,0,0,0,0,-1,1189,1429,0,0
-28,-405,0,0,0,0,0,0,0,0,0,-1,1196,1429,0,0
-21,-405,0,0,0,0,0,0,0,0,0,-1,1203,1429,0,0
-14,-405,0,0,0,0,0,0,0,0,0,-1,1210,1429,0,0
-7,-405,0,0,0,0,0,0,0,0,0,-1,1217,1429,0,0
0,-405,0,0,0,0,0,0,0,0,0,-1,1224,1429,0,0
7,-405,0,0,0,0,0,0,0,0,0,-1,1231,1429,0,0
14,-405,0,0,0,0,0,0,0,0,0,-1,1238,1429,0,0
21,-405,0,0,0,0,0,0,0,0,0,-1,1245,1429,0,0
28,-405,0,0,0,0,0,0,0,0,0,-1,1252,1429,0,0
35,-405,0,0,0,0,0,0,0,0,0,-1,1259,1429,0,0
42,-405,0,0,0,0,0,0,0,0,0,-1,1266,1429,0,0
49,-405,0,0,0,0,0,0,0,0,0,-1,1273,1429,0,0
56,-405,0,0,0,0,0,0,0,0,0,-1,1280,1429,0,0
63,-405,0,0,0,0,0,0,0,0,0,-1,1287,1429,0,0
70,-405,0,0,0,0,0,0,0,0,0,-1,1294,1429,0,0
77,-405,0,0,0,0,0,0,0,0,0,-1,1301,1429,0,0
84,-405,0,0,0,0,0,0,0,0,0,-1,1308,1429,0,0
91,-405,0,0,0,0,0,0,0,0,0,-1,1315,1429,0,0
98,-405,0,0,0,0,0,0,0,0,0,-1,1322,1429,0,0
105,-405,0,0,0,0,0,0,0,0,0,-1,1329,1429,0,0
112,-405,0,0,0,0,0,0,0,0,0,-1,1336,1429,0,0
119,-405,0,0,0,0,0,0,0,0,0,-1,1343,1429,0,0
126,-405,0,0,0,0,0,0,0,0,0,-1,1350,1429,0,0
133,-405,0,0,0,0,0,0,0,0,0,-1,1357,1429,0,0
140,-405,0,0,0,0,0,0,0,0,0,-1,1364,1429,0,0
147,-405,0,0,0,0,0,0,0,0,0,-1,1371,1429,0,0
154,-405,0,0,0,0,0,0,0,0,0,-1,1378,1429,0,0
161,-405,0,0,0,0,0,0,0,0,0,-1,1385,1429,0,0
168,-405,0,0,0,0,0,0,0,0,0,-1,1392,1429,0,0
175,-405,0,0,0,0,0,0,0,0,0,-1,1399,1429,0,0
182,-405,0,0,0,0,0,0,0,0,0,-1,1406,1429,0,0
189,-405,0,0,0,0,0,0,0,0,0,-1,1413,1429,0,0
196,-405,0,0,0,0,0,0,0,0,0,-1,1420,1429,0,0
203,-405,0,0,0,0,0,0,0,0,0,-1,1427,1429,0,0
210,-405,0,0,0,0,0,0,0,0,0,-1,1434,1429,0,0
217,-405,0,0,0,0,0,0,0,0,0,-1,1441,1429,0,0
224,-405,0,0,0,0,0,0,0,0,0,-1,1448,1429,0,0
231,-405,0,0,0,0,0,0,0,0,0,-1,1455,1429,0,0
238,-405,0,0,0,0,0,0,0,0,0,-1,1462,1429,0,0
245,-405,0,0,0,0,0,0,0,0,0,-1,1469,1429,0,0
252,-405,0,0,0,0,0,0,0,0,0,-1,1476,1429,0,0
259,-405,0,0,0,0,0,0,0,0,0,-1,1483,1429,0,0
266,-405,0,0,0,0,0,0,0,0,0,-1,1490,1429,0,0
273,-405,0,0,0,0,0,0,0,0,0,-1,1497,1429,0,0
280,-405,0,0,0,0,0,0,0,0,0,-1,1504,1429,0,0
287,-405,0,0,0,0,0,0,0,0,0,-1,1511,1429,0,0
294,-405,0,0,0,0,0,0,0,0,0,-1,1518,1429,0,0
301,-405,0,0,0,0,0,0,0,0,0,-1,1525,1429,0,0
308,-405,0,0,0,0,0,0,0,0,0,-1,1532,1429,0,0
315,-405,0,0,0,0,0,0,0,0,0,-1,1539,1429,0,0
322,-405,0,0,0,0,0,0,0,0,0,-1,1546,1429,0,0
329,-405,0,0,0,0,0,0,0,0,0,-1,1553,1429,0,0
336,-405,0,0,0,0,0,0,0,0,0,-1,1560,1429,0,0
343,-405,0,0,0,0,0,0,0,0,0,-1,1567,1429,0,0
350,-405,0,0,0,0,0,0,0,0,0,-1,1574,1429,0,0
357,-405,0,0,0,0,0,0,0,0,0,-1,1581,1429,0,0
364,-405,0,0,0,0,0,0,0,0,0,-1,1588,1429,0,0
371,-405,0,0,0,0,0,0,0,0,0,-1,1595,1429,0,0
378,-405,0,0,0,0,0,0,0,0,0,-1,1602,1429,0,0
385,-405,0,0,0,0,0,0,0,0,0,-1,1609,1429,0,0
392,-405,0,0,0,0,0,0,0,0,0,-1,1616,1429,0,0
399,-405,0,0,0,0,0,0,0,0,0,-1,1623,1429,0,0
406,-405,0,0,0,0,0,0,0,0,0,-1,1630,1429,0,0
413,-405,0,0,0,0,0,0,0,0,0,-1,1637,1429,0,0
420,-405,0,0,0,0,0,0,0,0,0,-1,1644,1429,0,0
427,-405,0,0,0,0,0,0,0,0,0,-1,1651,1429,0,0
434,-405,0,0,0,0,0,0,0,0,0,-1,1658,1429,0,0
441,-405,0,0,0,0,0,0,0,0,0,-1,1665,1429,0,0
448,-405,0,0,0,0,0,0,0,0,0,-1,1672,1429,0,0
455,-405,0,0,0,0,0,0,0,0,0,-1,1679,1429,0,0
462,-405,0,0,0,0,0,0,0,0,0,-1,1686,1429,0,0
469,-405,0,0,0,0,0,0,0,0,0,-1,1693,1429,0,0
476,-405,0,0,0,0,0,0,0,0,0,-1,1700,1429,0,0
483,-405,0,0,0,0,0,0,0,0,0,-1,1707,1429,0,0
490,-405,0,0,0,0,0,0,0,0,0,-1,1714,1429,0,0
497,-405,0,0,0,0,0,0,0,0,0,-1,1721,1429,0,0
504,-405,0,0,0,0,0,0,0,0,0,-1,1728,1429,0,0
511,-405,0,0,0,0,0,0,0,0,0,-1,1735,1429,0,0
518,-405,0,0,0,0,0,0,0,0,0,-1,1742,1429,0,0
525,-405,31.1563,-1.40942,0,0,0,0,0,0,0,-1,1749,1429,31.1563,1.40937
532,-405,28.156,4.8783,0,0,0,0,0,0,0,-1,1756,1429,28.1561,-4.87833
539,-405,26.5133,3.02454,0,0,0,0,0,0,0,-1,1763,1429,26.5133,-3.0246
546,-405,29.5735,6.53052,0,0,0,0,0,0,0,-1,1770,1429,29.5735,-6.53049
553,-405,28.2911,6.70654,0,0,0,0,0,0,0,-1,1777,1429,28.2912,-6.70656
560,-405,26.9299,7.08472,0,0,0,0,0,0,0,-1,1784,1429,26.9299,-7.08469
567,-405,25.804,7.14661,0,0,0,0,0,0,0,-1,1791,1429,25.8039,-7.14665
574,-405,25.1151,8.07971,0,0,0,0,0,0,0,-1,1798,1429,25.1151,-8.07965
581,-405,23.5055,8.505,0,0,0,0,0,0,0,-1,1805,1429,23.5054,-8.50501
588,-405,21.7491,8.98254,0,0,0,0,0,0,0,-1,1812,1429,21.7491,-8.98254
595,-405,21.6327,10.7795,0,0,0,0,0,0,0,-1,1819,1429,21.6327,-10.7796
602,-405,21.6461,13.9199,0,0,0,0,0,0,0,-1,1826,1429,21.6461,-13.92
609,-405,37.801,24.062,0,0,0,0,0,0,0,-1,1833,1429,37.8011,-24.062
616,-405,118.387,84.005,0,0,0,0,0,0,0,-1,1840,1429,118.387,-84.0051
623,-405,160.999,78.5037,0,0,0,0,0,0,0,-1,1847,1429,160.999,-78.5037
630,-405,160.296,75.4598,-0.00584283,0.0103337,0.031312,0.0345852,-0.0300943,0.911791,0.0373727,0.0309944,1854,1429,160.296,-75.4598
637,-405,159.576,72.4078,-0.00348227,0.0163957,0.0313745,0.0393678,-0.0264544,0.93879,0.0382455,0.0248752,1861,1429,159.576,-72.4079
644,-405,158.829,69.2786,-0.00140939,0.0223296,0.0318119,0.0444143,-0.023494,0.963957,0.0398222,0.0469086,1868,1429,158.829,-69.2786
651,-405,157.98,66.3086,0.000474922,0.0281009,0.0324968,0.0495986,-0.0210228,0.986357,0.0418711,0.045478,1875,1429,157.98,-66.3086
658,-405,157.307,63.6527,0.00222505,0.0336663,0.0334016,0.0548619,-0.0189705,1.00535,0.0442742,0.0360177,1882,1429,157.307,-63.6528
665,-405,156.771,60.7068,0.00377118,0.0391016,0.0345439,0.0602351,-0.0173623,1.02176,0.047025,0.0266203,1889,1429,156.771,-60.7068
672,-405,156.179,57.7336,0.00499634,0.0444142,0.0360358,0.0657787,-0.0163681,1.03564,0.0502059,0.0354498,1896,1429,156.179,-57.7337
679,-405,155.632,54.7185,0,0,0,0,0,0,0,-1,1903,1429,155.632,-54.7185
686,-405,42.9835,18.502,0,0,0,0,0,0,0,-1,1910,1429,42.9835,-18.5019
693,-405,37.6653,14.9521,0,0,0,0,0,0,0,-1,1917,1429,37.6653,-14.9521
700,-405,9.1958,4.02026,0,0,0,0,0,0,0,-1,1924,1429,9.19579,-4.02025
707,-405,7.40308,3.83191,0,0,0,0,0,0,0,-1,1931,1429,7.40311,-3.83194
714,-405,7.33252,3.47388,0,0,0,0,0,0,0,-1,1938,1429,7.33255,-3.47383
721,-405,9.23523,0.993896,0,0,0,0,0,0,0,-1,1945,1429,9.23523,-0.993884
728,-405,0,0,0,0,0,0,0,0,0,-1,1952,1429,0,0
735,-405,0,0,0,0,0,0,0,0,0,-1,1959,1429,0,0
742,-405,0,0,0,0,0,0,0,0,0,-1,1966,1429,0,0
749,-405,0,0,0,0,0,0,0,0,0,-1,1973,1429,0,0
756,-405,0,0,0,0,0,0,0,0,0,-1,1980,1429,0,0
763,-405,0,0,0,0,0,0,0,0,0,-1,1987,1429,0,0
770,-405,0,0,0,0,0,0,0,0,0,-1,1994,1429,0,0
777,-405,0,0,0,0,0,0,0,0,0,-1,2001,1429,0,0
784,-405,0,0,0,0,0,0,0,0,0,-1,2008,1429,0,0
791,-405,0,0,0,0,0,0,0,0,0,-1,2015,1429,0,0
798,-405,0,0,0,0,0,0,0,0,0,-1,2022,1429,0,0
805,-405,0,0,0,0,0,0,0,0,0,-1,2029,1429,0,0
812,-405,0,0,0,0,0,0,0,0,0,-1,2036,1429,0,0
-700,-412,0,0,0,0,0,0,0,0,0,-1,524,1436,0,0
-693,-412,0,0,0,0,0,0,0,0,0,-1,531,1436,0,0
-686,-412,0,0,0,0,0,0,0,0,0,-1,538,1436,0,0
-679,-412,0,0,0,0,0,0,0,0,0,-1,545,1436,0,0
-672,-412,0,0,0,0,0,0,0,0,0,-1,552,1436,0,0
-665,-412,0,0,0,0,0,0,0,0,0,-1,559,1436,0,0
-658,-412,0,0,0,0,0,0,0,0,0,-1,566,1436,0,0
-651,-412,0,0,0,0,0,0,0,0,0,-1,573,1436,0,0
-644,-412,0,0,0,0,0,0,0,0,0,-1,580,1436,0,0
-637,-412,0,0,0,0,0,0,0,0,0,-1,587,1436,0,0
-630,-412,0,0,0,0,0,0,0,0,0,-1,594,1436,0,0
-623,-412,0,0,0,0,0,0,0,0,0,-1,601,1436,0,0
-616,-412,0,0,0,0,0,0,0,0,0,-1,608,1436,0,0
-609,-412,0,0,0,0,0,0,0,0,0,-1,615,1436,0,0
-602,-412,-3.72766,-3.50012,0,0,0,0,0,0,0,-1,622,1436,-3.72764,3.50017
-595,-412,-10.3706,0.65564,0,0,0,0,0,0,0,-1,629,1436,-10.3706,-0.655672
-588,-412,-8.17957,1.94934,0,0,0,0,0,0,0,-1,636,1436,-8.17956,-1.94939
-581,-412,-6.60065,-0.0554199,0,0,0,0,0,0,0,-1,643,1436,-6.60063,0.0554733
-574,-412,-8.34131,5.25012,0,0,0,0,0,0,0,-1,650,1436,-8.34129,-5.25012
-567,-412,-7.50354,3.65454,0,0,0,0,0,0,0,-1,657,1436,-7.50356,-3.65452
-560,-412,-8.52448,7.39014,0,0,0,0,0,0,0,-1,664,1436,-8.52447,-7.39019
-553,-412,-7.36761,6.54651,0,0,0,0,0,0,0,-1,671,1436,-7.36763,-6.54654
-546,-412,-30.9525,25.4158,0,0,0,0,0,0,0,-1,678,1436,-30.9525,-25.4157
-539,-412,-145.382,53.9033,0,0,0,0,0,0,0,-1,685,1436,-145.382,-53.9034
-532,-412,-145.541,56.996,0.0121966,0.0578392,-0.0462709,0.0866107,-0.0165748,-1.0145,0.063985,0.0314365,692,1436,-145.541,-56.996
-525,-412,-146.051,59.8204,0.0112108,0.0548177,-0.0444876,0.0825575,-0.016529,-1.01325,0.0612954,0.0271011,699,1436,-146.051,-59.8204
-518,-412,-146.503,62.8118,0.0106386,0.0524423,-0.0421301,0.0785706,-0.0154897,-1.01567,0.0582344,0.0234544,706,1436,-146.503,-62.8118
-511,-412,-147.081,66.0485,0.0104654,0.0506648,-0.039241,0.0746543,-0.0135241,-1.02208,0.0548363,0.0262675,713,1436,-147.081,-66.0485
-504,-412,-147.782,69.0702,0.0106574,0.0494081,-0.0359076,0.0708343,-0.0107687,-1.03281,0.0511914,0.027206,720,1436,-147.782,-69.0702
-497,-412,-148.355,72.3339,0.0111341,0.0486235,-0.0321809,0.0671209,-0.00736327,-1.04912,0.0473927,0.0417847,727,1436,-148.355,-72.3338
-490,-412,-148.977,75.7028,0,0,0,0,0,0,0,-1,734,1436,-148.977,-75.7028
-483,-412,-136.606,80.7655,0,0,0,0,0,0,0,-1,741,1436,-136.606,-80.7655
-476,-412,-93.595,83.6998,0,0,0,0,0,0,0,-1,748,1436,-93.5949,-83.6999
-469,-412,-12.7646,18.4785,0,0,0,0,0,0,0,-1,755,1436,-12.7647,-18.4785
-462,-412,-8.94659,13.3385,0,0,0,0,0,0,0,-1,762,1436,-8.94657,-13.3385
-455,-412,-8.25006,11.2572,0,0,0,0,0,0,0,-1,769,1436,-8.25007,-11.2572
-448,-412,-7.38086,8.78186,0,0,0,0,0,0,0,-1,776,1436,-7.38088,-8.78183
-441,-412,-8.79523,9.05286,0,0,0,0,0,0,0,-1,783,1436,-8.79521,-9.0529
-434,-412,-10.6305,8.03577,0,0,0,0,0,0,0,-1,790,1436,-10.6305,-8.0358
-427,-412,-10.0004,5.15271,0,0,0,0,0,0,0,-1,797,1436,-10.0004,-5.15266
-420,-412,-10.4468,4.9043,0,0,0,0,0,0,0,-1,804,1436,-10.4468,-4.90429
-413,-412,-11.5704,4.97766,0,0,0,0,0,0,0,-1,811,1436,-11.5704,-4.97771
-406,-412,-13.1968,5.70093,0,0,0,0,0,0,0,-1,818,1436,-13.1968,-5.70096
-399,-412,-10.5506,0.771973,0,0,0,0,0,0,0,-1,825,1436,-10.5506,-0.771954
-392,-412,0,0,0,0,0,0,0,0,0,-1,832,1436,0,0
-385,-412,0,0,0,0,0,0,0,0,0,-1,839,1436,0,0
-378,-412,0,0,0,0,0,0,0,0,0,-1,846,1436,0,0
-371,-412,0,0,0,0,0,0,0,0,0,-1,853,1436,0,0
-364,-412,0,0,0,0,0,0,0,0,0,-1,860,1436,0,0
-357,-412,0,0,0,0,0,0,0,0,0,-1,867,1436,0,0
-350,-412,0,0,0,0,0,0,0,0,0,-1,874,1436,0,0
-343,-412,0,0,0,0,0,0,0,0,0,-1,881,1436,0,0
-336,-412,0,0,0,0,0,0,0,0,0,-1,888,1436,0,0
-329,-412,0,0,0,0,0,0,0,0,0,-1,895,1436,0,0
-322,-412,0,0,0,0,0,0,0,0,0,-1,902,1436,0,0
-315,-412,0,0,0,0,0,0,0,0,0,-1,909,1436,0,0
-308,-412,0,0,0,0,0,0,0,0,0,-1,916,1436,0,0
-301,-412,0,0,0,0,0,0,0,0,0,-1,923,1436,0,0
-294,-412,0,0,0,0,0,0,0,0,0,-1,930,1436,0,0
-287,-412,0,0,0,0,0,0,0,0,0,-1,937,1436,0,0
-280,-412,0,0,0,0,0,0,0,0,0,-1,944,1436,0,0
-273,-412,0,0,0,0,0,0,0,0,0,-1,951,1436,0,0
-266,-412,0,0,0,0,0,0,0,0,0,-1,958,1436,0,0
-259,-412,0,0,0,0,0,0,0,0,0,-1,965,1436,0,0
-252,-412,0,0,0,0,0,0,0,0,0,-1,972,1436,0,0
-245,-412,0,0,0,0,0,0,0,0,0,-1,979,1436,0,0
-238,-412,0,0,0,0,0,0,0,0,0,-1,986,1436,0,0
-231,-412,0,0,0,0,0,0,0,0,0,-1,993,1436,0,0
-224,-412,0,0,0,0,0,0,0,0,0,-1,1000,1436,0,0
-217,-412,0,0,0,0,0,0,0,0,0,-1,1007,1436,0,0
-210,-412,0,0,0,0,0,0,0,0,0,-1,1014,1436,0,0
-203,-412,0,0,0,0,0,0,0,0,0,-1,1021,1436,0,0
-196,-412,0,0,0,0,0,0,0,0,0,-1,1028,1436,0,0
-189,-412,0,0,0,0,0,0,0,0,0,-1,1035,1436,0,0
-182,-412,0,0,0,0,0,0,0,0,0,-1,1042,1436,0,0
-175,-412,0,0,0,0,0,0,0,0,0,-1,1049,1436,0,0
-168,-412,0,0,0,0,0,0,0,0,0,-1,1056,1436,0,0
-161,-412,0,0,0,0,0,0,0,0,0,-1,1063,1436,0,0
-154,-412,0,0,0,0,0,0,0,0,0,-1,1070,1436,0,0
-147,-412,0,0,0,0,0,0,0,0,0,-1,1077,1436,0,0
-140,-412,0,0,0,0,0,0,0,0,0,-1,1084,1436,0,0
-133,-412,0,0,0,0,0,0,0,0,0,-1,1091,1436,0,0
-126,-412,0,0,0,0,0,0,0,0,0,-1,1098,1436,0,0
-119,-412,0,0,0,0,0,0,0,0,0,-1,1105,1436,0,0
-112,-412,0,0,0,0,0,0,0,0,0,-1,1112,1436,0,0
-105,-412,0,0,0,0,0,0,0,0,0,-1,1119,1436,0,0
-98,-412,0,0,0,0,0,0,0,0,0,-1,1126,1436,0,0
-91,-412,0,0,0,0,0,0,0,0,0,-1,1133,1436,0,0
-84,-412,0,0,0,0,0,0,0,0,0,-1,1140,1436,0,0
-77,-412,0,0,0,0,0,0,0,0,0,-1,1147,1436,0,0
-70,-412,0,0,0,0,0,0,0,0,0,-1,1154,1436,0,0
-63,-412,0,0,0,0,0,0,0,0,0,-1,1161,1436,0,0
-56,-412,0,0,0,0,0,0,0,0,0,-1,1168,1436,0,0
-49,-412,0,0,0,0,0,0,0,0,0,-1,1175,1436,0,0
-42,-412,0,0,0,0,0,0,0,0,0,-1,1182,1436,0,0
-35,-412,0,0,0,0,0,0,0,0,0,-1,1189,1436,0,0
-28,-412,0,0,0,0,0,0,0,0,0,-1,1196,1436,0,0
-21,-412,0,0,0,0,0,0,0,0,0,-1,1203,1436,0,0
-14,-412,0,0,0,0,0,0,0,0,0,-1,1210,1436,0,0
-7,-412,0,0,0,0,0,0,0,0,0,-1,1217,1436,0,0
0,-412,0,0,0,0,0,0,0,0,0,-1,1224,1436,0,0
7,-412,0,0,0,0,0,0,0,0,0,-1,1231,1436,0,0
14,-412,0,0,0,0,0,0,0,0,0,-1,1238,1436,0,0
21,-412,0,0,0,0,0,0,0,0,0,-1,1245,1436,0,0
28,-412,0,0,0,0,0,0,0,0,0,-1,1252,1436,0,0
35,-412,0,0,0,0,0,0,0,0,0,-1,1259,1436,0,0
42,-412,0,0,0,0,0,0,0,0,0,-1,1266,1436,0,0
49,-412,0,0,0,0,0,0,0,0,0,-1,1273,1436,0,0
56,-412,0,0,0,0,0,0,0,0,0,-1,1280,1436,0,0
63,-412,0,0,0,0,0,0,0,0,0,-1,1287,1436,0,0
70,-412,0,0,0,0,0,0,0,0,0,-1,1294,1436,0,0
77,-412,0,0,0,0,0,0,0,0,0,-1,1301,1436,0,0
84,-412,0,0,0,0,0,0,0,0,0,-1,1308,1436,0,0
91,-412,0,0,0,0,0,0,0,0,0,-1,1315,1436,0,0
98,-412,0,0,0,0,0,0,0,0,0,-1,1322,1436,0,0
105,-412,0,0,0,0,0,0,0,0,0,-1,1329,1436,0,0
112,-412,0,0,0,0,0,0,0,0,0,-1,1336,1436,0,0
119,-412,0,0,0,0,0,0,0,0,0,-1,1343,1436,0,0
126,-412,0,0,0,0,0,0,0,0,0,-1,1350,1436,0,0
133,-412,0,0,0,0,0,0,0,0,0,-1,1357,1436,0,0
140,-412,0,0,0,0,0,0,0,0,0,-1,1364,1436,0,0
147,-412,0,0,0,0,0,0,0,0,0,-1,1371,1436,0,0
154,-412,0,0,0,0,0,0,0,0,0,-1,1378,1436,0,0
161,-412,0,0,0,0,0,0,0,0,0,-1,1385,1436,0,0
168,-412,0,0,0,0,0,0,0,0,0,-1,1392,1436,0,0
175,-412,0,0,0,0,0,0,0,0,0,-1,1399,1436,0,0
182,-412,0,0,0,0,0,0,0,0,0,-1,1406,1436,0,0
189,-412,0,0,0,0,0,0,0,0,0,-1,1413,1436,0,0
196,-412,0,0,0,0,0,0,0,0,0,-1,1420,1436,0,0
203,-412,0,0,0,0,0,0,0,0,0,-1,1427,1436,0,0
210,-412,0,0,0,0,0,0,0,0,0,-1,1434,1436,0,0
217,-412,0,0,0,0,0,0,0,0,0,-1,1441,1436,0,0
224,-412,0,0,0,0,0,0,0,0,0,-1,1448,1436,0,0
231,-412,0,0,0,0,0,0,0,0,0,-1,1455,1436,0,0
238,-412,0,0,0,0,0,0,0,0,0,-1,1462,1436,0,0
245,-412,0,0,0,0,0,0,0,0,0,-1,1469,1436,0,0
252,-412,0,0,0,0,0,0,0,0,0,-1,1476,1436,0,0
259,-412,0,0,0,0,0,0,0,0,0,-1,1483,1436,0,0
266,-412,0,0,0,0,0,0,0,0,0,-1,1490,1436,0,0
273,-412,0,0,0,0,0,0,0,0,0,-1,1497,1436,0,0
280,-412,0,0,0,0,0,0,0,0,0,-1,1504,1436,0,0
287,-412,0,0,0,0,0,0,0,0,0,-1,1511,1436,0,0
294,-412,0,0,0,0,0,0,0,0,0,-1,1518,1436,0,0
301,-412,0,0,0,0,0,0,0,0,0,-1,1525,1436,0,0
308,-412,0,0,0,0,0,0,0,0,0,-1,1532,1436,0,0
315,-412,0,0,0,0,0,0,0,0,0,-1,1539,1436,0,0
322,-412,0,0,0,0,0,0,0,0,0,-1,1546,1436,0,0
329,-412,0,0,0,0,0,0,0,0,0,-1,1553,1436,0,0
336,-412,0,0,0,0,0,0,0,0,0,-1,1560,1436,0,0
343,-412,0,0,0,0,0,0,0,0,0,-1,1567,1436,0,0
350,-412,0,0,0,0,0,0,0,0,0,-1,1574,1436,0,0
357,-412,0,0,0,0,0,0,0,0,0,-1,1581,1436,0,0
364,-412,0,0,0,0,0,0,0,0,0,-1,1588,1436,0,0
371,-412,0,0,0,0,0,0,0,0,0,-1,1595,1436,0,0
378,-412,0,0,0,0,0,0,0,0,0,-1,1602,1436,0,0
385,-412,0,0,0,0,0,0,0,0,0,-1,1609,1436,0,0
392,-412,0,0,0,0,0,0,0,0,0,-1,1616,1436,0,0
399,-412,0,0,0,0,0,0,0,0,0,-1,1623,1436,0,0
406,-412,0,0,0,0,0,0,0,0,0,-1,1630,1436,0,0
413,-412,0,0,0,0,0,0,0,0,0,-1,1637,1436,0,0
420,-412,0,0,0,0,0,0,0,0,0,-1,1644,1436,0,0
427,-412,0,0,0,0,0,0,0,0,0,-1,1651,1436,0,0
434,-412,0,0,0,0,0,0,0,0,0,-1,1658,1436,0,0
441,-412,0,0,0,0,0,0,0,0,0,-1,1665,1436,0,0
448,-412,0,0,0,0,0,0,0,0,0,-1,1672,1436,0,0
455,-412,0,0,0,0,0,0,0,0,0,-1,1679,1436,0,0
462,-412,0,0,0,0,0,0,0,0,0,-1,1686,1436,0,0
469,-412,0,0,0,0,0,0,0,0,0,-1,1693,1436,0,0
476,-412,0,0,0,0,0,0,0,0,0,-1,1700,1436,0,0
483,-412,0,0,0,0,0,0,0,0,0,-1,1707,1436,0,0
490,-412,0,0,0,0,0,0,0,0,0,-1,1714,1436,0,0
497,-412,0,0,0,0,0,0,0,0,0,-1,1721,1436,0,0
504,-412,0,0,0,0,0,0,0,0,0,-1,1728,1436,0,0
511,-412,0,0,0,0,0,0,0,0,0,-1,1735,1436,0,0
518,-412,30.1038,-2.43384,0,0,0,0,0,0,0,-1,1742,1436,30.1038,2.43383
525,-412,29.5283,-1.42493,0,0,0,0,0,0,0,-1,1749,1436,29.5283,1.42495
532,-412,28.8533,-0.386597,0,0,0,0,0,0,0,-1,1756,1436,28.8533,0.386632
539,-412,25.8654,2.74683,0,0,0,0,0,0,0,-1,1763,1436,25.8654,-2.74685
546,-412,25.4265,2.4342,0,0,0,0,0,0,0,-1,1770,1436,25.4265,-2.4342
553,-412,26.3595,7.49255,0,0,0,0,0,0,0,-1,1777,1436,26.3595,-7.4925
560,-412,24.9116,7.94324,0,0,0,0,0,0,0,-1,1784,1436,24.9116,-7.94327
567,-412,23.668,7.94531,0,0,0,0,0,0,0,-1,1791,1436,23.6679,-7.94534
574,-412,23.0142,9.17236,0,0,0,0,0,0,0,-1,1798,1436,23.0141,-9.17235
581,-412,22.2615,10.0349,0,0,0,0,0,0,0,-1,1805,1436,22.2615,-10.0349
588,-412,21.6893,10.8069,0,0,0,0,0,0,0,-1,1812,1436,21.6893,-10.8069
595,-412,21.5137,14.3157,0,0,0,0,0,0,0,-1,1819,1436,21.5137,-14.3157
602,-412,37.0725,24.8387,0,0,0,0,0,0,0,-1,1826,1436,37.0725,-24.8388
609,-412,80.7455,73.8978,0,0,0,0,0,0,0,-1,1833,1436,80.7455,-73.8979
616,-412,115.253,85.759,0,0,0,0,0,0,0,-1,1840,1436,115.253,-85.759
623,-412,157.362,79.759,0,0,0,0,0,0,0,-1,1847,1436,157.362,-79.7591
630,-412,156.702,76.5643,-0.00400169,0.0145848,0.0332561,0.0398218,-0.0292386,0.921645,0.0400278,0.0264617,1854,1436,156.702,-76.5643
637,-412,156.034,73.2877,-0.00170536,0.020421,0.0333946,0.0445373,-0.0258217,0.945352,0.041098,0.0219516,1861,1436,156.034,-73.2878
644,-412,155.339,70.0532,0.000362016,0.0262998,0.0337725,0.0495079,-0.0228461,0.96872,0.0427085,0.0260773,1868,1436,155.339,-70.0533
651,-412,154.344,67.0808,0.00227981,0.0321326,0.0343205,0.054632,-0.0202196,0.990516,0.0447121,0.0474778,1875,1436,154.344,-67.0808
658,-412,153.802,64.2032,0.00408058,0.0378839,0.035024,0.0598712,-0.0179066,1.0102,0.0470333,0.0308801,1882,1436,153.802,-64.2032
665,-412,153.371,61.2731,0.00571756,0.0435374,0.0358709,0.0651776,-0.0159226,1.02797,0.0496183,0.0342797,1889,1436,153.371,-61.2731
672,-412,152.961,58.3685,0,0,0,0,0,0,0,-1,1896,1436,152.962,-58.3686
679,-412,40.6736,18.6143,0,0,0,0,0,0,0,-1,1903,1436,40.6736,-18.6142
686,-412,35.3159,15.2073,0,0,0,0,0,0,0,-1,1910,1436,35.3159,-15.2072
693,-412,11.9346,6.02344,0,0,0,0,0,0,0,-1,1917,1436,11.9346,-6.02343
700,-412,8.82764,5.8844,0,0,0,0,0,0,0,-1,1924,1436,8.82761,-5.88444
707,-412,6.59998,1.68994,0,0,0,0,0,0,0,-1,1931,1436,6.60002,-1.68995
714,-412,4.77283,-2.39832,0,0,0,0,0,0,0,-1,1938,1436,4.77288,2.39835
721,-412,0,0,0,0,0,0,0,0,0,-1,1945,1436,0,0
728,-412,0,0,0,0,0,0,0,0,0,-1,1952,1436,0,0
735,-412,0,0,0,0,0,0,0,0,0,-1,1959,1436,0,0
742,-412,0,0,0,0,0,0,0,0,0,-1,1966,1436,0,0
749,-412,0,0,0,0,0,0,0,0,0,-1,1973,1436,0,0
756,-412,0,0,0,0,0,0,0,0,0,-1,1980,1436,0,0
763,-412,0,0,0,0,0,0,0,0,0,-1,1987,1436,0,0
770,-412,0,0,0,0,0,0,0,0,0,-1,1994,1436,0,0
777,-412,0,0,0,0,0,0,0,0,0,-1,2001,1436,0,0
784,-412,0,0,0,0,0,0,0,0,0,-1,2008,1436,0,0
791,-412,0,0,0,0,0,0,0,0,0,-1,2015,1436,0,0
798,-412,0,0,0,0,0,0,0,0,0,-1,2022,1436,0,0
805,-412,0,0,0,0,0,0,0,0,0,-1,2029,1436,0,0
812,-412,0,0,0,0,0,0,0,0,0,-1,2036,1436,0,0
-700,-419,0,0,0,0,0,0,0,0,0,-1,524,1443,0,0
-693,-419,0,0,0,0,0,0,0,0,0,-1,531,1443,0,0
-686,-419,0,0,0,0,0,0,0,0,0,-1,538,1443,0,0
-679,-419,0,0,0,0,0,0,0,0,0,-1,545,1443,0,0
-672,-419,0,0,0,0,0,0,0,0,0,-1,552,1443,0,0
-665,-419,0,0,0,0,0,0,0,0,0,-1,559,1443,0,0
-658,-419,0,0,0,0,0,0,0,0,0,-1,566,1443,0,0
-651,-419,0,0,0,0,0,0,0,0,0,-1,573,1443,0,0
-644,-419,0,0,0,0,0,0,0,0,0,-1,580,1443,0,0
-637,-419,0,0,0,0,0,0,0,0,0,-1,587,1443,0,0
-630,-419,0,0,0,0,0,0,0,0,0,-1,594,1443,0,0
-623,-419,0,0,0,0,0,0,0,0,0,-1,601,1443,0,0
-616,-419,0,0,0,0,0,0,0,0,0,-1,608,1443,0,0
-609,-419,0,0,0,0,0,0,0,0,0,-1,615,1443,0,0
-602,-419,0,0,0,0,0,0,0,0,0,-1,622,1443,0,0
-595,-419,-11.4904,-0.622681,0,0,0,0,0,0,0,-1,629,1443,-11.4903,0.622714
-588,-419,-9.09369,0.742432,0,0,0,0,0,0,0,-1,636,1443,-9.09366,-0.742482
-581,-419,-6.39172,2.14673,0,0,0,0,0,0,0,-1,643,1443,-6.39175,-2.14668
-574,-419,-4.09772,3.54773,0,0,0,0,0,0,0,-1,650,1443,-4.09772,-3.54767
-567,-419,-6.14038,3.22498,0,0,0,0,0,0,0,-1,657,1443,-6.14037,-3.22497
-560,-419,-4.52814,5.22253,0,0,0,0,0,0,0,-1,664,1443,-4.52816,-5.22251
-553,-419,-5.08331,6.11829,0,0,0,0,0,0,0,-1,671,1443,-5.08331,-6.1183
-546,-419,-10.3732,9.23279,0,0,0,0,0,0,0,-1,678,1443,-10.3732,-9.23275
-539,-419,-30.3044,27.1487,0,0,0,0,0,0,0,-1,685,1443,-30.3044,-27.1487
-532,-419,-141.727,57.337,0,0,0,0,0,0,0,-1,692,1443,-141.727,-57.3371
-525,-419,-142.155,60.4625,0.0114874,0.0560487,-0.0479767,0.086666,-0.01913,-1.00278,0.0650977,0.0197567,699,1443,-142.155,-60.4625
-518,-419,-142.777,63.6086,0.0107786,0.0535606,-0.0457093,0.0826366,-0.0182974,-1.00425,0.0620954,0.0232998,706,1443,-142.777,-63.6087
-511,-419,-143.427,66.8073,0.010308,0.0515041,-0.0430095,0.0785936,-0.0167815,-1.00872,0.0587934,0.0278479,713,1443,-143.427,-66.8073
-504,-419,-144.16,69.8325,0.0100734,0.0498044,-0.039975,0.0745779,-0.0147001,-1.016,0.0552741,0.0290278,720,1443,-144.16,-69.8325
-497,-419,-144.852,72.9028,0.00998776,0.0483611,-0.036687,0.0705757,-0.0122268,-1.02633,0.0516111,0.0272361,727,1443,-144.852,-72.9029
-490,-419,-145.584,76.2823,0.0101023,0.0472009,-0.0332038,0.0666853,-0.00938218,-1.04013,0.0478916,0.0494886,734,1443,-145.584,-76.2823
-483,-419,-146.471,79.5122,0,0,0,0,0,0,0,-1,741,1443,-146.471,-79.5122
-476,-419,-134.165,84.8441,0,0,0,0,0,0,0,-1,748,1443,-134.165,-84.8441
-469,-419,-85.6953,85.1677,0,0,0,0,0,0,0,-1,755,1443,-85.6953,-85.1677
-462,-419,-11.5347,18.1563,0,0,0,0,0,0,0,-1,762,1443,-11.5347,-18.1562
-455,-419,-7.35645,11.9451,0,0,0,0,0,0,0,-1,769,1443,-7.35646,-11.9451
-448,-419,-7.49109,9.92444,0,0,0,0,0,0,0,-1,776,1443,-7.49109,-9.92442
-441,-419,-7.65527,8.75574,0,0,0,0,0,0,0,-1,783,1443,-7.65525,-8.75568
-434,-419,-11.3724,12.3643,0,0,0,0,0,0,0,-1,790,1443,-11.3724,-12.3643
-427,-419,-8.23193,7.89404,0,0,0,0,0,0,0,-1,797,1443,-8.23193,-7.89404
-420,-419,-8.74091,6.36597,0,0,0,0,0,0,0,-1,804,1443,-8.74089,-6.366
-413,-419,-9.88391,6.53955,0,0,0,0,0,0,0,-1,811,1443,-9.8839,-6.53955
-406,-419,-10.3372,2.75195,0,0,0,0,0,0,0,-1,818,1443,-10.3372,-2.75201
-399,-419,-11.5999,1.40002,0,0,0,0,0,0,0,-1,825,1443,-11.5999,-1.39998
-392,-419,0,0,0,0,0,0,0,0,0,-1,832,1443,0,0
-385,-419,0,0,0,0,0,0,0,0,0,-1,839,1443,0,0
-378,-419,0,0,0,0,0,0,0,0,0,-1,846,1443,0,0
-371,-419,0,0,0,0,0,0,0,0,0,-1,853,1443,0,0
-364,-419,0,0,0,0,0,0,0,0,0,-1,860,1443,0,0
-357,-419,0,0,0,0,0,0,0,0,0,-1,867,1443,0,0
-350,-419,0,0,0,0,0,0,0,0,0,-1,874,1443,0,0
-343,-419,0,0,0,0,0,0,0,0,0,-1,881,1443,0,0
-336,-419,0,0,0,0,0,0,0,0,0,-1,888,1443,0,0
-329,-419,0,0,0,0,0,0,0,0,0,-1,895,1443,0,0
-322,-419,0,0,0,0,0,0,0,0,0,-1,902,1443,0,0
-315,-419,0,0,0,0,0,0,0,0,0,-1,909,1443,0,0
-308,-419,0,0,0,0,0,0,0,0,0,-1,916,1443,0,0
-301,-419,0,0,0,0,0,0,0,0,0,-1,923,1443,0,0
-294,-419,0,0,0,0,0,0,0,0,0,-1,930,1443,0,0
-287,-419,0,0,0,0,0,0,0,0,0,-1,937,1443,0,0
-280,-419,0,0,0,0,0,0,0,0,0,-1,944,1443,0,0
-273,-419,0,0,0,0,0,0,0,0,0,-1,951,1443,0,0
-266,-419,0,0,0,0,0,0,0,0,0,-1,958,1443,0,0
-259,-419,0,0,0,0,0,0,0,0,0,-1,965,1443,0,0
-252,-419,0,0,0,0,0,0,0,0,0,-1,972,1443,0,0
-245,-419,0,0,0,0,0,0,0,0,0,-1,979,1443,0,0
-238,-419,0,0,0,0,0,0,0,0,0,-1,986,1443,0,0
-231,-419,0,0,0,0,0,0,0,0,0,-1,993,1443,0,0
-224,-419,0,0,0,0,0,0,0,0,0,-1,1000,1443,0,0
-217,-419,0,0,0,0,0,0,0,0,0,-1,1007,1443,0,0
-210,-419,0,0,0,0,0,0,0,0,0,-1,1014,1443,0,0
-203,-419,0,0,0,0,0,0,0,0,0,-1,1021,1443,0,0
-196,-419,0,0,0,0,0,0,0,0,0,-1,1028,1443,0,0
-189,-419,0,0,0,0,0,0,0,0,0,-1,1035,1443,0,0
-182,-419,0,0,0,0,0,0,0,0,0,-1,1042,1443,0,0
-175,-419,0,0,0,0,0,0,0,0,0,-1,1049,1443,0,0
-168,-419,0,0,0,0,0,0,0,0,0,-1,1056,1443,0,0
-161,-419,0,0,0,0,0,0,0,0,0,-1,1063,1443,0,0
-154,-419,0,0,0,0,0,0,0,0,0,-1,1070,1443,0,0
-147,-419,0,0,0,0,0,0,0,0,0,-1,1077,1443,0,0
-140,-419,0,0,0,0,0,0,0,0,0,-1,1084,1443,0,0
-133,-419,0,0,0,0,0,0,0,0,0,-1,1091,1443,0,0
-126,-419,0,0,0,0,0,0,0,0,0,-1,1098,1443,0,0
-119,-419,0,0,0,0,0,0,0,0,0,-1,1105,1443,0,0
-112,-419,0,0,0,0,0,0,0,0,0,-1,1112,1443,0,0
-105,-419,0,0,0,0,0,0,0,0,0,-1,1119,1443,0,0
-98,-419,0,0,0,0,0,0,0,0,0,-1,1126,1443,0,0
-91,-419,0,0,0,0,0,0,0,0,0,-1,1133,1443,0,0
-84,-419,0,0,0,0,0,0,0,0,0,-1,1140,1443,0,0
-77,-419,0,0,0,0,0,0,0,0,0,-1,1147,1443,0,0
-70,-419,0,0,0,0,0,0,0,0,0,-1,1154,1443,0,0
-63,-419,0,0,0,0,0,0,0,0,0,-1,1161,1443,0,0
-56,-419,0,0,0,0,0,0,0,0,0,-1,1168,1443,0,0
-49,-419,0,0,0,0,0,0,0,0,0,-1,1175,1443,0,0
-42,-419,0,0,0,0,0,0,0,0,0,-1,1182,1443,0,0
-35,-419,0,0,0,0,0,0,0,0,0,-1,1189,1443,0,0
-28,-419,0,0,0,0,0,0,0,0,0,-1,1196,1443,0,0
-21,-419,0,0,0,0,0,0,0,0,0,-1,1203,1443,0,0
-14,-419,0,0,0,0,0,0,0,0,0,-1,1210,1443,0,0
-7,-419,0,0,0,0,0,0,0,0,0,-1,1217,1443,0,0
0,-419,0,0,0,0,0,0,0,0,0,-1,1224,1443,0,0
7,-419,0,0,0,0,0,0,0,0,0,-1,1231,1443,0,0
14,-419,0,0,0,0,0,0,0,0,0,-1,1238,1443,0,0
21,-419,0,0,0,0,0,0,0,0,0,-1,1245,1443,0,0
28,-419,0,0,0,0,0,0,0,0,0,-1,1252,1443,0,0
35,-419,0,0,0,0,0,0,0,0,0,-1,1259,1443,0,0
42,-419,0,0,0,0,0,0,0,0,0,-1,1266,1443,0,0
49,-419,0,0,0,0,0,0,0,0,0,-1,1273,1443,0,0
56,-419,0,0,0,0,0,0,0,0,0,-1,1280,1443,0,0
63,-419,0,0,0,0,0,0,0,0,0,-1,1287,1443,0,0
70,-419,0,0,0,0,0,0,0,0,0,-1,1294,1443,0,0
77,-419,0,0,0,0,0,0,0,0,0,-1,1301,1443,0,0
84,-419,0,0,0,0,0,0,0,0,0,-1,1308,1443,0,0
91,-419,0,0,0,0,0,0,0,0,0,-1,1315,1443,0,0
98,-419,0,0,0,0,0,0,0,0,0,-1,1322,1443,0,0
105,-419,0,0,0,0,0,0,0,0,0,-1,1329,1443,0,0
112,-419,0,0,0,0,0,0,0,0,0,-1,1336,1443,0,0
119,-419,0,0,0,0,0,0,0,0,0,-1,1343,1443,0,0
126,-419,0,0,0,0,0,0,0,0,0,-1,1350,1443,0,0
133,-419,0,0,0,0,0,0,0,0,0,-1,1357,1443,0,0
140,-419,0,0,0,0,0,0,0,0,0,-1,1364,1443,0,0
147,-419,0,0,0,0,0,0,0,0,0,-1,1371,1443,0,0
154,-419,0,0,0,0,0,0,0,0,0,-1,1378,1443,0,0
161,-419,0,0,0,0,0,0,0,0,0,-1,1385,1443,0,0
168,-419,0,0,0,0,0,0,0,0,0,-1,1392,1443,0,0
175,-419,0,0,0,0,0,0,0,0,0,-1,1399,1443,0,0
182,-419,0,0,0,0,0,0,0,0,0,-1,1406,1443,0,0
189,-419,0,0,0,0,0,0,0,0,0,-1,1413,1443,0,0
196,-419,0,0,0,0,0,0,0,0,0,-1,1420,1443,0,0
203,-419,0,0,0,0,0,0,0,0,0,-1,1427,1443,0,0
210,-419,0,0,0,0,0,0,0,0,0,-1,1434,1443,0,0
217,-419,0,0,0,0,0,0,0,0,0,-1,1441,1443,0,0
224,-419,0,0,0,0,0,0,0,0,0,-1,1448,1443,0,0
231,-419,0,0,0,0,0,0,0,0,0,-1,1455,1443,0,0
238,-419,0,0,0,0,0,0,0,0,0,-1,1462,1443,0,0
245,-419,0,0,0,0,0,0,0,0,0,-1,1469,1443,0,0
252,-419,0,0,0,0,0,0,0,0,0,-1,1476,1443,0,0
259,-419,0,0,0,0,0,0,0,0,0,-1,1483,1443,0,0
266,-419,0,0,0,0,0,0,0,0,0,-1,1490,1443,0,0
273,-419,0,0,0,0,0,0,0,0,0,-1,1497,1443,0,0
280,-419,0,0,0,0,0,0,0,0,0,-1,1504,1443,0,0
287,-419,0,0,0,0,0,0,0,0,0,-1,1511,1443,0,0
294,-419,0,0,0,0,0,0,0,0,0,-1,1518,1443,0,0
301,-419,0,0,0,0,0,0,0,0,0,-1,1525,1443,0,0
308,-419,0,0,0,0,0,0,0,0,0,-1,1532,1443,0,0
315,-419,0,0,0,0,0,0,0,0,0,-1,1539,1443,0,0
322,-419,0,0,0,0,0,0,0,0,0,-1,1546,1443,0,0
329,-419,0,0,0,0,0,0,0,0,0,-1,1553,1443,0,0
336,-419,0,0,0,0,0,0,0,0,0,-1,1560,1443,0,0
343,-419,0,0,0,0,0,0,0,0,0,-1,1567,1443,0,0
350,-419,0,0,0,0,0,0,0,0,0,-1,1574,1443,0,0
357,-419,0,0,0,0,0,0,0,0,0,-1,1581,1443,0,0
364,-419,0,0,0,0,0,0,0,0,0,-1,1588,1443,0,0
371,-419,0,0,0,0,0,0,0,0,0,-1,1595,1443,0,0
378,-419,0,0,0,0,0,0,0,0,0,-1,1602,1443,0,0
385,-419,0,0,0,0,0,0,0,0,0,-1,1609,1443,0,0
392,-419,0,0,0,0,0,0,0,0,0,-1,1616,1443,0,0
399,-419,0,0,0,0,0,0,0,0,0,-1,1623,1443,0,0
406,-419,0,0,0,0,0,0,0,0,0,-1,1630,1443,0,0
413,-419,0,0,0,0,0,0,0,0,0,-1,1637,1443,0,0
420,-419,0,0,0,0,0,0,0,0,0,-1,1644,1443,0,0
427,-419,0,0,0,0,0,0,0,0,0,-1,1651,1443,0,0
434,-419,0,0,0,0,0,0,0,0,0,-1,1658,1443,0,0
441,-419,0,0,0,0,0,0,0,0,0,-1,1665,1443,0,0
448,-419,0,0,0,0,0,0,0,0,0,-1,1672,1443,0,0
455,-419,0,0,0,0,0,0,0,0,0,-1,1679,1443,0,0
462,-419,0,0,0,0,0,0,0,0,0,-1,1686,1443,0,0
469,-419,0,0,0,0,0,0,0,0,0,-1,1693,1443,0,0
476,-419,0,0,0,0,0,0,0,0,0,-1,1700,1443,0,0
483,-419,0,0,0,0,0,0,0,0,0,-1,1707,1443,0,0
490,-419,0,0,0,0,0,0,0,0,0,-1,1714,1443,0,0
497,-419,0,0,0,0,0,0,0,0,0,-1,1721,1443,0,0
504,-419,0,0,0,0,0,0,0,0,0,-1,1728,1443,0,0
511,-419,20.3005,3.7959,0,0,0,0,0,0,0,-1,1735,1443,20.3005,-3.79584
518,-419,21.3154,2.03027,0,0,0,0,0,0,0,-1,1742,1443,21.3155,-2.03029
525,-419,28.3439,-1.24475,0,0,0,0,0,0,0,-1,1749,1443,28.3438,1.24471
532,-419,27.5902,-0.272583,0,0,0,0,0,0,0,-1,1756,1443,27.5902,0.272526
539,-419,26.5278,1.60583,0,0,0,0,0,0,0,-1,1763,1443,26.5279,-1.60579
546,-419,24.9509,2.77539,0,0,0,0,0,0,0,-1,1770,1443,24.9509,-2.77537
553,-419,24.118,3.75525,0,0,0,0,0,0,0,-1,1777,1443,24.1181,-3.75526
560,-419,11.8199,8.26343,0,0,0,0,0,0,0,-1,1784,1443,11.82,-8.26341
567,-419,21.5143,8.74719,0,0,0,0,0,0,0,-1,1791,1443,21.5143,-8.74722
574,-419,19.5886,6.46155,0,0,0,0,0,0,0,-1,1798,1443,19.5886,-6.46157
581,-419,20.7926,11.4265,0,0,0,0,0,0,0,-1,1805,1443,20.7926,-11.4265
588,-419,19.4242,12.5363,0,0,0,0,0,0,0,-1,1812,1443,19.4242,-12.5362
595,-419,22.9375,16.0151,0,0,0,0,0,0,0,-1,1819,1443,22.9375,-16.0152
602,-419,69.4452,65.303,0,0,0,0,0,0,0,-1,1826,1443,69.4452,-65.3029
609,-419,142.998,85.5997,0,0,0,0,0,0,0,-1,1833,1443,142.998,-85.5997
616,-419,143.451,82.5579,0,0,0,0,0,0,0,-1,1840,1443,143.451,-82.5578
623,-419,153.797,80.5231,0,0,0,0,0,0,0,-1,1847,1443,153.797,-80.5231
630,-419,153.158,77.3583,-0.00215724,0.0192098,0.0347662,0.044897,-0.0278444,0.934467,0.0423802,0.0210073,1854,1443,153.158,-77.3583
637,-419,152.491,74.226,0.000240299,0.0248183,0.0350911,0.04971,-0.0246514,0.953826,0.0437376,0.0216174,1861,1443,152.491,-74.226
644,-419,151.776,71.0537,0.00241569,0.0305795,0.035522,0.054709,-0.0217138,0.97411,0.0454728,0.0244431,1868,1443,151.776,-71.0537
651,-419,151.024,67.9662,0.00446876,0.0364332,0.0360147,0.0598526,-0.0189506,0.994228,0.047496,0.0249119,1875,1443,151.024,-67.9662
658,-419,150.364,64.8629,0.00635607,0.0423678,0.0365932,0.0651452,-0.0164213,1.01403,0.0498144,0.0242363,1882,1443,150.364,-64.863
665,-419,149.843,61.8218,0.00809699,0.048197,0.0372028,0.0704087,-0.0141147,1.03255,0.052283,0.0492576,1889,1443,149.843,-61.8217
672,-419,149.444,58.7368,0,0,0,0,0,0,0,-1,1896,1443,149.444,-58.7368
679,-419,35.5436,15.4066,0,0,0,0,0,0,0,-1,1903,1443,35.5436,-15.4067
686,-419,17.4127,8.03076,0,0,0,0,0,0,0,-1,1910,1443,17.4127,-8.03071
693,-419,8.76086,5.60535,0,0,0,0,0,0,0,-1,1917,1443,8.76091,-5.6054
700,-419,11.0498,4.85156,0,0,0,0,0,0,0,-1,1924,1443,11.0498,-4.85153
707,-419,9.5752,1.80042,0,0,0,0,0,0,0,-1,1931,1443,9.57523,-1.80037
714,-419,5.77576,-1.25061,0,0,0,0,0,0,0,-1,1938,1443,5.7757,1.25056
721,-419,0,0,0,0,0,0,0,0,0,-1,1945,1443,0,0
728,-419,0,0,0,0,0,0,0,0,0,-1,1952,1443,0,0
735,-419,0,0,0,0,0,0,0,0,0,-1,1959,1443,0,0
742,-419,0,0,0,0,0,0,0,0,0,-1,1966,1443,0,0
749,-419,0,0,0,0,0,0,0,0,0,-1,1973,1443,0,0
756,-419,0,0,0,0,0,0,0,0,0,-1,1980,1443,0,0
763,-419,0,0,0,0,0,0,0,0,0,-1,1987,1443,0,0
770,-419,0,0,0,0,0,0,0,0,0,-1,1994,1443,0,0
777,-419,0,0,0,0,0,0,0,0,0,-1,2001,1443,0,0
784,-419,0,0,0,0,0,0,0,0,0,-1,2008,1443,0,0
791,-419,0,0,0,0,0,0,0,0,0,-1,2015,1443,0,0
798,-419,0,0,0,0,0,0,0,0,0,-1,2022,1443,0,0
805,-419,0,0,0,0,0,0,0,0,0,-1,2029,1443,0,0
812,-419,0,0,0,0,0,0,0,0,0,-1,2036,1443,0,0
-700,-426,0,0,0,0,0,0,0,0,0,-1,524,1450,0,0
-693,-426,0,0,0,0,0,0,0,0,0,-1,531,1450,0,0
-686,-426,0,0,0,0,0,0,0,0,0,-1,538,1450,0,0
-679,-426,0,0,0,0,0,0,0,0,0,-1,545,1450,0,0
-672,-426,0,0,0,0,0,0,0,0,0,-1,552,1450,0,0
-665,-426,0,0,0,0,0,0,0,0,0,-1,559,1450,0,0
-658,-426,0,0,0,0,0,0,0,0,0,-1,566,1450,0,0
-651,-426,0,0,0,0,0,0,0,0,0,-1,573,1450,0,0
-644,-426,0,0,0,0,0,0,0,0,0,-1,580,1450,0,0
-637,-426,0,0,0,0,0,0,0,0,0,-1,587,1450,0,0
-630,-426,0,0,0,0,0,0,0,0,0,-1,594,1450,0,0
-623,-426,0,0,0,0,0,0,0,0,0,-1,601,1450,0,0
-616,-426,0,0,0,0,0,0,0,0,0,-1,608,1450,0,0
-609,-426,0,0,0,0,0,0,0,0,0,-1,615,1450,0,0
-602,-426,0,0,0,0,0,0,0,0,0,-1,622,1450,0,0
-595,-426,0,0,0,0,0,0,0,0,0,-1,629,1450,0,0
-588,-426,-10.184,-0.554321,0,0,0,0,0,0,0,-1,636,1450,-10.184,0.554321
-581,-426,-7.3349,1.48157,0,0,0,0,0,0,0,-1,643,1450,-7.33491,-1.48152
-574,-426,-5.02856,2.89319,0,0,0,0,0,0,0,-1,650,1450,-5.02858,-2.89319
-567,-426,-3.04797,1.72644,0,0,0,0,0,0,0,-1,657,1450,-3.04797,-1.72639
-560,-426,-5.55682,3.44397,0,0,0,0,0,0,0,-1,664,1450,-5.55684,-3.44399
-553,-426,-4.67017,6.66614,0,0,0,0,0,0,0,-1,671,1450,-4.67015,-6.66619
-546,-426,-7.58752,8.28882,0,0,0,0,0,0,0,-1,678,1450,-7.58752,-8.28878
-539,-426,-10.436,10.7441,0,0,0,0,0,0,0,-1,685,1450,-10.436,-10.7441
-532,-426,-56.7146,50.4419,0,0,0,0,0,0,0,-1,692,1450,-56.7146,-50.4419
-525,-426,-138.359,61.2687,0,0,0,0,0,0,0,-1,699,1450,-138.359,-61.2686
-518,-426,-138.857,64.3927,0.0116323,0.0551147,-0.0489116,0.0868995,-0.0201524,-0.994534,0.065689,0.0341251,706,1450,-138.857,-64.3927
-511,-426,-139.478,67.5361,0.0109352,0.0527533,-0.046465,0.082797,-0.0191085,-0.996823,0.0625482,0.0277165,713,1450,-139.478,-67.5361
-504,-426,-140.128,70.5959,0.0103237,0.0506078,-0.0438392,0.0787107,-0.0177793,-1.00074,0.0592955,0.0250364,720,1450,-140.128,-70.596
-497,-426,-140.926,73.6724,0.00979567,0.0484977,-0.0411415,0.0746119,-0.0163186,-1.00522,0.0559793,0.0217729,727,1450,-140.926,-73.6723
-490,-426,-141.719,76.9149,0.0093316,0.0464398,-0.0384374,0.070567,-0.0147955,-1.01026,0.0526737,0.029735,734,1450,-141.719,-76.9149
-483,-426,-142.401,80.0454,0,0,0,0,0,0,0,-1,741,1450,-142.401,-80.0454
-476,-426,-131.78,84.8632,0,0,0,0,0,0,0,-1,748,1450,-131.78,-84.8632
-469,-426,-80.6232,84.3521,0,0,0,0,0,0,0,-1,755,1450,-80.6232,-84.3521
-462,-426,-81.7856,86.6661,0,0,0,0,0,0,0,-1,762,1450,-81.7856,-86.6661
-455,-426,-10.215,17.7007,0,0,0,0,0,0,0,-1,769,1450,-10.215,-17.7007
-448,-426,-6.46545,10.1322,0,0,0,0,0,0,0,-1,776,1450,-6.46543,-10.1322
-441,-426,-10.9547,11.4747,0,0,0,0,0,0,0,-1,783,1450,-10.9546,-11.4748
-434,-426,-10.4998,13.6189,0,0,0,0,0,0,0,-1,790,1450,-10.4997,-13.6189
-427,-426,-9.36627,13.7396,0,0,0,0,0,0,0,-1,797,1450,-9.36628,-13.7396
-420,-426,-5.33765,7.95044,0,0,0,0,0,0,0,-1,804,1450,-5.33766,-7.95041
-413,-426,-10.1148,5.0415,0,0,0,0,0,0,0,-1,811,1450,-10.1148,-5.04152
-406,-426,-11.4199,3.6438,0,0,0,0,0,0,0,-1,818,1450,-11.4198,-3.64382
-399,-426,-12.7595,2.29004,0,0,0,0,0,0,0,-1,825,1450,-12.7595,-2.29003
-392,-426,-12.4147,0.537354,0,0,0,0,0,0,0,-1,832,1450,-12.4147,-0.53731
-385,-426,0,0,0,0,0,0,0,0,0,-1,839,1450,0,0
-378,-426,0,0,0,0,0,0,0,0,0,-1,846,1450,0,0
-371,-426,0,0,0,0,0,0,0,0,0,-1,853,1450,0,0
-364,-426,0,0,0,0,0,0,0,0,0,-1,860,1450,0,0
-357,-426,0,0,0,0,0,0,0,0,0,-1,867,1450,0,0
-350,-426,0,0,0,0,0,0,0,0,0,-1,874,1450,0,0
-343,-426,0,0,0,0,0,0,0,0,0,-1,881,1450,0,0
-336,-426,0,0,0,0,0,0,0,0,0,-1,888,1450,0,0
-329,-426,0,0,0,0,0,0,0,0,0,-1,895,1450,0,0
-322,-426,0,0,0,0,0,0,0,0,0,-1,902,1450,0,0
-315,-426,0,0,0,0,0,0,0,0,0,-1,909,1450,0,0
-308,-426,0,0,0,0,0,0,0,0,0,-1,916,1450,0,0
-301,-426,0,0,0,0,0,0,0,0,0,-1,923,1450,0,0
-294,-426,0,0,0,0,0,0,0,0,0,-1,930,1450,0,0
-287,-426,0,0,0,0,0,0,0,0,0,-1,937,1450,0,0
-280,-426,0,0,0,0,0,0,0,0,0,-1,944,1450,0,0
-273,-426,0,0,0,0,0,0,0,0,0,-1,951,1450,0,0
-266,-426,0,0,0,0,0,0,0,0,0,-1,958,1450,0,0
-259,-426,0,0,0,0,0,0,0,0,0,-1,965,1450,0,0
-252,-426,0,0,0,0,0,0,0,0,0,-1,972,1450,0,0
-245,-426,0,0,0,0,0,0,0,0,0,-1,979,1450,0,0
-238,-426,0,0,0,0,0,0,0,0,0,-1,986,1450,0,0
-231,-426,0,0,0,0,0,0,0,0,0,-1,993,1450,0,0
-224,-426,0,0,0,0,0,0,0,0,0,-1,1000,1450,0,0
-217,-426,0,0,0,0,0,0,0,0,0,-1,1007,1450,0,0
-210,-426,0,0,0,0,0,0,0,0,0,-1,1014,1450,0,0
-203,-426,0,0,0,0,0,0,0,0,0,-1,1021,1450,0,0
-196,-426,0,0,0,0,0,0,0,0,0,-1,1028,1450,0,0
-189,-426,0,0,0,0,0,0,0,0,0,-1,1035,1450,0,0
-182,-426,0,0,0,0,0,0,0,0,0,-1,1042,1450,0,0
-175,-426,0,0,0,0,0,0,0,0,0,-1,1049,1450,0,0
-168,-426,0,0,0,0,0,0,0,0,0,-1,1056,1450,0,0
-161,-426,0,0,0,0,0,0,0,0,0,-1,1063,1450,0,0
-154,-426,0,0,0,0,0,0,0,0,0,-1,1070,1450,0,0
-147,-426,0,0,0,0,0,0,0,0,0,-1,1077,1450,0,0
-140,-426,0,0,0,0,0,0,0,0,0,-1,1084,1450,0,0
-133,-426,0,0,0,0,0,0,0,0,0,-1,1091,1450,0,0
-126,-426,0,0,0,0,0,0,0,0,0,-1,1098,1450,0,0
-119,-426,0,0,0,0,0,0,0,0,0,-1,1105,1450,0,0
-112,-426,0,0,0,0,0,0,0,0,0,-1,1112,1450,0,0
-105,-426,0,0,0,0,0,0,0,0,0,-1,1119,1450,0,0
-98,-426,0,0,0,0,0,0,0,0,0,-1,1126,1450,0,0
-91,-426,0,0,0,0,0,0,0,0,0,-1,1133,1450,0,0
-84,-426,0,0,0,0,0,0,0,0,0,-1,1140,1450,0,0
-77,-426,0,0,0,0,0,0,0,0,0,-1,1147,1450,0,0
-70,-426,0,0,0,0,0,0,0,0,0,-1,1154,1450,0,0
-63,-426,0,0,0,0,0,0,0,0,0,-1,1161,1450,0,0
-56,-426,0,0,0,0,0,0,0,0,0,-1,1168,1450,0,0
-49,-426,0,0,0,0,0,0,0,0,0,-1,1175,1450,0,0
-42,-426,0,0,0,0,0,0,0,0,0,-1,1182,1450,0,0
-35,-426,0,0,0,0,0,0,0,0,0,-1,1189,1450,0,0
-28,-426,0,0,0,0,0,0,0,0,0,-1,1196,1450,0,0
-21,-426,0,0,0,0,0,0,0,0,0,-1,1203,1450,0,0
-14,-426,0,0,0,0,0,0,0,0,0,-1,1210,1450,0,0
-7,-426,0,0,0,0,0,0,0,0,0,-1,1217,1450,0,0
0,-426,0,0,0,0,0,0,0,0,0,-1,1224,1450,0,0
7,-426,0,0,0,0,0,0,0,0,0,-1,1231,1450,0,0
14,-426,0,0,0,0,0,0,0,0,0,-1,1238,1450,0,0
21,-426,0,0,0,0,0,0,0,0,0,-1,1245,1450,0,0
28,-426,0,0,0,0,0,0,0,0,0,-1,1252,1450,0,0
35,-426,0,0,0,0,0,0,0,0,0,-1,1259,1450,0,0
42,-426,0,0,0,0,0,0,0,0,0,-1,1266,1450,0,0
49,-426,0,0,0,0,0,0,0,0,0,-1,1273,1450,0,0
56,-426,0,0,0,0,0,0,0,0,0,-1,1280,1450,0,0
63,-426,0,0,0,0,0,0,0,0,0,-1,1287,1450,0,0
70,-426,0,0,0,0,0,0,0,0,0,-1,1294,1450,0,0
77,-426,0,0,0,0,0,0,0,0,0,-1,1301,1450,0,0
84,-426,0,0,0,0,0,0,0,0,0,-1,1308,1450,0,0
91,-426,0,0,0,0,0,0,0,0,0,-1,1315,1450,0,0
98,-426,0,0,0,0,0,0,0,0,0,-1,1322,1450,0,0
105,-426,0,0,0,0,0,0,0,0,0,-1,1329,1450,0,0
112,-426,0,0,0,0,0,0,0,0,0,-1,1336,1450,0,0
119,-426,0,0,0,0,0,0,0,0,0,-1,1343,1450,0,0
126,-426,0,0,0,0,0,0,0,0,0,-1,1350,1450,0,0
133,-426,0,0,0,0,0,0,0,0,0,-1,1357,1450,0,0
140,-426,0,0,0,0,0,0,0,0,0,-1,1364,1450,0,0
147,-426,0,0,0,0,0,0,0,0,0,-1,1371,1450,0,0
154,-426,0,0,0,0,0,0,0,0,0,-1,1378,1450,0,0
161,-426,0,0,0,0,0,0,0,0,0,-1,1385,1450,0,0
168,-426,0,0,0,0,0,0,0,0,0,-1,1392,1450,0,0
175,-426,0,0,0,0,0,0,0,0,0,-1,1399,1450,0,0
182,-426,0,0,0,0,0,0,0,0,0,-1,1406,1450,0,0
189,-426,0,0,0,0,0,0,0,0,0,-1,1413,1450,0,0
196,-426,0,0,0,0,0,0,0,0,0,-1,1420,1450,0,0
203,-426,0,0,0,0,0,0,0,0,0,-1,1427,1450,0,0
210,-426,0,0,0,0,0,0,0,0,0,-1,1434,1450,0,0
217,-426,0,0,0,0,0,0,0,0,0,-1,1441,1450,0,0
224,-426,0,0,0,0,0,0,0,0,0,-1,1448,1450,0,0
231,-426,0,0,0,0,0,0,0,0,0,-1,1455,1450,0,0
238,-426,0,0,0,0,0,0,0,0,0,-1,1462,1450,0,0
245,-426,0,0,0,0,0,0,0,0,0,-1,1469,1450,0,0
252,-426,0,0,0,0,0,0,0,0,0,-1,1476,1450,0,0
259,-426,0,0,0,0,0,0,0,0,0,-1,1483,1450,0,0
266,-426,0,0,0,0,0,0,0,0,0,-1,1490,1450,0,0
273,-426,0,0,0,0,0,0,0,0,0,-1,1497,1450,0,0
280,-426,0,0,0,0,0,0,0,0,0,-1,1504,1450,0,0
287,-426,0,0,0,0,0,0,0,0,0,-1,1511,1450,0,0
294,-426,0,0,0,0,0,0,0,0,0,-1,1518,1450,0,0
301,-426,0,0,0,0,0,0,0,0,0,-1,1525,1450,0,0
308,-426,0,0,0,0,0,0,0,0,0,-1,1532,1450,0,0
315,-426,0,0,0,0,0,0,0,0,0,-1,1539,1450,0,0
322,-426,0,0,0,0,0,0,0,0,0,-1,1546,1450,0,0
329,-426,0,0,0,0,0,0,0,0,0,-1,1553,1450,0,0
336,-426,0,0,0,0,0,0,0,0,0,-1,1560,1450,0,0
343,-426,0,0,0,0,0,0,0,0,0,-1,1567,1450,0,0
350,-426,0,0,0,0,0,0,0,0,0,-1,1574,1450,0,0
357,-426,0,0,0,0,0,0,0,0,0,-1,1581,1450,0,0
364,-426,0,0,0,0,0,0,0,0,0,-1,1588,1450,0,0
371,-426,0,0,0,0,0,0,0,0,0,-1,1595,1450,0,0
378,-426,0,0,0,0,0,0,0,0,0,-1,1602,1450,0,0
385,-426,0,0,0,0,0,0,0,0,0,-1,1609,1450,0,0
392,-426,0,0,0,0,0,0,0,0,0,-1,1616,1450,0,0
399,-426,0,0,0,0,0,0,0,0,0,-1,1623,1450,0,0
406,-426,0,0,0,0,0,0,0,0,0,-1,1630,1450,0,0
413,-426,0,0,0,0,0,0,0,0,0,-1,1637,1450,0,0
420,-426,0,0,0,0,0,0,0,0,0,-1,1644,1450,0,0
427,-426,0,0,0,0,0,0,0,0,0,-1,1651,1450,0,0
434,-426,0,0,0,0,0,0,0,0,0,-1,1658,1450,0,0
441,-426,0,0,0,0,0,0,0,0,0,-1,1665,1450,0,0
448,-426,0,0,0,0,0,0,0,0,0,-1,1672,1450,0,0
455,-426,0,0,0,0,0,0,0,0,0,-1,1679,1450,0,0
462,-426,0,0,0,0,0,0,0,0,0,-1,1686,1450,0,0
469,-426,0,0,0,0,0,0,0,0,0,-1,1693,1450,0,0
476,-426,0,0,0,0,0,0,0,0,0,-1,1700,1450,0,0
483,-426,0,0,0,0,0,0,0,0,0,-1,1707,1450,0,0
490,-426,0,0,0,0,0,0,0,0,0,-1,1714,1450,0,0
497,-426,0,0,0,0,0,0,0,0,0,-1,1721,1450,0,0
504,-426,20.6873,3.38367,0,0,0,0,0,0,0,-1,1728,1450,20.6873,-3.38361
511,-426,19.6676,3.53748,0,0,0,0,0,0,0,-1,1735,1450,19.6676,-3.53749
518,-426,18.6853,3.32288,0,0,0,0,0,0,0,-1,1742,1450,18.6853,-3.3229
525,-426,18.9552,2.71033,0,0,0,0,0,0,0,-1,1749,1450,18.9552,-2.71034
532,-426,19.4333,2.70764,0,0,0,0,0,0,0,-1,1756,1450,19.4334,-2.70764
539,-426,25.1482,2.56287,0,0,0,0,0,0,0,-1,1763,1450,25.1482,-2.56286
546,-426,24.1136,3.75659,0,0,0,0,0,0,0,-1,1770,1450,24.1136,-3.7566
553,-426,23.0791,4.95032,0,0,0,0,0,0,0,-1,1777,1450,23.0791,-4.95034
560,-426,12.9688,11.8289,0,0,0,0,0,0,0,-1,1784,1450,12.9688,-11.8288
567,-426,13.6388,11.5623,0,0,0,0,0,0,0,-1,1791,1450,13.6388,-11.5623
574,-426,14.3943,11.0286,0,0,0,0,0,0,0,-1,1798,1450,14.3942,-11.0285
581,-426,16.3879,11.4653,0,0,0,0,0,0,0,-1,1805,1450,16.3879,-11.4653
588,-426,18.1212,12.5547,0,0,0,0,0,0,0,-1,1812,1450,18.1212,-12.5547
595,-426,30.0474,21.0964,0,0,0,0,0,0,0,-1,1819,1450,30.0474,-21.0965
602,-426,140.833,90.2277,0,0,0,0,0,0,0,-1,1826,1450,140.833,-90.2277
609,-426,154.151,86.0848,0,0,0,0,0,0,0,-1,1833,1450,154.151,-86.0849
616,-426,150.898,84.4929,0,0,0,0,0,0,0,-1,1840,1450,150.898,-84.4929
623,-426,150.274,81.3407,-0.00315151,0.018417,0.0360709,0.0452812,-0.0300157,0.930656,0.0437695,0.043332,1847,1450,150.274,-81.3407
630,-426,149.61,78.1407,-0.00030133,0.0235795,0.0364537,0.0499985,-0.0267204,0.943666,0.0449682,0.0196045,1854,1450,149.61,-78.1407
637,-426,148.877,74.9358,0.00225691,0.0291252,0.0368341,0.0548986,-0.0235165,0.960262,0.0464657,0.02111,1861,1450,148.877,-74.9358
644,-426,148.123,71.7977,0.00463646,0.0349338,0.0372241,0.0599737,-0.0204034,0.978644,0.0482439,0.0232197,1868,1450,148.123,-71.7977
651,-426,147.435,68.726,0.00695809,0.0409659,0.0375739,0.0652043,-0.0172804,0.997882,0.0502304,0.0238351,1875,1450,147.435,-68.726
658,-426,146.666,65.5143,0.00907925,0.0473363,0.0379535,0.0707091,-0.0142936,1.01882,0.0525559,0.0272659,1882,1450,146.666,-65.5143
665,-426,145.858,62.2024,0,0,0,0,0,0,0,-1,1889,1450,145.858,-62.2024
672,-426,36.2397,16.927,0,0,0,0,0,0,0,-1,1896,1450,36.2397,-16.9271
679,-426,17.1522,8.15784,0,0,0,0,0,0,0,-1,1903,1450,17.1522,-8.15784
686,-426,13.5326,8.03711,0,0,0,0,0,0,0,-1,1910,1450,13.5326,-8.03717
693,-426,11.8607,6.45215,0,0,0,0,0,0,0,-1,1917,1450,11.8607,-6.45215
700,-426,9.24304,2.95447,0,0,0,0,0,0,0,-1,1924,1450,9.24305,-2.95442
707,-426,8.44519,-1.21448,0,0,0,0,0,0,0,-1,1931,1450,8.44514,1.21454
714,-426,0,0,0,0,0,0,0,0,0,-1,1938,1450,0,0
721,-426,0,0,0,0,0,0,0,0,0,-1,1945,1450,0,0
728,-426,0,0,0,0,0,0,0,0,0,-1,1952,1450,0,0
735,-426,0,0,0,0,0,0,0,0,0,-1,1959,1450,0,0
742,-426,0,0,0,0,0,0,0,0,0,-1,1966,1450,0,0
749,-426,0,0,0,0,0,0,0,0,0,-1,1973,1450,0,0
756,-426,0,0,0,0,0,0,0,0,0,-1,1980,1450,0,0
763,-426,0,0,0,0,0,0,0,0,0,-1,1987,1450,0,0
770,-426,0,0,0,0,0,0,0,0,0,-1,1994,1450,0,0
777,-426,0,0,0,0,0,0,0,0,0,-1,2001,1450,0,0
784,-426,0,0,0,0,0,0,0,0,0,-1,2008,1450,0,0
791,-426,0,0,0,0,0,0,0,0,0,-1,2015,1450,0,0
798,-426,0,0,0,0,0,0,0,0,0,-1,2022,1450,0,0
805,-426,0,0,0,0,0,0,0,0,0,-1,2029,1450,0,0
812,-426,0,0,0,0,0,0,0,0,0,-1,2036,1450,0,0
-700,-433,0,0,0,0,0,0,0,0,0,-1,524,1457,0,0
-693,-433,0,0,0,0,0,0,0,0,0,-1,531,1457,0,0
-686,-433,0,0,0,0,0,0,0,0,0,-1,538,1457,0,0
-679,-433,0,0,0,0,0,0,0,0,0,-1,545,1457,0,0
-672,-433,0,0,0,0,0,0,0,0,0,-1,552,1457,0,0
-665,-433,0,0,0,0,0,0,0,0,0,-1,559,1457,0,0
-658,-433,0,0,0,0,0,0,0,0,0,-1,566,1457,0,0
-651,-433,0,0,0,0,0,0,0,0,0,-1,573,1457,0,0
-644,-433,0,0,0,0,0,0,0,0,0,-1,580,1457,0,0
-637,-433,0,0,0,0,0,0,0,0,0,-1,587,1457,0,0
-630,-433,0,0,0,0,0,0,0,0,0,-1,594,1457,0,0
-623,-433,0,0,0,0,0,0,0,0,0,-1,601,1457,0,0
-616,-433,0,0,0,0,0,0,0,0,0,-1,608,1457,0,0
-609,-433,0,0,0,0,0,0,0,0,0,-1,615,1457,0,0
-602,-433,0,0,0,0,0,0,0,0,0,-1,622,1457,0,0
-595,-433,0,0,0,0,0,0,0,0,0,-1,629,1457,0,0
-588,-433,-10.3756,-0.467041,0,0,0,0,0,0,0,-1,636,1457,-10.3756,0.467081
-581,-433,-8.12201,0.884033,0,0,0,0,0,0,0,-1,643,1457,-8.12204,-0.884056
-574,-433,-5.86847,2.23523,0,0,0,0,0,0,0,-1,650,1457,-5.86844,-2.23519
-567,-433,-5.42255,1.16833,0,0,0,0,0,0,0,-1,657,1457,-5.42254,-1.1683
-560,-433,-6.84027,1.86414,0,0,0,0,0,0,0,-1,664,1457,-6.84026,-1.86412
-553,-433,-5.74017,1.79163,0,0,0,0,0,0,0,-1,671,1457,-5.74015,-1.79166
-546,-433,-8.12451,7.35095,0,0,0,0,0,0,0,-1,678,1457,-8.12451,-7.35097
-539,-433,-7.3136,8.75659,0,0,0,0,0,0,0,-1,685,1457,-7.31362,-8.75659
-532,-433,-14.5645,14.8475,0,0,0,0,0,0,0,-1,692,1457,-14.5645,-14.8475
-525,-433,-133.034,62.1796,0,0,0,0,0,0,0,-1,699,1457,-133.033,-62.1795
-518,-433,-134.897,64.8965,0,0,0,0,0,0,0,-1,706,1457,-134.897,-64.8965
-511,-433,-135.393,68.0775,0.0124735,0.0544138,-0.0496998,0.0873863,-0.0204991,-0.985035,0.0661578,0.0308957,713,1457,-135.393,-68.0775
-504,-433,-136.135,71.3187,0.0115169,0.0519022,-0.0474255,0.0832549,-0.0198358,-0.986662,0.0631621,0.0180169,720,1457,-136.135,-71.3188
-497,-433,-136.925,74.5093,0.0106106,0.0492927,-0.0451315,0.0790528,-0.0191496,-0.987835,0.0601106,0.0176789,727,1457,-136.925,-74.5092
-490,-433,-137.816,77.8043,0.00969542,0.0466827,-0.042916,0.0749201,-0.0185421,-0.988838,0.0571392,0.0244405,734,1457,-137.816,-77.8043
-483,-433,-138.594,81.05,0,0,0,0,0,0,0,-1,741,1457,-138.594,-81.0501
-476,-433,-139.52,84.4358,0,0,0,0,0,0,0,-1,748,1457,-139.52,-84.4358
-469,-433,-138.924,88.6044,0,0,0,0,0,0,0,-1,755,1457,-138.924,-88.6044
-462,-433,-78.3253,87.6478,0,0,0,0,0,0,0,-1,762,1457,-78.3253,-87.6478
-455,-433,-43.1202,58.5039,0,0,0,0,0,0,0,-1,769,1457,-43.1202,-58.5039
-448,-433,-6.94812,14.5563,0,0,0,0,0,0,0,-1,776,1457,-6.94809,-14.5562
-441,-433,-9.97485,14.0258,0,0,0,0,0,0,0,-1,783,1457,-9.97488,-14.0257
-434,-433,-9.41205,14.2297,0,0,0,0,0,0,0,-1,790,1457,-9.41205,-14.2297
-427,-433,-8.67419,13.6827,0,0,0,0,0,0,0,-1,797,1457,-8.67422,-13.6827
-420,-433,-5.74658,9.49121,0,0,0,0,0,0,0,-1,804,1457,-5.7466,-9.49119
-413,-433,-3.63074,5.5813,0,0,0,0,0,0,0,-1,811,1457,-3.63072,-5.58129
-406,-433,-12.3472,4.69373,0,0,0,0,0,0,0,-1,818,1457,-12.3472,-4.69374
-399,-433,-12.055,2.83594,0,0,0,0,0,0,0,-1,825,1457,-12.055,-2.83594
-392,-433,-12.9772,1.6228,0,0,0,0,0,0,0,-1,832,1457,-12.9772,-1.62282
-385,-433,-13.7999,0.514771,0,0,0,0,0,0,0,-1,839,1457,-13.7999,-0.514788
-378,-433,0,0,0,0,0,0,0,0,0,-1,846,1457,0,0
-371,-433,0,0,0,0,0,0,0,0,0,-1,853,1457,0,0
-364,-433,0,0,0,0,0,0,0,0,0,-1,860,1457,0,0
-357,-433,0,0,0,0,0,0,0,0,0,-1,867,1457,0,0
-350,-433,0,0,0,0,0,0,0,0,0,-1,874,1457,0,0
-343,-433,0,0,0,0,0,0,0,0,0,-1,881,1457,0,0
-336,-433,0,0,0,0,0,0,0,0,0,-1,888,1457,0,0
-329,-433,0,0,0,0,0,0,0,0,0,-1,895,1457,0,0
-322,-433,0,0,0,0,0,0,0,0,0,-1,902,1457,0,0
-315,-433,0,0,0,0,0,0,0,0,0,-1,909,1457,0,0
-308,-433,0,0,0,0,0,0,0,0,0,-1,916,1457,0,0
-301,-433,0,0,0,0,0,0,0,0,0,-1,923,1457,0,0
-294,-433,0,0,0,0,0,0,0,0,0,-1,930,1457,0,0
-287,-433,0,0,0,0,0,0,0,0,0,-1,937,1457,0,0
-280,-433,0,0,0,0,0,0,0,0,0,-1,944,1457,0,0
-273,-433,0,0,0,0,0,0,0,0,0,-1,951,1457,0,0
-266,-433,0,0,0,0,0,0,0,0,0,-1,958,1457,0,0
-259,-433,0,0,0,0,0,0,0,0,0,-1,965,1457,0,0
-252,-433,0,0,0,0,0,0,0,0,0,-1,972,1457,0,0
-245,-433,0,0,0,0,0,0,0,0,0,-1,979,1457,0,0
-238,-433,0,0,0,0,0,0,0,0,0,-1,986,1457,0,0
-231,-433,0,0,0,0,0,0,0,0,0,-1,993,1457,0,0
-224,-433,0,0,0,0,0,0,0,0,0,-1,1000,1457,0,0
-217,-433,0,0,0,0,0,0,0,0,0,-1,1007,1457,0,0
-210,-433,0,0,0,0,0,0,0,0,0,-1,1014,1457,0,0
-203,-433,0,0,0,0,0,0,0,0,0,-1,1021,1457,0,0
-196,-433,0,0,0,0,0,0,0,0,0,-1,1028,1457,0,0
-189,-433,0,0,0,0,0,0,0,0,0,-1,1035,1457,0,0
-182,-433,0,0,0,0,0,0,0,0,0,-1,1042,1457,0,0
-175,-433,0,0,0,0,0,0,0,0,0,-1,1049,1457,0,0
-168,-433,0,0,0,0,0,0,0,0,0,-1,1056,1457,0,0
-161,-433,0,0,0,0,0,0,0,0,0,-1,1063,1457,0,0
-154,-433,0,0,0,0,0,0,0,0,0,-1,1070,1457,0,0
-147,-433,0,0,0,0,0,0,0,0,0,-1,1077,1457,0,0
-140,-433,0,0,0,0,0,0,0,0,0,-1,1084,1457,0,0
-133,-433,0,0,0,0,0,0,0,0,0,-1,1091,1457,0,0
-126,-433,0,0,0,0,0,0,0,0,0,-1,1098,1457,0,0
-119,-433,0,0,0,0,0,0,0,0,0,-1,1105,1457,0,0
-112,-433,0,0,0,0,0,0,0,0,0,-1,1112,1457,0,0
-105,-433,0,0,0,0,0,0,0,0,0,-1,1119,1457,0,0
-98,-433,0,0,0,0,0,0,0,0,0,-1,1126,1457,0,0
-91,-433,0,0,0,0,0,0,0,0,0,-1,1133,1457,0,0
-84,-433,0,0,0,0,0,0,0,0,0,-1,1140,1457,0,0
-77,-433,0,0,0,0,0,0,0,0,0,-1,1147,1457,0,0
-70,-433,0,0,0,0,0,0,0,0,0,-1,1154,1457,0,0
-63,-433,0,0,0,0,0,0,0,0,0,-1,1161,1457,0,0
-56,-433,0,0,0,0,0,0,0,0,0,-1,1168,1457,0,0
-49,-433,0,0,0,0,0,0,0,0,0,-1,1175,1457,0,0
-42,-433,0,0,0,0,0,0,0,0,0,-1,1182,1457,0,0
-35,-433,0,0,0,0,0,0,0,0,0,-1,1189,1457,0,0
-28,-433,0,0,0,0,0,0,0,0,0,-1,1196,1457,0,0
-21,-433,0,0,0,0,0,0,0,0,0,-1,1203,1457,0,0
-14,-433,0,0,0,0,0,0,0,0,0,-1,1210,1457,0,0
-7,-433,0,0,0,0,0,0,0,0,0,-1,1217,1457,0,0
0,-433,0,0,0,0,0,0,0,0,0,-1,1224,1457,0,0
7,-433,0,0,0,0,0,0,0,0,0,-1,1231,1457,0,0
14,-433,0,0,0,0,0,0,0,0,0,-1,1238,1457,0,0
21,-433,0,0,0,0,0,0,0,0,0,-1,1245,1457,0,0
28,-433,0,0,0,0,0,0,0,0,0,-1,1252,1457,0,0
35,-433,0,0,0,0,0,0,0,0,0,-1,1259,1457,0,0
42,-433,0,0,0,0,0,0,0,0,0,-1,1266,1457,0,0
49,-433,0,0,0,0,0,0,0,0,0,-1,1273,1457,0,0
56,-433,0,0,0,0,0,0,0,0,0,-1,1280,1457,0,0
63,-433,0,0,0,0,0,0,0,0,0,-1,1287,1457,0,0
70,-433,0,0,0,0,0,0,0,0,0,-1,1294,1457,0,0
77,-433,0,0,0,0,0,0,0,0,0,-1,1301,1457,0,0
84,-433,0,0,0,0,0,0,0,0,0,-1,1308,1457,0,0
91,-433,0,0,0,0,0,0,0,0,0,-1,1315,1457,0,0
98,-433,0,0,0,0,0,0,0,0,0,-1,1322,1457,0,0
105,-433,0,0,0,0,0,0,0,0,0,-1,1329,1457,0,0
112,-433,0,0,0,0,0,0,0,0,0,-1,1336,1457,0,0
119,-433,0,0,0,0,0,0,0,0,0,-1,1343,1457,0,0
126,-433,0,0,0,0,0,0,0,0,0,-1,1350,1457,0,0
133,-433,0,0,0,0,0,0,0,0,0,-1,1357,1457,0,0
140,-433,0,0,0,0,0,0,0,0,0,-1,1364,1457,0,0
147,-433,0,0,0,0,0,0,0,0,0,-1,1371,1457,0,0
154,-433,0,0,0,0,0,0,0,0,0,-1,1378,1457,0,0
161,-433,0,0,0,0,0,0,0,0,0,-1,1385,1457,0,0
168,-433,0,0,0,0,0,0,0,0,0,-1,1392,1457,0,0
175,-433,0,0,0,0,0,0,0,0,0,-1,1399,1457,0,0
182,-433,0,0,0,0,0,0,0,0,0,-1,1406,1457,0,0
189,-433,0,0,0,0,0,0,0,0,0,-1,1413,1457,0,0
196,-433,0,0,0,0,0,0,0,0,0,-1,1420,1457,0,0
203,-433,0,0,0,0,0,0,0,0,0,-1,1427,1457,0,0
210,-433,0,0,0,0,0,0,0,0,0,-1,1434,1457,0,0
217,-433,0,0,0,0,0,0,0,0,0,-1,1441,1457,0,0
224,-433,0,0,0,0,0,0,0,0,0,-1,1448,1457,0,0
231,-433,0,0,0,0,0,0,0,0,0,-1,1455,1457,0,0
238,-433,0,0,0,0,0,0,0,0,0,-1,1462,1457,0,0
245,-433,0,0,0,0,0,0,0,0,0,-1,1469,1457,0,0
252,-433,0,0,0,0,0,0,0,0,0,-1,1476,1457,0,0
259,-433,0,0,0,0,0,0,0,0,0,-1,1483,1457,0,0
266,-433,0,0,0,0,0,0,0,0,0,-1,1490,1457,0,0
273,-433,0,0,0,0,0,0,0,0,0,-1,1497,1457,0,0
280,-433,0,0,0,0,0,0,0,0,0,-1,1504,1457,0,0
287,-433,0,0,0,0,0,0,0,0,0,-1,1511,1457,0,0
294,-433,0,0,0,0,0,0,0,0,0,-1,1518,1457,0,0
301,-433,0,0,0,0,0,0,0,0,0,-1,1525,1457,0,0
308,-433,0,0,0,0,0,0,0,0,0,-1,1532,1457,0,0
315,-433,0,0,0,0,0,0,0,0,0,-1,1539,1457,0,0
322,-433,0,0,0,0,0,0,0,0,0,-1,1546,1457,0,0
329,-433,0,0,0,0,0,0,0,0,0,-1,1553,1457,0,0
336,-433,0,0,0,0,0,0,0,0,0,-1,1560,1457,0,0
343,-433,0,0,0,0,0,0,0,0,0,-1,1567,1457,0,0
350,-433,0,0,0,0,0,0,0,0,0,-1,1574,1457,0,0
357,-433,0,0,0,0,0,0,0,0,0,-1,1581,1457,0,0
364,-433,0,0,0,0,0,0,0,0,0,-1,1588,1457,0,0
371,-433,0,0,0,0,0,0,0,0,0,-1,1595,1457,0,0
378,-433,0,0,0,0,0,0,0,0,0,-1,1602,1457,0,0
385,-433,0,0,0,0,0,0,0,0,0,-1,1609,1457,0,0
392,-433,0,0,0,0,0,0,0,0,0,-1,1616,1457,0,0
399,-433,0,0,0,0,0,0,0,0,0,-1,1623,1457,0,0
406,-433,0,0,0,0,0,0,0,0,0,-1,1630,1457,0,0
413,-433,0,0,0,0,0,0,0,0,0,-1,1637,1457,0,0
420,-433,0,0,0,0,0,0,0,0,0,-1,1644,1457,0,0
427,-433,0,0,0,0,0,0,0,0,0,-1,1651,1457,0,0
434,-433,0,0,0,0,0,0,0,0,0,-1,1658,1457,0,0
441,-433,0,0,0,0,0,0,0,0,0,-1,1665,1457,0,0
448,-433,0,0,0,0,0,0,0,0,0,-1,1672,1457,0,0
455,-433,0,0,0,0,0,0,0,0,0,-1,1679,1457,0,0
462,-433,0,0,0,0,0,0,0,0,0,-1,1686,1457,0,0
469,-433,0,0,0,0,0,0,0,0,0,-1,1693,1457,0,0
476,-433,0,0,0,0,0,0,0,0,0,-1,1700,1457,0,0
483,-433,0,0,0,0,0,0,0,0,0,-1,1707,1457,0,0
490,-433,0,0,0,0,0,0,0,0,0,-1,1714,1457,0,0
497,-433,0,0,0,0,0,0,0,0,0,-1,1721,1457,0,0
504,-433,19.9058,3.03662,0,0,0,0,0,0,0,-1,1728,1457,19.9058,-3.03656
511,-433,19.0145,3.07837,0,0,0,0,0,0,0,-1,1735,1457,19.0146,-3.07834
518,-433,18.071,3.06433,0,0,0,0,0,0,0,-1,1742,1457,18.071,-3.06432
525,-433,17.2048,3.37085,0,0,0,0,0,0,0,-1,1749,1457,17.2049,-3.37083
532,-433,16.5637,3.36646,0,0,0,0,0,0,0,-1,1756,1457,16.5637,-3.36643
539,-433,15.9193,3.30396,0,0,0,0,0,0,0,-1,1763,1457,15.9193,-3.30394
546,-433,23.1903,4.81775,0,0,0,0,0,0,0,-1,1770,1457,23.1903,-4.81775
553,-433,13.9674,11.5781,0,0,0,0,0,0,0,-1,1777,1457,13.9674,-11.5781
560,-433,13.9855,11.7341,0,0,0,0,0,0,0,-1,1784,1457,13.9855,-11.7341
567,-433,13.9264,11.3364,0,0,0,0,0,0,0,-1,1791,1457,13.9263,-11.3364
574,-433,15.5305,12.3673,0,0,0,0,0,0,0,-1,1798,1457,15.5305,-12.3673
581,-433,16.6405,12.1898,0,0,0,0,0,0,0,-1,1805,1457,16.6405,-12.1898
588,-433,26.4386,19.7478,0,0,0,0,0,0,0,-1,1812,1457,26.4386,-19.7478
595,-433,87.7529,94.8977,0,0,0,0,0,0,0,-1,1819,1457,87.7529,-94.8977
602,-433,151.582,91.0951,0,0,0,0,0,0,0,-1,1826,1457,151.582,-91.0951
609,-433,149.648,87.8673,0,0,0,0,0,0,0,-1,1833,1457,149.648,-87.8673
616,-433,147.757,85.3944,-0.00373536,0.0180346,0.0368326,0.045557,-0.0312577,0.929072,0.0446044,0.041894,1840,1457,147.757,-85.3944
623,-433,146.705,82.2631,-0.000715488,0.0226168,0.0374399,0.050166,-0.0282647,0.936429,0.0458667,0.0245649,1847,1457,146.705,-82.2631
630,-433,145.843,78.9559,0.00203846,0.0276962,0.0379587,0.0549353,-0.0252007,0.948357,0.0473163,0.0229927,1854,1457,145.843,-78.9559
637,-433,145.096,75.7184,0.00457382,0.0332356,0.03843,0.0599199,-0.0221104,0.963866,0.0490084,0.0245451,1861,1457,145.096,-75.7184
644,-433,144.374,72.4442,0.00696055,0.0391886,0.0388409,0.0651255,-0.0189763,0.982029,0.0509347,0.0287566,1868,1457,144.374,-72.4442
651,-433,143.664,69.3528,0.00932431,0.0455082,0.039138,0.0705335,-0.015701,1.0019,0.0530365,0.0234421,1875,1457,143.664,-69.3528
658,-433,142.939,66.2853,0,0,0,0,0,0,0,-1,1882,1457,142.939,-66.2853
665,-433,36.4893,18.9447,0,0,0,0,0,0,0,-1,1889,1457,36.4893,-18.9447
672,-433,18.115,8.7207,0,0,0,0,0,0,0,-1,1896,1457,18.115,-8.72074
679,-433,17.2969,9.6355,0,0,0,0,0,0,0,-1,1903,1457,17.2968,-9.63548
686,-433,13.6356,8.61694,0,0,0,0,0,0,0,-1,1910,1457,13.6356,-8.61694
693,-433,13.4081,8.39624,0,0,0,0,0,0,0,-1,1917,1457,13.4081,-8.39624
700,-433,7.16809,-1.5166,0,0,0,0,0,0,0,-1,1924,1457,7.16806,1.51656
707,-433,8.68359,-2.82202,0,0,0,0,0,0,0,-1,1931,1457,8.68359,2.82197
714,-433,0,0,0,0,0,0,0,0,0,-1,1938,1457,0,0
721,-433,0,0,0,0,0,0,0,0,0,-1,1945,1457,0,0
728,-433,0,0,0,0,0,0,0,0,0,-1,1952,1457,0,0
735,-433,0,0,0,0,0,0,0,0,0,-1,1959,1457,0,0
742,-433,0,0,0,0,0,0,0,0,0,-1,1966,1457,0,0
749,-433,0,0,0,0,0,0,0,0,0,-1,1973,1457,0,0
756,-433,0,0,0,0,0,0,0,0,0,-1,1980,1457,0,0
763,-433,0,0,0,0,0,0,0,0,0,-1,1987,1457,0,0
770,-433,0,0,0,0,0,0,0,0,0,-1,1994,1457,0,0
777,-433,0,0,0,0,0,0,0,0,0,-1,2001,1457,0,0
784,-433,0,0,0,0,0,0,0,0,0,-1,2008,1457,0,0
791,-433,0,0,0,0,0,0,0,0,0,-1,2015,1457,0,0
798,-433,0,0,0,0,0,0,0,0,0,-1,2022,1457,0,0
805,-433,0,0,0,0,0,0,0,0,0,-1,2029,1457,0,0
812,-433,0,0,0,0,0,0,0,0,0,-1,2036,1457,0,0
-700,-440,0,0,0,0,0,0,0,0,0,-1,524,1464,0,0
-693,-440,0,0,0,0,0,0,0,0,0,-1,531,1464,0,0
-686,-440,0,0,0,0,0,0,0,0,0,-1,538,1464,0,0
-679,-440,0,0,0,0,0,0,0,0,0,-1,545,1464,0,0
-672,-440,0,0,0,0,0,0,0,0,0,-1,552,1464,0,0
-665,-440,0,0,0,0,0,0,0,0,0,-1,559,1464,0,0
-658,-440,0,0,0,0,0,0,0,0,0,-1,566,1464,0,0
-651,-440,0,0,0,0,0,0,0,0,0,-1,573,1464,0,0
-644,-440,0,0,0,0,0,0,0,0,0,-1,580,1464,0,0
-637,-440,0,0,0,0,0,0,0,0,0,-1,587,1464,0,0
-630,-440,0,0,0,0,0,0,0,0,0,-1,594,1464,0,0
-623,-440,0,0,0,0,0,0,0,0,0,-1,601,1464,0,0
-616,-440,0,0,0,0,0,0,0,0,0,-1,608,1464,0,0
-609,-440,0,0,0,0,0,0,0,0,0,-1,615,1464,0,0
-602,-440,0,0,0,0,0,0,0,0,0,-1,622,1464,0,0
-595,-440,0,0,0,0,0,0,0,0,0,-1,629,1464,0,0
-588,-440,0,0,0,0,0,0,0,0,0,-1,636,1464,0,0
-581,-440,-8.97278,0.254517,0,0,0,0,0,0,0,-1,643,1464,-8.97276,-0.254526
-574,-440,-7.00818,-0.918579,0,0,0,0,0,0,0,-1,650,1464,-7.00817,0.918538
-567,-440,-6.12152,-0.0766602,0,0,0,0,0,0,0,-1,657,1464,-6.12151,0.0767097
-560,-440,-5.46747,0.82251,0,0,0,0,0,0,0,-1,664,1464,-5.46748,-0.822551
-553,-440,-6.84729,0.0831299,0,0,0,0,0,0,0,-1,671,1464,-6.84732,-0.083136
-546,-440,-5.63446,-0.153198,0,0,0,0,0,0,0,-1,678,1464,-5.63447,0.153147
-539,-440,-6.80017,8.58252,0,0,0,0,0,0,0,-1,685,1464,-6.80015,-8.58257
-532,-440,-9.69647,11.3262,0,0,0,0,0,0,0,-1,692,1464,-9.69649,-11.3262
-525,-440,-34.9579,37.0464,0,0,0,0,0,0,0,-1,699,1464,-34.9579,-37.0464
-518,-440,-130.887,65.5547,0,0,0,0,0,0,0,-1,706,1464,-130.887,-65.5546
-511,-440,-131.631,68.9401,0.0150107,0.0568891,-0.0522988,0.0922847,-0.0203849,-0.975814,0.0693245,0.0243691,713,1464,-131.631,-68.9401
-504,-440,-132.346,72.231,0.0138352,0.0540148,-0.0504349,0.0882138,-0.0203639,-0.974932,0.0666425,0.023473,720,1464,-132.346,-72.2309
-497,-440,-133.073,75.4387,0.0126311,0.0509029,-0.0485878,0.0839873,-0.0204533,-0.972991,0.0639097,0.0265459,727,1464,-133.073,-75.4387
-490,-440,-133.953,78.715,0.0113425,0.047638,-0.0468295,0.0797131,-0.0207326,-0.970252,0.0612343,0.0278204,734,1464,-133.953,-78.715
-483,-440,-134.707,82.132,0.00981612,0.0439448,-0.0450937,0.0750949,-0.021334,-0.966281,0.0584863,0.030828,741,1464,-134.707,-82.132
-476,-440,-135.518,85.5132,0,0,0,0,0,0,0,-1,748,1464,-135.518,-85.5132
-469,-440,-136.63,89.1017,0,0,0,0,0,0,0,-1,755,1464,-136.631,-89.1016
-462,-440,-136.393,93.1322,0,0,0,0,0,0,0,-1,762,1464,-136.393,-93.1321
-455,-440,-70.0716,85.2322,0,0,0,0,0,0,0,-1,769,1464,-70.0716,-85.2322
-448,-440,-12.8837,23.5623,0,0,0,0,0,0,0,-1,776,1464,-12.8837,-23.5623
-441,-440,-7.28583,14.7465,0,0,0,0,0,0,0,-1,783,1464,-7.28584,-14.7464
-434,-440,-8.33636,14.5024,0,0,0,0,0,0,0,-1,790,1464,-8.33638,-14.5025
-427,-440,-8.28094,14.2512,0,0,0,0,0,0,0,-1,797,1464,-8.28094,-14.2512
-420,-440,-6.86603,8.09216,0,0,0,0,0,0,0,-1,804,1464,-6.86602,-8.09222
-413,-440,-3.46796,5.72278,0,0,0,0,0,0,0,-1,811,1464,-3.46797,-5.72276
-406,-440,-5.2887,5.20264,0,0,0,0,0,0,0,-1,818,1464,-5.2887,-5.20261
-399,-440,-12.7318,3.94421,0,0,0,0,0,0,0,-1,825,1464,-12.7318,-3.94419
-392,-440,-13.5565,2.51855,0,0,0,0,0,0,0,-1,832,1464,-13.5565,-2.51861
-385,-440,-14.6741,1.39795,0,0,0,0,0,0,0,-1,839,1464,-14.6741,-1.39801
-378,-440,-15.8063,0.293457,0,0,0,0,0,0,0,-1,846,1464,-15.8063,-0.293412
-371,-440,0,0,0,0,0,0,0,0,0,-1,853,1464,0,0
-364,-440,0,0,0,0,0,0,0,0,0,-1,860,1464,0,0
-357,-440,0,0,0,0,0,0,0,0,0,-1,867,1464,0,0
-350,-440,0,0,0,0,0,0,0,0,0,-1,874,1464,0,0
-343,-440,0,0,0,0,0,0,0,0,0,-1,881,1464,0,0
-336,-440,0,0,0,0,0,0,0,0,0,-1,888,1464,0,0
-329,-440,0,0,0,0,0,0,0,0,0,-1,895,1464,0,0
-322,-440,0,0,0,0,0,0,0,0,0,-1,902,1464,0,0
-315,-440,0,0,0,0,0,0,0,0,0,-1,909,1464,0,0
-308,-440,0,0,0,0,0,0,0,0,0,-1,916,1464,0,0
-301,-440,0,0,0,0,0,0,0,0,0,-1,923,1464,0,0
-294,-440,0,0,0,0,0,0,0,0,0,-1,930,1464,0,0
-287,-440,0,0,0,0,0,0,0,0,0,-1,937,1464,0,0
-280,-440,0,0,0,0,0,0,0,0,0,-1,944,1464,0,0
-273,-440,0,0,0,0,0,0,0,0,0,-1,951,1464,0,0
-266,-440,0,0,0,0,0,0,0,0,0,-1,958,1464,0,0
-259,-440,0,0,0,0,0,0,0,0,0,-1,965,1464,0,0
-252,-440,0,0,0,0,0,0,0,0,0,-1,972,1464,0,0
-245,-440,0,0,0,0,0,0,0,0,0,-1,979,1464,0,0
-238,-440,0,0,0,0,0,0,0,0,0,-1,986,1464,0,0
-231,-440,0,0,0,0,0,0,0,0,0,-1,993,1464,0,0
-224,-440,0,0,0,0,0,0,0,0,0,-1,1000,1464,0,0
-217,-440,0,0,0,0,0,0,0,0,0,-1,1007,1464,0,0
-210,-440,0,0,0,0,0,0,0,0,0,-1,1014,1464,0,0
-203,-440,0,0,0,0,0,0,0,0,0,-1,1021,1464,0,0
-196,-440,0,0,0,0,0,0,0,0,0,-1,1028,1464,0,0
-189,-440,0,0,0,0,0,0,0,0,0,-1,1035,1464,0,0
-182,-440,0,0,0,0,0,0,0,0,0,-1,1042,1464,0,0
-175,-440,0,0,0,0,0,0,0,0,0,-1,1049,1464,0,0
-168,-440,0,0,0,0,0,0,0,0,0,-1,1056,1464,0,0
-161,-440,0,0,0,0,0,0,0,0,0,-1,1063,1464,0,0
-154,-440,0,0,0,0,0,0,0,0,0,-1,1070,1464,0,0
-147,-440,0,0,0,0,0,0,0,0,0,-1,1077,1464,0,0
-140,-440,0,0,0,0,0,0,0,0,0,-1,1084,1464,0,0
-133,-440,0,0,0,0,0,0,0,0,0,-1,1091,1464,0,0
-126,-440,0,0,0,0,0,0,0,0,0,-1,1098,1464,0,0
-119,-440,0,0,0,0,0,0,0,0,0,-1,1105,1464,0,0
-112,-440,0,0,0,0,0,0,0,0,0,-1,1112,1464,0,0
-105,-440,0,0,0,0,0,0,0,0,0,-1,1119,1464,0,0
-98,-440,0,0,0,0,0,0,0,0,0,-1,1126,1464,0,0
-91,-440,0,0,0,0,0,0,0,0,0,-1,1133,1464,0,0
-84,-440,0,0,0,0,0,0,0,0,0,-1,1140,1464,0,0
-77,-440,0,0,0,0,0,0,0,0,0,-1,1147,1464,0,0
-70,-440,0,0,0,0,0,0,0,0,0,-1,1154,1464,0,0
-63,-440,0,0,0,0,0,0,0,0,0,-1,1161,1464,0,0
-56,-440,0,0,0,0,0,0,0,0,0,-1,1168,1464,0,0
-49,-440,0,0,0,0,0,0,0,0,0,-1,1175,1464,0,0
-42,-440,0,0,0,0,0,0,0,0,0,-1,1182,1464,0,0
-35,-440,0,0,0,0,0,0,0,0,0,-1,1189,1464,0,0
-28,-440,0,0,0,0,0,0,0,0,0,-1,1196,1464,0,0
-21,-440,0,0,0,0,0,0,0,0,0,-1,1203,1464,0,0
-14,-440,0,0,0,0,0,0,0,0,0,-1,1210,1464,0,0
-7,-440,0,0,0,0,0,0,0,0,0,-1,1217,1464,0,0
0,-440,0,0,0,0,0,0,0,0,0,-1,1224,1464,0,0
7,-440,0,0,0,0,0,0,0,0,0,-1,1231,1464,0,0
14,-440,0,0,0,0,0,0,0,0,0,-1,1238,1464,0,0
21,-440,0,0,0,0,0,0,0,0,0,-1,1245,1464,0,0
28,-440,0,0,0,0,0,0,0,0,0,-1,1252,1464,0,0
35,-440,0,0,0,0,0,0,0,0,0,-1,1259,1464,0,0
42,-440,0,0,0,0,0,0,0,0,0,-1,1266,1464,0,0
49,-440,0,0,0,0,0,0,0,0,0,-1,1273,1464,0,0
56,-440,0,0,0,0,0,0,0,0,0,-1,1280,1464,0,0
63,-440,0,0,0,0,0,0,0,0,0,-1,1287,1464,0,0
70,-440,0,0,0,0,0,0,0,0,0,-1,1294,1464,0,0
77,-440,0,0,0,0,0,0,0,0,0,-1,1301,1464,0,0
84,-440,0,0,0,0,0,0,0,0,0,-1,1308,1464,0,0
91,-440,0,0,0,0,0,0,0,0,0,-1,1315,1464,0,0
98,-440,0,0,0,0,0,0,0,0,0,-1,1322,1464,0,0
105,-440,0,0,0,0,0,0,0,0,0,-1,1329,1464,0,0
112,-440,0,0,0,0,0,0,0,0,0,-1,1336,1464,0,0
119,-440,0,0,0,0,0,0,0,0,0,-1,1343,1464,0,0
126,-440,0,0,0,0,0,0,0,0,0,-1,1350,1464,0,0
133,-440,0,0,0,0,0,0,0,0,0,-1,1357,1464,0,0
140,-440,0,0,0,0,0,0,0,0,0,-1,1364,1464,0,0
147,-440,0,0,0,0,0,0,0,0,0,-1,1371,1464,0,0
154,-440,0,0,0,0,0,0,0,0,0,-1,1378,1464,0,0
161,-440,0,0,0,0,0,0,0,0,0,-1,1385,1464,0,0
168,-440,0,0,0,0,0,0,0,0,0,-1,1392,1464,0,0
175,-440,0,0,0,0,0,0,0,0,0,-1,1399,1464,0,0
182,-440,0,0,0,0,0,0,0,0,0,-1,1406,1464,0,0
189,-440,0,0,0,0,0,0,0,0,0,-1,1413,1464,0,0
196,-440,0,0,0,0,0,0,0,0,0,-1,1420,1464,0,0
203,-440,0,0,0,0,0,0,0,0,0,-1,1427,1464,0,0
210,-440,0,0,0,0,0,0,0,0,0,-1,1434,1464,0,0
217,-440,0,0,0,0,0,0,0,0,0,-1,1441,1464,0,0
224,-440,0,0,0,0,0,0,0,0,0,-1,1448,1464,0,0
231,-440,0,0,0,0,0,0,0,0,0,-1,1455,1464,0,0
238,-440,0,0,0,0,0,0,0,0,0,-1,1462,1464,0,0
245,-440,0,0,0,0,0,0,0,0,0,-1,1469,1464,0,0
252,-440,0,0,0,0,0,0,0,0,0,-1,1476,1464,0,0
259,-440,0,0,0,0,0,0,0,0,0,-1,1483,1464,0,0
266,-440,0,0,0,0,0,0,0,0,0,-1,1490,1464,0,0
273,-440,0,0,0,0,0,0,0,0,0,-1,1497,1464,0,0
280,-440,0,0,0,0,0,0,0,0,0,-1,1504,1464,0,0
287,-440,0,0,0,0,0,0,0,0,0,-1,1511,1464,0,0
294,-440,0,0,0,0,0,0,0,0,0,-1,1518,1464,0,0
301,-440,0,0,0,0,0,0,0,0,0,-1,1525,1464,0,0
308,-440,0,0,0,0,0,0,0,0,0,-1,1532,1464,0,0
315,-440,0,0,0,0,0,0,0,0,0,-1,1539,1464,0,0
322,-440,0,0,0,0,0,0,0,0,0,-1,1546,1464,0,0
329,-440,0,0,0,0,0,0,0,0,0,-1,1553,1464,0,0
336,-440,0,0,0,0,0,0,0,0,0,-1,1560,1464,0,0
343,-440,0,0,0,0,0,0,0,0,0,-1,1567,1464,0,0
350,-440,0,0,0,0,0,0,0,0,0,-1,1574,1464,0,0
357,-440,0,0,0,0,0,0,0,0,0,-1,1581,1464,0,0
364,-440,0,0,0,0,0,0,0,0,0,-1,1588,1464,0,0
371,-440,0,0,0,0,0,0,0,0,0,-1,1595,1464,0,0
378,-440,0,0,0,0,0,0,0,0,0,-1,1602,1464,0,0
385,-440,0,0,0,0,0,0,0,0,0,-1,1609,1464,0,0
392,-440,0,0,0,0,0,0,0,0,0,-1,1616,1464,0,0
399,-440,0,0,0,0,0,0,0,0,0,-1,1623,1464,0,0
406,-440,0,0,0,0,0,0,0,0,0,-1,1630,1464,0,0
413,-440,0,0,0,0,0,0,0,0,0,-1,1637,1464,0,0
420,-440,0,0,0,0,0,0,0,0,0,-1,1644,1464,0,0
427,-440,0,0,0,0,0,0,0,0,0,-1,1651,1464,0,0
434,-440,0,0,0,0,0,0,0,0,0,-1,1658,1464,0,0
441,-440,0,0,0,0,0,0,0,0,0,-1,1665,1464,0,0
448,-440,0,0,0,0,0,0,0,0,0,-1,1672,1464,0,0
455,-440,0,0,0,0,0,0,0,0,0,-1,1679,1464,0,0
462,-440,0,0,0,0,0,0,0,0,0,-1,1686,1464,0,0
469,-440,0,0,0,0,0,0,0,0,0,-1,1693,1464,0,0
476,-440,0,0,0,0,0,0,0,0,0,-1,1700,1464,0,0
483,-440,0,0,0,0,0,0,0,0,0,-1,1707,1464,0,0
490,-440,0,0,0,0,0,0,0,0,0,-1,1714,1464,0,0
497,-440,16.965,-0.528442,0,0,0,0,0,0,0,-1,1721,1464,16.965,0.528492
504,-440,15.8052,0.670166,0,0,0,0,0,0,0,-1,1728,1464,15.8052,-0.670145
511,-440,17.5754,2.77832,0,0,0,0,0,0,0,-1,1735,1464,17.5754,-2.77826
518,-440,16.9017,3.07861,0,0,0,0,0,0,0,-1,1742,1464,16.9018,-3.07859
525,-440,18.4495,12.0867,0,0,0,0,0,0,0,-1,1749,1464,18.4495,-12.0867
532,-440,15.4319,3.64392,0,0,0,0,0,0,0,-1,1756,1464,15.4318,-3.64391
539,-440,14.8214,3.41321,0,0,0,0,0,0,0,-1,1763,1464,14.8214,-3.4132
546,-440,14.8651,10.7683,0,0,0,0,0,0,0,-1,1770,1464,14.8651,-10.7683
553,-440,15.1213,11.4121,0,0,0,0,0,0,0,-1,1777,1464,15.1213,-11.4121
560,-440,17.4325,12.5394,0,0,0,0,0,0,0,-1,1784,1464,17.4325,-12.5394
567,-440,16.9025,12.4249,0,0,0,0,0,0,0,-1,1791,1464,16.9025,-12.425
574,-440,19.2841,14.8679,0,0,0,0,0,0,0,-1,1798,1464,19.2841,-14.868
581,-440,26.4432,21.3477,0,0,0,0,0,0,0,-1,1805,1464,26.4432,-21.3476
588,-440,85.571,98.6345,0,0,0,0,0,0,0,-1,1812,1464,85.5711,-98.6345
595,-440,148.091,96.4647,0,0,0,0,0,0,0,-1,1819,1464,148.091,-96.4647
602,-440,146.602,92.8573,0,0,0,0,0,0,0,-1,1826,1464,146.602,-92.8573
609,-440,145.113,89.25,0,0,0,0,0,0,0,-1,1833,1464,145.113,-89.2499
616,-440,143.648,86.5189,-0.00108571,0.0223671,0.0382637,0.0506609,-0.0293796,0.934086,0.0467527,0.039242,1840,1464,143.648,-86.5189
623,-440,142.811,83.14,0.00178805,0.0268228,0.0389051,0.0551746,-0.0265638,0.941039,0.0481457,0.0233764,1847,1464,142.811,-83.14
630,-440,142.011,79.8279,0.00444305,0.0318013,0.0394598,0.0598858,-0.0236414,0.952246,0.0497148,0.0174119,1854,1464,142.011,-79.8279
637,-440,141.263,76.5262,0.00691086,0.0372466,0.0399757,0.0648352,-0.0206778,0.966721,0.0515184,0.0255482,1861,1464,141.263,-76.5262
644,-440,140.604,73.2406,0.00928423,0.0431908,0.0403598,0.0700134,-0.0175383,0.984235,0.0534889,0.0334221,1868,1464,140.604,-73.2406
651,-440,139.913,70.026,0,0,0,0,0,0,0,-1,1875,1464,139.913,-70.026
658,-440,82.9196,69.3716,0,0,0,0,0,0,0,-1,1882,1464,82.9195,-69.3716
665,-440,24.2067,12.5813,0,0,0,0,0,0,0,-1,1889,1464,24.2067,-12.5813
672,-440,18.9385,9.6394,0,0,0,0,0,0,0,-1,1896,1464,18.9384,-9.63939
679,-440,16.9508,10.2336,0,0,0,0,0,0,0,-1,1903,1464,16.9508,-10.2337
686,-440,15.2556,8.44177,0,0,0,0,0,0,0,-1,1910,1464,15.2556,-8.44177
693,-440,9.88635,2.89795,0,0,0,0,0,0,0,-1,1917,1464,9.88638,-2.89798
700,-440,7.07825,-2.62061,0,0,0,0,0,0,0,-1,1924,1464,7.07829,2.62057
707,-440,0,0,0,0,0,0,0,0,0,-1,1931,1464,0,0
714,-440,0,0,0,0,0,0,0,0,0,-1,1938,1464,0,0
721,-440,0,0,0,0,0,0,0,0,0,-1,1945,1464,0,0
728,-440,0,0,0,0,0,0,0,0,0,-1,1952,1464,0,0
735,-440,0,0,0,0,0,0,0,0,0,-1,1959,1464,0,0
742,-440,0,0,0,0,0,0,0,0,0,-1,1966,1464,0,0
749,-440,0,0,0,0,0,0,0,0,0,-1,1973,1464,0,0
756,-440,0,0,0,0,0,0,0,0,0,-1,1980,1464,0,0
763,-440,0,0,0,0,0,0,0,0,0,-1,1987,1464,0,0
770,-440,0,0,0,0,0,0,0,0,0,-1,1994,1464,0,0
777,-440,0,0,0,0,0,0,0,0,0,-1,2001,1464,0,0
784,-440,0,0,0,0,0,0,0,0,0,-1,2008,1464,0,0
791,-440,0,0,0,0,0,0,0,0,0,-1,2015,1464,0,0
798,-440,0,0,0,0,0,0,0,0,0,-1,2022,1464,0,0
805,-440,0,0,0,0,0,0,0,0,0,-1,2029,1464,0,0
812,-440,0,0,0,0,0,0,0,0,0,-1,2036,1464,0,0
-700,-447,0,0,0,0,0,0,0,0,0,-1,524,1471,0,0
-693,-447,0,0,0,0,0,0,0,0,0,-1,531,1471,0,0
-686,-447,0,0,0,0,0,0,0,0,0,-1,538,1471,0,0
-679,-447,0,0,0,0,0,0,0,0,0,-1,545,1471,0,0
-672,-447,0,0,0,0,0,0,0,0,0,-1,552,1471,0,0
-665,-447,0,0,0,0,0,0,0,0,0,-1,559,1471,0,0
-658,-447,0,0,0,0,0,0,0,0,0,-1,566,1471,0,0
-651,-447,0,0,0,0,0,0,0,0,0,-1,573,1471,0,0
-644,-447,0,0,0,0,0,0,0,0,0,-1,580,1471,0,0
-637,-447,0,0,0,0,0,0,0,0,0,-1,587,1471,0,0
-630,-447,0,0,0,0,0,0,0,0,0,-1,594,1471,0,0
-623,-447,0,0,0,0,0,0,0,0,0,-1,601,1471,0,0
-616,-447,0,0,0,0,0,0,0,0,0,-1,608,1471,0,0
-609,-447,0,0,0,0,0,0,0,0,0,-1,615,1471,0,0
-602,-447,0,0,0,0,0,0,0,0,0,-1,622,1471,0,0
-595,-447,0,0,0,0,0,0,0,0,0,-1,629,1471,0,0
-588,-447,0,0,0,0,0,0,0,0,0,-1,636,1471,0,0
-581,-447,-7.06482,-1.50476,0,0,0,0,0,0,0,-1,643,1471,-7.0648,1.50474
-574,-447,-6.88092,-0.00585938,0,0,0,0,0,0,0,-1,650,1471,-6.88095,0.00589852
-567,-447,-6.8205,-1.32178,0,0,0,0,0,0,0,-1,657,1471,-6.82047,1.32172
-560,-447,-8.85748,2.80774,0,0,0,0,0,0,0,-1,664,1471,-8.85748,-2.80775
-553,-447,-7.60486,3.26794,0,0,0,0,0,0,0,-1,671,1471,-7.60487,-3.26799
-546,-447,-3.94501,1.8656,0,0,0,0,0,0,0,-1,678,1471,-3.945,-1.86554
-539,-447,-5.35492,4.50024,0,0,0,0,0,0,0,-1,685,1471,-5.35492,-4.50018
-532,-447,-6.12781,8.81091,0,0,0,0,0,0,0,-1,692,1471,-6.12781,-8.81094
-525,-447,-9.44501,12.098,0,0,0,0,0,0,0,-1,699,1471,-9.44502,-12.098
-518,-447,-53.4653,56.6064,0,0,0,0,0,0,0,-1,706,1471,-53.4653,-56.6064
-511,-447,-127.82,69.8754,0,0,0,0,0,0,0,-1,713,1471,-127.82,-69.8754
-504,-447,-128.424,73.0613,0.0167746,0.056781,-0.0528119,0.093251,-0.0196954,-0.966431,0.0696668,0.0260007,720,1471,-128.424,-73.0613
-497,-447,-129.092,76.342,0.0155193,0.0532968,-0.0514697,0.0892343,-0.0204182,-0.961262,0.0673355,0.0312416,727,1471,-129.092,-76.3421
-490,-447,-129.92,79.7061,0.0141374,0.0494747,-0.0501734,0.0849996,-0.0213875,-0.954693,0.0649796,0.0315914,734,1471,-129.92,-79.7061
-483,-447,-130.792,83.0516,0.0123625,0.0452275,-0.0488925,0.0803751,-0.0227851,-0.947515,0.0625768,0.034337,741,1471,-130.792,-83.0516
-476,-447,-131.517,86.5906,0,0,0,0,0,0,0,-1,748,1471,-131.517,-86.5905
-469,-447,-132.649,89.6509,0,0,0,0,0,0,0,-1,755,1471,-132.649,-89.6508
-462,-447,-134.032,93.0464,0,0,0,0,0,0,0,-1,762,1471,-134.032,-93.0464
-455,-447,-76.1613,92.892,0,0,0,0,0,0,0,-1,769,1471,-76.1613,-92.892
-448,-447,-64.4352,85.1656,0,0,0,0,0,0,0,-1,776,1471,-64.4352,-85.1656
-441,-447,-8.68506,19.0931,0,0,0,0,0,0,0,-1,783,1471,-8.68504,-19.0932
-434,-447,-7.43402,15.6273,0,0,0,0,0,0,0,-1,790,1471,-7.43404,-15.6274
-427,-447,-7.21832,14.691,0,0,0,0,0,0,0,-1,797,1471,-7.21834,-14.6911
-420,-447,-8.0545,12.8055,0,0,0,0,0,0,0,-1,804,1471,-8.05452,-12.8055
-413,-447,-4.27393,6.59705,0,0,0,0,0,0,0,-1,811,1471,-4.27392,-6.59707
-406,-447,-1.04279,6.18591,0,0,0,0,0,0,0,-1,818,1471,-1.04276,-6.18586
-399,-447,0.0134888,0.687622,0,0,0,0,0,0,0,-1,825,1471,0.0134841,-0.68767
-392,-447,-14.0646,3.76147,0,0,0,0,0,0,0,-1,832,1471,-14.0646,-3.7615
-385,-447,-15.1695,2.61865,0,0,0,0,0,0,0,-1,839,1471,-15.1695,-2.61871
-378,-447,-15.9424,1.49316,0,0,0,0,0,0,0,-1,846,1471,-15.9424,-1.49313
-371,-447,-17.3655,0.73291,0,0,0,0,0,0,0,-1,853,1471,-17.3655,-0.732946
-364,-447,0,0,0,0,0,0,0,0,0,-1,860,1471,0,0
-357,-447,0,0,0,0,0,0,0,0,0,-1,867,1471,0,0
-350,-447,0,0,0,0,0,0,0,0,0,-1,874,1471,0,0
-343,-447,0,0,0,0,0,0,0,0,0,-1,881,1471,0,0
-336,-447,0,0,0,0,0,0,0,0,0,-1,888,1471,0,0
-329,-447,0,0,0,0,0,0,0,0,0,-1,895,1471,0,0
-322,-447,0,0,0,0,0,0,0,0,0,-1,902,1471,0,0
-315,-447,0,0,0,0,0,0,0,0,0,-1,909,1471,0,0
-308,-447,0,0,0,0,0,0,0,0,0,-1,916,1471,0,0
-301,-447,0,0,0,0,0,0,0,0,0,-1,923,1471,0,0
-294,-447,0,0,0,0,0,0,0,0,0,-1,930,1471,0,0
-287,-447,0,0,0,0,0,0,0,0,0,-1,937,1471,0,0
-280,-447,0,0,0,0,0,0,0,0,0,-1,944,1471,0,0
-273,-447,0,0,0,0,0,0,0,0,0,-1,951,1471,0,0
-266,-447,0,0,0,0,0,0,0,0,0,-1,958,1471,0,0
-259,-447,0,0,0,0,0,0,0,0,0,-1,965,1471,0,0
-252,-447,0,0,0,0,0,0,0,0,0,-1,972,1471,0,0
-245,-447,0,0,0,0,0,0,0,0,0,-1,979,1471,0,0
-238,-447,0,0,0,0,0,0,0,0,0,-1,986,1471,0,0
-231,-447,0,0,0,0,0,0,0,0,0,-1,993,1471,0,0
-224,-447,0,0,0,0,0,0,0,0,0,-1,1000,1471,0,0
-217,-447,0,0,0,0,0,0,0,0,0,-1,1007,1471,0,0
-210,-447,0,0,0,0,0,0,0,0,0,-1,1014,1471,0,0
-203,-447,0,0,0,0,0,0,0,0,0,-1,1021,1471,0,0
-196,-447,0,0,0,0,0,0,0,0,0,-1,1028,1471,0,0
-189,-447,0,0,0,0,0,0,0,0,0,-1,1035,1471,0,0
-182,-447,0,0,0,0,0,0,0,0,0,-1,1042,1471,0,0
-175,-447,0,0,0,0,0,0,0,0,0,-1,1049,1471,0,0
-168,-447,0,0,0,0,0,0,0,0,0,-1,1056,1471,0,0
-161,-447,0,0,0,0,0,0,0,0,0,-1,1063,1471,0,0
-154,-447,0,0,0,0,0,0,0,0,0,-1,1070,1471,0,0
-147,-447,0,0,0,0,0,0,0,0,0,-1,1077,1471,0,0
-140,-447,0,0,0,0,0,0,0,0,0,-1,1084,1471,0,0
-133,-447,0,0,0,0,0,0,0,0,0,-1,1091,1471,0,0
-126,-447,0,0,0,0,0,0,0,0,0,-1,1098,1471,0,0
-119,-447,0,0,0,0,0,0,0,0,0,-1,1105,1471,0,0
-112,-447,0,0,0,0,0,0,0,0,0,-1,1112,1471,0,0
-105,-447,0,0,0,0,0,0,0,0,0,-1,1119,1471,0,0
-98,-447,0,0,0,0,0,0,0,0,0,-1,1126,1471,0,0
-91,-447,0,0,0,0,0,0,0,0,0,-1,1133,1471,0,0
-84,-447,0,0,0,0,0,0,0,0,0,-1,1140,1471,0,0
-77,-447,0,0,0,0,0,0,0,0,0,-1,1147,1471,0,0
-70,-447,0,0,0,0,0,0,0,0,0,-1,1154,1471,0,0
-63,-447,0,0,0,0,0,0,0,0,0,-1,1161,1471,0,0
-56,-447,0,0,0,0,0,0,0,0,0,-1,1168,1471,0,0
-49,-447,0,0,0,0,0,0,0,0,0,-1,1175,1471,0,0
-42,-447,0,0,0,0,0,0,0,0,0,-1,1182,1471,0,0
-35,-447,0,0,0,0,0,0,0,0,0,-1,1189,1471,0,0
-28,-447,0,0,0,0,0,0,0,0,0,-1,1196,1471,0,0
-21,-447,0,0,0,0,0,0,0,0,0,-1,1203,1471,0,0
-14,-447,0,0,0,0,0,0,0,0,0,-1,1210,1471,0,0
-7,-447,0,0,0,0,0,0,0,0,0,-1,1217,1471,0,0
0,-447,0,0,0,0,0,0,0,0,0,-1,1224,1471,0,0
7,-447,0,0,0,0,0,0,0,0,0,-1,1231,1471,0,0
14,-447,0,0,0,0,0,0,0,0,0,-1,1238,1471,0,0
21,-447,0,0,0,0,0,0,0,0,0,-1,1245,1471,0,0
28,-447,0,0,0,0,0,0,0,0,0,-1,1252,1471,0,0
35,-447,0,0,0,0,0,0,0,0,0,-1,1259,1471,0,0
42,-447,0,0,0,0,0,0,0,0,0,-1,1266,1471,0,0
49,-447,0,0,0,0,0,0,0,0,0,-1,1273,1471,0,0
56,-447,0,0,0,0,0,0,0,0,0,-1,1280,1471,0,0
63,-447,0,0,0,0,0,0,0,0,0,-1,1287,1471,0,0
70,-447,0,0,0,0,0,0,0,0,0,-1,1294,1471,0,0
77,-447,0,0,0,0,0,0,0,0,0,-1,1301,1471,0,0
84,-447,0,0,0,0,0,0,0,0,0,-1,1308,1471,0,0
91,-447,0,0,0,0,0,0,0,0,0,-1,1315,1471,0,0
98,-447,0,0,0,0,0,0,0,0,0,-1,1322,1471,0,0
105,-447,0,0,0,0,0,0,0,0,0,-1,1329,1471,0,0
112,-447,0,0,0,0,0,0,0,0,0,-1,1336,1471,0,0
119,-447,0,0,0,0,0,0,0,0,0,-1,1343,1471,0,0
126,-447,0,0,0,0,0,0,0,0,0,-1,1350,1471,0,0
133,-447,0,0,0,0,0,0,0,0,0,-1,1357,1471,0,0
140,-447,0,0,0,0,0,0,0,0,0,-1,1364,1471,0,0
147,-447,0,0,0,0,0,0,0,0,0,-1,1371,1471,0,0
154,-447,0,0,0,0,0,0,0,0,0,-1,1378,1471,0,0
161,-447,0,0,0,0,0,0,0,0,0,-1,1385,1471,0,0
168,-447,0,0,0,0,0,0,0,0,0,-1,1392,1471,0,0
175,-447,0,0,0,0,0,0,0,0,0,-1,1399,1471,0,0
182,-447,0,0,0,0,0,0,0,0,0,-1,1406,1471,0,0
189,-447,0,0,0,0,0,0,0,0,0,-1,1413,1471,0,0
196,-447,0,0,0,0,0,0,0,0,0,-1,1420,1471,0,0
203,-447,0,0,0,0,0,0,0,0,0,-1,1427,1471,0,0
210,-447,0,0,0,0,0,0,0,0,0,-1,1434,1471,0,0
217,-447,0,0,0,0,0,0,0,0,0,-1,1441,1471,0,0
224,-447,0,0,0,0,0,0,0,0,0,-1,1448,1471,0,0
231,-447,0,0,0,0,0,0,0,0,0,-1,1455,1471,0,0
238,-447,0,0,0,0,0,0,0,0,0,-1,1462,1471,0,0
245,-447,0,0,0,0,0,0,0,0,0,-1,1469,1471,0,0
252,-447,0,0,0,0,0,0,0,0,0,-1,1476,1471,0,0
259,-447,0,0,0,0,0,0,0,0,0,-1,1483,1471,0,0
266,-447,0,0,0,0,0,0,0,0,0,-1,1490,1471,0,0
273,-447,0,0,0,0,0,0,0,0,0,-1,1497,1471,0,0
280,-447,0,0,0,0,0,0,0,0,0,-1,1504,1471,0,0
287,-447,0,0,0,0,0,0,0,0,0,-1,1511,1471,0,0
294,-447,0,0,0,0,0,0,0,0,0,-1,1518,1471,0,0
301,-447,0,0,0,0,0,0,0,0,0,-1,1525,1471,0,0
308,-447,0,0,0,0,0,0,0,0,0,-1,1532,1471,0,0
315,-447,0,0,0,0,0,0,0,0,0,-1,1539,1471,0,0
322,-447,0,0,0,0,0,0,0,0,0,-1,1546,1471,0,0
329,-447,0,0,0,0,0,0,0,0,0,-1,1553,1471,0,0
336,-447,0,0,0,0,0,0,0,0,0,-1,1560,1471,0,0
343,-447,0,0,0,0,0,0,0,0,0,-1,1567,1471,0,0
350,-447,0,0,0,0,0,0,0,0,0,-1,1574,1471,0,0
357,-447,0,0,0,0,0,0,0,0,0,-1,1581,1471,0,0
364,-447,0,0,0,0,0,0,0,0,0,-1,1588,1471,0,0
371,-447,0,0,0,0,0,0,0,0,0,-1,1595,1471,0,0
378,-447,0,0,0,0,0,0,0,0,0,-1,1602,1471,0,0
385,-447,0,0,0,0,0,0,0,0,0,-1,1609,1471,0,0
392,-447,0,0,0,0,0,0,0,0,0,-1,1616,1471,0,0
399,-447,0,0,0,0,0,0,0,0,0,-1,1623,1471,0,0
406,-447,0,0,0,0,0,0,0,0,0,-1,1630,1471,0,0
413,-447,0,0,0,0,0,0,0,0,0,-1,1637,1471,0,0
420,-447,0,0,0,0,0,0,0,0,0,-1,1644,1471,0,0
427,-447,0,0,0,0,0,0,0,0,0,-1,1651,1471,0,0
434,-447,0,0,0,0,0,0,0,0,0,-1,1658,1471,0,0
441,-447,0,0,0,0,0,0,0,0,0,-1,1665,1471,0,0
448,-447,0,0,0,0,0,0,0,0,0,-1,1672,1471,0,0
455,-447,0,0,0,0,0,0,0,0,0,-1,1679,1471,0,0
462,-447,0,0,0,0,0,0,0,0,0,-1,1686,1471,0,0
469,-447,0,0,0,0,0,0,0,0,0,-1,1693,1471,0,0
476,-447,0,0,0,0,0,0,0,0,0,-1,1700,1471,0,0
483,-447,0,0,0,0,0,0,0,0,0,-1,1707,1471,0,0
490,-447,18.2214,-0.810303,0,0,0,0,0,0,0,-1,1714,1471,18.2215,0.810307
497,-447,17.0237,0.352417,0,0,0,0,0,0,0,-1,1721,1471,17.0237,-0.352442
504,-447,15.8998,1.53479,0,0,0,0,0,0,0,-1,1728,1471,15.8997,-1.53478
511,-447,14.7201,2.76111,0,0,0,0,0,0,0,-1,1735,1471,14.7201,-2.76107
518,-447,17.7618,13.2864,0,0,0,0,0,0,0,-1,1742,1471,17.7619,-13.2863
525,-447,17.1191,11.9014,0,0,0,0,0,0,0,-1,1749,1471,17.1191,-11.9013
532,-447,16.3959,10.0455,0,0,0,0,0,0,0,-1,1756,1471,16.3959,-10.0456
539,-447,14.1699,10.0204,0,0,0,0,0,0,0,-1,1763,1471,14.1699,-10.0204
546,-447,16.3715,11.8046,0,0,0,0,0,0,0,-1,1770,1471,16.3714,-11.8046
553,-447,17.5106,13.4012,0,0,0,0,0,0,0,-1,1777,1471,17.5107,-13.4012
560,-447,17.0187,13.168,0,0,0,0,0,0,0,-1,1784,1471,17.0187,-13.168
567,-447,18.9286,15.1703,0,0,0,0,0,0,0,-1,1791,1471,18.9286,-15.1703
574,-447,32.1848,27.6504,0,0,0,0,0,0,0,-1,1798,1471,32.1848,-27.6503
581,-447,48.0679,47.2927,0,0,0,0,0,0,0,-1,1805,1471,48.0679,-47.2927
588,-447,129.242,102.092,0,0,0,0,0,0,0,-1,1812,1471,129.242,-102.092
595,-447,143.12,97.8175,0,0,0,0,0,0,0,-1,1819,1471,143.121,-97.8175
602,-447,141.832,94.3126,-0.00361783,0.0193167,0.0377913,0.0473423,-0.0316434,0.932702,0.0459016,0.0359549,1826,1471,141.832,-94.3127
609,-447,140.683,90.8516,-0.00081942,0.022501,0.0388247,0.0513787,-0.0296971,0.931278,0.0473637,0.0249112,1833,1471,140.683,-90.8515
616,-447,139.65,87.3867,0.00179298,0.0263341,0.0397251,0.0556406,-0.0275136,0.935193,0.048916,0.0238152,1840,1471,139.65,-87.3868
623,-447,138.756,84.0133,0.00437065,0.0307356,0.0404885,0.0601336,-0.0250273,0.942779,0.0505411,0.0267504,1847,1471,138.756,-84.0133
630,-447,138.075,80.7065,0.00688086,0.0356671,0.0411448,0.0648637,-0.0223157,0.953654,0.052293,0.0169996,1854,1471,138.075,-80.7066
637,-447,137.406,77.3363,0.00928269,0.0410396,0.0417425,0.0698217,-0.0194994,0.967143,0.054229,0.0195433,1861,1471,137.406,-77.3363
644,-447,136.682,74.0869,0.0117121,0.0469305,0.0421129,0.0749676,-0.016325,0.983423,0.0562158,0.0330411,1868,1471,136.682,-74.0869
651,-447,135.988,70.936,0,0,0,0,0,0,0,-1,1875,1471,135.988,-70.936
658,-447,30.2566,16.5862,0,0,0,0,0,0,0,-1,1882,1471,30.2566,-16.5862
665,-447,18.4946,9.79919,0,0,0,0,0,0,0,-1,1889,1471,18.4946,-9.79922
672,-447,18.9784,9.66077,0,0,0,0,0,0,0,-1,1896,1471,18.9784,-9.66081
679,-447,14.844,7.4248,0,0,0,0,0,0,0,-1,1903,1471,14.844,-7.42477
686,-447,9.81079,4.30859,0,0,0,0,0,0,0,-1,1910,1471,9.8108,-4.30864
693,-447,10.48,2.08643,0,0,0,0,0,0,0,-1,1917,1471,10.48,-2.08642
700,-447,0,0,0,0,0,0,0,0,0,-1,1924,1471,0,0
707,-447,0,0,0,0,0,0,0,0,0,-1,1931,1471,0,0
714,-447,0,0,0,0,0,0,0,0,0,-1,1938,1471,0,0
721,-447,0,0,0,0,0,0,0,0,0,-1,1945,1471,0,0
728,-447,0,0,0,0,0,0,0,0,0,-1,1952,1471,0,0
735,-447,0,0,0,0,0,0,0,0,0,-1,1959,1471,0,0
742,-447,0,0,0,0,0,0,0,0,0,-1,1966,1471,0,0
749,-447,0,0,0,0,0,0,0,0,0,-1,1973,1471,0,0
756,-447,0,0,0,0,0,0,0,0,0,-1,1980,1471,0,0
763,-447,0,0,0,0,0,0,0,0,0,-1,1987,1471,0,0
770,-447,0,0,0,0,0,0,0,0,0,-1,1994,1471,0,0
777,-447,0,0,0,0,0,0,0,0,0,-1,2001,1471,0,0
784,-447,0,0,0,0,0,0,0,0,0,-1,2008,1471,0,0
791,-447,0,0,0,0,0,0,0,0,0,-1,2015,1471,0,0
798,-447,0,0,0,0,0,0,0,0,0,-1,2022,1471,0,0
805,-447,0,0,0,0,0,0,0,0,0,-1,2029,1471,0,0
812,-447,0,0,0,0,0,0,0,0,0,-1,2036,1471,0,0
-700,-454,0,0,0,0,0,0,0,0,0,-1,524,1478,0,0
-693,-454,0,0,0,0,0,0,0,0,0,-1,531,1478,0,0
-686,-454,0,0,0,0,0,0,0,0,0,-1,538,1478,0,0
-679,-454,0,0,0,0,0,0,0,0,0,-1,545,1478,0,0
-672,-454,0,0,0,0,0,0,0,0,0,-1,552,1478,0,0
-665,-454,0,0,0,0,0,0,0,0,0,-1,559,1478,0,0
-658,-454,0,0,0,0,0,0,0,0,0,-1,566,1478,0,0
-651,-454,0,0,0,0,0,0,0,0,0,-1,573,1478,0,0
-644,-454,0,0,0,0,0,0,0,0,0,-1,580,1478,0,0
-637,-454,0,0,0,0,0,0,0,0,0,-1,587,1478,0,0
-630,-454,0,0,0,0,0,0,0,0,0,-1,594,1478,0,0
-623,-454,0,0,0,0,0,0,0,0,0,-1,601,1478,0,0
-616,-454,0,0,0,0,0,0,0,0,0,-1,608,1478,0,0
-609,-454,0,0,0,0,0,0,0,0,0,-1,615,1478,0,0
-602,-454,0,0,0,0,0,0,0,0,0,-1,622,1478,0,0
-595,-454,0,0,0,0,0,0,0,0,0,-1,629,1478,0,0
-588,-454,0,0,0,0,0,0,0,0,0,-1,636,1478,0,0
-581,-454,0,0,0,0,0,0,0,0,0,-1,643,1478,0,0
-574,-454,-8.4881,-0.465942,0,0,0,0,0,0,0,-1,650,1478,-8.4881,0.465885
-567,-454,-8.10046,0.922974,0,0,0,0,0,0,0,-1,657,1478,-8.10047,-0.923034
-560,-454,-10.656,3.51172,0,0,0,0,0,0,0,-1,664,1478,-10.656,-3.51176
-553,-454,-9.01129,3.95251,0,0,0,0,0,0,0,-1,671,1478,-9.0113,-3.95256
-546,-454,-9.61896,6.05237,0,0,0,0,0,0,0,-1,678,1478,-9.61897,-6.05239
-539,-454,-7.72589,4.96533,0,0,0,0,0,0,0,-1,685,1478,-7.72592,-4.96532
-532,-454,-7.03931,7.59985,0,0,0,0,0,0,0,-1,692,1478,-7.03929,-7.59981
-525,-454,-5.78723,9.677,0,0,0,0,0,0,0,-1,699,1478,-5.78722,-9.67703
-518,-454,-9.82098,13.8295,0,0,0,0,0,0,0,-1,706,1478,-9.82098,-13.8295
-511,-454,-123.518,70.3204,0,0,0,0,0,0,0,-1,713,1478,-123.518,-70.3205
-504,-454,-124.228,73.8279,0.0209425,0.0605565,-0.0548374,0.0990544,-0.0175553,-0.958705,0.072599,0.0370344,720,1478,-124.228,-73.8278
-497,-454,-125.01,77.2,0.0195243,0.056601,-0.0539919,0.0951485,-0.0190232,-0.950769,0.0706325,0.0318085,727,1478,-125.01,-77.1999
-490,-454,-125.873,80.6262,0.0179419,0.0521302,-0.0530568,0.0907786,-0.0207065,-0.94124,0.068473,0.0271304,734,1478,-125.873,-80.6262
-483,-454,-126.608,83.9663,0.0158836,0.0473932,-0.0520384,0.0860095,-0.0227327,-0.932388,0.0662307,0.0285798,741,1478,-126.608,-83.9663
-476,-454,-127.436,87.0391,0.0130587,0.0422417,-0.0506523,0.0803623,-0.025062,-0.925637,0.0635968,0.0363506,748,1478,-127.436,-87.0391
-469,-454,-128.492,90.5116,0.00959539,0.0370105,-0.0490488,0.0742312,-0.0276253,-0.921655,0.0608243,0.0345481,755,1478,-128.492,-90.5116
-462,-454,-130.216,94.8187,0,0,0,0,0,0,0,-1,762,1478,-130.216,-94.8188
-455,-454,-131.892,99.0795,0,0,0,0,0,0,0,-1,769,1478,-131.892,-99.0795
-448,-454,-73.93,96.1239,0,0,0,0,0,0,0,-1,776,1478,-73.93,-96.124
-441,-454,-59.8186,85.6444,0,0,0,0,0,0,0,-1,783,1478,-59.8186,-85.6444
-434,-454,-7.55743,19.4857,0,0,0,0,0,0,0,-1,790,1478,-7.55746,-19.4858
-427,-454,-6.00183,15.8636,0,0,0,0,0,0,0,-1,797,1478,-6.00184,-15.8637
-420,-454,-6.28088,15.2135,0,0,0,0,0,0,0,-1,804,1478,-6.28087,-15.2135
-413,-454,-5.4408,13.674,0,0,0,0,0,0,0,-1,811,1478,-5.44079,-13.6739
-406,-454,-2.38208,10.0308,0,0,0,0,0,0,0,-1,818,1478,-2.38209,-10.0308
-399,-454,-1.21033,6.95447,0,0,0,0,0,0,0,-1,825,1478,-1.21035,-6.95452
-392,-454,0.0967407,0.985474,0,0,0,0,0,0,0,-1,832,1478,0.0967364,-0.985529
-385,-454,2.38629,3.297,0,0,0,0,0,0,0,-1,839,1478,2.38629,-3.29702
-378,-454,-15.9756,2.83997,0,0,0,0,0,0,0,-1,846,1478,-15.9756,-2.83994
-371,-454,-17.2753,2.01453,0,0,0,0,0,0,0,-1,853,1478,-17.2753,-2.01455
-364,-454,1.08124,0.819458,0,0,0,0,0,0,0,-1,860,1478,1.08124,-0.819513
-357,-454,0,0,0,0,0,0,0,0,0,-1,867,1478,0,0
-350,-454,0,0,0,0,0,0,0,0,0,-1,874,1478,0,0
-343,-454,0,0,0,0,0,0,0,0,0,-1,881,1478,0,0
-336,-454,0,0,0,0,0,0,0,0,0,-1,888,1478,0,0
-329,-454,0,0,0,0,0,0,0,0,0,-1,895,1478,0,0
-322,-454,0,0,0,0,0,0,0,0,0,-1,902,1478,0,0
-315,-454,0,0,0,0,0,0,0,0,0,-1,909,1478,0,0
-308,-454,0,0,0,0,0,0,0,0,0,-1,916,1478,0,0
-301,-454,0,0,0,0,0,0,0,0,0,-1,923,1478,0,0
-294,-454,0,0,0,0,0,0,0,0,0,-1,930,1478,0,0
-287,-454,0,0,0,0,0,0,0,0,0,-1,937,1478,0,0
-280,-454,0,0,0,0,0,0,0,0,0,-1,944,1478,0,0
-273,-454,0,0,0,0,0,0,0,0,0,-1,951,1478,0,0
-266,-454,0,0,0,0,0,0,0,0,0,-1,958,1478,0,0
-259,-454,0,0,0,0,0,0,0,0,0,-1,965,1478,0,0
-252,-454,0,0,0,0,0,0,0,0,0,-1,972,1478,0,0
-245,-454,0,0,0,0,0,0,0,0,0,-1,979,1478,0,0
-238,-454,0,0,0,0,0,0,0,0,0,-1,986,1478,0,0
-231,-454,0,0,0,0,0,0,0,0,0,-1,993,1478,0,0
-224,-454,0,0,0,0,0,0,0,0,0,-1,1000,1478,0,0
-217,-454,0,0,0,0,0,0,0,0,0,-1,1007,1478,0,0
-210,-454,0,0,0,0,0,0,0,0,0,-1,1014,1478,0,0
-203,-454,0,0,0,0,0,0,0,0,0,-1,1021,1478,0,0
-196,-454,0,0,0,0,0,0,0,0,0,-1,1028,1478,0,0
-189,-454,0,0,0,0,0,0,0,0,0,-1,1035,1478,0,0
-182,-454,0,0,0,0,0,0,0,0,0,-1,1042,1478,0,0
-175,-454,0,0,0,0,0,0,0,0,0,-1,1049,1478,0,0
-168,-454,0,0,0,0,0,0,0,0,0,-1,1056,1478,0,0
-161,-454,0,0,0,0,0,0,0,0,0,-1,1063,1478,0,0
-154,-454,0,0,0,0,0,0,0,0,0,-1,1070,1478,0,0
-147,-454,0,0,0,0,0,0,0,0,0,-1,1077,1478,0,0
-140,-454,0,0,0,0,0,0,0,0,0,-1,1084,1478,0,0
-133,-454,0,0,0,0,0,0,0,0,0,-1,1091,1478,0,0
-126,-454,0,0,0,0,0,0,0,0,0,-1,1098,1478,0,0
-119,-454,0,0,0,0,0,0,0,0,0,-1,1105,1478,0,0
-112,-454,0,0,0,0,0,0,0,0,0,-1,1112,1478,0,0
-105,-454,0,0,0,0,0,0,0,0,0,-1,1119,1478,0,0
-98,-454,0,0,0,0,0,0,0,0,0,-1,1126,1478,0,0
-91,-454,0,0,0,0,0,0,0,0,0,-1,1133,1478,0,0
-84,-454,0,0,0,0,0,0,0,0,0,-1,1140,1478,0,0
-77,-454,0,0,0,0,0,0,0,0,0,-1,1147,1478,0,0
-70,-454,0,0,0,0,0,0,0,0,0,-1,1154,1478,0,0
-63,-454,0,0,0,0,0,0,0,0,0,-1,1161,1478,0,0
-56,-454,0,0,0,0,0,0,0,0,0,-1,1168,1478,0,0
-49,-454,0,0,0,0,0,0,0,0,0,-1,1175,1478,0,0
-42,-454,0,0,0,0,0,0,0,0,0,-1,1182,1478,0,0
-35,-454,0,0,0,0,0,0,0,0,0,-1,1189,1478,0,0
-28,-454,0,0,0,0,0,0,0,0,0,-1,1196,1478,0,0
-21,-454,0,0,0,0,0,0,0,0,0,-1,1203,1478,0,0
-14,-454,0,0,0,0,0,0,0,0,0,-1,1210,1478,0,0
-7,-454,0,0,0,0,0,0,0,0,0,-1,1217,1478,0,0
0,-454,0,0,0,0,0,0,0,0,0,-1,1224,1478,0,0
7,-454,0,0,0,0,0,0,0,0,0,-1,1231,1478,0,0
14,-454,0,0,0,0,0,0,0,0,0,-1,1238,1478,0,0
21,-454,0,0,0,0,0,0,0,0,0,-1,1245,1478,0,0
28,-454,0,0,0,0,0,0,0,0,0,-1,1252,1478,0,0
35,-454,0,0,0,0,0,0,0,0,0,-1,1259,1478,0,0
42,-454,0,0,0,0,0,0,0,0,0,-1,1266,1478,0,0
49,-454,0,0,0,0,0,0,0,0,0,-1,1273,1478,0,0
56,-454,0,0,0,0,0,0,0,0,0,-1,1280,1478,0,0
63,-454,0,0,0,0,0,0,0,0,0,-1,1287,1478,0,0
70,-454,0,0,0,0,0,0,0,0,0,-1,1294,1478,0,0
77,-454,0,0,0,0,0,0,0,0,0,-1,1301,1478,0,0
84,-454,0,0,0,0,0,0,0,0,0,-1,1308,1478,0,0
91,-454,0,0,0,0,0,0,0,0,0,-1,1315,1478,0,0
98,-454,0,0,0,0,0,0,0,0,0,-1,1322,1478,0,0
105,-454,0,0,0,0,0,0,0,0,0,-1,1329,1478,0,0
112,-454,0,0,0,0,0,0,0,0,0,-1,1336,1478,0,0
119,-454,0,0,0,0,0,0,0,0,0,-1,1343,1478,0,0
126,-454,0,0,0,0,0,0,0,0,0,-1,1350,1478,0,0
133,-454,0,0,0,0,0,0,0,0,0,-1,1357,1478,0,0
140,-454,0,0,0,0,0,0,0,0,0,-1,1364,1478,0,0
147,-454,0,0,0,0,0,0,0,0,0,-1,1371,1478,0,0
154,-454,0,0,0,0,0,0,0,0,0,-1,1378,1478,0,0
161,-454,0,0,0,0,0,0,0,0,0,-1,1385,1478,0,0
168,-454,0,0,0,0,0,0,0,0,0,-1,1392,1478,0,0
175,-454,0,0,0,0,0,0,0,0,0,-1,1399,1478,0,0
182,-454,0,0,0,0,0,0,0,0,0,-1,1406,1478,0,0
189,-454,0,0,0,0,0,0,0,0,0,-1,1413,1478,0,0
196,-454,0,0,0,0,0,0,0,0,0,-1,1420,1478,0,0
203,-454,0,0,0,0,0,0,0,0,0,-1,1427,1478,0,0
210,-454,0,0,0,0,0,0,0,0,0,-1,1434,1478,0,0
217,-454,0,0,0,0,0,0,0,0,0,-1,1441,1478,0,0
224,-454,0,0,0,0,0,0,0,0,0,-1,1448,1478,0,0
231,-454,0,0,0,0,0,0,0,0,0,-1,1455,1478,0,0
238,-454,0,0,0,0,0,0,0,0,0,-1,1462,1478,0,0
245,-454,0,0,0,0,0,0,0,0,0,-1,1469,1478,0,0
252,-454,0,0,0,0,0,0,0,0,0,-1,1476,1478,0,0
259,-454,0,0,0,0,0,0,0,0,0,-1,1483,1478,0,0
266,-454,0,0,0,0,0,0,0,0,0,-1,1490,1478,0,0
273,-454,0,0,0,0,0,0,0,0,0,-1,1497,1478,0,0
280,-454,0,0,0,0,0,0,0,0,0,-1,1504,1478,0,0
287,-454,0,0,0,0,0,0,0,0,0,-1,1511,1478,0,0
294,-454,0,0,0,0,0,0,0,0,0,-1,1518,1478,0,0
301,-454,0,0,0,0,0,0,0,0,0,-1,1525,1478,0,0
308,-454,0,0,0,0,0,0,0,0,0,-1,1532,1478,0,0
315,-454,0,0,0,0,0,0,0,0,0,-1,1539,1478,0,0
322,-454,0,0,0,0,0,0,0,0,0,-1,1546,1478,0,0
329,-454,0,0,0,0,0,0,0,0,0,-1,1553,1478,0,0
336,-454,0,0,0,0,0,0,0,0,0,-1,1560,1478,0,0
343,-454,0,0,0,0,0,0,0,0,0,-1,1567,1478,0,0
350,-454,0,0,0,0,0,0,0,0,0,-1,1574,1478,0,0
357,-454,0,0,0,0,0,0,0,0,0,-1,1581,1478,0,0
364,-454,0,0,0,0,0,0,0,0,0,-1,1588,1478,0,0
371,-454,0,0,0,0,0,0,0,0,0,-1,1595,1478,0,0
378,-454,0,0,0,0,0,0,0,0,0,-1,1602,1478,0,0
385,-454,0,0,0,0,0,0,0,0,0,-1,1609,1478,0,0
392,-454,0,0,0,0,0,0,0,0,0,-1,1616,1478,0,0
399,-454,0,0,0,0,0,0,0,0,0,-1,1623,1478,0,0
406,-454,0,0,0,0,0,0,0,0,0,-1,1630,1478,0,0
413,-454,0,0,0,0,0,0,0,0,0,-1,1637,1478,0,0
420,-454,0,0,0,0,0,0,0,0,0,-1,1644,1478,0,0
427,-454,0,0,0,0,0,0,0,0,0,-1,1651,1478,0,0
434,-454,0,0,0,0,0,0,0,0,0,-1,1658,1478,0,0
441,-454,0,0,0,0,0,0,0,0,0,-1,1665,1478,0,0
448,-454,0,0,0,0,0,0,0,0,0,-1,1672,1478,0,0
455,-454,0,0,0,0,0,0,0,0,0,-1,1679,1478,0,0
462,-454,0,0,0,0,0,0,0,0,0,-1,1686,1478,0,0
469,-454,0,0,0,0,0,0,0,0,0,-1,1693,1478,0,0
476,-454,0,0,0,0,0,0,0,0,0,-1,1700,1478,0,0
483,-454,14.2399,3.97498,0,0,0,0,0,0,0,-1,1707,1478,14.2399,-3.97502
490,-454,18.1821,-0.175781,0,0,0,0,0,0,0,-1,1714,1478,18.1821,0.175822
497,-454,16.8854,1.01208,0,0,0,0,0,0,0,-1,1721,1478,16.8854,-1.01209
504,-454,15.587,2.05994,0,0,0,0,0,0,0,-1,1728,1478,15.5871,-2.05998
511,-454,17.0273,14.5258,0,0,0,0,0,0,0,-1,1735,1478,17.0273,-14.5258
518,-454,16.4158,13.1039,0,0,0,0,0,0,0,-1,1742,1478,16.4157,-13.1038
525,-454,15.7842,11.6628,0,0,0,0,0,0,0,-1,1749,1478,15.7841,-11.6629
532,-454,15.1094,10.2476,0,0,0,0,0,0,0,-1,1756,1478,15.1094,-10.2475
539,-454,13.7905,10.9373,0,0,0,0,0,0,0,-1,1763,1478,13.7906,-10.9372
546,-454,16.2002,13.2458,0,0,0,0,0,0,0,-1,1770,1478,16.2002,-13.2459
553,-454,15.6747,12.1868,0,0,0,0,0,0,0,-1,1777,1478,15.6747,-12.1868
560,-454,16.3895,14.0527,0,0,0,0,0,0,0,-1,1784,1478,16.3895,-14.0528
567,-454,38.1984,36.0463,0,0,0,0,0,0,0,-1,1791,1478,38.1983,-36.0463
574,-454,47.4471,49.8385,0,0,0,0,0,0,0,-1,1798,1478,47.4471,-49.8385
581,-454,82.4148,104.029,0,0,0,0,0,0,0,-1,1805,1478,82.4147,-104.029
588,-454,132.066,103.483,0,0,0,0,0,0,0,-1,1812,1478,132.066,-103.483
595,-454,138.504,99.0201,0,0,0,0,0,0,0,-1,1819,1478,138.504,-99.0201
602,-454,137.611,95.4117,-8.99081e-05,0.022412,0.0390655,0.0518144,-0.0294923,0.925605,0.0475285,0.0215554,1826,1478,137.611,-95.4117
609,-454,136.679,91.9376,0.0024183,0.0256413,0.0402346,0.0559064,-0.0278469,0.925878,0.0492513,0.0179699,1833,1478,136.679,-91.9376
616,-454,135.765,88.4414,0.00477308,0.0295175,0.0412891,0.0602482,-0.0259576,0.930965,0.0510666,0.0189386,1840,1478,135.765,-88.4414
623,-454,134.899,85.0233,0.00709268,0.0339509,0.0421704,0.0647788,-0.0237352,0.939546,0.0529032,0.0210437,1847,1478,134.899,-85.0233
630,-454,134.182,81.6406,0.00940066,0.0389007,0.042969,0.0695808,-0.0212795,0.950732,0.0548734,0.0229243,1854,1478,134.182,-81.6406
637,-454,133.333,78.312,0.0116309,0.0443127,0.0437009,0.0746279,-0.0186843,0.964312,0.0570099,0.0210361,1861,1478,133.333,-78.312
644,-454,132.603,75.0027,0,0,0,0,0,0,0,-1,1868,1478,132.603,-75.0027
651,-454,54.428,47.5275,0,0,0,0,0,0,0,-1,1875,1478,54.428,-47.5275
658,-454,17.2583,10.0765,0,0,0,0,0,0,0,-1,1882,1478,17.2583,-10.0765
665,-454,17.683,9.67566,0,0,0,0,0,0,0,-1,1889,1478,17.683,-9.67572
672,-454,16.5476,6.41931,0,0,0,0,0,0,0,-1,1896,1478,16.5476,-6.41929
679,-454,14.2161,5.45007,0,0,0,0,0,0,0,-1,1903,1478,14.2161,-5.45013
686,-454,10.3767,2.12842,0,0,0,0,0,0,0,-1,1910,1478,10.3767,-2.12839
693,-454,11.1857,1.48486,0,0,0,0,0,0,0,-1,1917,1478,11.1857,-1.48487
700,-454,0,0,0,0,0,0,0,0,0,-1,1924,1478,0,0
707,-454,0,0,0,0,0,0,0,0,0,-1,1931,1478,0,0
714,-454,0,0,0,0,0,0,0,0,0,-1,1938,1478,0,0
721,-454,0,0,0,0,0,0,0,0,0,-1,1945,1478,0,0
728,-454,0,0,0,0,0,0,0,0,0,-1,1952,1478,0,0
735,-454,0,0,0,0,0,0,0,0,0,-1,1959,1478,0,0
742,-454,0,0,0,0,0,0,0,0,0,-1,1966,1478,0,0
749,-454,0,0,0,0,0,0,0,0,0,-1,1973,1478,0,0
756,-454,0,0,0,0,0,0,0,0,0,-1,1980,1478,0,0
763,-454,0,0,0,0,0,0,0,0,0,-1,1987,1478,0,0
770,-454,0,0,0,0,0,0,0,0,0,-1,1994,1478,0,0
777,-454,0,0,0,0,0,0,0,0,0,-1,2001,1478,0,0
784,-454,0,0,0,0,0,0,0,0,0,-1,2008,1478,0,0
791,-454,0,0,0,0,0,0,0,0,0,-1,2015,1478,0,0
798,-454,0,0,0,0,0,0,0,0,0,-1,2022,1478,0,0
805,-454,0,0,0,0,0,0,0,0,0,-1,2029,1478,0,0
812,-454,0,0,0,0,0,0,0,0,0,-1,2036,1478,0,0
-700,-461,0,0,0,0,0,0,0,0,0,-1,524,1485,0,0
-693,-461,0,0,0,0,0,0,0,0,0,-1,531,1485,0,0
-686,-461,0,0,0,0,0,0,0,0,0,-1,538,1485,0,0
-679,-461,0,0,0,0,0,0,0,0,0,-1,545,1485,0,0
-672,-461,0,0,0,0,0,0,0,0,0,-1,552,1485,0,0
-665,-461,0,0,0,0,0,0,0,0,0,-1,559,1485,0,0
-658,-461,0,0,0,0,0,0,0,0,0,-1,566,1485,0,0
-651,-461,0,0,0,0,0,0,0,0,0,-1,573,1485,0,0
-644,-461,0,0,0,0,0,0,0,0,0,-1,580,1485,0,0
-637,-461,0,0,0,0,0,0,0,0,0,-1,587,1485,0,0
-630,-461,0,0,0,0,0,0,0,0,0,-1,594,1485,0,0
-623,-461,0,0,0,0,0,0,0,0,0,-1,601,1485,0,0
-616,-461,0,0,0,0,0,0,0,0,0,-1,608,1485,0,0
-609,-461,0,0,0,0,0,0,0,0,0,-1,615,1485,0,0
-602,-461,0,0,0,0,0,0,0,0,0,-1,622,1485,0,0
-595,-461,0,0,0,0,0,0,0,0,0,-1,629,1485,0,0
-588,-461,0,0,0,0,0,0,0,0,0,-1,636,1485,0,0
-581,-461,0,0,0,0,0,0,0,0,0,-1,643,1485,0,0
-574,-461,0,0,0,0,0,0,0,0,0,-1,650,1485,0,0
-567,-461,-9.69031,0.513306,0,0,0,0,0,0,0,-1,657,1485,-9.69032,-0.513305
-560,-461,-7.28815,1.54004,0,0,0,0,0,0,0,-1,664,1485,-7.28817,-1.54005
-553,-461,-11.9607,5.27783,0,0,0,0,0,0,0,-1,671,1485,-11.9607,-5.27778
-546,-461,-11.4215,4.44666,0,0,0,0,0,0,0,-1,678,1485,-11.4215,-4.4467
-539,-461,-9.36493,5.23438,0,0,0,0,0,0,0,-1,685,1485,-9.3649,-5.23432
-532,-461,-7.82898,6.78357,0,0,0,0,0,0,0,-1,692,1485,-7.829,-6.78363
-525,-461,-6.37878,8.75659,0,0,0,0,0,0,0,-1,699,1485,-6.3788,-8.75659
-518,-461,-6.49695,10.886,0,0,0,0,0,0,0,-1,706,1485,-6.49696,-10.8859
-511,-461,-15.8618,21.5214,0,0,0,0,0,0,0,-1,713,1485,-15.8617,-21.5213
-504,-461,-120.008,74.5765,0,0,0,0,0,0,0,-1,720,1485,-120.008,-74.5765
-497,-461,-120.759,78.0804,0.0251108,0.0610554,-0.0558027,0.101709,-0.0155424,-0.941187,0.0735361,0.0226671,727,1485,-120.759,-78.0804
-490,-461,-121.545,81.5394,0.0228018,0.0555435,-0.0554666,0.0970048,-0.0186595,-0.928898,0.0717036,0.0285289,734,1485,-121.545,-81.5394
-483,-461,-122.301,84.9368,0.0201303,0.0502195,-0.0549036,0.0921024,-0.0217527,-0.919125,0.0697918,0.0253346,741,1485,-122.301,-84.9367
-476,-461,-123.147,88.207,0.0169284,0.0447038,-0.0539151,0.0864912,-0.0248589,-0.91145,0.0674908,0.0225182,748,1485,-123.147,-88.2071
-469,-461,-123.949,91.8571,0.0133119,0.0391937,-0.052576,0.080398,-0.0278924,-0.906068,0.064925,0.0345044,755,1485,-123.949,-91.857
-462,-461,-124.639,95.7612,0,0,0,0,0,0,0,-1,762,1485,-124.639,-95.7612
-455,-461,-114.91,101.288,0,0,0,0,0,0,0,-1,769,1485,-114.91,-101.288
-448,-461,-88.3078,106.635,0,0,0,0,0,0,0,-1,776,1485,-88.3078,-106.635
-441,-461,-73.679,102.054,0,0,0,0,0,0,0,-1,783,1485,-73.679,-102.054
-434,-461,-26.355,48.8398,0,0,0,0,0,0,0,-1,790,1485,-26.355,-48.8398
-427,-461,-8.26154,21.546,0,0,0,0,0,0,0,-1,797,1485,-8.26153,-21.5461
-420,-461,-5.70355,16.6116,0,0,0,0,0,0,0,-1,804,1485,-5.70353,-16.6115
-413,-461,-5.98798,16.0605,0,0,0,0,0,0,0,-1,811,1485,-5.98796,-16.0605
-406,-461,-5.52667,14.839,0,0,0,0,0,0,0,-1,818,1485,-5.52666,-14.839
-399,-461,-1.93439,9.82849,0,0,0,0,0,0,0,-1,825,1485,-1.9344,-9.82846
-392,-461,-0.357544,5.55225,0,0,0,0,0,0,0,-1,832,1485,-0.357536,-5.55228
-385,-461,1.71509,3.35254,0,0,0,0,0,0,0,-1,839,1485,1.71511,-3.35255
-378,-461,1.95996,3.01111,0,0,0,0,0,0,0,-1,846,1485,1.95993,-3.01111
-371,-461,0.702881,2.33459,0,0,0,0,0,0,0,-1,853,1485,0.702859,-2.33459
-364,-461,-1.93097,2.56458,0,0,0,0,0,0,0,-1,860,1485,-1.93095,-2.56456
-357,-461,-2.41516,3.49487,0,0,0,0,0,0,0,-1,867,1485,-2.41517,-3.49487
-350,-461,0,0,0,0,0,0,0,0,0,-1,874,1485,0,0
-343,-461,0,0,0,0,0,0,0,0,0,-1,881,1485,0,0
-336,-461,0,0,0,0,0,0,0,0,0,-1,888,1485,0,0
-329,-461,0,0,0,0,0,0,0,0,0,-1,895,1485,0,0
-322,-461,0,0,0,0,0,0,0,0,0,-1,902,1485,0,0
-315,-461,0,0,0,0,0,0,0,0,0,-1,909,1485,0,0
-308,-461,0,0,0,0,0,0,0,0,0,-1,916,1485,0,0
-301,-461,0,0,0,0,0,0,0,0,0,-1,923,1485,0,0
-294,-461,0,0,0,0,0,0,0,0,0,-1,930,1485,0,0
-287,-461,0,0,0,0,0,0,0,0,0,-1,937,1485,0,0
-280,-461,0,0,0,0,0,0,0,0,0,-1,944,1485,0,0
-273,-461,0,0,0,0,0,0,0,0,0,-1,951,1485,0,0
-266,-461,0,0,0,0,0,0,0,0,0,-1,958,1485,0,0
-259,-461,0,0,0,0,0,0,0,0,0,-1,965,1485,0,0
-252,-461,0,0,0,0,0,0,0,0,0,-1,972,1485,0,0
-245,-461,0,0,0,0,0,0,0,0,0,-1,979,1485,0,0
-238,-461,0,0,0,0,0,0,0,0,0,-1,986,1485,0,0
-231,-461,0,0,0,0,0,0,0,0,0,-1,993,1485,0,0
-224,-461,0,0,0,0,0,0,0,0,0,-1,1000,1485,0,0
-217,-461,0,0,0,0,0,0,0,0,0,-1,1007,1485,0,0
-210,-461,0,0,0,0,0,0,0,0,0,-1,1014,1485,0,0
-203,-461,0,0,0,0,0,0,0,0,0,-1,1021,1485,0,0
-196,-461,0,0,0,0,0,0,0,0,0,-1,1028,1485,0,0
-189,-461,0,0,0,0,0,0,0,0,0,-1,1035,1485,0,0
-182,-461,0,0,0,0,0,0,0,0,0,-1,1042,1485,0,0
-175,-461,0,0,0,0,0,0,0,0,0,-1,1049,1485,0,0
-168,-461,0,0,0,0,0,0,0,0,0,-1,1056,1485,0,0
-161,-461,0,0,0,0,0,0,0,0,0,-1,1063,1485,0,0
-154,-461,0,0,0,0,0,0,0,0,0,-1,1070,1485,0,0
-147,-461,0,0,0,0,0,0,0,0,0,-1,1077,1485,0,0
-140,-461,0,0,0,0,0,0,0,0,0,-1,1084,1485,0,0
-133,-461,0,0,0,0,0,0,0,0,0,-1,1091,1485,0,0
-126,-461,0,0,0,0,0,0,0,0,0,-1,1098,1485,0,0
-119,-461,0,0,0,0,0,0,0,0,0,-1,1105,1485,0,0
-112,-461,0,0,0,0,0,0,0,0,0,-1,1112,1485,0,0
-105,-461,0,0,0,0,0,0,0,0,0,-1,1119,1485,0,0
-98,-461,0,0,0,0,0,0,0,0,0,-1,1126,1485,0,0
-91,-461,0,0,0,0,0,0,0,0,0,-1,1133,1485,0,0
-84,-461,0,0,0,0,0,0,0,0,0,-1,1140,1485,0,0
-77,-461,0,0,0,0,0,0,0,0,0,-1,1147,1485,0,0
-70,-461,0,0,0,0,0,0,0,0,0,-1,1154,1485,0,0
-63,-461,0,0,0,0,0,0,0,0,0,-1,1161,1485,0,0
-56,-461,0,0,0,0,0,0,0,0,0,-1,1168,1485,0,0
-49,-461,0,0,0,0,0,0,0,0,0,-1,1175,1485,0,0
-42,-461,0,0,0,0,0,0,0,0,0,-1,1182,1485,0,0
-35,-461,0,0,0,0,0,0,0,0,0,-1,1189,1485,0,0
-28,-461,0,0,0,0,0,0,0,0,0,-1,1196,1485,0,0
-21,-461,0,0,0,0,0,0,0,0,0,-1,1203,1485,0,0
-14,-461,0,0,0,0,0,0,0,0,0,-1,1210,1485,0,0
-7,-461,0,0,0,0,0,0,0,0,0,-1,1217,1485,0,0
0,-461,0,0,0,0,0,0,0,0,0,-1,1224,1485,0,0
7,-461,0,0,0,0,0,0,0,0,0,-1,1231,1485,0,0
14,-461,0,0,0,0,0,0,0,0,0,-1,1238,1485,0,0
21,-461,0,0,0,0,0,0,0,0,0,-1,1245,1485,0,0
28,-461,0,0,0,0,0,0,0,0,0,-1,1252,1485,0,0
35,-461,0,0,0,0,0,0,0,0,0,-1,1259,1485,0,0
42,-461,0,0,0,0,0,0,0,0,0,-1,1266,1485,0,0
49,-461,0,0,0,0,0,0,0,0,0,-1,1273,1485,0,0
56,-461,0,0,0,0,0,0,0,0,0,-1,1280,1485,0,0
63,-461,0,0,0,0,0,0,0,0,0,-1,1287,1485,0,0
70,-461,0,0,0,0,0,0,0,0,0,-1,1294,1485,0,0
77,-461,0,0,0,0,0,0,0,0,0,-1,1301,1485,0,0
84,-461,0,0,0,0,0,0,0,0,0,-1,1308,1485,0,0
91,-461,0,0,0,0,0,0,0,0,0,-1,1315,1485,0,0
98,-461,0,0,0,0,0,0,0,0,0,-1,1322,1485,0,0
105,-461,0,0,0,0,0,0,0,0,0,-1,1329,1485,0,0
112,-461,0,0,0,0,0,0,0,0,0,-1,1336,1485,0,0
119,-461,0,0,0,0,0,0,0,0,0,-1,1343,1485,0,0
126,-461,0,0,0,0,0,0,0,0,0,-1,1350,1485,0,0
133,-461,0,0,0,0,0,0,0,0,0,-1,1357,1485,0,0
140,-461,0,0,0,0,0,0,0,0,0,-1,1364,1485,0,0
147,-461,0,0,0,0,0,0,0,0,0,-1,1371,1485,0,0
154,-461,0,0,0,0,0,0,0,0,0,-1,1378,1485,0,0
161,-461,0,0,0,0,0,0,0,0,0,-1,1385,1485,0,0
168,-461,0,0,0,0,0,0,0,0,0,-1,1392,1485,0,0
175,-461,0,0,0,0,0,0,0,0,0,-1,1399,1485,0,0
182,-461,0,0,0,0,0,0,0,0,0,-1,1406,1485,0,0
189,-461,0,0,0,0,0,0,0,0,0,-1,1413,1485,0,0
196,-461,0,0,0,0,0,0,0,0,0,-1,1420,1485,0,0
203,-461,0,0,0,0,0,0,0,0,0,-1,1427,1485,0,0
210,-461,0,0,0,0,0,0,0,0,0,-1,1434,1485,0,0
217,-461,0,0,0,0,0,0,0,0,0,-1,1441,1485,0,0
224,-461,0,0,0,0,0,0,0,0,0,-1,1448,1485,0,0
231,-461,0,0,0,0,0,0,0,0,0,-1,1455,1485,0,0
238,-461,0,0,0,0,0,0,0,0,0,-1,1462,1485,0,0
245,-461,0,0,0,0,0,0,0,0,0,-1,1469,1485,0,0
252,-461,0,0,0,0,0,0,0,0,0,-1,1476,1485,0,0
259,-461,0,0,0,0,0,0,0,0,0,-1,1483,1485,0,0
266,-461,0,0,0,0,0,0,0,0,0,-1,1490,1485,0,0
273,-461,0,0,0,0,0,0,0,0,0,-1,1497,1485,0,0
280,-461,0,0,0,0,0,0,0,0,0,-1,1504,1485,0,0
287,-461,0,0,0,0,0,0,0,0,0,-1,1511,1485,0,0
294,-461,0,0,0,0,0,0,0,0,0,-1,1518,1485,0,0
301,-461,0,0,0,0,0,0,0,0,0,-1,1525,1485,0,0
308,-461,0,0,0,0,0,0,0,0,0,-1,1532,1485,0,0
315,-461,0,0,0,0,0,0,0,0,0,-1,1539,1485,0,0
322,-461,0,0,0,0,0,0,0,0,0,-1,1546,1485,0,0
329,-461,0,0,0,0,0,0,0,0,0,-1,1553,1485,0,0
336,-461,0,0,0,0,0,0,0,0,0,-1,1560,1485,0,0
343,-461,0,0,0,0,0,0,0,0,0,-1,1567,1485,0,0
350,-461,0,0,0,0,0,0,0,0,0,-1,1574,1485,0,0
357,-461,0,0,0,0,0,0,0,0,0,-1,1581,1485,0,0
364,-461,0,0,0,0,0,0,0,0,0,-1,1588,1485,0,0
371,-461,0,0,0,0,0,0,0,0,0,-1,1595,1485,0,0
378,-461,0,0,0,0,0,0,0,0,0,-1,1602,1485,0,0
385,-461,0,0,0,0,0,0,0,0,0,-1,1609,1485,0,0
392,-461,0,0,0,0,0,0,0,0,0,-1,1616,1485,0,0
399,-461,0,0,0,0,0,0,0,0,0,-1,1623,1485,0,0
406,-461,0,0,0,0,0,0,0,0,0,-1,1630,1485,0,0
413,-461,0,0,0,0,0,0,0,0,0,-1,1637,1485,0,0
420,-461,0,0,0,0,0,0,0,0,0,-1,1644,1485,0,0
427,-461,0,0,0,0,0,0,0,0,0,-1,1651,1485,0,0
434,-461,0,0,0,0,0,0,0,0,0,-1,1658,1485,0,0
441,-461,0,0,0,0,0,0,0,0,0,-1,1665,1485,0,0
448,-461,0,0,0,0,0,0,0,0,0,-1,1672,1485,0,0
455,-461,0,0,0,0,0,0,0,0,0,-1,1679,1485,0,0
462,-461,0,0,0,0,0,0,0,0,0,-1,1686,1485,0,0
469,-461,0,0,0,0,0,0,0,0,0,-1,1693,1485,0,0
476,-461,14.1906,0.690552,0,0,0,0,0,0,0,-1,1700,1485,14.1906,-0.690525
483,-461,10.6361,3.09106,0,0,0,0,0,0,0,-1,1707,1485,10.6361,-3.091
490,-461,17.9972,0.665894,0,0,0,0,0,0,0,-1,1714,1485,17.9972,-0.665876
497,-461,16.6829,1.87732,0,0,0,0,0,0,0,-1,1721,1485,16.6828,-1.87736
504,-461,15.3884,3.09216,0,0,0,0,0,0,0,-1,1728,1485,15.3885,-3.09212
511,-461,15.4292,14.3512,0,0,0,0,0,0,0,-1,1735,1485,15.4292,-14.3512
518,-461,14.8081,10.0085,0,0,0,0,0,0,0,-1,1742,1485,14.8081,-10.0086
525,-461,14.0022,10.8033,0,0,0,0,0,0,0,-1,1749,1485,14.0022,-10.8033
532,-461,17.1704,14.077,0,0,0,0,0,0,0,-1,1756,1485,17.1704,-14.077
539,-461,17.0229,14.7386,0,0,0,0,0,0,0,-1,1763,1485,17.0229,-14.7387
546,-461,16.2106,14.1372,0,0,0,0,0,0,0,-1,1770,1485,16.2106,-14.1372
553,-461,25.9354,24.2889,0,0,0,0,0,0,0,-1,1777,1485,25.9354,-24.2889
560,-461,37.0342,37.0962,0,0,0,0,0,0,0,-1,1784,1485,37.0342,-37.0962
567,-461,46.5439,50.9802,0,0,0,0,0,0,0,-1,1791,1485,46.5439,-50.9803
574,-461,79.6387,107.946,0,0,0,0,0,0,0,-1,1798,1485,79.6387,-107.946
581,-461,122.884,109.024,0,0,0,0,0,0,0,-1,1805,1485,122.884,-109.024
588,-461,135.488,103.758,0,0,0,0,0,0,0,-1,1812,1485,135.488,-103.758
595,-461,134.462,100.09,0.000753307,0.0224651,0.0391881,0.0522732,-0.0290548,0.92052,0.0475883,0.0246682,1819,1485,134.462,-100.09
602,-461,133.522,96.4883,0.00320688,0.0252268,0.0405204,0.0562063,-0.0277727,0.918052,0.049403,0.0155923,1826,1485,133.522,-96.4883
609,-461,132.643,93.0055,0.00566059,0.0285068,0.0417236,0.0603428,-0.0261754,0.919014,0.0512332,0.019252,1833,1485,132.643,-93.0055
616,-461,131.735,89.535,0.00790335,0.0323423,0.0428595,0.0646901,-0.0244445,0.924266,0.0531817,0.0197277,1840,1485,131.735,-89.535
623,-461,130.984,86.0586,0.0100524,0.036691,0.0438626,0.069212,-0.0224686,0.932804,0.0551774,0.0253353,1847,1485,130.984,-86.0586
630,-461,130.147,82.6672,0.0121335,0.0414878,0.0448428,0.0739943,-0.0203729,0.943555,0.0573399,0.0267399,1854,1485,130.147,-82.6672
637,-461,129.157,79.215,0.0140909,0.0467334,0.0457602,0.0789959,-0.0181716,0.9567,0.059651,0.0322877,1861,1485,129.157,-79.2149
644,-461,128.243,75.6801,0,0,0,0,0,0,0,-1,1868,1485,128.243,-75.6801
651,-461,35.6685,23.4559,0,0,0,0,0,0,0,-1,1875,1485,35.6684,-23.456
658,-461,16.8987,10.1084,0,0,0,0,0,0,0,-1,1882,1485,16.8986,-10.1084
665,-461,17.2638,9.81384,0,0,0,0,0,0,0,-1,1889,1485,17.2638,-9.81385
672,-461,14.4877,6.89429,0,0,0,0,0,0,0,-1,1896,1485,14.4876,-6.89431
679,-461,10.0535,2.16321,0,0,0,0,0,0,0,-1,1903,1485,10.0535,-2.16317
686,-461,10.8195,1.84192,0,0,0,0,0,0,0,-1,1910,1485,10.8194,-1.84195
693,-461,0,0,0,0,0,0,0,0,0,-1,1917,1485,0,0
700,-461,0,0,0,0,0,0,0,0,0,-1,1924,1485,0,0
707,-461,0,0,0,0,0,0,0,0,0,-1,1931,1485,0,0
714,-461,0,0,0,0,0,0,0,0,0,-1,1938,1485,0,0
721,-461,0,0,0,0,0,0,0,0,0,-1,1945,1485,0,0
728,-461,0,0,0,0,0,0,0,0,0,-1,1952,1485,0,0
735,-461,0,0,0,0,0,0,0,0,0,-1,1959,1485,0,0
742,-461,0,0,0,0,0,0,0,0,0,-1,1966,1485,0,0
749,-461,0,0,0,0,0,0,0,0,0,-1,1973,1485,0,0
756,-461,0,0,0,0,0,0,0,0,0,-1,1980,1485,0,0
763,-461,0,0,0,0,0,0,0,0,0,-1,1987,1485,0,0
770,-461,0,0,0,0,0,0,0,0,0,-1,1994,1485,0,0
777,-461,0,0,0,0,0,0,0,0,0,-1,2001,1485,0,0
784,-461,0,0,0,0,0,0,0,0,0,-1,2008,1485,0,0
791,-461,0,0,0,0,0,0,0,0,0,-1,2015,1485,0,0
798,-461,0,0,0,0,0,0,0,0,0,-1,2022,1485,0,0
805,-461,0,0,0,0,0,0,0,0,0,-1,2029,1485,0,0
812,-461,0,0,0,0,0,0,0,0,0,-1,2036,1485,0,0
-700,-468,0,0,0,0,0,0,0,0,0,-1,524,1492,0,0
-693,-468,0,0,0,0,0,0,0,0,0,-1,531,1492,0,0
-686,-468,0,0,0,0,0,0,0,0,0,-1,538,1492,0,0
-679,-468,0,0,0,0,0,0,0,0,0,-1,545,1492,0,0
-672,-468,0,0,0,0,0,0,0,0,0,-1,552,1492,0,0
-665,-468,0,0,0,0,0,0,0,0,0,-1,559,1492,0,0
-658,-468,0,0,0,0,0,0,0,0,0,-1,566,1492,0,0
-651,-468,0,0,0,0,0,0,0,0,0,-1,573,1492,0,0
-644,-468,0,0,0,0,0,0,0,0,0,-1,580,1492,0,0
-637,-468,0,0,0,0,0,0,0,0,0,-1,587,1492,0,0
-630,-468,0,0,0,0,0,0,0,0,0,-1,594,1492,0,0
-623,-468,0,0,0,0,0,0,0,0,0,-1,601,1492,0,0
-616,-468,0,0,0,0,0,0,0,0,0,-1,608,1492,0,0
-609,-468,0,0,0,0,0,0,0,0,0,-1,615,1492,0,0
-602,-468,0,0,0,0,0,0,0,0,0,-1,622,1492,0,0
-595,-468,0,0,0,0,0,0,0,0,0,-1,629,1492,0,0
-588,-468,0,0,0,0,0,0,0,0,0,-1,636,1492,0,0
-581,-468,0,0,0,0,0,0,0,0,0,-1,643,1492,0,0
-574,-468,0,0,0,0,0,0,0,0,0,-1,650,1492,0,0
-567,-468,-11.2603,1.8042,0,0,0,0,0,0,0,-1,657,1492,-11.2603,-1.80424
-560,-468,-8.77441,2.23694,0,0,0,0,0,0,0,-1,664,1492,-8.77443,-2.23692
-553,-468,-5.94061,9.26318,0,0,0,0,0,0,0,-1,671,1492,-5.94062,-9.26322
-546,-468,-10.47,5.43237,0,0,0,0,0,0,0,-1,678,1492,-10.47,-5.4324
-539,-468,-10.2468,5.45203,0,0,0,0,0,0,0,-1,685,1492,-10.2468,-5.45197
-532,-468,-8.39795,6.02783,0,0,0,0,0,0,0,-1,692,1492,-8.39793,-6.02789
-525,-468,-6.59332,7.15405,0,0,0,0,0,0,0,-1,699,1492,-6.59331,-7.15411
-518,-468,-6.33588,8.65393,0,0,0,0,0,0,0,-1,706,1492,-6.33588,-8.65397
-511,-468,-8.05835,13.8282,0,0,0,0,0,0,0,-1,713,1492,-8.05835,-13.8283
-504,-468,-33.1901,45.7253,0,0,0,0,0,0,0,-1,720,1492,-33.1901,-45.7253
-497,-468,-116.625,79.0739,0,0,0,0,0,0,0,-1,727,1492,-116.625,-79.0738
-490,-468,-117.335,82.4827,0.0290914,0.0595533,-0.0573064,0.103618,-0.0149736,-0.915286,0.0745728,0.0202328,734,1492,-117.335,-82.4827
-483,-468,-118.07,85.9189,0.026077,0.0539472,-0.0573644,0.0990448,-0.0190206,-0.904551,0.0731985,0.0189722,741,1492,-118.07,-85.9189
-476,-468,-118.899,89.4154,0.0226391,0.048233,-0.0568666,0.0937247,-0.0228526,-0.896072,0.0713315,0.0186465,748,1492,-118.899,-89.4154
-469,-468,-119.684,93.0195,0.0189125,0.0425626,-0.0558167,0.0877931,-0.026318,-0.889782,0.0689954,0.0267337,755,1492,-119.684,-93.0195
-462,-468,-120.343,96.7815,0,0,0,0,0,0,0,-1,762,1492,-120.343,-96.7815
-455,-468,-120.956,100.545,0,0,0,0,0,0,0,-1,769,1492,-120.956,-100.545
-448,-468,-122.204,103.999,0,0,0,0,0,0,0,-1,776,1492,-122.204,-103.999
-441,-468,-113.377,108.627,0,0,0,0,0,0,0,-1,783,1492,-113.377,-108.627
-434,-468,-77.047,111.463,0,0,0,0,0,0,0,-1,790,1492,-77.047,-111.463
-427,-468,-25.4199,50.1571,0,0,0,0,0,0,0,-1,797,1492,-25.4199,-50.1571
-420,-468,-7.57581,22.0538,0,0,0,0,0,0,0,-1,804,1492,-7.57582,-22.0538
-413,-468,-5.30328,17.3519,0,0,0,0,0,0,0,-1,811,1492,-5.30329,-17.352
-406,-468,-2.2356,9.396,0,0,0,0,0,0,0,-1,818,1492,-2.2356,-9.396
-399,-468,-0.940369,8.1936,0,0,0,0,0,0,0,-1,825,1492,-0.940365,-8.19357
-392,-468,-0.35144,8.14673,0,0,0,0,0,0,0,-1,832,1492,-0.351449,-8.14674
-385,-468,0.465759,5.35864,0,0,0,0,0,0,0,-1,839,1492,0.465732,-5.35864
-378,-468,1.99835,3.25391,0,0,0,0,0,0,0,-1,846,1492,1.99837,-3.2539
-371,-468,-0.31842,3.1532,0,0,0,0,0,0,0,-1,853,1492,-0.318441,-3.15324
-364,-468,-0.966736,2.14563,0,0,0,0,0,0,0,-1,860,1492,-0.966735,-2.14557
-357,-468,-3.06787,3.22742,0,0,0,0,0,0,0,-1,867,1492,-3.06784,-3.2274
-350,-468,-3.18658,4.12659,0,0,0,0,0,0,0,-1,874,1492,-3.18659,-4.12658
-343,-468,0,0,0,0,0,0,0,0,0,-1,881,1492,0,0
-336,-468,0,0,0,0,0,0,0,0,0,-1,888,1492,0,0
-329,-468,0,0,0,0,0,0,0,0,0,-1,895,1492,0,0
-322,-468,0,0,0,0,0,0,0,0,0,-1,902,1492,0,0
-315,-468,0,0,0,0,0,0,0,0,0,-1,909,1492,0,0
-308,-468,0,0,0,0,0,0,0,0,0,-1,916,1492,0,0
-301,-468,0,0,0,0,0,0,0,0,0,-1,923,1492,0,0
-294,-468,0,0,0,0,0,0,0,0,0,-1,930,1492,0,0
-287,-468,0,0,0,0,0,0,0,0,0,-1,937,1492,0,0
-280,-468,0,0,0,0,0,0,0,0,0,-1,944,1492,0,0
-273,-468,0,0,0,0,0,0,0,0,0,-1,951,1492,0,0
-266,-468,0,0,0,0,0,0,0,0,0,-1,958,1492,0,0
-259,-468,0,0,0,0,0,0,0,0,0,-1,965,1492,0,0
-252,-468,0,0,0,0,0,0,0,0,0,-1,972,1492,0,0
-245,-468,0,0,0,0,0,0,0,0,0,-1,979,1492,0,0
-238,-468,0,0,0,0,0,0,0,0,0,-1,986,1492,0,0
-231,-468,0,0,0,0,0,0,0,0,0,-1,993,1492,0,0
-224,-468,0,0,0,0,0,0,0,0,0,-1,1000,1492,0,0
-217,-468,0,0,0,0,0,0,0,0,0,-1,1007,1492,0,0
-210,-468,0,0,0,0,0,0,0,0,0,-1,1014,1492,0,0
-203,-468,0,0,0,0,0,0,0,0,0,-1,1021,1492,0,0
-196,-468,0,0,0,0,0,0,0,0,0,-1,1028,1492,0,0
-189,-468,0,0,0,0,0,0,0,0,0,-1,1035,1492,0,0
-182,-468,0,0,0,0,0,0,0,0,0,-1,1042,1492,0,0
-175,-468,0,0,0,0,0,0,0,0,0,-1,1049,1492,0,0
-168,-468,0,0,0,0,0,0,0,0,0,-1,1056,1492,0,0
-161,-468,0,0,0,0,0,0,0,0,0,-1,1063,1492,0,0
-154,-468,0,0,0,0,0,0,0,0,0,-1,1070,1492,0,0
-147,-468,0,0,0,0,0,0,0,0,0,-1,1077,1492,0,0
-140,-468,0,0,0,0,0,0,0,0,0,-1,1084,1492,0,0
-133,-468,0,0,0,0,0,0,0,0,0,-1,1091,1492,0,0
-126,-468,0,0,0,0,0,0,0,0,0,-1,1098,1492,0,0
-119,-468,0,0,0,0,0,0,0,0,0,-1,1105,1492,0,0
-112,-468,0,0,0,0,0,0,0,0,0,-1,1112,1492,0,0
-105,-468,0,0,0,0,0,0,0,0,0,-1,1119,1492,0,0
-98,-468,0,0,0,0,0,0,0,0,0,-1,1126,1492,0,0
-91,-468,0,0,0,0,0,0,0,0,0,-1,1133,1492,0,0
-84,-468,0,0,0,0,0,0,0,0,0,-1,1140,1492,0,0
-77,-468,0,0,0,0,0,0,0,0,0,-1,1147,1492,0,0
-70,-468,0,0,0,0,0,0,0,0,0,-1,1154,1492,0,0
-63,-468,0,0,0,0,0,0,0,0,0,-1,1161,1492,0,0
-56,-468,0,0,0,0,0,0,0,0,0,-1,1168,1492,0,0
-49,-468,0,0,0,0,0,0,0,0,0,-1,1175,1492,0,0
-42,-468,0,0,0,0,0,0,0,0,0,-1,1182,1492,0,0
-35,-468,0,0,0,0,0,0,0,0,0,-1,1189,1492,0,0
-28,-468,0,0,0,0,0,0,0,0,0,-1,1196,1492,0,0
-21,-468,0,0,0,0,0,0,0,0,0,-1,1203,1492,0,0
-14,-468,0,0,0,0,0,0,0,0,0,-1,1210,1492,0,0
-7,-468,0,0,0,0,0,0,0,0,0,-1,1217,1492,0,0
0,-468,0,0,0,0,0,0,0,0,0,-1,1224,1492,0,0
7,-468,0,0,0,0,0,0,0,0,0,-1,1231,1492,0,0
14,-468,0,0,0,0,0,0,0,0,0,-1,1238,1492,0,0
21,-468,0,0,0,0,0,0,0,0,0,-1,1245,1492,0,0
28,-468,0,0,0,0,0,0,0,0,0,-1,1252,1492,0,0
35,-468,0,0,0,0,0,0,0,0,0,-1,1259,1492,0,0
42,-468,0,0,0,0,0,0,0,0,0,-1,1266,1492,0,0
49,-468,0,0,0,0,0,0,0,0,0,-1,1273,1492,0,0
56,-468,0,0,0,0,0,0,0,0,0,-1,1280,1492,0,0
63,-468,0,0,0,0,0,0,0,0,0,-1,1287,1492,0,0
70,-468,0,0,0,0,0,0,0,0,0,-1,1294,1492,0,0
77,-468,0,0,0,0,0,0,0,0,0,-1,1301,1492,0,0
84,-468,0,0,0,0,0,0,0,0,0,-1,1308,1492,0,0
91,-468,0,0,0,0,0,0,0,0,0,-1,1315,1492,0,0
98,-468,0,0,0,0,0,0,0,0,0,-1,1322,1492,0,0
105,-468,0,0,0,0,0,0,0,0,0,-1,1329,1492,0,0
112,-468,0,0,0,0,0,0,0,0,0,-1,1336,1492,0,0
119,-468,0,0,0,0,0,0,0,0,0,-1,1343,1492,0,0
126,-468,0,0,0,0,0,0,0,0,0,-1,1350,1492,0,0
133,-468,0,0,0,0,0,0,0,0,0,-1,1357,1492,0,0
140,-468,0,0,0,0,0,0,0,0,0,-1,1364,1492,0,0
147,-468,0,0,0,0,0,0,0,0,0,-1,1371,1492,0,0
154,-468,0,0,0,0,0,0,0,0,0,-1,1378,1492,0,0
161,-468,0,0,0,0,0,0,0,0,0,-1,1385,1492,0,0
168,-468,0,0,0,0,0,0,0,0,0,-1,1392,1492,0,0
175,-468,0,0,0,0,0,0,0,0,0,-1,1399,1492,0,0
182,-468,0,0,0,0,0,0,0,0,0,-1,1406,1492,0,0
189,-468,0,0,0,0,0,0,0,0,0,-1,1413,1492,0,0
196,-468,0,0,0,0,0,0,0,0,0,-1,1420,1492,0,0
203,-468,0,0,0,0,0,0,0,0,0,-1,1427,1492,0,0
210,-468,0,0,0,0,0,0,0,0,0,-1,1434,1492,0,0
217,-468,0,0,0,0,0,0,0,0,0,-1,1441,1492,0,0
224,-468,0,0,0,0,0,0,0,0,0,-1,1448,1492,0,0
231,-468,0,0,0,0,0,0,0,0,0,-1,1455,1492,0,0
238,-468,0,0,0,0,0,0,0,0,0,-1,1462,1492,0,0
245,-468,0,0,0,0,0,0,0,0,0,-1,1469,1492,0,0
252,-468,0,0,0,0,0,0,0,0,0,-1,1476,1492,0,0
259,-468,0,0,0,0,0,0,0,0,0,-1,1483,1492,0,0
266,-468,0,0,0,0,0,0,0,0,0,-1,1490,1492,0,0
273,-468,0,0,0,0,0,0,0,0,0,-1,1497,1492,0,0
280,-468,0,0,0,0,0,0,0,0,0,-1,1504,1492,0,0
287,-468,0,0,0,0,0,0,0,0,0,-1,1511,1492,0,0
294,-468,0,0,0,0,0,0,0,0,0,-1,1518,1492,0,0
301,-468,0,0,0,0,0,0,0,0,0,-1,1525,1492,0,0
308,-468,0,0,0,0,0,0,0,0,0,-1,1532,1492,0,0
315,-468,0,0,0,0,0,0,0,0,0,-1,1539,1492,0,0
322,-468,0,0,0,0,0,0,0,0,0,-1,1546,1492,0,0
329,-468,0,0,0,0,0,0,0,0,0,-1,1553,1492,0,0
336,-468,0,0,0,0,0,0,0,0,0,-1,1560,1492,0,0
343,-468,0,0,0,0,0,0,0,0,0,-1,1567,1492,0,0
350,-468,0,0,0,0,0,0,0,0,0,-1,1574,1492,0,0
357,-468,0,0,0,0,0,0,0,0,0,-1,1581,1492,0,0
364,-468,0,0,0,0,0,0,0,0,0,-1,1588,1492,0,0
371,-468,0,0,0,0,0,0,0,0,0,-1,1595,1492,0,0
378,-468,0,0,0,0,0,0,0,0,0,-1,1602,1492,0,0
385,-468,0,0,0,0,0,0,0,0,0,-1,1609,1492,0,0
392,-468,0,0,0,0,0,0,0,0,0,-1,1616,1492,0,0
399,-468,0,0,0,0,0,0,0,0,0,-1,1623,1492,0,0
406,-468,0,0,0,0,0,0,0,0,0,-1,1630,1492,0,0
413,-468,0,0,0,0,0,0,0,0,0,-1,1637,1492,0,0
420,-468,0,0,0,0,0,0,0,0,0,-1,1644,1492,0,0
427,-468,0,0,0,0,0,0,0,0,0,-1,1651,1492,0,0
434,-468,0,0,0,0,0,0,0,0,0,-1,1658,1492,0,0
441,-468,0,0,0,0,0,0,0,0,0,-1,1665,1492,0,0
448,-468,0,0,0,0,0,0,0,0,0,-1,1672,1492,0,0
455,-468,0,0,0,0,0,0,0,0,0,-1,1679,1492,0,0
462,-468,0,0,0,0,0,0,0,0,0,-1,1686,1492,0,0
469,-468,15.6879,1.2677,0,0,0,0,0,0,0,-1,1693,1492,15.6879,-1.26772
476,-468,14.9318,1.61865,0,0,0,0,0,0,0,-1,1700,1492,14.9318,-1.61869
483,-468,11.265,4.64795,0,0,0,0,0,0,0,-1,1707,1492,11.265,-4.64798
490,-468,12.1316,3.51624,0,0,0,0,0,0,0,-1,1714,1492,12.1316,-3.51628
497,-468,16.5355,3.14587,0,0,0,0,0,0,0,-1,1721,1492,16.5356,-3.14583
504,-468,15.0642,4.10437,0,0,0,0,0,0,0,-1,1728,1492,15.0643,-4.10431
511,-468,15.6877,9.4801,0,0,0,0,0,0,0,-1,1735,1492,15.6878,-9.48007
518,-468,13.759,11.0887,0,0,0,0,0,0,0,-1,1742,1492,13.759,-11.0887
525,-468,16.6531,14.2238,0,0,0,0,0,0,0,-1,1749,1492,16.653,-14.2237
532,-468,16.9696,15.9641,0,0,0,0,0,0,0,-1,1756,1492,16.9696,-15.9641
539,-468,21.5308,20.7551,0,0,0,0,0,0,0,-1,1763,1492,21.5308,-20.7551
546,-468,25.5796,25.0283,0,0,0,0,0,0,0,-1,1770,1492,25.5796,-25.0284
553,-468,31.8678,31.5677,0,0,0,0,0,0,0,-1,1777,1492,31.8678,-31.5678
560,-468,44.905,52.734,0,0,0,0,0,0,0,-1,1784,1492,44.905,-52.7341
567,-468,121.816,114.02,0,0,0,0,0,0,0,-1,1791,1492,121.816,-114.02
574,-468,110.437,114.191,0,0,0,0,0,0,0,-1,1798,1492,110.437,-114.191
581,-468,132.434,108.77,0,0,0,0,0,0,0,-1,1805,1492,132.434,-108.769
588,-468,131.4,105.021,0.00200458,0.021621,0.0392472,0.052267,-0.0286414,0.907845,0.0473717,0.0226096,1812,1492,131.4,-105.021
595,-468,130.386,101.26,0.00435425,0.0243682,0.0408311,0.0564007,-0.0276783,0.905571,0.0494782,0.0146892,1819,1492,130.386,-101.26
602,-468,129.44,97.5986,0.0065997,0.0274767,0.0422362,0.0605452,-0.0264688,0.906543,0.0515057,0.0144336,1826,1492,129.44,-97.5986
609,-468,128.504,94.078,0.0088312,0.0309768,0.0434782,0.0647701,-0.024962,0.910085,0.0534792,0.0178676,1833,1492,128.504,-94.078
616,-468,127.614,90.5284,0.0108981,0.0348819,0.0446078,0.0690816,-0.0233016,0.916709,0.0554775,0.01732,1840,1492,127.614,-90.5284
623,-468,126.84,87.0867,0.0129555,0.0392367,0.0455862,0.0735384,-0.0213463,0.925723,0.0574779,0.0208864,1847,1492,126.84,-87.0867
630,-468,126.065,83.6588,0.0149129,0.0439321,0.0465892,0.0782189,-0.0193738,0.936356,0.0596618,0.0259377,1854,1492,126.065,-83.6589
637,-468,125.018,80.0494,0,0,0,0,0,0,0,-1,1861,1492,125.018,-80.0494
644,-468,46.2697,41.3138,0,0,0,0,0,0,0,-1,1868,1492,46.2696,-41.3138
651,-468,33.613,23.1599,0,0,0,0,0,0,0,-1,1875,1492,33.613,-23.1599
658,-468,16.4969,10.0774,0,0,0,0,0,0,0,-1,1882,1492,16.497,-10.0774
665,-468,15.4673,8.59546,0,0,0,0,0,0,0,-1,1889,1492,15.4672,-8.59548
672,-468,9.96814,3.61133,0,0,0,0,0,0,0,-1,1896,1492,9.96817,-3.61139
679,-468,11.2191,1.91968,0,0,0,0,0,0,0,-1,1903,1492,11.2191,-1.91965
686,-468,11.9252,1.42285,0,0,0,0,0,0,0,-1,1910,1492,11.9252,-1.42291
693,-468,0,0,0,0,0,0,0,0,0,-1,1917,1492,0,0
700,-468,0,0,0,0,0,0,0,0,0,-1,1924,1492,0,0
707,-468,0,0,0,0,0,0,0,0,0,-1,1931,1492,0,0
714,-468,0,0,0,0,0,0,0,0,0,-1,1938,1492,0,0
721,-468,0,0,0,0,0,0,0,0,0,-1,1945,1492,0,0
728,-468,0,0,0,0,0,0,0,0,0,-1,1952,1492,0,0
735,-468,0,0,0,0,0,0,0,0,0,-1,1959,1492,0,0
742,-468,0,0,0,0,0,0,0,0,0,-1,1966,1492,0,0
749,-468,0,0,0,0,0,0,0,0,0,-1,1973,1492,0,0
756,-468,0,0,0,0,0,0,0,0,0,-1,1980,1492,0,0
763,-468,0,0,0,0,0,0,0,0,0,-1,1987,1492,0,0
770,-468,0,0,0,0,0,0,0,0,0,-1,1994,1492,0,0
777,-468,0,0,0,0,0,0,0,0,0,-1,2001,1492,0,0
784,-468,0,0,0,0,0,0,0,0,0,-1,2008,1492,0,0
791,-468,0,0,0,0,0,0,0,0,0,-1,2015,1492,0,0
798,-468,0,0,0,0,0,0,0,0,0,-1,2022,1492,0,0
805,-468,0,0,0,0,0,0,0,0,0,-1,2029,1492,0,0
812,-468,0,0,0,0,0,0,0,0,0,-1,2036,1492,0,0
-700,-475,0,0,0,0,0,0,0,0,0,-1,524,1499,0,0
-693,-475,0,0,0,0,0,0,0,0,0,-1,531,1499,0,0
-686,-475,0,0,0,0,0,0,0,0,0,-1,538,1499,0,0
-679,-475,0,0,0,0,0,0,0,0,0,-1,545,1499,0,0
-672,-475,0,0,0,0,0,0,0,0,0,-1,552,1499,0,0
-665,-475,0,0,0,0,0,0,0,0,0,-1,559,1499,0,0
-658,-475,0,0,0,0,0,0,0,0,0,-1,566,1499,0,0
-651,-475,0,0,0,0,0,0,0,0,0,-1,573,1499,0,0
-644,-475,0,0,0,0,0,0,0,0,0,-1,580,1499,0,0
-637,-475,0,0,0,0,0,0,0,0,0,-1,587,1499,0,0
-630,-475,0,0,0,0,0,0,0,0,0,-1,594,1499,0,0
-623,-475,0,0,0,0,0,0,0,0,0,-1,601,1499,0,0
-616,-475,0,0,0,0,0,0,0,0,0,-1,608,1499,0,0
-609,-475,0,0,0,0,0,0,0,0,0,-1,615,1499,0,0
-602,-475,0,0,0,0,0,0,0,0,0,-1,622,1499,0,0
-595,-475,0,0,0,0,0,0,0,0,0,-1,629,1499,0,0
-588,-475,0,0,0,0,0,0,0,0,0,-1,636,1499,0,0
-581,-475,0,0,0,0,0,0,0,0,0,-1,643,1499,0,0
-574,-475,0,0,0,0,0,0,0,0,0,-1,650,1499,0,0
-567,-475,0,0,0,0,0,0,0,0,0,-1,657,1499,0,0
-560,-475,-9.42731,9.29517,0,0,0,0,0,0,0,-1,664,1499,-9.42731,-9.29519
-553,-475,-8.15131,8.78369,0,0,0,0,0,0,0,-1,671,1499,-8.15131,-8.78367
-546,-475,-8.41254,8.20654,0,0,0,0,0,0,0,-1,678,1499,-8.41251,-8.20655
-539,-475,-4.7345,4.17419,0,0,0,0,0,0,0,-1,685,1499,-4.73449,-4.17418
-532,-475,-7.07379,4.25024,0,0,0,0,0,0,0,-1,692,1499,-7.07378,-4.2503
-525,-475,-6.13147,5.82166,0,0,0,0,0,0,0,-1,699,1499,-6.1315,-5.8216
-518,-475,-7.28784,9.31506,0,0,0,0,0,0,0,-1,706,1499,-7.28782,-9.315
-511,-475,-6.84851,12.4244,0,0,0,0,0,0,0,-1,713,1499,-6.84851,-12.4244
-504,-475,-8.80957,16.0863,0,0,0,0,0,0,0,-1,720,1499,-8.80954,-16.0862
-497,-475,-112.398,79.4536,0,0,0,0,0,0,0,-1,727,1499,-112.398,-79.4536
-490,-475,-113.041,83.2748,0.0366061,0.0642079,-0.0590653,0.111063,-0.0102492,-0.900167,0.0776842,0.0434817,734,1499,-113.041,-83.2747
-483,-475,-113.771,86.9484,0.03316,0.0581555,-0.0597111,0.106663,-0.0153472,-0.888561,0.0767375,0.0195311,741,1499,-113.771,-86.9484
-476,-475,-114.683,90.5033,0.0293591,0.0520584,-0.059635,0.101414,-0.0199967,-0.879433,0.0751669,0.0238877,748,1499,-114.683,-90.5033
-469,-475,-115.182,94.2197,0.0253541,0.0460186,-0.0587925,0.0953798,-0.0240071,-0.872381,0.0729184,0.0462852,755,1499,-115.182,-94.2197
-462,-475,-115.373,98.1489,0,0,0,0,0,0,0,-1,762,1499,-115.373,-98.149
-455,-475,-116.987,101.514,0.0179422,0.0341864,-0.0550642,0.0817243,-0.0295957,-0.858622,0.0665782,0.0403274,769,1499,-116.987,-101.514
-448,-475,-117.904,105.27,0.0145169,0.0283412,-0.0522781,0.0741621,-0.031304,-0.851126,0.0625443,0.0301958,776,1499,-117.903,-105.27
-441,-475,-119.051,109.156,0,0,0,0,0,0,0,-1,783,1499,-119.051,-109.155
-434,-475,-110.702,113.821,0,0,0,0,0,0,0,-1,790,1499,-110.702,-113.821
-427,-475,-74.6897,115.516,0,0,0,0,0,0,0,-1,797,1499,-74.6897,-115.516
-420,-475,-14.302,33.4558,0,0,0,0,0,0,0,-1,804,1499,-14.302,-33.4559
-413,-475,-6.46777,20.8481,0,0,0,0,0,0,0,-1,811,1499,-6.46776,-20.8481
-406,-475,-2.56116,12.4956,0,0,0,0,0,0,0,-1,818,1499,-2.56116,-12.4956
-399,-475,-1.39667,6.1615,0,0,0,0,0,0,0,-1,825,1499,-1.39664,-6.16155
-392,-475,0.217163,8.61389,0,0,0,0,0,0,0,-1,832,1499,0.217167,-8.6139
-385,-475,1.18372,2.73999,0,0,0,0,0,0,0,-1,839,1499,1.18372,-2.73995
-378,-475,1.31409,2.90149,0,0,0,0,0,0,0,-1,846,1499,1.31411,-2.90151
-371,-475,2.3476,3.31116,0,0,0,0,0,0,0,-1,853,1499,2.34761,-3.31121
-364,-475,1.04462,9.05823,0,0,0,0,0,0,0,-1,860,1499,1.04461,-9.05825
-357,-475,-0.262756,7.97205,0,0,0,0,0,0,0,-1,867,1499,-0.262784,-7.97205
-350,-475,-5.16473,-1.27881,0,0,0,0,0,0,0,-1,874,1499,-5.16474,1.27884
-343,-475,-5.76923,-0.530518,0,0,0,0,0,0,0,-1,881,1499,-5.76923,0.530526
-336,-475,0,0,0,0,0,0,0,0,0,-1,888,1499,0,0
-329,-475,0,0,0,0,0,0,0,0,0,-1,895,1499,0,0
-322,-475,0,0,0,0,0,0,0,0,0,-1,902,1499,0,0
-315,-475,0,0,0,0,0,0,0,0,0,-1,909,1499,0,0
-308,-475,0,0,0,0,0,0,0,0,0,-1,916,1499,0,0
-301,-475,0,0,0,0,0,0,0,0,0,-1,923,1499,0,0
-294,-475,0,0,0,0,0,0,0,0,0,-1,930,1499,0,0
-287,-475,0,0,0,0,0,0,0,0,0,-1,937,1499,0,0
-280,-475,0,0,0,0,0,0,0,0,0,-1,944,1499,0,0
-273,-475,0,0,0,0,0,0,0,0,0,-1,951,1499,0,0
-266,-475,0,0,0,0,0,0,0,0,0,-1,958,1499,0,0
-259,-475,0,0,0,0,0,0,0,0,0,-1,965,1499,0,0
-252,-475,0,0,0,0,0,0,0,0,0,-1,972,1499,0,0
-245,-475,0,0,0,0,0,0,0,0,0,-1,979,1499,0,0
-238,-475,0,0,0,0,0,0,0,0,0,-1,986,1499,0,0
-231,-475,0,0,0,0,0,0,0,0,0,-1,993,1499,0,0
-224,-475,0,0,0,0,0,0,0,0,0,-1,1000,1499,0,0
-217,-475,0,0,0,0,0,0,0,0,0,-1,1007,1499,0,0
-210,-475,0,0,0,0,0,0,0,0,0,-1,1014,1499,0,0
-203,-475,0,0,0,0,0,0,0,0,0,-1,1021,1499,0,0
-196,-475,0,0,0,0,0,0,0,0,0,-1,1028,1499,0,0
-189,-475,0,0,0,0,0,0,0,0,0,-1,1035,1499,0,0
-182,-475,0,0,0,0,0,0,0,0,0,-1,1042,1499,0,0
-175,-475,0,0,0,0,0,0,0,0,0,-1,1049,1499,0,0
-168,-475,0,0,0,0,0,0,0,0,0,-1,1056,1499,0,0
-161,-475,0,0,0,0,0,0,0,0,0,-1,1063,1499,0,0
-154,-475,0,0,0,0,0,0,0,0,0,-1,1070,1499,0,0
-147,-475,0,0,0,0,0,0,0,0,0,-1,1077,1499,0,0
-140,-475,0,0,0,0,0,0,0,0,0,-1,1084,1499,0,0
-133,-475,0,0,0,0,0,0,0,0,0,-1,1091,1499,0,0
-126,-475,0,0,0,0,0,0,0,0,0,-1,1098,1499,0,0
-119,-475,0,0,0,0,0,0,0,0,0,-1,1105,1499,0,0
-112,-475,0,0,0,0,0,0,0,0,0,-1,1112,1499,0,0
-105,-475,0,0,0,0,0,0,0,0,0,-1,1119,1499,0,0
-98,-475,0,0,0,0,0,0,0,0,0,-1,1126,1499,0,0
-91,-475,0,0,0,0,0,0,0,0,0,-1,1133,1499,0,0
-84,-475,0,0,0,0,0,0,0,0,0,-1,1140,1499,0,0
-77,-475,0,0,0,0,0,0,0,0,0,-1,1147,1499,0,0
-70,-475,0,0,0,0,0,0,0,0,0,-1,1154,1499,0,0
-63,-475,0,0,0,0,0,0,0,0,0,-1,1161,1499,0,0
-56,-475,0,0,0,0,0,0,0,0,0,-1,1168,1499,0,0
-49,-475,0,0,0,0,0,0,0,0,0,-1,1175,1499,0,0
-42,-475,0,0,0,0,0,0,0,0,0,-1,1182,1499,0,0
-35,-475,0,0,0,0,0,0,0,0,0,-1,1189,1499,0,0
-28,-475,0,0,0,0,0,0,0,0,0,-1,1196,1499,0,0
-21,-475,0,0,0,0,0,0,0,0,0,-1,1203,1499,0,0
-14,-475,0,0,0,0,0,0,0,0,0,-1,1210,1499,0,0
-7,-475,0,0,0,0,0,0,0,0,0,-1,1217,1499,0,0
0,-475,0,0,0,0,0,0,0,0,0,-1,1224,1499,0,0
7,-475,0,0,0,0,0,0,0,0,0,-1,1231,1499,0,0
14,-475,0,0,0,0,0,0,0,0,0,-1,1238,1499,0,0
21,-475,0,0,0,0,0,0,0,0,0,-1,1245,1499,0,0
28,-475,0,0,0,0,0,0,0,0,0,-1,1252,1499,0,0
35,-475,0,0,0,0,0,0,0,0,0,-1,1259,1499,0,0
42,-475,0,0,0,0,0,0,0,0,0,-1,1266,1499,0,0
49,-475,0,0,0,0,0,0,0,0,0,-1,1273,1499,0,0
56,-475,0,0,0,0,0,0,0,0,0,-1,1280,1499,0,0
63,-475,0,0,0,0,0,0,0,0,0,-1,1287,1499,0,0
70,-475,0,0,0,0,0,0,0,0,0,-1,1294,1499,0,0
77,-475,0,0,0,0,0,0,0,0,0,-1,1301,1499,0,0
84,-475,0,0,0,0,0,0,0,0,0,-1,1308,1499,0,0
91,-475,0,0,0,0,0,0,0,0,0,-1,1315,1499,0,0
98,-475,0,0,0,0,0,0,0,0,0,-1,1322,1499,0,0
105,-475,0,0,0,0,0,0,0,0,0,-1,1329,1499,0,0
112,-475,0,0,0,0,0,0,0,0,0,-1,1336,1499,0,0
119,-475,0,0,0,0,0,0,0,0,0,-1,1343,1499,0,0
126,-475,0,0,0,0,0,0,0,0,0,-1,1350,1499,0,0
133,-475,0,0,0,0,0,0,0,0,0,-1,1357,1499,0,0
140,-475,0,0,0,0,0,0,0,0,0,-1,1364,1499,0,0
147,-475,0,0,0,0,0,0,0,0,0,-1,1371,1499,0,0
154,-475,0,0,0,0,0,0,0,0,0,-1,1378,1499,0,0
161,-475,0,0,0,0,0,0,0,0,0,-1,1385,1499,0,0
168,-475,0,0,0,0,0,0,0,0,0,-1,1392,1499,0,0
175,-475,0,0,0,0,0,0,0,0,0,-1,1399,1499,0,0
182,-475,0,0,0,0,0,0,0,0,0,-1,1406,1499,0,0
189,-475,0,0,0,0,0,0,0,0,0,-1,1413,1499,0,0
196,-475,0,0,0,0,0,0,0,0,0,-1,1420,1499,0,0
203,-475,0,0,0,0,0,0,0,0,0,-1,1427,1499,0,0
210,-475,0,0,0,0,0,0,0,0,0,-1,1434,1499,0,0
217,-475,0,0,0,0,0,0,0,0,0,-1,1441,1499,0,0
224,-475,0,0,0,0,0,0,0,0,0,-1,1448,1499,0,0
231,-475,0,0,0,0,0,0,0,0,0,-1,1455,1499,0,0
238,-475,0,0,0,0,0,0,0,0,0,-1,1462,1499,0,0
245,-475,0,0,0,0,0,0,0,0,0,-1,1469,1499,0,0
252,-475,0,0,0,0,0,0,0,0,0,-1,1476,1499,0,0
259,-475,0,0,0,0,0,0,0,0,0,-1,1483,1499,0,0
266,-475,0,0,0,0,0,0,0,0,0,-1,1490,1499,0,0
273,-475,0,0,0,0,0,0,0,0,0,-1,1497,1499,0,0
280,-475,0,0,0,0,0,0,0,0,0,-1,1504,1499,0,0
287,-475,0,0,0,0,0,0,0,0,0,-1,1511,1499,0,0
294,-475,0,0,0,0,0,0,0,0,0,-1,1518,1499,0,0
301,-475,0,0,0,0,0,0,0,0,0,-1,1525,1499,0,0
308,-475,0,0,0,0,0,0,0,0,0,-1,1532,1499,0,0
315,-475,0,0,0,0,0,0,0,0,0,-1,1539,1499,0,0
322,-475,0,0,0,0,0,0,0,0,0,-1,1546,1499,0,0
329,-475,0,0,0,0,0,0,0,0,0,-1,1553,1499,0,0
336,-475,0,0,0,0,0,0,0,0,0,-1,1560,1499,0,0
343,-475,0,0,0,0,0,0,0,0,0,-1,1567,1499,0,0
350,-475,0,0,0,0,0,0,0,0,0,-1,1574,1499,0,0
357,-475,0,0,0,0,0,0,0,0,0,-1,1581,1499,0,0
364,-475,0,0,0,0,0,0,0,0,0,-1,1588,1499,0,0
371,-475,0,0,0,0,0,0,0,0,0,-1,1595,1499,0,0
378,-475,0,0,0,0,0,0,0,0,0,-1,1602,1499,0,0
385,-475,0,0,0,0,0,0,0,0,0,-1,1609,1499,0,0
392,-475,0,0,0,0,0,0,0,0,0,-1,1616,1499,0,0
399,-475,0,0,0,0,0,0,0,0,0,-1,1623,1499,0,0
406,-475,0,0,0,0,0,0,0,0,0,-1,1630,1499,0,0
413,-475,0,0,0,0,0,0,0,0,0,-1,1637,1499,0,0
420,-475,0,0,0,0,0,0,0,0,0,-1,1644,1499,0,0
427,-475,0,0,0,0,0,0,0,0,0,-1,1651,1499,0,0
434,-475,0,0,0,0,0,0,0,0,0,-1,1658,1499,0,0
441,-475,0,0,0,0,0,0,0,0,0,-1,1665,1499,0,0
448,-475,0,0,0,0,0,0,0,0,0,-1,1672,1499,0,0
455,-475,0,0,0,0,0,0,0,0,0,-1,1679,1499,0,0
462,-475,12.6372,0.275391,0,0,0,0,0,0,0,-1,1686,1499,12.6372,-0.27536
469,-475,15.6437,2.28296,0,0,0,0,0,0,0,-1,1693,1499,15.6437,-2.28293
476,-475,15.3302,2.71436,0,0,0,0,0,0,0,-1,1700,1499,15.3303,-2.7143
483,-475,10.7461,5.91479,0,0,0,0,0,0,0,-1,1707,1499,10.7461,-5.91476
490,-475,11.9305,4.4364,0,0,0,0,0,0,0,-1,1714,1499,11.9305,-4.43644
497,-475,15.3451,4.3479,0,0,0,0,0,0,0,-1,1721,1499,15.3451,-4.34789
504,-475,16.9646,7.71265,0,0,0,0,0,0,0,-1,1728,1499,16.9646,-7.71265
511,-475,18.941,12.7572,0,0,0,0,0,0,0,-1,1735,1499,18.941,-12.7572
518,-475,17.0021,13.8564,0,0,0,0,0,0,0,-1,1742,1499,17.0021,-13.8564
525,-475,17.5637,15.2103,0,0,0,0,0,0,0,-1,1749,1499,17.5637,-15.2103
532,-475,20.8623,20.8413,0,0,0,0,0,0,0,-1,1756,1499,20.8623,-20.8413
539,-475,20.5494,20.8519,0,0,0,0,0,0,0,-1,1763,1499,20.5494,-20.852
546,-475,20.4524,19.8799,0,0,0,0,0,0,0,-1,1770,1499,20.4524,-19.8798
553,-475,34.2676,37.0474,0,0,0,0,0,0,0,-1,1777,1499,34.2675,-37.0474
560,-475,118.788,121.08,0,0,0,0,0,0,0,-1,1784,1499,118.789,-121.08
567,-475,117.597,116.495,0,0,0,0,0,0,0,-1,1791,1499,117.597,-116.495
574,-475,129.642,112.275,0,0,0,0,0,0,0,-1,1798,1499,129.642,-112.275
581,-475,128.264,109.599,0,0,0,0,0,0,0,-1,1805,1499,128.264,-109.599
588,-475,127.192,106.165,0.00593903,0.0229749,0.0411395,0.056469,-0.027555,0.887481,0.0494595,0.0276891,1812,1499,127.192,-106.165
595,-475,126.212,102.406,0.00808969,0.0260933,0.0426423,0.0606736,-0.0264906,0.889421,0.0515981,0.0181417,1819,1499,126.212,-102.406
602,-475,125.278,98.7716,0.0101201,0.0295154,0.0439884,0.0648625,-0.0252269,0.893892,0.0536649,0.0179933,1826,1499,125.278,-98.7716
609,-475,124.321,95.2092,0.0120923,0.0332458,0.0451947,0.0690849,-0.0237467,0.900342,0.0556863,0.0177277,1833,1499,124.321,-95.2092
616,-475,123.44,91.6097,0.0139373,0.0373041,0.0462644,0.0733376,-0.0220962,0.90908,0.0576854,0.0192143,1840,1499,123.44,-91.6098
623,-475,122.641,87.9796,0.015887,0.0417965,0.047207,0.0777941,-0.0201105,0.919314,0.059706,0.0306148,1847,1499,122.641,-87.9797
630,-475,122.007,84.3275,0,0,0,0,0,0,0,-1,1854,1499,122.007,-84.3275
637,-475,47.9917,48.1105,0,0,0,0,0,0,0,-1,1861,1499,47.9917,-48.1105
644,-475,32.8739,24.0623,0,0,0,0,0,0,0,-1,1868,1499,32.8739,-24.0622
651,-475,29.886,19.2421,0,0,0,0,0,0,0,-1,1875,1499,29.886,-19.242
658,-475,14.6708,8.80322,0,0,0,0,0,0,0,-1,1882,1499,14.6708,-8.8032
665,-475,9.33435,5.43335,0,0,0,0,0,0,0,-1,1889,1499,9.33439,-5.43332
672,-475,9.38635,1.10474,0,0,0,0,0,0,0,-1,1896,1499,9.38629,-1.10475
679,-475,12.2594,1.31079,0,0,0,0,0,0,0,-1,1903,1499,12.2594,-1.31077
686,-475,0,0,0,0,0,0,0,0,0,-1,1910,1499,0,0
693,-475,0,0,0,0,0,0,0,0,0,-1,1917,1499,0,0
700,-475,0,0,0,0,0,0,0,0,0,-1,1924,1499,0,0
707,-475,0,0,0,0,0,0,0,0,0,-1,1931,1499,0,0
714,-475,0,0,0,0,0,0,0,0,0,-1,1938,1499,0,0
721,-475,0,0,0,0,0,0,0,0,0,-1,1945,1499,0,0
728,-475,0,0,0,0,0,0,0,0,0,-1,1952,1499,0,0
735,-475,0,0,0,0,0,0,0,0,0,-1,1959,1499,0,0
742,-475,0,0,0,0,0,0,0,0,0,-1,1966,1499,0,0
749,-475,0,0,0,0,0,0,0,0,0,-1,1973,1499,0,0
756,-475,0,0,0,0,0,0,0,0,0,-1,1980,1499,0,0
763,-475,0,0,0,0,0,0,0,0,0,-1,1987,1499,0,0
770,-475,0,0,0,0,0,0,0,0,0,-1,1994,1499,0,0
777,-475,0,0,0,0,0,0,0,0,0,-1,2001,1499,0,0
784,-475,0,0,0,0,0,0,0,0,0,-1,2008,1499,0,0
791,-475,0,0,0,0,0,0,0,0,0,-1,2015,1499,0,0
798,-475,0,0,0,0,0,0,0,0,0,-1,2022,1499,0,0
805,-475,0,0,0,0,0,0,0,0,0,-1,2029,1499,0,0
812,-475,0,0,0,0,0,0,0,0,0,-1,2036,1499,0,0
-700,-482,0,0,0,0,0,0,0,0,0,-1,524,1506,0,0
-693,-482,0,0,0,0,0,0,0,0,0,-1,531,1506,0,0
-686,-482,0,0,0,0,0,0,0,0,0,-1,538,1506,0,0
-679,-482,0,0,0,0,0,0,0,0,0,-1,545,1506,0,0
-672,-482,0,0,0,0,0,0,0,0,0,-1,552,1506,0,0
-665,-482,0,0,0,0,0,0,0,0,0,-1,559,1506,0,0
-658,-482,0,0,0,0,0,0,0,0,0,-1,566,1506,0,0
-651,-482,0,0,0,0,0,0,0,0,0,-1,573,1506,0,0
-644,-482,0,0,0,0,0,0,0,0,0,-1,580,1506,0,0
-637,-482,0,0,0,0,0,0,0,0,0,-1,587,1506,0,0
-630,-482,0,0,0,0,0,0,0,0,0,-1,594,1506,0,0
-623,-482,0,0,0,0,0,0,0,0,0,-1,601,1506,0,0
-616,-482,0,0,0,0,0,0,0,0,0,-1,608,1506,0,0
-609,-482,0,0,0,0,0,0,0,0,0,-1,615,1506,0,0
-602,-482,0,0,0,0,0,0,0,0,0,-1,622,1506,0,0
-595,-482,0,0,0,0,0,0,0,0,0,-1,629,1506,0,0
-588,-482,0,0,0,0,0,0,0,0,0,-1,636,1506,0,0
-581,-482,0,0,0,0,0,0,0,0,0,-1,643,1506,0,0
-574,-482,0,0,0,0,0,0,0,0,0,-1,650,1506,0,0
-567,-482,0,0,0,0,0,0,0,0,0,-1,657,1506,0,0
-560,-482,0,0,0,0,0,0,0,0,0,-1,664,1506,0,0
-553,-482,-9.06055,9.34314,0,0,0,0,0,0,0,-1,671,1506,-9.06056,-9.34312
-546,-482,-4.08624,8.34241,0,0,0,0,0,0,0,-1,678,1506,-4.08624,-8.3424
-539,-482,-4.29877,2.73499,0,0,0,0,0,0,0,-1,685,1506,-4.29879,-2.73494
-532,-482,-3.63611,4.23987,0,0,0,0,0,0,0,-1,692,1506,-3.63609,-4.23983
-525,-482,-6.19116,5.24927,0,0,0,0,0,0,0,-1,699,1506,-6.19117,-5.24927
-518,-482,-5.92957,6.39807,0,0,0,0,0,0,0,-1,706,1506,-5.92958,-6.39806
-511,-482,-7.74634,11.9137,0,0,0,0,0,0,0,-1,713,1506,-7.74633,-11.9137
-504,-482,-6.42358,13.4211,0,0,0,0,0,0,0,-1,720,1506,-6.42356,-13.4212
-497,-482,-8.86163,17.7108,0,0,0,0,0,0,0,-1,727,1506,-8.86163,-17.7109
-490,-482,-108.679,83.9366,0,0,0,0,0,0,0,-1,734,1506,-108.679,-83.9367
-483,-482,-109.488,87.9495,0.04036,0.0623336,-0.0621814,0.114491,-0.0117977,-0.87284,0.0805487,0.0261985,741,1506,-109.488,-87.9494
-476,-482,-110.263,91.6547,0.0363373,0.0559786,-0.0623813,0.109308,-0.0169917,-0.863472,0.0791459,0.0224865,748,1506,-110.263,-91.6547
-469,-482,-110.555,95.3033,0.0321505,0.0497113,-0.0616837,0.103236,-0.0213746,-0.856096,0.0769452,0.0475304,755,1506,-110.555,-95.3034
-462,-482,-110.689,98.9983,0,0,0,0,0,0,0,-1,762,1506,-110.689,-98.9983
-455,-482,-112.524,102.639,0.0246005,0.0375799,-0.0583416,0.0897916,-0.0276113,-0.840789,0.0708807,0.0268207,769,1506,-112.524,-102.639
-448,-482,-113.543,106.542,0.0210578,0.0315624,-0.0558281,0.0823848,-0.0297645,-0.8323,0.0670831,0.0226275,776,1506,-113.543,-106.543
-441,-482,-114.616,110.454,0.0171069,0.0254255,-0.0527895,0.0742193,-0.0316869,-0.824712,0.0627671,0.0309557,783,1506,-114.616,-110.454
-434,-482,-115.719,114.084,0,0,0,0,0,0,0,-1,790,1506,-115.719,-114.084
-427,-482,-105.281,118.589,0,0,0,0,0,0,0,-1,797,1506,-105.281,-118.589
-420,-482,-77.7971,122.158,0,0,0,0,0,0,0,-1,804,1506,-77.7971,-122.158
-413,-482,-6.56415,22.3163,0,0,0,0,0,0,0,-1,811,1506,-6.56417,-22.3163
-406,-482,-2.51373,12.7556,0,0,0,0,0,0,0,-1,818,1506,-2.51376,-12.7556
-399,-482,-1.3822,9.22595,0,0,0,0,0,0,0,-1,825,1506,-1.38221,-9.22598
-392,-482,-1.06836,9.22729,0,0,0,0,0,0,0,-1,832,1506,-1.06835,-9.2273
-385,-482,0.0647583,8.90649,0,0,0,0,0,0,0,-1,839,1506,0.0647778,-8.90644
-378,-482,0.215698,5.96948,0,0,0,0,0,0,0,-1,846,1506,0.215681,-5.9695
-371,-482,-0.10907,8.10437,0,0,0,0,0,0,0,-1,853,1506,-0.109063,-8.10433
-364,-482,-0.154968,10.5032,0,0,0,0,0,0,0,-1,860,1506,-0.154976,-10.5032
-357,-482,2.14807,4.60144,0,0,0,0,0,0,0,-1,867,1506,2.14807,-4.60144
-350,-482,-7.5813,-1.45935,0,0,0,0,0,0,0,-1,874,1506,-7.58133,1.45937
-343,-482,-5.80902,1.81226,0,0,0,0,0,0,0,-1,881,1506,-5.80903,-1.81221
-336,-482,2.52826,-0.390503,0,0,0,0,0,0,0,-1,888,1506,2.52826,0.390456
-329,-482,0,0,0,0,0,0,0,0,0,-1,895,1506,0,0
-322,-482,0,0,0,0,0,0,0,0,0,-1,902,1506,0,0
-315,-482,0,0,0,0,0,0,0,0,0,-1,909,1506,0,0
-308,-482,0,0,0,0,0,0,0,0,0,-1,916,1506,0,0
-301,-482,0,0,0,0,0,0,0,0,0,-1,923,1506,0,0
-294,-482,0,0,0,0,0,0,0,0,0,-1,930,1506,0,0
-287,-482,0,0,0,0,0,0,0,0,0,-1,937,1506,0,0
-280,-482,0,0,0,0,0,0,0,0,0,-1,944,1506,0,0
-273,-482,0,0,0,0,0,0,0,0,0,-1,951,1506,0,0
-266,-482,0,0,0,0,0,0,0,0,0,-1,958,1506,0,0
-259,-482,0,0,0,0,0,0,0,0,0,-1,965,1506,0,0
-252,-482,0,0,0,0,0,0,0,0,0,-1,972,1506,0,0
-245,-482,0,0,0,0,0,0,0,0,0,-1,979,1506,0,0
-238,-482,0,0,0,0,0,0,0,0,0,-1,986,1506,0,0
-231,-482,0,0,0,0,0,0,0,0,0,-1,993,1506,0,0
-224,-482,0,0,0,0,0,0,0,0,0,-1,1000,1506,0,0
-217,-482,0,0,0,0,0,0,0,0,0,-1,1007,1506,0,0
-210,-482,0,0,0,0,0,0,0,0,0,-1,1014,1506,0,0
-203,-482,0,0,0,0,0,0,0,0,0,-1,1021,1506,0,0
-196,-482,0,0,0,0,0,0,0,0,0,-1,1028,1506,0,0
-189,-482,0,0,0,0,0,0,0,0,0,-1,1035,1506,0,0
-182,-482,0,0,0,0,0,0,0,0,0,-1,1042,1506,0,0
-175,-482,0,0,0,0,0,0,0,0,0,-1,1049,1506,0,0
-168,-482,0,0,0,0,0,0,0,0,0,-1,1056,1506,0,0
-161,-482,0,0,0,0,0,0,0,0,0,-1,1063,1506,0,0
-154,-482,0,0,0,0,0,0,0,0,0,-1,1070,1506,0,0
-147,-482,0,0,0,0,0,0,0,0,0,-1,1077,1506,0,0
-140,-482,0,0,0,0,0,0,0,0,0,-1,1084,1506,0,0
-133,-482,0,0,0,0,0,0,0,0,0,-1,1091,1506,0,0
-126,-482,0,0,0,0,0,0,0,0,0,-1,1098,1506,0,0
-119,-482,0,0,0,0,0,0,0,0,0,-1,1105,1506,0,0
-112,-482,0,0,0,0,0,0,0,0,0,-1,1112,1506,0,0
-105,-482,0,0,0,0,0,0,0,0,0,-1,1119,1506,0,0
-98,-482,0,0,0,0,0,0,0,0,0,-1,1126,1506,0,0
-91,-482,0,0,0,0,0,0,0,0,0,-1,1133,1506,0,0
-84,-482,0,0,0,0,0,0,0,0,0,-1,1140,1506,0,0
-77,-482,0,0,0,0,0,0,0,0,0,-1,1147,1506,0,0
-70,-482,0,0,0,0,0,0,0,0,0,-1,1154,1506,0,0
-63,-482,0,0,0,0,0,0,0,0,0,-1,1161,1506,0,0
-56,-482,0,0,0,0,0,0,0,0,0,-1,1168,1506,0,0
-49,-482,0,0,0,0,0,0,0,0,0,-1,1175,1506,0,0
-42,-482,0,0,0,0,0,0,0,0,0,-1,1182,1506,0,0
-35,-482,0,0,0,0,0,0,0,0,0,-1,1189,1506,0,0
-28,-482,0,0,0,0,0,0,0,0,0,-1,1196,1506,0,0
-21,-482,0,0,0,0,0,0,0,0,0,-1,1203,1506,0,0
-14,-482,0,0,0,0,0,0,0,0,0,-1,1210,1506,0,0
-7,-482,0,0,0,0,0,0,0,0,0,-1,1217,1506,0,0
0,-482,0,0,0,0,0,0,0,0,0,-1,1224,1506,0,0
7,-482,0,0,0,0,0,0,0,0,0,-1,1231,1506,0,0
14,-482,0,0,0,0,0,0,0,0,0,-1,1238,1506,0,0
21,-482,0,0,0,0,0,0,0,0,0,-1,1245,1506,0,0
28,-482,0,0,0,0,0,0,0,0,0,-1,1252,1506,0,0
35,-482,0,0,0,0,0,0,0,0,0,-1,1259,1506,0,0
42,-482,0,0,0,0,0,0,0,0,0,-1,1266,1506,0,0
49,-482,0,0,0,0,0,0,0,0,0,-1,1273,1506,0,0
56,-482,0,0,0,0,0,0,0,0,0,-1,1280,1506,0,0
63,-482,0,0,0,0,0,0,0,0,0,-1,1287,1506,0,0
70,-482,0,0,0,0,0,0,0,0,0,-1,1294,1506,0,0
77,-482,0,0,0,0,0,0,0,0,0,-1,1301,1506,0,0
84,-482,0,0,0,0,0,0,0,0,0,-1,1308,1506,0,0
91,-482,0,0,0,0,0,0,0,0,0,-1,1315,1506,0,0
98,-482,0,0,0,0,0,0,0,0,0,-1,1322,1506,0,0
105,-482,0,0,0,0,0,0,0,0,0,-1,1329,1506,0,0
112,-482,0,0,0,0,0,0,0,0,0,-1,1336,1506,0,0
119,-482,0,0,0,0,0,0,0,0,0,-1,1343,1506,0,0
126,-482,0,0,0,0,0,0,0,0,0,-1,1350,1506,0,0
133,-482,0,0,0,0,0,0,0,0,0,-1,1357,1506,0,0
140,-482,0,0,0,0,0,0,0,0,0,-1,1364,1506,0,0
147,-482,0,0,0,0,0,0,0,0,0,-1,1371,1506,0,0
154,-482,0,0,0,0,0,0,0,0,0,-1,1378,1506,0,0
161,-482,0,0,0,0,0,0,0,0,0,-1,1385,1506,0,0
168,-482,0,0,0,0,0,0,0,0,0,-1,1392,1506,0,0
175,-482,0,0,0,0,0,0,0,0,0,-1,1399,1506,0,0
182,-482,0,0,0,0,0,0,0,0,0,-1,1406,1506,0,0
189,-482,0,0,0,0,0,0,0,0,0,-1,1413,1506,0,0
196,-482,0,0,0,0,0,0,0,0,0,-1,1420,1506,0,0
203,-482,0,0,0,0,0,0,0,0,0,-1,1427,1506,0,0
210,-482,0,0,0,0,0,0,0,0,0,-1,1434,1506,0,0
217,-482,0,0,0,0,0,0,0,0,0,-1,1441,1506,0,0
224,-482,0,0,0,0,0,0,0,0,0,-1,1448,1506,0,0
231,-482,0,0,0,0,0,0,0,0,0,-1,1455,1506,0,0
238,-482,0,0,0,0,0,0,0,0,0,-1,1462,1506,0,0
245,-482,0,0,0,0,0,0,0,0,0,-1,1469,1506,0,0
252,-482,0,0,0,0,0,0,0,0,0,-1,1476,1506,0,0
259,-482,0,0,0,0,0,0,0,0,0,-1,1483,1506,0,0
266,-482,0,0,0,0,0,0,0,0,0,-1,1490,1506,0,0
273,-482,0,0,0,0,0,0,0,0,0,-1,1497,1506,0,0
280,-482,0,0,0,0,0,0,0,0,0,-1,1504,1506,0,0
287,-482,0,0,0,0,0,0,0,0,0,-1,1511,1506,0,0
294,-482,0,0,0,0,0,0,0,0,0,-1,1518,1506,0,0
301,-482,0,0,0,0,0,0,0,0,0,-1,1525,1506,0,0
308,-482,0,0,0,0,0,0,0,0,0,-1,1532,1506,0,0
315,-482,0,0,0,0,0,0,0,0,0,-1,1539,1506,0,0
322,-482,0,0,0,0,0,0,0,0,0,-1,1546,1506,0,0
329,-482,0,0,0,0,0,0,0,0,0,-1,1553,1506,0,0
336,-482,0,0,0,0,0,0,0,0,0,-1,1560,1506,0,0
343,-482,0,0,0,0,0,0,0,0,0,-1,1567,1506,0,0
350,-482,0,0,0,0,0,0,0,0,0,-1,1574,1506,0,0
357,-482,0,0,0,0,0,0,0,0,0,-1,1581,1506,0,0
364,-482,0,0,0,0,0,0,0,0,0,-1,1588,1506,0,0
371,-482,0,0,0,0,0,0,0,0,0,-1,1595,1506,0,0
378,-482,0,0,0,0,0,0,0,0,0,-1,1602,1506,0,0
385,-482,0,0,0,0,0,0,0,0,0,-1,1609,1506,0,0
392,-482,0,0,0,0,0,0,0,0,0,-1,1616,1506,0,0
399,-482,0,0,0,0,0,0,0,0,0,-1,1623,1506,0,0
406,-482,0,0,0,0,0,0,0,0,0,-1,1630,1506,0,0
413,-482,0,0,0,0,0,0,0,0,0,-1,1637,1506,0,0
420,-482,0,0,0,0,0,0,0,0,0,-1,1644,1506,0,0
427,-482,0,0,0,0,0,0,0,0,0,-1,1651,1506,0,0
434,-482,0,0,0,0,0,0,0,0,0,-1,1658,1506,0,0
441,-482,0,0,0,0,0,0,0,0,0,-1,1665,1506,0,0
448,-482,4.85205,1.55896,0,0,0,0,0,0,0,-1,1672,1506,4.85201,-1.5589
455,-482,12.4122,1.09729,0,0,0,0,0,0,0,-1,1679,1506,12.4122,-1.09734
462,-482,15.0673,3.13135,0,0,0,0,0,0,0,-1,1686,1506,15.0672,-3.13134
469,-482,15.3793,3.46301,0,0,0,0,0,0,0,-1,1693,1506,15.3793,-3.46307
476,-482,8.69751,9.18738,0,0,0,0,0,0,0,-1,1700,1506,8.69753,-9.18739
483,-482,10.0902,7.17432,0,0,0,0,0,0,0,-1,1707,1506,10.0902,-7.1743
490,-482,11.6289,5.4928,0,0,0,0,0,0,0,-1,1714,1506,11.6289,-5.49283
497,-482,15.9539,7.40222,0,0,0,0,0,0,0,-1,1721,1506,15.9538,-7.40219
504,-482,20.4233,12.006,0,0,0,0,0,0,0,-1,1728,1506,20.4233,-12.006
511,-482,18.4937,12.9175,0,0,0,0,0,0,0,-1,1735,1506,18.4936,-12.9174
518,-482,16.6002,13.9679,0,0,0,0,0,0,0,-1,1742,1506,16.6003,-13.9679
525,-482,18.495,15.9618,0,0,0,0,0,0,0,-1,1749,1506,18.495,-15.9618
532,-482,19.9375,21.0775,0,0,0,0,0,0,0,-1,1756,1506,19.9375,-21.0775
539,-482,20.2291,20.5577,0,0,0,0,0,0,0,-1,1763,1506,20.2291,-20.5578
546,-482,50.8713,71.6311,0,0,0,0,0,0,0,-1,1770,1506,50.8714,-71.6312
553,-482,85.2159,128.813,0,0,0,0,0,0,0,-1,1777,1506,85.2159,-128.813
560,-482,121.364,123.185,0,0,0,0,0,0,0,-1,1784,1506,121.364,-123.185
567,-482,126.547,117.785,0,0,0,0,0,0,0,-1,1791,1506,126.547,-117.785
574,-482,125.21,114.412,0,0,0,0,0,0,0,-1,1798,1506,125.21,-114.412
581,-482,123.873,111.038,0,0,0,0,0,0,0,-1,1805,1506,123.873,-111.038
588,-482,122.991,107.37,0.00977577,0.0246869,0.0430752,0.060947,-0.0264844,0.87109,0.0517692,0.0250767,1812,1506,122.991,-107.37
595,-482,121.985,103.596,0.0117867,0.028027,0.0445081,0.0651496,-0.0253359,0.875627,0.0539011,0.0262356,1819,1506,121.985,-103.596
602,-482,121.063,99.9364,0.0137052,0.0316226,0.0458078,0.0693395,-0.0240118,0.881965,0.0559742,0.0285559,1826,1506,121.063,-99.9363
609,-482,120.083,96.3339,0.015481,0.0354639,0.0469949,0.0735177,-0.0225728,0.890142,0.0580187,0.0221511,1833,1506,120.083,-96.3339
616,-482,119.173,92.7593,0.0172432,0.0396307,0.0479311,0.0776578,-0.0207839,0.900112,0.0599137,0.020405,1840,1506,119.173,-92.7593
623,-482,118.325,89.1388,0,0,0,0,0,0,0,-1,1847,1506,118.325,-89.1388
630,-482,48.3544,54.5571,0,0,0,0,0,0,0,-1,1854,1506,48.3544,-54.5571
637,-482,32.1249,25.1031,0,0,0,0,0,0,0,-1,1861,1506,32.1249,-25.1031
644,-482,29.0146,20.1443,0,0,0,0,0,0,0,-1,1868,1506,29.0147,-20.1442
651,-482,4.03845,7.05273,0,0,0,0,0,0,0,-1,1875,1506,4.03843,-7.05279
658,-482,10.0278,5.87903,0,0,0,0,0,0,0,-1,1882,1506,10.0279,-5.87902
665,-482,8.15198,3.22229,0,0,0,0,0,0,0,-1,1889,1506,8.15199,-3.22232
672,-482,9.87415,1.3147,0,0,0,0,0,0,0,-1,1896,1506,9.87416,-1.31473
679,-482,0,0,0,0,0,0,0,0,0,-1,1903,1506,0,0
686,-482,0,0,0,0,0,0,0,0,0,-1,1910,1506,0,0
693,-482,0,0,0,0,0,0,0,0,0,-1,1917,1506,0,0
700,-482,0,0,0,0,0,0,0,0,0,-1,1924,1506,0,0
707,-482,0,0,0,0,0,0,0,0,0,-1,1931,1506,0,0
714,-482,0,0,0,0,0,0,0,0,0,-1,1938,1506,0,0
721,-482,0,0,0,0,0,0,0,0,0,-1,1945,1506,0,0
728,-482,0,0,0,0,0,0,0,0,0,-1,1952,1506,0,0
735,-482,0,0,0,0,0,0,0,0,0,-1,1959,1506,0,0
742,-482,0,0,0,0,0,0,0,0,0,-1,1966,1506,0,0
749,-482,0,0,0,0,0,0,0,0,0,-1,1973,1506,0,0
756,-482,0,0,0,0,0,0,0,0,0,-1,1980,1506,0,0
763,-482,0,0,0,0,0,0,0,0,0,-1,1987,1506,0,0
770,-482,0,0,0,0,0,0,0,0,0,-1,1994,1506,0,0
777,-482,0,0,0,0,0,0,0,0,0,-1,2001,1506,0,0
784,-482,0,0,0,0,0,0,0,0,0,-1,2008,1506,0,0
791,-482,0,0,0,0,0,0,0,0,0,-1,2015,1506,0,0
798,-482,0,0,0,0,0,0,0,0,0,-1,2022,1506,0,0
805,-482,0,0,0,0,0,0,0,0,0,-1,2029,1506,0,0
812,-482,0,0,0,0,0,0,0,0,0,-1,2036,1506,0,0
-700,-489,0,0,0,0,0,0,0,0,0,-1,524,1513,0,0
-693,-489,0,0,0,0,0,0,0,0,0,-1,531,1513,0,0
-686,-489,0,0,0,0,0,0,0,0,0,-1,538,1513,0,0
-679,-489,0,0,0,0,0,0,0,0,0,-1,545,1513,0,0
-672,-489,0,0,0,0,0,0,0,0,0,-1,552,1513,0,0
-665,-489,0,0,0,0,0,0,0,0,0,-1,559,1513,0,0
-658,-489,0,0,0,0,0,0,0,0,0,-1,566,1513,0,0
-651,-489,0,0,0,0,0,0,0,0,0,-1,573,1513,0,0
-644,-489,0,0,0,0,0,0,0,0,0,-1,580,1513,0,0
-637,-489,0,0,0,0,0,0,0,0,0,-1,587,1513,0,0
-630,-489,0,0,0,0,0,0,0,0,0,-1,594,1513,0,0
-623,-489,0,0,0,0,0,0,0,0,0,-1,601,1513,0,0
-616,-489,0,0,0,0,0,0,0,0,0,-1,608,1513,0,0
-609,-489,0,0,0,0,0,0,0,0,0,-1,615,1513,0,0
-602,-489,0,0,0,0,0,0,0,0,0,-1,622,1513,0,0
-595,-489,0,0,0,0,0,0,0,0,0,-1,629,1513,0,0
-588,-489,0,0,0,0,0,0,0,0,0,-1,636,1513,0,0
-581,-489,0,0,0,0,0,0,0,0,0,-1,643,1513,0,0
-574,-489,0,0,0,0,0,0,0,0,0,-1,650,1513,0,0
-567,-489,0,0,0,0,0,0,0,0,0,-1,657,1513,0,0
-560,-489,0,0,0,0,0,0,0,0,0,-1,664,1513,0,0
-553,-489,-9.42206,8.5116,0,0,0,0,0,0,0,-1,671,1513,-9.42205,-8.51158
-546,-489,-7.80951,8.18506,0,0,0,0,0,0,0,-1,678,1513,-7.8095,-8.18503
-539,-489,-3.06879,2.82349,0,0,0,0,0,0,0,-1,685,1513,-3.06881,-2.82354
-532,-489,-3.14215,2.5835,0,0,0,0,0,0,0,-1,692,1513,-3.14213,-2.58353
-525,-489,-2.604,4.06274,0,0,0,0,0,0,0,-1,699,1513,-2.60399,-4.06274
-518,-489,-5.43774,7.48059,0,0,0,0,0,0,0,-1,706,1513,-5.43777,-7.48058
-511,-489,-7.52856,10.951,0,0,0,0,0,0,0,-1,713,1513,-7.52857,-10.951
-504,-489,-7.17352,12.8508,0,0,0,0,0,0,0,-1,720,1513,-7.17352,-12.8508
-497,-489,-5.51678,14.9254,0,0,0,0,0,0,0,-1,727,1513,-5.51681,-14.9254
-490,-489,-15.6675,29.208,0,0,0,0,0,0,0,-1,734,1513,-15.6675,-29.208
-483,-489,-105.345,88.9204,0,0,0,0,0,0,0,-1,741,1513,-105.345,-88.9204
-476,-489,-105.707,92.6652,0.0427645,0.0598694,-0.0652408,0.117116,-0.014482,-0.850572,0.0833252,0.0248589,748,1513,-105.707,-92.6652
-469,-489,-106.156,96.3993,0.0384669,0.0535544,-0.0647151,0.111164,-0.0191427,-0.84342,0.0812454,0.0337,755,1513,-106.156,-96.3993
-462,-489,-107.052,100.262,0.0344139,0.0473656,-0.0635976,0.104816,-0.0230368,-0.836136,0.0786886,0.0450153,762,1513,-107.052,-100.262
-455,-489,-108.166,104.022,0.0308504,0.0412126,-0.0618981,0.098146,-0.026083,-0.827153,0.0756392,0.0367163,769,1513,-108.166,-104.022
-448,-489,-109.125,107.782,0.027373,0.0349585,-0.059744,0.09103,-0.0286986,-0.817097,0.0721804,0.0305245,776,1513,-109.125,-107.782
-441,-489,-109.891,111.711,0.0233076,0.0285766,-0.0572325,0.0832352,-0.031351,-0.808398,0.0683797,0.0245631,783,1513,-109.891,-111.711
-434,-489,-110.899,115.593,0.0192941,0.0221174,-0.0543228,0.0750468,-0.0336353,-0.798388,0.0642481,0.03715,790,1513,-110.899,-115.593
-427,-489,-111.92,119.531,0,0,0,0,0,0,0,-1,797,1513,-111.92,-119.531
-420,-489,-110.1,123.204,0,0,0,0,0,0,0,-1,804,1513,-110.1,-123.204
-413,-489,-78.455,127.868,0,0,0,0,0,0,0,-1,811,1513,-78.455,-127.868
-406,-489,-3.10559,15.8143,0,0,0,0,0,0,0,-1,818,1513,-3.10556,-15.8143
-399,-489,-1.41241,9.10718,0,0,0,0,0,0,0,-1,825,1513,-1.41244,-9.10722
-392,-489,-1.0368,9.30469,0,0,0,0,0,0,0,-1,832,1513,-1.03682,-9.30466
-385,-489,-1.75165,10.6559,0,0,0,0,0,0,0,-1,839,1513,-1.75165,-10.6559
-378,-489,-0.401428,9.87048,0,0,0,0,0,0,0,-1,846,1513,-0.401415,-9.87047
-371,-489,-1.11633,10.6606,0,0,0,0,0,0,0,-1,853,1513,-1.11633,-10.6606
-364,-489,-0.503113,8.98486,0,0,0,0,0,0,0,-1,860,1513,-0.503097,-8.98482
-357,-489,-0.609924,10.9606,0,0,0,0,0,0,0,-1,867,1513,-0.609947,-10.9605
-350,-489,-7.94659,-0.358887,0,0,0,0,0,0,0,-1,874,1513,-7.94657,0.358912
-343,-489,-7.49323,-0.437866,0,0,0,0,0,0,0,-1,881,1513,-7.49322,0.437823
-336,-489,-7.02332,-0.53125,0,0,0,0,0,0,0,-1,888,1513,-7.0233,0.531295
-329,-489,-13.2786,4.96082,0,0,0,0,0,0,0,-1,895,1513,-13.2785,-4.96077
-322,-489,0,0,0,0,0,0,0,0,0,-1,902,1513,0,0
-315,-489,0,0,0,0,0,0,0,0,0,-1,909,1513,0,0
-308,-489,0,0,0,0,0,0,0,0,0,-1,916,1513,0,0
-301,-489,0,0,0,0,0,0,0,0,0,-1,923,1513,0,0
-294,-489,0,0,0,0,0,0,0,0,0,-1,930,1513,0,0
-287,-489,0,0,0,0,0,0,0,0,0,-1,937,1513,0,0
-280,-489,0,0,0,0,0,0,0,0,0,-1,944,1513,0,0
-273,-489,0,0,0,0,0,0,0,0,0,-1,951,1513,0,0
-266,-489,0,0,0,0,0,0,0,0,0,-1,958,1513,0,0
-259,-489,0,0,0,0,0,0,0,0,0,-1,965,1513,0,0
-252,-489,0,0,0,0,0,0,0,0,0,-1,972,1513,0,0
-245,-489,0,0,0,0,0,0,0,0,0,-1,979,1513,0,0
-238,-489,0,0,0,0,0,0,0,0,0,-1,986,1513,0,0
-231,-489,0,0,0,0,0,0,0,0,0,-1,993,1513,0,0
-224,-489,0,0,0,0,0,0,0,0,0,-1,1000,1513,0,0
-217,-489,0,0,0,0,0,0,0,0,0,-1,1007,1513,0,0
-210,-489,0,0,0,0,0,0,0,0,0,-1,1014,1513,0,0
-203,-489,0,0,0,0,0,0,0,0,0,-1,1021,1513,0,0
-196,-489,0,0,0,0,0,0,0,0,0,-1,1028,1513,0,0
-189,-489,0,0,0,0,0,0,0,0,0,-1,1035,1513,0,0
-182,-489,0,0,0,0,0,0,0,0,0,-1,1042,1513,0,0
-175,-489,0,0,0,0,0,0,0,0,0,-1,1049,1513,0,0
-168,-489,0,0,0,0,0,0,0,0,0,-1,1056,1513,0,0
-161,-489,0,0,0,0,0,0,0,0,0,-1,1063,1513,0,0
-154,-489,0,0,0,0,0,0,0,0,0,-1,1070,1513,0,0
-147,-489,0,0,0,0,0,0,0,0,0,-1,1077,1513,0,0
-140,-489,0,0,0,0,0,0,0,0,0,-1,1084,1513,0,0
-133,-489,0,0,0,0,0,0,0,0,0,-1,1091,1513,0,0
-126,-489,0,0,0,0,0,0,0,0,0,-1,1098,1513,0,0
-119,-489,0,0,0,0,0,0,0,0,0,-1,1105,1513,0,0
-112,-489,0,0,0,0,0,0,0,0,0,-1,1112,1513,0,0
-105,-489,0,0,0,0,0,0,0,0,0,-1,1119,1513,0,0
-98,-489,0,0,0,0,0,0,0,0,0,-1,1126,1513,0,0
-91,-489,0,0,0,0,0,0,0,0,0,-1,1133,1513,0,0
-84,-489,0,0,0,0,0,0,0,0,0,-1,1140,1513,0,0
-77,-489,0,0,0,0,0,0,0,0,0,-1,1147,1513,0,0
-70,-489,0,0,0,0,0,0,0,0,0,-1,1154,1513,0,0
-63,-489,0,0,0,0,0,0,0,0,0,-1,1161,1513,0,0
-56,-489,0,0,0,0,0,0,0,0,0,-1,1168,1513,0,0
-49,-489,0,0,0,0,0,0,0,0,0,-1,1175,1513,0,0
-42,-489,0,0,0,0,0,0,0,0,0,-1,1182,1513,0,0
-35,-489,0,0,0,0,0,0,0,0,0,-1,1189,1513,0,0
-28,-489,0,0,0,0,0,0,0,0,0,-1,1196,1513,0,0
-21,-489,0,0,0,0,0,0,0,0,0,-1,1203,1513,0,0
-14,-489,0,0,0,0,0,0,0,0,0,-1,1210,1513,0,0
-7,-489,0,0,0,0,0,0,0,0,0,-1,1217,1513,0,0
0,-489,0,0,0,0,0,0,0,0,0,-1,1224,1513,0,0
7,-489,0,0,0,0,0,0,0,0,0,-1,1231,1513,0,0
14,-489,0,0,0,0,0,0,0,0,0,-1,1238,1513,0,0
21,-489,0,0,0,0,0,0,0,0,0,-1,1245,1513,0,0
28,-489,0,0,0,0,0,0,0,0,0,-1,1252,1513,0,0
35,-489,0,0,0,0,0,0,0,0,0,-1,1259,1513,0,0
42,-489,0,0,0,0,0,0,0,0,0,-1,1266,1513,0,0
49,-489,0,0,0,0,0,0,0,0,0,-1,1273,1513,0,0
56,-489,0,0,0,0,0,0,0,0,0,-1,1280,1513,0,0
63,-489,0,0,0,0,0,0,0,0,0,-1,1287,1513,0,0
70,-489,0,0,0,0,0,0,0,0,0,-1,1294,1513,0,0
77,-489,0,0,0,0,0,0,0,0,0,-1,1301,1513,0,0
84,-489,0,0,0,0,0,0,0,0,0,-1,1308,1513,0,0
91,-489,0,0,0,0,0,0,0,0,0,-1,1315,1513,0,0
98,-489,0,0,0,0,0,0,0,0,0,-1,1322,1513,0,0
105,-489,0,0,0,0,0,0,0,0,0,-1,1329,1513,0,0
112,-489,0,0,0,0,0,0,0,0,0,-1,1336,1513,0,0
119,-489,0,0,0,0,0,0,0,0,0,-1,1343,1513,0,0
126,-489,0,0,0,0,0,0,0,0,0,-1,1350,1513,0,0
133,-489,0,0,0,0,0,0,0,0,0,-1,1357,1513,0,0
140,-489,0,0,0,0,0,0,0,0,0,-1,1364,1513,0,0
147,-489,0,0,0,0,0,0,0,0,0,-1,1371,1513,0,0
154,-489,0,0,0,0,0,0,0,0,0,-1,1378,1513,0,0
161,-489,0,0,0,0,0,0,0,0,0,-1,1385,1513,0,0
168,-489,0,0,0,0,0,0,0,0,0,-1,1392,1513,0,0
175,-489,0,0,0,0,0,0,0,0,0,-1,1399,1513,0,0
182,-489,0,0,0,0,0,0,0,0,0,-1,1406,1513,0,0
189,-489,0,0,0,0,0,0,0,0,0,-1,1413,1513,0,0
196,-489,0,0,0,0,0,0,0,0,0,-1,1420,1513,0,0
203,-489,0,0,0,0,0,0,0,0,0,-1,1427,1513,0,0
210,-489,0,0,0,0,0,0,0,0,0,-1,1434,1513,0,0
217,-489,0,0,0,0,0,0,0,0,0,-1,1441,1513,0,0
224,-489,0,0,0,0,0,0,0,0,0,-1,1448,1513,0,0
231,-489,0,0,0,0,0,0,0,0,0,-1,1455,1513,0,0
238,-489,0,0,0,0,0,0,0,0,0,-1,1462,1513,0,0
245,-489,0,0,0,0,0,0,0,0,0,-1,1469,1513,0,0
252,-489,0,0,0,0,0,0,0,0,0,-1,1476,1513,0,0
259,-489,0,0,0,0,0,0,0,0,0,-1,1483,1513,0,0
266,-489,0,0,0,0,0,0,0,0,0,-1,1490,1513,0,0
273,-489,0,0,0,0,0,0,0,0,0,-1,1497,1513,0,0
280,-489,0,0,0,0,0,0,0,0,0,-1,1504,1513,0,0
287,-489,0,0,0,0,0,0,0,0,0,-1,1511,1513,0,0
294,-489,0,0,0,0,0,0,0,0,0,-1,1518,1513,0,0
301,-489,0,0,0,0,0,0,0,0,0,-1,1525,1513,0,0
308,-489,0,0,0,0,0,0,0,0,0,-1,1532,1513,0,0
315,-489,0,0,0,0,0,0,0,0,0,-1,1539,1513,0,0
322,-489,0,0,0,0,0,0,0,0,0,-1,1546,1513,0,0
329,-489,0,0,0,0,0,0,0,0,0,-1,1553,1513,0,0
336,-489,0,0,0,0,0,0,0,0,0,-1,1560,1513,0,0
343,-489,0,0,0,0,0,0,0,0,0,-1,1567,1513,0,0
350,-489,0,0,0,0,0,0,0,0,0,-1,1574,1513,0,0
357,-489,0,0,0,0,0,0,0,0,0,-1,1581,1513,0,0
364,-489,0,0,0,0,0,0,0,0,0,-1,1588,1513,0,0
371,-489,0,0,0,0,0,0,0,0,0,-1,1595,1513,0,0
378,-489,0,0,0,0,0,0,0,0,0,-1,1602,1513,0,0
385,-489,0,0,0,0,0,0,0,0,0,-1,1609,1513,0,0
392,-489,0,0,0,0,0,0,0,0,0,-1,1616,1513,0,0
399,-489,0,0,0,0,0,0,0,0,0,-1,1623,1513,0,0
406,-489,0,0,0,0,0,0,0,0,0,-1,1630,1513,0,0
413,-489,0,0,0,0,0,0,0,0,0,-1,1637,1513,0,0
420,-489,0,0,0,0,0,0,0,0,0,-1,1644,1513,0,0
427,-489,0,0,0,0,0,0,0,0,0,-1,1651,1513,0,0
434,-489,0,0,0,0,0,0,0,0,0,-1,1658,1513,0,0
441,-489,11.4602,2.56787,0,0,0,0,0,0,0,-1,1665,1513,11.4602,-2.56786
448,-489,12.4425,1.72351,0,0,0,0,0,0,0,-1,1672,1513,12.4425,-1.72349
455,-489,12.5575,1.37463,0,0,0,0,0,0,0,-1,1679,1513,12.5575,-1.37469
462,-489,14.9784,3.84888,0,0,0,0,0,0,0,-1,1686,1513,14.9784,-3.84892
469,-489,15.1367,4.53101,0,0,0,0,0,0,0,-1,1693,1513,15.1368,-4.531
476,-489,15.5536,5.09338,0,0,0,0,0,0,0,-1,1700,1513,15.5536,-5.09339
483,-489,8.96912,8.37805,0,0,0,0,0,0,0,-1,1707,1513,8.96909,-8.37809
490,-489,10.5366,7.49561,0,0,0,0,0,0,0,-1,1714,1513,10.5367,-7.49558
497,-489,14.6051,11.8397,0,0,0,0,0,0,0,-1,1721,1513,14.6051,-11.8397
504,-489,16.7527,14.1735,0,0,0,0,0,0,0,-1,1728,1513,16.7527,-14.1735
511,-489,17.83,17.7993,0,0,0,0,0,0,0,-1,1735,1513,17.83,-17.7993
518,-489,16.4751,14.3682,0,0,0,0,0,0,0,-1,1742,1513,16.4751,-14.3682
525,-489,17.2606,17.4949,0,0,0,0,0,0,0,-1,1749,1513,17.2606,-17.4949
532,-489,19.397,21.0182,0,0,0,0,0,0,0,-1,1756,1513,19.397,-21.0182
539,-489,31.8036,37.8446,0,0,0,0,0,0,0,-1,1763,1513,31.8036,-37.8447
546,-489,64.7327,111.969,0,0,0,0,0,0,0,-1,1770,1513,64.7326,-111.969
553,-489,124.443,128.493,0,0,0,0,0,0,0,-1,1777,1513,124.443,-128.493
560,-489,123.074,124.589,0,0,0,0,0,0,0,-1,1784,1513,123.074,-124.589
567,-489,121.965,120.558,0,0,0,0,0,0,0,-1,1791,1513,121.965,-120.558
574,-489,120.895,116.359,0.00991144,0.0195102,0.041849,0.0568342,-0.0274125,0.84249,0.0496187,0.0296278,1798,1513,120.895,-116.359
581,-489,119.792,112.656,0.0119728,0.0229552,0.0434814,0.0612908,-0.0263628,0.84821,0.0519288,0.0219565,1805,1513,119.792,-112.656
588,-489,118.773,108.764,0.0138806,0.0265453,0.0449529,0.0656096,-0.0251837,0.855371,0.0541239,0.0251292,1812,1513,118.773,-108.764
595,-489,117.774,105.038,0.0156578,0.0301407,0.0463631,0.0698245,-0.024026,0.862867,0.0562941,0.0296143,1819,1513,117.774,-105.038
602,-489,116.86,101.244,0.017302,0.0339123,0.0476664,0.0739917,-0.0227774,0.871649,0.0584196,0.042661,1826,1513,116.86,-101.244
609,-489,115.819,97.4683,0.0185288,0.0379129,0.0489078,0.0780798,-0.0216381,0.883216,0.0605682,0.0318386,1833,1513,115.819,-97.4683
616,-489,114.857,93.8643,0,0,0,0,0,0,0,-1,1840,1513,114.857,-93.8643
623,-489,74.4036,92.3373,0,0,0,0,0,0,0,-1,1847,1513,74.4036,-92.3373
630,-489,30.3123,23.9675,0,0,0,0,0,0,0,-1,1854,1513,30.3123,-23.9676
637,-489,17.2048,11.8091,0,0,0,0,0,0,0,-1,1861,1513,17.2048,-11.8091
644,-489,9.67578,8.45874,0,0,0,0,0,0,0,-1,1868,1513,9.67576,-8.45879
651,-489,6.13818,6.85095,0,0,0,0,0,0,0,-1,1875,1513,6.13823,-6.85097
658,-489,5.43848,7.75513,0,0,0,0,0,0,0,-1,1882,1513,5.43844,-7.75509
665,-489,5.48438,8.59912,0,0,0,0,0,0,0,-1,1889,1513,5.48434,-8.59907
672,-489,0,0,0,0,0,0,0,0,0,-1,1896,1513,0,0
679,-489,0,0,0,0,0,0,0,0,0,-1,1903,1513,0,0
686,-489,0,0,0,0,0,0,0,0,0,-1,1910,1513,0,0
693,-489,0,0,0,0,0,0,0,0,0,-1,1917,1513,0,0
700,-489,0,0,0,0,0,0,0,0,0,-1,1924,1513,0,0
707,-489,0,0,0,0,0,0,0,0,0,-1,1931,1513,0,0
714,-489,0,0,0,0,0,0,0,0,0,-1,1938,1513,0,0
721,-489,0,0,0,0,0,0,0,0,0,-1,1945,1513,0,0
728,-489,0,0,0,0,0,0,0,0,0,-1,1952,1513,0,0
735,-489,0,0,0,0,0,0,0,0,0,-1,1959,1513,0,0
742,-489,0,0,0,0,0,0,0,0,0,-1,1966,1513,0,0
749,-489,0,0,0,0,0,0,0,0,0,-1,1973,1513,0,0
756,-489,0,0,0,0,0,0,0,0,0,-1,1980,1513,0,0
763,-489,0,0,0,0,0,0,0,0,0,-1,1987,1513,0,0
770,-489,0,0,0,0,0,0,0,0,0,-1,1994,1513,0,0
777,-489,0,0,0,0,0,0,0,0,0,-1,2001,1513,0,0
784,-489,0,0,0,0,0,0,0,0,0,-1,2008,1513,0,0
791,-489,0,0,0,0,0,0,0,0,0,-1,2015,1513,0,0
798,-489,0,0,0,0,0,0,0,0,0,-1,2022,1513,0,0
805,-489,0,0,0,0,0,0,0,0,0,-1,2029,1513,0,0
812,-489,0,0,0,0,0,0,0,0,0,-1,2036,1513,0,0
-700,-496,0,0,0,0,0,0,0,0,0,-1,524,1520,0,0
-693,-496,0,0,0,0,0,0,0,0,0,-1,531,1520,0,0
-686,-496,0,0,0,0,0,0,0,0,0,-1,538,1520,0,0
-679,-496,0,0,0,0,0,0,0,0,0,-1,545,1520,0,0
-672,-496,0,0,0,0,0,0,0,0,0,-1,552,1520,0,0
-665,-496,0,0,0,0,0,0,0,0,0,-1,559,1520,0,0
-658,-496,0,0,0,0,0,0,0,0,0,-1,566,1520,0,0
-651,-496,0,0,0,0,0,0,0,0,0,-1,573,1520,0,0
-644,-496,0,0,0,0,0,0,0,0,0,-1,580,1520,0,0
-637,-496,0,0,0,0,0,0,0,0,0,-1,587,1520,0,0
-630,-496,0,0,0,0,0,0,0,0,0,-1,594,1520,0,0
-623,-496,0,0,0,0,0,0,0,0,0,-1,601,1520,0,0
-616,-496,0,0,0,0,0,0,0,0,0,-1,608,1520,0,0
-609,-496,0,0,0,0,0,0,0,0,0,-1,615,1520,0,0
-602,-496,0,0,0,0,0,0,0,0,0,-1,622,1520,0,0
-595,-496,0,0,0,0,0,0,0,0,0,-1,629,1520,0,0
-588,-496,0,0,0,0,0,0,0,0,0,-1,636,1520,0,0
-581,-496,0,0,0,0,0,0,0,0,0,-1,643,1520,0,0
-574,-496,0,0,0,0,0,0,0,0,0,-1,650,1520,0,0
-567,-496,0,0,0,0,0,0,0,0,0,-1,657,1520,0,0
-560,-496,0,0,0,0,0,0,0,0,0,-1,664,1520,0,0
-553,-496,0,0,0,0,0,0,0,0,0,-1,671,1520,0,0
-546,-496,-8.09711,7.94836,0,0,0,0,0,0,0,-1,678,1520,-8.09712,-7.94842
-539,-496,-3.20129,1.16052,0,0,0,0,0,0,0,-1,685,1520,-3.20131,-1.16054
-532,-496,-2.98279,2.62146,0,0,0,0,0,0,0,-1,692,1520,-2.98278,-2.62151
-525,-496,-2.75201,4.08032,0,0,0,0,0,0,0,-1,699,1520,-2.75201,-4.08031
-518,-496,-2.6333,5.36072,0,0,0,0,0,0,0,-1,706,1520,-2.63328,-5.36077
-511,-496,-7.92126,9.68604,0,0,0,0,0,0,0,-1,713,1520,-7.92127,-9.68598
-504,-496,-7.51044,11.6274,0,0,0,0,0,0,0,-1,720,1520,-7.51042,-11.6275
-497,-496,-5.30933,14.4291,0,0,0,0,0,0,0,-1,727,1520,-5.30932,-14.4291
-490,-496,-8.21246,19.5051,0,0,0,0,0,0,0,-1,734,1520,-8.21243,-19.5051
-483,-496,-20.4368,40.3196,0,0,0,0,0,0,0,-1,741,1520,-20.4368,-40.3195
-476,-496,-101.133,93.598,0,0,0,0,0,0,0,-1,748,1520,-101.133,-93.598
-469,-496,-101.695,97.6552,0.0443512,0.0574192,-0.0680308,0.119229,-0.0174586,-0.833274,0.085899,0.0222388,755,1520,-101.695,-97.6551
-462,-496,-102.528,101.515,0.0401398,0.0512204,-0.0671277,0.113036,-0.0216759,-0.826572,0.0835255,0.0361287,762,1520,-102.528,-101.515
-455,-496,-103.537,105.505,0.0364497,0.0448694,-0.0655754,0.10637,-0.0250509,-0.817453,0.0805723,0.0467411,769,1520,-103.537,-105.505
-448,-496,-104.646,109.309,0.0330238,0.038438,-0.0635747,0.0993632,-0.0279015,-0.806676,0.0772411,0.0387027,776,1520,-104.646,-109.309
-441,-496,-105.262,113.179,0.0289524,0.0318943,-0.061269,0.09171,-0.0308633,-0.7974,0.0736168,0.0233841,783,1520,-105.262,-113.179
-434,-496,-106.282,117.191,0.0247036,0.0252216,-0.0587228,0.0836859,-0.0337607,-0.787603,0.0698201,0.0231007,790,1520,-106.282,-117.191
-427,-496,-107.53,121.241,0.020069,0.0187272,-0.0559801,0.0753822,-0.036586,-0.779406,0.0659257,0.0403675,797,1520,-107.53,-121.241
-420,-496,-108.997,125.227,0,0,0,0,0,0,0,-1,804,1520,-108.997,-125.227
-413,-496,-106.555,129.025,0,0,0,0,0,0,0,-1,811,1520,-106.555,-129.025
-406,-496,-74.7766,133.159,0,0,0,0,0,0,0,-1,818,1520,-74.7766,-133.159
-399,-496,-11.5063,36.5204,0,0,0,0,0,0,0,-1,825,1520,-11.5063,-36.5204
-392,-496,-1.49786,12.387,0,0,0,0,0,0,0,-1,832,1520,-1.49788,-12.387
-385,-496,-1.72437,11.4985,0,0,0,0,0,0,0,-1,839,1520,-1.72436,-11.4985
-378,-496,-1.45532,14.0719,0,0,0,0,0,0,0,-1,846,1520,-1.45533,-14.0719
-371,-496,0.0877075,12.5299,0,0,0,0,0,0,0,-1,853,1520,0.0876896,-12.5299
-364,-496,0.0881348,10.6422,0,0,0,0,0,0,0,-1,860,1520,0.0881368,-10.6423
-357,-496,0.323792,7.56812,0,0,0,0,0,0,0,-1,867,1520,0.323782,-7.56806
-350,-496,2.1535,7.18945,0,0,0,0,0,0,0,-1,874,1520,2.15348,-7.1894
-343,-496,-7.56244,0.335327,0,0,0,0,0,0,0,-1,881,1520,-7.56242,-0.335322
-336,-496,-3.99249,6.02222,0,0,0,0,0,0,0,-1,888,1520,-3.99246,-6.0222
-329,-496,-6.93689,-0.100342,0,0,0,0,0,0,0,-1,895,1520,-6.93686,0.1003
-322,-496,-6.17505,0.494385,0,0,0,0,0,0,0,-1,902,1520,-6.17507,-0.49437
-315,-496,-7.539,5.78638,0,0,0,0,0,0,0,-1,909,1520,-7.53898,-5.78633
-308,-496,0,0,0,0,0,0,0,0,0,-1,916,1520,0,0
-301,-496,0,0,0,0,0,0,0,0,0,-1,923,1520,0,0
-294,-496,0,0,0,0,0,0,0,0,0,-1,930,1520,0,0
-287,-496,0,0,0,0,0,0,0,0,0,-1,937,1520,0,0
-280,-496,0,0,0,0,0,0,0,0,0,-1,944,1520,0,0
-273,-496,0,0,0,0,0,0,0,0,0,-1,951,1520,0,0
-266,-496,0,0,0,0,0,0,0,0,0,-1,958,1520,0,0
-259,-496,0,0,0,0,0,0,0,0,0,-1,965,1520,0,0
-252,-496,0,0,0,0,0,0,0,0,0,-1,972,1520,0,0
-245,-496,0,0,0,0,0,0,0,0,0,-1,979,1520,0,0
-238,-496,0,0,0,0,0,0,0,0,0,-1,986,1520,0,0
-231,-496,0,0,0,0,0,0,0,0,0,-1,993,1520,0,0
-224,-496,0,0,0,0,0,0,0,0,0,-1,1000,1520,0,0
-217,-496,0,0,0,0,0,0,0,0,0,-1,1007,1520,0,0
-210,-496,0,0,0,0,0,0,0,0,0,-1,1014,1520,0,0
-203,-496,0,0,0,0,0,0,0,0,0,-1,1021,1520,0,0
-196,-496,0,0,0,0,0,0,0,0,0,-1,1028,1520,0,0
-189,-496,0,0,0,0,0,0,0,0,0,-1,1035,1520,0,0
-182,-496,0,0,0,0,0,0,0,0,0,-1,1042,1520,0,0
-175,-496,0,0,0,0,0,0,0,0,0,-1,1049,1520,0,0
-168,-496,0,0,0,0,0,0,0,0,0,-1,1056,1520,0,0
-161,-496,0,0,0,0,0,0,0,0,0,-1,1063,1520,0,0
-154,-496,0,0,0,0,0,0,0,0,0,-1,1070,1520,0,0
-147,-496,0,0,0,0,0,0,0,0,0,-1,1077,1520,0,0
-140,-496,0,0,0,0,0,0,0,0,0,-1,1084,1520,0,0
-133,-496,0,0,0,0,0,0,0,0,0,-1,1091,1520,0,0
-126,-496,0,0,0,0,0,0,0,0,0,-1,1098,1520,0,0
-119,-496,0,0,0,0,0,0,0,0,0,-1,1105,1520,0,0
-112,-496,0,0,0,0,0,0,0,0,0,-1,1112,1520,0,0
-105,-496,0,0,0,0,0,0,0,0,0,-1,1119,1520,0,0
-98,-496,0,0,0,0,0,0,0,0,0,-1,1126,1520,0,0
-91,-496,0,0,0,0,0,0,0,0,0,-1,1133,1520,0,0
-84,-496,0,0,0,0,0,0,0,0,0,-1,1140,1520,0,0
-77,-496,0,0,0,0,0,0,0,0,0,-1,1147,1520,0,0
-70,-496,0,0,0,0,0,0,0,0,0,-1,1154,1520,0,0
-63,-496,0,0,0,0,0,0,0,0,0,-1,1161,1520,0,0
-56,-496,0,0,0,0,0,0,0,0,0,-1,1168,1520,0,0
-49,-496,0,0,0,0,0,0,0,0,0,-1,1175,1520,0,0
-42,-496,0,0,0,0,0,0,0,0,0,-1,1182,1520,0,0
-35,-496,0,0,0,0,0,0,0,0,0,-1,1189,1520,0,0
-28,-496,0,0,0,0,0,0,0,0,0,-1,1196,1520,0,0
-21,-496,0,0,0,0,0,0,0,0,0,-1,1203,1520,0,0
-14,-496,0,0,0,0,0,0,0,0,0,-1,1210,1520,0,0
-7,-496,0,0,0,0,0,0,0,0,0,-1,1217,1520,0,0
0,-496,0,0,0,0,0,0,0,0,0,-1,1224,1520,0,0
7,-496,0,0,0,0,0,0,0,0,0,-1,1231,1520,0,0
14,-496,0,0,0,0,0,0,0,0,0,-1,1238,1520,0,0
21,-496,0,0,0,0,0,0,0,0,0,-1,1245,1520,0,0
28,-496,0,0,0,0,0,0,0,0,0,-1,1252,1520,0,0
35,-496,0,0,0,0,0,0,0,0,0,-1,1259,1520,0,0
42,-496,0,0,0,0,0,0,0,0,0,-1,1266,1520,0,0
49,-496,0,0,0,0,0,0,0,0,0,-1,1273,1520,0,0
56,-496,0,0,0,0,0,0,0,0,0,-1,1280,1520,0,0
63,-496,0,0,0,0,0,0,0,0,0,-1,1287,1520,0,0
70,-496,0,0,0,0,0,0,0,0,0,-1,1294,1520,0,0
77,-496,0,0,0,0,0,0,0,0,0,-1,1301,1520,0,0
84,-496,0,0,0,0,0,0,0,0,0,-1,1308,1520,0,0
91,-496,0,0,0,0,0,0,0,0,0,-1,1315,1520,0,0
98,-496,0,0,0,0,0,0,0,0,0,-1,1322,1520,0,0
105,-496,0,0,0,0,0,0,0,0,0,-1,1329,1520,0,0
112,-496,0,0,0,0,0,0,0,0,0,-1,1336,1520,0,0
119,-496,0,0,0,0,0,0,0,0,0,-1,1343,1520,0,0
126,-496,0,0,0,0,0,0,0,0,0,-1,1350,1520,0,0
133,-496,0,0,0,0,0,0,0,0,0,-1,1357,1520,0,0
140,-496,0,0,0,0,0,0,0,0,0,-1,1364,1520,0,0
147,-496,0,0,0,0,0,0,0,0,0,-1,1371,1520,0,0
154,-496,0,0,0,0,0,0,0,0,0,-1,1378,1520,0,0
161,-496,0,0,0,0,0,0,0,0,0,-1,1385,1520,0,0
168,-496,0,0,0,0,0,0,0,0,0,-1,1392,1520,0,0
175,-496,0,0,0,0,0,0,0,0,0,-1,1399,1520,0,0
182,-496,0,0,0,0,0,0,0,0,0,-1,1406,1520,0,0
189,-496,0,0,0,0,0,0,0,0,0,-1,1413,1520,0,0
196,-496,0,0,0,0,0,0,0,0,0,-1,1420,1520,0,0
203,-496,0,0,0,0,0,0,0,0,0,-1,1427,1520,0,0
210,-496,0,0,0,0,0,0,0,0,0,-1,1434,1520,0,0
217,-496,0,0,0,0,0,0,0,0,0,-1,1441,1520,0,0
224,-496,0,0,0,0,0,0,0,0,0,-1,1448,1520,0,0
231,-496,0,0,0,0,0,0,0,0,0,-1,1455,1520,0,0
238,-496,0,0,0,0,0,0,0,0,0,-1,1462,1520,0,0
245,-496,0,0,0,0,0,0,0,0,0,-1,1469,1520,0,0
252,-496,0,0,0,0,0,0,0,0,0,-1,1476,1520,0,0
259,-496,0,0,0,0,0,0,0,0,0,-1,1483,1520,0,0
266,-496,0,0,0,0,0,0,0,0,0,-1,1490,1520,0,0
273,-496,0,0,0,0,0,0,0,0,0,-1,1497,1520,0,0
280,-496,0,0,0,0,0,0,0,0,0,-1,1504,1520,0,0
287,-496,0,0,0,0,0,0,0,0,0,-1,1511,1520,0,0
294,-496,0,0,0,0,0,0,0,0,0,-1,1518,1520,0,0
301,-496,0,0,0,0,0,0,0,0,0,-1,1525,1520,0,0
308,-496,0,0,0,0,0,0,0,0,0,-1,1532,1520,0,0
315,-496,0,0,0,0,0,0,0,0,0,-1,1539,1520,0,0
322,-496,0,0,0,0,0,0,0,0,0,-1,1546,1520,0,0
329,-496,0,0,0,0,0,0,0,0,0,-1,1553,1520,0,0
336,-496,0,0,0,0,0,0,0,0,0,-1,1560,1520,0,0
343,-496,0,0,0,0,0,0,0,0,0,-1,1567,1520,0,0
350,-496,0,0,0,0,0,0,0,0,0,-1,1574,1520,0,0
357,-496,0,0,0,0,0,0,0,0,0,-1,1581,1520,0,0
364,-496,0,0,0,0,0,0,0,0,0,-1,1588,1520,0,0
371,-496,0,0,0,0,0,0,0,0,0,-1,1595,1520,0,0
378,-496,0,0,0,0,0,0,0,0,0,-1,1602,1520,0,0
385,-496,0,0,0,0,0,0,0,0,0,-1,1609,1520,0,0
392,-496,0,0,0,0,0,0,0,0,0,-1,1616,1520,0,0
399,-496,0,0,0,0,0,0,0,0,0,-1,1623,1520,0,0
406,-496,0,0,0,0,0,0,0,0,0,-1,1630,1520,0,0
413,-496,0,0,0,0,0,0,0,0,0,-1,1637,1520,0,0
420,-496,0,0,0,0,0,0,0,0,0,-1,1644,1520,0,0
427,-496,0,0,0,0,0,0,0,0,0,-1,1651,1520,0,0
434,-496,11.0457,3.37732,0,0,0,0,0,0,0,-1,1658,1520,11.0456,-3.37736
441,-496,11.788,2.75488,0,0,0,0,0,0,0,-1,1665,1520,11.7879,-2.75485
448,-496,12.2146,2.18494,0,0,0,0,0,0,0,-1,1672,1520,12.2146,-2.18489
455,-496,12.3489,1.65173,0,0,0,0,0,0,0,-1,1679,1520,12.3489,-1.65178
462,-496,12.1912,1.32361,0,0,0,0,0,0,0,-1,1686,1520,12.1911,-1.32357
469,-496,14.8138,5.77954,0,0,0,0,0,0,0,-1,1693,1520,14.8138,-5.77958
476,-496,15.2449,6.27942,0,0,0,0,0,0,0,-1,1700,1520,15.2449,-6.27936
483,-496,9.19812,6.88367,0,0,0,0,0,0,0,-1,1707,1520,9.19812,-6.88361
490,-496,10.2123,7.97144,0,0,0,0,0,0,0,-1,1714,1520,10.2122,-7.97145
497,-496,13.9297,12.2981,0,0,0,0,0,0,0,-1,1721,1520,13.9297,-12.2982
504,-496,16.3271,16.6501,0,0,0,0,0,0,0,-1,1728,1520,16.3272,-16.6502
511,-496,17.6753,18.0685,0,0,0,0,0,0,0,-1,1735,1520,17.6753,-18.0685
518,-496,17.0537,17.3118,0,0,0,0,0,0,0,-1,1742,1520,17.0538,-17.3118
525,-496,18.2721,19.3259,0,0,0,0,0,0,0,-1,1749,1520,18.2721,-19.3259
532,-496,31.3234,37.6648,0,0,0,0,0,0,0,-1,1756,1520,31.3234,-37.6648
539,-496,62.3975,115.274,0,0,0,0,0,0,0,-1,1763,1520,62.3974,-115.274
546,-496,121.42,133.612,0,0,0,0,0,0,0,-1,1770,1520,121.42,-133.612
553,-496,119.931,129.903,0.00782685,0.00996622,0.03885,0.0477613,-0.0299682,0.799162,0.0452674,0.049749,1777,1520,119.931,-129.903
560,-496,118.57,125.987,0.0102562,0.0134873,0.0406693,0.0525731,-0.0288296,0.80525,0.0476596,0.0305165,1784,1520,118.57,-125.987
567,-496,117.456,121.891,0.0123842,0.0171384,0.0422689,0.057097,-0.0275743,0.813487,0.0498657,0.0222113,1791,1520,117.456,-121.891
574,-496,116.434,117.812,0.0143067,0.0207988,0.043924,0.0615965,-0.0264911,0.822282,0.0521863,0.0206725,1798,1520,116.434,-117.812
581,-496,115.431,113.907,0.0160983,0.0246017,0.0455065,0.0660546,-0.0253547,0.831978,0.0544911,0.025546,1805,1520,115.431,-113.907
588,-496,114.366,110.011,0.0178028,0.0285741,0.0469211,0.0704176,-0.0240407,0.842539,0.0566842,0.0257501,1812,1520,114.366,-110.011
595,-496,113.396,106.279,0.0194383,0.0325243,0.0482757,0.0746984,-0.0227358,0.852754,0.0588599,0.0269219,1819,1520,113.396,-106.279
602,-496,112.559,102.573,0,0,0,0,0,0,0,-1,1826,1520,112.559,-102.573
609,-496,111.565,98.5851,0,0,0,0,0,0,0,-1,1833,1520,111.565,-98.5851
616,-496,109.888,94.9783,0,0,0,0,0,0,0,-1,1840,1520,109.888,-94.9783
623,-496,28.9139,24.1847,0,0,0,0,0,0,0,-1,1847,1520,28.9139,-24.1846
630,-496,18.5656,13.8966,0,0,0,0,0,0,0,-1,1854,1520,18.5655,-13.8967
637,-496,14.6411,10.1016,0,0,0,0,0,0,0,-1,1861,1520,14.6411,-10.1016
644,-496,12.4537,10.087,0,0,0,0,0,0,0,-1,1868,1520,12.4537,-10.0871
651,-496,8.18506,5.47803,0,0,0,0,0,0,0,-1,1875,1520,8.18505,-5.47806
658,-496,7.79993,4.02563,0,0,0,0,0,0,0,-1,1882,1520,7.79997,-4.02568
665,-496,5.47583,7.90625,0,0,0,0,0,0,0,-1,1889,1520,5.47581,-7.90628
672,-496,0,0,0,0,0,0,0,0,0,-1,1896,1520,0,0
679,-496,0,0,0,0,0,0,0,0,0,-1,1903,1520,0,0
686,-496,0,0,0,0,0,0,0,0,0,-1,1910,1520,0,0
693,-496,0,0,0,0,0,0,0,0,0,-1,1917,1520,0,0
700,-496,0,0,0,0,0,0,0,0,0,-1,1924,1520,0,0
707,-496,0,0,0,0,0,0,0,0,0,-1,1931,1520,0,0
714,-496,0,0,0,0,0,0,0,0,0,-1,1938,1520,0,0
721,-496,0,0,0,0,0,0,0,0,0,-1,1945,1520,0,0
728,-496,0,0,0,0,0,0,0,0,0,-1,1952,1520,0,0
735,-496,0,0,0,0,0,0,0,0,0,-1,1959,1520,0,0
742,-496,0,0,0,0,0,0,0,0,0,-1,1966,1520,0,0
749,-496,0,0,0,0,0,0,0,0,0,-1,1973,1520,0,0
756,-496,0,0,0,0,0,0,0,0,0,-1,1980,1520,0,0
763,-496,0,0,0,0,0,0,0,0,0,-1,1987,1520,0,0
770,-496,0,0,0,0,0,0,0,0,0,-1,1994,1520,0,0
777,-496,0,0,0,0,0,0,0,0,0,-1,2001,1520,0,0
784,-496,0,0,0,0,0,0,0,0,0,-1,2008,1520,0,0
791,-496,0,0,0,0,0,0,0,0,0,-1,2015,1520,0,0
798,-496,0,0,0,0,0,0,0,0,0,-1,2022,1520,0,0
805,-496,0,0,0,0,0,0,0,0,0,-1,2029,1520,0,0
812,-496,0,0,0,0,0,0,0,0,0,-1,2036,1520,0,0
-700,-503,0,0,0,0,0,0,0,0,0,-1,524,1527,0,0
-693,-503,0,0,0,0,0,0,0,0,0,-1,531,1527,0,0
-686,-503,0,0,0,0,0,0,0,0,0,-1,538,1527,0,0
-679,-503,0,0,0,0,0,0,0,0,0,-1,545,1527,0,0
-672,-503,0,0,0,0,0,0,0,0,0,-1,552,1527,0,0
-665,-503,0,0,0,0,0,0,0,0,0,-1,559,1527,0,0
-658,-503,0,0,0,0,0,0,0,0,0,-1,566,1527,0,0
-651,-503,0,0,0,0,0,0,0,0,0,-1,573,1527,0,0
-644,-503,0,0,0,0,0,0,0,0,0,-1,580,1527,0,0
-637,-503,0,0,0,0,0,0,0,0,0,-1,587,1527,0,0
-630,-503,0,0,0,0,0,0,0,0,0,-1,594,1527,0,0
-623,-503,0,0,0,0,0,0,0,0,0,-1,601,1527,0,0
-616,-503,0,0,0,0,0,0,0,0,0,-1,608,1527,0,0
-609,-503,0,0,0,0,0,0,0,0,0,-1,615,1527,0,0
-602,-503,0,0,0,0,0,0,0,0,0,-1,622,1527,0,0
-595,-503,0,0,0,0,0,0,0,0,0,-1,629,1527,0,0
-588,-503,0,0,0,0,0,0,0,0,0,-1,636,1527,0,0
-581,-503,0,0,0,0,0,0,0,0,0,-1,643,1527,0,0
-574,-503,0,0,0,0,0,0,0,0,0,-1,650,1527,0,0
-567,-503,0,0,0,0,0,0,0,0,0,-1,657,1527,0,0
-560,-503,0,0,0,0,0,0,0,0,0,-1,664,1527,0,0
-553,-503,0,0,0,0,0,0,0,0,0,-1,671,1527,0,0
-546,-503,0,0,0,0,0,0,0,0,0,-1,678,1527,0,0
-539,-503,3.50177,4.26428,0,0,0,0,0,0,0,-1,685,1527,3.50177,-4.26424
-532,-503,-3.13196,1.05298,0,0,0,0,0,0,0,-1,692,1527,-3.13194,-1.05299
-525,-503,-2.94293,2.59314,0,0,0,0,0,0,0,-1,699,1527,-2.94296,-2.59314
-518,-503,-2.7395,4.05872,0,0,0,0,0,0,0,-1,706,1527,-2.73948,-4.05871
-511,-503,-1.60022,7.23877,0,0,0,0,0,0,0,-1,713,1527,-1.60023,-7.23872
-504,-503,-8.1402,10.1541,0,0,0,0,0,0,0,-1,720,1527,-8.14017,-10.1541
-497,-503,-4.51758,14.0781,0,0,0,0,0,0,0,-1,727,1527,-4.5176,-14.0782
-490,-503,-4.24194,16.1982,0,0,0,0,0,0,0,-1,734,1527,-4.24196,-16.1982
-483,-503,-9.55774,23.7681,0,0,0,0,0,0,0,-1,741,1527,-9.55776,-23.7681
-476,-503,-35.8533,66.9409,0,0,0,0,0,0,0,-1,748,1527,-35.8533,-66.9409
-469,-503,-97.0905,98.9636,0,0,0,0,0,0,0,-1,755,1527,-97.0905,-98.9636
-462,-503,-97.8862,102.873,0.0453711,0.0549358,-0.0706719,0.120987,-0.02068,-0.819182,0.0883617,0.0259685,762,1527,-97.8862,-102.873
-455,-503,-98.7479,106.831,0.0415286,0.0484448,-0.0692574,0.11433,-0.024357,-0.810343,0.0855036,0.0408688,769,1527,-98.7479,-106.831
-448,-503,-99.7922,110.766,0.038233,0.0418669,-0.0673754,0.10745,-0.0273499,-0.798878,0.0822793,0.0327075,776,1527,-99.7922,-110.766
-441,-503,-100.734,114.69,0.0343856,0.0352008,-0.0652223,0.100017,-0.0304304,-0.788523,0.0788047,0.0224892,783,1527,-100.734,-114.69
-434,-503,-101.866,118.757,0.0301572,0.028443,-0.0629852,0.0922912,-0.033691,-0.778595,0.0753131,0.0199676,790,1527,-101.866,-118.757
-427,-503,-103.108,122.898,0.0255542,0.0221614,-0.0608548,0.0847362,-0.0370207,-0.771464,0.0720733,0.0318866,797,1527,-103.108,-122.898
-420,-503,-104.427,127.005,0,0,0,0,0,0,0,-1,804,1527,-104.427,-127.005
-413,-503,-104.1,131.367,0,0,0,0,0,0,0,-1,811,1527,-104.1,-131.367
-406,-503,-106.457,133.982,0,0,0,0,0,0,0,-1,818,1527,-106.457,-133.982
-399,-503,-72.1955,138.426,0,0,0,0,0,0,0,-1,825,1527,-72.1955,-138.426
-392,-503,-10.7637,37.4486,0,0,0,0,0,0,0,-1,832,1527,-10.7637,-37.4486
-385,-503,-2.00403,14.1218,0,0,0,0,0,0,0,-1,839,1527,-2.00403,-14.1218
-378,-503,-2.07043,13.8632,0,0,0,0,0,0,0,-1,846,1527,-2.07043,-13.8631
-371,-503,-1.67285,13.8081,0,0,0,0,0,0,0,-1,853,1527,-1.67285,-13.8081
-364,-503,0.181396,12.3768,0,0,0,0,0,0,0,-1,860,1527,0.18138,-12.3768
-357,-503,0.558533,9.25452,0,0,0,0,0,0,0,-1,867,1527,0.558542,-9.25446
-350,-503,0.219971,6.84827,0,0,0,0,0,0,0,-1,874,1527,0.21996,-6.84831
-343,-503,-3.5802,4.43274,0,0,0,0,0,0,0,-1,881,1527,-3.58018,-4.43276
-336,-503,-3.2384,6.40637,0,0,0,0,0,0,0,-1,888,1527,-3.2384,-6.40643
-329,-503,-1.70691,11.886,0,0,0,0,0,0,0,-1,895,1527,-1.70689,-11.886
-322,-503,-3.31317,8.81519,0,0,0,0,0,0,0,-1,902,1527,-3.31315,-8.81524
-315,-503,-3.90265,7.73853,0,0,0,0,0,0,0,-1,909,1527,-3.90264,-7.73854
-308,-503,-1.70264,7.35413,0,0,0,0,0,0,0,-1,916,1527,-1.70262,-7.35416
-301,-503,0,0,0,0,0,0,0,0,0,-1,923,1527,0,0
-294,-503,0,0,0,0,0,0,0,0,0,-1,930,1527,0,0
-287,-503,0,0,0,0,0,0,0,0,0,-1,937,1527,0,0
-280,-503,0,0,0,0,0,0,0,0,0,-1,944,1527,0,0
-273,-503,0,0,0,0,0,0,0,0,0,-1,951,1527,0,0
-266,-503,0,0,0,0,0,0,0,0,0,-1,958,1527,0,0
-259,-503,0,0,0,0,0,0,0,0,0,-1,965,1527,0,0
-252,-503,0,0,0,0,0,0,0,0,0,-1,972,1527,0,0
-245,-503,0,0,0,0,0,0,0,0,0,-1,979,1527,0,0
-238,-503,0,0,0,0,0,0,0,0,0,-1,986,1527,0,0
-231,-503,0,0,0,0,0,0,0,0,0,-1,993,1527,0,0
-224,-503,0,0,0,0,0,0,0,0,0,-1,1000,1527,0,0
-217,-503,0,0,0,0,0,0,0,0,0,-1,1007,1527,0,0
-210,-503,0,0,0,0,0,0,0,0,0,-1,1014,1527,0,0
-203,-503,0,0,0,0,0,0,0,0,0,-1,1021,1527,0,0
-196,-503,0,0,0,0,0,0,0,0,0,-1,1028,1527,0,0
-189,-503,0,0,0,0,0,0,0,0,0,-1,1035,1527,0,0
-182,-503,0,0,0,0,0,0,0,0,0,-1,1042,1527,0,0
-175,-503,0,0,0,0,0,0,0,0,0,-1,1049,1527,0,0
-168,-503,0,0,0,0,0,0,0,0,0,-1,1056,1527,0,0
-161,-503,0,0,0,0,0,0,0,0,0,-1,1063,1527,0,0
-154,-503,0,0,0,0,0,0,0,0,0,-1,1070,1527,0,0
-147,-503,0,0,0,0,0,0,0,0,0,-1,1077,1527,0,0
-140,-503,0,0,0,0,0,0,0,0,0,-1,1084,1527,0,0
-133,-503,0,0,0,0,0,0,0,0,0,-1,1091,1527,0,0
-126,-503,0,0,0,0,0,0,0,0,0,-1,1098,1527,0,0
-119,-503,0,0,0,0,0,0,0,0,0,-1,1105,1527,0,0
-112,-503,0,0,0,0,0,0,0,0,0,-1,1112,1527,0,0
-105,-503,0,0,0,0,0,0,0,0,0,-1,1119,1527,0,0
-98,-503,0,0,0,0,0,0,0,0,0,-1,1126,1527,0,0
-91,-503,0,0,0,0,0,0,0,0,0,-1,1133,1527,0,0
-84,-503,0,0,0,0,0,0,0,0,0,-1,1140,1527,0,0
-77,-503,0,0,0,0,0,0,0,0,0,-1,1147,1527,0,0
-70,-503,0,0,0,0,0,0,0,0,0,-1,1154,1527,0,0
-63,-503,0,0,0,0,0,0,0,0,0,-1,1161,1527,0,0
-56,-503,0,0,0,0,0,0,0,0,0,-1,1168,1527,0,0
-49,-503,0,0,0,0,0,0,0,0,0,-1,1175,1527,0,0
-42,-503,0,0,0,0,0,0,0,0,0,-1,1182,1527,0,0
-35,-503,0,0,0,0,0,0,0,0,0,-1,1189,1527,0,0
-28,-503,0,0,0,0,0,0,0,0,0,-1,1196,1527,0,0
-21,-503,0,0,0,0,0,0,0,0,0,-1,1203,1527,0,0
-14,-503,0,0,0,0,0,0,0,0,0,-1,1210,1527,0,0
-7,-503,0,0,0,0,0,0,0,0,0,-1,1217,1527,0,0
0,-503,0,0,0,0,0,0,0,0,0,-1,1224,1527,0,0
7,-503,0,0,0,0,0,0,0,0,0,-1,1231,1527,0,0
14,-503,0,0,0,0,0,0,0,0,0,-1,1238,1527,0,0
21,-503,0,0,0,0,0,0,0,0,0,-1,1245,1527,0,0
28,-503,0,0,0,0,0,0,0,0,0,-1,1252,1527,0,0
35,-503,0,0,0,0,0,0,0,0,0,-1,1259,1527,0,0
42,-503,0,0,0,0,0,0,0,0,0,-1,1266,1527,0,0
49,-503,0,0,0,0,0,0,0,0,0,-1,1273,1527,0,0
56,-503,0,0,0,0,0,0,0,0,0,-1,1280,1527,0,0
63,-503,0,0,0,0,0,0,0,0,0,-1,1287,1527,0,0
70,-503,0,0,0,0,0,0,0,0,0,-1,1294,1527,0,0
77,-503,0,0,0,0,0,0,0,0,0,-1,1301,1527,0,0
84,-503,0,0,0,0,0,0,0,0,0,-1,1308,1527,0,0
91,-503,0,0,0,0,0,0,0,0,0,-1,1315,1527,0,0
98,-503,0,0,0,0,0,0,0,0,0,-1,1322,1527,0,0
105,-503,0,0,0,0,0,0,0,0,0,-1,1329,1527,0,0
112,-503,0,0,0,0,0,0,0,0,0,-1,1336,1527,0,0
119,-503,0,0,0,0,0,0,0,0,0,-1,1343,1527,0,0
126,-503,0,0,0,0,0,0,0,0,0,-1,1350,1527,0,0
133,-503,0,0,0,0,0,0,0,0,0,-1,1357,1527,0,0
140,-503,0,0,0,0,0,0,0,0,0,-1,1364,1527,0,0
147,-503,0,0,0,0,0,0,0,0,0,-1,1371,1527,0,0
154,-503,0,0,0,0,0,0,0,0,0,-1,1378,1527,0,0
161,-503,0,0,0,0,0,0,0,0,0,-1,1385,1527,0,0
168,-503,0,0,0,0,0,0,0,0,0,-1,1392,1527,0,0
175,-503,0,0,0,0,0,0,0,0,0,-1,1399,1527,0,0
182,-503,0,0,0,0,0,0,0,0,0,-1,1406,1527,0,0
189,-503,0,0,0,0,0,0,0,0,0,-1,1413,1527,0,0
196,-503,0,0,0,0,0,0,0,0,0,-1,1420,1527,0,0
203,-503,0,0,0,0,0,0,0,0,0,-1,1427,1527,0,0
210,-503,0,0,0,0,0,0,0,0,0,-1,1434,1527,0,0
217,-503,0,0,0,0,0,0,0,0,0,-1,1441,1527,0,0
224,-503,0,0,0,0,0,0,0,0,0,-1,1448,1527,0,0
231,-503,0,0,0,0,0,0,0,0,0,-1,1455,1527,0,0
238,-503,0,0,0,0,0,0,0,0,0,-1,1462,1527,0,0
245,-503,0,0,0,0,0,0,0,0,0,-1,1469,1527,0,0
252,-503,0,0,0,0,0,0,0,0,0,-1,1476,1527,0,0
259,-503,0,0,0,0,0,0,0,0,0,-1,1483,1527,0,0
266,-503,0,0,0,0,0,0,0,0,0,-1,1490,1527,0,0
273,-503,0,0,0,0,0,0,0,0,0,-1,1497,1527,0,0
280,-503,0,0,0,0,0,0,0,0,0,-1,1504,1527,0,0
287,-503,0,0,0,0,0,0,0,0,0,-1,1511,1527,0,0
294,-503,0,0,0,0,0,0,0,0,0,-1,1518,1527,0,0
301,-503,0,0,0,0,0,0,0,0,0,-1,1525,1527,0,0
308,-503,0,0,0,0,0,0,0,0,0,-1,1532,1527,0,0
315,-503,0,0,0,0,0,0,0,0,0,-1,1539,1527,0,0
322,-503,0,0,0,0,0,0,0,0,0,-1,1546,1527,0,0
329,-503,0,0,0,0,0,0,0,0,0,-1,1553,1527,0,0
336,-503,0,0,0,0,0,0,0,0,0,-1,1560,1527,0,0
343,-503,0,0,0,0,0,0,0,0,0,-1,1567,1527,0,0
350,-503,0,0,0,0,0,0,0,0,0,-1,1574,1527,0,0
357,-503,0,0,0,0,0,0,0,0,0,-1,1581,1527,0,0
364,-503,0,0,0,0,0,0,0,0,0,-1,1588,1527,0,0
371,-503,0,0,0,0,0,0,0,0,0,-1,1595,1527,0,0
378,-503,0,0,0,0,0,0,0,0,0,-1,1602,1527,0,0
385,-503,0,0,0,0,0,0,0,0,0,-1,1609,1527,0,0
392,-503,0,0,0,0,0,0,0,0,0,-1,1616,1527,0,0
399,-503,0,0,0,0,0,0,0,0,0,-1,1623,1527,0,0
406,-503,0,0,0,0,0,0,0,0,0,-1,1630,1527,0,0
413,-503,0,0,0,0,0,0,0,0,0,-1,1637,1527,0,0
420,-503,0,0,0,0,0,0,0,0,0,-1,1644,1527,0,0
427,-503,10.5968,4.9856,0,0,0,0,0,0,0,-1,1651,1527,10.5969,-4.98563
434,-503,11.4329,3.97217,0,0,0,0,0,0,0,-1,1658,1527,11.4328,-3.97222
441,-503,12.0957,2.96509,0,0,0,0,0,0,0,-1,1665,1527,12.0957,-2.96512
448,-503,12.3259,2.53894,0,0,0,0,0,0,0,-1,1672,1527,12.326,-2.53895
455,-503,12.1669,2.18762,0,0,0,0,0,0,0,-1,1679,1527,12.1668,-2.18767
462,-503,11.59,2.60791,0,0,0,0,0,0,0,-1,1686,1527,11.5899,-2.60794
469,-503,11.1625,1.61853,0,0,0,0,0,0,0,-1,1693,1527,11.1625,-1.61856
476,-503,9.07703,5.81042,0,0,0,0,0,0,0,-1,1700,1527,9.07699,-5.81047
483,-503,9.74414,6.92432,0,0,0,0,0,0,0,-1,1707,1527,9.74417,-6.9243
490,-503,10.5033,10.1071,0,0,0,0,0,0,0,-1,1714,1527,10.5032,-10.107
497,-503,15.0057,17.9476,0,0,0,0,0,0,0,-1,1721,1527,15.0058,-17.9476
504,-503,16.4764,18.4486,0,0,0,0,0,0,0,-1,1728,1527,16.4764,-18.4486
511,-503,16.8276,18.3271,0,0,0,0,0,0,0,-1,1735,1527,16.8276,-18.3272
518,-503,17.2533,18.2738,0,0,0,0,0,0,0,-1,1742,1527,17.2533,-18.2738
525,-503,21.2887,26.5785,0,0,0,0,0,0,0,-1,1749,1527,21.2887,-26.5785
532,-503,50.0776,89.5392,0,0,0,0,0,0,0,-1,1756,1527,50.0776,-89.5392
539,-503,73.004,136.88,0,0,0,0,0,0,0,-1,1763,1527,73.004,-136.879
546,-503,116.567,135.416,0,0,0,0,0,0,0,-1,1770,1527,116.567,-135.416
553,-503,115.366,131.413,0.0134707,0.0103327,0.0409971,0.0529288,-0.0291255,0.766272,0.0480339,0.0302188,1777,1527,115.366,-131.413
560,-503,114.115,127.374,0.0154812,0.0141376,0.0427016,0.0575163,-0.0278976,0.777533,0.0502923,0.0222815,1784,1527,114.115,-127.374
567,-503,112.924,123.253,0.0172807,0.0181465,0.0442949,0.0620106,-0.0265835,0.790284,0.0524953,0.0209873,1791,1527,112.924,-123.253
574,-503,111.88,119.246,0.0189561,0.0222581,0.0458575,0.0664943,-0.0252801,0.803392,0.054738,0.0210401,1798,1527,111.88,-119.246
581,-503,110.857,115.312,0.0204964,0.0264827,0.0473453,0.0709294,-0.0239502,0.816966,0.0569732,0.0213784,1805,1527,110.857,-115.312
588,-503,109.783,111.33,0.0219315,0.0308933,0.0486989,0.075317,-0.0224922,0.831275,0.0591518,0.0254531,1812,1527,109.783,-111.33
595,-503,108.861,107.576,0.0232759,0.0353339,0.0500005,0.0796676,-0.0210577,0.845398,0.0613477,0.022348,1819,1527,108.861,-107.576
602,-503,107.88,103.755,0,0,0,0,0,0,0,-1,1826,1527,107.881,-103.755
609,-503,106.309,99.6763,0,0,0,0,0,0,0,-1,1833,1527,106.309,-99.6762
616,-503,27.9205,24.2308,0,0,0,0,0,0,0,-1,1840,1527,27.9206,-24.2309
623,-503,18.7351,15.5999,0,0,0,0,0,0,0,-1,1847,1527,18.7351,-15.5999
630,-503,20.6721,13.9077,0,0,0,0,0,0,0,-1,1854,1527,20.6721,-13.9077
637,-503,14.5564,9.20496,0,0,0,0,0,0,0,-1,1861,1527,14.5564,-9.2049
644,-503,11.4802,7.57214,0,0,0,0,0,0,0,-1,1868,1527,11.4802,-7.57215
651,-503,11.5718,6.5448,0,0,0,0,0,0,0,-1,1875,1527,11.5718,-6.54476
658,-503,8.25635,3.10498,0,0,0,0,0,0,0,-1,1882,1527,8.2563,-3.10493
665,-503,0,0,0,0,0,0,0,0,0,-1,1889,1527,0,0
672,-503,0,0,0,0,0,0,0,0,0,-1,1896,1527,0,0
679,-503,0,0,0,0,0,0,0,0,0,-1,1903,1527,0,0
686,-503,0,0,0,0,0,0,0,0,0,-1,1910,1527,0,0
693,-503,0,0,0,0,0,0,0,0,0,-1,1917,1527,0,0
700,-503,0,0,0,0,0,0,0,0,0,-1,1924,1527,0,0
707,-503,0,0,0,0,0,0,0,0,0,-1,1931,1527,0,0
714,-503,0,0,0,0,0,0,0,0,0,-1,1938,1527,0,0
721,-503,0,0,0,0,0,0,0,0,0,-1,1945,1527,0,0
728,-503,0,0,0,0,0,0,0,0,0,-1,1952,1527,0,0
735,-503,0,0,0,0,0,0,0,0,0,-1,1959,1527,0,0
742,-503,0,0,0,0,0,0,0,0,0,-1,1966,1527,0,0
749,-503,0,0,0,0,0,0,0,0,0,-1,1973,1527,0,0
756,-503,0,0,0,0,0,0,0,0,0,-1,1980,1527,0,0
763,-503,0,0,0,0,0,0,0,0,0,-1,1987,1527,0,0
770,-503,0,0,0,0,0,0,0,0,0,-1,1994,1527,0,0
777,-503,0,0,0,0,0,0,0,0,0,-1,2001,1527,0,0
784,-503,0,0,0,0,0,0,0,0,0,-1,2008,1527,0,0
791,-503,0,0,0,0,0,0,0,0,0,-1,2015,1527,0,0
798,-503,0,0,0,0,0,0,0,0,0,-1,2022,1527,0,0
805,-503,0,0,0,0,0,0,0,0,0,-1,2029,1527,0,0
812,-503,0,0,0,0,0,0,0,0,0,-1,2036,1527,0,0
-700,-510,0,0,0,0,0,0,0,0,0,-1,524,1534,0,0
-693,-510,0,0,0,0,0,0,0,0,0,-1,531,1534,0,0
-686,-510,0,0,0,0,0,0,0,0,0,-1,538,1534,0,0
-679,-510,0,0,0,0,0,0,0,0,0,-1,545,1534,0,0
-672,-510,0,0,0,0,0,0,0,0,0,-1,552,1534,0,0
-665,-510,0,0,0,0,0,0,0,0,0,-1,559,1534,0,0
-658,-510,0,0,0,0,0,0,0,0,0,-1,566,1534,0,0
-651,-510,0,0,0,0,0,0,0,0,0,-1,573,1534,0,0
-644,-510,0,0,0,0,0,0,0,0,0,-1,580,1534,0,0
-637,-510,0,0,0,0,0,0,0,0,0,-1,587,1534,0,0
-630,-510,0,0,0,0,0,0,0,0,0,-1,594,1534,0,0
-623,-510,0,0,0,0,0,0,0,0,0,-1,601,1534,0,0
-616,-510,0,0,0,0,0,0,0,0,0,-1,608,1534,0,0
-609,-510,0,0,0,0,0,0,0,0,0,-1,615,1534,0,0
-602,-510,0,0,0,0,0,0,0,0,0,-1,622,1534,0,0
-595,-510,0,0,0,0,0,0,0,0,0,-1,629,1534,0,0
-588,-510,0,0,0,0,0,0,0,0,0,-1,636,1534,0,0
-581,-510,0,0,0,0,0,0,0,0,0,-1,643,1534,0,0
-574,-510,0,0,0,0,0,0,0,0,0,-1,650,1534,0,0
-567,-510,0,0,0,0,0,0,0,0,0,-1,657,1534,0,0
-560,-510,0,0,0,0,0,0,0,0,0,-1,664,1534,0,0
-553,-510,0,0,0,0,0,0,0,0,0,-1,671,1534,0,0
-546,-510,0,0,0,0,0,0,0,0,0,-1,678,1534,0,0
-539,-510,0,0,0,0,0,0,0,0,0,-1,685,1534,0,0
-532,-510,-3.95129,4.52014,0,0,0,0,0,0,0,-1,692,1534,-3.95131,-4.5202
-525,-510,-2.77411,0.316772,0,0,0,0,0,0,0,-1,699,1534,-2.77409,-0.3168
-518,-510,-2.86847,2.71423,0,0,0,0,0,0,0,-1,706,1534,-2.86849,-2.71424
-511,-510,-2.28571,4.48083,0,0,0,0,0,0,0,-1,713,1534,-2.28571,-4.48086
-504,-510,-4.86731,10.8224,0,0,0,0,0,0,0,-1,720,1534,-4.8673,-10.8224
-497,-510,-3.42352,15.5178,0,0,0,0,0,0,0,-1,727,1534,-3.42352,-15.5178
-490,-510,-5.9472,18.5184,0,0,0,0,0,0,0,-1,734,1534,-5.94718,-18.5185
-483,-510,-6.79639,20.8453,0,0,0,0,0,0,0,-1,741,1534,-6.79638,-20.8454
-476,-510,-16.0211,37.6001,0,0,0,0,0,0,0,-1,748,1534,-16.021,-37.6001
-469,-510,-92.2349,100.304,0,0,0,0,0,0,0,-1,755,1534,-92.2348,-100.304
-462,-510,-93.0591,104.313,0.0499886,0.0587226,-0.0742686,0.128752,-0.0200413,-0.814764,0.0932362,0.0288532,762,1534,-93.0591,-104.313
-455,-510,-93.9086,108.241,0.0461225,0.0520857,-0.0729042,0.122069,-0.023861,-0.805835,0.0903892,0.0224915,769,1534,-93.9087,-108.242
-448,-510,-95.005,112.14,0.0431464,0.0453374,-0.0710416,0.115292,-0.0268081,-0.793108,0.0871822,0.021051,776,1534,-95.005,-112.14
-441,-510,-96.2373,116.256,0.0397953,0.0384911,-0.0689639,0.10811,-0.0298238,-0.78067,0.0838028,0.0262464,783,1534,-96.2373,-116.256
-434,-510,-97.3709,120.281,0.0357246,0.0316264,-0.0669101,0.100617,-0.033266,-0.770091,0.0804916,0.0283414,790,1534,-97.3709,-120.281
-427,-510,-98.0731,124.486,0.031194,0.0253401,-0.065123,0.0934558,-0.0369216,-0.762941,0.0775965,0.0462305,797,1534,-98.0731,-124.486
-420,-510,-98.7022,128.768,0,0,0,0,0,0,0,-1,804,1534,-98.7022,-128.768
-413,-510,-99.4129,132.931,0,0,0,0,0,0,0,-1,811,1534,-99.4129,-132.931
-406,-510,-100.695,137.381,0,0,0,0,0,0,0,-1,818,1534,-100.695,-137.381
-399,-510,-81.2313,142.038,0,0,0,0,0,0,0,-1,825,1534,-81.2313,-142.038
-392,-510,-73.9508,144.447,0,0,0,0,0,0,0,-1,832,1534,-73.9508,-144.447
-385,-510,-7.23199,31.704,0,0,0,0,0,0,0,-1,839,1534,-7.23198,-31.704
-378,-510,-1.78308,13.8044,0,0,0,0,0,0,0,-1,846,1534,-1.78309,-13.8044
-371,-510,-1.74982,13.8027,0,0,0,0,0,0,0,-1,853,1534,-1.74981,-13.8028
-364,-510,-1.3479,13.7771,0,0,0,0,0,0,0,-1,860,1534,-1.34791,-13.7771
-357,-510,-0.254395,8.89575,0,0,0,0,0,0,0,-1,867,1534,-0.254397,-8.89569
-350,-510,0.471191,6.06458,0,0,0,0,0,0,0,-1,874,1534,0.47118,-6.06453
-343,-510,-6.96869,26.3074,0,0,0,0,0,0,0,-1,881,1534,-6.9687,-26.3074
-336,-510,-5.60437,29.5996,0,0,0,0,0,0,0,-1,888,1534,-5.60435,-29.5996
-329,-510,-4.87781,20.6893,0,0,0,0,0,0,0,-1,895,1534,-4.87782,-20.6894
-322,-510,-0.251526,11.973,0,0,0,0,0,0,0,-1,902,1534,-0.251497,-11.9731
-315,-510,-1.73047,10.9796,0,0,0,0,0,0,0,-1,909,1534,-1.73049,-10.9796
-308,-510,-2.05328,9.72034,0,0,0,0,0,0,0,-1,916,1534,-2.05327,-9.72036
-301,-510,-1.85437,11.5869,0,0,0,0,0,0,0,-1,923,1534,-1.85437,-11.5869
-294,-510,0,0,0,0,0,0,0,0,0,-1,930,1534,0,0
-287,-510,0,0,0,0,0,0,0,0,0,-1,937,1534,0,0
-280,-510,0,0,0,0,0,0,0,0,0,-1,944,1534,0,0
-273,-510,0,0,0,0,0,0,0,0,0,-1,951,1534,0,0
-266,-510,0,0,0,0,0,0,0,0,0,-1,958,1534,0,0
-259,-510,0,0,0,0,0,0,0,0,0,-1,965,1534,0,0
-252,-510,0,0,0,0,0,0,0,0,0,-1,972,1534,0,0
-245,-510,0,0,0,0,0,0,0,0,0,-1,979,1534,0,0
-238,-510,0,0,0,0,0,0,0,0,0,-1,986,1534,0,0
-231,-510,0,0,0,0,0,0,0,0,0,-1,993,1534,0,0
-224,-510,0,0,0,0,0,0,0,0,0,-1,1000,1534,0,0
-217,-510,0,0,0,0,0,0,0,0,0,-1,1007,1534,0,0
-210,-510,0,0,0,0,0,0,0,0,0,-1,1014,1534,0,0
-203,-510,0,0,0,0,0,0,0,0,0,-1,1021,1534,0,0
-196,-510,0,0,0,0,0,0,0,0,0,-1,1028,1534,0,0
-189,-510,0,0,0,0,0,0,0,0,0,-1,1035,1534,0,0
-182,-510,0,0,0,0,0,0,0,0,0,-1,1042,1534,0,0
-175,-510,0,0,0,0,0,0,0,0,0,-1,1049,1534,0,0
-168,-510,0,0,0,0,0,0,0,0,0,-1,1056,1534,0,0
-161,-510,0,0,0,0,0,0,0,0,0,-1,1063,1534,0,0
-154,-510,0,0,0,0,0,0,0,0,0,-1,1070,1534,0,0
-147,-510,0,0,0,0,0,0,0,0,0,-1,1077,1534,0,0
-140,-510,0,0,0,0,0,0,0,0,0,-1,1084,1534,0,0
-133,-510,0,0,0,0,0,0,0,0,0,-1,1091,1534,0,0
-126,-510,0,0,0,0,0,0,0,0,0,-1,1098,1534,0,0
-119,-510,0,0,0,0,0,0,0,0,0,-1,1105,1534,0,0
-112,-510,0,0,0,0,0,0,0,0,0,-1,1112,1534,0,0
-105,-510,0,0,0,0,0,0,0,0,0,-1,1119,1534,0,0
-98,-510,0,0,0,0,0,0,0,0,0,-1,1126,1534,0,0
-91,-510,0,0,0,0,0,0,0,0,0,-1,1133,1534,0,0
-84,-510,0,0,0,0,0,0,0,0,0,-1,1140,1534,0,0
-77,-510,0,0,0,0,0,0,0,0,0,-1,1147,1534,0,0
-70,-510,0,0,0,0,0,0,0,0,0,-1,1154,1534,0,0
-63,-510,0,0,0,0,0,0,0,0,0,-1,1161,1534,0,0
-56,-510,0,0,0,0,0,0,0,0,0,-1,1168,1534,0,0
-49,-510,0,0,0,0,0,0,0,0,0,-1,1175,1534,0,0
-42,-510,0,0,0,0,0,0,0,0,0,-1,1182,1534,0,0
-35,-510,0,0,0,0,0,0,0,0,0,-1,1189,1534,0,0
-28,-510,0,0,0,0,0,0,0,0,0,-1,1196,1534,0,0
-21,-510,0,0,0,0,0,0,0,0,0,-1,1203,1534,0,0
-14,-510,0,0,0,0,0,0,0,0,0,-1,1210,1534,0,0
-7,-510,0,0,0,0,0,0,0,0,0,-1,1217,1534,0,0
0,-510,0,0,0,0,0,0,0,0,0,-1,1224,1534,0,0
7,-510,0,0,0,0,0,0,0,0,0,-1,1231,1534,0,0
14,-510,0,0,0,0,0,0,0,0,0,-1,1238,1534,0,0
21,-510,0,0,0,0,0,0,0,0,0,-1,1245,1534,0,0
28,-510,0,0,0,0,0,0,0,0,0,-1,1252,1534,0,0
35,-510,0,0,0,0,0,0,0,0,0,-1,1259,1534,0,0
42,-510,0,0,0,0,0,0,0,0,0,-1,1266,1534,0,0
49,-510,0,0,0,0,0,0,0,0,0,-1,1273,1534,0,0
56,-510,0,0,0,0,0,0,0,0,0,-1,1280,1534,0,0
63,-510,0,0,0,0,0,0,0,0,0,-1,1287,1534,0,0
70,-510,0,0,0,0,0,0,0,0,0,-1,1294,1534,0,0
77,-510,0,0,0,0,0,0,0,0,0,-1,1301,1534,0,0
84,-510,0,0,0,0,0,0,0,0,0,-1,1308,1534,0,0
91,-510,0,0,0,0,0,0,0,0,0,-1,1315,1534,0,0
98,-510,0,0,0,0,0,0,0,0,0,-1,1322,1534,0,0
105,-510,0,0,0,0,0,0,0,0,0,-1,1329,1534,0,0
112,-510,0,0,0,0,0,0,0,0,0,-1,1336,1534,0,0
119,-510,0,0,0,0,0,0,0,0,0,-1,1343,1534,0,0
126,-510,0,0,0,0,0,0,0,0,0,-1,1350,1534,0,0
133,-510,0,0,0,0,0,0,0,0,0,-1,1357,1534,0,0
140,-510,0,0,0,0,0,0,0,0,0,-1,1364,1534,0,0
147,-510,0,0,0,0,0,0,0,0,0,-1,1371,1534,0,0
154,-510,0,0,0,0,0,0,0,0,0,-1,1378,1534,0,0
161,-510,0,0,0,0,0,0,0,0,0,-1,1385,1534,0,0
168,-510,0,0,0,0,0,0,0,0,0,-1,1392,1534,0,0
175,-510,0,0,0,0,0,0,0,0,0,-1,1399,1534,0,0
182,-510,0,0,0,0,0,0,0,0,0,-1,1406,1534,0,0
189,-510,0,0,0,0,0,0,0,0,0,-1,1413,1534,0,0
196,-510,0,0,0,0,0,0,0,0,0,-1,1420,1534,0,0
203,-510,0,0,0,0,0,0,0,0,0,-1,1427,1534,0,0
210,-510,0,0,0,0,0,0,0,0,0,-1,1434,1534,0,0
217,-510,0,0,0,0,0,0,0,0,0,-1,1441,1534,0,0
224,-510,0,0,0,0,0,0,0,0,0,-1,1448,1534,0,0
231,-510,0,0,0,0,0,0,0,0,0,-1,1455,1534,0,0
238,-510,0,0,0,0,0,0,0,0,0,-1,1462,1534,0,0
245,-510,0,0,0,0,0,0,0,0,0,-1,1469,1534,0,0
252,-510,0,0,0,0,0,0,0,0,0,-1,1476,1534,0,0
259,-510,0,0,0,0,0,0,0,0,0,-1,1483,1534,0,0
266,-510,0,0,0,0,0,0,0,0,0,-1,1490,1534,0,0
273,-510,0,0,0,0,0,0,0,0,0,-1,1497,1534,0,0
280,-510,0,0,0,0,0,0,0,0,0,-1,1504,1534,0,0
287,-510,0,0,0,0,0,0,0,0,0,-1,1511,1534,0,0
294,-510,0,0,0,0,0,0,0,0,0,-1,1518,1534,0,0
301,-510,0,0,0,0,0,0,0,0,0,-1,1525,1534,0,0
308,-510,0,0,0,0,0,0,0,0,0,-1,1532,1534,0,0
315,-510,0,0,0,0,0,0,0,0,0,-1,1539,1534,0,0
322,-510,0,0,0,0,0,0,0,0,0,-1,1546,1534,0,0
329,-510,0,0,0,0,0,0,0,0,0,-1,1553,1534,0,0
336,-510,0,0,0,0,0,0,0,0,0,-1,1560,1534,0,0
343,-510,0,0,0,0,0,0,0,0,0,-1,1567,1534,0,0
350,-510,0,0,0,0,0,0,0,0,0,-1,1574,1534,0,0
357,-510,0,0,0,0,0,0,0,0,0,-1,1581,1534,0,0
364,-510,0,0,0,0,0,0,0,0,0,-1,1588,1534,0,0
371,-510,0,0,0,0,0,0,0,0,0,-1,1595,1534,0,0
378,-510,0,0,0,0,0,0,0,0,0,-1,1602,1534,0,0
385,-510,0,0,0,0,0,0,0,0,0,-1,1609,1534,0,0
392,-510,0,0,0,0,0,0,0,0,0,-1,1616,1534,0,0
399,-510,0,0,0,0,0,0,0,0,0,-1,1623,1534,0,0
406,-510,0,0,0,0,0,0,0,0,0,-1,1630,1534,0,0
413,-510,0,0,0,0,0,0,0,0,0,-1,1637,1534,0,0
420,-510,14.1888,6.71936,0,0,0,0,0,0,0,-1,1644,1534,14.1889,-6.71939
427,-510,10.2134,5.59485,0,0,0,0,0,0,0,-1,1651,1534,10.2134,-5.59485
434,-510,11.8219,4.07898,0,0,0,0,0,0,0,-1,1658,1534,11.8219,-4.07895
441,-510,12.6812,3.02991,0,0,0,0,0,0,0,-1,1665,1534,12.6811,-3.0299
448,-510,13.2379,2.2804,0,0,0,0,0,0,0,-1,1672,1534,13.2379,-2.28037
455,-510,9.76892,2.20642,0,0,0,0,0,0,0,-1,1679,1534,9.76894,-2.20647
462,-510,9.84692,2.49182,0,0,0,0,0,0,0,-1,1686,1534,9.84695,-2.49185
469,-510,16.6072,7.26941,0,0,0,0,0,0,0,-1,1693,1534,16.6072,-7.26945
476,-510,15.9199,7.8645,0,0,0,0,0,0,0,-1,1700,1534,15.9199,-7.86455
483,-510,13.0833,8.10938,0,0,0,0,0,0,0,-1,1707,1534,13.0833,-8.10932
490,-510,13.0841,15.3286,0,0,0,0,0,0,0,-1,1714,1534,13.0841,-15.3286
497,-510,15.5652,18.823,0,0,0,0,0,0,0,-1,1721,1534,15.5652,-18.823
504,-510,15.998,18.7478,0,0,0,0,0,0,0,-1,1728,1534,15.998,-18.7478
511,-510,15.9443,18.0476,0,0,0,0,0,0,0,-1,1735,1534,15.9443,-18.0476
518,-510,21.5343,27.1368,0,0,0,0,0,0,0,-1,1742,1534,21.5342,-27.1368
525,-510,48.0154,91.9933,0,0,0,0,0,0,0,-1,1749,1534,48.0153,-91.9933
532,-510,72.8895,143.45,0,0,0,0,0,0,0,-1,1756,1534,72.8895,-143.45
539,-510,101.856,141.73,0,0,0,0,0,0,0,-1,1763,1534,101.856,-141.73
546,-510,112.038,136.941,0,0,0,0,0,0,0,-1,1770,1534,112.038,-136.941
553,-510,110.804,132.915,0.0193347,0.0108364,0.0428255,0.0581213,-0.0279502,0.73595,0.0507009,0.0267243,1777,1534,110.804,-132.915
560,-510,109.591,128.852,0.0206373,0.014862,0.0443737,0.0622172,-0.0267179,0.752906,0.0526926,0.0215256,1784,1534,109.591,-128.852
567,-510,108.392,124.797,0.0219414,0.0192377,0.0459245,0.0665339,-0.0253548,0.770685,0.0547989,0.0205145,1791,1534,108.392,-124.796
574,-510,107.284,120.664,0.0232906,0.0238308,0.0474295,0.070991,-0.0238696,0.788246,0.0569757,0.021283,1798,1534,107.284,-120.664
581,-510,106.325,116.766,0.0246375,0.0285439,0.0488537,0.0754834,-0.022302,0.805378,0.0591741,0.01766,1805,1534,106.325,-116.766
588,-510,105.295,112.919,0.0259801,0.0333977,0.0502185,0.0800441,-0.0206663,0.822258,0.0614216,0.0202524,1812,1534,105.295,-112.919
595,-510,104.363,108.796,0.027352,0.0383664,0.0515849,0.0847373,-0.0190189,0.838577,0.0637834,0.04315,1819,1534,104.363,-108.796
602,-510,103.406,104.717,0,0,0,0,0,0,0,-1,1826,1534,103.406,-104.717
609,-510,21.259,19.222,0,0,0,0,0,0,0,-1,1833,1534,21.259,-19.222
616,-510,18.7024,16.2474,0,0,0,0,0,0,0,-1,1840,1534,18.7024,-16.2474
623,-510,19.6013,14.6211,0,0,0,0,0,0,0,-1,1847,1534,19.6013,-14.6211
630,-510,13.7461,9.30334,0,0,0,0,0,0,0,-1,1854,1534,13.7461,-9.30335
637,-510,11.0155,7.38464,0,0,0,0,0,0,0,-1,1861,1534,11.0155,-7.38463
644,-510,11.5809,7.17126,0,0,0,0,0,0,0,-1,1868,1534,11.5809,-7.17123
651,-510,8.70471,3.5061,0,0,0,0,0,0,0,-1,1875,1534,8.70475,-3.50611
658,-510,0,0,0,0,0,0,0,0,0,-1,1882,1534,0,0
665,-510,0,0,0,0,0,0,0,0,0,-1,1889,1534,0,0
672,-510,0,0,0,0,0,0,0,0,0,-1,1896,1534,0,0
679,-510,0,0,0,0,0,0,0,0,0,-1,1903,1534,0,0
686,-510,0,0,0,0,0,0,0,0,0,-1,1910,1534,0,0
693,-510,0,0,0,0,0,0,0,0,0,-1,1917,1534,0,0
700,-510,0,0,0,0,0,0,0,0,0,-1,1924,1534,0,0
707,-510,0,0,0,0,0,0,0,0,0,-1,1931,1534,0,0
714,-510,0,0,0,0,0,0,0,0,0,-1,1938,1534,0,0
721,-510,0,0,0,0,0,0,0,0,0,-1,1945,1534,0,0
728,-510,0,0,0,0,0,0,0,0,0,-1,1952,1534,0,0
735,-510,0,0,0,0,0,0,0,0,0,-1,1959,1534,0,0
742,-510,0,0,0,0,0,0,0,0,0,-1,1966,1534,0,0
749,-510,0,0,0,0,0,0,0,0,0,-1,1973,1534,0,0
756,-510,0,0,0,0,0,0,0,0,0,-1,1980,1534,0,0
763,-510,0,0,0,0,0,0,0,0,0,-1,1987,1534,0,0
770,-510,0,0,0,0,0,0,0,0,0,-1,1994,1534,0,0
777,-510,0,0,0,0,0,0,0,0,0,-1,2001,1534,0,0
784,-510,0,0,0,0,0,0,0,0,0,-1,2008,1534,0,0
791,-510,0,0,0,0,0,0,0,0,0,-1,2015,1534,0,0
798,-510,0,0,0,0,0,0,0,0,0,-1,2022,1534,0,0
805,-510,0,0,0,0,0,0,0,0,0,-1,2029,1534,0,0
812,-510,0,0,0,0,0,0,0,0,0,-1,2036,1534,0,0
-700,-517,0,0,0,0,0,0,0,0,0,-1,524,1541,0,0
-693,-517,0,0,0,0,0,0,0,0,0,-1,531,1541,0,0
-686,-517,0,0,0,0,0,0,0,0,0,-1,538,1541,0,0
-679,-517,0,0,0,0,0,0,0,0,0,-1,545,1541,0,0
-672,-517,0,0,0,0,0,0,0,0,0,-1,552,1541,0,0
-665,-517,0,0,0,0,0,0,0,0,0,-1,559,1541,0,0
-658,-517,0,0,0,0,0,0,0,0,0,-1,566,1541,0,0
-651,-517,0,0,0,0,0,0,0,0,0,-1,573,1541,0,0
-644,-517,0,0,0,0,0,0,0,0,0,-1,580,1541,0,0
-637,-517,0,0,0,0,0,0,0,0,0,-1,587,1541,0,0
-630,-517,0,0,0,0,0,0,0,0,0,-1,594,1541,0,0
-623,-517,0,0,0,0,0,0,0,0,0,-1,601,1541,0,0
-616,-517,0,0,0,0,0,0,0,0,0,-1,608,1541,0,0
-609,-517,0,0,0,0,0,0,0,0,0,-1,615,1541,0,0
-602,-517,0,0,0,0,0,0,0,0,0,-1,622,1541,0,0
-595,-517,0,0,0,0,0,0,0,0,0,-1,629,1541,0,0
-588,-517,0,0,0,0,0,0,0,0,0,-1,636,1541,0,0
-581,-517,0,0,0,0,0,0,0,0,0,-1,643,1541,0,0
-574,-517,0,0,0,0,0,0,0,0,0,-1,650,1541,0,0
-567,-517,0,0,0,0,0,0,0,0,0,-1,657,1541,0,0
-560,-517,0,0,0,0,0,0,0,0,0,-1,664,1541,0,0
-553,-517,0,0,0,0,0,0,0,0,0,-1,671,1541,0,0
-546,-517,0,0,0,0,0,0,0,0,0,-1,678,1541,0,0
-539,-517,0,0,0,0,0,0,0,0,0,-1,685,1541,0,0
-532,-517,0,0,0,0,0,0,0,0,0,-1,692,1541,0,0
-525,-517,-3.62903,4.3606,0,0,0,0,0,0,0,-1,699,1541,-3.62904,-4.36056
-518,-517,-1.664,2.27209,0,0,0,0,0,0,0,-1,706,1541,-1.66399,-2.27207
-511,-517,-0.999146,5.52063,0,0,0,0,0,0,0,-1,713,1541,-0.999126,-5.52059
-504,-517,-1.06946,8.67432,0,0,0,0,0,0,0,-1,720,1541,-1.06947,-8.6743
-497,-517,-5.43036,17.4033,0,0,0,0,0,0,0,-1,727,1541,-5.43033,-17.4034
-490,-517,-6.20526,19.4496,0,0,0,0,0,0,0,-1,734,1541,-6.20526,-19.4495
-483,-517,-6.2254,20.368,0,0,0,0,0,0,0,-1,741,1541,-6.22542,-20.368
-476,-517,-11.8129,32.7147,0,0,0,0,0,0,0,-1,748,1541,-11.8129,-32.7147
-469,-517,-14.6641,38.8503,0,0,0,0,0,0,0,-1,755,1541,-14.6641,-38.8503
-462,-517,-88.1086,105.606,0,0,0,0,0,0,0,-1,762,1541,-88.1086,-105.606
-455,-517,-89.0508,109.715,0,0,0,0,0,0,0,-1,769,1541,-89.0508,-109.715
-448,-517,-90.1429,113.772,0.0477307,0.0488102,-0.0744329,0.122705,-0.0261644,-0.789024,0.0917768,0.0225583,776,1541,-90.143,-113.772
-441,-517,-91.1271,117.838,0.0449939,0.0416922,-0.0722974,0.115659,-0.0289732,-0.773983,0.0883617,0.0241114,783,1541,-91.127,-117.838
-434,-517,-92.0667,121.903,0.0411395,0.0346697,-0.0703106,0.10829,-0.0324803,-0.76241,0.0851114,0.0285012,790,1541,-92.0667,-121.903
-427,-517,-92.8768,126.02,0.0367207,0.0282324,-0.0686902,0.101298,-0.0363447,-0.754544,0.0823645,0.0238386,797,1541,-92.8768,-126.02
-420,-517,-93.6045,130.085,0,0,0,0,0,0,0,-1,804,1541,-93.6045,-130.085
-413,-517,-94.8109,134.591,0.0253036,0.0166291,-0.0659957,0.0871044,-0.0451717,-0.752585,0.0776382,0.0192552,811,1541,-94.8109,-134.591
-406,-517,-95.9453,139.016,0.0182227,0.0119985,-0.065526,0.0807104,-0.0504892,-0.761669,0.0764151,0.0498988,818,1541,-95.9453,-139.016
-399,-517,-97.2805,143.492,0,0,0,0,0,0,0,-1,825,1541,-97.2805,-143.492
-392,-517,-98.8169,147.276,0,0,0,0,0,0,0,-1,832,1541,-98.8169,-147.276
-385,-517,-71.1876,150.088,0,0,0,0,0,0,0,-1,839,1541,-71.1876,-150.088
-378,-517,-6.61444,32.6315,0,0,0,0,0,0,0,-1,846,1541,-6.61445,-32.6315
-371,-517,-1.37585,13.2646,0,0,0,0,0,0,0,-1,853,1541,-1.37586,-13.2647
-364,-517,-1.26245,12.6289,0,0,0,0,0,0,0,-1,860,1541,-1.26243,-12.6289
-357,-517,-1.23889,12.979,0,0,0,0,0,0,0,-1,867,1541,-1.23891,-12.979
-350,-517,-5.40198,23.8954,0,0,0,0,0,0,0,-1,874,1541,-5.40196,-23.8954
-343,-517,-5.45844,29.2598,0,0,0,0,0,0,0,-1,881,1541,-5.45842,-29.2598
-336,-517,-4.53223,29.6708,0,0,0,0,0,0,0,-1,888,1541,-4.53221,-29.6708
-329,-517,-3.60602,30.0817,0,0,0,0,0,0,0,-1,895,1541,-3.60601,-30.0817
-322,-517,-4.21246,19.5819,0,0,0,0,0,0,0,-1,902,1541,-4.21244,-19.5819
-315,-517,-0.987976,7.29749,0,0,0,0,0,0,0,-1,909,1541,-0.987993,-7.29743
-308,-517,3.27911,17.621,0,0,0,0,0,0,0,-1,916,1541,3.27913,-17.621
-301,-517,-1.69141,8.87488,0,0,0,0,0,0,0,-1,923,1541,-1.69141,-8.87485
-294,-517,-1.72583,9.92566,0,0,0,0,0,0,0,-1,930,1541,-1.72584,-9.92571
-287,-517,-3.09045,12.1472,0,0,0,0,0,0,0,-1,937,1541,-3.09043,-12.1472
-280,-517,0,0,0,0,0,0,0,0,0,-1,944,1541,0,0
-273,-517,0,0,0,0,0,0,0,0,0,-1,951,1541,0,0
-266,-517,0,0,0,0,0,0,0,0,0,-1,958,1541,0,0
-259,-517,0,0,0,0,0,0,0,0,0,-1,965,1541,0,0
-252,-517,0,0,0,0,0,0,0,0,0,-1,972,1541,0,0
-245,-517,0,0,0,0,0,0,0,0,0,-1,979,1541,0,0
-238,-517,0,0,0,0,0,0,0,0,0,-1,986,1541,0,0
-231,-517,0,0,0,0,0,0,0,0,0,-1,993,1541,0,0
-224,-517,0,0,0,0,0,0,0,0,0,-1,1000,1541,0,0
-217,-517,0,0,0,0,0,0,0,0,0,-1,1007,1541,0,0
-210,-517,0,0,0,0,0,0,0,0,0,-1,1014,1541,0,0
-203,-517,0,0,0,0,0,0,0,0,0,-1,1021,1541,0,0
-196,-517,0,0,0,0,0,0,0,0,0,-1,1028,1541,0,0
-189,-517,0,0,0,0,0,0,0,0,0,-1,1035,1541,0,0
-182,-517,0,0,0,0,0,0,0,0,0,-1,1042,1541,0,0
-175,-517,0,0,0,0,0,0,0,0,0,-1,1049,1541,0,0
-168,-517,0,0,0,0,0,0,0,0,0,-1,1056,1541,0,0
-161,-517,0,0,0,0,0,0,0,0,0,-1,1063,1541,0,0
-154,-517,0,0,0,0,0,0,0,0,0,-1,1070,1541,0,0
-147,-517,0,0,0,0,0,0,0,0,0,-1,1077,1541,0,0
-140,-517,0,0,0,0,0,0,0,0,0,-1,1084,1541,0,0
-133,-517,0,0,0,0,0,0,0,0,0,-1,1091,1541,0,0
-126,-517,0,0,0,0,0,0,0,0,0,-1,1098,1541,0,0
-119,-517,0,0,0,0,0,0,0,0,0,-1,1105,1541,0,0
-112,-517,0,0,0,0,0,0,0,0,0,-1,1112,1541,0,0
-105,-517,0,0,0,0,0,0,0,0,0,-1,1119,1541,0,0
-98,-517,0,0,0,0,0,0,0,0,0,-1,1126,1541,0,0
-91,-517,0,0,0,0,0,0,0,0,0,-1,1133,1541,0,0
-84,-517,0,0,0,0,0,0,0,0,0,-1,1140,1541,0,0
-77,-517,0,0,0,0,0,0,0,0,0,-1,1147,1541,0,0
-70,-517,0,0,0,0,0,0,0,0,0,-1,1154,1541,0,0
-63,-517,0,0,0,0,0,0,0,0,0,-1,1161,1541,0,0
-56,-517,0,0,0,0,0,0,0,0,0,-1,1168,1541,0,0
-49,-517,0,0,0,0,0,0,0,0,0,-1,1175,1541,0,0
-42,-517,0,0,0,0,0,0,0,0,0,-1,1182,1541,0,0
-35,-517,0,0,0,0,0,0,0,0,0,-1,1189,1541,0,0
-28,-517,0,0,0,0,0,0,0,0,0,-1,1196,1541,0,0
-21,-517,0,0,0,0,0,0,0,0,0,-1,1203,1541,0,0
-14,-517,0,0,0,0,0,0,0,0,0,-1,1210,1541,0,0
-7,-517,0,0,0,0,0,0,0,0,0,-1,1217,1541,0,0
0,-517,0,0,0,0,0,0,0,0,0,-1,1224,1541,0,0
7,-517,0,0,0,0,0,0,0,0,0,-1,1231,1541,0,0
14,-517,0,0,0,0,0,0,0,0,0,-1,1238,1541,0,0
21,-517,0,0,0,0,0,0,0,0,0,-1,1245,1541,0,0
28,-517,0,0,0,0,0,0,0,0,0,-1,1252,1541,0,0
35,-517,0,0,0,0,0,0,0,0,0,-1,1259,1541,0,0
42,-517,0,0,0,0,0,0,0,0,0,-1,1266,1541,0,0
49,-517,0,0,0,0,0,0,0,0,0,-1,1273,1541,0,0
56,-517,0,0,0,0,0,0,0,0,0,-1,1280,1541,0,0
63,-517,0,0,0,0,0,0,0,0,0,-1,1287,1541,0,0
70,-517,0,0,0,0,0,0,0,0,0,-1,1294,1541,0,0
77,-517,0,0,0,0,0,0,0,0,0,-1,1301,1541,0,0
84,-517,0,0,0,0,0,0,0,0,0,-1,1308,1541,0,0
91,-517,0,0,0,0,0,0,0,0,0,-1,1315,1541,0,0
98,-517,0,0,0,0,0,0,0,0,0,-1,1322,1541,0,0
105,-517,0,0,0,0,0,0,0,0,0,-1,1329,1541,0,0
112,-517,0,0,0,0,0,0,0,0,0,-1,1336,1541,0,0
119,-517,0,0,0,0,0,0,0,0,0,-1,1343,1541,0,0
126,-517,0,0,0,0,0,0,0,0,0,-1,1350,1541,0,0
133,-517,0,0,0,0,0,0,0,0,0,-1,1357,1541,0,0
140,-517,0,0,0,0,0,0,0,0,0,-1,1364,1541,0,0
147,-517,0,0,0,0,0,0,0,0,0,-1,1371,1541,0,0
154,-517,0,0,0,0,0,0,0,0,0,-1,1378,1541,0,0
161,-517,0,0,0,0,0,0,0,0,0,-1,1385,1541,0,0
168,-517,0,0,0,0,0,0,0,0,0,-1,1392,1541,0,0
175,-517,0,0,0,0,0,0,0,0,0,-1,1399,1541,0,0
182,-517,0,0,0,0,0,0,0,0,0,-1,1406,1541,0,0
189,-517,0,0,0,0,0,0,0,0,0,-1,1413,1541,0,0
196,-517,0,0,0,0,0,0,0,0,0,-1,1420,1541,0,0
203,-517,0,0,0,0,0,0,0,0,0,-1,1427,1541,0,0
210,-517,0,0,0,0,0,0,0,0,0,-1,1434,1541,0,0
217,-517,0,0,0,0,0,0,0,0,0,-1,1441,1541,0,0
224,-517,0,0,0,0,0,0,0,0,0,-1,1448,1541,0,0
231,-517,0,0,0,0,0,0,0,0,0,-1,1455,1541,0,0
238,-517,0,0,0,0,0,0,0,0,0,-1,1462,1541,0,0
245,-517,0,0,0,0,0,0,0,0,0,-1,1469,1541,0,0
252,-517,0,0,0,0,0,0,0,0,0,-1,1476,1541,0,0
259,-517,0,0,0,0,0,0,0,0,0,-1,1483,1541,0,0
266,-517,0,0,0,0,0,0,0,0,0,-1,1490,1541,0,0
273,-517,0,0,0,0,0,0,0,0,0,-1,1497,1541,0,0
280,-517,0,0,0,0,0,0,0,0,0,-1,1504,1541,0,0
287,-517,0,0,0,0,0,0,0,0,0,-1,1511,1541,0,0
294,-517,0,0,0,0,0,0,0,0,0,-1,1518,1541,0,0
301,-517,0,0,0,0,0,0,0,0,0,-1,1525,1541,0,0
308,-517,0,0,0,0,0,0,0,0,0,-1,1532,1541,0,0
315,-517,0,0,0,0,0,0,0,0,0,-1,1539,1541,0,0
322,-517,0,0,0,0,0,0,0,0,0,-1,1546,1541,0,0
329,-517,0,0,0,0,0,0,0,0,0,-1,1553,1541,0,0
336,-517,0,0,0,0,0,0,0,0,0,-1,1560,1541,0,0
343,-517,0,0,0,0,0,0,0,0,0,-1,1567,1541,0,0
350,-517,0,0,0,0,0,0,0,0,0,-1,1574,1541,0,0
357,-517,0,0,0,0,0,0,0,0,0,-1,1581,1541,0,0
364,-517,0,0,0,0,0,0,0,0,0,-1,1588,1541,0,0
371,-517,0,0,0,0,0,0,0,0,0,-1,1595,1541,0,0
378,-517,0,0,0,0,0,0,0,0,0,-1,1602,1541,0,0
385,-517,0,0,0,0,0,0,0,0,0,-1,1609,1541,0,0
392,-517,0,0,0,0,0,0,0,0,0,-1,1616,1541,0,0
399,-517,0,0,0,0,0,0,0,0,0,-1,1623,1541,0,0
406,-517,13.1395,7.01978,0,0,0,0,0,0,0,-1,1630,1541,13.1396,-7.01981
413,-517,12.8859,6.31592,0,0,0,0,0,0,0,-1,1637,1541,12.8858,-6.31588
420,-517,12.4789,6.20337,0,0,0,0,0,0,0,-1,1644,1541,12.4789,-6.20333
427,-517,11.647,4.66516,0,0,0,0,0,0,0,-1,1651,1541,11.647,-4.66519
434,-517,12.3719,3.92773,0,0,0,0,0,0,0,-1,1658,1541,12.3719,-3.92776
441,-517,13.146,3.14124,0,0,0,0,0,0,0,-1,1665,1541,13.146,-3.14121
448,-517,13.8861,2.36682,0,0,0,0,0,0,0,-1,1672,1541,13.8861,-2.36684
455,-517,13.6012,4.06335,0,0,0,0,0,0,0,-1,1679,1541,13.6012,-4.06335
462,-517,14.8956,7.0752,0,0,0,0,0,0,0,-1,1686,1541,14.8956,-7.07525
469,-517,13.6292,6.87744,0,0,0,0,0,0,0,-1,1693,1541,13.6292,-6.87739
476,-517,17.1632,14.1487,0,0,0,0,0,0,0,-1,1700,1541,17.1632,-14.1487
483,-517,16.5157,15.0776,0,0,0,0,0,0,0,-1,1707,1541,16.5157,-15.0777
490,-517,15.5439,18.0258,0,0,0,0,0,0,0,-1,1714,1541,15.5439,-18.0258
497,-517,16.0292,18.7786,0,0,0,0,0,0,0,-1,1721,1541,16.0291,-18.7786
504,-517,31.0431,47.8639,0,0,0,0,0,0,0,-1,1728,1541,31.0431,-47.8639
511,-517,30.7837,46.1383,0,0,0,0,0,0,0,-1,1735,1541,30.7837,-46.1384
518,-517,58.7113,131.302,0,0,0,0,0,0,0,-1,1742,1541,58.7113,-131.302
525,-517,88.8242,150.176,0,0,0,0,0,0,0,-1,1749,1541,88.8242,-150.176
532,-517,92.3234,146.603,0,0,0,0,0,0,0,-1,1756,1541,92.3234,-146.603
539,-517,103.711,143.143,0,0,0,0,0,0,0,-1,1763,1541,103.711,-143.143
546,-517,107.407,138.911,0,0,0,0,0,0,0,-1,1770,1541,107.407,-138.911
553,-517,106.254,134.597,0.0245046,0.0113716,0.0442132,0.0626363,-0.0267601,0.711677,0.0529803,0.0317167,1777,1541,106.254,-134.597
560,-517,105.04,130.322,0.0254999,0.015715,0.0455624,0.0664318,-0.0252169,0.731913,0.0546678,0.0236228,1784,1541,105.04,-130.322
567,-517,103.983,126.263,0.0265556,0.0204861,0.0470111,0.0706298,-0.0235881,0.753166,0.0566117,0.0197112,1791,1541,103.983,-126.263
574,-517,102.762,122.189,0.0277463,0.0255571,0.0484385,0.0751026,-0.0217991,0.774101,0.0586998,0.0247015,1798,1541,102.762,-122.189
581,-517,101.633,118.211,0.0290707,0.0307894,0.0498058,0.0797433,-0.0198832,0.794024,0.060882,0.0321104,1805,1541,101.633,-118.211
588,-517,100.599,114.238,0.0304511,0.036038,0.0513082,0.0846287,-0.0181396,0.812594,0.0633375,0.034629,1812,1541,100.599,-114.238
595,-517,99.5614,110.153,0,0,0,0,0,0,0,-1,1819,1541,99.5614,-110.153
602,-517,28.1732,28.2633,0,0,0,0,0,0,0,-1,1826,1541,28.1733,-28.2633
609,-517,12.6417,10.8751,0,0,0,0,0,0,0,-1,1833,1541,12.6417,-10.8751
616,-517,14.205,10.3193,0,0,0,0,0,0,0,-1,1840,1541,14.205,-10.3194
623,-517,12.578,10.0779,0,0,0,0,0,0,0,-1,1847,1541,12.578,-10.0779
630,-517,11.7035,7.47815,0,0,0,0,0,0,0,-1,1854,1541,11.7035,-7.47812
637,-517,11.5172,5.79822,0,0,0,0,0,0,0,-1,1861,1541,11.5173,-5.79825
644,-517,11.4232,3.30579,0,0,0,0,0,0,0,-1,1868,1541,11.4232,-3.30574
651,-517,0,0,0,0,0,0,0,0,0,-1,1875,1541,0,0
658,-517,0,0,0,0,0,0,0,0,0,-1,1882,1541,0,0
665,-517,0,0,0,0,0,0,0,0,0,-1,1889,1541,0,0
672,-517,0,0,0,0,0,0,0,0,0,-1,1896,1541,0,0
679,-517,0,0,0,0,0,0,0,0,0,-1,1903,1541,0,0
686,-517,0,0,0,0,0,0,0,0,0,-1,1910,1541,0,0
693,-517,0,0,0,0,0,0,0,0,0,-1,1917,1541,0,0
700,-517,0,0,0,0,0,0,0,0,0,-1,1924,1541,0,0
707,-517,0,0,0,0,0,0,0,0,0,-1,1931,1541,0,0
714,-517,0,0,0,0,0,0,0,0,0,-1,1938,1541,0,0
721,-517,0,0,0,0,0,0,0,0,0,-1,1945,1541,0,0
728,-517,0,0,0,0,0,0,0,0,0,-1,1952,1541,0,0
735,-517,0,0,0,0,0,0,0,0,0,-1,1959,1541,0,0
742,-517,0,0,0,0,0,0,0,0,0,-1,1966,1541,0,0
749,-517,0,0,0,0,0,0,0,0,0,-1,1973,1541,0,0
756,-517,0,0,0,0,0,0,0,0,0,-1,1980,1541,0,0
763,-517,0,0,0,0,0,0,0,0,0,-1,1987,1541,0,0
770,-517,0,0,0,0,0,0,0,0,0,-1,1994,1541,0,0
777,-517,0,0,0,0,0,0,0,0,0,-1,2001,1541,0,0
784,-517,0,0,0,0,0,0,0,0,0,-1,2008,1541,0,0
791,-517,0,0,0,0,0,0,0,0,0,-1,2015,1541,0,0
798,-517,0,0,0,0,0,0,0,0,0,-1,2022,1541,0,0
805,-517,0,0,0,0,0,0,0,0,0,-1,2029,1541,0,0
812,-517,0,0,0,0,0,0,0,0,0,-1,2036,1541,0,0
-700,-524,0,0,0,0,0,0,0,0,0,-1,524,1548,0,0
-693,-524,0,0,0,0,0,0,0,0,0,-1,531,1548,0,0
-686,-524,0,0,0,0,0,0,0,0,0,-1,538,1548,0,0
-679,-524,0,0,0,0,0,0,0,0,0,-1,545,1548,0,0
-672,-524,0,0,0,0,0,0,0,0,0,-1,552,1548,0,0
-665,-524,0,0,0,0,0,0,0,0,0,-1,559,1548,0,0
-658,-524,0,0,0,0,0,0,0,0,0,-1,566,1548,0,0
-651,-524,0,0,0,0,0,0,0,0,0,-1,573,1548,0,0
-644,-524,0,0,0,0,0,0,0,0,0,-1,580,1548,0,0
-637,-524,0,0,0,0,0,0,0,0,0,-1,587,1548,0,0
-630,-524,0,0,0,0,0,0,0,0,0,-1,594,1548,0,0
-623,-524,0,0,0,0,0,0,0,0,0,-1,601,1548,0,0
-616,-524,0,0,0,0,0,0,0,0,0,-1,608,1548,0,0
-609,-524,0,0,0,0,0,0,0,0,0,-1,615,1548,0,0
-602,-524,0,0,0,0,0,0,0,0,0,-1,622,1548,0,0
-595,-524,0,0,0,0,0,0,0,0,0,-1,629,1548,0,0
-588,-524,0,0,0,0,0,0,0,0,0,-1,636,1548,0,0
-581,-524,0,0,0,0,0,0,0,0,0,-1,643,1548,0,0
-574,-524,0,0,0,0,0,0,0,0,0,-1,650,1548,0,0
-567,-524,0,0,0,0,0,0,0,0,0,-1,657,1548,0,0
-560,-524,0,0,0,0,0,0,0,0,0,-1,664,1548,0,0
-553,-524,0,0,0,0,0,0,0,0,0,-1,671,1548,0,0
-546,-524,0,0,0,0,0,0,0,0,0,-1,678,1548,0,0
-539,-524,0,0,0,0,0,0,0,0,0,-1,685,1548,0,0
-532,-524,0,0,0,0,0,0,0,0,0,-1,692,1548,0,0
-525,-524,-0.215515,3.97131,0,0,0,0,0,0,0,-1,699,1548,-0.215501,-3.97136
-518,-524,-0.806274,4.35632,0,0,0,0,0,0,0,-1,706,1548,-0.806259,-4.35633
-511,-524,-1.08301,4.29004,0,0,0,0,0,0,0,-1,713,1548,-1.08301,-4.29006
-504,-524,-1.28821,3.98145,0,0,0,0,0,0,0,-1,720,1548,-1.28822,-3.98151
-497,-524,-0.328491,8.63416,0,0,0,0,0,0,0,-1,727,1548,-0.328487,-8.63411
-490,-524,-6.65582,19.3033,0,0,0,0,0,0,0,-1,734,1548,-6.65583,-19.3034
-483,-524,-7.57153,22.1989,0,0,0,0,0,0,0,-1,741,1548,-7.57151,-22.1988
-476,-524,-8.51898,26.7598,0,0,0,0,0,0,0,-1,748,1548,-8.51897,-26.7597
-469,-524,-11.4355,33.9093,0,0,0,0,0,0,0,-1,755,1548,-11.4355,-33.9093
-462,-524,-12.2963,37.6239,0,0,0,0,0,0,0,-1,762,1548,-12.2963,-37.6238
-455,-524,-47.2639,103.062,0,0,0,0,0,0,0,-1,769,1548,-47.2639,-103.062
-448,-524,-85.1971,115.441,0,0,0,0,0,0,0,-1,776,1548,-85.1971,-115.441
-441,-524,-86.001,119.473,0.050462,0.0448292,-0.0751587,0.122857,-0.0275658,-0.76667,0.0924731,0.0227239,783,1548,-86.001,-119.473
-434,-524,-86.7996,123.663,0.0469324,0.0375936,-0.0731298,0.115542,-0.0310158,-0.753516,0.0891827,0.0266906,790,1548,-86.7996,-123.663
-427,-524,-87.6136,127.842,0.0426258,0.0308248,-0.0714803,0.108449,-0.0349981,-0.744218,0.0863623,0.0257975,797,1548,-87.6136,-127.842
-420,-524,-88.797,132.035,0.0374782,0.0245162,-0.0700672,0.101364,-0.0393691,-0.739281,0.0838387,0.040843,804,1548,-88.797,-132.035
-413,-524,-90.1393,136.362,0.0315749,0.0189946,-0.0691295,0.0946998,-0.0441303,-0.740028,0.0819069,0.039995,811,1548,-90.1394,-136.362
-406,-524,-91.1259,140.763,0.0248853,0.0143646,-0.0688224,0.0886481,-0.0493982,-0.747256,0.0807677,0.025294,818,1548,-91.1259,-140.763
-399,-524,-92.1652,145.058,0.0172407,0.0107615,-0.069256,0.0833328,-0.0553306,-0.762027,0.0805997,0.0298269,825,1548,-92.1652,-145.058
-392,-524,-93.6168,149.065,0.00846171,0.00833349,-0.0703753,0.0787729,-0.0619777,-0.784943,0.081455,0.0348694,832,1548,-93.6167,-149.065
-385,-524,-95.2496,153.085,0,0,0,0,0,0,0,-1,839,1548,-95.2495,-153.085
-378,-524,-66.5356,155.954,0,0,0,0,0,0,0,-1,846,1548,-66.5356,-155.954
-371,-524,-4.20789,29.1592,0,0,0,0,0,0,0,-1,853,1548,-4.2079,-29.1592
-364,-524,-0.712097,14.9871,0,0,0,0,0,0,0,-1,860,1548,-0.712116,-14.9871
-357,-524,-1.34052,14.7448,0,0,0,0,0,0,0,-1,867,1548,-1.34054,-14.7447
-350,-524,-4.31909,25.032,0,0,0,0,0,0,0,-1,874,1548,-4.31906,-25.0319
-343,-524,-3.69696,28.6923,0,0,0,0,0,0,0,-1,881,1548,-3.69694,-28.6922
-336,-524,-3.4873,29.655,0,0,0,0,0,0,0,-1,888,1548,-3.48728,-29.6551
-329,-524,-3.21936,30.5509,0,0,0,0,0,0,0,-1,895,1548,-3.21933,-30.5509
-322,-524,-4.31378,25.6389,0,0,0,0,0,0,0,-1,902,1548,-4.31379,-25.639
-315,-524,-1.90839,19.4824,0,0,0,0,0,0,0,-1,909,1548,-1.90838,-19.4824
-308,-524,-2.36938,19.3059,0,0,0,0,0,0,0,-1,916,1548,-2.3694,-19.3058
-301,-524,2.72394,17.7618,0,0,0,0,0,0,0,-1,923,1548,2.72396,-17.7619
-294,-524,-1.52515,9.05408,0,0,0,0,0,0,0,-1,930,1548,-1.52512,-9.05411
-287,-524,-0.962219,10.3199,0,0,0,0,0,0,0,-1,937,1548,-0.962241,-10.32
-280,-524,-1.36255,10.3859,0,0,0,0,0,0,0,-1,944,1548,-1.36253,-10.3859
-273,-524,0,0,0,0,0,0,0,0,0,-1,951,1548,0,0
-266,-524,0,0,0,0,0,0,0,0,0,-1,958,1548,0,0
-259,-524,0,0,0,0,0,0,0,0,0,-1,965,1548,0,0
-252,-524,0,0,0,0,0,0,0,0,0,-1,972,1548,0,0
-245,-524,0,0,0,0,0,0,0,0,0,-1,979,1548,0,0
-238,-524,0,0,0,0,0,0,0,0,0,-1,986,1548,0,0
-231,-524,0,0,0,0,0,0,0,0,0,-1,993,1548,0,0
-224,-524,0,0,0,0,0,0,0,0,0,-1,1000,1548,0,0
-217,-524,0,0,0,0,0,0,0,0,0,-1,1007,1548,0,0
-210,-524,0,0,0,0,0,0,0,0,0,-1,1014,1548,0,0
-203,-524,0,0,0,0,0,0,0,0,0,-1,1021,1548,0,0
-196,-524,0,0,0,0,0,0,0,0,0,-1,1028,1548,0,0
-189,-524,0,0,0,0,0,0,0,0,0,-1,1035,1548,0,0
-182,-524,0,0,0,0,0,0,0,0,0,-1,1042,1548,0,0
-175,-524,0,0,0,0,0,0,0,0,0,-1,1049,1548,0,0
-168,-524,0,0,0,0,0,0,0,0,0,-1,1056,1548,0,0
-161,-524,0,0,0,0,0,0,0,0,0,-1,1063,1548,0,0
-154,-524,0,0,0,0,0,0,0,0,0,-1,1070,1548,0,0
-147,-524,0,0,0,0,0,0,0,0,0,-1,1077,1548,0,0
-140,-524,0,0,0,0,0,0,0,0,0,-1,1084,1548,0,0
-133,-524,0,0,0,0,0,0,0,0,0,-1,1091,1548,0,0
-126,-524,0,0,0,0,0,0,0,0,0,-1,1098,1548,0,0
-119,-524,0,0,0,0,0,0,0,0,0,-1,1105,1548,0,0
-112,-524,0,0,0,0,0,0,0,0,0,-1,1112,1548,0,0
-105,-524,0,0,0,0,0,0,0,0,0,-1,1119,1548,0,0
-98,-524,0,0,0,0,0,0,0,0,0,-1,1126,1548,0,0
-91,-524,0,0,0,0,0,0,0,0,0,-1,1133,1548,0,0
-84,-524,0,0,0,0,0,0,0,0,0,-1,1140,1548,0,0
-77,-524,0,0,0,0,0,0,0,0,0,-1,1147,1548,0,0
-70,-524,0,0,0,0,0,0,0,0,0,-1,1154,1548,0,0
-63,-524,0,0,0,0,0,0,0,0,0,-1,1161,1548,0,0
-56,-524,0,0,0,0,0,0,0,0,0,-1,1168,1548,0,0
-49,-524,0,0,0,0,0,0,0,0,0,-1,1175,1548,0,0
-42,-524,0,0,0,0,0,0,0,0,0,-1,1182,1548,0,0
-35,-524,0,0,0,0,0,0,0,0,0,-1,1189,1548,0,0
-28,-524,0,0,0,0,0,0,0,0,0,-1,1196,1548,0,0
-21,-524,0,0,0,0,0,0,0,0,0,-1,1203,1548,0,0
-14,-524,0,0,0,0,0,0,0,0,0,-1,1210,1548,0,0
-7,-524,0,0,0,0,0,0,0,0,0,-1,1217,1548,0,0
0,-524,0,0,0,0,0,0,0,0,0,-1,1224,1548,0,0
7,-524,0,0,0,0,0,0,0,0,0,-1,1231,1548,0,0
14,-524,0,0,0,0,0,0,0,0,0,-1,1238,1548,0,0
21,-524,0,0,0,0,0,0,0,0,0,-1,1245,1548,0,0
28,-524,0,0,0,0,0,0,0,0,0,-1,1252,1548,0,0
35,-524,0,0,0,0,0,0,0,0,0,-1,1259,1548,0,0
42,-524,0,0,0,0,0,0,0,0,0,-1,1266,1548,0,0
49,-524,0,0,0,0,0,0,0,0,0,-1,1273,1548,0,0
56,-524,0,0,0,0,0,0,0,0,0,-1,1280,1548,0,0
63,-524,0,0,0,0,0,0,0,0,0,-1,1287,1548,0,0
70,-524,0,0,0,0,0,0,0,0,0,-1,1294,1548,0,0
77,-524,0,0,0,0,0,0,0,0,0,-1,1301,1548,0,0
84,-524,0,0,0,0,0,0,0,0,0,-1,1308,1548,0,0
91,-524,0,0,0,0,0,0,0,0,0,-1,1315,1548,0,0
98,-524,0,0,0,0,0,0,0,0,0,-1,1322,1548,0,0
105,-524,0,0,0,0,0,0,0,0,0,-1,1329,1548,0,0
112,-524,0,0,0,0,0,0,0,0,0,-1,1336,1548,0,0
119,-524,0,0,0,0,0,0,0,0,0,-1,1343,1548,0,0
126,-524,0,0,0,0,0,0,0,0,0,-1,1350,1548,0,0
133,-524,0,0,0,0,0,0,0,0,0,-1,1357,1548,0,0
140,-524,0,0,0,0,0,0,0,0,0,-1,1364,1548,0,0
147,-524,0,0,0,0,0,0,0,0,0,-1,1371,1548,0,0
154,-524,0,0,0,0,0,0,0,0,0,-1,1378,1548,0,0
161,-524,0,0,0,0,0,0,0,0,0,-1,1385,1548,0,0
168,-524,0,0,0,0,0,0,0,0,0,-1,1392,1548,0,0
175,-524,0,0,0,0,0,0,0,0,0,-1,1399,1548,0,0
182,-524,0,0,0,0,0,0,0,0,0,-1,1406,1548,0,0
189,-524,0,0,0,0,0,0,0,0,0,-1,1413,1548,0,0
196,-524,0,0,0,0,0,0,0,0,0,-1,1420,1548,0,0
203,-524,0,0,0,0,0,0,0,0,0,-1,1427,1548,0,0
210,-524,0,0,0,0,0,0,0,0,0,-1,1434,1548,0,0
217,-524,0,0,0,0,0,0,0,0,0,-1,1441,1548,0,0
224,-524,0,0,0,0,0,0,0,0,0,-1,1448,1548,0,0
231,-524,0,0,0,0,0,0,0,0,0,-1,1455,1548,0,0
238,-524,0,0,0,0,0,0,0,0,0,-1,1462,1548,0,0
245,-524,0,0,0,0,0,0,0,0,0,-1,1469,1548,0,0
252,-524,0,0,0,0,0,0,0,0,0,-1,1476,1548,0,0
259,-524,0,0,0,0,0,0,0,0,0,-1,1483,1548,0,0
266,-524,0,0,0,0,0,0,0,0,0,-1,1490,1548,0,0
273,-524,0,0,0,0,0,0,0,0,0,-1,1497,1548,0,0
280,-524,0,0,0,0,0,0,0,0,0,-1,1504,1548,0,0
287,-524,0,0,0,0,0,0,0,0,0,-1,1511,1548,0,0
294,-524,0,0,0,0,0,0,0,0,0,-1,1518,1548,0,0
301,-524,0,0,0,0,0,0,0,0,0,-1,1525,1548,0,0
308,-524,0,0,0,0,0,0,0,0,0,-1,1532,1548,0,0
315,-524,0,0,0,0,0,0,0,0,0,-1,1539,1548,0,0
322,-524,0,0,0,0,0,0,0,0,0,-1,1546,1548,0,0
329,-524,0,0,0,0,0,0,0,0,0,-1,1553,1548,0,0
336,-524,0,0,0,0,0,0,0,0,0,-1,1560,1548,0,0
343,-524,0,0,0,0,0,0,0,0,0,-1,1567,1548,0,0
350,-524,0,0,0,0,0,0,0,0,0,-1,1574,1548,0,0
357,-524,0,0,0,0,0,0,0,0,0,-1,1581,1548,0,0
364,-524,0,0,0,0,0,0,0,0,0,-1,1588,1548,0,0
371,-524,0,0,0,0,0,0,0,0,0,-1,1595,1548,0,0
378,-524,0,0,0,0,0,0,0,0,0,-1,1602,1548,0,0
385,-524,0,0,0,0,0,0,0,0,0,-1,1609,1548,0,0
392,-524,0,0,0,0,0,0,0,0,0,-1,1616,1548,0,0
399,-524,8.81848,5.05774,0,0,0,0,0,0,0,-1,1623,1548,8.81843,-5.05769
406,-524,8.64294,6.06799,0,0,0,0,0,0,0,-1,1630,1548,8.6429,-6.06805
413,-524,11.677,6.41858,0,0,0,0,0,0,0,-1,1637,1548,11.677,-6.41864
420,-524,11.4913,6.36401,0,0,0,0,0,0,0,-1,1644,1548,11.4913,-6.36402
427,-524,7.68335,6.17249,0,0,0,0,0,0,0,-1,1651,1548,7.68341,-6.17245
434,-524,10.432,11.6801,0,0,0,0,0,0,0,-1,1658,1548,10.432,-11.68
441,-524,8.78552,4.12305,0,0,0,0,0,0,0,-1,1665,1548,8.78553,-4.12301
448,-524,14.1854,4.78674,0,0,0,0,0,0,0,-1,1672,1548,14.1854,-4.78674
455,-524,12.4784,3.65576,0,0,0,0,0,0,0,-1,1679,1548,12.4784,-3.65572
462,-524,14.7551,9.29395,0,0,0,0,0,0,0,-1,1686,1548,14.7552,-9.29397
469,-524,16.3314,14.3779,0,0,0,0,0,0,0,-1,1693,1548,16.3314,-14.3779
476,-524,15.9106,15.1875,0,0,0,0,0,0,0,-1,1700,1548,15.9107,-15.1876
483,-524,15.2776,16.2268,0,0,0,0,0,0,0,-1,1707,1548,15.2776,-16.2269
490,-524,15.2563,18.5848,0,0,0,0,0,0,0,-1,1714,1548,15.2564,-18.5848
497,-524,30.566,48.7196,0,0,0,0,0,0,0,-1,1721,1548,30.566,-48.7196
504,-524,33.686,57.3251,0,0,0,0,0,0,0,-1,1728,1548,33.686,-57.3251
511,-524,70.3597,158.365,0,0,0,0,0,0,0,-1,1735,1548,70.3598,-158.365
518,-524,85.4141,156.708,0,0,0,0,0,0,0,-1,1742,1548,85.414,-156.708
525,-524,88.5038,153.383,0,0,0,0,0,0,0,-1,1749,1548,88.5037,-153.383
532,-524,105.211,148.747,0,0,0,0,0,0,0,-1,1756,1548,105.211,-148.747
539,-524,103.885,145.086,0,0,0,0,0,0,0,-1,1763,1548,103.885,-145.086
546,-524,102.863,140.719,0.0283048,0.0085158,0.0439263,0.0634372,-0.0266166,0.674621,0.0534216,0.0236253,1770,1548,102.863,-140.719
553,-524,101.725,136.479,0.0291856,0.0120948,0.0449093,0.0663553,-0.0250749,0.691381,0.0545512,0.0342866,1777,1548,101.725,-136.479
560,-524,100.575,132.271,0,0,0,0,0,0,0,-1,1784,1548,100.575,-132.271
567,-524,99.3291,127.871,0.0309252,0.0218873,0.04747,0.0740908,-0.0212784,0.737943,0.0578071,0.0304787,1791,1548,99.3291,-127.871
574,-524,98.1515,123.773,0.0320987,0.0274084,0.048785,0.0785948,-0.0190877,0.761381,0.0597836,0.0289037,1798,1548,98.1515,-123.773
581,-524,96.976,119.562,0.0335403,0.0332288,0.050037,0.0834218,-0.0166526,0.783842,0.0619164,0.0332832,1805,1548,96.9759,-119.562
588,-524,95.8065,115.401,0,0,0,0,0,0,0,-1,1812,1548,95.8065,-115.401
595,-524,36.1853,49.8848,0,0,0,0,0,0,0,-1,1819,1548,36.1853,-49.8847
602,-524,13.837,12.0682,0,0,0,0,0,0,0,-1,1826,1548,13.837,-12.0683
609,-524,13.0056,10.5138,0,0,0,0,0,0,0,-1,1833,1548,13.0056,-10.5138
616,-524,11.6941,8.65515,0,0,0,0,0,0,0,-1,1840,1548,11.6941,-8.65514
623,-524,9.38452,5.15356,0,0,0,0,0,0,0,-1,1847,1548,9.38456,-5.15359
630,-524,11.0541,3.57434,0,0,0,0,0,0,0,-1,1854,1548,11.0541,-3.57438
637,-524,11.6067,3.20728,0,0,0,0,0,0,0,-1,1861,1548,11.6067,-3.20724
644,-524,12.2134,0.727173,0,0,0,0,0,0,0,-1,1868,1548,12.2134,-0.727222
651,-524,0,0,0,0,0,0,0,0,0,-1,1875,1548,0,0
658,-524,0,0,0,0,0,0,0,0,0,-1,1882,1548,0,0
665,-524,0,0,0,0,0,0,0,0,0,-1,1889,1548,0,0
672,-524,0,0,0,0,0,0,0,0,0,-1,1896,1548,0,0
679,-524,0,0,0,0,0,0,0,0,0,-1,1903,1548,0,0
686,-524,0,0,0,0,0,0,0,0,0,-1,1910,1548,0,0
693,-524,0,0,0,0,0,0,0,0,0,-1,1917,1548,0,0
700,-524,0,0,0,0,0,0,0,0,0,-1,1924,1548,0,0
707,-524,0,0,0,0,0,0,0,0,0,-1,1931,1548,0,0
714,-524,0,0,0,0,0,0,0,0,0,-1,1938,1548,0,0
721,-524,0,0,0,0,0,0,0,0,0,-1,1945,1548,0,0
728,-524,0,0,0,0,0,0,0,0,0,-1,1952,1548,0,0
735,-524,0,0,0,0,0,0,0,0,0,-1,1959,1548,0,0
742,-524,0,0,0,0,0,0,0,0,0,-1,1966,1548,0,0
749,-524,0,0,0,0,0,0,0,0,0,-1,1973,1548,0,0
756,-524,0,0,0,0,0,0,0,0,0,-1,1980,1548,0,0
763,-524,0,0,0,0,0,0,0,0,0,-1,1987,1548,0,0
770,-524,0,0,0,0,0,0,0,0,0,-1,1994,1548,0,0
777,-524,0,0,0,0,0,0,0,0,0,-1,2001,1548,0,0
784,-524,0,0,0,0,0,0,0,0,0,-1,2008,1548,0,0
791,-524,0,0,0,0,0,0,0,0,0,-1,2015,1548,0,0
798,-524,0,0,0,0,0,0,0,0,0,-1,2022,1548,0,0
805,-524,0,0,0,0,0,0,0,0,0,-1,2029,1548,0,0
812,-524,0,0,0,0,0,0,0,0,0,-1,2036,1548,0,0
-700,-531,0,0,0,0,0,0,0,0,0,-1,524,1555,0,0
-693,-531,0,0,0,0,0,0,0,0,0,-1,531,1555,0,0
-686,-531,0,0,0,0,0,0,0,0,0,-1,538,1555,0,0
-679,-531,0,0,0,0,0,0,0,0,0,-1,545,1555,0,0
-672,-531,0,0,0,0,0,0,0,0,0,-1,552,1555,0,0
-665,-531,0,0,0,0,0,0,0,0,0,-1,559,1555,0,0
-658,-531,0,0,0,0,0,0,0,0,0,-1,566,1555,0,0
-651,-531,0,0,0,0,0,0,0,0,0,-1,573,1555,0,0
-644,-531,0,0,0,0,0,0,0,0,0,-1,580,1555,0,0
-637,-531,0,0,0,0,0,0,0,0,0,-1,587,1555,0,0
-630,-531,0,0,0,0,0,0,0,0,0,-1,594,1555,0,0
-623,-531,0,0,0,0,0,0,0,0,0,-1,601,1555,0,0
-616,-531,0,0,0,0,0,0,0,0,0,-1,608,1555,0,0
-609,-531,0,0,0,0,0,0,0,0,0,-1,615,1555,0,0
-602,-531,0,0,0,0,0,0,0,0,0,-1,622,1555,0,0
-595,-531,0,0,0,0,0,0,0,0,0,-1,629,1555,0,0
-588,-531,0,0,0,0,0,0,0,0,0,-1,636,1555,0,0
-581,-531,0,0,0,0,0,0,0,0,0,-1,643,1555,0,0
-574,-531,0,0,0,0,0,0,0,0,0,-1,650,1555,0,0
-567,-531,0,0,0,0,0,0,0,0,0,-1,657,1555,0,0
-560,-531,0,0,0,0,0,0,0,0,0,-1,664,1555,0,0
-553,-531,0,0,0,0,0,0,0,0,0,-1,671,1555,0,0
-546,-531,0,0,0,0,0,0,0,0,0,-1,678,1555,0,0
-539,-531,0,0,0,0,0,0,0,0,0,-1,685,1555,0,0
-532,-531,0,0,0,0,0,0,0,0,0,-1,692,1555,0,0
-525,-531,0,0,0,0,0,0,0,0,0,-1,699,1555,0,0
-518,-531,-1.63983,4.03821,0,0,0,0,0,0,0,-1,706,1555,-1.63982,-4.03821
-511,-531,-2.9682,8.07483,0,0,0,0,0,0,0,-1,713,1555,-2.9682,-8.07479
-504,-531,-2.95978,0.557861,0,0,0,0,0,0,0,-1,720,1555,-2.95978,-0.557917
-497,-531,-2.46039,8.07422,0,0,0,0,0,0,0,-1,727,1555,-2.46039,-8.07423
-490,-531,-0.423462,7.92065,0,0,0,0,0,0,0,-1,734,1555,-0.42344,-7.92066
-483,-531,-7.50745,20.1915,0,0,0,0,0,0,0,-1,741,1555,-7.50744,-20.1915
-476,-531,-7.69647,23.6229,0,0,0,0,0,0,0,-1,748,1555,-7.6965,-23.6229
-469,-531,-8.2475,27.6931,0,0,0,0,0,0,0,-1,755,1555,-8.2475,-27.6931
-462,-531,-7.27551,28.5044,0,0,0,0,0,0,0,-1,762,1555,-7.27551,-28.5044
-455,-531,-11.3782,37.1852,0,0,0,0,0,0,0,-1,769,1555,-11.3782,-37.1852
-448,-531,-80.148,116.748,0,0,0,0,0,0,0,-1,776,1555,-80.148,-116.748
-441,-531,-80.9762,121.077,0.0561053,0.0478322,-0.0773017,0.129381,-0.0254436,-0.758668,0.0958674,0.0398636,783,1555,-80.9762,-121.077
-434,-531,-81.8347,125.428,0.0530171,0.0402615,-0.0751471,0.122056,-0.028778,-0.743064,0.0924686,0.0251237,790,1555,-81.8347,-125.428
-427,-531,-82.7753,129.719,0.0487988,0.0329827,-0.0732803,0.114597,-0.032815,-0.731648,0.0893673,0.0248796,797,1555,-82.7752,-129.719
-420,-531,-84.1012,133.918,0.0438334,0.0265055,-0.0719445,0.107634,-0.0372949,-0.725474,0.0868975,0.0376852,804,1555,-84.1012,-133.918
-413,-531,-85.3092,138.247,0.0382917,0.0209272,-0.0711783,0.101315,-0.0420965,-0.724708,0.0851193,0.0364966,811,1555,-85.3092,-138.247
-406,-531,-86.2114,142.584,0.0321203,0.0163099,-0.0709951,0.0956489,-0.0472188,-0.729952,0.0840496,0.0212553,818,1555,-86.2114,-142.584
-399,-531,-87.2904,146.861,0.0252449,0.0127579,-0.0715124,0.0907858,-0.052783,-0.741855,0.0838519,0.0240607,825,1555,-87.2904,-146.861
-392,-531,-88.8244,150.948,0.0177312,0.010469,-0.0726796,0.0868704,-0.0586701,-0.760439,0.084552,0.0299783,832,1555,-88.8244,-150.948
-385,-531,-90.6125,155.077,0,0,0,0,0,0,0,-1,839,1555,-90.6126,-155.077
-378,-531,-67.2928,159.884,0,0,0,0,0,0,0,-1,846,1555,-67.2929,-159.884
-371,-531,-68.6048,163.48,0,0,0,0,0,0,0,-1,853,1555,-68.6048,-163.48
-364,-531,-56.2264,150.687,0,0,0,0,0,0,0,-1,860,1555,-56.2264,-150.687
-357,-531,-4.29193,31.5354,0,0,0,0,0,0,0,-1,867,1555,-4.29191,-31.5354
-350,-531,-3.16101,27.5791,0,0,0,0,0,0,0,-1,874,1555,-3.16099,-27.5791
-343,-531,-2.90552,28.561,0,0,0,0,0,0,0,-1,881,1555,-2.90549,-28.5611
-336,-531,-2.6698,29.5398,0,0,0,0,0,0,0,-1,888,1555,-2.66983,-29.5398
-329,-531,-2.45148,30.4781,0,0,0,0,0,0,0,-1,895,1555,-2.45148,-30.4781
-322,-531,-3.25092,28.4921,0,0,0,0,0,0,0,-1,902,1555,-3.25092,-28.4921
-315,-531,-5.51929,31.7814,0,0,0,0,0,0,0,-1,909,1555,-5.51928,-31.7813
-308,-531,-1.66455,19.0624,0,0,0,0,0,0,0,-1,916,1555,-1.66455,-19.0623
-301,-531,-2.02405,18.8912,0,0,0,0,0,0,0,-1,923,1555,-2.02407,-18.8913
-294,-531,-1.3244,8.1825,0,0,0,0,0,0,0,-1,930,1555,-1.3244,-8.18251
-287,-531,-1.78192,10.1661,0,0,0,0,0,0,0,-1,937,1555,-1.78192,-10.1661
-280,-531,-2.14508,10.3945,0,0,0,0,0,0,0,-1,944,1555,-2.14506,-10.3945
-273,-531,-2.50818,10.6229,0,0,0,0,0,0,0,-1,951,1555,-2.5082,-10.6229
-266,-531,-4.97742,17.9215,0,0,0,0,0,0,0,-1,958,1555,-4.97744,-17.9215
-259,-531,0,0,0,0,0,0,0,0,0,-1,965,1555,0,0
-252,-531,0,0,0,0,0,0,0,0,0,-1,972,1555,0,0
-245,-531,0,0,0,0,0,0,0,0,0,-1,979,1555,0,0
-238,-531,0,0,0,0,0,0,0,0,0,-1,986,1555,0,0
-231,-531,0,0,0,0,0,0,0,0,0,-1,993,1555,0,0
-224,-531,0,0,0,0,0,0,0,0,0,-1,1000,1555,0,0
-217,-531,0,0,0,0,0,0,0,0,0,-1,1007,1555,0,0
-210,-531,0,0,0,0,0,0,0,0,0,-1,1014,1555,0,0
-203,-531,0,0,0,0,0,0,0,0,0,-1,1021,1555,0,0
-196,-531,0,0,0,0,0,0,0,0,0,-1,1028,1555,0,0
-189,-531,0,0,0,0,0,0,0,0,0,-1,1035,1555,0,0
-182,-531,0,0,0,0,0,0,0,0,0,-1,1042,1555,0,0
-175,-531,0,0,0,0,0,0,0,0,0,-1,1049,1555,0,0
-168,-531,0,0,0,0,0,0,0,0,0,-1,1056,1555,0,0
-161,-531,0,0,0,0,0,0,0,0,0,-1,1063,1555,0,0
-154,-531,0,0,0,0,0,0,0,0,0,-1,1070,1555,0,0
-147,-531,0,0,0,0,0,0,0,0,0,-1,1077,1555,0,0
-140,-531,0,0,0,0,0,0,0,0,0,-1,1084,1555,0,0
-133,-531,0,0,0,0,0,0,0,0,0,-1,1091,1555,0,0
-126,-531,0,0,0,0,0,0,0,0,0,-1,1098,1555,0,0
-119,-531,0,0,0,0,0,0,0,0,0,-1,1105,1555,0,0
-112,-531,0,0,0,0,0,0,0,0,0,-1,1112,1555,0,0
-105,-531,0,0,0,0,0,0,0,0,0,-1,1119,1555,0,0
-98,-531,0,0,0,0,0,0,0,0,0,-1,1126,1555,0,0
-91,-531,0,0,0,0,0,0,0,0,0,-1,1133,1555,0,0
-84,-531,0,0,0,0,0,0,0,0,0,-1,1140,1555,0,0
-77,-531,0,0,0,0,0,0,0,0,0,-1,1147,1555,0,0
-70,-531,0,0,0,0,0,0,0,0,0,-1,1154,1555,0,0
-63,-531,0,0,0,0,0,0,0,0,0,-1,1161,1555,0,0
-56,-531,0,0,0,0,0,0,0,0,0,-1,1168,1555,0,0
-49,-531,0,0,0,0,0,0,0,0,0,-1,1175,1555,0,0
-42,-531,0,0,0,0,0,0,0,0,0,-1,1182,1555,0,0
-35,-531,0,0,0,0,0,0,0,0,0,-1,1189,1555,0,0
-28,-531,0,0,0,0,0,0,0,0,0,-1,1196,1555,0,0
-21,-531,0,0,0,0,0,0,0,0,0,-1,1203,1555,0,0
-14,-531,0,0,0,0,0,0,0,0,0,-1,1210,1555,0,0
-7,-531,0,0,0,0,0,0,0,0,0,-1,1217,1555,0,0
0,-531,0,0,0,0,0,0,0,0,0,-1,1224,1555,0,0
7,-531,0,0,0,0,0,0,0,0,0,-1,1231,1555,0,0
14,-531,0,0,0,0,0,0,0,0,0,-1,1238,1555,0,0
21,-531,0,0,0,0,0,0,0,0,0,-1,1245,1555,0,0
28,-531,0,0,0,0,0,0,0,0,0,-1,1252,1555,0,0
35,-531,0,0,0,0,0,0,0,0,0,-1,1259,1555,0,0
42,-531,0,0,0,0,0,0,0,0,0,-1,1266,1555,0,0
49,-531,0,0,0,0,0,0,0,0,0,-1,1273,1555,0,0
56,-531,0,0,0,0,0,0,0,0,0,-1,1280,1555,0,0
63,-531,0,0,0,0,0,0,0,0,0,-1,1287,1555,0,0
70,-531,0,0,0,0,0,0,0,0,0,-1,1294,1555,0,0
77,-531,0,0,0,0,0,0,0,0,0,-1,1301,1555,0,0
84,-531,0,0,0,0,0,0,0,0,0,-1,1308,1555,0,0
91,-531,0,0,0,0,0,0,0,0,0,-1,1315,1555,0,0
98,-531,0,0,0,0,0,0,0,0,0,-1,1322,1555,0,0
105,-531,0,0,0,0,0,0,0,0,0,-1,1329,1555,0,0
112,-531,0,0,0,0,0,0,0,0,0,-1,1336,1555,0,0
119,-531,0,0,0,0,0,0,0,0,0,-1,1343,1555,0,0
126,-531,0,0,0,0,0,0,0,0,0,-1,1350,1555,0,0
133,-531,0,0,0,0,0,0,0,0,0,-1,1357,1555,0,0
140,-531,0,0,0,0,0,0,0,0,0,-1,1364,1555,0,0
147,-531,0,0,0,0,0,0,0,0,0,-1,1371,1555,0,0
154,-531,0,0,0,0,0,0,0,0,0,-1,1378,1555,0,0
161,-531,0,0,0,0,0,0,0,0,0,-1,1385,1555,0,0
168,-531,0,0,0,0,0,0,0,0,0,-1,1392,1555,0,0
175,-531,0,0,0,0,0,0,0,0,0,-1,1399,1555,0,0
182,-531,0,0,0,0,0,0,0,0,0,-1,1406,1555,0,0
189,-531,0,0,0,0,0,0,0,0,0,-1,1413,1555,0,0
196,-531,0,0,0,0,0,0,0,0,0,-1,1420,1555,0,0
203,-531,0,0,0,0,0,0,0,0,0,-1,1427,1555,0,0
210,-531,0,0,0,0,0,0,0,0,0,-1,1434,1555,0,0
217,-531,0,0,0,0,0,0,0,0,0,-1,1441,1555,0,0
224,-531,0,0,0,0,0,0,0,0,0,-1,1448,1555,0,0
231,-531,0,0,0,0,0,0,0,0,0,-1,1455,1555,0,0
238,-531,0,0,0,0,0,0,0,0,0,-1,1462,1555,0,0
245,-531,0,0,0,0,0,0,0,0,0,-1,1469,1555,0,0
252,-531,0,0,0,0,0,0,0,0,0,-1,1476,1555,0,0
259,-531,0,0,0,0,0,0,0,0,0,-1,1483,1555,0,0
266,-531,0,0,0,0,0,0,0,0,0,-1,1490,1555,0,0
273,-531,0,0,0,0,0,0,0,0,0,-1,1497,1555,0,0
280,-531,0,0,0,0,0,0,0,0,0,-1,1504,1555,0,0
287,-531,0,0,0,0,0,0,0,0,0,-1,1511,1555,0,0
294,-531,0,0,0,0,0,0,0,0,0,-1,1518,1555,0,0
301,-531,0,0,0,0,0,0,0,0,0,-1,1525,1555,0,0
308,-531,0,0,0,0,0,0,0,0,0,-1,1532,1555,0,0
315,-531,0,0,0,0,0,0,0,0,0,-1,1539,1555,0,0
322,-531,0,0,0,0,0,0,0,0,0,-1,1546,1555,0,0
329,-531,0,0,0,0,0,0,0,0,0,-1,1553,1555,0,0
336,-531,0,0,0,0,0,0,0,0,0,-1,1560,1555,0,0
343,-531,0,0,0,0,0,0,0,0,0,-1,1567,1555,0,0
350,-531,0,0,0,0,0,0,0,0,0,-1,1574,1555,0,0
357,-531,0,0,0,0,0,0,0,0,0,-1,1581,1555,0,0
364,-531,0,0,0,0,0,0,0,0,0,-1,1588,1555,0,0
371,-531,0,0,0,0,0,0,0,0,0,-1,1595,1555,0,0
378,-531,0,0,0,0,0,0,0,0,0,-1,1602,1555,0,0
385,-531,3.48169,1.78625,0,0,0,0,0,0,0,-1,1609,1555,3.48165,-1.78624
392,-531,10.8781,9.09204,0,0,0,0,0,0,0,-1,1616,1555,10.8781,-9.09205
399,-531,8.26306,5.29602,0,0,0,0,0,0,0,-1,1623,1555,8.26302,-5.29607
406,-531,8.26147,5.42712,0,0,0,0,0,0,0,-1,1630,1555,8.26145,-5.42716
413,-531,8.20618,5.75012,0,0,0,0,0,0,0,-1,1637,1555,8.20619,-5.75017
420,-531,7.64868,7.09558,0,0,0,0,0,0,0,-1,1644,1555,7.64867,-7.09564
427,-531,9.93054,11.8412,0,0,0,0,0,0,0,-1,1651,1555,9.93059,-11.8412
434,-531,10.244,11.7072,0,0,0,0,0,0,0,-1,1658,1555,10.244,-11.7071
441,-531,11.4528,12.9397,0,0,0,0,0,0,0,-1,1665,1555,11.4528,-12.9397
448,-531,11.928,18.8029,0,0,0,0,0,0,0,-1,1672,1555,11.928,-18.8028
455,-531,14.4877,9.67065,0,0,0,0,0,0,0,-1,1679,1555,14.4876,-9.67066
462,-531,13.5253,12.2002,0,0,0,0,0,0,0,-1,1686,1555,13.5252,-12.2002
469,-531,15.5087,15.7894,0,0,0,0,0,0,0,-1,1693,1555,15.5086,-15.7895
476,-531,14.6582,16.2264,0,0,0,0,0,0,0,-1,1700,1555,14.6582,-16.2264
483,-531,14.755,18.5994,0,0,0,0,0,0,0,-1,1707,1555,14.7551,-18.5994
490,-531,16.9362,25.4943,0,0,0,0,0,0,0,-1,1714,1555,16.9362,-25.4942
497,-531,32.8171,58.4194,0,0,0,0,0,0,0,-1,1721,1555,32.8171,-58.4195
504,-531,72.2789,166.055,0,0,0,0,0,0,0,-1,1728,1555,72.279,-166.055
511,-531,72.0184,162.966,0,0,0,0,0,0,0,-1,1735,1555,72.0184,-162.966
518,-531,102.415,160.51,0,0,0,0,0,0,0,-1,1742,1555,102.415,-160.51
525,-531,101.732,156.021,0,0,0,0,0,0,0,-1,1749,1555,101.732,-156.021
532,-531,100.503,151.128,0.032839,0.00476981,0.0439761,0.0649657,-0.0273569,0.630936,0.0547569,0.0357251,1756,1555,100.503,-151.128
539,-531,99.292,146.895,0.0321921,0.00610183,0.0434407,0.0645041,-0.0262102,0.639533,0.053907,0.0359609,1763,1555,99.2921,-146.895
546,-531,98.231,142.496,0.0325601,0.00903773,0.0439036,0.0662505,-0.0246527,0.654528,0.0542838,0.0231321,1770,1555,98.231,-142.496
553,-531,97.0408,138.229,0.0332284,0.0129631,0.0448456,0.0690718,-0.0228803,0.674291,0.0552763,0.0449142,1777,1555,97.0408,-138.229
560,-531,95.8691,133.982,0,0,0,0,0,0,0,-1,1784,1555,95.8691,-133.982
567,-531,94.4437,129.619,0.0348995,0.0234319,0.0472686,0.0767808,-0.0184495,0.725042,0.0583181,0.0331456,1791,1555,94.4437,-129.619
574,-531,93.2917,125.343,0.0362138,0.0293778,0.0485506,0.0814665,-0.015875,0.750256,0.0603033,0.0366724,1798,1555,93.2917,-125.343
581,-531,92.1733,121.065,0,0,0,0,0,0,0,-1,1805,1555,92.1733,-121.065
588,-531,35.8337,54.0994,0,0,0,0,0,0,0,-1,1812,1555,35.8337,-54.0994
595,-531,25.4437,28.0334,0,0,0,0,0,0,0,-1,1819,1555,25.4438,-28.0335
602,-531,13.701,11.8346,0,0,0,0,0,0,0,-1,1826,1555,13.701,-11.8347
609,-531,10.9072,8.50903,0,0,0,0,0,0,0,-1,1833,1555,10.9073,-8.50902
616,-531,10.5723,7.17859,0,0,0,0,0,0,0,-1,1840,1555,10.5723,-7.17855
623,-531,10.0674,5.08984,0,0,0,0,0,0,0,-1,1847,1555,10.0674,-5.08981
630,-531,11.672,3.18909,0,0,0,0,0,0,0,-1,1854,1555,11.672,-3.18904
637,-531,13.2546,1.38965,0,0,0,0,0,0,0,-1,1861,1555,13.2547,-1.3896
644,-531,0,0,0,0,0,0,0,0,0,-1,1868,1555,0,0
651,-531,0,0,0,0,0,0,0,0,0,-1,1875,1555,0,0
658,-531,0,0,0,0,0,0,0,0,0,-1,1882,1555,0,0
665,-531,0,0,0,0,0,0,0,0,0,-1,1889,1555,0,0
672,-531,0,0,0,0,0,0,0,0,0,-1,1896,1555,0,0
679,-531,0,0,0,0,0,0,0,0,0,-1,1903,1555,0,0
686,-531,0,0,0,0,0,0,0,0,0,-1,1910,1555,0,0
693,-531,0,0,0,0,0,0,0,0,0,-1,1917,1555,0,0
700,-531,0,0,0,0,0,0,0,0,0,-1,1924,1555,0,0
707,-531,0,0,0,0,0,0,0,0,0,-1,1931,1555,0,0
714,-531,0,0,0,0,0,0,0,0,0,-1,1938,1555,0,0
721,-531,0,0,0,0,0,0,0,0,0,-1,1945,1555,0,0
728,-531,0,0,0,0,0,0,0,0,0,-1,1952,1555,0,0
735,-531,0,0,0,0,0,0,0,0,0,-1,1959,1555,0,0
742,-531,0,0,0,0,0,0,0,0,0,-1,1966,1555,0,0
749,-531,0,0,0,0,0,0,0,0,0,-1,1973,1555,0,0
756,-531,0,0,0,0,0,0,0,0,0,-1,1980,1555,0,0
763,-531,0,0,0,0,0,0,0,0,0,-1,1987,1555,0,0
770,-531,0,0,0,0,0,0,0,0,0,-1,1994,1555,0,0
777,-531,0,0,0,0,0,0,0,0,0,-1,2001,1555,0,0
784,-531,0,0,0,0,0,0,0,0,0,-1,2008,1555,0,0
791,-531,0,0,0,0,0,0,0,0,0,-1,2015,1555,0,0
798,-531,0,0,0,0,0,0,0,0,0,-1,2022,1555,0,0
805,-531,0,0,0,0,0,0,0,0,0,-1,2029,1555,0,0
812,-531,0,0,0,0,0,0,0,0,0,-1,2036,1555,0,0
-700,-538,0,0,0,0,0,0,0,0,0,-1,524,1562,0,0
-693,-538,0,0,0,0,0,0,0,0,0,-1,531,1562,0,0
-686,-538,0,0,0,0,0,0,0,0,0,-1,538,1562,0,0
-679,-538,0,0,0,0,0,0,0,0,0,-1,545,1562,0,0
-672,-538,0,0,0,0,0,0,0,0,0,-1,552,1562,0,0
-665,-538,0,0,0,0,0,0,0,0,0,-1,559,1562,0,0
-658,-538,0,0,0,0,0,0,0,0,0,-1,566,1562,0,0
-651,-538,0,0,0,0,0,0,0,0,0,-1,573,1562,0,0
-644,-538,0,0,0,0,0,0,0,0,0,-1,580,1562,0,0
-637,-538,0,0,0,0,0,0,0,0,0,-1,587,1562,0,0
-630,-538,0,0,0,0,0,0,0,0,0,-1,594,1562,0,0
-623,-538,0,0,0,0,0,0,0,0,0,-1,601,1562,0,0
-616,-538,0,0,0,0,0,0,0,0,0,-1,608,1562,0,0
-609,-538,0,0,0,0,0,0,0,0,0,-1,615,1562,0,0
-602,-538,0,0,0,0,0,0,0,0,0,-1,622,1562,0,0
-595,-538,0,0,0,0,0,0,0,0,0,-1,629,1562,0,0
-588,-538,0,0,0,0,0,0,0,0,0,-1,636,1562,0,0
-581,-538,0,0,0,0,0,0,0,0,0,-1,643,1562,0,0
-574,-538,0,0,0,0,0,0,0,0,0,-1,650,1562,0,0
-567,-538,0,0,0,0,0,0,0,0,0,-1,657,1562,0,0
-560,-538,0,0,0,0,0,0,0,0,0,-1,664,1562,0,0
-553,-538,0,0,0,0,0,0,0,0,0,-1,671,1562,0,0
-546,-538,0,0,0,0,0,0,0,0,0,-1,678,1562,0,0
-539,-538,0,0,0,0,0,0,0,0,0,-1,685,1562,0,0
-532,-538,0,0,0,0,0,0,0,0,0,-1,692,1562,0,0
-525,-538,0,0,0,0,0,0,0,0,0,-1,699,1562,0,0
-518,-538,0,0,0,0,0,0,0,0,0,-1,706,1562,0,0
-511,-538,-2.6582,-1.54321,0,0,0,0,0,0,0,-1,713,1562,-2.65821,1.54327
-504,-538,-2.66455,-0.71167,0,0,0,0,0,0,0,-1,720,1562,-2.66456,0.711667
-497,-538,-0.763855,6.77747,0,0,0,0,0,0,0,-1,727,1562,-0.76385,-6.77743
-490,-538,-2.70453,8.01465,0,0,0,0,0,0,0,-1,734,1562,-2.70451,-8.0147
-483,-538,-0.933533,7.84644,0,0,0,0,0,0,0,-1,741,1562,-0.933548,-7.84638
-476,-538,-3.29962,15.8307,0,0,0,0,0,0,0,-1,748,1562,-3.29962,-15.8306
-469,-538,-6.44983,24.5707,0,0,0,0,0,0,0,-1,755,1562,-6.4498,-24.5707
-462,-538,-5.75458,25.4069,0,0,0,0,0,0,0,-1,762,1562,-5.7546,-25.4068
-455,-538,-11.161,39.4834,0,0,0,0,0,0,0,-1,769,1562,-11.161,-39.4833
-448,-538,-13.2156,47.0696,0,0,0,0,0,0,0,-1,776,1562,-13.2156,-47.0695
-441,-538,-76.0093,122.641,0,0,0,0,0,0,0,-1,783,1562,-76.0093,-122.641
-434,-538,-76.7079,126.999,0.0593531,0.0429922,-0.0760035,0.127615,-0.0252699,-0.731788,0.0946315,0.0448323,790,1562,-76.7079,-126.999
-427,-538,-77.9158,131.545,0.055351,0.0348955,-0.0737166,0.119546,-0.0292995,-0.716466,0.0910491,0.0198125,797,1562,-77.9158,-131.545
-420,-538,-79.1774,135.89,0.0506808,0.028165,-0.0724871,0.112779,-0.0339332,-0.708359,0.088688,0.0255275,804,1562,-79.1774,-135.89
-413,-538,-80.2495,140.219,0.0455103,0.0224433,-0.0718837,0.10678,-0.0388263,-0.705853,0.0870639,0.0272672,811,1562,-80.2494,-140.219
-406,-538,-81.27,144.574,0.0397686,0.0177217,-0.0718359,0.101422,-0.0439317,-0.709265,0.0860802,0.0248704,818,1562,-81.2701,-144.574
-399,-538,-82.2704,148.983,0.0334479,0.0140845,-0.0724094,0.09682,-0.0492876,-0.718938,0.0858303,0.0216741,825,1562,-82.2704,-148.983
-392,-538,-83.7309,153.07,0.0267951,0.0118192,-0.0736035,0.0932905,-0.0546762,-0.734706,0.0863928,0.0233134,832,1562,-83.7309,-153.07
-385,-538,-85.2813,157.253,0.0204731,0.0110455,-0.0755022,0.0914085,-0.0598899,-0.754222,0.0879817,0.0301143,839,1562,-85.2813,-157.253
-378,-538,-87.0014,161.628,0,0,0,0,0,0,0,-1,846,1562,-87.0014,-161.628
-371,-538,-64.7714,165.522,0,0,0,0,0,0,0,-1,853,1562,-64.7714,-165.522
-364,-538,-71.8551,170.528,0,0,0,0,0,0,0,-1,860,1562,-71.8551,-170.528
-357,-538,-53.7414,154.693,0,0,0,0,0,0,0,-1,867,1562,-53.7414,-154.693
-350,-538,-6.37695,40.0256,0,0,0,0,0,0,0,-1,874,1562,-6.37696,-40.0257
-343,-538,-2.47339,28.3082,0,0,0,0,0,0,0,-1,881,1562,-2.47341,-28.3083
-336,-538,-2.40161,28.5409,0,0,0,0,0,0,0,-1,888,1562,-2.40163,-28.541
-329,-538,-2.57159,28.4905,0,0,0,0,0,0,0,-1,895,1562,-2.57161,-28.4905
-322,-538,-2.83783,28.2308,0,0,0,0,0,0,0,-1,902,1562,-2.83783,-28.2308
-315,-538,-2.91827,27.7609,0,0,0,0,0,0,0,-1,909,1562,-2.91829,-27.7608
-308,-538,-4.37433,31.7996,0,0,0,0,0,0,0,-1,916,1562,-4.3743,-31.7995
-301,-538,-0.452393,18.5101,0,0,0,0,0,0,0,-1,923,1562,-0.452367,-18.5102
-294,-538,1.23138,14.0757,0,0,0,0,0,0,0,-1,930,1562,1.23137,-14.0757
-287,-538,-2.60419,10.2361,0,0,0,0,0,0,0,-1,937,1562,-2.6042,-10.2361
-280,-538,-2.93475,10.5106,0,0,0,0,0,0,0,-1,944,1562,-2.93475,-10.5106
-273,-538,-3.26532,10.785,0,0,0,0,0,0,0,-1,951,1562,-3.26531,-10.785
-266,-538,-5.03412,15.9951,0,0,0,0,0,0,0,-1,958,1562,-5.03409,-15.9951
-259,-538,-5.89642,16.5184,0,0,0,0,0,0,0,-1,965,1562,-5.89644,-16.5184
-252,-538,0,0,0,0,0,0,0,0,0,-1,972,1562,0,0
-245,-538,0,0,0,0,0,0,0,0,0,-1,979,1562,0,0
-238,-538,0,0,0,0,0,0,0,0,0,-1,986,1562,0,0
-231,-538,0,0,0,0,0,0,0,0,0,-1,993,1562,0,0
-224,-538,0,0,0,0,0,0,0,0,0,-1,1000,1562,0,0
-217,-538,0,0,0,0,0,0,0,0,0,-1,1007,1562,0,0
-210,-538,0,0,0,0,0,0,0,0,0,-1,1014,1562,0,0
-203,-538,0,0,0,0,0,0,0,0,0,-1,1021,1562,0,0
-196,-538,0,0,0,0,0,0,0,0,0,-1,1028,1562,0,0
-189,-538,0,0,0,0,0,0,0,0,0,-1,1035,1562,0,0
-182,-538,0,0,0,0,0,0,0,0,0,-1,1042,1562,0,0
-175,-538,0,0,0,0,0,0,0,0,0,-1,1049,1562,0,0
-168,-538,0,0,0,0,0,0,0,0,0,-1,1056,1562,0,0
-161,-538,0,0,0,0,0,0,0,0,0,-1,1063,1562,0,0
-154,-538,0,0,0,0,0,0,0,0,0,-1,1070,1562,0,0
-147,-538,0,0,0,0,0,0,0,0,0,-1,1077,1562,0,0
-140,-538,0,0,0,0,0,0,0,0,0,-1,1084,1562,0,0
-133,-538,0,0,0,0,0,0,0,0,0,-1,1091,1562,0,0
-126,-538,0,0,0,0,0,0,0,0,0,-1,1098,1562,0,0
-119,-538,0,0,0,0,0,0,0,0,0,-1,1105,1562,0,0
-112,-538,0,0,0,0,0,0,0,0,0,-1,1112,1562,0,0
-105,-538,0,0,0,0,0,0,0,0,0,-1,1119,1562,0,0
-98,-538,0,0,0,0,0,0,0,0,0,-1,1126,1562,0,0
-91,-538,0,0,0,0,0,0,0,0,0,-1,1133,1562,0,0
-84,-538,0,0,0,0,0,0,0,0,0,-1,1140,1562,0,0
-77,-538,0,0,0,0,0,0,0,0,0,-1,1147,1562,0,0
-70,-538,0,0,0,0,0,0,0,0,0,-1,1154,1562,0,0
-63,-538,0,0,0,0,0,0,0,0,0,-1,1161,1562,0,0
-56,-538,0,0,0,0,0,0,0,0,0,-1,1168,1562,0,0
-49,-538,0,0,0,0,0,0,0,0,0,-1,1175,1562,0,0
-42,-538,0,0,0,0,0,0,0,0,0,-1,1182,1562,0,0
-35,-538,0,0,0,0,0,0,0,0,0,-1,1189,1562,0,0
-28,-538,0,0,0,0,0,0,0,0,0,-1,1196,1562,0,0
-21,-538,0,0,0,0,0,0,0,0,0,-1,1203,1562,0,0
-14,-538,0,0,0,0,0,0,0,0,0,-1,1210,1562,0,0
-7,-538,0,0,0,0,0,0,0,0,0,-1,1217,1562,0,0
0,-538,0,0,0,0,0,0,0,0,0,-1,1224,1562,0,0
7,-538,0,0,0,0,0,0,0,0,0,-1,1231,1562,0,0
14,-538,0,0,0,0,0,0,0,0,0,-1,1238,1562,0,0
21,-538,0,0,0,0,0,0,0,0,0,-1,1245,1562,0,0
28,-538,0,0,0,0,0,0,0,0,0,-1,1252,1562,0,0
35,-538,0,0,0,0,0,0,0,0,0,-1,1259,1562,0,0
42,-538,0,0,0,0,0,0,0,0,0,-1,1266,1562,0,0
49,-538,0,0,0,0,0,0,0,0,0,-1,1273,1562,0,0
56,-538,0,0,0,0,0,0,0,0,0,-1,1280,1562,0,0
63,-538,0,0,0,0,0,0,0,0,0,-1,1287,1562,0,0
70,-538,0,0,0,0,0,0,0,0,0,-1,1294,1562,0,0
77,-538,0,0,0,0,0,0,0,0,0,-1,1301,1562,0,0
84,-538,0,0,0,0,0,0,0,0,0,-1,1308,1562,0,0
91,-538,0,0,0,0,0,0,0,0,0,-1,1315,1562,0,0
98,-538,0,0,0,0,0,0,0,0,0,-1,1322,1562,0,0
105,-538,0,0,0,0,0,0,0,0,0,-1,1329,1562,0,0
112,-538,0,0,0,0,0,0,0,0,0,-1,1336,1562,0,0
119,-538,0,0,0,0,0,0,0,0,0,-1,1343,1562,0,0
126,-538,0,0,0,0,0,0,0,0,0,-1,1350,1562,0,0
133,-538,0,0,0,0,0,0,0,0,0,-1,1357,1562,0,0
140,-538,0,0,0,0,0,0,0,0,0,-1,1364,1562,0,0
147,-538,0,0,0,0,0,0,0,0,0,-1,1371,1562,0,0
154,-538,0,0,0,0,0,0,0,0,0,-1,1378,1562,0,0
161,-538,0,0,0,0,0,0,0,0,0,-1,1385,1562,0,0
168,-538,0,0,0,0,0,0,0,0,0,-1,1392,1562,0,0
175,-538,0,0,0,0,0,0,0,0,0,-1,1399,1562,0,0
182,-538,0,0,0,0,0,0,0,0,0,-1,1406,1562,0,0
189,-538,0,0,0,0,0,0,0,0,0,-1,1413,1562,0,0
196,-538,0,0,0,0,0,0,0,0,0,-1,1420,1562,0,0
203,-538,0,0,0,0,0,0,0,0,0,-1,1427,1562,0,0
210,-538,0,0,0,0,0,0,0,0,0,-1,1434,1562,0,0
217,-538,0,0,0,0,0,0,0,0,0,-1,1441,1562,0,0
224,-538,0,0,0,0,0,0,0,0,0,-1,1448,1562,0,0
231,-538,0,0,0,0,0,0,0,0,0,-1,1455,1562,0,0
238,-538,0,0,0,0,0,0,0,0,0,-1,1462,1562,0,0
245,-538,0,0,0,0,0,0,0,0,0,-1,1469,1562,0,0
252,-538,0,0,0,0,0,0,0,0,0,-1,1476,1562,0,0
259,-538,0,0,0,0,0,0,0,0,0,-1,1483,1562,0,0
266,-538,0,0,0,0,0,0,0,0,0,-1,1490,1562,0,0
273,-538,0,0,0,0,0,0,0,0,0,-1,1497,1562,0,0
280,-538,0,0,0,0,0,0,0,0,0,-1,1504,1562,0,0
287,-538,0,0,0,0,0,0,0,0,0,-1,1511,1562,0,0
294,-538,0,0,0,0,0,0,0,0,0,-1,1518,1562,0,0
301,-538,0,0,0,0,0,0,0,0,0,-1,1525,1562,0,0
308,-538,0,0,0,0,0,0,0,0,0,-1,1532,1562,0,0
315,-538,0,0,0,0,0,0,0,0,0,-1,1539,1562,0,0
322,-538,0,0,0,0,0,0,0,0,0,-1,1546,1562,0,0
329,-538,0,0,0,0,0,0,0,0,0,-1,1553,1562,0,0
336,-538,0,0,0,0,0,0,0,0,0,-1,1560,1562,0,0
343,-538,0,0,0,0,0,0,0,0,0,-1,1567,1562,0,0
350,-538,0,0,0,0,0,0,0,0,0,-1,1574,1562,0,0
357,-538,0,0,0,0,0,0,0,0,0,-1,1581,1562,0,0
364,-538,0,0,0,0,0,0,0,0,0,-1,1588,1562,0,0
371,-538,0,0,0,0,0,0,0,0,0,-1,1595,1562,0,0
378,-538,9.65479,5.82434,0,0,0,0,0,0,0,-1,1602,1562,9.6548,-5.82439
385,-538,10.5449,7.9502,0,0,0,0,0,0,0,-1,1609,1562,10.5449,-7.95014
392,-538,8.20361,7.07214,0,0,0,0,0,0,0,-1,1616,1562,8.20362,-7.07211
399,-538,7.85425,4.70508,0,0,0,0,0,0,0,-1,1623,1562,7.85425,-4.70512
406,-538,7.77734,4.96094,0,0,0,0,0,0,0,-1,1630,1562,7.77729,-4.96097
413,-538,13.0446,13.1765,0,0,0,0,0,0,0,-1,1637,1562,13.0446,-13.1765
420,-538,9.96216,12.7653,0,0,0,0,0,0,0,-1,1644,1562,9.96221,-12.7653
427,-538,10.1732,14.5863,0,0,0,0,0,0,0,-1,1651,1562,10.1732,-14.5863
434,-538,9.64331,14.7745,0,0,0,0,0,0,0,-1,1658,1562,9.64326,-14.7746
441,-538,11.5039,20.5195,0,0,0,0,0,0,0,-1,1665,1562,11.5039,-20.5195
448,-538,12.8766,22.4932,0,0,0,0,0,0,0,-1,1672,1562,12.8766,-22.4932
455,-538,12.5693,17.4128,0,0,0,0,0,0,0,-1,1679,1562,12.5694,-17.4128
462,-538,12.1389,17.017,0,0,0,0,0,0,0,-1,1686,1562,12.1389,-17.017
469,-538,14.3802,16.6945,0,0,0,0,0,0,0,-1,1693,1562,14.3803,-16.6945
476,-538,13.724,19.0608,0,0,0,0,0,0,0,-1,1700,1562,13.724,-19.0608
483,-538,17.088,25.2936,0,0,0,0,0,0,0,-1,1707,1562,17.088,-25.2936
490,-538,38.6315,88.9027,0,0,0,0,0,0,0,-1,1714,1562,38.6315,-88.9028
497,-538,69.8599,171.032,0,0,0,0,0,0,0,-1,1721,1562,69.8598,-171.032
504,-538,71.4562,168.192,0,0,0,0,0,0,0,-1,1728,1562,71.4562,-168.192
511,-538,98.3538,167.179,0,0,0,0,0,0,0,-1,1735,1562,98.3538,-167.179
518,-538,98.2872,162.396,0,0,0,0,0,0,0,-1,1742,1562,98.2872,-162.395
525,-538,96.9641,157.828,0.0386716,0.00475741,0.0442881,0.069138,-0.0257089,0.602567,0.0566411,0.0291316,1749,1562,96.9641,-157.828
532,-538,95.7181,153.143,0.0363945,0.00445107,0.0430736,0.0663623,-0.0255167,0.607856,0.0547657,0.0280102,1756,1562,95.7182,-153.143
539,-538,94.4543,148.68,0.0357278,0.00628894,0.0427019,0.066176,-0.0241593,0.619425,0.0540029,0.0321722,1763,1562,94.4543,-148.68
546,-538,93.3673,144.371,0.0360469,0.00957007,0.0431559,0.0679493,-0.0223323,0.636575,0.0542967,0.0244047,1770,1562,93.3673,-144.371
553,-538,92.1156,139.839,0.0365917,0.0139452,0.0441002,0.0707991,-0.0202622,0.659732,0.0552072,0.0437429,1777,1562,92.1156,-139.839
560,-538,90.8433,135.284,0,0,0,0,0,0,0,-1,1784,1562,90.8432,-135.284
567,-538,89.7334,131.326,0,0,0,0,0,0,0,-1,1791,1562,89.7334,-131.326
574,-538,88.723,126.879,0,0,0,0,0,0,0,-1,1798,1562,88.723,-126.879
581,-538,34.416,55.7428,0,0,0,0,0,0,0,-1,1805,1562,34.4161,-55.7428
588,-538,25.8256,30.7411,0,0,0,0,0,0,0,-1,1812,1562,25.8255,-30.7411
595,-538,15.9808,16.0894,0,0,0,0,0,0,0,-1,1819,1562,15.9808,-16.0893
602,-538,10.314,8.94238,0,0,0,0,0,0,0,-1,1826,1562,10.314,-8.94238
609,-538,10.1046,7.05713,0,0,0,0,0,0,0,-1,1833,1562,10.1046,-7.05719
616,-538,9.92249,5.43506,0,0,0,0,0,0,0,-1,1840,1562,9.92254,-5.43507
623,-538,11.1711,4.31604,0,0,0,0,0,0,0,-1,1847,1562,11.1711,-4.316
630,-538,12.6112,2.61633,0,0,0,0,0,0,0,-1,1854,1562,12.6112,-2.61637
637,-538,0,0,0,0,0,0,0,0,0,-1,1861,1562,0,0
644,-538,0,0,0,0,0,0,0,0,0,-1,1868,1562,0,0
651,-538,0,0,0,0,0,0,0,0,0,-1,1875,1562,0,0
658,-538,0,0,0,0,0,0,0,0,0,-1,1882,1562,0,0
665,-538,0,0,0,0,0,0,0,0,0,-1,1889,1562,0,0
672,-538,0,0,0,0,0,0,0,0,0,-1,1896,1562,0,0
679,-538,0,0,0,0,0,0,0,0,0,-1,1903,1562,0,0
686,-538,0,0,0,0,0,0,0,0,0,-1,1910,1562,0,0
693,-538,0,0,0,0,0,0,0,0,0,-1,1917,1562,0,0
700,-538,0,0,0,0,0,0,0,0,0,-1,1924,1562,0,0
707,-538,0,0,0,0,0,0,0,0,0,-1,1931,1562,0,0
714,-538,0,0,0,0,0,0,0,0,0,-1,1938,1562,0,0
721,-538,0,0,0,0,0,0,0,0,0,-1,1945,1562,0,0
728,-538,0,0,0,0,0,0,0,0,0,-1,1952,1562,0,0
735,-538,0,0,0,0,0,0,0,0,0,-1,1959,1562,0,0
742,-538,0,0,0,0,0,0,0,0,0,-1,1966,1562,0,0
749,-538,0,0,0,0,0,0,0,0,0,-1,1973,1562,0,0
756,-538,0,0,0,0,0,0,0,0,0,-1,1980,1562,0,0
763,-538,0,0,0,0,0,0,0,0,0,-1,1987,1562,0,0
770,-538,0,0,0,0,0,0,0,0,0,-1,1994,1562,0,0
777,-538,0,0,0,0,0,0,0,0,0,-1,2001,1562,0,0
784,-538,0,0,0,0,0,0,0,0,0,-1,2008,1562,0,0
791,-538,0,0,0,0,0,0,0,0,0,-1,2015,1562,0,0
798,-538,0,0,0,0,0,0,0,0,0,-1,2022,1562,0,0
805,-538,0,0,0,0,0,0,0,0,0,-1,2029,1562,0,0
812,-538,0,0,0,0,0,0,0,0,0,-1,2036,1562,0,0
-700,-545,0,0,0,0,0,0,0,0,0,-1,524,1569,0,0
-693,-545,0,0,0,0,0,0,0,0,0,-1,531,1569,0,0
-686,-545,0,0,0,0,0,0,0,0,0,-1,538,1569,0,0
-679,-545,0,0,0,0,0,0,0,0,0,-1,545,1569,0,0
-672,-545,0,0,0,0,0,0,0,0,0,-1,552,1569,0,0
-665,-545,0,0,0,0,0,0,0,0,0,-1,559,1569,0,0
-658,-545,0,0,0,0,0,0,0,0,0,-1,566,1569,0,0
-651,-545,0,0,0,0,0,0,0,0,0,-1,573,1569,0,0
-644,-545,0,0,0,0,0,0,0,0,0,-1,580,1569,0,0
-637,-545,0,0,0,0,0,0,0,0,0,-1,587,1569,0,0
-630,-545,0,0,0,0,0,0,0,0,0,-1,594,1569,0,0
-623,-545,0,0,0,0,0,0,0,0,0,-1,601,1569,0,0
-616,-545,0,0,0,0,0,0,0,0,0,-1,608,1569,0,0
-609,-545,0,0,0,0,0,0,0,0,0,-1,615,1569,0,0
-602,-545,0,0,0,0,0,0,0,0,0,-1,622,1569,0,0
-595,-545,0,0,0,0,0,0,0,0,0,-1,629,1569,0,0
-588,-545,0,0,0,0,0,0,0,0,0,-1,636,1569,0,0
-581,-545,0,0,0,0,0,0,0,0,0,-1,643,1569,0,0
-574,-545,0,0,0,0,0,0,0,0,0,-1,650,1569,0,0
-567,-545,0,0,0,0,0,0,0,0,0,-1,657,1569,0,0
-560,-545,0,0,0,0,0,0,0,0,0,-1,664,1569,0,0
-553,-545,0,0,0,0,0,0,0,0,0,-1,671,1569,0,0
-546,-545,0,0,0,0,0,0,0,0,0,-1,678,1569,0,0
-539,-545,0,0,0,0,0,0,0,0,0,-1,685,1569,0,0
-532,-545,0,0,0,0,0,0,0,0,0,-1,692,1569,0,0
-525,-545,0,0,0,0,0,0,0,0,0,-1,699,1569,0,0
-518,-545,0,0,0,0,0,0,0,0,0,-1,706,1569,0,0
-511,-545,0,0,0,0,0,0,0,0,0,-1,713,1569,0,0
-504,-545,-3.55237,-2.5354,0,0,0,0,0,0,0,-1,720,1569,-3.55236,2.53545
-497,-545,2.26575,5.69214,0,0,0,0,0,0,0,-1,727,1569,2.26573,-5.6922
-490,-545,-2.17334,7.81396,0,0,0,0,0,0,0,-1,734,1569,-2.17334,-7.81399
-483,-545,-1.88336,5.8446,0,0,0,0,0,0,0,-1,741,1569,-1.88334,-5.84466
-476,-545,-1.13147,6.5741,0,0,0,0,0,0,0,-1,748,1569,-1.13149,-6.57405
-469,-545,-1.03412,15.8353,0,0,0,0,0,0,0,-1,755,1569,-1.03414,-15.8353
-462,-545,-4.09772,21.0458,0,0,0,0,0,0,0,-1,762,1569,-4.0977,-21.0458
-455,-545,-8.5816,34.5475,0,0,0,0,0,0,0,-1,769,1569,-8.58159,-34.5475
-448,-545,-9.96466,40.7007,0,0,0,0,0,0,0,-1,776,1569,-9.96466,-40.7007
-441,-545,-11.8745,47.3488,0,0,0,0,0,0,0,-1,783,1569,-11.8745,-47.3487
-434,-545,-71.7704,128.656,0,0,0,0,0,0,0,-1,790,1569,-71.7705,-128.656
-427,-545,-72.957,133.419,0,0,0,0,0,0,0,-1,797,1569,-72.9569,-133.419
-420,-545,-74.0443,137.767,0.0580599,0.0294183,-0.071916,0.117067,-0.0295889,-0.687118,0.0895522,0.0315129,804,1569,-74.0443,-137.767
-413,-545,-75.1854,142.178,0.0530454,0.0236682,-0.0712861,0.11114,-0.0344268,-0.683795,0.0878474,0.0319642,811,1569,-75.1854,-142.179
-406,-545,-76.3085,146.625,0.0475879,0.0188663,-0.0712007,0.105862,-0.0394075,-0.685886,0.0867471,0.0272291,818,1569,-76.3085,-146.625
-399,-545,-77.3207,151.003,0.0417001,0.0151271,-0.0717284,0.101362,-0.044535,-0.693819,0.0863374,0.020674,825,1569,-77.3208,-151.003
-392,-545,-78.5933,155.315,0.0357484,0.0127919,-0.0728855,0.0980539,-0.0495136,-0.707298,0.086721,0.0227138,832,1569,-78.5933,-155.315
-385,-545,-80.189,159.469,0.0303065,0.0117988,-0.0746266,0.0962509,-0.0541456,-0.723712,0.0879584,0.0202445,839,1569,-80.189,-159.469
-378,-545,-81.6669,163.862,0.0260191,0.0121669,-0.077066,0.0964696,-0.0582836,-0.740582,0.090249,0.0407783,846,1569,-81.6669,-163.862
-371,-545,-82.9684,168.371,0,0,0,0,0,0,0,-1,853,1569,-82.9684,-168.371
-364,-545,-82.4116,173.008,0,0,0,0,0,0,0,-1,860,1569,-82.4115,-173.008
-357,-545,-77.6259,176.671,0,0,0,0,0,0,0,-1,867,1569,-77.6259,-176.671
-350,-545,-62.8481,177.965,0,0,0,0,0,0,0,-1,874,1569,-62.8481,-177.965
-343,-545,-9.54028,53.48,0,0,0,0,0,0,0,-1,881,1569,-9.54026,-53.48
-336,-545,-4.2146,36.9165,0,0,0,0,0,0,0,-1,888,1569,-4.21457,-36.9165
-329,-545,-2.03595,27.8694,0,0,0,0,0,0,0,-1,895,1569,-2.03592,-27.8694
-322,-545,-2.42474,27.9695,0,0,0,0,0,0,0,-1,902,1569,-2.42474,-27.9695
-315,-545,-2.52954,30.1711,0,0,0,0,0,0,0,-1,909,1569,-2.52951,-30.1712
-308,-545,-1.54358,21.4457,0,0,0,0,0,0,0,-1,916,1569,-1.54357,-21.4457
-301,-545,1.52191,17.5009,0,0,0,0,0,0,0,-1,923,1569,1.52192,-17.5008
-294,-545,-2.69287,8.42102,0,0,0,0,0,0,0,-1,930,1569,-2.69287,-8.42097
-287,-545,-3.47784,9.96021,0,0,0,0,0,0,0,-1,937,1569,-3.47785,-9.96021
-280,-545,-3.7879,10.5448,0,0,0,0,0,0,0,-1,944,1569,-3.78793,-10.5448
-273,-545,-5.10333,12.864,0,0,0,0,0,0,0,-1,951,1569,-5.10331,-12.864
-266,-545,-5.78955,13.3704,0,0,0,0,0,0,0,-1,958,1569,-5.78952,-13.3703
-259,-545,-6.32184,13.8101,0,0,0,0,0,0,0,-1,965,1569,-6.32182,-13.81
-252,-545,0.369263,7.54053,0,0,0,0,0,0,0,-1,972,1569,0.369276,-7.54056
-245,-545,-0.236633,6.65564,0,0,0,0,0,0,0,-1,979,1569,-0.236605,-6.65566
-238,-545,0,0,0,0,0,0,0,0,0,-1,986,1569,0,0
-231,-545,0,0,0,0,0,0,0,0,0,-1,993,1569,0,0
-224,-545,0,0,0,0,0,0,0,0,0,-1,1000,1569,0,0
-217,-545,0,0,0,0,0,0,0,0,0,-1,1007,1569,0,0
-210,-545,0,0,0,0,0,0,0,0,0,-1,1014,1569,0,0
-203,-545,0,0,0,0,0,0,0,0,0,-1,1021,1569,0,0
-196,-545,0,0,0,0,0,0,0,0,0,-1,1028,1569,0,0
-189,-545,0,0,0,0,0,0,0,0,0,-1,1035,1569,0,0
-182,-545,0,0,0,0,0,0,0,0,0,-1,1042,1569,0,0
-175,-545,0,0,0,0,0,0,0,0,0,-1,1049,1569,0,0
-168,-545,0,0,0,0,0,0,0,0,0,-1,1056,1569,0,0
-161,-545,0,0,0,0,0,0,0,0,0,-1,1063,1569,0,0
-154,-545,0,0,0,0,0,0,0,0,0,-1,1070,1569,0,0
-147,-545,0,0,0,0,0,0,0,0,0,-1,1077,1569,0,0
-140,-545,0,0,0,0,0,0,0,0,0,-1,1084,1569,0,0
-133,-545,0,0,0,0,0,0,0,0,0,-1,1091,1569,0,0
-126,-545,0,0,0,0,0,0,0,0,0,-1,1098,1569,0,0
-119,-545,0,0,0,0,0,0,0,0,0,-1,1105,1569,0,0
-112,-545,0,0,0,0,0,0,0,0,0,-1,1112,1569,0,0
-105,-545,0,0,0,0,0,0,0,0,0,-1,1119,1569,0,0
-98,-545,0,0,0,0,0,0,0,0,0,-1,1126,1569,0,0
-91,-545,0,0,0,0,0,0,0,0,0,-1,1133,1569,0,0
-84,-545,0,0,0,0,0,0,0,0,0,-1,1140,1569,0,0
-77,-545,0,0,0,0,0,0,0,0,0,-1,1147,1569,0,0
-70,-545,0,0,0,0,0,0,0,0,0,-1,1154,1569,0,0
-63,-545,0,0,0,0,0,0,0,0,0,-1,1161,1569,0,0
-56,-545,0,0,0,0,0,0,0,0,0,-1,1168,1569,0,0
-49,-545,0,0,0,0,0,0,0,0,0,-1,1175,1569,0,0
-42,-545,0,0,0,0,0,0,0,0,0,-1,1182,1569,0,0
-35,-545,0,0,0,0,0,0,0,0,0,-1,1189,1569,0,0
-28,-545,0,0,0,0,0,0,0,0,0,-1,1196,1569,0,0
-21,-545,0,0,0,0,0,0,0,0,0,-1,1203,1569,0,0
-14,-545,0,0,0,0,0,0,0,0,0,-1,1210,1569,0,0
-7,-545,0,0,0,0,0,0,0,0,0,-1,1217,1569,0,0
0,-545,0,0,0,0,0,0,0,0,0,-1,1224,1569,0,0
7,-545,0,0,0,0,0,0,0,0,0,-1,1231,1569,0,0
14,-545,0,0,0,0,0,0,0,0,0,-1,1238,1569,0,0
21,-545,0,0,0,0,0,0,0,0,0,-1,1245,1569,0,0
28,-545,0,0,0,0,0,0,0,0,0,-1,1252,1569,0,0
35,-545,0,0,0,0,0,0,0,0,0,-1,1259,1569,0,0
42,-545,0,0,0,0,0,0,0,0,0,-1,1266,1569,0,0
49,-545,0,0,0,0,0,0,0,0,0,-1,1273,1569,0,0
56,-545,0,0,0,0,0,0,0,0,0,-1,1280,1569,0,0
63,-545,0,0,0,0,0,0,0,0,0,-1,1287,1569,0,0
70,-545,0,0,0,0,0,0,0,0,0,-1,1294,1569,0,0
77,-545,0,0,0,0,0,0,0,0,0,-1,1301,1569,0,0
84,-545,0,0,0,0,0,0,0,0,0,-1,1308,1569,0,0
91,-545,0,0,0,0,0,0,0,0,0,-1,1315,1569,0,0
98,-545,0,0,0,0,0,0,0,0,0,-1,1322,1569,0,0
105,-545,0,0,0,0,0,0,0,0,0,-1,1329,1569,0,0
112,-545,0,0,0,0,0,0,0,0,0,-1,1336,1569,0,0
119,-545,0,0,0,0,0,0,0,0,0,-1,1343,1569,0,0
126,-545,0,0,0,0,0,0,0,0,0,-1,1350,1569,0,0
133,-545,0,0,0,0,0,0,0,0,0,-1,1357,1569,0,0
140,-545,0,0,0,0,0,0,0,0,0,-1,1364,1569,0,0
147,-545,0,0,0,0,0,0,0,0,0,-1,1371,1569,0,0
154,-545,0,0,0,0,0,0,0,0,0,-1,1378,1569,0,0
161,-545,0,0,0,0,0,0,0,0,0,-1,1385,1569,0,0
168,-545,0,0,0,0,0,0,0,0,0,-1,1392,1569,0,0
175,-545,0,0,0,0,0,0,0,0,0,-1,1399,1569,0,0
182,-545,0,0,0,0,0,0,0,0,0,-1,1406,1569,0,0
189,-545,0,0,0,0,0,0,0,0,0,-1,1413,1569,0,0
196,-545,0,0,0,0,0,0,0,0,0,-1,1420,1569,0,0
203,-545,0,0,0,0,0,0,0,0,0,-1,1427,1569,0,0
210,-545,0,0,0,0,0,0,0,0,0,-1,1434,1569,0,0
217,-545,0,0,0,0,0,0,0,0,0,-1,1441,1569,0,0
224,-545,0,0,0,0,0,0,0,0,0,-1,1448,1569,0,0
231,-545,0,0,0,0,0,0,0,0,0,-1,1455,1569,0,0
238,-545,0,0,0,0,0,0,0,0,0,-1,1462,1569,0,0
245,-545,0,0,0,0,0,0,0,0,0,-1,1469,1569,0,0
252,-545,0,0,0,0,0,0,0,0,0,-1,1476,1569,0,0
259,-545,0,0,0,0,0,0,0,0,0,-1,1483,1569,0,0
266,-545,0,0,0,0,0,0,0,0,0,-1,1490,1569,0,0
273,-545,0,0,0,0,0,0,0,0,0,-1,1497,1569,0,0
280,-545,0,0,0,0,0,0,0,0,0,-1,1504,1569,0,0
287,-545,0,0,0,0,0,0,0,0,0,-1,1511,1569,0,0
294,-545,0,0,0,0,0,0,0,0,0,-1,1518,1569,0,0
301,-545,0,0,0,0,0,0,0,0,0,-1,1525,1569,0,0
308,-545,0,0,0,0,0,0,0,0,0,-1,1532,1569,0,0
315,-545,0,0,0,0,0,0,0,0,0,-1,1539,1569,0,0
322,-545,0,0,0,0,0,0,0,0,0,-1,1546,1569,0,0
329,-545,0,0,0,0,0,0,0,0,0,-1,1553,1569,0,0
336,-545,0,0,0,0,0,0,0,0,0,-1,1560,1569,0,0
343,-545,0,0,0,0,0,0,0,0,0,-1,1567,1569,0,0
350,-545,0,0,0,0,0,0,0,0,0,-1,1574,1569,0,0
357,-545,0,0,0,0,0,0,0,0,0,-1,1581,1569,0,0
364,-545,7.19495,4.88098,0,0,0,0,0,0,0,-1,1588,1569,7.19497,-4.88095
371,-545,7.82324,3.84302,0,0,0,0,0,0,0,-1,1595,1569,7.82324,-3.84307
378,-545,7.65674,5.52673,0,0,0,0,0,0,0,-1,1602,1569,7.6567,-5.52667
385,-545,8.58447,1.16125,0,0,0,0,0,0,0,-1,1609,1569,8.5845,-1.1612
392,-545,12.5654,3.89526,0,0,0,0,0,0,0,-1,1616,1569,12.5655,-3.89532
399,-545,11.5869,5.6333,0,0,0,0,0,0,0,-1,1623,1569,11.5869,-5.63326
406,-545,11.234,6.36414,0,0,0,0,0,0,0,-1,1630,1569,11.234,-6.3641
413,-545,12.1521,13.4817,0,0,0,0,0,0,0,-1,1637,1569,12.1521,-13.4817
420,-545,11.1954,13.6047,0,0,0,0,0,0,0,-1,1644,1569,11.1954,-13.6047
427,-545,9.61072,14.9135,0,0,0,0,0,0,0,-1,1651,1569,9.61076,-14.9134
434,-545,13.1598,23.9921,0,0,0,0,0,0,0,-1,1658,1569,13.1598,-23.992
441,-545,12.2833,22.2238,0,0,0,0,0,0,0,-1,1665,1569,12.2833,-22.2237
448,-545,13.0082,21.941,0,0,0,0,0,0,0,-1,1672,1569,13.0082,-21.941
455,-545,13.733,21.6583,0,0,0,0,0,0,0,-1,1679,1569,13.733,-21.6583
462,-545,12.449,20.7413,0,0,0,0,0,0,0,-1,1686,1569,12.4489,-20.7413
469,-545,12.7837,17.7919,0,0,0,0,0,0,0,-1,1693,1569,12.7837,-17.7919
476,-545,15.7562,24.8708,0,0,0,0,0,0,0,-1,1700,1569,15.7563,-24.8709
483,-545,37.3098,90.5648,0,0,0,0,0,0,0,-1,1707,1569,37.3098,-90.5648
490,-545,67.9878,179.796,0,0,0,0,0,0,0,-1,1714,1569,67.9878,-179.796
497,-545,97.4647,177.844,0,0,0,0,0,0,0,-1,1721,1569,97.4647,-177.844
504,-545,95.9551,173.442,0,0,0,0,0,0,0,-1,1728,1569,95.955,-173.441
511,-545,94.7156,168.961,0,0,0,0,0,0,0,-1,1735,1569,94.7155,-168.961
518,-545,93.5011,164.277,0.0429291,0.00380415,0.0438361,0.0713697,-0.0246364,0.575527,0.0575765,0.0246915,1742,1569,93.5012,-164.277
525,-545,92.2418,159.652,0.04072,0.00382102,0.0423794,0.0684917,-0.0239507,0.5801,0.0553982,0.0244959,1749,1569,92.2418,-159.652
532,-545,90.9846,155.01,0.0387954,0.00420415,0.0414071,0.0663739,-0.0233744,0.587564,0.0537621,0.0273553,1756,1569,90.9847,-155.01
539,-545,89.7091,150.599,0.0383218,0.00646359,0.0412495,0.066611,-0.0218256,0.601137,0.0531965,0.0297574,1763,1569,89.7091,-150.599
546,-545,88.5192,146.224,0.0386871,0.0100587,0.0417645,0.0685223,-0.0197765,0.620304,0.0535061,0.0241679,1770,1569,88.5192,-146.224
553,-545,87.3573,141.654,0.0391521,0.0149883,0.0427589,0.0715033,-0.0173629,0.647708,0.0543883,0.0377702,1777,1569,87.3573,-141.654
560,-545,86.1245,136.995,0,0,0,0,0,0,0,-1,1784,1569,86.1245,-136.995
567,-545,84.921,132.72,0,0,0,0,0,0,0,-1,1791,1569,84.9211,-132.72
574,-545,27.1798,38.2062,0,0,0,0,0,0,0,-1,1798,1569,27.1798,-38.2062
581,-545,24.7096,31.5568,0,0,0,0,0,0,0,-1,1805,1569,24.7096,-31.5568
588,-545,15.4786,16.7035,0,0,0,0,0,0,0,-1,1812,1569,15.4786,-16.7035
595,-545,10.2859,9.11218,0,0,0,0,0,0,0,-1,1819,1569,10.2858,-9.11215
602,-545,8.82117,6.32214,0,0,0,0,0,0,0,-1,1826,1569,8.82121,-6.32217
609,-545,10.2406,5.22351,0,0,0,0,0,0,0,-1,1833,1569,10.2406,-5.22353
616,-545,11.701,3.93188,0,0,0,0,0,0,0,-1,1840,1569,11.701,-3.93191
623,-545,13.2139,2.32043,0,0,0,0,0,0,0,-1,1847,1569,13.2139,-2.32042
630,-545,0,0,0,0,0,0,0,0,0,-1,1854,1569,0,0
637,-545,0,0,0,0,0,0,0,0,0,-1,1861,1569,0,0
644,-545,0,0,0,0,0,0,0,0,0,-1,1868,1569,0,0
651,-545,0,0,0,0,0,0,0,0,0,-1,1875,1569,0,0
658,-545,0,0,0,0,0,0,0,0,0,-1,1882,1569,0,0
665,-545,0,0,0,0,0,0,0,0,0,-1,1889,1569,0,0
672,-545,0,0,0,0,0,0,0,0,0,-1,1896,1569,0,0
679,-545,0,0,0,0,0,0,0,0,0,-1,1903,1569,0,0
686,-545,0,0,0,0,0,0,0,0,0,-1,1910,1569,0,0
693,-545,0,0,0,0,0,0,0,0,0,-1,1917,1569,0,0
700,-545,0,0,0,0,0,0,0,0,0,-1,1924,1569,0,0
707,-545,0,0,0,0,0,0,0,0,0,-1,1931,1569,0,0
714,-545,0,0,0,0,0,0,0,0,0,-1,1938,1569,0,0
721,-545,0,0,0,0,0,0,0,0,0,-1,1945,1569,0,0
728,-545,0,0,0,0,0,0,0,0,0,-1,1952,1569,0,0
735,-545,0,0,0,0,0,0,0,0,0,-1,1959,1569,0,0
742,-545,0,0,0,0,0,0,0,0,0,-1,1966,1569,0,0
749,-545,0,0,0,0,0,0,0,0,0,-1,1973,1569,0,0
756,-545,0,0,0,0,0,0,0,0,0,-1,1980,1569,0,0
763,-545,0,0,0,0,0,0,0,0,0,-1,1987,1569,0,0
770,-545,0,0,0,0,0,0,0,0,0,-1,1994,1569,0,0
777,-545,0,0,0,0,0,0,0,0,0,-1,2001,1569,0,0
784,-545,0,0,0,0,0,0,0,0,0,-1,2008,1569,0,0
791,-545,0,0,0,0,0,0,0,0,0,-1,2015,1569,0,0
798,-545,0,0,0,0,0,0,0,0,0,-1,2022,1569,0,0
805,-545,0,0,0,0,0,0,0,0,0,-1,2029,1569,0,0
812,-545,0,0,0,0,0,0,0,0,0,-1,2036,1569,0,0
-700,-552,0,0,0,0,0,0,0,0,0,-1,524,1576,0,0
-693,-552,0,0,0,0,0,0,0,0,0,-1,531,1576,0,0
-686,-552,0,0,0,0,0,0,0,0,0,-1,538,1576,0,0
-679,-552,0,0,0,0,0,0,0,0,0,-1,545,1576,0,0
-672,-552,0,0,0,0,0,0,0,0,0,-1,552,1576,0,0
-665,-552,0,0,0,0,0,0,0,0,0,-1,559,1576,0,0
-658,-552,0,0,0,0,0,0,0,0,0,-1,566,1576,0,0
-651,-552,0,0,0,0,0,0,0,0,0,-1,573,1576,0,0
-644,-552,0,0,0,0,0,0,0,0,0,-1,580,1576,0,0
-637,-552,0,0,0,0,0,0,0,0,0,-1,587,1576,0,0
-630,-552,0,0,0,0,0,0,0,0,0,-1,594,1576,0,0
-623,-552,0,0,0,0,0,0,0,0,0,-1,601,1576,0,0
-616,-552,0,0,0,0,0,0,0,0,0,-1,608,1576,0,0
-609,-552,0,0,0,0,0,0,0,0,0,-1,615,1576,0,0
-602,-552,0,0,0,0,0,0,0,0,0,-1,622,1576,0,0
-595,-552,0,0,0,0,0,0,0,0,0,-1,629,1576,0,0
-588,-552,0,0,0,0,0,0,0,0,0,-1,636,1576,0,0
-581,-552,0,0,0,0,0,0,0,0,0,-1,643,1576,0,0
-574,-552,0,0,0,0,0,0,0,0,0,-1,650,1576,0,0
-567,-552,0,0,0,0,0,0,0,0,0,-1,657,1576,0,0
-560,-552,0,0,0,0,0,0,0,0,0,-1,664,1576,0,0
-553,-552,0,0,0,0,0,0,0,0,0,-1,671,1576,0,0
-546,-552,0,0,0,0,0,0,0,0,0,-1,678,1576,0,0
-539,-552,0,0,0,0,0,0,0,0,0,-1,685,1576,0,0
-532,-552,0,0,0,0,0,0,0,0,0,-1,692,1576,0,0
-525,-552,0,0,0,0,0,0,0,0,0,-1,699,1576,0,0
-518,-552,0,0,0,0,0,0,0,0,0,-1,706,1576,0,0
-511,-552,0,0,0,0,0,0,0,0,0,-1,713,1576,0,0
-504,-552,0,0,0,0,0,0,0,0,0,-1,720,1576,0,0
-497,-552,1.51282,3.96924,0,0,0,0,0,0,0,-1,727,1576,1.5128,-3.96924
-490,-552,-3.82312,6.32104,0,0,0,0,0,0,0,-1,734,1576,-3.82314,-6.3211
-483,-552,-3.50586,6.47986,0,0,0,0,0,0,0,-1,741,1576,-3.50587,-6.47983
-476,-552,-1.95129,4.43054,0,0,0,0,0,0,0,-1,748,1576,-1.95128,-4.43054
-469,-552,-1.40491,7.9895,0,0,0,0,0,0,0,-1,755,1576,-1.40491,-7.98947
-462,-552,0.0459595,16.3469,0,0,0,0,0,0,0,-1,762,1576,0.0459611,-16.3469
-455,-552,-3.21484,22.3766,0,0,0,0,0,0,0,-1,769,1576,-3.21487,-22.3766
-448,-552,-7.5672,35.5388,0,0,0,0,0,0,0,-1,776,1576,-7.56718,-35.5388
-441,-552,-6.46014,37.4419,0,0,0,0,0,0,0,-1,783,1576,-6.46013,-37.4419
-434,-552,-10.2953,45.2994,0,0,0,0,0,0,0,-1,790,1576,-10.2954,-45.2994
-427,-552,-38.4799,117.692,0,0,0,0,0,0,0,-1,797,1576,-38.4799,-117.691
-420,-552,-69.0118,139.691,0,0,0,0,0,0,0,-1,804,1576,-69.0118,-139.691
-413,-552,-70.2067,144.114,0.0607902,0.0241737,-0.0691719,0.114036,-0.0290718,-0.656026,0.0873424,0.0260953,811,1576,-70.2067,-144.114
-406,-552,-71.4575,148.518,0.0554556,0.0194429,-0.0691876,0.108942,-0.0340431,-0.658095,0.0862448,0.0220212,818,1576,-71.4575,-148.518
-399,-552,-72.4292,152.853,0.0498468,0.0157338,-0.069758,0.104603,-0.0390227,-0.665496,0.0857555,0.0229409,825,1576,-72.4292,-152.853
-392,-552,-73.6241,157.206,0.044358,0.0133413,-0.070949,0.101474,-0.0437745,-0.677798,0.0860364,0.0279672,832,1576,-73.6241,-157.206
-385,-552,-74.9831,161.771,0.0394511,0.0121426,-0.0725924,0.0996622,-0.0480685,-0.692437,0.0870089,0.0305363,839,1576,-74.9831,-161.771
-378,-552,-76.0197,166.093,0.0358776,0.0120451,-0.0748262,0.0997305,-0.0518078,-0.706435,0.088937,0.0339523,846,1576,-76.0197,-166.093
-371,-552,-76.8816,170.433,0,0,0,0,0,0,0,-1,853,1576,-76.8816,-170.433
-364,-552,-77.6516,175.093,0,0,0,0,0,0,0,-1,860,1576,-77.6516,-175.093
-357,-552,-78.8298,179.438,0,0,0,0,0,0,0,-1,867,1576,-78.8298,-179.438
-350,-552,-74.5317,182.299,0,0,0,0,0,0,0,-1,874,1576,-74.5317,-182.299
-343,-552,-59.9205,182.345,0,0,0,0,0,0,0,-1,881,1576,-59.9205,-182.345
-336,-552,-12.1249,66.1841,0,0,0,0,0,0,0,-1,888,1576,-12.1249,-66.184
-329,-552,-3.68982,37.6417,0,0,0,0,0,0,0,-1,895,1576,-3.68984,-37.6417
-322,-552,-1.23962,28.5371,0,0,0,0,0,0,0,-1,902,1576,-1.23964,-28.5371
-315,-552,-0.605347,28.994,0,0,0,0,0,0,0,-1,909,1576,-0.605331,-28.9941
-308,-552,-1.01624,30.3169,0,0,0,0,0,0,0,-1,916,1576,-1.01624,-30.3169
-301,-552,1.39453,18.4995,0,0,0,0,0,0,0,-1,923,1576,1.3945,-18.4995
-294,-552,0.842163,13.7863,0,0,0,0,0,0,0,-1,930,1576,0.842149,-13.7863
-287,-552,-0.663757,13.3474,0,0,0,0,0,0,0,-1,937,1576,-0.663744,-13.3474
-280,-552,-5.47241,8.96765,0,0,0,0,0,0,0,-1,944,1576,-5.47239,-8.96766
-273,-552,1.64587,10.6685,0,0,0,0,0,0,0,-1,951,1576,1.6459,-10.6685
-266,-552,-1.32678,8.05688,0,0,0,0,0,0,0,-1,958,1576,-1.32677,-8.05683
-259,-552,-5.54321,8.31213,0,0,0,0,0,0,0,-1,965,1576,-5.54324,-8.31214
-252,-552,-1.93445,7.81543,0,0,0,0,0,0,0,-1,972,1576,-1.93445,-7.81546
-245,-552,-2.53613,6.92212,0,0,0,0,0,0,0,-1,979,1576,-2.53614,-6.92216
-238,-552,-6.5365,2.81885,0,0,0,0,0,0,0,-1,986,1576,-6.53649,-2.8188
-231,-552,-4.32239,4.34583,0,0,0,0,0,0,0,-1,993,1576,-4.32239,-4.34587
-224,-552,0,0,0,0,0,0,0,0,0,-1,1000,1576,0,0
-217,-552,0,0,0,0,0,0,0,0,0,-1,1007,1576,0,0
-210,-552,0,0,0,0,0,0,0,0,0,-1,1014,1576,0,0
-203,-552,0,0,0,0,0,0,0,0,0,-1,1021,1576,0,0
-196,-552,0,0,0,0,0,0,0,0,0,-1,1028,1576,0,0
-189,-552,0,0,0,0,0,0,0,0,0,-1,1035,1576,0,0
-182,-552,0,0,0,0,0,0,0,0,0,-1,1042,1576,0,0
-175,-552,0,0,0,0,0,0,0,0,0,-1,1049,1576,0,0
-168,-552,0,0,0,0,0,0,0,0,0,-1,1056,1576,0,0
-161,-552,0,0,0,0,0,0,0,0,0,-1,1063,1576,0,0
-154,-552,0,0,0,0,0,0,0,0,0,-1,1070,1576,0,0
-147,-552,0,0,0,0,0,0,0,0,0,-1,1077,1576,0,0
-140,-552,0,0,0,0,0,0,0,0,0,-1,1084,1576,0,0
-133,-552,0,0,0,0,0,0,0,0,0,-1,1091,1576,0,0
-126,-552,0,0,0,0,0,0,0,0,0,-1,1098,1576,0,0
-119,-552,0,0,0,0,0,0,0,0,0,-1,1105,1576,0,0
-112,-552,0,0,0,0,0,0,0,0,0,-1,1112,1576,0,0
-105,-552,0,0,0,0,0,0,0,0,0,-1,1119,1576,0,0
-98,-552,0,0,0,0,0,0,0,0,0,-1,1126,1576,0,0
-91,-552,0,0,0,0,0,0,0,0,0,-1,1133,1576,0,0
-84,-552,0,0,0,0,0,0,0,0,0,-1,1140,1576,0,0
-77,-552,0,0,0,0,0,0,0,0,0,-1,1147,1576,0,0
-70,-552,0,0,0,0,0,0,0,0,0,-1,1154,1576,0,0
-63,-552,0,0,0,0,0,0,0,0,0,-1,1161,1576,0,0
-56,-552,0,0,0,0,0,0,0,0,0,-1,1168,1576,0,0
-49,-552,0,0,0,0,0,0,0,0,0,-1,1175,1576,0,0
-42,-552,0,0,0,0,0,0,0,0,0,-1,1182,1576,0,0
-35,-552,0,0,0,0,0,0,0,0,0,-1,1189,1576,0,0
-28,-552,0,0,0,0,0,0,0,0,0,-1,1196,1576,0,0
-21,-552,0,0,0,0,0,0,0,0,0,-1,1203,1576,0,0
-14,-552,0,0,0,0,0,0,0,0,0,-1,1210,1576,0,0
-7,-552,0,0,0,0,0,0,0,0,0,-1,1217,1576,0,0
0,-552,0,0,0,0,0,0,0,0,0,-1,1224,1576,0,0
7,-552,0,0,0,0,0,0,0,0,0,-1,1231,1576,0,0
14,-552,0,0,0,0,0,0,0,0,0,-1,1238,1576,0,0
21,-552,0,0,0,0,0,0,0,0,0,-1,1245,1576,0,0
28,-552,0,0,0,0,0,0,0,0,0,-1,1252,1576,0,0
35,-552,0,0,0,0,0,0,0,0,0,-1,1259,1576,0,0
42,-552,0,0,0,0,0,0,0,0,0,-1,1266,1576,0,0
49,-552,0,0,0,0,0,0,0,0,0,-1,1273,1576,0,0
56,-552,0,0,0,0,0,0,0,0,0,-1,1280,1576,0,0
63,-552,0,0,0,0,0,0,0,0,0,-1,1287,1576,0,0
70,-552,0,0,0,0,0,0,0,0,0,-1,1294,1576,0,0
77,-552,0,0,0,0,0,0,0,0,0,-1,1301,1576,0,0
84,-552,0,0,0,0,0,0,0,0,0,-1,1308,1576,0,0
91,-552,0,0,0,0,0,0,0,0,0,-1,1315,1576,0,0
98,-552,0,0,0,0,0,0,0,0,0,-1,1322,1576,0,0
105,-552,0,0,0,0,0,0,0,0,0,-1,1329,1576,0,0
112,-552,0,0,0,0,0,0,0,0,0,-1,1336,1576,0,0
119,-552,0,0,0,0,0,0,0,0,0,-1,1343,1576,0,0
126,-552,0,0,0,0,0,0,0,0,0,-1,1350,1576,0,0
133,-552,0,0,0,0,0,0,0,0,0,-1,1357,1576,0,0
140,-552,0,0,0,0,0,0,0,0,0,-1,1364,1576,0,0
147,-552,0,0,0,0,0,0,0,0,0,-1,1371,1576,0,0
154,-552,0,0,0,0,0,0,0,0,0,-1,1378,1576,0,0
161,-552,0,0,0,0,0,0,0,0,0,-1,1385,1576,0,0
168,-552,0,0,0,0,0,0,0,0,0,-1,1392,1576,0,0
175,-552,0,0,0,0,0,0,0,0,0,-1,1399,1576,0,0
182,-552,0,0,0,0,0,0,0,0,0,-1,1406,1576,0,0
189,-552,0,0,0,0,0,0,0,0,0,-1,1413,1576,0,0
196,-552,0,0,0,0,0,0,0,0,0,-1,1420,1576,0,0
203,-552,0,0,0,0,0,0,0,0,0,-1,1427,1576,0,0
210,-552,0,0,0,0,0,0,0,0,0,-1,1434,1576,0,0
217,-552,0,0,0,0,0,0,0,0,0,-1,1441,1576,0,0
224,-552,0,0,0,0,0,0,0,0,0,-1,1448,1576,0,0
231,-552,0,0,0,0,0,0,0,0,0,-1,1455,1576,0,0
238,-552,0,0,0,0,0,0,0,0,0,-1,1462,1576,0,0
245,-552,0,0,0,0,0,0,0,0,0,-1,1469,1576,0,0
252,-552,0,0,0,0,0,0,0,0,0,-1,1476,1576,0,0
259,-552,0,0,0,0,0,0,0,0,0,-1,1483,1576,0,0
266,-552,0,0,0,0,0,0,0,0,0,-1,1490,1576,0,0
273,-552,0,0,0,0,0,0,0,0,0,-1,1497,1576,0,0
280,-552,0,0,0,0,0,0,0,0,0,-1,1504,1576,0,0
287,-552,0,0,0,0,0,0,0,0,0,-1,1511,1576,0,0
294,-552,0,0,0,0,0,0,0,0,0,-1,1518,1576,0,0
301,-552,0,0,0,0,0,0,0,0,0,-1,1525,1576,0,0
308,-552,0,0,0,0,0,0,0,0,0,-1,1532,1576,0,0
315,-552,0,0,0,0,0,0,0,0,0,-1,1539,1576,0,0
322,-552,0,0,0,0,0,0,0,0,0,-1,1546,1576,0,0
329,-552,0,0,0,0,0,0,0,0,0,-1,1553,1576,0,0
336,-552,0,0,0,0,0,0,0,0,0,-1,1560,1576,0,0
343,-552,0,0,0,0,0,0,0,0,0,-1,1567,1576,0,0
350,-552,4.97876,4.09888,0,0,0,0,0,0,0,-1,1574,1576,4.97875,-4.09883
357,-552,5.18469,4.10706,0,0,0,0,0,0,0,-1,1581,1576,5.1847,-4.10702
364,-552,5.80872,5.07031,0,0,0,0,0,0,0,-1,1588,1576,5.80874,-5.07037
371,-552,7.10657,5.64783,0,0,0,0,0,0,0,-1,1595,1576,7.10651,-5.64786
378,-552,6.44446,4.91492,0,0,0,0,0,0,0,-1,1602,1576,6.44448,-4.91496
385,-552,12.8276,3.16504,0,0,0,0,0,0,0,-1,1609,1576,12.8276,-3.16503
392,-552,12.1301,4.3363,0,0,0,0,0,0,0,-1,1616,1576,12.1302,-4.33631
399,-552,11.3486,5.6012,0,0,0,0,0,0,0,-1,1623,1576,11.3486,-5.60115
406,-552,10.7863,6.42542,0,0,0,0,0,0,0,-1,1630,1576,10.7863,-6.42536
413,-552,8.39307,10.365,0,0,0,0,0,0,0,-1,1637,1576,8.3931,-10.365
420,-552,10.2306,12.7225,0,0,0,0,0,0,0,-1,1644,1576,10.2305,-12.7226
427,-552,9.73267,14.783,0,0,0,0,0,0,0,-1,1651,1576,9.73269,-14.783
434,-552,12.0377,20.1364,0,0,0,0,0,0,0,-1,1658,1576,12.0377,-20.1364
441,-552,12.4963,21.5277,0,0,0,0,0,0,0,-1,1665,1576,12.4964,-21.5277
448,-552,12.9141,21.5482,0,0,0,0,0,0,0,-1,1672,1576,12.9141,-21.5482
455,-552,13.3318,21.5687,0,0,0,0,0,0,0,-1,1679,1576,13.3317,-21.5687
462,-552,12.745,20.5947,0,0,0,0,0,0,0,-1,1686,1576,12.745,-20.5947
469,-552,17.7067,29.6902,0,0,0,0,0,0,0,-1,1693,1576,17.7067,-29.6902
476,-552,96.2419,193.239,0,0,0,0,0,0,0,-1,1700,1576,96.242,-193.239
483,-552,95.272,188.191,0,0,0,0,0,0,0,-1,1707,1576,95.272,-188.191
490,-552,93.955,184.105,0,0,0,0,0,0,0,-1,1714,1576,93.955,-184.105
497,-552,92.7711,179.648,0.0540026,0.00637341,0.0479985,0.0837696,-0.0233936,0.555116,0.0650616,0.046149,1721,1576,92.7711,-179.648
504,-552,91.4143,175.231,0.049707,0.0045862,0.0454662,0.0779024,-0.0236092,0.555096,0.0613384,0.0351548,1728,1576,91.4143,-175.231
511,-552,90.1243,170.717,0.0463572,0.00342767,0.0431217,0.0730611,-0.0232762,0.554467,0.0580432,0.025037,1735,1576,90.1242,-170.717
518,-552,88.7523,166.036,0.0435789,0.00272556,0.041347,0.0692697,-0.0229652,0.555968,0.0554436,0.0236884,1742,1576,88.7523,-166.037
525,-552,87.4763,161.45,0.0415288,0.00300956,0.0400404,0.0667007,-0.0221624,0.56123,0.05341,0.02336,1749,1576,87.4763,-161.45
532,-552,86.2834,157.011,0.0400118,0.00406646,0.0391991,0.065162,-0.0210838,0.570449,0.0519165,0.0226133,1756,1576,86.2835,-157.011
539,-552,84.993,152.583,0.0397384,0.00674104,0.0391255,0.0657016,-0.0192221,0.585868,0.0514203,0.0251371,1763,1576,84.993,-152.583
546,-552,83.6788,148.112,0.0400509,0.0106861,0.0395312,0.0675383,-0.0168013,0.607588,0.0515469,0.0280744,1770,1576,83.6788,-148.112
553,-552,82.4762,143.41,0.0402782,0.0163562,0.0402273,0.0702851,-0.0136507,0.640893,0.0520076,0.0372452,1777,1576,82.4762,-143.41
560,-552,81.3279,138.544,0,0,0,0,0,0,0,-1,1784,1576,81.3279,-138.544
567,-552,26.8342,55.0354,0,0,0,0,0,0,0,-1,1791,1576,26.8342,-55.0354
574,-552,12.8835,14.8463,0,0,0,0,0,0,0,-1,1798,1576,12.8836,-14.8463
581,-552,9.74841,9.98645,0,0,0,0,0,0,0,-1,1805,1576,9.74847,-9.9864
588,-552,10.5619,9.34924,0,0,0,0,0,0,0,-1,1812,1576,10.5619,-9.34921
595,-552,5.36194,6.62744,0,0,0,0,0,0,0,-1,1819,1576,5.36193,-6.62742
602,-552,10.6863,4.31616,0,0,0,0,0,0,0,-1,1826,1576,10.6862,-4.31619
609,-552,12.146,3.18286,0,0,0,0,0,0,0,-1,1833,1576,12.1459,-3.18281
616,-552,13.8762,2.08167,0,0,0,0,0,0,0,-1,1840,1576,13.8763,-2.08167
623,-552,0,0,0,0,0,0,0,0,0,-1,1847,1576,0,0
630,-552,0,0,0,0,0,0,0,0,0,-1,1854,1576,0,0
637,-552,0,0,0,0,0,0,0,0,0,-1,1861,1576,0,0
644,-552,0,0,0,0,0,0,0,0,0,-1,1868,1576,0,0
651,-552,0,0,0,0,0,0,0,0,0,-1,1875,1576,0,0
658,-552,0,0,0,0,0,0,0,0,0,-1,1882,1576,0,0
665,-552,0,0,0,0,0,0,0,0,0,-1,1889,1576,0,0
672,-552,0,0,0,0,0,0,0,0,0,-1,1896,1576,0,0
679,-552,0,0,0,0,0,0,0,0,0,-1,1903,1576,0,0
686,-552,0,0,0,0,0,0,0,0,0,-1,1910,1576,0,0
693,-552,0,0,0,0,0,0,0,0,0,-1,1917,1576,0,0
700,-552,0,0,0,0,0,0,0,0,0,-1,1924,1576,0,0
707,-552,0,0,0,0,0,0,0,0,0,-1,1931,1576,0,0
714,-552,0,0,0,0,0,0,0,0,0,-1,1938,1576,0,0
721,-552,0,0,0,0,0,0,0,0,0,-1,1945,1576,0,0
728,-552,0,0,0,0,0,0,0,0,0,-1,1952,1576,0,0
735,-552,0,0,0,0,0,0,0,0,0,-1,1959,1576,0,0
742,-552,0,0,0,0,0,0,0,0,0,-1,1966,1576,0,0
749,-552,0,0,0,0,0,0,0,0,0,-1,1973,1576,0,0
756,-552,0,0,0,0,0,0,0,0,0,-1,1980,1576,0,0
763,-552,0,0,0,0,0,0,0,0,0,-1,1987,1576,0,0
770,-552,0,0,0,0,0,0,0,0,0,-1,1994,1576,0,0
777,-552,0,0,0,0,0,0,0,0,0,-1,2001,1576,0,0
784,-552,0,0,0,0,0,0,0,0,0,-1,2008,1576,0,0
791,-552,0,0,0,0,0,0,0,0,0,-1,2015,1576,0,0
798,-552,0,0,0,0,0,0,0,0,0,-1,2022,1576,0,0
805,-552,0,0,0,0,0,0,0,0,0,-1,2029,1576,0,0
812,-552,0,0,0,0,0,0,0,0,0,-1,2036,1576,0,0
-700,-559,0,0,0,0,0,0,0,0,0,-1,524,1583,0,0
-693,-559,0,0,0,0,0,0,0,0,0,-1,531,1583,0,0
-686,-559,0,0,0,0,0,0,0,0,0,-1,538,1583,0,0
-679,-559,0,0,0,0,0,0,0,0,0,-1,545,1583,0,0
-672,-559,0,0,0,0,0,0,0,0,0,-1,552,1583,0,0
-665,-559,0,0,0,0,0,0,0,0,0,-1,559,1583,0,0
-658,-559,0,0,0,0,0,0,0,0,0,-1,566,1583,0,0
-651,-559,0,0,0,0,0,0,0,0,0,-1,573,1583,0,0
-644,-559,0,0,0,0,0,0,0,0,0,-1,580,1583,0,0
-637,-559,0,0,0,0,0,0,0,0,0,-1,587,1583,0,0
-630,-559,0,0,0,0,0,0,0,0,0,-1,594,1583,0,0
-623,-559,0,0,0,0,0,0,0,0,0,-1,601,1583,0,0
-616,-559,0,0,0,0,0,0,0,0,0,-1,608,1583,0,0
-609,-559,0,0,0,0,0,0,0,0,0,-1,615,1583,0,0
-602,-559,0,0,0,0,0,0,0,0,0,-1,622,1583,0,0
-595,-559,0,0,0,0,0,0,0,0,0,-1,629,1583,0,0
-588,-559,0,0,0,0,0,0,0,0,0,-1,636,1583,0,0
-581,-559,0,0,0,0,0,0,0,0,0,-1,643,1583,0,0
-574,-559,0,0,0,0,0,0,0,0,0,-1,650,1583,0,0
-567,-559,0,0,0,0,0,0,0,0,0,-1,657,1583,0,0
-560,-559,0,0,0,0,0,0,0,0,0,-1,664,1583,0,0
-553,-559,0,0,0,0,0,0,0,0,0,-1,671,1583,0,0
-546,-559,0,0,0,0,0,0,0,0,0,-1,678,1583,0,0
-539,-559,0,0,0,0,0,0,0,0,0,-1,685,1583,0,0
-532,-559,0,0,0,0,0,0,0,0,0,-1,692,1583,0,0
-525,-559,0,0,0,0,0,0,0,0,0,-1,699,1583,0,0
-518,-559,0,0,0,0,0,0,0,0,0,-1,706,1583,0,0
-511,-559,0,0,0,0,0,0,0,0,0,-1,713,1583,0,0
-504,-559,0,0,0,0,0,0,0,0,0,-1,720,1583,0,0
-497,-559,0,0,0,0,0,0,0,0,0,-1,727,1583,0,0
-490,-559,-5.49835,4.47424,0,0,0,0,0,0,0,-1,734,1583,-5.49833,-4.4743
-483,-559,-5.24078,4.74561,0,0,0,0,0,0,0,-1,741,1583,-5.24079,-4.74563
-476,-559,-4.98022,4.99316,0,0,0,0,0,0,0,-1,748,1583,-4.98024,-4.99321
-469,-559,-4.6424,5.38062,0,0,0,0,0,0,0,-1,755,1583,-4.64237,-5.38058
-462,-559,-0.161865,6.49438,0,0,0,0,0,0,0,-1,762,1583,-0.161835,-6.49444
-455,-559,1.08826,7.02527,0,0,0,0,0,0,0,-1,769,1583,1.08823,-7.02529
-448,-559,-2.86023,20.0852,0,0,0,0,0,0,0,-1,776,1583,-2.86025,-20.0852
-441,-559,-4.58539,35.9545,0,0,0,0,0,0,0,-1,783,1583,-4.58539,-35.9545
-434,-559,-5.80078,38.0879,0,0,0,0,0,0,0,-1,790,1583,-5.80078,-38.0879
-427,-559,-8.86206,45.5948,0,0,0,0,0,0,0,-1,797,1583,-8.86204,-45.5949
-420,-559,-35.1311,118.731,0,0,0,0,0,0,0,-1,804,1583,-35.1311,-118.731
-413,-559,-65.248,146.023,0,0,0,0,0,0,0,-1,811,1583,-65.2481,-146.023
-406,-559,-66.4116,150.432,0.0631642,0.0195904,-0.0658716,0.110758,-0.0280038,-0.625687,0.0847304,0.0201213,818,1583,-66.4116,-150.432
-399,-559,-67.451,154.812,0.0576869,0.0158222,-0.0664631,0.106436,-0.0329269,-0.632842,0.0841095,0.0252186,825,1583,-67.451,-154.812
-392,-559,-68.5797,159.259,0.0524118,0.0132713,-0.0677336,0.103346,-0.0376626,-0.644763,0.0843039,0.0258876,832,1583,-68.5797,-159.259
-385,-559,-69.6892,163.813,0.0476704,0.0118472,-0.0693438,0.101379,-0.041861,-0.65901,0.0850458,0.0253686,839,1583,-69.6892,-163.813
-378,-559,-70.7193,168.367,0.0443104,0.0114014,-0.0714375,0.101164,-0.0454522,-0.672205,0.086662,0.021612,846,1583,-70.7193,-168.367
-371,-559,-71.6794,172.849,0.042404,0.0116203,-0.073506,0.102112,-0.0480881,-0.682191,0.0885683,0.0324703,853,1583,-71.6794,-172.848
-364,-559,-72.7452,177.214,0.0422119,0.0125129,-0.075746,0.10455,-0.0498254,-0.688604,0.0909764,0.0303409,860,1583,-72.7452,-177.214
-357,-559,-73.8598,181.552,0,0,0,0,0,0,0,-1,867,1583,-73.8598,-181.552
-350,-559,-59.7941,183.534,0,0,0,0,0,0,0,-1,874,1583,-59.7941,-183.534
-343,-559,-56.7291,184.945,0,0,0,0,0,0,0,-1,881,1583,-56.729,-184.945
-336,-559,-56.8704,188.49,0,0,0,0,0,0,0,-1,888,1583,-56.8704,-188.489
-329,-559,-12.5913,70.7823,0,0,0,0,0,0,0,-1,895,1583,-12.5913,-70.7824
-322,-559,-6.67694,51.8236,0,0,0,0,0,0,0,-1,902,1583,-6.67692,-51.8236
-315,-559,-0.659607,29.1698,0,0,0,0,0,0,0,-1,909,1583,-0.659577,-29.1698
-308,-559,-0.755493,30.4624,0,0,0,0,0,0,0,-1,916,1583,-0.755509,-30.4625
-301,-559,-1.22174,31.0372,0,0,0,0,0,0,0,-1,923,1583,-1.22176,-31.0372
-294,-559,0.945129,18.5165,0,0,0,0,0,0,0,-1,930,1583,0.945117,-18.5165
-287,-559,-0.11792,15.4912,0,0,0,0,0,0,0,-1,937,1583,-0.117939,-15.4912
-280,-559,0.191467,13.5093,0,0,0,0,0,0,0,-1,944,1583,0.191441,-13.5093
-273,-559,2.12836,10.3059,0,0,0,0,0,0,0,-1,951,1583,2.12839,-10.3059
-266,-559,-0.597046,6.68933,0,0,0,0,0,0,0,-1,958,1583,-0.597031,-6.68937
-259,-559,-7.00311,8.62756,0,0,0,0,0,0,0,-1,965,1583,-7.00312,-8.6275
-252,-559,-9.4483,2.87805,0,0,0,0,0,0,0,-1,972,1583,-9.44829,-2.87805
-245,-559,-4.80804,7.1803,0,0,0,0,0,0,0,-1,979,1583,-4.80804,-7.18027
-238,-559,-8.45764,2.54858,0,0,0,0,0,0,0,-1,986,1583,-8.45763,-2.54862
-231,-559,-5.86914,4.34021,0,0,0,0,0,0,0,-1,993,1583,-5.86914,-4.34019
-224,-559,-3.30505,6.22864,0,0,0,0,0,0,0,-1,1000,1583,-3.30505,-6.22859
-217,-559,0,0,0,0,0,0,0,0,0,-1,1007,1583,0,0
-210,-559,0,0,0,0,0,0,0,0,0,-1,1014,1583,0,0
-203,-559,0,0,0,0,0,0,0,0,0,-1,1021,1583,0,0
-196,-559,0,0,0,0,0,0,0,0,0,-1,1028,1583,0,0
-189,-559,0,0,0,0,0,0,0,0,0,-1,1035,1583,0,0
-182,-559,0,0,0,0,0,0,0,0,0,-1,1042,1583,0,0
-175,-559,0,0,0,0,0,0,0,0,0,-1,1049,1583,0,0
-168,-559,0,0,0,0,0,0,0,0,0,-1,1056,1583,0,0
-161,-559,0,0,0,0,0,0,0,0,0,-1,1063,1583,0,0
-154,-559,0,0,0,0,0,0,0,0,0,-1,1070,1583,0,0
-147,-559,0,0,0,0,0,0,0,0,0,-1,1077,1583,0,0
-140,-559,0,0,0,0,0,0,0,0,0,-1,1084,1583,0,0
-133,-559,0,0,0,0,0,0,0,0,0,-1,1091,1583,0,0
-126,-559,0,0,0,0,0,0,0,0,0,-1,1098,1583,0,0
-119,-559,0,0,0,0,0,0,0,0,0,-1,1105,1583,0,0
-112,-559,0,0,0,0,0,0,0,0,0,-1,1112,1583,0,0
-105,-559,0,0,0,0,0,0,0,0,0,-1,1119,1583,0,0
-98,-559,0,0,0,0,0,0,0,0,0,-1,1126,1583,0,0
-91,-559,0,0,0,0,0,0,0,0,0,-1,1133,1583,0,0
-84,-559,0,0,0,0,0,0,0,0,0,-1,1140,1583,0,0
-77,-559,0,0,0,0,0,0,0,0,0,-1,1147,1583,0,0
-70,-559,0,0,0,0,0,0,0,0,0,-1,1154,1583,0,0
-63,-559,0,0,0,0,0,0,0,0,0,-1,1161,1583,0,0
-56,-559,0,0,0,0,0,0,0,0,0,-1,1168,1583,0,0
-49,-559,0,0,0,0,0,0,0,0,0,-1,1175,1583,0,0
-42,-559,0,0,0,0,0,0,0,0,0,-1,1182,1583,0,0
-35,-559,0,0,0,0,0,0,0,0,0,-1,1189,1583,0,0
-28,-559,0,0,0,0,0,0,0,0,0,-1,1196,1583,0,0
-21,-559,0,0,0,0,0,0,0,0,0,-1,1203,1583,0,0
-14,-559,0,0,0,0,0,0,0,0,0,-1,1210,1583,0,0
-7,-559,0,0,0,0,0,0,0,0,0,-1,1217,1583,0,0
0,-559,0,0,0,0,0,0,0,0,0,-1,1224,1583,0,0
7,-559,0,0,0,0,0,0,0,0,0,-1,1231,1583,0,0
14,-559,0,0,0,0,0,0,0,0,0,-1,1238,1583,0,0
21,-559,0,0,0,0,0,0,0,0,0,-1,1245,1583,0,0
28,-559,0,0,0,0,0,0,0,0,0,-1,1252,1583,0,0
35,-559,0,0,0,0,0,0,0,0,0,-1,1259,1583,0,0
42,-559,0,0,0,0,0,0,0,0,0,-1,1266,1583,0,0
49,-559,0,0,0,0,0,0,0,0,0,-1,1273,1583,0,0
56,-559,0,0,0,0,0,0,0,0,0,-1,1280,1583,0,0
63,-559,0,0,0,0,0,0,0,0,0,-1,1287,1583,0,0
70,-559,0,0,0,0,0,0,0,0,0,-1,1294,1583,0,0
77,-559,0,0,0,0,0,0,0,0,0,-1,1301,1583,0,0
84,-559,0,0,0,0,0,0,0,0,0,-1,1308,1583,0,0
91,-559,0,0,0,0,0,0,0,0,0,-1,1315,1583,0,0
98,-559,0,0,0,0,0,0,0,0,0,-1,1322,1583,0,0
105,-559,0,0,0,0,0,0,0,0,0,-1,1329,1583,0,0
112,-559,0,0,0,0,0,0,0,0,0,-1,1336,1583,0,0
119,-559,0,0,0,0,0,0,0,0,0,-1,1343,1583,0,0
126,-559,0,0,0,0,0,0,0,0,0,-1,1350,1583,0,0
133,-559,0,0,0,0,0,0,0,0,0,-1,1357,1583,0,0
140,-559,0,0,0,0,0,0,0,0,0,-1,1364,1583,0,0
147,-559,0,0,0,0,0,0,0,0,0,-1,1371,1583,0,0
154,-559,0,0,0,0,0,0,0,0,0,-1,1378,1583,0,0
161,-559,0,0,0,0,0,0,0,0,0,-1,1385,1583,0,0
168,-559,0,0,0,0,0,0,0,0,0,-1,1392,1583,0,0
175,-559,0,0,0,0,0,0,0,0,0,-1,1399,1583,0,0
182,-559,0,0,0,0,0,0,0,0,0,-1,1406,1583,0,0
189,-559,0,0,0,0,0,0,0,0,0,-1,1413,1583,0,0
196,-559,0,0,0,0,0,0,0,0,0,-1,1420,1583,0,0
203,-559,0,0,0,0,0,0,0,0,0,-1,1427,1583,0,0
210,-559,0,0,0,0,0,0,0,0,0,-1,1434,1583,0,0
217,-559,0,0,0,0,0,0,0,0,0,-1,1441,1583,0,0
224,-559,0,0,0,0,0,0,0,0,0,-1,1448,1583,0,0
231,-559,0,0,0,0,0,0,0,0,0,-1,1455,1583,0,0
238,-559,0,0,0,0,0,0,0,0,0,-1,1462,1583,0,0
245,-559,0,0,0,0,0,0,0,0,0,-1,1469,1583,0,0
252,-559,0,0,0,0,0,0,0,0,0,-1,1476,1583,0,0
259,-559,0,0,0,0,0,0,0,0,0,-1,1483,1583,0,0
266,-559,0,0,0,0,0,0,0,0,0,-1,1490,1583,0,0
273,-559,0,0,0,0,0,0,0,0,0,-1,1497,1583,0,0
280,-559,0,0,0,0,0,0,0,0,0,-1,1504,1583,0,0
287,-559,0,0,0,0,0,0,0,0,0,-1,1511,1583,0,0
294,-559,0,0,0,0,0,0,0,0,0,-1,1518,1583,0,0
301,-559,0,0,0,0,0,0,0,0,0,-1,1525,1583,0,0
308,-559,0,0,0,0,0,0,0,0,0,-1,1532,1583,0,0
315,-559,0,0,0,0,0,0,0,0,0,-1,1539,1583,0,0
322,-559,0,0,0,0,0,0,0,0,0,-1,1546,1583,0,0
329,-559,0,0,0,0,0,0,0,0,0,-1,1553,1583,0,0
336,-559,5.97668,3.09827,0,0,0,0,0,0,0,-1,1560,1583,5.97667,-3.09824
343,-559,5.44824,2.88696,0,0,0,0,0,0,0,-1,1567,1583,5.44819,-2.88693
350,-559,4.69775,3.27051,0,0,0,0,0,0,0,-1,1574,1583,4.69771,-3.27048
357,-559,3.88025,3.60999,0,0,0,0,0,0,0,-1,1581,1583,3.88027,-3.60998
364,-559,5.00928,5.32605,0,0,0,0,0,0,0,-1,1588,1583,5.00928,-5.32607
371,-559,21.0801,52.1865,0,0,0,0,0,0,0,-1,1595,1583,21.0801,-52.1865
378,-559,6.34753,1.53137,0,0,0,0,0,0,0,-1,1602,1583,6.34752,-1.53139
385,-559,6.95911,1.48181,0,0,0,0,0,0,0,-1,1609,1583,6.95916,-1.48175
392,-559,11.6949,4.77734,0,0,0,0,0,0,0,-1,1616,1583,11.6949,-4.77731
399,-559,11.1104,5.56909,0,0,0,0,0,0,0,-1,1623,1583,11.1103,-5.56905
406,-559,10.3385,6.48657,0,0,0,0,0,0,0,-1,1630,1583,10.3385,-6.48661
413,-559,9.76147,6.97571,0,0,0,0,0,0,0,-1,1637,1583,9.76143,-6.97574
420,-559,7.77124,10.5851,0,0,0,0,0,0,0,-1,1644,1583,7.77128,-10.585
427,-559,10.1022,12.5565,0,0,0,0,0,0,0,-1,1651,1583,10.1021,-12.5565
434,-559,9.62769,14.6309,0,0,0,0,0,0,0,-1,1658,1583,9.62771,-14.6309
441,-559,12.6149,21.3678,0,0,0,0,0,0,0,-1,1665,1583,12.6149,-21.3678
448,-559,13.7046,22.6677,0,0,0,0,0,0,0,-1,1672,1583,13.7046,-22.6677
455,-559,13.9427,23.0509,0,0,0,0,0,0,0,-1,1679,1583,13.9427,-23.0509
462,-559,21.9476,42.0568,0,0,0,0,0,0,0,-1,1686,1583,21.9477,-42.0568
469,-559,91.6984,199.811,0,0,0,0,0,0,0,-1,1693,1583,91.6984,-199.811
476,-559,91.3303,194.752,0.0624524,0.0119295,0.0531013,0.0959947,-0.0216128,0.563379,0.0722859,0.0497909,1700,1583,91.3303,-194.752
483,-559,90.361,190.057,0.0581086,0.00945525,0.0500172,0.0894012,-0.0218373,0.559057,0.0680579,0.0421992,1707,1583,90.361,-190.057
490,-559,89.188,185.715,0.0542756,0.00726429,0.04721,0.083508,-0.0219681,0.554417,0.0642588,0.0254143,1714,1583,89.188,-185.715
497,-559,87.9548,181.411,0.0507826,0.00536407,0.0445937,0.0781163,-0.0219697,0.549889,0.06074,0.0255555,1721,1583,87.9548,-181.411
504,-559,86.7272,177.043,0.0474385,0.00388586,0.0421622,0.0731159,-0.0217916,0.547022,0.0574035,0.0312779,1728,1583,86.7271,-177.043
511,-559,85.506,172.501,0.0446771,0.0028548,0.0399536,0.068861,-0.0213291,0.544307,0.0544284,0.0274729,1735,1583,85.5059,-172.501
518,-559,84.1051,167.865,0.0423341,0.002308,0.0382351,0.0654771,-0.020835,0.544294,0.0520067,0.0207095,1742,1583,84.105,-167.865
525,-559,82.8287,163.282,0.0405772,0.00273972,0.0369649,0.0631834,-0.0198665,0.548876,0.0500758,0.0216222,1749,1583,82.8287,-163.282
532,-559,81.6394,158.885,0.0397109,0.00441701,0.0361942,0.062331,-0.0182031,0.558574,0.0487676,0.0244484,1756,1583,81.6394,-158.885
539,-559,80.3561,154.458,0.0399076,0.00745298,0.036198,0.0633492,-0.0159886,0.574681,0.0484498,0.0286609,1763,1583,80.356,-154.458
546,-559,78.9392,149.989,0.0403795,0.0116283,0.036502,0.0652347,-0.0132269,0.59781,0.0485037,0.0281723,1770,1583,78.9392,-149.989
553,-559,77.5411,145.296,0,0,0,0,0,0,0,-1,1777,1583,77.5411,-145.296
560,-559,35.3595,88.3951,0,0,0,0,0,0,0,-1,1784,1583,35.3595,-88.3951
567,-559,21.7423,29.5544,0,0,0,0,0,0,0,-1,1791,1583,21.7423,-29.5544
574,-559,10.5109,10.7317,0,0,0,0,0,0,0,-1,1798,1583,10.5108,-10.7317
581,-559,5.97095,5.96179,0,0,0,0,0,0,0,-1,1805,1583,5.97093,-5.96181
588,-559,5.79102,5.89954,0,0,0,0,0,0,0,-1,1812,1583,5.79098,-5.89949
595,-559,5.79089,6.24231,0,0,0,0,0,0,0,-1,1819,1583,5.7909,-6.24227
602,-559,12.478,2.35669,0,0,0,0,0,0,0,-1,1826,1583,12.4781,-2.35675
609,-559,14.0479,1.22681,0,0,0,0,0,0,0,-1,1833,1583,14.0479,-1.22681
616,-559,0,0,0,0,0,0,0,0,0,-1,1840,1583,0,0
623,-559,0,0,0,0,0,0,0,0,0,-1,1847,1583,0,0
630,-559,0,0,0,0,0,0,0,0,0,-1,1854,1583,0,0
637,-559,0,0,0,0,0,0,0,0,0,-1,1861,1583,0,0
644,-559,0,0,0,0,0,0,0,0,0,-1,1868,1583,0,0
651,-559,0,0,0,0,0,0,0,0,0,-1,1875,1583,0,0
658,-559,0,0,0,0,0,0,0,0,0,-1,1882,1583,0,0
665,-559,0,0,0,0,0,0,0,0,0,-1,1889,1583,0,0
672,-559,0,0,0,0,0,0,0,0,0,-1,1896,1583,0,0
679,-559,0,0,0,0,0,0,0,0,0,-1,1903,1583,0,0
686,-559,0,0,0,0,0,0,0,0,0,-1,1910,1583,0,0
693,-559,0,0,0,0,0,0,0,0,0,-1,1917,1583,0,0
700,-559,0,0,0,0,0,0,0,0,0,-1,1924,1583,0,0
707,-559,0,0,0,0,0,0,0,0,0,-1,1931,1583,0,0
714,-559,0,0,0,0,0,0,0,0,0,-1,1938,1583,0,0
721,-559,0,0,0,0,0,0,0,0,0,-1,1945,1583,0,0
728,-559,0,0,0,0,0,0,0,0,0,-1,1952,1583,0,0
735,-559,0,0,0,0,0,0,0,0,0,-1,1959,1583,0,0
742,-559,0,0,0,0,0,0,0,0,0,-1,1966,1583,0,0
749,-559,0,0,0,0,0,0,0,0,0,-1,1973,1583,0,0
756,-559,0,0,0,0,0,0,0,0,0,-1,1980,1583,0,0
763,-559,0,0,0,0,0,0,0,0,0,-1,1987,1583,0,0
770,-559,0,0,0,0,0,0,0,0,0,-1,1994,1583,0,0
777,-559,0,0,0,0,0,0,0,0,0,-1,2001,1583,0,0
784,-559,0,0,0,0,0,0,0,0,0,-1,2008,1583,0,0
791,-559,0,0,0,0,0,0,0,0,0,-1,2015,1583,0,0
798,-559,0,0,0,0,0,0,0,0,0,-1,2022,1583,0,0
805,-559,0,0,0,0,0,0,0,0,0,-1,2029,1583,0,0
812,-559,0,0,0,0,0,0,0,0,0,-1,2036,1583,0,0
-700,-566,0,0,0,0,0,0,0,0,0,-1,524,1590,0,0
-693,-566,0,0,0,0,0,0,0,0,0,-1,531,1590,0,0
-686,-566,0,0,0,0,0,0,0,0,0,-1,538,1590,0,0
-679,-566,0,0,0,0,0,0,0,0,0,-1,545,1590,0,0
-672,-566,0,0,0,0,0,0,0,0,0,-1,552,1590,0,0
-665,-566,0,0,0,0,0,0,0,0,0,-1,559,1590,0,0
-658,-566,0,0,0,0,0,0,0,0,0,-1,566,1590,0,0
-651,-566,0,0,0,0,0,0,0,0,0,-1,573,1590,0,0
-644,-566,0,0,0,0,0,0,0,0,0,-1,580,1590,0,0
-637,-566,0,0,0,0,0,0,0,0,0,-1,587,1590,0,0
-630,-566,0,0,0,0,0,0,0,0,0,-1,594,1590,0,0
-623,-566,0,0,0,0,0,0,0,0,0,-1,601,1590,0,0
-616,-566,0,0,0,0,0,0,0,0,0,-1,608,1590,0,0
-609,-566,0,0,0,0,0,0,0,0,0,-1,615,1590,0,0
-602,-566,0,0,0,0,0,0,0,0,0,-1,622,1590,0,0
-595,-566,0,0,0,0,0,0,0,0,0,-1,629,1590,0,0
-588,-566,0,0,0,0,0,0,0,0,0,-1,636,1590,0,0
-581,-566,0,0,0,0,0,0,0,0,0,-1,643,1590,0,0
-574,-566,0,0,0,0,0,0,0,0,0,-1,650,1590,0,0
-567,-566,0,0,0,0,0,0,0,0,0,-1,657,1590,0,0
-560,-566,0,0,0,0,0,0,0,0,0,-1,664,1590,0,0
-553,-566,0,0,0,0,0,0,0,0,0,-1,671,1590,0,0
-546,-566,0,0,0,0,0,0,0,0,0,-1,678,1590,0,0
-539,-566,0,0,0,0,0,0,0,0,0,-1,685,1590,0,0
-532,-566,0,0,0,0,0,0,0,0,0,-1,692,1590,0,0
-525,-566,0,0,0,0,0,0,0,0,0,-1,699,1590,0,0
-518,-566,0,0,0,0,0,0,0,0,0,-1,706,1590,0,0
-511,-566,0,0,0,0,0,0,0,0,0,-1,713,1590,0,0
-504,-566,0,0,0,0,0,0,0,0,0,-1,720,1590,0,0
-497,-566,0,0,0,0,0,0,0,0,0,-1,727,1590,0,0
-490,-566,0,0,0,0,0,0,0,0,0,-1,734,1590,0,0
-483,-566,-7.17084,2.78613,0,0,0,0,0,0,0,-1,741,1590,-7.17083,-2.78618
-476,-566,-7.13971,2.87183,0,0,0,0,0,0,0,-1,748,1590,-7.13971,-2.87184
-469,-566,-6.43829,3.2998,0,0,0,0,0,0,0,-1,755,1590,-6.43829,-3.2998
-462,-566,-0.459106,3.89343,0,0,0,0,0,0,0,-1,762,1590,-0.459095,-3.89341
-455,-566,0.280212,4.74023,0,0,0,0,0,0,0,-1,769,1590,0.280207,-4.74023
-448,-566,0.436951,5.51306,0,0,0,0,0,0,0,-1,776,1590,0.436971,-5.51301
-441,-566,-0.440735,12.4063,0,0,0,0,0,0,0,-1,783,1590,-0.440753,-12.4062
-434,-566,-4.50739,36.9485,0,0,0,0,0,0,0,-1,790,1590,-4.50737,-36.9485
-427,-566,-5.04791,38.1658,0,0,0,0,0,0,0,-1,797,1590,-5.04793,-38.1658
-420,-566,-7.9455,47.2288,0,0,0,0,0,0,0,-1,804,1590,-7.94552,-47.2288
-413,-566,-33.1661,122.841,0,0,0,0,0,0,0,-1,811,1590,-33.1661,-122.841
-406,-566,-61.2654,152.278,0,0,0,0,0,0,0,-1,818,1590,-61.2654,-152.278
-399,-566,-62.5342,156.796,0.064899,0.0155916,-0.0621071,0.107067,-0.026576,-0.596459,0.0816904,0.0219871,825,1590,-62.5342,-156.796
-392,-566,-63.7314,161.32,0.0595151,0.0127407,-0.0633708,0.103677,-0.0314208,-0.608625,0.0816325,0.0269939,832,1590,-63.7315,-161.32
-385,-566,-64.7433,165.828,0.0546285,0.0110476,-0.0650202,0.101412,-0.0357364,-0.623714,0.0821535,0.0281347,839,1590,-64.7433,-165.828
-378,-566,-65.7798,170.351,0.0511952,0.0103814,-0.0671185,0.100941,-0.0393639,-0.637817,0.0835649,0.0240194,846,1590,-65.7798,-170.351
-371,-566,-66.7798,174.826,0.0494035,0.0106699,-0.0693323,0.102023,-0.0419497,-0.649203,0.0855007,0.0292077,853,1590,-66.7798,-174.826
-364,-566,-67.8224,179.2,0.0491496,0.0114165,-0.0715462,0.104275,-0.0437089,-0.656484,0.0877914,0.0280714,860,1590,-67.8225,-179.2
-357,-566,-69.0245,183.482,0.0504756,0.0125649,-0.0737968,0.107713,-0.0446721,-0.659686,0.090454,0.0329956,867,1590,-69.0245,-183.482
-350,-566,-70.058,187.762,0,0,0,0,0,0,0,-1,874,1590,-70.058,-187.762
-343,-566,-71.0994,192.07,0,0,0,0,0,0,0,-1,881,1590,-71.0994,-192.07
-336,-566,-52.5401,191.728,0,0,0,0,0,0,0,-1,888,1590,-52.5401,-191.728
-329,-566,-52.4686,193.77,0,0,0,0,0,0,0,-1,895,1590,-52.4686,-193.77
-322,-566,-50.5175,191.926,0,0,0,0,0,0,0,-1,902,1590,-50.5175,-191.926
-315,-566,-5.8877,52.3676,0,0,0,0,0,0,0,-1,909,1590,-5.88771,-52.3675
-308,-566,-0.127258,29.7607,0,0,0,0,0,0,0,-1,916,1590,-0.12725,-29.7608
-301,-566,0.424011,30.6545,0,0,0,0,0,0,0,-1,923,1590,0.424036,-30.6546
-294,-566,-2.54523,43.1459,0,0,0,0,0,0,0,-1,930,1590,-2.54522,-43.1458
-287,-566,1.25391,23.4589,0,0,0,0,0,0,0,-1,937,1590,1.2539,-23.4589
-280,-566,1.59406,17.8762,0,0,0,0,0,0,0,-1,944,1590,1.59405,-17.8762
-273,-566,0.49762,11.2427,0,0,0,0,0,0,0,-1,951,1590,0.497591,-11.2426
-266,-566,0.392151,6.90295,0,0,0,0,0,0,0,-1,958,1590,0.392151,-6.90294
-259,-566,0.343628,6.47437,0,0,0,0,0,0,0,-1,965,1590,0.34363,-6.47438
-252,-566,-7.68311,1.01343,0,0,0,0,0,0,0,-1,972,1590,-7.68308,-1.01348
-245,-566,-11.1835,1.97522,0,0,0,0,0,0,0,-1,979,1590,-11.1835,-1.97527
-238,-566,-10.4883,2.40491,0,0,0,0,0,0,0,-1,986,1590,-10.4883,-2.40487
-231,-566,-7.41827,4.22803,0,0,0,0,0,0,0,-1,993,1590,-7.41827,-4.22803
-224,-566,-4.67188,6.30859,0,0,0,0,0,0,0,-1,1000,1590,-4.67185,-6.30853
-217,-566,-2.82867,7.52527,0,0,0,0,0,0,0,-1,1007,1590,-2.82869,-7.52531
-210,-566,-1.03436,8.67737,0,0,0,0,0,0,0,-1,1014,1590,-1.03439,-8.67733
-203,-566,0,0,0,0,0,0,0,0,0,-1,1021,1590,0,0
-196,-566,0,0,0,0,0,0,0,0,0,-1,1028,1590,0,0
-189,-566,0,0,0,0,0,0,0,0,0,-1,1035,1590,0,0
-182,-566,0,0,0,0,0,0,0,0,0,-1,1042,1590,0,0
-175,-566,0,0,0,0,0,0,0,0,0,-1,1049,1590,0,0
-168,-566,0,0,0,0,0,0,0,0,0,-1,1056,1590,0,0
-161,-566,0,0,0,0,0,0,0,0,0,-1,1063,1590,0,0
-154,-566,0,0,0,0,0,0,0,0,0,-1,1070,1590,0,0
-147,-566,0,0,0,0,0,0,0,0,0,-1,1077,1590,0,0
-140,-566,0,0,0,0,0,0,0,0,0,-1,1084,1590,0,0
-133,-566,0,0,0,0,0,0,0,0,0,-1,1091,1590,0,0
-126,-566,0,0,0,0,0,0,0,0,0,-1,1098,1590,0,0
-119,-566,0,0,0,0,0,0,0,0,0,-1,1105,1590,0,0
-112,-566,0,0,0,0,0,0,0,0,0,-1,1112,1590,0,0
-105,-566,0,0,0,0,0,0,0,0,0,-1,1119,1590,0,0
-98,-566,0,0,0,0,0,0,0,0,0,-1,1126,1590,0,0
-91,-566,0,0,0,0,0,0,0,0,0,-1,1133,1590,0,0
-84,-566,0,0,0,0,0,0,0,0,0,-1,1140,1590,0,0
-77,-566,0,0,0,0,0,0,0,0,0,-1,1147,1590,0,0
-70,-566,0,0,0,0,0,0,0,0,0,-1,1154,1590,0,0
-63,-566,0,0,0,0,0,0,0,0,0,-1,1161,1590,0,0
-56,-566,0,0,0,0,0,0,0,0,0,-1,1168,1590,0,0
-49,-566,0,0,0,0,0,0,0,0,0,-1,1175,1590,0,0
-42,-566,0,0,0,0,0,0,0,0,0,-1,1182,1590,0,0
-35,-566,0,0,0,0,0,0,0,0,0,-1,1189,1590,0,0
-28,-566,0,0,0,0,0,0,0,0,0,-1,1196,1590,0,0
-21,-566,0,0,0,0,0,0,0,0,0,-1,1203,1590,0,0
-14,-566,0,0,0,0,0,0,0,0,0,-1,1210,1590,0,0
-7,-566,0,0,0,0,0,0,0,0,0,-1,1217,1590,0,0
0,-566,0,0,0,0,0,0,0,0,0,-1,1224,1590,0,0
7,-566,0,0,0,0,0,0,0,0,0,-1,1231,1590,0,0
14,-566,0,0,0,0,0,0,0,0,0,-1,1238,1590,0,0
21,-566,0,0,0,0,0,0,0,0,0,-1,1245,1590,0,0
28,-566,0,0,0,0,0,0,0,0,0,-1,1252,1590,0,0
35,-566,0,0,0,0,0,0,0,0,0,-1,1259,1590,0,0
42,-566,0,0,0,0,0,0,0,0,0,-1,1266,1590,0,0
49,-566,0,0,0,0,0,0,0,0,0,-1,1273,1590,0,0
56,-566,0,0,0,0,0,0,0,0,0,-1,1280,1590,0,0
63,-566,0,0,0,0,0,0,0,0,0,-1,1287,1590,0,0
70,-566,0,0,0,0,0,0,0,0,0,-1,1294,1590,0,0
77,-566,0,0,0,0,0,0,0,0,0,-1,1301,1590,0,0
84,-566,0,0,0,0,0,0,0,0,0,-1,1308,1590,0,0
91,-566,0,0,0,0,0,0,0,0,0,-1,1315,1590,0,0
98,-566,0,0,0,0,0,0,0,0,0,-1,1322,1590,0,0
105,-566,0,0,0,0,0,0,0,0,0,-1,1329,1590,0,0
112,-566,0,0,0,0,0,0,0,0,0,-1,1336,1590,0,0
119,-566,0,0,0,0,0,0,0,0,0,-1,1343,1590,0,0
126,-566,0,0,0,0,0,0,0,0,0,-1,1350,1590,0,0
133,-566,0,0,0,0,0,0,0,0,0,-1,1357,1590,0,0
140,-566,0,0,0,0,0,0,0,0,0,-1,1364,1590,0,0
147,-566,0,0,0,0,0,0,0,0,0,-1,1371,1590,0,0
154,-566,0,0,0,0,0,0,0,0,0,-1,1378,1590,0,0
161,-566,0,0,0,0,0,0,0,0,0,-1,1385,1590,0,0
168,-566,0,0,0,0,0,0,0,0,0,-1,1392,1590,0,0
175,-566,0,0,0,0,0,0,0,0,0,-1,1399,1590,0,0
182,-566,0,0,0,0,0,0,0,0,0,-1,1406,1590,0,0
189,-566,0,0,0,0,0,0,0,0,0,-1,1413,1590,0,0
196,-566,0,0,0,0,0,0,0,0,0,-1,1420,1590,0,0
203,-566,0,0,0,0,0,0,0,0,0,-1,1427,1590,0,0
210,-566,0,0,0,0,0,0,0,0,0,-1,1434,1590,0,0
217,-566,0,0,0,0,0,0,0,0,0,-1,1441,1590,0,0
224,-566,0,0,0,0,0,0,0,0,0,-1,1448,1590,0,0
231,-566,0,0,0,0,0,0,0,0,0,-1,1455,1590,0,0
238,-566,0,0,0,0,0,0,0,0,0,-1,1462,1590,0,0
245,-566,0,0,0,0,0,0,0,0,0,-1,1469,1590,0,0
252,-566,0,0,0,0,0,0,0,0,0,-1,1476,1590,0,0
259,-566,0,0,0,0,0,0,0,0,0,-1,1483,1590,0,0
266,-566,0,0,0,0,0,0,0,0,0,-1,1490,1590,0,0
273,-566,0,0,0,0,0,0,0,0,0,-1,1497,1590,0,0
280,-566,0,0,0,0,0,0,0,0,0,-1,1504,1590,0,0
287,-566,0,0,0,0,0,0,0,0,0,-1,1511,1590,0,0
294,-566,0,0,0,0,0,0,0,0,0,-1,1518,1590,0,0
301,-566,0,0,0,0,0,0,0,0,0,-1,1525,1590,0,0
308,-566,0,0,0,0,0,0,0,0,0,-1,1532,1590,0,0
315,-566,0,0,0,0,0,0,0,0,0,-1,1539,1590,0,0
322,-566,6.07983,4.44873,0,0,0,0,0,0,0,-1,1546,1590,6.07983,-4.44873
329,-566,5.77026,3.47534,0,0,0,0,0,0,0,-1,1553,1590,5.77026,-3.47535
336,-566,5.41138,2.62915,0,0,0,0,0,0,0,-1,1560,1590,5.41138,-2.62909
343,-566,4.81873,1.79089,0,0,0,0,0,0,0,-1,1567,1590,4.81878,-1.79095
350,-566,24.2104,52.894,0,0,0,0,0,0,0,-1,1574,1590,24.2105,-52.8941
357,-566,25.1531,51.6272,0,0,0,0,0,0,0,-1,1581,1590,25.153,-51.6272
364,-566,24.3885,51.1313,0,0,0,0,0,0,0,-1,1588,1590,24.3886,-51.1314
371,-566,21.1536,52.8204,0,0,0,0,0,0,0,-1,1595,1590,21.1535,-52.8205
378,-566,22.0442,54.6259,0,0,0,0,0,0,0,-1,1602,1590,22.0442,-54.6259
385,-566,5.67615,-0.573975,0,0,0,0,0,0,0,-1,1609,1590,5.67612,0.573956
392,-566,5.78638,1.82434,0,0,0,0,0,0,0,-1,1616,1590,5.78637,-1.82439
399,-566,18.6853,38.6455,0,0,0,0,0,0,0,-1,1623,1590,18.6853,-38.6456
406,-566,4.30359,5.26868,0,0,0,0,0,0,0,-1,1630,1590,4.30364,-5.26867
413,-566,4.27124,5.79492,0,0,0,0,0,0,0,-1,1637,1590,4.27123,-5.7949
420,-566,18.0121,32.5314,0,0,0,0,0,0,0,-1,1644,1590,18.0121,-32.5313
427,-566,19.4491,36.9315,0,0,0,0,0,0,0,-1,1651,1590,19.4491,-36.9315
434,-566,19.338,36.7385,0,0,0,0,0,0,0,-1,1658,1590,19.338,-36.7386
441,-566,15.5841,27.5869,0,0,0,0,0,0,0,-1,1665,1590,15.5842,-27.587
448,-566,21.8796,45.052,0,0,0,0,0,0,0,-1,1672,1590,21.8797,-45.052
455,-566,24.4391,53.7858,0,0,0,0,0,0,0,-1,1679,1590,24.4391,-53.7858
462,-566,68.9885,203.06,0,0,0,0,0,0,0,-1,1686,1590,68.9886,-203.06
469,-566,86.9797,200.405,0,0,0,0,0,0,0,-1,1693,1590,86.9798,-200.405
476,-566,86.2897,196.342,0.0578143,0.00947818,0.0494836,0.0887164,-0.0214239,0.558234,0.0674298,0.0252836,1700,1590,86.2897,-196.342
483,-566,85.4725,191.923,0.0539609,0.00780978,0.0464837,0.0827816,-0.0210109,0.555007,0.0633634,0.0188244,1707,1590,85.4725,-191.923
490,-566,84.4448,187.517,0.0504988,0.00617429,0.0436723,0.0773104,-0.0206373,0.550597,0.0596221,0.019212,1714,1590,84.4448,-187.517
497,-566,83.3042,183.167,0.047255,0.00469315,0.0410726,0.0722325,-0.0202843,0.546375,0.0561513,0.0220648,1721,1590,83.3043,-183.167
504,-566,82.0646,178.804,0.0443971,0.00355387,0.0386789,0.0677145,-0.0197635,0.542508,0.0529743,0.0260964,1728,1590,82.0646,-178.804
511,-566,80.8243,174.337,0.0419581,0.00272979,0.0365043,0.063784,-0.0190961,0.538874,0.0501158,0.0257356,1735,1590,80.8244,-174.337
518,-566,79.5294,169.791,0.0399098,0.00239177,0.03477,0.0606584,-0.0183569,0.538019,0.047749,0.0176666,1742,1590,79.5295,-169.791
525,-566,78.2124,165.265,0.0383882,0.00292243,0.033489,0.0585495,-0.0172388,0.541909,0.045872,0.0185649,1749,1590,78.2124,-165.265
532,-566,76.958,160.731,0.038251,0.0051352,0.0327515,0.0583922,-0.015006,0.551354,0.0447763,0.0250626,1756,1590,76.958,-160.731
539,-566,75.6665,156.06,0.0390262,0.00842192,0.032869,0.0599804,-0.0125323,0.567544,0.0447532,0.0442321,1763,1590,75.6665,-156.06
546,-566,74.2173,151.352,0,0,0,0,0,0,0,-1,1770,1590,74.2172,-151.352
553,-566,31.3649,70.2271,0,0,0,0,0,0,0,-1,1777,1590,31.3648,-70.2271
560,-566,28.2495,53.7024,0,0,0,0,0,0,0,-1,1784,1590,28.2495,-53.7024
567,-566,22.297,34.7642,0,0,0,0,0,0,0,-1,1791,1590,22.2969,-34.7641
574,-566,7.99548,3.14514,0,0,0,0,0,0,0,-1,1798,1590,7.99543,-3.14511
581,-566,2.54102,5.1311,0,0,0,0,0,0,0,-1,1805,1590,2.54099,-5.13111
588,-566,-1.91321,8.39197,0,0,0,0,0,0,0,-1,1812,1590,-1.91316,-8.39199
595,-566,9.0271,4.66467,0,0,0,0,0,0,0,-1,1819,1590,9.02705,-4.66468
602,-566,9.953,3.54895,0,0,0,0,0,0,0,-1,1826,1590,9.953,-3.54898
609,-566,0,0,0,0,0,0,0,0,0,-1,1833,1590,0,0
616,-566,0,0,0,0,0,0,0,0,0,-1,1840,1590,0,0
623,-566,0,0,0,0,0,0,0,0,0,-1,1847,1590,0,0
630,-566,0,0,0,0,0,0,0,0,0,-1,1854,1590,0,0
637,-566,0,0,0,0,0,0,0,0,0,-1,1861,1590,0,0
644,-566,0,0,0,0,0,0,0,0,0,-1,1868,1590,0,0
651,-566,0,0,0,0,0,0,0,0,0,-1,1875,1590,0,0
658,-566,0,0,0,0,0,0,0,0,0,-1,1882,1590,0,0
665,-566,0,0,0,0,0,0,0,0,0,-1,1889,1590,0,0
672,-566,0,0,0,0,0,0,0,0,0,-1,1896,1590,0,0
679,-566,0,0,0,0,0,0,0,0,0,-1,1903,1590,0,0
686,-566,0,0,0,0,0,0,0,0,0,-1,1910,1590,0,0
693,-566,0,0,0,0,0,0,0,0,0,-1,1917,1590,0,0
700,-566,0,0,0,0,0,0,0,0,0,-1,1924,1590,0,0
707,-566,0,0,0,0,0,0,0,0,0,-1,1931,1590,0,0
714,-566,0,0,0,0,0,0,0,0,0,-1,1938,1590,0,0
721,-566,0,0,0,0,0,0,0,0,0,-1,1945,1590,0,0
728,-566,0,0,0,0,0,0,0,0,0,-1,1952,1590,0,0
735,-566,0,0,0,0,0,0,0,0,0,-1,1959,1590,0,0
742,-566,0,0,0,0,0,0,0,0,0,-1,1966,1590,0,0
749,-566,0,0,0,0,0,0,0,0,0,-1,1973,1590,0,0
756,-566,0,0,0,0,0,0,0,0,0,-1,1980,1590,0,0
763,-566,0,0,0,0,0,0,0,0,0,-1,1987,1590,0,0
770,-566,0,0,0,0,0,0,0,0,0,-1,1994,1590,0,0
777,-566,0,0,0,0,0,0,0,0,0,-1,2001,1590,0,0
784,-566,0,0,0,0,0,0,0,0,0,-1,2008,1590,0,0
791,-566,0,0,0,0,0,0,0,0,0,-1,2015,1590,0,0
798,-566,0,0,0,0,0,0,0,0,0,-1,2022,1590,0,0
805,-566,0,0,0,0,0,0,0,0,0,-1,2029,1590,0,0
812,-566,0,0,0,0,0,0,0,0,0,-1,2036,1590,0,0
-700,-573,0,0,0,0,0,0,0,0,0,-1,524,1597,0,0
-693,-573,0,0,0,0,0,0,0,0,0,-1,531,1597,0,0
-686,-573,0,0,0,0,0,0,0,0,0,-1,538,1597,0,0
-679,-573,0,0,0,0,0,0,0,0,0,-1,545,1597,0,0
-672,-573,0,0,0,0,0,0,0,0,0,-1,552,1597,0,0
-665,-573,0,0,0,0,0,0,0,0,0,-1,559,1597,0,0
-658,-573,0,0,0,0,0,0,0,0,0,-1,566,1597,0,0
-651,-573,0,0,0,0,0,0,0,0,0,-1,573,1597,0,0
-644,-573,0,0,0,0,0,0,0,0,0,-1,580,1597,0,0
-637,-573,0,0,0,0,0,0,0,0,0,-1,587,1597,0,0
-630,-573,0,0,0,0,0,0,0,0,0,-1,594,1597,0,0
-623,-573,0,0,0,0,0,0,0,0,0,-1,601,1597,0,0
-616,-573,0,0,0,0,0,0,0,0,0,-1,608,1597,0,0
-609,-573,0,0,0,0,0,0,0,0,0,-1,615,1597,0,0
-602,-573,0,0,0,0,0,0,0,0,0,-1,622,1597,0,0
-595,-573,0,0,0,0,0,0,0,0,0,-1,629,1597,0,0
-588,-573,0,0,0,0,0,0,0,0,0,-1,636,1597,0,0
-581,-573,0,0,0,0,0,0,0,0,0,-1,643,1597,0,0
-574,-573,0,0,0,0,0,0,0,0,0,-1,650,1597,0,0
-567,-573,0,0,0,0,0,0,0,0,0,-1,657,1597,0,0
-560,-573,0,0,0,0,0,0,0,0,0,-1,664,1597,0,0
-553,-573,0,0,0,0,0,0,0,0,0,-1,671,1597,0,0
-546,-573,0,0,0,0,0,0,0,0,0,-1,678,1597,0,0
-539,-573,0,0,0,0,0,0,0,0,0,-1,685,1597,0,0
-532,-573,0,0,0,0,0,0,0,0,0,-1,692,1597,0,0
-525,-573,0,0,0,0,0,0,0,0,0,-1,699,1597,0,0
-518,-573,0,0,0,0,0,0,0,0,0,-1,706,1597,0,0
-511,-573,0,0,0,0,0,0,0,0,0,-1,713,1597,0,0
-504,-573,0,0,0,0,0,0,0,0,0,-1,720,1597,0,0
-497,-573,0,0,0,0,0,0,0,0,0,-1,727,1597,0,0
-490,-573,0,0,0,0,0,0,0,0,0,-1,734,1597,0,0
-483,-573,0,0,0,0,0,0,0,0,0,-1,741,1597,0,0
-476,-573,-9.3327,0.972778,0,0,0,0,0,0,0,-1,748,1597,-9.33268,-0.972776
-469,-573,-1.41681,1.13379,0,0,0,0,0,0,0,-1,755,1597,-1.41681,-1.13382
-462,-573,-0.748535,2.02588,0,0,0,0,0,0,0,-1,762,1597,-0.748533,-2.02584
-455,-573,-0.112976,2.70703,0,0,0,0,0,0,0,-1,769,1597,-0.112988,-2.70697
-448,-573,-1.26172,3.33252,0,0,0,0,0,0,0,-1,776,1597,-1.26173,-3.33248
-441,-573,0.108582,5.06726,0,0,0,0,0,0,0,-1,783,1597,0.108584,-5.06721
-434,-573,1.61768,7.05444,0,0,0,0,0,0,0,-1,790,1597,1.61767,-7.05446
-427,-573,-1.37927,24.4124,0,0,0,0,0,0,0,-1,797,1597,-1.37928,-24.4124
-420,-573,-1.15186,28.0936,0,0,0,0,0,0,0,-1,804,1597,-1.15185,-28.0936
-413,-573,-6.24719,44.6611,0,0,0,0,0,0,0,-1,811,1597,-6.24719,-44.6612
-406,-573,-31.0344,126.064,0,0,0,0,0,0,0,-1,818,1597,-31.0344,-126.064
-399,-573,-57.8677,158.686,0,0,0,0,0,0,0,-1,825,1597,-57.8677,-158.686
-392,-573,-58.7437,163.19,0.065833,0.0117011,-0.0575927,0.102403,-0.0248685,-0.565736,0.0778926,0.0283223,832,1597,-58.7437,-163.19
-385,-573,-59.6672,167.748,0.0604034,0.00984194,-0.0597256,0.0999784,-0.0297331,-0.585191,0.0784641,0.0285013,839,1597,-59.6672,-167.748
-378,-573,-60.8796,172.262,0.0564872,0.00908948,-0.0621221,0.0992773,-0.0337007,-0.603175,0.079826,0.0285266,846,1597,-60.8796,-172.262
-371,-573,-62.0447,176.684,0.0543652,0.00943643,-0.0646938,0.100384,-0.0365823,-0.61829,0.0818874,0.0262812,853,1597,-62.0447,-176.684
-364,-573,-63.144,181.016,0.053826,0.0100817,-0.0670978,0.102527,-0.0386188,-0.627842,0.0842287,0.0237312,860,1597,-63.144,-181.016
-357,-573,-64.1583,185.391,0.0549665,0.0110701,-0.0693515,0.10576,-0.0397234,-0.632146,0.0868313,0.0324187,867,1597,-64.1583,-185.391
-350,-573,-65.0697,189.653,0.0572426,0.0120883,-0.0710701,0.109235,-0.0399046,-0.631602,0.0891534,0.0315912,874,1597,-65.0697,-189.653
-343,-573,-66.0936,193.904,0.0610442,0.0129144,-0.0721153,0.113004,-0.0390453,-0.624358,0.0911816,0.0409029,881,1597,-66.0935,-193.904
-336,-573,-67.138,198.34,0,0,0,0,0,0,0,-1,888,1597,-67.138,-198.34
-329,-573,-65.3331,202.109,0,0,0,0,0,0,0,-1,895,1597,-65.3331,-202.109
-322,-573,-64.6481,206.363,0,0,0,0,0,0,0,-1,902,1597,-64.6481,-206.363
-315,-573,-47.4592,197.085,0,0,0,0,0,0,0,-1,909,1597,-47.4593,-197.085
-308,-573,-5.80212,56.1248,0,0,0,0,0,0,0,-1,916,1597,-5.80211,-56.1248
-301,-573,-5.52454,56.47,0,0,0,0,0,0,0,-1,923,1597,-5.52453,-56.47
-294,-573,-3.89948,50.4868,0,0,0,0,0,0,0,-1,930,1597,-3.89947,-50.4868
-287,-573,-2.00739,43.4723,0,0,0,0,0,0,0,-1,937,1597,-2.00739,-43.4723
-280,-573,1.19684,26.4906,0,0,0,0,0,0,0,-1,944,1597,1.19685,-26.4906
-273,-573,2.24805,25.4375,0,0,0,0,0,0,0,-1,951,1597,2.24803,-25.4374
-266,-573,1.31116,7.1814,0,0,0,0,0,0,0,-1,958,1597,1.31118,-7.18142
-259,-573,1.2514,6.70959,0,0,0,0,0,0,0,-1,965,1597,1.25137,-6.70965
-252,-573,2.07874,5.27161,0,0,0,0,0,0,0,-1,972,1597,2.07875,-5.27157
-245,-573,-10.2592,1.09827,0,0,0,0,0,0,0,-1,979,1597,-10.2592,-1.09823
-238,-573,-11.5463,4.44141,0,0,0,0,0,0,0,-1,986,1597,-11.5463,-4.44146
-231,-573,-9.23431,4.14539,0,0,0,0,0,0,0,-1,993,1597,-9.23431,-4.14534
-224,-573,-6.70044,7.40857,0,0,0,0,0,0,0,-1,1000,1597,-6.70045,-7.40851
-217,-573,-4.25824,8.59119,0,0,0,0,0,0,0,-1,1007,1597,-4.25824,-8.59122
-210,-573,-2.39661,9.73914,0,0,0,0,0,0,0,-1,1014,1597,-2.39658,-9.73915
-203,-573,-0.557373,10.9005,0,0,0,0,0,0,0,-1,1021,1597,-0.557387,-10.9006
-196,-573,-1.65344,9.02246,0,0,0,0,0,0,0,-1,1028,1597,-1.65349,-9.02241
-189,-573,-6.12915,6.66882,0,0,0,0,0,0,0,-1,1035,1597,-6.12913,-6.66884
-182,-573,0,0,0,0,0,0,0,0,0,-1,1042,1597,0,0
-175,-573,0,0,0,0,0,0,0,0,0,-1,1049,1597,0,0
-168,-573,0,0,0,0,0,0,0,0,0,-1,1056,1597,0,0
-161,-573,0,0,0,0,0,0,0,0,0,-1,1063,1597,0,0
-154,-573,0,0,0,0,0,0,0,0,0,-1,1070,1597,0,0
-147,-573,0,0,0,0,0,0,0,0,0,-1,1077,1597,0,0
-140,-573,0,0,0,0,0,0,0,0,0,-1,1084,1597,0,0
-133,-573,0,0,0,0,0,0,0,0,0,-1,1091,1597,0,0
-126,-573,0,0,0,0,0,0,0,0,0,-1,1098,1597,0,0
-119,-573,0,0,0,0,0,0,0,0,0,-1,1105,1597,0,0
-112,-573,0,0,0,0,0,0,0,0,0,-1,1112,1597,0,0
-105,-573,0,0,0,0,0,0,0,0,0,-1,1119,1597,0,0
-98,-573,0,0,0,0,0,0,0,0,0,-1,1126,1597,0,0
-91,-573,0,0,0,0,0,0,0,0,0,-1,1133,1597,0,0
-84,-573,0,0,0,0,0,0,0,0,0,-1,1140,1597,0,0
-77,-573,0,0,0,0,0,0,0,0,0,-1,1147,1597,0,0
-70,-573,0,0,0,0,0,0,0,0,0,-1,1154,1597,0,0
-63,-573,0,0,0,0,0,0,0,0,0,-1,1161,1597,0,0
-56,-573,0,0,0,0,0,0,0,0,0,-1,1168,1597,0,0
-49,-573,0,0,0,0,0,0,0,0,0,-1,1175,1597,0,0
-42,-573,0,0,0,0,0,0,0,0,0,-1,1182,1597,0,0
-35,-573,0,0,0,0,0,0,0,0,0,-1,1189,1597,0,0
-28,-573,0,0,0,0,0,0,0,0,0,-1,1196,1597,0,0
-21,-573,0,0,0,0,0,0,0,0,0,-1,1203,1597,0,0
-14,-573,0,0,0,0,0,0,0,0,0,-1,1210,1597,0,0
-7,-573,0,0,0,0,0,0,0,0,0,-1,1217,1597,0,0
0,-573,0,0,0,0,0,0,0,0,0,-1,1224,1597,0,0
7,-573,0,0,0,0,0,0,0,0,0,-1,1231,1597,0,0
14,-573,0,0,0,0,0,0,0,0,0,-1,1238,1597,0,0
21,-573,0,0,0,0,0,0,0,0,0,-1,1245,1597,0,0
28,-573,0,0,0,0,0,0,0,0,0,-1,1252,1597,0,0
35,-573,0,0,0,0,0,0,0,0,0,-1,1259,1597,0,0
42,-573,0,0,0,0,0,0,0,0,0,-1,1266,1597,0,0
49,-573,0,0,0,0,0,0,0,0,0,-1,1273,1597,0,0
56,-573,0,0,0,0,0,0,0,0,0,-1,1280,1597,0,0
63,-573,0,0,0,0,0,0,0,0,0,-1,1287,1597,0,0
70,-573,0,0,0,0,0,0,0,0,0,-1,1294,1597,0,0
77,-573,0,0,0,0,0,0,0,0,0,-1,1301,1597,0,0
84,-573,0,0,0,0,0,0,0,0,0,-1,1308,1597,0,0
91,-573,0,0,0,0,0,0,0,0,0,-1,1315,1597,0,0
98,-573,0,0,0,0,0,0,0,0,0,-1,1322,1597,0,0
105,-573,0,0,0,0,0,0,0,0,0,-1,1329,1597,0,0
112,-573,0,0,0,0,0,0,0,0,0,-1,1336,1597,0,0
119,-573,0,0,0,0,0,0,0,0,0,-1,1343,1597,0,0
126,-573,0,0,0,0,0,0,0,0,0,-1,1350,1597,0,0
133,-573,0,0,0,0,0,0,0,0,0,-1,1357,1597,0,0
140,-573,0,0,0,0,0,0,0,0,0,-1,1364,1597,0,0
147,-573,0,0,0,0,0,0,0,0,0,-1,1371,1597,0,0
154,-573,0,0,0,0,0,0,0,0,0,-1,1378,1597,0,0
161,-573,0,0,0,0,0,0,0,0,0,-1,1385,1597,0,0
168,-573,0,0,0,0,0,0,0,0,0,-1,1392,1597,0,0
175,-573,0,0,0,0,0,0,0,0,0,-1,1399,1597,0,0
182,-573,0,0,0,0,0,0,0,0,0,-1,1406,1597,0,0
189,-573,0,0,0,0,0,0,0,0,0,-1,1413,1597,0,0
196,-573,0,0,0,0,0,0,0,0,0,-1,1420,1597,0,0
203,-573,0,0,0,0,0,0,0,0,0,-1,1427,1597,0,0
210,-573,0,0,0,0,0,0,0,0,0,-1,1434,1597,0,0
217,-573,0,0,0,0,0,0,0,0,0,-1,1441,1597,0,0
224,-573,0,0,0,0,0,0,0,0,0,-1,1448,1597,0,0
231,-573,0,0,0,0,0,0,0,0,0,-1,1455,1597,0,0
238,-573,0,0,0,0,0,0,0,0,0,-1,1462,1597,0,0
245,-573,0,0,0,0,0,0,0,0,0,-1,1469,1597,0,0
252,-573,0,0,0,0,0,0,0,0,0,-1,1476,1597,0,0
259,-573,0,0,0,0,0,0,0,0,0,-1,1483,1597,0,0
266,-573,0,0,0,0,0,0,0,0,0,-1,1490,1597,0,0
273,-573,0,0,0,0,0,0,0,0,0,-1,1497,1597,0,0
280,-573,0,0,0,0,0,0,0,0,0,-1,1504,1597,0,0
287,-573,0,0,0,0,0,0,0,0,0,-1,1511,1597,0,0
294,-573,0,0,0,0,0,0,0,0,0,-1,1518,1597,0,0
301,-573,0,0,0,0,0,0,0,0,0,-1,1525,1597,0,0
308,-573,5.93042,9.71143,0,0,0,0,0,0,0,-1,1532,1597,5.93046,-9.71144
315,-573,4.34204,11.719,0,0,0,0,0,0,0,-1,1539,1597,4.34205,-11.719
322,-573,10.3269,7.77563,0,0,0,0,0,0,0,-1,1546,1597,10.327,-7.77565
329,-573,4.99573,3.80273,0,0,0,0,0,0,0,-1,1553,1597,4.9957,-3.80273
336,-573,4.85693,2.53455,0,0,0,0,0,0,0,-1,1560,1597,4.8569,-2.53459
343,-573,21.4159,52.1832,0,0,0,0,0,0,0,-1,1567,1597,21.4159,-52.1833
350,-573,24.5242,53.5112,0,0,0,0,0,0,0,-1,1574,1597,24.5242,-53.5112
357,-573,23.7375,52.9818,0,0,0,0,0,0,0,-1,1581,1597,23.7376,-52.9818
364,-573,22.9738,52.4512,0,0,0,0,0,0,0,-1,1588,1597,22.9738,-52.4511
371,-573,22.2067,51.9435,0,0,0,0,0,0,0,-1,1595,1597,22.2066,-51.9435
378,-573,22.1105,55.1304,0,0,0,0,0,0,0,-1,1602,1597,22.1104,-55.1304
385,-573,6.54346,-0.951904,0,0,0,0,0,0,0,-1,1609,1597,6.54349,0.951901
392,-573,17.5164,38.3645,0,0,0,0,0,0,0,-1,1616,1597,17.5164,-38.3645
399,-573,20.5255,42.9893,0,0,0,0,0,0,0,-1,1623,1597,20.5255,-42.9893
406,-573,22.5132,48.6315,0,0,0,0,0,0,0,-1,1630,1597,22.5132,-48.6315
413,-573,27.5349,77.4857,0,0,0,0,0,0,0,-1,1637,1597,27.5349,-77.4857
420,-573,28.8744,81.4833,0,0,0,0,0,0,0,-1,1644,1597,28.8743,-81.4833
427,-573,20.4286,42.2079,0,0,0,0,0,0,0,-1,1651,1597,20.4285,-42.2079
434,-573,22.8055,51.4678,0,0,0,0,0,0,0,-1,1658,1597,22.8056,-51.4678
441,-573,22.8397,52.2052,0,0,0,0,0,0,0,-1,1665,1597,22.8397,-52.2051
448,-573,59.6241,210.824,0,0,0,0,0,0,0,-1,1672,1597,59.6242,-210.824
455,-573,84.5167,210.285,0,0,0,0,0,0,0,-1,1679,1597,84.5167,-210.285
462,-573,83.5953,206.286,0,0,0,0,0,0,0,-1,1686,1597,83.5953,-206.286
469,-573,82.6691,202.105,0.0571938,0.00846807,0.0487555,0.0873346,-0.0216727,0.553697,0.0666327,0.0274686,1693,1597,82.6691,-202.105
476,-573,81.6509,197.989,0.0533326,0.00775014,0.0457296,0.0816357,-0.020553,0.554218,0.0624132,0.0226699,1700,1597,81.6509,-197.989
483,-573,80.824,193.639,0.0497799,0.0066446,0.0428271,0.0761635,-0.019739,0.552137,0.0584766,0.0222986,1707,1597,80.824,-193.639
490,-573,79.8639,189.346,0.0465527,0.00544397,0.0400461,0.0710114,-0.0190147,0.548296,0.0547903,0.0253485,1714,1597,79.8639,-189.346
497,-573,78.734,184.907,0.0434654,0.00429833,0.0374854,0.0661746,-0.0184108,0.544683,0.0513652,0.0362782,1721,1597,78.734,-184.907
504,-573,77.446,180.555,0.0408482,0.0034669,0.0351278,0.0619483,-0.0176332,0.54091,0.0482625,0.0245924,1728,1597,77.4461,-180.555
511,-573,76.2158,176.176,0.0385425,0.00286245,0.0329634,0.0581838,-0.0167789,0.537365,0.0454271,0.0265237,1735,1597,76.2159,-176.176
518,-573,74.8198,171.625,0.0366536,0.00276501,0.0311722,0.0551891,-0.0157704,0.536451,0.043024,0.0209741,1742,1597,74.8198,-171.625
525,-573,73.5022,167.106,0.0353196,0.00335575,0.0298393,0.0531874,-0.014512,0.539538,0.0411574,0.0255831,1749,1597,73.5022,-167.106
532,-573,72.1547,162.439,0.0359834,0.00603247,0.0291274,0.0537596,-0.0117437,0.547952,0.0403284,0.0367358,1756,1597,72.1546,-162.439
539,-573,70.7966,157.807,0,0,0,0,0,0,0,-1,1763,1597,70.7967,-157.807
546,-573,29.525,73.3749,0,0,0,0,0,0,0,-1,1770,1597,29.525,-73.3749
553,-573,28.2662,57.49,0,0,0,0,0,0,0,-1,1777,1597,28.2663,-57.49
560,-573,25.194,47.3386,0,0,0,0,0,0,0,-1,1784,1597,25.194,-47.3386
567,-573,23.1487,41.1044,0,0,0,0,0,0,0,-1,1791,1597,23.1486,-41.1043
574,-573,0.83374,5.7041,0,0,0,0,0,0,0,-1,1798,1597,0.833718,-5.70405
581,-573,-0.224854,7.41602,0,0,0,0,0,0,0,-1,1805,1597,-0.224904,-7.41596
588,-573,-0.134033,7.67065,0,0,0,0,0,0,0,-1,1812,1597,-0.134037,-7.67063
595,-573,-0.0825195,8.35083,0,0,0,0,0,0,0,-1,1819,1597,-0.0824684,-8.35088
602,-573,0,0,0,0,0,0,0,0,0,-1,1826,1597,0,0
609,-573,0,0,0,0,0,0,0,0,0,-1,1833,1597,0,0
616,-573,0,0,0,0,0,0,0,0,0,-1,1840,1597,0,0
623,-573,0,0,0,0,0,0,0,0,0,-1,1847,1597,0,0
630,-573,0,0,0,0,0,0,0,0,0,-1,1854,1597,0,0
637,-573,0,0,0,0,0,0,0,0,0,-1,1861,1597,0,0
644,-573,0,0,0,0,0,0,0,0,0,-1,1868,1597,0,0
651,-573,0,0,0,0,0,0,0,0,0,-1,1875,1597,0,0
658,-573,0,0,0,0,0,0,0,0,0,-1,1882,1597,0,0
665,-573,0,0,0,0,0,0,0,0,0,-1,1889,1597,0,0
672,-573,0,0,0,0,0,0,0,0,0,-1,1896,1597,0,0
679,-573,0,0,0,0,0,0,0,0,0,-1,1903,1597,0,0
686,-573,0,0,0,0,0,0,0,0,0,-1,1910,1597,0,0
693,-573,0,0,0,0,0,0,0,0,0,-1,1917,1597,0,0
700,-573,0,0,0,0,0,0,0,0,0,-1,1924,1597,0,0
707,-573,0,0,0,0,0,0,0,0,0,-1,1931,1597,0,0
714,-573,0,0,0,0,0,0,0,0,0,-1,1938,1597,0,0
721,-573,0,0,0,0,0,0,0,0,0,-1,1945,1597,0,0
728,-573,0,0,0,0,0,0,0,0,0,-1,1952,1597,0,0
735,-573,0,0,0,0,0,0,0,0,0,-1,1959,1597,0,0
742,-573,0,0,0,0,0,0,0,0,0,-1,1966,1597,0,0
749,-573,0,0,0,0,0,0,0,0,0,-1,1973,1597,0,0
756,-573,0,0,0,0,0,0,0,0,0,-1,1980,1597,0,0
763,-573,0,0,0,0,0,0,0,0,0,-1,1987,1597,0,0
770,-573,0,0,0,0,0,0,0,0,0,-1,1994,1597,0,0
777,-573,0,0,0,0,0,0,0,0,0,-1,2001,1597,0,0
784,-573,0,0,0,0,0,0,0,0,0,-1,2008,1597,0,0
791,-573,0,0,0,0,0,0,0,0,0,-1,2015,1597,0,0
798,-573,0,0,0,0,0,0,0,0,0,-1,2022,1597,0,0
805,-573,0,0,0,0,0,0,0,0,0,-1,2029,1597,0,0
812,-573,0,0,0,0,0,0,0,0,0,-1,2036,1597,0,0
-700,-580,0,0,0,0,0,0,0,0,0,-1,524,1604,0,0
-693,-580,0,0,0,0,0,0,0,0,0,-1,531,1604,0,0
-686,-580,0,0,0,0,0,0,0,0,0,-1,538,1604,0,0
-679,-580,0,0,0,0,0,0,0,0,0,-1,545,1604,0,0
-672,-580,0,0,0,0,0,0,0,0,0,-1,552,1604,0,0
-665,-580,0,0,0,0,0,0,0,0,0,-1,559,1604,0,0
-658,-580,0,0,0,0,0,0,0,0,0,-1,566,1604,0,0
-651,-580,0,0,0,0,0,0,0,0,0,-1,573,1604,0,0
-644,-580,0,0,0,0,0,0,0,0,0,-1,580,1604,0,0
-637,-580,0,0,0,0,0,0,0,0,0,-1,587,1604,0,0
-630,-580,0,0,0,0,0,0,0,0,0,-1,594,1604,0,0
-623,-580,0,0,0,0,0,0,0,0,0,-1,601,1604,0,0
-616,-580,0,0,0,0,0,0,0,0,0,-1,608,1604,0,0
-609,-580,0,0,0,0,0,0,0,0,0,-1,615,1604,0,0
-602,-580,0,0,0,0,0,0,0,0,0,-1,622,1604,0,0
-595,-580,0,0,0,0,0,0,0,0,0,-1,629,1604,0,0
-588,-580,0,0,0,0,0,0,0,0,0,-1,636,1604,0,0
-581,-580,0,0,0,0,0,0,0,0,0,-1,643,1604,0,0
-574,-580,0,0,0,0,0,0,0,0,0,-1,650,1604,0,0
-567,-580,0,0,0,0,0,0,0,0,0,-1,657,1604,0,0
-560,-580,0,0,0,0,0,0,0,0,0,-1,664,1604,0,0
-553,-580,0,0,0,0,0,0,0,0,0,-1,671,1604,0,0
-546,-580,0,0,0,0,0,0,0,0,0,-1,678,1604,0,0
-539,-580,0,0,0,0,0,0,0,0,0,-1,685,1604,0,0
-532,-580,0,0,0,0,0,0,0,0,0,-1,692,1604,0,0
-525,-580,0,0,0,0,0,0,0,0,0,-1,699,1604,0,0
-518,-580,0,0,0,0,0,0,0,0,0,-1,706,1604,0,0
-511,-580,0,0,0,0,0,0,0,0,0,-1,713,1604,0,0
-504,-580,0,0,0,0,0,0,0,0,0,-1,720,1604,0,0
-497,-580,0,0,0,0,0,0,0,0,0,-1,727,1604,0,0
-490,-580,0,0,0,0,0,0,0,0,0,-1,734,1604,0,0
-483,-580,0,0,0,0,0,0,0,0,0,-1,741,1604,0,0
-476,-580,0,0,0,0,0,0,0,0,0,-1,748,1604,0,0
-469,-580,-1.69189,-0.38916,0,0,0,0,0,0,0,-1,755,1604,-1.69192,0.389188
-462,-580,-0.859863,0.675293,0,0,0,0,0,0,0,-1,762,1604,-0.859834,-0.675245
-455,-580,-0.730164,0.651978,0,0,0,0,0,0,0,-1,769,1604,-0.730153,-0.651957
-448,-580,-3.31891,2.07544,0,0,0,0,0,0,0,-1,776,1604,-3.3189,-2.07539
-441,-580,-1.63843,3.9469,0,0,0,0,0,0,0,-1,783,1604,-1.63842,-3.94695
-434,-580,0.23291,5.97876,0,0,0,0,0,0,0,-1,790,1604,0.232901,-5.97878
-427,-580,1.62756,8.05493,0,0,0,0,0,0,0,-1,797,1604,1.62758,-8.05488
-420,-580,0.986572,11.2383,0,0,0,0,0,0,0,-1,804,1604,0.986544,-11.2382
-413,-580,0.922913,21.5701,0,0,0,0,0,0,0,-1,811,1604,0.922905,-21.5701
-406,-580,-3.00854,38.0941,0,0,0,0,0,0,0,-1,818,1604,-3.00852,-38.0941
-399,-580,-26.7425,119.551,0,0,0,0,0,0,0,-1,825,1604,-26.7425,-119.551
-392,-580,-53.5817,165.059,0,0,0,0,0,0,0,-1,832,1604,-53.5817,-165.059
-385,-580,-54.6159,169.623,0,0,0,0,0,0,0,-1,839,1604,-54.6159,-169.623
-378,-580,-56.1626,174.082,0.0596626,0.0073303,-0.0561734,0.0954652,-0.0284723,-0.567436,0.0749589,0.0263475,846,1604,-56.1626,-174.082
-371,-580,-57.4089,178.51,0.0571782,0.00791562,-0.0594421,0.0968902,-0.0317964,-0.58898,0.0774008,0.0231571,853,1604,-57.4089,-178.51
-364,-580,-58.4634,182.868,0.0564662,0.0086291,-0.0623402,0.0993189,-0.0342236,-0.60222,0.080096,0.0283833,860,1604,-58.4634,-182.868
-357,-580,-59.2523,187.099,0.0574358,0.00955958,-0.0649381,0.102707,-0.0357121,-0.608811,0.0829781,0.0239929,867,1604,-59.2523,-187.099
-350,-580,-60.0873,191.488,0.0595605,0.0105076,-0.0669791,0.106363,-0.0362944,-0.60989,0.0856106,0.0227331,874,1604,-60.0873,-191.488
-343,-580,-61.1168,195.708,0.0627937,0.0113075,-0.0684232,0.110156,-0.0360551,-0.605473,0.0879547,0.0218645,881,1604,-61.1167,-195.708
-336,-580,-61.9731,199.905,0.0674767,0.0120862,-0.0696212,0.114709,-0.0351461,-0.596094,0.0904924,0.0491025,888,1604,-61.9731,-199.905
-329,-580,-62.69,203.909,0,0,0,0,0,0,0,-1,895,1604,-62.69,-203.909
-322,-580,-62.1533,208.035,0,0,0,0,0,0,0,-1,902,1604,-62.1533,-208.035
-315,-580,-62.9431,212.155,0,0,0,0,0,0,0,-1,909,1604,-62.9431,-212.155
-308,-580,-63.7896,216.218,0,0,0,0,0,0,0,-1,916,1604,-63.7896,-216.218
-301,-580,-49.9667,215.782,0,0,0,0,0,0,0,-1,923,1604,-49.9667,-215.783
-294,-580,-6.49896,66.3197,0,0,0,0,0,0,0,-1,930,1604,-6.49896,-66.3196
-287,-580,-3.76239,54.9144,0,0,0,0,0,0,0,-1,937,1604,-3.76236,-54.9144
-280,-580,-2.74774,52.328,0,0,0,0,0,0,0,-1,944,1604,-2.74776,-52.328
-273,-580,-2.96637,52.8284,0,0,0,0,0,0,0,-1,951,1604,-2.96637,-52.8283
-266,-580,-1.22644,48.4485,0,0,0,0,0,0,0,-1,958,1604,-1.22644,-48.4485
-259,-580,1.31091,9.11536,0,0,0,0,0,0,0,-1,965,1604,1.31092,-9.11539
-252,-580,1.07629,7.74097,0,0,0,0,0,0,0,-1,972,1604,1.07627,-7.74101
-245,-580,3.80304,9.16028,0,0,0,0,0,0,0,-1,979,1604,3.80306,-9.16034
-238,-580,-10.3588,1.57556,0,0,0,0,0,0,0,-1,986,1604,-10.3588,-1.5755
-231,-580,-10.576,6.43787,0,0,0,0,0,0,0,-1,993,1604,-10.576,-6.43783
-224,-580,-8.27435,7.58972,0,0,0,0,0,0,0,-1,1000,1604,-8.27435,-7.5897
-217,-580,-5.85632,9.51221,0,0,0,0,0,0,0,-1,1007,1604,-5.85632,-9.5122
-210,-580,-3.6684,11.1569,0,0,0,0,0,0,0,-1,1014,1604,-3.66839,-11.1569
-203,-580,-1.92474,12.7845,0,0,0,0,0,0,0,-1,1021,1604,-1.92477,-12.7845
-196,-580,-2.28552,10.3289,0,0,0,0,0,0,0,-1,1028,1604,-2.28552,-10.3288
-189,-580,-4.58252,7.59058,0,0,0,0,0,0,0,-1,1035,1604,-4.58256,-7.59057
-182,-580,-5.45874,7.65942,0,0,0,0,0,0,0,-1,1042,1604,-5.45876,-7.65939
-175,-580,-6.38977,7.55005,0,0,0,0,0,0,0,-1,1049,1604,-6.38981,-7.5501
-168,-580,0,0,0,0,0,0,0,0,0,-1,1056,1604,0,0
-161,-580,0,0,0,0,0,0,0,0,0,-1,1063,1604,0,0
-154,-580,0,0,0,0,0,0,0,0,0,-1,1070,1604,0,0
-147,-580,0,0,0,0,0,0,0,0,0,-1,1077,1604,0,0
-140,-580,0,0,0,0,0,0,0,0,0,-1,1084,1604,0,0
-133,-580,0,0,0,0,0,0,0,0,0,-1,1091,1604,0,0
-126,-580,0,0,0,0,0,0,0,0,0,-1,1098,1604,0,0
-119,-580,0,0,0,0,0,0,0,0,0,-1,1105,1604,0,0
-112,-580,0,0,0,0,0,0,0,0,0,-1,1112,1604,0,0
-105,-580,0,0,0,0,0,0,0,0,0,-1,1119,1604,0,0
-98,-580,0,0,0,0,0,0,0,0,0,-1,1126,1604,0,0
-91,-580,0,0,0,0,0,0,0,0,0,-1,1133,1604,0,0
-84,-580,0,0,0,0,0,0,0,0,0,-1,1140,1604,0,0
-77,-580,0,0,0,0,0,0,0,0,0,-1,1147,1604,0,0
-70,-580,0,0,0,0,0,0,0,0,0,-1,1154,1604,0,0
-63,-580,0,0,0,0,0,0,0,0,0,-1,1161,1604,0,0
-56,-580,0,0,0,0,0,0,0,0,0,-1,1168,1604,0,0
-49,-580,0,0,0,0,0,0,0,0,0,-1,1175,1604,0,0
-42,-580,0,0,0,0,0,0,0,0,0,-1,1182,1604,0,0
-35,-580,0,0,0,0,0,0,0,0,0,-1,1189,1604,0,0
-28,-580,0,0,0,0,0,0,0,0,0,-1,1196,1604,0,0
-21,-580,0,0,0,0,0,0,0,0,0,-1,1203,1604,0,0
-14,-580,0,0,0,0,0,0,0,0,0,-1,1210,1604,0,0
-7,-580,0,0,0,0,0,0,0,0,0,-1,1217,1604,0,0
0,-580,0,0,0,0,0,0,0,0,0,-1,1224,1604,0,0
7,-580,0,0,0,0,0,0,0,0,0,-1,1231,1604,0,0
14,-580,0,0,0,0,0,0,0,0,0,-1,1238,1604,0,0
21,-580,0,0,0,0,0,0,0,0,0,-1,1245,1604,0,0
28,-580,0,0,0,0,0,0,0,0,0,-1,1252,1604,0,0
35,-580,0,0,0,0,0,0,0,0,0,-1,1259,1604,0,0
42,-580,0,0,0,0,0,0,0,0,0,-1,1266,1604,0,0
49,-580,0,0,0,0,0,0,0,0,0,-1,1273,1604,0,0
56,-580,0,0,0,0,0,0,0,0,0,-1,1280,1604,0,0
63,-580,0,0,0,0,0,0,0,0,0,-1,1287,1604,0,0
70,-580,0,0,0,0,0,0,0,0,0,-1,1294,1604,0,0
77,-580,0,0,0,0,0,0,0,0,0,-1,1301,1604,0,0
84,-580,0,0,0,0,0,0,0,0,0,-1,1308,1604,0,0
91,-580,0,0,0,0,0,0,0,0,0,-1,1315,1604,0,0
98,-580,0,0,0,0,0,0,0,0,0,-1,1322,1604,0,0
105,-580,0,0,0,0,0,0,0,0,0,-1,1329,1604,0,0
112,-580,0,0,0,0,0,0,0,0,0,-1,1336,1604,0,0
119,-580,0,0,0,0,0,0,0,0,0,-1,1343,1604,0,0
126,-580,0,0,0,0,0,0,0,0,0,-1,1350,1604,0,0
133,-580,0,0,0,0,0,0,0,0,0,-1,1357,1604,0,0
140,-580,0,0,0,0,0,0,0,0,0,-1,1364,1604,0,0
147,-580,0,0,0,0,0,0,0,0,0,-1,1371,1604,0,0
154,-580,0,0,0,0,0,0,0,0,0,-1,1378,1604,0,0
161,-580,0,0,0,0,0,0,0,0,0,-1,1385,1604,0,0
168,-580,0,0,0,0,0,0,0,0,0,-1,1392,1604,0,0
175,-580,0,0,0,0,0,0,0,0,0,-1,1399,1604,0,0
182,-580,0,0,0,0,0,0,0,0,0,-1,1406,1604,0,0
189,-580,0,0,0,0,0,0,0,0,0,-1,1413,1604,0,0
196,-580,0,0,0,0,0,0,0,0,0,-1,1420,1604,0,0
203,-580,0,0,0,0,0,0,0,0,0,-1,1427,1604,0,0
210,-580,0,0,0,0,0,0,0,0,0,-1,1434,1604,0,0
217,-580,0,0,0,0,0,0,0,0,0,-1,1441,1604,0,0
224,-580,0,0,0,0,0,0,0,0,0,-1,1448,1604,0,0
231,-580,0,0,0,0,0,0,0,0,0,-1,1455,1604,0,0
238,-580,0,0,0,0,0,0,0,0,0,-1,1462,1604,0,0
245,-580,0,0,0,0,0,0,0,0,0,-1,1469,1604,0,0
252,-580,0,0,0,0,0,0,0,0,0,-1,1476,1604,0,0
259,-580,0,0,0,0,0,0,0,0,0,-1,1483,1604,0,0
266,-580,0,0,0,0,0,0,0,0,0,-1,1490,1604,0,0
273,-580,0,0,0,0,0,0,0,0,0,-1,1497,1604,0,0
280,-580,0,0,0,0,0,0,0,0,0,-1,1504,1604,0,0
287,-580,0,0,0,0,0,0,0,0,0,-1,1511,1604,0,0
294,-580,4.0437,0.177368,0,0,0,0,0,0,0,-1,1518,1604,4.04369,-0.177371
301,-580,7.55164,8.05798,0,0,0,0,0,0,0,-1,1525,1604,7.55158,-8.05802
308,-580,5.9126,9.99341,0,0,0,0,0,0,0,-1,1532,1604,5.91255,-9.99337
315,-580,4.27356,11.9287,0,0,0,0,0,0,0,-1,1539,1604,4.27352,-11.9287
322,-580,10.2366,7.50281,0,0,0,0,0,0,0,-1,1546,1604,10.2366,-7.50282
329,-580,10.5962,8.69641,0,0,0,0,0,0,0,-1,1553,1604,10.5962,-8.69642
336,-580,3.66431,1.58862,0,0,0,0,0,0,0,-1,1560,1604,3.6643,-1.58864
343,-580,19.0659,51.8346,0,0,0,0,0,0,0,-1,1567,1604,19.0659,-51.8346
350,-580,22.8734,54.9255,0,0,0,0,0,0,0,-1,1574,1604,22.8734,-54.9255
357,-580,22.1614,54.3809,0,0,0,0,0,0,0,-1,1581,1604,22.1614,-54.3809
364,-580,21.4701,53.8442,0,0,0,0,0,0,0,-1,1588,1604,21.4701,-53.8442
371,-580,22.0861,57.5294,0,0,0,0,0,0,0,-1,1595,1604,22.0861,-57.5294
378,-580,23.1404,53.2659,0,0,0,0,0,0,0,-1,1602,1604,23.1404,-53.2659
385,-580,23.9454,66.333,0,0,0,0,0,0,0,-1,1609,1604,23.9455,-66.3331
392,-580,19.1388,46.7451,0,0,0,0,0,0,0,-1,1616,1604,19.1388,-46.7452
399,-580,21.1744,50.241,0,0,0,0,0,0,0,-1,1623,1604,21.1744,-50.241
406,-580,29.3561,99.2605,0,0,0,0,0,0,0,-1,1630,1604,29.3561,-99.2605
413,-580,29.0001,93.5648,0,0,0,0,0,0,0,-1,1637,1604,29.0001,-93.5648
420,-580,27.9183,81.3159,0,0,0,0,0,0,0,-1,1644,1604,27.9184,-81.3159
427,-580,28.2332,86.6798,0,0,0,0,0,0,0,-1,1651,1604,28.2332,-86.6798
434,-580,27.2424,77.8894,0,0,0,0,0,0,0,-1,1658,1604,27.2424,-77.8894
441,-580,55.8358,216.058,0,0,0,0,0,0,0,-1,1665,1604,55.8359,-216.058
448,-580,81.0167,216.013,0,0,0,0,0,0,0,-1,1672,1604,81.0167,-216.013
455,-580,80.1078,211.951,0.0602758,0.00736357,0.0505632,0.090886,-0.0232466,0.544369,0.069645,0.0386002,1679,1604,80.1078,-211.951
462,-580,79.1791,207.954,0.0564224,0.00725552,0.0479153,0.0856926,-0.0220147,0.548377,0.0657077,0.0350141,1686,1604,79.179,-207.954
469,-580,78.2135,203.851,0.052776,0.00705822,0.0449663,0.0803601,-0.0205259,0.550243,0.0615667,0.0277743,1693,1604,78.2135,-203.851
476,-580,77.192,199.581,0.0489996,0.00656606,0.0419861,0.0748252,-0.0192595,0.551447,0.0573908,0.0197657,1700,1604,77.1921,-199.581
483,-580,76.2092,195.309,0.0456181,0.00586748,0.0391331,0.0696339,-0.0181483,0.550428,0.0535079,0.0216845,1707,1604,76.2092,-195.309
490,-580,75.2131,191.087,0.0425177,0.00501776,0.0363695,0.064686,-0.0171505,0.547397,0.0498345,0.0323251,1714,1604,75.2132,-191.087
497,-580,74.1093,186.623,0.039513,0.00414741,0.0338338,0.0600062,-0.0163458,0.544602,0.0464221,0.025112,1721,1604,74.1092,-186.623
504,-580,72.9215,182.146,0.036998,0.00355294,0.0315023,0.0559411,-0.0153902,0.541393,0.0433446,0.0231902,1728,1604,72.9215,-182.146
511,-580,71.5771,177.803,0.0346964,0.00317087,0.0293343,0.0522348,-0.0143675,0.538859,0.0404716,0.023242,1735,1604,71.5771,-177.803
518,-580,70.0908,173.338,0.0328371,0.00333669,0.0274777,0.0492733,-0.0130995,0.539069,0.0379761,0.0236904,1742,1604,70.0908,-173.338
525,-580,68.7552,168.901,0,0,0,0,0,0,0,-1,1749,1604,68.7552,-168.901
532,-580,67.3108,164.095,0,0,0,0,0,0,0,-1,1756,1604,67.3107,-164.095
539,-580,26.9873,63.3041,0,0,0,0,0,0,0,-1,1763,1604,26.9873,-63.3041
546,-580,26.3485,55.9186,0,0,0,0,0,0,0,-1,1770,1604,26.3486,-55.9186
553,-580,24.7284,48.406,0,0,0,0,0,0,0,-1,1777,1604,24.7284,-48.406
560,-580,22.035,41.963,0,0,0,0,0,0,0,-1,1784,1604,22.035,-41.963
567,-580,21.5164,41.0686,0,0,0,0,0,0,0,-1,1791,1604,21.5163,-41.0687
574,-580,2.31653,5.62952,0,0,0,0,0,0,0,-1,1798,1604,2.31654,-5.62947
581,-580,1.60876,6.67664,0,0,0,0,0,0,0,-1,1805,1604,1.60873,-6.67667
588,-580,1.38684,7.14441,0,0,0,0,0,0,0,-1,1812,1604,1.38689,-7.14443
595,-580,0,0,0,0,0,0,0,0,0,-1,1819,1604,0,0
602,-580,0,0,0,0,0,0,0,0,0,-1,1826,1604,0,0
609,-580,0,0,0,0,0,0,0,0,0,-1,1833,1604,0,0
616,-580,0,0,0,0,0,0,0,0,0,-1,1840,1604,0,0
623,-580,0,0,0,0,0,0,0,0,0,-1,1847,1604,0,0
630,-580,0,0,0,0,0,0,0,0,0,-1,1854,1604,0,0
637,-580,0,0,0,0,0,0,0,0,0,-1,1861,1604,0,0
644,-580,0,0,0,0,0,0,0,0,0,-1,1868,1604,0,0
651,-580,0,0,0,0,0,0,0,0,0,-1,1875,1604,0,0
658,-580,0,0,0,0,0,0,0,0,0,-1,1882,1604,0,0
665,-580,0,0,0,0,0,0,0,0,0,-1,1889,1604,0,0
672,-580,0,0,0,0,0,0,0,0,0,-1,1896,1604,0,0
679,-580,0,0,0,0,0,0,0,0,0,-1,1903,1604,0,0
686,-580,0,0,0,0,0,0,0,0,0,-1,1910,1604,0,0
693,-580,0,0,0,0,0,0,0,0,0,-1,1917,1604,0,0
700,-580,0,0,0,0,0,0,0,0,0,-1,1924,1604,0,0
707,-580,0,0,0,0,0,0,0,0,0,-1,1931,1604,0,0
714,-580,0,0,0,0,0,0,0,0,0,-1,1938,1604,0,0
721,-580,0,0,0,0,0,0,0,0,0,-1,1945,1604,0,0
728,-580,0,0,0,0,0,0,0,0,0,-1,1952,1604,0,0
735,-580,0,0,0,0,0,0,0,0,0,-1,1959,1604,0,0
742,-580,0,0,0,0,0,0,0,0,0,-1,1966,1604,0,0
749,-580,0,0,0,0,0,0,0,0,0,-1,1973,1604,0,0
756,-580,0,0,0,0,0,0,0,0,0,-1,1980,1604,0,0
763,-580,0,0,0,0,0,0,0,0,0,-1,1987,1604,0,0
770,-580,0,0,0,0,0,0,0,0,0,-1,1994,1604,0,0
777,-580,0,0,0,0,0,0,0,0,0,-1,2001,1604,0,0
784,-580,0,0,0,0,0,0,0,0,0,-1,2008,1604,0,0
791,-580,0,0,0,0,0,0,0,0,0,-1,2015,1604,0,0
798,-580,0,0,0,0,0,0,0,0,0,-1,2022,1604,0,0
805,-580,0,0,0,0,0,0,0,0,0,-1,2029,1604,0,0
812,-580,0,0,0,0,0,0,0,0,0,-1,2036,1604,0,0
-700,-587,0,0,0,0,0,0,0,0,0,-1,524,1611,0,0
-693,-587,0,0,0,0,0,0,0,0,0,-1,531,1611,0,0
-686,-587,0,0,0,0,0,0,0,0,0,-1,538,1611,0,0
-679,-587,0,0,0,0,0,0,0,0,0,-1,545,1611,0,0
-672,-587,0,0,0,0,0,0,0,0,0,-1,552,1611,0,0
-665,-587,0,0,0,0,0,0,0,0,0,-1,559,1611,0,0
-658,-587,0,0,0,0,0,0,0,0,0,-1,566,1611,0,0
-651,-587,0,0,0,0,0,0,0,0,0,-1,573,1611,0,0
-644,-587,0,0,0,0,0,0,0,0,0,-1,580,1611,0,0
-637,-587,0,0,0,0,0,0,0,0,0,-1,587,1611,0,0
-630,-587,0,0,0,0,0,0,0,0,0,-1,594,1611,0,0
-623,-587,0,0,0,0,0,0,0,0,0,-1,601,1611,0,0
-616,-587,0,0,0,0,0,0,0,0,0,-1,608,1611,0,0
-609,-587,0,0,0,0,0,0,0,0,0,-1,615,1611,0,0
-602,-587,0,0,0,0,0,0,0,0,0,-1,622,1611,0,0
-595,-587,0,0,0,0,0,0,0,0,0,-1,629,1611,0,0
-588,-587,0,0,0,0,0,0,0,0,0,-1,636,1611,0,0
-581,-587,0,0,0,0,0,0,0,0,0,-1,643,1611,0,0
-574,-587,0,0,0,0,0,0,0,0,0,-1,650,1611,0,0
-567,-587,0,0,0,0,0,0,0,0,0,-1,657,1611,0,0
-560,-587,0,0,0,0,0,0,0,0,0,-1,664,1611,0,0
-553,-587,0,0,0,0,0,0,0,0,0,-1,671,1611,0,0
-546,-587,0,0,0,0,0,0,0,0,0,-1,678,1611,0,0
-539,-587,0,0,0,0,0,0,0,0,0,-1,685,1611,0,0
-532,-587,0,0,0,0,0,0,0,0,0,-1,692,1611,0,0
-525,-587,0,0,0,0,0,0,0,0,0,-1,699,1611,0,0
-518,-587,0,0,0,0,0,0,0,0,0,-1,706,1611,0,0
-511,-587,0,0,0,0,0,0,0,0,0,-1,713,1611,0,0
-504,-587,0,0,0,0,0,0,0,0,0,-1,720,1611,0,0
-497,-587,0,0,0,0,0,0,0,0,0,-1,727,1611,0,0
-490,-587,0,0,0,0,0,0,0,0,0,-1,734,1611,0,0
-483,-587,0,0,0,0,0,0,0,0,0,-1,741,1611,0,0
-476,-587,0,0,0,0,0,0,0,0,0,-1,748,1611,0,0
-469,-587,0,0,0,0,0,0,0,0,0,-1,755,1611,0,0
-462,-587,-0.714355,-0.418457,0,0,0,0,0,0,0,-1,762,1611,-0.714359,0.418483
-455,-587,-0.619812,-0.522461,0,0,0,0,0,0,0,-1,769,1611,-0.619802,0.522515
-448,-587,-0.461731,-0.686523,0,0,0,0,0,0,0,-1,776,1611,-0.461739,0.686559
-441,-587,-3.56555,2.72253,0,0,0,0,0,0,0,-1,783,1611,-3.56555,-2.72259
-434,-587,-1.77319,4.76318,0,0,0,0,0,0,0,-1,790,1611,-1.77318,-4.76323
-427,-587,0.0346069,6.92944,0,0,0,0,0,0,0,-1,797,1611,0.034587,-6.92941
-420,-587,-0.647156,10.1157,0,0,0,0,0,0,0,-1,804,1611,-0.647128,-10.1158
-413,-587,2.13971,10.3901,0,0,0,0,0,0,0,-1,811,1611,2.13971,-10.3902
-406,-587,2.2525,19.7814,0,0,0,0,0,0,0,-1,818,1611,2.25253,-19.7814
-399,-587,-1.7851,36.6587,0,0,0,0,0,0,0,-1,825,1611,-1.78511,-36.6587
-392,-587,-17.8898,94.8955,0,0,0,0,0,0,0,-1,832,1611,-17.8898,-94.8955
-385,-587,-50.3253,171.099,0,0,0,0,0,0,0,-1,839,1611,-50.3253,-171.099
-378,-587,-51.5585,175.76,0.0603427,0.0050368,-0.0499756,0.0898058,-0.0244263,-0.5327,0.0694593,0.0350594,846,1611,-51.5585,-175.76
-371,-587,-52.6729,180.319,0.0575936,0.00598851,-0.0540033,0.091642,-0.0280599,-0.562535,0.0722867,0.0214806,853,1611,-52.6729,-180.319
-364,-587,-53.5987,184.684,0.0567477,0.00697913,-0.0575034,0.0945201,-0.0307933,-0.581192,0.0754037,0.0294619,860,1611,-53.5987,-184.684
-357,-587,-54.3816,189.191,0,0,0,0,0,0,0,-1,867,1611,-54.3816,-189.191
-350,-587,-55.5109,193.141,0.0595363,0.00899066,-0.0629698,0.102116,-0.0335886,-0.594564,0.0816108,0.0178866,874,1611,-55.5109,-193.141
-343,-587,-56.6368,197.277,0.0623669,0.00994288,-0.0648888,0.106138,-0.0338281,-0.593443,0.0843275,0.0267533,881,1611,-56.6368,-197.277
-336,-587,-57.4539,201.405,0.066072,0.0108023,-0.0665245,0.110473,-0.0335989,-0.588539,0.0870377,0.0259334,888,1611,-57.4539,-201.405
-329,-587,-57.7173,205.419,0.0703681,0.0110254,-0.0678097,0.114714,-0.0333205,-0.579164,0.0896706,0.0274813,895,1611,-57.7173,-205.419
-322,-587,-58.0035,209.59,0.0746592,0.0103071,-0.0687275,0.11837,-0.0334034,-0.566468,0.0920896,0.02669,902,1611,-58.0035,-209.59
-315,-587,-58.8651,213.57,0.0790041,0.00952033,-0.070759,0.12309,-0.0345656,-0.557191,0.0956861,0.0199974,909,1611,-58.8651,-213.57
-308,-587,-59.4461,217.449,0.0838147,0.00908041,-0.0730228,0.128476,-0.0355807,-0.548909,0.0996511,0.0360488,916,1611,-59.4461,-217.449
-301,-587,-60.068,221.305,0,0,0,0,0,0,0,-1,923,1611,-60.068,-221.305
-294,-587,-56.7121,225.344,0,0,0,0,0,0,0,-1,930,1611,-56.7121,-225.344
-287,-587,-6.83337,72.7224,0,0,0,0,0,0,0,-1,937,1611,-6.83338,-72.7224
-280,-587,-5.36652,67.5034,0,0,0,0,0,0,0,-1,944,1611,-5.36649,-67.5034
-273,-587,-5.27942,66.161,0,0,0,0,0,0,0,-1,951,1611,-5.27943,-66.161
-266,-587,-4.93909,64.3071,0,0,0,0,0,0,0,-1,958,1611,-4.93907,-64.3071
-259,-587,-4.64594,61.301,0,0,0,0,0,0,0,-1,965,1611,-4.64594,-61.301
-252,-587,1.30188,10.3103,0,0,0,0,0,0,0,-1,972,1611,1.30188,-10.3104
-245,-587,1.52075,27.4791,0,0,0,0,0,0,0,-1,979,1611,1.52076,-27.4791
-238,-587,-1.50494,61.2449,0,0,0,0,0,0,0,-1,986,1611,-1.50494,-61.2449
-231,-587,-2.15942,62.5487,0,0,0,0,0,0,0,-1,993,1611,-2.1594,-62.5488
-224,-587,-3.16583,63.6151,0,0,0,0,0,0,0,-1,1000,1611,-3.16585,-63.6151
-217,-587,-7.07495,10.7847,0,0,0,0,0,0,0,-1,1007,1611,-7.07495,-10.7847
-210,-587,-4.72308,12.5889,0,0,0,0,0,0,0,-1,1014,1611,-4.72307,-12.5888
-203,-587,-3.2583,13.7289,0,0,0,0,0,0,0,-1,1021,1611,-3.25828,-13.7289
-196,-587,-1.953,14.8145,0,0,0,0,0,0,0,-1,1028,1611,-1.95302,-14.8144
-189,-587,-3.04138,8.66638,0,0,0,0,0,0,0,-1,1035,1611,-3.04136,-8.66635
-182,-587,-3.97095,9.7146,0,0,0,0,0,0,0,-1,1042,1611,-3.97093,-9.71461
-175,-587,-4.80969,8.37878,0,0,0,0,0,0,0,-1,1049,1611,-4.80964,-8.37883
-168,-587,-5.91394,8.72546,0,0,0,0,0,0,0,-1,1056,1611,-5.91398,-8.72542
-161,-587,-7.06946,8.88501,0,0,0,0,0,0,0,-1,1063,1611,-7.06947,-8.885
-154,-587,-2.24731,6.56519,0,0,0,0,0,0,0,-1,1070,1611,-2.24728,-6.56517
-147,-587,0,0,0,0,0,0,0,0,0,-1,1077,1611,0,0
-140,-587,0,0,0,0,0,0,0,0,0,-1,1084,1611,0,0
-133,-587,0,0,0,0,0,0,0,0,0,-1,1091,1611,0,0
-126,-587,0,0,0,0,0,0,0,0,0,-1,1098,1611,0,0
-119,-587,0,0,0,0,0,0,0,0,0,-1,1105,1611,0,0
-112,-587,0,0,0,0,0,0,0,0,0,-1,1112,1611,0,0
-105,-587,0,0,0,0,0,0,0,0,0,-1,1119,1611,0,0
-98,-587,0,0,0,0,0,0,0,0,0,-1,1126,1611,0,0
-91,-587,0,0,0,0,0,0,0,0,0,-1,1133,1611,0,0
-84,-587,0,0,0,0,0,0,0,0,0,-1,1140,1611,0,0
-77,-587,0,0,0,0,0,0,0,0,0,-1,1147,1611,0,0
-70,-587,0,0,0,0,0,0,0,0,0,-1,1154,1611,0,0
-63,-587,0,0,0,0,0,0,0,0,0,-1,1161,1611,0,0
-56,-587,0,0,0,0,0,0,0,0,0,-1,1168,1611,0,0
-49,-587,0,0,0,0,0,0,0,0,0,-1,1175,1611,0,0
-42,-587,0,0,0,0,0,0,0,0,0,-1,1182,1611,0,0
-35,-587,0,0,0,0,0,0,0,0,0,-1,1189,1611,0,0
-28,-587,0,0,0,0,0,0,0,0,0,-1,1196,1611,0,0
-21,-587,0,0,0,0,0,0,0,0,0,-1,1203,1611,0,0
-14,-587,0,0,0,0,0,0,0,0,0,-1,1210,1611,0,0
-7,-587,0,0,0,0,0,0,0,0,0,-1,1217,1611,0,0
0,-587,0,0,0,0,0,0,0,0,0,-1,1224,1611,0,0
7,-587,0,0,0,0,0,0,0,0,0,-1,1231,1611,0,0
14,-587,0,0,0,0,0,0,0,0,0,-1,1238,1611,0,0
21,-587,0,0,0,0,0,0,0,0,0,-1,1245,1611,0,0
28,-587,0,0,0,0,0,0,0,0,0,-1,1252,1611,0,0
35,-587,0,0,0,0,0,0,0,0,0,-1,1259,1611,0,0
42,-587,0,0,0,0,0,0,0,0,0,-1,1266,1611,0,0
49,-587,0,0,0,0,0,0,0,0,0,-1,1273,1611,0,0
56,-587,0,0,0,0,0,0,0,0,0,-1,1280,1611,0,0
63,-587,0,0,0,0,0,0,0,0,0,-1,1287,1611,0,0
70,-587,0,0,0,0,0,0,0,0,0,-1,1294,1611,0,0
77,-587,0,0,0,0,0,0,0,0,0,-1,1301,1611,0,0
84,-587,0,0,0,0,0,0,0,0,0,-1,1308,1611,0,0
91,-587,0,0,0,0,0,0,0,0,0,-1,1315,1611,0,0
98,-587,0,0,0,0,0,0,0,0,0,-1,1322,1611,0,0
105,-587,0,0,0,0,0,0,0,0,0,-1,1329,1611,0,0
112,-587,0,0,0,0,0,0,0,0,0,-1,1336,1611,0,0
119,-587,0,0,0,0,0,0,0,0,0,-1,1343,1611,0,0
126,-587,0,0,0,0,0,0,0,0,0,-1,1350,1611,0,0
133,-587,0,0,0,0,0,0,0,0,0,-1,1357,1611,0,0
140,-587,0,0,0,0,0,0,0,0,0,-1,1364,1611,0,0
147,-587,0,0,0,0,0,0,0,0,0,-1,1371,1611,0,0
154,-587,0,0,0,0,0,0,0,0,0,-1,1378,1611,0,0
161,-587,0,0,0,0,0,0,0,0,0,-1,1385,1611,0,0
168,-587,0,0,0,0,0,0,0,0,0,-1,1392,1611,0,0
175,-587,0,0,0,0,0,0,0,0,0,-1,1399,1611,0,0
182,-587,0,0,0,0,0,0,0,0,0,-1,1406,1611,0,0
189,-587,0,0,0,0,0,0,0,0,0,-1,1413,1611,0,0
196,-587,0,0,0,0,0,0,0,0,0,-1,1420,1611,0,0
203,-587,0,0,0,0,0,0,0,0,0,-1,1427,1611,0,0
210,-587,0,0,0,0,0,0,0,0,0,-1,1434,1611,0,0
217,-587,0,0,0,0,0,0,0,0,0,-1,1441,1611,0,0
224,-587,0,0,0,0,0,0,0,0,0,-1,1448,1611,0,0
231,-587,0,0,0,0,0,0,0,0,0,-1,1455,1611,0,0
238,-587,0,0,0,0,0,0,0,0,0,-1,1462,1611,0,0
245,-587,0,0,0,0,0,0,0,0,0,-1,1469,1611,0,0
252,-587,0,0,0,0,0,0,0,0,0,-1,1476,1611,0,0
259,-587,0,0,0,0,0,0,0,0,0,-1,1483,1611,0,0
266,-587,0,0,0,0,0,0,0,0,0,-1,1490,1611,0,0
273,-587,10.2936,6.35083,0,0,0,0,0,0,0,-1,1497,1611,10.2936,-6.35087
280,-587,2.09204,1.1217,0,0,0,0,0,0,0,-1,1504,1611,2.092,-1.12176
287,-587,3.2865,0.671509,0,0,0,0,0,0,0,-1,1511,1611,3.28656,-0.671538
294,-587,4.24646,1.58765,0,0,0,0,0,0,0,-1,1518,1611,4.24648,-1.58761
301,-587,7.60474,8.37085,0,0,0,0,0,0,0,-1,1525,1611,7.60478,-8.37084
308,-587,5.99316,10.2291,0,0,0,0,0,0,0,-1,1532,1611,5.99315,-10.2291
315,-587,4.34558,12.3289,0,0,0,0,0,0,0,-1,1539,1611,4.34556,-12.3288
322,-587,10.4526,6.38245,0,0,0,0,0,0,0,-1,1546,1611,10.4526,-6.38245
329,-587,10.7738,8.42444,0,0,0,0,0,0,0,-1,1553,1611,10.7738,-8.42438
336,-587,7.5531,5.96619,0,0,0,0,0,0,0,-1,1560,1611,7.55311,-5.96617
343,-587,20.0991,54.4835,0,0,0,0,0,0,0,-1,1567,1611,20.0991,-54.4835
350,-587,21.0448,56.5502,0,0,0,0,0,0,0,-1,1574,1611,21.0448,-56.5501
357,-587,26.1832,62.3915,0,0,0,0,0,0,0,-1,1581,1611,26.1832,-62.3915
364,-587,20.2296,58.4607,0,0,0,0,0,0,0,-1,1588,1611,20.2296,-58.4607
371,-587,22.5784,60.5015,0,0,0,0,0,0,0,-1,1595,1611,22.5784,-60.5014
378,-587,22.5558,66.4056,0,0,0,0,0,0,0,-1,1602,1611,22.5558,-66.4056
385,-587,22.582,66.9934,0,0,0,0,0,0,0,-1,1609,1611,22.582,-66.9934
392,-587,25.6912,75.1815,0,0,0,0,0,0,0,-1,1616,1611,25.6912,-75.1815
399,-587,28.3593,100.695,0,0,0,0,0,0,0,-1,1623,1611,28.3593,-100.695
406,-587,28.3816,99.4526,0,0,0,0,0,0,0,-1,1630,1611,28.3816,-99.4527
413,-587,28.9996,101.258,0,0,0,0,0,0,0,-1,1637,1611,28.9997,-101.258
420,-587,34.3275,147.889,0,0,0,0,0,0,0,-1,1644,1611,34.3275,-147.889
427,-587,42.4089,200.49,0,0,0,0,0,0,0,-1,1651,1611,42.4089,-200.49
434,-587,41.6301,197.067,0,0,0,0,0,0,0,-1,1658,1611,41.6301,-197.067
441,-587,76.3428,221.474,0,0,0,0,0,0,0,-1,1665,1611,76.3428,-221.474
448,-587,76.4949,217.529,0,0,0,0,0,0,0,-1,1672,1611,76.4949,-217.529
455,-587,75.769,213.414,0.0559851,0.0061348,0.0470135,0.0842721,-0.0221522,0.541652,0.0648394,0.040823,1679,1611,75.769,-213.414
462,-587,74.8463,209.356,0.0521539,0.00623784,0.044184,0.0789884,-0.0205966,0.545795,0.0607007,0.0311541,1686,1611,74.8463,-209.356
469,-587,73.8678,205.318,0.0485451,0.00624417,0.0411647,0.0736751,-0.0188858,0.548084,0.0564746,0.0246337,1693,1611,73.8678,-205.318
476,-587,72.8184,201.179,0.044869,0.00592918,0.0381868,0.0682629,-0.0174647,0.549646,0.0523112,0.0154751,1700,1611,72.8183,-201.179
483,-587,71.7114,196.927,0.0415961,0.00551762,0.0353448,0.0632389,-0.0161252,0.54944,0.0484375,0.0209605,1707,1611,71.7114,-196.927
490,-587,70.5721,192.651,0.0385162,0.00491052,0.0325864,0.0583768,-0.0149501,0.547358,0.0447417,0.0250351,1714,1611,70.5722,-192.651
497,-587,69.5044,188.208,0.0354729,0.00422661,0.0300883,0.0537524,-0.0140529,0.545937,0.0413236,0.0211561,1721,1611,69.5044,-188.208
504,-587,68.3567,183.851,0.0329078,0.00375344,0.0278411,0.0497571,-0.0130958,0.544229,0.0382906,0.0182627,1728,1611,68.3567,-183.851
511,-587,66.9949,179.456,0.0304689,0.00352814,0.025724,0.046036,-0.0120389,0.544204,0.0353929,0.0217637,1735,1611,66.9949,-179.456
518,-587,65.5778,175.049,0,0,0,0,0,0,0,-1,1742,1611,65.5778,-175.049
525,-587,60.1106,170.063,0,0,0,0,0,0,0,-1,1749,1611,60.1106,-170.063
532,-587,25.6605,64.9603,0,0,0,0,0,0,0,-1,1756,1611,25.6606,-64.9604
539,-587,24.8812,57.923,0,0,0,0,0,0,0,-1,1763,1611,24.8812,-57.923
546,-587,24.2523,48.2316,0,0,0,0,0,0,0,-1,1770,1611,24.2523,-48.2315
553,-587,20.7854,42.3828,0,0,0,0,0,0,0,-1,1777,1611,20.7854,-42.3828
560,-587,20.7347,41.9242,0,0,0,0,0,0,0,-1,1784,1611,20.7347,-41.9241
567,-587,4.03711,5.46387,0,0,0,0,0,0,0,-1,1791,1611,4.03715,-5.46382
574,-587,3.83142,5.68884,0,0,0,0,0,0,0,-1,1798,1611,3.83141,-5.68881
581,-587,3.47168,6.00977,0,0,0,0,0,0,0,-1,1805,1611,3.47167,-6.00983
588,-587,0,0,0,0,0,0,0,0,0,-1,1812,1611,0,0
595,-587,0,0,0,0,0,0,0,0,0,-1,1819,1611,0,0
602,-587,0,0,0,0,0,0,0,0,0,-1,1826,1611,0,0
609,-587,0,0,0,0,0,0,0,0,0,-1,1833,1611,0,0
616,-587,0,0,0,0,0,0,0,0,0,-1,1840,1611,0,0
623,-587,0,0,0,0,0,0,0,0,0,-1,1847,1611,0,0
630,-587,0,0,0,0,0,0,0,0,0,-1,1854,1611,0,0
637,-587,0,0,0,0,0,0,0,0,0,-1,1861,1611,0,0
644,-587,0,0,0,0,0,0,0,0,0,-1,1868,1611,0,0
651,-587,0,0,0,0,0,0,0,0,0,-1,1875,1611,0,0
658,-587,0,0,0,0,0,0,0,0,0,-1,1882,1611,0,0
665,-587,0,0,0,0,0,0,0,0,0,-1,1889,1611,0,0
672,-587,0,0,0,0,0,0,0,0,0,-1,1896,1611,0,0
679,-587,0,0,0,0,0,0,0,0,0,-1,1903,1611,0,0
686,-587,0,0,0,0,0,0,0,0,0,-1,1910,1611,0,0
693,-587,0,0,0,0,0,0,0,0,0,-1,1917,1611,0,0
700,-587,0,0,0,0,0,0,0,0,0,-1,1924,1611,0,0
707,-587,0,0,0,0,0,0,0,0,0,-1,1931,1611,0,0
714,-587,0,0,0,0,0,0,0,0,0,-1,1938,1611,0,0
721,-587,0,0,0,0,0,0,0,0,0,-1,1945,1611,0,0
728,-587,0,0,0,0,0,0,0,0,0,-1,1952,1611,0,0
735,-587,0,0,0,0,0,0,0,0,0,-1,1959,1611,0,0
742,-587,0,0,0,0,0,0,0,0,0,-1,1966,1611,0,0
749,-587,0,0,0,0,0,0,0,0,0,-1,1973,1611,0,0
756,-587,0,0,0,0,0,0,0,0,0,-1,1980,1611,0,0
763,-587,0,0,0,0,0,0,0,0,0,-1,1987,1611,0,0
770,-587,0,0,0,0,0,0,0,0,0,-1,1994,1611,0,0
777,-587,0,0,0,0,0,0,0,0,0,-1,2001,1611,0,0
784,-587,0,0,0,0,0,0,0,0,0,-1,2008,1611,0,0
791,-587,0,0,0,0,0,0,0,0,0,-1,2015,1611,0,0
798,-587,0,0,0,0,0,0,0,0,0,-1,2022,1611,0,0
805,-587,0,0,0,0,0,0,0,0,0,-1,2029,1611,0,0
812,-587,0,0,0,0,0,0,0,0,0,-1,2036,1611,0,0
-700,-594,0,0,0,0,0,0,0,0,0,-1,524,1618,0,0
-693,-594,0,0,0,0,0,0,0,0,0,-1,531,1618,0,0
-686,-594,0,0,0,0,0,0,0,0,0,-1,538,1618,0,0
-679,-594,0,0,0,0,0,0,0,0,0,-1,545,1618,0,0
-672,-594,0,0,0,0,0,0,0,0,0,-1,552,1618,0,0
-665,-594,0,0,0,0,0,0,0,0,0,-1,559,1618,0,0
-658,-594,0,0,0,0,0,0,0,0,0,-1,566,1618,0,0
-651,-594,0,0,0,0,0,0,0,0,0,-1,573,1618,0,0
-644,-594,0,0,0,0,0,0,0,0,0,-1,580,1618,0,0
-637,-594,0,0,0,0,0,0,0,0,0,-1,587,1618,0,0
-630,-594,0,0,0,0,0,0,0,0,0,-1,594,1618,0,0
-623,-594,0,0,0,0,0,0,0,0,0,-1,601,1618,0,0
-616,-594,0,0,0,0,0,0,0,0,0,-1,608,1618,0,0
-609,-594,0,0,0,0,0,0,0,0,0,-1,615,1618,0,0
-602,-594,0,0,0,0,0,0,0,0,0,-1,622,1618,0,0
-595,-594,0,0,0,0,0,0,0,0,0,-1,629,1618,0,0
-588,-594,0,0,0,0,0,0,0,0,0,-1,636,1618,0,0
-581,-594,0,0,0,0,0,0,0,0,0,-1,643,1618,0,0
-574,-594,0,0,0,0,0,0,0,0,0,-1,650,1618,0,0
-567,-594,0,0,0,0,0,0,0,0,0,-1,657,1618,0,0
-560,-594,0,0,0,0,0,0,0,0,0,-1,664,1618,0,0
-553,-594,0,0,0,0,0,0,0,0,0,-1,671,1618,0,0
-546,-594,0,0,0,0,0,0,0,0,0,-1,678,1618,0,0
-539,-594,0,0,0,0,0,0,0,0,0,-1,685,1618,0,0
-532,-594,0,0,0,0,0,0,0,0,0,-1,692,1618,0,0
-525,-594,0,0,0,0,0,0,0,0,0,-1,699,1618,0,0
-518,-594,0,0,0,0,0,0,0,0,0,-1,706,1618,0,0
-511,-594,0,0,0,0,0,0,0,0,0,-1,713,1618,0,0
-504,-594,0,0,0,0,0,0,0,0,0,-1,720,1618,0,0
-497,-594,0,0,0,0,0,0,0,0,0,-1,727,1618,0,0
-490,-594,0,0,0,0,0,0,0,0,0,-1,734,1618,0,0
-483,-594,0,0,0,0,0,0,0,0,0,-1,741,1618,0,0
-476,-594,0,0,0,0,0,0,0,0,0,-1,748,1618,0,0
-469,-594,0,0,0,0,0,0,0,0,0,-1,755,1618,0,0
-462,-594,0,0,0,0,0,0,0,0,0,-1,762,1618,0,0
-455,-594,-0.509216,-1.58411,0,0,0,0,0,0,0,-1,769,1618,-0.509245,1.58415
-448,-594,-7.71887,-0.0559082,0,0,0,0,0,0,0,-1,776,1618,-7.71885,0.055939
-441,-594,-5.78473,1.18298,0,0,0,0,0,0,0,-1,783,1618,-5.78474,-1.18295
-434,-594,-3.93628,3.06213,0,0,0,0,0,0,0,-1,790,1618,-3.93631,-3.06208
-427,-594,-3.97693,6.77759,0,0,0,0,0,0,0,-1,797,1618,-3.97695,-6.77764
-420,-594,-2.53046,7.71606,0,0,0,0,0,0,0,-1,804,1618,-2.53047,-7.71609
-413,-594,-0.860413,8.00391,0,0,0,0,0,0,0,-1,811,1618,-0.860423,-8.00389
-406,-594,2.45746,13.6218,0,0,0,0,0,0,0,-1,818,1618,2.45747,-13.6218
-399,-594,1.30414,24.9963,0,0,0,0,0,0,0,-1,825,1618,1.30415,-24.9963
-392,-594,-0.504883,35.921,0,0,0,0,0,0,0,-1,832,1618,-0.50491,-35.921
-385,-594,-10.3674,76.0038,0,0,0,0,0,0,0,-1,839,1618,-10.3675,-76.0038
-378,-594,-46.8279,177.198,0,0,0,0,0,0,0,-1,846,1618,-46.8279,-177.198
-371,-594,-47.7972,181.978,0,0,0,0,0,0,0,-1,853,1618,-47.7972,-181.978
-364,-594,-48.845,186.356,0.0547868,0.00508769,-0.0530221,0.0884936,-0.0286191,-0.566265,0.0704991,0.0202988,860,1618,-48.845,-186.356
-357,-594,-49.9882,190.726,0.0558601,0.00630333,-0.056371,0.0926582,-0.0304948,-0.578329,0.0740602,0.0166808,867,1618,-49.9882,-190.726
-350,-594,-51.1503,194.89,0.0579018,0.00751729,-0.0592123,0.0970581,-0.0316391,-0.58427,0.0774371,0.0274313,874,1618,-51.1502,-194.89
-343,-594,-51.9637,198.88,0.0605951,0.00873782,-0.0615338,0.10144,-0.032107,-0.586001,0.0804926,0.0340944,881,1618,-51.9637,-198.88
-336,-594,-52.7609,202.978,0.0637385,0.00972198,-0.0634462,0.105686,-0.0322253,-0.584172,0.0833033,0.0286576,888,1618,-52.7609,-202.978
-329,-594,-53.3116,207.015,0.0674215,0.0101936,-0.0651102,0.109928,-0.0323127,-0.578367,0.0861015,0.0263308,895,1618,-53.3116,-207.015
-322,-594,-53.8081,211.083,0.0714313,0.0100078,-0.0667286,0.114176,-0.0327374,-0.569726,0.0890589,0.0249415,902,1618,-53.8081,-211.083
-315,-594,-54.5981,215.046,0.075697,0.00954347,-0.068979,0.11912,-0.0338793,-0.561834,0.0927913,0.0217808,909,1618,-54.5981,-215.046
-308,-594,-55.087,218.818,0.0803087,0.00932988,-0.0714415,0.12459,-0.0349515,-0.554871,0.0968365,0.0220078,916,1618,-55.087,-218.817
-301,-594,-55.707,222.606,0,0,0,0,0,0,0,-1,923,1618,-55.707,-222.606
-294,-594,-56.5983,226.532,0,0,0,0,0,0,0,-1,930,1618,-56.5983,-226.532
-287,-594,-56.5375,230.496,0,0,0,0,0,0,0,-1,937,1618,-56.5375,-230.496
-280,-594,-26.5746,151.363,0,0,0,0,0,0,0,-1,944,1618,-26.5747,-151.363
-273,-594,-7.12677,80.9253,0,0,0,0,0,0,0,-1,951,1618,-7.12675,-80.9253
-266,-594,-6.24011,77.041,0,0,0,0,0,0,0,-1,958,1618,-6.24012,-77.041
-259,-594,-5.43719,73.2439,0,0,0,0,0,0,0,-1,965,1618,-5.43718,-73.2438
-252,-594,-3.87189,67.4364,0,0,0,0,0,0,0,-1,972,1618,-3.87187,-67.4365
-245,-594,-4.10248,71.0682,0,0,0,0,0,0,0,-1,979,1618,-4.10248,-71.0683
-238,-594,-3.80469,71.3663,0,0,0,0,0,0,0,-1,986,1618,-3.80466,-71.3663
-231,-594,-2.14069,63.0621,0,0,0,0,0,0,0,-1,993,1618,-2.14071,-63.0621
-224,-594,-3.09943,64.4106,0,0,0,0,0,0,0,-1,1000,1618,-3.09942,-64.4107
-217,-594,-3.96979,66.0715,0,0,0,0,0,0,0,-1,1007,1618,-3.96979,-66.0715
-210,-594,-5.61438,14.2119,0,0,0,0,0,0,0,-1,1014,1618,-5.6144,-14.212
-203,-594,-3.94507,15.5768,0,0,0,0,0,0,0,-1,1021,1618,-3.94506,-15.5768
-196,-594,2.78613,10.5815,0,0,0,0,0,0,0,-1,1028,1618,2.78612,-10.5815
-189,-594,2.60913,9.48865,0,0,0,0,0,0,0,-1,1035,1618,2.6091,-9.48871
-182,-594,1.2395,9.38806,0,0,0,0,0,0,0,-1,1042,1618,1.23951,-9.38804
-175,-594,0.234863,8.73792,0,0,0,0,0,0,0,-1,1049,1618,0.234812,-8.73786
-168,-594,-0.495483,8.46289,0,0,0,0,0,0,0,-1,1056,1618,-0.495513,-8.46285
-161,-594,-1.39734,8.28699,0,0,0,0,0,0,0,-1,1063,1618,-1.39729,-8.28699
-154,-594,-0.000854492,7.68445,0,0,0,0,0,0,0,-1,1070,1618,-0.000805755,-7.6845
-147,-594,0.348267,9.3385,0,0,0,0,0,0,0,-1,1077,1618,0.348237,-9.33849
-140,-594,0.675171,11.5884,0,0,0,0,0,0,0,-1,1084,1618,0.675204,-11.5884
-133,-594,0,0,0,0,0,0,0,0,0,-1,1091,1618,0,0
-126,-594,0,0,0,0,0,0,0,0,0,-1,1098,1618,0,0
-119,-594,0,0,0,0,0,0,0,0,0,-1,1105,1618,0,0
-112,-594,0,0,0,0,0,0,0,0,0,-1,1112,1618,0,0
-105,-594,0,0,0,0,0,0,0,0,0,-1,1119,1618,0,0
-98,-594,0,0,0,0,0,0,0,0,0,-1,1126,1618,0,0
-91,-594,0,0,0,0,0,0,0,0,0,-1,1133,1618,0,0
-84,-594,0,0,0,0,0,0,0,0,0,-1,1140,1618,0,0
-77,-594,0,0,0,0,0,0,0,0,0,-1,1147,1618,0,0
-70,-594,0,0,0,0,0,0,0,0,0,-1,1154,1618,0,0
-63,-594,0,0,0,0,0,0,0,0,0,-1,1161,1618,0,0
-56,-594,0,0,0,0,0,0,0,0,0,-1,1168,1618,0,0
-49,-594,0,0,0,0,0,0,0,0,0,-1,1175,1618,0,0
-42,-594,0,0,0,0,0,0,0,0,0,-1,1182,1618,0,0
-35,-594,0,0,0,0,0,0,0,0,0,-1,1189,1618,0,0
-28,-594,0,0,0,0,0,0,0,0,0,-1,1196,1618,0,0
-21,-594,0,0,0,0,0,0,0,0,0,-1,1203,1618,0,0
-14,-594,0,0,0,0,0,0,0,0,0,-1,1210,1618,0,0
-7,-594,0,0,0,0,0,0,0,0,0,-1,1217,1618,0,0
0,-594,0,0,0,0,0,0,0,0,0,-1,1224,1618,0,0
7,-594,0,0,0,0,0,0,0,0,0,-1,1231,1618,0,0
14,-594,0,0,0,0,0,0,0,0,0,-1,1238,1618,0,0
21,-594,0,0,0,0,0,0,0,0,0,-1,1245,1618,0,0
28,-594,0,0,0,0,0,0,0,0,0,-1,1252,1618,0,0
35,-594,0,0,0,0,0,0,0,0,0,-1,1259,1618,0,0
42,-594,0,0,0,0,0,0,0,0,0,-1,1266,1618,0,0
49,-594,0,0,0,0,0,0,0,0,0,-1,1273,1618,0,0
56,-594,0,0,0,0,0,0,0,0,0,-1,1280,1618,0,0
63,-594,0,0,0,0,0,0,0,0,0,-1,1287,1618,0,0
70,-594,0,0,0,0,0,0,0,0,0,-1,1294,1618,0,0
77,-594,0,0,0,0,0,0,0,0,0,-1,1301,1618,0,0
84,-594,0,0,0,0,0,0,0,0,0,-1,1308,1618,0,0
91,-594,0,0,0,0,0,0,0,0,0,-1,1315,1618,0,0
98,-594,0,0,0,0,0,0,0,0,0,-1,1322,1618,0,0
105,-594,0,0,0,0,0,0,0,0,0,-1,1329,1618,0,0
112,-594,0,0,0,0,0,0,0,0,0,-1,1336,1618,0,0
119,-594,0,0,0,0,0,0,0,0,0,-1,1343,1618,0,0
126,-594,0,0,0,0,0,0,0,0,0,-1,1350,1618,0,0
133,-594,0,0,0,0,0,0,0,0,0,-1,1357,1618,0,0
140,-594,0,0,0,0,0,0,0,0,0,-1,1364,1618,0,0
147,-594,0,0,0,0,0,0,0,0,0,-1,1371,1618,0,0
154,-594,0,0,0,0,0,0,0,0,0,-1,1378,1618,0,0
161,-594,0,0,0,0,0,0,0,0,0,-1,1385,1618,0,0
168,-594,0,0,0,0,0,0,0,0,0,-1,1392,1618,0,0
175,-594,0,0,0,0,0,0,0,0,0,-1,1399,1618,0,0
182,-594,0,0,0,0,0,0,0,0,0,-1,1406,1618,0,0
189,-594,0,0,0,0,0,0,0,0,0,-1,1413,1618,0,0
196,-594,0,0,0,0,0,0,0,0,0,-1,1420,1618,0,0
203,-594,0,0,0,0,0,0,0,0,0,-1,1427,1618,0,0
210,-594,0,0,0,0,0,0,0,0,0,-1,1434,1618,0,0
217,-594,0,0,0,0,0,0,0,0,0,-1,1441,1618,0,0
224,-594,0,0,0,0,0,0,0,0,0,-1,1448,1618,0,0
231,-594,0,0,0,0,0,0,0,0,0,-1,1455,1618,0,0
238,-594,0,0,0,0,0,0,0,0,0,-1,1462,1618,0,0
245,-594,0,0,0,0,0,0,0,0,0,-1,1469,1618,0,0
252,-594,3.03674,1.20996,0,0,0,0,0,0,0,-1,1476,1618,3.0368,-1.20999
259,-594,4.79834,1.53113,0,0,0,0,0,0,0,-1,1483,1618,4.79837,-1.53118
266,-594,3.71606,2.68152,0,0,0,0,0,0,0,-1,1490,1618,3.71609,-2.68149
273,-594,9.7655,6.33557,0,0,0,0,0,0,0,-1,1497,1618,9.76555,-6.33554
280,-594,3.13281,0.911255,0,0,0,0,0,0,0,-1,1504,1618,3.13277,-0.911207
287,-594,4.42749,1.51563,0,0,0,0,0,0,0,-1,1511,1618,4.42747,-1.51564
294,-594,5.36475,3.34937,0,0,0,0,0,0,0,-1,1518,1618,5.36475,-3.3494
301,-594,7.97144,9.04333,0,0,0,0,0,0,0,-1,1525,1618,7.9714,-9.04328
308,-594,6.30347,10.4633,0,0,0,0,0,0,0,-1,1532,1618,6.30351,-10.4633
315,-594,4.62012,11.934,0,0,0,0,0,0,0,-1,1539,1618,4.62006,-11.934
322,-594,2.91528,13.3134,0,0,0,0,0,0,0,-1,1546,1618,2.91523,-13.3133
329,-594,4.19861,9.77258,0,0,0,0,0,0,0,-1,1553,1618,4.19865,-9.77264
336,-594,10.1353,4.66528,0,0,0,0,0,0,0,-1,1560,1618,10.1353,-4.66533
343,-594,18.0483,57.3796,0,0,0,0,0,0,0,-1,1567,1618,18.0484,-57.3796
350,-594,24.8807,64.2565,0,0,0,0,0,0,0,-1,1574,1618,24.8807,-64.2565
357,-594,24.1903,62.9299,0,0,0,0,0,0,0,-1,1581,1618,24.1903,-62.93
364,-594,20.7518,62.6091,0,0,0,0,0,0,0,-1,1588,1618,20.7519,-62.6092
371,-594,22.4775,64.7457,0,0,0,0,0,0,0,-1,1595,1618,22.4775,-64.7457
378,-594,22.6462,69.2249,0,0,0,0,0,0,0,-1,1602,1618,22.6462,-69.2248
385,-594,25.8207,82.2562,0,0,0,0,0,0,0,-1,1609,1618,25.8207,-82.2562
392,-594,26.0084,90.6113,0,0,0,0,0,0,0,-1,1616,1618,26.0085,-90.6113
399,-594,29.077,116.162,0,0,0,0,0,0,0,-1,1623,1618,29.077,-116.162
406,-594,32.7993,154.188,0,0,0,0,0,0,0,-1,1630,1618,32.7993,-154.188
413,-594,50.204,233.488,0,0,0,0,0,0,0,-1,1637,1618,50.204,-233.488
420,-594,73.881,234.233,0,0,0,0,0,0,0,-1,1644,1618,73.881,-234.233
427,-594,73.4901,230.082,0,0,0,0,0,0,0,-1,1651,1618,73.4901,-230.082
434,-594,72.7736,226.433,0,0,0,0,0,0,0,-1,1658,1618,72.7736,-226.433
441,-594,72.1074,222.771,0,0,0,0,0,0,0,-1,1665,1618,72.1074,-222.77
448,-594,71.5535,218.665,0,0,0,0,0,0,0,-1,1672,1618,71.5535,-218.665
455,-594,71.0056,214.389,0,0,0,0,0,0,0,-1,1679,1618,71.0056,-214.389
462,-594,70.4153,210.695,0.0480829,0.00584661,0.0403511,0.0725081,-0.0185785,0.544318,0.0555765,0.0293002,1686,1618,70.4153,-210.695
469,-594,69.4419,206.743,0.0444587,0.00595977,0.0373146,0.0671964,-0.0167779,0.547267,0.0513128,0.0204333,1693,1618,69.4419,-206.743
476,-594,68.4512,202.634,0.0408701,0.00576473,0.0343656,0.0619062,-0.0152713,0.549288,0.0471922,0.0198701,1700,1618,68.4512,-202.634
483,-594,67.3527,198.428,0.037616,0.00550556,0.0315721,0.0569807,-0.0138591,0.550176,0.0433517,0.024328,1707,1618,67.3527,-198.428
490,-594,66.1996,194.162,0.0344636,0.00505733,0.0288295,0.0521228,-0.0126018,0.549589,0.0396229,0.0221606,1714,1618,66.1996,-194.162
497,-594,65.0089,189.887,0.031336,0.00447683,0.0263315,0.0474648,-0.011652,0.549583,0.0361585,0.017475,1721,1618,65.0089,-189.887
504,-594,63.7333,185.581,0.0286713,0.00406831,0.024125,0.0434501,-0.0107104,0.549627,0.0331193,0.0265273,1728,1618,63.7332,-185.581
511,-594,62.4468,180.945,0,0,0,0,0,0,0,-1,1735,1618,62.4468,-180.945
518,-594,56.9144,175.958,0,0,0,0,0,0,0,-1,1742,1618,56.9144,-175.957
525,-594,22.6301,74.267,0,0,0,0,0,0,0,-1,1749,1618,22.6301,-74.267
532,-594,23.9922,59.0367,0,0,0,0,0,0,0,-1,1756,1618,23.9921,-59.0367
539,-594,22.6456,47.21,0,0,0,0,0,0,0,-1,1763,1618,22.6457,-47.2099
546,-594,7.48645,8.54785,0,0,0,0,0,0,0,-1,1770,1618,7.48639,-8.54789
553,-594,3.69714,5.68762,0,0,0,0,0,0,0,-1,1777,1618,3.69715,-5.68764
560,-594,6.06616,4.44482,0,0,0,0,0,0,0,-1,1784,1618,6.06621,-4.44477
567,-594,5.97266,4.73303,0,0,0,0,0,0,0,-1,1791,1618,5.97271,-4.73309
574,-594,5.9906,4.96326,0,0,0,0,0,0,0,-1,1798,1618,5.99065,-4.96326
581,-594,0,0,0,0,0,0,0,0,0,-1,1805,1618,0,0
588,-594,0,0,0,0,0,0,0,0,0,-1,1812,1618,0,0
595,-594,0,0,0,0,0,0,0,0,0,-1,1819,1618,0,0
602,-594,0,0,0,0,0,0,0,0,0,-1,1826,1618,0,0
609,-594,0,0,0,0,0,0,0,0,0,-1,1833,1618,0,0
616,-594,0,0,0,0,0,0,0,0,0,-1,1840,1618,0,0
623,-594,0,0,0,0,0,0,0,0,0,-1,1847,1618,0,0
630,-594,0,0,0,0,0,0,0,0,0,-1,1854,1618,0,0
637,-594,0,0,0,0,0,0,0,0,0,-1,1861,1618,0,0
644,-594,0,0,0,0,0,0,0,0,0,-1,1868,1618,0,0
651,-594,0,0,0,0,0,0,0,0,0,-1,1875,1618,0,0
658,-594,0,0,0,0,0,0,0,0,0,-1,1882,1618,0,0
665,-594,0,0,0,0,0,0,0,0,0,-1,1889,1618,0,0
672,-594,0,0,0,0,0,0,0,0,0,-1,1896,1618,0,0
679,-594,0,0,0,0,0,0,0,0,0,-1,1903,1618,0,0
686,-594,0,0,0,0,0,0,0,0,0,-1,1910,1618,0,0
693,-594,0,0,0,0,0,0,0,0,0,-1,1917,1618,0,0
700,-594,0,0,0,0,0,0,0,0,0,-1,1924,1618,0,0
707,-594,0,0,0,0,0,0,0,0,0,-1,1931,1618,0,0
714,-594,0,0,0,0,0,0,0,0,0,-1,1938,1618,0,0
721,-594,0,0,0,0,0,0,0,0,0,-1,1945,1618,0,0
728,-594,0,0,0,0,0,0,0,0,0,-1,1952,1618,0,0
735,-594,0,0,0,0,0,0,0,0,0,-1,1959,1618,0,0
742,-594,0,0,0,0,0,0,0,0,0,-1,1966,1618,0,0
749,-594,0,0,0,0,0,0,0,0,0,-1,1973,1618,0,0
756,-594,0,0,0,0,0,0,0,0,0,-1,1980,1618,0,0
763,-594,0,0,0,0,0,0,0,0,0,-1,1987,1618,0,0
770,-594,0,0,0,0,0,0,0,0,0,-1,1994,1618,0,0
777,-594,0,0,0,0,0,0,0,0,0,-1,2001,1618,0,0
784,-594,0,0,0,0,0,0,0,0,0,-1,2008,1618,0,0
791,-594,0,0,0,0,0,0,0,0,0,-1,2015,1618,0,0
798,-594,0,0,0,0,0,0,0,0,0,-1,2022,1618,0,0
805,-594,0,0,0,0,0,0,0,0,0,-1,2029,1618,0,0
812,-594,0,0,0,0,0,0,0,0,0,-1,2036,1618,0,0
-700,-601,0,0,0,0,0,0,0,0,0,-1,524,1625,0,0
-693,-601,0,0,0,0,0,0,0,0,0,-1,531,1625,0,0
-686,-601,0,0,0,0,0,0,0,0,0,-1,538,1625,0,0
-679,-601,0,0,0,0,0,0,0,0,0,-1,545,1625,0,0
-672,-601,0,0,0,0,0,0,0,0,0,-1,552,1625,0,0
-665,-601,0,0,0,0,0,0,0,0,0,-1,559,1625,0,0
-658,-601,0,0,0,0,0,0,0,0,0,-1,566,1625,0,0
-651,-601,0,0,0,0,0,0,0,0,0,-1,573,1625,0,0
-644,-601,0,0,0,0,0,0,0,0,0,-1,580,1625,0,0
-637,-601,0,0,0,0,0,0,0,0,0,-1,587,1625,0,0
-630,-601,0,0,0,0,0,0,0,0,0,-1,594,1625,0,0
-623,-601,0,0,0,0,0,0,0,0,0,-1,601,1625,0,0
-616,-601,0,0,0,0,0,0,0,0,0,-1,608,1625,0,0
-609,-601,0,0,0,0,0,0,0,0,0,-1,615,1625,0,0
-602,-601,0,0,0,0,0,0,0,0,0,-1,622,1625,0,0
-595,-601,0,0,0,0,0,0,0,0,0,-1,629,1625,0,0
-588,-601,0,0,0,0,0,0,0,0,0,-1,636,1625,0,0
-581,-601,0,0,0,0,0,0,0,0,0,-1,643,1625,0,0
-574,-601,0,0,0,0,0,0,0,0,0,-1,650,1625,0,0
-567,-601,0,0,0,0,0,0,0,0,0,-1,657,1625,0,0
-560,-601,0,0,0,0,0,0,0,0,0,-1,664,1625,0,0
-553,-601,0,0,0,0,0,0,0,0,0,-1,671,1625,0,0
-546,-601,0,0,0,0,0,0,0,0,0,-1,678,1625,0,0
-539,-601,0,0,0,0,0,0,0,0,0,-1,685,1625,0,0
-532,-601,0,0,0,0,0,0,0,0,0,-1,692,1625,0,0
-525,-601,0,0,0,0,0,0,0,0,0,-1,699,1625,0,0
-518,-601,0,0,0,0,0,0,0,0,0,-1,706,1625,0,0
-511,-601,0,0,0,0,0,0,0,0,0,-1,713,1625,0,0
-504,-601,0,0,0,0,0,0,0,0,0,-1,720,1625,0,0
-497,-601,0,0,0,0,0,0,0,0,0,-1,727,1625,0,0
-490,-601,0,0,0,0,0,0,0,0,0,-1,734,1625,0,0
-483,-601,0,0,0,0,0,0,0,0,0,-1,741,1625,0,0
-476,-601,0,0,0,0,0,0,0,0,0,-1,748,1625,0,0
-469,-601,0,0,0,0,0,0,0,0,0,-1,755,1625,0,0
-462,-601,0,0,0,0,0,0,0,0,0,-1,762,1625,0,0
-455,-601,0,0,0,0,0,0,0,0,0,-1,769,1625,0,0
-448,-601,-7.07623,2.7616,0,0,0,0,0,0,0,-1,776,1625,-7.07626,-2.76161
-441,-601,-6.06689,3.33447,0,0,0,0,0,0,0,-1,783,1625,-6.06691,-3.33448
-434,-601,-5.02655,3.8468,0,0,0,0,0,0,0,-1,790,1625,-5.02657,-3.84674
-427,-601,-5.78601,4.2406,0,0,0,0,0,0,0,-1,797,1625,-5.786,-4.24058
-420,-601,-5.5191,5.60364,0,0,0,0,0,0,0,-1,804,1625,-5.51907,-5.60368
-413,-601,-4.30756,5.86047,0,0,0,0,0,0,0,-1,811,1625,-4.30757,-5.86046
-406,-601,-1.67493,7.20422,0,0,0,0,0,0,0,-1,818,1625,-1.67493,-7.20428
-399,-601,1.40094,15.3108,0,0,0,0,0,0,0,-1,825,1625,1.40096,-15.3107
-392,-601,0.678833,30.98,0,0,0,0,0,0,0,-1,832,1625,0.678827,-30.98
-385,-601,-0.0147095,37.3687,0,0,0,0,0,0,0,-1,839,1625,-0.0147267,-37.3687
-378,-601,-9.49316,77.9558,0,0,0,0,0,0,0,-1,846,1625,-9.49313,-77.9558
-371,-601,-24.0523,163.544,0,0,0,0,0,0,0,-1,853,1625,-24.0523,-163.544
-364,-601,-44.1689,187.975,0,0,0,0,0,0,0,-1,860,1625,-44.1689,-187.975
-357,-601,-45.5511,192.376,0.0525288,0.00487721,-0.0526449,0.0864884,-0.0290824,-0.572901,0.0694144,0.019068,867,1625,-45.5512,-192.376
-350,-601,-46.6719,196.466,0.0549042,0.00618518,-0.0556823,0.0913222,-0.0302328,-0.579204,0.0730744,0.0390833,874,1625,-46.6719,-196.466
-343,-601,-47.3353,200.465,0.0577417,0.00765543,-0.0582664,0.0961188,-0.0307217,-0.582432,0.076407,0.0473119,881,1625,-47.3353,-200.465
-336,-601,-48.0731,204.45,0.0606555,0.00868829,-0.060276,0.10031,-0.030966,-0.581895,0.0792385,0.0397456,888,1625,-48.0731,-204.45
-329,-601,-48.7535,208.586,0.0640276,0.00943756,-0.0621264,0.104591,-0.0311254,-0.578418,0.0820931,0.0307579,895,1625,-48.7535,-208.586
-322,-601,-49.4971,212.627,0.0677307,0.00970329,-0.0641567,0.109129,-0.0316952,-0.573044,0.0853038,0.0198838,902,1625,-49.4971,-212.627
-315,-601,-50.2133,216.545,0.0718406,0.00949011,-0.0664643,0.114078,-0.0327472,-0.566106,0.0889991,0.0199064,909,1625,-50.2132,-216.545
-308,-601,-50.7528,220.279,0.0762487,0.00935883,-0.0689857,0.119469,-0.0338617,-0.559687,0.0930112,0.0197038,916,1625,-50.7528,-220.279
-301,-601,-51.5787,224.032,0,0,0,0,0,0,0,-1,923,1625,-51.5787,-224.032
-294,-601,-51.8085,228.222,0,0,0,0,0,0,0,-1,930,1625,-51.8085,-228.222
-287,-601,-51.8912,231.674,0,0,0,0,0,0,0,-1,937,1625,-51.8911,-231.674
-280,-601,-51.9738,235.126,0,0,0,0,0,0,0,-1,944,1625,-51.9738,-235.126
-273,-601,-49.3563,239.4,0,0,0,0,0,0,0,-1,951,1625,-49.3563,-239.4
-266,-601,-40.8055,236.129,0,0,0,0,0,0,0,-1,958,1625,-40.8055,-236.129
-259,-601,-18.8072,134.813,0,0,0,0,0,0,0,-1,965,1625,-18.8072,-134.813
-252,-601,-5.5199,84.9717,0,0,0,0,0,0,0,-1,972,1625,-5.51992,-84.9717
-245,-601,-5.19122,85.542,0,0,0,0,0,0,0,-1,979,1625,-5.19122,-85.542
-238,-601,-4.50085,79.6481,0,0,0,0,0,0,0,-1,986,1625,-4.50088,-79.648
-231,-601,-3.33917,71.8477,0,0,0,0,0,0,0,-1,993,1625,-3.33918,-71.8476
-224,-601,-3.03302,65.2062,0,0,0,0,0,0,0,-1,1000,1625,-3.033,-65.2062
-217,-601,3.39429,10.3898,0,0,0,0,0,0,0,-1,1007,1625,3.39431,-10.3898
-210,-601,-6.53699,15.7931,0,0,0,0,0,0,0,-1,1014,1625,-6.53697,-15.7931
-203,-601,2.69348,15.9099,0,0,0,0,0,0,0,-1,1021,1625,2.69351,-15.91
-196,-601,2.66992,16.1815,0,0,0,0,0,0,0,-1,1028,1625,2.66995,-16.1815
-189,-601,2.849,16.6105,0,0,0,0,0,0,0,-1,1035,1625,2.84902,-16.6104
-182,-601,1.82153,13.9752,0,0,0,0,0,0,0,-1,1042,1625,1.82155,-13.9752
-175,-601,0.544922,9.28687,0,0,0,0,0,0,0,-1,1049,1625,0.544879,-9.28685
-168,-601,-0.247559,8.97461,0,0,0,0,0,0,0,-1,1056,1625,-0.247598,-8.97466
-161,-601,-1.16833,8.80078,0,0,0,0,0,0,0,-1,1063,1625,-1.16837,-8.80081
-154,-601,1.12756,7.94861,0,0,0,0,0,0,0,-1,1070,1625,1.12762,-7.94855
-147,-601,1.35352,9.55432,0,0,0,0,0,0,0,-1,1077,1625,1.35351,-9.55429
-140,-601,1.72437,11.1498,0,0,0,0,0,0,0,-1,1084,1625,1.72432,-11.1498
-133,-601,2.13281,12.8347,0,0,0,0,0,0,0,-1,1091,1625,2.13287,-12.8348
-126,-601,3.09534,15.427,0,0,0,0,0,0,0,-1,1098,1625,3.0953,-15.4271
-119,-601,1.22485,9.43457,0,0,0,0,0,0,0,-1,1105,1625,1.22489,-9.43456
-112,-601,0,0,0,0,0,0,0,0,0,-1,1112,1625,0,0
-105,-601,0,0,0,0,0,0,0,0,0,-1,1119,1625,0,0
-98,-601,0,0,0,0,0,0,0,0,0,-1,1126,1625,0,0
-91,-601,0,0,0,0,0,0,0,0,0,-1,1133,1625,0,0
-84,-601,0,0,0,0,0,0,0,0,0,-1,1140,1625,0,0
-77,-601,0,0,0,0,0,0,0,0,0,-1,1147,1625,0,0
-70,-601,0,0,0,0,0,0,0,0,0,-1,1154,1625,0,0
-63,-601,0,0,0,0,0,0,0,0,0,-1,1161,1625,0,0
-56,-601,0,0,0,0,0,0,0,0,0,-1,1168,1625,0,0
-49,-601,0,0,0,0,0,0,0,0,0,-1,1175,1625,0,0
-42,-601,0,0,0,0,0,0,0,0,0,-1,1182,1625,0,0
-35,-601,0,0,0,0,0,0,0,0,0,-1,1189,1625,0,0
-28,-601,0,0,0,0,0,0,0,0,0,-1,1196,1625,0,0
-21,-601,0,0,0,0,0,0,0,0,0,-1,1203,1625,0,0
-14,-601,0,0,0,0,0,0,0,0,0,-1,1210,1625,0,0
-7,-601,0,0,0,0,0,0,0,0,0,-1,1217,1625,0,0
0,-601,0,0,0,0,0,0,0,0,0,-1,1224,1625,0,0
7,-601,0,0,0,0,0,0,0,0,0,-1,1231,1625,0,0
14,-601,0,0,0,0,0,0,0,0,0,-1,1238,1625,0,0
21,-601,0,0,0,0,0,0,0,0,0,-1,1245,1625,0,0
28,-601,0,0,0,0,0,0,0,0,0,-1,1252,1625,0,0
35,-601,0,0,0,0,0,0,0,0,0,-1,1259,1625,0,0
42,-601,0,0,0,0,0,0,0,0,0,-1,1266,1625,0,0
49,-601,0,0,0,0,0,0,0,0,0,-1,1273,1625,0,0
56,-601,0,0,0,0,0,0,0,0,0,-1,1280,1625,0,0
63,-601,0,0,0,0,0,0,0,0,0,-1,1287,1625,0,0
70,-601,0,0,0,0,0,0,0,0,0,-1,1294,1625,0,0
77,-601,0,0,0,0,0,0,0,0,0,-1,1301,1625,0,0
84,-601,0,0,0,0,0,0,0,0,0,-1,1308,1625,0,0
91,-601,0,0,0,0,0,0,0,0,0,-1,1315,1625,0,0
98,-601,0,0,0,0,0,0,0,0,0,-1,1322,1625,0,0
105,-601,0,0,0,0,0,0,0,0,0,-1,1329,1625,0,0
112,-601,0,0,0,0,0,0,0,0,0,-1,1336,1625,0,0
119,-601,0,0,0,0,0,0,0,0,0,-1,1343,1625,0,0
126,-601,0,0,0,0,0,0,0,0,0,-1,1350,1625,0,0
133,-601,0,0,0,0,0,0,0,0,0,-1,1357,1625,0,0
140,-601,0,0,0,0,0,0,0,0,0,-1,1364,1625,0,0
147,-601,0,0,0,0,0,0,0,0,0,-1,1371,1625,0,0
154,-601,0,0,0,0,0,0,0,0,0,-1,1378,1625,0,0
161,-601,0,0,0,0,0,0,0,0,0,-1,1385,1625,0,0
168,-601,0,0,0,0,0,0,0,0,0,-1,1392,1625,0,0
175,-601,0,0,0,0,0,0,0,0,0,-1,1399,1625,0,0
182,-601,0,0,0,0,0,0,0,0,0,-1,1406,1625,0,0
189,-601,0,0,0,0,0,0,0,0,0,-1,1413,1625,0,0
196,-601,0,0,0,0,0,0,0,0,0,-1,1420,1625,0,0
203,-601,0,0,0,0,0,0,0,0,0,-1,1427,1625,0,0
210,-601,0,0,0,0,0,0,0,0,0,-1,1434,1625,0,0
217,-601,0,0,0,0,0,0,0,0,0,-1,1441,1625,0,0
224,-601,0,0,0,0,0,0,0,0,0,-1,1448,1625,0,0
231,-601,-0.0371094,0.525879,0,0,0,0,0,0,0,-1,1455,1625,-0.0371518,-0.525824
238,-601,2.03369,-1.32861,0,0,0,0,0,0,0,-1,1462,1625,2.03364,1.32858
245,-601,2.71375,2.44983,0,0,0,0,0,0,0,-1,1469,1625,2.71371,-2.44979
252,-601,4.66943,2.28381,0,0,0,0,0,0,0,-1,1476,1625,4.66947,-2.28376
259,-601,6.42712,2.61987,0,0,0,0,0,0,0,-1,1483,1625,6.42711,-2.61985
266,-601,6.75317,1.68701,0,0,0,0,0,0,0,-1,1490,1625,6.75323,-1.687
273,-601,5.4314,2.92053,0,0,0,0,0,0,0,-1,1497,1625,5.43144,-2.92051
280,-601,4.64722,1.17786,0,0,0,0,0,0,0,-1,1504,1625,4.64722,-1.1779
287,-601,5.32532,2.6217,0,0,0,0,0,0,0,-1,1511,1625,5.32535,-2.62171
294,-601,5.97693,4.22693,0,0,0,0,0,0,0,-1,1518,1625,5.97697,-4.22694
301,-601,7.28162,9.50024,0,0,0,0,0,0,0,-1,1525,1625,7.28162,-9.50025
308,-601,6.53528,10.3927,0,0,0,0,0,0,0,-1,1532,1625,6.53529,-10.3927
315,-601,4.88013,11.7184,0,0,0,0,0,0,0,-1,1539,1625,4.88015,-11.7184
322,-601,3.38098,12.7864,0,0,0,0,0,0,0,-1,1546,1625,3.38104,-12.7864
329,-601,1.8772,13.8768,0,0,0,0,0,0,0,-1,1553,1625,1.87716,-13.8768
336,-601,4.67847,9.53308,0,0,0,0,0,0,0,-1,1560,1625,4.67848,-9.53309
343,-601,11.1404,3.14575,0,0,0,0,0,0,0,-1,1567,1625,11.1404,-3.1458
350,-601,22.2609,65.0352,0,0,0,0,0,0,0,-1,1574,1625,22.2608,-65.0352
357,-601,22.0867,63.3602,0,0,0,0,0,0,0,-1,1581,1625,22.0867,-63.3603
364,-601,20.9148,63.1563,0,0,0,0,0,0,0,-1,1588,1625,20.9148,-63.1563
371,-601,25.7045,110.517,0,0,0,0,0,0,0,-1,1595,1625,25.7044,-110.517
378,-601,26.113,103.917,0,0,0,0,0,0,0,-1,1602,1625,26.113,-103.918
385,-601,25.7329,93.0115,0,0,0,0,0,0,0,-1,1609,1625,25.7329,-93.0114
392,-601,27.6798,117.651,0,0,0,0,0,0,0,-1,1616,1625,27.6798,-117.651
399,-601,30.7197,156.291,0,0,0,0,0,0,0,-1,1623,1625,30.7197,-156.291
406,-601,70.2813,242.531,0,0,0,0,0,0,0,-1,1630,1625,70.2813,-242.531
413,-601,70.0918,238.877,0,0,0,0,0,0,0,-1,1637,1625,70.0918,-238.877
420,-601,69.8527,235.298,0.0708552,0.00233317,0.0523344,0.0991458,-0.0259574,0.495577,0.0762372,0.0281125,1644,1625,69.8526,-235.298
427,-601,69.4335,231.432,0.0659044,0.00340673,0.0498773,0.0935133,-0.0242022,0.505554,0.0717827,0.0243521,1651,1625,69.4335,-231.432
434,-601,68.7256,227.756,0.0613023,0.00404487,0.0476682,0.0882781,-0.0229309,0.514974,0.0678008,0.0225653,1658,1625,68.7255,-227.756
441,-601,67.993,223.964,0.0566089,0.0047118,0.045213,0.0827904,-0.0214697,0.524888,0.0635704,0.025627,1665,1625,67.9931,-223.964
448,-601,67.3738,220.077,0,0,0,0,0,0,0,-1,1672,1625,67.3737,-220.077
455,-601,66.6284,215.947,0.0479676,0.00564056,0.039412,0.0715389,-0.0179307,0.539001,0.0546588,0.0440187,1679,1625,66.6284,-215.947
462,-601,65.9131,212.12,0.0440763,0.00593445,0.0364306,0.0661258,-0.016115,0.544268,0.0503231,0.0230668,1686,1625,65.9131,-212.12
469,-601,65.0662,208.157,0.0404533,0.00612887,0.0334015,0.0608438,-0.0142616,0.548079,0.0460584,0.0197607,1693,1625,65.0661,-208.157
476,-601,64.0492,204.036,0.0370058,0.00603552,0.030478,0.0557069,-0.0126656,0.550354,0.0420013,0.0221351,1700,1625,64.0491,-204.036
483,-601,62.9436,199.884,0.033768,0.00583047,0.0277302,0.0508491,-0.0112506,0.552082,0.0382058,0.0229779,1707,1625,62.9436,-199.884
490,-601,61.7843,195.634,0.0304863,0.00548558,0.0249889,0.045927,-0.00995517,0.55348,0.0344197,0.020067,1714,1625,61.7843,-195.634
497,-601,60.5693,191.457,0.0272222,0.00493772,0.0224583,0.0411503,-0.00899043,0.555125,0.0308699,0.0354822,1721,1625,60.5693,-191.457
504,-601,59.3379,187.177,0,0,0,0,0,0,0,-1,1728,1625,59.3378,-187.177
511,-601,24.7172,89.2206,0,0,0,0,0,0,0,-1,1735,1625,24.7171,-89.2206
518,-601,22.5652,60.4095,0,0,0,0,0,0,0,-1,1742,1625,22.5652,-60.4096
525,-601,21.0905,50.1962,0,0,0,0,0,0,0,-1,1749,1625,21.0905,-50.1961
532,-601,15.9053,24.3068,0,0,0,0,0,0,0,-1,1756,1625,15.9053,-24.3067
539,-601,7.77112,11.4299,0,0,0,0,0,0,0,-1,1763,1625,7.77116,-11.4299
546,-601,6.56873,3.62354,0,0,0,0,0,0,0,-1,1770,1625,6.56867,-3.62352
553,-601,7.03015,4.25049,0,0,0,0,0,0,0,-1,1777,1625,7.03011,-4.25048
560,-601,7.50745,4.83374,0,0,0,0,0,0,0,-1,1784,1625,7.50744,-4.83376
567,-601,7.82043,3.83301,0,0,0,0,0,0,0,-1,1791,1625,7.82041,-3.83303
574,-601,0,0,0,0,0,0,0,0,0,-1,1798,1625,0,0
581,-601,0,0,0,0,0,0,0,0,0,-1,1805,1625,0,0
588,-601,0,0,0,0,0,0,0,0,0,-1,1812,1625,0,0
595,-601,0,0,0,0,0,0,0,0,0,-1,1819,1625,0,0
602,-601,0,0,0,0,0,0,0,0,0,-1,1826,1625,0,0
609,-601,0,0,0,0,0,0,0,0,0,-1,1833,1625,0,0
616,-601,0,0,0,0,0,0,0,0,0,-1,1840,1625,0,0
623,-601,0,0,0,0,0,0,0,0,0,-1,1847,1625,0,0
630,-601,0,0,0,0,0,0,0,0,0,-1,1854,1625,0,0
637,-601,0,0,0,0,0,0,0,0,0,-1,1861,1625,0,0
644,-601,0,0,0,0,0,0,0,0,0,-1,1868,1625,0,0
651,-601,0,0,0,0,0,0,0,0,0,-1,1875,1625,0,0
658,-601,0,0,0,0,0,0,0,0,0,-1,1882,1625,0,0
665,-601,0,0,0,0,0,0,0,0,0,-1,1889,1625,0,0
672,-601,0,0,0,0,0,0,0,0,0,-1,1896,1625,0,0
679,-601,0,0,0,0,0,0,0,0,0,-1,1903,1625,0,0
686,-601,0,0,0,0,0,0,0,0,0,-1,1910,1625,0,0
693,-601,0,0,0,0,0,0,0,0,0,-1,1917,1625,0,0
700,-601,0,0,0,0,0,0,0,0,0,-1,1924,1625,0,0
707,-601,0,0,0,0,0,0,0,0,0,-1,1931,1625,0,0
714,-601,0,0,0,0,0,0,0,0,0,-1,1938,1625,0,0
721,-601,0,0,0,0,0,0,0,0,0,-1,1945,1625,0,0
728,-601,0,0,0,0,0,0,0,0,0,-1,1952,1625,0,0
735,-601,0,0,0,0,0,0,0,0,0,-1,1959,1625,0,0
742,-601,0,0,0,0,0,0,0,0,0,-1,1966,1625,0,0
749,-601,0,0,0,0,0,0,0,0,0,-1,1973,1625,0,0
756,-601,0,0,0,0,0,0,0,0,0,-1,1980,1625,0,0
763,-601,0,0,0,0,0,0,0,0,0,-1,1987,1625,0,0
770,-601,0,0,0,0,0,0,0,0,0,-1,1994,1625,0,0
777,-601,0,0,0,0,0,0,0,0,0,-1,2001,1625,0,0
784,-601,0,0,0,0,0,0,0,0,0,-1,2008,1625,0,0
791,-601,0,0,0,0,0,0,0,0,0,-1,2015,1625,0,0
798,-601,0,0,0,0,0,0,0,0,0,-1,2022,1625,0,0
805,-601,0,0,0,0,0,0,0,0,0,-1,2029,1625,0,0
812,-601,0,0,0,0,0,0,0,0,0,-1,2036,1625,0,0
-700,-608,0,0,0,0,0,0,0,0,0,-1,524,1632,0,0
-693,-608,0,0,0,0,0,0,0,0,0,-1,531,1632,0,0
-686,-608,0,0,0,0,0,0,0,0,0,-1,538,1632,0,0
-679,-608,0,0,0,0,0,0,0,0,0,-1,545,1632,0,0
-672,-608,0,0,0,0,0,0,0,0,0,-1,552,1632,0,0
-665,-608,0,0,0,0,0,0,0,0,0,-1,559,1632,0,0
-658,-608,0,0,0,0,0,0,0,0,0,-1,566,1632,0,0
-651,-608,0,0,0,0,0,0,0,0,0,-1,573,1632,0,0
-644,-608,0,0,0,0,0,0,0,0,0,-1,580,1632,0,0
-637,-608,0,0,0,0,0,0,0,0,0,-1,587,1632,0,0
-630,-608,0,0,0,0,0,0,0,0,0,-1,594,1632,0,0
-623,-608,0,0,0,0,0,0,0,0,0,-1,601,1632,0,0
-616,-608,0,0,0,0,0,0,0,0,0,-1,608,1632,0,0
-609,-608,0,0,0,0,0,0,0,0,0,-1,615,1632,0,0
-602,-608,0,0,0,0,0,0,0,0,0,-1,622,1632,0,0
-595,-608,0,0,0,0,0,0,0,0,0,-1,629,1632,0,0
-588,-608,0,0,0,0,0,0,0,0,0,-1,636,1632,0,0
-581,-608,0,0,0,0,0,0,0,0,0,-1,643,1632,0,0
-574,-608,0,0,0,0,0,0,0,0,0,-1,650,1632,0,0
-567,-608,0,0,0,0,0,0,0,0,0,-1,657,1632,0,0
-560,-608,0,0,0,0,0,0,0,0,0,-1,664,1632,0,0
-553,-608,0,0,0,0,0,0,0,0,0,-1,671,1632,0,0
-546,-608,0,0,0,0,0,0,0,0,0,-1,678,1632,0,0
-539,-608,0,0,0,0,0,0,0,0,0,-1,685,1632,0,0
-532,-608,0,0,0,0,0,0,0,0,0,-1,692,1632,0,0
-525,-608,0,0,0,0,0,0,0,0,0,-1,699,1632,0,0
-518,-608,0,0,0,0,0,0,0,0,0,-1,706,1632,0,0
-511,-608,0,0,0,0,0,0,0,0,0,-1,713,1632,0,0
-504,-608,0,0,0,0,0,0,0,0,0,-1,720,1632,0,0
-497,-608,0,0,0,0,0,0,0,0,0,-1,727,1632,0,0
-490,-608,0,0,0,0,0,0,0,0,0,-1,734,1632,0,0
-483,-608,0,0,0,0,0,0,0,0,0,-1,741,1632,0,0
-476,-608,0,0,0,0,0,0,0,0,0,-1,748,1632,0,0
-469,-608,0,0,0,0,0,0,0,0,0,-1,755,1632,0,0
-462,-608,0,0,0,0,0,0,0,0,0,-1,762,1632,0,0
-455,-608,0,0,0,0,0,0,0,0,0,-1,769,1632,0,0
-448,-608,0,0,0,0,0,0,0,0,0,-1,776,1632,0,0
-441,-608,-7.34601,2.78052,0,0,0,0,0,0,0,-1,783,1632,-7.346,-2.78056
-434,-608,-6.34558,3.27405,0,0,0,0,0,0,0,-1,790,1632,-6.34555,-3.27406
-427,-608,-7.74335,4.17688,0,0,0,0,0,0,0,-1,797,1632,-7.74334,-4.17693
-420,-608,-6.82794,4.34839,0,0,0,0,0,0,0,-1,804,1632,-6.82794,-4.34838
-413,-608,-5.41919,5.66138,0,0,0,0,0,0,0,-1,811,1632,-5.41917,-5.66133
-406,-608,-4.79681,4.98999,0,0,0,0,0,0,0,-1,818,1632,-4.79684,-4.98997
-399,-608,-2.60645,6.34167,0,0,0,0,0,0,0,-1,825,1632,-2.60643,-6.34169
-392,-608,2.08356,15.437,0,0,0,0,0,0,0,-1,832,1632,2.08354,-15.437
-385,-608,1.51526,31.5153,0,0,0,0,0,0,0,-1,839,1632,1.51527,-31.5153
-378,-608,0.340515,38.2742,0,0,0,0,0,0,0,-1,846,1632,0.340526,-38.2742
-371,-608,-2.89227,60.2308,0,0,0,0,0,0,0,-1,853,1632,-2.89227,-60.2308
-364,-608,-21.5961,167.835,0,0,0,0,0,0,0,-1,860,1632,-21.5962,-167.835
-357,-608,-41.0275,193.935,0,0,0,0,0,0,0,-1,867,1632,-41.0275,-193.935
-350,-608,-42.2572,197.962,0,0,0,0,0,0,0,-1,874,1632,-42.2572,-197.962
-343,-608,-42.8168,202.204,0.0542243,0.00678005,-0.054922,0.0903283,-0.029324,-0.581538,0.072012,0.0455138,881,1632,-42.8168,-202.204
-336,-608,-43.3971,205.997,0.0569936,0.00781797,-0.0568792,0.094372,-0.0295604,-0.581388,0.0747427,0.0328316,888,1632,-43.3971,-205.997
-329,-608,-44.2483,210.077,0.0602182,0.00889063,-0.0587085,0.0986272,-0.0295184,-0.579344,0.0774883,0.0275561,895,1632,-44.2483,-210.077
-322,-608,-45.0024,214.125,0.0637267,0.00946192,-0.0608634,0.103232,-0.030043,-0.575724,0.080721,0.0348686,902,1632,-45.0025,-214.125
-315,-608,-45.6844,217.913,0.067608,0.00944373,-0.0631041,0.108009,-0.0309573,-0.569474,0.0842429,0.0354488,909,1632,-45.6844,-217.913
-308,-608,-46.1234,221.816,0.0717852,0.00930575,-0.0656156,0.113218,-0.0321273,-0.563224,0.0881613,0.0362308,916,1632,-46.1234,-221.816
-301,-608,-46.4664,225.448,0,0,0,0,0,0,0,-1,923,1632,-46.4663,-225.448
-294,-608,-46.8096,229.019,0,0,0,0,0,0,0,-1,930,1632,-46.8096,-229.019
-287,-608,-47.508,232.888,0.0864329,0.00879896,-0.0749961,0.132062,-0.0368304,-0.546589,0.102547,0.0313787,937,1632,-47.508,-232.888
-280,-608,-47.6674,236.385,0.0915535,0.0085549,-0.0784295,0.138786,-0.0386779,-0.542059,0.107756,0.0295386,944,1632,-47.6674,-236.385
-273,-608,-47.6722,239.902,0,0,0,0,0,0,0,-1,951,1632,-47.6722,-239.902
-266,-608,-47.9756,243.093,0,0,0,0,0,0,0,-1,958,1632,-47.9756,-243.093
-259,-608,-46.5873,246.472,0,0,0,0,0,0,0,-1,965,1632,-46.5873,-246.472
-252,-608,-19.696,147.72,0,0,0,0,0,0,0,-1,972,1632,-19.6961,-147.72
-245,-608,-6.69507,93.6216,0,0,0,0,0,0,0,-1,979,1632,-6.69507,-93.6216
-238,-608,-4.35168,86.9574,0,0,0,0,0,0,0,-1,986,1632,-4.35168,-86.9574
-231,-608,-3.63574,80.2905,0,0,0,0,0,0,0,-1,993,1632,-3.63575,-80.2905
-224,-608,-5.05853,91.6997,0,0,0,0,0,0,0,-1,1000,1632,-5.0585,-91.6998
-217,-608,1.04419,12.8451,0,0,0,0,0,0,0,-1,1007,1632,1.04418,-12.8451
-210,-608,2.75903,15.9414,0,0,0,0,0,0,0,-1,1014,1632,2.75903,-15.9414
-203,-608,2.76776,16.217,0,0,0,0,0,0,0,-1,1021,1632,2.76773,-16.217
-196,-608,1.53955,18.6058,0,0,0,0,0,0,0,-1,1028,1632,1.53959,-18.6058
-189,-608,1.37634,19.119,0,0,0,0,0,0,0,-1,1035,1632,1.37634,-19.1191
-182,-608,2.89221,16.7092,0,0,0,0,0,0,0,-1,1042,1632,2.89224,-16.7093
-175,-608,0.219116,15.1643,0,0,0,0,0,0,0,-1,1049,1632,0.219173,-15.1644
-168,-608,0.000366211,9.48645,0,0,0,0,0,0,0,-1,1056,1632,0.000317105,-9.48648
-161,-608,2.27832,15.4423,0,0,0,0,0,0,0,-1,1063,1632,2.27826,-15.4423
-154,-608,1.3999,16.4037,0,0,0,0,0,0,0,-1,1070,1632,1.39987,-16.4037
-147,-608,2.4386,9.50317,0,0,0,0,0,0,0,-1,1077,1632,2.43858,-9.50313
-140,-608,2.60132,10.8401,0,0,0,0,0,0,0,-1,1084,1632,2.60134,-10.8401
-133,-608,3.2312,12.4738,0,0,0,0,0,0,0,-1,1091,1632,3.23116,-12.4738
-126,-608,3.76465,13.9644,0,0,0,0,0,0,0,-1,1098,1632,3.76466,-13.9644
-119,-608,4.28906,15.4196,0,0,0,0,0,0,0,-1,1105,1632,4.28911,-15.4195
-112,-608,0.745117,10.5587,0,0,0,0,0,0,0,-1,1112,1632,0.745145,-10.5587
-105,-608,-0.252319,1.42419,0,0,0,0,0,0,0,-1,1119,1632,-0.252331,-1.42418
-98,-608,-2.8595,3.0863,0,0,0,0,0,0,0,-1,1126,1632,-2.85948,-3.08625
-91,-608,-3.71948,1.73608,0,0,0,0,0,0,0,-1,1133,1632,-3.7195,-1.73607
-84,-608,0,0,0,0,0,0,0,0,0,-1,1140,1632,0,0
-77,-608,0,0,0,0,0,0,0,0,0,-1,1147,1632,0,0
-70,-608,0,0,0,0,0,0,0,0,0,-1,1154,1632,0,0
-63,-608,0,0,0,0,0,0,0,0,0,-1,1161,1632,0,0
-56,-608,0,0,0,0,0,0,0,0,0,-1,1168,1632,0,0
-49,-608,0,0,0,0,0,0,0,0,0,-1,1175,1632,0,0
-42,-608,0,0,0,0,0,0,0,0,0,-1,1182,1632,0,0
-35,-608,0,0,0,0,0,0,0,0,0,-1,1189,1632,0,0
-28,-608,0,0,0,0,0,0,0,0,0,-1,1196,1632,0,0
-21,-608,0,0,0,0,0,0,0,0,0,-1,1203,1632,0,0
-14,-608,0,0,0,0,0,0,0,0,0,-1,1210,1632,0,0
-7,-608,0,0,0,0,0,0,0,0,0,-1,1217,1632,0,0
0,-608,0,0,0,0,0,0,0,0,0,-1,1224,1632,0,0
7,-608,0,0,0,0,0,0,0,0,0,-1,1231,1632,0,0
14,-608,0,0,0,0,0,0,0,0,0,-1,1238,1632,0,0
21,-608,0,0,0,0,0,0,0,0,0,-1,1245,1632,0,0
28,-608,0,0,0,0,0,0,0,0,0,-1,1252,1632,0,0
35,-608,0,0,0,0,0,0,0,0,0,-1,1259,1632,0,0
42,-608,0,0,0,0,0,0,0,0,0,-1,1266,1632,0,0
49,-608,0,0,0,0,0,0,0,0,0,-1,1273,1632,0,0
56,-608,0,0,0,0,0,0,0,0,0,-1,1280,1632,0,0
63,-608,0,0,0,0,0,0,0,0,0,-1,1287,1632,0,0
70,-608,0,0,0,0,0,0,0,0,0,-1,1294,1632,0,0
77,-608,0,0,0,0,0,0,0,0,0,-1,1301,1632,0,0
84,-608,0,0,0,0,0,0,0,0,0,-1,1308,1632,0,0
91,-608,0,0,0,0,0,0,0,0,0,-1,1315,1632,0,0
98,-608,0,0,0,0,0,0,0,0,0,-1,1322,1632,0,0
105,-608,0,0,0,0,0,0,0,0,0,-1,1329,1632,0,0
112,-608,0,0,0,0,0,0,0,0,0,-1,1336,1632,0,0
119,-608,0,0,0,0,0,0,0,0,0,-1,1343,1632,0,0
126,-608,0,0,0,0,0,0,0,0,0,-1,1350,1632,0,0
133,-608,0,0,0,0,0,0,0,0,0,-1,1357,1632,0,0
140,-608,0,0,0,0,0,0,0,0,0,-1,1364,1632,0,0
147,-608,0,0,0,0,0,0,0,0,0,-1,1371,1632,0,0
154,-608,0,0,0,0,0,0,0,0,0,-1,1378,1632,0,0
161,-608,0,0,0,0,0,0,0,0,0,-1,1385,1632,0,0
168,-608,0,0,0,0,0,0,0,0,0,-1,1392,1632,0,0
175,-608,0,0,0,0,0,0,0,0,0,-1,1399,1632,0,0
182,-608,0,0,0,0,0,0,0,0,0,-1,1406,1632,0,0
189,-608,0,0,0,0,0,0,0,0,0,-1,1413,1632,0,0
196,-608,0,0,0,0,0,0,0,0,0,-1,1420,1632,0,0
203,-608,0,0,0,0,0,0,0,0,0,-1,1427,1632,0,0
210,-608,5.7157,-0.333008,0,0,0,0,0,0,0,-1,1434,1632,5.71566,0.333004
217,-608,4.49402,-0.831787,0,0,0,0,0,0,0,-1,1441,1632,4.49396,0.831738
224,-608,4.18018,-1.11792,0,0,0,0,0,0,0,-1,1448,1632,4.1802,1.11796
231,-608,0.361816,0.825195,0,0,0,0,0,0,0,-1,1455,1632,0.36185,-0.825226
238,-608,2.85388,-0.28833,0,0,0,0,0,0,0,-1,1462,1632,2.85391,0.288282
245,-608,3.87537,4.02173,0,0,0,0,0,0,0,-1,1469,1632,3.87538,-4.02168
252,-608,5.66956,3.5282,0,0,0,0,0,0,0,-1,1476,1632,5.6696,-3.52815
259,-608,7.47437,3.07178,0,0,0,0,0,0,0,-1,1483,1632,7.4744,-3.07172
266,-608,9.46936,2.34766,0,0,0,0,0,0,0,-1,1490,1632,9.46932,-2.34764
273,-608,6.03003,3.34241,0,0,0,0,0,0,0,-1,1497,1632,6.02997,-3.34245
280,-608,5.72461,2.0769,0,0,0,0,0,0,0,-1,1504,1632,5.72457,-2.07688
287,-608,6.20581,3.59338,0,0,0,0,0,0,0,-1,1511,1632,6.20585,-3.59341
294,-608,6.94922,5.17151,0,0,0,0,0,0,0,-1,1518,1632,6.94925,-5.17151
301,-608,7.60083,6.68018,0,0,0,0,0,0,0,-1,1525,1632,7.60086,-6.68013
308,-608,7.64746,9.93848,0,0,0,0,0,0,0,-1,1532,1632,7.64745,-9.93842
315,-608,5.30688,11.2054,0,0,0,0,0,0,0,-1,1539,1632,5.30694,-11.2054
322,-608,5.32617,13.7581,0,0,0,0,0,0,0,-1,1546,1632,5.32613,-13.758
329,-608,7.12231,13.9607,0,0,0,0,0,0,0,-1,1553,1632,7.12231,-13.9607
336,-608,5.48633,7.82446,0,0,0,0,0,0,0,-1,1560,1632,5.48634,-7.82446
343,-608,5.47192,5.61047,0,0,0,0,0,0,0,-1,1567,1632,5.47192,-5.61045
350,-608,20.215,64.3408,0,0,0,0,0,0,0,-1,1574,1632,20.2149,-64.3408
357,-608,20.1851,63.2336,0,0,0,0,0,0,0,-1,1581,1632,20.1851,-63.2337
364,-608,24.6505,112.798,0,0,0,0,0,0,0,-1,1588,1632,24.6505,-112.798
371,-608,24.809,112.369,0,0,0,0,0,0,0,-1,1595,1632,24.809,-112.369
378,-608,29.3972,162.128,0,0,0,0,0,0,0,-1,1602,1632,29.3973,-162.128
385,-608,30.738,173.629,0,0,0,0,0,0,0,-1,1609,1632,30.738,-173.629
392,-608,32.4698,196.609,0,0,0,0,0,0,0,-1,1616,1632,32.4698,-196.609
399,-608,66.8523,247.101,0,0,0,0,0,0,0,-1,1623,1632,66.8523,-247.101
406,-608,66.5049,243.568,0.0768721,0.00243774,0.0528466,0.104291,-0.0249816,0.478612,0.0791796,0.0348544,1630,1632,66.5049,-243.568
413,-608,66.1224,240.04,0.0718218,0.00272467,0.0509703,0.0988491,-0.0243025,0.487557,0.0753187,0.0228429,1637,1632,66.1225,-240.04
420,-608,65.7556,236.487,0.06621,0.00309683,0.0488007,0.0927682,-0.0234614,0.498393,0.0709706,0.0376136,1644,1632,65.7556,-236.487
427,-608,65.3682,232.746,0.0612848,0.00385375,0.0463038,0.0870544,-0.0219158,0.507844,0.0665554,0.0308083,1651,1632,65.3682,-232.746
434,-608,64.7052,229.042,0.0567333,0.0044128,0.0439002,0.0816768,-0.0205307,0.516698,0.0624303,0.0206148,1658,1632,64.7052,-229.042
441,-608,64.0295,225.311,0.0522354,0.00508937,0.0412597,0.0761813,-0.0188565,0.525861,0.0581021,0.0204321,1665,1632,64.0295,-225.311
448,-608,63.3445,221.431,0.0479792,0.00559015,0.0383506,0.0706022,-0.0170329,0.53296,0.0536547,0.0202294,1672,1632,63.3445,-221.431
455,-608,62.4952,217.514,0.0439808,0.0060397,0.0353996,0.0651725,-0.0151521,0.539423,0.0492817,0.0154082,1679,1632,62.4953,-217.514
462,-608,61.6532,213.52,0.0401357,0.00643051,0.0323809,0.0597869,-0.0132208,0.545462,0.0449182,0.0178781,1686,1632,61.6532,-213.52
469,-608,60.7371,209.519,0.0365203,0.00671613,0.0293551,0.0545393,-0.0113028,0.550524,0.0406543,0.0149856,1693,1632,60.737,-209.519
476,-608,59.7144,205.479,0.0332024,0.00673887,0.0264421,0.0495386,-0.00959737,0.553413,0.0366462,0.0136004,1700,1632,59.7143,-205.479
483,-608,58.6162,201.34,0.0298798,0.00654283,0.0236919,0.0446208,-0.00819817,0.55658,0.032823,0.0121035,1707,1632,58.6162,-201.34
490,-608,57.4434,197.071,0.0262441,0.00625058,0.0208757,0.0393932,-0.0068985,0.562097,0.028838,0.0283348,1714,1632,57.4433,-197.071
497,-608,56.3009,192.764,0,0,0,0,0,0,0,-1,1721,1632,56.3009,-192.764
504,-608,23.4728,87.6309,0,0,0,0,0,0,0,-1,1728,1632,23.4728,-87.6308
511,-608,19.2942,47.2458,0,0,0,0,0,0,0,-1,1735,1632,19.2942,-47.2458
518,-608,18.8019,37.4651,0,0,0,0,0,0,0,-1,1742,1632,18.8019,-37.4651
525,-608,11.2109,16.2579,0,0,0,0,0,0,0,-1,1749,1632,11.2109,-16.2579
532,-608,8.27917,11.6693,0,0,0,0,0,0,0,-1,1756,1632,8.27919,-11.6694
539,-608,9.40796,1.43457,0,0,0,0,0,0,0,-1,1763,1632,9.40801,-1.43463
546,-608,9.94031,2.1134,0,0,0,0,0,0,0,-1,1770,1632,9.94031,-2.11346
553,-608,10.363,2.81335,0,0,0,0,0,0,0,-1,1777,1632,10.3631,-2.81333
560,-608,9.23999,4.5636,0,0,0,0,0,0,0,-1,1784,1632,9.24,-4.56354
567,-608,0,0,0,0,0,0,0,0,0,-1,1791,1632,0,0
574,-608,0,0,0,0,0,0,0,0,0,-1,1798,1632,0,0
581,-608,0,0,0,0,0,0,0,0,0,-1,1805,1632,0,0
588,-608,0,0,0,0,0,0,0,0,0,-1,1812,1632,0,0
595,-608,0,0,0,0,0,0,0,0,0,-1,1819,1632,0,0
602,-608,0,0,0,0,0,0,0,0,0,-1,1826,1632,0,0
609,-608,0,0,0,0,0,0,0,0,0,-1,1833,1632,0,0
616,-608,0,0,0,0,0,0,0,0,0,-1,1840,1632,0,0
623,-608,0,0,0,0,0,0,0,0,0,-1,1847,1632,0,0
630,-608,0,0,0,0,0,0,0,0,0,-1,1854,1632,0,0
637,-608,0,0,0,0,0,0,0,0,0,-1,1861,1632,0,0
644,-608,0,0,0,0,0,0,0,0,0,-1,1868,1632,0,0
651,-608,0,0,0,0,0,0,0,0,0,-1,1875,1632,0,0
658,-608,0,0,0,0,0,0,0,0,0,-1,1882,1632,0,0
665,-608,0,0,0,0,0,0,0,0,0,-1,1889,1632,0,0
672,-608,0,0,0,0,0,0,0,0,0,-1,1896,1632,0,0
679,-608,0,0,0,0,0,0,0,0,0,-1,1903,1632,0,0
686,-608,0,0,0,0,0,0,0,0,0,-1,1910,1632,0,0
693,-608,0,0,0,0,0,0,0,0,0,-1,1917,1632,0,0
700,-608,0,0,0,0,0,0,0,0,0,-1,1924,1632,0,0
707,-608,0,0,0,0,0,0,0,0,0,-1,1931,1632,0,0
714,-608,0,0,0,0,0,0,0,0,0,-1,1938,1632,0,0
721,-608,0,0,0,0,0,0,0,0,0,-1,1945,1632,0,0
728,-608,0,0,0,0,0,0,0,0,0,-1,1952,1632,0,0
735,-608,0,0,0,0,0,0,0,0,0,-1,1959,1632,0,0
742,-608,0,0,0,0,0,0,0,0,0,-1,1966,1632,0,0
749,-608,0,0,0,0,0,0,0,0,0,-1,1973,1632,0,0
756,-608,0,0,0,0,0,0,0,0,0,-1,1980,1632,0,0
763,-608,0,0,0,0,0,0,0,0,0,-1,1987,1632,0,0
770,-608,0,0,0,0,0,0,0,0,0,-1,1994,1632,0,0
777,-608,0,0,0,0,0,0,0,0,0,-1,2001,1632,0,0
784,-608,0,0,0,0,0,0,0,0,0,-1,2008,1632,0,0
791,-608,0,0,0,0,0,0,0,0,0,-1,2015,1632,0,0
798,-608,0,0,0,0,0,0,0,0,0,-1,2022,1632,0,0
805,-608,0,0,0,0,0,0,0,0,0,-1,2029,1632,0,0
812,-608,0,0,0,0,0,0,0,0,0,-1,2036,1632,0,0
-700,-615,0,0,0,0,0,0,0,0,0,-1,524,1639,0,0
-693,-615,0,0,0,0,0,0,0,0,0,-1,531,1639,0,0
-686,-615,0,0,0,0,0,0,0,0,0,-1,538,1639,0,0
-679,-615,0,0,0,0,0,0,0,0,0,-1,545,1639,0,0
-672,-615,0,0,0,0,0,0,0,0,0,-1,552,1639,0,0
-665,-615,0,0,0,0,0,0,0,0,0,-1,559,1639,0,0
-658,-615,0,0,0,0,0,0,0,0,0,-1,566,1639,0,0
-651,-615,0,0,0,0,0,0,0,0,0,-1,573,1639,0,0
-644,-615,0,0,0,0,0,0,0,0,0,-1,580,1639,0,0
-637,-615,0,0,0,0,0,0,0,0,0,-1,587,1639,0,0
-630,-615,0,0,0,0,0,0,0,0,0,-1,594,1639,0,0
-623,-615,0,0,0,0,0,0,0,0,0,-1,601,1639,0,0
-616,-615,0,0,0,0,0,0,0,0,0,-1,608,1639,0,0
-609,-615,0,0,0,0,0,0,0,0,0,-1,615,1639,0,0
-602,-615,0,0,0,0,0,0,0,0,0,-1,622,1639,0,0
-595,-615,0,0,0,0,0,0,0,0,0,-1,629,1639,0,0
-588,-615,0,0,0,0,0,0,0,0,0,-1,636,1639,0,0
-581,-615,0,0,0,0,0,0,0,0,0,-1,643,1639,0,0
-574,-615,0,0,0,0,0,0,0,0,0,-1,650,1639,0,0
-567,-615,0,0,0,0,0,0,0,0,0,-1,657,1639,0,0
-560,-615,0,0,0,0,0,0,0,0,0,-1,664,1639,0,0
-553,-615,0,0,0,0,0,0,0,0,0,-1,671,1639,0,0
-546,-615,0,0,0,0,0,0,0,0,0,-1,678,1639,0,0
-539,-615,0,0,0,0,0,0,0,0,0,-1,685,1639,0,0
-532,-615,0,0,0,0,0,0,0,0,0,-1,692,1639,0,0
-525,-615,0,0,0,0,0,0,0,0,0,-1,699,1639,0,0
-518,-615,0,0,0,0,0,0,0,0,0,-1,706,1639,0,0
-511,-615,0,0,0,0,0,0,0,0,0,-1,713,1639,0,0
-504,-615,0,0,0,0,0,0,0,0,0,-1,720,1639,0,0
-497,-615,0,0,0,0,0,0,0,0,0,-1,727,1639,0,0
-490,-615,0,0,0,0,0,0,0,0,0,-1,734,1639,0,0
-483,-615,0,0,0,0,0,0,0,0,0,-1,741,1639,0,0
-476,-615,0,0,0,0,0,0,0,0,0,-1,748,1639,0,0
-469,-615,0,0,0,0,0,0,0,0,0,-1,755,1639,0,0
-462,-615,0,0,0,0,0,0,0,0,0,-1,762,1639,0,0
-455,-615,0,0,0,0,0,0,0,0,0,-1,769,1639,0,0
-448,-615,0,0,0,0,0,0,0,0,0,-1,776,1639,0,0
-441,-615,0,0,0,0,0,0,0,0,0,-1,783,1639,0,0
-434,-615,-7.64508,2.98596,0,0,0,0,0,0,0,-1,790,1639,-7.64505,-2.98594
-427,-615,-9.0011,2.89404,0,0,0,0,0,0,0,-1,797,1639,-9.00107,-2.89399
-420,-615,-8.07568,3.0752,0,0,0,0,0,0,0,-1,804,1639,-8.07569,-3.07514
-413,-615,-7.09149,3.396,0,0,0,0,0,0,0,-1,811,1639,-7.09147,-3.39599
-406,-615,-6.21368,3.7312,0,0,0,0,0,0,0,-1,818,1639,-6.21366,-3.73114
-399,-615,-4.84875,3.91907,0,0,0,0,0,0,0,-1,825,1639,-4.84877,-3.91901
-392,-615,1.7395,13.3127,0,0,0,0,0,0,0,-1,832,1639,1.73953,-13.3128
-385,-615,3.42297,14.9401,0,0,0,0,0,0,0,-1,839,1639,3.42296,-14.94
-378,-615,1.50134,37.1793,0,0,0,0,0,0,0,-1,846,1639,1.50132,-37.1793
-371,-615,-0.743164,48.5927,0,0,0,0,0,0,0,-1,853,1639,-0.743134,-48.5926
-364,-615,-2.22162,61.8123,0,0,0,0,0,0,0,-1,860,1639,-2.22161,-61.8122
-357,-615,-14.6611,120.546,0,0,0,0,0,0,0,-1,867,1639,-14.661,-120.546
-350,-615,-19.8453,174.03,0,0,0,0,0,0,0,-1,874,1639,-19.8453,-174.03
-343,-615,-38.2858,203.927,0,0,0,0,0,0,0,-1,881,1639,-38.2858,-203.927
-336,-615,-39.0878,207.655,0.0530279,0.0069843,-0.0530774,0.0878612,-0.027849,-0.580773,0.069736,0.0192128,888,1639,-39.0878,-207.655
-329,-615,-39.8425,211.668,0.0561398,0.00841125,-0.0547919,0.0920389,-0.0274878,-0.580015,0.0722855,0.0250355,895,1639,-39.8425,-211.668
-322,-615,-40.4502,215.603,0.0594667,0.00927507,-0.0568855,0.0965461,-0.0278043,-0.577657,0.0753618,0.0309852,902,1639,-40.4502,-215.603
-315,-615,-41.1771,219.357,0.0630963,0.00944039,-0.0589485,0.101035,-0.0284979,-0.571851,0.0785971,0.0360664,909,1639,-41.1771,-219.357
-308,-615,-41.2993,223.522,0,0,0,0,0,0,0,-1,916,1639,-41.2993,-223.522
-301,-615,-41.4991,226.883,0,0,0,0,0,0,0,-1,923,1639,-41.4991,-226.883
-294,-615,-42.6422,230.437,0.0762903,0.00885994,-0.0670874,0.117658,-0.0325077,-0.552553,0.091226,0.020217,930,1639,-42.6421,-230.437
-287,-615,-43.309,234.102,0.0811006,0.00859989,-0.0701066,0.123774,-0.0340739,-0.546791,0.0959135,0.0248422,937,1639,-43.309,-234.102
-280,-615,-43.6835,237.612,0.0860809,0.00829183,-0.0732322,0.130106,-0.0357337,-0.541285,0.100783,0.0288234,944,1639,-43.6835,-237.612
-273,-615,-43.8176,240.973,0.0916223,0.00864678,-0.0760215,0.13674,-0.0364709,-0.535616,0.105441,0.0297225,951,1639,-43.8176,-240.973
-266,-615,-44.0304,244.405,0.0976568,0.00951526,-0.079018,0.144063,-0.0368909,-0.531019,0.110413,0.0328002,958,1639,-44.0304,-244.405
-259,-615,-44.2098,247.967,0,0,0,0,0,0,0,-1,965,1639,-44.2099,-247.967
-252,-615,-44.1296,251.156,0,0,0,0,0,0,0,-1,972,1639,-44.1296,-251.156
-245,-615,-25.5729,191.425,0,0,0,0,0,0,0,-1,979,1639,-25.5729,-191.425
-238,-615,-19.7418,158.524,0,0,0,0,0,0,0,-1,986,1639,-19.7418,-158.524
-231,-615,-11.2592,120.892,0,0,0,0,0,0,0,-1,993,1639,-11.2592,-120.892
-224,-615,-14.0591,136.41,0,0,0,0,0,0,0,-1,1000,1639,-14.0591,-136.41
-217,-615,-4.28967,93.3335,0,0,0,0,0,0,0,-1,1007,1639,-4.28968,-93.3335
-210,-615,2.48901,18.9324,0,0,0,0,0,0,0,-1,1014,1639,2.48902,-18.9323
-203,-615,2.13684,18.6173,0,0,0,0,0,0,0,-1,1021,1639,2.13683,-18.6173
-196,-615,4.27161,21.3264,0,0,0,0,0,0,0,-1,1028,1639,4.27165,-21.3264
-189,-615,0.55249,62.4188,0,0,0,0,0,0,0,-1,1035,1639,0.55247,-62.4188
-182,-615,2.98364,52.7119,0,0,0,0,0,0,0,-1,1042,1639,2.9836,-52.7119
-175,-615,2.25159,49.2682,0,0,0,0,0,0,0,-1,1049,1639,2.25158,-49.2682
-168,-615,3.85754,15.472,0,0,0,0,0,0,0,-1,1056,1639,3.85757,-15.472
-161,-615,2.14307,46.5156,0,0,0,0,0,0,0,-1,1063,1639,2.14303,-46.5156
-154,-615,1.37329,47.9545,0,0,0,0,0,0,0,-1,1070,1639,1.37327,-47.9545
-147,-615,0.0180664,48.1396,0,0,0,0,0,0,0,-1,1077,1639,0.0180157,-48.1397
-140,-615,3.73401,10.2349,0,0,0,0,0,0,0,-1,1084,1639,3.73402,-10.2348
-133,-615,2.6178,17.45,0,0,0,0,0,0,0,-1,1091,1639,2.61776,-17.4499
-126,-615,4.43408,12.5017,0,0,0,0,0,0,0,-1,1098,1639,4.43403,-12.5018
-119,-615,4.82983,13.9279,0,0,0,0,0,0,0,-1,1105,1639,4.82986,-13.9278
-112,-615,3.65698,14.4874,0,0,0,0,0,0,0,-1,1112,1639,3.65695,-14.4875
-105,-615,0.958496,2.45398,0,0,0,0,0,0,0,-1,1119,1639,0.958452,-2.45398
-98,-615,-0.647705,2.12109,0,0,0,0,0,0,0,-1,1126,1639,-0.647756,-2.12105
-91,-615,-3.07983,2.97375,0,0,0,0,0,0,0,-1,1133,1639,-3.07989,-2.97376
-84,-615,-2.46509,0.703247,0,0,0,0,0,0,0,-1,1140,1639,-2.46505,-0.703273
-77,-615,-3.17859,1.23755,0,0,0,0,0,0,0,-1,1147,1639,-3.17865,-1.23752
-70,-615,-4.03943,1.43335,0,0,0,0,0,0,0,-1,1154,1639,-4.03942,-1.43339
-63,-615,-4.8877,1.45544,0,0,0,0,0,0,0,-1,1161,1639,-4.88766,-1.45549
-56,-615,0,0,0,0,0,0,0,0,0,-1,1168,1639,0,0
-49,-615,0,0,0,0,0,0,0,0,0,-1,1175,1639,0,0
-42,-615,0,0,0,0,0,0,0,0,0,-1,1182,1639,0,0
-35,-615,0,0,0,0,0,0,0,0,0,-1,1189,1639,0,0
-28,-615,0,0,0,0,0,0,0,0,0,-1,1196,1639,0,0
-21,-615,0,0,0,0,0,0,0,0,0,-1,1203,1639,0,0
-14,-615,0,0,0,0,0,0,0,0,0,-1,1210,1639,0,0
-7,-615,0,0,0,0,0,0,0,0,0,-1,1217,1639,0,0
0,-615,0,0,0,0,0,0,0,0,0,-1,1224,1639,0,0
7,-615,0,0,0,0,0,0,0,0,0,-1,1231,1639,0,0
14,-615,0,0,0,0,0,0,0,0,0,-1,1238,1639,0,0
21,-615,0,0,0,0,0,0,0,0,0,-1,1245,1639,0,0
28,-615,0,0,0,0,0,0,0,0,0,-1,1252,1639,0,0
35,-615,0,0,0,0,0,0,0,0,0,-1,1259,1639,0,0
42,-615,0,0,0,0,0,0,0,0,0,-1,1266,1639,0,0
49,-615,0,0,0,0,0,0,0,0,0,-1,1273,1639,0,0
56,-615,0,0,0,0,0,0,0,0,0,-1,1280,1639,0,0
63,-615,0,0,0,0,0,0,0,0,0,-1,1287,1639,0,0
70,-615,0,0,0,0,0,0,0,0,0,-1,1294,1639,0,0
77,-615,0,0,0,0,0,0,0,0,0,-1,1301,1639,0,0
84,-615,0,0,0,0,0,0,0,0,0,-1,1308,1639,0,0
91,-615,0,0,0,0,0,0,0,0,0,-1,1315,1639,0,0
98,-615,0,0,0,0,0,0,0,0,0,-1,1322,1639,0,0
105,-615,0,0,0,0,0,0,0,0,0,-1,1329,1639,0,0
112,-615,0,0,0,0,0,0,0,0,0,-1,1336,1639,0,0
119,-615,0,0,0,0,0,0,0,0,0,-1,1343,1639,0,0
126,-615,0,0,0,0,0,0,0,0,0,-1,1350,1639,0,0
133,-615,0,0,0,0,0,0,0,0,0,-1,1357,1639,0,0
140,-615,0,0,0,0,0,0,0,0,0,-1,1364,1639,0,0
147,-615,0,0,0,0,0,0,0,0,0,-1,1371,1639,0,0
154,-615,0,0,0,0,0,0,0,0,0,-1,1378,1639,0,0
161,-615,0,0,0,0,0,0,0,0,0,-1,1385,1639,0,0
168,-615,0,0,0,0,0,0,0,0,0,-1,1392,1639,0,0
175,-615,5.39648,-2.00879,0,0,0,0,0,0,0,-1,1399,1639,5.3965,2.00881
182,-615,5.65393,-1.51025,0,0,0,0,0,0,0,-1,1406,1639,5.65388,1.51028
189,-615,5.58972,-1.35608,0,0,0,0,0,0,0,-1,1413,1639,5.58967,1.35607
196,-615,5.49915,-0.693604,0,0,0,0,0,0,0,-1,1420,1639,5.4991,0.693602
203,-615,5.33411,-0.226685,0,0,0,0,0,0,0,-1,1427,1639,5.33414,0.226689
210,-615,5.60278,0.108276,0,0,0,0,0,0,0,-1,1434,1639,5.60284,-0.10831
217,-615,6.26331,-0.307373,0,0,0,0,0,0,0,-1,1441,1639,6.26331,0.307372
224,-615,5.45422,-0.333984,0,0,0,0,0,0,0,-1,1448,1639,5.45422,0.333992
231,-615,4.92542,1.80298,0,0,0,0,0,0,0,-1,1455,1639,4.92537,-1.80297
238,-615,4.76355,1.96729,0,0,0,0,0,0,0,-1,1462,1639,4.76357,-1.96734
245,-615,4.08643,3.15906,0,0,0,0,0,0,0,-1,1469,1639,4.08638,-3.159
252,-615,6.37805,3.73889,0,0,0,0,0,0,0,-1,1476,1639,6.37806,-3.73891
259,-615,8.35974,3.16443,0,0,0,0,0,0,0,-1,1483,1639,8.35975,-3.16444
266,-615,10.3414,2.58997,0,0,0,0,0,0,0,-1,1490,1639,10.3414,-2.58996
273,-615,6.57043,1.84766,0,0,0,0,0,0,0,-1,1497,1639,6.5704,-1.84771
280,-615,7.10449,3.23438,0,0,0,0,0,0,0,-1,1504,1639,7.10447,-3.23435
287,-615,7.35779,4.68542,0,0,0,0,0,0,0,-1,1511,1639,7.35776,-4.68546
294,-615,7.63733,6.29114,0,0,0,0,0,0,0,-1,1518,1639,7.63735,-6.29109
301,-615,8.47925,11.452,0,0,0,0,0,0,0,-1,1525,1639,8.47922,-11.452
308,-615,6.8114,10.9059,0,0,0,0,0,0,0,-1,1532,1639,6.81137,-10.9058
315,-615,5.1427,14.7251,0,0,0,0,0,0,0,-1,1539,1639,5.14269,-14.7251
322,-615,7.17981,17.6864,0,0,0,0,0,0,0,-1,1546,1639,7.17985,-17.6864
329,-615,7.62134,20.4354,0,0,0,0,0,0,0,-1,1553,1639,7.62139,-20.4354
336,-615,6.45007,14.1138,0,0,0,0,0,0,0,-1,1560,1639,6.45011,-14.1138
343,-615,2.40491,6.50134,0,0,0,0,0,0,0,-1,1567,1639,2.40489,-6.50137
350,-615,22.3712,92.9357,0,0,0,0,0,0,0,-1,1574,1639,22.3712,-92.9357
357,-615,24.0944,105.165,0,0,0,0,0,0,0,-1,1581,1639,24.0943,-105.165
364,-615,23.6659,113.769,0,0,0,0,0,0,0,-1,1588,1639,23.666,-113.769
371,-615,27.1198,170.181,0,0,0,0,0,0,0,-1,1595,1639,27.1197,-170.181
378,-615,33.9603,228.618,0,0,0,0,0,0,0,-1,1602,1639,33.9604,-228.618
385,-615,62.7406,255.099,0,0,0,0,0,0,0,-1,1609,1639,62.7406,-255.099
392,-615,63.0228,251.613,0,0,0,0,0,0,0,-1,1616,1639,63.0229,-251.613
399,-615,63.0588,248.184,0,0,0,0,0,0,0,-1,1623,1639,63.0589,-248.184
406,-615,62.6259,244.696,0.0707616,0.0028868,0.0489921,0.0964226,-0.0227743,0.482489,0.073066,0.0179514,1630,1639,62.6258,-244.696
413,-615,62.2097,241.21,0.0661826,0.00314918,0.0471073,0.091344,-0.0220122,0.490576,0.0694068,0.0207081,1637,1639,62.2097,-241.21
420,-615,61.7305,237.738,0.0610732,0.00369738,0.0449338,0.0856961,-0.0209255,0.501292,0.0652344,0.0239645,1644,1639,61.7305,-237.738
427,-615,61.2683,234.038,0.0562848,0.00431503,0.0424235,0.080049,-0.0194491,0.510614,0.0608933,0.0244705,1651,1639,61.2684,-234.038
434,-615,60.6157,230.282,0.0518775,0.00489981,0.039871,0.0746642,-0.0178868,0.519207,0.056687,0.0200395,1658,1639,60.6157,-230.282
441,-615,59.995,226.602,0.0476492,0.00563362,0.0370759,0.0692554,-0.0159726,0.527643,0.0523136,0.0229024,1665,1639,59.995,-226.602
448,-615,59.2889,222.765,0.0436553,0.0062445,0.0341101,0.0638522,-0.0139524,0.534598,0.0479011,0.0207845,1672,1639,59.2889,-222.765
455,-615,58.3545,218.896,0.0398645,0.00684936,0.0311341,0.0585966,-0.0118827,0.541638,0.0435688,0.0183037,1679,1639,58.3545,-218.896
462,-615,57.4595,214.942,0.036175,0.00749463,0.0280628,0.0533493,-0.00967965,0.549193,0.0391932,0.0216587,1686,1639,57.4595,-214.942
469,-615,56.5145,210.927,0.0327097,0.00808022,0.0250626,0.0483196,-0.00752973,0.557043,0.0349941,0.0183391,1693,1639,56.5146,-210.927
476,-615,55.401,206.802,0.0297571,0.00850699,0.0222233,0.0437647,-0.00550061,0.56241,0.0311722,0.0229018,1700,1639,55.401,-206.802
483,-615,54.3674,202.645,0,0,0,0,0,0,0,-1,1707,1639,54.3675,-202.645
490,-615,53.1927,198.423,0,0,0,0,0,0,0,-1,1714,1639,53.1927,-198.423
497,-615,21.8047,89.4543,0,0,0,0,0,0,0,-1,1721,1639,21.8047,-89.4543
504,-615,16.4989,34.738,0,0,0,0,0,0,0,-1,1728,1639,16.4989,-34.738
511,-615,15.2349,30.2052,0,0,0,0,0,0,0,-1,1735,1639,15.2348,-30.2052
518,-615,13.2416,9.81812,0,0,0,0,0,0,0,-1,1742,1639,13.2416,-9.81813
525,-615,4.37524,3.90491,0,0,0,0,0,0,0,-1,1749,1639,4.37518,-3.90495
532,-615,7.3645,0.848145,0,0,0,0,0,0,0,-1,1756,1639,7.36451,-0.848093
539,-615,12.8112,-0.0476074,0,0,0,0,0,0,0,-1,1763,1639,12.8111,0.0475553
546,-615,8.33813,2.94556,0,0,0,0,0,0,0,-1,1770,1639,8.33813,-2.9455
553,-615,5.82532,-2.04199,0,0,0,0,0,0,0,-1,1777,1639,5.82534,2.04195
560,-615,0,0,0,0,0,0,0,0,0,-1,1784,1639,0,0
567,-615,0,0,0,0,0,0,0,0,0,-1,1791,1639,0,0
574,-615,0,0,0,0,0,0,0,0,0,-1,1798,1639,0,0
581,-615,0,0,0,0,0,0,0,0,0,-1,1805,1639,0,0
588,-615,0,0,0,0,0,0,0,0,0,-1,1812,1639,0,0
595,-615,0,0,0,0,0,0,0,0,0,-1,1819,1639,0,0
602,-615,0,0,0,0,0,0,0,0,0,-1,1826,1639,0,0
609,-615,0,0,0,0,0,0,0,0,0,-1,1833,1639,0,0
616,-615,0,0,0,0,0,0,0,0,0,-1,1840,1639,0,0
623,-615,0,0,0,0,0,0,0,0,0,-1,1847,1639,0,0
630,-615,0,0,0,0,0,0,0,0,0,-1,1854,1639,0,0
637,-615,0,0,0,0,0,0,0,0,0,-1,1861,1639,0,0
644,-615,0,0,0,0,0,0,0,0,0,-1,1868,1639,0,0
651,-615,0,0,0,0,0,0,0,0,0,-1,1875,1639,0,0
658,-615,0,0,0,0,0,0,0,0,0,-1,1882,1639,0,0
665,-615,0,0,0,0,0,0,0,0,0,-1,1889,1639,0,0
672,-615,0,0,0,0,0,0,0,0,0,-1,1896,1639,0,0
679,-615,0,0,0,0,0,0,0,0,0,-1,1903,1639,0,0
686,-615,0,0,0,0,0,0,0,0,0,-1,1910,1639,0,0
693,-615,0,0,0,0,0,0,0,0,0,-1,1917,1639,0,0
700,-615,0,0,0,0,0,0,0,0,0,-1,1924,1639,0,0
707,-615,0,0,0,0,0,0,0,0,0,-1,1931,1639,0,0
714,-615,0,0,0,0,0,0,0,0,0,-1,1938,1639,0,0
721,-615,0,0,0,0,0,0,0,0,0,-1,1945,1639,0,0
728,-615,0,0,0,0,0,0,0,0,0,-1,1952,1639,0,0
735,-615,0,0,0,0,0,0,0,0,0,-1,1959,1639,0,0
742,-615,0,0,0,0,0,0,0,0,0,-1,1966,1639,0,0
749,-615,0,0,0,0,0,0,0,0,0,-1,1973,1639,0,0
756,-615,0,0,0,0,0,0,0,0,0,-1,1980,1639,0,0
763,-615,0,0,0,0,0,0,0,0,0,-1,1987,1639,0,0
770,-615,0,0,0,0,0,0,0,0,0,-1,1994,1639,0,0
777,-615,0,0,0,0,0,0,0,0,0,-1,2001,1639,0,0
784,-615,0,0,0,0,0,0,0,0,0,-1,2008,1639,0,0
791,-615,0,0,0,0,0,0,0,0,0,-1,2015,1639,0,0
798,-615,0,0,0,0,0,0,0,0,0,-1,2022,1639,0,0
805,-615,0,0,0,0,0,0,0,0,0,-1,2029,1639,0,0
812,-615,0,0,0,0,0,0,0,0,0,-1,2036,1639,0,0
-700,-622,0,0,0,0,0,0,0,0,0,-1,524,1646,0,0
-693,-622,0,0,0,0,0,0,0,0,0,-1,531,1646,0,0
-686,-622,0,0,0,0,0,0,0,0,0,-1,538,1646,0,0
-679,-622,0,0,0,0,0,0,0,0,0,-1,545,1646,0,0
-672,-622,0,0,0,0,0,0,0,0,0,-1,552,1646,0,0
-665,-622,0,0,0,0,0,0,0,0,0,-1,559,1646,0,0
-658,-622,0,0,0,0,0,0,0,0,0,-1,566,1646,0,0
-651,-622,0,0,0,0,0,0,0,0,0,-1,573,1646,0,0
-644,-622,0,0,0,0,0,0,0,0,0,-1,580,1646,0,0
-637,-622,0,0,0,0,0,0,0,0,0,-1,587,1646,0,0
-630,-622,0,0,0,0,0,0,0,0,0,-1,594,1646,0,0
-623,-622,0,0,0,0,0,0,0,0,0,-1,601,1646,0,0
-616,-622,0,0,0,0,0,0,0,0,0,-1,608,1646,0,0
-609,-622,0,0,0,0,0,0,0,0,0,-1,615,1646,0,0
-602,-622,0,0,0,0,0,0,0,0,0,-1,622,1646,0,0
-595,-622,0,0,0,0,0,0,0,0,0,-1,629,1646,0,0
-588,-622,0,0,0,0,0,0,0,0,0,-1,636,1646,0,0
-581,-622,0,0,0,0,0,0,0,0,0,-1,643,1646,0,0
-574,-622,0,0,0,0,0,0,0,0,0,-1,650,1646,0,0
-567,-622,0,0,0,0,0,0,0,0,0,-1,657,1646,0,0
-560,-622,0,0,0,0,0,0,0,0,0,-1,664,1646,0,0
-553,-622,0,0,0,0,0,0,0,0,0,-1,671,1646,0,0
-546,-622,0,0,0,0,0,0,0,0,0,-1,678,1646,0,0
-539,-622,0,0,0,0,0,0,0,0,0,-1,685,1646,0,0
-532,-622,0,0,0,0,0,0,0,0,0,-1,692,1646,0,0
-525,-622,0,0,0,0,0,0,0,0,0,-1,699,1646,0,0
-518,-622,0,0,0,0,0,0,0,0,0,-1,706,1646,0,0
-511,-622,0,0,0,0,0,0,0,0,0,-1,713,1646,0,0
-504,-622,0,0,0,0,0,0,0,0,0,-1,720,1646,0,0
-497,-622,0,0,0,0,0,0,0,0,0,-1,727,1646,0,0
-490,-622,0,0,0,0,0,0,0,0,0,-1,734,1646,0,0
-483,-622,0,0,0,0,0,0,0,0,0,-1,741,1646,0,0
-476,-622,0,0,0,0,0,0,0,0,0,-1,748,1646,0,0
-469,-622,0,0,0,0,0,0,0,0,0,-1,755,1646,0,0
-462,-622,0,0,0,0,0,0,0,0,0,-1,762,1646,0,0
-455,-622,0,0,0,0,0,0,0,0,0,-1,769,1646,0,0
-448,-622,0,0,0,0,0,0,0,0,0,-1,776,1646,0,0
-441,-622,0,0,0,0,0,0,0,0,0,-1,783,1646,0,0
-434,-622,0,0,0,0,0,0,0,0,0,-1,790,1646,0,0
-427,-622,-7.62891,3.48096,0,0,0,0,0,0,0,-1,797,1646,-7.62892,-3.48092
-420,-622,-9.35791,1.77185,0,0,0,0,0,0,0,-1,804,1646,-9.35789,-1.77183
-413,-622,-8.46075,1.96777,0,0,0,0,0,0,0,-1,811,1646,-8.46074,-1.96774
-406,-622,-4.44318,2.16858,0,0,0,0,0,0,0,-1,818,1646,-4.44315,-2.16859
-399,-622,-7.06976,1.51001,0,0,0,0,0,0,0,-1,825,1646,-7.06976,-1.51005
-392,-622,3.89551,5.85376,0,0,0,0,0,0,0,-1,832,1646,3.8955,-5.85379
-385,-622,2.00543,14.0448,0,0,0,0,0,0,0,-1,839,1646,2.00544,-14.0448
-378,-622,1.49036,15.3436,0,0,0,0,0,0,0,-1,846,1646,1.49033,-15.3436
-371,-622,1.5274,38.0657,0,0,0,0,0,0,0,-1,853,1646,1.5274,-38.0657
-364,-622,-0.301086,49.736,0,0,0,0,0,0,0,-1,860,1646,-0.301086,-49.736
-357,-622,0.0578003,53.6583,0,0,0,0,0,0,0,-1,867,1646,0.0578109,-53.6584
-350,-622,-10.2404,105.288,0,0,0,0,0,0,0,-1,874,1646,-10.2404,-105.288
-343,-622,-20.3385,199.722,0,0,0,0,0,0,0,-1,881,1646,-20.3385,-199.722
-336,-622,-34.9759,209.255,0,0,0,0,0,0,0,-1,888,1646,-34.9759,-209.255
-329,-622,-35.5486,213.093,0.0517787,0.00796115,-0.0501905,0.0846338,-0.0248939,-0.579607,0.0662972,0.0274397,895,1646,-35.5486,-213.093
-322,-622,-36.1322,217.107,0.0549558,0.00912616,-0.0521459,0.0889996,-0.0249177,-0.578381,0.069152,0.0224395,902,1646,-36.1322,-217.107
-315,-622,-37.0435,220.789,0.0583213,0.0094408,-0.0539845,0.0931403,-0.0253782,-0.572839,0.0720583,0.0267473,909,1646,-37.0435,-220.789
-308,-622,-37.6751,224.459,0.0621356,0.00911796,-0.0562128,0.0977766,-0.026523,-0.565071,0.0755927,0.0298067,916,1646,-37.6751,-224.459
-301,-622,-38.1163,228.09,0.0664535,0.00869576,-0.0589075,0.10318,-0.0280309,-0.557493,0.0797889,0.0257219,923,1646,-38.1163,-228.09
-294,-622,-38.7051,231.756,0.0710458,0.00839288,-0.061708,0.108924,-0.0294848,-0.550521,0.0841831,0.0172718,930,1646,-38.7052,-231.756
-287,-622,-39.1155,235.271,0.0755825,0.00799244,-0.0644713,0.114579,-0.0310044,-0.543993,0.0885492,0.020282,937,1646,-39.1155,-235.271
-280,-622,-39.5062,238.773,0.0803865,0.0075438,-0.0673841,0.120562,-0.0326321,-0.537637,0.0931769,0.022309,944,1646,-39.5062,-238.773
-273,-622,-39.8656,242.27,0.0857586,0.00747974,-0.0700612,0.126872,-0.0336333,-0.53067,0.0977405,0.0309238,951,1646,-39.8656,-242.27
-266,-622,-40.0057,245.792,0.0916749,0.00759933,-0.072773,0.133679,-0.034405,-0.523484,0.10253,0.0315235,958,1646,-40.0057,-245.792
-259,-622,-40.086,249.262,0.0979746,0.00805588,-0.0750329,0.140487,-0.0344563,-0.515484,0.107009,0.0280228,965,1646,-40.086,-249.262
-252,-622,-40.1848,252.472,0.103795,0.00785584,-0.0760627,0.145751,-0.0341001,-0.504069,0.110305,0.0380304,972,1646,-40.1848,-252.472
-245,-622,-40.3304,256.167,0,0,0,0,0,0,0,-1,979,1646,-40.3304,-256.167
-238,-622,-22.9348,195.524,0,0,0,0,0,0,0,-1,986,1646,-22.9348,-195.524
-231,-622,-24.0745,197.491,0,0,0,0,0,0,0,-1,993,1646,-24.0745,-197.491
-224,-622,-24.2548,200.049,0,0,0,0,0,0,0,-1,1000,1646,-24.2548,-200.049
-217,-622,-22.9724,193.496,0,0,0,0,0,0,0,-1,1007,1646,-22.9723,-193.496
-210,-622,0.891846,61.1121,0,0,0,0,0,0,0,-1,1014,1646,0.89187,-61.112
-203,-622,4.21375,20.9574,0,0,0,0,0,0,0,-1,1021,1646,4.21375,-20.9574
-196,-622,1.65784,62.3484,0,0,0,0,0,0,0,-1,1028,1646,1.65785,-62.3484
-189,-622,-7.52905,121.878,0,0,0,0,0,0,0,-1,1035,1646,-7.52904,-121.878
-182,-622,0.0473633,63.868,0,0,0,0,0,0,0,-1,1042,1646,0.0473535,-63.8681
-175,-622,3.61438,53.5428,0,0,0,0,0,0,0,-1,1049,1646,3.61438,-53.5428
-168,-622,3.44849,53.4453,0,0,0,0,0,0,0,-1,1056,1646,3.44848,-53.4453
-161,-622,2.79761,52.5291,0,0,0,0,0,0,0,-1,1063,1646,2.79756,-52.529
-154,-622,2.00879,52.2384,0,0,0,0,0,0,0,-1,1070,1646,2.00874,-52.2384
-147,-622,0.939453,52.2694,0,0,0,0,0,0,0,-1,1077,1646,0.939511,-52.2694
-140,-622,0.546997,48.6783,0,0,0,0,0,0,0,-1,1084,1646,0.547022,-48.6784
-133,-622,3.09644,17.677,0,0,0,0,0,0,0,-1,1091,1646,3.09638,-17.677
-126,-622,3.5061,19.5251,0,0,0,0,0,0,0,-1,1098,1646,3.50616,-19.5252
-119,-622,4.06384,13.1715,0,0,0,0,0,0,0,-1,1105,1646,4.06379,-13.1716
-112,-622,4.33276,14.6605,0,0,0,0,0,0,0,-1,1112,1646,4.33281,-14.6605
-105,-622,0.306519,4.38159,0,0,0,0,0,0,0,-1,1119,1646,0.306536,-4.38159
-98,-622,-0.510376,3.5033,0,0,0,0,0,0,0,-1,1126,1646,-0.510393,-3.50324
-91,-622,-1.146,0.975952,0,0,0,0,0,0,0,-1,1133,1646,-1.14599,-0.97597
-84,-622,-2.04895,1.31787,0,0,0,0,0,0,0,-1,1140,1646,-2.0489,-1.31781
-77,-622,-1.80627,0.332275,0,0,0,0,0,0,0,-1,1147,1646,-1.80622,-0.33223
-70,-622,-3.65588,2.28149,0,0,0,0,0,0,0,-1,1154,1646,-3.65589,-2.28155
-63,-622,-2.49683,1.27087,0,0,0,0,0,0,0,-1,1161,1646,-2.49679,-1.27093
-56,-622,-2.44238,-0.575562,0,0,0,0,0,0,0,-1,1168,1646,-2.44242,0.575508
-49,-622,-2.41089,1.38818,0,0,0,0,0,0,0,-1,1175,1646,-2.41088,-1.38815
-42,-622,-2.71497,2.85242,0,0,0,0,0,0,0,-1,1182,1646,-2.71491,-2.85247
-35,-622,-3.0177,4.25842,0,0,0,0,0,0,0,-1,1189,1646,-3.01773,-4.25838
-28,-622,-0.896606,0.678833,0,0,0,0,0,0,0,-1,1196,1646,-0.89661,-0.678835
-21,-622,-6.8219,165.735,0,0,0,0,0,0,0,-1,1203,1646,-6.82187,-165.735
-14,-622,25.6946,320.219,0,0,0,0,0,0,0,-1,1210,1646,25.6945,-320.219
-7,-622,21.9376,342.177,0,0,0,0,0,0,0,-1,1217,1646,21.9376,-342.177
0,-622,0,0,0,0,0,0,0,0,0,-1,1224,1646,0,0
7,-622,0,0,0,0,0,0,0,0,0,-1,1231,1646,0,0
14,-622,0,0,0,0,0,0,0,0,0,-1,1238,1646,0,0
21,-622,0,0,0,0,0,0,0,0,0,-1,1245,1646,0,0
28,-622,0,0,0,0,0,0,0,0,0,-1,1252,1646,0,0
35,-622,0,0,0,0,0,0,0,0,0,-1,1259,1646,0,0
42,-622,0,0,0,0,0,0,0,0,0,-1,1266,1646,0,0
49,-622,0,0,0,0,0,0,0,0,0,-1,1273,1646,0,0
56,-622,0,0,0,0,0,0,0,0,0,-1,1280,1646,0,0
63,-622,0,0,0,0,0,0,0,0,0,-1,1287,1646,0,0
70,-622,0,0,0,0,0,0,0,0,0,-1,1294,1646,0,0
77,-622,0,0,0,0,0,0,0,0,0,-1,1301,1646,0,0
84,-622,0,0,0,0,0,0,0,0,0,-1,1308,1646,0,0
91,-622,0,0,0,0,0,0,0,0,0,-1,1315,1646,0,0
98,-622,0,0,0,0,0,0,0,0,0,-1,1322,1646,0,0
105,-622,0,0,0,0,0,0,0,0,0,-1,1329,1646,0,0
112,-622,0,0,0,0,0,0,0,0,0,-1,1336,1646,0,0
119,-622,0,0,0,0,0,0,0,0,0,-1,1343,1646,0,0
126,-622,7.91956,334.883,0,0,0,0,0,0,0,-1,1350,1646,7.91959,-334.883
133,-622,6.31641,335.615,0,0,0,0,0,0,0,-1,1357,1646,6.31642,-335.615
140,-622,4.64453,336.255,0,0,0,0,0,0,0,-1,1364,1646,4.64456,-336.255
147,-622,3.01587,336.925,0,0,0,0,0,0,0,-1,1371,1646,3.01591,-336.925
154,-622,0.763794,327.536,0,0,0,0,0,0,0,-1,1378,1646,0.763756,-327.536
161,-622,10.6884,6.46448,0,0,0,0,0,0,0,-1,1385,1646,10.6883,-6.46442
168,-622,12.2402,5.18091,0,0,0,0,0,0,0,-1,1392,1646,12.2403,-5.1809
175,-622,5.64355,-1.77075,0,0,0,0,0,0,0,-1,1399,1646,5.64351,1.77077
182,-622,5.88586,-1.32251,0,0,0,0,0,0,0,-1,1406,1646,5.88587,1.32256
189,-622,5.97986,-1.18005,0,0,0,0,0,0,0,-1,1413,1646,5.97986,1.18003
196,-622,5.85022,-0.244507,0,0,0,0,0,0,0,-1,1420,1646,5.85026,0.244478
203,-622,5.25159,0.138794,0,0,0,0,0,0,0,-1,1427,1646,5.25162,-0.138822
210,-622,6.66833,0.0397949,0,0,0,0,0,0,0,-1,1434,1646,6.6684,-0.0398278
217,-622,6.12061,0.0506592,0,0,0,0,0,0,0,-1,1441,1646,6.12058,-0.0507181
224,-622,5.57275,0.0616455,0,0,0,0,0,0,0,-1,1448,1646,5.57276,-0.0616084
231,-622,5.31348,1.3949,0,0,0,0,0,0,0,-1,1455,1646,5.31342,-1.39495
238,-622,3.76477,2.90686,0,0,0,0,0,0,0,-1,1462,1646,3.7648,-2.90686
245,-622,5.13794,2.67993,0,0,0,0,0,0,0,-1,1469,1646,5.13796,-2.67992
252,-622,6.66528,2.53992,0,0,0,0,0,0,0,-1,1476,1646,6.66522,-2.53991
259,-622,8.93787,3.31458,0,0,0,0,0,0,0,-1,1483,1646,8.93791,-3.31454
266,-622,5.72644,3.11926,0,0,0,0,0,0,0,-1,1490,1646,5.72647,-3.1192
273,-622,7.28076,3.61218,0,0,0,0,0,0,0,-1,1497,1646,7.28071,-3.61212
280,-622,8.43127,4.4447,0,0,0,0,0,0,0,-1,1504,1646,8.43123,-4.44467
287,-622,8.60315,5.94617,0,0,0,0,0,0,0,-1,1511,1646,8.60319,-5.94622
294,-622,7.62756,11.5143,0,0,0,0,0,0,0,-1,1518,1646,7.62762,-11.5143
301,-622,7.36548,11.6569,0,0,0,0,0,0,0,-1,1525,1646,7.36549,-11.6569
308,-622,7.10339,11.7994,0,0,0,0,0,0,0,-1,1532,1646,7.10335,-11.7995
315,-622,8.28687,16.5842,0,0,0,0,0,0,0,-1,1539,1646,8.28689,-16.5843
322,-622,7.43689,20.5786,0,0,0,0,0,0,0,-1,1546,1646,7.43685,-20.5786
329,-622,9.76477,26.4202,0,0,0,0,0,0,0,-1,1553,1646,9.7648,-26.4202
336,-622,21.3851,107.279,0,0,0,0,0,0,0,-1,1560,1646,21.3852,-107.279
343,-622,22.0696,109.882,0,0,0,0,0,0,0,-1,1567,1646,22.0696,-109.882
350,-622,26.6602,170.982,0,0,0,0,0,0,0,-1,1574,1646,26.6602,-170.982
357,-622,26.6694,174.602,0,0,0,0,0,0,0,-1,1581,1646,26.6695,-174.602
364,-622,26.9443,184.704,0,0,0,0,0,0,0,-1,1588,1646,26.9443,-184.704
371,-622,48.1653,262.201,0,0,0,0,0,0,0,-1,1595,1646,48.1653,-262.201
378,-622,59.6613,259.422,0,0,0,0,0,0,0,-1,1602,1646,59.6613,-259.422
385,-622,59.3069,255.987,0.0761948,0.00419272,0.0502257,0.101989,-0.0216019,0.474447,0.0762208,0.0277143,1609,1646,59.3069,-255.987
392,-622,59.1559,252.747,0.0723688,0.00357108,0.0484875,0.0974201,-0.0214802,0.476882,0.0731655,0.0286136,1616,1646,59.1558,-252.747
399,-622,59.1569,249.486,0,0,0,0,0,0,0,-1,1623,1646,59.1569,-249.486
406,-622,58.7133,245.782,0.0644849,0.00326541,0.0450182,0.0883141,-0.0205637,0.48683,0.0667942,0.0232609,1630,1646,58.7133,-245.782
413,-622,58.2396,242.233,0.0602318,0.00364086,0.0430479,0.0834509,-0.0195783,0.494653,0.0631794,0.022914,1637,1646,58.2396,-242.233
420,-622,57.7477,238.874,0.0555459,0.00435679,0.0408163,0.0781286,-0.0182259,0.505356,0.0591053,0.0233723,1644,1646,57.7477,-238.874
427,-622,57.1974,235.286,0.0510483,0.00507938,0.0382465,0.0726854,-0.0165577,0.514837,0.0548162,0.0201306,1651,1646,57.1974,-235.286
434,-622,56.5422,231.537,0.0468701,0.00579611,0.0355595,0.067397,-0.0147308,0.523528,0.050562,0.0192132,1658,1646,56.5422,-231.537
441,-622,55.9185,227.836,0.0429359,0.0066189,0.0326326,0.062122,-0.0125672,0.531506,0.0461774,0.0222938,1665,1646,55.9184,-227.836
448,-622,55.16,224.037,0.0392527,0.00740529,0.0296143,0.056953,-0.010295,0.538722,0.0418248,0.0216971,1672,1646,55.1601,-224.037
455,-622,54.2072,220.157,0.0357602,0.00819164,0.0266329,0.0519645,-0.00801274,0.546598,0.0375996,0.0226854,1679,1646,54.2071,-220.157
462,-622,53.3409,216.284,0.0323531,0.00910193,0.0235498,0.0469906,-0.00553554,0.556117,0.0333258,0.0234063,1686,1646,53.3409,-216.284
469,-622,52.3086,212.288,0.029197,0.00994502,0.0206599,0.0423634,-0.00322137,0.567389,0.029375,0.0346562,1693,1646,52.3086,-212.289
476,-622,51.024,207.995,0,0,0,0,0,0,0,-1,1700,1646,51.024,-207.994
483,-622,20.1239,187.51,0,0,0,0,0,0,0,-1,1707,1646,20.1239,-187.509
490,-622,20.0802,71.223,0,0,0,0,0,0,0,-1,1714,1646,20.0802,-71.223
497,-622,20.1091,60.8011,0,0,0,0,0,0,0,-1,1721,1646,20.1091,-60.8012
504,-622,10.8306,19.8021,0,0,0,0,0,0,0,-1,1728,1646,10.8306,-19.8022
511,-622,5.29004,4.14587,0,0,0,0,0,0,0,-1,1735,1646,5.29008,-4.14589
518,-622,5.6001,1.55359,0,0,0,0,0,0,0,-1,1742,1646,5.60015,-1.5536
525,-622,5.83093,2.01807,0,0,0,0,0,0,0,-1,1749,1646,5.83097,-2.01802
532,-622,5.44202,0.57373,0,0,0,0,0,0,0,-1,1756,1646,5.44196,-0.573705
539,-622,9.32129,1.06116,0,0,0,0,0,0,0,-1,1763,1646,9.32131,-1.0612
546,-622,6.50977,-3.45618,0,0,0,0,0,0,0,-1,1770,1646,6.50981,3.4562
553,-622,0,0,0,0,0,0,0,0,0,-1,1777,1646,0,0
560,-622,0,0,0,0,0,0,0,0,0,-1,1784,1646,0,0
567,-622,0,0,0,0,0,0,0,0,0,-1,1791,1646,0,0
574,-622,0,0,0,0,0,0,0,0,0,-1,1798,1646,0,0
581,-622,0,0,0,0,0,0,0,0,0,-1,1805,1646,0,0
588,-622,0,0,0,0,0,0,0,0,0,-1,1812,1646,0,0
595,-622,0,0,0,0,0,0,0,0,0,-1,1819,1646,0,0
602,-622,0,0,0,0,0,0,0,0,0,-1,1826,1646,0,0
609,-622,0,0,0,0,0,0,0,0,0,-1,1833,1646,0,0
616,-622,0,0,0,0,0,0,0,0,0,-1,1840,1646,0,0
623,-622,0,0,0,0,0,0,0,0,0,-1,1847,1646,0,0
630,-622,0,0,0,0,0,0,0,0,0,-1,1854,1646,0,0
637,-622,0,0,0,0,0,0,0,0,0,-1,1861,1646,0,0
644,-622,0,0,0,0,0,0,0,0,0,-1,1868,1646,0,0
651,-622,0,0,0,0,0,0,0,0,0,-1,1875,1646,0,0
658,-622,0,0,0,0,0,0,0,0,0,-1,1882,1646,0,0
665,-622,0,0,0,0,0,0,0,0,0,-1,1889,1646,0,0
672,-622,0,0,0,0,0,0,0,0,0,-1,1896,1646,0,0
679,-622,0,0,0,0,0,0,0,0,0,-1,1903,1646,0,0
686,-622,0,0,0,0,0,0,0,0,0,-1,1910,1646,0,0
693,-622,0,0,0,0,0,0,0,0,0,-1,1917,1646,0,0
700,-622,0,0,0,0,0,0,0,0,0,-1,1924,1646,0,0
707,-622,0,0,0,0,0,0,0,0,0,-1,1931,1646,0,0
714,-622,0,0,0,0,0,0,0,0,0,-1,1938,1646,0,0
721,-622,0,0,0,0,0,0,0,0,0,-1,1945,1646,0,0
728,-622,0,0,0,0,0,0,0,0,0,-1,1952,1646,0,0
735,-622,0,0,0,0,0,0,0,0,0,-1,1959,1646,0,0
742,-622,0,0,0,0,0,0,0,0,0,-1,1966,1646,0,0
749,-622,0,0,0,0,0,0,0,0,0,-1,1973,1646,0,0
756,-622,0,0,0,0,0,0,0,0,0,-1,1980,1646,0,0
763,-622,0,0,0,0,0,0,0,0,0,-1,1987,1646,0,0
770,-622,0,0,0,0,0,0,0,0,0,-1,1994,1646,0,0
777,-622,0,0,0,0,0,0,0,0,0,-1,2001,1646,0,0
784,-622,0,0,0,0,0,0,0,0,0,-1,2008,1646,0,0
791,-622,0,0,0,0,0,0,0,0,0,-1,2015,1646,0,0
798,-622,0,0,0,0,0,0,0,0,0,-1,2022,1646,0,0
805,-622,0,0,0,0,0,0,0,0,0,-1,2029,1646,0,0
812,-622,0,0,0,0,0,0,0,0,0,-1,2036,1646,0,0
-700,-629,0,0,0,0,0,0,0,0,0,-1,524,1653,0,0
-693,-629,0,0,0,0,0,0,0,0,0,-1,531,1653,0,0
-686,-629,0,0,0,0,0,0,0,0,0,-1,538,1653,0,0
-679,-629,0,0,0,0,0,0,0,0,0,-1,545,1653,0,0
-672,-629,0,0,0,0,0,0,0,0,0,-1,552,1653,0,0
-665,-629,0,0,0,0,0,0,0,0,0,-1,559,1653,0,0
-658,-629,0,0,0,0,0,0,0,0,0,-1,566,1653,0,0
-651,-629,0,0,0,0,0,0,0,0,0,-1,573,1653,0,0
-644,-629,0,0,0,0,0,0,0,0,0,-1,580,1653,0,0
-637,-629,0,0,0,0,0,0,0,0,0,-1,587,1653,0,0
-630,-629,0,0,0,0,0,0,0,0,0,-1,594,1653,0,0
-623,-629,0,0,0,0,0,0,0,0,0,-1,601,1653,0,0
-616,-629,0,0,0,0,0,0,0,0,0,-1,608,1653,0,0
-609,-629,0,0,0,0,0,0,0,0,0,-1,615,1653,0,0
-602,-629,0,0,0,0,0,0,0,0,0,-1,622,1653,0,0
-595,-629,0,0,0,0,0,0,0,0,0,-1,629,1653,0,0
-588,-629,0,0,0,0,0,0,0,0,0,-1,636,1653,0,0
-581,-629,0,0,0,0,0,0,0,0,0,-1,643,1653,0,0
-574,-629,0,0,0,0,0,0,0,0,0,-1,650,1653,0,0
-567,-629,0,0,0,0,0,0,0,0,0,-1,657,1653,0,0
-560,-629,0,0,0,0,0,0,0,0,0,-1,664,1653,0,0
-553,-629,0,0,0,0,0,0,0,0,0,-1,671,1653,0,0
-546,-629,0,0,0,0,0,0,0,0,0,-1,678,1653,0,0
-539,-629,0,0,0,0,0,0,0,0,0,-1,685,1653,0,0
-532,-629,0,0,0,0,0,0,0,0,0,-1,692,1653,0,0
-525,-629,0,0,0,0,0,0,0,0,0,-1,699,1653,0,0
-518,-629,0,0,0,0,0,0,0,0,0,-1,706,1653,0,0
-511,-629,0,0,0,0,0,0,0,0,0,-1,713,1653,0,0
-504,-629,0,0,0,0,0,0,0,0,0,-1,720,1653,0,0
-497,-629,0,0,0,0,0,0,0,0,0,-1,727,1653,0,0
-490,-629,0,0,0,0,0,0,0,0,0,-1,734,1653,0,0
-483,-629,0,0,0,0,0,0,0,0,0,-1,741,1653,0,0
-476,-629,0,0,0,0,0,0,0,0,0,-1,748,1653,0,0
-469,-629,0,0,0,0,0,0,0,0,0,-1,755,1653,0,0
-462,-629,0,0,0,0,0,0,0,0,0,-1,762,1653,0,0
-455,-629,0,0,0,0,0,0,0,0,0,-1,769,1653,0,0
-448,-629,0,0,0,0,0,0,0,0,0,-1,776,1653,0,0
-441,-629,0,0,0,0,0,0,0,0,0,-1,783,1653,0,0
-434,-629,0,0,0,0,0,0,0,0,0,-1,790,1653,0,0
-427,-629,0,0,0,0,0,0,0,0,0,-1,797,1653,0,0
-420,-629,-3.87103,3.37634,0,0,0,0,0,0,0,-1,804,1653,-3.87101,-3.37633
-413,-629,-5.69751,1.33582,0,0,0,0,0,0,0,-1,811,1653,-5.69754,-1.3358
-406,-629,2.85406,6.01501,0,0,0,0,0,0,0,-1,818,1653,2.85405,-6.01507
-399,-629,-0.455627,10.8687,0,0,0,0,0,0,0,-1,825,1653,-0.455625,-10.8687
-392,-629,1.15369,11.1295,0,0,0,0,0,0,0,-1,832,1653,1.1537,-11.1295
-385,-629,1.81976,11.6935,0,0,0,0,0,0,0,-1,839,1653,1.81975,-11.6935
-378,-629,2.19452,14.7941,0,0,0,0,0,0,0,-1,846,1653,2.19451,-14.7941
-371,-629,3.60114,14.7299,0,0,0,0,0,0,0,-1,853,1653,3.60113,-14.7299
-364,-629,3.26898,21.0801,0,0,0,0,0,0,0,-1,860,1653,3.26895,-21.08
-357,-629,4.38782,16.3444,0,0,0,0,0,0,0,-1,867,1653,4.38783,-16.3443
-350,-629,-0.262939,58.4408,0,0,0,0,0,0,0,-1,874,1653,-0.26293,-58.4408
-343,-629,-9.90247,117.128,0,0,0,0,0,0,0,-1,881,1653,-9.9025,-117.128
-336,-629,-17.2164,204.846,0,0,0,0,0,0,0,-1,888,1653,-17.2164,-204.846
-329,-629,-31.3865,214.311,0,0,0,0,0,0,0,-1,895,1653,-31.3865,-214.311
-322,-629,-32.0903,218.157,0.0501147,0.00917462,-0.046664,0.080601,-0.0213117,-0.578703,0.0620697,0.0320305,902,1653,-32.0903,-218.158
-315,-629,-32.8645,221.909,0.0532206,0.00948632,-0.0482224,0.0843022,-0.0215953,-0.572533,0.0646143,0.0345045,909,1653,-32.8645,-221.909
-308,-629,-33.4983,225.709,0.0569526,0.0089135,-0.0503061,0.0886793,-0.0228132,-0.562668,0.0680115,0.0298866,916,1653,-33.4983,-225.709
-301,-629,-33.9587,229.376,0.0612458,0.00822691,-0.052911,0.0939168,-0.0244441,-0.553167,0.0721529,0.0357336,923,1653,-33.9588,-229.376
-294,-629,-34.4567,232.772,0.065639,0.00761883,-0.0556257,0.0993649,-0.0261071,-0.54504,0.0764463,0.0431871,930,1653,-34.4567,-232.772
-287,-629,-35.0399,236.522,0.0699316,0.00703024,-0.0582215,0.104654,-0.0276922,-0.537758,0.0806017,0.0285978,937,1653,-35.0399,-236.522
-280,-629,-35.4596,240.109,0.0744919,0.00645729,-0.0610134,0.11033,-0.029381,-0.531092,0.0850558,0.0181002,944,1653,-35.4596,-240.109
-273,-629,-35.8375,243.61,0.0795536,0.00608781,-0.0636506,0.11631,-0.0306688,-0.523692,0.0895314,0.0254912,951,1653,-35.8375,-243.61
-266,-629,-35.9822,246.998,0.0852032,0.00572751,-0.066203,0.122679,-0.0317482,-0.515099,0.0941698,0.0267335,958,1653,-35.9822,-246.998
-259,-629,-36.0908,250.297,0.0910592,0.00562307,-0.0682482,0.128856,-0.0321738,-0.505767,0.0983979,0.0286499,965,1653,-36.0907,-250.297
-252,-629,-36.2149,253.567,0.0963206,0.00503054,-0.0691452,0.133528,-0.0321769,-0.493665,0.10146,0.0274645,972,1653,-36.2149,-253.566
-245,-629,-36.261,256.923,0.100528,0.00434824,-0.069184,0.136694,-0.0318177,-0.481682,0.103381,0.0368724,979,1653,-36.261,-256.923
-238,-629,-36.4131,260.653,0,0,0,0,0,0,0,-1,986,1653,-36.4132,-260.653
-231,-629,-36.2219,263.281,0,0,0,0,0,0,0,-1,993,1653,-36.2219,-263.281
-224,-629,-35.7751,266.717,0,0,0,0,0,0,0,-1,1000,1653,-35.7751,-266.717
-217,-629,-25.8033,228.033,0,0,0,0,0,0,0,-1,1007,1653,-25.8033,-228.033
-210,-629,-21.9907,197.991,0,0,0,0,0,0,0,-1,1014,1653,-21.9907,-197.991
-203,-629,-21.242,189.528,0,0,0,0,0,0,0,-1,1021,1653,-21.242,-189.528
-196,-629,-18.1288,182.756,0,0,0,0,0,0,0,-1,1028,1653,-18.1288,-182.756
-189,-629,-8.75793,131.552,0,0,0,0,0,0,0,-1,1035,1653,-8.75788,-131.552
-182,-629,-7.33752,126.11,0,0,0,0,0,0,0,-1,1042,1653,-7.33758,-126.11
-175,-629,-0.0251465,65.663,0,0,0,0,0,0,0,-1,1049,1653,-0.025117,-65.663
-168,-629,3.94775,55.7037,0,0,0,0,0,0,0,-1,1056,1653,3.94774,-55.7038
-161,-629,3.2146,53.0543,0,0,0,0,0,0,0,-1,1063,1653,3.21462,-53.0543
-154,-629,2.30042,52.7101,0,0,0,0,0,0,0,-1,1070,1653,2.30043,-52.7101
-147,-629,1.22363,52.6086,0,0,0,0,0,0,0,-1,1077,1653,1.22368,-52.6087
-140,-629,3.68201,55.7941,0,0,0,0,0,0,0,-1,1084,1653,3.68206,-55.7941
-133,-629,1.99792,57.769,0,0,0,0,0,0,0,-1,1091,1653,1.99792,-57.769
-126,-629,4.01025,19.5328,0,0,0,0,0,0,0,-1,1098,1653,4.01022,-19.5328
-119,-629,4.94177,13.5525,0,0,0,0,0,0,0,-1,1105,1653,4.94172,-13.5525
-112,-629,5.63123,15.9187,0,0,0,0,0,0,0,-1,1112,1653,5.63118,-15.9187
-105,-629,2.15881,4.38342,0,0,0,0,0,0,0,-1,1119,1653,2.15878,-4.38347
-98,-629,0.825806,4.19385,0,0,0,0,0,0,0,-1,1126,1653,0.825779,-4.1939
-91,-629,-0.452271,3.64465,0,0,0,0,0,0,0,-1,1133,1653,-0.452278,-3.6446
-84,-629,-2.6084,0.466797,0,0,0,0,0,0,0,-1,1140,1653,-2.6084,-0.466786
-77,-629,-3.50903,2.10706,0,0,0,0,0,0,0,-1,1147,1653,-3.509,-2.10707
-70,-629,-1.20886,2.52502,0,0,0,0,0,0,0,-1,1154,1653,-1.20886,-2.525
-63,-629,-0.960693,4.30212,0,0,0,0,0,0,0,-1,1161,1653,-0.960691,-4.30215
-56,-629,-1.31934,5.64343,0,0,0,0,0,0,0,-1,1168,1653,-1.31928,-5.6434
-49,-629,-2.15662,2.57458,0,0,0,0,0,0,0,-1,1175,1653,-2.15656,-2.57459
-42,-629,-2.46326,3.91467,0,0,0,0,0,0,0,-1,1182,1653,-2.4633,-3.91466
-35,-629,-2.67261,5.24292,0,0,0,0,0,0,0,-1,1189,1653,-2.67257,-5.24298
-28,-629,-0.402954,-0.866577,0,0,0,0,0,0,0,-1,1196,1653,-0.402943,0.866612
-21,-629,26.6219,233.525,0,0,0,0,0,0,0,-1,1203,1653,26.6219,-233.525
-14,-629,23.2902,343.795,0,0,0,0,0,0,0,-1,1210,1653,23.2901,-343.795
-7,-629,23.0627,343.179,0,0,0,0,0,0,0,-1,1217,1653,23.0628,-343.179
0,-629,23.4203,343.167,0,0,0,0,0,0,0,-1,1224,1653,23.4203,-343.167
7,-629,22.8478,342.52,0,0,0,0,0,0,0,-1,1231,1653,22.8478,-342.52
14,-629,23.6368,342.15,0,0,0,0,0,0,0,-1,1238,1653,23.6368,-342.15
21,-629,23.4769,340.975,0,0,0,0,0,0,0,-1,1245,1653,23.4769,-340.975
28,-629,23.3258,339.813,0,0,0,0,0,0,0,-1,1252,1653,23.3258,-339.813
35,-629,23.2181,338.611,0,0,0,0,0,0,0,-1,1259,1653,23.2181,-338.611
42,-629,23.068,337.472,0,0,0,0,0,0,0,-1,1266,1653,23.068,-337.472
49,-629,22.9354,336.234,0,0,0,0,0,0,0,-1,1273,1653,22.9354,-336.234
56,-629,22.564,335.013,0,0,0,0,0,0,0,-1,1280,1653,22.564,-335.013
63,-629,21.861,334.046,0,0,0,0,0,0,0,-1,1287,1653,21.861,-334.046
70,-629,15.261,332.274,0,0,0,0,0,0,0,-1,1294,1653,15.261,-332.274
77,-629,16.2212,331.943,0,0,0,0,0,0,0,-1,1301,1653,16.2211,-331.943
84,-629,17.4092,331.737,0,0,0,0,0,0,0,-1,1308,1653,17.4092,-331.737
91,-629,18.3971,331.451,0,0,0,0,0,0,0,-1,1315,1653,18.3971,-331.451
98,-629,19.3125,330.874,0,0,0,0,0,0,0,-1,1322,1653,19.3125,-330.874
105,-629,19.9871,330.458,0,0,0,0,0,0,0,-1,1329,1653,19.9871,-330.458
112,-629,13.3081,334.136,0,0,0,0,0,0,0,-1,1336,1653,13.308,-334.136
119,-629,11.8951,333.336,0,0,0,0,0,0,0,-1,1343,1653,11.8951,-333.336
126,-629,8.04626,334.504,0,0,0,0,0,0,0,-1,1350,1653,8.04624,-334.504
133,-629,6.45544,335.294,0,0,0,0,0,0,0,-1,1357,1653,6.45545,-335.294
140,-629,4.71106,335.909,0,0,0,0,0,0,0,-1,1364,1653,4.71103,-335.909
147,-629,3.40308,335.597,0,0,0,0,0,0,0,-1,1371,1653,3.40303,-335.597
154,-629,1.85815,335.694,0,0,0,0,0,0,0,-1,1378,1653,1.85816,-335.694
161,-629,10.5461,6.83752,0,0,0,0,0,0,0,-1,1385,1653,10.5461,-6.83758
168,-629,12.0059,5.56348,0,0,0,0,0,0,0,-1,1392,1653,12.0059,-5.56352
175,-629,5.84485,-1.78845,0,0,0,0,0,0,0,-1,1399,1653,5.84479,1.7884
182,-629,5.99036,-1.27783,0,0,0,0,0,0,0,-1,1406,1653,5.99041,1.27778
189,-629,5.97668,-0.748535,0,0,0,0,0,0,0,-1,1413,1653,5.97671,0.748544
196,-629,4.52869,9.24695,0,0,0,0,0,0,0,-1,1420,1653,4.52869,-9.2469
203,-629,3.75085,6.88037,0,0,0,0,0,0,0,-1,1427,1653,3.75087,-6.88032
210,-629,3.5907,6.52637,0,0,0,0,0,0,0,-1,1434,1653,3.59067,-6.52642
217,-629,2.4585,4.84448,0,0,0,0,0,0,0,-1,1441,1653,2.45855,-4.84448
224,-629,1.31982,3.68481,0,0,0,0,0,0,0,-1,1448,1653,1.31986,-3.68487
231,-629,3.63025,1.73499,0,0,0,0,0,0,0,-1,1455,1653,3.6303,-1.735
238,-629,4.26428,2.11255,0,0,0,0,0,0,0,-1,1462,1653,4.26429,-2.11253
245,-629,5.61816,1.95361,0,0,0,0,0,0,0,-1,1469,1653,5.61815,-1.95359
252,-629,7.27136,2.18982,0,0,0,0,0,0,0,-1,1476,1653,7.27131,-2.18985
259,-629,8.67334,2.18628,0,0,0,0,0,0,0,-1,1483,1653,8.6733,-2.18633
266,-629,6.86475,3.72058,0,0,0,0,0,0,0,-1,1490,1653,6.86479,-3.72063
273,-629,7.9021,3.8717,0,0,0,0,0,0,0,-1,1497,1653,7.90205,-3.87171
280,-629,9.70837,4.39087,0,0,0,0,0,0,0,-1,1504,1653,9.7084,-4.39082
287,-629,9.82947,7.19348,0,0,0,0,0,0,0,-1,1511,1653,9.8295,-7.19347
294,-629,6.56555,11.6359,0,0,0,0,0,0,0,-1,1518,1653,6.5656,-11.6358
301,-629,13.903,44.4862,0,0,0,0,0,0,0,-1,1525,1653,13.903,-44.4862
308,-629,6.08264,12.1423,0,0,0,0,0,0,0,-1,1532,1653,6.08263,-12.1423
315,-629,6.82043,18.2764,0,0,0,0,0,0,0,-1,1539,1653,6.82049,-18.2764
322,-629,20.8529,106.778,0,0,0,0,0,0,0,-1,1546,1653,20.8529,-106.778
329,-629,24.0797,173.373,0,0,0,0,0,0,0,-1,1553,1653,24.0797,-173.373
336,-629,26.7036,213.631,0,0,0,0,0,0,0,-1,1560,1653,26.7036,-213.631
343,-629,26.4363,210.164,0,0,0,0,0,0,0,-1,1567,1653,26.4363,-210.164
350,-629,28.7261,235.718,0,0,0,0,0,0,0,-1,1574,1653,28.7261,-235.718
357,-629,57.0492,269.794,0,0,0,0,0,0,0,-1,1581,1653,57.0492,-269.794
364,-629,56.2853,266.408,0,0,0,0,0,0,0,-1,1588,1653,56.2853,-266.408
371,-629,56.1708,263.302,0,0,0,0,0,0,0,-1,1595,1653,56.1708,-263.302
378,-629,56.155,260.262,0.0735262,0.00406736,0.0481323,0.0981504,-0.0205568,0.47288,0.0732537,0.0228593,1602,1653,56.1551,-260.262
385,-629,55.8348,256.998,0.0697466,0.00391808,0.0465946,0.0938797,-0.020215,0.477895,0.0703004,0.0216515,1609,1653,55.8348,-256.998
392,-629,55.5431,253.734,0.065931,0.00353889,0.0447066,0.0892499,-0.01978,0.480776,0.0670726,0.0196814,1616,1653,55.5431,-253.734
399,-629,55.2864,250.307,0.0621033,0.00358998,0.0428445,0.0847273,-0.019034,0.485834,0.0637833,0.01998,1623,1653,55.2864,-250.307
406,-629,54.9717,246.803,0.0581605,0.00372942,0.040877,0.0800531,-0.0181632,0.4917,0.0603413,0.022194,1630,1653,54.9717,-246.803
413,-629,54.4287,243.361,0.0540917,0.00425003,0.038812,0.0752948,-0.0169531,0.500001,0.0566988,0.0301544,1637,1653,54.4287,-243.361
420,-629,53.7982,240.021,0.0497738,0.00510773,0.0365117,0.0702411,-0.0153596,0.510921,0.0526987,0.0288508,1644,1653,53.7982,-240.021
427,-629,53.3071,236.468,0.0456209,0.00598305,0.0338908,0.0650623,-0.0134583,0.520818,0.0484876,0.0205076,1651,1653,53.3071,-236.468
434,-629,52.6013,232.762,0.0416844,0.0068744,0.0310625,0.0598857,-0.0113269,0.530031,0.0441861,0.0169076,1658,1653,52.6013,-232.762
441,-629,51.8927,229.052,0.0380321,0.00777395,0.0279761,0.054708,-0.00890191,0.537528,0.0397727,0.0210934,1665,1653,51.8927,-229.052
448,-629,51.0916,225.206,0.0346438,0.00873936,0.0248623,0.0497254,-0.00634225,0.545262,0.035454,0.0214558,1672,1653,51.0915,-225.206
455,-629,50.1819,221.357,0.0314216,0.00966306,0.0218359,0.0449384,-0.00385372,0.554284,0.0313226,0.0237396,1679,1653,50.1819,-221.357
462,-629,49.2761,217.51,0,0,0,0,0,0,0,-1,1686,1653,49.2761,-217.51
469,-629,48.0887,213.518,0,0,0,0,0,0,0,-1,1693,1653,48.0887,-213.518
476,-629,18.8602,112.477,0,0,0,0,0,0,0,-1,1700,1653,18.8602,-112.477
483,-629,18.7847,67.8679,0,0,0,0,0,0,0,-1,1707,1653,18.7847,-67.8679
490,-629,19.1938,61.9336,0,0,0,0,0,0,0,-1,1714,1653,19.1938,-61.9336
497,-629,10.3662,19.8605,0,0,0,0,0,0,0,-1,1721,1653,10.3662,-19.8605
504,-629,7.89453,15.5316,0,0,0,0,0,0,0,-1,1728,1653,7.89447,-15.5316
511,-629,6.29138,3.40295,0,0,0,0,0,0,0,-1,1735,1653,6.29137,-3.403
518,-629,5.84387,1.41858,0,0,0,0,0,0,0,-1,1742,1653,5.84391,-1.4186
525,-629,6.4729,1.02319,0,0,0,0,0,0,0,-1,1749,1653,6.47284,-1.02316
532,-629,6.86511,0.903687,0,0,0,0,0,0,0,-1,1756,1653,6.86514,-0.903691
539,-629,6.60803,0.746704,0,0,0,0,0,0,0,-1,1763,1653,6.60809,-0.746691
546,-629,0,0,0,0,0,0,0,0,0,-1,1770,1653,0,0
553,-629,0,0,0,0,0,0,0,0,0,-1,1777,1653,0,0
560,-629,0,0,0,0,0,0,0,0,0,-1,1784,1653,0,0
567,-629,0,0,0,0,0,0,0,0,0,-1,1791,1653,0,0
574,-629,0,0,0,0,0,0,0,0,0,-1,1798,1653,0,0
581,-629,0,0,0,0,0,0,0,0,0,-1,1805,1653,0,0
588,-629,0,0,0,0,0,0,0,0,0,-1,1812,1653,0,0
595,-629,0,0,0,0,0,0,0,0,0,-1,1819,1653,0,0
602,-629,0,0,0,0,0,0,0,0,0,-1,1826,1653,0,0
609,-629,0,0,0,0,0,0,0,0,0,-1,1833,1653,0,0
616,-629,0,0,0,0,0,0,0,0,0,-1,1840,1653,0,0
623,-629,0,0,0,0,0,0,0,0,0,-1,1847,1653,0,0
630,-629,0,0,0,0,0,0,0,0,0,-1,1854,1653,0,0
637,-629,0,0,0,0,0,0,0,0,0,-1,1861,1653,0,0
644,-629,0,0,0,0,0,0,0,0,0,-1,1868,1653,0,0
651,-629,0,0,0,0,0,0,0,0,0,-1,1875,1653,0,0
658,-629,0,0,0,0,0,0,0,0,0,-1,1882,1653,0,0
665,-629,0,0,0,0,0,0,0,0,0,-1,1889,1653,0,0
672,-629,0,0,0,0,0,0,0,0,0,-1,1896,1653,0,0
679,-629,0,0,0,0,0,0,0,0,0,-1,1903,1653,0,0
686,-629,0,0,0,0,0,0,0,0,0,-1,1910,1653,0,0
693,-629,0,0,0,0,0,0,0,0,0,-1,1917,1653,0,0
700,-629,0,0,0,0,0,0,0,0,0,-1,1924,1653,0,0
707,-629,0,0,0,0,0,0,0,0,0,-1,1931,1653,0,0
714,-629,0,0,0,0,0,0,0,0,0,-1,1938,1653,0,0
721,-629,0,0,0,0,0,0,0,0,0,-1,1945,1653,0,0
728,-629,0,0,0,0,0,0,0,0,0,-1,1952,1653,0,0
735,-629,0,0,0,0,0,0,0,0,0,-1,1959,1653,0,0
742,-629,0,0,0,0,0,0,0,0,0,-1,1966,1653,0,0
749,-629,0,0,0,0,0,0,0,0,0,-1,1973,1653,0,0
756,-629,0,0,0,0,0,0,0,0,0,-1,1980,1653,0,0
763,-629,0,0,0,0,0,0,0,0,0,-1,1987,1653,0,0
770,-629,0,0,0,0,0,0,0,0,0,-1,1994,1653,0,0
777,-629,0,0,0,0,0,0,0,0,0,-1,2001,1653,0,0
784,-629,0,0,0,0,0,0,0,0,0,-1,2008,1653,0,0
791,-629,0,0,0,0,0,0,0,0,0,-1,2015,1653,0,0
798,-629,0,0,0,0,0,0,0,0,0,-1,2022,1653,0,0
805,-629,0,0,0,0,0,0,0,0,0,-1,2029,1653,0,0
812,-629,0,0,0,0,0,0,0,0,0,-1,2036,1653,0,0
-700,-636,0,0,0,0,0,0,0,0,0,-1,524,1660,0,0
-693,-636,0,0,0,0,0,0,0,0,0,-1,531,1660,0,0
-686,-636,0,0,0,0,0,0,0,0,0,-1,538,1660,0,0
-679,-636,0,0,0,0,0,0,0,0,0,-1,545,1660,0,0
-672,-636,0,0,0,0,0,0,0,0,0,-1,552,1660,0,0
-665,-636,0,0,0,0,0,0,0,0,0,-1,559,1660,0,0
-658,-636,0,0,0,0,0,0,0,0,0,-1,566,1660,0,0
-651,-636,0,0,0,0,0,0,0,0,0,-1,573,1660,0,0
-644,-636,0,0,0,0,0,0,0,0,0,-1,580,1660,0,0
-637,-636,0,0,0,0,0,0,0,0,0,-1,587,1660,0,0
-630,-636,0,0,0,0,0,0,0,0,0,-1,594,1660,0,0
-623,-636,0,0,0,0,0,0,0,0,0,-1,601,1660,0,0
-616,-636,0,0,0,0,0,0,0,0,0,-1,608,1660,0,0
-609,-636,0,0,0,0,0,0,0,0,0,-1,615,1660,0,0
-602,-636,0,0,0,0,0,0,0,0,0,-1,622,1660,0,0
-595,-636,0,0,0,0,0,0,0,0,0,-1,629,1660,0,0
-588,-636,0,0,0,0,0,0,0,0,0,-1,636,1660,0,0
-581,-636,0,0,0,0,0,0,0,0,0,-1,643,1660,0,0
-574,-636,0,0,0,0,0,0,0,0,0,-1,650,1660,0,0
-567,-636,0,0,0,0,0,0,0,0,0,-1,657,1660,0,0
-560,-636,0,0,0,0,0,0,0,0,0,-1,664,1660,0,0
-553,-636,0,0,0,0,0,0,0,0,0,-1,671,1660,0,0
-546,-636,0,0,0,0,0,0,0,0,0,-1,678,1660,0,0
-539,-636,0,0,0,0,0,0,0,0,0,-1,685,1660,0,0
-532,-636,0,0,0,0,0,0,0,0,0,-1,692,1660,0,0
-525,-636,0,0,0,0,0,0,0,0,0,-1,699,1660,0,0
-518,-636,0,0,0,0,0,0,0,0,0,-1,706,1660,0,0
-511,-636,0,0,0,0,0,0,0,0,0,-1,713,1660,0,0
-504,-636,0,0,0,0,0,0,0,0,0,-1,720,1660,0,0
-497,-636,0,0,0,0,0,0,0,0,0,-1,727,1660,0,0
-490,-636,0,0,0,0,0,0,0,0,0,-1,734,1660,0,0
-483,-636,0,0,0,0,0,0,0,0,0,-1,741,1660,0,0
-476,-636,0,0,0,0,0,0,0,0,0,-1,748,1660,0,0
-469,-636,0,0,0,0,0,0,0,0,0,-1,755,1660,0,0
-462,-636,0,0,0,0,0,0,0,0,0,-1,762,1660,0,0
-455,-636,0,0,0,0,0,0,0,0,0,-1,769,1660,0,0
-448,-636,0,0,0,0,0,0,0,0,0,-1,776,1660,0,0
-441,-636,0,0,0,0,0,0,0,0,0,-1,783,1660,0,0
-434,-636,0,0,0,0,0,0,0,0,0,-1,790,1660,0,0
-427,-636,0,0,0,0,0,0,0,0,0,-1,797,1660,0,0
-420,-636,0,0,0,0,0,0,0,0,0,-1,804,1660,0,0
-413,-636,0,0,0,0,0,0,0,0,0,-1,811,1660,0,0
-406,-636,-0.591125,10.6943,0,0,0,0,0,0,0,-1,818,1660,-0.59115,-10.6943
-399,-636,0.0766602,11.2408,0,0,0,0,0,0,0,-1,825,1660,0.076685,-11.2409
-392,-636,0.75946,11.9233,0,0,0,0,0,0,0,-1,832,1660,0.759481,-11.9233
-385,-636,1.68878,12.517,0,0,0,0,0,0,0,-1,839,1660,1.6888,-12.5169
-378,-636,2.22107,13.0013,0,0,0,0,0,0,0,-1,846,1660,2.22107,-13.0014
-371,-636,2.52185,11.9684,0,0,0,0,0,0,0,-1,853,1660,2.52184,-11.9684
-364,-636,4.51947,14.8503,0,0,0,0,0,0,0,-1,860,1660,4.51949,-14.8504
-357,-636,4.55682,15.8809,0,0,0,0,0,0,0,-1,867,1660,4.55681,-15.8808
-350,-636,2.57788,36.7095,0,0,0,0,0,0,0,-1,874,1660,2.57785,-36.7094
-343,-636,-5.8728,103.424,0,0,0,0,0,0,0,-1,881,1660,-5.87281,-103.424
-336,-636,-8.47229,124.221,0,0,0,0,0,0,0,-1,888,1660,-8.4723,-124.221
-329,-636,-14.2931,209.027,0,0,0,0,0,0,0,-1,895,1660,-14.2931,-209.027
-322,-636,-28.0606,219.053,0,0,0,0,0,0,0,-1,902,1660,-28.0606,-219.053
-315,-636,-28.6782,223.132,0.0479064,0.00952599,-0.0414714,0.0744124,-0.01698,-0.568702,0.056131,0.0495184,909,1660,-28.6782,-223.132
-308,-636,-29.4667,226.98,0.0515796,0.00862611,-0.0435667,0.0786756,-0.0184698,-0.556397,0.0595692,0.0271707,916,1660,-29.4667,-226.98
-301,-636,-30.2383,230.745,0,0,0,0,0,0,0,-1,923,1660,-30.2383,-230.746
-294,-636,-30.0875,233.638,0,0,0,0,0,0,0,-1,930,1660,-30.0875,-233.638
-287,-636,-30.8873,237.41,0.064192,0.00578138,-0.0514874,0.0941805,-0.0242071,-0.52741,0.0722212,0.0485242,937,1660,-30.8872,-237.41
-280,-636,-31.5977,241.4,0.068462,0.00510251,-0.0542651,0.0996178,-0.0260533,-0.521188,0.0765879,0.0208116,944,1660,-31.5977,-241.4
-273,-636,-31.8879,244.854,0.0731257,0.00451751,-0.0569793,0.10533,-0.0276871,-0.514437,0.0810414,0.0213286,951,1660,-31.8879,-244.854
-266,-636,-32.0001,248.17,0.0784086,0.00386064,-0.0595286,0.11137,-0.0291007,-0.505684,0.0856117,0.0270382,958,1660,-32.0001,-248.17
-259,-636,-32.0986,251.389,0.0837887,0.00340824,-0.0615546,0.117112,-0.029915,-0.496186,0.0897243,0.0400311,965,1660,-32.0986,-251.389
-252,-636,-32.3461,254.594,0.0885883,0.00268961,-0.0625968,0.121553,-0.0302755,-0.484721,0.0927888,0.0361672,972,1660,-32.346,-254.594
-245,-636,-32.4247,257.803,0.0926214,0.00187385,-0.0628679,0.124779,-0.030284,-0.472817,0.0949054,0.0292325,979,1660,-32.4248,-257.804
-238,-636,-32.4748,260.972,0.0975107,0.000981692,-0.0631202,0.128705,-0.0302121,-0.458994,0.0974476,0.0238902,986,1660,-32.4748,-260.972
-231,-636,-32.5057,264.128,0.102463,-0.000708399,-0.0625567,0.13196,-0.0302055,-0.440609,0.099581,0.0321496,993,1660,-32.5057,-264.128
-224,-636,-32.1721,267.349,0.106761,-0.00206685,-0.0613486,0.13435,-0.0296561,-0.422615,0.100915,0.039434,1000,1660,-32.1721,-267.349
-217,-636,-31.6861,270.509,0,0,0,0,0,0,0,-1,1007,1660,-31.6861,-270.509
-210,-636,-32.382,273.212,0,0,0,0,0,0,0,-1,1014,1660,-32.382,-273.212
-203,-636,-24.7884,239.89,0,0,0,0,0,0,0,-1,1021,1660,-24.7884,-239.89
-196,-636,-21.7733,219.773,0,0,0,0,0,0,0,-1,1028,1660,-21.7733,-219.773
-189,-636,-17.9448,192.633,0,0,0,0,0,0,0,-1,1035,1660,-17.9448,-192.633
-182,-636,-7.71545,133.33,0,0,0,0,0,0,0,-1,1042,1660,-7.71542,-133.33
-175,-636,-6.10059,127.683,0,0,0,0,0,0,0,-1,1049,1660,-6.10056,-127.683
-168,-636,-1.64722,104.298,0,0,0,0,0,0,0,-1,1056,1660,-1.64726,-104.298
-161,-636,4.54553,56.2565,0,0,0,0,0,0,0,-1,1063,1660,4.5455,-56.2564
-154,-636,2.33289,62.5505,0,0,0,0,0,0,0,-1,1070,1660,2.33283,-62.5505
-147,-636,4.22656,55.8413,0,0,0,0,0,0,0,-1,1077,1660,4.22662,-55.8413
-140,-636,3.20886,57.1307,0,0,0,0,0,0,0,-1,1084,1660,3.20882,-57.1307
-133,-636,2.82764,57.9807,0,0,0,0,0,0,0,-1,1091,1660,2.82766,-57.9807
-126,-636,2.44653,58.8307,0,0,0,0,0,0,0,-1,1098,1660,2.44649,-58.8307
-119,-636,1.8667,13.8916,0,0,0,0,0,0,0,-1,1105,1660,1.86668,-13.8916
-112,-636,-1.24963,9.7998,0,0,0,0,0,0,0,-1,1112,1660,-1.24968,-9.79978
-105,-636,3.51624,4.72791,0,0,0,0,0,0,0,-1,1119,1660,3.51618,-4.7279
-98,-636,1.54504,5.11914,0,0,0,0,0,0,0,-1,1126,1660,1.54503,-5.11912
-91,-636,-1.87964,-2.25012,0,0,0,0,0,0,0,-1,1133,1660,-1.87966,2.25016
-84,-636,-2.84143,0.133667,0,0,0,0,0,0,0,-1,1140,1660,-2.84144,-0.133701
-77,-636,-3.57349,2.45935,0,0,0,0,0,0,0,-1,1147,1660,-3.57345,-2.45939
-70,-636,-4.23682,4.82312,0,0,0,0,0,0,0,-1,1154,1660,-4.23681,-4.82307
-63,-636,-2.21033,6.97168,0,0,0,0,0,0,0,-1,1161,1660,-2.21034,-6.97165
-56,-636,-2.51917,8.80359,0,0,0,0,0,0,0,-1,1168,1660,-2.51916,-8.80361
-49,-636,-3.13,10.4113,0,0,0,0,0,0,0,-1,1175,1660,-3.12996,-10.4112
-42,-636,-2.27771,4.90173,0,0,0,0,0,0,0,-1,1182,1660,-2.27775,-4.90173
-35,-636,-2.27698,5.89685,0,0,0,0,0,0,0,-1,1189,1660,-2.27695,-5.89686
-28,-636,-1.70654,4.83936,0,0,0,0,0,0,0,-1,1196,1660,-1.70656,-4.8393
-21,-636,12.8972,207.317,0,0,0,0,0,0,0,-1,1203,1660,12.8972,-207.317
-14,-636,24.4146,344.786,0,0,0,0,0,0,0,-1,1210,1660,24.4145,-344.786
-7,-636,24.1683,344.173,0,0,0,0,0,0,0,-1,1217,1660,24.1684,-344.173
0,-636,23.8683,343.729,0,0,0,0,0,0,0,-1,1224,1660,23.8682,-343.729
7,-636,23.9161,343.189,0,0,0,0,0,0,0,-1,1231,1660,23.9161,-343.189
14,-636,23.8334,342.715,0,0,0,0,0,0,0,-1,1238,1660,23.8333,-342.715
21,-636,23.8474,341.787,0,0,0,0,0,0,0,-1,1245,1660,23.8474,-341.787
28,-636,23.6991,340.792,0,0,0,0,0,0,0,-1,1252,1660,23.6991,-340.792
35,-636,23.6047,339.314,0,0,0,0,0,0,0,-1,1259,1660,23.6048,-339.314
42,-636,23.4556,338.114,0,0,0,0,0,0,0,-1,1266,1660,23.4556,-338.114
49,-636,22.6412,336.378,0,0,0,0,0,0,0,-1,1273,1660,22.6412,-336.378
56,-636,22.0819,335.333,0,0,0,0,0,0,0,-1,1280,1660,22.0819,-335.332
63,-636,21.5,334.285,0,0,0,0,0,0,0,-1,1287,1660,21.5,-334.285
70,-636,14.0411,333.26,0,0,0,0,0,0,0,-1,1294,1660,14.0411,-333.26
77,-636,14.9473,332.92,0,0,0,0,0,0,0,-1,1301,1660,14.9472,-332.92
84,-636,16.2181,332.712,0,0,0,0,0,0,0,-1,1308,1660,16.2182,-332.712
91,-636,18.8452,332.078,0,0,0,0,0,0,0,-1,1315,1660,18.8452,-332.078
98,-636,19.0437,331.597,0,0,0,0,0,0,0,-1,1322,1660,19.0437,-331.597
105,-636,19.5009,331.27,0,0,0,0,0,0,0,-1,1329,1660,19.5008,-331.27
112,-636,19.8815,330.951,0,0,0,0,0,0,0,-1,1336,1660,19.8815,-330.951
119,-636,9.89758,334.063,0,0,0,0,0,0,0,-1,1343,1660,9.89762,-334.063
126,-636,8.13123,334.427,0,0,0,0,0,0,0,-1,1350,1660,8.13117,-334.427
133,-636,6.52869,334.917,0,0,0,0,0,0,0,-1,1357,1660,6.52871,-334.916
140,-636,4.78979,335.534,0,0,0,0,0,0,0,-1,1364,1660,4.78981,-335.534
147,-636,3.36865,335.599,0,0,0,0,0,0,0,-1,1371,1660,3.3687,-335.599
154,-636,1.76147,335.701,0,0,0,0,0,0,0,-1,1378,1660,1.76151,-335.701
161,-636,10.2961,7.13025,0,0,0,0,0,0,0,-1,1385,1660,10.2961,-7.13021
168,-636,11.7659,5.83899,0,0,0,0,0,0,0,-1,1392,1660,11.7658,-5.83899
175,-636,5.94592,-1.72888,0,0,0,0,0,0,0,-1,1399,1660,5.94598,1.72886
182,-636,5.93994,-1.11938,0,0,0,0,0,0,0,-1,1406,1660,5.93998,1.11936
189,-636,5.32544,11.9595,0,0,0,0,0,0,0,-1,1413,1660,5.32542,-11.9595
196,-636,5.3623,9.38025,0,0,0,0,0,0,0,-1,1420,1660,5.36225,-9.38027
203,-636,5.18542,9.02429,0,0,0,0,0,0,0,-1,1427,1660,5.18547,-9.0243
210,-636,4.09167,7.17041,0,0,0,0,0,0,0,-1,1434,1660,4.09173,-7.17041
217,-636,2.94897,5.28992,0,0,0,0,0,0,0,-1,1441,1660,2.94899,-5.28991
224,-636,1.49194,3.63916,0,0,0,0,0,0,0,-1,1448,1660,1.49197,-3.63918
231,-636,0.17749,2.24854,0,0,0,0,0,0,0,-1,1455,1660,0.177501,-2.24855
238,-636,-0.764648,1.00598,0,0,0,0,0,0,0,-1,1462,1660,-0.764704,-1.00595
245,-636,6.21204,1.18005,0,0,0,0,0,0,0,-1,1469,1660,6.21206,-1.18001
252,-636,7.70251,0.865723,0,0,0,0,0,0,0,-1,1476,1660,7.7025,-0.865692
259,-636,9.03601,0.787231,0,0,0,0,0,0,0,-1,1483,1660,9.03598,-0.787243
266,-636,10.1071,3.24109,0,0,0,0,0,0,0,-1,1490,1660,10.1071,-3.24103
273,-636,8.48535,5.02466,0,0,0,0,0,0,0,-1,1497,1660,8.48533,-5.02472
280,-636,11.908,32.0698,0,0,0,0,0,0,0,-1,1504,1660,11.9079,-32.0698
287,-636,12.1218,36.4158,0,0,0,0,0,0,0,-1,1511,1660,12.1218,-36.4158
294,-636,13.3706,44.9711,0,0,0,0,0,0,0,-1,1518,1660,13.3706,-44.9711
301,-636,19.6848,107.288,0,0,0,0,0,0,0,-1,1525,1660,19.6848,-107.288
308,-636,20.512,112.991,0,0,0,0,0,0,0,-1,1532,1660,20.512,-112.991
315,-636,19.869,115.303,0,0,0,0,0,0,0,-1,1539,1660,19.869,-115.303
322,-636,22.5635,175.394,0,0,0,0,0,0,0,-1,1546,1660,22.5634,-175.394
329,-636,24.3379,216.24,0,0,0,0,0,0,0,-1,1553,1660,24.3379,-216.24
336,-636,24.4642,224.183,0,0,0,0,0,0,0,-1,1560,1660,24.4642,-224.183
343,-636,32.3832,272.048,0,0,0,0,0,0,0,-1,1567,1660,32.3832,-272.048
350,-636,53.9535,273.57,0,0,0,0,0,0,0,-1,1574,1660,53.9535,-273.57
357,-636,53.365,270.482,0.0755372,0.00509137,0.0497852,0.1013,-0.0206711,0.477528,0.0753743,0.0447671,1581,1660,53.365,-270.482
364,-636,52.9419,267.318,0.072501,0.00457185,0.0478914,0.0972491,-0.0201763,0.476961,0.0725001,0.0209713,1588,1660,52.9418,-267.318
371,-636,52.9371,264.294,0.0698689,0.0041727,0.0461105,0.0936351,-0.0195934,0.475905,0.0698763,0.0180466,1595,1660,52.9371,-264.294
378,-636,52.6919,261.201,0.0671053,0.0037331,0.0443446,0.089921,-0.0190826,0.475188,0.0672173,0.016621,1602,1660,52.6919,-261.201
385,-636,52.3508,257.951,0.063355,0.00375674,0.042694,0.0856209,-0.0185091,0.480717,0.0641467,0.0258902,1609,1660,52.3508,-257.951
392,-636,52.0623,254.653,0.0595484,0.00358806,0.0407383,0.0809899,-0.0178534,0.484483,0.0608241,0.0254114,1616,1660,52.0622,-254.653
399,-636,51.6362,251.269,0.0557208,0.00385977,0.0387149,0.0763869,-0.0168063,0.49032,0.0573534,0.0195578,1623,1660,51.6362,-251.269
406,-636,51.2734,247.856,0.0518362,0.00422831,0.0366523,0.071736,-0.0156715,0.497403,0.0538139,0.0245171,1630,1660,51.2735,-247.856
413,-636,50.7617,244.463,0.0478656,0.00491555,0.034491,0.0670206,-0.0142395,0.506953,0.050106,0.0297398,1637,1660,50.7617,-244.463
420,-636,50.0321,241.098,0.0438024,0.00586866,0.0320895,0.0621112,-0.0124402,0.518488,0.0461169,0.0272222,1644,1660,50.0321,-241.098
427,-636,49.3992,237.577,0.0399207,0.0068937,0.0293692,0.0571006,-0.0102862,0.52929,0.0419186,0.019069,1651,1660,49.3992,-237.577
434,-636,48.6923,233.902,0.0361406,0.00801065,0.0263199,0.0519179,-0.00776663,0.54001,0.0374701,0.0184421,1658,1660,48.6922,-233.902
441,-636,48.0095,230.151,0.0326594,0.00901068,0.0229499,0.0466519,-0.00498186,0.547521,0.0328879,0.0183268,1665,1660,48.0095,-230.15
448,-636,47.1304,226.198,0.0294477,0.01028,0.0195463,0.0416333,-0.0019056,0.557463,0.028412,0.0337958,1672,1660,47.1303,-226.198
455,-636,46.1055,222.03,0,0,0,0,0,0,0,-1,1679,1660,46.1054,-222.03
462,-636,19.5168,211.472,0,0,0,0,0,0,0,-1,1686,1660,19.5168,-211.472
469,-636,16.0038,141.557,0,0,0,0,0,0,0,-1,1693,1660,16.0038,-141.557
476,-636,17.6901,99.8433,0,0,0,0,0,0,0,-1,1700,1660,17.69,-99.8432
483,-636,11.3833,24.3958,0,0,0,0,0,0,0,-1,1707,1660,11.3833,-24.3957
490,-636,10.8951,23.9569,0,0,0,0,0,0,0,-1,1714,1660,10.8951,-23.9569
497,-636,9.55579,18.0111,0,0,0,0,0,0,0,-1,1721,1660,9.55574,-18.0111
504,-636,6.26428,19.4268,0,0,0,0,0,0,0,-1,1728,1660,6.26433,-19.4268
511,-636,5.65466,9.23218,0,0,0,0,0,0,0,-1,1735,1660,5.65461,-9.23216
518,-636,6.72791,1.07605,0,0,0,0,0,0,0,-1,1742,1660,6.7279,-1.0761
525,-636,7.04309,0.93335,0,0,0,0,0,0,0,-1,1749,1660,7.04308,-0.933298
532,-636,0,0,0,0,0,0,0,0,0,-1,1756,1660,0,0
539,-636,0,0,0,0,0,0,0,0,0,-1,1763,1660,0,0
546,-636,0,0,0,0,0,0,0,0,0,-1,1770,1660,0,0
553,-636,0,0,0,0,0,0,0,0,0,-1,1777,1660,0,0
560,-636,0,0,0,0,0,0,0,0,0,-1,1784,1660,0,0
567,-636,0,0,0,0,0,0,0,0,0,-1,1791,1660,0,0
574,-636,0,0,0,0,0,0,0,0,0,-1,1798,1660,0,0
581,-636,0,0,0,0,0,0,0,0,0,-1,1805,1660,0,0
588,-636,0,0,0,0,0,0,0,0,0,-1,1812,1660,0,0
595,-636,0,0,0,0,0,0,0,0,0,-1,1819,1660,0,0
602,-636,0,0,0,0,0,0,0,0,0,-1,1826,1660,0,0
609,-636,0,0,0,0,0,0,0,0,0,-1,1833,1660,0,0
616,-636,0,0,0,0,0,0,0,0,0,-1,1840,1660,0,0
623,-636,0,0,0,0,0,0,0,0,0,-1,1847,1660,0,0
630,-636,0,0,0,0,0,0,0,0,0,-1,1854,1660,0,0
637,-636,0,0,0,0,0,0,0,0,0,-1,1861,1660,0,0
644,-636,0,0,0,0,0,0,0,0,0,-1,1868,1660,0,0
651,-636,0,0,0,0,0,0,0,0,0,-1,1875,1660,0,0
658,-636,0,0,0,0,0,0,0,0,0,-1,1882,1660,0,0
665,-636,0,0,0,0,0,0,0,0,0,-1,1889,1660,0,0
672,-636,0,0,0,0,0,0,0,0,0,-1,1896,1660,0,0
679,-636,0,0,0,0,0,0,0,0,0,-1,1903,1660,0,0
686,-636,0,0,0,0,0,0,0,0,0,-1,1910,1660,0,0
693,-636,0,0,0,0,0,0,0,0,0,-1,1917,1660,0,0
700,-636,0,0,0,0,0,0,0,0,0,-1,1924,1660,0,0
707,-636,0,0,0,0,0,0,0,0,0,-1,1931,1660,0,0
714,-636,0,0,0,0,0,0,0,0,0,-1,1938,1660,0,0
721,-636,0,0,0,0,0,0,0,0,0,-1,1945,1660,0,0
728,-636,0,0,0,0,0,0,0,0,0,-1,1952,1660,0,0
735,-636,0,0,0,0,0,0,0,0,0,-1,1959,1660,0,0
742,-636,0,0,0,0,0,0,0,0,0,-1,1966,1660,0,0
749,-636,0,0,0,0,0,0,0,0,0,-1,1973,1660,0,0
756,-636,0,0,0,0,0,0,0,0,0,-1,1980,1660,0,0
763,-636,0,0,0,0,0,0,0,0,0,-1,1987,1660,0,0
770,-636,0,0,0,0,0,0,0,0,0,-1,1994,1660,0,0
777,-636,0,0,0,0,0,0,0,0,0,-1,2001,1660,0,0
784,-636,0,0,0,0,0,0,0,0,0,-1,2008,1660,0,0
791,-636,0,0,0,0,0,0,0,0,0,-1,2015,1660,0,0
798,-636,0,0,0,0,0,0,0,0,0,-1,2022,1660,0,0
805,-636,0,0,0,0,0,0,0,0,0,-1,2029,1660,0,0
812,-636,0,0,0,0,0,0,0,0,0,-1,2036,1660,0,0
-700,-643,0,0,0,0,0,0,0,0,0,-1,524,1667,0,0
-693,-643,0,0,0,0,0,0,0,0,0,-1,531,1667,0,0
-686,-643,0,0,0,0,0,0,0,0,0,-1,538,1667,0,0
-679,-643,0,0,0,0,0,0,0,0,0,-1,545,1667,0,0
-672,-643,0,0,0,0,0,0,0,0,0,-1,552,1667,0,0
-665,-643,0,0,0,0,0,0,0,0,0,-1,559,1667,0,0
-658,-643,0,0,0,0,0,0,0,0,0,-1,566,1667,0,0
-651,-643,0,0,0,0,0,0,0,0,0,-1,573,1667,0,0
-644,-643,0,0,0,0,0,0,0,0,0,-1,580,1667,0,0
-637,-643,0,0,0,0,0,0,0,0,0,-1,587,1667,0,0
-630,-643,0,0,0,0,0,0,0,0,0,-1,594,1667,0,0
-623,-643,0,0,0,0,0,0,0,0,0,-1,601,1667,0,0
-616,-643,0,0,0,0,0,0,0,0,0,-1,608,1667,0,0
-609,-643,0,0,0,0,0,0,0,0,0,-1,615,1667,0,0
-602,-643,0,0,0,0,0,0,0,0,0,-1,622,1667,0,0
-595,-643,0,0,0,0,0,0,0,0,0,-1,629,1667,0,0
-588,-643,0,0,0,0,0,0,0,0,0,-1,636,1667,0,0
-581,-643,0,0,0,0,0,0,0,0,0,-1,643,1667,0,0
-574,-643,0,0,0,0,0,0,0,0,0,-1,650,1667,0,0
-567,-643,0,0,0,0,0,0,0,0,0,-1,657,1667,0,0
-560,-643,0,0,0,0,0,0,0,0,0,-1,664,1667,0,0
-553,-643,0,0,0,0,0,0,0,0,0,-1,671,1667,0,0
-546,-643,0,0,0,0,0,0,0,0,0,-1,678,1667,0,0
-539,-643,0,0,0,0,0,0,0,0,0,-1,685,1667,0,0
-532,-643,0,0,0,0,0,0,0,0,0,-1,692,1667,0,0
-525,-643,0,0,0,0,0,0,0,0,0,-1,699,1667,0,0
-518,-643,0,0,0,0,0,0,0,0,0,-1,706,1667,0,0
-511,-643,0,0,0,0,0,0,0,0,0,-1,713,1667,0,0
-504,-643,0,0,0,0,0,0,0,0,0,-1,720,1667,0,0
-497,-643,0,0,0,0,0,0,0,0,0,-1,727,1667,0,0
-490,-643,0,0,0,0,0,0,0,0,0,-1,734,1667,0,0
-483,-643,0,0,0,0,0,0,0,0,0,-1,741,1667,0,0
-476,-643,0,0,0,0,0,0,0,0,0,-1,748,1667,0,0
-469,-643,0,0,0,0,0,0,0,0,0,-1,755,1667,0,0
-462,-643,0,0,0,0,0,0,0,0,0,-1,762,1667,0,0
-455,-643,0,0,0,0,0,0,0,0,0,-1,769,1667,0,0
-448,-643,0,0,0,0,0,0,0,0,0,-1,776,1667,0,0
-441,-643,0,0,0,0,0,0,0,0,0,-1,783,1667,0,0
-434,-643,0,0,0,0,0,0,0,0,0,-1,790,1667,0,0
-427,-643,0,0,0,0,0,0,0,0,0,-1,797,1667,0,0
-420,-643,0,0,0,0,0,0,0,0,0,-1,804,1667,0,0
-413,-643,0,0,0,0,0,0,0,0,0,-1,811,1667,0,0
-406,-643,0,0,0,0,0,0,0,0,0,-1,818,1667,0,0
-399,-643,0.589417,11.6465,0,0,0,0,0,0,0,-1,825,1667,0.58939,-11.6465
-392,-643,0.865295,12.6523,0,0,0,0,0,0,0,-1,832,1667,0.865315,-12.6523
-385,-643,1.72968,13.2692,0,0,0,0,0,0,0,-1,839,1667,1.72967,-13.2692
-378,-643,2.66522,13.8193,0,0,0,0,0,0,0,-1,846,1667,2.66524,-13.8193
-371,-643,0.466125,3.35095,0,0,0,0,0,0,0,-1,853,1667,0.466148,-3.351
-364,-643,1.69513,9.922,0,0,0,0,0,0,0,-1,860,1667,1.69511,-9.92205
-357,-643,1.14227,10.8429,0,0,0,0,0,0,0,-1,867,1667,1.14228,-10.8429
-350,-643,4.48804,36.1799,0,0,0,0,0,0,0,-1,874,1667,4.48801,-36.1799
-343,-643,2.32159,48.7034,0,0,0,0,0,0,0,-1,881,1667,2.3216,-48.7034
-336,-643,-4.51129,105.569,0,0,0,0,0,0,0,-1,888,1667,-4.51131,-105.569
-329,-643,-6.68561,126.295,0,0,0,0,0,0,0,-1,895,1667,-6.68564,-126.295
-322,-643,-9.97827,200.169,0,0,0,0,0,0,0,-1,902,1667,-9.97827,-200.169
-315,-643,-24.5562,224.182,0,0,0,0,0,0,0,-1,909,1667,-24.5562,-224.182
-308,-643,-25.3983,228.202,0,0,0,0,0,0,0,-1,916,1667,-25.3983,-228.202
-301,-643,-16.4598,228.431,0,0,0,0,0,0,0,-1,923,1667,-16.4598,-228.431
-294,-643,-25.9849,234.953,0,0,0,0,0,0,0,-1,930,1667,-25.9849,-234.953
-287,-643,-27.1156,239.041,0.0583099,0.00423552,-0.0440789,0.082983,-0.0204377,-0.510298,0.0632451,0.0303451,937,1667,-27.1156,-239.041
-280,-643,-27.7076,242.562,0.0622725,0.00358536,-0.0471494,0.0884637,-0.0226059,-0.507051,0.0677796,0.0262897,944,1667,-27.7076,-242.562
-273,-643,-28.0786,245.937,0.0665051,0.00292294,-0.0501461,0.0940883,-0.0246603,-0.502887,0.0723602,0.0242093,951,1667,-28.0786,-245.937
-266,-643,-28.243,249.263,0.0713856,0.00212818,-0.0528387,0.0999319,-0.0264181,-0.495329,0.076954,0.0257924,958,1667,-28.243,-249.263
-259,-643,-28.3552,252.37,0.0762814,0.00146665,-0.0549625,0.105358,-0.0276105,-0.486606,0.0810261,0.0322614,965,1667,-28.3552,-252.37
-252,-643,-28.6161,255.485,0.0807028,0.000799661,-0.056303,0.109789,-0.0282861,-0.476834,0.0842196,0.0445478,972,1667,-28.6161,-255.485
-245,-643,-28.6345,258.748,0.0846177,1.50826e-05,-0.0569454,0.113254,-0.0286215,-0.465947,0.0866339,0.0381221,979,1667,-28.6345,-258.748
-238,-643,-28.7572,261.96,0.0891466,-0.00093006,-0.0574463,0.117105,-0.0288885,-0.452942,0.0892715,0.0237801,986,1667,-28.7572,-261.96
-231,-643,-28.9481,265.098,0.0937692,-0.00233393,-0.0573452,0.120534,-0.0290983,-0.436674,0.0916088,0.0252082,993,1667,-28.9481,-265.098
-224,-643,-28.7448,268.151,0.0977531,-0.00377464,-0.0566665,0.123069,-0.0290901,-0.420143,0.093267,0.0279619,1000,1667,-28.7448,-268.151
-217,-643,-28.7669,271.077,0.101353,-0.00536395,-0.0556561,0.125096,-0.0291076,-0.403236,0.0946047,0.02531,1007,1667,-28.7669,-271.077
-210,-643,-28.7805,274.039,0.10479,-0.00733615,-0.0545183,0.126927,-0.0294736,-0.385715,0.0959635,0.0407792,1014,1667,-28.7805,-274.039
-203,-643,-28.5432,276.812,0,0,0,0,0,0,0,-1,1021,1667,-28.5432,-276.812
-196,-643,-28.4005,279.713,0,0,0,0,0,0,0,-1,1028,1667,-28.4005,-279.713
-189,-643,-25.3441,281.526,0,0,0,0,0,0,0,-1,1035,1667,-25.3441,-281.526
-182,-643,-16.009,195.212,0,0,0,0,0,0,0,-1,1042,1667,-16.009,-195.212
-175,-643,-7.11316,138.679,0,0,0,0,0,0,0,-1,1049,1667,-7.11322,-138.679
-168,-643,-5.92041,131.39,0,0,0,0,0,0,0,-1,1056,1667,-5.92042,-131.39
-161,-643,-2.19751,109.358,0,0,0,0,0,0,0,-1,1063,1667,-2.19756,-109.358
-154,-643,-0.143555,99.9445,0,0,0,0,0,0,0,-1,1070,1667,-0.143534,-99.9445
-147,-643,2.29285,74.679,0,0,0,0,0,0,0,-1,1077,1667,2.2928,-74.6789
-140,-643,2.17468,70.4902,0,0,0,0,0,0,0,-1,1084,1667,2.17471,-70.4902
-133,-643,2.32495,61.5938,0,0,0,0,0,0,0,-1,1091,1667,2.32497,-61.5937
-126,-643,3.28662,58.6659,0,0,0,0,0,0,0,-1,1098,1667,3.28657,-58.6658
-119,-643,3.76282,14.1458,0,0,0,0,0,0,0,-1,1105,1667,3.76283,-14.1458
-112,-643,3.81458,16.2069,0,0,0,0,0,0,0,-1,1112,1667,3.81463,-16.2069
-105,-643,-2.23413,10.0996,0,0,0,0,0,0,0,-1,1119,1667,-2.23415,-10.0996
-98,-643,3.11035,4.68066,0,0,0,0,0,0,0,-1,1126,1667,3.11041,-4.68071
-91,-643,-1.74146,-2.5885,0,0,0,0,0,0,0,-1,1133,1667,-1.74146,2.58856
-84,-643,-3.07446,-0.199341,0,0,0,0,0,0,0,-1,1140,1667,-3.07449,0.199383
-77,-643,-3.63794,2.81165,0,0,0,0,0,0,0,-1,1147,1667,-3.63791,-2.8117
-70,-643,-3.36938,4.45203,0,0,0,0,0,0,0,-1,1154,1667,-3.36941,-4.452
-63,-643,-3.67822,6.26855,0,0,0,0,0,0,0,-1,1161,1667,-3.67823,-6.26856
-56,-643,-3.95142,8.1073,0,0,0,0,0,0,0,-1,1168,1667,-3.95139,-8.10732
-49,-643,-4.23535,9.90552,0,0,0,0,0,0,0,-1,1175,1667,-4.23537,-9.90557
-42,-643,-4.25195,10.7059,0,0,0,0,0,0,0,-1,1182,1667,-4.25192,-10.706
-35,-643,-4.10986,11.6588,0,0,0,0,0,0,0,-1,1189,1667,-4.10982,-11.6589
-28,-643,-1.38513,5.604,0,0,0,0,0,0,0,-1,1196,1667,-1.3851,-5.60403
-21,-643,24.1896,250.931,0,0,0,0,0,0,0,-1,1203,1667,24.1896,-250.931
-14,-643,27.564,351.356,0,0,0,0,0,0,0,-1,1210,1667,27.564,-351.356
-7,-643,25.2111,344.863,0,0,0,0,0,0,0,-1,1217,1667,25.2111,-344.863
0,-643,25.0446,344.248,0,0,0,0,0,0,0,-1,1224,1667,25.0445,-344.248
7,-643,24.3622,344.723,0,0,0,0,0,0,0,-1,1231,1667,24.3622,-344.723
14,-643,24.3109,343.62,0,0,0,0,0,0,0,-1,1238,1667,24.3109,-343.62
21,-643,24.3036,342.528,0,0,0,0,0,0,0,-1,1245,1667,24.3035,-342.528
28,-643,24.113,342.01,0,0,0,0,0,0,0,-1,1252,1667,24.113,-342.01
35,-643,24.0973,341.156,0,0,0,0,0,0,0,-1,1259,1667,24.0973,-341.156
42,-643,22.8295,337.333,0,0,0,0,0,0,0,-1,1266,1667,22.8295,-337.333
49,-643,22.3004,336.446,0,0,0,0,0,0,0,-1,1273,1667,22.3004,-336.446
56,-643,21.7471,335.574,0,0,0,0,0,0,0,-1,1280,1667,21.7471,-335.574
63,-643,21.1531,334.399,0,0,0,0,0,0,0,-1,1287,1667,21.153,-334.399
70,-643,20.5254,333.37,0,0,0,0,0,0,0,-1,1294,1667,20.5255,-333.37
77,-643,19.9858,333.068,0,0,0,0,0,0,0,-1,1301,1667,19.9858,-333.068
84,-643,18.4231,333.085,0,0,0,0,0,0,0,-1,1308,1667,18.4231,-333.085
91,-643,18.3806,332.702,0,0,0,0,0,0,0,-1,1315,1667,18.3806,-332.702
98,-643,18.4845,332.227,0,0,0,0,0,0,0,-1,1322,1667,18.4846,-332.227
105,-643,18.7822,331.836,0,0,0,0,0,0,0,-1,1329,1667,18.7822,-331.836
112,-643,19.0414,331.606,0,0,0,0,0,0,0,-1,1336,1667,19.0414,-331.606
119,-643,10.0283,334.003,0,0,0,0,0,0,0,-1,1343,1667,10.0283,-334.003
126,-643,8.25903,334.374,0,0,0,0,0,0,0,-1,1350,1667,8.25904,-334.374
133,-643,6.57458,334.629,0,0,0,0,0,0,0,-1,1357,1667,6.5746,-334.629
140,-643,5.00696,335.274,0,0,0,0,0,0,0,-1,1364,1667,5.00696,-335.274
147,-643,3.52014,336.037,0,0,0,0,0,0,0,-1,1371,1667,3.52014,-336.037
154,-643,2.00098,336.792,0,0,0,0,0,0,0,-1,1378,1667,2.00103,-336.792
161,-643,5.57935,26.2754,0,0,0,0,0,0,0,-1,1385,1667,5.57931,-26.2754
168,-643,10.5563,10.9818,0,0,0,0,0,0,0,-1,1392,1667,10.5562,-10.9819
175,-643,5.88525,-1.1698,0,0,0,0,0,0,0,-1,1399,1667,5.88526,1.16977
182,-643,5.80945,-0.418701,0,0,0,0,0,0,0,-1,1406,1667,5.80949,0.418712
189,-643,5.42297,12.9208,0,0,0,0,0,0,0,-1,1413,1667,5.42298,-12.9208
196,-643,5.51953,11.2415,0,0,0,0,0,0,0,-1,1420,1667,5.51948,-11.2414
203,-643,5.60828,9.82153,0,0,0,0,0,0,0,-1,1427,1667,5.60833,-9.82148
210,-643,4.73218,7.58728,0,0,0,0,0,0,0,-1,1434,1667,4.73222,-7.58728
217,-643,3.8031,5.28955,0,0,0,0,0,0,0,-1,1441,1667,3.80305,-5.28955
224,-643,2.96436,2.97095,0,0,0,0,0,0,0,-1,1448,1667,2.96432,-2.97095
231,-643,2.13403,1.08472,0,0,0,0,0,0,0,-1,1455,1667,2.13403,-1.08467
238,-643,1.18152,-0.261963,0,0,0,0,0,0,0,-1,1462,1667,1.18152,0.26192
245,-643,-0.157471,-1.79016,0,0,0,0,0,0,0,-1,1469,1667,-0.157517,1.7901
252,-643,8.08789,0.0202637,0,0,0,0,0,0,0,-1,1476,1667,8.08791,-0.0203056
259,-643,9.02979,-0.46936,0,0,0,0,0,0,0,-1,1483,1667,9.02974,0.46933
266,-643,4.55066,5.17554,0,0,0,0,0,0,0,-1,1490,1667,4.55063,-5.17556
273,-643,10.74,31.432,0,0,0,0,0,0,0,-1,1497,1667,10.7399,-31.4319
280,-643,12.1675,42.5023,0,0,0,0,0,0,0,-1,1504,1667,12.1675,-42.5023
287,-643,12.9725,46.299,0,0,0,0,0,0,0,-1,1511,1667,12.9725,-46.299
294,-643,18.1219,108.518,0,0,0,0,0,0,0,-1,1518,1667,18.122,-108.518
301,-643,18.713,120.823,0,0,0,0,0,0,0,-1,1525,1667,18.713,-120.823
308,-643,19.4183,137.233,0,0,0,0,0,0,0,-1,1532,1667,19.4183,-137.233
315,-643,20.1995,171.383,0,0,0,0,0,0,0,-1,1539,1667,20.1995,-171.383
322,-643,22.1925,213.886,0,0,0,0,0,0,0,-1,1546,1667,22.1925,-213.886
329,-643,48.9558,283.06,0,0,0,0,0,0,0,-1,1553,1667,48.9558,-283.06
336,-643,49.7461,280.073,0,0,0,0,0,0,0,-1,1560,1667,49.7461,-280.073
343,-643,50.4708,277.303,0,0,0,0,0,0,0,-1,1567,1667,50.4708,-277.303
350,-643,50.0382,274.252,0.0732396,0.00449421,0.0475998,0.0975799,-0.0198461,0.47269,0.0725788,0.025394,1574,1667,50.0382,-274.253
357,-643,49.693,271.256,0.0699625,0.00439628,0.0458246,0.0935232,-0.0191644,0.474903,0.0696218,0.021451,1581,1667,49.693,-271.256
364,-643,49.5431,268.247,0.066787,0.00406378,0.043945,0.0894135,-0.0185627,0.475482,0.0666637,0.0181579,1588,1667,49.5431,-268.247
371,-643,49.5419,265.251,0.0638016,0.00378437,0.0421354,0.0855222,-0.0179362,0.475966,0.063839,0.0168149,1595,1667,49.5419,-265.251
378,-643,49.2681,262.147,0.0607963,0.0035532,0.0403088,0.0816115,-0.017262,0.476676,0.0609816,0.0172137,1602,1667,49.2681,-262.147
385,-643,48.8925,258.854,0.0570487,0.00368146,0.0385866,0.0772792,-0.0165491,0.48289,0.0578306,0.0239188,1609,1667,48.8924,-258.854
392,-643,48.4419,255.586,0.0532413,0.00369168,0.0366123,0.0726735,-0.0157405,0.487947,0.0544594,0.0237147,1616,1667,48.4419,-255.586
399,-643,47.9146,252.311,0.0494051,0.00415943,0.0344825,0.0680234,-0.0144589,0.495084,0.0508584,0.0213592,1623,1667,47.9145,-252.311
406,-643,47.5052,248.88,0.0454655,0.00475047,0.0323267,0.0633106,-0.0130947,0.504397,0.0471816,0.0236168,1630,1667,47.5053,-248.88
413,-643,47.0631,245.423,0.0414753,0.00563892,0.0300486,0.0585425,-0.0114283,0.516548,0.043343,0.028596,1637,1667,47.0631,-245.423
420,-643,46.3291,242.065,0.0376177,0.00667366,0.0275241,0.0537203,-0.009429,0.529346,0.0393351,0.0229792,1644,1667,46.3291,-242.065
427,-643,45.6129,238.62,0.0339855,0.00783595,0.0246766,0.0488371,-0.00701565,0.541779,0.0351309,0.020096,1651,1667,45.6129,-238.62
434,-643,44.8407,234.929,0.0303172,0.00924036,0.0213608,0.0435977,-0.00404015,0.55624,0.0305012,0.0356439,1658,1667,44.8407,-234.929
441,-643,44.0325,231.117,0,0,0,0,0,0,0,-1,1665,1667,44.0325,-231.117
448,-643,43.2516,227.103,0,0,0,0,0,0,0,-1,1672,1667,43.2516,-227.103
455,-643,15.6519,213.655,0,0,0,0,0,0,0,-1,1679,1667,15.6519,-213.655
462,-643,14.2635,144.444,0,0,0,0,0,0,0,-1,1686,1667,14.2636,-144.444
469,-643,15.6941,107.608,0,0,0,0,0,0,0,-1,1693,1667,15.6941,-107.608
476,-643,16.5469,79.5991,0,0,0,0,0,0,0,-1,1700,1667,16.5469,-79.5992
483,-643,16.2855,58.1313,0,0,0,0,0,0,0,-1,1707,1667,16.2855,-58.1313
490,-643,10.6885,24.1522,0,0,0,0,0,0,0,-1,1714,1667,10.6884,-24.1522
497,-643,10.9073,23.9465,0,0,0,0,0,0,0,-1,1721,1667,10.9074,-23.9465
504,-643,8.05591,19.0656,0,0,0,0,0,0,0,-1,1728,1667,8.0559,-19.0655
511,-643,7.74719,18.1564,0,0,0,0,0,0,0,-1,1735,1667,7.74724,-18.1563
518,-643,7.40564,0.922607,0,0,0,0,0,0,0,-1,1742,1667,7.4057,-0.922598
525,-643,0,0,0,0,0,0,0,0,0,-1,1749,1667,0,0
532,-643,0,0,0,0,0,0,0,0,0,-1,1756,1667,0,0
539,-643,0,0,0,0,0,0,0,0,0,-1,1763,1667,0,0
546,-643,0,0,0,0,0,0,0,0,0,-1,1770,1667,0,0
553,-643,0,0,0,0,0,0,0,0,0,-1,1777,1667,0,0
560,-643,0,0,0,0,0,0,0,0,0,-1,1784,1667,0,0
567,-643,0,0,0,0,0,0,0,0,0,-1,1791,1667,0,0
574,-643,0,0,0,0,0,0,0,0,0,-1,1798,1667,0,0
581,-643,0,0,0,0,0,0,0,0,0,-1,1805,1667,0,0
588,-643,0,0,0,0,0,0,0,0,0,-1,1812,1667,0,0
595,-643,0,0,0,0,0,0,0,0,0,-1,1819,1667,0,0
602,-643,0,0,0,0,0,0,0,0,0,-1,1826,1667,0,0
609,-643,0,0,0,0,0,0,0,0,0,-1,1833,1667,0,0
616,-643,0,0,0,0,0,0,0,0,0,-1,1840,1667,0,0
623,-643,0,0,0,0,0,0,0,0,0,-1,1847,1667,0,0
630,-643,0,0,0,0,0,0,0,0,0,-1,1854,1667,0,0
637,-643,0,0,0,0,0,0,0,0,0,-1,1861,1667,0,0
644,-643,0,0,0,0,0,0,0,0,0,-1,1868,1667,0,0
651,-643,0,0,0,0,0,0,0,0,0,-1,1875,1667,0,0
658,-643,0,0,0,0,0,0,0,0,0,-1,1882,1667,0,0
665,-643,0,0,0,0,0,0,0,0,0,-1,1889,1667,0,0
672,-643,0,0,0,0,0,0,0,0,0,-1,1896,1667,0,0
679,-643,0,0,0,0,0,0,0,0,0,-1,1903,1667,0,0
686,-643,0,0,0,0,0,0,0,0,0,-1,1910,1667,0,0
693,-643,0,0,0,0,0,0,0,0,0,-1,1917,1667,0,0
700,-643,0,0,0,0,0,0,0,0,0,-1,1924,1667,0,0
707,-643,0,0,0,0,0,0,0,0,0,-1,1931,1667,0,0
714,-643,0,0,0,0,0,0,0,0,0,-1,1938,1667,0,0
721,-643,0,0,0,0,0,0,0,0,0,-1,1945,1667,0,0
728,-643,0,0,0,0,0,0,0,0,0,-1,1952,1667,0,0
735,-643,0,0,0,0,0,0,0,0,0,-1,1959,1667,0,0
742,-643,0,0,0,0,0,0,0,0,0,-1,1966,1667,0,0
749,-643,0,0,0,0,0,0,0,0,0,-1,1973,1667,0,0
756,-643,0,0,0,0,0,0,0,0,0,-1,1980,1667,0,0
763,-643,0,0,0,0,0,0,0,0,0,-1,1987,1667,0,0
770,-643,0,0,0,0,0,0,0,0,0,-1,1994,1667,0,0
777,-643,0,0,0,0,0,0,0,0,0,-1,2001,1667,0,0
784,-643,0,0,0,0,0,0,0,0,0,-1,2008,1667,0,0
791,-643,0,0,0,0,0,0,0,0,0,-1,2015,1667,0,0
798,-643,0,0,0,0,0,0,0,0,0,-1,2022,1667,0,0
805,-643,0,0,0,0,0,0,0,0,0,-1,2029,1667,0,0
812,-643,0,0,0,0,0,0,0,0,0,-1,2036,1667,0,0
-700,-650,0,0,0,0,0,0,0,0,0,-1,524,1674,0,0
-693,-650,0,0,0,0,0,0,0,0,0,-1,531,1674,0,0
-686,-650,0,0,0,0,0,0,0,0,0,-1,538,1674,0,0
-679,-650,0,0,0,0,0,0,0,0,0,-1,545,1674,0,0
-672,-650,0,0,0,0,0,0,0,0,0,-1,552,1674,0,0
-665,-650,0,0,0,0,0,0,0,0,0,-1,559,1674,0,0
-658,-650,0,0,0,0,0,0,0,0,0,-1,566,1674,0,0
-651,-650,0,0,0,0,0,0,0,0,0,-1,573,1674,0,0
-644,-650,0,0,0,0,0,0,0,0,0,-1,580,1674,0,0
-637,-650,0,0,0,0,0,0,0,0,0,-1,587,1674,0,0
-630,-650,0,0,0,0,0,0,0,0,0,-1,594,1674,0,0
-623,-650,0,0,0,0,0,0,0,0,0,-1,601,1674,0,0
-616,-650,0,0,0,0,0,0,0,0,0,-1,608,1674,0,0
-609,-650,0,0,0,0,0,0,0,0,0,-1,615,1674,0,0
-602,-650,0,0,0,0,0,0,0,0,0,-1,622,1674,0,0
-595,-650,0,0,0,0,0,0,0,0,0,-1,629,1674,0,0
-588,-650,0,0,0,0,0,0,0,0,0,-1,636,1674,0,0
-581,-650,0,0,0,0,0,0,0,0,0,-1,643,1674,0,0
-574,-650,0,0,0,0,0,0,0,0,0,-1,650,1674,0,0
-567,-650,0,0,0,0,0,0,0,0,0,-1,657,1674,0,0
-560,-650,0,0,0,0,0,0,0,0,0,-1,664,1674,0,0
-553,-650,0,0,0,0,0,0,0,0,0,-1,671,1674,0,0
-546,-650,0,0,0,0,0,0,0,0,0,-1,678,1674,0,0
-539,-650,0,0,0,0,0,0,0,0,0,-1,685,1674,0,0
-532,-650,0,0,0,0,0,0,0,0,0,-1,692,1674,0,0
-525,-650,0,0,0,0,0,0,0,0,0,-1,699,1674,0,0
-518,-650,0,0,0,0,0,0,0,0,0,-1,706,1674,0,0
-511,-650,0,0,0,0,0,0,0,0,0,-1,713,1674,0,0
-504,-650,0,0,0,0,0,0,0,0,0,-1,720,1674,0,0
-497,-650,0,0,0,0,0,0,0,0,0,-1,727,1674,0,0
-490,-650,0,0,0,0,0,0,0,0,0,-1,734,1674,0,0
-483,-650,0,0,0,0,0,0,0,0,0,-1,741,1674,0,0
-476,-650,0,0,0,0,0,0,0,0,0,-1,748,1674,0,0
-469,-650,0,0,0,0,0,0,0,0,0,-1,755,1674,0,0
-462,-650,0,0,0,0,0,0,0,0,0,-1,762,1674,0,0
-455,-650,0,0,0,0,0,0,0,0,0,-1,769,1674,0,0
-448,-650,0,0,0,0,0,0,0,0,0,-1,776,1674,0,0
-441,-650,0,0,0,0,0,0,0,0,0,-1,783,1674,0,0
-434,-650,0,0,0,0,0,0,0,0,0,-1,790,1674,0,0
-427,-650,0,0,0,0,0,0,0,0,0,-1,797,1674,0,0
-420,-650,0,0,0,0,0,0,0,0,0,-1,804,1674,0,0
-413,-650,0,0,0,0,0,0,0,0,0,-1,811,1674,0,0
-406,-650,0,0,0,0,0,0,0,0,0,-1,818,1674,0,0
-399,-650,0,0,0,0,0,0,0,0,0,-1,825,1674,0,0
-392,-650,5.44415,6.85669,0,0,0,0,0,0,0,-1,832,1674,5.44414,-6.85674
-385,-650,1.74451,14.0183,0,0,0,0,0,0,0,-1,839,1674,1.74453,-14.0183
-378,-650,0.997986,4.11108,0,0,0,0,0,0,0,-1,846,1674,0.998006,-4.11113
-371,-650,-1.80096,3.78625,0,0,0,0,0,0,0,-1,853,1674,-1.80094,-3.78625
-364,-650,-2.95679,2.57507,0,0,0,0,0,0,0,-1,860,1674,-2.95681,-2.57506
-357,-650,5.76074,34.531,0,0,0,0,0,0,0,-1,867,1674,5.76077,-34.531
-350,-650,5.11011,35.4972,0,0,0,0,0,0,0,-1,874,1674,5.1101,-35.4971
-343,-650,5.20538,37.4165,0,0,0,0,0,0,0,-1,881,1674,5.20538,-37.4166
-336,-650,-1.81726,96.24,0,0,0,0,0,0,0,-1,888,1674,-1.81727,-96.24
-329,-650,-3.37445,103.583,0,0,0,0,0,0,0,-1,895,1674,-3.37446,-103.583
-322,-650,-4.90698,122.366,0,0,0,0,0,0,0,-1,902,1674,-4.90696,-122.366
-315,-650,-6.50775,137.28,0,0,0,0,0,0,0,-1,909,1674,-6.50778,-137.28
-308,-650,-8.39423,205.689,0,0,0,0,0,0,0,-1,916,1674,-8.39424,-205.689
-301,-650,-22.0295,232.479,0,0,0,0,0,0,0,-1,923,1674,-22.0296,-232.479
-294,-650,-22.7194,236.505,0,0,0,0,0,0,0,-1,930,1674,-22.7194,-236.505
-287,-650,-23.3663,240.232,0.0523523,0.00249138,-0.0362715,0.0714349,-0.0165913,-0.484313,0.0540099,0.0284506,937,1674,-23.3662,-240.232
-280,-650,-23.8226,243.609,0.0559393,0.00198667,-0.0397158,0.0769741,-0.0190481,-0.487072,0.0587047,0.0303352,944,1674,-23.8226,-243.608
-273,-650,-24.153,246.999,0.0596432,0.00140268,-0.0431105,0.082547,-0.0215012,-0.488359,0.0634251,0.0278023,951,1674,-24.1529,-246.999
-266,-650,-24.658,250.26,0.0640564,0.000655627,-0.0460839,0.0882903,-0.0235783,-0.484124,0.0680942,0.0187057,958,1674,-24.658,-250.26
-259,-650,-24.9815,253.458,0.0685128,-5.76645e-05,-0.0484541,0.0935848,-0.0251296,-0.4775,0.0722384,0.0279319,965,1674,-24.9815,-253.458
-252,-650,-25.0868,256.628,0.0727056,-0.000536436,-0.0502621,0.0982728,-0.0261037,-0.470566,0.0757312,0.0321422,972,1674,-25.0868,-256.628
-245,-650,-25.1769,259.795,0.0765659,-0.00119898,-0.0513494,0.102093,-0.0267262,-0.461348,0.0785023,0.0252198,979,1674,-25.1769,-259.795
-238,-650,-25.4426,262.946,0.0807324,-0.00210392,-0.0521221,0.105889,-0.0272604,-0.449667,0.0812189,0.0180514,986,1674,-25.4426,-262.946
-231,-650,-25.7656,266.124,0.0850342,-0.00319112,-0.0524756,0.109475,-0.0276322,-0.435883,0.0837282,0.0299045,993,1674,-25.7656,-266.124
-224,-650,-25.7409,269.145,0.0887819,-0.0046268,-0.0523256,0.112215,-0.02806,-0.421051,0.0857083,0.033659,1000,1674,-25.7409,-269.145
-217,-650,-25.548,271.93,0.0923427,-0.00611453,-0.0517724,0.114555,-0.0283271,-0.40529,0.0873571,0.0298926,1007,1674,-25.548,-271.93
-210,-650,-25.1957,274.843,0.0958271,-0.00785749,-0.0511537,0.116816,-0.028846,-0.389356,0.0890634,0.0302119,1014,1674,-25.1957,-274.843
-203,-650,-25.1036,277.654,0.0998479,-0.0102306,-0.0505691,0.119552,-0.0299346,-0.371548,0.0913296,0.0235534,1021,1674,-25.1037,-277.654
-196,-650,-25.4633,280.461,0.104043,-0.012448,-0.0500864,0.122616,-0.0310217,-0.355113,0.0938105,0.0251171,1028,1674,-25.4633,-280.461
-189,-650,-25.9156,283.328,0,0,0,0,0,0,0,-1,1035,1674,-25.9156,-283.328
-182,-650,-24.6127,286.088,0,0,0,0,0,0,0,-1,1042,1674,-24.6127,-286.088
-175,-650,-23.6339,288.861,0,0,0,0,0,0,0,-1,1049,1674,-23.6339,-288.861
-168,-650,-7.99158,155.667,0,0,0,0,0,0,0,-1,1056,1674,-7.99163,-155.667
-161,-650,-5.98145,140.817,0,0,0,0,0,0,0,-1,1063,1674,-5.98139,-140.817
-154,-650,-2.67444,122.398,0,0,0,0,0,0,0,-1,1070,1674,-2.67445,-122.398
-147,-650,1.06372,101.053,0,0,0,0,0,0,0,-1,1077,1674,1.06373,-101.053
-140,-650,3.01062,75.6625,0,0,0,0,0,0,0,-1,1084,1674,3.01057,-75.6625
-133,-650,3.06543,72.1895,0,0,0,0,0,0,0,-1,1091,1674,3.06545,-72.1895
-126,-650,3.67334,62.924,0,0,0,0,0,0,0,-1,1098,1674,3.67329,-62.924
-119,-650,5.16663,20.6232,0,0,0,0,0,0,0,-1,1105,1674,5.16665,-20.6232
-112,-650,3.86292,14.4513,0,0,0,0,0,0,0,-1,1112,1674,3.8629,-14.4513
-105,-650,7.92102,38.1313,0,0,0,0,0,0,0,-1,1119,1674,7.92104,-38.1314
-98,-650,3.3761,6.78003,0,0,0,0,0,0,0,-1,1126,1674,3.37611,-6.78009
-91,-650,3.66809,7.04443,0,0,0,0,0,0,0,-1,1133,1674,3.66806,-7.04439
-84,-650,-3.82666,-1.59521,0,0,0,0,0,0,0,-1,1140,1674,-3.82661,1.59517
-77,-650,-4.70557,1.90198,0,0,0,0,0,0,0,-1,1147,1674,-4.7056,-1.90194
-70,-650,-4.88171,3.81653,0,0,0,0,0,0,0,-1,1154,1674,-4.88176,-3.81651
-63,-650,-5.14612,5.56543,0,0,0,0,0,0,0,-1,1161,1674,-5.14612,-5.56547
-56,-650,-5.38367,7.41101,0,0,0,0,0,0,0,-1,1168,1674,-5.38361,-7.41102
-49,-650,-5.11316,8.23706,0,0,0,0,0,0,0,-1,1175,1674,-5.11317,-8.23708
-42,-650,-4.99487,9.6792,0,0,0,0,0,0,0,-1,1182,1674,-4.99484,-9.67921
-35,-650,-4.77771,11.3369,0,0,0,0,0,0,0,-1,1189,1674,-4.77769,-11.3369
-28,-650,-4.1936,13.1501,0,0,0,0,0,0,0,-1,1196,1674,-4.19358,-13.1501
-21,-650,16.578,325.926,0,0,0,0,0,0,0,-1,1203,1674,16.578,-325.926
-14,-650,25.9999,346.069,0,0,0,0,0,0,0,-1,1210,1674,25.9998,-346.069
-7,-650,26.2745,345.514,0,0,0,0,0,0,0,-1,1217,1674,26.2745,-345.514
0,-650,26.3899,344.895,0,0,0,0,0,0,0,-1,1224,1674,26.3899,-344.895
7,-650,26.4034,344.289,0,0,0,0,0,0,0,-1,1231,1674,26.4034,-344.289
14,-650,24.7018,344.414,0,0,0,0,0,0,0,-1,1238,1674,24.7018,-344.414
21,-650,24.7172,343.275,0,0,0,0,0,0,0,-1,1245,1674,24.7171,-343.275
28,-650,24.901,341.997,0,0,0,0,0,0,0,-1,1252,1674,24.901,-341.997
35,-650,25.1176,340.729,0,0,0,0,0,0,0,-1,1259,1674,25.1175,-340.729
42,-650,22.5923,337.432,0,0,0,0,0,0,0,-1,1266,1674,22.5922,-337.432
49,-650,22.1919,336.847,0,0,0,0,0,0,0,-1,1273,1674,22.1919,-336.847
56,-650,21.967,334.672,0,0,0,0,0,0,0,-1,1280,1674,21.9671,-334.672
63,-650,20.9653,334.208,0,0,0,0,0,0,0,-1,1287,1674,20.9653,-334.208
70,-650,19.8225,333.801,0,0,0,0,0,0,0,-1,1294,1674,19.8225,-333.801
77,-650,19.1464,333.67,0,0,0,0,0,0,0,-1,1301,1674,19.1464,-333.67
84,-650,18.4603,333.508,0,0,0,0,0,0,0,-1,1308,1674,18.4604,-333.508
91,-650,18.1425,333.314,0,0,0,0,0,0,0,-1,1315,1674,18.1424,-333.314
98,-650,18.089,332.84,0,0,0,0,0,0,0,-1,1322,1674,18.089,-332.84
105,-650,18.0291,332.479,0,0,0,0,0,0,0,-1,1329,1674,18.029,-332.479
112,-650,18.0071,332.475,0,0,0,0,0,0,0,-1,1336,1674,18.0071,-332.475
119,-650,17.6077,332.665,0,0,0,0,0,0,0,-1,1343,1674,17.6076,-332.665
126,-650,8.5249,333.977,0,0,0,0,0,0,0,-1,1350,1674,8.52485,-333.977
133,-650,6.99316,334.11,0,0,0,0,0,0,0,-1,1357,1674,6.99316,-334.11
140,-650,5.27454,334.704,0,0,0,0,0,0,0,-1,1364,1674,5.27448,-334.704
147,-650,17.9387,329.465,0,0,0,0,0,0,0,-1,1371,1674,17.9387,-329.465
154,-650,2.74048,336.58,0,0,0,0,0,0,0,-1,1378,1674,2.74049,-336.58
161,-650,-1.18494,102.822,0,0,0,0,0,0,0,-1,1385,1674,-1.18498,-102.822
168,-650,11.2113,7.87231,0,0,0,0,0,0,0,-1,1392,1674,11.2113,-7.87236
175,-650,5.62537,-0.230713,0,0,0,0,0,0,0,-1,1399,1674,5.62538,0.230745
182,-650,5.56006,0.421631,0,0,0,0,0,0,0,-1,1406,1674,5.56,-0.421652
189,-650,4.81543,11.0654,0,0,0,0,0,0,0,-1,1413,1674,4.81542,-11.0654
196,-650,5.39575,11.9077,0,0,0,0,0,0,0,-1,1420,1674,5.39575,-11.9078
203,-650,3.93628,11.8215,0,0,0,0,0,0,0,-1,1427,1674,3.93624,-11.8216
210,-650,5.40955,8.08594,0,0,0,0,0,0,0,-1,1434,1674,5.40958,-8.086
217,-650,5.12451,4.69739,0,0,0,0,0,0,0,-1,1441,1674,5.12451,-4.69738
224,-650,4.79041,1.45813,0,0,0,0,0,0,0,-1,1448,1674,4.79046,-1.45816
231,-650,4.04102,-0.642212,0,0,0,0,0,0,0,-1,1455,1674,4.04101,0.642209
238,-650,3.23022,-1.43396,0,0,0,0,0,0,0,-1,1462,1674,3.23023,1.43394
245,-650,1.65894,-2.55042,0,0,0,0,0,0,0,-1,1469,1674,1.65889,2.55036
252,-650,8.75342,0.355103,0,0,0,0,0,0,0,-1,1476,1674,8.75337,-0.355147
259,-650,5.61255,3.17566,0,0,0,0,0,0,0,-1,1483,1674,5.61257,-3.17572
266,-650,4.00403,6.10229,0,0,0,0,0,0,0,-1,1490,1674,4.00401,-6.10225
273,-650,11.9524,42.7109,0,0,0,0,0,0,0,-1,1497,1674,11.9524,-42.7109
280,-650,12.3011,46.7283,0,0,0,0,0,0,0,-1,1504,1674,12.3011,-46.7283
287,-650,14.0593,62.3341,0,0,0,0,0,0,0,-1,1511,1674,14.0593,-62.334
294,-650,17.2339,122.499,0,0,0,0,0,0,0,-1,1518,1674,17.2339,-122.499
301,-650,17.9724,139.27,0,0,0,0,0,0,0,-1,1525,1674,17.9724,-139.27
308,-650,18.6383,183.018,0,0,0,0,0,0,0,-1,1532,1674,18.6382,-183.018
315,-650,46.9932,289.373,0,0,0,0,0,0,0,-1,1539,1674,46.9932,-289.373
322,-650,46.4139,286.4,0,0,0,0,0,0,0,-1,1546,1674,46.414,-286.4
329,-650,46.2528,283.518,0.0749847,0.00342944,0.0447218,0.0964791,-0.0180649,0.448027,0.0711101,0.047951,1553,1674,46.2528,-283.518
336,-650,46.5836,280.797,0.0731094,0.00392127,0.0447292,0.0950614,-0.0180307,0.45624,0.0701611,0.0351919,1560,1674,46.5837,-280.797
343,-650,46.6575,277.949,0.0706496,0.0038898,0.0442577,0.092704,-0.0181646,0.462301,0.0686632,0.0265132,1567,1674,46.6574,-277.949
350,-650,46.4921,274.969,0.0674801,0.00386695,0.0432154,0.0893319,-0.0179849,0.468157,0.0663669,0.0234623,1574,1674,46.492,-274.969
357,-650,46.2661,272.071,0.0641864,0.00389993,0.0414948,0.0853308,-0.0172446,0.471274,0.0634218,0.0207338,1581,1674,46.2661,-272.071
364,-650,46.1727,269.137,0.0609576,0.00371348,0.0396693,0.0812526,-0.0165815,0.472888,0.0604584,0.0171803,1588,1674,46.1727,-269.137
371,-650,45.9441,266.085,0.0577532,0.00355188,0.0378804,0.0772291,-0.015924,0.474896,0.0575334,0.0218874,1595,1674,45.9441,-266.085
378,-650,45.6647,262.945,0.0545378,0.0034983,0.0360386,0.0731772,-0.0151412,0.47732,0.0545371,0.0251608,1602,1674,45.6647,-262.945
385,-650,45.3997,259.803,0.0507971,0.00369857,0.0342609,0.0688215,-0.0143259,0.484305,0.0513271,0.0236604,1609,1674,45.3996,-259.803
392,-650,44.8943,256.578,0.0469935,0.00387668,0.0323062,0.064274,-0.0134038,0.491173,0.0479459,0.0260152,1616,1674,44.8943,-256.578
399,-650,44.3959,253.327,0.0431522,0.00452461,0.0301236,0.0596219,-0.0119451,0.500333,0.0442701,0.0262519,1623,1674,44.3959,-253.327
406,-650,43.7987,249.976,0.0391052,0.00532815,0.0279016,0.0548315,-0.0103981,0.513249,0.0404681,0.03135,1630,1674,43.7987,-249.976
413,-650,43.3312,246.454,0.0350271,0.00643097,0.0255244,0.0499853,-0.00852728,0.530089,0.0364995,0.0281992,1637,1674,43.3312,-246.454
420,-650,42.6216,243.065,0.0313672,0.00753883,0.0228968,0.0452641,-0.00635807,0.545504,0.0325034,0.0292301,1644,1674,42.6216,-243.065
427,-650,41.8706,239.538,0.0279994,0.00881513,0.0199501,0.0405436,-0.00372903,0.56131,0.0283539,0.0356442,1651,1674,41.8706,-239.538
434,-650,41.1469,235.956,0,0,0,0,0,0,0,-1,1658,1674,41.1468,-235.956
441,-650,12.1941,215.891,0,0,0,0,0,0,0,-1,1665,1674,12.194,-215.891
448,-650,10.5579,177.179,0,0,0,0,0,0,0,-1,1672,1674,10.5579,-177.179
455,-650,12.1978,141.432,0,0,0,0,0,0,0,-1,1679,1674,12.1977,-141.432
462,-650,13.7844,109.635,0,0,0,0,0,0,0,-1,1686,1674,13.7845,-109.635
469,-650,16.0024,83.395,0,0,0,0,0,0,0,-1,1693,1674,16.0025,-83.395
476,-650,15.3911,81.0083,0,0,0,0,0,0,0,-1,1700,1674,15.3911,-81.0082
483,-650,14.676,57.1664,0,0,0,0,0,0,0,-1,1707,1674,14.676,-57.1664
490,-650,14.6292,56.9932,0,0,0,0,0,0,0,-1,1714,1674,14.6292,-56.9932
497,-650,10.4985,20.1362,0,0,0,0,0,0,0,-1,1721,1674,10.4986,-20.1362
504,-650,9.69458,18.7721,0,0,0,0,0,0,0,-1,1728,1674,9.6946,-18.772
511,-650,9.37158,17.7506,0,0,0,0,0,0,0,-1,1735,1674,9.37159,-17.7506
518,-650,0,0,0,0,0,0,0,0,0,-1,1742,1674,0,0
525,-650,0,0,0,0,0,0,0,0,0,-1,1749,1674,0,0
532,-650,0,0,0,0,0,0,0,0,0,-1,1756,1674,0,0
539,-650,0,0,0,0,0,0,0,0,0,-1,1763,1674,0,0
546,-650,0,0,0,0,0,0,0,0,0,-1,1770,1674,0,0
553,-650,0,0,0,0,0,0,0,0,0,-1,1777,1674,0,0
560,-650,0,0,0,0,0,0,0,0,0,-1,1784,1674,0,0
567,-650,0,0,0,0,0,0,0,0,0,-1,1791,1674,0,0
574,-650,0,0,0,0,0,0,0,0,0,-1,1798,1674,0,0
581,-650,0,0,0,0,0,0,0,0,0,-1,1805,1674,0,0
588,-650,0,0,0,0,0,0,0,0,0,-1,1812,1674,0,0
595,-650,0,0,0,0,0,0,0,0,0,-1,1819,1674,0,0
602,-650,0,0,0,0,0,0,0,0,0,-1,1826,1674,0,0
609,-650,0,0,0,0,0,0,0,0,0,-1,1833,1674,0,0
616,-650,0,0,0,0,0,0,0,0,0,-1,1840,1674,0,0
623,-650,0,0,0,0,0,0,0,0,0,-1,1847,1674,0,0
630,-650,0,0,0,0,0,0,0,0,0,-1,1854,1674,0,0
637,-650,0,0,0,0,0,0,0,0,0,-1,1861,1674,0,0
644,-650,0,0,0,0,0,0,0,0,0,-1,1868,1674,0,0
651,-650,0,0,0,0,0,0,0,0,0,-1,1875,1674,0,0
658,-650,0,0,0,0,0,0,0,0,0,-1,1882,1674,0,0
665,-650,0,0,0,0,0,0,0,0,0,-1,1889,1674,0,0
672,-650,0,0,0,0,0,0,0,0,0,-1,1896,1674,0,0
679,-650,0,0,0,0,0,0,0,0,0,-1,1903,1674,0,0
686,-650,0,0,0,0,0,0,0,0,0,-1,1910,1674,0,0
693,-650,0,0,0,0,0,0,0,0,0,-1,1917,1674,0,0
700,-650,0,0,0,0,0,0,0,0,0,-1,1924,1674,0,0
707,-650,0,0,0,0,0,0,0,0,0,-1,1931,1674,0,0
714,-650,0,0,0,0,0,0,0,0,0,-1,1938,1674,0,0
721,-650,0,0,0,0,0,0,0,0,0,-1,1945,1674,0,0
728,-650,0,0,0,0,0,0,0,0,0,-1,1952,1674,0,0
735,-650,0,0,0,0,0,0,0,0,0,-1,1959,1674,0,0
742,-650,0,0,0,0,0,0,0,0,0,-1,1966,1674,0,0
749,-650,0,0,0,0,0,0,0,0,0,-1,1973,1674,0,0
756,-650,0,0,0,0,0,0,0,0,0,-1,1980,1674,0,0
763,-650,0,0,0,0,0,0,0,0,0,-1,1987,1674,0,0
770,-650,0,0,0,0,0,0,0,0,0,-1,1994,1674,0,0
777,-650,0,0,0,0,0,0,0,0,0,-1,2001,1674,0,0
784,-650,0,0,0,0,0,0,0,0,0,-1,2008,1674,0,0
791,-650,0,0,0,0,0,0,0,0,0,-1,2015,1674,0,0
798,-650,0,0,0,0,0,0,0,0,0,-1,2022,1674,0,0
805,-650,0,0,0,0,0,0,0,0,0,-1,2029,1674,0,0
812,-650,0,0,0,0,0,0,0,0,0,-1,2036,1674,0,0
-700,-657,0,0,0,0,0,0,0,0,0,-1,524,1681,0,0
-693,-657,0,0,0,0,0,0,0,0,0,-1,531,1681,0,0
-686,-657,0,0,0,0,0,0,0,0,0,-1,538,1681,0,0
-679,-657,0,0,0,0,0,0,0,0,0,-1,545,1681,0,0
-672,-657,0,0,0,0,0,0,0,0,0,-1,552,1681,0,0
-665,-657,0,0,0,0,0,0,0,0,0,-1,559,1681,0,0
-658,-657,0,0,0,0,0,0,0,0,0,-1,566,1681,0,0
-651,-657,0,0,0,0,0,0,0,0,0,-1,573,1681,0,0
-644,-657,0,0,0,0,0,0,0,0,0,-1,580,1681,0,0
-637,-657,0,0,0,0,0,0,0,0,0,-1,587,1681,0,0
-630,-657,0,0,0,0,0,0,0,0,0,-1,594,1681,0,0
-623,-657,0,0,0,0,0,0,0,0,0,-1,601,1681,0,0
-616,-657,0,0,0,0,0,0,0,0,0,-1,608,1681,0,0
-609,-657,0,0,0,0,0,0,0,0,0,-1,615,1681,0,0
-602,-657,0,0,0,0,0,0,0,0,0,-1,622,1681,0,0
-595,-657,0,0,0,0,0,0,0,0,0,-1,629,1681,0,0
-588,-657,0,0,0,0,0,0,0,0,0,-1,636,1681,0,0
-581,-657,0,0,0,0,0,0,0,0,0,-1,643,1681,0,0
-574,-657,0,0,0,0,0,0,0,0,0,-1,650,1681,0,0
-567,-657,0,0,0,0,0,0,0,0,0,-1,657,1681,0,0
-560,-657,0,0,0,0,0,0,0,0,0,-1,664,1681,0,0
-553,-657,0,0,0,0,0,0,0,0,0,-1,671,1681,0,0
-546,-657,0,0,0,0,0,0,0,0,0,-1,678,1681,0,0
-539,-657,0,0,0,0,0,0,0,0,0,-1,685,1681,0,0
-532,-657,0,0,0,0,0,0,0,0,0,-1,692,1681,0,0
-525,-657,0,0,0,0,0,0,0,0,0,-1,699,1681,0,0
-518,-657,0,0,0,0,0,0,0,0,0,-1,706,1681,0,0
-511,-657,0,0,0,0,0,0,0,0,0,-1,713,1681,0,0
-504,-657,0,0,0,0,0,0,0,0,0,-1,720,1681,0,0
-497,-657,0,0,0,0,0,0,0,0,0,-1,727,1681,0,0
-490,-657,0,0,0,0,0,0,0,0,0,-1,734,1681,0,0
-483,-657,0,0,0,0,0,0,0,0,0,-1,741,1681,0,0
-476,-657,0,0,0,0,0,0,0,0,0,-1,748,1681,0,0
-469,-657,0,0,0,0,0,0,0,0,0,-1,755,1681,0,0
-462,-657,0,0,0,0,0,0,0,0,0,-1,762,1681,0,0
-455,-657,0,0,0,0,0,0,0,0,0,-1,769,1681,0,0
-448,-657,0,0,0,0,0,0,0,0,0,-1,776,1681,0,0
-441,-657,0,0,0,0,0,0,0,0,0,-1,783,1681,0,0
-434,-657,0,0,0,0,0,0,0,0,0,-1,790,1681,0,0
-427,-657,0,0,0,0,0,0,0,0,0,-1,797,1681,0,0
-420,-657,0,0,0,0,0,0,0,0,0,-1,804,1681,0,0
-413,-657,0,0,0,0,0,0,0,0,0,-1,811,1681,0,0
-406,-657,0,0,0,0,0,0,0,0,0,-1,818,1681,0,0
-399,-657,0,0,0,0,0,0,0,0,0,-1,825,1681,0,0
-392,-657,0,0,0,0,0,0,0,0,0,-1,832,1681,0,0
-385,-657,1.09814,6.18896,0,0,0,0,0,0,0,-1,839,1681,1.09814,-6.18894
-378,-657,0.31488,4.46753,0,0,0,0,0,0,0,-1,846,1681,0.31487,-4.46755
-371,-657,-0.519043,2.69421,0,0,0,0,0,0,0,-1,853,1681,-0.519064,-2.69422
-364,-657,-3.42017,4.18323,0,0,0,0,0,0,0,-1,860,1681,-3.42019,-4.18319
-357,-657,5.03418,34.7598,0,0,0,0,0,0,0,-1,867,1681,5.03417,-34.7597
-350,-657,4.23431,35.8203,0,0,0,0,0,0,0,-1,874,1681,4.23429,-35.8203
-343,-657,3.60156,36.754,0,0,0,0,0,0,0,-1,881,1681,3.60154,-36.754
-336,-657,-0.500366,95.6331,0,0,0,0,0,0,0,-1,888,1681,-0.500383,-95.633
-329,-657,-0.586609,97.8975,0,0,0,0,0,0,0,-1,895,1681,-0.586639,-97.8975
-322,-657,-0.0598145,99.087,0,0,0,0,0,0,0,-1,902,1681,-0.0598425,-99.087
-315,-657,-2.04041,116.249,0,0,0,0,0,0,0,-1,909,1681,-2.04041,-116.249
-308,-657,-4.58478,139.846,0,0,0,0,0,0,0,-1,916,1681,-4.5848,-139.846
-301,-657,-6.65668,198.948,0,0,0,0,0,0,0,-1,923,1681,-6.65668,-198.948
-294,-657,-18.8942,237.388,0,0,0,0,0,0,0,-1,930,1681,-18.8941,-237.388
-287,-657,-19.7017,241.158,0,0,0,0,0,0,0,-1,937,1681,-19.7017,-241.158
-280,-657,-20.1749,244.437,0.0495146,0.000652749,-0.0323124,0.0655925,-0.0154251,-0.461706,0.0496749,0.0488854,944,1681,-20.1749,-244.437
-273,-657,-20.5416,247.989,0.0526346,0.000228455,-0.0361525,0.0710813,-0.0182183,-0.471812,0.0544852,0.0228345,951,1681,-20.5416,-247.989
-266,-657,-21.1371,251.302,0.0565178,-0.00036179,-0.0394533,0.0767132,-0.0205572,-0.473108,0.0591966,0.0215367,958,1681,-21.1371,-251.302
-259,-657,-21.4786,254.648,0.060549,-0.00102159,-0.0421416,0.0819523,-0.0224249,-0.46994,0.0634449,0.0280796,965,1681,-21.4787,-254.648
-252,-657,-21.6114,257.78,0.0646369,-0.00119506,-0.0445217,0.0870892,-0.0236474,-0.467082,0.0673405,0.020353,972,1681,-21.6114,-257.78
-245,-657,-21.794,260.86,0.0685104,-0.00167192,-0.0461134,0.0913661,-0.0245276,-0.460154,0.070523,0.0209568,979,1681,-21.794,-260.86
-238,-657,-21.9929,263.914,0.0723145,-0.00248406,-0.0471675,0.0951106,-0.0252801,-0.450198,0.0733015,0.025366,986,1681,-21.9928,-263.914
-231,-657,-22.401,267.031,0.0763012,-0.00327094,-0.0479538,0.0988248,-0.0257946,-0.439111,0.0759556,0.0282761,993,1681,-22.401,-267.031
-224,-657,-22.556,270.052,0.0798746,-0.00466448,-0.0483066,0.101794,-0.0265841,-0.425976,0.0782443,0.0306204,1000,1681,-22.556,-270.051
-217,-657,-22.3204,272.962,0.0834443,-0.0060057,-0.0481654,0.104448,-0.0270091,-0.411209,0.0801661,0.0224314,1007,1681,-22.3204,-272.962
-210,-657,-22.1685,275.794,0.0869568,-0.00752954,-0.0479644,0.107037,-0.0276102,-0.396487,0.0821237,0.0224649,1014,1681,-22.1685,-275.794
-203,-657,-22.2318,278.497,0.0907956,-0.00956459,-0.04772,0.109863,-0.0286322,-0.380137,0.0844205,0.0215274,1021,1681,-22.2318,-278.497
-196,-657,-22.546,281.209,0.0947553,-0.0114213,-0.0475311,0.112924,-0.0295901,-0.365112,0.086843,0.0247177,1028,1681,-22.546,-281.209
-189,-657,-22.2561,284.018,0.0986898,-0.012996,-0.0476479,0.116255,-0.0305612,-0.353189,0.0894479,0.0322779,1035,1681,-22.2561,-284.018
-182,-657,-21.6241,286.729,0.102529,-0.0138482,-0.0481939,0.119896,-0.0312146,-0.34586,0.0921155,0.0282307,1042,1681,-21.6241,-286.729
-175,-657,-20.9001,289.47,0,0,0,0,0,0,0,-1,1049,1681,-20.9001,-289.47
-168,-657,-21.7074,291.8,0,0,0,0,0,0,0,-1,1056,1681,-21.7074,-291.8
-161,-657,-21.7408,294.452,0,0,0,0,0,0,0,-1,1063,1681,-21.7408,-294.452
-154,-657,-19.7765,296.862,0,0,0,0,0,0,0,-1,1070,1681,-19.7764,-296.862
-147,-657,-1.66064,123.423,0,0,0,0,0,0,0,-1,1077,1681,-1.6607,-123.423
-140,-657,1.80237,101.693,0,0,0,0,0,0,0,-1,1084,1681,1.80231,-101.693
-133,-657,2.60046,87.6388,0,0,0,0,0,0,0,-1,1091,1681,2.60048,-87.6388
-126,-657,3.6051,70.6309,0,0,0,0,0,0,0,-1,1098,1681,3.60516,-70.6309
-119,-657,5.64758,54.4952,0,0,0,0,0,0,0,-1,1105,1681,5.64753,-54.4952
-112,-657,6.24219,42.9092,0,0,0,0,0,0,0,-1,1112,1681,6.24217,-42.9092
-105,-657,7.37256,41.0361,0,0,0,0,0,0,0,-1,1119,1681,7.37254,-41.0362
-98,-657,8.14404,38.4435,0,0,0,0,0,0,0,-1,1126,1681,8.14405,-38.4435
-91,-657,3.6521,16.6017,0,0,0,0,0,0,0,-1,1133,1681,3.65215,-16.6017
-84,-657,4.08008,10.4579,0,0,0,0,0,0,0,-1,1140,1681,4.08006,-10.4579
-77,-657,-5.29846,0.396606,0,0,0,0,0,0,0,-1,1147,1681,-5.29842,-0.396573
-70,-657,-4.14893,2.14575,0,0,0,0,0,0,0,-1,1154,1681,-4.14893,-2.1458
-63,-657,-4.1239,3.177,0,0,0,0,0,0,0,-1,1161,1681,-4.12391,-3.17698
-56,-657,-6.40576,5.73987,0,0,0,0,0,0,0,-1,1168,1681,-6.40577,-5.7399
-49,-657,-5.98462,7.54053,0,0,0,0,0,0,0,-1,1175,1681,-5.98466,-7.5405
-42,-657,-5.71948,9.28955,0,0,0,0,0,0,0,-1,1182,1681,-5.71951,-9.2895
-35,-657,-5.44556,11.015,0,0,0,0,0,0,0,-1,1189,1681,-5.44555,-11.015
-28,-657,-1.3446,8.92847,0,0,0,0,0,0,0,-1,1196,1681,-1.34459,-8.92848
-21,-657,26.4503,347.681,0,0,0,0,0,0,0,-1,1203,1681,26.4504,-347.681
-14,-657,26.8486,347.047,0,0,0,0,0,0,0,-1,1210,1681,26.8486,-347.047
-7,-657,27.2773,346.426,0,0,0,0,0,0,0,-1,1217,1681,27.2773,-346.426
0,-657,27.522,345.8,0,0,0,0,0,0,0,-1,1224,1681,27.5219,-345.8
7,-657,24.6466,348.63,0,0,0,0,0,0,0,-1,1231,1681,24.6466,-348.63
14,-657,24.7843,346.65,0,0,0,0,0,0,0,-1,1238,1681,24.7843,-346.65
21,-657,25.1498,344.042,0,0,0,0,0,0,0,-1,1245,1681,25.1498,-344.042
28,-657,25.4458,342.72,0,0,0,0,0,0,0,-1,1252,1681,25.4458,-342.72
35,-657,25.7284,341.457,0,0,0,0,0,0,0,-1,1259,1681,25.7284,-341.457
42,-657,26.0693,340.002,0,0,0,0,0,0,0,-1,1266,1681,26.0694,-340.002
49,-657,22.2587,335.337,0,0,0,0,0,0,0,-1,1273,1681,22.2587,-335.337
56,-657,21.2698,334.901,0,0,0,0,0,0,0,-1,1280,1681,21.2698,-334.901
63,-657,20.2893,334.485,0,0,0,0,0,0,0,-1,1287,1681,20.2893,-334.485
70,-657,18.9551,334.265,0,0,0,0,0,0,0,-1,1294,1681,18.9551,-334.265
77,-657,18.0801,334.145,0,0,0,0,0,0,0,-1,1301,1681,18.08,-334.145
84,-657,18.0162,334.163,0,0,0,0,0,0,0,-1,1308,1681,18.0162,-334.163
91,-657,17.5631,333.927,0,0,0,0,0,0,0,-1,1315,1681,17.5631,-333.927
98,-657,17.3668,333.627,0,0,0,0,0,0,0,-1,1322,1681,17.3669,-333.627
105,-657,17.1871,333.462,0,0,0,0,0,0,0,-1,1329,1681,17.1871,-333.462
112,-657,17.0927,333.452,0,0,0,0,0,0,0,-1,1336,1681,17.0927,-333.452
119,-657,16.8472,333.489,0,0,0,0,0,0,0,-1,1343,1681,16.8471,-333.489
126,-657,16.507,333.387,0,0,0,0,0,0,0,-1,1350,1681,16.507,-333.387
133,-657,6.70239,333.258,0,0,0,0,0,0,0,-1,1357,1681,6.70236,-333.258
140,-657,16.1763,331.42,0,0,0,0,0,0,0,-1,1364,1681,16.1762,-331.42
147,-657,16.8541,330.772,0,0,0,0,0,0,0,-1,1371,1681,16.8541,-330.772
154,-657,17.1171,330.312,0,0,0,0,0,0,0,-1,1378,1681,17.1171,-330.312
161,-657,4.2926,24.9226,0,0,0,0,0,0,0,-1,1385,1681,4.29264,-24.9226
168,-657,5.21643,0.70105,0,0,0,0,0,0,0,-1,1392,1681,5.21648,-0.7011
175,-657,5.52771,0.649048,0,0,0,0,0,0,0,-1,1399,1681,5.52774,-0.649019
182,-657,5.73999,1.02612,0,0,0,0,0,0,0,-1,1406,1681,5.73995,-1.02611
189,-657,5.92126,1.44116,0,0,0,0,0,0,0,-1,1413,1681,5.92126,-1.44115
196,-657,4.92834,9.59021,0,0,0,0,0,0,0,-1,1420,1681,4.9284,-9.59018
203,-657,6.26343,5.16492,0,0,0,0,0,0,0,-1,1427,1681,6.26345,-5.16488
210,-657,3.9856,5.28088,0,0,0,0,0,0,0,-1,1434,1681,3.98555,-5.28084
217,-657,3.95178,5.2843,0,0,0,0,0,0,0,-1,1441,1681,3.95174,-5.28431
224,-657,6.66736,-0.250244,0,0,0,0,0,0,0,-1,1448,1681,6.66737,0.250229
231,-657,6.85498,-1.70752,0,0,0,0,0,0,0,-1,1455,1681,6.855,1.70758
238,-657,5.34143,-2.89819,0,0,0,0,0,0,0,-1,1462,1681,5.34143,2.89813
245,-657,8.66003,-0.102783,0,0,0,0,0,0,0,-1,1469,1681,8.66,0.102824
252,-657,4.78955,0.623779,0,0,0,0,0,0,0,-1,1476,1681,4.7895,-0.623826
259,-657,2.61523,4.31909,0,0,0,0,0,0,0,-1,1483,1681,2.61523,-4.31908
266,-657,5.35437,11.4742,0,0,0,0,0,0,0,-1,1490,1681,5.35441,-11.4742
273,-657,14.0199,72.9027,0,0,0,0,0,0,0,-1,1497,1681,14.0199,-72.9028
280,-657,14.3578,78.1829,0,0,0,0,0,0,0,-1,1504,1681,14.3578,-78.1828
287,-657,14.3231,79.979,0,0,0,0,0,0,0,-1,1511,1681,14.3232,-79.979
294,-657,16.139,139.461,0,0,0,0,0,0,0,-1,1518,1681,16.1391,-139.461
301,-657,42.2504,294.426,0,0,0,0,0,0,0,-1,1525,1681,42.2504,-294.426
308,-657,43.5789,292.547,0,0,0,0,0,0,0,-1,1532,1681,43.5788,-292.547
315,-657,43.7496,289.685,0,0,0,0,0,0,0,-1,1539,1681,43.7496,-289.685
322,-657,43.7133,286.885,0.0716581,0.00104857,0.0399115,0.0896389,-0.0169323,0.423284,0.0661299,0.0262864,1546,1681,43.7132,-286.885
329,-657,43.4598,284.242,0.0691521,0.00238394,0.0402891,0.0880911,-0.0165551,0.439425,0.0649529,0.0275874,1553,1681,43.4599,-284.242
336,-657,43.2897,281.424,0.0671654,0.0032463,0.0401686,0.0865374,-0.0161257,0.449361,0.0637503,0.0321267,1560,1681,43.2896,-281.424
343,-657,43.2622,278.661,0.064653,0.00338435,0.0395697,0.0840609,-0.0160236,0.455997,0.062075,0.0271103,1567,1681,43.2623,-278.661
350,-657,43.2556,275.736,0.0615133,0.00353377,0.0384885,0.0807082,-0.0156612,0.462623,0.0597144,0.0260375,1574,1681,43.2556,-275.736
357,-657,43.0602,272.874,0.0582664,0.00365544,0.0368365,0.0768142,-0.0148923,0.466456,0.0568278,0.0287765,1581,1681,43.0602,-272.874
364,-657,42.9407,269.964,0.0550495,0.0035603,0.0350919,0.0728276,-0.0142178,0.468926,0.0539195,0.0218421,1588,1681,42.9407,-269.964
371,-657,42.5913,266.884,0.0517089,0.00351288,0.0333559,0.0687609,-0.0135392,0.472581,0.0509568,0.0253217,1595,1681,42.5913,-266.884
378,-657,42.2139,263.768,0.0482995,0.00361594,0.0315219,0.0645943,-0.0126789,0.477104,0.0478523,0.0323064,1602,1681,42.2138,-263.768
385,-657,41.8911,260.771,0.0445784,0.00386256,0.029688,0.060218,-0.0117771,0.484857,0.0445925,0.0249355,1609,1681,41.8911,-260.771
392,-657,41.3665,257.554,0.0408035,0.00420185,0.0277687,0.0557596,-0.0107542,0.494044,0.041228,0.02047,1616,1681,41.3664,-257.554
399,-657,40.8986,254.282,0.0369705,0.00501449,0.0255533,0.05113,-0.00914502,0.505998,0.0375085,0.0236128,1623,1681,40.8986,-254.282
406,-657,40.3154,250.947,0.0327871,0.00600786,0.0232586,0.0462348,-0.00743986,0.524223,0.033579,0.0296277,1630,1681,40.3154,-250.947
413,-657,39.6957,247.481,0.0285275,0.00729494,0.0207335,0.0412046,-0.00538215,0.548783,0.0294283,0.0418985,1637,1681,39.6956,-247.481
420,-657,39.0433,243.908,0,0,0,0,0,0,0,-1,1644,1681,39.0434,-243.908
427,-657,38.2131,240.355,0,0,0,0,0,0,0,-1,1651,1681,38.2132,-240.355
434,-657,9.1781,208.291,0,0,0,0,0,0,0,-1,1658,1681,9.17815,-208.291
441,-657,10.9042,153.156,0,0,0,0,0,0,0,-1,1665,1681,10.9042,-153.156
448,-657,12.9525,108.331,0,0,0,0,0,0,0,-1,1672,1681,12.9525,-108.331
455,-657,12.2253,107.353,0,0,0,0,0,0,0,-1,1679,1681,12.2253,-107.353
462,-657,14.8794,84.5696,0,0,0,0,0,0,0,-1,1686,1681,14.8794,-84.5695
469,-657,16.2104,82.9287,0,0,0,0,0,0,0,-1,1693,1681,16.2105,-82.9287
476,-657,13.2048,56.4302,0,0,0,0,0,0,0,-1,1700,1681,13.2048,-56.4302
483,-657,13.0665,56.2015,0,0,0,0,0,0,0,-1,1707,1681,13.0666,-56.2016
490,-657,11.6039,21.2185,0,0,0,0,0,0,0,-1,1714,1681,11.6038,-21.2185
497,-657,9.20862,17.8127,0,0,0,0,0,0,0,-1,1721,1681,9.2086,-17.8127
504,-657,0,0,0,0,0,0,0,0,0,-1,1728,1681,0,0
511,-657,0,0,0,0,0,0,0,0,0,-1,1735,1681,0,0
518,-657,0,0,0,0,0,0,0,0,0,-1,1742,1681,0,0
525,-657,0,0,0,0,0,0,0,0,0,-1,1749,1681,0,0
532,-657,0,0,0,0,0,0,0,0,0,-1,1756,1681,0,0
539,-657,0,0,0,0,0,0,0,0,0,-1,1763,1681,0,0
546,-657,0,0,0,0,0,0,0,0,0,-1,1770,1681,0,0
553,-657,0,0,0,0,0,0,0,0,0,-1,1777,1681,0,0
560,-657,0,0,0,0,0,0,0,0,0,-1,1784,1681,0,0
567,-657,0,0,0,0,0,0,0,0,0,-1,1791,1681,0,0
574,-657,0,0,0,0,0,0,0,0,0,-1,1798,1681,0,0
581,-657,0,0,0,0,0,0,0,0,0,-1,1805,1681,0,0
588,-657,0,0,0,0,0,0,0,0,0,-1,1812,1681,0,0
595,-657,0,0,0,0,0,0,0,0,0,-1,1819,1681,0,0
602,-657,0,0,0,0,0,0,0,0,0,-1,1826,1681,0,0
609,-657,0,0,0,0,0,0,0,0,0,-1,1833,1681,0,0
616,-657,0,0,0,0,0,0,0,0,0,-1,1840,1681,0,0
623,-657,0,0,0,0,0,0,0,0,0,-1,1847,1681,0,0
630,-657,0,0,0,0,0,0,0,0,0,-1,1854,1681,0,0
637,-657,0,0,0,0,0,0,0,0,0,-1,1861,1681,0,0
644,-657,0,0,0,0,0,0,0,0,0,-1,1868,1681,0,0
651,-657,0,0,0,0,0,0,0,0,0,-1,1875,1681,0,0
658,-657,0,0,0,0,0,0,0,0,0,-1,1882,1681,0,0
665,-657,0,0,0,0,0,0,0,0,0,-1,1889,1681,0,0
672,-657,0,0,0,0,0,0,0,0,0,-1,1896,1681,0,0
679,-657,0,0,0,0,0,0,0,0,0,-1,1903,1681,0,0
686,-657,0,0,0,0,0,0,0,0,0,-1,1910,1681,0,0
693,-657,0,0,0,0,0,0,0,0,0,-1,1917,1681,0,0
700,-657,0,0,0,0,0,0,0,0,0,-1,1924,1681,0,0
707,-657,0,0,0,0,0,0,0,0,0,-1,1931,1681,0,0
714,-657,0,0,0,0,0,0,0,0,0,-1,1938,1681,0,0
721,-657,0,0,0,0,0,0,0,0,0,-1,1945,1681,0,0
728,-657,0,0,0,0,0,0,0,0,0,-1,1952,1681,0,0
735,-657,0,0,0,0,0,0,0,0,0,-1,1959,1681,0,0
742,-657,0,0,0,0,0,0,0,0,0,-1,1966,1681,0,0
749,-657,0,0,0,0,0,0,0,0,0,-1,1973,1681,0,0
756,-657,0,0,0,0,0,0,0,0,0,-1,1980,1681,0,0
763,-657,0,0,0,0,0,0,0,0,0,-1,1987,1681,0,0
770,-657,0,0,0,0,0,0,0,0,0,-1,1994,1681,0,0
777,-657,0,0,0,0,0,0,0,0,0,-1,2001,1681,0,0
784,-657,0,0,0,0,0,0,0,0,0,-1,2008,1681,0,0
791,-657,0,0,0,0,0,0,0,0,0,-1,2015,1681,0,0
798,-657,0,0,0,0,0,0,0,0,0,-1,2022,1681,0,0
805,-657,0,0,0,0,0,0,0,0,0,-1,2029,1681,0,0
812,-657,0,0,0,0,0,0,0,0,0,-1,2036,1681,0,0
-700,-664,0,0,0,0,0,0,0,0,0,-1,524,1688,0,0
-693,-664,0,0,0,0,0,0,0,0,0,-1,531,1688,0,0
-686,-664,0,0,0,0,0,0,0,0,0,-1,538,1688,0,0
-679,-664,0,0,0,0,0,0,0,0,0,-1,545,1688,0,0
-672,-664,0,0,0,0,0,0,0,0,0,-1,552,1688,0,0
-665,-664,0,0,0,0,0,0,0,0,0,-1,559,1688,0,0
-658,-664,0,0,0,0,0,0,0,0,0,-1,566,1688,0,0
-651,-664,0,0,0,0,0,0,0,0,0,-1,573,1688,0,0
-644,-664,0,0,0,0,0,0,0,0,0,-1,580,1688,0,0
-637,-664,0,0,0,0,0,0,0,0,0,-1,587,1688,0,0
-630,-664,0,0,0,0,0,0,0,0,0,-1,594,1688,0,0
-623,-664,0,0,0,0,0,0,0,0,0,-1,601,1688,0,0
-616,-664,0,0,0,0,0,0,0,0,0,-1,608,1688,0,0
-609,-664,0,0,0,0,0,0,0,0,0,-1,615,1688,0,0
-602,-664,0,0,0,0,0,0,0,0,0,-1,622,1688,0,0
-595,-664,0,0,0,0,0,0,0,0,0,-1,629,1688,0,0
-588,-664,0,0,0,0,0,0,0,0,0,-1,636,1688,0,0
-581,-664,0,0,0,0,0,0,0,0,0,-1,643,1688,0,0
-574,-664,0,0,0,0,0,0,0,0,0,-1,650,1688,0,0
-567,-664,0,0,0,0,0,0,0,0,0,-1,657,1688,0,0
-560,-664,0,0,0,0,0,0,0,0,0,-1,664,1688,0,0
-553,-664,0,0,0,0,0,0,0,0,0,-1,671,1688,0,0
-546,-664,0,0,0,0,0,0,0,0,0,-1,678,1688,0,0
-539,-664,0,0,0,0,0,0,0,0,0,-1,685,1688,0,0
-532,-664,0,0,0,0,0,0,0,0,0,-1,692,1688,0,0
-525,-664,0,0,0,0,0,0,0,0,0,-1,699,1688,0,0
-518,-664,0,0,0,0,0,0,0,0,0,-1,706,1688,0,0
-511,-664,0,0,0,0,0,0,0,0,0,-1,713,1688,0,0
-504,-664,0,0,0,0,0,0,0,0,0,-1,720,1688,0,0
-497,-664,0,0,0,0,0,0,0,0,0,-1,727,1688,0,0
-490,-664,0,0,0,0,0,0,0,0,0,-1,734,1688,0,0
-483,-664,0,0,0,0,0,0,0,0,0,-1,741,1688,0,0
-476,-664,0,0,0,0,0,0,0,0,0,-1,748,1688,0,0
-469,-664,0,0,0,0,0,0,0,0,0,-1,755,1688,0,0
-462,-664,0,0,0,0,0,0,0,0,0,-1,762,1688,0,0
-455,-664,0,0,0,0,0,0,0,0,0,-1,769,1688,0,0
-448,-664,0,0,0,0,0,0,0,0,0,-1,776,1688,0,0
-441,-664,0,0,0,0,0,0,0,0,0,-1,783,1688,0,0
-434,-664,0,0,0,0,0,0,0,0,0,-1,790,1688,0,0
-427,-664,0,0,0,0,0,0,0,0,0,-1,797,1688,0,0
-420,-664,0,0,0,0,0,0,0,0,0,-1,804,1688,0,0
-413,-664,0,0,0,0,0,0,0,0,0,-1,811,1688,0,0
-406,-664,0,0,0,0,0,0,0,0,0,-1,818,1688,0,0
-399,-664,0,0,0,0,0,0,0,0,0,-1,825,1688,0,0
-392,-664,0,0,0,0,0,0,0,0,0,-1,832,1688,0,0
-385,-664,0,0,0,0,0,0,0,0,0,-1,839,1688,0,0
-378,-664,0,0,0,0,0,0,0,0,0,-1,846,1688,0,0
-371,-664,-1.61676,5.92737,0,0,0,0,0,0,0,-1,853,1688,-1.61675,-5.92735
-364,-664,-3.901,5.87024,0,0,0,0,0,0,0,-1,860,1688,-3.90097,-5.87027
-357,-664,-4.81012,4.53479,0,0,0,0,0,0,0,-1,867,1688,-4.81012,-4.5348
-350,-664,3.26105,36.0225,0,0,0,0,0,0,0,-1,874,1688,3.26104,-36.0224
-343,-664,3.36761,61.1754,0,0,0,0,0,0,0,-1,881,1688,3.36762,-61.1755
-336,-664,3.50519,61.7698,0,0,0,0,0,0,0,-1,888,1688,3.50521,-61.7698
-329,-664,0.881653,98.2546,0,0,0,0,0,0,0,-1,895,1688,0.881656,-98.2546
-322,-664,4.09424,63.087,0,0,0,0,0,0,0,-1,902,1688,4.09425,-63.087
-315,-664,5.4184,55.4478,0,0,0,0,0,0,0,-1,909,1688,5.41837,-55.4477
-308,-664,-0.557312,118.209,0,0,0,0,0,0,0,-1,916,1688,-0.557291,-118.209
-301,-664,-1.91498,130.912,0,0,0,0,0,0,0,-1,923,1688,-1.91496,-130.912
-294,-664,-3.83344,202.808,0,0,0,0,0,0,0,-1,930,1688,-3.83344,-202.808
-287,-664,-4.513,218.413,0,0,0,0,0,0,0,-1,937,1688,-4.51303,-218.413
-280,-664,-16.3997,245.217,0,0,0,0,0,0,0,-1,944,1688,-16.3996,-245.217
-273,-664,-17.0081,248.973,0,0,0,0,0,0,0,-1,951,1688,-17.0081,-248.973
-266,-664,-17.5971,252.376,0,0,0,0,0,0,0,-1,958,1688,-17.5971,-252.376
-259,-664,-17.8297,255.244,0,0,0,0,0,0,0,-1,965,1688,-17.8297,-255.244
-252,-664,-18.1467,258.822,0,0,0,0,0,0,0,-1,972,1688,-18.1467,-258.822
-245,-664,-18.4098,261.795,0.0604892,-0.00133652,-0.0412587,0.0811311,-0.0219784,-0.46389,0.0627107,0.0283936,979,1688,-18.4098,-261.795
-238,-664,-18.632,264.853,0.06393,-0.00205076,-0.0425887,0.0848113,-0.0229321,-0.45586,0.0655362,0.0292152,986,1688,-18.632,-264.853
-231,-664,-18.9791,267.888,0.0676083,-0.00259953,-0.0437746,0.0886159,-0.0236071,-0.447442,0.0683197,0.0263692,993,1688,-18.9791,-267.888
-224,-664,-19.2605,270.897,0.07106,-0.00395546,-0.0445805,0.0918125,-0.0247079,-0.435673,0.0708943,0.0274195,1000,1688,-19.2605,-270.897
-217,-664,-19.2419,273.788,0.0746713,-0.0051521,-0.0447795,0.0947442,-0.025225,-0.421406,0.0730378,0.0212985,1007,1688,-19.242,-273.789
-210,-664,-19.1934,276.557,0.0782193,-0.00649165,-0.0448784,0.0975733,-0.0258456,-0.407156,0.0751602,0.0222239,1014,1688,-19.1934,-276.557
-203,-664,-19.2761,279.391,0.0818697,-0.00825406,-0.0448834,0.100409,-0.0267932,-0.391707,0.0774312,0.0236799,1021,1688,-19.2761,-279.391
-196,-664,-19.29,282.166,0.0856391,-0.009876,-0.0448688,0.10341,-0.027647,-0.377111,0.0797691,0.0313119,1028,1688,-19.29,-282.166
-189,-664,-19.0762,284.766,0.0894886,-0.011341,-0.0450582,0.10669,-0.028542,-0.364675,0.0823068,0.0278515,1035,1688,-19.0763,-284.766
-182,-664,-18.7228,287.429,0.0933412,-0.0122243,-0.0456133,0.110319,-0.0292025,-0.356332,0.0849699,0.0259616,1042,1688,-18.7228,-287.429
-175,-664,-18.6609,289.909,0.0969857,-0.0125946,-0.0463131,0.113937,-0.0295461,-0.350874,0.087486,0.0270691,1049,1688,-18.6608,-289.909
-168,-664,-18.6591,292.41,0,0,0,0,0,0,0,-1,1056,1688,-18.659,-292.41
-161,-664,-18.6704,294.946,0,0,0,0,0,0,0,-1,1063,1688,-18.6704,-294.946
-154,-664,-18.2242,297.469,0,0,0,0,0,0,0,-1,1070,1688,-18.2242,-297.469
-147,-664,-16.9305,299.284,0,0,0,0,0,0,0,-1,1077,1688,-16.9305,-299.284
-140,-664,-16.6177,301.816,0,0,0,0,0,0,0,-1,1084,1688,-16.6177,-301.816
-133,-664,-7.02014,177.951,0,0,0,0,0,0,0,-1,1091,1688,-7.0202,-177.951
-126,-664,3.53955,87.8251,0,0,0,0,0,0,0,-1,1098,1688,3.53951,-87.8251
-119,-664,5.36035,67.1663,0,0,0,0,0,0,0,-1,1105,1688,5.36031,-67.1663
-112,-664,6.3916,51.1235,0,0,0,0,0,0,0,-1,1112,1688,6.39161,-51.1236
-105,-664,6.87256,43.2527,0,0,0,0,0,0,0,-1,1119,1688,6.87258,-43.2527
-98,-664,7.69324,41.3359,0,0,0,0,0,0,0,-1,1126,1688,7.69321,-41.3359
-91,-664,5.41931,25.6302,0,0,0,0,0,0,0,-1,1133,1688,5.41932,-25.6302
-84,-664,3.48389,16.6913,0,0,0,0,0,0,0,-1,1140,1688,3.4839,-16.6913
-77,-664,4.52014,11.2122,0,0,0,0,0,0,0,-1,1147,1688,4.5202,-11.2122
-70,-664,4.20374,8.24524,0,0,0,0,0,0,0,-1,1154,1688,4.20379,-8.24519
-63,-664,-4.677,2.40503,0,0,0,0,0,0,0,-1,1161,1688,-4.67702,-2.40498
-56,-664,-4.66504,3.32727,0,0,0,0,0,0,0,-1,1168,1688,-4.6651,-3.32724
-49,-664,-2.54297,3.31848,0,0,0,0,0,0,0,-1,1175,1688,-2.54297,-3.31852
-42,-664,-0.359253,4.38684,0,0,0,0,0,0,0,-1,1182,1688,-0.359261,-4.38685
-35,-664,-0.705566,3.55017,0,0,0,0,0,0,0,-1,1189,1688,-0.705567,-3.55023
-28,-664,-1.54236,10.2538,0,0,0,0,0,0,0,-1,1196,1688,-1.54236,-10.2538
-21,-664,27.5452,348.635,0,0,0,0,0,0,0,-1,1203,1688,27.5452,-348.635
-14,-664,27.9646,347.989,0,0,0,0,0,0,0,-1,1210,1688,27.9645,-347.989
-7,-664,28.3596,347.356,0,0,0,0,0,0,0,-1,1217,1688,28.3596,-347.356
0,-664,24.0052,351.801,0,0,0,0,0,0,0,-1,1224,1688,24.0052,-351.801
7,-664,24.6187,349.735,0,0,0,0,0,0,0,-1,1231,1688,24.6187,-349.735
14,-664,25.016,347.567,0,0,0,0,0,0,0,-1,1238,1688,25.0161,-347.567
21,-664,25.5361,345.678,0,0,0,0,0,0,0,-1,1245,1688,25.5362,-345.678
28,-664,25.9683,343.918,0,0,0,0,0,0,0,-1,1252,1688,25.9683,-343.918
35,-664,26.3569,342.317,0,0,0,0,0,0,0,-1,1259,1688,26.3569,-342.317
42,-664,26.7191,340.668,0,0,0,0,0,0,0,-1,1266,1688,26.7191,-340.668
49,-664,26.9746,339.097,0,0,0,0,0,0,0,-1,1273,1688,26.9746,-339.097
56,-664,20.5388,335.054,0,0,0,0,0,0,0,-1,1280,1688,20.5388,-335.054
63,-664,19.5798,334.747,0,0,0,0,0,0,0,-1,1287,1688,19.5798,-334.747
70,-664,17.7249,336.108,0,0,0,0,0,0,0,-1,1294,1688,17.7248,-336.108
77,-664,17.9541,334.95,0,0,0,0,0,0,0,-1,1301,1688,17.9541,-334.95
84,-664,17.4447,334.726,0,0,0,0,0,0,0,-1,1308,1688,17.4447,-334.726
91,-664,16.9885,334.469,0,0,0,0,0,0,0,-1,1315,1688,16.9885,-334.469
98,-664,16.5962,334.238,0,0,0,0,0,0,0,-1,1322,1688,16.5962,-334.238
105,-664,16.1379,334.068,0,0,0,0,0,0,0,-1,1329,1688,16.138,-334.068
112,-664,16.2999,334.029,0,0,0,0,0,0,0,-1,1336,1688,16.2999,-334.029
119,-664,16.0867,334.313,0,0,0,0,0,0,0,-1,1343,1688,16.0866,-334.313
126,-664,7.81897,331.591,0,0,0,0,0,0,0,-1,1350,1688,7.81897,-331.591
133,-664,15.4645,333.197,0,0,0,0,0,0,0,-1,1357,1688,15.4645,-333.197
140,-664,15.3984,332.83,0,0,0,0,0,0,0,-1,1364,1688,15.3985,-332.83
147,-664,15.7059,332.084,0,0,0,0,0,0,0,-1,1371,1688,15.7059,-332.084
154,-664,15.9983,331.612,0,0,0,0,0,0,0,-1,1378,1688,15.9982,-331.612
161,-664,4.60132,1.56238,0,0,0,0,0,0,0,-1,1385,1688,4.60134,-1.56233
168,-664,5.172,1.25488,0,0,0,0,0,0,0,-1,1392,1688,5.17203,-1.25484
175,-664,5.58313,1.16467,0,0,0,0,0,0,0,-1,1399,1688,5.58317,-1.16466
182,-664,5.74268,1.41113,0,0,0,0,0,0,0,-1,1406,1688,5.74263,-1.41115
189,-664,5.87744,1.87061,0,0,0,0,0,0,0,-1,1413,1688,5.87745,-1.87065
196,-664,6.7594,5.97473,0,0,0,0,0,0,0,-1,1420,1688,6.75943,-5.97478
203,-664,5.38452,5.22034,0,0,0,0,0,0,0,-1,1427,1688,5.38453,-5.2203
210,-664,5.25549,6.45715,0,0,0,0,0,0,0,-1,1434,1688,5.25549,-6.45721
217,-664,5.72009,6.73975,0,0,0,0,0,0,0,-1,1441,1688,5.72014,-6.73972
224,-664,5.05725,7.42908,0,0,0,0,0,0,0,-1,1448,1688,5.05723,-7.42912
231,-664,5.13318,7.60864,0,0,0,0,0,0,0,-1,1455,1688,5.13313,-7.60862
238,-664,4.23193,6.45471,0,0,0,0,0,0,0,-1,1462,1688,4.23197,-6.45476
245,-664,4.42004,6.80896,0,0,0,0,0,0,0,-1,1469,1688,4.4201,-6.80901
252,-664,3.67346,6.85461,0,0,0,0,0,0,0,-1,1476,1688,3.6734,-6.85462
259,-664,4.55823,11.7435,0,0,0,0,0,0,0,-1,1483,1688,4.55826,-11.7435
266,-664,13.2228,73.7821,0,0,0,0,0,0,0,-1,1490,1688,13.2228,-73.7821
273,-664,15.088,112.14,0,0,0,0,0,0,0,-1,1497,1688,15.088,-112.14
280,-664,39.2665,302.396,0,0,0,0,0,0,0,-1,1504,1688,39.2664,-302.396
287,-664,38.8668,300.445,0,0,0,0,0,0,0,-1,1511,1688,38.8668,-300.445
294,-664,39.1487,297.882,0,0,0,0,0,0,0,-1,1518,1688,39.1487,-297.882
301,-664,39.851,294.942,0,0,0,0,0,0,0,-1,1525,1688,39.851,-294.942
308,-664,40.2625,292.453,0,0,0,0,0,0,0,-1,1532,1688,40.2625,-292.453
315,-664,40.4102,290.003,0,0,0,0,0,0,0,-1,1539,1688,40.4101,-290.003
322,-664,40.658,287.602,0.0655297,0.000888686,0.0356796,0.0813511,-0.0149328,0.417378,0.059836,0.0279656,1546,1688,40.6579,-287.602
329,-664,40.4893,284.915,0.0630782,0.00215663,0.0358026,0.0796247,-0.0143899,0.43292,0.058473,0.0265502,1553,1688,40.4892,-284.915
336,-664,40.3522,282.223,0.0609783,0.00311333,0.0354647,0.0778151,-0.0137235,0.443244,0.0570046,0.0232617,1560,1688,40.3521,-282.223
343,-664,40.1614,279.391,0.0584449,0.00331366,0.0346802,0.0751803,-0.0134217,0.449601,0.0551413,0.0234506,1567,1688,40.1613,-279.391
350,-664,40.108,276.57,0.0553892,0.00355225,0.0335107,0.071835,-0.0128936,0.456231,0.0527161,0.0275317,1574,1688,40.108,-276.57
357,-664,39.9213,273.71,0.052235,0.00369539,0.0319033,0.0680506,-0.0121203,0.460232,0.0499003,0.0279691,1581,1688,39.9212,-273.711
364,-664,39.6686,270.768,0.0490669,0.00364814,0.0302315,0.0641684,-0.0114533,0.463269,0.0470635,0.0214645,1588,1688,39.6685,-270.768
371,-664,39.369,267.77,0.0456724,0.00373377,0.028543,0.0601208,-0.0107146,0.468594,0.0440882,0.0219,1595,1688,39.369,-267.77
378,-664,38.9451,264.714,0.0420767,0.00398151,0.0267249,0.0558473,-0.0097891,0.47579,0.040887,0.0237243,1602,1688,38.9451,-264.714
385,-664,38.4751,261.647,0.0383745,0.00425047,0.0248291,0.0514388,-0.00881387,0.484364,0.0375767,0.0260378,1609,1688,38.4751,-261.647
392,-664,37.9475,258.464,0.0346618,0.00474059,0.0229841,0.0471255,-0.00772308,0.496891,0.0342825,0.0248435,1616,1688,37.9475,-258.464
399,-664,37.3882,255.148,0.0308723,0.00570695,0.0208204,0.0426169,-0.0060376,0.513595,0.0306228,0.0287419,1623,1688,37.3881,-255.148
406,-664,36.8218,251.78,0,0,0,0,0,0,0,-1,1630,1688,36.8217,-251.78
413,-664,36.231,248.337,0,0,0,0,0,0,0,-1,1637,1688,36.2309,-248.337
420,-664,9.7854,231.423,0,0,0,0,0,0,0,-1,1644,1688,9.78542,-231.423
427,-664,6.96497,211.559,0,0,0,0,0,0,0,-1,1651,1688,6.96493,-211.559
434,-664,8.73584,155.847,0,0,0,0,0,0,0,-1,1658,1688,8.73585,-155.847
441,-664,11.7097,109.925,0,0,0,0,0,0,0,-1,1665,1688,11.7097,-109.925
448,-664,14.7797,87.4095,0,0,0,0,0,0,0,-1,1672,1688,14.7797,-87.4095
455,-664,12.8,86.4729,0,0,0,0,0,0,0,-1,1679,1688,12.8,-86.4729
462,-664,14.3168,84.5027,0,0,0,0,0,0,0,-1,1686,1688,14.3168,-84.5026
469,-664,6.05469,7.49341,0,0,0,0,0,0,0,-1,1693,1688,6.05474,-7.49339
476,-664,10.2377,22.7128,0,0,0,0,0,0,0,-1,1700,1688,10.2377,-22.7128
483,-664,8.41895,10.9768,0,0,0,0,0,0,0,-1,1707,1688,8.41897,-10.9769
490,-664,3.90771,13.2842,0,0,0,0,0,0,0,-1,1714,1688,3.90776,-13.2841
497,-664,0,0,0,0,0,0,0,0,0,-1,1721,1688,0,0
504,-664,0,0,0,0,0,0,0,0,0,-1,1728,1688,0,0
511,-664,0,0,0,0,0,0,0,0,0,-1,1735,1688,0,0
518,-664,0,0,0,0,0,0,0,0,0,-1,1742,1688,0,0
525,-664,0,0,0,0,0,0,0,0,0,-1,1749,1688,0,0
532,-664,0,0,0,0,0,0,0,0,0,-1,1756,1688,0,0
539,-664,0,0,0,0,0,0,0,0,0,-1,1763,1688,0,0
546,-664,0,0,0,0,0,0,0,0,0,-1,1770,1688,0,0
553,-664,0,0,0,0,0,0,0,0,0,-1,1777,1688,0,0
560,-664,0,0,0,0,0,0,0,0,0,-1,1784,1688,0,0
567,-664,0,0,0,0,0,0,0,0,0,-1,1791,1688,0,0
574,-664,0,0,0,0,0,0,0,0,0,-1,1798,1688,0,0
581,-664,0,0,0,0,0,0,0,0,0,-1,1805,1688,0,0
588,-664,0,0,0,0,0,0,0,0,0,-1,1812,1688,0,0
595,-664,0,0,0,0,0,0,0,0,0,-1,1819,1688,0,0
602,-664,0,0,0,0,0,0,0,0,0,-1,1826,1688,0,0
609,-664,0,0,0,0,0,0,0,0,0,-1,1833,1688,0,0
616,-664,0,0,0,0,0,0,0,0,0,-1,1840,1688,0,0
623,-664,0,0,0,0,0,0,0,0,0,-1,1847,1688,0,0
630,-664,0,0,0,0,0,0,0,0,0,-1,1854,1688,0,0
637,-664,0,0,0,0,0,0,0,0,0,-1,1861,1688,0,0
644,-664,0,0,0,0,0,0,0,0,0,-1,1868,1688,0,0
651,-664,0,0,0,0,0,0,0,0,0,-1,1875,1688,0,0
658,-664,0,0,0,0,0,0,0,0,0,-1,1882,1688,0,0
665,-664,0,0,0,0,0,0,0,0,0,-1,1889,1688,0,0
672,-664,0,0,0,0,0,0,0,0,0,-1,1896,1688,0,0
679,-664,0,0,0,0,0,0,0,0,0,-1,1903,1688,0,0
686,-664,0,0,0,0,0,0,0,0,0,-1,1910,1688,0,0
693,-664,0,0,0,0,0,0,0,0,0,-1,1917,1688,0,0
700,-664,0,0,0,0,0,0,0,0,0,-1,1924,1688,0,0
707,-664,0,0,0,0,0,0,0,0,0,-1,1931,1688,0,0
714,-664,0,0,0,0,0,0,0,0,0,-1,1938,1688,0,0
721,-664,0,0,0,0,0,0,0,0,0,-1,1945,1688,0,0
728,-664,0,0,0,0,0,0,0,0,0,-1,1952,1688,0,0
735,-664,0,0,0,0,0,0,0,0,0,-1,1959,1688,0,0
742,-664,0,0,0,0,0,0,0,0,0,-1,1966,1688,0,0
749,-664,0,0,0,0,0,0,0,0,0,-1,1973,1688,0,0
756,-664,0,0,0,0,0,0,0,0,0,-1,1980,1688,0,0
763,-664,0,0,0,0,0,0,0,0,0,-1,1987,1688,0,0
770,-664,0,0,0,0,0,0,0,0,0,-1,1994,1688,0,0
777,-664,0,0,0,0,0,0,0,0,0,-1,2001,1688,0,0
784,-664,0,0,0,0,0,0,0,0,0,-1,2008,1688,0,0
791,-664,0,0,0,0,0,0,0,0,0,-1,2015,1688,0,0
798,-664,0,0,0,0,0,0,0,0,0,-1,2022,1688,0,0
805,-664,0,0,0,0,0,0,0,0,0,-1,2029,1688,0,0
812,-664,0,0,0,0,0,0,0,0,0,-1,2036,1688,0,0
-700,-671,0,0,0,0,0,0,0,0,0,-1,524,1695,0,0
-693,-671,0,0,0,0,0,0,0,0,0,-1,531,1695,0,0
-686,-671,0,0,0,0,0,0,0,0,0,-1,538,1695,0,0
-679,-671,0,0,0,0,0,0,0,0,0,-1,545,1695,0,0
-672,-671,0,0,0,0,0,0,0,0,0,-1,552,1695,0,0
-665,-671,0,0,0,0,0,0,0,0,0,-1,559,1695,0,0
-658,-671,0,0,0,0,0,0,0,0,0,-1,566,1695,0,0
-651,-671,0,0,0,0,0,0,0,0,0,-1,573,1695,0,0
-644,-671,0,0,0,0,0,0,0,0,0,-1,580,1695,0,0
-637,-671,0,0,0,0,0,0,0,0,0,-1,587,1695,0,0
-630,-671,0,0,0,0,0,0,0,0,0,-1,594,1695,0,0
-623,-671,0,0,0,0,0,0,0,0,0,-1,601,1695,0,0
-616,-671,0,0,0,0,0,0,0,0,0,-1,608,1695,0,0
-609,-671,0,0,0,0,0,0,0,0,0,-1,615,1695,0,0
-602,-671,0,0,0,0,0,0,0,0,0,-1,622,1695,0,0
-595,-671,0,0,0,0,0,0,0,0,0,-1,629,1695,0,0
-588,-671,0,0,0,0,0,0,0,0,0,-1,636,1695,0,0
-581,-671,0,0,0,0,0,0,0,0,0,-1,643,1695,0,0
-574,-671,0,0,0,0,0,0,0,0,0,-1,650,1695,0,0
-567,-671,0,0,0,0,0,0,0,0,0,-1,657,1695,0,0
-560,-671,0,0,0,0,0,0,0,0,0,-1,664,1695,0,0
-553,-671,0,0,0,0,0,0,0,0,0,-1,671,1695,0,0
-546,-671,0,0,0,0,0,0,0,0,0,-1,678,1695,0,0
-539,-671,0,0,0,0,0,0,0,0,0,-1,685,1695,0,0
-532,-671,0,0,0,0,0,0,0,0,0,-1,692,1695,0,0
-525,-671,0,0,0,0,0,0,0,0,0,-1,699,1695,0,0
-518,-671,0,0,0,0,0,0,0,0,0,-1,706,1695,0,0
-511,-671,0,0,0,0,0,0,0,0,0,-1,713,1695,0,0
-504,-671,0,0,0,0,0,0,0,0,0,-1,720,1695,0,0
-497,-671,0,0,0,0,0,0,0,0,0,-1,727,1695,0,0
-490,-671,0,0,0,0,0,0,0,0,0,-1,734,1695,0,0
-483,-671,0,0,0,0,0,0,0,0,0,-1,741,1695,0,0
-476,-671,0,0,0,0,0,0,0,0,0,-1,748,1695,0,0
-469,-671,0,0,0,0,0,0,0,0,0,-1,755,1695,0,0
-462,-671,0,0,0,0,0,0,0,0,0,-1,762,1695,0,0
-455,-671,0,0,0,0,0,0,0,0,0,-1,769,1695,0,0
-448,-671,0,0,0,0,0,0,0,0,0,-1,776,1695,0,0
-441,-671,0,0,0,0,0,0,0,0,0,-1,783,1695,0,0
-434,-671,0,0,0,0,0,0,0,0,0,-1,790,1695,0,0
-427,-671,0,0,0,0,0,0,0,0,0,-1,797,1695,0,0
-420,-671,0,0,0,0,0,0,0,0,0,-1,804,1695,0,0
-413,-671,0,0,0,0,0,0,0,0,0,-1,811,1695,0,0
-406,-671,0,0,0,0,0,0,0,0,0,-1,818,1695,0,0
-399,-671,0,0,0,0,0,0,0,0,0,-1,825,1695,0,0
-392,-671,0,0,0,0,0,0,0,0,0,-1,832,1695,0,0
-385,-671,0,0,0,0,0,0,0,0,0,-1,839,1695,0,0
-378,-671,0,0,0,0,0,0,0,0,0,-1,846,1695,0,0
-371,-671,0,0,0,0,0,0,0,0,0,-1,853,1695,0,0
-364,-671,-4.18738,7.51416,0,0,0,0,0,0,0,-1,860,1695,-4.18739,-7.51419
-357,-671,-5.02393,6.07129,0,0,0,0,0,0,0,-1,867,1695,-5.0239,-6.07135
-350,-671,8.03021,46.2139,0,0,0,0,0,0,0,-1,874,1695,8.03024,-46.2139
-343,-671,7.2002,45.9105,0,0,0,0,0,0,0,-1,881,1695,7.20021,-45.9105
-336,-671,3.61957,62.0797,0,0,0,0,0,0,0,-1,888,1695,3.61955,-62.0797
-329,-671,3.79718,62.5812,0,0,0,0,0,0,0,-1,895,1695,3.79718,-62.5812
-322,-671,5.74951,47.1416,0,0,0,0,0,0,0,-1,902,1695,5.74954,-47.1416
-315,-671,6.55444,54.9858,0,0,0,0,0,0,0,-1,909,1695,6.55444,-54.9858
-308,-671,5.88354,55.9731,0,0,0,0,0,0,0,-1,916,1695,5.88355,-55.9731
-301,-671,4.41486,57.2842,0,0,0,0,0,0,0,-1,923,1695,4.41487,-57.2842
-294,-671,1.25769,113.784,0,0,0,0,0,0,0,-1,930,1695,1.25769,-113.784
-287,-671,-1.98596,183.505,0,0,0,0,0,0,0,-1,937,1695,-1.98599,-183.505
-280,-671,-2.64355,204.505,0,0,0,0,0,0,0,-1,944,1695,-2.64353,-204.505
-273,-671,-2.99951,219.975,0,0,0,0,0,0,0,-1,951,1695,-2.99951,-219.975
-266,-671,-4.0329,228.571,0,0,0,0,0,0,0,-1,958,1695,-4.03289,-228.571
-259,-671,-14.2863,255.759,0,0,0,0,0,0,0,-1,965,1695,-14.2863,-255.759
-252,-671,-14.712,259.595,0,0,0,0,0,0,0,-1,972,1695,-14.712,-259.595
-245,-671,-15.0366,262.531,0.0522966,-0.000259329,-0.0368814,0.0713041,-0.0192668,-0.475865,0.055093,0.0382706,979,1695,-15.0365,-262.531
-238,-671,-15.34,265.652,0.0554725,-0.000861979,-0.0384492,0.0749679,-0.0203574,-0.469268,0.0579685,0.0294576,986,1695,-15.34,-265.652
-231,-671,-15.6926,268.715,0.0589203,-0.00125777,-0.039963,0.0788551,-0.0211926,-0.462714,0.0608766,0.0212756,993,1695,-15.6926,-268.715
-224,-671,-15.8442,271.615,0.0623351,-0.00260244,-0.0411374,0.0822735,-0.0225408,-0.451314,0.063706,0.0225212,1000,1695,-15.8443,-271.615
-217,-671,-15.9361,274.514,0.0660288,-0.00367248,-0.0415787,0.0854308,-0.0230745,-0.436601,0.0660038,0.0241343,1007,1695,-15.9361,-274.514
-210,-671,-16.1282,277.328,0.0695945,-0.0048946,-0.0418595,0.0883801,-0.0236802,-0.421836,0.0681979,0.0205242,1014,1695,-16.1282,-277.328
-203,-671,-16.228,280.159,0.0730069,-0.00646818,-0.0420447,0.0911211,-0.0245824,-0.406801,0.0703873,0.0308083,1021,1695,-16.228,-280.159
-196,-671,-16.1406,282.79,0.0765427,-0.00800973,-0.042135,0.0939542,-0.0254213,-0.391862,0.0726088,0.0324814,1028,1695,-16.1406,-282.79
-189,-671,-16.0397,285.656,0,0,0,0,0,0,0,-1,1035,1695,-16.0397,-285.656
-182,-671,-15.9996,288.141,0.0840542,-0.0105496,-0.0428342,0.100566,-0.0270618,-0.367936,0.0776529,0.0221459,1042,1695,-15.9996,-288.141
-175,-671,-15.9298,290.63,0.0876544,-0.0111936,-0.0433859,0.103996,-0.0275349,-0.360216,0.0801021,0.0277967,1049,1695,-15.9299,-290.63
-168,-671,-15.7296,293.154,0.0902519,-0.0116334,-0.0438954,0.106555,-0.0279362,-0.355613,0.0819514,0.0359191,1056,1695,-15.7296,-293.154
-161,-671,-15.6191,295.544,0.0921389,-0.0118252,-0.0442788,0.108441,-0.0281275,-0.352772,0.0832688,0.0268709,1063,1695,-15.6191,-295.544
-154,-671,-15.1041,297.885,0.0948811,-0.0116869,-0.0451373,0.111429,-0.0282353,-0.351406,0.0852708,0.0259433,1070,1695,-15.1041,-297.885
-147,-671,-14.6266,300.317,0,0,0,0,0,0,0,-1,1077,1695,-14.6265,-300.317
-140,-671,-14.4645,302.452,0,0,0,0,0,0,0,-1,1084,1695,-14.4644,-302.452
-133,-671,-14.1339,304.785,0,0,0,0,0,0,0,-1,1091,1695,-14.1339,-304.785
-126,-671,-15.0154,307.264,0,0,0,0,0,0,0,-1,1098,1695,-15.0154,-307.264
-119,-671,5.2262,74.2942,0,0,0,0,0,0,0,-1,1105,1695,5.22624,-74.2942
-112,-671,6.58704,44.6255,0,0,0,0,0,0,0,-1,1112,1695,6.58701,-44.6255
-105,-671,7.33252,41.3418,0,0,0,0,0,0,0,-1,1119,1695,7.33247,-41.3418
-98,-671,6.34534,45.6299,0,0,0,0,0,0,0,-1,1126,1695,6.34533,-45.6299
-91,-671,6.40063,38.2443,0,0,0,0,0,0,0,-1,1133,1695,6.40059,-38.2442
-84,-671,5.4209,26.2415,0,0,0,0,0,0,0,-1,1140,1695,5.42096,-26.2414
-77,-671,4.31763,16.489,0,0,0,0,0,0,0,-1,1147,1695,4.31757,-16.489
-70,-671,3.06067,10.7737,0,0,0,0,0,0,0,-1,1154,1695,3.0607,-10.7737
-63,-671,2.94592,6.90198,0,0,0,0,0,0,0,-1,1161,1695,2.94594,-6.90198
-56,-671,-3.07678,2.87976,0,0,0,0,0,0,0,-1,1168,1695,-3.07675,-2.87979
-49,-671,-1.05957,4.76917,0,0,0,0,0,0,0,-1,1175,1695,-1.05958,-4.76921
-42,-671,0.539307,3.7865,0,0,0,0,0,0,0,-1,1182,1695,0.539266,-3.78648
-35,-671,-0.272461,0.347534,0,0,0,0,0,0,0,-1,1189,1695,-0.272434,-0.347569
-28,-671,-10.4878,17.2009,0,0,0,0,0,0,0,-1,1196,1695,-10.4878,-17.2009
-21,-671,23.3954,358.604,0,0,0,0,0,0,0,-1,1203,1695,23.3954,-358.604
-14,-671,23.8328,356.585,0,0,0,0,0,0,0,-1,1210,1695,23.8327,-356.585
-7,-671,24.2769,354.558,0,0,0,0,0,0,0,-1,1217,1695,24.2769,-354.558
0,-671,24.731,352.538,0,0,0,0,0,0,0,-1,1224,1695,24.7309,-352.538
7,-671,25.1158,350.489,0,0,0,0,0,0,0,-1,1231,1695,25.1158,-350.489
14,-671,25.4464,348.453,0,0,0,0,0,0,0,-1,1238,1695,25.4464,-348.453
21,-671,26.1075,346.579,0,0,0,0,0,0,0,-1,1245,1695,26.1076,-346.579
28,-671,26.5375,344.959,0,0,0,0,0,0,0,-1,1252,1695,26.5375,-344.959
35,-671,27.0238,343.329,0,0,0,0,0,0,0,-1,1259,1695,27.0238,-343.329
42,-671,27.2792,341.456,0,0,0,0,0,0,0,-1,1266,1695,27.2792,-341.456
49,-671,19.4321,336.616,0,0,0,0,0,0,0,-1,1273,1695,19.4322,-336.616
56,-671,18.7266,336.468,0,0,0,0,0,0,0,-1,1280,1695,18.7265,-336.468
63,-671,18.051,336.308,0,0,0,0,0,0,0,-1,1287,1695,18.0511,-336.308
70,-671,17.3752,336.235,0,0,0,0,0,0,0,-1,1294,1695,17.3753,-336.235
77,-671,16.8599,335.944,0,0,0,0,0,0,0,-1,1301,1695,16.8599,-335.944
84,-671,16.4734,335.623,0,0,0,0,0,0,0,-1,1308,1695,16.4733,-335.623
91,-671,16.1018,335.292,0,0,0,0,0,0,0,-1,1315,1695,16.1018,-335.292
98,-671,15.8876,334.84,0,0,0,0,0,0,0,-1,1322,1695,15.8876,-334.84
105,-671,15.439,334.682,0,0,0,0,0,0,0,-1,1329,1695,15.439,-334.682
112,-671,15.5858,334.704,0,0,0,0,0,0,0,-1,1336,1695,15.5858,-334.704
119,-671,15.5125,334.645,0,0,0,0,0,0,0,-1,1343,1695,15.5125,-334.645
126,-671,15.1472,334.144,0,0,0,0,0,0,0,-1,1350,1695,15.1473,-334.144
133,-671,14.9263,334.144,0,0,0,0,0,0,0,-1,1357,1695,14.9263,-334.144
140,-671,14.58,334.188,0,0,0,0,0,0,0,-1,1364,1695,14.5799,-334.188
147,-671,14.4805,333.841,0,0,0,0,0,0,0,-1,1371,1695,14.4804,-333.841
154,-671,14.6982,333.405,0,0,0,0,0,0,0,-1,1378,1695,14.6982,-333.405
161,-671,4.49292,4.91272,0,0,0,0,0,0,0,-1,1385,1695,4.49297,-4.91273
168,-671,5.17639,6.1416,0,0,0,0,0,0,0,-1,1392,1695,5.1764,-6.14164
175,-671,5.6731,1.64685,0,0,0,0,0,0,0,-1,1399,1695,5.67313,-1.64691
182,-671,5.56812,1.71692,0,0,0,0,0,0,0,-1,1406,1695,5.56809,-1.71686
189,-671,6.98315,6.36169,0,0,0,0,0,0,0,-1,1413,1695,6.98312,-6.36175
196,-671,5.38123,5.69775,0,0,0,0,0,0,0,-1,1420,1695,5.38125,-5.69769
203,-671,5.95117,8.11658,0,0,0,0,0,0,0,-1,1427,1695,5.9512,-8.11662
210,-671,4.73596,8.39624,0,0,0,0,0,0,0,-1,1434,1695,4.736,-8.39618
217,-671,5.37097,11.863,0,0,0,0,0,0,0,-1,1441,1695,5.37094,-11.863
224,-671,5.08167,13.6694,0,0,0,0,0,0,0,-1,1448,1695,5.08165,-13.6695
231,-671,5.66663,15.3348,0,0,0,0,0,0,0,-1,1455,1695,5.66667,-15.3349
238,-671,6.32959,16.2036,0,0,0,0,0,0,0,-1,1462,1695,6.32961,-16.2037
245,-671,11.9244,57.5367,0,0,0,0,0,0,0,-1,1469,1695,11.9245,-57.5367
252,-671,14.2122,112.518,0,0,0,0,0,0,0,-1,1476,1695,14.2122,-112.518
259,-671,35.39,309.076,0,0,0,0,0,0,0,-1,1483,1695,35.39,-309.076
266,-671,35.8926,307.038,0,0,0,0,0,0,0,-1,1490,1695,35.8926,-307.038
273,-671,36.5979,304.786,0,0,0,0,0,0,0,-1,1497,1695,36.5979,-304.786
280,-671,36.9884,302.6,0.0802612,-0.0108284,0.0274375,0.0878873,-0.0184545,0.271101,0.0656139,0.0445983,1504,1695,36.9884,-302.6
287,-671,36.9056,300.694,0.0762977,-0.0084377,0.0282536,0.0848544,-0.0169943,0.294071,0.0630031,0.0390217,1511,1695,36.9056,-300.694
294,-671,37.0153,298.28,0.0726495,-0.00601943,0.0290202,0.0821962,-0.0155662,0.317818,0.0606557,0.037451,1518,1695,37.0153,-298.28
301,-671,37.3889,295.642,0.0686851,-0.00372583,0.0294871,0.0791736,-0.0142143,0.341742,0.058103,0.0311585,1525,1695,37.389,-295.642
308,-671,37.6777,293.195,0.0651093,-0.00188195,0.0302509,0.0767477,-0.0135203,0.367271,0.0562165,0.0266421,1532,1695,37.6778,-293.195
315,-671,37.7059,290.689,0.0621231,-8.36198e-05,0.0311234,0.0750207,-0.0129812,0.39286,0.0548553,0.0234543,1539,1695,37.7059,-290.689
322,-671,37.6045,288.207,0.0592809,0.00122199,0.0314159,0.073026,-0.0125232,0.412429,0.0533506,0.021733,1546,1695,37.6045,-288.207
329,-671,37.4661,285.646,0.0568517,0.00239293,0.0312443,0.0710668,-0.0118221,0.426976,0.0517705,0.0239421,1553,1695,37.466,-285.646
336,-671,37.3497,282.919,0.054611,0.00336659,0.0306346,0.0689259,-0.0109484,0.437131,0.0500012,0.0208292,1560,1695,37.3497,-282.919
343,-671,37.2596,280.114,0,0,0,0,0,0,0,-1,1567,1695,37.2596,-280.114
350,-671,36.8368,277.32,0.0491126,0.00393919,0.028308,0.0627406,-0.00968874,0.448671,0.0454025,0.0372677,1574,1695,36.8368,-277.32
357,-671,36.8022,274.408,0.0460879,0.00406352,0.0267063,0.0590571,-0.00890573,0.452082,0.0426511,0.0257841,1581,1695,36.8023,-274.408
364,-671,36.4868,271.445,0.0429995,0.00402214,0.0250937,0.0552835,-0.00826182,0.455232,0.0398958,0.0201301,1588,1695,36.4869,-271.445
371,-671,36.0951,268.547,0.0395916,0.00426384,0.02347,0.051302,-0.00744662,0.462812,0.0369346,0.0204347,1595,1695,36.0951,-268.547
378,-671,35.679,265.518,0.0357952,0.00468113,0.0216891,0.0469297,-0.00645339,0.474285,0.0336446,0.0198439,1602,1695,35.679,-265.518
385,-671,35.1725,262.283,0.0320991,0.00499404,0.0197405,0.0424914,-0.00539832,0.484582,0.0302879,0.0314884,1609,1695,35.1725,-262.283
392,-671,34.5939,258.917,0,0,0,0,0,0,0,-1,1616,1695,34.5938,-258.917
399,-671,33.9402,255.92,0,0,0,0,0,0,0,-1,1623,1695,33.9401,-255.92
406,-671,10.4132,246.211,0,0,0,0,0,0,0,-1,1630,1695,10.4132,-246.211
413,-671,7.39368,235.727,0,0,0,0,0,0,0,-1,1637,1695,7.39365,-235.727
420,-671,7.49219,164.415,0,0,0,0,0,0,0,-1,1644,1695,7.49214,-164.415
427,-671,12.4595,89.1311,0,0,0,0,0,0,0,-1,1651,1695,12.4595,-89.1311
434,-671,12.6877,85.8525,0,0,0,0,0,0,0,-1,1658,1695,12.6877,-85.8525
441,-671,12.4281,77.4683,0,0,0,0,0,0,0,-1,1665,1695,12.4281,-77.4682
448,-671,11.6979,39.1995,0,0,0,0,0,0,0,-1,1672,1695,11.6979,-39.1994
455,-671,11.5221,39.0929,0,0,0,0,0,0,0,-1,1679,1695,11.5221,-39.0929
462,-671,5.86255,4.47961,0,0,0,0,0,0,0,-1,1686,1695,5.8625,-4.4796
469,-671,3.71301,3.76978,0,0,0,0,0,0,0,-1,1693,1695,3.71297,-3.76974
476,-671,3.75574,3.18848,0,0,0,0,0,0,0,-1,1700,1695,3.7558,-3.18847
483,-671,7.81824,12.1041,0,0,0,0,0,0,0,-1,1707,1695,7.81826,-12.1041
490,-671,0,0,0,0,0,0,0,0,0,-1,1714,1695,0,0
497,-671,0,0,0,0,0,0,0,0,0,-1,1721,1695,0,0
504,-671,0,0,0,0,0,0,0,0,0,-1,1728,1695,0,0
511,-671,0,0,0,0,0,0,0,0,0,-1,1735,1695,0,0
518,-671,0,0,0,0,0,0,0,0,0,-1,1742,1695,0,0
525,-671,0,0,0,0,0,0,0,0,0,-1,1749,1695,0,0
532,-671,0,0,0,0,0,0,0,0,0,-1,1756,1695,0,0
539,-671,0,0,0,0,0,0,0,0,0,-1,1763,1695,0,0
546,-671,0,0,0,0,0,0,0,0,0,-1,1770,1695,0,0
553,-671,0,0,0,0,0,0,0,0,0,-1,1777,1695,0,0
560,-671,0,0,0,0,0,0,0,0,0,-1,1784,1695,0,0
567,-671,0,0,0,0,0,0,0,0,0,-1,1791,1695,0,0
574,-671,0,0,0,0,0,0,0,0,0,-1,1798,1695,0,0
581,-671,0,0,0,0,0,0,0,0,0,-1,1805,1695,0,0
588,-671,0,0,0,0,0,0,0,0,0,-1,1812,1695,0,0
595,-671,0,0,0,0,0,0,0,0,0,-1,1819,1695,0,0
602,-671,0,0,0,0,0,0,0,0,0,-1,1826,1695,0,0
609,-671,0,0,0,0,0,0,0,0,0,-1,1833,1695,0,0
616,-671,0,0,0,0,0,0,0,0,0,-1,1840,1695,0,0
623,-671,0,0,0,0,0,0,0,0,0,-1,1847,1695,0,0
630,-671,0,0,0,0,0,0,0,0,0,-1,1854,1695,0,0
637,-671,0,0,0,0,0,0,0,0,0,-1,1861,1695,0,0
644,-671,0,0,0,0,0,0,0,0,0,-1,1868,1695,0,0
651,-671,0,0,0,0,0,0,0,0,0,-1,1875,1695,0,0
658,-671,0,0,0,0,0,0,0,0,0,-1,1882,1695,0,0
665,-671,0,0,0,0,0,0,0,0,0,-1,1889,1695,0,0
672,-671,0,0,0,0,0,0,0,0,0,-1,1896,1695,0,0
679,-671,0,0,0,0,0,0,0,0,0,-1,1903,1695,0,0
686,-671,0,0,0,0,0,0,0,0,0,-1,1910,1695,0,0
693,-671,0,0,0,0,0,0,0,0,0,-1,1917,1695,0,0
700,-671,0,0,0,0,0,0,0,0,0,-1,1924,1695,0,0
707,-671,0,0,0,0,0,0,0,0,0,-1,1931,1695,0,0
714,-671,0,0,0,0,0,0,0,0,0,-1,1938,1695,0,0
721,-671,0,0,0,0,0,0,0,0,0,-1,1945,1695,0,0
728,-671,0,0,0,0,0,0,0,0,0,-1,1952,1695,0,0
735,-671,0,0,0,0,0,0,0,0,0,-1,1959,1695,0,0
742,-671,0,0,0,0,0,0,0,0,0,-1,1966,1695,0,0
749,-671,0,0,0,0,0,0,0,0,0,-1,1973,1695,0,0
756,-671,0,0,0,0,0,0,0,0,0,-1,1980,1695,0,0
763,-671,0,0,0,0,0,0,0,0,0,-1,1987,1695,0,0
770,-671,0,0,0,0,0,0,0,0,0,-1,1994,1695,0,0
777,-671,0,0,0,0,0,0,0,0,0,-1,2001,1695,0,0
784,-671,0,0,0,0,0,0,0,0,0,-1,2008,1695,0,0
791,-671,0,0,0,0,0,0,0,0,0,-1,2015,1695,0,0
798,-671,0,0,0,0,0,0,0,0,0,-1,2022,1695,0,0
805,-671,0,0,0,0,0,0,0,0,0,-1,2029,1695,0,0
812,-671,0,0,0,0,0,0,0,0,0,-1,2036,1695,0,0
-700,-678,0,0,0,0,0,0,0,0,0,-1,524,1702,0,0
-693,-678,0,0,0,0,0,0,0,0,0,-1,531,1702,0,0
-686,-678,0,0,0,0,0,0,0,0,0,-1,538,1702,0,0
-679,-678,0,0,0,0,0,0,0,0,0,-1,545,1702,0,0
-672,-678,0,0,0,0,0,0,0,0,0,-1,552,1702,0,0
-665,-678,0,0,0,0,0,0,0,0,0,-1,559,1702,0,0
-658,-678,0,0,0,0,0,0,0,0,0,-1,566,1702,0,0
-651,-678,0,0,0,0,0,0,0,0,0,-1,573,1702,0,0
-644,-678,0,0,0,0,0,0,0,0,0,-1,580,1702,0,0
-637,-678,0,0,0,0,0,0,0,0,0,-1,587,1702,0,0
-630,-678,0,0,0,0,0,0,0,0,0,-1,594,1702,0,0
-623,-678,0,0,0,0,0,0,0,0,0,-1,601,1702,0,0
-616,-678,0,0,0,0,0,0,0,0,0,-1,608,1702,0,0
-609,-678,0,0,0,0,0,0,0,0,0,-1,615,1702,0,0
-602,-678,0,0,0,0,0,0,0,0,0,-1,622,1702,0,0
-595,-678,0,0,0,0,0,0,0,0,0,-1,629,1702,0,0
-588,-678,0,0,0,0,0,0,0,0,0,-1,636,1702,0,0
-581,-678,0,0,0,0,0,0,0,0,0,-1,643,1702,0,0
-574,-678,0,0,0,0,0,0,0,0,0,-1,650,1702,0,0
-567,-678,0,0,0,0,0,0,0,0,0,-1,657,1702,0,0
-560,-678,0,0,0,0,0,0,0,0,0,-1,664,1702,0,0
-553,-678,0,0,0,0,0,0,0,0,0,-1,671,1702,0,0
-546,-678,0,0,0,0,0,0,0,0,0,-1,678,1702,0,0
-539,-678,0,0,0,0,0,0,0,0,0,-1,685,1702,0,0
-532,-678,0,0,0,0,0,0,0,0,0,-1,692,1702,0,0
-525,-678,0,0,0,0,0,0,0,0,0,-1,699,1702,0,0
-518,-678,0,0,0,0,0,0,0,0,0,-1,706,1702,0,0
-511,-678,0,0,0,0,0,0,0,0,0,-1,713,1702,0,0
-504,-678,0,0,0,0,0,0,0,0,0,-1,720,1702,0,0
-497,-678,0,0,0,0,0,0,0,0,0,-1,727,1702,0,0
-490,-678,0,0,0,0,0,0,0,0,0,-1,734,1702,0,0
-483,-678,0,0,0,0,0,0,0,0,0,-1,741,1702,0,0
-476,-678,0,0,0,0,0,0,0,0,0,-1,748,1702,0,0
-469,-678,0,0,0,0,0,0,0,0,0,-1,755,1702,0,0
-462,-678,0,0,0,0,0,0,0,0,0,-1,762,1702,0,0
-455,-678,0,0,0,0,0,0,0,0,0,-1,769,1702,0,0
-448,-678,0,0,0,0,0,0,0,0,0,-1,776,1702,0,0
-441,-678,0,0,0,0,0,0,0,0,0,-1,783,1702,0,0
-434,-678,0,0,0,0,0,0,0,0,0,-1,790,1702,0,0
-427,-678,0,0,0,0,0,0,0,0,0,-1,797,1702,0,0
-420,-678,0,0,0,0,0,0,0,0,0,-1,804,1702,0,0
-413,-678,0,0,0,0,0,0,0,0,0,-1,811,1702,0,0
-406,-678,0,0,0,0,0,0,0,0,0,-1,818,1702,0,0
-399,-678,0,0,0,0,0,0,0,0,0,-1,825,1702,0,0
-392,-678,0,0,0,0,0,0,0,0,0,-1,832,1702,0,0
-385,-678,0,0,0,0,0,0,0,0,0,-1,839,1702,0,0
-378,-678,0,0,0,0,0,0,0,0,0,-1,846,1702,0,0
-371,-678,0,0,0,0,0,0,0,0,0,-1,853,1702,0,0
-364,-678,0,0,0,0,0,0,0,0,0,-1,860,1702,0,0
-357,-678,0,0,0,0,0,0,0,0,0,-1,867,1702,0,0
-350,-678,-5.79944,6.11865,0,0,0,0,0,0,0,-1,874,1702,-5.79942,-6.11864
-343,-678,8.83331,46.1378,0,0,0,0,0,0,0,-1,881,1702,8.83334,-46.1378
-336,-678,7.73517,46.2286,0,0,0,0,0,0,0,-1,888,1702,7.73516,-46.2286
-329,-678,6.11768,46.3923,0,0,0,0,0,0,0,-1,895,1702,6.11768,-46.3923
-322,-678,8.50494,35.5048,0,0,0,0,0,0,0,-1,902,1702,8.50495,-35.5047
-315,-678,6.45313,55.4424,0,0,0,0,0,0,0,-1,909,1702,6.45314,-55.4424
-308,-678,6.78906,55.7052,0,0,0,0,0,0,0,-1,916,1702,6.78906,-55.7052
-301,-678,4.56702,57.2437,0,0,0,0,0,0,0,-1,923,1702,4.56702,-57.2436
-294,-678,4.51898,57.8069,0,0,0,0,0,0,0,-1,930,1702,4.51898,-57.8069
-287,-678,3.15588,110.075,0,0,0,0,0,0,0,-1,937,1702,3.15587,-110.075
-280,-678,2.88605,111.566,0,0,0,0,0,0,0,-1,944,1702,2.88607,-111.566
-273,-678,2.45282,112.753,0,0,0,0,0,0,0,-1,951,1702,2.45283,-112.753
-266,-678,-1.01245,201.942,0,0,0,0,0,0,0,-1,958,1702,-1.01246,-201.942
-259,-678,-1.6123,227.005,0,0,0,0,0,0,0,-1,965,1702,-1.61228,-227.005
-252,-678,-9.54163,259.736,0,0,0,0,0,0,0,-1,972,1702,-9.54163,-259.736
-245,-678,-11.7547,263.018,0,0,0,0,0,0,0,-1,979,1702,-11.7547,-263.018
-238,-678,-11.9354,266.206,0,0,0,0,0,0,0,-1,986,1702,-11.9354,-266.206
-231,-678,-12.3755,269.497,0.050214,0.00102636,-0.0367327,0.0698259,-0.0185856,-0.490405,0.0538262,0.0224946,993,1702,-12.3756,-269.497
-224,-678,-12.5837,272.409,0.0536596,-0.000516713,-0.0380988,0.0733185,-0.0201756,-0.476364,0.0568112,0.0202298,1000,1702,-12.5838,-272.409
-217,-678,-12.7263,275.253,0.0574911,-0.00158439,-0.0386055,0.0765626,-0.0206559,-0.458845,0.0591419,0.024536,1007,1702,-12.7263,-275.253
-210,-678,-13.0696,278.165,0.0610781,-0.00281634,-0.0388972,0.079466,-0.0212042,-0.441594,0.0612807,0.0259955,1014,1702,-13.0696,-278.165
-203,-678,-13.1317,280.872,0.0642235,-0.00430282,-0.039178,0.0820073,-0.0220866,-0.426111,0.0633308,0.03576,1021,1702,-13.1317,-280.872
-196,-678,-13.053,283.603,0.0674911,-0.00591402,-0.0393103,0.0845693,-0.0229923,-0.409845,0.0654049,0.0342059,1028,1702,-13.053,-283.603
-189,-678,-13.0766,286.23,0.0710218,-0.00757472,-0.0394789,0.0874275,-0.0239805,-0.393846,0.0677092,0.0210734,1035,1702,-13.0766,-286.23
-182,-678,-13.1804,288.813,0.0747783,-0.00883224,-0.0398736,0.0907449,-0.0247988,-0.380877,0.0702376,0.0197338,1042,1702,-13.1804,-288.813
-175,-678,-13.1283,291.356,0.0783253,-0.00981812,-0.0402616,0.093947,-0.0254399,-0.370125,0.0726123,0.0204847,1049,1702,-13.1283,-291.356
-168,-678,-12.9873,293.827,0.0810524,-0.0105732,-0.0405583,0.0964261,-0.0259469,-0.362318,0.0744556,0.0209296,1056,1702,-12.9873,-293.827
-161,-678,-12.8479,296.201,0.0831539,-0.0110336,-0.0408838,0.0984245,-0.0263042,-0.357465,0.0759189,0.0192689,1063,1702,-12.8479,-296.201
-154,-678,-12.5635,298.565,0.0858689,-0.0111377,-0.0416244,0.101281,-0.0265497,-0.354611,0.0778936,0.0211143,1070,1702,-12.5634,-298.565
-147,-678,-12.326,300.904,0.0904319,-0.0111113,-0.0426391,0.105962,-0.0266409,-0.349278,0.0809952,0.025426,1077,1702,-12.3261,-300.904
-140,-678,-12.0308,303.125,0.0946883,-0.0115926,-0.0431473,0.109999,-0.0269036,-0.340992,0.0837536,0.0242796,1084,1702,-12.0307,-303.125
-133,-678,-11.8832,305.258,0.0972593,-0.0120372,-0.0432799,0.112322,-0.0270996,-0.334913,0.0853605,0.0299313,1091,1702,-11.8832,-305.258
-126,-678,-11.7252,307.309,0,0,0,0,0,0,0,-1,1098,1702,-11.7253,-307.309
-119,-678,-10.9259,309.299,0,0,0,0,0,0,0,-1,1105,1702,-10.9259,-309.299
-112,-678,-10.3354,311.038,0,0,0,0,0,0,0,-1,1112,1702,-10.3354,-311.038
-105,-678,-10.3698,313.214,0,0,0,0,0,0,0,-1,1119,1702,-10.3697,-313.214
-98,-678,-9.15613,315.285,0,0,0,0,0,0,0,-1,1126,1702,-9.15614,-315.285
-91,-678,1.9314,131.293,0,0,0,0,0,0,0,-1,1133,1702,1.93142,-131.293
-84,-678,6.58545,36.5073,0,0,0,0,0,0,0,-1,1140,1702,6.58544,-36.5073
-77,-678,5.95154,29.1879,0,0,0,0,0,0,0,-1,1147,1702,5.95156,-29.1878
-70,-678,4.75891,19.6552,0,0,0,0,0,0,0,-1,1154,1702,4.75895,-19.6551
-63,-678,3.41687,11.0365,0,0,0,0,0,0,0,-1,1161,1702,3.41682,-11.0365
-56,-678,1.72388,6.13159,0,0,0,0,0,0,0,-1,1168,1702,1.72388,-6.13157
-49,-678,-0.241699,5.29895,0,0,0,0,0,0,0,-1,1175,1702,-0.241682,-5.29897
-42,-678,0.297119,3.90649,0,0,0,0,0,0,0,-1,1182,1702,0.297139,-3.90655
-35,-678,0.498413,3.64038,0,0,0,0,0,0,0,-1,1189,1702,0.498471,-3.64038
-28,-678,0.132446,3.55994,0,0,0,0,0,0,0,-1,1196,1702,0.132432,-3.55993
-21,-678,5.26782,127.536,0,0,0,0,0,0,0,-1,1203,1702,5.26788,-127.536
-14,-678,25.1537,357.59,0,0,0,0,0,0,0,-1,1210,1702,25.1536,-357.59
-7,-678,25.6123,355.607,0,0,0,0,0,0,0,-1,1217,1702,25.6123,-355.607
0,-678,26.0931,353.593,0,0,0,0,0,0,0,-1,1224,1702,26.0931,-353.593
7,-678,26.4319,351.551,0,0,0,0,0,0,0,-1,1231,1702,26.4319,-351.551
14,-678,26.7036,349.51,0,0,0,0,0,0,0,-1,1238,1702,26.7036,-349.51
21,-678,26.7009,347.533,0,0,0,0,0,0,0,-1,1245,1702,26.7009,-347.533
28,-678,27.0867,345.949,0,0,0,0,0,0,0,-1,1252,1702,27.0866,-345.949
35,-678,27.642,344.307,0,0,0,0,0,0,0,-1,1259,1702,27.6419,-344.307
42,-678,28.2633,342.343,0,0,0,0,0,0,0,-1,1266,1702,28.2633,-342.343
49,-678,19.2053,336.771,0,0,0,0,0,0,0,-1,1273,1702,19.2053,-336.771
56,-678,18.4598,336.694,0,0,0,0,0,0,0,-1,1280,1702,18.4598,-336.694
63,-678,17.5127,336.479,0,0,0,0,0,0,0,-1,1287,1702,17.5127,-336.479
70,-678,16.7743,336.409,0,0,0,0,0,0,0,-1,1294,1702,16.7743,-336.409
77,-678,16.2828,336.209,0,0,0,0,0,0,0,-1,1301,1702,16.2828,-336.209
84,-678,15.9213,335.915,0,0,0,0,0,0,0,-1,1308,1702,15.9213,-335.915
91,-678,15.5299,335.686,0,0,0,0,0,0,0,-1,1315,1702,15.5299,-335.686
98,-678,15.188,335.427,0,0,0,0,0,0,0,-1,1322,1702,15.188,-335.427
105,-678,14.8927,335.434,0,0,0,0,0,0,0,-1,1329,1702,14.8927,-335.434
112,-678,14.9019,335.584,0,0,0,0,0,0,0,-1,1336,1702,14.9019,-335.584
119,-678,14.6115,335.569,0,0,0,0,0,0,0,-1,1343,1702,14.6114,-335.569
126,-678,14.1807,335.483,0,0,0,0,0,0,0,-1,1350,1702,14.1807,-335.483
133,-678,13.9622,335.504,0,0,0,0,0,0,0,-1,1357,1702,13.9622,-335.504
140,-678,13.7694,335.404,0,0,0,0,0,0,0,-1,1364,1702,13.7694,-335.404
147,-678,13.7571,334.981,0,0,0,0,0,0,0,-1,1371,1702,13.7571,-334.981
154,-678,13.7869,334.58,0,0,0,0,0,0,0,-1,1378,1702,13.7868,-334.58
161,-678,8.81226,34.8624,0,0,0,0,0,0,0,-1,1385,1702,8.81229,-34.8624
168,-678,4.21863,5.25781,0,0,0,0,0,0,0,-1,1392,1702,4.21865,-5.25781
175,-678,5.21899,5.9635,0,0,0,0,0,0,0,-1,1399,1702,5.21894,-5.96346
182,-678,7.31262,6.75122,0,0,0,0,0,0,0,-1,1406,1702,7.3126,-6.75123
189,-678,5.96021,6.36853,0,0,0,0,0,0,0,-1,1413,1702,5.96018,-6.36851
196,-678,5.01599,8.15771,0,0,0,0,0,0,0,-1,1420,1702,5.01596,-8.15767
203,-678,4.64771,13.0559,0,0,0,0,0,0,0,-1,1427,1702,4.64766,-13.0559
210,-678,5.6532,18.5957,0,0,0,0,0,0,0,-1,1434,1702,5.65318,-18.5958
217,-678,6.88049,23.4835,0,0,0,0,0,0,0,-1,1441,1702,6.88047,-23.4835
224,-678,8.521,32.0977,0,0,0,0,0,0,0,-1,1448,1702,8.52098,-32.0977
231,-678,9.96838,42.3734,0,0,0,0,0,0,0,-1,1455,1702,9.96844,-42.3734
238,-678,31.3749,315.398,0,0,0,0,0,0,0,-1,1462,1702,31.3749,-315.398
245,-678,32.6605,313.317,0,0,0,0,0,0,0,-1,1469,1702,32.6605,-313.317
252,-678,33.057,311.668,0,0,0,0,0,0,0,-1,1476,1702,33.057,-311.668
259,-678,33.3711,309.439,0.086022,-0.016072,0.0262943,0.0923961,-0.0224461,0.237827,0.0702845,0.049464,1483,1702,33.3711,-309.439
266,-678,33.8438,307.435,0.081959,-0.0137727,0.0258066,0.0884725,-0.0202862,0.247235,0.0667789,0.0467748,1490,1702,33.8438,-307.435
273,-678,34.3835,305.385,0,0,0,0,0,0,0,-1,1497,1702,34.3836,-305.385
280,-678,34.7955,303.078,0.0730264,-0.00897776,0.0258213,0.0804795,-0.0164309,0.281006,0.0598861,0.0394726,1504,1702,34.7955,-303.078
287,-678,34.7639,300.941,0.0690685,-0.00672074,0.0261474,0.077214,-0.0148662,0.301993,0.0570804,0.0351213,1511,1702,34.7639,-300.94
294,-678,34.7196,298.595,0.0654259,-0.00446223,0.0264675,0.0743181,-0.0133544,0.324118,0.0545446,0.0369137,1518,1702,34.7196,-298.595
301,-678,34.7954,296.22,0.0617443,-0.00239833,0.0265625,0.0713159,-0.01197,0.34586,0.0519952,0.0280932,1525,1702,34.7954,-296.22
308,-678,34.9532,293.792,0.058491,-0.000775162,0.0268725,0.0688611,-0.0111452,0.368291,0.0500379,0.0225411,1532,1702,34.9532,-293.792
315,-678,34.9178,291.259,0.0556776,0.00081881,0.0272288,0.0668976,-0.0104012,0.390864,0.0484392,0.0205969,1539,1702,34.9179,-291.259
322,-678,34.7168,288.819,0.0529261,0.00202824,0.0271105,0.0646608,-0.00970653,0.408501,0.0466803,0.0228442,1546,1702,34.7168,-288.819
329,-678,34.5503,286.246,0.050494,0.00309129,0.0266207,0.0624355,-0.00885028,0.421674,0.0448657,0.024047,1553,1702,34.5503,-286.246
336,-678,34.359,283.556,0.0480827,0.00401472,0.0256963,0.0598983,-0.00780088,0.430988,0.0427703,0.0224575,1560,1702,34.359,-283.556
343,-678,34.1975,280.687,0.0454787,0.00436563,0.0243902,0.0568197,-0.0069754,0.435243,0.0404061,0.0493787,1567,1702,34.1975,-280.687
350,-678,33.8773,278.012,0.0426983,0.00470715,0.0228857,0.0534447,-0.00603926,0.439008,0.0378041,0.0449028,1574,1702,33.8773,-278.012
357,-678,33.7239,275.189,0.0398747,0.00475691,0.0212409,0.0498747,-0.00524302,0.440006,0.0351281,0.0265379,1581,1702,33.7238,-275.189
364,-678,33.395,272.163,0.0369395,0.00464679,0.0196436,0.046221,-0.00463472,0.441402,0.0324694,0.021109,1588,1702,33.3951,-272.163
371,-678,32.8873,269.16,0.0336064,0.00504645,0.0180631,0.0423523,-0.00369949,0.450919,0.0295453,0.0344035,1595,1702,32.8873,-269.16
378,-678,32.5138,265.923,0,0,0,0,0,0,0,-1,1602,1702,32.5138,-265.923
385,-678,31.8645,263.024,0,0,0,0,0,0,0,-1,1609,1702,31.8646,-263.024
392,-678,5.26355,239.621,0,0,0,0,0,0,0,-1,1616,1702,5.26353,-239.621
399,-678,4.25818,230.565,0,0,0,0,0,0,0,-1,1623,1702,4.25819,-230.565
406,-678,3.48706,226.056,0,0,0,0,0,0,0,-1,1630,1702,3.48708,-226.056
413,-678,8.50085,130.524,0,0,0,0,0,0,0,-1,1637,1702,8.50083,-130.524
420,-678,11.8315,90.0081,0,0,0,0,0,0,0,-1,1644,1702,11.8316,-90.008
427,-678,10.0541,38.9548,0,0,0,0,0,0,0,-1,1651,1702,10.0541,-38.9548
434,-678,10.1094,38.722,0,0,0,0,0,0,0,-1,1658,1702,10.1094,-38.7221
441,-678,11.6007,39.4658,0,0,0,0,0,0,0,-1,1665,1702,11.6007,-39.4658
448,-678,11.344,38.9084,0,0,0,0,0,0,0,-1,1672,1702,11.344,-38.9084
455,-678,5.44678,5.54297,0,0,0,0,0,0,0,-1,1679,1702,5.44676,-5.54294
462,-678,3.86792,2.87402,0,0,0,0,0,0,0,-1,1686,1702,3.86796,-2.87406
469,-678,2.26587,1.98755,0,0,0,0,0,0,0,-1,1693,1702,2.26592,-1.98755
476,-678,0,0,0,0,0,0,0,0,0,-1,1700,1702,0,0
483,-678,0,0,0,0,0,0,0,0,0,-1,1707,1702,0,0
490,-678,0,0,0,0,0,0,0,0,0,-1,1714,1702,0,0
497,-678,0,0,0,0,0,0,0,0,0,-1,1721,1702,0,0
504,-678,0,0,0,0,0,0,0,0,0,-1,1728,1702,0,0
511,-678,0,0,0,0,0,0,0,0,0,-1,1735,1702,0,0
518,-678,0,0,0,0,0,0,0,0,0,-1,1742,1702,0,0
525,-678,0,0,0,0,0,0,0,0,0,-1,1749,1702,0,0
532,-678,0,0,0,0,0,0,0,0,0,-1,1756,1702,0,0
539,-678,0,0,0,0,0,0,0,0,0,-1,1763,1702,0,0
546,-678,0,0,0,0,0,0,0,0,0,-1,1770,1702,0,0
553,-678,0,0,0,0,0,0,0,0,0,-1,1777,1702,0,0
560,-678,0,0,0,0,0,0,0,0,0,-1,1784,1702,0,0
567,-678,0,0,0,0,0,0,0,0,0,-1,1791,1702,0,0
574,-678,0,0,0,0,0,0,0,0,0,-1,1798,1702,0,0
581,-678,0,0,0,0,0,0,0,0,0,-1,1805,1702,0,0
588,-678,0,0,0,0,0,0,0,0,0,-1,1812,1702,0,0
595,-678,0,0,0,0,0,0,0,0,0,-1,1819,1702,0,0
602,-678,0,0,0,0,0,0,0,0,0,-1,1826,1702,0,0
609,-678,0,0,0,0,0,0,0,0,0,-1,1833,1702,0,0
616,-678,0,0,0,0,0,0,0,0,0,-1,1840,1702,0,0
623,-678,0,0,0,0,0,0,0,0,0,-1,1847,1702,0,0
630,-678,0,0,0,0,0,0,0,0,0,-1,1854,1702,0,0
637,-678,0,0,0,0,0,0,0,0,0,-1,1861,1702,0,0
644,-678,0,0,0,0,0,0,0,0,0,-1,1868,1702,0,0
651,-678,0,0,0,0,0,0,0,0,0,-1,1875,1702,0,0
658,-678,0,0,0,0,0,0,0,0,0,-1,1882,1702,0,0
665,-678,0,0,0,0,0,0,0,0,0,-1,1889,1702,0,0
672,-678,0,0,0,0,0,0,0,0,0,-1,1896,1702,0,0
679,-678,0,0,0,0,0,0,0,0,0,-1,1903,1702,0,0
686,-678,0,0,0,0,0,0,0,0,0,-1,1910,1702,0,0
693,-678,0,0,0,0,0,0,0,0,0,-1,1917,1702,0,0
700,-678,0,0,0,0,0,0,0,0,0,-1,1924,1702,0,0
707,-678,0,0,0,0,0,0,0,0,0,-1,1931,1702,0,0
714,-678,0,0,0,0,0,0,0,0,0,-1,1938,1702,0,0
721,-678,0,0,0,0,0,0,0,0,0,-1,1945,1702,0,0
728,-678,0,0,0,0,0,0,0,0,0,-1,1952,1702,0,0
735,-678,0,0,0,0,0,0,0,0,0,-1,1959,1702,0,0
742,-678,0,0,0,0,0,0,0,0,0,-1,1966,1702,0,0
749,-678,0,0,0,0,0,0,0,0,0,-1,1973,1702,0,0
756,-678,0,0,0,0,0,0,0,0,0,-1,1980,1702,0,0
763,-678,0,0,0,0,0,0,0,0,0,-1,1987,1702,0,0
770,-678,0,0,0,0,0,0,0,0,0,-1,1994,1702,0,0
777,-678,0,0,0,0,0,0,0,0,0,-1,2001,1702,0,0
784,-678,0,0,0,0,0,0,0,0,0,-1,2008,1702,0,0
791,-678,0,0,0,0,0,0,0,0,0,-1,2015,1702,0,0
798,-678,0,0,0,0,0,0,0,0,0,-1,2022,1702,0,0
805,-678,0,0,0,0,0,0,0,0,0,-1,2029,1702,0,0
812,-678,0,0,0,0,0,0,0,0,0,-1,2036,1702,0,0
-700,-685,0,0,0,0,0,0,0,0,0,-1,524,1709,0,0
-693,-685,0,0,0,0,0,0,0,0,0,-1,531,1709,0,0
-686,-685,0,0,0,0,0,0,0,0,0,-1,538,1709,0,0
-679,-685,0,0,0,0,0,0,0,0,0,-1,545,1709,0,0
-672,-685,0,0,0,0,0,0,0,0,0,-1,552,1709,0,0
-665,-685,0,0,0,0,0,0,0,0,0,-1,559,1709,0,0
-658,-685,0,0,0,0,0,0,0,0,0,-1,566,1709,0,0
-651,-685,0,0,0,0,0,0,0,0,0,-1,573,1709,0,0
-644,-685,0,0,0,0,0,0,0,0,0,-1,580,1709,0,0
-637,-685,0,0,0,0,0,0,0,0,0,-1,587,1709,0,0
-630,-685,0,0,0,0,0,0,0,0,0,-1,594,1709,0,0
-623,-685,0,0,0,0,0,0,0,0,0,-1,601,1709,0,0
-616,-685,0,0,0,0,0,0,0,0,0,-1,608,1709,0,0
-609,-685,0,0,0,0,0,0,0,0,0,-1,615,1709,0,0
-602,-685,0,0,0,0,0,0,0,0,0,-1,622,1709,0,0
-595,-685,0,0,0,0,0,0,0,0,0,-1,629,1709,0,0
-588,-685,0,0,0,0,0,0,0,0,0,-1,636,1709,0,0
-581,-685,0,0,0,0,0,0,0,0,0,-1,643,1709,0,0
-574,-685,0,0,0,0,0,0,0,0,0,-1,650,1709,0,0
-567,-685,0,0,0,0,0,0,0,0,0,-1,657,1709,0,0
-560,-685,0,0,0,0,0,0,0,0,0,-1,664,1709,0,0
-553,-685,0,0,0,0,0,0,0,0,0,-1,671,1709,0,0
-546,-685,0,0,0,0,0,0,0,0,0,-1,678,1709,0,0
-539,-685,0,0,0,0,0,0,0,0,0,-1,685,1709,0,0
-532,-685,0,0,0,0,0,0,0,0,0,-1,692,1709,0,0
-525,-685,0,0,0,0,0,0,0,0,0,-1,699,1709,0,0
-518,-685,0,0,0,0,0,0,0,0,0,-1,706,1709,0,0
-511,-685,0,0,0,0,0,0,0,0,0,-1,713,1709,0,0
-504,-685,0,0,0,0,0,0,0,0,0,-1,720,1709,0,0
-497,-685,0,0,0,0,0,0,0,0,0,-1,727,1709,0,0
-490,-685,0,0,0,0,0,0,0,0,0,-1,734,1709,0,0
-483,-685,0,0,0,0,0,0,0,0,0,-1,741,1709,0,0
-476,-685,0,0,0,0,0,0,0,0,0,-1,748,1709,0,0
-469,-685,0,0,0,0,0,0,0,0,0,-1,755,1709,0,0
-462,-685,0,0,0,0,0,0,0,0,0,-1,762,1709,0,0
-455,-685,0,0,0,0,0,0,0,0,0,-1,769,1709,0,0
-448,-685,0,0,0,0,0,0,0,0,0,-1,776,1709,0,0
-441,-685,0,0,0,0,0,0,0,0,0,-1,783,1709,0,0
-434,-685,0,0,0,0,0,0,0,0,0,-1,790,1709,0,0
-427,-685,0,0,0,0,0,0,0,0,0,-1,797,1709,0,0
-420,-685,0,0,0,0,0,0,0,0,0,-1,804,1709,0,0
-413,-685,0,0,0,0,0,0,0,0,0,-1,811,1709,0,0
-406,-685,0,0,0,0,0,0,0,0,0,-1,818,1709,0,0
-399,-685,0,0,0,0,0,0,0,0,0,-1,825,1709,0,0
-392,-685,0,0,0,0,0,0,0,0,0,-1,832,1709,0,0
-385,-685,0,0,0,0,0,0,0,0,0,-1,839,1709,0,0
-378,-685,0,0,0,0,0,0,0,0,0,-1,846,1709,0,0
-371,-685,0,0,0,0,0,0,0,0,0,-1,853,1709,0,0
-364,-685,0,0,0,0,0,0,0,0,0,-1,860,1709,0,0
-357,-685,0,0,0,0,0,0,0,0,0,-1,867,1709,0,0
-350,-685,0,0,0,0,0,0,0,0,0,-1,874,1709,0,0
-343,-685,-5.98505,6.56335,0,0,0,0,0,0,0,-1,881,1709,-5.98505,-6.56329
-336,-685,-6.51312,5.10571,0,0,0,0,0,0,0,-1,888,1709,-6.51311,-5.10575
-329,-685,9.98907,36.2474,0,0,0,0,0,0,0,-1,895,1709,9.98909,-36.2475
-322,-685,3.83191,16.7219,0,0,0,0,0,0,0,-1,902,1709,3.8319,-16.7219
-315,-685,5.15784,21.4388,0,0,0,0,0,0,0,-1,909,1709,5.15783,-21.4389
-308,-685,6.64496,56.2472,0,0,0,0,0,0,0,-1,916,1709,6.64498,-56.2472
-301,-685,4.73218,57.2266,0,0,0,0,0,0,0,-1,923,1709,4.73221,-57.2266
-294,-685,4.73169,57.9741,0,0,0,0,0,0,0,-1,930,1709,4.7317,-57.9741
-287,-685,4.45001,58.1342,0,0,0,0,0,0,0,-1,937,1709,4.45004,-58.1341
-280,-685,5.01813,109.848,0,0,0,0,0,0,0,-1,944,1709,5.01814,-109.848
-273,-685,3.51721,109.913,0,0,0,0,0,0,0,-1,951,1709,3.51719,-109.913
-266,-685,4.68628,111.404,0,0,0,0,0,0,0,-1,958,1709,4.68625,-111.404
-259,-685,1.22443,205.263,0,0,0,0,0,0,0,-1,965,1709,1.22445,-205.263
-252,-685,0.608032,230.387,0,0,0,0,0,0,0,-1,972,1709,0.608013,-230.387
-245,-685,-0.362732,238.152,0,0,0,0,0,0,0,-1,979,1709,-0.362705,-238.152
-238,-685,-4.53711,264.765,0,0,0,0,0,0,0,-1,986,1709,-4.53711,-264.765
-231,-685,-9.14941,270.266,0,0,0,0,0,0,0,-1,993,1709,-9.14939,-270.267
-224,-685,-9.50177,273.086,0,0,0,0,0,0,0,-1,1000,1709,-9.50176,-273.086
-217,-685,-9.69598,276.036,0.0491849,0.00121174,-0.035812,0.0683012,-0.0179045,-0.490316,0.0525294,0.027403,1007,1709,-9.69599,-276.036
-210,-685,-9.89532,278.84,0.0527401,-0.000232908,-0.0359621,0.0709169,-0.0184097,-0.467992,0.0544617,0.0382715,1014,1709,-9.89535,-278.84
-203,-685,-9.91919,281.572,0.0555671,-0.00177013,-0.0362675,0.0731286,-0.0193316,-0.450945,0.0563134,0.0435874,1021,1709,-9.91916,-281.572
-196,-685,-10.0402,284.304,0.0585166,-0.00364728,-0.0363848,0.075288,-0.0204187,-0.431918,0.0582046,0.0267253,1028,1709,-10.0401,-284.304
-189,-685,-10.379,286.902,0.0618518,-0.00559574,-0.0364904,0.0778155,-0.0215594,-0.41239,0.0603608,0.0170113,1035,1709,-10.3791,-286.902
-182,-685,-10.3577,289.498,0.065558,-0.00714121,-0.0367558,0.0809025,-0.0224857,-0.395477,0.062787,0.0251384,1042,1709,-10.3577,-289.498
-175,-685,-10.3329,292.006,0.0690563,-0.00852621,-0.0369886,0.0838647,-0.0233345,-0.380807,0.0650973,0.0234809,1049,1709,-10.3329,-292.006
-168,-685,-10.2817,294.479,0.0719413,-0.009645,-0.0371254,0.0863059,-0.0240096,-0.369181,0.0669904,0.0195749,1056,1709,-10.2818,-294.479
-161,-685,-10.151,296.92,0.0743206,-0.010389,-0.0374207,0.0884834,-0.0245518,-0.361814,0.0686522,0.0235134,1063,1709,-10.151,-296.92
-154,-685,-9.99854,299.222,0.0770039,-0.0108201,-0.0380149,0.0911729,-0.024989,-0.356771,0.0706015,0.0249137,1070,1709,-9.99854,-299.222
-147,-685,-9.67114,301.442,0.0808503,-0.0111797,-0.0386899,0.0949543,-0.0252837,-0.349567,0.073201,0.0244113,1077,1709,-9.67114,-301.442
-140,-685,-9.31812,303.621,0.0846279,-0.0117973,-0.0390271,0.098444,-0.0256135,-0.340247,0.0756271,0.0280111,1084,1709,-9.31811,-303.621
-133,-685,-9.18787,305.789,0.0874719,-0.0122566,-0.0392025,0.101037,-0.0258216,-0.33313,0.0774142,0.0309608,1091,1709,-9.18783,-305.789
-126,-685,-8.85962,307.823,0.0905951,-0.01291,-0.0397393,0.104092,-0.0264073,-0.327421,0.0796698,0.0260566,1098,1709,-8.85964,-307.823
-119,-685,-8.6543,309.734,0.0947735,-0.014361,-0.0400838,0.107914,-0.0275012,-0.316778,0.082649,0.0308087,1105,1709,-8.65431,-309.734
-112,-685,-8.448,311.549,0.0990381,-0.0166041,-0.0399222,0.111481,-0.0290472,-0.302142,0.0856609,0.0273325,1112,1709,-8.448,-311.549
-105,-685,-8.422,313.463,0.103288,-0.0193194,-0.0393326,0.114821,-0.0308525,-0.285226,0.0886395,0.0283052,1119,1709,-8.42201,-313.463
-98,-685,-7.46704,315.225,0.107568,-0.0222751,-0.0393095,0.118542,-0.0332485,-0.272224,0.0921326,0.0465181,1126,1709,-7.46699,-315.225
-91,-685,-6.35461,316.84,0,0,0,0,0,0,0,-1,1133,1709,-6.35467,-316.84
-84,-685,-7.74854,318.169,0,0,0,0,0,0,0,-1,1140,1709,-7.74848,-318.169
-77,-685,-5.86804,320.76,0,0,0,0,0,0,0,-1,1147,1709,-5.868,-320.76
-70,-685,-8.31042,298.491,0,0,0,0,0,0,0,-1,1154,1709,-8.31037,-298.491
-63,-685,6.03015,29.7728,0,0,0,0,0,0,0,-1,1161,1709,6.0302,-29.7728
-56,-685,3.93909,15.8704,0,0,0,0,0,0,0,-1,1168,1709,3.93905,-15.8704
-49,-685,3.07471,9.86011,0,0,0,0,0,0,0,-1,1175,1709,3.07467,-9.86009
-42,-685,2.70618,7.54504,0,0,0,0,0,0,0,-1,1182,1709,2.7062,-7.54504
-35,-685,2.95264,7.91516,0,0,0,0,0,0,0,-1,1189,1709,2.95262,-7.91517
-28,-685,8.11353,52.4509,0,0,0,0,0,0,0,-1,1196,1709,8.1135,-52.451
-21,-685,-5.25513,292.447,0,0,0,0,0,0,0,-1,1203,1709,-5.2551,-292.447
-14,-685,-3.75427,328.212,0,0,0,0,0,0,0,-1,1210,1709,-3.75424,-328.212
-7,-685,-1.65625,224.8,0,0,0,0,0,0,0,-1,1217,1709,-1.65629,-224.8
0,-685,-3.12146,330.119,0,0,0,0,0,0,0,-1,1224,1709,-3.12149,-330.119
7,-685,-5.18311,340.308,0,0,0,0,0,0,0,-1,1231,1709,-5.18314,-340.308
14,-685,-2.70935,262.626,0,0,0,0,0,0,0,-1,1238,1709,-2.7094,-262.626
21,-685,-1.57166,262.929,0,0,0,0,0,0,0,-1,1245,1709,-1.57164,-262.929
28,-685,3.16797,186.33,0,0,0,0,0,0,0,-1,1252,1709,3.16803,-186.33
35,-685,21.9,332.74,0,0,0,0,0,0,0,-1,1259,1709,21.9,-332.74
42,-685,29.1602,343.093,0,0,0,0,0,0,0,-1,1266,1709,29.1602,-343.093
49,-685,21.0266,333.063,0,0,0,0,0,0,0,-1,1273,1709,21.0266,-333.063
56,-685,17.908,337.032,0,0,0,0,0,0,0,-1,1280,1709,17.908,-337.032
63,-685,16.8419,336.693,0,0,0,0,0,0,0,-1,1287,1709,16.8419,-336.693
70,-685,16.0845,336.622,0,0,0,0,0,0,0,-1,1294,1709,16.0844,-336.622
77,-685,15.6985,336.496,0,0,0,0,0,0,0,-1,1301,1709,15.6985,-336.496
84,-685,15.2877,336.252,0,0,0,0,0,0,0,-1,1308,1709,15.2877,-336.252
91,-685,14.8303,336.152,0,0,0,0,0,0,0,-1,1315,1709,14.8303,-336.152
98,-685,14.4305,336.022,0,0,0,0,0,0,0,-1,1322,1709,14.4305,-336.022
105,-685,14.0306,335.891,0,0,0,0,0,0,0,-1,1329,1709,14.0306,-335.891
112,-685,14.2584,336.49,0,0,0,0,0,0,0,-1,1336,1709,14.2584,-336.49
119,-685,13.8835,336.491,0,0,0,0,0,0,0,-1,1343,1709,13.8836,-336.491
126,-685,13.2142,336.822,0,0,0,0,0,0,0,-1,1350,1709,13.2142,-336.822
133,-685,12.998,336.864,0,0,0,0,0,0,0,-1,1357,1709,12.998,-336.864
140,-685,12.9637,336.619,0,0,0,0,0,0,0,-1,1364,1709,12.9637,-336.619
147,-685,12.9879,336.019,0,0,0,0,0,0,0,-1,1371,1709,12.9879,-336.019
154,-685,10.0796,56.0078,0,0,0,0,0,0,0,-1,1378,1709,10.0796,-56.0079
161,-685,10.4932,55.8827,0,0,0,0,0,0,0,-1,1385,1709,10.4932,-55.8827
168,-685,4.37524,10.8778,0,0,0,0,0,0,0,-1,1392,1709,4.37525,-10.8778
175,-685,3.97522,8.94324,0,0,0,0,0,0,0,-1,1399,1709,3.97519,-8.94328
182,-685,3.98218,9.19739,0,0,0,0,0,0,0,-1,1406,1709,3.98221,-9.1974
189,-685,4.53479,15.2343,0,0,0,0,0,0,0,-1,1413,1709,4.53474,-15.2343
196,-685,9.96204,198.586,0,0,0,0,0,0,0,-1,1420,1709,9.96199,-198.586
203,-685,10.2123,197.143,0,0,0,0,0,0,0,-1,1427,1709,10.2123,-197.143
210,-685,28.8495,321.915,0,0,0,0,0,0,0,-1,1434,1709,28.8495,-321.915
217,-685,28.9109,320.255,0,0,0,0,0,0,0,-1,1441,1709,28.9109,-320.255
224,-685,28.8153,318.766,0,0,0,0,0,0,0,-1,1448,1709,28.8154,-318.767
231,-685,29.3954,317.2,0,0,0,0,0,0,0,-1,1455,1709,29.3954,-317.2
238,-685,30.1903,315.249,0,0,0,0,0,0,0,-1,1462,1709,30.1903,-315.249
245,-685,30.6581,313.579,0.0839076,-0.0167299,0.0257896,0.0901316,-0.0229539,0.236809,0.0690232,0.0398014,1469,1709,30.658,-313.579
252,-685,31.1945,312.03,0.080956,-0.0147943,0.025233,0.0871986,-0.0210369,0.24253,0.0662672,0.0330685,1476,1709,31.1944,-312.03
259,-685,31.4124,309.902,0.0774972,-0.0128898,0.0246723,0.0837933,-0.0191858,0.249855,0.0632352,0.0262962,1483,1709,31.4123,-309.902
266,-685,31.7684,307.821,0.0736552,-0.0108445,0.0241572,0.0800738,-0.0172631,0.259701,0.0599709,0.0486757,1490,1709,31.7685,-307.821
273,-685,31.9618,305.825,0,0,0,0,0,0,0,-1,1497,1709,31.9619,-305.825
280,-685,31.6473,303.104,0,0,0,0,0,0,0,-1,1504,1709,31.6474,-303.104
287,-685,32.2363,301.316,0.0617635,-0.00446609,0.0237191,0.0693818,-0.0120844,0.310781,0.0507644,0.027747,1511,1709,32.2363,-301.316
294,-685,32.084,299.106,0.0582289,-0.00245392,0.0236922,0.0663832,-0.0106082,0.331478,0.0481824,0.0198639,1518,1709,32.084,-299.106
301,-685,32.1324,296.754,0.054795,-0.000585743,0.0234877,0.0634148,-0.00920552,0.351731,0.0456554,0.0236205,1525,1709,32.1324,-296.754
308,-685,32.1482,294.335,0.0517757,0.000879302,0.0233961,0.0608961,-0.00824107,0.371704,0.0436048,0.0241295,1532,1709,32.1482,-294.335
315,-685,32.0999,291.825,0.04911,0.00225161,0.0232489,0.0586874,-0.00732586,0.390768,0.0417815,0.0186967,1539,1709,32.0998,-291.825
322,-685,31.8856,289.344,0.0464678,0.00332455,0.0227583,0.0562534,-0.00646104,0.40608,0.039831,0.0292671,1546,1709,31.8856,-289.344
329,-685,31.7532,286.786,0.0440135,0.00426154,0.0219278,0.0537329,-0.00545782,0.417221,0.0377728,0.0290592,1553,1709,31.7531,-286.786
336,-685,31.538,284.114,0.041391,0.00505071,0.0206238,0.0507071,-0.00426539,0.424281,0.0353125,0.0199038,1560,1709,31.538,-284.114
343,-685,31.2518,281.322,0.0386946,0.0055061,0.0189554,0.0472931,-0.00309242,0.42586,0.0326085,0.0312885,1567,1709,31.2519,-281.322
350,-685,30.9941,278.565,0.0360711,0.00587495,0.0171444,0.0438177,-0.00187171,0.42439,0.0298553,0.0356217,1574,1709,30.9941,-278.565
357,-685,30.6992,275.74,0.0334804,0.0057968,0.0153386,0.0402994,-0.00102219,0.418324,0.0272134,0.0335314,1581,1709,30.6992,-275.74
364,-685,30.364,272.939,0,0,0,0,0,0,0,-1,1588,1709,30.3641,-272.939
371,-685,29.8068,269.75,0,0,0,0,0,0,0,-1,1595,1709,29.8067,-269.75
378,-685,10.4257,263.164,0,0,0,0,0,0,0,-1,1602,1709,10.4257,-263.164
385,-685,2.73474,237.233,0,0,0,0,0,0,0,-1,1609,1709,2.73471,-237.233
392,-685,1.42883,224.293,0,0,0,0,0,0,0,-1,1616,1709,1.42881,-224.293
399,-685,10.0272,109.278,0,0,0,0,0,0,0,-1,1623,1709,10.0272,-109.278
406,-685,9.95215,102.469,0,0,0,0,0,0,0,-1,1630,1709,9.95218,-102.469
413,-685,10.7178,91.3489,0,0,0,0,0,0,0,-1,1637,1709,10.7178,-91.3488
420,-685,10.3047,40.3569,0,0,0,0,0,0,0,-1,1644,1709,10.3047,-40.3569
427,-685,10.7286,38.6702,0,0,0,0,0,0,0,-1,1651,1709,10.7286,-38.6702
434,-685,4.87769,8.91418,0,0,0,0,0,0,0,-1,1658,1709,4.87768,-8.91413
441,-685,5.62,8.75549,0,0,0,0,0,0,0,-1,1665,1709,5.61996,-8.75545
448,-685,6.4043,8.58972,0,0,0,0,0,0,0,-1,1672,1709,6.40435,-8.58971
455,-685,2.31958,4.09802,0,0,0,0,0,0,0,-1,1679,1709,2.31957,-4.09803
462,-685,0,0,0,0,0,0,0,0,0,-1,1686,1709,0,0
469,-685,0,0,0,0,0,0,0,0,0,-1,1693,1709,0,0
476,-685,0,0,0,0,0,0,0,0,0,-1,1700,1709,0,0
483,-685,0,0,0,0,0,0,0,0,0,-1,1707,1709,0,0
490,-685,0,0,0,0,0,0,0,0,0,-1,1714,1709,0,0
497,-685,0,0,0,0,0,0,0,0,0,-1,1721,1709,0,0
504,-685,0,0,0,0,0,0,0,0,0,-1,1728,1709,0,0
511,-685,0,0,0,0,0,0,0,0,0,-1,1735,1709,0,0
518,-685,0,0,0,0,0,0,0,0,0,-1,1742,1709,0,0
525,-685,0,0,0,0,0,0,0,0,0,-1,1749,1709,0,0
532,-685,0,0,0,0,0,0,0,0,0,-1,1756,1709,0,0
539,-685,0,0,0,0,0,0,0,0,0,-1,1763,1709,0,0
546,-685,0,0,0,0,0,0,0,0,0,-1,1770,1709,0,0
553,-685,0,0,0,0,0,0,0,0,0,-1,1777,1709,0,0
560,-685,0,0,0,0,0,0,0,0,0,-1,1784,1709,0,0
567,-685,0,0,0,0,0,0,0,0,0,-1,1791,1709,0,0
574,-685,0,0,0,0,0,0,0,0,0,-1,1798,1709,0,0
581,-685,0,0,0,0,0,0,0,0,0,-1,1805,1709,0,0
588,-685,0,0,0,0,0,0,0,0,0,-1,1812,1709,0,0
595,-685,0,0,0,0,0,0,0,0,0,-1,1819,1709,0,0
602,-685,0,0,0,0,0,0,0,0,0,-1,1826,1709,0,0
609,-685,0,0,0,0,0,0,0,0,0,-1,1833,1709,0,0
616,-685,0,0,0,0,0,0,0,0,0,-1,1840,1709,0,0
623,-685,0,0,0,0,0,0,0,0,0,-1,1847,1709,0,0
630,-685,0,0,0,0,0,0,0,0,0,-1,1854,1709,0,0
637,-685,0,0,0,0,0,0,0,0,0,-1,1861,1709,0,0
644,-685,0,0,0,0,0,0,0,0,0,-1,1868,1709,0,0
651,-685,0,0,0,0,0,0,0,0,0,-1,1875,1709,0,0
658,-685,0,0,0,0,0,0,0,0,0,-1,1882,1709,0,0
665,-685,0,0,0,0,0,0,0,0,0,-1,1889,1709,0,0
672,-685,0,0,0,0,0,0,0,0,0,-1,1896,1709,0,0
679,-685,0,0,0,0,0,0,0,0,0,-1,1903,1709,0,0
686,-685,0,0,0,0,0,0,0,0,0,-1,1910,1709,0,0
693,-685,0,0,0,0,0,0,0,0,0,-1,1917,1709,0,0
700,-685,0,0,0,0,0,0,0,0,0,-1,1924,1709,0,0
707,-685,0,0,0,0,0,0,0,0,0,-1,1931,1709,0,0
714,-685,0,0,0,0,0,0,0,0,0,-1,1938,1709,0,0
721,-685,0,0,0,0,0,0,0,0,0,-1,1945,1709,0,0
728,-685,0,0,0,0,0,0,0,0,0,-1,1952,1709,0,0
735,-685,0,0,0,0,0,0,0,0,0,-1,1959,1709,0,0
742,-685,0,0,0,0,0,0,0,0,0,-1,1966,1709,0,0
749,-685,0,0,0,0,0,0,0,0,0,-1,1973,1709,0,0
756,-685,0,0,0,0,0,0,0,0,0,-1,1980,1709,0,0
763,-685,0,0,0,0,0,0,0,0,0,-1,1987,1709,0,0
770,-685,0,0,0,0,0,0,0,0,0,-1,1994,1709,0,0
777,-685,0,0,0,0,0,0,0,0,0,-1,2001,1709,0,0
784,-685,0,0,0,0,0,0,0,0,0,-1,2008,1709,0,0
791,-685,0,0,0,0,0,0,0,0,0,-1,2015,1709,0,0
798,-685,0,0,0,0,0,0,0,0,0,-1,2022,1709,0,0
805,-685,0,0,0,0,0,0,0,0,0,-1,2029,1709,0,0
812,-685,0,0,0,0,0,0,0,0,0,-1,2036,1709,0,0
-700,-692,0,0,0,0,0,0,0,0,0,-1,524,1716,0,0
-693,-692,0,0,0,0,0,0,0,0,0,-1,531,1716,0,0
-686,-692,0,0,0,0,0,0,0,0,0,-1,538,1716,0,0
-679,-692,0,0,0,0,0,0,0,0,0,-1,545,1716,0,0
-672,-692,0,0,0,0,0,0,0,0,0,-1,552,1716,0,0
-665,-692,0,0,0,0,0,0,0,0,0,-1,559,1716,0,0
-658,-692,0,0,0,0,0,0,0,0,0,-1,566,1716,0,0
-651,-692,0,0,0,0,0,0,0,0,0,-1,573,1716,0,0
-644,-692,0,0,0,0,0,0,0,0,0,-1,580,1716,0,0
-637,-692,0,0,0,0,0,0,0,0,0,-1,587,1716,0,0
-630,-692,0,0,0,0,0,0,0,0,0,-1,594,1716,0,0
-623,-692,0,0,0,0,0,0,0,0,0,-1,601,1716,0,0
-616,-692,0,0,0,0,0,0,0,0,0,-1,608,1716,0,0
-609,-692,0,0,0,0,0,0,0,0,0,-1,615,1716,0,0
-602,-692,0,0,0,0,0,0,0,0,0,-1,622,1716,0,0
-595,-692,0,0,0,0,0,0,0,0,0,-1,629,1716,0,0
-588,-692,0,0,0,0,0,0,0,0,0,-1,636,1716,0,0
-581,-692,0,0,0,0,0,0,0,0,0,-1,643,1716,0,0
-574,-692,0,0,0,0,0,0,0,0,0,-1,650,1716,0,0
-567,-692,0,0,0,0,0,0,0,0,0,-1,657,1716,0,0
-560,-692,0,0,0,0,0,0,0,0,0,-1,664,1716,0,0
-553,-692,0,0,0,0,0,0,0,0,0,-1,671,1716,0,0
-546,-692,0,0,0,0,0,0,0,0,0,-1,678,1716,0,0
-539,-692,0,0,0,0,0,0,0,0,0,-1,685,1716,0,0
-532,-692,0,0,0,0,0,0,0,0,0,-1,692,1716,0,0
-525,-692,0,0,0,0,0,0,0,0,0,-1,699,1716,0,0
-518,-692,0,0,0,0,0,0,0,0,0,-1,706,1716,0,0
-511,-692,0,0,0,0,0,0,0,0,0,-1,713,1716,0,0
-504,-692,0,0,0,0,0,0,0,0,0,-1,720,1716,0,0
-497,-692,0,0,0,0,0,0,0,0,0,-1,727,1716,0,0
-490,-692,0,0,0,0,0,0,0,0,0,-1,734,1716,0,0
-483,-692,0,0,0,0,0,0,0,0,0,-1,741,1716,0,0
-476,-692,0,0,0,0,0,0,0,0,0,-1,748,1716,0,0
-469,-692,0,0,0,0,0,0,0,0,0,-1,755,1716,0,0
-462,-692,0,0,0,0,0,0,0,0,0,-1,762,1716,0,0
-455,-692,0,0,0,0,0,0,0,0,0,-1,769,1716,0,0
-448,-692,0,0,0,0,0,0,0,0,0,-1,776,1716,0,0
-441,-692,0,0,0,0,0,0,0,0,0,-1,783,1716,0,0
-434,-692,0,0,0,0,0,0,0,0,0,-1,790,1716,0,0
-427,-692,0,0,0,0,0,0,0,0,0,-1,797,1716,0,0
-420,-692,0,0,0,0,0,0,0,0,0,-1,804,1716,0,0
-413,-692,0,0,0,0,0,0,0,0,0,-1,811,1716,0,0
-406,-692,0,0,0,0,0,0,0,0,0,-1,818,1716,0,0
-399,-692,0,0,0,0,0,0,0,0,0,-1,825,1716,0,0
-392,-692,0,0,0,0,0,0,0,0,0,-1,832,1716,0,0
-385,-692,0,0,0,0,0,0,0,0,0,-1,839,1716,0,0
-378,-692,0,0,0,0,0,0,0,0,0,-1,846,1716,0,0
-371,-692,0,0,0,0,0,0,0,0,0,-1,853,1716,0,0
-364,-692,0,0,0,0,0,0,0,0,0,-1,860,1716,0,0
-357,-692,0,0,0,0,0,0,0,0,0,-1,867,1716,0,0
-350,-692,0,0,0,0,0,0,0,0,0,-1,874,1716,0,0
-343,-692,0,0,0,0,0,0,0,0,0,-1,881,1716,0,0
-336,-692,0,0,0,0,0,0,0,0,0,-1,888,1716,0,0
-329,-692,3.03107,4.10266,0,0,0,0,0,0,0,-1,895,1716,3.03105,-4.10267
-322,-692,4.43713,18.5242,0,0,0,0,0,0,0,-1,902,1716,4.43711,-18.5241
-315,-692,5.38965,17.975,0,0,0,0,0,0,0,-1,909,1716,5.38963,-17.975
-308,-692,5.86938,17.4392,0,0,0,0,0,0,0,-1,916,1716,5.86937,-17.4392
-301,-692,12.015,41.2892,0,0,0,0,0,0,0,-1,923,1716,12.015,-41.2892
-294,-692,7.742,56.2694,0,0,0,0,0,0,0,-1,930,1716,7.74201,-56.2694
-287,-692,7.85974,56.4567,0,0,0,0,0,0,0,-1,937,1716,7.85974,-56.4566
-280,-692,7.31812,56.6891,0,0,0,0,0,0,0,-1,944,1716,7.3181,-56.689
-273,-692,9.02203,54.5182,0,0,0,0,0,0,0,-1,951,1716,9.02205,-54.5182
-266,-692,7.52716,51.7593,0,0,0,0,0,0,0,-1,958,1716,7.52717,-51.7593
-259,-692,7.95398,56.1954,0,0,0,0,0,0,0,-1,965,1716,7.954,-56.1954
-252,-692,7.40607,71.83,0,0,0,0,0,0,0,-1,972,1716,7.40609,-71.8299
-245,-692,2.81268,159.774,0,0,0,0,0,0,0,-1,979,1716,2.81271,-159.774
-238,-692,1.57861,229.509,0,0,0,0,0,0,0,-1,986,1716,1.57864,-229.509
-231,-692,0.823975,246.298,0,0,0,0,0,0,0,-1,993,1716,0.823964,-246.298
-224,-692,0.0288086,258.48,0,0,0,0,0,0,0,-1,1000,1716,0.0288177,-258.48
-217,-692,-6.71252,276.781,0,0,0,0,0,0,0,-1,1007,1716,-6.71254,-276.78
-210,-692,-6.81006,279.483,0,0,0,0,0,0,0,-1,1014,1716,-6.81008,-279.483
-203,-692,-6.8728,282.148,0,0,0,0,0,0,0,-1,1021,1716,-6.87282,-282.148
-196,-692,-7.16431,284.968,0,0,0,0,0,0,0,-1,1028,1716,-7.16432,-284.968
-189,-692,-7.55249,287.577,0,0,0,0,0,0,0,-1,1035,1716,-7.55251,-287.577
-182,-692,-7.55872,290.134,0.0565163,-0.00549294,-0.0335077,0.0711631,-0.0201397,-0.412089,0.0553895,0.0259956,1042,1716,-7.55874,-290.134
-175,-692,-7.56055,292.666,0.0599178,-0.00736291,-0.0336051,0.0738272,-0.0212723,-0.392437,0.0576327,0.0264461,1049,1716,-7.56057,-292.666
-168,-692,-7.55847,295.044,0.0629625,-0.00890017,-0.0336356,0.0762492,-0.0221869,-0.376205,0.0596208,0.0217635,1056,1716,-7.55844,-295.044
-161,-692,-7.47668,297.552,0.065651,-0.00993792,-0.0339183,0.0786391,-0.022926,-0.365699,0.0615092,0.0322741,1063,1716,-7.47664,-297.552
-154,-692,-7.59131,299.849,0.0682766,-0.0107538,-0.0343399,0.0811129,-0.0235902,-0.35772,0.0634184,0.0393252,1070,1716,-7.59131,-299.849
-147,-692,-7.50427,301.841,0.0714446,-0.0114468,-0.0347297,0.084072,-0.0240742,-0.34873,0.065563,0.0420069,1077,1716,-7.50427,-301.841
-140,-692,-7.17468,304.057,0.074803,-0.0121604,-0.0349322,0.0870969,-0.0244542,-0.338398,0.0677045,0.0278401,1084,1716,-7.17463,-304.057
-133,-692,-6.88428,306.169,0.0777344,-0.0126209,-0.0350692,0.0897483,-0.0246348,-0.330046,0.0695144,0.0222485,1091,1716,-6.8843,-306.169
-126,-692,-6.49951,308.202,0.0807901,-0.0132198,-0.0353715,0.0926121,-0.0250417,-0.322551,0.0715643,0.0201687,1098,1716,-6.49953,-308.202
-119,-692,-6.54919,310.181,0.0844218,-0.0144081,-0.0355144,0.09586,-0.0258463,-0.311582,0.0740414,0.0208714,1105,1716,-6.54919,-310.181
-112,-692,-6.43225,311.97,0.0880251,-0.0162077,-0.0353476,0.0988815,-0.0270641,-0.297988,0.076554,0.0207542,1112,1716,-6.43221,-311.97
-105,-692,-6.20837,313.849,0.0917552,-0.0182979,-0.034852,0.101864,-0.0284065,-0.282297,0.079097,0.031231,1119,1716,-6.20837,-313.848
-98,-692,-5.52161,315.717,0.0956551,-0.020613,-0.0346919,0.10522,-0.0301775,-0.269016,0.0820761,0.040454,1126,1716,-5.52163,-315.717
-91,-692,-4.74011,317.41,0.0994162,-0.0237461,-0.0340984,0.108226,-0.0325563,-0.252845,0.0851047,0.0491921,1133,1716,-4.74015,-317.41
-84,-692,-4.1582,319.661,0,0,0,0,0,0,0,-1,1140,1716,-4.15824,-319.661
-77,-692,-3.91357,320.94,0,0,0,0,0,0,0,-1,1147,1716,-3.9136,-320.94
-70,-692,-3.66895,322.22,0,0,0,0,0,0,0,-1,1154,1716,-3.66897,-322.22
-63,-692,-2.48145,323.691,0,0,0,0,0,0,0,-1,1161,1716,-2.4814,-323.691
-56,-692,-2.07764,325.134,0,0,0,0,0,0,0,-1,1168,1716,-2.07759,-325.134
-49,-692,-5.05493,325.587,0,0,0,0,0,0,0,-1,1175,1716,-5.05492,-325.587
-42,-692,-4.74829,326.782,0,0,0,0,0,0,0,-1,1182,1716,-4.7483,-326.782
-35,-692,-3.3916,328.287,0,0,0,0,0,0,0,-1,1189,1716,-3.39165,-328.287
-28,-692,1.28625,329.786,0,0,0,0,0,0,0,-1,1196,1716,1.28631,-329.786
-21,-692,1.5437,330.68,0,0,0,0,0,0,0,-1,1203,1716,1.54368,-330.68
-14,-692,2.0697,331.788,0,0,0,0,0,0,0,-1,1210,1716,2.06968,-331.788
-7,-692,2.95044,332.811,0,0,0,0,0,0,0,-1,1217,1716,2.95039,-332.811
0,-692,3.71375,333.588,0,0,0,0,0,0,0,-1,1224,1716,3.71379,-333.588
7,-692,5.01929,334.295,0,0,0,0,0,0,0,-1,1231,1716,5.01928,-334.295
14,-692,5.85046,334.681,0,0,0,0,0,0,0,-1,1238,1716,5.85051,-334.681
21,-692,6.27942,334.932,0,0,0,0,0,0,0,-1,1245,1716,6.27942,-334.932
28,-692,7.10852,335.265,0,0,0,0,0,0,0,-1,1252,1716,7.10854,-335.265
35,-692,7.76416,335.728,0,0,0,0,0,0,0,-1,1259,1716,7.76411,-335.728
42,-692,8.46472,335.869,0,0,0,0,0,0,0,-1,1266,1716,8.46471,-335.869
49,-692,9.54065,336.215,0,0,0,0,0,0,0,-1,1273,1716,9.54059,-336.215
56,-692,11.2589,337.043,0,0,0,0,0,0,0,-1,1280,1716,11.259,-337.043
63,-692,11.73,336.547,0,0,0,0,0,0,0,-1,1287,1716,11.73,-336.547
70,-692,12.0322,336.325,0,0,0,0,0,0,0,-1,1294,1716,12.0322,-336.325
77,-692,12.4576,336.659,0,0,0,0,0,0,0,-1,1301,1716,12.4576,-336.659
84,-692,12.7816,336.958,0,0,0,0,0,0,0,-1,1308,1716,12.7816,-336.958
91,-692,14.4613,337.037,0,0,0,0,0,0,0,-1,1315,1716,14.4613,-337.037
98,-692,15.1547,337.085,0,0,0,0,0,0,0,-1,1322,1716,15.1547,-337.085
105,-692,15.684,337.026,0,0,0,0,0,0,0,-1,1329,1716,15.6839,-337.026
112,-692,7.79163,332.673,0,0,0,0,0,0,0,-1,1336,1716,7.79163,-332.673
119,-692,6.20337,330.886,0,0,0,0,0,0,0,-1,1343,1716,6.20336,-330.886
126,-692,6.69409,242.54,0,0,0,0,0,0,0,-1,1350,1716,6.69404,-242.54
133,-692,6.73096,324.392,0,0,0,0,0,0,0,-1,1357,1716,6.7309,-324.392
140,-692,19.9181,333.279,0,0,0,0,0,0,0,-1,1364,1716,19.9181,-333.279
147,-692,20.5707,332.057,0,0,0,0,0,0,0,-1,1371,1716,20.5707,-332.057
154,-692,9.92883,56.0276,0,0,0,0,0,0,0,-1,1378,1716,9.92887,-56.0276
161,-692,22.5609,331.144,0,0,0,0,0,0,0,-1,1385,1716,22.5609,-331.144
168,-692,23.8925,330.355,0,0,0,0,0,0,0,-1,1392,1716,23.8925,-330.355
175,-692,25.2048,329.428,0,0,0,0,0,0,0,-1,1399,1716,25.2048,-329.428
182,-692,25.1248,327.892,0,0,0,0,0,0,0,-1,1406,1716,25.1248,-327.892
189,-692,24.9285,326.364,0,0,0,0,0,0,0,-1,1413,1716,24.9285,-326.364
196,-692,8.89429,198.411,0,0,0,0,0,0,0,-1,1420,1716,8.89427,-198.411
203,-692,26.317,324.05,0,0,0,0,0,0,0,-1,1427,1716,26.317,-324.05
210,-692,26.9664,322.372,0.0876001,-0.0130202,0.0282216,0.0949751,-0.0203951,0.255606,0.0710969,0.0474317,1434,1716,26.9665,-322.372
217,-692,27.2157,320.72,0.0840976,-0.0141699,0.0271288,0.0910896,-0.0211619,0.252243,0.0688727,0.0233893,1441,1716,27.2157,-320.72
224,-692,27.3394,319.199,0.0809972,-0.0151979,0.0255798,0.0873762,-0.021577,0.244394,0.0666183,0.0207534,1448,1716,27.3393,-319.199
231,-692,27.7633,317.617,0.0784023,-0.0163064,0.0243398,0.0842913,-0.0221955,0.23739,0.064871,0.0254542,1455,1716,27.7634,-317.617
238,-692,28.2207,315.729,0.0768101,-0.0146852,0.024169,0.082802,-0.0206771,0.243019,0.0632309,0.0352132,1462,1716,28.2207,-315.729
245,-692,28.6394,313.982,0.0749916,-0.0126202,0.0237641,0.0810223,-0.0186509,0.248528,0.0611868,0.0387299,1469,1716,28.6394,-313.982
252,-692,29.1082,312.321,0.0721638,-0.0109008,0.0232026,0.0782056,-0.0169426,0.254735,0.0586066,0.0362859,1476,1716,29.1082,-312.321
259,-692,29.3419,310.389,0.0689194,-0.00911646,0.0226112,0.0749976,-0.0151947,0.262608,0.0557578,0.0183772,1483,1716,29.3419,-310.389
266,-692,29.271,308.278,0.0652953,-0.00729884,0.0220417,0.0714637,-0.0134672,0.272869,0.0527081,0.0244705,1490,1716,29.271,-308.278
273,-692,29.3621,306.074,0.0615294,-0.00530756,0.0216736,0.0679423,-0.0117205,0.287678,0.0496648,0.0373139,1497,1716,29.3621,-306.074
280,-692,29.4882,303.777,0.0579574,-0.00345961,0.0212573,0.0645971,-0.0100993,0.302745,0.0467958,0.0324719,1504,1716,29.4882,-303.777
287,-692,29.6515,301.751,0.0543924,-0.00164478,0.0209577,0.0613633,-0.00861571,0.321107,0.0440625,0.0186585,1511,1716,29.6515,-301.751
294,-692,29.6071,299.638,0.0510332,8.58746e-05,0.0206657,0.0583617,-0.00724258,0.340784,0.041533,0.0179276,1518,1716,29.6071,-299.638
301,-692,29.6027,297.308,0.0478298,0.00177964,0.0202403,0.0554612,-0.00585181,0.360561,0.0390711,0.021667,1525,1716,29.6027,-297.308
308,-692,29.5272,294.902,0.0449656,0.0031403,0.0198044,0.0528549,-0.004749,0.379093,0.0369216,0.0227542,1532,1716,29.5272,-294.902
315,-692,29.2916,292.372,0.0423833,0.00429363,0.0191614,0.0503545,-0.00367757,0.394225,0.0348603,0.0207433,1539,1716,29.2916,-292.372
322,-692,29.1389,289.811,0.0398085,0.0051985,0.0183266,0.0477092,-0.00270216,0.40703,0.032744,0.029039,1546,1716,29.1389,-289.811
329,-692,29.0336,287.307,0.0372378,0.00602398,0.0171049,0.0447858,-0.00152407,0.41558,0.030378,0.0278405,1553,1716,29.0336,-287.308
336,-692,28.7113,284.662,0.0342549,0.00666289,0.0153399,0.04109,-0.000172172,0.419168,0.0274509,0.0226012,1560,1716,28.7113,-284.662
343,-692,28.442,281.96,0,0,0,0,0,0,0,-1,1567,1716,28.4421,-281.96
350,-692,28.0676,279.099,0,0,0,0,0,0,0,-1,1574,1716,28.0676,-279.099
357,-692,27.6528,276.242,0,0,0,0,0,0,0,-1,1581,1716,27.6528,-276.242
364,-692,3.35181,258.277,0,0,0,0,0,0,0,-1,1588,1716,3.35179,-258.277
371,-692,0.813965,235.919,0,0,0,0,0,0,0,-1,1595,1716,0.813994,-235.919
378,-692,-0.036499,231.754,0,0,0,0,0,0,0,-1,1602,1716,-0.0365284,-231.754
385,-692,5.94177,139.693,0,0,0,0,0,0,0,-1,1609,1716,5.94181,-139.693
392,-692,9.34058,106.317,0,0,0,0,0,0,0,-1,1616,1716,9.34055,-106.317
399,-692,9.19458,104.242,0,0,0,0,0,0,0,-1,1623,1716,9.19457,-104.242
406,-692,11.3221,42.7773,0,0,0,0,0,0,0,-1,1630,1716,11.3222,-42.7773
413,-692,11.4845,42.9004,0,0,0,0,0,0,0,-1,1637,1716,11.4845,-42.9004
420,-692,9.65894,40.2512,0,0,0,0,0,0,0,-1,1644,1716,9.65889,-40.2513
427,-692,3.79578,8.60339,0,0,0,0,0,0,0,-1,1651,1716,3.79577,-8.6034
434,-692,4.78516,8.64636,0,0,0,0,0,0,0,-1,1658,1716,4.78512,-8.64634
441,-692,5.8208,8.74036,0,0,0,0,0,0,0,-1,1665,1716,5.82084,-8.7404
448,-692,6.73792,8.51013,0,0,0,0,0,0,0,-1,1672,1716,6.73793,-8.5101
455,-692,0,0,0,0,0,0,0,0,0,-1,1679,1716,0,0
462,-692,0,0,0,0,0,0,0,0,0,-1,1686,1716,0,0
469,-692,0,0,0,0,0,0,0,0,0,-1,1693,1716,0,0
476,-692,0,0,0,0,0,0,0,0,0,-1,1700,1716,0,0
483,-692,0,0,0,0,0,0,0,0,0,-1,1707,1716,0,0
490,-692,0,0,0,0,0,0,0,0,0,-1,1714,1716,0,0
497,-692,0,0,0,0,0,0,0,0,0,-1,1721,1716,0,0
504,-692,0,0,0,0,0,0,0,0,0,-1,1728,1716,0,0
511,-692,0,0,0,0,0,0,0,0,0,-1,1735,1716,0,0
518,-692,0,0,0,0,0,0,0,0,0,-1,1742,1716,0,0
525,-692,0,0,0,0,0,0,0,0,0,-1,1749,1716,0,0
532,-692,0,0,0,0,0,0,0,0,0,-1,1756,1716,0,0
539,-692,0,0,0,0,0,0,0,0,0,-1,1763,1716,0,0
546,-692,0,0,0,0,0,0,0,0,0,-1,1770,1716,0,0
553,-692,0,0,0,0,0,0,0,0,0,-1,1777,1716,0,0
560,-692,0,0,0,0,0,0,0,0,0,-1,1784,1716,0,0
567,-692,0,0,0,0,0,0,0,0,0,-1,1791,1716,0,0
574,-692,0,0,0,0,0,0,0,0,0,-1,1798,1716,0,0
581,-692,0,0,0,0,0,0,0,0,0,-1,1805,1716,0,0
588,-692,0,0,0,0,0,0,0,0,0,-1,1812,1716,0,0
595,-692,0,0,0,0,0,0,0,0,0,-1,1819,1716,0,0
602,-692,0,0,0,0,0,0,0,0,0,-1,1826,1716,0,0
609,-692,0,0,0,0,0,0,0,0,0,-1,1833,1716,0,0
616,-692,0,0,0,0,0,0,0,0,0,-1,1840,1716,0,0
623,-692,0,0,0,0,0,0,0,0,0,-1,1847,1716,0,0
630,-692,0,0,0,0,0,0,0,0,0,-1,1854,1716,0,0
637,-692,0,0,0,0,0,0,0,0,0,-1,1861,1716,0,0
644,-692,0,0,0,0,0,0,0,0,0,-1,1868,1716,0,0
651,-692,0,0,0,0,0,0,0,0,0,-1,1875,1716,0,0
658,-692,0,0,0,0,0,0,0,0,0,-1,1882,1716,0,0
665,-692,0,0,0,0,0,0,0,0,0,-1,1889,1716,0,0
672,-692,0,0,0,0,0,0,0,0,0,-1,1896,1716,0,0
679,-692,0,0,0,0,0,0,0,0,0,-1,1903,1716,0,0
686,-692,0,0,0,0,0,0,0,0,0,-1,1910,1716,0,0
693,-692,0,0,0,0,0,0,0,0,0,-1,1917,1716,0,0
700,-692,0,0,0,0,0,0,0,0,0,-1,1924,1716,0,0
707,-692,0,0,0,0,0,0,0,0,0,-1,1931,1716,0,0
714,-692,0,0,0,0,0,0,0,0,0,-1,1938,1716,0,0
721,-692,0,0,0,0,0,0,0,0,0,-1,1945,1716,0,0
728,-692,0,0,0,0,0,0,0,0,0,-1,1952,1716,0,0
735,-692,0,0,0,0,0,0,0,0,0,-1,1959,1716,0,0
742,-692,0,0,0,0,0,0,0,0,0,-1,1966,1716,0,0
749,-692,0,0,0,0,0,0,0,0,0,-1,1973,1716,0,0
756,-692,0,0,0,0,0,0,0,0,0,-1,1980,1716,0,0
763,-692,0,0,0,0,0,0,0,0,0,-1,1987,1716,0,0
770,-692,0,0,0,0,0,0,0,0,0,-1,1994,1716,0,0
777,-692,0,0,0,0,0,0,0,0,0,-1,2001,1716,0,0
784,-692,0,0,0,0,0,0,0,0,0,-1,2008,1716,0,0
791,-692,0,0,0,0,0,0,0,0,0,-1,2015,1716,0,0
798,-692,0,0,0,0,0,0,0,0,0,-1,2022,1716,0,0
805,-692,0,0,0,0,0,0,0,0,0,-1,2029,1716,0,0
812,-692,0,0,0,0,0,0,0,0,0,-1,2036,1716,0,0
-700,-699,0,0,0,0,0,0,0,0,0,-1,524,1723,0,0
-693,-699,0,0,0,0,0,0,0,0,0,-1,531,1723,0,0
-686,-699,0,0,0,0,0,0,0,0,0,-1,538,1723,0,0
-679,-699,0,0,0,0,0,0,0,0,0,-1,545,1723,0,0
-672,-699,0,0,0,0,0,0,0,0,0,-1,552,1723,0,0
-665,-699,0,0,0,0,0,0,0,0,0,-1,559,1723,0,0
-658,-699,0,0,0,0,0,0,0,0,0,-1,566,1723,0,0
-651,-699,0,0,0,0,0,0,0,0,0,-1,573,1723,0,0
-644,-699,0,0,0,0,0,0,0,0,0,-1,580,1723,0,0
-637,-699,0,0,0,0,0,0,0,0,0,-1,587,1723,0,0
-630,-699,0,0,0,0,0,0,0,0,0,-1,594,1723,0,0
-623,-699,0,0,0,0,0,0,0,0,0,-1,601,1723,0,0
-616,-699,0,0,0,0,0,0,0,0,0,-1,608,1723,0,0
-609,-699,0,0,0,0,0,0,0,0,0,-1,615,1723,0,0
-602,-699,0,0,0,0,0,0,0,0,0,-1,622,1723,0,0
-595,-699,0,0,0,0,0,0,0,0,0,-1,629,1723,0,0
-588,-699,0,0,0,0,0,0,0,0,0,-1,636,1723,0,0
-581,-699,0,0,0,0,0,0,0,0,0,-1,643,1723,0,0
-574,-699,0,0,0,0,0,0,0,0,0,-1,650,1723,0,0
-567,-699,0,0,0,0,0,0,0,0,0,-1,657,1723,0,0
-560,-699,0,0,0,0,0,0,0,0,0,-1,664,1723,0,0
-553,-699,0,0,0,0,0,0,0,0,0,-1,671,1723,0,0
-546,-699,0,0,0,0,0,0,0,0,0,-1,678,1723,0,0
-539,-699,0,0,0,0,0,0,0,0,0,-1,685,1723,0,0
-532,-699,0,0,0,0,0,0,0,0,0,-1,692,1723,0,0
-525,-699,0,0,0,0,0,0,0,0,0,-1,699,1723,0,0
-518,-699,0,0,0,0,0,0,0,0,0,-1,706,1723,0,0
-511,-699,0,0,0,0,0,0,0,0,0,-1,713,1723,0,0
-504,-699,0,0,0,0,0,0,0,0,0,-1,720,1723,0,0
-497,-699,0,0,0,0,0,0,0,0,0,-1,727,1723,0,0
-490,-699,0,0,0,0,0,0,0,0,0,-1,734,1723,0,0
-483,-699,0,0,0,0,0,0,0,0,0,-1,741,1723,0,0
-476,-699,0,0,0,0,0,0,0,0,0,-1,748,1723,0,0
-469,-699,0,0,0,0,0,0,0,0,0,-1,755,1723,0,0
-462,-699,0,0,0,0,0,0,0,0,0,-1,762,1723,0,0
-455,-699,0,0,0,0,0,0,0,0,0,-1,769,1723,0,0
-448,-699,0,0,0,0,0,0,0,0,0,-1,776,1723,0,0
-441,-699,0,0,0,0,0,0,0,0,0,-1,783,1723,0,0
-434,-699,0,0,0,0,0,0,0,0,0,-1,790,1723,0,0
-427,-699,0,0,0,0,0,0,0,0,0,-1,797,1723,0,0
-420,-699,0,0,0,0,0,0,0,0,0,-1,804,1723,0,0
-413,-699,0,0,0,0,0,0,0,0,0,-1,811,1723,0,0
-406,-699,0,0,0,0,0,0,0,0,0,-1,818,1723,0,0
-399,-699,0,0,0,0,0,0,0,0,0,-1,825,1723,0,0
-392,-699,0,0,0,0,0,0,0,0,0,-1,832,1723,0,0
-385,-699,0,0,0,0,0,0,0,0,0,-1,839,1723,0,0
-378,-699,0,0,0,0,0,0,0,0,0,-1,846,1723,0,0
-371,-699,0,0,0,0,0,0,0,0,0,-1,853,1723,0,0
-364,-699,0,0,0,0,0,0,0,0,0,-1,860,1723,0,0
-357,-699,0,0,0,0,0,0,0,0,0,-1,867,1723,0,0
-350,-699,0,0,0,0,0,0,0,0,0,-1,874,1723,0,0
-343,-699,0,0,0,0,0,0,0,0,0,-1,881,1723,0,0
-336,-699,0,0,0,0,0,0,0,0,0,-1,888,1723,0,0
-329,-699,0,0,0,0,0,0,0,0,0,-1,895,1723,0,0
-322,-699,0,0,0,0,0,0,0,0,0,-1,902,1723,0,0
-315,-699,6.20001,19.5193,0,0,0,0,0,0,0,-1,909,1723,6.20001,-19.5193
-308,-699,6.98151,18.9218,0,0,0,0,0,0,0,-1,916,1723,6.98151,-18.9217
-301,-699,4.72729,12.8752,0,0,0,0,0,0,0,-1,923,1723,4.72732,-12.8752
-294,-699,6.90332,19.8601,0,0,0,0,0,0,0,-1,930,1723,6.90332,-19.8601
-287,-699,9.0968,36.3315,0,0,0,0,0,0,0,-1,937,1723,9.09678,-36.3315
-280,-699,9.53729,45.2391,0,0,0,0,0,0,0,-1,944,1723,9.53728,-45.2391
-273,-699,8.216,48.0923,0,0,0,0,0,0,0,-1,951,1723,8.21601,-48.0923
-266,-699,6.81915,20.8951,0,0,0,0,0,0,0,-1,958,1723,6.81914,-20.8952
-259,-699,5.39758,14.5466,0,0,0,0,0,0,0,-1,965,1723,5.39759,-14.5466
-252,-699,8.3866,31.6284,0,0,0,0,0,0,0,-1,972,1723,8.38657,-31.6284
-245,-699,7.94281,50.88,0,0,0,0,0,0,0,-1,979,1723,7.9428,-50.88
-238,-699,8.49646,67.9598,0,0,0,0,0,0,0,-1,986,1723,8.49646,-67.9598
-231,-699,4.8941,142.621,0,0,0,0,0,0,0,-1,993,1723,4.89409,-142.621
-224,-699,2.16638,228.467,0,0,0,0,0,0,0,-1,1000,1723,2.16636,-228.467
-217,-699,1.97803,240.932,0,0,0,0,0,0,0,-1,1007,1723,1.97804,-240.932
-210,-699,1.34998,249.174,0,0,0,0,0,0,0,-1,1014,1723,1.34999,-249.174
-203,-699,-2.3299,281.371,0,0,0,0,0,0,0,-1,1021,1723,-2.32988,-281.371
-196,-699,-4.26489,285.614,0,0,0,0,0,0,0,-1,1028,1723,-4.26491,-285.614
-189,-699,-4.48474,288.052,0,0,0,0,0,0,0,-1,1035,1723,-4.48471,-288.052
-182,-699,-4.81226,290.772,0.0474134,-0.00380058,-0.0301827,0.0613882,-0.0177753,-0.433616,0.0479614,0.0260642,1042,1723,-4.81221,-290.772
-175,-699,-4.92517,293.295,0.0508322,-0.00627915,-0.0301645,0.0638136,-0.0192605,-0.406395,0.0502094,0.0285022,1049,1723,-4.92521,-293.295
-168,-699,-4.95117,295.645,0.054093,-0.00832907,-0.0301303,0.0662636,-0.0204996,-0.383891,0.052364,0.0296098,1056,1723,-4.95114,-295.645
-161,-699,-4.95752,297.905,0.0571286,-0.00969534,-0.030405,0.0688921,-0.0214588,-0.369157,0.0545077,0.0300934,1063,1723,-4.95749,-297.905
-154,-699,-5.06384,300.188,0.0596682,-0.0109539,-0.0306166,0.071093,-0.0223788,-0.357156,0.056356,0.0343104,1070,1723,-5.06385,-300.188
-147,-699,-5.06213,302.205,0.0621668,-0.011923,-0.0307502,0.0732664,-0.0230227,-0.346408,0.0580605,0.0419913,1077,1723,-5.06211,-302.205
-140,-699,-4.85767,304.501,0.0651126,-0.0126775,-0.0308274,0.0758477,-0.0234126,-0.335099,0.0599141,0.0258832,1084,1723,-4.85768,-304.501
-133,-699,-4.60437,306.725,0.067982,-0.0131051,-0.0308652,0.0783938,-0.0235168,-0.325342,0.061616,0.0201589,1091,1723,-4.6044,-306.725
-126,-699,-4.31128,308.646,0.0708693,-0.0135424,-0.0309326,0.0809909,-0.0236639,-0.316233,0.0633722,0.026997,1098,1723,-4.31124,-308.646
-119,-699,-4.14233,310.505,0,0,0,0,0,0,0,-1,1105,1723,-4.14239,-310.505
-112,-699,-4.09741,312.617,0.0770317,-0.0156003,-0.0307238,0.0862956,-0.0248642,-0.292852,0.0673657,0.0216282,1112,1723,-4.09747,-312.617
-105,-699,-3.86658,314.507,0.0803073,-0.0169906,-0.0303199,0.0889821,-0.0256654,-0.278666,0.0694751,0.0233214,1119,1723,-3.86662,-314.507
-98,-699,-3.38049,316.205,0.083853,-0.0185961,-0.0300546,0.092019,-0.0267621,-0.2653,0.0719454,0.029921,1126,1723,-3.3805,-316.205
-91,-699,-2.97327,317.96,0.0871825,-0.0207625,-0.029539,0.0947371,-0.0283171,-0.250383,0.0744152,0.0468755,1133,1723,-2.97321,-317.96
-84,-699,-2.40198,320.057,0,0,0,0,0,0,0,-1,1140,1723,-2.40203,-320.057
-77,-699,-2.03149,321.227,0.0922763,-0.0261449,-0.0265717,0.0979652,-0.0318339,-0.210914,0.0781144,0.0470894,1147,1723,-2.03145,-321.227
-70,-699,-1.57446,322.482,0.0932426,-0.0287399,-0.0247802,0.0980844,-0.0335817,-0.192959,0.0789996,0.039171,1154,1723,-1.57452,-322.482
-63,-699,-1.15198,323.978,0.0945484,-0.0303435,-0.0229745,0.0986406,-0.0344356,-0.17627,0.0797567,0.0340957,1161,1723,-1.15194,-323.978
-56,-699,-0.708984,325.403,0.0964134,-0.0311242,-0.0209252,0.0997588,-0.0344696,-0.158536,0.0804946,0.0251792,1168,1723,-0.709031,-325.403
-49,-699,-0.406372,326.793,0,0,0,0,0,0,0,-1,1175,1723,-0.406317,-326.793
-42,-699,0.611694,327.723,0,0,0,0,0,0,0,-1,1182,1723,0.611742,-327.723
-35,-699,1.23694,328.659,0,0,0,0,0,0,0,-1,1189,1723,1.23694,-328.659
-28,-699,2.05664,330.041,0.0987339,-0.033291,-0.0118749,0.0997934,-0.0343505,-0.0889928,0.0804616,0.0349384,1196,1723,2.05661,-330.041
-21,-699,2.4093,330.991,0.100921,-0.0341203,-0.00993013,0.101647,-0.0348466,-0.0730108,0.0818901,0.0207105,1203,1723,2.40932,-330.991
-14,-699,2.92346,331.988,0.102786,-0.0346359,-0.0084211,0.1033,-0.03515,-0.0609751,0.0830996,0.0372527,1210,1723,2.92347,-331.988
-7,-699,3.66357,332.919,0.104934,-0.0355496,-0.0071615,0.105298,-0.0359137,-0.050802,0.0847457,0.0342128,1217,1723,3.66356,-332.919
0,-699,4.50415,333.715,0.107047,-0.036875,-0.00549274,0.107256,-0.0370844,-0.0380909,0.0865554,0.0285187,1224,1723,4.50412,-333.715
7,-699,5.37195,334.363,0.108645,-0.0379799,-0.00360944,0.108734,-0.0380687,-0.024597,0.0879686,0.0341123,1231,1723,5.37191,-334.363
14,-699,6.0592,334.933,0.110256,-0.0394232,-0.00198164,0.110282,-0.0394494,-0.0132362,0.0896138,0.0401444,1238,1723,6.05924,-334.933
21,-699,6.65259,335.394,0.111082,-0.0416732,-0.000668955,0.111085,-0.0416762,-0.00437914,0.091181,0.0342321,1245,1723,6.65254,-335.394
28,-699,7.41589,335.815,0.112326,-0.0438265,0.000583778,0.112328,-0.0438287,0.00373845,0.0930034,0.034564,1252,1723,7.41588,-335.815
35,-699,8.04504,336.255,0.113776,-0.0453056,0.00143966,0.113789,-0.0453186,0.00904885,0.0946534,0.0326919,1259,1723,8.0451,-336.255
42,-699,8.73987,336.46,0.11452,-0.0462701,0.00273059,0.114566,-0.0463165,0.0169758,0.0956312,0.0321592,1266,1723,8.73981,-336.46
49,-699,9.71411,336.808,0.113054,-0.0470821,0.00355339,0.113133,-0.0471609,0.0221753,0.0951223,0.0443904,1273,1723,9.71415,-336.808
56,-699,10.766,337.326,0,0,0,0,0,0,0,-1,1280,1723,10.766,-337.326
63,-699,11.3796,337.193,0,0,0,0,0,0,0,-1,1287,1723,11.3796,-337.193
70,-699,11.6936,336.855,0.10372,-0.0443598,0.00386088,0.103821,-0.0444604,0.0260493,0.087867,0.0271465,1294,1723,11.6937,-336.855
77,-699,12.2864,337.021,0.0989318,-0.0416758,0.00368678,0.0990284,-0.0417724,0.0261963,0.0835017,0.0272783,1301,1723,12.2863,-337.021
84,-699,12.9604,337.174,0.0934867,-0.0379689,0.00336001,0.0935725,-0.0380547,0.0255378,0.0782158,0.0379719,1308,1723,12.9605,-337.174
91,-699,14.1277,337.165,0.0881873,-0.0339403,0.00317757,0.0882699,-0.0340229,0.025995,0.0728845,0.0381859,1315,1723,14.1276,-337.165
98,-699,14.9484,337.111,0,0,0,0,0,0,0,-1,1322,1723,14.9484,-337.111
105,-699,14.876,337.093,0,0,0,0,0,0,0,-1,1329,1723,14.876,-337.093
112,-699,14.8396,337.238,0,0,0,0,0,0,0,-1,1336,1723,14.8396,-337.238
119,-699,5.63745,334.407,0,0,0,0,0,0,0,-1,1343,1723,5.63739,-334.407
126,-699,5.05969,331.137,0,0,0,0,0,0,0,-1,1350,1723,5.05974,-331.137
133,-699,18.5424,334.499,0,0,0,0,0,0,0,-1,1357,1723,18.5424,-334.499
140,-699,19.2096,333.667,0,0,0,0,0,0,0,-1,1364,1723,19.2096,-333.668
147,-699,19.9142,332.752,0,0,0,0,0,0,0,-1,1371,1723,19.9142,-332.752
154,-699,20.8353,332.08,0,0,0,0,0,0,0,-1,1378,1723,20.8353,-332.08
161,-699,21.2789,331.171,0.103099,-0.00624687,0.0297387,0.110664,-0.0138116,0.249089,0.0787842,0.0338061,1385,1723,21.279,-331.171
168,-699,22.2743,330.285,0.104275,-0.00640081,0.0317185,0.11272,-0.0148465,0.260232,0.0805532,0.0256694,1392,1723,22.2743,-330.285
175,-699,23.4324,329.485,0.098945,-0.00719828,0.0315778,0.107629,-0.0158822,0.268368,0.0775905,0.0274612,1399,1723,23.4323,-329.485
182,-699,23.5175,328.007,0.0934129,-0.00736461,0.0301088,0.101723,-0.0156748,0.269301,0.0735988,0.0290844,1406,1723,23.5175,-328.007
189,-699,23.6576,326.574,0.0883394,-0.00822384,0.0285498,0.0961488,-0.0160333,0.267006,0.0700579,0.0304298,1413,1723,23.6576,-326.574
196,-699,23.8853,325.284,0,0,0,0,0,0,0,-1,1420,1723,23.8852,-325.284
203,-699,24.33,324.251,0,0,0,0,0,0,0,-1,1427,1723,24.3299,-324.251
210,-699,25.0857,322.726,0.0780542,-0.0101055,0.0252594,0.0847786,-0.0168299,0.260179,0.0628843,0.0403784,1434,1723,25.0857,-322.726
217,-699,25.5411,321.113,0.0747036,-0.0104421,0.0243613,0.081181,-0.0169195,0.259874,0.0605536,0.0244506,1441,1723,25.5412,-321.113
224,-699,25.7479,319.551,0.0716583,-0.0108471,0.0230811,0.0776764,-0.0168651,0.255056,0.0582259,0.0264927,1448,1723,25.7479,-319.551
231,-699,26.0564,317.955,0.0693614,-0.0113205,0.0219712,0.0749565,-0.0169157,0.249358,0.0564607,0.0217441,1455,1723,26.0564,-317.955
238,-699,26.2795,316.152,0.0678691,-0.00984012,0.0217928,0.0735634,-0.0155344,0.255579,0.0549572,0.0197594,1462,1723,26.2796,-316.152
245,-699,26.5603,314.402,0.0660698,-0.00800016,0.0213822,0.0717992,-0.0137295,0.2618,0.0530383,0.0246364,1469,1723,26.5603,-314.402
252,-699,26.9775,312.683,0.0633774,-0.00644843,0.0207753,0.0690911,-0.0121622,0.26839,0.0506043,0.0215905,1476,1723,26.9775,-312.683
259,-699,27.0249,310.788,0.0603376,-0.00474642,0.0201292,0.06606,-0.0104689,0.276978,0.0479124,0.0210201,1483,1723,27.025,-310.788
266,-699,27.0269,308.723,0.056934,-0.00311828,0.0194779,0.0626983,-0.00888259,0.287729,0.0450526,0.0247555,1490,1723,27.0269,-308.723
273,-699,27.2218,306.689,0.0535635,-0.00142267,0.0189151,0.0594419,-0.00730101,0.301312,0.0422723,0.023103,1497,1723,27.2218,-306.689
280,-699,27.3492,304.479,0.0502526,0.000229138,0.0183476,0.0562605,-0.00577882,0.316448,0.0395742,0.0216636,1504,1723,27.3493,-304.479
287,-699,27.2396,302.23,0.046961,0.00182423,0.0178412,0.0531614,-0.00437614,0.334473,0.036986,0.0177503,1511,1723,27.2396,-302.23
294,-699,27.2068,300.025,0.0438284,0.00323567,0.017362,0.0502413,-0.00317717,0.353817,0.0346019,0.0180227,1518,1723,27.2068,-300.025
301,-699,27.1753,297.761,0.0408247,0.00479983,0.016802,0.0474447,-0.00182015,0.375322,0.0322536,0.0203205,1525,1723,27.1752,-297.761
308,-699,27.0992,295.395,0.038002,0.00615711,0.0160944,0.0447192,-0.000560086,0.395384,0.0300012,0.0240764,1532,1723,27.0993,-295.395
315,-699,26.8152,292.832,0.0354162,0.00713071,0.0149901,0.0418822,0.000664717,0.407238,0.0277026,0.0285313,1539,1723,26.8151,-292.832
322,-699,26.5735,290.309,0.0328545,0.00787468,0.0139032,0.039054,0.00167511,0.419447,0.025496,0.0355934,1546,1723,26.5735,-290.309
329,-699,26.3066,287.799,0,0,0,0,0,0,0,-1,1553,1723,26.3066,-287.799
336,-699,25.9448,285.211,0,0,0,0,0,0,0,-1,1560,1723,25.9448,-285.211
343,-699,24.7489,282.218,0,0,0,0,0,0,0,-1,1567,1723,24.7489,-282.218
350,-699,0.331909,223.11,0,0,0,0,0,0,0,-1,1574,1723,0.331862,-223.11
357,-699,0.303711,217.913,0,0,0,0,0,0,0,-1,1581,1723,0.303652,-217.913
364,-699,0.180664,204.805,0,0,0,0,0,0,0,-1,1588,1723,0.180709,-204.805
371,-699,6.60791,123.792,0,0,0,0,0,0,0,-1,1595,1723,6.6079,-123.792
378,-699,9.63354,70.7234,0,0,0,0,0,0,0,-1,1602,1723,9.63356,-70.7234
385,-699,8.04944,42.8464,0,0,0,0,0,0,0,-1,1609,1723,8.04943,-42.8464
392,-699,8.04492,42.0624,0,0,0,0,0,0,0,-1,1616,1723,8.04492,-42.0623
399,-699,8.49963,41.4828,0,0,0,0,0,0,0,-1,1623,1723,8.49961,-41.4828
406,-699,11.7264,44.1525,0,0,0,0,0,0,0,-1,1630,1723,11.7264,-44.1525
413,-699,12.3215,44.3011,0,0,0,0,0,0,0,-1,1637,1723,12.3215,-44.3011
420,-699,8.41907,38.2246,0,0,0,0,0,0,0,-1,1644,1723,8.41902,-38.2247
427,-699,2.98743,11.8593,0,0,0,0,0,0,0,-1,1651,1723,2.98746,-11.8592
434,-699,4.66455,8.90222,0,0,0,0,0,0,0,-1,1658,1723,4.66456,-8.90223
441,-699,0,0,0,0,0,0,0,0,0,-1,1665,1723,0,0
448,-699,0,0,0,0,0,0,0,0,0,-1,1672,1723,0,0
455,-699,0,0,0,0,0,0,0,0,0,-1,1679,1723,0,0
462,-699,0,0,0,0,0,0,0,0,0,-1,1686,1723,0,0
469,-699,0,0,0,0,0,0,0,0,0,-1,1693,1723,0,0
476,-699,0,0,0,0,0,0,0,0,0,-1,1700,1723,0,0
483,-699,0,0,0,0,0,0,0,0,0,-1,1707,1723,0,0
490,-699,0,0,0,0,0,0,0,0,0,-1,1714,1723,0,0
497,-699,0,0,0,0,0,0,0,0,0,-1,1721,1723,0,0
504,-699,0,0,0,0,0,0,0,0,0,-1,1728,1723,0,0
511,-699,0,0,0,0,0,0,0,0,0,-1,1735,1723,0,0
518,-699,0,0,0,0,0,0,0,0,0,-1,1742,1723,0,0
525,-699,0,0,0,0,0,0,0,0,0,-1,1749,1723,0,0
532,-699,0,0,0,0,0,0,0,0,0,-1,1756,1723,0,0
539,-699,0,0,0,0,0,0,0,0,0,-1,1763,1723,0,0
546,-699,0,0,0,0,0,0,0,0,0,-1,1770,1723,0,0
553,-699,0,0,0,0,0,0,0,0,0,-1,1777,1723,0,0
560,-699,0,0,0,0,0,0,0,0,0,-1,1784,1723,0,0
567,-699,0,0,0,0,0,0,0,0,0,-1,1791,1723,0,0
574,-699,0,0,0,0,0,0,0,0,0,-1,1798,1723,0,0
581,-699,0,0,0,0,0,0,0,0,0,-1,1805,1723,0,0
588,-699,0,0,0,0,0,0,0,0,0,-1,1812,1723,0,0
595,-699,0,0,0,0,0,0,0,0,0,-1,1819,1723,0,0
602,-699,0,0,0,0,0,0,0,0,0,-1,1826,1723,0,0
609,-699,0,0,0,0,0,0,0,0,0,-1,1833,1723,0,0
616,-699,0,0,0,0,0,0,0,0,0,-1,1840,1723,0,0
623,-699,0,0,0,0,0,0,0,0,0,-1,1847,1723,0,0
630,-699,0,0,0,0,0,0,0,0,0,-1,1854,1723,0,0
637,-699,0,0,0,0,0,0,0,0,0,-1,1861,1723,0,0
644,-699,0,0,0,0,0,0,0,0,0,-1,1868,1723,0,0
651,-699,0,0,0,0,0,0,0,0,0,-1,1875,1723,0,0
658,-699,0,0,0,0,0,0,0,0,0,-1,1882,1723,0,0
665,-699,0,0,0,0,0,0,0,0,0,-1,1889,1723,0,0
672,-699,0,0,0,0,0,0,0,0,0,-1,1896,1723,0,0
679,-699,0,0,0,0,0,0,0,0,0,-1,1903,1723,0,0
686,-699,0,0,0,0,0,0,0,0,0,-1,1910,1723,0,0
693,-699,0,0,0,0,0,0,0,0,0,-1,1917,1723,0,0
700,-699,0,0,0,0,0,0,0,0,0,-1,1924,1723,0,0
707,-699,0,0,0,0,0,0,0,0,0,-1,1931,1723,0,0
714,-699,0,0,0,0,0,0,0,0,0,-1,1938,1723,0,0
721,-699,0,0,0,0,0,0,0,0,0,-1,1945,1723,0,0
728,-699,0,0,0,0,0,0,0,0,0,-1,1952,1723,0,0
735,-699,0,0,0,0,0,0,0,0,0,-1,1959,1723,0,0
742,-699,0,0,0,0,0,0,0,0,0,-1,1966,1723,0,0
749,-699,0,0,0,0,0,0,0,0,0,-1,1973,1723,0,0
756,-699,0,0,0,0,0,0,0,0,0,-1,1980,1723,0,0
763,-699,0,0,0,0,0,0,0,0,0,-1,1987,1723,0,0
770,-699,0,0,0,0,0,0,0,0,0,-1,1994,1723,0,0
777,-699,0,0,0,0,0,0,0,0,0,-1,2001,1723,0,0
784,-699,0,0,0,0,0,0,0,0,0,-1,2008,1723,0,0
791,-699,0,0,0,0,0,0,0,0,0,-1,2015,1723,0,0
798,-699,0,0,0,0,0,0,0,0,0,-1,2022,1723,0,0
805,-699,0,0,0,0,0,0,0,0,0,-1,2029,1723,0,0
812,-699,0,0,0,0,0,0,0,0,0,-1,2036,1723,0,0
-700,-706,0,0,0,0,0,0,0,0,0,-1,524,1730,0,0
-693,-706,0,0,0,0,0,0,0,0,0,-1,531,1730,0,0
-686,-706,0,0,0,0,0,0,0,0,0,-1,538,1730,0,0
-679,-706,0,0,0,0,0,0,0,0,0,-1,545,1730,0,0
-672,-706,0,0,0,0,0,0,0,0,0,-1,552,1730,0,0
-665,-706,0,0,0,0,0,0,0,0,0,-1,559,1730,0,0
-658,-706,0,0,0,0,0,0,0,0,0,-1,566,1730,0,0
-651,-706,0,0,0,0,0,0,0,0,0,-1,573,1730,0,0
-644,-706,0,0,0,0,0,0,0,0,0,-1,580,1730,0,0
-637,-706,0,0,0,0,0,0,0,0,0,-1,587,1730,0,0
-630,-706,0,0,0,0,0,0,0,0,0,-1,594,1730,0,0
-623,-706,0,0,0,0,0,0,0,0,0,-1,601,1730,0,0
-616,-706,0,0,0,0,0,0,0,0,0,-1,608,1730,0,0
-609,-706,0,0,0,0,0,0,0,0,0,-1,615,1730,0,0
-602,-706,0,0,0,0,0,0,0,0,0,-1,622,1730,0,0
-595,-706,0,0,0,0,0,0,0,0,0,-1,629,1730,0,0
-588,-706,0,0,0,0,0,0,0,0,0,-1,636,1730,0,0
-581,-706,0,0,0,0,0,0,0,0,0,-1,643,1730,0,0
-574,-706,0,0,0,0,0,0,0,0,0,-1,650,1730,0,0
-567,-706,0,0,0,0,0,0,0,0,0,-1,657,1730,0,0
-560,-706,0,0,0,0,0,0,0,0,0,-1,664,1730,0,0
-553,-706,0,0,0,0,0,0,0,0,0,-1,671,1730,0,0
-546,-706,0,0,0,0,0,0,0,0,0,-1,678,1730,0,0
-539,-706,0,0,0,0,0,0,0,0,0,-1,685,1730,0,0
-532,-706,0,0,0,0,0,0,0,0,0,-1,692,1730,0,0
-525,-706,0,0,0,0,0,0,0,0,0,-1,699,1730,0,0
-518,-706,0,0,0,0,0,0,0,0,0,-1,706,1730,0,0
-511,-706,0,0,0,0,0,0,0,0,0,-1,713,1730,0,0
-504,-706,0,0,0,0,0,0,0,0,0,-1,720,1730,0,0
-497,-706,0,0,0,0,0,0,0,0,0,-1,727,1730,0,0
-490,-706,0,0,0,0,0,0,0,0,0,-1,734,1730,0,0
-483,-706,0,0,0,0,0,0,0,0,0,-1,741,1730,0,0
-476,-706,0,0,0,0,0,0,0,0,0,-1,748,1730,0,0
-469,-706,0,0,0,0,0,0,0,0,0,-1,755,1730,0,0
-462,-706,0,0,0,0,0,0,0,0,0,-1,762,1730,0,0
-455,-706,0,0,0,0,0,0,0,0,0,-1,769,1730,0,0
-448,-706,0,0,0,0,0,0,0,0,0,-1,776,1730,0,0
-441,-706,0,0,0,0,0,0,0,0,0,-1,783,1730,0,0
-434,-706,0,0,0,0,0,0,0,0,0,-1,790,1730,0,0
-427,-706,0,0,0,0,0,0,0,0,0,-1,797,1730,0,0
-420,-706,0,0,0,0,0,0,0,0,0,-1,804,1730,0,0
-413,-706,0,0,0,0,0,0,0,0,0,-1,811,1730,0,0
-406,-706,0,0,0,0,0,0,0,0,0,-1,818,1730,0,0
-399,-706,0,0,0,0,0,0,0,0,0,-1,825,1730,0,0
-392,-706,0,0,0,0,0,0,0,0,0,-1,832,1730,0,0
-385,-706,0,0,0,0,0,0,0,0,0,-1,839,1730,0,0
-378,-706,0,0,0,0,0,0,0,0,0,-1,846,1730,0,0
-371,-706,0,0,0,0,0,0,0,0,0,-1,853,1730,0,0
-364,-706,0,0,0,0,0,0,0,0,0,-1,860,1730,0,0
-357,-706,0,0,0,0,0,0,0,0,0,-1,867,1730,0,0
-350,-706,0,0,0,0,0,0,0,0,0,-1,874,1730,0,0
-343,-706,0,0,0,0,0,0,0,0,0,-1,881,1730,0,0
-336,-706,0,0,0,0,0,0,0,0,0,-1,888,1730,0,0
-329,-706,0,0,0,0,0,0,0,0,0,-1,895,1730,0,0
-322,-706,0,0,0,0,0,0,0,0,0,-1,902,1730,0,0
-315,-706,0,0,0,0,0,0,0,0,0,-1,909,1730,0,0
-308,-706,5.08191,14.6245,0,0,0,0,0,0,0,-1,916,1730,5.08188,-14.6245
-301,-706,7.45007,21.1975,0,0,0,0,0,0,0,-1,923,1730,7.45005,-21.1976
-294,-706,11.8603,21.026,0,0,0,0,0,0,0,-1,930,1730,11.8603,-21.026
-287,-706,10.3292,20.8425,0,0,0,0,0,0,0,-1,937,1730,10.3292,-20.8425
-280,-706,7.9162,21.8951,0,0,0,0,0,0,0,-1,944,1730,7.9162,-21.8952
-273,-706,7.38953,20.6355,0,0,0,0,0,0,0,-1,951,1730,7.38955,-20.6355
-266,-706,9.66724,22.8231,0,0,0,0,0,0,0,-1,958,1730,9.66722,-22.8231
-259,-706,3.47852,20.7363,0,0,0,0,0,0,0,-1,965,1730,3.47851,-20.7364
-252,-706,3.84259,20.1979,0,0,0,0,0,0,0,-1,972,1730,3.84256,-20.1979
-245,-706,4.698,19.2992,0,0,0,0,0,0,0,-1,979,1730,4.69799,-19.2991
-238,-706,8.26819,61.1252,0,0,0,0,0,0,0,-1,986,1730,8.26817,-61.1253
-231,-706,6.17877,146.635,0,0,0,0,0,0,0,-1,993,1730,6.17878,-146.635
-224,-706,5.86743,147.823,0,0,0,0,0,0,0,-1,1000,1730,5.86742,-147.822
-217,-706,4.07013,186.369,0,0,0,0,0,0,0,-1,1007,1730,4.07013,-186.369
-210,-706,3.89636,188.171,0,0,0,0,0,0,0,-1,1014,1730,3.89636,-188.171
-203,-706,4.05615,187.254,0,0,0,0,0,0,0,-1,1021,1730,4.05613,-187.254
-196,-706,3.61365,188.147,0,0,0,0,0,0,0,-1,1028,1730,3.6136,-188.147
-189,-706,-1.70715,288.548,0,0,0,0,0,0,0,-1,1035,1730,-1.7071,-288.548
-182,-706,-2.08411,291.424,0,0,0,0,0,0,0,-1,1042,1730,-2.08407,-291.424
-175,-706,-2.28516,293.979,0,0,0,0,0,0,0,-1,1049,1730,-2.28518,-293.98
-168,-706,-2.47144,296.006,0.0448458,-0.00818578,-0.0263125,0.0556855,-0.0190255,-0.390775,0.044832,0.0419584,1056,1730,-2.47145,-296.006
-161,-706,-2.40955,298.452,0.0483986,-0.00979909,-0.0266928,0.0587871,-0.0201875,-0.371149,0.0473766,0.0289961,1063,1730,-2.4096,-298.452
-154,-706,-2.32788,300.8,0.0509329,-0.0114829,-0.0267333,0.0608176,-0.0213676,-0.354163,0.0492381,0.0266597,1070,1730,-2.32788,-300.8
-147,-706,-2.43799,303.003,0.0528806,-0.0126242,-0.0266925,0.0623799,-0.0221235,-0.341904,0.0505998,0.0198521,1077,1730,-2.43797,-303.003
-140,-706,-2.45801,305.067,0.0554749,-0.013338,-0.026679,0.0646066,-0.0224697,-0.329782,0.0521987,0.0199753,1084,1730,-2.45805,-305.067
-133,-706,-2.31104,307.156,0.0581676,-0.0136843,-0.0265774,0.0669298,-0.0224465,-0.318465,0.0536896,0.0155433,1091,1730,-2.31102,-307.156
-126,-706,-2.12109,309.048,0.0608311,-0.0138544,-0.0264134,0.0692284,-0.0222516,-0.307812,0.0550884,0.0237298,1098,1730,-2.12114,-309.048
-119,-706,-1.9585,310.886,0,0,0,0,0,0,0,-1,1105,1730,-1.95855,-310.886
-112,-706,-1.63501,313.115,0,0,0,0,0,0,0,-1,1112,1730,-1.63506,-313.115
-105,-706,-1.70496,314.945,0.0689465,-0.0153928,-0.0257462,0.0761848,-0.0226311,-0.274066,0.059779,0.0179481,1119,1730,-1.70499,-314.945
-98,-706,-1.41736,316.652,0.0721675,-0.0162306,-0.025413,0.0789526,-0.0230156,-0.260905,0.0617535,0.0218066,1126,1730,-1.4174,-316.652
-91,-706,-1.04846,318.357,0.0751682,-0.0174752,-0.0249973,0.0814826,-0.0237897,-0.247429,0.0637488,0.0316317,1133,1730,-1.04846,-318.357
-84,-706,-0.642334,320.146,0.0778869,-0.0192322,-0.0242886,0.0836225,-0.0249679,-0.231897,0.0656726,0.0492814,1140,1730,-0.642289,-320.146
-77,-706,-0.370605,321.623,0.0799336,-0.0212712,-0.0229753,0.0849052,-0.0262428,-0.213103,0.0670845,0.039487,1147,1730,-0.370642,-321.623
-70,-706,-0.0488281,323.056,0.0813284,-0.0232337,-0.0217218,0.0856614,-0.0275667,-0.19689,0.0681801,0.0356661,1154,1730,-0.0488863,-323.056
-63,-706,0.288574,324.476,0.0829051,-0.024652,-0.0204449,0.0866602,-0.0284071,-0.181647,0.0692137,0.0321015,1161,1730,0.28854,-324.476
-56,-706,0.65564,325.737,0.0847578,-0.0256112,-0.0188514,0.0878889,-0.0287423,-0.164589,0.070164,0.0325382,1168,1730,0.655602,-325.737
-49,-706,1.26001,326.999,0.0857461,-0.0268136,-0.0167612,0.088189,-0.0292565,-0.144728,0.0705954,0.0352644,1175,1730,1.26001,-326.999
-42,-706,1.91931,328.094,0.085674,-0.0277544,-0.0147085,0.0875503,-0.0296306,-0.126877,0.0703553,0.0456849,1182,1730,1.91937,-328.094
-35,-706,2.495,329.238,0.0865227,-0.0282973,-0.0130835,0.0879947,-0.0297693,-0.112035,0.0707069,0.0378887,1189,1730,2.49499,-329.238
-28,-706,2.97583,330.371,0.0884067,-0.0291863,-0.0117323,0.0895658,-0.0303454,-0.0984766,0.0719901,0.0206895,1196,1730,2.97587,-330.371
-21,-706,3.453,331.358,0.0903082,-0.0300908,-0.0100733,0.0911452,-0.0309278,-0.0828981,0.0732815,0.0193984,1203,1730,3.45296,-331.358
-14,-706,3.95874,332.277,0.0919354,-0.0307026,-0.00872113,0.0925525,-0.0313196,-0.070639,0.0743732,0.0193939,1210,1730,3.95876,-332.277
-7,-706,4.58374,333.137,0.0937602,-0.0315335,-0.00755066,0.0942136,-0.0319869,-0.0599744,0.0757568,0.0182135,1217,1730,4.58372,-333.137
0,-706,5.3103,333.906,0.0953906,-0.0326221,-0.00607619,0.0956784,-0.0329099,-0.0473237,0.0771324,0.0221177,1224,1730,5.31033,-333.905
7,-706,5.7478,334.556,0.0966686,-0.0335073,-0.00443669,0.0968197,-0.0336583,-0.0340296,0.0782183,0.0206891,1231,1730,5.74784,-334.556
14,-706,6.29224,335.152,0.0980672,-0.0346199,-0.00296705,0.0981335,-0.0346863,-0.0223463,0.0795465,0.0292163,1238,1730,6.29223,-335.152
21,-706,7.04346,335.693,0.0988613,-0.036333,-0.00178257,0.0988848,-0.0363565,-0.0131822,0.0808156,0.0230041,1245,1730,7.04343,-335.693
28,-706,7.74402,336.21,0.0999241,-0.0380679,-0.000640429,0.099927,-0.0380708,-0.00464092,0.0822979,0.0204167,1252,1730,7.74397,-336.21
35,-706,8.34033,336.602,0.101128,-0.0392276,0.000210906,0.101128,-0.0392279,0.00150265,0.0836203,0.0276054,1259,1730,8.34031,-336.602
42,-706,9.05042,336.851,0.10167,-0.0399003,0.00134918,0.101683,-0.0399132,0.00952893,0.0843036,0.0226636,1266,1730,9.05038,-336.851
49,-706,9.76416,337.141,0.100239,-0.0403682,0.00209745,0.10027,-0.0403995,0.0149127,0.0836318,0.0350445,1273,1730,9.76418,-337.141
56,-706,10.5872,337.366,0.0977755,-0.0400062,0.00263012,0.0978257,-0.0400563,0.0190798,0.0819022,0.0359621,1280,1730,10.5872,-337.366
63,-706,11.2328,337.371,0.0945895,-0.0387589,0.00266257,0.0946426,-0.038812,0.0199564,0.0792657,0.029768,1287,1730,11.2327,-337.371
70,-706,11.6586,337.446,0.0915908,-0.0368197,0.00242164,0.0916365,-0.0368653,0.0188496,0.0764039,0.0251061,1294,1730,11.6586,-337.446
77,-706,12.228,337.444,0.0876435,-0.0343346,0.00227294,0.0876859,-0.034377,0.0186254,0.0726788,0.0242453,1301,1730,12.228,-337.444
84,-706,13.0891,337.402,0.0833153,-0.0311487,0.00199252,0.08335,-0.0311834,0.0174003,0.068374,0.0208397,1308,1730,13.0891,-337.402
91,-706,13.8182,337.31,0.0792283,-0.027673,0.00188366,0.0792615,-0.0277062,0.0176132,0.0641043,0.0198277,1315,1730,13.8183,-337.31
98,-706,14.0546,337.182,0.0755924,-0.0246109,0.00219387,0.0756404,-0.0246589,0.0218802,0.0603499,0.0253721,1322,1730,14.0546,-337.182
105,-706,14.1575,337.138,0.0725361,-0.0222536,0.00265828,0.0726106,-0.0223281,0.0280147,0.0573182,0.0253051,1329,1730,14.1575,-337.138
112,-706,14.1559,337.093,0.0731434,-0.0204394,0.00397166,0.0733117,-0.0206076,0.0423385,0.0569992,0.0222818,1336,1730,14.1559,-337.093
119,-706,14.1263,337.038,0,0,0,0,0,0,0,-1,1343,1730,14.1263,-337.038
126,-706,5.89673,334.557,0,0,0,0,0,0,0,-1,1350,1730,5.89674,-334.557
133,-706,17.3406,334.861,0,0,0,0,0,0,0,-1,1357,1730,17.3406,-334.861
140,-706,18.5923,334.02,0,0,0,0,0,0,0,-1,1364,1730,18.5923,-334.02
147,-706,19.043,333.168,0.0815039,-0.00715922,0.0190746,0.0854334,-0.0110887,0.203164,0.0609888,0.0417368,1371,1730,19.043,-333.169
154,-706,19.6239,332.292,0.0871369,-0.00642594,0.0222121,0.0921424,-0.0114314,0.221645,0.0655717,0.039747,1378,1730,19.6239,-332.292
161,-706,20.0812,331.298,0.0904929,-0.00622849,0.0244522,0.0963232,-0.0120588,0.234068,0.0685893,0.0217994,1385,1730,20.0812,-331.298
168,-706,20.7897,330.391,0.0906313,-0.00647444,0.0260856,0.097195,-0.0130382,0.246506,0.0695513,0.0243495,1392,1730,20.7896,-330.391
175,-706,21.6221,329.426,0.0861256,-0.00712695,0.0261748,0.0929702,-0.0139715,0.255767,0.0671237,0.0192417,1399,1730,21.622,-329.426
182,-706,21.9595,328.189,0.0815117,-0.00709383,0.0251584,0.0881568,-0.0137389,0.258232,0.0638455,0.023181,1406,1730,21.9595,-328.189
189,-706,22.2314,326.814,0.0772787,-0.00732943,0.0240924,0.0836581,-0.0137088,0.258847,0.0608585,0.0264811,1413,1730,22.2314,-326.814
196,-706,22.5558,325.783,0,0,0,0,0,0,0,-1,1420,1730,22.5557,-325.783
203,-706,22.9098,324.68,0,0,0,0,0,0,0,-1,1427,1730,22.9098,-324.68
210,-706,23.4261,323.027,0.0684723,-0.00718991,0.0219724,0.0743902,-0.0131078,0.263092,0.0544908,0.0372596,1434,1730,23.4262,-323.027
217,-706,23.8611,321.328,0.0654061,-0.00670885,0.0213226,0.0712389,-0.0125416,0.267017,0.052178,0.0389759,1441,1730,23.8611,-321.329
224,-706,24.0217,319.804,0.0625251,-0.00643861,0.0203454,0.0680799,-0.0119934,0.266529,0.0498675,0.0381856,1448,1730,24.0218,-319.804
231,-706,24.2748,318.203,0.0604107,-0.00613897,0.0193857,0.0656458,-0.0113741,0.263761,0.0480065,0.0204785,1455,1730,24.2747,-318.203
238,-706,24.4104,316.514,0.0589508,-0.00462468,0.0191422,0.0642694,-0.00994332,0.271013,0.0465163,0.0143682,1462,1730,24.4104,-316.514
245,-706,24.5228,314.821,0.0571769,-0.00288931,0.0186609,0.0625022,-0.00821459,0.277983,0.0446589,0.0237389,1469,1730,24.5229,-314.821
252,-706,24.8053,313.012,0.0546348,-0.00144818,0.0179685,0.0598979,-0.0067112,0.284933,0.0423466,0.0294598,1476,1730,24.8052,-313.012
259,-706,24.9374,311.056,0.0517962,0.000217429,0.0172432,0.0570297,-0.00501609,0.294676,0.0397973,0.0270002,1483,1730,24.9373,-311.056
266,-706,24.9575,309.114,0.0486225,0.00170691,0.0164812,0.0538335,-0.00350408,0.306231,0.0371122,0.02194,1490,1730,24.9576,-309.114
273,-706,25.0424,307.111,0.0455649,0.00316871,0.0157338,0.0507659,-0.00203227,0.319253,0.0345413,0.0247836,1497,1730,25.0423,-307.111
280,-706,25.0193,304.978,0.0425306,0.00462128,0.0150147,0.0477569,-0.000605043,0.334964,0.0320415,0.0181603,1504,1730,25.0193,-304.978
287,-706,24.8745,302.723,0.0396205,0.00604818,0.0143748,0.0449344,0.000734324,0.354085,0.0297145,0.0184132,1511,1730,24.8745,-302.723
294,-706,24.8472,300.438,0.0368861,0.00715847,0.0138184,0.0423171,0.00172745,0.374483,0.0276536,0.0200342,1518,1730,24.8471,-300.438
301,-706,24.6522,298.059,0.0342582,0.00869974,0.0132488,0.0398866,0.00307135,0.401719,0.0256287,0.0206959,1525,1730,24.6522,-298.059
308,-706,24.4146,295.604,0.031703,0.0101721,0.0123844,0.0373469,0.00452813,0.427608,0.0235342,0.0394575,1532,1730,24.4145,-295.604
315,-706,24.1755,293.139,0,0,0,0,0,0,0,-1,1539,1730,24.1756,-293.139
322,-706,24.092,290.735,0,0,0,0,0,0,0,-1,1546,1730,24.092,-290.735
329,-706,0.559692,212.981,0,0,0,0,0,0,0,-1,1553,1730,0.559734,-212.981
336,-706,1.07117,189.828,0,0,0,0,0,0,0,-1,1560,1730,1.07116,-189.828
343,-706,7.05652,116.713,0,0,0,0,0,0,0,-1,1567,1730,7.05648,-116.713
350,-706,7.62781,110.214,0,0,0,0,0,0,0,-1,1574,1730,7.62775,-110.214
357,-706,9.70593,74.0184,0,0,0,0,0,0,0,-1,1581,1730,9.70594,-74.0184
364,-706,8.48877,66.5104,0,0,0,0,0,0,0,-1,1588,1730,8.48882,-66.5104
371,-706,8.6084,48.7302,0,0,0,0,0,0,0,-1,1595,1730,8.60844,-48.7303
378,-706,7.63867,44.0519,0,0,0,0,0,0,0,-1,1602,1730,7.63863,-44.0519
385,-706,7.3186,43.2451,0,0,0,0,0,0,0,-1,1609,1730,7.31862,-43.2451
392,-706,7.33728,42.4652,0,0,0,0,0,0,0,-1,1616,1730,7.3373,-42.4651
399,-706,7.51855,41.7692,0,0,0,0,0,0,0,-1,1623,1730,7.51855,-41.7691
406,-706,7.46301,40.9797,0,0,0,0,0,0,0,-1,1630,1730,7.46301,-40.9797
413,-706,8.43433,40.3345,0,0,0,0,0,0,0,-1,1637,1730,8.43428,-40.3344
420,-706,8.0636,39.6101,0,0,0,0,0,0,0,-1,1644,1730,8.06362,-39.6101
427,-706,0,0,0,0,0,0,0,0,0,-1,1651,1730,0,0
434,-706,0,0,0,0,0,0,0,0,0,-1,1658,1730,0,0
441,-706,0,0,0,0,0,0,0,0,0,-1,1665,1730,0,0
448,-706,0,0,0,0,0,0,0,0,0,-1,1672,1730,0,0
455,-706,0,0,0,0,0,0,0,0,0,-1,1679,1730,0,0
462,-706,0,0,0,0,0,0,0,0,0,-1,1686,1730,0,0
469,-706,0,0,0,0,0,0,0,0,0,-1,1693,1730,0,0
476,-706,0,0,0,0,0,0,0,0,0,-1,1700,1730,0,0
483,-706,0,0,0,0,0,0,0,0,0,-1,1707,1730,0,0
490,-706,0,0,0,0,0,0,0,0,0,-1,1714,1730,0,0
497,-706,0,0,0,0,0,0,0,0,0,-1,1721,1730,0,0
504,-706,0,0,0,0,0,0,0,0,0,-1,1728,1730,0,0
511,-706,0,0,0,0,0,0,0,0,0,-1,1735,1730,0,0
518,-706,0,0,0,0,0,0,0,0,0,-1,1742,1730,0,0
525,-706,0,0,0,0,0,0,0,0,0,-1,1749,1730,0,0
532,-706,0,0,0,0,0,0,0,0,0,-1,1756,1730,0,0
539,-706,0,0,0,0,0,0,0,0,0,-1,1763,1730,0,0
546,-706,0,0,0,0,0,0,0,0,0,-1,1770,1730,0,0
553,-706,0,0,0,0,0,0,0,0,0,-1,1777,1730,0,0
560,-706,0,0,0,0,0,0,0,0,0,-1,1784,1730,0,0
567,-706,0,0,0,0,0,0,0,0,0,-1,1791,1730,0,0
574,-706,0,0,0,0,0,0,0,0,0,-1,1798,1730,0,0
581,-706,0,0,0,0,0,0,0,0,0,-1,1805,1730,0,0
588,-706,0,0,0,0,0,0,0,0,0,-1,1812,1730,0,0
595,-706,0,0,0,0,0,0,0,0,0,-1,1819,1730,0,0
602,-706,0,0,0,0,0,0,0,0,0,-1,1826,1730,0,0
609,-706,0,0,0,0,0,0,0,0,0,-1,1833,1730,0,0
616,-706,0,0,0,0,0,0,0,0,0,-1,1840,1730,0,0
623,-706,0,0,0,0,0,0,0,0,0,-1,1847,1730,0,0
630,-706,0,0,0,0,0,0,0,0,0,-1,1854,1730,0,0
637,-706,0,0,0,0,0,0,0,0,0,-1,1861,1730,0,0
644,-706,0,0,0,0,0,0,0,0,0,-1,1868,1730,0,0
651,-706,0,0,0,0,0,0,0,0,0,-1,1875,1730,0,0
658,-706,0,0,0,0,0,0,0,0,0,-1,1882,1730,0,0
665,-706,0,0,0,0,0,0,0,0,0,-1,1889,1730,0,0
672,-706,0,0,0,0,0,0,0,0,0,-1,1896,1730,0,0
679,-706,0,0,0,0,0,0,0,0,0,-1,1903,1730,0,0
686,-706,0,0,0,0,0,0,0,0,0,-1,1910,1730,0,0
693,-706,0,0,0,0,0,0,0,0,0,-1,1917,1730,0,0
700,-706,0,0,0,0,0,0,0,0,0,-1,1924,1730,0,0
707,-706,0,0,0,0,0,0,0,0,0,-1,1931,1730,0,0
714,-706,0,0,0,0,0,0,0,0,0,-1,1938,1730,0,0
721,-706,0,0,0,0,0,0,0,0,0,-1,1945,1730,0,0
728,-706,0,0,0,0,0,0,0,0,0,-1,1952,1730,0,0
735,-706,0,0,0,0,0,0,0,0,0,-1,1959,1730,0,0
742,-706,0,0,0,0,0,0,0,0,0,-1,1966,1730,0,0
749,-706,0,0,0,0,0,0,0,0,0,-1,1973,1730,0,0
756,-706,0,0,0,0,0,0,0,0,0,-1,1980,1730,0,0
763,-706,0,0,0,0,0,0,0,0,0,-1,1987,1730,0,0
770,-706,0,0,0,0,0,0,0,0,0,-1,1994,1730,0,0
777,-706,0,0,0,0,0,0,0,0,0,-1,2001,1730,0,0
784,-706,0,0,0,0,0,0,0,0,0,-1,2008,1730,0,0
791,-706,0,0,0,0,0,0,0,0,0,-1,2015,1730,0,0
798,-706,0,0,0,0,0,0,0,0,0,-1,2022,1730,0,0
805,-706,0,0,0,0,0,0,0,0,0,-1,2029,1730,0,0
812,-706,0,0,0,0,0,0,0,0,0,-1,2036,1730,0,0
-700,-713,0,0,0,0,0,0,0,0,0,-1,524,1737,0,0
-693,-713,0,0,0,0,0,0,0,0,0,-1,531,1737,0,0
-686,-713,0,0,0,0,0,0,0,0,0,-1,538,1737,0,0
-679,-713,0,0,0,0,0,0,0,0,0,-1,545,1737,0,0
-672,-713,0,0,0,0,0,0,0,0,0,-1,552,1737,0,0
-665,-713,0,0,0,0,0,0,0,0,0,-1,559,1737,0,0
-658,-713,0,0,0,0,0,0,0,0,0,-1,566,1737,0,0
-651,-713,0,0,0,0,0,0,0,0,0,-1,573,1737,0,0
-644,-713,0,0,0,0,0,0,0,0,0,-1,580,1737,0,0
-637,-713,0,0,0,0,0,0,0,0,0,-1,587,1737,0,0
-630,-713,0,0,0,0,0,0,0,0,0,-1,594,1737,0,0
-623,-713,0,0,0,0,0,0,0,0,0,-1,601,1737,0,0
-616,-713,0,0,0,0,0,0,0,0,0,-1,608,1737,0,0
-609,-713,0,0,0,0,0,0,0,0,0,-1,615,1737,0,0
-602,-713,0,0,0,0,0,0,0,0,0,-1,622,1737,0,0
-595,-713,0,0,0,0,0,0,0,0,0,-1,629,1737,0,0
-588,-713,0,0,0,0,0,0,0,0,0,-1,636,1737,0,0
-581,-713,0,0,0,0,0,0,0,0,0,-1,643,1737,0,0
-574,-713,0,0,0,0,0,0,0,0,0,-1,650,1737,0,0
-567,-713,0,0,0,0,0,0,0,0,0,-1,657,1737,0,0
-560,-713,0,0,0,0,0,0,0,0,0,-1,664,1737,0,0
-553,-713,0,0,0,0,0,0,0,0,0,-1,671,1737,0,0
-546,-713,0,0,0,0,0,0,0,0,0,-1,678,1737,0,0
-539,-713,0,0,0,0,0,0,0,0,0,-1,685,1737,0,0
-532,-713,0,0,0,0,0,0,0,0,0,-1,692,1737,0,0
-525,-713,0,0,0,0,0,0,0,0,0,-1,699,1737,0,0
-518,-713,0,0,0,0,0,0,0,0,0,-1,706,1737,0,0
-511,-713,0,0,0,0,0,0,0,0,0,-1,713,1737,0,0
-504,-713,0,0,0,0,0,0,0,0,0,-1,720,1737,0,0
-497,-713,0,0,0,0,0,0,0,0,0,-1,727,1737,0,0
-490,-713,0,0,0,0,0,0,0,0,0,-1,734,1737,0,0
-483,-713,0,0,0,0,0,0,0,0,0,-1,741,1737,0,0
-476,-713,0,0,0,0,0,0,0,0,0,-1,748,1737,0,0
-469,-713,0,0,0,0,0,0,0,0,0,-1,755,1737,0,0
-462,-713,0,0,0,0,0,0,0,0,0,-1,762,1737,0,0
-455,-713,0,0,0,0,0,0,0,0,0,-1,769,1737,0,0
-448,-713,0,0,0,0,0,0,0,0,0,-1,776,1737,0,0
-441,-713,0,0,0,0,0,0,0,0,0,-1,783,1737,0,0
-434,-713,0,0,0,0,0,0,0,0,0,-1,790,1737,0,0
-427,-713,0,0,0,0,0,0,0,0,0,-1,797,1737,0,0
-420,-713,0,0,0,0,0,0,0,0,0,-1,804,1737,0,0
-413,-713,0,0,0,0,0,0,0,0,0,-1,811,1737,0,0
-406,-713,0,0,0,0,0,0,0,0,0,-1,818,1737,0,0
-399,-713,0,0,0,0,0,0,0,0,0,-1,825,1737,0,0
-392,-713,0,0,0,0,0,0,0,0,0,-1,832,1737,0,0
-385,-713,0,0,0,0,0,0,0,0,0,-1,839,1737,0,0
-378,-713,0,0,0,0,0,0,0,0,0,-1,846,1737,0,0
-371,-713,0,0,0,0,0,0,0,0,0,-1,853,1737,0,0
-364,-713,0,0,0,0,0,0,0,0,0,-1,860,1737,0,0
-357,-713,0,0,0,0,0,0,0,0,0,-1,867,1737,0,0
-350,-713,0,0,0,0,0,0,0,0,0,-1,874,1737,0,0
-343,-713,0,0,0,0,0,0,0,0,0,-1,881,1737,0,0
-336,-713,0,0,0,0,0,0,0,0,0,-1,888,1737,0,0
-329,-713,0,0,0,0,0,0,0,0,0,-1,895,1737,0,0
-322,-713,0,0,0,0,0,0,0,0,0,-1,902,1737,0,0
-315,-713,0,0,0,0,0,0,0,0,0,-1,909,1737,0,0
-308,-713,0,0,0,0,0,0,0,0,0,-1,916,1737,0,0
-301,-713,0,0,0,0,0,0,0,0,0,-1,923,1737,0,0
-294,-713,7.17883,22.0453,0,0,0,0,0,0,0,-1,930,1737,7.17881,-22.0453
-287,-713,11.8916,21.5834,0,0,0,0,0,0,0,-1,937,1737,11.8916,-21.5833
-280,-713,10.2786,21.3551,0,0,0,0,0,0,0,-1,944,1737,10.2787,-21.3551
-273,-713,11.1981,23.8683,0,0,0,0,0,0,0,-1,951,1737,11.198,-23.8683
-266,-713,3.17981,19.8851,0,0,0,0,0,0,0,-1,958,1737,3.17983,-19.8851
-259,-713,3.5921,19.6868,0,0,0,0,0,0,0,-1,965,1737,3.59207,-19.6868
-252,-713,4.55469,20.5758,0,0,0,0,0,0,0,-1,972,1737,4.55466,-20.5758
-245,-713,3.89014,25.9825,0,0,0,0,0,0,0,-1,979,1737,3.89013,-25.9826
-238,-713,6.62506,30.5463,0,0,0,0,0,0,0,-1,986,1737,6.62509,-30.5462
-231,-713,7.21271,66.0579,0,0,0,0,0,0,0,-1,993,1737,7.21272,-66.0579
-224,-713,7.43347,148.356,0,0,0,0,0,0,0,-1,1000,1737,7.43345,-148.356
-217,-713,6.81628,149.384,0,0,0,0,0,0,0,-1,1007,1737,6.81631,-149.384
-210,-713,7.06372,144.959,0,0,0,0,0,0,0,-1,1014,1737,7.06371,-144.959
-203,-713,6.74292,153.564,0,0,0,0,0,0,0,-1,1021,1737,6.74291,-153.564
-196,-713,6.07056,163.059,0,0,0,0,0,0,0,-1,1028,1737,6.0706,-163.059
-189,-713,5.66797,170.009,0,0,0,0,0,0,0,-1,1035,1737,5.66795,-170.009
-182,-713,5.18567,174.156,0,0,0,0,0,0,0,-1,1042,1737,5.18571,-174.156
-175,-713,4.99878,173.626,0,0,0,0,0,0,0,-1,1049,1737,4.99883,-173.626
-168,-713,-0.0170898,296.167,0,0,0,0,0,0,0,-1,1056,1737,-0.0170615,-296.167
-161,-713,0.104858,298.942,0,0,0,0,0,0,0,-1,1063,1737,0.104851,-298.942
-154,-713,0.165894,301.335,0,0,0,0,0,0,0,-1,1070,1737,0.165931,-301.335
-147,-713,-0.144897,303.572,0.0440762,-0.0135644,-0.0226184,0.051892,-0.0213801,-0.332704,0.0435091,0.0425858,1077,1737,-0.14493,-303.572
-140,-713,-0.242676,305.575,0.0460819,-0.0141327,-0.0224666,0.0535405,-0.0215913,-0.320538,0.0446656,0.0319454,1084,1737,-0.242657,-305.575
-133,-713,-0.122925,307.594,0.0483611,-0.0143415,-0.0221865,0.0554174,-0.0213978,-0.307929,0.0457761,0.0212157,1091,1737,-0.122926,-307.594
-126,-713,0.041748,309.589,0.0506795,-0.0141352,-0.0218087,0.0573344,-0.0207901,-0.296172,0.0467211,0.0327616,1098,1737,0.0417273,-309.589
-119,-713,0.245361,311.525,0.0530632,-0.0138232,-0.0214338,0.0593423,-0.0201022,-0.284976,0.0476959,0.0450217,1105,1737,0.245357,-311.525
-112,-713,0.16626,313.514,0.0551222,-0.0137139,-0.0213358,0.0611988,-0.0197905,-0.277462,0.0487538,0.0228899,1112,1737,0.166223,-313.514
-105,-713,0.270874,315.285,0.0576804,-0.0135004,-0.0211474,0.0634891,-0.0193091,-0.268068,0.0500206,0.0225998,1119,1737,0.27084,-315.285
-98,-713,0.447144,317.017,0.0606071,-0.0135225,-0.0207878,0.0660386,-0.0189539,-0.255568,0.0515193,0.0207899,1126,1737,0.447141,-317.017
-91,-713,0.742676,318.666,0.0633618,-0.0138973,-0.0205001,0.0684644,-0.0189999,-0.243947,0.0531212,0.0204552,1133,1737,0.742627,-318.666
-84,-713,1.01062,320.326,0.0657841,-0.0149346,-0.0201856,0.0705505,-0.019701,-0.231882,0.0547942,0.0211271,1140,1737,1.01059,-320.326
-77,-713,1.23425,321.889,0.0679564,-0.0162828,-0.0194939,0.0722488,-0.0205752,-0.216733,0.0562919,0.0284626,1147,1737,1.23428,-321.889
-70,-713,1.52161,323.403,0.0697479,-0.0176971,-0.0188154,0.0736246,-0.0215737,-0.203191,0.0576362,0.0314049,1154,1737,1.52159,-323.403
-63,-713,1.80737,324.864,0.0715665,-0.0190028,-0.0180879,0.0750452,-0.0224816,-0.190006,0.0589702,0.0298313,1161,1737,1.80741,-324.864
-56,-713,2.10657,326.091,0.0734115,-0.0201781,-0.0169719,0.0763942,-0.0231608,-0.173966,0.0601548,0.0285201,1168,1737,2.10655,-326.091
-49,-713,2.65601,327.277,0.0744793,-0.0213339,-0.0155015,0.0769248,-0.0237794,-0.156472,0.0607805,0.0307886,1175,1737,2.65604,-327.277
-42,-713,3.16675,328.267,0.0748863,-0.0222609,-0.0140367,0.0768738,-0.0242484,-0.140658,0.0609613,0.0388943,1182,1737,3.16677,-328.267
-35,-713,3.61096,329.525,0.0757982,-0.0229888,-0.0128175,0.0774342,-0.0246248,-0.126949,0.061497,0.0320472,1189,1737,3.61099,-329.525
-28,-713,4.11499,330.728,0.0773369,-0.02384,-0.011707,0.0786738,-0.0251769,-0.113707,0.0625538,0.0235433,1196,1737,4.11497,-330.728
-21,-713,4.54431,331.655,0.0789015,-0.0246092,-0.0102841,0.0799133,-0.025621,-0.0980757,0.0635611,0.0159195,1203,1737,4.54431,-331.655
-14,-713,4.93164,332.511,0.080326,-0.0250334,-0.00905978,0.0810994,-0.0258068,-0.0851563,0.0644154,0.0186294,1210,1737,4.93165,-332.511
-7,-713,5.47314,333.386,0.0818775,-0.0256472,-0.00794486,0.0824614,-0.0262311,-0.0733577,0.065493,0.0165875,1217,1737,5.47309,-333.386
0,-713,6.00342,334.139,0.0831832,-0.0264578,-0.00661387,0.0835807,-0.0268553,-0.0600328,0.0665049,0.0216106,1224,1737,6.00341,-334.139
7,-713,6.42798,334.79,0.0842601,-0.0271551,-0.00516227,0.0844988,-0.0273937,-0.0462017,0.0673472,0.0254685,1231,1737,6.42799,-334.79
14,-713,6.82446,335.389,0.0855468,-0.0280501,-0.00381586,0.0856748,-0.0281781,-0.0335408,0.06847,0.0232985,1238,1737,6.82444,-335.389
21,-713,7.42236,335.912,0.0864211,-0.029382,-0.00273065,0.0864854,-0.0294463,-0.0235626,0.0695812,0.0246612,1245,1737,7.42238,-335.913
28,-713,8.14185,336.444,0.0874386,-0.0308594,-0.0016718,0.0874622,-0.0308831,-0.0141283,0.0708818,0.021726,1252,1737,8.14179,-336.444
35,-713,8.77991,336.819,0.0885493,-0.0318832,-0.000795703,0.0885545,-0.0318885,-0.00660666,0.0720575,0.0218682,1259,1737,8.7799,-336.819
42,-713,9.44226,337.118,0.0890817,-0.0324867,0.000252827,0.0890822,-0.0324872,0.0020797,0.0726792,0.0168802,1266,1737,9.44231,-337.118
49,-713,9.94885,337.3,0.0878922,-0.0328897,0.000955928,0.0878998,-0.0328973,0.00791383,0.0721119,0.033604,1273,1737,9.94887,-337.3
56,-713,10.3828,337.426,0.0858061,-0.0325211,0.00145734,0.085824,-0.0325391,0.0123137,0.0706075,0.0451866,1280,1737,10.3829,-337.426
63,-713,11.1771,337.609,0.0830536,-0.031347,0.00155128,0.0830747,-0.031368,0.0135568,0.0682845,0.037677,1287,1737,11.1771,-337.609
70,-713,11.8314,337.776,0.0804622,-0.0293992,0.00133949,0.0804785,-0.0294156,0.0121901,0.0656908,0.0297979,1294,1737,11.8314,-337.775
77,-713,12.3328,337.876,0.0771933,-0.0271144,0.00120944,0.0772073,-0.0271284,0.0115928,0.0625084,0.0341946,1301,1737,12.3328,-337.876
84,-713,13.0653,337.737,0.07368,-0.0243068,0.000947016,0.0736892,-0.024316,0.00966353,0.0589281,0.0251811,1308,1737,13.0653,-337.737
91,-713,13.6724,337.532,0.0704361,-0.0213132,0.000865389,0.0704443,-0.0213214,0.00943098,0.0554536,0.0182118,1315,1737,13.6724,-337.532
98,-713,13.9706,337.331,0.0675586,-0.0185593,0.00115362,0.0675741,-0.0185748,0.0133926,0.0523512,0.0180638,1322,1737,13.9706,-337.331
105,-713,14.0691,337.199,0.0652204,-0.0163893,0.00154512,0.0652496,-0.0164185,0.018924,0.0498816,0.0193734,1329,1737,14.0691,-337.199
112,-713,14.1729,337.145,0.0654167,-0.0147142,0.00254105,0.0654972,-0.0147947,0.0316687,0.0493414,0.017756,1336,1737,14.1728,-337.145
119,-713,14.2103,337.062,0,0,0,0,0,0,0,-1,1343,1737,14.2104,-337.062
126,-713,14.0477,336.92,0,0,0,0,0,0,0,-1,1350,1737,14.0477,-336.92
133,-713,16.9998,334.999,0,0,0,0,0,0,0,-1,1357,1737,16.9998,-334.999
140,-713,17.5879,334.125,0.0702946,-0.00622641,0.0127239,0.0723549,-0.00828666,0.160527,0.0512227,0.0282215,1364,1737,17.5879,-334.125
147,-713,18.1427,333.362,0.0724622,-0.00574772,0.0150521,0.075259,-0.00854459,0.183717,0.0532499,0.0244639,1371,1737,18.1427,-333.362
154,-713,18.4534,332.598,0.0764017,-0.00551015,0.0176515,0.0800436,-0.00915203,0.203466,0.05666,0.0235745,1378,1737,18.4533,-332.598
161,-713,18.9425,331.599,0.0783391,-0.00571454,0.0195458,0.0826619,-0.0100374,0.217661,0.0587403,0.0202845,1385,1737,18.9425,-331.599
168,-713,19.4771,330.564,0.0774652,-0.0060404,0.0207922,0.0823558,-0.0109311,0.231017,0.0588867,0.0203634,1392,1737,19.4771,-330.564
175,-713,19.9315,329.509,0.0735762,-0.00652611,0.0209624,0.0787303,-0.0116802,0.241093,0.0567822,0.0231568,1399,1737,19.9315,-329.509
182,-713,20.3816,328.374,0.0697115,-0.00638151,0.0202606,0.0747699,-0.0114399,0.244663,0.0540648,0.0230365,1406,1737,20.3816,-328.374
189,-713,20.7487,327.199,0.0661782,-0.00611729,0.0195403,0.0711216,-0.0110607,0.247786,0.0514988,0.0233253,1413,1737,20.7486,-327.199
196,-713,21.0522,326.047,0,0,0,0,0,0,0,-1,1420,1737,21.0522,-326.047
203,-713,21.4896,325.108,0,0,0,0,0,0,0,-1,1427,1737,21.4896,-325.108
210,-713,21.8605,323.297,0,0,0,0,0,0,0,-1,1434,1737,21.8605,-323.297
217,-713,22.1064,321.542,0.0561672,-0.00297255,0.0179948,0.0612122,-0.00801756,0.273342,0.0437264,0.0358374,1441,1737,22.1064,-321.541
224,-713,22.319,320.122,0.0535551,-0.00199172,0.0173557,0.058532,-0.00696863,0.279265,0.0415395,0.0273224,1448,1737,22.319,-320.122
231,-713,22.4166,318.528,0.0515626,-0.000791055,0.0165723,0.0563675,-0.00559596,0.282198,0.0395757,0.0159953,1455,1737,22.4167,-318.528
238,-713,22.517,316.862,0.0500862,0.00093048,0.0162222,0.0549571,-0.00394044,0.291698,0.0380197,0.012212,1462,1737,22.5169,-316.862
245,-713,22.5376,315.138,0.048344,0.00268777,0.0156148,0.0531736,-0.00214175,0.299959,0.0361841,0.0233832,1469,1737,22.5376,-315.138
252,-713,22.7429,313.249,0.0459706,0.00408225,0.0147974,0.0506705,-0.000617741,0.307544,0.0339881,0.0307785,1476,1737,22.743,-313.249
259,-713,22.9045,311.311,0.0433353,0.00576471,0.0139679,0.0479592,0.00114082,0.319682,0.0315994,0.026314,1483,1737,22.9046,-311.311
266,-713,22.9025,309.453,0.040409,0.00717891,0.0130645,0.0449302,0.00265774,0.333166,0.029108,0.0189136,1490,1737,22.9024,-309.453
273,-713,22.819,307.44,0.0375351,0.00851334,0.012146,0.0419475,0.0041009,0.348458,0.0267032,0.0171197,1497,1737,22.819,-307.44
280,-713,22.6901,305.233,0.0346342,0.00981979,0.0112596,0.0389816,0.00547239,0.368472,0.0243693,0.0247239,1504,1737,22.6901,-305.233
287,-713,22.4785,302.946,0,0,0,0,0,0,0,-1,1511,1737,22.4785,-302.946
294,-713,22.5277,300.897,0,0,0,0,0,0,0,-1,1518,1737,22.5277,-300.897
301,-713,22.1628,298.358,0,0,0,0,0,0,0,-1,1525,1737,22.1628,-298.358
308,-713,21.8582,295.796,0,0,0,0,0,0,0,-1,1532,1737,21.8581,-295.796
315,-713,4.76782,141.305,0,0,0,0,0,0,0,-1,1539,1737,4.76787,-141.305
322,-713,4.67871,138.236,0,0,0,0,0,0,0,-1,1546,1737,4.67868,-138.236
329,-713,7.14905,111.23,0,0,0,0,0,0,0,-1,1553,1737,7.14908,-111.23
336,-713,8.6969,74.4496,0,0,0,0,0,0,0,-1,1560,1737,8.69687,-74.4496
343,-713,7.68018,74.9004,0,0,0,0,0,0,0,-1,1567,1737,7.68017,-74.9004
350,-713,7.80676,74.0605,0,0,0,0,0,0,0,-1,1574,1737,7.8068,-74.0605
357,-713,8.38928,70.3881,0,0,0,0,0,0,0,-1,1581,1737,8.38932,-70.3881
364,-713,7.52661,46.5348,0,0,0,0,0,0,0,-1,1588,1737,7.52664,-46.5347
371,-713,7.3302,45.0861,0,0,0,0,0,0,0,-1,1595,1737,7.33021,-45.0861
378,-713,6.73975,44.3853,0,0,0,0,0,0,0,-1,1602,1737,6.7397,-44.3853
385,-713,6.58777,43.6438,0,0,0,0,0,0,0,-1,1609,1737,6.58781,-43.6438
392,-713,6.62964,42.8679,0,0,0,0,0,0,0,-1,1616,1737,6.62968,-42.868
399,-713,6.53748,42.0555,0,0,0,0,0,0,0,-1,1623,1737,6.53749,-42.0555
406,-713,2.49878,27.8931,0,0,0,0,0,0,0,-1,1630,1737,2.49884,-27.893
413,-713,1.36597,29.459,0,0,0,0,0,0,0,-1,1637,1737,1.36593,-29.459
420,-713,0,0,0,0,0,0,0,0,0,-1,1644,1737,0,0
427,-713,0,0,0,0,0,0,0,0,0,-1,1651,1737,0,0
434,-713,0,0,0,0,0,0,0,0,0,-1,1658,1737,0,0
441,-713,0,0,0,0,0,0,0,0,0,-1,1665,1737,0,0
448,-713,0,0,0,0,0,0,0,0,0,-1,1672,1737,0,0
455,-713,0,0,0,0,0,0,0,0,0,-1,1679,1737,0,0
462,-713,0,0,0,0,0,0,0,0,0,-1,1686,1737,0,0
469,-713,0,0,0,0,0,0,0,0,0,-1,1693,1737,0,0
476,-713,0,0,0,0,0,0,0,0,0,-1,1700,1737,0,0
483,-713,0,0,0,0,0,0,0,0,0,-1,1707,1737,0,0
490,-713,0,0,0,0,0,0,0,0,0,-1,1714,1737,0,0
497,-713,0,0,0,0,0,0,0,0,0,-1,1721,1737,0,0
504,-713,0,0,0,0,0,0,0,0,0,-1,1728,1737,0,0
511,-713,0,0,0,0,0,0,0,0,0,-1,1735,1737,0,0
518,-713,0,0,0,0,0,0,0,0,0,-1,1742,1737,0,0
525,-713,0,0,0,0,0,0,0,0,0,-1,1749,1737,0,0
532,-713,0,0,0,0,0,0,0,0,0,-1,1756,1737,0,0
539,-713,0,0,0,0,0,0,0,0,0,-1,1763,1737,0,0
546,-713,0,0,0,0,0,0,0,0,0,-1,1770,1737,0,0
553,-713,0,0,0,0,0,0,0,0,0,-1,1777,1737,0,0
560,-713,0,0,0,0,0,0,0,0,0,-1,1784,1737,0,0
567,-713,0,0,0,0,0,0,0,0,0,-1,1791,1737,0,0
574,-713,0,0,0,0,0,0,0,0,0,-1,1798,1737,0,0
581,-713,0,0,0,0,0,0,0,0,0,-1,1805,1737,0,0
588,-713,0,0,0,0,0,0,0,0,0,-1,1812,1737,0,0
595,-713,0,0,0,0,0,0,0,0,0,-1,1819,1737,0,0
602,-713,0,0,0,0,0,0,0,0,0,-1,1826,1737,0,0
609,-713,0,0,0,0,0,0,0,0,0,-1,1833,1737,0,0
616,-713,0,0,0,0,0,0,0,0,0,-1,1840,1737,0,0
623,-713,0,0,0,0,0,0,0,0,0,-1,1847,1737,0,0
630,-713,0,0,0,0,0,0,0,0,0,-1,1854,1737,0,0
637,-713,0,0,0,0,0,0,0,0,0,-1,1861,1737,0,0
644,-713,0,0,0,0,0,0,0,0,0,-1,1868,1737,0,0
651,-713,0,0,0,0,0,0,0,0,0,-1,1875,1737,0,0
658,-713,0,0,0,0,0,0,0,0,0,-1,1882,1737,0,0
665,-713,0,0,0,0,0,0,0,0,0,-1,1889,1737,0,0
672,-713,0,0,0,0,0,0,0,0,0,-1,1896,1737,0,0
679,-713,0,0,0,0,0,0,0,0,0,-1,1903,1737,0,0
686,-713,0,0,0,0,0,0,0,0,0,-1,1910,1737,0,0
693,-713,0,0,0,0,0,0,0,0,0,-1,1917,1737,0,0
700,-713,0,0,0,0,0,0,0,0,0,-1,1924,1737,0,0
707,-713,0,0,0,0,0,0,0,0,0,-1,1931,1737,0,0
714,-713,0,0,0,0,0,0,0,0,0,-1,1938,1737,0,0
721,-713,0,0,0,0,0,0,0,0,0,-1,1945,1737,0,0
728,-713,0,0,0,0,0,0,0,0,0,-1,1952,1737,0,0
735,-713,0,0,0,0,0,0,0,0,0,-1,1959,1737,0,0
742,-713,0,0,0,0,0,0,0,0,0,-1,1966,1737,0,0
749,-713,0,0,0,0,0,0,0,0,0,-1,1973,1737,0,0
756,-713,0,0,0,0,0,0,0,0,0,-1,1980,1737,0,0
763,-713,0,0,0,0,0,0,0,0,0,-1,1987,1737,0,0
770,-713,0,0,0,0,0,0,0,0,0,-1,1994,1737,0,0
777,-713,0,0,0,0,0,0,0,0,0,-1,2001,1737,0,0
784,-713,0,0,0,0,0,0,0,0,0,-1,2008,1737,0,0
791,-713,0,0,0,0,0,0,0,0,0,-1,2015,1737,0,0
798,-713,0,0,0,0,0,0,0,0,0,-1,2022,1737,0,0
805,-713,0,0,0,0,0,0,0,0,0,-1,2029,1737,0,0
812,-713,0,0,0,0,0,0,0,0,0,-1,2036,1737,0,0
-700,-720,0,0,0,0,0,0,0,0,0,-1,524,1744,0,0
-693,-720,0,0,0,0,0,0,0,0,0,-1,531,1744,0,0
-686,-720,0,0,0,0,0,0,0,0,0,-1,538,1744,0,0
-679,-720,0,0,0,0,0,0,0,0,0,-1,545,1744,0,0
-672,-720,0,0,0,0,0,0,0,0,0,-1,552,1744,0,0
-665,-720,0,0,0,0,0,0,0,0,0,-1,559,1744,0,0
-658,-720,0,0,0,0,0,0,0,0,0,-1,566,1744,0,0
-651,-720,0,0,0,0,0,0,0,0,0,-1,573,1744,0,0
-644,-720,0,0,0,0,0,0,0,0,0,-1,580,1744,0,0
-637,-720,0,0,0,0,0,0,0,0,0,-1,587,1744,0,0
-630,-720,0,0,0,0,0,0,0,0,0,-1,594,1744,0,0
-623,-720,0,0,0,0,0,0,0,0,0,-1,601,1744,0,0
-616,-720,0,0,0,0,0,0,0,0,0,-1,608,1744,0,0
-609,-720,0,0,0,0,0,0,0,0,0,-1,615,1744,0,0
-602,-720,0,0,0,0,0,0,0,0,0,-1,622,1744,0,0
-595,-720,0,0,0,0,0,0,0,0,0,-1,629,1744,0,0
-588,-720,0,0,0,0,0,0,0,0,0,-1,636,1744,0,0
-581,-720,0,0,0,0,0,0,0,0,0,-1,643,1744,0,0
-574,-720,0,0,0,0,0,0,0,0,0,-1,650,1744,0,0
-567,-720,0,0,0,0,0,0,0,0,0,-1,657,1744,0,0
-560,-720,0,0,0,0,0,0,0,0,0,-1,664,1744,0,0
-553,-720,0,0,0,0,0,0,0,0,0,-1,671,1744,0,0
-546,-720,0,0,0,0,0,0,0,0,0,-1,678,1744,0,0
-539,-720,0,0,0,0,0,0,0,0,0,-1,685,1744,0,0
-532,-720,0,0,0,0,0,0,0,0,0,-1,692,1744,0,0
-525,-720,0,0,0,0,0,0,0,0,0,-1,699,1744,0,0
-518,-720,0,0,0,0,0,0,0,0,0,-1,706,1744,0,0
-511,-720,0,0,0,0,0,0,0,0,0,-1,713,1744,0,0
-504,-720,0,0,0,0,0,0,0,0,0,-1,720,1744,0,0
-497,-720,0,0,0,0,0,0,0,0,0,-1,727,1744,0,0
-490,-720,0,0,0,0,0,0,0,0,0,-1,734,1744,0,0
-483,-720,0,0,0,0,0,0,0,0,0,-1,741,1744,0,0
-476,-720,0,0,0,0,0,0,0,0,0,-1,748,1744,0,0
-469,-720,0,0,0,0,0,0,0,0,0,-1,755,1744,0,0
-462,-720,0,0,0,0,0,0,0,0,0,-1,762,1744,0,0
-455,-720,0,0,0,0,0,0,0,0,0,-1,769,1744,0,0
-448,-720,0,0,0,0,0,0,0,0,0,-1,776,1744,0,0
-441,-720,0,0,0,0,0,0,0,0,0,-1,783,1744,0,0
-434,-720,0,0,0,0,0,0,0,0,0,-1,790,1744,0,0
-427,-720,0,0,0,0,0,0,0,0,0,-1,797,1744,0,0
-420,-720,0,0,0,0,0,0,0,0,0,-1,804,1744,0,0
-413,-720,0,0,0,0,0,0,0,0,0,-1,811,1744,0,0
-406,-720,0,0,0,0,0,0,0,0,0,-1,818,1744,0,0
-399,-720,0,0,0,0,0,0,0,0,0,-1,825,1744,0,0
-392,-720,0,0,0,0,0,0,0,0,0,-1,832,1744,0,0
-385,-720,0,0,0,0,0,0,0,0,0,-1,839,1744,0,0
-378,-720,0,0,0,0,0,0,0,0,0,-1,846,1744,0,0
-371,-720,0,0,0,0,0,0,0,0,0,-1,853,1744,0,0
-364,-720,0,0,0,0,0,0,0,0,0,-1,860,1744,0,0
-357,-720,0,0,0,0,0,0,0,0,0,-1,867,1744,0,0
-350,-720,0,0,0,0,0,0,0,0,0,-1,874,1744,0,0
-343,-720,0,0,0,0,0,0,0,0,0,-1,881,1744,0,0
-336,-720,0,0,0,0,0,0,0,0,0,-1,888,1744,0,0
-329,-720,0,0,0,0,0,0,0,0,0,-1,895,1744,0,0
-322,-720,0,0,0,0,0,0,0,0,0,-1,902,1744,0,0
-315,-720,0,0,0,0,0,0,0,0,0,-1,909,1744,0,0
-308,-720,0,0,0,0,0,0,0,0,0,-1,916,1744,0,0
-301,-720,0,0,0,0,0,0,0,0,0,-1,923,1744,0,0
-294,-720,0,0,0,0,0,0,0,0,0,-1,930,1744,0,0
-287,-720,0,0,0,0,0,0,0,0,0,-1,937,1744,0,0
-280,-720,6.46796,22.6417,0,0,0,0,0,0,0,-1,944,1744,6.46793,-22.6417
-273,-720,8.54633,13.262,0,0,0,0,0,0,0,-1,951,1744,8.54636,-13.2619
-266,-720,7.28027,13.3165,0,0,0,0,0,0,0,-1,958,1744,7.28026,-13.3166
-259,-720,3.70563,18.6372,0,0,0,0,0,0,0,-1,965,1744,3.70564,-18.6372
-252,-720,4.00989,18.5059,0,0,0,0,0,0,0,-1,972,1744,4.00988,-18.5058
-245,-720,7.05634,33.8489,0,0,0,0,0,0,0,-1,979,1744,7.05634,-33.8489
-238,-720,5.02216,24.1455,0,0,0,0,0,0,0,-1,986,1744,5.02217,-24.1455
-231,-720,6.70276,67.9242,0,0,0,0,0,0,0,-1,993,1744,6.70275,-67.9241
-224,-720,6.97144,68.5684,0,0,0,0,0,0,0,-1,1000,1744,6.97145,-68.5683
-217,-720,7.24011,69.2125,0,0,0,0,0,0,0,-1,1007,1744,7.24014,-69.2125
-210,-720,10.3088,111.446,0,0,0,0,0,0,0,-1,1014,1744,10.3088,-111.446
-203,-720,9.59778,112.807,0,0,0,0,0,0,0,-1,1021,1744,9.59784,-112.807
-196,-720,8.09326,115.036,0,0,0,0,0,0,0,-1,1028,1744,8.0932,-115.036
-189,-720,8.34021,119.394,0,0,0,0,0,0,0,-1,1035,1744,8.34021,-119.394
-182,-720,7.50964,146.051,0,0,0,0,0,0,0,-1,1042,1744,7.50961,-146.051
-175,-720,7.68542,137.635,0,0,0,0,0,0,0,-1,1049,1744,7.68541,-137.635
-168,-720,7.77344,132.664,0,0,0,0,0,0,0,-1,1056,1744,7.77339,-132.664
-161,-720,7.3114,137.663,0,0,0,0,0,0,0,-1,1063,1744,7.31145,-137.663
-154,-720,7.31335,137.407,0,0,0,0,0,0,0,-1,1070,1744,7.31335,-137.407
-147,-720,2.11841,304.065,0,0,0,0,0,0,0,-1,1077,1744,2.11835,-304.065
-140,-720,1.91394,306.043,0,0,0,0,0,0,0,-1,1084,1744,1.91398,-306.043
-133,-720,2.02222,308.066,0,0,0,0,0,0,0,-1,1091,1744,2.02221,-308.066
-126,-720,2.0741,310.048,0.0403617,-0.0143933,-0.0170793,0.0452523,-0.0192839,-0.278884,0.0382523,0.0324193,1098,1744,2.07408,-310.049
-119,-720,2.13049,312.016,0.0425272,-0.0133414,-0.0166074,0.047091,-0.0179053,-0.268189,0.0387662,0.0280436,1105,1744,2.13047,-312.016
-112,-720,2.1156,313.893,0.044229,-0.012416,-0.0165914,0.0487309,-0.0169178,-0.264957,0.0393578,0.0228171,1112,1744,2.11562,-313.893
-105,-720,2.15186,315.665,0.0465205,-0.0113097,-0.0165463,0.05092,-0.0157092,-0.259878,0.0402191,0.0237279,1119,1744,2.15189,-315.665
-98,-720,2.25342,317.414,0.0491833,-0.0104788,-0.016205,0.0533006,-0.0145961,-0.248813,0.0412687,0.0201961,1126,1744,2.25345,-317.414
-91,-720,2.44507,319.009,0.0517583,-0.0100438,-0.0160776,0.0556906,-0.0139761,-0.239875,0.0425578,0.0177652,1133,1744,2.44503,-319.009
-84,-720,2.54395,320.646,0.0539605,-0.0104668,-0.0162038,0.0578063,-0.0143126,-0.233026,0.0440897,0.0242042,1140,1744,2.54397,-320.646
-77,-720,2.78528,322.199,0.0563089,-0.0112153,-0.0161692,0.059981,-0.0148875,-0.22332,0.0457643,0.0334917,1147,1744,2.78529,-322.199
-70,-720,3.15283,323.593,0.0584676,-0.0121693,-0.0160965,0.0619627,-0.0156643,-0.213814,0.0474007,0.0242998,1154,1744,3.15286,-323.593
-63,-720,3.30688,325.039,0.0604893,-0.0134282,-0.0159256,0.0637745,-0.0167134,-0.20343,0.0490461,0.0192101,1161,1744,3.30683,-325.039
-56,-720,3.58325,326.291,0.0623135,-0.0148417,-0.0152942,0.0652346,-0.0177628,-0.188722,0.0504637,0.0250981,1168,1744,3.58329,-326.291
-49,-720,3.96997,327.607,0.0632928,-0.0158351,-0.014427,0.0658411,-0.0183834,-0.174833,0.0511355,0.0342463,1175,1744,3.97,-327.607
-42,-720,4.34668,328.568,0.0639333,-0.0165041,-0.0134382,0.066119,-0.0186898,-0.161232,0.0514534,0.0401092,1182,1744,4.3467,-328.568
-35,-720,4.68005,329.666,0.0648387,-0.0172801,-0.0125857,0.0667243,-0.0191657,-0.148716,0.052061,0.0381856,1189,1744,4.6801,-329.665
-28,-720,5.1012,330.979,0.0660338,-0.0179943,-0.0116889,0.0676295,-0.01959,-0.135676,0.052841,0.0212198,1196,1744,5.10124,-330.979
-21,-720,5.49927,331.917,0.0672625,-0.0185543,-0.0104572,0.0685183,-0.0198102,-0.119525,0.0535187,0.0161088,1203,1744,5.49927,-331.917
-14,-720,5.8667,332.75,0.0685079,-0.0187015,-0.00932536,0.0694939,-0.0196875,-0.105344,0.0540994,0.0205433,1210,1744,5.86675,-332.75
-7,-720,6.33704,333.646,0.0698205,-0.0190494,-0.00823691,0.0705775,-0.0198064,-0.0916447,0.0548589,0.0225397,1217,1744,6.337,-333.646
0,-720,6.70276,334.432,0.0708794,-0.0195796,-0.00701756,0.0714205,-0.0201208,-0.0769636,0.0555489,0.0217927,1224,1744,6.70271,-334.432
7,-720,7.13892,335.027,0.0718099,-0.0201121,-0.00572753,0.0721654,-0.0204676,-0.061989,0.0561894,0.0246268,1231,1744,7.13893,-335.027
14,-720,7.5564,335.622,0.0730163,-0.020848,-0.00449502,0.073231,-0.0210628,-0.0477429,0.0571504,0.0243424,1238,1744,7.55636,-335.622
21,-720,8.03784,336.144,0.0740078,-0.0218942,-0.00347878,0.0741338,-0.0220202,-0.0362109,0.058169,0.0238854,1245,1744,8.03788,-336.144
28,-720,8.61707,336.636,0.0750429,-0.0232595,-0.00246778,0.0751048,-0.0233214,-0.0250829,0.0593901,0.021607,1252,1744,8.61703,-336.636
35,-720,9.15149,337.026,0.0761335,-0.024232,-0.00154402,0.0761573,-0.0242557,-0.0153792,0.0604998,0.0183503,1259,1744,9.15143,-337.026
42,-720,9.68909,337.375,0.0767535,-0.0248799,-0.000547583,0.0767565,-0.0248829,-0.00538761,0.061176,0.0163025,1266,1744,9.68905,-337.375
49,-720,10.2061,337.621,0.0759113,-0.0253882,0.000137235,0.0759115,-0.0253883,0.00135474,0.0608619,0.0346094,1273,1744,10.2061,-337.621
56,-720,10.491,337.79,0.0743337,-0.025205,0.000645755,0.0743379,-0.0252092,0.00648712,0.0597611,0.0372949,1280,1744,10.4909,-337.79
63,-720,11.1711,337.918,0.0721245,-0.0242707,0.000826165,0.0721316,-0.0242778,0.00856975,0.0579025,0.0410859,1287,1744,11.1712,-337.918
70,-720,12.041,338.024,0,0,0,0,0,0,0,-1,1294,1744,12.0411,-338.024
77,-720,12.5592,338.215,0,0,0,0,0,0,0,-1,1301,1744,12.5592,-338.215
84,-720,13.0203,337.811,0.0645197,-0.0179471,0.000318054,0.0645209,-0.0179483,0.00385668,0.0500805,0.0468413,1308,1744,13.0203,-337.811
91,-720,13.4709,337.539,0.0620084,-0.0153565,0.000265885,0.0620093,-0.0153574,0.00343671,0.0472972,0.0257333,1315,1744,13.4709,-337.539
98,-720,13.8517,337.356,0.0598692,-0.0128288,0.000556459,0.0598735,-0.0128331,0.00765379,0.0448101,0.0253056,1322,1744,13.8517,-337.356
105,-720,14.0238,337.24,0.058304,-0.0108231,0.000954767,0.0583172,-0.0108363,0.0138082,0.0429483,0.020765,1329,1744,14.0238,-337.24
112,-720,14.1028,337.093,0.0584152,-0.0092748,0.00174392,0.0584601,-0.0093197,0.0257405,0.0424226,0.0209605,1336,1744,14.1028,-337.093
119,-720,14.3523,336.99,0.0593787,-0.00764347,0.00328117,0.059539,-0.00780372,0.048801,0.0425332,0.0340342,1343,1744,14.3523,-336.99
126,-720,15.187,336.111,0,0,0,0,0,0,0,-1,1350,1744,15.187,-336.111
133,-720,16.2919,334.989,0.0616062,-0.00425545,0.00743346,0.0624347,-0.005084,0.111004,0.0434172,0.0280857,1357,1744,16.2919,-334.989
140,-720,16.822,334.342,0.062037,-0.00388288,0.00953536,0.0633885,-0.00523446,0.140807,0.0441075,0.0319002,1364,1744,16.8221,-334.342
147,-720,17.1958,333.547,0.0636402,-0.00397493,0.0114475,0.0655257,-0.00586046,0.163245,0.0457625,0.0281279,1371,1744,17.1958,-333.547
154,-720,17.4813,332.722,0.065969,-0.00415972,0.013493,0.0684755,-0.00666621,0.18367,0.0480269,0.0190404,1378,1744,17.4813,-332.722
161,-720,17.9642,331.776,0.0665515,-0.00471896,0.0149978,0.0695789,-0.00774642,0.199184,0.0491719,0.0169248,1385,1744,17.9642,-331.776
168,-720,18.3822,330.791,0.0646982,-0.00509812,0.0158116,0.0681131,-0.00851298,0.212705,0.0484961,0.0185918,1392,1744,18.3822,-330.791
175,-720,18.637,329.702,0.061266,-0.00539317,0.015935,0.0648795,-0.00900659,0.222989,0.0465465,0.024844,1399,1744,18.637,-329.702
182,-720,18.9861,328.551,0.058039,-0.00520595,0.0154471,0.0616102,-0.00877715,0.227197,0.0442901,0.0243373,1406,1744,18.986,-328.551
189,-720,19.282,327.356,0.0550773,-0.00454903,0.0149316,0.0586075,-0.00807921,0.23216,0.0420244,0.031328,1413,1744,19.282,-327.356
196,-720,19.432,326.215,0,0,0,0,0,0,0,-1,1420,1744,19.432,-326.215
203,-720,19.1696,324.546,0,0,0,0,0,0,0,-1,1427,1744,19.1695,-324.546
210,-720,20.2231,323.075,0,0,0,0,0,0,0,-1,1434,1744,20.2231,-323.075
217,-720,20.3024,321.738,0.0469542,0.000770698,0.0143607,0.0510554,-0.00333056,0.278183,0.0351997,0.0349638,1441,1744,20.3024,-321.738
224,-720,20.5231,320.305,0.0447078,0.00247791,0.0140932,0.0489791,-0.00179335,0.294273,0.0332666,0.0177497,1448,1744,20.5231,-320.305
231,-720,20.6687,318.739,0.0428195,0.00469682,0.0135165,0.0471255,0.000390857,0.308406,0.0312875,0.0148655,1455,1744,20.6687,-318.739
238,-720,20.7167,317.098,0.0412989,0.00679472,0.0130335,0.0456687,0.0024249,0.323498,0.0296706,0.0138354,1462,1744,20.7167,-317.098
245,-720,20.6898,315.388,0.0395982,0.0087038,0.0122552,0.0438692,0.00443282,0.33534,0.0278862,0.0206107,1469,1744,20.6898,-315.388
252,-720,20.7731,313.485,0.037415,0.0101207,0.011275,0.0414701,0.00606557,0.34525,0.025863,0.0251212,1476,1744,20.7731,-313.485
259,-720,20.8492,311.582,0.0349915,0.0118792,0.0103155,0.0389258,0.00794494,0.364367,0.0237494,0.0291574,1483,1744,20.8492,-311.582
266,-720,20.9023,309.442,0.0323389,0.0132931,0.00923714,0.0360829,0.0095491,0.385084,0.0215881,0.0487837,1490,1744,20.9023,-309.442
273,-720,20.621,307.7,0,0,0,0,0,0,0,-1,1497,1744,20.6209,-307.7
280,-720,20.4176,305.401,0,0,0,0,0,0,0,-1,1504,1744,20.4177,-305.401
287,-720,5.17542,134.649,0,0,0,0,0,0,0,-1,1511,1744,5.17542,-134.649
294,-720,6.99695,110.857,0,0,0,0,0,0,0,-1,1518,1744,6.99699,-110.857
301,-720,6.64636,110.967,0,0,0,0,0,0,0,-1,1525,1744,6.64634,-110.967
308,-720,6.44629,112.353,0,0,0,0,0,0,0,-1,1532,1744,6.44625,-112.353
315,-720,8.33508,80.2484,0,0,0,0,0,0,0,-1,1539,1744,8.33509,-80.2484
322,-720,8.98181,43.5223,0,0,0,0,0,0,0,-1,1546,1744,8.98176,-43.5223
329,-720,9.15906,34.7668,0,0,0,0,0,0,0,-1,1553,1744,9.1591,-34.7669
336,-720,6.14148,26.5682,0,0,0,0,0,0,0,-1,1560,1744,6.14151,-26.5683
343,-720,6.78552,21.3625,0,0,0,0,0,0,0,-1,1567,1744,6.78551,-21.3625
350,-720,7.53918,71.5569,0,0,0,0,0,0,0,-1,1574,1744,7.53914,-71.5568
357,-720,6.90833,21.4504,0,0,0,0,0,0,0,-1,1581,1744,6.90827,-21.4505
364,-720,6.59497,44.1384,0,0,0,0,0,0,0,-1,1588,1744,6.59492,-44.1385
371,-720,6.67773,45.2386,0,0,0,0,0,0,0,-1,1595,1744,6.67779,-45.2386
378,-720,3.88257,25.5404,0,0,0,0,0,0,0,-1,1602,1744,3.88262,-25.5404
385,-720,4.672,37.3854,0,0,0,0,0,0,0,-1,1609,1744,4.67202,-37.3854
392,-720,4.89319,36.2684,0,0,0,0,0,0,0,-1,1616,1744,4.89323,-36.2684
399,-720,2.37317,24.7166,0,0,0,0,0,0,0,-1,1623,1744,2.37317,-24.7166
406,-720,0,0,0,0,0,0,0,0,0,-1,1630,1744,0,0
413,-720,0,0,0,0,0,0,0,0,0,-1,1637,1744,0,0
420,-720,0,0,0,0,0,0,0,0,0,-1,1644,1744,0,0
427,-720,0,0,0,0,0,0,0,0,0,-1,1651,1744,0,0
434,-720,0,0,0,0,0,0,0,0,0,-1,1658,1744,0,0
441,-720,0,0,0,0,0,0,0,0,0,-1,1665,1744,0,0
448,-720,0,0,0,0,0,0,0,0,0,-1,1672,1744,0,0
455,-720,0,0,0,0,0,0,0,0,0,-1,1679,1744,0,0
462,-720,0,0,0,0,0,0,0,0,0,-1,1686,1744,0,0
469,-720,0,0,0,0,0,0,0,0,0,-1,1693,1744,0,0
476,-720,0,0,0,0,0,0,0,0,0,-1,1700,1744,0,0
483,-720,0,0,0,0,0,0,0,0,0,-1,1707,1744,0,0
490,-720,0,0,0,0,0,0,0,0,0,-1,1714,1744,0,0
497,-720,0,0,0,0,0,0,0,0,0,-1,1721,1744,0,0
504,-720,0,0,0,0,0,0,0,0,0,-1,1728,1744,0,0
511,-720,0,0,0,0,0,0,0,0,0,-1,1735,1744,0,0
518,-720,0,0,0,0,0,0,0,0,0,-1,1742,1744,0,0
525,-720,0,0,0,0,0,0,0,0,0,-1,1749,1744,0,0
532,-720,0,0,0,0,0,0,0,0,0,-1,1756,1744,0,0
539,-720,0,0,0,0,0,0,0,0,0,-1,1763,1744,0,0
546,-720,0,0,0,0,0,0,0,0,0,-1,1770,1744,0,0
553,-720,0,0,0,0,0,0,0,0,0,-1,1777,1744,0,0
560,-720,0,0,0,0,0,0,0,0,0,-1,1784,1744,0,0
567,-720,0,0,0,0,0,0,0,0,0,-1,1791,1744,0,0
574,-720,0,0,0,0,0,0,0,0,0,-1,1798,1744,0,0
581,-720,0,0,0,0,0,0,0,0,0,-1,1805,1744,0,0
588,-720,0,0,0,0,0,0,0,0,0,-1,1812,1744,0,0
595,-720,0,0,0,0,0,0,0,0,0,-1,1819,1744,0,0
602,-720,0,0,0,0,0,0,0,0,0,-1,1826,1744,0,0
609,-720,0,0,0,0,0,0,0,0,0,-1,1833,1744,0,0
616,-720,0,0,0,0,0,0,0,0,0,-1,1840,1744,0,0
623,-720,0,0,0,0,0,0,0,0,0,-1,1847,1744,0,0
630,-720,0,0,0,0,0,0,0,0,0,-1,1854,1744,0,0
637,-720,0,0,0,0,0,0,0,0,0,-1,1861,1744,0,0
644,-720,0,0,0,0,0,0,0,0,0,-1,1868,1744,0,0
651,-720,0,0,0,0,0,0,0,0,0,-1,1875,1744,0,0
658,-720,0,0,0,0,0,0,0,0,0,-1,1882,1744,0,0
665,-720,0,0,0,0,0,0,0,0,0,-1,1889,1744,0,0
672,-720,0,0,0,0,0,0,0,0,0,-1,1896,1744,0,0
679,-720,0,0,0,0,0,0,0,0,0,-1,1903,1744,0,0
686,-720,0,0,0,0,0,0,0,0,0,-1,1910,1744,0,0
693,-720,0,0,0,0,0,0,0,0,0,-1,1917,1744,0,0
700,-720,0,0,0,0,0,0,0,0,0,-1,1924,1744,0,0
707,-720,0,0,0,0,0,0,0,0,0,-1,1931,1744,0,0
714,-720,0,0,0,0,0,0,0,0,0,-1,1938,1744,0,0
721,-720,0,0,0,0,0,0,0,0,0,-1,1945,1744,0,0
728,-720,0,0,0,0,0,0,0,0,0,-1,1952,1744,0,0
735,-720,0,0,0,0,0,0,0,0,0,-1,1959,1744,0,0
742,-720,0,0,0,0,0,0,0,0,0,-1,1966,1744,0,0
749,-720,0,0,0,0,0,0,0,0,0,-1,1973,1744,0,0
756,-720,0,0,0,0,0,0,0,0,0,-1,1980,1744,0,0
763,-720,0,0,0,0,0,0,0,0,0,-1,1987,1744,0,0
770,-720,0,0,0,0,0,0,0,0,0,-1,1994,1744,0,0
777,-720,0,0,0,0,0,0,0,0,0,-1,2001,1744,0,0
784,-720,0,0,0,0,0,0,0,0,0,-1,2008,1744,0,0
791,-720,0,0,0,0,0,0,0,0,0,-1,2015,1744,0,0
798,-720,0,0,0,0,0,0,0,0,0,-1,2022,1744,0,0
805,-720,0,0,0,0,0,0,0,0,0,-1,2029,1744,0,0
812,-720,0,0,0,0,0,0,0,0,0,-1,2036,1744,0,0
-700,-727,0,0,0,0,0,0,0,0,0,-1,524,1751,0,0
-693,-727,0,0,0,0,0,0,0,0,0,-1,531,1751,0,0
-686,-727,0,0,0,0,0,0,0,0,0,-1,538,1751,0,0
-679,-727,0,0,0,0,0,0,0,0,0,-1,545,1751,0,0
-672,-727,0,0,0,0,0,0,0,0,0,-1,552,1751,0,0
-665,-727,0,0,0,0,0,0,0,0,0,-1,559,1751,0,0
-658,-727,0,0,0,0,0,0,0,0,0,-1,566,1751,0,0
-651,-727,0,0,0,0,0,0,0,0,0,-1,573,1751,0,0
-644,-727,0,0,0,0,0,0,0,0,0,-1,580,1751,0,0
-637,-727,0,0,0,0,0,0,0,0,0,-1,587,1751,0,0
-630,-727,0,0,0,0,0,0,0,0,0,-1,594,1751,0,0
-623,-727,0,0,0,0,0,0,0,0,0,-1,601,1751,0,0
-616,-727,0,0,0,0,0,0,0,0,0,-1,608,1751,0,0
-609,-727,0,0,0,0,0,0,0,0,0,-1,615,1751,0,0
-602,-727,0,0,0,0,0,0,0,0,0,-1,622,1751,0,0
-595,-727,0,0,0,0,0,0,0,0,0,-1,629,1751,0,0
-588,-727,0,0,0,0,0,0,0,0,0,-1,636,1751,0,0
-581,-727,0,0,0,0,0,0,0,0,0,-1,643,1751,0,0
-574,-727,0,0,0,0,0,0,0,0,0,-1,650,1751,0,0
-567,-727,0,0,0,0,0,0,0,0,0,-1,657,1751,0,0
-560,-727,0,0,0,0,0,0,0,0,0,-1,664,1751,0,0
-553,-727,0,0,0,0,0,0,0,0,0,-1,671,1751,0,0
-546,-727,0,0,0,0,0,0,0,0,0,-1,678,1751,0,0
-539,-727,0,0,0,0,0,0,0,0,0,-1,685,1751,0,0
-532,-727,0,0,0,0,0,0,0,0,0,-1,692,1751,0,0
-525,-727,0,0,0,0,0,0,0,0,0,-1,699,1751,0,0
-518,-727,0,0,0,0,0,0,0,0,0,-1,706,1751,0,0
-511,-727,0,0,0,0,0,0,0,0,0,-1,713,1751,0,0
-504,-727,0,0,0,0,0,0,0,0,0,-1,720,1751,0,0
-497,-727,0,0,0,0,0,0,0,0,0,-1,727,1751,0,0
-490,-727,0,0,0,0,0,0,0,0,0,-1,734,1751,0,0
-483,-727,0,0,0,0,0,0,0,0,0,-1,741,1751,0,0
-476,-727,0,0,0,0,0,0,0,0,0,-1,748,1751,0,0
-469,-727,0,0,0,0,0,0,0,0,0,-1,755,1751,0,0
-462,-727,0,0,0,0,0,0,0,0,0,-1,762,1751,0,0
-455,-727,0,0,0,0,0,0,0,0,0,-1,769,1751,0,0
-448,-727,0,0,0,0,0,0,0,0,0,-1,776,1751,0,0
-441,-727,0,0,0,0,0,0,0,0,0,-1,783,1751,0,0
-434,-727,0,0,0,0,0,0,0,0,0,-1,790,1751,0,0
-427,-727,0,0,0,0,0,0,0,0,0,-1,797,1751,0,0
-420,-727,0,0,0,0,0,0,0,0,0,-1,804,1751,0,0
-413,-727,0,0,0,0,0,0,0,0,0,-1,811,1751,0,0
-406,-727,0,0,0,0,0,0,0,0,0,-1,818,1751,0,0
-399,-727,0,0,0,0,0,0,0,0,0,-1,825,1751,0,0
-392,-727,0,0,0,0,0,0,0,0,0,-1,832,1751,0,0
-385,-727,0,0,0,0,0,0,0,0,0,-1,839,1751,0,0
-378,-727,0,0,0,0,0,0,0,0,0,-1,846,1751,0,0
-371,-727,0,0,0,0,0,0,0,0,0,-1,853,1751,0,0
-364,-727,0,0,0,0,0,0,0,0,0,-1,860,1751,0,0
-357,-727,0,0,0,0,0,0,0,0,0,-1,867,1751,0,0
-350,-727,0,0,0,0,0,0,0,0,0,-1,874,1751,0,0
-343,-727,0,0,0,0,0,0,0,0,0,-1,881,1751,0,0
-336,-727,0,0,0,0,0,0,0,0,0,-1,888,1751,0,0
-329,-727,0,0,0,0,0,0,0,0,0,-1,895,1751,0,0
-322,-727,0,0,0,0,0,0,0,0,0,-1,902,1751,0,0
-315,-727,0,0,0,0,0,0,0,0,0,-1,909,1751,0,0
-308,-727,0,0,0,0,0,0,0,0,0,-1,916,1751,0,0
-301,-727,0,0,0,0,0,0,0,0,0,-1,923,1751,0,0
-294,-727,0,0,0,0,0,0,0,0,0,-1,930,1751,0,0
-287,-727,0,0,0,0,0,0,0,0,0,-1,937,1751,0,0
-280,-727,0,0,0,0,0,0,0,0,0,-1,944,1751,0,0
-273,-727,0,0,0,0,0,0,0,0,0,-1,951,1751,0,0
-266,-727,4.24805,7.61145,0,0,0,0,0,0,0,-1,958,1751,4.24802,-7.6115
-259,-727,3.65228,5.4082,0,0,0,0,0,0,0,-1,965,1751,3.65229,-5.40818
-252,-727,5.8797,32.9292,0,0,0,0,0,0,0,-1,972,1751,5.87972,-32.9292
-245,-727,6.59198,32.2588,0,0,0,0,0,0,0,-1,979,1751,6.59195,-32.2587
-238,-727,6.6189,30.4597,0,0,0,0,0,0,0,-1,986,1751,6.61889,-30.4598
-231,-727,10.3705,65.6537,0,0,0,0,0,0,0,-1,993,1751,10.3706,-65.6537
-224,-727,6.64417,70.2582,0,0,0,0,0,0,0,-1,1000,1751,6.64418,-70.2582
-217,-727,11.5642,66.4852,0,0,0,0,0,0,0,-1,1007,1751,11.5642,-66.4853
-210,-727,11.9247,66.7097,0,0,0,0,0,0,0,-1,1014,1751,11.9246,-66.7097
-203,-727,10.2913,113.322,0,0,0,0,0,0,0,-1,1021,1751,10.2912,-113.322
-196,-727,9.95496,113.302,0,0,0,0,0,0,0,-1,1028,1751,9.95494,-113.302
-189,-727,9.26709,79.3872,0,0,0,0,0,0,0,-1,1035,1751,9.26713,-79.3872
-182,-727,9.896,114.416,0,0,0,0,0,0,0,-1,1042,1751,9.89605,-114.416
-175,-727,9.45593,123.651,0,0,0,0,0,0,0,-1,1049,1751,9.45591,-123.651
-168,-727,8.81592,119.119,0,0,0,0,0,0,0,-1,1056,1751,8.81591,-119.119
-161,-727,9.19238,116.507,0,0,0,0,0,0,0,-1,1063,1751,9.19233,-116.507
-154,-727,9.53088,111.789,0,0,0,0,0,0,0,-1,1070,1751,9.53087,-111.789
-147,-727,9.88684,103.831,0,0,0,0,0,0,0,-1,1077,1751,9.88688,-103.831
-140,-727,9.77563,100.047,0,0,0,0,0,0,0,-1,1084,1751,9.77561,-100.047
-133,-727,9.11511,111.783,0,0,0,0,0,0,0,-1,1091,1751,9.11513,-111.783
-126,-727,4.0249,310.364,0,0,0,0,0,0,0,-1,1098,1751,4.02495,-310.364
-119,-727,4.02393,312.532,0,0,0,0,0,0,0,-1,1105,1751,4.02388,-312.532
-112,-727,4.03223,314.409,0,0,0,0,0,0,0,-1,1112,1751,4.03219,-314.409
-105,-727,4.08228,316.089,0,0,0,0,0,0,0,-1,1119,1751,4.08229,-316.089
-98,-727,3.93335,317.657,0.0379105,-0.00710932,-0.011695,0.0407673,-0.00996609,-0.239581,0.0310382,0.0295165,1126,1751,3.9334,-317.657
-91,-727,4.08167,319.213,0.0403576,-0.00593327,-0.0117611,0.0431743,-0.00875003,-0.23507,0.0320996,0.0206042,1133,1751,4.08168,-319.213
-84,-727,4.24731,320.808,0.0423976,-0.00586102,-0.0123824,0.0453892,-0.0088527,-0.237064,0.0336014,0.0243755,1140,1751,4.24735,-320.808
-77,-727,4.43201,322.263,0.0449615,-0.00610492,-0.0130402,0.0480987,-0.0092421,-0.236091,0.0355492,0.0332682,1147,1751,4.43206,-322.263
-70,-727,4.6814,323.795,0.0474581,-0.0066847,-0.0135963,0.0506806,-0.0099072,-0.232719,0.0375279,0.0280526,1154,1751,4.68144,-323.795
-63,-727,4.79138,325.258,0.0496359,-0.007952,-0.0139774,0.0528491,-0.0111652,-0.225962,0.0394843,0.0193039,1161,1751,4.79139,-325.258
-56,-727,4.96326,326.521,0.0514163,-0.0096116,-0.013827,0.0544029,-0.0125982,-0.21273,0.0411164,0.019784,1168,1751,4.96331,-326.521
-49,-727,5.29175,327.78,0.0521277,-0.0102655,-0.013556,0.0549458,-0.0130835,-0.204959,0.0416818,0.0224682,1175,1751,5.29172,-327.78
-42,-727,5.56921,328.911,0.0528105,-0.0103651,-0.0129073,0.0553458,-0.0129005,-0.193956,0.0418652,0.0270063,1182,1751,5.56927,-328.911
-35,-727,5.80811,330.039,0.0536613,-0.0110372,-0.0123622,0.0559429,-0.0133189,-0.182511,0.0424374,0.0248709,1189,1751,5.8081,-330.039
-28,-727,6.10388,331.152,0.0545152,-0.0115109,-0.0116367,0.056506,-0.0135017,-0.169445,0.0428857,0.016976,1196,1751,6.10384,-331.152
-21,-727,6.45093,332.128,0.0554083,-0.0117813,-0.0105384,0.0570224,-0.0133955,-0.151985,0.0431784,0.0186011,1203,1751,6.45098,-332.128
-14,-727,6.79517,332.963,0.0564989,-0.0115666,-0.00945579,0.0577881,-0.0128558,-0.135504,0.0434493,0.0205106,1210,1751,6.79511,-332.963
-7,-727,7.18567,333.824,0.0576088,-0.0116022,-0.00836095,0.0586045,-0.0125979,-0.118532,0.0438761,0.0253758,1217,1751,7.18566,-333.824
0,-727,7.42712,334.638,0.0585002,-0.0118583,-0.00722081,0.0592336,-0.0125917,-0.101223,0.044287,0.0254414,1224,1751,7.42707,-334.638
7,-727,7.81702,335.223,0.0593412,-0.012255,-0.00606372,0.0598511,-0.0127649,-0.083897,0.0447665,0.0279753,1231,1751,7.81706,-335.223
14,-727,8.28076,335.748,0.0605027,-0.0128991,-0.00493239,0.0608327,-0.0132291,-0.0667969,0.0456089,0.02999,1238,1751,8.28073,-335.748
21,-727,8.69568,336.305,0.061637,-0.0137662,-0.00397261,0.0618457,-0.013975,-0.0524912,0.0465927,0.0261327,1245,1751,8.69568,-336.305
28,-727,9.16541,336.809,0.0627829,-0.0149299,-0.00341729,0.0629329,-0.0150799,-0.0438605,0.0477818,0.0221157,1252,1751,9.16543,-336.809
35,-727,9.63489,337.228,0.0639683,-0.0154947,-0.00299648,0.0640812,-0.0156075,-0.0376379,0.0487631,0.0196024,1259,1751,9.63489,-337.228
42,-727,9.9552,337.575,0.0647756,-0.0160661,-0.00236294,0.0648446,-0.0161351,-0.029196,0.0494927,0.0173895,1266,1751,9.95515,-337.575
49,-727,10.3519,337.891,0.0643279,-0.0167345,-0.0019681,0.0643757,-0.0167823,-0.0242598,0.0494694,0.0263894,1273,1751,10.3519,-337.891
56,-727,10.6299,338.121,0.0633169,-0.0168917,-0.00165266,0.0633509,-0.0169257,-0.0205929,0.048863,0.0248381,1280,1751,10.6299,-338.121
63,-727,10.9895,338.197,0.0617165,-0.0163307,-0.00158509,0.0617487,-0.0163628,-0.0202982,0.0475676,0.0302706,1287,1751,10.9895,-338.197
70,-727,11.8937,338.048,0,0,0,0,0,0,0,-1,1294,1751,11.8937,-338.048
77,-727,12.3728,337.983,0,0,0,0,0,0,0,-1,1301,1751,12.3728,-337.983
84,-727,13.1304,337.577,0,0,0,0,0,0,0,-1,1308,1751,13.1304,-337.577
91,-727,13.2477,337.496,0,0,0,0,0,0,0,-1,1315,1751,13.2477,-337.496
98,-727,13.7031,337.319,0.0517232,-0.00780463,-0.00102973,0.051741,-0.00782244,-0.0172915,0.0373754,0.036862,1322,1751,13.7032,-337.319
105,-727,13.7777,337.192,0.050614,-0.00621568,-0.000478359,0.0506181,-0.00621971,-0.00841661,0.0359982,0.022839,1329,1751,13.7777,-337.192
112,-727,14.077,336.959,0.0506532,-0.00492151,0.000198452,0.0506539,-0.00492222,0.00357085,0.0355239,0.0234259,1336,1751,14.077,-336.959
119,-727,14.5048,336.53,0.0512338,-0.00360349,0.00133148,0.0512661,-0.0036358,0.0242616,0.0354515,0.0244809,1343,1751,14.5048,-336.53
126,-727,15.2087,335.83,0.0521988,-0.00232884,0.00296927,0.05236,-0.00249006,0.0542407,0.0357656,0.0279261,1350,1751,15.2087,-335.83
133,-727,15.6609,335.136,0.0528265,-0.00181772,0.00455707,0.0532039,-0.00219515,0.0826347,0.0362232,0.023102,1357,1751,15.6609,-335.136
140,-727,15.9918,334.403,0.053157,-0.00223725,0.00631613,0.0538681,-0.0029483,0.112104,0.0369341,0.0327194,1364,1751,15.9918,-334.403
147,-727,16.3551,333.647,0.0542721,-0.00264592,0.0078766,0.055342,-0.00371582,0.135005,0.0381936,0.0264105,1371,1751,16.3551,-333.647
154,-727,16.6965,332.827,0.0553499,-0.00296954,0.00946721,0.0568482,-0.00446789,0.156966,0.0394725,0.0182597,1378,1751,16.6965,-332.827
161,-727,17.0143,331.885,0.0548338,-0.00362782,0.0106,0.0566964,-0.00549041,0.173941,0.0397543,0.0157594,1385,1751,17.0143,-331.884
168,-727,17.2712,330.963,0.0521089,-0.00398135,0.0110077,0.0541918,-0.00606424,0.187011,0.0383096,0.0178452,1392,1751,17.2712,-330.963
175,-727,17.4756,329.953,0.0491069,-0.00373362,0.0110677,0.0513314,-0.00595813,0.19835,0.03637,0.0255581,1399,1751,17.4756,-329.953
182,-727,17.7723,328.801,0.0465195,-0.00354938,0.0107481,0.0487293,-0.00575912,0.202767,0.0345662,0.0273237,1406,1751,17.7724,-328.801
189,-727,17.975,327.602,0.0440145,-0.00258861,0.0103056,0.0461917,-0.00476583,0.208204,0.0324997,0.0279949,1413,1751,17.975,-327.602
196,-727,18.161,326.369,0,0,0,0,0,0,0,-1,1420,1751,18.1611,-326.369
203,-727,18.5088,324.625,0,0,0,0,0,0,0,-1,1427,1751,18.5087,-324.625
210,-727,18.7993,323.353,0,0,0,0,0,0,0,-1,1434,1751,18.7993,-323.353
217,-727,18.7533,321.936,0.0377396,0.00453191,0.0104045,0.0407301,0.00154136,0.279885,0.0266545,0.0276505,1441,1751,18.7533,-321.936
224,-727,18.84,320.464,0.0359456,0.006959,0.0105383,0.0393719,0.00353271,0.314347,0.0251532,0.0204524,1448,1751,18.84,-320.464
231,-727,18.9264,318.891,0.033918,0.01032,0.0101861,0.0377067,0.00653135,0.356083,0.0232682,0.0161039,1455,1751,18.9263,-318.891
238,-727,18.9049,317.071,0.0320892,0.0131043,0.00945456,0.0359943,0.00919918,0.3917,0.0215932,0.039983,1462,1751,18.9049,-317.071
245,-727,18.9795,315.234,0,0,0,0,0,0,0,-1,1469,1751,18.9795,-315.234
252,-727,18.8677,313.692,0,0,0,0,0,0,0,-1,1476,1751,18.8677,-313.692
259,-727,18.7595,311.679,0,0,0,0,0,0,0,-1,1483,1751,18.7595,-311.679
266,-727,18.8523,309.2,0,0,0,0,0,0,0,-1,1490,1751,18.8523,-309.2
273,-727,8.31946,82.3387,0,0,0,0,0,0,0,-1,1497,1751,8.31948,-82.3387
280,-727,8.28369,85.8636,0,0,0,0,0,0,0,-1,1504,1751,8.28373,-85.8636
287,-727,7.65161,81.5585,0,0,0,0,0,0,0,-1,1511,1751,7.65165,-81.5585
294,-727,7.47607,71.4724,0,0,0,0,0,0,0,-1,1518,1751,7.47602,-71.4724
301,-727,8.44385,46.1619,0,0,0,0,0,0,0,-1,1525,1751,8.4439,-46.1619
308,-727,8.77002,44.8007,0,0,0,0,0,0,0,-1,1532,1751,8.76996,-44.8006
315,-727,8.10571,41.24,0,0,0,0,0,0,0,-1,1539,1751,8.10567,-41.2399
322,-727,8.24133,40.2081,0,0,0,0,0,0,0,-1,1546,1751,8.24136,-40.2082
329,-727,5.54419,31.0325,0,0,0,0,0,0,0,-1,1553,1751,5.54425,-31.0325
336,-727,5.55823,20.2439,0,0,0,0,0,0,0,-1,1560,1751,5.55829,-20.2438
343,-727,2.41699,8.72095,0,0,0,0,0,0,0,-1,1567,1751,2.41702,-8.72098
350,-727,3.89783,7.50195,0,0,0,0,0,0,0,-1,1574,1751,3.89782,-7.50193
357,-727,4.48462,10.2948,0,0,0,0,0,0,0,-1,1581,1751,4.48464,-10.2948
364,-727,6.96729,17.2365,0,0,0,0,0,0,0,-1,1588,1751,6.96732,-17.2365
371,-727,5.04565,23.2227,0,0,0,0,0,0,0,-1,1595,1751,5.04564,-23.2227
378,-727,4.56726,23.0574,0,0,0,0,0,0,0,-1,1602,1751,4.56727,-23.0574
385,-727,3.52307,22.6431,0,0,0,0,0,0,0,-1,1609,1751,3.52303,-22.643
392,-727,0,0,0,0,0,0,0,0,0,-1,1616,1751,0,0
399,-727,0,0,0,0,0,0,0,0,0,-1,1623,1751,0,0
406,-727,0,0,0,0,0,0,0,0,0,-1,1630,1751,0,0
413,-727,0,0,0,0,0,0,0,0,0,-1,1637,1751,0,0
420,-727,0,0,0,0,0,0,0,0,0,-1,1644,1751,0,0
427,-727,0,0,0,0,0,0,0,0,0,-1,1651,1751,0,0
434,-727,0,0,0,0,0,0,0,0,0,-1,1658,1751,0,0
441,-727,0,0,0,0,0,0,0,0,0,-1,1665,1751,0,0
448,-727,0,0,0,0,0,0,0,0,0,-1,1672,1751,0,0
455,-727,0,0,0,0,0,0,0,0,0,-1,1679,1751,0,0
462,-727,0,0,0,0,0,0,0,0,0,-1,1686,1751,0,0
469,-727,0,0,0,0,0,0,0,0,0,-1,1693,1751,0,0
476,-727,0,0,0,0,0,0,0,0,0,-1,1700,1751,0,0
483,-727,0,0,0,0,0,0,0,0,0,-1,1707,1751,0,0
490,-727,0,0,0,0,0,0,0,0,0,-1,1714,1751,0,0
497,-727,0,0,0,0,0,0,0,0,0,-1,1721,1751,0,0
504,-727,0,0,0,0,0,0,0,0,0,-1,1728,1751,0,0
511,-727,0,0,0,0,0,0,0,0,0,-1,1735,1751,0,0
518,-727,0,0,0,0,0,0,0,0,0,-1,1742,1751,0,0
525,-727,0,0,0,0,0,0,0,0,0,-1,1749,1751,0,0
532,-727,0,0,0,0,0,0,0,0,0,-1,1756,1751,0,0
539,-727,0,0,0,0,0,0,0,0,0,-1,1763,1751,0,0
546,-727,0,0,0,0,0,0,0,0,0,-1,1770,1751,0,0
553,-727,0,0,0,0,0,0,0,0,0,-1,1777,1751,0,0
560,-727,0,0,0,0,0,0,0,0,0,-1,1784,1751,0,0
567,-727,0,0,0,0,0,0,0,0,0,-1,1791,1751,0,0
574,-727,0,0,0,0,0,0,0,0,0,-1,1798,1751,0,0
581,-727,0,0,0,0,0,0,0,0,0,-1,1805,1751,0,0
588,-727,0,0,0,0,0,0,0,0,0,-1,1812,1751,0,0
595,-727,0,0,0,0,0,0,0,0,0,-1,1819,1751,0,0
602,-727,0,0,0,0,0,0,0,0,0,-1,1826,1751,0,0
609,-727,0,0,0,0,0,0,0,0,0,-1,1833,1751,0,0
616,-727,0,0,0,0,0,0,0,0,0,-1,1840,1751,0,0
623,-727,0,0,0,0,0,0,0,0,0,-1,1847,1751,0,0
630,-727,0,0,0,0,0,0,0,0,0,-1,1854,1751,0,0
637,-727,0,0,0,0,0,0,0,0,0,-1,1861,1751,0,0
644,-727,0,0,0,0,0,0,0,0,0,-1,1868,1751,0,0
651,-727,0,0,0,0,0,0,0,0,0,-1,1875,1751,0,0
658,-727,0,0,0,0,0,0,0,0,0,-1,1882,1751,0,0
665,-727,0,0,0,0,0,0,0,0,0,-1,1889,1751,0,0
672,-727,0,0,0,0,0,0,0,0,0,-1,1896,1751,0,0
679,-727,0,0,0,0,0,0,0,0,0,-1,1903,1751,0,0
686,-727,0,0,0,0,0,0,0,0,0,-1,1910,1751,0,0
693,-727,0,0,0,0,0,0,0,0,0,-1,1917,1751,0,0
700,-727,0,0,0,0,0,0,0,0,0,-1,1924,1751,0,0
707,-727,0,0,0,0,0,0,0,0,0,-1,1931,1751,0,0
714,-727,0,0,0,0,0,0,0,0,0,-1,1938,1751,0,0
721,-727,0,0,0,0,0,0,0,0,0,-1,1945,1751,0,0
728,-727,0,0,0,0,0,0,0,0,0,-1,1952,1751,0,0
735,-727,0,0,0,0,0,0,0,0,0,-1,1959,1751,0,0
742,-727,0,0,0,0,0,0,0,0,0,-1,1966,1751,0,0
749,-727,0,0,0,0,0,0,0,0,0,-1,1973,1751,0,0
756,-727,0,0,0,0,0,0,0,0,0,-1,1980,1751,0,0
763,-727,0,0,0,0,0,0,0,0,0,-1,1987,1751,0,0
770,-727,0,0,0,0,0,0,0,0,0,-1,1994,1751,0,0
777,-727,0,0,0,0,0,0,0,0,0,-1,2001,1751,0,0
784,-727,0,0,0,0,0,0,0,0,0,-1,2008,1751,0,0
791,-727,0,0,0,0,0,0,0,0,0,-1,2015,1751,0,0
798,-727,0,0,0,0,0,0,0,0,0,-1,2022,1751,0,0
805,-727,0,0,0,0,0,0,0,0,0,-1,2029,1751,0,0
812,-727,0,0,0,0,0,0,0,0,0,-1,2036,1751,0,0
-700,-734,0,0,0,0,0,0,0,0,0,-1,524,1758,0,0
-693,-734,0,0,0,0,0,0,0,0,0,-1,531,1758,0,0
-686,-734,0,0,0,0,0,0,0,0,0,-1,538,1758,0,0
-679,-734,0,0,0,0,0,0,0,0,0,-1,545,1758,0,0
-672,-734,0,0,0,0,0,0,0,0,0,-1,552,1758,0,0
-665,-734,0,0,0,0,0,0,0,0,0,-1,559,1758,0,0
-658,-734,0,0,0,0,0,0,0,0,0,-1,566,1758,0,0
-651,-734,0,0,0,0,0,0,0,0,0,-1,573,1758,0,0
-644,-734,0,0,0,0,0,0,0,0,0,-1,580,1758,0,0
-637,-734,0,0,0,0,0,0,0,0,0,-1,587,1758,0,0
-630,-734,0,0,0,0,0,0,0,0,0,-1,594,1758,0,0
-623,-734,0,0,0,0,0,0,0,0,0,-1,601,1758,0,0
-616,-734,0,0,0,0,0,0,0,0,0,-1,608,1758,0,0
-609,-734,0,0,0,0,0,0,0,0,0,-1,615,1758,0,0
-602,-734,0,0,0,0,0,0,0,0,0,-1,622,1758,0,0
-595,-734,0,0,0,0,0,0,0,0,0,-1,629,1758,0,0
-588,-734,0,0,0,0,0,0,0,0,0,-1,636,1758,0,0
-581,-734,0,0,0,0,0,0,0,0,0,-1,643,1758,0,0
-574,-734,0,0,0,0,0,0,0,0,0,-1,650,1758,0,0
-567,-734,0,0,0,0,0,0,0,0,0,-1,657,1758,0,0
-560,-734,0,0,0,0,0,0,0,0,0,-1,664,1758,0,0
-553,-734,0,0,0,0,0,0,0,0,0,-1,671,1758,0,0
-546,-734,0,0,0,0,0,0,0,0,0,-1,678,1758,0,0
-539,-734,0,0,0,0,0,0,0,0,0,-1,685,1758,0,0
-532,-734,0,0,0,0,0,0,0,0,0,-1,692,1758,0,0
-525,-734,0,0,0,0,0,0,0,0,0,-1,699,1758,0,0
-518,-734,0,0,0,0,0,0,0,0,0,-1,706,1758,0,0
-511,-734,0,0,0,0,0,0,0,0,0,-1,713,1758,0,0
-504,-734,0,0,0,0,0,0,0,0,0,-1,720,1758,0,0
-497,-734,0,0,0,0,0,0,0,0,0,-1,727,1758,0,0
-490,-734,0,0,0,0,0,0,0,0,0,-1,734,1758,0,0
-483,-734,0,0,0,0,0,0,0,0,0,-1,741,1758,0,0
-476,-734,0,0,0,0,0,0,0,0,0,-1,748,1758,0,0
-469,-734,0,0,0,0,0,0,0,0,0,-1,755,1758,0,0
-462,-734,0,0,0,0,0,0,0,0,0,-1,762,1758,0,0
-455,-734,0,0,0,0,0,0,0,0,0,-1,769,1758,0,0
-448,-734,0,0,0,0,0,0,0,0,0,-1,776,1758,0,0
-441,-734,0,0,0,0,0,0,0,0,0,-1,783,1758,0,0
-434,-734,0,0,0,0,0,0,0,0,0,-1,790,1758,0,0
-427,-734,0,0,0,0,0,0,0,0,0,-1,797,1758,0,0
-420,-734,0,0,0,0,0,0,0,0,0,-1,804,1758,0,0
-413,-734,0,0,0,0,0,0,0,0,0,-1,811,1758,0,0
-406,-734,0,0,0,0,0,0,0,0,0,-1,818,1758,0,0
-399,-734,0,0,0,0,0,0,0,0,0,-1,825,1758,0,0
-392,-734,0,0,0,0,0,0,0,0,0,-1,832,1758,0,0
-385,-734,0,0,0,0,0,0,0,0,0,-1,839,1758,0,0
-378,-734,0,0,0,0,0,0,0,0,0,-1,846,1758,0,0
-371,-734,0,0,0,0,0,0,0,0,0,-1,853,1758,0,0
-364,-734,0,0,0,0,0,0,0,0,0,-1,860,1758,0,0
-357,-734,0,0,0,0,0,0,0,0,0,-1,867,1758,0,0
-350,-734,0,0,0,0,0,0,0,0,0,-1,874,1758,0,0
-343,-734,0,0,0,0,0,0,0,0,0,-1,881,1758,0,0
-336,-734,0,0,0,0,0,0,0,0,0,-1,888,1758,0,0
-329,-734,0,0,0,0,0,0,0,0,0,-1,895,1758,0,0
-322,-734,0,0,0,0,0,0,0,0,0,-1,902,1758,0,0
-315,-734,0,0,0,0,0,0,0,0,0,-1,909,1758,0,0
-308,-734,0,0,0,0,0,0,0,0,0,-1,916,1758,0,0
-301,-734,0,0,0,0,0,0,0,0,0,-1,923,1758,0,0
-294,-734,0,0,0,0,0,0,0,0,0,-1,930,1758,0,0
-287,-734,0,0,0,0,0,0,0,0,0,-1,937,1758,0,0
-280,-734,0,0,0,0,0,0,0,0,0,-1,944,1758,0,0
-273,-734,0,0,0,0,0,0,0,0,0,-1,951,1758,0,0
-266,-734,0,0,0,0,0,0,0,0,0,-1,958,1758,0,0
-259,-734,0,0,0,0,0,0,0,0,0,-1,965,1758,0,0
-252,-734,5.73883,31.5245,0,0,0,0,0,0,0,-1,972,1758,5.73884,-31.5246
-245,-734,6.32513,30.9761,0,0,0,0,0,0,0,-1,979,1758,6.32511,-30.9761
-238,-734,6.82385,30.0449,0,0,0,0,0,0,0,-1,986,1758,6.82387,-30.0449
-231,-734,7.1958,29.1666,0,0,0,0,0,0,0,-1,993,1758,7.19578,-29.1666
-224,-734,11.9083,67.6753,0,0,0,0,0,0,0,-1,1000,1758,11.9083,-67.6753
-217,-734,12.5489,68.1686,0,0,0,0,0,0,0,-1,1007,1758,12.5489,-68.1685
-210,-734,12.8944,68.743,0,0,0,0,0,0,0,-1,1014,1758,12.8944,-68.7431
-203,-734,13.1958,69.3351,0,0,0,0,0,0,0,-1,1021,1758,13.1958,-69.3351
-196,-734,13.0366,49.6821,0,0,0,0,0,0,0,-1,1028,1758,13.0366,-49.6822
-189,-734,12.1746,77.9988,0,0,0,0,0,0,0,-1,1035,1758,12.1746,-77.9987
-182,-734,10.0289,81.2341,0,0,0,0,0,0,0,-1,1042,1758,10.0289,-81.2341
-175,-734,10.8186,80.3762,0,0,0,0,0,0,0,-1,1049,1758,10.8186,-80.3762
-168,-734,10.7595,63.7695,0,0,0,0,0,0,0,-1,1056,1758,10.7595,-63.7695
-161,-734,10.8724,64.5072,0,0,0,0,0,0,0,-1,1063,1758,10.8724,-64.5072
-154,-734,10.3014,52.4893,0,0,0,0,0,0,0,-1,1070,1758,10.3014,-52.4893
-147,-734,10.325,56.6101,0,0,0,0,0,0,0,-1,1077,1758,10.3249,-56.6101
-140,-734,9.97607,77.6641,0,0,0,0,0,0,0,-1,1084,1758,9.97611,-77.6641
-133,-734,9.90125,75.2577,0,0,0,0,0,0,0,-1,1091,1758,9.90126,-75.2577
-126,-734,9.74487,71.7767,0,0,0,0,0,0,0,-1,1098,1758,9.74489,-71.7767
-119,-734,9.82996,66.3767,0,0,0,0,0,0,0,-1,1105,1758,9.82997,-66.3767
-112,-734,9.52307,61.2794,0,0,0,0,0,0,0,-1,1112,1758,9.52313,-61.2794
-105,-734,9.39783,63.9799,0,0,0,0,0,0,0,-1,1119,1758,9.39786,-63.9798
-98,-734,5.50073,317.823,0,0,0,0,0,0,0,-1,1126,1758,5.50072,-317.824
-91,-734,5.70996,319.405,0,0,0,0,0,0,0,-1,1133,1758,5.70991,-319.405
-84,-734,5.96753,320.954,0,0,0,0,0,0,0,-1,1140,1758,5.96751,-320.954
-77,-734,6.02234,322.514,0,0,0,0,0,0,0,-1,1147,1758,6.02237,-322.514
-70,-734,6.13831,324.085,0,0,0,0,0,0,0,-1,1154,1758,6.13829,-324.085
-63,-734,6.20715,325.449,0.0389754,-0.00259016,-0.0122605,0.0423224,-0.00593713,-0.266494,0.0303879,0.0312281,1161,1758,6.2071,-325.449
-56,-734,6.33118,326.674,0.0418478,-0.00427591,-0.012348,0.0449455,-0.00737363,-0.245794,0.0326998,0.0236998,1168,1758,6.33121,-326.674
-49,-734,6.55664,327.927,0.0433968,-0.00406119,-0.0124061,0.0464442,-0.00710863,-0.240871,0.0335841,0.020611,1175,1758,6.55667,-327.927
-42,-734,6.79602,329.2,0.0450818,-0.00311006,-0.0115955,0.0477267,-0.00575493,-0.224257,0.0338993,0.0202755,1182,1758,6.79596,-329.2
-35,-734,6.99561,330.404,0.0468685,-0.0031254,-0.0109,0.0491417,-0.00539852,-0.205597,0.0347009,0.0204497,1189,1758,6.99557,-330.404
-28,-734,7.14441,331.299,0.0483298,-0.00262653,-0.00992,0.0501929,-0.0044896,-0.185647,0.0350544,0.0155231,1196,1758,7.14445,-331.299
-21,-734,7.45776,332.24,0.0496841,-0.00218801,-0.00855714,0.0510593,-0.00356319,-0.159343,0.0352873,0.0235804,1203,1758,7.45777,-332.24
-14,-734,7.70996,333.152,0.0508816,-0.00145546,-0.00736658,0.0518987,-0.00247256,-0.137202,0.0354521,0.0239408,1210,1758,7.70997,-333.152
-7,-734,8.0155,333.905,0.0524167,-0.000764184,-0.00597696,0.0530801,-0.00142765,-0.110552,0.0358721,0.0272439,1217,1758,8.01554,-333.905
0,-734,8.1814,334.728,0.0533284,-0.000579451,-0.00476963,0.0537471,-0.000998203,-0.087571,0.0361687,0.030028,1224,1758,8.18137,-334.728
7,-734,8.39905,335.428,0.0544508,-0.000487485,-0.00355262,0.0546795,-0.000716263,-0.0643087,0.0366941,0.0254601,1231,1758,8.39909,-335.428
14,-734,8.80847,335.878,0.05583,-0.000745421,-0.00237766,0.0559298,-0.000845168,-0.0419279,0.0375714,0.0259064,1238,1758,8.80848,-335.878
21,-734,9.13403,336.383,0.0572104,-0.00130088,-0.0013567,0.0572418,-0.00133232,-0.0231704,0.038613,0.0250712,1245,1758,9.13399,-336.383
28,-734,9.58789,336.904,0.0583405,-0.0020157,-0.00183499,0.0583963,-0.00207144,-0.0303652,0.0396394,0.0232633,1252,1758,9.58791,-336.904
35,-734,10.0293,337.404,0.0594809,-0.00178036,-0.00278804,0.0596075,-0.00190699,-0.0453856,0.040389,0.0245772,1259,1758,10.0293,-337.404
42,-734,10.33,337.739,0.060532,-0.00198318,-0.00348597,0.0607258,-0.00217697,-0.0555325,0.0412287,0.0170906,1266,1758,10.3299,-337.739
49,-734,10.5782,338.014,0.060146,-0.00287702,-0.00453219,0.0604703,-0.00320127,-0.0714234,0.0414219,0.0224489,1273,1758,10.5783,-338.014
56,-734,10.866,338.219,0.0592222,-0.00358362,-0.00526099,0.0596598,-0.00402126,-0.0829952,0.0411791,0.0217703,1280,1758,10.866,-338.219
63,-734,11.1869,338.24,0.0578735,-0.00365234,-0.00618835,0.0584898,-0.0042686,-0.0992566,0.0404911,0.024069,1287,1758,11.1869,-338.24
70,-734,11.7273,338.263,0.0557916,-0.00350941,-0.00714847,0.0566411,-0.00435896,-0.118288,0.0392944,0.0214131,1294,1758,11.7273,-338.263
77,-734,12.1106,338.131,0.0532956,-0.00331132,-0.00787473,0.0543706,-0.00438637,-0.135681,0.0377942,0.0348461,1301,1758,12.1106,-338.131
84,-734,12.5049,338.029,0.0506771,-0.00274828,-0.00825917,0.0519247,-0.00399595,-0.149931,0.0360224,0.0355995,1308,1758,12.5049,-338.029
91,-734,12.8204,337.928,0,0,0,0,0,0,0,-1,1315,1758,12.8205,-337.928
98,-734,13.3131,337.679,0.0461753,-0.00150529,-0.0075816,0.0473519,-0.00268179,-0.153951,0.0324987,0.0358512,1322,1758,13.3131,-337.679
105,-734,13.5314,337.303,0.044806,-0.00102313,-0.00684169,0.0458056,-0.0020227,-0.145074,0.0312331,0.0223375,1329,1758,13.5314,-337.303
112,-734,13.7897,336.922,0.0443278,-0.000743408,-0.00606771,0.0451304,-0.00154598,-0.131506,0.0306153,0.0200146,1336,1758,13.7896,-336.922
119,-734,14.1538,336.447,0.0443219,-0.000418984,-0.00497633,0.0448687,-0.000965796,-0.109444,0.0302395,0.0232217,1343,1758,14.1539,-336.447
126,-734,14.5645,335.849,0.0446663,-0.000364669,-0.00357108,0.0449478,-0.000646107,-0.0786477,0.0301829,0.0246308,1350,1758,14.5645,-335.849
133,-734,14.8844,335.172,0.0448146,-0.00113683,-0.00169426,0.044877,-0.00119922,-0.036804,0.0303257,0.0241139,1357,1758,14.8844,-335.172
140,-734,15.1849,334.365,0.0447183,-0.00287049,0.000416843,0.0447219,-0.00287414,0.00875837,0.0308174,0.0370261,1364,1758,15.1849,-334.365
147,-734,15.4955,333.699,0.0449597,-0.00356222,0.00208799,0.0450494,-0.0036519,0.0429261,0.0313213,0.0272988,1371,1758,15.4955,-333.699
154,-734,15.8092,332.974,0.0448031,-0.0036177,0.00372952,0.0450887,-0.00390328,0.0764223,0.0314411,0.0175083,1378,1758,15.8092,-332.974
161,-734,16.0167,332.057,0.0434338,-0.0037873,0.00448641,0.0438563,-0.00420977,0.0938892,0.030737,0.0150068,1385,1758,16.0167,-332.057
168,-734,16.2241,331.033,0.0399032,-0.00354946,0.00458045,0.0403808,-0.00402704,0.103891,0.0283583,0.0268313,1392,1758,16.2241,-331.033
175,-734,16.4402,330.058,0.0372084,-0.00165091,0.00503981,0.0378514,-0.00229391,0.126897,0.0260326,0.0353199,1399,1758,16.4402,-330.058
182,-734,16.665,328.969,0.0351771,-0.00139765,0.00619147,0.0361967,-0.00241734,0.163226,0.024976,0.0269796,1406,1758,16.665,-328.969
189,-734,16.7219,327.786,0.0330276,-0.000202766,0.00570129,0.0339786,-0.00115371,0.165274,0.0230466,0.0208533,1413,1758,16.7219,-327.786
196,-734,16.8929,326.454,0,0,0,0,0,0,0,-1,1420,1758,16.8929,-326.454
203,-734,17.0447,325.01,0,0,0,0,0,0,0,-1,1427,1758,17.0446,-325.01
210,-734,17.152,323.503,0,0,0,0,0,0,0,-1,1434,1758,17.152,-323.503
217,-734,17.2604,322.173,0,0,0,0,0,0,0,-1,1441,1758,17.2604,-322.173
224,-734,17.2439,320.77,0,0,0,0,0,0,0,-1,1448,1758,17.2439,-320.77
231,-734,17.1228,319.07,0,0,0,0,0,0,0,-1,1455,1758,17.1228,-319.07
238,-734,17.0836,316.816,0,0,0,0,0,0,0,-1,1462,1758,17.0836,-316.816
245,-734,8.29065,60.4988,0,0,0,0,0,0,0,-1,1469,1758,8.29062,-60.4987
252,-734,8.17517,58.5679,0,0,0,0,0,0,0,-1,1476,1758,8.1752,-58.5678
259,-734,8.07666,59.5597,0,0,0,0,0,0,0,-1,1483,1758,8.07667,-59.5597
266,-734,7.97253,63.3893,0,0,0,0,0,0,0,-1,1490,1758,7.97259,-63.3893
273,-734,8.22437,62.0486,0,0,0,0,0,0,0,-1,1497,1758,8.22438,-62.0485
280,-734,7.90149,52.7294,0,0,0,0,0,0,0,-1,1504,1758,7.90153,-52.7294
287,-734,7.56177,50.5933,0,0,0,0,0,0,0,-1,1511,1758,7.56172,-50.5933
294,-734,7.42676,47.7545,0,0,0,0,0,0,0,-1,1518,1758,7.4268,-47.7545
301,-734,7.21814,42.6078,0,0,0,0,0,0,0,-1,1525,1758,7.21809,-42.6078
308,-734,8.0509,41.5156,0,0,0,0,0,0,0,-1,1532,1758,8.05087,-41.5157
315,-734,7.93787,40.8274,0,0,0,0,0,0,0,-1,1539,1758,7.93784,-40.8273
322,-734,7.82483,40.139,0,0,0,0,0,0,0,-1,1546,1758,7.82481,-40.139
329,-734,5.73267,19.656,0,0,0,0,0,0,0,-1,1553,1758,5.73262,-19.656
336,-734,6.71375,23.7469,0,0,0,0,0,0,0,-1,1560,1758,6.71372,-23.7469
343,-734,5.54968,5.14221,0,0,0,0,0,0,0,-1,1567,1758,5.54973,-5.14225
350,-734,5.07397,6.73242,0,0,0,0,0,0,0,-1,1574,1758,5.07402,-6.73243
357,-734,5.05542,7.19189,0,0,0,0,0,0,0,-1,1581,1758,5.05541,-7.19184
364,-734,4.43896,10.4904,0,0,0,0,0,0,0,-1,1588,1758,4.43893,-10.4904
371,-734,7.36975,17.4751,0,0,0,0,0,0,0,-1,1595,1758,7.36972,-17.4752
378,-734,0,0,0,0,0,0,0,0,0,-1,1602,1758,0,0
385,-734,0,0,0,0,0,0,0,0,0,-1,1609,1758,0,0
392,-734,0,0,0,0,0,0,0,0,0,-1,1616,1758,0,0
399,-734,0,0,0,0,0,0,0,0,0,-1,1623,1758,0,0
406,-734,0,0,0,0,0,0,0,0,0,-1,1630,1758,0,0
413,-734,0,0,0,0,0,0,0,0,0,-1,1637,1758,0,0
420,-734,0,0,0,0,0,0,0,0,0,-1,1644,1758,0,0
427,-734,0,0,0,0,0,0,0,0,0,-1,1651,1758,0,0
434,-734,0,0,0,0,0,0,0,0,0,-1,1658,1758,0,0
441,-734,0,0,0,0,0,0,0,0,0,-1,1665,1758,0,0
448,-734,0,0,0,0,0,0,0,0,0,-1,1672,1758,0,0
455,-734,0,0,0,0,0,0,0,0,0,-1,1679,1758,0,0
462,-734,0,0,0,0,0,0,0,0,0,-1,1686,1758,0,0
469,-734,0,0,0,0,0,0,0,0,0,-1,1693,1758,0,0
476,-734,0,0,0,0,0,0,0,0,0,-1,1700,1758,0,0
483,-734,0,0,0,0,0,0,0,0,0,-1,1707,1758,0,0
490,-734,0,0,0,0,0,0,0,0,0,-1,1714,1758,0,0
497,-734,0,0,0,0,0,0,0,0,0,-1,1721,1758,0,0
504,-734,0,0,0,0,0,0,0,0,0,-1,1728,1758,0,0
511,-734,0,0,0,0,0,0,0,0,0,-1,1735,1758,0,0
518,-734,0,0,0,0,0,0,0,0,0,-1,1742,1758,0,0
525,-734,0,0,0,0,0,0,0,0,0,-1,1749,1758,0,0
532,-734,0,0,0,0,0,0,0,0,0,-1,1756,1758,0,0
539,-734,0,0,0,0,0,0,0,0,0,-1,1763,1758,0,0
546,-734,0,0,0,0,0,0,0,0,0,-1,1770,1758,0,0
553,-734,0,0,0,0,0,0,0,0,0,-1,1777,1758,0,0
560,-734,0,0,0,0,0,0,0,0,0,-1,1784,1758,0,0
567,-734,0,0,0,0,0,0,0,0,0,-1,1791,1758,0,0
574,-734,0,0,0,0,0,0,0,0,0,-1,1798,1758,0,0
581,-734,0,0,0,0,0,0,0,0,0,-1,1805,1758,0,0
588,-734,0,0,0,0,0,0,0,0,0,-1,1812,1758,0,0
595,-734,0,0,0,0,0,0,0,0,0,-1,1819,1758,0,0
602,-734,0,0,0,0,0,0,0,0,0,-1,1826,1758,0,0
609,-734,0,0,0,0,0,0,0,0,0,-1,1833,1758,0,0
616,-734,0,0,0,0,0,0,0,0,0,-1,1840,1758,0,0
623,-734,0,0,0,0,0,0,0,0,0,-1,1847,1758,0,0
630,-734,0,0,0,0,0,0,0,0,0,-1,1854,1758,0,0
637,-734,0,0,0,0,0,0,0,0,0,-1,1861,1758,0,0
644,-734,0,0,0,0,0,0,0,0,0,-1,1868,1758,0,0
651,-734,0,0,0,0,0,0,0,0,0,-1,1875,1758,0,0
658,-734,0,0,0,0,0,0,0,0,0,-1,1882,1758,0,0
665,-734,0,0,0,0,0,0,0,0,0,-1,1889,1758,0,0
672,-734,0,0,0,0,0,0,0,0,0,-1,1896,1758,0,0
679,-734,0,0,0,0,0,0,0,0,0,-1,1903,1758,0,0
686,-734,0,0,0,0,0,0,0,0,0,-1,1910,1758,0,0
693,-734,0,0,0,0,0,0,0,0,0,-1,1917,1758,0,0
700,-734,0,0,0,0,0,0,0,0,0,-1,1924,1758,0,0
707,-734,0,0,0,0,0,0,0,0,0,-1,1931,1758,0,0
714,-734,0,0,0,0,0,0,0,0,0,-1,1938,1758,0,0
721,-734,0,0,0,0,0,0,0,0,0,-1,1945,1758,0,0
728,-734,0,0,0,0,0,0,0,0,0,-1,1952,1758,0,0
735,-734,0,0,0,0,0,0,0,0,0,-1,1959,1758,0,0
742,-734,0,0,0,0,0,0,0,0,0,-1,1966,1758,0,0
749,-734,0,0,0,0,0,0,0,0,0,-1,1973,1758,0,0
756,-734,0,0,0,0,0,0,0,0,0,-1,1980,1758,0,0
763,-734,0,0,0,0,0,0,0,0,0,-1,1987,1758,0,0
770,-734,0,0,0,0,0,0,0,0,0,-1,1994,1758,0,0
777,-734,0,0,0,0,0,0,0,0,0,-1,2001,1758,0,0
784,-734,0,0,0,0,0,0,0,0,0,-1,2008,1758,0,0
791,-734,0,0,0,0,0,0,0,0,0,-1,2015,1758,0,0
798,-734,0,0,0,0,0,0,0,0,0,-1,2022,1758,0,0
805,-734,0,0,0,0,0,0,0,0,0,-1,2029,1758,0,0
812,-734,0,0,0,0,0,0,0,0,0,-1,2036,1758,0,0
-700,-741,0,0,0,0,0,0,0,0,0,-1,524,1765,0,0
-693,-741,0,0,0,0,0,0,0,0,0,-1,531,1765,0,0
-686,-741,0,0,0,0,0,0,0,0,0,-1,538,1765,0,0
-679,-741,0,0,0,0,0,0,0,0,0,-1,545,1765,0,0
-672,-741,0,0,0,0,0,0,0,0,0,-1,552,1765,0,0
-665,-741,0,0,0,0,0,0,0,0,0,-1,559,1765,0,0
-658,-741,0,0,0,0,0,0,0,0,0,-1,566,1765,0,0
-651,-741,0,0,0,0,0,0,0,0,0,-1,573,1765,0,0
-644,-741,0,0,0,0,0,0,0,0,0,-1,580,1765,0,0
-637,-741,0,0,0,0,0,0,0,0,0,-1,587,1765,0,0
-630,-741,0,0,0,0,0,0,0,0,0,-1,594,1765,0,0
-623,-741,0,0,0,0,0,0,0,0,0,-1,601,1765,0,0
-616,-741,0,0,0,0,0,0,0,0,0,-1,608,1765,0,0
-609,-741,0,0,0,0,0,0,0,0,0,-1,615,1765,0,0
-602,-741,0,0,0,0,0,0,0,0,0,-1,622,1765,0,0
-595,-741,0,0,0,0,0,0,0,0,0,-1,629,1765,0,0
-588,-741,0,0,0,0,0,0,0,0,0,-1,636,1765,0,0
-581,-741,0,0,0,0,0,0,0,0,0,-1,643,1765,0,0
-574,-741,0,0,0,0,0,0,0,0,0,-1,650,1765,0,0
-567,-741,0,0,0,0,0,0,0,0,0,-1,657,1765,0,0
-560,-741,0,0,0,0,0,0,0,0,0,-1,664,1765,0,0
-553,-741,0,0,0,0,0,0,0,0,0,-1,671,1765,0,0
-546,-741,0,0,0,0,0,0,0,0,0,-1,678,1765,0,0
-539,-741,0,0,0,0,0,0,0,0,0,-1,685,1765,0,0
-532,-741,0,0,0,0,0,0,0,0,0,-1,692,1765,0,0
-525,-741,0,0,0,0,0,0,0,0,0,-1,699,1765,0,0
-518,-741,0,0,0,0,0,0,0,0,0,-1,706,1765,0,0
-511,-741,0,0,0,0,0,0,0,0,0,-1,713,1765,0,0
-504,-741,0,0,0,0,0,0,0,0,0,-1,720,1765,0,0
-497,-741,0,0,0,0,0,0,0,0,0,-1,727,1765,0,0
-490,-741,0,0,0,0,0,0,0,0,0,-1,734,1765,0,0
-483,-741,0,0,0,0,0,0,0,0,0,-1,741,1765,0,0
-476,-741,0,0,0,0,0,0,0,0,0,-1,748,1765,0,0
-469,-741,0,0,0,0,0,0,0,0,0,-1,755,1765,0,0
-462,-741,0,0,0,0,0,0,0,0,0,-1,762,1765,0,0
-455,-741,0,0,0,0,0,0,0,0,0,-1,769,1765,0,0
-448,-741,0,0,0,0,0,0,0,0,0,-1,776,1765,0,0
-441,-741,0,0,0,0,0,0,0,0,0,-1,783,1765,0,0
-434,-741,0,0,0,0,0,0,0,0,0,-1,790,1765,0,0
-427,-741,0,0,0,0,0,0,0,0,0,-1,797,1765,0,0
-420,-741,0,0,0,0,0,0,0,0,0,-1,804,1765,0,0
-413,-741,0,0,0,0,0,0,0,0,0,-1,811,1765,0,0
-406,-741,0,0,0,0,0,0,0,0,0,-1,818,1765,0,0
-399,-741,0,0,0,0,0,0,0,0,0,-1,825,1765,0,0
-392,-741,0,0,0,0,0,0,0,0,0,-1,832,1765,0,0
-385,-741,0,0,0,0,0,0,0,0,0,-1,839,1765,0,0
-378,-741,0,0,0,0,0,0,0,0,0,-1,846,1765,0,0
-371,-741,0,0,0,0,0,0,0,0,0,-1,853,1765,0,0
-364,-741,0,0,0,0,0,0,0,0,0,-1,860,1765,0,0
-357,-741,0,0,0,0,0,0,0,0,0,-1,867,1765,0,0
-350,-741,0,0,0,0,0,0,0,0,0,-1,874,1765,0,0
-343,-741,0,0,0,0,0,0,0,0,0,-1,881,1765,0,0
-336,-741,0,0,0,0,0,0,0,0,0,-1,888,1765,0,0
-329,-741,0,0,0,0,0,0,0,0,0,-1,895,1765,0,0
-322,-741,0,0,0,0,0,0,0,0,0,-1,902,1765,0,0
-315,-741,0,0,0,0,0,0,0,0,0,-1,909,1765,0,0
-308,-741,0,0,0,0,0,0,0,0,0,-1,916,1765,0,0
-301,-741,0,0,0,0,0,0,0,0,0,-1,923,1765,0,0
-294,-741,0,0,0,0,0,0,0,0,0,-1,930,1765,0,0
-287,-741,0,0,0,0,0,0,0,0,0,-1,937,1765,0,0
-280,-741,0,0,0,0,0,0,0,0,0,-1,944,1765,0,0
-273,-741,0,0,0,0,0,0,0,0,0,-1,951,1765,0,0
-266,-741,0,0,0,0,0,0,0,0,0,-1,958,1765,0,0
-259,-741,0,0,0,0,0,0,0,0,0,-1,965,1765,0,0
-252,-741,0,0,0,0,0,0,0,0,0,-1,972,1765,0,0
-245,-741,0,0,0,0,0,0,0,0,0,-1,979,1765,0,0
-238,-741,7.13855,29.8348,0,0,0,0,0,0,0,-1,986,1765,7.13856,-29.8348
-231,-741,7.74182,29.3066,0,0,0,0,0,0,0,-1,993,1765,7.74183,-29.3066
-224,-741,7.80078,29.0964,0,0,0,0,0,0,0,-1,1000,1765,7.80079,-29.0964
-217,-741,8.15863,29.113,0,0,0,0,0,0,0,-1,1007,1765,8.15863,-29.1131
-210,-741,8.37024,29.3896,0,0,0,0,0,0,0,-1,1014,1765,8.37022,-29.3896
-203,-741,7.703,44.0701,0,0,0,0,0,0,0,-1,1021,1765,7.70306,-44.0701
-196,-741,13.1698,50.7012,0,0,0,0,0,0,0,-1,1028,1765,13.1698,-50.7012
-189,-741,13.6135,77.9425,0,0,0,0,0,0,0,-1,1035,1765,13.6135,-77.9425
-182,-741,12.7972,79.3372,0,0,0,0,0,0,0,-1,1042,1765,12.7972,-79.3372
-175,-741,11.981,80.7318,0,0,0,0,0,0,0,-1,1049,1765,11.981,-80.7318
-168,-741,11.5565,64.798,0,0,0,0,0,0,0,-1,1056,1765,11.5566,-64.798
-161,-741,11.5831,65.5651,0,0,0,0,0,0,0,-1,1063,1765,11.5832,-65.5651
-154,-741,7.93201,50.9395,0,0,0,0,0,0,0,-1,1070,1765,7.93195,-50.9395
-147,-741,10.9515,48.8568,0,0,0,0,0,0,0,-1,1077,1765,10.9515,-48.8569
-140,-741,10.5068,51.2876,0,0,0,0,0,0,0,-1,1084,1765,10.5068,-51.2876
-133,-741,10.6208,54.5072,0,0,0,0,0,0,0,-1,1091,1765,10.6208,-54.5072
-126,-741,9.89746,52.7167,0,0,0,0,0,0,0,-1,1098,1765,9.8975,-52.7167
-119,-741,9.33801,50.1482,0,0,0,0,0,0,0,-1,1105,1765,9.33802,-50.1482
-112,-741,9.6283,47.2815,0,0,0,0,0,0,0,-1,1112,1765,9.62827,-47.2815
-105,-741,9.61792,45.9158,0,0,0,0,0,0,0,-1,1119,1765,9.61797,-45.9158
-98,-741,9.19971,40.25,0,0,0,0,0,0,0,-1,1126,1765,9.19971,-40.25
-91,-741,8.40002,36.3687,0,0,0,0,0,0,0,-1,1133,1765,8.40002,-36.3687
-84,-741,7.8877,35.0892,0,0,0,0,0,0,0,-1,1140,1765,7.88776,-35.0892
-77,-741,7.73303,34.1174,0,0,0,0,0,0,0,-1,1147,1765,7.73304,-34.1174
-70,-741,7.5437,32.0275,0,0,0,0,0,0,0,-1,1154,1765,7.5437,-32.0275
-63,-741,7.57312,325.593,0,0,0,0,0,0,0,-1,1161,1765,7.57314,-325.593
-56,-741,7.65491,326.749,0,0,0,0,0,0,0,-1,1168,1765,7.65493,-326.749
-49,-741,7.72021,328.216,0,0,0,0,0,0,0,-1,1175,1765,7.72027,-328.216
-42,-741,7.93042,329.625,0,0,0,0,0,0,0,-1,1182,1765,7.93044,-329.625
-35,-741,8.0033,330.592,0.0464761,0.00560535,-0.00880982,0.0482942,0.00378724,-0.203516,0.0310109,0.025363,1189,1765,8.00335,-330.592
-28,-741,8.22046,331.389,0.0488249,0.00704352,-0.00744046,0.0501104,0.00575806,-0.171077,0.0316626,0.0255627,1196,1765,8.22049,-331.389
-21,-741,8.65918,332.349,0.0507173,0.00832193,-0.00565439,0.0514584,0.00758074,-0.130338,0.0320787,0.0310611,1203,1765,8.65912,-332.349
-14,-741,8.64966,333.258,0.0519052,0.00951489,-0.00432345,0.0523416,0.00907843,-0.100611,0.0322964,0.0289642,1210,1765,8.64972,-333.258
-7,-741,8.85681,333.974,0.0534902,0.0107969,-0.00271451,0.0536621,0.010625,-0.0632421,0.0328116,0.024684,1217,1765,8.85683,-333.974
0,-741,8.94763,334.729,0.0542355,0.0114643,-0.00137207,0.0542794,0.0114203,-0.0320355,0.033044,0.0270988,1224,1765,8.94768,-334.729
7,-741,9.04541,335.389,0.0554567,0.0121771,2.35078e-05,0.0554567,0.0121771,0.000543163,0.0336546,0.0341595,1231,1765,9.04536,-335.389
14,-741,9.35132,336.019,0.0569014,0.0125131,0.00137816,0.0569442,0.0124704,0.0310079,0.0345642,0.0362709,1238,1765,9.35128,-336.019
21,-741,9.67505,336.468,0.0583635,0.0124601,0.00259696,0.05851,0.0123136,0.0563349,0.0356188,0.0330635,1245,1765,9.67501,-336.468
28,-741,9.92297,337.009,0.059382,0.0123369,0.00152356,0.0594313,0.0122876,0.0323399,0.0362264,0.0278942,1252,1765,9.92299,-337.009
35,-741,10.2921,337.427,0.0604393,0.0134873,-0.000297489,0.0604412,0.0134854,-0.00633568,0.0366359,0.0229193,1259,1765,10.2921,-337.427
42,-741,10.6073,337.819,0.0616706,0.0139324,-0.00174873,0.0617346,0.0138684,-0.0365663,0.0374007,0.0276295,1266,1765,10.6073,-337.819
49,-741,10.772,338.018,0.0611261,0.0131777,-0.00384896,0.0614331,0.0128707,-0.0795938,0.0374106,0.0178521,1273,1765,10.772,-338.018
56,-741,11.0626,338.144,0.0601184,0.0122093,-0.00548481,0.0607383,0.0115894,-0.112544,0.0372352,0.0161034,1280,1765,11.0627,-338.144
63,-741,11.3425,338.313,0.0587846,0.0115382,-0.00732441,0.059894,0.0104288,-0.150326,0.036947,0.0207806,1287,1765,11.3425,-338.313
70,-741,11.6453,338.364,0.0561031,0.010382,-0.00939379,0.0579579,0.00852724,-0.194941,0.0361332,0.0253043,1294,1765,11.6453,-338.363
77,-741,11.9536,338.184,0.0528916,0.00910919,-0.0114672,0.0557132,0.00628763,-0.241263,0.0352337,0.0198525,1301,1765,11.9537,-338.185
84,-741,12.3135,338.097,0.049563,0.00817725,-0.0128727,0.0532402,0.00450003,-0.27825,0.0340926,0.0240725,1308,1765,12.3135,-338.097
91,-741,12.6775,337.96,0.0464365,0.00717323,-0.0135204,0.0506419,0.00296784,-0.301553,0.0328167,0.0245104,1315,1765,12.6775,-337.96
98,-741,12.9186,337.698,0.0434422,0.00609904,-0.0136712,0.0479122,0.00162909,-0.316004,0.0314125,0.0180458,1322,1765,12.9186,-337.698
105,-741,13.1763,337.338,0.0413079,0.00495816,-0.0134441,0.0457398,0.000526203,-0.31844,0.0303193,0.0161656,1329,1765,13.1763,-337.338
112,-741,13.3906,336.987,0.0398089,0.00360338,-0.0131974,0.0441088,-0.000696559,-0.314971,0.0296408,0.0160576,1336,1765,13.3906,-336.987
119,-741,13.5931,336.433,0.0388041,0.00235677,-0.012637,0.0427569,-0.00159604,-0.303155,0.0290513,0.0197987,1343,1765,13.5931,-336.433
126,-741,13.8708,335.804,0.038159,0.000861635,-0.0118868,0.0416253,-0.00260461,-0.283736,0.0286579,0.0283063,1350,1765,13.8709,-335.804
133,-741,14.2104,335.192,0.0374293,-0.00142108,-0.0102085,0.0399484,-0.00394015,-0.24193,0.0280381,0.0255912,1357,1765,14.2105,-335.192
140,-741,14.4166,334.501,0.0365058,-0.00467482,-0.0082535,0.0380983,-0.00626741,-0.190617,0.0277252,0.0257516,1364,1765,14.4166,-334.501
147,-741,14.6259,333.794,0.035629,-0.00597601,-0.0069954,0.0367737,-0.00712072,-0.162199,0.0272019,0.0272768,1371,1765,14.6259,-333.794
154,-741,14.8328,333.057,0.034579,-0.00565931,-0.00536215,0.0352813,-0.00636161,-0.130233,0.0259031,0.0185873,1378,1765,14.8327,-333.057
161,-741,15.006,332.077,0.0325626,-0.00511959,-0.00488152,0.0331847,-0.00574169,-0.126757,0.0242645,0.0192828,1385,1765,15.006,-332.077
168,-741,15.1781,330.974,0.0282729,-0.00377981,-0.00510756,0.0290671,-0.00457401,-0.154261,0.0210689,0.0377539,1392,1765,15.1782,-330.974
175,-741,15.2888,329.861,0,0,0,0,0,0,0,-1,1399,1765,15.2888,-329.861
182,-741,15.5277,328.998,0,0,0,0,0,0,0,-1,1406,1765,15.5277,-328.998
189,-741,15.3979,327.915,0,0,0,0,0,0,0,-1,1413,1765,15.398,-327.915
196,-741,15.4779,326.678,0,0,0,0,0,0,0,-1,1420,1765,15.4779,-326.678
203,-741,15.5806,325.396,0,0,0,0,0,0,0,-1,1427,1765,15.5805,-325.396
210,-741,15.6315,323.806,0,0,0,0,0,0,0,-1,1434,1765,15.6315,-323.805
217,-741,8.4032,40.1213,0,0,0,0,0,0,0,-1,1441,1765,8.40325,-40.1214
224,-741,8.0719,38.4249,0,0,0,0,0,0,0,-1,1448,1765,8.07187,-38.4249
231,-741,7.95923,39.0671,0,0,0,0,0,0,0,-1,1455,1765,7.9592,-39.0671
238,-741,7.96619,42.4865,0,0,0,0,0,0,0,-1,1462,1765,7.96621,-42.4864
245,-741,8.53577,45.7744,0,0,0,0,0,0,0,-1,1469,1765,8.53581,-45.7744
252,-741,8.59167,47.473,0,0,0,0,0,0,0,-1,1476,1765,8.59162,-47.473
259,-741,8.47412,48.5269,0,0,0,0,0,0,0,-1,1483,1765,8.47412,-48.5269
266,-741,8.50134,48.3838,0,0,0,0,0,0,0,-1,1490,1765,8.50132,-48.3838
273,-741,8.81421,49.1227,0,0,0,0,0,0,0,-1,1497,1765,8.81426,-49.1227
280,-741,7.33093,51.4729,0,0,0,0,0,0,0,-1,1504,1765,7.33092,-51.4729
287,-741,7.52783,49.7068,0,0,0,0,0,0,0,-1,1511,1765,7.52783,-49.7068
294,-741,5.91187,43.7742,0,0,0,0,0,0,0,-1,1518,1765,5.91188,-43.7742
301,-741,6.20667,38.5165,0,0,0,0,0,0,0,-1,1525,1765,6.20667,-38.5165
308,-741,7.99036,42.5969,0,0,0,0,0,0,0,-1,1532,1765,7.99037,-42.5969
315,-741,7.83838,41.6693,0,0,0,0,0,0,0,-1,1539,1765,7.83835,-41.6694
322,-741,7.68628,40.7418,0,0,0,0,0,0,0,-1,1546,1765,7.68633,-40.7418
329,-741,4.74414,17.928,0,0,0,0,0,0,0,-1,1553,1765,4.74414,-17.928
336,-741,5.74304,22.0945,0,0,0,0,0,0,0,-1,1560,1765,5.74306,-22.0945
343,-741,7.09888,26.501,0,0,0,0,0,0,0,-1,1567,1765,7.09885,-26.501
350,-741,4.90369,5.44666,0,0,0,0,0,0,0,-1,1574,1765,4.90368,-5.44664
357,-741,4.02063,5.16626,0,0,0,0,0,0,0,-1,1581,1765,4.02058,-5.1662
364,-741,0,0,0,0,0,0,0,0,0,-1,1588,1765,0,0
371,-741,0,0,0,0,0,0,0,0,0,-1,1595,1765,0,0
378,-741,0,0,0,0,0,0,0,0,0,-1,1602,1765,0,0
385,-741,0,0,0,0,0,0,0,0,0,-1,1609,1765,0,0
392,-741,0,0,0,0,0,0,0,0,0,-1,1616,1765,0,0
399,-741,0,0,0,0,0,0,0,0,0,-1,1623,1765,0,0
406,-741,0,0,0,0,0,0,0,0,0,-1,1630,1765,0,0
413,-741,0,0,0,0,0,0,0,0,0,-1,1637,1765,0,0
420,-741,0,0,0,0,0,0,0,0,0,-1,1644,1765,0,0
427,-741,0,0,0,0,0,0,0,0,0,-1,1651,1765,0,0
434,-741,0,0,0,0,0,0,0,0,0,-1,1658,1765,0,0
441,-741,0,0,0,0,0,0,0,0,0,-1,1665,1765,0,0
448,-741,0,0,0,0,0,0,0,0,0,-1,1672,1765,0,0
455,-741,0,0,0,0,0,0,0,0,0,-1,1679,1765,0,0
462,-741,0,0,0,0,0,0,0,0,0,-1,1686,1765,0,0
469,-741,0,0,0,0,0,0,0,0,0,-1,1693,1765,0,0
476,-741,0,0,0,0,0,0,0,0,0,-1,1700,1765,0,0
483,-741,0,0,0,0,0,0,0,0,0,-1,1707,1765,0,0
490,-741,0,0,0,0,0,0,0,0,0,-1,1714,1765,0,0
497,-741,0,0,0,0,0,0,0,0,0,-1,1721,1765,0,0
504,-741,0,0,0,0,0,0,0,0,0,-1,1728,1765,0,0
511,-741,0,0,0,0,0,0,0,0,0,-1,1735,1765,0,0
518,-741,0,0,0,0,0,0,0,0,0,-1,1742,1765,0,0
525,-741,0,0,0,0,0,0,0,0,0,-1,1749,1765,0,0
532,-741,0,0,0,0,0,0,0,0,0,-1,1756,1765,0,0
539,-741,0,0,0,0,0,0,0,0,0,-1,1763,1765,0,0
546,-741,0,0,0,0,0,0,0,0,0,-1,1770,1765,0,0
553,-741,0,0,0,0,0,0,0,0,0,-1,1777,1765,0,0
560,-741,0,0,0,0,0,0,0,0,0,-1,1784,1765,0,0
567,-741,0,0,0,0,0,0,0,0,0,-1,1791,1765,0,0
574,-741,0,0,0,0,0,0,0,0,0,-1,1798,1765,0,0
581,-741,0,0,0,0,0,0,0,0,0,-1,1805,1765,0,0
588,-741,0,0,0,0,0,0,0,0,0,-1,1812,1765,0,0
595,-741,0,0,0,0,0,0,0,0,0,-1,1819,1765,0,0
602,-741,0,0,0,0,0,0,0,0,0,-1,1826,1765,0,0
609,-741,0,0,0,0,0,0,0,0,0,-1,1833,1765,0,0
616,-741,0,0,0,0,0,0,0,0,0,-1,1840,1765,0,0
623,-741,0,0,0,0,0,0,0,0,0,-1,1847,1765,0,0
630,-741,0,0,0,0,0,0,0,0,0,-1,1854,1765,0,0
637,-741,0,0,0,0,0,0,0,0,0,-1,1861,1765,0,0
644,-741,0,0,0,0,0,0,0,0,0,-1,1868,1765,0,0
651,-741,0,0,0,0,0,0,0,0,0,-1,1875,1765,0,0
658,-741,0,0,0,0,0,0,0,0,0,-1,1882,1765,0,0
665,-741,0,0,0,0,0,0,0,0,0,-1,1889,1765,0,0
672,-741,0,0,0,0,0,0,0,0,0,-1,1896,1765,0,0
679,-741,0,0,0,0,0,0,0,0,0,-1,1903,1765,0,0
686,-741,0,0,0,0,0,0,0,0,0,-1,1910,1765,0,0
693,-741,0,0,0,0,0,0,0,0,0,-1,1917,1765,0,0
700,-741,0,0,0,0,0,0,0,0,0,-1,1924,1765,0,0
707,-741,0,0,0,0,0,0,0,0,0,-1,1931,1765,0,0
714,-741,0,0,0,0,0,0,0,0,0,-1,1938,1765,0,0
721,-741,0,0,0,0,0,0,0,0,0,-1,1945,1765,0,0
728,-741,0,0,0,0,0,0,0,0,0,-1,1952,1765,0,0
735,-741,0,0,0,0,0,0,0,0,0,-1,1959,1765,0,0
742,-741,0,0,0,0,0,0,0,0,0,-1,1966,1765,0,0
749,-741,0,0,0,0,0,0,0,0,0,-1,1973,1765,0,0
756,-741,0,0,0,0,0,0,0,0,0,-1,1980,1765,0,0
763,-741,0,0,0,0,0,0,0,0,0,-1,1987,1765,0,0
770,-741,0,0,0,0,0,0,0,0,0,-1,1994,1765,0,0
777,-741,0,0,0,0,0,0,0,0,0,-1,2001,1765,0,0
784,-741,0,0,0,0,0,0,0,0,0,-1,2008,1765,0,0
791,-741,0,0,0,0,0,0,0,0,0,-1,2015,1765,0,0
798,-741,0,0,0,0,0,0,0,0,0,-1,2022,1765,0,0
805,-741,0,0,0,0,0,0,0,0,0,-1,2029,1765,0,0
812,-741,0,0,0,0,0,0,0,0,0,-1,2036,1765,0,0
-700,-748,0,0,0,0,0,0,0,0,0,-1,524,1772,0,0
-693,-748,0,0,0,0,0,0,0,0,0,-1,531,1772,0,0
-686,-748,0,0,0,0,0,0,0,0,0,-1,538,1772,0,0
-679,-748,0,0,0,0,0,0,0,0,0,-1,545,1772,0,0
-672,-748,0,0,0,0,0,0,0,0,0,-1,552,1772,0,0
-665,-748,0,0,0,0,0,0,0,0,0,-1,559,1772,0,0
-658,-748,0,0,0,0,0,0,0,0,0,-1,566,1772,0,0
-651,-748,0,0,0,0,0,0,0,0,0,-1,573,1772,0,0
-644,-748,0,0,0,0,0,0,0,0,0,-1,580,1772,0,0
-637,-748,0,0,0,0,0,0,0,0,0,-1,587,1772,0,0
-630,-748,0,0,0,0,0,0,0,0,0,-1,594,1772,0,0
-623,-748,0,0,0,0,0,0,0,0,0,-1,601,1772,0,0
-616,-748,0,0,0,0,0,0,0,0,0,-1,608,1772,0,0
-609,-748,0,0,0,0,0,0,0,0,0,-1,615,1772,0,0
-602,-748,0,0,0,0,0,0,0,0,0,-1,622,1772,0,0
-595,-748,0,0,0,0,0,0,0,0,0,-1,629,1772,0,0
-588,-748,0,0,0,0,0,0,0,0,0,-1,636,1772,0,0
-581,-748,0,0,0,0,0,0,0,0,0,-1,643,1772,0,0
-574,-748,0,0,0,0,0,0,0,0,0,-1,650,1772,0,0
-567,-748,0,0,0,0,0,0,0,0,0,-1,657,1772,0,0
-560,-748,0,0,0,0,0,0,0,0,0,-1,664,1772,0,0
-553,-748,0,0,0,0,0,0,0,0,0,-1,671,1772,0,0
-546,-748,0,0,0,0,0,0,0,0,0,-1,678,1772,0,0
-539,-748,0,0,0,0,0,0,0,0,0,-1,685,1772,0,0
-532,-748,0,0,0,0,0,0,0,0,0,-1,692,1772,0,0
-525,-748,0,0,0,0,0,0,0,0,0,-1,699,1772,0,0
-518,-748,0,0,0,0,0,0,0,0,0,-1,706,1772,0,0
-511,-748,0,0,0,0,0,0,0,0,0,-1,713,1772,0,0
-504,-748,0,0,0,0,0,0,0,0,0,-1,720,1772,0,0
-497,-748,0,0,0,0,0,0,0,0,0,-1,727,1772,0,0
-490,-748,0,0,0,0,0,0,0,0,0,-1,734,1772,0,0
-483,-748,0,0,0,0,0,0,0,0,0,-1,741,1772,0,0
-476,-748,0,0,0,0,0,0,0,0,0,-1,748,1772,0,0
-469,-748,0,0,0,0,0,0,0,0,0,-1,755,1772,0,0
-462,-748,0,0,0,0,0,0,0,0,0,-1,762,1772,0,0
-455,-748,0,0,0,0,0,0,0,0,0,-1,769,1772,0,0
-448,-748,0,0,0,0,0,0,0,0,0,-1,776,1772,0,0
-441,-748,0,0,0,0,0,0,0,0,0,-1,783,1772,0,0
-434,-748,0,0,0,0,0,0,0,0,0,-1,790,1772,0,0
-427,-748,0,0,0,0,0,0,0,0,0,-1,797,1772,0,0
-420,-748,0,0,0,0,0,0,0,0,0,-1,804,1772,0,0
-413,-748,0,0,0,0,0,0,0,0,0,-1,811,1772,0,0
-406,-748,0,0,0,0,0,0,0,0,0,-1,818,1772,0,0
-399,-748,0,0,0,0,0,0,0,0,0,-1,825,1772,0,0
-392,-748,0,0,0,0,0,0,0,0,0,-1,832,1772,0,0
-385,-748,0,0,0,0,0,0,0,0,0,-1,839,1772,0,0
-378,-748,0,0,0,0,0,0,0,0,0,-1,846,1772,0,0
-371,-748,0,0,0,0,0,0,0,0,0,-1,853,1772,0,0
-364,-748,0,0,0,0,0,0,0,0,0,-1,860,1772,0,0
-357,-748,0,0,0,0,0,0,0,0,0,-1,867,1772,0,0
-350,-748,0,0,0,0,0,0,0,0,0,-1,874,1772,0,0
-343,-748,0,0,0,0,0,0,0,0,0,-1,881,1772,0,0
-336,-748,0,0,0,0,0,0,0,0,0,-1,888,1772,0,0
-329,-748,0,0,0,0,0,0,0,0,0,-1,895,1772,0,0
-322,-748,0,0,0,0,0,0,0,0,0,-1,902,1772,0,0
-315,-748,0,0,0,0,0,0,0,0,0,-1,909,1772,0,0
-308,-748,0,0,0,0,0,0,0,0,0,-1,916,1772,0,0
-301,-748,0,0,0,0,0,0,0,0,0,-1,923,1772,0,0
-294,-748,0,0,0,0,0,0,0,0,0,-1,930,1772,0,0
-287,-748,0,0,0,0,0,0,0,0,0,-1,937,1772,0,0
-280,-748,0,0,0,0,0,0,0,0,0,-1,944,1772,0,0
-273,-748,0,0,0,0,0,0,0,0,0,-1,951,1772,0,0
-266,-748,0,0,0,0,0,0,0,0,0,-1,958,1772,0,0
-259,-748,0,0,0,0,0,0,0,0,0,-1,965,1772,0,0
-252,-748,0,0,0,0,0,0,0,0,0,-1,972,1772,0,0
-245,-748,0,0,0,0,0,0,0,0,0,-1,979,1772,0,0
-238,-748,0,0,0,0,0,0,0,0,0,-1,986,1772,0,0
-231,-748,0,0,0,0,0,0,0,0,0,-1,993,1772,0,0
-224,-748,0,0,0,0,0,0,0,0,0,-1,1000,1772,0,0
-217,-748,8.97742,29.9884,0,0,0,0,0,0,0,-1,1007,1772,8.97744,-29.9884
-210,-748,8.8941,30.14,0,0,0,0,0,0,0,-1,1014,1772,8.8941,-30.14
-203,-748,7.88,43.3942,0,0,0,0,0,0,0,-1,1021,1772,7.87999,-43.3941
-196,-748,7.95483,43.9952,0,0,0,0,0,0,0,-1,1028,1772,7.95478,-43.9953
-189,-748,14.6794,78.3651,0,0,0,0,0,0,0,-1,1035,1772,14.6794,-78.3652
-182,-748,13.9248,79.833,0,0,0,0,0,0,0,-1,1042,1772,13.9248,-79.833
-175,-748,13.17,81.3008,0,0,0,0,0,0,0,-1,1049,1772,13.1701,-81.3008
-168,-748,12.4545,65.7625,0,0,0,0,0,0,0,-1,1056,1772,12.4545,-65.7625
-161,-748,12.5651,66.1248,0,0,0,0,0,0,0,-1,1063,1772,12.565,-66.1247
-154,-748,11.4552,48.7113,0,0,0,0,0,0,0,-1,1070,1772,11.4552,-48.7113
-147,-748,11.7789,49.4792,0,0,0,0,0,0,0,-1,1077,1772,11.7789,-49.4793
-140,-748,10.4108,44.9001,0,0,0,0,0,0,0,-1,1084,1772,10.4107,-44.9001
-133,-748,7.44727,22.0308,0,0,0,0,0,0,0,-1,1091,1772,7.44728,-22.0308
-126,-748,5.98035,22.6067,0,0,0,0,0,0,0,-1,1098,1772,5.9803,-22.6067
-119,-748,6.63342,26.309,0,0,0,0,0,0,0,-1,1105,1772,6.6334,-26.3089
-112,-748,6.91333,24.923,0,0,0,0,0,0,0,-1,1112,1772,6.91339,-24.923
-105,-748,6.83313,25.0537,0,0,0,0,0,0,0,-1,1119,1772,6.83311,-25.0537
-98,-748,8.13623,30.8743,0,0,0,0,0,0,0,-1,1126,1772,8.13628,-30.8742
-91,-748,4.85352,15.3033,0,0,0,0,0,0,0,-1,1133,1772,4.85351,-15.3033
-84,-748,-0.192017,7.26196,0,0,0,0,0,0,0,-1,1140,1772,-0.192047,-7.26201
-77,-748,4.42615,13.5537,0,0,0,0,0,0,0,-1,1147,1772,4.4261,-13.5538
-70,-748,4.46191,13.7446,0,0,0,0,0,0,0,-1,1154,1772,4.4619,-13.7446
-63,-748,4.49768,13.9355,0,0,0,0,0,0,0,-1,1161,1772,4.49769,-13.9355
-56,-748,3.05762,7.87817,0,0,0,0,0,0,0,-1,1168,1772,3.05768,-7.87822
-49,-748,3.04102,7.82471,0,0,0,0,0,0,0,-1,1175,1772,3.04096,-7.82468
-42,-748,0.793457,14.9474,0,0,0,0,0,0,0,-1,1182,1772,0.793413,-14.9474
-35,-748,9.09546,330.651,0,0,0,0,0,0,0,-1,1189,1772,9.09546,-330.651
-28,-748,9.34607,331.46,0,0,0,0,0,0,0,-1,1196,1772,9.34605,-331.46
-21,-748,9.89539,332.437,0,0,0,0,0,0,0,-1,1203,1772,9.89534,-332.437
-14,-748,9.55884,333.405,0,0,0,0,0,0,0,-1,1210,1772,9.55878,-333.405
-7,-748,9.89087,334.04,0,0,0,0,0,0,0,-1,1217,1772,9.8909,-334.04
0,-748,9.80396,334.745,0.0582977,0.0238798,0.0021282,0.0584287,0.0237487,0.0615218,0.0339301,0.0380375,1224,1772,9.80394,-334.745
7,-748,9.77295,335.452,0.0598148,0.0252729,0.00364161,0.0601946,0.0248931,0.103904,0.0349261,0.0335299,1231,1772,9.77298,-335.452
14,-748,10.0083,336.034,0.0615991,0.0263422,0.00514274,0.0623339,0.0256074,0.141926,0.0361788,0.0428063,1238,1772,10.0083,-336.034
21,-748,10.2859,336.537,0.0634394,0.026994,0.00654373,0.0645787,0.0258547,0.172378,0.0375305,0.0293986,1245,1772,10.2859,-336.537
28,-748,10.2894,336.993,0.0645925,0.0276876,0.00500065,0.0652581,0.027022,0.132323,0.0378617,0.0284249,1252,1772,10.2895,-336.993
35,-748,10.4987,337.37,0.0657437,0.0299876,0.00249022,0.0659163,0.029815,0.0691994,0.0381144,0.0300476,1259,1772,10.4986,-337.37
42,-748,10.7578,337.777,0,0,0,0,0,0,0,-1,1266,1772,10.7578,-337.777
49,-748,11.1144,338.027,0.0667817,0.0311553,-0.00243846,0.0669479,0.0309892,-0.0680225,0.0386878,0.02293,1273,1772,11.1144,-338.027
56,-748,11.2755,338.186,0.0657225,0.0303084,-0.00482042,0.0663669,0.029664,-0.132895,0.0383887,0.0208696,1280,1772,11.2756,-338.186
63,-748,11.4089,338.325,0.0641715,0.0293137,-0.00751364,0.0657221,0.0277631,-0.203514,0.0380966,0.0192796,1287,1772,11.409,-338.325
70,-748,11.6794,338.319,0.0606213,0.0269687,-0.0106117,0.063688,0.023902,-0.28133,0.0371495,0.0255245,1294,1772,11.6794,-338.319
77,-748,11.9469,338.16,0.0563881,0.0242734,-0.0139343,0.0615911,0.0190704,-0.357364,0.0364086,0.0256288,1301,1772,11.9469,-338.16
84,-748,12.1287,338.046,0.0519508,0.0215214,-0.0163752,0.0590886,0.0143836,-0.411059,0.0355805,0.0310136,1308,1772,12.1286,-338.046
91,-748,12.4097,337.975,0.0475936,0.0185431,-0.0178134,0.0560532,0.0100836,-0.443365,0.0345023,0.0286356,1315,1772,12.4096,-337.975
98,-748,12.611,337.694,0.0432227,0.0152037,-0.0187203,0.0525952,0.00583122,-0.464174,0.0332904,0.0242974,1322,1772,12.6109,-337.694
105,-748,12.8462,337.232,0.0397906,0.0118752,-0.0190313,0.0494339,0.00223183,-0.469,0.0322378,0.0231059,1329,1772,12.8462,-337.232
112,-748,12.8522,336.86,0.0368163,0.00834574,-0.0193661,0.0466162,-0.00145414,-0.468462,0.0315733,0.0347759,1336,1772,12.8522,-336.86
119,-748,13.2118,336.354,0.0344188,0.00498902,-0.0193488,0.0440125,-0.00460464,-0.460303,0.0309908,0.0385207,1343,1772,13.2118,-336.354
126,-748,13.4109,335.793,0.0324491,0.00154195,-0.0191702,0.0416189,-0.00762785,-0.446166,0.0306071,0.0301601,1350,1772,13.4109,-335.793
133,-748,13.5271,335.234,0.0305644,-0.00255712,-0.0176824,0.0382302,-0.0102229,-0.409071,0.0294911,0.0191017,1357,1772,13.5271,-335.234
140,-748,13.6884,334.516,0.0285282,-0.00767476,-0.0159501,0.0345528,-0.0136994,-0.36115,0.0287125,0.0289768,1364,1772,13.6884,-334.515
147,-748,13.7568,333.82,0.0261751,-0.0101695,-0.0152848,0.0317485,-0.0157429,-0.349654,0.0279334,0.0329801,1371,1772,13.7568,-333.82
154,-748,13.8696,333.073,0.0243946,-0.00951113,-0.0136069,0.0291799,-0.0142964,-0.338172,0.0255866,0.0253496,1378,1772,13.8696,-333.073
161,-748,14.0262,332.041,0.0219339,-0.00813283,-0.0135175,0.0271175,-0.0133164,-0.366178,0.0237935,0.033271,1385,1772,14.0262,-332.041
168,-748,14.1694,330.933,0,0,0,0,0,0,0,-1,1392,1772,14.1695,-330.933
175,-748,11.6235,16.8242,0,0,0,0,0,0,0,-1,1399,1772,11.6236,-16.8242
182,-748,7.62476,10.3058,0,0,0,0,0,0,0,-1,1406,1772,7.62476,-10.3058
189,-748,6.15857,6.95898,0,0,0,0,0,0,0,-1,1413,1772,6.15862,-6.95896
196,-748,3.9425,8.46021,0,0,0,0,0,0,0,-1,1420,1772,3.9425,-8.46026
203,-748,3.9668,12.9835,0,0,0,0,0,0,0,-1,1427,1772,3.96678,-12.9836
210,-748,4.71472,16.8318,0,0,0,0,0,0,0,-1,1434,1772,4.71471,-16.8317
217,-748,5.38452,21.5551,0,0,0,0,0,0,0,-1,1441,1772,5.38455,-21.555
224,-748,6.14258,25.2345,0,0,0,0,0,0,0,-1,1448,1772,6.14263,-25.2345
231,-748,6.46045,29.7867,0,0,0,0,0,0,0,-1,1455,1772,6.46049,-29.7867
238,-748,7.41565,32.8574,0,0,0,0,0,0,0,-1,1462,1772,7.41562,-32.8574
245,-748,7.84912,32.0914,0,0,0,0,0,0,0,-1,1469,1772,7.84914,-32.0914
252,-748,7.57336,29.4369,0,0,0,0,0,0,0,-1,1476,1772,7.57337,-29.4369
259,-748,9.47351,46.1896,0,0,0,0,0,0,0,-1,1483,1772,9.4735,-46.1895
266,-748,8.36536,48.6908,0,0,0,0,0,0,0,-1,1490,1772,8.36541,-48.6909
273,-748,7.31421,46.6743,0,0,0,0,0,0,0,-1,1497,1772,7.31415,-46.6743
280,-748,8.76538,40.4501,0,0,0,0,0,0,0,-1,1504,1772,8.76537,-40.45
287,-748,14.161,8.32813,0,0,0,0,0,0,0,-1,1511,1772,14.161,-8.32808
294,-748,6.38525,32.4724,0,0,0,0,0,0,0,-1,1518,1772,6.38521,-32.4725
301,-748,5.40393,38.9807,0,0,0,0,0,0,0,-1,1525,1772,5.40397,-38.9807
308,-748,5.95227,37.1827,0,0,0,0,0,0,0,-1,1532,1772,5.95229,-37.1827
315,-748,7.71741,42.637,0,0,0,0,0,0,0,-1,1539,1772,7.71738,-42.637
322,-748,4.26538,29.0557,0,0,0,0,0,0,0,-1,1546,1772,4.26537,-29.0556
329,-748,3.87256,16.1473,0,0,0,0,0,0,0,-1,1553,1772,3.87259,-16.1474
336,-748,4.81006,19.6141,0,0,0,0,0,0,0,-1,1560,1772,4.81011,-19.6141
343,-748,0,0,0,0,0,0,0,0,0,-1,1567,1772,0,0
350,-748,0,0,0,0,0,0,0,0,0,-1,1574,1772,0,0
357,-748,0,0,0,0,0,0,0,0,0,-1,1581,1772,0,0
364,-748,0,0,0,0,0,0,0,0,0,-1,1588,1772,0,0
371,-748,0,0,0,0,0,0,0,0,0,-1,1595,1772,0,0
378,-748,0,0,0,0,0,0,0,0,0,-1,1602,1772,0,0
385,-748,0,0,0,0,0,0,0,0,0,-1,1609,1772,0,0
392,-748,0,0,0,0,0,0,0,0,0,-1,1616,1772,0,0
399,-748,0,0,0,0,0,0,0,0,0,-1,1623,1772,0,0
406,-748,0,0,0,0,0,0,0,0,0,-1,1630,1772,0,0
413,-748,0,0,0,0,0,0,0,0,0,-1,1637,1772,0,0
420,-748,0,0,0,0,0,0,0,0,0,-1,1644,1772,0,0
427,-748,0,0,0,0,0,0,0,0,0,-1,1651,1772,0,0
434,-748,0,0,0,0,0,0,0,0,0,-1,1658,1772,0,0
441,-748,0,0,0,0,0,0,0,0,0,-1,1665,1772,0,0
448,-748,0,0,0,0,0,0,0,0,0,-1,1672,1772,0,0
455,-748,0,0,0,0,0,0,0,0,0,-1,1679,1772,0,0
462,-748,0,0,0,0,0,0,0,0,0,-1,1686,1772,0,0
469,-748,0,0,0,0,0,0,0,0,0,-1,1693,1772,0,0
476,-748,0,0,0,0,0,0,0,0,0,-1,1700,1772,0,0
483,-748,0,0,0,0,0,0,0,0,0,-1,1707,1772,0,0
490,-748,0,0,0,0,0,0,0,0,0,-1,1714,1772,0,0
497,-748,0,0,0,0,0,0,0,0,0,-1,1721,1772,0,0
504,-748,0,0,0,0,0,0,0,0,0,-1,1728,1772,0,0
511,-748,0,0,0,0,0,0,0,0,0,-1,1735,1772,0,0
518,-748,0,0,0,0,0,0,0,0,0,-1,1742,1772,0,0
525,-748,0,0,0,0,0,0,0,0,0,-1,1749,1772,0,0
532,-748,0,0,0,0,0,0,0,0,0,-1,1756,1772,0,0
539,-748,0,0,0,0,0,0,0,0,0,-1,1763,1772,0,0
546,-748,0,0,0,0,0,0,0,0,0,-1,1770,1772,0,0
553,-748,0,0,0,0,0,0,0,0,0,-1,1777,1772,0,0
560,-748,0,0,0,0,0,0,0,0,0,-1,1784,1772,0,0
567,-748,0,0,0,0,0,0,0,0,0,-1,1791,1772,0,0
574,-748,0,0,0,0,0,0,0,0,0,-1,1798,1772,0,0
581,-748,0,0,0,0,0,0,0,0,0,-1,1805,1772,0,0
588,-748,0,0,0,0,0,0,0,0,0,-1,1812,1772,0,0
595,-748,0,0,0,0,0,0,0,0,0,-1,1819,1772,0,0
602,-748,0,0,0,0,0,0,0,0,0,-1,1826,1772,0,0
609,-748,0,0,0,0,0,0,0,0,0,-1,1833,1772,0,0
616,-748,0,0,0,0,0,0,0,0,0,-1,1840,1772,0,0
623,-748,0,0,0,0,0,0,0,0,0,-1,1847,1772,0,0
630,-748,0,0,0,0,0,0,0,0,0,-1,1854,1772,0,0
637,-748,0,0,0,0,0,0,0,0,0,-1,1861,1772,0,0
644,-748,0,0,0,0,0,0,0,0,0,-1,1868,1772,0,0
651,-748,0,0,0,0,0,0,0,0,0,-1,1875,1772,0,0
658,-748,0,0,0,0,0,0,0,0,0,-1,1882,1772,0,0
665,-748,0,0,0,0,0,0,0,0,0,-1,1889,1772,0,0
672,-748,0,0,0,0,0,0,0,0,0,-1,1896,1772,0,0
679,-748,0,0,0,0,0,0,0,0,0,-1,1903,1772,0,0
686,-748,0,0,0,0,0,0,0,0,0,-1,1910,1772,0,0
693,-748,0,0,0,0,0,0,0,0,0,-1,1917,1772,0,0
700,-748,0,0,0,0,0,0,0,0,0,-1,1924,1772,0,0
707,-748,0,0,0,0,0,0,0,0,0,-1,1931,1772,0,0
714,-748,0,0,0,0,0,0,0,0,0,-1,1938,1772,0,0
721,-748,0,0,0,0,0,0,0,0,0,-1,1945,1772,0,0
728,-748,0,0,0,0,0,0,0,0,0,-1,1952,1772,0,0
735,-748,0,0,0,0,0,0,0,0,0,-1,1959,1772,0,0
742,-748,0,0,0,0,0,0,0,0,0,-1,1966,1772,0,0
749,-748,0,0,0,0,0,0,0,0,0,-1,1973,1772,0,0
756,-748,0,0,0,0,0,0,0,0,0,-1,1980,1772,0,0
763,-748,0,0,0,0,0,0,0,0,0,-1,1987,1772,0,0
770,-748,0,0,0,0,0,0,0,0,0,-1,1994,1772,0,0
777,-748,0,0,0,0,0,0,0,0,0,-1,2001,1772,0,0
784,-748,0,0,0,0,0,0,0,0,0,-1,2008,1772,0,0
791,-748,0,0,0,0,0,0,0,0,0,-1,2015,1772,0,0
798,-748,0,0,0,0,0,0,0,0,0,-1,2022,1772,0,0
805,-748,0,0,0,0,0,0,0,0,0,-1,2029,1772,0,0
812,-748,0,0,0,0,0,0,0,0,0,-1,2036,1772,0,0
-700,-755,0,0,0,0,0,0,0,0,0,-1,524,1779,0,0
-693,-755,0,0,0,0,0,0,0,0,0,-1,531,1779,0,0
-686,-755,0,0,0,0,0,0,0,0,0,-1,538,1779,0,0
-679,-755,0,0,0,0,0,0,0,0,0,-1,545,1779,0,0
-672,-755,0,0,0,0,0,0,0,0,0,-1,552,1779,0,0
-665,-755,0,0,0,0,0,0,0,0,0,-1,559,1779,0,0
-658,-755,0,0,0,0,0,0,0,0,0,-1,566,1779,0,0
-651,-755,0,0,0,0,0,0,0,0,0,-1,573,1779,0,0
-644,-755,0,0,0,0,0,0,0,0,0,-1,580,1779,0,0
-637,-755,0,0,0,0,0,0,0,0,0,-1,587,1779,0,0
-630,-755,0,0,0,0,0,0,0,0,0,-1,594,1779,0,0
-623,-755,0,0,0,0,0,0,0,0,0,-1,601,1779,0,0
-616,-755,0,0,0,0,0,0,0,0,0,-1,608,1779,0,0
-609,-755,0,0,0,0,0,0,0,0,0,-1,615,1779,0,0
-602,-755,0,0,0,0,0,0,0,0,0,-1,622,1779,0,0
-595,-755,0,0,0,0,0,0,0,0,0,-1,629,1779,0,0
-588,-755,0,0,0,0,0,0,0,0,0,-1,636,1779,0,0
-581,-755,0,0,0,0,0,0,0,0,0,-1,643,1779,0,0
-574,-755,0,0,0,0,0,0,0,0,0,-1,650,1779,0,0
-567,-755,0,0,0,0,0,0,0,0,0,-1,657,1779,0,0
-560,-755,0,0,0,0,0,0,0,0,0,-1,664,1779,0,0
-553,-755,0,0,0,0,0,0,0,0,0,-1,671,1779,0,0
-546,-755,0,0,0,0,0,0,0,0,0,-1,678,1779,0,0
-539,-755,0,0,0,0,0,0,0,0,0,-1,685,1779,0,0
-532,-755,0,0,0,0,0,0,0,0,0,-1,692,1779,0,0
-525,-755,0,0,0,0,0,0,0,0,0,-1,699,1779,0,0
-518,-755,0,0,0,0,0,0,0,0,0,-1,706,1779,0,0
-511,-755,0,0,0,0,0,0,0,0,0,-1,713,1779,0,0
-504,-755,0,0,0,0,0,0,0,0,0,-1,720,1779,0,0
-497,-755,0,0,0,0,0,0,0,0,0,-1,727,1779,0,0
-490,-755,0,0,0,0,0,0,0,0,0,-1,734,1779,0,0
-483,-755,0,0,0,0,0,0,0,0,0,-1,741,1779,0,0
-476,-755,0,0,0,0,0,0,0,0,0,-1,748,1779,0,0
-469,-755,0,0,0,0,0,0,0,0,0,-1,755,1779,0,0
-462,-755,0,0,0,0,0,0,0,0,0,-1,762,1779,0,0
-455,-755,0,0,0,0,0,0,0,0,0,-1,769,1779,0,0
-448,-755,0,0,0,0,0,0,0,0,0,-1,776,1779,0,0
-441,-755,0,0,0,0,0,0,0,0,0,-1,783,1779,0,0
-434,-755,0,0,0,0,0,0,0,0,0,-1,790,1779,0,0
-427,-755,0,0,0,0,0,0,0,0,0,-1,797,1779,0,0
-420,-755,0,0,0,0,0,0,0,0,0,-1,804,1779,0,0
-413,-755,0,0,0,0,0,0,0,0,0,-1,811,1779,0,0
-406,-755,0,0,0,0,0,0,0,0,0,-1,818,1779,0,0
-399,-755,0,0,0,0,0,0,0,0,0,-1,825,1779,0,0
-392,-755,0,0,0,0,0,0,0,0,0,-1,832,1779,0,0
-385,-755,0,0,0,0,0,0,0,0,0,-1,839,1779,0,0
-378,-755,0,0,0,0,0,0,0,0,0,-1,846,1779,0,0
-371,-755,0,0,0,0,0,0,0,0,0,-1,853,1779,0,0
-364,-755,0,0,0,0,0,0,0,0,0,-1,860,1779,0,0
-357,-755,0,0,0,0,0,0,0,0,0,-1,867,1779,0,0
-350,-755,0,0,0,0,0,0,0,0,0,-1,874,1779,0,0
-343,-755,0,0,0,0,0,0,0,0,0,-1,881,1779,0,0
-336,-755,0,0,0,0,0,0,0,0,0,-1,888,1779,0,0
-329,-755,0,0,0,0,0,0,0,0,0,-1,895,1779,0,0
-322,-755,0,0,0,0,0,0,0,0,0,-1,902,1779,0,0
-315,-755,0,0,0,0,0,0,0,0,0,-1,909,1779,0,0
-308,-755,0,0,0,0,0,0,0,0,0,-1,916,1779,0,0
-301,-755,0,0,0,0,0,0,0,0,0,-1,923,1779,0,0
-294,-755,0,0,0,0,0,0,0,0,0,-1,930,1779,0,0
-287,-755,0,0,0,0,0,0,0,0,0,-1,937,1779,0,0
-280,-755,0,0,0,0,0,0,0,0,0,-1,944,1779,0,0
-273,-755,0,0,0,0,0,0,0,0,0,-1,951,1779,0,0
-266,-755,0,0,0,0,0,0,0,0,0,-1,958,1779,0,0
-259,-755,0,0,0,0,0,0,0,0,0,-1,965,1779,0,0
-252,-755,0,0,0,0,0,0,0,0,0,-1,972,1779,0,0
-245,-755,0,0,0,0,0,0,0,0,0,-1,979,1779,0,0
-238,-755,0,0,0,0,0,0,0,0,0,-1,986,1779,0,0
-231,-755,0,0,0,0,0,0,0,0,0,-1,993,1779,0,0
-224,-755,0,0,0,0,0,0,0,0,0,-1,1000,1779,0,0
-217,-755,0,0,0,0,0,0,0,0,0,-1,1007,1779,0,0
-210,-755,0,0,0,0,0,0,0,0,0,-1,1014,1779,0,0
-203,-755,8.97363,30.5414,0,0,0,0,0,0,0,-1,1021,1779,8.97362,-30.5414
-196,-755,8.08667,43.2203,0,0,0,0,0,0,0,-1,1028,1779,8.08666,-43.2204
-189,-755,0.725098,39.8892,0,0,0,0,0,0,0,-1,1035,1779,0.725055,-39.8891
-182,-755,14.9128,80.5583,0,0,0,0,0,0,0,-1,1042,1779,14.9128,-80.5583
-175,-755,13.1752,66.5742,0,0,0,0,0,0,0,-1,1049,1779,13.1752,-66.5742
-168,-755,13.4839,66.8397,0,0,0,0,0,0,0,-1,1056,1779,13.4839,-66.8397
-161,-755,13.7926,67.1051,0,0,0,0,0,0,0,-1,1063,1779,13.7926,-67.1051
-154,-755,7.71094,44.9023,0,0,0,0,0,0,0,-1,1070,1779,7.71089,-44.9023
-147,-755,-6.45593,10.2422,0,0,0,0,0,0,0,-1,1077,1779,-6.45594,-10.2422
-140,-755,1.33521,21.3856,0,0,0,0,0,0,0,-1,1084,1779,1.33522,-21.3857
-133,-755,2.89417,21.0964,0,0,0,0,0,0,0,-1,1091,1779,2.89422,-21.0964
-126,-755,3.26404,20.9304,0,0,0,0,0,0,0,-1,1098,1779,3.26399,-20.9305
-119,-755,5.17761,21.9325,0,0,0,0,0,0,0,-1,1105,1779,5.17761,-21.9325
-112,-755,5.40247,24.5646,0,0,0,0,0,0,0,-1,1112,1779,5.40244,-24.5646
-105,-755,7.01294,20.1539,0,0,0,0,0,0,0,-1,1119,1779,7.01295,-20.154
-98,-755,5.50708,16.9628,0,0,0,0,0,0,0,-1,1126,1779,5.5071,-16.9628
-91,-755,5.51025,12.0438,0,0,0,0,0,0,0,-1,1133,1779,5.51022,-12.0439
-84,-755,0.169312,8.66443,0,0,0,0,0,0,0,-1,1140,1779,0.16932,-8.66446
-77,-755,-0.0491943,6.87439,0,0,0,0,0,0,0,-1,1147,1779,-0.0491385,-6.87443
-70,-755,4.5686,13.2169,0,0,0,0,0,0,0,-1,1154,1779,4.56865,-13.2169
-63,-755,-1.36316,7.3147,0,0,0,0,0,0,0,-1,1161,1779,-1.36312,-7.31473
-56,-755,0.0483398,5.06079,0,0,0,0,0,0,0,-1,1168,1779,0.0483138,-5.06084
-49,-755,-1.32263,5.33716,0,0,0,0,0,0,0,-1,1175,1779,-1.32264,-5.33718
-42,-755,-2.03613,4.01672,0,0,0,0,0,0,0,-1,1182,1779,-2.0361,-4.01671
-35,-755,-2.72498,2.37476,0,0,0,0,0,0,0,-1,1189,1779,-2.72502,-2.37473
-28,-755,7.69934,180.947,0,0,0,0,0,0,0,-1,1196,1779,7.69932,-180.947
-21,-755,5.64893,256.527,0,0,0,0,0,0,0,-1,1203,1779,5.64887,-256.527
-14,-755,6.30249,331.987,0,0,0,0,0,0,0,-1,1210,1779,6.30248,-331.987
-7,-755,11.0879,333.807,0,0,0,0,0,0,0,-1,1217,1779,11.0878,-333.807
0,-755,10.7245,334.346,0.0633794,0.0367549,0.0063372,0.0648108,0.0353235,0.22215,0.0374691,0.0386906,1224,1779,10.7244,-334.346
7,-755,10.5488,334.896,0.0647005,0.0388286,0.00793471,0.0669402,0.036589,0.275101,0.0387038,0.0302096,1231,1779,10.5488,-334.896
14,-755,10.7635,335.956,0,0,0,0,0,0,0,-1,1238,1779,10.7635,-335.956
21,-755,10.8479,336.453,0,0,0,0,0,0,0,-1,1245,1779,10.8479,-336.453
28,-755,10.7538,337.062,0,0,0,0,0,0,0,-1,1252,1779,10.7538,-337.062
35,-755,11.032,337.074,0.071143,0.0471252,0.00545241,0.0723228,0.0459454,0.213101,0.042262,0.0411138,1259,1779,11.032,-337.074
42,-755,11.2733,337.486,0,0,0,0,0,0,0,-1,1266,1779,11.2734,-337.486
49,-755,11.3044,337.91,0.0726992,0.049907,-0.00142533,0.072788,0.0498182,-0.0622129,0.0429665,0.0187341,1273,1779,11.3045,-337.91
56,-755,11.4943,338.11,0.0716731,0.049256,-0.00478641,0.0726523,0.0482768,-0.201795,0.0426958,0.0249181,1280,1779,11.4943,-338.11
63,-755,11.4648,338.379,0.0700258,0.0480559,-0.00861021,0.0729981,0.0450836,-0.332398,0.0425323,0.0211575,1287,1779,11.4649,-338.378
70,-755,11.6866,338.189,0.0656777,0.0445677,-0.0130427,0.0719012,0.0383442,-0.445217,0.0415429,0.0269092,1294,1779,11.6866,-338.189
77,-755,11.8965,337.994,0.0604288,0.0403659,-0.0179143,0.0709291,0.0298656,-0.530165,0.0411207,0.0263083,1301,1779,11.8965,-337.994
84,-755,11.9594,337.929,0.0548184,0.0356468,-0.021659,0.068918,0.0215472,-0.577066,0.0407103,0.027359,1308,1779,11.9593,-337.929
91,-755,12.1588,337.866,0.0490646,0.0303488,-0.0240588,0.0655214,0.013892,-0.599923,0.0398654,0.0290864,1315,1779,12.1588,-337.866
98,-755,12.3177,337.705,0.0431884,0.0243218,-0.0258856,0.061306,0.00620423,-0.610665,0.0389676,0.0279214,1322,1779,12.3178,-337.705
105,-755,12.3489,337.011,0.0382672,0.0182996,-0.0268732,0.0569512,-0.000384429,-0.607542,0.0380963,0.0288668,1329,1779,12.3489,-337.011
112,-755,12.6289,336.579,0,0,0,0,0,0,0,-1,1336,1779,12.6289,-336.579
119,-755,13.0792,336.162,0,0,0,0,0,0,0,-1,1343,1779,13.0793,-336.162
126,-755,12.8302,335.855,0,0,0,0,0,0,0,-1,1350,1779,12.8302,-335.855
133,-755,13.0356,335.109,0,0,0,0,0,0,0,-1,1357,1779,13.0357,-335.109
140,-755,13.1595,334.36,0,0,0,0,0,0,0,-1,1364,1779,13.1595,-334.36
147,-755,12.9081,333.684,0,0,0,0,0,0,0,-1,1371,1779,12.9081,-333.684
154,-755,12.8984,332.958,0,0,0,0,0,0,0,-1,1378,1779,12.8984,-332.958
161,-755,13.0577,331.889,0,0,0,0,0,0,0,-1,1385,1779,13.0577,-331.889
168,-755,3.98181,7.35901,0,0,0,0,0,0,0,-1,1392,1779,3.98184,-7.35904
175,-755,8.17065,1.34363,0,0,0,0,0,0,0,-1,1399,1779,8.1706,-1.34368
182,-755,8.09216,2.96924,0,0,0,0,0,0,0,-1,1406,1779,8.09213,-2.9693
189,-755,8.04419,4.68042,0,0,0,0,0,0,0,-1,1413,1779,8.04419,-4.68046
196,-755,7.74841,7.4541,0,0,0,0,0,0,0,-1,1420,1779,7.74842,-7.45405
203,-755,4.80554,6.88696,0,0,0,0,0,0,0,-1,1427,1779,4.80554,-6.88697
210,-755,25.1694,7.35693,0,0,0,0,0,0,0,-1,1434,1779,25.1694,-7.35688
217,-755,5.01648,16.411,0,0,0,0,0,0,0,-1,1441,1779,5.01646,-16.411
224,-755,5.18103,22.6283,0,0,0,0,0,0,0,-1,1448,1779,5.18101,-22.6283
231,-755,5.7489,30.15,0,0,0,0,0,0,0,-1,1455,1779,5.74885,-30.15
238,-755,6.56323,29.2726,0,0,0,0,0,0,0,-1,1462,1779,6.56327,-29.2726
245,-755,8.29639,28.2113,0,0,0,0,0,0,0,-1,1469,1779,8.29639,-28.2113
252,-755,6.8877,28.8699,0,0,0,0,0,0,0,-1,1476,1779,6.88774,-28.8698
259,-755,6.42676,30.8574,0,0,0,0,0,0,0,-1,1483,1779,6.42677,-30.8575
266,-755,17.255,7.86096,0,0,0,0,0,0,0,-1,1490,1779,17.255,-7.86092
273,-755,15.7932,7.59778,0,0,0,0,0,0,0,-1,1497,1779,15.7932,-7.59777
280,-755,14.6255,7.34802,0,0,0,0,0,0,0,-1,1504,1779,14.6254,-7.34806
287,-755,13.8279,7.83105,0,0,0,0,0,0,0,-1,1511,1779,13.8279,-7.83104
294,-755,12.5695,7.96814,0,0,0,0,0,0,0,-1,1518,1779,12.5694,-7.9682
301,-755,11.2659,8.27087,0,0,0,0,0,0,0,-1,1525,1779,11.2658,-8.27087
308,-755,5.17737,37.2896,0,0,0,0,0,0,0,-1,1532,1779,5.17742,-37.2896
315,-755,0.828613,31.032,0,0,0,0,0,0,0,-1,1539,1779,0.828668,-31.032
322,-755,0,0,0,0,0,0,0,0,0,-1,1546,1779,0,0
329,-755,0,0,0,0,0,0,0,0,0,-1,1553,1779,0,0
336,-755,0,0,0,0,0,0,0,0,0,-1,1560,1779,0,0
343,-755,0,0,0,0,0,0,0,0,0,-1,1567,1779,0,0
350,-755,0,0,0,0,0,0,0,0,0,-1,1574,1779,0,0
357,-755,0,0,0,0,0,0,0,0,0,-1,1581,1779,0,0
364,-755,0,0,0,0,0,0,0,0,0,-1,1588,1779,0,0
371,-755,0,0,0,0,0,0,0,0,0,-1,1595,1779,0,0
378,-755,0,0,0,0,0,0,0,0,0,-1,1602,1779,0,0
385,-755,0,0,0,0,0,0,0,0,0,-1,1609,1779,0,0
392,-755,0,0,0,0,0,0,0,0,0,-1,1616,1779,0,0
399,-755,0,0,0,0,0,0,0,0,0,-1,1623,1779,0,0
406,-755,0,0,0,0,0,0,0,0,0,-1,1630,1779,0,0
413,-755,0,0,0,0,0,0,0,0,0,-1,1637,1779,0,0
420,-755,0,0,0,0,0,0,0,0,0,-1,1644,1779,0,0
427,-755,0,0,0,0,0,0,0,0,0,-1,1651,1779,0,0
434,-755,0,0,0,0,0,0,0,0,0,-1,1658,1779,0,0
441,-755,0,0,0,0,0,0,0,0,0,-1,1665,1779,0,0
448,-755,0,0,0,0,0,0,0,0,0,-1,1672,1779,0,0
455,-755,0,0,0,0,0,0,0,0,0,-1,1679,1779,0,0
462,-755,0,0,0,0,0,0,0,0,0,-1,1686,1779,0,0
469,-755,0,0,0,0,0,0,0,0,0,-1,1693,1779,0,0
476,-755,0,0,0,0,0,0,0,0,0,-1,1700,1779,0,0
483,-755,0,0,0,0,0,0,0,0,0,-1,1707,1779,0,0
490,-755,0,0,0,0,0,0,0,0,0,-1,1714,1779,0,0
497,-755,0,0,0,0,0,0,0,0,0,-1,1721,1779,0,0
504,-755,0,0,0,0,0,0,0,0,0,-1,1728,1779,0,0
511,-755,0,0,0,0,0,0,0,0,0,-1,1735,1779,0,0
518,-755,0,0,0,0,0,0,0,0,0,-1,1742,1779,0,0
525,-755,0,0,0,0,0,0,0,0,0,-1,1749,1779,0,0
532,-755,0,0,0,0,0,0,0,0,0,-1,1756,1779,0,0
539,-755,0,0,0,0,0,0,0,0,0,-1,1763,1779,0,0
546,-755,0,0,0,0,0,0,0,0,0,-1,1770,1779,0,0
553,-755,0,0,0,0,0,0,0,0,0,-1,1777,1779,0,0
560,-755,0,0,0,0,0,0,0,0,0,-1,1784,1779,0,0
567,-755,0,0,0,0,0,0,0,0,0,-1,1791,1779,0,0
574,-755,0,0,0,0,0,0,0,0,0,-1,1798,1779,0,0
581,-755,0,0,0,0,0,0,0,0,0,-1,1805,1779,0,0
588,-755,0,0,0,0,0,0,0,0,0,-1,1812,1779,0,0
595,-755,0,0,0,0,0,0,0,0,0,-1,1819,1779,0,0
602,-755,0,0,0,0,0,0,0,0,0,-1,1826,1779,0,0
609,-755,0,0,0,0,0,0,0,0,0,-1,1833,1779,0,0
616,-755,0,0,0,0,0,0,0,0,0,-1,1840,1779,0,0
623,-755,0,0,0,0,0,0,0,0,0,-1,1847,1779,0,0
630,-755,0,0,0,0,0,0,0,0,0,-1,1854,1779,0,0
637,-755,0,0,0,0,0,0,0,0,0,-1,1861,1779,0,0
644,-755,0,0,0,0,0,0,0,0,0,-1,1868,1779,0,0
651,-755,0,0,0,0,0,0,0,0,0,-1,1875,1779,0,0
658,-755,0,0,0,0,0,0,0,0,0,-1,1882,1779,0,0
665,-755,0,0,0,0,0,0,0,0,0,-1,1889,1779,0,0
672,-755,0,0,0,0,0,0,0,0,0,-1,1896,1779,0,0
679,-755,0,0,0,0,0,0,0,0,0,-1,1903,1779,0,0
686,-755,0,0,0,0,0,0,0,0,0,-1,1910,1779,0,0
693,-755,0,0,0,0,0,0,0,0,0,-1,1917,1779,0,0
700,-755,0,0,0,0,0,0,0,0,0,-1,1924,1779,0,0
707,-755,0,0,0,0,0,0,0,0,0,-1,1931,1779,0,0
714,-755,0,0,0,0,0,0,0,0,0,-1,1938,1779,0,0
721,-755,0,0,0,0,0,0,0,0,0,-1,1945,1779,0,0
728,-755,0,0,0,0,0,0,0,0,0,-1,1952,1779,0,0
735,-755,0,0,0,0,0,0,0,0,0,-1,1959,1779,0,0
742,-755,0,0,0,0,0,0,0,0,0,-1,1966,1779,0,0
749,-755,0,0,0,0,0,0,0,0,0,-1,1973,1779,0,0
756,-755,0,0,0,0,0,0,0,0,0,-1,1980,1779,0,0
763,-755,0,0,0,0,0,0,0,0,0,-1,1987,1779,0,0
770,-755,0,0,0,0,0,0,0,0,0,-1,1994,1779,0,0
777,-755,0,0,0,0,0,0,0,0,0,-1,2001,1779,0,0
784,-755,0,0,0,0,0,0,0,0,0,-1,2008,1779,0,0
791,-755,0,0,0,0,0,0,0,0,0,-1,2015,1779,0,0
798,-755,0,0,0,0,0,0,0,0,0,-1,2022,1779,0,0
805,-755,0,0,0,0,0,0,0,0,0,-1,2029,1779,0,0
812,-755,0,0,0,0,0,0,0,0,0,-1,2036,1779,0,0
-700,-762,0,0,0,0,0,0,0,0,0,-1,524,1786,0,0
-693,-762,0,0,0,0,0,0,0,0,0,-1,531,1786,0,0
-686,-762,0,0,0,0,0,0,0,0,0,-1,538,1786,0,0
-679,-762,0,0,0,0,0,0,0,0,0,-1,545,1786,0,0
-672,-762,0,0,0,0,0,0,0,0,0,-1,552,1786,0,0
-665,-762,0,0,0,0,0,0,0,0,0,-1,559,1786,0,0
-658,-762,0,0,0,0,0,0,0,0,0,-1,566,1786,0,0
-651,-762,0,0,0,0,0,0,0,0,0,-1,573,1786,0,0
-644,-762,0,0,0,0,0,0,0,0,0,-1,580,1786,0,0
-637,-762,0,0,0,0,0,0,0,0,0,-1,587,1786,0,0
-630,-762,0,0,0,0,0,0,0,0,0,-1,594,1786,0,0
-623,-762,0,0,0,0,0,0,0,0,0,-1,601,1786,0,0
-616,-762,0,0,0,0,0,0,0,0,0,-1,608,1786,0,0
-609,-762,0,0,0,0,0,0,0,0,0,-1,615,1786,0,0
-602,-762,0,0,0,0,0,0,0,0,0,-1,622,1786,0,0
-595,-762,0,0,0,0,0,0,0,0,0,-1,629,1786,0,0
-588,-762,0,0,0,0,0,0,0,0,0,-1,636,1786,0,0
-581,-762,0,0,0,0,0,0,0,0,0,-1,643,1786,0,0
-574,-762,0,0,0,0,0,0,0,0,0,-1,650,1786,0,0
-567,-762,0,0,0,0,0,0,0,0,0,-1,657,1786,0,0
-560,-762,0,0,0,0,0,0,0,0,0,-1,664,1786,0,0
-553,-762,0,0,0,0,0,0,0,0,0,-1,671,1786,0,0
-546,-762,0,0,0,0,0,0,0,0,0,-1,678,1786,0,0
-539,-762,0,0,0,0,0,0,0,0,0,-1,685,1786,0,0
-532,-762,0,0,0,0,0,0,0,0,0,-1,692,1786,0,0
-525,-762,0,0,0,0,0,0,0,0,0,-1,699,1786,0,0
-518,-762,0,0,0,0,0,0,0,0,0,-1,706,1786,0,0
-511,-762,0,0,0,0,0,0,0,0,0,-1,713,1786,0,0
-504,-762,0,0,0,0,0,0,0,0,0,-1,720,1786,0,0
-497,-762,0,0,0,0,0,0,0,0,0,-1,727,1786,0,0
-490,-762,0,0,0,0,0,0,0,0,0,-1,734,1786,0,0
-483,-762,0,0,0,0,0,0,0,0,0,-1,741,1786,0,0
-476,-762,0,0,0,0,0,0,0,0,0,-1,748,1786,0,0
-469,-762,0,0,0,0,0,0,0,0,0,-1,755,1786,0,0
-462,-762,0,0,0,0,0,0,0,0,0,-1,762,1786,0,0
-455,-762,0,0,0,0,0,0,0,0,0,-1,769,1786,0,0
-448,-762,0,0,0,0,0,0,0,0,0,-1,776,1786,0,0
-441,-762,0,0,0,0,0,0,0,0,0,-1,783,1786,0,0
-434,-762,0,0,0,0,0,0,0,0,0,-1,790,1786,0,0
-427,-762,0,0,0,0,0,0,0,0,0,-1,797,1786,0,0
-420,-762,0,0,0,0,0,0,0,0,0,-1,804,1786,0,0
-413,-762,0,0,0,0,0,0,0,0,0,-1,811,1786,0,0
-406,-762,0,0,0,0,0,0,0,0,0,-1,818,1786,0,0
-399,-762,0,0,0,0,0,0,0,0,0,-1,825,1786,0,0
-392,-762,0,0,0,0,0,0,0,0,0,-1,832,1786,0,0
-385,-762,0,0,0,0,0,0,0,0,0,-1,839,1786,0,0
-378,-762,0,0,0,0,0,0,0,0,0,-1,846,1786,0,0
-371,-762,0,0,0,0,0,0,0,0,0,-1,853,1786,0,0
-364,-762,0,0,0,0,0,0,0,0,0,-1,860,1786,0,0
-357,-762,0,0,0,0,0,0,0,0,0,-1,867,1786,0,0
-350,-762,0,0,0,0,0,0,0,0,0,-1,874,1786,0,0
-343,-762,0,0,0,0,0,0,0,0,0,-1,881,1786,0,0
-336,-762,0,0,0,0,0,0,0,0,0,-1,888,1786,0,0
-329,-762,0,0,0,0,0,0,0,0,0,-1,895,1786,0,0
-322,-762,0,0,0,0,0,0,0,0,0,-1,902,1786,0,0
-315,-762,0,0,0,0,0,0,0,0,0,-1,909,1786,0,0
-308,-762,0,0,0,0,0,0,0,0,0,-1,916,1786,0,0
-301,-762,0,0,0,0,0,0,0,0,0,-1,923,1786,0,0
-294,-762,0,0,0,0,0,0,0,0,0,-1,930,1786,0,0
-287,-762,0,0,0,0,0,0,0,0,0,-1,937,1786,0,0
-280,-762,0,0,0,0,0,0,0,0,0,-1,944,1786,0,0
-273,-762,0,0,0,0,0,0,0,0,0,-1,951,1786,0,0
-266,-762,0,0,0,0,0,0,0,0,0,-1,958,1786,0,0
-259,-762,0,0,0,0,0,0,0,0,0,-1,965,1786,0,0
-252,-762,0,0,0,0,0,0,0,0,0,-1,972,1786,0,0
-245,-762,0,0,0,0,0,0,0,0,0,-1,979,1786,0,0
-238,-762,0,0,0,0,0,0,0,0,0,-1,986,1786,0,0
-231,-762,0,0,0,0,0,0,0,0,0,-1,993,1786,0,0
-224,-762,0,0,0,0,0,0,0,0,0,-1,1000,1786,0,0
-217,-762,0,0,0,0,0,0,0,0,0,-1,1007,1786,0,0
-210,-762,0,0,0,0,0,0,0,0,0,-1,1014,1786,0,0
-203,-762,0,0,0,0,0,0,0,0,0,-1,1021,1786,0,0
-196,-762,0,0,0,0,0,0,0,0,0,-1,1028,1786,0,0
-189,-762,0,0,0,0,0,0,0,0,0,-1,1035,1786,0,0
-182,-762,4.44226,13.2462,0,0,0,0,0,0,0,-1,1042,1786,4.44227,-13.2462
-175,-762,2.39929,44.7904,0,0,0,0,0,0,0,-1,1049,1786,2.39932,-44.7903
-168,-762,14.4796,67.9244,0,0,0,0,0,0,0,-1,1056,1786,14.4797,-67.9245
-161,-762,-3.29077,11.9508,0,0,0,0,0,0,0,-1,1063,1786,-3.29076,-11.9508
-154,-762,-4.55823,11.1176,0,0,0,0,0,0,0,-1,1070,1786,-4.55828,-11.1175
-147,-762,-6.52454,9.41418,0,0,0,0,0,0,0,-1,1077,1786,-6.52458,-9.41419
-140,-762,4.99792,5.28589,0,0,0,0,0,0,0,-1,1084,1786,4.99793,-5.28587
-133,-762,0.689819,19.2172,0,0,0,0,0,0,0,-1,1091,1786,0.689867,-19.2171
-126,-762,1.48743,19.9288,0,0,0,0,0,0,0,-1,1098,1786,1.48738,-19.9289
-119,-762,2.65637,20.208,0,0,0,0,0,0,0,-1,1105,1786,2.65632,-20.208
-112,-762,6.84705,25.5554,0,0,0,0,0,0,0,-1,1112,1786,6.84706,-25.5554
-105,-762,5.57947,21.618,0,0,0,0,0,0,0,-1,1119,1786,5.57948,-21.618
-98,-762,5.0636,17.9901,0,0,0,0,0,0,0,-1,1126,1786,5.06361,-17.9901
-91,-762,4.54773,14.3622,0,0,0,0,0,0,0,-1,1133,1786,4.54774,-14.3622
-84,-762,3.96375,10.4547,0,0,0,0,0,0,0,-1,1140,1786,3.96371,-10.4548
-77,-762,0.305054,8.49365,0,0,0,0,0,0,0,-1,1147,1786,0.305008,-8.49362
-70,-762,0.183716,6.74622,0,0,0,0,0,0,0,-1,1154,1786,0.183696,-6.74621
-63,-762,-0.883057,9.08813,0,0,0,0,0,0,0,-1,1161,1786,-0.88311,-9.08808
-56,-762,-0.578979,5.10254,0,0,0,0,0,0,0,-1,1168,1786,-0.578951,-5.10249
-49,-762,-2.04541,3.66321,0,0,0,0,0,0,0,-1,1175,1786,-2.0454,-3.66319
-42,-762,-2.23462,3.474,0,0,0,0,0,0,0,-1,1182,1786,-2.23459,-3.47399
-35,-762,-3.28992,1.68164,0,0,0,0,0,0,0,-1,1189,1786,-3.28998,-1.68164
-28,-762,-3.75378,1.37769,0,0,0,0,0,0,0,-1,1196,1786,-3.75373,-1.37767
-21,-762,9.78528,125.281,0,0,0,0,0,0,0,-1,1203,1786,9.78533,-125.281
-14,-762,0.928345,331.674,0,0,0,0,0,0,0,-1,1210,1786,0.92833,-331.674
-7,-762,10.4771,333.609,0,0,0,0,0,0,0,-1,1217,1786,10.477,-333.609
0,-762,11.6034,333.826,0,0,0,0,0,0,0,-1,1224,1786,11.6034,-333.826
7,-762,10.9409,334.367,0,0,0,0,0,0,0,-1,1231,1786,10.9409,-334.367
14,-762,11.0328,334.966,0,0,0,0,0,0,0,-1,1238,1786,11.0328,-334.966
21,-762,11.3242,336.145,0,0,0,0,0,0,0,-1,1245,1786,11.3242,-336.145
28,-762,5.57312,330.992,0,0,0,0,0,0,0,-1,1252,1786,5.57314,-330.992
35,-762,11.4055,336.684,0,0,0,0,0,0,0,-1,1259,1786,11.4055,-336.684
42,-762,11.2305,337.055,0,0,0,0,0,0,0,-1,1266,1786,11.2305,-337.055
49,-762,11.3016,337.526,0,0,0,0,0,0,0,-1,1273,1786,11.3017,-337.526
56,-762,11.6365,337.946,0,0,0,0,0,0,0,-1,1280,1786,11.6365,-337.946
63,-762,11.4816,338.375,0,0,0,0,0,0,0,-1,1287,1786,11.4816,-338.375
70,-762,11.4915,338.147,0.0743263,0.0643876,-0.0146071,0.0847863,0.0539276,-0.621438,0.0495517,0.0413413,1294,1786,11.4914,-338.147
77,-762,11.6398,338.157,0.0680123,0.0585926,-0.0212673,0.085085,0.0415199,-0.676427,0.0491286,0.0476013,1301,1786,11.6398,-338.157
84,-762,11.8452,338.087,0,0,0,0,0,0,0,-1,1308,1786,11.8452,-338.087
91,-762,11.6808,337.593,0,0,0,0,0,0,0,-1,1315,1786,11.6808,-337.593
98,-762,11.756,337.584,0,0,0,0,0,0,0,-1,1322,1786,11.756,-337.584
105,-762,11.8076,336.729,0,0,0,0,0,0,0,-1,1329,1786,11.8076,-336.729
112,-762,11.052,336.771,0,0,0,0,0,0,0,-1,1336,1786,11.052,-336.771
119,-762,11.2146,336.59,0,0,0,0,0,0,0,-1,1343,1786,11.2146,-336.59
126,-762,10.9911,335.435,0,0,0,0,0,0,0,-1,1350,1786,10.991,-335.435
133,-762,12.6289,334.829,0,0,0,0,0,0,0,-1,1357,1786,12.6289,-334.829
140,-762,2.66199,335.619,0,0,0,0,0,0,0,-1,1364,1786,2.662,-335.619
147,-762,4.67322,332.827,0,0,0,0,0,0,0,-1,1371,1786,4.67316,-332.827
154,-762,9.90344,333.454,0,0,0,0,0,0,0,-1,1378,1786,9.90339,-333.454
161,-762,8.65051,34.8102,0,0,0,0,0,0,0,-1,1385,1786,8.65054,-34.8101
168,-762,8.19287,0.880615,0,0,0,0,0,0,0,-1,1392,1786,8.19291,-0.880603
175,-762,8.33997,1.95947,0,0,0,0,0,0,0,-1,1399,1786,8.33997,-1.95942
182,-762,8.28418,3.56482,0,0,0,0,0,0,0,-1,1406,1786,8.28415,-3.56485
189,-762,8.21179,5.23389,0,0,0,0,0,0,0,-1,1413,1786,8.21183,-5.23383
196,-762,8.05969,6.95483,0,0,0,0,0,0,0,-1,1420,1786,8.05972,-6.9548
203,-762,24.0077,7.10425,0,0,0,0,0,0,0,-1,1427,1786,24.0077,-7.10426
210,-762,23.8073,7.6499,0,0,0,0,0,0,0,-1,1434,1786,23.8073,-7.64987
217,-762,23.3193,8.24426,0,0,0,0,0,0,0,-1,1441,1786,23.3194,-8.2442
224,-762,2.65149,20.6106,0,0,0,0,0,0,0,-1,1448,1786,2.65153,-20.6106
231,-762,5.46655,23.521,0,0,0,0,0,0,0,-1,1455,1786,5.46653,-23.521
238,-762,5.35632,29.7203,0,0,0,0,0,0,0,-1,1462,1786,5.35629,-29.7203
245,-762,6.93054,27.8312,0,0,0,0,0,0,0,-1,1469,1786,6.93058,-27.8312
252,-762,6.20215,28.3027,0,0,0,0,0,0,0,-1,1476,1786,6.20211,-28.3027
259,-762,5.46472,28.8762,0,0,0,0,0,0,0,-1,1483,1786,5.46476,-28.8762
266,-762,16.451,7.67773,0,0,0,0,0,0,0,-1,1490,1786,16.4511,-7.67773
273,-762,15.287,7.5304,0,0,0,0,0,0,0,-1,1497,1786,15.2869,-7.53044
280,-762,14.1501,7.38379,0,0,0,0,0,0,0,-1,1504,1786,14.1502,-7.38376
287,-762,12.6891,7.99133,0,0,0,0,0,0,0,-1,1511,1786,12.6891,-7.99135
294,-762,12.6959,8.30371,0,0,0,0,0,0,0,-1,1518,1786,12.6959,-8.30368
301,-762,11.4222,8.84143,0,0,0,0,0,0,0,-1,1525,1786,11.4223,-8.84149
308,-762,0,0,0,0,0,0,0,0,0,-1,1532,1786,0,0
315,-762,0,0,0,0,0,0,0,0,0,-1,1539,1786,0,0
322,-762,0,0,0,0,0,0,0,0,0,-1,1546,1786,0,0
329,-762,0,0,0,0,0,0,0,0,0,-1,1553,1786,0,0
336,-762,0,0,0,0,0,0,0,0,0,-1,1560,1786,0,0
343,-762,0,0,0,0,0,0,0,0,0,-1,1567,1786,0,0
350,-762,0,0,0,0,0,0,0,0,0,-1,1574,1786,0,0
357,-762,0,0,0,0,0,0,0,0,0,-1,1581,1786,0,0
364,-762,0,0,0,0,0,0,0,0,0,-1,1588,1786,0,0
371,-762,0,0,0,0,0,0,0,0,0,-1,1595,1786,0,0
378,-762,0,0,0,0,0,0,0,0,0,-1,1602,1786,0,0
385,-762,0,0,0,0,0,0,0,0,0,-1,1609,1786,0,0
392,-762,0,0,0,0,0,0,0,0,0,-1,1616,1786,0,0
399,-762,0,0,0,0,0,0,0,0,0,-1,1623,1786,0,0
406,-762,0,0,0,0,0,0,0,0,0,-1,1630,1786,0,0
413,-762,0,0,0,0,0,0,0,0,0,-1,1637,1786,0,0
420,-762,0,0,0,0,0,0,0,0,0,-1,1644,1786,0,0
427,-762,0,0,0,0,0,0,0,0,0,-1,1651,1786,0,0
434,-762,0,0,0,0,0,0,0,0,0,-1,1658,1786,0,0
441,-762,0,0,0,0,0,0,0,0,0,-1,1665,1786,0,0
448,-762,0,0,0,0,0,0,0,0,0,-1,1672,1786,0,0
455,-762,0,0,0,0,0,0,0,0,0,-1,1679,1786,0,0
462,-762,0,0,0,0,0,0,0,0,0,-1,1686,1786,0,0
469,-762,0,0,0,0,0,0,0,0,0,-1,1693,1786,0,0
476,-762,0,0,0,0,0,0,0,0,0,-1,1700,1786,0,0
483,-762,0,0,0,0,0,0,0,0,0,-1,1707,1786,0,0
490,-762,0,0,0,0,0,0,0,0,0,-1,1714,1786,0,0
497,-762,0,0,0,0,0,0,0,0,0,-1,1721,1786,0,0
504,-762,0,0,0,0,0,0,0,0,0,-1,1728,1786,0,0
511,-762,0,0,0,0,0,0,0,0,0,-1,1735,1786,0,0
518,-762,0,0,0,0,0,0,0,0,0,-1,1742,1786,0,0
525,-762,0,0,0,0,0,0,0,0,0,-1,1749,1786,0,0
532,-762,0,0,0,0,0,0,0,0,0,-1,1756,1786,0,0
539,-762,0,0,0,0,0,0,0,0,0,-1,1763,1786,0,0
546,-762,0,0,0,0,0,0,0,0,0,-1,1770,1786,0,0
553,-762,0,0,0,0,0,0,0,0,0,-1,1777,1786,0,0
560,-762,0,0,0,0,0,0,0,0,0,-1,1784,1786,0,0
567,-762,0,0,0,0,0,0,0,0,0,-1,1791,1786,0,0
574,-762,0,0,0,0,0,0,0,0,0,-1,1798,1786,0,0
581,-762,0,0,0,0,0,0,0,0,0,-1,1805,1786,0,0
588,-762,0,0,0,0,0,0,0,0,0,-1,1812,1786,0,0
595,-762,0,0,0,0,0,0,0,0,0,-1,1819,1786,0,0
602,-762,0,0,0,0,0,0,0,0,0,-1,1826,1786,0,0
609,-762,0,0,0,0,0,0,0,0,0,-1,1833,1786,0,0
616,-762,0,0,0,0,0,0,0,0,0,-1,1840,1786,0,0
623,-762,0,0,0,0,0,0,0,0,0,-1,1847,1786,0,0
630,-762,0,0,0,0,0,0,0,0,0,-1,1854,1786,0,0
637,-762,0,0,0,0,0,0,0,0,0,-1,1861,1786,0,0
644,-762,0,0,0,0,0,0,0,0,0,-1,1868,1786,0,0
651,-762,0,0,0,0,0,0,0,0,0,-1,1875,1786,0,0
658,-762,0,0,0,0,0,0,0,0,0,-1,1882,1786,0,0
665,-762,0,0,0,0,0,0,0,0,0,-1,1889,1786,0,0
672,-762,0,0,0,0,0,0,0,0,0,-1,1896,1786,0,0
679,-762,0,0,0,0,0,0,0,0,0,-1,1903,1786,0,0
686,-762,0,0,0,0,0,0,0,0,0,-1,1910,1786,0,0
693,-762,0,0,0,0,0,0,0,0,0,-1,1917,1786,0,0
700,-762,0,0,0,0,0,0,0,0,0,-1,1924,1786,0,0
707,-762,0,0,0,0,0,0,0,0,0,-1,1931,1786,0,0
714,-762,0,0,0,0,0,0,0,0,0,-1,1938,1786,0,0
721,-762,0,0,0,0,0,0,0,0,0,-1,1945,1786,0,0
728,-762,0,0,0,0,0,0,0,0,0,-1,1952,1786,0,0
735,-762,0,0,0,0,0,0,0,0,0,-1,1959,1786,0,0
742,-762,0,0,0,0,0,0,0,0,0,-1,1966,1786,0,0
749,-762,0,0,0,0,0,0,0,0,0,-1,1973,1786,0,0
756,-762,0,0,0,0,0,0,0,0,0,-1,1980,1786,0,0
763,-762,0,0,0,0,0,0,0,0,0,-1,1987,1786,0,0
770,-762,0,0,0,0,0,0,0,0,0,-1,1994,1786,0,0
777,-762,0,0,0,0,0,0,0,0,0,-1,2001,1786,0,0
784,-762,0,0,0,0,0,0,0,0,0,-1,2008,1786,0,0
791,-762,0,0,0,0,0,0,0,0,0,-1,2015,1786,0,0
798,-762,0,0,0,0,0,0,0,0,0,-1,2022,1786,0,0
805,-762,0,0,0,0,0,0,0,0,0,-1,2029,1786,0,0
812,-762,0,0,0,0,0,0,0,0,0,-1,2036,1786,0,0
-700,-769,0,0,0,0,0,0,0,0,0,-1,524,1793,0,0
-693,-769,0,0,0,0,0,0,0,0,0,-1,531,1793,0,0
-686,-769,0,0,0,0,0,0,0,0,0,-1,538,1793,0,0
-679,-769,0,0,0,0,0,0,0,0,0,-1,545,1793,0,0
-672,-769,0,0,0,0,0,0,0,0,0,-1,552,1793,0,0
-665,-769,0,0,0,0,0,0,0,0,0,-1,559,1793,0,0
-658,-769,0,0,0,0,0,0,0,0,0,-1,566,1793,0,0
-651,-769,0,0,0,0,0,0,0,0,0,-1,573,1793,0,0
-644,-769,0,0,0,0,0,0,0,0,0,-1,580,1793,0,0
-637,-769,0,0,0,0,0,0,0,0,0,-1,587,1793,0,0
-630,-769,0,0,0,0,0,0,0,0,0,-1,594,1793,0,0
-623,-769,0,0,0,0,0,0,0,0,0,-1,601,1793,0,0
-616,-769,0,0,0,0,0,0,0,0,0,-1,608,1793,0,0
-609,-769,0,0,0,0,0,0,0,0,0,-1,615,1793,0,0
-602,-769,0,0,0,0,0,0,0,0,0,-1,622,1793,0,0
-595,-769,0,0,0,0,0,0,0,0,0,-1,629,1793,0,0
-588,-769,0,0,0,0,0,0,0,0,0,-1,636,1793,0,0
-581,-769,0,0,0,0,0,0,0,0,0,-1,643,1793,0,0
-574,-769,0,0,0,0,0,0,0,0,0,-1,650,1793,0,0
-567,-769,0,0,0,0,0,0,0,0,0,-1,657,1793,0,0
-560,-769,0,0,0,0,0,0,0,0,0,-1,664,1793,0,0
-553,-769,0,0,0,0,0,0,0,0,0,-1,671,1793,0,0
-546,-769,0,0,0,0,0,0,0,0,0,-1,678,1793,0,0
-539,-769,0,0,0,0,0,0,0,0,0,-1,685,1793,0,0
-532,-769,0,0,0,0,0,0,0,0,0,-1,692,1793,0,0
-525,-769,0,0,0,0,0,0,0,0,0,-1,699,1793,0,0
-518,-769,0,0,0,0,0,0,0,0,0,-1,706,1793,0,0
-511,-769,0,0,0,0,0,0,0,0,0,-1,713,1793,0,0
-504,-769,0,0,0,0,0,0,0,0,0,-1,720,1793,0,0
-497,-769,0,0,0,0,0,0,0,0,0,-1,727,1793,0,0
-490,-769,0,0,0,0,0,0,0,0,0,-1,734,1793,0,0
-483,-769,0,0,0,0,0,0,0,0,0,-1,741,1793,0,0
-476,-769,0,0,0,0,0,0,0,0,0,-1,748,1793,0,0
-469,-769,0,0,0,0,0,0,0,0,0,-1,755,1793,0,0
-462,-769,0,0,0,0,0,0,0,0,0,-1,762,1793,0,0
-455,-769,0,0,0,0,0,0,0,0,0,-1,769,1793,0,0
-448,-769,0,0,0,0,0,0,0,0,0,-1,776,1793,0,0
-441,-769,0,0,0,0,0,0,0,0,0,-1,783,1793,0,0
-434,-769,0,0,0,0,0,0,0,0,0,-1,790,1793,0,0
-427,-769,0,0,0,0,0,0,0,0,0,-1,797,1793,0,0
-420,-769,0,0,0,0,0,0,0,0,0,-1,804,1793,0,0
-413,-769,0,0,0,0,0,0,0,0,0,-1,811,1793,0,0
-406,-769,0,0,0,0,0,0,0,0,0,-1,818,1793,0,0
-399,-769,0,0,0,0,0,0,0,0,0,-1,825,1793,0,0
-392,-769,0,0,0,0,0,0,0,0,0,-1,832,1793,0,0
-385,-769,0,0,0,0,0,0,0,0,0,-1,839,1793,0,0
-378,-769,0,0,0,0,0,0,0,0,0,-1,846,1793,0,0
-371,-769,0,0,0,0,0,0,0,0,0,-1,853,1793,0,0
-364,-769,0,0,0,0,0,0,0,0,0,-1,860,1793,0,0
-357,-769,0,0,0,0,0,0,0,0,0,-1,867,1793,0,0
-350,-769,0,0,0,0,0,0,0,0,0,-1,874,1793,0,0
-343,-769,0,0,0,0,0,0,0,0,0,-1,881,1793,0,0
-336,-769,0,0,0,0,0,0,0,0,0,-1,888,1793,0,0
-329,-769,0,0,0,0,0,0,0,0,0,-1,895,1793,0,0
-322,-769,0,0,0,0,0,0,0,0,0,-1,902,1793,0,0
-315,-769,0,0,0,0,0,0,0,0,0,-1,909,1793,0,0
-308,-769,0,0,0,0,0,0,0,0,0,-1,916,1793,0,0
-301,-769,0,0,0,0,0,0,0,0,0,-1,923,1793,0,0
-294,-769,0,0,0,0,0,0,0,0,0,-1,930,1793,0,0
-287,-769,0,0,0,0,0,0,0,0,0,-1,937,1793,0,0
-280,-769,0,0,0,0,0,0,0,0,0,-1,944,1793,0,0
-273,-769,0,0,0,0,0,0,0,0,0,-1,951,1793,0,0
-266,-769,0,0,0,0,0,0,0,0,0,-1,958,1793,0,0
-259,-769,0,0,0,0,0,0,0,0,0,-1,965,1793,0,0
-252,-769,0,0,0,0,0,0,0,0,0,-1,972,1793,0,0
-245,-769,0,0,0,0,0,0,0,0,0,-1,979,1793,0,0
-238,-769,0,0,0,0,0,0,0,0,0,-1,986,1793,0,0
-231,-769,0,0,0,0,0,0,0,0,0,-1,993,1793,0,0
-224,-769,0,0,0,0,0,0,0,0,0,-1,1000,1793,0,0
-217,-769,0,0,0,0,0,0,0,0,0,-1,1007,1793,0,0
-210,-769,0,0,0,0,0,0,0,0,0,-1,1014,1793,0,0
-203,-769,0,0,0,0,0,0,0,0,0,-1,1021,1793,0,0
-196,-769,0,0,0,0,0,0,0,0,0,-1,1028,1793,0,0
-189,-769,0,0,0,0,0,0,0,0,0,-1,1035,1793,0,0
-182,-769,0,0,0,0,0,0,0,0,0,-1,1042,1793,0,0
-175,-769,0,0,0,0,0,0,0,0,0,-1,1049,1793,0,0
-168,-769,0,0,0,0,0,0,0,0,0,-1,1056,1793,0,0
-161,-769,-3.61145,12.4761,0,0,0,0,0,0,0,-1,1063,1793,-3.6114,-12.476
-154,-769,-0.813232,5.32874,0,0,0,0,0,0,0,-1,1070,1793,-0.813269,-5.32872
-147,-769,4.26587,4.7002,0,0,0,0,0,0,0,-1,1077,1793,4.26593,-4.70022
-140,-769,4.10376,5.28589,0,0,0,0,0,0,0,-1,1084,1793,4.10371,-5.28584
-133,-769,6.422,8.21777,0,0,0,0,0,0,0,-1,1091,1793,6.42198,-8.21773
-126,-769,-0.352295,19.326,0,0,0,0,0,0,0,-1,1098,1793,-0.352235,-19.326
-119,-769,6.01685,16.2577,0,0,0,0,0,0,0,-1,1105,1793,6.01689,-16.2576
-112,-769,5.76416,27.2615,0,0,0,0,0,0,0,-1,1112,1793,5.7642,-27.2615
-105,-769,4.97009,22.8479,0,0,0,0,0,0,0,-1,1119,1793,4.97006,-22.8479
-98,-769,4.69373,18.9142,0,0,0,0,0,0,0,-1,1126,1793,4.69376,-18.9142
-91,-769,4.41748,14.9805,0,0,0,0,0,0,0,-1,1133,1793,4.41746,-14.9805
-84,-769,3.2207,12.4565,0,0,0,0,0,0,0,-1,1140,1793,3.22066,-12.4565
-77,-769,2.48816,8.98486,0,0,0,0,0,0,0,-1,1147,1793,2.48815,-8.98489
-70,-769,1.04944,11.9852,0,0,0,0,0,0,0,-1,1154,1793,1.04947,-11.9852
-63,-769,-2.39709,9.60339,0,0,0,0,0,0,0,-1,1161,1793,-2.39706,-9.6034
-56,-769,-5.84363,7.22156,0,0,0,0,0,0,0,-1,1168,1793,-5.84359,-7.22157
-49,-769,-2.41443,3.95471,0,0,0,0,0,0,0,-1,1175,1793,-2.41446,-3.95471
-42,-769,-3.1991,2.64941,0,0,0,0,0,0,0,-1,1182,1793,-3.19914,-2.64944
-35,-769,-3.50183,1.73389,0,0,0,0,0,0,0,-1,1189,1793,-3.50189,-1.7339
-28,-769,-3.96985,1.14075,0,0,0,0,0,0,0,-1,1196,1793,-3.96985,-1.14078
-21,-769,0.525635,330.234,0,0,0,0,0,0,0,-1,1203,1793,0.525654,-330.234
-14,-769,10.575,332.548,0,0,0,0,0,0,0,-1,1210,1793,10.575,-332.548
-7,-769,11.0596,332.887,0,0,0,0,0,0,0,-1,1217,1793,11.0595,-332.887
0,-769,11.1501,333.504,0,0,0,0,0,0,0,-1,1224,1793,11.1501,-333.504
7,-769,11.231,334.067,0.0809652,0.0658581,0.0174325,0.0924104,0.054413,0.580957,0.053633,0.0442446,1231,1793,11.231,-334.067
14,-769,11.2389,334.691,0,0,0,0,0,0,0,-1,1238,1793,11.2389,-334.691
21,-769,11.2406,335.257,0,0,0,0,0,0,0,-1,1245,1793,11.2406,-335.257
28,-769,11.8944,340.783,0,0,0,0,0,0,0,-1,1252,1793,11.8944,-340.783
35,-769,9.43481,340.691,0,0,0,0,0,0,0,-1,1259,1793,9.43485,-340.691
42,-769,15.5077,339.88,0,0,0,0,0,0,0,-1,1266,1793,15.5077,-339.88
49,-769,12.3354,339.319,0,0,0,0,0,0,0,-1,1273,1793,12.3355,-339.319
56,-769,12.7106,338.828,0,0,0,0,0,0,0,-1,1280,1793,12.7106,-338.828
63,-769,11.3407,338.804,0,0,0,0,0,0,0,-1,1287,1793,11.3407,-338.804
70,-769,11.3052,338.262,0,0,0,0,0,0,0,-1,1294,1793,11.3052,-338.262
77,-769,11.3328,338.377,0.0792826,0.0794247,-0.023577,0.102931,0.0557765,-0.786905,0.0594966,0.0459624,1301,1793,11.3328,-338.377
84,-769,11.499,338.213,0.0704074,0.0696513,-0.030847,0.100879,0.03918,-0.779271,0.058724,0.0470063,1308,1793,11.4991,-338.213
91,-769,11.6462,338.068,0,0,0,0,0,0,0,-1,1315,1793,11.6462,-338.068
98,-769,11.4557,337.764,0.0492012,0.0440554,-0.040568,0.0872778,0.00597882,-0.75373,0.0562982,0.0446605,1322,1793,11.4557,-337.764
105,-769,11.191,337.505,0.0389827,0.0301041,-0.0437384,0.0785065,-0.00941977,-0.734823,0.0557435,0.0440971,1329,1793,11.191,-337.505
112,-769,10.9545,337.208,0,0,0,0,0,0,0,-1,1336,1793,10.9544,-337.208
119,-769,10.8052,336.496,0.0201984,0.00320316,-0.0496172,0.0620403,-0.0386388,-0.700589,0.0586482,0.0429101,1343,1793,10.8052,-336.496
126,-769,10.5035,335.427,0.0127388,-0.00821628,-0.0517561,0.0550673,-0.0505447,-0.685527,0.0609938,0.0450548,1350,1793,10.5035,-335.427
133,-769,10.2412,334.458,0,0,0,0,0,0,0,-1,1357,1793,10.2413,-334.458
140,-769,13.3756,336.609,0,0,0,0,0,0,0,-1,1364,1793,13.3756,-336.609
147,-769,1.39905,335.285,0,0,0,0,0,0,0,-1,1371,1793,1.39904,-335.285
154,-769,0.304077,329.875,0,0,0,0,0,0,0,-1,1378,1793,0.304114,-329.875
161,-769,6.57019,1.53223,0,0,0,0,0,0,0,-1,1385,1793,6.57019,-1.53226
168,-769,8.27637,0.756958,0,0,0,0,0,0,0,-1,1392,1793,8.27639,-0.756944
175,-769,8.47144,2.41174,0,0,0,0,0,0,0,-1,1399,1793,8.47147,-2.4118
182,-769,8.41479,4.05994,0,0,0,0,0,0,0,-1,1406,1793,8.41479,-4.05997
189,-769,8.25049,5.68433,0,0,0,0,0,0,0,-1,1413,1793,8.25054,-5.68428
196,-769,7.97729,7.42847,0,0,0,0,0,0,0,-1,1420,1793,7.9773,-7.42848
203,-769,22.0977,6.73889,0,0,0,0,0,0,0,-1,1427,1793,22.0977,-6.7389
210,-769,22.1115,7.77246,0,0,0,0,0,0,0,-1,1434,1793,22.1115,-7.77248
217,-769,22.4723,8.79102,0,0,0,0,0,0,0,-1,1441,1793,22.4723,-8.79099
224,-769,22.1348,9.35278,0,0,0,0,0,0,0,-1,1448,1793,22.1348,-9.35283
231,-769,3.13318,19.7184,0,0,0,0,0,0,0,-1,1455,1793,3.13323,-19.7184
238,-769,5.74512,18.6597,0,0,0,0,0,0,0,-1,1462,1793,5.74512,-18.6596
245,-769,5.80798,22.87,0,0,0,0,0,0,0,-1,1469,1793,5.80796,-22.87
252,-769,6.20837,28.394,0,0,0,0,0,0,0,-1,1476,1793,6.20833,-28.3941
259,-769,10.974,17.7698,0,0,0,0,0,0,0,-1,1483,1793,10.974,-17.7698
266,-769,15.8488,7.3905,0,0,0,0,0,0,0,-1,1490,1793,15.8488,-7.39046
273,-769,14.8075,7.56152,0,0,0,0,0,0,0,-1,1497,1793,14.8075,-7.56152
280,-769,13.6519,7.43054,0,0,0,0,0,0,0,-1,1504,1793,13.6518,-7.43058
287,-769,0,0,0,0,0,0,0,0,0,-1,1511,1793,0,0
294,-769,0,0,0,0,0,0,0,0,0,-1,1518,1793,0,0
301,-769,0,0,0,0,0,0,0,0,0,-1,1525,1793,0,0
308,-769,0,0,0,0,0,0,0,0,0,-1,1532,1793,0,0
315,-769,0,0,0,0,0,0,0,0,0,-1,1539,1793,0,0
322,-769,0,0,0,0,0,0,0,0,0,-1,1546,1793,0,0
329,-769,0,0,0,0,0,0,0,0,0,-1,1553,1793,0,0
336,-769,0,0,0,0,0,0,0,0,0,-1,1560,1793,0,0
343,-769,0,0,0,0,0,0,0,0,0,-1,1567,1793,0,0
350,-769,0,0,0,0,0,0,0,0,0,-1,1574,1793,0,0
357,-769,0,0,0,0,0,0,0,0,0,-1,1581,1793,0,0
364,-769,0,0,0,0,0,0,0,0,0,-1,1588,1793,0,0
371,-769,0,0,0,0,0,0,0,0,0,-1,1595,1793,0,0
378,-769,0,0,0,0,0,0,0,0,0,-1,1602,1793,0,0
385,-769,0,0,0,0,0,0,0,0,0,-1,1609,1793,0,0
392,-769,0,0,0,0,0,0,0,0,0,-1,1616,1793,0,0
399,-769,0,0,0,0,0,0,0,0,0,-1,1623,1793,0,0
406,-769,0,0,0,0,0,0,0,0,0,-1,1630,1793,0,0
413,-769,0,0,0,0,0,0,0,0,0,-1,1637,1793,0,0
420,-769,0,0,0,0,0,0,0,0,0,-1,1644,1793,0,0
427,-769,0,0,0,0,0,0,0,0,0,-1,1651,1793,0,0
434,-769,0,0,0,0,0,0,0,0,0,-1,1658,1793,0,0
441,-769,0,0,0,0,0,0,0,0,0,-1,1665,1793,0,0
448,-769,0,0,0,0,0,0,0,0,0,-1,1672,1793,0,0
455,-769,0,0,0,0,0,0,0,0,0,-1,1679,1793,0,0
462,-769,0,0,0,0,0,0,0,0,0,-1,1686,1793,0,0
469,-769,0,0,0,0,0,0,0,0,0,-1,1693,1793,0,0
476,-769,0,0,0,0,0,0,0,0,0,-1,1700,1793,0,0
483,-769,0,0,0,0,0,0,0,0,0,-1,1707,1793,0,0
490,-769,0,0,0,0,0,0,0,0,0,-1,1714,1793,0,0
497,-769,0,0,0,0,0,0,0,0,0,-1,1721,1793,0,0
504,-769,0,0,0,0,0,0,0,0,0,-1,1728,1793,0,0
511,-769,0,0,0,0,0,0,0,0,0,-1,1735,1793,0,0
518,-769,0,0,0,0,0,0,0,0,0,-1,1742,1793,0,0
525,-769,0,0,0,0,0,0,0,0,0,-1,1749,1793,0,0
532,-769,0,0,0,0,0,0,0,0,0,-1,1756,1793,0,0
539,-769,0,0,0,0,0,0,0,0,0,-1,1763,1793,0,0
546,-769,0,0,0,0,0,0,0,0,0,-1,1770,1793,0,0
553,-769,0,0,0,0,0,0,0,0,0,-1,1777,1793,0,0
560,-769,0,0,0,0,0,0,0,0,0,-1,1784,1793,0,0
567,-769,0,0,0,0,0,0,0,0,0,-1,1791,1793,0,0
574,-769,0,0,0,0,0,0,0,0,0,-1,1798,1793,0,0
581,-769,0,0,0,0,0,0,0,0,0,-1,1805,1793,0,0
588,-769,0,0,0,0,0,0,0,0,0,-1,1812,1793,0,0
595,-769,0,0,0,0,0,0,0,0,0,-1,1819,1793,0,0
602,-769,0,0,0,0,0,0,0,0,0,-1,1826,1793,0,0
609,-769,0,0,0,0,0,0,0,0,0,-1,1833,1793,0,0
616,-769,0,0,0,0,0,0,0,0,0,-1,1840,1793,0,0
623,-769,0,0,0,0,0,0,0,0,0,-1,1847,1793,0,0
630,-769,0,0,0,0,0,0,0,0,0,-1,1854,1793,0,0
637,-769,0,0,0,0,0,0,0,0,0,-1,1861,1793,0,0
644,-769,0,0,0,0,0,0,0,0,0,-1,1868,1793,0,0
651,-769,0,0,0,0,0,0,0,0,0,-1,1875,1793,0,0
658,-769,0,0,0,0,0,0,0,0,0,-1,1882,1793,0,0
665,-769,0,0,0,0,0,0,0,0,0,-1,1889,1793,0,0
672,-769,0,0,0,0,0,0,0,0,0,-1,1896,1793,0,0
679,-769,0,0,0,0,0,0,0,0,0,-1,1903,1793,0,0
686,-769,0,0,0,0,0,0,0,0,0,-1,1910,1793,0,0
693,-769,0,0,0,0,0,0,0,0,0,-1,1917,1793,0,0
700,-769,0,0,0,0,0,0,0,0,0,-1,1924,1793,0,0
707,-769,0,0,0,0,0,0,0,0,0,-1,1931,1793,0,0
714,-769,0,0,0,0,0,0,0,0,0,-1,1938,1793,0,0
721,-769,0,0,0,0,0,0,0,0,0,-1,1945,1793,0,0
728,-769,0,0,0,0,0,0,0,0,0,-1,1952,1793,0,0
735,-769,0,0,0,0,0,0,0,0,0,-1,1959,1793,0,0
742,-769,0,0,0,0,0,0,0,0,0,-1,1966,1793,0,0
749,-769,0,0,0,0,0,0,0,0,0,-1,1973,1793,0,0
756,-769,0,0,0,0,0,0,0,0,0,-1,1980,1793,0,0
763,-769,0,0,0,0,0,0,0,0,0,-1,1987,1793,0,0
770,-769,0,0,0,0,0,0,0,0,0,-1,1994,1793,0,0
777,-769,0,0,0,0,0,0,0,0,0,-1,2001,1793,0,0
784,-769,0,0,0,0,0,0,0,0,0,-1,2008,1793,0,0
791,-769,0,0,0,0,0,0,0,0,0,-1,2015,1793,0,0
798,-769,0,0,0,0,0,0,0,0,0,-1,2022,1793,0,0
805,-769,0,0,0,0,0,0,0,0,0,-1,2029,1793,0,0
812,-769,0,0,0,0,0,0,0,0,0,-1,2036,1793,0,0
-700,-776,0,0,0,0,0,0,0,0,0,-1,524,1800,0,0
-693,-776,0,0,0,0,0,0,0,0,0,-1,531,1800,0,0
-686,-776,0,0,0,0,0,0,0,0,0,-1,538,1800,0,0
-679,-776,0,0,0,0,0,0,0,0,0,-1,545,1800,0,0
-672,-776,0,0,0,0,0,0,0,0,0,-1,552,1800,0,0
-665,-776,0,0,0,0,0,0,0,0,0,-1,559,1800,0,0
-658,-776,0,0,0,0,0,0,0,0,0,-1,566,1800,0,0
-651,-776,0,0,0,0,0,0,0,0,0,-1,573,1800,0,0
-644,-776,0,0,0,0,0,0,0,0,0,-1,580,1800,0,0
-637,-776,0,0,0,0,0,0,0,0,0,-1,587,1800,0,0
-630,-776,0,0,0,0,0,0,0,0,0,-1,594,1800,0,0
-623,-776,0,0,0,0,0,0,0,0,0,-1,601,1800,0,0
-616,-776,0,0,0,0,0,0,0,0,0,-1,608,1800,0,0
-609,-776,0,0,0,0,0,0,0,0,0,-1,615,1800,0,0
-602,-776,0,0,0,0,0,0,0,0,0,-1,622,1800,0,0
-595,-776,0,0,0,0,0,0,0,0,0,-1,629,1800,0,0
-588,-776,0,0,0,0,0,0,0,0,0,-1,636,1800,0,0
-581,-776,0,0,0,0,0,0,0,0,0,-1,643,1800,0,0
-574,-776,0,0,0,0,0,0,0,0,0,-1,650,1800,0,0
-567,-776,0,0,0,0,0,0,0,0,0,-1,657,1800,0,0
-560,-776,0,0,0,0,0,0,0,0,0,-1,664,1800,0,0
-553,-776,0,0,0,0,0,0,0,0,0,-1,671,1800,0,0
-546,-776,0,0,0,0,0,0,0,0,0,-1,678,1800,0,0
-539,-776,0,0,0,0,0,0,0,0,0,-1,685,1800,0,0
-532,-776,0,0,0,0,0,0,0,0,0,-1,692,1800,0,0
-525,-776,0,0,0,0,0,0,0,0,0,-1,699,1800,0,0
-518,-776,0,0,0,0,0,0,0,0,0,-1,706,1800,0,0
-511,-776,0,0,0,0,0,0,0,0,0,-1,713,1800,0,0
-504,-776,0,0,0,0,0,0,0,0,0,-1,720,1800,0,0
-497,-776,0,0,0,0,0,0,0,0,0,-1,727,1800,0,0
-490,-776,0,0,0,0,0,0,0,0,0,-1,734,1800,0,0
-483,-776,0,0,0,0,0,0,0,0,0,-1,741,1800,0,0
-476,-776,0,0,0,0,0,0,0,0,0,-1,748,1800,0,0
-469,-776,0,0,0,0,0,0,0,0,0,-1,755,1800,0,0
-462,-776,0,0,0,0,0,0,0,0,0,-1,762,1800,0,0
-455,-776,0,0,0,0,0,0,0,0,0,-1,769,1800,0,0
-448,-776,0,0,0,0,0,0,0,0,0,-1,776,1800,0,0
-441,-776,0,0,0,0,0,0,0,0,0,-1,783,1800,0,0
-434,-776,0,0,0,0,0,0,0,0,0,-1,790,1800,0,0
-427,-776,0,0,0,0,0,0,0,0,0,-1,797,1800,0,0
-420,-776,0,0,0,0,0,0,0,0,0,-1,804,1800,0,0
-413,-776,0,0,0,0,0,0,0,0,0,-1,811,1800,0,0
-406,-776,0,0,0,0,0,0,0,0,0,-1,818,1800,0,0
-399,-776,0,0,0,0,0,0,0,0,0,-1,825,1800,0,0
-392,-776,0,0,0,0,0,0,0,0,0,-1,832,1800,0,0
-385,-776,0,0,0,0,0,0,0,0,0,-1,839,1800,0,0
-378,-776,0,0,0,0,0,0,0,0,0,-1,846,1800,0,0
-371,-776,0,0,0,0,0,0,0,0,0,-1,853,1800,0,0
-364,-776,0,0,0,0,0,0,0,0,0,-1,860,1800,0,0
-357,-776,0,0,0,0,0,0,0,0,0,-1,867,1800,0,0
-350,-776,0,0,0,0,0,0,0,0,0,-1,874,1800,0,0
-343,-776,0,0,0,0,0,0,0,0,0,-1,881,1800,0,0
-336,-776,0,0,0,0,0,0,0,0,0,-1,888,1800,0,0
-329,-776,0,0,0,0,0,0,0,0,0,-1,895,1800,0,0
-322,-776,0,0,0,0,0,0,0,0,0,-1,902,1800,0,0
-315,-776,0,0,0,0,0,0,0,0,0,-1,909,1800,0,0
-308,-776,0,0,0,0,0,0,0,0,0,-1,916,1800,0,0
-301,-776,0,0,0,0,0,0,0,0,0,-1,923,1800,0,0
-294,-776,0,0,0,0,0,0,0,0,0,-1,930,1800,0,0
-287,-776,0,0,0,0,0,0,0,0,0,-1,937,1800,0,0
-280,-776,0,0,0,0,0,0,0,0,0,-1,944,1800,0,0
-273,-776,0,0,0,0,0,0,0,0,0,-1,951,1800,0,0
-266,-776,0,0,0,0,0,0,0,0,0,-1,958,1800,0,0
-259,-776,0,0,0,0,0,0,0,0,0,-1,965,1800,0,0
-252,-776,0,0,0,0,0,0,0,0,0,-1,972,1800,0,0
-245,-776,0,0,0,0,0,0,0,0,0,-1,979,1800,0,0
-238,-776,0,0,0,0,0,0,0,0,0,-1,986,1800,0,0
-231,-776,0,0,0,0,0,0,0,0,0,-1,993,1800,0,0
-224,-776,0,0,0,0,0,0,0,0,0,-1,1000,1800,0,0
-217,-776,0,0,0,0,0,0,0,0,0,-1,1007,1800,0,0
-210,-776,0,0,0,0,0,0,0,0,0,-1,1014,1800,0,0
-203,-776,0,0,0,0,0,0,0,0,0,-1,1021,1800,0,0
-196,-776,0,0,0,0,0,0,0,0,0,-1,1028,1800,0,0
-189,-776,0,0,0,0,0,0,0,0,0,-1,1035,1800,0,0
-182,-776,0,0,0,0,0,0,0,0,0,-1,1042,1800,0,0
-175,-776,0,0,0,0,0,0,0,0,0,-1,1049,1800,0,0
-168,-776,0,0,0,0,0,0,0,0,0,-1,1056,1800,0,0
-161,-776,0,0,0,0,0,0,0,0,0,-1,1063,1800,0,0
-154,-776,0,0,0,0,0,0,0,0,0,-1,1070,1800,0,0
-147,-776,0,0,0,0,0,0,0,0,0,-1,1077,1800,0,0
-140,-776,2.98499,5.20911,0,0,0,0,0,0,0,-1,1084,1800,2.98493,-5.2091
-133,-776,6.72363,9.35828,0,0,0,0,0,0,0,-1,1091,1800,6.72358,-9.35824
-126,-776,6.55029,13.7832,0,0,0,0,0,0,0,-1,1098,1800,6.55029,-13.7832
-119,-776,5.72107,13.7787,0,0,0,0,0,0,0,-1,1105,1800,5.72106,-13.7787
-112,-776,6.84998,20.4421,0,0,0,0,0,0,0,-1,1112,1800,6.84993,-20.4421
-105,-776,4.46863,24.6742,0,0,0,0,0,0,0,-1,1119,1800,4.46868,-24.6742
-98,-776,4.31616,19.7659,0,0,0,0,0,0,0,-1,1126,1800,4.31619,-19.7659
-91,-776,3.30225,18.134,0,0,0,0,0,0,0,-1,1133,1800,3.30222,-18.134
-84,-776,2.67932,14.3162,0,0,0,0,0,0,0,-1,1140,1800,2.67926,-14.3161
-77,-776,0.580078,11.1272,0,0,0,0,0,0,0,-1,1147,1800,0.58002,-11.1272
-70,-776,-0.562866,12.3163,0,0,0,0,0,0,0,-1,1154,1800,-0.562897,-12.3163
-63,-776,-3.96106,9.97656,0,0,0,0,0,0,0,-1,1161,1800,-3.961,-9.97654
-56,-776,-7.35913,7.63672,0,0,0,0,0,0,0,-1,1168,1800,-7.3591,-7.63676
-49,-776,-7.62952,3.1908,0,0,0,0,0,0,0,-1,1175,1800,-7.62955,-3.19076
-42,-776,-3.41272,3.0249,0,0,0,0,0,0,0,-1,1182,1800,-3.41269,-3.02488
-35,-776,-3.71753,1.63635,0,0,0,0,0,0,0,-1,1189,1800,-3.71755,-1.63631
-28,-776,-4.03979,0.716064,0,0,0,0,0,0,0,-1,1196,1800,-4.03977,-0.716055
-21,-776,9.51221,332.144,0,0,0,0,0,0,0,-1,1203,1800,9.51216,-332.144
-14,-776,10.0654,332.381,0,0,0,0,0,0,0,-1,1210,1800,10.0654,-332.381
-7,-776,10.5116,332.953,0,0,0,0,0,0,0,-1,1217,1800,10.5116,-332.953
0,-776,11.4259,333.105,0,0,0,0,0,0,0,-1,1224,1800,11.4259,-333.105
7,-776,11.5229,333.668,0,0,0,0,0,0,0,-1,1231,1800,11.523,-333.668
14,-776,11.5953,334.293,0,0,0,0,0,0,0,-1,1238,1800,11.5953,-334.293
21,-776,12.756,336.173,0,0,0,0,0,0,0,-1,1245,1800,12.756,-336.173
28,-776,13.5897,337.151,0,0,0,0,0,0,0,-1,1252,1800,13.5897,-337.151
35,-776,14.5609,338.267,0,0,0,0,0,0,0,-1,1259,1800,14.5609,-338.267
42,-776,15.5935,339.334,0,0,0,0,0,0,0,-1,1266,1800,15.5935,-339.334
49,-776,16.6332,340.687,0,0,0,0,0,0,0,-1,1273,1800,16.6332,-340.687
56,-776,17.2931,341.974,0,0,0,0,0,0,0,-1,1280,1800,17.2931,-341.974
63,-776,18.5974,342.786,0,0,0,0,0,0,0,-1,1287,1800,18.5975,-342.786
70,-776,19.8477,343.412,0,0,0,0,0,0,0,-1,1294,1800,19.8477,-343.413
77,-776,11.0708,338.415,0.094559,0.10276,-0.0242038,0.123208,0.0741107,-0.869307,0.0716212,0.0472643,1301,1800,11.0708,-338.415
84,-776,11.1543,337.667,0.0835957,0.0899735,-0.0336452,0.120581,0.0529886,-0.832646,0.0697872,0.0476034,1308,1800,11.1543,-337.667
91,-776,11.6116,338.543,0,0,0,0,0,0,0,-1,1315,1800,11.6115,-338.543
98,-776,11.4458,338.151,0.0551472,0.0547685,-0.0471513,0.10211,0.00780619,-0.78339,0.0656259,0.0414974,1322,1800,11.4458,-338.151
105,-776,10.9976,337.863,0.0409563,0.0354715,-0.0518789,0.0901653,-0.0137374,-0.758992,0.0651738,0.042376,1329,1800,10.9976,-337.863
112,-776,10.8569,337.646,0,0,0,0,0,0,0,-1,1336,1800,10.8569,-337.646
119,-776,10.3013,336.254,0.0150782,-0.00096471,-0.0605113,0.0680974,-0.0539839,-0.719502,0.0706405,0.0425521,1343,1800,10.3013,-336.254
126,-776,9.99158,335.39,0.0048079,-0.0164466,-0.0637201,0.0587809,-0.0704196,-0.702769,0.0746947,0.0458353,1350,1800,9.99161,-335.39
133,-776,9.77954,334.417,0,0,0,0,0,0,0,-1,1357,1800,9.77952,-334.417
140,-776,15.0013,336.435,0,0,0,0,0,0,0,-1,1364,1800,15.0014,-336.435
147,-776,14.8972,336.452,0,0,0,0,0,0,0,-1,1371,1800,14.8973,-336.452
154,-776,38.4338,21.854,0,0,0,0,0,0,0,-1,1378,1800,38.4339,-21.854
161,-776,6.50293,1.1731,0,0,0,0,0,0,0,-1,1385,1800,6.5029,-1.17313
168,-776,8.44971,1.22913,0,0,0,0,0,0,0,-1,1392,1800,8.44974,-1.22915
175,-776,8.61523,2.87061,0,0,0,0,0,0,0,-1,1399,1800,8.6152,-2.87063
182,-776,8.54065,4.60645,0,0,0,0,0,0,0,-1,1406,1800,8.5407,-4.60643
189,-776,8.35303,6.28223,0,0,0,0,0,0,0,-1,1413,1800,8.35297,-6.28225
196,-776,8.0387,8.21704,0,0,0,0,0,0,0,-1,1420,1800,8.03865,-8.217
203,-776,7.91736,9.79919,0,0,0,0,0,0,0,-1,1427,1800,7.91735,-9.79922
210,-776,20.2479,7.85718,0,0,0,0,0,0,0,-1,1434,1800,20.248,-7.85719
217,-776,21.5171,9.3418,0,0,0,0,0,0,0,-1,1441,1800,21.5171,-9.34182
224,-776,3.09253,14.9313,0,0,0,0,0,0,0,-1,1448,1800,3.09254,-14.9313
231,-776,20.8671,9.21057,0,0,0,0,0,0,0,-1,1455,1800,20.867,-9.21054
238,-776,20.7511,9.05847,0,0,0,0,0,0,0,-1,1462,1800,20.7511,-9.05848
245,-776,3.80823,15.4108,0,0,0,0,0,0,0,-1,1469,1800,3.80826,-15.4108
252,-776,8.57837,20.2009,0,0,0,0,0,0,0,-1,1476,1800,8.57841,-20.2009
259,-776,14.1882,7.69055,0,0,0,0,0,0,0,-1,1483,1800,14.1882,-7.69061
266,-776,0,0,0,0,0,0,0,0,0,-1,1490,1800,0,0
273,-776,0,0,0,0,0,0,0,0,0,-1,1497,1800,0,0
280,-776,0,0,0,0,0,0,0,0,0,-1,1504,1800,0,0
287,-776,0,0,0,0,0,0,0,0,0,-1,1511,1800,0,0
294,-776,0,0,0,0,0,0,0,0,0,-1,1518,1800,0,0
301,-776,0,0,0,0,0,0,0,0,0,-1,1525,1800,0,0
308,-776,0,0,0,0,0,0,0,0,0,-1,1532,1800,0,0
315,-776,0,0,0,0,0,0,0,0,0,-1,1539,1800,0,0
322,-776,0,0,0,0,0,0,0,0,0,-1,1546,1800,0,0
329,-776,0,0,0,0,0,0,0,0,0,-1,1553,1800,0,0
336,-776,0,0,0,0,0,0,0,0,0,-1,1560,1800,0,0
343,-776,0,0,0,0,0,0,0,0,0,-1,1567,1800,0,0
350,-776,0,0,0,0,0,0,0,0,0,-1,1574,1800,0,0
357,-776,0,0,0,0,0,0,0,0,0,-1,1581,1800,0,0
364,-776,0,0,0,0,0,0,0,0,0,-1,1588,1800,0,0
371,-776,0,0,0,0,0,0,0,0,0,-1,1595,1800,0,0
378,-776,0,0,0,0,0,0,0,0,0,-1,1602,1800,0,0
385,-776,0,0,0,0,0,0,0,0,0,-1,1609,1800,0,0
392,-776,0,0,0,0,0,0,0,0,0,-1,1616,1800,0,0
399,-776,0,0,0,0,0,0,0,0,0,-1,1623,1800,0,0
406,-776,0,0,0,0,0,0,0,0,0,-1,1630,1800,0,0
413,-776,0,0,0,0,0,0,0,0,0,-1,1637,1800,0,0
420,-776,0,0,0,0,0,0,0,0,0,-1,1644,1800,0,0
427,-776,0,0,0,0,0,0,0,0,0,-1,1651,1800,0,0
434,-776,0,0,0,0,0,0,0,0,0,-1,1658,1800,0,0
441,-776,0,0,0,0,0,0,0,0,0,-1,1665,1800,0,0
448,-776,0,0,0,0,0,0,0,0,0,-1,1672,1800,0,0
455,-776,0,0,0,0,0,0,0,0,0,-1,1679,1800,0,0
462,-776,0,0,0,0,0,0,0,0,0,-1,1686,1800,0,0
469,-776,0,0,0,0,0,0,0,0,0,-1,1693,1800,0,0
476,-776,0,0,0,0,0,0,0,0,0,-1,1700,1800,0,0
483,-776,0,0,0,0,0,0,0,0,0,-1,1707,1800,0,0
490,-776,0,0,0,0,0,0,0,0,0,-1,1714,1800,0,0
497,-776,0,0,0,0,0,0,0,0,0,-1,1721,1800,0,0
504,-776,0,0,0,0,0,0,0,0,0,-1,1728,1800,0,0
511,-776,0,0,0,0,0,0,0,0,0,-1,1735,1800,0,0
518,-776,0,0,0,0,0,0,0,0,0,-1,1742,1800,0,0
525,-776,0,0,0,0,0,0,0,0,0,-1,1749,1800,0,0
532,-776,0,0,0,0,0,0,0,0,0,-1,1756,1800,0,0
539,-776,0,0,0,0,0,0,0,0,0,-1,1763,1800,0,0
546,-776,0,0,0,0,0,0,0,0,0,-1,1770,1800,0,0
553,-776,0,0,0,0,0,0,0,0,0,-1,1777,1800,0,0
560,-776,0,0,0,0,0,0,0,0,0,-1,1784,1800,0,0
567,-776,0,0,0,0,0,0,0,0,0,-1,1791,1800,0,0
574,-776,0,0,0,0,0,0,0,0,0,-1,1798,1800,0,0
581,-776,0,0,0,0,0,0,0,0,0,-1,1805,1800,0,0
588,-776,0,0,0,0,0,0,0,0,0,-1,1812,1800,0,0
595,-776,0,0,0,0,0,0,0,0,0,-1,1819,1800,0,0
602,-776,0,0,0,0,0,0,0,0,0,-1,1826,1800,0,0
609,-776,0,0,0,0,0,0,0,0,0,-1,1833,1800,0,0
616,-776,0,0,0,0,0,0,0,0,0,-1,1840,1800,0,0
623,-776,0,0,0,0,0,0,0,0,0,-1,1847,1800,0,0
630,-776,0,0,0,0,0,0,0,0,0,-1,1854,1800,0,0
637,-776,0,0,0,0,0,0,0,0,0,-1,1861,1800,0,0
644,-776,0,0,0,0,0,0,0,0,0,-1,1868,1800,0,0
651,-776,0,0,0,0,0,0,0,0,0,-1,1875,1800,0,0
658,-776,0,0,0,0,0,0,0,0,0,-1,1882,1800,0,0
665,-776,0,0,0,0,0,0,0,0,0,-1,1889,1800,0,0
672,-776,0,0,0,0,0,0,0,0,0,-1,1896,1800,0,0
679,-776,0,0,0,0,0,0,0,0,0,-1,1903,1800,0,0
686,-776,0,0,0,0,0,0,0,0,0,-1,1910,1800,0,0
693,-776,0,0,0,0,0,0,0,0,0,-1,1917,1800,0,0
700,-776,0,0,0,0,0,0,0,0,0,-1,1924,1800,0,0
707,-776,0,0,0,0,0,0,0,0,0,-1,1931,1800,0,0
714,-776,0,0,0,0,0,0,0,0,0,-1,1938,1800,0,0
721,-776,0,0,0,0,0,0,0,0,0,-1,1945,1800,0,0
728,-776,0,0,0,0,0,0,0,0,0,-1,1952,1800,0,0
735,-776,0,0,0,0,0,0,0,0,0,-1,1959,1800,0,0
742,-776,0,0,0,0,0,0,0,0,0,-1,1966,1800,0,0
749,-776,0,0,0,0,0,0,0,0,0,-1,1973,1800,0,0
756,-776,0,0,0,0,0,0,0,0,0,-1,1980,1800,0,0
763,-776,0,0,0,0,0,0,0,0,0,-1,1987,1800,0,0
770,-776,0,0,0,0,0,0,0,0,0,-1,1994,1800,0,0
777,-776,0,0,0,0,0,0,0,0,0,-1,2001,1800,0,0
784,-776,0,0,0,0,0,0,0,0,0,-1,2008,1800,0,0
791,-776,0,0,0,0,0,0,0,0,0,-1,2015,1800,0,0
798,-776,0,0,0,0,0,0,0,0,0,-1,2022,1800,0,0
805,-776,0,0,0,0,0,0,0,0,0,-1,2029,1800,0,0
812,-776,0,0,0,0,0,0,0,0,0,-1,2036,1800,0,0
-700,-783,0,0,0,0,0,0,0,0,0,-1,524,1807,0,0
-693,-783,0,0,0,0,0,0,0,0,0,-1,531,1807,0,0
-686,-783,0,0,0,0,0,0,0,0,0,-1,538,1807,0,0
-679,-783,0,0,0,0,0,0,0,0,0,-1,545,1807,0,0
-672,-783,0,0,0,0,0,0,0,0,0,-1,552,1807,0,0
-665,-783,0,0,0,0,0,0,0,0,0,-1,559,1807,0,0
-658,-783,0,0,0,0,0,0,0,0,0,-1,566,1807,0,0
-651,-783,0,0,0,0,0,0,0,0,0,-1,573,1807,0,0
-644,-783,0,0,0,0,0,0,0,0,0,-1,580,1807,0,0
-637,-783,0,0,0,0,0,0,0,0,0,-1,587,1807,0,0
-630,-783,0,0,0,0,0,0,0,0,0,-1,594,1807,0,0
-623,-783,0,0,0,0,0,0,0,0,0,-1,601,1807,0,0
-616,-783,0,0,0,0,0,0,0,0,0,-1,608,1807,0,0
-609,-783,0,0,0,0,0,0,0,0,0,-1,615,1807,0,0
-602,-783,0,0,0,0,0,0,0,0,0,-1,622,1807,0,0
-595,-783,0,0,0,0,0,0,0,0,0,-1,629,1807,0,0
-588,-783,0,0,0,0,0,0,0,0,0,-1,636,1807,0,0
-581,-783,0,0,0,0,0,0,0,0,0,-1,643,1807,0,0
-574,-783,0,0,0,0,0,0,0,0,0,-1,650,1807,0,0
-567,-783,0,0,0,0,0,0,0,0,0,-1,657,1807,0,0
-560,-783,0,0,0,0,0,0,0,0,0,-1,664,1807,0,0
-553,-783,0,0,0,0,0,0,0,0,0,-1,671,1807,0,0
-546,-783,0,0,0,0,0,0,0,0,0,-1,678,1807,0,0
-539,-783,0,0,0,0,0,0,0,0,0,-1,685,1807,0,0
-532,-783,0,0,0,0,0,0,0,0,0,-1,692,1807,0,0
-525,-783,0,0,0,0,0,0,0,0,0,-1,699,1807,0,0
-518,-783,0,0,0,0,0,0,0,0,0,-1,706,1807,0,0
-511,-783,0,0,0,0,0,0,0,0,0,-1,713,1807,0,0
-504,-783,0,0,0,0,0,0,0,0,0,-1,720,1807,0,0
-497,-783,0,0,0,0,0,0,0,0,0,-1,727,1807,0,0
-490,-783,0,0,0,0,0,0,0,0,0,-1,734,1807,0,0
-483,-783,0,0,0,0,0,0,0,0,0,-1,741,1807,0,0
-476,-783,0,0,0,0,0,0,0,0,0,-1,748,1807,0,0
-469,-783,0,0,0,0,0,0,0,0,0,-1,755,1807,0,0
-462,-783,0,0,0,0,0,0,0,0,0,-1,762,1807,0,0
-455,-783,0,0,0,0,0,0,0,0,0,-1,769,1807,0,0
-448,-783,0,0,0,0,0,0,0,0,0,-1,776,1807,0,0
-441,-783,0,0,0,0,0,0,0,0,0,-1,783,1807,0,0
-434,-783,0,0,0,0,0,0,0,0,0,-1,790,1807,0,0
-427,-783,0,0,0,0,0,0,0,0,0,-1,797,1807,0,0
-420,-783,0,0,0,0,0,0,0,0,0,-1,804,1807,0,0
-413,-783,0,0,0,0,0,0,0,0,0,-1,811,1807,0,0
-406,-783,0,0,0,0,0,0,0,0,0,-1,818,1807,0,0
-399,-783,0,0,0,0,0,0,0,0,0,-1,825,1807,0,0
-392,-783,0,0,0,0,0,0,0,0,0,-1,832,1807,0,0
-385,-783,0,0,0,0,0,0,0,0,0,-1,839,1807,0,0
-378,-783,0,0,0,0,0,0,0,0,0,-1,846,1807,0,0
-371,-783,0,0,0,0,0,0,0,0,0,-1,853,1807,0,0
-364,-783,0,0,0,0,0,0,0,0,0,-1,860,1807,0,0
-357,-783,0,0,0,0,0,0,0,0,0,-1,867,1807,0,0
-350,-783,0,0,0,0,0,0,0,0,0,-1,874,1807,0,0
-343,-783,0,0,0,0,0,0,0,0,0,-1,881,1807,0,0
-336,-783,0,0,0,0,0,0,0,0,0,-1,888,1807,0,0
-329,-783,0,0,0,0,0,0,0,0,0,-1,895,1807,0,0
-322,-783,0,0,0,0,0,0,0,0,0,-1,902,1807,0,0
-315,-783,0,0,0,0,0,0,0,0,0,-1,909,1807,0,0
-308,-783,0,0,0,0,0,0,0,0,0,-1,916,1807,0,0
-301,-783,0,0,0,0,0,0,0,0,0,-1,923,1807,0,0
-294,-783,0,0,0,0,0,0,0,0,0,-1,930,1807,0,0
-287,-783,0,0,0,0,0,0,0,0,0,-1,937,1807,0,0
-280,-783,0,0,0,0,0,0,0,0,0,-1,944,1807,0,0
-273,-783,0,0,0,0,0,0,0,0,0,-1,951,1807,0,0
-266,-783,0,0,0,0,0,0,0,0,0,-1,958,1807,0,0
-259,-783,0,0,0,0,0,0,0,0,0,-1,965,1807,0,0
-252,-783,0,0,0,0,0,0,0,0,0,-1,972,1807,0,0
-245,-783,0,0,0,0,0,0,0,0,0,-1,979,1807,0,0
-238,-783,0,0,0,0,0,0,0,0,0,-1,986,1807,0,0
-231,-783,0,0,0,0,0,0,0,0,0,-1,993,1807,0,0
-224,-783,0,0,0,0,0,0,0,0,0,-1,1000,1807,0,0
-217,-783,0,0,0,0,0,0,0,0,0,-1,1007,1807,0,0
-210,-783,0,0,0,0,0,0,0,0,0,-1,1014,1807,0,0
-203,-783,0,0,0,0,0,0,0,0,0,-1,1021,1807,0,0
-196,-783,0,0,0,0,0,0,0,0,0,-1,1028,1807,0,0
-189,-783,0,0,0,0,0,0,0,0,0,-1,1035,1807,0,0
-182,-783,0,0,0,0,0,0,0,0,0,-1,1042,1807,0,0
-175,-783,0,0,0,0,0,0,0,0,0,-1,1049,1807,0,0
-168,-783,0,0,0,0,0,0,0,0,0,-1,1056,1807,0,0
-161,-783,0,0,0,0,0,0,0,0,0,-1,1063,1807,0,0
-154,-783,0,0,0,0,0,0,0,0,0,-1,1070,1807,0,0
-147,-783,0,0,0,0,0,0,0,0,0,-1,1077,1807,0,0
-140,-783,0,0,0,0,0,0,0,0,0,-1,1084,1807,0,0
-133,-783,0,0,0,0,0,0,0,0,0,-1,1091,1807,0,0
-126,-783,0,0,0,0,0,0,0,0,0,-1,1098,1807,0,0
-119,-783,0,0,0,0,0,0,0,0,0,-1,1105,1807,0,0
-112,-783,5.33936,14.7699,0,0,0,0,0,0,0,-1,1112,1807,5.33931,-14.7699
-105,-783,6.44263,21.2224,0,0,0,0,0,0,0,-1,1119,1807,6.44263,-21.2224
-98,-783,5.54773,20.5695,0,0,0,0,0,0,0,-1,1126,1807,5.54772,-20.5695
-91,-783,2.6106,20.2491,0,0,0,0,0,0,0,-1,1133,1807,2.61056,-20.2492
-84,-783,-0.0491943,14.5743,0,0,0,0,0,0,0,-1,1140,1807,-0.0491562,-14.5743
-77,-783,0.332764,12.7788,0,0,0,0,0,0,0,-1,1147,1807,0.332743,-12.7788
-70,-783,-1.93176,5.12817,0,0,0,0,0,0,0,-1,1154,1807,-1.93171,-5.12813
-63,-783,-5.31702,10.54,0,0,0,0,0,0,0,-1,1161,1807,-5.31703,-10.54
-56,-783,-6.26135,6.9679,0,0,0,0,0,0,0,-1,1168,1807,-6.26136,-6.96785
-49,-783,-3.17688,4.59705,0,0,0,0,0,0,0,-1,1175,1807,-3.17685,-4.5971
-42,-783,-3.72876,3.1405,0,0,0,0,0,0,0,-1,1182,1807,-3.72874,-3.14055
-35,-783,-3.97046,1.59399,0,0,0,0,0,0,0,-1,1189,1807,-3.97041,-1.59401
-28,-783,-4.12195,0.270386,0,0,0,0,0,0,0,-1,1196,1807,-4.12197,-0.270408
-21,-783,-4.00806,346.397,0,0,0,0,0,0,0,-1,1203,1807,-4.00811,-346.397
-14,-783,9.92407,332.207,0,0,0,0,0,0,0,-1,1210,1807,9.92408,-332.207
-7,-783,10.5531,332.485,0.104282,0.0700262,0.0194292,0.113055,0.0612533,0.42413,0.0653485,0.0471472,1217,1807,10.5531,-332.485
0,-783,11.1401,332.685,0.102948,0.08064,0.0231736,0.117512,0.0660758,0.561099,0.068021,0.042373,1224,1807,11.1401,-332.685
7,-783,11.8995,333.196,0.103746,0.0902888,0.0267947,0.124644,0.0693909,0.662382,0.0721175,0.0441441,1231,1807,11.8996,-333.196
14,-783,12.5974,334.203,0.107253,0.09908,0.0303119,0.133752,0.0725802,0.718398,0.0773155,0.04607,1238,1807,12.5974,-334.203
21,-783,13.2582,335.266,0.112162,0.106269,0.0337467,0.143091,0.0753404,0.741847,0.0826522,0.0479654,1245,1807,13.2582,-335.266
28,-783,13.9371,336.264,0.116197,0.11369,0.0304822,0.145452,0.0844357,0.764848,0.0843386,0.0463161,1252,1807,13.9371,-336.264
35,-783,14.5748,337.578,0,0,0,0,0,0,0,-1,1259,1807,14.5748,-337.578
42,-783,15.4246,338.797,0.125014,0.132725,0.0198224,0.149063,0.108676,0.881459,0.0890212,0.0468734,1266,1807,15.4245,-338.797
49,-783,16.2412,339.95,0,0,0,0,0,0,0,-1,1273,1807,16.2412,-339.95
56,-783,17.2002,340.988,0.128795,0.14206,0.00699222,0.145065,0.12579,1.16489,0.0909682,0.0463086,1280,1807,17.2002,-340.988
63,-783,18.4718,341.825,0.127573,0.142652,3.69219e-05,0.142653,0.127573,1.56835,0.0904949,0.0479955,1287,1807,18.4718,-341.825
70,-783,19.6912,342.606,0.12211,0.137347,-0.00964837,0.142022,0.117435,-1.1196,0.0876428,0.0455264,1294,1807,19.6911,-342.606
77,-783,20.8077,343.686,0.113379,0.127953,-0.0222115,0.144042,0.0972896,-0.943903,0.0848518,0.0446904,1301,1807,20.8077,-343.686
84,-783,21.7612,345.14,0.100468,0.112404,-0.0337579,0.140718,0.0721548,-0.872888,0.0812521,0.0459287,1308,1807,21.7612,-345.14
91,-783,22.7715,346.448,0.0824534,0.0908467,-0.0433697,0.130222,0.0430778,-0.83363,0.0766054,0.0455846,1315,1807,22.7715,-346.448
98,-783,11.6038,338.349,0.0636282,0.0668226,-0.0517635,0.117014,0.0134373,-0.800821,0.073938,0.0429829,1322,1807,11.6037,-338.349
105,-783,11.2078,338.332,0.0446488,0.0413988,-0.0585266,0.101573,-0.0155254,-0.771519,0.0734395,0.0456866,1329,1807,11.2078,-338.332
112,-783,10.9966,338.796,0.0265827,0.0168448,-0.0650869,0.0869825,-0.043555,-0.748064,0.0767435,0.0432609,1336,1807,10.9966,-338.796
119,-783,10.9045,339.29,0.0103104,-0.00654085,-0.0706802,0.0730655,-0.0692959,-0.726074,0.082202,0.0433326,1343,1807,10.9045,-339.29
126,-783,9.57446,335.347,-0.00347094,-0.0275636,-0.0752021,0.0606435,-0.0916781,-0.70598,0.0885493,0.0482214,1350,1807,9.57446,-335.347
133,-783,9.58142,334.256,0,0,0,0,0,0,0,-1,1357,1807,9.58139,-334.256
140,-783,16.6165,336.341,0,0,0,0,0,0,0,-1,1364,1807,16.6164,-336.341
147,-783,13.6758,334.072,0,0,0,0,0,0,0,-1,1371,1807,13.6758,-334.071
154,-783,38.2109,17.545,0,0,0,0,0,0,0,-1,1378,1807,38.2109,-17.545
161,-783,39.5087,17.5449,0,0,0,0,0,0,0,-1,1385,1807,39.5087,-17.545
168,-783,8.62561,1.79944,0,0,0,0,0,0,0,-1,1392,1807,8.62561,-1.79946
175,-783,8.78699,3.40857,0,0,0,0,0,0,0,-1,1399,1807,8.78697,-3.40854
182,-783,8.70984,5.14661,0,0,0,0,0,0,0,-1,1406,1807,8.70989,-5.14666
189,-783,8.55762,6.79871,0,0,0,0,0,0,0,-1,1413,1807,8.55766,-6.79872
196,-783,8.25488,8.66626,0,0,0,0,0,0,0,-1,1420,1807,8.25492,-8.66628
203,-783,7.86755,10.5735,0,0,0,0,0,0,0,-1,1427,1807,7.8676,-10.5734
210,-783,5.6969,8.99231,0,0,0,0,0,0,0,-1,1434,1807,5.69693,-8.99234
217,-783,5.28503,3.80872,0,0,0,0,0,0,0,-1,1441,1807,5.285,-3.80868
224,-783,3.22571,6.62903,0,0,0,0,0,0,0,-1,1448,1807,3.2257,-6.62907
231,-783,4.27942,4.56262,0,0,0,0,0,0,0,-1,1455,1807,4.27948,-4.56267
238,-783,0,0,0,0,0,0,0,0,0,-1,1462,1807,0,0
245,-783,0,0,0,0,0,0,0,0,0,-1,1469,1807,0,0
252,-783,0,0,0,0,0,0,0,0,0,-1,1476,1807,0,0
259,-783,0,0,0,0,0,0,0,0,0,-1,1483,1807,0,0
266,-783,0,0,0,0,0,0,0,0,0,-1,1490,1807,0,0
273,-783,0,0,0,0,0,0,0,0,0,-1,1497,1807,0,0
280,-783,0,0,0,0,0,0,0,0,0,-1,1504,1807,0,0
287,-783,0,0,0,0,0,0,0,0,0,-1,1511,1807,0,0
294,-783,0,0,0,0,0,0,0,0,0,-1,1518,1807,0,0
301,-783,0,0,0,0,0,0,0,0,0,-1,1525,1807,0,0
308,-783,0,0,0,0,0,0,0,0,0,-1,1532,1807,0,0
315,-783,0,0,0,0,0,0,0,0,0,-1,1539,1807,0,0
322,-783,0,0,0,0,0,0,0,0,0,-1,1546,1807,0,0
329,-783,0,0,0,0,0,0,0,0,0,-1,1553,1807,0,0
336,-783,0,0,0,0,0,0,0,0,0,-1,1560,1807,0,0
343,-783,0,0,0,0,0,0,0,0,0,-1,1567,1807,0,0
350,-783,0,0,0,0,0,0,0,0,0,-1,1574,1807,0,0
357,-783,0,0,0,0,0,0,0,0,0,-1,1581,1807,0,0
364,-783,0,0,0,0,0,0,0,0,0,-1,1588,1807,0,0
371,-783,0,0,0,0,0,0,0,0,0,-1,1595,1807,0,0
378,-783,0,0,0,0,0,0,0,0,0,-1,1602,1807,0,0
385,-783,0,0,0,0,0,0,0,0,0,-1,1609,1807,0,0
392,-783,0,0,0,0,0,0,0,0,0,-1,1616,1807,0,0
399,-783,0,0,0,0,0,0,0,0,0,-1,1623,1807,0,0
406,-783,0,0,0,0,0,0,0,0,0,-1,1630,1807,0,0
413,-783,0,0,0,0,0,0,0,0,0,-1,1637,1807,0,0
420,-783,0,0,0,0,0,0,0,0,0,-1,1644,1807,0,0
427,-783,0,0,0,0,0,0,0,0,0,-1,1651,1807,0,0
434,-783,0,0,0,0,0,0,0,0,0,-1,1658,1807,0,0
441,-783,0,0,0,0,0,0,0,0,0,-1,1665,1807,0,0
448,-783,0,0,0,0,0,0,0,0,0,-1,1672,1807,0,0
455,-783,0,0,0,0,0,0,0,0,0,-1,1679,1807,0,0
462,-783,0,0,0,0,0,0,0,0,0,-1,1686,1807,0,0
469,-783,0,0,0,0,0,0,0,0,0,-1,1693,1807,0,0
476,-783,0,0,0,0,0,0,0,0,0,-1,1700,1807,0,0
483,-783,0,0,0,0,0,0,0,0,0,-1,1707,1807,0,0
490,-783,0,0,0,0,0,0,0,0,0,-1,1714,1807,0,0
497,-783,0,0,0,0,0,0,0,0,0,-1,1721,1807,0,0
504,-783,0,0,0,0,0,0,0,0,0,-1,1728,1807,0,0
511,-783,0,0,0,0,0,0,0,0,0,-1,1735,1807,0,0
518,-783,0,0,0,0,0,0,0,0,0,-1,1742,1807,0,0
525,-783,0,0,0,0,0,0,0,0,0,-1,1749,1807,0,0
532,-783,0,0,0,0,0,0,0,0,0,-1,1756,1807,0,0
539,-783,0,0,0,0,0,0,0,0,0,-1,1763,1807,0,0
546,-783,0,0,0,0,0,0,0,0,0,-1,1770,1807,0,0
553,-783,0,0,0,0,0,0,0,0,0,-1,1777,1807,0,0
560,-783,0,0,0,0,0,0,0,0,0,-1,1784,1807,0,0
567,-783,0,0,0,0,0,0,0,0,0,-1,1791,1807,0,0
574,-783,0,0,0,0,0,0,0,0,0,-1,1798,1807,0,0
581,-783,0,0,0,0,0,0,0,0,0,-1,1805,1807,0,0
588,-783,0,0,0,0,0,0,0,0,0,-1,1812,1807,0,0
595,-783,0,0,0,0,0,0,0,0,0,-1,1819,1807,0,0
602,-783,0,0,0,0,0,0,0,0,0,-1,1826,1807,0,0
609,-783,0,0,0,0,0,0,0,0,0,-1,1833,1807,0,0
616,-783,0,0,0,0,0,0,0,0,0,-1,1840,1807,0,0
623,-783,0,0,0,0,0,0,0,0,0,-1,1847,1807,0,0
630,-783,0,0,0,0,0,0,0,0,0,-1,1854,1807,0,0
637,-783,0,0,0,0,0,0,0,0,0,-1,1861,1807,0,0
644,-783,0,0,0,0,0,0,0,0,0,-1,1868,1807,0,0
651,-783,0,0,0,0,0,0,0,0,0,-1,1875,1807,0,0
658,-783,0,0,0,0,0,0,0,0,0,-1,1882,1807,0,0
665,-783,0,0,0,0,0,0,0,0,0,-1,1889,1807,0,0
672,-783,0,0,0,0,0,0,0,0,0,-1,1896,1807,0,0
679,-783,0,0,0,0,0,0,0,0,0,-1,1903,1807,0,0
686,-783,0,0,0,0,0,0,0,0,0,-1,1910,1807,0,0
693,-783,0,0,0,0,0,0,0,0,0,-1,1917,1807,0,0
700,-783,0,0,0,0,0,0,0,0,0,-1,1924,1807,0,0
707,-783,0,0,0,0,0,0,0,0,0,-1,1931,1807,0,0
714,-783,0,0,0,0,0,0,0,0,0,-1,1938,1807,0,0
721,-783,0,0,0,0,0,0,0,0,0,-1,1945,1807,0,0
728,-783,0,0,0,0,0,0,0,0,0,-1,1952,1807,0,0
735,-783,0,0,0,0,0,0,0,0,0,-1,1959,1807,0,0
742,-783,0,0,0,0,0,0,0,0,0,-1,1966,1807,0,0
749,-783,0,0,0,0,0,0,0,0,0,-1,1973,1807,0,0
756,-783,0,0,0,0,0,0,0,0,0,-1,1980,1807,0,0
763,-783,0,0,0,0,0,0,0,0,0,-1,1987,1807,0,0
770,-783,0,0,0,0,0,0,0,0,0,-1,1994,1807,0,0
777,-783,0,0,0,0,0,0,0,0,0,-1,2001,1807,0,0
784,-783,0,0,0,0,0,0,0,0,0,-1,2008,1807,0,0
791,-783,0,0,0,0,0,0,0,0,0,-1,2015,1807,0,0
798,-783,0,0,0,0,0,0,0,0,0,-1,2022,1807,0,0
805,-783,0,0,0,0,0,0,0,0,0,-1,2029,1807,0,0
812,-783,0,0,0,0,0,0,0,0,0,-1,2036,1807,0,0
-700,-790,0,0,0,0,0,0,0,0,0,-1,524,1814,0,0
-693,-790,0,0,0,0,0,0,0,0,0,-1,531,1814,0,0
-686,-790,0,0,0,0,0,0,0,0,0,-1,538,1814,0,0
-679,-790,0,0,0,0,0,0,0,0,0,-1,545,1814,0,0
-672,-790,0,0,0,0,0,0,0,0,0,-1,552,1814,0,0
-665,-790,0,0,0,0,0,0,0,0,0,-1,559,1814,0,0
-658,-790,0,0,0,0,0,0,0,0,0,-1,566,1814,0,0
-651,-790,0,0,0,0,0,0,0,0,0,-1,573,1814,0,0
-644,-790,0,0,0,0,0,0,0,0,0,-1,580,1814,0,0
-637,-790,0,0,0,0,0,0,0,0,0,-1,587,1814,0,0
-630,-790,0,0,0,0,0,0,0,0,0,-1,594,1814,0,0
-623,-790,0,0,0,0,0,0,0,0,0,-1,601,1814,0,0
-616,-790,0,0,0,0,0,0,0,0,0,-1,608,1814,0,0
-609,-790,0,0,0,0,0,0,0,0,0,-1,615,1814,0,0
-602,-790,0,0,0,0,0,0,0,0,0,-1,622,1814,0,0
-595,-790,0,0,0,0,0,0,0,0,0,-1,629,1814,0,0
-588,-790,0,0,0,0,0,0,0,0,0,-1,636,1814,0,0
-581,-790,0,0,0,0,0,0,0,0,0,-1,643,1814,0,0
-574,-790,0,0,0,0,0,0,0,0,0,-1,650,1814,0,0
-567,-790,0,0,0,0,0,0,0,0,0,-1,657,1814,0,0
-560,-790,0,0,0,0,0,0,0,0,0,-1,664,1814,0,0
-553,-790,0,0,0,0,0,0,0,0,0,-1,671,1814,0,0
-546,-790,0,0,0,0,0,0,0,0,0,-1,678,1814,0,0
-539,-790,0,0,0,0,0,0,0,0,0,-1,685,1814,0,0
-532,-790,0,0,0,0,0,0,0,0,0,-1,692,1814,0,0
-525,-790,0,0,0,0,0,0,0,0,0,-1,699,1814,0,0
-518,-790,0,0,0,0,0,0,0,0,0,-1,706,1814,0,0
-511,-790,0,0,0,0,0,0,0,0,0,-1,713,1814,0,0
-504,-790,0,0,0,0,0,0,0,0,0,-1,720,1814,0,0
-497,-790,0,0,0,0,0,0,0,0,0,-1,727,1814,0,0
-490,-790,0,0,0,0,0,0,0,0,0,-1,734,1814,0,0
-483,-790,0,0,0,0,0,0,0,0,0,-1,741,1814,0,0
-476,-790,0,0,0,0,0,0,0,0,0,-1,748,1814,0,0
-469,-790,0,0,0,0,0,0,0,0,0,-1,755,1814,0,0
-462,-790,0,0,0,0,0,0,0,0,0,-1,762,1814,0,0
-455,-790,0,0,0,0,0,0,0,0,0,-1,769,1814,0,0
-448,-790,0,0,0,0,0,0,0,0,0,-1,776,1814,0,0
-441,-790,0,0,0,0,0,0,0,0,0,-1,783,1814,0,0
-434,-790,0,0,0,0,0,0,0,0,0,-1,790,1814,0,0
-427,-790,0,0,0,0,0,0,0,0,0,-1,797,1814,0,0
-420,-790,0,0,0,0,0,0,0,0,0,-1,804,1814,0,0
-413,-790,0,0,0,0,0,0,0,0,0,-1,811,1814,0,0
-406,-790,0,0,0,0,0,0,0,0,0,-1,818,1814,0,0
-399,-790,0,0,0,0,0,0,0,0,0,-1,825,1814,0,0
-392,-790,0,0,0,0,0,0,0,0,0,-1,832,1814,0,0
-385,-790,0,0,0,0,0,0,0,0,0,-1,839,1814,0,0
-378,-790,0,0,0,0,0,0,0,0,0,-1,846,1814,0,0
-371,-790,0,0,0,0,0,0,0,0,0,-1,853,1814,0,0
-364,-790,0,0,0,0,0,0,0,0,0,-1,860,1814,0,0
-357,-790,0,0,0,0,0,0,0,0,0,-1,867,1814,0,0
-350,-790,0,0,0,0,0,0,0,0,0,-1,874,1814,0,0
-343,-790,0,0,0,0,0,0,0,0,0,-1,881,1814,0,0
-336,-790,0,0,0,0,0,0,0,0,0,-1,888,1814,0,0
-329,-790,0,0,0,0,0,0,0,0,0,-1,895,1814,0,0
-322,-790,0,0,0,0,0,0,0,0,0,-1,902,1814,0,0
-315,-790,0,0,0,0,0,0,0,0,0,-1,909,1814,0,0
-308,-790,0,0,0,0,0,0,0,0,0,-1,916,1814,0,0
-301,-790,0,0,0,0,0,0,0,0,0,-1,923,1814,0,0
-294,-790,0,0,0,0,0,0,0,0,0,-1,930,1814,0,0
-287,-790,0,0,0,0,0,0,0,0,0,-1,937,1814,0,0
-280,-790,0,0,0,0,0,0,0,0,0,-1,944,1814,0,0
-273,-790,0,0,0,0,0,0,0,0,0,-1,951,1814,0,0
-266,-790,0,0,0,0,0,0,0,0,0,-1,958,1814,0,0
-259,-790,0,0,0,0,0,0,0,0,0,-1,965,1814,0,0
-252,-790,0,0,0,0,0,0,0,0,0,-1,972,1814,0,0
-245,-790,0,0,0,0,0,0,0,0,0,-1,979,1814,0,0
-238,-790,0,0,0,0,0,0,0,0,0,-1,986,1814,0,0
-231,-790,0,0,0,0,0,0,0,0,0,-1,993,1814,0,0
-224,-790,0,0,0,0,0,0,0,0,0,-1,1000,1814,0,0
-217,-790,0,0,0,0,0,0,0,0,0,-1,1007,1814,0,0
-210,-790,0,0,0,0,0,0,0,0,0,-1,1014,1814,0,0
-203,-790,0,0,0,0,0,0,0,0,0,-1,1021,1814,0,0
-196,-790,0,0,0,0,0,0,0,0,0,-1,1028,1814,0,0
-189,-790,0,0,0,0,0,0,0,0,0,-1,1035,1814,0,0
-182,-790,0,0,0,0,0,0,0,0,0,-1,1042,1814,0,0
-175,-790,0,0,0,0,0,0,0,0,0,-1,1049,1814,0,0
-168,-790,0,0,0,0,0,0,0,0,0,-1,1056,1814,0,0
-161,-790,0,0,0,0,0,0,0,0,0,-1,1063,1814,0,0
-154,-790,0,0,0,0,0,0,0,0,0,-1,1070,1814,0,0
-147,-790,0,0,0,0,0,0,0,0,0,-1,1077,1814,0,0
-140,-790,0,0,0,0,0,0,0,0,0,-1,1084,1814,0,0
-133,-790,0,0,0,0,0,0,0,0,0,-1,1091,1814,0,0
-126,-790,0,0,0,0,0,0,0,0,0,-1,1098,1814,0,0
-119,-790,0,0,0,0,0,0,0,0,0,-1,1105,1814,0,0
-112,-790,0,0,0,0,0,0,0,0,0,-1,1112,1814,0,0
-105,-790,0,0,0,0,0,0,0,0,0,-1,1119,1814,0,0
-98,-790,0,0,0,0,0,0,0,0,0,-1,1126,1814,0,0
-91,-790,0,0,0,0,0,0,0,0,0,-1,1133,1814,0,0
-84,-790,0,0,0,0,0,0,0,0,0,-1,1140,1814,0,0
-77,-790,-0.969238,5.30847,0,0,0,0,0,0,0,-1,1147,1814,-0.969277,-5.3085
-70,-790,-1.23169,4.98914,0,0,0,0,0,0,0,-1,1154,1814,-1.23163,-4.98916
-63,-790,-1.69128,4.32263,0,0,0,0,0,0,0,-1,1161,1814,-1.69128,-4.32258
-56,-790,-2.24756,3.75305,0,0,0,0,0,0,0,-1,1168,1814,-2.24758,-3.75302
-49,-790,-3.11011,3.35779,0,0,0,0,0,0,0,-1,1175,1814,-3.11006,-3.35781
-42,-790,0.593262,1.19165,0,0,0,0,0,0,0,-1,1182,1814,0.593225,-1.19165
-35,-790,0.307129,-0.20105,0,0,0,0,0,0,0,-1,1189,1814,0.307178,0.201006
-28,-790,-2.78467,0.785156,0,0,0,0,0,0,0,-1,1196,1814,-2.78471,-0.785183
-21,-790,-2.35754,345.383,0,0,0,0,0,0,0,-1,1203,1814,-2.35758,-345.383
-14,-790,9.45679,332.131,0,0,0,0,0,0,0,-1,1210,1814,9.45679,-332.131
-7,-790,10.4216,332.199,0.118216,0.0674845,0.0203565,0.125374,0.0603263,0.338137,0.072402,0.0487709,1217,1814,10.4216,-332.199
0,-790,11.2461,332.215,0.117647,0.0855723,0.026325,0.132435,0.0707843,0.511817,0.076522,0.0459788,1224,1814,11.2461,-332.215
7,-790,12.0914,332.61,0.118728,0.100519,0.0313342,0.142254,0.0769934,0.644013,0.0822232,0.0455545,1231,1814,12.0914,-332.61
14,-790,12.9974,333.331,0.123168,0.112746,0.0356425,0.153978,0.0819356,0.712817,0.0889605,0.0442137,1238,1814,12.9974,-333.331
21,-790,13.5771,333.886,0.129234,0.122516,0.0397539,0.165771,0.0859796,0.743249,0.09573,0.0438294,1245,1814,13.5772,-333.886
28,-790,14.2173,335.391,0.134539,0.132163,0.0369523,0.170323,0.09638,0.769327,0.0986199,0.0458391,1252,1814,14.2172,-335.391
35,-790,14.8676,336.577,0,0,0,0,0,0,0,-1,1259,1814,14.8676,-336.577
42,-790,15.693,337.784,0,0,0,0,0,0,0,-1,1266,1814,15.693,-337.784
49,-790,16.411,338.849,0,0,0,0,0,0,0,-1,1273,1814,16.411,-338.849
56,-790,17.3761,339.821,0.151546,0.168535,0.0140735,0.176479,0.143602,1.05692,0.108369,0.046891,1280,1814,17.3761,-339.821
63,-790,18.4667,340.758,0.150153,0.169523,0.00743947,0.17205,0.147626,1.24328,0.107488,0.042826,1287,1814,18.4667,-340.758
70,-790,19.5459,341.689,0.144943,0.164225,-0.00234878,0.164507,0.144661,-1.45131,0.103691,0.041188,1294,1814,19.546,-341.689
77,-790,20.6926,342.856,0.136089,0.154396,-0.0161258,0.163785,0.1267,-1.04353,0.0991674,0.0417474,1301,1814,20.6926,-342.856
84,-790,21.9402,343.942,0.121648,0.136475,-0.0293491,0.159332,0.0987904,-0.909108,0.0928699,0.0444495,1308,1814,21.9401,-343.942
91,-790,22.9592,345.181,0.0995248,0.109988,-0.0414899,0.146575,0.0629379,-0.848112,0.0849058,0.0454466,1315,1814,22.9592,-345.181
98,-790,11.6976,338.643,0,0,0,0,0,0,0,-1,1322,1814,11.6976,-338.643
105,-790,11.4529,338.736,0,0,0,0,0,0,0,-1,1329,1814,11.4529,-338.736
112,-790,11.2119,339.308,0.0285495,0.0164391,-0.0711307,0.0938822,-0.0488937,-0.742937,0.0837846,0.0486616,1336,1814,11.2119,-339.308
119,-790,11.004,339.812,0.00675017,-0.0146976,-0.0791999,0.0759489,-0.0838964,-0.718106,0.0923247,0.0452421,1343,1814,11.0041,-339.812
126,-790,9.36438,335.425,-0.0123666,-0.0437864,-0.0856297,0.0589824,-0.115135,-0.694675,0.102255,0.0471782,1350,1814,9.36441,-335.425
133,-790,9.4469,334.303,0,0,0,0,0,0,0,-1,1357,1814,9.44689,-334.303
140,-790,12.2543,337.14,0,0,0,0,0,0,0,-1,1364,1814,12.2543,-337.14
147,-790,17.1017,336.523,0,0,0,0,0,0,0,-1,1371,1814,17.1017,-336.523
154,-790,40.215,13.2396,0,0,0,0,0,0,0,-1,1378,1814,40.2149,-13.2396
161,-790,39.3429,13.0336,0,0,0,0,0,0,0,-1,1385,1814,39.3429,-13.0336
168,-790,7.04077,2.23279,0,0,0,0,0,0,0,-1,1392,1814,7.04082,-2.23275
175,-790,9.03918,3.98535,0,0,0,0,0,0,0,-1,1399,1814,9.0392,-3.98535
182,-790,8.96997,5.67896,0,0,0,0,0,0,0,-1,1406,1814,8.97001,-5.6789
189,-790,8.59729,6.86975,0,0,0,0,0,0,0,-1,1413,1814,8.59728,-6.86972
196,-790,8.21924,9.29053,0,0,0,0,0,0,0,-1,1420,1814,8.21924,-9.29048
203,-790,0,0,0,0,0,0,0,0,0,-1,1427,1814,0,0
210,-790,0,0,0,0,0,0,0,0,0,-1,1434,1814,0,0
217,-790,0,0,0,0,0,0,0,0,0,-1,1441,1814,0,0
224,-790,0,0,0,0,0,0,0,0,0,-1,1448,1814,0,0
231,-790,0,0,0,0,0,0,0,0,0,-1,1455,1814,0,0
238,-790,0,0,0,0,0,0,0,0,0,-1,1462,1814,0,0
245,-790,0,0,0,0,0,0,0,0,0,-1,1469,1814,0,0
252,-790,0,0,0,0,0,0,0,0,0,-1,1476,1814,0,0
259,-790,0,0,0,0,0,0,0,0,0,-1,1483,1814,0,0
266,-790,0,0,0,0,0,0,0,0,0,-1,1490,1814,0,0
273,-790,0,0,0,0,0,0,0,0,0,-1,1497,1814,0,0
280,-790,0,0,0,0,0,0,0,0,0,-1,1504,1814,0,0
287,-790,0,0,0,0,0,0,0,0,0,-1,1511,1814,0,0
294,-790,0,0,0,0,0,0,0,0,0,-1,1518,1814,0,0
301,-790,0,0,0,0,0,0,0,0,0,-1,1525,1814,0,0
308,-790,0,0,0,0,0,0,0,0,0,-1,1532,1814,0,0
315,-790,0,0,0,0,0,0,0,0,0,-1,1539,1814,0,0
322,-790,0,0,0,0,0,0,0,0,0,-1,1546,1814,0,0
329,-790,0,0,0,0,0,0,0,0,0,-1,1553,1814,0,0
336,-790,0,0,0,0,0,0,0,0,0,-1,1560,1814,0,0
343,-790,0,0,0,0,0,0,0,0,0,-1,1567,1814,0,0
350,-790,0,0,0,0,0,0,0,0,0,-1,1574,1814,0,0
357,-790,0,0,0,0,0,0,0,0,0,-1,1581,1814,0,0
364,-790,0,0,0,0,0,0,0,0,0,-1,1588,1814,0,0
371,-790,0,0,0,0,0,0,0,0,0,-1,1595,1814,0,0
378,-790,0,0,0,0,0,0,0,0,0,-1,1602,1814,0,0
385,-790,0,0,0,0,0,0,0,0,0,-1,1609,1814,0,0
392,-790,0,0,0,0,0,0,0,0,0,-1,1616,1814,0,0
399,-790,0,0,0,0,0,0,0,0,0,-1,1623,1814,0,0
406,-790,0,0,0,0,0,0,0,0,0,-1,1630,1814,0,0
413,-790,0,0,0,0,0,0,0,0,0,-1,1637,1814,0,0
420,-790,0,0,0,0,0,0,0,0,0,-1,1644,1814,0,0
427,-790,0,0,0,0,0,0,0,0,0,-1,1651,1814,0,0
434,-790,0,0,0,0,0,0,0,0,0,-1,1658,1814,0,0
441,-790,0,0,0,0,0,0,0,0,0,-1,1665,1814,0,0
448,-790,0,0,0,0,0,0,0,0,0,-1,1672,1814,0,0
455,-790,0,0,0,0,0,0,0,0,0,-1,1679,1814,0,0
462,-790,0,0,0,0,0,0,0,0,0,-1,1686,1814,0,0
469,-790,0,0,0,0,0,0,0,0,0,-1,1693,1814,0,0
476,-790,0,0,0,0,0,0,0,0,0,-1,1700,1814,0,0
483,-790,0,0,0,0,0,0,0,0,0,-1,1707,1814,0,0
490,-790,0,0,0,0,0,0,0,0,0,-1,1714,1814,0,0
497,-790,0,0,0,0,0,0,0,0,0,-1,1721,1814,0,0
504,-790,0,0,0,0,0,0,0,0,0,-1,1728,1814,0,0
511,-790,0,0,0,0,0,0,0,0,0,-1,1735,1814,0,0
518,-790,0,0,0,0,0,0,0,0,0,-1,1742,1814,0,0
525,-790,0,0,0,0,0,0,0,0,0,-1,1749,1814,0,0
532,-790,0,0,0,0,0,0,0,0,0,-1,1756,1814,0,0
539,-790,0,0,0,0,0,0,0,0,0,-1,1763,1814,0,0
546,-790,0,0,0,0,0,0,0,0,0,-1,1770,1814,0,0
553,-790,0,0,0,0,0,0,0,0,0,-1,1777,1814,0,0
560,-790,0,0,0,0,0,0,0,0,0,-1,1784,1814,0,0
567,-790,0,0,0,0,0,0,0,0,0,-1,1791,1814,0,0
574,-790,0,0,0,0,0,0,0,0,0,-1,1798,1814,0,0
581,-790,0,0,0,0,0,0,0,0,0,-1,1805,1814,0,0
588,-790,0,0,0,0,0,0,0,0,0,-1,1812,1814,0,0
595,-790,0,0,0,0,0,0,0,0,0,-1,1819,1814,0,0
602,-790,0,0,0,0,0,0,0,0,0,-1,1826,1814,0,0
609,-790,0,0,0,0,0,0,0,0,0,-1,1833,1814,0,0
616,-790,0,0,0,0,0,0,0,0,0,-1,1840,1814,0,0
623,-790,0,0,0,0,0,0,0,0,0,-1,1847,1814,0,0
630,-790,0,0,0,0,0,0,0,0,0,-1,1854,1814,0,0
637,-790,0,0,0,0,0,0,0,0,0,-1,1861,1814,0,0
644,-790,0,0,0,0,0,0,0,0,0,-1,1868,1814,0,0
651,-790,0,0,0,0,0,0,0,0,0,-1,1875,1814,0,0
658,-790,0,0,0,0,0,0,0,0,0,-1,1882,1814,0,0
665,-790,0,0,0,0,0,0,0,0,0,-1,1889,1814,0,0
672,-790,0,0,0,0,0,0,0,0,0,-1,1896,1814,0,0
679,-790,0,0,0,0,0,0,0,0,0,-1,1903,1814,0,0
686,-790,0,0,0,0,0,0,0,0,0,-1,1910,1814,0,0
693,-790,0,0,0,0,0,0,0,0,0,-1,1917,1814,0,0
700,-790,0,0,0,0,0,0,0,0,0,-1,1924,1814,0,0
707,-790,0,0,0,0,0,0,0,0,0,-1,1931,1814,0,0
714,-790,0,0,0,0,0,0,0,0,0,-1,1938,1814,0,0
721,-790,0,0,0,0,0,0,0,0,0,-1,1945,1814,0,0
728,-790,0,0,0,0,0,0,0,0,0,-1,1952,1814,0,0
735,-790,0,0,0,0,0,0,0,0,0,-1,1959,1814,0,0
742,-790,0,0,0,0,0,0,0,0,0,-1,1966,1814,0,0
749,-790,0,0,0,0,0,0,0,0,0,-1,1973,1814,0,0
756,-790,0,0,0,0,0,0,0,0,0,-1,1980,1814,0,0
763,-790,0,0,0,0,0,0,0,0,0,-1,1987,1814,0,0
770,-790,0,0,0,0,0,0,0,0,0,-1,1994,1814,0,0
777,-790,0,0,0,0,0,0,0,0,0,-1,2001,1814,0,0
784,-790,0,0,0,0,0,0,0,0,0,-1,2008,1814,0,0
791,-790,0,0,0,0,0,0,0,0,0,-1,2015,1814,0,0
798,-790,0,0,0,0,0,0,0,0,0,-1,2022,1814,0,0
805,-790,0,0,0,0,0,0,0,0,0,-1,2029,1814,0,0
812,-790,0,0,0,0,0,0,0,0,0,-1,2036,1814,0,0
-700,-797,0,0,0,0,0,0,0,0,0,-1,524,1821,0,0
-693,-797,0,0,0,0,0,0,0,0,0,-1,531,1821,0,0
-686,-797,0,0,0,0,0,0,0,0,0,-1,538,1821,0,0
-679,-797,0,0,0,0,0,0,0,0,0,-1,545,1821,0,0
-672,-797,0,0,0,0,0,0,0,0,0,-1,552,1821,0,0
-665,-797,0,0,0,0,0,0,0,0,0,-1,559,1821,0,0
-658,-797,0,0,0,0,0,0,0,0,0,-1,566,1821,0,0
-651,-797,0,0,0,0,0,0,0,0,0,-1,573,1821,0,0
-644,-797,0,0,0,0,0,0,0,0,0,-1,580,1821,0,0
-637,-797,0,0,0,0,0,0,0,0,0,-1,587,1821,0,0
-630,-797,0,0,0,0,0,0,0,0,0,-1,594,1821,0,0
-623,-797,0,0,0,0,0,0,0,0,0,-1,601,1821,0,0
-616,-797,0,0,0,0,0,0,0,0,0,-1,608,1821,0,0
-609,-797,0,0,0,0,0,0,0,0,0,-1,615,1821,0,0
-602,-797,0,0,0,0,0,0,0,0,0,-1,622,1821,0,0
-595,-797,0,0,0,0,0,0,0,0,0,-1,629,1821,0,0
-588,-797,0,0,0,0,0,0,0,0,0,-1,636,1821,0,0
-581,-797,0,0,0,0,0,0,0,0,0,-1,643,1821,0,0
-574,-797,0,0,0,0,0,0,0,0,0,-1,650,1821,0,0
-567,-797,0,0,0,0,0,0,0,0,0,-1,657,1821,0,0
-560,-797,0,0,0,0,0,0,0,0,0,-1,664,1821,0,0
-553,-797,0,0,0,0,0,0,0,0,0,-1,671,1821,0,0
-546,-797,0,0,0,0,0,0,0,0,0,-1,678,1821,0,0
-539,-797,0,0,0,0,0,0,0,0,0,-1,685,1821,0,0
-532,-797,0,0,0,0,0,0,0,0,0,-1,692,1821,0,0
-525,-797,0,0,0,0,0,0,0,0,0,-1,699,1821,0,0
-518,-797,0,0,0,0,0,0,0,0,0,-1,706,1821,0,0
-511,-797,0,0,0,0,0,0,0,0,0,-1,713,1821,0,0
-504,-797,0,0,0,0,0,0,0,0,0,-1,720,1821,0,0
-497,-797,0,0,0,0,0,0,0,0,0,-1,727,1821,0,0
-490,-797,0,0,0,0,0,0,0,0,0,-1,734,1821,0,0
-483,-797,0,0,0,0,0,0,0,0,0,-1,741,1821,0,0
-476,-797,0,0,0,0,0,0,0,0,0,-1,748,1821,0,0
-469,-797,0,0,0,0,0,0,0,0,0,-1,755,1821,0,0
-462,-797,0,0,0,0,0,0,0,0,0,-1,762,1821,0,0
-455,-797,0,0,0,0,0,0,0,0,0,-1,769,1821,0,0
-448,-797,0,0,0,0,0,0,0,0,0,-1,776,1821,0,0
-441,-797,0,0,0,0,0,0,0,0,0,-1,783,1821,0,0
-434,-797,0,0,0,0,0,0,0,0,0,-1,790,1821,0,0
-427,-797,0,0,0,0,0,0,0,0,0,-1,797,1821,0,0
-420,-797,0,0,0,0,0,0,0,0,0,-1,804,1821,0,0
-413,-797,0,0,0,0,0,0,0,0,0,-1,811,1821,0,0
-406,-797,0,0,0,0,0,0,0,0,0,-1,818,1821,0,0
-399,-797,0,0,0,0,0,0,0,0,0,-1,825,1821,0,0
-392,-797,0,0,0,0,0,0,0,0,0,-1,832,1821,0,0
-385,-797,0,0,0,0,0,0,0,0,0,-1,839,1821,0,0
-378,-797,0,0,0,0,0,0,0,0,0,-1,846,1821,0,0
-371,-797,0,0,0,0,0,0,0,0,0,-1,853,1821,0,0
-364,-797,0,0,0,0,0,0,0,0,0,-1,860,1821,0,0
-357,-797,0,0,0,0,0,0,0,0,0,-1,867,1821,0,0
-350,-797,0,0,0,0,0,0,0,0,0,-1,874,1821,0,0
-343,-797,0,0,0,0,0,0,0,0,0,-1,881,1821,0,0
-336,-797,0,0,0,0,0,0,0,0,0,-1,888,1821,0,0
-329,-797,0,0,0,0,0,0,0,0,0,-1,895,1821,0,0
-322,-797,0,0,0,0,0,0,0,0,0,-1,902,1821,0,0
-315,-797,0,0,0,0,0,0,0,0,0,-1,909,1821,0,0
-308,-797,0,0,0,0,0,0,0,0,0,-1,916,1821,0,0
-301,-797,0,0,0,0,0,0,0,0,0,-1,923,1821,0,0
-294,-797,0,0,0,0,0,0,0,0,0,-1,930,1821,0,0
-287,-797,0,0,0,0,0,0,0,0,0,-1,937,1821,0,0
-280,-797,0,0,0,0,0,0,0,0,0,-1,944,1821,0,0
-273,-797,0,0,0,0,0,0,0,0,0,-1,951,1821,0,0
-266,-797,0,0,0,0,0,0,0,0,0,-1,958,1821,0,0
-259,-797,0,0,0,0,0,0,0,0,0,-1,965,1821,0,0
-252,-797,0,0,0,0,0,0,0,0,0,-1,972,1821,0,0
-245,-797,0,0,0,0,0,0,0,0,0,-1,979,1821,0,0
-238,-797,0,0,0,0,0,0,0,0,0,-1,986,1821,0,0
-231,-797,0,0,0,0,0,0,0,0,0,-1,993,1821,0,0
-224,-797,0,0,0,0,0,0,0,0,0,-1,1000,1821,0,0
-217,-797,0,0,0,0,0,0,0,0,0,-1,1007,1821,0,0
-210,-797,0,0,0,0,0,0,0,0,0,-1,1014,1821,0,0
-203,-797,0,0,0,0,0,0,0,0,0,-1,1021,1821,0,0
-196,-797,0,0,0,0,0,0,0,0,0,-1,1028,1821,0,0
-189,-797,0,0,0,0,0,0,0,0,0,-1,1035,1821,0,0
-182,-797,0,0,0,0,0,0,0,0,0,-1,1042,1821,0,0
-175,-797,0,0,0,0,0,0,0,0,0,-1,1049,1821,0,0
-168,-797,0,0,0,0,0,0,0,0,0,-1,1056,1821,0,0
-161,-797,0,0,0,0,0,0,0,0,0,-1,1063,1821,0,0
-154,-797,0,0,0,0,0,0,0,0,0,-1,1070,1821,0,0
-147,-797,0,0,0,0,0,0,0,0,0,-1,1077,1821,0,0
-140,-797,0,0,0,0,0,0,0,0,0,-1,1084,1821,0,0
-133,-797,0,0,0,0,0,0,0,0,0,-1,1091,1821,0,0
-126,-797,0,0,0,0,0,0,0,0,0,-1,1098,1821,0,0
-119,-797,0,0,0,0,0,0,0,0,0,-1,1105,1821,0,0
-112,-797,0,0,0,0,0,0,0,0,0,-1,1112,1821,0,0
-105,-797,0,0,0,0,0,0,0,0,0,-1,1119,1821,0,0
-98,-797,0,0,0,0,0,0,0,0,0,-1,1126,1821,0,0
-91,-797,0,0,0,0,0,0,0,0,0,-1,1133,1821,0,0
-84,-797,0,0,0,0,0,0,0,0,0,-1,1140,1821,0,0
-77,-797,0,0,0,0,0,0,0,0,0,-1,1147,1821,0,0
-70,-797,0,0,0,0,0,0,0,0,0,-1,1154,1821,0,0
-63,-797,0,0,0,0,0,0,0,0,0,-1,1161,1821,0,0
-56,-797,0,0,0,0,0,0,0,0,0,-1,1168,1821,0,0
-49,-797,0,0,0,0,0,0,0,0,0,-1,1175,1821,0,0
-42,-797,0.579834,0.692871,0,0,0,0,0,0,0,-1,1182,1821,0.579856,-0.692816
-35,-797,-0.185425,5.55396,0,0,0,0,0,0,0,-1,1189,1821,-0.18542,-5.55396
-28,-797,-0.310181,4.71509,0,0,0,0,0,0,0,-1,1196,1821,-0.310228,-4.71503
-21,-797,-2.02026,345.234,0,0,0,0,0,0,0,-1,1203,1821,-2.0203,-345.234
-14,-797,-0.383667,344.234,0,0,0,0,0,0,0,-1,1210,1821,-0.383641,-344.234
-7,-797,10.6222,331.825,0,0,0,0,0,0,0,-1,1217,1821,10.6222,-331.825
0,-797,11.4762,331.9,0,0,0,0,0,0,0,-1,1224,1821,11.4762,-331.9
7,-797,12.2716,332.145,0.139307,0.107799,0.0353435,0.162248,0.0848573,0.575749,0.0937072,0.0480325,1231,1821,12.2716,-332.145
14,-797,13.2246,332.84,0.144428,0.124319,0.0403825,0.175989,0.0927578,0.663387,0.101657,0.0450434,1238,1821,13.2246,-332.84
21,-797,13.9993,333.41,0.151331,0.13748,0.0452264,0.190159,0.0986517,0.709421,0.109814,0.0452526,1245,1821,13.9992,-333.409
28,-797,14.8579,333.93,0.157937,0.150069,0.0439961,0.198175,0.109832,0.740805,0.11464,0.0466503,1252,1821,14.8579,-333.93
35,-797,15.792,334.458,0,0,0,0,0,0,0,-1,1259,1821,15.792,-334.459
42,-797,15.6948,337.057,0,0,0,0,0,0,0,-1,1266,1821,15.6948,-337.057
49,-797,16.4865,338.02,0,0,0,0,0,0,0,-1,1273,1821,16.4865,-338.02
56,-797,17.5737,338.847,0.180062,0.196349,0.0258422,0.2153,0.161111,0.93803,0.129312,0.0457176,1280,1821,17.5738,-338.847
63,-797,18.6746,339.652,0.177823,0.197116,0.0206618,0.210272,0.164667,1.0038,0.127723,0.0434576,1287,1821,18.6745,-339.652
70,-797,19.8521,340.625,0.172662,0.19154,0.0120291,0.197391,0.166811,1.11807,0.122678,0.0417569,1294,1821,19.852,-340.625
77,-797,21.0679,341.718,0.164118,0.181757,-0.00196928,0.181974,0.163901,-1.46095,0.115763,0.0427006,1301,1821,21.0678,-341.718
84,-797,21.9708,342.686,0.14889,0.162142,-0.0158384,0.172684,0.138347,-0.983505,0.105556,0.0480316,1308,1821,21.9709,-342.686
91,-797,23.0444,343.551,0.12307,0.131238,-0.0302165,0.157646,0.0966629,-0.852573,0.0917905,0.0468708,1315,1821,23.0445,-343.551
98,-797,24.1815,344.461,0,0,0,0,0,0,0,-1,1322,1821,24.1816,-344.461
105,-797,25.0743,345.518,0,0,0,0,0,0,0,-1,1329,1821,25.0743,-345.518
112,-797,11.407,339.782,0.0368087,0.018729,-0.0693625,0.0977179,-0.0421803,-0.7206,0.0828647,0.0485311,1336,1821,11.407,-339.782
119,-797,11.1663,340.202,0.00787769,-0.0218675,-0.0814665,0.075818,-0.0898078,-0.695112,0.0957378,0.0457107,1343,1821,11.1662,-340.202
126,-797,9.0957,335.525,0,0,0,0,0,0,0,-1,1350,1821,9.09566,-335.525
133,-797,11.4641,338.718,0,0,0,0,0,0,0,-1,1357,1821,11.4641,-338.718
140,-797,11.9274,338.529,0,0,0,0,0,0,0,-1,1364,1821,11.9274,-338.529
147,-797,12.3633,338.357,0,0,0,0,0,0,0,-1,1371,1821,12.3633,-338.357
154,-797,40.2623,8.88733,0,0,0,0,0,0,0,-1,1378,1821,40.2623,-8.88731
161,-797,42.2798,8.17371,0,0,0,0,0,0,0,-1,1385,1821,42.2798,-8.17367
168,-797,0,0,0,0,0,0,0,0,0,-1,1392,1821,0,0
175,-797,0,0,0,0,0,0,0,0,0,-1,1399,1821,0,0
182,-797,0,0,0,0,0,0,0,0,0,-1,1406,1821,0,0
189,-797,0,0,0,0,0,0,0,0,0,-1,1413,1821,0,0
196,-797,0,0,0,0,0,0,0,0,0,-1,1420,1821,0,0
203,-797,0,0,0,0,0,0,0,0,0,-1,1427,1821,0,0
210,-797,0,0,0,0,0,0,0,0,0,-1,1434,1821,0,0
217,-797,0,0,0,0,0,0,0,0,0,-1,1441,1821,0,0
224,-797,0,0,0,0,0,0,0,0,0,-1,1448,1821,0,0
231,-797,0,0,0,0,0,0,0,0,0,-1,1455,1821,0,0
238,-797,0,0,0,0,0,0,0,0,0,-1,1462,1821,0,0
245,-797,0,0,0,0,0,0,0,0,0,-1,1469,1821,0,0
252,-797,0,0,0,0,0,0,0,0,0,-1,1476,1821,0,0
259,-797,0,0,0,0,0,0,0,0,0,-1,1483,1821,0,0
266,-797,0,0,0,0,0,0,0,0,0,-1,1490,1821,0,0
273,-797,0,0,0,0,0,0,0,0,0,-1,1497,1821,0,0
280,-797,0,0,0,0,0,0,0,0,0,-1,1504,1821,0,0
287,-797,0,0,0,0,0,0,0,0,0,-1,1511,1821,0,0
294,-797,0,0,0,0,0,0,0,0,0,-1,1518,1821,0,0
301,-797,0,0,0,0,0,0,0,0,0,-1,1525,1821,0,0
308,-797,0,0,0,0,0,0,0,0,0,-1,1532,1821,0,0
315,-797,0,0,0,0,0,0,0,0,0,-1,1539,1821,0,0
322,-797,0,0,0,0,0,0,0,0,0,-1,1546,1821,0,0
329,-797,0,0,0,0,0,0,0,0,0,-1,1553,1821,0,0
336,-797,0,0,0,0,0,0,0,0,0,-1,1560,1821,0,0
343,-797,0,0,0,0,0,0,0,0,0,-1,1567,1821,0,0
350,-797,0,0,0,0,0,0,0,0,0,-1,1574,1821,0,0
357,-797,0,0,0,0,0,0,0,0,0,-1,1581,1821,0,0
364,-797,0,0,0,0,0,0,0,0,0,-1,1588,1821,0,0
371,-797,0,0,0,0,0,0,0,0,0,-1,1595,1821,0,0
378,-797,0,0,0,0,0,0,0,0,0,-1,1602,1821,0,0
385,-797,0,0,0,0,0,0,0,0,0,-1,1609,1821,0,0
392,-797,0,0,0,0,0,0,0,0,0,-1,1616,1821,0,0
399,-797,0,0,0,0,0,0,0,0,0,-1,1623,1821,0,0
406,-797,0,0,0,0,0,0,0,0,0,-1,1630,1821,0,0
413,-797,0,0,0,0,0,0,0,0,0,-1,1637,1821,0,0
420,-797,0,0,0,0,0,0,0,0,0,-1,1644,1821,0,0
427,-797,0,0,0,0,0,0,0,0,0,-1,1651,1821,0,0
434,-797,0,0,0,0,0,0,0,0,0,-1,1658,1821,0,0
441,-797,0,0,0,0,0,0,0,0,0,-1,1665,1821,0,0
448,-797,0,0,0,0,0,0,0,0,0,-1,1672,1821,0,0
455,-797,0,0,0,0,0,0,0,0,0,-1,1679,1821,0,0
462,-797,0,0,0,0,0,0,0,0,0,-1,1686,1821,0,0
469,-797,0,0,0,0,0,0,0,0,0,-1,1693,1821,0,0
476,-797,0,0,0,0,0,0,0,0,0,-1,1700,1821,0,0
483,-797,0,0,0,0,0,0,0,0,0,-1,1707,1821,0,0
490,-797,0,0,0,0,0,0,0,0,0,-1,1714,1821,0,0
497,-797,0,0,0,0,0,0,0,0,0,-1,1721,1821,0,0
504,-797,0,0,0,0,0,0,0,0,0,-1,1728,1821,0,0
511,-797,0,0,0,0,0,0,0,0,0,-1,1735,1821,0,0
518,-797,0,0,0,0,0,0,0,0,0,-1,1742,1821,0,0
525,-797,0,0,0,0,0,0,0,0,0,-1,1749,1821,0,0
532,-797,0,0,0,0,0,0,0,0,0,-1,1756,1821,0,0
539,-797,0,0,0,0,0,0,0,0,0,-1,1763,1821,0,0
546,-797,0,0,0,0,0,0,0,0,0,-1,1770,1821,0,0
553,-797,0,0,0,0,0,0,0,0,0,-1,1777,1821,0,0
560,-797,0,0,0,0,0,0,0,0,0,-1,1784,1821,0,0
567,-797,0,0,0,0,0,0,0,0,0,-1,1791,1821,0,0
574,-797,0,0,0,0,0,0,0,0,0,-1,1798,1821,0,0
581,-797,0,0,0,0,0,0,0,0,0,-1,1805,1821,0,0
588,-797,0,0,0,0,0,0,0,0,0,-1,1812,1821,0,0
595,-797,0,0,0,0,0,0,0,0,0,-1,1819,1821,0,0
602,-797,0,0,0,0,0,0,0,0,0,-1,1826,1821,0,0
609,-797,0,0,0,0,0,0,0,0,0,-1,1833,1821,0,0
616,-797,0,0,0,0,0,0,0,0,0,-1,1840,1821,0,0
623,-797,0,0,0,0,0,0,0,0,0,-1,1847,1821,0,0
630,-797,0,0,0,0,0,0,0,0,0,-1,1854,1821,0,0
637,-797,0,0,0,0,0,0,0,0,0,-1,1861,1821,0,0
644,-797,0,0,0,0,0,0,0,0,0,-1,1868,1821,0,0
651,-797,0,0,0,0,0,0,0,0,0,-1,1875,1821,0,0
658,-797,0,0,0,0,0,0,0,0,0,-1,1882,1821,0,0
665,-797,0,0,0,0,0,0,0,0,0,-1,1889,1821,0,0
672,-797,0,0,0,0,0,0,0,0,0,-1,1896,1821,0,0
679,-797,0,0,0,0,0,0,0,0,0,-1,1903,1821,0,0
686,-797,0,0,0,0,0,0,0,0,0,-1,1910,1821,0,0
693,-797,0,0,0,0,0,0,0,0,0,-1,1917,1821,0,0
700,-797,0,0,0,0,0,0,0,0,0,-1,1924,1821,0,0
707,-797,0,0,0,0,0,0,0,0,0,-1,1931,1821,0,0
714,-797,0,0,0,0,0,0,0,0,0,-1,1938,1821,0,0
721,-797,0,0,0,0,0,0,0,0,0,-1,1945,1821,0,0
728,-797,0,0,0,0,0,0,0,0,0,-1,1952,1821,0,0
735,-797,0,0,0,0,0,0,0,0,0,-1,1959,1821,0,0
742,-797,0,0,0,0,0,0,0,0,0,-1,1966,1821,0,0
749,-797,0,0,0,0,0,0,0,0,0,-1,1973,1821,0,0
756,-797,0,0,0,0,0,0,0,0,0,-1,1980,1821,0,0
763,-797,0,0,0,0,0,0,0,0,0,-1,1987,1821,0,0
770,-797,0,0,0,0,0,0,0,0,0,-1,1994,1821,0,0
777,-797,0,0,0,0,0,0,0,0,0,-1,2001,1821,0,0
784,-797,0,0,0,0,0,0,0,0,0,-1,2008,1821,0,0
791,-797,0,0,0,0,0,0,0,0,0,-1,2015,1821,0,0
798,-797,0,0,0,0,0,0,0,0,0,-1,2022,1821,0,0
805,-797,0,0,0,0,0,0,0,0,0,-1,2029,1821,0,0
812,-797,0,0,0,0,0,0,0,0,0,-1,2036,1821,0,0
-700,-804,0,0,0,0,0,0,0,0,0,-1,524,1828,0,0
-693,-804,0,0,0,0,0,0,0,0,0,-1,531,1828,0,0
-686,-804,0,0,0,0,0,0,0,0,0,-1,538,1828,0,0
-679,-804,0,0,0,0,0,0,0,0,0,-1,545,1828,0,0
-672,-804,0,0,0,0,0,0,0,0,0,-1,552,1828,0,0
-665,-804,0,0,0,0,0,0,0,0,0,-1,559,1828,0,0
-658,-804,0,0,0,0,0,0,0,0,0,-1,566,1828,0,0
-651,-804,0,0,0,0,0,0,0,0,0,-1,573,1828,0,0
-644,-804,0,0,0,0,0,0,0,0,0,-1,580,1828,0,0
-637,-804,0,0,0,0,0,0,0,0,0,-1,587,1828,0,0
-630,-804,0,0,0,0,0,0,0,0,0,-1,594,1828,0,0
-623,-804,0,0,0,0,0,0,0,0,0,-1,601,1828,0,0
-616,-804,0,0,0,0,0,0,0,0,0,-1,608,1828,0,0
-609,-804,0,0,0,0,0,0,0,0,0,-1,615,1828,0,0
-602,-804,0,0,0,0,0,0,0,0,0,-1,622,1828,0,0
-595,-804,0,0,0,0,0,0,0,0,0,-1,629,1828,0,0
-588,-804,0,0,0,0,0,0,0,0,0,-1,636,1828,0,0
-581,-804,0,0,0,0,0,0,0,0,0,-1,643,1828,0,0
-574,-804,0,0,0,0,0,0,0,0,0,-1,650,1828,0,0
-567,-804,0,0,0,0,0,0,0,0,0,-1,657,1828,0,0
-560,-804,0,0,0,0,0,0,0,0,0,-1,664,1828,0,0
-553,-804,0,0,0,0,0,0,0,0,0,-1,671,1828,0,0
-546,-804,0,0,0,0,0,0,0,0,0,-1,678,1828,0,0
-539,-804,0,0,0,0,0,0,0,0,0,-1,685,1828,0,0
-532,-804,0,0,0,0,0,0,0,0,0,-1,692,1828,0,0
-525,-804,0,0,0,0,0,0,0,0,0,-1,699,1828,0,0
-518,-804,0,0,0,0,0,0,0,0,0,-1,706,1828,0,0
-511,-804,0,0,0,0,0,0,0,0,0,-1,713,1828,0,0
-504,-804,0,0,0,0,0,0,0,0,0,-1,720,1828,0,0
-497,-804,0,0,0,0,0,0,0,0,0,-1,727,1828,0,0
-490,-804,0,0,0,0,0,0,0,0,0,-1,734,1828,0,0
-483,-804,0,0,0,0,0,0,0,0,0,-1,741,1828,0,0
-476,-804,0,0,0,0,0,0,0,0,0,-1,748,1828,0,0
-469,-804,0,0,0,0,0,0,0,0,0,-1,755,1828,0,0
-462,-804,0,0,0,0,0,0,0,0,0,-1,762,1828,0,0
-455,-804,0,0,0,0,0,0,0,0,0,-1,769,1828,0,0
-448,-804,0,0,0,0,0,0,0,0,0,-1,776,1828,0,0
-441,-804,0,0,0,0,0,0,0,0,0,-1,783,1828,0,0
-434,-804,0,0,0,0,0,0,0,0,0,-1,790,1828,0,0
-427,-804,0,0,0,0,0,0,0,0,0,-1,797,1828,0,0
-420,-804,0,0,0,0,0,0,0,0,0,-1,804,1828,0,0
-413,-804,0,0,0,0,0,0,0,0,0,-1,811,1828,0,0
-406,-804,0,0,0,0,0,0,0,0,0,-1,818,1828,0,0
-399,-804,0,0,0,0,0,0,0,0,0,-1,825,1828,0,0
-392,-804,0,0,0,0,0,0,0,0,0,-1,832,1828,0,0
-385,-804,0,0,0,0,0,0,0,0,0,-1,839,1828,0,0
-378,-804,0,0,0,0,0,0,0,0,0,-1,846,1828,0,0
-371,-804,0,0,0,0,0,0,0,0,0,-1,853,1828,0,0
-364,-804,0,0,0,0,0,0,0,0,0,-1,860,1828,0,0
-357,-804,0,0,0,0,0,0,0,0,0,-1,867,1828,0,0
-350,-804,0,0,0,0,0,0,0,0,0,-1,874,1828,0,0
-343,-804,0,0,0,0,0,0,0,0,0,-1,881,1828,0,0
-336,-804,0,0,0,0,0,0,0,0,0,-1,888,1828,0,0
-329,-804,0,0,0,0,0,0,0,0,0,-1,895,1828,0,0
-322,-804,0,0,0,0,0,0,0,0,0,-1,902,1828,0,0
-315,-804,0,0,0,0,0,0,0,0,0,-1,909,1828,0,0
-308,-804,0,0,0,0,0,0,0,0,0,-1,916,1828,0,0
-301,-804,0,0,0,0,0,0,0,0,0,-1,923,1828,0,0
-294,-804,0,0,0,0,0,0,0,0,0,-1,930,1828,0,0
-287,-804,0,0,0,0,0,0,0,0,0,-1,937,1828,0,0
-280,-804,0,0,0,0,0,0,0,0,0,-1,944,1828,0,0
-273,-804,0,0,0,0,0,0,0,0,0,-1,951,1828,0,0
-266,-804,0,0,0,0,0,0,0,0,0,-1,958,1828,0,0
-259,-804,0,0,0,0,0,0,0,0,0,-1,965,1828,0,0
-252,-804,0,0,0,0,0,0,0,0,0,-1,972,1828,0,0
-245,-804,0,0,0,0,0,0,0,0,0,-1,979,1828,0,0
-238,-804,0,0,0,0,0,0,0,0,0,-1,986,1828,0,0
-231,-804,0,0,0,0,0,0,0,0,0,-1,993,1828,0,0
-224,-804,0,0,0,0,0,0,0,0,0,-1,1000,1828,0,0
-217,-804,0,0,0,0,0,0,0,0,0,-1,1007,1828,0,0
-210,-804,0,0,0,0,0,0,0,0,0,-1,1014,1828,0,0
-203,-804,0,0,0,0,0,0,0,0,0,-1,1021,1828,0,0
-196,-804,0,0,0,0,0,0,0,0,0,-1,1028,1828,0,0
-189,-804,0,0,0,0,0,0,0,0,0,-1,1035,1828,0,0
-182,-804,0,0,0,0,0,0,0,0,0,-1,1042,1828,0,0
-175,-804,0,0,0,0,0,0,0,0,0,-1,1049,1828,0,0
-168,-804,0,0,0,0,0,0,0,0,0,-1,1056,1828,0,0
-161,-804,0,0,0,0,0,0,0,0,0,-1,1063,1828,0,0
-154,-804,0,0,0,0,0,0,0,0,0,-1,1070,1828,0,0
-147,-804,0,0,0,0,0,0,0,0,0,-1,1077,1828,0,0
-140,-804,0,0,0,0,0,0,0,0,0,-1,1084,1828,0,0
-133,-804,0,0,0,0,0,0,0,0,0,-1,1091,1828,0,0
-126,-804,0,0,0,0,0,0,0,0,0,-1,1098,1828,0,0
-119,-804,0,0,0,0,0,0,0,0,0,-1,1105,1828,0,0
-112,-804,0,0,0,0,0,0,0,0,0,-1,1112,1828,0,0
-105,-804,0,0,0,0,0,0,0,0,0,-1,1119,1828,0,0
-98,-804,0,0,0,0,0,0,0,0,0,-1,1126,1828,0,0
-91,-804,0,0,0,0,0,0,0,0,0,-1,1133,1828,0,0
-84,-804,0,0,0,0,0,0,0,0,0,-1,1140,1828,0,0
-77,-804,0,0,0,0,0,0,0,0,0,-1,1147,1828,0,0
-70,-804,0,0,0,0,0,0,0,0,0,-1,1154,1828,0,0
-63,-804,0,0,0,0,0,0,0,0,0,-1,1161,1828,0,0
-56,-804,0,0,0,0,0,0,0,0,0,-1,1168,1828,0,0
-49,-804,0,0,0,0,0,0,0,0,0,-1,1175,1828,0,0
-42,-804,0,0,0,0,0,0,0,0,0,-1,1182,1828,0,0
-35,-804,0,0,0,0,0,0,0,0,0,-1,1189,1828,0,0
-28,-804,0,0,0,0,0,0,0,0,0,-1,1196,1828,0,0
-21,-804,0,0,0,0,0,0,0,0,0,-1,1203,1828,0,0
-14,-804,0,0,0,0,0,0,0,0,0,-1,1210,1828,0,0
-7,-804,0,0,0,0,0,0,0,0,0,-1,1217,1828,0,0
0,-804,0,0,0,0,0,0,0,0,0,-1,1224,1828,0,0
7,-804,0,0,0,0,0,0,0,0,0,-1,1231,1828,0,0
14,-804,0,0,0,0,0,0,0,0,0,-1,1238,1828,0,0
21,-804,0,0,0,0,0,0,0,0,0,-1,1245,1828,0,0
28,-804,0,0,0,0,0,0,0,0,0,-1,1252,1828,0,0
35,-804,5.57898,341.244,0,0,0,0,0,0,0,-1,1259,1828,5.579,-341.243
42,-804,15.5,336.144,0,0,0,0,0,0,0,-1,1266,1828,15.5,-336.144
49,-804,16.6108,337,0,0,0,0,0,0,0,-1,1273,1828,16.6108,-337
56,-804,17.7148,337.88,0,0,0,0,0,0,0,-1,1280,1828,17.7148,-337.88
63,-804,19.2788,338.276,0,0,0,0,0,0,0,-1,1287,1828,19.2788,-338.276
70,-804,20.4036,339.281,0,0,0,0,0,0,0,-1,1294,1828,20.4036,-339.281
77,-804,21.5282,340.203,0,0,0,0,0,0,0,-1,1301,1828,21.5282,-340.203
84,-804,22.4292,341.031,0,0,0,0,0,0,0,-1,1308,1828,22.4291,-341.031
91,-804,0,0,0,0,0,0,0,0,0,-1,1315,1828,0,0
98,-804,0,0,0,0,0,0,0,0,0,-1,1322,1828,0,0
105,-804,0,0,0,0,0,0,0,0,0,-1,1329,1828,0,0
112,-804,0,0,0,0,0,0,0,0,0,-1,1336,1828,0,0
119,-804,0,0,0,0,0,0,0,0,0,-1,1343,1828,0,0
126,-804,0,0,0,0,0,0,0,0,0,-1,1350,1828,0,0
133,-804,0,0,0,0,0,0,0,0,0,-1,1357,1828,0,0
140,-804,0,0,0,0,0,0,0,0,0,-1,1364,1828,0,0
147,-804,0,0,0,0,0,0,0,0,0,-1,1371,1828,0,0
154,-804,0,0,0,0,0,0,0,0,0,-1,1378,1828,0,0
161,-804,0,0,0,0,0,0,0,0,0,-1,1385,1828,0,0
168,-804,0,0,0,0,0,0,0,0,0,-1,1392,1828,0,0
175,-804,0,0,0,0,0,0,0,0,0,-1,1399,1828,0,0
182,-804,0,0,0,0,0,0,0,0,0,-1,1406,1828,0,0
189,-804,0,0,0,0,0,0,0,0,0,-1,1413,1828,0,0
196,-804,0,0,0,0,0,0,0,0,0,-1,1420,1828,0,0
203,-804,0,0,0,0,0,0,0,0,0,-1,1427,1828,0,0
210,-804,0,0,0,0,0,0,0,0,0,-1,1434,1828,0,0
217,-804,0,0,0,0,0,0,0,0,0,-1,1441,1828,0,0
224,-804,0,0,0,0,0,0,0,0,0,-1,1448,1828,0,0
231,-804,0,0,0,0,0,0,0,0,0,-1,1455,1828,0,0
238,-804,0,0,0,0,0,0,0,0,0,-1,1462,1828,0,0
245,-804,0,0,0,0,0,0,0,0,0,-1,1469,1828,0,0
252,-804,0,0,0,0,0,0,0,0,0,-1,1476,1828,0,0
259,-804,0,0,0,0,0,0,0,0,0,-1,1483,1828,0,0
266,-804,0,0,0,0,0,0,0,0,0,-1,1490,1828,0,0
273,-804,0,0,0,0,0,0,0,0,0,-1,1497,1828,0,0
280,-804,0,0,0,0,0,0,0,0,0,-1,1504,1828,0,0
287,-804,0,0,0,0,0,0,0,0,0,-1,1511,1828,0,0
294,-804,0,0,0,0,0,0,0,0,0,-1,1518,1828,0,0
301,-804,0,0,0,0,0,0,0,0,0,-1,1525,1828,0,0
308,-804,0,0,0,0,0,0,0,0,0,-1,1532,1828,0,0
315,-804,0,0,0,0,0,0,0,0,0,-1,1539,1828,0,0
322,-804,0,0,0,0,0,0,0,0,0,-1,1546,1828,0,0
329,-804,0,0,0,0,0,0,0,0,0,-1,1553,1828,0,0
336,-804,0,0,0,0,0,0,0,0,0,-1,1560,1828,0,0
343,-804,0,0,0,0,0,0,0,0,0,-1,1567,1828,0,0
350,-804,0,0,0,0,0,0,0,0,0,-1,1574,1828,0,0
357,-804,0,0,0,0,0,0,0,0,0,-1,1581,1828,0,0
364,-804,0,0,0,0,0,0,0,0,0,-1,1588,1828,0,0
371,-804,0,0,0,0,0,0,0,0,0,-1,1595,1828,0,0
378,-804,0,0,0,0,0,0,0,0,0,-1,1602,1828,0,0
385,-804,0,0,0,0,0,0,0,0,0,-1,1609,1828,0,0
392,-804,0,0,0,0,0,0,0,0,0,-1,1616,1828,0,0
399,-804,0,0,0,0,0,0,0,0,0,-1,1623,1828,0,0
406,-804,0,0,0,0,0,0,0,0,0,-1,1630,1828,0,0
413,-804,0,0,0,0,0,0,0,0,0,-1,1637,1828,0,0
420,-804,0,0,0,0,0,0,0,0,0,-1,1644,1828,0,0
427,-804,0,0,0,0,0,0,0,0,0,-1,1651,1828,0,0
434,-804,0,0,0,0,0,0,0,0,0,-1,1658,1828,0,0
441,-804,0,0,0,0,0,0,0,0,0,-1,1665,1828,0,0
448,-804,0,0,0,0,0,0,0,0,0,-1,1672,1828,0,0
455,-804,0,0,0,0,0,0,0,0,0,-1,1679,1828,0,0
462,-804,0,0,0,0,0,0,0,0,0,-1,1686,1828,0,0
469,-804,0,0,0,0,0,0,0,0,0,-1,1693,1828,0,0
476,-804,0,0,0,0,0,0,0,0,0,-1,1700,1828,0,0
483,-804,0,0,0,0,0,0,0,0,0,-1,1707,1828,0,0
490,-804,0,0,0,0,0,0,0,0,0,-1,1714,1828,0,0
497,-804,0,0,0,0,0,0,0,0,0,-1,1721,1828,0,0
504,-804,0,0,0,0,0,0,0,0,0,-1,1728,1828,0,0
511,-804,0,0,0,0,0,0,0,0,0,-1,1735,1828,0,0
518,-804,0,0,0,0,0,0,0,0,0,-1,1742,1828,0,0
525,-804,0,0,0,0,0,0,0,0,0,-1,1749,1828,0,0
532,-804,0,0,0,0,0,0,0,0,0,-1,1756,1828,0,0
539,-804,0,0,0,0,0,0,0,0,0,-1,1763,1828,0,0
546,-804,0,0,0,0,0,0,0,0,0,-1,1770,1828,0,0
553,-804,0,0,0,0,0,0,0,0,0,-1,1777,1828,0,0
560,-804,0,0,0,0,0,0,0,0,0,-1,1784,1828,0,0
567,-804,0,0,0,0,0,0,0,0,0,-1,1791,1828,0,0
574,-804,0,0,0,0,0,0,0,0,0,-1,1798,1828,0,0
581,-804,0,0,0,0,0,0,0,0,0,-1,1805,1828,0,0
588,-804,0,0,0,0,0,0,0,0,0,-1,1812,1828,0,0
595,-804,0,0,0,0,0,0,0,0,0,-1,1819,1828,0,0
602,-804,0,0,0,0,0,0,0,0,0,-1,1826,1828,0,0
609,-804,0,0,0,0,0,0,0,0,0,-1,1833,1828,0,0
616,-804,0,0,0,0,0,0,0,0,0,-1,1840,1828,0,0
623,-804,0,0,0,0,0,0,0,0,0,-1,1847,1828,0,0
630,-804,0,0,0,0,0,0,0,0,0,-1,1854,1828,0,0
637,-804,0,0,0,0,0,0,0,0,0,-1,1861,1828,0,0
644,-804,0,0,0,0,0,0,0,0,0,-1,1868,1828,0,0
651,-804,0,0,0,0,0,0,0,0,0,-1,1875,1828,0,0
658,-804,0,0,0,0,0,0,0,0,0,-1,1882,1828,0,0
665,-804,0,0,0,0,0,0,0,0,0,-1,1889,1828,0,0
672,-804,0,0,0,0,0,0,0,0,0,-1,1896,1828,0,0
679,-804,0,0,0,0,0,0,0,0,0,-1,1903,1828,0,0
686,-804,0,0,0,0,0,0,0,0,0,-1,1910,1828,0,0
693,-804,0,0,0,0,0,0,0,0,0,-1,1917,1828,0,0
700,-804,0,0,0,0,0,0,0,0,0,-1,1924,1828,0,0
707,-804,0,0,0,0,0,0,0,0,0,-1,1931,1828,0,0
714,-804,0,0,0,0,0,0,0,0,0,-1,1938,1828,0,0
721,-804,0,0,0,0,0,0,0,0,0,-1,1945,1828,0,0
728,-804,0,0,0,0,0,0,0,0,0,-1,1952,1828,0,0
735,-804,0,0,0,0,0,0,0,0,0,-1,1959,1828,0,0
742,-804,0,0,0,0,0,0,0,0,0,-1,1966,1828,0,0
749,-804,0,0,0,0,0,0,0,0,0,-1,1973,1828,0,0
756,-804,0,0,0,0,0,0,0,0,0,-1,1980,1828,0,0
763,-804,0,0,0,0,0,0,0,0,0,-1,1987,1828,0,0
770,-804,0,0,0,0,0,0,0,0,0,-1,1994,1828,0,0
777,-804,0,0,0,0,0,0,0,0,0,-1,2001,1828,0,0
784,-804,0,0,0,0,0,0,0,0,0,-1,2008,1828,0,0
791,-804,0,0,0,0,0,0,0,0,0,-1,2015,1828,0,0
798,-804,0,0,0,0,0,0,0,0,0,-1,2022,1828,0,0
805,-804,0,0,0,0,0,0,0,0,0,-1,2029,1828,0,0
812,-804,0,0,0,0,0,0,0,0,0,-1,2036,1828,0,0

