 "x_c",  "y_c",  "u_c",  "v_c",  "exx",  "eyy",  "exy",  "e1",  "e2",  "gamma",  "e_vonmises",  "sigma",  "x",  "y",  "u",  "v"
-700,715,0,0,0,0,0,0,0,0,0,-1,524,309,0,0
-693,715,0,0,0,0,0,0,0,0,0,-1,531,309,0,0
-686,715,0,0,0,0,0,0,0,0,0,-1,538,309,0,0
-679,715,0,0,0,0,0,0,0,0,0,-1,545,309,0,0
-672,715,0,0,0,0,0,0,0,0,0,-1,552,309,0,0
-665,715,0,0,0,0,0,0,0,0,0,-1,559,309,0,0
-658,715,0,0,0,0,0,0,0,0,0,-1,566,309,0,0
-651,715,0,0,0,0,0,0,0,0,0,-1,573,309,0,0
-644,715,0,0,0,0,0,0,0,0,0,-1,580,309,0,0
-637,715,0,0,0,0,0,0,0,0,0,-1,587,309,0,0
-630,715,0,0,0,0,0,0,0,0,0,-1,594,309,0,0
-623,715,0,0,0,0,0,0,0,0,0,-1,601,309,0,0
-616,715,0,0,0,0,0,0,0,0,0,-1,608,309,0,0
-609,715,0,0,0,0,0,0,0,0,0,-1,615,309,0,0
-602,715,0,0,0,0,0,0,0,0,0,-1,622,309,0,0
-595,715,0,0,0,0,0,0,0,0,0,-1,629,309,0,0
-588,715,0,0,0,0,0,0,0,0,0,-1,636,309,0,0
-581,715,0,0,0,0,0,0,0,0,0,-1,643,309,0,0
-574,715,0,0,0,0,0,0,0,0,0,-1,650,309,0,0
-567,715,0,0,0,0,0,0,0,0,0,-1,657,309,0,0
-560,715,0,0,0,0,0,0,0,0,0,-1,664,309,0,0
-553,715,0,0,0,0,0,0,0,0,0,-1,671,309,0,0
-546,715,0,0,0,0,0,0,0,0,0,-1,678,309,0,0
-539,715,0,0,0,0,0,0,0,0,0,-1,685,309,0,0
-532,715,0,0,0,0,0,0,0,0,0,-1,692,309,0,0
-525,715,0,0,0,0,0,0,0,0,0,-1,699,309,0,0
-518,715,0,0,0,0,0,0,0,0,0,-1,706,309,0,0
-511,715,0,0,0,0,0,0,0,0,0,-1,713,309,0,0
-504,715,0,0,0,0,0,0,0,0,0,-1,720,309,0,0
-497,715,0,0,0,0,0,0,0,0,0,-1,727,309,0,0
-490,715,0,0,0,0,0,0,0,0,0,-1,734,309,0,0
-483,715,0,0,0,0,0,0,0,0,0,-1,741,309,0,0
-476,715,0,0,0,0,0,0,0,0,0,-1,748,309,0,0
-469,715,0,0,0,0,0,0,0,0,0,-1,755,309,0,0
-462,715,0,0,0,0,0,0,0,0,0,-1,762,309,0,0
-455,715,0,0,0,0,0,0,0,0,0,-1,769,309,0,0
-448,715,0,0,0,0,0,0,0,0,0,-1,776,309,0,0
-441,715,0,0,0,0,0,0,0,0,0,-1,783,309,0,0
-434,715,0,0,0,0,0,0,0,0,0,-1,790,309,0,0
-427,715,0,0,0,0,0,0,0,0,0,-1,797,309,0,0
-420,715,0,0,0,0,0,0,0,0,0,-1,804,309,0,0
-413,715,0,0,0,0,0,0,0,0,0,-1,811,309,0,0
-406,715,0,0,0,0,0,0,0,0,0,-1,818,309,0,0
-399,715,0,0,0,0,0,0,0,0,0,-1,825,309,0,0
-392,715,0,0,0,0,0,0,0,0,0,-1,832,309,0,0
-385,715,0,0,0,0,0,0,0,0,0,-1,839,309,0,0
-378,715,0,0,0,0,0,0,0,0,0,-1,846,309,0,0
-371,715,0,0,0,0,0,0,0,0,0,-1,853,309,0,0
-364,715,0,0,0,0,0,0,0,0,0,-1,860,309,0,0
-357,715,0,0,0,0,0,0,0,0,0,-1,867,309,0,0
-350,715,0,0,0,0,0,0,0,0,0,-1,874,309,0,0
-343,715,0,0,0,0,0,0,0,0,0,-1,881,309,0,0
-336,715,0,0,0,0,0,0,0,0,0,-1,888,309,0,0
-329,715,0,0,0,0,0,0,0,0,0,-1,895,309,0,0
-322,715,0,0,0,0,0,0,0,0,0,-1,902,309,0,0
-315,715,0,0,0,0,0,0,0,0,0,-1,909,309,0,0
-308,715,0,0,0,0,0,0,0,0,0,-1,916,309,0,0
-301,715,0,0,0,0,0,0,0,0,0,-1,923,309,0,0
-294,715,0,0,0,0,0,0,0,0,0,-1,930,309,0,0
-287,715,0,0,0,0,0,0,0,0,0,-1,937,309,0,0
-280,715,0,0,0,0,0,0,0,0,0,-1,944,309,0,0
-273,715,0,0,0,0,0,0,0,0,0,-1,951,309,0,0
-266,715,0,0,0,0,0,0,0,0,0,-1,958,309,0,0
-259,715,0,0,0,0,0,0,0,0,0,-1,965,309,0,0
-252,715,0,0,0,0,0,0,0,0,0,-1,972,309,0,0
-245,715,0,0,0,0,0,0,0,0,0,-1,979,309,0,0
-238,715,0,0,0,0,0,0,0,0,0,-1,986,309,0,0
-231,715,0,0,0,0,0,0,0,0,0,-1,993,309,0,0
-224,715,0,0,0,0,0,0,0,0,0,-1,1000,309,0,0
-217,715,0,0,0,0,0,0,0,0,0,-1,1007,309,0,0
-210,715,0,0,0,0,0,0,0,0,0,-1,1014,309,0,0
-203,715,0,0,0,0,0,0,0,0,0,-1,1021,309,0,0
-196,715,0,0,0,0,0,0,0,0,0,-1,1028,309,0,0
-189,715,0,0,0,0,0,0,0,0,0,-1,1035,309,0,0
-182,715,0,0,0,0,0,0,0,0,0,-1,1042,309,0,0
-175,715,0,0,0,0,0,0,0,0,0,-1,1049,309,0,0
-168,715,0,0,0,0,0,0,0,0,0,-1,1056,309,0,0
-161,715,0,0,0,0,0,0,0,0,0,-1,1063,309,0,0
-154,715,0,0,0,0,0,0,0,0,0,-1,1070,309,0,0
-147,715,0,0,0,0,0,0,0,0,0,-1,1077,309,0,0
-140,715,0,0,0,0,0,0,0,0,0,-1,1084,309,0,0
-133,715,0,0,0,0,0,0,0,0,0,-1,1091,309,0,0
-126,715,0,0,0,0,0,0,0,0,0,-1,1098,309,0,0
-119,715,0,0,0,0,0,0,0,0,0,-1,1105,309,0,0
-112,715,0,0,0,0,0,0,0,0,0,-1,1112,309,0,0
-105,715,0,0,0,0,0,0,0,0,0,-1,1119,309,0,0
-98,715,0,0,0,0,0,0,0,0,0,-1,1126,309,0,0
-91,715,0,0,0,0,0,0,0,0,0,-1,1133,309,0,0
-84,715,0,0,0,0,0,0,0,0,0,-1,1140,309,0,0
-77,715,0,0,0,0,0,0,0,0,0,-1,1147,309,0,0
-70,715,0,0,0,0,0,0,0,0,0,-1,1154,309,0,0
-63,715,0,0,0,0,0,0,0,0,0,-1,1161,309,0,0
-56,715,0,0,0,0,0,0,0,0,0,-1,1168,309,0,0
-49,715,0,0,0,0,0,0,0,0,0,-1,1175,309,0,0
-42,715,0,0,0,0,0,0,0,0,0,-1,1182,309,0,0
-35,715,0,0,0,0,0,0,0,0,0,-1,1189,309,0,0
-28,715,0,0,0,0,0,0,0,0,0,-1,1196,309,0,0
-21,715,0,0,0,0,0,0,0,0,0,-1,1203,309,0,0
-14,715,0,0,0,0,0,0,0,0,0,-1,1210,309,0,0
-7,715,0,0,0,0,0,0,0,0,0,-1,1217,309,0,0
0,715,0,0,0,0,0,0,0,0,0,-1,1224,309,0,0
7,715,0,0,0,0,0,0,0,0,0,-1,1231,309,0,0
14,715,0,0,0,0,0,0,0,0,0,-1,1238,309,0,0
21,715,0,0,0,0,0,0,0,0,0,-1,1245,309,0,0
28,715,0,0,0,0,0,0,0,0,0,-1,1252,309,0,0
35,715,0,0,0,0,0,0,0,0,0,-1,1259,309,0,0
42,715,0,0,0,0,0,0,0,0,0,-1,1266,309,0,0
49,715,0,0,0,0,0,0,0,0,0,-1,1273,309,0,0
56,715,0,0,0,0,0,0,0,0,0,-1,1280,309,0,0
63,715,0.822266,-11.306,0.0593462,0.00402085,-0.0745502,0.111201,-0.0478334,-0.607741,0.0942165,0.0438269,1287,309,0.822237,11.306
70,715,0.91333,-11.298,0,0,0,0,0,0,0,-1,1294,309,0.913304,11.298
77,715,0,0,0,0,0,0,0,0,0,-1,1301,309,0,0
84,715,0,0,0,0,0,0,0,0,0,-1,1308,309,0,0
91,715,0,0,0,0,0,0,0,0,0,-1,1315,309,0,0
98,715,0,0,0,0,0,0,0,0,0,-1,1322,309,0,0
105,715,0,0,0,0,0,0,0,0,0,-1,1329,309,0,0
112,715,0,0,0,0,0,0,0,0,0,-1,1336,309,0,0
119,715,0,0,0,0,0,0,0,0,0,-1,1343,309,0,0
126,715,0,0,0,0,0,0,0,0,0,-1,1350,309,0,0
133,715,0,0,0,0,0,0,0,0,0,-1,1357,309,0,0
140,715,0,0,0,0,0,0,0,0,0,-1,1364,309,0,0
147,715,0,0,0,0,0,0,0,0,0,-1,1371,309,0,0
154,715,0,0,0,0,0,0,0,0,0,-1,1378,309,0,0
161,715,0,0,0,0,0,0,0,0,0,-1,1385,309,0,0
168,715,0,0,0,0,0,0,0,0,0,-1,1392,309,0,0
175,715,0,0,0,0,0,0,0,0,0,-1,1399,309,0,0
182,715,0,0,0,0,0,0,0,0,0,-1,1406,309,0,0
189,715,0,0,0,0,0,0,0,0,0,-1,1413,309,0,0
196,715,0,0,0,0,0,0,0,0,0,-1,1420,309,0,0
203,715,0,0,0,0,0,0,0,0,0,-1,1427,309,0,0
210,715,0,0,0,0,0,0,0,0,0,-1,1434,309,0,0
217,715,0,0,0,0,0,0,0,0,0,-1,1441,309,0,0
224,715,0,0,0,0,0,0,0,0,0,-1,1448,309,0,0
231,715,0,0,0,0,0,0,0,0,0,-1,1455,309,0,0
238,715,0,0,0,0,0,0,0,0,0,-1,1462,309,0,0
245,715,0,0,0,0,0,0,0,0,0,-1,1469,309,0,0
252,715,0,0,0,0,0,0,0,0,0,-1,1476,309,0,0
259,715,0,0,0,0,0,0,0,0,0,-1,1483,309,0,0
266,715,0,0,0,0,0,0,0,0,0,-1,1490,309,0,0
273,715,0,0,0,0,0,0,0,0,0,-1,1497,309,0,0
280,715,0,0,0,0,0,0,0,0,0,-1,1504,309,0,0
287,715,0,0,0,0,0,0,0,0,0,-1,1511,309,0,0
294,715,0,0,0,0,0,0,0,0,0,-1,1518,309,0,0
301,715,0,0,0,0,0,0,0,0,0,-1,1525,309,0,0
308,715,0,0,0,0,0,0,0,0,0,-1,1532,309,0,0
315,715,0,0,0,0,0,0,0,0,0,-1,1539,309,0,0
322,715,0,0,0,0,0,0,0,0,0,-1,1546,309,0,0
329,715,0,0,0,0,0,0,0,0,0,-1,1553,309,0,0
336,715,0,0,0,0,0,0,0,0,0,-1,1560,309,0,0
343,715,0,0,0,0,0,0,0,0,0,-1,1567,309,0,0
350,715,0,0,0,0,0,0,0,0,0,-1,1574,309,0,0
357,715,0,0,0,0,0,0,0,0,0,-1,1581,309,0,0
364,715,0,0,0,0,0,0,0,0,0,-1,1588,309,0,0
371,715,0,0,0,0,0,0,0,0,0,-1,1595,309,0,0
378,715,0,0,0,0,0,0,0,0,0,-1,1602,309,0,0
385,715,0,0,0,0,0,0,0,0,0,-1,1609,309,0,0
392,715,0,0,0,0,0,0,0,0,0,-1,1616,309,0,0
399,715,0,0,0,0,0,0,0,0,0,-1,1623,309,0,0
406,715,0,0,0,0,0,0,0,0,0,-1,1630,309,0,0
413,715,0,0,0,0,0,0,0,0,0,-1,1637,309,0,0
420,715,0,0,0,0,0,0,0,0,0,-1,1644,309,0,0
427,715,0,0,0,0,0,0,0,0,0,-1,1651,309,0,0
434,715,0,0,0,0,0,0,0,0,0,-1,1658,309,0,0
441,715,0,0,0,0,0,0,0,0,0,-1,1665,309,0,0
448,715,0,0,0,0,0,0,0,0,0,-1,1672,309,0,0
455,715,0,0,0,0,0,0,0,0,0,-1,1679,309,0,0
462,715,0,0,0,0,0,0,0,0,0,-1,1686,309,0,0
469,715,0,0,0,0,0,0,0,0,0,-1,1693,309,0,0
476,715,0,0,0,0,0,0,0,0,0,-1,1700,309,0,0
483,715,0,0,0,0,0,0,0,0,0,-1,1707,309,0,0
490,715,0,0,0,0,0,0,0,0,0,-1,1714,309,0,0
497,715,0,0,0,0,0,0,0,0,0,-1,1721,309,0,0
504,715,0,0,0,0,0,0,0,0,0,-1,1728,309,0,0
511,715,0,0,0,0,0,0,0,0,0,-1,1735,309,0,0
518,715,0,0,0,0,0,0,0,0,0,-1,1742,309,0,0
525,715,0,0,0,0,0,0,0,0,0,-1,1749,309,0,0
532,715,0,0,0,0,0,0,0,0,0,-1,1756,309,0,0
539,715,0,0,0,0,0,0,0,0,0,-1,1763,309,0,0
546,715,0,0,0,0,0,0,0,0,0,-1,1770,309,0,0
553,715,0,0,0,0,0,0,0,0,0,-1,1777,309,0,0
560,715,0,0,0,0,0,0,0,0,0,-1,1784,309,0,0
567,715,0,0,0,0,0,0,0,0,0,-1,1791,309,0,0
574,715,0,0,0,0,0,0,0,0,0,-1,1798,309,0,0
581,715,0,0,0,0,0,0,0,0,0,-1,1805,309,0,0
588,715,0,0,0,0,0,0,0,0,0,-1,1812,309,0,0
595,715,0,0,0,0,0,0,0,0,0,-1,1819,309,0,0
602,715,0,0,0,0,0,0,0,0,0,-1,1826,309,0,0
609,715,0,0,0,0,0,0,0,0,0,-1,1833,309,0,0
616,715,0,0,0,0,0,0,0,0,0,-1,1840,309,0,0
623,715,0,0,0,0,0,0,0,0,0,-1,1847,309,0,0
630,715,0,0,0,0,0,0,0,0,0,-1,1854,309,0,0
637,715,0,0,0,0,0,0,0,0,0,-1,1861,309,0,0
644,715,0,0,0,0,0,0,0,0,0,-1,1868,309,0,0
651,715,0,0,0,0,0,0,0,0,0,-1,1875,309,0,0
658,715,0,0,0,0,0,0,0,0,0,-1,1882,309,0,0
665,715,0,0,0,0,0,0,0,0,0,-1,1889,309,0,0
672,715,0,0,0,0,0,0,0,0,0,-1,1896,309,0,0
679,715,0,0,0,0,0,0,0,0,0,-1,1903,309,0,0
686,715,0,0,0,0,0,0,0,0,0,-1,1910,309,0,0
693,715,0,0,0,0,0,0,0,0,0,-1,1917,309,0,0
700,715,0,0,0,0,0,0,0,0,0,-1,1924,309,0,0
707,715,0,0,0,0,0,0,0,0,0,-1,1931,309,0,0
714,715,0,0,0,0,0,0,0,0,0,-1,1938,309,0,0
721,715,0,0,0,0,0,0,0,0,0,-1,1945,309,0,0
728,715,0,0,0,0,0,0,0,0,0,-1,1952,309,0,0
735,715,0,0,0,0,0,0,0,0,0,-1,1959,309,0,0
742,715,0,0,0,0,0,0,0,0,0,-1,1966,309,0,0
749,715,0,0,0,0,0,0,0,0,0,-1,1973,309,0,0
756,715,0,0,0,0,0,0,0,0,0,-1,1980,309,0,0
763,715,0,0,0,0,0,0,0,0,0,-1,1987,309,0,0
770,715,0,0,0,0,0,0,0,0,0,-1,1994,309,0,0
777,715,0,0,0,0,0,0,0,0,0,-1,2001,309,0,0
784,715,0,0,0,0,0,0,0,0,0,-1,2008,309,0,0
791,715,0,0,0,0,0,0,0,0,0,-1,2015,309,0,0
798,715,0,0,0,0,0,0,0,0,0,-1,2022,309,0,0
805,715,0,0,0,0,0,0,0,0,0,-1,2029,309,0,0
812,715,0,0,0,0,0,0,0,0,0,-1,2036,309,0,0
-700,708,0,0,0,0,0,0,0,0,0,-1,524,316,0,0
-693,708,0,0,0,0,0,0,0,0,0,-1,531,316,0,0
-686,708,0,0,0,0,0,0,0,0,0,-1,538,316,0,0
-679,708,0,0,0,0,0,0,0,0,0,-1,545,316,0,0
-672,708,0,0,0,0,0,0,0,0,0,-1,552,316,0,0
-665,708,0,0,0,0,0,0,0,0,0,-1,559,316,0,0
-658,708,0,0,0,0,0,0,0,0,0,-1,566,316,0,0
-651,708,0,0,0,0,0,0,0,0,0,-1,573,316,0,0
-644,708,0,0,0,0,0,0,0,0,0,-1,580,316,0,0
-637,708,0,0,0,0,0,0,0,0,0,-1,587,316,0,0
-630,708,0,0,0,0,0,0,0,0,0,-1,594,316,0,0
-623,708,0,0,0,0,0,0,0,0,0,-1,601,316,0,0
-616,708,0,0,0,0,0,0,0,0,0,-1,608,316,0,0
-609,708,0,0,0,0,0,0,0,0,0,-1,615,316,0,0
-602,708,0,0,0,0,0,0,0,0,0,-1,622,316,0,0
-595,708,0,0,0,0,0,0,0,0,0,-1,629,316,0,0
-588,708,0,0,0,0,0,0,0,0,0,-1,636,316,0,0
-581,708,0,0,0,0,0,0,0,0,0,-1,643,316,0,0
-574,708,0,0,0,0,0,0,0,0,0,-1,650,316,0,0
-567,708,0,0,0,0,0,0,0,0,0,-1,657,316,0,0
-560,708,0,0,0,0,0,0,0,0,0,-1,664,316,0,0
-553,708,0,0,0,0,0,0,0,0,0,-1,671,316,0,0
-546,708,0,0,0,0,0,0,0,0,0,-1,678,316,0,0
-539,708,0,0,0,0,0,0,0,0,0,-1,685,316,0,0
-532,708,0,0,0,0,0,0,0,0,0,-1,692,316,0,0
-525,708,0,0,0,0,0,0,0,0,0,-1,699,316,0,0
-518,708,0,0,0,0,0,0,0,0,0,-1,706,316,0,0
-511,708,0,0,0,0,0,0,0,0,0,-1,713,316,0,0
-504,708,0,0,0,0,0,0,0,0,0,-1,720,316,0,0
-497,708,0,0,0,0,0,0,0,0,0,-1,727,316,0,0
-490,708,0,0,0,0,0,0,0,0,0,-1,734,316,0,0
-483,708,0,0,0,0,0,0,0,0,0,-1,741,316,0,0
-476,708,0,0,0,0,0,0,0,0,0,-1,748,316,0,0
-469,708,0,0,0,0,0,0,0,0,0,-1,755,316,0,0
-462,708,0,0,0,0,0,0,0,0,0,-1,762,316,0,0
-455,708,0,0,0,0,0,0,0,0,0,-1,769,316,0,0
-448,708,0,0,0,0,0,0,0,0,0,-1,776,316,0,0
-441,708,0,0,0,0,0,0,0,0,0,-1,783,316,0,0
-434,708,0,0,0,0,0,0,0,0,0,-1,790,316,0,0
-427,708,0,0,0,0,0,0,0,0,0,-1,797,316,0,0
-420,708,0,0,0,0,0,0,0,0,0,-1,804,316,0,0
-413,708,0,0,0,0,0,0,0,0,0,-1,811,316,0,0
-406,708,0,0,0,0,0,0,0,0,0,-1,818,316,0,0
-399,708,0,0,0,0,0,0,0,0,0,-1,825,316,0,0
-392,708,0,0,0,0,0,0,0,0,0,-1,832,316,0,0
-385,708,0,0,0,0,0,0,0,0,0,-1,839,316,0,0
-378,708,0,0,0,0,0,0,0,0,0,-1,846,316,0,0
-371,708,0,0,0,0,0,0,0,0,0,-1,853,316,0,0
-364,708,0,0,0,0,0,0,0,0,0,-1,860,316,0,0
-357,708,0,0,0,0,0,0,0,0,0,-1,867,316,0,0
-350,708,0,0,0,0,0,0,0,0,0,-1,874,316,0,0
-343,708,0,0,0,0,0,0,0,0,0,-1,881,316,0,0
-336,708,0,0,0,0,0,0,0,0,0,-1,888,316,0,0
-329,708,0,0,0,0,0,0,0,0,0,-1,895,316,0,0
-322,708,0,0,0,0,0,0,0,0,0,-1,902,316,0,0
-315,708,0,0,0,0,0,0,0,0,0,-1,909,316,0,0
-308,708,0,0,0,0,0,0,0,0,0,-1,916,316,0,0
-301,708,0,0,0,0,0,0,0,0,0,-1,923,316,0,0
-294,708,0,0,0,0,0,0,0,0,0,-1,930,316,0,0
-287,708,0,0,0,0,0,0,0,0,0,-1,937,316,0,0
-280,708,0,0,0,0,0,0,0,0,0,-1,944,316,0,0
-273,708,0,0,0,0,0,0,0,0,0,-1,951,316,0,0
-266,708,0,0,0,0,0,0,0,0,0,-1,958,316,0,0
-259,708,0,0,0,0,0,0,0,0,0,-1,965,316,0,0
-252,708,0,0,0,0,0,0,0,0,0,-1,972,316,0,0
-245,708,0,0,0,0,0,0,0,0,0,-1,979,316,0,0
-238,708,0,0,0,0,0,0,0,0,0,-1,986,316,0,0
-231,708,0,0,0,0,0,0,0,0,0,-1,993,316,0,0
-224,708,0,0,0,0,0,0,0,0,0,-1,1000,316,0,0
-217,708,0,0,0,0,0,0,0,0,0,-1,1007,316,0,0
-210,708,0,0,0,0,0,0,0,0,0,-1,1014,316,0,0
-203,708,0,0,0,0,0,0,0,0,0,-1,1021,316,0,0
-196,708,0,0,0,0,0,0,0,0,0,-1,1028,316,0,0
-189,708,0,0,0,0,0,0,0,0,0,-1,1035,316,0,0
-182,708,0,0,0,0,0,0,0,0,0,-1,1042,316,0,0
-175,708,0,0,0,0,0,0,0,0,0,-1,1049,316,0,0
-168,708,0,0,0,0,0,0,0,0,0,-1,1056,316,0,0
-161,708,0,0,0,0,0,0,0,0,0,-1,1063,316,0,0
-154,708,0,0,0,0,0,0,0,0,0,-1,1070,316,0,0
-147,708,0,0,0,0,0,0,0,0,0,-1,1077,316,0,0
-140,708,0,0,0,0,0,0,0,0,0,-1,1084,316,0,0
-133,708,0,0,0,0,0,0,0,0,0,-1,1091,316,0,0
-126,708,0,0,0,0,0,0,0,0,0,-1,1098,316,0,0
-119,708,0,0,0,0,0,0,0,0,0,-1,1105,316,0,0
-112,708,0,0,0,0,0,0,0,0,0,-1,1112,316,0,0
-105,708,0,0,0,0,0,0,0,0,0,-1,1119,316,0,0
-98,708,0,0,0,0,0,0,0,0,0,-1,1126,316,0,0
-91,708,0,0,0,0,0,0,0,0,0,-1,1133,316,0,0
-84,708,0,0,0,0,0,0,0,0,0,-1,1140,316,0,0
-77,708,0,0,0,0,0,0,0,0,0,-1,1147,316,0,0
-70,708,0,0,0,0,0,0,0,0,0,-1,1154,316,0,0
-63,708,0,0,0,0,0,0,0,0,0,-1,1161,316,0,0
-56,708,0,0,0,0,0,0,0,0,0,-1,1168,316,0,0
-49,708,0,0,0,0,0,0,0,0,0,-1,1175,316,0,0
-42,708,0,0,0,0,0,0,0,0,0,-1,1182,316,0,0
-35,708,-2.71204,-6.31558,0,0,0,0,0,0,0,-1,1189,316,-2.712,6.3156
-28,708,-2.92371,-5.53253,0,0,0,0,0,0,0,-1,1196,316,-2.92375,5.53254
-21,708,-5.32227,-7.36841,0,0,0,0,0,0,0,-1,1203,316,-5.32232,7.3684
-14,708,-2.77478,-7.51074,0,0,0,0,0,0,0,-1,1210,316,-2.77476,7.51073
-7,708,-2.41211,-7.54001,0,0,0,0,0,0,0,-1,1217,316,-2.41212,7.54
0,708,-1.78931,-7.67419,0.17776,-0.148156,-0.003227,0.177792,-0.148188,-0.00990003,0.188463,0.0482681,1224,316,-1.78925,7.67418
7,708,-1.28345,-7.62296,0.165186,-0.131366,-0.0158986,0.166036,-0.132216,-0.0534075,0.172564,0.0430491,1231,316,-1.28343,7.62295
14,708,-0.587646,-7.49606,0,0,0,0,0,0,0,-1,1238,316,-0.587686,7.49605
21,708,-0.206665,-7.6243,0.130022,-0.102041,-0.0359684,0.135469,-0.107488,-0.150297,0.140581,0.045754,1245,316,-0.206623,7.62429
28,708,-0.026123,-8.14804,0,0,0,0,0,0,0,-1,1252,316,-0.0261097,8.14803
35,708,0.041626,-8.62225,0.0950347,-0.0639625,-0.0514814,0.110248,-0.0791759,-0.287335,0.109853,0.0464997,1259,316,0.0416809,8.62225
42,708,0.213013,-9.20602,0.081311,-0.04604,-0.0566512,0.102864,-0.0675932,-0.363544,0.0991134,0.044112,1266,316,0.212979,9.20601
49,708,0.491577,-9.84735,0.0699582,-0.0290737,-0.0611041,0.0990905,-0.0582059,-0.444887,0.091832,0.0440943,1273,316,0.491564,9.84735
56,708,0.7771,-10.1705,0.0618838,-0.0110821,-0.064501,0.0995047,-0.048703,-0.52802,0.0872273,0.0438829,1280,316,0.777099,10.1705
63,708,0.939087,-10.2202,0.0532349,0.00391145,-0.0631509,0.0963687,-0.0392224,-0.599245,0.0805678,0.0438688,1287,316,0.939112,10.2202
70,708,1.125,-10.2854,0,0,0,0,0,0,0,-1,1294,316,1.12494,10.2854
77,708,-0.270508,-4.27097,0.046425,0.0199001,-0.0502276,0.0851116,-0.0187865,-0.65632,0.0639301,0.0425077,1301,316,-0.270453,4.27097
84,708,0.268188,-4.82642,0.0466669,0.0248895,-0.0425842,0.0797325,-0.0081761,-0.660231,0.0560794,0.0434166,1308,316,0.268176,4.82641
91,708,0.802856,-5.54865,0.046041,0.0278216,-0.0338834,0.072018,0.00184464,-0.654077,0.0474091,0.0481633,1315,316,0.80289,5.54864
98,708,2.70007,-8.04498,0,0,0,0,0,0,0,-1,1322,316,2.70006,8.04498
105,708,2.89709,-7.86734,0,0,0,0,0,0,0,-1,1329,316,2.8971,7.86734
112,708,2.95813,-7.49316,0.0372062,0.0161209,-5.45e-05,0.0372064,0.0161208,-0.00258471,0.0215448,0.0468781,1336,316,2.95812,7.49315
119,708,3.0387,-7.1282,0.0323989,0.0110406,0.011257,0.0372363,0.00620319,0.405866,0.0230366,0.0479342,1343,316,3.03875,7.12821
126,708,3.13184,-6.79382,0,0,0,0,0,0,0,-1,1350,316,3.13182,6.79382
133,708,-0.400391,-7.15939,0,0,0,0,0,0,0,-1,1357,316,-0.400331,7.15939
140,708,-0.630493,-6.07462,0,0,0,0,0,0,0,-1,1364,316,-0.63046,6.07461
147,708,-0.73291,-6.24179,0,0,0,0,0,0,0,-1,1371,316,-0.732927,6.2418
154,708,0,0,0,0,0,0,0,0,0,-1,1378,316,0,0
161,708,0,0,0,0,0,0,0,0,0,-1,1385,316,0,0
168,708,0,0,0,0,0,0,0,0,0,-1,1392,316,0,0
175,708,0,0,0,0,0,0,0,0,0,-1,1399,316,0,0
182,708,0,0,0,0,0,0,0,0,0,-1,1406,316,0,0
189,708,0,0,0,0,0,0,0,0,0,-1,1413,316,0,0
196,708,0,0,0,0,0,0,0,0,0,-1,1420,316,0,0
203,708,0,0,0,0,0,0,0,0,0,-1,1427,316,0,0
210,708,0,0,0,0,0,0,0,0,0,-1,1434,316,0,0
217,708,0,0,0,0,0,0,0,0,0,-1,1441,316,0,0
224,708,0,0,0,0,0,0,0,0,0,-1,1448,316,0,0
231,708,0,0,0,0,0,0,0,0,0,-1,1455,316,0,0
238,708,0,0,0,0,0,0,0,0,0,-1,1462,316,0,0
245,708,0,0,0,0,0,0,0,0,0,-1,1469,316,0,0
252,708,0,0,0,0,0,0,0,0,0,-1,1476,316,0,0
259,708,0,0,0,0,0,0,0,0,0,-1,1483,316,0,0
266,708,0,0,0,0,0,0,0,0,0,-1,1490,316,0,0
273,708,0,0,0,0,0,0,0,0,0,-1,1497,316,0,0
280,708,0,0,0,0,0,0,0,0,0,-1,1504,316,0,0
287,708,0,0,0,0,0,0,0,0,0,-1,1511,316,0,0
294,708,0,0,0,0,0,0,0,0,0,-1,1518,316,0,0
301,708,0,0,0,0,0,0,0,0,0,-1,1525,316,0,0
308,708,0,0,0,0,0,0,0,0,0,-1,1532,316,0,0
315,708,0,0,0,0,0,0,0,0,0,-1,1539,316,0,0
322,708,0,0,0,0,0,0,0,0,0,-1,1546,316,0,0
329,708,0,0,0,0,0,0,0,0,0,-1,1553,316,0,0
336,708,0,0,0,0,0,0,0,0,0,-1,1560,316,0,0
343,708,0,0,0,0,0,0,0,0,0,-1,1567,316,0,0
350,708,0,0,0,0,0,0,0,0,0,-1,1574,316,0,0
357,708,0,0,0,0,0,0,0,0,0,-1,1581,316,0,0
364,708,0,0,0,0,0,0,0,0,0,-1,1588,316,0,0
371,708,0,0,0,0,0,0,0,0,0,-1,1595,316,0,0
378,708,0,0,0,0,0,0,0,0,0,-1,1602,316,0,0
385,708,0,0,0,0,0,0,0,0,0,-1,1609,316,0,0
392,708,0,0,0,0,0,0,0,0,0,-1,1616,316,0,0
399,708,0,0,0,0,0,0,0,0,0,-1,1623,316,0,0
406,708,0,0,0,0,0,0,0,0,0,-1,1630,316,0,0
413,708,0,0,0,0,0,0,0,0,0,-1,1637,316,0,0
420,708,0,0,0,0,0,0,0,0,0,-1,1644,316,0,0
427,708,0,0,0,0,0,0,0,0,0,-1,1651,316,0,0
434,708,0,0,0,0,0,0,0,0,0,-1,1658,316,0,0
441,708,0,0,0,0,0,0,0,0,0,-1,1665,316,0,0
448,708,0,0,0,0,0,0,0,0,0,-1,1672,316,0,0
455,708,0,0,0,0,0,0,0,0,0,-1,1679,316,0,0
462,708,0,0,0,0,0,0,0,0,0,-1,1686,316,0,0
469,708,0,0,0,0,0,0,0,0,0,-1,1693,316,0,0
476,708,0,0,0,0,0,0,0,0,0,-1,1700,316,0,0
483,708,0,0,0,0,0,0,0,0,0,-1,1707,316,0,0
490,708,0,0,0,0,0,0,0,0,0,-1,1714,316,0,0
497,708,0,0,0,0,0,0,0,0,0,-1,1721,316,0,0
504,708,0,0,0,0,0,0,0,0,0,-1,1728,316,0,0
511,708,0,0,0,0,0,0,0,0,0,-1,1735,316,0,0
518,708,0,0,0,0,0,0,0,0,0,-1,1742,316,0,0
525,708,0,0,0,0,0,0,0,0,0,-1,1749,316,0,0
532,708,0,0,0,0,0,0,0,0,0,-1,1756,316,0,0
539,708,0,0,0,0,0,0,0,0,0,-1,1763,316,0,0
546,708,0,0,0,0,0,0,0,0,0,-1,1770,316,0,0
553,708,0,0,0,0,0,0,0,0,0,-1,1777,316,0,0
560,708,0,0,0,0,0,0,0,0,0,-1,1784,316,0,0
567,708,0,0,0,0,0,0,0,0,0,-1,1791,316,0,0
574,708,0,0,0,0,0,0,0,0,0,-1,1798,316,0,0
581,708,0,0,0,0,0,0,0,0,0,-1,1805,316,0,0
588,708,0,0,0,0,0,0,0,0,0,-1,1812,316,0,0
595,708,0,0,0,0,0,0,0,0,0,-1,1819,316,0,0
602,708,0,0,0,0,0,0,0,0,0,-1,1826,316,0,0
609,708,0,0,0,0,0,0,0,0,0,-1,1833,316,0,0
616,708,0,0,0,0,0,0,0,0,0,-1,1840,316,0,0
623,708,0,0,0,0,0,0,0,0,0,-1,1847,316,0,0
630,708,0,0,0,0,0,0,0,0,0,-1,1854,316,0,0
637,708,0,0,0,0,0,0,0,0,0,-1,1861,316,0,0
644,708,0,0,0,0,0,0,0,0,0,-1,1868,316,0,0
651,708,0,0,0,0,0,0,0,0,0,-1,1875,316,0,0
658,708,0,0,0,0,0,0,0,0,0,-1,1882,316,0,0
665,708,0,0,0,0,0,0,0,0,0,-1,1889,316,0,0
672,708,0,0,0,0,0,0,0,0,0,-1,1896,316,0,0
679,708,0,0,0,0,0,0,0,0,0,-1,1903,316,0,0
686,708,0,0,0,0,0,0,0,0,0,-1,1910,316,0,0
693,708,0,0,0,0,0,0,0,0,0,-1,1917,316,0,0
700,708,0,0,0,0,0,0,0,0,0,-1,1924,316,0,0
707,708,0,0,0,0,0,0,0,0,0,-1,1931,316,0,0
714,708,0,0,0,0,0,0,0,0,0,-1,1938,316,0,0
721,708,0,0,0,0,0,0,0,0,0,-1,1945,316,0,0
728,708,0,0,0,0,0,0,0,0,0,-1,1952,316,0,0
735,708,0,0,0,0,0,0,0,0,0,-1,1959,316,0,0
742,708,0,0,0,0,0,0,0,0,0,-1,1966,316,0,0
749,708,0,0,0,0,0,0,0,0,0,-1,1973,316,0,0
756,708,0,0,0,0,0,0,0,0,0,-1,1980,316,0,0
763,708,0,0,0,0,0,0,0,0,0,-1,1987,316,0,0
770,708,0,0,0,0,0,0,0,0,0,-1,1994,316,0,0
777,708,0,0,0,0,0,0,0,0,0,-1,2001,316,0,0
784,708,0,0,0,0,0,0,0,0,0,-1,2008,316,0,0
791,708,0,0,0,0,0,0,0,0,0,-1,2015,316,0,0
798,708,0,0,0,0,0,0,0,0,0,-1,2022,316,0,0
805,708,0,0,0,0,0,0,0,0,0,-1,2029,316,0,0
812,708,0,0,0,0,0,0,0,0,0,-1,2036,316,0,0
-700,701,0,0,0,0,0,0,0,0,0,-1,524,323,0,0
-693,701,0,0,0,0,0,0,0,0,0,-1,531,323,0,0
-686,701,0,0,0,0,0,0,0,0,0,-1,538,323,0,0
-679,701,0,0,0,0,0,0,0,0,0,-1,545,323,0,0
-672,701,0,0,0,0,0,0,0,0,0,-1,552,323,0,0
-665,701,0,0,0,0,0,0,0,0,0,-1,559,323,0,0
-658,701,0,0,0,0,0,0,0,0,0,-1,566,323,0,0
-651,701,0,0,0,0,0,0,0,0,0,-1,573,323,0,0
-644,701,0,0,0,0,0,0,0,0,0,-1,580,323,0,0
-637,701,0,0,0,0,0,0,0,0,0,-1,587,323,0,0
-630,701,0,0,0,0,0,0,0,0,0,-1,594,323,0,0
-623,701,0,0,0,0,0,0,0,0,0,-1,601,323,0,0
-616,701,0,0,0,0,0,0,0,0,0,-1,608,323,0,0
-609,701,0,0,0,0,0,0,0,0,0,-1,615,323,0,0
-602,701,0,0,0,0,0,0,0,0,0,-1,622,323,0,0
-595,701,0,0,0,0,0,0,0,0,0,-1,629,323,0,0
-588,701,0,0,0,0,0,0,0,0,0,-1,636,323,0,0
-581,701,0,0,0,0,0,0,0,0,0,-1,643,323,0,0
-574,701,0,0,0,0,0,0,0,0,0,-1,650,323,0,0
-567,701,0,0,0,0,0,0,0,0,0,-1,657,323,0,0
-560,701,0,0,0,0,0,0,0,0,0,-1,664,323,0,0
-553,701,0,0,0,0,0,0,0,0,0,-1,671,323,0,0
-546,701,0,0,0,0,0,0,0,0,0,-1,678,323,0,0
-539,701,0,0,0,0,0,0,0,0,0,-1,685,323,0,0
-532,701,0,0,0,0,0,0,0,0,0,-1,692,323,0,0
-525,701,0,0,0,0,0,0,0,0,0,-1,699,323,0,0
-518,701,0,0,0,0,0,0,0,0,0,-1,706,323,0,0
-511,701,0,0,0,0,0,0,0,0,0,-1,713,323,0,0
-504,701,0,0,0,0,0,0,0,0,0,-1,720,323,0,0
-497,701,0,0,0,0,0,0,0,0,0,-1,727,323,0,0
-490,701,0,0,0,0,0,0,0,0,0,-1,734,323,0,0
-483,701,0,0,0,0,0,0,0,0,0,-1,741,323,0,0
-476,701,0,0,0,0,0,0,0,0,0,-1,748,323,0,0
-469,701,0,0,0,0,0,0,0,0,0,-1,755,323,0,0
-462,701,0,0,0,0,0,0,0,0,0,-1,762,323,0,0
-455,701,0,0,0,0,0,0,0,0,0,-1,769,323,0,0
-448,701,0,0,0,0,0,0,0,0,0,-1,776,323,0,0
-441,701,0,0,0,0,0,0,0,0,0,-1,783,323,0,0
-434,701,0,0,0,0,0,0,0,0,0,-1,790,323,0,0
-427,701,0,0,0,0,0,0,0,0,0,-1,797,323,0,0
-420,701,0,0,0,0,0,0,0,0,0,-1,804,323,0,0
-413,701,0,0,0,0,0,0,0,0,0,-1,811,323,0,0
-406,701,0,0,0,0,0,0,0,0,0,-1,818,323,0,0
-399,701,0,0,0,0,0,0,0,0,0,-1,825,323,0,0
-392,701,0,0,0,0,0,0,0,0,0,-1,832,323,0,0
-385,701,0,0,0,0,0,0,0,0,0,-1,839,323,0,0
-378,701,0,0,0,0,0,0,0,0,0,-1,846,323,0,0
-371,701,0,0,0,0,0,0,0,0,0,-1,853,323,0,0
-364,701,0,0,0,0,0,0,0,0,0,-1,860,323,0,0
-357,701,0,0,0,0,0,0,0,0,0,-1,867,323,0,0
-350,701,0,0,0,0,0,0,0,0,0,-1,874,323,0,0
-343,701,0,0,0,0,0,0,0,0,0,-1,881,323,0,0
-336,701,0,0,0,0,0,0,0,0,0,-1,888,323,0,0
-329,701,0,0,0,0,0,0,0,0,0,-1,895,323,0,0
-322,701,0,0,0,0,0,0,0,0,0,-1,902,323,0,0
-315,701,0,0,0,0,0,0,0,0,0,-1,909,323,0,0
-308,701,0,0,0,0,0,0,0,0,0,-1,916,323,0,0
-301,701,0,0,0,0,0,0,0,0,0,-1,923,323,0,0
-294,701,0,0,0,0,0,0,0,0,0,-1,930,323,0,0
-287,701,0,0,0,0,0,0,0,0,0,-1,937,323,0,0
-280,701,0,0,0,0,0,0,0,0,0,-1,944,323,0,0
-273,701,0,0,0,0,0,0,0,0,0,-1,951,323,0,0
-266,701,0,0,0,0,0,0,0,0,0,-1,958,323,0,0
-259,701,0,0,0,0,0,0,0,0,0,-1,965,323,0,0
-252,701,0,0,0,0,0,0,0,0,0,-1,972,323,0,0
-245,701,0,0,0,0,0,0,0,0,0,-1,979,323,0,0
-238,701,0,0,0,0,0,0,0,0,0,-1,986,323,0,0
-231,701,0,0,0,0,0,0,0,0,0,-1,993,323,0,0
-224,701,0,0,0,0,0,0,0,0,0,-1,1000,323,0,0
-217,701,0,0,0,0,0,0,0,0,0,-1,1007,323,0,0
-210,701,0,0,0,0,0,0,0,0,0,-1,1014,323,0,0
-203,701,0,0,0,0,0,0,0,0,0,-1,1021,323,0,0
-196,701,0,0,0,0,0,0,0,0,0,-1,1028,323,0,0
-189,701,0,0,0,0,0,0,0,0,0,-1,1035,323,0,0
-182,701,0,0,0,0,0,0,0,0,0,-1,1042,323,0,0
-175,701,0,0,0,0,0,0,0,0,0,-1,1049,323,0,0
-168,701,0,0,0,0,0,0,0,0,0,-1,1056,323,0,0
-161,701,0,0,0,0,0,0,0,0,0,-1,1063,323,0,0
-154,701,0,0,0,0,0,0,0,0,0,-1,1070,323,0,0
-147,701,0,0,0,0,0,0,0,0,0,-1,1077,323,0,0
-140,701,0,0,0,0,0,0,0,0,0,-1,1084,323,0,0
-133,701,0,0,0,0,0,0,0,0,0,-1,1091,323,0,0
-126,701,0,0,0,0,0,0,0,0,0,-1,1098,323,0,0
-119,701,0,0,0,0,0,0,0,0,0,-1,1105,323,0,0
-112,701,0,0,0,0,0,0,0,0,0,-1,1112,323,0,0
-105,701,0,0,0,0,0,0,0,0,0,-1,1119,323,0,0
-98,701,0,0,0,0,0,0,0,0,0,-1,1126,323,0,0
-91,701,0,0,0,0,0,0,0,0,0,-1,1133,323,0,0
-84,701,0,0,0,0,0,0,0,0,0,-1,1140,323,0,0
-77,701,0,0,0,0,0,0,0,0,0,-1,1147,323,0,0
-70,701,-2.36731,-1.49271,0,0,0,0,0,0,0,-1,1154,323,-2.36729,1.4927
-63,701,-2.479,-0.295959,0,0,0,0,0,0,0,-1,1161,323,-2.47895,0.295961
-56,701,-0.420166,-0.101776,0,0,0,0,0,0,0,-1,1168,323,-0.420119,0.101777
-49,701,-1.09021,-0.155762,0,0,0,0,0,0,0,-1,1175,323,-1.09024,0.155768
-42,701,-0.210327,-0.299133,0,0,0,0,0,0,0,-1,1182,323,-0.210379,0.29914
-35,701,-2.9635,-7.98676,0,0,0,0,0,0,0,-1,1189,323,-2.9635,7.98676
-28,701,-6.64417,-5.4917,0,0,0,0,0,0,0,-1,1196,323,-6.64411,5.4917
-21,701,-5.11584,-5.84219,0.159436,-0.154355,0.014488,0.160104,-0.155022,0.0460402,0.181946,0.0465469,1203,323,-5.11583,5.8422
-14,701,-3.60229,-6.43408,0,0,0,0,0,0,0,-1,1210,323,-3.60235,6.43409
-7,701,-2.71851,-6.46313,0.15962,-0.133057,0.00326667,0.159657,-0.133093,0.0111595,0.169251,0.047392,1217,323,-2.71851,6.46314
0,701,-2.13965,-6.54138,0.153538,-0.120758,-0.00639537,0.153687,-0.120907,-0.0232987,0.158913,0.0470295,1224,323,-2.1396,6.54138
7,701,-1.95728,-6.31021,0.142729,-0.107278,-0.0163154,0.143789,-0.108338,-0.0648929,0.146044,0.0401095,1231,323,-1.95726,6.31023
14,701,-0.869507,-6.65991,0,0,0,0,0,0,0,-1,1238,323,-0.86948,6.65991
21,701,-0.356201,-7.17606,0,0,0,0,0,0,0,-1,1245,323,-0.356191,7.17606
28,701,-0.467285,-7.54733,0,0,0,0,0,0,0,-1,1252,323,-0.467344,7.54734
35,701,0.552979,-8.39423,0.0822153,-0.0514981,-0.0441455,0.0954751,-0.0647578,-0.291791,0.0930754,0.0457413,1259,323,0.552998,8.39422
42,701,0.784058,-8.86752,0.0704225,-0.036906,-0.0479745,0.0887402,-0.0552237,-0.364738,0.0838651,0.04647,1266,323,0.784019,8.86751
49,701,1.32813,-9.60944,0.060686,-0.0230749,-0.0512515,0.0849923,-0.0473812,-0.442841,0.0774473,0.0472262,1273,323,1.32813,9.60943
56,701,1.18762,-9.88232,0.0535465,-0.00865326,-0.053457,0.084292,-0.0393987,-0.521943,0.0729639,0.0448447,1280,323,1.18763,9.88232
63,701,0.988159,-10.2918,0,0,0,0,0,0,0,-1,1287,323,0.988114,10.2918
70,701,0.685913,-5.37207,0.03794,0.010196,-0.0456127,0.0717435,-0.0236074,-0.637779,0.0573415,0.0406645,1294,323,0.685935,5.37207
77,701,0.880005,-5.56229,0.0388916,0.015979,-0.0406045,0.069625,-0.0147544,-0.647901,0.0520368,0.0436394,1301,323,0.880003,5.5623
84,701,1.04675,-5.82309,0.0389956,0.0196682,-0.0340252,0.0647028,-0.006039,-0.647033,0.0452826,0.0440695,1308,323,1.04678,5.82308
91,701,1.22131,-6.28143,0.0382309,0.0221684,-0.0266857,0.0580677,0.00233162,-0.639231,0.0379585,0.0468572,1315,323,1.22136,6.28145
98,701,1.57898,-6.84024,0,0,0,0,0,0,0,-1,1322,323,1.579,6.84024
105,701,2.87268,-7.655,0,0,0,0,0,0,0,-1,1329,323,2.87263,7.65499
112,701,2.81396,-7.30286,0.0309725,0.0138398,0.000622309,0.030995,0.0138173,0.0362594,0.01793,0.0441293,1336,323,2.81392,7.30286
119,701,2.89722,-6.89624,0.0268451,0.0101751,0.00957813,0.031207,0.00581314,0.427343,0.0191632,0.0447748,1343,323,2.89727,6.89625
126,701,3.01807,-6.57028,0.0220741,0.00320819,0.0182032,0.0331433,-0.00786097,0.546346,0.0251291,0.0493851,1350,323,3.01808,6.57027
133,701,3.15601,-6.2236,0,0,0,0,0,0,0,-1,1357,323,3.15596,6.22361
140,701,3.8009,-5.8573,0,0,0,0,0,0,0,-1,1364,323,3.80088,5.8573
147,701,-0.494629,-7.4259,0,0,0,0,0,0,0,-1,1371,323,-0.494676,7.42591
154,701,2.7594,-3.37927,0,0,0,0,0,0,0,-1,1378,323,2.75938,3.37929
161,701,4.19836,-2.57111,0,0,0,0,0,0,0,-1,1385,323,4.19833,2.5711
168,701,6.88513,-0.0237427,0,0,0,0,0,0,0,-1,1392,323,6.88517,0.0237498
175,701,6.94556,0.0693054,0,0,0,0,0,0,0,-1,1399,323,6.94555,-0.0692958
182,701,8.80652,5.42807,0,0,0,0,0,0,0,-1,1406,323,8.8065,-5.42808
189,701,8.58081,4.24493,0,0,0,0,0,0,0,-1,1413,323,8.58082,-4.24494
196,701,0,0,0,0,0,0,0,0,0,-1,1420,323,0,0
203,701,0,0,0,0,0,0,0,0,0,-1,1427,323,0,0
210,701,0,0,0,0,0,0,0,0,0,-1,1434,323,0,0
217,701,0,0,0,0,0,0,0,0,0,-1,1441,323,0,0
224,701,0,0,0,0,0,0,0,0,0,-1,1448,323,0,0
231,701,0,0,0,0,0,0,0,0,0,-1,1455,323,0,0
238,701,0,0,0,0,0,0,0,0,0,-1,1462,323,0,0
245,701,0,0,0,0,0,0,0,0,0,-1,1469,323,0,0
252,701,0,0,0,0,0,0,0,0,0,-1,1476,323,0,0
259,701,0,0,0,0,0,0,0,0,0,-1,1483,323,0,0
266,701,0,0,0,0,0,0,0,0,0,-1,1490,323,0,0
273,701,0,0,0,0,0,0,0,0,0,-1,1497,323,0,0
280,701,0,0,0,0,0,0,0,0,0,-1,1504,323,0,0
287,701,0,0,0,0,0,0,0,0,0,-1,1511,323,0,0
294,701,0,0,0,0,0,0,0,0,0,-1,1518,323,0,0
301,701,0,0,0,0,0,0,0,0,0,-1,1525,323,0,0
308,701,0,0,0,0,0,0,0,0,0,-1,1532,323,0,0
315,701,0,0,0,0,0,0,0,0,0,-1,1539,323,0,0
322,701,0,0,0,0,0,0,0,0,0,-1,1546,323,0,0
329,701,0,0,0,0,0,0,0,0,0,-1,1553,323,0,0
336,701,0,0,0,0,0,0,0,0,0,-1,1560,323,0,0
343,701,0,0,0,0,0,0,0,0,0,-1,1567,323,0,0
350,701,0,0,0,0,0,0,0,0,0,-1,1574,323,0,0
357,701,0,0,0,0,0,0,0,0,0,-1,1581,323,0,0
364,701,0,0,0,0,0,0,0,0,0,-1,1588,323,0,0
371,701,0,0,0,0,0,0,0,0,0,-1,1595,323,0,0
378,701,0,0,0,0,0,0,0,0,0,-1,1602,323,0,0
385,701,0,0,0,0,0,0,0,0,0,-1,1609,323,0,0
392,701,0,0,0,0,0,0,0,0,0,-1,1616,323,0,0
399,701,0,0,0,0,0,0,0,0,0,-1,1623,323,0,0
406,701,0,0,0,0,0,0,0,0,0,-1,1630,323,0,0
413,701,0,0,0,0,0,0,0,0,0,-1,1637,323,0,0
420,701,0,0,0,0,0,0,0,0,0,-1,1644,323,0,0
427,701,0,0,0,0,0,0,0,0,0,-1,1651,323,0,0
434,701,0,0,0,0,0,0,0,0,0,-1,1658,323,0,0
441,701,0,0,0,0,0,0,0,0,0,-1,1665,323,0,0
448,701,0,0,0,0,0,0,0,0,0,-1,1672,323,0,0
455,701,0,0,0,0,0,0,0,0,0,-1,1679,323,0,0
462,701,0,0,0,0,0,0,0,0,0,-1,1686,323,0,0
469,701,0,0,0,0,0,0,0,0,0,-1,1693,323,0,0
476,701,0,0,0,0,0,0,0,0,0,-1,1700,323,0,0
483,701,0,0,0,0,0,0,0,0,0,-1,1707,323,0,0
490,701,0,0,0,0,0,0,0,0,0,-1,1714,323,0,0
497,701,0,0,0,0,0,0,0,0,0,-1,1721,323,0,0
504,701,0,0,0,0,0,0,0,0,0,-1,1728,323,0,0
511,701,0,0,0,0,0,0,0,0,0,-1,1735,323,0,0
518,701,0,0,0,0,0,0,0,0,0,-1,1742,323,0,0
525,701,0,0,0,0,0,0,0,0,0,-1,1749,323,0,0
532,701,0,0,0,0,0,0,0,0,0,-1,1756,323,0,0
539,701,0,0,0,0,0,0,0,0,0,-1,1763,323,0,0
546,701,0,0,0,0,0,0,0,0,0,-1,1770,323,0,0
553,701,0,0,0,0,0,0,0,0,0,-1,1777,323,0,0
560,701,0,0,0,0,0,0,0,0,0,-1,1784,323,0,0
567,701,0,0,0,0,0,0,0,0,0,-1,1791,323,0,0
574,701,0,0,0,0,0,0,0,0,0,-1,1798,323,0,0
581,701,0,0,0,0,0,0,0,0,0,-1,1805,323,0,0
588,701,0,0,0,0,0,0,0,0,0,-1,1812,323,0,0
595,701,0,0,0,0,0,0,0,0,0,-1,1819,323,0,0
602,701,0,0,0,0,0,0,0,0,0,-1,1826,323,0,0
609,701,0,0,0,0,0,0,0,0,0,-1,1833,323,0,0
616,701,0,0,0,0,0,0,0,0,0,-1,1840,323,0,0
623,701,0,0,0,0,0,0,0,0,0,-1,1847,323,0,0
630,701,0,0,0,0,0,0,0,0,0,-1,1854,323,0,0
637,701,0,0,0,0,0,0,0,0,0,-1,1861,323,0,0
644,701,0,0,0,0,0,0,0,0,0,-1,1868,323,0,0
651,701,0,0,0,0,0,0,0,0,0,-1,1875,323,0,0
658,701,0,0,0,0,0,0,0,0,0,-1,1882,323,0,0
665,701,0,0,0,0,0,0,0,0,0,-1,1889,323,0,0
672,701,0,0,0,0,0,0,0,0,0,-1,1896,323,0,0
679,701,0,0,0,0,0,0,0,0,0,-1,1903,323,0,0
686,701,0,0,0,0,0,0,0,0,0,-1,1910,323,0,0
693,701,0,0,0,0,0,0,0,0,0,-1,1917,323,0,0
700,701,0,0,0,0,0,0,0,0,0,-1,1924,323,0,0
707,701,0,0,0,0,0,0,0,0,0,-1,1931,323,0,0
714,701,0,0,0,0,0,0,0,0,0,-1,1938,323,0,0
721,701,0,0,0,0,0,0,0,0,0,-1,1945,323,0,0
728,701,0,0,0,0,0,0,0,0,0,-1,1952,323,0,0
735,701,0,0,0,0,0,0,0,0,0,-1,1959,323,0,0
742,701,0,0,0,0,0,0,0,0,0,-1,1966,323,0,0
749,701,0,0,0,0,0,0,0,0,0,-1,1973,323,0,0
756,701,0,0,0,0,0,0,0,0,0,-1,1980,323,0,0
763,701,0,0,0,0,0,0,0,0,0,-1,1987,323,0,0
770,701,0,0,0,0,0,0,0,0,0,-1,1994,323,0,0
777,701,0,0,0,0,0,0,0,0,0,-1,2001,323,0,0
784,701,0,0,0,0,0,0,0,0,0,-1,2008,323,0,0
791,701,0,0,0,0,0,0,0,0,0,-1,2015,323,0,0
798,701,0,0,0,0,0,0,0,0,0,-1,2022,323,0,0
805,701,0,0,0,0,0,0,0,0,0,-1,2029,323,0,0
812,701,0,0,0,0,0,0,0,0,0,-1,2036,323,0,0
-700,694,0,0,0,0,0,0,0,0,0,-1,524,330,0,0
-693,694,0,0,0,0,0,0,0,0,0,-1,531,330,0,0
-686,694,0,0,0,0,0,0,0,0,0,-1,538,330,0,0
-679,694,0,0,0,0,0,0,0,0,0,-1,545,330,0,0
-672,694,0,0,0,0,0,0,0,0,0,-1,552,330,0,0
-665,694,0,0,0,0,0,0,0,0,0,-1,559,330,0,0
-658,694,0,0,0,0,0,0,0,0,0,-1,566,330,0,0
-651,694,0,0,0,0,0,0,0,0,0,-1,573,330,0,0
-644,694,0,0,0,0,0,0,0,0,0,-1,580,330,0,0
-637,694,0,0,0,0,0,0,0,0,0,-1,587,330,0,0
-630,694,0,0,0,0,0,0,0,0,0,-1,594,330,0,0
-623,694,0,0,0,0,0,0,0,0,0,-1,601,330,0,0
-616,694,0,0,0,0,0,0,0,0,0,-1,608,330,0,0
-609,694,0,0,0,0,0,0,0,0,0,-1,615,330,0,0
-602,694,0,0,0,0,0,0,0,0,0,-1,622,330,0,0
-595,694,0,0,0,0,0,0,0,0,0,-1,629,330,0,0
-588,694,0,0,0,0,0,0,0,0,0,-1,636,330,0,0
-581,694,0,0,0,0,0,0,0,0,0,-1,643,330,0,0
-574,694,0,0,0,0,0,0,0,0,0,-1,650,330,0,0
-567,694,0,0,0,0,0,0,0,0,0,-1,657,330,0,0
-560,694,0,0,0,0,0,0,0,0,0,-1,664,330,0,0
-553,694,0,0,0,0,0,0,0,0,0,-1,671,330,0,0
-546,694,0,0,0,0,0,0,0,0,0,-1,678,330,0,0
-539,694,0,0,0,0,0,0,0,0,0,-1,685,330,0,0
-532,694,0,0,0,0,0,0,0,0,0,-1,692,330,0,0
-525,694,0,0,0,0,0,0,0,0,0,-1,699,330,0,0
-518,694,0,0,0,0,0,0,0,0,0,-1,706,330,0,0
-511,694,0,0,0,0,0,0,0,0,0,-1,713,330,0,0
-504,694,0,0,0,0,0,0,0,0,0,-1,720,330,0,0
-497,694,0,0,0,0,0,0,0,0,0,-1,727,330,0,0
-490,694,0,0,0,0,0,0,0,0,0,-1,734,330,0,0
-483,694,0,0,0,0,0,0,0,0,0,-1,741,330,0,0
-476,694,0,0,0,0,0,0,0,0,0,-1,748,330,0,0
-469,694,0,0,0,0,0,0,0,0,0,-1,755,330,0,0
-462,694,0,0,0,0,0,0,0,0,0,-1,762,330,0,0
-455,694,0,0,0,0,0,0,0,0,0,-1,769,330,0,0
-448,694,0,0,0,0,0,0,0,0,0,-1,776,330,0,0
-441,694,0,0,0,0,0,0,0,0,0,-1,783,330,0,0
-434,694,0,0,0,0,0,0,0,0,0,-1,790,330,0,0
-427,694,0,0,0,0,0,0,0,0,0,-1,797,330,0,0
-420,694,0,0,0,0,0,0,0,0,0,-1,804,330,0,0
-413,694,0,0,0,0,0,0,0,0,0,-1,811,330,0,0
-406,694,0,0,0,0,0,0,0,0,0,-1,818,330,0,0
-399,694,0,0,0,0,0,0,0,0,0,-1,825,330,0,0
-392,694,0,0,0,0,0,0,0,0,0,-1,832,330,0,0
-385,694,0,0,0,0,0,0,0,0,0,-1,839,330,0,0
-378,694,0,0,0,0,0,0,0,0,0,-1,846,330,0,0
-371,694,0,0,0,0,0,0,0,0,0,-1,853,330,0,0
-364,694,0,0,0,0,0,0,0,0,0,-1,860,330,0,0
-357,694,0,0,0,0,0,0,0,0,0,-1,867,330,0,0
-350,694,0,0,0,0,0,0,0,0,0,-1,874,330,0,0
-343,694,0,0,0,0,0,0,0,0,0,-1,881,330,0,0
-336,694,0,0,0,0,0,0,0,0,0,-1,888,330,0,0
-329,694,0,0,0,0,0,0,0,0,0,-1,895,330,0,0
-322,694,0,0,0,0,0,0,0,0,0,-1,902,330,0,0
-315,694,0,0,0,0,0,0,0,0,0,-1,909,330,0,0
-308,694,0,0,0,0,0,0,0,0,0,-1,916,330,0,0
-301,694,0,0,0,0,0,0,0,0,0,-1,923,330,0,0
-294,694,0,0,0,0,0,0,0,0,0,-1,930,330,0,0
-287,694,0,0,0,0,0,0,0,0,0,-1,937,330,0,0
-280,694,0,0,0,0,0,0,0,0,0,-1,944,330,0,0
-273,694,0,0,0,0,0,0,0,0,0,-1,951,330,0,0
-266,694,0,0,0,0,0,0,0,0,0,-1,958,330,0,0
-259,694,0,0,0,0,0,0,0,0,0,-1,965,330,0,0
-252,694,0,0,0,0,0,0,0,0,0,-1,972,330,0,0
-245,694,0,0,0,0,0,0,0,0,0,-1,979,330,0,0
-238,694,0,0,0,0,0,0,0,0,0,-1,986,330,0,0
-231,694,0,0,0,0,0,0,0,0,0,-1,993,330,0,0
-224,694,0,0,0,0,0,0,0,0,0,-1,1000,330,0,0
-217,694,0,0,0,0,0,0,0,0,0,-1,1007,330,0,0
-210,694,0,0,0,0,0,0,0,0,0,-1,1014,330,0,0
-203,694,0,0,0,0,0,0,0,0,0,-1,1021,330,0,0
-196,694,0,0,0,0,0,0,0,0,0,-1,1028,330,0,0
-189,694,0,0,0,0,0,0,0,0,0,-1,1035,330,0,0
-182,694,0,0,0,0,0,0,0,0,0,-1,1042,330,0,0
-175,694,0,0,0,0,0,0,0,0,0,-1,1049,330,0,0
-168,694,0,0,0,0,0,0,0,0,0,-1,1056,330,0,0
-161,694,0,0,0,0,0,0,0,0,0,-1,1063,330,0,0
-154,694,0,0,0,0,0,0,0,0,0,-1,1070,330,0,0
-147,694,0,0,0,0,0,0,0,0,0,-1,1077,330,0,0
-140,694,0,0,0,0,0,0,0,0,0,-1,1084,330,0,0
-133,694,0,0,0,0,0,0,0,0,0,-1,1091,330,0,0
-126,694,0,0,0,0,0,0,0,0,0,-1,1098,330,0,0
-119,694,0,0,0,0,0,0,0,0,0,-1,1105,330,0,0
-112,694,0,0,0,0,0,0,0,0,0,-1,1112,330,0,0
-105,694,-1.35962,-7.57141,0,0,0,0,0,0,0,-1,1119,330,-1.3596,7.57142
-98,694,1.34875,-10.1051,0,0,0,0,0,0,0,-1,1126,330,1.34874,10.1051
-91,694,1.35474,-9.22229,0,0,0,0,0,0,0,-1,1133,330,1.35476,9.22229
-84,694,-2.36096,-4.20865,0,0,0,0,0,0,0,-1,1140,330,-2.36099,4.20864
-77,694,-1.75122,-2.55954,0,0,0,0,0,0,0,-1,1147,330,-1.75122,2.55953
-70,694,-1.25281,-1.75934,0,0,0,0,0,0,0,-1,1154,330,-1.25278,1.75932
-63,694,-1.37939,-0.557831,0,0,0,0,0,0,0,-1,1161,330,-1.37943,0.557839
-56,694,-0.661011,-0.22757,0,0,0,0,0,0,0,-1,1168,330,-0.660971,0.227584
-49,694,-1.11426,0.0341797,0,0,0,0,0,0,0,-1,1175,330,-1.11424,-0.0341846
-42,694,-0.346313,-0.709595,0,0,0,0,0,0,0,-1,1182,330,-0.346298,0.709581
-35,694,-0.459106,-1.24713,0,0,0,0,0,0,0,-1,1189,330,-0.459142,1.24714
-28,694,-6.48413,-3.95972,0,0,0,0,0,0,0,-1,1196,330,-6.48414,3.9597
-21,694,-5.01636,-4.28162,0,0,0,0,0,0,0,-1,1203,330,-5.01641,4.28162
-14,694,-3.98657,-5.50095,0,0,0,0,0,0,0,-1,1210,330,-3.98652,5.50094
-7,694,-3.23315,-5.55533,0.132783,-0.104931,-0.000950614,0.132787,-0.104935,-0.0039989,0.137562,0.0445863,1217,330,-3.23321,5.55533
0,694,-2.46448,-5.46466,0.127253,-0.0955383,-0.00822143,0.127556,-0.0958412,-0.0368352,0.129411,0.0440035,1224,330,-2.46448,5.46465
7,694,-2.35852,-4.76358,0.118053,-0.0849907,-0.0157005,0.11926,-0.0861976,-0.076718,0.119132,0.0421996,1231,330,-2.35856,4.76358
14,694,2.73535,-8.0838,0.106127,-0.0758939,-0.0222862,0.108816,-0.0785829,-0.120075,0.108663,0.0477777,1238,330,2.73536,8.08379
21,694,-0.0771484,-6.81787,0,0,0,0,0,0,0,-1,1245,330,-0.0771764,6.81788
28,694,0.313599,-7.42929,0.0805904,-0.0535042,-0.0326368,0.0881119,-0.0610257,-0.226505,0.0865767,0.0476632,1252,330,0.31363,7.42929
35,694,0.828369,-8.06592,0.0681476,-0.0405427,-0.0365721,0.0793075,-0.0517026,-0.296173,0.0761964,0.0459802,1259,330,0.828366,8.06591
42,694,1.25269,-8.61511,0.0584792,-0.0289847,-0.0393592,0.0735829,-0.0440884,-0.36641,0.0686453,0.0462815,1266,330,1.25275,8.61512
49,694,1.73645,-9.06937,0.0504749,-0.0179754,-0.0417042,0.0701997,-0.0377003,-0.441791,0.063231,0.0466547,1273,330,1.73649,9.06938
56,694,1.21069,-10.2225,0.0444693,-0.00668662,-0.0430365,0.068955,-0.0311723,-0.517278,0.0591645,0.0446567,1280,330,1.21074,10.2225
63,694,1.00549,-10.6063,0,0,0,0,0,0,0,-1,1287,330,1.00547,10.6063
70,694,0.224854,-5.62128,0.0308221,0.00808782,-0.0361543,0.0573541,-0.0184442,-0.633088,0.0456437,0.0432894,1294,330,0.2249,5.62128
77,694,0.696411,-5.83301,0.0316155,0.0125352,-0.0319502,0.0554194,-0.0112687,-0.640315,0.0412192,0.0475843,1301,330,0.696411,5.83301
84,694,1.11279,-6.2757,0.0316115,0.0152228,-0.0264575,0.0511146,-0.00428029,-0.635225,0.0355891,0.0453295,1308,330,1.1128,6.2757
91,694,1.52063,-6.69095,0.0307826,0.0172874,-0.020403,0.0455248,0.00254511,-0.625702,0.0295381,0.0449566,1315,330,1.52062,6.69096
98,694,1.95325,-6.87384,0.0289805,0.0169375,-0.0136721,0.0378983,0.00801966,-0.577968,0.0230619,0.0468898,1322,330,1.95321,6.87384
105,694,2.62378,-6.90839,0,0,0,0,0,0,0,-1,1329,330,2.62383,6.90837
112,694,2.62097,-7.04196,0.024851,0.0115087,0.00116535,0.024952,0.0114077,0.0864709,0.0144236,0.0412412,1336,330,2.62098,7.04195
119,694,2.74109,-6.68607,0.0214286,0.00901126,0.00805877,0.025393,0.00504687,0.457175,0.0155223,0.0426782,1343,330,2.74104,6.68606
126,694,2.89661,-6.3591,0.0176239,0.00446878,0.0143637,0.0268445,-0.00475175,0.570683,0.0196725,0.0473577,1350,330,2.8966,6.35909
133,694,3.24646,-6.23801,0,0,0,0,0,0,0,-1,1357,330,3.24641,6.238
140,694,3.72058,-5.42526,0,0,0,0,0,0,0,-1,1364,330,3.72057,5.42527
147,694,4.24084,-4.66531,0,0,0,0,0,0,0,-1,1371,330,4.24086,4.6653
154,694,-0.313599,-7.7153,0,0,0,0,0,0,0,-1,1378,330,-0.313613,7.71529
161,694,-4.06055,-5.97623,0,0,0,0,0,0,0,-1,1385,330,-4.06052,5.97624
168,694,6.77161,1.01288,0,0,0,0,0,0,0,-1,1392,330,6.77156,-1.01287
175,694,6.72839,0.473175,0,0,0,0,0,0,0,-1,1399,330,6.72838,-0.473182
182,694,8.29028,5.75238,0,0,0,0,0,0,0,-1,1406,330,8.29034,-5.75237
189,694,7.9801,4.46118,0,0,0,0,0,0,0,-1,1413,330,7.9801,-4.46118
196,694,7.39331,3.32632,0,0,0,0,0,0,0,-1,1420,330,7.39329,-3.32633
203,694,7.04492,2.20529,0,0,0,0,0,0,0,-1,1427,330,7.04496,-2.20529
210,694,6.44714,0.646912,0,0,0,0,0,0,0,-1,1434,330,6.44717,-0.646903
217,694,7.12061,-0.644958,0,0,0,0,0,0,0,-1,1441,330,7.12059,0.644961
224,694,6.74011,-1.70544,0,0,0,0,0,0,0,-1,1448,330,6.74013,1.70546
231,694,0,0,0,0,0,0,0,0,0,-1,1455,330,0,0
238,694,0,0,0,0,0,0,0,0,0,-1,1462,330,0,0
245,694,0,0,0,0,0,0,0,0,0,-1,1469,330,0,0
252,694,0,0,0,0,0,0,0,0,0,-1,1476,330,0,0
259,694,0,0,0,0,0,0,0,0,0,-1,1483,330,0,0
266,694,0,0,0,0,0,0,0,0,0,-1,1490,330,0,0
273,694,0,0,0,0,0,0,0,0,0,-1,1497,330,0,0
280,694,0,0,0,0,0,0,0,0,0,-1,1504,330,0,0
287,694,0,0,0,0,0,0,0,0,0,-1,1511,330,0,0
294,694,0,0,0,0,0,0,0,0,0,-1,1518,330,0,0
301,694,0,0,0,0,0,0,0,0,0,-1,1525,330,0,0
308,694,0,0,0,0,0,0,0,0,0,-1,1532,330,0,0
315,694,0,0,0,0,0,0,0,0,0,-1,1539,330,0,0
322,694,0,0,0,0,0,0,0,0,0,-1,1546,330,0,0
329,694,0,0,0,0,0,0,0,0,0,-1,1553,330,0,0
336,694,0,0,0,0,0,0,0,0,0,-1,1560,330,0,0
343,694,0,0,0,0,0,0,0,0,0,-1,1567,330,0,0
350,694,0,0,0,0,0,0,0,0,0,-1,1574,330,0,0
357,694,0,0,0,0,0,0,0,0,0,-1,1581,330,0,0
364,694,0,0,0,0,0,0,0,0,0,-1,1588,330,0,0
371,694,0,0,0,0,0,0,0,0,0,-1,1595,330,0,0
378,694,0,0,0,0,0,0,0,0,0,-1,1602,330,0,0
385,694,0,0,0,0,0,0,0,0,0,-1,1609,330,0,0
392,694,0,0,0,0,0,0,0,0,0,-1,1616,330,0,0
399,694,0,0,0,0,0,0,0,0,0,-1,1623,330,0,0
406,694,0,0,0,0,0,0,0,0,0,-1,1630,330,0,0
413,694,0,0,0,0,0,0,0,0,0,-1,1637,330,0,0
420,694,0,0,0,0,0,0,0,0,0,-1,1644,330,0,0
427,694,0,0,0,0,0,0,0,0,0,-1,1651,330,0,0
434,694,0,0,0,0,0,0,0,0,0,-1,1658,330,0,0
441,694,0,0,0,0,0,0,0,0,0,-1,1665,330,0,0
448,694,0,0,0,0,0,0,0,0,0,-1,1672,330,0,0
455,694,0,0,0,0,0,0,0,0,0,-1,1679,330,0,0
462,694,0,0,0,0,0,0,0,0,0,-1,1686,330,0,0
469,694,0,0,0,0,0,0,0,0,0,-1,1693,330,0,0
476,694,0,0,0,0,0,0,0,0,0,-1,1700,330,0,0
483,694,0,0,0,0,0,0,0,0,0,-1,1707,330,0,0
490,694,0,0,0,0,0,0,0,0,0,-1,1714,330,0,0
497,694,0,0,0,0,0,0,0,0,0,-1,1721,330,0,0
504,694,0,0,0,0,0,0,0,0,0,-1,1728,330,0,0
511,694,0,0,0,0,0,0,0,0,0,-1,1735,330,0,0
518,694,0,0,0,0,0,0,0,0,0,-1,1742,330,0,0
525,694,0,0,0,0,0,0,0,0,0,-1,1749,330,0,0
532,694,0,0,0,0,0,0,0,0,0,-1,1756,330,0,0
539,694,0,0,0,0,0,0,0,0,0,-1,1763,330,0,0
546,694,0,0,0,0,0,0,0,0,0,-1,1770,330,0,0
553,694,0,0,0,0,0,0,0,0,0,-1,1777,330,0,0
560,694,0,0,0,0,0,0,0,0,0,-1,1784,330,0,0
567,694,0,0,0,0,0,0,0,0,0,-1,1791,330,0,0
574,694,0,0,0,0,0,0,0,0,0,-1,1798,330,0,0
581,694,0,0,0,0,0,0,0,0,0,-1,1805,330,0,0
588,694,0,0,0,0,0,0,0,0,0,-1,1812,330,0,0
595,694,0,0,0,0,0,0,0,0,0,-1,1819,330,0,0
602,694,0,0,0,0,0,0,0,0,0,-1,1826,330,0,0
609,694,0,0,0,0,0,0,0,0,0,-1,1833,330,0,0
616,694,0,0,0,0,0,0,0,0,0,-1,1840,330,0,0
623,694,0,0,0,0,0,0,0,0,0,-1,1847,330,0,0
630,694,0,0,0,0,0,0,0,0,0,-1,1854,330,0,0
637,694,0,0,0,0,0,0,0,0,0,-1,1861,330,0,0
644,694,0,0,0,0,0,0,0,0,0,-1,1868,330,0,0
651,694,0,0,0,0,0,0,0,0,0,-1,1875,330,0,0
658,694,0,0,0,0,0,0,0,0,0,-1,1882,330,0,0
665,694,0,0,0,0,0,0,0,0,0,-1,1889,330,0,0
672,694,0,0,0,0,0,0,0,0,0,-1,1896,330,0,0
679,694,0,0,0,0,0,0,0,0,0,-1,1903,330,0,0
686,694,0,0,0,0,0,0,0,0,0,-1,1910,330,0,0
693,694,0,0,0,0,0,0,0,0,0,-1,1917,330,0,0
700,694,0,0,0,0,0,0,0,0,0,-1,1924,330,0,0
707,694,0,0,0,0,0,0,0,0,0,-1,1931,330,0,0
714,694,0,0,0,0,0,0,0,0,0,-1,1938,330,0,0
721,694,0,0,0,0,0,0,0,0,0,-1,1945,330,0,0
728,694,0,0,0,0,0,0,0,0,0,-1,1952,330,0,0
735,694,0,0,0,0,0,0,0,0,0,-1,1959,330,0,0
742,694,0,0,0,0,0,0,0,0,0,-1,1966,330,0,0
749,694,0,0,0,0,0,0,0,0,0,-1,1973,330,0,0
756,694,0,0,0,0,0,0,0,0,0,-1,1980,330,0,0
763,694,0,0,0,0,0,0,0,0,0,-1,1987,330,0,0
770,694,0,0,0,0,0,0,0,0,0,-1,1994,330,0,0
777,694,0,0,0,0,0,0,0,0,0,-1,2001,330,0,0
784,694,0,0,0,0,0,0,0,0,0,-1,2008,330,0,0
791,694,0,0,0,0,0,0,0,0,0,-1,2015,330,0,0
798,694,0,0,0,0,0,0,0,0,0,-1,2022,330,0,0
805,694,0,0,0,0,0,0,0,0,0,-1,2029,330,0,0
812,694,0,0,0,0,0,0,0,0,0,-1,2036,330,0,0
-700,687,0,0,0,0,0,0,0,0,0,-1,524,337,0,0
-693,687,0,0,0,0,0,0,0,0,0,-1,531,337,0,0
-686,687,0,0,0,0,0,0,0,0,0,-1,538,337,0,0
-679,687,0,0,0,0,0,0,0,0,0,-1,545,337,0,0
-672,687,0,0,0,0,0,0,0,0,0,-1,552,337,0,0
-665,687,0,0,0,0,0,0,0,0,0,-1,559,337,0,0
-658,687,0,0,0,0,0,0,0,0,0,-1,566,337,0,0
-651,687,0,0,0,0,0,0,0,0,0,-1,573,337,0,0
-644,687,0,0,0,0,0,0,0,0,0,-1,580,337,0,0
-637,687,0,0,0,0,0,0,0,0,0,-1,587,337,0,0
-630,687,0,0,0,0,0,0,0,0,0,-1,594,337,0,0
-623,687,0,0,0,0,0,0,0,0,0,-1,601,337,0,0
-616,687,0,0,0,0,0,0,0,0,0,-1,608,337,0,0
-609,687,0,0,0,0,0,0,0,0,0,-1,615,337,0,0
-602,687,0,0,0,0,0,0,0,0,0,-1,622,337,0,0
-595,687,0,0,0,0,0,0,0,0,0,-1,629,337,0,0
-588,687,0,0,0,0,0,0,0,0,0,-1,636,337,0,0
-581,687,0,0,0,0,0,0,0,0,0,-1,643,337,0,0
-574,687,0,0,0,0,0,0,0,0,0,-1,650,337,0,0
-567,687,0,0,0,0,0,0,0,0,0,-1,657,337,0,0
-560,687,0,0,0,0,0,0,0,0,0,-1,664,337,0,0
-553,687,0,0,0,0,0,0,0,0,0,-1,671,337,0,0
-546,687,0,0,0,0,0,0,0,0,0,-1,678,337,0,0
-539,687,0,0,0,0,0,0,0,0,0,-1,685,337,0,0
-532,687,0,0,0,0,0,0,0,0,0,-1,692,337,0,0
-525,687,0,0,0,0,0,0,0,0,0,-1,699,337,0,0
-518,687,0,0,0,0,0,0,0,0,0,-1,706,337,0,0
-511,687,0,0,0,0,0,0,0,0,0,-1,713,337,0,0
-504,687,0,0,0,0,0,0,0,0,0,-1,720,337,0,0
-497,687,0,0,0,0,0,0,0,0,0,-1,727,337,0,0
-490,687,0,0,0,0,0,0,0,0,0,-1,734,337,0,0
-483,687,0,0,0,0,0,0,0,0,0,-1,741,337,0,0
-476,687,0,0,0,0,0,0,0,0,0,-1,748,337,0,0
-469,687,0,0,0,0,0,0,0,0,0,-1,755,337,0,0
-462,687,0,0,0,0,0,0,0,0,0,-1,762,337,0,0
-455,687,0,0,0,0,0,0,0,0,0,-1,769,337,0,0
-448,687,0,0,0,0,0,0,0,0,0,-1,776,337,0,0
-441,687,0,0,0,0,0,0,0,0,0,-1,783,337,0,0
-434,687,0,0,0,0,0,0,0,0,0,-1,790,337,0,0
-427,687,0,0,0,0,0,0,0,0,0,-1,797,337,0,0
-420,687,0,0,0,0,0,0,0,0,0,-1,804,337,0,0
-413,687,0,0,0,0,0,0,0,0,0,-1,811,337,0,0
-406,687,0,0,0,0,0,0,0,0,0,-1,818,337,0,0
-399,687,0,0,0,0,0,0,0,0,0,-1,825,337,0,0
-392,687,0,0,0,0,0,0,0,0,0,-1,832,337,0,0
-385,687,0,0,0,0,0,0,0,0,0,-1,839,337,0,0
-378,687,0,0,0,0,0,0,0,0,0,-1,846,337,0,0
-371,687,0,0,0,0,0,0,0,0,0,-1,853,337,0,0
-364,687,0,0,0,0,0,0,0,0,0,-1,860,337,0,0
-357,687,0,0,0,0,0,0,0,0,0,-1,867,337,0,0
-350,687,0,0,0,0,0,0,0,0,0,-1,874,337,0,0
-343,687,0,0,0,0,0,0,0,0,0,-1,881,337,0,0
-336,687,0,0,0,0,0,0,0,0,0,-1,888,337,0,0
-329,687,0,0,0,0,0,0,0,0,0,-1,895,337,0,0
-322,687,0,0,0,0,0,0,0,0,0,-1,902,337,0,0
-315,687,0,0,0,0,0,0,0,0,0,-1,909,337,0,0
-308,687,0,0,0,0,0,0,0,0,0,-1,916,337,0,0
-301,687,0,0,0,0,0,0,0,0,0,-1,923,337,0,0
-294,687,0,0,0,0,0,0,0,0,0,-1,930,337,0,0
-287,687,0,0,0,0,0,0,0,0,0,-1,937,337,0,0
-280,687,0,0,0,0,0,0,0,0,0,-1,944,337,0,0
-273,687,0,0,0,0,0,0,0,0,0,-1,951,337,0,0
-266,687,0,0,0,0,0,0,0,0,0,-1,958,337,0,0
-259,687,0,0,0,0,0,0,0,0,0,-1,965,337,0,0
-252,687,0,0,0,0,0,0,0,0,0,-1,972,337,0,0
-245,687,0,0,0,0,0,0,0,0,0,-1,979,337,0,0
-238,687,0,0,0,0,0,0,0,0,0,-1,986,337,0,0
-231,687,0,0,0,0,0,0,0,0,0,-1,993,337,0,0
-224,687,0,0,0,0,0,0,0,0,0,-1,1000,337,0,0
-217,687,0,0,0,0,0,0,0,0,0,-1,1007,337,0,0
-210,687,0,0,0,0,0,0,0,0,0,-1,1014,337,0,0
-203,687,0,0,0,0,0,0,0,0,0,-1,1021,337,0,0
-196,687,0,0,0,0,0,0,0,0,0,-1,1028,337,0,0
-189,687,0,0,0,0,0,0,0,0,0,-1,1035,337,0,0
-182,687,0,0,0,0,0,0,0,0,0,-1,1042,337,0,0
-175,687,0,0,0,0,0,0,0,0,0,-1,1049,337,0,0
-168,687,0,0,0,0,0,0,0,0,0,-1,1056,337,0,0
-161,687,0,0,0,0,0,0,0,0,0,-1,1063,337,0,0
-154,687,0,0,0,0,0,0,0,0,0,-1,1070,337,0,0
-147,687,0,0,0,0,0,0,0,0,0,-1,1077,337,0,0
-140,687,0,0,0,0,0,0,0,0,0,-1,1084,337,0,0
-133,687,1.92981,-7.95737,0,0,0,0,0,0,0,-1,1091,337,1.92986,7.95738
-126,687,2.84644,-7.88147,0,0,0,0,0,0,0,-1,1098,337,2.84639,7.88146
-119,687,-0.213013,-7.25986,0,0,0,0,0,0,0,-1,1105,337,-0.213011,7.25987
-112,687,-0.811646,-7.11078,-0.0960468,-0.0770709,0.0146756,-0.0690833,-0.104034,1.07236,0.0611324,0.0451497,1112,337,-0.811585,7.11078
-105,687,-1.33191,-6.95676,-0.0896917,-0.0724293,0.0127192,-0.0656892,-0.0964317,1.08351,0.0568805,0.0465889,1119,337,-1.33195,6.95674
-98,687,-1.97437,-6.83603,0,0,0,0,0,0,0,-1,1126,337,-1.97434,6.83603
-91,687,2.28162,-7.72437,0,0,0,0,0,0,0,-1,1133,337,2.28167,7.72437
-84,687,0.231567,-4.89407,0,0,0,0,0,0,0,-1,1140,337,0.231616,4.89408
-77,687,-0.219849,-3.50195,0,0,0,0,0,0,0,-1,1147,337,-0.219891,3.50194
-70,687,0.0489502,-2.25201,0,0,0,0,0,0,0,-1,1154,337,0.0490112,2.25201
-63,687,0.0275879,-0.872986,0,0,0,0,0,0,0,-1,1161,337,0.0275718,0.873
-56,687,-3.93848,-1.79367,0,0,0,0,0,0,0,-1,1168,337,-3.93843,1.79366
-49,687,-1.03284,-0.0333862,0,0,0,0,0,0,0,-1,1175,337,-1.03285,0.0333943
-42,687,-4.2019,-0.405609,0,0,0,0,0,0,0,-1,1182,337,-4.20192,0.405614
-35,687,-4.42273,-0.688171,0,0,0,0,0,0,0,-1,1189,337,-4.42276,0.688178
-28,687,-1.14038,-1.39072,0,0,0,0,0,0,0,-1,1196,337,-1.14035,1.3907
-21,687,-4.76062,-2.80502,0,0,0,0,0,0,0,-1,1203,337,-4.76058,2.80504
-14,687,1.57935,-6.42264,0,0,0,0,0,0,0,-1,1210,337,1.57929,6.42265
-7,687,-3.65942,-4.58264,0,0,0,0,0,0,0,-1,1217,337,-3.65947,4.58264
0,687,-2.52258,-4.29333,0,0,0,0,0,0,0,-1,1224,337,-2.52263,4.29332
7,687,2.69006,-7.48413,0,0,0,0,0,0,0,-1,1231,337,2.69009,7.48414
14,687,2.58118,-7.6806,0,0,0,0,0,0,0,-1,1238,337,2.58116,7.68059
21,687,2.47229,-7.87704,0,0,0,0,0,0,0,-1,1245,337,2.47224,7.87704
28,687,1.32568,-7.4408,0.0641931,-0.0412263,-0.026404,0.0704366,-0.0474698,-0.232197,0.0685024,0.045269,1252,337,1.32571,7.4408
35,687,1.34741,-7.62927,0.0543167,-0.0311294,-0.0293022,0.0633998,-0.0402125,-0.300588,0.0603179,0.0461693,1259,337,1.34741,7.62926
42,687,1.37891,-7.80368,0,0,0,0,0,0,0,-1,1266,337,1.37885,7.80369
49,687,2.28967,-6.83466,0,0,0,0,0,0,0,-1,1273,337,2.28963,6.83466
56,687,1.48877,-10.7723,0,0,0,0,0,0,0,-1,1280,337,1.48876,10.7723
63,687,2.00073,-6.77853,0,0,0,0,0,0,0,-1,1287,337,2.00071,6.77854
70,687,2.18359,-6.68832,0,0,0,0,0,0,0,-1,1294,337,2.18363,6.68832
77,687,0.692261,-5.65845,0.0249421,0.00955343,-0.0244603,0.0428897,-0.00839412,-0.633015,0.0317631,0.0425276,1301,337,0.692246,5.65844
84,687,1.13953,-6.25989,0.0248626,0.0114724,-0.0200106,0.0392683,-0.00293339,-0.623964,0.0272095,0.041401,1308,337,1.13953,6.25988
91,687,1.79065,-6.82251,0.0240288,0.013124,-0.0151335,0.0346621,0.00249072,-0.612493,0.0223242,0.0432664,1315,337,1.79062,6.82251
98,687,2.23462,-7.00092,0.0224654,0.0128619,-0.00989934,0.0286661,0.00666124,-0.559588,0.0173226,0.045884,1322,337,2.23459,7.00092
105,687,2.70557,-7.11606,0.0210353,0.0117507,-0.00409158,0.0225811,0.010205,-0.361214,0.0130573,0.0416854,1329,337,2.70558,7.11605
112,687,2.55029,-6.83997,0.0192278,0.00923247,0.00149848,0.0194476,0.00901265,0.145653,0.0112381,0.0433553,1336,337,2.55032,6.83997
119,687,2.51135,-6.47437,0.0164749,0.00761573,0.00666145,0.0200451,0.00404555,0.491989,0.0122398,0.0434056,1343,337,2.5114,6.47437
126,687,2.34851,-6.22159,0,0,0,0,0,0,0,-1,1350,337,2.34853,6.22158
133,687,2.58215,-6.30713,0,0,0,0,0,0,0,-1,1357,337,2.58221,6.30713
140,687,2.71082,-6.42194,0,0,0,0,0,0,0,-1,1364,337,2.71078,6.42195
147,687,1.82007,-6.22705,0,0,0,0,0,0,0,-1,1371,337,1.82005,6.22706
154,687,2.24072,-5.82388,0,0,0,0,0,0,0,-1,1378,337,2.24071,5.82388
161,687,6.5564,1.68158,0,0,0,0,0,0,0,-1,1385,337,6.55636,-1.68157
168,687,6.66968,1.37039,0,0,0,0,0,0,0,-1,1392,337,6.6697,-1.37039
175,687,6.64075,0.771606,0,0,0,0,0,0,0,-1,1399,337,6.64073,-0.771595
182,687,6.67249,0.289917,0,0,0,0,0,0,0,-1,1406,337,6.67247,-0.289916
189,687,7.76062,4.53635,0,0,0,0,0,0,0,-1,1413,337,7.76064,-4.53636
196,687,6.99048,3.2966,0,0,0,0,0,0,0,-1,1420,337,6.99046,-3.2966
203,687,6.36499,2.1445,0,0,0,0,0,0,0,-1,1427,337,6.36499,-2.14451
210,687,6.68066,0.674652,0,0,0,0,0,0,0,-1,1434,337,6.68062,-0.674655
217,687,5.99683,-0.630493,0,0,0,0,0,0,0,-1,1441,337,5.99684,0.630497
224,687,2.82117,1.18063,0,0,0,0,0,0,0,-1,1448,337,2.8212,-1.18063
231,687,2.94507,-0.278839,0,0,0,0,0,0,0,-1,1455,337,2.94505,0.278842
238,687,0.891479,0.523315,0,0,0,0,0,0,0,-1,1462,337,0.891479,-0.523308
245,687,1.28259,2.32211,0,0,0,0,0,0,0,-1,1469,337,1.28258,-2.32211
252,687,1.97278,3.88422,0,0,0,0,0,0,0,-1,1476,337,1.97281,-3.88421
259,687,0,0,0,0,0,0,0,0,0,-1,1483,337,0,0
266,687,0,0,0,0,0,0,0,0,0,-1,1490,337,0,0
273,687,0,0,0,0,0,0,0,0,0,-1,1497,337,0,0
280,687,0,0,0,0,0,0,0,0,0,-1,1504,337,0,0
287,687,0,0,0,0,0,0,0,0,0,-1,1511,337,0,0
294,687,0,0,0,0,0,0,0,0,0,-1,1518,337,0,0
301,687,0,0,0,0,0,0,0,0,0,-1,1525,337,0,0
308,687,0,0,0,0,0,0,0,0,0,-1,1532,337,0,0
315,687,0,0,0,0,0,0,0,0,0,-1,1539,337,0,0
322,687,0,0,0,0,0,0,0,0,0,-1,1546,337,0,0
329,687,0,0,0,0,0,0,0,0,0,-1,1553,337,0,0
336,687,0,0,0,0,0,0,0,0,0,-1,1560,337,0,0
343,687,0,0,0,0,0,0,0,0,0,-1,1567,337,0,0
350,687,0,0,0,0,0,0,0,0,0,-1,1574,337,0,0
357,687,0,0,0,0,0,0,0,0,0,-1,1581,337,0,0
364,687,0,0,0,0,0,0,0,0,0,-1,1588,337,0,0
371,687,0,0,0,0,0,0,0,0,0,-1,1595,337,0,0
378,687,0,0,0,0,0,0,0,0,0,-1,1602,337,0,0
385,687,0,0,0,0,0,0,0,0,0,-1,1609,337,0,0
392,687,0,0,0,0,0,0,0,0,0,-1,1616,337,0,0
399,687,0,0,0,0,0,0,0,0,0,-1,1623,337,0,0
406,687,0,0,0,0,0,0,0,0,0,-1,1630,337,0,0
413,687,0,0,0,0,0,0,0,0,0,-1,1637,337,0,0
420,687,0,0,0,0,0,0,0,0,0,-1,1644,337,0,0
427,687,0,0,0,0,0,0,0,0,0,-1,1651,337,0,0
434,687,0,0,0,0,0,0,0,0,0,-1,1658,337,0,0
441,687,0,0,0,0,0,0,0,0,0,-1,1665,337,0,0
448,687,0,0,0,0,0,0,0,0,0,-1,1672,337,0,0
455,687,0,0,0,0,0,0,0,0,0,-1,1679,337,0,0
462,687,0,0,0,0,0,0,0,0,0,-1,1686,337,0,0
469,687,0,0,0,0,0,0,0,0,0,-1,1693,337,0,0
476,687,0,0,0,0,0,0,0,0,0,-1,1700,337,0,0
483,687,0,0,0,0,0,0,0,0,0,-1,1707,337,0,0
490,687,0,0,0,0,0,0,0,0,0,-1,1714,337,0,0
497,687,0,0,0,0,0,0,0,0,0,-1,1721,337,0,0
504,687,0,0,0,0,0,0,0,0,0,-1,1728,337,0,0
511,687,0,0,0,0,0,0,0,0,0,-1,1735,337,0,0
518,687,0,0,0,0,0,0,0,0,0,-1,1742,337,0,0
525,687,0,0,0,0,0,0,0,0,0,-1,1749,337,0,0
532,687,0,0,0,0,0,0,0,0,0,-1,1756,337,0,0
539,687,0,0,0,0,0,0,0,0,0,-1,1763,337,0,0
546,687,0,0,0,0,0,0,0,0,0,-1,1770,337,0,0
553,687,0,0,0,0,0,0,0,0,0,-1,1777,337,0,0
560,687,0,0,0,0,0,0,0,0,0,-1,1784,337,0,0
567,687,0,0,0,0,0,0,0,0,0,-1,1791,337,0,0
574,687,0,0,0,0,0,0,0,0,0,-1,1798,337,0,0
581,687,0,0,0,0,0,0,0,0,0,-1,1805,337,0,0
588,687,0,0,0,0,0,0,0,0,0,-1,1812,337,0,0
595,687,0,0,0,0,0,0,0,0,0,-1,1819,337,0,0
602,687,0,0,0,0,0,0,0,0,0,-1,1826,337,0,0
609,687,0,0,0,0,0,0,0,0,0,-1,1833,337,0,0
616,687,0,0,0,0,0,0,0,0,0,-1,1840,337,0,0
623,687,0,0,0,0,0,0,0,0,0,-1,1847,337,0,0
630,687,0,0,0,0,0,0,0,0,0,-1,1854,337,0,0
637,687,0,0,0,0,0,0,0,0,0,-1,1861,337,0,0
644,687,0,0,0,0,0,0,0,0,0,-1,1868,337,0,0
651,687,0,0,0,0,0,0,0,0,0,-1,1875,337,0,0
658,687,0,0,0,0,0,0,0,0,0,-1,1882,337,0,0
665,687,0,0,0,0,0,0,0,0,0,-1,1889,337,0,0
672,687,0,0,0,0,0,0,0,0,0,-1,1896,337,0,0
679,687,0,0,0,0,0,0,0,0,0,-1,1903,337,0,0
686,687,0,0,0,0,0,0,0,0,0,-1,1910,337,0,0
693,687,0,0,0,0,0,0,0,0,0,-1,1917,337,0,0
700,687,0,0,0,0,0,0,0,0,0,-1,1924,337,0,0
707,687,0,0,0,0,0,0,0,0,0,-1,1931,337,0,0
714,687,0,0,0,0,0,0,0,0,0,-1,1938,337,0,0
721,687,0,0,0,0,0,0,0,0,0,-1,1945,337,0,0
728,687,0,0,0,0,0,0,0,0,0,-1,1952,337,0,0
735,687,0,0,0,0,0,0,0,0,0,-1,1959,337,0,0
742,687,0,0,0,0,0,0,0,0,0,-1,1966,337,0,0
749,687,0,0,0,0,0,0,0,0,0,-1,1973,337,0,0
756,687,0,0,0,0,0,0,0,0,0,-1,1980,337,0,0
763,687,0,0,0,0,0,0,0,0,0,-1,1987,337,0,0
770,687,0,0,0,0,0,0,0,0,0,-1,1994,337,0,0
777,687,0,0,0,0,0,0,0,0,0,-1,2001,337,0,0
784,687,0,0,0,0,0,0,0,0,0,-1,2008,337,0,0
791,687,0,0,0,0,0,0,0,0,0,-1,2015,337,0,0
798,687,0,0,0,0,0,0,0,0,0,-1,2022,337,0,0
805,687,0,0,0,0,0,0,0,0,0,-1,2029,337,0,0
812,687,0,0,0,0,0,0,0,0,0,-1,2036,337,0,0
-700,680,0,0,0,0,0,0,0,0,0,-1,524,344,0,0
-693,680,0,0,0,0,0,0,0,0,0,-1,531,344,0,0
-686,680,0,0,0,0,0,0,0,0,0,-1,538,344,0,0
-679,680,0,0,0,0,0,0,0,0,0,-1,545,344,0,0
-672,680,0,0,0,0,0,0,0,0,0,-1,552,344,0,0
-665,680,0,0,0,0,0,0,0,0,0,-1,559,344,0,0
-658,680,0,0,0,0,0,0,0,0,0,-1,566,344,0,0
-651,680,0,0,0,0,0,0,0,0,0,-1,573,344,0,0
-644,680,0,0,0,0,0,0,0,0,0,-1,580,344,0,0
-637,680,0,0,0,0,0,0,0,0,0,-1,587,344,0,0
-630,680,0,0,0,0,0,0,0,0,0,-1,594,344,0,0
-623,680,0,0,0,0,0,0,0,0,0,-1,601,344,0,0
-616,680,0,0,0,0,0,0,0,0,0,-1,608,344,0,0
-609,680,0,0,0,0,0,0,0,0,0,-1,615,344,0,0
-602,680,0,0,0,0,0,0,0,0,0,-1,622,344,0,0
-595,680,0,0,0,0,0,0,0,0,0,-1,629,344,0,0
-588,680,0,0,0,0,0,0,0,0,0,-1,636,344,0,0
-581,680,0,0,0,0,0,0,0,0,0,-1,643,344,0,0
-574,680,0,0,0,0,0,0,0,0,0,-1,650,344,0,0
-567,680,0,0,0,0,0,0,0,0,0,-1,657,344,0,0
-560,680,0,0,0,0,0,0,0,0,0,-1,664,344,0,0
-553,680,0,0,0,0,0,0,0,0,0,-1,671,344,0,0
-546,680,0,0,0,0,0,0,0,0,0,-1,678,344,0,0
-539,680,0,0,0,0,0,0,0,0,0,-1,685,344,0,0
-532,680,0,0,0,0,0,0,0,0,0,-1,692,344,0,0
-525,680,0,0,0,0,0,0,0,0,0,-1,699,344,0,0
-518,680,0,0,0,0,0,0,0,0,0,-1,706,344,0,0
-511,680,0,0,0,0,0,0,0,0,0,-1,713,344,0,0
-504,680,0,0,0,0,0,0,0,0,0,-1,720,344,0,0
-497,680,0,0,0,0,0,0,0,0,0,-1,727,344,0,0
-490,680,0,0,0,0,0,0,0,0,0,-1,734,344,0,0
-483,680,0,0,0,0,0,0,0,0,0,-1,741,344,0,0
-476,680,0,0,0,0,0,0,0,0,0,-1,748,344,0,0
-469,680,0,0,0,0,0,0,0,0,0,-1,755,344,0,0
-462,680,0,0,0,0,0,0,0,0,0,-1,762,344,0,0
-455,680,0,0,0,0,0,0,0,0,0,-1,769,344,0,0
-448,680,0,0,0,0,0,0,0,0,0,-1,776,344,0,0
-441,680,0,0,0,0,0,0,0,0,0,-1,783,344,0,0
-434,680,0,0,0,0,0,0,0,0,0,-1,790,344,0,0
-427,680,0,0,0,0,0,0,0,0,0,-1,797,344,0,0
-420,680,0,0,0,0,0,0,0,0,0,-1,804,344,0,0
-413,680,0,0,0,0,0,0,0,0,0,-1,811,344,0,0
-406,680,0,0,0,0,0,0,0,0,0,-1,818,344,0,0
-399,680,0,0,0,0,0,0,0,0,0,-1,825,344,0,0
-392,680,0,0,0,0,0,0,0,0,0,-1,832,344,0,0
-385,680,0,0,0,0,0,0,0,0,0,-1,839,344,0,0
-378,680,0,0,0,0,0,0,0,0,0,-1,846,344,0,0
-371,680,0,0,0,0,0,0,0,0,0,-1,853,344,0,0
-364,680,0,0,0,0,0,0,0,0,0,-1,860,344,0,0
-357,680,0,0,0,0,0,0,0,0,0,-1,867,344,0,0
-350,680,0,0,0,0,0,0,0,0,0,-1,874,344,0,0
-343,680,0,0,0,0,0,0,0,0,0,-1,881,344,0,0
-336,680,0,0,0,0,0,0,0,0,0,-1,888,344,0,0
-329,680,0,0,0,0,0,0,0,0,0,-1,895,344,0,0
-322,680,0,0,0,0,0,0,0,0,0,-1,902,344,0,0
-315,680,0,0,0,0,0,0,0,0,0,-1,909,344,0,0
-308,680,0,0,0,0,0,0,0,0,0,-1,916,344,0,0
-301,680,0,0,0,0,0,0,0,0,0,-1,923,344,0,0
-294,680,0,0,0,0,0,0,0,0,0,-1,930,344,0,0
-287,680,0,0,0,0,0,0,0,0,0,-1,937,344,0,0
-280,680,0,0,0,0,0,0,0,0,0,-1,944,344,0,0
-273,680,0,0,0,0,0,0,0,0,0,-1,951,344,0,0
-266,680,0,0,0,0,0,0,0,0,0,-1,958,344,0,0
-259,680,0,0,0,0,0,0,0,0,0,-1,965,344,0,0
-252,680,0,0,0,0,0,0,0,0,0,-1,972,344,0,0
-245,680,0,0,0,0,0,0,0,0,0,-1,979,344,0,0
-238,680,0,0,0,0,0,0,0,0,0,-1,986,344,0,0
-231,680,0,0,0,0,0,0,0,0,0,-1,993,344,0,0
-224,680,0,0,0,0,0,0,0,0,0,-1,1000,344,0,0
-217,680,0,0,0,0,0,0,0,0,0,-1,1007,344,0,0
-210,680,0,0,0,0,0,0,0,0,0,-1,1014,344,0,0
-203,680,0,0,0,0,0,0,0,0,0,-1,1021,344,0,0
-196,680,0,0,0,0,0,0,0,0,0,-1,1028,344,0,0
-189,680,0,0,0,0,0,0,0,0,0,-1,1035,344,0,0
-182,680,0,0,0,0,0,0,0,0,0,-1,1042,344,0,0
-175,680,0,0,0,0,0,0,0,0,0,-1,1049,344,0,0
-168,680,0,0,0,0,0,0,0,0,0,-1,1056,344,0,0
-161,680,0,0,0,0,0,0,0,0,0,-1,1063,344,0,0
-154,680,-1.22534,-3.19229,0,0,0,0,0,0,0,-1,1070,344,-1.22529,3.1923
-147,680,-2.07471,-6.15753,0,0,0,0,0,0,0,-1,1077,344,-2.07465,6.15755
-140,680,1.80591,-8.57785,0,0,0,0,0,0,0,-1,1084,344,1.80591,8.57785
-133,680,2.02942,-7.57629,0,0,0,0,0,0,0,-1,1091,344,2.0294,7.5763
-126,680,1.17017,-7.17032,0,0,0,0,0,0,0,-1,1098,344,1.17015,7.17032
-119,680,0.186768,-6.65958,0,0,0,0,0,0,0,-1,1105,344,0.186716,6.65958
-112,680,-0.787354,-6.45709,-0.0733282,-0.056947,0.0100332,-0.0521857,-0.0780895,1.12771,0.0459283,0.0420362,1112,344,-0.787406,6.4571
-105,680,-1.41333,-6.35654,-0.068062,-0.0526538,0.0085093,-0.0488791,-0.0718366,1.15329,0.0423654,0.0456138,1119,344,-1.41335,6.35654
-98,680,-2.09009,-6.28323,0,0,0,0,0,0,0,-1,1126,344,-2.0901,6.28323
-91,680,2.35095,-6.41461,0,0,0,0,0,0,0,-1,1133,344,2.3509,6.4146
-84,680,1.28027,-5.35437,0,0,0,0,0,0,0,-1,1140,344,1.28023,5.35438
-77,680,1.10962,-4.38629,0,0,0,0,0,0,0,-1,1147,344,1.10966,4.38628
-70,680,1.00269,-3.29727,0,0,0,0,0,0,0,-1,1154,344,1.00275,3.29728
-63,680,2.06177,-0.639954,0,0,0,0,0,0,0,-1,1161,344,2.06182,0.639947
-56,680,-0.549072,-0.73291,0,0,0,0,0,0,0,-1,1168,344,-0.549091,0.732904
-49,680,-0.902832,-0.00689697,0,0,0,0,0,0,0,-1,1175,344,-0.902841,0.00689904
-42,680,-1.02368,0.618805,0,0,0,0,0,0,0,-1,1182,344,-1.0237,-0.618797
-35,680,-0.947876,-0.942719,0,0,0,0,0,0,0,-1,1189,344,-0.947842,0.942731
-28,680,-1.46118,-1.10574,0,0,0,0,0,0,0,-1,1196,344,-1.4612,1.10575
-21,680,1.43848,-6.23819,0,0,0,0,0,0,0,-1,1203,344,1.43851,6.23819
-14,680,1.80212,-6.37827,0,0,0,0,0,0,0,-1,1210,344,1.80217,6.37825
-7,680,2.23669,-6.68622,0,0,0,0,0,0,0,-1,1217,344,2.23665,6.68621
0,680,2.11609,-6.71774,0,0,0,0,0,0,0,-1,1224,344,2.11611,6.71773
7,680,2.30969,-6.81805,0,0,0,0,0,0,0,-1,1231,344,2.30964,6.81806
14,680,2.41614,-7.23404,0.0642285,-0.0433674,-0.015553,0.0664316,-0.0455705,-0.140714,0.0650373,0.044408,1238,344,2.41618,7.23403
21,680,2.18909,-7.2471,0.0567406,-0.0376399,-0.0180629,0.0600794,-0.0409787,-0.182781,0.0586923,0.0442817,1245,344,2.18907,7.24711
28,680,2.17847,-7.1181,0,0,0,0,0,0,0,-1,1252,344,2.17852,7.1181
35,680,1.86304,-7.19113,0.0416068,-0.0232061,-0.0226474,0.0487361,-0.0303355,-0.304978,0.0460622,0.0418804,1259,344,1.86303,7.19112
42,680,2.24231,-6.8573,0.0359196,-0.016615,-0.0240608,0.0452738,-0.0259692,-0.370792,0.0416325,0.0451062,1266,344,2.24231,6.8573
49,680,2.27661,-6.83597,0.0311206,-0.0102174,-0.0251591,0.0430121,-0.022109,-0.441531,0.0382379,0.0434644,1273,344,2.27662,6.83595
56,680,2.27771,-6.79367,0.0273875,-0.00385736,-0.0254754,0.0416492,-0.018119,-0.510351,0.0353873,0.0412242,1280,344,2.2777,6.79367
63,680,2.11902,-6.78027,0.0229174,0.00151345,-0.024085,0.038571,-0.0141402,-0.576328,0.0315036,0.0392812,1287,344,2.119,6.78029
70,680,2.20911,-6.71304,0.0185565,0.00458477,-0.0208334,0.0335441,-0.0104028,-0.623629,0.0265194,0.0391965,1294,344,2.2091,6.71305
77,680,2.22437,-6.66711,0,0,0,0,0,0,0,-1,1301,344,2.2244,6.66713
84,680,2.14246,-6.72052,0.0189414,0.00841277,-0.0146621,0.0292557,-0.00190147,-0.613044,0.0201675,0.0445922,1308,344,2.14248,6.72051
91,680,2.06506,-6.94626,0.0181528,0.00969134,-0.010834,0.0255528,0.00229134,-0.59925,0.0163251,0.0453476,1315,344,2.06511,6.94626
98,680,2.49402,-7.194,0.0168409,0.00949524,-0.00687043,0.0209586,0.00537753,-0.539932,0.0125694,0.0445707,1322,344,2.49399,7.194
105,680,2.52649,-7.09064,0.0157249,0.00882279,-0.00248913,0.0165289,0.00801879,-0.312427,0.00954439,0.041789,1329,344,2.52649,7.09063
112,680,2.37732,-6.93167,0.0143394,0.00715928,0.00166228,0.0147056,0.00679312,0.216815,0.00849846,0.0454445,1336,344,2.37735,6.93167
119,680,2.33984,-6.55139,0.0121969,0.00616385,0.00542468,0.0153874,0.00297341,0.53165,0.00942478,0.0423554,1343,344,2.33982,6.55139
126,680,2.36609,-6.32486,0.00988333,0.00437383,0.00862798,0.0161857,-0.0019285,0.630873,0.0114874,0.0432429,1350,344,2.36608,6.32486
133,680,2.56885,-6.43491,0.00761813,0.00253972,0.0120973,0.0174398,-0.00728196,0.68195,0.0146692,0.0470982,1357,344,2.56886,6.43491
140,680,2.72522,-6.57687,0.00583706,0.00140083,0.0147994,0.0185837,-0.0113458,0.711013,0.0174474,0.0497064,1364,344,2.72522,6.57686
147,680,1.77075,-6.48624,0.0044002,0.00100062,0.0165477,0.0193352,-0.0139344,0.734218,0.0192924,0.0471108,1371,344,1.77076,6.48624
154,680,2.09277,-6.26459,0.00384932,0.00171577,0.0166397,0.0194564,-0.0138913,0.753387,0.0193425,0.0494375,1378,344,2.09273,6.26458
161,680,2.61609,-6.0882,0,0,0,0,0,0,0,-1,1385,344,2.61609,6.0882
168,680,6.85046,1.69257,0,0,0,0,0,0,0,-1,1392,344,6.85045,-1.69257
175,680,6.66541,0.942078,0,0,0,0,0,0,0,-1,1399,344,6.66538,-0.942088
182,680,6.52917,0.532379,0,0,0,0,0,0,0,-1,1406,344,6.52922,-0.532385
189,680,7.55884,4.77695,0,0,0,0,0,0,0,-1,1413,344,7.55886,-4.77694
196,680,6.55627,3.35254,0,0,0,0,0,0,0,-1,1420,344,6.55622,-3.35255
203,680,5.7334,1.90753,0,0,0,0,0,0,0,-1,1427,344,5.73341,-1.90754
210,680,5.27515,0.493622,0,0,0,0,0,0,0,-1,1434,344,5.27514,-0.493632
217,680,2.23169,1.90567,0,0,0,0,0,0,0,-1,1441,344,2.23165,-1.90568
224,680,2.56433,0.633606,0,0,0,0,0,0,0,-1,1448,344,2.56436,-0.633606
231,680,1.37292,-1.15448,0,0,0,0,0,0,0,-1,1455,344,1.37296,1.15448
238,680,1.78271,-0.209778,0,0,0,0,0,0,0,-1,1462,344,1.78269,0.209781
245,680,2.44397,0.985382,0,0,0,0,0,0,0,-1,1469,344,2.44402,-0.985394
252,680,3.07349,2.18951,0,0,0,0,0,0,0,-1,1476,344,3.0735,-2.18952
259,680,2.82971,1.30682,-0.00565978,0.0119004,-0.0316079,0.0359251,-0.0296844,-0.920874,0.0379367,0.0429887,1483,344,2.82972,-1.30684
266,680,2.67554,1.44067,0,0,0,0,0,0,0,-1,1490,344,2.67551,-1.44066
273,680,2.46411,1.54666,0,0,0,0,0,0,0,-1,1497,344,2.46407,-1.54666
280,680,0,0,0,0,0,0,0,0,0,-1,1504,344,0,0
287,680,0,0,0,0,0,0,0,0,0,-1,1511,344,0,0
294,680,0,0,0,0,0,0,0,0,0,-1,1518,344,0,0
301,680,0,0,0,0,0,0,0,0,0,-1,1525,344,0,0
308,680,0,0,0,0,0,0,0,0,0,-1,1532,344,0,0
315,680,0,0,0,0,0,0,0,0,0,-1,1539,344,0,0
322,680,0,0,0,0,0,0,0,0,0,-1,1546,344,0,0
329,680,0,0,0,0,0,0,0,0,0,-1,1553,344,0,0
336,680,0,0,0,0,0,0,0,0,0,-1,1560,344,0,0
343,680,0,0,0,0,0,0,0,0,0,-1,1567,344,0,0
350,680,0,0,0,0,0,0,0,0,0,-1,1574,344,0,0
357,680,0,0,0,0,0,0,0,0,0,-1,1581,344,0,0
364,680,0,0,0,0,0,0,0,0,0,-1,1588,344,0,0
371,680,0,0,0,0,0,0,0,0,0,-1,1595,344,0,0
378,680,0,0,0,0,0,0,0,0,0,-1,1602,344,0,0
385,680,0,0,0,0,0,0,0,0,0,-1,1609,344,0,0
392,680,0,0,0,0,0,0,0,0,0,-1,1616,344,0,0
399,680,0,0,0,0,0,0,0,0,0,-1,1623,344,0,0
406,680,0,0,0,0,0,0,0,0,0,-1,1630,344,0,0
413,680,0,0,0,0,0,0,0,0,0,-1,1637,344,0,0
420,680,0,0,0,0,0,0,0,0,0,-1,1644,344,0,0
427,680,0,0,0,0,0,0,0,0,0,-1,1651,344,0,0
434,680,0,0,0,0,0,0,0,0,0,-1,1658,344,0,0
441,680,0,0,0,0,0,0,0,0,0,-1,1665,344,0,0
448,680,0,0,0,0,0,0,0,0,0,-1,1672,344,0,0
455,680,0,0,0,0,0,0,0,0,0,-1,1679,344,0,0
462,680,0,0,0,0,0,0,0,0,0,-1,1686,344,0,0
469,680,0,0,0,0,0,0,0,0,0,-1,1693,344,0,0
476,680,0,0,0,0,0,0,0,0,0,-1,1700,344,0,0
483,680,0,0,0,0,0,0,0,0,0,-1,1707,344,0,0
490,680,0,0,0,0,0,0,0,0,0,-1,1714,344,0,0
497,680,0,0,0,0,0,0,0,0,0,-1,1721,344,0,0
504,680,0,0,0,0,0,0,0,0,0,-1,1728,344,0,0
511,680,0,0,0,0,0,0,0,0,0,-1,1735,344,0,0
518,680,0,0,0,0,0,0,0,0,0,-1,1742,344,0,0
525,680,0,0,0,0,0,0,0,0,0,-1,1749,344,0,0
532,680,0,0,0,0,0,0,0,0,0,-1,1756,344,0,0
539,680,0,0,0,0,0,0,0,0,0,-1,1763,344,0,0
546,680,0,0,0,0,0,0,0,0,0,-1,1770,344,0,0
553,680,0,0,0,0,0,0,0,0,0,-1,1777,344,0,0
560,680,0,0,0,0,0,0,0,0,0,-1,1784,344,0,0
567,680,0,0,0,0,0,0,0,0,0,-1,1791,344,0,0
574,680,0,0,0,0,0,0,0,0,0,-1,1798,344,0,0
581,680,0,0,0,0,0,0,0,0,0,-1,1805,344,0,0
588,680,0,0,0,0,0,0,0,0,0,-1,1812,344,0,0
595,680,0,0,0,0,0,0,0,0,0,-1,1819,344,0,0
602,680,0,0,0,0,0,0,0,0,0,-1,1826,344,0,0
609,680,0,0,0,0,0,0,0,0,0,-1,1833,344,0,0
616,680,0,0,0,0,0,0,0,0,0,-1,1840,344,0,0
623,680,0,0,0,0,0,0,0,0,0,-1,1847,344,0,0
630,680,0,0,0,0,0,0,0,0,0,-1,1854,344,0,0
637,680,0,0,0,0,0,0,0,0,0,-1,1861,344,0,0
644,680,0,0,0,0,0,0,0,0,0,-1,1868,344,0,0
651,680,0,0,0,0,0,0,0,0,0,-1,1875,344,0,0
658,680,0,0,0,0,0,0,0,0,0,-1,1882,344,0,0
665,680,0,0,0,0,0,0,0,0,0,-1,1889,344,0,0
672,680,0,0,0,0,0,0,0,0,0,-1,1896,344,0,0
679,680,0,0,0,0,0,0,0,0,0,-1,1903,344,0,0
686,680,0,0,0,0,0,0,0,0,0,-1,1910,344,0,0
693,680,0,0,0,0,0,0,0,0,0,-1,1917,344,0,0
700,680,0,0,0,0,0,0,0,0,0,-1,1924,344,0,0
707,680,0,0,0,0,0,0,0,0,0,-1,1931,344,0,0
714,680,0,0,0,0,0,0,0,0,0,-1,1938,344,0,0
721,680,0,0,0,0,0,0,0,0,0,-1,1945,344,0,0
728,680,0,0,0,0,0,0,0,0,0,-1,1952,344,0,0
735,680,0,0,0,0,0,0,0,0,0,-1,1959,344,0,0
742,680,0,0,0,0,0,0,0,0,0,-1,1966,344,0,0
749,680,0,0,0,0,0,0,0,0,0,-1,1973,344,0,0
756,680,0,0,0,0,0,0,0,0,0,-1,1980,344,0,0
763,680,0,0,0,0,0,0,0,0,0,-1,1987,344,0,0
770,680,0,0,0,0,0,0,0,0,0,-1,1994,344,0,0
777,680,0,0,0,0,0,0,0,0,0,-1,2001,344,0,0
784,680,0,0,0,0,0,0,0,0,0,-1,2008,344,0,0
791,680,0,0,0,0,0,0,0,0,0,-1,2015,344,0,0
798,680,0,0,0,0,0,0,0,0,0,-1,2022,344,0,0
805,680,0,0,0,0,0,0,0,0,0,-1,2029,344,0,0
812,680,0,0,0,0,0,0,0,0,0,-1,2036,344,0,0
-700,673,0,0,0,0,0,0,0,0,0,-1,524,351,0,0
-693,673,0,0,0,0,0,0,0,0,0,-1,531,351,0,0
-686,673,0,0,0,0,0,0,0,0,0,-1,538,351,0,0
-679,673,0,0,0,0,0,0,0,0,0,-1,545,351,0,0
-672,673,0,0,0,0,0,0,0,0,0,-1,552,351,0,0
-665,673,0,0,0,0,0,0,0,0,0,-1,559,351,0,0
-658,673,0,0,0,0,0,0,0,0,0,-1,566,351,0,0
-651,673,0,0,0,0,0,0,0,0,0,-1,573,351,0,0
-644,673,0,0,0,0,0,0,0,0,0,-1,580,351,0,0
-637,673,0,0,0,0,0,0,0,0,0,-1,587,351,0,0
-630,673,0,0,0,0,0,0,0,0,0,-1,594,351,0,0
-623,673,0,0,0,0,0,0,0,0,0,-1,601,351,0,0
-616,673,0,0,0,0,0,0,0,0,0,-1,608,351,0,0
-609,673,0,0,0,0,0,0,0,0,0,-1,615,351,0,0
-602,673,0,0,0,0,0,0,0,0,0,-1,622,351,0,0
-595,673,0,0,0,0,0,0,0,0,0,-1,629,351,0,0
-588,673,0,0,0,0,0,0,0,0,0,-1,636,351,0,0
-581,673,0,0,0,0,0,0,0,0,0,-1,643,351,0,0
-574,673,0,0,0,0,0,0,0,0,0,-1,650,351,0,0
-567,673,0,0,0,0,0,0,0,0,0,-1,657,351,0,0
-560,673,0,0,0,0,0,0,0,0,0,-1,664,351,0,0
-553,673,0,0,0,0,0,0,0,0,0,-1,671,351,0,0
-546,673,0,0,0,0,0,0,0,0,0,-1,678,351,0,0
-539,673,0,0,0,0,0,0,0,0,0,-1,685,351,0,0
-532,673,0,0,0,0,0,0,0,0,0,-1,692,351,0,0
-525,673,0,0,0,0,0,0,0,0,0,-1,699,351,0,0
-518,673,0,0,0,0,0,0,0,0,0,-1,706,351,0,0
-511,673,0,0,0,0,0,0,0,0,0,-1,713,351,0,0
-504,673,0,0,0,0,0,0,0,0,0,-1,720,351,0,0
-497,673,0,0,0,0,0,0,0,0,0,-1,727,351,0,0
-490,673,0,0,0,0,0,0,0,0,0,-1,734,351,0,0
-483,673,0,0,0,0,0,0,0,0,0,-1,741,351,0,0
-476,673,0,0,0,0,0,0,0,0,0,-1,748,351,0,0
-469,673,0,0,0,0,0,0,0,0,0,-1,755,351,0,0
-462,673,0,0,0,0,0,0,0,0,0,-1,762,351,0,0
-455,673,0,0,0,0,0,0,0,0,0,-1,769,351,0,0
-448,673,0,0,0,0,0,0,0,0,0,-1,776,351,0,0
-441,673,0,0,0,0,0,0,0,0,0,-1,783,351,0,0
-434,673,0,0,0,0,0,0,0,0,0,-1,790,351,0,0
-427,673,0,0,0,0,0,0,0,0,0,-1,797,351,0,0
-420,673,0,0,0,0,0,0,0,0,0,-1,804,351,0,0
-413,673,0,0,0,0,0,0,0,0,0,-1,811,351,0,0
-406,673,0,0,0,0,0,0,0,0,0,-1,818,351,0,0
-399,673,0,0,0,0,0,0,0,0,0,-1,825,351,0,0
-392,673,0,0,0,0,0,0,0,0,0,-1,832,351,0,0
-385,673,0,0,0,0,0,0,0,0,0,-1,839,351,0,0
-378,673,0,0,0,0,0,0,0,0,0,-1,846,351,0,0
-371,673,0,0,0,0,0,0,0,0,0,-1,853,351,0,0
-364,673,0,0,0,0,0,0,0,0,0,-1,860,351,0,0
-357,673,0,0,0,0,0,0,0,0,0,-1,867,351,0,0
-350,673,0,0,0,0,0,0,0,0,0,-1,874,351,0,0
-343,673,0,0,0,0,0,0,0,0,0,-1,881,351,0,0
-336,673,0,0,0,0,0,0,0,0,0,-1,888,351,0,0
-329,673,0,0,0,0,0,0,0,0,0,-1,895,351,0,0
-322,673,0,0,0,0,0,0,0,0,0,-1,902,351,0,0
-315,673,0,0,0,0,0,0,0,0,0,-1,909,351,0,0
-308,673,0,0,0,0,0,0,0,0,0,-1,916,351,0,0
-301,673,0,0,0,0,0,0,0,0,0,-1,923,351,0,0
-294,673,0,0,0,0,0,0,0,0,0,-1,930,351,0,0
-287,673,0,0,0,0,0,0,0,0,0,-1,937,351,0,0
-280,673,0,0,0,0,0,0,0,0,0,-1,944,351,0,0
-273,673,0,0,0,0,0,0,0,0,0,-1,951,351,0,0
-266,673,0,0,0,0,0,0,0,0,0,-1,958,351,0,0
-259,673,0,0,0,0,0,0,0,0,0,-1,965,351,0,0
-252,673,0,0,0,0,0,0,0,0,0,-1,972,351,0,0
-245,673,0,0,0,0,0,0,0,0,0,-1,979,351,0,0
-238,673,0,0,0,0,0,0,0,0,0,-1,986,351,0,0
-231,673,0,0,0,0,0,0,0,0,0,-1,993,351,0,0
-224,673,0,0,0,0,0,0,0,0,0,-1,1000,351,0,0
-217,673,0,0,0,0,0,0,0,0,0,-1,1007,351,0,0
-210,673,0,0,0,0,0,0,0,0,0,-1,1014,351,0,0
-203,673,0,0,0,0,0,0,0,0,0,-1,1021,351,0,0
-196,673,0,0,0,0,0,0,0,0,0,-1,1028,351,0,0
-189,673,0,0,0,0,0,0,0,0,0,-1,1035,351,0,0
-182,673,0,0,0,0,0,0,0,0,0,-1,1042,351,0,0
-175,673,2.85974,-6.91837,0,0,0,0,0,0,0,-1,1049,351,2.8597,6.91836
-168,673,0.981812,-4.26868,0,0,0,0,0,0,0,-1,1056,351,0.981863,4.26868
-161,673,0.282959,-4.1362,0,0,0,0,0,0,0,-1,1063,351,0.282931,4.13621
-154,673,-1.20581,-6.16635,0,0,0,0,0,0,0,-1,1070,351,-1.20579,6.16635
-147,673,3.14697,-7.62161,0,0,0,0,0,0,0,-1,1077,351,3.14699,7.62161
-140,673,2.75415,-7.33105,0,0,0,0,0,0,0,-1,1084,351,2.75409,7.33105
-133,673,1.90649,-6.99307,-0.0686103,-0.0530098,0.0148194,-0.0440631,-0.0775569,1.02765,0.0449159,0.048497,1091,351,1.9065,6.99307
-126,673,1.04895,-6.595,-0.0638385,-0.0489981,0.011158,-0.0430182,-0.0698183,1.07883,0.0406705,0.0465939,1098,351,1.04895,6.59501
-119,673,0.26709,-6.17258,-0.0590534,-0.0450547,0.00832866,-0.0411749,-0.0629332,1.13484,0.0369065,0.0450257,1105,351,0.267046,6.17258
-112,673,-0.586914,-5.92325,-0.0544593,-0.0410916,0.00640866,-0.0385156,-0.0570353,1.1886,0.0335971,0.0441133,1112,351,-0.586904,5.92326
-105,673,-1.37048,-5.77536,0,0,0,0,0,0,0,-1,1119,351,-1.37052,5.77535
-98,673,2.27698,-6.65497,0,0,0,0,0,0,0,-1,1126,351,2.27693,6.65497
-91,673,2.47034,-6.3869,0,0,0,0,0,0,0,-1,1133,351,2.47038,6.38689
-84,673,2.53845,-6.19629,0,0,0,0,0,0,0,-1,1140,351,2.53851,6.19629
-77,673,1.51025,-5.98251,0,0,0,0,0,0,0,-1,1147,351,1.51021,5.98251
-70,673,1.88684,-4.7381,0,0,0,0,0,0,0,-1,1154,351,1.88682,4.73809
-63,673,1.11719,-2.95016,0,0,0,0,0,0,0,-1,1161,351,1.11724,2.95016
-56,673,-0.416016,-0.689301,0,0,0,0,0,0,0,-1,1168,351,-0.416043,0.689298
-49,673,-0.926758,-0.115448,0,0,0,0,0,0,0,-1,1175,351,-0.926732,0.115444
-42,673,-1.15015,0.289917,0,0,0,0,0,0,0,-1,1182,351,-1.15017,-0.289932
-35,673,-0.919556,-1.00711,0,0,0,0,0,0,0,-1,1189,351,-0.919514,1.00711
-28,673,1.03564,-2.58228,0,0,0,0,0,0,0,-1,1196,351,1.0356,2.58229
-21,673,2.33411,-6.6474,0,0,0,0,0,0,0,-1,1203,351,2.33414,6.64739
-14,673,2.22534,-6.63147,0.0597785,-0.0435251,-0.00236434,0.0598326,-0.0435792,-0.0228713,0.0599501,0.0465706,1210,351,2.22528,6.63147
-7,673,2.29358,-6.7207,0.0584441,-0.0409254,-0.00459688,0.0586563,-0.0411376,-0.0461292,0.0579112,0.0436634,1217,351,2.29355,6.72071
0,673,2.21875,-6.74576,0.0558392,-0.0379798,-0.00723965,0.0563945,-0.0385351,-0.0765621,0.05513,0.0447794,1224,351,2.2187,6.74575
7,673,2.30176,-6.82101,0.0516468,-0.0342093,-0.0098399,0.0527601,-0.0353226,-0.112663,0.0511857,0.0431371,1231,351,2.30172,6.82101
14,673,2.31421,-6.86829,0.0467114,-0.0309832,-0.012082,0.0485468,-0.0328187,-0.150764,0.047268,0.0363594,1238,351,2.31423,6.86828
21,673,2.2865,-6.86121,0.0413952,-0.0269941,-0.0136932,0.044035,-0.0296339,-0.190446,0.0428028,0.0237698,1245,351,2.28655,6.86121
28,673,2.29626,-6.8255,0.0359498,-0.0221881,-0.0153667,0.0397616,-0.0259999,-0.243144,0.0382435,0.0164874,1252,351,2.29629,6.82551
35,673,2.30566,-6.83231,0.0305668,-0.0167389,-0.0168285,0.0359425,-0.0221146,-0.309194,0.0338347,0.0240505,1259,351,2.3057,6.83231
42,673,2.29028,-6.80984,0.0265097,-0.0120256,-0.0178157,0.033484,-0.0189999,-0.373132,0.0306839,0.0279346,1266,351,2.29031,6.80985
49,673,2.27356,-6.79532,0.0230279,-0.00738576,-0.0185349,0.0317959,-0.0161537,-0.441856,0.0281704,0.0170008,1273,351,2.27358,6.79533
56,673,2.26404,-6.79993,0.0202732,-0.00283748,-0.018613,0.030626,-0.0131903,-0.507604,0.0259564,0.0130577,1280,351,2.26403,6.79993
63,673,2.24695,-6.78271,0.0169387,0.00101972,-0.0174785,0.0281847,-0.0102263,-0.571735,0.0229703,0.0146611,1287,351,2.24691,6.78272
70,673,2.21729,-6.75333,0.0136893,0.00328118,-0.0150438,0.0244037,-0.0074333,-0.618878,0.0192319,0.0235949,1294,351,2.21725,6.75334
77,673,2.22412,-6.73364,0.0140833,0.00509109,-0.0130179,0.0233596,-0.00418524,-0.619122,0.0171393,0.0337432,1301,351,2.2241,6.73364
84,673,2.20374,-6.77765,0.0139461,0.00599977,-0.0103637,0.0210721,-0.00112626,-0.602353,0.0144381,0.0374782,1308,351,2.2037,6.77764
91,673,2.22791,-6.8631,0.0132377,0.00695812,-0.0074454,0.0181783,0.00201756,-0.585858,0.0115055,0.0439097,1315,351,2.2279,6.86311
98,673,2.245,-6.9371,0.0121751,0.0068158,-0.00452943,0.0147582,0.00423273,-0.518285,0.00877502,0.0435226,1322,351,2.24494,6.9371
105,673,2.15491,-6.80649,0.0113306,0.0064387,-0.00131288,0.0116607,0.00610862,-0.246308,0.00673486,0.0396387,1329,351,2.15495,6.80648
112,673,2.17554,-6.74957,0.0102896,0.00538518,0.0016892,0.0108151,0.00485969,0.301599,0.00625479,0.0392367,1336,351,2.17552,6.74956
119,673,2.24707,-6.67722,0.00867909,0.0048059,0.00435886,0.0115122,0.00197279,0.576351,0.00710904,0.0377912,1343,351,2.24709,6.6772
126,673,2.2865,-6.53299,0.0069421,0.00373496,0.00657146,0.0121028,-0.00142576,0.665727,0.00858336,0.0387056,1350,351,2.28649,6.53299
133,673,2.09045,-6.54941,0.00520641,0.00267179,0.00897126,0.0129994,-0.00512123,0.715231,0.0107865,0.0402668,1357,351,2.09043,6.5494
140,673,1.87646,-6.72781,0.00383217,0.00195483,0.0109076,0.0138414,-0.00805444,0.742476,0.0127879,0.0416153,1364,351,1.87644,6.7278
147,673,1.90454,-6.62302,0.00264596,0.00179726,0.0120802,0.0143093,-0.00986606,0.767842,0.014036,0.0415002,1371,351,1.90453,6.62302
154,673,1.97876,-6.46317,0.00206823,0.00232647,0.0120414,0.0142394,-0.0098447,0.790759,0.0139819,0.0389199,1378,351,1.97873,6.46318
161,673,1.99365,-6.32623,0,0,0,0,0,0,0,-1,1385,351,1.99367,6.32624
168,673,6.87061,1.83954,0,0,0,0,0,0,0,-1,1392,351,6.87063,-1.83953
175,673,6.6228,1.1459,0,0,0,0,0,0,0,-1,1399,351,6.62276,-1.14591
182,673,6.37244,0.796112,0,0,0,0,0,0,0,-1,1406,351,6.3724,-0.796102
189,673,6.12097,0.265472,0,0,0,0,0,0,0,-1,1413,351,6.121,-0.265482
196,673,6.02173,3.12717,0,0,0,0,0,0,0,-1,1420,351,6.02176,-3.12717
203,673,5.04456,1.6351,0,0,0,0,0,0,0,-1,1427,351,5.04455,-1.63509
210,673,4.79224,0.447479,0,0,0,0,0,0,0,-1,1434,351,4.79229,-0.447469
217,673,2.01648,0.972687,0,0,0,0,0,0,0,-1,1441,351,2.01644,-0.972691
224,673,2.30627,0.131836,0,0,0,0,0,0,0,-1,1448,351,2.3063,-0.131824
231,673,2.66956,-0.675812,0,0,0,0,0,0,0,-1,1455,351,2.66953,0.675811
238,673,3.24146,-1.01593,0,0,0,0,0,0,0,-1,1462,351,3.24142,1.01593
245,673,3.5376,-0.190399,0,0,0,0,0,0,0,-1,1469,351,3.53759,0.1904
252,673,3.80518,0.55603,0,0,0,0,0,0,0,-1,1476,351,3.80519,-0.556022
259,673,3.88562,1.29617,0,0,0,0,0,0,0,-1,1483,351,3.88562,-1.29618
266,673,4.22424,2.04834,0,0,0,0,0,0,0,-1,1490,351,4.22429,-2.04834
273,673,6.07886,0.385895,0,0,0,0,0,0,0,-1,1497,351,6.0789,-0.385906
280,673,6.97534,-0.0820007,0,0,0,0,0,0,0,-1,1504,351,6.97536,0.0820122
287,673,7.66968,-0.348541,0,0,0,0,0,0,0,-1,1511,351,7.66969,0.348534
294,673,8.20996,0.28537,0,0,0,0,0,0,0,-1,1518,351,8.20993,-0.28536
301,673,0,0,0,0,0,0,0,0,0,-1,1525,351,0,0
308,673,0,0,0,0,0,0,0,0,0,-1,1532,351,0,0
315,673,0,0,0,0,0,0,0,0,0,-1,1539,351,0,0
322,673,0,0,0,0,0,0,0,0,0,-1,1546,351,0,0
329,673,0,0,0,0,0,0,0,0,0,-1,1553,351,0,0
336,673,0,0,0,0,0,0,0,0,0,-1,1560,351,0,0
343,673,0,0,0,0,0,0,0,0,0,-1,1567,351,0,0
350,673,0,0,0,0,0,0,0,0,0,-1,1574,351,0,0
357,673,0,0,0,0,0,0,0,0,0,-1,1581,351,0,0
364,673,0,0,0,0,0,0,0,0,0,-1,1588,351,0,0
371,673,0,0,0,0,0,0,0,0,0,-1,1595,351,0,0
378,673,0,0,0,0,0,0,0,0,0,-1,1602,351,0,0
385,673,0,0,0,0,0,0,0,0,0,-1,1609,351,0,0
392,673,0,0,0,0,0,0,0,0,0,-1,1616,351,0,0
399,673,0,0,0,0,0,0,0,0,0,-1,1623,351,0,0
406,673,0,0,0,0,0,0,0,0,0,-1,1630,351,0,0
413,673,0,0,0,0,0,0,0,0,0,-1,1637,351,0,0
420,673,0,0,0,0,0,0,0,0,0,-1,1644,351,0,0
427,673,0,0,0,0,0,0,0,0,0,-1,1651,351,0,0
434,673,0,0,0,0,0,0,0,0,0,-1,1658,351,0,0
441,673,0,0,0,0,0,0,0,0,0,-1,1665,351,0,0
448,673,0,0,0,0,0,0,0,0,0,-1,1672,351,0,0
455,673,0,0,0,0,0,0,0,0,0,-1,1679,351,0,0
462,673,0,0,0,0,0,0,0,0,0,-1,1686,351,0,0
469,673,0,0,0,0,0,0,0,0,0,-1,1693,351,0,0
476,673,0,0,0,0,0,0,0,0,0,-1,1700,351,0,0
483,673,0,0,0,0,0,0,0,0,0,-1,1707,351,0,0
490,673,0,0,0,0,0,0,0,0,0,-1,1714,351,0,0
497,673,0,0,0,0,0,0,0,0,0,-1,1721,351,0,0
504,673,0,0,0,0,0,0,0,0,0,-1,1728,351,0,0
511,673,0,0,0,0,0,0,0,0,0,-1,1735,351,0,0
518,673,0,0,0,0,0,0,0,0,0,-1,1742,351,0,0
525,673,0,0,0,0,0,0,0,0,0,-1,1749,351,0,0
532,673,0,0,0,0,0,0,0,0,0,-1,1756,351,0,0
539,673,0,0,0,0,0,0,0,0,0,-1,1763,351,0,0
546,673,0,0,0,0,0,0,0,0,0,-1,1770,351,0,0
553,673,0,0,0,0,0,0,0,0,0,-1,1777,351,0,0
560,673,0,0,0,0,0,0,0,0,0,-1,1784,351,0,0
567,673,0,0,0,0,0,0,0,0,0,-1,1791,351,0,0
574,673,0,0,0,0,0,0,0,0,0,-1,1798,351,0,0
581,673,0,0,0,0,0,0,0,0,0,-1,1805,351,0,0
588,673,0,0,0,0,0,0,0,0,0,-1,1812,351,0,0
595,673,0,0,0,0,0,0,0,0,0,-1,1819,351,0,0
602,673,0,0,0,0,0,0,0,0,0,-1,1826,351,0,0
609,673,0,0,0,0,0,0,0,0,0,-1,1833,351,0,0
616,673,0,0,0,0,0,0,0,0,0,-1,1840,351,0,0
623,673,0,0,0,0,0,0,0,0,0,-1,1847,351,0,0
630,673,0,0,0,0,0,0,0,0,0,-1,1854,351,0,0
637,673,0,0,0,0,0,0,0,0,0,-1,1861,351,0,0
644,673,0,0,0,0,0,0,0,0,0,-1,1868,351,0,0
651,673,0,0,0,0,0,0,0,0,0,-1,1875,351,0,0
658,673,0,0,0,0,0,0,0,0,0,-1,1882,351,0,0
665,673,0,0,0,0,0,0,0,0,0,-1,1889,351,0,0
672,673,0,0,0,0,0,0,0,0,0,-1,1896,351,0,0
679,673,0,0,0,0,0,0,0,0,0,-1,1903,351,0,0
686,673,0,0,0,0,0,0,0,0,0,-1,1910,351,0,0
693,673,0,0,0,0,0,0,0,0,0,-1,1917,351,0,0
700,673,0,0,0,0,0,0,0,0,0,-1,1924,351,0,0
707,673,0,0,0,0,0,0,0,0,0,-1,1931,351,0,0
714,673,0,0,0,0,0,0,0,0,0,-1,1938,351,0,0
721,673,0,0,0,0,0,0,0,0,0,-1,1945,351,0,0
728,673,0,0,0,0,0,0,0,0,0,-1,1952,351,0,0
735,673,0,0,0,0,0,0,0,0,0,-1,1959,351,0,0
742,673,0,0,0,0,0,0,0,0,0,-1,1966,351,0,0
749,673,0,0,0,0,0,0,0,0,0,-1,1973,351,0,0
756,673,0,0,0,0,0,0,0,0,0,-1,1980,351,0,0
763,673,0,0,0,0,0,0,0,0,0,-1,1987,351,0,0
770,673,0,0,0,0,0,0,0,0,0,-1,1994,351,0,0
777,673,0,0,0,0,0,0,0,0,0,-1,2001,351,0,0
784,673,0,0,0,0,0,0,0,0,0,-1,2008,351,0,0
791,673,0,0,0,0,0,0,0,0,0,-1,2015,351,0,0
798,673,0,0,0,0,0,0,0,0,0,-1,2022,351,0,0
805,673,0,0,0,0,0,0,0,0,0,-1,2029,351,0,0
812,673,0,0,0,0,0,0,0,0,0,-1,2036,351,0,0
-700,666,0,0,0,0,0,0,0,0,0,-1,524,358,0,0
-693,666,0,0,0,0,0,0,0,0,0,-1,531,358,0,0
-686,666,0,0,0,0,0,0,0,0,0,-1,538,358,0,0
-679,666,0,0,0,0,0,0,0,0,0,-1,545,358,0,0
-672,666,0,0,0,0,0,0,0,0,0,-1,552,358,0,0
-665,666,0,0,0,0,0,0,0,0,0,-1,559,358,0,0
-658,666,0,0,0,0,0,0,0,0,0,-1,566,358,0,0
-651,666,0,0,0,0,0,0,0,0,0,-1,573,358,0,0
-644,666,0,0,0,0,0,0,0,0,0,-1,580,358,0,0
-637,666,0,0,0,0,0,0,0,0,0,-1,587,358,0,0
-630,666,0,0,0,0,0,0,0,0,0,-1,594,358,0,0
-623,666,0,0,0,0,0,0,0,0,0,-1,601,358,0,0
-616,666,0,0,0,0,0,0,0,0,0,-1,608,358,0,0
-609,666,0,0,0,0,0,0,0,0,0,-1,615,358,0,0
-602,666,0,0,0,0,0,0,0,0,0,-1,622,358,0,0
-595,666,0,0,0,0,0,0,0,0,0,-1,629,358,0,0
-588,666,0,0,0,0,0,0,0,0,0,-1,636,358,0,0
-581,666,0,0,0,0,0,0,0,0,0,-1,643,358,0,0
-574,666,0,0,0,0,0,0,0,0,0,-1,650,358,0,0
-567,666,0,0,0,0,0,0,0,0,0,-1,657,358,0,0
-560,666,0,0,0,0,0,0,0,0,0,-1,664,358,0,0
-553,666,0,0,0,0,0,0,0,0,0,-1,671,358,0,0
-546,666,0,0,0,0,0,0,0,0,0,-1,678,358,0,0
-539,666,0,0,0,0,0,0,0,0,0,-1,685,358,0,0
-532,666,0,0,0,0,0,0,0,0,0,-1,692,358,0,0
-525,666,0,0,0,0,0,0,0,0,0,-1,699,358,0,0
-518,666,0,0,0,0,0,0,0,0,0,-1,706,358,0,0
-511,666,0,0,0,0,0,0,0,0,0,-1,713,358,0,0
-504,666,0,0,0,0,0,0,0,0,0,-1,720,358,0,0
-497,666,0,0,0,0,0,0,0,0,0,-1,727,358,0,0
-490,666,0,0,0,0,0,0,0,0,0,-1,734,358,0,0
-483,666,0,0,0,0,0,0,0,0,0,-1,741,358,0,0
-476,666,0,0,0,0,0,0,0,0,0,-1,748,358,0,0
-469,666,0,0,0,0,0,0,0,0,0,-1,755,358,0,0
-462,666,0,0,0,0,0,0,0,0,0,-1,762,358,0,0
-455,666,0,0,0,0,0,0,0,0,0,-1,769,358,0,0
-448,666,0,0,0,0,0,0,0,0,0,-1,776,358,0,0
-441,666,0,0,0,0,0,0,0,0,0,-1,783,358,0,0
-434,666,0,0,0,0,0,0,0,0,0,-1,790,358,0,0
-427,666,0,0,0,0,0,0,0,0,0,-1,797,358,0,0
-420,666,0,0,0,0,0,0,0,0,0,-1,804,358,0,0
-413,666,0,0,0,0,0,0,0,0,0,-1,811,358,0,0
-406,666,0,0,0,0,0,0,0,0,0,-1,818,358,0,0
-399,666,0,0,0,0,0,0,0,0,0,-1,825,358,0,0
-392,666,0,0,0,0,0,0,0,0,0,-1,832,358,0,0
-385,666,0,0,0,0,0,0,0,0,0,-1,839,358,0,0
-378,666,0,0,0,0,0,0,0,0,0,-1,846,358,0,0
-371,666,0,0,0,0,0,0,0,0,0,-1,853,358,0,0
-364,666,0,0,0,0,0,0,0,0,0,-1,860,358,0,0
-357,666,0,0,0,0,0,0,0,0,0,-1,867,358,0,0
-350,666,0,0,0,0,0,0,0,0,0,-1,874,358,0,0
-343,666,0,0,0,0,0,0,0,0,0,-1,881,358,0,0
-336,666,0,0,0,0,0,0,0,0,0,-1,888,358,0,0
-329,666,0,0,0,0,0,0,0,0,0,-1,895,358,0,0
-322,666,0,0,0,0,0,0,0,0,0,-1,902,358,0,0
-315,666,0,0,0,0,0,0,0,0,0,-1,909,358,0,0
-308,666,0,0,0,0,0,0,0,0,0,-1,916,358,0,0
-301,666,0,0,0,0,0,0,0,0,0,-1,923,358,0,0
-294,666,0,0,0,0,0,0,0,0,0,-1,930,358,0,0
-287,666,0,0,0,0,0,0,0,0,0,-1,937,358,0,0
-280,666,0,0,0,0,0,0,0,0,0,-1,944,358,0,0
-273,666,0,0,0,0,0,0,0,0,0,-1,951,358,0,0
-266,666,0,0,0,0,0,0,0,0,0,-1,958,358,0,0
-259,666,0,0,0,0,0,0,0,0,0,-1,965,358,0,0
-252,666,0,0,0,0,0,0,0,0,0,-1,972,358,0,0
-245,666,0,0,0,0,0,0,0,0,0,-1,979,358,0,0
-238,666,0,0,0,0,0,0,0,0,0,-1,986,358,0,0
-231,666,0,0,0,0,0,0,0,0,0,-1,993,358,0,0
-224,666,0,0,0,0,0,0,0,0,0,-1,1000,358,0,0
-217,666,0,0,0,0,0,0,0,0,0,-1,1007,358,0,0
-210,666,0,0,0,0,0,0,0,0,0,-1,1014,358,0,0
-203,666,0,0,0,0,0,0,0,0,0,-1,1021,358,0,0
-196,666,1.83887,-5.02921,0,0,0,0,0,0,0,-1,1028,358,1.83883,5.0292
-189,666,1.64673,-5.293,0,0,0,0,0,0,0,-1,1035,358,1.64679,5.29301
-182,666,1.35352,-5.64532,0,0,0,0,0,0,0,-1,1042,358,1.3535,5.64531
-175,666,3.04614,-6.94119,0,0,0,0,0,0,0,-1,1049,358,3.04611,6.94118
-168,666,3.86401,-6.14725,0,0,0,0,0,0,0,-1,1056,358,3.86398,6.14726
-161,666,-0.22998,-4.99857,0,0,0,0,0,0,0,-1,1063,358,-0.230024,4.99855
-154,666,2.72485,-7.22079,0,0,0,0,0,0,0,-1,1070,358,2.7248,7.22081
-147,666,2.8877,-7.02487,-0.0564582,-0.0423805,0.0156521,-0.0322574,-0.0665813,0.996703,0.0384469,0.0448201,1077,358,2.88766,7.02486
-140,666,2.48645,-6.70914,-0.0530652,-0.0426324,0.0136429,-0.0332427,-0.0624549,0.967999,0.0360834,0.0491507,1084,358,2.48642,6.70914
-133,666,1.84863,-6.41833,-0.050077,-0.0387629,0.00964223,-0.0332407,-0.0555991,1.05069,0.0323045,0.0465996,1091,358,1.84859,6.41835
-126,666,0.953491,-6.11487,-0.0465743,-0.0354783,0.00712768,-0.0319939,-0.0500587,1.11611,0.029272,0.0446415,1098,358,0.953461,6.11486
-119,666,0.309326,-5.70825,-0.04292,-0.0322587,0.00508559,-0.0302219,-0.0449568,1.18986,0.0264642,0.0459371,1105,358,0.309267,5.70826
-112,666,-0.432129,-5.39801,0,0,0,0,0,0,0,-1,1112,358,-0.4321,5.39802
-105,666,2.02466,-6.10623,0,0,0,0,0,0,0,-1,1119,358,2.02466,6.10623
-98,666,2.59998,-6.22125,0,0,0,0,0,0,0,-1,1126,358,2.59992,6.22124
-91,666,2.58618,-6.21829,-0.0290091,-0.01901,0.00210815,-0.0185837,-0.0294354,1.37127,0.0171889,0.0452924,1133,358,2.58621,6.2183
-84,666,2.48096,-6.22729,-0.0252678,-0.0162332,0.00181614,-0.0158817,-0.0256192,1.37966,0.0149324,0.0427194,1140,358,2.48095,6.2273
-77,666,2.39587,-6.1832,0,0,0,0,0,0,0,-1,1147,358,2.39583,6.1832
-70,666,1.75659,-5.93964,0,0,0,0,0,0,0,-1,1154,358,1.75661,5.93962
-63,666,1.47485,-3.79593,0,0,0,0,0,0,0,-1,1161,358,1.47481,3.79593
-56,666,0.424683,-2.04132,0,0,0,0,0,0,0,-1,1168,358,0.424665,2.04132
-49,666,0.754395,-2.23169,0,0,0,0,0,0,0,-1,1175,358,0.754383,2.23169
-42,666,1.34473,-3.53897,0,0,0,0,0,0,0,-1,1182,358,1.34476,3.53896
-35,666,2.10205,-6.90225,0,0,0,0,0,0,0,-1,1189,358,2.10204,6.90226
-28,666,2.30823,-6.71582,0,0,0,0,0,0,0,-1,1196,358,2.30822,6.71583
-21,666,2.31958,-6.70544,0.0404576,-0.0290024,-0.00101275,0.0404724,-0.0290172,-0.0145762,0.0403011,0.0335394,1203,358,2.31959,6.70546
-14,666,2.35071,-6.75143,0.0403752,-0.0283749,-0.00247554,0.0404642,-0.0284639,-0.0359457,0.0399962,0.0243726,1210,358,2.35074,6.75144
-7,666,2.3302,-6.77209,0.0398608,-0.0270964,-0.00398879,0.0400976,-0.0273332,-0.0592927,0.039163,0.0168621,1217,358,2.33019,6.77211
0,666,2.33398,-6.77774,0.0383148,-0.0255009,-0.00574914,0.0388286,-0.0260147,-0.0891334,0.0376802,0.011511,1224,358,2.33404,6.77773
7,666,2.29346,-6.80408,0.0355842,-0.0232106,-0.00745782,0.0365154,-0.0241419,-0.124224,0.0352625,0.0140169,1231,358,2.2935,6.80408
14,666,2.29749,-6.81787,0.0323485,-0.0212199,-0.00890167,0.033789,-0.0226604,-0.160432,0.0328015,0.0141289,1238,358,2.29743,6.81787
21,666,2.27637,-6.82559,0.0288013,-0.0185938,-0.00989751,0.0307851,-0.0205777,-0.197818,0.0298489,0.0105823,1245,358,2.27631,6.82559
28,666,2.27161,-6.82605,0.0251582,-0.015394,-0.010982,0.0279413,-0.0181771,-0.248193,0.0268246,0.0107124,1252,358,2.27161,6.82605
35,666,2.29541,-6.83041,0.0214964,-0.0116458,-0.0119875,0.0253777,-0.0155271,-0.313129,0.0238436,0.0101856,1259,358,2.29545,6.8304
42,666,2.29016,-6.83221,0.0187529,-0.0084098,-0.0126697,0.023745,-0.0134019,-0.375342,0.0217222,0.0116722,1266,358,2.29018,6.83222
49,666,2.2644,-6.81415,0.0163473,-0.00517051,-0.0131293,0.0225629,-0.0113861,-0.442152,0.0199514,0.00984554,1273,358,2.26444,6.81415
56,666,2.25342,-6.81702,0.0144099,-0.00203346,-0.0130867,0.0216432,-0.00926677,-0.504932,0.0183165,0.0108267,1280,358,2.25344,6.81702
63,666,2.25171,-6.81528,0.0120445,0.000640647,-0.0122167,0.0198244,-0.00713923,-0.567057,0.0161315,0.0116709,1287,358,2.25169,6.81528
70,666,2.24512,-6.79907,0.009744,0.00226263,-0.010463,0.0171149,-0.0051083,-0.613721,0.0134403,0.011976,1294,358,2.24506,6.79907
77,666,2.2262,-6.81598,0.0100444,0.00354779,-0.00898308,0.0163484,-0.00275625,-0.611912,0.0119244,0.0164389,1301,358,2.22614,6.81597
84,666,2.20105,-6.84192,0.00991413,0.00414905,-0.00703554,0.0146347,-0.000571559,-0.590973,0.00995248,0.0215229,1308,358,2.20104,6.84192
91,666,2.21448,-6.80637,0.00930813,0.00484477,-0.00488013,0.0124426,0.00171026,-0.570944,0.00778786,0.0212601,1315,358,2.21442,6.80636
98,666,2.18274,-6.74432,0.008477,0.00474811,-0.00280082,0.00997719,0.00324792,-0.491739,0.00587606,0.0182162,1322,358,2.18273,6.74433
105,666,2.14648,-6.69077,0.00786032,0.00456309,-0.000507862,0.00793677,0.00448663,-0.149414,0.0045953,0.0186892,1329,358,2.14654,6.69077
112,666,2.16113,-6.6944,0.00709688,0.00393205,0.0016025,0.00776658,0.00326234,0.395853,0.00450311,0.0220326,1336,358,2.16118,6.69441
119,666,2.18701,-6.68213,0.00592895,0.00361999,0.00344491,0.00840768,0.00114126,0.623716,0.00526608,0.0235962,1343,358,2.18704,6.68214
126,666,2.17334,-6.63379,0.00466916,0.00300221,0.00493339,0.00883899,-0.00116762,0.701716,0.00631793,0.0241244,1350,358,2.17332,6.6338
133,666,2.12341,-6.60577,0.00339503,0.00242047,0.00653208,0.00945798,-0.00364248,0.748168,0.00780802,0.0211563,1357,358,2.12337,6.60577
140,666,2.11572,-6.6329,0.00238761,0.0019807,0.00785582,0.0100426,-0.00567431,0.772452,0.00919025,0.0210198,1364,358,2.1157,6.63289
147,666,2.10938,-6.59927,0.00148659,0.00194649,0.00858004,0.0102997,-0.00686657,0.798795,0.00997678,0.0207989,1371,358,2.10943,6.59927
154,666,2.08179,-6.48904,0.00100083,0.00230269,0.00844006,0.0101169,-0.00681336,0.823884,0.00983651,0.0180814,1378,358,2.08181,6.48905
161,666,2.11914,-6.45459,0.0010922,0.00270537,0.0078367,0.00977688,-0.00597931,0.83668,0.00918449,0.0244649,1385,358,2.11909,6.45458
168,666,2.20557,-6.5929,0,0,0,0,0,0,0,-1,1392,358,2.20562,6.5929
175,666,2.36328,-6.69489,0,0,0,0,0,0,0,-1,1399,358,2.36324,6.69488
182,666,2.60876,-5.17068,0,0,0,0,0,0,0,-1,1406,358,2.6088,5.17068
189,666,2.46973,-5.49979,0,0,0,0,0,0,0,-1,1413,358,2.46975,5.49979
196,666,2.32458,-5.23651,0,0,0,0,0,0,0,-1,1420,358,2.32461,5.23653
203,666,2.28064,-3.88004,0,0,0,0,0,0,0,-1,1427,358,2.28059,3.88003
210,666,3.02576,-5.83548,0,0,0,0,0,0,0,-1,1434,358,3.02581,5.83547
217,666,2.30444,-5.36011,0,0,0,0,0,0,0,-1,1441,358,2.30447,5.3601
224,666,2.01697,-0.757355,0,0,0,0,0,0,0,-1,1448,358,2.017,0.757358
231,666,1.94678,-5.40466,0,0,0,0,0,0,0,-1,1455,358,1.94675,5.40466
238,666,2.0498,-4.51358,0,0,0,0,0,0,0,-1,1462,358,2.04984,4.5136
245,666,4.53345,-1.38205,0,0,0,0,0,0,0,-1,1469,358,4.53349,1.38204
252,666,4.77405,-0.246979,0,0,0,0,0,0,0,-1,1476,358,4.77405,0.246993
259,666,4.83655,1.14087,0,0,0,0,0,0,0,-1,1483,358,4.83652,-1.14087
266,666,6.14148,0.749512,0,0,0,0,0,0,0,-1,1490,358,6.14144,-0.749519
273,666,2.61304,-1.53772,0,0,0,0,0,0,0,-1,1497,358,2.613,1.53773
280,666,8.70898,-0.836975,0,0,0,0,0,0,0,-1,1504,358,8.70894,0.836988
287,666,9.28748,-0.256653,0,0,0,0,0,0,0,-1,1511,358,9.28745,0.256655
294,666,9.87,-1.10745,0,0,0,0,0,0,0,-1,1518,358,9.87,1.10745
301,666,2.8064,-3.51654,0,0,0,0,0,0,0,-1,1525,358,2.80635,3.51654
308,666,1.08496,-1.87576,0,0,0,0,0,0,0,-1,1532,358,1.08491,1.87575
315,666,1.76294,-0.284027,0,0,0,0,0,0,0,-1,1539,358,1.76291,0.284016
322,666,0,0,0,0,0,0,0,0,0,-1,1546,358,0,0
329,666,0,0,0,0,0,0,0,0,0,-1,1553,358,0,0
336,666,0,0,0,0,0,0,0,0,0,-1,1560,358,0,0
343,666,0,0,0,0,0,0,0,0,0,-1,1567,358,0,0
350,666,0,0,0,0,0,0,0,0,0,-1,1574,358,0,0
357,666,0,0,0,0,0,0,0,0,0,-1,1581,358,0,0
364,666,0,0,0,0,0,0,0,0,0,-1,1588,358,0,0
371,666,0,0,0,0,0,0,0,0,0,-1,1595,358,0,0
378,666,0,0,0,0,0,0,0,0,0,-1,1602,358,0,0
385,666,0,0,0,0,0,0,0,0,0,-1,1609,358,0,0
392,666,0,0,0,0,0,0,0,0,0,-1,1616,358,0,0
399,666,0,0,0,0,0,0,0,0,0,-1,1623,358,0,0
406,666,0,0,0,0,0,0,0,0,0,-1,1630,358,0,0
413,666,0,0,0,0,0,0,0,0,0,-1,1637,358,0,0
420,666,0,0,0,0,0,0,0,0,0,-1,1644,358,0,0
427,666,0,0,0,0,0,0,0,0,0,-1,1651,358,0,0
434,666,0,0,0,0,0,0,0,0,0,-1,1658,358,0,0
441,666,0,0,0,0,0,0,0,0,0,-1,1665,358,0,0
448,666,0,0,0,0,0,0,0,0,0,-1,1672,358,0,0
455,666,0,0,0,0,0,0,0,0,0,-1,1679,358,0,0
462,666,0,0,0,0,0,0,0,0,0,-1,1686,358,0,0
469,666,0,0,0,0,0,0,0,0,0,-1,1693,358,0,0
476,666,0,0,0,0,0,0,0,0,0,-1,1700,358,0,0
483,666,0,0,0,0,0,0,0,0,0,-1,1707,358,0,0
490,666,0,0,0,0,0,0,0,0,0,-1,1714,358,0,0
497,666,0,0,0,0,0,0,0,0,0,-1,1721,358,0,0
504,666,0,0,0,0,0,0,0,0,0,-1,1728,358,0,0
511,666,0,0,0,0,0,0,0,0,0,-1,1735,358,0,0
518,666,0,0,0,0,0,0,0,0,0,-1,1742,358,0,0
525,666,0,0,0,0,0,0,0,0,0,-1,1749,358,0,0
532,666,0,0,0,0,0,0,0,0,0,-1,1756,358,0,0
539,666,0,0,0,0,0,0,0,0,0,-1,1763,358,0,0
546,666,0,0,0,0,0,0,0,0,0,-1,1770,358,0,0
553,666,0,0,0,0,0,0,0,0,0,-1,1777,358,0,0
560,666,0,0,0,0,0,0,0,0,0,-1,1784,358,0,0
567,666,0,0,0,0,0,0,0,0,0,-1,1791,358,0,0
574,666,0,0,0,0,0,0,0,0,0,-1,1798,358,0,0
581,666,0,0,0,0,0,0,0,0,0,-1,1805,358,0,0
588,666,0,0,0,0,0,0,0,0,0,-1,1812,358,0,0
595,666,0,0,0,0,0,0,0,0,0,-1,1819,358,0,0
602,666,0,0,0,0,0,0,0,0,0,-1,1826,358,0,0
609,666,0,0,0,0,0,0,0,0,0,-1,1833,358,0,0
616,666,0,0,0,0,0,0,0,0,0,-1,1840,358,0,0
623,666,0,0,0,0,0,0,0,0,0,-1,1847,358,0,0
630,666,0,0,0,0,0,0,0,0,0,-1,1854,358,0,0
637,666,0,0,0,0,0,0,0,0,0,-1,1861,358,0,0
644,666,0,0,0,0,0,0,0,0,0,-1,1868,358,0,0
651,666,0,0,0,0,0,0,0,0,0,-1,1875,358,0,0
658,666,0,0,0,0,0,0,0,0,0,-1,1882,358,0,0
665,666,0,0,0,0,0,0,0,0,0,-1,1889,358,0,0
672,666,0,0,0,0,0,0,0,0,0,-1,1896,358,0,0
679,666,0,0,0,0,0,0,0,0,0,-1,1903,358,0,0
686,666,0,0,0,0,0,0,0,0,0,-1,1910,358,0,0
693,666,0,0,0,0,0,0,0,0,0,-1,1917,358,0,0
700,666,0,0,0,0,0,0,0,0,0,-1,1924,358,0,0
707,666,0,0,0,0,0,0,0,0,0,-1,1931,358,0,0
714,666,0,0,0,0,0,0,0,0,0,-1,1938,358,0,0
721,666,0,0,0,0,0,0,0,0,0,-1,1945,358,0,0
728,666,0,0,0,0,0,0,0,0,0,-1,1952,358,0,0
735,666,0,0,0,0,0,0,0,0,0,-1,1959,358,0,0
742,666,0,0,0,0,0,0,0,0,0,-1,1966,358,0,0
749,666,0,0,0,0,0,0,0,0,0,-1,1973,358,0,0
756,666,0,0,0,0,0,0,0,0,0,-1,1980,358,0,0
763,666,0,0,0,0,0,0,0,0,0,-1,1987,358,0,0
770,666,0,0,0,0,0,0,0,0,0,-1,1994,358,0,0
777,666,0,0,0,0,0,0,0,0,0,-1,2001,358,0,0
784,666,0,0,0,0,0,0,0,0,0,-1,2008,358,0,0
791,666,0,0,0,0,0,0,0,0,0,-1,2015,358,0,0
798,666,0,0,0,0,0,0,0,0,0,-1,2022,358,0,0
805,666,0,0,0,0,0,0,0,0,0,-1,2029,358,0,0
812,666,0,0,0,0,0,0,0,0,0,-1,2036,358,0,0
-700,659,0,0,0,0,0,0,0,0,0,-1,524,365,0,0
-693,659,0,0,0,0,0,0,0,0,0,-1,531,365,0,0
-686,659,0,0,0,0,0,0,0,0,0,-1,538,365,0,0
-679,659,0,0,0,0,0,0,0,0,0,-1,545,365,0,0
-672,659,0,0,0,0,0,0,0,0,0,-1,552,365,0,0
-665,659,0,0,0,0,0,0,0,0,0,-1,559,365,0,0
-658,659,0,0,0,0,0,0,0,0,0,-1,566,365,0,0
-651,659,0,0,0,0,0,0,0,0,0,-1,573,365,0,0
-644,659,0,0,0,0,0,0,0,0,0,-1,580,365,0,0
-637,659,0,0,0,0,0,0,0,0,0,-1,587,365,0,0
-630,659,0,0,0,0,0,0,0,0,0,-1,594,365,0,0
-623,659,0,0,0,0,0,0,0,0,0,-1,601,365,0,0
-616,659,0,0,0,0,0,0,0,0,0,-1,608,365,0,0
-609,659,0,0,0,0,0,0,0,0,0,-1,615,365,0,0
-602,659,0,0,0,0,0,0,0,0,0,-1,622,365,0,0
-595,659,0,0,0,0,0,0,0,0,0,-1,629,365,0,0
-588,659,0,0,0,0,0,0,0,0,0,-1,636,365,0,0
-581,659,0,0,0,0,0,0,0,0,0,-1,643,365,0,0
-574,659,0,0,0,0,0,0,0,0,0,-1,650,365,0,0
-567,659,0,0,0,0,0,0,0,0,0,-1,657,365,0,0
-560,659,0,0,0,0,0,0,0,0,0,-1,664,365,0,0
-553,659,0,0,0,0,0,0,0,0,0,-1,671,365,0,0
-546,659,0,0,0,0,0,0,0,0,0,-1,678,365,0,0
-539,659,0,0,0,0,0,0,0,0,0,-1,685,365,0,0
-532,659,0,0,0,0,0,0,0,0,0,-1,692,365,0,0
-525,659,0,0,0,0,0,0,0,0,0,-1,699,365,0,0
-518,659,0,0,0,0,0,0,0,0,0,-1,706,365,0,0
-511,659,0,0,0,0,0,0,0,0,0,-1,713,365,0,0
-504,659,0,0,0,0,0,0,0,0,0,-1,720,365,0,0
-497,659,0,0,0,0,0,0,0,0,0,-1,727,365,0,0
-490,659,0,0,0,0,0,0,0,0,0,-1,734,365,0,0
-483,659,0,0,0,0,0,0,0,0,0,-1,741,365,0,0
-476,659,0,0,0,0,0,0,0,0,0,-1,748,365,0,0
-469,659,0,0,0,0,0,0,0,0,0,-1,755,365,0,0
-462,659,0,0,0,0,0,0,0,0,0,-1,762,365,0,0
-455,659,0,0,0,0,0,0,0,0,0,-1,769,365,0,0
-448,659,0,0,0,0,0,0,0,0,0,-1,776,365,0,0
-441,659,0,0,0,0,0,0,0,0,0,-1,783,365,0,0
-434,659,0,0,0,0,0,0,0,0,0,-1,790,365,0,0
-427,659,0,0,0,0,0,0,0,0,0,-1,797,365,0,0
-420,659,0,0,0,0,0,0,0,0,0,-1,804,365,0,0
-413,659,0,0,0,0,0,0,0,0,0,-1,811,365,0,0
-406,659,0,0,0,0,0,0,0,0,0,-1,818,365,0,0
-399,659,0,0,0,0,0,0,0,0,0,-1,825,365,0,0
-392,659,0,0,0,0,0,0,0,0,0,-1,832,365,0,0
-385,659,0,0,0,0,0,0,0,0,0,-1,839,365,0,0
-378,659,0,0,0,0,0,0,0,0,0,-1,846,365,0,0
-371,659,0,0,0,0,0,0,0,0,0,-1,853,365,0,0
-364,659,0,0,0,0,0,0,0,0,0,-1,860,365,0,0
-357,659,0,0,0,0,0,0,0,0,0,-1,867,365,0,0
-350,659,0,0,0,0,0,0,0,0,0,-1,874,365,0,0
-343,659,0,0,0,0,0,0,0,0,0,-1,881,365,0,0
-336,659,0,0,0,0,0,0,0,0,0,-1,888,365,0,0
-329,659,0,0,0,0,0,0,0,0,0,-1,895,365,0,0
-322,659,0,0,0,0,0,0,0,0,0,-1,902,365,0,0
-315,659,0,0,0,0,0,0,0,0,0,-1,909,365,0,0
-308,659,0,0,0,0,0,0,0,0,0,-1,916,365,0,0
-301,659,0,0,0,0,0,0,0,0,0,-1,923,365,0,0
-294,659,0,0,0,0,0,0,0,0,0,-1,930,365,0,0
-287,659,0,0,0,0,0,0,0,0,0,-1,937,365,0,0
-280,659,0,0,0,0,0,0,0,0,0,-1,944,365,0,0
-273,659,0,0,0,0,0,0,0,0,0,-1,951,365,0,0
-266,659,0,0,0,0,0,0,0,0,0,-1,958,365,0,0
-259,659,0,0,0,0,0,0,0,0,0,-1,965,365,0,0
-252,659,0,0,0,0,0,0,0,0,0,-1,972,365,0,0
-245,659,0,0,0,0,0,0,0,0,0,-1,979,365,0,0
-238,659,0,0,0,0,0,0,0,0,0,-1,986,365,0,0
-231,659,0,0,0,0,0,0,0,0,0,-1,993,365,0,0
-224,659,0,0,0,0,0,0,0,0,0,-1,1000,365,0,0
-217,659,1.62122,-1.10727,0,0,0,0,0,0,0,-1,1007,365,1.62123,1.10728
-210,659,2.94025,-5.28693,0,0,0,0,0,0,0,-1,1014,365,2.94027,5.28693
-203,659,2.50134,-5.40115,-0.0756745,0.0136188,-0.0186835,0.0173705,-0.0794261,-1.37263,0.0595909,0.0475735,1021,365,2.50134,5.40115
-196,659,1.97925,-5.36789,-0.0669633,0.00688375,-0.00986718,0.00817943,-0.068259,-1.44023,0.0484631,0.0494141,1028,365,1.97922,5.36789
-189,659,1.66174,-5.63025,0,0,0,0,0,0,0,-1,1035,365,1.66175,5.63026
-182,659,1.35999,-5.97198,0,0,0,0,0,0,0,-1,1042,365,1.36002,5.97199
-175,659,3.0199,-6.78741,0,0,0,0,0,0,0,-1,1049,365,3.01988,6.78742
-168,659,5.56079,-6.34683,0,0,0,0,0,0,0,-1,1056,365,5.56082,6.34684
-161,659,1.96924,-6.07129,0,0,0,0,0,0,0,-1,1063,365,1.9692,6.07128
-154,659,2.58447,-6.62112,0,0,0,0,0,0,0,-1,1070,365,2.58444,6.62113
-147,659,2.33643,-6.56082,-0.0403873,-0.0310706,0.0102429,-0.0244765,-0.0469814,0.998811,0.0271327,0.0444467,1077,365,2.33637,6.56081
-140,659,2.07043,-6.39182,-0.0376033,-0.0307905,0.0086924,-0.0248609,-0.043533,0.972145,0.0252183,0.0438558,1084,365,2.07047,6.39183
-133,659,1.53674,-6.19217,-0.0354805,-0.0276526,0.00580114,-0.0245685,-0.0385645,1.08216,0.0225424,0.0421522,1091,365,1.53672,6.19218
-126,659,1.00476,-5.87363,-0.032974,-0.0250295,0.00415383,-0.0232543,-0.0347492,1.16693,0.0204418,0.0421548,1098,365,1.00472,5.87363
-119,659,2.49829,-6.13535,-0.030252,-0.0224841,0.00272656,-0.0216226,-0.0311135,1.26476,0.0184129,0.043594,1105,365,2.49825,6.13533
-112,659,2.67065,-6.4187,0,0,0,0,0,0,0,-1,1112,365,2.67066,6.41869
-105,659,2.24048,-6.3172,-0.0247088,-0.017017,0.00122521,-0.0168265,-0.0248993,1.41659,0.0146688,0.0411539,1119,365,2.24052,6.31719
-98,659,2.27539,-6.36441,-0.0220144,-0.0143019,0.000997206,-0.0141751,-0.0221412,1.44427,0.0129497,0.0411159,1126,365,2.27542,6.36442
-91,659,2.39343,-6.32526,-0.0192904,-0.0114995,0.000647825,-0.011446,-0.0193439,1.4884,0.0112307,0.03987,1133,365,2.39345,6.32526
-84,659,2.42944,-6.35474,-0.0162922,-0.00921622,0.000428206,-0.0091904,-0.016318,1.51057,0.00944628,0.037536,1140,365,2.42942,6.35475
-77,659,2.42139,-6.37711,-0.0126093,-0.00668734,0.000133774,-0.00668432,-0.0126123,1.54822,0.00728607,0.0367637,1147,365,2.42136,6.37712
-70,659,2.40234,-6.40262,0,0,0,0,0,0,0,-1,1154,365,2.40235,6.40261
-63,659,2.35547,-6.28995,0,0,0,0,0,0,0,-1,1161,365,2.35548,6.28994
-56,659,2.32104,-6.30887,0,0,0,0,0,0,0,-1,1168,365,2.32107,6.30888
-49,659,2.33313,-6.61301,0,0,0,0,0,0,0,-1,1175,365,2.33315,6.613
-42,659,2.32617,-6.67603,0,0,0,0,0,0,0,-1,1182,365,2.32621,6.67601
-35,659,2.27991,-6.7851,0.0214063,-0.0144301,-5.38444e-05,0.0214063,-0.0144302,-0.0015025,0.0208205,0.0378776,1189,365,2.27993,6.78511
-28,659,2.32776,-6.76685,0.0235877,-0.0166958,-0.000246725,0.0235892,-0.0166973,-0.0061244,0.0233726,0.0158415,1196,365,2.32774,6.76684
-21,659,2.31921,-6.74838,0.0250665,-0.0172363,-0.00109825,0.025095,-0.0172648,-0.0259384,0.0245953,0.0111121,1203,365,2.31924,6.74839
-14,659,2.30786,-6.76208,0.0255358,-0.0173914,-0.00210383,0.0256387,-0.0174943,-0.0488531,0.0250504,0.00805802,1210,365,2.30787,6.76208
-7,659,2.30701,-6.78244,0.0255964,-0.0169721,-0.00308531,0.0258189,-0.0171945,-0.0719774,0.0249996,0.00809436,1217,365,2.30706,6.78244
0,659,2.3031,-6.79144,0.0248653,-0.0162862,-0.00421927,0.0252934,-0.0167143,-0.101128,0.0244212,0.0076935,1224,365,2.30308,6.79143
7,659,2.27576,-6.80038,0.0232761,-0.0150506,-0.00531693,0.024,-0.0157746,-0.135323,0.023127,0.00716701,1231,365,2.27579,6.80037
14,659,2.26489,-6.81839,0.0213612,-0.0138594,-0.00624008,0.022434,-0.0149322,-0.17027,0.0217179,0.0100844,1238,365,2.26489,6.81839
21,659,2.26306,-6.82083,0.0191565,-0.0122043,-0.00685042,0.0205876,-0.0136354,-0.205944,0.0198941,0.0106423,1245,365,2.26301,6.82083
28,659,2.26501,-6.82669,0.0168816,-0.010154,-0.0075489,0.0188466,-0.012119,-0.254651,0.0180181,0.00963593,1252,365,2.26504,6.82669
35,659,2.28613,-6.84311,0.0145383,-0.00766227,-0.00824395,0.0172647,-0.0103887,-0.3194,0.0161294,0.0103295,1259,365,2.28608,6.84311
42,659,2.28516,-6.84161,0.0127849,-0.00550754,-0.0087217,0.0162767,-0.00899942,-0.380823,0.0147934,0.0109816,1266,365,2.28512,6.84163
49,659,2.25671,-6.83588,0.0112054,-0.00330915,-0.00901889,0.0155244,-0.00762807,-0.446605,0.0136237,0.0105715,1273,365,2.25671,6.83589
56,659,2.22766,-6.82516,0.00990603,-0.00120872,-0.0089365,0.0148722,-0.00617491,-0.507224,0.0124926,0.0139918,1280,365,2.22772,6.82518
63,659,2.2417,-6.82474,0.00829674,0.000576759,-0.00830355,0.0135936,-0.00472014,-0.567827,0.0109794,0.0158078,1287,365,2.24171,6.82472
70,659,2.24365,-6.81949,0.00672677,0.00168443,-0.00707532,0.0117167,-0.00330549,-0.614246,0.00911498,0.01614,1294,365,2.24371,6.8195
77,659,2.20996,-6.81815,0.00695062,0.00254059,-0.00602108,0.0111577,-0.00166653,-0.609874,0.0080517,0.0164305,1301,365,2.20997,6.81815
84,659,2.21167,-6.81097,0.00683822,0.00288833,-0.00463099,0.00989781,-0.000171258,-0.583844,0.00665636,0.0116768,1308,365,2.21161,6.81096
91,659,2.19348,-6.80087,0.00633799,0.00334529,-0.00308127,0.00826703,0.00141625,-0.559356,0.00510518,0.010628,1315,365,2.19347,6.80087
98,659,2.19788,-6.77975,0.0057055,0.0032509,-0.00163623,0.00652356,0.00243283,-0.463623,0.00380671,0.00804887,1322,365,2.19791,6.77975
105,659,2.19934,-6.74402,0.00527002,0.00315661,-4.16032e-05,0.00527084,0.00315579,-0.0196752,0.00306283,0.00910531,1329,365,2.19929,6.74401
112,659,2.21118,-6.71759,0.00472304,0.00278931,0.00140755,0.00546382,0.00204853,0.484453,0.00318726,0.010497,1336,365,2.21118,6.71761
119,659,2.21985,-6.70544,0.00389828,0.00257182,0.00264771,0.00596456,0.000505537,0.662677,0.00381903,0.0114621,1343,365,2.21988,6.70543
126,659,2.19299,-6.67694,0.00301998,0.00225637,0.00362468,0.00628291,-0.00100656,0.732924,0.0045613,0.0122588,1350,365,2.19305,6.67694
133,659,2.15759,-6.65396,0.00212549,0.00198273,0.00465285,0.00670751,-0.00259929,0.777728,0.00554504,0.010828,1357,365,2.15759,6.65396
140,659,2.14722,-6.62503,0.00142251,0.00173582,0.00551895,0.00710034,-0.003942,0.799587,0.00646164,0.00853054,1364,365,2.14718,6.62502
147,659,2.15454,-6.5751,0.000784436,0.00176236,0.00593651,0.00723001,-0.00468321,0.826488,0.00693029,0.00788166,1371,365,2.15454,6.57511
154,659,2.15393,-6.52936,0.000426402,0.00198797,0.00576048,0.00702034,-0.00460597,0.852758,0.00676052,0.00877032,1378,365,2.15389,6.52936
161,659,2.14917,-6.51495,0.00049011,0.00222385,0.00525419,0.0066822,-0.00396824,0.867155,0.00621523,0.010676,1385,365,2.14914,6.51495
168,659,2.17798,-6.52057,0.000449727,0.00280641,0.00460255,0.00637906,-0.00312292,0.910716,0.00559231,0.0187602,1392,365,2.17799,6.52056
175,659,2.19592,-6.5108,0.000249971,0.00327038,0.00377547,0.00582649,-0.00230614,0.975653,0.00483979,0.0376605,1399,365,2.19593,6.51081
182,659,2.10986,-6.42053,0,0,0,0,0,0,0,-1,1406,365,2.10981,6.42053
189,659,2.13892,-6.31744,0,0,0,0,0,0,0,-1,1413,365,2.1389,6.31743
196,659,2.14001,-6.10095,0,0,0,0,0,0,0,-1,1420,365,2.13999,6.10097
203,659,2.12317,-6.12366,0,0,0,0,0,0,0,-1,1427,365,2.12318,6.12367
210,659,2.09802,-6.24658,0,0,0,0,0,0,0,-1,1434,365,2.09801,6.24657
217,659,2.1366,-6.06119,0,0,0,0,0,0,0,-1,1441,365,2.1366,6.0612
224,659,2.06116,-6.07516,0,0,0,0,0,0,0,-1,1448,365,2.06118,6.07516
231,659,2.13989,-5.67703,0,0,0,0,0,0,0,-1,1455,365,2.13995,5.67704
238,659,2.41394,-5.93063,0,0,0,0,0,0,0,-1,1462,365,2.41396,5.93064
245,659,2.18066,-6.07828,0,0,0,0,0,0,0,-1,1469,365,2.1807,6.07826
252,659,1.96521,-6.20477,0,0,0,0,0,0,0,-1,1476,365,1.96526,6.20476
259,659,2.33069,-3.36703,0,0,0,0,0,0,0,-1,1483,365,2.33073,3.36702
266,659,1.92505,-5.3476,0,0,0,0,0,0,0,-1,1490,365,1.9251,5.34759
273,659,2.24243,-5.28009,0,0,0,0,0,0,0,-1,1497,365,2.24242,5.2801
280,659,2.43335,-4.2431,0,0,0,0,0,0,0,-1,1504,365,2.43337,4.2431
287,659,10.3228,-1.92807,0,0,0,0,0,0,0,-1,1511,365,10.3228,1.92808
294,659,3.98486,-4.6424,0,0,0,0,0,0,0,-1,1518,365,3.98484,4.64241
301,659,1.62585,-6.11362,0,0,0,0,0,0,0,-1,1525,365,1.62589,6.1136
308,659,2.29395,-5.58798,0,0,0,0,0,0,0,-1,1532,365,2.29393,5.58799
315,659,2.56055,-0.251129,0,0,0,0,0,0,0,-1,1539,365,2.5605,0.251135
322,659,2.88672,-0.266174,0,0,0,0,0,0,0,-1,1546,365,2.88671,0.266163
329,659,5.20154,-4.3071,0,0,0,0,0,0,0,-1,1553,365,5.20158,4.3071
336,659,2.09851,-1.17941,0,0,0,0,0,0,0,-1,1560,365,2.09857,1.17942
343,659,0,0,0,0,0,0,0,0,0,-1,1567,365,0,0
350,659,0,0,0,0,0,0,0,0,0,-1,1574,365,0,0
357,659,0,0,0,0,0,0,0,0,0,-1,1581,365,0,0
364,659,0,0,0,0,0,0,0,0,0,-1,1588,365,0,0
371,659,0,0,0,0,0,0,0,0,0,-1,1595,365,0,0
378,659,0,0,0,0,0,0,0,0,0,-1,1602,365,0,0
385,659,0,0,0,0,0,0,0,0,0,-1,1609,365,0,0
392,659,0,0,0,0,0,0,0,0,0,-1,1616,365,0,0
399,659,0,0,0,0,0,0,0,0,0,-1,1623,365,0,0
406,659,0,0,0,0,0,0,0,0,0,-1,1630,365,0,0
413,659,0,0,0,0,0,0,0,0,0,-1,1637,365,0,0
420,659,0,0,0,0,0,0,0,0,0,-1,1644,365,0,0
427,659,0,0,0,0,0,0,0,0,0,-1,1651,365,0,0
434,659,0,0,0,0,0,0,0,0,0,-1,1658,365,0,0
441,659,0,0,0,0,0,0,0,0,0,-1,1665,365,0,0
448,659,0,0,0,0,0,0,0,0,0,-1,1672,365,0,0
455,659,0,0,0,0,0,0,0,0,0,-1,1679,365,0,0
462,659,0,0,0,0,0,0,0,0,0,-1,1686,365,0,0
469,659,0,0,0,0,0,0,0,0,0,-1,1693,365,0,0
476,659,0,0,0,0,0,0,0,0,0,-1,1700,365,0,0
483,659,0,0,0,0,0,0,0,0,0,-1,1707,365,0,0
490,659,0,0,0,0,0,0,0,0,0,-1,1714,365,0,0
497,659,0,0,0,0,0,0,0,0,0,-1,1721,365,0,0
504,659,0,0,0,0,0,0,0,0,0,-1,1728,365,0,0
511,659,0,0,0,0,0,0,0,0,0,-1,1735,365,0,0
518,659,0,0,0,0,0,0,0,0,0,-1,1742,365,0,0
525,659,0,0,0,0,0,0,0,0,0,-1,1749,365,0,0
532,659,0,0,0,0,0,0,0,0,0,-1,1756,365,0,0
539,659,0,0,0,0,0,0,0,0,0,-1,1763,365,0,0
546,659,0,0,0,0,0,0,0,0,0,-1,1770,365,0,0
553,659,0,0,0,0,0,0,0,0,0,-1,1777,365,0,0
560,659,0,0,0,0,0,0,0,0,0,-1,1784,365,0,0
567,659,0,0,0,0,0,0,0,0,0,-1,1791,365,0,0
574,659,0,0,0,0,0,0,0,0,0,-1,1798,365,0,0
581,659,0,0,0,0,0,0,0,0,0,-1,1805,365,0,0
588,659,0,0,0,0,0,0,0,0,0,-1,1812,365,0,0
595,659,0,0,0,0,0,0,0,0,0,-1,1819,365,0,0
602,659,0,0,0,0,0,0,0,0,0,-1,1826,365,0,0
609,659,0,0,0,0,0,0,0,0,0,-1,1833,365,0,0
616,659,0,0,0,0,0,0,0,0,0,-1,1840,365,0,0
623,659,0,0,0,0,0,0,0,0,0,-1,1847,365,0,0
630,659,0,0,0,0,0,0,0,0,0,-1,1854,365,0,0
637,659,0,0,0,0,0,0,0,0,0,-1,1861,365,0,0
644,659,0,0,0,0,0,0,0,0,0,-1,1868,365,0,0
651,659,0,0,0,0,0,0,0,0,0,-1,1875,365,0,0
658,659,0,0,0,0,0,0,0,0,0,-1,1882,365,0,0
665,659,0,0,0,0,0,0,0,0,0,-1,1889,365,0,0
672,659,0,0,0,0,0,0,0,0,0,-1,1896,365,0,0
679,659,0,0,0,0,0,0,0,0,0,-1,1903,365,0,0
686,659,0,0,0,0,0,0,0,0,0,-1,1910,365,0,0
693,659,0,0,0,0,0,0,0,0,0,-1,1917,365,0,0
700,659,0,0,0,0,0,0,0,0,0,-1,1924,365,0,0
707,659,0,0,0,0,0,0,0,0,0,-1,1931,365,0,0
714,659,0,0,0,0,0,0,0,0,0,-1,1938,365,0,0
721,659,0,0,0,0,0,0,0,0,0,-1,1945,365,0,0
728,659,0,0,0,0,0,0,0,0,0,-1,1952,365,0,0
735,659,0,0,0,0,0,0,0,0,0,-1,1959,365,0,0
742,659,0,0,0,0,0,0,0,0,0,-1,1966,365,0,0
749,659,0,0,0,0,0,0,0,0,0,-1,1973,365,0,0
756,659,0,0,0,0,0,0,0,0,0,-1,1980,365,0,0
763,659,0,0,0,0,0,0,0,0,0,-1,1987,365,0,0
770,659,0,0,0,0,0,0,0,0,0,-1,1994,365,0,0
777,659,0,0,0,0,0,0,0,0,0,-1,2001,365,0,0
784,659,0,0,0,0,0,0,0,0,0,-1,2008,365,0,0
791,659,0,0,0,0,0,0,0,0,0,-1,2015,365,0,0
798,659,0,0,0,0,0,0,0,0,0,-1,2022,365,0,0
805,659,0,0,0,0,0,0,0,0,0,-1,2029,365,0,0
812,659,0,0,0,0,0,0,0,0,0,-1,2036,365,0,0
-700,652,0,0,0,0,0,0,0,0,0,-1,524,372,0,0
-693,652,0,0,0,0,0,0,0,0,0,-1,531,372,0,0
-686,652,0,0,0,0,0,0,0,0,0,-1,538,372,0,0
-679,652,0,0,0,0,0,0,0,0,0,-1,545,372,0,0
-672,652,0,0,0,0,0,0,0,0,0,-1,552,372,0,0
-665,652,0,0,0,0,0,0,0,0,0,-1,559,372,0,0
-658,652,0,0,0,0,0,0,0,0,0,-1,566,372,0,0
-651,652,0,0,0,0,0,0,0,0,0,-1,573,372,0,0
-644,652,0,0,0,0,0,0,0,0,0,-1,580,372,0,0
-637,652,0,0,0,0,0,0,0,0,0,-1,587,372,0,0
-630,652,0,0,0,0,0,0,0,0,0,-1,594,372,0,0
-623,652,0,0,0,0,0,0,0,0,0,-1,601,372,0,0
-616,652,0,0,0,0,0,0,0,0,0,-1,608,372,0,0
-609,652,0,0,0,0,0,0,0,0,0,-1,615,372,0,0
-602,652,0,0,0,0,0,0,0,0,0,-1,622,372,0,0
-595,652,0,0,0,0,0,0,0,0,0,-1,629,372,0,0
-588,652,0,0,0,0,0,0,0,0,0,-1,636,372,0,0
-581,652,0,0,0,0,0,0,0,0,0,-1,643,372,0,0
-574,652,0,0,0,0,0,0,0,0,0,-1,650,372,0,0
-567,652,0,0,0,0,0,0,0,0,0,-1,657,372,0,0
-560,652,0,0,0,0,0,0,0,0,0,-1,664,372,0,0
-553,652,0,0,0,0,0,0,0,0,0,-1,671,372,0,0
-546,652,0,0,0,0,0,0,0,0,0,-1,678,372,0,0
-539,652,0,0,0,0,0,0,0,0,0,-1,685,372,0,0
-532,652,0,0,0,0,0,0,0,0,0,-1,692,372,0,0
-525,652,0,0,0,0,0,0,0,0,0,-1,699,372,0,0
-518,652,0,0,0,0,0,0,0,0,0,-1,706,372,0,0
-511,652,0,0,0,0,0,0,0,0,0,-1,713,372,0,0
-504,652,0,0,0,0,0,0,0,0,0,-1,720,372,0,0
-497,652,0,0,0,0,0,0,0,0,0,-1,727,372,0,0
-490,652,0,0,0,0,0,0,0,0,0,-1,734,372,0,0
-483,652,0,0,0,0,0,0,0,0,0,-1,741,372,0,0
-476,652,0,0,0,0,0,0,0,0,0,-1,748,372,0,0
-469,652,0,0,0,0,0,0,0,0,0,-1,755,372,0,0
-462,652,0,0,0,0,0,0,0,0,0,-1,762,372,0,0
-455,652,0,0,0,0,0,0,0,0,0,-1,769,372,0,0
-448,652,0,0,0,0,0,0,0,0,0,-1,776,372,0,0
-441,652,0,0,0,0,0,0,0,0,0,-1,783,372,0,0
-434,652,0,0,0,0,0,0,0,0,0,-1,790,372,0,0
-427,652,0,0,0,0,0,0,0,0,0,-1,797,372,0,0
-420,652,0,0,0,0,0,0,0,0,0,-1,804,372,0,0
-413,652,0,0,0,0,0,0,0,0,0,-1,811,372,0,0
-406,652,0,0,0,0,0,0,0,0,0,-1,818,372,0,0
-399,652,0,0,0,0,0,0,0,0,0,-1,825,372,0,0
-392,652,0,0,0,0,0,0,0,0,0,-1,832,372,0,0
-385,652,0,0,0,0,0,0,0,0,0,-1,839,372,0,0
-378,652,0,0,0,0,0,0,0,0,0,-1,846,372,0,0
-371,652,0,0,0,0,0,0,0,0,0,-1,853,372,0,0
-364,652,0,0,0,0,0,0,0,0,0,-1,860,372,0,0
-357,652,0,0,0,0,0,0,0,0,0,-1,867,372,0,0
-350,652,0,0,0,0,0,0,0,0,0,-1,874,372,0,0
-343,652,0,0,0,0,0,0,0,0,0,-1,881,372,0,0
-336,652,0,0,0,0,0,0,0,0,0,-1,888,372,0,0
-329,652,0,0,0,0,0,0,0,0,0,-1,895,372,0,0
-322,652,0,0,0,0,0,0,0,0,0,-1,902,372,0,0
-315,652,0,0,0,0,0,0,0,0,0,-1,909,372,0,0
-308,652,0,0,0,0,0,0,0,0,0,-1,916,372,0,0
-301,652,0,0,0,0,0,0,0,0,0,-1,923,372,0,0
-294,652,0,0,0,0,0,0,0,0,0,-1,930,372,0,0
-287,652,0,0,0,0,0,0,0,0,0,-1,937,372,0,0
-280,652,0,0,0,0,0,0,0,0,0,-1,944,372,0,0
-273,652,0,0,0,0,0,0,0,0,0,-1,951,372,0,0
-266,652,0,0,0,0,0,0,0,0,0,-1,958,372,0,0
-259,652,0,0,0,0,0,0,0,0,0,-1,965,372,0,0
-252,652,0,0,0,0,0,0,0,0,0,-1,972,372,0,0
-245,652,0,0,0,0,0,0,0,0,0,-1,979,372,0,0
-238,652,0,0,0,0,0,0,0,0,0,-1,986,372,0,0
-231,652,-3.17596,-5.87796,0,0,0,0,0,0,0,-1,993,372,-3.17597,5.87796
-224,652,-3.74396,-5.71695,0,0,0,0,0,0,0,-1,1000,372,-3.74397,5.71694
-217,652,-4.52545,-5.19208,0,0,0,0,0,0,0,-1,1007,372,-4.52543,5.19207
-210,652,3.21631,-5.92456,0,0,0,0,0,0,0,-1,1014,372,3.21629,5.92455
-203,652,2.77142,-5.78235,-0.0592261,0.00570336,-0.0177244,0.0102266,-0.0637494,-1.32093,0.0462866,0.0418465,1021,372,2.7714,5.78236
-196,652,2.23413,-5.5567,-0.0516303,0.00183449,-0.0101641,0.00370156,-0.0534974,-1.38913,0.0369606,0.0455858,1028,372,2.23412,5.55671
-189,652,3.23181,-6.59656,0,0,0,0,0,0,0,-1,1035,372,3.23177,6.59654
-182,652,2.76428,-6.11243,0,0,0,0,0,0,0,-1,1042,372,2.76433,6.11243
-175,652,2.80811,-5.58109,0,0,0,0,0,0,0,-1,1049,372,2.80809,5.5811
-168,652,2.10266,-5.69348,0,0,0,0,0,0,0,-1,1056,372,2.10265,5.69348
-161,652,2.26257,-5.91098,0,0,0,0,0,0,0,-1,1063,372,2.26256,5.91098
-154,652,2.28491,-6.13559,0,0,0,0,0,0,0,-1,1070,372,2.28496,6.13559
-147,652,2.29224,-6.30133,0,0,0,0,0,0,0,-1,1077,372,2.29226,6.30134
-140,652,2.27698,-6.51535,0,0,0,0,0,0,0,-1,1084,372,2.27693,6.51536
-133,652,1.5719,-5.79468,0,0,0,0,0,0,0,-1,1091,372,1.57196,5.79468
-126,652,2.55676,-6.17471,-0.0225836,-0.0171524,0.00207927,-0.0164478,-0.0232882,1.24407,0.0138216,0.0404006,1098,372,2.55679,6.17471
-119,652,2.40381,-6.16251,-0.0206199,-0.0152148,0.00111902,-0.0149923,-0.0208424,1.37451,0.0124133,0.035628,1105,372,2.40378,6.1625
-112,652,2.34338,-6.25085,-0.0185087,-0.0130622,0.000493443,-0.0130179,-0.0185531,1.48117,0.0109982,0.0259175,1112,372,2.34334,6.25087
-105,652,2.3125,-6.28674,-0.0164853,-0.0109098,0.000169683,-0.0109046,-0.0164905,1.5404,0.00968444,0.020998,1119,372,2.31254,6.28675
-98,652,2.32336,-6.35196,-0.0144671,-0.00874971,6.16986e-05,-0.00874904,-0.0144678,1.56001,0.00841384,0.0214346,1126,372,2.32334,6.35196
-91,652,2.34058,-6.3884,-0.0123739,-0.0065074,-0.000187787,-0.0065014,-0.0123799,-1.53883,0.00715057,0.0205737,1133,372,2.34063,6.3884
-84,652,2.37744,-6.42703,-0.0101242,-0.00476095,-0.00030059,-0.00474416,-0.010141,-1.51498,0.00585897,0.0172843,1140,372,2.3774,6.42704
-77,652,2.36536,-6.46835,-0.00746574,-0.0029733,-0.000432448,-0.00293205,-0.00750699,-1.4757,0.00436862,0.0138672,1147,372,2.36542,6.46835
-70,652,2.3606,-6.50278,-0.00426432,-0.00258742,-0.000321505,-0.00252789,-0.00432385,-1.38772,0.00250827,0.0135609,1154,372,2.36064,6.50277
-63,652,2.36169,-6.53342,-0.00257996,-0.00211855,0.000140918,-0.00207892,-0.00261959,1.29663,0.00159698,0.0240764,1161,372,2.36164,6.53343
-56,652,2.31689,-6.59015,0.00156528,-0.00147947,0.000158852,0.00157354,-0.00148774,0.0519844,0.00176766,0.0294333,1168,372,2.31685,6.59015
-49,652,2.3208,-6.61804,0.00402625,-0.0022116,0.000220818,0.00403406,-0.0022194,0.0353408,0.00366076,0.0181595,1175,372,2.32085,6.61806
-42,652,2.29907,-6.65366,0.00696752,-0.00460497,0.000286004,0.00697458,-0.00461203,0.0246941,0.00673573,0.00988946,1182,372,2.29905,6.65366
-35,652,2.3031,-6.69812,0.0115601,-0.00649937,-0.000470005,0.0115723,-0.00651159,-0.0260019,0.0105762,0.00790026,1189,372,2.30308,6.69811
-28,652,2.30811,-6.72952,0.0131482,-0.00801446,-0.000611959,0.0131659,-0.00803214,-0.0288847,0.0123578,0.00709849,1196,372,2.30809,6.72953
-21,652,2.28931,-6.74969,0.0143902,-0.00855338,-0.00122261,0.0144551,-0.00861835,-0.0530873,0.0134628,0.00723886,1203,372,2.28935,6.7497
-14,652,2.29541,-6.76126,0.0151358,-0.00905497,-0.00185512,0.0152773,-0.00919641,-0.0760942,0.0142745,0.00880787,1210,372,2.2954,6.76126
-7,652,2.30627,-6.78934,0.0155677,-0.00912881,-0.00242542,0.0158037,-0.00936476,-0.0969743,0.0146886,0.0118003,1217,372,2.30623,6.78935
0,652,2.28101,-6.81442,0.0154148,-0.00904974,-0.00307003,0.0157941,-0.00942911,-0.12295,0.0147164,0.0122149,1224,372,2.28104,6.81443
7,652,2.26379,-6.80856,0.0146381,-0.00856174,-0.00370859,0.0152165,-0.00914015,-0.154719,0.0142075,0.0129526,1231,372,2.26376,6.80857
14,652,2.27124,-6.81281,0.0135868,-0.00797647,-0.00421219,0.0143804,-0.00877007,-0.186224,0.0134961,0.0114971,1238,372,2.2713,6.81281
21,652,2.26147,-6.82733,0.0122692,-0.00706967,-0.00448797,0.0132599,-0.00806044,-0.217275,0.0124307,0.0101601,1245,372,2.26145,6.82734
28,652,2.26062,-6.84479,0.0108744,-0.00606447,-0.00479934,0.0121397,-0.00732976,-0.257774,0.0113545,0.00911311,1252,372,2.26058,6.8448
35,652,2.2583,-6.85117,0.00935932,-0.00471074,-0.00514684,0.011041,-0.00639245,-0.315811,0.0101838,0.00951332,1259,372,2.2583,6.85116
42,652,2.25549,-6.84909,0.00819274,-0.00359926,-0.00535867,0.0102641,-0.00567058,-0.368846,0.00932641,0.0109514,1266,372,2.25545,6.84908
49,652,2.25024,-6.85541,0.00712212,-0.00239228,-0.00545891,0.00960582,-0.00487598,-0.426989,0.00850842,0.0129828,1273,372,2.2502,6.8554
56,652,2.21631,-6.84302,0.00623117,-0.00133933,-0.00528101,0.0089434,-0.00405156,-0.474453,0.00767779,0.0150094,1280,372,2.21625,6.84301
63,652,2.2207,-6.83093,0.00512774,-0.000440552,-0.00480462,0.0078966,-0.00320941,-0.522804,0.00659966,0.0191033,1287,372,2.22069,6.83094
70,652,2.23352,-6.82126,0.00402975,0.000166232,-0.00400052,0.0065405,-0.00234452,-0.560471,0.00531703,0.0157634,1294,372,2.23358,6.82125
77,652,2.21497,-6.82449,0.00421326,0.000592728,-0.00332402,0.00618799,-0.001382,-0.536053,0.00465489,0.0152448,1301,372,2.21496,6.82449
84,652,2.21594,-6.83344,0.00414013,0.000731841,-0.00242306,0.0053983,-0.000526333,-0.478929,0.00378653,0.0125817,1308,372,2.21597,6.83345
91,652,2.17883,-6.83585,0.00376314,0.00102799,-0.00143075,0.00437479,0.000416348,-0.403985,0.00278812,0.0148798,1315,372,2.17882,6.83584
98,652,2.19568,-6.80411,0.00333443,0.0010072,-0.000556083,0.00346048,0.000881155,-0.222903,0.00207655,0.0128396,1322,372,2.19563,6.80409
105,652,2.21008,-6.75089,0.00309463,0.00109064,0.000430489,0.00318319,0.00100208,0.202894,0.00187937,0.0108331,1329,372,2.21007,6.75089
112,652,2.22217,-6.71976,0.00276734,0.00104328,0.00132719,0.00348788,0.000322738,0.49738,0.00222549,0.00892965,1336,372,2.22222,6.71977
119,652,2.21777,-6.70331,0.00225912,0.0010921,0.00208613,0.0038418,-0.00049059,0.649028,0.00273941,0.00970931,1343,372,2.21776,6.7033
126,652,2.19055,-6.68591,0.00170551,0.00113135,0.00266979,0.00410361,-0.00126675,0.731839,0.00324157,0.0120906,1350,372,2.19049,6.6859
133,652,2.16504,-6.65256,0.00116306,0.00128046,0.00323204,0.00445434,-0.00201082,0.794478,0.00382049,0.0128059,1357,372,2.16501,6.65254
140,652,2.16101,-6.61151,0.000749364,0.00132122,0.00371849,0.00476476,-0.00269417,0.82377,0.00436137,0.00946417,1364,372,2.16097,6.61152
147,652,2.16516,-6.57068,0.000368269,0.00148981,0.00389416,0.00486337,-0.00300529,0.856908,0.004585,0.00858046,1371,372,2.16518,6.57067
154,652,2.16724,-6.53677,0.000127418,0.00166081,0.00373436,0.00470637,-0.00291814,0.886645,0.00444218,0.00879066,1378,372,2.16729,6.53678
161,652,2.16492,-6.51584,0.000188776,0.00179631,0.00335249,0.00444004,-0.00245495,0.903054,0.00403544,0.0107223,1385,372,2.16496,6.51585
168,652,2.15063,-6.48807,0.000171722,0.00208387,0.00293327,0.00421295,-0.00195736,0.94294,0.0036409,0.011408,1392,372,2.15059,6.48806
175,652,2.15259,-6.43158,6.69216e-05,0.00222573,0.00244244,0.00381665,-0.001524,0.993463,0.00317672,0.0103222,1399,372,2.15258,6.43158
182,652,2.14355,-6.39795,1.49433e-05,0.00225223,0.0022292,0.00362772,-0.00136054,1.01795,0.00297748,0.0143843,1406,372,2.14354,6.39794
189,652,2.15881,-6.33725,0.000103772,0.00220509,0.00221329,0.00360444,-0.00129558,1.007,0.00293185,0.0162394,1413,372,2.15885,6.33724
196,652,2.14429,-6.28641,0.00032624,0.00211197,0.00194858,0.00336251,-0.000924298,1.00023,0.00260502,0.0191802,1420,372,2.14431,6.28641
203,652,2.13416,-6.29327,7.14003e-05,0.00184109,0.00208825,0.00322422,-0.00131173,0.985793,0.00269531,0.0218225,1427,372,2.13418,6.29326
210,652,2.14001,-6.20135,-0.00120325,0.00174321,0.000884217,0.00198819,-0.00144823,1.30052,0.00199217,0.019714,1434,372,2.13999,6.20136
217,652,2.18005,-6.02405,-0.00164658,0.00205476,0.000518078,0.00212591,-0.00171773,1.43432,0.00222329,0.0204509,1441,372,2.18,6.02404
224,652,2.13403,-5.98502,-0.0015448,0.0026815,0.000556329,0.00275351,-0.00161681,1.44208,0.00255149,0.0246752,1448,372,2.134,5.98503
231,652,2.17871,-5.90872,-0.00115928,0.00417616,0.000937272,0.00433602,-0.00131914,1.40186,0.00341637,0.030262,1455,372,2.17877,5.90871
238,652,2.24927,-5.86478,-0.00129901,0.00507228,0.000826549,0.00517777,-0.0014045,1.44387,0.004003,0.0318777,1462,372,2.24921,5.86478
245,652,2.14941,-5.89594,-0.00134151,0.00521783,0.000275771,0.00522941,-0.00135308,1.52885,0.00401405,0.0329827,1469,372,2.1494,5.89595
252,652,2.01758,-5.88626,0.000901699,0.00453031,0.000592055,0.00462446,0.00080754,1.41308,0.00285216,0.0405887,1476,372,2.01761,5.88625
259,652,1.88831,-5.81433,0,0,0,0,0,0,0,-1,1483,372,1.88833,5.81434
266,652,2.27124,-5.19363,0,0,0,0,0,0,0,-1,1490,372,2.27128,5.19363
273,652,2.22778,-5.45251,0.007423,0.00257492,0.00180461,0.00802098,0.00197694,0.319973,0.00482527,0.0498407,1497,372,2.22778,5.4525
280,652,2.42725,-4.96085,0.0106497,0.000946743,0.00256654,0.0112867,0.000309691,0.243297,0.00742341,0.0450632,1504,372,2.42726,4.96085
287,652,2.40442,-5.14618,0,0,0,0,0,0,0,-1,1511,372,2.40442,5.14617
294,652,1.40649,-6.34338,0,0,0,0,0,0,0,-1,1518,372,1.40646,6.34337
301,652,1.85181,-5.88889,0.0227175,-0.00607102,0.00579594,0.0238406,-0.00719409,0.191397,0.0187574,0.0439126,1525,372,1.85186,5.88888
308,652,2.49438,-5.23746,0,0,0,0,0,0,0,-1,1532,372,2.49444,5.23746
315,652,2.81714,-4.43253,0,0,0,0,0,0,0,-1,1539,372,2.81716,4.43253
322,652,3.6698,-3.53824,0,0,0,0,0,0,0,-1,1546,372,3.6698,3.53823
329,652,3.80579,-3.18506,0,0,0,0,0,0,0,-1,1553,372,3.80573,3.18506
336,652,4.32825,-3.46991,0,0,0,0,0,0,0,-1,1560,372,4.3282,3.46991
343,652,4.18225,-6.7092,0,0,0,0,0,0,0,-1,1567,372,4.18231,6.70921
350,652,4.64563,-7.2074,0,0,0,0,0,0,0,-1,1574,372,4.6456,7.2074
357,652,0,0,0,0,0,0,0,0,0,-1,1581,372,0,0
364,652,0,0,0,0,0,0,0,0,0,-1,1588,372,0,0
371,652,0,0,0,0,0,0,0,0,0,-1,1595,372,0,0
378,652,0,0,0,0,0,0,0,0,0,-1,1602,372,0,0
385,652,0,0,0,0,0,0,0,0,0,-1,1609,372,0,0
392,652,0,0,0,0,0,0,0,0,0,-1,1616,372,0,0
399,652,0,0,0,0,0,0,0,0,0,-1,1623,372,0,0
406,652,0,0,0,0,0,0,0,0,0,-1,1630,372,0,0
413,652,0,0,0,0,0,0,0,0,0,-1,1637,372,0,0
420,652,0,0,0,0,0,0,0,0,0,-1,1644,372,0,0
427,652,0,0,0,0,0,0,0,0,0,-1,1651,372,0,0
434,652,0,0,0,0,0,0,0,0,0,-1,1658,372,0,0
441,652,0,0,0,0,0,0,0,0,0,-1,1665,372,0,0
448,652,0,0,0,0,0,0,0,0,0,-1,1672,372,0,0
455,652,0,0,0,0,0,0,0,0,0,-1,1679,372,0,0
462,652,0,0,0,0,0,0,0,0,0,-1,1686,372,0,0
469,652,0,0,0,0,0,0,0,0,0,-1,1693,372,0,0
476,652,0,0,0,0,0,0,0,0,0,-1,1700,372,0,0
483,652,0,0,0,0,0,0,0,0,0,-1,1707,372,0,0
490,652,0,0,0,0,0,0,0,0,0,-1,1714,372,0,0
497,652,0,0,0,0,0,0,0,0,0,-1,1721,372,0,0
504,652,0,0,0,0,0,0,0,0,0,-1,1728,372,0,0
511,652,0,0,0,0,0,0,0,0,0,-1,1735,372,0,0
518,652,0,0,0,0,0,0,0,0,0,-1,1742,372,0,0
525,652,0,0,0,0,0,0,0,0,0,-1,1749,372,0,0
532,652,0,0,0,0,0,0,0,0,0,-1,1756,372,0,0
539,652,0,0,0,0,0,0,0,0,0,-1,1763,372,0,0
546,652,0,0,0,0,0,0,0,0,0,-1,1770,372,0,0
553,652,0,0,0,0,0,0,0,0,0,-1,1777,372,0,0
560,652,0,0,0,0,0,0,0,0,0,-1,1784,372,0,0
567,652,0,0,0,0,0,0,0,0,0,-1,1791,372,0,0
574,652,0,0,0,0,0,0,0,0,0,-1,1798,372,0,0
581,652,0,0,0,0,0,0,0,0,0,-1,1805,372,0,0
588,652,0,0,0,0,0,0,0,0,0,-1,1812,372,0,0
595,652,0,0,0,0,0,0,0,0,0,-1,1819,372,0,0
602,652,0,0,0,0,0,0,0,0,0,-1,1826,372,0,0
609,652,0,0,0,0,0,0,0,0,0,-1,1833,372,0,0
616,652,0,0,0,0,0,0,0,0,0,-1,1840,372,0,0
623,652,0,0,0,0,0,0,0,0,0,-1,1847,372,0,0
630,652,0,0,0,0,0,0,0,0,0,-1,1854,372,0,0
637,652,0,0,0,0,0,0,0,0,0,-1,1861,372,0,0
644,652,0,0,0,0,0,0,0,0,0,-1,1868,372,0,0
651,652,0,0,0,0,0,0,0,0,0,-1,1875,372,0,0
658,652,0,0,0,0,0,0,0,0,0,-1,1882,372,0,0
665,652,0,0,0,0,0,0,0,0,0,-1,1889,372,0,0
672,652,0,0,0,0,0,0,0,0,0,-1,1896,372,0,0
679,652,0,0,0,0,0,0,0,0,0,-1,1903,372,0,0
686,652,0,0,0,0,0,0,0,0,0,-1,1910,372,0,0
693,652,0,0,0,0,0,0,0,0,0,-1,1917,372,0,0
700,652,0,0,0,0,0,0,0,0,0,-1,1924,372,0,0
707,652,0,0,0,0,0,0,0,0,0,-1,1931,372,0,0
714,652,0,0,0,0,0,0,0,0,0,-1,1938,372,0,0
721,652,0,0,0,0,0,0,0,0,0,-1,1945,372,0,0
728,652,0,0,0,0,0,0,0,0,0,-1,1952,372,0,0
735,652,0,0,0,0,0,0,0,0,0,-1,1959,372,0,0
742,652,0,0,0,0,0,0,0,0,0,-1,1966,372,0,0
749,652,0,0,0,0,0,0,0,0,0,-1,1973,372,0,0
756,652,0,0,0,0,0,0,0,0,0,-1,1980,372,0,0
763,652,0,0,0,0,0,0,0,0,0,-1,1987,372,0,0
770,652,0,0,0,0,0,0,0,0,0,-1,1994,372,0,0
777,652,0,0,0,0,0,0,0,0,0,-1,2001,372,0,0
784,652,0,0,0,0,0,0,0,0,0,-1,2008,372,0,0
791,652,0,0,0,0,0,0,0,0,0,-1,2015,372,0,0
798,652,0,0,0,0,0,0,0,0,0,-1,2022,372,0,0
805,652,0,0,0,0,0,0,0,0,0,-1,2029,372,0,0
812,652,0,0,0,0,0,0,0,0,0,-1,2036,372,0,0
-700,645,0,0,0,0,0,0,0,0,0,-1,524,379,0,0
-693,645,0,0,0,0,0,0,0,0,0,-1,531,379,0,0
-686,645,0,0,0,0,0,0,0,0,0,-1,538,379,0,0
-679,645,0,0,0,0,0,0,0,0,0,-1,545,379,0,0
-672,645,0,0,0,0,0,0,0,0,0,-1,552,379,0,0
-665,645,0,0,0,0,0,0,0,0,0,-1,559,379,0,0
-658,645,0,0,0,0,0,0,0,0,0,-1,566,379,0,0
-651,645,0,0,0,0,0,0,0,0,0,-1,573,379,0,0
-644,645,0,0,0,0,0,0,0,0,0,-1,580,379,0,0
-637,645,0,0,0,0,0,0,0,0,0,-1,587,379,0,0
-630,645,0,0,0,0,0,0,0,0,0,-1,594,379,0,0
-623,645,0,0,0,0,0,0,0,0,0,-1,601,379,0,0
-616,645,0,0,0,0,0,0,0,0,0,-1,608,379,0,0
-609,645,0,0,0,0,0,0,0,0,0,-1,615,379,0,0
-602,645,0,0,0,0,0,0,0,0,0,-1,622,379,0,0
-595,645,0,0,0,0,0,0,0,0,0,-1,629,379,0,0
-588,645,0,0,0,0,0,0,0,0,0,-1,636,379,0,0
-581,645,0,0,0,0,0,0,0,0,0,-1,643,379,0,0
-574,645,0,0,0,0,0,0,0,0,0,-1,650,379,0,0
-567,645,0,0,0,0,0,0,0,0,0,-1,657,379,0,0
-560,645,0,0,0,0,0,0,0,0,0,-1,664,379,0,0
-553,645,0,0,0,0,0,0,0,0,0,-1,671,379,0,0
-546,645,0,0,0,0,0,0,0,0,0,-1,678,379,0,0
-539,645,0,0,0,0,0,0,0,0,0,-1,685,379,0,0
-532,645,0,0,0,0,0,0,0,0,0,-1,692,379,0,0
-525,645,0,0,0,0,0,0,0,0,0,-1,699,379,0,0
-518,645,0,0,0,0,0,0,0,0,0,-1,706,379,0,0
-511,645,0,0,0,0,0,0,0,0,0,-1,713,379,0,0
-504,645,0,0,0,0,0,0,0,0,0,-1,720,379,0,0
-497,645,0,0,0,0,0,0,0,0,0,-1,727,379,0,0
-490,645,0,0,0,0,0,0,0,0,0,-1,734,379,0,0
-483,645,0,0,0,0,0,0,0,0,0,-1,741,379,0,0
-476,645,0,0,0,0,0,0,0,0,0,-1,748,379,0,0
-469,645,0,0,0,0,0,0,0,0,0,-1,755,379,0,0
-462,645,0,0,0,0,0,0,0,0,0,-1,762,379,0,0
-455,645,0,0,0,0,0,0,0,0,0,-1,769,379,0,0
-448,645,0,0,0,0,0,0,0,0,0,-1,776,379,0,0
-441,645,0,0,0,0,0,0,0,0,0,-1,783,379,0,0
-434,645,0,0,0,0,0,0,0,0,0,-1,790,379,0,0
-427,645,0,0,0,0,0,0,0,0,0,-1,797,379,0,0
-420,645,0,0,0,0,0,0,0,0,0,-1,804,379,0,0
-413,645,0,0,0,0,0,0,0,0,0,-1,811,379,0,0
-406,645,0,0,0,0,0,0,0,0,0,-1,818,379,0,0
-399,645,0,0,0,0,0,0,0,0,0,-1,825,379,0,0
-392,645,0,0,0,0,0,0,0,0,0,-1,832,379,0,0
-385,645,0,0,0,0,0,0,0,0,0,-1,839,379,0,0
-378,645,0,0,0,0,0,0,0,0,0,-1,846,379,0,0
-371,645,0,0,0,0,0,0,0,0,0,-1,853,379,0,0
-364,645,0,0,0,0,0,0,0,0,0,-1,860,379,0,0
-357,645,0,0,0,0,0,0,0,0,0,-1,867,379,0,0
-350,645,0,0,0,0,0,0,0,0,0,-1,874,379,0,0
-343,645,0,0,0,0,0,0,0,0,0,-1,881,379,0,0
-336,645,0,0,0,0,0,0,0,0,0,-1,888,379,0,0
-329,645,0,0,0,0,0,0,0,0,0,-1,895,379,0,0
-322,645,0,0,0,0,0,0,0,0,0,-1,902,379,0,0
-315,645,0,0,0,0,0,0,0,0,0,-1,909,379,0,0
-308,645,0,0,0,0,0,0,0,0,0,-1,916,379,0,0
-301,645,0,0,0,0,0,0,0,0,0,-1,923,379,0,0
-294,645,0,0,0,0,0,0,0,0,0,-1,930,379,0,0
-287,645,0,0,0,0,0,0,0,0,0,-1,937,379,0,0
-280,645,0,0,0,0,0,0,0,0,0,-1,944,379,0,0
-273,645,0,0,0,0,0,0,0,0,0,-1,951,379,0,0
-266,645,0,0,0,0,0,0,0,0,0,-1,958,379,0,0
-259,645,0,0,0,0,0,0,0,0,0,-1,965,379,0,0
-252,645,0.779175,-5.89258,0,0,0,0,0,0,0,-1,972,379,0.779178,5.89257
-245,645,0.0537109,-5.83328,-0.0939042,-0.0219498,-0.0544888,0.00736761,-0.123222,-1.07718,0.0847105,0.0396162,979,379,0.0537275,5.83329
-238,645,-0.664551,-5.83255,-0.0847221,-0.015368,-0.0491651,0.0101189,-0.110209,-1.09254,0.0770674,0.0421899,986,379,-0.664578,5.83255
-231,645,-1.5304,-6.05765,0,0,0,0,0,0,0,-1,993,379,-1.53038,6.05765
-224,645,-2.62988,-5.69568,-0.0676565,-0.00499953,-0.0360726,0.0114496,-0.0841057,-1.14296,0.0602507,0.0442698,1000,379,-2.62987,5.69567
-217,645,-3.33527,-5.9166,0,0,0,0,0,0,0,-1,1007,379,-3.33529,5.91658
-210,645,3.37122,-6.57733,0,0,0,0,0,0,0,-1,1014,379,3.37119,6.57733
-203,645,2.94739,-6.14816,0,0,0,0,0,0,0,-1,1021,379,2.94737,6.14816
-196,645,2.84082,-6.2847,0,0,0,0,0,0,0,-1,1028,379,2.84088,6.2847
-189,645,2.83337,-6.14233,-0.0328197,-0.0022412,-0.00434363,-0.00163616,-0.0334248,-1.43239,0.0217583,0.0414982,1035,379,2.83335,6.14235
-182,645,2.74048,-5.61588,0,0,0,0,0,0,0,-1,1042,379,2.74047,5.61587
-175,645,2.38892,-5.67377,0,0,0,0,0,0,0,-1,1049,379,2.38891,5.67375
-168,645,2.15063,-5.73477,0,0,0,0,0,0,0,-1,1056,379,2.15061,5.73478
-161,645,2.25708,-5.85229,-0.0219442,-0.013017,0.00536404,-0.0105023,-0.0244589,1.13241,0.0141682,0.0453593,1063,379,2.25709,5.85228
-154,645,2.29016,-5.97385,-0.0207935,-0.014146,0.00442678,-0.0119341,-0.0230054,1.10742,0.0132853,0.0442491,1070,379,2.29021,5.97384
-147,645,2.32434,-6.07629,-0.0188953,-0.0154781,0.00362691,-0.0131775,-0.0211959,1.00552,0.0123577,0.0392045,1077,379,2.32432,6.07629
-140,645,2.26147,-6.18839,-0.0171069,-0.0148243,0.00273661,-0.0130005,-0.0189307,0.982962,0.0111808,0.032916,1084,379,2.26147,6.18838
-133,645,2.29797,-6.21701,-0.0160605,-0.012928,0.00130397,-0.0124563,-0.0165323,1.22366,0.00994527,0.0265627,1091,379,2.29793,6.217
-126,645,2.45959,-6.17029,-0.0149194,-0.0114012,0.000738054,-0.0112527,-0.0150679,1.37217,0.00904584,0.0226037,1098,379,2.45965,6.17029
-119,645,2.39355,-6.19296,-0.0135538,-0.00997212,0.000113612,-0.00996852,-0.0135574,1.53912,0.00811111,0.0160293,1105,379,2.39352,6.19295
-112,645,2.36292,-6.24899,-0.0120321,-0.00833663,-0.000272031,-0.00831672,-0.012052,-1.49771,0.00712385,0.011699,1112,379,2.36286,6.249
-105,645,2.34631,-6.29782,-0.0105862,-0.00667598,-0.0004416,-0.00662673,-0.0106354,-1.45972,0.00620207,0.0115672,1119,379,2.34632,6.29783
-98,645,2.31824,-6.34973,-0.00914452,-0.0049984,-0.000462526,-0.00494743,-0.00919549,-1.46104,0.00531413,0.0119392,1126,379,2.31826,6.34972
-91,645,2.32324,-6.40256,-0.00761527,-0.0032581,-0.000610221,-0.00317425,-0.00769912,-1.43425,0.00446783,0.0118394,1133,379,2.32327,6.40256
-84,645,2.32166,-6.45593,-0.00603139,-0.00195745,-0.000624429,-0.00186389,-0.00612495,-1.42207,0.00362539,0.0115833,1140,379,2.32169,6.45592
-77,645,2.3103,-6.49368,-0.00424661,-0.000733067,-0.000630462,-0.000623364,-0.00435631,-1.39852,0.00272033,0.0107948,1147,379,2.31028,6.49367
-70,645,2.31177,-6.53455,-0.00305449,-3.36746e-05,-0.00025226,-1.27538e-05,-0.00307541,-1.48805,0.00204604,0.00974443,1154,379,2.31179,6.53455
-63,645,2.31287,-6.57639,-0.00248697,0.000333377,0.000240055,0.000353663,-0.00250726,1.48649,0.00180101,0.0106723,1161,379,2.31289,6.57639
-56,645,2.29785,-6.59265,-0.000595685,0.00116483,0.000208197,0.00118911,-0.000619971,1.45467,0.00106157,0.0125144,1168,379,2.29785,6.59265
-49,645,2.28406,-6.61505,0.000368576,0.00123521,0.000195467,0.00127725,0.000326528,1.35891,0.000766214,0.011026,1175,379,2.28403,6.61505
-42,645,2.28198,-6.66718,0.00179841,0.000321792,0.000112956,0.001807,0.000313202,0.0759079,0.00111502,0.00973466,1182,379,2.28193,6.66718
-35,645,2.29236,-6.70474,0.00438929,-0.000734321,-0.00039725,0.00441991,-0.000764938,-0.0769205,0.0032319,0.00865069,1189,379,2.29231,6.70476
-28,645,2.2832,-6.73474,0.00541547,-0.00167221,-0.000572581,0.00546143,-0.00171817,-0.0800933,0.00432886,0.00764414,1196,379,2.28326,6.73474
-21,645,2.26868,-6.74588,0.00644357,-0.00217256,-0.00105603,0.00657111,-0.0023001,-0.120194,0.00531598,0.00916496,1203,379,2.26873,6.74588
-14,645,2.27747,-6.76437,0.00732538,-0.00283298,-0.00151837,0.00754748,-0.00305508,-0.145242,0.00630189,0.00944565,1210,379,2.27741,6.76436
-7,645,2.30444,-6.80182,0.00801693,-0.00324919,-0.00190274,0.00832961,-0.00356187,-0.162874,0.00704709,0.0127052,1217,379,2.30445,6.80183
0,645,2.27869,-6.81717,0.00832886,-0.00359919,-0.0023136,0.00876189,-0.00403222,-0.185027,0.00755306,0.0234488,1224,379,2.27865,6.81716
7,645,2.2356,-6.82944,0.00821134,-0.00372422,-0.00271435,0.00879964,-0.00431252,-0.213433,0.00771665,0.0163909,1231,379,2.23564,6.82942
14,645,2.24939,-6.83484,0.00780445,-0.00373675,-0.00297912,0.00852808,-0.00446038,-0.238285,0.00762048,0.0155757,1238,379,2.24939,6.83483
21,645,2.25732,-6.83304,0.00722688,-0.00357004,-0.003127,0.00806714,-0.00441029,-0.262507,0.00730625,0.010286,1245,379,2.25738,6.83302
28,645,2.25854,-6.83963,0.00667733,-0.00342996,-0.00327731,0.00764698,-0.00439961,-0.287661,0.00703883,0.0088406,1252,379,2.2586,6.83963
35,645,2.25391,-6.84424,0.00600021,-0.00306782,-0.00346273,0.00717126,-0.00423888,-0.326113,0.00665977,0.00817491,1259,379,2.25387,6.84423
42,645,2.25366,-6.85812,0.00539744,-0.00276012,-0.00353442,0.00671575,-0.00407842,-0.357009,0.00629372,0.00857306,1266,379,2.2537,6.85814
49,645,2.26221,-6.85526,0.00488425,-0.00238897,-0.00351799,0.0063074,-0.00381212,-0.38441,0.00590142,0.0111784,1273,379,2.26224,6.85526
56,645,2.24817,-6.83774,0.00447453,-0.00213344,-0.0033751,0.00589364,-0.00355255,-0.398023,0.00550931,0.0112473,1280,379,2.24816,6.83775
63,645,2.23779,-6.83701,0.00389055,-0.00188852,-0.00309019,0.0052317,-0.00322967,-0.409471,0.00493054,0.0115332,1287,379,2.23779,6.83699
70,645,2.23401,-6.84256,0.00328272,-0.00164302,-0.00262576,0.0044199,-0.0027802,-0.408699,0.00419276,0.0144292,1294,379,2.23407,6.84256
77,645,2.229,-6.8602,0.00345856,-0.00143617,-0.00225668,0.00434018,-0.0023178,-0.372442,0.00390265,0.0181992,1301,379,2.22897,6.86019
84,645,2.25732,-6.83014,0.00337844,-0.00138269,-0.00172963,0.00394044,-0.00194469,-0.314166,0.0034623,0.0135507,1308,379,2.25729,6.83015
91,645,2.22974,-6.82303,0.00300551,-0.00115294,-0.00114231,0.00329863,-0.00144607,-0.251189,0.00280809,0.0138943,1315,379,2.22972,6.82302
98,645,2.22717,-6.78778,0.00257694,-0.00105348,-0.000628158,0.00268256,-0.0011591,-0.166577,0.00227537,0.013639,1322,379,2.22711,6.78779
105,645,2.22791,-6.74841,0.00231026,-0.000813123,-5.43036e-06,0.00231027,-0.000813133,-0.00173861,0.00187108,0.010589,1329,379,2.22786,6.7484
112,645,2.22791,-6.72565,0.00195628,-0.000592729,0.00058864,0.00208565,-0.000722097,0.216335,0.00168357,0.00823348,1336,379,2.22786,6.72564
119,645,2.22729,-6.70654,0.00148398,-0.000290503,0.00110181,0.00201137,-0.000817889,0.446427,0.00168122,0.00833774,1343,379,2.22724,6.70655
126,645,2.21643,-6.6951,0.000988313,1.19954e-05,0.00153802,0.00211378,-0.00111347,0.631729,0.00189286,0.0112649,1350,379,2.21642,6.6951
133,645,2.20605,-6.66312,0.000529872,0.000396777,0.00192347,0.00238794,-0.00146129,0.768106,0.00224372,0.0127671,1357,379,2.206,6.6631
140,645,2.20996,-6.62238,0.000298486,0.000607621,0.00224444,0.00270281,-0.0017967,0.819777,0.0026153,0.0122237,1364,379,2.20994,6.62238
147,645,2.17847,-6.57733,0.000103139,0.000867057,0.00233632,0.00285244,-0.00188224,0.866425,0.00275263,0.0127306,1371,379,2.17848,6.57734
154,645,2.18127,-6.54535,-1.26885e-05,0.00104498,0.00222453,0.00280267,-0.00177037,0.902097,0.00266258,0.0113532,1378,379,2.18128,6.54536
161,645,2.20154,-6.51511,6.9824e-05,0.00117968,0.00197577,0.00267698,-0.00142747,0.922304,0.00240603,0.0135117,1385,379,2.20152,6.51512
168,645,2.18408,-6.46329,9.37686e-05,0.00135563,0.0017375,0.00257321,-0.00112381,0.959558,0.00218847,0.0159396,1392,379,2.18409,6.46328
175,645,2.20618,-6.42584,6.60252e-05,0.00140952,0.00145148,0.00233716,-0.000861611,1.00212,0.00191118,0.0138087,1399,379,2.2062,6.42584
182,645,2.20654,-6.38837,7.74865e-05,0.00139445,0.00136032,0.00224728,-0.000775341,1.01081,0.00181277,0.00956172,1406,379,2.20656,6.38837
189,645,2.20544,-6.33334,0.000113503,0.00141758,0.00140078,0.00231064,-0.000779558,1.00323,0.00185569,0.010176,1413,379,2.20544,6.33335
196,645,2.19336,-6.28705,0.000201543,0.0013982,0.0013206,0.00224969,-0.000649949,0.998102,0.00175699,0.0115162,1420,379,2.1933,6.28706
203,645,2.15674,-6.23914,-5.77687e-05,0.00125977,0.00145302,0.00219638,-0.000994381,0.998228,0.00188526,0.0110364,1427,379,2.15677,6.23914
210,645,2.16235,-6.18643,-0.000849758,0.00128232,0.000870743,0.00159274,-0.00116018,1.22835,0.00159592,0.013095,1434,379,2.16235,6.18644
217,645,2.17065,-6.12454,-0.00114321,0.00153743,0.000716684,0.00171701,-0.00132279,1.32528,0.00175994,0.0130343,1441,379,2.17064,6.12455
224,645,2.16431,-6.05627,-0.0010335,0.00201447,0.000888767,0.00225469,-0.00127372,1.30681,0.00206321,0.0126669,1448,379,2.1643,6.05628
231,645,2.15735,-5.98004,-0.000699247,0.00316608,0.00134384,0.00358737,-0.00112054,1.267,0.00283977,0.0132493,1455,379,2.15736,5.98004
238,645,2.14612,-5.91519,-0.000787752,0.00390808,0.00141567,0.00430184,-0.00118152,1.2995,0.0033323,0.010113,1462,379,2.14609,5.91519
245,645,2.14966,-5.86322,-0.00080856,0.00398895,0.00108815,0.00422423,-0.00104383,1.35786,0.00322098,0.0117738,1469,379,2.1496,5.86322
252,645,2.15601,-5.74332,0.000883306,0.00345911,0.00137244,0.00405331,0.000289109,1.16221,0.00261117,0.0183252,1476,379,2.15596,5.74331
259,645,2.02966,-5.65958,0.00220035,0.00331038,0.00150193,0.00435656,0.00115417,0.962384,0.00260627,0.0272207,1483,379,2.02972,5.65959
266,645,2.07178,-5.61243,0.00389254,0.00280673,0.00189658,0.00532239,0.00137688,0.645998,0.00318994,0.0256409,1490,379,2.07174,5.61241
273,645,2.17957,-5.51154,0.00565867,0.00191055,0.00229316,0.00674614,0.000823076,0.442815,0.00424972,0.0227587,1497,379,2.17959,5.51154
280,645,2.28381,-5.33081,0.00796039,0.000712087,0.00283801,0.00893937,-0.000266887,0.33217,0.0060505,0.0367046,1504,379,2.28384,5.33081
287,645,2.34033,-5.21582,0.0104986,-0.00068688,0.00356366,0.0115375,-0.00172576,0.28366,0.00832673,0.0452493,1511,379,2.34031,5.21582
294,645,1.7196,-5.75861,0.0132666,-0.0024073,0.00427107,0.0143549,-0.00349559,0.249495,0.0109232,0.0436338,1518,379,1.71956,5.75862
301,645,2.05786,-5.62415,0.0162472,-0.00394046,0.00528388,0.0175466,-0.00523982,0.241126,0.0137805,0.0471113,1525,379,2.05783,5.62415
308,645,2.00427,-5.43042,0,0,0,0,0,0,0,-1,1532,379,2.00427,5.43043
315,645,2.34326,-5.19522,0,0,0,0,0,0,0,-1,1539,379,2.34327,5.19521
322,645,2.58179,-2.83734,0,0,0,0,0,0,0,-1,1546,379,2.58179,2.83734
329,645,2.29321,-2.39011,0,0,0,0,0,0,0,-1,1553,379,2.29317,2.39011
336,645,2.12573,-2.23886,0,0,0,0,0,0,0,-1,1560,379,2.12573,2.23886
343,645,3.48962,-5.22675,0,0,0,0,0,0,0,-1,1567,379,3.48959,5.22675
350,645,3.93213,-5.72198,0,0,0,0,0,0,0,-1,1574,379,3.9321,5.72198
357,645,1.63928,-6.465,0,0,0,0,0,0,0,-1,1581,379,1.63926,6.46499
364,645,-0.0794678,-3.22021,0,0,0,0,0,0,0,-1,1588,379,-0.0794987,3.22021
371,645,0,0,0,0,0,0,0,0,0,-1,1595,379,0,0
378,645,0,0,0,0,0,0,0,0,0,-1,1602,379,0,0
385,645,0,0,0,0,0,0,0,0,0,-1,1609,379,0,0
392,645,0,0,0,0,0,0,0,0,0,-1,1616,379,0,0
399,645,0,0,0,0,0,0,0,0,0,-1,1623,379,0,0
406,645,0,0,0,0,0,0,0,0,0,-1,1630,379,0,0
413,645,0,0,0,0,0,0,0,0,0,-1,1637,379,0,0
420,645,0,0,0,0,0,0,0,0,0,-1,1644,379,0,0
427,645,0,0,0,0,0,0,0,0,0,-1,1651,379,0,0
434,645,0,0,0,0,0,0,0,0,0,-1,1658,379,0,0
441,645,0,0,0,0,0,0,0,0,0,-1,1665,379,0,0
448,645,0,0,0,0,0,0,0,0,0,-1,1672,379,0,0
455,645,0,0,0,0,0,0,0,0,0,-1,1679,379,0,0
462,645,0,0,0,0,0,0,0,0,0,-1,1686,379,0,0
469,645,0,0,0,0,0,0,0,0,0,-1,1693,379,0,0
476,645,0,0,0,0,0,0,0,0,0,-1,1700,379,0,0
483,645,0,0,0,0,0,0,0,0,0,-1,1707,379,0,0
490,645,0,0,0,0,0,0,0,0,0,-1,1714,379,0,0
497,645,0,0,0,0,0,0,0,0,0,-1,1721,379,0,0
504,645,0,0,0,0,0,0,0,0,0,-1,1728,379,0,0
511,645,0,0,0,0,0,0,0,0,0,-1,1735,379,0,0
518,645,0,0,0,0,0,0,0,0,0,-1,1742,379,0,0
525,645,0,0,0,0,0,0,0,0,0,-1,1749,379,0,0
532,645,0,0,0,0,0,0,0,0,0,-1,1756,379,0,0
539,645,0,0,0,0,0,0,0,0,0,-1,1763,379,0,0
546,645,0,0,0,0,0,0,0,0,0,-1,1770,379,0,0
553,645,0,0,0,0,0,0,0,0,0,-1,1777,379,0,0
560,645,0,0,0,0,0,0,0,0,0,-1,1784,379,0,0
567,645,0,0,0,0,0,0,0,0,0,-1,1791,379,0,0
574,645,0,0,0,0,0,0,0,0,0,-1,1798,379,0,0
581,645,0,0,0,0,0,0,0,0,0,-1,1805,379,0,0
588,645,0,0,0,0,0,0,0,0,0,-1,1812,379,0,0
595,645,0,0,0,0,0,0,0,0,0,-1,1819,379,0,0
602,645,0,0,0,0,0,0,0,0,0,-1,1826,379,0,0
609,645,0,0,0,0,0,0,0,0,0,-1,1833,379,0,0
616,645,0,0,0,0,0,0,0,0,0,-1,1840,379,0,0
623,645,0,0,0,0,0,0,0,0,0,-1,1847,379,0,0
630,645,0,0,0,0,0,0,0,0,0,-1,1854,379,0,0
637,645,0,0,0,0,0,0,0,0,0,-1,1861,379,0,0
644,645,0,0,0,0,0,0,0,0,0,-1,1868,379,0,0
651,645,0,0,0,0,0,0,0,0,0,-1,1875,379,0,0
658,645,0,0,0,0,0,0,0,0,0,-1,1882,379,0,0
665,645,0,0,0,0,0,0,0,0,0,-1,1889,379,0,0
672,645,0,0,0,0,0,0,0,0,0,-1,1896,379,0,0
679,645,0,0,0,0,0,0,0,0,0,-1,1903,379,0,0
686,645,0,0,0,0,0,0,0,0,0,-1,1910,379,0,0
693,645,0,0,0,0,0,0,0,0,0,-1,1917,379,0,0
700,645,0,0,0,0,0,0,0,0,0,-1,1924,379,0,0
707,645,0,0,0,0,0,0,0,0,0,-1,1931,379,0,0
714,645,0,0,0,0,0,0,0,0,0,-1,1938,379,0,0
721,645,0,0,0,0,0,0,0,0,0,-1,1945,379,0,0
728,645,0,0,0,0,0,0,0,0,0,-1,1952,379,0,0
735,645,0,0,0,0,0,0,0,0,0,-1,1959,379,0,0
742,645,0,0,0,0,0,0,0,0,0,-1,1966,379,0,0
749,645,0,0,0,0,0,0,0,0,0,-1,1973,379,0,0
756,645,0,0,0,0,0,0,0,0,0,-1,1980,379,0,0
763,645,0,0,0,0,0,0,0,0,0,-1,1987,379,0,0
770,645,0,0,0,0,0,0,0,0,0,-1,1994,379,0,0
777,645,0,0,0,0,0,0,0,0,0,-1,2001,379,0,0
784,645,0,0,0,0,0,0,0,0,0,-1,2008,379,0,0
791,645,0,0,0,0,0,0,0,0,0,-1,2015,379,0,0
798,645,0,0,0,0,0,0,0,0,0,-1,2022,379,0,0
805,645,0,0,0,0,0,0,0,0,0,-1,2029,379,0,0
812,645,0,0,0,0,0,0,0,0,0,-1,2036,379,0,0
-700,638,0,0,0,0,0,0,0,0,0,-1,524,386,0,0
-693,638,0,0,0,0,0,0,0,0,0,-1,531,386,0,0
-686,638,0,0,0,0,0,0,0,0,0,-1,538,386,0,0
-679,638,0,0,0,0,0,0,0,0,0,-1,545,386,0,0
-672,638,0,0,0,0,0,0,0,0,0,-1,552,386,0,0
-665,638,0,0,0,0,0,0,0,0,0,-1,559,386,0,0
-658,638,0,0,0,0,0,0,0,0,0,-1,566,386,0,0
-651,638,0,0,0,0,0,0,0,0,0,-1,573,386,0,0
-644,638,0,0,0,0,0,0,0,0,0,-1,580,386,0,0
-637,638,0,0,0,0,0,0,0,0,0,-1,587,386,0,0
-630,638,0,0,0,0,0,0,0,0,0,-1,594,386,0,0
-623,638,0,0,0,0,0,0,0,0,0,-1,601,386,0,0
-616,638,0,0,0,0,0,0,0,0,0,-1,608,386,0,0
-609,638,0,0,0,0,0,0,0,0,0,-1,615,386,0,0
-602,638,0,0,0,0,0,0,0,0,0,-1,622,386,0,0
-595,638,0,0,0,0,0,0,0,0,0,-1,629,386,0,0
-588,638,0,0,0,0,0,0,0,0,0,-1,636,386,0,0
-581,638,0,0,0,0,0,0,0,0,0,-1,643,386,0,0
-574,638,0,0,0,0,0,0,0,0,0,-1,650,386,0,0
-567,638,0,0,0,0,0,0,0,0,0,-1,657,386,0,0
-560,638,0,0,0,0,0,0,0,0,0,-1,664,386,0,0
-553,638,0,0,0,0,0,0,0,0,0,-1,671,386,0,0
-546,638,0,0,0,0,0,0,0,0,0,-1,678,386,0,0
-539,638,0,0,0,0,0,0,0,0,0,-1,685,386,0,0
-532,638,0,0,0,0,0,0,0,0,0,-1,692,386,0,0
-525,638,0,0,0,0,0,0,0,0,0,-1,699,386,0,0
-518,638,0,0,0,0,0,0,0,0,0,-1,706,386,0,0
-511,638,0,0,0,0,0,0,0,0,0,-1,713,386,0,0
-504,638,0,0,0,0,0,0,0,0,0,-1,720,386,0,0
-497,638,0,0,0,0,0,0,0,0,0,-1,727,386,0,0
-490,638,0,0,0,0,0,0,0,0,0,-1,734,386,0,0
-483,638,0,0,0,0,0,0,0,0,0,-1,741,386,0,0
-476,638,0,0,0,0,0,0,0,0,0,-1,748,386,0,0
-469,638,0,0,0,0,0,0,0,0,0,-1,755,386,0,0
-462,638,0,0,0,0,0,0,0,0,0,-1,762,386,0,0
-455,638,0,0,0,0,0,0,0,0,0,-1,769,386,0,0
-448,638,0,0,0,0,0,0,0,0,0,-1,776,386,0,0
-441,638,0,0,0,0,0,0,0,0,0,-1,783,386,0,0
-434,638,0,0,0,0,0,0,0,0,0,-1,790,386,0,0
-427,638,0,0,0,0,0,0,0,0,0,-1,797,386,0,0
-420,638,0,0,0,0,0,0,0,0,0,-1,804,386,0,0
-413,638,0,0,0,0,0,0,0,0,0,-1,811,386,0,0
-406,638,0,0,0,0,0,0,0,0,0,-1,818,386,0,0
-399,638,0,0,0,0,0,0,0,0,0,-1,825,386,0,0
-392,638,0,0,0,0,0,0,0,0,0,-1,832,386,0,0
-385,638,0,0,0,0,0,0,0,0,0,-1,839,386,0,0
-378,638,0,0,0,0,0,0,0,0,0,-1,846,386,0,0
-371,638,0,0,0,0,0,0,0,0,0,-1,853,386,0,0
-364,638,0,0,0,0,0,0,0,0,0,-1,860,386,0,0
-357,638,0,0,0,0,0,0,0,0,0,-1,867,386,0,0
-350,638,0,0,0,0,0,0,0,0,0,-1,874,386,0,0
-343,638,0,0,0,0,0,0,0,0,0,-1,881,386,0,0
-336,638,0,0,0,0,0,0,0,0,0,-1,888,386,0,0
-329,638,0,0,0,0,0,0,0,0,0,-1,895,386,0,0
-322,638,0,0,0,0,0,0,0,0,0,-1,902,386,0,0
-315,638,0,0,0,0,0,0,0,0,0,-1,909,386,0,0
-308,638,0,0,0,0,0,0,0,0,0,-1,916,386,0,0
-301,638,0,0,0,0,0,0,0,0,0,-1,923,386,0,0
-294,638,0,0,0,0,0,0,0,0,0,-1,930,386,0,0
-287,638,0,0,0,0,0,0,0,0,0,-1,937,386,0,0
-280,638,0,0,0,0,0,0,0,0,0,-1,944,386,0,0
-273,638,0,0,0,0,0,0,0,0,0,-1,951,386,0,0
-266,638,-1.87286,-4.27911,0,0,0,0,0,0,0,-1,958,386,-1.87287,4.2791
-259,638,-0.718689,-3.6188,0,0,0,0,0,0,0,-1,965,386,-0.71871,3.61881
-252,638,1.0564,-5.25256,0,0,0,0,0,0,0,-1,972,386,1.0564,5.25257
-245,638,0.478699,-5.35779,-0.0731689,-0.018244,-0.0446002,0.00667069,-0.0980836,-1.06136,0.0677222,0.041791,979,386,0.478677,5.35779
-238,638,-0.0435791,-5.54709,-0.0658888,-0.0136666,-0.0403761,0.00830572,-0.0878611,-1.07242,0.0615298,0.0466081,986,386,-0.0435648,5.54709
-231,638,-0.654114,-5.89017,-0.0586999,-0.00963982,-0.0357705,0.00920352,-0.0775432,-1.08595,0.0550205,0.0464133,993,386,-0.654116,5.89016
-224,638,-1.36102,-6.07065,-0.0516842,-0.00627883,-0.0301278,0.00874247,-0.0667055,-1.10828,0.0476525,0.0443001,1000,386,-1.36104,6.07064
-217,638,-1.98444,-6.56485,0,0,0,0,0,0,0,-1,1007,386,-1.98442,6.56484
-210,638,3.11609,-6.59558,0,0,0,0,0,0,0,-1,1014,386,3.11607,6.59558
-203,638,2.87756,-6.12366,0,0,0,0,0,0,0,-1,1021,386,2.87755,6.12367
-196,638,2.57214,-5.86755,-0.0279202,-0.00230226,-0.00861792,0.000326981,-0.0305494,-1.27468,0.0204761,0.0439054,1028,386,2.5721,5.86754
-189,638,2.4126,-5.539,-0.023196,-0.00286767,-0.00445252,-0.00193521,-0.0241285,-1.36436,0.015481,0.0429596,1035,386,2.41259,5.53901
-182,638,2.48462,-5.2522,0,0,0,0,0,0,0,-1,1042,386,2.48457,5.25219
-175,638,2.43884,-5.6366,-0.017086,-0.006409,0.00217411,-0.00598328,-0.0175117,1.37743,0.010278,0.0420942,1049,386,2.43883,5.63659
-168,638,2.32825,-5.73227,-0.0145514,-0.00806743,0.00394132,-0.00620604,-0.0164128,1.12957,0.00956932,0.0315905,1056,386,2.32828,5.73228
-161,638,2.32849,-5.8158,-0.0145975,-0.00913218,0.00327936,-0.00759615,-0.0161335,1.13275,0.00931996,0.0281249,1063,386,2.32853,5.81579
-154,638,2.33142,-5.85208,-0.0137621,-0.00973507,0.00250744,-0.00853278,-0.0149644,1.12369,0.00866806,0.0232021,1070,386,2.33146,5.85208
-147,638,2.31482,-5.92685,-0.0123184,-0.0105013,0.00185153,-0.00934738,-0.0134723,1.01349,0.00797065,0.0179325,1077,386,2.31484,5.92686
-140,638,2.31079,-6.01587,-0.0109273,-0.0098676,0.00120381,-0.0090822,-0.0117127,0.992719,0.00709607,0.0129576,1084,386,2.31083,6.01588
-133,638,2.33203,-6.11172,-0.0101928,-0.00846186,0.000226011,-0.00843283,-0.0102218,1.44308,0.0063034,0.0101727,1091,386,2.33201,6.11174
-126,638,2.32776,-6.15558,-0.00947608,-0.00734887,-6.3617e-05,-0.00734697,-0.00947799,-1.54093,0.00574169,0.012286,1098,386,2.3278,6.15558
-119,638,2.30493,-6.20969,-0.00855548,-0.00631991,-0.000475142,-0.00622311,-0.00865228,-1.36983,0.00515299,0.0140354,1105,386,2.30491,6.20967
-112,638,2.31091,-6.27249,-0.00748034,-0.0051044,-0.00071507,-0.00490579,-0.00767895,-1.29988,0.00449007,0.0131921,1112,386,2.31086,6.27248
-105,638,2.28723,-6.31158,-0.00647344,-0.00383538,-0.00079877,-0.00361237,-0.00669644,-1.29854,0.0038702,0.0151504,1119,386,2.28726,6.31158
-98,638,2.26917,-6.37311,-0.00547957,-0.00253699,-0.000776335,-0.00234473,-0.00567182,-1.32803,0.00329096,0.0156179,1126,386,2.26919,6.37311
-91,638,2.26062,-6.43759,-0.00440702,-0.00120197,-0.000845901,-0.000992413,-0.00461657,-1.32796,0.00280603,0.0121404,1133,386,2.26061,6.4376
-84,638,2.27246,-6.46606,-0.00334367,-0.000233915,-0.00078708,-4.60531e-05,-0.00353153,-1.3365,0.00233915,0.0134163,1140,386,2.27244,6.46607
-77,638,2.27185,-6.5051,-0.00222007,0.000596325,-0.000705564,0.000763196,-0.00238694,-1.33856,0.00189756,0.0109526,1147,386,2.27189,6.50509
-70,638,2.27771,-6.54285,-0.00155324,0.000948277,-0.000338076,0.000993162,-0.00159812,-1.4388,0.00150961,0.00955464,1154,386,2.27774,6.54284
-63,638,2.2738,-6.58298,-0.00131384,0.00104351,6.02651e-05,0.00104505,-0.00131538,1.54525,0.00136577,0.0107334,1161,386,2.27382,6.58298
-56,638,2.26648,-6.61237,-0.000441925,0.0015912,-1.91701e-05,0.00159138,-0.000442106,-1.56137,0.00123496,0.0152135,1168,386,2.26646,6.61238
-49,638,2.25415,-6.63818,-8.38959e-05,0.00178731,-0.000100491,0.00179269,-8.92773e-05,-1.5173,0.00122597,0.0131786,1175,386,2.25411,6.6382
-42,638,2.25122,-6.6861,-6.12717e-05,0.00155289,-0.00015743,0.00156811,-7.64825e-05,-1.47448,0.00107181,0.0113393,1182,386,2.25119,6.68609
-35,638,2.26563,-6.70865,-3.95593e-05,0.00106711,-0.000293078,0.00113993,-0.000112383,-1.32725,0.000800052,0.00988995,1189,386,2.26567,6.70865
-28,638,2.27161,-6.73309,4.0098e-05,0.000561605,-0.000402799,0.000780684,-0.000178981,-1.07265,0.000589248,0.00958203,1196,386,2.27158,6.73311
-21,638,2.24866,-6.74271,0.000181395,0.000243754,-0.000596678,0.000810066,-0.000384917,-0.811502,0.000704328,0.011092,1203,386,2.24866,6.7427
-14,638,2.24451,-6.76749,0.000400914,-0.000202827,-0.000830432,0.00098264,-0.000784553,-0.611068,0.00102242,0.0116373,1210,386,2.24453,6.7675
-7,638,2.23291,-6.82706,0.000612801,-0.000535558,-0.00102523,0.00121369,-0.00113645,-0.530136,0.0013571,0.0169264,1217,386,2.23296,6.82705
0,638,2.2533,-6.76501,0.000755071,-0.000868579,-0.00123533,0.00142146,-0.00153496,-0.494698,0.00170731,0.0288771,1224,386,2.25325,6.76501
7,638,2.19812,-6.8215,0.000782991,-0.00120889,-0.00146145,0.00155559,-0.00198149,-0.486307,0.00204706,0.0219203,1231,386,2.19814,6.82151
14,638,2.23547,-6.8295,0.000841981,-0.00150014,-0.00161161,0.00166307,-0.00232123,-0.471207,0.00231078,0.011815,1238,386,2.23543,6.82949
21,638,2.26025,-6.84647,0.00102973,-0.00178885,-0.00177048,0.00188334,-0.00264246,-0.449251,0.00262519,0.0100322,1245,386,2.26026,6.84648
28,638,2.25745,-6.84042,0.00136361,-0.00217119,-0.00196752,0.00224098,-0.00304857,-0.419464,0.00306577,0.00820556,1252,386,2.25746,6.84041
35,638,2.25061,-6.83939,0.00162966,-0.00239336,-0.0022003,0.00259934,-0.00336304,-0.415095,0.00345178,0.00998983,1259,386,2.25066,6.8394
42,638,2.26587,-6.85672,0.00191942,-0.00267056,-0.00236152,0.00291742,-0.00366856,-0.399843,0.00381065,0.00944204,1266,386,2.2659,6.85671
49,638,2.26709,-6.84705,0.00227586,-0.00292368,-0.00244706,0.00324637,-0.00389419,-0.377574,0.00412826,0.00764277,1273,386,2.26706,6.84705
56,638,2.26501,-6.82983,0.00257949,-0.00323363,-0.00251258,0.00351496,-0.0041691,-0.356412,0.00444175,0.00981546,1280,386,2.26496,6.82984
63,638,2.25366,-6.84299,0.00275456,-0.00344592,-0.00251825,0.00364845,-0.00433981,-0.341091,0.00461778,0.0123897,1287,386,2.25371,6.84298
70,638,2.22571,-6.84299,0.00289705,-0.0034814,-0.00240473,0.00370206,-0.0042864,-0.323033,0.00461625,0.0168851,1294,386,2.22575,6.84298
77,638,2.22302,-6.83582,0.00296873,-0.00339203,-0.00224783,0.0036829,-0.0041062,-0.307631,0.00449926,0.0177058,1301,386,2.22299,6.83582
84,638,2.27649,-6.79495,0.0028272,-0.0033488,-0.0019955,0.00341585,-0.00393745,-0.286854,0.00424899,0.0131712,1308,386,2.27648,6.79495
91,638,2.29883,-6.76929,0.00239391,-0.00313592,-0.00163411,0.0028407,-0.00358271,-0.266895,0.0037168,0.0138868,1315,386,2.29887,6.76929
98,638,2.27734,-6.77167,0.00188928,-0.00292232,-0.00127618,0.00220681,-0.00323984,-0.243859,0.00316343,0.0124647,1322,386,2.27728,6.77165
105,638,2.25049,-6.76498,0.00154959,-0.0025675,-0.000810251,0.00170331,-0.00272122,-0.18749,0.00257694,0.00970038,1329,386,2.25048,6.765
112,638,2.25977,-6.74924,0.00121122,-0.0021175,-0.000313115,0.00124042,-0.00214669,-0.0929779,0.00197875,0.00891446,1336,386,2.25977,6.74925
119,638,2.25562,-6.72797,0.000726255,-0.00164497,0.000118945,0.000732207,-0.00165092,0.0499946,0.00140957,0.010792,1343,386,2.25565,6.72798
126,638,2.25269,-6.67834,0.000270391,-0.0011687,0.000530933,0.000445069,-0.00134338,0.317847,0.0010751,0.0143757,1350,386,2.25273,6.67834
133,638,2.2594,-6.63898,-2.19468e-05,-0.000685462,0.000879964,0.000586721,-0.00129413,0.605131,0.00111122,0.0157668,1357,386,2.25934,6.63897
140,638,2.25024,-6.62415,-6.18664e-05,-0.000405155,0.00113851,0.00091787,-0.00138489,0.710581,0.00133858,0.0167025,1364,386,2.25029,6.62416
147,638,2.23157,-6.59055,-7.61028e-05,-0.000114722,0.00123151,0.00113625,-0.00132708,0.777559,0.00142363,0.0179747,1371,386,2.2316,6.59054
154,638,2.24194,-6.54749,-5.78467e-05,8.11325e-05,0.001173,0.0011867,-0.00116341,0.814984,0.00135686,0.0159164,1378,386,2.24191,6.54749
161,638,2.2605,-6.50665,4.66051e-05,0.000269472,0.00108333,0.00124708,-0.000931005,0.836649,0.00126192,0.0188329,1385,386,2.26052,6.50666
168,638,2.26758,-6.42807,9.68096e-05,0.000445134,0.00100281,0.0012888,-0.000746852,0.871378,0.00118908,0.0235263,1392,386,2.26761,6.42805
175,638,2.28137,-6.42047,0.000102858,0.000527068,0.000867953,0.00120846,-0.00057853,0.905236,0.00105287,0.0191791,1399,386,2.28134,6.42047
182,638,2.26648,-6.39709,0.000137125,0.000580337,0.000829909,0.00121772,-0.000500256,0.915867,0.0010203,0.0128993,1406,386,2.26644,6.39709
189,638,2.24109,-6.36444,0.000133866,0.000712615,0.000872884,0.00134284,-0.00049636,0.945455,0.00109871,0.0109365,1413,386,2.24107,6.36445
196,638,2.24854,-6.2984,0.000149684,0.000805845,0.000868228,0.00140591,-0.000450382,0.966042,0.00111806,0.0137543,1420,386,2.24857,6.29839
203,638,2.2052,-6.25427,-8.93471e-05,0.000791074,0.00096329,0.00140997,-0.000708246,0.999723,0.00124512,0.0201276,1427,386,2.20517,6.25429
210,638,2.19983,-6.20612,-0.000623347,0.000894624,0.000692044,0.00116276,-0.000891486,1.20115,0.00118946,0.0164734,1434,386,2.19982,6.20612
217,638,2.22412,-6.13889,-0.000842741,0.00112321,0.000634691,0.00131031,-0.00102984,1.28413,0.00135432,0.0121088,1441,386,2.22418,6.1389
224,638,2.22571,-6.06549,-0.000749487,0.00149186,0.000836339,0.00176953,-0.00102716,1.25024,0.00163352,0.0112289,1448,386,2.2257,6.06548
231,638,2.21851,-5.98334,-0.000480869,0.00236277,0.00126099,0.00284139,-0.000959484,1.20804,0.00228233,0.0118055,1455,386,2.2185,5.98335
238,638,2.19739,-5.9386,-0.00053138,0.00296394,0.00140344,0.0034577,-0.00102514,1.2325,0.00271222,0.0118004,1462,386,2.19742,5.93861
245,638,2.21375,-5.8851,-0.000531724,0.00301528,0.00121131,0.00338947,-0.000905912,1.27118,0.00261447,0.0133744,1469,386,2.2138,5.88511
252,638,2.20483,-5.80545,0.000722483,0.00262505,0.00144363,0.00340264,-5.51076e-05,1.07672,0.00228702,0.0161021,1476,386,2.20481,5.80545
259,638,2.20227,-5.72424,0.00171611,0.00248552,0.00155321,0.00370095,0.000500675,0.906798,0.0023185,0.0160484,1483,386,2.20229,5.72423
266,638,2.17578,-5.65997,0.00294677,0.00208165,0.00186928,0.00443289,0.000595535,0.671698,0.00277811,0.0116494,1490,386,2.17578,5.65997
273,638,2.16528,-5.59344,0.00416401,0.0014167,0.00215532,0.0053462,0.000234512,0.501689,0.00348859,0.0105204,1497,386,2.1653,5.59344
280,638,2.19287,-5.44006,0.00577373,0.000554473,0.00257268,0.00682863,-0.000500434,0.389134,0.00472807,0.0188254,1504,386,2.19284,5.44005
287,638,2.30444,-5.2916,0.00752563,-0.000376401,0.00317413,0.00864272,-0.00149349,0.338397,0.00631875,0.0323936,1511,386,2.30442,5.29159
294,638,2.16089,-5.43304,0.00940085,-0.00151078,0.00373153,0.0105549,-0.00266482,0.299938,0.00807283,0.0385533,1518,386,2.16088,5.43304
301,638,2.13635,-5.34119,0.0114121,-0.00239953,0.00454549,0.0127738,-0.00376123,0.291064,0.010008,0.0438898,1525,386,2.13636,5.34119
308,638,2.23218,-5.28418,0.013365,-0.00324014,0.00559751,0.0150757,-0.0049508,0.296596,0.0120448,0.0414861,1532,386,2.2322,5.28417
315,638,2.59131,-5.18411,0.0154405,-0.00396574,0.0071107,0.0177671,-0.00629227,0.316209,0.0144077,0.0408097,1539,386,2.59135,5.18412
322,638,2.40137,-4.97137,0,0,0,0,0,0,0,-1,1546,386,2.40134,4.97137
329,638,1.651,-4.37286,0,0,0,0,0,0,0,-1,1553,386,1.65101,4.37286
336,638,1.11633,-4.60019,0,0,0,0,0,0,0,-1,1560,386,1.11632,4.6002
343,638,0.735962,-4.61325,0,0,0,0,0,0,0,-1,1567,386,0.736014,4.61325
350,638,2.81494,-4.29047,0,0,0,0,0,0,0,-1,1574,386,2.81494,4.29047
357,638,0.130371,-3.02618,0,0,0,0,0,0,0,-1,1581,386,0.130345,3.0262
364,638,3.78149,-6.45215,0,0,0,0,0,0,0,-1,1588,386,3.78155,6.45216
371,638,4.18604,-6.71164,0,0,0,0,0,0,0,-1,1595,386,4.18598,6.71164
378,638,4.59045,-6.97113,0,0,0,0,0,0,0,-1,1602,386,4.5904,6.97112
385,638,0,0,0,0,0,0,0,0,0,-1,1609,386,0,0
392,638,0,0,0,0,0,0,0,0,0,-1,1616,386,0,0
399,638,0,0,0,0,0,0,0,0,0,-1,1623,386,0,0
406,638,0,0,0,0,0,0,0,0,0,-1,1630,386,0,0
413,638,0,0,0,0,0,0,0,0,0,-1,1637,386,0,0
420,638,0,0,0,0,0,0,0,0,0,-1,1644,386,0,0
427,638,0,0,0,0,0,0,0,0,0,-1,1651,386,0,0
434,638,0,0,0,0,0,0,0,0,0,-1,1658,386,0,0
441,638,0,0,0,0,0,0,0,0,0,-1,1665,386,0,0
448,638,0,0,0,0,0,0,0,0,0,-1,1672,386,0,0
455,638,0,0,0,0,0,0,0,0,0,-1,1679,386,0,0
462,638,0,0,0,0,0,0,0,0,0,-1,1686,386,0,0
469,638,0,0,0,0,0,0,0,0,0,-1,1693,386,0,0
476,638,0,0,0,0,0,0,0,0,0,-1,1700,386,0,0
483,638,0,0,0,0,0,0,0,0,0,-1,1707,386,0,0
490,638,0,0,0,0,0,0,0,0,0,-1,1714,386,0,0
497,638,0,0,0,0,0,0,0,0,0,-1,1721,386,0,0
504,638,0,0,0,0,0,0,0,0,0,-1,1728,386,0,0
511,638,0,0,0,0,0,0,0,0,0,-1,1735,386,0,0
518,638,0,0,0,0,0,0,0,0,0,-1,1742,386,0,0
525,638,0,0,0,0,0,0,0,0,0,-1,1749,386,0,0
532,638,0,0,0,0,0,0,0,0,0,-1,1756,386,0,0
539,638,0,0,0,0,0,0,0,0,0,-1,1763,386,0,0
546,638,0,0,0,0,0,0,0,0,0,-1,1770,386,0,0
553,638,0,0,0,0,0,0,0,0,0,-1,1777,386,0,0
560,638,0,0,0,0,0,0,0,0,0,-1,1784,386,0,0
567,638,0,0,0,0,0,0,0,0,0,-1,1791,386,0,0
574,638,0,0,0,0,0,0,0,0,0,-1,1798,386,0,0
581,638,0,0,0,0,0,0,0,0,0,-1,1805,386,0,0
588,638,0,0,0,0,0,0,0,0,0,-1,1812,386,0,0
595,638,0,0,0,0,0,0,0,0,0,-1,1819,386,0,0
602,638,0,0,0,0,0,0,0,0,0,-1,1826,386,0,0
609,638,0,0,0,0,0,0,0,0,0,-1,1833,386,0,0
616,638,0,0,0,0,0,0,0,0,0,-1,1840,386,0,0
623,638,0,0,0,0,0,0,0,0,0,-1,1847,386,0,0
630,638,0,0,0,0,0,0,0,0,0,-1,1854,386,0,0
637,638,0,0,0,0,0,0,0,0,0,-1,1861,386,0,0
644,638,0,0,0,0,0,0,0,0,0,-1,1868,386,0,0
651,638,0,0,0,0,0,0,0,0,0,-1,1875,386,0,0
658,638,0,0,0,0,0,0,0,0,0,-1,1882,386,0,0
665,638,0,0,0,0,0,0,0,0,0,-1,1889,386,0,0
672,638,0,0,0,0,0,0,0,0,0,-1,1896,386,0,0
679,638,0,0,0,0,0,0,0,0,0,-1,1903,386,0,0
686,638,0,0,0,0,0,0,0,0,0,-1,1910,386,0,0
693,638,0,0,0,0,0,0,0,0,0,-1,1917,386,0,0
700,638,0,0,0,0,0,0,0,0,0,-1,1924,386,0,0
707,638,0,0,0,0,0,0,0,0,0,-1,1931,386,0,0
714,638,0,0,0,0,0,0,0,0,0,-1,1938,386,0,0
721,638,0,0,0,0,0,0,0,0,0,-1,1945,386,0,0
728,638,0,0,0,0,0,0,0,0,0,-1,1952,386,0,0
735,638,0,0,0,0,0,0,0,0,0,-1,1959,386,0,0
742,638,0,0,0,0,0,0,0,0,0,-1,1966,386,0,0
749,638,0,0,0,0,0,0,0,0,0,-1,1973,386,0,0
756,638,0,0,0,0,0,0,0,0,0,-1,1980,386,0,0
763,638,0,0,0,0,0,0,0,0,0,-1,1987,386,0,0
770,638,0,0,0,0,0,0,0,0,0,-1,1994,386,0,0
777,638,0,0,0,0,0,0,0,0,0,-1,2001,386,0,0
784,638,0,0,0,0,0,0,0,0,0,-1,2008,386,0,0
791,638,0,0,0,0,0,0,0,0,0,-1,2015,386,0,0
798,638,0,0,0,0,0,0,0,0,0,-1,2022,386,0,0
805,638,0,0,0,0,0,0,0,0,0,-1,2029,386,0,0
812,638,0,0,0,0,0,0,0,0,0,-1,2036,386,0,0
-700,631,0,0,0,0,0,0,0,0,0,-1,524,393,0,0
-693,631,0,0,0,0,0,0,0,0,0,-1,531,393,0,0
-686,631,0,0,0,0,0,0,0,0,0,-1,538,393,0,0
-679,631,0,0,0,0,0,0,0,0,0,-1,545,393,0,0
-672,631,0,0,0,0,0,0,0,0,0,-1,552,393,0,0
-665,631,0,0,0,0,0,0,0,0,0,-1,559,393,0,0
-658,631,0,0,0,0,0,0,0,0,0,-1,566,393,0,0
-651,631,0,0,0,0,0,0,0,0,0,-1,573,393,0,0
-644,631,0,0,0,0,0,0,0,0,0,-1,580,393,0,0
-637,631,0,0,0,0,0,0,0,0,0,-1,587,393,0,0
-630,631,0,0,0,0,0,0,0,0,0,-1,594,393,0,0
-623,631,0,0,0,0,0,0,0,0,0,-1,601,393,0,0
-616,631,0,0,0,0,0,0,0,0,0,-1,608,393,0,0
-609,631,0,0,0,0,0,0,0,0,0,-1,615,393,0,0
-602,631,0,0,0,0,0,0,0,0,0,-1,622,393,0,0
-595,631,0,0,0,0,0,0,0,0,0,-1,629,393,0,0
-588,631,0,0,0,0,0,0,0,0,0,-1,636,393,0,0
-581,631,0,0,0,0,0,0,0,0,0,-1,643,393,0,0
-574,631,0,0,0,0,0,0,0,0,0,-1,650,393,0,0
-567,631,0,0,0,0,0,0,0,0,0,-1,657,393,0,0
-560,631,0,0,0,0,0,0,0,0,0,-1,664,393,0,0
-553,631,0,0,0,0,0,0,0,0,0,-1,671,393,0,0
-546,631,0,0,0,0,0,0,0,0,0,-1,678,393,0,0
-539,631,0,0,0,0,0,0,0,0,0,-1,685,393,0,0
-532,631,0,0,0,0,0,0,0,0,0,-1,692,393,0,0
-525,631,0,0,0,0,0,0,0,0,0,-1,699,393,0,0
-518,631,0,0,0,0,0,0,0,0,0,-1,706,393,0,0
-511,631,0,0,0,0,0,0,0,0,0,-1,713,393,0,0
-504,631,0,0,0,0,0,0,0,0,0,-1,720,393,0,0
-497,631,0,0,0,0,0,0,0,0,0,-1,727,393,0,0
-490,631,0,0,0,0,0,0,0,0,0,-1,734,393,0,0
-483,631,0,0,0,0,0,0,0,0,0,-1,741,393,0,0
-476,631,0,0,0,0,0,0,0,0,0,-1,748,393,0,0
-469,631,0,0,0,0,0,0,0,0,0,-1,755,393,0,0
-462,631,0,0,0,0,0,0,0,0,0,-1,762,393,0,0
-455,631,0,0,0,0,0,0,0,0,0,-1,769,393,0,0
-448,631,0,0,0,0,0,0,0,0,0,-1,776,393,0,0
-441,631,0,0,0,0,0,0,0,0,0,-1,783,393,0,0
-434,631,0,0,0,0,0,0,0,0,0,-1,790,393,0,0
-427,631,0,0,0,0,0,0,0,0,0,-1,797,393,0,0
-420,631,0,0,0,0,0,0,0,0,0,-1,804,393,0,0
-413,631,0,0,0,0,0,0,0,0,0,-1,811,393,0,0
-406,631,0,0,0,0,0,0,0,0,0,-1,818,393,0,0
-399,631,0,0,0,0,0,0,0,0,0,-1,825,393,0,0
-392,631,0,0,0,0,0,0,0,0,0,-1,832,393,0,0
-385,631,0,0,0,0,0,0,0,0,0,-1,839,393,0,0
-378,631,0,0,0,0,0,0,0,0,0,-1,846,393,0,0
-371,631,0,0,0,0,0,0,0,0,0,-1,853,393,0,0
-364,631,0,0,0,0,0,0,0,0,0,-1,860,393,0,0
-357,631,0,0,0,0,0,0,0,0,0,-1,867,393,0,0
-350,631,0,0,0,0,0,0,0,0,0,-1,874,393,0,0
-343,631,0,0,0,0,0,0,0,0,0,-1,881,393,0,0
-336,631,0,0,0,0,0,0,0,0,0,-1,888,393,0,0
-329,631,0,0,0,0,0,0,0,0,0,-1,895,393,0,0
-322,631,0,0,0,0,0,0,0,0,0,-1,902,393,0,0
-315,631,0,0,0,0,0,0,0,0,0,-1,909,393,0,0
-308,631,0,0,0,0,0,0,0,0,0,-1,916,393,0,0
-301,631,0,0,0,0,0,0,0,0,0,-1,923,393,0,0
-294,631,0,0,0,0,0,0,0,0,0,-1,930,393,0,0
-287,631,0,0,0,0,0,0,0,0,0,-1,937,393,0,0
-280,631,1.64722,-7.69656,0,0,0,0,0,0,0,-1,944,393,1.64723,7.69656
-273,631,2.26263,-7.24976,0,0,0,0,0,0,0,-1,951,393,2.26261,7.24974
-266,631,4.86389,-5.45331,0,0,0,0,0,0,0,-1,958,393,4.86386,5.4533
-259,631,0.537781,-5.88416,0,0,0,0,0,0,0,-1,965,393,0.53779,5.88416
-252,631,1.10321,-4.59879,0,0,0,0,0,0,0,-1,972,393,1.10324,4.59878
-245,631,0.870056,-4.65833,0,0,0,0,0,0,0,-1,979,393,0.870084,4.65834
-238,631,1.10229,-4.91467,0,0,0,0,0,0,0,-1,986,393,1.10229,4.91467
-231,631,0.233154,-5.53714,0,0,0,0,0,0,0,-1,993,393,0.233152,5.53714
-224,631,-0.16449,-5.96127,0,0,0,0,0,0,0,-1,1000,393,-0.16447,5.96129
-217,631,1.8891,-6.03915,0,0,0,0,0,0,0,-1,1007,393,1.88908,6.03915
-210,631,2.63513,-5.27753,0,0,0,0,0,0,0,-1,1014,393,2.63516,5.27752
-203,631,2.70245,-5.18744,0,0,0,0,0,0,0,-1,1021,393,2.70243,5.18744
-196,631,2.36829,-5.49249,-0.0195011,-0.00271479,-0.00739456,7.7975e-05,-0.0222938,-1.20968,0.0148886,0.0495319,1028,393,2.36834,5.4925
-189,631,2.01294,-5.51205,-0.0158214,-0.00289076,-0.0041935,-0.00164986,-0.0170623,-1.2831,0.0108667,0.0466768,1035,393,2.01289,5.51204
-182,631,1.98035,-5.78912,-0.0130585,-0.00407572,-0.000929042,-0.00398064,-0.0131536,-1.46881,0.00778894,0.0420234,1042,393,1.9803,5.78912
-175,631,2.32263,-5.72073,-0.0109346,-0.00479078,0.00100127,-0.00463172,-0.0110937,1.41325,0.00643394,0.0324768,1049,393,2.32267,5.72073
-168,631,2.3125,-5.7533,-0.00925411,-0.00570066,0.00241374,-0.00448024,-0.0104745,1.10267,0.0060685,0.0177095,1056,393,2.31247,5.7533
-161,631,2.29773,-5.83716,-0.00936751,-0.00614317,0.00187903,-0.00527948,-0.0102312,1.13995,0.00590799,0.00918731,1063,393,2.29779,5.83716
-154,631,2.28723,-5.92065,-0.00872568,-0.00636227,0.00125943,-0.00581696,-0.00927099,1.16218,0.00541025,0.00910499,1070,393,2.28727,5.92067
-147,631,2.28857,-5.98251,-0.00763359,-0.00675502,0.000739496,-0.00633417,-0.00805443,1.05341,0.00489796,0.0100153,1077,393,2.28855,5.98251
-140,631,2.27429,-6.04315,-0.00652202,-0.00618211,0.000254428,-0.0060461,-0.00665804,1.07986,0.00424942,0.00904688,1084,393,2.27434,6.04317
-133,631,2.26807,-6.10803,-0.0059424,-0.00515303,-0.000442306,-0.00495492,-0.00614051,-1.14968,0.00376129,0.00801151,1091,393,2.26802,6.10803
-126,631,2.26855,-6.15253,-0.00544257,-0.00435295,-0.000610834,-0.00407926,-0.00571625,-1.14956,0.0033992,0.0120256,1098,393,2.26853,6.15253
-119,631,2.25317,-6.21628,-0.00476309,-0.00361621,-0.000926874,-0.00309973,-0.00527957,-1.06242,0.00306354,0.0147962,1105,393,2.25312,6.21628
-112,631,2.23779,-6.27832,-0.00395759,-0.00273087,-0.00111534,-0.00207136,-0.00461709,-1.03679,0.00267036,0.013306,1112,393,2.23776,6.27831
-105,631,2.22546,-6.32007,-0.00323514,-0.00177179,-0.00118297,-0.00111251,-0.00389442,-1.06236,0.00231628,0.0170286,1119,393,2.22547,6.32008
-98,631,2.22876,-6.37991,-0.00256311,-0.00077822,-0.00116333,-0.000204446,-0.00313688,-1.11259,0.00202655,0.0156235,1126,393,2.22873,6.37991
-91,631,2.23193,-6.44101,-0.001857,0.000222602,-0.00119466,0.000766595,-0.00240099,-1.1435,0.00190823,0.0166178,1133,393,2.23196,6.44101
-84,631,2.24963,-6.4733,-0.00121887,0.000921486,-0.00109368,0.00138148,-0.00167886,-1.17267,0.00176967,0.0154531,1140,393,2.24961,6.47329
-77,631,2.23755,-6.50394,-0.000620177,0.00145859,-0.000952209,0.00182882,-0.00099041,-1.19997,0.0016515,0.00995114,1147,393,2.23758,6.50392
-70,631,2.23547,-6.53049,-0.000336009,0.00158462,-0.000611167,0.00176261,-0.000513996,-1.28741,0.00137872,0.0103502,1154,393,2.23546,6.5305
-63,631,2.23352,-6.5733,-0.000289212,0.00151982,-0.000287125,0.0015643,-0.00033369,-1.41711,0.00117007,0.0104086,1161,393,2.23348,6.57331
-56,631,2.23621,-6.62503,0.00010274,0.00164999,-0.000291834,0.00170321,4.95263e-05,-1.39043,0.00111933,0.0123162,1168,393,2.23619,6.62502
-49,631,2.22705,-6.6546,0.000241782,0.00161144,-0.00027805,0.00166573,0.000187488,-1.37796,0.00105357,0.0110485,1175,393,2.22708,6.65461
-42,631,2.21375,-6.67242,0.000327793,0.00139786,-0.00030505,0.00147871,0.00024694,-1.31171,0.000914676,0.00875548,1182,393,2.21374,6.67241
-35,631,2.21753,-6.69623,0.00049136,0.00109511,-0.000458632,0.0013423,0.000244172,-1.07646,0.000825603,0.00987804,1189,393,2.21749,6.69623
-28,631,2.23413,-6.7229,0.000704583,0.000754583,-0.000618721,0.00134881,0.000110357,-0.80559,0.00086477,0.0121507,1196,393,2.23414,6.7229
-21,631,2.22766,-6.75461,0.000960815,0.000453089,-0.000822741,0.00156797,-0.000154064,-0.635754,0.00110027,0.0107734,1203,393,2.22768,6.75461
-14,631,2.19836,-6.79568,0.00129978,0.000136716,-0.00105899,0.0019264,-0.000489906,-0.534307,0.00147495,0.0135589,1210,393,2.19837,6.7957
-7,631,2.16797,-6.86032,0.00166442,-0.000132326,-0.00134469,0.00238323,-0.000851135,-0.490906,0.00193594,0.0210352,1217,393,2.16795,6.86034
0,631,2.15479,-6.83185,0.00201297,-0.000511992,-0.00161578,0.002801,-0.00130003,-0.453769,0.00242002,0.0214823,1224,393,2.15473,6.83184
7,631,2.1936,-6.81052,0.00220397,-0.00103728,-0.00197532,0.0031384,-0.00197171,-0.441858,0.00297584,0.0168425,1231,393,2.19359,6.8105
14,631,2.22363,-6.83151,0.00241093,-0.00148729,-0.00220537,0.00340506,-0.00248143,-0.423501,0.00341248,0.0103195,1238,393,2.22366,6.83152
21,631,2.24377,-6.85251,0.00278197,-0.00201563,-0.00245461,0.00381528,-0.00304893,-0.398449,0.00397128,0.0119394,1245,393,2.24372,6.85251
28,631,2.24451,-6.86984,0.00319356,-0.00269167,-0.00272291,0.00426009,-0.0037582,-0.373319,0.00463238,0.0133263,1252,393,2.24456,6.86986
35,631,2.2594,-6.84674,0.003427,-0.00326252,-0.00297898,0.00456127,-0.0043968,-0.36381,0.00517223,0.0133556,1259,393,2.25945,6.84675
42,631,2.28455,-6.84479,0.00361782,-0.00388172,-0.00315135,0.00476619,-0.00503009,-0.349451,0.00565657,0.0117193,1266,393,2.28451,6.8448
49,631,2.26001,-6.84494,0.00376035,-0.00447652,-0.00323414,0.00487844,-0.00559461,-0.332852,0.00605133,0.0102059,1273,393,2.25999,6.84495
56,631,2.26611,-6.8436,0.00377652,-0.00507463,-0.00335087,0.00490199,-0.00620009,-0.324034,0.00642438,0.0117835,1280,393,2.26607,6.84361
63,631,2.27783,-6.87143,0.00359179,-0.00550254,-0.00339482,0.00471927,-0.00663002,-0.320654,0.00658339,0.0142499,1287,393,2.27787,6.87142
70,631,2.26062,-6.83386,0.00330038,-0.00573739,-0.00328895,0.00437055,-0.00680756,-0.314578,0.00650461,0.0147037,1294,393,2.26067,6.83387
77,631,2.25635,-6.82092,0.00298802,-0.00575718,-0.00312108,0.00398764,-0.0067568,-0.309957,0.00627161,0.0142551,1301,393,2.25634,6.82093
84,631,2.27039,-6.80731,0.00252322,-0.00569112,-0.00293545,0.00346439,-0.00663229,-0.310266,0.00592419,0.0121162,1308,393,2.27037,6.80733
91,631,2.27954,-6.79364,0.0018022,-0.00550876,-0.00265195,0.00266284,-0.0063694,-0.313809,0.00535913,0.0145851,1315,393,2.27948,6.79365
98,631,2.2677,-6.79022,0.00107355,-0.00521085,-0.00226711,0.00180604,-0.00594334,-0.312507,0.00468183,0.0122665,1322,393,2.26767,6.79021
105,631,2.26538,-6.77313,0.00053976,-0.00471415,-0.00179893,0.00109668,-0.00527107,-0.300225,0.00393093,0.0104993,1329,393,2.26536,6.77314
112,631,2.27197,-6.75064,0.000178327,-0.00409268,-0.00120804,0.000496336,-0.00441069,-0.257405,0.0031191,0.0111582,1336,393,2.27199,6.75064
119,631,2.26611,-6.71802,-0.000229652,-0.00356816,-0.000756896,-6.60667e-05,-0.00373175,-0.212853,0.00246611,0.0115829,1343,393,2.26609,6.71801
126,631,2.2793,-6.65073,-0.00059398,-0.00301464,-0.000325244,-0.000551041,-0.00305758,-0.131261,0.00188179,0.0153573,1350,393,2.27925,6.65073
133,631,2.30554,-6.6264,-0.000698554,-0.00242495,5.44277e-05,-0.00069684,-0.00242667,0.031485,0.00144273,0.017443,1357,393,2.30553,6.62639
140,631,2.2843,-6.64957,-0.000482798,-0.00201421,0.000312169,-0.000421609,-0.0020754,0.193558,0.00126667,0.0192684,1364,393,2.28429,6.64957
147,631,2.24255,-6.61499,-0.000283453,-0.00161461,0.000438253,-0.000152125,-0.00174594,0.291148,0.00111671,0.0211459,1371,393,2.24258,6.61498
154,631,2.26721,-6.58072,-9.53135e-05,-0.00128942,0.000453453,5.73613e-05,-0.0014421,0.324772,0.000981078,0.0194726,1378,393,2.26727,6.58072
161,631,2.30383,-6.5228,9.62671e-05,-0.000928183,0.000523096,0.000316165,-0.00114808,0.397949,0.000889703,0.0226818,1385,393,2.30387,6.52281
168,631,2.30969,-6.45657,0.000217597,-0.000576351,0.000583415,0.000526287,-0.000885041,0.486663,0.000823559,0.0274884,1392,393,2.30966,6.45658
175,631,2.3114,-6.45929,0.000275562,-0.000330447,0.000563885,0.000612696,-0.000667582,0.538858,0.000739395,0.0201884,1399,393,2.31145,6.45929
182,631,2.30371,-6.41174,0.000304078,-0.000132215,0.000553018,0.00068042,-0.000508557,0.597535,0.000688842,0.0113229,1406,393,2.30377,6.41173
189,631,2.30322,-6.34952,0.000301527,0.000135284,0.000582161,0.000806471,-0.00036966,0.714487,0.000694475,0.0107638,1413,393,2.30325,6.34951
196,631,2.29688,-6.302,0.000310551,0.000364223,0.000610107,0.000948084,-0.00027331,0.807377,0.000740175,0.0115325,1420,393,2.29687,6.302
203,631,2.29858,-6.25821,0.000123916,0.000479032,0.000673655,0.000998135,-0.000395188,0.914255,0.000829163,0.0140813,1427,393,2.2986,6.25822
210,631,2.29761,-6.20883,-0.00026026,0.000663157,0.000550143,0.000919663,-0.000516766,1.13451,0.000840127,0.0157376,1434,393,2.29765,6.20882
217,631,2.2865,-6.14761,-0.000444993,0.000904619,0.000528899,0.00108719,-0.000627564,1.23841,0.0010018,0.016057,1441,393,2.28654,6.14762
224,631,2.271,-6.07004,-0.000394695,0.00120591,0.000713806,0.00147799,-0.000666775,1.20663,0.00126746,0.0128083,1448,393,2.27103,6.07002
231,631,2.27124,-5.98633,-0.000214397,0.00185805,0.00106365,0.00230679,-0.000663133,1.17157,0.00180009,0.0114503,1455,393,2.27125,5.98633
238,631,2.26428,-5.94919,-0.00025928,0.00233435,0.00121495,0.00281456,-0.000739495,1.19439,0.00216538,0.0169666,1462,393,2.26432,5.94919
245,631,2.27429,-5.88437,-0.000265327,0.00237334,0.00110086,0.0027723,-0.000664287,1.22311,0.00210486,0.0179608,1469,393,2.27424,5.88438
252,631,2.2489,-5.81372,0.000626985,0.00209339,0.00127148,0.00282792,-0.000107548,1.04694,0.00192213,0.0173085,1476,393,2.24893,5.81374
259,631,2.23474,-5.74167,0.00134987,0.00195851,0.00135462,0.00304258,0.000265806,0.895889,0.00194584,0.0130399,1483,393,2.23474,5.74166
266,631,2.24463,-5.67645,0.00220432,0.00163066,0.00159321,0.00353632,0.000298667,0.696336,0.00226457,0.0119092,1490,393,2.24458,5.67644
273,631,2.23523,-5.58859,0.00301256,0.00113469,0.00179984,0.00410366,4.35908e-05,0.544979,0.00272136,0.013945,1497,393,2.23518,5.5886
280,631,2.22595,-5.52533,0.00411134,0.000518004,0.00213759,0.00510703,-0.000477692,0.435918,0.00357458,0.01264,1504,393,2.226,5.52533
287,631,2.26965,-5.43274,0.00530278,-8.00745e-05,0.00265389,0.00639115,-0.00116845,0.389188,0.00469893,0.0140368,1511,393,2.2696,5.43275
294,631,2.26294,-5.32953,0.00655891,-0.000798911,0.00310276,0.00769265,-0.00193264,0.350322,0.0058795,0.0167366,1518,393,2.26292,5.32952
301,631,2.24805,-5.20688,0.00790294,-0.00127316,0.00376456,0.00924971,-0.00261993,0.343562,0.00720046,0.0236547,1525,393,2.24799,5.20687
308,631,2.43933,-5.17029,0.00918526,-0.00174043,0.00461693,0.010875,-0.00343012,0.350836,0.00862381,0.030418,1532,393,2.43933,5.17029
315,631,2.49316,-5.14407,0.0105213,-0.00207768,0.00567715,0.012702,-0.00425838,0.36674,0.0101886,0.0337321,1539,393,2.49319,5.14407
322,631,2.29053,-4.96445,0.0128413,-0.00299406,0.00661564,0.0152414,-0.00539415,0.348023,0.0123578,0.0442099,1546,393,2.29055,4.96446
329,631,2.17212,-4.74042,0,0,0,0,0,0,0,-1,1553,393,2.17213,4.74042
336,631,2.74915,-4.4838,0,0,0,0,0,0,0,-1,1560,393,2.74911,4.4838
343,631,1.33899,-4.32089,0,0,0,0,0,0,0,-1,1567,393,1.33898,4.32088
350,631,1.46765,-3.78726,0,0,0,0,0,0,0,-1,1574,393,1.46763,3.78727
357,631,0.765259,-1.73032,0,0,0,0,0,0,0,-1,1581,393,0.765241,1.73032
364,631,3.39136,-5.7594,0,0,0,0,0,0,0,-1,1588,393,3.39137,5.75939
371,631,3.72839,-6.0574,0,0,0,0,0,0,0,-1,1595,393,3.72845,6.05742
378,631,4.06555,-6.35544,0,0,0,0,0,0,0,-1,1602,393,4.06553,6.35544
385,631,3.90442,-3.58298,0,0,0,0,0,0,0,-1,1609,393,3.90437,3.58299
392,631,0.352295,-2.21301,0,0,0,0,0,0,0,-1,1616,393,0.352345,2.213
399,631,0,0,0,0,0,0,0,0,0,-1,1623,393,0,0
406,631,0,0,0,0,0,0,0,0,0,-1,1630,393,0,0
413,631,0,0,0,0,0,0,0,0,0,-1,1637,393,0,0
420,631,0,0,0,0,0,0,0,0,0,-1,1644,393,0,0
427,631,0,0,0,0,0,0,0,0,0,-1,1651,393,0,0
434,631,0,0,0,0,0,0,0,0,0,-1,1658,393,0,0
441,631,0,0,0,0,0,0,0,0,0,-1,1665,393,0,0
448,631,0,0,0,0,0,0,0,0,0,-1,1672,393,0,0
455,631,0,0,0,0,0,0,0,0,0,-1,1679,393,0,0
462,631,0,0,0,0,0,0,0,0,0,-1,1686,393,0,0
469,631,0,0,0,0,0,0,0,0,0,-1,1693,393,0,0
476,631,0,0,0,0,0,0,0,0,0,-1,1700,393,0,0
483,631,0,0,0,0,0,0,0,0,0,-1,1707,393,0,0
490,631,0,0,0,0,0,0,0,0,0,-1,1714,393,0,0
497,631,0,0,0,0,0,0,0,0,0,-1,1721,393,0,0
504,631,0,0,0,0,0,0,0,0,0,-1,1728,393,0,0
511,631,0,0,0,0,0,0,0,0,0,-1,1735,393,0,0
518,631,0,0,0,0,0,0,0,0,0,-1,1742,393,0,0
525,631,0,0,0,0,0,0,0,0,0,-1,1749,393,0,0
532,631,0,0,0,0,0,0,0,0,0,-1,1756,393,0,0
539,631,0,0,0,0,0,0,0,0,0,-1,1763,393,0,0
546,631,0,0,0,0,0,0,0,0,0,-1,1770,393,0,0
553,631,0,0,0,0,0,0,0,0,0,-1,1777,393,0,0
560,631,0,0,0,0,0,0,0,0,0,-1,1784,393,0,0
567,631,0,0,0,0,0,0,0,0,0,-1,1791,393,0,0
574,631,0,0,0,0,0,0,0,0,0,-1,1798,393,0,0
581,631,0,0,0,0,0,0,0,0,0,-1,1805,393,0,0
588,631,0,0,0,0,0,0,0,0,0,-1,1812,393,0,0
595,631,0,0,0,0,0,0,0,0,0,-1,1819,393,0,0
602,631,0,0,0,0,0,0,0,0,0,-1,1826,393,0,0
609,631,0,0,0,0,0,0,0,0,0,-1,1833,393,0,0
616,631,0,0,0,0,0,0,0,0,0,-1,1840,393,0,0
623,631,0,0,0,0,0,0,0,0,0,-1,1847,393,0,0
630,631,0,0,0,0,0,0,0,0,0,-1,1854,393,0,0
637,631,0,0,0,0,0,0,0,0,0,-1,1861,393,0,0
644,631,0,0,0,0,0,0,0,0,0,-1,1868,393,0,0
651,631,0,0,0,0,0,0,0,0,0,-1,1875,393,0,0
658,631,0,0,0,0,0,0,0,0,0,-1,1882,393,0,0
665,631,0,0,0,0,0,0,0,0,0,-1,1889,393,0,0
672,631,0,0,0,0,0,0,0,0,0,-1,1896,393,0,0
679,631,0,0,0,0,0,0,0,0,0,-1,1903,393,0,0
686,631,0,0,0,0,0,0,0,0,0,-1,1910,393,0,0
693,631,0,0,0,0,0,0,0,0,0,-1,1917,393,0,0
700,631,0,0,0,0,0,0,0,0,0,-1,1924,393,0,0
707,631,0,0,0,0,0,0,0,0,0,-1,1931,393,0,0
714,631,0,0,0,0,0,0,0,0,0,-1,1938,393,0,0
721,631,0,0,0,0,0,0,0,0,0,-1,1945,393,0,0
728,631,0,0,0,0,0,0,0,0,0,-1,1952,393,0,0
735,631,0,0,0,0,0,0,0,0,0,-1,1959,393,0,0
742,631,0,0,0,0,0,0,0,0,0,-1,1966,393,0,0
749,631,0,0,0,0,0,0,0,0,0,-1,1973,393,0,0
756,631,0,0,0,0,0,0,0,0,0,-1,1980,393,0,0
763,631,0,0,0,0,0,0,0,0,0,-1,1987,393,0,0
770,631,0,0,0,0,0,0,0,0,0,-1,1994,393,0,0
777,631,0,0,0,0,0,0,0,0,0,-1,2001,393,0,0
784,631,0,0,0,0,0,0,0,0,0,-1,2008,393,0,0
791,631,0,0,0,0,0,0,0,0,0,-1,2015,393,0,0
798,631,0,0,0,0,0,0,0,0,0,-1,2022,393,0,0
805,631,0,0,0,0,0,0,0,0,0,-1,2029,393,0,0
812,631,0,0,0,0,0,0,0,0,0,-1,2036,393,0,0
-700,624,0,0,0,0,0,0,0,0,0,-1,524,400,0,0
-693,624,0,0,0,0,0,0,0,0,0,-1,531,400,0,0
-686,624,0,0,0,0,0,0,0,0,0,-1,538,400,0,0
-679,624,0,0,0,0,0,0,0,0,0,-1,545,400,0,0
-672,624,0,0,0,0,0,0,0,0,0,-1,552,400,0,0
-665,624,0,0,0,0,0,0,0,0,0,-1,559,400,0,0
-658,624,0,0,0,0,0,0,0,0,0,-1,566,400,0,0
-651,624,0,0,0,0,0,0,0,0,0,-1,573,400,0,0
-644,624,0,0,0,0,0,0,0,0,0,-1,580,400,0,0
-637,624,0,0,0,0,0,0,0,0,0,-1,587,400,0,0
-630,624,0,0,0,0,0,0,0,0,0,-1,594,400,0,0
-623,624,0,0,0,0,0,0,0,0,0,-1,601,400,0,0
-616,624,0,0,0,0,0,0,0,0,0,-1,608,400,0,0
-609,624,0,0,0,0,0,0,0,0,0,-1,615,400,0,0
-602,624,0,0,0,0,0,0,0,0,0,-1,622,400,0,0
-595,624,0,0,0,0,0,0,0,0,0,-1,629,400,0,0
-588,624,0,0,0,0,0,0,0,0,0,-1,636,400,0,0
-581,624,0,0,0,0,0,0,0,0,0,-1,643,400,0,0
-574,624,0,0,0,0,0,0,0,0,0,-1,650,400,0,0
-567,624,0,0,0,0,0,0,0,0,0,-1,657,400,0,0
-560,624,0,0,0,0,0,0,0,0,0,-1,664,400,0,0
-553,624,0,0,0,0,0,0,0,0,0,-1,671,400,0,0
-546,624,0,0,0,0,0,0,0,0,0,-1,678,400,0,0
-539,624,0,0,0,0,0,0,0,0,0,-1,685,400,0,0
-532,624,0,0,0,0,0,0,0,0,0,-1,692,400,0,0
-525,624,0,0,0,0,0,0,0,0,0,-1,699,400,0,0
-518,624,0,0,0,0,0,0,0,0,0,-1,706,400,0,0
-511,624,0,0,0,0,0,0,0,0,0,-1,713,400,0,0
-504,624,0,0,0,0,0,0,0,0,0,-1,720,400,0,0
-497,624,0,0,0,0,0,0,0,0,0,-1,727,400,0,0
-490,624,0,0,0,0,0,0,0,0,0,-1,734,400,0,0
-483,624,0,0,0,0,0,0,0,0,0,-1,741,400,0,0
-476,624,0,0,0,0,0,0,0,0,0,-1,748,400,0,0
-469,624,0,0,0,0,0,0,0,0,0,-1,755,400,0,0
-462,624,0,0,0,0,0,0,0,0,0,-1,762,400,0,0
-455,624,0,0,0,0,0,0,0,0,0,-1,769,400,0,0
-448,624,0,0,0,0,0,0,0,0,0,-1,776,400,0,0
-441,624,0,0,0,0,0,0,0,0,0,-1,783,400,0,0
-434,624,0,0,0,0,0,0,0,0,0,-1,790,400,0,0
-427,624,0,0,0,0,0,0,0,0,0,-1,797,400,0,0
-420,624,0,0,0,0,0,0,0,0,0,-1,804,400,0,0
-413,624,0,0,0,0,0,0,0,0,0,-1,811,400,0,0
-406,624,0,0,0,0,0,0,0,0,0,-1,818,400,0,0
-399,624,0,0,0,0,0,0,0,0,0,-1,825,400,0,0
-392,624,0,0,0,0,0,0,0,0,0,-1,832,400,0,0
-385,624,0,0,0,0,0,0,0,0,0,-1,839,400,0,0
-378,624,0,0,0,0,0,0,0,0,0,-1,846,400,0,0
-371,624,0,0,0,0,0,0,0,0,0,-1,853,400,0,0
-364,624,0,0,0,0,0,0,0,0,0,-1,860,400,0,0
-357,624,0,0,0,0,0,0,0,0,0,-1,867,400,0,0
-350,624,0,0,0,0,0,0,0,0,0,-1,874,400,0,0
-343,624,0,0,0,0,0,0,0,0,0,-1,881,400,0,0
-336,624,0,0,0,0,0,0,0,0,0,-1,888,400,0,0
-329,624,0,0,0,0,0,0,0,0,0,-1,895,400,0,0
-322,624,0,0,0,0,0,0,0,0,0,-1,902,400,0,0
-315,624,0,0,0,0,0,0,0,0,0,-1,909,400,0,0
-308,624,0,0,0,0,0,0,0,0,0,-1,916,400,0,0
-301,624,0,0,0,0,0,0,0,0,0,-1,923,400,0,0
-294,624,-0.632935,-8.11264,0,0,0,0,0,0,0,-1,930,400,-0.632909,8.11264
-287,624,1.14319,-7.46362,0,0,0,0,0,0,0,-1,937,400,1.14317,7.46362
-280,624,1.7132,-6.98215,0,0,0,0,0,0,0,-1,944,400,1.71322,6.98214
-273,624,3.02228,-5.55148,0,0,0,0,0,0,0,-1,951,400,3.02229,5.55149
-266,624,4.04529,-4.77713,0,0,0,0,0,0,0,-1,958,400,4.04526,4.77714
-259,624,5.06824,-4.00278,0,0,0,0,0,0,0,-1,965,400,5.06823,4.00279
-252,624,1.50421,-4.47974,0,0,0,0,0,0,0,-1,972,400,1.50424,4.47975
-245,624,2.44965,-4.65289,-0.0407659,-0.0111579,-0.0269323,0.00477093,-0.0566947,-1.0367,0.039483,0.0488664,979,400,2.44965,4.6529
-238,624,1.82361,-4.81506,-0.0365597,-0.00883074,-0.0246033,0.00554565,-0.0509361,-1.04198,0.0359488,0.0457547,986,400,1.8236,4.81507
-231,624,1.21338,-5.0863,-0.032043,-0.00718308,-0.0222641,0.00588583,-0.0451119,-1.03999,0.0322163,0.0440899,993,400,1.2134,5.0863
-224,624,1.02405,-5.65359,-0.0274969,-0.00552614,-0.018987,0.00542444,-0.0384475,-1.04766,0.0276179,0.0481797,1000,400,1.02402,5.65359
-217,624,2.13208,-5.34369,-0.0234495,-0.00426467,-0.0156542,0.00450231,-0.0322165,-1.06028,0.023125,0.04845,1007,400,2.13208,5.3437
-210,624,2.37756,-5.3334,-0.0194446,-0.00337474,-0.0122554,0.00324483,-0.0260642,-1.07556,0.0185526,0.0450706,1014,400,2.37754,5.33342
-203,624,2.45496,-5.30112,-0.0159025,-0.00252463,-0.00898373,0.00198684,-0.020414,-1.1054,0.0143176,0.0384411,1021,400,2.45495,5.30111
-196,624,2.31262,-5.37317,-0.0131319,-0.00254727,-0.00612736,0.00025691,-0.015936,-1.1416,0.0107107,0.0357036,1028,400,2.31259,5.37315
-189,624,2.20947,-5.46271,-0.0103984,-0.00255186,-0.00372505,-0.00106513,-0.0118851,-1.19105,0.00759331,0.0347804,1035,400,2.20946,5.46271
-182,624,2.24023,-5.62567,-0.00825704,-0.00318543,-0.00127007,-0.00288515,-0.00855732,-1.33863,0.00502716,0.0280067,1042,400,2.24025,5.62568
-175,624,2.26306,-5.71808,-0.00668983,-0.00347983,0.000272183,-0.00345692,-0.00671274,1.4868,0.00387618,0.0174687,1049,400,2.26302,5.71808
-168,624,2.24707,-5.78674,-0.00566722,-0.00392862,0.0013913,-0.00315737,-0.00643847,1.06463,0.00371748,0.0120316,1056,400,2.24709,5.78674
-161,624,2.24268,-5.85904,-0.00580751,-0.00406923,0.000985895,-0.00362407,-0.00625267,1.14667,0.0036252,0.0102136,1063,400,2.24264,5.85905
-154,624,2.23792,-5.92422,-0.00528311,-0.00411083,0.000501151,-0.0039258,-0.00546815,1.2171,0.00325547,0.00995198,1070,400,2.23786,5.92423
-147,624,2.23718,-5.99179,-0.00442408,-0.00433525,9.34593e-05,-0.00427619,-0.00448315,1.00723,0.00292222,0.0109521,1077,400,2.23718,5.99181
-140,624,2.22522,-6.04617,-0.00348509,-0.00393381,-0.000285238,-0.00334655,-0.00407235,-0.452146,0.00250822,0.00956464,1084,400,2.22521,6.04616
-133,624,2.21069,-6.10986,-0.00294095,-0.00330348,-0.00081552,-0.00228679,-0.00395764,-0.676041,0.00229415,0.0105253,1091,400,2.21073,6.10987
-126,624,2.2179,-6.15909,-0.00251529,-0.00283231,-0.000941755,-0.00171879,-0.0036288,-0.702023,0.00209606,0.0119119,1098,400,2.21793,6.15909
-119,624,2.21008,-6.21295,-0.0019427,-0.00240276,-0.00121268,-0.000938426,-0.00340704,-0.691668,0.00203211,0.0134498,1105,400,2.21004,6.21296
-112,624,2.19165,-6.26831,-0.00127858,-0.00186011,-0.00138549,-0.000153677,-0.00298502,-0.681968,0.00194081,0.0149372,1112,400,2.19162,6.26832
-105,624,2.1781,-6.31833,-0.000715081,-0.00120913,-0.00146176,0.000520385,-0.00244459,-0.701694,0.00182805,0.0116364,1119,400,2.17815,6.31833
-98,624,2.18604,-6.37283,-0.000240219,-0.000496952,-0.00146161,0.00109865,-0.00183582,-0.741598,0.00171195,0.0127049,1126,400,2.18606,6.37284
-91,624,2.19995,-6.43677,0.000215557,0.000212318,-0.00148088,0.00169482,-0.00126694,-0.784851,0.00171591,0.01754,1133,400,2.19999,6.43676
-84,624,2.22119,-6.47906,0.000552141,0.000715752,-0.00136838,0.00200477,-0.000736874,-0.815254,0.00163834,0.0158414,1140,400,2.22115,6.47906
-77,624,2.20264,-6.50989,0.000774132,0.00109714,-0.00120184,0.00214827,-0.000277006,-0.852188,0.00153288,0.0120037,1147,400,2.20262,6.50989
-70,624,2.18396,-6.53705,0.000810817,0.00116357,-0.000908455,0.00191261,6.17763e-05,-0.881281,0.00125499,0.0124148,1154,400,2.18393,6.53706
-63,624,2.18262,-6.57846,0.00077785,0.00113023,-0.000651299,0.00162875,0.000279331,-0.917497,0.00100574,0.011728,1161,400,2.18258,6.57847
-56,624,2.1947,-6.63467,0.000895617,0.00120496,-0.000603866,0.00167365,0.000426928,-0.91077,0.00100418,0.00992749,1168,400,2.19468,6.63469
-49,624,2.19592,-6.66382,0.0009182,0.00121148,-0.000510364,0.00159586,0.000533828,-0.925294,0.000938039,0.00960706,1175,400,2.19591,6.66381
-42,624,2.19092,-6.67117,0.00104032,0.00111131,-0.000537138,0.00161413,0.00053751,-0.81839,0.000949085,0.00964695,1182,400,2.19096,6.67118
-35,624,2.19458,-6.68298,0.00131344,0.00111584,-0.000792317,0.00201309,0.000416186,-0.72337,0.00122709,0.014246,1189,400,2.19463,6.68298
-28,624,2.19983,-6.72858,0.00160952,0.00104142,-0.00105102,0.0024142,0.000236746,-0.653421,0.00153664,0.018171,1196,400,2.19978,6.72858
-21,624,2.21692,-6.75739,0.00200265,0.000741539,-0.00136654,0.0028771,-0.000132907,-0.569241,0.00196387,0.0130274,1203,400,2.21691,6.75738
-14,624,2.20044,-6.77533,0.00247856,0.00046972,-0.00167391,0.00342628,-0.000477995,-0.515172,0.00245905,0.0137453,1210,400,2.20039,6.77532
-7,624,2.17639,-6.79575,0.00298728,0.00022023,-0.00209834,0.00411715,-0.00090964,-0.49394,0.00309289,0.017484,1217,400,2.17645,6.79574
0,624,2.19055,-6.81161,0.00349873,-0.000250792,-0.00247622,0.00472983,-0.00148189,-0.461381,0.00374619,0.0170003,1224,400,2.19061,6.81162
7,624,2.20313,-6.79962,0.00374446,-0.000990211,-0.00302161,0.00521567,-0.00246141,-0.453108,0.00452645,0.013293,1231,400,2.20312,6.79962
14,624,2.21472,-6.85504,0.00401758,-0.00154486,-0.00330768,0.00555793,-0.00308521,-0.435823,0.00505773,0.0119553,1238,400,2.21468,6.85503
21,624,2.22717,-6.84549,0.00452191,-0.00219125,-0.00363092,0.00611004,-0.00377939,-0.41232,0.00576228,0.0122232,1245,400,2.2272,6.8455
28,624,2.23206,-6.85098,0.00500936,-0.00304762,-0.0039578,0.00662825,-0.00466651,-0.388274,0.00655374,0.0108944,1252,400,2.23202,6.85097
35,624,2.23596,-6.85614,0.00523634,-0.00381257,-0.00422664,0.00690343,-0.00547966,-0.37569,0.00716511,0.0145839,1259,400,2.23592,6.85614
42,624,2.24756,-6.84979,0.00536402,-0.00462011,-0.00438224,0.0070146,-0.00627069,-0.360218,0.00767428,0.0157621,1266,400,2.24752,6.84978
49,624,2.26648,-6.8407,0.00536745,-0.00540849,-0.00441996,0.00694843,-0.00698947,-0.34351,0.00804706,0.0167539,1273,400,2.26644,6.84068
56,624,2.29004,-6.84286,0.00518111,-0.00618934,-0.0045409,0.00677198,-0.00778021,-0.33698,0.00840843,0.017155,1280,400,2.28998,6.84285
63,624,2.29993,-6.85858,0.00469023,-0.00677766,-0.00457391,0.00629106,-0.00837848,-0.336666,0.00849799,0.0143851,1287,400,2.29998,6.85857
70,624,2.26746,-6.83795,0.00400732,-0.007229,-0.00441406,0.00553392,-0.00875561,-0.332973,0.00831966,0.0128034,1294,400,2.26749,6.83797
77,624,2.26514,-6.81381,0.00334296,-0.00740775,-0.0042296,0.00480749,-0.00887228,-0.333336,0.00801339,0.0120581,1301,400,2.26518,6.81382
84,624,2.28455,-6.80286,0.00251388,-0.00743577,-0.00404596,0.00395144,-0.00887333,-0.341395,0.00758397,0.011332,1308,400,2.28455,6.80286
91,624,2.27698,-6.80612,0.00146469,-0.00740896,-0.00380674,0.00287395,-0.00881822,-0.354557,0.00703527,0.0120472,1315,400,2.27692,6.80611
98,624,2.27942,-6.80493,0.000413488,-0.00721886,-0.00338827,0.0017006,-0.00850597,-0.363037,0.00631432,0.0119818,1322,400,2.27946,6.80492
105,624,2.29321,-6.7692,-0.000420492,-0.00680142,-0.002894,0.000696514,-0.00791842,-0.368356,0.00552577,0.0136841,1329,400,2.29322,6.76919
112,624,2.29041,-6.75031,-0.000913817,-0.00620955,-0.00220615,-0.000115195,-0.00700818,-0.347323,0.0046342,0.0147659,1336,400,2.29044,6.75032
119,624,2.28357,-6.71854,-0.00141863,-0.00579885,-0.00173452,-0.00081497,-0.00640251,-0.334916,0.00402429,0.014626,1343,400,2.28353,6.71853
126,624,2.31213,-6.65378,-0.00181892,-0.00531455,-0.00122592,-0.00143185,-0.00570162,-0.305833,0.00342506,0.0163738,1350,400,2.31219,6.65378
133,624,2.35034,-6.62735,-0.0018248,-0.00466846,-0.000743074,-0.00164233,-0.00485093,-0.240788,0.00284893,0.0169551,1357,400,2.35036,6.62734
140,624,2.32751,-6.62021,-0.00136978,-0.00413731,-0.000404353,-0.00131192,-0.00419518,-0.142149,0.00247807,0.017503,1364,400,2.32747,6.62022
147,624,2.23987,-6.59579,-0.000909891,-0.00359303,-0.000188941,-0.000896652,-0.00360627,-0.069958,0.00216801,0.0207477,1371,400,2.23981,6.59581
154,624,2.28223,-6.56445,-0.0004855,-0.00306761,-7.51337e-05,-0.000483316,-0.00306979,-0.029065,0.00190596,0.0215182,1378,400,2.2822,6.56445
161,624,2.33215,-6.5094,-0.000102009,-0.00242641,0.000155058,-9.17111e-05,-0.00243671,0.0663172,0.00159478,0.0207159,1385,400,2.3322,6.50941
168,624,2.35364,-6.47266,0.000227692,-0.00177135,0.000328295,0.000280225,-0.00182389,0.158675,0.00131929,0.0221205,1392,400,2.3536,6.47264
175,624,2.33728,-6.45999,0.000454732,-0.00124479,0.000356709,0.000526565,-0.00131662,0.198719,0.00109627,0.0172924,1399,400,2.33725,6.46
182,624,2.34924,-6.4129,0.000510396,-0.00088052,0.000374072,0.000604616,-0.000974741,0.246744,0.00092015,0.0105417,1406,400,2.34929,6.41292
189,624,2.35376,-6.35138,0.000523841,-0.000415999,0.00038183,0.000659412,-0.00055157,0.341171,0.000700084,0.0105816,1413,400,2.35372,6.35138
196,624,2.34131,-6.30704,0.000527168,1.36886e-06,0.000442403,0.000778892,-0.000250354,0.517306,0.000619802,0.0113067,1420,400,2.34132,6.30702
203,624,2.35339,-6.24387,0.000398888,0.000284183,0.000481021,0.000825964,-0.000142892,0.726063,0.000603934,0.0142382,1427,400,2.35341,6.24385
210,624,2.36829,-6.19449,0.000149853,0.000561927,0.000467566,0.000866839,-0.000155059,0.992928,0.000635912,0.0175983,1434,400,2.36823,6.1945
217,624,2.34424,-6.11313,-1.65639e-05,0.000806689,0.000458076,0.00101091,-0.000220786,1.15142,0.000758326,0.0196149,1441,400,2.34426,6.11314
224,624,2.31958,-6.04343,-1.33763e-05,0.00105024,0.000636303,0.00134771,-0.000310846,1.13349,0.00101803,0.0154874,1448,400,2.31959,6.04342
231,624,2.33521,-6.0217,8.35283e-05,0.00151288,0.000935229,0.00197524,-0.000378833,1.11165,0.00145958,0.0115244,1455,400,2.33516,6.0217
238,624,2.323,-5.96469,4.07059e-05,0.0018581,0.00110444,0.00237962,-0.000480813,1.12963,0.0017686,0.0166557,1462,400,2.32298,5.96469
245,624,2.33472,-5.90359,3.35501e-05,0.00187252,0.00106921,0.00236324,-0.000457165,1.14052,0.00174792,0.0175516,1469,400,2.33476,5.90361
252,624,2.32935,-5.80933,0.000652796,0.00165804,0.0012062,0.00246215,-0.000151318,0.982807,0.00169413,0.0129894,1476,400,2.32936,5.80933
259,624,2.30408,-5.74219,0.0011769,0.00151975,0.00128537,0.00264508,5.1578e-05,0.851691,0.00174645,0.00922108,1483,400,2.30402,5.74218
266,624,2.30078,-5.65955,0.00176065,0.00125155,0.00146799,0.00299599,1.62056e-05,0.699552,0.00199195,0.0128061,1490,400,2.30076,5.65956
273,624,2.31885,-5.58405,0.00227814,0.000881541,0.00161462,0.003339,-0.000179316,0.581302,0.00228811,0.0153215,1497,400,2.31885,5.58405
280,624,2.32288,-5.53741,0.00301039,0.000450994,0.00188683,0.00401055,-0.000549169,0.487417,0.0028743,0.0135752,1504,400,2.32282,5.53742
287,624,2.32654,-5.46982,0.00380522,0.000108758,0.0023221,0.00492483,-0.00101086,0.449271,0.00366692,0.0107601,1511,400,2.32654,5.46982
294,624,2.32397,-5.36386,0.00463036,-0.000302266,0.00268708,0.00581138,-0.00148329,0.414106,0.00445183,0.00938375,1518,400,2.32395,5.36386
301,624,2.30701,-5.27127,0.00550453,-0.000499291,0.00321307,0.00689981,-0.00189457,0.409681,0.00534453,0.0107767,1525,400,2.30701,5.27126
308,624,2.32703,-5.16843,0.0063222,-0.000722816,0.00387507,0.00803651,-0.00243713,0.416511,0.00632846,0.0144554,1532,400,2.32703,5.16844
315,624,2.31116,-5.0694,0.0071533,-0.000825423,0.00452133,0.00919365,-0.00286577,0.423911,0.00727501,0.0159389,1539,400,2.31115,5.0694
322,624,2.26331,-4.99295,0.00890954,-0.00160772,0.00522626,0.0110649,-0.00376306,0.391155,0.00890019,0.0244401,1546,400,2.26334,4.99294
329,624,2.44788,-4.86954,0.010219,-0.00188837,0.00578583,0.0125393,-0.00420863,0.381389,0.0100602,0.0383745,1553,400,2.44784,4.86953
336,624,2.58398,-4.59796,0.0117877,-0.00267805,0.00624217,0.0141089,-0.00499918,0.356004,0.0114423,0.0389666,1560,400,2.58398,4.59796
343,624,2.40186,-4.60895,0,0,0,0,0,0,0,-1,1567,400,2.40187,4.60895
350,624,2.57422,-4.33896,0,0,0,0,0,0,0,-1,1574,400,2.57418,4.33897
357,624,2.64075,-3.13092,0,0,0,0,0,0,0,-1,1581,400,2.64076,3.13091
364,624,3.16565,-4.9458,0,0,0,0,0,0,0,-1,1588,400,3.16564,4.94579
371,624,3.37561,-5.23529,0,0,0,0,0,0,0,-1,1595,400,3.37563,5.23529
378,624,3.69385,-5.24634,0,0,0,0,0,0,0,-1,1602,400,3.69386,5.24635
385,624,0.724731,-2.43875,0,0,0,0,0,0,0,-1,1609,400,0.724746,2.43875
392,624,0.673218,-2.06125,0,0,0,0,0,0,0,-1,1616,400,0.673239,2.06124
399,624,3.86841,-2.36917,0,0,0,0,0,0,0,-1,1623,400,3.86838,2.36916
406,624,4.35376,-2.6962,0,0,0,0,0,0,0,-1,1630,400,4.35373,2.69619
413,624,0,0,0,0,0,0,0,0,0,-1,1637,400,0,0
420,624,0,0,0,0,0,0,0,0,0,-1,1644,400,0,0
427,624,0,0,0,0,0,0,0,0,0,-1,1651,400,0,0
434,624,0,0,0,0,0,0,0,0,0,-1,1658,400,0,0
441,624,0,0,0,0,0,0,0,0,0,-1,1665,400,0,0
448,624,0,0,0,0,0,0,0,0,0,-1,1672,400,0,0
455,624,0,0,0,0,0,0,0,0,0,-1,1679,400,0,0
462,624,0,0,0,0,0,0,0,0,0,-1,1686,400,0,0
469,624,0,0,0,0,0,0,0,0,0,-1,1693,400,0,0
476,624,0,0,0,0,0,0,0,0,0,-1,1700,400,0,0
483,624,0,0,0,0,0,0,0,0,0,-1,1707,400,0,0
490,624,0,0,0,0,0,0,0,0,0,-1,1714,400,0,0
497,624,0,0,0,0,0,0,0,0,0,-1,1721,400,0,0
504,624,0,0,0,0,0,0,0,0,0,-1,1728,400,0,0
511,624,0,0,0,0,0,0,0,0,0,-1,1735,400,0,0
518,624,0,0,0,0,0,0,0,0,0,-1,1742,400,0,0
525,624,0,0,0,0,0,0,0,0,0,-1,1749,400,0,0
532,624,0,0,0,0,0,0,0,0,0,-1,1756,400,0,0
539,624,0,0,0,0,0,0,0,0,0,-1,1763,400,0,0
546,624,0,0,0,0,0,0,0,0,0,-1,1770,400,0,0
553,624,0,0,0,0,0,0,0,0,0,-1,1777,400,0,0
560,624,0,0,0,0,0,0,0,0,0,-1,1784,400,0,0
567,624,0,0,0,0,0,0,0,0,0,-1,1791,400,0,0
574,624,0,0,0,0,0,0,0,0,0,-1,1798,400,0,0
581,624,0,0,0,0,0,0,0,0,0,-1,1805,400,0,0
588,624,0,0,0,0,0,0,0,0,0,-1,1812,400,0,0
595,624,0,0,0,0,0,0,0,0,0,-1,1819,400,0,0
602,624,0,0,0,0,0,0,0,0,0,-1,1826,400,0,0
609,624,0,0,0,0,0,0,0,0,0,-1,1833,400,0,0
616,624,0,0,0,0,0,0,0,0,0,-1,1840,400,0,0
623,624,0,0,0,0,0,0,0,0,0,-1,1847,400,0,0
630,624,0,0,0,0,0,0,0,0,0,-1,1854,400,0,0
637,624,0,0,0,0,0,0,0,0,0,-1,1861,400,0,0
644,624,0,0,0,0,0,0,0,0,0,-1,1868,400,0,0
651,624,0,0,0,0,0,0,0,0,0,-1,1875,400,0,0
658,624,0,0,0,0,0,0,0,0,0,-1,1882,400,0,0
665,624,0,0,0,0,0,0,0,0,0,-1,1889,400,0,0
672,624,0,0,0,0,0,0,0,0,0,-1,1896,400,0,0
679,624,0,0,0,0,0,0,0,0,0,-1,1903,400,0,0
686,624,0,0,0,0,0,0,0,0,0,-1,1910,400,0,0
693,624,0,0,0,0,0,0,0,0,0,-1,1917,400,0,0
700,624,0,0,0,0,0,0,0,0,0,-1,1924,400,0,0
707,624,0,0,0,0,0,0,0,0,0,-1,1931,400,0,0
714,624,0,0,0,0,0,0,0,0,0,-1,1938,400,0,0
721,624,0,0,0,0,0,0,0,0,0,-1,1945,400,0,0
728,624,0,0,0,0,0,0,0,0,0,-1,1952,400,0,0
735,624,0,0,0,0,0,0,0,0,0,-1,1959,400,0,0
742,624,0,0,0,0,0,0,0,0,0,-1,1966,400,0,0
749,624,0,0,0,0,0,0,0,0,0,-1,1973,400,0,0
756,624,0,0,0,0,0,0,0,0,0,-1,1980,400,0,0
763,624,0,0,0,0,0,0,0,0,0,-1,1987,400,0,0
770,624,0,0,0,0,0,0,0,0,0,-1,1994,400,0,0
777,624,0,0,0,0,0,0,0,0,0,-1,2001,400,0,0
784,624,0,0,0,0,0,0,0,0,0,-1,2008,400,0,0
791,624,0,0,0,0,0,0,0,0,0,-1,2015,400,0,0
798,624,0,0,0,0,0,0,0,0,0,-1,2022,400,0,0
805,624,0,0,0,0,0,0,0,0,0,-1,2029,400,0,0
812,624,0,0,0,0,0,0,0,0,0,-1,2036,400,0,0
-700,617,0,0,0,0,0,0,0,0,0,-1,524,407,0,0
-693,617,0,0,0,0,0,0,0,0,0,-1,531,407,0,0
-686,617,0,0,0,0,0,0,0,0,0,-1,538,407,0,0
-679,617,0,0,0,0,0,0,0,0,0,-1,545,407,0,0
-672,617,0,0,0,0,0,0,0,0,0,-1,552,407,0,0
-665,617,0,0,0,0,0,0,0,0,0,-1,559,407,0,0
-658,617,0,0,0,0,0,0,0,0,0,-1,566,407,0,0
-651,617,0,0,0,0,0,0,0,0,0,-1,573,407,0,0
-644,617,0,0,0,0,0,0,0,0,0,-1,580,407,0,0
-637,617,0,0,0,0,0,0,0,0,0,-1,587,407,0,0
-630,617,0,0,0,0,0,0,0,0,0,-1,594,407,0,0
-623,617,0,0,0,0,0,0,0,0,0,-1,601,407,0,0
-616,617,0,0,0,0,0,0,0,0,0,-1,608,407,0,0
-609,617,0,0,0,0,0,0,0,0,0,-1,615,407,0,0
-602,617,0,0,0,0,0,0,0,0,0,-1,622,407,0,0
-595,617,0,0,0,0,0,0,0,0,0,-1,629,407,0,0
-588,617,0,0,0,0,0,0,0,0,0,-1,636,407,0,0
-581,617,0,0,0,0,0,0,0,0,0,-1,643,407,0,0
-574,617,0,0,0,0,0,0,0,0,0,-1,650,407,0,0
-567,617,0,0,0,0,0,0,0,0,0,-1,657,407,0,0
-560,617,0,0,0,0,0,0,0,0,0,-1,664,407,0,0
-553,617,0,0,0,0,0,0,0,0,0,-1,671,407,0,0
-546,617,0,0,0,0,0,0,0,0,0,-1,678,407,0,0
-539,617,0,0,0,0,0,0,0,0,0,-1,685,407,0,0
-532,617,0,0,0,0,0,0,0,0,0,-1,692,407,0,0
-525,617,0,0,0,0,0,0,0,0,0,-1,699,407,0,0
-518,617,0,0,0,0,0,0,0,0,0,-1,706,407,0,0
-511,617,0,0,0,0,0,0,0,0,0,-1,713,407,0,0
-504,617,0,0,0,0,0,0,0,0,0,-1,720,407,0,0
-497,617,0,0,0,0,0,0,0,0,0,-1,727,407,0,0
-490,617,0,0,0,0,0,0,0,0,0,-1,734,407,0,0
-483,617,0,0,0,0,0,0,0,0,0,-1,741,407,0,0
-476,617,0,0,0,0,0,0,0,0,0,-1,748,407,0,0
-469,617,0,0,0,0,0,0,0,0,0,-1,755,407,0,0
-462,617,0,0,0,0,0,0,0,0,0,-1,762,407,0,0
-455,617,0,0,0,0,0,0,0,0,0,-1,769,407,0,0
-448,617,0,0,0,0,0,0,0,0,0,-1,776,407,0,0
-441,617,0,0,0,0,0,0,0,0,0,-1,783,407,0,0
-434,617,0,0,0,0,0,0,0,0,0,-1,790,407,0,0
-427,617,0,0,0,0,0,0,0,0,0,-1,797,407,0,0
-420,617,0,0,0,0,0,0,0,0,0,-1,804,407,0,0
-413,617,0,0,0,0,0,0,0,0,0,-1,811,407,0,0
-406,617,0,0,0,0,0,0,0,0,0,-1,818,407,0,0
-399,617,0,0,0,0,0,0,0,0,0,-1,825,407,0,0
-392,617,0,0,0,0,0,0,0,0,0,-1,832,407,0,0
-385,617,0,0,0,0,0,0,0,0,0,-1,839,407,0,0
-378,617,0,0,0,0,0,0,0,0,0,-1,846,407,0,0
-371,617,0,0,0,0,0,0,0,0,0,-1,853,407,0,0
-364,617,0,0,0,0,0,0,0,0,0,-1,860,407,0,0
-357,617,0,0,0,0,0,0,0,0,0,-1,867,407,0,0
-350,617,0,0,0,0,0,0,0,0,0,-1,874,407,0,0
-343,617,0,0,0,0,0,0,0,0,0,-1,881,407,0,0
-336,617,0,0,0,0,0,0,0,0,0,-1,888,407,0,0
-329,617,0,0,0,0,0,0,0,0,0,-1,895,407,0,0
-322,617,0,0,0,0,0,0,0,0,0,-1,902,407,0,0
-315,617,0,0,0,0,0,0,0,0,0,-1,909,407,0,0
-308,617,0,0,0,0,0,0,0,0,0,-1,916,407,0,0
-301,617,-1.35645,-8.09796,0,0,0,0,0,0,0,-1,923,407,-1.35646,8.09797
-294,617,1.0191,-6.7753,0,0,0,0,0,0,0,-1,930,407,1.0191,6.77531
-287,617,1.36652,-6.50296,0,0,0,0,0,0,0,-1,937,407,1.36651,6.50297
-280,617,-0.882202,-7.22299,0,0,0,0,0,0,0,-1,944,407,-0.882195,7.22298
-273,617,2.57599,-4.92932,0,0,0,0,0,0,0,-1,951,407,2.57599,4.92933
-266,617,3.05951,-4.27313,-0.0356072,-0.0171782,-0.0205761,-0.00384755,-0.0489378,-0.995919,0.0314213,0.0467404,958,407,3.05948,4.27312
-259,617,2.58508,-5.22293,-0.0337263,-0.0139735,-0.0208852,-0.000747221,-0.0469526,-1.00626,0.0310557,0.0456881,965,407,2.58509,5.22293
-252,617,2.58496,-5.25604,0,0,0,0,0,0,0,-1,972,407,2.58497,5.25604
-245,617,2.36652,-4.78732,-0.0289961,-0.0080903,-0.0197825,0.00383111,-0.0409175,-1.02845,0.0286409,0.0456317,979,407,2.36654,4.78731
-238,617,2.51526,-4.88837,-0.0260009,-0.00641566,-0.0182283,0.00448386,-0.0369005,-1.03189,0.026223,0.0455335,986,407,2.51528,4.88837
-231,617,1.84351,-4.90656,-0.022612,-0.00550474,-0.0166955,0.00470078,-0.0328175,-1.02213,0.0236018,0.0429713,993,407,1.84353,4.90657
-224,617,1.71521,-5.06479,-0.0191227,-0.00441696,-0.014344,0.00434896,-0.0278887,-1.02224,0.0201988,0.0438065,1000,407,1.71521,5.0648
-217,617,2.16254,-5.22864,-0.0160721,-0.00356022,-0.0119833,0.00370181,-0.0233342,-1.02597,0.0169255,0.0371324,1007,407,2.16253,5.22863
-210,617,2.16339,-5.36313,-0.0130495,-0.00295461,-0.00947973,0.00273768,-0.0187418,-1.03003,0.0134999,0.0248842,1014,407,2.16338,5.36313
-203,617,2.21936,-5.40768,-0.0104481,-0.0022263,-0.0069908,0.00177273,-0.0144471,-1.05119,0.0102734,0.0187756,1021,407,2.21935,5.40768
-196,617,2.198,-5.46875,-0.00851126,-0.00208258,-0.00491546,0.000576211,-0.0111701,-1.07496,0.00764601,0.0145943,1028,407,2.19795,5.46876
-189,617,2.17126,-5.55347,-0.00656877,-0.00202718,-0.00315417,-0.000411416,-0.00818453,-1.09739,0.00532452,0.0129966,1035,407,2.17123,5.55348
-182,617,2.17773,-5.64056,-0.0048939,-0.00229252,-0.00136718,-0.00170615,-0.00548027,-1.16564,0.00323825,0.0140289,1042,407,2.1777,5.64056
-175,617,2.18494,-5.69684,-0.00365612,-0.00231011,-0.000180376,-0.00228636,-0.00367987,-1.43986,0.00214532,0.0117132,1049,407,2.18493,5.69683
-168,617,2.17053,-5.78232,-0.00293412,-0.00243702,0.000666323,-0.0019744,-0.00339674,0.963913,0.00196972,0.00967355,1056,407,2.17054,5.78231
-161,617,2.17322,-5.87109,-0.00292922,-0.00241087,0.000336766,-0.00224509,-0.00309499,1.11336,0.00184642,0.0104726,1063,407,2.17319,5.87109
-154,617,2.16663,-5.92932,-0.00239595,-0.00239018,-7.89712e-05,-0.00231404,-0.00247209,-0.803671,0.00159799,0.0106513,1070,407,2.16668,5.92932
-147,617,2.16199,-5.98206,-0.00157588,-0.00253026,-0.000427712,-0.00141226,-0.00269389,-0.365389,0.00155593,0.0146368,1077,407,2.16198,5.98205
-140,617,2.17297,-6.05353,-0.000624168,-0.00234426,-0.000736846,-0.000351685,-0.00261674,-0.3542,0.00163989,0.0112916,1084,407,2.17299,6.05352
-133,617,2.14868,-6.10889,3.80137e-05,-0.00211709,-0.0011544,0.000539625,-0.0026187,-0.409908,0.00195071,0.0129734,1091,407,2.14869,6.10889
-126,617,2.14807,-6.14639,0.00051723,-0.00199644,-0.00126853,0.00104612,-0.00252533,-0.395014,0.00212011,0.0119235,1098,407,2.14809,6.14639
-119,617,2.14648,-6.20569,0.000999778,-0.00194423,-0.00160307,0.00170415,-0.00264861,-0.413997,0.00253271,0.0121637,1105,407,2.14646,6.20569
-112,617,2.14673,-6.25842,0.00153931,-0.00184069,-0.0018103,0.00232586,-0.00262724,-0.409877,0.00286144,0.0143188,1112,407,2.14675,6.25843
-105,617,2.13379,-6.31628,0.0019168,-0.00161341,-0.0019469,0.00277963,-0.00247624,-0.417167,0.00303616,0.0153043,1119,407,2.13384,6.31629
-98,617,2.1416,-6.38177,0.00213549,-0.00129234,-0.00202327,0.0030732,-0.00223006,-0.433993,0.00307471,0.0125916,1126,407,2.14162,6.38177
-91,617,2.15894,-6.44537,0.00226853,-0.000976358,-0.00211427,0.00331113,-0.00201896,-0.458133,0.00310733,0.01757,1133,407,2.15893,6.44536
-84,617,2.16333,-6.48212,0.00224231,-0.000722705,-0.00208276,0.0033163,-0.0017967,-0.476097,0.00299514,0.0167656,1140,407,2.16333,6.4821
-77,617,2.16418,-6.51056,0.00205614,-0.000483854,-0.00199786,0.00315349,-0.0015812,-0.502277,0.00278336,0.0127892,1147,407,2.16423,6.51055
-70,617,2.15771,-6.55121,0.00182426,-0.000417282,-0.00179703,0.00282137,-0.0014144,-0.506573,0.00249009,0.0133203,1154,407,2.15769,6.5512
-63,617,2.15344,-6.59894,0.00164892,-0.000316647,-0.00161775,0.00255902,-0.00122674,-0.51244,0.00223037,0.0135612,1161,407,2.15341,6.59895
-56,617,2.16162,-6.63669,0.00154009,-6.01192e-05,-0.00156165,0.00249467,-0.0010147,-0.54866,0.00208533,0.0103003,1168,407,2.16157,6.63668
-49,617,2.15942,-6.6644,0.00141267,0.000198223,-0.00136852,0.00230263,-0.000691736,-0.576593,0.00181027,0.00916974,1175,407,2.15939,6.66441
-42,617,2.16895,-6.69241,0.00169206,0.000606691,-0.00164788,0.00288431,-0.000585567,-0.62633,0.00214488,0.0113094,1182,407,2.169,6.69242
-35,617,2.1947,-6.7037,0.00215016,0.00139796,-0.00238066,0.00418425,-0.000636127,-0.707056,0.00302393,0.0164615,1189,407,2.19466,6.70371
-28,617,2.19299,-6.71887,0.00262128,0.0020919,-0.00309782,0.0054657,-0.000752509,-0.74278,0.00391879,0.0183598,1196,407,2.19298,6.71886
-21,617,2.20251,-6.73734,0.00333631,0.00198893,-0.00363079,0.00635539,-0.00103014,-0.693667,0.00461876,0.0129081,1203,407,2.20257,6.73734
-14,617,2.19116,-6.74536,0.00429908,0.00192745,-0.00390502,0.00719436,-0.000967834,-0.637991,0.00514926,0.0139969,1210,407,2.19119,6.74537
-7,617,2.16724,-6.75125,0.00507142,0.00182864,-0.00456465,0.00829409,-0.00139403,-0.614746,0.00604786,0.0163552,1217,407,2.1673,6.75124
0,617,2.20056,-6.77368,0.00585948,0.00131205,-0.00506305,0.00913592,-0.00196439,-0.574354,0.00684009,0.0136041,1224,407,2.20059,6.7737
7,617,2.22473,-6.79547,0.00626214,0.000344931,-0.00574071,0.00976179,-0.00315472,-0.547463,0.00777576,0.0101543,1231,407,2.22479,6.79546
14,617,2.20496,-6.82962,0.0066965,-0.0003986,-0.00597389,0.0100968,-0.00379889,-0.517458,0.00829279,0.0121287,1238,407,2.20495,6.82961
21,617,2.21545,-6.82928,0.00739873,-0.00116752,-0.00620377,0.0106543,-0.00442309,-0.483269,0.00894931,0.0110664,1245,407,2.21542,6.82928
28,617,2.21838,-6.83545,0.00797555,-0.00225387,-0.00635242,0.0110164,-0.00529474,-0.446459,0.00960844,0.00930594,1252,407,2.2184,6.83545
35,617,2.20325,-6.84955,0.0082231,-0.00325826,-0.00643413,0.0111053,-0.00614042,-0.421147,0.0100934,0.0123153,1259,407,2.20319,6.84955
42,617,2.24939,-6.84695,0.00830827,-0.00433017,-0.00639479,0.0109794,-0.00700127,-0.395671,0.0104655,0.0181518,1266,407,2.24941,6.84695
49,617,2.26465,-6.85397,0.00814756,-0.00540067,-0.0062259,0.010574,-0.00782712,-0.371626,0.0106633,0.0173487,1273,407,2.26467,6.85398
56,617,2.27917,-6.84656,0.0076538,-0.00644375,-0.00620782,0.0099977,-0.00878765,-0.361023,0.0108532,0.0125073,1280,407,2.27913,6.84657
63,617,2.26978,-6.84702,0.00666809,-0.00736679,-0.00604912,0.00891544,-0.00961414,-0.355713,0.0107006,0.00981022,1287,407,2.26976,6.84701
70,617,2.23193,-6.84094,0.0053613,-0.0081359,-0.00569341,0.00744211,-0.0102167,-0.350396,0.0102372,0.014714,1294,407,2.23192,6.84093
77,617,2.26233,-6.82074,0.00412693,-0.00856563,-0.00540402,0.00611604,-0.0105547,-0.35269,0.00973793,0.012087,1301,407,2.26235,6.82073
84,617,2.29614,-6.79468,0.00268561,-0.00876467,-0.00518468,0.00468434,-0.0107634,-0.36795,0.00914605,0.0100865,1308,407,2.29613,6.79469
91,617,2.30603,-6.79358,0.000994295,-0.00896786,-0.00491323,0.00300972,-0.0109833,-0.389271,0.00850483,0.00994178,1315,407,2.30604,6.79358
98,617,2.3208,-6.78543,-0.000707628,-0.00904836,-0.00441934,0.0011984,-0.0109544,-0.407188,0.00773341,0.0109108,1322,407,2.32076,6.78545
105,617,2.32898,-6.77136,-0.00207968,-0.00884585,-0.00383482,-0.000348947,-0.0105766,-0.423951,0.00693766,0.0126297,1329,407,2.32899,6.77135
112,617,2.323,-6.7514,-0.00291166,-0.00840417,-0.00297491,-0.00160921,-0.00970662,-0.412672,0.00600696,0.0158817,1336,407,2.32298,6.75142
119,617,2.31238,-6.72229,-0.00369695,-0.00820685,-0.00236949,-0.00268093,-0.00922287,-0.40508,0.00547815,0.0187711,1343,407,2.31243,6.7223
126,617,2.3197,-6.68552,-0.00423871,-0.00796329,-0.00170738,-0.00357448,-0.00862751,-0.371014,0.00500542,0.0209417,1350,407,2.31972,6.68553
133,617,2.33655,-6.63391,-0.00414679,-0.00736655,-0.00109566,-0.00380932,-0.00770402,-0.298787,0.00444801,0.0179249,1357,407,2.33661,6.63391
140,617,2.35779,-6.60297,-0.00338485,-0.0067499,-0.000637818,-0.00326802,-0.00686674,-0.181173,0.00396604,0.0154793,1364,407,2.35784,6.60296
147,617,2.32104,-6.58774,-0.0025313,-0.00601315,-0.000320042,-0.00250213,-0.00604233,-0.0909022,0.00350566,0.018274,1371,407,2.32109,6.58774
154,617,2.33716,-6.56772,-0.00168533,-0.00518566,-0.000133632,-0.00168023,-0.00519076,-0.0381028,0.00305836,0.0200462,1378,407,2.33719,6.56772
161,617,2.35071,-6.50571,-0.000869563,-0.00415636,0.00023003,-0.000853542,-0.00417238,0.0695343,0.00254523,0.0215868,1385,407,2.35075,6.5057
168,617,2.34497,-6.46945,-2.46065e-05,-0.00301443,0.000471316,4.7932e-05,-0.00308697,0.152708,0.00207414,0.0208055,1392,407,2.34503,6.46947
175,617,2.35278,-6.46106,0.000671718,-0.00203563,0.000460675,0.000747959,-0.00211187,0.16401,0.00171257,0.0165366,1399,407,2.35273,6.46106
182,617,2.38538,-6.40384,0.000786127,-0.00151135,0.000473577,0.000879917,-0.00160514,0.195515,0.00145497,0.0109615,1406,407,2.38536,6.40383
189,617,2.39453,-6.35712,0.000827967,-0.000836803,0.000400804,0.000919437,-0.000928274,0.224374,0.00106678,0.0110304,1413,407,2.39455,6.3571
196,617,2.38733,-6.32059,0.000881114,-0.000229351,0.000417043,0.00102029,-0.000368531,0.322107,0.000830749,0.0147714,1420,407,2.38738,6.32058
203,617,2.39429,-6.24945,0.00083349,0.000213474,0.000412138,0.0010392,7.76583e-06,0.462946,0.000690224,0.0149457,1427,407,2.3943,6.24944
210,617,2.41211,-6.19067,0.000603603,0.000579626,0.000351204,0.000943024,0.000240206,0.768337,0.000565871,0.0144636,1434,407,2.4121,6.19068
217,617,2.38916,-6.09164,0.000415175,0.000843029,0.000280368,0.000981765,0.000276439,1.11129,0.000584573,0.0185897,1441,407,2.38916,6.09165
224,617,2.37476,-6.0462,0.000339421,0.00104081,0.000389219,0.00121402,0.000166209,1.15209,0.000760025,0.0182434,1448,407,2.3748,6.0462
231,617,2.40405,-6.03375,0.000327221,0.0013413,0.00057956,0.00160431,6.42094e-05,1.14478,0.00104879,0.0141236,1455,407,2.40404,6.03375
238,617,2.40674,-5.9816,0.000256952,0.00155246,0.000691024,0.00185186,-4.24477e-05,1.16194,0.00124896,0.0141209,1462,407,2.40669,5.98159
245,617,2.40747,-5.92044,0.00022476,0.0015391,0.000658641,0.00181235,-4.84902e-05,1.17754,0.00122471,0.0118363,1469,407,2.40741,5.92043
252,617,2.39746,-5.81656,0.000592767,0.00136738,0.000723807,0.00180099,0.000159158,1.03106,0.00115128,0.0127885,1476,407,2.39749,5.81656
259,617,2.3656,-5.73459,0.000932393,0.0012145,0.000774728,0.00186091,0.000285983,0.875446,0.00115712,0.0117522,1483,407,2.36558,5.7346
266,617,2.37744,-5.66745,0.00129085,0.000985927,0.000898891,0.00205012,0.000226659,0.701393,0.0012978,0.0138443,1490,407,2.37743,5.66745
273,617,2.40894,-5.60303,0.00159257,0.000696708,0.00100849,0.00224813,4.11458e-05,0.576405,0.00148523,0.013985,1497,407,2.40891,5.60303
280,617,2.40625,-5.54263,0.00206131,0.000383641,0.00125176,0.00272931,-0.000284353,0.490201,0.00192135,0.0124902,1504,407,2.40629,5.54263
287,617,2.38684,-5.45486,0.00259089,0.00019732,0.00164851,0.00343123,-0.000643023,0.471424,0.00252922,0.0119006,1511,407,2.38688,5.45486
294,617,2.3783,-5.37399,0.00315281,-3.97836e-05,0.00198786,0.00410597,-0.000992947,0.447107,0.00312139,0.00951611,1518,407,2.37832,5.37398
301,617,2.37805,-5.29169,0.00373961,-8.5906e-05,0.00243565,0.00492379,-0.00127008,0.452536,0.00377774,0.00783205,1525,407,2.37803,5.29167
308,617,2.37427,-5.1998,0.00426632,-0.000184199,0.00298402,0.00576345,-0.00168132,0.465018,0.00450848,0.00831449,1532,407,2.37421,5.1998
315,617,2.37329,-5.10382,0.00484104,-0.000170461,0.00349921,0.00663916,-0.00196857,0.474676,0.00520783,0.00890383,1539,407,2.37327,5.10381
322,617,2.37097,-5.01743,0.00616009,-0.000758349,0.00406837,0.00804108,-0.00263933,0.433072,0.00642385,0.0110752,1546,407,2.37103,5.01742
329,617,2.3645,-4.94559,0.00709028,-0.000949121,0.00451222,0.0091136,-0.00297245,0.421531,0.00727195,0.0116977,1553,407,2.36447,4.94558
336,617,2.40564,-4.76443,0.00823448,-0.00145073,0.00491458,0.0102914,-0.00350768,0.396387,0.00828161,0.0229168,1560,407,2.40559,4.76443
343,617,2.39331,-4.67114,0.00994451,-0.00190489,0.00553749,0.0121294,-0.0040898,0.375815,0.0097401,0.0420095,1567,407,2.39335,4.67114
350,617,2.50574,-4.55704,0.0118479,-0.00188331,0.00631791,0.0143125,-0.00434791,0.371939,0.011274,0.0491066,1574,407,2.50576,4.55703
357,617,2.63232,-4.37888,0,0,0,0,0,0,0,-1,1581,407,2.63228,4.37888
364,617,2.33875,-4.34937,0,0,0,0,0,0,0,-1,1588,407,2.33878,4.34936
371,617,3.1366,-4.94095,0.0172007,-0.00435603,0.00636919,0.0189419,-0.00609724,0.266859,0.0150771,0.0482417,1595,407,3.13665,4.94095
378,617,3.58997,-5.18909,0,0,0,0,0,0,0,-1,1602,407,3.58992,5.1891
385,617,3.97815,-5.22751,0,0,0,0,0,0,0,-1,1609,407,3.97821,5.22752
392,617,3.1283,-2.2749,0,0,0,0,0,0,0,-1,1616,407,3.12834,2.27489
399,617,2.56445,-2.84402,0,0,0,0,0,0,0,-1,1623,407,2.56446,2.84404
406,617,3.02429,-3.19577,0,0,0,0,0,0,0,-1,1630,407,3.02431,3.19577
413,617,2.92786,-3.80649,0,0,0,0,0,0,0,-1,1637,407,2.92788,3.8065
420,617,3.42737,-4.47391,0,0,0,0,0,0,0,-1,1644,407,3.42737,4.47391
427,617,0,0,0,0,0,0,0,0,0,-1,1651,407,0,0
434,617,0,0,0,0,0,0,0,0,0,-1,1658,407,0,0
441,617,0,0,0,0,0,0,0,0,0,-1,1665,407,0,0
448,617,0,0,0,0,0,0,0,0,0,-1,1672,407,0,0
455,617,0,0,0,0,0,0,0,0,0,-1,1679,407,0,0
462,617,0,0,0,0,0,0,0,0,0,-1,1686,407,0,0
469,617,0,0,0,0,0,0,0,0,0,-1,1693,407,0,0
476,617,0,0,0,0,0,0,0,0,0,-1,1700,407,0,0
483,617,0,0,0,0,0,0,0,0,0,-1,1707,407,0,0
490,617,0,0,0,0,0,0,0,0,0,-1,1714,407,0,0
497,617,0,0,0,0,0,0,0,0,0,-1,1721,407,0,0
504,617,0,0,0,0,0,0,0,0,0,-1,1728,407,0,0
511,617,0,0,0,0,0,0,0,0,0,-1,1735,407,0,0
518,617,0,0,0,0,0,0,0,0,0,-1,1742,407,0,0
525,617,0,0,0,0,0,0,0,0,0,-1,1749,407,0,0
532,617,0,0,0,0,0,0,0,0,0,-1,1756,407,0,0
539,617,0,0,0,0,0,0,0,0,0,-1,1763,407,0,0
546,617,0,0,0,0,0,0,0,0,0,-1,1770,407,0,0
553,617,0,0,0,0,0,0,0,0,0,-1,1777,407,0,0
560,617,0,0,0,0,0,0,0,0,0,-1,1784,407,0,0
567,617,0,0,0,0,0,0,0,0,0,-1,1791,407,0,0
574,617,0,0,0,0,0,0,0,0,0,-1,1798,407,0,0
581,617,0,0,0,0,0,0,0,0,0,-1,1805,407,0,0
588,617,0,0,0,0,0,0,0,0,0,-1,1812,407,0,0
595,617,0,0,0,0,0,0,0,0,0,-1,1819,407,0,0
602,617,0,0,0,0,0,0,0,0,0,-1,1826,407,0,0
609,617,0,0,0,0,0,0,0,0,0,-1,1833,407,0,0
616,617,0,0,0,0,0,0,0,0,0,-1,1840,407,0,0
623,617,0,0,0,0,0,0,0,0,0,-1,1847,407,0,0
630,617,0,0,0,0,0,0,0,0,0,-1,1854,407,0,0
637,617,0,0,0,0,0,0,0,0,0,-1,1861,407,0,0
644,617,0,0,0,0,0,0,0,0,0,-1,1868,407,0,0
651,617,0,0,0,0,0,0,0,0,0,-1,1875,407,0,0
658,617,0,0,0,0,0,0,0,0,0,-1,1882,407,0,0
665,617,0,0,0,0,0,0,0,0,0,-1,1889,407,0,0
672,617,0,0,0,0,0,0,0,0,0,-1,1896,407,0,0
679,617,0,0,0,0,0,0,0,0,0,-1,1903,407,0,0
686,617,0,0,0,0,0,0,0,0,0,-1,1910,407,0,0
693,617,0,0,0,0,0,0,0,0,0,-1,1917,407,0,0
700,617,0,0,0,0,0,0,0,0,0,-1,1924,407,0,0
707,617,0,0,0,0,0,0,0,0,0,-1,1931,407,0,0
714,617,0,0,0,0,0,0,0,0,0,-1,1938,407,0,0
721,617,0,0,0,0,0,0,0,0,0,-1,1945,407,0,0
728,617,0,0,0,0,0,0,0,0,0,-1,1952,407,0,0
735,617,0,0,0,0,0,0,0,0,0,-1,1959,407,0,0
742,617,0,0,0,0,0,0,0,0,0,-1,1966,407,0,0
749,617,0,0,0,0,0,0,0,0,0,-1,1973,407,0,0
756,617,0,0,0,0,0,0,0,0,0,-1,1980,407,0,0
763,617,0,0,0,0,0,0,0,0,0,-1,1987,407,0,0
770,617,0,0,0,0,0,0,0,0,0,-1,1994,407,0,0
777,617,0,0,0,0,0,0,0,0,0,-1,2001,407,0,0
784,617,0,0,0,0,0,0,0,0,0,-1,2008,407,0,0
791,617,0,0,0,0,0,0,0,0,0,-1,2015,407,0,0
798,617,0,0,0,0,0,0,0,0,0,-1,2022,407,0,0
805,617,0,0,0,0,0,0,0,0,0,-1,2029,407,0,0
812,617,0,0,0,0,0,0,0,0,0,-1,2036,407,0,0
-700,610,0,0,0,0,0,0,0,0,0,-1,524,414,0,0
-693,610,0,0,0,0,0,0,0,0,0,-1,531,414,0,0
-686,610,0,0,0,0,0,0,0,0,0,-1,538,414,0,0
-679,610,0,0,0,0,0,0,0,0,0,-1,545,414,0,0
-672,610,0,0,0,0,0,0,0,0,0,-1,552,414,0,0
-665,610,0,0,0,0,0,0,0,0,0,-1,559,414,0,0
-658,610,0,0,0,0,0,0,0,0,0,-1,566,414,0,0
-651,610,0,0,0,0,0,0,0,0,0,-1,573,414,0,0
-644,610,0,0,0,0,0,0,0,0,0,-1,580,414,0,0
-637,610,0,0,0,0,0,0,0,0,0,-1,587,414,0,0
-630,610,0,0,0,0,0,0,0,0,0,-1,594,414,0,0
-623,610,0,0,0,0,0,0,0,0,0,-1,601,414,0,0
-616,610,0,0,0,0,0,0,0,0,0,-1,608,414,0,0
-609,610,0,0,0,0,0,0,0,0,0,-1,615,414,0,0
-602,610,0,0,0,0,0,0,0,0,0,-1,622,414,0,0
-595,610,0,0,0,0,0,0,0,0,0,-1,629,414,0,0
-588,610,0,0,0,0,0,0,0,0,0,-1,636,414,0,0
-581,610,0,0,0,0,0,0,0,0,0,-1,643,414,0,0
-574,610,0,0,0,0,0,0,0,0,0,-1,650,414,0,0
-567,610,0,0,0,0,0,0,0,0,0,-1,657,414,0,0
-560,610,0,0,0,0,0,0,0,0,0,-1,664,414,0,0
-553,610,0,0,0,0,0,0,0,0,0,-1,671,414,0,0
-546,610,0,0,0,0,0,0,0,0,0,-1,678,414,0,0
-539,610,0,0,0,0,0,0,0,0,0,-1,685,414,0,0
-532,610,0,0,0,0,0,0,0,0,0,-1,692,414,0,0
-525,610,0,0,0,0,0,0,0,0,0,-1,699,414,0,0
-518,610,0,0,0,0,0,0,0,0,0,-1,706,414,0,0
-511,610,0,0,0,0,0,0,0,0,0,-1,713,414,0,0
-504,610,0,0,0,0,0,0,0,0,0,-1,720,414,0,0
-497,610,0,0,0,0,0,0,0,0,0,-1,727,414,0,0
-490,610,0,0,0,0,0,0,0,0,0,-1,734,414,0,0
-483,610,0,0,0,0,0,0,0,0,0,-1,741,414,0,0
-476,610,0,0,0,0,0,0,0,0,0,-1,748,414,0,0
-469,610,0,0,0,0,0,0,0,0,0,-1,755,414,0,0
-462,610,0,0,0,0,0,0,0,0,0,-1,762,414,0,0
-455,610,0,0,0,0,0,0,0,0,0,-1,769,414,0,0
-448,610,0,0,0,0,0,0,0,0,0,-1,776,414,0,0
-441,610,0,0,0,0,0,0,0,0,0,-1,783,414,0,0
-434,610,0,0,0,0,0,0,0,0,0,-1,790,414,0,0
-427,610,0,0,0,0,0,0,0,0,0,-1,797,414,0,0
-420,610,0,0,0,0,0,0,0,0,0,-1,804,414,0,0
-413,610,0,0,0,0,0,0,0,0,0,-1,811,414,0,0
-406,610,0,0,0,0,0,0,0,0,0,-1,818,414,0,0
-399,610,0,0,0,0,0,0,0,0,0,-1,825,414,0,0
-392,610,0,0,0,0,0,0,0,0,0,-1,832,414,0,0
-385,610,0,0,0,0,0,0,0,0,0,-1,839,414,0,0
-378,610,0,0,0,0,0,0,0,0,0,-1,846,414,0,0
-371,610,0,0,0,0,0,0,0,0,0,-1,853,414,0,0
-364,610,0,0,0,0,0,0,0,0,0,-1,860,414,0,0
-357,610,0,0,0,0,0,0,0,0,0,-1,867,414,0,0
-350,610,0,0,0,0,0,0,0,0,0,-1,874,414,0,0
-343,610,0,0,0,0,0,0,0,0,0,-1,881,414,0,0
-336,610,0,0,0,0,0,0,0,0,0,-1,888,414,0,0
-329,610,0,0,0,0,0,0,0,0,0,-1,895,414,0,0
-322,610,0,0,0,0,0,0,0,0,0,-1,902,414,0,0
-315,610,6.01733,-0.204773,0,0,0,0,0,0,0,-1,909,414,6.01732,0.204766
-308,610,3.14618,-5.29645,0,0,0,0,0,0,0,-1,916,414,3.14616,5.29644
-301,610,2.88318,-6.14627,0,0,0,0,0,0,0,-1,923,414,2.88316,6.14626
-294,610,2.59985,-5.849,0,0,0,0,0,0,0,-1,930,414,2.59987,5.849
-287,610,-1.39032,-7.37338,0,0,0,0,0,0,0,-1,937,414,-1.39032,7.37337
-280,610,-0.799438,-6.88699,0,0,0,0,0,0,0,-1,944,414,-0.799464,6.88698
-273,610,2.44531,-4.40952,0,0,0,0,0,0,0,-1,951,414,2.44529,4.40951
-266,610,2.68182,-4.09726,-0.0243759,-0.0120511,-0.0142355,-0.00270144,-0.0337255,-0.989666,0.0216395,0.0457849,958,414,2.68183,4.09725
-259,610,2.2829,-4.9024,-0.0230691,-0.00966152,-0.0144891,-0.000400553,-0.0323301,-1.00207,0.0214211,0.0487425,965,414,2.28292,4.9024
-252,610,2.34479,-5.0621,-0.0216119,-0.00730402,-0.0145304,0.00173811,-0.030654,-1.01415,0.0210393,0.0484724,972,414,2.34477,5.06211
-245,610,2.18854,-4.84857,-0.0199353,-0.00552729,-0.0139724,0.0029889,-0.0284515,-1.02342,0.0200384,0.0455955,979,414,2.18853,4.84856
-238,610,2.38324,-4.93631,-0.0179115,-0.00432331,-0.0130244,0.00357259,-0.0258074,-1.0258,0.0185111,0.037299,986,414,2.38323,4.9363
-231,610,2.10876,-5.01767,-0.0154781,-0.0039285,-0.0120995,0.00370365,-0.0231102,-1.00805,0.0167782,0.0305627,993,414,2.10879,5.01768
-224,610,2.05121,-5.13858,-0.0128903,-0.00326254,-0.0104846,0.00346052,-0.0196134,-1.00061,0.0143687,0.0242333,1000,414,2.05119,5.13859
-217,610,2.11127,-5.23297,-0.0106637,-0.00271254,-0.00888905,0.00304946,-0.0164257,-0.995678,0.0120958,0.0154829,1007,414,2.11125,5.23296
-210,610,2.12469,-5.31247,-0.00844299,-0.0023418,-0.00711594,0.00234987,-0.0131347,-0.987898,0.00963573,0.0103325,1014,414,2.12469,5.31246
-203,610,2.12488,-5.39706,-0.00658906,-0.0017414,-0.00528598,0.00164997,-0.00998043,-1.00036,0.00726632,0.0125287,1021,414,2.1249,5.39706
-196,610,2.12036,-5.50476,-0.00525347,-0.00145799,-0.00387686,0.000960691,-0.00767215,-1.01301,0.00546323,0.0124166,1028,414,2.12041,5.50476
-189,610,2.1073,-5.564,-0.003864,-0.00132374,-0.00266445,0.00035783,-0.00554557,-1.00781,0.00382191,0.0105722,1035,414,2.10729,5.564
-182,610,2.11414,-5.6478,-0.0025868,-0.00137658,-0.00140602,-0.000450992,-0.00351239,-0.988603,0.00220668,0.0114126,1042,414,2.11411,5.64779
-175,610,2.10681,-5.69666,-0.00160791,-0.00123346,-0.000532058,-0.000856648,-0.00198472,-0.954578,0.00114945,0.0111194,1049,414,2.10678,5.69665
-168,610,2.09534,-5.77026,-0.00104983,-0.00124066,9.04497e-05,-0.00101377,-0.00127672,0.379351,0.000778443,0.0105478,1056,414,2.09533,5.77028
-161,610,2.10583,-5.88342,-0.000938432,-0.00120784,-0.000209709,-0.000823892,-0.00132238,-0.49991,0.000771145,0.0101122,1063,414,2.10581,5.88341
-154,610,2.09949,-5.95273,-0.000379532,-0.001213,-0.000602182,-6.39486e-05,-0.00152859,-0.482715,0.000998425,0.0117895,1070,414,2.09952,5.95274
-147,610,2.08972,-5.97513,0.000414419,-0.00140156,-0.000910765,0.000792486,-0.00177962,-0.393463,0.00152103,0.0132093,1077,414,2.08978,5.97513
-140,610,2.09937,-6.04416,0.00138863,-0.00153761,-0.00117297,0.00180076,-0.00194974,-0.337886,0.00216592,0.0107761,1084,414,2.09937,6.04416
-133,610,2.09521,-6.10898,0.00216893,-0.00177325,-0.00152459,0.00268974,-0.00229407,-0.329179,0.00288043,0.0118222,1091,414,2.09517,6.10899
-126,610,2.09595,-6.15628,0.00272374,-0.00204117,-0.00165608,0.00324278,-0.00256021,-0.303719,0.00335807,0.0110145,1098,414,2.09594,6.15629
-119,610,2.09387,-6.20755,0.00318614,-0.00238519,-0.00205748,0.00386359,-0.00306264,-0.318081,0.00400776,0.0103284,1105,414,2.09393,6.20756
-112,610,2.12,-6.2619,0.00370249,-0.00270787,-0.00231358,0.00445027,-0.00345564,-0.312613,0.0045765,0.0166082,1112,414,2.11997,6.26189
-105,610,2.10254,-6.31598,0.0040264,-0.00286159,-0.0025274,0.00485427,-0.00368946,-0.316545,0.00494798,0.0162018,1119,414,2.10259,6.31599
-98,610,2.09058,-6.38898,0.00414556,-0.00290472,-0.00269996,0.00506073,-0.00381989,-0.326805,0.00514389,0.011645,1126,414,2.09062,6.38898
-91,610,2.12366,-6.42737,0.00412133,-0.00289988,-0.0028742,0.00514784,-0.00392639,-0.343026,0.0052548,0.0131242,1133,414,2.12363,6.42738
-84,610,2.11707,-6.46088,0.00388384,-0.00275856,-0.00294663,0.00500257,-0.00387729,-0.362854,0.0051405,0.0138974,1140,414,2.11704,6.46088
-77,610,2.11597,-6.52219,0.00347481,-0.00250119,-0.00296647,0.00469729,-0.00372367,-0.390891,0.00487266,0.0105004,1147,414,2.11597,6.52219
-70,610,2.13074,-6.56686,0.00309081,-0.00233174,-0.00284802,0.00431174,-0.00355267,-0.404996,0.00454757,0.0123029,1154,414,2.13074,6.56685
-63,610,2.1344,-6.59665,0.00281717,-0.00203239,-0.00270356,0.00402403,-0.00323925,-0.419852,0.00420161,0.0115103,1161,414,2.13437,6.59665
-56,610,2.12549,-6.63284,0.0024892,-0.00150172,-0.00265233,0.00381289,-0.0028254,-0.462899,0.00384673,0.00937684,1168,414,2.12546,6.63284
-49,610,2.12744,-6.65982,0.0022163,-0.000960193,-0.00238781,0.00349583,-0.00223973,-0.491923,0.00333779,0.00987397,1175,414,2.12742,6.65983
-42,610,2.1488,-6.69287,0.00283038,0.000235735,-0.00322026,0.00500482,-0.0019387,-0.593912,0.00413708,0.0140569,1182,414,2.14886,6.69287
-35,610,2.16211,-6.72748,0.00358414,0.00221171,-0.00484511,0.00779139,-0.00199553,-0.715051,0.00597163,0.0146719,1189,414,2.16217,6.72749
-28,610,2.16272,-6.73285,0.0042236,0.00409187,-0.00639339,0.0105515,-0.002236,-0.780247,0.00788603,0.0122908,1196,414,2.16275,6.73283
-21,610,2.1543,-6.75052,0.0053496,0.00432872,-0.00734668,0.0122035,-0.00252523,-0.750714,0.00909506,0.0103444,1203,414,2.1543,6.75052
-14,610,2.15918,-6.75732,0.00694537,0.00782979,-0.00893642,0.0163349,-0.00155978,-0.81012,0.0114454,0.0114904,1210,414,2.15917,6.75731
-7,610,2.18042,-6.76694,0.00805181,0.00874101,-0.0101002,0.0185025,-0.00170964,-0.802451,0.0129425,0.0129429,1217,414,2.18045,6.76693
0,610,2.2002,-6.78339,0.00918557,0.00898746,-0.0109283,0.0200152,-0.0018422,-0.780866,0.013998,0.00950876,1224,414,2.20018,6.7834
7,610,2.20776,-6.78055,0.00979489,0.00854179,-0.0118874,0.0210722,-0.00273555,-0.759069,0.0150431,0.00959065,1231,414,2.20774,6.78055
14,610,2.20703,-6.79807,0.0103664,0.00810675,-0.0120814,0.0213707,-0.00289758,-0.738776,0.0153047,0.0115266,1238,414,2.20709,6.79807
21,610,2.23083,-6.82764,0.011208,0.00743114,-0.0121687,0.0216339,-0.00299475,-0.708418,0.0155175,0.0106742,1245,414,2.23084,6.82765
28,610,2.2356,-6.84589,0.0117616,0.00608404,-0.0119489,0.0212044,-0.00335869,-0.668772,0.0153786,0.010784,1252,414,2.23555,6.84589
35,610,2.25293,-6.84869,0.0119401,0.00451503,-0.0115712,0.0203797,-0.00392464,-0.630165,0.0150661,0.0145655,1259,414,2.25297,6.84868
42,610,2.2688,-6.83542,0.0118473,0.00257069,-0.0109648,0.0191145,-0.00469655,-0.585304,0.0145632,0.0142923,1266,414,2.26876,6.83541
49,610,2.2699,-6.8689,0.0113351,0.000311379,-0.0101207,0.0173476,-0.00570104,-0.536049,0.0138618,0.0133027,1273,414,2.26992,6.86888
56,610,2.28174,-6.85736,0.0104106,-0.00200743,-0.0094928,0.0155447,-0.00714148,-0.49578,0.013394,0.0113806,1280,414,2.28175,6.85737
63,610,2.26978,-6.8432,0.0088253,-0.00421246,-0.00871587,0.0131905,-0.00857762,-0.46431,0.0126615,0.0151022,1287,414,2.2698,6.84319
70,610,2.24329,-6.83804,0.00684044,-0.00614224,-0.00791746,0.0105874,-0.00988924,-0.442026,0.0118245,0.0219467,1294,414,2.24333,6.83804
77,610,2.26648,-6.82309,0.00493808,-0.00760932,-0.0072348,0.00824047,-0.0109117,-0.428213,0.0110933,0.0268102,1301,414,2.26646,6.82308
84,610,2.27783,-6.77042,0.00276007,-0.00863428,-0.0068025,0.00593599,-0.0118102,-0.436799,0.0104312,0.0285705,1308,414,2.27782,6.77041
91,610,2.31604,-6.7731,0.00031208,-0.0104131,-0.00606882,0.00304813,-0.0131491,-0.42355,0.00993917,0.0251217,1315,414,2.31605,6.7731
98,610,2.35449,-6.78018,-0.0020962,-0.0107584,-0.00561265,0.00066215,-0.0135167,-0.456786,0.00923979,0.023149,1322,414,2.35454,6.78018
105,610,2.3512,-6.75995,-0.00404867,-0.0107603,-0.00505682,-0.00133546,-0.0134735,-0.492454,0.0085719,0.0181449,1329,414,2.35121,6.75995
112,610,2.34424,-6.7413,-0.0052494,-0.0104825,-0.00413312,-0.00297423,-0.0127577,-0.503206,0.00770746,0.0120607,1336,414,2.34428,6.74131
119,610,2.31067,-6.72501,-0.00632779,-0.0105376,-0.0035135,-0.00433692,-0.0125284,-0.515524,0.00734653,0.0175688,1343,414,2.31072,6.725
126,610,2.31384,-6.69388,-0.00696874,-0.0105287,-0.00278621,-0.00544246,-0.0120549,-0.501152,0.00697084,0.0253902,1350,414,2.31382,6.69387
133,610,2.37573,-6.6351,-0.0067665,-0.0101547,-0.00210339,-0.00575982,-0.0111614,-0.446379,0.00644515,0.0196012,1357,414,2.37578,6.6351
140,610,2.37915,-6.61755,-0.00573213,-0.00951678,-0.0015426,-0.00518304,-0.0100659,-0.341967,0.0058124,0.0148844,1364,414,2.37918,6.61754
147,610,2.35986,-6.5997,-0.00446815,-0.00863406,-0.00108372,-0.0042031,-0.00889911,-0.239869,0.00514053,0.0151121,1371,414,2.35987,6.59971
154,610,2.3623,-6.5621,-0.00310809,-0.00744963,-0.000788449,-0.00296934,-0.00758838,-0.174198,0.00441553,0.0197332,1378,414,2.3623,6.56211
161,610,2.3717,-6.50067,-0.00181143,-0.00602391,-0.000158125,-0.00180551,-0.00602984,-0.0374669,0.00357348,0.0256076,1385,414,2.3717,6.50067
168,610,2.34937,-6.44049,-0.000343088,-0.00431159,0.000305715,-0.000319675,-0.004335,0.0764344,0.00278956,0.025314,1392,414,2.34942,6.44049
175,610,2.36218,-6.41656,0.000931334,-0.00286288,0.000713829,0.00106119,-0.00299273,0.179943,0.00242747,0.0194682,1399,414,2.36212,6.41656
182,610,2.42456,-6.3764,0.00115462,-0.0021414,0.00072443,0.00130681,-0.0022936,0.207077,0.00210456,0.014042,1406,414,2.42459,6.37641
189,610,2.46167,-6.34396,0.0012464,-0.00119502,0.000554346,0.00136637,-0.00131499,0.213137,0.00154818,0.0133138,1413,414,2.46164,6.34396
196,610,2.42798,-6.31784,0.00134123,-0.00035517,0.000511344,0.00148344,-0.000497381,0.271259,0.00118993,0.0144702,1420,414,2.42798,6.31783
203,610,2.42432,-6.24826,0.00135631,0.000265713,0.000454152,0.00152066,0.00010136,0.347227,0.000981734,0.0148585,1427,414,2.42432,6.24826
210,610,2.43811,-6.19095,0.00111971,0.000721875,0.000316681,0.00129477,0.000546821,0.504973,0.000750534,0.0108301,1434,414,2.43813,6.19094
217,610,2.41504,-6.11276,0.000888153,0.0010045,0.000160212,0.00111677,0.000775881,0.959553,0.000660872,0.015681,1441,414,2.41504,6.11277
224,610,2.40173,-6.05356,0.000722566,0.00115305,0.000202738,0.0012335,0.000642119,1.19305,0.00071236,0.018662,1448,414,2.40177,6.05356
231,610,2.43298,-6.01624,0.000599548,0.00130314,0.000295533,0.0014108,0.000491888,1.22145,0.000826871,0.0149134,1455,414,2.43293,6.01622
238,610,2.4613,-5.97241,0.000489558,0.00136882,0.000344702,0.00148784,0.000370534,1.23832,0.000894348,0.0106887,1462,414,2.46136,5.97242
245,610,2.46301,-5.89453,0.000418907,0.00130554,0.000297961,0.00139637,0.000328079,1.27491,0.000843106,0.0110685,1469,414,2.46307,5.89453
252,610,2.46716,-5.82385,0.000573674,0.00113825,0.00029567,0.00126475,0.000447175,1.16652,0.000740569,0.0124944,1476,414,2.46713,5.82386
259,610,2.44861,-5.74734,0.000751804,0.000953697,0.000320654,0.00118892,0.000516582,0.937894,0.000688383,0.0122008,1483,414,2.4486,5.74733
266,610,2.4574,-5.68076,0.000926575,0.000738816,0.0003829,0.00122694,0.000438454,0.66518,0.000717917,0.012785,1490,414,2.45744,5.68075
273,610,2.46997,-5.60388,0.00106463,0.000495932,0.000454694,0.00131657,0.000243997,0.505967,0.000808743,0.00988592,1497,414,2.47003,5.60387
280,610,2.47046,-5.513,0.00133983,0.000259968,0.000667905,0.00165875,-5.89494e-05,0.445478,0.001126,0.00952642,1504,414,2.47047,5.51301
287,610,2.45276,-5.43442,0.00168741,0.00017471,0.00102126,0.0022019,-0.000339779,0.466667,0.00159332,0.0122394,1511,414,2.45281,5.43441
294,610,2.45618,-5.36206,0.00209042,4.5901e-05,0.00134151,0.00275477,-0.000618454,0.459823,0.00207364,0.0107754,1518,414,2.45619,5.36207
301,610,2.4574,-5.29697,0.0025058,8.8422e-05,0.00172645,0.00340461,-0.000810388,0.480001,0.0025826,0.0102875,1525,414,2.45741,5.29697
308,610,2.47668,-5.20917,0.00286229,7.2146e-05,0.00219179,0.00406533,-0.00113089,0.501986,0.00315548,0.0120966,1532,414,2.47669,5.20917
315,610,2.4856,-5.11099,0.00328722,0.000163913,0.00262231,0.00477766,-0.00132653,0.516837,0.00370725,0.0123399,1539,414,2.48563,5.111
322,610,2.45288,-5.02124,0.00429108,-0.000252582,0.00310486,0.00586651,-0.00182801,0.469555,0.00464191,0.0115839,1546,414,2.45288,5.02124
329,610,2.42834,-4.9278,0.00497305,-0.000383492,0.00346935,0.00667765,-0.00208809,0.456688,0.00528707,0.0107201,1553,414,2.4283,4.92779
336,610,2.44214,-4.80746,0.00579214,-0.000706519,0.00380276,0.00754472,-0.0024591,0.431857,0.00601935,0.0108004,1560,414,2.44218,4.80745
343,610,2.46643,-4.6969,0.00695295,-0.0010455,0.00423918,0.00878163,-0.00287418,0.407258,0.00701167,0.0184136,1567,414,2.46645,4.6969
350,610,2.4436,-4.69238,0.00823363,-0.00108393,0.00473116,0.0102147,-0.00306504,0.396553,0.00802895,0.0266784,1574,414,2.44359,4.69238
357,610,2.48071,-4.65579,0.00907351,-0.00126796,0.00489,0.0110196,-0.00321401,0.378751,0.0086198,0.0327248,1581,414,2.48071,4.65579
364,610,2.43762,-4.42401,0.0104097,-0.00200397,0.00500561,0.0121766,-0.00377089,0.339336,0.00962421,0.0358873,1588,414,2.43758,4.42402
371,610,2.87207,-4.7153,0.0117613,-0.0028924,0.00481719,0.013203,-0.00433414,0.290806,0.0105478,0.0422922,1595,414,2.87209,4.71531
378,610,3.10413,-4.97995,0,0,0,0,0,0,0,-1,1602,414,3.10412,4.97994
385,610,2.50818,-4.01794,0,0,0,0,0,0,0,-1,1609,414,2.50815,4.01794
392,610,2.37634,-2.6618,0,0,0,0,0,0,0,-1,1616,414,2.3764,2.66181
399,610,3.03833,-2.82547,0,0,0,0,0,0,0,-1,1623,414,3.03827,2.82546
406,610,2.91687,-2.9166,0,0,0,0,0,0,0,-1,1630,414,2.91688,2.91659
413,610,3.01929,-3.20306,0,0,0,0,0,0,0,-1,1637,414,3.01929,3.20306
420,610,4.78149,-3.64041,0,0,0,0,0,0,0,-1,1644,414,4.78152,3.64042
427,610,5.20764,-4.67545,0,0,0,0,0,0,0,-1,1651,414,5.20759,4.67545
434,610,5.39233,-5.45441,0,0,0,0,0,0,0,-1,1658,414,5.39228,5.4544
441,610,0,0,0,0,0,0,0,0,0,-1,1665,414,0,0
448,610,0,0,0,0,0,0,0,0,0,-1,1672,414,0,0
455,610,0,0,0,0,0,0,0,0,0,-1,1679,414,0,0
462,610,0,0,0,0,0,0,0,0,0,-1,1686,414,0,0
469,610,0,0,0,0,0,0,0,0,0,-1,1693,414,0,0
476,610,0,0,0,0,0,0,0,0,0,-1,1700,414,0,0
483,610,0,0,0,0,0,0,0,0,0,-1,1707,414,0,0
490,610,0,0,0,0,0,0,0,0,0,-1,1714,414,0,0
497,610,0,0,0,0,0,0,0,0,0,-1,1721,414,0,0
504,610,0,0,0,0,0,0,0,0,0,-1,1728,414,0,0
511,610,0,0,0,0,0,0,0,0,0,-1,1735,414,0,0
518,610,0,0,0,0,0,0,0,0,0,-1,1742,414,0,0
525,610,0,0,0,0,0,0,0,0,0,-1,1749,414,0,0
532,610,0,0,0,0,0,0,0,0,0,-1,1756,414,0,0
539,610,0,0,0,0,0,0,0,0,0,-1,1763,414,0,0
546,610,0,0,0,0,0,0,0,0,0,-1,1770,414,0,0
553,610,0,0,0,0,0,0,0,0,0,-1,1777,414,0,0
560,610,0,0,0,0,0,0,0,0,0,-1,1784,414,0,0
567,610,0,0,0,0,0,0,0,0,0,-1,1791,414,0,0
574,610,0,0,0,0,0,0,0,0,0,-1,1798,414,0,0
581,610,0,0,0,0,0,0,0,0,0,-1,1805,414,0,0
588,610,0,0,0,0,0,0,0,0,0,-1,1812,414,0,0
595,610,0,0,0,0,0,0,0,0,0,-1,1819,414,0,0
602,610,0,0,0,0,0,0,0,0,0,-1,1826,414,0,0
609,610,0,0,0,0,0,0,0,0,0,-1,1833,414,0,0
616,610,0,0,0,0,0,0,0,0,0,-1,1840,414,0,0
623,610,0,0,0,0,0,0,0,0,0,-1,1847,414,0,0
630,610,0,0,0,0,0,0,0,0,0,-1,1854,414,0,0
637,610,0,0,0,0,0,0,0,0,0,-1,1861,414,0,0
644,610,0,0,0,0,0,0,0,0,0,-1,1868,414,0,0
651,610,0,0,0,0,0,0,0,0,0,-1,1875,414,0,0
658,610,0,0,0,0,0,0,0,0,0,-1,1882,414,0,0
665,610,0,0,0,0,0,0,0,0,0,-1,1889,414,0,0
672,610,0,0,0,0,0,0,0,0,0,-1,1896,414,0,0
679,610,0,0,0,0,0,0,0,0,0,-1,1903,414,0,0
686,610,0,0,0,0,0,0,0,0,0,-1,1910,414,0,0
693,610,0,0,0,0,0,0,0,0,0,-1,1917,414,0,0
700,610,0,0,0,0,0,0,0,0,0,-1,1924,414,0,0
707,610,0,0,0,0,0,0,0,0,0,-1,1931,414,0,0
714,610,0,0,0,0,0,0,0,0,0,-1,1938,414,0,0
721,610,0,0,0,0,0,0,0,0,0,-1,1945,414,0,0
728,610,0,0,0,0,0,0,0,0,0,-1,1952,414,0,0
735,610,0,0,0,0,0,0,0,0,0,-1,1959,414,0,0
742,610,0,0,0,0,0,0,0,0,0,-1,1966,414,0,0
749,610,0,0,0,0,0,0,0,0,0,-1,1973,414,0,0
756,610,0,0,0,0,0,0,0,0,0,-1,1980,414,0,0
763,610,0,0,0,0,0,0,0,0,0,-1,1987,414,0,0
770,610,0,0,0,0,0,0,0,0,0,-1,1994,414,0,0
777,610,0,0,0,0,0,0,0,0,0,-1,2001,414,0,0
784,610,0,0,0,0,0,0,0,0,0,-1,2008,414,0,0
791,610,0,0,0,0,0,0,0,0,0,-1,2015,414,0,0
798,610,0,0,0,0,0,0,0,0,0,-1,2022,414,0,0
805,610,0,0,0,0,0,0,0,0,0,-1,2029,414,0,0
812,610,0,0,0,0,0,0,0,0,0,-1,2036,414,0,0
-700,603,0,0,0,0,0,0,0,0,0,-1,524,421,0,0
-693,603,0,0,0,0,0,0,0,0,0,-1,531,421,0,0
-686,603,0,0,0,0,0,0,0,0,0,-1,538,421,0,0
-679,603,0,0,0,0,0,0,0,0,0,-1,545,421,0,0
-672,603,0,0,0,0,0,0,0,0,0,-1,552,421,0,0
-665,603,0,0,0,0,0,0,0,0,0,-1,559,421,0,0
-658,603,0,0,0,0,0,0,0,0,0,-1,566,421,0,0
-651,603,0,0,0,0,0,0,0,0,0,-1,573,421,0,0
-644,603,0,0,0,0,0,0,0,0,0,-1,580,421,0,0
-637,603,0,0,0,0,0,0,0,0,0,-1,587,421,0,0
-630,603,0,0,0,0,0,0,0,0,0,-1,594,421,0,0
-623,603,0,0,0,0,0,0,0,0,0,-1,601,421,0,0
-616,603,0,0,0,0,0,0,0,0,0,-1,608,421,0,0
-609,603,0,0,0,0,0,0,0,0,0,-1,615,421,0,0
-602,603,0,0,0,0,0,0,0,0,0,-1,622,421,0,0
-595,603,0,0,0,0,0,0,0,0,0,-1,629,421,0,0
-588,603,0,0,0,0,0,0,0,0,0,-1,636,421,0,0
-581,603,0,0,0,0,0,0,0,0,0,-1,643,421,0,0
-574,603,0,0,0,0,0,0,0,0,0,-1,650,421,0,0
-567,603,0,0,0,0,0,0,0,0,0,-1,657,421,0,0
-560,603,0,0,0,0,0,0,0,0,0,-1,664,421,0,0
-553,603,0,0,0,0,0,0,0,0,0,-1,671,421,0,0
-546,603,0,0,0,0,0,0,0,0,0,-1,678,421,0,0
-539,603,0,0,0,0,0,0,0,0,0,-1,685,421,0,0
-532,603,0,0,0,0,0,0,0,0,0,-1,692,421,0,0
-525,603,0,0,0,0,0,0,0,0,0,-1,699,421,0,0
-518,603,0,0,0,0,0,0,0,0,0,-1,706,421,0,0
-511,603,0,0,0,0,0,0,0,0,0,-1,713,421,0,0
-504,603,0,0,0,0,0,0,0,0,0,-1,720,421,0,0
-497,603,0,0,0,0,0,0,0,0,0,-1,727,421,0,0
-490,603,0,0,0,0,0,0,0,0,0,-1,734,421,0,0
-483,603,0,0,0,0,0,0,0,0,0,-1,741,421,0,0
-476,603,0,0,0,0,0,0,0,0,0,-1,748,421,0,0
-469,603,0,0,0,0,0,0,0,0,0,-1,755,421,0,0
-462,603,0,0,0,0,0,0,0,0,0,-1,762,421,0,0
-455,603,0,0,0,0,0,0,0,0,0,-1,769,421,0,0
-448,603,0,0,0,0,0,0,0,0,0,-1,776,421,0,0
-441,603,0,0,0,0,0,0,0,0,0,-1,783,421,0,0
-434,603,0,0,0,0,0,0,0,0,0,-1,790,421,0,0
-427,603,0,0,0,0,0,0,0,0,0,-1,797,421,0,0
-420,603,0,0,0,0,0,0,0,0,0,-1,804,421,0,0
-413,603,0,0,0,0,0,0,0,0,0,-1,811,421,0,0
-406,603,0,0,0,0,0,0,0,0,0,-1,818,421,0,0
-399,603,0,0,0,0,0,0,0,0,0,-1,825,421,0,0
-392,603,0,0,0,0,0,0,0,0,0,-1,832,421,0,0
-385,603,0,0,0,0,0,0,0,0,0,-1,839,421,0,0
-378,603,0,0,0,0,0,0,0,0,0,-1,846,421,0,0
-371,603,0,0,0,0,0,0,0,0,0,-1,853,421,0,0
-364,603,0,0,0,0,0,0,0,0,0,-1,860,421,0,0
-357,603,0,0,0,0,0,0,0,0,0,-1,867,421,0,0
-350,603,0,0,0,0,0,0,0,0,0,-1,874,421,0,0
-343,603,0,0,0,0,0,0,0,0,0,-1,881,421,0,0
-336,603,0,0,0,0,0,0,0,0,0,-1,888,421,0,0
-329,603,1.04974,-4.93927,0,0,0,0,0,0,0,-1,895,421,1.04976,4.93926
-322,603,1.19666,-4.71457,0,0,0,0,0,0,0,-1,902,421,1.19666,4.71455
-315,603,1.34357,-4.48984,0,0,0,0,0,0,0,-1,909,421,1.34355,4.48985
-308,603,2.84924,-4.99579,0,0,0,0,0,0,0,-1,916,421,2.84923,4.99578
-301,603,1.46887,-5.05542,0,0,0,0,0,0,0,-1,923,421,1.46886,5.05542
-294,603,1.29199,-5.3017,0,0,0,0,0,0,0,-1,930,421,1.29199,5.3017
-287,603,1.96631,-5.00256,0,0,0,0,0,0,0,-1,937,421,1.96633,5.00256
-280,603,2.3551,-4.38757,0,0,0,0,0,0,0,-1,944,421,2.35511,4.38757
-273,603,2.30811,-4.42764,-0.0172383,-0.0104575,-0.00909218,-0.00414416,-0.0235517,-0.96386,0.0145182,0.0478476,951,421,2.30812,4.42765
-266,603,2.3382,-4.18008,-0.0161575,-0.00823213,-0.00942968,-0.00196635,-0.0224233,-0.984313,0.0143384,0.0472172,958,421,2.33822,4.18007
-259,603,2.41107,-3.89188,0,0,0,0,0,0,0,-1,965,421,2.41105,3.89186
-252,603,2.05573,-4.80603,-0.014287,-0.00488175,-0.00980992,0.00129448,-0.0204632,-1.0089,0.0140935,0.0374347,972,421,2.0557,4.80604
-245,603,2.05969,-4.90756,-0.0131775,-0.00368872,-0.0095394,0.00222095,-0.0190872,-1.01616,0.013526,0.0290446,979,421,2.05968,4.90755
-238,603,2.09808,-4.95047,-0.0118522,-0.00286202,-0.00902006,0.00272096,-0.0174352,-1.01656,0.0126285,0.0168191,986,421,2.09806,4.95046
-231,603,2.06506,-5.06851,-0.0101416,-0.00284899,-0.00851904,0.00277129,-0.0157619,-0.98761,0.0115431,0.0118016,993,421,2.06509,5.06851
-224,603,2.03387,-5.17596,-0.00823836,-0.00251335,-0.00744366,0.00259924,-0.0133509,-0.968959,0.00988165,0.012644,1000,421,2.03386,5.17597
-217,603,2.03381,-5.23447,-0.00661689,-0.00221162,-0.00639765,0.00235194,-0.0111805,-0.951187,0.00834879,0.0114825,1007,421,2.03381,5.23447
-210,603,2.04559,-5.30753,-0.00499879,-0.00203931,-0.00518191,0.00186999,-0.00890809,-0.924476,0.00665028,0.00941492,1014,421,2.04562,5.30752
-203,603,2.06372,-5.41821,-0.00370297,-0.00149234,-0.00386978,0.00142689,-0.0066222,-0.924507,0.00495933,0.0144002,1021,421,2.06372,5.4182
-196,603,2.07861,-5.5354,-0.00282713,-0.00109098,-0.00290813,0.00107587,-0.00499398,-0.930438,0.00373989,0.0158276,1028,421,2.07864,5.53541
-189,603,2.05554,-5.58084,-0.00188927,-0.000853277,-0.00206928,0.000761852,-0.0035044,-0.908042,0.0026273,0.0137849,1035,421,2.05559,5.58085
-182,603,2.03113,-5.66394,-0.0010005,-0.000721157,-0.00118191,0.000329304,-0.00205097,-0.844213,0.00148926,0.0104839,1042,421,2.03118,5.66395
-175,603,2.02991,-5.72333,-0.000416904,-0.000441634,-0.000495231,6.61157e-05,-0.000924654,-0.772917,0.000639615,0.0103347,1049,421,2.02995,5.72333
-168,603,2.02637,-5.76392,-0.000218901,-0.000378198,-1.84001e-05,-0.000216803,-0.000380296,-0.113516,0.000220282,0.0128276,1056,421,2.02636,5.76391
-161,603,2.02893,-5.87323,-0.000131876,-0.000360069,-0.000290274,6.59196e-05,-0.000557865,-0.598142,0.000395718,0.0118886,1063,421,2.02891,5.87324
-154,603,2.0321,-5.96857,0.000338049,-0.000402069,-0.000667724,0.000731403,-0.000795422,-0.532363,0.000881771,0.0105842,1070,421,2.03212,5.96857
-147,603,2.03003,-5.99963,0.00102344,-0.000668931,-0.000954169,0.00145258,-0.00109808,-0.422653,0.00147736,0.0118742,1077,421,2.03002,5.99963
-140,603,2.03406,-6.03806,0.00199437,-0.00117468,-0.0011865,0.00238937,-0.00156967,-0.321369,0.00230203,0.0105889,1084,421,2.03411,6.03807
-133,603,2.02905,-6.10419,0.00294416,-0.00191855,-0.00151672,0.00337845,-0.00235285,-0.278875,0.00332658,0.0108747,1091,421,2.02908,6.1042
-126,603,2.02893,-6.14441,0.00372564,-0.00261886,-0.00173339,0.00416834,-0.00306155,-0.250047,0.00419045,0.0101968,1098,421,2.02895,6.1444
-119,603,2.03992,-6.19446,0.0042694,-0.00336436,-0.00248324,0.0050061,-0.00410105,-0.288397,0.00526666,0.0104651,1105,421,2.03997,6.19446
-112,603,2.04517,-6.25186,0.00492498,-0.00411933,-0.00318162,0.00593208,-0.00512643,-0.306557,0.00639028,0.0145821,1112,421,2.0452,6.25188
-105,603,2.0481,-6.33554,0.00538535,-0.00465333,-0.00401134,0.00679132,-0.0060593,-0.33712,0.00742332,0.0141805,1119,421,2.04805,6.33555
-98,603,2.052,-6.37921,0.00556929,-0.00513009,-0.00488015,0.00746081,-0.00702161,-0.369765,0.00836271,0.0112495,1126,421,2.05197,6.3792
-91,603,2.05786,-6.41412,0.00548314,-0.00537761,-0.00597672,0.00812805,-0.00802252,-0.416629,0.0093246,0.00824737,1133,421,2.05782,6.41412
-84,603,2.07422,-6.46393,0.0050258,-0.00524043,-0.00704463,0.00860909,-0.00882372,-0.470548,0.0100651,0.00868422,1140,421,2.07423,6.46392
-77,603,2.08569,-6.51929,0.00429237,-0.00488045,-0.00814243,0.00905125,-0.00963932,-0.52891,0.0107928,0.00919645,1147,421,2.08569,6.51928
-70,603,2.10376,-6.59897,0.00350781,-0.00460827,-0.00891756,0.00924725,-0.0103477,-0.571871,0.0113191,0.0143964,1154,421,2.1037,6.59896
-63,603,2.10828,-6.65091,0.00273987,-0.00417388,-0.00951595,0.00940738,-0.0108414,-0.611174,0.0117004,0.0246409,1161,421,2.10829,6.65091
-56,603,2.06372,-6.80481,0.00231779,-0.00326991,-0.0106392,0.0105239,-0.011476,-0.656998,0.0127056,0.0332363,1168,421,2.0637,6.8048
-49,603,2.01013,-6.83649,0.00235906,-0.00259773,-0.0113927,0.0115399,-0.0117785,-0.678296,0.0134631,0.0397955,1175,421,2.01019,6.83648
-42,603,2.05811,-6.75186,0,0,0,0,0,0,0,-1,1182,421,2.05805,6.75187
-35,603,2.06494,-6.69193,0.00547437,0.0026279,-0.0157429,0.0198582,-0.011756,-0.740318,0.0184512,0.0333386,1189,421,2.06494,6.69192
-28,603,2.06714,-6.69458,0.00664277,0.00586729,-0.0179554,0.0242147,-0.0117046,-0.774603,0.0211531,0.0206128,1196,421,2.06713,6.69457
-21,603,2.10083,-6.73505,0.00865199,0.00661302,-0.018751,0.0264112,-0.0111462,-0.75824,0.0222727,0.0197667,1203,421,2.10088,6.73504
-14,603,2.14392,-6.74124,0.0106528,0.0160487,-0.0183371,0.0318853,-0.0051838,-0.85844,0.0231788,0.0199982,1210,421,2.14392,6.74125
-7,603,2.1687,-6.75546,0.0116639,0.0185811,-0.0179028,0.0333563,-0.00311129,-0.880817,0.0233439,0.0215819,1217,421,2.16872,6.75545
0,603,2.20398,-6.79633,0.0127357,0.0201653,-0.0174655,0.0343066,-0.00140569,-0.890184,0.0233537,0.0235229,1224,421,2.20393,6.79631
7,603,2.2312,-6.7652,0.0130596,0.020622,-0.0174024,0.0346493,-0.000967685,-0.892377,0.0234287,0.0270183,1231,421,2.23124,6.76521
14,603,2.25146,-6.75031,0.0132825,0.0207287,-0.016439,0.0338609,0.00015022,-0.896759,0.022524,0.0254905,1238,421,2.25147,6.75031
21,603,2.25562,-6.80276,0.0138733,0.0203679,-0.015507,0.0329639,0.00127725,-0.888612,0.0215628,0.0200524,1245,421,2.25557,6.80275
28,603,2.2854,-6.81821,0.0140643,0.018808,-0.0142655,0.0308975,0.00197485,-0.867778,0.0199726,0.0234982,1252,421,2.28543,6.8182
35,603,2.33936,-6.8298,0.0139561,0.0164808,-0.0130223,0.0283018,0.00213511,-0.833716,0.018198,0.0316203,1259,421,2.33942,6.8298
42,603,2.30469,-6.81268,0.0135544,0.0133253,-0.0117248,0.0251652,0.00171443,-0.780514,0.0162355,0.0287902,1266,421,2.30472,6.81269
49,603,2.29382,-6.82935,0.0126512,0.00941935,-0.0102665,0.0214282,0.000642339,-0.707341,0.0140762,0.0156587,1273,421,2.29379,6.82936
56,603,2.26184,-6.80215,0.0113314,0.00532641,-0.00932215,0.0181226,-0.00146485,-0.629603,0.0125985,0.0265555,1280,421,2.2618,6.80216
63,603,2.24084,-6.73523,0.00919873,0.00133529,-0.00835907,0.0145046,-0.00397054,-0.565573,0.0112297,0.0353664,1287,421,2.24081,6.73523
70,603,2.2179,-6.6662,0.00662791,-0.0022555,-0.00757016,0.0109632,-0.00659082,-0.520092,0.0102391,0.0410644,1294,421,2.21787,6.66618
77,603,2.38708,-6.63004,0.00414072,-0.00526099,-0.00693792,0.00782036,-0.00894064,-0.487645,0.00968417,0.0455397,1301,421,2.38711,6.63002
84,603,2.50696,-6.58865,0.00128536,-0.00756359,-0.00672775,0.00491313,-0.0111914,-0.494532,0.00953053,0.0441132,1308,421,2.50694,6.58864
91,603,2.32715,-6.61115,-0.00170006,-0.0115344,-0.00639719,0.00145138,-0.0146859,-0.457733,0.0103085,0.0441352,1315,421,2.32712,6.61115
98,603,2.31567,-6.73645,-0.00475327,-0.0122103,-0.00612749,-0.00130907,-0.0156545,-0.512078,0.0100285,0.0441412,1322,421,2.31566,6.73646
105,603,2.38562,-6.67639,-0.00732389,-0.0124827,-0.00563325,-0.00370757,-0.016099,-0.570702,0.00973504,0.0370464,1329,421,2.38568,6.67639
112,603,2.43433,-6.67279,-0.00891825,-0.012462,-0.004736,-0.00563353,-0.0157467,-0.606394,0.00921319,0.031047,1336,421,2.43435,6.67279
119,603,2.38293,-6.69345,-0.0102596,-0.0128097,-0.00419013,-0.00715484,-0.0159145,-0.637698,0.00920381,0.0331185,1343,421,2.3829,6.69347
126,603,2.4353,-6.6604,-0.0108799,-0.0130432,-0.00352851,-0.00827099,-0.0156522,-0.63667,0.00904164,0.0389364,1350,421,2.43532,6.66039
133,603,2.47986,-6.61737,-0.0104326,-0.0130442,-0.00299474,-0.00847134,-0.0150055,-0.579806,0.00868743,0.0340715,1357,421,2.47986,6.61738
140,603,2.45618,-6.5943,-0.0091559,-0.0124285,-0.00250921,-0.00779659,-0.0137878,-0.496469,0.0079831,0.0211766,1364,421,2.45614,6.5943
147,603,2.40027,-6.5882,-0.00745879,-0.0115118,-0.002026,-0.00661974,-0.0123508,-0.392639,0.00713689,0.0159544,1371,421,2.40029,6.58819
154,603,2.37671,-6.56238,-0.00551921,-0.00996684,-0.00172092,-0.00493111,-0.010555,-0.329298,0.00609828,0.02438,1378,421,2.3767,6.56237
161,603,2.37329,-6.50806,-0.00362116,-0.00816071,-0.000797433,-0.00348516,-0.00829672,-0.168928,0.00481047,0.0288803,1385,421,2.37326,6.50804
168,603,2.42395,-6.44983,-0.00111671,-0.00570335,-9.47674e-06,-0.00111669,-0.00570337,-0.00206615,0.00349008,0.0270696,1392,421,2.42391,6.44982
175,603,2.51208,-6.38666,0.00129024,-0.00383586,0.00114826,0.0015357,-0.00408132,0.210597,0.00335216,0.0266415,1399,421,2.5121,6.38666
182,603,2.58362,-6.35895,0.00167252,-0.00283962,0.00115542,0.00195118,-0.00311828,0.236655,0.00295259,0.0276243,1406,421,2.58361,6.35894
189,603,2.58447,-6.29535,0.00180451,-0.00151945,0.000854903,0.0020115,-0.00172644,0.237546,0.00216019,0.0225478,1413,421,2.58451,6.29534
196,603,2.50952,-6.26053,0.00191144,-0.000381359,0.000740288,0.00212968,-0.000599605,0.286691,0.00165624,0.0181507,1420,421,2.50951,6.26053
203,603,2.46997,-6.24002,0.00197336,0.000455769,0.000615261,0.00219145,0.000237673,0.340658,0.00138854,0.0104139,1427,421,2.46998,6.24001
210,603,2.49011,-6.20886,0.00170778,0.00101779,0.000374199,0.00187175,0.000853815,0.412991,0.00108204,0.00946717,1434,421,2.49014,6.20886
217,603,2.47144,-6.13278,0.00140325,0.00131181,9.94085e-05,0.00146695,0.00124811,0.569856,0.000913796,0.0127115,1441,421,2.47143,6.13277
224,603,2.46655,-6.05609,0.00113117,0.00140066,7.23836e-05,0.00141887,0.00111296,1.32432,0.000862229,0.016234,1448,421,2.4666,6.0561
231,603,2.48486,-6.00885,0.000892734,0.00140223,7.52538e-05,0.00141311,0.000881852,1.42718,0.000824187,0.014075,1455,421,2.48485,6.00886
238,603,2.50732,-5.95248,0.000730401,0.00130407,5.44748e-05,0.0013092,0.000725274,1.47696,0.000757333,0.0103253,1462,421,2.50731,5.9525
245,603,2.51624,-5.87558,0.000614003,0.0011602,-2.49418e-05,0.00116134,0.000612867,-1.52526,0.000670841,0.0110799,1469,421,2.51624,5.87559
252,603,2.54492,-5.82037,0.000594708,0.000956533,-9.30724e-05,0.000979071,0.000572171,-1.33322,0.000567945,0.009962,1476,421,2.54494,5.82038
259,603,2.54285,-5.75882,0.00064074,0.000720026,-9.42228e-05,0.000782606,0.00057816,-0.984526,0.000468695,0.0101509,1483,421,2.5428,5.75883
266,603,2.51184,-5.68622,0.000658555,0.000470586,-0.000130469,0.000725366,0.000403775,-0.473268,0.000419685,0.0109658,1490,421,2.51186,5.68623
273,603,2.52039,-5.61215,0.000656709,0.000229442,-0.000120311,0.000688257,0.000197894,-0.256448,0.00040915,0.00980245,1497,421,2.52044,5.61214
280,603,2.54028,-5.53061,0.000773015,2.12268e-05,4.19415e-05,0.000775347,1.88942e-05,0.0555592,0.000510717,0.0111181,1504,421,2.54023,5.5306
287,603,2.5426,-5.4425,0.000977473,-1.42388e-05,0.000331727,0.0010782,-0.00011497,0.294808,0.00076003,0.0106774,1511,421,2.54265,5.4425
294,603,2.53345,-5.36014,0.00127088,-9.16231e-05,0.000621002,0.00151145,-0.000332189,0.369582,0.00113469,0.0101923,1518,421,2.5335,5.36013
301,603,2.5365,-5.28632,0.00156861,-5.59566e-06,0.000940073,0.00200758,-0.000444572,0.436868,0.00150858,0.0122219,1525,421,2.53655,5.28631
308,603,2.55933,-5.20331,0.00181163,3.56151e-05,0.00133885,0.0025302,-0.000682951,0.492577,0.00195463,0.0170536,1532,421,2.55929,5.2033
315,603,2.55286,-5.12018,0.00213745,0.00018761,0.00172369,0.00314283,-0.000817768,0.528027,0.00241442,0.0144579,1539,421,2.55285,5.12019
322,603,2.5376,-5.01215,0.00290156,-5.98746e-05,0.0021707,0.00404847,-0.00120679,0.486079,0.00317855,0.0133026,1546,421,2.53759,5.01214
329,603,2.51624,-4.91574,0.00342881,-0.000134851,0.00250788,0.0047234,-0.00142944,0.476531,0.00371816,0.0103775,1553,421,2.51628,4.91575
336,603,2.51111,-4.82907,0.00404204,-0.00032394,0.0028217,0.0054266,-0.0017085,0.456167,0.00430185,0.00900591,1560,421,2.51115,4.82906
343,603,2.5282,-4.73544,0.0048518,-0.00054911,0.0031763,0.00632044,-0.00201775,0.433096,0.00502316,0.0104352,1567,421,2.52815,4.73544
350,603,2.53479,-4.63913,0.00572595,-0.000588882,0.00353119,0.00730547,-0.0021684,0.420611,0.00573151,0.0132293,1574,421,2.53477,4.63913
357,603,2.52844,-4.51904,0.00635897,-0.000764002,0.00368814,0.00792453,-0.00232956,0.401434,0.00620701,0.013562,1581,421,2.52841,4.51904
364,603,2.52148,-4.40359,0.00720925,-0.00123364,0.00379078,0.00866148,-0.00268587,0.365849,0.0068475,0.0148227,1588,421,2.52147,4.4036
371,603,2.54639,-4.2944,0.00798796,-0.00184524,0.00367594,0.00921021,-0.00306749,0.321,0.00737834,0.0197923,1595,421,2.54635,4.29441
378,603,2.54126,-4.21204,0.0086649,-0.00231014,0.00373684,0.00981642,-0.00346166,0.29892,0.00795337,0.029468,1602,421,2.54125,4.21205
385,603,2.57617,-4.07556,0.00865896,-0.00198419,0.00381642,0.00988599,-0.00321122,0.311075,0.00788221,0.0448102,1609,421,2.57615,4.07555
392,603,2.57593,-3.9339,0,0,0,0,0,0,0,-1,1616,421,2.57598,3.93389
399,603,2.39124,-3.67511,0,0,0,0,0,0,0,-1,1623,421,2.39119,3.67512
406,603,3.01917,-2.37219,0,0,0,0,0,0,0,-1,1630,421,3.01915,2.37219
413,603,2.38928,-2.41275,0,0,0,0,0,0,0,-1,1637,421,2.38926,2.41274
420,603,2.74866,-2.30066,0,0,0,0,0,0,0,-1,1644,421,2.74867,2.30065
427,603,7.11548,-3.35352,0,0,0,0,0,0,0,-1,1651,421,7.11549,3.35351
434,603,7.32153,-4.50525,0,0,0,0,0,0,0,-1,1658,421,7.32149,4.50525
441,603,3.18213,-0.250946,0,0,0,0,0,0,0,-1,1665,421,3.18212,0.250944
448,603,2.95667,-0.066925,0,0,0,0,0,0,0,-1,1672,421,2.95662,0.0669226
455,603,0,0,0,0,0,0,0,0,0,-1,1679,421,0,0
462,603,0,0,0,0,0,0,0,0,0,-1,1686,421,0,0
469,603,0,0,0,0,0,0,0,0,0,-1,1693,421,0,0
476,603,0,0,0,0,0,0,0,0,0,-1,1700,421,0,0
483,603,0,0,0,0,0,0,0,0,0,-1,1707,421,0,0
490,603,0,0,0,0,0,0,0,0,0,-1,1714,421,0,0
497,603,0,0,0,0,0,0,0,0,0,-1,1721,421,0,0
504,603,0,0,0,0,0,0,0,0,0,-1,1728,421,0,0
511,603,0,0,0,0,0,0,0,0,0,-1,1735,421,0,0
518,603,0,0,0,0,0,0,0,0,0,-1,1742,421,0,0
525,603,0,0,0,0,0,0,0,0,0,-1,1749,421,0,0
532,603,0,0,0,0,0,0,0,0,0,-1,1756,421,0,0
539,603,0,0,0,0,0,0,0,0,0,-1,1763,421,0,0
546,603,0,0,0,0,0,0,0,0,0,-1,1770,421,0,0
553,603,0,0,0,0,0,0,0,0,0,-1,1777,421,0,0
560,603,0,0,0,0,0,0,0,0,0,-1,1784,421,0,0
567,603,0,0,0,0,0,0,0,0,0,-1,1791,421,0,0
574,603,0,0,0,0,0,0,0,0,0,-1,1798,421,0,0
581,603,0,0,0,0,0,0,0,0,0,-1,1805,421,0,0
588,603,0,0,0,0,0,0,0,0,0,-1,1812,421,0,0
595,603,0,0,0,0,0,0,0,0,0,-1,1819,421,0,0
602,603,0,0,0,0,0,0,0,0,0,-1,1826,421,0,0
609,603,0,0,0,0,0,0,0,0,0,-1,1833,421,0,0
616,603,0,0,0,0,0,0,0,0,0,-1,1840,421,0,0
623,603,0,0,0,0,0,0,0,0,0,-1,1847,421,0,0
630,603,0,0,0,0,0,0,0,0,0,-1,1854,421,0,0
637,603,0,0,0,0,0,0,0,0,0,-1,1861,421,0,0
644,603,0,0,0,0,0,0,0,0,0,-1,1868,421,0,0
651,603,0,0,0,0,0,0,0,0,0,-1,1875,421,0,0
658,603,0,0,0,0,0,0,0,0,0,-1,1882,421,0,0
665,603,0,0,0,0,0,0,0,0,0,-1,1889,421,0,0
672,603,0,0,0,0,0,0,0,0,0,-1,1896,421,0,0
679,603,0,0,0,0,0,0,0,0,0,-1,1903,421,0,0
686,603,0,0,0,0,0,0,0,0,0,-1,1910,421,0,0
693,603,0,0,0,0,0,0,0,0,0,-1,1917,421,0,0
700,603,0,0,0,0,0,0,0,0,0,-1,1924,421,0,0
707,603,0,0,0,0,0,0,0,0,0,-1,1931,421,0,0
714,603,0,0,0,0,0,0,0,0,0,-1,1938,421,0,0
721,603,0,0,0,0,0,0,0,0,0,-1,1945,421,0,0
728,603,0,0,0,0,0,0,0,0,0,-1,1952,421,0,0
735,603,0,0,0,0,0,0,0,0,0,-1,1959,421,0,0
742,603,0,0,0,0,0,0,0,0,0,-1,1966,421,0,0
749,603,0,0,0,0,0,0,0,0,0,-1,1973,421,0,0
756,603,0,0,0,0,0,0,0,0,0,-1,1980,421,0,0
763,603,0,0,0,0,0,0,0,0,0,-1,1987,421,0,0
770,603,0,0,0,0,0,0,0,0,0,-1,1994,421,0,0
777,603,0,0,0,0,0,0,0,0,0,-1,2001,421,0,0
784,603,0,0,0,0,0,0,0,0,0,-1,2008,421,0,0
791,603,0,0,0,0,0,0,0,0,0,-1,2015,421,0,0
798,603,0,0,0,0,0,0,0,0,0,-1,2022,421,0,0
805,603,0,0,0,0,0,0,0,0,0,-1,2029,421,0,0
812,603,0,0,0,0,0,0,0,0,0,-1,2036,421,0,0
-700,596,0,0,0,0,0,0,0,0,0,-1,524,428,0,0
-693,596,0,0,0,0,0,0,0,0,0,-1,531,428,0,0
-686,596,0,0,0,0,0,0,0,0,0,-1,538,428,0,0
-679,596,0,0,0,0,0,0,0,0,0,-1,545,428,0,0
-672,596,0,0,0,0,0,0,0,0,0,-1,552,428,0,0
-665,596,0,0,0,0,0,0,0,0,0,-1,559,428,0,0
-658,596,0,0,0,0,0,0,0,0,0,-1,566,428,0,0
-651,596,0,0,0,0,0,0,0,0,0,-1,573,428,0,0
-644,596,0,0,0,0,0,0,0,0,0,-1,580,428,0,0
-637,596,0,0,0,0,0,0,0,0,0,-1,587,428,0,0
-630,596,0,0,0,0,0,0,0,0,0,-1,594,428,0,0
-623,596,0,0,0,0,0,0,0,0,0,-1,601,428,0,0
-616,596,0,0,0,0,0,0,0,0,0,-1,608,428,0,0
-609,596,0,0,0,0,0,0,0,0,0,-1,615,428,0,0
-602,596,0,0,0,0,0,0,0,0,0,-1,622,428,0,0
-595,596,0,0,0,0,0,0,0,0,0,-1,629,428,0,0
-588,596,0,0,0,0,0,0,0,0,0,-1,636,428,0,0
-581,596,0,0,0,0,0,0,0,0,0,-1,643,428,0,0
-574,596,0,0,0,0,0,0,0,0,0,-1,650,428,0,0
-567,596,0,0,0,0,0,0,0,0,0,-1,657,428,0,0
-560,596,0,0,0,0,0,0,0,0,0,-1,664,428,0,0
-553,596,0,0,0,0,0,0,0,0,0,-1,671,428,0,0
-546,596,0,0,0,0,0,0,0,0,0,-1,678,428,0,0
-539,596,0,0,0,0,0,0,0,0,0,-1,685,428,0,0
-532,596,0,0,0,0,0,0,0,0,0,-1,692,428,0,0
-525,596,0,0,0,0,0,0,0,0,0,-1,699,428,0,0
-518,596,0,0,0,0,0,0,0,0,0,-1,706,428,0,0
-511,596,0,0,0,0,0,0,0,0,0,-1,713,428,0,0
-504,596,0,0,0,0,0,0,0,0,0,-1,720,428,0,0
-497,596,0,0,0,0,0,0,0,0,0,-1,727,428,0,0
-490,596,0,0,0,0,0,0,0,0,0,-1,734,428,0,0
-483,596,0,0,0,0,0,0,0,0,0,-1,741,428,0,0
-476,596,0,0,0,0,0,0,0,0,0,-1,748,428,0,0
-469,596,0,0,0,0,0,0,0,0,0,-1,755,428,0,0
-462,596,0,0,0,0,0,0,0,0,0,-1,762,428,0,0
-455,596,0,0,0,0,0,0,0,0,0,-1,769,428,0,0
-448,596,0,0,0,0,0,0,0,0,0,-1,776,428,0,0
-441,596,0,0,0,0,0,0,0,0,0,-1,783,428,0,0
-434,596,0,0,0,0,0,0,0,0,0,-1,790,428,0,0
-427,596,0,0,0,0,0,0,0,0,0,-1,797,428,0,0
-420,596,0,0,0,0,0,0,0,0,0,-1,804,428,0,0
-413,596,0,0,0,0,0,0,0,0,0,-1,811,428,0,0
-406,596,0,0,0,0,0,0,0,0,0,-1,818,428,0,0
-399,596,0,0,0,0,0,0,0,0,0,-1,825,428,0,0
-392,596,0,0,0,0,0,0,0,0,0,-1,832,428,0,0
-385,596,0,0,0,0,0,0,0,0,0,-1,839,428,0,0
-378,596,0,0,0,0,0,0,0,0,0,-1,846,428,0,0
-371,596,0,0,0,0,0,0,0,0,0,-1,853,428,0,0
-364,596,0,0,0,0,0,0,0,0,0,-1,860,428,0,0
-357,596,0,0,0,0,0,0,0,0,0,-1,867,428,0,0
-350,596,0,0,0,0,0,0,0,0,0,-1,874,428,0,0
-343,596,0,0,0,0,0,0,0,0,0,-1,881,428,0,0
-336,596,0.519226,-7.64587,0,0,0,0,0,0,0,-1,888,428,0.519246,7.64587
-329,596,1.81506,-4.80432,0,0,0,0,0,0,0,-1,895,428,1.81509,4.80431
-322,596,1.40631,-4.75235,0,0,0,0,0,0,0,-1,902,428,1.40628,4.75234
-315,596,1.19189,-4.71411,0,0,0,0,0,0,0,-1,909,428,1.19187,4.71412
-308,596,1.60883,-4.66666,0,0,0,0,0,0,0,-1,916,428,1.60883,4.66664
-301,596,1.5174,-4.82455,-0.0152296,-0.0300771,-0.012198,-0.00837389,-0.0369328,-0.512036,0.0223595,0.0490113,923,428,1.51741,4.82455
-294,596,1.45398,-5.05487,-0.0136526,-0.022621,-0.00791976,-0.0090357,-0.027238,-0.527799,0.0160199,0.0475484,930,428,1.45395,5.05488
-287,596,2.30902,-3.5181,0,0,0,0,0,0,0,-1,937,428,2.30903,3.51809
-280,596,2.25153,-4.37064,0,0,0,0,0,0,0,-1,944,428,2.25153,4.37064
-273,596,2.15674,-4.46396,-0.0112375,-0.00720819,-0.00570887,-0.00316893,-0.0152768,-0.955027,0.00930977,0.0423847,951,428,2.15676,4.46397
-266,596,2.07489,-4.48495,-0.0103952,-0.00551916,-0.00601411,-0.0014677,-0.0144467,-0.977969,0.00918108,0.0416309,958,428,2.07492,4.48497
-259,596,2.008,-4.64343,-0.0097676,-0.00418122,-0.0061745,-0.000197514,-0.0137513,-0.997812,0.00910241,0.0338642,965,428,2.00798,4.64343
-252,596,2.01648,-4.79465,-0.00910602,-0.00310226,-0.00638435,0.000950731,-0.013159,-1.00516,0.00910615,0.0155269,972,428,2.01647,4.79466
-245,596,1.99689,-4.89395,-0.00836348,-0.00226358,-0.00629574,0.00168208,-0.0123091,-1.01096,0.00882041,0.0112576,979,428,1.99689,4.89394
-238,596,1.98535,-4.97391,-0.00752628,-0.00167148,-0.00605665,0.00212813,-0.0113259,-1.01051,0.00835085,0.0102013,986,428,1.98535,4.9739
-231,596,1.9729,-5.08325,-0.00634813,-0.00186111,-0.00582955,0.00214173,-0.010351,-0.969088,0.00771431,0.012599,993,428,1.97288,5.08326
-224,596,1.9671,-5.18811,-0.0049557,-0.00171676,-0.00513621,0.00204924,-0.00872171,-0.938117,0.00660439,0.0132662,1000,428,1.9671,5.18812
-217,596,1.96912,-5.26483,-0.00377808,-0.00156577,-0.00447521,0.00193796,-0.00728182,-0.906557,0.00561318,0.0139618,1007,428,1.96911,5.26483
-210,596,1.98132,-5.34113,-0.00262355,-0.00152583,-0.00368604,0.00165199,-0.00580136,-0.859306,0.00452001,0.0110601,1014,428,1.98131,5.34114
-203,596,1.97278,-5.4183,-0.00174448,-0.00099606,-0.00278404,0.0014388,-0.00417935,-0.852205,0.00336982,0.0125514,1021,428,1.9728,5.41832
-196,596,1.98865,-5.51321,-0.0012089,-0.00053227,-0.00213121,0.00128731,-0.00302848,-0.864112,0.00255843,0.0133872,1028,428,1.98859,5.51321
-189,596,1.97046,-5.57376,-0.000654821,-0.000237734,-0.0015428,0.00111055,-0.00200311,-0.852577,0.00182213,0.0114985,1035,428,1.9705,5.57376
-182,596,1.95679,-5.64255,-0.000134724,-1.13274e-05,-0.000892605,0.00082171,-0.000967761,-0.819904,0.0010343,0.0108744,1042,428,1.95683,5.64254
-175,596,1.96692,-5.6987,0.000192072,0.000321753,-0.000349858,0.000612729,-9.89037e-05,-0.877025,0.000445131,0.0124717,1049,428,1.9669,5.69871
-168,596,1.97778,-5.75827,0.00037975,0.000369884,-5.79637e-05,0.00043299,0.000316644,-0.742951,0.000258749,0.0147414,1056,428,1.97777,5.75827
-161,596,1.96716,-5.86719,0.000641759,0.00027756,-0.000319278,0.000827217,9.21023e-05,-0.526233,0.000523485,0.0131739,1063,428,1.96719,5.86717
-154,596,1.9657,-5.96042,0.00123449,0.000127007,-0.000736744,0.00160239,-0.000240893,-0.463134,0.00115694,0.0108312,1070,428,1.96568,5.96041
-147,596,1.97595,-5.98953,0.00205509,-0.000299491,-0.00105671,0.00245978,-0.000704176,-0.365737,0.00191816,0.0115091,1077,428,1.97596,5.98954
-140,596,1.9834,-6.0311,0.00326415,-0.00122698,-0.00130195,0.00361428,-0.00157711,-0.262712,0.00307321,0.0126103,1084,428,1.98335,6.03108
-133,596,1.97449,-6.10059,0.00458568,-0.00251721,-0.00168135,0.00496358,-0.0028951,-0.221082,0.0045893,0.0129298,1091,428,1.97443,6.10058
-126,596,1.97058,-6.13892,0.00559582,-0.00364629,-0.00220549,0.00609514,-0.00414562,-0.222649,0.00594811,0.0102002,1098,428,1.97064,6.13892
-119,596,1.98352,-6.19772,0.00605339,-0.00474547,-0.00363448,0.00716267,-0.00585475,-0.296229,0.00752825,0.0129323,1105,428,1.98358,6.19772
-112,596,1.98059,-6.26102,0.00654973,-0.0058697,-0.00516781,0.0084188,-0.00773878,-0.347039,0.00933134,0.014897,1112,428,1.98055,6.26101
-105,596,2.01086,-6.32571,0.00667516,-0.00669021,-0.00712316,0.00975965,-0.0097747,-0.408646,0.0112782,0.0149613,1119,428,2.01085,6.32573
-98,596,2.01147,-6.35904,0.00634086,-0.00747046,-0.00919157,0.0109319,-0.0120615,-0.463231,0.0132805,0.00938313,1126,428,2.01144,6.35905
-91,596,2.00903,-6.40268,0.00545861,-0.00781005,-0.0118044,0.0123652,-0.0147167,-0.529384,0.0156554,0.00944883,1133,428,2.00899,6.40266
-84,596,2.03979,-6.48801,0.00400483,-0.0075423,-0.0145398,0.0138754,-0.0174129,-0.596402,0.0181028,0.0146008,1140,428,2.03977,6.48801
-77,596,2.05151,-6.55817,0.00218257,-0.00695637,-0.0174273,0.0156295,-0.0204033,-0.657184,0.0208644,0.0191138,1147,428,2.05156,6.55815
-70,596,2.04187,-6.71179,0.000472225,-0.00649644,-0.0197094,0.0170029,-0.0230271,-0.697909,0.0231984,0.03111,1154,428,2.04184,6.7118
-63,596,2.09998,-6.82614,0,0,0,0,0,0,0,-1,1161,428,2.09999,6.82615
-56,596,1.99036,-7.09402,0,0,0,0,0,0,0,-1,1168,428,1.99031,7.09401
-49,596,1.79126,-7.34332,0,0,0,0,0,0,0,-1,1175,428,1.79129,7.34332
-42,596,1.99585,-6.6246,0,0,0,0,0,0,0,-1,1182,428,1.99586,6.62459
-35,596,1.84155,-6.59305,0,0,0,0,0,0,0,-1,1189,428,1.84152,6.59304
-28,596,1.953,-6.6402,0,0,0,0,0,0,0,-1,1196,428,1.95303,6.64019
-21,596,1.98145,-6.56772,0.0111619,0.00856164,-0.0332452,0.0431324,-0.0234088,-0.765854,0.0389761,0.0484709,1203,428,1.98151,6.56771
-14,596,2.07813,-6.64905,0.014767,0.0223765,-0.0312144,0.0500172,-0.0128737,-0.846044,0.0383629,0.0473554,1210,428,2.07817,6.64905
-7,596,2.45996,-6.91635,0.0164286,0.0266615,-0.0290816,0.0510733,-0.00798324,-0.872475,0.0369982,0.0496779,1217,428,2.46001,6.91635
0,596,2.37756,-6.94766,0.0177536,0.029885,-0.0272752,0.0517608,-0.00412218,-0.894812,0.0359601,0.0486858,1224,428,2.37757,6.94767
7,596,2.44092,-6.90524,0.017845,0.0313834,-0.0261875,0.0516624,-0.00243402,-0.911875,0.0352809,0.0423666,1231,428,2.44089,6.90523
14,596,2.54187,-6.67255,0.0177696,0.0322544,-0.02404,0.0501193,-9.53022e-05,-0.931706,0.0334446,0.0404914,1238,428,2.54185,6.67254
21,596,2.40942,-6.74332,0.01812,0.0324741,-0.0219829,0.0484219,0.0021722,-0.943185,0.0315821,0.0427692,1245,428,2.40939,6.74332
28,596,2.31445,-6.75537,0.0179593,0.0309601,-0.0195447,0.0450571,0.00386231,-0.94594,0.028837,0.0445186,1252,428,2.31451,6.75536
35,596,2.35669,-6.72473,0.0175399,0.0280694,-0.0172009,0.0407932,0.00481606,-0.933909,0.0257408,0.0449272,1259,428,2.35673,6.72472
42,596,2.43445,-6.78064,0.0167526,0.0238508,-0.0149074,0.0356257,0.00497767,-0.902261,0.0222774,0.0470701,1266,428,2.43448,6.78065
49,596,2.75391,-6.86893,0.0152871,0.0185305,-0.0124365,0.0294506,0.00436699,-0.850231,0.0183521,0.0453933,1273,428,2.75392,6.86893
56,596,2.06482,-6.67145,0.0133339,0.0127779,-0.0107599,0.0238194,0.00229246,-0.772482,0.0151733,0.0445203,1280,428,2.06478,6.67146
63,596,2.16174,-6.58804,0.0104418,0.00692345,-0.0093078,0.0181552,-0.000789964,-0.692,0.0123752,0.0463861,1287,428,2.1618,6.58803
70,596,2.2583,-6.45581,0.00708574,0.00158342,-0.00827298,0.013053,-0.00438386,-0.624876,0.0104737,0.0472416,1294,428,2.25829,6.45581
77,596,3.74609,-5.67969,0.00378386,-0.00305922,-0.00746141,0.00857082,-0.00784619,-0.570421,0.00948144,0.0445519,1301,428,3.74607,5.67969
84,596,2.72009,-6.35672,0,0,0,0,0,0,0,-1,1308,428,2.72003,6.35672
91,596,2.31775,-6.42365,0,0,0,0,0,0,0,-1,1315,428,2.31774,6.42364
98,596,2.35901,-6.40854,0,0,0,0,0,0,0,-1,1322,428,2.35905,6.40853
105,596,2.63635,-6.22211,-0.0108489,-0.0144916,-0.00644982,-0.00596824,-0.0193723,-0.647788,0.011456,0.0451426,1329,428,2.63637,6.22211
112,596,2.62183,-6.4274,-0.0128521,-0.0148026,-0.00559408,-0.00814889,-0.0195058,-0.6991,0.0113123,0.0401706,1336,428,2.62186,6.42739
119,596,2.63745,-6.60159,-0.0144148,-0.0154744,-0.0051209,-0.0097964,-0.0200929,-0.733853,0.0116018,0.0428656,1343,428,2.6374,6.60158
126,596,2.70422,-6.61475,-0.0149226,-0.0159704,-0.00454302,-0.0108734,-0.0200196,-0.727992,0.0115727,0.0448889,1350,428,2.70427,6.61474
133,596,2.49976,-6.46075,-0.0142004,-0.0162866,-0.00415261,-0.0109619,-0.0195251,-0.662345,0.0113012,0.0452981,1357,428,2.4998,6.46074
140,596,2.44629,-6.44431,-0.0127915,-0.015724,-0.00376364,-0.0102186,-0.0182969,-0.59965,0.0105878,0.0403824,1364,428,2.44633,6.4443
147,596,2.29724,-6.48834,-0.0108453,-0.0148583,-0.00330252,-0.00898754,-0.0167161,-0.512415,0.00966017,0.0357844,1371,428,2.29721,6.48835
154,596,2.30383,-6.45963,-0.00851914,-0.0130704,-0.0030693,-0.00697389,-0.0146156,-0.466407,0.00844128,0.0430666,1378,428,2.30385,6.45963
161,596,2.37073,-6.383,-0.00616836,-0.010999,-0.0019237,-0.0054959,-0.0116715,-0.336288,0.00674233,0.0470675,1385,428,2.37071,6.38301
168,596,2.41187,-6.31726,0,0,0,0,0,0,0,-1,1392,428,2.41188,6.31727
175,596,2.71753,-6.3233,0,0,0,0,0,0,0,-1,1399,428,2.71748,6.32332
182,596,2.70972,-6.32208,0,0,0,0,0,0,0,-1,1406,428,2.70973,6.32208
189,596,2.65564,-6.26709,0,0,0,0,0,0,0,-1,1413,428,2.65559,6.26708
196,596,2.62988,-6.16321,0,0,0,0,0,0,0,-1,1420,428,2.62983,6.16321
203,596,2.61548,-6.26196,0.00274017,0.000873808,0.00103451,0.0032002,0.000413778,0.418424,0.00200979,0.0291919,1427,428,2.6155,6.26197
210,596,2.51953,-6.20462,0.00239956,0.00156073,0.000623852,0.00273188,0.00122841,0.489452,0.00157991,0.013606,1434,428,2.51948,6.20461
217,596,2.53516,-6.14529,0.00196012,0.00183396,0.000155759,0.00206509,0.001729,0.592997,0.0012795,0.0107655,1441,428,2.53512,6.1453
224,596,2.55164,-6.08328,0.00156406,0.00182362,5.55923e-05,0.00183502,0.00155266,1.36843,0.00114093,0.0116318,1448,428,2.55167,6.08327
231,596,2.58398,-6.01633,0.00121235,0.00168506,-2.01056e-05,0.00168591,0.0012115,-1.52837,0.00100389,0.0116265,1455,428,2.58397,6.01631
238,596,2.58191,-5.94998,0.000984238,0.00138041,-0.000137717,0.00142358,0.000941068,-1.26703,0.000835996,0.0135752,1462,428,2.58187,5.95
245,596,2.59595,-5.89325,0.000810952,0.0011137,-0.000287262,0.00128703,0.00063762,-1.02789,0.000743077,0.0130365,1469,428,2.59596,5.89325
252,596,2.62463,-5.82721,0.000661907,0.000818863,-0.000436065,0.00118346,0.000297315,-0.874429,0.0007109,0.0101916,1476,428,2.62467,5.82721
259,596,2.62524,-5.7515,0.000586307,0.000502786,-0.000485768,0.00103211,5.69866e-05,-0.74252,0.000669884,0.00837339,1483,428,2.62526,5.7515
266,596,2.58276,-5.67245,0.000465217,0.000194996,-0.000636553,0.00098084,-0.000320627,-0.680823,0.000782967,0.00943224,1490,428,2.58276,5.67245
273,596,2.58948,-5.60687,0.000329317,-7.01139e-05,-0.000707717,0.000864958,-0.000605755,-0.647876,0.000853501,0.0111947,1497,428,2.58942,5.60687
280,596,2.61194,-5.53943,0.000283774,-0.000311903,-0.000628688,0.000681606,-0.000709734,-0.564186,0.000803345,0.0121017,1504,428,2.61193,5.53944
287,596,2.62695,-5.46313,0.000342708,-0.000350141,-0.000436517,0.00055356,-0.000560993,-0.449982,0.000643492,0.0110359,1511,428,2.627,5.46314
294,596,2.60571,-5.3689,0.000528396,-0.000437303,-0.000206996,0.000570895,-0.000479802,-0.202499,0.00060738,0.00938163,1518,428,2.60573,5.36888
301,596,2.6073,-5.26901,0.000704937,-0.000357748,2.02312e-05,0.000705322,-0.000358133,0.0190286,0.000624798,0.0104118,1525,428,2.6073,5.26901
308,596,2.63855,-5.18808,0.000831971,-0.000295829,0.000337944,0.000925482,-0.000389341,0.269952,0.000779866,0.0151163,1532,428,2.63859,5.18808
315,596,2.61047,-5.09906,0.0010694,-0.000106959,0.000683033,0.0013826,-0.000420161,0.429938,0.00108915,0.014786,1539,428,2.61044,5.09905
322,596,2.62793,-5.00699,0.00163324,-0.00019803,0.00110689,0.00215413,-0.000718917,0.43984,0.00172636,0.0118991,1546,428,2.62791,5.00697
329,596,2.62146,-4.91721,0.00206419,-0.000222544,0.00144155,0.00276076,-0.000919113,0.450123,0.00221149,0.00936677,1553,428,2.62143,4.91719
336,596,2.599,-4.84195,0.00255121,-0.000275796,0.00176897,0.00340205,-0.00112663,0.448316,0.00272242,0.00913229,1560,428,2.59902,4.84194
343,596,2.60681,-4.75998,0.00313804,-0.000377005,0.00209956,0.00411859,-0.00135756,0.436923,0.00329289,0.011711,1567,428,2.60684,4.75997
350,596,2.62329,-4.64804,0.0037699,-0.000353193,0.00242177,0.00488875,-0.00147205,0.432787,0.00384496,0.0121665,1574,428,2.62331,4.64804
357,596,2.61011,-4.54446,0.00434183,-0.000455967,0.00264887,0.00551662,-0.00163076,0.41744,0.00432505,0.00951895,1581,428,2.61009,4.54447
364,596,2.59741,-4.4364,0.00489289,-0.000669152,0.00279962,0.006058,-0.00183426,0.394365,0.00476915,0.00847758,1588,428,2.59745,4.4364
371,596,2.59949,-4.32336,0.00533432,-0.000974632,0.00284169,0.00642553,-0.00206585,0.366641,0.00511335,0.00893078,1595,428,2.59953,4.32336
378,596,2.63379,-4.21484,0.00561112,-0.00115696,0.00297732,0.00673443,-0.00228026,0.360774,0.00541226,0.0129603,1602,428,2.63383,4.21483
385,596,2.64758,-4.11652,0.00546887,-0.000764527,0.00310174,0.00674928,-0.00204494,0.391496,0.00531399,0.0216701,1609,428,2.64756,4.1165
392,596,2.57629,-3.99039,0.00536132,-0.00057585,0.00309686,0.00668261,-0.00189714,0.403272,0.00520402,0.0339221,1616,428,2.57625,3.9904
399,596,2.5271,-3.81326,0.00512034,0.000380607,0.00366796,0.00711742,-0.00161647,0.498584,0.00536556,0.0456117,1623,428,2.52714,3.81327
406,596,2.58386,-3.60492,0,0,0,0,0,0,0,-1,1630,428,2.58386,3.60491
413,596,3.39124,-2.63528,0,0,0,0,0,0,0,-1,1637,428,3.39122,2.6353
420,596,2.6344,-3.06308,0,0,0,0,0,0,0,-1,1644,428,2.63439,3.06308
427,596,2.99329,-1.90512,0,0,0,0,0,0,0,-1,1651,428,2.99327,1.90512
434,596,3.80896,-0.253998,0,0,0,0,0,0,0,-1,1658,428,3.80902,0.254004
441,596,3.86401,-0.131622,0,0,0,0,0,0,0,-1,1665,428,3.86406,0.131613
448,596,1.0769,0.0083313,0,0,0,0,0,0,0,-1,1672,428,1.07684,-0.00832231
455,596,2.00769,-1.43329,0,0,0,0,0,0,0,-1,1679,428,2.00765,1.4333
462,596,0,0,0,0,0,0,0,0,0,-1,1686,428,0,0
469,596,0,0,0,0,0,0,0,0,0,-1,1693,428,0,0
476,596,0,0,0,0,0,0,0,0,0,-1,1700,428,0,0
483,596,0,0,0,0,0,0,0,0,0,-1,1707,428,0,0
490,596,0,0,0,0,0,0,0,0,0,-1,1714,428,0,0
497,596,0,0,0,0,0,0,0,0,0,-1,1721,428,0,0
504,596,0,0,0,0,0,0,0,0,0,-1,1728,428,0,0
511,596,0,0,0,0,0,0,0,0,0,-1,1735,428,0,0
518,596,0,0,0,0,0,0,0,0,0,-1,1742,428,0,0
525,596,0,0,0,0,0,0,0,0,0,-1,1749,428,0,0
532,596,0,0,0,0,0,0,0,0,0,-1,1756,428,0,0
539,596,0,0,0,0,0,0,0,0,0,-1,1763,428,0,0
546,596,0,0,0,0,0,0,0,0,0,-1,1770,428,0,0
553,596,0,0,0,0,0,0,0,0,0,-1,1777,428,0,0
560,596,0,0,0,0,0,0,0,0,0,-1,1784,428,0,0
567,596,0,0,0,0,0,0,0,0,0,-1,1791,428,0,0
574,596,0,0,0,0,0,0,0,0,0,-1,1798,428,0,0
581,596,0,0,0,0,0,0,0,0,0,-1,1805,428,0,0
588,596,0,0,0,0,0,0,0,0,0,-1,1812,428,0,0
595,596,0,0,0,0,0,0,0,0,0,-1,1819,428,0,0
602,596,0,0,0,0,0,0,0,0,0,-1,1826,428,0,0
609,596,0,0,0,0,0,0,0,0,0,-1,1833,428,0,0
616,596,0,0,0,0,0,0,0,0,0,-1,1840,428,0,0
623,596,0,0,0,0,0,0,0,0,0,-1,1847,428,0,0
630,596,0,0,0,0,0,0,0,0,0,-1,1854,428,0,0
637,596,0,0,0,0,0,0,0,0,0,-1,1861,428,0,0
644,596,0,0,0,0,0,0,0,0,0,-1,1868,428,0,0
651,596,0,0,0,0,0,0,0,0,0,-1,1875,428,0,0
658,596,0,0,0,0,0,0,0,0,0,-1,1882,428,0,0
665,596,0,0,0,0,0,0,0,0,0,-1,1889,428,0,0
672,596,0,0,0,0,0,0,0,0,0,-1,1896,428,0,0
679,596,0,0,0,0,0,0,0,0,0,-1,1903,428,0,0
686,596,0,0,0,0,0,0,0,0,0,-1,1910,428,0,0
693,596,0,0,0,0,0,0,0,0,0,-1,1917,428,0,0
700,596,0,0,0,0,0,0,0,0,0,-1,1924,428,0,0
707,596,0,0,0,0,0,0,0,0,0,-1,1931,428,0,0
714,596,0,0,0,0,0,0,0,0,0,-1,1938,428,0,0
721,596,0,0,0,0,0,0,0,0,0,-1,1945,428,0,0
728,596,0,0,0,0,0,0,0,0,0,-1,1952,428,0,0
735,596,0,0,0,0,0,0,0,0,0,-1,1959,428,0,0
742,596,0,0,0,0,0,0,0,0,0,-1,1966,428,0,0
749,596,0,0,0,0,0,0,0,0,0,-1,1973,428,0,0
756,596,0,0,0,0,0,0,0,0,0,-1,1980,428,0,0
763,596,0,0,0,0,0,0,0,0,0,-1,1987,428,0,0
770,596,0,0,0,0,0,0,0,0,0,-1,1994,428,0,0
777,596,0,0,0,0,0,0,0,0,0,-1,2001,428,0,0
784,596,0,0,0,0,0,0,0,0,0,-1,2008,428,0,0
791,596,0,0,0,0,0,0,0,0,0,-1,2015,428,0,0
798,596,0,0,0,0,0,0,0,0,0,-1,2022,428,0,0
805,596,0,0,0,0,0,0,0,0,0,-1,2029,428,0,0
812,596,0,0,0,0,0,0,0,0,0,-1,2036,428,0,0
-700,589,0,0,0,0,0,0,0,0,0,-1,524,435,0,0
-693,589,0,0,0,0,0,0,0,0,0,-1,531,435,0,0
-686,589,0,0,0,0,0,0,0,0,0,-1,538,435,0,0
-679,589,0,0,0,0,0,0,0,0,0,-1,545,435,0,0
-672,589,0,0,0,0,0,0,0,0,0,-1,552,435,0,0
-665,589,0,0,0,0,0,0,0,0,0,-1,559,435,0,0
-658,589,0,0,0,0,0,0,0,0,0,-1,566,435,0,0
-651,589,0,0,0,0,0,0,0,0,0,-1,573,435,0,0
-644,589,0,0,0,0,0,0,0,0,0,-1,580,435,0,0
-637,589,0,0,0,0,0,0,0,0,0,-1,587,435,0,0
-630,589,0,0,0,0,0,0,0,0,0,-1,594,435,0,0
-623,589,0,0,0,0,0,0,0,0,0,-1,601,435,0,0
-616,589,0,0,0,0,0,0,0,0,0,-1,608,435,0,0
-609,589,0,0,0,0,0,0,0,0,0,-1,615,435,0,0
-602,589,0,0,0,0,0,0,0,0,0,-1,622,435,0,0
-595,589,0,0,0,0,0,0,0,0,0,-1,629,435,0,0
-588,589,0,0,0,0,0,0,0,0,0,-1,636,435,0,0
-581,589,0,0,0,0,0,0,0,0,0,-1,643,435,0,0
-574,589,0,0,0,0,0,0,0,0,0,-1,650,435,0,0
-567,589,0,0,0,0,0,0,0,0,0,-1,657,435,0,0
-560,589,0,0,0,0,0,0,0,0,0,-1,664,435,0,0
-553,589,0,0,0,0,0,0,0,0,0,-1,671,435,0,0
-546,589,0,0,0,0,0,0,0,0,0,-1,678,435,0,0
-539,589,0,0,0,0,0,0,0,0,0,-1,685,435,0,0
-532,589,0,0,0,0,0,0,0,0,0,-1,692,435,0,0
-525,589,0,0,0,0,0,0,0,0,0,-1,699,435,0,0
-518,589,0,0,0,0,0,0,0,0,0,-1,706,435,0,0
-511,589,0,0,0,0,0,0,0,0,0,-1,713,435,0,0
-504,589,0,0,0,0,0,0,0,0,0,-1,720,435,0,0
-497,589,0,0,0,0,0,0,0,0,0,-1,727,435,0,0
-490,589,0,0,0,0,0,0,0,0,0,-1,734,435,0,0
-483,589,0,0,0,0,0,0,0,0,0,-1,741,435,0,0
-476,589,0,0,0,0,0,0,0,0,0,-1,748,435,0,0
-469,589,0,0,0,0,0,0,0,0,0,-1,755,435,0,0
-462,589,0,0,0,0,0,0,0,0,0,-1,762,435,0,0
-455,589,0,0,0,0,0,0,0,0,0,-1,769,435,0,0
-448,589,0,0,0,0,0,0,0,0,0,-1,776,435,0,0
-441,589,0,0,0,0,0,0,0,0,0,-1,783,435,0,0
-434,589,0,0,0,0,0,0,0,0,0,-1,790,435,0,0
-427,589,0,0,0,0,0,0,0,0,0,-1,797,435,0,0
-420,589,0,0,0,0,0,0,0,0,0,-1,804,435,0,0
-413,589,0,0,0,0,0,0,0,0,0,-1,811,435,0,0
-406,589,0,0,0,0,0,0,0,0,0,-1,818,435,0,0
-399,589,0,0,0,0,0,0,0,0,0,-1,825,435,0,0
-392,589,0,0,0,0,0,0,0,0,0,-1,832,435,0,0
-385,589,0,0,0,0,0,0,0,0,0,-1,839,435,0,0
-378,589,0,0,0,0,0,0,0,0,0,-1,846,435,0,0
-371,589,0,0,0,0,0,0,0,0,0,-1,853,435,0,0
-364,589,0,0,0,0,0,0,0,0,0,-1,860,435,0,0
-357,589,0,0,0,0,0,0,0,0,0,-1,867,435,0,0
-350,589,1.20068,-5.56573,-0.0290208,-0.0824895,-0.0294217,-0.0160014,-0.0955089,-0.416609,0.0590657,0.0412794,874,435,1.2007,5.56574
-343,589,0.992615,-6.37378,-0.0264806,-0.0766095,-0.0275206,-0.0143213,-0.0887688,-0.416036,0.0550302,0.0425227,881,435,0.992625,6.37377
-336,589,0.613464,-7.20218,-0.0233279,-0.0680905,-0.0247348,-0.0123515,-0.0790668,-0.417654,0.0491145,0.0435062,888,435,0.613464,7.20217
-329,589,0.0113525,-7.84927,0,0,0,0,0,0,0,-1,895,435,0.0113797,7.84928
-322,589,2.54974,-4.06592,0,0,0,0,0,0,0,-1,902,435,2.54975,4.06591
-315,589,2.37677,-4.04819,0,0,0,0,0,0,0,-1,909,435,2.37674,4.04819
-308,589,1.56775,-4.43344,0,0,0,0,0,0,0,-1,916,435,1.56776,4.43345
-301,589,1.54602,-4.57117,-0.011413,-0.0229443,-0.00881762,-0.00664333,-0.027714,-0.49585,0.0167078,0.0462244,923,435,1.54604,4.57116
-294,589,1.47693,-4.64737,-0.00944089,-0.0165917,-0.00546295,-0.00648733,-0.0195453,-0.495638,0.0114951,0.0472361,930,435,1.47693,4.64736
-287,589,2.02429,-3.93027,-0.00763072,-0.0105274,-0.00336001,-0.0054202,-0.0127379,-0.581904,0.00738141,0.0457291,937,435,2.02427,3.93028
-280,589,2.02856,-4.27087,-0.00661362,-0.0061297,-0.00274451,-0.0036165,-0.00912681,-0.829366,0.00530705,0.0339342,944,435,2.02855,4.27088
-273,589,1.97247,-4.47366,-0.00658304,-0.00471135,-0.00322167,-0.00229235,-0.00900204,-0.92675,0.00540188,0.0191222,951,435,1.9725,4.47367
-266,589,1.96918,-4.59091,-0.005867,-0.00344359,-0.00344966,-0.000999012,-0.00831158,-0.954294,0.00523989,0.0166551,958,435,1.96919,4.59092
-259,589,1.92987,-4.68512,-0.00537465,-0.00244929,-0.0035397,-8.1968e-05,-0.00774197,-0.981324,0.00513421,0.0147532,965,435,1.92989,4.68511
-252,589,1.93048,-4.79568,-0.00493452,-0.00165553,-0.00370935,0.000760484,-0.00735054,-0.993485,0.00517252,0.00952276,972,435,1.93048,4.79569
-245,589,1.92755,-4.88739,-0.00449112,-0.00101116,-0.00368361,0.00132274,-0.00682503,-1.00604,0.00504902,0.01019,979,435,1.92754,4.88738
-238,589,1.91675,-4.9758,-0.00405762,-0.000499598,-0.00365205,0.0017837,-0.00634092,-1.01205,0.00493059,0.0140553,986,435,1.91673,4.97581
-231,589,1.90936,-5.07388,-0.00337098,-0.000726832,-0.00361555,0.00180078,-0.00589859,-0.960678,0.00465036,0.0140193,993,435,1.90935,5.07389
-224,589,1.89203,-5.18475,-0.00248538,-0.000619475,-0.00321839,0.00179845,-0.00490331,-0.926473,0.00400529,0.0132812,1000,435,1.89202,5.18475
-217,589,1.89825,-5.28748,-0.00175918,-0.000488781,-0.00285637,0.00180216,-0.00405012,-0.894808,0.00346091,0.0142838,1007,435,1.89825,5.28747
-210,589,1.89899,-5.36002,-0.00107884,-0.000473954,-0.0024185,0.00166094,-0.00321374,-0.847603,0.0028616,0.0130095,1014,435,1.89901,5.36003
-203,589,1.89832,-5.42783,-0.0006168,0.000130792,-0.00186746,0.0016615,-0.0021475,-0.884174,0.00220509,0.00937467,1021,435,1.89831,5.42784
-196,589,1.88977,-5.50119,-0.00038933,0.000704197,-0.00146851,0.00172443,-0.00140956,-0.96361,0.00181245,0.0119722,1028,435,1.88976,5.5012
-189,589,1.87549,-5.58264,-0.000172458,0.00108551,-0.00109296,0.00171755,-0.000804496,-1.0465,0.00148757,0.0152289,1035,435,1.87547,5.58264
-182,589,1.88721,-5.6192,6.00801e-05,0.00140024,-0.000637284,0.00165489,-0.000194577,-1.19064,0.00117351,0.011872,1042,435,1.88725,5.61921
-175,589,1.90576,-5.681,0.000225043,0.00179181,-0.000250022,0.00183074,0.000186112,-1.41633,0.00116343,0.0148843,1049,435,1.90579,5.681
-168,589,1.93164,-5.77325,0.000526659,0.00174807,-0.000152595,0.00176685,0.000507884,-1.44837,0.00105036,0.012535,1056,435,1.93163,5.77326
-161,589,1.91357,-5.85895,0.00108869,0.00145727,-0.000442709,0.00175251,0.000793443,-0.982627,0.00101332,0.0110742,1063,435,1.91358,5.85893
-154,589,1.90674,-5.92917,0.00192576,0.00111822,-0.000940693,0.00254568,0.000498306,-0.582675,0.00155781,0.0110118,1070,435,1.90674,5.92918
-147,589,1.91492,-5.991,0.00304609,0.000409135,-0.00134495,0.00361103,-0.000155809,-0.397669,0.00246094,0.0112572,1077,435,1.91488,5.991
-140,589,1.92798,-6.03781,0.00466638,-0.00105821,-0.00165135,0.00510858,-0.00150041,-0.261643,0.00400077,0.0123478,1084,435,1.92793,6.0378
-133,589,1.93237,-6.09149,0.00622409,-0.00295067,-0.00227139,0.00675562,-0.00348221,-0.229876,0.00601068,0.0122679,1091,435,1.93241,6.09148
-126,589,1.92944,-6.14932,0.00720582,-0.00458454,-0.00333645,0.0080845,-0.00546321,-0.257508,0.00787042,0.00959464,1098,435,1.9294,6.14932
-119,589,1.92834,-6.20822,0.00738141,-0.0061341,-0.00565994,0.00943854,-0.00819123,-0.34861,0.010187,0.0154313,1105,435,1.92832,6.20821
-112,589,1.93103,-6.26651,0.00733951,-0.00765062,-0.0084952,0.0111734,-0.0114845,-0.423932,0.0130819,0.0173305,1112,435,1.93098,6.26651
-105,589,1.95056,-6.33057,0.006667,-0.00871881,-0.0120701,0.0132873,-0.0153391,-0.501682,0.0165416,0.0170886,1119,435,1.95058,6.33057
-98,589,1.95532,-6.37247,0.00534358,-0.00980238,-0.0157501,0.0152467,-0.0197055,-0.561305,0.0202344,0.0176084,1126,435,1.95527,6.37246
-91,589,2.0343,-6.39008,0.00316908,-0.0101093,-0.0202502,0.0178406,-0.0247809,-0.62699,0.0247161,0.0223907,1133,435,2.03429,6.39008
-84,589,2.0498,-6.49884,0.000288904,-0.00952269,-0.0249519,0.0208127,-0.0300465,-0.688331,0.0295244,0.0302062,1140,435,2.04975,6.49884
-77,589,2.04529,-6.60458,-0.00295454,-0.0085149,-0.029844,0.0242385,-0.0357079,-0.738954,0.0348206,0.0411805,1147,435,2.04531,6.60457
-70,589,2.11121,-6.7742,0,0,0,0,0,0,0,-1,1154,435,2.11117,6.7742
-63,589,0.880127,-5.50586,0,0,0,0,0,0,0,-1,1161,435,0.880186,5.50587
-56,589,-2.78052,-7.28082,0,0,0,0,0,0,0,-1,1168,435,-2.78053,7.28082
-49,589,-0.525757,-2.76703,0,0,0,0,0,0,0,-1,1175,435,-0.525771,2.76702
-42,589,-2.7738,-2.87921,0,0,0,0,0,0,0,-1,1182,435,-2.77383,2.87922
-35,589,-2.55225,-3.27551,0,0,0,0,0,0,0,-1,1189,435,-2.55223,3.27552
-28,589,-0.0632324,-3.42938,0,0,0,0,0,0,0,-1,1196,435,-0.063241,3.42938
-21,589,1.85767,-6.38199,0,0,0,0,0,0,0,-1,1203,435,1.85766,6.38199
-14,589,2.00208,-6.56522,0,0,0,0,0,0,0,-1,1210,435,2.00207,6.56522
-7,589,2.71338,-7.0332,0,0,0,0,0,0,0,-1,1217,435,2.71337,7.0332
0,589,2.62671,-7.07214,0,0,0,0,0,0,0,-1,1224,435,2.62672,7.07214
7,589,2.65283,-6.73871,0.0226939,0.0459429,-0.0360865,0.072231,-0.00359412,-0.941215,0.0493957,0.0477774,1231,435,2.65278,6.73872
14,589,3.06934,-6.78326,0.0222561,0.0480968,-0.032512,0.0701617,0.000191234,-0.97453,0.0467108,0.0424483,1238,435,3.06928,6.78326
21,589,2.34717,-6.69009,0,0,0,0,0,0,0,-1,1245,435,2.34712,6.69009
28,589,2.28711,-6.68295,0,0,0,0,0,0,0,-1,1252,435,2.28709,6.68295
35,589,2.22705,-6.67581,0,0,0,0,0,0,0,-1,1259,435,2.22707,6.67581
42,589,2.84863,-6.71417,0.0196762,0.0390005,-0.0179181,0.0496956,0.00898114,-1.03267,0.0305795,0.0494324,1266,435,2.84858,6.71418
49,589,3.099,-6.63956,0.017579,0.0319189,-0.0142556,0.0407061,0.00879177,-1.0184,0.0247333,0.0483176,1273,435,3.09906,6.63957
56,589,3.26746,-6.55371,0.0149503,0.0240461,-0.0117079,0.0320584,0.00693798,-0.97065,0.019476,0.0466207,1280,435,3.2674,6.55372
63,589,2.06677,-6.42444,0.0112406,0.0158097,-0.00963842,0.0234306,0.00361966,-0.901765,0.0145646,0.0461516,1287,435,2.06678,6.42445
70,589,4.53125,-4.98267,0.00705784,0.00815861,-0.00833184,0.0159582,-0.000741774,-0.818379,0.0108945,0.0452973,1294,435,4.5312,4.98265
77,589,3.86963,-5.26471,0.00283895,0.00124167,-0.00733923,0.00942287,-0.00534225,-0.731202,0.00863248,0.0441669,1301,435,3.86959,5.2647
84,589,3.44568,-5.77386,0,0,0,0,0,0,0,-1,1308,435,3.44571,5.77385
91,589,2.27869,-6.229,0,0,0,0,0,0,0,-1,1315,435,2.27865,6.22901
98,589,3.32361,-6.05841,0,0,0,0,0,0,0,-1,1322,435,3.32364,6.05842
105,589,2.91467,-5.95471,-0.0155155,-0.0161592,-0.00701717,-0.0088128,-0.0228619,-0.762479,0.0133142,0.0479625,1329,435,2.91473,5.9547
112,589,2.79346,-6.19382,-0.0180109,-0.0169793,-0.00632761,-0.0111465,-0.0238437,-0.826066,0.0137759,0.0431788,1336,435,2.79342,6.1938
119,589,2.78357,-6.49396,0,0,0,0,0,0,0,-1,1343,435,2.78351,6.49397
126,589,2.83301,-6.54337,0,0,0,0,0,0,0,-1,1350,435,2.83305,6.54336
133,589,2.75012,-6.42969,0,0,0,0,0,0,0,-1,1357,435,2.75008,6.42967
140,589,2.32385,-6.13367,0,0,0,0,0,0,0,-1,1364,435,2.32389,6.13368
147,589,2.19128,-6.35535,0,0,0,0,0,0,0,-1,1371,435,2.19126,6.35535
154,589,2.25085,-6.37167,-0.0126064,-0.016175,-0.00515369,-0.00893686,-0.0198445,-0.618743,0.0114761,0.0473689,1378,435,2.25091,6.37167
161,589,2.27808,-6.30679,-0.00993333,-0.0140198,-0.00392221,-0.00755406,-0.0163991,-0.545269,0.00947778,0.0498401,1385,435,2.2781,6.30679
168,589,2.4093,-6.24911,0,0,0,0,0,0,0,-1,1392,435,2.40936,6.24911
175,589,5.50916,-4.05252,0,0,0,0,0,0,0,-1,1399,435,5.50911,4.05253
182,589,3.8136,-2.45389,0,0,0,0,0,0,0,-1,1406,435,3.81363,2.4539
189,589,3.69983,-3.68149,0,0,0,0,0,0,0,-1,1413,435,3.69987,3.68147
196,589,3.31055,-5.31677,0,0,0,0,0,0,0,-1,1420,435,3.31059,5.31678
203,589,2.75647,-6.27237,0,0,0,0,0,0,0,-1,1427,435,2.75644,6.27237
210,589,2.47998,-6.20755,0.00322543,0.00250572,0.00108481,0.00400851,0.00172264,0.625248,0.00232192,0.0375185,1434,435,2.47994,6.20755
217,589,2.56311,-6.14536,0.00262916,0.00273937,0.000342067,0.00303074,0.00233779,0.865263,0.00183369,0.0246835,1441,435,2.56307,6.14534
224,589,2.60986,-6.11652,0.00205513,0.00257607,0.00012669,0.00260525,0.00202596,1.34445,0.00157955,0.0213964,1448,435,2.60987,6.11653
231,589,2.64392,-6.06415,0.00155545,0.00226026,-4.21322e-05,0.00226277,0.00155295,-1.5113,0.0013363,0.0178712,1455,435,2.64393,6.06416
238,589,2.65698,-6.00229,0.00120143,0.00168502,-0.00029016,0.00182093,0.00106552,-1.13276,0.00105638,0.0184979,1462,435,2.65702,6.00228
245,589,2.65649,-5.87372,0.000945846,0.00120023,-0.000565752,0.00165291,0.000493164,-0.895969,0.000979834,0.0174838,1469,435,2.65645,5.87372
252,589,2.68994,-5.81531,0.000721569,0.000735292,-0.000787878,0.00151634,-5.94775e-05,-0.789752,0.00103129,0.0123645,1476,435,2.68994,5.81532
259,589,2.68774,-5.75644,0.000568241,0.000305659,-0.000863458,0.00131033,-0.000436433,-0.70995,0.00104972,0.00870578,1483,435,2.68779,5.75644
266,589,2.68018,-5.66568,0.000368102,-0.000106225,-0.00112267,0.00127839,-0.00101651,-0.681304,0.00132783,0.00944988,1490,435,2.68016,5.66568
273,589,2.67834,-5.60074,0.000166473,-0.00043075,-0.00124821,0.0011513,-0.00141557,-0.667989,0.0014846,0.0121468,1497,435,2.67836,5.60074
280,589,2.68579,-5.53232,6.79599e-05,-0.000771522,-0.00123837,0.000955788,-0.00165935,-0.622001,0.00152796,0.0125388,1504,435,2.68575,5.53231
287,589,2.70837,-5.48102,9.30839e-05,-0.000873867,-0.00113381,0.000842192,-0.00162298,-0.583863,0.00144687,0.0112132,1511,435,2.70841,5.48103
294,589,2.69043,-5.38379,0.000277786,-0.0010432,-0.000958126,0.000781018,-0.00154643,-0.483624,0.00136776,0.0100703,1518,435,2.69049,5.38378
301,589,2.6825,-5.28113,0.000408565,-0.00102573,-0.000832524,0.000790233,-0.0014074,-0.429856,0.00128537,0.0102747,1525,435,2.68251,5.28114
308,589,2.69751,-5.18228,0.000453063,-0.00098808,-0.000607398,0.000674911,-0.00120993,-0.350191,0.00110273,0.0101452,1532,435,2.6975,5.18229
315,589,2.70764,-5.10199,0.00059439,-0.000801407,-0.000324289,0.000666053,-0.00087307,-0.217491,0.000891289,0.0101707,1539,435,2.70764,5.10199
322,589,2.72888,-5.02533,0.000956189,-0.000772021,5.1537e-05,0.000957724,-0.000773557,0.0297857,0.00100144,0.0104625,1546,435,2.72889,5.02532
329,589,2.71924,-4.92697,0.00125825,-0.000776872,0.000344211,0.00131489,-0.000833514,0.163094,0.00125072,0.00918105,1553,435,2.71928,4.92696
336,589,2.70459,-4.85037,0.00158806,-0.000751618,0.000649655,0.00175634,-0.000919903,0.253466,0.00157008,0.00901813,1560,435,2.70457,4.85039
343,589,2.71069,-4.76208,0.0019584,-0.000716935,0.000979298,0.00227855,-0.00103709,0.315971,0.00195851,0.0106615,1567,435,2.71074,4.76207
350,589,2.7085,-4.64273,0.00239206,-0.000606247,0.00130665,0.00288157,-0.00109576,0.358449,0.00237222,0.0162596,1574,435,2.70848,4.64273
357,589,2.70081,-4.53943,0.00283875,-0.000543416,0.00162178,0.00349073,-0.00119539,0.38224,0.00281164,0.0137979,1581,435,2.70075,4.53943
364,589,2.70898,-4.43161,0.00321739,-0.00049275,0.00188576,0.00400757,-0.00128293,0.396801,0.00318664,0.0107436,1588,435,2.70895,4.4316
371,589,2.71191,-4.32925,0.00348836,-0.000506046,0.00211123,0.00439737,-0.00141506,0.406573,0.00349996,0.0105134,1595,435,2.71186,4.32926
378,589,2.71362,-4.2406,0.00359164,-0.000451083,0.0023518,0.00467139,-0.00153083,0.430408,0.00373074,0.011828,1602,435,2.71365,4.2406
385,589,2.72681,-4.13895,0.00345946,1.90017e-05,0.00253696,0.00480441,-0.00132595,0.487471,0.00372445,0.0129183,1609,435,2.72677,4.13894
392,589,2.71399,-4.00131,0.00339799,0.000253016,0.00260576,0.00486898,-0.00121797,0.513916,0.00371906,0.014396,1616,435,2.71396,4.00133
399,589,2.70752,-3.86682,0.00325345,0.000993521,0.00307447,0.00539903,-0.00115206,0.609295,0.00403852,0.0206568,1623,435,2.70749,3.86683
406,589,2.76111,-3.77435,0.00257375,0.00217129,0.00358499,0.00596316,-0.00121811,0.757362,0.00443756,0.0457405,1630,435,2.76114,3.77436
413,589,2.84021,-3.61673,0,0,0,0,0,0,0,-1,1637,435,2.84023,3.61674
420,589,2.99609,-3.5658,0,0,0,0,0,0,0,-1,1644,435,2.99614,3.5658
427,589,2.71667,-3.25021,0,0,0,0,0,0,0,-1,1651,435,2.71665,3.25021
434,589,2.52734,-2.73029,0,0,0,0,0,0,0,-1,1658,435,2.52736,2.73029
441,589,3.17639,-2.02435,0,0,0,0,0,0,0,-1,1665,435,3.17643,2.02435
448,589,0.453735,-3.2868,0,0,0,0,0,0,0,-1,1672,435,0.453701,3.28681
455,589,1.79089,-1.48355,0,0,0,0,0,0,0,-1,1679,435,1.79092,1.48355
462,589,1.95557,-2.51971,0,0,0,0,0,0,0,-1,1686,435,1.95561,2.5197
469,589,2.07617,-3.46964,0,0,0,0,0,0,0,-1,1693,435,2.07615,3.46965
476,589,0,0,0,0,0,0,0,0,0,-1,1700,435,0,0
483,589,0,0,0,0,0,0,0,0,0,-1,1707,435,0,0
490,589,0,0,0,0,0,0,0,0,0,-1,1714,435,0,0
497,589,0,0,0,0,0,0,0,0,0,-1,1721,435,0,0
504,589,0,0,0,0,0,0,0,0,0,-1,1728,435,0,0
511,589,0,0,0,0,0,0,0,0,0,-1,1735,435,0,0
518,589,0,0,0,0,0,0,0,0,0,-1,1742,435,0,0
525,589,0,0,0,0,0,0,0,0,0,-1,1749,435,0,0
532,589,0,0,0,0,0,0,0,0,0,-1,1756,435,0,0
539,589,0,0,0,0,0,0,0,0,0,-1,1763,435,0,0
546,589,0,0,0,0,0,0,0,0,0,-1,1770,435,0,0
553,589,0,0,0,0,0,0,0,0,0,-1,1777,435,0,0
560,589,0,0,0,0,0,0,0,0,0,-1,1784,435,0,0
567,589,0,0,0,0,0,0,0,0,0,-1,1791,435,0,0
574,589,0,0,0,0,0,0,0,0,0,-1,1798,435,0,0
581,589,0,0,0,0,0,0,0,0,0,-1,1805,435,0,0
588,589,0,0,0,0,0,0,0,0,0,-1,1812,435,0,0
595,589,0,0,0,0,0,0,0,0,0,-1,1819,435,0,0
602,589,0,0,0,0,0,0,0,0,0,-1,1826,435,0,0
609,589,0,0,0,0,0,0,0,0,0,-1,1833,435,0,0
616,589,0,0,0,0,0,0,0,0,0,-1,1840,435,0,0
623,589,0,0,0,0,0,0,0,0,0,-1,1847,435,0,0
630,589,0,0,0,0,0,0,0,0,0,-1,1854,435,0,0
637,589,0,0,0,0,0,0,0,0,0,-1,1861,435,0,0
644,589,0,0,0,0,0,0,0,0,0,-1,1868,435,0,0
651,589,0,0,0,0,0,0,0,0,0,-1,1875,435,0,0
658,589,0,0,0,0,0,0,0,0,0,-1,1882,435,0,0
665,589,0,0,0,0,0,0,0,0,0,-1,1889,435,0,0
672,589,0,0,0,0,0,0,0,0,0,-1,1896,435,0,0
679,589,0,0,0,0,0,0,0,0,0,-1,1903,435,0,0
686,589,0,0,0,0,0,0,0,0,0,-1,1910,435,0,0
693,589,0,0,0,0,0,0,0,0,0,-1,1917,435,0,0
700,589,0,0,0,0,0,0,0,0,0,-1,1924,435,0,0
707,589,0,0,0,0,0,0,0,0,0,-1,1931,435,0,0
714,589,0,0,0,0,0,0,0,0,0,-1,1938,435,0,0
721,589,0,0,0,0,0,0,0,0,0,-1,1945,435,0,0
728,589,0,0,0,0,0,0,0,0,0,-1,1952,435,0,0
735,589,0,0,0,0,0,0,0,0,0,-1,1959,435,0,0
742,589,0,0,0,0,0,0,0,0,0,-1,1966,435,0,0
749,589,0,0,0,0,0,0,0,0,0,-1,1973,435,0,0
756,589,0,0,0,0,0,0,0,0,0,-1,1980,435,0,0
763,589,0,0,0,0,0,0,0,0,0,-1,1987,435,0,0
770,589,0,0,0,0,0,0,0,0,0,-1,1994,435,0,0
777,589,0,0,0,0,0,0,0,0,0,-1,2001,435,0,0
784,589,0,0,0,0,0,0,0,0,0,-1,2008,435,0,0
791,589,0,0,0,0,0,0,0,0,0,-1,2015,435,0,0
798,589,0,0,0,0,0,0,0,0,0,-1,2022,435,0,0
805,589,0,0,0,0,0,0,0,0,0,-1,2029,435,0,0
812,589,0,0,0,0,0,0,0,0,0,-1,2036,435,0,0
-700,582,0,0,0,0,0,0,0,0,0,-1,524,442,0,0
-693,582,0,0,0,0,0,0,0,0,0,-1,531,442,0,0
-686,582,0,0,0,0,0,0,0,0,0,-1,538,442,0,0
-679,582,0,0,0,0,0,0,0,0,0,-1,545,442,0,0
-672,582,0,0,0,0,0,0,0,0,0,-1,552,442,0,0
-665,582,0,0,0,0,0,0,0,0,0,-1,559,442,0,0
-658,582,0,0,0,0,0,0,0,0,0,-1,566,442,0,0
-651,582,0,0,0,0,0,0,0,0,0,-1,573,442,0,0
-644,582,0,0,0,0,0,0,0,0,0,-1,580,442,0,0
-637,582,0,0,0,0,0,0,0,0,0,-1,587,442,0,0
-630,582,0,0,0,0,0,0,0,0,0,-1,594,442,0,0
-623,582,0,0,0,0,0,0,0,0,0,-1,601,442,0,0
-616,582,0,0,0,0,0,0,0,0,0,-1,608,442,0,0
-609,582,0,0,0,0,0,0,0,0,0,-1,615,442,0,0
-602,582,0,0,0,0,0,0,0,0,0,-1,622,442,0,0
-595,582,0,0,0,0,0,0,0,0,0,-1,629,442,0,0
-588,582,0,0,0,0,0,0,0,0,0,-1,636,442,0,0
-581,582,0,0,0,0,0,0,0,0,0,-1,643,442,0,0
-574,582,0,0,0,0,0,0,0,0,0,-1,650,442,0,0
-567,582,0,0,0,0,0,0,0,0,0,-1,657,442,0,0
-560,582,0,0,0,0,0,0,0,0,0,-1,664,442,0,0
-553,582,0,0,0,0,0,0,0,0,0,-1,671,442,0,0
-546,582,0,0,0,0,0,0,0,0,0,-1,678,442,0,0
-539,582,0,0,0,0,0,0,0,0,0,-1,685,442,0,0
-532,582,0,0,0,0,0,0,0,0,0,-1,692,442,0,0
-525,582,0,0,0,0,0,0,0,0,0,-1,699,442,0,0
-518,582,0,0,0,0,0,0,0,0,0,-1,706,442,0,0
-511,582,0,0,0,0,0,0,0,0,0,-1,713,442,0,0
-504,582,0,0,0,0,0,0,0,0,0,-1,720,442,0,0
-497,582,0,0,0,0,0,0,0,0,0,-1,727,442,0,0
-490,582,0,0,0,0,0,0,0,0,0,-1,734,442,0,0
-483,582,0,0,0,0,0,0,0,0,0,-1,741,442,0,0
-476,582,0,0,0,0,0,0,0,0,0,-1,748,442,0,0
-469,582,0,0,0,0,0,0,0,0,0,-1,755,442,0,0
-462,582,0,0,0,0,0,0,0,0,0,-1,762,442,0,0
-455,582,0,0,0,0,0,0,0,0,0,-1,769,442,0,0
-448,582,0,0,0,0,0,0,0,0,0,-1,776,442,0,0
-441,582,0,0,0,0,0,0,0,0,0,-1,783,442,0,0
-434,582,0,0,0,0,0,0,0,0,0,-1,790,442,0,0
-427,582,0,0,0,0,0,0,0,0,0,-1,797,442,0,0
-420,582,0,0,0,0,0,0,0,0,0,-1,804,442,0,0
-413,582,0,0,0,0,0,0,0,0,0,-1,811,442,0,0
-406,582,0,0,0,0,0,0,0,0,0,-1,818,442,0,0
-399,582,0,0,0,0,0,0,0,0,0,-1,825,442,0,0
-392,582,0,0,0,0,0,0,0,0,0,-1,832,442,0,0
-385,582,0,0,0,0,0,0,0,0,0,-1,839,442,0,0
-378,582,0,0,0,0,0,0,0,0,0,-1,846,442,0,0
-371,582,0,0,0,0,0,0,0,0,0,-1,853,442,0,0
-364,582,0,0,0,0,0,0,0,0,0,-1,860,442,0,0
-357,582,1.96478,-5.23547,0,0,0,0,0,0,0,-1,867,442,1.96478,5.23546
-350,582,1.67493,-5.4552,-0.0126367,-0.0689444,-0.0167645,-0.00802343,-0.0735577,-0.268537,0.0465948,0.0436921,874,442,1.67492,5.45521
-343,582,1.24933,-5.66718,-0.0128563,-0.0630731,-0.0165489,-0.0078931,-0.0680362,-0.291372,0.0429688,0.0427396,881,442,1.24932,5.66718
-336,582,0.554626,-6.29498,-0.01208,-0.0553296,-0.0153931,-0.00716089,-0.0602487,-0.30931,0.0380044,0.0447404,888,442,0.554627,6.29497
-329,582,2.45007,-3.66861,0,0,0,0,0,0,0,-1,895,442,2.45009,3.66861
-322,582,2.44336,-3.86502,0,0,0,0,0,0,0,-1,902,442,2.44337,3.86501
-315,582,2.43665,-4.0614,0,0,0,0,0,0,0,-1,909,442,2.43665,4.06142
-308,582,1.7146,-4.27328,-0.0104297,-0.0232905,-0.00792509,-0.00665436,-0.0270658,-0.444572,0.0162854,0.0460143,916,442,1.71461,4.27329
-301,582,1.63153,-4.32388,-0.00856631,-0.0170958,-0.00628111,-0.00523892,-0.0204232,-0.48716,0.0122485,0.0411971,923,442,1.63154,4.32387
-294,582,1.59882,-4.33679,-0.00672396,-0.0119061,-0.00374346,-0.00476233,-0.0138678,-0.482674,0.00813639,0.0404407,930,442,1.59881,4.33679
-287,582,1.84961,-4.24136,-0.00499666,-0.00729234,-0.00199496,-0.00384289,-0.00844611,-0.524342,0.00488295,0.0332811,937,442,1.8496,4.24136
-280,582,1.85632,-4.34854,-0.00390903,-0.00389293,-0.00133635,-0.0025646,-0.00523735,-0.78841,0.003024,0.0154974,944,442,1.85631,4.34855
-273,582,1.84656,-4.47006,-0.00371483,-0.0029197,-0.00151586,-0.00175014,-0.00488439,-0.913645,0.00285749,0.0101319,951,442,1.84655,4.47005
-266,582,1.84076,-4.60172,-0.00306112,-0.00195652,-0.00165087,-0.000768018,-0.00424963,-0.946822,0.00261495,0.00962724,958,442,1.84074,4.60173
-259,582,1.83917,-4.71155,-0.0025933,-0.00118787,-0.00168452,-6.5367e-05,-0.0037158,-0.983003,0.0024557,0.00822589,965,442,1.83917,4.71154
-252,582,1.84265,-4.80896,-0.00223234,-0.000564047,-0.00181942,0.000603333,-0.00339972,-1.00033,0.00249205,0.00773764,972,442,1.84265,4.80897
-245,582,1.84137,-4.88846,-0.00190917,-1.08888e-06,-0.00186566,0.00114032,-0.00305057,-1.02175,0.00250199,0.0117333,979,442,1.84137,4.88846
-238,582,1.83313,-4.96045,-0.0016392,0.000432539,-0.00196936,0.00162185,-0.00282851,-1.02751,0.0026007,0.0167921,986,442,1.83315,4.96045
-231,582,1.83234,-5.06866,-0.00120658,0.000217758,-0.00208615,0.00170995,-0.00269877,-0.949886,0.00256663,0.0122722,993,442,1.83234,5.06867
-224,582,1.82281,-5.17883,-0.000608113,0.000305194,-0.00193536,0.00183705,-0.00213996,-0.901255,0.00229835,0.00895975,1000,442,1.8228,5.17884
-217,582,1.81152,-5.27258,-0.000151276,0.00041415,-0.00180195,0.00195543,-0.00169255,-0.86321,0.00210798,0.0111557,1007,442,1.81153,5.27259
-210,582,1.81763,-5.34702,0.000201838,0.000396324,-0.00164838,0.00195033,-0.00135217,-0.81486,0.0019171,0.011802,1014,442,1.81764,5.34702
-203,582,1.84528,-5.43311,0.000373551,0.00108266,-0.00137485,0.00214794,-0.00069173,-0.911591,0.00170983,0.00993278,1021,442,1.84528,5.43311
-196,582,1.849,-5.5184,0.000386845,0.00176256,-0.00114798,0.00241298,-0.000263581,-1.05531,0.00170333,0.0155029,1028,442,1.84899,5.51841
-189,582,1.82397,-5.58154,0.000366995,0.00225694,-0.000912068,0.0026253,-1.36509e-06,-1.18696,0.00175065,0.0203868,1035,442,1.82394,5.58155
-182,582,1.82813,-5.61987,0.000386133,0.00268783,-0.000560395,0.00281701,0.000256944,-1.34422,0.00179849,0.0138472,1042,442,1.82815,5.61987
-175,582,1.8363,-5.68881,0.000377267,0.00319748,-0.000263332,0.00322186,0.000352889,-1.47849,0.00204047,0.0126345,1049,442,1.83636,5.68883
-168,582,1.84314,-5.77057,0.000842794,0.00305978,-0.000291809,0.00309755,0.000805028,-1.44209,0.00185583,0.0106191,1056,442,1.84311,5.77056
-161,582,1.83545,-5.83771,0.00169965,0.00260448,-0.000633632,0.00293064,0.00137349,-1.09543,0.00169311,0.0116465,1063,442,1.83542,5.8377
-154,582,1.83276,-5.9097,0.00278671,0.00211841,-0.00122953,0.00372669,0.00117843,-0.652718,0.00219952,0.0115692,1070,442,1.83275,5.90969
-147,582,1.85278,-5.97543,0.00428195,0.00115543,-0.00176827,0.00507889,0.000358489,-0.423428,0.00327298,0.0110688,1077,442,1.85273,5.97542
-140,582,1.86328,-6.02811,0.00642937,-0.000877035,-0.00216354,0.00702196,-0.00146963,-0.267344,0.00524033,0.0115957,1084,442,1.86323,6.02811
-133,582,1.86755,-6.09851,0.00837544,-0.00345012,-0.00303284,0.00910789,-0.00418257,-0.236969,0.00784692,0.0134342,1091,442,1.8676,6.09853
-126,582,1.87988,-6.1326,0.00940129,-0.00571415,-0.00469812,0.0107425,-0.00705539,-0.278087,0.0103489,0.0118222,1098,442,1.87984,6.1326
-119,582,1.86523,-6.16031,0.00919455,-0.0077822,-0.00817815,0.0124932,-0.0110809,-0.383393,0.0136187,0.0159193,1105,442,1.86524,6.1603
-112,582,1.83142,-6.27295,0.00855092,-0.00974967,-0.0125078,0.0148981,-0.0160969,-0.469598,0.0178994,0.0237111,1112,442,1.83145,6.27295
-105,582,1.77771,-6.40451,0,0,0,0,0,0,0,-1,1119,442,1.77777,6.40451
-98,582,2.00659,-6.32123,0.00478271,-0.0126266,-0.0231739,0.0208329,-0.0286768,-0.60574,0.0287038,0.0348783,1126,442,2.00654,6.32124
-91,582,2.37341,-6.26321,0.00136248,-0.0129429,-0.029566,0.0246287,-0.0362091,-0.666717,0.0353362,0.0377086,1133,442,2.37347,6.26322
-84,582,2.45703,-6.54779,-0.00291211,-0.0120078,-0.0362008,0.0290254,-0.0439453,-0.722911,0.0424222,0.0402789,1140,442,2.45706,6.54779
-77,582,2.32764,-6.76791,0,0,0,0,0,0,0,-1,1147,442,2.32766,6.7679
-70,582,1.49255,-6.36548,0,0,0,0,0,0,0,-1,1154,442,1.49251,6.36549
-63,582,-4.62915,-4.0347,0,0,0,0,0,0,0,-1,1161,442,-4.6292,4.03471
-56,582,-5.81714,-5.24149,0,0,0,0,0,0,0,-1,1168,442,-5.81718,5.24149
-49,582,-3.88672,-10.1064,0,0,0,0,0,0,0,-1,1175,442,-3.88678,10.1064
-42,582,-0.948975,1.13968,0,0,0,0,0,0,0,-1,1182,442,-0.949003,-1.13969
-35,582,-2.58435,-3.86911,0,0,0,0,0,0,0,-1,1189,442,-2.58437,3.86912
-28,582,-0.825317,-3.45941,0,0,0,0,0,0,0,-1,1196,442,-0.825377,3.45942
-21,582,2.98206,-6.33832,0,0,0,0,0,0,0,-1,1203,442,2.98206,6.33831
-14,582,3.4292,-6.38577,0,0,0,0,0,0,0,-1,1210,442,3.4292,6.38577
-7,582,1.85559,-4.45764,0,0,0,0,0,0,0,-1,1217,442,1.85561,4.45763
0,582,1.3479,-5.20792,0,0,0,0,0,0,0,-1,1224,442,1.34795,5.20791
7,582,2.9679,-6.93637,0,0,0,0,0,0,0,-1,1231,442,2.96793,6.93638
14,582,3.4657,-6.99258,0.0267539,0.0668925,-0.0423452,0.0936836,-3.72119e-05,-1.00669,0.0624681,0.0475951,1238,442,3.46571,6.99259
21,582,3.91711,-7.09305,0.0262809,0.0699722,-0.0370436,0.0911319,0.00512118,-1.05181,0.0591215,0.0450671,1245,442,3.91714,7.09304
28,582,2.28027,-6.61966,0,0,0,0,0,0,0,-1,1252,442,2.28023,6.61965
35,582,2.63562,-6.58731,0.0238834,0.0658001,-0.0257694,0.0780579,0.0116256,-1.1268,0.0486289,0.0467934,1259,442,2.63568,6.5873
42,582,3.10413,-6.50592,0.0220759,0.0589797,-0.0206907,0.0682511,0.0128046,-1.14953,0.04189,0.0462352,1266,442,3.10415,6.50591
49,582,3.34009,-6.41602,0.0192332,0.0501204,-0.0155233,0.0565738,0.0127798,-1.17681,0.0342599,0.0466862,1273,442,3.34011,6.41601
56,582,4.98376,-4.81567,0.0158633,0.0398171,-0.0118493,0.0446881,0.0109923,-1.18077,0.0268877,0.0462208,1280,442,4.98377,4.81567
63,582,4.9563,-4.78207,0.0113177,0.0286068,-0.00903675,0.0324679,0.00745663,-1.16701,0.0196374,0.044078,1287,442,4.95628,4.78208
70,582,4.52905,-5.00629,0.00636132,0.017984,-0.00747287,0.0216392,0.00270611,-1.11588,0.013614,0.0443994,1294,442,4.52901,5.00629
77,582,3.97217,-5.2933,0.00122561,0.00799759,-0.00633839,0.0117977,-0.0025745,-1.03072,0.00884903,0.0481006,1301,442,3.97221,5.29329
84,582,3.73621,-5.63287,-0.00474172,-0.000541321,-0.00662903,0.00431225,-0.00959529,-0.938805,0.00822036,0.0473317,1308,442,3.73619,5.63287
91,582,3.73499,-5.76129,0,0,0,0,0,0,0,-1,1315,442,3.73494,5.7613
98,582,3.35742,-5.7688,-0.0161241,-0.0156024,-0.00735644,-0.00850222,-0.0232243,-0.80312,0.0135679,0.0483068,1322,442,3.35746,5.7688
105,582,2.97754,-5.77127,-0.0209394,-0.0175268,-0.00737969,-0.0116587,-0.0268075,-0.89901,0.015521,0.0461981,1329,442,2.97751,5.77128
112,582,2.61804,-5.78818,-0.0239,-0.0190443,-0.00706254,-0.014004,-0.0289404,-0.950953,0.0167116,0.0439168,1336,442,2.61801,5.78817
119,582,2.24084,-5.81641,-0.0257222,-0.0205808,-0.0071236,-0.0155782,-0.0307247,-0.958559,0.0177395,0.0446038,1343,442,2.24086,5.81641
126,582,2.93213,-6.48691,0,0,0,0,0,0,0,-1,1350,442,2.93213,6.48692
133,582,2.52417,-6.00507,0,0,0,0,0,0,0,-1,1357,442,2.52414,6.00505
140,582,2.37073,-6.02814,0,0,0,0,0,0,0,-1,1364,442,2.37069,6.02814
147,582,2.22144,-6.38214,0,0,0,0,0,0,0,-1,1371,442,2.22144,6.38215
154,582,2.17334,-6.29709,0,0,0,0,0,0,0,-1,1378,442,2.1733,6.29709
161,582,2.23376,-6.19019,0,0,0,0,0,0,0,-1,1385,442,2.23381,6.19019
168,582,4.51733,-5.80917,0,0,0,0,0,0,0,-1,1392,442,4.51737,5.80918
175,582,6.50549,-2.00424,0,0,0,0,0,0,0,-1,1399,442,6.50546,2.00425
182,582,5.18958,-2.18652,0,0,0,0,0,0,0,-1,1406,442,5.1896,2.18652
189,582,6.19751,-0.880951,0,0,0,0,0,0,0,-1,1413,442,6.19754,0.88096
196,582,4.87354,-2.22327,0,0,0,0,0,0,0,-1,1420,442,4.87348,2.22325
203,582,3.11401,-4.48257,0,0,0,0,0,0,0,-1,1427,442,3.11404,4.48259
210,582,2.21973,-5.99609,0,0,0,0,0,0,0,-1,1434,442,2.21976,5.99611
217,582,2.40784,-6.23917,0.00337979,0.00408431,0.000575297,0.00440663,0.00305747,1.06011,0.00260712,0.0426248,1441,442,2.40781,6.23917
224,582,2.58398,-6.22028,0.00251763,0.00367905,0.000203411,0.00371364,0.00248304,1.40233,0.00218434,0.0433421,1448,442,2.58399,6.22028
231,582,2.68835,-6.0582,0.00183154,0.00310235,-6.54182e-05,0.00310571,0.00182819,-1.5195,0.00180245,0.0393924,1455,442,2.68841,6.0582
238,582,2.76672,-6.0159,0.00135202,0.00219133,-0.00045371,0.0023897,0.00115364,-1.15861,0.00137997,0.0358297,1462,442,2.76678,6.01591
245,582,2.74475,-6.02109,0.000990264,0.00139992,-0.000901198,0.00211927,0.000270909,-0.897142,0.00133176,0.0311361,1469,442,2.74476,6.02107
252,582,2.77197,-5.84766,0.000678117,0.000682435,-0.00121862,0.0018989,-0.000538343,-0.786284,0.00147842,0.0181468,1476,442,2.77196,5.84767
259,582,2.73779,-5.78091,0.00049541,7.76839e-05,-0.00134513,0.00164779,-0.0010747,-0.708376,0.0015834,0.0136493,1483,442,2.73779,5.7809
266,582,2.74609,-5.70776,0.000282527,-0.000515569,-0.00175867,0.00168685,-0.0019199,-0.673836,0.00208381,0.0107272,1490,442,2.74608,5.70776
273,582,2.76379,-5.62234,3.24966e-05,-0.000950988,-0.00197189,0.00157304,-0.00249153,-0.663203,0.00236657,0.0113853,1497,442,2.76377,5.62236
280,582,2.75635,-5.54477,-0.000102294,-0.00144451,-0.00205224,0.00138579,-0.00293259,-0.627373,0.00254597,0.0116882,1504,442,2.75631,5.54477
287,582,2.78809,-5.46152,-0.000103009,-0.00163443,-0.00204461,0.00131457,-0.00305201,-0.606231,0.00258671,0.011052,1511,442,2.78812,5.46151
294,582,2.77893,-5.37662,8.33875e-05,-0.00189842,-0.00191932,0.0012525,-0.00306753,-0.547106,0.0025665,0.00924796,1518,442,2.77888,5.37662
301,582,2.78015,-5.28479,0.000109994,-0.0019616,-0.0019106,0.0012475,-0.00309911,-0.537007,0.0025843,0.009695,1525,442,2.78015,5.28479
308,582,2.80615,-5.18835,-2.21862e-06,-0.00196735,-0.00178708,0.0010546,-0.00302417,-0.534047,0.00244468,0.0125783,1532,442,2.80613,5.18836
315,582,2.80383,-5.09457,-2.37407e-05,-0.00177395,-0.00155819,0.00088827,-0.00268596,-0.52954,0.00214882,0.0130983,1539,442,2.80379,5.09458
322,582,2.80457,-5.02298,0.000108754,-0.00162444,-0.00122719,0.000744481,-0.00226016,-0.477973,0.00180681,0.00989864,1546,442,2.80458,5.02299
329,582,2.80469,-4.93286,0.00027856,-0.00161742,-0.000979563,0.000693739,-0.0020326,-0.400888,0.0016361,0.00958171,1553,442,2.80467,4.93287
336,582,2.80054,-4.84521,0.000482003,-0.00154334,-0.000702964,0.000702077,-0.00176341,-0.303401,0.00146676,0.00995742,1560,442,2.80058,4.8452
343,582,2.80237,-4.74078,0.000737591,-0.00139737,-0.000358222,0.000796093,-0.00145587,-0.161884,0.00131864,0.0119418,1567,442,2.80237,4.74078
350,582,2.79883,-4.63718,0.00108282,-0.0011966,1.47699e-05,0.00108291,-0.0011967,0.00647929,0.00131668,0.0147944,1574,442,2.79878,4.63717
357,582,2.79541,-4.53494,0.00147557,-0.000987386,0.000414956,0.0015436,-0.00105542,0.162505,0.00150934,0.0133944,1581,442,2.79545,4.53496
364,582,2.80237,-4.43094,0.00183821,-0.000752792,0.00078567,0.00205783,-0.000972415,0.272578,0.00178654,0.0105475,1588,442,2.80234,4.43095
371,582,2.79822,-4.34244,0.00211864,-0.000551946,0.00119183,0.00257317,-0.00100648,0.364346,0.00213167,0.0139689,1595,442,2.7982,4.34243
378,582,2.78479,-4.25375,0.00221341,-0.000331353,0.00155515,0.00295037,-0.00106831,0.442535,0.0024035,0.0148748,1602,442,2.78484,4.25376
385,582,2.79919,-4.15393,0.00216267,0.000213189,0.0018568,0.00328503,-0.000909173,0.543692,0.00254774,0.0103919,1609,442,2.79921,4.15393
392,582,2.78748,-4.02969,0.00218679,0.000506446,0.00206291,0.00357405,-0.00088082,0.592017,0.0027242,0.0091774,1616,442,2.78748,4.02969
399,582,2.78711,-3.90302,0.00215306,0.00113974,0.00254788,0.00424416,-0.000951364,0.68725,0.00319415,0.0108579,1623,442,2.78712,3.90301
406,582,2.77478,-3.79382,0.00164031,0.00207693,0.00301279,0.00487932,-0.00116207,0.821565,0.00370155,0.0162404,1630,442,2.77472,3.79382
413,582,2.81677,-3.67859,0.000721241,0.00314589,0.00327946,0.00542994,-0.0015628,0.962444,0.00423805,0.0327458,1637,442,2.81672,3.67859
420,582,2.88501,-3.61066,-8.76874e-05,0.00446267,0.00370571,0.00653591,-0.00216093,1.06071,0.00522861,0.0398014,1644,442,2.88497,3.61066
427,582,2.72949,-3.4129,-0.00121168,0.00644703,0.00408617,0.00821775,-0.00298239,1.16188,0.00669775,0.0394511,1651,442,2.7295,3.4129
434,582,2.63953,-3.0542,-0.00257063,0.00851787,0.00426328,0.00996749,-0.00402026,1.24304,0.00831559,0.0492059,1658,442,2.63949,3.0542
441,582,2.60071,-2.84518,0,0,0,0,0,0,0,-1,1665,442,2.60074,2.84519
448,582,1.52722,-2.85928,0,0,0,0,0,0,0,-1,1672,442,1.52724,2.85927
455,582,1.81714,-2.02524,0,0,0,0,0,0,0,-1,1679,442,1.8171,2.02524
462,582,1.98669,-2.86023,0,0,0,0,0,0,0,-1,1686,442,1.98672,2.86024
469,582,2.08484,-2.6044,0,0,0,0,0,0,0,-1,1693,442,2.0848,2.60439
476,582,2.75842,-4.31161,0,0,0,0,0,0,0,-1,1700,442,2.75846,4.31161
483,582,0,0,0,0,0,0,0,0,0,-1,1707,442,0,0
490,582,0,0,0,0,0,0,0,0,0,-1,1714,442,0,0
497,582,0,0,0,0,0,0,0,0,0,-1,1721,442,0,0
504,582,0,0,0,0,0,0,0,0,0,-1,1728,442,0,0
511,582,0,0,0,0,0,0,0,0,0,-1,1735,442,0,0
518,582,0,0,0,0,0,0,0,0,0,-1,1742,442,0,0
525,582,0,0,0,0,0,0,0,0,0,-1,1749,442,0,0
532,582,0,0,0,0,0,0,0,0,0,-1,1756,442,0,0
539,582,0,0,0,0,0,0,0,0,0,-1,1763,442,0,0
546,582,0,0,0,0,0,0,0,0,0,-1,1770,442,0,0
553,582,0,0,0,0,0,0,0,0,0,-1,1777,442,0,0
560,582,0,0,0,0,0,0,0,0,0,-1,1784,442,0,0
567,582,0,0,0,0,0,0,0,0,0,-1,1791,442,0,0
574,582,0,0,0,0,0,0,0,0,0,-1,1798,442,0,0
581,582,0,0,0,0,0,0,0,0,0,-1,1805,442,0,0
588,582,0,0,0,0,0,0,0,0,0,-1,1812,442,0,0
595,582,0,0,0,0,0,0,0,0,0,-1,1819,442,0,0
602,582,0,0,0,0,0,0,0,0,0,-1,1826,442,0,0
609,582,0,0,0,0,0,0,0,0,0,-1,1833,442,0,0
616,582,0,0,0,0,0,0,0,0,0,-1,1840,442,0,0
623,582,0,0,0,0,0,0,0,0,0,-1,1847,442,0,0
630,582,0,0,0,0,0,0,0,0,0,-1,1854,442,0,0
637,582,0,0,0,0,0,0,0,0,0,-1,1861,442,0,0
644,582,0,0,0,0,0,0,0,0,0,-1,1868,442,0,0
651,582,0,0,0,0,0,0,0,0,0,-1,1875,442,0,0
658,582,0,0,0,0,0,0,0,0,0,-1,1882,442,0,0
665,582,0,0,0,0,0,0,0,0,0,-1,1889,442,0,0
672,582,0,0,0,0,0,0,0,0,0,-1,1896,442,0,0
679,582,0,0,0,0,0,0,0,0,0,-1,1903,442,0,0
686,582,0,0,0,0,0,0,0,0,0,-1,1910,442,0,0
693,582,0,0,0,0,0,0,0,0,0,-1,1917,442,0,0
700,582,0,0,0,0,0,0,0,0,0,-1,1924,442,0,0
707,582,0,0,0,0,0,0,0,0,0,-1,1931,442,0,0
714,582,0,0,0,0,0,0,0,0,0,-1,1938,442,0,0
721,582,0,0,0,0,0,0,0,0,0,-1,1945,442,0,0
728,582,0,0,0,0,0,0,0,0,0,-1,1952,442,0,0
735,582,0,0,0,0,0,0,0,0,0,-1,1959,442,0,0
742,582,0,0,0,0,0,0,0,0,0,-1,1966,442,0,0
749,582,0,0,0,0,0,0,0,0,0,-1,1973,442,0,0
756,582,0,0,0,0,0,0,0,0,0,-1,1980,442,0,0
763,582,0,0,0,0,0,0,0,0,0,-1,1987,442,0,0
770,582,0,0,0,0,0,0,0,0,0,-1,1994,442,0,0
777,582,0,0,0,0,0,0,0,0,0,-1,2001,442,0,0
784,582,0,0,0,0,0,0,0,0,0,-1,2008,442,0,0
791,582,0,0,0,0,0,0,0,0,0,-1,2015,442,0,0
798,582,0,0,0,0,0,0,0,0,0,-1,2022,442,0,0
805,582,0,0,0,0,0,0,0,0,0,-1,2029,442,0,0
812,582,0,0,0,0,0,0,0,0,0,-1,2036,442,0,0
-700,575,0,0,0,0,0,0,0,0,0,-1,524,449,0,0
-693,575,0,0,0,0,0,0,0,0,0,-1,531,449,0,0
-686,575,0,0,0,0,0,0,0,0,0,-1,538,449,0,0
-679,575,0,0,0,0,0,0,0,0,0,-1,545,449,0,0
-672,575,0,0,0,0,0,0,0,0,0,-1,552,449,0,0
-665,575,0,0,0,0,0,0,0,0,0,-1,559,449,0,0
-658,575,0,0,0,0,0,0,0,0,0,-1,566,449,0,0
-651,575,0,0,0,0,0,0,0,0,0,-1,573,449,0,0
-644,575,0,0,0,0,0,0,0,0,0,-1,580,449,0,0
-637,575,0,0,0,0,0,0,0,0,0,-1,587,449,0,0
-630,575,0,0,0,0,0,0,0,0,0,-1,594,449,0,0
-623,575,0,0,0,0,0,0,0,0,0,-1,601,449,0,0
-616,575,0,0,0,0,0,0,0,0,0,-1,608,449,0,0
-609,575,0,0,0,0,0,0,0,0,0,-1,615,449,0,0
-602,575,0,0,0,0,0,0,0,0,0,-1,622,449,0,0
-595,575,0,0,0,0,0,0,0,0,0,-1,629,449,0,0
-588,575,0,0,0,0,0,0,0,0,0,-1,636,449,0,0
-581,575,0,0,0,0,0,0,0,0,0,-1,643,449,0,0
-574,575,0,0,0,0,0,0,0,0,0,-1,650,449,0,0
-567,575,0,0,0,0,0,0,0,0,0,-1,657,449,0,0
-560,575,0,0,0,0,0,0,0,0,0,-1,664,449,0,0
-553,575,0,0,0,0,0,0,0,0,0,-1,671,449,0,0
-546,575,0,0,0,0,0,0,0,0,0,-1,678,449,0,0
-539,575,0,0,0,0,0,0,0,0,0,-1,685,449,0,0
-532,575,0,0,0,0,0,0,0,0,0,-1,692,449,0,0
-525,575,0,0,0,0,0,0,0,0,0,-1,699,449,0,0
-518,575,0,0,0,0,0,0,0,0,0,-1,706,449,0,0
-511,575,0,0,0,0,0,0,0,0,0,-1,713,449,0,0
-504,575,0,0,0,0,0,0,0,0,0,-1,720,449,0,0
-497,575,0,0,0,0,0,0,0,0,0,-1,727,449,0,0
-490,575,0,0,0,0,0,0,0,0,0,-1,734,449,0,0
-483,575,0,0,0,0,0,0,0,0,0,-1,741,449,0,0
-476,575,0,0,0,0,0,0,0,0,0,-1,748,449,0,0
-469,575,0,0,0,0,0,0,0,0,0,-1,755,449,0,0
-462,575,0,0,0,0,0,0,0,0,0,-1,762,449,0,0
-455,575,0,0,0,0,0,0,0,0,0,-1,769,449,0,0
-448,575,0,0,0,0,0,0,0,0,0,-1,776,449,0,0
-441,575,0,0,0,0,0,0,0,0,0,-1,783,449,0,0
-434,575,0,0,0,0,0,0,0,0,0,-1,790,449,0,0
-427,575,0,0,0,0,0,0,0,0,0,-1,797,449,0,0
-420,575,0,0,0,0,0,0,0,0,0,-1,804,449,0,0
-413,575,0,0,0,0,0,0,0,0,0,-1,811,449,0,0
-406,575,0,0,0,0,0,0,0,0,0,-1,818,449,0,0
-399,575,0,0,0,0,0,0,0,0,0,-1,825,449,0,0
-392,575,0,0,0,0,0,0,0,0,0,-1,832,449,0,0
-385,575,0,0,0,0,0,0,0,0,0,-1,839,449,0,0
-378,575,0,0,0,0,0,0,0,0,0,-1,846,449,0,0
-371,575,1.11255,-5.06943,0,0,0,0,0,0,0,-1,853,449,1.11252,5.06942
-364,575,1.38666,-5.08383,0,0,0,0,0,0,0,-1,860,449,1.38667,5.08383
-357,575,1.83887,-5.26779,0.00128746,-0.0614397,-0.00774716,0.00223011,-0.0623823,-0.121082,0.0423512,0.0499512,867,449,1.83885,5.2678
-350,575,1.91772,-4.98767,-0.00148935,-0.0559405,-0.00911593,-3.74019e-06,-0.0574261,-0.161548,0.0382828,0.0491366,874,449,1.91771,4.98767
-343,575,2.12958,-4.82333,0,0,0,0,0,0,0,-1,881,449,2.12956,4.82333
-336,575,0.148438,-5.4191,0,0,0,0,0,0,0,-1,888,449,0.148458,5.4191
-329,575,1.9389,-3.51437,0,0,0,0,0,0,0,-1,895,449,1.93892,3.51437
-322,575,2.33289,-3.79047,-0.00564278,-0.0306702,-0.00754211,-0.00354566,-0.0327673,-0.271204,0.0207642,0.0450372,902,449,2.33289,3.79047
-315,575,1.76794,-4.03384,-0.00686704,-0.023342,-0.006473,-0.00462808,-0.025581,-0.33301,0.0157398,0.0437861,909,449,1.76795,4.03384
-308,575,1.71039,-4.0914,-0.00780191,-0.0172532,-0.0054361,-0.00532457,-0.0197305,-0.4276,0.0117868,0.0402805,916,449,1.71039,4.09139
-301,575,1.76019,-4.13464,-0.0063988,-0.0124059,-0.0043817,-0.00409005,-0.0147147,-0.484941,0.00877032,0.0292689,923,449,1.76021,4.13465
-294,575,1.79816,-4.14975,-0.00493495,-0.00843755,-0.00259537,-0.00355527,-0.00981722,-0.488599,0.00573933,0.0223867,930,449,1.79817,4.14975
-287,575,1.79016,-4.26627,-0.00351657,-0.00511688,-0.00131628,-0.00277633,-0.00585713,-0.512296,0.00338314,0.0151581,937,449,1.79016,4.26628
-280,575,1.76666,-4.3833,-0.00255991,-0.00266651,-0.000814535,-0.00179693,-0.00342949,-0.752726,0.00198077,0.0113663,944,449,1.76666,4.38329
-273,575,1.75439,-4.49847,-0.00236673,-0.00198359,-0.000930626,-0.00122502,-0.0031253,-0.886904,0.00181838,0.0106551,951,449,1.7544,4.49849
-266,575,1.745,-4.63708,-0.00179489,-0.00126712,-0.00106317,-0.000435575,-0.00262644,-0.907044,0.00162534,0.0114426,958,449,1.74501,4.6371
-259,575,1.75195,-4.72693,-0.00134391,-0.000661834,-0.00112265,0.000170438,-0.00217618,-0.932858,0.00151081,0.0114278,965,449,1.75193,4.72693
-252,575,1.74915,-4.79486,-0.00103898,-0.00014415,-0.00126091,0.000746374,-0.0019295,-0.955885,0.00159446,0.0110144,972,449,1.74916,4.79488
-245,575,1.73779,-4.89651,-0.000773352,0.000376058,-0.00133743,0.00125704,-0.00165433,-0.988324,0.00168609,0.0137596,979,449,1.73782,4.8965
-238,575,1.73889,-4.98242,-0.000558841,0.000764849,-0.00145837,0.00170453,-0.00149852,-0.998413,0.00185056,0.0139421,986,449,1.73887,4.98241
-231,575,1.74451,-5.08051,-0.000244376,0.000670387,-0.00157661,0.00185462,-0.00142861,-0.926575,0.00190088,0.0117499,993,449,1.74451,5.0805
-224,575,1.73932,-5.17651,0.000196742,0.000839396,-0.00148921,0.00204155,-0.00100541,-0.891655,0.00179275,0.0112956,1000,449,1.73934,5.17651
-217,575,1.73987,-5.26752,0.000518141,0.00100975,-0.00138905,0.00217457,-0.000646679,-0.872972,0.00170662,0.0101158,1007,449,1.73984,5.26751
-210,575,1.74915,-5.35541,0.00066708,0.00103075,-0.00134458,0.00220574,-0.000507909,-0.852608,0.00166581,0.00890873,1014,449,1.74914,5.35542
-203,575,1.76563,-5.43167,0.000681294,0.00191485,-0.00118303,0.00263223,-3.60864e-05,-1.02569,0.00176697,0.0120481,1021,449,1.76564,5.43166
-196,575,1.78979,-5.51996,0.000593033,0.0027956,-0.000989133,0.00317459,0.000214043,-1.2049,0.00204878,0.0146069,1028,449,1.78976,5.51996
-189,575,1.78882,-5.57733,0.000457105,0.00351598,-0.0007833,0.0037049,0.000268189,-1.33414,0.00238557,0.0148249,1035,449,1.78883,5.57734
-182,575,1.76831,-5.62738,0.000365166,0.0041571,-0.000456077,0.00421118,0.000311083,-1.45276,0.00270972,0.0134783,1042,449,1.76834,5.62738
-175,575,1.77197,-5.71225,0.00025257,0.00491707,-0.000209205,0.00492643,0.000243206,-1.52607,0.00320629,0.0111512,1049,449,1.77198,5.71225
-168,575,1.74841,-5.7717,0.000989687,0.00471356,-0.000384584,0.00475287,0.000950384,-1.46895,0.00290409,0.00972833,1056,449,1.7484,5.77168
-161,575,1.75854,-5.84543,0.00224466,0.00412342,-0.000850484,0.00445123,0.00191686,-1.20291,0.00257815,0.0133361,1063,449,1.75851,5.84544
-154,575,1.78125,-5.92355,0.00370112,0.00352144,-0.00161321,0.00522699,0.00199557,-0.757582,0.00304579,0.0143564,1070,449,1.78124,5.92355
-147,575,1.79297,-5.95703,0.00571494,0.00228342,-0.00235231,0.00691074,0.00108761,-0.470308,0.00429082,0.013426,1077,449,1.79296,5.95704
-140,575,1.75867,-5.98392,0.00858489,-0.000394536,-0.0028789,0.00942862,-0.00123826,-0.28509,0.00673654,0.0234123,1084,449,1.75864,5.9839
-133,575,1.83325,-6.05469,0.0108877,-0.00376073,-0.00411461,0.0119644,-0.00483735,-0.255922,0.00998714,0.0323525,1091,449,1.83323,6.05469
-126,575,1.91089,-6.01788,0.0116315,-0.00674071,-0.00667275,0.0137993,-0.00890846,-0.314111,0.0132113,0.036464,1098,449,1.91088,6.01787
-119,575,1.92651,-5.98337,0.0106145,-0.00932914,-0.0117653,0.0160654,-0.01478,-0.433859,0.0178137,0.0381719,1105,449,1.92654,5.98338
-112,575,2.03796,-6.11826,0.0089099,-0.0116831,-0.0181058,0.0194422,-0.0222154,-0.52686,0.0240688,0.0406067,1112,449,2.03796,6.11826
-105,575,2.23718,-6.29001,0.00632517,-0.0132438,-0.0254784,0.0238333,-0.0307519,-0.602066,0.0315991,0.0401044,1119,449,2.23721,6.29001
-98,575,2.17334,-6.17001,0.0027957,-0.0152523,-0.0327651,0.0277568,-0.0402134,-0.651022,0.0394616,0.0431129,1126,449,2.1733,6.17001
-91,575,2.37976,-5.92935,-0.00202921,-0.0155342,-0.0411623,0.0329307,-0.0504942,-0.704099,0.0485199,0.0439528,1133,449,2.37971,5.92936
-84,575,2.84631,-6.09525,-0.0077953,-0.0141398,-0.0497743,0.0389077,-0.0608429,-0.753575,0.0580533,0.0434313,1140,449,2.84629,6.09525
-77,575,3.26245,-6.32703,0,0,0,0,0,0,0,-1,1147,449,3.2625,6.32701
-70,575,-3.03564,-1.42075,0,0,0,0,0,0,0,-1,1154,449,-3.03567,1.42074
-63,575,-4.52209,-3.48798,0,0,0,0,0,0,0,-1,1161,449,-4.5221,3.48796
-56,575,-5.5968,-5.4928,0,0,0,0,0,0,0,-1,1168,449,-5.59683,5.49281
-49,575,-5.96863,-7.17612,0,0,0,0,0,0,0,-1,1175,449,-5.96868,7.1761
-42,575,-0.830322,0.773499,0,0,0,0,0,0,0,-1,1182,449,-0.83038,-0.77351
-35,575,-0.62085,0.205139,0,0,0,0,0,0,0,-1,1189,449,-0.620855,-0.205126
-28,575,0.49292,-3.87988,0,0,0,0,0,0,0,-1,1196,449,0.492941,3.87989
-21,575,-0.0906982,-4.49985,0,0,0,0,0,0,0,-1,1203,449,-0.0907478,4.49984
-14,575,3.22803,-4.89319,0,0,0,0,0,0,0,-1,1210,449,3.22805,4.89319
-7,575,3.4458,-5.5643,0,0,0,0,0,0,0,-1,1217,449,3.44575,5.56429
0,575,3.6748,-6.27972,0,0,0,0,0,0,0,-1,1224,449,3.67476,6.27973
7,575,4.2063,-6.8721,0,0,0,0,0,0,0,-1,1231,449,4.20624,6.87211
14,575,3.83789,-7.13971,0,0,0,0,0,0,0,-1,1238,449,3.83785,7.13971
21,575,4.9126,-7.43933,0,0,0,0,0,0,0,-1,1245,449,4.91261,7.43932
28,575,5.14429,-7.65381,0,0,0,0,0,0,0,-1,1252,449,5.14426,7.65381
35,575,2.17615,-6.71268,0,0,0,0,0,0,0,-1,1259,449,2.17615,6.71269
42,575,3.0531,-6.15308,0,0,0,0,0,0,0,-1,1266,449,3.05308,6.15307
49,575,3.79297,-4.23749,0,0,0,0,0,0,0,-1,1273,449,3.79298,4.23747
56,575,3.59668,-5.21085,0,0,0,0,0,0,0,-1,1280,449,3.59665,5.21085
63,575,3.85413,-5.50064,0.0103532,0.0460802,-0.00708942,0.0474356,0.00899782,-1.3819,0.029092,0.0460862,1287,449,3.85412,5.50064
70,575,3.93652,-5.68835,0.00478255,0.0317828,-0.00532197,0.0327939,0.00377141,-1.38304,0.0207202,0.0455037,1294,449,3.93654,5.68836
77,575,3.94543,-5.69437,-0.00114775,0.0178196,-0.00412712,0.0186787,-0.00200686,-1.36557,0.0131725,0.0487948,1301,449,3.94539,5.69436
84,575,4.05701,-5.58853,-0.00818278,0.00543371,-0.0049628,0.00705052,-0.00979958,-1.25585,0.00977148,0.0467223,1308,449,4.05702,5.58852
91,575,3.79138,-5.53265,-0.0145782,-0.0119983,-0.00579197,-0.0073544,-0.0192221,-0.894967,0.0111994,0.0444627,1315,449,3.79143,5.53267
98,575,3.43628,-5.47388,-0.0212688,-0.0156245,-0.00700453,-0.0108949,-0.0259984,-0.976904,0.0150756,0.0430931,1322,449,3.43629,5.47388
105,575,3.06262,-5.45081,-0.0268442,-0.0185328,-0.00754723,-0.0140728,-0.0313042,-1.03706,0.0181041,0.0434903,1329,449,3.06259,5.45081
112,575,2.65063,-5.48404,-0.0301814,-0.0209712,-0.00789145,-0.0164395,-0.0347132,-1.04952,0.020051,0.0432774,1336,449,2.65064,5.48404
119,575,2.04749,-5.37582,-0.031802,-0.0229692,-0.008571,-0.0177437,-0.0370275,-1.02329,0.021384,0.0433635,1343,449,2.04755,5.37581
126,575,1.53528,-5.05359,0,0,0,0,0,0,0,-1,1350,449,1.53523,5.05359
133,575,1.13196,-4.72232,0,0,0,0,0,0,0,-1,1357,449,1.132,4.72231
140,575,2.4187,-5.97638,0,0,0,0,0,0,0,-1,1364,449,2.41867,5.97639
147,575,3.35352,-7.00204,0,0,0,0,0,0,0,-1,1371,449,3.35356,7.00204
154,575,2.07251,-6.2977,0,0,0,0,0,0,0,-1,1378,449,2.07255,6.2977
161,575,2.21631,-6.39359,0,0,0,0,0,0,0,-1,1385,449,2.21636,6.39358
168,575,9.2522,-0.307129,0,0,0,0,0,0,0,-1,1392,449,9.25225,0.307127
175,575,4.32617,1.93634,0,0,0,0,0,0,0,-1,1399,449,4.32612,-1.93634
182,575,6.3147,-2.88345,0,0,0,0,0,0,0,-1,1406,449,6.31466,2.88346
189,575,6.10449,-1.30817,0,0,0,0,0,0,0,-1,1413,449,6.10455,1.30817
196,575,5.79895,0.818359,0,0,0,0,0,0,0,-1,1420,449,5.79895,-0.81837
203,575,3.29724,-1.46378,0,0,0,0,0,0,0,-1,1427,449,3.29722,1.46377
210,575,2.35791,-4.11343,0,0,0,0,0,0,0,-1,1434,449,2.35785,4.11343
217,575,2.28613,-6.31992,0,0,0,0,0,0,0,-1,1441,449,2.2861,6.31991
224,575,2.47437,-6.36496,0,0,0,0,0,0,0,-1,1448,449,2.47438,6.36495
231,575,2.76135,-6.16205,0,0,0,0,0,0,0,-1,1455,449,2.7613,6.16205
238,575,3.03638,-6.15634,0.00129692,0.00270897,-0.000690723,0.00299066,0.00101524,-1.18358,0.00175607,0.0484131,1462,449,3.03639,6.15635
245,575,2.85303,-5.991,0.00084716,0.00158008,-0.00131985,0.0025834,-0.00015616,-0.920813,0.00177661,0.0483016,1469,449,2.85302,5.99101
252,575,2.85437,-5.70621,0,0,0,0,0,0,0,-1,1476,449,2.85432,5.70621
259,575,2.88477,-5.62088,0.000325491,-0.000201632,-0.00191252,0.00199253,-0.00186867,-0.716925,0.00222964,0.0395265,1483,449,2.88479,5.62088
266,575,2.89038,-5.70154,8.39529e-05,-0.0010479,-0.00252098,0.00210175,-0.0030657,-0.674986,0.00300068,0.0307666,1490,449,2.8904,5.70154
273,575,2.85608,-5.65308,-0.00024959,-0.00161923,-0.00282398,0.00197142,-0.00384024,-0.666444,0.0034127,0.0208655,1497,449,2.85612,5.65308
280,575,2.85034,-5.52045,-0.00038385,-0.00236246,-0.00302667,0.0018111,-0.00455741,-0.627441,0.00378911,0.0152808,1504,449,2.85033,5.52046
287,575,2.85046,-5.44931,-0.000356446,-0.00270773,-0.00314566,0.00182609,-0.00489026,-0.606568,0.00400995,0.0116136,1511,449,2.85041,5.44931
294,575,2.86816,-5.35162,-0.000107866,-0.00313655,-0.00309501,0.00182342,-0.00506783,-0.557879,0.00412303,0.00983138,1518,449,2.86817,5.35163
301,575,2.88159,-5.2919,-0.000122708,-0.00331218,-0.00322246,0.00187803,-0.00531292,-0.555626,0.00430669,0.0093593,1525,449,2.88164,5.2919
308,575,2.89441,-5.20715,-0.00032391,-0.00337447,-0.00320432,0.00169964,-0.00539801,-0.563264,0.00427925,0.0106449,1532,449,2.89441,5.20715
315,575,2.88306,-5.11404,-0.000393382,-0.00314123,-0.00301198,0.00154324,-0.00507785,-0.571419,0.00400014,0.0108695,1539,449,2.88306,5.11403
322,575,2.89111,-5.02457,-0.000392953,-0.00281406,-0.00271322,0.00136752,-0.00457454,-0.575567,0.00359335,0.00938261,1546,449,2.89108,5.02455
329,575,2.89209,-4.93472,-0.000305718,-0.00272633,-0.00249765,0.00125942,-0.00429147,-0.559781,0.0033604,0.0100852,1553,449,2.89208,4.93472
336,575,2.88159,-4.84592,-0.00019796,-0.00254495,-0.00223408,0.00115207,-0.00389499,-0.543569,0.003054,0.0116874,1560,449,2.88164,4.84592
343,575,2.89771,-4.75055,-3.91644e-05,-0.00224241,-0.00184853,0.0010111,-0.00329267,-0.516681,0.00259857,0.0112724,1567,449,2.89774,4.75056
350,575,2.89185,-4.65298,0.000220268,-0.0018971,-0.00139726,0.000914621,-0.00259145,-0.461197,0.00209998,0.0104977,1574,449,2.8919,4.65297
357,575,2.89014,-4.54285,0.00053773,-0.00151423,-0.000907581,0.000881546,-0.00185804,-0.362121,0.00161485,0.0108628,1581,449,2.89009,4.54285
364,575,2.89832,-4.44104,0.000829702,-0.00111166,-0.000427417,0.000919637,-0.0012016,-0.20739,0.0012283,0.0104387,1588,449,2.89828,4.44104
371,575,2.87366,-4.3609,0.00104736,-0.000744099,0.000128736,0.00105656,-0.000753303,0.0713725,0.0010498,0.018182,1595,449,2.8736,4.36089
378,575,2.87817,-4.25418,0.00111574,-0.00041801,0.000599173,0.00132206,-0.000624328,0.331622,0.00114756,0.0169434,1602,449,2.87812,4.25419
385,575,2.88379,-4.13248,0.001122,0.000148384,0.00100015,0.00174752,-0.000477136,0.558908,0.00135241,0.0101217,1609,449,2.88384,4.13247
392,575,2.87195,-4.02246,0.00120985,0.000454923,0.0013232,0.00220837,-0.000543599,0.646456,0.00168297,0.0083412,1616,449,2.87193,4.02247
399,575,2.87939,-3.92157,0.00127096,0.00098782,0.00184045,0.00297528,-0.000716498,0.747013,0.00226052,0.00884504,1623,449,2.87936,3.92156
406,575,2.88867,-3.79938,0.000965927,0.00176464,0.00232902,0.00372829,-0.000997726,0.870308,0.00287638,0.00972182,1630,449,2.88866,3.79936
413,575,2.88232,-3.69568,0.000329342,0.00255888,0.00259857,0.0042717,-0.00138348,0.988022,0.003404,0.0118877,1637,449,2.88229,3.69567
420,575,2.85693,-3.56116,-0.000126021,0.00354331,0.00294298,0.00517666,-0.00175937,1.06412,0.00416338,0.0132438,1644,449,2.85699,3.56116
427,575,2.8219,-3.45743,-0.000647664,0.00492803,0.00327247,0.00643915,-0.00215879,1.1382,0.005165,0.017384,1651,449,2.82188,3.45743
434,575,2.77393,-3.34494,-0.00160866,0.00653464,0.00344597,0.00779713,-0.00287115,1.21962,0.00637445,0.023599,1658,449,2.7739,3.34493
441,575,2.86169,-3.25534,-0.00243901,0.0085971,0.00342477,0.0095735,-0.00341541,1.29306,0.00777501,0.0388031,1665,449,2.86175,3.25533
448,575,2.96399,-3.18661,0,0,0,0,0,0,0,-1,1672,449,2.96404,3.18663
455,575,3.39868,-2.50912,0,0,0,0,0,0,0,-1,1679,449,3.39871,2.50914
462,575,2.20142,-2.87039,0,0,0,0,0,0,0,-1,1686,449,2.20136,2.8704
469,575,2.37,-2.62753,0,0,0,0,0,0,0,-1,1693,449,2.36997,2.62752
476,575,2.53857,-2.38464,0,0,0,0,0,0,0,-1,1700,449,2.53858,2.38465
483,575,2.9021,-2.22083,-0.0035371,0.0258834,-0.00770409,0.0277787,-0.0054324,-1.32957,0.0205705,0.049121,1707,449,2.90211,2.22081
490,575,2.62695,-2.34076,-0.00269835,0.0288058,-0.0121123,0.0329242,-0.00681672,-1.24304,0.0245394,0.0457307,1714,449,2.62698,2.34076
497,575,0,0,0,0,0,0,0,0,0,-1,1721,449,0,0
504,575,0,0,0,0,0,0,0,0,0,-1,1728,449,0,0
511,575,0,0,0,0,0,0,0,0,0,-1,1735,449,0,0
518,575,0,0,0,0,0,0,0,0,0,-1,1742,449,0,0
525,575,0,0,0,0,0,0,0,0,0,-1,1749,449,0,0
532,575,0,0,0,0,0,0,0,0,0,-1,1756,449,0,0
539,575,0,0,0,0,0,0,0,0,0,-1,1763,449,0,0
546,575,0,0,0,0,0,0,0,0,0,-1,1770,449,0,0
553,575,0,0,0,0,0,0,0,0,0,-1,1777,449,0,0
560,575,0,0,0,0,0,0,0,0,0,-1,1784,449,0,0
567,575,0,0,0,0,0,0,0,0,0,-1,1791,449,0,0
574,575,0,0,0,0,0,0,0,0,0,-1,1798,449,0,0
581,575,0,0,0,0,0,0,0,0,0,-1,1805,449,0,0
588,575,0,0,0,0,0,0,0,0,0,-1,1812,449,0,0
595,575,0,0,0,0,0,0,0,0,0,-1,1819,449,0,0
602,575,0,0,0,0,0,0,0,0,0,-1,1826,449,0,0
609,575,0,0,0,0,0,0,0,0,0,-1,1833,449,0,0
616,575,0,0,0,0,0,0,0,0,0,-1,1840,449,0,0
623,575,0,0,0,0,0,0,0,0,0,-1,1847,449,0,0
630,575,0,0,0,0,0,0,0,0,0,-1,1854,449,0,0
637,575,0,0,0,0,0,0,0,0,0,-1,1861,449,0,0
644,575,0,0,0,0,0,0,0,0,0,-1,1868,449,0,0
651,575,0,0,0,0,0,0,0,0,0,-1,1875,449,0,0
658,575,0,0,0,0,0,0,0,0,0,-1,1882,449,0,0
665,575,0,0,0,0,0,0,0,0,0,-1,1889,449,0,0
672,575,0,0,0,0,0,0,0,0,0,-1,1896,449,0,0
679,575,0,0,0,0,0,0,0,0,0,-1,1903,449,0,0
686,575,0,0,0,0,0,0,0,0,0,-1,1910,449,0,0
693,575,0,0,0,0,0,0,0,0,0,-1,1917,449,0,0
700,575,0,0,0,0,0,0,0,0,0,-1,1924,449,0,0
707,575,0,0,0,0,0,0,0,0,0,-1,1931,449,0,0
714,575,0,0,0,0,0,0,0,0,0,-1,1938,449,0,0
721,575,0,0,0,0,0,0,0,0,0,-1,1945,449,0,0
728,575,0,0,0,0,0,0,0,0,0,-1,1952,449,0,0
735,575,0,0,0,0,0,0,0,0,0,-1,1959,449,0,0
742,575,0,0,0,0,0,0,0,0,0,-1,1966,449,0,0
749,575,0,0,0,0,0,0,0,0,0,-1,1973,449,0,0
756,575,0,0,0,0,0,0,0,0,0,-1,1980,449,0,0
763,575,0,0,0,0,0,0,0,0,0,-1,1987,449,0,0
770,575,0,0,0,0,0,0,0,0,0,-1,1994,449,0,0
777,575,0,0,0,0,0,0,0,0,0,-1,2001,449,0,0
784,575,0,0,0,0,0,0,0,0,0,-1,2008,449,0,0
791,575,0,0,0,0,0,0,0,0,0,-1,2015,449,0,0
798,575,0,0,0,0,0,0,0,0,0,-1,2022,449,0,0
805,575,0,0,0,0,0,0,0,0,0,-1,2029,449,0,0
812,575,0,0,0,0,0,0,0,0,0,-1,2036,449,0,0
-700,568,0,0,0,0,0,0,0,0,0,-1,524,456,0,0
-693,568,0,0,0,0,0,0,0,0,0,-1,531,456,0,0
-686,568,0,0,0,0,0,0,0,0,0,-1,538,456,0,0
-679,568,0,0,0,0,0,0,0,0,0,-1,545,456,0,0
-672,568,0,0,0,0,0,0,0,0,0,-1,552,456,0,0
-665,568,0,0,0,0,0,0,0,0,0,-1,559,456,0,0
-658,568,0,0,0,0,0,0,0,0,0,-1,566,456,0,0
-651,568,0,0,0,0,0,0,0,0,0,-1,573,456,0,0
-644,568,0,0,0,0,0,0,0,0,0,-1,580,456,0,0
-637,568,0,0,0,0,0,0,0,0,0,-1,587,456,0,0
-630,568,0,0,0,0,0,0,0,0,0,-1,594,456,0,0
-623,568,0,0,0,0,0,0,0,0,0,-1,601,456,0,0
-616,568,0,0,0,0,0,0,0,0,0,-1,608,456,0,0
-609,568,0,0,0,0,0,0,0,0,0,-1,615,456,0,0
-602,568,0,0,0,0,0,0,0,0,0,-1,622,456,0,0
-595,568,0,0,0,0,0,0,0,0,0,-1,629,456,0,0
-588,568,0,0,0,0,0,0,0,0,0,-1,636,456,0,0
-581,568,0,0,0,0,0,0,0,0,0,-1,643,456,0,0
-574,568,0,0,0,0,0,0,0,0,0,-1,650,456,0,0
-567,568,0,0,0,0,0,0,0,0,0,-1,657,456,0,0
-560,568,0,0,0,0,0,0,0,0,0,-1,664,456,0,0
-553,568,0,0,0,0,0,0,0,0,0,-1,671,456,0,0
-546,568,0,0,0,0,0,0,0,0,0,-1,678,456,0,0
-539,568,0,0,0,0,0,0,0,0,0,-1,685,456,0,0
-532,568,0,0,0,0,0,0,0,0,0,-1,692,456,0,0
-525,568,0,0,0,0,0,0,0,0,0,-1,699,456,0,0
-518,568,0,0,0,0,0,0,0,0,0,-1,706,456,0,0
-511,568,0,0,0,0,0,0,0,0,0,-1,713,456,0,0
-504,568,0,0,0,0,0,0,0,0,0,-1,720,456,0,0
-497,568,0,0,0,0,0,0,0,0,0,-1,727,456,0,0
-490,568,0,0,0,0,0,0,0,0,0,-1,734,456,0,0
-483,568,0,0,0,0,0,0,0,0,0,-1,741,456,0,0
-476,568,0,0,0,0,0,0,0,0,0,-1,748,456,0,0
-469,568,0,0,0,0,0,0,0,0,0,-1,755,456,0,0
-462,568,0,0,0,0,0,0,0,0,0,-1,762,456,0,0
-455,568,0,0,0,0,0,0,0,0,0,-1,769,456,0,0
-448,568,0,0,0,0,0,0,0,0,0,-1,776,456,0,0
-441,568,0,0,0,0,0,0,0,0,0,-1,783,456,0,0
-434,568,0,0,0,0,0,0,0,0,0,-1,790,456,0,0
-427,568,0,0,0,0,0,0,0,0,0,-1,797,456,0,0
-420,568,0,0,0,0,0,0,0,0,0,-1,804,456,0,0
-413,568,0,0,0,0,0,0,0,0,0,-1,811,456,0,0
-406,568,0,0,0,0,0,0,0,0,0,-1,818,456,0,0
-399,568,0,0,0,0,0,0,0,0,0,-1,825,456,0,0
-392,568,0,0,0,0,0,0,0,0,0,-1,832,456,0,0
-385,568,0,0,0,0,0,0,0,0,0,-1,839,456,0,0
-378,568,0.785156,-4.56241,0,0,0,0,0,0,0,-1,846,456,0.785153,4.56241
-371,568,0.955627,-4.65155,0.0118921,-0.0526067,0.000242774,0.011893,-0.0526076,0.00376394,0.0396354,0.049685,853,456,0.955612,4.65155
-364,568,1.18152,-4.67731,0.011593,-0.0522977,-0.00159904,0.011633,-0.0523377,-0.025007,0.0393469,0.0480425,860,456,1.18152,4.67732
-357,568,1.39825,-4.67667,0.00910961,-0.0487021,-0.00317583,0.00928354,-0.048876,-0.0547146,0.0360789,0.0459788,867,456,1.39826,4.67668
-350,568,1.69531,-4.50208,0.00582873,-0.0440374,-0.00454443,0.00623949,-0.0444482,-0.090143,0.0319159,0.04789,874,456,1.69532,4.50208
-343,568,2.10999,-4.37042,0,0,0,0,0,0,0,-1,881,456,2.10999,4.37044
-336,568,1.84686,-3.38596,0,0,0,0,0,0,0,-1,888,456,1.84686,3.38596
-329,568,1.81464,-3.47839,-0.000440325,-0.0285485,-0.00545411,0.000580888,-0.0295697,-0.185094,0.0199096,0.0454304,895,456,1.81465,3.47839
-322,568,2.1012,-3.6832,-0.00202568,-0.023013,-0.00469542,-0.00102309,-0.0240156,-0.210367,0.0156805,0.0397022,902,456,2.1012,3.68319
-315,568,1.97955,-3.92255,-0.0041629,-0.0171522,-0.00416293,-0.00294325,-0.0183718,-0.285004,0.0113942,0.0371048,909,456,1.97958,3.92255
-308,568,1.72577,-4.026,-0.0057317,-0.0123609,-0.00361261,-0.00414349,-0.0139491,-0.414196,0.00827173,0.0251533,916,456,1.72578,4.02599
-301,568,1.71246,-4.11871,-0.00471963,-0.00871945,-0.0029677,-0.00314087,-0.0102982,-0.488904,0.00609455,0.0133722,923,456,1.71244,4.11872
-294,568,1.68158,-4.18585,-0.00351247,-0.00581558,-0.00175358,-0.00256614,-0.00676191,-0.494867,0.0039416,0.0109117,930,456,1.6816,4.18584
-287,568,1.6601,-4.29468,-0.00229359,-0.00352893,-0.000808226,-0.00189404,-0.00392849,-0.459125,0.0022686,0.00997056,937,456,1.66012,4.29469
-280,568,1.66174,-4.41245,-0.00139551,-0.00182668,-0.000388478,-0.00116681,-0.00205538,-0.532083,0.0011903,0.0105432,944,456,1.66174,4.41244
-273,568,1.66492,-4.5293,-0.00119618,-0.00132521,-0.000398552,-0.000856956,-0.00166443,-0.705159,0.000961103,0.0115117,951,456,1.6649,4.5293
-266,568,1.64478,-4.65012,-0.000712231,-0.000778162,-0.000492398,-0.000251696,-0.0012387,-0.751974,0.000755997,0.0107618,958,456,1.64475,4.65012
-259,568,1.65387,-4.73245,-0.000271462,-0.000275884,-0.000560547,0.000286878,-0.000834224,-0.783426,0.000672491,0.0121957,965,456,1.65389,4.73247
-252,568,1.65198,-4.79828,5.89426e-05,0.000126428,-0.000658284,0.000751834,-0.000566463,-0.811005,0.000763623,0.0128592,972,456,1.65197,4.79829
-245,568,1.63586,-4.89059,0.000361954,0.000523436,-0.000704536,0.00115184,-0.000266452,-0.84245,0.000870415,0.0131302,979,456,1.63586,4.8906
-238,568,1.63464,-4.98758,0.000605183,0.000806968,-0.000804266,0.00151664,-0.000104494,-0.847795,0.00104767,0.0116944,986,456,1.63463,4.98759
-231,568,1.6524,-5.08591,0.000948217,0.000714936,-0.000908966,0.001748,-8.48426e-05,-0.721586,0.00119462,0.0108479,993,456,1.65239,5.08591
-224,568,1.65491,-5.18314,0.00141981,0.000824047,-0.000860213,0.00203226,0.000211599,-0.618716,0.0012901,0.0127954,1000,456,1.65492,5.18313
-217,568,1.67316,-5.2699,0.00181183,0.000901872,-0.00078299,0.00226243,0.00045127,-0.522202,0.00138264,0.0111492,1007,456,1.67313,5.26991
-210,568,1.6723,-5.35312,0.00199438,0.000811357,-0.000831632,0.00242341,0.000382332,-0.476274,0.00150444,0.0108017,1014,456,1.6723,5.35312
-203,568,1.67377,-5.42105,0.0020702,0.00178696,-0.000763791,0.00270539,0.00115177,-0.693728,0.00156769,0.0101508,1021,456,1.67374,5.42104
-196,568,1.70386,-5.48566,0.00204198,0.0028012,-0.000583541,0.00311774,0.00172544,-1.07377,0.00180345,0.0128421,1028,456,1.70383,5.48567
-189,568,1.71631,-5.5589,0.00192682,0.00372982,-0.00039941,0.00381434,0.0018423,-1.36227,0.00220263,0.0129964,1035,456,1.7163,5.55889
-182,568,1.7052,-5.63922,0.00179067,0.00466323,-7.45452e-05,0.00466517,0.00178874,-1.54487,0.00271773,0.0147131,1042,456,1.70519,5.63923
-175,568,1.70105,-5.72391,0.00155431,0.00586155,0.000143627,0.00586633,0.00154952,1.5375,0.00351029,0.0119535,1049,456,1.70104,5.7239
-168,568,1.68164,-5.77048,0.00240153,0.00582357,-0.000210882,0.00583651,0.00238858,-1.50948,0.00338816,0.0144274,1056,456,1.68169,5.77049
-161,568,1.68286,-5.83405,0.00386049,0.00528164,-0.000889864,0.00570982,0.0034323,-1.12232,0.00331896,0.0221288,1063,456,1.68281,5.83404
-154,568,1.73584,-5.99036,0.00552659,0.00476196,-0.00190119,0.00708352,0.00320502,-0.686175,0.00409583,0.0280943,1070,456,1.73579,5.99035
-147,568,1.78491,-6.09103,0.00774665,0.00364318,-0.00305821,0.00937761,0.00201221,-0.489937,0.00570064,0.033098,1077,456,1.78487,6.09103
-140,568,1.74402,-6.10284,0.0111638,0.000588465,-0.00383838,0.0124101,-0.000657821,-0.313952,0.00850116,0.0421605,1084,456,1.74401,6.10284
-133,568,1.80115,-5.75443,0.0136256,-0.00369494,-0.0056137,0.0152859,-0.00535522,-0.287559,0.0123683,0.0436775,1091,456,1.8011,5.75441
-126,568,1.90942,-5.79239,0,0,0,0,0,0,0,-1,1098,456,1.90948,5.79238
-119,568,1.91162,-5.69427,0.0110213,-0.0104429,-0.0167725,0.0202013,-0.019623,-0.500789,0.0229934,0.0492886,1105,456,1.91166,5.69429
-112,568,2.27722,-5.97754,0.00771024,-0.0130232,-0.0256537,0.0250126,-0.0303256,-0.593379,0.0319986,0.0478551,1112,456,2.27725,5.97753
-105,568,2.8053,-6.23172,0.00380579,-0.0146597,-0.0352696,0.0310311,-0.041885,-0.657382,0.0422533,0.0453598,1119,456,2.80534,6.23172
-98,568,2.54004,-5.95554,0,0,0,0,0,0,0,-1,1126,456,2.54004,5.95552
-91,568,1.67053,-5.29984,-0.0071926,-0.017621,-0.0547829,0.0426237,-0.0674373,-0.737952,0.0640798,0.043807,1133,456,1.67055,5.29983
-84,568,2.06213,-5.24231,-0.0143294,-0.0157528,-0.0652034,0.0501662,-0.0802484,-0.779941,0.0759597,0.0450796,1140,456,2.06212,5.2423
-77,568,2.63525,-5.50061,0,0,0,0,0,0,0,-1,1147,456,2.63521,5.50062
-70,568,-3.02808,-1.30753,-0.0278018,-0.0106017,-0.0849707,0.0662031,-0.104607,-0.835832,0.0994444,0.0433193,1154,456,-3.02805,1.30753
-63,568,-4.26746,-3.54434,0,0,0,0,0,0,0,-1,1161,456,-4.26746,3.54434
-56,568,-5.24158,-6.01385,0,0,0,0,0,0,0,-1,1168,456,-5.24161,6.01386
-49,568,-5.24365,-8.33557,0,0,0,0,0,0,0,-1,1175,456,-5.24371,8.33557
-42,568,-0.664795,0.521973,0,0,0,0,0,0,0,-1,1182,456,-0.664829,-0.521984
-35,568,-0.153076,-1.67731,0,0,0,0,0,0,0,-1,1189,456,-0.153068,1.67731
-28,568,1.25439,-4.48798,0,0,0,0,0,0,0,-1,1196,456,1.2544,4.48797
-21,568,4.84448,-3.24237,0,0,0,0,0,0,0,-1,1203,456,4.84454,3.24238
-14,568,3.32935,-6.93719,0,0,0,0,0,0,0,-1,1210,456,3.32929,6.9372
-7,568,3.63489,-7.24921,0,0,0,0,0,0,0,-1,1217,456,3.63484,7.24921
0,568,5.44861,-6.99167,0,0,0,0,0,0,0,-1,1224,456,5.44862,6.99166
7,568,5.70288,-7.37372,0.0378756,0.0961703,-0.0755035,0.147957,-0.0139113,-0.969605,0.103587,0.0476964,1231,456,5.70294,7.37371
14,568,6.03076,-7.82401,0.0350292,0.110431,-0.0649337,0.147815,-0.0023548,-1.04842,0.0993375,0.0423248,1238,456,6.03082,7.82402
21,568,6.12476,-8.03906,0.0327975,0.121221,-0.0542711,0.14701,0.00700909,-1.1272,0.0957557,0.041224,1245,456,6.12478,8.03905
28,568,6.31689,-8.23648,0,0,0,0,0,0,0,-1,1252,456,6.31688,8.23647
35,568,6.43591,-8.1665,0,0,0,0,0,0,0,-1,1259,456,6.43591,8.16649
42,568,2.41321,-3.79086,0.0236357,0.114649,-0.0237139,0.120457,0.0178276,-1.3306,0.0750712,0.0440614,1266,456,2.41324,3.79085
49,568,2.85059,-4.42798,0.0188536,0.103305,-0.0145646,0.105746,0.0164123,-1.40473,0.0657137,0.0434198,1273,456,2.85056,4.42799
56,568,3.16284,-4.9808,0.0138783,0.0879854,-0.00780449,0.0887984,0.0130653,-1.467,0.0553602,0.0432433,1280,456,3.1629,4.98081
63,568,3.51233,-5.48105,0.00788829,0.0690676,-0.00322226,0.0692369,0.00771905,-1.51832,0.0438122,0.0443041,1287,456,3.51237,5.48104
70,568,3.92908,-6.50705,0.00200974,0.0503787,-0.00137622,0.0504179,0.00197062,-1.54237,0.0329747,0.0464373,1294,456,3.92912,6.50704
77,568,3.99182,-6.04355,-0.0044174,0.0314772,-0.000258546,0.031479,-0.00441926,-1.56359,0.0226036,0.0448086,1301,456,3.9918,6.04355
84,568,4.15991,-5.68002,-0.0122855,0.0140535,-0.00197782,0.0142012,-0.0124332,-1.49626,0.0153886,0.044737,1308,456,4.15989,5.68001
91,568,4.05566,-5.51025,-0.0191285,-0.0099324,-0.0038682,-0.0085217,-0.0205392,-1.22109,0.0119154,0.0408648,1315,456,4.05567,5.51024
98,568,3.74646,-5.39584,-0.0265734,-0.0148792,-0.00613496,-0.0122513,-0.0292014,-1.16609,0.016932,0.0420021,1322,456,3.74651,5.39584
105,568,3.39148,-5.26477,-0.0328023,-0.0190735,-0.00751443,-0.0157601,-0.0361156,-1.15551,0.0209075,0.0466994,1329,456,3.39143,5.26477
112,568,2.80054,-5.02283,-0.036358,-0.0227186,-0.00892529,-0.0183058,-0.0407708,-1.11163,0.0235798,0.049121,1336,456,2.80052,5.02282
119,568,1.83167,-4.83258,-0.0374287,-0.0252083,-0.0106214,-0.019065,-0.043572,-1.04642,0.0252216,0.0455256,1343,456,1.83169,4.83259
126,568,1.3302,-4.59445,0,0,0,0,0,0,0,-1,1350,456,1.33019,4.59445
133,568,1.75891,-6.64346,0,0,0,0,0,0,0,-1,1357,456,1.75891,6.64345
140,568,5.31909,-9.96408,0,0,0,0,0,0,0,-1,1364,456,5.31914,9.96407
147,568,3.60046,-7.77509,0,0,0,0,0,0,0,-1,1371,456,3.60042,7.77507
154,568,2.69702,-6.87051,0,0,0,0,0,0,0,-1,1378,456,2.69704,6.87053
161,568,2.27234,-6.64267,0,0,0,0,0,0,0,-1,1385,456,2.27234,6.64266
168,568,9.09583,-0.563782,0,0,0,0,0,0,0,-1,1392,456,9.09586,0.563788
175,568,10.5151,0.747498,0,0,0,0,0,0,0,-1,1399,456,10.5152,-0.747501
182,568,6.35095,-3.63361,0,0,0,0,0,0,0,-1,1406,456,6.35093,3.63359
189,568,6.17493,-1.70911,0,0,0,0,0,0,0,-1,1413,456,6.17497,1.70911
196,568,6.04724,0.200836,0,0,0,0,0,0,0,-1,1420,456,6.04724,-0.200835
203,568,5.9281,2.08649,0,0,0,0,0,0,0,-1,1427,456,5.92812,-2.08648
210,568,1.46216,-2.50446,0,0,0,0,0,0,0,-1,1434,456,1.46219,2.50446
217,568,2.82178,-5.24588,0,0,0,0,0,0,0,-1,1441,456,2.82172,5.24588
224,568,2.38965,-6.14996,0,0,0,0,0,0,0,-1,1448,456,2.3897,6.14998
231,568,2.02234,-4.78796,0,0,0,0,0,0,0,-1,1455,456,2.02238,4.78796
238,568,3.25317,-6.27866,0,0,0,0,0,0,0,-1,1462,456,3.25321,6.27867
245,568,2.89441,-6.02661,0,0,0,0,0,0,0,-1,1469,456,2.89438,6.02661
252,568,2.82751,-4.9436,0,0,0,0,0,0,0,-1,1476,456,2.82747,4.94361
259,568,2.99255,-5.5105,0,0,0,0,0,0,0,-1,1483,456,2.9925,5.51051
266,568,3.71924,-4.75623,0,0,0,0,0,0,0,-1,1490,456,3.71924,4.75622
273,568,3.44727,-4.90134,0,0,0,0,0,0,0,-1,1497,456,3.44728,4.90133
280,568,2.85583,-5.58801,-0.000765034,-0.00354891,-0.00423513,0.00230103,-0.00661498,-0.626626,0.00534473,0.0482242,1504,456,2.85586,5.58801
287,568,2.91443,-5.43503,-0.000592946,-0.00407232,-0.00443554,0.00243188,-0.00709714,-0.59851,0.00571714,0.0277678,1511,456,2.91444,5.43502
294,568,2.99438,-5.36935,-0.000218526,-0.00472737,-0.00446045,0.00252485,-0.00747075,-0.551409,0.00600183,0.0223078,1518,456,2.99432,5.36935
301,568,2.97852,-5.29971,-0.00029348,-0.00506418,-0.00475319,0.00263932,-0.00799698,-0.552838,0.00639529,0.0172749,1525,456,2.97853,5.2997
308,568,2.96753,-5.20941,-0.000640437,-0.00522874,-0.00486338,0.00244273,-0.0083119,-0.565014,0.00651011,0.0113183,1532,456,2.96755,5.20942
315,568,2.96533,-5.11707,-0.000817679,-0.00496382,-0.00471178,0.00225692,-0.00803842,-0.578155,0.00624862,0.00772569,1539,456,2.96531,5.11705
322,568,2.96863,-5.02011,-0.000987075,-0.00441635,-0.00440199,0.00202242,-0.00742585,-0.599681,0.00574462,0.00886391,1546,456,2.96861,5.0201
329,568,2.9812,-4.91965,-0.00100966,-0.00418975,-0.00416203,0.00185571,-0.00705512,-0.602936,0.00542876,0.0098917,1553,456,2.98124,4.91965
336,568,2.97998,-4.8295,-0.00101464,-0.00386677,-0.00387191,0.00168547,-0.00656688,-0.608951,0.00503468,0.0108199,1560,456,2.97996,4.82948
343,568,3,-4.7395,-0.000955903,-0.00337538,-0.00340599,0.00144881,-0.00578009,-0.614757,0.00441627,0.0106794,1567,456,2.99998,4.73951
350,568,3.00256,-4.66016,-0.000761574,-0.00284791,-0.00284609,0.0012265,-0.00483598,-0.609737,0.00370119,0.00964427,1574,456,3.00254,4.66017
357,568,2.99597,-4.55237,-0.000484714,-0.00224938,-0.00223649,0.0010372,-0.00377129,-0.597513,0.00292195,0.00929302,1581,456,2.99592,4.55236
364,568,3.00171,-4.44595,-0.00021431,-0.00164009,-0.00162271,0.000845199,-0.00269959,-0.57843,0.0021379,0.011392,1588,456,3.00165,4.44594
371,568,3.00842,-4.33804,2.25075e-05,-0.00107302,-0.00092452,0.000549351,-0.00159987,-0.51796,0.00128931,0.0201881,1595,456,3.00841,4.33803
378,568,2.99231,-4.22278,0.000163904,-0.000618693,-0.00036202,0.000305684,-0.000760473,-0.373276,0.000633939,0.0178678,1602,456,2.99228,4.22277
385,568,2.98096,-4.12189,0.000271327,5.62873e-06,0.000131045,0.000325084,-4.81278e-05,0.389281,0.000234418,0.00807351,1609,456,2.98093,4.12189
392,568,2.97229,-4.02271,0.000454798,0.000363255,0.000554065,0.000964979,-0.000146925,0.744186,0.000697472,0.0089219,1616,456,2.97225,4.02272
399,568,2.94788,-3.94354,0.000622503,0.00083696,0.00108369,0.00181871,-0.000359246,0.834711,0.00134827,0.0147796,1623,456,2.94793,3.94354
406,568,2.98523,-3.81445,0.000518285,0.00149666,0.00158449,0.00266576,-0.000650818,0.935123,0.00202921,0.0137204,1630,456,2.98527,3.81445
413,568,2.99719,-3.6893,0.000136417,0.00210209,0.00186798,0.00323001,-0.000991506,1.02757,0.00254895,0.0114463,1637,456,2.99713,3.68929
420,568,2.98267,-3.56985,-8.89886e-05,0.00280959,0.00217444,0.00397347,-0.00125287,1.07935,0.00315076,0.0105159,1644,456,2.98269,3.56986
427,568,2.97266,-3.44324,-0.000269324,0.00377167,0.00251526,0.00497747,-0.00147512,1.12377,0.00390404,0.0119268,1651,456,2.97261,3.44325
434,568,2.98071,-3.34348,-0.000904731,0.00498256,0.00273968,0.00606022,-0.00198239,1.19603,0.00483826,0.014611,1658,456,2.98077,3.34347
441,568,3.03296,-3.25647,-0.00137063,0.00660757,0.0028253,0.00750675,-0.00226981,1.26267,0.00590827,0.0214566,1665,456,3.03293,3.25646
448,568,3.22217,-2.96338,-0.00117245,0.00875839,0.00208682,0.00917909,-0.00159315,1.37187,0.00671375,0.0390111,1672,456,3.22213,2.96336
455,568,3.30286,-2.72183,-0.00158367,0.0107493,0.00140849,0.0109081,-0.00174248,1.45852,0.00791708,0.0470651,1679,456,3.30288,2.72182
462,568,2.82617,-2.83704,-0.00187372,0.0130167,0.000185444,0.013019,-0.00187603,1.55835,0.00936752,0.044448,1686,456,2.8262,2.83704
469,568,2.69055,-2.65826,-0.00171408,0.015324,-0.00170715,0.0154933,-0.00188345,-1.47191,0.0110105,0.0394567,1693,456,2.69054,2.65826
476,568,2.83997,-2.46988,-0.00135214,0.0180925,-0.00408109,0.0189143,-0.00217395,-1.37208,0.0133931,0.0432527,1700,456,2.83994,2.46988
483,568,2.88452,-2.43219,-0.000642611,0.0208739,-0.00723555,0.0230807,-0.00284943,-1.27476,0.0164196,0.0496217,1707,456,2.88446,2.43218
490,568,2.57788,-2.42612,0.000309195,0.023348,-0.0114306,0.0280568,-0.00439964,-1.18003,0.0203304,0.0482012,1714,456,2.57783,2.42613
497,568,2.50293,-2.10956,0.00171923,0.0260451,-0.016986,0.0347738,-0.0070095,-1.09611,0.0258379,0.0466999,1721,456,2.50293,2.10955
504,568,0,0,0,0,0,0,0,0,0,-1,1728,456,0,0
511,568,0,0,0,0,0,0,0,0,0,-1,1735,456,0,0
518,568,0,0,0,0,0,0,0,0,0,-1,1742,456,0,0
525,568,0,0,0,0,0,0,0,0,0,-1,1749,456,0,0
532,568,0,0,0,0,0,0,0,0,0,-1,1756,456,0,0
539,568,0,0,0,0,0,0,0,0,0,-1,1763,456,0,0
546,568,0,0,0,0,0,0,0,0,0,-1,1770,456,0,0
553,568,0,0,0,0,0,0,0,0,0,-1,1777,456,0,0
560,568,0,0,0,0,0,0,0,0,0,-1,1784,456,0,0
567,568,0,0,0,0,0,0,0,0,0,-1,1791,456,0,0
574,568,0,0,0,0,0,0,0,0,0,-1,1798,456,0,0
581,568,0,0,0,0,0,0,0,0,0,-1,1805,456,0,0
588,568,0,0,0,0,0,0,0,0,0,-1,1812,456,0,0
595,568,0,0,0,0,0,0,0,0,0,-1,1819,456,0,0
602,568,0,0,0,0,0,0,0,0,0,-1,1826,456,0,0
609,568,0,0,0,0,0,0,0,0,0,-1,1833,456,0,0
616,568,0,0,0,0,0,0,0,0,0,-1,1840,456,0,0
623,568,0,0,0,0,0,0,0,0,0,-1,1847,456,0,0
630,568,0,0,0,0,0,0,0,0,0,-1,1854,456,0,0
637,568,0,0,0,0,0,0,0,0,0,-1,1861,456,0,0
644,568,0,0,0,0,0,0,0,0,0,-1,1868,456,0,0
651,568,0,0,0,0,0,0,0,0,0,-1,1875,456,0,0
658,568,0,0,0,0,0,0,0,0,0,-1,1882,456,0,0
665,568,0,0,0,0,0,0,0,0,0,-1,1889,456,0,0
672,568,0,0,0,0,0,0,0,0,0,-1,1896,456,0,0
679,568,0,0,0,0,0,0,0,0,0,-1,1903,456,0,0
686,568,0,0,0,0,0,0,0,0,0,-1,1910,456,0,0
693,568,0,0,0,0,0,0,0,0,0,-1,1917,456,0,0
700,568,0,0,0,0,0,0,0,0,0,-1,1924,456,0,0
707,568,0,0,0,0,0,0,0,0,0,-1,1931,456,0,0
714,568,0,0,0,0,0,0,0,0,0,-1,1938,456,0,0
721,568,0,0,0,0,0,0,0,0,0,-1,1945,456,0,0
728,568,0,0,0,0,0,0,0,0,0,-1,1952,456,0,0
735,568,0,0,0,0,0,0,0,0,0,-1,1959,456,0,0
742,568,0,0,0,0,0,0,0,0,0,-1,1966,456,0,0
749,568,0,0,0,0,0,0,0,0,0,-1,1973,456,0,0
756,568,0,0,0,0,0,0,0,0,0,-1,1980,456,0,0
763,568,0,0,0,0,0,0,0,0,0,-1,1987,456,0,0
770,568,0,0,0,0,0,0,0,0,0,-1,1994,456,0,0
777,568,0,0,0,0,0,0,0,0,0,-1,2001,456,0,0
784,568,0,0,0,0,0,0,0,0,0,-1,2008,456,0,0
791,568,0,0,0,0,0,0,0,0,0,-1,2015,456,0,0
798,568,0,0,0,0,0,0,0,0,0,-1,2022,456,0,0
805,568,0,0,0,0,0,0,0,0,0,-1,2029,456,0,0
812,568,0,0,0,0,0,0,0,0,0,-1,2036,456,0,0
-700,561,0,0,0,0,0,0,0,0,0,-1,524,463,0,0
-693,561,0,0,0,0,0,0,0,0,0,-1,531,463,0,0
-686,561,0,0,0,0,0,0,0,0,0,-1,538,463,0,0
-679,561,0,0,0,0,0,0,0,0,0,-1,545,463,0,0
-672,561,0,0,0,0,0,0,0,0,0,-1,552,463,0,0
-665,561,0,0,0,0,0,0,0,0,0,-1,559,463,0,0
-658,561,0,0,0,0,0,0,0,0,0,-1,566,463,0,0
-651,561,0,0,0,0,0,0,0,0,0,-1,573,463,0,0
-644,561,0,0,0,0,0,0,0,0,0,-1,580,463,0,0
-637,561,0,0,0,0,0,0,0,0,0,-1,587,463,0,0
-630,561,0,0,0,0,0,0,0,0,0,-1,594,463,0,0
-623,561,0,0,0,0,0,0,0,0,0,-1,601,463,0,0
-616,561,0,0,0,0,0,0,0,0,0,-1,608,463,0,0
-609,561,0,0,0,0,0,0,0,0,0,-1,615,463,0,0
-602,561,0,0,0,0,0,0,0,0,0,-1,622,463,0,0
-595,561,0,0,0,0,0,0,0,0,0,-1,629,463,0,0
-588,561,0,0,0,0,0,0,0,0,0,-1,636,463,0,0
-581,561,0,0,0,0,0,0,0,0,0,-1,643,463,0,0
-574,561,0,0,0,0,0,0,0,0,0,-1,650,463,0,0
-567,561,0,0,0,0,0,0,0,0,0,-1,657,463,0,0
-560,561,0,0,0,0,0,0,0,0,0,-1,664,463,0,0
-553,561,0,0,0,0,0,0,0,0,0,-1,671,463,0,0
-546,561,0,0,0,0,0,0,0,0,0,-1,678,463,0,0
-539,561,0,0,0,0,0,0,0,0,0,-1,685,463,0,0
-532,561,0,0,0,0,0,0,0,0,0,-1,692,463,0,0
-525,561,0,0,0,0,0,0,0,0,0,-1,699,463,0,0
-518,561,0,0,0,0,0,0,0,0,0,-1,706,463,0,0
-511,561,0,0,0,0,0,0,0,0,0,-1,713,463,0,0
-504,561,0,0,0,0,0,0,0,0,0,-1,720,463,0,0
-497,561,0,0,0,0,0,0,0,0,0,-1,727,463,0,0
-490,561,0,0,0,0,0,0,0,0,0,-1,734,463,0,0
-483,561,0,0,0,0,0,0,0,0,0,-1,741,463,0,0
-476,561,0,0,0,0,0,0,0,0,0,-1,748,463,0,0
-469,561,0,0,0,0,0,0,0,0,0,-1,755,463,0,0
-462,561,0,0,0,0,0,0,0,0,0,-1,762,463,0,0
-455,561,0,0,0,0,0,0,0,0,0,-1,769,463,0,0
-448,561,0,0,0,0,0,0,0,0,0,-1,776,463,0,0
-441,561,0,0,0,0,0,0,0,0,0,-1,783,463,0,0
-434,561,0,0,0,0,0,0,0,0,0,-1,790,463,0,0
-427,561,0,0,0,0,0,0,0,0,0,-1,797,463,0,0
-420,561,0,0,0,0,0,0,0,0,0,-1,804,463,0,0
-413,561,0,0,0,0,0,0,0,0,0,-1,811,463,0,0
-406,561,0,0,0,0,0,0,0,0,0,-1,818,463,0,0
-399,561,0,0,0,0,0,0,0,0,0,-1,825,463,0,0
-392,561,0.769714,-4.19144,0.00180422,-0.019835,0.00483354,0.00283481,-0.0208655,0.21007,0.0149452,0.0484103,832,463,0.769704,4.19145
-385,561,0.608643,-4.07831,0.00746392,-0.0302363,0.00378007,0.0078392,-0.0306116,0.0989541,0.0234615,0.0463887,839,463,0.608673,4.07831
-378,561,0.743347,-4.16733,0.0128965,-0.0362043,0.00278277,0.0130537,-0.0363615,0.0564337,0.0295688,0.0448242,846,463,0.743346,4.16733
-371,561,0.851135,-4.26602,0.0151504,-0.0399458,0.00183578,0.0152115,-0.0400069,0.0332704,0.0329344,0.0446741,853,463,0.851127,4.26602
-364,561,0.97644,-4.27609,0.0151008,-0.0404363,0.000433554,0.0151042,-0.0404397,0.00780594,0.0331616,0.0435388,860,463,0.976441,4.27608
-357,561,1.00159,-4.05582,0,0,0,0,0,0,0,-1,867,463,1.0016,4.05582
-350,561,1.34357,-4.01639,0,0,0,0,0,0,0,-1,874,463,1.34354,4.0164
-343,561,1.80188,-3.33429,0,0,0,0,0,0,0,-1,881,463,1.80187,3.3343
-336,561,1.72394,-3.45322,0.00571203,-0.0253693,-0.0030193,0.00600261,-0.0256599,-0.0959466,0.0194192,0.0452123,888,463,1.72394,3.45322
-329,561,1.65314,-3.62064,0.00267719,-0.0210588,-0.00320824,0.00310318,-0.0214848,-0.132008,0.0154618,0.0340077,895,463,1.65313,3.62062
-322,561,1.64117,-3.75003,0.000465719,-0.0167211,-0.0028054,0.000912052,-0.0171674,-0.157775,0.0117608,0.0271356,902,463,1.6412,3.75004
-315,561,1.6239,-3.85678,-0.00214382,-0.0121551,-0.00251928,-0.00154561,-0.0127533,-0.233138,0.00803669,0.0195219,909,463,1.62392,3.85679
-308,561,1.59943,-3.96429,-0.00401626,-0.0085054,-0.00221799,-0.00310527,-0.00941639,-0.389721,0.00554059,0.0144359,916,463,1.59945,3.9643
-301,561,1.58191,-4.09854,-0.0032774,-0.0058512,-0.00179224,-0.00235789,-0.00677071,-0.474033,0.00396863,0.0112853,923,463,1.58192,4.09855
-294,561,1.56085,-4.20142,-0.00236255,-0.00376727,-0.00095534,-0.00187917,-0.00425065,-0.46842,0.0024596,0.0100656,930,463,1.56084,4.20141
-287,561,1.54718,-4.31049,-0.00138846,-0.00223314,-0.000278689,-0.00130479,-0.0023168,-0.291641,0.00134116,0.00956733,937,463,1.54718,4.31048
-280,561,1.54907,-4.40991,-0.000600917,-0.00110969,3.07604e-05,-0.000599064,-0.00111154,0.0601681,0.000642397,0.0127935,944,463,1.54907,4.40991
-273,561,1.57257,-4.5116,-0.000325256,-0.000860189,9.83389e-05,-0.00030775,-0.000877694,0.176164,0.000514218,0.0146038,951,463,1.57257,4.5116
-266,561,1.56738,-4.62231,0.000169973,-0.000525701,3.366e-05,0.000171598,-0.000527326,0.0482345,0.000420585,0.00946785,958,463,1.56739,4.6223
-259,561,1.55212,-4.71713,0.00077139,-0.000320051,-1.02929e-05,0.000771487,-0.000320148,-0.00942941,0.000647963,0.010634,965,463,1.5521,4.71713
-252,561,1.55719,-4.80435,0.00137663,-0.000290467,1.42252e-05,0.00137675,-0.000290588,0.00853212,0.00102847,0.0144613,972,463,1.5572,4.80434
-245,561,1.53113,-4.90204,0.00206045,-0.000330194,9.74052e-05,0.00206441,-0.000334156,0.0406545,0.00150012,0.0157869,979,463,1.5311,4.90203
-238,561,1.53717,-4.9967,0.00281959,-0.000586788,0.000155173,0.00282664,-0.000593842,0.0454283,0.00211041,0.0129789,986,463,1.53717,4.9967
-231,561,1.5592,-5.09012,0.00368128,-0.00112096,0.000226407,0.00369193,-0.00113161,0.0470072,0.00291271,0.0111374,993,463,1.55922,5.09012
-224,561,1.56903,-5.17938,0.00471057,-0.00153471,0.000432233,0.00474034,-0.00156448,0.0687725,0.0037909,0.0113196,1000,463,1.56904,5.17938
-217,561,1.59351,-5.25571,0.00571033,-0.00200161,0.000672206,0.00576848,-0.00205977,0.0862971,0.00468566,0.0118155,1007,463,1.59348,5.25572
-210,561,1.5976,-5.3443,0.00646458,-0.00260716,0.000742782,0.00652499,-0.00266758,0.0811584,0.00546087,0.012554,1014,463,1.59762,5.3443
-203,561,1.60626,-5.41779,0.00704408,-0.00189802,0.000902264,0.00713421,-0.00198815,0.0995636,0.00553909,0.0136883,1021,463,1.60627,5.41778
-196,561,1.58679,-5.4906,0.00739038,-0.000989154,0.00117665,0.00755247,-0.00115124,0.136893,0.00545934,0.0134414,1028,463,1.58681,5.4906
-189,561,1.58862,-5.55093,0.00755034,-3.51163e-05,0.00141173,0.00780456,-0.000289335,0.178166,0.00530212,0.0160113,1035,463,1.58857,5.55093
-182,561,1.59924,-5.65103,0.00751952,0.00115645,0.00176586,0.00797673,0.000699248,0.25335,0.00510074,0.0178855,1042,463,1.59925,5.65104
-175,561,1.61829,-5.73035,0.00719458,0.00291357,0.00195215,0.00795108,0.00215707,0.369704,0.00474794,0.0257408,1049,463,1.61826,5.73036
-168,561,1.64221,-5.75018,0.0077067,0.00365548,0.00114953,0.00801015,0.00335203,0.25809,0.00464511,0.03686,1056,463,1.64216,5.75018
-161,561,1.63965,-5.79865,0.00902888,0.00354275,0.000107618,0.00903099,0.00354064,0.0196063,0.00525439,0.0404236,1063,463,1.63965,5.79865
-154,561,1.6571,-5.85995,0.0102125,0.00410623,-0.00148102,0.0105528,0.00376598,-0.225821,0.00617529,0.0414439,1070,463,1.65708,5.85995
-147,561,1.60193,-6.34045,0.0118643,0.0040524,-0.00349276,0.0131981,0.00271851,-0.364806,0.00804714,0.0467077,1077,463,1.60194,6.34047
-140,561,1.62683,-6.3046,0,0,0,0,0,0,0,-1,1084,463,1.62685,6.3046
-133,561,1.48315,-5.91757,0,0,0,0,0,0,0,-1,1091,463,1.48311,5.91758
-126,561,1.53284,-5.18365,0,0,0,0,0,0,0,-1,1098,463,1.53286,5.18365
-119,561,1.89038,-5.50949,0.00949555,-0.0106023,-0.023638,0.0251319,-0.0262387,-0.584413,0.0296611,0.0465748,1105,463,1.89039,5.50949
-112,561,2.25659,-5.83224,0.00404804,-0.0131427,-0.0354964,0.0319749,-0.0410696,-0.66661,0.0422811,0.0498471,1112,463,2.25662,5.83224
-105,561,3.16138,-6.07666,0,0,0,0,0,0,0,-1,1119,463,3.16133,6.07665
-98,561,0.252319,-6.37161,0,0,0,0,0,0,0,-1,1126,463,0.252313,6.37162
-91,561,0.82019,-4.41309,0,0,0,0,0,0,0,-1,1133,463,0.820131,4.41307
-84,561,1.22388,-4.51309,0,0,0,0,0,0,0,-1,1140,463,1.22389,4.51311
-77,561,1.83862,-4.77109,0,0,0,0,0,0,0,-1,1147,463,1.83858,4.77108
-70,561,-2.95532,-1.17065,0,0,0,0,0,0,0,-1,1154,463,-2.95538,1.17065
-63,561,-4.15979,-3.47293,0,0,0,0,0,0,0,-1,1161,463,-4.15975,3.47293
-56,561,-4.31152,-6.56421,0,0,0,0,0,0,0,-1,1168,463,-4.31153,6.56419
-49,561,-4.13147,-9.64191,0,0,0,0,0,0,0,-1,1175,463,-4.13153,9.64189
-42,561,-1.72644,-5.63065,0,0,0,0,0,0,0,-1,1182,463,-1.72648,5.63064
-35,561,-1.65674,-4.87994,0,0,0,0,0,0,0,-1,1189,463,-1.6567,4.87993
-28,561,-1.91418,-3.86896,0,0,0,0,0,0,0,-1,1196,463,-1.91414,3.86895
-21,561,4.81165,-6.4697,0,0,0,0,0,0,0,-1,1203,463,4.81159,6.46968
-14,561,4.92761,-6.91757,0,0,0,0,0,0,0,-1,1210,463,4.92761,6.91757
-7,561,5.33618,-7.20819,0,0,0,0,0,0,0,-1,1217,463,5.33623,7.20819
0,561,6.53418,-7.91714,0,0,0,0,0,0,0,-1,1224,463,6.53414,7.91714
7,561,6.88037,-8.13077,0.0427292,0.11218,-0.0909503,0.174808,-0.0198995,-0.967759,0.123707,0.0454246,1231,463,6.88041,8.13077
14,561,7.29346,-8.20956,0.038275,0.134571,-0.0766307,0.176924,-0.00407838,-1.06589,0.119332,0.0410265,1238,463,7.29352,8.20956
21,561,7.24304,-8.46567,0.0345524,0.151793,-0.0621397,0.1786,0.00774633,-1.16353,0.11657,0.0425996,1245,463,7.24299,8.46565
28,561,7.34241,-8.7373,0,0,0,0,0,0,0,-1,1252,463,7.34239,8.73732
35,561,1.12268,-3.68506,0.0261188,0.159634,-0.03408,0.16783,0.0179229,-1.33479,0.106417,0.0425615,1259,463,1.12269,3.68506
42,561,1.57336,-4.0929,0.0214335,0.151117,-0.0223353,0.154856,0.0176945,-1.40493,0.0978737,0.043662,1266,463,1.57337,4.09291
49,561,2.08032,-4.53891,0.0153585,0.139622,-0.0107159,0.140539,0.0144411,-1.4854,0.0892691,0.0430526,1273,463,2.08027,4.53892
56,561,2.56213,-4.9527,0.00958579,0.12224,-0.00200903,0.122276,0.00954997,-1.55297,0.078528,0.0409234,1280,463,2.56211,4.9527
63,561,2.81445,-5.4689,0.00322774,0.098581,0.003442,0.0987051,0.00310365,1.53476,0.0647936,0.0462433,1287,463,2.81447,5.46891
70,561,2.98877,-5.98569,0,0,0,0,0,0,0,-1,1294,463,2.98881,5.98569
77,561,4.52515,-6.57202,-0.00878723,0.049988,0.00593164,0.0505807,-0.00937988,1.47121,0.0372429,0.045925,1301,463,4.52516,6.57203
84,561,4.37646,-5.86084,-0.0169807,0.02619,0.00286195,0.0263789,-0.0171696,1.50489,0.0253294,0.0453005,1308,463,4.37644,5.86085
91,561,4.28992,-5.39243,-0.0236304,-0.006543,-0.000719749,-0.00651274,-0.0236606,-1.52877,0.014113,0.0416933,1315,463,4.28993,5.39242
98,561,3.78748,-4.96951,-0.0314668,-0.0130558,-0.00454267,-0.011996,-0.0325267,-1.34159,0.0189935,0.0432773,1322,463,3.78749,4.96952
105,561,3.72546,-5.15533,0,0,0,0,0,0,0,-1,1329,463,3.72542,5.15533
112,561,3.02588,-4.72156,0,0,0,0,0,0,0,-1,1336,463,3.02592,4.72157
119,561,1.59778,-4.2485,-0.0417859,-0.0272014,-0.0135095,-0.0191417,-0.0498456,-1.03288,0.0290353,0.0471806,1343,463,1.59773,4.24852
126,561,1.51831,-5.89957,0,0,0,0,0,0,0,-1,1350,463,1.51832,5.89958
133,561,2.62402,-6.46008,0,0,0,0,0,0,0,-1,1357,463,2.62403,6.46009
140,561,3.69312,-7.04312,0,0,0,0,0,0,0,-1,1364,463,3.69317,7.04313
147,561,4.85339,-10.5048,0,0,0,0,0,0,0,-1,1371,463,4.85334,10.5048
154,561,4.61975,-11.1879,0,0,0,0,0,0,0,-1,1378,463,4.6197,11.1879
161,561,4.72559,-11.9428,0,0,0,0,0,0,0,-1,1385,463,4.72562,11.9428
168,561,8.91394,-0.737396,0,0,0,0,0,0,0,-1,1392,463,8.91389,0.737391
175,561,10.4185,0.276398,0,0,0,0,0,0,0,-1,1399,463,10.4185,-0.276394
182,561,6.45703,-4.02127,0,0,0,0,0,0,0,-1,1406,463,6.45704,4.02127
189,561,6.50854,-2.08685,0,0,0,0,0,0,0,-1,1413,463,6.50851,2.08686
196,561,6.44775,-0.27182,0,0,0,0,0,0,0,-1,1420,463,6.44773,0.271814
203,561,6.18591,1.1301,0,0,0,0,0,0,0,-1,1427,463,6.18592,-1.13009
210,561,5.68713,2.68427,0,0,0,0,0,0,0,-1,1434,463,5.6871,-2.68425
217,561,1.68311,-3.16107,0,0,0,0,0,0,0,-1,1441,463,1.68312,3.16106
224,561,2.85315,-4.85867,0,0,0,0,0,0,0,-1,1448,463,2.85319,4.85866
231,561,2.51672,-5.02112,0,0,0,0,0,0,0,-1,1455,463,2.51671,5.02113
238,561,2.18018,-5.18359,0,0,0,0,0,0,0,-1,1462,463,2.18023,5.18359
245,561,3.07568,-3.50238,0,0,0,0,0,0,0,-1,1469,463,3.0757,3.50238
252,561,3.47412,-3.71109,0,0,0,0,0,0,0,-1,1476,463,3.47413,3.71109
259,561,3.42212,-3.2334,0,0,0,0,0,0,0,-1,1483,463,3.42214,3.2334
266,561,4.31323,-4.00439,0,0,0,0,0,0,0,-1,1490,463,4.31323,4.0044
273,561,2.59485,-3.65268,0,0,0,0,0,0,0,-1,1497,463,2.5948,3.65268
280,561,2.81445,-5.71323,0,0,0,0,0,0,0,-1,1504,463,2.8145,5.71322
287,561,3.01208,-5.38028,0,0,0,0,0,0,0,-1,1511,463,3.01207,5.38028
294,561,3.16797,-5.38739,-0.000470275,-0.00699022,-0.00643609,0.00348437,-0.0109449,-0.550976,0.00869398,0.0411244,1518,463,3.16796,5.38739
301,561,3.1355,-5.28909,-0.000574202,-0.00746613,-0.00687389,0.00366911,-0.0117094,-0.55305,0.0092745,0.0380631,1525,463,3.13545,5.28909
308,561,3.07263,-5.1781,-0.00108479,-0.00772779,-0.00707132,0.00340626,-0.0122188,-0.565835,0.00948738,0.0242485,1532,463,3.07262,5.17811
315,561,3.05725,-5.13113,-0.00133238,-0.00734472,-0.00687976,0.00316933,-0.0118464,-0.57942,0.00913911,0.0150572,1539,463,3.05731,5.13115
322,561,3.06616,-5.05142,-0.00158731,-0.00648516,-0.00639862,0.00281501,-0.0108875,-0.602634,0.00835624,0.014785,1546,463,3.06622,5.05142
329,561,3.07959,-4.92661,-0.00172459,-0.00599325,-0.00596751,0.00247879,-0.0101966,-0.613657,0.00775718,0.0113932,1553,463,3.07956,4.92662
336,561,3.09985,-4.81357,-0.00183365,-0.00545033,-0.00555946,0.00220418,-0.00948816,-0.628159,0.00717394,0.0101066,1560,463,3.0998,4.81358
343,561,3.09827,-4.73929,-0.00186647,-0.00469767,-0.00492459,0.00184194,-0.00840608,-0.645444,0.00630831,0.00906114,1567,463,3.09825,4.7393
350,561,3.09424,-4.65421,-0.00175221,-0.00395782,-0.00421276,0.0014997,-0.00720973,-0.657382,0.00537656,0.00881519,1574,463,3.09425,4.6542
357,561,3.09302,-4.5386,-0.00154452,-0.00311526,-0.00346097,0.00121907,-0.00587885,-0.673827,0.00438248,0.00923521,1581,463,3.09298,4.53861
364,561,3.09729,-4.44769,-0.0013125,-0.00227667,-0.0027066,0.000954612,-0.00454378,-0.697265,0.00339246,0.0090351,1588,463,3.09733,4.44768
371,561,3.10376,-4.33865,-0.00106217,-0.0014947,-0.00187613,0.000610111,-0.00316699,-0.728015,0.00234135,0.0160216,1595,463,3.1037,4.33864
378,561,3.08337,-4.22632,-0.000860279,-0.000904658,-0.00123129,0.000349024,-0.00211396,-0.776388,0.0015389,0.0110849,1602,463,3.08341,4.22631
385,561,3.1012,-4.11752,-0.000671344,-0.0002148,-0.000664454,0.0002595,-0.00114564,-0.950856,0.000863362,0.00872619,1609,463,3.10114,4.11751
392,561,3.08545,-4.00995,-0.000404521,0.000194752,-0.000172433,0.000240825,-0.000450594,-1.3097,0.000405269,0.0116985,1616,463,3.08542,4.00994
399,561,3.07043,-3.92471,-0.000124664,0.000642318,0.000369571,0.000791413,-0.00027376,1.18734,0.000638727,0.0176924,1623,463,3.07041,3.92471
406,561,3.1145,-3.7981,-2.43576e-05,0.00123068,0.00089301,0.0016946,-0.000488281,1.09167,0.00132288,0.0172285,1630,463,3.11449,3.79811
413,561,3.10742,-3.68005,-0.0001644,0.00171402,0.0012058,0.00230324,-0.000753613,1.11627,0.00183891,0.0165921,1637,463,3.10737,3.68004
420,561,3.08154,-3.57584,-0.000199728,0.00222006,0.00150454,0.00294084,-0.000920502,1.12404,0.00232884,0.0134102,1644,463,3.08159,3.57584
427,561,3.08813,-3.44894,-0.000106915,0.00285986,0.00185563,0.00375215,-0.000999196,1.12259,0.00289261,0.0101127,1651,463,3.08814,3.44896
434,561,3.09558,-3.34537,-0.000485971,0.00375553,0.00212319,0.0046357,-0.00136614,1.17781,0.00363251,0.0115879,1658,463,3.09563,3.34538
441,561,3.11572,-3.24158,-0.000682141,0.00503288,0.00229929,0.00584308,-0.00149234,1.23201,0.00447653,0.0138319,1665,463,3.11576,3.24159
448,561,3.13696,-3.10367,-0.000387615,0.00675736,0.00182953,0.00719858,-0.000828834,1.33415,0.00509784,0.0186005,1672,463,3.13695,3.10366
455,561,3.16443,-2.95261,-0.000647284,0.00839365,0.00130072,0.00857706,-0.000830698,1.43071,0.00601409,0.0342245,1679,463,3.16446,2.95259
462,561,3.01099,-2.83984,-0.000726803,0.0102108,0.000234887,0.0102159,-0.000731844,1.54933,0.00706717,0.0322461,1686,463,3.01096,2.83984
469,561,2.97205,-2.69565,-0.000314065,0.0119716,-0.00149908,0.0121519,-0.000494335,-1.45112,0.00827097,0.0223041,1693,463,2.97208,2.69565
476,561,3.00842,-2.43484,0.00013261,0.0142133,-0.00357558,0.0150692,-0.000723326,-1.33583,0.0102957,0.0396736,1700,463,3.00839,2.43484
483,561,3.04517,-2.15414,0,0,0,0,0,0,0,-1,1707,463,3.04511,2.15413
490,561,2.82227,-2.72711,0.00176257,0.0184446,-0.0102213,0.0232963,-0.00308914,-1.12762,0.0166564,0.0485127,1714,463,2.82225,2.72713
497,561,3.27551,-2.40271,0.00296383,0.0205023,-0.0151993,0.0292806,-0.00581451,-1.04705,0.0217196,0.0474776,1721,463,3.27556,2.4027
504,561,4.00598,-2.3295,0,0,0,0,0,0,0,-1,1728,463,4.00598,2.32949
511,561,0,0,0,0,0,0,0,0,0,-1,1735,463,0,0
518,561,0,0,0,0,0,0,0,0,0,-1,1742,463,0,0
525,561,0,0,0,0,0,0,0,0,0,-1,1749,463,0,0
532,561,0,0,0,0,0,0,0,0,0,-1,1756,463,0,0
539,561,0,0,0,0,0,0,0,0,0,-1,1763,463,0,0
546,561,0,0,0,0,0,0,0,0,0,-1,1770,463,0,0
553,561,0,0,0,0,0,0,0,0,0,-1,1777,463,0,0
560,561,0,0,0,0,0,0,0,0,0,-1,1784,463,0,0
567,561,0,0,0,0,0,0,0,0,0,-1,1791,463,0,0
574,561,0,0,0,0,0,0,0,0,0,-1,1798,463,0,0
581,561,0,0,0,0,0,0,0,0,0,-1,1805,463,0,0
588,561,0,0,0,0,0,0,0,0,0,-1,1812,463,0,0
595,561,0,0,0,0,0,0,0,0,0,-1,1819,463,0,0
602,561,0,0,0,0,0,0,0,0,0,-1,1826,463,0,0
609,561,0,0,0,0,0,0,0,0,0,-1,1833,463,0,0
616,561,0,0,0,0,0,0,0,0,0,-1,1840,463,0,0
623,561,0,0,0,0,0,0,0,0,0,-1,1847,463,0,0
630,561,0,0,0,0,0,0,0,0,0,-1,1854,463,0,0
637,561,0,0,0,0,0,0,0,0,0,-1,1861,463,0,0
644,561,0,0,0,0,0,0,0,0,0,-1,1868,463,0,0
651,561,0,0,0,0,0,0,0,0,0,-1,1875,463,0,0
658,561,0,0,0,0,0,0,0,0,0,-1,1882,463,0,0
665,561,0,0,0,0,0,0,0,0,0,-1,1889,463,0,0
672,561,0,0,0,0,0,0,0,0,0,-1,1896,463,0,0
679,561,0,0,0,0,0,0,0,0,0,-1,1903,463,0,0
686,561,0,0,0,0,0,0,0,0,0,-1,1910,463,0,0
693,561,0,0,0,0,0,0,0,0,0,-1,1917,463,0,0
700,561,0,0,0,0,0,0,0,0,0,-1,1924,463,0,0
707,561,0,0,0,0,0,0,0,0,0,-1,1931,463,0,0
714,561,0,0,0,0,0,0,0,0,0,-1,1938,463,0,0
721,561,0,0,0,0,0,0,0,0,0,-1,1945,463,0,0
728,561,0,0,0,0,0,0,0,0,0,-1,1952,463,0,0
735,561,0,0,0,0,0,0,0,0,0,-1,1959,463,0,0
742,561,0,0,0,0,0,0,0,0,0,-1,1966,463,0,0
749,561,0,0,0,0,0,0,0,0,0,-1,1973,463,0,0
756,561,0,0,0,0,0,0,0,0,0,-1,1980,463,0,0
763,561,0,0,0,0,0,0,0,0,0,-1,1987,463,0,0
770,561,0,0,0,0,0,0,0,0,0,-1,1994,463,0,0
777,561,0,0,0,0,0,0,0,0,0,-1,2001,463,0,0
784,561,0,0,0,0,0,0,0,0,0,-1,2008,463,0,0
791,561,0,0,0,0,0,0,0,0,0,-1,2015,463,0,0
798,561,0,0,0,0,0,0,0,0,0,-1,2022,463,0,0
805,561,0,0,0,0,0,0,0,0,0,-1,2029,463,0,0
812,561,0,0,0,0,0,0,0,0,0,-1,2036,463,0,0
-700,554,0,0,0,0,0,0,0,0,0,-1,524,470,0,0
-693,554,0,0,0,0,0,0,0,0,0,-1,531,470,0,0
-686,554,0,0,0,0,0,0,0,0,0,-1,538,470,0,0
-679,554,0,0,0,0,0,0,0,0,0,-1,545,470,0,0
-672,554,0,0,0,0,0,0,0,0,0,-1,552,470,0,0
-665,554,0,0,0,0,0,0,0,0,0,-1,559,470,0,0
-658,554,0,0,0,0,0,0,0,0,0,-1,566,470,0,0
-651,554,0,0,0,0,0,0,0,0,0,-1,573,470,0,0
-644,554,0,0,0,0,0,0,0,0,0,-1,580,470,0,0
-637,554,0,0,0,0,0,0,0,0,0,-1,587,470,0,0
-630,554,0,0,0,0,0,0,0,0,0,-1,594,470,0,0
-623,554,0,0,0,0,0,0,0,0,0,-1,601,470,0,0
-616,554,0,0,0,0,0,0,0,0,0,-1,608,470,0,0
-609,554,0,0,0,0,0,0,0,0,0,-1,615,470,0,0
-602,554,0,0,0,0,0,0,0,0,0,-1,622,470,0,0
-595,554,0,0,0,0,0,0,0,0,0,-1,629,470,0,0
-588,554,0,0,0,0,0,0,0,0,0,-1,636,470,0,0
-581,554,0,0,0,0,0,0,0,0,0,-1,643,470,0,0
-574,554,0,0,0,0,0,0,0,0,0,-1,650,470,0,0
-567,554,0,0,0,0,0,0,0,0,0,-1,657,470,0,0
-560,554,0,0,0,0,0,0,0,0,0,-1,664,470,0,0
-553,554,0,0,0,0,0,0,0,0,0,-1,671,470,0,0
-546,554,0,0,0,0,0,0,0,0,0,-1,678,470,0,0
-539,554,0,0,0,0,0,0,0,0,0,-1,685,470,0,0
-532,554,0,0,0,0,0,0,0,0,0,-1,692,470,0,0
-525,554,0,0,0,0,0,0,0,0,0,-1,699,470,0,0
-518,554,0,0,0,0,0,0,0,0,0,-1,706,470,0,0
-511,554,0,0,0,0,0,0,0,0,0,-1,713,470,0,0
-504,554,0,0,0,0,0,0,0,0,0,-1,720,470,0,0
-497,554,0,0,0,0,0,0,0,0,0,-1,727,470,0,0
-490,554,0,0,0,0,0,0,0,0,0,-1,734,470,0,0
-483,554,0,0,0,0,0,0,0,0,0,-1,741,470,0,0
-476,554,0,0,0,0,0,0,0,0,0,-1,748,470,0,0
-469,554,0,0,0,0,0,0,0,0,0,-1,755,470,0,0
-462,554,0,0,0,0,0,0,0,0,0,-1,762,470,0,0
-455,554,0,0,0,0,0,0,0,0,0,-1,769,470,0,0
-448,554,0,0,0,0,0,0,0,0,0,-1,776,470,0,0
-441,554,0,0,0,0,0,0,0,0,0,-1,783,470,0,0
-434,554,0,0,0,0,0,0,0,0,0,-1,790,470,0,0
-427,554,0,0,0,0,0,0,0,0,0,-1,797,470,0,0
-420,554,0,0,0,0,0,0,0,0,0,-1,804,470,0,0
-413,554,0,0,0,0,0,0,0,0,0,-1,811,470,0,0
-406,554,0,0,0,0,0,0,0,0,0,-1,818,470,0,0
-399,554,1.09552,-4.26328,0,0,0,0,0,0,0,-1,825,470,1.0955,4.26329
-392,554,0.843445,-3.81802,0.00536764,-0.00914256,0.00429053,0.00654137,-0.0103163,0.267029,0.00981377,0.0494288,832,470,0.843441,3.81803
-385,554,0.407593,-4.05646,0.00944627,-0.019023,0.00353761,0.00987927,-0.019456,0.121793,0.017235,0.0466458,839,470,0.407618,4.05646
-378,554,0.769592,-4.02319,0.0137919,-0.0248889,0.00279831,0.0139933,-0.0250903,0.0718452,0.0228661,0.0496878,846,470,0.769564,4.02319
-371,554,0.347107,-4.04987,0.0158341,-0.0290044,0.00220278,0.015942,-0.0291124,0.0489698,0.02638,0.0463253,853,470,0.347114,4.04988
-364,554,1.90338,-2.53238,0.0160128,-0.0301886,0.00116654,0.0160422,-0.030218,0.0252277,0.0271231,0.0477271,860,470,1.90337,2.53238
-357,554,0.761963,-3.15811,0,0,0,0,0,0,0,-1,867,470,0.761945,3.15811
-350,554,1.06476,-3.43723,0,0,0,0,0,0,0,-1,874,470,1.06479,3.43722
-343,554,1.54065,-3.43649,0.00949089,-0.0219558,-0.00135507,0.00954917,-0.022014,-0.0429849,0.0186907,0.0422589,881,470,1.54062,3.43649
-336,554,1.59204,-3.49045,0.00762847,-0.0183436,-0.00165429,0.00773342,-0.0184486,-0.0633536,0.0155324,0.0308269,888,470,1.59206,3.49046
-329,554,1.50842,-3.66888,0.00446046,-0.0149836,-0.00184967,0.00463485,-0.015158,-0.0940044,0.0119536,0.0158531,895,470,1.50844,3.66888
-322,554,1.48102,-3.79095,0.00199408,-0.0117135,-0.00159446,0.0021771,-0.0118965,-0.114287,0.0087475,0.0101093,902,470,1.48105,3.79096
-315,554,1.4903,-3.89096,-0.000808763,-0.00827467,-0.00141345,-0.000550129,-0.00853331,-0.180979,0.00551465,0.0100082,909,470,1.49031,3.89097
-308,554,1.47668,-4.0047,-0.00284062,-0.00558641,-0.00127592,-0.00233926,-0.00608777,-0.374402,0.00354603,0.0127342,916,470,1.47671,4.0047
-301,554,1.47968,-4.11429,-0.0023711,-0.00369162,-0.00100108,-0.00183215,-0.00423056,-0.493868,0.0024498,0.0135166,923,470,1.4797,4.1143
-294,554,1.47174,-4.19946,-0.00172334,-0.00222115,-0.000451324,-0.00145684,-0.00248766,-0.533404,0.00144325,0.0110549,930,470,1.47176,4.19945
-287,554,1.44775,-4.29767,-0.00102145,-0.00120805,-1.47102e-05,-0.0010203,-0.0012092,-0.0781909,0.000751127,0.0113204,937,470,1.44777,4.29765
-280,554,1.45093,-4.38956,-0.00040521,-0.000505515,0.00016071,-0.000287009,-0.000623716,0.634153,0.000360483,0.0121836,944,470,1.45093,4.38956
-273,554,1.47101,-4.49191,-6.9086e-05,-0.000463656,0.000248075,5.05877e-05,-0.00058333,0.449476,0.000406799,0.0145787,951,470,1.47099,4.49193
-266,554,1.48187,-4.61337,0.000446062,-0.00029217,0.000165458,0.000481449,-0.000327557,0.210701,0.000469888,0.0115022,958,470,1.48186,4.61338
-259,554,1.46265,-4.70255,0.00126107,-0.000490206,0.000157071,0.00127505,-0.000504182,0.0887456,0.00105889,0.0113919,965,470,1.46265,4.70256
-252,554,1.46234,-4.78265,0.00224639,-0.00104853,0.000392391,0.00229247,-0.00109462,0.116911,0.00199589,0.0139356,972,470,1.46233,4.78265
-245,554,1.46625,-4.87515,0.00340923,-0.00167577,0.000664318,0.00349458,-0.00176113,0.127786,0.00308891,0.0148546,979,470,1.46623,4.87515
-238,554,1.46692,-4.97815,0.00476303,-0.00263518,0.000967856,0.00488755,-0.0027597,0.127955,0.00447175,0.0110852,986,470,1.46693,4.97815
-231,554,1.47308,-5.07797,0.00623862,-0.00383121,0.00135301,0.00641724,-0.00400984,0.131262,0.00607333,0.00984177,993,470,1.47311,5.07797
-224,554,1.47418,-5.1582,0.00792466,-0.00502323,0.00188227,0.00819274,-0.00529131,0.141473,0.00784487,0.0100282,1000,470,1.47417,5.15821
-217,554,1.4989,-5.23679,0.00963855,-0.0063313,0.00247036,0.010012,-0.00670471,0.150019,0.00971413,0.0105687,1007,470,1.49889,5.23679
-210,554,1.52277,-5.32742,0.0109934,-0.00767939,0.00286378,0.0114227,-0.00810872,0.148811,0.0113305,0.0134294,1014,470,1.52276,5.32741
-203,554,1.52991,-5.41962,0.0120902,-0.00741868,0.00328772,0.0126294,-0.00795785,0.162545,0.0119876,0.0184064,1021,470,1.52993,5.41961
-196,554,1.52209,-5.49655,0.0128411,-0.00676168,0.00378407,0.0135462,-0.00746679,0.184222,0.0123,0.0249389,1028,470,1.52213,5.49655
-189,554,1.50806,-5.55264,0.0133329,-0.00592558,0.00418111,0.0142014,-0.00679415,0.204823,0.0123707,0.0318576,1035,470,1.50802,5.55264
-182,554,1.4873,-5.61465,0.013522,-0.00457475,0.00464401,0.0146442,-0.00569692,0.237092,0.0121167,0.0374224,1042,470,1.48734,5.61465
-175,554,1.56958,-5.76486,0.0132818,-0.00230999,0.00487236,0.0146792,-0.00370734,0.279296,0.0112278,0.0431438,1049,470,1.56954,5.76487
-168,554,1.68921,-5.71677,0.0138061,-0.000915192,0.0036478,0.0146604,-0.00176951,0.230054,0.0104137,0.0473315,1056,470,1.68926,5.71678
-161,554,1.6427,-5.67682,0.0152449,-0.000506622,0.00213112,0.0155281,-0.000789861,0.132132,0.0106252,0.0449902,1063,470,1.6427,5.67682
-154,554,0.965942,-6.9653,0.0161063,0.00203308,-0.000336674,0.0161143,0.00202503,-0.0239048,0.0101355,0.0431729,1070,470,0.965977,6.96532
-147,554,1.21814,-6.70322,0.0169695,0.00463723,-0.00391891,0.0181095,0.00349727,-0.283076,0.0110926,0.0488396,1077,470,1.21814,6.70321
-140,554,1.10083,-6.61008,0,0,0,0,0,0,0,-1,1084,470,1.10078,6.61007
-133,554,1.13562,-6.31137,0,0,0,0,0,0,0,-1,1091,470,1.13562,6.31138
-126,554,1.24658,-6.01904,0,0,0,0,0,0,0,-1,1098,470,1.2466,6.01905
-119,554,1.91357,-5.19034,0.00470945,-0.00901819,-0.0328582,0.0314131,-0.0357218,-0.682433,0.038787,0.0452031,1105,470,1.91361,5.19035
-112,554,2.20483,-5.51862,-0.00325854,-0.0111556,-0.0479096,0.040865,-0.0552791,-0.744283,0.0557164,0.0466428,1112,470,2.20487,5.51863
-105,554,2.57849,-6.07068,0,0,0,0,0,0,0,-1,1119,470,2.57853,6.07068
-98,554,0.214722,-5.49139,0,0,0,0,0,0,0,-1,1126,470,0.214773,5.49139
-91,554,-0.60437,-5.328,0,0,0,0,0,0,0,-1,1133,470,-0.604344,5.32801
-84,554,0.490967,-3.84543,0,0,0,0,0,0,0,-1,1140,470,0.490984,3.84544
-77,554,-1.96863,1.32828,0,0,0,0,0,0,0,-1,1147,470,-1.96863,-1.32827
-70,554,-3.03101,-0.977081,-0.049221,-0.00958299,-0.1264,0.0985428,-0.157347,-0.863163,0.149033,0.0425148,1154,470,-3.03095,0.977076
-63,554,-4.01111,-3.55927,-0.0545917,-0.00630822,-0.137858,0.109506,-0.170406,-0.872079,0.162877,0.0394869,1161,470,-4.01109,3.55927
-56,554,-4.64099,-6.26575,-0.0435229,-0.00244848,-0.141787,0.12028,-0.166252,-0.857321,0.166138,0.0441693,1168,470,-4.64105,6.26576
-49,554,-5.10718,-8.94223,0,0,0,0,0,0,0,-1,1175,470,-5.10717,8.94223
-42,554,-5.03796,-12.078,0,0,0,0,0,0,0,-1,1182,470,-5.03791,12.078
-35,554,-2.40173,-4.59482,0,0,0,0,0,0,0,-1,1189,470,-2.40169,4.59481
-28,554,-0.760132,-1.65555,0,0,0,0,0,0,0,-1,1196,470,-0.760095,1.65556
-21,554,-0.326904,-1.55664,0,0,0,0,0,0,0,-1,1203,470,-0.326898,1.55664
-14,554,6.24731,-6.31226,0,0,0,0,0,0,0,-1,1210,470,6.24734,6.31225
-7,554,6.7323,-6.89502,0.0426574,0.0616364,-0.128996,0.181492,-0.0771979,-0.822114,0.153347,0.0461317,1217,470,6.73234,6.89501
0,554,7.20996,-7.51712,0.054159,0.0839161,-0.124266,0.194191,-0.056116,-0.84498,0.151667,0.0463135,1224,470,7.20991,7.51711
7,554,7.87622,-8.12115,0.0466876,0.128687,-0.10598,0.201322,-0.0259472,-0.969963,0.143647,0.0477095,1231,470,7.87623,8.12115
14,554,8.48682,-8.59821,0.0398721,0.161472,-0.0866578,0.206531,-0.00518741,-1.0913,0.139449,0.0459487,1238,470,8.48681,8.59819
21,554,8.38159,-8.81564,0.0339745,0.18705,-0.0672466,0.212395,0.00862931,-1.21036,0.13881,0.0432305,1245,470,8.38158,8.81565
28,554,8.43408,-9.02557,0,0,0,0,0,0,0,-1,1252,470,8.43407,9.02557
35,554,8.33105,-8.96478,0.0216405,0.20244,-0.0312752,0.207697,0.0163833,-1.40426,0.133339,0.0390879,1259,470,8.33108,8.96477
42,554,1.29785,-4.17923,0.0153234,0.194211,-0.01681,0.195777,0.0137575,-1.47791,0.126183,0.0423337,1266,470,1.29782,4.17923
49,554,1.69421,-4.50378,0.00765756,0.183551,-0.00248721,0.183586,0.0076224,-1.55666,0.11993,0.0446477,1273,470,1.69426,4.50377
56,554,2.18652,-5.10187,0.00124789,0.164769,0.00830789,0.16519,0.000826873,1.52016,0.109852,0.0427646,1280,470,2.18654,5.10187
63,554,2.28882,-5.66263,-0.00487869,0.135627,0.0143183,0.137071,-0.00632295,1.47027,0.0935595,0.0464866,1287,470,2.2888,5.66263
70,554,2.40417,-6.21927,0,0,0,0,0,0,0,-1,1294,470,2.40422,6.21925
77,554,5.55896,-7.16995,-0.0146397,0.0744472,0.01547,0.0770571,-0.0172497,1.40366,0.057983,0.043767,1301,470,5.55892,7.16996
84,554,4.68176,-5.62915,-0.0221888,0.0428686,0.0104072,0.0444929,-0.0238131,1.41597,0.0400344,0.0454895,1308,470,4.6817,5.62914
91,554,4.57703,-5.26743,-0.027455,-0.00170242,0.00420883,-0.00103201,-0.0281254,1.41284,0.0184159,0.0448211,1315,470,4.57698,5.26744
98,554,3.67517,-4.4465,-0.0349634,-0.00989834,-0.00184104,-0.00976384,-0.0350979,-1.49787,0.0209179,0.0434598,1322,470,3.67521,4.4465
105,554,3.8374,-4.66388,-0.0418155,-0.0177154,-0.0063484,-0.0161454,-0.0433855,-1.32835,0.0253202,0.0496824,1329,470,3.83741,4.66388
112,554,3.70984,-4.78036,-0.0451069,-0.0250322,-0.0117716,-0.0195996,-0.0505394,-1.13842,0.0294228,0.0463799,1336,470,3.7099,4.78035
119,554,3.41162,-5.01297,-0.0437474,-0.0290478,-0.0174883,-0.0174276,-0.0553676,-0.984326,0.0326895,0.041796,1343,470,3.41162,5.01298
126,554,3.35388,-5.45718,0,0,0,0,0,0,0,-1,1350,470,3.3539,5.45718
133,554,3.42468,-6.42749,0,0,0,0,0,0,0,-1,1357,470,3.42466,6.42749
140,554,3.61084,-7.26645,0,0,0,0,0,0,0,-1,1364,470,3.61087,7.26646
147,554,4.4729,-10.4091,0,0,0,0,0,0,0,-1,1371,470,4.47291,10.4091
154,554,4.80444,-11.2976,0,0,0,0,0,0,0,-1,1378,470,4.80439,11.2976
161,554,5.4021,-12.2889,0,0,0,0,0,0,0,-1,1385,470,5.40207,12.289
168,554,9.18115,-0.747101,0,0,0,0,0,0,0,-1,1392,470,9.18117,0.747102
175,554,10.663,0.286957,0,0,0,0,0,0,0,-1,1399,470,10.663,-0.286966
182,554,6.71106,-4.50217,0,0,0,0,0,0,0,-1,1406,470,6.71107,4.50215
189,554,6.90479,-2.50348,0,0,0,0,0,0,0,-1,1413,470,6.90477,2.50348
196,554,6.96216,-0.740906,0,0,0,0,0,0,0,-1,1420,470,6.96214,0.740912
203,554,6.43518,0.414154,0,0,0,0,0,0,0,-1,1427,470,6.43523,-0.414141
210,554,6.21167,1.96707,0,0,0,0,0,0,0,-1,1434,470,6.21165,-1.96706
217,554,5.64551,3.4989,0,0,0,0,0,0,0,-1,1441,470,5.64555,-3.49891
224,554,2.37061,-4.02945,0,0,0,0,0,0,0,-1,1448,470,2.37062,4.02944
231,554,3.25073,-5.29642,0,0,0,0,0,0,0,-1,1455,470,3.25078,5.29642
238,554,4.28625,-3.25253,0,0,0,0,0,0,0,-1,1462,470,4.28622,3.25252
245,554,4.0752,-2.90033,0,0,0,0,0,0,0,-1,1469,470,4.07515,2.90032
252,554,3.52112,-0.934998,0,0,0,0,0,0,0,-1,1476,470,3.52113,0.934996
259,554,3.96448,-2.16425,0,0,0,0,0,0,0,-1,1483,470,3.96446,2.16424
266,554,3.0592,-2.71716,0,0,0,0,0,0,0,-1,1490,470,3.05923,2.71718
273,554,2.58521,-3.06876,0,0,0,0,0,0,0,-1,1497,470,2.58524,3.06874
280,554,2.83301,-0.991699,0,0,0,0,0,0,0,-1,1504,470,2.83303,0.991704
287,554,3.54126,-4.12277,0,0,0,0,0,0,0,-1,1511,470,3.54123,4.12277
294,554,3.39331,-5.30414,0,0,0,0,0,0,0,-1,1518,470,3.39331,5.30414
301,554,3.26355,-5.2164,0,0,0,0,0,0,0,-1,1525,470,3.26358,5.21639
308,554,3.20398,-5.20047,0,0,0,0,0,0,0,-1,1532,470,3.20403,5.20047
315,554,3.36743,-4.92545,-0.00202636,-0.0107874,-0.00989706,0.00441627,-0.01723,-0.577053,0.0132072,0.0423091,1539,470,3.36739,4.92544
322,554,3.27527,-4.97195,-0.00224803,-0.00944462,-0.00910323,0.00394227,-0.0156349,-0.597184,0.011956,0.0347517,1546,470,3.27531,4.97197
329,554,3.20349,-4.93185,-0.00246029,-0.00840519,-0.00807757,0.00317439,-0.0140399,-0.609093,0.010578,0.018092,1553,470,3.20354,4.93185
336,554,3.18774,-4.82538,-0.00263633,-0.00746859,-0.00739623,0.00272841,-0.0128333,-0.627527,0.00959521,0.00984606,1560,470,3.18779,4.82536
343,554,3.17407,-4.7514,-0.00272715,-0.00630405,-0.00645533,0.0021829,-0.0112141,-0.650263,0.00829994,0.00846909,1567,470,3.17405,4.75141
350,554,3.1814,-4.65359,-0.0026983,-0.00524712,-0.00553655,0.00170862,-0.00965404,-0.672278,0.00707468,0.00879006,1574,470,3.18143,4.65359
357,554,3.20349,-4.5372,-0.00257282,-0.00410217,-0.00460267,0.00132827,-0.00800325,-0.703082,0.00582892,0.0105613,1581,470,3.20345,4.5372
364,554,3.2074,-4.45691,-0.00239176,-0.00299372,-0.00368681,0.00100633,-0.00639182,-0.74467,0.00463323,0.00890215,1588,470,3.20738,4.45692
371,554,3.19543,-4.3526,-0.00214098,-0.00198219,-0.00272652,0.000666094,-0.00478926,-0.799954,0.00343646,0.00830961,1595,470,3.1954,4.3526
378,554,3.19727,-4.22986,-0.00189776,-0.00125592,-0.00201362,0.000462187,-0.00361587,-0.864421,0.00257849,0.00936435,1602,470,3.19728,4.22987
385,554,3.21594,-4.11752,-0.0016555,-0.000507853,-0.00140187,0.000433092,-0.00259644,-0.979658,0.00189192,0.00874815,1609,470,3.21593,4.11753
392,554,3.20837,-4.01147,-0.00132792,-6.47017e-05,-0.000876701,0.000384214,-0.00177683,-1.09755,0.00133124,0.0112974,1616,470,3.20833,4.01149
399,554,3.2041,-3.90833,-0.000957778,0.000351763,-0.000346657,0.000437867,-0.00104388,-1.32734,0.000879015,0.0154474,1623,470,3.20408,3.90833
406,554,3.22705,-3.78589,-0.000679935,0.000863435,0.000178549,0.000883821,-0.000700322,1.45711,0.000916648,0.0157672,1630,470,3.22701,3.78588
413,554,3.21143,-3.67108,-0.000591958,0.00125369,0.000524984,0.00139257,-0.000730836,1.31218,0.00124564,0.0158237,1637,470,3.21141,3.6711
420,554,3.19238,-3.56332,-0.000444934,0.00160996,0.000829102,0.00190276,-0.000737736,1.23131,0.00157318,0.0168405,1644,470,3.1924,3.56334
427,554,3.19446,-3.45239,-0.000170967,0.00203678,0.00118982,0.00255593,-0.000690114,1.15937,0.00197461,0.0115481,1651,470,3.19444,3.45238
434,554,3.18408,-3.3548,-0.000307535,0.00269104,0.00149272,0.00330743,-0.000923924,1.17919,0.00256892,0.0100383,1658,470,3.18412,3.35479
441,554,3.20569,-3.22845,-0.000298339,0.00370538,0.00176652,0.00437336,-0.000966317,1.20928,0.0032854,0.0108897,1665,470,3.20569,3.22845
448,554,3.20959,-3.09555,5.36785e-05,0.00508886,0.00153738,0.00552115,-0.000378613,1.29669,0.00381324,0.0123685,1672,470,3.20959,3.09554
455,554,3.21912,-2.9852,-0.000104254,0.00644341,0.0011694,0.006646,-0.000306837,1.39926,0.0045364,0.0136972,1679,470,3.21906,2.98519
462,554,3.20251,-2.8801,-6.22388e-05,0.00785798,0.000272402,0.00786734,-7.15966e-05,1.53646,0.00526892,0.0165523,1686,470,3.2025,2.88009
469,554,3.16382,-2.73962,0.000454256,0.00913801,-0.00125913,0.00931689,0.000275368,-1.42967,0.00612154,0.0214606,1693,470,3.16378,2.73962
476,554,3.29663,-2.28867,0.000878091,0.0109023,-0.00300238,0.0117327,4.76385e-05,-1.30094,0.00780599,0.0372039,1700,470,3.29659,2.28867
483,554,3.42944,-1.81143,0,0,0,0,0,0,0,-1,1707,470,3.42948,1.81144
490,554,3.23254,-3.18381,0,0,0,0,0,0,0,-1,1714,470,3.2326,3.18382
497,554,3.68115,-2.79181,0,0,0,0,0,0,0,-1,1721,470,3.68117,2.79181
504,554,4.74219,-2.54382,0,0,0,0,0,0,0,-1,1728,470,4.74222,2.54381
511,554,1.54248,-2.03467,0,0,0,0,0,0,0,-1,1735,470,1.54243,2.03467
518,554,0.92688,-1.96628,0,0,0,0,0,0,0,-1,1742,470,0.926902,1.96627
525,554,0,0,0,0,0,0,0,0,0,-1,1749,470,0,0
532,554,0,0,0,0,0,0,0,0,0,-1,1756,470,0,0
539,554,0,0,0,0,0,0,0,0,0,-1,1763,470,0,0
546,554,0,0,0,0,0,0,0,0,0,-1,1770,470,0,0
553,554,0,0,0,0,0,0,0,0,0,-1,1777,470,0,0
560,554,0,0,0,0,0,0,0,0,0,-1,1784,470,0,0
567,554,0,0,0,0,0,0,0,0,0,-1,1791,470,0,0
574,554,0,0,0,0,0,0,0,0,0,-1,1798,470,0,0
581,554,0,0,0,0,0,0,0,0,0,-1,1805,470,0,0
588,554,0,0,0,0,0,0,0,0,0,-1,1812,470,0,0
595,554,0,0,0,0,0,0,0,0,0,-1,1819,470,0,0
602,554,0,0,0,0,0,0,0,0,0,-1,1826,470,0,0
609,554,0,0,0,0,0,0,0,0,0,-1,1833,470,0,0
616,554,0,0,0,0,0,0,0,0,0,-1,1840,470,0,0
623,554,0,0,0,0,0,0,0,0,0,-1,1847,470,0,0
630,554,0,0,0,0,0,0,0,0,0,-1,1854,470,0,0
637,554,0,0,0,0,0,0,0,0,0,-1,1861,470,0,0
644,554,0,0,0,0,0,0,0,0,0,-1,1868,470,0,0
651,554,0,0,0,0,0,0,0,0,0,-1,1875,470,0,0
658,554,0,0,0,0,0,0,0,0,0,-1,1882,470,0,0
665,554,0,0,0,0,0,0,0,0,0,-1,1889,470,0,0
672,554,0,0,0,0,0,0,0,0,0,-1,1896,470,0,0
679,554,0,0,0,0,0,0,0,0,0,-1,1903,470,0,0
686,554,0,0,0,0,0,0,0,0,0,-1,1910,470,0,0
693,554,0,0,0,0,0,0,0,0,0,-1,1917,470,0,0
700,554,0,0,0,0,0,0,0,0,0,-1,1924,470,0,0
707,554,0,0,0,0,0,0,0,0,0,-1,1931,470,0,0
714,554,0,0,0,0,0,0,0,0,0,-1,1938,470,0,0
721,554,0,0,0,0,0,0,0,0,0,-1,1945,470,0,0
728,554,0,0,0,0,0,0,0,0,0,-1,1952,470,0,0
735,554,0,0,0,0,0,0,0,0,0,-1,1959,470,0,0
742,554,0,0,0,0,0,0,0,0,0,-1,1966,470,0,0
749,554,0,0,0,0,0,0,0,0,0,-1,1973,470,0,0
756,554,0,0,0,0,0,0,0,0,0,-1,1980,470,0,0
763,554,0,0,0,0,0,0,0,0,0,-1,1987,470,0,0
770,554,0,0,0,0,0,0,0,0,0,-1,1994,470,0,0
777,554,0,0,0,0,0,0,0,0,0,-1,2001,470,0,0
784,554,0,0,0,0,0,0,0,0,0,-1,2008,470,0,0
791,554,0,0,0,0,0,0,0,0,0,-1,2015,470,0,0
798,554,0,0,0,0,0,0,0,0,0,-1,2022,470,0,0
805,554,0,0,0,0,0,0,0,0,0,-1,2029,470,0,0
812,554,0,0,0,0,0,0,0,0,0,-1,2036,470,0,0
-700,547,0,0,0,0,0,0,0,0,0,-1,524,477,0,0
-693,547,0,0,0,0,0,0,0,0,0,-1,531,477,0,0
-686,547,0,0,0,0,0,0,0,0,0,-1,538,477,0,0
-679,547,0,0,0,0,0,0,0,0,0,-1,545,477,0,0
-672,547,0,0,0,0,0,0,0,0,0,-1,552,477,0,0
-665,547,0,0,0,0,0,0,0,0,0,-1,559,477,0,0
-658,547,0,0,0,0,0,0,0,0,0,-1,566,477,0,0
-651,547,0,0,0,0,0,0,0,0,0,-1,573,477,0,0
-644,547,0,0,0,0,0,0,0,0,0,-1,580,477,0,0
-637,547,0,0,0,0,0,0,0,0,0,-1,587,477,0,0
-630,547,0,0,0,0,0,0,0,0,0,-1,594,477,0,0
-623,547,0,0,0,0,0,0,0,0,0,-1,601,477,0,0
-616,547,0,0,0,0,0,0,0,0,0,-1,608,477,0,0
-609,547,0,0,0,0,0,0,0,0,0,-1,615,477,0,0
-602,547,0,0,0,0,0,0,0,0,0,-1,622,477,0,0
-595,547,0,0,0,0,0,0,0,0,0,-1,629,477,0,0
-588,547,0,0,0,0,0,0,0,0,0,-1,636,477,0,0
-581,547,0,0,0,0,0,0,0,0,0,-1,643,477,0,0
-574,547,0,0,0,0,0,0,0,0,0,-1,650,477,0,0
-567,547,0,0,0,0,0,0,0,0,0,-1,657,477,0,0
-560,547,0,0,0,0,0,0,0,0,0,-1,664,477,0,0
-553,547,0,0,0,0,0,0,0,0,0,-1,671,477,0,0
-546,547,0,0,0,0,0,0,0,0,0,-1,678,477,0,0
-539,547,0,0,0,0,0,0,0,0,0,-1,685,477,0,0
-532,547,0,0,0,0,0,0,0,0,0,-1,692,477,0,0
-525,547,0,0,0,0,0,0,0,0,0,-1,699,477,0,0
-518,547,0,0,0,0,0,0,0,0,0,-1,706,477,0,0
-511,547,0,0,0,0,0,0,0,0,0,-1,713,477,0,0
-504,547,0,0,0,0,0,0,0,0,0,-1,720,477,0,0
-497,547,0,0,0,0,0,0,0,0,0,-1,727,477,0,0
-490,547,0,0,0,0,0,0,0,0,0,-1,734,477,0,0
-483,547,0,0,0,0,0,0,0,0,0,-1,741,477,0,0
-476,547,0,0,0,0,0,0,0,0,0,-1,748,477,0,0
-469,547,0,0,0,0,0,0,0,0,0,-1,755,477,0,0
-462,547,0,0,0,0,0,0,0,0,0,-1,762,477,0,0
-455,547,0,0,0,0,0,0,0,0,0,-1,769,477,0,0
-448,547,0,0,0,0,0,0,0,0,0,-1,776,477,0,0
-441,547,0,0,0,0,0,0,0,0,0,-1,783,477,0,0
-434,547,0,0,0,0,0,0,0,0,0,-1,790,477,0,0
-427,547,0,0,0,0,0,0,0,0,0,-1,797,477,0,0
-420,547,0,0,0,0,0,0,0,0,0,-1,804,477,0,0
-413,547,0,0,0,0,0,0,0,0,0,-1,811,477,0,0
-406,547,2.21027,-3.92615,0,0,0,0,0,0,0,-1,818,477,2.21027,3.92616
-399,547,1.20374,-3.87234,0,0,0,0,0,0,0,-1,825,477,1.20372,3.87234
-392,547,0.930664,-3.60791,0,0,0,0,0,0,0,-1,832,477,0.930687,3.60792
-385,547,-0.0539551,-4.26544,0,0,0,0,0,0,0,-1,839,477,-0.0539484,4.26543
-378,547,-0.564514,-2.51706,0,0,0,0,0,0,0,-1,846,477,-0.564503,2.51704
-371,547,0.430054,-2.56912,0.0148547,-0.0199438,0.00190003,0.0149581,-0.0200473,0.0543855,0.0202814,0.0452741,853,477,0.430078,2.56911
-364,547,1.51581,-2.57428,0.0151961,-0.0216315,0.0011383,0.0152313,-0.0216666,0.0308696,0.0214108,0.0481873,860,477,1.5158,2.57428
-357,547,1.55524,-3.17856,0,0,0,0,0,0,0,-1,867,477,1.55526,3.17856
-350,547,0.74054,-2.91943,0,0,0,0,0,0,0,-1,874,477,0.740513,2.91944
-343,547,1.3493,-3.4368,0.00994365,-0.0154218,-0.00072784,0.00996451,-0.0154426,-0.0286627,0.014782,0.0337951,881,477,1.34932,3.43679
-336,547,1.41553,-3.56284,0.00821471,-0.0127105,-0.000980718,0.00826057,-0.0127564,-0.0467312,0.0122263,0.014756,888,477,1.41551,3.56282
-329,547,1.38818,-3.681,0.00517547,-0.0101971,-0.00110054,0.00525386,-0.0102755,-0.0711079,0.00912078,0.00896088,895,477,1.38818,3.68099
-322,547,1.38666,-3.78906,0.00268697,-0.00781367,-0.000901189,0.00276375,-0.00789045,-0.0849941,0.00638417,0.00978711,902,477,1.38667,3.78906
-315,547,1.38788,-3.89981,-0.000103864,-0.00529365,-0.000785373,1.23831e-05,-0.00540989,-0.146948,0.00361073,0.00973392,909,477,1.38788,3.89981
-308,547,1.36591,-4.017,-0.0021299,-0.00337106,-0.000752076,-0.00177542,-0.00372554,-0.440452,0.00215173,0.0116059,916,477,1.3659,4.01699
-301,547,1.37396,-4.11688,-0.00191831,-0.00204639,-0.00051557,-0.00146282,-0.00250188,-0.723609,0.00145135,0.0109708,923,477,1.37393,4.11689
-294,547,1.37,-4.21045,-0.0015426,-0.00103807,-4.778e-05,-0.00103359,-0.00154709,-1.4772,0.000909881,0.00907786,930,477,1.36997,4.21046
-287,547,1.34967,-4.29214,-0.00110716,-0.000384453,0.000332917,-0.000254472,-0.00123714,1.19857,0.000754383,0.0104686,937,477,1.34967,4.29214
-280,547,1.33899,-4.38568,-0.000669851,-2.73701e-05,0.000676094,0.00039992,-0.00109714,1.00718,0.000895029,0.0121362,944,477,1.33901,4.38569
-273,547,1.36523,-4.49814,-0.000292738,-0.000211675,0.00107442,0.000822978,-0.00132739,0.804251,0.00125285,0.0121079,951,477,1.36523,4.49813
-266,547,1.37335,-4.59958,0.000235576,-0.000240544,0.00133318,0.00135179,-0.00135676,0.697047,0.00156378,0.0112875,958,477,1.37334,4.59958
-259,547,1.36731,-4.71301,0.00130897,-0.00108937,0.00178367,0.0022591,-0.0020395,0.489451,0.00248288,0.0103387,965,477,1.36734,4.71301
-252,547,1.37988,-4.80157,0.00276951,-0.0025879,0.00264212,0.00385328,-0.00367167,0.389261,0.00434496,0.0106874,972,477,1.37989,4.80156
-245,547,1.38898,-4.88828,0.00455681,-0.00411118,0.00344241,0.00575759,-0.00531195,0.335622,0.00639273,0.0112194,979,477,1.389,4.88827
-238,547,1.3941,-4.97241,0.00668565,-0.00615427,0.00427182,0.007977,-0.00744562,0.293561,0.00890602,0.00763425,986,477,1.39409,4.9724
-231,547,1.39276,-5.06821,0.00898026,-0.0084626,0.00520339,0.0104145,-0.00989689,0.268966,0.0117281,0.0072971,993,477,1.39279,5.06819
-224,547,1.38104,-5.14612,0.0115589,-0.0108923,0.00618242,0.0131488,-0.0124822,0.251706,0.0147997,0.00956299,1000,477,1.38104,5.14611
-217,547,1.39777,-5.23566,0.0142325,-0.0135355,0.00716495,0.0159723,-0.0152753,0.238205,0.0180423,0.0135629,1007,477,1.39777,5.23565
-210,547,1.41223,-5.32767,0.0164234,-0.0160077,0.0077905,0.0181977,-0.0177821,0.223936,0.0207734,0.0218296,1014,477,1.41223,5.32766
-203,547,1.42542,-5.31964,0.0182786,-0.0166357,0.00837041,0.0201816,-0.0185387,0.22355,0.0223619,0.0328643,1021,477,1.42542,5.31965
-196,547,1.14734,-5.134,0,0,0,0,0,0,0,-1,1028,477,1.14734,5.134
-189,547,0.894165,-4.73959,0,0,0,0,0,0,0,-1,1035,477,0.894165,4.7396
-182,547,0.82666,-4.5976,0,0,0,0,0,0,0,-1,1042,477,0.826666,4.59758
-175,547,1.48425,-5.85306,0,0,0,0,0,0,0,-1,1049,477,1.48427,5.85306
-168,547,1.68591,-5.73502,0,0,0,0,0,0,0,-1,1056,477,1.68592,5.73501
-161,547,0.11377,-8.09891,0,0,0,0,0,0,0,-1,1063,477,0.113813,8.0989
-154,547,0.638428,-7.83847,0,0,0,0,0,0,0,-1,1070,477,0.638413,7.83848
-147,547,0.99939,-7.02695,0,0,0,0,0,0,0,-1,1077,477,0.999364,7.02693
-140,547,0.898071,-6.84262,0,0,0,0,0,0,0,-1,1084,477,0.898046,6.84263
-133,547,0.894653,-6.54715,0,0,0,0,0,0,0,-1,1091,477,0.894661,6.54714
-126,547,2.47107,-4.09134,0,0,0,0,0,0,0,-1,1098,477,2.47109,4.09135
-119,547,1.81641,-4.89014,0,0,0,0,0,0,0,-1,1105,477,1.81637,4.89013
-112,547,2.07776,-5.22037,0,0,0,0,0,0,0,-1,1112,477,2.0777,5.22037
-105,547,1.1239,-6.49072,0,0,0,0,0,0,0,-1,1119,477,1.1239,6.49072
-98,547,0.289429,-4.92862,0,0,0,0,0,0,0,-1,1126,477,0.289474,4.92861
-91,547,-0.491089,-4.73654,0,0,0,0,0,0,0,-1,1133,477,-0.491051,4.73654
-84,547,-0.648071,3.42496,0,0,0,0,0,0,0,-1,1140,477,-0.648118,-3.42494
-77,547,-1.84143,1.1373,-0.05514,-0.0107685,-0.131273,0.100181,-0.166089,-0.86911,0.155293,0.0442432,1147,477,-1.84148,-1.13729
-70,547,-3.05469,-1.15335,-0.0628542,-0.00731857,-0.147034,0.114546,-0.184719,-0.878726,0.174357,0.0457358,1154,477,-3.05473,1.15334
-63,547,-4.22192,-3.43762,-0.0677562,-0.0041412,-0.16247,0.129606,-0.201503,-0.882063,0.192662,0.0430153,1161,477,-4.2219,3.43764
-56,547,-5.01709,-6.06787,-0.0530546,0.000114176,-0.16613,0.141774,-0.194714,-0.864736,0.195071,0.0486314,1168,477,-5.01708,6.06787
-49,547,-5.54053,-8.573,0,0,0,0,0,0,0,-1,1175,477,-5.54052,8.57301
-42,547,-2.41736,-5.53012,0,0,0,0,0,0,0,-1,1182,477,-2.41734,5.53011
-35,547,-2.96838,-4.45734,0,0,0,0,0,0,0,-1,1189,477,-2.96839,4.45734
-28,547,-0.869141,-1.29901,0,0,0,0,0,0,0,-1,1196,477,-0.869135,1.29901
-21,547,-0.411865,-1.11679,0,0,0,0,0,0,0,-1,1203,477,-0.411879,1.11679
-14,547,7.94373,-6.3222,0,0,0,0,0,0,0,-1,1210,477,7.94372,6.3222
-7,547,8.45959,-6.86264,0.0435328,0.0722716,-0.14444,0.203055,-0.0872504,-0.834977,0.171995,0.0464665,1217,477,8.45955,6.86265
0,547,8.97839,-7.00491,0.0587058,0.0877403,-0.142313,0.216274,-0.0698282,-0.836227,0.172243,0.0435371,1224,477,8.97838,7.00491
7,547,9.50183,-8.03906,0,0,0,0,0,0,0,-1,1231,477,9.50186,8.03905
14,547,0,0,0,0,0,0,0,0,0,-1,1238,477,0,0
21,547,0,0,0,0,0,0,0,0,0,-1,1245,477,0,0
28,547,0,0,0,0,0,0,0,0,0,-1,1252,477,0,0
35,547,0,0,0,0,0,0,0,0,0,-1,1259,477,0,0
42,547,0,0,0,0,0,0,0,0,0,-1,1266,477,0,0
49,547,0,0,0,0,0,0,0,0,0,-1,1273,477,0,0
56,547,0,0,0,0,0,0,0,0,0,-1,1280,477,0,0
63,547,0,0,0,0,0,0,0,0,0,-1,1287,477,0,0
70,547,0,0,0,0,0,0,0,0,0,-1,1294,477,0,0
77,547,0,0,0,0,0,0,0,0,0,-1,1301,477,0,0
84,547,0,0,0,0,0,0,0,0,0,-1,1308,477,0,0
91,547,0,0,0,0,0,0,0,0,0,-1,1315,477,0,0
98,547,0,0,0,0,0,0,0,0,0,-1,1322,477,0,0
105,547,3.7251,-4.3259,-0.0413064,-0.0160418,-0.00498432,-0.015094,-0.0422542,-1.38289,0.0247248,0.0484774,1329,477,3.72507,4.32589
112,547,3.65405,-4.46622,-0.0441441,-0.025982,-0.0139397,-0.0184263,-0.0516998,-1.0741,0.0302564,0.0482859,1336,477,3.65407,4.46623
119,547,3.52307,-4.85593,-0.0410374,-0.0315164,-0.0235063,-0.0122934,-0.0602603,-0.885307,0.0367673,0.0439225,1343,477,3.52306,4.85592
126,547,3.61548,-5.25162,0,0,0,0,0,0,0,-1,1350,477,3.6155,5.25162
133,547,3.97095,-6.18915,0,0,0,0,0,0,0,-1,1357,477,3.97089,6.18916
140,547,4.09937,-6.99582,0,0,0,0,0,0,0,-1,1364,477,4.09937,6.99582
147,547,4.23364,-7.79855,0,0,0,0,0,0,0,-1,1371,477,4.23366,7.79855
154,547,4.29175,-11.0305,0,0,0,0,0,0,0,-1,1378,477,4.29173,11.0306
161,547,8.50427,-2.7851,0,0,0,0,0,0,0,-1,1385,477,8.50426,2.78509
168,547,8.99524,-2.06577,0,0,0,0,0,0,0,-1,1392,477,8.99525,2.06576
175,547,3.35034,-0.26532,0,0,0,0,0,0,0,-1,1399,477,3.3503,0.265306
182,547,4.26038,3.72672,0,0,0,0,0,0,0,-1,1406,477,4.26039,-3.7267
189,547,3.40454,1.28671,0,0,0,0,0,0,0,-1,1413,477,3.40457,-1.28673
196,547,3.53931,1.87793,0,0,0,0,0,0,0,-1,1420,477,3.53928,-1.87794
203,547,6.49414,-0.425842,0,0,0,0,0,0,0,-1,1427,477,6.4941,0.425844
210,547,4.82092,0.53595,0,0,0,0,0,0,0,-1,1434,477,4.82096,-0.535942
217,547,4.68579,0.480072,0,0,0,0,0,0,0,-1,1441,477,4.68577,-0.480069
224,547,4.55615,0.739807,0,0,0,0,0,0,0,-1,1448,477,4.55613,-0.73981
231,547,5.90869,-3.57721,0,0,0,0,0,0,0,-1,1455,477,5.90871,3.57722
238,547,5.50049,-3.15356,0,0,0,0,0,0,0,-1,1462,477,5.50045,3.15356
245,547,5.13708,-2.65213,0,0,0,0,0,0,0,-1,1469,477,5.13708,2.65212
252,547,3.73511,-0.645233,0,0,0,0,0,0,0,-1,1476,477,3.73515,0.645237
259,547,5.86816,-3.20816,0,0,0,0,0,0,0,-1,1483,477,5.86815,3.20816
266,547,5.40222,-2.45731,0,0,0,0,0,0,0,-1,1490,477,5.40221,2.45732
273,547,3.05737,0.495789,0,0,0,0,0,0,0,-1,1497,477,3.05742,-0.49578
280,547,2.0885,1.47797,0,0,0,0,0,0,0,-1,1504,477,2.08848,-1.47795
287,547,2.31177,-2.21716,0,0,0,0,0,0,0,-1,1511,477,2.31174,2.21717
294,547,2.4823,-3.03659,0,0,0,0,0,0,0,-1,1518,477,2.48229,3.0366
301,547,4.72119,-3.93454,0,0,0,0,0,0,0,-1,1525,477,4.72119,3.93453
308,547,4.58875,-4.63553,0,0,0,0,0,0,0,-1,1532,477,4.5887,4.63554
315,547,4.14966,-4.63644,0,0,0,0,0,0,0,-1,1539,477,4.14964,4.63644
322,547,3.49207,-4.91205,0,0,0,0,0,0,0,-1,1546,477,3.49204,4.91206
329,547,3.32617,-4.81067,-0.00358666,-0.0114816,-0.0106382,0.00381284,-0.0188811,-0.60774,0.0140321,0.0377897,1553,477,3.32615,4.81068
336,547,3.2804,-4.79468,-0.00377685,-0.00998676,-0.00958724,0.00319569,-0.0169593,-0.628796,0.0125082,0.0265961,1560,477,3.28034,4.79469
343,547,3.31921,-4.77332,-0.00391698,-0.0082913,-0.00846391,0.0026378,-0.0148461,-0.658959,0.0108837,0.0196333,1567,477,3.31927,4.77333
350,547,3.31201,-4.68246,-0.00397308,-0.00683843,-0.00745171,0.00218243,-0.0129939,-0.690426,0.00947426,0.0152382,1574,477,3.31198,4.68245
357,547,3.30701,-4.55975,-0.00393934,-0.00538303,-0.00637871,0.00175824,-0.0110806,-0.729055,0.00803751,0.0123102,1581,477,3.30695,4.55976
364,547,3.2981,-4.45078,-0.00376475,-0.00398636,-0.00533617,0.00146176,-0.00921287,-0.775017,0.00668267,0.0104066,1588,477,3.2981,4.45076
371,547,3.30151,-4.35226,-0.00348358,-0.00274894,-0.00427782,0.00117729,-0.00740982,-0.828226,0.00537546,0.00895926,1595,477,3.30154,4.35226
378,547,3.31982,-4.23825,-0.00316301,-0.00189911,-0.00349721,0.00102278,-0.00608491,-0.874785,0.004437,0.00957343,1602,477,3.31985,4.23825
385,547,3.32275,-4.12283,-0.00285596,-0.00108837,-0.00281873,0.000981873,-0.0049262,-0.937315,0.00365565,0.0104396,1609,477,3.32271,4.12284
392,547,3.31592,-4.01974,-0.00246093,-0.000604287,-0.00221066,0.000865058,-0.00393028,-0.984182,0.00295111,0.0108454,1616,477,3.31587,4.01976
399,547,3.3103,-3.89542,-0.0019893,-0.000198437,-0.00160914,0.000747629,-0.00293537,-1.0393,0.00224795,0.0121112,1623,477,3.31034,3.89543
406,547,3.32495,-3.78055,-0.00153105,0.000270758,-0.00098611,0.000705534,-0.00196582,-1.15553,0.0015985,0.0131474,1630,477,3.325,3.78055
413,547,3.32825,-3.67572,-0.00121595,0.000635956,-0.000507075,0.000765709,-0.0013457,-1.32029,0.00123426,0.0133436,1637,477,3.32825,3.67572
420,547,3.31738,-3.57245,-0.000912469,0.00091441,-9.0382e-05,0.000918871,-0.00091693,-1.52148,0.0010599,0.0154583,1644,477,3.3174,3.57246
427,547,3.31873,-3.45926,-0.000514329,0.00123448,0.000356495,0.00130436,-0.000584208,1.37723,0.00111648,0.014032,1651,477,3.31872,3.45926
434,547,3.30334,-3.34167,-0.000411199,0.00172542,0.000719696,0.00194523,-0.000631008,1.27438,0.00155056,0.00932755,1658,477,3.30332,3.34167
441,547,3.3009,-3.22287,-0.000218847,0.00255988,0.0011305,0.0029617,-0.000620671,1.22928,0.0022106,0.00980076,1665,477,3.3009,3.22286
448,547,3.3075,-3.10068,0.000182869,0.00369154,0.00114432,0.00403176,-0.000157348,1.28181,0.0027418,0.0108791,1672,477,3.30751,3.10069
455,547,3.32263,-2.99719,0.000119577,0.00483386,0.000965086,0.00502377,-7.034e-05,1.37649,0.00337287,0.0116359,1679,477,3.32263,2.99718
462,547,3.31201,-2.87625,0.000240275,0.00592794,0.000253393,0.00593921,0.000229008,1.52636,0.00388539,0.0108964,1686,477,3.31203,2.87625
469,547,3.30652,-2.7533,0.000786793,0.00680764,-0.00104381,0.00698346,0.000610966,-1.40392,0.00446594,0.0168014,1693,477,3.30657,2.7533
476,547,3.40247,-2.54181,0.00113662,0.00813955,-0.00245196,0.0089127,0.00036347,-1.26534,0.00582442,0.0320591,1700,477,3.40248,2.54182
483,547,3.49512,-2.29025,0,0,0,0,0,0,0,-1,1707,477,3.49506,2.29026
490,547,3.65784,-3.68845,0,0,0,0,0,0,0,-1,1714,477,3.65785,3.68844
497,547,2.38062,-3.09967,0,0,0,0,0,0,0,-1,1721,477,2.38067,3.09966
504,547,2.69458,-1.60522,0,0,0,0,0,0,0,-1,1728,477,2.6946,1.60522
511,547,2.50159,-1.80466,0,0,0,0,0,0,0,-1,1735,477,2.50161,1.80466
518,547,2.02319,-2.21417,0,0,0,0,0,0,0,-1,1742,477,2.02317,2.21418
525,547,0.781616,-3.76355,0,0,0,0,0,0,0,-1,1749,477,0.781645,3.76354
532,547,0,0,0,0,0,0,0,0,0,-1,1756,477,0,0
539,547,0,0,0,0,0,0,0,0,0,-1,1763,477,0,0
546,547,0,0,0,0,0,0,0,0,0,-1,1770,477,0,0
553,547,0,0,0,0,0,0,0,0,0,-1,1777,477,0,0
560,547,0,0,0,0,0,0,0,0,0,-1,1784,477,0,0
567,547,0,0,0,0,0,0,0,0,0,-1,1791,477,0,0
574,547,0,0,0,0,0,0,0,0,0,-1,1798,477,0,0
581,547,0,0,0,0,0,0,0,0,0,-1,1805,477,0,0
588,547,0,0,0,0,0,0,0,0,0,-1,1812,477,0,0
595,547,0,0,0,0,0,0,0,0,0,-1,1819,477,0,0
602,547,0,0,0,0,0,0,0,0,0,-1,1826,477,0,0
609,547,0,0,0,0,0,0,0,0,0,-1,1833,477,0,0
616,547,0,0,0,0,0,0,0,0,0,-1,1840,477,0,0
623,547,0,0,0,0,0,0,0,0,0,-1,1847,477,0,0
630,547,0,0,0,0,0,0,0,0,0,-1,1854,477,0,0
637,547,0,0,0,0,0,0,0,0,0,-1,1861,477,0,0
644,547,0,0,0,0,0,0,0,0,0,-1,1868,477,0,0
651,547,0,0,0,0,0,0,0,0,0,-1,1875,477,0,0
658,547,0,0,0,0,0,0,0,0,0,-1,1882,477,0,0
665,547,0,0,0,0,0,0,0,0,0,-1,1889,477,0,0
672,547,0,0,0,0,0,0,0,0,0,-1,1896,477,0,0
679,547,0,0,0,0,0,0,0,0,0,-1,1903,477,0,0
686,547,0,0,0,0,0,0,0,0,0,-1,1910,477,0,0
693,547,0,0,0,0,0,0,0,0,0,-1,1917,477,0,0
700,547,0,0,0,0,0,0,0,0,0,-1,1924,477,0,0
707,547,0,0,0,0,0,0,0,0,0,-1,1931,477,0,0
714,547,0,0,0,0,0,0,0,0,0,-1,1938,477,0,0
721,547,0,0,0,0,0,0,0,0,0,-1,1945,477,0,0
728,547,0,0,0,0,0,0,0,0,0,-1,1952,477,0,0
735,547,0,0,0,0,0,0,0,0,0,-1,1959,477,0,0
742,547,0,0,0,0,0,0,0,0,0,-1,1966,477,0,0
749,547,0,0,0,0,0,0,0,0,0,-1,1973,477,0,0
756,547,0,0,0,0,0,0,0,0,0,-1,1980,477,0,0
763,547,0,0,0,0,0,0,0,0,0,-1,1987,477,0,0
770,547,0,0,0,0,0,0,0,0,0,-1,1994,477,0,0
777,547,0,0,0,0,0,0,0,0,0,-1,2001,477,0,0
784,547,0,0,0,0,0,0,0,0,0,-1,2008,477,0,0
791,547,0,0,0,0,0,0,0,0,0,-1,2015,477,0,0
798,547,0,0,0,0,0,0,0,0,0,-1,2022,477,0,0
805,547,0,0,0,0,0,0,0,0,0,-1,2029,477,0,0
812,547,0,0,0,0,0,0,0,0,0,-1,2036,477,0,0
-700,540,0,0,0,0,0,0,0,0,0,-1,524,484,0,0
-693,540,0,0,0,0,0,0,0,0,0,-1,531,484,0,0
-686,540,0,0,0,0,0,0,0,0,0,-1,538,484,0,0
-679,540,0,0,0,0,0,0,0,0,0,-1,545,484,0,0
-672,540,0,0,0,0,0,0,0,0,0,-1,552,484,0,0
-665,540,0,0,0,0,0,0,0,0,0,-1,559,484,0,0
-658,540,0,0,0,0,0,0,0,0,0,-1,566,484,0,0
-651,540,0,0,0,0,0,0,0,0,0,-1,573,484,0,0
-644,540,0,0,0,0,0,0,0,0,0,-1,580,484,0,0
-637,540,0,0,0,0,0,0,0,0,0,-1,587,484,0,0
-630,540,0,0,0,0,0,0,0,0,0,-1,594,484,0,0
-623,540,0,0,0,0,0,0,0,0,0,-1,601,484,0,0
-616,540,0,0,0,0,0,0,0,0,0,-1,608,484,0,0
-609,540,0,0,0,0,0,0,0,0,0,-1,615,484,0,0
-602,540,0,0,0,0,0,0,0,0,0,-1,622,484,0,0
-595,540,0,0,0,0,0,0,0,0,0,-1,629,484,0,0
-588,540,0,0,0,0,0,0,0,0,0,-1,636,484,0,0
-581,540,0,0,0,0,0,0,0,0,0,-1,643,484,0,0
-574,540,0,0,0,0,0,0,0,0,0,-1,650,484,0,0
-567,540,0,0,0,0,0,0,0,0,0,-1,657,484,0,0
-560,540,0,0,0,0,0,0,0,0,0,-1,664,484,0,0
-553,540,0,0,0,0,0,0,0,0,0,-1,671,484,0,0
-546,540,0,0,0,0,0,0,0,0,0,-1,678,484,0,0
-539,540,0,0,0,0,0,0,0,0,0,-1,685,484,0,0
-532,540,0,0,0,0,0,0,0,0,0,-1,692,484,0,0
-525,540,0,0,0,0,0,0,0,0,0,-1,699,484,0,0
-518,540,0,0,0,0,0,0,0,0,0,-1,706,484,0,0
-511,540,0,0,0,0,0,0,0,0,0,-1,713,484,0,0
-504,540,0,0,0,0,0,0,0,0,0,-1,720,484,0,0
-497,540,0,0,0,0,0,0,0,0,0,-1,727,484,0,0
-490,540,0,0,0,0,0,0,0,0,0,-1,734,484,0,0
-483,540,0,0,0,0,0,0,0,0,0,-1,741,484,0,0
-476,540,0,0,0,0,0,0,0,0,0,-1,748,484,0,0
-469,540,0,0,0,0,0,0,0,0,0,-1,755,484,0,0
-462,540,0,0,0,0,0,0,0,0,0,-1,762,484,0,0
-455,540,0,0,0,0,0,0,0,0,0,-1,769,484,0,0
-448,540,0,0,0,0,0,0,0,0,0,-1,776,484,0,0
-441,540,0,0,0,0,0,0,0,0,0,-1,783,484,0,0
-434,540,0,0,0,0,0,0,0,0,0,-1,790,484,0,0
-427,540,0,0,0,0,0,0,0,0,0,-1,797,484,0,0
-420,540,1.81903,0.0426025,0,0,0,0,0,0,0,-1,804,484,1.81905,-0.0426131
-413,540,2.24536,0.335022,0,0,0,0,0,0,0,-1,811,484,2.24537,-0.335017
-406,540,2.41437,-4.10397,0,0,0,0,0,0,0,-1,818,484,2.41439,4.10398
-399,540,1.75317,-3.97424,0.00416585,0.0176377,0.00199672,0.0179274,0.00387614,1.42671,0.0108919,0.0428842,825,484,1.7532,3.97425
-392,540,1.0769,-3.72983,0.0065594,0.00573163,0.00195994,0.00814868,0.00414235,0.681341,0.00470486,0.0456811,832,484,1.07693,3.72982
-385,540,0.355652,-3.56573,0,0,0,0,0,0,0,-1,839,484,0.355651,3.56573
-378,540,-0.0745239,-2.27655,0,0,0,0,0,0,0,-1,846,484,-0.0745051,2.27656
-371,540,0.416809,-2.50192,0.0129043,-0.0126622,0.00132265,0.0129725,-0.0127304,0.0515502,0.0148398,0.0471073,853,484,0.416779,2.50192
-364,540,1.17755,-2.62888,0.0133363,-0.0146625,0.000777199,0.0133579,-0.0146841,0.0277298,0.0161961,0.0461235,860,484,1.17753,2.62886
-357,540,1.37909,-3.16666,0.0126098,-0.0133362,0.00037332,0.0126152,-0.0133416,0.0143844,0.0149881,0.0431357,867,484,1.37909,3.16665
-350,540,1.21558,-3.34753,0.0108574,-0.0116763,-0.000158024,0.0108585,-0.0116774,-0.00701235,0.013014,0.0276685,874,484,1.21556,3.34752
-343,540,1.27588,-3.45889,0.00934201,-0.0102453,-0.000480333,0.00935378,-0.0102571,-0.024503,0.0113263,0.0125619,881,484,1.27585,3.4589
-336,540,1.27643,-3.57886,0.00787162,-0.0082766,-0.000647189,0.00789751,-0.0083025,-0.0399926,0.00935405,0.0112413,888,484,1.27645,3.57886
-329,540,1.26398,-3.67615,0.00516485,-0.00643807,-0.000646475,0.00520076,-0.00647398,-0.0554877,0.00675376,0.00964342,895,484,1.26395,3.67614
-322,540,1.2804,-3.79245,0.00289169,-0.00468956,-0.00040728,0.00291351,-0.00471137,-0.0535167,0.00444283,0.0123652,902,484,1.28038,3.79245
-315,540,1.27515,-3.89713,0.000369242,-0.00283799,-0.00024393,0.000387689,-0.00285644,-0.0754776,0.0020458,0.0118243,909,484,1.27514,3.89712
-308,540,1.25897,-3.99561,-0.00142614,-0.00145053,-0.000210919,-0.00122706,-0.00164961,-0.756513,0.000989437,0.0112125,916,484,1.25896,3.9956
-301,540,1.23572,-4.08411,-0.00133094,-0.00051642,0.00016959,-0.00048252,-0.00136484,1.37351,0.000799179,0.0105242,923,484,1.23571,4.08411
-294,540,1.25354,-4.1911,-0.00110253,0.000142515,0.000811141,0.000542482,-0.0015025,1.11269,0.00122327,0.0102605,930,484,1.25357,4.19111
-287,540,1.26758,-4.3075,-0.000811315,0.00046331,0.00145159,0.00141133,-0.00175933,0.992251,0.00183425,0.00770362,937,484,1.26759,4.3075
-280,540,1.25952,-4.41864,-0.000463248,0.000440631,0.00231472,0.00234712,-0.00236974,0.881808,0.00272329,0.00860417,944,484,1.2595,4.41864
-273,540,1.27075,-4.52054,-1.94021e-05,-0.000100478,0.00335619,0.0032965,-0.00341638,0.779359,0.00387588,0.0115045,951,484,1.27075,4.52054
-266,540,1.27112,-4.61945,0.00041594,-0.00070678,0.00440835,0.00429852,-0.00458936,0.722069,0.00513234,0.0129119,958,484,1.27113,4.61944
-259,540,1.27454,-4.72467,0.00162942,-0.00266904,0.00573743,0.00560695,-0.00664657,0.606189,0.00708306,0.0121693,965,484,1.27452,4.72466
-252,540,1.28888,-4.81412,0.00348314,-0.00561623,0.00754755,0.00774623,-0.00987933,0.514159,0.0102009,0.0118129,972,484,1.28886,4.81413
-245,540,1.29608,-4.9061,0.00576453,-0.00848494,0.0091523,0.0102383,-0.0129588,0.454663,0.0134235,0.0120021,979,484,1.29607,4.90609
-238,540,1.2959,-4.96634,0.00840747,-0.0120585,0.0107013,0.012981,-0.016632,0.403884,0.0171403,0.00832358,986,484,1.29591,4.96633
-231,540,1.28778,-5.05869,0.0111751,-0.0159719,0.0123142,0.0159286,-0.0207254,0.368395,0.0212225,0.00953323,993,484,1.28779,5.05868
-224,540,1.27466,-5.15344,0.0144421,-0.0199893,0.013684,0.0192181,-0.0247652,0.335798,0.025461,0.0145636,1000,484,1.27467,5.15344
-217,540,1.26727,-5.27142,0.0178817,-0.0242308,0.0149021,0.0226216,-0.0289707,0.307947,0.0298619,0.0255034,1007,484,1.26724,5.27141
-210,540,1.39514,-5.49304,0.0208313,-0.0281148,0.0155896,0.0253749,-0.0326584,0.283595,0.0335934,0.0390322,1014,484,1.39511,5.49305
-203,540,1.44464,-5.63858,0.0234262,-0.0299892,0.0161674,0.0279385,-0.0345015,0.272171,0.036116,0.0455624,1021,484,1.44467,5.63858
-196,540,1.15771,-5.54987,0.0257916,-0.0312057,0.0164226,0.0301848,-0.0355989,0.26139,0.0380231,0.0481738,1028,484,1.15769,5.54988
-189,540,0.99707,-5.29575,0,0,0,0,0,0,0,-1,1035,484,0.997072,5.29573
-182,540,0.946045,-5.2413,0,0,0,0,0,0,0,-1,1042,484,0.945999,5.2413
-175,540,0.431396,-4.81216,0,0,0,0,0,0,0,-1,1049,484,0.431456,4.81217
-168,540,0.0804443,-4.5387,0,0,0,0,0,0,0,-1,1056,484,0.0804584,4.53871
-161,540,-0.619995,-3.56448,0,0,0,0,0,0,0,-1,1063,484,-0.619975,3.56449
-154,540,0.34021,-8.66757,0,0,0,0,0,0,0,-1,1070,484,0.340246,8.66758
-147,540,0.521729,-6.51596,0,0,0,0,0,0,0,-1,1077,484,0.52168,6.51595
-140,540,1.31787,-5.85361,0,0,0,0,0,0,0,-1,1084,484,1.31793,5.8536
-133,540,1.74194,-5.48038,0,0,0,0,0,0,0,-1,1091,484,1.74197,5.48036
-126,540,1.78943,-1.73938,0,0,0,0,0,0,0,-1,1098,484,1.78942,1.73938
-119,540,2.2854,-2.44662,0,0,0,0,0,0,0,-1,1105,484,2.28536,2.44661
-112,540,2.65173,-3.42639,0,0,0,0,0,0,0,-1,1112,484,2.65174,3.42639
-105,540,1.73462,-4.61615,0,0,0,0,0,0,0,-1,1119,484,1.73465,4.61616
-98,540,0.73877,-3.08093,0,0,0,0,0,0,0,-1,1126,484,0.738754,3.08092
-91,540,0.586914,4.62909,0,0,0,0,0,0,0,-1,1133,484,0.586932,-4.6291
-84,540,-0.727173,3.08292,-0.068175,-0.0060199,-0.13478,0.101219,-0.175414,-0.898708,0.161618,0.0452386,1140,484,-0.727196,-3.08291
-77,540,-2.12207,1.16412,-0.0764236,-0.0032243,-0.149371,0.113965,-0.193613,-0.905544,0.179554,0.0448789,1147,484,-2.12206,-1.16412
-70,540,-3.21338,-1.26819,0,0,0,0,0,0,0,-1,1154,484,-3.21339,1.26819
-63,540,-4.23254,-3.48071,-0.0878679,0.00264556,-0.182729,0.145639,-0.230861,-0.906791,0.219221,0.0440825,1161,484,-4.23255,3.48072
-56,540,-5.19055,-6.12595,-0.0744556,0.00671687,-0.189759,0.160182,-0.22792,-0.890752,0.225206,0.049743,1168,484,-5.19057,6.12595
-49,540,-5.63867,-8.52298,0,0,0,0,0,0,0,-1,1175,484,-5.63871,8.52298
-42,540,0,0,0,0,0,0,0,0,0,-1,1182,484,0,0
-35,540,0,0,0,0,0,0,0,0,0,-1,1189,484,0,0
-28,540,0,0,0,0,0,0,0,0,0,-1,1196,484,0,0
-21,540,0,0,0,0,0,0,0,0,0,-1,1203,484,0,0
-14,540,0,0,0,0,0,0,0,0,0,-1,1210,484,0,0
-7,540,0,0,0,0,0,0,0,0,0,-1,1217,484,0,0
0,540,0,0,0,0,0,0,0,0,0,-1,1224,484,0,0
7,540,0,0,0,0,0,0,0,0,0,-1,1231,484,0,0
14,540,0,0,0,0,0,0,0,0,0,-1,1238,484,0,0
21,540,0,0,0,0,0,0,0,0,0,-1,1245,484,0,0
28,540,0,0,0,0,0,0,0,0,0,-1,1252,484,0,0
35,540,0,0,0,0,0,0,0,0,0,-1,1259,484,0,0
42,540,0,0,0,0,0,0,0,0,0,-1,1266,484,0,0
49,540,0,0,0,0,0,0,0,0,0,-1,1273,484,0,0
56,540,0,0,0,0,0,0,0,0,0,-1,1280,484,0,0
63,540,0,0,0,0,0,0,0,0,0,-1,1287,484,0,0
70,540,0,0,0,0,0,0,0,0,0,-1,1294,484,0,0
77,540,0,0,0,0,0,0,0,0,0,-1,1301,484,0,0
84,540,0,0,0,0,0,0,0,0,0,-1,1308,484,0,0
91,540,0,0,0,0,0,0,0,0,0,-1,1315,484,0,0
98,540,0,0,0,0,0,0,0,0,0,-1,1322,484,0,0
105,540,0,0,0,0,0,0,0,0,0,-1,1329,484,0,0
112,540,0,0,0,0,0,0,0,0,0,-1,1336,484,0,0
119,540,0,0,0,0,0,0,0,0,0,-1,1343,484,0,0
126,540,0,0,0,0,0,0,0,0,0,-1,1350,484,0,0
133,540,0,0,0,0,0,0,0,0,0,-1,1357,484,0,0
140,540,0,0,0,0,0,0,0,0,0,-1,1364,484,0,0
147,540,0,0,0,0,0,0,0,0,0,-1,1371,484,0,0
154,540,0,0,0,0,0,0,0,0,0,-1,1378,484,0,0
161,540,0,0,0,0,0,0,0,0,0,-1,1385,484,0,0
168,540,3.05078,-0.0010376,0,0,0,0,0,0,0,-1,1392,484,3.05084,0.00102554
175,540,3.37708,0.617035,0,0,0,0,0,0,0,-1,1399,484,3.37707,-0.617046
182,540,3.32678,1.23267,0,0,0,0,0,0,0,-1,1406,484,3.32678,-1.23266
189,540,3.5813,2.15619,0,0,0,0,0,0,0,-1,1413,484,3.58129,-2.1562
196,540,1.84448,-0.801483,0,0,0,0,0,0,0,-1,1420,484,1.84446,0.80148
203,540,4.14648,0.702087,0,0,0,0,0,0,0,-1,1427,484,4.14645,-0.702089
210,540,4.50671,-0.56076,0,0,0,0,0,0,0,-1,1434,484,4.50667,0.560771
217,540,5.00452,-0.278717,0,0,0,0,0,0,0,-1,1441,484,5.00452,0.278709
224,540,6.44458,-2.83527,0,0,0,0,0,0,0,-1,1448,484,6.44457,2.83525
231,540,6.9231,-3.10504,0,0,0,0,0,0,0,-1,1455,484,6.92307,3.10505
238,540,6.4823,-2.58365,0,0,0,0,0,0,0,-1,1462,484,6.48225,2.58363
245,540,6.02087,-1.97916,0,0,0,0,0,0,0,-1,1469,484,6.02088,1.97915
252,540,6.50647,-3.56006,0,0,0,0,0,0,0,-1,1476,484,6.50649,3.56006
259,540,6.01941,-2.798,0,0,0,0,0,0,0,-1,1483,484,6.01941,2.79801
266,540,5.5332,-2.02853,0,0,0,0,0,0,0,-1,1490,484,5.53323,2.02855
273,540,5.06787,-1.28137,0,0,0,0,0,0,0,-1,1497,484,5.06786,1.28136
280,540,1.62903,-2.14609,0,0,0,0,0,0,0,-1,1504,484,1.62906,2.1461
287,540,1.97156,-2.45053,0,0,0,0,0,0,0,-1,1511,484,1.97159,2.45053
294,540,2.44165,-2.6185,0,0,0,0,0,0,0,-1,1518,484,2.44167,2.6185
301,540,4.36169,-2.54272,0,0,0,0,0,0,0,-1,1525,484,4.36165,2.54272
308,540,5.17334,-4.41495,0,0,0,0,0,0,0,-1,1532,484,5.17329,4.41495
315,540,4.75769,-4.44101,0,0,0,0,0,0,0,-1,1539,484,4.75775,4.44102
322,540,3.42151,-4.22357,0,0,0,0,0,0,0,-1,1546,484,3.42147,4.22356
329,540,3.53723,-4.44009,-0.00505481,-0.014928,-0.0134977,0.0043807,-0.0243635,-0.610086,0.0178823,0.047288,1553,484,3.53719,4.44009
336,540,3.61743,-4.56107,-0.00527769,-0.0127121,-0.0118974,0.00346974,-0.0214595,-0.633985,0.0155921,0.0482022,1560,484,3.61745,4.56108
343,540,3.71936,-4.51273,-0.00535386,-0.0104246,-0.0107781,0.00318301,-0.0189615,-0.669881,0.0138247,0.0454548,1567,484,3.71931,4.51272
350,540,3.69763,-4.47519,-0.00540051,-0.008637,-0.0099438,0.00305586,-0.0170934,-0.704736,0.0125389,0.035298,1574,484,3.69769,4.47518
357,540,3.53186,-4.47101,-0.00538743,-0.00685311,-0.00873631,0.00264672,-0.0148873,-0.743554,0.0109146,0.0254264,1581,484,3.53187,4.471
364,540,3.38843,-4.42188,-0.00514627,-0.00517307,-0.00758915,0.00242949,-0.0127488,-0.784515,0.00941413,0.0150756,1588,484,3.38844,4.42188
371,540,3.39307,-4.34393,-0.00476412,-0.00373126,-0.00646455,0.00223745,-0.0107328,-0.825257,0.00800594,0.0125452,1595,484,3.39305,4.34395
378,540,3.42969,-4.23907,-0.00429799,-0.00279614,-0.0056455,0.00214815,-0.00924229,-0.851517,0.00698851,0.0117757,1602,484,3.42973,4.23906
385,540,3.43347,-4.13184,-0.00388766,-0.00192917,-0.00491062,0.00209889,-0.00791572,-0.883814,0.00609839,0.0132848,1609,484,3.43351,4.13184
392,540,3.40112,-4.02887,-0.00341133,-0.00140082,-0.00420858,0.00192089,-0.00673305,-0.902631,0.00524753,0.0116042,1616,484,3.40111,4.02886
399,540,3.40173,-3.92603,-0.00284801,-0.000987069,-0.00350064,0.00170465,-0.00553973,-0.915295,0.00437355,0.0158619,1623,484,3.40176,3.92604
406,540,3.41711,-3.82321,-0.00224896,-0.000521352,-0.00272777,0.00147612,-0.00424643,-0.938738,0.00343054,0.0180792,1630,484,3.41712,3.82321
413,540,3.42322,-3.72107,-0.00176815,-0.000128589,-0.00204699,0.00125668,-0.00315341,-0.975858,0.00262349,0.0133939,1637,484,3.42324,3.72108
420,540,3.43848,-3.5679,-0.00136634,0.000135808,-0.00143339,0.00100298,-0.00223351,-1.02672,0.00191308,0.0117704,1644,484,3.43852,3.56789
427,540,3.42749,-3.44016,-0.000889138,0.00042949,-0.000828543,0.000829034,-0.00128868,-1.12147,0.00123223,0.0126605,1651,484,3.42751,3.44015
434,540,3.42053,-3.3172,-0.000615103,0.000838233,-0.000327341,0.000908558,-0.000685429,-1.35917,0.000923289,0.0149431,1658,484,3.42058,3.31719
441,540,3.43884,-3.19183,-0.000303982,0.00157041,0.000296401,0.00161617,-0.000349735,1.41764,0.00121098,0.0181293,1665,484,3.43889,3.19184
448,540,3.43005,-3.10544,0.000123763,0.00253323,0.000631959,0.00268892,-3.19288e-05,1.32924,0.00180335,0.0111491,1672,484,3.43004,3.10544
455,540,3.42957,-3.00116,0.000151672,0.00352534,0.000711307,0.00366918,7.83242e-06,1.37127,0.00244351,0.010296,1679,484,3.42956,3.00117
462,540,3.42358,-2.85272,0.000347892,0.00438081,0.000200228,0.00439073,0.000337976,1.52131,0.00282125,0.0099531,1686,484,3.42361,2.85271
469,540,3.4259,-2.74805,0.000873219,0.00495322,-0.000850288,0.00512333,0.000703108,-1.37334,0.00320698,0.012288,1693,484,3.4259,2.74803
476,540,3.42542,-2.68665,0.0011363,0.00593095,-0.00194297,0.00661945,0.000447802,-1.23025,0.00427153,0.01633,1700,484,3.42538,2.68665
483,540,3.46509,-2.53003,0.00164101,0.0068426,-0.003557,0.00864821,-0.0001646,-1.10107,0.00582112,0.0246753,1707,484,3.4651,2.53003
490,540,3.51074,-2.28336,0.00226881,0.00769222,-0.00566798,0.0112638,-0.00130275,-1.00852,0.00797896,0.0407052,1714,484,3.51076,2.28336
497,540,3.5199,-2.01431,0,0,0,0,0,0,0,-1,1721,484,3.51993,2.0143
504,540,3.03174,-1.79468,0.00393889,0.00899633,-0.0116258,0.0183653,-0.00543004,-0.892485,0.014399,0.0459005,1728,484,3.03176,1.79467
511,540,2.80383,-1.99783,0.00531282,0.00910312,-0.0154512,0.022775,-0.00835904,-0.84642,0.0186065,0.0472361,1735,484,2.8038,1.99782
518,540,2.90369,-2.31366,0.00709569,0.00895931,-0.0195772,0.0276269,-0.0115719,-0.809179,0.0232556,0.0488254,1742,484,2.90363,2.31366
525,540,3.48071,-2.20947,0,0,0,0,0,0,0,-1,1749,484,3.48071,2.20949
532,540,2.84265,-1.07925,0,0,0,0,0,0,0,-1,1756,484,2.84269,1.07927
539,540,0,0,0,0,0,0,0,0,0,-1,1763,484,0,0
546,540,0,0,0,0,0,0,0,0,0,-1,1770,484,0,0
553,540,0,0,0,0,0,0,0,0,0,-1,1777,484,0,0
560,540,0,0,0,0,0,0,0,0,0,-1,1784,484,0,0
567,540,0,0,0,0,0,0,0,0,0,-1,1791,484,0,0
574,540,0,0,0,0,0,0,0,0,0,-1,1798,484,0,0
581,540,0,0,0,0,0,0,0,0,0,-1,1805,484,0,0
588,540,0,0,0,0,0,0,0,0,0,-1,1812,484,0,0
595,540,0,0,0,0,0,0,0,0,0,-1,1819,484,0,0
602,540,0,0,0,0,0,0,0,0,0,-1,1826,484,0,0
609,540,0,0,0,0,0,0,0,0,0,-1,1833,484,0,0
616,540,0,0,0,0,0,0,0,0,0,-1,1840,484,0,0
623,540,0,0,0,0,0,0,0,0,0,-1,1847,484,0,0
630,540,0,0,0,0,0,0,0,0,0,-1,1854,484,0,0
637,540,0,0,0,0,0,0,0,0,0,-1,1861,484,0,0
644,540,0,0,0,0,0,0,0,0,0,-1,1868,484,0,0
651,540,0,0,0,0,0,0,0,0,0,-1,1875,484,0,0
658,540,0,0,0,0,0,0,0,0,0,-1,1882,484,0,0
665,540,0,0,0,0,0,0,0,0,0,-1,1889,484,0,0
672,540,0,0,0,0,0,0,0,0,0,-1,1896,484,0,0
679,540,0,0,0,0,0,0,0,0,0,-1,1903,484,0,0
686,540,0,0,0,0,0,0,0,0,0,-1,1910,484,0,0
693,540,0,0,0,0,0,0,0,0,0,-1,1917,484,0,0
700,540,0,0,0,0,0,0,0,0,0,-1,1924,484,0,0
707,540,0,0,0,0,0,0,0,0,0,-1,1931,484,0,0
714,540,0,0,0,0,0,0,0,0,0,-1,1938,484,0,0
721,540,0,0,0,0,0,0,0,0,0,-1,1945,484,0,0
728,540,0,0,0,0,0,0,0,0,0,-1,1952,484,0,0
735,540,0,0,0,0,0,0,0,0,0,-1,1959,484,0,0
742,540,0,0,0,0,0,0,0,0,0,-1,1966,484,0,0
749,540,0,0,0,0,0,0,0,0,0,-1,1973,484,0,0
756,540,0,0,0,0,0,0,0,0,0,-1,1980,484,0,0
763,540,0,0,0,0,0,0,0,0,0,-1,1987,484,0,0
770,540,0,0,0,0,0,0,0,0,0,-1,1994,484,0,0
777,540,0,0,0,0,0,0,0,0,0,-1,2001,484,0,0
784,540,0,0,0,0,0,0,0,0,0,-1,2008,484,0,0
791,540,0,0,0,0,0,0,0,0,0,-1,2015,484,0,0
798,540,0,0,0,0,0,0,0,0,0,-1,2022,484,0,0
805,540,0,0,0,0,0,0,0,0,0,-1,2029,484,0,0
812,540,0,0,0,0,0,0,0,0,0,-1,2036,484,0,0
-700,533,0,0,0,0,0,0,0,0,0,-1,524,491,0,0
-693,533,0,0,0,0,0,0,0,0,0,-1,531,491,0,0
-686,533,0,0,0,0,0,0,0,0,0,-1,538,491,0,0
-679,533,0,0,0,0,0,0,0,0,0,-1,545,491,0,0
-672,533,0,0,0,0,0,0,0,0,0,-1,552,491,0,0
-665,533,0,0,0,0,0,0,0,0,0,-1,559,491,0,0
-658,533,0,0,0,0,0,0,0,0,0,-1,566,491,0,0
-651,533,0,0,0,0,0,0,0,0,0,-1,573,491,0,0
-644,533,0,0,0,0,0,0,0,0,0,-1,580,491,0,0
-637,533,0,0,0,0,0,0,0,0,0,-1,587,491,0,0
-630,533,0,0,0,0,0,0,0,0,0,-1,594,491,0,0
-623,533,0,0,0,0,0,0,0,0,0,-1,601,491,0,0
-616,533,0,0,0,0,0,0,0,0,0,-1,608,491,0,0
-609,533,0,0,0,0,0,0,0,0,0,-1,615,491,0,0
-602,533,0,0,0,0,0,0,0,0,0,-1,622,491,0,0
-595,533,0,0,0,0,0,0,0,0,0,-1,629,491,0,0
-588,533,0,0,0,0,0,0,0,0,0,-1,636,491,0,0
-581,533,0,0,0,0,0,0,0,0,0,-1,643,491,0,0
-574,533,0,0,0,0,0,0,0,0,0,-1,650,491,0,0
-567,533,0,0,0,0,0,0,0,0,0,-1,657,491,0,0
-560,533,0,0,0,0,0,0,0,0,0,-1,664,491,0,0
-553,533,0,0,0,0,0,0,0,0,0,-1,671,491,0,0
-546,533,0,0,0,0,0,0,0,0,0,-1,678,491,0,0
-539,533,0,0,0,0,0,0,0,0,0,-1,685,491,0,0
-532,533,0,0,0,0,0,0,0,0,0,-1,692,491,0,0
-525,533,0,0,0,0,0,0,0,0,0,-1,699,491,0,0
-518,533,0,0,0,0,0,0,0,0,0,-1,706,491,0,0
-511,533,0,0,0,0,0,0,0,0,0,-1,713,491,0,0
-504,533,0,0,0,0,0,0,0,0,0,-1,720,491,0,0
-497,533,0,0,0,0,0,0,0,0,0,-1,727,491,0,0
-490,533,0,0,0,0,0,0,0,0,0,-1,734,491,0,0
-483,533,0,0,0,0,0,0,0,0,0,-1,741,491,0,0
-476,533,0,0,0,0,0,0,0,0,0,-1,748,491,0,0
-469,533,0,0,0,0,0,0,0,0,0,-1,755,491,0,0
-462,533,0,0,0,0,0,0,0,0,0,-1,762,491,0,0
-455,533,0,0,0,0,0,0,0,0,0,-1,769,491,0,0
-448,533,0,0,0,0,0,0,0,0,0,-1,776,491,0,0
-441,533,0,0,0,0,0,0,0,0,0,-1,783,491,0,0
-434,533,0,0,0,0,0,0,0,0,0,-1,790,491,0,0
-427,533,1.43488,-1.22165,0.011542,0.100789,-0.00277135,0.100875,0.011456,-1.53978,0.063775,0.0494642,797,491,1.43489,1.22164
-420,533,1.84338,-0.923187,0.00577019,0.074542,-0.00130575,0.0745668,0.00574541,-1.55182,0.047911,0.0472236,804,491,1.8434,0.923186
-413,533,2.53546,-3.1561,0,0,0,0,0,0,0,-1,811,491,2.53548,3.1561
-406,533,2.61853,-4.2818,0,0,0,0,0,0,0,-1,818,491,2.61851,4.2818
-399,533,1.96613,-4.22253,0.00459096,0.02115,0.00135242,0.0212598,0.00448123,1.48984,0.0129407,0.0446687,825,491,1.96614,4.22254
-392,533,1.15735,-3.79593,0.00617728,0.0101026,0.00137965,0.010539,0.00574088,1.26444,0.0060928,0.0493747,832,491,1.15733,3.79592
-385,533,0.636536,-3.28409,0,0,0,0,0,0,0,-1,839,491,0.636547,3.28408
-378,533,0.895447,-2.48944,0,0,0,0,0,0,0,-1,846,491,0.895433,2.48946
-371,533,0.874939,-2.27835,0.0110563,-0.00691424,0.00134781,0.0111569,-0.00701477,0.074446,0.0105819,0.0472419,853,491,0.87492,2.27835
-364,533,1.03699,-2.79718,0.0115377,-0.00898221,0.00100728,0.011587,-0.00903154,0.0489312,0.0119346,0.0361975,860,491,1.03698,2.79718
-357,533,1.19073,-3.22272,0.0110469,-0.00802985,0.000767947,0.0110778,-0.00806071,0.040169,0.0110953,0.0206674,867,491,1.19073,3.22271
-350,533,1.172,-3.3154,0.00969205,-0.00685361,0.000378544,0.00970071,-0.00686227,0.0228628,0.00960933,0.0105258,874,491,1.17197,3.31541
-343,533,1.21124,-3.46689,0.00847715,-0.00590221,0.000152506,0.00847877,-0.00590383,0.0106043,0.00834804,0.0099858,881,491,1.21127,3.4669
-336,533,1.17499,-3.59811,0.00719895,-0.00455058,-2.66547e-05,0.00719901,-0.00455064,-0.00226856,0.00684087,0.0144268,888,491,1.17497,3.5981
-329,533,1.16089,-3.69522,0.00475275,-0.00329599,-2.34055e-05,0.00475282,-0.00329606,-0.00290794,0.00467232,0.0134855,895,491,1.16091,3.69522
-322,533,1.16437,-3.79675,0.00261692,-0.00207007,0.000158184,0.00262225,-0.0020754,0.0336984,0.00271831,0.0107091,902,491,1.16438,3.79674
-315,533,1.1571,-3.89978,0.000303681,-0.000777496,0.00028134,0.000372509,-0.000846324,0.23993,0.000721199,0.0120943,909,491,1.15711,3.89979
-308,533,1.14941,-3.99893,-0.00131906,0.000157988,0.000253511,0.000200287,-0.00136136,1.40546,0.000981176,0.0114752,916,491,1.1494,3.99894
-301,533,1.12183,-4.08279,-0.00140624,0.000767269,0.000735942,0.00099301,-0.00163198,1.27317,0.00153043,0.0117088,923,491,1.1218,4.08279
-294,533,1.14606,-4.18661,-0.00136192,0.00113742,0.00154588,0.00187557,-0.00210007,1.12531,0.00229656,0.0107235,930,491,1.14609,4.18663
-287,533,1.15894,-4.30481,-0.00121283,0.001209,0.00244573,0.00272717,-0.00273099,1.01526,0.00315127,0.00857803,937,491,1.15891,4.30482
-280,533,1.16058,-4.41379,-0.000921103,0.000889503,0.00386006,0.003949,-0.0039806,0.900582,0.00457817,0.00784492,944,491,1.16061,4.41378
-273,533,1.15967,-4.53482,-0.000331178,2.14778e-05,0.00559987,0.0054478,-0.0057575,0.801137,0.00647021,0.0113156,951,491,1.15968,4.53482
-266,533,1.1687,-4.63202,0.000122307,-0.00107476,0.0074784,0.00702609,-0.00797854,0.745466,0.00866874,0.011368,958,491,1.1687,4.63203
-259,533,1.19049,-4.72537,0.00170327,-0.0042901,0.00973018,0.00888777,-0.0114746,0.636018,0.0117878,0.0113251,965,491,1.19049,4.72537
-252,533,1.19586,-4.82007,0.00424578,-0.00889411,0.0125608,0.0118511,-0.0164994,0.544438,0.0164413,0.0129002,972,491,1.19586,4.82005
-245,533,1.21136,-4.90329,0.00736309,-0.0133524,0.0150235,0.0152533,-0.0212426,0.483597,0.0211653,0.0167163,979,491,1.21138,4.90329
-238,533,1.22595,-4.92032,0.0108707,-0.018641,0.0172847,0.0188414,-0.0266117,0.432081,0.0263699,0.0185582,986,491,1.22597,4.92031
-231,533,1.2663,-5.02164,0.0144914,-0.0243634,0.0195644,0.0226355,-0.0325076,0.394456,0.0320065,0.0271403,993,491,1.26628,5.02165
-224,533,1.21564,-5.19446,0.0188182,-0.030191,0.0213104,0.0267884,-0.0381612,0.357895,0.0376898,0.0351016,1000,491,1.21561,5.19446
-217,533,1.26276,-5.38889,0.0234087,-0.0362478,0.0227411,0.0310889,-0.043928,0.325696,0.0435219,0.0413137,1007,491,1.26274,5.38888
-210,533,1.58905,-5.63834,0.0274597,-0.0416659,0.0234527,0.0346655,-0.0488717,0.298093,0.0484621,0.0490112,1014,491,1.58904,5.63834
-203,533,1.80194,-6.02945,0,0,0,0,0,0,0,-1,1021,491,1.80191,6.02943
-196,533,1.12891,-5.98715,0,0,0,0,0,0,0,-1,1028,491,1.1289,5.98714
-189,533,1.00879,-5.68634,0,0,0,0,0,0,0,-1,1035,491,1.00882,5.68634
-182,533,1.06531,-5.88501,0,0,0,0,0,0,0,-1,1042,491,1.06533,5.88501
-175,533,0.382935,-5.08942,0,0,0,0,0,0,0,-1,1049,491,0.382961,5.08943
-168,533,-0.132813,-4.62842,0,0,0,0,0,0,0,-1,1056,491,-0.132849,4.62841
-161,533,-0.82373,-3.84085,0,0,0,0,0,0,0,-1,1063,491,-0.823682,3.84084
-154,533,-1.63196,-2.99069,0,0,0,0,0,0,0,-1,1070,491,-1.63198,2.99069
-147,533,-0.966553,-4.7186,0,0,0,0,0,0,0,-1,1077,491,-0.966588,4.71859
-140,533,0.693359,-6.06354,0,0,0,0,0,0,0,-1,1084,491,0.69335,6.06352
-133,533,-4.95264,-6.48141,0,0,0,0,0,0,0,-1,1091,491,-4.95263,6.48142
-126,533,2.89612,-2.59003,0,0,0,0,0,0,0,-1,1098,491,2.89608,2.59003
-119,533,2.87903,-3.47372,0,0,0,0,0,0,0,-1,1105,491,2.87905,3.47373
-112,533,1.69788,-3.8486,0,0,0,0,0,0,0,-1,1112,491,1.69793,3.84862
-105,533,3.84839,1.12769,0,0,0,0,0,0,0,-1,1119,491,3.84843,-1.12769
-98,533,-1.39392,-5.16367,0,0,0,0,0,0,0,-1,1126,491,-1.39394,5.16367
-91,533,0.367432,4.49753,0,0,0,0,0,0,0,-1,1133,491,0.367468,-4.49754
-84,533,-0.88623,3.03604,0,0,0,0,0,0,0,-1,1140,491,-0.886288,-3.03605
-77,533,0,0,0,0,0,0,0,0,0,-1,1147,491,0,0
-70,533,0,0,0,0,0,0,0,0,0,-1,1154,491,0,0
-63,533,0,0,0,0,0,0,0,0,0,-1,1161,491,0,0
-56,533,0,0,0,0,0,0,0,0,0,-1,1168,491,0,0
-49,533,0,0,0,0,0,0,0,0,0,-1,1175,491,0,0
-42,533,0,0,0,0,0,0,0,0,0,-1,1182,491,0,0
-35,533,0,0,0,0,0,0,0,0,0,-1,1189,491,0,0
-28,533,0,0,0,0,0,0,0,0,0,-1,1196,491,0,0
-21,533,0,0,0,0,0,0,0,0,0,-1,1203,491,0,0
-14,533,0,0,0,0,0,0,0,0,0,-1,1210,491,0,0
-7,533,0,0,0,0,0,0,0,0,0,-1,1217,491,0,0
0,533,0,0,0,0,0,0,0,0,0,-1,1224,491,0,0
7,533,0,0,0,0,0,0,0,0,0,-1,1231,491,0,0
14,533,0,0,0,0,0,0,0,0,0,-1,1238,491,0,0
21,533,0,0,0,0,0,0,0,0,0,-1,1245,491,0,0
28,533,0,0,0,0,0,0,0,0,0,-1,1252,491,0,0
35,533,0,0,0,0,0,0,0,0,0,-1,1259,491,0,0
42,533,0,0,0,0,0,0,0,0,0,-1,1266,491,0,0
49,533,0,0,0,0,0,0,0,0,0,-1,1273,491,0,0
56,533,0,0,0,0,0,0,0,0,0,-1,1280,491,0,0
63,533,0,0,0,0,0,0,0,0,0,-1,1287,491,0,0
70,533,0,0,0,0,0,0,0,0,0,-1,1294,491,0,0
77,533,0,0,0,0,0,0,0,0,0,-1,1301,491,0,0
84,533,0,0,0,0,0,0,0,0,0,-1,1308,491,0,0
91,533,0,0,0,0,0,0,0,0,0,-1,1315,491,0,0
98,533,0,0,0,0,0,0,0,0,0,-1,1322,491,0,0
105,533,0,0,0,0,0,0,0,0,0,-1,1329,491,0,0
112,533,0,0,0,0,0,0,0,0,0,-1,1336,491,0,0
119,533,0,0,0,0,0,0,0,0,0,-1,1343,491,0,0
126,533,0,0,0,0,0,0,0,0,0,-1,1350,491,0,0
133,533,0,0,0,0,0,0,0,0,0,-1,1357,491,0,0
140,533,0,0,0,0,0,0,0,0,0,-1,1364,491,0,0
147,533,0,0,0,0,0,0,0,0,0,-1,1371,491,0,0
154,533,0,0,0,0,0,0,0,0,0,-1,1378,491,0,0
161,533,0,0,0,0,0,0,0,0,0,-1,1385,491,0,0
168,533,0,0,0,0,0,0,0,0,0,-1,1392,491,0,0
175,533,0,0,0,0,0,0,0,0,0,-1,1399,491,0,0
182,533,0,0,0,0,0,0,0,0,0,-1,1406,491,0,0
189,533,0,0,0,0,0,0,0,0,0,-1,1413,491,0,0
196,533,0,0,0,0,0,0,0,0,0,-1,1420,491,0,0
203,533,3.7887,1.16193,0,0,0,0,0,0,0,-1,1427,491,3.78872,-1.16193
210,533,5.09558,-0.216034,0,0,0,0,0,0,0,-1,1434,491,5.09559,0.216028
217,533,6.91614,-2.46814,0,0,0,0,0,0,0,-1,1441,491,6.91618,2.46814
224,533,7.23621,-2.1857,0,0,0,0,0,0,0,-1,1448,491,7.23621,2.1857
231,533,7.23474,-1.92282,0,0,0,0,0,0,0,-1,1455,491,7.2347,1.92282
238,533,7.23535,-1.67258,0,0,0,0,0,0,0,-1,1462,491,7.23539,1.67258
245,533,6.86682,-1.2301,0,0,0,0,0,0,0,-1,1469,491,6.86686,1.23011
252,533,6.63354,-3.07825,0,0,0,0,0,0,0,-1,1476,491,6.6335,3.07824
259,533,6.16431,-2.35037,0,0,0,0,0,0,0,-1,1483,491,6.1643,2.35037
266,533,5.68884,-1.6214,0,0,0,0,0,0,0,-1,1490,491,5.68885,1.6214
273,533,5.21399,-0.864227,0,0,0,0,0,0,0,-1,1497,491,5.21403,0.864227
280,533,1.41089,-1.97946,0,0,0,0,0,0,0,-1,1504,491,1.41087,1.97946
287,533,1.6814,-2.44443,0,0,0,0,0,0,0,-1,1511,491,1.6814,2.44444
294,533,2.2384,-2.57626,0,0,0,0,0,0,0,-1,1518,491,2.23839,2.57625
301,533,3.39941,-4.0817,0,0,0,0,0,0,0,-1,1525,491,3.3994,4.08171
308,533,5.16125,-4.64493,0,0,0,0,0,0,0,-1,1532,491,5.16126,4.64493
315,533,5.32471,-4.26968,0,0,0,0,0,0,0,-1,1539,491,5.32468,4.26968
322,533,3.51587,-3.9588,0,0,0,0,0,0,0,-1,1546,491,3.51588,3.9588
329,533,3.7644,-4.31689,0,0,0,0,0,0,0,-1,1553,491,3.76438,4.3169
336,533,4.01294,-4.67499,0,0,0,0,0,0,0,-1,1560,491,4.01289,4.67499
343,533,4.00476,-4.26611,0,0,0,0,0,0,0,-1,1567,491,4.0048,4.26613
350,533,4.19006,-4.2168,-0.00724696,-0.0104681,-0.0123414,0.00358854,-0.0213036,-0.720514,0.0155373,0.0483298,1574,491,4.19008,4.21678
357,533,3.93188,-4.15857,-0.00730806,-0.00833466,-0.0110008,0.00319144,-0.0188342,-0.762085,0.013744,0.040774,1581,491,3.93187,4.15858
364,533,3.58325,-4.37912,-0.00700894,-0.00632916,-0.00974711,0.00308399,-0.0164221,-0.802827,0.0121077,0.0300813,1588,491,3.58324,4.37912
371,533,3.4801,-4.34253,-0.00652893,-0.00467925,-0.00857784,0.00302346,-0.0142316,-0.839099,0.0106398,0.0236348,1595,491,3.48009,4.34254
378,533,3.49939,-4.23053,-0.00591284,-0.00367073,-0.00773899,0.00302799,-0.0126115,-0.857327,0.00957793,0.0188321,1602,491,3.4994,4.23052
385,533,3.54932,-4.13681,-0.0053867,-0.00277182,-0.00697167,0.00301395,-0.0111725,-0.878089,0.00863021,0.0168364,1609,491,3.54928,4.1368
392,533,3.5083,-4.0202,-0.0048032,-0.00222785,-0.00621262,0.00282914,-0.00986019,-0.887585,0.00769193,0.0117207,1616,491,3.50834,4.02021
399,533,3.52148,-3.94647,-0.00410898,-0.00181564,-0.0054215,0.00257912,-0.00850374,-0.889615,0.00669652,0.0110618,1623,491,3.52145,3.94648
406,533,3.54663,-3.85626,-0.00332617,-0.00135051,-0.00451991,0.00228826,-0.00696493,-0.892982,0.00556513,0.0145411,1630,491,3.54661,3.85627
413,533,3.56616,-3.71262,-0.00263126,-0.000913814,-0.00365036,0.00197747,-0.00552254,-0.900919,0.00448848,0.0124968,1637,491,3.5662,3.71263
420,533,3.56104,-3.5556,-0.00207891,-0.000633075,-0.00284126,0.0015758,-0.00428778,-0.909973,0.00350396,0.0118164,1644,491,3.56109,3.5556
427,533,3.552,-3.42941,-0.00147246,-0.000336091,-0.00207948,0.00125143,-0.00305998,-0.91876,0.00256115,0.0132989,1651,491,3.55205,3.42941
434,533,3.54578,-3.32767,-0.00100382,4.00769e-05,-0.00145538,0.00106427,-0.00202801,-0.95757,0.001814,0.0127254,1658,491,3.54581,3.32767
441,533,3.56189,-3.19678,-0.000559772,0.000726895,-0.00060827,0.000968926,-0.000801804,-1.1921,0.00102385,0.0144641,1665,491,3.56187,3.19679
448,533,3.56067,-3.10608,-8.29188e-05,0.00158654,5.23797e-05,0.00158818,-8.45606e-05,1.53946,0.00108807,0.0151991,1672,491,3.56068,3.10609
455,533,3.53577,-3.00653,5.85075e-05,0.00248529,0.000416946,0.00255492,-1.11298e-05,1.40531,0.001707,0.0150816,1679,491,3.53582,3.00654
462,533,3.52917,-2.82053,0.000328903,0.00317638,0.000105408,0.00318027,0.000325006,1.53385,0.00202058,0.0141432,1686,491,3.52913,2.82054
469,533,3.54663,-2.73535,0.000803711,0.00353264,-0.000707069,0.00370496,0.00063139,-1.33174,0.00228873,0.00928422,1693,491,3.54663,2.73535
476,533,3.56006,-2.63565,0.000984373,0.00423829,-0.00152602,0.00484196,0.000380695,-1.1941,0.00310886,0.00944296,1700,491,3.56004,2.63565
483,533,3.56091,-2.48175,0.00138664,0.00486282,-0.00275573,0.00638279,-0.000133339,-1.06675,0.00430033,0.0122074,1707,491,3.56094,2.48174
490,533,3.59778,-2.35776,0.00190382,0.00543954,-0.004346,0.00836349,-0.00102013,-0.978566,0.00594495,0.0271512,1714,491,3.59781,2.35776
497,533,3.55542,-2.10281,0.00245222,0.00598317,-0.00628491,0.0107459,-0.00231048,-0.922323,0.00804543,0.0396198,1721,491,3.55544,2.10282
504,533,3.36401,-1.91235,0.00330007,0.00632082,-0.00873685,0.0136769,-0.004056,-0.870989,0.0107286,0.03946,1728,491,3.364,1.91235
511,533,3.12366,-1.97296,0.00479812,0.00638812,-0.0113324,0.0169533,-0.00576709,-0.820417,0.0136373,0.0453404,1735,491,3.12371,1.97295
518,533,3.47925,-2.19623,0.00669214,0.00636275,-0.0140418,0.0205703,-0.00751537,-0.779534,0.016789,0.0455569,1742,491,3.47921,2.19624
525,533,4.04309,-2.09872,0,0,0,0,0,0,0,-1,1749,491,4.04308,2.09872
532,533,3.24243,0.0737,0,0,0,0,0,0,0,-1,1756,491,3.24239,-0.0737072
539,533,3.61609,1.62427,0,0,0,0,0,0,0,-1,1763,491,3.61606,-1.62426
546,533,3.59607,1.65799,0,0,0,0,0,0,0,-1,1770,491,3.59605,-1.658
553,533,0,0,0,0,0,0,0,0,0,-1,1777,491,0,0
560,533,0,0,0,0,0,0,0,0,0,-1,1784,491,0,0
567,533,0,0,0,0,0,0,0,0,0,-1,1791,491,0,0
574,533,0,0,0,0,0,0,0,0,0,-1,1798,491,0,0
581,533,0,0,0,0,0,0,0,0,0,-1,1805,491,0,0
588,533,0,0,0,0,0,0,0,0,0,-1,1812,491,0,0
595,533,0,0,0,0,0,0,0,0,0,-1,1819,491,0,0
602,533,0,0,0,0,0,0,0,0,0,-1,1826,491,0,0
609,533,0,0,0,0,0,0,0,0,0,-1,1833,491,0,0
616,533,0,0,0,0,0,0,0,0,0,-1,1840,491,0,0
623,533,0,0,0,0,0,0,0,0,0,-1,1847,491,0,0
630,533,0,0,0,0,0,0,0,0,0,-1,1854,491,0,0
637,533,0,0,0,0,0,0,0,0,0,-1,1861,491,0,0
644,533,0,0,0,0,0,0,0,0,0,-1,1868,491,0,0
651,533,0,0,0,0,0,0,0,0,0,-1,1875,491,0,0
658,533,0,0,0,0,0,0,0,0,0,-1,1882,491,0,0
665,533,0,0,0,0,0,0,0,0,0,-1,1889,491,0,0
672,533,0,0,0,0,0,0,0,0,0,-1,1896,491,0,0
679,533,0,0,0,0,0,0,0,0,0,-1,1903,491,0,0
686,533,0,0,0,0,0,0,0,0,0,-1,1910,491,0,0
693,533,0,0,0,0,0,0,0,0,0,-1,1917,491,0,0
700,533,0,0,0,0,0,0,0,0,0,-1,1924,491,0,0
707,533,0,0,0,0,0,0,0,0,0,-1,1931,491,0,0
714,533,0,0,0,0,0,0,0,0,0,-1,1938,491,0,0
721,533,0,0,0,0,0,0,0,0,0,-1,1945,491,0,0
728,533,0,0,0,0,0,0,0,0,0,-1,1952,491,0,0
735,533,0,0,0,0,0,0,0,0,0,-1,1959,491,0,0
742,533,0,0,0,0,0,0,0,0,0,-1,1966,491,0,0
749,533,0,0,0,0,0,0,0,0,0,-1,1973,491,0,0
756,533,0,0,0,0,0,0,0,0,0,-1,1980,491,0,0
763,533,0,0,0,0,0,0,0,0,0,-1,1987,491,0,0
770,533,0,0,0,0,0,0,0,0,0,-1,1994,491,0,0
777,533,0,0,0,0,0,0,0,0,0,-1,2001,491,0,0
784,533,0,0,0,0,0,0,0,0,0,-1,2008,491,0,0
791,533,0,0,0,0,0,0,0,0,0,-1,2015,491,0,0
798,533,0,0,0,0,0,0,0,0,0,-1,2022,491,0,0
805,533,0,0,0,0,0,0,0,0,0,-1,2029,491,0,0
812,533,0,0,0,0,0,0,0,0,0,-1,2036,491,0,0
-700,526,0,0,0,0,0,0,0,0,0,-1,524,498,0,0
-693,526,0,0,0,0,0,0,0,0,0,-1,531,498,0,0
-686,526,0,0,0,0,0,0,0,0,0,-1,538,498,0,0
-679,526,0,0,0,0,0,0,0,0,0,-1,545,498,0,0
-672,526,0,0,0,0,0,0,0,0,0,-1,552,498,0,0
-665,526,0,0,0,0,0,0,0,0,0,-1,559,498,0,0
-658,526,0,0,0,0,0,0,0,0,0,-1,566,498,0,0
-651,526,0,0,0,0,0,0,0,0,0,-1,573,498,0,0
-644,526,0,0,0,0,0,0,0,0,0,-1,580,498,0,0
-637,526,0,0,0,0,0,0,0,0,0,-1,587,498,0,0
-630,526,0,0,0,0,0,0,0,0,0,-1,594,498,0,0
-623,526,0,0,0,0,0,0,0,0,0,-1,601,498,0,0
-616,526,0,0,0,0,0,0,0,0,0,-1,608,498,0,0
-609,526,0,0,0,0,0,0,0,0,0,-1,615,498,0,0
-602,526,0,0,0,0,0,0,0,0,0,-1,622,498,0,0
-595,526,0,0,0,0,0,0,0,0,0,-1,629,498,0,0
-588,526,0,0,0,0,0,0,0,0,0,-1,636,498,0,0
-581,526,0,0,0,0,0,0,0,0,0,-1,643,498,0,0
-574,526,0,0,0,0,0,0,0,0,0,-1,650,498,0,0
-567,526,0,0,0,0,0,0,0,0,0,-1,657,498,0,0
-560,526,0,0,0,0,0,0,0,0,0,-1,664,498,0,0
-553,526,0,0,0,0,0,0,0,0,0,-1,671,498,0,0
-546,526,0,0,0,0,0,0,0,0,0,-1,678,498,0,0
-539,526,0,0,0,0,0,0,0,0,0,-1,685,498,0,0
-532,526,0,0,0,0,0,0,0,0,0,-1,692,498,0,0
-525,526,0,0,0,0,0,0,0,0,0,-1,699,498,0,0
-518,526,0,0,0,0,0,0,0,0,0,-1,706,498,0,0
-511,526,0,0,0,0,0,0,0,0,0,-1,713,498,0,0
-504,526,0,0,0,0,0,0,0,0,0,-1,720,498,0,0
-497,526,0,0,0,0,0,0,0,0,0,-1,727,498,0,0
-490,526,0,0,0,0,0,0,0,0,0,-1,734,498,0,0
-483,526,0,0,0,0,0,0,0,0,0,-1,741,498,0,0
-476,526,0,0,0,0,0,0,0,0,0,-1,748,498,0,0
-469,526,0,0,0,0,0,0,0,0,0,-1,755,498,0,0
-462,526,0,0,0,0,0,0,0,0,0,-1,762,498,0,0
-455,526,0,0,0,0,0,0,0,0,0,-1,769,498,0,0
-448,526,0,0,0,0,0,0,0,0,0,-1,776,498,0,0
-441,526,0,0,0,0,0,0,0,0,0,-1,783,498,0,0
-434,526,2.05072,-2.35681,0,0,0,0,0,0,0,-1,790,498,2.05072,2.35682
-427,526,1.97864,-2.16544,0.0125077,0.0940972,-0.00193527,0.0941431,0.0124618,-1.54709,0.0590481,0.048231,797,498,1.97864,2.16544
-420,526,1.90057,-1.86618,0.00702752,0.0705229,-0.00120401,0.0705457,0.0070047,-1.55184,0.0448782,0.0459471,804,498,1.90057,1.86617
-413,526,2.07318,-3.1062,0.0052954,0.0510824,-0.000449021,0.0510869,0.00529099,-1.56099,0.0324384,0.0447906,811,498,2.07319,3.1062
-406,526,1.54364,-3.69681,0,0,0,0,0,0,0,-1,818,498,1.54365,3.6968
-399,526,2.16113,-4.46298,0,0,0,0,0,0,0,-1,825,498,2.16112,4.46298
-392,526,1.54791,-2.3815,0,0,0,0,0,0,0,-1,832,498,1.54792,2.38151
-385,526,1.06354,-2.54327,0,0,0,0,0,0,0,-1,839,498,1.06351,2.54327
-378,526,0.826233,-2.64139,0.00789553,0.000867135,0.000749213,0.0079745,0.000788158,0.105026,0.00507406,0.0463023,846,498,0.826245,2.64138
-371,526,1.00031,-2.98975,0.00905982,-0.00268749,0.000867764,0.00912357,-0.00275125,0.0733386,0.00717744,0.0357701,853,498,1.00028,2.98976
-364,526,1.07532,-3.12155,0.00957331,-0.00468447,0.000649462,0.00960283,-0.004714,0.045426,0.00842493,0.019055,860,498,1.07533,3.12154
-357,526,1.05035,-3.21286,0.00929878,-0.00404821,0.00052767,0.00931961,-0.00406904,0.0394526,0.0079256,0.0127196,867,498,1.05035,3.21285
-350,526,1.0719,-3.30997,0.00829987,-0.00325807,0.000280314,0.00830667,-0.00326487,0.0242339,0.00688897,0.0107369,874,498,1.07189,3.30996
-343,526,1.08844,-3.46362,0.00739244,-0.0026812,0.000209164,0.00739679,-0.00268554,0.0207515,0.00602915,0.0143461,881,498,1.08842,3.46362
-336,526,1.06512,-3.59338,0.00637111,-0.00179258,0.000100801,0.00637236,-0.00179382,0.0123449,0.00495561,0.014722,888,498,1.06511,3.59338
-329,526,1.04712,-3.69498,0.00427122,-0.000979328,0.000191189,0.00427817,-0.000986281,0.0363489,0.00323144,0.0148425,895,498,1.04715,3.69497
-322,526,1.05457,-3.78134,0.00235723,-0.000112334,0.000409678,0.00242342,-0.000178522,0.160176,0.00167829,0.0098678,902,498,1.05454,3.78135
-315,526,1.05609,-3.89929,0.000350279,0.000769916,0.000570052,0.00116754,-4.73422e-05,0.961738,0.000794609,0.00896486,909,498,1.05611,3.89928
-308,526,1.05579,-4.01813,-0.00102974,0.00140768,0.000569711,0.00153427,-0.00115633,1.35215,0.00155852,0.00854925,916,498,1.05581,4.01812
-301,526,1.04022,-4.1037,-0.00128786,0.00182919,0.00129424,0.00229652,-0.00175519,1.22429,0.0023462,0.00909103,923,498,1.04022,4.10369
-294,526,1.04138,-4.21011,-0.00144481,0.00200411,0.00248776,0.00330664,-0.00274734,1.08846,0.00350024,0.0088363,930,498,1.04138,4.21011
-287,526,1.03748,-4.31854,-0.00145442,0.00191507,0.00385874,0.00444082,-0.00398016,0.991228,0.00486428,0.00931408,937,498,1.03745,4.31856
-280,526,1.04303,-4.40976,-0.0012329,0.00133309,0.00612703,0.00631002,-0.00620982,0.888607,0.00722841,0.0116637,944,498,1.04305,4.40977
-273,526,1.05811,-4.517,-0.000529599,6.07592e-05,0.00888325,0.00865373,-0.00912257,0.802006,0.0102643,0.00985496,951,498,1.05813,4.51701
-266,526,1.06647,-4.61517,-0.000150111,-0.00174077,0.0119776,0.0110586,-0.0129494,0.752246,0.0138754,0.00902267,958,498,1.06645,4.61519
-259,526,1.09229,-4.69437,0.00175061,-0.00662188,0.0155081,0.0136276,-0.0184989,0.653571,0.0186192,0.0168068,965,498,1.09229,4.69437
-252,526,1.03668,-4.77231,0.00495943,-0.0132788,0.0196313,0.0174862,-0.0258056,0.567966,0.0251479,0.0320957,972,498,1.03667,4.77232
-245,526,1.23206,-4.88614,0.00889432,-0.0196044,0.0231064,0.0217918,-0.0325019,0.5091,0.0315491,0.0433721,979,498,1.23209,4.88615
-238,526,1.30939,-4.95306,0.013215,-0.0268809,0.0261399,0.0261097,-0.0397755,0.458268,0.0383106,0.0389066,986,498,1.30937,4.95305
-231,526,1.4137,-4.97021,0.0176278,-0.0347147,0.0291052,0.0305979,-0.0476848,0.419214,0.045554,0.0428915,993,498,1.41369,4.97021
-224,526,1.13428,-5.15219,0,0,0,0,0,0,0,-1,1000,498,1.13426,5.1522
-217,526,1.20526,-5.31491,0,0,0,0,0,0,0,-1,1007,498,1.20524,5.3149
-210,526,1.96112,-5.51242,0,0,0,0,0,0,0,-1,1014,498,1.9611,5.51241
-203,526,-3.19568,-0.754944,0,0,0,0,0,0,0,-1,1021,498,-3.1957,0.754952
-196,526,1.12598,-6.4252,0,0,0,0,0,0,0,-1,1028,498,1.12595,6.4252
-189,526,0.171143,-4.50684,0,0,0,0,0,0,0,-1,1035,498,0.171188,4.50685
-182,526,-0.524048,-4.49747,0,0,0,0,0,0,0,-1,1042,498,-0.524099,4.49747
-175,526,0.629883,-5.36285,0,0,0,0,0,0,0,-1,1049,498,0.629936,5.36286
-168,526,-0.0032959,-4.80466,0,0,0,0,0,0,0,-1,1056,498,-0.00332785,4.80466
-161,526,-1.58191,-4.05038,0,0,0,0,0,0,0,-1,1063,498,-1.58193,4.05037
-154,526,-2.42444,-3.63358,0,0,0,0,0,0,0,-1,1070,498,-2.42443,3.63357
-147,526,-2.93665,-3.34747,0,0,0,0,0,0,0,-1,1077,498,-2.93664,3.34748
-140,526,2.10486,-4.10367,0,0,0,0,0,0,0,-1,1084,498,2.1049,4.10368
-133,526,2.84351,-4.6127,0,0,0,0,0,0,0,-1,1091,498,2.84349,4.61269
-126,526,3.42529,-2.36053,0,0,0,0,0,0,0,-1,1098,498,3.42523,2.36052
-119,526,2.7771,-0.764099,0,0,0,0,0,0,0,-1,1105,498,2.7771,0.764107
-112,526,2.57715,-1.1893,0,0,0,0,0,0,0,-1,1112,498,2.57718,1.1893
-105,526,0,0,0,0,0,0,0,0,0,-1,1119,498,0,0
-98,526,0,0,0,0,0,0,0,0,0,-1,1126,498,0,0
-91,526,0,0,0,0,0,0,0,0,0,-1,1133,498,0,0
-84,526,0,0,0,0,0,0,0,0,0,-1,1140,498,0,0
-77,526,0,0,0,0,0,0,0,0,0,-1,1147,498,0,0
-70,526,0,0,0,0,0,0,0,0,0,-1,1154,498,0,0
-63,526,0,0,0,0,0,0,0,0,0,-1,1161,498,0,0
-56,526,0,0,0,0,0,0,0,0,0,-1,1168,498,0,0
-49,526,0,0,0,0,0,0,0,0,0,-1,1175,498,0,0
-42,526,0,0,0,0,0,0,0,0,0,-1,1182,498,0,0
-35,526,0,0,0,0,0,0,0,0,0,-1,1189,498,0,0
-28,526,0,0,0,0,0,0,0,0,0,-1,1196,498,0,0
-21,526,0,0,0,0,0,0,0,0,0,-1,1203,498,0,0
-14,526,0,0,0,0,0,0,0,0,0,-1,1210,498,0,0
-7,526,0,0,0,0,0,0,0,0,0,-1,1217,498,0,0
0,526,0,0,0,0,0,0,0,0,0,-1,1224,498,0,0
7,526,0,0,0,0,0,0,0,0,0,-1,1231,498,0,0
14,526,0,0,0,0,0,0,0,0,0,-1,1238,498,0,0
21,526,0,0,0,0,0,0,0,0,0,-1,1245,498,0,0
28,526,0,0,0,0,0,0,0,0,0,-1,1252,498,0,0
35,526,0,0,0,0,0,0,0,0,0,-1,1259,498,0,0
42,526,0,0,0,0,0,0,0,0,0,-1,1266,498,0,0
49,526,0,0,0,0,0,0,0,0,0,-1,1273,498,0,0
56,526,0,0,0,0,0,0,0,0,0,-1,1280,498,0,0
63,526,0,0,0,0,0,0,0,0,0,-1,1287,498,0,0
70,526,0,0,0,0,0,0,0,0,0,-1,1294,498,0,0
77,526,0,0,0,0,0,0,0,0,0,-1,1301,498,0,0
84,526,0,0,0,0,0,0,0,0,0,-1,1308,498,0,0
91,526,0,0,0,0,0,0,0,0,0,-1,1315,498,0,0
98,526,0,0,0,0,0,0,0,0,0,-1,1322,498,0,0
105,526,0,0,0,0,0,0,0,0,0,-1,1329,498,0,0
112,526,0,0,0,0,0,0,0,0,0,-1,1336,498,0,0
119,526,0,0,0,0,0,0,0,0,0,-1,1343,498,0,0
126,526,0,0,0,0,0,0,0,0,0,-1,1350,498,0,0
133,526,0,0,0,0,0,0,0,0,0,-1,1357,498,0,0
140,526,0,0,0,0,0,0,0,0,0,-1,1364,498,0,0
147,526,0,0,0,0,0,0,0,0,0,-1,1371,498,0,0
154,526,0,0,0,0,0,0,0,0,0,-1,1378,498,0,0
161,526,0,0,0,0,0,0,0,0,0,-1,1385,498,0,0
168,526,0,0,0,0,0,0,0,0,0,-1,1392,498,0,0
175,526,0,0,0,0,0,0,0,0,0,-1,1399,498,0,0
182,526,0,0,0,0,0,0,0,0,0,-1,1406,498,0,0
189,526,0,0,0,0,0,0,0,0,0,-1,1413,498,0,0
196,526,0,0,0,0,0,0,0,0,0,-1,1420,498,0,0
203,526,0,0,0,0,0,0,0,0,0,-1,1427,498,0,0
210,526,0,0,0,0,0,0,0,0,0,-1,1434,498,0,0
217,526,0,0,0,0,0,0,0,0,0,-1,1441,498,0,0
224,526,0,0,0,0,0,0,0,0,0,-1,1448,498,0,0
231,526,7.93237,-1.30618,0,0,0,0,0,0,0,-1,1455,498,7.93238,1.30618
238,526,7.97717,-1.08197,0,0,0,0,0,0,0,-1,1462,498,7.97723,1.08196
245,526,7.2793,-0.792938,0,0,0,0,0,0,0,-1,1469,498,7.27931,0.792926
252,526,6.73523,-2.23608,0,0,0,0,0,0,0,-1,1476,498,6.73525,2.23608
259,526,6.22949,-1.84967,0,0,0,0,0,0,0,-1,1483,498,6.22953,1.84968
266,526,5.72375,-1.46329,0,0,0,0,0,0,0,-1,1490,498,5.72381,1.46328
273,526,4.33984,0.49173,0,0,0,0,0,0,0,-1,1497,498,4.33979,-0.491727
280,526,1.4585,-1.59897,0,0,0,0,0,0,0,-1,1504,498,1.45846,1.59895
287,526,1.46411,-2.40134,0,0,0,0,0,0,0,-1,1511,498,1.46406,2.40133
294,526,5.57471,-4.59085,0,0,0,0,0,0,0,-1,1518,498,5.57466,4.59084
301,526,4.42786,-3.99677,0,0,0,0,0,0,0,-1,1525,498,4.42788,3.99676
308,526,5.79529,-4.19366,0,0,0,0,0,0,0,-1,1532,498,5.79528,4.19368
315,526,5.65125,-4.45856,0,0,0,0,0,0,0,-1,1539,498,5.65121,4.45857
322,526,5.50708,-4.72348,0,0,0,0,0,0,0,-1,1546,498,5.50713,4.72347
329,526,3.88672,-4.345,0,0,0,0,0,0,0,-1,1553,498,3.88674,4.34501
336,526,4.97876,-2.23828,0,0,0,0,0,0,0,-1,1560,498,4.97877,2.23828
343,526,3.31665,-2.69696,0,0,0,0,0,0,0,-1,1567,498,3.31667,2.69696
350,526,4.48718,-3.91855,0,0,0,0,0,0,0,-1,1574,498,4.48719,3.91856
357,526,3.87354,-4.54224,0,0,0,0,0,0,0,-1,1581,498,3.8735,4.54222
364,526,3.76477,-4.45251,-0.00929382,-0.00762749,-0.0123945,0.00396185,-0.0208832,-0.818958,0.0154134,0.0431702,1588,498,3.76477,4.45252
371,526,3.96204,-4.39191,-0.00872339,-0.00582915,-0.0112943,0.00411032,-0.0186629,-0.849115,0.0140144,0.0423883,1595,498,3.96199,4.39192
378,526,3.79089,-4.31424,-0.00794079,-0.0047903,-0.0105061,0.004258,-0.0169891,-0.859812,0.0129803,0.0466753,1602,498,3.79084,4.31424
385,526,3.71814,-4.27368,-0.00726507,-0.00385603,-0.00973584,0.00432338,-0.0154445,-0.872058,0.0119999,0.0358029,1609,498,3.71819,4.27367
392,526,3.69067,-4.04059,-0.00651489,-0.00330569,-0.00891241,0.00414541,-0.013966,-0.874465,0.0109571,0.020064,1616,498,3.69073,4.04059
399,526,3.63428,-3.93271,-0.00562304,-0.00288644,-0.00799006,0.00385164,-0.0123611,-0.870201,0.00978077,0.0129549,1623,498,3.63429,3.9327
406,526,3.69092,-3.80545,-0.0046095,-0.00238343,-0.00688216,0.00347512,-0.0104681,-0.865568,0.00838078,0.0115424,1630,498,3.69097,3.80546
413,526,3.6908,-3.66724,-0.00366369,-0.00186527,-0.00571735,0.00302315,-0.00855212,-0.863398,0.00693245,0.0125857,1637,498,3.69076,3.66724
420,526,3.6842,-3.53961,-0.0029211,-0.00150685,-0.00461118,0.00245111,-0.00687906,-0.861481,0.00558532,0.0128208,1644,498,3.68418,3.53962
427,526,3.69031,-3.43756,-0.00215391,-0.00115921,-0.00360909,0.00198664,-0.00529976,-0.853869,0.00434935,0.0136016,1651,498,3.69029,3.43756
434,526,3.66956,-3.3298,-0.00149167,-0.000765296,-0.0028119,0.00170677,-0.00396374,-0.849623,0.0033592,0.012649,1658,498,3.6696,3.3298
441,526,3.66675,-3.20966,-0.000919281,-6.89711e-05,-0.00168536,0.00124403,-0.00223228,-0.908952,0.0020339,0.0107434,1665,498,3.66675,3.20966
448,526,3.66614,-3.10397,-0.000384208,0.000750587,-0.000659618,0.00105327,-0.000686889,-1.14059,0.00101207,0.0095285,1672,498,3.66619,3.10398
455,526,3.64832,-3.00809,-0.000117207,0.00161423,3.60934e-05,0.00161499,-0.000117959,1.54996,0.00111805,0.0123613,1679,498,3.64833,3.00808
462,526,3.66235,-2.85928,0.000229998,0.00221649,-6.44091e-05,0.00221858,0.000227911,-1.53842,0.00140924,0.0104915,1686,498,3.66238,2.85929
469,526,3.67175,-2.73972,0.000647619,0.00244267,-0.000636918,0.00264569,0.000444591,-1.26221,0.00163586,0.0075267,1693,498,3.67175,2.73971
476,526,3.66772,-2.61832,0.000760915,0.00294999,-0.00120904,0.00348635,0.000224565,-1.15326,0.00225311,0.00881121,1700,498,3.66777,2.61831
483,526,3.67261,-2.46948,0.00107,0.00338107,-0.00209161,0.00461511,-0.00016405,-1.03776,0.00313286,0.00969679,1707,498,3.67256,2.4695
490,526,3.69543,-2.31058,0.00150122,0.00378832,-0.00322412,0.00606568,-0.000776146,-0.95582,0.00432578,0.0142014,1714,498,3.69544,2.31058
497,526,3.66199,-2.21594,0.00194238,0.00414804,-0.00458491,0.00776089,-0.00167047,-0.903424,0.00581134,0.0191733,1721,498,3.66199,2.21594
504,526,3.58435,-2.04663,0.00264858,0.0043851,-0.00628365,0.0098602,-0.00282652,-0.854052,0.00769076,0.0259389,1728,498,3.58435,2.04664
511,526,3.57092,-1.95721,0.00402904,0.00445213,-0.00790694,0.0121504,-0.00366919,-0.798772,0.00956094,0.0357458,1735,498,3.57086,1.95721
518,526,3.78088,-1.90472,0.0058635,0.00459788,-0.00935558,0.0146076,-0.00414627,-0.75163,0.0113753,0.0431842,1742,498,3.78084,1.90471
525,526,3.41663,-1.42041,0,0,0,0,0,0,0,-1,1749,498,3.41658,1.42041
532,526,3.54285,-2.81274,0,0,0,0,0,0,0,-1,1756,498,3.54284,2.81273
539,526,3.29407,0.932312,0,0,0,0,0,0,0,-1,1763,498,3.2941,-0.93232
546,526,3.36731,1.07721,0,0,0,0,0,0,0,-1,1770,498,3.36735,-1.07719
553,526,3.40796,1.37137,0,0,0,0,0,0,0,-1,1777,498,3.40792,-1.37138
560,526,0,0,0,0,0,0,0,0,0,-1,1784,498,0,0
567,526,0,0,0,0,0,0,0,0,0,-1,1791,498,0,0
574,526,0,0,0,0,0,0,0,0,0,-1,1798,498,0,0
581,526,0,0,0,0,0,0,0,0,0,-1,1805,498,0,0
588,526,0,0,0,0,0,0,0,0,0,-1,1812,498,0,0
595,526,0,0,0,0,0,0,0,0,0,-1,1819,498,0,0
602,526,0,0,0,0,0,0,0,0,0,-1,1826,498,0,0
609,526,0,0,0,0,0,0,0,0,0,-1,1833,498,0,0
616,526,0,0,0,0,0,0,0,0,0,-1,1840,498,0,0
623,526,0,0,0,0,0,0,0,0,0,-1,1847,498,0,0
630,526,0,0,0,0,0,0,0,0,0,-1,1854,498,0,0
637,526,0,0,0,0,0,0,0,0,0,-1,1861,498,0,0
644,526,0,0,0,0,0,0,0,0,0,-1,1868,498,0,0
651,526,0,0,0,0,0,0,0,0,0,-1,1875,498,0,0
658,526,0,0,0,0,0,0,0,0,0,-1,1882,498,0,0
665,526,0,0,0,0,0,0,0,0,0,-1,1889,498,0,0
672,526,0,0,0,0,0,0,0,0,0,-1,1896,498,0,0
679,526,0,0,0,0,0,0,0,0,0,-1,1903,498,0,0
686,526,0,0,0,0,0,0,0,0,0,-1,1910,498,0,0
693,526,0,0,0,0,0,0,0,0,0,-1,1917,498,0,0
700,526,0,0,0,0,0,0,0,0,0,-1,1924,498,0,0
707,526,0,0,0,0,0,0,0,0,0,-1,1931,498,0,0
714,526,0,0,0,0,0,0,0,0,0,-1,1938,498,0,0
721,526,0,0,0,0,0,0,0,0,0,-1,1945,498,0,0
728,526,0,0,0,0,0,0,0,0,0,-1,1952,498,0,0
735,526,0,0,0,0,0,0,0,0,0,-1,1959,498,0,0
742,526,0,0,0,0,0,0,0,0,0,-1,1966,498,0,0
749,526,0,0,0,0,0,0,0,0,0,-1,1973,498,0,0
756,526,0,0,0,0,0,0,0,0,0,-1,1980,498,0,0
763,526,0,0,0,0,0,0,0,0,0,-1,1987,498,0,0
770,526,0,0,0,0,0,0,0,0,0,-1,1994,498,0,0
777,526,0,0,0,0,0,0,0,0,0,-1,2001,498,0,0
784,526,0,0,0,0,0,0,0,0,0,-1,2008,498,0,0
791,526,0,0,0,0,0,0,0,0,0,-1,2015,498,0,0
798,526,0,0,0,0,0,0,0,0,0,-1,2022,498,0,0
805,526,0,0,0,0,0,0,0,0,0,-1,2029,498,0,0
812,526,0,0,0,0,0,0,0,0,0,-1,2036,498,0,0
-700,519,0,0,0,0,0,0,0,0,0,-1,524,505,0,0
-693,519,0,0,0,0,0,0,0,0,0,-1,531,505,0,0
-686,519,0,0,0,0,0,0,0,0,0,-1,538,505,0,0
-679,519,0,0,0,0,0,0,0,0,0,-1,545,505,0,0
-672,519,0,0,0,0,0,0,0,0,0,-1,552,505,0,0
-665,519,0,0,0,0,0,0,0,0,0,-1,559,505,0,0
-658,519,0,0,0,0,0,0,0,0,0,-1,566,505,0,0
-651,519,0,0,0,0,0,0,0,0,0,-1,573,505,0,0
-644,519,0,0,0,0,0,0,0,0,0,-1,580,505,0,0
-637,519,0,0,0,0,0,0,0,0,0,-1,587,505,0,0
-630,519,0,0,0,0,0,0,0,0,0,-1,594,505,0,0
-623,519,0,0,0,0,0,0,0,0,0,-1,601,505,0,0
-616,519,0,0,0,0,0,0,0,0,0,-1,608,505,0,0
-609,519,0,0,0,0,0,0,0,0,0,-1,615,505,0,0
-602,519,0,0,0,0,0,0,0,0,0,-1,622,505,0,0
-595,519,0,0,0,0,0,0,0,0,0,-1,629,505,0,0
-588,519,0,0,0,0,0,0,0,0,0,-1,636,505,0,0
-581,519,0,0,0,0,0,0,0,0,0,-1,643,505,0,0
-574,519,0,0,0,0,0,0,0,0,0,-1,650,505,0,0
-567,519,0,0,0,0,0,0,0,0,0,-1,657,505,0,0
-560,519,0,0,0,0,0,0,0,0,0,-1,664,505,0,0
-553,519,0,0,0,0,0,0,0,0,0,-1,671,505,0,0
-546,519,0,0,0,0,0,0,0,0,0,-1,678,505,0,0
-539,519,0,0,0,0,0,0,0,0,0,-1,685,505,0,0
-532,519,0,0,0,0,0,0,0,0,0,-1,692,505,0,0
-525,519,0,0,0,0,0,0,0,0,0,-1,699,505,0,0
-518,519,0,0,0,0,0,0,0,0,0,-1,706,505,0,0
-511,519,0,0,0,0,0,0,0,0,0,-1,713,505,0,0
-504,519,0,0,0,0,0,0,0,0,0,-1,720,505,0,0
-497,519,0,0,0,0,0,0,0,0,0,-1,727,505,0,0
-490,519,0,0,0,0,0,0,0,0,0,-1,734,505,0,0
-483,519,0,0,0,0,0,0,0,0,0,-1,741,505,0,0
-476,519,0,0,0,0,0,0,0,0,0,-1,748,505,0,0
-469,519,0,0,0,0,0,0,0,0,0,-1,755,505,0,0
-462,519,0,0,0,0,0,0,0,0,0,-1,762,505,0,0
-455,519,0,0,0,0,0,0,0,0,0,-1,769,505,0,0
-448,519,0,0,0,0,0,0,0,0,0,-1,776,505,0,0
-441,519,1.40027,1.14328,0,0,0,0,0,0,0,-1,783,505,1.40025,-1.14327
-434,519,1.67499,0.782196,0,0,0,0,0,0,0,-1,790,505,1.67502,-0.782203
-427,519,1.94757,-2.79691,0,0,0,0,0,0,0,-1,797,505,1.94755,2.79692
-420,519,1.69531,-2.62866,0.0080936,0.0651169,-0.00125319,0.0651444,0.00806607,-1.54883,0.0410062,0.0495121,804,505,1.69533,2.62867
-413,519,1.60187,-3.02911,0.00581902,0.0477076,-0.000729705,0.0477203,0.00580632,-1.55338,0.0300656,0.0423789,811,505,1.60185,3.02912
-406,519,1.51318,-2.63934,0,0,0,0,0,0,0,-1,818,505,1.5132,2.63935
-399,519,1.09912,-2.65161,0,0,0,0,0,0,0,-1,825,505,1.09909,2.6516
-392,519,1.20593,-2.57928,0.00411388,0.013738,-0.000188015,0.0137417,0.00411021,-1.55127,0.00814444,0.0498143,832,505,1.20594,2.5793
-385,519,0.965881,-2.63562,0.00466201,0.00711605,-0.000248332,0.00714092,0.00463714,-1.47095,0.00418369,0.0441998,839,505,0.965899,2.63563
-378,519,0.90625,-2.84497,0.00554583,0.00311141,-4.74805e-05,0.00554676,0.00311049,-0.019494,0.0032103,0.030472,846,505,0.906236,2.84497
-371,519,0.945557,-2.98373,0.00647424,-4.30022e-06,5.95953e-05,0.00647479,-4.84847e-06,0.00919784,0.00431814,0.0167849,853,505,0.945546,2.98372
-364,519,0.942444,-3.09726,0.0069403,-0.00185726,-0.000104328,0.00694153,-0.0018585,-0.0118565,0.00535578,0.0101149,860,505,0.942433,3.09726
-357,519,0.955872,-3.20941,0.00675525,-0.00149632,-0.00018028,0.00675918,-0.00150026,-0.0218341,0.00508059,0.00914349,867,505,0.955844,3.20941
-350,519,0.960083,-3.31491,0.00600113,-0.00101133,-0.000320037,0.00601571,-0.00102591,-0.0455121,0.00439256,0.0106698,874,505,0.960069,3.31492
-343,519,0.961487,-3.44855,0.00535106,-0.00070542,-0.000244299,0.0053609,-0.000715259,-0.0402496,0.00383465,0.0128185,881,505,0.961515,3.44854
-336,519,0.93988,-3.58542,0.00462005,-0.000120952,-0.000257268,0.00463397,-0.000134871,-0.0540528,0.00313524,0.0128924,888,505,0.939876,3.58543
-329,519,0.936829,-3.67783,0.00295676,0.000429464,-3.85596e-05,0.00295735,0.000428875,-0.0152525,0.0018453,0.0121339,895,505,0.936852,3.67783
-322,519,0.960815,-3.78094,0.00137819,0.00114531,0.000267918,0.00155388,0.000969625,0.580411,0.000906281,0.010147,902,505,0.960801,3.78095
-315,519,0.96991,-3.90356,-0.000195604,0.00181926,0.000513699,0.00194267,-0.000319015,1.33502,0.0014135,0.0083327,909,505,0.969907,3.90356
-308,519,0.962646,-4.01672,-0.00121926,0.00237827,0.000608194,0.00247831,-0.0013193,1.40777,0.00222633,0.00729254,916,505,0.962638,4.01671
-301,519,0.949646,-4.12457,-0.00156692,0.00279593,0.00174065,0.00340529,-0.00217627,1.23405,0.00324845,0.0110979,923,505,0.949618,4.12458
-294,519,0.948914,-4.21899,-0.00186921,0.00291839,0.00355523,0.00481061,-0.00376143,1.08169,0.00496141,0.0140591,930,505,0.948888,4.219
-287,519,0.921265,-4.34161,-0.00200113,0.0027541,0.00567845,0.0065326,-0.00577964,0.983663,0.0071129,0.0107141,937,505,0.921264,4.34162
-280,519,0.933289,-4.43982,-0.00180495,0.00189257,0.00922315,0.00945042,-0.00936281,0.884311,0.0108619,0.012871,944,505,0.933302,4.43981
-273,519,0.964233,-4.53992,-0.000975738,0.00013221,0.0134789,0.0130685,-0.013912,0.805936,0.0155797,0.0156867,951,505,0.964249,4.5399
-266,519,0.932312,-4.62674,-0.000687101,-0.00269362,0.01831,0.0166471,-0.0200278,0.758029,0.0212043,0.0231944,958,505,0.932304,4.62673
-259,519,0.931824,-4.65317,0.00154864,-0.00967004,0.0234238,0.0200253,-0.0281467,0.667875,0.0279436,0.042635,965,505,0.9318,4.65316
-252,519,0.884094,-4.82571,0,0,0,0,0,0,0,-1,972,505,0.884064,4.82572
-245,519,1.25812,-4.94113,0,0,0,0,0,0,0,-1,979,505,1.25809,4.94114
-238,519,1.39355,-4.93707,0,0,0,0,0,0,0,-1,986,505,1.39356,4.93706
-231,519,1.44696,-4.88983,0,0,0,0,0,0,0,-1,993,505,1.44694,4.88984
-224,519,-3.3476,-6.45172,0,0,0,0,0,0,0,-1,1000,505,-3.34762,6.45173
-217,519,-2.97125,-4.84393,0,0,0,0,0,0,0,-1,1007,505,-2.97128,4.84393
-210,519,-2.51935,-2.85233,0,0,0,0,0,0,0,-1,1014,505,-2.51935,2.85232
-203,519,-2.14856,-0.15921,0.0467163,-0.0829335,0.0433666,0.0598845,-0.0961017,0.294802,0.0908642,0.0481603,1021,505,-2.14854,0.159216
-196,519,-1.58679,1.63187,0.0524897,-0.0887077,0.0430134,0.064561,-0.100779,0.273602,0.0962195,0.0480906,1028,505,-1.58676,-1.63188
-189,519,-1.3269,3.31876,0,0,0,0,0,0,0,-1,1035,505,-1.32695,-3.31877
-182,519,-1.70154,-4.24353,0,0,0,0,0,0,0,-1,1042,505,-1.70159,4.24353
-175,519,-1.82239,-4.28406,0,0,0,0,0,0,0,-1,1049,505,-1.82239,4.28407
-168,519,-2.13049,-4.37662,0,0,0,0,0,0,0,-1,1056,505,-2.13047,4.37663
-161,519,-2.46082,-3.91635,0,0,0,0,0,0,0,-1,1063,505,-2.46079,3.91636
-154,519,-3.23315,-3.58005,0,0,0,0,0,0,0,-1,1070,505,-3.23313,3.58005
-147,519,1.20239,-3.77567,0,0,0,0,0,0,0,-1,1077,505,1.20242,3.77568
-140,519,2.0553,-3.98102,0,0,0,0,0,0,0,-1,1084,505,2.05531,3.98103
-133,519,2.70911,-4.4516,0,0,0,0,0,0,0,-1,1091,505,2.70915,4.45161
-126,519,0,0,0,0,0,0,0,0,0,-1,1098,505,0,0
-119,519,0,0,0,0,0,0,0,0,0,-1,1105,505,0,0
-112,519,0,0,0,0,0,0,0,0,0,-1,1112,505,0,0
-105,519,0,0,0,0,0,0,0,0,0,-1,1119,505,0,0
-98,519,0,0,0,0,0,0,0,0,0,-1,1126,505,0,0
-91,519,0,0,0,0,0,0,0,0,0,-1,1133,505,0,0
-84,519,0,0,0,0,0,0,0,0,0,-1,1140,505,0,0
-77,519,0,0,0,0,0,0,0,0,0,-1,1147,505,0,0
-70,519,0,0,0,0,0,0,0,0,0,-1,1154,505,0,0
-63,519,0,0,0,0,0,0,0,0,0,-1,1161,505,0,0
-56,519,0,0,0,0,0,0,0,0,0,-1,1168,505,0,0
-49,519,0,0,0,0,0,0,0,0,0,-1,1175,505,0,0
-42,519,0,0,0,0,0,0,0,0,0,-1,1182,505,0,0
-35,519,0,0,0,0,0,0,0,0,0,-1,1189,505,0,0
-28,519,0,0,0,0,0,0,0,0,0,-1,1196,505,0,0
-21,519,0,0,0,0,0,0,0,0,0,-1,1203,505,0,0
-14,519,0,0,0,0,0,0,0,0,0,-1,1210,505,0,0
-7,519,0,0,0,0,0,0,0,0,0,-1,1217,505,0,0
0,519,0,0,0,0,0,0,0,0,0,-1,1224,505,0,0
7,519,0,0,0,0,0,0,0,0,0,-1,1231,505,0,0
14,519,0,0,0,0,0,0,0,0,0,-1,1238,505,0,0
21,519,0,0,0,0,0,0,0,0,0,-1,1245,505,0,0
28,519,0,0,0,0,0,0,0,0,0,-1,1252,505,0,0
35,519,0,0,0,0,0,0,0,0,0,-1,1259,505,0,0
42,519,0,0,0,0,0,0,0,0,0,-1,1266,505,0,0
49,519,0,0,0,0,0,0,0,0,0,-1,1273,505,0,0
56,519,0,0,0,0,0,0,0,0,0,-1,1280,505,0,0
63,519,0,0,0,0,0,0,0,0,0,-1,1287,505,0,0
70,519,0,0,0,0,0,0,0,0,0,-1,1294,505,0,0
77,519,0,0,0,0,0,0,0,0,0,-1,1301,505,0,0
84,519,0,0,0,0,0,0,0,0,0,-1,1308,505,0,0
91,519,0,0,0,0,0,0,0,0,0,-1,1315,505,0,0
98,519,0,0,0,0,0,0,0,0,0,-1,1322,505,0,0
105,519,0,0,0,0,0,0,0,0,0,-1,1329,505,0,0
112,519,0,0,0,0,0,0,0,0,0,-1,1336,505,0,0
119,519,0,0,0,0,0,0,0,0,0,-1,1343,505,0,0
126,519,0,0,0,0,0,0,0,0,0,-1,1350,505,0,0
133,519,0,0,0,0,0,0,0,0,0,-1,1357,505,0,0
140,519,0,0,0,0,0,0,0,0,0,-1,1364,505,0,0
147,519,0,0,0,0,0,0,0,0,0,-1,1371,505,0,0
154,519,0,0,0,0,0,0,0,0,0,-1,1378,505,0,0
161,519,0,0,0,0,0,0,0,0,0,-1,1385,505,0,0
168,519,0,0,0,0,0,0,0,0,0,-1,1392,505,0,0
175,519,0,0,0,0,0,0,0,0,0,-1,1399,505,0,0
182,519,0,0,0,0,0,0,0,0,0,-1,1406,505,0,0
189,519,0,0,0,0,0,0,0,0,0,-1,1413,505,0,0
196,519,0,0,0,0,0,0,0,0,0,-1,1420,505,0,0
203,519,0,0,0,0,0,0,0,0,0,-1,1427,505,0,0
210,519,0,0,0,0,0,0,0,0,0,-1,1434,505,0,0
217,519,0,0,0,0,0,0,0,0,0,-1,1441,505,0,0
224,519,0,0,0,0,0,0,0,0,0,-1,1448,505,0,0
231,519,0,0,0,0,0,0,0,0,0,-1,1455,505,0,0
238,519,0,0,0,0,0,0,0,0,0,-1,1462,505,0,0
245,519,0,0,0,0,0,0,0,0,0,-1,1469,505,0,0
252,519,5.26208,0.0938416,0,0,0,0,0,0,0,-1,1476,505,5.26207,-0.0938493
259,519,6.14246,-1.36441,0,0,0,0,0,0,0,-1,1483,505,6.14241,1.36441
266,519,5.31909,-0.400787,0,0,0,0,0,0,0,-1,1490,505,5.31912,0.400773
273,519,4.02393,0.325531,0,0,0,0,0,0,0,-1,1497,505,4.0239,-0.325522
280,519,4.68848,0.53006,0,0,0,0,0,0,0,-1,1504,505,4.68842,-0.530073
287,519,7.9519,-3.80801,0,0,0,0,0,0,0,-1,1511,505,7.95193,3.808
294,519,6.92273,-3.38889,0,0,0,0,0,0,0,-1,1518,505,6.92268,3.38888
301,519,5.35669,-2.92661,0,0,0,0,0,0,0,-1,1525,505,5.35675,2.9266
308,519,7.37549,-5.64529,0,0,0,0,0,0,0,-1,1532,505,7.3755,5.64529
315,519,6.30029,-4.53754,0,0,0,0,0,0,0,-1,1539,505,6.30024,4.53753
322,519,5.84302,-5.45117,0,0,0,0,0,0,0,-1,1546,505,5.84303,5.45116
329,519,4.92407,0.62384,0,0,0,0,0,0,0,-1,1553,505,4.92403,-0.623832
336,519,3.10095,-0.329285,0,0,0,0,0,0,0,-1,1560,505,3.1009,0.329283
343,519,2.49146,-2.31119,0,0,0,0,0,0,0,-1,1567,505,2.49145,2.31119
350,519,3.47729,-2.22516,0,0,0,0,0,0,0,-1,1574,505,3.47726,2.22515
357,519,3.80127,-4.91214,0,0,0,0,0,0,0,-1,1581,505,3.80128,4.91215
364,519,4.22583,-4.92355,0,0,0,0,0,0,0,-1,1588,505,4.22581,4.92355
371,519,4.1626,-4.65704,-0.00466483,-0.00724734,-0.0123435,0.00645473,-0.0183669,-0.733283,0.0148707,0.043712,1595,505,4.16263,4.65703
378,519,4.08582,-4.49478,-0.00428381,-0.0062414,-0.0119229,0.00670042,-0.0172256,-0.744443,0.0142523,0.0420988,1602,505,4.08577,4.49478
385,519,4.04285,-4.21866,-0.00409083,-0.00530453,-0.0114494,0.00676774,-0.0161631,-0.758921,0.0136045,0.0418326,1609,505,4.0428,4.21865
392,519,3.92981,-3.94818,-0.00387719,-0.00475696,-0.0108299,0.00652179,-0.0151559,-0.765101,0.0128423,0.0339417,1616,505,3.92976,3.94818
399,519,3.80396,-3.8826,-0.00354509,-0.00429141,-0.00997675,0.00606548,-0.013902,-0.766705,0.0118205,0.0237889,1623,505,3.80396,3.88261
406,519,3.82751,-3.81097,-0.00306452,-0.00368872,-0.00882301,0.0054519,-0.0122052,-0.767719,0.0104399,0.016639,1630,505,3.82748,3.81098
413,519,3.81445,-3.67972,-0.00252864,-0.00303173,-0.00746207,0.00468613,-0.0102465,-0.76855,0.00881833,0.0134981,1637,505,3.81451,3.67971
420,519,3.7876,-3.54291,-0.00216524,-0.00249333,-0.00613142,0.00380433,-0.0084629,-0.772024,0.00725072,0.0151696,1644,505,3.78765,3.5429
427,519,3.80493,-3.45123,-0.001693,-0.00201475,-0.00492791,0.00307666,-0.00678441,-0.769081,0.00582589,0.0137529,1651,505,3.80498,3.45125
434,519,3.80139,-3.3476,-0.00120312,-0.00152673,-0.00399833,0.00263668,-0.00536653,-0.765176,0.0047094,0.0127861,1658,505,3.80144,3.34758
441,519,3.78662,-3.21777,-0.000776459,-0.000757614,-0.00261236,0.00184534,-0.00337942,-0.787202,0.00305955,0.0117104,1665,505,3.78658,3.21777
448,519,3.78699,-3.10284,-0.000621554,7.83351e-05,-0.00133568,0.00110915,-0.00165237,-0.913517,0.00160461,0.00894902,1672,505,3.78696,3.10284
455,519,3.76709,-3.00391,-0.000173562,0.00094846,-0.000264537,0.0010077,-0.000232803,-1.35049,0.00076136,0.0101297,1679,505,3.76709,3.0039
462,519,3.77747,-2.88315,0.000293404,0.0015027,-0.000160756,0.0015237,0.000272399,-1.44087,0.000938277,0.0103494,1686,505,3.77741,2.88315
469,519,3.79529,-2.74442,0.000678565,0.00164198,-0.000519972,0.00186908,0.000451461,-1.15901,0.00112615,0.0102684,1693,505,3.7953,2.74441
476,519,3.7948,-2.61874,0.000773545,0.00199793,-0.000902187,0.00247602,0.000295451,-1.08349,0.00156154,0.0118738,1700,505,3.79483,2.61876
483,519,3.79321,-2.48633,0.00103709,0.00228828,-0.00151921,0.00330566,1.97112e-05,-0.980712,0.00219723,0.0131916,1707,505,3.79321,2.48633
490,519,3.79333,-2.31311,0.00142197,0.0025558,-0.0023109,0.00436831,-0.00039054,-0.905683,0.00305073,0.0116087,1714,505,3.7933,2.31311
497,519,3.78137,-2.1998,0.0017892,0.00278513,-0.00323254,0.00555783,-0.000983506,-0.861822,0.00407284,0.0119667,1721,505,3.78132,2.19979
504,519,3.77014,-2.07199,0.00238226,0.00296064,-0.00437067,0.00705168,-0.00170877,-0.818433,0.00536225,0.0120178,1728,505,3.77012,2.07199
511,519,3.81506,-1.935,0.00362642,0.00302414,-0.00528078,0.00861464,-0.00196408,-0.756916,0.00649751,0.0171993,1735,505,3.81512,1.935
518,519,3.78723,-1.83679,0.00533902,0.00322488,-0.00590338,0.0102792,-0.00171533,-0.696806,0.00749035,0.0356621,1742,505,3.78727,1.83679
525,519,3.64575,-1.49387,0.00767508,0.00363291,-0.00613081,0.0121093,-0.000801356,-0.626178,0.00835284,0.0489279,1749,505,3.64581,1.49386
532,519,3.63757,-1.13638,0,0,0,0,0,0,0,-1,1756,505,3.63755,1.13639
539,519,3.30005,0.0229797,0,0,0,0,0,0,0,-1,1763,505,3.30008,-0.0229869
546,519,4.21216,-0.197266,0,0,0,0,0,0,0,-1,1770,505,4.21214,0.197268
553,519,3.36548,-0.839966,0,0,0,0,0,0,0,-1,1777,505,3.36546,0.839973
560,519,3.71423,-1.26025,0,0,0,0,0,0,0,-1,1784,505,3.71427,1.26026
567,519,0,0,0,0,0,0,0,0,0,-1,1791,505,0,0
574,519,0,0,0,0,0,0,0,0,0,-1,1798,505,0,0
581,519,0,0,0,0,0,0,0,0,0,-1,1805,505,0,0
588,519,0,0,0,0,0,0,0,0,0,-1,1812,505,0,0
595,519,0,0,0,0,0,0,0,0,0,-1,1819,505,0,0
602,519,0,0,0,0,0,0,0,0,0,-1,1826,505,0,0
609,519,0,0,0,0,0,0,0,0,0,-1,1833,505,0,0
616,519,0,0,0,0,0,0,0,0,0,-1,1840,505,0,0
623,519,0,0,0,0,0,0,0,0,0,-1,1847,505,0,0
630,519,0,0,0,0,0,0,0,0,0,-1,1854,505,0,0
637,519,0,0,0,0,0,0,0,0,0,-1,1861,505,0,0
644,519,0,0,0,0,0,0,0,0,0,-1,1868,505,0,0
651,519,0,0,0,0,0,0,0,0,0,-1,1875,505,0,0
658,519,0,0,0,0,0,0,0,0,0,-1,1882,505,0,0
665,519,0,0,0,0,0,0,0,0,0,-1,1889,505,0,0
672,519,0,0,0,0,0,0,0,0,0,-1,1896,505,0,0
679,519,0,0,0,0,0,0,0,0,0,-1,1903,505,0,0
686,519,0,0,0,0,0,0,0,0,0,-1,1910,505,0,0
693,519,0,0,0,0,0,0,0,0,0,-1,1917,505,0,0
700,519,0,0,0,0,0,0,0,0,0,-1,1924,505,0,0
707,519,0,0,0,0,0,0,0,0,0,-1,1931,505,0,0
714,519,0,0,0,0,0,0,0,0,0,-1,1938,505,0,0
721,519,0,0,0,0,0,0,0,0,0,-1,1945,505,0,0
728,519,0,0,0,0,0,0,0,0,0,-1,1952,505,0,0
735,519,0,0,0,0,0,0,0,0,0,-1,1959,505,0,0
742,519,0,0,0,0,0,0,0,0,0,-1,1966,505,0,0
749,519,0,0,0,0,0,0,0,0,0,-1,1973,505,0,0
756,519,0,0,0,0,0,0,0,0,0,-1,1980,505,0,0
763,519,0,0,0,0,0,0,0,0,0,-1,1987,505,0,0
770,519,0,0,0,0,0,0,0,0,0,-1,1994,505,0,0
777,519,0,0,0,0,0,0,0,0,0,-1,2001,505,0,0
784,519,0,0,0,0,0,0,0,0,0,-1,2008,505,0,0
791,519,0,0,0,0,0,0,0,0,0,-1,2015,505,0,0
798,519,0,0,0,0,0,0,0,0,0,-1,2022,505,0,0
805,519,0,0,0,0,0,0,0,0,0,-1,2029,505,0,0
812,519,0,0,0,0,0,0,0,0,0,-1,2036,505,0,0
-700,512,0,0,0,0,0,0,0,0,0,-1,524,512,0,0
-693,512,0,0,0,0,0,0,0,0,0,-1,531,512,0,0
-686,512,0,0,0,0,0,0,0,0,0,-1,538,512,0,0
-679,512,0,0,0,0,0,0,0,0,0,-1,545,512,0,0
-672,512,0,0,0,0,0,0,0,0,0,-1,552,512,0,0
-665,512,0,0,0,0,0,0,0,0,0,-1,559,512,0,0
-658,512,0,0,0,0,0,0,0,0,0,-1,566,512,0,0
-651,512,0,0,0,0,0,0,0,0,0,-1,573,512,0,0
-644,512,0,0,0,0,0,0,0,0,0,-1,580,512,0,0
-637,512,0,0,0,0,0,0,0,0,0,-1,587,512,0,0
-630,512,0,0,0,0,0,0,0,0,0,-1,594,512,0,0
-623,512,0,0,0,0,0,0,0,0,0,-1,601,512,0,0
-616,512,0,0,0,0,0,0,0,0,0,-1,608,512,0,0
-609,512,0,0,0,0,0,0,0,0,0,-1,615,512,0,0
-602,512,0,0,0,0,0,0,0,0,0,-1,622,512,0,0
-595,512,0,0,0,0,0,0,0,0,0,-1,629,512,0,0
-588,512,0,0,0,0,0,0,0,0,0,-1,636,512,0,0
-581,512,0,0,0,0,0,0,0,0,0,-1,643,512,0,0
-574,512,0,0,0,0,0,0,0,0,0,-1,650,512,0,0
-567,512,0,0,0,0,0,0,0,0,0,-1,657,512,0,0
-560,512,0,0,0,0,0,0,0,0,0,-1,664,512,0,0
-553,512,0,0,0,0,0,0,0,0,0,-1,671,512,0,0
-546,512,0,0,0,0,0,0,0,0,0,-1,678,512,0,0
-539,512,0,0,0,0,0,0,0,0,0,-1,685,512,0,0
-532,512,0,0,0,0,0,0,0,0,0,-1,692,512,0,0
-525,512,0,0,0,0,0,0,0,0,0,-1,699,512,0,0
-518,512,0,0,0,0,0,0,0,0,0,-1,706,512,0,0
-511,512,0,0,0,0,0,0,0,0,0,-1,713,512,0,0
-504,512,0,0,0,0,0,0,0,0,0,-1,720,512,0,0
-497,512,0,0,0,0,0,0,0,0,0,-1,727,512,0,0
-490,512,0,0,0,0,0,0,0,0,0,-1,734,512,0,0
-483,512,0,0,0,0,0,0,0,0,0,-1,741,512,0,0
-476,512,0,0,0,0,0,0,0,0,0,-1,748,512,0,0
-469,512,0,0,0,0,0,0,0,0,0,-1,755,512,0,0
-462,512,0,0,0,0,0,0,0,0,0,-1,762,512,0,0
-455,512,0,0,0,0,0,0,0,0,0,-1,769,512,0,0
-448,512,0.469788,0.664246,0,0,0,0,0,0,0,-1,776,512,0.469775,-0.664239
-441,512,0.813171,0.466125,0.0336661,0.129586,-0.00075327,0.129592,0.0336602,-1.56294,0.0776458,0.0478785,783,512,0.81315,-0.466123
-434,512,1.10339,0.155701,0.0227702,0.101141,-0.00165486,0.101176,0.0227353,-1.54969,0.0612942,0.0481327,790,512,1.10337,-0.155694
-427,512,1.59198,-3.1994,0,0,0,0,0,0,0,-1,797,512,1.59199,3.19942
-420,512,1.35785,-3.01837,0.0086675,0.0588037,-0.0014425,0.0588452,0.00862603,-1.54206,0.0366943,0.0490236,804,512,1.35784,3.01834
-413,512,1.25055,-2.98413,0.00596842,0.0433929,-0.00104686,0.0434221,0.00593916,-1.54285,0.0271855,0.0462436,811,512,1.25057,2.98413
-406,512,1.06866,-2.65472,0.0039777,0.0312192,-0.000763925,0.0312406,0.0039563,-1.54278,0.0196416,0.0461951,818,512,1.06867,2.65472
-399,512,0.918701,-2.65717,0.00314985,0.0216867,-0.000588498,0.0217054,0.00313118,-1.53909,0.0135477,0.0448156,825,512,0.9187,2.65715
-392,512,0.909851,-2.68872,0.00290233,0.0137652,-0.000725802,0.0138134,0.00285405,-1.50437,0.00842041,0.0342282,832,512,0.909825,2.68874
-385,512,0.872253,-2.73004,0.00298163,0.00790534,-0.000786086,0.00802779,0.00285917,-1.41626,0.00469834,0.0176112,839,512,0.872275,2.73002
-378,512,0.841309,-2.84149,0.00344714,0.00439397,-0.000538364,0.00463746,0.00320365,-1.14604,0.00274166,0.0138442,846,512,0.841336,2.84151
-371,512,0.84375,-2.96979,0.00409527,0.00175895,-0.000441222,0.00417582,0.0016784,-0.180571,0.00242632,0.0110481,853,512,0.843749,2.96981
-364,512,0.843811,-3.10193,0.00447261,0.000114151,-0.000573979,0.00454693,3.98294e-05,-0.128769,0.0030181,0.00878044,860,512,0.843805,3.10191
-357,512,0.854919,-3.22192,0.00434687,0.00024886,-0.00063131,0.00444193,0.000153809,-0.149438,0.00291137,0.0094873,867,512,0.854943,3.22191
-350,512,0.856079,-3.34875,0.00378625,0.000486571,-0.00069857,0.00392805,0.000344772,-0.200265,0.00251168,0.0101652,874,512,0.856104,3.34878
-343,512,0.846741,-3.47186,0.00334461,0.000574733,-0.000524779,0.0034407,0.000478642,-0.181101,0.00215207,0.010457,881,512,0.846736,3.47186
-336,512,0.819702,-3.58496,0.00287947,0.000928705,-0.000484412,0.00299313,0.000815039,-0.230477,0.00178682,0.010388,888,512,0.819726,3.58496
-329,512,0.827881,-3.68793,0.00163078,0.00128642,-0.000191326,0.00171599,0.0012012,-0.419009,0.00101681,0.0116374,895,512,0.827852,3.68793
-322,512,0.847534,-3.79791,0.000384758,0.00194247,0.000151462,0.00195706,0.000370168,1.47476,0.0012005,0.0098469,902,512,0.847536,3.79791
-315,512,0.859314,-3.91296,-0.000744355,0.00252008,0.000434955,0.00257704,-0.000801315,1.44058,0.00203833,0.00942213,909,512,0.859295,3.91296
-308,512,0.850037,-4.03168,-0.00139238,0.0031409,0.000595244,0.00321776,-0.00146923,1.44239,0.00276809,0.00996912,916,512,0.850041,4.03166
-301,512,0.83252,-4.14142,-0.00181922,0.0036986,0.0022229,0.00448269,-0.00260332,1.23169,0.00413879,0.0133056,923,512,0.83253,4.14143
-294,512,0.838501,-4.23108,-0.00230245,0.00386748,0.00487682,0.00655316,-0.00498814,1.06741,0.00668376,0.0133076,930,512,0.838521,4.23106
-287,512,0.796143,-4.31573,-0.00258964,0.00365296,0.00808027,0.00919383,-0.00813051,0.969713,0.0100085,0.0164727,937,512,0.796154,4.31574
-280,512,0.832642,-4.45734,-0.00244837,0.00245892,0.0134075,0.0136355,-0.0136249,0.875899,0.0157388,0.0190543,944,512,0.832619,4.45734
-273,512,0.912476,-4.45264,-0.00159779,0.000151828,0.0196998,0.0189963,-0.0204422,0.807587,0.0227749,0.033889,951,512,0.912482,4.45264
-266,512,0.839355,-4.53662,-0.00152239,-0.00397246,0.0267321,0.0240127,-0.0295076,0.762501,0.0309542,0.0403521,958,512,0.839349,4.5366
-259,512,0.695679,-4.73907,0,0,0,0,0,0,0,-1,965,512,0.695708,4.73908
-252,512,1.45941,-3.43475,0,0,0,0,0,0,0,-1,972,512,1.45938,3.43475
-245,512,1.14343,-2.39392,0,0,0,0,0,0,0,-1,979,512,1.14341,2.39392
-238,512,1.57782,-4.67755,0,0,0,0,0,0,0,-1,986,512,1.57781,4.67757
-231,512,-3.21411,-7.18036,0,0,0,0,0,0,0,-1,993,512,-3.2141,7.18033
-224,512,-2.8385,-5.25262,0.028716,-0.0719228,0.057107,0.05451,-0.0977168,0.424249,0.0890604,0.0495032,1000,512,-2.83849,5.25261
-217,512,-2.24524,-3.48364,0,0,0,0,0,0,0,-1,1007,512,-2.24526,3.48362
-210,512,-1.76733,-1.47504,0.0455374,-0.0958802,0.0560711,0.0650711,-0.115414,0.335225,0.105546,0.0493451,1014,512,-1.76735,1.47505
-203,512,-1.27289,0.595764,0.0538354,-0.105243,0.0542042,0.0705489,-0.121956,0.299093,0.112456,0.0475601,1021,512,-1.27288,-0.595779
-196,512,-0.478271,2.47769,0.0613268,-0.112956,0.0529852,0.0761709,-0.1278,0.273154,0.119014,0.0461657,1028,512,-0.478323,-2.47768
-189,512,0.197998,4.55505,0.0677091,-0.118253,0.0523654,0.0814408,-0.131984,0.256455,0.124368,0.0475657,1035,512,0.197996,-4.55506
-182,512,1.15027,6.7789,0,0,0,0,0,0,0,-1,1042,512,1.15032,-6.77889
-175,512,-2.89197,-3.85327,0,0,0,0,0,0,0,-1,1049,512,-2.89195,3.85329
-168,512,-2.9574,-4.02063,0,0,0,0,0,0,0,-1,1056,512,-2.95742,4.02066
-161,512,-3.34949,-4.5943,0,0,0,0,0,0,0,-1,1063,512,-3.34955,4.59432
-154,512,-4.01465,-3.73798,0,0,0,0,0,0,0,-1,1070,512,-4.01461,3.738
-147,512,0,0,0,0,0,0,0,0,0,-1,1077,512,0,0
-140,512,0,0,0,0,0,0,0,0,0,-1,1084,512,0,0
-133,512,0,0,0,0,0,0,0,0,0,-1,1091,512,0,0
-126,512,0,0,0,0,0,0,0,0,0,-1,1098,512,0,0
-119,512,0,0,0,0,0,0,0,0,0,-1,1105,512,0,0
-112,512,0,0,0,0,0,0,0,0,0,-1,1112,512,0,0
-105,512,0,0,0,0,0,0,0,0,0,-1,1119,512,0,0
-98,512,0,0,0,0,0,0,0,0,0,-1,1126,512,0,0
-91,512,0,0,0,0,0,0,0,0,0,-1,1133,512,0,0
-84,512,0,0,0,0,0,0,0,0,0,-1,1140,512,0,0
-77,512,0,0,0,0,0,0,0,0,0,-1,1147,512,0,0
-70,512,0,0,0,0,0,0,0,0,0,-1,1154,512,0,0
-63,512,0,0,0,0,0,0,0,0,0,-1,1161,512,0,0
-56,512,0,0,0,0,0,0,0,0,0,-1,1168,512,0,0
-49,512,0,0,0,0,0,0,0,0,0,-1,1175,512,0,0
-42,512,0,0,0,0,0,0,0,0,0,-1,1182,512,0,0
-35,512,0,0,0,0,0,0,0,0,0,-1,1189,512,0,0
-28,512,0,0,0,0,0,0,0,0,0,-1,1196,512,0,0
-21,512,0,0,0,0,0,0,0,0,0,-1,1203,512,0,0
-14,512,0,0,0,0,0,0,0,0,0,-1,1210,512,0,0
-7,512,0,0,0,0,0,0,0,0,0,-1,1217,512,0,0
0,512,0,0,0,0,0,0,0,0,0,-1,1224,512,0,0
7,512,0,0,0,0,0,0,0,0,0,-1,1231,512,0,0
14,512,0,0,0,0,0,0,0,0,0,-1,1238,512,0,0
21,512,0,0,0,0,0,0,0,0,0,-1,1245,512,0,0
28,512,0,0,0,0,0,0,0,0,0,-1,1252,512,0,0
35,512,0,0,0,0,0,0,0,0,0,-1,1259,512,0,0
42,512,0,0,0,0,0,0,0,0,0,-1,1266,512,0,0
49,512,0,0,0,0,0,0,0,0,0,-1,1273,512,0,0
56,512,0,0,0,0,0,0,0,0,0,-1,1280,512,0,0
63,512,0,0,0,0,0,0,0,0,0,-1,1287,512,0,0
70,512,0,0,0,0,0,0,0,0,0,-1,1294,512,0,0
77,512,0,0,0,0,0,0,0,0,0,-1,1301,512,0,0
84,512,0,0,0,0,0,0,0,0,0,-1,1308,512,0,0
91,512,0,0,0,0,0,0,0,0,0,-1,1315,512,0,0
98,512,0,0,0,0,0,0,0,0,0,-1,1322,512,0,0
105,512,0,0,0,0,0,0,0,0,0,-1,1329,512,0,0
112,512,0,0,0,0,0,0,0,0,0,-1,1336,512,0,0
119,512,0,0,0,0,0,0,0,0,0,-1,1343,512,0,0
126,512,0,0,0,0,0,0,0,0,0,-1,1350,512,0,0
133,512,0,0,0,0,0,0,0,0,0,-1,1357,512,0,0
140,512,0,0,0,0,0,0,0,0,0,-1,1364,512,0,0
147,512,0,0,0,0,0,0,0,0,0,-1,1371,512,0,0
154,512,0,0,0,0,0,0,0,0,0,-1,1378,512,0,0
161,512,0,0,0,0,0,0,0,0,0,-1,1385,512,0,0
168,512,0,0,0,0,0,0,0,0,0,-1,1392,512,0,0
175,512,0,0,0,0,0,0,0,0,0,-1,1399,512,0,0
182,512,0,0,0,0,0,0,0,0,0,-1,1406,512,0,0
189,512,0,0,0,0,0,0,0,0,0,-1,1413,512,0,0
196,512,0,0,0,0,0,0,0,0,0,-1,1420,512,0,0
203,512,0,0,0,0,0,0,0,0,0,-1,1427,512,0,0
210,512,0,0,0,0,0,0,0,0,0,-1,1434,512,0,0
217,512,0,0,0,0,0,0,0,0,0,-1,1441,512,0,0
224,512,0,0,0,0,0,0,0,0,0,-1,1448,512,0,0
231,512,0,0,0,0,0,0,0,0,0,-1,1455,512,0,0
238,512,0,0,0,0,0,0,0,0,0,-1,1462,512,0,0
245,512,0,0,0,0,0,0,0,0,0,-1,1469,512,0,0
252,512,0,0,0,0,0,0,0,0,0,-1,1476,512,0,0
259,512,0,0,0,0,0,0,0,0,0,-1,1483,512,0,0
266,512,0,0,0,0,0,0,0,0,0,-1,1490,512,0,0
273,512,4.00745,0.618622,0,0,0,0,0,0,0,-1,1497,512,4.00747,-0.618611
280,512,4.49609,0.649841,0,0,0,0,0,0,0,-1,1504,512,4.49612,-0.649834
287,512,4.77234,0.458069,0,0,0,0,0,0,0,-1,1511,512,4.77233,-0.458083
294,512,8.54956,-2.36273,0,0,0,0,0,0,0,-1,1518,512,8.54952,2.36274
301,512,6.302,-1.69092,0,0,0,0,0,0,0,-1,1525,512,6.30196,1.69093
308,512,8.2439,-6.22754,0,0,0,0,0,0,0,-1,1532,512,8.24394,6.22757
315,512,7.53687,-6.04211,0,0,0,0,0,0,0,-1,1539,512,7.53691,6.04211
322,512,6.82983,-5.85663,0,0,0,0,0,0,0,-1,1546,512,6.82988,5.85666
329,512,4.38147,-0.329651,0,0,0,0,0,0,0,-1,1553,512,4.38144,0.329662
336,512,4.41467,-0.741455,0,0,0,0,0,0,0,-1,1560,512,4.41467,0.741442
343,512,4.44727,-1.21667,0,0,0,0,0,0,0,-1,1567,512,4.44732,1.21666
350,512,4.55469,-1.65082,0,0,0,0,0,0,0,-1,1574,512,4.5547,1.65083
357,512,5.79993,-2.67456,0,0,0,0,0,0,0,-1,1581,512,5.79991,2.67454
364,512,3.99316,-5.00116,0,0,0,0,0,0,0,-1,1588,512,3.99313,5.00117
371,512,3.93652,-4.66779,0.016084,-0.00857922,-0.00637392,0.0176339,-0.0101291,-0.238529,0.016223,0.0479229,1595,512,3.93657,4.66781
378,512,3.79004,-4.60071,0.0138252,-0.00771443,-0.00742653,0.0161375,-0.0100268,-0.301846,0.0152427,0.0424891,1602,512,3.78999,4.60071
385,512,4.0072,-4.15027,0,0,0,0,0,0,0,-1,1609,512,4.00714,4.15025
392,512,4.1272,-3.9035,0.00913853,-0.00645842,-0.00884611,0.0131328,-0.0104527,-0.424128,0.0136464,0.0467836,1616,512,4.12717,3.90349
399,512,4.12378,-3.71521,0.00697617,-0.00595808,-0.00893267,0.011537,-0.0105189,-0.472077,0.0127385,0.040972,1623,512,4.12384,3.7152
406,512,3.97827,-3.78149,0.00503501,-0.00522177,-0.00852052,0.00985145,-0.0100382,-0.514495,0.0114835,0.0282412,1630,512,3.97827,3.78152
413,512,3.90271,-3.70801,0.00341281,-0.0043874,-0.00765235,0.00810161,-0.0090762,-0.549725,0.00992293,0.0239247,1637,512,3.90266,3.708
420,512,3.92493,-3.57367,0.001977,-0.00359875,-0.00662461,0.00637645,-0.0079982,-0.586229,0.00831679,0.0173196,1644,512,3.92488,3.57366
427,512,3.92395,-3.46423,0.00103945,-0.00290842,-0.00559313,0.00499675,-0.00686572,-0.615761,0.00687707,0.0143485,1651,512,3.92397,3.46423
434,512,3.91199,-3.34631,0.000507892,-0.0022332,-0.00480325,0.0041323,-0.00585761,-0.646423,0.00579628,0.0111789,1658,512,3.91197,3.34634
441,512,3.90369,-3.22626,-0.000248371,-0.0013256,-0.00354294,0.00279666,-0.00437063,-0.709963,0.00417116,0.0129788,1665,512,3.90364,3.22627
448,512,3.88879,-3.10913,-0.000997853,-0.000398978,-0.00216319,0.0014854,-0.00288223,-0.854173,0.00256428,0.00927294,1672,512,3.88878,3.1091
455,512,3.89124,-2.98706,-0.000350153,0.00051143,-0.000649746,0.000860222,-0.000698946,-1.07813,0.00090179,0.00879963,1679,512,3.89128,2.98704
462,512,3.89038,-2.8667,0.000247433,0.00103624,-0.000330463,0.00115638,0.000127288,-1.22209,0.00073219,0.00955573,1686,512,3.89038,2.86669
469,512,3.89758,-2.73657,0.000606991,0.00109949,-0.000481017,0.00139363,0.000312856,-1.02197,0.000844346,0.0110274,1693,512,3.89759,2.73656
476,512,3.91333,-2.62573,0.000699656,0.0013103,-0.000692734,0.00176201,0.000247944,-0.992966,0.00110137,0.0139812,1700,512,3.91337,2.62573
483,512,3.91162,-2.49097,0.000923141,0.00146905,-0.00107434,0.00230457,8.76227e-05,-0.9098,0.00150802,0.0123284,1707,512,3.91168,2.49096
490,512,3.8988,-2.32098,0.00126199,0.00158121,-0.00158337,0.00301299,-0.000169794,-0.835632,0.00206759,0.00991216,1714,512,3.89882,2.32097
497,512,3.89465,-2.18823,0.00156316,0.00167701,-0.00215909,0.00377992,-0.000539752,-0.798578,0.00271779,0.0111434,1721,512,3.89471,2.18821
504,512,3.89063,-2.05334,0.00206857,0.00177382,-0.00286207,0.00478705,-0.000944671,-0.759675,0.00354843,0.0122767,1728,512,3.89061,2.05332
511,512,3.90784,-1.91327,0.00318131,0.00180936,-0.00324179,0.00580891,-0.000818244,-0.681135,0.00417219,0.0127649,1735,512,3.90779,1.9133
518,512,3.97009,-1.80048,0.00466397,0.00199911,-0.00332086,0.00690974,-0.000246661,-0.594615,0.00469088,0.0165088,1742,512,3.97013,1.80047
525,512,3.83264,-1.57172,0.00672814,0.00252345,-0.00294848,0.00824704,0.00100455,-0.47569,0.00519565,0.0400519,1749,512,3.83263,1.57169
532,512,3.96008,-1.44543,0,0,0,0,0,0,0,-1,1756,512,3.96006,1.44544
539,512,3.89502,-1.40332,0,0,0,0,0,0,0,-1,1763,512,3.895,1.4033
546,512,3.34851,-1.21423,0,0,0,0,0,0,0,-1,1770,512,3.34855,1.21424
553,512,3.62793,-1.00995,0,0,0,0,0,0,0,-1,1777,512,3.62795,1.00996
560,512,3.95203,-1.02271,0,0,0,0,0,0,0,-1,1784,512,3.95197,1.02271
567,512,4.22449,-1.21307,0,0,0,0,0,0,0,-1,1791,512,4.22451,1.21307
574,512,0,0,0,0,0,0,0,0,0,-1,1798,512,0,0
581,512,0,0,0,0,0,0,0,0,0,-1,1805,512,0,0
588,512,0,0,0,0,0,0,0,0,0,-1,1812,512,0,0
595,512,0,0,0,0,0,0,0,0,0,-1,1819,512,0,0
602,512,0,0,0,0,0,0,0,0,0,-1,1826,512,0,0
609,512,0,0,0,0,0,0,0,0,0,-1,1833,512,0,0
616,512,0,0,0,0,0,0,0,0,0,-1,1840,512,0,0
623,512,0,0,0,0,0,0,0,0,0,-1,1847,512,0,0
630,512,0,0,0,0,0,0,0,0,0,-1,1854,512,0,0
637,512,0,0,0,0,0,0,0,0,0,-1,1861,512,0,0
644,512,0,0,0,0,0,0,0,0,0,-1,1868,512,0,0
651,512,0,0,0,0,0,0,0,0,0,-1,1875,512,0,0
658,512,0,0,0,0,0,0,0,0,0,-1,1882,512,0,0
665,512,0,0,0,0,0,0,0,0,0,-1,1889,512,0,0
672,512,0,0,0,0,0,0,0,0,0,-1,1896,512,0,0
679,512,0,0,0,0,0,0,0,0,0,-1,1903,512,0,0
686,512,0,0,0,0,0,0,0,0,0,-1,1910,512,0,0
693,512,0,0,0,0,0,0,0,0,0,-1,1917,512,0,0
700,512,0,0,0,0,0,0,0,0,0,-1,1924,512,0,0
707,512,0,0,0,0,0,0,0,0,0,-1,1931,512,0,0
714,512,0,0,0,0,0,0,0,0,0,-1,1938,512,0,0
721,512,0,0,0,0,0,0,0,0,0,-1,1945,512,0,0
728,512,0,0,0,0,0,0,0,0,0,-1,1952,512,0,0
735,512,0,0,0,0,0,0,0,0,0,-1,1959,512,0,0
742,512,0,0,0,0,0,0,0,0,0,-1,1966,512,0,0
749,512,0,0,0,0,0,0,0,0,0,-1,1973,512,0,0
756,512,0,0,0,0,0,0,0,0,0,-1,1980,512,0,0
763,512,0,0,0,0,0,0,0,0,0,-1,1987,512,0,0
770,512,0,0,0,0,0,0,0,0,0,-1,1994,512,0,0
777,512,0,0,0,0,0,0,0,0,0,-1,2001,512,0,0
784,512,0,0,0,0,0,0,0,0,0,-1,2008,512,0,0
791,512,0,0,0,0,0,0,0,0,0,-1,2015,512,0,0
798,512,0,0,0,0,0,0,0,0,0,-1,2022,512,0,0
805,512,0,0,0,0,0,0,0,0,0,-1,2029,512,0,0
812,512,0,0,0,0,0,0,0,0,0,-1,2036,512,0,0
-700,505,0,0,0,0,0,0,0,0,0,-1,524,519,0,0
-693,505,0,0,0,0,0,0,0,0,0,-1,531,519,0,0
-686,505,0,0,0,0,0,0,0,0,0,-1,538,519,0,0
-679,505,0,0,0,0,0,0,0,0,0,-1,545,519,0,0
-672,505,0,0,0,0,0,0,0,0,0,-1,552,519,0,0
-665,505,0,0,0,0,0,0,0,0,0,-1,559,519,0,0
-658,505,0,0,0,0,0,0,0,0,0,-1,566,519,0,0
-651,505,0,0,0,0,0,0,0,0,0,-1,573,519,0,0
-644,505,0,0,0,0,0,0,0,0,0,-1,580,519,0,0
-637,505,0,0,0,0,0,0,0,0,0,-1,587,519,0,0
-630,505,0,0,0,0,0,0,0,0,0,-1,594,519,0,0
-623,505,0,0,0,0,0,0,0,0,0,-1,601,519,0,0
-616,505,0,0,0,0,0,0,0,0,0,-1,608,519,0,0
-609,505,0,0,0,0,0,0,0,0,0,-1,615,519,0,0
-602,505,0,0,0,0,0,0,0,0,0,-1,622,519,0,0
-595,505,0,0,0,0,0,0,0,0,0,-1,629,519,0,0
-588,505,0,0,0,0,0,0,0,0,0,-1,636,519,0,0
-581,505,0,0,0,0,0,0,0,0,0,-1,643,519,0,0
-574,505,0,0,0,0,0,0,0,0,0,-1,650,519,0,0
-567,505,0,0,0,0,0,0,0,0,0,-1,657,519,0,0
-560,505,0,0,0,0,0,0,0,0,0,-1,664,519,0,0
-553,505,0,0,0,0,0,0,0,0,0,-1,671,519,0,0
-546,505,0,0,0,0,0,0,0,0,0,-1,678,519,0,0
-539,505,0,0,0,0,0,0,0,0,0,-1,685,519,0,0
-532,505,0,0,0,0,0,0,0,0,0,-1,692,519,0,0
-525,505,0,0,0,0,0,0,0,0,0,-1,699,519,0,0
-518,505,0,0,0,0,0,0,0,0,0,-1,706,519,0,0
-511,505,0,0,0,0,0,0,0,0,0,-1,713,519,0,0
-504,505,0,0,0,0,0,0,0,0,0,-1,720,519,0,0
-497,505,0,0,0,0,0,0,0,0,0,-1,727,519,0,0
-490,505,0,0,0,0,0,0,0,0,0,-1,734,519,0,0
-483,505,0,0,0,0,0,0,0,0,0,-1,741,519,0,0
-476,505,0,0,0,0,0,0,0,0,0,-1,748,519,0,0
-469,505,0,0,0,0,0,0,0,0,0,-1,755,519,0,0
-462,505,0,0,0,0,0,0,0,0,0,-1,762,519,0,0
-455,505,0.269409,4.3963,0,0,0,0,0,0,0,-1,769,519,0.269383,-4.3963
-448,505,3.94385,3.23529,0,0,0,0,0,0,0,-1,776,519,3.94382,-3.2353
-441,505,0.386047,-0.119934,0.030164,0.115812,-0.000812999,0.11582,0.0301563,-1.56131,0.0693814,0.0479573,783,519,0.386052,0.119952
-434,505,0.679504,-0.276978,0.0210761,0.0901185,-0.00175179,0.0901629,0.0210317,-1.54545,0.0544688,0.0489733,790,519,0.679529,0.277006
-427,505,0.827576,-0.848694,0,0,0,0,0,0,0,-1,797,519,0.827604,0.848665
-420,505,1.04852,-3.33063,0,0,0,0,0,0,0,-1,804,519,1.04855,3.33065
-413,505,0.583374,-2.22455,0,0,0,0,0,0,0,-1,811,519,0.583361,2.22455
-406,505,0.681458,-2.69727,0.00403294,0.0284445,-0.00101658,0.0284868,0.00399068,-1.52925,0.0178106,0.0489624,818,519,0.681487,2.69727
-399,505,0.739441,-2.72571,0.00296519,0.020217,-0.000803453,0.0202543,0.00292786,-1.52436,0.0126405,0.041255,825,519,0.739434,2.72568
-392,505,0.778442,-2.66302,0.00235878,0.0131587,-0.000909603,0.0132348,0.00228271,-1.48736,0.0081693,0.0199654,832,519,0.778429,2.66304
-385,505,0.753906,-2.75372,0.00214413,0.00791613,-0.000908902,0.00805586,0.00200439,-1.41825,0.00484275,0.00885592,839,519,0.753904,2.75371
-378,505,0.727783,-2.88007,0.00236976,0.0048073,-0.000585079,0.00494046,0.00223659,-1.34701,0.00285662,0.0101363,846,519,0.727799,2.88006
-371,505,0.728271,-3.01337,0.00283677,0.00256442,-0.000462981,0.00318319,0.002218,-0.642366,0.00188466,0.0128466,853,519,0.728257,3.01336
-364,505,0.726379,-3.12305,0.00315709,0.00110956,-0.000561348,0.00330089,0.000965762,-0.250775,0.00195967,0.0135935,860,519,0.726393,3.12303
-357,505,0.756531,-3.23041,0.0030829,0.00105585,-0.000619959,0.00325747,0.000881273,-0.274484,0.0019456,0.0107263,867,519,0.756516,3.23043
-350,505,0.752808,-3.34216,0.00266406,0.0011283,-0.000651943,0.00290349,0.000888868,-0.35196,0.00171782,0.0107184,874,519,0.752797,3.34215
-343,505,0.724182,-3.44818,0.00235821,0.00110153,-0.000431274,0.00249198,0.000967762,-0.300759,0.00145065,0.0086843,881,519,0.72421,3.44818
-336,505,0.698914,-3.55627,0.00206705,0.00134546,-0.000388398,0.00223637,0.00117614,-0.411115,0.00129175,0.00975108,888,519,0.698913,3.55629
-329,505,0.716003,-3.67273,0.00111295,0.00166649,-9.3209e-05,0.00168176,0.00109768,-1.40837,0.000985944,0.0124721,895,519,0.716028,3.67275
-322,505,0.72876,-3.79956,8.33882e-05,0.00242276,0.000208846,0.00244126,6.489e-05,1.48245,0.00160631,0.0133491,902,519,0.728767,3.79958
-315,505,0.737366,-3.91785,-0.000732934,0.0030957,0.000459032,0.00314996,-0.0007872,1.45312,0.0024057,0.0110605,909,519,0.737336,3.91782
-308,505,0.731934,-4.02777,-0.00114377,0.00397157,0.00063146,0.00404837,-0.00122056,1.44977,0.00318471,0.0106284,916,519,0.731929,4.02778
-301,505,0.715698,-4.14618,-0.00175603,0.00478222,0.0028587,0.00585583,-0.00282964,1.21154,0.00511501,0.0140723,923,519,0.715716,4.14621
-294,505,0.720337,-4.14783,-0.00252515,0.00504842,0.00661778,0.00888624,-0.00636298,1.04527,0.00884423,0.0198227,930,519,0.720318,4.1478
-287,505,0.661316,-4.29901,-0.00305117,0.00475917,0.0112701,0.0127815,-0.0110735,0.952178,0.0137845,0.0280153,937,519,0.66132,4.29903
-280,505,0.611755,-4.42889,-0.00304861,0.00309459,0.0188876,0.0191587,-0.0191127,0.866005,0.022096,0.0404395,944,519,0.611758,4.42892
-273,505,0.232788,-4.53522,-0.00235056,0.000165216,0.0277593,0.0266951,-0.0288804,0.80804,0.0320948,0.0394037,951,519,0.232798,4.53523
-266,505,0.856079,-4.52515,0,0,0,0,0,0,0,-1,958,519,0.856098,4.52516
-259,505,0.546509,-4.78394,0,0,0,0,0,0,0,-1,965,519,0.546491,4.78393
-252,505,-1.07513,-9.87628,0,0,0,0,0,0,0,-1,972,519,-1.07512,9.87627
-245,505,-0.913025,-8.99237,0,0,0,0,0,0,0,-1,979,519,-0.913036,8.99239
-238,505,-1.86255,-6.94867,0,0,0,0,0,0,0,-1,986,519,-1.86255,6.94867
-231,505,-2.40259,-6.0083,0,0,0,0,0,0,0,-1,993,519,-2.40262,6.00828
-224,505,-2.62762,-4.22491,0,0,0,0,0,0,0,-1,1000,519,-2.62761,4.22493
-217,505,-2.3775,-2.49432,0,0,0,0,0,0,0,-1,1007,519,-2.37751,2.49435
-210,505,-1.0238,-0.110168,0.0487341,-0.117178,0.0697785,0.0741789,-0.142622,0.349668,0.127232,0.0475994,1014,519,-1.02381,0.110198
-203,505,-1.00488,1.96979,0.0597968,-0.13005,0.0656294,0.0802756,-0.150529,0.302463,0.135297,0.0476843,1021,519,-1.00488,-1.96976
-196,505,-0.929443,4.05011,0,0,0,0,0,0,0,-1,1028,519,-0.929446,-4.0501
-189,505,1.51526,5.56207,0,0,0,0,0,0,0,-1,1035,519,1.51523,-5.56209
-182,505,2.97815,7.5097,0,0,0,0,0,0,0,-1,1042,519,2.97812,-7.5097
-175,505,-2.38416,-2.17548,0,0,0,0,0,0,0,-1,1049,519,-2.38411,2.1755
-168,505,0,0,0,0,0,0,0,0,0,-1,1056,519,0,0
-161,505,0,0,0,0,0,0,0,0,0,-1,1063,519,0,0
-154,505,0,0,0,0,0,0,0,0,0,-1,1070,519,0,0
-147,505,0,0,0,0,0,0,0,0,0,-1,1077,519,0,0
-140,505,0,0,0,0,0,0,0,0,0,-1,1084,519,0,0
-133,505,0,0,0,0,0,0,0,0,0,-1,1091,519,0,0
-126,505,0,0,0,0,0,0,0,0,0,-1,1098,519,0,0
-119,505,0,0,0,0,0,0,0,0,0,-1,1105,519,0,0
-112,505,0,0,0,0,0,0,0,0,0,-1,1112,519,0,0
-105,505,0,0,0,0,0,0,0,0,0,-1,1119,519,0,0
-98,505,0,0,0,0,0,0,0,0,0,-1,1126,519,0,0
-91,505,0,0,0,0,0,0,0,0,0,-1,1133,519,0,0
-84,505,0,0,0,0,0,0,0,0,0,-1,1140,519,0,0
-77,505,0,0,0,0,0,0,0,0,0,-1,1147,519,0,0
-70,505,0,0,0,0,0,0,0,0,0,-1,1154,519,0,0
-63,505,0,0,0,0,0,0,0,0,0,-1,1161,519,0,0
-56,505,0,0,0,0,0,0,0,0,0,-1,1168,519,0,0
-49,505,0,0,0,0,0,0,0,0,0,-1,1175,519,0,0
-42,505,0,0,0,0,0,0,0,0,0,-1,1182,519,0,0
-35,505,0,0,0,0,0,0,0,0,0,-1,1189,519,0,0
-28,505,0,0,0,0,0,0,0,0,0,-1,1196,519,0,0
-21,505,0,0,0,0,0,0,0,0,0,-1,1203,519,0,0
-14,505,0,0,0,0,0,0,0,0,0,-1,1210,519,0,0
-7,505,0,0,0,0,0,0,0,0,0,-1,1217,519,0,0
0,505,0,0,0,0,0,0,0,0,0,-1,1224,519,0,0
7,505,0,0,0,0,0,0,0,0,0,-1,1231,519,0,0
14,505,0,0,0,0,0,0,0,0,0,-1,1238,519,0,0
21,505,0,0,0,0,0,0,0,0,0,-1,1245,519,0,0
28,505,0,0,0,0,0,0,0,0,0,-1,1252,519,0,0
35,505,0,0,0,0,0,0,0,0,0,-1,1259,519,0,0
42,505,0,0,0,0,0,0,0,0,0,-1,1266,519,0,0
49,505,0,0,0,0,0,0,0,0,0,-1,1273,519,0,0
56,505,0,0,0,0,0,0,0,0,0,-1,1280,519,0,0
63,505,0,0,0,0,0,0,0,0,0,-1,1287,519,0,0
70,505,0,0,0,0,0,0,0,0,0,-1,1294,519,0,0
77,505,0,0,0,0,0,0,0,0,0,-1,1301,519,0,0
84,505,0,0,0,0,0,0,0,0,0,-1,1308,519,0,0
91,505,0,0,0,0,0,0,0,0,0,-1,1315,519,0,0
98,505,0,0,0,0,0,0,0,0,0,-1,1322,519,0,0
105,505,0,0,0,0,0,0,0,0,0,-1,1329,519,0,0
112,505,0,0,0,0,0,0,0,0,0,-1,1336,519,0,0
119,505,0,0,0,0,0,0,0,0,0,-1,1343,519,0,0
126,505,0,0,0,0,0,0,0,0,0,-1,1350,519,0,0
133,505,0,0,0,0,0,0,0,0,0,-1,1357,519,0,0
140,505,0,0,0,0,0,0,0,0,0,-1,1364,519,0,0
147,505,0,0,0,0,0,0,0,0,0,-1,1371,519,0,0
154,505,0,0,0,0,0,0,0,0,0,-1,1378,519,0,0
161,505,0,0,0,0,0,0,0,0,0,-1,1385,519,0,0
168,505,0,0,0,0,0,0,0,0,0,-1,1392,519,0,0
175,505,0,0,0,0,0,0,0,0,0,-1,1399,519,0,0
182,505,0,0,0,0,0,0,0,0,0,-1,1406,519,0,0
189,505,0,0,0,0,0,0,0,0,0,-1,1413,519,0,0
196,505,0,0,0,0,0,0,0,0,0,-1,1420,519,0,0
203,505,0,0,0,0,0,0,0,0,0,-1,1427,519,0,0
210,505,0,0,0,0,0,0,0,0,0,-1,1434,519,0,0
217,505,0,0,0,0,0,0,0,0,0,-1,1441,519,0,0
224,505,0,0,0,0,0,0,0,0,0,-1,1448,519,0,0
231,505,0,0,0,0,0,0,0,0,0,-1,1455,519,0,0
238,505,0,0,0,0,0,0,0,0,0,-1,1462,519,0,0
245,505,0,0,0,0,0,0,0,0,0,-1,1469,519,0,0
252,505,0,0,0,0,0,0,0,0,0,-1,1476,519,0,0
259,505,0,0,0,0,0,0,0,0,0,-1,1483,519,0,0
266,505,0,0,0,0,0,0,0,0,0,-1,1490,519,0,0
273,505,0,0,0,0,0,0,0,0,0,-1,1497,519,0,0
280,505,0,0,0,0,0,0,0,0,0,-1,1504,519,0,0
287,505,4.39478,0.499512,0,0,0,0,0,0,0,-1,1511,519,4.39476,-0.499506
294,505,4.88867,0.0822754,0,0,0,0,0,0,0,-1,1518,519,4.88871,-0.0822748
301,505,4.82153,-0.0704346,0,0,0,0,0,0,0,-1,1525,519,4.82156,0.0704312
308,505,4.67761,-0.29187,0,0,0,0,0,0,0,-1,1532,519,4.67762,0.291845
315,505,8.44055,-6.54352,0,0,0,0,0,0,0,-1,1539,519,8.44059,6.54349
322,505,4.78955,-0.594116,0,0,0,0,0,0,0,-1,1546,519,4.78957,0.594096
329,505,5.16321,0.434631,0,0,0,0,0,0,0,-1,1553,519,5.16316,-0.434614
336,505,4.94495,-0.920471,0,0,0,0,0,0,0,-1,1560,519,4.945,0.920495
343,505,5.01855,-1.4823,0,0,0,0,0,0,0,-1,1567,519,5.01851,1.48227
350,505,5.33154,-1.77838,0,0,0,0,0,0,0,-1,1574,519,5.33152,1.77838
357,505,5.56567,-1.9425,0,0,0,0,0,0,0,-1,1581,519,5.56562,1.94248
364,505,5.85205,-2.6579,0,0,0,0,0,0,0,-1,1588,519,5.85211,2.65788
371,505,3.69421,-4.75159,0,0,0,0,0,0,0,-1,1595,519,3.69419,4.75161
378,505,3.37231,-4.63947,0.0475034,-0.00913291,0.00434836,0.0478353,-0.00946482,0.0761818,0.0354686,0.0486128,1602,519,3.37232,4.63949
385,505,3.29297,-3.95996,0,0,0,0,0,0,0,-1,1609,519,3.29294,3.95997
392,505,4.20044,-3.6991,0,0,0,0,0,0,0,-1,1616,519,4.2005,3.69911
399,505,4.57336,-3.36566,0.0285519,-0.00787494,-0.00325128,0.0288398,-0.00816286,-0.0883248,0.0224478,0.0495819,1623,519,4.57332,3.36567
406,505,4.34705,-3.62793,0.022465,-0.00701809,-0.00445375,0.0231231,-0.00767619,-0.146701,0.0185124,0.0391194,1630,519,4.34709,3.6279
413,505,4.11279,-3.66724,0.0168095,-0.0060017,-0.00495961,0.0178412,-0.00703336,-0.205088,0.0148063,0.0410119,1637,519,4.11281,3.66721
420,505,4.06738,-3.58618,0.011752,-0.00489985,-0.00504473,0.0131611,-0.00630893,-0.272375,0.0114707,0.0299404,1644,519,4.06738,3.5862
427,505,4.05139,-3.46112,0.00776392,-0.00392824,-0.00485173,0.00951494,-0.00567926,-0.346357,0.00886506,0.0141013,1651,519,4.05136,3.46114
434,505,4.03638,-3.3493,0.00490119,-0.00298956,-0.00470559,0.00709654,-0.00518491,-0.436525,0.00711928,0.0103933,1658,519,4.03638,3.34933
441,505,4.0199,-3.22461,0.0014021,-0.00182947,-0.00421177,0.00429738,-0.00472476,-0.602238,0.00521088,0.0109926,1665,519,4.01988,3.2246
448,505,4.04114,-3.10071,-0.00141874,-0.000669722,-0.00312685,0.00210497,-0.00419343,-0.845,0.00370241,0.0102868,1672,519,4.04109,3.10073
455,505,4.03992,-2.97742,-0.000603551,0.000351905,-0.00106203,0.00103871,-0.00129036,-0.996752,0.0013473,0.0102867,1679,519,4.03991,2.97743
462,505,4.00342,-2.84222,4.08119e-05,0.000899098,-0.000506915,0.00113413,-0.000194218,-1.13665,0.000828449,0.0109316,1686,519,4.00343,2.84222
469,505,4.00354,-2.72345,0.000255454,0.000929376,-0.000444644,0.00115031,3.45161e-05,-1.10964,0.000755633,0.011189,1693,519,4.00353,2.72347
476,505,4.03516,-2.61456,0.00023604,0.00102456,-0.000497146,0.0012648,-4.20405e-06,-1.12064,0.000844606,0.0115305,1700,519,4.03514,2.61456
483,505,4.03467,-2.4964,0.000301595,0.00109489,-0.000662189,0.00147014,-7.36543e-05,-1.05524,0.00100554,0.0117044,1707,519,4.03466,2.49637
490,505,4.01953,-2.35089,0.000494471,0.00108917,-0.000929935,0.00176814,-0.000184498,-0.940137,0.00124482,0.0108672,1714,519,4.01954,2.35092
497,505,4.00146,-2.20178,0.000657615,0.00108814,-0.00123837,0.00212982,-0.000384066,-0.871452,0.00156371,0.0114047,1721,519,4.00142,2.20178
504,505,4.02832,-2.06915,0.00104014,0.00112653,-0.00162747,0.00271137,-0.000544705,-0.798665,0.00201386,0.0125033,1728,519,4.02828,2.06916
511,505,4.0426,-1.94891,0.00205616,0.00114163,-0.00162979,0.00329162,-9.38185e-05,-0.648631,0.00222634,0.0138899,1735,519,4.04266,1.9489
518,505,4.10339,-1.87762,0.00339554,0.00134391,-0.00135256,0.00406729,0.000672167,-0.460963,0.00251756,0.0212575,1742,519,4.10336,1.87761
525,505,3.96716,-1.72443,0.00528162,0.0019041,-0.000635434,0.00539722,0.0017885,-0.179942,0.0031746,0.0276257,1749,519,3.96713,1.72441
532,505,4.04065,-1.5824,0.00785624,0.00256626,0.000618898,0.00792768,0.00249482,0.114927,0.00468065,0.0409592,1756,519,4.04068,1.58237
539,505,4.1991,-1.38995,0.0116883,0.00386789,0.002933,0.0126661,0.00289014,0.321778,0.00766452,0.047435,1763,519,4.19907,1.38993
546,505,4.49304,-1.25256,0,0,0,0,0,0,0,-1,1770,519,4.49306,1.25253
553,505,3.90149,-1.18665,0,0,0,0,0,0,0,-1,1777,519,3.90154,1.18667
560,505,4.17029,-0.959839,0,0,0,0,0,0,0,-1,1784,519,4.17027,0.959851
567,505,4.65271,-0.950256,0,0,0,0,0,0,0,-1,1791,519,4.65274,0.95028
574,505,5.54443,-1.19977,0,0,0,0,0,0,0,-1,1798,519,5.54443,1.19974
581,505,0,0,0,0,0,0,0,0,0,-1,1805,519,0,0
588,505,0,0,0,0,0,0,0,0,0,-1,1812,519,0,0
595,505,0,0,0,0,0,0,0,0,0,-1,1819,519,0,0
602,505,0,0,0,0,0,0,0,0,0,-1,1826,519,0,0
609,505,0,0,0,0,0,0,0,0,0,-1,1833,519,0,0
616,505,0,0,0,0,0,0,0,0,0,-1,1840,519,0,0
623,505,0,0,0,0,0,0,0,0,0,-1,1847,519,0,0
630,505,0,0,0,0,0,0,0,0,0,-1,1854,519,0,0
637,505,0,0,0,0,0,0,0,0,0,-1,1861,519,0,0
644,505,0,0,0,0,0,0,0,0,0,-1,1868,519,0,0
651,505,0,0,0,0,0,0,0,0,0,-1,1875,519,0,0
658,505,0,0,0,0,0,0,0,0,0,-1,1882,519,0,0
665,505,0,0,0,0,0,0,0,0,0,-1,1889,519,0,0
672,505,0,0,0,0,0,0,0,0,0,-1,1896,519,0,0
679,505,0,0,0,0,0,0,0,0,0,-1,1903,519,0,0
686,505,0,0,0,0,0,0,0,0,0,-1,1910,519,0,0
693,505,0,0,0,0,0,0,0,0,0,-1,1917,519,0,0
700,505,0,0,0,0,0,0,0,0,0,-1,1924,519,0,0
707,505,0,0,0,0,0,0,0,0,0,-1,1931,519,0,0
714,505,0,0,0,0,0,0,0,0,0,-1,1938,519,0,0
721,505,0,0,0,0,0,0,0,0,0,-1,1945,519,0,0
728,505,0,0,0,0,0,0,0,0,0,-1,1952,519,0,0
735,505,0,0,0,0,0,0,0,0,0,-1,1959,519,0,0
742,505,0,0,0,0,0,0,0,0,0,-1,1966,519,0,0
749,505,0,0,0,0,0,0,0,0,0,-1,1973,519,0,0
756,505,0,0,0,0,0,0,0,0,0,-1,1980,519,0,0
763,505,0,0,0,0,0,0,0,0,0,-1,1987,519,0,0
770,505,0,0,0,0,0,0,0,0,0,-1,1994,519,0,0
777,505,0,0,0,0,0,0,0,0,0,-1,2001,519,0,0
784,505,0,0,0,0,0,0,0,0,0,-1,2008,519,0,0
791,505,0,0,0,0,0,0,0,0,0,-1,2015,519,0,0
798,505,0,0,0,0,0,0,0,0,0,-1,2022,519,0,0
805,505,0,0,0,0,0,0,0,0,0,-1,2029,519,0,0
812,505,0,0,0,0,0,0,0,0,0,-1,2036,519,0,0
-700,498,0,0,0,0,0,0,0,0,0,-1,524,526,0,0
-693,498,0,0,0,0,0,0,0,0,0,-1,531,526,0,0
-686,498,0,0,0,0,0,0,0,0,0,-1,538,526,0,0
-679,498,0,0,0,0,0,0,0,0,0,-1,545,526,0,0
-672,498,0,0,0,0,0,0,0,0,0,-1,552,526,0,0
-665,498,0,0,0,0,0,0,0,0,0,-1,559,526,0,0
-658,498,0,0,0,0,0,0,0,0,0,-1,566,526,0,0
-651,498,0,0,0,0,0,0,0,0,0,-1,573,526,0,0
-644,498,0,0,0,0,0,0,0,0,0,-1,580,526,0,0
-637,498,0,0,0,0,0,0,0,0,0,-1,587,526,0,0
-630,498,0,0,0,0,0,0,0,0,0,-1,594,526,0,0
-623,498,0,0,0,0,0,0,0,0,0,-1,601,526,0,0
-616,498,0,0,0,0,0,0,0,0,0,-1,608,526,0,0
-609,498,0,0,0,0,0,0,0,0,0,-1,615,526,0,0
-602,498,0,0,0,0,0,0,0,0,0,-1,622,526,0,0
-595,498,0,0,0,0,0,0,0,0,0,-1,629,526,0,0
-588,498,0,0,0,0,0,0,0,0,0,-1,636,526,0,0
-581,498,0,0,0,0,0,0,0,0,0,-1,643,526,0,0
-574,498,0,0,0,0,0,0,0,0,0,-1,650,526,0,0
-567,498,0,0,0,0,0,0,0,0,0,-1,657,526,0,0
-560,498,0,0,0,0,0,0,0,0,0,-1,664,526,0,0
-553,498,0,0,0,0,0,0,0,0,0,-1,671,526,0,0
-546,498,0,0,0,0,0,0,0,0,0,-1,678,526,0,0
-539,498,0,0,0,0,0,0,0,0,0,-1,685,526,0,0
-532,498,0,0,0,0,0,0,0,0,0,-1,692,526,0,0
-525,498,0,0,0,0,0,0,0,0,0,-1,699,526,0,0
-518,498,0,0,0,0,0,0,0,0,0,-1,706,526,0,0
-511,498,0,0,0,0,0,0,0,0,0,-1,713,526,0,0
-504,498,0,0,0,0,0,0,0,0,0,-1,720,526,0,0
-497,498,0,0,0,0,0,0,0,0,0,-1,727,526,0,0
-490,498,0,0,0,0,0,0,0,0,0,-1,734,526,0,0
-483,498,0,0,0,0,0,0,0,0,0,-1,741,526,0,0
-476,498,0,0,0,0,0,0,0,0,0,-1,748,526,0,0
-469,498,0,0,0,0,0,0,0,0,0,-1,755,526,0,0
-462,498,3.06213,-0.727356,0,0,0,0,0,0,0,-1,762,526,3.06215,0.727385
-455,498,1.73895,2.96545,0,0,0,0,0,0,0,-1,769,526,1.73896,-2.96545
-448,498,2.36646,2.21436,0,0,0,0,0,0,0,-1,776,526,2.36644,-2.21433
-441,498,2.51849,1.43274,0,0,0,0,0,0,0,-1,783,526,2.5185,-1.43272
-434,498,0.270813,-0.829163,0.0188049,0.0780753,-0.00180647,0.0781303,0.0187499,-1.54036,0.0470978,0.0459475,790,526,0.270811,0.829142
-427,498,0.44873,-1.27734,0.0128632,0.0599756,-0.00191823,0.0600536,0.0127852,-1.53017,0.0365276,0.0478937,797,526,0.448759,1.27737
-420,498,0.316162,-2.06787,0,0,0,0,0,0,0,-1,804,526,0.316176,2.06789
-413,498,0.467285,-2.23651,0.00576465,0.0338527,-0.00157438,0.0339407,0.00567668,-1.51498,0.0209923,0.0460147,811,526,0.467261,2.23649
-406,498,0.700867,-2.41705,0.00368075,0.0248128,-0.00130579,0.0248932,0.00360037,-1.50932,0.015535,0.0406317,818,526,0.700869,2.41704
-399,498,0.636047,-2.54474,0.00238024,0.0178442,-0.0011066,0.017923,0.00230146,-1.49972,0.0112602,0.0238952,825,526,0.636065,2.54476
-392,498,0.623779,-2.64819,0.00142277,0.0117088,-0.00121744,0.0118509,0.00128064,-1.45458,0.00751023,0.0115291,832,526,0.623793,2.64822
-385,498,0.615723,-2.75763,0.000919404,0.00718202,-0.0011984,0.00740351,0.000697912,-1.38804,0.00472027,0.00819504,839,526,0.61571,2.75764
-378,498,0.610474,-2.87537,0.000910741,0.0045562,-0.000855898,0.00474715,0.000719792,-1.35129,0.00295421,0.00957886,846,526,0.610472,2.87536
-371,498,0.622314,-2.99225,0.00116639,0.00276856,-0.000722201,0.00304604,0.000888909,-1.20397,0.00180873,0.0152457,853,526,0.622305,2.99225
-364,498,0.61084,-3.11407,0.00139956,0.00156643,-0.000771055,0.00225855,0.000707439,-0.83929,0.00133396,0.0152924,860,526,0.610837,3.11409
-357,498,0.641846,-3.22894,0.00136305,0.00138513,-0.000799503,0.00217367,0.000574511,-0.792304,0.00130062,0.0103454,867,526,0.641831,3.22897
-350,498,0.629028,-3.34027,0.0010735,0.00135943,-0.000740488,0.00197062,0.0004623,-0.880758,0.00118997,0.011115,874,526,0.629048,3.34027
-343,498,0.617065,-3.44543,0.000919102,0.00127539,-0.00041686,0.00155058,0.000643917,-0.987328,0.0008995,0.011223,881,526,0.617045,3.44545
-336,498,0.612061,-3.56287,0.000854832,0.00149337,-0.000318228,0.00162488,0.000723322,-1.17891,0.000940006,0.013446,888,526,0.612036,3.56286
-329,498,0.645447,-3.67896,0.000234404,0.00183742,2.15816e-05,0.00183771,0.000234113,1.55734,0.00115504,0.017395,895,526,0.645429,3.67896
-322,498,0.649292,-3.80396,-0.000532506,0.00276572,0.000312961,0.00279515,-0.00056194,1.47702,0.00207625,0.0171927,902,526,0.64932,3.80398
-315,498,0.63385,-3.91766,-0.0010147,0.00365573,0.00052274,0.00371352,-0.0010725,1.46069,0.00290006,0.0141259,909,526,0.633841,3.91769
-308,498,0.639587,-4.02875,-0.00125982,0.00492512,0.00066162,0.00499511,-0.00132981,1.46541,0.00385066,0.012863,916,526,0.639609,4.02874
-301,498,0.676147,-4.18823,-0.00203203,0.00602147,0.0036275,0.00741446,-0.00342501,1.20415,0.0063979,0.0201082,923,526,0.676165,4.18822
-294,498,0.610535,-4.17963,-0.00302732,0.00643191,0.00882334,0.0117133,-0.00830873,1.03143,0.0116153,0.0342065,930,526,0.610529,4.17962
-287,498,0.560608,-4.29529,-0.00362439,0.00604812,0.0153121,0.0172696,-0.0148458,0.938363,0.0185594,0.0406033,937,526,0.5606,4.2953
-280,498,0.425903,-4.56409,-0.00368618,0.00373516,0.0257348,0.0260254,-0.0259765,0.856999,0.0300233,0.0449255,944,526,0.425933,4.56411
-273,498,0.274292,-4.97821,-0.00317716,0.000165648,0.0376985,0.0362298,-0.0392413,0.807552,0.0435848,0.0472822,951,526,0.274308,4.97819
-266,498,0.175171,-5.15131,0,0,0,0,0,0,0,-1,958,526,0.17518,5.1513
-259,498,-1.23877,-11.7387,0,0,0,0,0,0,0,-1,965,526,-1.23879,11.7387
-252,498,-1.43756,-10.1047,0.00318343,-0.038202,0.0704069,0.0558755,-0.0908941,0.642472,0.0855376,0.0478033,972,526,-1.43756,10.1047
-245,498,-1.82111,-8.76434,0.00817494,-0.0529528,0.0791444,0.0624521,-0.10723,0.601131,0.0990965,0.0496842,979,526,-1.82113,8.76433
-238,498,-2.48779,-7.57355,0,0,0,0,0,0,0,-1,986,526,-2.48777,7.57352
-231,498,-2.65332,-5.58783,0.0169808,-0.0858404,0.0914409,0.0704725,-0.139332,0.529307,0.123286,0.0481925,993,526,-2.65333,5.58783
-224,498,-2.71423,-3.67957,0,0,0,0,0,0,0,-1,1000,526,-2.71421,3.67958
-217,498,-2.73999,-1.80304,0,0,0,0,0,0,0,-1,1007,526,-2.74002,1.80305
-210,498,-0.28125,1.27887,0.0480844,-0.139293,0.0857289,0.0813879,-0.172596,0.370531,0.149756,0.0471416,1014,526,-0.28128,-1.27889
-203,498,-0.374084,3.35388,0.063125,-0.157404,0.0783519,0.0881279,-0.182407,0.308896,0.159323,0.0495721,1021,526,-0.374101,-3.35391
-196,498,-0.103271,5.40527,0,0,0,0,0,0,0,-1,1028,526,-0.103285,-5.40528
-189,498,3.00256,6.47137,0,0,0,0,0,0,0,-1,1035,526,3.00256,-6.47139
-182,498,0,0,0,0,0,0,0,0,0,-1,1042,526,0,0
-175,498,0,0,0,0,0,0,0,0,0,-1,1049,526,0,0
-168,498,0,0,0,0,0,0,0,0,0,-1,1056,526,0,0
-161,498,0,0,0,0,0,0,0,0,0,-1,1063,526,0,0
-154,498,0,0,0,0,0,0,0,0,0,-1,1070,526,0,0
-147,498,0,0,0,0,0,0,0,0,0,-1,1077,526,0,0
-140,498,0,0,0,0,0,0,0,0,0,-1,1084,526,0,0
-133,498,0,0,0,0,0,0,0,0,0,-1,1091,526,0,0
-126,498,0,0,0,0,0,0,0,0,0,-1,1098,526,0,0
-119,498,0,0,0,0,0,0,0,0,0,-1,1105,526,0,0
-112,498,0,0,0,0,0,0,0,0,0,-1,1112,526,0,0
-105,498,0,0,0,0,0,0,0,0,0,-1,1119,526,0,0
-98,498,0,0,0,0,0,0,0,0,0,-1,1126,526,0,0
-91,498,0,0,0,0,0,0,0,0,0,-1,1133,526,0,0
-84,498,0,0,0,0,0,0,0,0,0,-1,1140,526,0,0
-77,498,0,0,0,0,0,0,0,0,0,-1,1147,526,0,0
-70,498,0,0,0,0,0,0,0,0,0,-1,1154,526,0,0
-63,498,0,0,0,0,0,0,0,0,0,-1,1161,526,0,0
-56,498,0,0,0,0,0,0,0,0,0,-1,1168,526,0,0
-49,498,0,0,0,0,0,0,0,0,0,-1,1175,526,0,0
-42,498,0,0,0,0,0,0,0,0,0,-1,1182,526,0,0
-35,498,0,0,0,0,0,0,0,0,0,-1,1189,526,0,0
-28,498,0,0,0,0,0,0,0,0,0,-1,1196,526,0,0
-21,498,0,0,0,0,0,0,0,0,0,-1,1203,526,0,0
-14,498,0,0,0,0,0,0,0,0,0,-1,1210,526,0,0
-7,498,0,0,0,0,0,0,0,0,0,-1,1217,526,0,0
0,498,0,0,0,0,0,0,0,0,0,-1,1224,526,0,0
7,498,0,0,0,0,0,0,0,0,0,-1,1231,526,0,0
14,498,0,0,0,0,0,0,0,0,0,-1,1238,526,0,0
21,498,0,0,0,0,0,0,0,0,0,-1,1245,526,0,0
28,498,0,0,0,0,0,0,0,0,0,-1,1252,526,0,0
35,498,0,0,0,0,0,0,0,0,0,-1,1259,526,0,0
42,498,0,0,0,0,0,0,0,0,0,-1,1266,526,0,0
49,498,0,0,0,0,0,0,0,0,0,-1,1273,526,0,0
56,498,0,0,0,0,0,0,0,0,0,-1,1280,526,0,0
63,498,0,0,0,0,0,0,0,0,0,-1,1287,526,0,0
70,498,0,0,0,0,0,0,0,0,0,-1,1294,526,0,0
77,498,0,0,0,0,0,0,0,0,0,-1,1301,526,0,0
84,498,0,0,0,0,0,0,0,0,0,-1,1308,526,0,0
91,498,0,0,0,0,0,0,0,0,0,-1,1315,526,0,0
98,498,0,0,0,0,0,0,0,0,0,-1,1322,526,0,0
105,498,0,0,0,0,0,0,0,0,0,-1,1329,526,0,0
112,498,0,0,0,0,0,0,0,0,0,-1,1336,526,0,0
119,498,0,0,0,0,0,0,0,0,0,-1,1343,526,0,0
126,498,0,0,0,0,0,0,0,0,0,-1,1350,526,0,0
133,498,0,0,0,0,0,0,0,0,0,-1,1357,526,0,0
140,498,0,0,0,0,0,0,0,0,0,-1,1364,526,0,0
147,498,0,0,0,0,0,0,0,0,0,-1,1371,526,0,0
154,498,0,0,0,0,0,0,0,0,0,-1,1378,526,0,0
161,498,0,0,0,0,0,0,0,0,0,-1,1385,526,0,0
168,498,0,0,0,0,0,0,0,0,0,-1,1392,526,0,0
175,498,0,0,0,0,0,0,0,0,0,-1,1399,526,0,0
182,498,0,0,0,0,0,0,0,0,0,-1,1406,526,0,0
189,498,0,0,0,0,0,0,0,0,0,-1,1413,526,0,0
196,498,0,0,0,0,0,0,0,0,0,-1,1420,526,0,0
203,498,0,0,0,0,0,0,0,0,0,-1,1427,526,0,0
210,498,0,0,0,0,0,0,0,0,0,-1,1434,526,0,0
217,498,0,0,0,0,0,0,0,0,0,-1,1441,526,0,0
224,498,0,0,0,0,0,0,0,0,0,-1,1448,526,0,0
231,498,0,0,0,0,0,0,0,0,0,-1,1455,526,0,0
238,498,0,0,0,0,0,0,0,0,0,-1,1462,526,0,0
245,498,0,0,0,0,0,0,0,0,0,-1,1469,526,0,0
252,498,0,0,0,0,0,0,0,0,0,-1,1476,526,0,0
259,498,0,0,0,0,0,0,0,0,0,-1,1483,526,0,0
266,498,0,0,0,0,0,0,0,0,0,-1,1490,526,0,0
273,498,0,0,0,0,0,0,0,0,0,-1,1497,526,0,0
280,498,0,0,0,0,0,0,0,0,0,-1,1504,526,0,0
287,498,0,0,0,0,0,0,0,0,0,-1,1511,526,0,0
294,498,0,0,0,0,0,0,0,0,0,-1,1518,526,0,0
301,498,0,0,0,0,0,0,0,0,0,-1,1525,526,0,0
308,498,4.77942,-0.293884,0,0,0,0,0,0,0,-1,1532,526,4.77939,0.293899
315,498,4.56091,-0.564148,0,0,0,0,0,0,0,-1,1539,526,4.56097,0.564142
322,498,4.52344,-0.447266,0,0,0,0,0,0,0,-1,1546,526,4.52341,0.447295
329,498,4.63232,-0.156982,0,0,0,0,0,0,0,-1,1553,526,4.63238,0.156991
336,498,5.22644,0.0925903,0,0,0,0,0,0,0,-1,1560,526,5.22648,-0.0926188
343,498,6.22607,-1.67615,0,0,0,0,0,0,0,-1,1567,526,6.22605,1.67617
350,498,6.19373,-1.59906,0,0,0,0,0,0,0,-1,1574,526,6.19367,1.59906
357,498,6.21472,-1.58929,0,0,0,0,0,0,0,-1,1581,526,6.21476,1.58927
364,498,5.73547,-1.2019,0,0,0,0,0,0,0,-1,1588,526,5.73547,1.20192
371,498,3.27087,-4.55334,0,0,0,0,0,0,0,-1,1595,526,3.27089,4.55332
378,498,2.95801,-4.68561,0,0,0,0,0,0,0,-1,1602,526,2.95799,4.6856
385,498,3.04797,-3.70447,0,0,0,0,0,0,0,-1,1609,526,3.04799,3.70449
392,498,5.42285,-2.49146,0.0702849,-0.0106164,0.00925356,0.0713298,-0.0116613,0.112446,0.0518791,0.0479193,1616,526,5.4228,2.49143
399,498,5.10132,-3.31421,0.060257,-0.0101697,0.00568751,0.0607133,-0.010626,0.0800665,0.044443,0.0442823,1623,526,5.10131,3.31423
406,498,4.67969,-3.31848,0.0496354,-0.00918426,0.00276376,0.0497649,-0.00931383,0.0468494,0.0366776,0.0441438,1630,526,4.67974,3.31851
413,498,4.40845,-3.63824,0,0,0,0,0,0,0,-1,1637,526,4.40845,3.63823
420,498,4.21362,-3.55072,0,0,0,0,0,0,0,-1,1644,526,4.21366,3.55074
427,498,4.11108,-3.51678,0.0200887,-0.00517761,-0.00238431,0.0203118,-0.00540064,-0.0932701,0.015655,0.0322429,1651,526,4.11109,3.51677
434,498,4.20776,-3.35345,0.0132847,-0.0038813,-0.00339083,0.0139302,-0.00452682,-0.188122,0.0111076,0.0166687,1658,526,4.20771,3.35343
441,498,4.146,-3.21429,0.00553047,-0.00240639,-0.00420399,0.00734321,-0.00421913,-0.407107,0.00675626,0.00924393,1665,526,4.14605,3.21428
448,498,4.18079,-3.09949,-0.00178122,-0.000893471,-0.00421008,0.00289607,-0.00557076,-0.83792,0.00496897,0.0093874,1672,526,4.18076,3.09946
455,498,4.17407,-2.97144,-0.000773523,0.000291867,-0.00152976,0.00137903,-0.00186068,-0.952943,0.00187732,0.0127129,1679,526,4.17403,2.97146
462,498,4.15051,-2.85693,-2.79968e-05,0.000915879,-0.000772658,0.00134933,-0.000461446,-1.05956,0.00108654,0.0150973,1686,526,4.1505,2.85696
469,498,4.14099,-2.72565,0.000121804,0.000970486,-0.000557984,0.00124715,-0.000154862,-1.11049,0.00088757,0.0135921,1693,526,4.14102,2.72565
476,498,4.15527,-2.59094,0.000104922,0.00101018,-0.000518297,0.00124567,-0.000130566,-1.14433,0.000877214,0.00954469,1700,526,4.1553,2.59096
483,498,4.16394,-2.46173,0.000129228,0.00106727,-0.000541573,0.00131468,-0.000118189,-1.14226,0.00091839,0.00744015,1707,526,4.1639,2.46172
490,498,4.15479,-2.3551,0.000298246,0.00101642,-0.000651809,0.00140151,-8.6842e-05,-1.03717,0.000964593,0.00944941,1714,526,4.15483,2.35511
497,498,4.16724,-2.23358,0.000449526,0.000988901,-0.000785325,0.00154956,-0.000111128,-0.950794,0.001072,0.0113766,1721,526,4.1673,2.23355
504,498,4.16309,-2.08606,0.000813144,0.0010184,-0.000959711,0.00188096,-4.94095e-05,-0.838665,0.00127076,0.0128287,1728,526,4.16308,2.08606
511,498,4.16199,-1.95367,0.00180483,0.0010434,-0.00070692,0.00222704,0.000621198,-0.538392,0.00132701,0.0142317,1735,526,4.16196,1.95367
518,498,4.19019,-1.82861,0.00305962,0.00128738,-0.000190723,0.00307991,0.00126709,-0.106,0.00178747,0.0162364,1742,526,4.19023,1.8286
525,498,4.14233,-1.71191,0.00481279,0.00187716,0.000748307,0.00499253,0.00169742,0.235732,0.00293122,0.0218407,1749,526,4.14232,1.71189
532,498,4.13684,-1.60944,0.00714742,0.00254692,0.00211638,0.00797291,0.00172144,0.371895,0.0048445,0.0293712,1756,526,4.13689,1.60941
539,498,4.29163,-1.51154,0.0104648,0.00374754,0.00429304,0.0125569,0.00165542,0.453459,0.00787764,0.0374422,1763,526,4.29163,1.51154
546,498,4.37109,-1.25793,0.0149745,0.00561852,0.00743911,0.0190842,0.00150879,0.504721,0.0122509,0.047742,1770,526,4.37114,1.25793
553,498,4.297,-0.995178,0,0,0,0,0,0,0,-1,1777,526,4.29703,0.995197
560,498,4.40808,-1.17322,0,0,0,0,0,0,0,-1,1784,526,4.40806,1.17324
567,498,5.12695,-0.581604,0,0,0,0,0,0,0,-1,1791,526,5.12699,0.58159
574,498,3.88,0.0286255,0,0,0,0,0,0,0,-1,1798,526,3.87999,-0.0286535
581,498,10.8722,2.58551,0,0,0,0,0,0,0,-1,1805,526,10.8723,-2.58551
588,498,0,0,0,0,0,0,0,0,0,-1,1812,526,0,0
595,498,0,0,0,0,0,0,0,0,0,-1,1819,526,0,0
602,498,0,0,0,0,0,0,0,0,0,-1,1826,526,0,0
609,498,0,0,0,0,0,0,0,0,0,-1,1833,526,0,0
616,498,0,0,0,0,0,0,0,0,0,-1,1840,526,0,0
623,498,0,0,0,0,0,0,0,0,0,-1,1847,526,0,0
630,498,0,0,0,0,0,0,0,0,0,-1,1854,526,0,0
637,498,0,0,0,0,0,0,0,0,0,-1,1861,526,0,0
644,498,0,0,0,0,0,0,0,0,0,-1,1868,526,0,0
651,498,0,0,0,0,0,0,0,0,0,-1,1875,526,0,0
658,498,0,0,0,0,0,0,0,0,0,-1,1882,526,0,0
665,498,0,0,0,0,0,0,0,0,0,-1,1889,526,0,0
672,498,0,0,0,0,0,0,0,0,0,-1,1896,526,0,0
679,498,0,0,0,0,0,0,0,0,0,-1,1903,526,0,0
686,498,0,0,0,0,0,0,0,0,0,-1,1910,526,0,0
693,498,0,0,0,0,0,0,0,0,0,-1,1917,526,0,0
700,498,0,0,0,0,0,0,0,0,0,-1,1924,526,0,0
707,498,0,0,0,0,0,0,0,0,0,-1,1931,526,0,0
714,498,0,0,0,0,0,0,0,0,0,-1,1938,526,0,0
721,498,0,0,0,0,0,0,0,0,0,-1,1945,526,0,0
728,498,0,0,0,0,0,0,0,0,0,-1,1952,526,0,0
735,498,0,0,0,0,0,0,0,0,0,-1,1959,526,0,0
742,498,0,0,0,0,0,0,0,0,0,-1,1966,526,0,0
749,498,0,0,0,0,0,0,0,0,0,-1,1973,526,0,0
756,498,0,0,0,0,0,0,0,0,0,-1,1980,526,0,0
763,498,0,0,0,0,0,0,0,0,0,-1,1987,526,0,0
770,498,0,0,0,0,0,0,0,0,0,-1,1994,526,0,0
777,498,0,0,0,0,0,0,0,0,0,-1,2001,526,0,0
784,498,0,0,0,0,0,0,0,0,0,-1,2008,526,0,0
791,498,0,0,0,0,0,0,0,0,0,-1,2015,526,0,0
798,498,0,0,0,0,0,0,0,0,0,-1,2022,526,0,0
805,498,0,0,0,0,0,0,0,0,0,-1,2029,526,0,0
812,498,0,0,0,0,0,0,0,0,0,-1,2036,526,0,0
-700,491,0,0,0,0,0,0,0,0,0,-1,524,533,0,0
-693,491,0,0,0,0,0,0,0,0,0,-1,531,533,0,0
-686,491,0,0,0,0,0,0,0,0,0,-1,538,533,0,0
-679,491,0,0,0,0,0,0,0,0,0,-1,545,533,0,0
-672,491,0,0,0,0,0,0,0,0,0,-1,552,533,0,0
-665,491,0,0,0,0,0,0,0,0,0,-1,559,533,0,0
-658,491,0,0,0,0,0,0,0,0,0,-1,566,533,0,0
-651,491,0,0,0,0,0,0,0,0,0,-1,573,533,0,0
-644,491,0,0,0,0,0,0,0,0,0,-1,580,533,0,0
-637,491,0,0,0,0,0,0,0,0,0,-1,587,533,0,0
-630,491,0,0,0,0,0,0,0,0,0,-1,594,533,0,0
-623,491,0,0,0,0,0,0,0,0,0,-1,601,533,0,0
-616,491,0,0,0,0,0,0,0,0,0,-1,608,533,0,0
-609,491,0,0,0,0,0,0,0,0,0,-1,615,533,0,0
-602,491,0,0,0,0,0,0,0,0,0,-1,622,533,0,0
-595,491,0,0,0,0,0,0,0,0,0,-1,629,533,0,0
-588,491,0,0,0,0,0,0,0,0,0,-1,636,533,0,0
-581,491,0,0,0,0,0,0,0,0,0,-1,643,533,0,0
-574,491,0,0,0,0,0,0,0,0,0,-1,650,533,0,0
-567,491,0,0,0,0,0,0,0,0,0,-1,657,533,0,0
-560,491,0,0,0,0,0,0,0,0,0,-1,664,533,0,0
-553,491,0,0,0,0,0,0,0,0,0,-1,671,533,0,0
-546,491,0,0,0,0,0,0,0,0,0,-1,678,533,0,0
-539,491,0,0,0,0,0,0,0,0,0,-1,685,533,0,0
-532,491,0,0,0,0,0,0,0,0,0,-1,692,533,0,0
-525,491,0,0,0,0,0,0,0,0,0,-1,699,533,0,0
-518,491,0,0,0,0,0,0,0,0,0,-1,706,533,0,0
-511,491,0,0,0,0,0,0,0,0,0,-1,713,533,0,0
-504,491,0,0,0,0,0,0,0,0,0,-1,720,533,0,0
-497,491,0,0,0,0,0,0,0,0,0,-1,727,533,0,0
-490,491,0,0,0,0,0,0,0,0,0,-1,734,533,0,0
-483,491,0,0,0,0,0,0,0,0,0,-1,741,533,0,0
-476,491,0,0,0,0,0,0,0,0,0,-1,748,533,0,0
-469,491,2.00677,-4.70795,0,0,0,0,0,0,0,-1,755,533,2.00677,4.70798
-462,491,3.07416,-6.21747,0,0,0,0,0,0,0,-1,762,533,3.07414,6.21748
-455,491,0.117554,1.81335,0,0,0,0,0,0,0,-1,769,533,0.117557,-1.81335
-448,491,0.76239,1.08215,0.0278214,0.106467,0.00086392,0.106477,0.0278119,1.55981,0.0637687,0.0450791,776,533,0.762409,-1.08214
-441,491,1.14703,0.438049,0.0215628,0.0841346,-0.0012428,0.0841593,0.0215381,-1.55094,0.0504823,0.0445863,783,533,1.14703,-0.438043
-434,491,0.553955,-1.47296,0.016023,0.0653967,-0.0020016,0.0654777,0.015942,-1.53035,0.0394272,0.0454634,790,533,0.55397,1.47295
-427,491,0.409973,-1.7558,0.0113809,0.0500146,-0.00210665,0.0501291,0.0112664,-1.51648,0.0303688,0.0496173,797,533,0.409978,1.75578
-420,491,0.32782,-2.04382,0.00781458,0.037616,-0.00197519,0.0377463,0.00768424,-1.5049,0.0230341,0.046567,804,533,0.327823,2.04381
-413,491,0.422974,-2.23901,0.00514316,0.0278366,-0.00168429,0.027961,0.00501883,-1.49712,0.0172133,0.0350955,811,533,0.422972,2.23898
-406,491,0.509216,-2.39893,0.00321046,0.0202336,-0.00137218,0.0203435,0.00310057,-1.49088,0.012656,0.0188856,818,533,0.509188,2.39893
-399,491,0.506775,-2.52142,0.00188672,0.0144062,-0.00112966,0.0145073,0.0017856,-1.48152,0.0091347,0.0109205,825,533,0.50677,2.52142
-392,491,0.492249,-2.64594,0.000787806,0.00919874,-0.00116928,0.00935826,0.00062828,-1.4352,0.00604032,0.00928603,832,533,0.492229,2.64594
-385,491,0.493408,-2.75525,0.000197463,0.0054515,-0.00108952,0.00566847,-1.95077e-05,-1.37422,0.0037855,0.00836225,839,533,0.493434,2.75526
-378,491,0.509949,-2.86566,0.000127736,0.00336956,-0.000745599,0.00353282,-3.55256e-05,-1.35523,0.00236714,0.0122423,846,533,0.509925,2.86567
-371,491,0.513916,-2.97589,0.000289001,0.00212203,-0.000614476,0.00230896,0.000102076,-1.27549,0.00150643,0.0140067,853,533,0.513941,2.9759
-364,491,0.508667,-3.09607,0.000513781,0.00128619,-0.000637164,0.00164506,0.000154914,-1.05786,0.00104889,0.0129743,860,533,0.508654,3.0961
-357,491,0.50885,-3.2113,0.00055693,0.00111699,-0.000681219,0.00157349,0.000100431,-0.980406,0.00101717,0.0112431,867,533,0.508824,3.2113
-350,491,0.502441,-3.32965,0.000383455,0.00115055,-0.000590452,0.0014711,6.29138e-05,-1.07344,0.000960446,0.0146688,874,533,0.502472,3.32963
-343,491,0.505737,-3.44775,0.000355841,0.00115605,-0.000235023,0.00121997,0.00029192,-1.30524,0.000735576,0.0232056,881,533,0.50571,3.44778
-336,491,0.514648,-3.53632,0.000505449,0.00149965,-0.000138783,0.00151866,0.000486439,-1.43467,0.000895471,0.0230383,888,533,0.514634,3.53634
-329,491,0.528503,-3.67755,0.00013348,0.00197641,0.000174353,0.00199275,0.00011713,1.4773,0.00129123,0.023224,895,533,0.528478,3.67756
-322,491,0.540771,-3.80658,-0.000438174,0.00315951,0.000399116,0.00320325,-0.000481919,1.46163,0.00231294,0.0216166,902,533,0.540752,3.80655
-315,491,0.492065,-3.89807,-0.000733878,0.00439827,0.000529924,0.00445242,-0.000788025,1.46897,0.00326283,0.0157371,909,533,0.49204,3.89805
-308,491,0.551514,-4.05066,-0.000951742,0.00608564,0.000598616,0.0061362,-0.0010023,1.48654,0.00446258,0.028471,916,533,0.551514,4.05067
-301,491,0.302795,-4.06696,-0.00192613,0.0074642,0.00447799,0.00925725,-0.00371919,1.18993,0.00771603,0.0451414,923,533,0.302803,4.06696
-294,491,-0.0360718,-4.31647,-0.00319217,0.00797276,0.0114823,0.0151577,-0.0103772,1.01166,0.0148285,0.0419634,930,533,-0.0360502,4.31644
-287,491,0.753235,-4.65173,-0.00388781,0.00736222,0.0202605,0.022764,-0.0192896,0.920805,0.0243073,0.0490461,937,533,0.753229,4.65174
-280,491,0.348877,-4.5957,0,0,0,0,0,0,0,-1,944,533,0.348862,4.59571
-273,491,0.369995,-5.33691,0,0,0,0,0,0,0,-1,951,533,0.369985,5.33693
-266,491,1.1167,-5.0321,0,0,0,0,0,0,0,-1,958,533,1.11668,5.0321
-259,491,-1.94843,-11.5449,0,0,0,0,0,0,0,-1,965,533,-1.94843,11.5449
-252,491,-2.31158,-9.99011,0.000346922,-0.0437277,0.0886346,0.0696427,-0.113023,0.663553,0.106449,0.0471828,972,533,-2.31159,9.99012
-245,491,-2.67273,-8.47705,0.00414621,-0.0602483,0.099485,0.0765144,-0.132616,0.628898,0.122181,0.0464336,979,533,-2.67274,8.47705
-238,491,-2.87109,-7.07922,0.00693137,-0.0778032,0.107035,0.0796792,-0.150551,0.596947,0.135006,0.0445347,986,533,-2.87108,7.07921
-231,491,-2.87183,-5.23248,0.00938514,-0.0974456,0.114243,0.0820837,-0.170144,0.566719,0.148553,0.0455766,993,533,-2.8718,5.23246
-224,491,-2.80273,-3.32587,0,0,0,0,0,0,0,-1,1000,533,-2.80274,3.32588
-217,491,1.34406,0.619507,0.0274821,-0.139266,0.112666,0.0842686,-0.196052,0.466861,0.166077,0.0480906,1007,533,1.34404,-0.619521
-210,491,0.459045,2.6192,0.0400528,-0.160609,0.104513,0.084599,-0.205155,0.402907,0.172048,0.0472819,1014,533,0.459065,-2.61917
-203,491,0.417419,4.77161,0.0547942,-0.182662,0.0949115,0.088068,-0.215936,0.337188,0.180618,0.0497512,1021,533,0.417446,-4.77162
-196,491,0,0,0,0,0,0,0,0,0,-1,1028,533,0,0
-189,491,0,0,0,0,0,0,0,0,0,-1,1035,533,0,0
-182,491,0,0,0,0,0,0,0,0,0,-1,1042,533,0,0
-175,491,0,0,0,0,0,0,0,0,0,-1,1049,533,0,0
-168,491,0,0,0,0,0,0,0,0,0,-1,1056,533,0,0
-161,491,0,0,0,0,0,0,0,0,0,-1,1063,533,0,0
-154,491,0,0,0,0,0,0,0,0,0,-1,1070,533,0,0
-147,491,0,0,0,0,0,0,0,0,0,-1,1077,533,0,0
-140,491,0,0,0,0,0,0,0,0,0,-1,1084,533,0,0
-133,491,0,0,0,0,0,0,0,0,0,-1,1091,533,0,0
-126,491,0,0,0,0,0,0,0,0,0,-1,1098,533,0,0
-119,491,0,0,0,0,0,0,0,0,0,-1,1105,533,0,0
-112,491,0,0,0,0,0,0,0,0,0,-1,1112,533,0,0
-105,491,0,0,0,0,0,0,0,0,0,-1,1119,533,0,0
-98,491,0,0,0,0,0,0,0,0,0,-1,1126,533,0,0
-91,491,0,0,0,0,0,0,0,0,0,-1,1133,533,0,0
-84,491,0,0,0,0,0,0,0,0,0,-1,1140,533,0,0
-77,491,0,0,0,0,0,0,0,0,0,-1,1147,533,0,0
-70,491,0,0,0,0,0,0,0,0,0,-1,1154,533,0,0
-63,491,0,0,0,0,0,0,0,0,0,-1,1161,533,0,0
-56,491,0,0,0,0,0,0,0,0,0,-1,1168,533,0,0
-49,491,0,0,0,0,0,0,0,0,0,-1,1175,533,0,0
-42,491,0,0,0,0,0,0,0,0,0,-1,1182,533,0,0
-35,491,0,0,0,0,0,0,0,0,0,-1,1189,533,0,0
-28,491,0,0,0,0,0,0,0,0,0,-1,1196,533,0,0
-21,491,0,0,0,0,0,0,0,0,0,-1,1203,533,0,0
-14,491,0,0,0,0,0,0,0,0,0,-1,1210,533,0,0
-7,491,0,0,0,0,0,0,0,0,0,-1,1217,533,0,0
0,491,0,0,0,0,0,0,0,0,0,-1,1224,533,0,0
7,491,0,0,0,0,0,0,0,0,0,-1,1231,533,0,0
14,491,0,0,0,0,0,0,0,0,0,-1,1238,533,0,0
21,491,0,0,0,0,0,0,0,0,0,-1,1245,533,0,0
28,491,0,0,0,0,0,0,0,0,0,-1,1252,533,0,0
35,491,0,0,0,0,0,0,0,0,0,-1,1259,533,0,0
42,491,0,0,0,0,0,0,0,0,0,-1,1266,533,0,0
49,491,0,0,0,0,0,0,0,0,0,-1,1273,533,0,0
56,491,0,0,0,0,0,0,0,0,0,-1,1280,533,0,0
63,491,0,0,0,0,0,0,0,0,0,-1,1287,533,0,0
70,491,0,0,0,0,0,0,0,0,0,-1,1294,533,0,0
77,491,0,0,0,0,0,0,0,0,0,-1,1301,533,0,0
84,491,0,0,0,0,0,0,0,0,0,-1,1308,533,0,0
91,491,0,0,0,0,0,0,0,0,0,-1,1315,533,0,0
98,491,0,0,0,0,0,0,0,0,0,-1,1322,533,0,0
105,491,0,0,0,0,0,0,0,0,0,-1,1329,533,0,0
112,491,0,0,0,0,0,0,0,0,0,-1,1336,533,0,0
119,491,0,0,0,0,0,0,0,0,0,-1,1343,533,0,0
126,491,0,0,0,0,0,0,0,0,0,-1,1350,533,0,0
133,491,0,0,0,0,0,0,0,0,0,-1,1357,533,0,0
140,491,0,0,0,0,0,0,0,0,0,-1,1364,533,0,0
147,491,0,0,0,0,0,0,0,0,0,-1,1371,533,0,0
154,491,0,0,0,0,0,0,0,0,0,-1,1378,533,0,0
161,491,0,0,0,0,0,0,0,0,0,-1,1385,533,0,0
168,491,0,0,0,0,0,0,0,0,0,-1,1392,533,0,0
175,491,0,0,0,0,0,0,0,0,0,-1,1399,533,0,0
182,491,0,0,0,0,0,0,0,0,0,-1,1406,533,0,0
189,491,0,0,0,0,0,0,0,0,0,-1,1413,533,0,0
196,491,0,0,0,0,0,0,0,0,0,-1,1420,533,0,0
203,491,0,0,0,0,0,0,0,0,0,-1,1427,533,0,0
210,491,0,0,0,0,0,0,0,0,0,-1,1434,533,0,0
217,491,0,0,0,0,0,0,0,0,0,-1,1441,533,0,0
224,491,0,0,0,0,0,0,0,0,0,-1,1448,533,0,0
231,491,0,0,0,0,0,0,0,0,0,-1,1455,533,0,0
238,491,0,0,0,0,0,0,0,0,0,-1,1462,533,0,0
245,491,0,0,0,0,0,0,0,0,0,-1,1469,533,0,0
252,491,0,0,0,0,0,0,0,0,0,-1,1476,533,0,0
259,491,0,0,0,0,0,0,0,0,0,-1,1483,533,0,0
266,491,0,0,0,0,0,0,0,0,0,-1,1490,533,0,0
273,491,0,0,0,0,0,0,0,0,0,-1,1497,533,0,0
280,491,0,0,0,0,0,0,0,0,0,-1,1504,533,0,0
287,491,0,0,0,0,0,0,0,0,0,-1,1511,533,0,0
294,491,0,0,0,0,0,0,0,0,0,-1,1518,533,0,0
301,491,0,0,0,0,0,0,0,0,0,-1,1525,533,0,0
308,491,0,0,0,0,0,0,0,0,0,-1,1532,533,0,0
315,491,0,0,0,0,0,0,0,0,0,-1,1539,533,0,0
322,491,4.26331,-0.734314,0,0,0,0,0,0,0,-1,1546,533,4.26326,0.734324
329,491,4.25354,-0.783752,0,0,0,0,0,0,0,-1,1553,533,4.25359,0.783734
336,491,4.81604,-0.722107,0,0,0,0,0,0,0,-1,1560,533,4.81605,0.722115
343,491,6.14478,-1.44281,0,0,0,0,0,0,0,-1,1567,533,6.14474,1.44281
350,491,6.36353,-1.30792,0,0,0,0,0,0,0,-1,1574,533,6.36352,1.3079
357,491,6.69482,-1.06018,0,0,0,0,0,0,0,-1,1581,533,6.69489,1.06018
364,491,8.01086,-1.69604,0,0,0,0,0,0,0,-1,1588,533,8.01087,1.69607
371,491,8.2135,-0.539307,0,0,0,0,0,0,0,-1,1595,533,8.21348,0.53929
378,491,8.13721,0.106812,0,0,0,0,0,0,0,-1,1602,533,8.13726,-0.106812
385,491,6.18787,-1.36023,0,0,0,0,0,0,0,-1,1609,533,6.18788,1.3602
392,491,6.07678,-2.30164,0.111647,-0.0124929,0.0230275,0.11578,-0.0166267,0.177627,0.0832843,0.0482621,1616,533,6.07673,2.30162
399,491,6.12305,-3.0899,0.0987732,-0.0121675,0.0180346,0.101631,-0.0150256,0.157171,0.073278,0.0433093,1623,533,6.12299,3.08989
406,491,5.06189,-3.04437,0,0,0,0,0,0,0,-1,1630,533,5.06184,3.04435
413,491,5.31848,-3.7124,0,0,0,0,0,0,0,-1,1637,533,5.31849,3.7124
420,491,4.21228,-3.40668,0,0,0,0,0,0,0,-1,1644,533,4.21233,3.40669
427,491,4.34326,-3.37061,0.0380378,-0.00641257,0.00235399,0.0381622,-0.00653688,0.0527609,0.0278771,0.0489505,1651,533,4.3433,3.37063
434,491,4.39368,-3.41925,0.0258656,-0.00475407,-0.00043423,0.0258718,-0.00476022,-0.0141776,0.019034,0.0324769,1658,533,4.39369,3.41927
441,491,4.28381,-3.27655,0.0118767,-0.00296921,-0.00349517,0.0126584,-0.00375092,-0.220033,0.00992828,0.0207781,1665,533,4.28381,3.27656
448,491,4.29932,-3.09576,-0.00202833,-0.00100499,-0.00537596,0.0038836,-0.00691691,-0.832844,0.00631712,0.0120514,1672,533,4.29926,3.09573
455,491,4.29358,-2.97211,-0.000879311,0.000341436,-0.00198274,0.00180562,-0.0023435,-0.934717,0.0024022,0.0110815,1679,533,4.29354,2.97212
462,491,4.27356,-2.8692,-6.63358e-05,0.00102951,-0.00101234,0.0016327,-0.000669525,-1.03345,0.00136742,0.0143532,1686,533,4.27354,2.86918
469,491,4.26392,-2.74622,1.52451e-05,0.00109074,-0.000653408,0.00139923,-0.000293242,-1.1297,0.00104438,0.0142117,1693,533,4.26387,2.74623
476,491,4.28687,-2.59399,-4.86307e-06,0.00105321,-0.000531453,0.00127405,-0.000225708,-1.17696,0.000933742,0.00962539,1700,533,4.28691,2.59401
483,491,4.29297,-2.45117,-3.5298e-05,0.0010762,-0.000442028,0.00123056,-0.000189652,-1.23484,0.000890347,0.0104968,1707,533,4.29293,2.45118
490,491,4.29675,-2.34631,9.33905e-05,0.000955402,-0.000448122,0.00114615,-9.73588e-05,-1.16836,0.000798535,0.00988894,1714,533,4.29674,2.34631
497,491,4.29626,-2.23456,0.00022364,0.000875995,-0.000482204,0.00113198,-3.2344e-05,-1.08276,0.000765662,0.0113078,1721,533,4.29621,2.23459
504,491,4.29321,-2.09485,0.00055325,0.00086884,-0.000531214,0.0012652,0.000156891,-0.92977,0.000796338,0.0123363,1728,533,4.29321,2.09483
511,491,4.27869,-1.94971,0.00148154,0.000875496,-0.00015385,0.00151836,0.000838677,-0.234902,0.000878227,0.0116453,1735,533,4.27863,1.94972
518,491,4.26819,-1.82733,0.00262533,0.00112558,0.000456428,0.00275332,0.00099759,0.273384,0.00160959,0.00926317,1742,533,4.26819,1.82736
525,491,4.29187,-1.69733,0.0042318,0.00170465,0.00145882,0.0048982,0.00103825,0.428497,0.00298029,0.00869358,1749,533,4.29186,1.6973
532,491,4.32739,-1.5741,0.00631601,0.00235946,0.00278163,0.00775109,0.000924374,0.476299,0.00488849,0.0127723,1756,533,4.32733,1.57408
539,491,4.31384,-1.46826,0.00917131,0.00344596,0.00473952,0.0118456,0.000771677,0.51372,0.00765282,0.0210524,1763,533,4.31383,1.46825
546,491,4.26599,-1.32239,0.0130442,0.00508111,0.007472,0.0175293,0.000596042,0.540603,0.0114926,0.0370473,1770,533,4.26601,1.32239
553,491,4.2113,-1.06512,0.0189925,0.00731315,0.0117104,0.0262385,6.714e-05,0.554105,0.01747,0.0469537,1777,533,4.21131,1.06515
560,491,4.13513,-0.903992,0,0,0,0,0,0,0,-1,1784,533,4.13513,0.903971
567,491,5.67651,-1.3562,0,0,0,0,0,0,0,-1,1791,533,5.67649,1.3562
574,491,8.0719,1.58325,0,0,0,0,0,0,0,-1,1798,533,8.07195,-1.58326
581,491,9.44812,1.60931,0,0,0,0,0,0,0,-1,1805,533,9.44808,-1.60933
588,491,11.0497,1.54962,0,0,0,0,0,0,0,-1,1812,533,11.0496,-1.54963
595,491,0,0,0,0,0,0,0,0,0,-1,1819,533,0,0
602,491,0,0,0,0,0,0,0,0,0,-1,1826,533,0,0
609,491,0,0,0,0,0,0,0,0,0,-1,1833,533,0,0
616,491,0,0,0,0,0,0,0,0,0,-1,1840,533,0,0
623,491,0,0,0,0,0,0,0,0,0,-1,1847,533,0,0
630,491,0,0,0,0,0,0,0,0,0,-1,1854,533,0,0
637,491,0,0,0,0,0,0,0,0,0,-1,1861,533,0,0
644,491,0,0,0,0,0,0,0,0,0,-1,1868,533,0,0
651,491,0,0,0,0,0,0,0,0,0,-1,1875,533,0,0
658,491,0,0,0,0,0,0,0,0,0,-1,1882,533,0,0
665,491,0,0,0,0,0,0,0,0,0,-1,1889,533,0,0
672,491,0,0,0,0,0,0,0,0,0,-1,1896,533,0,0
679,491,0,0,0,0,0,0,0,0,0,-1,1903,533,0,0
686,491,0,0,0,0,0,0,0,0,0,-1,1910,533,0,0
693,491,0,0,0,0,0,0,0,0,0,-1,1917,533,0,0
700,491,0,0,0,0,0,0,0,0,0,-1,1924,533,0,0
707,491,0,0,0,0,0,0,0,0,0,-1,1931,533,0,0
714,491,0,0,0,0,0,0,0,0,0,-1,1938,533,0,0
721,491,0,0,0,0,0,0,0,0,0,-1,1945,533,0,0
728,491,0,0,0,0,0,0,0,0,0,-1,1952,533,0,0
735,491,0,0,0,0,0,0,0,0,0,-1,1959,533,0,0
742,491,0,0,0,0,0,0,0,0,0,-1,1966,533,0,0
749,491,0,0,0,0,0,0,0,0,0,-1,1973,533,0,0
756,491,0,0,0,0,0,0,0,0,0,-1,1980,533,0,0
763,491,0,0,0,0,0,0,0,0,0,-1,1987,533,0,0
770,491,0,0,0,0,0,0,0,0,0,-1,1994,533,0,0
777,491,0,0,0,0,0,0,0,0,0,-1,2001,533,0,0
784,491,0,0,0,0,0,0,0,0,0,-1,2008,533,0,0
791,491,0,0,0,0,0,0,0,0,0,-1,2015,533,0,0
798,491,0,0,0,0,0,0,0,0,0,-1,2022,533,0,0
805,491,0,0,0,0,0,0,0,0,0,-1,2029,533,0,0
812,491,0,0,0,0,0,0,0,0,0,-1,2036,533,0,0
-700,484,0,0,0,0,0,0,0,0,0,-1,524,540,0,0
-693,484,0,0,0,0,0,0,0,0,0,-1,531,540,0,0
-686,484,0,0,0,0,0,0,0,0,0,-1,538,540,0,0
-679,484,0,0,0,0,0,0,0,0,0,-1,545,540,0,0
-672,484,0,0,0,0,0,0,0,0,0,-1,552,540,0,0
-665,484,0,0,0,0,0,0,0,0,0,-1,559,540,0,0
-658,484,0,0,0,0,0,0,0,0,0,-1,566,540,0,0
-651,484,0,0,0,0,0,0,0,0,0,-1,573,540,0,0
-644,484,0,0,0,0,0,0,0,0,0,-1,580,540,0,0
-637,484,0,0,0,0,0,0,0,0,0,-1,587,540,0,0
-630,484,0,0,0,0,0,0,0,0,0,-1,594,540,0,0
-623,484,0,0,0,0,0,0,0,0,0,-1,601,540,0,0
-616,484,0,0,0,0,0,0,0,0,0,-1,608,540,0,0
-609,484,0,0,0,0,0,0,0,0,0,-1,615,540,0,0
-602,484,0,0,0,0,0,0,0,0,0,-1,622,540,0,0
-595,484,0,0,0,0,0,0,0,0,0,-1,629,540,0,0
-588,484,0,0,0,0,0,0,0,0,0,-1,636,540,0,0
-581,484,0,0,0,0,0,0,0,0,0,-1,643,540,0,0
-574,484,0,0,0,0,0,0,0,0,0,-1,650,540,0,0
-567,484,0,0,0,0,0,0,0,0,0,-1,657,540,0,0
-560,484,0,0,0,0,0,0,0,0,0,-1,664,540,0,0
-553,484,0,0,0,0,0,0,0,0,0,-1,671,540,0,0
-546,484,0,0,0,0,0,0,0,0,0,-1,678,540,0,0
-539,484,0,0,0,0,0,0,0,0,0,-1,685,540,0,0
-532,484,0,0,0,0,0,0,0,0,0,-1,692,540,0,0
-525,484,0,0,0,0,0,0,0,0,0,-1,699,540,0,0
-518,484,0,0,0,0,0,0,0,0,0,-1,706,540,0,0
-511,484,0,0,0,0,0,0,0,0,0,-1,713,540,0,0
-504,484,0,0,0,0,0,0,0,0,0,-1,720,540,0,0
-497,484,0,0,0,0,0,0,0,0,0,-1,727,540,0,0
-490,484,0,0,0,0,0,0,0,0,0,-1,734,540,0,0
-483,484,0,0,0,0,0,0,0,0,0,-1,741,540,0,0
-476,484,0.867371,-2.62134,0,0,0,0,0,0,0,-1,748,540,0.867375,2.62136
-469,484,1.74518,-4.16571,0,0,0,0,0,0,0,-1,755,540,1.74517,4.16574
-462,484,2.78461,-5.66858,0,0,0,0,0,0,0,-1,762,540,2.78458,5.66858
-455,484,-1.17438,0.55188,0,0,0,0,0,0,0,-1,769,540,-1.17438,-0.55191
-448,484,-0.499817,-0.238708,0.0226338,0.0862321,-0.000547795,0.0862368,0.022629,-1.56218,0.0516286,0.0480987,776,540,-0.499809,0.238725
-441,484,-0.0995483,-0.745422,0.017791,0.0684246,-0.00182834,0.0684905,0.017725,-1.53475,0.0410481,0.0434319,783,540,-0.0995373,0.745409
-434,484,0.296387,-1.45929,0.0136051,0.0532446,-0.00228156,0.0533755,0.0134742,-1.51349,0.0320507,0.043236,790,540,0.296368,1.45926
-427,484,0.285706,-1.8941,0.010091,0.0406332,-0.00228314,0.0408029,0.00992125,-1.49659,0.0245718,0.0396799,797,540,0.285704,1.89412
-420,484,0.319519,-2.12012,0.0072581,0.0304094,-0.00204528,0.0305887,0.00707881,-1.48335,0.0184902,0.0307812,804,540,0.319517,2.12014
-413,484,0.376404,-2.24487,0.00506086,0.0223168,-0.00171242,0.022485,0.00489257,-1.47283,0.0136545,0.0183031,811,540,0.376391,2.2449
-406,484,0.416992,-2.3855,0.00343478,0.0160493,-0.00135872,0.016194,0.00329009,-1.46471,0.00988354,0.0115684,818,540,0.417018,2.38549
-399,484,0.398193,-2.513,0.00221801,0.0112043,-0.00107347,0.0113308,0.00209155,-1.45354,0.00696219,0.0150441,825,540,0.398192,2.51302
-392,484,0.385132,-2.64716,0.00108973,0.00679778,-0.00102831,0.00697738,0.00091013,-1.39788,0.00437985,0.0165351,832,540,0.385152,2.64718
-385,484,0.376343,-2.76593,0.000470757,0.0037022,-0.000881091,0.00392682,0.000246131,-1.32117,0.00253982,0.0116265,839,540,0.376324,2.76592
-378,484,0.373962,-2.88367,0.000347701,0.00203326,-0.000541446,0.0021922,0.000188762,-1.28527,0.00140279,0.0125972,846,540,0.373973,2.88368
-371,484,0.385742,-2.98718,0.000360957,0.00119309,-0.000405398,0.00135794,0.000196111,-1.18459,0.000847517,0.0143639,853,540,0.385744,2.98717
-364,484,0.388184,-3.07751,0.000486041,0.000645511,-0.000405213,0.000978759,0.000152792,-0.882543,0.000608009,0.0104743,860,540,0.388185,3.07752
-357,484,0.377686,-3.21289,0.000500084,0.000514409,-0.000470546,0.000977847,3.66462e-05,-0.793009,0.000640032,0.0114304,867,540,0.377703,3.21292
-350,484,0.381104,-3.3208,0.000316099,0.000631715,-0.000373396,0.000879281,6.85338e-05,-0.985329,0.00056473,0.0141644,874,540,0.381109,3.3208
-343,484,0.381775,-3.4386,0.000306357,0.000757172,-2.67582e-05,0.000758755,0.000304774,-1.51172,0.000440882,0.0222227,881,540,0.381802,3.43857
-336,484,0.40448,-3.54651,0.000592059,0.00126371,3.19693e-05,0.00126523,0.000590541,1.52334,0.000731019,0.0252664,888,540,0.404471,3.5465
-329,484,0.353882,-3.6488,0.000389332,0.00192255,0.000282131,0.00197282,0.000339065,1.39448,0.00121803,0.0259822,895,540,0.353885,3.64878
-322,484,0.454163,-3.81964,-1.69415e-05,0.00341808,0.000401876,0.00346447,-6.33319e-05,1.45587,0.00233105,0.026271,902,540,0.454161,3.81962
-315,484,0.384338,-3.88428,-0.000184386,0.0050909,0.000445639,0.00512828,-0.000221767,1.48711,0.00349512,0.0291233,909,540,0.384325,3.88427
-308,484,0.0855103,-4.00208,-0.000303871,0.00726126,0.000417202,0.0072842,-0.000326809,1.51587,0.00496865,0.039509,916,540,0.0854993,4.00205
-301,484,-0.185181,-4.33569,-0.00139067,0.00894924,0.00537989,0.0112406,-0.00368206,1.16815,0.00897647,0.0455005,923,540,-0.18521,4.33569
-294,484,-0.762512,-4.52704,0,0,0,0,0,0,0,-1,930,540,-0.762535,4.52702
-287,484,0.833008,-4.93561,0,0,0,0,0,0,0,-1,937,540,0.833021,4.93559
-280,484,2.66742,-1.6795,0,0,0,0,0,0,0,-1,944,540,2.6674,1.67949
-273,484,2.53125,-2.22296,0,0,0,0,0,0,0,-1,951,540,2.53128,2.22295
-266,484,2.6778,-2.72058,0,0,0,0,0,0,0,-1,958,540,2.6778,2.72061
-259,484,2.41718,-2.59894,0,0,0,0,0,0,0,-1,965,540,2.41717,2.59892
-252,484,-3.10065,-9.58044,0,0,0,0,0,0,0,-1,972,540,-3.10064,9.58046
-245,484,-3.35974,-8.39661,0,0,0,0,0,0,0,-1,979,540,-3.35974,8.3966
-238,484,-3.27533,-6.60632,0,0,0,0,0,0,0,-1,986,540,-3.27534,6.60634
-231,484,-3.19092,-4.8161,0,0,0,0,0,0,0,-1,993,540,-3.19095,4.81609
-224,484,3.11346,0.200012,0,0,0,0,0,0,0,-1,1000,540,3.11344,-0.20003
-217,484,2.00854,2.00867,0,0,0,0,0,0,0,-1,1007,540,2.00857,-2.00865
-210,484,0,0,0,0,0,0,0,0,0,-1,1014,540,0,0
-203,484,0,0,0,0,0,0,0,0,0,-1,1021,540,0,0
-196,484,0,0,0,0,0,0,0,0,0,-1,1028,540,0,0
-189,484,0,0,0,0,0,0,0,0,0,-1,1035,540,0,0
-182,484,0,0,0,0,0,0,0,0,0,-1,1042,540,0,0
-175,484,0,0,0,0,0,0,0,0,0,-1,1049,540,0,0
-168,484,0,0,0,0,0,0,0,0,0,-1,1056,540,0,0
-161,484,0,0,0,0,0,0,0,0,0,-1,1063,540,0,0
-154,484,0,0,0,0,0,0,0,0,0,-1,1070,540,0,0
-147,484,0,0,0,0,0,0,0,0,0,-1,1077,540,0,0
-140,484,0,0,0,0,0,0,0,0,0,-1,1084,540,0,0
-133,484,0,0,0,0,0,0,0,0,0,-1,1091,540,0,0
-126,484,0,0,0,0,0,0,0,0,0,-1,1098,540,0,0
-119,484,0,0,0,0,0,0,0,0,0,-1,1105,540,0,0
-112,484,0,0,0,0,0,0,0,0,0,-1,1112,540,0,0
-105,484,0,0,0,0,0,0,0,0,0,-1,1119,540,0,0
-98,484,0,0,0,0,0,0,0,0,0,-1,1126,540,0,0
-91,484,0,0,0,0,0,0,0,0,0,-1,1133,540,0,0
-84,484,0,0,0,0,0,0,0,0,0,-1,1140,540,0,0
-77,484,0,0,0,0,0,0,0,0,0,-1,1147,540,0,0
-70,484,0,0,0,0,0,0,0,0,0,-1,1154,540,0,0
-63,484,0,0,0,0,0,0,0,0,0,-1,1161,540,0,0
-56,484,0,0,0,0,0,0,0,0,0,-1,1168,540,0,0
-49,484,0,0,0,0,0,0,0,0,0,-1,1175,540,0,0
-42,484,0,0,0,0,0,0,0,0,0,-1,1182,540,0,0
-35,484,0,0,0,0,0,0,0,0,0,-1,1189,540,0,0
-28,484,0,0,0,0,0,0,0,0,0,-1,1196,540,0,0
-21,484,0,0,0,0,0,0,0,0,0,-1,1203,540,0,0
-14,484,0,0,0,0,0,0,0,0,0,-1,1210,540,0,0
-7,484,0,0,0,0,0,0,0,0,0,-1,1217,540,0,0
0,484,0,0,0,0,0,0,0,0,0,-1,1224,540,0,0
7,484,0,0,0,0,0,0,0,0,0,-1,1231,540,0,0
14,484,0,0,0,0,0,0,0,0,0,-1,1238,540,0,0
21,484,0,0,0,0,0,0,0,0,0,-1,1245,540,0,0
28,484,0,0,0,0,0,0,0,0,0,-1,1252,540,0,0
35,484,0,0,0,0,0,0,0,0,0,-1,1259,540,0,0
42,484,0,0,0,0,0,0,0,0,0,-1,1266,540,0,0
49,484,0,0,0,0,0,0,0,0,0,-1,1273,540,0,0
56,484,0,0,0,0,0,0,0,0,0,-1,1280,540,0,0
63,484,0,0,0,0,0,0,0,0,0,-1,1287,540,0,0
70,484,0,0,0,0,0,0,0,0,0,-1,1294,540,0,0
77,484,0,0,0,0,0,0,0,0,0,-1,1301,540,0,0
84,484,0,0,0,0,0,0,0,0,0,-1,1308,540,0,0
91,484,0,0,0,0,0,0,0,0,0,-1,1315,540,0,0
98,484,0,0,0,0,0,0,0,0,0,-1,1322,540,0,0
105,484,0,0,0,0,0,0,0,0,0,-1,1329,540,0,0
112,484,0,0,0,0,0,0,0,0,0,-1,1336,540,0,0
119,484,0,0,0,0,0,0,0,0,0,-1,1343,540,0,0
126,484,0,0,0,0,0,0,0,0,0,-1,1350,540,0,0
133,484,0,0,0,0,0,0,0,0,0,-1,1357,540,0,0
140,484,0,0,0,0,0,0,0,0,0,-1,1364,540,0,0
147,484,0,0,0,0,0,0,0,0,0,-1,1371,540,0,0
154,484,0,0,0,0,0,0,0,0,0,-1,1378,540,0,0
161,484,0,0,0,0,0,0,0,0,0,-1,1385,540,0,0
168,484,0,0,0,0,0,0,0,0,0,-1,1392,540,0,0
175,484,0,0,0,0,0,0,0,0,0,-1,1399,540,0,0
182,484,0,0,0,0,0,0,0,0,0,-1,1406,540,0,0
189,484,0,0,0,0,0,0,0,0,0,-1,1413,540,0,0
196,484,0,0,0,0,0,0,0,0,0,-1,1420,540,0,0
203,484,0,0,0,0,0,0,0,0,0,-1,1427,540,0,0
210,484,0,0,0,0,0,0,0,0,0,-1,1434,540,0,0
217,484,0,0,0,0,0,0,0,0,0,-1,1441,540,0,0
224,484,0,0,0,0,0,0,0,0,0,-1,1448,540,0,0
231,484,0,0,0,0,0,0,0,0,0,-1,1455,540,0,0
238,484,0,0,0,0,0,0,0,0,0,-1,1462,540,0,0
245,484,0,0,0,0,0,0,0,0,0,-1,1469,540,0,0
252,484,0,0,0,0,0,0,0,0,0,-1,1476,540,0,0
259,484,0,0,0,0,0,0,0,0,0,-1,1483,540,0,0
266,484,0,0,0,0,0,0,0,0,0,-1,1490,540,0,0
273,484,0,0,0,0,0,0,0,0,0,-1,1497,540,0,0
280,484,0,0,0,0,0,0,0,0,0,-1,1504,540,0,0
287,484,0,0,0,0,0,0,0,0,0,-1,1511,540,0,0
294,484,0,0,0,0,0,0,0,0,0,-1,1518,540,0,0
301,484,0,0,0,0,0,0,0,0,0,-1,1525,540,0,0
308,484,0,0,0,0,0,0,0,0,0,-1,1532,540,0,0
315,484,0,0,0,0,0,0,0,0,0,-1,1539,540,0,0
322,484,0,0,0,0,0,0,0,0,0,-1,1546,540,0,0
329,484,0,0,0,0,0,0,0,0,0,-1,1553,540,0,0
336,484,4.38708,-1.64136,0,0,0,0,0,0,0,-1,1560,540,4.38704,1.64138
343,484,7.57996,-1.05457,0,0,0,0,0,0,0,-1,1567,540,7.57995,1.05454
350,484,8.10425,-1.18878,0,0,0,0,0,0,0,-1,1574,540,8.1043,1.18877
357,484,7.74902,-3.80286,0,0,0,0,0,0,0,-1,1581,540,7.74901,3.80287
364,484,6.31262,-3.87213,0,0,0,0,0,0,0,-1,1588,540,6.31263,3.87215
371,484,7.46057,-3.33777,0,0,0,0,0,0,0,-1,1595,540,7.46052,3.33774
378,484,8.10449,-2.72882,0,0,0,0,0,0,0,-1,1602,540,8.10453,2.72883
385,484,7.25964,-0.819519,0,0,0,0,0,0,0,-1,1609,540,7.25965,0.819511
392,484,6.61267,-2.1994,0,0,0,0,0,0,0,-1,1616,540,6.61264,2.19942
399,484,7.14417,-2.5639,0,0,0,0,0,0,0,-1,1623,540,7.14417,2.56391
406,484,7.88953,-2.47321,0,0,0,0,0,0,0,-1,1630,540,7.88954,2.47323
413,484,4.4895,-1.08673,0,0,0,0,0,0,0,-1,1637,540,4.48952,1.08674
420,484,4.50012,-2.11255,0,0,0,0,0,0,0,-1,1644,540,4.50012,2.11256
427,484,4.646,-3.24493,0,0,0,0,0,0,0,-1,1651,540,4.64599,3.24492
434,484,4.6864,-3.4613,0,0,0,0,0,0,0,-1,1658,540,4.68642,3.46131
441,484,4.47778,-3.35486,0,0,0,0,0,0,0,-1,1665,540,4.47775,3.35487
448,484,4.44287,-3.13696,-0.00219347,-0.00112755,-0.00669355,0.00505423,-0.00837525,-0.825126,0.00783214,0.0397845,1672,540,4.44285,3.13699
455,484,4.41223,-2.98743,-0.00106443,0.000393744,-0.00252333,0.00229121,-0.00296189,-0.926037,0.00304111,0.019899,1679,540,4.41219,2.98743
462,484,4.41809,-2.86621,-0.000226,0.00114365,-0.00137944,0.0019989,-0.00108125,-1.0158,0.00180444,0.0138644,1686,540,4.41813,2.8662
469,484,4.42578,-2.73126,-0.00018356,0.00120341,-0.000921093,0.00166289,-0.000643042,-1.10807,0.00137405,0.0153681,1693,540,4.42575,2.73129
476,484,4.41711,-2.58795,-0.000195161,0.00108831,-0.000686107,0.00138602,-0.000492876,-1.16139,0.00112489,0.0148525,1700,540,4.41712,2.58793
483,484,4.4248,-2.46423,-0.000271358,0.00107404,-0.000459711,0.00121611,-0.000413434,-1.27105,0.000978126,0.0116668,1707,540,4.42478,2.46421
490,484,4.43774,-2.34906,-0.000168375,0.0008827,-0.000337071,0.000981508,-0.000267183,-1.28565,0.000759235,0.0119631,1714,540,4.43779,2.34904
497,484,4.41101,-2.23529,-3.64081e-05,0.000750787,-0.00024763,0.000822205,-0.000107826,-1.29001,0.000587387,0.0131964,1721,540,4.41101,2.23527
504,484,4.40674,-2.09332,0.000272154,0.000704341,-0.000147963,0.000750143,0.000226352,-1.2706,0.000444299,0.0156168,1728,540,4.40674,2.09329
511,484,4.4231,-1.94592,0.00112793,0.000694556,0.000347435,0.00132071,0.000501774,0.506574,0.000769808,0.0176119,1735,540,4.42314,1.94594
518,484,4.41675,-1.83374,0.00215799,0.000945076,0.00103502,0.00275114,0.000351926,0.52039,0.00172877,0.0143103,1742,540,4.4167,1.83375
525,484,4.42603,-1.70343,0.00361067,0.00149644,0.00207051,0.00487831,0.0002288,0.549369,0.00317868,0.0123926,1749,540,4.42599,1.70342
532,484,4.45459,-1.56451,0.00544228,0.00210324,0.0033134,0.007483,6.25146e-05,0.552029,0.00496796,0.014488,1756,540,4.45461,1.5645
539,484,4.45227,-1.40015,0.00786262,0.00306211,0.00504385,0.0110482,-0.000123478,0.563316,0.00740697,0.0185474,1763,540,4.4523,1.40015
546,484,4.42822,-1.28546,0.0110661,0.00446205,0.00735955,0.0158304,-0.000302295,0.574523,0.0106558,0.0200597,1770,540,4.42824,1.28544
553,484,4.42676,-1.14923,0.0160421,0.00640775,0.0110059,0.0232388,-0.000789008,0.579113,0.0157621,0.0321132,1777,540,4.42676,1.14923
560,484,5.24719,-0.997864,0.0219412,0.0088108,0.015432,0.0321464,-0.00139447,0.584282,0.0219106,0.0436681,1784,540,5.24715,0.997855
567,484,5.42114,-0.436584,0,0,0,0,0,0,0,-1,1791,540,5.42115,0.436568
574,484,5.74463,1.50922,0,0,0,0,0,0,0,-1,1798,540,5.74463,-1.50924
581,484,7.95203,0.0928345,0,0,0,0,0,0,0,-1,1805,540,7.95198,-0.092863
588,484,9.33765,0.570251,0,0,0,0,0,0,0,-1,1812,540,9.33763,-0.570264
595,484,10.7233,1.04767,0,0,0,0,0,0,0,-1,1819,540,10.7233,-1.04766
602,484,0,0,0,0,0,0,0,0,0,-1,1826,540,0,0
609,484,0,0,0,0,0,0,0,0,0,-1,1833,540,0,0
616,484,0,0,0,0,0,0,0,0,0,-1,1840,540,0,0
623,484,0,0,0,0,0,0,0,0,0,-1,1847,540,0,0
630,484,0,0,0,0,0,0,0,0,0,-1,1854,540,0,0
637,484,0,0,0,0,0,0,0,0,0,-1,1861,540,0,0
644,484,0,0,0,0,0,0,0,0,0,-1,1868,540,0,0
651,484,0,0,0,0,0,0,0,0,0,-1,1875,540,0,0
658,484,0,0,0,0,0,0,0,0,0,-1,1882,540,0,0
665,484,0,0,0,0,0,0,0,0,0,-1,1889,540,0,0
672,484,0,0,0,0,0,0,0,0,0,-1,1896,540,0,0
679,484,0,0,0,0,0,0,0,0,0,-1,1903,540,0,0
686,484,0,0,0,0,0,0,0,0,0,-1,1910,540,0,0
693,484,0,0,0,0,0,0,0,0,0,-1,1917,540,0,0
700,484,0,0,0,0,0,0,0,0,0,-1,1924,540,0,0
707,484,0,0,0,0,0,0,0,0,0,-1,1931,540,0,0
714,484,0,0,0,0,0,0,0,0,0,-1,1938,540,0,0
721,484,0,0,0,0,0,0,0,0,0,-1,1945,540,0,0
728,484,0,0,0,0,0,0,0,0,0,-1,1952,540,0,0
735,484,0,0,0,0,0,0,0,0,0,-1,1959,540,0,0
742,484,0,0,0,0,0,0,0,0,0,-1,1966,540,0,0
749,484,0,0,0,0,0,0,0,0,0,-1,1973,540,0,0
756,484,0,0,0,0,0,0,0,0,0,-1,1980,540,0,0
763,484,0,0,0,0,0,0,0,0,0,-1,1987,540,0,0
770,484,0,0,0,0,0,0,0,0,0,-1,1994,540,0,0
777,484,0,0,0,0,0,0,0,0,0,-1,2001,540,0,0
784,484,0,0,0,0,0,0,0,0,0,-1,2008,540,0,0
791,484,0,0,0,0,0,0,0,0,0,-1,2015,540,0,0
798,484,0,0,0,0,0,0,0,0,0,-1,2022,540,0,0
805,484,0,0,0,0,0,0,0,0,0,-1,2029,540,0,0
812,484,0,0,0,0,0,0,0,0,0,-1,2036,540,0,0
-700,477,0,0,0,0,0,0,0,0,0,-1,524,547,0,0
-693,477,0,0,0,0,0,0,0,0,0,-1,531,547,0,0
-686,477,0,0,0,0,0,0,0,0,0,-1,538,547,0,0
-679,477,0,0,0,0,0,0,0,0,0,-1,545,547,0,0
-672,477,0,0,0,0,0,0,0,0,0,-1,552,547,0,0
-665,477,0,0,0,0,0,0,0,0,0,-1,559,547,0,0
-658,477,0,0,0,0,0,0,0,0,0,-1,566,547,0,0
-651,477,0,0,0,0,0,0,0,0,0,-1,573,547,0,0
-644,477,0,0,0,0,0,0,0,0,0,-1,580,547,0,0
-637,477,0,0,0,0,0,0,0,0,0,-1,587,547,0,0
-630,477,0,0,0,0,0,0,0,0,0,-1,594,547,0,0
-623,477,0,0,0,0,0,0,0,0,0,-1,601,547,0,0
-616,477,0,0,0,0,0,0,0,0,0,-1,608,547,0,0
-609,477,0,0,0,0,0,0,0,0,0,-1,615,547,0,0
-602,477,0,0,0,0,0,0,0,0,0,-1,622,547,0,0
-595,477,0,0,0,0,0,0,0,0,0,-1,629,547,0,0
-588,477,0,0,0,0,0,0,0,0,0,-1,636,547,0,0
-581,477,0,0,0,0,0,0,0,0,0,-1,643,547,0,0
-574,477,0,0,0,0,0,0,0,0,0,-1,650,547,0,0
-567,477,0,0,0,0,0,0,0,0,0,-1,657,547,0,0
-560,477,0,0,0,0,0,0,0,0,0,-1,664,547,0,0
-553,477,0,0,0,0,0,0,0,0,0,-1,671,547,0,0
-546,477,0,0,0,0,0,0,0,0,0,-1,678,547,0,0
-539,477,0,0,0,0,0,0,0,0,0,-1,685,547,0,0
-532,477,0,0,0,0,0,0,0,0,0,-1,692,547,0,0
-525,477,0,0,0,0,0,0,0,0,0,-1,699,547,0,0
-518,477,0,0,0,0,0,0,0,0,0,-1,706,547,0,0
-511,477,0,0,0,0,0,0,0,0,0,-1,713,547,0,0
-504,477,0,0,0,0,0,0,0,0,0,-1,720,547,0,0
-497,477,0,0,0,0,0,0,0,0,0,-1,727,547,0,0
-490,477,0,0,0,0,0,0,0,0,0,-1,734,547,0,0
-483,477,-0.367981,-0.908508,0,0,0,0,0,0,0,-1,741,547,-0.367964,0.908498
-476,477,0.451538,-2.25372,0,0,0,0,0,0,0,-1,748,547,0.451539,2.25373
-469,477,1.30389,-3.45667,0,0,0,0,0,0,0,-1,755,547,1.3039,3.45669
-462,477,2.30554,-4.55658,0,0,0,0,0,0,0,-1,762,547,2.30556,4.55655
-455,477,-0.743774,-0.0303345,0,0,0,0,0,0,0,-1,769,547,-0.743795,0.0303454
-448,477,-1.51971,-1.46283,0,0,0,0,0,0,0,-1,776,547,-1.5197,1.46282
-441,477,-1.08936,-2.01617,0,0,0,0,0,0,0,-1,783,547,-1.08934,2.01616
-434,477,0.146667,-1.7807,0.0106665,0.0413448,-0.00246721,0.0415419,0.0104693,-1.49106,0.0249482,0.0349608,790,547,0.146676,1.78068
-427,477,0.229797,-2.00092,0.0081436,0.0313849,-0.00238724,0.0316276,0.00790093,-1.46949,0.0190069,0.0178347,797,547,0.229803,2.0009
-420,477,0.236938,-2.10657,0.00607555,0.0232208,-0.00206444,0.0234659,0.00583048,-1.45264,0.0141079,0.0157123,804,547,0.236931,2.10656
-413,477,0.260803,-2.24567,0.00442923,0.016773,-0.00169692,0.0170021,0.0042002,-1.43664,0.0102263,0.0152539,811,547,0.260789,2.24565
-406,477,0.281494,-2.35773,0.00320424,0.0118135,-0.00131706,0.0120105,0.00300726,-1.42234,0.00721653,0.0111071,818,547,0.281484,2.35775
-399,477,0.295837,-2.51196,0.00221577,0.00792308,-0.00100589,0.00809518,0.00204368,-1.40135,0.00486094,0.0173129,825,547,0.295828,2.51197
-392,477,0.272644,-2.65204,0.00119742,0.00432603,-0.00088261,0.00455785,0.000965602,-1.31395,0.00277331,0.0166588,832,547,0.272673,2.65203
-385,477,0.272766,-2.74451,0.000666286,0.00188483,-0.000679853,0.00218848,0.000362645,-1.15075,0.00135438,0.0142151,839,547,0.272776,2.74449
-378,477,0.251953,-2.87262,0.000589121,0.000613941,-0.000371034,0.000972773,0.00023029,-0.802115,0.000587008,0.0123076,846,547,0.251953,2.8726
-371,477,0.256897,-2.96936,0.000535359,0.000180975,-0.000254368,0.000668167,4.81672e-05,-0.481179,0.000430289,0.0123979,853,547,0.256888,2.96934
-364,477,0.261902,-3.07574,0.000594164,-9.70903e-05,-0.000249646,0.000674895,-0.000177821,-0.312767,0.00051945,0.0121204,860,547,0.261893,3.07572
-357,477,0.255188,-3.21527,0.000581372,-0.000195853,-0.000359075,0.000721867,-0.000336348,-0.372957,0.000624329,0.00987277,867,547,0.255173,3.21526
-350,477,0.262695,-3.31976,0.000378783,-3.27712e-06,-0.00028692,0.000532449,-0.000156943,-0.491698,0.000417238,0.00925884,874,547,0.262667,3.31977
-343,477,0.28772,-3.42175,0.000409715,0.000230477,5.57369e-06,0.000409888,0.000230303,0.0310565,0.000237252,0.0174529,881,547,0.287746,3.42173
-336,477,0.302429,-3.57208,0.000862785,0.000906348,-1.5753e-05,0.000911448,0.000857685,-1.25773,0.000590527,0.0228247,888,547,0.302455,3.5721
-329,477,0.309326,-3.76752,0.000827475,0.00176273,0.000133431,0.00178139,0.000808811,1.43182,0.00102993,0.0338922,895,547,0.309314,3.76754
-322,477,0.148743,-3.77832,0.000631326,0.00361287,0.000116235,0.00361739,0.000626801,1.53189,0.00223219,0.0387314,902,547,0.148717,3.77829
-315,477,0.142639,-3.8407,0.000752208,0.00574126,0.000142613,0.00574533,0.000748134,1.54224,0.0036068,0.0447613,909,547,0.142622,3.84071
-308,477,0.264832,-3.88928,0.00100749,0.00842299,6.55091e-05,0.00842357,0.00100691,1.56196,0.00531198,0.045694,916,547,0.264819,3.88929
-301,477,-0.557251,-4.60236,0,0,0,0,0,0,0,-1,923,547,-0.55728,4.60234
-294,477,-0.352905,3.27142,0,0,0,0,0,0,0,-1,930,547,-0.35292,-3.27144
-287,477,3.54364,2.15399,0,0,0,0,0,0,0,-1,937,547,3.54362,-2.15396
-280,477,1.97308,-0.954163,0,0,0,0,0,0,0,-1,944,547,1.9731,0.954178
-273,477,2.11621,-3.76709,0,0,0,0,0,0,0,-1,951,547,2.11619,3.76706
-266,477,2.04669,-3.42389,0,0,0,0,0,0,0,-1,958,547,2.04671,3.42391
-259,477,1.8042,-3.24603,0,0,0,0,0,0,0,-1,965,547,1.80419,3.24601
-252,477,1.73175,-3.15027,0,0,0,0,0,0,0,-1,972,547,1.73172,3.15029
-245,477,1.30811,-3.43146,0,0,0,0,0,0,0,-1,979,547,1.30809,3.43145
-238,477,-3.67725,-6.13898,0,0,0,0,0,0,0,-1,986,547,-3.67727,6.139
-231,477,-3.29913,-3.87903,0,0,0,0,0,0,0,-1,993,547,-3.29913,3.87903
-224,477,0,0,0,0,0,0,0,0,0,-1,1000,547,0,0
-217,477,0,0,0,0,0,0,0,0,0,-1,1007,547,0,0
-210,477,0,0,0,0,0,0,0,0,0,-1,1014,547,0,0
-203,477,0,0,0,0,0,0,0,0,0,-1,1021,547,0,0
-196,477,0,0,0,0,0,0,0,0,0,-1,1028,547,0,0
-189,477,0,0,0,0,0,0,0,0,0,-1,1035,547,0,0
-182,477,0,0,0,0,0,0,0,0,0,-1,1042,547,0,0
-175,477,0,0,0,0,0,0,0,0,0,-1,1049,547,0,0
-168,477,0,0,0,0,0,0,0,0,0,-1,1056,547,0,0
-161,477,0,0,0,0,0,0,0,0,0,-1,1063,547,0,0
-154,477,0,0,0,0,0,0,0,0,0,-1,1070,547,0,0
-147,477,0,0,0,0,0,0,0,0,0,-1,1077,547,0,0
-140,477,0,0,0,0,0,0,0,0,0,-1,1084,547,0,0
-133,477,0,0,0,0,0,0,0,0,0,-1,1091,547,0,0
-126,477,0,0,0,0,0,0,0,0,0,-1,1098,547,0,0
-119,477,0,0,0,0,0,0,0,0,0,-1,1105,547,0,0
-112,477,0,0,0,0,0,0,0,0,0,-1,1112,547,0,0
-105,477,0,0,0,0,0,0,0,0,0,-1,1119,547,0,0
-98,477,0,0,0,0,0,0,0,0,0,-1,1126,547,0,0
-91,477,0,0,0,0,0,0,0,0,0,-1,1133,547,0,0
-84,477,0,0,0,0,0,0,0,0,0,-1,1140,547,0,0
-77,477,0,0,0,0,0,0,0,0,0,-1,1147,547,0,0
-70,477,0,0,0,0,0,0,0,0,0,-1,1154,547,0,0
-63,477,0,0,0,0,0,0,0,0,0,-1,1161,547,0,0
-56,477,0,0,0,0,0,0,0,0,0,-1,1168,547,0,0
-49,477,0,0,0,0,0,0,0,0,0,-1,1175,547,0,0
-42,477,0,0,0,0,0,0,0,0,0,-1,1182,547,0,0
-35,477,0,0,0,0,0,0,0,0,0,-1,1189,547,0,0
-28,477,0,0,0,0,0,0,0,0,0,-1,1196,547,0,0
-21,477,0,0,0,0,0,0,0,0,0,-1,1203,547,0,0
-14,477,0,0,0,0,0,0,0,0,0,-1,1210,547,0,0
-7,477,0,0,0,0,0,0,0,0,0,-1,1217,547,0,0
0,477,0,0,0,0,0,0,0,0,0,-1,1224,547,0,0
7,477,0,0,0,0,0,0,0,0,0,-1,1231,547,0,0
14,477,0,0,0,0,0,0,0,0,0,-1,1238,547,0,0
21,477,0,0,0,0,0,0,0,0,0,-1,1245,547,0,0
28,477,0,0,0,0,0,0,0,0,0,-1,1252,547,0,0
35,477,0,0,0,0,0,0,0,0,0,-1,1259,547,0,0
42,477,0,0,0,0,0,0,0,0,0,-1,1266,547,0,0
49,477,0,0,0,0,0,0,0,0,0,-1,1273,547,0,0
56,477,0,0,0,0,0,0,0,0,0,-1,1280,547,0,0
63,477,0,0,0,0,0,0,0,0,0,-1,1287,547,0,0
70,477,0,0,0,0,0,0,0,0,0,-1,1294,547,0,0
77,477,0,0,0,0,0,0,0,0,0,-1,1301,547,0,0
84,477,0,0,0,0,0,0,0,0,0,-1,1308,547,0,0
91,477,0,0,0,0,0,0,0,0,0,-1,1315,547,0,0
98,477,0,0,0,0,0,0,0,0,0,-1,1322,547,0,0
105,477,0,0,0,0,0,0,0,0,0,-1,1329,547,0,0
112,477,0,0,0,0,0,0,0,0,0,-1,1336,547,0,0
119,477,0,0,0,0,0,0,0,0,0,-1,1343,547,0,0
126,477,0,0,0,0,0,0,0,0,0,-1,1350,547,0,0
133,477,0,0,0,0,0,0,0,0,0,-1,1357,547,0,0
140,477,0,0,0,0,0,0,0,0,0,-1,1364,547,0,0
147,477,0,0,0,0,0,0,0,0,0,-1,1371,547,0,0
154,477,0,0,0,0,0,0,0,0,0,-1,1378,547,0,0
161,477,0,0,0,0,0,0,0,0,0,-1,1385,547,0,0
168,477,0,0,0,0,0,0,0,0,0,-1,1392,547,0,0
175,477,0,0,0,0,0,0,0,0,0,-1,1399,547,0,0
182,477,0,0,0,0,0,0,0,0,0,-1,1406,547,0,0
189,477,0,0,0,0,0,0,0,0,0,-1,1413,547,0,0
196,477,0,0,0,0,0,0,0,0,0,-1,1420,547,0,0
203,477,0,0,0,0,0,0,0,0,0,-1,1427,547,0,0
210,477,0,0,0,0,0,0,0,0,0,-1,1434,547,0,0
217,477,0,0,0,0,0,0,0,0,0,-1,1441,547,0,0
224,477,0,0,0,0,0,0,0,0,0,-1,1448,547,0,0
231,477,0,0,0,0,0,0,0,0,0,-1,1455,547,0,0
238,477,0,0,0,0,0,0,0,0,0,-1,1462,547,0,0
245,477,0,0,0,0,0,0,0,0,0,-1,1469,547,0,0
252,477,0,0,0,0,0,0,0,0,0,-1,1476,547,0,0
259,477,0,0,0,0,0,0,0,0,0,-1,1483,547,0,0
266,477,0,0,0,0,0,0,0,0,0,-1,1490,547,0,0
273,477,0,0,0,0,0,0,0,0,0,-1,1497,547,0,0
280,477,0,0,0,0,0,0,0,0,0,-1,1504,547,0,0
287,477,0,0,0,0,0,0,0,0,0,-1,1511,547,0,0
294,477,0,0,0,0,0,0,0,0,0,-1,1518,547,0,0
301,477,0,0,0,0,0,0,0,0,0,-1,1525,547,0,0
308,477,0,0,0,0,0,0,0,0,0,-1,1532,547,0,0
315,477,0,0,0,0,0,0,0,0,0,-1,1539,547,0,0
322,477,0,0,0,0,0,0,0,0,0,-1,1546,547,0,0
329,477,0,0,0,0,0,0,0,0,0,-1,1553,547,0,0
336,477,0,0,0,0,0,0,0,0,0,-1,1560,547,0,0
343,477,0,0,0,0,0,0,0,0,0,-1,1567,547,0,0
350,477,1.7699,-3.32275,0,0,0,0,0,0,0,-1,1574,547,1.7699,3.32272
357,477,3.073,-4.83313,0,0,0,0,0,0,0,-1,1581,547,3.07303,4.83316
364,477,4.30127,-4.22864,0,0,0,0,0,0,0,-1,1588,547,4.30125,4.22865
371,477,5.45117,-3.70715,0,0,0,0,0,0,0,-1,1595,547,5.45113,3.70715
378,477,6.58594,-3.16064,0,0,0,0,0,0,0,-1,1602,547,6.58594,3.16062
385,477,7.76343,-1.79773,0,0,0,0,0,0,0,-1,1609,547,7.76341,1.79772
392,477,11.9564,1.24927,0,0,0,0,0,0,0,-1,1616,547,11.9564,-1.24924
399,477,8.00037,-2.29523,0,0,0,0,0,0,0,-1,1623,547,8.00031,2.2952
406,477,4.82495,2.7475,0,0,0,0,0,0,0,-1,1630,547,4.825,-2.74752
413,477,4.88171,-0.336426,0,0,0,0,0,0,0,-1,1637,547,4.88169,0.336398
420,477,3.34875,0.102722,0,0,0,0,0,0,0,-1,1644,547,3.34871,-0.1027
427,477,1.66772,-0.373108,0,0,0,0,0,0,0,-1,1651,547,1.66768,0.373104
434,477,3.76978,-2.30798,0,0,0,0,0,0,0,-1,1658,547,3.76974,2.30801
441,477,4.05444,-2.80402,0,0,0,0,0,0,0,-1,1665,547,4.05444,2.804
448,477,4.57715,-3.21625,0,0,0,0,0,0,0,-1,1672,547,4.57716,3.21626
455,477,4.67615,-3.00385,-0.00139024,0.000512578,-0.00310267,0.00280644,-0.0036841,-0.934168,0.00375872,0.0463117,1679,547,4.6762,3.00386
462,477,4.5863,-2.93219,-0.000524198,0.00132951,-0.00182215,0.00244699,-0.00164167,-1.02067,0.0023758,0.0309431,1686,547,4.58625,2.9322
469,477,4.58716,-2.73114,-0.000462772,0.00135276,-0.00132626,0.00205216,-0.00116218,-1.08551,0.00187936,0.0183498,1693,547,4.5871,2.73114
476,477,4.54968,-2.60883,-0.000462597,0.00115032,-0.00100475,0.00163223,-0.000944508,-1.12357,0.00150524,0.0158971,1700,547,4.54968,2.60881
483,477,4.56421,-2.47534,-0.000583,0.00110579,-0.000675506,0.00134274,-0.000819952,-1.23343,0.00126074,0.0113542,1707,547,4.56425,2.47534
490,477,4.56519,-2.34979,-0.000514191,0.000849855,-0.000478185,0.00100079,-0.000665124,-1.26506,0.000968301,0.0111823,1714,547,4.56513,2.34978
497,477,4.54944,-2.21869,-0.000393538,0.000666704,-0.000330032,0.000761042,-0.000487877,-1.29238,0.00072679,0.0130217,1721,547,4.54948,2.21872
504,477,4.53833,-2.0849,-0.000139216,0.000570957,-0.000149002,0.000600952,-0.000169212,-1.37214,0.000467363,0.0179822,1728,547,4.53835,2.08493
511,477,4.58362,-1.96521,0.000580074,0.000532791,0.000363877,0.000921077,0.000191788,0.752958,0.000561155,0.021939,1735,547,4.58366,1.96521
518,477,4.60083,-1.81458,0.00144413,0.000760069,0.00102842,0.0021859,1.82966e-05,0.624863,0.0014512,0.0188805,1742,547,4.6008,1.81456
525,477,4.56738,-1.68872,0.00271052,0.00124379,0.00200653,0.0041135,-0.000159196,0.610195,0.00279691,0.016173,1749,547,4.5674,1.68874
532,477,4.5343,-1.5564,0.0042821,0.00176627,0.00310363,0.00637304,-0.00032468,0.592863,0.00436095,0.0182855,1756,547,4.53427,1.55637
539,477,4.54553,-1.38257,0.00629517,0.00258233,0.00457035,0.00937174,-0.000494241,0.592483,0.00641892,0.0165214,1763,547,4.54549,1.38257
546,477,4.56873,-1.27502,0.00892005,0.00373486,0.00647634,0.0133035,-0.000648548,0.595008,0.00909286,0.0163916,1770,547,4.56868,1.275
553,477,4.56128,-1.15015,0.0131264,0.00542464,0.00957839,0.019599,-0.00104799,0.594267,0.013429,0.0165909,1777,547,4.5613,1.15015
560,477,4.62073,-0.985474,0.0178069,0.00733267,0.0130755,0.0266551,-0.00151554,0.594917,0.0182962,0.0325057,1784,547,4.62078,0.985477
567,477,5.05371,-0.615967,0.0240462,0.0099657,0.0177623,0.0361126,-0.00210073,0.596717,0.024805,0.042119,1791,547,5.05368,0.615979
574,477,5.18091,-0.254272,0,0,0,0,0,0,0,-1,1798,547,5.18094,0.25427
581,477,6.09338,0.6297,0,0,0,0,0,0,0,-1,1805,547,6.09341,-0.62968
588,477,7.87671,-0.637573,0,0,0,0,0,0,0,-1,1812,547,7.87668,0.637583
595,477,9.24817,-0.0924072,0,0,0,0,0,0,0,-1,1819,547,9.24822,0.0923824
602,477,6.5271,-0.964417,0,0,0,0,0,0,0,-1,1826,547,6.52706,0.964427
609,477,0,0,0,0,0,0,0,0,0,-1,1833,547,0,0
616,477,0,0,0,0,0,0,0,0,0,-1,1840,547,0,0
623,477,0,0,0,0,0,0,0,0,0,-1,1847,547,0,0
630,477,0,0,0,0,0,0,0,0,0,-1,1854,547,0,0
637,477,0,0,0,0,0,0,0,0,0,-1,1861,547,0,0
644,477,0,0,0,0,0,0,0,0,0,-1,1868,547,0,0
651,477,0,0,0,0,0,0,0,0,0,-1,1875,547,0,0
658,477,0,0,0,0,0,0,0,0,0,-1,1882,547,0,0
665,477,0,0,0,0,0,0,0,0,0,-1,1889,547,0,0
672,477,0,0,0,0,0,0,0,0,0,-1,1896,547,0,0
679,477,0,0,0,0,0,0,0,0,0,-1,1903,547,0,0
686,477,0,0,0,0,0,0,0,0,0,-1,1910,547,0,0
693,477,0,0,0,0,0,0,0,0,0,-1,1917,547,0,0
700,477,0,0,0,0,0,0,0,0,0,-1,1924,547,0,0
707,477,0,0,0,0,0,0,0,0,0,-1,1931,547,0,0
714,477,0,0,0,0,0,0,0,0,0,-1,1938,547,0,0
721,477,0,0,0,0,0,0,0,0,0,-1,1945,547,0,0
728,477,0,0,0,0,0,0,0,0,0,-1,1952,547,0,0
735,477,0,0,0,0,0,0,0,0,0,-1,1959,547,0,0
742,477,0,0,0,0,0,0,0,0,0,-1,1966,547,0,0
749,477,0,0,0,0,0,0,0,0,0,-1,1973,547,0,0
756,477,0,0,0,0,0,0,0,0,0,-1,1980,547,0,0
763,477,0,0,0,0,0,0,0,0,0,-1,1987,547,0,0
770,477,0,0,0,0,0,0,0,0,0,-1,1994,547,0,0
777,477,0,0,0,0,0,0,0,0,0,-1,2001,547,0,0
784,477,0,0,0,0,0,0,0,0,0,-1,2008,547,0,0
791,477,0,0,0,0,0,0,0,0,0,-1,2015,547,0,0
798,477,0,0,0,0,0,0,0,0,0,-1,2022,547,0,0
805,477,0,0,0,0,0,0,0,0,0,-1,2029,547,0,0
812,477,0,0,0,0,0,0,0,0,0,-1,2036,547,0,0
-700,470,0,0,0,0,0,0,0,0,0,-1,524,554,0,0
-693,470,0,0,0,0,0,0,0,0,0,-1,531,554,0,0
-686,470,0,0,0,0,0,0,0,0,0,-1,538,554,0,0
-679,470,0,0,0,0,0,0,0,0,0,-1,545,554,0,0
-672,470,0,0,0,0,0,0,0,0,0,-1,552,554,0,0
-665,470,0,0,0,0,0,0,0,0,0,-1,559,554,0,0
-658,470,0,0,0,0,0,0,0,0,0,-1,566,554,0,0
-651,470,0,0,0,0,0,0,0,0,0,-1,573,554,0,0
-644,470,0,0,0,0,0,0,0,0,0,-1,580,554,0,0
-637,470,0,0,0,0,0,0,0,0,0,-1,587,554,0,0
-630,470,0,0,0,0,0,0,0,0,0,-1,594,554,0,0
-623,470,0,0,0,0,0,0,0,0,0,-1,601,554,0,0
-616,470,0,0,0,0,0,0,0,0,0,-1,608,554,0,0
-609,470,0,0,0,0,0,0,0,0,0,-1,615,554,0,0
-602,470,0,0,0,0,0,0,0,0,0,-1,622,554,0,0
-595,470,0,0,0,0,0,0,0,0,0,-1,629,554,0,0
-588,470,0,0,0,0,0,0,0,0,0,-1,636,554,0,0
-581,470,0,0,0,0,0,0,0,0,0,-1,643,554,0,0
-574,470,0,0,0,0,0,0,0,0,0,-1,650,554,0,0
-567,470,0,0,0,0,0,0,0,0,0,-1,657,554,0,0
-560,470,0,0,0,0,0,0,0,0,0,-1,664,554,0,0
-553,470,0,0,0,0,0,0,0,0,0,-1,671,554,0,0
-546,470,0,0,0,0,0,0,0,0,0,-1,678,554,0,0
-539,470,0,0,0,0,0,0,0,0,0,-1,685,554,0,0
-532,470,0,0,0,0,0,0,0,0,0,-1,692,554,0,0
-525,470,0,0,0,0,0,0,0,0,0,-1,699,554,0,0
-518,470,0,0,0,0,0,0,0,0,0,-1,706,554,0,0
-511,470,0,0,0,0,0,0,0,0,0,-1,713,554,0,0
-504,470,0,0,0,0,0,0,0,0,0,-1,720,554,0,0
-497,470,0,0,0,0,0,0,0,0,0,-1,727,554,0,0
-490,470,-0.753784,0.677612,0,0,0,0,0,0,0,-1,734,554,-0.753779,-0.677609
-483,470,-0.184937,-0.545227,0,0,0,0,0,0,0,-1,741,554,-0.184946,0.54521
-476,470,0.266296,-1.88696,0,0,0,0,0,0,0,-1,748,554,0.26628,1.88696
-469,470,0.815002,-2.96179,0,0,0,0,0,0,0,-1,755,554,0.814982,2.9618
-462,470,1.38068,-4.01471,0,0,0,0,0,0,0,-1,762,554,1.38067,4.01473
-455,470,-0.487488,-0.46405,0,0,0,0,0,0,0,-1,769,554,-0.487504,0.464058
-448,470,0.0875244,-1.32153,0,0,0,0,0,0,0,-1,776,554,0.0875281,1.32151
-441,470,0.111511,-1.72656,0.0105783,0.0403475,-0.00213544,0.0404999,0.0104259,-1.49955,0.0242825,0.0411535,783,554,0.111504,1.72654
-434,470,0.170715,-1.89777,0.00829852,0.031096,-0.00206367,0.0312813,0.00811322,-1.48124,0.0187445,0.0205219,790,554,0.170695,1.89776
-427,470,0.144409,-2.01062,0.00636437,0.0235384,-0.00189099,0.0237442,0.00615862,-1.46242,0.014228,0.00990485,797,554,0.14441,2.01059
-420,470,0.154724,-2.13007,0.004716,0.0172395,-0.00153514,0.0174249,0.00453056,-1.45059,0.0104394,0.0111021,804,554,0.154704,2.13005
-413,470,0.152466,-2.24518,0.00338146,0.0122786,-0.00120436,0.0124388,0.00322131,-1.4386,0.00745449,0.0123125,811,554,0.15249,2.24516
-406,470,0.127563,-2.34906,0.00241435,0.00848326,-0.000878745,0.00860794,0.00228967,-1.42986,0.00514802,0.00940101,818,554,0.127553,2.34908
-399,470,0.169373,-2.50226,0.00158825,0.00542262,-0.000640663,0.00552684,0.00148404,-1.40955,0.00330294,0.0122472,825,554,0.169364,2.50228
-392,470,0.162842,-2.64575,0.000691342,0.00257828,-0.000529614,0.00271676,0.000552857,-1.31504,0.00165791,0.0143245,832,554,0.162828,2.64577
-385,470,0.151123,-2.72766,0.000307125,0.000735141,-0.000368708,0.000947448,9.48176e-05,-1.04835,0.000602518,0.0110681,839,554,0.151153,2.72763
-378,470,0.143799,-2.85327,0.000378065,-0.00022119,-0.000195948,0.00043645,-0.000279574,-0.289581,0.000416691,0.0148986,846,554,0.143774,2.85328
-371,470,0.161499,-2.9707,0.000361768,-0.000390688,-0.000173305,0.000399765,-0.000428684,-0.215833,0.000478402,0.0125901,853,554,0.161519,2.97072
-364,470,0.168762,-3.07953,0.0004933,-0.000529551,-0.000229057,0.000542252,-0.000578503,-0.210545,0.000647181,0.0126264,860,554,0.168761,3.07952
-357,470,0.157532,-3.19916,0.000615909,-0.000632772,-0.0003969,0.000731387,-0.00074825,-0.283132,0.000854287,0.0123817,867,554,0.157558,3.19913
-350,470,0.151306,-3.3205,0.000544164,-0.000422255,-0.00035034,0.000657804,-0.000535895,-0.313663,0.00069038,0.0087448,874,554,0.151296,3.32052
-343,470,0.17395,-3.45435,0.000737665,-0.000138361,-0.000107486,0.000750661,-0.000151357,-0.12032,0.000557781,0.0170447,881,554,0.173956,3.45433
-336,470,0.0709229,-3.60114,0.00142598,0.00064645,-0.000177561,0.00146452,0.00060791,-0.213733,0.000849596,0.0248947,888,554,0.0709158,3.60111
-329,470,0.0238037,-3.7027,0.00166527,0.00161868,-0.000118032,0.00176228,0.00152167,-0.687967,0.00110343,0.0344851,895,554,0.0238231,3.70272
-322,470,-0.226257,-4.16492,0.00173763,0.00371657,-0.000200952,0.00373677,0.00171743,-1.47061,0.00215977,0.0394164,902,554,-0.226257,4.16493
-315,470,-0.115295,-3.83728,0,0,0,0,0,0,0,-1,909,554,-0.115306,3.83727
-308,470,0.279297,-3.93689,0,0,0,0,0,0,0,-1,916,554,0.279321,3.93689
-301,470,-0.0340576,3.34888,0,0,0,0,0,0,0,-1,923,554,-0.0340496,-3.3489
-294,470,-1.18378,3.22266,0,0,0,0,0,0,0,-1,930,554,-1.18376,-3.22268
-287,470,-2.15454,3.2204,0,0,0,0,0,0,0,-1,937,554,-2.15452,-3.22037
-280,470,-3.00537,3.099,0,0,0,0,0,0,0,-1,944,554,-3.00536,-3.09898
-273,470,1.05981,-2.39728,0,0,0,0,0,0,0,-1,951,554,1.05983,2.39727
-266,470,1.61761,-2.7876,0,0,0,0,0,0,0,-1,958,554,1.61764,2.78761
-259,470,1.46301,-3.27332,0,0,0,0,0,0,0,-1,965,554,1.46301,3.2733
-252,470,1.34393,-3.74951,0,0,0,0,0,0,0,-1,972,554,1.34393,3.7495
-245,470,1.2428,-4.10791,0,0,0,0,0,0,0,-1,979,554,1.24283,4.10792
-238,470,0,0,0,0,0,0,0,0,0,-1,986,554,0,0
-231,470,0,0,0,0,0,0,0,0,0,-1,993,554,0,0
-224,470,0,0,0,0,0,0,0,0,0,-1,1000,554,0,0
-217,470,0,0,0,0,0,0,0,0,0,-1,1007,554,0,0
-210,470,0,0,0,0,0,0,0,0,0,-1,1014,554,0,0
-203,470,0,0,0,0,0,0,0,0,0,-1,1021,554,0,0
-196,470,0,0,0,0,0,0,0,0,0,-1,1028,554,0,0
-189,470,0,0,0,0,0,0,0,0,0,-1,1035,554,0,0
-182,470,0,0,0,0,0,0,0,0,0,-1,1042,554,0,0
-175,470,0,0,0,0,0,0,0,0,0,-1,1049,554,0,0
-168,470,0,0,0,0,0,0,0,0,0,-1,1056,554,0,0
-161,470,0,0,0,0,0,0,0,0,0,-1,1063,554,0,0
-154,470,0,0,0,0,0,0,0,0,0,-1,1070,554,0,0
-147,470,0,0,0,0,0,0,0,0,0,-1,1077,554,0,0
-140,470,0,0,0,0,0,0,0,0,0,-1,1084,554,0,0
-133,470,0,0,0,0,0,0,0,0,0,-1,1091,554,0,0
-126,470,0,0,0,0,0,0,0,0,0,-1,1098,554,0,0
-119,470,0,0,0,0,0,0,0,0,0,-1,1105,554,0,0
-112,470,0,0,0,0,0,0,0,0,0,-1,1112,554,0,0
-105,470,0,0,0,0,0,0,0,0,0,-1,1119,554,0,0
-98,470,0,0,0,0,0,0,0,0,0,-1,1126,554,0,0
-91,470,0,0,0,0,0,0,0,0,0,-1,1133,554,0,0
-84,470,0,0,0,0,0,0,0,0,0,-1,1140,554,0,0
-77,470,0,0,0,0,0,0,0,0,0,-1,1147,554,0,0
-70,470,0,0,0,0,0,0,0,0,0,-1,1154,554,0,0
-63,470,0,0,0,0,0,0,0,0,0,-1,1161,554,0,0
-56,470,0,0,0,0,0,0,0,0,0,-1,1168,554,0,0
-49,470,0,0,0,0,0,0,0,0,0,-1,1175,554,0,0
-42,470,0,0,0,0,0,0,0,0,0,-1,1182,554,0,0
-35,470,0,0,0,0,0,0,0,0,0,-1,1189,554,0,0
-28,470,0,0,0,0,0,0,0,0,0,-1,1196,554,0,0
-21,470,0,0,0,0,0,0,0,0,0,-1,1203,554,0,0
-14,470,0,0,0,0,0,0,0,0,0,-1,1210,554,0,0
-7,470,0,0,0,0,0,0,0,0,0,-1,1217,554,0,0
0,470,0,0,0,0,0,0,0,0,0,-1,1224,554,0,0
7,470,0,0,0,0,0,0,0,0,0,-1,1231,554,0,0
14,470,0,0,0,0,0,0,0,0,0,-1,1238,554,0,0
21,470,0,0,0,0,0,0,0,0,0,-1,1245,554,0,0
28,470,0,0,0,0,0,0,0,0,0,-1,1252,554,0,0
35,470,0,0,0,0,0,0,0,0,0,-1,1259,554,0,0
42,470,0,0,0,0,0,0,0,0,0,-1,1266,554,0,0
49,470,0,0,0,0,0,0,0,0,0,-1,1273,554,0,0
56,470,0,0,0,0,0,0,0,0,0,-1,1280,554,0,0
63,470,0,0,0,0,0,0,0,0,0,-1,1287,554,0,0
70,470,0,0,0,0,0,0,0,0,0,-1,1294,554,0,0
77,470,0,0,0,0,0,0,0,0,0,-1,1301,554,0,0
84,470,0,0,0,0,0,0,0,0,0,-1,1308,554,0,0
91,470,0,0,0,0,0,0,0,0,0,-1,1315,554,0,0
98,470,0,0,0,0,0,0,0,0,0,-1,1322,554,0,0
105,470,0,0,0,0,0,0,0,0,0,-1,1329,554,0,0
112,470,0,0,0,0,0,0,0,0,0,-1,1336,554,0,0
119,470,0,0,0,0,0,0,0,0,0,-1,1343,554,0,0
126,470,0,0,0,0,0,0,0,0,0,-1,1350,554,0,0
133,470,0,0,0,0,0,0,0,0,0,-1,1357,554,0,0
140,470,0,0,0,0,0,0,0,0,0,-1,1364,554,0,0
147,470,0,0,0,0,0,0,0,0,0,-1,1371,554,0,0
154,470,0,0,0,0,0,0,0,0,0,-1,1378,554,0,0
161,470,0,0,0,0,0,0,0,0,0,-1,1385,554,0,0
168,470,0,0,0,0,0,0,0,0,0,-1,1392,554,0,0
175,470,0,0,0,0,0,0,0,0,0,-1,1399,554,0,0
182,470,0,0,0,0,0,0,0,0,0,-1,1406,554,0,0
189,470,0,0,0,0,0,0,0,0,0,-1,1413,554,0,0
196,470,0,0,0,0,0,0,0,0,0,-1,1420,554,0,0
203,470,0,0,0,0,0,0,0,0,0,-1,1427,554,0,0
210,470,0,0,0,0,0,0,0,0,0,-1,1434,554,0,0
217,470,0,0,0,0,0,0,0,0,0,-1,1441,554,0,0
224,470,0,0,0,0,0,0,0,0,0,-1,1448,554,0,0
231,470,0,0,0,0,0,0,0,0,0,-1,1455,554,0,0
238,470,0,0,0,0,0,0,0,0,0,-1,1462,554,0,0
245,470,0,0,0,0,0,0,0,0,0,-1,1469,554,0,0
252,470,0,0,0,0,0,0,0,0,0,-1,1476,554,0,0
259,470,0,0,0,0,0,0,0,0,0,-1,1483,554,0,0
266,470,0,0,0,0,0,0,0,0,0,-1,1490,554,0,0
273,470,0,0,0,0,0,0,0,0,0,-1,1497,554,0,0
280,470,0,0,0,0,0,0,0,0,0,-1,1504,554,0,0
287,470,0,0,0,0,0,0,0,0,0,-1,1511,554,0,0
294,470,0,0,0,0,0,0,0,0,0,-1,1518,554,0,0
301,470,0,0,0,0,0,0,0,0,0,-1,1525,554,0,0
308,470,0,0,0,0,0,0,0,0,0,-1,1532,554,0,0
315,470,0,0,0,0,0,0,0,0,0,-1,1539,554,0,0
322,470,0,0,0,0,0,0,0,0,0,-1,1546,554,0,0
329,470,0,0,0,0,0,0,0,0,0,-1,1553,554,0,0
336,470,0,0,0,0,0,0,0,0,0,-1,1560,554,0,0
343,470,0,0,0,0,0,0,0,0,0,-1,1567,554,0,0
350,470,0,0,0,0,0,0,0,0,0,-1,1574,554,0,0
357,470,0,0,0,0,0,0,0,0,0,-1,1581,554,0,0
364,470,1.55115,-5.18604,0,0,0,0,0,0,0,-1,1588,554,1.55117,5.18606
371,470,3.15845,-4.32709,0,0,0,0,0,0,0,-1,1595,554,3.15843,4.32708
378,470,5.91235,1.90497,0,0,0,0,0,0,0,-1,1602,554,5.9123,-1.90499
385,470,8.21826,1.59015,0,0,0,0,0,0,0,-1,1609,554,8.21828,-1.59015
392,470,10.6239,1.50903,0.270981,-0.0167765,0.0842823,0.293849,-0.0396449,0.264952,0.210364,0.0454686,1616,554,10.6239,-1.50901
399,470,12.9828,1.44592,0,0,0,0,0,0,0,-1,1623,554,12.9828,-1.44594
406,470,15.1896,1.36676,0,0,0,0,0,0,0,-1,1630,554,15.1896,-1.36679
413,470,6.55383,1.99207,0,0,0,0,0,0,0,-1,1637,554,6.5538,-1.99208
420,470,4.47095,0.845703,0,0,0,0,0,0,0,-1,1644,554,4.47098,-0.845718
427,470,3.51038,1.19684,0,0,0,0,0,0,0,-1,1651,554,3.51039,-1.19684
434,470,3.31775,-1.37427,0,0,0,0,0,0,0,-1,1658,554,3.31781,1.37426
441,470,2.55457,-2.05902,0,0,0,0,0,0,0,-1,1665,554,2.55461,2.05904
448,470,3.27258,-2.64032,0,0,0,0,0,0,0,-1,1672,554,3.27257,2.64029
455,470,4.98889,-3.0871,0,0,0,0,0,0,0,-1,1679,554,4.98886,3.08708
462,470,4.55603,-2.77997,-0.000955653,0.00143619,-0.00236406,0.00288961,-0.00240907,-1.01957,0.00306339,0.0445216,1686,554,4.55606,2.77999
469,470,4.81177,-2.78833,-0.000866023,0.00138274,-0.00179753,0.00237859,-0.00186187,-1.06488,0.00245428,0.040065,1693,554,4.81172,2.78832
476,470,4.65295,-2.62964,-0.000918755,0.00105558,-0.00143641,0.00181133,-0.00167451,-1.08646,0.00201306,0.0216816,1700,554,4.65296,2.62966
483,470,4.67712,-2.46979,-0.00110871,0.00100084,-0.00103285,0.00142232,-0.00153019,-1.18335,0.00170501,0.0125318,1707,554,4.67713,2.46979
490,470,4.68103,-2.34344,-0.00107302,0.000706878,-0.000799649,0.00101336,-0.0013795,-1.20479,0.0013869,0.011473,1714,554,4.68109,2.34343
497,470,4.69092,-2.2207,-0.000951969,0.00048994,-0.000639932,0.000732981,-0.00119501,-1.20783,0.00112373,0.0124936,1721,554,4.69086,2.2207
504,470,4.69653,-2.11945,-0.000744497,0.000360431,-0.000424989,0.000504984,-0.00088905,-1.24294,0.000814964,0.0197509,1728,554,4.69652,2.11946
511,470,4.76831,-1.98151,-0.000166187,0.000309426,3.10835e-05,0.000311449,-0.00016821,1.50581,0.000281017,0.026024,1735,554,4.76833,1.98151
518,470,4.79016,-1.81226,0.000552214,0.000514031,0.000610787,0.00114421,-7.79632e-05,0.769775,0.000790076,0.0253639,1742,554,4.79022,1.81227
525,470,4.72363,-1.67432,0.00167339,0.000919944,0.00148767,0.00283129,-0.000237959,0.66139,0.00197164,0.0160844,1749,554,4.72361,1.6743
532,470,4.69275,-1.5293,0.00305039,0.0013682,0.00243003,0.00478077,-0.000362179,0.618789,0.00331451,0.0134352,1756,554,4.69274,1.5293
539,470,4.68555,-1.40973,0.00474488,0.00205844,0.00365187,0.00729272,-0.000489403,0.609168,0.00503289,0.0150093,1763,554,4.68559,1.40973
546,470,4.69409,-1.28796,0.00691781,0.00299077,0.00520417,0.0105166,-0.000607977,0.605006,0.00722223,0.012892,1770,554,4.69405,1.28799
553,470,4.69885,-1.1438,0.0105092,0.0044606,0.00785586,0.0159028,-0.000933005,0.601656,0.0109261,0.0105941,1777,554,4.69887,1.14379
560,470,4.70679,-0.985474,0.0142862,0.00598745,0.0106593,0.0215753,-0.00130162,0.599785,0.0148364,0.0134962,1784,554,4.70676,0.98547
567,470,4.69299,-0.855286,0.0192582,0.00804377,0.0143082,0.0290186,-0.00171668,0.598651,0.0199426,0.0168191,1791,554,4.69302,0.8553
574,470,5.04272,-0.339783,0.0258947,0.0107045,0.0190344,0.0387933,-0.00219412,0.595567,0.0266237,0.045361,1798,554,5.04277,0.339789
581,470,5.70728,0.289856,0,0,0,0,0,0,0,-1,1805,554,5.7073,-0.289875
588,470,6.12292,-1.67767,0,0,0,0,0,0,0,-1,1812,554,6.12292,1.67767
595,470,4.72192,3.44116,0,0,0,0,0,0,0,-1,1819,554,4.72191,-3.44116
602,470,9.87341,3.75671,0,0,0,0,0,0,0,-1,1826,554,9.87341,-3.7567
609,470,13.5139,4.0351,0,0,0,0,0,0,0,-1,1833,554,13.5139,-4.03509
616,470,0,0,0,0,0,0,0,0,0,-1,1840,554,0,0
623,470,0,0,0,0,0,0,0,0,0,-1,1847,554,0,0
630,470,0,0,0,0,0,0,0,0,0,-1,1854,554,0,0
637,470,0,0,0,0,0,0,0,0,0,-1,1861,554,0,0
644,470,0,0,0,0,0,0,0,0,0,-1,1868,554,0,0
651,470,0,0,0,0,0,0,0,0,0,-1,1875,554,0,0
658,470,0,0,0,0,0,0,0,0,0,-1,1882,554,0,0
665,470,0,0,0,0,0,0,0,0,0,-1,1889,554,0,0
672,470,0,0,0,0,0,0,0,0,0,-1,1896,554,0,0
679,470,0,0,0,0,0,0,0,0,0,-1,1903,554,0,0
686,470,0,0,0,0,0,0,0,0,0,-1,1910,554,0,0
693,470,0,0,0,0,0,0,0,0,0,-1,1917,554,0,0
700,470,0,0,0,0,0,0,0,0,0,-1,1924,554,0,0
707,470,0,0,0,0,0,0,0,0,0,-1,1931,554,0,0
714,470,0,0,0,0,0,0,0,0,0,-1,1938,554,0,0
721,470,0,0,0,0,0,0,0,0,0,-1,1945,554,0,0
728,470,0,0,0,0,0,0,0,0,0,-1,1952,554,0,0
735,470,0,0,0,0,0,0,0,0,0,-1,1959,554,0,0
742,470,0,0,0,0,0,0,0,0,0,-1,1966,554,0,0
749,470,0,0,0,0,0,0,0,0,0,-1,1973,554,0,0
756,470,0,0,0,0,0,0,0,0,0,-1,1980,554,0,0
763,470,0,0,0,0,0,0,0,0,0,-1,1987,554,0,0
770,470,0,0,0,0,0,0,0,0,0,-1,1994,554,0,0
777,470,0,0,0,0,0,0,0,0,0,-1,2001,554,0,0
784,470,0,0,0,0,0,0,0,0,0,-1,2008,554,0,0
791,470,0,0,0,0,0,0,0,0,0,-1,2015,554,0,0
798,470,0,0,0,0,0,0,0,0,0,-1,2022,554,0,0
805,470,0,0,0,0,0,0,0,0,0,-1,2029,554,0,0
812,470,0,0,0,0,0,0,0,0,0,-1,2036,554,0,0
-700,463,0,0,0,0,0,0,0,0,0,-1,524,561,0,0
-693,463,0,0,0,0,0,0,0,0,0,-1,531,561,0,0
-686,463,0,0,0,0,0,0,0,0,0,-1,538,561,0,0
-679,463,0,0,0,0,0,0,0,0,0,-1,545,561,0,0
-672,463,0,0,0,0,0,0,0,0,0,-1,552,561,0,0
-665,463,0,0,0,0,0,0,0,0,0,-1,559,561,0,0
-658,463,0,0,0,0,0,0,0,0,0,-1,566,561,0,0
-651,463,0,0,0,0,0,0,0,0,0,-1,573,561,0,0
-644,463,0,0,0,0,0,0,0,0,0,-1,580,561,0,0
-637,463,0,0,0,0,0,0,0,0,0,-1,587,561,0,0
-630,463,0,0,0,0,0,0,0,0,0,-1,594,561,0,0
-623,463,0,0,0,0,0,0,0,0,0,-1,601,561,0,0
-616,463,0,0,0,0,0,0,0,0,0,-1,608,561,0,0
-609,463,0,0,0,0,0,0,0,0,0,-1,615,561,0,0
-602,463,0,0,0,0,0,0,0,0,0,-1,622,561,0,0
-595,463,0,0,0,0,0,0,0,0,0,-1,629,561,0,0
-588,463,0,0,0,0,0,0,0,0,0,-1,636,561,0,0
-581,463,0,0,0,0,0,0,0,0,0,-1,643,561,0,0
-574,463,0,0,0,0,0,0,0,0,0,-1,650,561,0,0
-567,463,0,0,0,0,0,0,0,0,0,-1,657,561,0,0
-560,463,0,0,0,0,0,0,0,0,0,-1,664,561,0,0
-553,463,0,0,0,0,0,0,0,0,0,-1,671,561,0,0
-546,463,0,0,0,0,0,0,0,0,0,-1,678,561,0,0
-539,463,0,0,0,0,0,0,0,0,0,-1,685,561,0,0
-532,463,0,0,0,0,0,0,0,0,0,-1,692,561,0,0
-525,463,0,0,0,0,0,0,0,0,0,-1,699,561,0,0
-518,463,0,0,0,0,0,0,0,0,0,-1,706,561,0,0
-511,463,0,0,0,0,0,0,0,0,0,-1,713,561,0,0
-504,463,0,0,0,0,0,0,0,0,0,-1,720,561,0,0
-497,463,-0.521423,1.65186,0,0,0,0,0,0,0,-1,727,561,-0.521433,-1.65183
-490,463,0.111633,1.13525,0,0,0,0,0,0,0,-1,734,561,0.11165,-1.13523
-483,463,-0.0881348,-0.231995,0,0,0,0,0,0,0,-1,741,561,-0.0881456,0.232001
-476,463,-0.287964,-1.59924,0,0,0,0,0,0,0,-1,748,561,-0.287941,1.59923
-469,463,0.653809,-2.58124,0,0,0,0,0,0,0,-1,755,561,0.653829,2.58126
-462,463,-0.450195,-0.849304,0,0,0,0,0,0,0,-1,762,561,-0.4502,0.849334
-455,463,0.0856934,-1.20837,0,0,0,0,0,0,0,-1,769,561,0.0856803,1.2084
-448,463,0.0443115,-1.45056,0.00968041,0.0374672,-0.00219947,0.0376403,0.00950739,-1.49229,0.0226011,0.0425895,776,561,0.0442968,1.45054
-441,463,0.0291138,-1.76416,0.00796594,0.0297944,-0.0022345,0.0300208,0.00773955,-1.46983,0.0179976,0.0280477,783,561,0.0291113,1.76417
-434,463,0.0317383,-1.87726,0.00638498,0.0229245,-0.00203777,0.0231718,0.00613761,-1.45,0.0138626,0.0111353,790,561,0.0317198,1.87724
-427,463,0.0343018,-1.99896,0.00496271,0.0173764,-0.00178693,0.0176285,0.0047106,-1.43064,0.0105391,0.00885245,797,561,0.0342787,1.99895
-420,463,0.0523071,-2.12347,0.00364892,0.0126946,-0.00140503,0.0129078,0.00343571,-1.4202,0.00771917,0.00904329,804,561,0.0523209,2.12348
-413,463,0.0419312,-2.24622,0.00252572,0.00901485,-0.00109566,0.00919485,0.00234571,-1.40796,0.00551681,0.00809963,811,561,0.0419035,2.2462
-406,463,0.00457764,-2.36047,0.00170811,0.00619837,-0.000791495,0.0063338,0.00157268,-1.40133,0.00380814,0.00729718,818,561,0.00457227,2.36047
-399,463,0.0170288,-2.49438,0.000930686,0.00381504,-0.000588097,0.00393034,0.000815386,-1.3772,0.00239515,0.0086317,825,561,0.0170176,2.49436
-392,463,0.0332031,-2.62817,4.49971e-05,0.00160537,-0.00045237,0.00172703,-7.66641e-05,-1.30807,0.00117774,0.00914971,832,561,0.0332311,2.62819
-385,463,0.0202637,-2.74799,-0.000319143,0.000244708,-0.000296365,0.000371823,-0.000446258,-1.16562,0.000472971,0.00986039,839,561,0.0202361,2.74796
-378,463,0.0272827,-2.88684,-0.000218658,-0.000496375,-0.000216204,-0.000100562,-0.000614472,-0.499942,0.000380582,0.0107183,846,561,0.0272882,2.88687
-371,463,0.0455933,-3.0127,-0.000293005,-0.000558108,-0.000234464,-0.000156218,-0.000694895,-0.528127,0.000420966,0.0109489,853,561,0.0456185,3.01271
-364,463,0.0756836,-3.09387,-0.000174589,-0.000675348,-0.000302294,-3.24489e-05,-0.000817488,-0.439529,0.000534504,0.0136975,860,561,0.0756733,3.09387
-357,463,0.0761719,-3.18378,3.26287e-05,-0.000837426,-0.000485634,0.00024959,-0.00105439,-0.420155,0.00079922,0.0152083,867,561,0.0761428,3.18376
-350,463,0.0367432,-3.35724,9.84201e-05,-0.000705342,-0.000449519,0.000299511,-0.000906433,-0.420646,0.000725048,0.0147714,874,561,0.0367284,3.35723
-343,463,0.103577,-3.44727,0.000500127,-0.000479534,-0.00024386,0.000557472,-0.000536879,-0.230961,0.000631861,0.0257775,881,561,0.103573,3.44727
-336,463,0.119812,-3.59357,0.00158622,0.000269241,-0.000359289,0.00167786,0.000177599,-0.24974,0.00106432,0.0358322,888,561,0.119811,3.59354
-329,463,0.420288,-3.4541,0.00239879,0.00115023,-0.000391277,0.00251127,0.00103774,-0.279934,0.00145714,0.0430855,895,561,0.420262,3.45409
-322,463,0.72937,-3.26483,0,0,0,0,0,0,0,-1,902,561,0.7294,3.26483
-315,463,1.65344,-2.54279,0,0,0,0,0,0,0,-1,909,561,1.65345,2.5428
-308,463,2.52643,-2.75397,0,0,0,0,0,0,0,-1,916,561,2.52645,2.75397
-301,463,-0.836731,3.23724,0,0,0,0,0,0,0,-1,923,561,-0.836748,-3.23724
-294,463,-2.03992,3.04138,0,0,0,0,0,0,0,-1,930,561,-2.03991,-3.0414
-287,463,-2.80322,2.73999,0,0,0,0,0,0,0,-1,937,561,-2.80322,-2.74
-280,463,-3.29858,2.24219,0,0,0,0,0,0,0,-1,944,561,-3.29859,-2.24221
-273,463,-3.89429,1.77289,0,0,0,0,0,0,0,-1,951,561,-3.89426,-1.77287
-266,463,-0.36261,-3.09674,0,0,0,0,0,0,0,-1,958,561,-0.362581,3.09673
-259,463,1.29675,-3.47339,0,0,0,0,0,0,0,-1,965,561,1.29678,3.47338
-252,463,0,0,0,0,0,0,0,0,0,-1,972,561,0,0
-245,463,0,0,0,0,0,0,0,0,0,-1,979,561,0,0
-238,463,0,0,0,0,0,0,0,0,0,-1,986,561,0,0
-231,463,0,0,0,0,0,0,0,0,0,-1,993,561,0,0
-224,463,0,0,0,0,0,0,0,0,0,-1,1000,561,0,0
-217,463,0,0,0,0,0,0,0,0,0,-1,1007,561,0,0
-210,463,0,0,0,0,0,0,0,0,0,-1,1014,561,0,0
-203,463,0,0,0,0,0,0,0,0,0,-1,1021,561,0,0
-196,463,0,0,0,0,0,0,0,0,0,-1,1028,561,0,0
-189,463,0,0,0,0,0,0,0,0,0,-1,1035,561,0,0
-182,463,0,0,0,0,0,0,0,0,0,-1,1042,561,0,0
-175,463,0,0,0,0,0,0,0,0,0,-1,1049,561,0,0
-168,463,0,0,0,0,0,0,0,0,0,-1,1056,561,0,0
-161,463,0,0,0,0,0,0,0,0,0,-1,1063,561,0,0
-154,463,0,0,0,0,0,0,0,0,0,-1,1070,561,0,0
-147,463,0,0,0,0,0,0,0,0,0,-1,1077,561,0,0
-140,463,0,0,0,0,0,0,0,0,0,-1,1084,561,0,0
-133,463,0,0,0,0,0,0,0,0,0,-1,1091,561,0,0
-126,463,0,0,0,0,0,0,0,0,0,-1,1098,561,0,0
-119,463,0,0,0,0,0,0,0,0,0,-1,1105,561,0,0
-112,463,0,0,0,0,0,0,0,0,0,-1,1112,561,0,0
-105,463,0,0,0,0,0,0,0,0,0,-1,1119,561,0,0
-98,463,0,0,0,0,0,0,0,0,0,-1,1126,561,0,0
-91,463,0,0,0,0,0,0,0,0,0,-1,1133,561,0,0
-84,463,0,0,0,0,0,0,0,0,0,-1,1140,561,0,0
-77,463,0,0,0,0,0,0,0,0,0,-1,1147,561,0,0
-70,463,0,0,0,0,0,0,0,0,0,-1,1154,561,0,0
-63,463,0,0,0,0,0,0,0,0,0,-1,1161,561,0,0
-56,463,0,0,0,0,0,0,0,0,0,-1,1168,561,0,0
-49,463,0,0,0,0,0,0,0,0,0,-1,1175,561,0,0
-42,463,0,0,0,0,0,0,0,0,0,-1,1182,561,0,0
-35,463,0,0,0,0,0,0,0,0,0,-1,1189,561,0,0
-28,463,0,0,0,0,0,0,0,0,0,-1,1196,561,0,0
-21,463,0,0,0,0,0,0,0,0,0,-1,1203,561,0,0
-14,463,0,0,0,0,0,0,0,0,0,-1,1210,561,0,0
-7,463,0,0,0,0,0,0,0,0,0,-1,1217,561,0,0
0,463,0,0,0,0,0,0,0,0,0,-1,1224,561,0,0
7,463,0,0,0,0,0,0,0,0,0,-1,1231,561,0,0
14,463,0,0,0,0,0,0,0,0,0,-1,1238,561,0,0
21,463,0,0,0,0,0,0,0,0,0,-1,1245,561,0,0
28,463,0,0,0,0,0,0,0,0,0,-1,1252,561,0,0
35,463,0,0,0,0,0,0,0,0,0,-1,1259,561,0,0
42,463,0,0,0,0,0,0,0,0,0,-1,1266,561,0,0
49,463,0,0,0,0,0,0,0,0,0,-1,1273,561,0,0
56,463,0,0,0,0,0,0,0,0,0,-1,1280,561,0,0
63,463,0,0,0,0,0,0,0,0,0,-1,1287,561,0,0
70,463,0,0,0,0,0,0,0,0,0,-1,1294,561,0,0
77,463,0,0,0,0,0,0,0,0,0,-1,1301,561,0,0
84,463,0,0,0,0,0,0,0,0,0,-1,1308,561,0,0
91,463,0,0,0,0,0,0,0,0,0,-1,1315,561,0,0
98,463,0,0,0,0,0,0,0,0,0,-1,1322,561,0,0
105,463,0,0,0,0,0,0,0,0,0,-1,1329,561,0,0
112,463,0,0,0,0,0,0,0,0,0,-1,1336,561,0,0
119,463,0,0,0,0,0,0,0,0,0,-1,1343,561,0,0
126,463,0,0,0,0,0,0,0,0,0,-1,1350,561,0,0
133,463,0,0,0,0,0,0,0,0,0,-1,1357,561,0,0
140,463,0,0,0,0,0,0,0,0,0,-1,1364,561,0,0
147,463,0,0,0,0,0,0,0,0,0,-1,1371,561,0,0
154,463,0,0,0,0,0,0,0,0,0,-1,1378,561,0,0
161,463,0,0,0,0,0,0,0,0,0,-1,1385,561,0,0
168,463,0,0,0,0,0,0,0,0,0,-1,1392,561,0,0
175,463,0,0,0,0,0,0,0,0,0,-1,1399,561,0,0
182,463,0,0,0,0,0,0,0,0,0,-1,1406,561,0,0
189,463,0,0,0,0,0,0,0,0,0,-1,1413,561,0,0
196,463,0,0,0,0,0,0,0,0,0,-1,1420,561,0,0
203,463,0,0,0,0,0,0,0,0,0,-1,1427,561,0,0
210,463,0,0,0,0,0,0,0,0,0,-1,1434,561,0,0
217,463,0,0,0,0,0,0,0,0,0,-1,1441,561,0,0
224,463,0,0,0,0,0,0,0,0,0,-1,1448,561,0,0
231,463,0,0,0,0,0,0,0,0,0,-1,1455,561,0,0
238,463,0,0,0,0,0,0,0,0,0,-1,1462,561,0,0
245,463,0,0,0,0,0,0,0,0,0,-1,1469,561,0,0
252,463,0,0,0,0,0,0,0,0,0,-1,1476,561,0,0
259,463,0,0,0,0,0,0,0,0,0,-1,1483,561,0,0
266,463,0,0,0,0,0,0,0,0,0,-1,1490,561,0,0
273,463,0,0,0,0,0,0,0,0,0,-1,1497,561,0,0
280,463,0,0,0,0,0,0,0,0,0,-1,1504,561,0,0
287,463,0,0,0,0,0,0,0,0,0,-1,1511,561,0,0
294,463,0,0,0,0,0,0,0,0,0,-1,1518,561,0,0
301,463,0,0,0,0,0,0,0,0,0,-1,1525,561,0,0
308,463,0,0,0,0,0,0,0,0,0,-1,1532,561,0,0
315,463,0,0,0,0,0,0,0,0,0,-1,1539,561,0,0
322,463,0,0,0,0,0,0,0,0,0,-1,1546,561,0,0
329,463,0,0,0,0,0,0,0,0,0,-1,1553,561,0,0
336,463,0,0,0,0,0,0,0,0,0,-1,1560,561,0,0
343,463,0,0,0,0,0,0,0,0,0,-1,1567,561,0,0
350,463,0,0,0,0,0,0,0,0,0,-1,1574,561,0,0
357,463,0,0,0,0,0,0,0,0,0,-1,1581,561,0,0
364,463,0,0,0,0,0,0,0,0,0,-1,1588,561,0,0
371,463,1.84521,1.92627,0,0,0,0,0,0,0,-1,1595,561,1.8452,-1.92625
378,463,4.49438,1.87408,0,0,0,0,0,0,0,-1,1602,561,4.49443,-1.87408
385,463,7.05786,1.72406,0.340501,-0.0165976,0.116224,0.374996,-0.0510926,0.288516,0.268653,0.0496788,1609,561,7.05786,-1.72405
392,463,9.22827,1.72736,0.332898,-0.0174981,0.110493,0.364831,-0.0494305,0.281334,0.261261,0.0471104,1616,561,9.2283,-1.72737
399,463,11.6486,1.63202,0,0,0,0,0,0,0,-1,1623,561,11.6486,-1.63199
406,463,7.28088,1.38538,0,0,0,0,0,0,0,-1,1630,561,7.28091,-1.38537
413,463,8.05847,1.82239,0,0,0,0,0,0,0,-1,1637,561,8.05851,-1.82241
420,463,8.849,2.26611,0,0,0,0,0,0,0,-1,1644,561,8.84899,-2.26613
427,463,5.12207,1.69183,0,0,0,0,0,0,0,-1,1651,561,5.12206,-1.69184
434,463,4.59814,1.81995,0,0,0,0,0,0,0,-1,1658,561,4.59812,-1.81994
441,463,1.76392,-5.99225,0,0,0,0,0,0,0,-1,1665,561,1.7639,5.99225
448,463,2.49939,-4.30536,0,0,0,0,0,0,0,-1,1672,561,2.49941,4.30536
455,463,4.40295,-3.02557,0,0,0,0,0,0,0,-1,1679,561,4.40299,3.02558
462,463,4.36731,-2.75098,0,0,0,0,0,0,0,-1,1686,561,4.36726,2.75098
469,463,4.87769,-2.98071,0,0,0,0,0,0,0,-1,1693,561,4.87772,2.98071
476,463,4.79065,-2.66351,-0.00182274,0.000775622,-0.00184555,0.00173341,-0.00278053,-1.09209,0.00262939,0.0497218,1700,561,4.79064,2.66352
483,463,4.73364,-2.58972,-0.0020202,0.00074559,-0.00138037,0.00131662,-0.00259123,-1.17855,0.00229585,0.0242041,1707,561,4.73365,2.58975
490,463,4.81177,-2.37146,-0.00191667,0.000442988,-0.00112328,0.000892194,-0.00236588,-1.19037,0.00194413,0.0143451,1714,561,4.8118,2.37148
497,463,4.8252,-2.21753,-0.00168677,0.000210216,-0.000969102,0.000617745,-0.0020943,-1.17272,0.00164134,0.0120587,1721,561,4.82526,2.21756
504,463,4.84497,-2.10059,-0.00143492,5.9553e-05,-0.000740378,0.00036423,-0.0017396,-1.1804,0.00129828,0.0165296,1728,561,4.84497,2.10056
511,463,4.84656,-1.97302,-0.000929715,3.25131e-06,-0.000381661,0.000139488,-0.00106595,-1.22794,0.000761402,0.0229504,1735,561,4.8465,1.97303
518,463,4.87109,-1.80927,-0.000288917,0.000175794,8.43729e-05,0.000190639,-0.000303762,1.39664,0.000287922,0.0235204,1742,561,4.87114,1.80926
525,463,4.8634,-1.68994,0.000745997,0.000490419,0.000838963,0.00146685,-0.000230431,0.70982,0.00106307,0.0188154,1749,561,4.86339,1.68993
532,463,4.8606,-1.54462,0.00198318,0.000873455,0.00163193,0.003152,-0.000295364,0.621527,0.00220639,0.0150238,1756,561,4.86062,1.5446
539,463,4.85706,-1.39001,0.003411,0.00145388,0.00263157,0.00524006,-0.000375179,0.607393,0.00362491,0.0147094,1763,561,4.85702,1.39004
546,463,4.83289,-1.27484,0.00519733,0.00220538,0.00388121,0.00786089,-0.000458175,0.601452,0.0053998,0.0115942,1770,561,4.83285,1.27484
553,463,4.82422,-1.13934,0.00824265,0.00348903,0.00613923,0.0124491,-0.000717423,0.600707,0.00854858,0.0103585,1777,561,4.8242,1.13932
560,463,4.82874,-0.976074,0.0112875,0.00473045,0.0083832,0.0170105,-0.00099251,0.599,0.0116852,0.0116811,1784,561,4.82876,0.976066
567,463,4.78979,-0.850281,0.0152243,0.00634307,0.011241,0.02287,-0.00130261,0.597287,0.0156989,0.0137598,1791,561,4.78977,0.850303
574,463,4.80688,-0.76886,0.0204055,0.00837682,0.014933,0.0304898,-0.00170744,0.593957,0.0209189,0.0358078,1798,561,4.80686,0.76885
581,463,4.94885,-0.637817,0,0,0,0,0,0,0,-1,1805,561,4.9489,0.637795
588,463,1.97424,2.16016,0,0,0,0,0,0,0,-1,1812,561,1.97422,-2.16013
595,463,6.15161,1.36316,0,0,0,0,0,0,0,-1,1819,561,6.15158,-1.36318
602,463,8.53882,3.04987,0,0,0,0,0,0,0,-1,1826,561,8.53878,-3.04984
609,463,11.0408,4.21155,0,0,0,0,0,0,0,-1,1833,561,11.0408,-4.21158
616,463,12.827,2.65363,0,0,0,0,0,0,0,-1,1840,561,12.827,-2.65362
623,463,0,0,0,0,0,0,0,0,0,-1,1847,561,0,0
630,463,0,0,0,0,0,0,0,0,0,-1,1854,561,0,0
637,463,0,0,0,0,0,0,0,0,0,-1,1861,561,0,0
644,463,0,0,0,0,0,0,0,0,0,-1,1868,561,0,0
651,463,0,0,0,0,0,0,0,0,0,-1,1875,561,0,0
658,463,0,0,0,0,0,0,0,0,0,-1,1882,561,0,0
665,463,0,0,0,0,0,0,0,0,0,-1,1889,561,0,0
672,463,0,0,0,0,0,0,0,0,0,-1,1896,561,0,0
679,463,0,0,0,0,0,0,0,0,0,-1,1903,561,0,0
686,463,0,0,0,0,0,0,0,0,0,-1,1910,561,0,0
693,463,0,0,0,0,0,0,0,0,0,-1,1917,561,0,0
700,463,0,0,0,0,0,0,0,0,0,-1,1924,561,0,0
707,463,0,0,0,0,0,0,0,0,0,-1,1931,561,0,0
714,463,0,0,0,0,0,0,0,0,0,-1,1938,561,0,0
721,463,0,0,0,0,0,0,0,0,0,-1,1945,561,0,0
728,463,0,0,0,0,0,0,0,0,0,-1,1952,561,0,0
735,463,0,0,0,0,0,0,0,0,0,-1,1959,561,0,0
742,463,0,0,0,0,0,0,0,0,0,-1,1966,561,0,0
749,463,0,0,0,0,0,0,0,0,0,-1,1973,561,0,0
756,463,0,0,0,0,0,0,0,0,0,-1,1980,561,0,0
763,463,0,0,0,0,0,0,0,0,0,-1,1987,561,0,0
770,463,0,0,0,0,0,0,0,0,0,-1,1994,561,0,0
777,463,0,0,0,0,0,0,0,0,0,-1,2001,561,0,0
784,463,0,0,0,0,0,0,0,0,0,-1,2008,561,0,0
791,463,0,0,0,0,0,0,0,0,0,-1,2015,561,0,0
798,463,0,0,0,0,0,0,0,0,0,-1,2022,561,0,0
805,463,0,0,0,0,0,0,0,0,0,-1,2029,561,0,0
812,463,0,0,0,0,0,0,0,0,0,-1,2036,561,0,0
-700,456,0,0,0,0,0,0,0,0,0,-1,524,568,0,0
-693,456,0,0,0,0,0,0,0,0,0,-1,531,568,0,0
-686,456,0,0,0,0,0,0,0,0,0,-1,538,568,0,0
-679,456,0,0,0,0,0,0,0,0,0,-1,545,568,0,0
-672,456,0,0,0,0,0,0,0,0,0,-1,552,568,0,0
-665,456,0,0,0,0,0,0,0,0,0,-1,559,568,0,0
-658,456,0,0,0,0,0,0,0,0,0,-1,566,568,0,0
-651,456,0,0,0,0,0,0,0,0,0,-1,573,568,0,0
-644,456,0,0,0,0,0,0,0,0,0,-1,580,568,0,0
-637,456,0,0,0,0,0,0,0,0,0,-1,587,568,0,0
-630,456,0,0,0,0,0,0,0,0,0,-1,594,568,0,0
-623,456,0,0,0,0,0,0,0,0,0,-1,601,568,0,0
-616,456,0,0,0,0,0,0,0,0,0,-1,608,568,0,0
-609,456,0,0,0,0,0,0,0,0,0,-1,615,568,0,0
-602,456,0,0,0,0,0,0,0,0,0,-1,622,568,0,0
-595,456,0,0,0,0,0,0,0,0,0,-1,629,568,0,0
-588,456,0,0,0,0,0,0,0,0,0,-1,636,568,0,0
-581,456,0,0,0,0,0,0,0,0,0,-1,643,568,0,0
-574,456,0,0,0,0,0,0,0,0,0,-1,650,568,0,0
-567,456,0,0,0,0,0,0,0,0,0,-1,657,568,0,0
-560,456,0,0,0,0,0,0,0,0,0,-1,664,568,0,0
-553,456,0,0,0,0,0,0,0,0,0,-1,671,568,0,0
-546,456,0,0,0,0,0,0,0,0,0,-1,678,568,0,0
-539,456,0,0,0,0,0,0,0,0,0,-1,685,568,0,0
-532,456,0,0,0,0,0,0,0,0,0,-1,692,568,0,0
-525,456,0,0,0,0,0,0,0,0,0,-1,699,568,0,0
-518,456,0,0,0,0,0,0,0,0,0,-1,706,568,0,0
-511,456,0,0,0,0,0,0,0,0,0,-1,713,568,0,0
-504,456,-0.796204,1.86359,0,0,0,0,0,0,0,-1,720,568,-0.796205,-1.86357
-497,456,-0.644592,1.24451,0,0,0,0,0,0,0,-1,727,568,-0.644579,-1.24452
-490,456,-0.401367,0.391724,0,0,0,0,0,0,0,-1,734,568,-0.401367,-0.3917
-483,456,-0.176147,-0.44928,0,0,0,0,0,0,0,-1,741,568,-0.176157,0.449279
-476,456,-0.392029,-2.0163,0,0,0,0,0,0,0,-1,748,568,-0.392044,2.01628
-469,456,-0.435913,-3.98492,0,0,0,0,0,0,0,-1,755,568,-0.435942,3.98495
-462,456,-0.122864,-1.11774,0,0,0,0,0,0,0,-1,762,568,-0.122867,1.11776
-455,456,-0.0875854,-1.28516,0.00473991,0.029839,-0.00242289,0.0300707,0.00450816,-1.47544,0.0187262,0.0474335,769,568,-0.0875857,1.28517
-448,456,-0.0445557,-1.5188,0.00664644,0.0266263,-0.00268522,0.0269809,0.00629185,-1.4395,0.0162999,0.031621,776,568,-0.04456,1.51882
-441,456,-0.0906372,-1.74994,0.00563962,0.0212596,-0.00258844,0.0216773,0.00522186,-1.41078,0.0130636,0.0145012,783,568,-0.0906081,1.74993
-434,456,-0.102417,-1.86908,0.00458128,0.0162545,-0.002278,0.0166833,0.00415248,-1.38474,0.0100288,0.0086685,790,568,-0.102415,1.86909
-427,456,-0.0935059,-1.99158,0.00351552,0.0123198,-0.00196225,0.0127373,0.00309798,-1.36114,0.00767034,0.00825534,797,568,-0.0935,1.99159
-420,456,-0.0823975,-2.12177,0.00242133,0.00894292,-0.0015505,0.00929278,0.00207147,-1.34887,0.00563312,0.00840206,804,568,-0.0823774,2.12175
-413,456,-0.0934448,-2.24408,0.00140537,0.00632026,-0.00124084,0.00661576,0.00110987,-1.337,0.00409104,0.00754348,811,568,-0.0934253,2.24411
-406,456,-0.115173,-2.35931,0.000639972,0.00432834,-0.000927482,0.00454843,0.00041988,-1.3378,0.00290247,0.00765391,818,568,-0.115147,2.35932
-399,456,-0.111206,-2.48175,-0.000175653,0.00254037,-0.000719549,0.00271922,-0.000354504,-1.32717,0.0019418,0.00893919,825,568,-0.111225,2.48175
-392,456,-0.085144,-2.6087,-0.00113124,0.000896539,-0.000529531,0.00102649,-0.00126119,-1.33014,0.00132311,0.00821966,832,568,-0.0851355,2.60872
-385,456,-0.0858765,-2.7348,-0.00156334,-2.4602e-05,-0.000339077,4.68034e-05,-0.00163475,-1.36324,0.00110576,0.0084208,839,568,-0.0858812,2.73478
-378,456,-0.0952759,-2.88,-0.00152041,-0.00057783,-0.000301184,-0.000489811,-0.00160843,-1.28647,0.000951986,0.00984113,846,568,-0.0952686,2.88003
-371,456,-0.0836182,-3.01318,-0.00170866,-0.000566367,-0.000321595,-0.00048205,-0.00179297,-1.31438,0.00107141,0.0110842,853,568,-0.0836274,3.01316
-364,456,-0.0634766,-3.10504,-0.00163348,-0.000712235,-0.000378748,-0.000576516,-0.0017692,-1.22672,0.00104189,0.0149423,860,568,-0.0635059,3.10504
-357,456,-0.0592041,-3.22253,-0.00134902,-0.00094552,-0.000576709,-0.000536291,-0.00175825,-0.95366,0.00104054,0.0162284,867,568,-0.0592026,3.22253
-350,456,-0.00469971,-3.3172,-0.00110757,-0.000925927,-0.000585835,-0.000423917,-0.00160958,-0.862302,0.000963359,0.0275362,874,568,-0.00472755,3.31722
-343,456,-0.0440063,-3.50598,-0.000414947,-0.000825519,-0.000438872,-0.000135722,-0.00110474,-0.566636,0.000695682,0.0378176,881,568,-0.0439949,3.50596
-336,456,0.0686646,-3.62952,0.00123134,-0.000170722,-0.000571161,0.00143456,-0.000373942,-0.341834,0.00110237,0.0447639,888,568,0.0686844,3.62952
-329,456,0.665222,-3.42554,0.00297318,0.000417713,-0.000715241,0.00315974,0.000231147,-0.255158,0.00203383,0.0483022,895,568,0.665215,3.42552
-322,456,1.16919,-3.09094,0,0,0,0,0,0,0,-1,902,568,1.1692,3.09097
-315,456,1.70935,-3.10504,0,0,0,0,0,0,0,-1,909,568,1.70937,3.10502
-308,456,2.40662,-3.29352,0,0,0,0,0,0,0,-1,916,568,2.40664,3.29354
-301,456,3.04272,-3.36005,0,0,0,0,0,0,0,-1,923,568,3.0427,3.36003
-294,456,-2.59174,2.78485,0,0,0,0,0,0,0,-1,930,568,-2.59171,-2.78488
-287,456,-3.04407,2.09589,0,0,0,0,0,0,0,-1,937,568,-3.04406,-2.09588
-280,456,-3.58478,1.37744,0,0,0,0,0,0,0,-1,944,568,-3.58476,-1.37746
-273,456,-4.14526,0.793213,0,0,0,0,0,0,0,-1,951,568,-4.14529,-0.793201
-266,456,-1.52106,-3.52063,0,0,0,0,0,0,0,-1,958,568,-1.52106,3.52061
-259,456,0,0,0,0,0,0,0,0,0,-1,965,568,0,0
-252,456,0,0,0,0,0,0,0,0,0,-1,972,568,0,0
-245,456,0,0,0,0,0,0,0,0,0,-1,979,568,0,0
-238,456,0,0,0,0,0,0,0,0,0,-1,986,568,0,0
-231,456,0,0,0,0,0,0,0,0,0,-1,993,568,0,0
-224,456,0,0,0,0,0,0,0,0,0,-1,1000,568,0,0
-217,456,0,0,0,0,0,0,0,0,0,-1,1007,568,0,0
-210,456,0,0,0,0,0,0,0,0,0,-1,1014,568,0,0
-203,456,0,0,0,0,0,0,0,0,0,-1,1021,568,0,0
-196,456,0,0,0,0,0,0,0,0,0,-1,1028,568,0,0
-189,456,0,0,0,0,0,0,0,0,0,-1,1035,568,0,0
-182,456,0,0,0,0,0,0,0,0,0,-1,1042,568,0,0
-175,456,0,0,0,0,0,0,0,0,0,-1,1049,568,0,0
-168,456,0,0,0,0,0,0,0,0,0,-1,1056,568,0,0
-161,456,0,0,0,0,0,0,0,0,0,-1,1063,568,0,0
-154,456,0,0,0,0,0,0,0,0,0,-1,1070,568,0,0
-147,456,0,0,0,0,0,0,0,0,0,-1,1077,568,0,0
-140,456,0,0,0,0,0,0,0,0,0,-1,1084,568,0,0
-133,456,0,0,0,0,0,0,0,0,0,-1,1091,568,0,0
-126,456,0,0,0,0,0,0,0,0,0,-1,1098,568,0,0
-119,456,0,0,0,0,0,0,0,0,0,-1,1105,568,0,0
-112,456,0,0,0,0,0,0,0,0,0,-1,1112,568,0,0
-105,456,0,0,0,0,0,0,0,0,0,-1,1119,568,0,0
-98,456,0,0,0,0,0,0,0,0,0,-1,1126,568,0,0
-91,456,0,0,0,0,0,0,0,0,0,-1,1133,568,0,0
-84,456,0,0,0,0,0,0,0,0,0,-1,1140,568,0,0
-77,456,0,0,0,0,0,0,0,0,0,-1,1147,568,0,0
-70,456,0,0,0,0,0,0,0,0,0,-1,1154,568,0,0
-63,456,0,0,0,0,0,0,0,0,0,-1,1161,568,0,0
-56,456,0,0,0,0,0,0,0,0,0,-1,1168,568,0,0
-49,456,0,0,0,0,0,0,0,0,0,-1,1175,568,0,0
-42,456,0,0,0,0,0,0,0,0,0,-1,1182,568,0,0
-35,456,0,0,0,0,0,0,0,0,0,-1,1189,568,0,0
-28,456,0,0,0,0,0,0,0,0,0,-1,1196,568,0,0
-21,456,0,0,0,0,0,0,0,0,0,-1,1203,568,0,0
-14,456,0,0,0,0,0,0,0,0,0,-1,1210,568,0,0
-7,456,0,0,0,0,0,0,0,0,0,-1,1217,568,0,0
0,456,0,0,0,0,0,0,0,0,0,-1,1224,568,0,0
7,456,0,0,0,0,0,0,0,0,0,-1,1231,568,0,0
14,456,0,0,0,0,0,0,0,0,0,-1,1238,568,0,0
21,456,0,0,0,0,0,0,0,0,0,-1,1245,568,0,0
28,456,0,0,0,0,0,0,0,0,0,-1,1252,568,0,0
35,456,0,0,0,0,0,0,0,0,0,-1,1259,568,0,0
42,456,0,0,0,0,0,0,0,0,0,-1,1266,568,0,0
49,456,0,0,0,0,0,0,0,0,0,-1,1273,568,0,0
56,456,0,0,0,0,0,0,0,0,0,-1,1280,568,0,0
63,456,0,0,0,0,0,0,0,0,0,-1,1287,568,0,0
70,456,0,0,0,0,0,0,0,0,0,-1,1294,568,0,0
77,456,0,0,0,0,0,0,0,0,0,-1,1301,568,0,0
84,456,0,0,0,0,0,0,0,0,0,-1,1308,568,0,0
91,456,0,0,0,0,0,0,0,0,0,-1,1315,568,0,0
98,456,0,0,0,0,0,0,0,0,0,-1,1322,568,0,0
105,456,0,0,0,0,0,0,0,0,0,-1,1329,568,0,0
112,456,0,0,0,0,0,0,0,0,0,-1,1336,568,0,0
119,456,0,0,0,0,0,0,0,0,0,-1,1343,568,0,0
126,456,0,0,0,0,0,0,0,0,0,-1,1350,568,0,0
133,456,0,0,0,0,0,0,0,0,0,-1,1357,568,0,0
140,456,0,0,0,0,0,0,0,0,0,-1,1364,568,0,0
147,456,0,0,0,0,0,0,0,0,0,-1,1371,568,0,0
154,456,0,0,0,0,0,0,0,0,0,-1,1378,568,0,0
161,456,0,0,0,0,0,0,0,0,0,-1,1385,568,0,0
168,456,0,0,0,0,0,0,0,0,0,-1,1392,568,0,0
175,456,0,0,0,0,0,0,0,0,0,-1,1399,568,0,0
182,456,0,0,0,0,0,0,0,0,0,-1,1406,568,0,0
189,456,0,0,0,0,0,0,0,0,0,-1,1413,568,0,0
196,456,0,0,0,0,0,0,0,0,0,-1,1420,568,0,0
203,456,0,0,0,0,0,0,0,0,0,-1,1427,568,0,0
210,456,0,0,0,0,0,0,0,0,0,-1,1434,568,0,0
217,456,0,0,0,0,0,0,0,0,0,-1,1441,568,0,0
224,456,0,0,0,0,0,0,0,0,0,-1,1448,568,0,0
231,456,0,0,0,0,0,0,0,0,0,-1,1455,568,0,0
238,456,0,0,0,0,0,0,0,0,0,-1,1462,568,0,0
245,456,0,0,0,0,0,0,0,0,0,-1,1469,568,0,0
252,456,0,0,0,0,0,0,0,0,0,-1,1476,568,0,0
259,456,0,0,0,0,0,0,0,0,0,-1,1483,568,0,0
266,456,0,0,0,0,0,0,0,0,0,-1,1490,568,0,0
273,456,0,0,0,0,0,0,0,0,0,-1,1497,568,0,0
280,456,0,0,0,0,0,0,0,0,0,-1,1504,568,0,0
287,456,0,0,0,0,0,0,0,0,0,-1,1511,568,0,0
294,456,0,0,0,0,0,0,0,0,0,-1,1518,568,0,0
301,456,0,0,0,0,0,0,0,0,0,-1,1525,568,0,0
308,456,0,0,0,0,0,0,0,0,0,-1,1532,568,0,0
315,456,0,0,0,0,0,0,0,0,0,-1,1539,568,0,0
322,456,0,0,0,0,0,0,0,0,0,-1,1546,568,0,0
329,456,0,0,0,0,0,0,0,0,0,-1,1553,568,0,0
336,456,0,0,0,0,0,0,0,0,0,-1,1560,568,0,0
343,456,0,0,0,0,0,0,0,0,0,-1,1567,568,0,0
350,456,0,0,0,0,0,0,0,0,0,-1,1574,568,0,0
357,456,0,0,0,0,0,0,0,0,0,-1,1581,568,0,0
364,456,0,0,0,0,0,0,0,0,0,-1,1588,568,0,0
371,456,0,0,0,0,0,0,0,0,0,-1,1595,568,0,0
378,456,0,0,0,0,0,0,0,0,0,-1,1602,568,0,0
385,456,5.52161,1.89551,0.405963,-0.017182,0.144423,0.450557,-0.0617756,0.299483,0.322939,0.0495237,1609,568,5.52161,-1.89551
392,456,7.7655,2.05988,0.401474,-0.0175731,0.143933,0.446148,-0.0622477,0.300958,0.320205,0.0455338,1616,568,7.76546,-2.05987
399,456,10.3174,2.00281,0,0,0,0,0,0,0,-1,1623,568,10.3173,-2.00283
406,456,12.8291,1.86115,0,0,0,0,0,0,0,-1,1630,568,12.8291,-1.86115
413,456,9.55115,1.49933,0,0,0,0,0,0,0,-1,1637,568,9.55119,-1.49933
420,456,6.33875,1.88824,0,0,0,0,0,0,0,-1,1644,568,6.33876,-1.88827
427,456,6.21375,2.02905,0,0,0,0,0,0,0,-1,1651,568,6.21372,-2.02904
434,456,3.0719,-4.86285,0,0,0,0,0,0,0,-1,1658,568,3.07184,4.86287
441,456,2.90344,-4.70459,0,0,0,0,0,0,0,-1,1665,568,2.90346,4.7046
448,456,3.06995,-4.93689,0,0,0,0,0,0,0,-1,1672,568,3.06991,4.93687
455,456,3.46582,-3.43701,0,0,0,0,0,0,0,-1,1679,568,3.46585,3.43698
462,456,4.68445,-4.45831,0,0,0,0,0,0,0,-1,1686,568,4.68439,4.45833
469,456,4.93201,-2.289,0,0,0,0,0,0,0,-1,1693,568,4.93197,2.28903
476,456,4.8363,-2.79364,0,0,0,0,0,0,0,-1,1700,568,4.83636,2.79363
483,456,4.73376,-2.84039,0,0,0,0,0,0,0,-1,1707,568,4.73371,2.84037
490,456,5.03699,-2.57275,-0.00311619,1.45252e-05,-0.00156565,0.000663127,-0.00376479,-1.17805,0.00275761,0.0444233,1714,568,5.03704,2.57273
497,456,4.9668,-2.26495,-0.00271145,-0.000210528,-0.00139242,0.000410502,-0.00333248,-1.15127,0.00237036,0.0204806,1721,568,4.96679,2.26493
504,456,4.96997,-2.08527,-0.00236781,-0.000369622,-0.00112434,0.000135392,-0.00287282,-1.14864,0.0019619,0.0102068,1728,568,4.96997,2.08528
511,456,4.96472,-1.94086,-0.00190579,-0.000419964,-0.000851294,-3.30001e-05,-0.00229275,-1.14416,0.00151762,0.0135047,1735,568,4.9647,1.94088
518,456,4.9657,-1.81049,-0.00130977,-0.000278443,-0.000480914,-8.89922e-05,-0.00149922,-1.19553,0.000971179,0.0159803,1742,568,4.96569,1.81049
525,456,4.98376,-1.69116,-0.000324309,-5.21892e-05,0.00017215,3.11775e-05,-0.000407676,1.11981,0.00028275,0.0155086,1749,568,4.98374,1.69118
532,456,4.99402,-1.52942,0.000823241,0.000293846,0.000859935,0.0014583,-0.000341208,0.636095,0.00110366,0.0144374,1756,568,4.99407,1.52939
539,456,4.99536,-1.35352,0.00205322,0.000797395,0.00168782,0.00322614,-0.000375531,0.607318,0.00228624,0.0165412,1763,568,4.99541,1.35352
546,456,4.98108,-1.27466,0.00354182,0.00141633,0.00269803,0.00537887,-0.000420722,0.597781,0.00373406,0.0179885,1770,568,4.98104,1.27465
553,456,4.96045,-1.13361,0.00611406,0.00254999,0.00460784,0.00927245,-0.000608401,0.600886,0.00639409,0.0123618,1777,568,4.96046,1.13358
560,456,4.95679,-0.989807,0.00858872,0.00357609,0.00641008,0.012965,-0.000800231,0.599038,0.00892208,0.0101608,1784,568,4.95683,0.989779
567,456,4.96265,-0.832703,0.011716,0.00484377,0.00865693,0.0175938,-0.00103405,0.596474,0.0120886,0.0113386,1791,568,4.96266,0.832709
574,456,4.92871,-0.752441,0.0157511,0.0064025,0.0115207,0.0235097,-0.00135606,0.59268,0.0161441,0.0249614,1798,568,4.92871,0.752432
581,456,4.90906,-0.611877,0.0209022,0.008218,0.0151676,0.0310003,-0.00188004,0.587377,0.0213212,0.0475999,1805,568,4.9091,0.611877
588,456,5.15698,-0.289612,0,0,0,0,0,0,0,-1,1812,568,5.15703,0.289598
595,456,6.52588,0.808716,0,0,0,0,0,0,0,-1,1819,568,6.52583,-0.808745
602,456,7.82556,0.490112,0,0,0,0,0,0,0,-1,1826,568,7.82552,-0.490087
609,456,9.21326,0.700745,0,0,0,0,0,0,0,-1,1833,568,9.2132,-0.70073
616,456,10.9193,1.32001,0,0,0,0,0,0,0,-1,1840,568,10.9193,-1.31999
623,456,11.7526,1.20526,0,0,0,0,0,0,0,-1,1847,568,11.7526,-1.20523
630,456,0,0,0,0,0,0,0,0,0,-1,1854,568,0,0
637,456,0,0,0,0,0,0,0,0,0,-1,1861,568,0,0
644,456,0,0,0,0,0,0,0,0,0,-1,1868,568,0,0
651,456,0,0,0,0,0,0,0,0,0,-1,1875,568,0,0
658,456,0,0,0,0,0,0,0,0,0,-1,1882,568,0,0
665,456,0,0,0,0,0,0,0,0,0,-1,1889,568,0,0
672,456,0,0,0,0,0,0,0,0,0,-1,1896,568,0,0
679,456,0,0,0,0,0,0,0,0,0,-1,1903,568,0,0
686,456,0,0,0,0,0,0,0,0,0,-1,1910,568,0,0
693,456,0,0,0,0,0,0,0,0,0,-1,1917,568,0,0
700,456,0,0,0,0,0,0,0,0,0,-1,1924,568,0,0
707,456,0,0,0,0,0,0,0,0,0,-1,1931,568,0,0
714,456,0,0,0,0,0,0,0,0,0,-1,1938,568,0,0
721,456,0,0,0,0,0,0,0,0,0,-1,1945,568,0,0
728,456,0,0,0,0,0,0,0,0,0,-1,1952,568,0,0
735,456,0,0,0,0,0,0,0,0,0,-1,1959,568,0,0
742,456,0,0,0,0,0,0,0,0,0,-1,1966,568,0,0
749,456,0,0,0,0,0,0,0,0,0,-1,1973,568,0,0
756,456,0,0,0,0,0,0,0,0,0,-1,1980,568,0,0
763,456,0,0,0,0,0,0,0,0,0,-1,1987,568,0,0
770,456,0,0,0,0,0,0,0,0,0,-1,1994,568,0,0
777,456,0,0,0,0,0,0,0,0,0,-1,2001,568,0,0
784,456,0,0,0,0,0,0,0,0,0,-1,2008,568,0,0
791,456,0,0,0,0,0,0,0,0,0,-1,2015,568,0,0
798,456,0,0,0,0,0,0,0,0,0,-1,2022,568,0,0
805,456,0,0,0,0,0,0,0,0,0,-1,2029,568,0,0
812,456,0,0,0,0,0,0,0,0,0,-1,2036,568,0,0
-700,449,0,0,0,0,0,0,0,0,0,-1,524,575,0,0
-693,449,0,0,0,0,0,0,0,0,0,-1,531,575,0,0
-686,449,0,0,0,0,0,0,0,0,0,-1,538,575,0,0
-679,449,0,0,0,0,0,0,0,0,0,-1,545,575,0,0
-672,449,0,0,0,0,0,0,0,0,0,-1,552,575,0,0
-665,449,0,0,0,0,0,0,0,0,0,-1,559,575,0,0
-658,449,0,0,0,0,0,0,0,0,0,-1,566,575,0,0
-651,449,0,0,0,0,0,0,0,0,0,-1,573,575,0,0
-644,449,0,0,0,0,0,0,0,0,0,-1,580,575,0,0
-637,449,0,0,0,0,0,0,0,0,0,-1,587,575,0,0
-630,449,0,0,0,0,0,0,0,0,0,-1,594,575,0,0
-623,449,0,0,0,0,0,0,0,0,0,-1,601,575,0,0
-616,449,0,0,0,0,0,0,0,0,0,-1,608,575,0,0
-609,449,0,0,0,0,0,0,0,0,0,-1,615,575,0,0
-602,449,0,0,0,0,0,0,0,0,0,-1,622,575,0,0
-595,449,0,0,0,0,0,0,0,0,0,-1,629,575,0,0
-588,449,0,0,0,0,0,0,0,0,0,-1,636,575,0,0
-581,449,0,0,0,0,0,0,0,0,0,-1,643,575,0,0
-574,449,0,0,0,0,0,0,0,0,0,-1,650,575,0,0
-567,449,0,0,0,0,0,0,0,0,0,-1,657,575,0,0
-560,449,0,0,0,0,0,0,0,0,0,-1,664,575,0,0
-553,449,0,0,0,0,0,0,0,0,0,-1,671,575,0,0
-546,449,0,0,0,0,0,0,0,0,0,-1,678,575,0,0
-539,449,0,0,0,0,0,0,0,0,0,-1,685,575,0,0
-532,449,0,0,0,0,0,0,0,0,0,-1,692,575,0,0
-525,449,0,0,0,0,0,0,0,0,0,-1,699,575,0,0
-518,449,0,0,0,0,0,0,0,0,0,-1,706,575,0,0
-511,449,1.57977,-0.093811,0,0,0,0,0,0,0,-1,713,575,1.57977,0.0938118
-504,449,2.30499,-1.66632,0,0,0,0,0,0,0,-1,720,575,2.30501,1.66634
-497,449,-0.700806,1.42542,0,0,0,0,0,0,0,-1,727,575,-0.700833,-1.42543
-490,449,-0.39032,0.475647,0,0,0,0,0,0,0,-1,734,575,-0.390345,-0.475626
-483,449,-0.344299,-0.695068,0,0,0,0,0,0,0,-1,741,575,-0.344315,0.695095
-476,449,-0.390137,-1.72815,0,0,0,0,0,0,0,-1,748,575,-0.390119,1.72814
-469,449,-0.189758,-1.10852,0,0,0,0,0,0,0,-1,755,575,-0.189752,1.10851
-462,449,-0.229004,-1.3515,-0.0010505,0.0204012,-0.00189474,0.0205673,-0.00121657,-1.48337,0.0141345,0.0452947,762,575,-0.229025,1.35149
-455,449,-0.287231,-1.45325,0.00201359,0.0193221,-0.00255574,0.0196916,0.0016441,-1.42722,0.0126155,0.0392966,769,575,-0.287209,1.45323
-448,449,-0.226624,-1.59613,0.00413708,0.0178938,-0.00265928,0.01839,0.00364092,-1.38634,0.0112446,0.0204669,776,575,-0.226613,1.59614
-441,449,-0.222168,-1.77924,0.00354735,0.0143875,-0.00247827,0.0149272,0.00300764,-1.35637,0.00911584,0.0132843,783,575,-0.222177,1.77921
-434,449,-0.235779,-1.88306,0.00280653,0.0109253,-0.002053,0.011415,0.00231691,-1.33668,0.00696728,0.0113306,790,575,-0.235802,1.88303
-427,449,-0.226501,-1.99628,0.0019809,0.00829039,-0.00165689,0.00869902,0.00157226,-1.32899,0.00535279,0.0120518,797,575,-0.226498,1.99625
-420,449,-0.210815,-2.1283,0.00105074,0.00594231,-0.00120421,0.00622269,0.00077036,-1.34204,0.00391701,0.0121651,804,575,-0.2108,2.1283
-413,449,-0.22052,-2.24683,0.000117324,0.00415719,-0.000889783,0.00434448,-6.99679e-05,-1.36333,0.00291992,0.00906849,811,575,-0.22051,2.2468
-406,449,-0.236389,-2.36365,-0.00059651,0.00282174,-0.000575576,0.00291605,-0.000690825,-1.40838,0.00221059,0.00836217,818,575,-0.236402,2.36365
-399,449,-0.244934,-2.48712,-0.00142616,0.00151281,-0.000388564,0.00156331,-0.00147667,-1.44154,0.00175537,0.00839887,825,575,-0.244915,2.48709
-392,449,-0.219238,-2.6142,-0.00243018,0.000341633,-0.000187333,0.000354236,-0.00244279,-1.50362,0.00175854,0.00888956,832,575,-0.219267,2.61421
-385,449,-0.203674,-2.72906,-0.00293507,-0.000258108,-1.52261e-05,-0.000258021,-0.00293515,-1.56511,0.00187668,0.00987556,839,575,-0.203651,2.72906
-378,449,-0.219299,-2.84888,-0.00297401,-0.000721259,-6.55358e-05,-0.000719354,-0.00297592,-1.54174,0.00179293,0.00950952,846,575,-0.219292,2.84889
-371,449,-0.206421,-2.97968,-0.00329072,-0.000720858,-0.000136229,-0.000713656,-0.00329792,-1.51798,0.00200355,0.0105342,853,575,-0.206437,2.97966
-364,449,-0.231201,-3.13647,-0.0032961,-0.000961146,-0.000229164,-0.000938868,-0.00331838,-1.47388,0.00197513,0.0205839,860,575,-0.2312,3.13645
-357,449,-0.135559,-3.24158,-0.00299628,-0.00131455,-0.000468545,-0.00119282,-0.00311801,-1.31661,0.00181666,0.0304489,867,575,-0.135579,3.24157
-350,449,0.109985,-3.11511,-0.00265529,-0.00144025,-0.000558578,-0.00122249,-0.00287305,-1.19907,0.00166488,0.0414425,874,575,0.110006,3.11513
-343,449,-0.398926,-3.31628,-0.00175466,-0.00154102,-0.000540647,-0.00109674,-0.00219894,-0.882933,0.00126956,0.0482505,881,575,-0.398938,3.31628
-336,449,-0.169434,-3.82513,0,0,0,0,0,0,0,-1,888,575,-0.169417,3.82515
-329,449,0.793823,-3.6217,0,0,0,0,0,0,0,-1,895,575,0.793794,3.62172
-322,449,1.18494,-3.52509,0,0,0,0,0,0,0,-1,902,575,1.18493,3.52506
-315,449,1.76532,-3.66724,0,0,0,0,0,0,0,-1,909,575,1.76529,3.66724
-308,449,2.03943,-3.50885,0,0,0,0,0,0,0,-1,916,575,2.03941,3.50887
-301,449,2.56299,-3.39166,0,0,0,0,0,0,0,-1,923,575,2.56301,3.39166
-294,449,-3.83563,3.92657,0,0,0,0,0,0,0,-1,930,575,-3.83561,-3.92656
-287,449,-3.1936,1.33002,0,0,0,0,0,0,0,-1,937,575,-3.19359,-1.33
-280,449,-3.867,0.501038,0,0,0,0,0,0,0,-1,944,575,-3.86701,-0.501047
-273,449,0,0,0,0,0,0,0,0,0,-1,951,575,0,0
-266,449,0,0,0,0,0,0,0,0,0,-1,958,575,0,0
-259,449,0,0,0,0,0,0,0,0,0,-1,965,575,0,0
-252,449,0,0,0,0,0,0,0,0,0,-1,972,575,0,0
-245,449,0,0,0,0,0,0,0,0,0,-1,979,575,0,0
-238,449,0,0,0,0,0,0,0,0,0,-1,986,575,0,0
-231,449,0,0,0,0,0,0,0,0,0,-1,993,575,0,0
-224,449,0,0,0,0,0,0,0,0,0,-1,1000,575,0,0
-217,449,0,0,0,0,0,0,0,0,0,-1,1007,575,0,0
-210,449,0,0,0,0,0,0,0,0,0,-1,1014,575,0,0
-203,449,0,0,0,0,0,0,0,0,0,-1,1021,575,0,0
-196,449,0,0,0,0,0,0,0,0,0,-1,1028,575,0,0
-189,449,0,0,0,0,0,0,0,0,0,-1,1035,575,0,0
-182,449,0,0,0,0,0,0,0,0,0,-1,1042,575,0,0
-175,449,0,0,0,0,0,0,0,0,0,-1,1049,575,0,0
-168,449,0,0,0,0,0,0,0,0,0,-1,1056,575,0,0
-161,449,0,0,0,0,0,0,0,0,0,-1,1063,575,0,0
-154,449,0,0,0,0,0,0,0,0,0,-1,1070,575,0,0
-147,449,0,0,0,0,0,0,0,0,0,-1,1077,575,0,0
-140,449,0,0,0,0,0,0,0,0,0,-1,1084,575,0,0
-133,449,0,0,0,0,0,0,0,0,0,-1,1091,575,0,0
-126,449,0,0,0,0,0,0,0,0,0,-1,1098,575,0,0
-119,449,0,0,0,0,0,0,0,0,0,-1,1105,575,0,0
-112,449,0,0,0,0,0,0,0,0,0,-1,1112,575,0,0
-105,449,0,0,0,0,0,0,0,0,0,-1,1119,575,0,0
-98,449,0,0,0,0,0,0,0,0,0,-1,1126,575,0,0
-91,449,0,0,0,0,0,0,0,0,0,-1,1133,575,0,0
-84,449,0,0,0,0,0,0,0,0,0,-1,1140,575,0,0
-77,449,0,0,0,0,0,0,0,0,0,-1,1147,575,0,0
-70,449,0,0,0,0,0,0,0,0,0,-1,1154,575,0,0
-63,449,0,0,0,0,0,0,0,0,0,-1,1161,575,0,0
-56,449,0,0,0,0,0,0,0,0,0,-1,1168,575,0,0
-49,449,0,0,0,0,0,0,0,0,0,-1,1175,575,0,0
-42,449,0,0,0,0,0,0,0,0,0,-1,1182,575,0,0
-35,449,0,0,0,0,0,0,0,0,0,-1,1189,575,0,0
-28,449,0,0,0,0,0,0,0,0,0,-1,1196,575,0,0
-21,449,0,0,0,0,0,0,0,0,0,-1,1203,575,0,0
-14,449,0,0,0,0,0,0,0,0,0,-1,1210,575,0,0
-7,449,0,0,0,0,0,0,0,0,0,-1,1217,575,0,0
0,449,0,0,0,0,0,0,0,0,0,-1,1224,575,0,0
7,449,0,0,0,0,0,0,0,0,0,-1,1231,575,0,0
14,449,0,0,0,0,0,0,0,0,0,-1,1238,575,0,0
21,449,0,0,0,0,0,0,0,0,0,-1,1245,575,0,0
28,449,0,0,0,0,0,0,0,0,0,-1,1252,575,0,0
35,449,0,0,0,0,0,0,0,0,0,-1,1259,575,0,0
42,449,0,0,0,0,0,0,0,0,0,-1,1266,575,0,0
49,449,0,0,0,0,0,0,0,0,0,-1,1273,575,0,0
56,449,0,0,0,0,0,0,0,0,0,-1,1280,575,0,0
63,449,0,0,0,0,0,0,0,0,0,-1,1287,575,0,0
70,449,0,0,0,0,0,0,0,0,0,-1,1294,575,0,0
77,449,0,0,0,0,0,0,0,0,0,-1,1301,575,0,0
84,449,0,0,0,0,0,0,0,0,0,-1,1308,575,0,0
91,449,0,0,0,0,0,0,0,0,0,-1,1315,575,0,0
98,449,0,0,0,0,0,0,0,0,0,-1,1322,575,0,0
105,449,0,0,0,0,0,0,0,0,0,-1,1329,575,0,0
112,449,0,0,0,0,0,0,0,0,0,-1,1336,575,0,0
119,449,0,0,0,0,0,0,0,0,0,-1,1343,575,0,0
126,449,0,0,0,0,0,0,0,0,0,-1,1350,575,0,0
133,449,0,0,0,0,0,0,0,0,0,-1,1357,575,0,0
140,449,0,0,0,0,0,0,0,0,0,-1,1364,575,0,0
147,449,0,0,0,0,0,0,0,0,0,-1,1371,575,0,0
154,449,0,0,0,0,0,0,0,0,0,-1,1378,575,0,0
161,449,0,0,0,0,0,0,0,0,0,-1,1385,575,0,0
168,449,0,0,0,0,0,0,0,0,0,-1,1392,575,0,0
175,449,0,0,0,0,0,0,0,0,0,-1,1399,575,0,0
182,449,0,0,0,0,0,0,0,0,0,-1,1406,575,0,0
189,449,0,0,0,0,0,0,0,0,0,-1,1413,575,0,0
196,449,0,0,0,0,0,0,0,0,0,-1,1420,575,0,0
203,449,0,0,0,0,0,0,0,0,0,-1,1427,575,0,0
210,449,0,0,0,0,0,0,0,0,0,-1,1434,575,0,0
217,449,0,0,0,0,0,0,0,0,0,-1,1441,575,0,0
224,449,0,0,0,0,0,0,0,0,0,-1,1448,575,0,0
231,449,0,0,0,0,0,0,0,0,0,-1,1455,575,0,0
238,449,0,0,0,0,0,0,0,0,0,-1,1462,575,0,0
245,449,0,0,0,0,0,0,0,0,0,-1,1469,575,0,0
252,449,0,0,0,0,0,0,0,0,0,-1,1476,575,0,0
259,449,0,0,0,0,0,0,0,0,0,-1,1483,575,0,0
266,449,0,0,0,0,0,0,0,0,0,-1,1490,575,0,0
273,449,0,0,0,0,0,0,0,0,0,-1,1497,575,0,0
280,449,0,0,0,0,0,0,0,0,0,-1,1504,575,0,0
287,449,0,0,0,0,0,0,0,0,0,-1,1511,575,0,0
294,449,0,0,0,0,0,0,0,0,0,-1,1518,575,0,0
301,449,0,0,0,0,0,0,0,0,0,-1,1525,575,0,0
308,449,0,0,0,0,0,0,0,0,0,-1,1532,575,0,0
315,449,0,0,0,0,0,0,0,0,0,-1,1539,575,0,0
322,449,0,0,0,0,0,0,0,0,0,-1,1546,575,0,0
329,449,0,0,0,0,0,0,0,0,0,-1,1553,575,0,0
336,449,0,0,0,0,0,0,0,0,0,-1,1560,575,0,0
343,449,0,0,0,0,0,0,0,0,0,-1,1567,575,0,0
350,449,0,0,0,0,0,0,0,0,0,-1,1574,575,0,0
357,449,0,0,0,0,0,0,0,0,0,-1,1581,575,0,0
364,449,0,0,0,0,0,0,0,0,0,-1,1588,575,0,0
371,449,0,0,0,0,0,0,0,0,0,-1,1595,575,0,0
378,449,0,0,0,0,0,0,0,0,0,-1,1602,575,0,0
385,449,0,0,0,0,0,0,0,0,0,-1,1609,575,0,0
392,449,6.40552,2.45319,0.472477,-0.0178309,0.188195,0.536382,-0.0817363,0.327354,0.387716,0.0469346,1616,575,6.40548,-2.45321
399,449,9.0564,2.37848,0,0,0,0,0,0,0,-1,1623,575,9.05637,-2.37849
406,449,11.5997,2.15338,0,0,0,0,0,0,0,-1,1630,575,11.5997,-2.15337
413,449,13.7874,2.0094,0,0,0,0,0,0,0,-1,1637,575,13.7874,-2.00941
420,449,4.70264,2.21893,0,0,0,0,0,0,0,-1,1644,575,4.70263,-2.21894
427,449,8.96924,-4.53351,0,0,0,0,0,0,0,-1,1651,575,8.96925,4.53353
434,449,4.12927,-7.06952,0,0,0,0,0,0,0,-1,1658,575,4.12932,7.06952
441,449,3.89856,-6.06458,0,0,0,0,0,0,0,-1,1665,575,3.89855,6.06459
448,449,4.03198,-5.18207,0,0,0,0,0,0,0,-1,1672,575,4.03197,5.18207
455,449,4.21948,-4.09467,0,0,0,0,0,0,0,-1,1679,575,4.21952,4.09465
462,449,4.23181,-2.96924,0,0,0,0,0,0,0,-1,1686,575,4.23185,2.96926
469,449,4.51672,-2.95135,0,0,0,0,0,0,0,-1,1693,575,4.51672,2.95135
476,449,4.71838,-1.86688,0,0,0,0,0,0,0,-1,1700,575,4.71842,1.86689
483,449,4.87878,-1.73126,0,0,0,0,0,0,0,-1,1707,575,4.87875,1.73128
490,449,5.10242,-2.62158,0,0,0,0,0,0,0,-1,1714,575,5.10238,2.62156
497,449,5.22119,-2.11774,-0.00392897,-0.00081623,-0.00203207,0.000187011,-0.00493221,-1.1122,0.00335222,0.0424584,1721,575,5.22114,2.11776
504,449,5.06628,-2.10565,-0.00345811,-0.00093988,-0.00168074,-9.89318e-05,-0.00429906,-1.10687,0.00283364,0.0218318,1728,575,5.06627,2.10568
511,449,5.09485,-1.95929,-0.00301973,-0.000948491,-0.00146474,-0.000190238,-0.00377799,-1.09311,0.0024577,0.0109079,1735,575,5.09484,1.95928
518,449,5.1167,-1.8277,-0.00244522,-0.000817696,-0.00115769,-0.000216377,-0.00304654,-1.09174,0.00196288,0.0133777,1742,575,5.11664,1.82772
525,449,5.10852,-1.69159,-0.00148303,-0.00065894,-0.000572333,-0.000365758,-0.00177622,-1.09739,0.00108301,0.0124769,1749,575,5.1085,1.69162
532,449,5.0896,-1.54895,-0.000383386,-0.000315197,6.32859e-05,-0.000277406,-0.000421177,1.03247,0.000247213,0.0103821,1756,575,5.08957,1.54895
539,449,5.08545,-1.41174,0.000714425,0.000146271,0.000781757,0.00126212,-0.000401424,0.611125,0.00100238,0.0115401,1763,575,5.08549,1.41172
546,449,5.09888,-1.28717,0.00198833,0.000677872,0.00162873,0.00308869,-0.00042249,0.594157,0.00221344,0.0184624,1770,575,5.09886,1.28719
553,449,5.08691,-1.13239,0.00415763,0.00168712,0.00324493,0.00639446,-0.000549717,0.603531,0.00445753,0.0139281,1777,575,5.08697,1.13241
560,449,5.08105,-0.998535,0.00621168,0.00255593,0.00471945,0.00944487,-0.000677263,0.60064,0.00653404,0.0127027,1784,575,5.08109,0.998547
567,449,5.09509,-0.848633,0.00873217,0.00356975,0.00650529,0.0131496,-0.000847716,0.596532,0.00906222,0.00927587,1791,575,5.09514,0.848605
574,449,5.09668,-0.692932,0.0118837,0.00477021,0.00874652,0.017769,-0.00111508,0.592287,0.0122346,0.0143548,1798,575,5.09666,0.692951
581,449,5.07849,-0.573364,0.0157764,0.00613179,0.0114956,0.0234202,-0.00151205,0.586802,0.0161411,0.0285997,1805,575,5.07852,0.573346
588,449,5.13135,-0.443604,0.0206133,0.00782376,0.0149505,0.0304793,-0.00204223,0.583309,0.0210333,0.0435785,1812,575,5.13135,0.443609
595,449,5.32104,-0.347656,0,0,0,0,0,0,0,-1,1819,575,5.32103,0.347627
602,449,6.94678,0.125916,0.0340347,0.0117457,0.0240103,0.0493608,-0.0035805,0.568117,0.0341633,0.0458094,1826,575,6.94679,-0.125899
609,449,7.99768,0.177795,0,0,0,0,0,0,0,-1,1833,575,7.99764,-0.177782
616,449,9.02478,0.0359497,0,0,0,0,0,0,0,-1,1840,575,9.02473,-0.0359635
623,449,9.83789,-0.0820313,0,0,0,0,0,0,0,-1,1847,575,9.83794,0.0820443
630,449,8.90686,4.99329,0,0,0,0,0,0,0,-1,1854,575,8.90685,-4.99327
637,449,0,0,0,0,0,0,0,0,0,-1,1861,575,0,0
644,449,0,0,0,0,0,0,0,0,0,-1,1868,575,0,0
651,449,0,0,0,0,0,0,0,0,0,-1,1875,575,0,0
658,449,0,0,0,0,0,0,0,0,0,-1,1882,575,0,0
665,449,0,0,0,0,0,0,0,0,0,-1,1889,575,0,0
672,449,0,0,0,0,0,0,0,0,0,-1,1896,575,0,0
679,449,0,0,0,0,0,0,0,0,0,-1,1903,575,0,0
686,449,0,0,0,0,0,0,0,0,0,-1,1910,575,0,0
693,449,0,0,0,0,0,0,0,0,0,-1,1917,575,0,0
700,449,0,0,0,0,0,0,0,0,0,-1,1924,575,0,0
707,449,0,0,0,0,0,0,0,0,0,-1,1931,575,0,0
714,449,0,0,0,0,0,0,0,0,0,-1,1938,575,0,0
721,449,0,0,0,0,0,0,0,0,0,-1,1945,575,0,0
728,449,0,0,0,0,0,0,0,0,0,-1,1952,575,0,0
735,449,0,0,0,0,0,0,0,0,0,-1,1959,575,0,0
742,449,0,0,0,0,0,0,0,0,0,-1,1966,575,0,0
749,449,0,0,0,0,0,0,0,0,0,-1,1973,575,0,0
756,449,0,0,0,0,0,0,0,0,0,-1,1980,575,0,0
763,449,0,0,0,0,0,0,0,0,0,-1,1987,575,0,0
770,449,0,0,0,0,0,0,0,0,0,-1,1994,575,0,0
777,449,0,0,0,0,0,0,0,0,0,-1,2001,575,0,0
784,449,0,0,0,0,0,0,0,0,0,-1,2008,575,0,0
791,449,0,0,0,0,0,0,0,0,0,-1,2015,575,0,0
798,449,0,0,0,0,0,0,0,0,0,-1,2022,575,0,0
805,449,0,0,0,0,0,0,0,0,0,-1,2029,575,0,0
812,449,0,0,0,0,0,0,0,0,0,-1,2036,575,0,0
-700,442,0,0,0,0,0,0,0,0,0,-1,524,582,0,0
-693,442,0,0,0,0,0,0,0,0,0,-1,531,582,0,0
-686,442,0,0,0,0,0,0,0,0,0,-1,538,582,0,0
-679,442,0,0,0,0,0,0,0,0,0,-1,545,582,0,0
-672,442,0,0,0,0,0,0,0,0,0,-1,552,582,0,0
-665,442,0,0,0,0,0,0,0,0,0,-1,559,582,0,0
-658,442,0,0,0,0,0,0,0,0,0,-1,566,582,0,0
-651,442,0,0,0,0,0,0,0,0,0,-1,573,582,0,0
-644,442,0,0,0,0,0,0,0,0,0,-1,580,582,0,0
-637,442,0,0,0,0,0,0,0,0,0,-1,587,582,0,0
-630,442,0,0,0,0,0,0,0,0,0,-1,594,582,0,0
-623,442,0,0,0,0,0,0,0,0,0,-1,601,582,0,0
-616,442,0,0,0,0,0,0,0,0,0,-1,608,582,0,0
-609,442,0,0,0,0,0,0,0,0,0,-1,615,582,0,0
-602,442,0,0,0,0,0,0,0,0,0,-1,622,582,0,0
-595,442,0,0,0,0,0,0,0,0,0,-1,629,582,0,0
-588,442,0,0,0,0,0,0,0,0,0,-1,636,582,0,0
-581,442,0,0,0,0,0,0,0,0,0,-1,643,582,0,0
-574,442,0,0,0,0,0,0,0,0,0,-1,650,582,0,0
-567,442,0,0,0,0,0,0,0,0,0,-1,657,582,0,0
-560,442,0,0,0,0,0,0,0,0,0,-1,664,582,0,0
-553,442,0,0,0,0,0,0,0,0,0,-1,671,582,0,0
-546,442,0,0,0,0,0,0,0,0,0,-1,678,582,0,0
-539,442,0,0,0,0,0,0,0,0,0,-1,685,582,0,0
-532,442,0,0,0,0,0,0,0,0,0,-1,692,582,0,0
-525,442,0,0,0,0,0,0,0,0,0,-1,699,582,0,0
-518,442,0.463989,1.12115,-0.0258923,-0.0367126,-0.0172926,-0.0131834,-0.0494216,-0.633792,0.0295503,0.0446052,706,582,0.463994,-1.12114
-511,442,1.17841,-0.392944,0,0,0,0,0,0,0,-1,713,582,1.17838,0.392971
-504,442,-2.04144,-4.08661,0,0,0,0,0,0,0,-1,720,582,-2.04143,4.08664
-497,442,-3.86322,-3.138,0,0,0,0,0,0,0,-1,727,582,-3.86324,3.13799
-490,442,-0.381714,-0.407959,0,0,0,0,0,0,0,-1,734,582,-0.381733,0.407986
-483,442,-0.268738,-0.637207,0,0,0,0,0,0,0,-1,741,582,-0.26876,0.637197
-476,442,-0.496948,-0.581665,0,0,0,0,0,0,0,-1,748,582,-0.496922,0.581681
-469,442,-0.331299,-1.15173,-0.0035617,0.0118654,-0.00219993,0.0121729,-0.00386928,-1.43188,0.00966672,0.043468,755,582,-0.331271,1.15175
-462,442,-0.345215,-1.37268,-0.00235669,0.0120643,-0.00137984,0.0121952,-0.00248753,-1.47626,0.00907366,0.0325338,762,582,-0.345205,1.37265
-455,442,-0.380371,-1.52466,0.000481558,0.0120359,-0.00190797,0.0123428,0.000174647,-1.41131,0.00817096,0.0213518,769,582,-0.380366,1.52467
-448,442,-0.340576,-1.62347,0.00251341,0.0116735,-0.00193476,0.0120654,0.00212152,-1.37095,0.00743798,0.0129046,776,582,-0.340556,1.62347
-441,442,-0.333252,-1.78339,0.002104,0.00943002,-0.0017603,0.00983103,0.00170298,-1.34681,0.00606657,0.0126271,783,582,-0.333263,1.7834
-434,442,-0.342224,-1.89911,0.00144741,0.00703374,-0.00132075,0.00733026,0.00115089,-1.34995,0.00455197,0.0120317,790,582,-0.342246,1.89911
-427,442,-0.376648,-2.00916,0.000665103,0.00529508,-0.00092464,0.0054729,0.000487276,-1.3808,0.00349751,0.012908,797,582,-0.37662,2.00918
-420,442,-0.349731,-2.13818,-0.000256466,0.00366379,-0.000500735,0.00372674,-0.000319414,-1.44574,0.00259752,0.0135864,804,582,-0.349752,2.13817
-413,442,-0.331177,-2.24896,-0.00124078,0.00247771,-0.000235095,0.00249251,-0.00125559,-1.50791,0.0022029,0.0106352,811,582,-0.331169,2.24893
-406,442,-0.341187,-2.37421,-0.00202497,0.00163222,3.08102e-05,0.00163248,-0.00202523,1.56237,0.00211583,0.00869657,818,582,-0.341215,2.37424
-399,442,-0.351746,-2.50482,-0.00297327,0.00071215,0.000150685,0.000718301,-0.00297942,1.53,0.00226402,0.00803244,825,582,-0.351768,2.50484
-392,442,-0.342102,-2.61981,-0.00412861,-6.54526e-05,0.000306062,-4.25272e-05,-0.00415154,1.49603,0.00275363,0.00992145,832,582,-0.34209,2.6198
-385,442,-0.327698,-2.73389,-0.00482929,-0.000409383,0.000406064,-0.000372387,-0.00486629,1.47994,0.00312746,0.0119351,839,582,-0.327724,2.73392
-378,442,-0.337524,-2.84625,-0.00507699,-0.000811373,0.00025377,-0.000796329,-0.00509203,1.51158,0.00316284,0.0121395,846,582,-0.337528,2.84623
-371,442,-0.344849,-2.96924,-0.0056376,-0.00087352,0.000124455,-0.000870271,-0.00564085,1.5447,0.00350666,0.0232727,853,582,-0.344875,2.96926
-364,442,-0.419189,-3.24377,-0.00583299,-0.00121873,-3.92411e-05,-0.0012184,-0.00583332,-1.56229,0.00355308,0.039647,860,582,-0.419201,3.24375
-357,442,-0.264404,-3.57587,-0.00566195,-0.00171818,-0.000332729,-0.0016903,-0.00568982,-1.48722,0.003374,0.0465274,867,582,-0.264407,3.57584
-350,442,-0.0515747,-3.61731,0,0,0,0,0,0,0,-1,874,582,-0.0515858,3.61732
-343,442,-0.498291,-3.06006,0,0,0,0,0,0,0,-1,881,582,-0.498269,3.06008
-336,442,-0.75116,-2.40161,0,0,0,0,0,0,0,-1,888,582,-0.751133,2.4016
-329,442,-1.28516,-2.25549,0,0,0,0,0,0,0,-1,895,582,-1.28518,2.25549
-322,442,0.452637,-3.62781,0,0,0,0,0,0,0,-1,902,582,0.452631,3.62778
-315,442,1.00592,-3.61475,0,0,0,0,0,0,0,-1,909,582,1.00591,3.61474
-308,442,1.58344,-3.52417,0,0,0,0,0,0,0,-1,916,582,1.58341,3.52418
-301,442,2.14111,-3.38733,0,0,0,0,0,0,0,-1,923,582,2.14114,3.38735
-294,442,-4.71899,4.76099,0,0,0,0,0,0,0,-1,930,582,-4.719,-4.76096
-287,442,-2.83136,1.14722,0,0,0,0,0,0,0,-1,937,582,-2.83138,-1.14721
-280,442,0,0,0,0,0,0,0,0,0,-1,944,582,0,0
-273,442,0,0,0,0,0,0,0,0,0,-1,951,582,0,0
-266,442,0,0,0,0,0,0,0,0,0,-1,958,582,0,0
-259,442,0,0,0,0,0,0,0,0,0,-1,965,582,0,0
-252,442,0,0,0,0,0,0,0,0,0,-1,972,582,0,0
-245,442,0,0,0,0,0,0,0,0,0,-1,979,582,0,0
-238,442,0,0,0,0,0,0,0,0,0,-1,986,582,0,0
-231,442,0,0,0,0,0,0,0,0,0,-1,993,582,0,0
-224,442,0,0,0,0,0,0,0,0,0,-1,1000,582,0,0
-217,442,0,0,0,0,0,0,0,0,0,-1,1007,582,0,0
-210,442,0,0,0,0,0,0,0,0,0,-1,1014,582,0,0
-203,442,0,0,0,0,0,0,0,0,0,-1,1021,582,0,0
-196,442,0,0,0,0,0,0,0,0,0,-1,1028,582,0,0
-189,442,0,0,0,0,0,0,0,0,0,-1,1035,582,0,0
-182,442,0,0,0,0,0,0,0,0,0,-1,1042,582,0,0
-175,442,0,0,0,0,0,0,0,0,0,-1,1049,582,0,0
-168,442,0,0,0,0,0,0,0,0,0,-1,1056,582,0,0
-161,442,0,0,0,0,0,0,0,0,0,-1,1063,582,0,0
-154,442,0,0,0,0,0,0,0,0,0,-1,1070,582,0,0
-147,442,0,0,0,0,0,0,0,0,0,-1,1077,582,0,0
-140,442,0,0,0,0,0,0,0,0,0,-1,1084,582,0,0
-133,442,0,0,0,0,0,0,0,0,0,-1,1091,582,0,0
-126,442,0,0,0,0,0,0,0,0,0,-1,1098,582,0,0
-119,442,0,0,0,0,0,0,0,0,0,-1,1105,582,0,0
-112,442,0,0,0,0,0,0,0,0,0,-1,1112,582,0,0
-105,442,0,0,0,0,0,0,0,0,0,-1,1119,582,0,0
-98,442,0,0,0,0,0,0,0,0,0,-1,1126,582,0,0
-91,442,0,0,0,0,0,0,0,0,0,-1,1133,582,0,0
-84,442,0,0,0,0,0,0,0,0,0,-1,1140,582,0,0
-77,442,0,0,0,0,0,0,0,0,0,-1,1147,582,0,0
-70,442,0,0,0,0,0,0,0,0,0,-1,1154,582,0,0
-63,442,0,0,0,0,0,0,0,0,0,-1,1161,582,0,0
-56,442,0,0,0,0,0,0,0,0,0,-1,1168,582,0,0
-49,442,0,0,0,0,0,0,0,0,0,-1,1175,582,0,0
-42,442,0,0,0,0,0,0,0,0,0,-1,1182,582,0,0
-35,442,0,0,0,0,0,0,0,0,0,-1,1189,582,0,0
-28,442,0,0,0,0,0,0,0,0,0,-1,1196,582,0,0
-21,442,0,0,0,0,0,0,0,0,0,-1,1203,582,0,0
-14,442,0,0,0,0,0,0,0,0,0,-1,1210,582,0,0
-7,442,0,0,0,0,0,0,0,0,0,-1,1217,582,0,0
0,442,0,0,0,0,0,0,0,0,0,-1,1224,582,0,0
7,442,0,0,0,0,0,0,0,0,0,-1,1231,582,0,0
14,442,0,0,0,0,0,0,0,0,0,-1,1238,582,0,0
21,442,0,0,0,0,0,0,0,0,0,-1,1245,582,0,0
28,442,0,0,0,0,0,0,0,0,0,-1,1252,582,0,0
35,442,0,0,0,0,0,0,0,0,0,-1,1259,582,0,0
42,442,0,0,0,0,0,0,0,0,0,-1,1266,582,0,0
49,442,0,0,0,0,0,0,0,0,0,-1,1273,582,0,0
56,442,0,0,0,0,0,0,0,0,0,-1,1280,582,0,0
63,442,0,0,0,0,0,0,0,0,0,-1,1287,582,0,0
70,442,0,0,0,0,0,0,0,0,0,-1,1294,582,0,0
77,442,0,0,0,0,0,0,0,0,0,-1,1301,582,0,0
84,442,0,0,0,0,0,0,0,0,0,-1,1308,582,0,0
91,442,0,0,0,0,0,0,0,0,0,-1,1315,582,0,0
98,442,0,0,0,0,0,0,0,0,0,-1,1322,582,0,0
105,442,0,0,0,0,0,0,0,0,0,-1,1329,582,0,0
112,442,0,0,0,0,0,0,0,0,0,-1,1336,582,0,0
119,442,0,0,0,0,0,0,0,0,0,-1,1343,582,0,0
126,442,0,0,0,0,0,0,0,0,0,-1,1350,582,0,0
133,442,0,0,0,0,0,0,0,0,0,-1,1357,582,0,0
140,442,0,0,0,0,0,0,0,0,0,-1,1364,582,0,0
147,442,0,0,0,0,0,0,0,0,0,-1,1371,582,0,0
154,442,0,0,0,0,0,0,0,0,0,-1,1378,582,0,0
161,442,0,0,0,0,0,0,0,0,0,-1,1385,582,0,0
168,442,0,0,0,0,0,0,0,0,0,-1,1392,582,0,0
175,442,0,0,0,0,0,0,0,0,0,-1,1399,582,0,0
182,442,0,0,0,0,0,0,0,0,0,-1,1406,582,0,0
189,442,0,0,0,0,0,0,0,0,0,-1,1413,582,0,0
196,442,0,0,0,0,0,0,0,0,0,-1,1420,582,0,0
203,442,0,0,0,0,0,0,0,0,0,-1,1427,582,0,0
210,442,0,0,0,0,0,0,0,0,0,-1,1434,582,0,0
217,442,0,0,0,0,0,0,0,0,0,-1,1441,582,0,0
224,442,0,0,0,0,0,0,0,0,0,-1,1448,582,0,0
231,442,0,0,0,0,0,0,0,0,0,-1,1455,582,0,0
238,442,0,0,0,0,0,0,0,0,0,-1,1462,582,0,0
245,442,0,0,0,0,0,0,0,0,0,-1,1469,582,0,0
252,442,0,0,0,0,0,0,0,0,0,-1,1476,582,0,0
259,442,0,0,0,0,0,0,0,0,0,-1,1483,582,0,0
266,442,0,0,0,0,0,0,0,0,0,-1,1490,582,0,0
273,442,0,0,0,0,0,0,0,0,0,-1,1497,582,0,0
280,442,0,0,0,0,0,0,0,0,0,-1,1504,582,0,0
287,442,0,0,0,0,0,0,0,0,0,-1,1511,582,0,0
294,442,0,0,0,0,0,0,0,0,0,-1,1518,582,0,0
301,442,0,0,0,0,0,0,0,0,0,-1,1525,582,0,0
308,442,0,0,0,0,0,0,0,0,0,-1,1532,582,0,0
315,442,0,0,0,0,0,0,0,0,0,-1,1539,582,0,0
322,442,0,0,0,0,0,0,0,0,0,-1,1546,582,0,0
329,442,0,0,0,0,0,0,0,0,0,-1,1553,582,0,0
336,442,0,0,0,0,0,0,0,0,0,-1,1560,582,0,0
343,442,0,0,0,0,0,0,0,0,0,-1,1567,582,0,0
350,442,0,0,0,0,0,0,0,0,0,-1,1574,582,0,0
357,442,0,0,0,0,0,0,0,0,0,-1,1581,582,0,0
364,442,0,0,0,0,0,0,0,0,0,-1,1588,582,0,0
371,442,0,0,0,0,0,0,0,0,0,-1,1595,582,0,0
378,442,0,0,0,0,0,0,0,0,0,-1,1602,582,0,0
385,442,0,0,0,0,0,0,0,0,0,-1,1609,582,0,0
392,442,0,0,0,0,0,0,0,0,0,-1,1616,582,0,0
399,442,0,0,0,0,0,0,0,0,0,-1,1623,582,0,0
406,442,10.3704,2.44556,0,0,0,0,0,0,0,-1,1630,582,10.3703,-2.44558
413,442,3.66699,2.87408,0,0,0,0,0,0,0,-1,1637,582,3.66703,-2.87408
420,442,4.69055,3.09448,0,0,0,0,0,0,0,-1,1644,582,4.69054,-3.0945
427,442,2.44519,-1.35358,0,0,0,0,0,0,0,-1,1651,582,2.44514,1.35361
434,442,8.45898,-3.86719,0,0,0,0,0,0,0,-1,1658,582,8.45904,3.86719
441,442,4.89368,-7.42456,0,0,0,0,0,0,0,-1,1665,582,4.89365,7.42457
448,442,4.7749,-5.88562,0,0,0,0,0,0,0,-1,1672,582,4.7749,5.8856
455,442,4.87024,-4.60687,0,0,0,0,0,0,0,-1,1679,582,4.87019,4.60686
462,442,5.02307,-3.72821,0,0,0,0,0,0,0,-1,1686,582,5.02311,3.7282
469,442,5.12976,-2.98834,0,0,0,0,0,0,0,-1,1693,582,5.12971,2.98834
476,442,5.4624,1.76947,0,0,0,0,0,0,0,-1,1700,582,5.46234,-1.76944
483,442,5.98486,1.87042,0,0,0,0,0,0,0,-1,1707,582,5.98492,-1.87045
490,442,5.04407,-2.35834,0,0,0,0,0,0,0,-1,1714,582,5.04411,2.35837
497,442,5.35242,-1.96588,0,0,0,0,0,0,0,-1,1721,582,5.35244,1.9659
504,442,5.34949,-2.00043,-0.00479257,-0.00188858,-0.00235869,-0.000570785,-0.00611036,-1.0613,0.00389727,0.0379014,1728,582,5.34946,2.0004
511,442,5.19177,-1.96796,-0.00427915,-0.00174495,-0.00216114,-0.000506843,-0.00551726,-1.05054,0.00352141,0.0169957,1735,582,5.1918,1.96795
518,442,5.2467,-1.81403,-0.00364673,-0.0015435,-0.00188519,-0.000436442,-0.00475378,-1.03981,0.00303419,0.0104884,1742,582,5.24671,1.81403
525,442,5.23169,-1.68237,-0.00264179,-0.00138713,-0.00134577,-0.00052966,-0.00349927,-1.0035,0.00217787,0.010172,1749,582,5.23167,1.68236
532,442,5.22913,-1.54059,-0.0015237,-0.00098467,-0.000731905,-0.000474233,-0.00203414,-0.961812,0.0012289,0.0106714,1756,582,5.22918,1.54058
539,442,5.2312,-1.40039,-0.000485484,-0.000514437,-8.99448e-05,-0.000408858,-0.000591063,-0.705607,0.000349514,0.0101197,1763,582,5.23114,1.40042
546,442,5.23401,-1.27252,0.00064826,-1.54584e-05,0.000633596,0.00103164,-0.000398843,0.544157,0.000852404,0.0120024,1770,582,5.23398,1.27252
553,442,5.21741,-1.12799,0.00246699,0.000900581,0.00197425,0.00380771,-0.000440138,0.596564,0.00269718,0.0134612,1777,582,5.21736,1.128
560,442,5.21558,-0.982483,0.00421472,0.00167427,0.00319489,0.00638263,-0.000493639,0.596189,0.00442882,0.0137351,1784,582,5.21559,0.982471
567,442,5.22546,-0.843506,0.00627949,0.00251008,0.00462842,0.00939223,-0.000602658,0.592048,0.00647173,0.0097873,1791,582,5.22546,0.843497
574,442,5.23694,-0.714294,0.00878124,0.00345993,0.00640289,0.0130543,-0.00081311,0.588483,0.00898616,0.0124837,1798,582,5.23691,0.714281
581,442,5.25684,-0.589905,0.0117478,0.00451177,0.00849195,0.0173604,-0.00110076,0.584016,0.0119574,0.0142235,1805,582,5.25678,0.589881
588,442,5.21863,-0.494568,0.0151952,0.00578686,0.0109903,0.0224458,-0.0014637,0.583181,0.0154748,0.0172594,1812,582,5.21858,0.494547
595,442,5.28833,-0.309753,0.0194968,0.00731094,0.0140594,0.0287267,-0.00191899,0.580928,0.0198218,0.0314738,1819,582,5.28837,0.309752
602,442,5.86353,-0.0543213,0.0246067,0.00839651,0.0169293,0.0352712,-0.00226792,0.562142,0.0243054,0.0444779,1826,582,5.86357,0.0543162
609,442,6.18591,0.224731,0,0,0,0,0,0,0,-1,1833,582,6.18596,-0.224715
616,442,7.16003,-1.18372,0,0,0,0,0,0,0,-1,1840,582,7.16,1.18373
623,442,7.82422,-1.49609,0,0,0,0,0,0,0,-1,1847,582,7.8242,1.4961
630,442,7.74304,2.3924,0,0,0,0,0,0,0,-1,1854,582,7.7431,-2.39238
637,442,5.87805,1.84027,0,0,0,0,0,0,0,-1,1861,582,5.87807,-1.84025
644,442,0,0,0,0,0,0,0,0,0,-1,1868,582,0,0
651,442,0,0,0,0,0,0,0,0,0,-1,1875,582,0,0
658,442,0,0,0,0,0,0,0,0,0,-1,1882,582,0,0
665,442,0,0,0,0,0,0,0,0,0,-1,1889,582,0,0
672,442,0,0,0,0,0,0,0,0,0,-1,1896,582,0,0
679,442,0,0,0,0,0,0,0,0,0,-1,1903,582,0,0
686,442,0,0,0,0,0,0,0,0,0,-1,1910,582,0,0
693,442,0,0,0,0,0,0,0,0,0,-1,1917,582,0,0
700,442,0,0,0,0,0,0,0,0,0,-1,1924,582,0,0
707,442,0,0,0,0,0,0,0,0,0,-1,1931,582,0,0
714,442,0,0,0,0,0,0,0,0,0,-1,1938,582,0,0
721,442,0,0,0,0,0,0,0,0,0,-1,1945,582,0,0
728,442,0,0,0,0,0,0,0,0,0,-1,1952,582,0,0
735,442,0,0,0,0,0,0,0,0,0,-1,1959,582,0,0
742,442,0,0,0,0,0,0,0,0,0,-1,1966,582,0,0
749,442,0,0,0,0,0,0,0,0,0,-1,1973,582,0,0
756,442,0,0,0,0,0,0,0,0,0,-1,1980,582,0,0
763,442,0,0,0,0,0,0,0,0,0,-1,1987,582,0,0
770,442,0,0,0,0,0,0,0,0,0,-1,1994,582,0,0
777,442,0,0,0,0,0,0,0,0,0,-1,2001,582,0,0
784,442,0,0,0,0,0,0,0,0,0,-1,2008,582,0,0
791,442,0,0,0,0,0,0,0,0,0,-1,2015,582,0,0
798,442,0,0,0,0,0,0,0,0,0,-1,2022,582,0,0
805,442,0,0,0,0,0,0,0,0,0,-1,2029,582,0,0
812,442,0,0,0,0,0,0,0,0,0,-1,2036,582,0,0
-700,435,0,0,0,0,0,0,0,0,0,-1,524,589,0,0
-693,435,0,0,0,0,0,0,0,0,0,-1,531,589,0,0
-686,435,0,0,0,0,0,0,0,0,0,-1,538,589,0,0
-679,435,0,0,0,0,0,0,0,0,0,-1,545,589,0,0
-672,435,0,0,0,0,0,0,0,0,0,-1,552,589,0,0
-665,435,0,0,0,0,0,0,0,0,0,-1,559,589,0,0
-658,435,0,0,0,0,0,0,0,0,0,-1,566,589,0,0
-651,435,0,0,0,0,0,0,0,0,0,-1,573,589,0,0
-644,435,0,0,0,0,0,0,0,0,0,-1,580,589,0,0
-637,435,0,0,0,0,0,0,0,0,0,-1,587,589,0,0
-630,435,0,0,0,0,0,0,0,0,0,-1,594,589,0,0
-623,435,0,0,0,0,0,0,0,0,0,-1,601,589,0,0
-616,435,0,0,0,0,0,0,0,0,0,-1,608,589,0,0
-609,435,0,0,0,0,0,0,0,0,0,-1,615,589,0,0
-602,435,0,0,0,0,0,0,0,0,0,-1,622,589,0,0
-595,435,0,0,0,0,0,0,0,0,0,-1,629,589,0,0
-588,435,0,0,0,0,0,0,0,0,0,-1,636,589,0,0
-581,435,0,0,0,0,0,0,0,0,0,-1,643,589,0,0
-574,435,0,0,0,0,0,0,0,0,0,-1,650,589,0,0
-567,435,0,0,0,0,0,0,0,0,0,-1,657,589,0,0
-560,435,0,0,0,0,0,0,0,0,0,-1,664,589,0,0
-553,435,0,0,0,0,0,0,0,0,0,-1,671,589,0,0
-546,435,0,0,0,0,0,0,0,0,0,-1,678,589,0,0
-539,435,0,0,0,0,0,0,0,0,0,-1,685,589,0,0
-532,435,0,0,0,0,0,0,0,0,0,-1,692,589,0,0
-525,435,-0.720032,2.21191,0,0,0,0,0,0,0,-1,699,589,-0.720056,-2.21194
-518,435,0.0134277,0.838074,0,0,0,0,0,0,0,-1,706,589,0.0134194,-0.838065
-511,435,-0.0340576,-3.72192,0,0,0,0,0,0,0,-1,713,589,-0.0340559,3.7219
-504,435,-1.39166,-3.30829,-0.0283856,-0.0232154,-0.00461803,-0.0205081,-0.0310929,-1.04056,0.0182537,0.0458292,720,589,-1.39166,3.30831
-497,435,-2.73907,-2.37421,0,0,0,0,0,0,0,-1,727,589,-2.73909,2.37423
-490,435,-0.474365,-0.103699,0,0,0,0,0,0,0,-1,734,589,-0.474389,0.103683
-483,435,-0.804016,-0.521851,0,0,0,0,0,0,0,-1,741,589,-0.80401,0.521848
-476,435,-0.639099,-0.793762,-0.00779558,0.00225961,-0.0015881,0.00250447,-0.00804044,-1.41782,0.00636162,0.041129,748,589,-0.639115,0.793733
-469,435,-0.46637,-1.1795,-0.0043156,0.0044654,-0.00156211,0.00473501,-0.00458521,-1.39988,0.00538126,0.0261627,755,589,-0.466352,1.1795
-462,435,-0.446838,-1.36218,-0.00292312,0.00511228,-0.000953987,0.00522399,-0.00303483,-1.45423,0.00482374,0.0133982,762,589,-0.446843,1.36218
-455,435,-0.479797,-1.48584,-0.000395917,0.00570683,-0.00133446,0.00598587,-0.000674958,-1.36466,0.00423354,0.0120787,769,589,-0.479806,1.48581
-448,435,-0.466492,-1.62482,0.00146865,0.00606239,-0.00128171,0.00639581,0.00113524,-1.3163,0.00394035,0.0120208,776,589,-0.466492,1.62479
-441,435,-0.45752,-1.75562,0.00116322,0.00479633,-0.00111196,0.00510964,0.000849906,-1.29615,0.00316144,0.0104384,783,589,-0.457549,1.75563
-434,435,-0.46759,-1.8877,0.000520091,0.00328597,-0.000659671,0.00343524,0.000370813,-1.34825,0.00217711,0.0116529,790,589,-0.467611,1.88771
-427,435,-0.485168,-2.01251,-0.000296432,0.00232707,-0.000257904,0.00235218,-0.000321544,-1.47373,0.00168556,0.00981728,797,589,-0.485148,2.01253
-420,435,-0.478333,-2.12872,-0.00129116,0.00135873,0.000142921,0.00136641,-0.00129884,1.51707,0.00153895,0.0102896,804,589,-0.478324,2.12874
-413,435,-0.461731,-2.2417,-0.00242787,0.000749918,0.000370497,0.000792542,-0.0024705,1.45625,0.00196519,0.0105224,811,589,-0.461711,2.24172
-406,435,-0.45813,-2.38232,-0.00341645,0.000403809,0.00059764,0.000495121,-0.00350776,1.41918,0.00251982,0.01058,818,589,-0.458148,2.3823
-399,435,-0.470398,-2.50873,-0.0046375,-7.27899e-05,0.000661619,2.11725e-05,-0.00473147,1.42972,0.00316139,0.00887849,825,589,-0.470427,2.50875
-392,435,-0.464966,-2.60394,-0.00612538,-0.000436865,0.000760495,-0.000336949,-0.00622529,1.44016,0.00404256,0.00982363,832,589,-0.464953,2.60393
-385,435,-0.457275,-2.72827,-0.00723294,-0.00055872,0.000786213,-0.000467356,-0.00732431,1.45511,0.00473478,0.01242,839,589,-0.457285,2.72826
-378,435,-0.462097,-2.83661,-0.00788938,-0.000878067,0.000589982,-0.000828768,-0.00793868,1.48743,0.00503897,0.0187755,846,589,-0.462121,2.83658
-371,435,-0.453735,-2.91162,-0.00886322,-0.000956795,0.000405178,-0.000936085,-0.00888393,1.51973,0.00563656,0.0359654,853,589,-0.453716,2.91163
-364,435,-0.561951,-3.23035,-0.00944243,-0.00132397,0.000194083,-0.00131933,-0.00944706,1.54691,0.00590758,0.044552,860,589,-0.561939,3.23032
-357,435,-0.689148,-3.47211,-0.00959314,-0.00192549,-0.00017014,-0.00192171,-0.00959691,-1.54862,0.0058633,0.0489565,867,589,-0.689124,3.47212
-350,435,-0.86676,-3.69836,0,0,0,0,0,0,0,-1,874,589,-0.866784,3.69834
-343,435,-1.60706,-2.36835,0,0,0,0,0,0,0,-1,881,589,-1.60706,2.36838
-336,435,-2.07263,-1.94012,0,0,0,0,0,0,0,-1,888,589,-2.07265,1.94014
-329,435,-2.55963,-1.5517,0,0,0,0,0,0,0,-1,895,589,-2.5596,1.55168
-322,435,-3.08545,-1.55255,0,0,0,0,0,0,0,-1,902,589,-3.08544,1.55254
-315,435,0.617004,-3.76605,0,0,0,0,0,0,0,-1,909,589,0.617025,3.76606
-308,435,1.1712,-3.61157,0,0,0,0,0,0,0,-1,916,589,1.17122,3.6116
-301,435,-2.38196,0.497864,0,0,0,0,0,0,0,-1,923,589,-2.38194,-0.497888
-294,435,-2.51678,0.169861,0,0,0,0,0,0,0,-1,930,589,-2.51677,-0.169863
-287,435,0,0,0,0,0,0,0,0,0,-1,937,589,0,0
-280,435,0,0,0,0,0,0,0,0,0,-1,944,589,0,0
-273,435,0,0,0,0,0,0,0,0,0,-1,951,589,0,0
-266,435,0,0,0,0,0,0,0,0,0,-1,958,589,0,0
-259,435,0,0,0,0,0,0,0,0,0,-1,965,589,0,0
-252,435,0,0,0,0,0,0,0,0,0,-1,972,589,0,0
-245,435,0,0,0,0,0,0,0,0,0,-1,979,589,0,0
-238,435,0,0,0,0,0,0,0,0,0,-1,986,589,0,0
-231,435,0,0,0,0,0,0,0,0,0,-1,993,589,0,0
-224,435,0,0,0,0,0,0,0,0,0,-1,1000,589,0,0
-217,435,0,0,0,0,0,0,0,0,0,-1,1007,589,0,0
-210,435,0,0,0,0,0,0,0,0,0,-1,1014,589,0,0
-203,435,0,0,0,0,0,0,0,0,0,-1,1021,589,0,0
-196,435,0,0,0,0,0,0,0,0,0,-1,1028,589,0,0
-189,435,0,0,0,0,0,0,0,0,0,-1,1035,589,0,0
-182,435,0,0,0,0,0,0,0,0,0,-1,1042,589,0,0
-175,435,0,0,0,0,0,0,0,0,0,-1,1049,589,0,0
-168,435,0,0,0,0,0,0,0,0,0,-1,1056,589,0,0
-161,435,0,0,0,0,0,0,0,0,0,-1,1063,589,0,0
-154,435,0,0,0,0,0,0,0,0,0,-1,1070,589,0,0
-147,435,0,0,0,0,0,0,0,0,0,-1,1077,589,0,0
-140,435,0,0,0,0,0,0,0,0,0,-1,1084,589,0,0
-133,435,0,0,0,0,0,0,0,0,0,-1,1091,589,0,0
-126,435,0,0,0,0,0,0,0,0,0,-1,1098,589,0,0
-119,435,0,0,0,0,0,0,0,0,0,-1,1105,589,0,0
-112,435,0,0,0,0,0,0,0,0,0,-1,1112,589,0,0
-105,435,0,0,0,0,0,0,0,0,0,-1,1119,589,0,0
-98,435,0,0,0,0,0,0,0,0,0,-1,1126,589,0,0
-91,435,0,0,0,0,0,0,0,0,0,-1,1133,589,0,0
-84,435,0,0,0,0,0,0,0,0,0,-1,1140,589,0,0
-77,435,0,0,0,0,0,0,0,0,0,-1,1147,589,0,0
-70,435,0,0,0,0,0,0,0,0,0,-1,1154,589,0,0
-63,435,0,0,0,0,0,0,0,0,0,-1,1161,589,0,0
-56,435,0,0,0,0,0,0,0,0,0,-1,1168,589,0,0
-49,435,0,0,0,0,0,0,0,0,0,-1,1175,589,0,0
-42,435,0,0,0,0,0,0,0,0,0,-1,1182,589,0,0
-35,435,0,0,0,0,0,0,0,0,0,-1,1189,589,0,0
-28,435,0,0,0,0,0,0,0,0,0,-1,1196,589,0,0
-21,435,0,0,0,0,0,0,0,0,0,-1,1203,589,0,0
-14,435,0,0,0,0,0,0,0,0,0,-1,1210,589,0,0
-7,435,0,0,0,0,0,0,0,0,0,-1,1217,589,0,0
0,435,0,0,0,0,0,0,0,0,0,-1,1224,589,0,0
7,435,0,0,0,0,0,0,0,0,0,-1,1231,589,0,0
14,435,0,0,0,0,0,0,0,0,0,-1,1238,589,0,0
21,435,0,0,0,0,0,0,0,0,0,-1,1245,589,0,0
28,435,0,0,0,0,0,0,0,0,0,-1,1252,589,0,0
35,435,0,0,0,0,0,0,0,0,0,-1,1259,589,0,0
42,435,0,0,0,0,0,0,0,0,0,-1,1266,589,0,0
49,435,0,0,0,0,0,0,0,0,0,-1,1273,589,0,0
56,435,0,0,0,0,0,0,0,0,0,-1,1280,589,0,0
63,435,0,0,0,0,0,0,0,0,0,-1,1287,589,0,0
70,435,0,0,0,0,0,0,0,0,0,-1,1294,589,0,0
77,435,0,0,0,0,0,0,0,0,0,-1,1301,589,0,0
84,435,0,0,0,0,0,0,0,0,0,-1,1308,589,0,0
91,435,0,0,0,0,0,0,0,0,0,-1,1315,589,0,0
98,435,0,0,0,0,0,0,0,0,0,-1,1322,589,0,0
105,435,0,0,0,0,0,0,0,0,0,-1,1329,589,0,0
112,435,0,0,0,0,0,0,0,0,0,-1,1336,589,0,0
119,435,0,0,0,0,0,0,0,0,0,-1,1343,589,0,0
126,435,0,0,0,0,0,0,0,0,0,-1,1350,589,0,0
133,435,0,0,0,0,0,0,0,0,0,-1,1357,589,0,0
140,435,0,0,0,0,0,0,0,0,0,-1,1364,589,0,0
147,435,0,0,0,0,0,0,0,0,0,-1,1371,589,0,0
154,435,0,0,0,0,0,0,0,0,0,-1,1378,589,0,0
161,435,0,0,0,0,0,0,0,0,0,-1,1385,589,0,0
168,435,0,0,0,0,0,0,0,0,0,-1,1392,589,0,0
175,435,0,0,0,0,0,0,0,0,0,-1,1399,589,0,0
182,435,0,0,0,0,0,0,0,0,0,-1,1406,589,0,0
189,435,0,0,0,0,0,0,0,0,0,-1,1413,589,0,0
196,435,0,0,0,0,0,0,0,0,0,-1,1420,589,0,0
203,435,0,0,0,0,0,0,0,0,0,-1,1427,589,0,0
210,435,0,0,0,0,0,0,0,0,0,-1,1434,589,0,0
217,435,0,0,0,0,0,0,0,0,0,-1,1441,589,0,0
224,435,0,0,0,0,0,0,0,0,0,-1,1448,589,0,0
231,435,0,0,0,0,0,0,0,0,0,-1,1455,589,0,0
238,435,0,0,0,0,0,0,0,0,0,-1,1462,589,0,0
245,435,0,0,0,0,0,0,0,0,0,-1,1469,589,0,0
252,435,0,0,0,0,0,0,0,0,0,-1,1476,589,0,0
259,435,0,0,0,0,0,0,0,0,0,-1,1483,589,0,0
266,435,0,0,0,0,0,0,0,0,0,-1,1490,589,0,0
273,435,0,0,0,0,0,0,0,0,0,-1,1497,589,0,0
280,435,0,0,0,0,0,0,0,0,0,-1,1504,589,0,0
287,435,0,0,0,0,0,0,0,0,0,-1,1511,589,0,0
294,435,0,0,0,0,0,0,0,0,0,-1,1518,589,0,0
301,435,0,0,0,0,0,0,0,0,0,-1,1525,589,0,0
308,435,0,0,0,0,0,0,0,0,0,-1,1532,589,0,0
315,435,0,0,0,0,0,0,0,0,0,-1,1539,589,0,0
322,435,0,0,0,0,0,0,0,0,0,-1,1546,589,0,0
329,435,0,0,0,0,0,0,0,0,0,-1,1553,589,0,0
336,435,0,0,0,0,0,0,0,0,0,-1,1560,589,0,0
343,435,0,0,0,0,0,0,0,0,0,-1,1567,589,0,0
350,435,0,0,0,0,0,0,0,0,0,-1,1574,589,0,0
357,435,0,0,0,0,0,0,0,0,0,-1,1581,589,0,0
364,435,0,0,0,0,0,0,0,0,0,-1,1588,589,0,0
371,435,0,0,0,0,0,0,0,0,0,-1,1595,589,0,0
378,435,0,0,0,0,0,0,0,0,0,-1,1602,589,0,0
385,435,0,0,0,0,0,0,0,0,0,-1,1609,589,0,0
392,435,0,0,0,0,0,0,0,0,0,-1,1616,589,0,0
399,435,0,0,0,0,0,0,0,0,0,-1,1623,589,0,0
406,435,0,0,0,0,0,0,0,0,0,-1,1630,589,0,0
413,435,3.62073,3.42682,0,0,0,0,0,0,0,-1,1637,589,3.62069,-3.4268
420,435,3.6062,3.71564,0,0,0,0,0,0,0,-1,1644,589,3.60616,-3.71562
427,435,3.11963,0.640198,0,0,0,0,0,0,0,-1,1651,589,3.11967,-0.640192
434,435,2.72107,-1.34802,0,0,0,0,0,0,0,-1,1658,589,2.7211,1.34803
441,435,7.33191,-1.57452,0,0,0,0,0,0,0,-1,1665,589,7.33193,1.57452
448,435,7.4585,-0.00292969,0,0,0,0,0,0,0,-1,1672,589,7.45848,0.00294131
455,435,5.49915,-5.047,0,0,0,0,0,0,0,-1,1679,589,5.49914,5.04703
462,435,5.60669,-4.71466,0,0,0,0,0,0,0,-1,1686,589,5.60675,4.71469
469,435,5.87708,1.22351,0,0,0,0,0,0,0,-1,1693,589,5.87703,-1.22351
476,435,6.14136,1.37714,0,0,0,0,0,0,0,-1,1700,589,6.14138,-1.37712
483,435,6.49243,1.36169,0,0,0,0,0,0,0,-1,1707,589,6.49242,-1.36171
490,435,4.38391,-1.36218,0,0,0,0,0,0,0,-1,1714,589,4.38389,1.3622
497,435,5.61145,-2.01233,0,0,0,0,0,0,0,-1,1721,589,5.61144,2.01235
504,435,5.45667,-1.85016,-0.00681562,-0.00353195,-0.00358235,-0.00123311,-0.00911445,-1.00027,0.00570982,0.045738,1728,589,5.45665,1.85014
511,435,5.26794,-1.90753,-0.00603606,-0.0031258,-0.0033114,-0.000963926,-0.00819794,-0.992413,0.005174,0.0309351,1735,589,5.26794,1.90751
518,435,5.38098,-1.8219,-0.00517564,-0.00276329,-0.00297225,-0.000761801,-0.00717713,-0.978152,0.00455212,0.0116766,1742,589,5.38097,1.8219
525,435,5.3689,-1.67944,-0.00397979,-0.0025242,-0.00239706,-0.000746885,-0.0057571,-0.932786,0.00361492,0.0104236,1749,589,5.36885,1.67944
532,435,5.37195,-1.53064,-0.00271719,-0.00198304,-0.00171875,-0.000592603,-0.00410763,-0.890602,0.00256382,0.0125879,1756,589,5.3719,1.53066
539,435,5.37988,-1.37665,-0.00161749,-0.00142517,-0.0010617,-0.000455287,-0.00258737,-0.830561,0.00159496,0.0134044,1763,589,5.37987,1.37666
546,435,5.36682,-1.24835,-0.00051597,-0.000874105,-0.000367248,-0.000286459,-0.00110362,-0.558562,0.000661274,0.0122945,1770,589,5.36685,1.24835
553,435,5.36475,-1.13538,0.00103865,1.0326e-05,0.000772,0.00145204,-0.000403061,0.491624,0.00112667,0.00911931,1777,589,5.36477,1.13539
560,435,5.3623,-0.992126,0.00259336,0.000772414,0.00184912,0.003744,-0.000378226,0.55663,0.00263116,0.00861816,1784,589,5.36228,0.992137
567,435,5.37402,-0.836487,0.00433402,0.00152685,0.00306067,0.0062976,-0.000436722,0.570413,0.00435128,0.00858189,1791,589,5.37405,0.836466
574,435,5.3656,-0.717407,0.00635571,0.00234308,0.00451552,0.00929057,-0.000591782,0.57634,0.0064001,0.00999819,1798,589,5.36566,0.717403
581,435,5.34692,-0.605347,0.0086465,0.00322158,0.00614812,0.0126539,-0.000785844,0.577648,0.00870973,0.0162349,1805,589,5.34696,0.60535
588,435,5.34888,-0.479675,0.0111083,0.00422799,0.00796103,0.0163407,-0.00100439,0.581454,0.0112435,0.0170719,1812,589,5.34891,0.479701
595,435,5.31458,-0.320862,0.0140037,0.00537723,0.0100426,0.0206201,-0.0012392,0.582563,0.0141779,0.0190133,1819,589,5.31461,0.320834
602,435,5.26733,-0.188782,0.0173234,0.00607226,0.0116118,0.0246006,-0.00120493,0.559825,0.0168165,0.0392052,1826,589,5.26735,0.188784
609,435,5.21985,-0.0488281,0,0,0,0,0,0,0,-1,1833,589,5.21979,0.0488213
616,435,5.05151,-2.75269,0,0,0,0,0,0,0,-1,1840,589,5.05157,2.7527
623,435,6.55383,-1.27942,0,0,0,0,0,0,0,-1,1847,589,6.55382,1.27943
630,435,4.72742,-0.87561,0,0,0,0,0,0,0,-1,1854,589,4.7274,0.875636
637,435,5.05286,1.48792,0,0,0,0,0,0,0,-1,1861,589,5.05291,-1.48792
644,435,0,0,0,0,0,0,0,0,0,-1,1868,589,0,0
651,435,0,0,0,0,0,0,0,0,0,-1,1875,589,0,0
658,435,0,0,0,0,0,0,0,0,0,-1,1882,589,0,0
665,435,0,0,0,0,0,0,0,0,0,-1,1889,589,0,0
672,435,0,0,0,0,0,0,0,0,0,-1,1896,589,0,0
679,435,0,0,0,0,0,0,0,0,0,-1,1903,589,0,0
686,435,0,0,0,0,0,0,0,0,0,-1,1910,589,0,0
693,435,0,0,0,0,0,0,0,0,0,-1,1917,589,0,0
700,435,0,0,0,0,0,0,0,0,0,-1,1924,589,0,0
707,435,0,0,0,0,0,0,0,0,0,-1,1931,589,0,0
714,435,0,0,0,0,0,0,0,0,0,-1,1938,589,0,0
721,435,0,0,0,0,0,0,0,0,0,-1,1945,589,0,0
728,435,0,0,0,0,0,0,0,0,0,-1,1952,589,0,0
735,435,0,0,0,0,0,0,0,0,0,-1,1959,589,0,0
742,435,0,0,0,0,0,0,0,0,0,-1,1966,589,0,0
749,435,0,0,0,0,0,0,0,0,0,-1,1973,589,0,0
756,435,0,0,0,0,0,0,0,0,0,-1,1980,589,0,0
763,435,0,0,0,0,0,0,0,0,0,-1,1987,589,0,0
770,435,0,0,0,0,0,0,0,0,0,-1,1994,589,0,0
777,435,0,0,0,0,0,0,0,0,0,-1,2001,589,0,0
784,435,0,0,0,0,0,0,0,0,0,-1,2008,589,0,0
791,435,0,0,0,0,0,0,0,0,0,-1,2015,589,0,0
798,435,0,0,0,0,0,0,0,0,0,-1,2022,589,0,0
805,435,0,0,0,0,0,0,0,0,0,-1,2029,589,0,0
812,435,0,0,0,0,0,0,0,0,0,-1,2036,589,0,0
-700,428,0,0,0,0,0,0,0,0,0,-1,524,596,0,0
-693,428,0,0,0,0,0,0,0,0,0,-1,531,596,0,0
-686,428,0,0,0,0,0,0,0,0,0,-1,538,596,0,0
-679,428,0,0,0,0,0,0,0,0,0,-1,545,596,0,0
-672,428,0,0,0,0,0,0,0,0,0,-1,552,596,0,0
-665,428,0,0,0,0,0,0,0,0,0,-1,559,596,0,0
-658,428,0,0,0,0,0,0,0,0,0,-1,566,596,0,0
-651,428,0,0,0,0,0,0,0,0,0,-1,573,596,0,0
-644,428,0,0,0,0,0,0,0,0,0,-1,580,596,0,0
-637,428,0,0,0,0,0,0,0,0,0,-1,587,596,0,0
-630,428,0,0,0,0,0,0,0,0,0,-1,594,596,0,0
-623,428,0,0,0,0,0,0,0,0,0,-1,601,596,0,0
-616,428,0,0,0,0,0,0,0,0,0,-1,608,596,0,0
-609,428,0,0,0,0,0,0,0,0,0,-1,615,596,0,0
-602,428,0,0,0,0,0,0,0,0,0,-1,622,596,0,0
-595,428,0,0,0,0,0,0,0,0,0,-1,629,596,0,0
-588,428,0,0,0,0,0,0,0,0,0,-1,636,596,0,0
-581,428,0,0,0,0,0,0,0,0,0,-1,643,596,0,0
-574,428,0,0,0,0,0,0,0,0,0,-1,650,596,0,0
-567,428,0,0,0,0,0,0,0,0,0,-1,657,596,0,0
-560,428,0,0,0,0,0,0,0,0,0,-1,664,596,0,0
-553,428,0,0,0,0,0,0,0,0,0,-1,671,596,0,0
-546,428,0,0,0,0,0,0,0,0,0,-1,678,596,0,0
-539,428,0,0,0,0,0,0,0,0,0,-1,685,596,0,0
-532,428,0,0,0,0,0,0,0,0,0,-1,692,596,0,0
-525,428,-0.97876,-4.22803,0,0,0,0,0,0,0,-1,699,596,-0.978752,4.22805
-518,428,0.685486,-3.63489,0,0,0,0,0,0,0,-1,706,596,0.685482,3.63486
-511,428,0.0182495,-3.23376,-0.0319518,-0.031438,-0.0025,-0.0291817,-0.0342081,-0.836605,0.0213283,0.0481033,713,596,0.0182488,3.23374
-504,428,-0.743835,-2.51459,-0.0273953,-0.0227672,-0.00131938,-0.0224175,-0.0277451,-1.3117,0.0170014,0.0455322,720,596,-0.743818,2.51461
-497,428,-0.180725,-0.954773,0,0,0,0,0,0,0,-1,727,596,-0.18071,0.954758
-490,428,-0.58905,-0.319275,-0.0167094,-0.00924431,-0.000917049,-0.00913331,-0.0168204,-1.45034,0.00972322,0.0484817,734,596,-0.589033,0.31929
-483,428,-0.445679,-0.784241,-0.0118689,-0.00460542,-0.00106597,-0.00445221,-0.0120221,-1.42805,0.00701831,0.0432803,741,596,-0.445688,0.784254
-476,428,-0.619812,-1.05383,-0.00786278,-0.0013865,-0.00127726,-0.00114369,-0.00810558,-1.38294,0.00506571,0.0346278,748,596,-0.619839,1.05385
-469,428,-0.57312,-1.22644,-0.00481473,0.000614226,-0.001408,0.000957664,-0.00515817,-1.33155,0.00379846,0.0178771,755,596,-0.573102,1.22645
-462,428,-0.581665,-1.33954,-0.00347118,0.00130028,-0.0010004,0.00150154,-0.00367244,-1.37227,0.0030736,0.0151475,762,596,-0.581693,1.33952
-455,428,-0.600037,-1.48383,-0.00132793,0.00199861,-0.00123608,0.00240763,-0.00173695,-1.25124,0.00240329,0.0122403,769,596,-0.600011,1.48385
-448,428,-0.611877,-1.63239,0.000287424,0.0025654,-0.00107987,0.00299594,-0.000143118,-1.19141,0.00204667,0.0105495,776,596,-0.61185,1.63241
-441,428,-0.6026,-1.76587,5.11863e-05,0.00179202,-0.000858854,0.00214441,-0.000301204,-1.18144,0.00153986,0.012465,783,596,-0.602583,1.76588
-434,428,-0.590942,-1.89673,-0.000590491,0.000790473,-0.000329785,0.000865186,-0.000665204,-1.34801,0.000886082,0.00953828,790,596,-0.590965,1.89675
-427,428,-0.57959,-2.01288,-0.00143769,0.00028491,0.000157621,0.000299213,-0.00145199,1.4803,0.00108162,0.0100198,797,596,-0.579587,2.01285
-420,428,-0.580078,-2.1109,-0.00248632,-0.00028021,0.000619581,-0.000118113,-0.00264842,1.31491,0.00172759,0.0109456,804,596,-0.580053,2.11088
-413,428,-0.577637,-2.21021,-0.00376622,-0.000526314,0.000897679,-0.00029422,-0.00399831,1.31779,0.00257308,0.0132531,811,596,-0.577608,2.21019
-406,428,-0.58606,-2.35541,-0.00498466,-0.000535849,0.00116813,-0.000247784,-0.00527272,1.32902,0.00343553,0.0154142,818,596,-0.586078,2.35541
-399,428,-0.607361,-2.50403,-0.00653055,-0.000665086,0.00125174,-0.000409124,-0.00678652,1.36909,0.00439432,0.0133248,825,596,-0.607388,2.50403
-392,428,-0.597534,-2.62311,-0.00845873,-0.000758547,0.0013254,-0.000536798,-0.00868048,1.40502,0.00561661,0.0118612,832,596,-0.59755,2.62309
-385,428,-0.60968,-2.75507,-0.0101529,-0.000770298,0.00128824,-0.000596635,-0.0103266,1.4368,0.00669439,0.0181575,839,596,-0.60966,2.75507
-378,428,-0.527649,-2.71063,-0.0114617,-0.000969691,0.00105897,-0.000863876,-0.0115676,1.4712,0.00744048,0.0344501,846,596,-0.52766,2.71064
-371,428,-0.522278,-2.66083,-0.0131084,-0.00097792,0.000803427,-0.000924939,-0.0131614,1.50495,0.00848278,0.0441976,853,596,-0.522294,2.66082
-364,428,-0.851868,-3.07025,-0.014361,-0.00121163,0.000517457,-0.0011913,-0.0143814,1.53153,0.00921618,0.0482461,860,596,-0.851865,3.07026
-357,428,-0.891541,-3.32037,0,0,0,0,0,0,0,-1,867,596,-0.891525,3.32036
-350,428,-0.493469,-2.5658,0,0,0,0,0,0,0,-1,874,596,-0.493469,2.5658
-343,428,-0.0567017,-4.80994,0,0,0,0,0,0,0,-1,881,596,-0.0567096,4.80996
-336,428,-3.29175,-1.39569,0,0,0,0,0,0,0,-1,888,596,-3.29172,1.39568
-329,428,-3.71564,-0.791321,0,0,0,0,0,0,0,-1,895,596,-3.71564,0.791299
-322,428,-5.52863,-3.59827,0,0,0,0,0,0,0,-1,902,596,-5.52865,3.59829
-315,428,-4.57172,-1.22052,0,0,0,0,0,0,0,-1,909,596,-4.57171,1.22052
-308,428,-5.26538,-1.1521,0,0,0,0,0,0,0,-1,916,596,-5.26539,1.15209
-301,428,0,0,0,0,0,0,0,0,0,-1,923,596,0,0
-294,428,0,0,0,0,0,0,0,0,0,-1,930,596,0,0
-287,428,0,0,0,0,0,0,0,0,0,-1,937,596,0,0
-280,428,0,0,0,0,0,0,0,0,0,-1,944,596,0,0
-273,428,0,0,0,0,0,0,0,0,0,-1,951,596,0,0
-266,428,0,0,0,0,0,0,0,0,0,-1,958,596,0,0
-259,428,0,0,0,0,0,0,0,0,0,-1,965,596,0,0
-252,428,0,0,0,0,0,0,0,0,0,-1,972,596,0,0
-245,428,0,0,0,0,0,0,0,0,0,-1,979,596,0,0
-238,428,0,0,0,0,0,0,0,0,0,-1,986,596,0,0
-231,428,0,0,0,0,0,0,0,0,0,-1,993,596,0,0
-224,428,0,0,0,0,0,0,0,0,0,-1,1000,596,0,0
-217,428,0,0,0,0,0,0,0,0,0,-1,1007,596,0,0
-210,428,0,0,0,0,0,0,0,0,0,-1,1014,596,0,0
-203,428,0,0,0,0,0,0,0,0,0,-1,1021,596,0,0
-196,428,0,0,0,0,0,0,0,0,0,-1,1028,596,0,0
-189,428,0,0,0,0,0,0,0,0,0,-1,1035,596,0,0
-182,428,0,0,0,0,0,0,0,0,0,-1,1042,596,0,0
-175,428,0,0,0,0,0,0,0,0,0,-1,1049,596,0,0
-168,428,0,0,0,0,0,0,0,0,0,-1,1056,596,0,0
-161,428,0,0,0,0,0,0,0,0,0,-1,1063,596,0,0
-154,428,0,0,0,0,0,0,0,0,0,-1,1070,596,0,0
-147,428,0,0,0,0,0,0,0,0,0,-1,1077,596,0,0
-140,428,0,0,0,0,0,0,0,0,0,-1,1084,596,0,0
-133,428,0,0,0,0,0,0,0,0,0,-1,1091,596,0,0
-126,428,0,0,0,0,0,0,0,0,0,-1,1098,596,0,0
-119,428,0,0,0,0,0,0,0,0,0,-1,1105,596,0,0
-112,428,0,0,0,0,0,0,0,0,0,-1,1112,596,0,0
-105,428,0,0,0,0,0,0,0,0,0,-1,1119,596,0,0
-98,428,0,0,0,0,0,0,0,0,0,-1,1126,596,0,0
-91,428,0,0,0,0,0,0,0,0,0,-1,1133,596,0,0
-84,428,0,0,0,0,0,0,0,0,0,-1,1140,596,0,0
-77,428,0,0,0,0,0,0,0,0,0,-1,1147,596,0,0
-70,428,0,0,0,0,0,0,0,0,0,-1,1154,596,0,0
-63,428,0,0,0,0,0,0,0,0,0,-1,1161,596,0,0
-56,428,0,0,0,0,0,0,0,0,0,-1,1168,596,0,0
-49,428,0,0,0,0,0,0,0,0,0,-1,1175,596,0,0
-42,428,0,0,0,0,0,0,0,0,0,-1,1182,596,0,0
-35,428,0,0,0,0,0,0,0,0,0,-1,1189,596,0,0
-28,428,0,0,0,0,0,0,0,0,0,-1,1196,596,0,0
-21,428,0,0,0,0,0,0,0,0,0,-1,1203,596,0,0
-14,428,0,0,0,0,0,0,0,0,0,-1,1210,596,0,0
-7,428,0,0,0,0,0,0,0,0,0,-1,1217,596,0,0
0,428,0,0,0,0,0,0,0,0,0,-1,1224,596,0,0
7,428,0,0,0,0,0,0,0,0,0,-1,1231,596,0,0
14,428,0,0,0,0,0,0,0,0,0,-1,1238,596,0,0
21,428,0,0,0,0,0,0,0,0,0,-1,1245,596,0,0
28,428,0,0,0,0,0,0,0,0,0,-1,1252,596,0,0
35,428,0,0,0,0,0,0,0,0,0,-1,1259,596,0,0
42,428,0,0,0,0,0,0,0,0,0,-1,1266,596,0,0
49,428,0,0,0,0,0,0,0,0,0,-1,1273,596,0,0
56,428,0,0,0,0,0,0,0,0,0,-1,1280,596,0,0
63,428,0,0,0,0,0,0,0,0,0,-1,1287,596,0,0
70,428,0,0,0,0,0,0,0,0,0,-1,1294,596,0,0
77,428,0,0,0,0,0,0,0,0,0,-1,1301,596,0,0
84,428,0,0,0,0,0,0,0,0,0,-1,1308,596,0,0
91,428,0,0,0,0,0,0,0,0,0,-1,1315,596,0,0
98,428,0,0,0,0,0,0,0,0,0,-1,1322,596,0,0
105,428,0,0,0,0,0,0,0,0,0,-1,1329,596,0,0
112,428,0,0,0,0,0,0,0,0,0,-1,1336,596,0,0
119,428,0,0,0,0,0,0,0,0,0,-1,1343,596,0,0
126,428,0,0,0,0,0,0,0,0,0,-1,1350,596,0,0
133,428,0,0,0,0,0,0,0,0,0,-1,1357,596,0,0
140,428,0,0,0,0,0,0,0,0,0,-1,1364,596,0,0
147,428,0,0,0,0,0,0,0,0,0,-1,1371,596,0,0
154,428,0,0,0,0,0,0,0,0,0,-1,1378,596,0,0
161,428,0,0,0,0,0,0,0,0,0,-1,1385,596,0,0
168,428,0,0,0,0,0,0,0,0,0,-1,1392,596,0,0
175,428,0,0,0,0,0,0,0,0,0,-1,1399,596,0,0
182,428,0,0,0,0,0,0,0,0,0,-1,1406,596,0,0
189,428,0,0,0,0,0,0,0,0,0,-1,1413,596,0,0
196,428,0,0,0,0,0,0,0,0,0,-1,1420,596,0,0
203,428,0,0,0,0,0,0,0,0,0,-1,1427,596,0,0
210,428,0,0,0,0,0,0,0,0,0,-1,1434,596,0,0
217,428,0,0,0,0,0,0,0,0,0,-1,1441,596,0,0
224,428,0,0,0,0,0,0,0,0,0,-1,1448,596,0,0
231,428,0,0,0,0,0,0,0,0,0,-1,1455,596,0,0
238,428,0,0,0,0,0,0,0,0,0,-1,1462,596,0,0
245,428,0,0,0,0,0,0,0,0,0,-1,1469,596,0,0
252,428,0,0,0,0,0,0,0,0,0,-1,1476,596,0,0
259,428,0,0,0,0,0,0,0,0,0,-1,1483,596,0,0
266,428,0,0,0,0,0,0,0,0,0,-1,1490,596,0,0
273,428,0,0,0,0,0,0,0,0,0,-1,1497,596,0,0
280,428,0,0,0,0,0,0,0,0,0,-1,1504,596,0,0
287,428,0,0,0,0,0,0,0,0,0,-1,1511,596,0,0
294,428,0,0,0,0,0,0,0,0,0,-1,1518,596,0,0
301,428,0,0,0,0,0,0,0,0,0,-1,1525,596,0,0
308,428,0,0,0,0,0,0,0,0,0,-1,1532,596,0,0
315,428,0,0,0,0,0,0,0,0,0,-1,1539,596,0,0
322,428,0,0,0,0,0,0,0,0,0,-1,1546,596,0,0
329,428,0,0,0,0,0,0,0,0,0,-1,1553,596,0,0
336,428,0,0,0,0,0,0,0,0,0,-1,1560,596,0,0
343,428,0,0,0,0,0,0,0,0,0,-1,1567,596,0,0
350,428,0,0,0,0,0,0,0,0,0,-1,1574,596,0,0
357,428,0,0,0,0,0,0,0,0,0,-1,1581,596,0,0
364,428,0,0,0,0,0,0,0,0,0,-1,1588,596,0,0
371,428,0,0,0,0,0,0,0,0,0,-1,1595,596,0,0
378,428,0,0,0,0,0,0,0,0,0,-1,1602,596,0,0
385,428,0,0,0,0,0,0,0,0,0,-1,1609,596,0,0
392,428,0,0,0,0,0,0,0,0,0,-1,1616,596,0,0
399,428,0,0,0,0,0,0,0,0,0,-1,1623,596,0,0
406,428,0,0,0,0,0,0,0,0,0,-1,1630,596,0,0
413,428,0,0,0,0,0,0,0,0,0,-1,1637,596,0,0
420,428,2.95886,0.551819,0,0,0,0,0,0,0,-1,1644,596,2.9589,-0.551797
427,428,3.19385,0.384705,0,0,0,0,0,0,0,-1,1651,596,3.19383,-0.384692
434,428,8.18152,1.80432,0,0,0,0,0,0,0,-1,1658,596,8.18148,-1.80434
441,428,8.17993,0.607483,0,0,0,0,0,0,0,-1,1665,596,8.17997,-0.607513
448,428,7.84338,-0.385986,0,0,0,0,0,0,0,-1,1672,596,7.84336,0.385978
455,428,6.64038,2.1123,0,0,0,0,0,0,0,-1,1679,596,6.64037,-2.11229
462,428,4.84106,4.12341,0,0,0,0,0,0,0,-1,1686,596,4.84107,-4.12339
469,428,7.83789,3.10083,0,0,0,0,0,0,0,-1,1693,596,7.83785,-3.10086
476,428,7.61255,1.73956,0,0,0,0,0,0,0,-1,1700,596,7.61252,-1.73958
483,428,7.22766,1.05121,0,0,0,0,0,0,0,-1,1707,596,7.2277,-1.05121
490,428,5.4071,-3.2793,0,0,0,0,0,0,0,-1,1714,596,5.40707,3.27929
497,428,5.52966,-1.87177,0,0,0,0,0,0,0,-1,1721,596,5.52963,1.87179
504,428,5.38269,-1.68988,0,0,0,0,0,0,0,-1,1728,596,5.38267,1.68988
511,428,5.47266,-1.87067,0,0,0,0,0,0,0,-1,1735,596,5.47268,1.87064
518,428,5.53845,-1.81775,-0.00616856,-0.00411734,-0.00397447,-0.00103829,-0.00924762,-0.911668,0.00584978,0.0411741,1742,596,5.53846,1.81778
525,428,5.46533,-1.72595,-0.00488773,-0.00368199,-0.00331467,-0.000915809,-0.00765391,-0.875355,0.00482639,0.022821,1749,596,5.4653,1.72594
532,428,5.49109,-1.5202,-0.0036253,-0.00292137,-0.00254868,-0.000700471,-0.0058462,-0.854013,0.00368623,0.0158577,1756,596,5.4911,1.52021
539,428,5.52087,-1.38898,-0.00261212,-0.0022197,-0.00187138,-0.000534272,-0.00429755,-0.837631,0.00270459,0.0193908,1763,596,5.52085,1.389
546,428,5.51294,-1.28223,-0.00168291,-0.00157716,-0.00121277,-0.000416119,-0.00284396,-0.807184,0.00177361,0.0159518,1770,596,5.51294,1.28222
553,428,5.50269,-1.14813,-0.00050491,-0.000717564,-0.000300421,-0.000292555,-0.000929919,-0.615314,0.000549054,0.0101897,1777,596,5.50271,1.14813
560,428,5.52185,-0.997498,0.000802306,4.25237e-05,0.000635426,0.00116274,-0.000317912,0.515979,0.000900046,0.0107285,1784,596,5.52186,0.997516
567,428,5.51404,-0.864563,0.00222943,0.000724422,0.00164746,0.00328811,-0.000334255,0.571165,0.00231156,0.0106758,1791,596,5.51406,0.864559
574,428,5.50464,-0.74585,0.00385838,0.00142364,0.00283243,0.00572397,-0.000441951,0.582434,0.0039715,0.0129339,1798,596,5.50467,0.745828
581,428,5.49011,-0.597778,0.00564304,0.00215381,0.00410835,0.00836186,-0.000565005,0.584611,0.00577213,0.010838,1805,596,5.49009,0.597774
588,428,5.47778,-0.472595,0.0074067,0.00294461,0.00542788,0.0110442,-0.000692851,0.590407,0.00760426,0.0145334,1812,596,5.47784,0.472601
595,428,5.47339,-0.327454,0.00937343,0.00381595,0.0068408,0.0139783,-0.000788938,0.592478,0.00959267,0.00950406,1819,596,5.47343,0.327451
602,428,5.45227,-0.160278,0.0115698,0.00419596,0.00754838,0.0162836,-0.000517796,0.55822,0.0110324,0.0191805,1826,596,5.45228,0.160274
609,428,5.57397,-0.121887,0.0137574,0.00492898,0.00847673,0.0189004,-0.00021402,0.545345,0.0126722,0.0488203,1833,596,5.57399,0.121895
616,428,5.71436,0.0310669,0,0,0,0,0,0,0,-1,1840,596,5.71432,-0.031041
623,428,6.41541,0.466675,0,0,0,0,0,0,0,-1,1847,596,6.41543,-0.466696
630,428,4.94434,0.773193,0,0,0,0,0,0,0,-1,1854,596,4.9443,-0.773171
637,428,3.95435,1.90857,0,0,0,0,0,0,0,-1,1861,596,3.95439,-1.90858
644,428,5.75476,0.888977,0,0,0,0,0,0,0,-1,1868,596,5.75472,-0.888955
651,428,0,0,0,0,0,0,0,0,0,-1,1875,596,0,0
658,428,0,0,0,0,0,0,0,0,0,-1,1882,596,0,0
665,428,0,0,0,0,0,0,0,0,0,-1,1889,596,0,0
672,428,0,0,0,0,0,0,0,0,0,-1,1896,596,0,0
679,428,0,0,0,0,0,0,0,0,0,-1,1903,596,0,0
686,428,0,0,0,0,0,0,0,0,0,-1,1910,596,0,0
693,428,0,0,0,0,0,0,0,0,0,-1,1917,596,0,0
700,428,0,0,0,0,0,0,0,0,0,-1,1924,596,0,0
707,428,0,0,0,0,0,0,0,0,0,-1,1931,596,0,0
714,428,0,0,0,0,0,0,0,0,0,-1,1938,596,0,0
721,428,0,0,0,0,0,0,0,0,0,-1,1945,596,0,0
728,428,0,0,0,0,0,0,0,0,0,-1,1952,596,0,0
735,428,0,0,0,0,0,0,0,0,0,-1,1959,596,0,0
742,428,0,0,0,0,0,0,0,0,0,-1,1966,596,0,0
749,428,0,0,0,0,0,0,0,0,0,-1,1973,596,0,0
756,428,0,0,0,0,0,0,0,0,0,-1,1980,596,0,0
763,428,0,0,0,0,0,0,0,0,0,-1,1987,596,0,0
770,428,0,0,0,0,0,0,0,0,0,-1,1994,596,0,0
777,428,0,0,0,0,0,0,0,0,0,-1,2001,596,0,0
784,428,0,0,0,0,0,0,0,0,0,-1,2008,596,0,0
791,428,0,0,0,0,0,0,0,0,0,-1,2015,596,0,0
798,428,0,0,0,0,0,0,0,0,0,-1,2022,596,0,0
805,428,0,0,0,0,0,0,0,0,0,-1,2029,596,0,0
812,428,0,0,0,0,0,0,0,0,0,-1,2036,596,0,0
-700,421,0,0,0,0,0,0,0,0,0,-1,524,603,0,0
-693,421,0,0,0,0,0,0,0,0,0,-1,531,603,0,0
-686,421,0,0,0,0,0,0,0,0,0,-1,538,603,0,0
-679,421,0,0,0,0,0,0,0,0,0,-1,545,603,0,0
-672,421,0,0,0,0,0,0,0,0,0,-1,552,603,0,0
-665,421,0,0,0,0,0,0,0,0,0,-1,559,603,0,0
-658,421,0,0,0,0,0,0,0,0,0,-1,566,603,0,0
-651,421,0,0,0,0,0,0,0,0,0,-1,573,603,0,0
-644,421,0,0,0,0,0,0,0,0,0,-1,580,603,0,0
-637,421,0,0,0,0,0,0,0,0,0,-1,587,603,0,0
-630,421,0,0,0,0,0,0,0,0,0,-1,594,603,0,0
-623,421,0,0,0,0,0,0,0,0,0,-1,601,603,0,0
-616,421,0,0,0,0,0,0,0,0,0,-1,608,603,0,0
-609,421,0,0,0,0,0,0,0,0,0,-1,615,603,0,0
-602,421,0,0,0,0,0,0,0,0,0,-1,622,603,0,0
-595,421,0,0,0,0,0,0,0,0,0,-1,629,603,0,0
-588,421,0,0,0,0,0,0,0,0,0,-1,636,603,0,0
-581,421,0,0,0,0,0,0,0,0,0,-1,643,603,0,0
-574,421,0,0,0,0,0,0,0,0,0,-1,650,603,0,0
-567,421,0,0,0,0,0,0,0,0,0,-1,657,603,0,0
-560,421,0,0,0,0,0,0,0,0,0,-1,664,603,0,0
-553,421,0,0,0,0,0,0,0,0,0,-1,671,603,0,0
-546,421,0,0,0,0,0,0,0,0,0,-1,678,603,0,0
-539,421,0,0,0,0,0,0,0,0,0,-1,685,603,0,0
-532,421,0.628479,-3.57123,0,0,0,0,0,0,0,-1,692,603,0.628498,3.57125
-525,421,0.301514,-3.52362,0,0,0,0,0,0,0,-1,699,603,0.301521,3.52361
-518,421,0.632629,-3.10834,0,0,0,0,0,0,0,-1,706,603,0.632625,3.10834
-511,421,0.0473633,-2.74988,0,0,0,0,0,0,0,-1,713,603,0.0473801,2.74987
-504,421,-0.369568,-2.11383,0,0,0,0,0,0,0,-1,720,603,-0.369588,2.11381
-497,421,-0.455505,-0.98053,0,0,0,0,0,0,0,-1,727,603,-0.45553,0.980533
-490,421,-0.624878,-0.835999,-0.0145816,-0.00853328,0.000163899,-0.00852884,-0.014586,1.54372,0.00846144,0.0454815,734,603,-0.624856,0.836007
-483,421,-0.744995,-0.902893,-0.0102266,-0.00452365,-0.000205383,-0.00451627,-0.0102339,-1.53484,0.00592213,0.0361137,741,603,-0.744967,0.902919
-476,421,-0.75,-1.10504,-0.00676653,-0.00175717,-0.0005593,-0.00169549,-0.00682822,-1.46095,0.00410539,0.0198234,748,603,-0.750008,1.10502
-469,421,-0.71582,-1.23877,-0.00419353,-9.01808e-05,-0.000740754,3.94483e-05,-0.00432316,-1.39755,0.00289534,0.0152299,755,603,-0.715834,1.23878
-462,421,-0.722595,-1.37158,-0.00297631,0.000487465,-0.000470311,0.000550188,-0.00303903,-1.43821,0.00223214,0.0165927,762,603,-0.722572,1.37161
-455,421,-0.722229,-1.492,-0.00127916,0.0010009,-0.000593126,0.00114596,-0.00142423,-1.33093,0.0014868,0.0181635,769,603,-0.722209,1.492
-448,421,-0.729553,-1.62177,-2.92114e-05,0.0014089,-0.00037121,0.00149907,-0.000119376,-1.33252,0.00104145,0.0177678,776,603,-0.729584,1.62179
-441,421,-0.738403,-1.77997,-0.000324142,0.000683212,-0.000139775,0.000702247,-0.000343177,-1.43545,0.000615329,0.0138047,783,603,-0.738428,1.77999
-434,421,-0.724426,-1.90771,-0.00108602,-0.000208825,0.000415726,-4.31074e-05,-0.00125173,1.19148,0.000820497,0.0101567,790,603,-0.724444,1.90771
-427,421,-0.711426,-2.01886,-0.00208778,-0.000659399,0.00094551,-0.00018866,-0.00255852,1.10886,0.0016464,0.00959076,797,603,-0.711421,2.01887
-420,421,-0.701843,-2.11615,-0.00330573,-0.00118667,0.00143173,-0.000465064,-0.00402734,1.10394,0.00254408,0.0113922,804,603,-0.701872,2.11613
-413,421,-0.704346,-2.22809,-0.00484503,-0.00139962,0.00173978,-0.000673944,-0.0055707,1.17563,0.00351078,0.0136431,811,603,-0.704339,2.22807
-406,421,-0.726135,-2.37903,-0.0064323,-0.00134528,0.00203958,-0.000628524,-0.00714906,1.23285,0.00457096,0.0174694,818,603,-0.726114,2.37902
-399,421,-0.732544,-2.54303,-0.00845851,-0.00132541,0.00213782,-0.000733772,-0.00905015,1.3008,0.00580432,0.0146498,825,603,-0.732545,2.54305
-392,421,-0.752441,-2.66058,-0.0110006,-0.00124941,0.00219276,-0.000779016,-0.011471,1.35948,0.00740136,0.0159789,832,603,-0.752435,2.66057
-385,421,-0.876038,-2.85211,-0.0134875,-0.00109232,0.00210885,-0.000743356,-0.0138365,1.40681,0.00898679,0.0360041,839,603,-0.876068,2.85208
-378,421,-1.00372,-3.0603,0,0,0,0,0,0,0,-1,846,603,-1.00371,3.06031
-371,421,-0.51062,-2.4212,0,0,0,0,0,0,0,-1,853,603,-0.510601,2.42121
-364,421,-1.33807,-2.9328,0,0,0,0,0,0,0,-1,860,603,-1.33809,2.93278
-357,421,-1.01331,-5.57227,0,0,0,0,0,0,0,-1,867,603,-1.0133,5.57228
-350,421,-0.568542,-6.99695,0,0,0,0,0,0,0,-1,874,603,-0.568545,6.99693
-343,421,-2.70099,-2.13391,0,0,0,0,0,0,0,-1,881,603,-2.70101,2.13393
-336,421,-4.78381,-1.46234,0,0,0,0,0,0,0,-1,888,603,-4.78379,1.46232
-329,421,-4.50134,-1.49469,0,0,0,0,0,0,0,-1,895,603,-4.50137,1.49468
-322,421,-4.26563,-1.38239,0,0,0,0,0,0,0,-1,902,603,-4.26559,1.3824
-315,421,-4.47821,-1.26733,0,0,0,0,0,0,0,-1,909,603,-4.47824,1.26732
-308,421,0,0,0,0,0,0,0,0,0,-1,916,603,0,0
-301,421,0,0,0,0,0,0,0,0,0,-1,923,603,0,0
-294,421,0,0,0,0,0,0,0,0,0,-1,930,603,0,0
-287,421,0,0,0,0,0,0,0,0,0,-1,937,603,0,0
-280,421,0,0,0,0,0,0,0,0,0,-1,944,603,0,0
-273,421,0,0,0,0,0,0,0,0,0,-1,951,603,0,0
-266,421,0,0,0,0,0,0,0,0,0,-1,958,603,0,0
-259,421,0,0,0,0,0,0,0,0,0,-1,965,603,0,0
-252,421,0,0,0,0,0,0,0,0,0,-1,972,603,0,0
-245,421,0,0,0,0,0,0,0,0,0,-1,979,603,0,0
-238,421,0,0,0,0,0,0,0,0,0,-1,986,603,0,0
-231,421,0,0,0,0,0,0,0,0,0,-1,993,603,0,0
-224,421,0,0,0,0,0,0,0,0,0,-1,1000,603,0,0
-217,421,0,0,0,0,0,0,0,0,0,-1,1007,603,0,0
-210,421,0,0,0,0,0,0,0,0,0,-1,1014,603,0,0
-203,421,0,0,0,0,0,0,0,0,0,-1,1021,603,0,0
-196,421,0,0,0,0,0,0,0,0,0,-1,1028,603,0,0
-189,421,0,0,0,0,0,0,0,0,0,-1,1035,603,0,0
-182,421,0,0,0,0,0,0,0,0,0,-1,1042,603,0,0
-175,421,0,0,0,0,0,0,0,0,0,-1,1049,603,0,0
-168,421,0,0,0,0,0,0,0,0,0,-1,1056,603,0,0
-161,421,0,0,0,0,0,0,0,0,0,-1,1063,603,0,0
-154,421,0,0,0,0,0,0,0,0,0,-1,1070,603,0,0
-147,421,0,0,0,0,0,0,0,0,0,-1,1077,603,0,0
-140,421,0,0,0,0,0,0,0,0,0,-1,1084,603,0,0
-133,421,0,0,0,0,0,0,0,0,0,-1,1091,603,0,0
-126,421,0,0,0,0,0,0,0,0,0,-1,1098,603,0,0
-119,421,0,0,0,0,0,0,0,0,0,-1,1105,603,0,0
-112,421,0,0,0,0,0,0,0,0,0,-1,1112,603,0,0
-105,421,0,0,0,0,0,0,0,0,0,-1,1119,603,0,0
-98,421,0,0,0,0,0,0,0,0,0,-1,1126,603,0,0
-91,421,0,0,0,0,0,0,0,0,0,-1,1133,603,0,0
-84,421,0,0,0,0,0,0,0,0,0,-1,1140,603,0,0
-77,421,0,0,0,0,0,0,0,0,0,-1,1147,603,0,0
-70,421,0,0,0,0,0,0,0,0,0,-1,1154,603,0,0
-63,421,0,0,0,0,0,0,0,0,0,-1,1161,603,0,0
-56,421,0,0,0,0,0,0,0,0,0,-1,1168,603,0,0
-49,421,0,0,0,0,0,0,0,0,0,-1,1175,603,0,0
-42,421,0,0,0,0,0,0,0,0,0,-1,1182,603,0,0
-35,421,0,0,0,0,0,0,0,0,0,-1,1189,603,0,0
-28,421,0,0,0,0,0,0,0,0,0,-1,1196,603,0,0
-21,421,0,0,0,0,0,0,0,0,0,-1,1203,603,0,0
-14,421,0,0,0,0,0,0,0,0,0,-1,1210,603,0,0
-7,421,0,0,0,0,0,0,0,0,0,-1,1217,603,0,0
0,421,0,0,0,0,0,0,0,0,0,-1,1224,603,0,0
7,421,0,0,0,0,0,0,0,0,0,-1,1231,603,0,0
14,421,0,0,0,0,0,0,0,0,0,-1,1238,603,0,0
21,421,0,0,0,0,0,0,0,0,0,-1,1245,603,0,0
28,421,0,0,0,0,0,0,0,0,0,-1,1252,603,0,0
35,421,0,0,0,0,0,0,0,0,0,-1,1259,603,0,0
42,421,0,0,0,0,0,0,0,0,0,-1,1266,603,0,0
49,421,0,0,0,0,0,0,0,0,0,-1,1273,603,0,0
56,421,0,0,0,0,0,0,0,0,0,-1,1280,603,0,0
63,421,0,0,0,0,0,0,0,0,0,-1,1287,603,0,0
70,421,0,0,0,0,0,0,0,0,0,-1,1294,603,0,0
77,421,0,0,0,0,0,0,0,0,0,-1,1301,603,0,0
84,421,0,0,0,0,0,0,0,0,0,-1,1308,603,0,0
91,421,0,0,0,0,0,0,0,0,0,-1,1315,603,0,0
98,421,0,0,0,0,0,0,0,0,0,-1,1322,603,0,0
105,421,0,0,0,0,0,0,0,0,0,-1,1329,603,0,0
112,421,0,0,0,0,0,0,0,0,0,-1,1336,603,0,0
119,421,0,0,0,0,0,0,0,0,0,-1,1343,603,0,0
126,421,0,0,0,0,0,0,0,0,0,-1,1350,603,0,0
133,421,0,0,0,0,0,0,0,0,0,-1,1357,603,0,0
140,421,0,0,0,0,0,0,0,0,0,-1,1364,603,0,0
147,421,0,0,0,0,0,0,0,0,0,-1,1371,603,0,0
154,421,0,0,0,0,0,0,0,0,0,-1,1378,603,0,0
161,421,0,0,0,0,0,0,0,0,0,-1,1385,603,0,0
168,421,0,0,0,0,0,0,0,0,0,-1,1392,603,0,0
175,421,0,0,0,0,0,0,0,0,0,-1,1399,603,0,0
182,421,0,0,0,0,0,0,0,0,0,-1,1406,603,0,0
189,421,0,0,0,0,0,0,0,0,0,-1,1413,603,0,0
196,421,0,0,0,0,0,0,0,0,0,-1,1420,603,0,0
203,421,0,0,0,0,0,0,0,0,0,-1,1427,603,0,0
210,421,0,0,0,0,0,0,0,0,0,-1,1434,603,0,0
217,421,0,0,0,0,0,0,0,0,0,-1,1441,603,0,0
224,421,0,0,0,0,0,0,0,0,0,-1,1448,603,0,0
231,421,0,0,0,0,0,0,0,0,0,-1,1455,603,0,0
238,421,0,0,0,0,0,0,0,0,0,-1,1462,603,0,0
245,421,0,0,0,0,0,0,0,0,0,-1,1469,603,0,0
252,421,0,0,0,0,0,0,0,0,0,-1,1476,603,0,0
259,421,0,0,0,0,0,0,0,0,0,-1,1483,603,0,0
266,421,0,0,0,0,0,0,0,0,0,-1,1490,603,0,0
273,421,0,0,0,0,0,0,0,0,0,-1,1497,603,0,0
280,421,0,0,0,0,0,0,0,0,0,-1,1504,603,0,0
287,421,0,0,0,0,0,0,0,0,0,-1,1511,603,0,0
294,421,0,0,0,0,0,0,0,0,0,-1,1518,603,0,0
301,421,0,0,0,0,0,0,0,0,0,-1,1525,603,0,0
308,421,0,0,0,0,0,0,0,0,0,-1,1532,603,0,0
315,421,0,0,0,0,0,0,0,0,0,-1,1539,603,0,0
322,421,0,0,0,0,0,0,0,0,0,-1,1546,603,0,0
329,421,0,0,0,0,0,0,0,0,0,-1,1553,603,0,0
336,421,0,0,0,0,0,0,0,0,0,-1,1560,603,0,0
343,421,0,0,0,0,0,0,0,0,0,-1,1567,603,0,0
350,421,0,0,0,0,0,0,0,0,0,-1,1574,603,0,0
357,421,0,0,0,0,0,0,0,0,0,-1,1581,603,0,0
364,421,0,0,0,0,0,0,0,0,0,-1,1588,603,0,0
371,421,0,0,0,0,0,0,0,0,0,-1,1595,603,0,0
378,421,0,0,0,0,0,0,0,0,0,-1,1602,603,0,0
385,421,0,0,0,0,0,0,0,0,0,-1,1609,603,0,0
392,421,0,0,0,0,0,0,0,0,0,-1,1616,603,0,0
399,421,0,0,0,0,0,0,0,0,0,-1,1623,603,0,0
406,421,0,0,0,0,0,0,0,0,0,-1,1630,603,0,0
413,421,0,0,0,0,0,0,0,0,0,-1,1637,603,0,0
420,421,0,0,0,0,0,0,0,0,0,-1,1644,603,0,0
427,421,0,0,0,0,0,0,0,0,0,-1,1651,603,0,0
434,421,3.68176,-0.0327759,0,0,0,0,0,0,0,-1,1658,603,3.6818,0.0328037
441,421,8.06689,0.527832,0,0,0,0,0,0,0,-1,1665,603,8.06693,-0.527851
448,421,6.93921,0.802246,0,0,0,0,0,0,0,-1,1672,603,6.93923,-0.802251
455,421,7.29456,2.14825,0,0,0,0,0,0,0,-1,1679,603,7.29461,-2.14827
462,421,7.86902,3.53174,0,0,0,0,0,0,0,-1,1686,603,7.869,-3.53173
469,421,8.06604,2.81213,0,0,0,0,0,0,0,-1,1693,603,8.06606,-2.81212
476,421,8.26306,2.09253,0,0,0,0,0,0,0,-1,1700,603,8.26312,-2.09251
483,421,8.05322,0.798096,0,0,0,0,0,0,0,-1,1707,603,8.05323,-0.7981
490,421,7.51233,0.213074,0,0,0,0,0,0,0,-1,1714,603,7.51235,-0.213043
497,421,5.56238,-1.89691,0,0,0,0,0,0,0,-1,1721,603,5.56232,1.8969
504,421,5.3949,-1.41162,0,0,0,0,0,0,0,-1,1728,603,5.39493,1.41165
511,421,5.22754,-0.926392,0,0,0,0,0,0,0,-1,1735,603,5.22755,0.926387
518,421,6.15344,-1.55322,0,0,0,0,0,0,0,-1,1742,603,6.1534,1.55323
525,421,5.76184,-1.6153,-0.00582117,-0.00471173,-0.00410472,-0.00112442,-0.00940848,-0.852562,0.00593313,0.0481886,1749,603,5.76186,1.61527
532,421,5.59094,-1.57312,-0.00437719,-0.0036608,-0.00321183,-0.000787246,-0.00725074,-0.84093,0.00459395,0.0269737,1756,603,5.59089,1.57311
539,421,5.65015,-1.4245,-0.00328316,-0.00277759,-0.0024916,-0.000525985,-0.00553476,-0.835952,0.00352761,0.0215932,1763,603,5.65012,1.4245
546,421,5.65027,-1.29816,-0.0023843,-0.00202852,-0.00185789,-0.000340021,-0.0040728,-0.833128,0.00260925,0.0138038,1770,603,5.6503,1.29817
553,421,5.64856,-1.12903,-0.00145723,-0.00120124,-0.0011626,-0.000159605,-0.00249886,-0.840225,0.00161534,0.0115159,1777,603,5.64859,1.12904
560,421,5.65076,-0.977234,-0.000302964,-0.000455558,-0.000350178,-2.08671e-05,-0.000737655,-0.678134,0.000484964,0.0135091,1784,603,5.65075,0.977245
567,421,5.63989,-0.869751,0.000895187,0.00013877,0.000494931,0.00113987,-0.000105917,0.459146,0.000797569,0.0162839,1791,603,5.63986,0.869755
574,421,5.63574,-0.766235,0.0022122,0.000711608,0.00146015,0.00310355,-0.000179737,0.548066,0.00213147,0.0184535,1798,603,5.6358,0.766266
581,421,5.64282,-0.576294,0.00357156,0.00129082,0.0024564,0.00513939,-0.000277006,0.56808,0.00352222,0.0152739,1805,603,5.64286,0.576269
588,421,5.62671,-0.465149,0.00476479,0.0018824,0.00340171,0.00701801,-0.000370811,0.585027,0.00480704,0.0110548,1812,603,5.62676,0.465125
595,421,5.63232,-0.31012,0.00603587,0.00254502,0.00435355,0.00898085,-0.000399959,0.594748,0.0061249,0.0142855,1819,603,5.63236,0.310149
602,421,5.63196,-0.182312,0.00746179,0.00273151,0.00454194,0.0102175,-2.4199e-05,0.54535,0.00681974,0.0138675,1826,603,5.63196,0.182332
609,421,5.5575,-0.0160522,0.00869213,0.00314926,0.00481744,0.0114785,0.000362942,0.524371,0.00753423,0.0281986,1833,603,5.55749,0.0160324
616,421,5.75403,0.131775,0.00975138,0.00365391,0.00472331,0.0123244,0.00108087,0.498807,0.00788074,0.0481121,1840,603,5.75398,-0.131794
623,421,6.19885,0.376648,0,0,0,0,0,0,0,-1,1847,603,6.19881,-0.376624
630,421,6.54993,0.778748,0,0,0,0,0,0,0,-1,1854,603,6.54991,-0.778744
637,421,3.74512,1.65405,0,0,0,0,0,0,0,-1,1861,603,3.74517,-1.65407
644,421,3.58081,0.354675,0,0,0,0,0,0,0,-1,1868,603,3.58082,-0.354704
651,421,3.28687,3.66351,0,0,0,0,0,0,0,-1,1875,603,3.28688,-3.66353
658,421,0,0,0,0,0,0,0,0,0,-1,1882,603,0,0
665,421,0,0,0,0,0,0,0,0,0,-1,1889,603,0,0
672,421,0,0,0,0,0,0,0,0,0,-1,1896,603,0,0
679,421,0,0,0,0,0,0,0,0,0,-1,1903,603,0,0
686,421,0,0,0,0,0,0,0,0,0,-1,1910,603,0,0
693,421,0,0,0,0,0,0,0,0,0,-1,1917,603,0,0
700,421,0,0,0,0,0,0,0,0,0,-1,1924,603,0,0
707,421,0,0,0,0,0,0,0,0,0,-1,1931,603,0,0
714,421,0,0,0,0,0,0,0,0,0,-1,1938,603,0,0
721,421,0,0,0,0,0,0,0,0,0,-1,1945,603,0,0
728,421,0,0,0,0,0,0,0,0,0,-1,1952,603,0,0
735,421,0,0,0,0,0,0,0,0,0,-1,1959,603,0,0
742,421,0,0,0,0,0,0,0,0,0,-1,1966,603,0,0
749,421,0,0,0,0,0,0,0,0,0,-1,1973,603,0,0
756,421,0,0,0,0,0,0,0,0,0,-1,1980,603,0,0
763,421,0,0,0,0,0,0,0,0,0,-1,1987,603,0,0
770,421,0,0,0,0,0,0,0,0,0,-1,1994,603,0,0
777,421,0,0,0,0,0,0,0,0,0,-1,2001,603,0,0
784,421,0,0,0,0,0,0,0,0,0,-1,2008,603,0,0
791,421,0,0,0,0,0,0,0,0,0,-1,2015,603,0,0
798,421,0,0,0,0,0,0,0,0,0,-1,2022,603,0,0
805,421,0,0,0,0,0,0,0,0,0,-1,2029,603,0,0
812,421,0,0,0,0,0,0,0,0,0,-1,2036,603,0,0
-700,414,0,0,0,0,0,0,0,0,0,-1,524,610,0,0
-693,414,0,0,0,0,0,0,0,0,0,-1,531,610,0,0
-686,414,0,0,0,0,0,0,0,0,0,-1,538,610,0,0
-679,414,0,0,0,0,0,0,0,0,0,-1,545,610,0,0
-672,414,0,0,0,0,0,0,0,0,0,-1,552,610,0,0
-665,414,0,0,0,0,0,0,0,0,0,-1,559,610,0,0
-658,414,0,0,0,0,0,0,0,0,0,-1,566,610,0,0
-651,414,0,0,0,0,0,0,0,0,0,-1,573,610,0,0
-644,414,0,0,0,0,0,0,0,0,0,-1,580,610,0,0
-637,414,0,0,0,0,0,0,0,0,0,-1,587,610,0,0
-630,414,0,0,0,0,0,0,0,0,0,-1,594,610,0,0
-623,414,0,0,0,0,0,0,0,0,0,-1,601,610,0,0
-616,414,0,0,0,0,0,0,0,0,0,-1,608,610,0,0
-609,414,0,0,0,0,0,0,0,0,0,-1,615,610,0,0
-602,414,0,0,0,0,0,0,0,0,0,-1,622,610,0,0
-595,414,0,0,0,0,0,0,0,0,0,-1,629,610,0,0
-588,414,0,0,0,0,0,0,0,0,0,-1,636,610,0,0
-581,414,0,0,0,0,0,0,0,0,0,-1,643,610,0,0
-574,414,0,0,0,0,0,0,0,0,0,-1,650,610,0,0
-567,414,0,0,0,0,0,0,0,0,0,-1,657,610,0,0
-560,414,0,0,0,0,0,0,0,0,0,-1,664,610,0,0
-553,414,0,0,0,0,0,0,0,0,0,-1,671,610,0,0
-546,414,0,0,0,0,0,0,0,0,0,-1,678,610,0,0
-539,414,0.564392,-3.45282,0,0,0,0,0,0,0,-1,685,610,0.564391,3.4528
-532,414,0.259644,-3.52527,0,0,0,0,0,0,0,-1,692,610,0.259657,3.52525
-525,414,-0.045166,-3.52246,0,0,0,0,0,0,0,-1,699,610,-0.0451515,3.52249
-518,414,0.62561,-2.5799,0,0,0,0,0,0,0,-1,706,610,0.625632,2.57991
-511,414,0.0497437,-2.25232,0,0,0,0,0,0,0,-1,713,610,0.0497366,2.25233
-504,414,-0.461792,-1.80359,0,0,0,0,0,0,0,-1,720,610,-0.461786,1.80357
-497,414,-0.664734,-1.28497,-0.0165755,-0.0114251,0.000969715,-0.0112486,-0.016752,1.39073,0.00985955,0.0498623,727,610,-0.664705,1.28498
-490,414,-0.843567,-0.883057,-0.01218,-0.00724068,0.000658813,-0.00715432,-0.0122664,1.44045,0.00711464,0.0348905,734,610,-0.843542,0.883047
-483,414,-0.864136,-0.964111,-0.00849039,-0.00405204,0.000263999,-0.00403639,-0.00850603,1.51159,0.00491308,0.0143276,741,610,-0.864125,0.964102
-476,414,-0.866821,-1.10254,-0.00563084,-0.00191399,-6.93335e-05,-0.0019127,-0.00563213,-1.55215,0.00330701,0.00927827,748,610,-0.866851,1.10256
-469,414,-0.861694,-1.23145,-0.00352166,-0.000646811,-0.000197412,-0.000633318,-0.00353516,-1.50255,0.0021766,0.0102483,755,610,-0.861716,1.23146
-462,414,-0.844116,-1.35663,-0.00248195,-0.000183648,1.98511e-05,-0.000183476,-0.00248212,1.56216,0.0015971,0.0188632,762,610,-0.844096,1.35665
-455,414,-0.838013,-1.49615,-0.00118244,0.000161527,1.98666e-05,0.000161821,-0.00118273,1.55602,0.000847595,0.0215992,769,610,-0.837992,1.49618
-448,414,-0.864136,-1.62091,-0.000280669,0.000412248,0.000321257,0.000538272,-0.000406693,1.19696,0.000547336,0.022959,776,610,-0.864136,1.62093
-441,414,-0.864075,-1.74811,-0.000661622,-0.000299031,0.000593621,0.000140362,-0.00110101,0.933603,0.000784991,0.0170464,783,610,-0.864075,1.74809
-434,414,-0.849792,-1.88806,-0.00156573,-0.00110951,0.00119061,-0.000125355,-0.00254989,0.880048,0.00165972,0.00951835,790,610,-0.849784,1.88805
-427,414,-0.852417,-2.01611,-0.0027523,-0.00153655,0.00178033,-0.000263182,-0.00402567,0.949913,0.00260049,0.00978785,797,610,-0.852444,2.01612
-420,414,-0.844299,-2.13013,-0.00417766,-0.00205635,0.00231563,-0.000570018,-0.005664,1.00016,0.00360106,0.00955345,804,610,-0.844309,2.13013
-413,414,-0.837891,-2.26385,-0.00602333,-0.00227881,0.00268808,-0.000875234,-0.00742691,1.08959,0.00468685,0.0102359,811,610,-0.83789,2.26383
-406,414,-0.851868,-2.43304,-0.00806019,-0.00220352,0.00305278,-0.00090165,-0.00936205,1.1677,0.00596358,0.013763,818,610,-0.851893,2.43305
-399,414,-0.872864,-2.53088,-0.0106808,-0.00206069,0.00320955,-0.000996944,-0.0117446,1.25076,0.00751945,0.0187633,825,610,-0.87285,2.53091
-392,414,-0.923523,-2.66046,-0.0139782,-0.00180585,0.00328862,-0.000974184,-0.0148099,1.3231,0.00956509,0.0269129,832,610,-0.923543,2.66047
-385,414,-1.32214,-3.02655,-0.0174364,-0.00143055,0.00317455,-0.000823913,-0.0180431,1.38198,0.0117637,0.0432559,839,610,-1.32211,3.02655
-378,414,-1.79987,-3.44312,-0.0207514,-0.0011289,0.00289016,-0.000712073,-0.0211682,1.42756,0.0138809,0.0467082,846,610,-1.79987,3.44312
-371,414,-2.10425,-3.87744,0,0,0,0,0,0,0,-1,853,610,-2.10427,3.87742
-364,414,-0.593811,-3.94434,0,0,0,0,0,0,0,-1,860,610,-0.593825,3.94433
-357,414,-0.658386,-4.87622,0,0,0,0,0,0,0,-1,867,610,-0.658371,4.8762
-350,414,-0.729858,-6.09155,0,0,0,0,0,0,0,-1,874,610,-0.729829,6.09153
-343,414,-0.68158,-7.48419,0,0,0,0,0,0,0,-1,881,610,-0.681581,7.4842
-336,414,-3.09222,-1.78766,0,0,0,0,0,0,0,-1,888,610,-3.09222,1.78763
-329,414,-4.73792,-1.55701,0,0,0,0,0,0,0,-1,895,610,-4.73793,1.557
-322,414,-4.42236,-1.29163,0,0,0,0,0,0,0,-1,902,610,-4.42238,1.2916
-315,414,0,0,0,0,0,0,0,0,0,-1,909,610,0,0
-308,414,0,0,0,0,0,0,0,0,0,-1,916,610,0,0
-301,414,0,0,0,0,0,0,0,0,0,-1,923,610,0,0
-294,414,0,0,0,0,0,0,0,0,0,-1,930,610,0,0
-287,414,0,0,0,0,0,0,0,0,0,-1,937,610,0,0
-280,414,0,0,0,0,0,0,0,0,0,-1,944,610,0,0
-273,414,0,0,0,0,0,0,0,0,0,-1,951,610,0,0
-266,414,0,0,0,0,0,0,0,0,0,-1,958,610,0,0
-259,414,0,0,0,0,0,0,0,0,0,-1,965,610,0,0
-252,414,0,0,0,0,0,0,0,0,0,-1,972,610,0,0
-245,414,0,0,0,0,0,0,0,0,0,-1,979,610,0,0
-238,414,0,0,0,0,0,0,0,0,0,-1,986,610,0,0
-231,414,0,0,0,0,0,0,0,0,0,-1,993,610,0,0
-224,414,0,0,0,0,0,0,0,0,0,-1,1000,610,0,0
-217,414,0,0,0,0,0,0,0,0,0,-1,1007,610,0,0
-210,414,0,0,0,0,0,0,0,0,0,-1,1014,610,0,0
-203,414,0,0,0,0,0,0,0,0,0,-1,1021,610,0,0
-196,414,0,0,0,0,0,0,0,0,0,-1,1028,610,0,0
-189,414,0,0,0,0,0,0,0,0,0,-1,1035,610,0,0
-182,414,0,0,0,0,0,0,0,0,0,-1,1042,610,0,0
-175,414,0,0,0,0,0,0,0,0,0,-1,1049,610,0,0
-168,414,0,0,0,0,0,0,0,0,0,-1,1056,610,0,0
-161,414,0,0,0,0,0,0,0,0,0,-1,1063,610,0,0
-154,414,0,0,0,0,0,0,0,0,0,-1,1070,610,0,0
-147,414,0,0,0,0,0,0,0,0,0,-1,1077,610,0,0
-140,414,0,0,0,0,0,0,0,0,0,-1,1084,610,0,0
-133,414,0,0,0,0,0,0,0,0,0,-1,1091,610,0,0
-126,414,0,0,0,0,0,0,0,0,0,-1,1098,610,0,0
-119,414,0,0,0,0,0,0,0,0,0,-1,1105,610,0,0
-112,414,0,0,0,0,0,0,0,0,0,-1,1112,610,0,0
-105,414,0,0,0,0,0,0,0,0,0,-1,1119,610,0,0
-98,414,0,0,0,0,0,0,0,0,0,-1,1126,610,0,0
-91,414,0,0,0,0,0,0,0,0,0,-1,1133,610,0,0
-84,414,0,0,0,0,0,0,0,0,0,-1,1140,610,0,0
-77,414,0,0,0,0,0,0,0,0,0,-1,1147,610,0,0
-70,414,0,0,0,0,0,0,0,0,0,-1,1154,610,0,0
-63,414,0,0,0,0,0,0,0,0,0,-1,1161,610,0,0
-56,414,0,0,0,0,0,0,0,0,0,-1,1168,610,0,0
-49,414,0,0,0,0,0,0,0,0,0,-1,1175,610,0,0
-42,414,0,0,0,0,0,0,0,0,0,-1,1182,610,0,0
-35,414,0,0,0,0,0,0,0,0,0,-1,1189,610,0,0
-28,414,0,0,0,0,0,0,0,0,0,-1,1196,610,0,0
-21,414,0,0,0,0,0,0,0,0,0,-1,1203,610,0,0
-14,414,0,0,0,0,0,0,0,0,0,-1,1210,610,0,0
-7,414,0,0,0,0,0,0,0,0,0,-1,1217,610,0,0
0,414,0,0,0,0,0,0,0,0,0,-1,1224,610,0,0
7,414,0,0,0,0,0,0,0,0,0,-1,1231,610,0,0
14,414,0,0,0,0,0,0,0,0,0,-1,1238,610,0,0
21,414,0,0,0,0,0,0,0,0,0,-1,1245,610,0,0
28,414,0,0,0,0,0,0,0,0,0,-1,1252,610,0,0
35,414,0,0,0,0,0,0,0,0,0,-1,1259,610,0,0
42,414,0,0,0,0,0,0,0,0,0,-1,1266,610,0,0
49,414,0,0,0,0,0,0,0,0,0,-1,1273,610,0,0
56,414,0,0,0,0,0,0,0,0,0,-1,1280,610,0,0
63,414,0,0,0,0,0,0,0,0,0,-1,1287,610,0,0
70,414,0,0,0,0,0,0,0,0,0,-1,1294,610,0,0
77,414,0,0,0,0,0,0,0,0,0,-1,1301,610,0,0
84,414,0,0,0,0,0,0,0,0,0,-1,1308,610,0,0
91,414,0,0,0,0,0,0,0,0,0,-1,1315,610,0,0
98,414,0,0,0,0,0,0,0,0,0,-1,1322,610,0,0
105,414,0,0,0,0,0,0,0,0,0,-1,1329,610,0,0
112,414,0,0,0,0,0,0,0,0,0,-1,1336,610,0,0
119,414,0,0,0,0,0,0,0,0,0,-1,1343,610,0,0
126,414,0,0,0,0,0,0,0,0,0,-1,1350,610,0,0
133,414,0,0,0,0,0,0,0,0,0,-1,1357,610,0,0
140,414,0,0,0,0,0,0,0,0,0,-1,1364,610,0,0
147,414,0,0,0,0,0,0,0,0,0,-1,1371,610,0,0
154,414,0,0,0,0,0,0,0,0,0,-1,1378,610,0,0
161,414,0,0,0,0,0,0,0,0,0,-1,1385,610,0,0
168,414,0,0,0,0,0,0,0,0,0,-1,1392,610,0,0
175,414,0,0,0,0,0,0,0,0,0,-1,1399,610,0,0
182,414,0,0,0,0,0,0,0,0,0,-1,1406,610,0,0
189,414,0,0,0,0,0,0,0,0,0,-1,1413,610,0,0
196,414,0,0,0,0,0,0,0,0,0,-1,1420,610,0,0
203,414,0,0,0,0,0,0,0,0,0,-1,1427,610,0,0
210,414,0,0,0,0,0,0,0,0,0,-1,1434,610,0,0
217,414,0,0,0,0,0,0,0,0,0,-1,1441,610,0,0
224,414,0,0,0,0,0,0,0,0,0,-1,1448,610,0,0
231,414,0,0,0,0,0,0,0,0,0,-1,1455,610,0,0
238,414,0,0,0,0,0,0,0,0,0,-1,1462,610,0,0
245,414,0,0,0,0,0,0,0,0,0,-1,1469,610,0,0
252,414,0,0,0,0,0,0,0,0,0,-1,1476,610,0,0
259,414,0,0,0,0,0,0,0,0,0,-1,1483,610,0,0
266,414,0,0,0,0,0,0,0,0,0,-1,1490,610,0,0
273,414,0,0,0,0,0,0,0,0,0,-1,1497,610,0,0
280,414,0,0,0,0,0,0,0,0,0,-1,1504,610,0,0
287,414,0,0,0,0,0,0,0,0,0,-1,1511,610,0,0
294,414,0,0,0,0,0,0,0,0,0,-1,1518,610,0,0
301,414,0,0,0,0,0,0,0,0,0,-1,1525,610,0,0
308,414,0,0,0,0,0,0,0,0,0,-1,1532,610,0,0
315,414,0,0,0,0,0,0,0,0,0,-1,1539,610,0,0
322,414,0,0,0,0,0,0,0,0,0,-1,1546,610,0,0
329,414,0,0,0,0,0,0,0,0,0,-1,1553,610,0,0
336,414,0,0,0,0,0,0,0,0,0,-1,1560,610,0,0
343,414,0,0,0,0,0,0,0,0,0,-1,1567,610,0,0
350,414,0,0,0,0,0,0,0,0,0,-1,1574,610,0,0
357,414,0,0,0,0,0,0,0,0,0,-1,1581,610,0,0
364,414,0,0,0,0,0,0,0,0,0,-1,1588,610,0,0
371,414,0,0,0,0,0,0,0,0,0,-1,1595,610,0,0
378,414,0,0,0,0,0,0,0,0,0,-1,1602,610,0,0
385,414,0,0,0,0,0,0,0,0,0,-1,1609,610,0,0
392,414,0,0,0,0,0,0,0,0,0,-1,1616,610,0,0
399,414,0,0,0,0,0,0,0,0,0,-1,1623,610,0,0
406,414,0,0,0,0,0,0,0,0,0,-1,1630,610,0,0
413,414,0,0,0,0,0,0,0,0,0,-1,1637,610,0,0
420,414,0,0,0,0,0,0,0,0,0,-1,1644,610,0,0
427,414,0,0,0,0,0,0,0,0,0,-1,1651,610,0,0
434,414,0,0,0,0,0,0,0,0,0,-1,1658,610,0,0
441,414,7.84375,0.584412,0,0,0,0,0,0,0,-1,1665,610,7.84379,-0.584394
448,414,7.40808,1.25446,0,0,0,0,0,0,0,-1,1672,610,7.40807,-1.25446
455,414,6.3512,1.73846,0,0,0,0,0,0,0,-1,1679,610,6.3512,-1.73847
462,414,8.18103,3.22113,0,0,0,0,0,0,0,-1,1686,610,8.18108,-3.22112
469,414,8.38513,2.49579,0,0,0,0,0,0,0,-1,1693,610,8.38516,-2.49576
476,414,8.64099,1.71161,0,0,0,0,0,0,0,-1,1700,610,8.64097,-1.71164
483,414,8.62744,0.687622,0,0,0,0,0,0,0,-1,1707,610,8.62749,-0.687615
490,414,8.38831,-0.0302734,0,0,0,0,0,0,0,-1,1714,610,8.38835,0.0302913
497,414,4.71094,-0.110046,0,0,0,0,0,0,0,-1,1721,610,4.71089,0.110024
504,414,5.46265,-0.876892,0,0,0,0,0,0,0,-1,1728,610,5.46269,0.876899
511,414,5.94153,-1.28772,0,0,0,0,0,0,0,-1,1735,610,5.94151,1.28769
518,414,4.53381,-0.0996704,0,0,0,0,0,0,0,-1,1742,610,4.53378,0.0996819
525,414,6.0271,-1.38739,0,0,0,0,0,0,0,-1,1749,610,6.02709,1.38738
532,414,5.7334,-1.73962,0,0,0,0,0,0,0,-1,1756,610,5.73346,1.73965
539,414,5.7428,-1.4776,-0.0043579,-0.00323978,-0.00323989,-0.000511067,-0.00708661,-0.870834,0.0045636,0.0259607,1763,610,5.74286,1.47761
546,414,5.77722,-1.27704,-0.00338218,-0.00235701,-0.00254415,-0.000274326,-0.00546487,-0.884805,0.00355533,0.0129256,1770,610,5.77721,1.27703
553,414,5.79248,-1.13666,-0.00258038,-0.00155277,-0.00197576,-2.50975e-05,-0.00410806,-0.912607,0.00273038,0.0115667,1777,610,5.7925,1.13667
560,414,5.79517,-0.98291,-0.00147521,-0.000815963,-0.00120963,0.000108148,-0.00239932,-0.918418,0.00163679,0.012476,1784,610,5.79517,0.982888
567,414,5.78516,-0.857239,-0.000385813,-0.000297715,-0.000449984,0.000110371,-0.000793899,-0.834188,0.000569632,0.0208226,1791,610,5.78512,0.857211
574,414,5.76819,-0.741272,0.000768706,0.000170086,0.000381522,0.000954314,-1.55228e-05,0.452785,0.000641446,0.0199736,1798,610,5.76818,0.741284
581,414,5.79504,-0.572327,0.0018875,0.000631464,0.00119658,0.00261086,-9.18881e-05,0.543735,0.00177199,0.0161318,1805,610,5.79508,0.57235
588,414,5.78003,-0.475037,0.00275166,0.0010765,0.00188995,0.00398131,-0.000153159,0.576817,0.00270671,0.0153993,1812,610,5.78001,0.475013
595,414,5.76526,-0.315613,0.00363908,0.00160289,0.00254067,0.00535805,-0.000116086,0.594835,0.00361135,0.0202329,1819,610,5.76528,0.315587
602,414,5.78076,-0.177002,0.0046598,0.00174265,0.00245457,0.00605646,0.000345995,0.517315,0.00392739,0.0218877,1826,610,5.78078,0.177013
609,414,5.73804,-0.039978,0.00536745,0.00199915,0.00237688,0.00659637,0.00077024,0.477176,0.00416464,0.0183145,1833,610,5.73799,0.0399834
616,414,5.80981,0.00317383,0.00585796,0.00232087,0.00193026,0.00670736,0.00147146,0.414546,0.00407072,0.0314505,1840,610,5.8098,-0.0031546
623,414,6.00061,0.184204,0,0,0,0,0,0,0,-1,1847,610,6.00057,-0.184221
630,414,5.32617,0.210144,0,0,0,0,0,0,0,-1,1854,610,5.32619,-0.210125
637,414,5.24585,1.6955,0,0,0,0,0,0,0,-1,1861,610,5.24582,-1.69548
644,414,4.86169,0.413269,0,0,0,0,0,0,0,-1,1868,610,4.86174,-0.413282
651,414,3.6377,0.820557,0,0,0,0,0,0,0,-1,1875,610,3.6377,-0.820543
658,414,2.29761,3.87323,0,0,0,0,0,0,0,-1,1882,610,2.29758,-3.87325
665,414,0,0,0,0,0,0,0,0,0,-1,1889,610,0,0
672,414,0,0,0,0,0,0,0,0,0,-1,1896,610,0,0
679,414,0,0,0,0,0,0,0,0,0,-1,1903,610,0,0
686,414,0,0,0,0,0,0,0,0,0,-1,1910,610,0,0
693,414,0,0,0,0,0,0,0,0,0,-1,1917,610,0,0
700,414,0,0,0,0,0,0,0,0,0,-1,1924,610,0,0
707,414,0,0,0,0,0,0,0,0,0,-1,1931,610,0,0
714,414,0,0,0,0,0,0,0,0,0,-1,1938,610,0,0
721,414,0,0,0,0,0,0,0,0,0,-1,1945,610,0,0
728,414,0,0,0,0,0,0,0,0,0,-1,1952,610,0,0
735,414,0,0,0,0,0,0,0,0,0,-1,1959,610,0,0
742,414,0,0,0,0,0,0,0,0,0,-1,1966,610,0,0
749,414,0,0,0,0,0,0,0,0,0,-1,1973,610,0,0
756,414,0,0,0,0,0,0,0,0,0,-1,1980,610,0,0
763,414,0,0,0,0,0,0,0,0,0,-1,1987,610,0,0
770,414,0,0,0,0,0,0,0,0,0,-1,1994,610,0,0
777,414,0,0,0,0,0,0,0,0,0,-1,2001,610,0,0
784,414,0,0,0,0,0,0,0,0,0,-1,2008,610,0,0
791,414,0,0,0,0,0,0,0,0,0,-1,2015,610,0,0
798,414,0,0,0,0,0,0,0,0,0,-1,2022,610,0,0
805,414,0,0,0,0,0,0,0,0,0,-1,2029,610,0,0
812,414,0,0,0,0,0,0,0,0,0,-1,2036,610,0,0
-700,407,0,0,0,0,0,0,0,0,0,-1,524,617,0,0
-693,407,0,0,0,0,0,0,0,0,0,-1,531,617,0,0
-686,407,0,0,0,0,0,0,0,0,0,-1,538,617,0,0
-679,407,0,0,0,0,0,0,0,0,0,-1,545,617,0,0
-672,407,0,0,0,0,0,0,0,0,0,-1,552,617,0,0
-665,407,0,0,0,0,0,0,0,0,0,-1,559,617,0,0
-658,407,0,0,0,0,0,0,0,0,0,-1,566,617,0,0
-651,407,0,0,0,0,0,0,0,0,0,-1,573,617,0,0
-644,407,0,0,0,0,0,0,0,0,0,-1,580,617,0,0
-637,407,0,0,0,0,0,0,0,0,0,-1,587,617,0,0
-630,407,0,0,0,0,0,0,0,0,0,-1,594,617,0,0
-623,407,0,0,0,0,0,0,0,0,0,-1,601,617,0,0
-616,407,0,0,0,0,0,0,0,0,0,-1,608,617,0,0
-609,407,0,0,0,0,0,0,0,0,0,-1,615,617,0,0
-602,407,0,0,0,0,0,0,0,0,0,-1,622,617,0,0
-595,407,0,0,0,0,0,0,0,0,0,-1,629,617,0,0
-588,407,0,0,0,0,0,0,0,0,0,-1,636,617,0,0
-581,407,0,0,0,0,0,0,0,0,0,-1,643,617,0,0
-574,407,0,0,0,0,0,0,0,0,0,-1,650,617,0,0
-567,407,0,0,0,0,0,0,0,0,0,-1,657,617,0,0
-560,407,0,0,0,0,0,0,0,0,0,-1,664,617,0,0
-553,407,0,0,0,0,0,0,0,0,0,-1,671,617,0,0
-546,407,0.18573,-3.24017,0,0,0,0,0,0,0,-1,678,617,0.1857,3.24016
-539,407,0.0230713,-3.30389,0,0,0,0,0,0,0,-1,685,617,0.0230777,3.30391
-532,407,-0.115723,-3.48059,0,0,0,0,0,0,0,-1,692,617,-0.115742,3.48061
-525,407,-1.23199,-3.33295,0,0,0,0,0,0,0,-1,699,617,-1.23201,3.33292
-518,407,-1.2038,-3.00195,0,0,0,0,0,0,0,-1,706,617,-1.20381,3.00193
-511,407,-0.567078,-0.964417,0,0,0,0,0,0,0,-1,713,617,-0.567097,0.964397
-504,407,-0.904358,-1.02271,0,0,0,0,0,0,0,-1,720,617,-0.904332,1.02273
-497,407,-0.908752,-0.959717,-0.0133524,-0.00896975,0.00112582,-0.00869747,-0.0136247,1.3335,0.00796599,0.0406676,727,617,-0.908762,0.959747
-490,407,-0.979858,-0.874939,-0.00969119,-0.0058961,0.00084491,-0.0057165,-0.0098708,1.36134,0.00572265,0.0197703,734,617,-0.979842,0.874936
-483,407,-0.977661,-0.985596,-0.00676394,-0.00350545,0.000523829,-0.00342331,-0.00684608,1.41526,0.00395259,0.00982404,741,617,-0.977665,0.985618
-476,407,-0.973328,-1.10425,-0.004549,-0.00196421,0.000291326,-0.00193178,-0.00458143,1.45994,0.00265589,0.0083047,748,617,-0.973333,1.10425
-469,407,-0.979797,-1.22852,-0.0029079,-0.0010994,0.0002571,-0.00106357,-0.00294374,1.43229,0.00172123,0.0112932,755,617,-0.979813,1.22852
-462,407,-0.970764,-1.36139,-0.00210688,-0.000781027,0.000480996,-0.000624912,-0.002263,1.25696,0.00134948,0.0182229,762,617,-0.970759,1.36138
-455,407,-0.966919,-1.50464,-0.00119402,-0.000625651,0.000615775,-0.000231647,-0.00158802,1.00159,0.000990537,0.0194033,769,617,-0.966903,1.50463
-448,407,-0.957458,-1.62805,-0.000642219,-0.00056998,0.00101639,0.000410934,-0.00162313,0.803159,0.00124194,0.0175996,776,617,-0.95747,1.62803
-441,407,-0.977295,-1.72778,-0.00114306,-0.00133321,0.00137252,0.000137677,-0.00261395,0.75082,0.00179029,0.0137848,783,617,-0.977281,1.72779
-434,407,-0.983093,-1.85535,-0.00220729,-0.00211673,0.00204205,-0.00011946,-0.00420456,0.796484,0.00276408,0.00940855,790,617,-0.983083,1.85534
-427,407,-0.977173,-1.99689,-0.00359223,-0.00257444,0.00272306,-0.000313131,-0.00585354,0.877775,0.00380228,0.00953184,797,617,-0.977144,1.99687
-420,407,-0.967346,-2.11499,-0.0052403,-0.0031356,0.00334455,-0.000681744,-0.00769415,0.937817,0.00491796,0.00923518,804,617,-0.967376,2.11498
-413,407,-0.953979,-2.24512,-0.00741075,-0.00341987,0.00382696,-0.00109937,-0.00973126,1.02572,0.00615387,0.00955501,811,617,-0.954002,2.24513
-406,407,-0.983093,-2.37018,-0.00994334,-0.00337424,0.00430404,-0.00124464,-0.0120729,1.11132,0.0076675,0.017654,818,617,-0.983117,2.37016
-399,407,-0.990845,-2.41364,-0.0132441,-0.00313471,0.0045731,-0.00137301,-0.0150058,1.20309,0.00957905,0.0321234,825,617,-0.990817,2.41364
-392,407,-1.12939,-2.60114,-0.0173737,-0.00267093,0.00473416,-0.00127845,-0.0187662,1.28473,0.0121072,0.0437571,832,617,-1.12938,2.60116
-385,407,-1.83911,-3.1803,-0.0219527,-0.00201967,0.00459913,-0.00100969,-0.0229627,1.35463,0.0149832,0.0461986,839,617,-1.83911,3.18028
-378,407,-2.33698,-3.65106,-0.0268942,-0.00118601,0.00425849,-0.000498968,-0.0275813,1.41084,0.0182235,0.047612,846,617,-2.33698,3.65106
-371,407,-2.43341,-4.21924,0,0,0,0,0,0,0,-1,853,617,-2.43343,4.21923
-364,407,-2.3468,-5.06305,0,0,0,0,0,0,0,-1,860,617,-2.34681,5.06303
-357,407,-0.531372,-4.06805,0,0,0,0,0,0,0,-1,867,617,-0.531376,4.06807
-350,407,-0.73822,-5.11737,0,0,0,0,0,0,0,-1,874,617,-0.738241,5.11735
-343,407,-0.408447,-6.80444,0,0,0,0,0,0,0,-1,881,617,-0.408437,6.80447
-336,407,-0.174316,-8.50122,0,0,0,0,0,0,0,-1,888,617,-0.17432,8.50119
-329,407,-0.549561,-0.736267,0,0,0,0,0,0,0,-1,895,617,-0.549544,0.736255
-322,407,0,0,0,0,0,0,0,0,0,-1,902,617,0,0
-315,407,0,0,0,0,0,0,0,0,0,-1,909,617,0,0
-308,407,0,0,0,0,0,0,0,0,0,-1,916,617,0,0
-301,407,0,0,0,0,0,0,0,0,0,-1,923,617,0,0
-294,407,0,0,0,0,0,0,0,0,0,-1,930,617,0,0
-287,407,0,0,0,0,0,0,0,0,0,-1,937,617,0,0
-280,407,0,0,0,0,0,0,0,0,0,-1,944,617,0,0
-273,407,0,0,0,0,0,0,0,0,0,-1,951,617,0,0
-266,407,0,0,0,0,0,0,0,0,0,-1,958,617,0,0
-259,407,0,0,0,0,0,0,0,0,0,-1,965,617,0,0
-252,407,0,0,0,0,0,0,0,0,0,-1,972,617,0,0
-245,407,0,0,0,0,0,0,0,0,0,-1,979,617,0,0
-238,407,0,0,0,0,0,0,0,0,0,-1,986,617,0,0
-231,407,0,0,0,0,0,0,0,0,0,-1,993,617,0,0
-224,407,0,0,0,0,0,0,0,0,0,-1,1000,617,0,0
-217,407,0,0,0,0,0,0,0,0,0,-1,1007,617,0,0
-210,407,0,0,0,0,0,0,0,0,0,-1,1014,617,0,0
-203,407,0,0,0,0,0,0,0,0,0,-1,1021,617,0,0
-196,407,0,0,0,0,0,0,0,0,0,-1,1028,617,0,0
-189,407,0,0,0,0,0,0,0,0,0,-1,1035,617,0,0
-182,407,0,0,0,0,0,0,0,0,0,-1,1042,617,0,0
-175,407,0,0,0,0,0,0,0,0,0,-1,1049,617,0,0
-168,407,0,0,0,0,0,0,0,0,0,-1,1056,617,0,0
-161,407,0,0,0,0,0,0,0,0,0,-1,1063,617,0,0
-154,407,0,0,0,0,0,0,0,0,0,-1,1070,617,0,0
-147,407,0,0,0,0,0,0,0,0,0,-1,1077,617,0,0
-140,407,0,0,0,0,0,0,0,0,0,-1,1084,617,0,0
-133,407,0,0,0,0,0,0,0,0,0,-1,1091,617,0,0
-126,407,0,0,0,0,0,0,0,0,0,-1,1098,617,0,0
-119,407,0,0,0,0,0,0,0,0,0,-1,1105,617,0,0
-112,407,0,0,0,0,0,0,0,0,0,-1,1112,617,0,0
-105,407,0,0,0,0,0,0,0,0,0,-1,1119,617,0,0
-98,407,0,0,0,0,0,0,0,0,0,-1,1126,617,0,0
-91,407,0,0,0,0,0,0,0,0,0,-1,1133,617,0,0
-84,407,0,0,0,0,0,0,0,0,0,-1,1140,617,0,0
-77,407,0,0,0,0,0,0,0,0,0,-1,1147,617,0,0
-70,407,0,0,0,0,0,0,0,0,0,-1,1154,617,0,0
-63,407,0,0,0,0,0,0,0,0,0,-1,1161,617,0,0
-56,407,0,0,0,0,0,0,0,0,0,-1,1168,617,0,0
-49,407,0,0,0,0,0,0,0,0,0,-1,1175,617,0,0
-42,407,0,0,0,0,0,0,0,0,0,-1,1182,617,0,0
-35,407,0,0,0,0,0,0,0,0,0,-1,1189,617,0,0
-28,407,0,0,0,0,0,0,0,0,0,-1,1196,617,0,0
-21,407,0,0,0,0,0,0,0,0,0,-1,1203,617,0,0
-14,407,0,0,0,0,0,0,0,0,0,-1,1210,617,0,0
-7,407,0,0,0,0,0,0,0,0,0,-1,1217,617,0,0
0,407,0,0,0,0,0,0,0,0,0,-1,1224,617,0,0
7,407,0,0,0,0,0,0,0,0,0,-1,1231,617,0,0
14,407,0,0,0,0,0,0,0,0,0,-1,1238,617,0,0
21,407,0,0,0,0,0,0,0,0,0,-1,1245,617,0,0
28,407,0,0,0,0,0,0,0,0,0,-1,1252,617,0,0
35,407,0,0,0,0,0,0,0,0,0,-1,1259,617,0,0
42,407,0,0,0,0,0,0,0,0,0,-1,1266,617,0,0
49,407,0,0,0,0,0,0,0,0,0,-1,1273,617,0,0
56,407,0,0,0,0,0,0,0,0,0,-1,1280,617,0,0
63,407,0,0,0,0,0,0,0,0,0,-1,1287,617,0,0
70,407,0,0,0,0,0,0,0,0,0,-1,1294,617,0,0
77,407,0,0,0,0,0,0,0,0,0,-1,1301,617,0,0
84,407,0,0,0,0,0,0,0,0,0,-1,1308,617,0,0
91,407,0,0,0,0,0,0,0,0,0,-1,1315,617,0,0
98,407,0,0,0,0,0,0,0,0,0,-1,1322,617,0,0
105,407,0,0,0,0,0,0,0,0,0,-1,1329,617,0,0
112,407,0,0,0,0,0,0,0,0,0,-1,1336,617,0,0
119,407,0,0,0,0,0,0,0,0,0,-1,1343,617,0,0
126,407,0,0,0,0,0,0,0,0,0,-1,1350,617,0,0
133,407,0,0,0,0,0,0,0,0,0,-1,1357,617,0,0
140,407,0,0,0,0,0,0,0,0,0,-1,1364,617,0,0
147,407,0,0,0,0,0,0,0,0,0,-1,1371,617,0,0
154,407,0,0,0,0,0,0,0,0,0,-1,1378,617,0,0
161,407,0,0,0,0,0,0,0,0,0,-1,1385,617,0,0
168,407,0,0,0,0,0,0,0,0,0,-1,1392,617,0,0
175,407,0,0,0,0,0,0,0,0,0,-1,1399,617,0,0
182,407,0,0,0,0,0,0,0,0,0,-1,1406,617,0,0
189,407,0,0,0,0,0,0,0,0,0,-1,1413,617,0,0
196,407,0,0,0,0,0,0,0,0,0,-1,1420,617,0,0
203,407,0,0,0,0,0,0,0,0,0,-1,1427,617,0,0
210,407,0,0,0,0,0,0,0,0,0,-1,1434,617,0,0
217,407,0,0,0,0,0,0,0,0,0,-1,1441,617,0,0
224,407,0,0,0,0,0,0,0,0,0,-1,1448,617,0,0
231,407,0,0,0,0,0,0,0,0,0,-1,1455,617,0,0
238,407,0,0,0,0,0,0,0,0,0,-1,1462,617,0,0
245,407,0,0,0,0,0,0,0,0,0,-1,1469,617,0,0
252,407,0,0,0,0,0,0,0,0,0,-1,1476,617,0,0
259,407,0,0,0,0,0,0,0,0,0,-1,1483,617,0,0
266,407,0,0,0,0,0,0,0,0,0,-1,1490,617,0,0
273,407,0,0,0,0,0,0,0,0,0,-1,1497,617,0,0
280,407,0,0,0,0,0,0,0,0,0,-1,1504,617,0,0
287,407,0,0,0,0,0,0,0,0,0,-1,1511,617,0,0
294,407,0,0,0,0,0,0,0,0,0,-1,1518,617,0,0
301,407,0,0,0,0,0,0,0,0,0,-1,1525,617,0,0
308,407,0,0,0,0,0,0,0,0,0,-1,1532,617,0,0
315,407,0,0,0,0,0,0,0,0,0,-1,1539,617,0,0
322,407,0,0,0,0,0,0,0,0,0,-1,1546,617,0,0
329,407,0,0,0,0,0,0,0,0,0,-1,1553,617,0,0
336,407,0,0,0,0,0,0,0,0,0,-1,1560,617,0,0
343,407,0,0,0,0,0,0,0,0,0,-1,1567,617,0,0
350,407,0,0,0,0,0,0,0,0,0,-1,1574,617,0,0
357,407,0,0,0,0,0,0,0,0,0,-1,1581,617,0,0
364,407,0,0,0,0,0,0,0,0,0,-1,1588,617,0,0
371,407,0,0,0,0,0,0,0,0,0,-1,1595,617,0,0
378,407,0,0,0,0,0,0,0,0,0,-1,1602,617,0,0
385,407,0,0,0,0,0,0,0,0,0,-1,1609,617,0,0
392,407,0,0,0,0,0,0,0,0,0,-1,1616,617,0,0
399,407,0,0,0,0,0,0,0,0,0,-1,1623,617,0,0
406,407,0,0,0,0,0,0,0,0,0,-1,1630,617,0,0
413,407,0,0,0,0,0,0,0,0,0,-1,1637,617,0,0
420,407,0,0,0,0,0,0,0,0,0,-1,1644,617,0,0
427,407,0,0,0,0,0,0,0,0,0,-1,1651,617,0,0
434,407,0,0,0,0,0,0,0,0,0,-1,1658,617,0,0
441,407,0,0,0,0,0,0,0,0,0,-1,1665,617,0,0
448,407,7.02893,2.13843,0,0,0,0,0,0,0,-1,1672,617,7.02899,-2.13844
455,407,7.55237,2.29242,0,0,0,0,0,0,0,-1,1679,617,7.55236,-2.29244
462,407,8.2926,2.46173,0,0,0,0,0,0,0,-1,1686,617,8.29261,-2.46174
469,407,8.71509,2.22681,0,0,0,0,0,0,0,-1,1693,617,8.71511,-2.22681
476,407,8.89917,1.47766,0,0,0,0,0,0,0,-1,1700,617,8.89914,-1.47768
483,407,9.02612,0.682983,0,0,0,0,0,0,0,-1,1707,617,9.02608,-0.683004
490,407,9.12659,0.000671387,0,0,0,0,0,0,0,-1,1714,617,9.12653,-0.000675931
497,407,7.76819,0.855835,0,0,0,0,0,0,0,-1,1721,617,7.7682,-0.855865
504,407,4.69336,0.160706,0,0,0,0,0,0,0,-1,1728,617,4.69337,-0.1607
511,407,4.07104,-0.00140381,0,0,0,0,0,0,0,-1,1735,617,4.07109,0.00141425
518,407,6.09534,1.9411,0,0,0,0,0,0,0,-1,1742,617,6.09532,-1.94113
525,407,5.72534,-1.35986,0,0,0,0,0,0,0,-1,1749,617,5.72529,1.35988
532,407,5.95459,-1.56427,0,0,0,0,0,0,0,-1,1756,617,5.95459,1.56425
539,407,5.92456,-1.40082,-0.0060453,-0.00415868,-0.00447333,-0.00053028,-0.0096737,-0.889313,0.00627984,0.0360176,1763,617,5.92457,1.40083
546,407,5.90271,-1.27008,-0.00482477,-0.00299394,-0.00354808,-0.000245084,-0.00757362,-0.911646,0.0049694,0.0123535,1770,617,5.90271,1.27009
553,407,5.90979,-1.13263,-0.00396397,-0.00209631,-0.00292563,4.09072e-05,-0.00610119,-0.939882,0.00408117,0.0132831,1777,617,5.90979,1.13264
560,407,5.93115,-0.965088,-0.00278186,-0.00127087,-0.00207,0.000177191,-0.00422992,-0.960373,0.00288083,0.0126615,1784,617,5.9312,0.965075
567,407,5.91833,-0.845093,-0.00167823,-0.000724936,-0.00127028,0.000155183,-0.00255834,-0.964883,0.00175957,0.0228093,1791,617,5.91838,0.845096
574,407,5.9115,-0.715149,-0.000545602,-0.000253948,-0.000453199,7.63081e-05,-0.000875858,-0.941053,0.000610932,0.0220317,1798,617,5.91153,0.71515
581,407,5.92944,-0.546692,0.000490338,0.000202194,0.000302976,0.000681752,1.07795e-05,0.56346,0.000450951,0.0160689,1805,617,5.92943,0.546706
588,407,5.91736,-0.448486,0.00121251,0.000620067,0.000882609,0.00184728,-1.47044e-05,0.623495,0.00123645,0.0108709,1812,617,5.91739,0.448457
595,407,5.92798,-0.304688,0.00192751,0.00111966,0.00138385,0.00296518,8.19917e-05,0.643401,0.00195003,0.0203158,1819,617,5.92796,0.304689
602,407,5.94238,-0.156982,0.00277062,0.00133058,0.00121775,0.0034653,0.000635907,0.51841,0.00213011,0.0165037,1826,617,5.94234,0.156958
609,407,5.93347,-0.0219116,0.00322292,0.0015392,0.000986468,0.00367792,0.0010842,0.432164,0.00218225,0.012575,1833,617,5.93352,0.0218912
616,407,5.94836,0.206177,0.00343541,0.00177711,0.00040314,0.00352823,0.0016843,0.226277,0.00203772,0.0177531,1840,617,5.94832,-0.206206
623,407,5.9978,0.394226,0.00335239,0.00199784,-0.000877525,0.00378361,0.00156662,-0.456743,0.0021952,0.0360758,1847,617,5.9978,-0.394257
630,407,6.09729,0.485474,0,0,0,0,0,0,0,-1,1854,617,6.09733,-0.485492
637,407,5.49866,1.0777,0,0,0,0,0,0,0,-1,1861,617,5.49862,-1.07768
644,407,5.25952,1.06982,0,0,0,0,0,0,0,-1,1868,617,5.25953,-1.06982
651,407,4.72327,0.954712,0,0,0,0,0,0,0,-1,1875,617,4.72331,-0.954697
658,407,3.76685,0.594177,0,0,0,0,0,0,0,-1,1882,617,3.76683,-0.594184
665,407,5.76123,0.375061,0,0,0,0,0,0,0,-1,1889,617,5.76118,-0.37509
672,407,0,0,0,0,0,0,0,0,0,-1,1896,617,0,0
679,407,0,0,0,0,0,0,0,0,0,-1,1903,617,0,0
686,407,0,0,0,0,0,0,0,0,0,-1,1910,617,0,0
693,407,0,0,0,0,0,0,0,0,0,-1,1917,617,0,0
700,407,0,0,0,0,0,0,0,0,0,-1,1924,617,0,0
707,407,0,0,0,0,0,0,0,0,0,-1,1931,617,0,0
714,407,0,0,0,0,0,0,0,0,0,-1,1938,617,0,0
721,407,0,0,0,0,0,0,0,0,0,-1,1945,617,0,0
728,407,0,0,0,0,0,0,0,0,0,-1,1952,617,0,0
735,407,0,0,0,0,0,0,0,0,0,-1,1959,617,0,0
742,407,0,0,0,0,0,0,0,0,0,-1,1966,617,0,0
749,407,0,0,0,0,0,0,0,0,0,-1,1973,617,0,0
756,407,0,0,0,0,0,0,0,0,0,-1,1980,617,0,0
763,407,0,0,0,0,0,0,0,0,0,-1,1987,617,0,0
770,407,0,0,0,0,0,0,0,0,0,-1,1994,617,0,0
777,407,0,0,0,0,0,0,0,0,0,-1,2001,617,0,0
784,407,0,0,0,0,0,0,0,0,0,-1,2008,617,0,0
791,407,0,0,0,0,0,0,0,0,0,-1,2015,617,0,0
798,407,0,0,0,0,0,0,0,0,0,-1,2022,617,0,0
805,407,0,0,0,0,0,0,0,0,0,-1,2029,617,0,0
812,407,0,0,0,0,0,0,0,0,0,-1,2036,617,0,0
-700,400,0,0,0,0,0,0,0,0,0,-1,524,624,0,0
-693,400,0,0,0,0,0,0,0,0,0,-1,531,624,0,0
-686,400,0,0,0,0,0,0,0,0,0,-1,538,624,0,0
-679,400,0,0,0,0,0,0,0,0,0,-1,545,624,0,0
-672,400,0,0,0,0,0,0,0,0,0,-1,552,624,0,0
-665,400,0,0,0,0,0,0,0,0,0,-1,559,624,0,0
-658,400,0,0,0,0,0,0,0,0,0,-1,566,624,0,0
-651,400,0,0,0,0,0,0,0,0,0,-1,573,624,0,0
-644,400,0,0,0,0,0,0,0,0,0,-1,580,624,0,0
-637,400,0,0,0,0,0,0,0,0,0,-1,587,624,0,0
-630,400,0,0,0,0,0,0,0,0,0,-1,594,624,0,0
-623,400,0,0,0,0,0,0,0,0,0,-1,601,624,0,0
-616,400,0,0,0,0,0,0,0,0,0,-1,608,624,0,0
-609,400,0,0,0,0,0,0,0,0,0,-1,615,624,0,0
-602,400,0,0,0,0,0,0,0,0,0,-1,622,624,0,0
-595,400,0,0,0,0,0,0,0,0,0,-1,629,624,0,0
-588,400,0,0,0,0,0,0,0,0,0,-1,636,624,0,0
-581,400,0,0,0,0,0,0,0,0,0,-1,643,624,0,0
-574,400,0,0,0,0,0,0,0,0,0,-1,650,624,0,0
-567,400,0,0,0,0,0,0,0,0,0,-1,657,624,0,0
-560,400,0,0,0,0,0,0,0,0,0,-1,664,624,0,0
-553,400,0,0,0,0,0,0,0,0,0,-1,671,624,0,0
-546,400,-0.205688,-3.05255,0,0,0,0,0,0,0,-1,678,624,-0.205708,3.05256
-539,400,-0.122803,-3.14203,0,0,0,0,0,0,0,-1,685,624,-0.122826,3.142
-532,400,-0.429504,-3.39215,0,0,0,0,0,0,0,-1,692,624,-0.429503,3.39218
-525,400,-0.704956,-3.88892,0,0,0,0,0,0,0,-1,699,624,-0.704972,3.88893
-518,400,-0.890076,-0.537964,0,0,0,0,0,0,0,-1,706,624,-0.890104,0.537961
-511,400,-0.797913,-0.653809,-0.017457,-0.0104548,-6.16557e-06,-0.0104547,-0.017457,-1.56992,0.0101443,0.04866,713,624,-0.797902,0.653803
-504,400,-1.10504,-1.08856,-0.0138594,-0.00873176,0.000691834,-0.00864006,-0.0139511,1.43901,0.00813076,0.0442966,720,624,-1.10503,1.08854
-497,400,-1.08264,-0.769897,-0.0104845,-0.00657454,0.000849093,-0.00639811,-0.010661,1.36593,0.00619613,0.0300495,727,624,-1.08265,0.769881
-490,400,-1.10126,-0.860901,-0.00760482,-0.00454605,0.000724471,-0.00438314,-0.00776773,1.3496,0.00449704,0.0146075,734,624,-1.10128,0.860875
-483,400,-1.10339,-0.986694,-0.00534021,-0.00294242,0.00056777,-0.00281477,-0.00546786,1.34965,0.00315733,0.0131321,741,624,-1.10338,0.986688
-476,400,-1.09119,-1.09082,-0.00365204,-0.00195194,0.000509786,-0.0018108,-0.00379319,1.30069,0.00219074,0.0115718,748,624,-1.09117,1.09083
-469,400,-1.10577,-1.22241,-0.00238594,-0.00149632,0.000625512,-0.00117359,-0.00270867,1.09447,0.00156849,0.0132485,755,624,-1.10574,1.22241
-462,400,-1.09021,-1.38055,-0.00179712,-0.00137171,0.000922949,-0.000637273,-0.00253156,0.89865,0.00152047,0.0190102,762,624,-1.0902,1.38055
-455,400,-1.08649,-1.49829,-0.0011991,-0.00144181,0.00122075,-9.36933e-05,-0.00254722,0.735857,0.00166779,0.0195679,769,624,-1.08651,1.49831
-448,400,-1.08679,-1.62677,-0.00093628,-0.00162837,0.00176071,0.000512072,-0.00307672,0.688366,0.00224142,0.0149337,776,624,-1.08678,1.62677
-441,400,-1.09235,-1.73328,-0.00153438,-0.00251359,0.00226727,0.000295551,-0.00434352,0.679059,0.00299906,0.0134528,783,624,-1.09233,1.73326
-434,400,-1.11243,-1.84344,-0.0027314,-0.0033324,0.00306712,4.99061e-05,-0.00611371,0.736567,0.00409254,0.0102104,790,624,-1.11244,1.84345
-427,400,-1.10089,-1.9762,-0.00429459,-0.0038753,0.00389621,-0.000183096,-0.00798679,0.812276,0.00526456,0.00898152,797,624,-1.10086,1.97618
-420,400,-1.08136,-2.11926,-0.00615917,-0.00452584,0.00466666,-0.000604927,-0.0100801,0.872021,0.00652776,0.00961094,804,624,-1.08135,2.11925
-413,400,-1.1004,-2.23785,-0.00865831,-0.00492576,0.00532652,-0.00114803,-0.012436,0.953902,0.00793575,0.0179591,811,624,-1.10038,2.23785
-406,400,-1.27905,-2.29138,-0.0117257,-0.00496311,0.00598391,-0.00147126,-0.0152176,1.04257,0.00969194,0.0287129,818,624,-1.27907,2.29141
-399,400,-1.25977,-2.48224,-0.0157528,-0.00466277,0.00642173,-0.00172334,-0.0186922,1.14153,0.0119286,0.0379886,825,624,-1.25979,2.48223
-392,400,-1.26477,-2.47388,-0.020818,-0.00391434,0.00667293,-0.00159763,-0.0231347,1.23664,0.0149191,0.0463374,832,624,-1.26475,2.47387
-385,400,-1.21429,-2.82721,0,0,0,0,0,0,0,-1,839,624,-1.21431,2.82721
-378,400,-2.75458,-3.76263,0,0,0,0,0,0,0,-1,846,624,-2.75457,3.76261
-371,400,-1.93103,-3.86322,0,0,0,0,0,0,0,-1,853,624,-1.93101,3.86323
-364,400,0.425415,-2.9646,0,0,0,0,0,0,0,-1,860,624,0.425427,2.96461
-357,400,-7.2486,-0.234192,0,0,0,0,0,0,0,-1,867,624,-7.24861,0.234195
-350,400,-0.496826,-4.11804,0,0,0,0,0,0,0,-1,874,624,-0.496807,4.11803
-343,400,-0.111755,-5.8924,0,0,0,0,0,0,0,-1,881,624,-0.111774,5.89237
-336,400,0,0,0,0,0,0,0,0,0,-1,888,624,0,0
-329,400,0,0,0,0,0,0,0,0,0,-1,895,624,0,0
-322,400,0,0,0,0,0,0,0,0,0,-1,902,624,0,0
-315,400,0,0,0,0,0,0,0,0,0,-1,909,624,0,0
-308,400,0,0,0,0,0,0,0,0,0,-1,916,624,0,0
-301,400,0,0,0,0,0,0,0,0,0,-1,923,624,0,0
-294,400,0,0,0,0,0,0,0,0,0,-1,930,624,0,0
-287,400,0,0,0,0,0,0,0,0,0,-1,937,624,0,0
-280,400,0,0,0,0,0,0,0,0,0,-1,944,624,0,0
-273,400,0,0,0,0,0,0,0,0,0,-1,951,624,0,0
-266,400,0,0,0,0,0,0,0,0,0,-1,958,624,0,0
-259,400,0,0,0,0,0,0,0,0,0,-1,965,624,0,0
-252,400,0,0,0,0,0,0,0,0,0,-1,972,624,0,0
-245,400,0,0,0,0,0,0,0,0,0,-1,979,624,0,0
-238,400,0,0,0,0,0,0,0,0,0,-1,986,624,0,0
-231,400,0,0,0,0,0,0,0,0,0,-1,993,624,0,0
-224,400,0,0,0,0,0,0,0,0,0,-1,1000,624,0,0
-217,400,0,0,0,0,0,0,0,0,0,-1,1007,624,0,0
-210,400,0,0,0,0,0,0,0,0,0,-1,1014,624,0,0
-203,400,0,0,0,0,0,0,0,0,0,-1,1021,624,0,0
-196,400,0,0,0,0,0,0,0,0,0,-1,1028,624,0,0
-189,400,0,0,0,0,0,0,0,0,0,-1,1035,624,0,0
-182,400,0,0,0,0,0,0,0,0,0,-1,1042,624,0,0
-175,400,0,0,0,0,0,0,0,0,0,-1,1049,624,0,0
-168,400,0,0,0,0,0,0,0,0,0,-1,1056,624,0,0
-161,400,0,0,0,0,0,0,0,0,0,-1,1063,624,0,0
-154,400,0,0,0,0,0,0,0,0,0,-1,1070,624,0,0
-147,400,0,0,0,0,0,0,0,0,0,-1,1077,624,0,0
-140,400,0,0,0,0,0,0,0,0,0,-1,1084,624,0,0
-133,400,0,0,0,0,0,0,0,0,0,-1,1091,624,0,0
-126,400,0,0,0,0,0,0,0,0,0,-1,1098,624,0,0
-119,400,0,0,0,0,0,0,0,0,0,-1,1105,624,0,0
-112,400,0,0,0,0,0,0,0,0,0,-1,1112,624,0,0
-105,400,0,0,0,0,0,0,0,0,0,-1,1119,624,0,0
-98,400,0,0,0,0,0,0,0,0,0,-1,1126,624,0,0
-91,400,0,0,0,0,0,0,0,0,0,-1,1133,624,0,0
-84,400,0,0,0,0,0,0,0,0,0,-1,1140,624,0,0
-77,400,0,0,0,0,0,0,0,0,0,-1,1147,624,0,0
-70,400,0,0,0,0,0,0,0,0,0,-1,1154,624,0,0
-63,400,0,0,0,0,0,0,0,0,0,-1,1161,624,0,0
-56,400,0,0,0,0,0,0,0,0,0,-1,1168,624,0,0
-49,400,0,0,0,0,0,0,0,0,0,-1,1175,624,0,0
-42,400,0,0,0,0,0,0,0,0,0,-1,1182,624,0,0
-35,400,0,0,0,0,0,0,0,0,0,-1,1189,624,0,0
-28,400,0,0,0,0,0,0,0,0,0,-1,1196,624,0,0
-21,400,0,0,0,0,0,0,0,0,0,-1,1203,624,0,0
-14,400,0,0,0,0,0,0,0,0,0,-1,1210,624,0,0
-7,400,0,0,0,0,0,0,0,0,0,-1,1217,624,0,0
0,400,0,0,0,0,0,0,0,0,0,-1,1224,624,0,0
7,400,0,0,0,0,0,0,0,0,0,-1,1231,624,0,0
14,400,0,0,0,0,0,0,0,0,0,-1,1238,624,0,0
21,400,0,0,0,0,0,0,0,0,0,-1,1245,624,0,0
28,400,0,0,0,0,0,0,0,0,0,-1,1252,624,0,0
35,400,0,0,0,0,0,0,0,0,0,-1,1259,624,0,0
42,400,0,0,0,0,0,0,0,0,0,-1,1266,624,0,0
49,400,0,0,0,0,0,0,0,0,0,-1,1273,624,0,0
56,400,0,0,0,0,0,0,0,0,0,-1,1280,624,0,0
63,400,0,0,0,0,0,0,0,0,0,-1,1287,624,0,0
70,400,0,0,0,0,0,0,0,0,0,-1,1294,624,0,0
77,400,0,0,0,0,0,0,0,0,0,-1,1301,624,0,0
84,400,0,0,0,0,0,0,0,0,0,-1,1308,624,0,0
91,400,0,0,0,0,0,0,0,0,0,-1,1315,624,0,0
98,400,0,0,0,0,0,0,0,0,0,-1,1322,624,0,0
105,400,0,0,0,0,0,0,0,0,0,-1,1329,624,0,0
112,400,0,0,0,0,0,0,0,0,0,-1,1336,624,0,0
119,400,0,0,0,0,0,0,0,0,0,-1,1343,624,0,0
126,400,0,0,0,0,0,0,0,0,0,-1,1350,624,0,0
133,400,0,0,0,0,0,0,0,0,0,-1,1357,624,0,0
140,400,0,0,0,0,0,0,0,0,0,-1,1364,624,0,0
147,400,0,0,0,0,0,0,0,0,0,-1,1371,624,0,0
154,400,0,0,0,0,0,0,0,0,0,-1,1378,624,0,0
161,400,0,0,0,0,0,0,0,0,0,-1,1385,624,0,0
168,400,0,0,0,0,0,0,0,0,0,-1,1392,624,0,0
175,400,0,0,0,0,0,0,0,0,0,-1,1399,624,0,0
182,400,0,0,0,0,0,0,0,0,0,-1,1406,624,0,0
189,400,0,0,0,0,0,0,0,0,0,-1,1413,624,0,0
196,400,0,0,0,0,0,0,0,0,0,-1,1420,624,0,0
203,400,0,0,0,0,0,0,0,0,0,-1,1427,624,0,0
210,400,0,0,0,0,0,0,0,0,0,-1,1434,624,0,0
217,400,0,0,0,0,0,0,0,0,0,-1,1441,624,0,0
224,400,0,0,0,0,0,0,0,0,0,-1,1448,624,0,0
231,400,0,0,0,0,0,0,0,0,0,-1,1455,624,0,0
238,400,0,0,0,0,0,0,0,0,0,-1,1462,624,0,0
245,400,0,0,0,0,0,0,0,0,0,-1,1469,624,0,0
252,400,0,0,0,0,0,0,0,0,0,-1,1476,624,0,0
259,400,0,0,0,0,0,0,0,0,0,-1,1483,624,0,0
266,400,0,0,0,0,0,0,0,0,0,-1,1490,624,0,0
273,400,0,0,0,0,0,0,0,0,0,-1,1497,624,0,0
280,400,0,0,0,0,0,0,0,0,0,-1,1504,624,0,0
287,400,0,0,0,0,0,0,0,0,0,-1,1511,624,0,0
294,400,0,0,0,0,0,0,0,0,0,-1,1518,624,0,0
301,400,0,0,0,0,0,0,0,0,0,-1,1525,624,0,0
308,400,0,0,0,0,0,0,0,0,0,-1,1532,624,0,0
315,400,0,0,0,0,0,0,0,0,0,-1,1539,624,0,0
322,400,0,0,0,0,0,0,0,0,0,-1,1546,624,0,0
329,400,0,0,0,0,0,0,0,0,0,-1,1553,624,0,0
336,400,0,0,0,0,0,0,0,0,0,-1,1560,624,0,0
343,400,0,0,0,0,0,0,0,0,0,-1,1567,624,0,0
350,400,0,0,0,0,0,0,0,0,0,-1,1574,624,0,0
357,400,0,0,0,0,0,0,0,0,0,-1,1581,624,0,0
364,400,0,0,0,0,0,0,0,0,0,-1,1588,624,0,0
371,400,0,0,0,0,0,0,0,0,0,-1,1595,624,0,0
378,400,0,0,0,0,0,0,0,0,0,-1,1602,624,0,0
385,400,0,0,0,0,0,0,0,0,0,-1,1609,624,0,0
392,400,0,0,0,0,0,0,0,0,0,-1,1616,624,0,0
399,400,0,0,0,0,0,0,0,0,0,-1,1623,624,0,0
406,400,0,0,0,0,0,0,0,0,0,-1,1630,624,0,0
413,400,0,0,0,0,0,0,0,0,0,-1,1637,624,0,0
420,400,0,0,0,0,0,0,0,0,0,-1,1644,624,0,0
427,400,0,0,0,0,0,0,0,0,0,-1,1651,624,0,0
434,400,0,0,0,0,0,0,0,0,0,-1,1658,624,0,0
441,400,0,0,0,0,0,0,0,0,0,-1,1665,624,0,0
448,400,0,0,0,0,0,0,0,0,0,-1,1672,624,0,0
455,400,8.91309,2.75885,0,0,0,0,0,0,0,-1,1679,624,8.91312,-2.75885
462,400,8.90356,2.37878,0,0,0,0,0,0,0,-1,1686,624,8.90353,-2.37878
469,400,9.14429,1.76849,0,0,0,0,0,0,0,-1,1693,624,9.14432,-1.76847
476,400,9.23254,1.25995,0,0,0,0,0,0,0,-1,1700,624,9.23252,-1.25994
483,400,9.59766,0.562439,0,0,0,0,0,0,0,-1,1707,624,9.59771,-0.56242
490,400,9.92578,-0.213745,0,0,0,0,0,0,0,-1,1714,624,9.92579,0.21376
497,400,9.19141,0.175232,0,0,0,0,0,0,0,-1,1721,624,9.19138,-0.175209
504,400,9.23438,0.00823975,0,0,0,0,0,0,0,-1,1728,624,9.23436,-0.00823766
511,400,6.16687,3.3501,0,0,0,0,0,0,0,-1,1735,624,6.16682,-3.35007
518,400,6.55237,1.74994,0,0,0,0,0,0,0,-1,1742,624,6.55236,-1.74993
525,400,6.99731,1.08783,0,0,0,0,0,0,0,-1,1749,624,6.99736,-1.08785
532,400,6.15015,-1.25867,0,0,0,0,0,0,0,-1,1756,624,6.15015,1.25866
539,400,6.15308,-1.26709,-0.0117235,-0.00678983,-0.0069314,-0.00189939,-0.016614,-0.956356,0.0105003,0.040132,1763,624,6.15302,1.2671
546,400,6.07532,-1.27728,-0.00980835,-0.00505723,-0.00559893,-0.00135074,-0.0135148,-0.986032,0.00859509,0.0142394,1770,624,6.07533,1.2773
553,400,6.0415,-1.1203,-0.0083237,-0.0038221,-0.00470991,-0.000852814,-0.011293,-1.0083,0.0072611,0.0112569,1777,624,6.04149,1.1203
560,400,6.05017,-0.958191,-0.00659371,-0.00269911,-0.00362183,-0.000534274,-0.00875854,-1.03206,0.00566933,0.0112659,1784,624,6.05018,0.95819
567,400,6.04822,-0.840637,-0.00500432,-0.00191848,-0.00264664,-0.000397854,-0.00652494,-1.0493,0.0042236,0.0153337,1791,624,6.04817,0.84066
574,400,6.03882,-0.697815,-0.00341145,-0.00124811,-0.00170137,-0.000313671,-0.00434588,-1.06855,0.00279856,0.0182389,1798,624,6.03882,0.6978
581,400,6.02393,-0.57135,-0.00196431,-0.000609819,-0.000843348,-0.000205447,-0.00236868,-1.1237,0.00151529,0.0159723,1805,624,6.02398,0.571344
588,400,6.05286,-0.436584,-0.00088522,-3.60116e-05,-0.000195941,7.0183e-06,-0.00092825,-1.35462,0.000621186,0.0120251,1812,624,6.05283,0.436594
595,400,6.05981,-0.291992,0.000110855,0.00059393,0.000338963,0.000768609,-6.38242e-05,1.09496,0.000534952,0.0114613,1819,624,6.0598,0.291988
602,400,6.06921,-0.161194,0.00117483,0.00101027,0.000289207,0.00139323,0.000791866,0.646812,0.000806885,0.0112577,1826,624,6.06924,0.161166
609,400,6.04407,-0.0263062,0.00178451,0.00130737,0.000114827,0.00181071,0.00128118,0.224293,0.00107502,0.0122154,1833,624,6.04405,0.0262815
616,400,6.03479,0.129211,0.00203755,0.00154298,-0.000408766,0.00226801,0.00131252,-0.513372,0.00131483,0.0159768,1840,624,6.03484,-0.129194
623,400,6.13403,0.343933,0.00195802,0.00176006,-0.00152727,0.00338951,0.000328569,-0.753039,0.0021585,0.0274303,1847,624,6.13401,-0.343936
630,400,5.90942,0.452393,0.0029746,0.00240192,-0.00303834,0.00574007,-0.000363545,-0.738416,0.00395347,0.0363555,1854,624,5.90943,-0.452406
637,400,5.62048,0.565186,0.00514561,0.00263709,-0.00396277,0.00804787,-0.000265172,-0.632131,0.00545579,0.0477119,1861,624,5.62044,-0.565214
644,400,5.37683,0.674744,0.00750101,0.00318953,-0.00471787,0.0105323,0.000158221,-0.571097,0.0069694,0.0483409,1868,624,5.37686,-0.674743
651,400,4.79932,0.708618,0.0117753,0.00379339,-0.00555368,0.0146233,0.000945407,-0.473843,0.0094495,0.045376,1875,624,4.79935,-0.708609
658,400,4.50818,0.956543,0,0,0,0,0,0,0,-1,1882,624,4.50823,-0.956526
665,400,5.98438,0.522522,0,0,0,0,0,0,0,-1,1889,624,5.98442,-0.522552
672,400,0,0,0,0,0,0,0,0,0,-1,1896,624,0,0
679,400,0,0,0,0,0,0,0,0,0,-1,1903,624,0,0
686,400,0,0,0,0,0,0,0,0,0,-1,1910,624,0,0
693,400,0,0,0,0,0,0,0,0,0,-1,1917,624,0,0
700,400,0,0,0,0,0,0,0,0,0,-1,1924,624,0,0
707,400,0,0,0,0,0,0,0,0,0,-1,1931,624,0,0
714,400,0,0,0,0,0,0,0,0,0,-1,1938,624,0,0
721,400,0,0,0,0,0,0,0,0,0,-1,1945,624,0,0
728,400,0,0,0,0,0,0,0,0,0,-1,1952,624,0,0
735,400,0,0,0,0,0,0,0,0,0,-1,1959,624,0,0
742,400,0,0,0,0,0,0,0,0,0,-1,1966,624,0,0
749,400,0,0,0,0,0,0,0,0,0,-1,1973,624,0,0
756,400,0,0,0,0,0,0,0,0,0,-1,1980,624,0,0
763,400,0,0,0,0,0,0,0,0,0,-1,1987,624,0,0
770,400,0,0,0,0,0,0,0,0,0,-1,1994,624,0,0
777,400,0,0,0,0,0,0,0,0,0,-1,2001,624,0,0
784,400,0,0,0,0,0,0,0,0,0,-1,2008,624,0,0
791,400,0,0,0,0,0,0,0,0,0,-1,2015,624,0,0
798,400,0,0,0,0,0,0,0,0,0,-1,2022,624,0,0
805,400,0,0,0,0,0,0,0,0,0,-1,2029,624,0,0
812,400,0,0,0,0,0,0,0,0,0,-1,2036,624,0,0
-700,393,0,0,0,0,0,0,0,0,0,-1,524,631,0,0
-693,393,0,0,0,0,0,0,0,0,0,-1,531,631,0,0
-686,393,0,0,0,0,0,0,0,0,0,-1,538,631,0,0
-679,393,0,0,0,0,0,0,0,0,0,-1,545,631,0,0
-672,393,0,0,0,0,0,0,0,0,0,-1,552,631,0,0
-665,393,0,0,0,0,0,0,0,0,0,-1,559,631,0,0
-658,393,0,0,0,0,0,0,0,0,0,-1,566,631,0,0
-651,393,0,0,0,0,0,0,0,0,0,-1,573,631,0,0
-644,393,0,0,0,0,0,0,0,0,0,-1,580,631,0,0
-637,393,0,0,0,0,0,0,0,0,0,-1,587,631,0,0
-630,393,0,0,0,0,0,0,0,0,0,-1,594,631,0,0
-623,393,0,0,0,0,0,0,0,0,0,-1,601,631,0,0
-616,393,0,0,0,0,0,0,0,0,0,-1,608,631,0,0
-609,393,0,0,0,0,0,0,0,0,0,-1,615,631,0,0
-602,393,0,0,0,0,0,0,0,0,0,-1,622,631,0,0
-595,393,0,0,0,0,0,0,0,0,0,-1,629,631,0,0
-588,393,0,0,0,0,0,0,0,0,0,-1,636,631,0,0
-581,393,0,0,0,0,0,0,0,0,0,-1,643,631,0,0
-574,393,0,0,0,0,0,0,0,0,0,-1,650,631,0,0
-567,393,0,0,0,0,0,0,0,0,0,-1,657,631,0,0
-560,393,0,0,0,0,0,0,0,0,0,-1,664,631,0,0
-553,393,0.31012,-3.14148,0,0,0,0,0,0,0,-1,671,631,0.310111,3.14149
-546,393,-0.0383911,-2.97595,0,0,0,0,0,0,0,-1,678,631,-0.0383941,2.97596
-539,393,-0.203308,-2.99841,0,0,0,0,0,0,0,-1,685,631,-0.20328,2.99842
-532,393,-0.287048,-2.91174,0,0,0,0,0,0,0,-1,692,631,-0.287059,2.91176
-525,393,-0.988647,-0.00561523,0,0,0,0,0,0,0,-1,699,631,-0.988623,0.00563248
-518,393,-0.99884,-0.302185,0,0,0,0,0,0,0,-1,706,631,-0.99886,0.302192
-511,393,-0.998596,-0.398132,-0.0135436,-0.00548507,-0.000340789,-0.00547068,-0.013558,-1.52861,0.00787617,0.0449412,713,631,-0.9986,0.398147
-504,393,-1.10919,-0.537476,-0.0105606,-0.00533267,0.000270323,-0.00531873,-0.0105745,1.51927,0.00610524,0.0383859,720,631,-1.1092,0.5375
-497,393,-1.25122,-0.657715,-0.00797737,-0.00440124,0.000486775,-0.00433616,-0.00804245,1.4379,0.00464805,0.0187011,727,631,-1.25125,0.657723
-490,393,-1.23193,-0.862122,-0.00580465,-0.00322998,0.00051552,-0.0031306,-0.00590403,1.38035,0.00341077,0.0125968,734,631,-1.23195,0.862125
-483,393,-1.21912,-0.96991,-0.00412628,-0.00226975,0.000555179,-0.0021164,-0.00427963,1.30129,0.0024709,0.0174724,741,631,-1.21913,0.969901
-476,393,-1.21436,-1.06366,-0.00289634,-0.00174209,0.000717848,-0.00139814,-0.00324029,1.12397,0.00187663,0.0142876,748,631,-1.21434,1.06365
-469,393,-1.22217,-1.20123,-0.00195316,-0.00163162,0.00104196,-0.000738095,-0.00284668,0.861943,0.00170584,0.0114146,755,631,-1.22218,1.20125
-462,393,-1.20581,-1.36487,-0.00156676,-0.00166993,0.00149492,-0.000122534,-0.00311416,0.768151,0.00203649,0.0144696,762,631,-1.20579,1.36486
-455,393,-1.22418,-1.50549,-0.00123724,-0.00193184,0.00200786,0.000453132,-0.00362221,0.699761,0.00257915,0.0145515,769,631,-1.22416,1.50549
-448,393,-1.24048,-1.63977,-0.00121732,-0.0023467,0.0027504,0.00102576,-0.00458978,0.684149,0.00345294,0.0142954,776,631,-1.24047,1.63977
-441,393,-1.22766,-1.75146,-0.00190114,-0.00338213,0.00349614,0.000932065,-0.00621533,0.681039,0.00448663,0.012298,783,631,-1.22766,1.75145
-434,393,-1.22729,-1.83472,-0.00320107,-0.00428899,0.00451086,0.000798501,-0.00828857,0.725393,0.0058102,0.0101636,790,631,-1.22732,1.83471
-427,393,-1.19769,-1.98547,-0.00490862,-0.00497647,0.00556764,0.000625202,-0.0105103,0.782352,0.00722428,0.0118953,797,631,-1.1977,1.9855
-420,393,-1.2074,-2.12164,-0.00695848,-0.00578986,0.00657473,0.00022647,-0.0129748,0.829718,0.00872635,0.0199589,804,631,-1.20738,2.12163
-413,393,-1.35968,-2.09149,-0.00975385,-0.00639845,0.00749763,-0.000393103,-0.0157592,0.895467,0.0103776,0.0323172,811,631,-1.35969,2.09149
-406,393,-1.6972,-2.18188,-0.0133033,-0.00663504,0.00838291,-0.000947558,-0.0189908,0.974672,0.0123568,0.0398152,818,631,-1.69721,2.18186
-399,393,-1.7251,-2.49493,-0.0180064,-0.00637799,0.00900476,-0.00147349,-0.0229109,1.07206,0.0148072,0.0446913,825,631,-1.72512,2.49493
-392,393,-1.54205,-3.04492,0,0,0,0,0,0,0,-1,832,631,-1.54205,3.0449
-385,393,-4.03711,0.102417,0,0,0,0,0,0,0,-1,839,631,-4.03713,-0.102397
-378,393,-3.71924,0.358521,0,0,0,0,0,0,0,-1,846,631,-3.71924,-0.358515
-371,393,-3.41455,0.50946,0,0,0,0,0,0,0,-1,853,631,-3.41455,-0.509474
-364,393,-3.12079,0.648376,0,0,0,0,0,0,0,-1,860,631,-3.12082,-0.648347
-357,393,-1.84821,-4.28015,0,0,0,0,0,0,0,-1,867,631,-1.84823,4.28018
-350,393,-7.6015,0.331421,0,0,0,0,0,0,0,-1,874,631,-7.60151,-0.331426
-343,393,0,0,0,0,0,0,0,0,0,-1,881,631,0,0
-336,393,0,0,0,0,0,0,0,0,0,-1,888,631,0,0
-329,393,0,0,0,0,0,0,0,0,0,-1,895,631,0,0
-322,393,0,0,0,0,0,0,0,0,0,-1,902,631,0,0
-315,393,0,0,0,0,0,0,0,0,0,-1,909,631,0,0
-308,393,0,0,0,0,0,0,0,0,0,-1,916,631,0,0
-301,393,0,0,0,0,0,0,0,0,0,-1,923,631,0,0
-294,393,0,0,0,0,0,0,0,0,0,-1,930,631,0,0
-287,393,0,0,0,0,0,0,0,0,0,-1,937,631,0,0
-280,393,0,0,0,0,0,0,0,0,0,-1,944,631,0,0
-273,393,0,0,0,0,0,0,0,0,0,-1,951,631,0,0
-266,393,0,0,0,0,0,0,0,0,0,-1,958,631,0,0
-259,393,0,0,0,0,0,0,0,0,0,-1,965,631,0,0
-252,393,0,0,0,0,0,0,0,0,0,-1,972,631,0,0
-245,393,0,0,0,0,0,0,0,0,0,-1,979,631,0,0
-238,393,0,0,0,0,0,0,0,0,0,-1,986,631,0,0
-231,393,0,0,0,0,0,0,0,0,0,-1,993,631,0,0
-224,393,0,0,0,0,0,0,0,0,0,-1,1000,631,0,0
-217,393,0,0,0,0,0,0,0,0,0,-1,1007,631,0,0
-210,393,0,0,0,0,0,0,0,0,0,-1,1014,631,0,0
-203,393,0,0,0,0,0,0,0,0,0,-1,1021,631,0,0
-196,393,0,0,0,0,0,0,0,0,0,-1,1028,631,0,0
-189,393,0,0,0,0,0,0,0,0,0,-1,1035,631,0,0
-182,393,0,0,0,0,0,0,0,0,0,-1,1042,631,0,0
-175,393,0,0,0,0,0,0,0,0,0,-1,1049,631,0,0
-168,393,0,0,0,0,0,0,0,0,0,-1,1056,631,0,0
-161,393,0,0,0,0,0,0,0,0,0,-1,1063,631,0,0
-154,393,0,0,0,0,0,0,0,0,0,-1,1070,631,0,0
-147,393,0,0,0,0,0,0,0,0,0,-1,1077,631,0,0
-140,393,0,0,0,0,0,0,0,0,0,-1,1084,631,0,0
-133,393,0,0,0,0,0,0,0,0,0,-1,1091,631,0,0
-126,393,0,0,0,0,0,0,0,0,0,-1,1098,631,0,0
-119,393,0,0,0,0,0,0,0,0,0,-1,1105,631,0,0
-112,393,0,0,0,0,0,0,0,0,0,-1,1112,631,0,0
-105,393,0,0,0,0,0,0,0,0,0,-1,1119,631,0,0
-98,393,0,0,0,0,0,0,0,0,0,-1,1126,631,0,0
-91,393,0,0,0,0,0,0,0,0,0,-1,1133,631,0,0
-84,393,0,0,0,0,0,0,0,0,0,-1,1140,631,0,0
-77,393,0,0,0,0,0,0,0,0,0,-1,1147,631,0,0
-70,393,0,0,0,0,0,0,0,0,0,-1,1154,631,0,0
-63,393,0,0,0,0,0,0,0,0,0,-1,1161,631,0,0
-56,393,0,0,0,0,0,0,0,0,0,-1,1168,631,0,0
-49,393,0,0,0,0,0,0,0,0,0,-1,1175,631,0,0
-42,393,0,0,0,0,0,0,0,0,0,-1,1182,631,0,0
-35,393,0,0,0,0,0,0,0,0,0,-1,1189,631,0,0
-28,393,0,0,0,0,0,0,0,0,0,-1,1196,631,0,0
-21,393,0,0,0,0,0,0,0,0,0,-1,1203,631,0,0
-14,393,0,0,0,0,0,0,0,0,0,-1,1210,631,0,0
-7,393,0,0,0,0,0,0,0,0,0,-1,1217,631,0,0
0,393,0,0,0,0,0,0,0,0,0,-1,1224,631,0,0
7,393,0,0,0,0,0,0,0,0,0,-1,1231,631,0,0
14,393,0,0,0,0,0,0,0,0,0,-1,1238,631,0,0
21,393,0,0,0,0,0,0,0,0,0,-1,1245,631,0,0
28,393,0,0,0,0,0,0,0,0,0,-1,1252,631,0,0
35,393,0,0,0,0,0,0,0,0,0,-1,1259,631,0,0
42,393,0,0,0,0,0,0,0,0,0,-1,1266,631,0,0
49,393,0,0,0,0,0,0,0,0,0,-1,1273,631,0,0
56,393,0,0,0,0,0,0,0,0,0,-1,1280,631,0,0
63,393,0,0,0,0,0,0,0,0,0,-1,1287,631,0,0
70,393,0,0,0,0,0,0,0,0,0,-1,1294,631,0,0
77,393,0,0,0,0,0,0,0,0,0,-1,1301,631,0,0
84,393,0,0,0,0,0,0,0,0,0,-1,1308,631,0,0
91,393,0,0,0,0,0,0,0,0,0,-1,1315,631,0,0
98,393,0,0,0,0,0,0,0,0,0,-1,1322,631,0,0
105,393,0,0,0,0,0,0,0,0,0,-1,1329,631,0,0
112,393,0,0,0,0,0,0,0,0,0,-1,1336,631,0,0
119,393,0,0,0,0,0,0,0,0,0,-1,1343,631,0,0
126,393,0,0,0,0,0,0,0,0,0,-1,1350,631,0,0
133,393,0,0,0,0,0,0,0,0,0,-1,1357,631,0,0
140,393,0,0,0,0,0,0,0,0,0,-1,1364,631,0,0
147,393,0,0,0,0,0,0,0,0,0,-1,1371,631,0,0
154,393,0,0,0,0,0,0,0,0,0,-1,1378,631,0,0
161,393,0,0,0,0,0,0,0,0,0,-1,1385,631,0,0
168,393,0,0,0,0,0,0,0,0,0,-1,1392,631,0,0
175,393,0,0,0,0,0,0,0,0,0,-1,1399,631,0,0
182,393,0,0,0,0,0,0,0,0,0,-1,1406,631,0,0
189,393,0,0,0,0,0,0,0,0,0,-1,1413,631,0,0
196,393,0,0,0,0,0,0,0,0,0,-1,1420,631,0,0
203,393,0,0,0,0,0,0,0,0,0,-1,1427,631,0,0
210,393,0,0,0,0,0,0,0,0,0,-1,1434,631,0,0
217,393,0,0,0,0,0,0,0,0,0,-1,1441,631,0,0
224,393,0,0,0,0,0,0,0,0,0,-1,1448,631,0,0
231,393,0,0,0,0,0,0,0,0,0,-1,1455,631,0,0
238,393,0,0,0,0,0,0,0,0,0,-1,1462,631,0,0
245,393,0,0,0,0,0,0,0,0,0,-1,1469,631,0,0
252,393,0,0,0,0,0,0,0,0,0,-1,1476,631,0,0
259,393,0,0,0,0,0,0,0,0,0,-1,1483,631,0,0
266,393,0,0,0,0,0,0,0,0,0,-1,1490,631,0,0
273,393,0,0,0,0,0,0,0,0,0,-1,1497,631,0,0
280,393,0,0,0,0,0,0,0,0,0,-1,1504,631,0,0
287,393,0,0,0,0,0,0,0,0,0,-1,1511,631,0,0
294,393,0,0,0,0,0,0,0,0,0,-1,1518,631,0,0
301,393,0,0,0,0,0,0,0,0,0,-1,1525,631,0,0
308,393,0,0,0,0,0,0,0,0,0,-1,1532,631,0,0
315,393,0,0,0,0,0,0,0,0,0,-1,1539,631,0,0
322,393,0,0,0,0,0,0,0,0,0,-1,1546,631,0,0
329,393,0,0,0,0,0,0,0,0,0,-1,1553,631,0,0
336,393,0,0,0,0,0,0,0,0,0,-1,1560,631,0,0
343,393,0,0,0,0,0,0,0,0,0,-1,1567,631,0,0
350,393,0,0,0,0,0,0,0,0,0,-1,1574,631,0,0
357,393,0,0,0,0,0,0,0,0,0,-1,1581,631,0,0
364,393,0,0,0,0,0,0,0,0,0,-1,1588,631,0,0
371,393,0,0,0,0,0,0,0,0,0,-1,1595,631,0,0
378,393,0,0,0,0,0,0,0,0,0,-1,1602,631,0,0
385,393,0,0,0,0,0,0,0,0,0,-1,1609,631,0,0
392,393,0,0,0,0,0,0,0,0,0,-1,1616,631,0,0
399,393,0,0,0,0,0,0,0,0,0,-1,1623,631,0,0
406,393,0,0,0,0,0,0,0,0,0,-1,1630,631,0,0
413,393,0,0,0,0,0,0,0,0,0,-1,1637,631,0,0
420,393,0,0,0,0,0,0,0,0,0,-1,1644,631,0,0
427,393,0,0,0,0,0,0,0,0,0,-1,1651,631,0,0
434,393,0,0,0,0,0,0,0,0,0,-1,1658,631,0,0
441,393,0,0,0,0,0,0,0,0,0,-1,1665,631,0,0
448,393,0,0,0,0,0,0,0,0,0,-1,1672,631,0,0
455,393,0,0,0,0,0,0,0,0,0,-1,1679,631,0,0
462,393,8.51099,1.89502,0,0,0,0,0,0,0,-1,1686,631,8.51103,-1.89504
469,393,9.39465,1.51703,0,0,0,0,0,0,0,-1,1693,631,9.39465,-1.51703
476,393,9.95569,1.185,0,0,0,0,0,0,0,-1,1700,631,9.95575,-1.18497
483,393,10.5267,0.887329,0,0,0,0,0,0,0,-1,1707,631,10.5267,-0.887321
490,393,10.9303,0.761414,0,0,0,0,0,0,0,-1,1714,631,10.9303,-0.761386
497,393,8.32153,1.88104,0,0,0,0,0,0,0,-1,1721,631,8.32148,-1.88103
504,393,9.46985,1.78711,0,0,0,0,0,0,0,-1,1728,631,9.46986,-1.78713
511,393,9.66565,-0.375977,0,0,0,0,0,0,0,-1,1735,631,9.66571,0.375949
518,393,7.01599,1.62482,0,0,0,0,0,0,0,-1,1742,631,7.01597,-1.62483
525,393,7.88245,-1.13422,0,0,0,0,0,0,0,-1,1749,631,7.88246,1.13423
532,393,7.06335,-1.18103,0,0,0,0,0,0,0,-1,1756,631,7.06332,1.18101
539,393,6.42236,-1.27252,0,0,0,0,0,0,0,-1,1763,631,6.42236,1.27253
546,393,6.32959,-1.20172,-0.0163396,-0.00804112,-0.00849187,-0.00273901,-0.0216417,-1.01265,0.013607,0.0274871,1770,631,6.32961,1.20171
553,393,6.21619,-1.15552,-0.0137164,-0.00624853,-0.00709595,-0.00196405,-0.0180009,-1.02759,0.0114024,0.013722,1777,631,6.21624,1.15555
560,393,6.1958,-0.998047,-0.0112476,-0.00470718,-0.00570986,-0.00139736,-0.0145574,-1.04546,0.0092743,0.0116333,1784,631,6.19574,0.998072
567,393,6.18628,-0.84314,-0.00902701,-0.00359382,-0.00449742,-0.00105621,-0.0115646,-1.05709,0.00738291,0.0133049,1791,631,6.18625,0.843162
574,393,6.15259,-0.721802,-0.00688719,-0.00266178,-0.00337289,-0.000794543,-0.00875442,-1.06519,0.00559029,0.0150991,1798,631,6.15256,0.721802
581,393,6.16577,-0.583801,-0.00497395,-0.00179998,-0.0023627,-0.000540759,-0.00623317,-1.08113,0.00398744,0.0140893,1805,631,6.1658,0.583817
588,393,6.19299,-0.428223,-0.0034988,-0.00103901,-0.00159075,-0.000258149,-0.00427965,-1.11448,0.00277106,0.0144421,1812,631,6.193,0.42824
595,393,6.19409,-0.281799,-0.00220515,-0.000264182,-0.000965556,0.000134326,-0.00260366,-1.17937,0.00178224,0.0121446,1819,631,6.19405,0.281808
602,393,6.20435,-0.162537,-0.000924571,0.000350864,-0.000845276,0.000772002,-0.00134571,-1.10857,0.00123753,0.0137611,1826,631,6.20432,0.162539
609,393,6.19958,-0.0386353,-0.000138799,0.000749976,-0.000897921,0.00130746,-0.000696281,-1.01518,0.00117466,0.0142362,1833,631,6.19962,0.0386625
616,393,6.18945,0.098938,0.000278652,0.00103013,-0.00128628,0.00199443,-0.000685645,-0.927501,0.00160767,0.0143809,1840,631,6.18943,-0.0989091
623,393,6.19739,0.274719,0.000357582,0.00128283,-0.00216022,0.00302941,-0.001389,-0.890882,0.00260892,0.017387,1847,631,6.19738,-0.274712
630,393,6.22119,0.435181,0.00150987,0.00202308,-0.00330289,0.00507932,-0.00154637,-0.824166,0.00400251,0.0264132,1854,631,6.22118,-0.435207
637,393,5.81799,0.465881,0.00382393,0.00240976,-0.00374485,0.00692787,-0.000694178,-0.692089,0.0048665,0.0391823,1861,631,5.81794,-0.465891
644,393,5.47107,0.545288,0.00626166,0.00318507,-0.00393201,0.00894558,0.000501157,-0.598939,0.00580388,0.0427946,1868,631,5.4711,-0.545293
651,393,6.32458,1.50946,0.0108615,0.00398548,-0.00396169,0.012669,0.00217802,-0.428025,0.00782172,0.041196,1875,631,6.32461,-1.50945
658,393,7.27515,1.78894,0,0,0,0,0,0,0,-1,1882,631,7.27516,-1.78897
665,393,6.35095,0.487854,0,0,0,0,0,0,0,-1,1889,631,6.35099,-0.487859
672,393,4.95496,2.96899,0,0,0,0,0,0,0,-1,1896,631,4.9549,-2.96901
679,393,0,0,0,0,0,0,0,0,0,-1,1903,631,0,0
686,393,0,0,0,0,0,0,0,0,0,-1,1910,631,0,0
693,393,0,0,0,0,0,0,0,0,0,-1,1917,631,0,0
700,393,0,0,0,0,0,0,0,0,0,-1,1924,631,0,0
707,393,0,0,0,0,0,0,0,0,0,-1,1931,631,0,0
714,393,0,0,0,0,0,0,0,0,0,-1,1938,631,0,0
721,393,0,0,0,0,0,0,0,0,0,-1,1945,631,0,0
728,393,0,0,0,0,0,0,0,0,0,-1,1952,631,0,0
735,393,0,0,0,0,0,0,0,0,0,-1,1959,631,0,0
742,393,0,0,0,0,0,0,0,0,0,-1,1966,631,0,0
749,393,0,0,0,0,0,0,0,0,0,-1,1973,631,0,0
756,393,0,0,0,0,0,0,0,0,0,-1,1980,631,0,0
763,393,0,0,0,0,0,0,0,0,0,-1,1987,631,0,0
770,393,0,0,0,0,0,0,0,0,0,-1,1994,631,0,0
777,393,0,0,0,0,0,0,0,0,0,-1,2001,631,0,0
784,393,0,0,0,0,0,0,0,0,0,-1,2008,631,0,0
791,393,0,0,0,0,0,0,0,0,0,-1,2015,631,0,0
798,393,0,0,0,0,0,0,0,0,0,-1,2022,631,0,0
805,393,0,0,0,0,0,0,0,0,0,-1,2029,631,0,0
812,393,0,0,0,0,0,0,0,0,0,-1,2036,631,0,0
-700,386,0,0,0,0,0,0,0,0,0,-1,524,638,0,0
-693,386,0,0,0,0,0,0,0,0,0,-1,531,638,0,0
-686,386,0,0,0,0,0,0,0,0,0,-1,538,638,0,0
-679,386,0,0,0,0,0,0,0,0,0,-1,545,638,0,0
-672,386,0,0,0,0,0,0,0,0,0,-1,552,638,0,0
-665,386,0,0,0,0,0,0,0,0,0,-1,559,638,0,0
-658,386,0,0,0,0,0,0,0,0,0,-1,566,638,0,0
-651,386,0,0,0,0,0,0,0,0,0,-1,573,638,0,0
-644,386,0,0,0,0,0,0,0,0,0,-1,580,638,0,0
-637,386,0,0,0,0,0,0,0,0,0,-1,587,638,0,0
-630,386,0,0,0,0,0,0,0,0,0,-1,594,638,0,0
-623,386,0,0,0,0,0,0,0,0,0,-1,601,638,0,0
-616,386,0,0,0,0,0,0,0,0,0,-1,608,638,0,0
-609,386,0,0,0,0,0,0,0,0,0,-1,615,638,0,0
-602,386,0,0,0,0,0,0,0,0,0,-1,622,638,0,0
-595,386,0,0,0,0,0,0,0,0,0,-1,629,638,0,0
-588,386,0,0,0,0,0,0,0,0,0,-1,636,638,0,0
-581,386,0,0,0,0,0,0,0,0,0,-1,643,638,0,0
-574,386,0,0,0,0,0,0,0,0,0,-1,650,638,0,0
-567,386,0,0,0,0,0,0,0,0,0,-1,657,638,0,0
-560,386,4.94916,-9.56909,0,0,0,0,0,0,0,-1,664,638,4.94917,9.56906
-553,386,0.879028,-3.08081,0,0,0,0,0,0,0,-1,671,638,0.879025,3.0808
-546,386,-0.0992432,-2.86609,0,0,0,0,0,0,0,-1,678,638,-0.0992327,2.86609
-539,386,-0.846619,2.46515,0,0,0,0,0,0,0,-1,685,638,-0.846646,-2.46516
-532,386,-0.197388,-2.67706,0,0,0,0,0,0,0,-1,692,638,-0.197391,2.67705
-525,386,-0.0690918,0.501465,0,0,0,0,0,0,0,-1,699,638,-0.0690952,-0.501478
-518,386,-1.33606,-0.0861206,0,0,0,0,0,0,0,-1,706,638,-1.33606,0.0860939
-511,386,-1.30884,-0.325806,-0.0117151,-0.00242458,0.000275356,-0.00241643,-0.0117232,1.54119,0.00714748,0.0397368,713,638,-1.30881,0.325832
-504,386,-1.33197,-0.548401,-0.00883263,-0.00300984,0.000516342,-0.00296441,-0.00887806,1.48303,0.00521917,0.021342,720,638,-1.33196,0.548384
-497,386,-1.37457,-0.722168,-0.00657565,-0.00282116,0.000556205,-0.00274049,-0.00665631,1.42677,0.00386294,0.010814,727,638,-1.3746,0.722178
-490,386,-1.35651,-0.864807,-0.00479862,-0.00222929,0.000600887,-0.00209571,-0.0049322,1.35204,0.0028583,0.0120069,734,638,-1.35648,0.864816
-483,386,-1.33258,-0.992676,-0.00345866,-0.0017227,0.000729316,-0.00145698,-0.00372439,1.22139,0.00216718,0.0159844,741,638,-1.33259,0.992676
-476,386,-1.33246,-1.09491,-0.00250606,-0.00150219,0.00103664,-0.000852359,-0.00315589,1.01086,0.00188517,0.014797,748,638,-1.33245,1.09492
-469,386,-1.34247,-1.20233,-0.00176456,-0.00161155,0.00151803,-0.000168092,-0.00320801,0.810576,0.00208491,0.0110653,755,638,-1.34248,1.20234
-462,386,-1.33685,-1.35663,-0.00147259,-0.00169603,0.00209086,0.000509531,-0.00367816,0.758707,0.0026384,0.0102434,762,638,-1.33683,1.35661
-455,386,-1.36249,-1.50507,-0.00133699,-0.00202271,0.00280399,0.00114502,-0.00450472,0.724562,0.00344877,0.0118335,769,638,-1.3625,1.50509
-448,386,-1.3678,-1.63489,-0.00146046,-0.00250998,0.0037445,0.00179587,-0.00576631,0.715781,0.00456222,0.012571,776,638,-1.3678,1.63487
-441,386,-1.3504,-1.73914,-0.00214362,-0.00353193,0.00474178,0.00195455,-0.0076301,0.712719,0.00584815,0.0124165,783,638,-1.35043,1.73916
-434,386,-1.3244,-1.84491,-0.00341911,-0.00435691,0.00599157,0.00212188,-0.0098979,0.746348,0.00740789,0.0160766,790,638,-1.32441,1.84491
-427,386,-1.30133,-1.9953,-0.00511763,-0.00498055,0.00729728,0.00224851,-0.0123467,0.790094,0.00907397,0.0291877,797,638,-1.30131,1.99528
-420,386,-1.43738,-1.96686,-0.00717868,-0.00570784,0.00857785,0.00216605,-0.0150526,0.828161,0.0108295,0.0344096,804,638,-1.4374,1.96688
-413,386,-1.53009,-2.01508,-0.0100479,-0.00622333,0.00979696,0.00184624,-0.0181175,0.881782,0.0127384,0.0447042,811,638,-1.53006,2.01509
-406,386,-1.95947,-2.01776,0,0,0,0,0,0,0,-1,818,638,-1.95945,2.01776
-399,386,-2.05304,-2.65729,0,0,0,0,0,0,0,-1,825,638,-2.05304,2.65728
-392,386,-2.1842,-1.21539,0,0,0,0,0,0,0,-1,832,638,-2.18422,1.21538
-385,386,1.44916,-3.29254,0,0,0,0,0,0,0,-1,839,638,1.44917,3.29251
-378,386,-4.03418,0.286316,0,0,0,0,0,0,0,-1,846,638,-4.03417,-0.286326
-371,386,-3.34064,0.550476,0,0,0,0,0,0,0,-1,853,638,-3.34063,-0.550493
-364,386,-3.06403,0.651733,0,0,0,0,0,0,0,-1,860,638,-3.064,-0.651763
-357,386,-2.5058,-4.91699,0,0,0,0,0,0,0,-1,867,638,-2.50581,4.91698
-350,386,0,0,0,0,0,0,0,0,0,-1,874,638,0,0
-343,386,0,0,0,0,0,0,0,0,0,-1,881,638,0,0
-336,386,0,0,0,0,0,0,0,0,0,-1,888,638,0,0
-329,386,0,0,0,0,0,0,0,0,0,-1,895,638,0,0
-322,386,0,0,0,0,0,0,0,0,0,-1,902,638,0,0
-315,386,0,0,0,0,0,0,0,0,0,-1,909,638,0,0
-308,386,0,0,0,0,0,0,0,0,0,-1,916,638,0,0
-301,386,0,0,0,0,0,0,0,0,0,-1,923,638,0,0
-294,386,0,0,0,0,0,0,0,0,0,-1,930,638,0,0
-287,386,0,0,0,0,0,0,0,0,0,-1,937,638,0,0
-280,386,0,0,0,0,0,0,0,0,0,-1,944,638,0,0
-273,386,0,0,0,0,0,0,0,0,0,-1,951,638,0,0
-266,386,0,0,0,0,0,0,0,0,0,-1,958,638,0,0
-259,386,0,0,0,0,0,0,0,0,0,-1,965,638,0,0
-252,386,0,0,0,0,0,0,0,0,0,-1,972,638,0,0
-245,386,0,0,0,0,0,0,0,0,0,-1,979,638,0,0
-238,386,0,0,0,0,0,0,0,0,0,-1,986,638,0,0
-231,386,0,0,0,0,0,0,0,0,0,-1,993,638,0,0
-224,386,0,0,0,0,0,0,0,0,0,-1,1000,638,0,0
-217,386,0,0,0,0,0,0,0,0,0,-1,1007,638,0,0
-210,386,0,0,0,0,0,0,0,0,0,-1,1014,638,0,0
-203,386,0,0,0,0,0,0,0,0,0,-1,1021,638,0,0
-196,386,0,0,0,0,0,0,0,0,0,-1,1028,638,0,0
-189,386,0,0,0,0,0,0,0,0,0,-1,1035,638,0,0
-182,386,0,0,0,0,0,0,0,0,0,-1,1042,638,0,0
-175,386,0,0,0,0,0,0,0,0,0,-1,1049,638,0,0
-168,386,0,0,0,0,0,0,0,0,0,-1,1056,638,0,0
-161,386,0,0,0,0,0,0,0,0,0,-1,1063,638,0,0
-154,386,0,0,0,0,0,0,0,0,0,-1,1070,638,0,0
-147,386,0,0,0,0,0,0,0,0,0,-1,1077,638,0,0
-140,386,0,0,0,0,0,0,0,0,0,-1,1084,638,0,0
-133,386,0,0,0,0,0,0,0,0,0,-1,1091,638,0,0
-126,386,0,0,0,0,0,0,0,0,0,-1,1098,638,0,0
-119,386,0,0,0,0,0,0,0,0,0,-1,1105,638,0,0
-112,386,0,0,0,0,0,0,0,0,0,-1,1112,638,0,0
-105,386,0,0,0,0,0,0,0,0,0,-1,1119,638,0,0
-98,386,0,0,0,0,0,0,0,0,0,-1,1126,638,0,0
-91,386,0,0,0,0,0,0,0,0,0,-1,1133,638,0,0
-84,386,0,0,0,0,0,0,0,0,0,-1,1140,638,0,0
-77,386,0,0,0,0,0,0,0,0,0,-1,1147,638,0,0
-70,386,0,0,0,0,0,0,0,0,0,-1,1154,638,0,0
-63,386,0,0,0,0,0,0,0,0,0,-1,1161,638,0,0
-56,386,0,0,0,0,0,0,0,0,0,-1,1168,638,0,0
-49,386,0,0,0,0,0,0,0,0,0,-1,1175,638,0,0
-42,386,0,0,0,0,0,0,0,0,0,-1,1182,638,0,0
-35,386,0,0,0,0,0,0,0,0,0,-1,1189,638,0,0
-28,386,0,0,0,0,0,0,0,0,0,-1,1196,638,0,0
-21,386,0,0,0,0,0,0,0,0,0,-1,1203,638,0,0
-14,386,0,0,0,0,0,0,0,0,0,-1,1210,638,0,0
-7,386,0,0,0,0,0,0,0,0,0,-1,1217,638,0,0
0,386,0,0,0,0,0,0,0,0,0,-1,1224,638,0,0
7,386,0,0,0,0,0,0,0,0,0,-1,1231,638,0,0
14,386,0,0,0,0,0,0,0,0,0,-1,1238,638,0,0
21,386,0,0,0,0,0,0,0,0,0,-1,1245,638,0,0
28,386,0,0,0,0,0,0,0,0,0,-1,1252,638,0,0
35,386,0,0,0,0,0,0,0,0,0,-1,1259,638,0,0
42,386,0,0,0,0,0,0,0,0,0,-1,1266,638,0,0
49,386,0,0,0,0,0,0,0,0,0,-1,1273,638,0,0
56,386,0,0,0,0,0,0,0,0,0,-1,1280,638,0,0
63,386,0,0,0,0,0,0,0,0,0,-1,1287,638,0,0
70,386,0,0,0,0,0,0,0,0,0,-1,1294,638,0,0
77,386,0,0,0,0,0,0,0,0,0,-1,1301,638,0,0
84,386,0,0,0,0,0,0,0,0,0,-1,1308,638,0,0
91,386,0,0,0,0,0,0,0,0,0,-1,1315,638,0,0
98,386,0,0,0,0,0,0,0,0,0,-1,1322,638,0,0
105,386,0,0,0,0,0,0,0,0,0,-1,1329,638,0,0
112,386,0,0,0,0,0,0,0,0,0,-1,1336,638,0,0
119,386,0,0,0,0,0,0,0,0,0,-1,1343,638,0,0
126,386,0,0,0,0,0,0,0,0,0,-1,1350,638,0,0
133,386,0,0,0,0,0,0,0,0,0,-1,1357,638,0,0
140,386,0,0,0,0,0,0,0,0,0,-1,1364,638,0,0
147,386,0,0,0,0,0,0,0,0,0,-1,1371,638,0,0
154,386,0,0,0,0,0,0,0,0,0,-1,1378,638,0,0
161,386,0,0,0,0,0,0,0,0,0,-1,1385,638,0,0
168,386,0,0,0,0,0,0,0,0,0,-1,1392,638,0,0
175,386,0,0,0,0,0,0,0,0,0,-1,1399,638,0,0
182,386,0,0,0,0,0,0,0,0,0,-1,1406,638,0,0
189,386,0,0,0,0,0,0,0,0,0,-1,1413,638,0,0
196,386,0,0,0,0,0,0,0,0,0,-1,1420,638,0,0
203,386,0,0,0,0,0,0,0,0,0,-1,1427,638,0,0
210,386,0,0,0,0,0,0,0,0,0,-1,1434,638,0,0
217,386,0,0,0,0,0,0,0,0,0,-1,1441,638,0,0
224,386,0,0,0,0,0,0,0,0,0,-1,1448,638,0,0
231,386,0,0,0,0,0,0,0,0,0,-1,1455,638,0,0
238,386,0,0,0,0,0,0,0,0,0,-1,1462,638,0,0
245,386,0,0,0,0,0,0,0,0,0,-1,1469,638,0,0
252,386,0,0,0,0,0,0,0,0,0,-1,1476,638,0,0
259,386,0,0,0,0,0,0,0,0,0,-1,1483,638,0,0
266,386,0,0,0,0,0,0,0,0,0,-1,1490,638,0,0
273,386,0,0,0,0,0,0,0,0,0,-1,1497,638,0,0
280,386,0,0,0,0,0,0,0,0,0,-1,1504,638,0,0
287,386,0,0,0,0,0,0,0,0,0,-1,1511,638,0,0
294,386,0,0,0,0,0,0,0,0,0,-1,1518,638,0,0
301,386,0,0,0,0,0,0,0,0,0,-1,1525,638,0,0
308,386,0,0,0,0,0,0,0,0,0,-1,1532,638,0,0
315,386,0,0,0,0,0,0,0,0,0,-1,1539,638,0,0
322,386,0,0,0,0,0,0,0,0,0,-1,1546,638,0,0
329,386,0,0,0,0,0,0,0,0,0,-1,1553,638,0,0
336,386,0,0,0,0,0,0,0,0,0,-1,1560,638,0,0
343,386,0,0,0,0,0,0,0,0,0,-1,1567,638,0,0
350,386,0,0,0,0,0,0,0,0,0,-1,1574,638,0,0
357,386,0,0,0,0,0,0,0,0,0,-1,1581,638,0,0
364,386,0,0,0,0,0,0,0,0,0,-1,1588,638,0,0
371,386,0,0,0,0,0,0,0,0,0,-1,1595,638,0,0
378,386,0,0,0,0,0,0,0,0,0,-1,1602,638,0,0
385,386,0,0,0,0,0,0,0,0,0,-1,1609,638,0,0
392,386,0,0,0,0,0,0,0,0,0,-1,1616,638,0,0
399,386,0,0,0,0,0,0,0,0,0,-1,1623,638,0,0
406,386,0,0,0,0,0,0,0,0,0,-1,1630,638,0,0
413,386,0,0,0,0,0,0,0,0,0,-1,1637,638,0,0
420,386,0,0,0,0,0,0,0,0,0,-1,1644,638,0,0
427,386,0,0,0,0,0,0,0,0,0,-1,1651,638,0,0
434,386,0,0,0,0,0,0,0,0,0,-1,1658,638,0,0
441,386,0,0,0,0,0,0,0,0,0,-1,1665,638,0,0
448,386,0,0,0,0,0,0,0,0,0,-1,1672,638,0,0
455,386,0,0,0,0,0,0,0,0,0,-1,1679,638,0,0
462,386,0,0,0,0,0,0,0,0,0,-1,1686,638,0,0
469,386,9.84692,1.55804,0,0,0,0,0,0,0,-1,1693,638,9.84691,-1.55807
476,386,10.6145,0.986511,0,0,0,0,0,0,0,-1,1700,638,10.6145,-0.986529
483,386,11.4113,0.732971,0,0,0,0,0,0,0,-1,1707,638,11.4112,-0.732958
490,386,7.79785,1.79572,0,0,0,0,0,0,0,-1,1714,638,7.79788,-1.7957
497,386,8.96362,1.77081,0,0,0,0,0,0,0,-1,1721,638,8.96357,-1.77081
504,386,10.0555,1.69427,0,0,0,0,0,0,0,-1,1728,638,10.0555,-1.69426
511,386,11.2172,1.534,0,0,0,0,0,0,0,-1,1735,638,11.2172,-1.53398
518,386,7.41553,1.75238,0,0,0,0,0,0,0,-1,1742,638,7.41547,-1.75238
525,386,8.82422,-1.1449,0,0,0,0,0,0,0,-1,1749,638,8.82426,1.14492
532,386,8.27222,0.621643,0,0,0,0,0,0,0,-1,1756,638,8.27223,-0.621629
539,386,7.50562,-0.202881,0,0,0,0,0,0,0,-1,1763,638,7.50556,0.202904
546,386,6.60022,-0.85022,-0.0237518,-0.0110739,-0.0115749,-0.00421587,-0.0306099,-1.03592,0.0191565,0.0425288,1770,638,6.60026,0.850201
553,386,6.40356,-1.10199,-0.0198511,-0.00863016,-0.00952014,-0.00319026,-0.025291,-1.05166,0.0159042,0.0316792,1777,638,6.40359,1.10198
560,386,6.36084,-0.954468,-0.0164434,-0.00665234,-0.00777405,-0.00236082,-0.020735,-1.06639,0.0131074,0.0229267,1784,638,6.36086,0.954491
567,386,6.31897,-0.824463,-0.0133985,-0.00519247,-0.00627412,-0.00179888,-0.0167921,-1.07498,0.0106459,0.0163764,1791,638,6.31895,0.824435
574,386,6.33838,-0.704407,-0.0105338,-0.00399997,-0.00492778,-0.00135453,-0.0131792,-1.07811,0.00837123,0.0132271,1798,638,6.33834,0.704406
581,386,6.32642,-0.593689,-0.00798504,-0.00292611,-0.00372476,-0.000953124,-0.00995802,-1.08368,0.00634488,0.012616,1805,638,6.32643,0.593676
588,386,6.33899,-0.431946,-0.00594864,-0.00199438,-0.00278336,-0.0005574,-0.00738562,-1.09421,0.00474886,0.0118095,1812,638,6.33899,0.431933
595,386,6.31885,-0.288086,-0.00422179,-0.0010952,-0.00202711,-9.85977e-05,-0.00521839,-1.11386,0.00344653,0.0130819,1819,638,6.3189,0.288082
602,386,6.32715,-0.171509,-0.00262209,-0.000308791,-0.00170071,0.000591319,-0.0035222,-1.08402,0.00256803,0.014259,1826,638,6.32715,0.171485
609,386,6.34717,-0.0480347,-0.00155338,0.000177017,-0.00160431,0.00113456,-0.00251092,-1.03269,0.00215414,0.0140556,1833,638,6.34717,0.048024
616,386,6.33447,0.0981445,-0.000822909,0.000520469,-0.00182119,0.00178989,-0.00209233,-0.962068,0.00224366,0.0110024,1840,638,6.33452,-0.0981532
623,386,6.32593,0.255798,-0.000440999,0.000825412,-0.00239873,0.0026731,-0.00228869,-0.914442,0.00286756,0.00976034,1847,638,6.32592,-0.255791
630,386,6.35706,0.380066,0.000973167,0.0016546,-0.00309929,0.00443184,-0.00180408,-0.840145,0.00370533,0.0159366,1854,638,6.35701,-0.380089
637,386,6.32214,0.499634,0.00338276,0.00214688,-0.00321586,0.00603951,-0.000509872,-0.690479,0.00420661,0.0256916,1861,638,6.32212,-0.499606
644,386,6.30371,0.572083,0.00584143,0.00292137,-0.00316734,0.00786906,0.000893745,-0.569431,0.00497496,0.037816,1868,638,6.30377,-0.572111
651,386,6.39014,0.833557,0.0103739,0.00376165,-0.00274764,0.0113666,0.00276895,-0.346701,0.0068441,0.0462863,1875,638,6.3901,-0.833571
658,386,6.56433,0.923218,0,0,0,0,0,0,0,-1,1882,638,6.56428,-0.923233
665,386,4.62305,2.63312,0,0,0,0,0,0,0,-1,1889,638,4.62301,-2.63309
672,386,5.33691,2.79462,0,0,0,0,0,0,0,-1,1896,638,5.33697,-2.7946
679,386,6.11792,2.98981,0,0,0,0,0,0,0,-1,1903,638,6.11796,-2.98982
686,386,0,0,0,0,0,0,0,0,0,-1,1910,638,0,0
693,386,0,0,0,0,0,0,0,0,0,-1,1917,638,0,0
700,386,0,0,0,0,0,0,0,0,0,-1,1924,638,0,0
707,386,0,0,0,0,0,0,0,0,0,-1,1931,638,0,0
714,386,0,0,0,0,0,0,0,0,0,-1,1938,638,0,0
721,386,0,0,0,0,0,0,0,0,0,-1,1945,638,0,0
728,386,0,0,0,0,0,0,0,0,0,-1,1952,638,0,0
735,386,0,0,0,0,0,0,0,0,0,-1,1959,638,0,0
742,386,0,0,0,0,0,0,0,0,0,-1,1966,638,0,0
749,386,0,0,0,0,0,0,0,0,0,-1,1973,638,0,0
756,386,0,0,0,0,0,0,0,0,0,-1,1980,638,0,0
763,386,0,0,0,0,0,0,0,0,0,-1,1987,638,0,0
770,386,0,0,0,0,0,0,0,0,0,-1,1994,638,0,0
777,386,0,0,0,0,0,0,0,0,0,-1,2001,638,0,0
784,386,0,0,0,0,0,0,0,0,0,-1,2008,638,0,0
791,386,0,0,0,0,0,0,0,0,0,-1,2015,638,0,0
798,386,0,0,0,0,0,0,0,0,0,-1,2022,638,0,0
805,386,0,0,0,0,0,0,0,0,0,-1,2029,638,0,0
812,386,0,0,0,0,0,0,0,0,0,-1,2036,638,0,0
-700,379,0,0,0,0,0,0,0,0,0,-1,524,645,0,0
-693,379,0,0,0,0,0,0,0,0,0,-1,531,645,0,0
-686,379,0,0,0,0,0,0,0,0,0,-1,538,645,0,0
-679,379,0,0,0,0,0,0,0,0,0,-1,545,645,0,0
-672,379,0,0,0,0,0,0,0,0,0,-1,552,645,0,0
-665,379,0,0,0,0,0,0,0,0,0,-1,559,645,0,0
-658,379,0,0,0,0,0,0,0,0,0,-1,566,645,0,0
-651,379,0,0,0,0,0,0,0,0,0,-1,573,645,0,0
-644,379,0,0,0,0,0,0,0,0,0,-1,580,645,0,0
-637,379,0,0,0,0,0,0,0,0,0,-1,587,645,0,0
-630,379,0,0,0,0,0,0,0,0,0,-1,594,645,0,0
-623,379,0,0,0,0,0,0,0,0,0,-1,601,645,0,0
-616,379,0,0,0,0,0,0,0,0,0,-1,608,645,0,0
-609,379,0,0,0,0,0,0,0,0,0,-1,615,645,0,0
-602,379,0,0,0,0,0,0,0,0,0,-1,622,645,0,0
-595,379,0,0,0,0,0,0,0,0,0,-1,629,645,0,0
-588,379,0,0,0,0,0,0,0,0,0,-1,636,645,0,0
-581,379,0,0,0,0,0,0,0,0,0,-1,643,645,0,0
-574,379,0,0,0,0,0,0,0,0,0,-1,650,645,0,0
-567,379,-1.44061,2.36505,0,0,0,0,0,0,0,-1,657,645,-1.44062,-2.36505
-560,379,-1.44745,1.79071,0,0,0,0,0,0,0,-1,664,645,-1.44744,-1.79069
-553,379,-2.6925,0.551636,0,0,0,0,0,0,0,-1,671,645,-2.69251,-0.551646
-546,379,-1.25446,3.59113,0,0,0,0,0,0,0,-1,678,645,-1.25443,-3.5911
-539,379,-0.727417,2.08484,0,0,0,0,0,0,0,-1,685,645,-0.727396,-2.08483
-532,379,-0.200378,0.578552,0,0,0,0,0,0,0,-1,692,645,-0.200364,-0.578559
-525,379,-1.49805,-0.0634155,0,0,0,0,0,0,0,-1,699,645,-1.49806,0.0634162
-518,379,-1.44409,-0.319458,-0.00986301,0.00510076,-0.00208696,0.00538638,-0.0101486,-1.43479,0.00910852,0.0426377,706,645,-1.44407,0.319447
-511,379,-1.41907,-0.506104,-0.00717969,0.00112895,-0.000536953,0.00116351,-0.00721425,-1.50653,0.00524057,0.0245843,713,645,-1.41907,0.506103
-504,379,-1.44958,-0.617798,-0.00538392,-0.000275003,-6.08787e-05,-0.000274277,-0.00538464,-1.55888,0.00350192,0.0132277,720,645,-1.44961,0.617804
-497,379,-1.4751,-0.725708,-0.00409709,-0.00097785,0.000180872,-0.000967397,-0.00410755,1.51307,0.00247962,0.0105256,727,645,-1.47508,0.725733
-490,379,-1.46802,-0.854004,-0.00315349,-0.00111393,0.000429163,-0.0010273,-0.00324012,1.37163,0.00191197,0.0110656,734,645,-1.46802,0.853988
-483,379,-1.46631,-0.985168,-0.00244979,-0.00121502,0.000724642,-0.000880425,-0.00278439,1.13822,0.00164337,0.0122271,741,645,-1.4663,0.985176
-476,379,-1.45831,-1.09387,-0.00197618,-0.00143255,0.00119669,-0.000477198,-0.00293154,0.897073,0.00181631,0.012305,748,645,-1.45829,1.09387
-469,379,-1.45825,-1.20697,-0.00159381,-0.00189334,0.00182186,8.44309e-05,-0.00357159,0.744388,0.00240969,0.0114262,755,645,-1.45823,1.20696
-462,379,-1.46661,-1.34381,-0.0015828,-0.00218963,0.00252373,0.000655688,-0.00442811,0.725573,0.00319316,0.00824128,762,645,-1.46664,1.34383
-455,379,-1.4873,-1.47198,-0.00169067,-0.0026908,0.0033873,0.00123328,-0.00561474,0.712113,0.00421483,0.00850624,769,645,-1.48729,1.47201
-448,379,-1.48212,-1.59143,-0.00198984,-0.00334849,0.00449225,0.00187416,-0.00721249,0.710356,0.00553975,0.0110183,776,645,-1.4821,1.59146
-441,379,-1.45245,-1.72504,-0.00270029,-0.00444874,0.00573201,0.00222378,-0.00937281,0.709724,0.00710674,0.0134811,783,645,-1.45247,1.72505
-434,379,-1.35193,-1.84656,-0.00396278,-0.00529206,0.00723156,0.00263462,-0.0118895,0.739573,0.00893494,0.0297452,790,645,-1.35195,1.84654
-427,379,-1.51538,-1.73187,-0.00565152,-0.0059214,0.00882451,0.00303908,-0.014612,0.777753,0.0108966,0.0363352,797,645,-1.51537,1.73189
-420,379,-1.46613,-1.58459,-0.00774384,-0.0066395,0.010472,0.00329492,-0.0176783,0.811738,0.0130235,0.041045,804,645,-1.46613,1.58457
-413,379,-1.72357,-1.98834,0,0,0,0,0,0,0,-1,811,645,-1.72357,1.98834
-406,379,-0.335754,-1.08691,0,0,0,0,0,0,0,-1,818,645,-0.335784,1.08691
-399,379,-2.93536,-1.40118,0,0,0,0,0,0,0,-1,825,645,-2.93534,1.40119
-392,379,-4.16711,-0.466003,0,0,0,0,0,0,0,-1,832,645,-4.16714,0.465992
-385,379,-4.03479,0.327026,0,0,0,0,0,0,0,-1,839,645,-4.03477,-0.327041
-378,379,-3.79797,0.458435,0,0,0,0,0,0,0,-1,846,645,-3.79796,-0.458432
-371,379,-3.56116,0.589844,0,0,0,0,0,0,0,-1,853,645,-3.56116,-0.589824
-364,379,-3.22186,0.529419,0,0,0,0,0,0,0,-1,860,645,-3.22185,-0.529416
-357,379,0,0,0,0,0,0,0,0,0,-1,867,645,0,0
-350,379,0,0,0,0,0,0,0,0,0,-1,874,645,0,0
-343,379,0,0,0,0,0,0,0,0,0,-1,881,645,0,0
-336,379,0,0,0,0,0,0,0,0,0,-1,888,645,0,0
-329,379,0,0,0,0,0,0,0,0,0,-1,895,645,0,0
-322,379,0,0,0,0,0,0,0,0,0,-1,902,645,0,0
-315,379,0,0,0,0,0,0,0,0,0,-1,909,645,0,0
-308,379,0,0,0,0,0,0,0,0,0,-1,916,645,0,0
-301,379,0,0,0,0,0,0,0,0,0,-1,923,645,0,0
-294,379,0,0,0,0,0,0,0,0,0,-1,930,645,0,0
-287,379,0,0,0,0,0,0,0,0,0,-1,937,645,0,0
-280,379,0,0,0,0,0,0,0,0,0,-1,944,645,0,0
-273,379,0,0,0,0,0,0,0,0,0,-1,951,645,0,0
-266,379,0,0,0,0,0,0,0,0,0,-1,958,645,0,0
-259,379,0,0,0,0,0,0,0,0,0,-1,965,645,0,0
-252,379,0,0,0,0,0,0,0,0,0,-1,972,645,0,0
-245,379,0,0,0,0,0,0,0,0,0,-1,979,645,0,0
-238,379,0,0,0,0,0,0,0,0,0,-1,986,645,0,0
-231,379,0,0,0,0,0,0,0,0,0,-1,993,645,0,0
-224,379,0,0,0,0,0,0,0,0,0,-1,1000,645,0,0
-217,379,0,0,0,0,0,0,0,0,0,-1,1007,645,0,0
-210,379,0,0,0,0,0,0,0,0,0,-1,1014,645,0,0
-203,379,0,0,0,0,0,0,0,0,0,-1,1021,645,0,0
-196,379,0,0,0,0,0,0,0,0,0,-1,1028,645,0,0
-189,379,0,0,0,0,0,0,0,0,0,-1,1035,645,0,0
-182,379,0,0,0,0,0,0,0,0,0,-1,1042,645,0,0
-175,379,0,0,0,0,0,0,0,0,0,-1,1049,645,0,0
-168,379,0,0,0,0,0,0,0,0,0,-1,1056,645,0,0
-161,379,0,0,0,0,0,0,0,0,0,-1,1063,645,0,0
-154,379,0,0,0,0,0,0,0,0,0,-1,1070,645,0,0
-147,379,0,0,0,0,0,0,0,0,0,-1,1077,645,0,0
-140,379,0,0,0,0,0,0,0,0,0,-1,1084,645,0,0
-133,379,0,0,0,0,0,0,0,0,0,-1,1091,645,0,0
-126,379,0,0,0,0,0,0,0,0,0,-1,1098,645,0,0
-119,379,0,0,0,0,0,0,0,0,0,-1,1105,645,0,0
-112,379,0,0,0,0,0,0,0,0,0,-1,1112,645,0,0
-105,379,0,0,0,0,0,0,0,0,0,-1,1119,645,0,0
-98,379,0,0,0,0,0,0,0,0,0,-1,1126,645,0,0
-91,379,0,0,0,0,0,0,0,0,0,-1,1133,645,0,0
-84,379,0,0,0,0,0,0,0,0,0,-1,1140,645,0,0
-77,379,0,0,0,0,0,0,0,0,0,-1,1147,645,0,0
-70,379,0,0,0,0,0,0,0,0,0,-1,1154,645,0,0
-63,379,0,0,0,0,0,0,0,0,0,-1,1161,645,0,0
-56,379,0,0,0,0,0,0,0,0,0,-1,1168,645,0,0
-49,379,0,0,0,0,0,0,0,0,0,-1,1175,645,0,0
-42,379,0,0,0,0,0,0,0,0,0,-1,1182,645,0,0
-35,379,0,0,0,0,0,0,0,0,0,-1,1189,645,0,0
-28,379,0,0,0,0,0,0,0,0,0,-1,1196,645,0,0
-21,379,0,0,0,0,0,0,0,0,0,-1,1203,645,0,0
-14,379,0,0,0,0,0,0,0,0,0,-1,1210,645,0,0
-7,379,0,0,0,0,0,0,0,0,0,-1,1217,645,0,0
0,379,0,0,0,0,0,0,0,0,0,-1,1224,645,0,0
7,379,0,0,0,0,0,0,0,0,0,-1,1231,645,0,0
14,379,0,0,0,0,0,0,0,0,0,-1,1238,645,0,0
21,379,0,0,0,0,0,0,0,0,0,-1,1245,645,0,0
28,379,0,0,0,0,0,0,0,0,0,-1,1252,645,0,0
35,379,0,0,0,0,0,0,0,0,0,-1,1259,645,0,0
42,379,0,0,0,0,0,0,0,0,0,-1,1266,645,0,0
49,379,0,0,0,0,0,0,0,0,0,-1,1273,645,0,0
56,379,0,0,0,0,0,0,0,0,0,-1,1280,645,0,0
63,379,0,0,0,0,0,0,0,0,0,-1,1287,645,0,0
70,379,0,0,0,0,0,0,0,0,0,-1,1294,645,0,0
77,379,0,0,0,0,0,0,0,0,0,-1,1301,645,0,0
84,379,0,0,0,0,0,0,0,0,0,-1,1308,645,0,0
91,379,0,0,0,0,0,0,0,0,0,-1,1315,645,0,0
98,379,0,0,0,0,0,0,0,0,0,-1,1322,645,0,0
105,379,0,0,0,0,0,0,0,0,0,-1,1329,645,0,0
112,379,0,0,0,0,0,0,0,0,0,-1,1336,645,0,0
119,379,0,0,0,0,0,0,0,0,0,-1,1343,645,0,0
126,379,0,0,0,0,0,0,0,0,0,-1,1350,645,0,0
133,379,0,0,0,0,0,0,0,0,0,-1,1357,645,0,0
140,379,0,0,0,0,0,0,0,0,0,-1,1364,645,0,0
147,379,0,0,0,0,0,0,0,0,0,-1,1371,645,0,0
154,379,0,0,0,0,0,0,0,0,0,-1,1378,645,0,0
161,379,0,0,0,0,0,0,0,0,0,-1,1385,645,0,0
168,379,0,0,0,0,0,0,0,0,0,-1,1392,645,0,0
175,379,0,0,0,0,0,0,0,0,0,-1,1399,645,0,0
182,379,0,0,0,0,0,0,0,0,0,-1,1406,645,0,0
189,379,0,0,0,0,0,0,0,0,0,-1,1413,645,0,0
196,379,0,0,0,0,0,0,0,0,0,-1,1420,645,0,0
203,379,0,0,0,0,0,0,0,0,0,-1,1427,645,0,0
210,379,0,0,0,0,0,0,0,0,0,-1,1434,645,0,0
217,379,0,0,0,0,0,0,0,0,0,-1,1441,645,0,0
224,379,0,0,0,0,0,0,0,0,0,-1,1448,645,0,0
231,379,0,0,0,0,0,0,0,0,0,-1,1455,645,0,0
238,379,0,0,0,0,0,0,0,0,0,-1,1462,645,0,0
245,379,0,0,0,0,0,0,0,0,0,-1,1469,645,0,0
252,379,0,0,0,0,0,0,0,0,0,-1,1476,645,0,0
259,379,0,0,0,0,0,0,0,0,0,-1,1483,645,0,0
266,379,0,0,0,0,0,0,0,0,0,-1,1490,645,0,0
273,379,0,0,0,0,0,0,0,0,0,-1,1497,645,0,0
280,379,0,0,0,0,0,0,0,0,0,-1,1504,645,0,0
287,379,0,0,0,0,0,0,0,0,0,-1,1511,645,0,0
294,379,0,0,0,0,0,0,0,0,0,-1,1518,645,0,0
301,379,0,0,0,0,0,0,0,0,0,-1,1525,645,0,0
308,379,0,0,0,0,0,0,0,0,0,-1,1532,645,0,0
315,379,0,0,0,0,0,0,0,0,0,-1,1539,645,0,0
322,379,0,0,0,0,0,0,0,0,0,-1,1546,645,0,0
329,379,0,0,0,0,0,0,0,0,0,-1,1553,645,0,0
336,379,0,0,0,0,0,0,0,0,0,-1,1560,645,0,0
343,379,0,0,0,0,0,0,0,0,0,-1,1567,645,0,0
350,379,0,0,0,0,0,0,0,0,0,-1,1574,645,0,0
357,379,0,0,0,0,0,0,0,0,0,-1,1581,645,0,0
364,379,0,0,0,0,0,0,0,0,0,-1,1588,645,0,0
371,379,0,0,0,0,0,0,0,0,0,-1,1595,645,0,0
378,379,0,0,0,0,0,0,0,0,0,-1,1602,645,0,0
385,379,0,0,0,0,0,0,0,0,0,-1,1609,645,0,0
392,379,0,0,0,0,0,0,0,0,0,-1,1616,645,0,0
399,379,0,0,0,0,0,0,0,0,0,-1,1623,645,0,0
406,379,0,0,0,0,0,0,0,0,0,-1,1630,645,0,0
413,379,0,0,0,0,0,0,0,0,0,-1,1637,645,0,0
420,379,0,0,0,0,0,0,0,0,0,-1,1644,645,0,0
427,379,0,0,0,0,0,0,0,0,0,-1,1651,645,0,0
434,379,0,0,0,0,0,0,0,0,0,-1,1658,645,0,0
441,379,0,0,0,0,0,0,0,0,0,-1,1665,645,0,0
448,379,0,0,0,0,0,0,0,0,0,-1,1672,645,0,0
455,379,0,0,0,0,0,0,0,0,0,-1,1679,645,0,0
462,379,0,0,0,0,0,0,0,0,0,-1,1686,645,0,0
469,379,0,0,0,0,0,0,0,0,0,-1,1693,645,0,0
476,379,11.1787,0.830383,0,0,0,0,0,0,0,-1,1700,645,11.1787,-0.830365
483,379,7.4231,1.54321,0,0,0,0,0,0,0,-1,1707,645,7.42314,-1.54324
490,379,8.52881,1.56677,0,0,0,0,0,0,0,-1,1714,645,8.52878,-1.56677
497,379,9.63599,1.49573,0,0,0,0,0,0,0,-1,1721,645,9.63604,-1.4957
504,379,10.0833,1.35229,0,0,0,0,0,0,0,-1,1728,645,10.0832,-1.35227
511,379,8.14343,1.59912,0,0,0,0,0,0,0,-1,1735,645,8.14347,-1.59912
518,379,12.7955,-0.324097,0,0,0,0,0,0,0,-1,1742,645,12.7955,0.324101
525,379,6.03711,1.10352,0,0,0,0,0,0,0,-1,1749,645,6.03711,-1.10351
532,379,8.25415,0.968689,0,0,0,0,0,0,0,-1,1756,645,8.25418,-0.968668
539,379,7.58313,0.211426,0,0,0,0,0,0,0,-1,1763,645,7.58311,-0.21144
546,379,6.6272,-0.629456,0,0,0,0,0,0,0,-1,1770,645,6.62718,0.629477
553,379,6.53003,-1.05237,0,0,0,0,0,0,0,-1,1777,645,6.53004,1.05238
560,379,6.53699,-0.902039,-0.0237755,-0.00944119,-0.0105626,-0.00384364,-0.0293731,-1.08349,0.0184349,0.0315767,1784,645,6.53694,0.902038
567,379,6.4104,-0.791748,-0.0193095,-0.00746519,-0.00860073,-0.00294491,-0.0238298,-1.0869,0.0150015,0.0180683,1791,645,6.41034,0.79175
574,379,6.48303,-0.688782,-0.0152177,-0.00586493,-0.00686286,-0.00223665,-0.018846,-1.08447,0.0118888,0.0118051,1798,645,6.48301,0.688789
581,379,6.47534,-0.570435,-0.0115967,-0.00445109,-0.00530063,-0.0016316,-0.0144162,-1.08194,0.00911575,0.0132947,1805,645,6.47539,0.570439
588,379,6.46643,-0.437561,-0.00862601,-0.00323794,-0.00403117,-0.00108346,-0.0107805,-1.07996,0.00685444,0.0157474,1812,645,6.46645,0.437541
595,379,6.45496,-0.318237,-0.0061772,-0.00212132,-0.00300509,-0.000523916,-0.0077746,-1.08222,0.00501755,0.0138893,1819,645,6.45499,0.318233
602,379,6.46631,-0.185791,-0.00405527,-0.00110507,-0.00236485,0.000207021,-0.00536736,-1.06425,0.00364921,0.0139725,1826,645,6.46633,0.185763
609,379,6.47144,-0.0528564,-0.00254096,-0.000466225,-0.00202253,0.000769455,-0.00377664,-1.02236,0.00280959,0.0139468,1833,645,6.47145,0.0528574
616,379,6.45996,0.0993042,-0.00137214,4.70264e-06,-0.00199072,0.00142268,-0.00279012,-0.951869,0.0024746,0.0105839,1840,645,6.45995,-0.0993149
623,379,6.47351,0.265747,-0.000635802,0.000399041,-0.00223011,0.00217097,-0.00240773,-0.89939,0.00264469,0.0100386,1847,645,6.47349,-0.265727
630,379,6.47241,0.387085,0.00099194,0.00130936,-0.0025153,0.00367096,-0.00136966,-0.816905,0.0030096,0.0119885,1854,645,6.47246,-0.387057
637,379,6.47327,0.512939,0.00335926,0.00192345,-0.0023956,0.00514222,0.000140496,-0.639818,0.00338229,0.0136792,1861,645,6.47326,-0.512925
644,379,6.49231,0.705078,0.00563532,0.00262283,-0.00221593,0.00680846,0.00144969,-0.4869,0.00414121,0.0223989,1868,645,6.4923,-0.705087
651,379,6.57739,0.624023,0.00976413,0.00340119,-0.00161474,0.0101504,0.00301487,-0.234833,0.00601918,0.0462253,1875,645,6.57735,-0.624024
658,379,6.75659,0.535034,0,0,0,0,0,0,0,-1,1882,645,6.7566,-0.535042
665,379,7.14697,0.786926,0,0,0,0,0,0,0,-1,1889,645,7.147,-0.786935
672,379,5.68811,2.22052,0,0,0,0,0,0,0,-1,1896,645,5.68807,-2.22049
679,379,6.36987,2.43561,0,0,0,0,0,0,0,-1,1903,645,6.36984,-2.43559
686,379,0,0,0,0,0,0,0,0,0,-1,1910,645,0,0
693,379,0,0,0,0,0,0,0,0,0,-1,1917,645,0,0
700,379,0,0,0,0,0,0,0,0,0,-1,1924,645,0,0
707,379,0,0,0,0,0,0,0,0,0,-1,1931,645,0,0
714,379,0,0,0,0,0,0,0,0,0,-1,1938,645,0,0
721,379,0,0,0,0,0,0,0,0,0,-1,1945,645,0,0
728,379,0,0,0,0,0,0,0,0,0,-1,1952,645,0,0
735,379,0,0,0,0,0,0,0,0,0,-1,1959,645,0,0
742,379,0,0,0,0,0,0,0,0,0,-1,1966,645,0,0
749,379,0,0,0,0,0,0,0,0,0,-1,1973,645,0,0
756,379,0,0,0,0,0,0,0,0,0,-1,1980,645,0,0
763,379,0,0,0,0,0,0,0,0,0,-1,1987,645,0,0
770,379,0,0,0,0,0,0,0,0,0,-1,1994,645,0,0
777,379,0,0,0,0,0,0,0,0,0,-1,2001,645,0,0
784,379,0,0,0,0,0,0,0,0,0,-1,2008,645,0,0
791,379,0,0,0,0,0,0,0,0,0,-1,2015,645,0,0
798,379,0,0,0,0,0,0,0,0,0,-1,2022,645,0,0
805,379,0,0,0,0,0,0,0,0,0,-1,2029,645,0,0
812,379,0,0,0,0,0,0,0,0,0,-1,2036,645,0,0
-700,372,0,0,0,0,0,0,0,0,0,-1,524,652,0,0
-693,372,0,0,0,0,0,0,0,0,0,-1,531,652,0,0
-686,372,0,0,0,0,0,0,0,0,0,-1,538,652,0,0
-679,372,0,0,0,0,0,0,0,0,0,-1,545,652,0,0
-672,372,0,0,0,0,0,0,0,0,0,-1,552,652,0,0
-665,372,0,0,0,0,0,0,0,0,0,-1,559,652,0,0
-658,372,0,0,0,0,0,0,0,0,0,-1,566,652,0,0
-651,372,0,0,0,0,0,0,0,0,0,-1,573,652,0,0
-644,372,0,0,0,0,0,0,0,0,0,-1,580,652,0,0
-637,372,0,0,0,0,0,0,0,0,0,-1,587,652,0,0
-630,372,0,0,0,0,0,0,0,0,0,-1,594,652,0,0
-623,372,0,0,0,0,0,0,0,0,0,-1,601,652,0,0
-616,372,0,0,0,0,0,0,0,0,0,-1,608,652,0,0
-609,372,0,0,0,0,0,0,0,0,0,-1,615,652,0,0
-602,372,0,0,0,0,0,0,0,0,0,-1,622,652,0,0
-595,372,0,0,0,0,0,0,0,0,0,-1,629,652,0,0
-588,372,0,0,0,0,0,0,0,0,0,-1,636,652,0,0
-581,372,0,0,0,0,0,0,0,0,0,-1,643,652,0,0
-574,372,0,0,0,0,0,0,0,0,0,-1,650,652,0,0
-567,372,-0.99469,2.04932,-0.0654241,0.0534167,-0.00880158,0.054065,-0.0660724,-1.49727,0.0694768,0.0422464,657,652,-0.994712,-2.04929
-560,372,-1.00537,1.58563,0,0,0,0,0,0,0,-1,664,652,-1.00536,-1.58566
-553,372,-0.971313,1.17181,0,0,0,0,0,0,0,-1,671,652,-0.97132,-1.17184
-546,372,-0.704834,2.27325,0,0,0,0,0,0,0,-1,678,652,-0.704824,-2.27328
-539,372,-0.921448,1.56146,0,0,0,0,0,0,0,-1,685,652,-0.921418,-1.56147
-532,372,-1.32275,0.560547,0,0,0,0,0,0,0,-1,692,652,-1.32275,-0.560518
-525,372,-1.38873,0.220764,-0.0121499,0.0125742,-0.00268386,0.0128622,-0.0124379,-1.4639,0.0146077,0.0441029,699,652,-1.38871,-0.220774
-518,372,-1.55078,-0.299133,-0.00644756,0.00748411,-0.00246386,0.00790701,-0.00687047,-1.40081,0.00853877,0.0275426,706,652,-1.55079,0.299154
-511,372,-1.60089,-0.53241,-0.00434994,0.00333939,-0.00112939,0.00350184,-0.00451239,-1.42794,0.00463927,0.0135555,713,652,-1.6009,0.53238
-504,372,-1.61224,-0.618774,-0.00315186,0.00137494,-0.000456878,0.00142059,-0.00319751,-1.47121,0.00273126,0.0105836,720,652,-1.61225,0.618801
-497,372,-1.60504,-0.723816,-0.0024366,7.58129e-05,-5.28698e-05,7.69249e-05,-0.00243771,-1.54977,0.00165138,0.0112365,727,652,-1.60503,0.723815
-490,372,-1.59729,-0.841309,-0.00202008,-0.000590678,0.000349573,-0.000509767,-0.00210099,1.34334,0.00126544,0.0119641,734,652,-1.59727,0.841287
-483,372,-1.59497,-0.975037,-0.00174133,-0.00118846,0.000769404,-0.000647334,-0.00228245,0.95786,0.00135828,0.0113466,741,652,-1.59498,0.975032
-476,372,-1.58606,-1.09064,-0.00160181,-0.00175923,0.00136222,-0.000316021,-0.00304501,0.75654,0.0019333,0.0120994,748,652,-1.58608,1.09067
-469,372,-1.58215,-1.20721,-0.00150341,-0.00251935,0.00209334,0.000142709,-0.00416547,0.666369,0.00282575,0.010584,755,652,-1.58216,1.20719
-462,372,-1.5918,-1.33978,-0.00173702,-0.00302045,0.00289613,0.000587637,-0.00534511,0.676371,0.00377456,0.00907092,762,652,-1.59177,1.3398
-455,372,-1.6134,-1.46582,-0.00208409,-0.00368369,0.00388732,0.00108485,-0.00685263,0.683941,0.00496967,0.0092613,769,652,-1.61341,1.46583
-448,372,-1.61212,-1.59357,-0.00253413,-0.00445471,0.00513037,0.00172505,-0.00871389,0.69288,0.00646149,0.00986933,776,652,-1.6121,1.59356
-441,372,-1.52917,-1.79492,-0.00331121,-0.005599,0.00659726,0.00224059,-0.0111508,0.699557,0.00828238,0.0198759,783,652,-1.52917,1.79491
-434,372,-1.65814,-1.71112,-0.00459215,-0.00648685,0.00834111,0.00285524,-0.0139342,0.728852,0.0103731,0.0316177,790,652,-1.65811,1.71115
-427,372,-1.71082,-1.59723,-0.00626817,-0.00706185,0.0101898,0.00353252,-0.0168625,0.765936,0.0125856,0.0386795,797,652,-1.71081,1.59724
-420,372,-1.51373,-1.1958,-0.0082915,-0.00757735,0.0121558,0.00422661,-0.0200955,0.800081,0.0150056,0.0465187,804,652,-1.51371,1.1958
-413,372,-1.44519,-1.17517,0,0,0,0,0,0,0,-1,811,652,-1.44517,1.17515
-406,372,-0.885437,-0.583923,0,0,0,0,0,0,0,-1,818,652,-0.885437,0.5839
-399,372,-3.97357,-0.825012,0,0,0,0,0,0,0,-1,825,652,-3.97359,0.825037
-392,372,-3.83545,-0.462158,0,0,0,0,0,0,0,-1,832,652,-3.83547,0.46218
-385,372,-3.67712,-0.0588989,0,0,0,0,0,0,0,-1,839,652,-3.67714,0.0588688
-378,372,-3.56177,0.630554,0,0,0,0,0,0,0,-1,846,652,-3.56176,-0.630539
-371,372,-3.0589,0.972839,0,0,0,0,0,0,0,-1,853,652,-3.05891,-0.972867
-364,372,0,0,0,0,0,0,0,0,0,-1,860,652,0,0
-357,372,0,0,0,0,0,0,0,0,0,-1,867,652,0,0
-350,372,0,0,0,0,0,0,0,0,0,-1,874,652,0,0
-343,372,0,0,0,0,0,0,0,0,0,-1,881,652,0,0
-336,372,0,0,0,0,0,0,0,0,0,-1,888,652,0,0
-329,372,0,0,0,0,0,0,0,0,0,-1,895,652,0,0
-322,372,0,0,0,0,0,0,0,0,0,-1,902,652,0,0
-315,372,0,0,0,0,0,0,0,0,0,-1,909,652,0,0
-308,372,0,0,0,0,0,0,0,0,0,-1,916,652,0,0
-301,372,0,0,0,0,0,0,0,0,0,-1,923,652,0,0
-294,372,0,0,0,0,0,0,0,0,0,-1,930,652,0,0
-287,372,0,0,0,0,0,0,0,0,0,-1,937,652,0,0
-280,372,0,0,0,0,0,0,0,0,0,-1,944,652,0,0
-273,372,0,0,0,0,0,0,0,0,0,-1,951,652,0,0
-266,372,0,0,0,0,0,0,0,0,0,-1,958,652,0,0
-259,372,0,0,0,0,0,0,0,0,0,-1,965,652,0,0
-252,372,0,0,0,0,0,0,0,0,0,-1,972,652,0,0
-245,372,0,0,0,0,0,0,0,0,0,-1,979,652,0,0
-238,372,0,0,0,0,0,0,0,0,0,-1,986,652,0,0
-231,372,0,0,0,0,0,0,0,0,0,-1,993,652,0,0
-224,372,0,0,0,0,0,0,0,0,0,-1,1000,652,0,0
-217,372,0,0,0,0,0,0,0,0,0,-1,1007,652,0,0
-210,372,0,0,0,0,0,0,0,0,0,-1,1014,652,0,0
-203,372,0,0,0,0,0,0,0,0,0,-1,1021,652,0,0
-196,372,0,0,0,0,0,0,0,0,0,-1,1028,652,0,0
-189,372,0,0,0,0,0,0,0,0,0,-1,1035,652,0,0
-182,372,0,0,0,0,0,0,0,0,0,-1,1042,652,0,0
-175,372,0,0,0,0,0,0,0,0,0,-1,1049,652,0,0
-168,372,0,0,0,0,0,0,0,0,0,-1,1056,652,0,0
-161,372,0,0,0,0,0,0,0,0,0,-1,1063,652,0,0
-154,372,0,0,0,0,0,0,0,0,0,-1,1070,652,0,0
-147,372,0,0,0,0,0,0,0,0,0,-1,1077,652,0,0
-140,372,0,0,0,0,0,0,0,0,0,-1,1084,652,0,0
-133,372,0,0,0,0,0,0,0,0,0,-1,1091,652,0,0
-126,372,0,0,0,0,0,0,0,0,0,-1,1098,652,0,0
-119,372,0,0,0,0,0,0,0,0,0,-1,1105,652,0,0
-112,372,0,0,0,0,0,0,0,0,0,-1,1112,652,0,0
-105,372,0,0,0,0,0,0,0,0,0,-1,1119,652,0,0
-98,372,0,0,0,0,0,0,0,0,0,-1,1126,652,0,0
-91,372,0,0,0,0,0,0,0,0,0,-1,1133,652,0,0
-84,372,0,0,0,0,0,0,0,0,0,-1,1140,652,0,0
-77,372,0,0,0,0,0,0,0,0,0,-1,1147,652,0,0
-70,372,0,0,0,0,0,0,0,0,0,-1,1154,652,0,0
-63,372,0,0,0,0,0,0,0,0,0,-1,1161,652,0,0
-56,372,0,0,0,0,0,0,0,0,0,-1,1168,652,0,0
-49,372,0,0,0,0,0,0,0,0,0,-1,1175,652,0,0
-42,372,0,0,0,0,0,0,0,0,0,-1,1182,652,0,0
-35,372,0,0,0,0,0,0,0,0,0,-1,1189,652,0,0
-28,372,0,0,0,0,0,0,0,0,0,-1,1196,652,0,0
-21,372,0,0,0,0,0,0,0,0,0,-1,1203,652,0,0
-14,372,0,0,0,0,0,0,0,0,0,-1,1210,652,0,0
-7,372,0,0,0,0,0,0,0,0,0,-1,1217,652,0,0
0,372,0,0,0,0,0,0,0,0,0,-1,1224,652,0,0
7,372,0,0,0,0,0,0,0,0,0,-1,1231,652,0,0
14,372,0,0,0,0,0,0,0,0,0,-1,1238,652,0,0
21,372,0,0,0,0,0,0,0,0,0,-1,1245,652,0,0
28,372,0,0,0,0,0,0,0,0,0,-1,1252,652,0,0
35,372,0,0,0,0,0,0,0,0,0,-1,1259,652,0,0
42,372,0,0,0,0,0,0,0,0,0,-1,1266,652,0,0
49,372,0,0,0,0,0,0,0,0,0,-1,1273,652,0,0
56,372,0,0,0,0,0,0,0,0,0,-1,1280,652,0,0
63,372,0,0,0,0,0,0,0,0,0,-1,1287,652,0,0
70,372,0,0,0,0,0,0,0,0,0,-1,1294,652,0,0
77,372,0,0,0,0,0,0,0,0,0,-1,1301,652,0,0
84,372,0,0,0,0,0,0,0,0,0,-1,1308,652,0,0
91,372,0,0,0,0,0,0,0,0,0,-1,1315,652,0,0
98,372,0,0,0,0,0,0,0,0,0,-1,1322,652,0,0
105,372,0,0,0,0,0,0,0,0,0,-1,1329,652,0,0
112,372,0,0,0,0,0,0,0,0,0,-1,1336,652,0,0
119,372,0,0,0,0,0,0,0,0,0,-1,1343,652,0,0
126,372,0,0,0,0,0,0,0,0,0,-1,1350,652,0,0
133,372,0,0,0,0,0,0,0,0,0,-1,1357,652,0,0
140,372,0,0,0,0,0,0,0,0,0,-1,1364,652,0,0
147,372,0,0,0,0,0,0,0,0,0,-1,1371,652,0,0
154,372,0,0,0,0,0,0,0,0,0,-1,1378,652,0,0
161,372,0,0,0,0,0,0,0,0,0,-1,1385,652,0,0
168,372,0,0,0,0,0,0,0,0,0,-1,1392,652,0,0
175,372,0,0,0,0,0,0,0,0,0,-1,1399,652,0,0
182,372,0,0,0,0,0,0,0,0,0,-1,1406,652,0,0
189,372,0,0,0,0,0,0,0,0,0,-1,1413,652,0,0
196,372,0,0,0,0,0,0,0,0,0,-1,1420,652,0,0
203,372,0,0,0,0,0,0,0,0,0,-1,1427,652,0,0
210,372,0,0,0,0,0,0,0,0,0,-1,1434,652,0,0
217,372,0,0,0,0,0,0,0,0,0,-1,1441,652,0,0
224,372,0,0,0,0,0,0,0,0,0,-1,1448,652,0,0
231,372,0,0,0,0,0,0,0,0,0,-1,1455,652,0,0
238,372,0,0,0,0,0,0,0,0,0,-1,1462,652,0,0
245,372,0,0,0,0,0,0,0,0,0,-1,1469,652,0,0
252,372,0,0,0,0,0,0,0,0,0,-1,1476,652,0,0
259,372,0,0,0,0,0,0,0,0,0,-1,1483,652,0,0
266,372,0,0,0,0,0,0,0,0,0,-1,1490,652,0,0
273,372,0,0,0,0,0,0,0,0,0,-1,1497,652,0,0
280,372,0,0,0,0,0,0,0,0,0,-1,1504,652,0,0
287,372,0,0,0,0,0,0,0,0,0,-1,1511,652,0,0
294,372,0,0,0,0,0,0,0,0,0,-1,1518,652,0,0
301,372,0,0,0,0,0,0,0,0,0,-1,1525,652,0,0
308,372,0,0,0,0,0,0,0,0,0,-1,1532,652,0,0
315,372,0,0,0,0,0,0,0,0,0,-1,1539,652,0,0
322,372,0,0,0,0,0,0,0,0,0,-1,1546,652,0,0
329,372,0,0,0,0,0,0,0,0,0,-1,1553,652,0,0
336,372,0,0,0,0,0,0,0,0,0,-1,1560,652,0,0
343,372,0,0,0,0,0,0,0,0,0,-1,1567,652,0,0
350,372,0,0,0,0,0,0,0,0,0,-1,1574,652,0,0
357,372,0,0,0,0,0,0,0,0,0,-1,1581,652,0,0
364,372,0,0,0,0,0,0,0,0,0,-1,1588,652,0,0
371,372,0,0,0,0,0,0,0,0,0,-1,1595,652,0,0
378,372,0,0,0,0,0,0,0,0,0,-1,1602,652,0,0
385,372,0,0,0,0,0,0,0,0,0,-1,1609,652,0,0
392,372,0,0,0,0,0,0,0,0,0,-1,1616,652,0,0
399,372,0,0,0,0,0,0,0,0,0,-1,1623,652,0,0
406,372,0,0,0,0,0,0,0,0,0,-1,1630,652,0,0
413,372,0,0,0,0,0,0,0,0,0,-1,1637,652,0,0
420,372,0,0,0,0,0,0,0,0,0,-1,1644,652,0,0
427,372,0,0,0,0,0,0,0,0,0,-1,1651,652,0,0
434,372,0,0,0,0,0,0,0,0,0,-1,1658,652,0,0
441,372,0,0,0,0,0,0,0,0,0,-1,1665,652,0,0
448,372,0,0,0,0,0,0,0,0,0,-1,1672,652,0,0
455,372,0,0,0,0,0,0,0,0,0,-1,1679,652,0,0
462,372,0,0,0,0,0,0,0,0,0,-1,1686,652,0,0
469,372,0,0,0,0,0,0,0,0,0,-1,1693,652,0,0
476,372,0,0,0,0,0,0,0,0,0,-1,1700,652,0,0
483,372,8.74182,1.53125,0,0,0,0,0,0,0,-1,1707,652,8.74186,-1.53126
490,372,9.78455,1.67096,0,0,0,0,0,0,0,-1,1714,652,9.7846,-1.67093
497,372,9.97644,1.46069,0,0,0,0,0,0,0,-1,1721,652,9.97647,-1.46071
504,372,10.1216,1.28375,0,0,0,0,0,0,0,-1,1728,652,10.1216,-1.28376
511,372,11.7367,-0.0272217,0,0,0,0,0,0,0,-1,1735,652,11.7367,0.0272326
518,372,12.0657,-0.0995483,0,0,0,0,0,0,0,-1,1742,652,12.0657,0.0995285
525,372,12.3947,-0.171814,0,0,0,0,0,0,0,-1,1749,652,12.3946,0.171824
532,372,8.4209,1.58795,0,0,0,0,0,0,0,-1,1756,652,8.42087,-1.58797
539,372,7.00952,0.295959,0,0,0,0,0,0,0,-1,1763,652,7.00955,-0.295953
546,372,5.59827,-0.996094,0,0,0,0,0,0,0,-1,1770,652,5.59823,0.996067
553,372,6.40247,-1.50079,0,0,0,0,0,0,0,-1,1777,652,6.40243,1.50079
560,372,6.52185,-1.15479,-0.0333791,-0.013372,-0.0142271,-0.0059835,-0.0407676,-1.09181,0.0254197,0.0389086,1784,652,6.52189,1.15478
567,372,6.57166,-0.816589,-0.026938,-0.0106403,-0.0116091,-0.00460554,-0.0329727,-1.09141,0.0206188,0.0190482,1791,652,6.57161,0.816617
574,372,6.62976,-0.681458,-0.0211683,-0.00843848,-0.00929788,-0.00353562,-0.0260712,-1.08554,0.0163303,0.0135172,1798,652,6.62982,0.681485
581,372,6.61255,-0.579407,-0.0160952,-0.00652289,-0.007217,-0.00264923,-0.0199688,-1.07819,0.0125232,0.0139863,1805,652,6.61253,0.579411
588,372,6.59656,-0.450928,-0.011893,-0.00488211,-0.00547684,-0.00188496,-0.0148902,-1.07007,0.00936195,0.0151847,1812,652,6.59655,0.450909
595,372,6.60046,-0.324036,-0.00851707,-0.00343047,-0.00406956,-0.00117484,-0.0107727,-1.06468,0.00682398,0.0131222,1819,652,6.60041,0.324053
602,372,6.6178,-0.191345,-0.00574515,-0.00211322,-0.0030455,-0.000383369,-0.007475,-1.05424,0.00486058,0.0131161,1826,652,6.61784,0.191322
609,372,6.60022,-0.0562134,-0.00371048,-0.0012472,-0.00240993,0.000227579,-0.00518526,-1.02163,0.00353514,0.0127214,1833,652,6.60021,0.0562247
616,372,6.59753,0.0847168,-0.00205511,-0.000579165,-0.00210857,0.000916844,-0.00355112,-0.95373,0.00272494,0.0118969,1840,652,6.59749,-0.0847209
623,372,6.61682,0.251099,-0.000964622,-5.1445e-05,-0.00202747,0.00157021,-0.00258628,-0.896151,0.00242353,0.0114135,1847,652,6.61686,-0.251125
630,372,6.57959,0.393677,0.00079473,0.000929336,-0.00197759,0.00284077,-0.0011167,-0.802408,0.00235601,0.0164757,1854,652,6.5796,-0.393666
637,372,6.55884,0.512085,0.00300747,0.00162426,-0.0017317,0.00418056,0.000451159,-0.595413,0.00264949,0.0197455,1861,652,6.55887,-0.512069
644,372,6.62964,0.695313,0.00502444,0.00220231,-0.0015177,0.0056857,0.00154105,-0.410897,0.00339542,0.0168072,1868,652,6.62959,-0.695311
651,372,6.68506,0.940125,0.00869024,0.00284746,-0.000898263,0.00882522,0.00271248,-0.149152,0.00521978,0.037612,1875,652,6.68506,-0.940144
658,372,6.7384,0.73822,0.0133029,0.00388222,0.000297395,0.0133123,0.00387285,0.0315265,0.00790665,0.0457066,1882,652,6.73835,-0.738228
665,372,6.76245,0.88739,0,0,0,0,0,0,0,-1,1889,652,6.76239,-0.887396
672,372,5.97522,1.6123,0,0,0,0,0,0,0,-1,1896,652,5.9752,-1.61229
679,372,6.66699,1.8504,0.0359138,0.00941067,0.0100486,0.0392929,0.00603156,0.324396,0.0244342,0.0479024,1903,652,6.66701,-1.85039
686,372,7.66467,1.83197,0.0464045,0.0120592,0.016128,0.0527905,0.0056731,0.37702,0.0334633,0.0480188,1910,652,7.66466,-1.83197
693,372,0,0,0,0,0,0,0,0,0,-1,1917,652,0,0
700,372,0,0,0,0,0,0,0,0,0,-1,1924,652,0,0
707,372,0,0,0,0,0,0,0,0,0,-1,1931,652,0,0
714,372,0,0,0,0,0,0,0,0,0,-1,1938,652,0,0
721,372,0,0,0,0,0,0,0,0,0,-1,1945,652,0,0
728,372,0,0,0,0,0,0,0,0,0,-1,1952,652,0,0
735,372,0,0,0,0,0,0,0,0,0,-1,1959,652,0,0
742,372,0,0,0,0,0,0,0,0,0,-1,1966,652,0,0
749,372,0,0,0,0,0,0,0,0,0,-1,1973,652,0,0
756,372,0,0,0,0,0,0,0,0,0,-1,1980,652,0,0
763,372,0,0,0,0,0,0,0,0,0,-1,1987,652,0,0
770,372,0,0,0,0,0,0,0,0,0,-1,1994,652,0,0
777,372,0,0,0,0,0,0,0,0,0,-1,2001,652,0,0
784,372,0,0,0,0,0,0,0,0,0,-1,2008,652,0,0
791,372,0,0,0,0,0,0,0,0,0,-1,2015,652,0,0
798,372,0,0,0,0,0,0,0,0,0,-1,2022,652,0,0
805,372,0,0,0,0,0,0,0,0,0,-1,2029,652,0,0
812,372,0,0,0,0,0,0,0,0,0,-1,2036,652,0,0
-700,365,0,0,0,0,0,0,0,0,0,-1,524,659,0,0
-693,365,0,0,0,0,0,0,0,0,0,-1,531,659,0,0
-686,365,0,0,0,0,0,0,0,0,0,-1,538,659,0,0
-679,365,0,0,0,0,0,0,0,0,0,-1,545,659,0,0
-672,365,0,0,0,0,0,0,0,0,0,-1,552,659,0,0
-665,365,0,0,0,0,0,0,0,0,0,-1,559,659,0,0
-658,365,0,0,0,0,0,0,0,0,0,-1,566,659,0,0
-651,365,0,0,0,0,0,0,0,0,0,-1,573,659,0,0
-644,365,0,0,0,0,0,0,0,0,0,-1,580,659,0,0
-637,365,0,0,0,0,0,0,0,0,0,-1,587,659,0,0
-630,365,0,0,0,0,0,0,0,0,0,-1,594,659,0,0
-623,365,0,0,0,0,0,0,0,0,0,-1,601,659,0,0
-616,365,0,0,0,0,0,0,0,0,0,-1,608,659,0,0
-609,365,0,0,0,0,0,0,0,0,0,-1,615,659,0,0
-602,365,0,0,0,0,0,0,0,0,0,-1,622,659,0,0
-595,365,0,0,0,0,0,0,0,0,0,-1,629,659,0,0
-588,365,0,0,0,0,0,0,0,0,0,-1,636,659,0,0
-581,365,0,0,0,0,0,0,0,0,0,-1,643,659,0,0
-574,365,-0.206177,1.79156,-0.0788636,0.0530328,0.00392872,0.0531497,-0.0789806,1.54105,0.0767698,0.0416179,650,659,-0.206169,-1.79158
-567,365,-0.492554,1.64282,-0.0642581,0.0495974,0.000316396,0.0495983,-0.064259,1.56802,0.0659169,0.0423564,657,659,-0.49254,-1.64284
-560,365,-1.28815,1.65997,0,0,0,0,0,0,0,-1,664,659,-1.28814,-1.65999
-553,365,-0.350037,1.42596,0,0,0,0,0,0,0,-1,671,659,-0.350021,-1.42594
-546,365,-0.861755,1.12561,0,0,0,0,0,0,0,-1,678,659,-0.861743,-1.12561
-539,365,-1.48499,0.849365,0,0,0,0,0,0,0,-1,685,659,-1.48497,-0.849344
-532,365,-1.60876,0.404846,-0.0169989,0.0171108,-0.00138657,0.0171671,-0.0170552,-1.53024,0.0197583,0.0477171,692,659,-1.60874,-0.404861
-525,365,-1.61761,0.0266113,-0.0102467,0.0124775,-0.00210237,0.0126703,-0.0104396,-1.47931,0.0133632,0.0378657,699,659,-1.61759,-0.0266231
-518,365,-1.67828,-0.37616,-0.00519234,0.00767703,-0.00209387,0.00800914,-0.00552445,-1.4135,0.00785739,0.0216224,706,659,-1.6783,0.376171
-511,365,-1.74475,-0.509338,-0.00332387,0.00378459,-0.00117525,0.00397385,-0.00351313,-1.41112,0.00432534,0.0170769,713,659,-1.74472,0.509311
-504,365,-1.7547,-0.631653,-0.0023236,0.00166086,-0.000553475,0.00173631,-0.00239906,-1.4353,0.00239776,0.0124206,720,659,-1.75469,0.631668
-497,365,-1.74408,-0.741455,-0.00183046,0.000134824,-0.000145469,0.000145533,-0.00184117,-1.49731,0.00127872,0.0130144,727,659,-1.74408,0.741445
-490,365,-1.72009,-0.864807,-0.00161599,-0.000751107,0.000336247,-0.000635765,-0.00173134,1.24035,0.00101127,0.0135955,734,659,-1.72009,0.864786
-483,365,-1.71802,-0.977539,-0.00151894,-0.00162349,0.000832453,-0.000737121,-0.00240531,0.754039,0.00142296,0.0122751,741,659,-1.71803,0.977539
-476,365,-1.71002,-1.09149,-0.00152576,-0.00235652,0.00151914,-0.000366234,-0.00351604,0.651944,0.00223198,0.0119769,748,659,-1.71005,1.09147
-469,365,-1.71509,-1.21466,-0.0015811,-0.00328414,0.00235515,7.17419e-05,-0.00493698,0.611932,0.00331549,0.0116806,755,659,-1.71509,1.21466
-462,365,-1.71851,-1.33002,-0.00195464,-0.00391014,0.00328275,0.000492877,-0.00635766,0.640659,0.00441192,0.0131587,762,659,-1.71853,1.33004
-455,365,-1.73859,-1.4541,-0.00244833,-0.00465204,0.00443648,0.00102108,-0.00812145,0.66368,0.00578478,0.0141081,769,659,-1.7386,1.45409
-448,365,-1.70477,-1.62964,-0.00300633,-0.00547115,0.00587931,0.00176835,-0.0102458,0.682085,0.00748992,0.0139231,776,659,-1.70475,1.62966
-441,365,-1.75366,-1.73346,-0.00379559,-0.0065706,0.00762895,0.002571,-0.0129372,0.695445,0.00959728,0.0302314,783,659,-1.75366,1.73345
-434,365,-1.76001,-1.71051,-0.00493538,-0.0074018,0.00964546,0.00355539,-0.0158926,0.721816,0.0119577,0.0355813,790,659,-1.76001,1.71053
-427,365,-1.79694,-1.5434,-0.00638383,-0.00776998,0.0117612,0.00470468,-0.0188585,0.755967,0.0143991,0.0457424,797,659,-1.79693,1.54338
-420,365,-1.61414,-0.833252,0,0,0,0,0,0,0,-1,804,659,-1.61416,0.833224
-413,365,0.141357,0.672729,0,0,0,0,0,0,0,-1,811,659,0.141365,-0.672714
-406,365,-1.75067,-0.934448,0,0,0,0,0,0,0,-1,818,659,-1.7507,0.934424
-399,365,-4.10242,-1.25439,0,0,0,0,0,0,0,-1,825,659,-4.10244,1.25438
-392,365,-3.80762,-0.790161,0,0,0,0,0,0,0,-1,832,659,-3.80764,0.790153
-385,365,-3.51282,-0.325928,0,0,0,0,0,0,0,-1,839,659,-3.51284,0.325923
-378,365,-2.88525,0.407532,0,0,0,0,0,0,0,-1,846,659,-2.88527,-0.407537
-371,365,0,0,0,0,0,0,0,0,0,-1,853,659,0,0
-364,365,0,0,0,0,0,0,0,0,0,-1,860,659,0,0
-357,365,0,0,0,0,0,0,0,0,0,-1,867,659,0,0
-350,365,0,0,0,0,0,0,0,0,0,-1,874,659,0,0
-343,365,0,0,0,0,0,0,0,0,0,-1,881,659,0,0
-336,365,0,0,0,0,0,0,0,0,0,-1,888,659,0,0
-329,365,0,0,0,0,0,0,0,0,0,-1,895,659,0,0
-322,365,0,0,0,0,0,0,0,0,0,-1,902,659,0,0
-315,365,0,0,0,0,0,0,0,0,0,-1,909,659,0,0
-308,365,0,0,0,0,0,0,0,0,0,-1,916,659,0,0
-301,365,0,0,0,0,0,0,0,0,0,-1,923,659,0,0
-294,365,0,0,0,0,0,0,0,0,0,-1,930,659,0,0
-287,365,0,0,0,0,0,0,0,0,0,-1,937,659,0,0
-280,365,0,0,0,0,0,0,0,0,0,-1,944,659,0,0
-273,365,0,0,0,0,0,0,0,0,0,-1,951,659,0,0
-266,365,0,0,0,0,0,0,0,0,0,-1,958,659,0,0
-259,365,0,0,0,0,0,0,0,0,0,-1,965,659,0,0
-252,365,0,0,0,0,0,0,0,0,0,-1,972,659,0,0
-245,365,0,0,0,0,0,0,0,0,0,-1,979,659,0,0
-238,365,0,0,0,0,0,0,0,0,0,-1,986,659,0,0
-231,365,0,0,0,0,0,0,0,0,0,-1,993,659,0,0
-224,365,0,0,0,0,0,0,0,0,0,-1,1000,659,0,0
-217,365,0,0,0,0,0,0,0,0,0,-1,1007,659,0,0
-210,365,0,0,0,0,0,0,0,0,0,-1,1014,659,0,0
-203,365,0,0,0,0,0,0,0,0,0,-1,1021,659,0,0
-196,365,0,0,0,0,0,0,0,0,0,-1,1028,659,0,0
-189,365,0,0,0,0,0,0,0,0,0,-1,1035,659,0,0
-182,365,0,0,0,0,0,0,0,0,0,-1,1042,659,0,0
-175,365,0,0,0,0,0,0,0,0,0,-1,1049,659,0,0
-168,365,0,0,0,0,0,0,0,0,0,-1,1056,659,0,0
-161,365,0,0,0,0,0,0,0,0,0,-1,1063,659,0,0
-154,365,0,0,0,0,0,0,0,0,0,-1,1070,659,0,0
-147,365,0,0,0,0,0,0,0,0,0,-1,1077,659,0,0
-140,365,0,0,0,0,0,0,0,0,0,-1,1084,659,0,0
-133,365,0,0,0,0,0,0,0,0,0,-1,1091,659,0,0
-126,365,0,0,0,0,0,0,0,0,0,-1,1098,659,0,0
-119,365,0,0,0,0,0,0,0,0,0,-1,1105,659,0,0
-112,365,0,0,0,0,0,0,0,0,0,-1,1112,659,0,0
-105,365,0,0,0,0,0,0,0,0,0,-1,1119,659,0,0
-98,365,0,0,0,0,0,0,0,0,0,-1,1126,659,0,0
-91,365,0,0,0,0,0,0,0,0,0,-1,1133,659,0,0
-84,365,0,0,0,0,0,0,0,0,0,-1,1140,659,0,0
-77,365,0,0,0,0,0,0,0,0,0,-1,1147,659,0,0
-70,365,0,0,0,0,0,0,0,0,0,-1,1154,659,0,0
-63,365,0,0,0,0,0,0,0,0,0,-1,1161,659,0,0
-56,365,0,0,0,0,0,0,0,0,0,-1,1168,659,0,0
-49,365,0,0,0,0,0,0,0,0,0,-1,1175,659,0,0
-42,365,0,0,0,0,0,0,0,0,0,-1,1182,659,0,0
-35,365,0,0,0,0,0,0,0,0,0,-1,1189,659,0,0
-28,365,0,0,0,0,0,0,0,0,0,-1,1196,659,0,0
-21,365,0,0,0,0,0,0,0,0,0,-1,1203,659,0,0
-14,365,0,0,0,0,0,0,0,0,0,-1,1210,659,0,0
-7,365,0,0,0,0,0,0,0,0,0,-1,1217,659,0,0
0,365,0,0,0,0,0,0,0,0,0,-1,1224,659,0,0
7,365,0,0,0,0,0,0,0,0,0,-1,1231,659,0,0
14,365,0,0,0,0,0,0,0,0,0,-1,1238,659,0,0
21,365,0,0,0,0,0,0,0,0,0,-1,1245,659,0,0
28,365,0,0,0,0,0,0,0,0,0,-1,1252,659,0,0
35,365,0,0,0,0,0,0,0,0,0,-1,1259,659,0,0
42,365,0,0,0,0,0,0,0,0,0,-1,1266,659,0,0
49,365,0,0,0,0,0,0,0,0,0,-1,1273,659,0,0
56,365,0,0,0,0,0,0,0,0,0,-1,1280,659,0,0
63,365,0,0,0,0,0,0,0,0,0,-1,1287,659,0,0
70,365,0,0,0,0,0,0,0,0,0,-1,1294,659,0,0
77,365,0,0,0,0,0,0,0,0,0,-1,1301,659,0,0
84,365,0,0,0,0,0,0,0,0,0,-1,1308,659,0,0
91,365,0,0,0,0,0,0,0,0,0,-1,1315,659,0,0
98,365,0,0,0,0,0,0,0,0,0,-1,1322,659,0,0
105,365,0,0,0,0,0,0,0,0,0,-1,1329,659,0,0
112,365,0,0,0,0,0,0,0,0,0,-1,1336,659,0,0
119,365,0,0,0,0,0,0,0,0,0,-1,1343,659,0,0
126,365,0,0,0,0,0,0,0,0,0,-1,1350,659,0,0
133,365,0,0,0,0,0,0,0,0,0,-1,1357,659,0,0
140,365,0,0,0,0,0,0,0,0,0,-1,1364,659,0,0
147,365,0,0,0,0,0,0,0,0,0,-1,1371,659,0,0
154,365,0,0,0,0,0,0,0,0,0,-1,1378,659,0,0
161,365,0,0,0,0,0,0,0,0,0,-1,1385,659,0,0
168,365,0,0,0,0,0,0,0,0,0,-1,1392,659,0,0
175,365,0,0,0,0,0,0,0,0,0,-1,1399,659,0,0
182,365,0,0,0,0,0,0,0,0,0,-1,1406,659,0,0
189,365,0,0,0,0,0,0,0,0,0,-1,1413,659,0,0
196,365,0,0,0,0,0,0,0,0,0,-1,1420,659,0,0
203,365,0,0,0,0,0,0,0,0,0,-1,1427,659,0,0
210,365,0,0,0,0,0,0,0,0,0,-1,1434,659,0,0
217,365,0,0,0,0,0,0,0,0,0,-1,1441,659,0,0
224,365,0,0,0,0,0,0,0,0,0,-1,1448,659,0,0
231,365,0,0,0,0,0,0,0,0,0,-1,1455,659,0,0
238,365,0,0,0,0,0,0,0,0,0,-1,1462,659,0,0
245,365,0,0,0,0,0,0,0,0,0,-1,1469,659,0,0
252,365,0,0,0,0,0,0,0,0,0,-1,1476,659,0,0
259,365,0,0,0,0,0,0,0,0,0,-1,1483,659,0,0
266,365,0,0,0,0,0,0,0,0,0,-1,1490,659,0,0
273,365,0,0,0,0,0,0,0,0,0,-1,1497,659,0,0
280,365,0,0,0,0,0,0,0,0,0,-1,1504,659,0,0
287,365,0,0,0,0,0,0,0,0,0,-1,1511,659,0,0
294,365,0,0,0,0,0,0,0,0,0,-1,1518,659,0,0
301,365,0,0,0,0,0,0,0,0,0,-1,1525,659,0,0
308,365,0,0,0,0,0,0,0,0,0,-1,1532,659,0,0
315,365,0,0,0,0,0,0,0,0,0,-1,1539,659,0,0
322,365,0,0,0,0,0,0,0,0,0,-1,1546,659,0,0
329,365,0,0,0,0,0,0,0,0,0,-1,1553,659,0,0
336,365,0,0,0,0,0,0,0,0,0,-1,1560,659,0,0
343,365,0,0,0,0,0,0,0,0,0,-1,1567,659,0,0
350,365,0,0,0,0,0,0,0,0,0,-1,1574,659,0,0
357,365,0,0,0,0,0,0,0,0,0,-1,1581,659,0,0
364,365,0,0,0,0,0,0,0,0,0,-1,1588,659,0,0
371,365,0,0,0,0,0,0,0,0,0,-1,1595,659,0,0
378,365,0,0,0,0,0,0,0,0,0,-1,1602,659,0,0
385,365,0,0,0,0,0,0,0,0,0,-1,1609,659,0,0
392,365,0,0,0,0,0,0,0,0,0,-1,1616,659,0,0
399,365,0,0,0,0,0,0,0,0,0,-1,1623,659,0,0
406,365,0,0,0,0,0,0,0,0,0,-1,1630,659,0,0
413,365,0,0,0,0,0,0,0,0,0,-1,1637,659,0,0
420,365,0,0,0,0,0,0,0,0,0,-1,1644,659,0,0
427,365,0,0,0,0,0,0,0,0,0,-1,1651,659,0,0
434,365,0,0,0,0,0,0,0,0,0,-1,1658,659,0,0
441,365,0,0,0,0,0,0,0,0,0,-1,1665,659,0,0
448,365,0,0,0,0,0,0,0,0,0,-1,1672,659,0,0
455,365,0,0,0,0,0,0,0,0,0,-1,1679,659,0,0
462,365,0,0,0,0,0,0,0,0,0,-1,1686,659,0,0
469,365,0,0,0,0,0,0,0,0,0,-1,1693,659,0,0
476,365,0,0,0,0,0,0,0,0,0,-1,1700,659,0,0
483,365,0,0,0,0,0,0,0,0,0,-1,1707,659,0,0
490,365,8.39551,0.471252,0,0,0,0,0,0,0,-1,1714,659,8.39551,-0.471241
497,365,9.89233,1.35394,0,0,0,0,0,0,0,-1,1721,659,9.89237,-1.35396
504,365,10.1414,1.18005,0,0,0,0,0,0,0,-1,1728,659,10.1413,-1.18004
511,365,10.5151,0.993896,0,0,0,0,0,0,0,-1,1735,659,10.5152,-0.993894
518,365,11.2029,0.398132,0,0,0,0,0,0,0,-1,1742,659,11.2029,-0.398136
525,365,11.3424,0.597229,0,0,0,0,0,0,0,-1,1749,659,11.3424,-0.597203
532,365,11.2446,1.00629,0,0,0,0,0,0,0,-1,1756,659,11.2446,-1.00631
539,365,9.22522,2.33722,0,0,0,0,0,0,0,-1,1763,659,9.22527,-2.3372
546,365,6.87793,0.785645,0,0,0,0,0,0,0,-1,1770,659,6.87792,-0.785622
553,365,6.3689,-1.9361,0,0,0,0,0,0,0,-1,1777,659,6.36889,1.93608
560,365,6.68115,-1.52686,0,0,0,0,0,0,0,-1,1784,659,6.68113,1.52688
567,365,7.12915,-1.0943,-0.0363357,-0.0148217,-0.0153459,-0.00683814,-0.0443193,-1.09109,0.0275511,0.0401747,1791,659,7.1292,1.09429
574,365,6.87585,-0.718018,-0.0282913,-0.0118181,-0.0123087,-0.00524445,-0.034865,-1.08026,0.0217074,0.0245693,1798,659,6.87581,0.717999
581,365,6.76001,-0.59729,-0.0212988,-0.00923599,-0.00958062,-0.00394634,-0.0265884,-1.06633,0.0165676,0.0138694,1805,659,6.76006,0.597298
588,365,6.73157,-0.463867,-0.0155195,-0.00702434,-0.00725549,-0.00286455,-0.0196793,-1.05022,0.0122766,0.0114595,1812,659,6.73151,0.463842
595,365,6.73047,-0.296936,-0.0109867,-0.00512921,-0.00537609,-0.00193588,-0.01418,-1.03481,0.00887869,0.0115082,1819,659,6.73049,0.296925
602,365,6.7312,-0.151672,-0.0074288,-0.00345403,-0.00391944,-0.00104691,-0.00983592,-1.02004,0.00623767,0.0126459,1826,659,6.73117,0.151679
609,365,6.70923,-0.0178223,-0.00481116,-0.00229929,-0.00295719,-0.000342387,-0.00676807,-0.986209,0.00440236,0.0127552,1833,659,6.70921,0.0178146
616,365,6.72839,0.11377,-0.00264716,-0.00137406,-0.00236923,0.000442645,-0.00446386,-0.916636,0.00313389,0.013179,1840,659,6.72839,-0.113751
623,365,6.7616,0.248413,-0.00122877,-0.0006735,-0.0019763,0.00104457,-0.00294684,-0.855182,0.00239009,0.0109139,1847,659,6.76157,-0.248406
630,365,6.71973,0.387085,0.000584606,0.000376052,-0.00163422,0.00211787,-0.00115721,-0.753537,0.00191779,0.0154724,1854,659,6.71976,-0.38711
637,365,6.69958,0.503662,0.00255957,0.00114111,-0.00132981,0.00335746,0.000343217,-0.54042,0.00213312,0.0203303,1861,659,6.69954,-0.503644
644,365,6.75391,0.646667,0.00426671,0.00161825,-0.00115975,0.00470276,0.0011822,-0.359639,0.00282481,0.0142554,1868,659,6.75395,-0.646674
651,365,6.81201,0.827393,0.00739337,0.00211289,-0.000650714,0.00747237,0.00203389,-0.120822,0.00446095,0.0228403,1875,659,6.81199,-0.827406
658,365,6.67285,0.858215,0.0112347,0.0029055,0.000268473,0.0112434,0.00289685,0.0321881,0.00674074,0.0389971,1882,659,6.67283,-0.858203
665,365,6.71069,0.862854,0.0163503,0.00388344,0.0018167,0.0166096,0.0036241,0.141795,0.0100845,0.0498305,1889,659,6.71069,-0.862838
672,365,6.59277,1.10626,0,0,0,0,0,0,0,-1,1896,659,6.59279,-1.10623
679,365,6.9209,1.25885,0.0304212,0.00669374,0.00733214,0.0325041,0.00461085,0.276785,0.0203077,0.0466324,1903,659,6.92087,-1.25886
686,365,7.33899,1.90839,0.0393197,0.00831915,0.0115391,0.0431432,0.00449562,0.319968,0.0273869,0.0445306,1910,659,7.33897,-1.90838
693,365,7.0282,2.28607,0.0492697,0.00975748,0.0166302,0.0553374,0.00368983,0.349849,0.0357252,0.0476758,1917,659,7.02822,-2.28607
700,365,0,0,0,0,0,0,0,0,0,-1,1924,659,0,0
707,365,0,0,0,0,0,0,0,0,0,-1,1931,659,0,0
714,365,0,0,0,0,0,0,0,0,0,-1,1938,659,0,0
721,365,0,0,0,0,0,0,0,0,0,-1,1945,659,0,0
728,365,0,0,0,0,0,0,0,0,0,-1,1952,659,0,0
735,365,0,0,0,0,0,0,0,0,0,-1,1959,659,0,0
742,365,0,0,0,0,0,0,0,0,0,-1,1966,659,0,0
749,365,0,0,0,0,0,0,0,0,0,-1,1973,659,0,0
756,365,0,0,0,0,0,0,0,0,0,-1,1980,659,0,0
763,365,0,0,0,0,0,0,0,0,0,-1,1987,659,0,0
770,365,0,0,0,0,0,0,0,0,0,-1,1994,659,0,0
777,365,0,0,0,0,0,0,0,0,0,-1,2001,659,0,0
784,365,0,0,0,0,0,0,0,0,0,-1,2008,659,0,0
791,365,0,0,0,0,0,0,0,0,0,-1,2015,659,0,0
798,365,0,0,0,0,0,0,0,0,0,-1,2022,659,0,0
805,365,0,0,0,0,0,0,0,0,0,-1,2029,659,0,0
812,365,0,0,0,0,0,0,0,0,0,-1,2036,659,0,0
-700,358,0,0,0,0,0,0,0,0,0,-1,524,666,0,0
-693,358,0,0,0,0,0,0,0,0,0,-1,531,666,0,0
-686,358,0,0,0,0,0,0,0,0,0,-1,538,666,0,0
-679,358,0,0,0,0,0,0,0,0,0,-1,545,666,0,0
-672,358,0,0,0,0,0,0,0,0,0,-1,552,666,0,0
-665,358,0,0,0,0,0,0,0,0,0,-1,559,666,0,0
-658,358,0,0,0,0,0,0,0,0,0,-1,566,666,0,0
-651,358,0,0,0,0,0,0,0,0,0,-1,573,666,0,0
-644,358,0,0,0,0,0,0,0,0,0,-1,580,666,0,0
-637,358,0,0,0,0,0,0,0,0,0,-1,587,666,0,0
-630,358,0,0,0,0,0,0,0,0,0,-1,594,666,0,0
-623,358,0,0,0,0,0,0,0,0,0,-1,601,666,0,0
-616,358,0,0,0,0,0,0,0,0,0,-1,608,666,0,0
-609,358,0,0,0,0,0,0,0,0,0,-1,615,666,0,0
-602,358,0,0,0,0,0,0,0,0,0,-1,622,666,0,0
-595,358,0,0,0,0,0,0,0,0,0,-1,629,666,0,0
-588,358,0,0,0,0,0,0,0,0,0,-1,636,666,0,0
-581,358,1.00415,0.980957,-0.100446,0.0492464,0.0215944,0.0522993,-0.103499,1.43035,0.0915547,0.048315,643,666,1.00418,-0.980938
-574,358,-0.0405884,1.61487,-0.0774144,0.0486591,0.0116393,0.0497247,-0.07848,1.4795,0.074637,0.0444079,650,666,-0.0406081,-1.61489
-567,358,-1.23169,1.71698,0,0,0,0,0,0,0,-1,657,666,-1.23166,-1.71697
-560,358,-1.41174,1.35059,0,0,0,0,0,0,0,-1,664,666,-1.41174,-1.35058
-553,358,-1.30542,0.976074,0,0,0,0,0,0,0,-1,671,666,-1.30543,-0.976052
-546,358,-1.51166,0.680603,0,0,0,0,0,0,0,-1,678,666,-1.51166,-0.680579
-539,358,-1.90186,0.157898,0,0,0,0,0,0,0,-1,685,666,-1.90187,-0.157926
-532,358,-1.90698,-0.0859375,-0.0145584,0.0162256,-0.000824406,0.0162477,-0.0145805,-1.54404,0.0178073,0.040706,692,666,-1.90696,0.085956
-525,358,-1.83405,-0.273438,-0.00861367,0.0119954,-0.00167055,0.01213,-0.0087482,-1.49044,0.0121066,0.0242245,699,666,-1.83404,0.273456
-518,358,-1.82288,-0.329285,-0.00417104,0.00759381,-0.0018222,0.00786957,-0.0044468,-1.4206,0.00720181,0.0189982,706,666,-1.82289,0.32931
-511,358,-1.85529,-0.484741,-0.00250106,0.00396834,-0.00123448,0.0041959,-0.00272862,-1.38851,0.00402768,0.0155643,713,666,-1.85531,0.484761
-504,358,-1.85931,-0.593445,-0.00163681,0.00174954,-0.000639488,0.00186628,-0.00175355,-1.39023,0.00209025,0.0116515,720,666,-1.85933,0.593449
-497,358,-1.8573,-0.730774,-0.00129163,4.09485e-05,-0.00018614,6.64609e-05,-0.00131715,-1.43459,0.000901068,0.0119002,727,666,-1.85733,0.730764
-490,358,-1.84009,-0.859985,-0.00119368,-0.00104773,0.000429836,-0.000684718,-0.00155669,0.869483,0.000900921,0.0111005,734,666,-1.84009,0.85999
-483,358,-1.84711,-0.974731,-0.00118872,-0.00218463,0.00106331,-0.000512537,-0.00286081,0.566412,0.0017614,0.00995655,741,666,-1.8471,0.974713
-476,358,-1.84253,-1.08441,-0.00124209,-0.00304739,0.00189809,-4.29526e-05,-0.00424653,0.563448,0.00281681,0.0105845,748,666,-1.84254,1.08441
-469,358,-1.84253,-1.1991,-0.00134661,-0.00410416,0.00290716,0.000492167,-0.00594293,0.563972,0.00413578,0.012004,755,666,-1.8425,1.19912
-462,358,-1.83606,-1.32764,-0.00172564,-0.00481245,0.00404277,0.00105832,-0.0075964,0.603052,0.00545139,0.0158163,762,666,-1.83604,1.32763
-455,358,-1.83209,-1.48956,-0.00219493,-0.00553757,0.00545187,0.00183605,-0.00956855,0.636666,0.00707096,0.016641,769,666,-1.83209,1.48958
-448,358,-1.76257,-1.63861,-0.00264741,-0.00623287,0.00719411,0.00297398,-0.0118543,0.663288,0.00905839,0.0298989,776,666,-1.76258,1.63858
-441,358,-2.15564,-1.76306,-0.00312297,-0.0069737,0.00928196,0.00443121,-0.0145279,0.683133,0.0114518,0.0432901,783,666,-2.15561,1.76305
-434,358,-2.45654,-1.83044,0,0,0,0,0,0,0,-1,790,666,-2.45657,1.83043
-427,358,-1.83197,-1.55011,0,0,0,0,0,0,0,-1,797,666,-1.83199,1.5501
-420,358,0.200195,1.08234,0,0,0,0,0,0,0,-1,804,666,0.200174,-1.08231
-413,358,0.0325317,0.161072,0,0,0,0,0,0,0,-1,811,666,0.0325501,-0.161098
-406,358,-0.505615,0.0419312,0,0,0,0,0,0,0,-1,818,666,-0.50561,-0.0419371
-399,358,-1.31213,0.190735,0,0,0,0,0,0,0,-1,825,666,-1.31215,-0.190763
-392,358,-3.73914,-0.832214,0,0,0,0,0,0,0,-1,832,666,-3.73915,0.832202
-385,358,-2.18787,1.63947,0,0,0,0,0,0,0,-1,839,666,-2.18789,-1.63945
-378,358,0,0,0,0,0,0,0,0,0,-1,846,666,0,0
-371,358,0,0,0,0,0,0,0,0,0,-1,853,666,0,0
-364,358,0,0,0,0,0,0,0,0,0,-1,860,666,0,0
-357,358,0,0,0,0,0,0,0,0,0,-1,867,666,0,0
-350,358,0,0,0,0,0,0,0,0,0,-1,874,666,0,0
-343,358,0,0,0,0,0,0,0,0,0,-1,881,666,0,0
-336,358,0,0,0,0,0,0,0,0,0,-1,888,666,0,0
-329,358,0,0,0,0,0,0,0,0,0,-1,895,666,0,0
-322,358,0,0,0,0,0,0,0,0,0,-1,902,666,0,0
-315,358,0,0,0,0,0,0,0,0,0,-1,909,666,0,0
-308,358,0,0,0,0,0,0,0,0,0,-1,916,666,0,0
-301,358,0,0,0,0,0,0,0,0,0,-1,923,666,0,0
-294,358,0,0,0,0,0,0,0,0,0,-1,930,666,0,0
-287,358,0,0,0,0,0,0,0,0,0,-1,937,666,0,0
-280,358,0,0,0,0,0,0,0,0,0,-1,944,666,0,0
-273,358,0,0,0,0,0,0,0,0,0,-1,951,666,0,0
-266,358,0,0,0,0,0,0,0,0,0,-1,958,666,0,0
-259,358,0,0,0,0,0,0,0,0,0,-1,965,666,0,0
-252,358,0,0,0,0,0,0,0,0,0,-1,972,666,0,0
-245,358,0,0,0,0,0,0,0,0,0,-1,979,666,0,0
-238,358,0,0,0,0,0,0,0,0,0,-1,986,666,0,0
-231,358,0,0,0,0,0,0,0,0,0,-1,993,666,0,0
-224,358,0,0,0,0,0,0,0,0,0,-1,1000,666,0,0
-217,358,0,0,0,0,0,0,0,0,0,-1,1007,666,0,0
-210,358,0,0,0,0,0,0,0,0,0,-1,1014,666,0,0
-203,358,0,0,0,0,0,0,0,0,0,-1,1021,666,0,0
-196,358,0,0,0,0,0,0,0,0,0,-1,1028,666,0,0
-189,358,0,0,0,0,0,0,0,0,0,-1,1035,666,0,0
-182,358,0,0,0,0,0,0,0,0,0,-1,1042,666,0,0
-175,358,0,0,0,0,0,0,0,0,0,-1,1049,666,0,0
-168,358,0,0,0,0,0,0,0,0,0,-1,1056,666,0,0
-161,358,0,0,0,0,0,0,0,0,0,-1,1063,666,0,0
-154,358,0,0,0,0,0,0,0,0,0,-1,1070,666,0,0
-147,358,0,0,0,0,0,0,0,0,0,-1,1077,666,0,0
-140,358,0,0,0,0,0,0,0,0,0,-1,1084,666,0,0
-133,358,0,0,0,0,0,0,0,0,0,-1,1091,666,0,0
-126,358,0,0,0,0,0,0,0,0,0,-1,1098,666,0,0
-119,358,0,0,0,0,0,0,0,0,0,-1,1105,666,0,0
-112,358,0,0,0,0,0,0,0,0,0,-1,1112,666,0,0
-105,358,0,0,0,0,0,0,0,0,0,-1,1119,666,0,0
-98,358,0,0,0,0,0,0,0,0,0,-1,1126,666,0,0
-91,358,0,0,0,0,0,0,0,0,0,-1,1133,666,0,0
-84,358,0,0,0,0,0,0,0,0,0,-1,1140,666,0,0
-77,358,0,0,0,0,0,0,0,0,0,-1,1147,666,0,0
-70,358,0,0,0,0,0,0,0,0,0,-1,1154,666,0,0
-63,358,0,0,0,0,0,0,0,0,0,-1,1161,666,0,0
-56,358,0,0,0,0,0,0,0,0,0,-1,1168,666,0,0
-49,358,0,0,0,0,0,0,0,0,0,-1,1175,666,0,0
-42,358,0,0,0,0,0,0,0,0,0,-1,1182,666,0,0
-35,358,0,0,0,0,0,0,0,0,0,-1,1189,666,0,0
-28,358,0,0,0,0,0,0,0,0,0,-1,1196,666,0,0
-21,358,0,0,0,0,0,0,0,0,0,-1,1203,666,0,0
-14,358,0,0,0,0,0,0,0,0,0,-1,1210,666,0,0
-7,358,0,0,0,0,0,0,0,0,0,-1,1217,666,0,0
0,358,0,0,0,0,0,0,0,0,0,-1,1224,666,0,0
7,358,0,0,0,0,0,0,0,0,0,-1,1231,666,0,0
14,358,0,0,0,0,0,0,0,0,0,-1,1238,666,0,0
21,358,0,0,0,0,0,0,0,0,0,-1,1245,666,0,0
28,358,0,0,0,0,0,0,0,0,0,-1,1252,666,0,0
35,358,0,0,0,0,0,0,0,0,0,-1,1259,666,0,0
42,358,0,0,0,0,0,0,0,0,0,-1,1266,666,0,0
49,358,0,0,0,0,0,0,0,0,0,-1,1273,666,0,0
56,358,0,0,0,0,0,0,0,0,0,-1,1280,666,0,0
63,358,0,0,0,0,0,0,0,0,0,-1,1287,666,0,0
70,358,0,0,0,0,0,0,0,0,0,-1,1294,666,0,0
77,358,0,0,0,0,0,0,0,0,0,-1,1301,666,0,0
84,358,0,0,0,0,0,0,0,0,0,-1,1308,666,0,0
91,358,0,0,0,0,0,0,0,0,0,-1,1315,666,0,0
98,358,0,0,0,0,0,0,0,0,0,-1,1322,666,0,0
105,358,0,0,0,0,0,0,0,0,0,-1,1329,666,0,0
112,358,0,0,0,0,0,0,0,0,0,-1,1336,666,0,0
119,358,0,0,0,0,0,0,0,0,0,-1,1343,666,0,0
126,358,0,0,0,0,0,0,0,0,0,-1,1350,666,0,0
133,358,0,0,0,0,0,0,0,0,0,-1,1357,666,0,0
140,358,0,0,0,0,0,0,0,0,0,-1,1364,666,0,0
147,358,0,0,0,0,0,0,0,0,0,-1,1371,666,0,0
154,358,0,0,0,0,0,0,0,0,0,-1,1378,666,0,0
161,358,0,0,0,0,0,0,0,0,0,-1,1385,666,0,0
168,358,0,0,0,0,0,0,0,0,0,-1,1392,666,0,0
175,358,0,0,0,0,0,0,0,0,0,-1,1399,666,0,0
182,358,0,0,0,0,0,0,0,0,0,-1,1406,666,0,0
189,358,0,0,0,0,0,0,0,0,0,-1,1413,666,0,0
196,358,0,0,0,0,0,0,0,0,0,-1,1420,666,0,0
203,358,0,0,0,0,0,0,0,0,0,-1,1427,666,0,0
210,358,0,0,0,0,0,0,0,0,0,-1,1434,666,0,0
217,358,0,0,0,0,0,0,0,0,0,-1,1441,666,0,0
224,358,0,0,0,0,0,0,0,0,0,-1,1448,666,0,0
231,358,0,0,0,0,0,0,0,0,0,-1,1455,666,0,0
238,358,0,0,0,0,0,0,0,0,0,-1,1462,666,0,0
245,358,0,0,0,0,0,0,0,0,0,-1,1469,666,0,0
252,358,0,0,0,0,0,0,0,0,0,-1,1476,666,0,0
259,358,0,0,0,0,0,0,0,0,0,-1,1483,666,0,0
266,358,0,0,0,0,0,0,0,0,0,-1,1490,666,0,0
273,358,0,0,0,0,0,0,0,0,0,-1,1497,666,0,0
280,358,0,0,0,0,0,0,0,0,0,-1,1504,666,0,0
287,358,0,0,0,0,0,0,0,0,0,-1,1511,666,0,0
294,358,0,0,0,0,0,0,0,0,0,-1,1518,666,0,0
301,358,0,0,0,0,0,0,0,0,0,-1,1525,666,0,0
308,358,0,0,0,0,0,0,0,0,0,-1,1532,666,0,0
315,358,0,0,0,0,0,0,0,0,0,-1,1539,666,0,0
322,358,0,0,0,0,0,0,0,0,0,-1,1546,666,0,0
329,358,0,0,0,0,0,0,0,0,0,-1,1553,666,0,0
336,358,0,0,0,0,0,0,0,0,0,-1,1560,666,0,0
343,358,0,0,0,0,0,0,0,0,0,-1,1567,666,0,0
350,358,0,0,0,0,0,0,0,0,0,-1,1574,666,0,0
357,358,0,0,0,0,0,0,0,0,0,-1,1581,666,0,0
364,358,0,0,0,0,0,0,0,0,0,-1,1588,666,0,0
371,358,0,0,0,0,0,0,0,0,0,-1,1595,666,0,0
378,358,0,0,0,0,0,0,0,0,0,-1,1602,666,0,0
385,358,0,0,0,0,0,0,0,0,0,-1,1609,666,0,0
392,358,0,0,0,0,0,0,0,0,0,-1,1616,666,0,0
399,358,0,0,0,0,0,0,0,0,0,-1,1623,666,0,0
406,358,0,0,0,0,0,0,0,0,0,-1,1630,666,0,0
413,358,0,0,0,0,0,0,0,0,0,-1,1637,666,0,0
420,358,0,0,0,0,0,0,0,0,0,-1,1644,666,0,0
427,358,0,0,0,0,0,0,0,0,0,-1,1651,666,0,0
434,358,0,0,0,0,0,0,0,0,0,-1,1658,666,0,0
441,358,0,0,0,0,0,0,0,0,0,-1,1665,666,0,0
448,358,0,0,0,0,0,0,0,0,0,-1,1672,666,0,0
455,358,0,0,0,0,0,0,0,0,0,-1,1679,666,0,0
462,358,0,0,0,0,0,0,0,0,0,-1,1686,666,0,0
469,358,0,0,0,0,0,0,0,0,0,-1,1693,666,0,0
476,358,0,0,0,0,0,0,0,0,0,-1,1700,666,0,0
483,358,0,0,0,0,0,0,0,0,0,-1,1707,666,0,0
490,358,0,0,0,0,0,0,0,0,0,-1,1714,666,0,0
497,358,8.57239,1.1322,0,0,0,0,0,0,0,-1,1721,666,8.57234,-1.13219
504,358,10.5972,0.832947,0,0,0,0,0,0,0,-1,1728,666,10.5972,-0.832968
511,358,10.6873,0.868469,0,0,0,0,0,0,0,-1,1735,666,10.6872,-0.868484
518,358,10.7079,0.866211,0,0,0,0,0,0,0,-1,1742,666,10.7079,-0.8662
525,358,10.797,0.692993,0,0,0,0,0,0,0,-1,1749,666,10.797,-0.693009
532,358,8.79846,3.67383,0,0,0,0,0,0,0,-1,1756,666,8.79845,-3.67385
539,358,9.27979,2.7171,0,0,0,0,0,0,0,-1,1763,666,9.2798,-2.71711
546,358,9.7301,1.9256,0,0,0,0,0,0,0,-1,1770,666,9.73008,-1.92562
553,358,7.63391,0.585754,0,0,0,0,0,0,0,-1,1777,666,7.63393,-0.585738
560,358,9.43408,-0.707458,0,0,0,0,0,0,0,-1,1784,666,9.43408,0.707442
567,358,7.75635,-1.37787,0,0,0,0,0,0,0,-1,1791,666,7.75635,1.37784
574,358,7.31653,-0.633301,-0.0367915,-0.0160115,-0.0159313,-0.00738156,-0.0454214,-1.07435,0.028145,0.0415431,1798,666,7.31652,0.633319
581,358,6.91858,-0.555725,-0.0273898,-0.0124864,-0.0123492,-0.00551485,-0.0343613,-1.05686,0.0213085,0.0206587,1805,666,6.91853,0.555709
588,358,6.84436,-0.456726,-0.0196997,-0.00950137,-0.00929107,-0.00400217,-0.0251989,-1.03637,0.0156369,0.0123783,1812,666,6.84432,0.456711
595,358,6.86096,-0.290527,-0.0137672,-0.00700131,-0.00681889,-0.00277233,-0.0179962,-1.01567,0.0111885,0.00983914,1819,666,6.86102,0.29055
602,358,6.85278,-0.144043,-0.00925581,-0.0048692,-0.00485925,-0.00173119,-0.0123938,-0.997393,0.0077502,0.0104219,1826,666,6.85282,0.144068
609,358,6.8313,-0.0188599,-0.00595088,-0.00334847,-0.00352547,-0.000891739,-0.00840762,-0.962186,0.00533274,0.0133448,1833,666,6.83128,0.0188313
616,358,6.84204,0.119873,-0.00320584,-0.00210689,-0.00262988,3.0305e-05,-0.00534303,-0.888385,0.00357217,0.0131446,1840,666,6.84204,-0.119852
623,358,6.8717,0.250732,-0.00143171,-0.00121276,-0.00193655,0.000617406,-0.00326188,-0.813634,0.00240693,0.0136552,1847,666,6.87169,-0.250744
630,358,6.85266,0.364197,0.000416092,-0.000117797,-0.00136017,0.00153527,-0.00123697,-0.688501,0.00160364,0.0178752,1854,666,6.85272,-0.364172
637,358,6.82471,0.47406,0.00213933,0.000690766,-0.00106367,0.0027019,0.000128197,-0.486494,0.00176009,0.0242092,1861,666,6.82469,-0.474078
644,358,6.87354,0.623413,0.00356355,0.00104985,-0.000995469,0.00391002,0.000703383,-0.334933,0.00240673,0.019659,1868,666,6.87358,-0.623417
651,358,6.91333,0.79895,0.00620126,0.00138436,-0.000652439,0.00628807,0.00129756,-0.132273,0.00383344,0.0180475,1875,666,6.91331,-0.798926
658,358,6.77283,0.931824,0.0093543,0.00192302,-6.40535e-05,0.00935485,0.00192246,-0.00861858,0.00570477,0.0268493,1882,666,6.77284,-0.931848
665,358,6.62927,0.969666,0.0135366,0.00251457,0.000901213,0.0136098,0.00244137,0.0810475,0.00837881,0.0409324,1889,666,6.62928,-0.969682
672,358,6.52686,1.09418,0,0,0,0,0,0,0,-1,1896,666,6.52686,-1.09418
679,358,6.61511,1.41125,0.0252221,0.00398181,0.00430008,0.0260596,0.00314429,0.192361,0.0164256,0.0454849,1903,666,6.61506,-1.41123
686,358,6.61108,1.94092,0.0326971,0.00460829,0.0068062,0.0342594,0.00304597,0.225634,0.021895,0.0489194,1910,666,6.61112,-1.9409
693,358,6.63696,2.52692,0.0411409,0.00478538,0.00967724,0.0435564,0.00236994,0.244602,0.0282807,0.0477613,1917,666,6.637,-2.5269
700,358,0,0,0,0,0,0,0,0,0,-1,1924,666,0,0
707,358,0,0,0,0,0,0,0,0,0,-1,1931,666,0,0
714,358,0,0,0,0,0,0,0,0,0,-1,1938,666,0,0
721,358,0,0,0,0,0,0,0,0,0,-1,1945,666,0,0
728,358,0,0,0,0,0,0,0,0,0,-1,1952,666,0,0
735,358,0,0,0,0,0,0,0,0,0,-1,1959,666,0,0
742,358,0,0,0,0,0,0,0,0,0,-1,1966,666,0,0
749,358,0,0,0,0,0,0,0,0,0,-1,1973,666,0,0
756,358,0,0,0,0,0,0,0,0,0,-1,1980,666,0,0
763,358,0,0,0,0,0,0,0,0,0,-1,1987,666,0,0
770,358,0,0,0,0,0,0,0,0,0,-1,1994,666,0,0
777,358,0,0,0,0,0,0,0,0,0,-1,2001,666,0,0
784,358,0,0,0,0,0,0,0,0,0,-1,2008,666,0,0
791,358,0,0,0,0,0,0,0,0,0,-1,2015,666,0,0
798,358,0,0,0,0,0,0,0,0,0,-1,2022,666,0,0
805,358,0,0,0,0,0,0,0,0,0,-1,2029,666,0,0
812,358,0,0,0,0,0,0,0,0,0,-1,2036,666,0,0
-700,351,0,0,0,0,0,0,0,0,0,-1,524,673,0,0
-693,351,0,0,0,0,0,0,0,0,0,-1,531,673,0,0
-686,351,0,0,0,0,0,0,0,0,0,-1,538,673,0,0
-679,351,0,0,0,0,0,0,0,0,0,-1,545,673,0,0
-672,351,0,0,0,0,0,0,0,0,0,-1,552,673,0,0
-665,351,0,0,0,0,0,0,0,0,0,-1,559,673,0,0
-658,351,0,0,0,0,0,0,0,0,0,-1,566,673,0,0
-651,351,0,0,0,0,0,0,0,0,0,-1,573,673,0,0
-644,351,0,0,0,0,0,0,0,0,0,-1,580,673,0,0
-637,351,0,0,0,0,0,0,0,0,0,-1,587,673,0,0
-630,351,0,0,0,0,0,0,0,0,0,-1,594,673,0,0
-623,351,0,0,0,0,0,0,0,0,0,-1,601,673,0,0
-616,351,0,0,0,0,0,0,0,0,0,-1,608,673,0,0
-609,351,0,0,0,0,0,0,0,0,0,-1,615,673,0,0
-602,351,0,0,0,0,0,0,0,0,0,-1,622,673,0,0
-595,351,0,0,0,0,0,0,0,0,0,-1,629,673,0,0
-588,351,0,0,0,0,0,0,0,0,0,-1,636,673,0,0
-581,351,0.833984,0.934448,-0.0939614,0.045653,0.0237079,0.049569,-0.0978774,1.4071,0.0866378,0.0459795,643,673,0.834003,-0.93447
-574,351,-0.127014,1.37756,-0.0729025,0.0440317,0.0151771,0.0459694,-0.0748402,1.44381,0.0704103,0.0472612,650,673,-0.126992,-1.37757
-567,351,-1.39056,1.40344,0,0,0,0,0,0,0,-1,657,673,-1.39058,-1.40346
-560,351,-1.5354,1.02509,-0.0444319,0.0357692,0.00603249,0.0362204,-0.0448831,1.49614,0.0469141,0.0482605,664,673,-1.53538,-1.02509
-553,351,-1.53412,0.581116,-0.0339239,0.0301216,0.00356198,0.0303191,-0.0341214,1.51541,0.0372263,0.0464319,671,673,-1.53412,-0.581086
-546,351,-1.68848,0.381653,0,0,0,0,0,0,0,-1,678,673,-1.68845,-0.38163
-539,351,-1.80273,0.229004,-0.0179619,0.0191966,0.000657937,0.0192082,-0.0179736,1.5531,0.0214709,0.0436301,685,673,-1.8027,-0.229008
-532,351,-1.87732,-0.0266724,-0.0123792,0.0144287,-8.7781e-05,0.014429,-0.0123795,-1.56752,0.0154929,0.0276649,692,673,-1.87733,0.0266982
-525,351,-1.94537,-0.25415,-0.00722998,0.0106511,-0.000960357,0.0107025,-0.00728141,-1.51729,0.0104454,0.0161253,699,673,-1.94535,0.254121
-518,351,-1.97333,-0.346497,-0.00338278,0.00675645,-0.00122864,0.0069032,-0.00352954,-1.45191,0.00612742,0.0113759,706,673,-1.97335,0.34651
-511,351,-1.96039,-0.461426,-0.00188626,0.00349481,-0.000932895,0.00365195,-0.00204341,-1.40392,0.00333164,0.0112729,713,673,-1.9604,0.461418
-504,351,-1.97174,-0.591675,-0.00110085,0.00129604,-0.000415396,0.00136599,-0.0011708,-1.40397,0.00146606,0.0107116,720,673,-1.97175,0.591659
-497,351,-1.97437,-0.713745,-0.000779091,-0.00045556,6.77193e-05,-0.000441957,-0.000792694,1.37257,0.000458671,0.0104973,727,673,-1.97436,0.713739
-490,351,-1.9704,-0.832642,-0.000673896,-0.0016658,0.00077355,-0.000250964,-0.00208873,0.500338,0.00131683,0.00936417,734,673,-1.97042,0.832669
-483,351,-1.96729,-0.966553,-0.00062485,-0.00299522,0.00150683,0.000107049,-0.00372712,0.452158,0.00252118,0.0106878,741,673,-1.96731,0.966524
-476,351,-1.97882,-1.08136,-0.000579173,-0.00392226,0.00245789,0.000721707,-0.00522314,0.486785,0.00374591,0.0105112,748,673,-1.97881,1.08138
-469,351,-1.97186,-1.18304,-0.00056878,-0.00504702,0.00362422,0.00145222,-0.00706802,0.508688,0.0052633,0.0121699,755,673,-1.97186,1.18304
-462,351,-1.95251,-1.32458,-0.000750488,-0.00578129,0.00496991,0.00230432,-0.0088361,0.55113,0.00679044,0.0152932,762,673,-1.95254,1.32457
-455,351,-1.95422,-1.52594,-0.000946947,-0.00638599,0.00664555,0.003514,-0.0108469,0.591182,0.00864408,0.0203169,769,673,-1.95423,1.52595
-448,351,-2.00146,-1.39575,-0.000998064,-0.00678887,0.00871626,0.00529112,-0.0130781,0.62504,0.0109185,0.0398371,776,673,-2.00144,1.39576
-441,351,-2.49548,-1.76636,0,0,0,0,0,0,0,-1,783,673,-2.49547,1.76637
-434,351,-2.4483,-2.26654,0,0,0,0,0,0,0,-1,790,673,-2.44832,2.26653
-427,351,-2.05157,-2.7785,0,0,0,0,0,0,0,-1,797,673,-2.05157,2.77848
-420,351,-1.06989,-2.43665,0,0,0,0,0,0,0,-1,804,673,-1.06991,2.43663
-413,351,-0.392334,-2.06671,0,0,0,0,0,0,0,-1,811,673,-0.392363,2.06672
-406,351,-1.86316,-2.58105,0,0,0,0,0,0,0,-1,818,673,-1.86313,2.58106
-399,351,1.00952,-1.53455,0,0,0,0,0,0,0,-1,825,673,1.00954,1.53457
-392,351,-1.02197,0.877136,0,0,0,0,0,0,0,-1,832,673,-1.02195,-0.877143
-385,351,-1.47205,1.04437,0,0,0,0,0,0,0,-1,839,673,-1.47207,-1.04435
-378,351,0,0,0,0,0,0,0,0,0,-1,846,673,0,0
-371,351,0,0,0,0,0,0,0,0,0,-1,853,673,0,0
-364,351,0,0,0,0,0,0,0,0,0,-1,860,673,0,0
-357,351,0,0,0,0,0,0,0,0,0,-1,867,673,0,0
-350,351,0,0,0,0,0,0,0,0,0,-1,874,673,0,0
-343,351,0,0,0,0,0,0,0,0,0,-1,881,673,0,0
-336,351,0,0,0,0,0,0,0,0,0,-1,888,673,0,0
-329,351,0,0,0,0,0,0,0,0,0,-1,895,673,0,0
-322,351,0,0,0,0,0,0,0,0,0,-1,902,673,0,0
-315,351,0,0,0,0,0,0,0,0,0,-1,909,673,0,0
-308,351,0,0,0,0,0,0,0,0,0,-1,916,673,0,0
-301,351,0,0,0,0,0,0,0,0,0,-1,923,673,0,0
-294,351,0,0,0,0,0,0,0,0,0,-1,930,673,0,0
-287,351,0,0,0,0,0,0,0,0,0,-1,937,673,0,0
-280,351,0,0,0,0,0,0,0,0,0,-1,944,673,0,0
-273,351,0,0,0,0,0,0,0,0,0,-1,951,673,0,0
-266,351,0,0,0,0,0,0,0,0,0,-1,958,673,0,0
-259,351,0,0,0,0,0,0,0,0,0,-1,965,673,0,0
-252,351,0,0,0,0,0,0,0,0,0,-1,972,673,0,0
-245,351,0,0,0,0,0,0,0,0,0,-1,979,673,0,0
-238,351,0,0,0,0,0,0,0,0,0,-1,986,673,0,0
-231,351,0,0,0,0,0,0,0,0,0,-1,993,673,0,0
-224,351,0,0,0,0,0,0,0,0,0,-1,1000,673,0,0
-217,351,0,0,0,0,0,0,0,0,0,-1,1007,673,0,0
-210,351,0,0,0,0,0,0,0,0,0,-1,1014,673,0,0
-203,351,0,0,0,0,0,0,0,0,0,-1,1021,673,0,0
-196,351,0,0,0,0,0,0,0,0,0,-1,1028,673,0,0
-189,351,0,0,0,0,0,0,0,0,0,-1,1035,673,0,0
-182,351,0,0,0,0,0,0,0,0,0,-1,1042,673,0,0
-175,351,0,0,0,0,0,0,0,0,0,-1,1049,673,0,0
-168,351,0,0,0,0,0,0,0,0,0,-1,1056,673,0,0
-161,351,0,0,0,0,0,0,0,0,0,-1,1063,673,0,0
-154,351,0,0,0,0,0,0,0,0,0,-1,1070,673,0,0
-147,351,0,0,0,0,0,0,0,0,0,-1,1077,673,0,0
-140,351,0,0,0,0,0,0,0,0,0,-1,1084,673,0,0
-133,351,0,0,0,0,0,0,0,0,0,-1,1091,673,0,0
-126,351,0,0,0,0,0,0,0,0,0,-1,1098,673,0,0
-119,351,0,0,0,0,0,0,0,0,0,-1,1105,673,0,0
-112,351,0,0,0,0,0,0,0,0,0,-1,1112,673,0,0
-105,351,0,0,0,0,0,0,0,0,0,-1,1119,673,0,0
-98,351,0,0,0,0,0,0,0,0,0,-1,1126,673,0,0
-91,351,0,0,0,0,0,0,0,0,0,-1,1133,673,0,0
-84,351,0,0,0,0,0,0,0,0,0,-1,1140,673,0,0
-77,351,0,0,0,0,0,0,0,0,0,-1,1147,673,0,0
-70,351,0,0,0,0,0,0,0,0,0,-1,1154,673,0,0
-63,351,0,0,0,0,0,0,0,0,0,-1,1161,673,0,0
-56,351,0,0,0,0,0,0,0,0,0,-1,1168,673,0,0
-49,351,0,0,0,0,0,0,0,0,0,-1,1175,673,0,0
-42,351,0,0,0,0,0,0,0,0,0,-1,1182,673,0,0
-35,351,0,0,0,0,0,0,0,0,0,-1,1189,673,0,0
-28,351,0,0,0,0,0,0,0,0,0,-1,1196,673,0,0
-21,351,0,0,0,0,0,0,0,0,0,-1,1203,673,0,0
-14,351,0,0,0,0,0,0,0,0,0,-1,1210,673,0,0
-7,351,0,0,0,0,0,0,0,0,0,-1,1217,673,0,0
0,351,0,0,0,0,0,0,0,0,0,-1,1224,673,0,0
7,351,0,0,0,0,0,0,0,0,0,-1,1231,673,0,0
14,351,0,0,0,0,0,0,0,0,0,-1,1238,673,0,0
21,351,0,0,0,0,0,0,0,0,0,-1,1245,673,0,0
28,351,0,0,0,0,0,0,0,0,0,-1,1252,673,0,0
35,351,0,0,0,0,0,0,0,0,0,-1,1259,673,0,0
42,351,0,0,0,0,0,0,0,0,0,-1,1266,673,0,0
49,351,0,0,0,0,0,0,0,0,0,-1,1273,673,0,0
56,351,0,0,0,0,0,0,0,0,0,-1,1280,673,0,0
63,351,0,0,0,0,0,0,0,0,0,-1,1287,673,0,0
70,351,0,0,0,0,0,0,0,0,0,-1,1294,673,0,0
77,351,0,0,0,0,0,0,0,0,0,-1,1301,673,0,0
84,351,0,0,0,0,0,0,0,0,0,-1,1308,673,0,0
91,351,0,0,0,0,0,0,0,0,0,-1,1315,673,0,0
98,351,0,0,0,0,0,0,0,0,0,-1,1322,673,0,0
105,351,0,0,0,0,0,0,0,0,0,-1,1329,673,0,0
112,351,0,0,0,0,0,0,0,0,0,-1,1336,673,0,0
119,351,0,0,0,0,0,0,0,0,0,-1,1343,673,0,0
126,351,0,0,0,0,0,0,0,0,0,-1,1350,673,0,0
133,351,0,0,0,0,0,0,0,0,0,-1,1357,673,0,0
140,351,0,0,0,0,0,0,0,0,0,-1,1364,673,0,0
147,351,0,0,0,0,0,0,0,0,0,-1,1371,673,0,0
154,351,0,0,0,0,0,0,0,0,0,-1,1378,673,0,0
161,351,0,0,0,0,0,0,0,0,0,-1,1385,673,0,0
168,351,0,0,0,0,0,0,0,0,0,-1,1392,673,0,0
175,351,0,0,0,0,0,0,0,0,0,-1,1399,673,0,0
182,351,0,0,0,0,0,0,0,0,0,-1,1406,673,0,0
189,351,0,0,0,0,0,0,0,0,0,-1,1413,673,0,0
196,351,0,0,0,0,0,0,0,0,0,-1,1420,673,0,0
203,351,0,0,0,0,0,0,0,0,0,-1,1427,673,0,0
210,351,0,0,0,0,0,0,0,0,0,-1,1434,673,0,0
217,351,0,0,0,0,0,0,0,0,0,-1,1441,673,0,0
224,351,0,0,0,0,0,0,0,0,0,-1,1448,673,0,0
231,351,0,0,0,0,0,0,0,0,0,-1,1455,673,0,0
238,351,0,0,0,0,0,0,0,0,0,-1,1462,673,0,0
245,351,0,0,0,0,0,0,0,0,0,-1,1469,673,0,0
252,351,0,0,0,0,0,0,0,0,0,-1,1476,673,0,0
259,351,0,0,0,0,0,0,0,0,0,-1,1483,673,0,0
266,351,0,0,0,0,0,0,0,0,0,-1,1490,673,0,0
273,351,0,0,0,0,0,0,0,0,0,-1,1497,673,0,0
280,351,0,0,0,0,0,0,0,0,0,-1,1504,673,0,0
287,351,0,0,0,0,0,0,0,0,0,-1,1511,673,0,0
294,351,0,0,0,0,0,0,0,0,0,-1,1518,673,0,0
301,351,0,0,0,0,0,0,0,0,0,-1,1525,673,0,0
308,351,0,0,0,0,0,0,0,0,0,-1,1532,673,0,0
315,351,0,0,0,0,0,0,0,0,0,-1,1539,673,0,0
322,351,0,0,0,0,0,0,0,0,0,-1,1546,673,0,0
329,351,0,0,0,0,0,0,0,0,0,-1,1553,673,0,0
336,351,0,0,0,0,0,0,0,0,0,-1,1560,673,0,0
343,351,0,0,0,0,0,0,0,0,0,-1,1567,673,0,0
350,351,0,0,0,0,0,0,0,0,0,-1,1574,673,0,0
357,351,0,0,0,0,0,0,0,0,0,-1,1581,673,0,0
364,351,0,0,0,0,0,0,0,0,0,-1,1588,673,0,0
371,351,0,0,0,0,0,0,0,0,0,-1,1595,673,0,0
378,351,0,0,0,0,0,0,0,0,0,-1,1602,673,0,0
385,351,0,0,0,0,0,0,0,0,0,-1,1609,673,0,0
392,351,0,0,0,0,0,0,0,0,0,-1,1616,673,0,0
399,351,0,0,0,0,0,0,0,0,0,-1,1623,673,0,0
406,351,0,0,0,0,0,0,0,0,0,-1,1630,673,0,0
413,351,0,0,0,0,0,0,0,0,0,-1,1637,673,0,0
420,351,0,0,0,0,0,0,0,0,0,-1,1644,673,0,0
427,351,0,0,0,0,0,0,0,0,0,-1,1651,673,0,0
434,351,0,0,0,0,0,0,0,0,0,-1,1658,673,0,0
441,351,0,0,0,0,0,0,0,0,0,-1,1665,673,0,0
448,351,0,0,0,0,0,0,0,0,0,-1,1672,673,0,0
455,351,0,0,0,0,0,0,0,0,0,-1,1679,673,0,0
462,351,0,0,0,0,0,0,0,0,0,-1,1686,673,0,0
469,351,0,0,0,0,0,0,0,0,0,-1,1693,673,0,0
476,351,0,0,0,0,0,0,0,0,0,-1,1700,673,0,0
483,351,0,0,0,0,0,0,0,0,0,-1,1707,673,0,0
490,351,0,0,0,0,0,0,0,0,0,-1,1714,673,0,0
497,351,0,0,0,0,0,0,0,0,0,-1,1721,673,0,0
504,351,10.8842,1.61615,0,0,0,0,0,0,0,-1,1728,673,10.8842,-1.61618
511,351,10.4089,1.44696,0,0,0,0,0,0,0,-1,1735,673,10.4089,-1.44695
518,351,10.2339,1.40704,0,0,0,0,0,0,0,-1,1742,673,10.2339,-1.40702
525,351,10.3644,1.52496,0,0,0,0,0,0,0,-1,1749,673,10.3644,-1.52498
532,351,8.8175,3.15271,0,0,0,0,0,0,0,-1,1756,673,8.81747,-3.1527
539,351,9.28674,3.07562,0,0,0,0,0,0,0,-1,1763,673,9.28669,-3.0756
546,351,9.44177,2.20001,0,0,0,0,0,0,0,-1,1770,673,9.44173,-2.2
553,351,10.8635,-0.203857,0,0,0,0,0,0,0,-1,1777,673,10.8635,0.203864
560,351,9.94958,-0.197083,-0.0771014,-0.0331179,-0.0305856,-0.0174385,-0.0927808,-1.09709,0.0569382,0.0497881,1784,673,9.94953,0.197077
567,351,8.87292,-0.248352,-0.0607369,-0.0266138,-0.0250897,-0.0133342,-0.0740166,-1.08399,0.0455549,0.0487239,1791,673,8.87297,0.248382
574,351,8.12915,-0.243835,-0.0463592,-0.021015,-0.0199587,-0.0100454,-0.0573288,-1.06825,0.0353498,0.0451567,1798,673,8.12911,0.243811
581,351,7.16345,-0.251526,-0.0340752,-0.0162397,-0.0153554,-0.00740035,-0.0429146,-1.04847,0.0264898,0.0381417,1805,673,7.16345,0.251511
588,351,6.96497,-0.378906,-0.0241917,-0.0122629,-0.0114591,-0.00530888,-0.0311458,-1.02535,0.0192399,0.0226531,1812,673,6.96501,0.37891
595,351,6.97998,-0.318665,-0.0166983,-0.00901644,-0.00833906,-0.00367627,-0.0220385,-1.00121,0.0136331,0.0137056,1819,673,6.97997,0.318658
602,351,7.00415,-0.177368,-0.0111386,-0.00634833,-0.00586488,-0.00240837,-0.0150786,-0.979255,0.00935351,0.0143931,1826,673,7.00413,0.177358
609,351,7.02649,-0.0546265,-0.00710689,-0.00441379,-0.00415815,-0.0013896,-0.0101311,-0.941987,0.00634181,0.0146428,1833,673,7.02651,0.0546444
616,351,6.98352,0.11322,-0.00377771,-0.00282801,-0.00296813,-0.000296991,-0.00630873,-0.864718,0.0041104,0.0135893,1840,673,6.98352,-0.113221
623,351,7.0127,0.248962,-0.00167147,-0.00173789,-0.00200962,0.000305219,-0.00371458,-0.777135,0.00258414,0.0149902,1847,673,7.01273,-0.248988
630,351,6.99084,0.344727,0.0001787,-0.000610215,-0.00125578,0.00110051,-0.00153203,-0.633221,0.00152669,0.0252815,1854,673,6.99086,-0.34473
637,351,6.96045,0.47406,0.00165075,0.000221983,-0.000987574,0.00215524,-0.000282504,-0.472277,0.00153966,0.0281502,1861,673,6.96046,-0.474033
644,351,6.98889,0.618835,0.00282999,0.000462689,-0.0010192,0.00320833,8.43563e-05,-0.35544,0.00211133,0.0202707,1868,673,6.98888,-0.618852
651,351,7.0144,0.768311,0.00502817,0.000668265,-0.000825733,0.00517932,0.000517117,-0.181042,0.00329407,0.0152938,1875,673,7.01438,-0.7683
658,351,7.01978,0.929138,0.0075847,0.00109508,-0.000494912,0.00762223,0.00105755,-0.0756787,0.00476822,0.0186604,1882,673,7.01976,-0.929121
665,351,6.89001,1.02063,0.010954,0.00143417,-1.60212e-06,0.010954,0.00143417,-0.000168292,0.00687468,0.0249599,1889,673,6.89003,-1.02065
672,351,6.85938,1.21735,0.0152425,0.00177824,0.000720895,0.015281,0.00173976,0.0533382,0.00965976,0.0331534,1896,673,6.85938,-1.21732
679,351,6.87817,1.32477,0.0205194,0.00207145,0.00173652,0.0206814,0.00190941,0.0930415,0.0131973,0.0399366,1903,673,6.87819,-1.32477
686,351,6.95264,1.42786,0.0267869,0.00220444,0.00301894,0.0271522,0.00183911,0.120425,0.0175207,0.0469968,1910,673,6.95262,-1.42783
693,351,7.14819,1.80695,0.0340404,0.00197506,0.00447346,0.0346528,0.00136266,0.13605,0.0226613,0.0466618,1917,673,7.14822,-1.80694
700,351,7.49536,2.50732,0.0425192,0.00109445,0.00596652,0.0433614,0.000252197,0.140236,0.0288239,0.0480539,1924,673,7.49532,-2.50732
707,351,0,0,0,0,0,0,0,0,0,-1,1931,673,0,0
714,351,0,0,0,0,0,0,0,0,0,-1,1938,673,0,0
721,351,0,0,0,0,0,0,0,0,0,-1,1945,673,0,0
728,351,0,0,0,0,0,0,0,0,0,-1,1952,673,0,0
735,351,0,0,0,0,0,0,0,0,0,-1,1959,673,0,0
742,351,0,0,0,0,0,0,0,0,0,-1,1966,673,0,0
749,351,0,0,0,0,0,0,0,0,0,-1,1973,673,0,0
756,351,0,0,0,0,0,0,0,0,0,-1,1980,673,0,0
763,351,0,0,0,0,0,0,0,0,0,-1,1987,673,0,0
770,351,0,0,0,0,0,0,0,0,0,-1,1994,673,0,0
777,351,0,0,0,0,0,0,0,0,0,-1,2001,673,0,0
784,351,0,0,0,0,0,0,0,0,0,-1,2008,673,0,0
791,351,0,0,0,0,0,0,0,0,0,-1,2015,673,0,0
798,351,0,0,0,0,0,0,0,0,0,-1,2022,673,0,0
805,351,0,0,0,0,0,0,0,0,0,-1,2029,673,0,0
812,351,0,0,0,0,0,0,0,0,0,-1,2036,673,0,0
-700,344,0,0,0,0,0,0,0,0,0,-1,524,680,0,0
-693,344,0,0,0,0,0,0,0,0,0,-1,531,680,0,0
-686,344,0,0,0,0,0,0,0,0,0,-1,538,680,0,0
-679,344,0,0,0,0,0,0,0,0,0,-1,545,680,0,0
-672,344,0,0,0,0,0,0,0,0,0,-1,552,680,0,0
-665,344,0,0,0,0,0,0,0,0,0,-1,559,680,0,0
-658,344,0,0,0,0,0,0,0,0,0,-1,566,680,0,0
-651,344,0,0,0,0,0,0,0,0,0,-1,573,680,0,0
-644,344,0,0,0,0,0,0,0,0,0,-1,580,680,0,0
-637,344,0,0,0,0,0,0,0,0,0,-1,587,680,0,0
-630,344,0,0,0,0,0,0,0,0,0,-1,594,680,0,0
-623,344,0,0,0,0,0,0,0,0,0,-1,601,680,0,0
-616,344,0,0,0,0,0,0,0,0,0,-1,608,680,0,0
-609,344,0,0,0,0,0,0,0,0,0,-1,615,680,0,0
-602,344,0,0,0,0,0,0,0,0,0,-1,622,680,0,0
-595,344,0,0,0,0,0,0,0,0,0,-1,629,680,0,0
-588,344,-1.12958,2.74219,0,0,0,0,0,0,0,-1,636,680,-1.12958,-2.74222
-581,344,0.368225,0.605164,0,0,0,0,0,0,0,-1,643,680,0.368213,-0.605156
-574,344,-0.258423,0.773438,-0.0641331,0.0386902,0.0154079,0.0409494,-0.0663923,1.42521,0.0625514,0.045664,650,680,-0.258421,-0.773436
-567,344,-0.987,0.932678,-0.0507927,0.035356,0.0108604,0.036704,-0.0521407,1.4473,0.051552,0.0470788,657,680,-0.987022,-0.932654
-560,344,-1.72559,0.625244,-0.0397866,0.0310455,0.00759741,0.0318512,-0.0405923,1.46514,0.0419267,0.0454035,664,680,-1.72557,-0.625265
-553,344,-1.77509,0.16333,-0.0298281,0.0260816,0.00484564,0.0264985,-0.030245,1.48498,0.0327846,0.0482237,671,680,-1.77506,-0.163343
-546,344,-1.86523,0.0827026,0,0,0,0,0,0,0,-1,678,680,-1.86524,-0.0826811
-539,344,-2.00433,0.013855,-0.0152866,0.0166214,0.00148451,0.0166903,-0.0153556,1.52441,0.018507,0.0359606,685,680,-2.00434,-0.0138304
-532,344,-2.03839,-0.0977173,-0.0103582,0.0125675,0.000596873,0.012583,-0.0103737,1.54478,0.0132745,0.0170811,692,680,-2.0384,0.0976989
-525,344,-2.09351,-0.221252,-0.00589321,0.00928492,-0.000273137,0.00928983,-0.00589813,-1.55281,0.00884135,0.0153723,699,680,-2.09351,0.221239
-518,344,-2.1153,-0.369324,-0.00257182,0.00589678,-0.000601885,0.00593934,-0.00261439,-1.5002,0.00506134,0.0202022,706,680,-2.11528,0.369305
-511,344,-2.12256,-0.499084,-0.00123182,0.00294265,-0.000499826,0.00300166,-0.00129083,-1.45328,0.00254304,0.0170484,713,680,-2.12257,0.499086
-504,344,-2.10297,-0.630798,-0.000511091,0.000725896,-4.34754e-05,0.000727423,-0.000512617,-1.53571,0.000719509,0.0168724,720,680,-2.10299,0.630774
-497,344,-2.08588,-0.7323,-0.000207708,-0.00109224,0.000475163,-8.36735e-07,-0.00129911,0.41062,0.000865794,0.0140775,727,680,-2.08587,0.732317
-490,344,-2.09906,-0.856506,-9.44311e-05,-0.00251523,0.00122025,0.000413909,-0.00302357,0.394724,0.0021669,0.0122029,734,680,-2.09907,0.856513
-483,344,-2.08264,-0.977844,-1.01199e-06,-0.00416722,0.00196601,0.000780237,-0.00494847,0.378244,0.00358746,0.0122344,741,680,-2.08264,0.977843
-476,344,-2.09869,-1.08124,0.000138167,-0.00529585,0.00293214,0.0014186,-0.00657629,0.41173,0.00492563,0.0129874,748,680,-2.0987,1.08124
-469,344,-2.10919,-1.20795,0.000263882,-0.00665476,0.0041107,0.00217716,-0.00856803,0.435617,0.0065593,0.0107037,755,680,-2.1092,1.20792
-462,344,-2.11169,-1.37354,0.000310596,-0.00761878,0.00546058,0.00309399,-0.0104022,0.471398,0.00816394,0.0145019,762,680,-2.11167,1.37356
-455,344,-2.2074,-1.40485,0.000473919,-0.00831664,0.00711316,0.00444019,-0.0122829,0.508657,0.0100028,0.0312406,769,680,-2.20737,1.40488
-448,344,-2.19611,-1.23236,0.000914395,-0.00861842,0.00908868,0.00641067,-0.0141147,0.543897,0.0121254,0.0434317,776,680,-2.19613,1.23237
-441,344,-2.17627,-1.13428,0.00177839,-0.00835811,0.0113838,0.00917121,-0.0157509,0.575964,0.014555,0.0470887,783,680,-2.17629,1.13428
-434,344,-2.12262,-1.00543,0,0,0,0,0,0,0,-1,790,680,-2.12259,1.00544
-427,344,-1.87152,-1.1579,0,0,0,0,0,0,0,-1,797,680,-1.87151,1.15791
-420,344,-1.96582,-1.57574,0,0,0,0,0,0,0,-1,804,680,-1.96579,1.57574
-413,344,-0.817993,-1.4751,0,0,0,0,0,0,0,-1,811,680,-0.818017,1.47511
-406,344,-0.00714111,-1.25189,0,0,0,0,0,0,0,-1,818,680,-0.00714956,1.25191
-399,344,0.240051,-1.75769,0,0,0,0,0,0,0,-1,825,680,0.240079,1.75767
-392,344,1.11353,-2.05615,0,0,0,0,0,0,0,-1,832,680,1.11351,2.05616
-385,344,0,0,0,0,0,0,0,0,0,-1,839,680,0,0
-378,344,0,0,0,0,0,0,0,0,0,-1,846,680,0,0
-371,344,0,0,0,0,0,0,0,0,0,-1,853,680,0,0
-364,344,0,0,0,0,0,0,0,0,0,-1,860,680,0,0
-357,344,0,0,0,0,0,0,0,0,0,-1,867,680,0,0
-350,344,0,0,0,0,0,0,0,0,0,-1,874,680,0,0
-343,344,0,0,0,0,0,0,0,0,0,-1,881,680,0,0
-336,344,0,0,0,0,0,0,0,0,0,-1,888,680,0,0
-329,344,0,0,0,0,0,0,0,0,0,-1,895,680,0,0
-322,344,0,0,0,0,0,0,0,0,0,-1,902,680,0,0
-315,344,0,0,0,0,0,0,0,0,0,-1,909,680,0,0
-308,344,0,0,0,0,0,0,0,0,0,-1,916,680,0,0
-301,344,0,0,0,0,0,0,0,0,0,-1,923,680,0,0
-294,344,0,0,0,0,0,0,0,0,0,-1,930,680,0,0
-287,344,0,0,0,0,0,0,0,0,0,-1,937,680,0,0
-280,344,0,0,0,0,0,0,0,0,0,-1,944,680,0,0
-273,344,0,0,0,0,0,0,0,0,0,-1,951,680,0,0
-266,344,0,0,0,0,0,0,0,0,0,-1,958,680,0,0
-259,344,0,0,0,0,0,0,0,0,0,-1,965,680,0,0
-252,344,0,0,0,0,0,0,0,0,0,-1,972,680,0,0
-245,344,0,0,0,0,0,0,0,0,0,-1,979,680,0,0
-238,344,0,0,0,0,0,0,0,0,0,-1,986,680,0,0
-231,344,0,0,0,0,0,0,0,0,0,-1,993,680,0,0
-224,344,0,0,0,0,0,0,0,0,0,-1,1000,680,0,0
-217,344,0,0,0,0,0,0,0,0,0,-1,1007,680,0,0
-210,344,0,0,0,0,0,0,0,0,0,-1,1014,680,0,0
-203,344,0,0,0,0,0,0,0,0,0,-1,1021,680,0,0
-196,344,0,0,0,0,0,0,0,0,0,-1,1028,680,0,0
-189,344,0,0,0,0,0,0,0,0,0,-1,1035,680,0,0
-182,344,0,0,0,0,0,0,0,0,0,-1,1042,680,0,0
-175,344,0,0,0,0,0,0,0,0,0,-1,1049,680,0,0
-168,344,0,0,0,0,0,0,0,0,0,-1,1056,680,0,0
-161,344,0,0,0,0,0,0,0,0,0,-1,1063,680,0,0
-154,344,0,0,0,0,0,0,0,0,0,-1,1070,680,0,0
-147,344,0,0,0,0,0,0,0,0,0,-1,1077,680,0,0
-140,344,0,0,0,0,0,0,0,0,0,-1,1084,680,0,0
-133,344,0,0,0,0,0,0,0,0,0,-1,1091,680,0,0
-126,344,0,0,0,0,0,0,0,0,0,-1,1098,680,0,0
-119,344,0,0,0,0,0,0,0,0,0,-1,1105,680,0,0
-112,344,0,0,0,0,0,0,0,0,0,-1,1112,680,0,0
-105,344,0,0,0,0,0,0,0,0,0,-1,1119,680,0,0
-98,344,0,0,0,0,0,0,0,0,0,-1,1126,680,0,0
-91,344,0,0,0,0,0,0,0,0,0,-1,1133,680,0,0
-84,344,0,0,0,0,0,0,0,0,0,-1,1140,680,0,0
-77,344,0,0,0,0,0,0,0,0,0,-1,1147,680,0,0
-70,344,0,0,0,0,0,0,0,0,0,-1,1154,680,0,0
-63,344,0,0,0,0,0,0,0,0,0,-1,1161,680,0,0
-56,344,0,0,0,0,0,0,0,0,0,-1,1168,680,0,0
-49,344,0,0,0,0,0,0,0,0,0,-1,1175,680,0,0
-42,344,0,0,0,0,0,0,0,0,0,-1,1182,680,0,0
-35,344,0,0,0,0,0,0,0,0,0,-1,1189,680,0,0
-28,344,0,0,0,0,0,0,0,0,0,-1,1196,680,0,0
-21,344,0,0,0,0,0,0,0,0,0,-1,1203,680,0,0
-14,344,0,0,0,0,0,0,0,0,0,-1,1210,680,0,0
-7,344,0,0,0,0,0,0,0,0,0,-1,1217,680,0,0
0,344,0,0,0,0,0,0,0,0,0,-1,1224,680,0,0
7,344,0,0,0,0,0,0,0,0,0,-1,1231,680,0,0
14,344,0,0,0,0,0,0,0,0,0,-1,1238,680,0,0
21,344,0,0,0,0,0,0,0,0,0,-1,1245,680,0,0
28,344,0,0,0,0,0,0,0,0,0,-1,1252,680,0,0
35,344,0,0,0,0,0,0,0,0,0,-1,1259,680,0,0
42,344,0,0,0,0,0,0,0,0,0,-1,1266,680,0,0
49,344,0,0,0,0,0,0,0,0,0,-1,1273,680,0,0
56,344,0,0,0,0,0,0,0,0,0,-1,1280,680,0,0
63,344,0,0,0,0,0,0,0,0,0,-1,1287,680,0,0
70,344,0,0,0,0,0,0,0,0,0,-1,1294,680,0,0
77,344,0,0,0,0,0,0,0,0,0,-1,1301,680,0,0
84,344,0,0,0,0,0,0,0,0,0,-1,1308,680,0,0
91,344,0,0,0,0,0,0,0,0,0,-1,1315,680,0,0
98,344,0,0,0,0,0,0,0,0,0,-1,1322,680,0,0
105,344,0,0,0,0,0,0,0,0,0,-1,1329,680,0,0
112,344,0,0,0,0,0,0,0,0,0,-1,1336,680,0,0
119,344,0,0,0,0,0,0,0,0,0,-1,1343,680,0,0
126,344,0,0,0,0,0,0,0,0,0,-1,1350,680,0,0
133,344,0,0,0,0,0,0,0,0,0,-1,1357,680,0,0
140,344,0,0,0,0,0,0,0,0,0,-1,1364,680,0,0
147,344,0,0,0,0,0,0,0,0,0,-1,1371,680,0,0
154,344,0,0,0,0,0,0,0,0,0,-1,1378,680,0,0
161,344,0,0,0,0,0,0,0,0,0,-1,1385,680,0,0
168,344,0,0,0,0,0,0,0,0,0,-1,1392,680,0,0
175,344,0,0,0,0,0,0,0,0,0,-1,1399,680,0,0
182,344,0,0,0,0,0,0,0,0,0,-1,1406,680,0,0
189,344,0,0,0,0,0,0,0,0,0,-1,1413,680,0,0
196,344,0,0,0,0,0,0,0,0,0,-1,1420,680,0,0
203,344,0,0,0,0,0,0,0,0,0,-1,1427,680,0,0
210,344,0,0,0,0,0,0,0,0,0,-1,1434,680,0,0
217,344,0,0,0,0,0,0,0,0,0,-1,1441,680,0,0
224,344,0,0,0,0,0,0,0,0,0,-1,1448,680,0,0
231,344,0,0,0,0,0,0,0,0,0,-1,1455,680,0,0
238,344,0,0,0,0,0,0,0,0,0,-1,1462,680,0,0
245,344,0,0,0,0,0,0,0,0,0,-1,1469,680,0,0
252,344,0,0,0,0,0,0,0,0,0,-1,1476,680,0,0
259,344,0,0,0,0,0,0,0,0,0,-1,1483,680,0,0
266,344,0,0,0,0,0,0,0,0,0,-1,1490,680,0,0
273,344,0,0,0,0,0,0,0,0,0,-1,1497,680,0,0
280,344,0,0,0,0,0,0,0,0,0,-1,1504,680,0,0
287,344,0,0,0,0,0,0,0,0,0,-1,1511,680,0,0
294,344,0,0,0,0,0,0,0,0,0,-1,1518,680,0,0
301,344,0,0,0,0,0,0,0,0,0,-1,1525,680,0,0
308,344,0,0,0,0,0,0,0,0,0,-1,1532,680,0,0
315,344,0,0,0,0,0,0,0,0,0,-1,1539,680,0,0
322,344,0,0,0,0,0,0,0,0,0,-1,1546,680,0,0
329,344,0,0,0,0,0,0,0,0,0,-1,1553,680,0,0
336,344,0,0,0,0,0,0,0,0,0,-1,1560,680,0,0
343,344,0,0,0,0,0,0,0,0,0,-1,1567,680,0,0
350,344,0,0,0,0,0,0,0,0,0,-1,1574,680,0,0
357,344,0,0,0,0,0,0,0,0,0,-1,1581,680,0,0
364,344,0,0,0,0,0,0,0,0,0,-1,1588,680,0,0
371,344,0,0,0,0,0,0,0,0,0,-1,1595,680,0,0
378,344,0,0,0,0,0,0,0,0,0,-1,1602,680,0,0
385,344,0,0,0,0,0,0,0,0,0,-1,1609,680,0,0
392,344,0,0,0,0,0,0,0,0,0,-1,1616,680,0,0
399,344,0,0,0,0,0,0,0,0,0,-1,1623,680,0,0
406,344,0,0,0,0,0,0,0,0,0,-1,1630,680,0,0
413,344,0,0,0,0,0,0,0,0,0,-1,1637,680,0,0
420,344,0,0,0,0,0,0,0,0,0,-1,1644,680,0,0
427,344,0,0,0,0,0,0,0,0,0,-1,1651,680,0,0
434,344,0,0,0,0,0,0,0,0,0,-1,1658,680,0,0
441,344,0,0,0,0,0,0,0,0,0,-1,1665,680,0,0
448,344,0,0,0,0,0,0,0,0,0,-1,1672,680,0,0
455,344,0,0,0,0,0,0,0,0,0,-1,1679,680,0,0
462,344,0,0,0,0,0,0,0,0,0,-1,1686,680,0,0
469,344,0,0,0,0,0,0,0,0,0,-1,1693,680,0,0
476,344,0,0,0,0,0,0,0,0,0,-1,1700,680,0,0
483,344,0,0,0,0,0,0,0,0,0,-1,1707,680,0,0
490,344,0,0,0,0,0,0,0,0,0,-1,1714,680,0,0
497,344,0,0,0,0,0,0,0,0,0,-1,1721,680,0,0
504,344,0,0,0,0,0,0,0,0,0,-1,1728,680,0,0
511,344,9.53467,1.89221,0,0,0,0,0,0,0,-1,1735,680,9.53464,-1.89224
518,344,9.66321,2.14038,0,0,0,0,0,0,0,-1,1742,680,9.66318,-2.1404
525,344,9.93945,2.38269,0,0,0,0,0,0,0,-1,1749,680,9.9394,-2.38266
532,344,9.54089,2.52185,0,0,0,0,0,0,0,-1,1756,680,9.54092,-2.52186
539,344,9.51978,2.32123,0,0,0,0,0,0,0,-1,1763,680,9.51982,-2.32123
546,344,9.32471,2.36047,0,0,0,0,0,0,0,-1,1770,680,9.32471,-2.36046
553,344,11.017,0.157288,0,0,0,0,0,0,0,-1,1777,680,11.0169,-0.157289
560,344,10.3361,0.231689,-0.0959174,-0.042752,-0.0375843,-0.0232997,-0.11537,-1.0932,0.0704429,0.0486711,1784,680,10.3361,-0.231667
567,344,9.6062,0.167175,-0.0748659,-0.0341655,-0.0307755,-0.0176204,-0.091411,-1.07752,0.055999,0.0451773,1791,680,9.60618,-0.167188
574,344,8.88269,0.0796509,-0.0565681,-0.0267648,-0.0242966,-0.0131641,-0.0701688,-1.06048,0.0430671,0.0450526,1798,680,8.8827,-0.0796721
581,344,7.4032,0.0540771,0,0,0,0,0,0,0,-1,1805,680,7.40315,-0.0540782
588,344,7.22229,-0.169678,-0.0289811,-0.0154063,-0.0137919,-0.00682211,-0.0375653,-1.01406,0.0231077,0.0436118,1812,680,7.22225,0.169651
595,344,7.17993,-0.26825,-0.0197835,-0.0112849,-0.00995219,-0.00471278,-0.0263556,-0.987167,0.0162292,0.026373,1819,680,7.17993,0.268276
602,344,7.24683,-0.117065,-0.0130345,-0.00807475,-0.00697561,-0.00315132,-0.0179579,-0.956184,0.011072,0.0205957,1826,680,7.24684,0.117061
609,344,7.1803,-0.0150757,-0.00810165,-0.00564729,-0.00482015,-0.00190056,-0.0118484,-0.910047,0.0073478,0.0146858,1833,680,7.18032,0.0150897
616,344,7.14746,0.123413,-0.00407015,-0.00365778,-0.00328122,-0.000576276,-0.00715165,-0.816777,0.00458776,0.019956,1840,680,7.14743,-0.123387
623,344,7.16382,0.262573,-0.00155097,-0.0023251,-0.00202158,0.000120269,-0.00399633,-0.69081,0.0027052,0.0180809,1847,680,7.16383,-0.262547
630,344,7.13599,0.349976,0.000369784,-0.00111075,-0.00107624,0.000935766,-0.00167673,-0.484143,0.00152842,0.0239994,1854,680,7.13593,-0.34998
637,344,7.11853,0.475708,0.00168553,-0.000204957,-0.000776837,0.00196379,-0.000483217,-0.343958,0.0014965,0.022677,1861,680,7.11849,-0.475738
644,344,7.13135,0.61731,0.0027052,3.24637e-06,-0.00083928,0.00294467,-0.000236226,-0.277945,0.00204641,0.0149072,1868,680,7.13141,-0.617287
651,344,7.14795,0.75592,0.00454535,0.000171123,-0.000749531,0.00467022,4.62541e-05,-0.16508,0.00309817,0.0109598,1875,680,7.14793,-0.755933
658,344,7.16394,0.920105,0.00662603,0.000561062,-0.000633335,0.00669147,0.000495632,-0.102945,0.00430529,0.0164987,1882,680,7.16391,-0.920103
665,344,7.14075,1.07147,0.00928733,0.00075178,-0.000528529,0.00931993,0.000719178,-0.0616072,0.00598797,0.0215137,1889,680,7.14073,-1.07148
672,344,7.13428,1.17035,0.0126354,0.000898702,-0.000429507,0.0126511,0.000883005,-0.0365302,0.00815565,0.0153962,1896,680,7.13423,-1.17037
679,344,7.22852,1.21545,0.0167609,0.00114329,-0.000349528,0.0167687,0.00113547,-0.0223655,0.0108205,0.0308698,1903,680,7.2285,-1.21543
686,344,7.49231,1.34302,0.0217339,0.00128567,-0.000242038,0.0217368,0.00128281,-0.0118344,0.0140831,0.0442292,1910,680,7.49236,-1.343
693,344,7.79785,1.69543,0,0,0,0,0,0,0,-1,1917,680,7.79786,-1.69542
700,344,7.9408,2.64899,0.0345096,0.00218683,-0.000392132,0.0345144,0.00218207,-0.0121294,0.0223178,0.0442154,1924,680,7.94082,-2.64897
707,344,8.65039,3.23877,0,0,0,0,0,0,0,-1,1931,680,8.65042,-3.23876
714,344,0,0,0,0,0,0,0,0,0,-1,1938,680,0,0
721,344,0,0,0,0,0,0,0,0,0,-1,1945,680,0,0
728,344,0,0,0,0,0,0,0,0,0,-1,1952,680,0,0
735,344,0,0,0,0,0,0,0,0,0,-1,1959,680,0,0
742,344,0,0,0,0,0,0,0,0,0,-1,1966,680,0,0
749,344,0,0,0,0,0,0,0,0,0,-1,1973,680,0,0
756,344,0,0,0,0,0,0,0,0,0,-1,1980,680,0,0
763,344,0,0,0,0,0,0,0,0,0,-1,1987,680,0,0
770,344,0,0,0,0,0,0,0,0,0,-1,1994,680,0,0
777,344,0,0,0,0,0,0,0,0,0,-1,2001,680,0,0
784,344,0,0,0,0,0,0,0,0,0,-1,2008,680,0,0
791,344,0,0,0,0,0,0,0,0,0,-1,2015,680,0,0
798,344,0,0,0,0,0,0,0,0,0,-1,2022,680,0,0
805,344,0,0,0,0,0,0,0,0,0,-1,2029,680,0,0
812,344,0,0,0,0,0,0,0,0,0,-1,2036,680,0,0
-700,337,0,0,0,0,0,0,0,0,0,-1,524,687,0,0
-693,337,0,0,0,0,0,0,0,0,0,-1,531,687,0,0
-686,337,0,0,0,0,0,0,0,0,0,-1,538,687,0,0
-679,337,0,0,0,0,0,0,0,0,0,-1,545,687,0,0
-672,337,0,0,0,0,0,0,0,0,0,-1,552,687,0,0
-665,337,0,0,0,0,0,0,0,0,0,-1,559,687,0,0
-658,337,0,0,0,0,0,0,0,0,0,-1,566,687,0,0
-651,337,0,0,0,0,0,0,0,0,0,-1,573,687,0,0
-644,337,0,0,0,0,0,0,0,0,0,-1,580,687,0,0
-637,337,0,0,0,0,0,0,0,0,0,-1,587,687,0,0
-630,337,0,0,0,0,0,0,0,0,0,-1,594,687,0,0
-623,337,0,0,0,0,0,0,0,0,0,-1,601,687,0,0
-616,337,0,0,0,0,0,0,0,0,0,-1,608,687,0,0
-609,337,0,0,0,0,0,0,0,0,0,-1,615,687,0,0
-602,337,0,0,0,0,0,0,0,0,0,-1,622,687,0,0
-595,337,0,0,0,0,0,0,0,0,0,-1,629,687,0,0
-588,337,-2.5954,0.833069,0,0,0,0,0,0,0,-1,636,687,-2.5954,-0.833049
-581,337,-2.65082,0.519958,0,0,0,0,0,0,0,-1,643,687,-2.65084,-0.519982
-574,337,-2.31152,0.87384,0,0,0,0,0,0,0,-1,650,687,-2.31155,-0.873854
-567,337,-2.20905,0.536987,-0.0439296,0.0295423,0.011518,0.0313056,-0.045693,1.41888,0.0447131,0.0488242,657,687,-2.20904,-0.537016
-560,337,-2.34052,0.287048,-0.034562,0.0257512,0.00846509,0.0269168,-0.0357276,1.43397,0.0362868,0.0450207,664,687,-2.34052,-0.287049
-553,337,-2.33429,0.156006,-0.0256084,0.0214236,0.00560223,0.0220817,-0.0262665,1.45386,0.0279487,0.0455862,671,687,-2.33432,-0.156028
-546,337,-2.26758,0.0631714,-0.0184237,0.017251,0.0035188,0.0175948,-0.0187675,1.47341,0.0209974,0.0383442,678,687,-2.26756,-0.0631619
-539,337,-2.20764,-0.0140381,-0.0128183,0.013462,0.00205216,0.0136212,-0.0129776,1.49333,0.0153584,0.0218075,685,687,-2.20764,0.0140546
-532,337,-2.20886,-0.114807,-0.0085547,0.0101094,0.00108706,0.0101725,-0.0086178,1.51281,0.010861,0.0118055,692,687,-2.20884,0.114818
-525,337,-2.23254,-0.251099,-0.00477681,0.00733935,0.000251043,0.00734455,-0.00478201,1.55009,0.00705319,0.0148571,699,687,-2.23252,0.25111
-518,337,-2.25891,-0.40625,-0.00196173,0.0044479,-9.3498e-05,0.00444926,-0.00196309,-1.55621,0.00379379,0.0238346,706,687,-2.25889,0.406258
-511,337,-2.21918,-0.519958,-0.000754027,0.00180162,-0.000102634,0.00180574,-0.000758142,-1.53072,0.00152089,0.0235629,713,687,-2.21916,0.519987
-504,337,-2.1991,-0.649475,-5.69932e-05,-0.0003873,0.000305019,0.000124714,-0.000569007,0.53727,0.000427024,0.022654,720,687,-2.1991,0.649485
-497,337,-2.19904,-0.748535,0.000319265,-0.00221327,0.000883533,0.000597039,-0.00249104,0.304606,0.00189138,0.0152723,727,687,-2.19904,0.748508
-490,337,-2.22919,-0.872681,0.00054031,-0.00382749,0.00165219,0.00109487,-0.00438205,0.323834,0.00334656,0.0130618,734,687,-2.22919,0.872709
-483,337,-2.22253,-0.999695,0.000803816,-0.0058035,0.0023842,0.00157429,-0.00657398,0.312565,0.00499088,0.0136984,741,687,-2.22253,0.999691
-476,337,-2.22009,-1.10596,0.00116628,-0.00717564,0.00332794,0.00233125,-0.0083406,0.336724,0.00647883,0.0122937,748,687,-2.22012,1.10598
-469,337,-2.21741,-1.24493,0.00156936,-0.00882362,0.00444511,0.00321119,-0.0104654,0.353812,0.00825816,0.0134099,755,687,-2.21743,1.24495
-462,337,-2.2229,-1.34851,0.00202725,-0.0101066,0.00568831,0.00427685,-0.0123562,0.376601,0.00997355,0.0270034,762,687,-2.22288,1.3485
-455,337,-2.45349,-1.47528,0.00271781,-0.0110085,0.00714473,0.00576172,-0.0140524,0.402748,0.0117688,0.0406666,769,687,-2.45347,1.47526
-448,337,-2.69635,-1.46362,0.00378362,-0.0113466,0.008832,0.00784757,-0.0154106,0.431254,0.0136627,0.0446313,776,687,-2.69636,1.46364
-441,337,-2.62952,-1.2749,0.00540064,-0.0109068,0.0107243,0.0107189,-0.016225,0.460367,0.0156639,0.0499666,783,687,-2.62949,1.2749
-434,337,-2.31213,-1.42212,0,0,0,0,0,0,0,-1,790,687,-2.31215,1.42211
-427,337,-1.94696,-1.76135,0.0115542,-0.00713395,0.0149144,0.0198099,-0.0153896,0.505555,0.0203758,0.0466442,797,687,-1.94698,1.76135
-420,337,-1.73798,-1.7807,0,0,0,0,0,0,0,-1,804,687,-1.73801,1.78067
-413,337,-1.29169,-1.99487,0,0,0,0,0,0,0,-1,811,687,-1.29171,1.9949
-406,337,-1.02356,-1.89563,0,0,0,0,0,0,0,-1,818,687,-1.02357,1.89564
-399,337,-0.472839,-2.21338,0,0,0,0,0,0,0,-1,825,687,-0.472837,2.2134
-392,337,0,0,0,0,0,0,0,0,0,-1,832,687,0,0
-385,337,0,0,0,0,0,0,0,0,0,-1,839,687,0,0
-378,337,0,0,0,0,0,0,0,0,0,-1,846,687,0,0
-371,337,0,0,0,0,0,0,0,0,0,-1,853,687,0,0
-364,337,0,0,0,0,0,0,0,0,0,-1,860,687,0,0
-357,337,0,0,0,0,0,0,0,0,0,-1,867,687,0,0
-350,337,0,0,0,0,0,0,0,0,0,-1,874,687,0,0
-343,337,0,0,0,0,0,0,0,0,0,-1,881,687,0,0
-336,337,0,0,0,0,0,0,0,0,0,-1,888,687,0,0
-329,337,0,0,0,0,0,0,0,0,0,-1,895,687,0,0
-322,337,0,0,0,0,0,0,0,0,0,-1,902,687,0,0
-315,337,0,0,0,0,0,0,0,0,0,-1,909,687,0,0
-308,337,0,0,0,0,0,0,0,0,0,-1,916,687,0,0
-301,337,0,0,0,0,0,0,0,0,0,-1,923,687,0,0
-294,337,0,0,0,0,0,0,0,0,0,-1,930,687,0,0
-287,337,0,0,0,0,0,0,0,0,0,-1,937,687,0,0
-280,337,0,0,0,0,0,0,0,0,0,-1,944,687,0,0
-273,337,0,0,0,0,0,0,0,0,0,-1,951,687,0,0
-266,337,0,0,0,0,0,0,0,0,0,-1,958,687,0,0
-259,337,0,0,0,0,0,0,0,0,0,-1,965,687,0,0
-252,337,0,0,0,0,0,0,0,0,0,-1,972,687,0,0
-245,337,0,0,0,0,0,0,0,0,0,-1,979,687,0,0
-238,337,0,0,0,0,0,0,0,0,0,-1,986,687,0,0
-231,337,0,0,0,0,0,0,0,0,0,-1,993,687,0,0
-224,337,0,0,0,0,0,0,0,0,0,-1,1000,687,0,0
-217,337,0,0,0,0,0,0,0,0,0,-1,1007,687,0,0
-210,337,0,0,0,0,0,0,0,0,0,-1,1014,687,0,0
-203,337,0,0,0,0,0,0,0,0,0,-1,1021,687,0,0
-196,337,0,0,0,0,0,0,0,0,0,-1,1028,687,0,0
-189,337,0,0,0,0,0,0,0,0,0,-1,1035,687,0,0
-182,337,0,0,0,0,0,0,0,0,0,-1,1042,687,0,0
-175,337,0,0,0,0,0,0,0,0,0,-1,1049,687,0,0
-168,337,0,0,0,0,0,0,0,0,0,-1,1056,687,0,0
-161,337,0,0,0,0,0,0,0,0,0,-1,1063,687,0,0
-154,337,0,0,0,0,0,0,0,0,0,-1,1070,687,0,0
-147,337,0,0,0,0,0,0,0,0,0,-1,1077,687,0,0
-140,337,0,0,0,0,0,0,0,0,0,-1,1084,687,0,0
-133,337,0,0,0,0,0,0,0,0,0,-1,1091,687,0,0
-126,337,0,0,0,0,0,0,0,0,0,-1,1098,687,0,0
-119,337,0,0,0,0,0,0,0,0,0,-1,1105,687,0,0
-112,337,0,0,0,0,0,0,0,0,0,-1,1112,687,0,0
-105,337,0,0,0,0,0,0,0,0,0,-1,1119,687,0,0
-98,337,0,0,0,0,0,0,0,0,0,-1,1126,687,0,0
-91,337,0,0,0,0,0,0,0,0,0,-1,1133,687,0,0
-84,337,0,0,0,0,0,0,0,0,0,-1,1140,687,0,0
-77,337,0,0,0,0,0,0,0,0,0,-1,1147,687,0,0
-70,337,0,0,0,0,0,0,0,0,0,-1,1154,687,0,0
-63,337,0,0,0,0,0,0,0,0,0,-1,1161,687,0,0
-56,337,0,0,0,0,0,0,0,0,0,-1,1168,687,0,0
-49,337,0,0,0,0,0,0,0,0,0,-1,1175,687,0,0
-42,337,0,0,0,0,0,0,0,0,0,-1,1182,687,0,0
-35,337,0,0,0,0,0,0,0,0,0,-1,1189,687,0,0
-28,337,0,0,0,0,0,0,0,0,0,-1,1196,687,0,0
-21,337,0,0,0,0,0,0,0,0,0,-1,1203,687,0,0
-14,337,0,0,0,0,0,0,0,0,0,-1,1210,687,0,0
-7,337,0,0,0,0,0,0,0,0,0,-1,1217,687,0,0
0,337,0,0,0,0,0,0,0,0,0,-1,1224,687,0,0
7,337,0,0,0,0,0,0,0,0,0,-1,1231,687,0,0
14,337,0,0,0,0,0,0,0,0,0,-1,1238,687,0,0
21,337,0,0,0,0,0,0,0,0,0,-1,1245,687,0,0
28,337,0,0,0,0,0,0,0,0,0,-1,1252,687,0,0
35,337,0,0,0,0,0,0,0,0,0,-1,1259,687,0,0
42,337,0,0,0,0,0,0,0,0,0,-1,1266,687,0,0
49,337,0,0,0,0,0,0,0,0,0,-1,1273,687,0,0
56,337,0,0,0,0,0,0,0,0,0,-1,1280,687,0,0
63,337,0,0,0,0,0,0,0,0,0,-1,1287,687,0,0
70,337,0,0,0,0,0,0,0,0,0,-1,1294,687,0,0
77,337,0,0,0,0,0,0,0,0,0,-1,1301,687,0,0
84,337,0,0,0,0,0,0,0,0,0,-1,1308,687,0,0
91,337,0,0,0,0,0,0,0,0,0,-1,1315,687,0,0
98,337,0,0,0,0,0,0,0,0,0,-1,1322,687,0,0
105,337,0,0,0,0,0,0,0,0,0,-1,1329,687,0,0
112,337,0,0,0,0,0,0,0,0,0,-1,1336,687,0,0
119,337,0,0,0,0,0,0,0,0,0,-1,1343,687,0,0
126,337,0,0,0,0,0,0,0,0,0,-1,1350,687,0,0
133,337,0,0,0,0,0,0,0,0,0,-1,1357,687,0,0
140,337,0,0,0,0,0,0,0,0,0,-1,1364,687,0,0
147,337,0,0,0,0,0,0,0,0,0,-1,1371,687,0,0
154,337,0,0,0,0,0,0,0,0,0,-1,1378,687,0,0
161,337,0,0,0,0,0,0,0,0,0,-1,1385,687,0,0
168,337,0,0,0,0,0,0,0,0,0,-1,1392,687,0,0
175,337,0,0,0,0,0,0,0,0,0,-1,1399,687,0,0
182,337,0,0,0,0,0,0,0,0,0,-1,1406,687,0,0
189,337,0,0,0,0,0,0,0,0,0,-1,1413,687,0,0
196,337,0,0,0,0,0,0,0,0,0,-1,1420,687,0,0
203,337,0,0,0,0,0,0,0,0,0,-1,1427,687,0,0
210,337,0,0,0,0,0,0,0,0,0,-1,1434,687,0,0
217,337,0,0,0,0,0,0,0,0,0,-1,1441,687,0,0
224,337,0,0,0,0,0,0,0,0,0,-1,1448,687,0,0
231,337,0,0,0,0,0,0,0,0,0,-1,1455,687,0,0
238,337,0,0,0,0,0,0,0,0,0,-1,1462,687,0,0
245,337,0,0,0,0,0,0,0,0,0,-1,1469,687,0,0
252,337,0,0,0,0,0,0,0,0,0,-1,1476,687,0,0
259,337,0,0,0,0,0,0,0,0,0,-1,1483,687,0,0
266,337,0,0,0,0,0,0,0,0,0,-1,1490,687,0,0
273,337,0,0,0,0,0,0,0,0,0,-1,1497,687,0,0
280,337,0,0,0,0,0,0,0,0,0,-1,1504,687,0,0
287,337,0,0,0,0,0,0,0,0,0,-1,1511,687,0,0
294,337,0,0,0,0,0,0,0,0,0,-1,1518,687,0,0
301,337,0,0,0,0,0,0,0,0,0,-1,1525,687,0,0
308,337,0,0,0,0,0,0,0,0,0,-1,1532,687,0,0
315,337,0,0,0,0,0,0,0,0,0,-1,1539,687,0,0
322,337,0,0,0,0,0,0,0,0,0,-1,1546,687,0,0
329,337,0,0,0,0,0,0,0,0,0,-1,1553,687,0,0
336,337,0,0,0,0,0,0,0,0,0,-1,1560,687,0,0
343,337,0,0,0,0,0,0,0,0,0,-1,1567,687,0,0
350,337,0,0,0,0,0,0,0,0,0,-1,1574,687,0,0
357,337,0,0,0,0,0,0,0,0,0,-1,1581,687,0,0
364,337,0,0,0,0,0,0,0,0,0,-1,1588,687,0,0
371,337,0,0,0,0,0,0,0,0,0,-1,1595,687,0,0
378,337,0,0,0,0,0,0,0,0,0,-1,1602,687,0,0
385,337,0,0,0,0,0,0,0,0,0,-1,1609,687,0,0
392,337,0,0,0,0,0,0,0,0,0,-1,1616,687,0,0
399,337,0,0,0,0,0,0,0,0,0,-1,1623,687,0,0
406,337,0,0,0,0,0,0,0,0,0,-1,1630,687,0,0
413,337,0,0,0,0,0,0,0,0,0,-1,1637,687,0,0
420,337,0,0,0,0,0,0,0,0,0,-1,1644,687,0,0
427,337,0,0,0,0,0,0,0,0,0,-1,1651,687,0,0
434,337,0,0,0,0,0,0,0,0,0,-1,1658,687,0,0
441,337,0,0,0,0,0,0,0,0,0,-1,1665,687,0,0
448,337,0,0,0,0,0,0,0,0,0,-1,1672,687,0,0
455,337,0,0,0,0,0,0,0,0,0,-1,1679,687,0,0
462,337,0,0,0,0,0,0,0,0,0,-1,1686,687,0,0
469,337,0,0,0,0,0,0,0,0,0,-1,1693,687,0,0
476,337,0,0,0,0,0,0,0,0,0,-1,1700,687,0,0
483,337,0,0,0,0,0,0,0,0,0,-1,1707,687,0,0
490,337,0,0,0,0,0,0,0,0,0,-1,1714,687,0,0
497,337,0,0,0,0,0,0,0,0,0,-1,1721,687,0,0
504,337,0,0,0,0,0,0,0,0,0,-1,1728,687,0,0
511,337,0,0,0,0,0,0,0,0,0,-1,1735,687,0,0
518,337,9.25952,3.11664,0,0,0,0,0,0,0,-1,1742,687,9.25953,-3.11666
525,337,9.50903,3.13019,0,0,0,0,0,0,0,-1,1749,687,9.50905,-3.13016
532,337,9.67334,2.82172,0,0,0,0,0,0,0,-1,1756,687,9.67338,-2.82174
539,337,9.68872,2.48126,0,0,0,0,0,0,0,-1,1763,687,9.68876,-2.48126
546,337,9.64221,2.33466,0,0,0,0,0,0,0,-1,1770,687,9.64222,-2.33464
553,337,9.59912,2.57574,0,0,0,0,0,0,0,-1,1777,687,9.59913,-2.57573
560,337,10.8096,0.210938,0,0,0,0,0,0,0,-1,1784,687,10.8095,-0.210968
567,337,10.3008,0.303528,0,0,0,0,0,0,0,-1,1791,687,10.3008,-0.303538
574,337,9.58569,0.368225,0,0,0,0,0,0,0,-1,1798,687,9.58568,-0.368252
581,337,7.11023,0.216431,0,0,0,0,0,0,0,-1,1805,687,7.11026,-0.216436
588,337,7.19812,0.10376,0,0,0,0,0,0,0,-1,1812,687,7.19818,-0.103735
595,337,7.12,-0.220276,0,0,0,0,0,0,0,-1,1819,687,7.12001,0.220292
602,337,7.27161,-0.148682,-0.0146149,-0.00981307,-0.0081585,-0.00370954,-0.0207184,-0.9285,0.0127568,0.0249708,1826,687,7.27166,0.148655
609,337,7.29138,-0.00219727,-0.00890525,-0.00687647,-0.00557449,-0.00222483,-0.0135569,-0.875398,0.00839517,0.0176858,1833,687,7.29136,0.00221477
616,337,7.28137,0.133362,-0.00435833,-0.00449408,-0.00372583,-0.000699754,-0.00815266,-0.77629,0.00521752,0.015947,1840,687,7.28143,-0.133352
623,337,7.28809,0.246216,-0.00168454,-0.00295716,-0.00224254,1.02143e-05,-0.00465192,-0.647158,0.00310469,0.0139148,1847,687,7.28805,-0.246186
630,337,7.26672,0.358093,5.10016e-05,-0.00169915,-0.00120431,0.000664588,-0.00231274,-0.471213,0.00180462,0.0178167,1854,687,7.26678,-0.358101
637,337,7.28381,0.495911,0.00100696,-0.000775814,-0.000920779,0.00139714,-0.00116599,-0.400807,0.00148183,0.0154446,1861,687,7.28384,-0.49593
644,337,7.28125,0.643494,0.00171641,-0.000604381,-0.00103438,0.00211051,-0.000998485,-0.364024,0.00183285,0.0101287,1868,687,7.2812,-0.643487
651,337,7.28442,0.766663,0.00309924,-0.000494157,-0.00107322,0.00339537,-0.000790288,-0.269228,0.00256787,0.00936856,1875,687,7.28448,-0.76665
658,337,7.2998,0.892212,0.0046871,-0.000165175,-0.00113984,0.00494152,-0.000419596,-0.219606,0.00344274,0.0112304,1882,687,7.29977,-0.892223
665,337,7.29846,1.02136,0.00673303,-9.08291e-05,-0.00132385,0.00698086,-0.000338659,-0.185062,0.0047708,0.0124742,1889,687,7.29844,-1.02134
672,337,7.2876,1.15735,0.00938863,-4.83583e-05,-0.00169816,0.00968491,-0.000344635,-0.172731,0.0065745,0.0126225,1896,687,7.28762,-1.15732
679,337,7.26782,1.32953,0.0127784,0.000327896,-0.002385,0.0132196,-0.000113336,-0.182934,0.00885109,0.02934,1903,687,7.26781,-1.32952
686,337,7.47534,1.79755,0.0169721,0.000677487,-0.00318016,0.0175708,7.88216e-05,-0.186072,0.0116877,0.0412434,1910,687,7.47533,-1.79756
693,337,7.48291,-0.376465,0.0220981,0.00153401,-0.00433811,0.0229758,0.000656321,-0.199625,0.0151032,0.0421919,1917,687,7.4829,0.376461
700,337,8.53101,2.67194,0,0,0,0,0,0,0,-1,1924,687,8.53096,-2.67192
707,337,9.28455,2.91534,0,0,0,0,0,0,0,-1,1931,687,9.28452,-2.91532
714,337,0,0,0,0,0,0,0,0,0,-1,1938,687,0,0
721,337,0,0,0,0,0,0,0,0,0,-1,1945,687,0,0
728,337,0,0,0,0,0,0,0,0,0,-1,1952,687,0,0
735,337,0,0,0,0,0,0,0,0,0,-1,1959,687,0,0
742,337,0,0,0,0,0,0,0,0,0,-1,1966,687,0,0
749,337,0,0,0,0,0,0,0,0,0,-1,1973,687,0,0
756,337,0,0,0,0,0,0,0,0,0,-1,1980,687,0,0
763,337,0,0,0,0,0,0,0,0,0,-1,1987,687,0,0
770,337,0,0,0,0,0,0,0,0,0,-1,1994,687,0,0
777,337,0,0,0,0,0,0,0,0,0,-1,2001,687,0,0
784,337,0,0,0,0,0,0,0,0,0,-1,2008,687,0,0
791,337,0,0,0,0,0,0,0,0,0,-1,2015,687,0,0
798,337,0,0,0,0,0,0,0,0,0,-1,2022,687,0,0
805,337,0,0,0,0,0,0,0,0,0,-1,2029,687,0,0
812,337,0,0,0,0,0,0,0,0,0,-1,2036,687,0,0
-700,330,0,0,0,0,0,0,0,0,0,-1,524,694,0,0
-693,330,0,0,0,0,0,0,0,0,0,-1,531,694,0,0
-686,330,0,0,0,0,0,0,0,0,0,-1,538,694,0,0
-679,330,0,0,0,0,0,0,0,0,0,-1,545,694,0,0
-672,330,0,0,0,0,0,0,0,0,0,-1,552,694,0,0
-665,330,0,0,0,0,0,0,0,0,0,-1,559,694,0,0
-658,330,0,0,0,0,0,0,0,0,0,-1,566,694,0,0
-651,330,0,0,0,0,0,0,0,0,0,-1,573,694,0,0
-644,330,0,0,0,0,0,0,0,0,0,-1,580,694,0,0
-637,330,0,0,0,0,0,0,0,0,0,-1,587,694,0,0
-630,330,0,0,0,0,0,0,0,0,0,-1,594,694,0,0
-623,330,0,0,0,0,0,0,0,0,0,-1,601,694,0,0
-616,330,0,0,0,0,0,0,0,0,0,-1,608,694,0,0
-609,330,0,0,0,0,0,0,0,0,0,-1,615,694,0,0
-602,330,0,0,0,0,0,0,0,0,0,-1,622,694,0,0
-595,330,-5.09357,1.38141,0,0,0,0,0,0,0,-1,629,694,-5.09355,-1.38141
-588,330,-2.59424,0.801331,0,0,0,0,0,0,0,-1,636,694,-2.59426,-0.801344
-581,330,-2.62079,0.59198,0,0,0,0,0,0,0,-1,643,694,-2.62077,-0.591999
-574,330,-2.54163,-0.650513,0,0,0,0,0,0,0,-1,650,694,-2.54163,0.650541
-567,330,-2.22949,0.578064,0,0,0,0,0,0,0,-1,657,694,-2.22948,-0.578039
-560,330,-2.32843,0.354553,-0.0283336,0.0198669,0.00804217,0.0211733,-0.02964,1.40976,0.0294725,0.0412984,664,694,-2.32843,-0.354543
-553,330,-2.39392,0.11377,-0.0213387,0.0165991,0.00563249,0.0174177,-0.0221573,1.42648,0.0229032,0.036239,671,694,-2.39391,-0.113761
-546,330,-2.33527,0.0274048,-0.0154575,0.0133151,0.00372634,0.0137899,-0.0159323,1.44407,0.017175,0.0216123,678,694,-2.33526,-0.0273771
-539,330,-2.32574,-0.00964355,-0.0106676,0.0102505,0.00231793,0.0105043,-0.0109214,1.46175,0.0123709,0.00959716,685,694,-2.32577,0.00966324
-532,330,-2.35443,-0.123779,-0.00705225,0.00750096,0.00139811,0.00763406,-0.00718535,1.47588,0.00855729,0.00930694,692,694,-2.35446,0.123751
-525,330,-2.35931,-0.254944,-0.00390762,0.00514235,0.000698832,0.00519599,-0.00396127,1.49418,0.00530294,0.011444,699,694,-2.35932,0.254957
-518,330,-2.35852,-0.378479,-0.00157301,0.00263409,0.000418025,0.00267522,-0.00161414,1.47271,0.0025016,0.0149496,706,694,-2.35851,0.378475
-511,330,-2.32507,-0.501648,-0.000522738,0.00017759,0.000410701,0.000367139,-0.000712287,1.1384,0.000633738,0.0196352,713,694,-2.32505,0.50167
-504,330,-2.31628,-0.638245,0.000133831,-0.00205769,0.000829615,0.000412462,-0.00233632,0.324019,0.00171168,0.017802,720,694,-2.31627,0.63824
-497,330,-2.3454,-0.72467,0.0006467,-0.00393708,0.0015186,0.00110416,-0.00439454,0.29259,0.00335879,0.0126658,727,694,-2.34537,0.724644
-490,330,-2.34564,-0.857971,0.00106616,-0.00579526,0.00230274,0.00176732,-0.00649643,0.295573,0.00502475,0.012751,734,694,-2.34564,0.857975
-483,330,-2.35406,-0.989136,0.00159817,-0.00807724,0.00302707,0.00246717,-0.00894625,0.27956,0.00693443,0.0124556,741,694,-2.35405,0.989112
-476,330,-2.35846,-1.1004,0.00233353,-0.00968263,0.00391617,0.00349716,-0.0108463,0.288826,0.00863591,0.0156748,748,694,-2.35849,1.10038
-469,330,-2.27148,-1.12469,0.00322112,-0.0115515,0.00490515,0.0047015,-0.0130319,0.293107,0.0106083,0.0256441,755,694,-2.27151,1.12468
-462,330,-2.28552,-1.07684,0.00430477,-0.0130483,0.00593361,0.00613966,-0.0148832,0.299909,0.0124826,0.0411979,762,694,-2.28553,1.07687
-455,330,-2.37445,-1.16248,0.00569832,-0.0140237,0.00705498,0.00796217,-0.0162876,0.310507,0.014273,0.0419551,769,694,-2.37443,1.16248
-448,330,-2.64417,-1.41321,0.00749824,-0.0141889,0.00828409,0.0103005,-0.0169912,0.326189,0.0159139,0.0498175,776,694,-2.64415,1.41319
-441,330,-2.89282,-1.60565,0,0,0,0,0,0,0,-1,783,694,-2.89284,1.60565
-434,330,-2.4693,-2.03156,0,0,0,0,0,0,0,-1,790,694,-2.46932,2.03157
-427,330,-1.92902,-2.43671,0,0,0,0,0,0,0,-1,797,694,-1.929,2.43673
-420,330,-2.17853,-2.20648,0,0,0,0,0,0,0,-1,804,694,-2.17855,2.20646
-413,330,-2.27081,-1.64868,0,0,0,0,0,0,0,-1,811,694,-2.27083,1.64868
-406,330,-1.65375,-1.74371,0,0,0,0,0,0,0,-1,818,694,-1.65375,1.74371
-399,330,0,0,0,0,0,0,0,0,0,-1,825,694,0,0
-392,330,0,0,0,0,0,0,0,0,0,-1,832,694,0,0
-385,330,0,0,0,0,0,0,0,0,0,-1,839,694,0,0
-378,330,0,0,0,0,0,0,0,0,0,-1,846,694,0,0
-371,330,0,0,0,0,0,0,0,0,0,-1,853,694,0,0
-364,330,0,0,0,0,0,0,0,0,0,-1,860,694,0,0
-357,330,0,0,0,0,0,0,0,0,0,-1,867,694,0,0
-350,330,0,0,0,0,0,0,0,0,0,-1,874,694,0,0
-343,330,0,0,0,0,0,0,0,0,0,-1,881,694,0,0
-336,330,0,0,0,0,0,0,0,0,0,-1,888,694,0,0
-329,330,0,0,0,0,0,0,0,0,0,-1,895,694,0,0
-322,330,0,0,0,0,0,0,0,0,0,-1,902,694,0,0
-315,330,0,0,0,0,0,0,0,0,0,-1,909,694,0,0
-308,330,0,0,0,0,0,0,0,0,0,-1,916,694,0,0
-301,330,0,0,0,0,0,0,0,0,0,-1,923,694,0,0
-294,330,0,0,0,0,0,0,0,0,0,-1,930,694,0,0
-287,330,0,0,0,0,0,0,0,0,0,-1,937,694,0,0
-280,330,0,0,0,0,0,0,0,0,0,-1,944,694,0,0
-273,330,0,0,0,0,0,0,0,0,0,-1,951,694,0,0
-266,330,0,0,0,0,0,0,0,0,0,-1,958,694,0,0
-259,330,0,0,0,0,0,0,0,0,0,-1,965,694,0,0
-252,330,0,0,0,0,0,0,0,0,0,-1,972,694,0,0
-245,330,0,0,0,0,0,0,0,0,0,-1,979,694,0,0
-238,330,0,0,0,0,0,0,0,0,0,-1,986,694,0,0
-231,330,0,0,0,0,0,0,0,0,0,-1,993,694,0,0
-224,330,0,0,0,0,0,0,0,0,0,-1,1000,694,0,0
-217,330,0,0,0,0,0,0,0,0,0,-1,1007,694,0,0
-210,330,0,0,0,0,0,0,0,0,0,-1,1014,694,0,0
-203,330,0,0,0,0,0,0,0,0,0,-1,1021,694,0,0
-196,330,0,0,0,0,0,0,0,0,0,-1,1028,694,0,0
-189,330,0,0,0,0,0,0,0,0,0,-1,1035,694,0,0
-182,330,0,0,0,0,0,0,0,0,0,-1,1042,694,0,0
-175,330,0,0,0,0,0,0,0,0,0,-1,1049,694,0,0
-168,330,0,0,0,0,0,0,0,0,0,-1,1056,694,0,0
-161,330,0,0,0,0,0,0,0,0,0,-1,1063,694,0,0
-154,330,0,0,0,0,0,0,0,0,0,-1,1070,694,0,0
-147,330,0,0,0,0,0,0,0,0,0,-1,1077,694,0,0
-140,330,0,0,0,0,0,0,0,0,0,-1,1084,694,0,0
-133,330,0,0,0,0,0,0,0,0,0,-1,1091,694,0,0
-126,330,0,0,0,0,0,0,0,0,0,-1,1098,694,0,0
-119,330,0,0,0,0,0,0,0,0,0,-1,1105,694,0,0
-112,330,0,0,0,0,0,0,0,0,0,-1,1112,694,0,0
-105,330,0,0,0,0,0,0,0,0,0,-1,1119,694,0,0
-98,330,0,0,0,0,0,0,0,0,0,-1,1126,694,0,0
-91,330,0,0,0,0,0,0,0,0,0,-1,1133,694,0,0
-84,330,0,0,0,0,0,0,0,0,0,-1,1140,694,0,0
-77,330,0,0,0,0,0,0,0,0,0,-1,1147,694,0,0
-70,330,0,0,0,0,0,0,0,0,0,-1,1154,694,0,0
-63,330,0,0,0,0,0,0,0,0,0,-1,1161,694,0,0
-56,330,0,0,0,0,0,0,0,0,0,-1,1168,694,0,0
-49,330,0,0,0,0,0,0,0,0,0,-1,1175,694,0,0
-42,330,0,0,0,0,0,0,0,0,0,-1,1182,694,0,0
-35,330,0,0,0,0,0,0,0,0,0,-1,1189,694,0,0
-28,330,0,0,0,0,0,0,0,0,0,-1,1196,694,0,0
-21,330,0,0,0,0,0,0,0,0,0,-1,1203,694,0,0
-14,330,0,0,0,0,0,0,0,0,0,-1,1210,694,0,0
-7,330,0,0,0,0,0,0,0,0,0,-1,1217,694,0,0
0,330,0,0,0,0,0,0,0,0,0,-1,1224,694,0,0
7,330,0,0,0,0,0,0,0,0,0,-1,1231,694,0,0
14,330,0,0,0,0,0,0,0,0,0,-1,1238,694,0,0
21,330,0,0,0,0,0,0,0,0,0,-1,1245,694,0,0
28,330,0,0,0,0,0,0,0,0,0,-1,1252,694,0,0
35,330,0,0,0,0,0,0,0,0,0,-1,1259,694,0,0
42,330,0,0,0,0,0,0,0,0,0,-1,1266,694,0,0
49,330,0,0,0,0,0,0,0,0,0,-1,1273,694,0,0
56,330,0,0,0,0,0,0,0,0,0,-1,1280,694,0,0
63,330,0,0,0,0,0,0,0,0,0,-1,1287,694,0,0
70,330,0,0,0,0,0,0,0,0,0,-1,1294,694,0,0
77,330,0,0,0,0,0,0,0,0,0,-1,1301,694,0,0
84,330,0,0,0,0,0,0,0,0,0,-1,1308,694,0,0
91,330,0,0,0,0,0,0,0,0,0,-1,1315,694,0,0
98,330,0,0,0,0,0,0,0,0,0,-1,1322,694,0,0
105,330,0,0,0,0,0,0,0,0,0,-1,1329,694,0,0
112,330,0,0,0,0,0,0,0,0,0,-1,1336,694,0,0
119,330,0,0,0,0,0,0,0,0,0,-1,1343,694,0,0
126,330,0,0,0,0,0,0,0,0,0,-1,1350,694,0,0
133,330,0,0,0,0,0,0,0,0,0,-1,1357,694,0,0
140,330,0,0,0,0,0,0,0,0,0,-1,1364,694,0,0
147,330,0,0,0,0,0,0,0,0,0,-1,1371,694,0,0
154,330,0,0,0,0,0,0,0,0,0,-1,1378,694,0,0
161,330,0,0,0,0,0,0,0,0,0,-1,1385,694,0,0
168,330,0,0,0,0,0,0,0,0,0,-1,1392,694,0,0
175,330,0,0,0,0,0,0,0,0,0,-1,1399,694,0,0
182,330,0,0,0,0,0,0,0,0,0,-1,1406,694,0,0
189,330,0,0,0,0,0,0,0,0,0,-1,1413,694,0,0
196,330,0,0,0,0,0,0,0,0,0,-1,1420,694,0,0
203,330,0,0,0,0,0,0,0,0,0,-1,1427,694,0,0
210,330,0,0,0,0,0,0,0,0,0,-1,1434,694,0,0
217,330,0,0,0,0,0,0,0,0,0,-1,1441,694,0,0
224,330,0,0,0,0,0,0,0,0,0,-1,1448,694,0,0
231,330,0,0,0,0,0,0,0,0,0,-1,1455,694,0,0
238,330,0,0,0,0,0,0,0,0,0,-1,1462,694,0,0
245,330,0,0,0,0,0,0,0,0,0,-1,1469,694,0,0
252,330,0,0,0,0,0,0,0,0,0,-1,1476,694,0,0
259,330,0,0,0,0,0,0,0,0,0,-1,1483,694,0,0
266,330,0,0,0,0,0,0,0,0,0,-1,1490,694,0,0
273,330,0,0,0,0,0,0,0,0,0,-1,1497,694,0,0
280,330,0,0,0,0,0,0,0,0,0,-1,1504,694,0,0
287,330,0,0,0,0,0,0,0,0,0,-1,1511,694,0,0
294,330,0,0,0,0,0,0,0,0,0,-1,1518,694,0,0
301,330,0,0,0,0,0,0,0,0,0,-1,1525,694,0,0
308,330,0,0,0,0,0,0,0,0,0,-1,1532,694,0,0
315,330,0,0,0,0,0,0,0,0,0,-1,1539,694,0,0
322,330,0,0,0,0,0,0,0,0,0,-1,1546,694,0,0
329,330,0,0,0,0,0,0,0,0,0,-1,1553,694,0,0
336,330,0,0,0,0,0,0,0,0,0,-1,1560,694,0,0
343,330,0,0,0,0,0,0,0,0,0,-1,1567,694,0,0
350,330,0,0,0,0,0,0,0,0,0,-1,1574,694,0,0
357,330,0,0,0,0,0,0,0,0,0,-1,1581,694,0,0
364,330,0,0,0,0,0,0,0,0,0,-1,1588,694,0,0
371,330,0,0,0,0,0,0,0,0,0,-1,1595,694,0,0
378,330,0,0,0,0,0,0,0,0,0,-1,1602,694,0,0
385,330,0,0,0,0,0,0,0,0,0,-1,1609,694,0,0
392,330,0,0,0,0,0,0,0,0,0,-1,1616,694,0,0
399,330,0,0,0,0,0,0,0,0,0,-1,1623,694,0,0
406,330,0,0,0,0,0,0,0,0,0,-1,1630,694,0,0
413,330,0,0,0,0,0,0,0,0,0,-1,1637,694,0,0
420,330,0,0,0,0,0,0,0,0,0,-1,1644,694,0,0
427,330,0,0,0,0,0,0,0,0,0,-1,1651,694,0,0
434,330,0,0,0,0,0,0,0,0,0,-1,1658,694,0,0
441,330,0,0,0,0,0,0,0,0,0,-1,1665,694,0,0
448,330,0,0,0,0,0,0,0,0,0,-1,1672,694,0,0
455,330,0,0,0,0,0,0,0,0,0,-1,1679,694,0,0
462,330,0,0,0,0,0,0,0,0,0,-1,1686,694,0,0
469,330,0,0,0,0,0,0,0,0,0,-1,1693,694,0,0
476,330,0,0,0,0,0,0,0,0,0,-1,1700,694,0,0
483,330,0,0,0,0,0,0,0,0,0,-1,1707,694,0,0
490,330,0,0,0,0,0,0,0,0,0,-1,1714,694,0,0
497,330,0,0,0,0,0,0,0,0,0,-1,1721,694,0,0
504,330,0,0,0,0,0,0,0,0,0,-1,1728,694,0,0
511,330,0,0,0,0,0,0,0,0,0,-1,1735,694,0,0
518,330,0,0,0,0,0,0,0,0,0,-1,1742,694,0,0
525,330,9.00476,3.8075,0,0,0,0,0,0,0,-1,1749,694,9.0047,-3.80748
532,330,9.14526,3.20636,0,0,0,0,0,0,0,-1,1756,694,9.14525,-3.20638
539,330,9.88,3.0589,0,0,0,0,0,0,0,-1,1763,694,9.88004,-3.05893
546,330,9.69946,2.70905,0,0,0,0,0,0,0,-1,1770,694,9.69947,-2.70902
553,330,9.52112,2.42145,0,0,0,0,0,0,0,-1,1777,694,9.52108,-2.42143
560,330,9.34863,2.56622,0,0,0,0,0,0,0,-1,1784,694,9.34863,-2.56625
567,330,11.514,0.527527,0,0,0,0,0,0,0,-1,1791,694,11.5141,-0.527546
574,330,8.26758,-0.167542,0,0,0,0,0,0,0,-1,1798,694,8.26764,0.167555
581,330,6.65259,0.270813,0,0,0,0,0,0,0,-1,1805,694,6.65258,-0.270793
588,330,6.45667,-0.0630493,0,0,0,0,0,0,0,-1,1812,694,6.45661,0.0630695
595,330,7.60095,-0.0853882,0,0,0,0,0,0,0,-1,1819,694,7.60094,0.0853577
602,330,7.44556,-0.0393066,-0.0171676,-0.00870207,-0.00816586,-0.00373714,-0.0221325,-1.02451,0.0136805,0.0458518,1826,694,7.44556,0.0392941
609,330,7.36255,-0.0268555,-0.0104299,-0.00633304,-0.00572657,-0.00229957,-0.0144634,-0.957161,0.00897449,0.0195914,1833,694,7.3626,0.0268591
616,330,7.41162,0.110352,-0.00517252,-0.00421507,-0.00386637,-0.000797901,-0.00858969,-0.846993,0.00547989,0.0106957,1840,694,7.41165,-0.110366
623,330,7.40942,0.235535,-0.00199353,-0.00293389,-0.00240402,-1.41426e-05,-0.00491327,-0.688827,0.00327081,0.0129868,1847,694,7.40944,-0.235531
630,330,7.42151,0.375183,-0.000165815,-0.00194161,-0.00134673,0.000559375,-0.0026668,-0.493956,0.0019907,0.0135802,1854,694,7.4215,-0.375183
637,330,7.427,0.513367,0.000581632,-0.00109108,-0.00104256,0.00108185,-0.00159129,-0.447353,0.00155265,0.0116909,1861,694,7.42702,-0.513352
644,330,7.41858,0.652588,0.00112144,-0.000976655,-0.00115375,0.00163176,-0.00148698,-0.416446,0.00180125,0.00763632,1868,694,7.41853,-0.652614
651,330,7.4187,0.784729,0.00219162,-0.000945917,-0.00127084,0.00264178,-0.00139608,-0.340432,0.00236795,0.0107322,1875,694,7.41874,-0.784758
658,330,7.41382,0.907837,0.00343065,-0.000673538,-0.00144179,0.00388652,-0.0011294,-0.306232,0.00303827,0.0114257,1882,694,7.41381,-0.907809
665,330,7.41504,1.03796,0.00499154,-0.000672664,-0.00179496,0.00551245,-0.00119357,-0.282448,0.00413071,0.0098219,1889,694,7.41509,-1.03794
672,330,7.41675,1.17731,0.00705142,-0.000679016,-0.00243289,0.00775336,-0.00138095,-0.28089,0.0056854,0.0113343,1896,694,7.41674,-1.17729
679,330,7.33289,1.33392,0.00972472,-0.000176717,-0.00353608,0.0108579,-0.00130987,-0.310115,0.00771237,0.0232662,1903,694,7.33286,-1.33394
686,330,7.49109,1.57135,0.0130886,0.0003527,-0.00481655,0.014705,-0.0012637,-0.323783,0.0102506,0.0383245,1910,694,7.49113,-1.57136
693,330,7.38037,0.400879,0.0172847,0.00159301,-0.0065824,0.0196802,-0.000802496,-0.349027,0.0133956,0.0466734,1917,694,7.38034,-0.400897
700,330,8.09058,0.218811,0,0,0,0,0,0,0,-1,1924,694,8.09061,-0.218804
707,330,10.7957,-2.12073,0,0,0,0,0,0,0,-1,1931,694,10.7957,2.12074
714,330,11.6149,-2.63086,0,0,0,0,0,0,0,-1,1938,694,11.6149,2.63084
721,330,0,0,0,0,0,0,0,0,0,-1,1945,694,0,0
728,330,0,0,0,0,0,0,0,0,0,-1,1952,694,0,0
735,330,0,0,0,0,0,0,0,0,0,-1,1959,694,0,0
742,330,0,0,0,0,0,0,0,0,0,-1,1966,694,0,0
749,330,0,0,0,0,0,0,0,0,0,-1,1973,694,0,0
756,330,0,0,0,0,0,0,0,0,0,-1,1980,694,0,0
763,330,0,0,0,0,0,0,0,0,0,-1,1987,694,0,0
770,330,0,0,0,0,0,0,0,0,0,-1,1994,694,0,0
777,330,0,0,0,0,0,0,0,0,0,-1,2001,694,0,0
784,330,0,0,0,0,0,0,0,0,0,-1,2008,694,0,0
791,330,0,0,0,0,0,0,0,0,0,-1,2015,694,0,0
798,330,0,0,0,0,0,0,0,0,0,-1,2022,694,0,0
805,330,0,0,0,0,0,0,0,0,0,-1,2029,694,0,0
812,330,0,0,0,0,0,0,0,0,0,-1,2036,694,0,0
-700,323,0,0,0,0,0,0,0,0,0,-1,524,701,0,0
-693,323,0,0,0,0,0,0,0,0,0,-1,531,701,0,0
-686,323,0,0,0,0,0,0,0,0,0,-1,538,701,0,0
-679,323,0,0,0,0,0,0,0,0,0,-1,545,701,0,0
-672,323,0,0,0,0,0,0,0,0,0,-1,552,701,0,0
-665,323,0,0,0,0,0,0,0,0,0,-1,559,701,0,0
-658,323,0,0,0,0,0,0,0,0,0,-1,566,701,0,0
-651,323,0,0,0,0,0,0,0,0,0,-1,573,701,0,0
-644,323,0,0,0,0,0,0,0,0,0,-1,580,701,0,0
-637,323,0,0,0,0,0,0,0,0,0,-1,587,701,0,0
-630,323,0,0,0,0,0,0,0,0,0,-1,594,701,0,0
-623,323,0,0,0,0,0,0,0,0,0,-1,601,701,0,0
-616,323,0,0,0,0,0,0,0,0,0,-1,608,701,0,0
-609,323,0,0,0,0,0,0,0,0,0,-1,615,701,0,0
-602,323,-4.90515,1.67859,0,0,0,0,0,0,0,-1,622,701,-4.90515,-1.67861
-595,323,-4.3266,1.50891,0,0,0,0,0,0,0,-1,629,701,-4.3266,-1.50892
-588,323,-0.623779,-0.92865,0,0,0,0,0,0,0,-1,636,701,-0.623783,0.928648
-581,323,-3.19196,1.30127,0,0,0,0,0,0,0,-1,643,701,-3.19193,-1.30125
-574,323,-1.72021,0.898132,0,0,0,0,0,0,0,-1,650,701,-1.72023,-0.898148
-567,323,-2.03522,1.1709,0,0,0,0,0,0,0,-1,657,701,-2.03523,-1.17091
-560,323,-2.30176,0.603455,-0.0222201,0.0145159,0.00716904,0.0158653,-0.0235696,1.38474,0.0229122,0.043769,664,701,-2.30177,-0.60345
-553,323,-2.49481,0.124207,-0.0172521,0.0123323,0.00534198,0.0132673,-0.0181871,1.39752,0.0182341,0.0271176,671,701,-2.49481,-0.124187
-546,323,-2.46906,0.100403,-0.0127644,0.00990701,0.00372614,0.0105037,-0.0133611,1.41201,0.0138112,0.0095323,678,701,-2.46907,-0.1004
-539,323,-2.46643,0.00585938,-0.00877341,0.00746754,0.00244508,0.00782767,-0.00913354,1.42456,0.00980223,0.0093612,685,701,-2.46641,-0.00585413
-532,323,-2.46967,-0.119873,-0.00576467,0.00522367,0.001634,0.00546151,-0.00600251,1.42626,0.00662121,0.00921794,692,701,-2.46966,0.119849
-525,323,-2.48315,-0.245239,-0.00316281,0.00317328,0.00109045,0.00335569,-0.00334523,1.40505,0.00386878,0.00810751,699,701,-2.48315,0.245255
-518,323,-2.49182,-0.359192,-0.00123113,0.000955488,0.000920642,0.00129148,-0.00156712,1.22086,0.00165297,0.00990011,706,701,-2.4918,0.359178
-511,323,-2.50684,-0.482788,-0.000308238,-0.00139782,0.00100314,0.000288497,-0.00199456,0.536638,0.00143557,0.0132913,713,701,-2.50686,0.482811
-504,323,-2.49402,-0.603638,0.000391316,-0.00370794,0.00146475,0.000860908,-0.00417753,0.310243,0.00311194,0.0144693,720,701,-2.49401,0.603617
-497,323,-2.46576,-0.721436,0.00116946,-0.00566913,0.00227172,0.00185532,-0.00635499,0.29321,0.00497186,0.0119907,727,701,-2.46575,0.72146
-490,323,-2.46729,-0.849426,0.00188295,-0.00778518,0.00306786,0.00277426,-0.00867649,0.282748,0.00689763,0.0125645,734,701,-2.46729,0.849396
-483,323,-2.47498,-0.970642,0.00281773,-0.0103485,0.00374394,0.00380789,-0.0113387,0.258551,0.00909802,0.0134917,741,701,-2.47496,0.970666
-476,323,-2.40955,-1.09961,0.00406356,-0.0121806,0.00452138,0.00523723,-0.0133543,0.253978,0.0110696,0.0213144,748,701,-2.40956,1.09963
-469,323,-2.27692,-0.903381,0.00556999,-0.0142141,0.00529396,0.00689751,-0.0155416,0.245694,0.0132718,0.0479228,755,701,-2.27693,0.903402
-462,323,-2.25372,-0.71283,0.00737005,-0.0158445,0.0059873,0.00882328,-0.0172978,0.238113,0.0153433,0.0476173,762,701,-2.25374,0.712818
-455,323,-2.15131,-0.598755,0.009487,-0.0168287,0.00662851,0.0110623,-0.0184041,0.233329,0.0171875,0.0469446,769,701,-2.15131,0.598763
-448,323,-2.50641,-0.979614,0.0119165,-0.0167433,0.00722481,0.0136348,-0.0184616,0.233492,0.0186005,0.0491488,776,701,-2.50641,0.9796
-441,323,-2.72247,-1.27026,0,0,0,0,0,0,0,-1,783,701,-2.72248,1.27028
-434,323,-3.302,-1.16876,0,0,0,0,0,0,0,-1,790,701,-3.30198,1.16878
-427,323,-1.88208,-3.13885,0,0,0,0,0,0,0,-1,797,701,-1.88208,3.13886
-420,323,-3.32556,-1.98389,0,0,0,0,0,0,0,-1,804,701,-3.32554,1.98389
-413,323,-2.47992,-2.01886,0,0,0,0,0,0,0,-1,811,701,-2.47991,2.01887
-406,323,0,0,0,0,0,0,0,0,0,-1,818,701,0,0
-399,323,0,0,0,0,0,0,0,0,0,-1,825,701,0,0
-392,323,0,0,0,0,0,0,0,0,0,-1,832,701,0,0
-385,323,0,0,0,0,0,0,0,0,0,-1,839,701,0,0
-378,323,0,0,0,0,0,0,0,0,0,-1,846,701,0,0
-371,323,0,0,0,0,0,0,0,0,0,-1,853,701,0,0
-364,323,0,0,0,0,0,0,0,0,0,-1,860,701,0,0
-357,323,0,0,0,0,0,0,0,0,0,-1,867,701,0,0
-350,323,0,0,0,0,0,0,0,0,0,-1,874,701,0,0
-343,323,0,0,0,0,0,0,0,0,0,-1,881,701,0,0
-336,323,0,0,0,0,0,0,0,0,0,-1,888,701,0,0
-329,323,0,0,0,0,0,0,0,0,0,-1,895,701,0,0
-322,323,0,0,0,0,0,0,0,0,0,-1,902,701,0,0
-315,323,0,0,0,0,0,0,0,0,0,-1,909,701,0,0
-308,323,0,0,0,0,0,0,0,0,0,-1,916,701,0,0
-301,323,0,0,0,0,0,0,0,0,0,-1,923,701,0,0
-294,323,0,0,0,0,0,0,0,0,0,-1,930,701,0,0
-287,323,0,0,0,0,0,0,0,0,0,-1,937,701,0,0
-280,323,0,0,0,0,0,0,0,0,0,-1,944,701,0,0
-273,323,0,0,0,0,0,0,0,0,0,-1,951,701,0,0
-266,323,0,0,0,0,0,0,0,0,0,-1,958,701,0,0
-259,323,0,0,0,0,0,0,0,0,0,-1,965,701,0,0
-252,323,0,0,0,0,0,0,0,0,0,-1,972,701,0,0
-245,323,0,0,0,0,0,0,0,0,0,-1,979,701,0,0
-238,323,0,0,0,0,0,0,0,0,0,-1,986,701,0,0
-231,323,0,0,0,0,0,0,0,0,0,-1,993,701,0,0
-224,323,0,0,0,0,0,0,0,0,0,-1,1000,701,0,0
-217,323,0,0,0,0,0,0,0,0,0,-1,1007,701,0,0
-210,323,0,0,0,0,0,0,0,0,0,-1,1014,701,0,0
-203,323,0,0,0,0,0,0,0,0,0,-1,1021,701,0,0
-196,323,0,0,0,0,0,0,0,0,0,-1,1028,701,0,0
-189,323,0,0,0,0,0,0,0,0,0,-1,1035,701,0,0
-182,323,0,0,0,0,0,0,0,0,0,-1,1042,701,0,0
-175,323,0,0,0,0,0,0,0,0,0,-1,1049,701,0,0
-168,323,0,0,0,0,0,0,0,0,0,-1,1056,701,0,0
-161,323,0,0,0,0,0,0,0,0,0,-1,1063,701,0,0
-154,323,0,0,0,0,0,0,0,0,0,-1,1070,701,0,0
-147,323,0,0,0,0,0,0,0,0,0,-1,1077,701,0,0
-140,323,0,0,0,0,0,0,0,0,0,-1,1084,701,0,0
-133,323,0,0,0,0,0,0,0,0,0,-1,1091,701,0,0
-126,323,0,0,0,0,0,0,0,0,0,-1,1098,701,0,0
-119,323,0,0,0,0,0,0,0,0,0,-1,1105,701,0,0
-112,323,0,0,0,0,0,0,0,0,0,-1,1112,701,0,0
-105,323,0,0,0,0,0,0,0,0,0,-1,1119,701,0,0
-98,323,0,0,0,0,0,0,0,0,0,-1,1126,701,0,0
-91,323,0,0,0,0,0,0,0,0,0,-1,1133,701,0,0
-84,323,0,0,0,0,0,0,0,0,0,-1,1140,701,0,0
-77,323,0,0,0,0,0,0,0,0,0,-1,1147,701,0,0
-70,323,0,0,0,0,0,0,0,0,0,-1,1154,701,0,0
-63,323,0,0,0,0,0,0,0,0,0,-1,1161,701,0,0
-56,323,0,0,0,0,0,0,0,0,0,-1,1168,701,0,0
-49,323,0,0,0,0,0,0,0,0,0,-1,1175,701,0,0
-42,323,0,0,0,0,0,0,0,0,0,-1,1182,701,0,0
-35,323,0,0,0,0,0,0,0,0,0,-1,1189,701,0,0
-28,323,0,0,0,0,0,0,0,0,0,-1,1196,701,0,0
-21,323,0,0,0,0,0,0,0,0,0,-1,1203,701,0,0
-14,323,0,0,0,0,0,0,0,0,0,-1,1210,701,0,0
-7,323,0,0,0,0,0,0,0,0,0,-1,1217,701,0,0
0,323,0,0,0,0,0,0,0,0,0,-1,1224,701,0,0
7,323,0,0,0,0,0,0,0,0,0,-1,1231,701,0,0
14,323,0,0,0,0,0,0,0,0,0,-1,1238,701,0,0
21,323,0,0,0,0,0,0,0,0,0,-1,1245,701,0,0
28,323,0,0,0,0,0,0,0,0,0,-1,1252,701,0,0
35,323,0,0,0,0,0,0,0,0,0,-1,1259,701,0,0
42,323,0,0,0,0,0,0,0,0,0,-1,1266,701,0,0
49,323,0,0,0,0,0,0,0,0,0,-1,1273,701,0,0
56,323,0,0,0,0,0,0,0,0,0,-1,1280,701,0,0
63,323,0,0,0,0,0,0,0,0,0,-1,1287,701,0,0
70,323,0,0,0,0,0,0,0,0,0,-1,1294,701,0,0
77,323,0,0,0,0,0,0,0,0,0,-1,1301,701,0,0
84,323,0,0,0,0,0,0,0,0,0,-1,1308,701,0,0
91,323,0,0,0,0,0,0,0,0,0,-1,1315,701,0,0
98,323,0,0,0,0,0,0,0,0,0,-1,1322,701,0,0
105,323,0,0,0,0,0,0,0,0,0,-1,1329,701,0,0
112,323,0,0,0,0,0,0,0,0,0,-1,1336,701,0,0
119,323,0,0,0,0,0,0,0,0,0,-1,1343,701,0,0
126,323,0,0,0,0,0,0,0,0,0,-1,1350,701,0,0
133,323,0,0,0,0,0,0,0,0,0,-1,1357,701,0,0
140,323,0,0,0,0,0,0,0,0,0,-1,1364,701,0,0
147,323,0,0,0,0,0,0,0,0,0,-1,1371,701,0,0
154,323,0,0,0,0,0,0,0,0,0,-1,1378,701,0,0
161,323,0,0,0,0,0,0,0,0,0,-1,1385,701,0,0
168,323,0,0,0,0,0,0,0,0,0,-1,1392,701,0,0
175,323,0,0,0,0,0,0,0,0,0,-1,1399,701,0,0
182,323,0,0,0,0,0,0,0,0,0,-1,1406,701,0,0
189,323,0,0,0,0,0,0,0,0,0,-1,1413,701,0,0
196,323,0,0,0,0,0,0,0,0,0,-1,1420,701,0,0
203,323,0,0,0,0,0,0,0,0,0,-1,1427,701,0,0
210,323,0,0,0,0,0,0,0,0,0,-1,1434,701,0,0
217,323,0,0,0,0,0,0,0,0,0,-1,1441,701,0,0
224,323,0,0,0,0,0,0,0,0,0,-1,1448,701,0,0
231,323,0,0,0,0,0,0,0,0,0,-1,1455,701,0,0
238,323,0,0,0,0,0,0,0,0,0,-1,1462,701,0,0
245,323,0,0,0,0,0,0,0,0,0,-1,1469,701,0,0
252,323,0,0,0,0,0,0,0,0,0,-1,1476,701,0,0
259,323,0,0,0,0,0,0,0,0,0,-1,1483,701,0,0
266,323,0,0,0,0,0,0,0,0,0,-1,1490,701,0,0
273,323,0,0,0,0,0,0,0,0,0,-1,1497,701,0,0
280,323,0,0,0,0,0,0,0,0,0,-1,1504,701,0,0
287,323,0,0,0,0,0,0,0,0,0,-1,1511,701,0,0
294,323,0,0,0,0,0,0,0,0,0,-1,1518,701,0,0
301,323,0,0,0,0,0,0,0,0,0,-1,1525,701,0,0
308,323,0,0,0,0,0,0,0,0,0,-1,1532,701,0,0
315,323,0,0,0,0,0,0,0,0,0,-1,1539,701,0,0
322,323,0,0,0,0,0,0,0,0,0,-1,1546,701,0,0
329,323,0,0,0,0,0,0,0,0,0,-1,1553,701,0,0
336,323,0,0,0,0,0,0,0,0,0,-1,1560,701,0,0
343,323,0,0,0,0,0,0,0,0,0,-1,1567,701,0,0
350,323,0,0,0,0,0,0,0,0,0,-1,1574,701,0,0
357,323,0,0,0,0,0,0,0,0,0,-1,1581,701,0,0
364,323,0,0,0,0,0,0,0,0,0,-1,1588,701,0,0
371,323,0,0,0,0,0,0,0,0,0,-1,1595,701,0,0
378,323,0,0,0,0,0,0,0,0,0,-1,1602,701,0,0
385,323,0,0,0,0,0,0,0,0,0,-1,1609,701,0,0
392,323,0,0,0,0,0,0,0,0,0,-1,1616,701,0,0
399,323,0,0,0,0,0,0,0,0,0,-1,1623,701,0,0
406,323,0,0,0,0,0,0,0,0,0,-1,1630,701,0,0
413,323,0,0,0,0,0,0,0,0,0,-1,1637,701,0,0
420,323,0,0,0,0,0,0,0,0,0,-1,1644,701,0,0
427,323,0,0,0,0,0,0,0,0,0,-1,1651,701,0,0
434,323,0,0,0,0,0,0,0,0,0,-1,1658,701,0,0
441,323,0,0,0,0,0,0,0,0,0,-1,1665,701,0,0
448,323,0,0,0,0,0,0,0,0,0,-1,1672,701,0,0
455,323,0,0,0,0,0,0,0,0,0,-1,1679,701,0,0
462,323,0,0,0,0,0,0,0,0,0,-1,1686,701,0,0
469,323,0,0,0,0,0,0,0,0,0,-1,1693,701,0,0
476,323,0,0,0,0,0,0,0,0,0,-1,1700,701,0,0
483,323,0,0,0,0,0,0,0,0,0,-1,1707,701,0,0
490,323,0,0,0,0,0,0,0,0,0,-1,1714,701,0,0
497,323,0,0,0,0,0,0,0,0,0,-1,1721,701,0,0
504,323,0,0,0,0,0,0,0,0,0,-1,1728,701,0,0
511,323,0,0,0,0,0,0,0,0,0,-1,1735,701,0,0
518,323,0,0,0,0,0,0,0,0,0,-1,1742,701,0,0
525,323,0,0,0,0,0,0,0,0,0,-1,1749,701,0,0
532,323,8.89502,2.78705,0,0,0,0,0,0,0,-1,1756,701,8.89499,-2.78706
539,323,9.07666,3.10071,0,0,0,0,0,0,0,-1,1763,701,9.07666,-3.10072
546,323,10.3722,2.7464,0,0,0,0,0,0,0,-1,1770,701,10.3721,-2.74637
553,323,9.98853,2.56152,0,0,0,0,0,0,0,-1,1777,701,9.98857,-2.56152
560,323,9.62256,2.36646,0,0,0,0,0,0,0,-1,1784,701,9.62252,-2.36648
567,323,9.40735,2.29913,0,0,0,0,0,0,0,-1,1791,701,9.4073,-2.29916
574,323,9.4834,2.2381,0,0,0,0,0,0,0,-1,1798,701,9.48336,-2.2381
581,323,9.28247,0.563904,0,0,0,0,0,0,0,-1,1805,701,9.28246,-0.563886
588,323,12.2572,-0.343018,0,0,0,0,0,0,0,-1,1812,701,12.2572,0.343006
595,323,6.67847,0.06604,0,0,0,0,0,0,0,-1,1819,701,6.67841,-0.0660418
602,323,7.30017,-0.0406494,0,0,0,0,0,0,0,-1,1826,701,7.30015,0.0406344
609,323,7.46289,0.0218506,-0.0103931,-0.00459601,-0.00553065,-0.00125037,-0.0137387,-1.02676,0.00877209,0.0323213,1833,701,7.46294,-0.0218302
616,323,7.54285,0.110168,-0.00520835,-0.00320014,-0.00385219,-0.000223335,-0.00818515,-0.91289,0.00538387,0.0134294,1840,701,7.54282,-0.110171
623,323,7.56274,0.252075,-0.00192844,-0.00245469,-0.00254952,0.000371493,-0.00475462,-0.733977,0.00330056,0.013466,1847,701,7.56269,-0.252081
630,323,7.55762,0.399658,-0.000149819,-0.00186997,-0.00151976,0.000736358,-0.00275615,-0.527903,0.00212583,0.013639,1854,701,7.55766,-0.399639
637,323,7.56055,0.535278,0.000354355,-0.00110977,-0.00117742,0.00100874,-0.00176415,-0.507268,0.00162061,0.010187,1861,701,7.56051,-0.535288
644,323,7.55969,0.654968,0.000682266,-0.0010249,-0.00123904,0.00133328,-0.00167591,-0.483777,0.00174111,0.00791315,1868,701,7.55965,-0.654951
651,323,7.54395,0.792603,0.00145401,-0.00103493,-0.00138884,0.00207437,-0.00165529,-0.420084,0.00215784,0.00941582,1875,701,7.5439,-0.792599
658,323,7.52051,0.921936,0.00240646,-0.000764653,-0.00158285,0.00306131,-0.0014195,-0.392273,0.00264425,0.011084,1882,701,7.52048,-0.921919
665,323,7.52979,1.04749,0.00355992,-0.000772154,-0.0019929,0.00433724,-0.00154947,-0.371896,0.00352344,0.010157,1889,701,7.52973,-1.04751
672,323,7.5332,1.19391,0.00513376,-0.000730867,-0.00275457,0.00622465,-0.00182175,-0.377077,0.0048719,0.00959194,1896,701,7.53317,-1.19392
679,323,7.49866,1.32733,0.00722663,0.0001014,-0.00407428,0.00907622,-0.00174819,-0.426149,0.00670989,0.0174715,1903,701,7.49864,-1.32735
686,323,7.36902,1.39093,0.00988576,0.000978031,-0.0055918,0.0125807,-0.00171689,-0.449097,0.00901408,0.0396162,1910,701,7.36907,-1.39095
693,323,7.26367,1.33044,0.0132723,0.00277038,-0.00766027,0.0173086,-0.00126587,-0.484941,0.0119833,0.0498568,1917,701,7.2637,-1.33043
700,323,7.31812,1.1142,0,0,0,0,0,0,0,-1,1924,701,7.31806,-1.11421
707,323,11.5486,-2.54358,0,0,0,0,0,0,0,-1,1931,701,11.5485,2.54356
714,323,12.3586,-3.36151,0,0,0,0,0,0,0,-1,1938,701,12.3586,3.3615
721,323,0,0,0,0,0,0,0,0,0,-1,1945,701,0,0
728,323,0,0,0,0,0,0,0,0,0,-1,1952,701,0,0
735,323,0,0,0,0,0,0,0,0,0,-1,1959,701,0,0
742,323,0,0,0,0,0,0,0,0,0,-1,1966,701,0,0
749,323,0,0,0,0,0,0,0,0,0,-1,1973,701,0,0
756,323,0,0,0,0,0,0,0,0,0,-1,1980,701,0,0
763,323,0,0,0,0,0,0,0,0,0,-1,1987,701,0,0
770,323,0,0,0,0,0,0,0,0,0,-1,1994,701,0,0
777,323,0,0,0,0,0,0,0,0,0,-1,2001,701,0,0
784,323,0,0,0,0,0,0,0,0,0,-1,2008,701,0,0
791,323,0,0,0,0,0,0,0,0,0,-1,2015,701,0,0
798,323,0,0,0,0,0,0,0,0,0,-1,2022,701,0,0
805,323,0,0,0,0,0,0,0,0,0,-1,2029,701,0,0
812,323,0,0,0,0,0,0,0,0,0,-1,2036,701,0,0
-700,316,0,0,0,0,0,0,0,0,0,-1,524,708,0,0
-693,316,0,0,0,0,0,0,0,0,0,-1,531,708,0,0
-686,316,0,0,0,0,0,0,0,0,0,-1,538,708,0,0
-679,316,0,0,0,0,0,0,0,0,0,-1,545,708,0,0
-672,316,0,0,0,0,0,0,0,0,0,-1,552,708,0,0
-665,316,0,0,0,0,0,0,0,0,0,-1,559,708,0,0
-658,316,0,0,0,0,0,0,0,0,0,-1,566,708,0,0
-651,316,0,0,0,0,0,0,0,0,0,-1,573,708,0,0
-644,316,0,0,0,0,0,0,0,0,0,-1,580,708,0,0
-637,316,0,0,0,0,0,0,0,0,0,-1,587,708,0,0
-630,316,0,0,0,0,0,0,0,0,0,-1,594,708,0,0
-623,316,0,0,0,0,0,0,0,0,0,-1,601,708,0,0
-616,316,0,0,0,0,0,0,0,0,0,-1,608,708,0,0
-609,316,0,0,0,0,0,0,0,0,0,-1,615,708,0,0
-602,316,-5.51263,0.939758,0,0,0,0,0,0,0,-1,622,708,-5.51265,-0.939771
-595,316,-0.828125,-1.25,0,0,0,0,0,0,0,-1,629,708,-0.82811,1.25
-588,316,-1.09662,-1.07379,0,0,0,0,0,0,0,-1,636,708,-1.09665,1.07381
-581,316,-2.12085,0.827454,0,0,0,0,0,0,0,-1,643,708,-2.12088,-0.827451
-574,316,-2.07721,0.739807,0,0,0,0,0,0,0,-1,650,708,-2.07719,-0.739805
-567,316,-2.37207,0.220581,0,0,0,0,0,0,0,-1,657,708,-2.37206,-0.220553
-560,316,-2.4425,0.16156,-0.0174349,0.0100061,0.0066496,0.0115325,-0.0189614,1.34515,0.017779,0.0457312,664,708,-2.4425,-0.161565
-553,316,-2.53052,0.152771,-0.0138968,0.0086355,0.00519295,0.00977471,-0.015036,1.35484,0.0144314,0.027963,671,708,-2.53052,-0.152778
-546,316,-2.6087,0.127869,-0.0104543,0.00692593,0.00379131,0.00771696,-0.0112453,1.3651,0.0110109,0.0149561,678,708,-2.6087,-0.127861
-539,316,-2.60266,0.000854492,-0.00710804,0.0049959,0.00265811,0.00555391,-0.00766606,1.36387,0.00766496,0.0111666,685,708,-2.60267,-0.000881267
-532,316,-2.60852,-0.121948,-0.0045621,0.00312919,0.0019848,0.00361118,-0.00504409,1.33257,0.00501989,0.00949704,692,708,-2.60849,0.121944
-525,316,-2.60773,-0.229614,-0.00240944,0.00130996,0.00160981,0.00190993,-0.0030094,1.21405,0.00286373,0.00909411,699,708,-2.60776,0.229612
-518,316,-2.60986,-0.353516,-0.000805823,-0.000716988,0.00157179,0.000811015,-0.00233383,0.799524,0.0018853,0.00953976,706,708,-2.60986,0.353513
-511,316,-2.62415,-0.481873,-8.47527e-06,-0.0030516,0.00179154,0.000820442,-0.00388052,0.433353,0.00289945,0.010215,713,708,-2.62416,0.481902
-504,316,-2.60498,-0.615112,0.00068584,-0.00552513,0.00237217,0.0014882,-0.00632749,0.326158,0.00479205,0.0132744,720,708,-2.60499,0.615114
-497,316,-2.5813,-0.73938,0.00166597,-0.00765843,0.00336713,0.00275475,-0.00874721,0.312742,0.00693457,0.0120234,727,708,-2.58128,0.739376
-490,316,-2.59015,-0.876587,0.00260429,-0.0101201,0.00421514,0.00387393,-0.0113898,0.292566,0.00916169,0.0122904,734,708,-2.59013,0.876566
-483,316,-2.53058,-1.02655,0.00385931,-0.0130439,0.00487729,0.00516566,-0.0143502,0.2617,0.011676,0.0213748,741,708,-2.53058,1.02655
-476,316,-2.51385,-1.04675,0.00550874,-0.0152125,0.00557656,0.00691419,-0.016618,0.246886,0.013966,0.0472632,748,708,-2.51387,1.04673
-469,316,-2.40363,-0.932251,0,0,0,0,0,0,0,-1,755,708,-2.40362,0.932254
-462,316,-2.28833,-0.416321,0.00998004,-0.0193481,0.00642803,0.011327,-0.0206951,0.206563,0.0187499,0.0469956,762,708,-2.28832,0.416292
-455,316,-2.28265,-0.442322,0.0127817,-0.0204388,0.00645888,0.0139932,-0.0216504,0.185428,0.0207366,0.0482973,769,708,-2.28265,0.442312
-448,316,-2.25098,-0.58844,0,0,0,0,0,0,0,-1,776,708,-2.25098,0.588413
-441,316,-6.18951,0.746094,0,0,0,0,0,0,0,-1,783,708,-6.18952,-0.746096
-434,316,-3.61365,-1.59949,0,0,0,0,0,0,0,-1,790,708,-3.61362,1.59947
-427,316,-3.47876,-1.73999,0,0,0,0,0,0,0,-1,797,708,-3.47878,1.73996
-420,316,-3.849,-2.04626,0,0,0,0,0,0,0,-1,804,708,-3.84902,2.04626
-413,316,0,0,0,0,0,0,0,0,0,-1,811,708,0,0
-406,316,0,0,0,0,0,0,0,0,0,-1,818,708,0,0
-399,316,0,0,0,0,0,0,0,0,0,-1,825,708,0,0
-392,316,0,0,0,0,0,0,0,0,0,-1,832,708,0,0
-385,316,0,0,0,0,0,0,0,0,0,-1,839,708,0,0
-378,316,0,0,0,0,0,0,0,0,0,-1,846,708,0,0
-371,316,0,0,0,0,0,0,0,0,0,-1,853,708,0,0
-364,316,0,0,0,0,0,0,0,0,0,-1,860,708,0,0
-357,316,0,0,0,0,0,0,0,0,0,-1,867,708,0,0
-350,316,0,0,0,0,0,0,0,0,0,-1,874,708,0,0
-343,316,0,0,0,0,0,0,0,0,0,-1,881,708,0,0
-336,316,0,0,0,0,0,0,0,0,0,-1,888,708,0,0
-329,316,0,0,0,0,0,0,0,0,0,-1,895,708,0,0
-322,316,0,0,0,0,0,0,0,0,0,-1,902,708,0,0
-315,316,0,0,0,0,0,0,0,0,0,-1,909,708,0,0
-308,316,0,0,0,0,0,0,0,0,0,-1,916,708,0,0
-301,316,0,0,0,0,0,0,0,0,0,-1,923,708,0,0
-294,316,0,0,0,0,0,0,0,0,0,-1,930,708,0,0
-287,316,0,0,0,0,0,0,0,0,0,-1,937,708,0,0
-280,316,0,0,0,0,0,0,0,0,0,-1,944,708,0,0
-273,316,0,0,0,0,0,0,0,0,0,-1,951,708,0,0
-266,316,0,0,0,0,0,0,0,0,0,-1,958,708,0,0
-259,316,0,0,0,0,0,0,0,0,0,-1,965,708,0,0
-252,316,0,0,0,0,0,0,0,0,0,-1,972,708,0,0
-245,316,0,0,0,0,0,0,0,0,0,-1,979,708,0,0
-238,316,0,0,0,0,0,0,0,0,0,-1,986,708,0,0
-231,316,0,0,0,0,0,0,0,0,0,-1,993,708,0,0
-224,316,0,0,0,0,0,0,0,0,0,-1,1000,708,0,0
-217,316,0,0,0,0,0,0,0,0,0,-1,1007,708,0,0
-210,316,0,0,0,0,0,0,0,0,0,-1,1014,708,0,0
-203,316,0,0,0,0,0,0,0,0,0,-1,1021,708,0,0
-196,316,0,0,0,0,0,0,0,0,0,-1,1028,708,0,0
-189,316,0,0,0,0,0,0,0,0,0,-1,1035,708,0,0
-182,316,0,0,0,0,0,0,0,0,0,-1,1042,708,0,0
-175,316,0,0,0,0,0,0,0,0,0,-1,1049,708,0,0
-168,316,0,0,0,0,0,0,0,0,0,-1,1056,708,0,0
-161,316,0,0,0,0,0,0,0,0,0,-1,1063,708,0,0
-154,316,0,0,0,0,0,0,0,0,0,-1,1070,708,0,0
-147,316,0,0,0,0,0,0,0,0,0,-1,1077,708,0,0
-140,316,0,0,0,0,0,0,0,0,0,-1,1084,708,0,0
-133,316,0,0,0,0,0,0,0,0,0,-1,1091,708,0,0
-126,316,0,0,0,0,0,0,0,0,0,-1,1098,708,0,0
-119,316,0,0,0,0,0,0,0,0,0,-1,1105,708,0,0
-112,316,0,0,0,0,0,0,0,0,0,-1,1112,708,0,0
-105,316,0,0,0,0,0,0,0,0,0,-1,1119,708,0,0
-98,316,0,0,0,0,0,0,0,0,0,-1,1126,708,0,0
-91,316,0,0,0,0,0,0,0,0,0,-1,1133,708,0,0
-84,316,0,0,0,0,0,0,0,0,0,-1,1140,708,0,0
-77,316,0,0,0,0,0,0,0,0,0,-1,1147,708,0,0
-70,316,0,0,0,0,0,0,0,0,0,-1,1154,708,0,0
-63,316,0,0,0,0,0,0,0,0,0,-1,1161,708,0,0
-56,316,0,0,0,0,0,0,0,0,0,-1,1168,708,0,0
-49,316,0,0,0,0,0,0,0,0,0,-1,1175,708,0,0
-42,316,0,0,0,0,0,0,0,0,0,-1,1182,708,0,0
-35,316,0,0,0,0,0,0,0,0,0,-1,1189,708,0,0
-28,316,0,0,0,0,0,0,0,0,0,-1,1196,708,0,0
-21,316,0,0,0,0,0,0,0,0,0,-1,1203,708,0,0
-14,316,0,0,0,0,0,0,0,0,0,-1,1210,708,0,0
-7,316,0,0,0,0,0,0,0,0,0,-1,1217,708,0,0
0,316,0,0,0,0,0,0,0,0,0,-1,1224,708,0,0
7,316,0,0,0,0,0,0,0,0,0,-1,1231,708,0,0
14,316,0,0,0,0,0,0,0,0,0,-1,1238,708,0,0
21,316,0,0,0,0,0,0,0,0,0,-1,1245,708,0,0
28,316,0,0,0,0,0,0,0,0,0,-1,1252,708,0,0
35,316,0,0,0,0,0,0,0,0,0,-1,1259,708,0,0
42,316,0,0,0,0,0,0,0,0,0,-1,1266,708,0,0
49,316,0,0,0,0,0,0,0,0,0,-1,1273,708,0,0
56,316,0,0,0,0,0,0,0,0,0,-1,1280,708,0,0
63,316,0,0,0,0,0,0,0,0,0,-1,1287,708,0,0
70,316,0,0,0,0,0,0,0,0,0,-1,1294,708,0,0
77,316,0,0,0,0,0,0,0,0,0,-1,1301,708,0,0
84,316,0,0,0,0,0,0,0,0,0,-1,1308,708,0,0
91,316,0,0,0,0,0,0,0,0,0,-1,1315,708,0,0
98,316,0,0,0,0,0,0,0,0,0,-1,1322,708,0,0
105,316,0,0,0,0,0,0,0,0,0,-1,1329,708,0,0
112,316,0,0,0,0,0,0,0,0,0,-1,1336,708,0,0
119,316,0,0,0,0,0,0,0,0,0,-1,1343,708,0,0
126,316,0,0,0,0,0,0,0,0,0,-1,1350,708,0,0
133,316,0,0,0,0,0,0,0,0,0,-1,1357,708,0,0
140,316,0,0,0,0,0,0,0,0,0,-1,1364,708,0,0
147,316,0,0,0,0,0,0,0,0,0,-1,1371,708,0,0
154,316,0,0,0,0,0,0,0,0,0,-1,1378,708,0,0
161,316,0,0,0,0,0,0,0,0,0,-1,1385,708,0,0
168,316,0,0,0,0,0,0,0,0,0,-1,1392,708,0,0
175,316,0,0,0,0,0,0,0,0,0,-1,1399,708,0,0
182,316,0,0,0,0,0,0,0,0,0,-1,1406,708,0,0
189,316,0,0,0,0,0,0,0,0,0,-1,1413,708,0,0
196,316,0,0,0,0,0,0,0,0,0,-1,1420,708,0,0
203,316,0,0,0,0,0,0,0,0,0,-1,1427,708,0,0
210,316,0,0,0,0,0,0,0,0,0,-1,1434,708,0,0
217,316,0,0,0,0,0,0,0,0,0,-1,1441,708,0,0
224,316,0,0,0,0,0,0,0,0,0,-1,1448,708,0,0
231,316,0,0,0,0,0,0,0,0,0,-1,1455,708,0,0
238,316,0,0,0,0,0,0,0,0,0,-1,1462,708,0,0
245,316,0,0,0,0,0,0,0,0,0,-1,1469,708,0,0
252,316,0,0,0,0,0,0,0,0,0,-1,1476,708,0,0
259,316,0,0,0,0,0,0,0,0,0,-1,1483,708,0,0
266,316,0,0,0,0,0,0,0,0,0,-1,1490,708,0,0
273,316,0,0,0,0,0,0,0,0,0,-1,1497,708,0,0
280,316,0,0,0,0,0,0,0,0,0,-1,1504,708,0,0
287,316,0,0,0,0,0,0,0,0,0,-1,1511,708,0,0
294,316,0,0,0,0,0,0,0,0,0,-1,1518,708,0,0
301,316,0,0,0,0,0,0,0,0,0,-1,1525,708,0,0
308,316,0,0,0,0,0,0,0,0,0,-1,1532,708,0,0
315,316,0,0,0,0,0,0,0,0,0,-1,1539,708,0,0
322,316,0,0,0,0,0,0,0,0,0,-1,1546,708,0,0
329,316,0,0,0,0,0,0,0,0,0,-1,1553,708,0,0
336,316,0,0,0,0,0,0,0,0,0,-1,1560,708,0,0
343,316,0,0,0,0,0,0,0,0,0,-1,1567,708,0,0
350,316,0,0,0,0,0,0,0,0,0,-1,1574,708,0,0
357,316,0,0,0,0,0,0,0,0,0,-1,1581,708,0,0
364,316,0,0,0,0,0,0,0,0,0,-1,1588,708,0,0
371,316,0,0,0,0,0,0,0,0,0,-1,1595,708,0,0
378,316,0,0,0,0,0,0,0,0,0,-1,1602,708,0,0
385,316,0,0,0,0,0,0,0,0,0,-1,1609,708,0,0
392,316,0,0,0,0,0,0,0,0,0,-1,1616,708,0,0
399,316,0,0,0,0,0,0,0,0,0,-1,1623,708,0,0
406,316,0,0,0,0,0,0,0,0,0,-1,1630,708,0,0
413,316,0,0,0,0,0,0,0,0,0,-1,1637,708,0,0
420,316,0,0,0,0,0,0,0,0,0,-1,1644,708,0,0
427,316,0,0,0,0,0,0,0,0,0,-1,1651,708,0,0
434,316,0,0,0,0,0,0,0,0,0,-1,1658,708,0,0
441,316,0,0,0,0,0,0,0,0,0,-1,1665,708,0,0
448,316,0,0,0,0,0,0,0,0,0,-1,1672,708,0,0
455,316,0,0,0,0,0,0,0,0,0,-1,1679,708,0,0
462,316,0,0,0,0,0,0,0,0,0,-1,1686,708,0,0
469,316,0,0,0,0,0,0,0,0,0,-1,1693,708,0,0
476,316,0,0,0,0,0,0,0,0,0,-1,1700,708,0,0
483,316,0,0,0,0,0,0,0,0,0,-1,1707,708,0,0
490,316,0,0,0,0,0,0,0,0,0,-1,1714,708,0,0
497,316,0,0,0,0,0,0,0,0,0,-1,1721,708,0,0
504,316,0,0,0,0,0,0,0,0,0,-1,1728,708,0,0
511,316,0,0,0,0,0,0,0,0,0,-1,1735,708,0,0
518,316,0,0,0,0,0,0,0,0,0,-1,1742,708,0,0
525,316,0,0,0,0,0,0,0,0,0,-1,1749,708,0,0
532,316,9.60376,1.71088,0,0,0,0,0,0,0,-1,1756,708,9.60374,-1.71085
539,316,9.62378,1.96338,0,0,0,0,0,0,0,-1,1763,708,9.62381,-1.96335
546,316,10.5797,2.45386,0,0,0,0,0,0,0,-1,1770,708,10.5797,-2.45384
553,316,10.276,2.29987,0,0,0,0,0,0,0,-1,1777,708,10.276,-2.29989
560,316,9.91785,2.06873,0,0,0,0,0,0,0,-1,1784,708,9.91788,-2.06871
567,316,9.68384,2.22235,0,0,0,0,0,0,0,-1,1791,708,9.68385,-2.22234
574,316,9.51343,2.25726,0,0,0,0,0,0,0,-1,1798,708,9.51345,-2.25725
581,316,9.29932,2.28418,0,0,0,0,0,0,0,-1,1805,708,9.29935,-2.28417
588,316,11.745,0.161499,0,0,0,0,0,0,0,-1,1812,708,11.745,-0.161504
595,316,11.7896,0.480469,0,0,0,0,0,0,0,-1,1819,708,11.7895,-0.480482
602,316,7.28943,0.386353,0,0,0,0,0,0,0,-1,1826,708,7.2894,-0.386378
609,316,7.4989,0.270081,-0.0102337,-0.00267707,-0.00574926,0.000424272,-0.013335,-1.0761,0.00903478,0.04714,1833,708,7.4989,-0.270056
616,316,7.67627,0.128052,-0.00540919,-0.00207334,-0.00422927,0.000805017,-0.00828755,-0.973223,0.00581199,0.0157248,1840,708,7.67625,-0.128061
623,316,7.70105,0.269104,-0.00213516,-0.00195791,-0.00310798,0.00106271,-0.00515578,-0.799653,0.00384074,0.0108742,1847,708,7.70108,-0.269102
630,316,7.69446,0.3927,-0.000369879,-0.0018503,-0.00205824,0.00107721,-0.00329739,-0.612783,0.00263186,0.0125785,1854,708,7.69445,-0.392708
637,316,7.68494,0.535828,-7.75536e-05,-0.00122776,-0.00156902,0.00101844,-0.00232376,-0.609732,0.00197806,0.0119423,1861,708,7.68499,-0.535804
644,316,7.69287,0.666321,4.80528e-05,-0.00115776,-0.00148032,0.00104353,-0.00215324,-0.592014,0.00188236,0.0123014,1868,708,7.69288,-0.666318
651,316,7.68042,0.791809,0.000528835,-0.00118508,-0.00156152,0.00145309,-0.00210933,-0.534439,0.00206836,0.0124356,1875,708,7.68046,-0.791788
658,316,7.6825,0.914001,0.00115858,-0.000892282,-0.00168315,0.00210406,-0.00183776,-0.511807,0.00227755,0.0173163,1882,708,7.68252,-0.913972
665,316,7.68604,1.05414,0.00186416,-0.000874816,-0.00204958,0.00295968,-0.00197034,-0.490874,0.00286539,0.0143173,1889,708,7.68598,-1.05414
672,316,7.68115,1.18274,0.00291899,-0.000755415,-0.00284569,0.004469,-0.00230543,-0.498757,0.00397716,0.0123764,1896,708,7.68118,-1.18271
679,316,7.67908,1.32916,0.00440882,0.00037056,-0.00430161,0.00714161,-0.00236223,-0.565968,0.00571365,0.0167667,1903,708,7.67903,-1.32915
686,316,7.56128,1.49219,0.00640681,0.00163944,-0.00589414,0.010381,-0.00233477,-0.593244,0.00781605,0.0289165,1910,708,7.5613,-1.49218
693,316,7.39124,1.60919,0.00913625,0.00395944,-0.00805542,0.0150089,-0.00191322,-0.629946,0.0107008,0.0455188,1917,708,7.39129,-1.6092
700,316,7.31152,1.66846,0.0127345,0.00787419,-0.0109898,0.0215596,-0.000950996,-0.676586,0.0147004,0.0497438,1924,708,7.31158,-1.66846
707,316,7.32764,1.83038,0,0,0,0,0,0,0,-1,1931,708,7.32759,-1.83039
714,316,8.03467,2.97504,0,0,0,0,0,0,0,-1,1938,708,8.03463,-2.97501
721,316,7.35864,-0.165588,0,0,0,0,0,0,0,-1,1945,708,7.35866,0.16559
728,316,0,0,0,0,0,0,0,0,0,-1,1952,708,0,0
735,316,0,0,0,0,0,0,0,0,0,-1,1959,708,0,0
742,316,0,0,0,0,0,0,0,0,0,-1,1966,708,0,0
749,316,0,0,0,0,0,0,0,0,0,-1,1973,708,0,0
756,316,0,0,0,0,0,0,0,0,0,-1,1980,708,0,0
763,316,0,0,0,0,0,0,0,0,0,-1,1987,708,0,0
770,316,0,0,0,0,0,0,0,0,0,-1,1994,708,0,0
777,316,0,0,0,0,0,0,0,0,0,-1,2001,708,0,0
784,316,0,0,0,0,0,0,0,0,0,-1,2008,708,0,0
791,316,0,0,0,0,0,0,0,0,0,-1,2015,708,0,0
798,316,0,0,0,0,0,0,0,0,0,-1,2022,708,0,0
805,316,0,0,0,0,0,0,0,0,0,-1,2029,708,0,0
812,316,0,0,0,0,0,0,0,0,0,-1,2036,708,0,0
-700,309,0,0,0,0,0,0,0,0,0,-1,524,715,0,0
-693,309,0,0,0,0,0,0,0,0,0,-1,531,715,0,0
-686,309,0,0,0,0,0,0,0,0,0,-1,538,715,0,0
-679,309,0,0,0,0,0,0,0,0,0,-1,545,715,0,0
-672,309,0,0,0,0,0,0,0,0,0,-1,552,715,0,0
-665,309,0,0,0,0,0,0,0,0,0,-1,559,715,0,0
-658,309,0,0,0,0,0,0,0,0,0,-1,566,715,0,0
-651,309,0,0,0,0,0,0,0,0,0,-1,573,715,0,0
-644,309,0,0,0,0,0,0,0,0,0,-1,580,715,0,0
-637,309,0,0,0,0,0,0,0,0,0,-1,587,715,0,0
-630,309,0,0,0,0,0,0,0,0,0,-1,594,715,0,0
-623,309,0,0,0,0,0,0,0,0,0,-1,601,715,0,0
-616,309,0,0,0,0,0,0,0,0,0,-1,608,715,0,0
-609,309,-4.31183,2.41144,0,0,0,0,0,0,0,-1,615,715,-4.31186,-2.41143
-602,309,-3.03082,2.18188,0,0,0,0,0,0,0,-1,622,715,-3.03082,-2.18189
-595,309,-1.40393,-1.52405,0,0,0,0,0,0,0,-1,629,715,-1.40393,1.52404
-588,309,-1.62213,-1.2583,0,0,0,0,0,0,0,-1,636,715,-1.62216,1.2583
-581,309,-2.39868,0.601685,0,0,0,0,0,0,0,-1,643,715,-2.39869,-0.601668
-574,309,-2.49878,0.483765,0,0,0,0,0,0,0,-1,650,715,-2.4988,-0.483785
-567,309,-2.17621,0.171509,0,0,0,0,0,0,0,-1,657,715,-2.17622,-0.171529
-560,309,-2.41534,0.117554,-0.012986,0.00635194,0.00576282,0.00793904,-0.0145731,1.30206,0.0131842,0.0417786,664,715,-2.41535,-0.117552
-553,309,-2.66962,0.202454,-0.0107597,0.005522,0.00475634,0.00680963,-0.0120474,1.30642,0.0110262,0.0263611,671,715,-2.66961,-0.202433
-546,309,-2.71521,0.132141,-0.00833054,0.00433752,0.00366419,0.00532102,-0.00931404,1.30857,0.00855375,0.0146314,678,715,-2.71521,-0.132133
-539,309,-2.71869,-0.0192261,-0.00564758,0.00277895,0.00269839,0.00356898,-0.00643761,1.28598,0.0058559,0.0132319,685,715,-2.71871,0.0192074
-532,309,-2.74292,-0.125854,-0.00367696,0.00112127,0.00218499,0.00196714,-0.00452283,1.20144,0.00384261,0.011025,692,715,-2.74289,0.125828
-525,309,-2.7478,-0.216064,-0.00214333,-0.000623551,0.00198492,0.000741964,-0.00350884,0.968207,0.00262178,0.0154508,699,715,-2.7478,0.216045
-518,309,-2.73706,-0.349548,-0.00108845,-0.00264512,0.00209179,0.000365123,-0.00409869,0.60729,0.00286194,0.0156131,706,715,-2.73704,0.349568
-511,309,-2.72406,-0.479187,-0.000639142,-0.00511774,0.00240659,0.000408829,-0.00616571,0.410696,0.0042533,0.0111768,713,715,-2.72405,0.479184
-504,309,-2.70795,-0.609314,-9.05742e-05,-0.00785756,0.00300974,0.000939186,-0.00888732,0.329658,0.00626147,0.00883599,720,715,-2.70796,0.609293
-497,309,-2.69824,-0.740662,0.000937616,-0.0102685,0.00405599,0.00225159,-0.0115825,0.313289,0.00857134,0.0129662,727,715,-2.69822,0.740663
-490,309,-2.68402,-0.856262,0.00198961,-0.0131097,0.00476239,0.00336619,-0.0144863,0.281383,0.0109534,0.0173379,734,715,-2.684,0.856248
-483,309,-2.5965,-0.791992,0.00353505,-0.0163494,0.00520685,0.00481597,-0.0176303,0.241218,0.0136452,0.0350571,741,715,-2.59647,0.791963
-476,309,-2.7359,-0.546021,0.00565349,-0.0188019,0.00560333,0.00687621,-0.0200247,0.214846,0.0161378,0.0419059,748,715,-2.73589,0.546008
-469,309,-2.60822,-0.420654,0,0,0,0,0,0,0,-1,755,715,-2.60822,0.420664
-462,309,-2.60126,-0.543091,0,0,0,0,0,0,0,-1,762,715,-2.60127,0.54312
-455,309,-2.42889,-0.206665,0,0,0,0,0,0,0,-1,769,715,-2.4289,0.206671
-448,309,-7.11066,0.0477295,0.0203849,-0.0238615,0.00391517,0.0207287,-0.0242053,0.0875789,0.0259685,0.0451449,776,715,-7.11065,-0.0477166
-441,309,-6.37848,0.743958,0,0,0,0,0,0,0,-1,783,715,-6.37845,-0.743947
-434,309,-5.72711,1.1933,0,0,0,0,0,0,0,-1,790,715,-5.72709,-1.19333
-427,309,-3.55463,-2.62024,0,0,0,0,0,0,0,-1,797,715,-3.55463,2.62025
-420,309,-3.90881,1.92816,0,0,0,0,0,0,0,-1,804,715,-3.90882,-1.92818
-413,309,0,0,0,0,0,0,0,0,0,-1,811,715,0,0
-406,309,0,0,0,0,0,0,0,0,0,-1,818,715,0,0
-399,309,0,0,0,0,0,0,0,0,0,-1,825,715,0,0
-392,309,0,0,0,0,0,0,0,0,0,-1,832,715,0,0
-385,309,0,0,0,0,0,0,0,0,0,-1,839,715,0,0
-378,309,0,0,0,0,0,0,0,0,0,-1,846,715,0,0
-371,309,0,0,0,0,0,0,0,0,0,-1,853,715,0,0
-364,309,0,0,0,0,0,0,0,0,0,-1,860,715,0,0
-357,309,0,0,0,0,0,0,0,0,0,-1,867,715,0,0
-350,309,0,0,0,0,0,0,0,0,0,-1,874,715,0,0
-343,309,0,0,0,0,0,0,0,0,0,-1,881,715,0,0
-336,309,0,0,0,0,0,0,0,0,0,-1,888,715,0,0
-329,309,0,0,0,0,0,0,0,0,0,-1,895,715,0,0
-322,309,0,0,0,0,0,0,0,0,0,-1,902,715,0,0
-315,309,0,0,0,0,0,0,0,0,0,-1,909,715,0,0
-308,309,0,0,0,0,0,0,0,0,0,-1,916,715,0,0
-301,309,0,0,0,0,0,0,0,0,0,-1,923,715,0,0
-294,309,0,0,0,0,0,0,0,0,0,-1,930,715,0,0
-287,309,0,0,0,0,0,0,0,0,0,-1,937,715,0,0
-280,309,0,0,0,0,0,0,0,0,0,-1,944,715,0,0
-273,309,0,0,0,0,0,0,0,0,0,-1,951,715,0,0
-266,309,0,0,0,0,0,0,0,0,0,-1,958,715,0,0
-259,309,0,0,0,0,0,0,0,0,0,-1,965,715,0,0
-252,309,0,0,0,0,0,0,0,0,0,-1,972,715,0,0
-245,309,0,0,0,0,0,0,0,0,0,-1,979,715,0,0
-238,309,0,0,0,0,0,0,0,0,0,-1,986,715,0,0
-231,309,0,0,0,0,0,0,0,0,0,-1,993,715,0,0
-224,309,0,0,0,0,0,0,0,0,0,-1,1000,715,0,0
-217,309,0,0,0,0,0,0,0,0,0,-1,1007,715,0,0
-210,309,0,0,0,0,0,0,0,0,0,-1,1014,715,0,0
-203,309,0,0,0,0,0,0,0,0,0,-1,1021,715,0,0
-196,309,0,0,0,0,0,0,0,0,0,-1,1028,715,0,0
-189,309,0,0,0,0,0,0,0,0,0,-1,1035,715,0,0
-182,309,0,0,0,0,0,0,0,0,0,-1,1042,715,0,0
-175,309,0,0,0,0,0,0,0,0,0,-1,1049,715,0,0
-168,309,0,0,0,0,0,0,0,0,0,-1,1056,715,0,0
-161,309,0,0,0,0,0,0,0,0,0,-1,1063,715,0,0
-154,309,0,0,0,0,0,0,0,0,0,-1,1070,715,0,0
-147,309,0,0,0,0,0,0,0,0,0,-1,1077,715,0,0
-140,309,0,0,0,0,0,0,0,0,0,-1,1084,715,0,0
-133,309,0,0,0,0,0,0,0,0,0,-1,1091,715,0,0
-126,309,0,0,0,0,0,0,0,0,0,-1,1098,715,0,0
-119,309,0,0,0,0,0,0,0,0,0,-1,1105,715,0,0
-112,309,0,0,0,0,0,0,0,0,0,-1,1112,715,0,0
-105,309,0,0,0,0,0,0,0,0,0,-1,1119,715,0,0
-98,309,0,0,0,0,0,0,0,0,0,-1,1126,715,0,0
-91,309,0,0,0,0,0,0,0,0,0,-1,1133,715,0,0
-84,309,0,0,0,0,0,0,0,0,0,-1,1140,715,0,0
-77,309,0,0,0,0,0,0,0,0,0,-1,1147,715,0,0
-70,309,0,0,0,0,0,0,0,0,0,-1,1154,715,0,0
-63,309,0,0,0,0,0,0,0,0,0,-1,1161,715,0,0
-56,309,0,0,0,0,0,0,0,0,0,-1,1168,715,0,0
-49,309,0,0,0,0,0,0,0,0,0,-1,1175,715,0,0
-42,309,0,0,0,0,0,0,0,0,0,-1,1182,715,0,0
-35,309,0,0,0,0,0,0,0,0,0,-1,1189,715,0,0
-28,309,0,0,0,0,0,0,0,0,0,-1,1196,715,0,0
-21,309,0,0,0,0,0,0,0,0,0,-1,1203,715,0,0
-14,309,0,0,0,0,0,0,0,0,0,-1,1210,715,0,0
-7,309,0,0,0,0,0,0,0,0,0,-1,1217,715,0,0
0,309,0,0,0,0,0,0,0,0,0,-1,1224,715,0,0
7,309,0,0,0,0,0,0,0,0,0,-1,1231,715,0,0
14,309,0,0,0,0,0,0,0,0,0,-1,1238,715,0,0
21,309,0,0,0,0,0,0,0,0,0,-1,1245,715,0,0
28,309,0,0,0,0,0,0,0,0,0,-1,1252,715,0,0
35,309,0,0,0,0,0,0,0,0,0,-1,1259,715,0,0
42,309,0,0,0,0,0,0,0,0,0,-1,1266,715,0,0
49,309,0,0,0,0,0,0,0,0,0,-1,1273,715,0,0
56,309,0,0,0,0,0,0,0,0,0,-1,1280,715,0,0
63,309,0,0,0,0,0,0,0,0,0,-1,1287,715,0,0
70,309,0,0,0,0,0,0,0,0,0,-1,1294,715,0,0
77,309,0,0,0,0,0,0,0,0,0,-1,1301,715,0,0
84,309,0,0,0,0,0,0,0,0,0,-1,1308,715,0,0
91,309,0,0,0,0,0,0,0,0,0,-1,1315,715,0,0
98,309,0,0,0,0,0,0,0,0,0,-1,1322,715,0,0
105,309,0,0,0,0,0,0,0,0,0,-1,1329,715,0,0
112,309,0,0,0,0,0,0,0,0,0,-1,1336,715,0,0
119,309,0,0,0,0,0,0,0,0,0,-1,1343,715,0,0
126,309,0,0,0,0,0,0,0,0,0,-1,1350,715,0,0
133,309,0,0,0,0,0,0,0,0,0,-1,1357,715,0,0
140,309,0,0,0,0,0,0,0,0,0,-1,1364,715,0,0
147,309,0,0,0,0,0,0,0,0,0,-1,1371,715,0,0
154,309,0,0,0,0,0,0,0,0,0,-1,1378,715,0,0
161,309,0,0,0,0,0,0,0,0,0,-1,1385,715,0,0
168,309,0,0,0,0,0,0,0,0,0,-1,1392,715,0,0
175,309,0,0,0,0,0,0,0,0,0,-1,1399,715,0,0
182,309,0,0,0,0,0,0,0,0,0,-1,1406,715,0,0
189,309,0,0,0,0,0,0,0,0,0,-1,1413,715,0,0
196,309,0,0,0,0,0,0,0,0,0,-1,1420,715,0,0
203,309,0,0,0,0,0,0,0,0,0,-1,1427,715,0,0
210,309,0,0,0,0,0,0,0,0,0,-1,1434,715,0,0
217,309,0,0,0,0,0,0,0,0,0,-1,1441,715,0,0
224,309,0,0,0,0,0,0,0,0,0,-1,1448,715,0,0
231,309,0,0,0,0,0,0,0,0,0,-1,1455,715,0,0
238,309,0,0,0,0,0,0,0,0,0,-1,1462,715,0,0
245,309,0,0,0,0,0,0,0,0,0,-1,1469,715,0,0
252,309,0,0,0,0,0,0,0,0,0,-1,1476,715,0,0
259,309,0,0,0,0,0,0,0,0,0,-1,1483,715,0,0
266,309,0,0,0,0,0,0,0,0,0,-1,1490,715,0,0
273,309,0,0,0,0,0,0,0,0,0,-1,1497,715,0,0
280,309,0,0,0,0,0,0,0,0,0,-1,1504,715,0,0
287,309,0,0,0,0,0,0,0,0,0,-1,1511,715,0,0
294,309,0,0,0,0,0,0,0,0,0,-1,1518,715,0,0
301,309,0,0,0,0,0,0,0,0,0,-1,1525,715,0,0
308,309,0,0,0,0,0,0,0,0,0,-1,1532,715,0,0
315,309,0,0,0,0,0,0,0,0,0,-1,1539,715,0,0
322,309,0,0,0,0,0,0,0,0,0,-1,1546,715,0,0
329,309,0,0,0,0,0,0,0,0,0,-1,1553,715,0,0
336,309,0,0,0,0,0,0,0,0,0,-1,1560,715,0,0
343,309,0,0,0,0,0,0,0,0,0,-1,1567,715,0,0
350,309,0,0,0,0,0,0,0,0,0,-1,1574,715,0,0
357,309,0,0,0,0,0,0,0,0,0,-1,1581,715,0,0
364,309,0,0,0,0,0,0,0,0,0,-1,1588,715,0,0
371,309,0,0,0,0,0,0,0,0,0,-1,1595,715,0,0
378,309,0,0,0,0,0,0,0,0,0,-1,1602,715,0,0
385,309,0,0,0,0,0,0,0,0,0,-1,1609,715,0,0
392,309,0,0,0,0,0,0,0,0,0,-1,1616,715,0,0
399,309,0,0,0,0,0,0,0,0,0,-1,1623,715,0,0
406,309,0,0,0,0,0,0,0,0,0,-1,1630,715,0,0
413,309,0,0,0,0,0,0,0,0,0,-1,1637,715,0,0
420,309,0,0,0,0,0,0,0,0,0,-1,1644,715,0,0
427,309,0,0,0,0,0,0,0,0,0,-1,1651,715,0,0
434,309,0,0,0,0,0,0,0,0,0,-1,1658,715,0,0
441,309,0,0,0,0,0,0,0,0,0,-1,1665,715,0,0
448,309,0,0,0,0,0,0,0,0,0,-1,1672,715,0,0
455,309,0,0,0,0,0,0,0,0,0,-1,1679,715,0,0
462,309,0,0,0,0,0,0,0,0,0,-1,1686,715,0,0
469,309,0,0,0,0,0,0,0,0,0,-1,1693,715,0,0
476,309,0,0,0,0,0,0,0,0,0,-1,1700,715,0,0
483,309,0,0,0,0,0,0,0,0,0,-1,1707,715,0,0
490,309,0,0,0,0,0,0,0,0,0,-1,1714,715,0,0
497,309,0,0,0,0,0,0,0,0,0,-1,1721,715,0,0
504,309,0,0,0,0,0,0,0,0,0,-1,1728,715,0,0
511,309,0,0,0,0,0,0,0,0,0,-1,1735,715,0,0
518,309,0,0,0,0,0,0,0,0,0,-1,1742,715,0,0
525,309,0,0,0,0,0,0,0,0,0,-1,1749,715,0,0
532,309,0,0,0,0,0,0,0,0,0,-1,1756,715,0,0
539,309,10.376,1.14374,0,0,0,0,0,0,0,-1,1763,715,10.376,-1.14372
546,309,10.7004,2.17529,0,0,0,0,0,0,0,-1,1770,715,10.7005,-2.17531
553,309,10.4205,2.02924,0,0,0,0,0,0,0,-1,1777,715,10.4205,-2.02923
560,309,10.1293,1.83594,0,0,0,0,0,0,0,-1,1784,715,10.1293,-1.83594
567,309,9.83862,1.6557,0,0,0,0,0,0,0,-1,1791,715,9.83862,-1.6557
574,309,9.5343,2.27295,0,0,0,0,0,0,0,-1,1798,715,9.53431,-2.27298
581,309,9.31445,2.27728,0,0,0,0,0,0,0,-1,1805,715,9.31442,-2.27726
588,309,11.1727,0.67572,0,0,0,0,0,0,0,-1,1812,715,11.1727,-0.675734
595,309,11.2617,0.891479,0,0,0,0,0,0,0,-1,1819,715,11.2617,-0.891484
602,309,7.49463,-0.228149,0,0,0,0,0,0,0,-1,1826,715,7.49462,0.228152
609,309,7.82922,0.062561,0,0,0,0,0,0,0,-1,1833,715,7.82919,-0.0625755
616,309,7.82336,0.172302,-0.00503737,-0.000831397,-0.00425905,0.00181557,-0.00768433,-1.01472,0.0058232,0.0221102,1840,715,7.8233,-0.172289
623,309,7.82153,0.270203,-0.00198063,-0.00136595,-0.00342262,0.0017631,-0.00510969,-0.830177,0.00412183,0.0101689,1847,715,7.82157,-0.270215
630,309,7.80994,0.395447,-0.000325487,-0.00188945,-0.00245684,0.00147082,-0.00368575,-0.631324,0.00306733,0.010651,1854,715,7.80995,-0.395441
637,309,7.78516,0.518677,-0.000215752,-0.00143527,-0.00189096,0.00116132,-0.00281235,-0.629431,0.00235929,0.0136756,1861,715,7.78516,-0.518686
644,309,7.79785,0.652161,-0.000208314,-0.00132626,-0.00171023,0.00103197,-0.00256655,-0.62745,0.00213965,0.0143658,1868,715,7.79783,-0.652179
651,309,7.82922,0.794861,0.00016125,-0.00128523,-0.00178482,0.0013638,-0.00248778,-0.592901,0.00225505,0.0127368,1875,715,7.82917,-0.794849
658,309,7.82544,0.908203,0.000696223,-0.000886773,-0.00190801,0.00197039,-0.00216094,-0.588786,0.00238607,0.0174754,1882,715,7.82548,-0.908224
665,309,7.84595,1.03552,0.00124646,-0.000739802,-0.00230212,0.00276053,-0.00225387,-0.581759,0.00289999,0.0156597,1889,715,7.84599,-1.03555
672,309,7.84924,1.15948,0.00208198,-0.000460654,-0.00320458,0.00425821,-0.00263689,-0.596561,0.0040174,0.0140932,1896,715,7.84925,-1.15946
679,309,7.8418,1.32458,0.00324456,0.000995728,-0.00483808,0.00708717,-0.00284688,-0.67122,0.00590702,0.0142506,1903,715,7.84184,-1.32456
686,309,7.79578,1.45905,0.00488877,0.00266462,-0.00654841,0.0104189,-0.00286547,-0.701289,0.00807241,0.0187321,1910,715,7.79583,-1.45906
693,309,7.66541,1.51196,0.00733662,0.0054084,-0.00882684,0.0152518,-0.00250683,-0.731001,0.0110983,0.030849,1917,715,7.66537,-1.51198
700,309,7.82458,1.78754,0.0104942,0.00969866,-0.0118929,0.021996,-0.00180314,-0.768682,0.0153005,0.0473913,1924,715,7.82462,-1.78756
707,309,7.97668,2.61505,0,0,0,0,0,0,0,-1,1931,715,7.97663,-2.61505
714,309,7.84216,2.51526,0,0,0,0,0,0,0,-1,1938,715,7.84213,-2.51527
721,309,7.42566,2.30103,0,0,0,0,0,0,0,-1,1945,715,7.42568,-2.30104
728,309,0,0,0,0,0,0,0,0,0,-1,1952,715,0,0
735,309,0,0,0,0,0,0,0,0,0,-1,1959,715,0,0
742,309,0,0,0,0,0,0,0,0,0,-1,1966,715,0,0
749,309,0,0,0,0,0,0,0,0,0,-1,1973,715,0,0
756,309,0,0,0,0,0,0,0,0,0,-1,1980,715,0,0
763,309,0,0,0,0,0,0,0,0,0,-1,1987,715,0,0
770,309,0,0,0,0,0,0,0,0,0,-1,1994,715,0,0
777,309,0,0,0,0,0,0,0,0,0,-1,2001,715,0,0
784,309,0,0,0,0,0,0,0,0,0,-1,2008,715,0,0
791,309,0,0,0,0,0,0,0,0,0,-1,2015,715,0,0
798,309,0,0,0,0,0,0,0,0,0,-1,2022,715,0,0
805,309,0,0,0,0,0,0,0,0,0,-1,2029,715,0,0
812,309,0,0,0,0,0,0,0,0,0,-1,2036,715,0,0
-700,302,0,0,0,0,0,0,0,0,0,-1,524,722,0,0
-693,302,0,0,0,0,0,0,0,0,0,-1,531,722,0,0
-686,302,0,0,0,0,0,0,0,0,0,-1,538,722,0,0
-679,302,0,0,0,0,0,0,0,0,0,-1,545,722,0,0
-672,302,0,0,0,0,0,0,0,0,0,-1,552,722,0,0
-665,302,0,0,0,0,0,0,0,0,0,-1,559,722,0,0
-658,302,0,0,0,0,0,0,0,0,0,-1,566,722,0,0
-651,302,0,0,0,0,0,0,0,0,0,-1,573,722,0,0
-644,302,0,0,0,0,0,0,0,0,0,-1,580,722,0,0
-637,302,0,0,0,0,0,0,0,0,0,-1,587,722,0,0
-630,302,0,0,0,0,0,0,0,0,0,-1,594,722,0,0
-623,302,0,0,0,0,0,0,0,0,0,-1,601,722,0,0
-616,302,0,0,0,0,0,0,0,0,0,-1,608,722,0,0
-609,302,-4.26831,2.4328,0,0,0,0,0,0,0,-1,615,722,-4.2683,-2.4328
-602,302,-2.58777,1.92389,0,0,0,0,0,0,0,-1,622,722,-2.58779,-1.92391
-595,302,-3.15662,-1.13641,0,0,0,0,0,0,0,-1,629,722,-3.1566,1.13643
-588,302,-2.5592,0.09552,0,0,0,0,0,0,0,-1,636,722,-2.55919,-0.0955014
-581,302,-2.4917,0.33075,-0.00521654,0.0118801,-2.9678e-05,0.0118802,-0.00521659,-1.56906,0.0101177,0.0461724,643,722,-2.49169,-0.330773
-574,302,-2.66211,0.345032,-0.00675691,0.00802889,0.00225043,0.00836382,-0.00709184,1.42305,0.0089334,0.044573,650,722,-2.66213,-0.345007
-567,302,-2.4856,0.304443,-0.00735908,0.00545125,0.00298285,0.00611174,-0.00801958,1.35288,0.00818347,0.0430074,657,722,-2.48558,-0.304465
-560,302,-2.65857,0.279175,-0.00796997,0.00402327,0.00337644,0.00490849,-0.00885519,1.31439,0.00805463,0.0316629,664,722,-2.65859,-0.279182
-553,302,-2.82397,0.254272,-0.00734498,0.00350705,0.00323752,0.00439951,-0.00823744,1.30181,0.00740726,0.0148857,671,722,-2.82394,-0.254292
-546,302,-2.82788,0.109985,-0.00612161,0.00264847,0.00280366,0.00346814,-0.00694128,1.28636,0.00612038,0.0141846,678,722,-2.82789,-0.109988
-539,302,-2.85089,0.00274658,-0.00424716,0.00124412,0.00233446,0.00210241,-0.00510545,1.21848,0.00428016,0.013526,685,722,-2.85088,-0.00271689
-532,302,-2.8905,-0.106384,-0.00294752,-0.000337795,0.00217939,0.000897499,-0.00418282,1.05514,0.00313089,0.0134972,692,722,-2.89053,0.106411
-525,302,-2.85352,-0.22229,-0.00214581,-0.00216085,0.00226957,0.000116252,-0.00442292,0.783741,0.00298812,0.0199692,699,722,-2.85349,0.222289
-518,302,-2.85583,-0.348755,-0.00168839,-0.00432598,0.00261892,-7.49587e-05,-0.00593941,0.55215,0.00393486,0.0199611,706,722,-2.85584,0.348782
-511,302,-2.83881,-0.464111,-0.00166031,-0.00706987,0.00306956,-0.000273871,-0.0084563,0.424243,0.0055485,0.00967038,713,722,-2.8388,0.464095
-504,302,-2.83228,-0.586182,-0.00138763,-0.0101342,0.00369962,-3.26624e-05,-0.0114891,0.351072,0.00764857,0.00863984,720,722,-2.83229,0.586168
-497,302,-2.82379,-0.710632,-0.000443339,-0.0128763,0.00474939,0.00116331,-0.0144829,0.326201,0.0100655,0.0131391,727,722,-2.82378,0.710643
-490,302,-2.76068,-0.793884,0.000609172,-0.0161027,0.00526857,0.00213147,-0.017625,0.281279,0.0125211,0.0219081,734,722,-2.76066,0.793877
-483,302,-2.60095,-0.315308,0,0,0,0,0,0,0,-1,741,722,-2.60093,0.315281
-476,302,-2.77576,0.125549,0,0,0,0,0,0,0,-1,748,722,-2.77576,-0.125555
-469,302,-2.37897,0.178833,0,0,0,0,0,0,0,-1,755,722,-2.37894,-0.178863
-462,302,-8.28906,-1.53131,0,0,0,0,0,0,0,-1,762,722,-8.28904,1.5313
-455,302,-7.90411,-0.965637,0.0173663,-0.0277016,0.0032781,0.0176035,-0.0279388,0.0722302,0.0265186,0.0467427,769,722,-7.90414,0.965623
-448,302,-7.34961,-0.270874,0.023552,-0.0274403,0.00159756,0.023602,-0.0274903,0.0312885,0.0295266,0.0454848,776,722,-7.34961,0.27089
-441,302,-7.45007,-0.608765,0,0,0,0,0,0,0,-1,783,722,-7.45009,0.608753
-434,302,-7.35895,-0.648438,0,0,0,0,0,0,0,-1,790,722,-7.35892,0.648455
-427,302,-9.85724,0.342041,0,0,0,0,0,0,0,-1,797,722,-9.85723,-0.342042
-420,302,0,0,0,0,0,0,0,0,0,-1,804,722,0,0
-413,302,0,0,0,0,0,0,0,0,0,-1,811,722,0,0
-406,302,0,0,0,0,0,0,0,0,0,-1,818,722,0,0
-399,302,0,0,0,0,0,0,0,0,0,-1,825,722,0,0
-392,302,0,0,0,0,0,0,0,0,0,-1,832,722,0,0
-385,302,0,0,0,0,0,0,0,0,0,-1,839,722,0,0
-378,302,0,0,0,0,0,0,0,0,0,-1,846,722,0,0
-371,302,0,0,0,0,0,0,0,0,0,-1,853,722,0,0
-364,302,0,0,0,0,0,0,0,0,0,-1,860,722,0,0
-357,302,0,0,0,0,0,0,0,0,0,-1,867,722,0,0
-350,302,0,0,0,0,0,0,0,0,0,-1,874,722,0,0
-343,302,0,0,0,0,0,0,0,0,0,-1,881,722,0,0
-336,302,0,0,0,0,0,0,0,0,0,-1,888,722,0,0
-329,302,0,0,0,0,0,0,0,0,0,-1,895,722,0,0
-322,302,0,0,0,0,0,0,0,0,0,-1,902,722,0,0
-315,302,0,0,0,0,0,0,0,0,0,-1,909,722,0,0
-308,302,0,0,0,0,0,0,0,0,0,-1,916,722,0,0
-301,302,0,0,0,0,0,0,0,0,0,-1,923,722,0,0
-294,302,0,0,0,0,0,0,0,0,0,-1,930,722,0,0
-287,302,0,0,0,0,0,0,0,0,0,-1,937,722,0,0
-280,302,0,0,0,0,0,0,0,0,0,-1,944,722,0,0
-273,302,0,0,0,0,0,0,0,0,0,-1,951,722,0,0
-266,302,0,0,0,0,0,0,0,0,0,-1,958,722,0,0
-259,302,0,0,0,0,0,0,0,0,0,-1,965,722,0,0
-252,302,0,0,0,0,0,0,0,0,0,-1,972,722,0,0
-245,302,0,0,0,0,0,0,0,0,0,-1,979,722,0,0
-238,302,0,0,0,0,0,0,0,0,0,-1,986,722,0,0
-231,302,0,0,0,0,0,0,0,0,0,-1,993,722,0,0
-224,302,0,0,0,0,0,0,0,0,0,-1,1000,722,0,0
-217,302,0,0,0,0,0,0,0,0,0,-1,1007,722,0,0
-210,302,0,0,0,0,0,0,0,0,0,-1,1014,722,0,0
-203,302,0,0,0,0,0,0,0,0,0,-1,1021,722,0,0
-196,302,0,0,0,0,0,0,0,0,0,-1,1028,722,0,0
-189,302,0,0,0,0,0,0,0,0,0,-1,1035,722,0,0
-182,302,0,0,0,0,0,0,0,0,0,-1,1042,722,0,0
-175,302,0,0,0,0,0,0,0,0,0,-1,1049,722,0,0
-168,302,0,0,0,0,0,0,0,0,0,-1,1056,722,0,0
-161,302,0,0,0,0,0,0,0,0,0,-1,1063,722,0,0
-154,302,0,0,0,0,0,0,0,0,0,-1,1070,722,0,0
-147,302,0,0,0,0,0,0,0,0,0,-1,1077,722,0,0
-140,302,0,0,0,0,0,0,0,0,0,-1,1084,722,0,0
-133,302,0,0,0,0,0,0,0,0,0,-1,1091,722,0,0
-126,302,0,0,0,0,0,0,0,0,0,-1,1098,722,0,0
-119,302,0,0,0,0,0,0,0,0,0,-1,1105,722,0,0
-112,302,0,0,0,0,0,0,0,0,0,-1,1112,722,0,0
-105,302,0,0,0,0,0,0,0,0,0,-1,1119,722,0,0
-98,302,0,0,0,0,0,0,0,0,0,-1,1126,722,0,0
-91,302,0,0,0,0,0,0,0,0,0,-1,1133,722,0,0
-84,302,0,0,0,0,0,0,0,0,0,-1,1140,722,0,0
-77,302,0,0,0,0,0,0,0,0,0,-1,1147,722,0,0
-70,302,0,0,0,0,0,0,0,0,0,-1,1154,722,0,0
-63,302,0,0,0,0,0,0,0,0,0,-1,1161,722,0,0
-56,302,0,0,0,0,0,0,0,0,0,-1,1168,722,0,0
-49,302,0,0,0,0,0,0,0,0,0,-1,1175,722,0,0
-42,302,0,0,0,0,0,0,0,0,0,-1,1182,722,0,0
-35,302,0,0,0,0,0,0,0,0,0,-1,1189,722,0,0
-28,302,0,0,0,0,0,0,0,0,0,-1,1196,722,0,0
-21,302,0,0,0,0,0,0,0,0,0,-1,1203,722,0,0
-14,302,0,0,0,0,0,0,0,0,0,-1,1210,722,0,0
-7,302,0,0,0,0,0,0,0,0,0,-1,1217,722,0,0
0,302,0,0,0,0,0,0,0,0,0,-1,1224,722,0,0
7,302,0,0,0,0,0,0,0,0,0,-1,1231,722,0,0
14,302,0,0,0,0,0,0,0,0,0,-1,1238,722,0,0
21,302,0,0,0,0,0,0,0,0,0,-1,1245,722,0,0
28,302,0,0,0,0,0,0,0,0,0,-1,1252,722,0,0
35,302,0,0,0,0,0,0,0,0,0,-1,1259,722,0,0
42,302,0,0,0,0,0,0,0,0,0,-1,1266,722,0,0
49,302,0,0,0,0,0,0,0,0,0,-1,1273,722,0,0
56,302,0,0,0,0,0,0,0,0,0,-1,1280,722,0,0
63,302,0,0,0,0,0,0,0,0,0,-1,1287,722,0,0
70,302,0,0,0,0,0,0,0,0,0,-1,1294,722,0,0
77,302,0,0,0,0,0,0,0,0,0,-1,1301,722,0,0
84,302,0,0,0,0,0,0,0,0,0,-1,1308,722,0,0
91,302,0,0,0,0,0,0,0,0,0,-1,1315,722,0,0
98,302,0,0,0,0,0,0,0,0,0,-1,1322,722,0,0
105,302,0,0,0,0,0,0,0,0,0,-1,1329,722,0,0
112,302,0,0,0,0,0,0,0,0,0,-1,1336,722,0,0
119,302,0,0,0,0,0,0,0,0,0,-1,1343,722,0,0
126,302,0,0,0,0,0,0,0,0,0,-1,1350,722,0,0
133,302,0,0,0,0,0,0,0,0,0,-1,1357,722,0,0
140,302,0,0,0,0,0,0,0,0,0,-1,1364,722,0,0
147,302,0,0,0,0,0,0,0,0,0,-1,1371,722,0,0
154,302,0,0,0,0,0,0,0,0,0,-1,1378,722,0,0
161,302,0,0,0,0,0,0,0,0,0,-1,1385,722,0,0
168,302,0,0,0,0,0,0,0,0,0,-1,1392,722,0,0
175,302,0,0,0,0,0,0,0,0,0,-1,1399,722,0,0
182,302,0,0,0,0,0,0,0,0,0,-1,1406,722,0,0
189,302,0,0,0,0,0,0,0,0,0,-1,1413,722,0,0
196,302,0,0,0,0,0,0,0,0,0,-1,1420,722,0,0
203,302,0,0,0,0,0,0,0,0,0,-1,1427,722,0,0
210,302,0,0,0,0,0,0,0,0,0,-1,1434,722,0,0
217,302,0,0,0,0,0,0,0,0,0,-1,1441,722,0,0
224,302,0,0,0,0,0,0,0,0,0,-1,1448,722,0,0
231,302,0,0,0,0,0,0,0,0,0,-1,1455,722,0,0
238,302,0,0,0,0,0,0,0,0,0,-1,1462,722,0,0
245,302,0,0,0,0,0,0,0,0,0,-1,1469,722,0,0
252,302,0,0,0,0,0,0,0,0,0,-1,1476,722,0,0
259,302,0,0,0,0,0,0,0,0,0,-1,1483,722,0,0
266,302,0,0,0,0,0,0,0,0,0,-1,1490,722,0,0
273,302,0,0,0,0,0,0,0,0,0,-1,1497,722,0,0
280,302,0,0,0,0,0,0,0,0,0,-1,1504,722,0,0
287,302,0,0,0,0,0,0,0,0,0,-1,1511,722,0,0
294,302,0,0,0,0,0,0,0,0,0,-1,1518,722,0,0
301,302,0,0,0,0,0,0,0,0,0,-1,1525,722,0,0
308,302,0,0,0,0,0,0,0,0,0,-1,1532,722,0,0
315,302,0,0,0,0,0,0,0,0,0,-1,1539,722,0,0
322,302,0,0,0,0,0,0,0,0,0,-1,1546,722,0,0
329,302,0,0,0,0,0,0,0,0,0,-1,1553,722,0,0
336,302,0,0,0,0,0,0,0,0,0,-1,1560,722,0,0
343,302,0,0,0,0,0,0,0,0,0,-1,1567,722,0,0
350,302,0,0,0,0,0,0,0,0,0,-1,1574,722,0,0
357,302,0,0,0,0,0,0,0,0,0,-1,1581,722,0,0
364,302,0,0,0,0,0,0,0,0,0,-1,1588,722,0,0
371,302,0,0,0,0,0,0,0,0,0,-1,1595,722,0,0
378,302,0,0,0,0,0,0,0,0,0,-1,1602,722,0,0
385,302,0,0,0,0,0,0,0,0,0,-1,1609,722,0,0
392,302,0,0,0,0,0,0,0,0,0,-1,1616,722,0,0
399,302,0,0,0,0,0,0,0,0,0,-1,1623,722,0,0
406,302,0,0,0,0,0,0,0,0,0,-1,1630,722,0,0
413,302,0,0,0,0,0,0,0,0,0,-1,1637,722,0,0
420,302,0,0,0,0,0,0,0,0,0,-1,1644,722,0,0
427,302,0,0,0,0,0,0,0,0,0,-1,1651,722,0,0
434,302,0,0,0,0,0,0,0,0,0,-1,1658,722,0,0
441,302,0,0,0,0,0,0,0,0,0,-1,1665,722,0,0
448,302,0,0,0,0,0,0,0,0,0,-1,1672,722,0,0
455,302,0,0,0,0,0,0,0,0,0,-1,1679,722,0,0
462,302,0,0,0,0,0,0,0,0,0,-1,1686,722,0,0
469,302,0,0,0,0,0,0,0,0,0,-1,1693,722,0,0
476,302,0,0,0,0,0,0,0,0,0,-1,1700,722,0,0
483,302,0,0,0,0,0,0,0,0,0,-1,1707,722,0,0
490,302,0,0,0,0,0,0,0,0,0,-1,1714,722,0,0
497,302,0,0,0,0,0,0,0,0,0,-1,1721,722,0,0
504,302,0,0,0,0,0,0,0,0,0,-1,1728,722,0,0
511,302,0,0,0,0,0,0,0,0,0,-1,1735,722,0,0
518,302,0,0,0,0,0,0,0,0,0,-1,1742,722,0,0
525,302,0,0,0,0,0,0,0,0,0,-1,1749,722,0,0
532,302,0,0,0,0,0,0,0,0,0,-1,1756,722,0,0
539,302,0,0,0,0,0,0,0,0,0,-1,1763,722,0,0
546,302,10.8997,1.9519,0,0,0,0,0,0,0,-1,1770,722,10.8997,-1.95188
553,302,10.6373,1.8103,0,0,0,0,0,0,0,-1,1777,722,10.6373,-1.81027
560,302,10.3619,1.63037,0,0,0,0,0,0,0,-1,1784,722,10.362,-1.63039
567,302,10.0813,1.47278,0,0,0,0,0,0,0,-1,1791,722,10.0813,-1.47279
574,302,9.51599,2.30457,0,0,0,0,0,0,0,-1,1798,722,9.51601,-2.30456
581,302,10.8203,0.450439,0,0,0,0,0,0,0,-1,1805,722,10.8204,-0.45043
588,302,10.8036,0.845154,0,0,0,0,0,0,0,-1,1812,722,10.8036,-0.845135
595,302,10.7817,1.20135,0,0,0,0,0,0,0,-1,1819,722,10.7817,-1.20134
602,302,10.2255,0.356689,0,0,0,0,0,0,0,-1,1826,722,10.2254,-0.356716
609,302,8.22705,-0.00457764,0,0,0,0,0,0,0,-1,1833,722,8.22699,0.00457865
616,302,8.07703,0.125122,-0.00373267,0.0016044,-0.00455754,0.00421717,-0.00634544,-1.05025,0.00613945,0.0403167,1840,722,8.07708,-0.125134
623,302,7.94543,0.262756,-0.00116356,0.000470048,-0.00409851,0.00383235,-0.00452586,-0.883756,0.00483115,0.0138173,1847,722,7.94547,-0.262752
630,302,7.93042,0.402954,0.000128582,-0.000767008,-0.00329516,0.00300624,-0.00364466,-0.717865,0.00384579,0.0102258,1854,722,7.93039,-0.402954
637,302,7.90649,0.532532,-5.36826e-05,-0.000692023,-0.00259572,0.00224242,-0.00298812,-0.724225,0.00303007,0.0132555,1861,722,7.90647,-0.53256
644,302,7.93591,0.657532,-0.000242533,-0.000783566,-0.00219017,0.00169376,-0.00271986,-0.723952,0.00257106,0.014355,1868,722,7.93589,-0.657519
651,302,7.97522,0.801514,-2.7019e-05,-0.000871666,-0.00208946,0.00168237,-0.00258106,-0.685681,0.00247965,0.013553,1875,722,7.97527,-0.801484
658,302,7.98071,0.919861,0.000460148,-0.000598682,-0.00204752,0.00204559,-0.00218412,-0.658887,0.00244246,0.0138654,1882,722,7.98076,-0.919847
665,302,7.96765,1.03723,0.000900876,-0.00052021,-0.00229963,0.00259723,-0.00221657,-0.63556,0.00278214,0.0129732,1889,722,7.9676,-1.03723
672,302,7.96106,1.15533,0.00158288,-0.000256289,-0.0031069,0.00390343,-0.00257684,-0.641515,0.00376742,0.0103091,1896,722,7.9611,-1.1553
679,302,7.95764,1.31879,0.00250854,0.00128407,-0.0046737,0.00660994,-0.00281733,-0.720271,0.00558772,0.00857085,1903,722,7.95762,-1.31877
686,302,7.94873,1.43665,0.00384254,0.0031172,-0.00629908,0.00978938,-0.00282964,-0.756643,0.00764604,0.0118502,1910,722,7.94875,-1.43666
693,302,7.85852,1.46667,0.0059375,0.00598875,-0.00850376,0.0144669,-0.00254067,-0.786905,0.0105936,0.0225736,1917,722,7.85856,-1.46665
700,302,8.09338,1.85919,0.00860463,0.0103296,-0.0114691,0.0209686,-0.00203436,-0.822929,0.0147042,0.043401,1924,722,8.09337,-1.85921
707,302,8.14832,2.39893,0.0122287,0.0167976,-0.0152333,0.0299167,-0.000890478,-0.859826,0.0202478,0.049339,1931,722,8.1483,-2.39892
714,302,8.37866,2.78912,0,0,0,0,0,0,0,-1,1938,722,8.37867,-2.78914
721,302,8.01697,1.99127,0,0,0,0,0,0,0,-1,1945,722,8.01695,-1.99125
728,302,7.96509,2.07709,0,0,0,0,0,0,0,-1,1952,722,7.96503,-2.07706
735,302,0,0,0,0,0,0,0,0,0,-1,1959,722,0,0
742,302,0,0,0,0,0,0,0,0,0,-1,1966,722,0,0
749,302,0,0,0,0,0,0,0,0,0,-1,1973,722,0,0
756,302,0,0,0,0,0,0,0,0,0,-1,1980,722,0,0
763,302,0,0,0,0,0,0,0,0,0,-1,1987,722,0,0
770,302,0,0,0,0,0,0,0,0,0,-1,1994,722,0,0
777,302,0,0,0,0,0,0,0,0,0,-1,2001,722,0,0
784,302,0,0,0,0,0,0,0,0,0,-1,2008,722,0,0
791,302,0,0,0,0,0,0,0,0,0,-1,2015,722,0,0
798,302,0,0,0,0,0,0,0,0,0,-1,2022,722,0,0
805,302,0,0,0,0,0,0,0,0,0,-1,2029,722,0,0
812,302,0,0,0,0,0,0,0,0,0,-1,2036,722,0,0
-700,295,0,0,0,0,0,0,0,0,0,-1,524,729,0,0
-693,295,0,0,0,0,0,0,0,0,0,-1,531,729,0,0
-686,295,0,0,0,0,0,0,0,0,0,-1,538,729,0,0
-679,295,0,0,0,0,0,0,0,0,0,-1,545,729,0,0
-672,295,0,0,0,0,0,0,0,0,0,-1,552,729,0,0
-665,295,0,0,0,0,0,0,0,0,0,-1,559,729,0,0
-658,295,0,0,0,0,0,0,0,0,0,-1,566,729,0,0
-651,295,0,0,0,0,0,0,0,0,0,-1,573,729,0,0
-644,295,0,0,0,0,0,0,0,0,0,-1,580,729,0,0
-637,295,0,0,0,0,0,0,0,0,0,-1,587,729,0,0
-630,295,0,0,0,0,0,0,0,0,0,-1,594,729,0,0
-623,295,0,0,0,0,0,0,0,0,0,-1,601,729,0,0
-616,295,-4.48242,2.61523,0.0368545,0.018678,-0.0213625,0.0509816,0.00455086,-0.584281,0.0325769,0.0497804,608,729,-4.4824,-2.61525
-609,295,-3.71686,2.53058,0,0,0,0,0,0,0,-1,615,729,-3.71687,-2.53056
-602,295,-2.93048,2.31299,0,0,0,0,0,0,0,-1,622,729,-2.93051,-2.31296
-595,295,-2.12567,2.03217,0,0,0,0,0,0,0,-1,629,729,-2.12567,-2.03219
-588,295,-2.4364,-0.127991,0,0,0,0,0,0,0,-1,636,729,-2.43641,0.12798
-581,295,-2.42053,0.114319,0.000535335,0.00979798,-0.00285072,0.010605,-0.000271704,-1.29492,0.0071623,0.0480138,643,729,-2.42051,-0.114333
-574,295,-2.78766,0.327942,-0.00165666,0.0060217,-0.000283781,0.00603218,-0.00166713,-1.5339,0.00467727,0.0446513,650,729,-2.78765,-0.32797
-567,295,-2.72162,0.405151,-0.00308789,0.00346166,0.000895437,0.00358187,-0.0032081,1.43734,0.00392217,0.0370467,657,729,-2.7216,-0.405165
-560,295,-2.91125,0.327393,-0.00451225,0.00203204,0.00175581,0.00247336,-0.00495357,1.32455,0.00436691,0.0185694,664,729,-2.91123,-0.327419
-553,295,-2.93127,0.214111,-0.0048741,0.00175982,0.00222507,0.002437,-0.00555128,1.27536,0.00472742,0.0162373,671,729,-2.93126,-0.21413
-546,295,-2.95721,0.09552,-0.00446546,0.00116858,0.00227787,0.00197431,-0.00527119,1.23081,0.00432514,0.0205687,678,729,-2.9572,-0.0955214
-539,295,-2.9762,0.0117188,-0.00319627,-0.00010359,0.00220983,0.0010472,-0.00434706,1.09068,0.00330292,0.0176158,685,729,-2.97622,-0.0117294
-532,295,-3.00323,-0.106567,-0.00240905,-0.00158895,0.00235369,0.000390135,-0.00438814,0.87164,0.00306376,0.0146527,692,729,-3.00323,0.10656
-525,295,-2.99341,-0.230652,-0.00217485,-0.00343326,0.00268879,-4.26213e-05,-0.00556549,0.670461,0.0036962,0.0150048,699,729,-2.99338,0.23064
-518,295,-2.95789,-0.345886,-0.00222247,-0.00563875,0.00324757,-0.000261214,-0.00760001,0.543293,0.00498189,0.0111974,706,729,-2.95789,0.345911
-511,295,-2.95282,-0.462891,-0.00256738,-0.0085272,0.00379229,-0.000724296,-0.0103703,0.452393,0.00668518,0.00884234,713,729,-2.95284,0.462908
-504,295,-2.9364,-0.590088,-0.00250584,-0.0117795,0.00443361,-0.000727292,-0.013558,0.381499,0.00880627,0.0101863,720,729,-2.93641,0.590088
-497,295,-2.94611,-0.70575,-0.00161085,-0.0147259,0.00541213,0.000334119,-0.0166708,0.344999,0.0112269,0.0138296,727,729,-2.94613,0.705736
-490,295,-2.86981,-0.601135,-0.000545071,-0.0181391,0.0057011,0.00114076,-0.0198249,0.287509,0.0136128,0.0336098,734,729,-2.86981,0.601165
-483,295,-2.73926,-0.235657,0,0,0,0,0,0,0,-1,741,729,-2.73927,0.235655
-476,295,-5.08331,0.158203,0,0,0,0,0,0,0,-1,748,729,-5.0833,-0.158207
-469,295,-4.04028,1.65552,0,0,0,0,0,0,0,-1,755,729,-4.04026,-1.65554
-462,295,-7.7962,-0.924988,0,0,0,0,0,0,0,-1,762,729,-7.79623,0.924979
-455,295,-7.5,-0.772583,0,0,0,0,0,0,0,-1,769,729,-7.5,0.772594
-448,295,-7.22003,-0.710999,0,0,0,0,0,0,0,-1,776,729,-7.22004,0.710987
-441,295,-7.24164,-0.457642,0.0348373,-0.0278393,-0.0039276,0.0350824,-0.0280844,-0.0623396,0.0365439,0.045579,783,729,-7.24166,0.457638
-434,295,-7.07599,-0.482666,0.0451452,-0.0269237,-0.00638752,0.045707,-0.0274855,-0.0877194,0.042692,0.0480498,790,729,-7.07596,0.482648
-427,295,0,0,0,0,0,0,0,0,0,-1,797,729,0,0
-420,295,0,0,0,0,0,0,0,0,0,-1,804,729,0,0
-413,295,0,0,0,0,0,0,0,0,0,-1,811,729,0,0
-406,295,0,0,0,0,0,0,0,0,0,-1,818,729,0,0
-399,295,0,0,0,0,0,0,0,0,0,-1,825,729,0,0
-392,295,0,0,0,0,0,0,0,0,0,-1,832,729,0,0
-385,295,0,0,0,0,0,0,0,0,0,-1,839,729,0,0
-378,295,0,0,0,0,0,0,0,0,0,-1,846,729,0,0
-371,295,0,0,0,0,0,0,0,0,0,-1,853,729,0,0
-364,295,0,0,0,0,0,0,0,0,0,-1,860,729,0,0
-357,295,0,0,0,0,0,0,0,0,0,-1,867,729,0,0
-350,295,0,0,0,0,0,0,0,0,0,-1,874,729,0,0
-343,295,0,0,0,0,0,0,0,0,0,-1,881,729,0,0
-336,295,0,0,0,0,0,0,0,0,0,-1,888,729,0,0
-329,295,0,0,0,0,0,0,0,0,0,-1,895,729,0,0
-322,295,0,0,0,0,0,0,0,0,0,-1,902,729,0,0
-315,295,0,0,0,0,0,0,0,0,0,-1,909,729,0,0
-308,295,0,0,0,0,0,0,0,0,0,-1,916,729,0,0
-301,295,0,0,0,0,0,0,0,0,0,-1,923,729,0,0
-294,295,0,0,0,0,0,0,0,0,0,-1,930,729,0,0
-287,295,0,0,0,0,0,0,0,0,0,-1,937,729,0,0
-280,295,0,0,0,0,0,0,0,0,0,-1,944,729,0,0
-273,295,0,0,0,0,0,0,0,0,0,-1,951,729,0,0
-266,295,0,0,0,0,0,0,0,0,0,-1,958,729,0,0
-259,295,0,0,0,0,0,0,0,0,0,-1,965,729,0,0
-252,295,0,0,0,0,0,0,0,0,0,-1,972,729,0,0
-245,295,0,0,0,0,0,0,0,0,0,-1,979,729,0,0
-238,295,0,0,0,0,0,0,0,0,0,-1,986,729,0,0
-231,295,0,0,0,0,0,0,0,0,0,-1,993,729,0,0
-224,295,0,0,0,0,0,0,0,0,0,-1,1000,729,0,0
-217,295,0,0,0,0,0,0,0,0,0,-1,1007,729,0,0
-210,295,0,0,0,0,0,0,0,0,0,-1,1014,729,0,0
-203,295,0,0,0,0,0,0,0,0,0,-1,1021,729,0,0
-196,295,0,0,0,0,0,0,0,0,0,-1,1028,729,0,0
-189,295,0,0,0,0,0,0,0,0,0,-1,1035,729,0,0
-182,295,0,0,0,0,0,0,0,0,0,-1,1042,729,0,0
-175,295,0,0,0,0,0,0,0,0,0,-1,1049,729,0,0
-168,295,0,0,0,0,0,0,0,0,0,-1,1056,729,0,0
-161,295,0,0,0,0,0,0,0,0,0,-1,1063,729,0,0
-154,295,0,0,0,0,0,0,0,0,0,-1,1070,729,0,0
-147,295,0,0,0,0,0,0,0,0,0,-1,1077,729,0,0
-140,295,0,0,0,0,0,0,0,0,0,-1,1084,729,0,0
-133,295,0,0,0,0,0,0,0,0,0,-1,1091,729,0,0
-126,295,0,0,0,0,0,0,0,0,0,-1,1098,729,0,0
-119,295,0,0,0,0,0,0,0,0,0,-1,1105,729,0,0
-112,295,0,0,0,0,0,0,0,0,0,-1,1112,729,0,0
-105,295,0,0,0,0,0,0,0,0,0,-1,1119,729,0,0
-98,295,0,0,0,0,0,0,0,0,0,-1,1126,729,0,0
-91,295,0,0,0,0,0,0,0,0,0,-1,1133,729,0,0
-84,295,0,0,0,0,0,0,0,0,0,-1,1140,729,0,0
-77,295,0,0,0,0,0,0,0,0,0,-1,1147,729,0,0
-70,295,0,0,0,0,0,0,0,0,0,-1,1154,729,0,0
-63,295,0,0,0,0,0,0,0,0,0,-1,1161,729,0,0
-56,295,0,0,0,0,0,0,0,0,0,-1,1168,729,0,0
-49,295,0,0,0,0,0,0,0,0,0,-1,1175,729,0,0
-42,295,0,0,0,0,0,0,0,0,0,-1,1182,729,0,0
-35,295,0,0,0,0,0,0,0,0,0,-1,1189,729,0,0
-28,295,0,0,0,0,0,0,0,0,0,-1,1196,729,0,0
-21,295,0,0,0,0,0,0,0,0,0,-1,1203,729,0,0
-14,295,0,0,0,0,0,0,0,0,0,-1,1210,729,0,0
-7,295,0,0,0,0,0,0,0,0,0,-1,1217,729,0,0
0,295,0,0,0,0,0,0,0,0,0,-1,1224,729,0,0
7,295,0,0,0,0,0,0,0,0,0,-1,1231,729,0,0
14,295,0,0,0,0,0,0,0,0,0,-1,1238,729,0,0
21,295,0,0,0,0,0,0,0,0,0,-1,1245,729,0,0
28,295,0,0,0,0,0,0,0,0,0,-1,1252,729,0,0
35,295,0,0,0,0,0,0,0,0,0,-1,1259,729,0,0
42,295,0,0,0,0,0,0,0,0,0,-1,1266,729,0,0
49,295,0,0,0,0,0,0,0,0,0,-1,1273,729,0,0
56,295,0,0,0,0,0,0,0,0,0,-1,1280,729,0,0
63,295,0,0,0,0,0,0,0,0,0,-1,1287,729,0,0
70,295,0,0,0,0,0,0,0,0,0,-1,1294,729,0,0
77,295,0,0,0,0,0,0,0,0,0,-1,1301,729,0,0
84,295,0,0,0,0,0,0,0,0,0,-1,1308,729,0,0
91,295,0,0,0,0,0,0,0,0,0,-1,1315,729,0,0
98,295,0,0,0,0,0,0,0,0,0,-1,1322,729,0,0
105,295,0,0,0,0,0,0,0,0,0,-1,1329,729,0,0
112,295,0,0,0,0,0,0,0,0,0,-1,1336,729,0,0
119,295,0,0,0,0,0,0,0,0,0,-1,1343,729,0,0
126,295,0,0,0,0,0,0,0,0,0,-1,1350,729,0,0
133,295,0,0,0,0,0,0,0,0,0,-1,1357,729,0,0
140,295,0,0,0,0,0,0,0,0,0,-1,1364,729,0,0
147,295,0,0,0,0,0,0,0,0,0,-1,1371,729,0,0
154,295,0,0,0,0,0,0,0,0,0,-1,1378,729,0,0
161,295,0,0,0,0,0,0,0,0,0,-1,1385,729,0,0
168,295,0,0,0,0,0,0,0,0,0,-1,1392,729,0,0
175,295,0,0,0,0,0,0,0,0,0,-1,1399,729,0,0
182,295,0,0,0,0,0,0,0,0,0,-1,1406,729,0,0
189,295,0,0,0,0,0,0,0,0,0,-1,1413,729,0,0
196,295,0,0,0,0,0,0,0,0,0,-1,1420,729,0,0
203,295,0,0,0,0,0,0,0,0,0,-1,1427,729,0,0
210,295,0,0,0,0,0,0,0,0,0,-1,1434,729,0,0
217,295,0,0,0,0,0,0,0,0,0,-1,1441,729,0,0
224,295,0,0,0,0,0,0,0,0,0,-1,1448,729,0,0
231,295,0,0,0,0,0,0,0,0,0,-1,1455,729,0,0
238,295,0,0,0,0,0,0,0,0,0,-1,1462,729,0,0
245,295,0,0,0,0,0,0,0,0,0,-1,1469,729,0,0
252,295,0,0,0,0,0,0,0,0,0,-1,1476,729,0,0
259,295,0,0,0,0,0,0,0,0,0,-1,1483,729,0,0
266,295,0,0,0,0,0,0,0,0,0,-1,1490,729,0,0
273,295,0,0,0,0,0,0,0,0,0,-1,1497,729,0,0
280,295,0,0,0,0,0,0,0,0,0,-1,1504,729,0,0
287,295,0,0,0,0,0,0,0,0,0,-1,1511,729,0,0
294,295,0,0,0,0,0,0,0,0,0,-1,1518,729,0,0
301,295,0,0,0,0,0,0,0,0,0,-1,1525,729,0,0
308,295,0,0,0,0,0,0,0,0,0,-1,1532,729,0,0
315,295,0,0,0,0,0,0,0,0,0,-1,1539,729,0,0
322,295,0,0,0,0,0,0,0,0,0,-1,1546,729,0,0
329,295,0,0,0,0,0,0,0,0,0,-1,1553,729,0,0
336,295,0,0,0,0,0,0,0,0,0,-1,1560,729,0,0
343,295,0,0,0,0,0,0,0,0,0,-1,1567,729,0,0
350,295,0,0,0,0,0,0,0,0,0,-1,1574,729,0,0
357,295,0,0,0,0,0,0,0,0,0,-1,1581,729,0,0
364,295,0,0,0,0,0,0,0,0,0,-1,1588,729,0,0
371,295,0,0,0,0,0,0,0,0,0,-1,1595,729,0,0
378,295,0,0,0,0,0,0,0,0,0,-1,1602,729,0,0
385,295,0,0,0,0,0,0,0,0,0,-1,1609,729,0,0
392,295,0,0,0,0,0,0,0,0,0,-1,1616,729,0,0
399,295,0,0,0,0,0,0,0,0,0,-1,1623,729,0,0
406,295,0,0,0,0,0,0,0,0,0,-1,1630,729,0,0
413,295,0,0,0,0,0,0,0,0,0,-1,1637,729,0,0
420,295,0,0,0,0,0,0,0,0,0,-1,1644,729,0,0
427,295,0,0,0,0,0,0,0,0,0,-1,1651,729,0,0
434,295,0,0,0,0,0,0,0,0,0,-1,1658,729,0,0
441,295,0,0,0,0,0,0,0,0,0,-1,1665,729,0,0
448,295,0,0,0,0,0,0,0,0,0,-1,1672,729,0,0
455,295,0,0,0,0,0,0,0,0,0,-1,1679,729,0,0
462,295,0,0,0,0,0,0,0,0,0,-1,1686,729,0,0
469,295,0,0,0,0,0,0,0,0,0,-1,1693,729,0,0
476,295,0,0,0,0,0,0,0,0,0,-1,1700,729,0,0
483,295,0,0,0,0,0,0,0,0,0,-1,1707,729,0,0
490,295,0,0,0,0,0,0,0,0,0,-1,1714,729,0,0
497,295,0,0,0,0,0,0,0,0,0,-1,1721,729,0,0
504,295,0,0,0,0,0,0,0,0,0,-1,1728,729,0,0
511,295,0,0,0,0,0,0,0,0,0,-1,1735,729,0,0
518,295,0,0,0,0,0,0,0,0,0,-1,1742,729,0,0
525,295,0,0,0,0,0,0,0,0,0,-1,1749,729,0,0
532,295,0,0,0,0,0,0,0,0,0,-1,1756,729,0,0
539,295,0,0,0,0,0,0,0,0,0,-1,1763,729,0,0
546,295,11.0587,1.56207,0,0,0,0,0,0,0,-1,1770,729,11.0587,-1.56206
553,295,10.8423,1.55933,0,0,0,0,0,0,0,-1,1777,729,10.8423,-1.55931
560,295,10.5787,1.42584,0,0,0,0,0,0,0,-1,1784,729,10.5787,-1.42586
567,295,10.6079,1.47095,0,0,0,0,0,0,0,-1,1791,729,10.6079,-1.47094
574,295,11.1417,1.65332,0,0,0,0,0,0,0,-1,1798,729,11.1417,-1.65334
581,295,11.2233,1.00195,0,0,0,0,0,0,0,-1,1805,729,11.2232,-1.00198
588,295,10.564,1.01227,0,0,0,0,0,0,0,-1,1812,729,10.564,-1.01228
595,295,10.3152,0.89679,0,0,0,0,0,0,0,-1,1819,729,10.3152,-0.896818
602,295,9.95911,0.865784,0,0,0,0,0,0,0,-1,1826,729,9.95907,-0.865759
609,295,9.86426,0.999573,0,0,0,0,0,0,0,-1,1833,729,9.8642,-0.999546
616,295,8.26794,0.0274048,0,0,0,0,0,0,0,-1,1840,729,8.26795,-0.0274301
623,295,8.01892,0.272278,-0.00101615,0.00287369,-0.0041049,0.00547112,-0.00361358,-1.00663,0.00528147,0.0260546,1847,729,8.01886,-0.272275
630,295,8.04675,0.429626,-6.19977e-05,0.00105461,-0.00361564,0.00415479,-0.00316218,-0.862,0.0042374,0.0115094,1854,729,8.04676,-0.429599
637,295,8.0459,0.560608,-0.000384384,0.000647079,-0.00295884,0.00313479,-0.0028721,-0.871682,0.00346919,0.0125475,1861,729,8.04588,-0.56058
644,295,8.07849,0.687256,-0.000623655,0.000167295,-0.00241159,0.00221562,-0.00267198,-0.86667,0.00282595,0.0122038,1868,729,8.07854,-0.687227
651,295,8.10974,0.820923,-0.000418484,-0.000203051,-0.00215171,0.00184363,-0.00246517,-0.810408,0.0024963,0.0123136,1875,729,8.1097,-0.820938
658,295,8.09033,0.947327,8.26397e-05,-0.0002333,-0.00189932,0.00183054,-0.0019812,-0.743908,0.00220129,0.0111656,1882,729,8.09035,-0.947331
665,295,8.06836,1.05402,0.000431402,-0.000363879,-0.0019332,0.00200743,-0.00193991,-0.683968,0.00227911,0.0103364,1889,729,8.06839,-1.05402
672,295,8.06519,1.16467,0.000958884,-0.000185471,-0.00255853,0.00300844,-0.00223503,-0.675391,0.00303827,0.0112884,1896,729,8.06521,-1.16468
679,295,8.06348,1.31183,0.00164711,0.00129312,-0.00391212,0.00538624,-0.00244601,-0.762792,0.00462694,0.00890502,1903,729,8.06351,-1.3118
686,295,8.06104,1.43073,0.00281584,0.00314331,-0.00527926,0.00826138,-0.00230223,-0.8009,0.00641423,0.008602,1910,729,8.06105,-1.43073
693,295,8.05322,1.52753,0.00485595,0.00600513,-0.00705897,0.0125129,-0.00165177,-0.826008,0.00894349,0.0170358,1917,729,8.05317,-1.52753
700,295,8.09717,1.63519,0.00733546,0.010166,-0.00944296,0.0182991,-0.000797713,-0.859782,0.0124738,0.0315402,1924,729,8.09722,-1.63518
707,295,8.17261,1.66345,0.0108637,0.0162379,-0.0124553,0.0262927,0.000808968,-0.89164,0.0172651,0.0411829,1931,729,8.17259,-1.66346
714,295,8.53967,1.45654,0,0,0,0,0,0,0,-1,1938,729,8.53973,-1.45657
721,295,8.67102,1.6134,0.0216745,0.0360472,-0.0203261,0.0504199,0.00730182,-0.955316,0.031463,0.0463378,1945,729,8.67099,-1.61342
728,295,8.61414,1.67847,0.0295816,0.0507057,-0.0249746,0.0672598,0.0130275,-0.985448,0.0411899,0.0472235,1952,729,8.61412,-1.67844
735,295,0,0,0,0,0,0,0,0,0,-1,1959,729,0,0
742,295,0,0,0,0,0,0,0,0,0,-1,1966,729,0,0
749,295,0,0,0,0,0,0,0,0,0,-1,1973,729,0,0
756,295,0,0,0,0,0,0,0,0,0,-1,1980,729,0,0
763,295,0,0,0,0,0,0,0,0,0,-1,1987,729,0,0
770,295,0,0,0,0,0,0,0,0,0,-1,1994,729,0,0
777,295,0,0,0,0,0,0,0,0,0,-1,2001,729,0,0
784,295,0,0,0,0,0,0,0,0,0,-1,2008,729,0,0
791,295,0,0,0,0,0,0,0,0,0,-1,2015,729,0,0
798,295,0,0,0,0,0,0,0,0,0,-1,2022,729,0,0
805,295,0,0,0,0,0,0,0,0,0,-1,2029,729,0,0
812,295,0,0,0,0,0,0,0,0,0,-1,2036,729,0,0
-700,288,0,0,0,0,0,0,0,0,0,-1,524,736,0,0
-693,288,0,0,0,0,0,0,0,0,0,-1,531,736,0,0
-686,288,0,0,0,0,0,0,0,0,0,-1,538,736,0,0
-679,288,0,0,0,0,0,0,0,0,0,-1,545,736,0,0
-672,288,0,0,0,0,0,0,0,0,0,-1,552,736,0,0
-665,288,0,0,0,0,0,0,0,0,0,-1,559,736,0,0
-658,288,0,0,0,0,0,0,0,0,0,-1,566,736,0,0
-651,288,0,0,0,0,0,0,0,0,0,-1,573,736,0,0
-644,288,0,0,0,0,0,0,0,0,0,-1,580,736,0,0
-637,288,0,0,0,0,0,0,0,0,0,-1,587,736,0,0
-630,288,0,0,0,0,0,0,0,0,0,-1,594,736,0,0
-623,288,0,0,0,0,0,0,0,0,0,-1,601,736,0,0
-616,288,-3.698,2.79114,0,0,0,0,0,0,0,-1,608,736,-3.69801,-2.79114
-609,288,-4.31604,3.29932,0,0,0,0,0,0,0,-1,615,736,-4.31606,-3.29934
-602,288,-3.40381,2.7511,0,0,0,0,0,0,0,-1,622,736,-3.40382,-2.75112
-595,288,-2.61755,2.43817,0,0,0,0,0,0,0,-1,629,736,-2.61757,-2.43815
-588,288,-3.37024,-0.0292358,0,0,0,0,0,0,0,-1,636,736,-3.37026,0.0292578
-581,288,-3.02423,0.157104,0.00321597,0.00797413,-0.00487921,0.0110234,0.000166728,-1.01224,0.00729398,0.046721,643,736,-3.02423,-0.157098
-574,288,-2.89948,0.380676,0.00117846,0.00424462,-0.0021693,0.00536789,5.51946e-05,-1.09301,0.00356034,0.0355467,650,736,-2.8995,-0.380694
-567,288,-2.96716,0.404785,-0.000383066,0.00177173,-0.000749556,0.00200682,-0.000618154,-1.26688,0.00158464,0.0211817,657,736,-2.96714,-0.404803
-560,288,-3.07739,0.30072,-0.00207927,0.000449379,0.000350696,0.000497115,-0.00212701,1.43551,0.00160951,0.0119415,664,736,-3.07742,-0.300705
-553,288,-3.06531,0.198364,-0.00301572,0.000423705,0.00125182,0.00083107,-0.00342309,1.25619,0.00260368,0.0180035,671,736,-3.06532,-0.198389
-546,288,-3.07568,0.101929,-0.00313981,7.38128e-05,0.0017201,0.00082085,-0.00388685,1.16108,0.00290378,0.0193152,678,736,-3.0757,-0.101935
-539,288,-3.08362,-0.00256348,-0.00235021,-0.00109949,0.00203201,0.000401214,-0.00385092,0.934676,0.00271093,0.0161156,685,736,-3.08363,0.00255787
-532,288,-3.06232,-0.137024,-0.00202719,-0.00253966,0.00247996,0.000209741,-0.00477659,0.733919,0.00325656,0.0118562,692,736,-3.06235,0.137023
-525,288,-3.06927,-0.25708,-0.00228156,-0.0043787,0.00306084,-9.46652e-05,-0.0065656,0.620375,0.00434586,0.0115234,699,736,-3.06929,0.25708
-518,288,-3.07648,-0.355347,-0.00277848,-0.00655839,0.00385028,-0.00037931,-0.00895756,0.557244,0.00584937,0.0117592,706,736,-3.07646,0.355367
-511,288,-3.0647,-0.470459,-0.00343286,-0.00943311,0.00448844,-0.00103421,-0.0118318,0.490793,0.0075667,0.00874046,713,736,-3.0647,0.470461
-504,288,-3.0451,-0.602051,-0.00350306,-0.0127068,0.00511173,-0.00122691,-0.0149829,0.418921,0.00960578,0.00982798,720,736,-3.04512,0.602028
-497,288,-3.05212,-0.700867,-0.00265288,-0.0157369,0.00594859,-0.000352747,-0.0180371,0.368961,0.0119089,0.0175014,727,736,-3.0521,0.700868
-490,288,-3.0697,-0.732544,0,0,0,0,0,0,0,-1,734,736,-3.06971,0.732517
-483,288,-4.10248,0.225098,0,0,0,0,0,0,0,-1,741,736,-4.10246,-0.225082
-476,288,-3.61639,0.597961,0,0,0,0,0,0,0,-1,748,736,-3.61642,-0.597951
-469,288,-3.99341,1.37872,0,0,0,0,0,0,0,-1,755,736,-3.99343,-1.37873
-462,288,-3.96063,1.53949,0,0,0,0,0,0,0,-1,762,736,-3.96065,-1.53947
-455,288,-7.16315,-0.341431,0,0,0,0,0,0,0,-1,769,736,-7.16313,0.34146
-448,288,-7.10669,-0.214905,0.0277089,-0.0309226,-0.00415667,0.0280021,-0.0312158,-0.0704254,0.0342062,0.0453983,776,736,-7.10671,0.214905
-441,288,-7.03296,-0.11731,0.0385477,-0.0295873,-0.00802721,0.0394807,-0.0305202,-0.115703,0.0405253,0.0403929,783,736,-7.03297,0.117284
-434,288,-6.82562,-0.012207,0.0510626,-0.0314798,-0.011583,0.0526572,-0.0330744,-0.136808,0.0499258,0.042365,790,736,-6.82564,0.0121961
-427,288,0,0,0,0,0,0,0,0,0,-1,797,736,0,0
-420,288,0,0,0,0,0,0,0,0,0,-1,804,736,0,0
-413,288,0,0,0,0,0,0,0,0,0,-1,811,736,0,0
-406,288,0,0,0,0,0,0,0,0,0,-1,818,736,0,0
-399,288,0,0,0,0,0,0,0,0,0,-1,825,736,0,0
-392,288,0,0,0,0,0,0,0,0,0,-1,832,736,0,0
-385,288,0,0,0,0,0,0,0,0,0,-1,839,736,0,0
-378,288,0,0,0,0,0,0,0,0,0,-1,846,736,0,0
-371,288,0,0,0,0,0,0,0,0,0,-1,853,736,0,0
-364,288,0,0,0,0,0,0,0,0,0,-1,860,736,0,0
-357,288,0,0,0,0,0,0,0,0,0,-1,867,736,0,0
-350,288,0,0,0,0,0,0,0,0,0,-1,874,736,0,0
-343,288,0,0,0,0,0,0,0,0,0,-1,881,736,0,0
-336,288,0,0,0,0,0,0,0,0,0,-1,888,736,0,0
-329,288,0,0,0,0,0,0,0,0,0,-1,895,736,0,0
-322,288,0,0,0,0,0,0,0,0,0,-1,902,736,0,0
-315,288,0,0,0,0,0,0,0,0,0,-1,909,736,0,0
-308,288,0,0,0,0,0,0,0,0,0,-1,916,736,0,0
-301,288,0,0,0,0,0,0,0,0,0,-1,923,736,0,0
-294,288,0,0,0,0,0,0,0,0,0,-1,930,736,0,0
-287,288,0,0,0,0,0,0,0,0,0,-1,937,736,0,0
-280,288,0,0,0,0,0,0,0,0,0,-1,944,736,0,0
-273,288,0,0,0,0,0,0,0,0,0,-1,951,736,0,0
-266,288,0,0,0,0,0,0,0,0,0,-1,958,736,0,0
-259,288,0,0,0,0,0,0,0,0,0,-1,965,736,0,0
-252,288,0,0,0,0,0,0,0,0,0,-1,972,736,0,0
-245,288,0,0,0,0,0,0,0,0,0,-1,979,736,0,0
-238,288,0,0,0,0,0,0,0,0,0,-1,986,736,0,0
-231,288,0,0,0,0,0,0,0,0,0,-1,993,736,0,0
-224,288,0,0,0,0,0,0,0,0,0,-1,1000,736,0,0
-217,288,0,0,0,0,0,0,0,0,0,-1,1007,736,0,0
-210,288,0,0,0,0,0,0,0,0,0,-1,1014,736,0,0
-203,288,0,0,0,0,0,0,0,0,0,-1,1021,736,0,0
-196,288,0,0,0,0,0,0,0,0,0,-1,1028,736,0,0
-189,288,0,0,0,0,0,0,0,0,0,-1,1035,736,0,0
-182,288,0,0,0,0,0,0,0,0,0,-1,1042,736,0,0
-175,288,0,0,0,0,0,0,0,0,0,-1,1049,736,0,0
-168,288,0,0,0,0,0,0,0,0,0,-1,1056,736,0,0
-161,288,0,0,0,0,0,0,0,0,0,-1,1063,736,0,0
-154,288,0,0,0,0,0,0,0,0,0,-1,1070,736,0,0
-147,288,0,0,0,0,0,0,0,0,0,-1,1077,736,0,0
-140,288,0,0,0,0,0,0,0,0,0,-1,1084,736,0,0
-133,288,0,0,0,0,0,0,0,0,0,-1,1091,736,0,0
-126,288,0,0,0,0,0,0,0,0,0,-1,1098,736,0,0
-119,288,0,0,0,0,0,0,0,0,0,-1,1105,736,0,0
-112,288,0,0,0,0,0,0,0,0,0,-1,1112,736,0,0
-105,288,0,0,0,0,0,0,0,0,0,-1,1119,736,0,0
-98,288,0,0,0,0,0,0,0,0,0,-1,1126,736,0,0
-91,288,0,0,0,0,0,0,0,0,0,-1,1133,736,0,0
-84,288,0,0,0,0,0,0,0,0,0,-1,1140,736,0,0
-77,288,0,0,0,0,0,0,0,0,0,-1,1147,736,0,0
-70,288,0,0,0,0,0,0,0,0,0,-1,1154,736,0,0
-63,288,0,0,0,0,0,0,0,0,0,-1,1161,736,0,0
-56,288,0,0,0,0,0,0,0,0,0,-1,1168,736,0,0
-49,288,0,0,0,0,0,0,0,0,0,-1,1175,736,0,0
-42,288,0,0,0,0,0,0,0,0,0,-1,1182,736,0,0
-35,288,0,0,0,0,0,0,0,0,0,-1,1189,736,0,0
-28,288,0,0,0,0,0,0,0,0,0,-1,1196,736,0,0
-21,288,0,0,0,0,0,0,0,0,0,-1,1203,736,0,0
-14,288,0,0,0,0,0,0,0,0,0,-1,1210,736,0,0
-7,288,0,0,0,0,0,0,0,0,0,-1,1217,736,0,0
0,288,0,0,0,0,0,0,0,0,0,-1,1224,736,0,0
7,288,0,0,0,0,0,0,0,0,0,-1,1231,736,0,0
14,288,0,0,0,0,0,0,0,0,0,-1,1238,736,0,0
21,288,0,0,0,0,0,0,0,0,0,-1,1245,736,0,0
28,288,0,0,0,0,0,0,0,0,0,-1,1252,736,0,0
35,288,0,0,0,0,0,0,0,0,0,-1,1259,736,0,0
42,288,0,0,0,0,0,0,0,0,0,-1,1266,736,0,0
49,288,0,0,0,0,0,0,0,0,0,-1,1273,736,0,0
56,288,0,0,0,0,0,0,0,0,0,-1,1280,736,0,0
63,288,0,0,0,0,0,0,0,0,0,-1,1287,736,0,0
70,288,0,0,0,0,0,0,0,0,0,-1,1294,736,0,0
77,288,0,0,0,0,0,0,0,0,0,-1,1301,736,0,0
84,288,0,0,0,0,0,0,0,0,0,-1,1308,736,0,0
91,288,0,0,0,0,0,0,0,0,0,-1,1315,736,0,0
98,288,0,0,0,0,0,0,0,0,0,-1,1322,736,0,0
105,288,0,0,0,0,0,0,0,0,0,-1,1329,736,0,0
112,288,0,0,0,0,0,0,0,0,0,-1,1336,736,0,0
119,288,0,0,0,0,0,0,0,0,0,-1,1343,736,0,0
126,288,0,0,0,0,0,0,0,0,0,-1,1350,736,0,0
133,288,0,0,0,0,0,0,0,0,0,-1,1357,736,0,0
140,288,0,0,0,0,0,0,0,0,0,-1,1364,736,0,0
147,288,0,0,0,0,0,0,0,0,0,-1,1371,736,0,0
154,288,0,0,0,0,0,0,0,0,0,-1,1378,736,0,0
161,288,0,0,0,0,0,0,0,0,0,-1,1385,736,0,0
168,288,0,0,0,0,0,0,0,0,0,-1,1392,736,0,0
175,288,0,0,0,0,0,0,0,0,0,-1,1399,736,0,0
182,288,0,0,0,0,0,0,0,0,0,-1,1406,736,0,0
189,288,0,0,0,0,0,0,0,0,0,-1,1413,736,0,0
196,288,0,0,0,0,0,0,0,0,0,-1,1420,736,0,0
203,288,0,0,0,0,0,0,0,0,0,-1,1427,736,0,0
210,288,0,0,0,0,0,0,0,0,0,-1,1434,736,0,0
217,288,0,0,0,0,0,0,0,0,0,-1,1441,736,0,0
224,288,0,0,0,0,0,0,0,0,0,-1,1448,736,0,0
231,288,0,0,0,0,0,0,0,0,0,-1,1455,736,0,0
238,288,0,0,0,0,0,0,0,0,0,-1,1462,736,0,0
245,288,0,0,0,0,0,0,0,0,0,-1,1469,736,0,0
252,288,0,0,0,0,0,0,0,0,0,-1,1476,736,0,0
259,288,0,0,0,0,0,0,0,0,0,-1,1483,736,0,0
266,288,0,0,0,0,0,0,0,0,0,-1,1490,736,0,0
273,288,0,0,0,0,0,0,0,0,0,-1,1497,736,0,0
280,288,0,0,0,0,0,0,0,0,0,-1,1504,736,0,0
287,288,0,0,0,0,0,0,0,0,0,-1,1511,736,0,0
294,288,0,0,0,0,0,0,0,0,0,-1,1518,736,0,0
301,288,0,0,0,0,0,0,0,0,0,-1,1525,736,0,0
308,288,0,0,0,0,0,0,0,0,0,-1,1532,736,0,0
315,288,0,0,0,0,0,0,0,0,0,-1,1539,736,0,0
322,288,0,0,0,0,0,0,0,0,0,-1,1546,736,0,0
329,288,0,0,0,0,0,0,0,0,0,-1,1553,736,0,0
336,288,0,0,0,0,0,0,0,0,0,-1,1560,736,0,0
343,288,0,0,0,0,0,0,0,0,0,-1,1567,736,0,0
350,288,0,0,0,0,0,0,0,0,0,-1,1574,736,0,0
357,288,0,0,0,0,0,0,0,0,0,-1,1581,736,0,0
364,288,0,0,0,0,0,0,0,0,0,-1,1588,736,0,0
371,288,0,0,0,0,0,0,0,0,0,-1,1595,736,0,0
378,288,0,0,0,0,0,0,0,0,0,-1,1602,736,0,0
385,288,0,0,0,0,0,0,0,0,0,-1,1609,736,0,0
392,288,0,0,0,0,0,0,0,0,0,-1,1616,736,0,0
399,288,0,0,0,0,0,0,0,0,0,-1,1623,736,0,0
406,288,0,0,0,0,0,0,0,0,0,-1,1630,736,0,0
413,288,0,0,0,0,0,0,0,0,0,-1,1637,736,0,0
420,288,0,0,0,0,0,0,0,0,0,-1,1644,736,0,0
427,288,0,0,0,0,0,0,0,0,0,-1,1651,736,0,0
434,288,0,0,0,0,0,0,0,0,0,-1,1658,736,0,0
441,288,0,0,0,0,0,0,0,0,0,-1,1665,736,0,0
448,288,0,0,0,0,0,0,0,0,0,-1,1672,736,0,0
455,288,0,0,0,0,0,0,0,0,0,-1,1679,736,0,0
462,288,0,0,0,0,0,0,0,0,0,-1,1686,736,0,0
469,288,0,0,0,0,0,0,0,0,0,-1,1693,736,0,0
476,288,0,0,0,0,0,0,0,0,0,-1,1700,736,0,0
483,288,0,0,0,0,0,0,0,0,0,-1,1707,736,0,0
490,288,0,0,0,0,0,0,0,0,0,-1,1714,736,0,0
497,288,0,0,0,0,0,0,0,0,0,-1,1721,736,0,0
504,288,0,0,0,0,0,0,0,0,0,-1,1728,736,0,0
511,288,0,0,0,0,0,0,0,0,0,-1,1735,736,0,0
518,288,0,0,0,0,0,0,0,0,0,-1,1742,736,0,0
525,288,0,0,0,0,0,0,0,0,0,-1,1749,736,0,0
532,288,0,0,0,0,0,0,0,0,0,-1,1756,736,0,0
539,288,0,0,0,0,0,0,0,0,0,-1,1763,736,0,0
546,288,0,0,0,0,0,0,0,0,0,-1,1770,736,0,0
553,288,11.0266,1.2312,0,0,0,0,0,0,0,-1,1777,736,11.0267,-1.23118
560,288,10.9504,1.26654,0,0,0,0,0,0,0,-1,1784,736,10.9504,-1.26656
567,288,11.1754,2.4118,0,0,0,0,0,0,0,-1,1791,736,11.1754,-2.41179
574,288,10.0623,3.44354,0,0,0,0,0,0,0,-1,1798,736,10.0623,-3.44356
581,288,10.9305,1.47986,0,0,0,0,0,0,0,-1,1805,736,10.9306,-1.47987
588,288,10.4011,1.38049,0,0,0,0,0,0,0,-1,1812,736,10.4011,-1.38047
595,288,12.3528,2.0188,0,0,0,0,0,0,0,-1,1819,736,12.3528,-2.01881
602,288,9.66565,1.36609,0,0,0,0,0,0,0,-1,1826,736,9.6657,-1.36608
609,288,9.60669,1.15039,0,0,0,0,0,0,0,-1,1833,736,9.6067,-1.1504
616,288,8.29407,0.432312,0,0,0,0,0,0,0,-1,1840,736,8.29407,-0.432342
623,288,8.23621,0.481201,-0.00213236,0.00465175,-0.00411686,0.00659397,-0.00407459,-1.12998,0.00621648,0.0436595,1847,736,8.23617,-0.481194
630,288,8.19287,0.462219,-0.00153631,0.00251823,-0.00388167,0.00487014,-0.00388822,-1.02605,0.00506722,0.018422,1854,736,8.1929,-0.46224
637,288,8.17322,0.555908,-0.00182451,0.00183952,-0.00328766,0.00377114,-0.00375614,-1.03959,0.00434588,0.0101378,1861,736,8.17326,-0.555885
644,288,8.20581,0.680115,-0.0019465,0.00109753,-0.00265851,0.00263888,-0.00348786,-1.04538,0.00354858,0.00955831,1868,736,8.20578,-0.680118
651,288,8.22729,0.815857,-0.00154317,0.000551502,-0.00226672,0.00200115,-0.00299282,-1.00181,0.00290216,0.0104228,1875,736,8.22727,-0.81586
658,288,8.21472,0.947388,-0.000790384,0.000317977,-0.00182804,0.00167399,-0.0021464,-0.932573,0.00221132,0.0150386,1882,736,8.21471,-0.94738
665,288,8.20691,1.05725,-0.000306193,9.22751e-05,-0.00167066,0.00157554,-0.00178946,-0.844745,0.00194409,0.0156962,1889,736,8.20691,-1.05726
672,288,8.19336,1.15631,0.000242016,0.000306667,-0.00211337,0.00238796,-0.00183928,-0.793045,0.00244744,0.0129342,1896,736,8.19334,-1.15632
679,288,8.19116,1.30139,0.000881481,0.00174414,-0.00319518,0.00453697,-0.00191135,-0.85249,0.00382443,0.0106643,1903,736,8.19115,-1.30141
686,288,8.1969,1.40558,0.00193622,0.00371974,-0.00426356,0.0071838,-0.00152784,-0.888491,0.00537141,0.0086947,1910,736,8.19693,-1.40559
693,288,8.20386,1.52692,0.00386762,0.00665193,-0.00556605,0.0109973,-0.000477739,-0.907942,0.00749585,0.0105757,1917,736,8.20388,-1.52694
700,288,8.21362,1.63538,0.0061318,0.0107017,-0.00728687,0.0160535,0.000780039,-0.937329,0.010452,0.021686,1924,736,8.21357,-1.63537
707,288,8.22888,1.73694,0.00947394,0.0163602,-0.00933101,0.0228631,0.00297107,-0.962147,0.0143545,0.0383107,1931,736,8.22891,-1.73696
714,288,8.23413,1.86011,0,0,0,0,0,0,0,-1,1938,736,8.23419,-1.86008
721,288,9.19385,1.38232,0.0199911,0.0342231,-0.0143316,0.0431081,0.011106,-1.01583,0.0258448,0.0461791,1945,736,9.19388,-1.3823
728,288,9.42163,1.07562,0.0277543,0.0470288,-0.0168633,0.0568145,0.0179687,-1.04499,0.0335319,0.0476679,1952,736,9.42157,-1.07564
735,288,9.8125,0.540649,0,0,0,0,0,0,0,-1,1959,736,9.81254,-0.540619
742,288,0,0,0,0,0,0,0,0,0,-1,1966,736,0,0
749,288,0,0,0,0,0,0,0,0,0,-1,1973,736,0,0
756,288,0,0,0,0,0,0,0,0,0,-1,1980,736,0,0
763,288,0,0,0,0,0,0,0,0,0,-1,1987,736,0,0
770,288,0,0,0,0,0,0,0,0,0,-1,1994,736,0,0
777,288,0,0,0,0,0,0,0,0,0,-1,2001,736,0,0
784,288,0,0,0,0,0,0,0,0,0,-1,2008,736,0,0
791,288,0,0,0,0,0,0,0,0,0,-1,2015,736,0,0
798,288,0,0,0,0,0,0,0,0,0,-1,2022,736,0,0
805,288,0,0,0,0,0,0,0,0,0,-1,2029,736,0,0
812,288,0,0,0,0,0,0,0,0,0,-1,2036,736,0,0
-700,281,0,0,0,0,0,0,0,0,0,-1,524,743,0,0
-693,281,0,0,0,0,0,0,0,0,0,-1,531,743,0,0
-686,281,0,0,0,0,0,0,0,0,0,-1,538,743,0,0
-679,281,0,0,0,0,0,0,0,0,0,-1,545,743,0,0
-672,281,0,0,0,0,0,0,0,0,0,-1,552,743,0,0
-665,281,0,0,0,0,0,0,0,0,0,-1,559,743,0,0
-658,281,0,0,0,0,0,0,0,0,0,-1,566,743,0,0
-651,281,0,0,0,0,0,0,0,0,0,-1,573,743,0,0
-644,281,0,0,0,0,0,0,0,0,0,-1,580,743,0,0
-637,281,0,0,0,0,0,0,0,0,0,-1,587,743,0,0
-630,281,0,0,0,0,0,0,0,0,0,-1,594,743,0,0
-623,281,-2.66022,6.34619,0,0,0,0,0,0,0,-1,601,743,-2.66021,-6.34618
-616,281,-4.89966,4.21637,0,0,0,0,0,0,0,-1,608,743,-4.89963,-4.21639
-609,281,-4.29108,3.73682,0.0146248,0.0308794,-0.0193046,0.0436978,0.0018064,-0.984638,0.0285488,0.049163,615,743,-4.2911,-3.73682
-602,281,-3.61798,3.2973,0.0113874,0.0253157,-0.0158246,0.0356408,0.00106231,-0.992686,0.0234145,0.0492052,622,743,-3.61798,-3.29731
-595,281,-2.93445,2.86609,0,0,0,0,0,0,0,-1,629,743,-2.93445,-2.86612
-588,281,-2.90204,1.27075,0,0,0,0,0,0,0,-1,636,743,-2.90204,-1.27077
-581,281,-2.98047,0.876404,0.00308685,0.00950216,-0.00643654,0.013486,-0.000897019,-1.01656,0.00930412,0.0462175,643,743,-2.98047,-0.876417
-574,281,-3.06024,0.452576,0.00162809,0.00520591,-0.00365839,0.00748935,-0.000655348,-1.0128,0.00522507,0.0265859,650,743,-3.06026,-0.452582
-567,281,-3.177,0.418823,0.00034463,0.00216497,-0.00202025,0.00347061,-0.000961015,-0.997042,0.00269188,0.0121843,657,743,-3.17699,-0.418835
-560,281,-3.20288,0.306213,-0.00121759,0.000496586,-0.000772552,0.000793378,-0.00151438,-1.20401,0.00135389,0.00819193,664,743,-3.20288,-0.306218
-553,281,-3.1767,0.213989,-0.0024044,0.000175541,0.000470064,0.000258517,-0.00248738,1.39607,0.0017508,0.0123876,671,743,-3.17669,-0.213988
-546,281,-3.17859,0.126343,-0.00273199,-0.000256613,0.00131232,0.000309604,-0.0032982,1.16347,0.00230893,0.0137193,678,743,-3.17861,-0.126356
-539,281,-3.17706,0.00408936,-0.00223989,-0.00154982,0.00200703,0.000141616,-0.00393133,0.870522,0.00266934,0.0126671,685,743,-3.17709,-0.00411888
-532,281,-3.18262,-0.116394,-0.00225624,-0.0030877,0.00276086,0.000120017,-0.00546395,0.71067,0.00368329,0.0110691,692,743,-3.18265,0.116387
-525,281,-3.19177,-0.240906,-0.00291555,-0.00500773,0.00358885,-0.000223444,-0.00769984,0.643586,0.00506039,0.0120465,699,743,-3.19174,0.240906
-518,281,-3.19165,-0.364685,-0.00374449,-0.00719955,0.00459612,-0.000561956,-0.0103821,0.605633,0.00674188,0.0119376,706,743,-3.19167,0.364674
-511,281,-3.19244,-0.472107,-0.00463846,-0.0100464,0.00532186,-0.00137303,-0.0133118,0.550351,0.00845411,0.0109866,713,743,-3.19246,0.472122
-504,281,-3.16803,-0.605835,-0.00481418,-0.0132971,0.00594457,-0.00175303,-0.0163582,0.475534,0.0103706,0.0115477,720,743,-3.16806,0.605821
-497,281,-3.11841,-0.750183,-0.00404365,-0.0164053,0.00664112,-0.00115215,-0.0192968,0.41064,0.0124982,0.0289816,727,743,-3.11842,0.750197
-490,281,-3.12494,-0.839294,-0.00290949,-0.0198974,0.00638642,-0.000776422,-0.0220305,0.322351,0.0144351,0.0427022,734,743,-3.12492,0.839305
-483,281,-3.76599,0.501099,-0.000824397,-0.0233283,0.00561063,0.000496861,-0.0246495,0.231278,0.0166011,0.0402831,741,743,-3.766,-0.501095
-476,281,-3.7298,0.836121,0,0,0,0,0,0,0,-1,748,743,-3.72978,-0.836112
-469,281,-3.87262,1.16913,0,0,0,0,0,0,0,-1,755,743,-3.8726,-1.16913
-462,281,-4.11389,1.65869,0,0,0,0,0,0,0,-1,762,743,-4.1139,-1.6587
-455,281,-4.27594,2.10547,0,0,0,0,0,0,0,-1,769,743,-4.27596,-2.10549
-448,281,-6.97681,0.184509,0.029709,-0.0324415,-0.00730274,0.0305556,-0.0332881,-0.115407,0.0368714,0.0456691,776,743,-6.97681,-0.184521
-441,281,-6.67737,0.240234,0.0423845,-0.0318653,-0.0122757,0.0443614,-0.0338422,-0.159671,0.0452868,0.0422028,783,743,-6.67737,-0.240236
-434,281,0,0,0,0,0,0,0,0,0,-1,790,743,0,0
-427,281,0,0,0,0,0,0,0,0,0,-1,797,743,0,0
-420,281,0,0,0,0,0,0,0,0,0,-1,804,743,0,0
-413,281,0,0,0,0,0,0,0,0,0,-1,811,743,0,0
-406,281,0,0,0,0,0,0,0,0,0,-1,818,743,0,0
-399,281,0,0,0,0,0,0,0,0,0,-1,825,743,0,0
-392,281,0,0,0,0,0,0,0,0,0,-1,832,743,0,0
-385,281,0,0,0,0,0,0,0,0,0,-1,839,743,0,0
-378,281,0,0,0,0,0,0,0,0,0,-1,846,743,0,0
-371,281,0,0,0,0,0,0,0,0,0,-1,853,743,0,0
-364,281,0,0,0,0,0,0,0,0,0,-1,860,743,0,0
-357,281,0,0,0,0,0,0,0,0,0,-1,867,743,0,0
-350,281,0,0,0,0,0,0,0,0,0,-1,874,743,0,0
-343,281,0,0,0,0,0,0,0,0,0,-1,881,743,0,0
-336,281,0,0,0,0,0,0,0,0,0,-1,888,743,0,0
-329,281,0,0,0,0,0,0,0,0,0,-1,895,743,0,0
-322,281,0,0,0,0,0,0,0,0,0,-1,902,743,0,0
-315,281,0,0,0,0,0,0,0,0,0,-1,909,743,0,0
-308,281,0,0,0,0,0,0,0,0,0,-1,916,743,0,0
-301,281,0,0,0,0,0,0,0,0,0,-1,923,743,0,0
-294,281,0,0,0,0,0,0,0,0,0,-1,930,743,0,0
-287,281,0,0,0,0,0,0,0,0,0,-1,937,743,0,0
-280,281,0,0,0,0,0,0,0,0,0,-1,944,743,0,0
-273,281,0,0,0,0,0,0,0,0,0,-1,951,743,0,0
-266,281,0,0,0,0,0,0,0,0,0,-1,958,743,0,0
-259,281,0,0,0,0,0,0,0,0,0,-1,965,743,0,0
-252,281,0,0,0,0,0,0,0,0,0,-1,972,743,0,0
-245,281,0,0,0,0,0,0,0,0,0,-1,979,743,0,0
-238,281,0,0,0,0,0,0,0,0,0,-1,986,743,0,0
-231,281,0,0,0,0,0,0,0,0,0,-1,993,743,0,0
-224,281,0,0,0,0,0,0,0,0,0,-1,1000,743,0,0
-217,281,0,0,0,0,0,0,0,0,0,-1,1007,743,0,0
-210,281,0,0,0,0,0,0,0,0,0,-1,1014,743,0,0
-203,281,0,0,0,0,0,0,0,0,0,-1,1021,743,0,0
-196,281,0,0,0,0,0,0,0,0,0,-1,1028,743,0,0
-189,281,0,0,0,0,0,0,0,0,0,-1,1035,743,0,0
-182,281,0,0,0,0,0,0,0,0,0,-1,1042,743,0,0
-175,281,0,0,0,0,0,0,0,0,0,-1,1049,743,0,0
-168,281,0,0,0,0,0,0,0,0,0,-1,1056,743,0,0
-161,281,0,0,0,0,0,0,0,0,0,-1,1063,743,0,0
-154,281,0,0,0,0,0,0,0,0,0,-1,1070,743,0,0
-147,281,0,0,0,0,0,0,0,0,0,-1,1077,743,0,0
-140,281,0,0,0,0,0,0,0,0,0,-1,1084,743,0,0
-133,281,0,0,0,0,0,0,0,0,0,-1,1091,743,0,0
-126,281,0,0,0,0,0,0,0,0,0,-1,1098,743,0,0
-119,281,0,0,0,0,0,0,0,0,0,-1,1105,743,0,0
-112,281,0,0,0,0,0,0,0,0,0,-1,1112,743,0,0
-105,281,0,0,0,0,0,0,0,0,0,-1,1119,743,0,0
-98,281,0,0,0,0,0,0,0,0,0,-1,1126,743,0,0
-91,281,0,0,0,0,0,0,0,0,0,-1,1133,743,0,0
-84,281,0,0,0,0,0,0,0,0,0,-1,1140,743,0,0
-77,281,0,0,0,0,0,0,0,0,0,-1,1147,743,0,0
-70,281,0,0,0,0,0,0,0,0,0,-1,1154,743,0,0
-63,281,0,0,0,0,0,0,0,0,0,-1,1161,743,0,0
-56,281,0,0,0,0,0,0,0,0,0,-1,1168,743,0,0
-49,281,0,0,0,0,0,0,0,0,0,-1,1175,743,0,0
-42,281,0,0,0,0,0,0,0,0,0,-1,1182,743,0,0
-35,281,0,0,0,0,0,0,0,0,0,-1,1189,743,0,0
-28,281,0,0,0,0,0,0,0,0,0,-1,1196,743,0,0
-21,281,0,0,0,0,0,0,0,0,0,-1,1203,743,0,0
-14,281,0,0,0,0,0,0,0,0,0,-1,1210,743,0,0
-7,281,0,0,0,0,0,0,0,0,0,-1,1217,743,0,0
0,281,0,0,0,0,0,0,0,0,0,-1,1224,743,0,0
7,281,0,0,0,0,0,0,0,0,0,-1,1231,743,0,0
14,281,0,0,0,0,0,0,0,0,0,-1,1238,743,0,0
21,281,0,0,0,0,0,0,0,0,0,-1,1245,743,0,0
28,281,0,0,0,0,0,0,0,0,0,-1,1252,743,0,0
35,281,0,0,0,0,0,0,0,0,0,-1,1259,743,0,0
42,281,0,0,0,0,0,0,0,0,0,-1,1266,743,0,0
49,281,0,0,0,0,0,0,0,0,0,-1,1273,743,0,0
56,281,0,0,0,0,0,0,0,0,0,-1,1280,743,0,0
63,281,0,0,0,0,0,0,0,0,0,-1,1287,743,0,0
70,281,0,0,0,0,0,0,0,0,0,-1,1294,743,0,0
77,281,0,0,0,0,0,0,0,0,0,-1,1301,743,0,0
84,281,0,0,0,0,0,0,0,0,0,-1,1308,743,0,0
91,281,0,0,0,0,0,0,0,0,0,-1,1315,743,0,0
98,281,0,0,0,0,0,0,0,0,0,-1,1322,743,0,0
105,281,0,0,0,0,0,0,0,0,0,-1,1329,743,0,0
112,281,0,0,0,0,0,0,0,0,0,-1,1336,743,0,0
119,281,0,0,0,0,0,0,0,0,0,-1,1343,743,0,0
126,281,0,0,0,0,0,0,0,0,0,-1,1350,743,0,0
133,281,0,0,0,0,0,0,0,0,0,-1,1357,743,0,0
140,281,0,0,0,0,0,0,0,0,0,-1,1364,743,0,0
147,281,0,0,0,0,0,0,0,0,0,-1,1371,743,0,0
154,281,0,0,0,0,0,0,0,0,0,-1,1378,743,0,0
161,281,0,0,0,0,0,0,0,0,0,-1,1385,743,0,0
168,281,0,0,0,0,0,0,0,0,0,-1,1392,743,0,0
175,281,0,0,0,0,0,0,0,0,0,-1,1399,743,0,0
182,281,0,0,0,0,0,0,0,0,0,-1,1406,743,0,0
189,281,0,0,0,0,0,0,0,0,0,-1,1413,743,0,0
196,281,0,0,0,0,0,0,0,0,0,-1,1420,743,0,0
203,281,0,0,0,0,0,0,0,0,0,-1,1427,743,0,0
210,281,0,0,0,0,0,0,0,0,0,-1,1434,743,0,0
217,281,0,0,0,0,0,0,0,0,0,-1,1441,743,0,0
224,281,0,0,0,0,0,0,0,0,0,-1,1448,743,0,0
231,281,0,0,0,0,0,0,0,0,0,-1,1455,743,0,0
238,281,0,0,0,0,0,0,0,0,0,-1,1462,743,0,0
245,281,0,0,0,0,0,0,0,0,0,-1,1469,743,0,0
252,281,0,0,0,0,0,0,0,0,0,-1,1476,743,0,0
259,281,0,0,0,0,0,0,0,0,0,-1,1483,743,0,0
266,281,0,0,0,0,0,0,0,0,0,-1,1490,743,0,0
273,281,0,0,0,0,0,0,0,0,0,-1,1497,743,0,0
280,281,0,0,0,0,0,0,0,0,0,-1,1504,743,0,0
287,281,0,0,0,0,0,0,0,0,0,-1,1511,743,0,0
294,281,0,0,0,0,0,0,0,0,0,-1,1518,743,0,0
301,281,0,0,0,0,0,0,0,0,0,-1,1525,743,0,0
308,281,0,0,0,0,0,0,0,0,0,-1,1532,743,0,0
315,281,0,0,0,0,0,0,0,0,0,-1,1539,743,0,0
322,281,0,0,0,0,0,0,0,0,0,-1,1546,743,0,0
329,281,0,0,0,0,0,0,0,0,0,-1,1553,743,0,0
336,281,0,0,0,0,0,0,0,0,0,-1,1560,743,0,0
343,281,0,0,0,0,0,0,0,0,0,-1,1567,743,0,0
350,281,0,0,0,0,0,0,0,0,0,-1,1574,743,0,0
357,281,0,0,0,0,0,0,0,0,0,-1,1581,743,0,0
364,281,0,0,0,0,0,0,0,0,0,-1,1588,743,0,0
371,281,0,0,0,0,0,0,0,0,0,-1,1595,743,0,0
378,281,0,0,0,0,0,0,0,0,0,-1,1602,743,0,0
385,281,0,0,0,0,0,0,0,0,0,-1,1609,743,0,0
392,281,0,0,0,0,0,0,0,0,0,-1,1616,743,0,0
399,281,0,0,0,0,0,0,0,0,0,-1,1623,743,0,0
406,281,0,0,0,0,0,0,0,0,0,-1,1630,743,0,0
413,281,0,0,0,0,0,0,0,0,0,-1,1637,743,0,0
420,281,0,0,0,0,0,0,0,0,0,-1,1644,743,0,0
427,281,0,0,0,0,0,0,0,0,0,-1,1651,743,0,0
434,281,0,0,0,0,0,0,0,0,0,-1,1658,743,0,0
441,281,0,0,0,0,0,0,0,0,0,-1,1665,743,0,0
448,281,0,0,0,0,0,0,0,0,0,-1,1672,743,0,0
455,281,0,0,0,0,0,0,0,0,0,-1,1679,743,0,0
462,281,0,0,0,0,0,0,0,0,0,-1,1686,743,0,0
469,281,0,0,0,0,0,0,0,0,0,-1,1693,743,0,0
476,281,0,0,0,0,0,0,0,0,0,-1,1700,743,0,0
483,281,0,0,0,0,0,0,0,0,0,-1,1707,743,0,0
490,281,0,0,0,0,0,0,0,0,0,-1,1714,743,0,0
497,281,0,0,0,0,0,0,0,0,0,-1,1721,743,0,0
504,281,0,0,0,0,0,0,0,0,0,-1,1728,743,0,0
511,281,0,0,0,0,0,0,0,0,0,-1,1735,743,0,0
518,281,0,0,0,0,0,0,0,0,0,-1,1742,743,0,0
525,281,0,0,0,0,0,0,0,0,0,-1,1749,743,0,0
532,281,0,0,0,0,0,0,0,0,0,-1,1756,743,0,0
539,281,0,0,0,0,0,0,0,0,0,-1,1763,743,0,0
546,281,0,0,0,0,0,0,0,0,0,-1,1770,743,0,0
553,281,0,0,0,0,0,0,0,0,0,-1,1777,743,0,0
560,281,11.7958,1.91693,0,0,0,0,0,0,0,-1,1784,743,11.7957,-1.91696
567,281,11.3778,2.30316,-0.0425058,0.0450968,0.00578463,0.0454772,-0.0428861,1.50514,0.0510239,0.043319,1791,743,11.3778,-2.30314
574,281,10.6692,2.94629,-0.0247519,0.0300254,0.00557467,0.030587,-0.0253135,1.4704,0.032322,0.0448791,1798,743,10.6692,-2.94629
581,281,10.6514,2.72461,0,0,0,0,0,0,0,-1,1805,743,10.6514,-2.72463
588,281,11.7572,2.15845,0,0,0,0,0,0,0,-1,1812,743,11.7572,-2.15845
595,281,12.1897,1.98505,0,0,0,0,0,0,0,-1,1819,743,12.1897,-1.98506
602,281,12.2385,1.99127,0,0,0,0,0,0,0,-1,1826,743,12.2385,-1.9913
609,281,8.83704,0.480347,0,0,0,0,0,0,0,-1,1833,743,8.83701,-0.480321
616,281,8.5,0.605042,-0.00335655,0.00777671,-0.00390142,0.00900776,-0.0045876,-1.26515,0.00798637,0.0482943,1840,743,8.50004,-0.605066
623,281,8.34741,0.670288,-0.00237917,0.00594895,-0.00440011,0.00784297,-0.00427319,-1.16432,0.00709575,0.0452917,1847,743,8.34745,-0.670309
630,281,8.35315,0.479675,-0.00185161,0.00377029,-0.00421502,0.00602569,-0.004107,-1.07948,0.00588497,0.0303367,1854,743,8.35309,-0.479668
637,281,8.31299,0.540344,-0.00218512,0.00293382,-0.00365646,0.0048376,-0.0040889,-1.09076,0.00515975,0.0128433,1861,743,8.31305,-0.540335
644,281,8.32825,0.675049,-0.00236414,0.00205509,-0.00293241,0.00351718,-0.00382623,-1.10827,0.00424097,0.00987414,1868,743,8.3283,-0.675025
651,281,8.34277,0.808228,-0.00192542,0.00136979,-0.00241533,0.00264596,-0.00320158,-1.08472,0.00338116,0.0103522,1875,743,8.3428,-0.80824
658,281,8.34937,0.935974,-0.00106764,0.000927557,-0.00178572,0.00197544,-0.00211552,-1.04013,0.00236238,0.0185963,1882,743,8.34937,-0.93597
665,281,8.33374,1.0365,-0.000533665,0.000587539,-0.00140851,0.00154291,-0.00148903,-0.974793,0.00175059,0.0202937,1889,743,8.33373,-1.03651
672,281,8.31909,1.16461,1.91724e-06,0.000800862,-0.00160642,0.00205674,-0.00125396,-0.907262,0.00193007,0.0113409,1896,743,8.31914,-1.16458
679,281,8.33215,1.29218,0.000607271,0.0020713,-0.00232118,0.00377315,-0.00109458,-0.938144,0.00294881,0.015898,1903,743,8.33215,-1.29218
686,281,8.32495,1.39246,0.00160992,0.00407499,-0.00300258,0.00608816,-0.000403259,-0.980157,0.00419965,0.0128203,1910,743,8.32501,-1.39246
693,281,8.3241,1.51788,0.00348428,0.00692276,-0.0037607,0.00933858,0.00106847,-0.999794,0.00590189,0.0100913,1917,743,8.32406,-1.51785
700,281,8.33008,1.64539,0.0056235,0.0106946,-0.00473303,0.0135284,0.00278963,-1.0313,0.00824786,0.0174203,1924,743,8.33009,-1.64536
707,281,8.30969,1.77087,0.00929906,0.0159743,-0.00604083,0.0195382,0.00573513,-1.03778,0.0115965,0.0353467,1931,743,8.30974,-1.77088
714,281,8.22107,1.86761,0,0,0,0,0,0,0,-1,1938,743,8.22111,-1.86761
721,281,8.15845,1.81061,0,0,0,0,0,0,0,-1,1945,743,8.15845,-1.81062
728,281,8.3949,2.15283,0,0,0,0,0,0,0,-1,1952,743,8.39492,-2.15283
735,281,10.7875,-0.295837,0,0,0,0,0,0,0,-1,1959,743,10.7875,0.29584
742,281,0,0,0,0,0,0,0,0,0,-1,1966,743,0,0
749,281,0,0,0,0,0,0,0,0,0,-1,1973,743,0,0
756,281,0,0,0,0,0,0,0,0,0,-1,1980,743,0,0
763,281,0,0,0,0,0,0,0,0,0,-1,1987,743,0,0
770,281,0,0,0,0,0,0,0,0,0,-1,1994,743,0,0
777,281,0,0,0,0,0,0,0,0,0,-1,2001,743,0,0
784,281,0,0,0,0,0,0,0,0,0,-1,2008,743,0,0
791,281,0,0,0,0,0,0,0,0,0,-1,2015,743,0,0
798,281,0,0,0,0,0,0,0,0,0,-1,2022,743,0,0
805,281,0,0,0,0,0,0,0,0,0,-1,2029,743,0,0
812,281,0,0,0,0,0,0,0,0,0,-1,2036,743,0,0
-700,274,0,0,0,0,0,0,0,0,0,-1,524,750,0,0
-693,274,0,0,0,0,0,0,0,0,0,-1,531,750,0,0
-686,274,0,0,0,0,0,0,0,0,0,-1,538,750,0,0
-679,274,0,0,0,0,0,0,0,0,0,-1,545,750,0,0
-672,274,0,0,0,0,0,0,0,0,0,-1,552,750,0,0
-665,274,0,0,0,0,0,0,0,0,0,-1,559,750,0,0
-658,274,0,0,0,0,0,0,0,0,0,-1,566,750,0,0
-651,274,0,0,0,0,0,0,0,0,0,-1,573,750,0,0
-644,274,0,0,0,0,0,0,0,0,0,-1,580,750,0,0
-637,274,0,0,0,0,0,0,0,0,0,-1,587,750,0,0
-630,274,0,0,0,0,0,0,0,0,0,-1,594,750,0,0
-623,274,-3.00885,5.66199,0,0,0,0,0,0,0,-1,601,750,-3.00884,-5.66198
-616,274,-4.78229,4.78583,0,0,0,0,0,0,0,-1,608,750,-4.78227,-4.7858
-609,274,-4.2475,4.25146,0.00945281,0.0415229,-0.019224,0.0505215,0.000454158,-1.133,0.0335307,0.0494198,615,750,-4.24749,-4.25147
-602,274,-3.81799,3.73352,0.00819889,0.0329602,-0.0160548,0.0408536,0.000305496,-1.11385,0.0271345,0.0465296,622,750,-3.81797,-3.73349
-595,274,-3.02643,2.54224,0,0,0,0,0,0,0,-1,629,750,-3.02644,-2.54223
-588,274,-3.15601,0.896362,0,0,0,0,0,0,0,-1,636,750,-3.15599,-0.896381
-581,274,-3.20233,0.72229,0.00274129,0.0119557,-0.00720048,0.0158968,-0.0011998,-1.07,0.0110196,0.038,643,750,-3.20235,-0.722271
-574,274,-3.25507,0.549377,0.00181521,0.00695093,-0.00440202,0.00947931,-0.000713172,-1.04944,0.00657018,0.0183222,650,750,-3.25507,-0.549351
-567,274,-3.30011,0.419128,0.00081302,0.00333477,-0.00265601,0.005014,-0.000866208,-1.00701,0.00366568,0.0156632,657,750,-3.30009,-0.419124
-560,274,-3.30212,0.307129,-0.000622356,0.00120392,-0.00131966,0.00189557,-0.001314,-1.08805,0.00186316,0.0145151,664,750,-3.30211,-0.307108
-553,274,-3.27979,0.206665,-0.00201424,0.000463418,0.000179185,0.00047631,-0.00202714,1.49897,0.00153503,0.00929885,671,750,-3.27979,-0.206645
-546,274,-3.28326,0.0940552,-0.00261035,-0.000250619,0.00130325,0.000327508,-0.00318848,1.15327,0.00224281,0.00995757,678,750,-3.28325,-0.094078
-539,274,-3.29279,-0.0106201,-0.00255042,-0.00180257,0.00230269,0.00015636,-0.00450935,0.865888,0.00305969,0.010614,685,750,-3.29276,0.0106367
-532,274,-3.28802,-0.103333,-0.00301848,-0.00353984,0.00328929,2.04449e-05,-0.00657876,0.745855,0.00439267,0.0110433,692,750,-3.288,0.103359
-525,274,-3.29102,-0.227173,-0.00414432,-0.00559637,0.00429931,-0.000510161,-0.00923052,0.701752,0.00599087,0.0109572,699,750,-3.29105,0.227182
-518,274,-3.29712,-0.356506,-0.00531932,-0.00780034,0.00544593,-0.000974395,-0.0121453,0.673415,0.00779238,0.0118872,706,750,-3.29714,0.356482
-511,274,-3.29224,-0.477661,-0.00640131,-0.0105725,0.00617223,-0.00197182,-0.015002,0.622472,0.00941313,0.0117541,713,750,-3.29221,0.477686
-504,274,-3.26727,-0.608337,-0.00665479,-0.0136898,0.00676891,-0.002544,-0.0178006,0.545774,0.0111165,0.0188768,720,750,-3.26729,0.608355
-497,274,-3.20483,-0.617676,-0.00594289,-0.0167298,0.00735182,-0.0022183,-0.0204544,0.468931,0.0129602,0.0378817,727,750,-3.20481,0.617694
-490,274,-3.22516,-0.0299683,-0.00473196,-0.0200232,0.00693132,-0.00205777,-0.0226974,0.368217,0.0144944,0.0419559,734,750,-3.22518,0.0299918
-483,274,-3.36969,0.701477,-0.00246611,-0.0231771,0.00591866,-0.000894036,-0.0247491,0.259618,0.0162096,0.0428789,741,750,-3.36967,-0.701489
-476,274,-3.53503,1.09961,0,0,0,0,0,0,0,-1,748,750,-3.53501,-1.09959
-469,274,-6.04553,2.53986,0,0,0,0,0,0,0,-1,755,750,-6.04551,-2.53983
-462,274,-4.26715,1.77795,0,0,0,0,0,0,0,-1,762,750,-4.26715,-1.77792
-455,274,-7.16113,0.426514,0.0203854,-0.0297753,-0.00486451,0.0208528,-0.0302427,-0.0957891,0.0296656,0.0464414,769,750,-7.16115,-0.426517
-448,274,-6.784,0.453613,0.0306545,-0.0294619,-0.00990532,0.0322445,-0.0310519,-0.159165,0.0365464,0.0468856,776,750,-6.78397,-0.453612
-441,274,0,0,0,0,0,0,0,0,0,-1,783,750,0,0
-434,274,0,0,0,0,0,0,0,0,0,-1,790,750,0,0
-427,274,0,0,0,0,0,0,0,0,0,-1,797,750,0,0
-420,274,0,0,0,0,0,0,0,0,0,-1,804,750,0,0
-413,274,0,0,0,0,0,0,0,0,0,-1,811,750,0,0
-406,274,0,0,0,0,0,0,0,0,0,-1,818,750,0,0
-399,274,0,0,0,0,0,0,0,0,0,-1,825,750,0,0
-392,274,0,0,0,0,0,0,0,0,0,-1,832,750,0,0
-385,274,0,0,0,0,0,0,0,0,0,-1,839,750,0,0
-378,274,0,0,0,0,0,0,0,0,0,-1,846,750,0,0
-371,274,0,0,0,0,0,0,0,0,0,-1,853,750,0,0
-364,274,0,0,0,0,0,0,0,0,0,-1,860,750,0,0
-357,274,0,0,0,0,0,0,0,0,0,-1,867,750,0,0
-350,274,0,0,0,0,0,0,0,0,0,-1,874,750,0,0
-343,274,0,0,0,0,0,0,0,0,0,-1,881,750,0,0
-336,274,0,0,0,0,0,0,0,0,0,-1,888,750,0,0
-329,274,0,0,0,0,0,0,0,0,0,-1,895,750,0,0
-322,274,0,0,0,0,0,0,0,0,0,-1,902,750,0,0
-315,274,0,0,0,0,0,0,0,0,0,-1,909,750,0,0
-308,274,0,0,0,0,0,0,0,0,0,-1,916,750,0,0
-301,274,0,0,0,0,0,0,0,0,0,-1,923,750,0,0
-294,274,0,0,0,0,0,0,0,0,0,-1,930,750,0,0
-287,274,0,0,0,0,0,0,0,0,0,-1,937,750,0,0
-280,274,0,0,0,0,0,0,0,0,0,-1,944,750,0,0
-273,274,0,0,0,0,0,0,0,0,0,-1,951,750,0,0
-266,274,0,0,0,0,0,0,0,0,0,-1,958,750,0,0
-259,274,0,0,0,0,0,0,0,0,0,-1,965,750,0,0
-252,274,0,0,0,0,0,0,0,0,0,-1,972,750,0,0
-245,274,0,0,0,0,0,0,0,0,0,-1,979,750,0,0
-238,274,0,0,0,0,0,0,0,0,0,-1,986,750,0,0
-231,274,0,0,0,0,0,0,0,0,0,-1,993,750,0,0
-224,274,0,0,0,0,0,0,0,0,0,-1,1000,750,0,0
-217,274,0,0,0,0,0,0,0,0,0,-1,1007,750,0,0
-210,274,0,0,0,0,0,0,0,0,0,-1,1014,750,0,0
-203,274,0,0,0,0,0,0,0,0,0,-1,1021,750,0,0
-196,274,0,0,0,0,0,0,0,0,0,-1,1028,750,0,0
-189,274,0,0,0,0,0,0,0,0,0,-1,1035,750,0,0
-182,274,0,0,0,0,0,0,0,0,0,-1,1042,750,0,0
-175,274,0,0,0,0,0,0,0,0,0,-1,1049,750,0,0
-168,274,0,0,0,0,0,0,0,0,0,-1,1056,750,0,0
-161,274,0,0,0,0,0,0,0,0,0,-1,1063,750,0,0
-154,274,0,0,0,0,0,0,0,0,0,-1,1070,750,0,0
-147,274,0,0,0,0,0,0,0,0,0,-1,1077,750,0,0
-140,274,0,0,0,0,0,0,0,0,0,-1,1084,750,0,0
-133,274,0,0,0,0,0,0,0,0,0,-1,1091,750,0,0
-126,274,0,0,0,0,0,0,0,0,0,-1,1098,750,0,0
-119,274,0,0,0,0,0,0,0,0,0,-1,1105,750,0,0
-112,274,0,0,0,0,0,0,0,0,0,-1,1112,750,0,0
-105,274,0,0,0,0,0,0,0,0,0,-1,1119,750,0,0
-98,274,0,0,0,0,0,0,0,0,0,-1,1126,750,0,0
-91,274,0,0,0,0,0,0,0,0,0,-1,1133,750,0,0
-84,274,0,0,0,0,0,0,0,0,0,-1,1140,750,0,0
-77,274,0,0,0,0,0,0,0,0,0,-1,1147,750,0,0
-70,274,0,0,0,0,0,0,0,0,0,-1,1154,750,0,0
-63,274,0,0,0,0,0,0,0,0,0,-1,1161,750,0,0
-56,274,0,0,0,0,0,0,0,0,0,-1,1168,750,0,0
-49,274,0,0,0,0,0,0,0,0,0,-1,1175,750,0,0
-42,274,0,0,0,0,0,0,0,0,0,-1,1182,750,0,0
-35,274,0,0,0,0,0,0,0,0,0,-1,1189,750,0,0
-28,274,0,0,0,0,0,0,0,0,0,-1,1196,750,0,0
-21,274,0,0,0,0,0,0,0,0,0,-1,1203,750,0,0
-14,274,0,0,0,0,0,0,0,0,0,-1,1210,750,0,0
-7,274,0,0,0,0,0,0,0,0,0,-1,1217,750,0,0
0,274,0,0,0,0,0,0,0,0,0,-1,1224,750,0,0
7,274,0,0,0,0,0,0,0,0,0,-1,1231,750,0,0
14,274,0,0,0,0,0,0,0,0,0,-1,1238,750,0,0
21,274,0,0,0,0,0,0,0,0,0,-1,1245,750,0,0
28,274,0,0,0,0,0,0,0,0,0,-1,1252,750,0,0
35,274,0,0,0,0,0,0,0,0,0,-1,1259,750,0,0
42,274,0,0,0,0,0,0,0,0,0,-1,1266,750,0,0
49,274,0,0,0,0,0,0,0,0,0,-1,1273,750,0,0
56,274,0,0,0,0,0,0,0,0,0,-1,1280,750,0,0
63,274,0,0,0,0,0,0,0,0,0,-1,1287,750,0,0
70,274,0,0,0,0,0,0,0,0,0,-1,1294,750,0,0
77,274,0,0,0,0,0,0,0,0,0,-1,1301,750,0,0
84,274,0,0,0,0,0,0,0,0,0,-1,1308,750,0,0
91,274,0,0,0,0,0,0,0,0,0,-1,1315,750,0,0
98,274,0,0,0,0,0,0,0,0,0,-1,1322,750,0,0
105,274,0,0,0,0,0,0,0,0,0,-1,1329,750,0,0
112,274,0,0,0,0,0,0,0,0,0,-1,1336,750,0,0
119,274,0,0,0,0,0,0,0,0,0,-1,1343,750,0,0
126,274,0,0,0,0,0,0,0,0,0,-1,1350,750,0,0
133,274,0,0,0,0,0,0,0,0,0,-1,1357,750,0,0
140,274,0,0,0,0,0,0,0,0,0,-1,1364,750,0,0
147,274,0,0,0,0,0,0,0,0,0,-1,1371,750,0,0
154,274,0,0,0,0,0,0,0,0,0,-1,1378,750,0,0
161,274,0,0,0,0,0,0,0,0,0,-1,1385,750,0,0
168,274,0,0,0,0,0,0,0,0,0,-1,1392,750,0,0
175,274,0,0,0,0,0,0,0,0,0,-1,1399,750,0,0
182,274,0,0,0,0,0,0,0,0,0,-1,1406,750,0,0
189,274,0,0,0,0,0,0,0,0,0,-1,1413,750,0,0
196,274,0,0,0,0,0,0,0,0,0,-1,1420,750,0,0
203,274,0,0,0,0,0,0,0,0,0,-1,1427,750,0,0
210,274,0,0,0,0,0,0,0,0,0,-1,1434,750,0,0
217,274,0,0,0,0,0,0,0,0,0,-1,1441,750,0,0
224,274,0,0,0,0,0,0,0,0,0,-1,1448,750,0,0
231,274,0,0,0,0,0,0,0,0,0,-1,1455,750,0,0
238,274,0,0,0,0,0,0,0,0,0,-1,1462,750,0,0
245,274,0,0,0,0,0,0,0,0,0,-1,1469,750,0,0
252,274,0,0,0,0,0,0,0,0,0,-1,1476,750,0,0
259,274,0,0,0,0,0,0,0,0,0,-1,1483,750,0,0
266,274,0,0,0,0,0,0,0,0,0,-1,1490,750,0,0
273,274,0,0,0,0,0,0,0,0,0,-1,1497,750,0,0
280,274,0,0,0,0,0,0,0,0,0,-1,1504,750,0,0
287,274,0,0,0,0,0,0,0,0,0,-1,1511,750,0,0
294,274,0,0,0,0,0,0,0,0,0,-1,1518,750,0,0
301,274,0,0,0,0,0,0,0,0,0,-1,1525,750,0,0
308,274,0,0,0,0,0,0,0,0,0,-1,1532,750,0,0
315,274,0,0,0,0,0,0,0,0,0,-1,1539,750,0,0
322,274,0,0,0,0,0,0,0,0,0,-1,1546,750,0,0
329,274,0,0,0,0,0,0,0,0,0,-1,1553,750,0,0
336,274,0,0,0,0,0,0,0,0,0,-1,1560,750,0,0
343,274,0,0,0,0,0,0,0,0,0,-1,1567,750,0,0
350,274,0,0,0,0,0,0,0,0,0,-1,1574,750,0,0
357,274,0,0,0,0,0,0,0,0,0,-1,1581,750,0,0
364,274,0,0,0,0,0,0,0,0,0,-1,1588,750,0,0
371,274,0,0,0,0,0,0,0,0,0,-1,1595,750,0,0
378,274,0,0,0,0,0,0,0,0,0,-1,1602,750,0,0
385,274,0,0,0,0,0,0,0,0,0,-1,1609,750,0,0
392,274,0,0,0,0,0,0,0,0,0,-1,1616,750,0,0
399,274,0,0,0,0,0,0,0,0,0,-1,1623,750,0,0
406,274,0,0,0,0,0,0,0,0,0,-1,1630,750,0,0
413,274,0,0,0,0,0,0,0,0,0,-1,1637,750,0,0
420,274,0,0,0,0,0,0,0,0,0,-1,1644,750,0,0
427,274,0,0,0,0,0,0,0,0,0,-1,1651,750,0,0
434,274,0,0,0,0,0,0,0,0,0,-1,1658,750,0,0
441,274,0,0,0,0,0,0,0,0,0,-1,1665,750,0,0
448,274,0,0,0,0,0,0,0,0,0,-1,1672,750,0,0
455,274,0,0,0,0,0,0,0,0,0,-1,1679,750,0,0
462,274,0,0,0,0,0,0,0,0,0,-1,1686,750,0,0
469,274,0,0,0,0,0,0,0,0,0,-1,1693,750,0,0
476,274,0,0,0,0,0,0,0,0,0,-1,1700,750,0,0
483,274,0,0,0,0,0,0,0,0,0,-1,1707,750,0,0
490,274,0,0,0,0,0,0,0,0,0,-1,1714,750,0,0
497,274,0,0,0,0,0,0,0,0,0,-1,1721,750,0,0
504,274,0,0,0,0,0,0,0,0,0,-1,1728,750,0,0
511,274,0,0,0,0,0,0,0,0,0,-1,1735,750,0,0
518,274,0,0,0,0,0,0,0,0,0,-1,1742,750,0,0
525,274,0,0,0,0,0,0,0,0,0,-1,1749,750,0,0
532,274,0,0,0,0,0,0,0,0,0,-1,1756,750,0,0
539,274,0,0,0,0,0,0,0,0,0,-1,1763,750,0,0
546,274,0,0,0,0,0,0,0,0,0,-1,1770,750,0,0
553,274,0,0,0,0,0,0,0,0,0,-1,1777,750,0,0
560,274,11.8772,1.81543,0,0,0,0,0,0,0,-1,1784,750,11.8772,-1.81542
567,274,11.5729,2.09412,-0.0335573,0.04143,0.00450276,0.0416994,-0.0338267,1.51104,0.0436839,0.0384003,1791,750,11.5729,-2.09415
574,274,11.2699,2.37329,-0.0194997,0.0292448,0.00416558,0.0295982,-0.0198531,1.48616,0.0287349,0.0408756,1798,750,11.2699,-2.37328
581,274,11.5187,2.19867,0,0,0,0,0,0,0,-1,1805,750,11.5187,-2.19866
588,274,11.7687,2.06842,-0.00770807,0.0193013,-0.000118553,0.0193018,-0.00770859,-1.56641,0.0160662,0.0459916,1812,750,11.7687,-2.0684
595,274,11.9944,1.95471,-0.00542757,0.015828,-0.00167073,0.0159585,-0.00555809,-1.49283,0.0128973,0.0495273,1819,750,11.9944,-1.9547
602,274,12.199,2.24329,0,0,0,0,0,0,0,-1,1826,750,12.1989,-2.24327
609,274,8.76575,0.710876,0,0,0,0,0,0,0,-1,1833,750,8.76579,-0.710859
616,274,8.50439,0.469238,-0.00347567,0.00894916,-0.00414389,0.0102044,-0.00473092,-1.27667,0.00881382,0.0477545,1840,750,8.50439,-0.469236
623,274,8.32458,0.381409,-0.00260359,0.00713084,-0.00460323,0.00896285,-0.0044356,-1.19203,0.00788142,0.0457781,1847,750,8.32464,-0.38143
630,274,8.41479,0.43042,-0.00207609,0.0049356,-0.00445714,0.00710048,-0.00424097,-1.11865,0.006617,0.0378234,1854,750,8.41484,-0.430398
637,274,8.43616,0.531799,-0.00233225,0.00394259,-0.00396241,0.00585929,-0.00424895,-1.12026,0.00586063,0.0134351,1861,750,8.43611,-0.531817
644,274,8.43726,0.661926,-0.00247142,0.00293081,-0.00322871,0.00443928,-0.00397989,-1.13373,0.00486322,0.0116214,1868,750,8.43727,-0.661897
651,274,8.44751,0.798523,-0.00196245,0.00208746,-0.0026809,0.00342222,-0.00329721,-1.10885,0.00387969,0.0127808,1875,750,8.44755,-0.798518
658,274,8.47009,0.931274,-0.000996658,0.00139548,-0.00197307,0.0025067,-0.00210788,-1.05788,0.00266754,0.0149215,1882,750,8.47003,-0.931273
665,274,8.47571,1.06122,-0.00039843,0.000872578,-0.00148412,0.00185153,-0.00137739,-0.987688,0.0018709,0.0155959,1889,750,8.47575,-1.06123
672,274,8.44763,1.18213,0.0001353,0.000995852,-0.00151865,0.002144,-0.00101285,-0.923445,0.0018612,0.0130463,1896,750,8.44762,-1.18212
679,274,8.45752,1.29181,0.000739016,0.00194408,-0.00192704,0.00336059,-0.000677493,-0.936919,0.00249705,0.013193,1903,750,8.45751,-1.29183
686,274,8.45715,1.40924,0.00171378,0.00383237,-0.00232446,0.00532753,0.000218619,-0.999197,0.0034811,0.0142441,1910,750,8.45719,-1.40927
693,274,8.44556,1.54584,0.00351016,0.00644712,-0.00267681,0.0080318,0.00192548,-1.03628,0.00484204,0.0116474,1917,750,8.4455,-1.54586
700,274,8.44006,1.68091,0.00551486,0.00981522,-0.00312736,0.0114603,0.00386982,-1.08656,0.00673181,0.0134448,1924,750,8.44012,-1.6809
707,274,8.42456,1.78253,0.00948125,0.0146171,-0.00390671,0.0167243,0.00737407,-1.07615,0.0096782,0.0199379,1931,750,8.42453,-1.78254
714,274,8.39063,1.83142,0.0162608,0.0205491,-0.00483425,0.0236933,0.0131165,-0.994132,0.0137055,0.037969,1938,750,8.39066,-1.8314
721,274,8.35046,1.80353,0.0244577,0.0282338,-0.00553352,0.0321925,0.020499,-0.949808,0.0188167,0.0473203,1945,750,8.35051,-1.80355
728,274,8.53101,1.74609,0.0359572,0.0377054,-0.00604041,0.0429346,0.030728,-0.857252,0.0255456,0.0475156,1952,750,8.53102,-1.74609
735,274,8.85339,1.52448,0,0,0,0,0,0,0,-1,1959,750,8.85334,-1.52445
742,274,10.0978,0.242981,0,0,0,0,0,0,0,-1,1966,750,10.0978,-0.242971
749,274,0,0,0,0,0,0,0,0,0,-1,1973,750,0,0
756,274,0,0,0,0,0,0,0,0,0,-1,1980,750,0,0
763,274,0,0,0,0,0,0,0,0,0,-1,1987,750,0,0
770,274,0,0,0,0,0,0,0,0,0,-1,1994,750,0,0
777,274,0,0,0,0,0,0,0,0,0,-1,2001,750,0,0
784,274,0,0,0,0,0,0,0,0,0,-1,2008,750,0,0
791,274,0,0,0,0,0,0,0,0,0,-1,2015,750,0,0
798,274,0,0,0,0,0,0,0,0,0,-1,2022,750,0,0
805,274,0,0,0,0,0,0,0,0,0,-1,2029,750,0,0
812,274,0,0,0,0,0,0,0,0,0,-1,2036,750,0,0
-700,267,0,0,0,0,0,0,0,0,0,-1,524,757,0,0
-693,267,0,0,0,0,0,0,0,0,0,-1,531,757,0,0
-686,267,0,0,0,0,0,0,0,0,0,-1,538,757,0,0
-679,267,0,0,0,0,0,0,0,0,0,-1,545,757,0,0
-672,267,0,0,0,0,0,0,0,0,0,-1,552,757,0,0
-665,267,0,0,0,0,0,0,0,0,0,-1,559,757,0,0
-658,267,0,0,0,0,0,0,0,0,0,-1,566,757,0,0
-651,267,0,0,0,0,0,0,0,0,0,-1,573,757,0,0
-644,267,0,0,0,0,0,0,0,0,0,-1,580,757,0,0
-637,267,0,0,0,0,0,0,0,0,0,-1,587,757,0,0
-630,267,-3.46033,4.9198,0.00521618,0.0947354,-0.0316472,0.104793,-0.0048418,-1.26308,0.0715308,0.045633,594,757,-3.4603,-4.91979
-623,267,-3.33386,4.99792,0.0101677,0.0778818,-0.0279951,0.0879568,9.26517e-05,-1.22534,0.058607,0.0460934,601,757,-3.33386,-4.9979
-616,267,-3.20966,5.11237,0.0120518,0.0631213,-0.024339,0.0728628,0.00231036,-1.19008,0.0478237,0.0465203,608,757,-3.20965,-5.11238
-609,267,-4.24353,4.45349,0,0,0,0,0,0,0,-1,615,757,-4.24354,-4.45351
-602,267,-4.03961,3.85138,0,0,0,0,0,0,0,-1,622,757,-4.03959,-3.85137
-595,267,-3.17963,1.7049,0,0,0,0,0,0,0,-1,629,757,-3.17962,-1.70487
-588,267,-3.19592,1.23151,0.00585594,0.021201,-0.0106255,0.0266345,0.000422444,-1.0981,0.0176172,0.0407156,636,757,-3.19592,-1.23149
-581,267,-3.36395,0.678711,0.00361778,0.0139328,-0.00769967,0.0180427,-0.000492127,-1.08049,0.0121958,0.0255112,643,757,-3.36398,-0.67873
-574,267,-3.39758,0.539734,0.00198747,0.00831793,-0.00499209,0.0110637,-0.000758281,-1.06794,0.0076411,0.0131156,650,757,-3.39756,-0.53976
-567,267,-3.4173,0.416931,0.00116643,0.00422401,-0.00312836,0.00617715,-0.000786708,-1.01268,0.00440382,0.0209717,657,757,-3.4173,-0.416939
-560,267,-3.4184,0.304504,-0.000193714,0.00172587,-0.00166911,0.00269147,-0.00115932,-1.04633,0.00228116,0.0226163,664,757,-3.41842,-0.304511
-553,267,-3.42279,0.241028,-0.0016872,0.000599903,8.64466e-05,0.000603166,-0.00169046,1.53307,0.00137293,0.0176625,671,757,-3.42278,-0.24102
-546,267,-3.41675,0.102173,-0.00239583,-0.000359533,0.00146877,0.00040947,-0.00316484,1.08847,0.00225879,0.0107837,678,757,-3.41678,-0.102165
-539,267,-3.40558,-0.0166626,-0.00262115,-0.00208499,0.00274125,0.000401252,-0.0051074,0.83414,0.00354626,0.0097606,685,757,-3.40559,0.0166627
-532,267,-3.39246,-0.116638,-0.00337375,-0.00395588,0.00391403,0.000260022,-0.00758964,0.748284,0.00514863,0.00979511,692,757,-3.39249,0.116624
-525,267,-3.4024,-0.227295,-0.00477563,-0.00608284,0.00504081,-0.000346229,-0.0105122,0.720927,0.00689565,0.00933519,699,757,-3.40239,0.227272
-518,267,-3.40875,-0.343384,-0.0061235,-0.00824334,0.00623605,-0.00085793,-0.0135089,0.701219,0.00873402,0.00930637,706,757,-3.40878,0.343375
-511,267,-3.39154,-0.46637,-0.00729734,-0.0108944,0.00686274,-0.00200135,-0.0161903,0.657246,0.0101922,0.0132644,713,757,-3.39154,0.466391
-504,267,-3.3833,-0.558777,-0.00766299,-0.0138669,0.00732412,-0.00281101,-0.0187188,0.585089,0.0116558,0.0262017,720,757,-3.38327,0.558749
-497,267,-3.25867,-0.513733,-0.0071375,-0.0168163,0.00770653,-0.00287689,-0.0210769,0.505035,0.0131973,0.0412658,727,757,-3.25865,0.513755
-490,267,-3.04388,0.375061,-0.00603935,-0.0199081,0.00706759,-0.0030724,-0.0228751,0.397455,0.0143361,0.0447409,734,757,-3.04386,-0.375031
-483,267,-2.91406,0.842712,0,0,0,0,0,0,0,-1,741,757,-2.91409,-0.842685
-476,267,-4.88104,1.74951,-0.000242867,-0.0249237,0.00383708,0.000339914,-0.0255065,0.15073,0.0171188,0.043618,748,757,-4.88107,-1.74948
-469,267,-5.59723,2.97327,0,0,0,0,0,0,0,-1,755,757,-5.59723,-2.97327
-462,267,-6.3241,4.09949,0,0,0,0,0,0,0,-1,762,757,-6.32412,-4.09949
-455,267,-6.98206,0.467834,0,0,0,0,0,0,0,-1,769,757,-6.98204,-0.467819
-448,267,-6.68677,0.457092,0,0,0,0,0,0,0,-1,776,757,-6.68676,-0.457118
-441,267,0,0,0,0,0,0,0,0,0,-1,783,757,0,0
-434,267,0,0,0,0,0,0,0,0,0,-1,790,757,0,0
-427,267,0,0,0,0,0,0,0,0,0,-1,797,757,0,0
-420,267,0,0,0,0,0,0,0,0,0,-1,804,757,0,0
-413,267,0,0,0,0,0,0,0,0,0,-1,811,757,0,0
-406,267,0,0,0,0,0,0,0,0,0,-1,818,757,0,0
-399,267,0,0,0,0,0,0,0,0,0,-1,825,757,0,0
-392,267,0,0,0,0,0,0,0,0,0,-1,832,757,0,0
-385,267,0,0,0,0,0,0,0,0,0,-1,839,757,0,0
-378,267,0,0,0,0,0,0,0,0,0,-1,846,757,0,0
-371,267,0,0,0,0,0,0,0,0,0,-1,853,757,0,0
-364,267,0,0,0,0,0,0,0,0,0,-1,860,757,0,0
-357,267,0,0,0,0,0,0,0,0,0,-1,867,757,0,0
-350,267,0,0,0,0,0,0,0,0,0,-1,874,757,0,0
-343,267,0,0,0,0,0,0,0,0,0,-1,881,757,0,0
-336,267,0,0,0,0,0,0,0,0,0,-1,888,757,0,0
-329,267,0,0,0,0,0,0,0,0,0,-1,895,757,0,0
-322,267,0,0,0,0,0,0,0,0,0,-1,902,757,0,0
-315,267,0,0,0,0,0,0,0,0,0,-1,909,757,0,0
-308,267,0,0,0,0,0,0,0,0,0,-1,916,757,0,0
-301,267,0,0,0,0,0,0,0,0,0,-1,923,757,0,0
-294,267,0,0,0,0,0,0,0,0,0,-1,930,757,0,0
-287,267,0,0,0,0,0,0,0,0,0,-1,937,757,0,0
-280,267,0,0,0,0,0,0,0,0,0,-1,944,757,0,0
-273,267,0,0,0,0,0,0,0,0,0,-1,951,757,0,0
-266,267,0,0,0,0,0,0,0,0,0,-1,958,757,0,0
-259,267,0,0,0,0,0,0,0,0,0,-1,965,757,0,0
-252,267,0,0,0,0,0,0,0,0,0,-1,972,757,0,0
-245,267,0,0,0,0,0,0,0,0,0,-1,979,757,0,0
-238,267,0,0,0,0,0,0,0,0,0,-1,986,757,0,0
-231,267,0,0,0,0,0,0,0,0,0,-1,993,757,0,0
-224,267,0,0,0,0,0,0,0,0,0,-1,1000,757,0,0
-217,267,0,0,0,0,0,0,0,0,0,-1,1007,757,0,0
-210,267,0,0,0,0,0,0,0,0,0,-1,1014,757,0,0
-203,267,0,0,0,0,0,0,0,0,0,-1,1021,757,0,0
-196,267,0,0,0,0,0,0,0,0,0,-1,1028,757,0,0
-189,267,0,0,0,0,0,0,0,0,0,-1,1035,757,0,0
-182,267,0,0,0,0,0,0,0,0,0,-1,1042,757,0,0
-175,267,0,0,0,0,0,0,0,0,0,-1,1049,757,0,0
-168,267,0,0,0,0,0,0,0,0,0,-1,1056,757,0,0
-161,267,0,0,0,0,0,0,0,0,0,-1,1063,757,0,0
-154,267,0,0,0,0,0,0,0,0,0,-1,1070,757,0,0
-147,267,0,0,0,0,0,0,0,0,0,-1,1077,757,0,0
-140,267,0,0,0,0,0,0,0,0,0,-1,1084,757,0,0
-133,267,0,0,0,0,0,0,0,0,0,-1,1091,757,0,0
-126,267,0,0,0,0,0,0,0,0,0,-1,1098,757,0,0
-119,267,0,0,0,0,0,0,0,0,0,-1,1105,757,0,0
-112,267,0,0,0,0,0,0,0,0,0,-1,1112,757,0,0
-105,267,0,0,0,0,0,0,0,0,0,-1,1119,757,0,0
-98,267,0,0,0,0,0,0,0,0,0,-1,1126,757,0,0
-91,267,0,0,0,0,0,0,0,0,0,-1,1133,757,0,0
-84,267,0,0,0,0,0,0,0,0,0,-1,1140,757,0,0
-77,267,0,0,0,0,0,0,0,0,0,-1,1147,757,0,0
-70,267,0,0,0,0,0,0,0,0,0,-1,1154,757,0,0
-63,267,0,0,0,0,0,0,0,0,0,-1,1161,757,0,0
-56,267,0,0,0,0,0,0,0,0,0,-1,1168,757,0,0
-49,267,0,0,0,0,0,0,0,0,0,-1,1175,757,0,0
-42,267,0,0,0,0,0,0,0,0,0,-1,1182,757,0,0
-35,267,0,0,0,0,0,0,0,0,0,-1,1189,757,0,0
-28,267,0,0,0,0,0,0,0,0,0,-1,1196,757,0,0
-21,267,0,0,0,0,0,0,0,0,0,-1,1203,757,0,0
-14,267,0,0,0,0,0,0,0,0,0,-1,1210,757,0,0
-7,267,0,0,0,0,0,0,0,0,0,-1,1217,757,0,0
0,267,0,0,0,0,0,0,0,0,0,-1,1224,757,0,0
7,267,0,0,0,0,0,0,0,0,0,-1,1231,757,0,0
14,267,0,0,0,0,0,0,0,0,0,-1,1238,757,0,0
21,267,0,0,0,0,0,0,0,0,0,-1,1245,757,0,0
28,267,0,0,0,0,0,0,0,0,0,-1,1252,757,0,0
35,267,0,0,0,0,0,0,0,0,0,-1,1259,757,0,0
42,267,0,0,0,0,0,0,0,0,0,-1,1266,757,0,0
49,267,0,0,0,0,0,0,0,0,0,-1,1273,757,0,0
56,267,0,0,0,0,0,0,0,0,0,-1,1280,757,0,0
63,267,0,0,0,0,0,0,0,0,0,-1,1287,757,0,0
70,267,0,0,0,0,0,0,0,0,0,-1,1294,757,0,0
77,267,0,0,0,0,0,0,0,0,0,-1,1301,757,0,0
84,267,0,0,0,0,0,0,0,0,0,-1,1308,757,0,0
91,267,0,0,0,0,0,0,0,0,0,-1,1315,757,0,0
98,267,0,0,0,0,0,0,0,0,0,-1,1322,757,0,0
105,267,0,0,0,0,0,0,0,0,0,-1,1329,757,0,0
112,267,0,0,0,0,0,0,0,0,0,-1,1336,757,0,0
119,267,0,0,0,0,0,0,0,0,0,-1,1343,757,0,0
126,267,0,0,0,0,0,0,0,0,0,-1,1350,757,0,0
133,267,0,0,0,0,0,0,0,0,0,-1,1357,757,0,0
140,267,0,0,0,0,0,0,0,0,0,-1,1364,757,0,0
147,267,0,0,0,0,0,0,0,0,0,-1,1371,757,0,0
154,267,0,0,0,0,0,0,0,0,0,-1,1378,757,0,0
161,267,0,0,0,0,0,0,0,0,0,-1,1385,757,0,0
168,267,0,0,0,0,0,0,0,0,0,-1,1392,757,0,0
175,267,0,0,0,0,0,0,0,0,0,-1,1399,757,0,0
182,267,0,0,0,0,0,0,0,0,0,-1,1406,757,0,0
189,267,0,0,0,0,0,0,0,0,0,-1,1413,757,0,0
196,267,0,0,0,0,0,0,0,0,0,-1,1420,757,0,0
203,267,0,0,0,0,0,0,0,0,0,-1,1427,757,0,0
210,267,0,0,0,0,0,0,0,0,0,-1,1434,757,0,0
217,267,0,0,0,0,0,0,0,0,0,-1,1441,757,0,0
224,267,0,0,0,0,0,0,0,0,0,-1,1448,757,0,0
231,267,0,0,0,0,0,0,0,0,0,-1,1455,757,0,0
238,267,0,0,0,0,0,0,0,0,0,-1,1462,757,0,0
245,267,0,0,0,0,0,0,0,0,0,-1,1469,757,0,0
252,267,0,0,0,0,0,0,0,0,0,-1,1476,757,0,0
259,267,0,0,0,0,0,0,0,0,0,-1,1483,757,0,0
266,267,0,0,0,0,0,0,0,0,0,-1,1490,757,0,0
273,267,0,0,0,0,0,0,0,0,0,-1,1497,757,0,0
280,267,0,0,0,0,0,0,0,0,0,-1,1504,757,0,0
287,267,0,0,0,0,0,0,0,0,0,-1,1511,757,0,0
294,267,0,0,0,0,0,0,0,0,0,-1,1518,757,0,0
301,267,0,0,0,0,0,0,0,0,0,-1,1525,757,0,0
308,267,0,0,0,0,0,0,0,0,0,-1,1532,757,0,0
315,267,0,0,0,0,0,0,0,0,0,-1,1539,757,0,0
322,267,0,0,0,0,0,0,0,0,0,-1,1546,757,0,0
329,267,0,0,0,0,0,0,0,0,0,-1,1553,757,0,0
336,267,0,0,0,0,0,0,0,0,0,-1,1560,757,0,0
343,267,0,0,0,0,0,0,0,0,0,-1,1567,757,0,0
350,267,0,0,0,0,0,0,0,0,0,-1,1574,757,0,0
357,267,0,0,0,0,0,0,0,0,0,-1,1581,757,0,0
364,267,0,0,0,0,0,0,0,0,0,-1,1588,757,0,0
371,267,0,0,0,0,0,0,0,0,0,-1,1595,757,0,0
378,267,0,0,0,0,0,0,0,0,0,-1,1602,757,0,0
385,267,0,0,0,0,0,0,0,0,0,-1,1609,757,0,0
392,267,0,0,0,0,0,0,0,0,0,-1,1616,757,0,0
399,267,0,0,0,0,0,0,0,0,0,-1,1623,757,0,0
406,267,0,0,0,0,0,0,0,0,0,-1,1630,757,0,0
413,267,0,0,0,0,0,0,0,0,0,-1,1637,757,0,0
420,267,0,0,0,0,0,0,0,0,0,-1,1644,757,0,0
427,267,0,0,0,0,0,0,0,0,0,-1,1651,757,0,0
434,267,0,0,0,0,0,0,0,0,0,-1,1658,757,0,0
441,267,0,0,0,0,0,0,0,0,0,-1,1665,757,0,0
448,267,0,0,0,0,0,0,0,0,0,-1,1672,757,0,0
455,267,0,0,0,0,0,0,0,0,0,-1,1679,757,0,0
462,267,0,0,0,0,0,0,0,0,0,-1,1686,757,0,0
469,267,0,0,0,0,0,0,0,0,0,-1,1693,757,0,0
476,267,0,0,0,0,0,0,0,0,0,-1,1700,757,0,0
483,267,0,0,0,0,0,0,0,0,0,-1,1707,757,0,0
490,267,0,0,0,0,0,0,0,0,0,-1,1714,757,0,0
497,267,0,0,0,0,0,0,0,0,0,-1,1721,757,0,0
504,267,0,0,0,0,0,0,0,0,0,-1,1728,757,0,0
511,267,0,0,0,0,0,0,0,0,0,-1,1735,757,0,0
518,267,0,0,0,0,0,0,0,0,0,-1,1742,757,0,0
525,267,0,0,0,0,0,0,0,0,0,-1,1749,757,0,0
532,267,0,0,0,0,0,0,0,0,0,-1,1756,757,0,0
539,267,0,0,0,0,0,0,0,0,0,-1,1763,757,0,0
546,267,0,0,0,0,0,0,0,0,0,-1,1770,757,0,0
553,267,0,0,0,0,0,0,0,0,0,-1,1777,757,0,0
560,267,0,0,0,0,0,0,0,0,0,-1,1784,757,0,0
567,267,11.7562,1.87903,-0.0254965,0.0363312,0.00347379,0.0365258,-0.0256911,1.51485,0.036102,0.0339647,1791,757,11.7562,-1.87902
574,267,11.5491,2.04285,-0.0139524,0.0266737,0.00324309,0.026931,-0.0142097,1.49164,0.0241281,0.0359579,1798,757,11.5491,-2.04288
581,267,11.5759,2.08588,-0.00876857,0.0228778,0.000962801,0.0229071,-0.00879783,1.54041,0.0188994,0.0389565,1805,757,11.5759,-2.08587
588,267,11.7915,1.95746,-0.0060755,0.019309,-0.00083125,0.0193362,-0.0061027,-1.5381,0.0153353,0.0463854,1812,757,11.7915,-1.95748
595,267,11.8247,1.83765,-0.00472229,0.0163486,-0.00219538,0.0165749,-0.0049486,-1.46808,0.0130169,0.0480385,1819,757,11.8247,-1.83767
602,267,11.6692,1.68433,0,0,0,0,0,0,0,-1,1826,757,11.6692,-1.68435
609,267,8.63037,1.30792,0,0,0,0,0,0,0,-1,1833,757,8.63043,-1.30792
616,267,8.87634,0.773621,-0.00377635,0.00989514,-0.00434759,0.0111606,-0.00504177,-1.28756,0.00957419,0.0442018,1840,757,8.87633,-0.773626
623,267,8.5072,0.326355,-0.00306592,0.00803388,-0.00473209,0.00977741,-0.00480945,-1.21778,0.00858299,0.045257,1847,757,8.50726,-0.326383
630,267,8.52417,0.460144,-0.00256798,0.00579481,-0.00459101,0.0078232,-0.00459637,-1.15477,0.00725067,0.0367515,1854,757,8.52417,-0.460141
637,267,8.52063,0.536377,-0.00273036,0.00459594,-0.00414904,0.00646751,-0.00460194,-1.14704,0.00642114,0.0245365,1861,757,8.52065,-0.536395
644,267,8.5553,0.658691,-0.00281233,0.00342158,-0.00344587,0.00495107,-0.00434182,-1.15306,0.00536909,0.0120506,1868,757,8.55534,-0.658672
651,267,8.55237,0.801392,-0.00223727,0.00242353,-0.00292492,0.00383291,-0.00364665,-1.12177,0.00431877,0.0144207,1875,757,8.55243,-0.801402
658,267,8.57971,0.928406,-0.00114086,0.00150284,-0.002211,0.002757,-0.00239502,-1.05482,0.00297696,0.0147118,1882,757,8.57971,-0.928431
665,267,8.58899,1.06183,-0.000419654,0.000794582,-0.00168847,0.00198177,-0.00160684,-0.957984,0.00207565,0.0147594,1889,757,8.58896,-1.06185
672,267,8.57324,1.1767,0.000170166,0.000831947,-0.00162001,0.00215451,-0.0011524,-0.886139,0.00193825,0.0125182,1896,757,8.5733,-1.17669
679,267,8.56311,1.28833,0.000844626,0.00142881,-0.00176989,0.00293055,-0.000657109,-0.867179,0.00220561,0.0114869,1903,757,8.56313,-1.28836
686,267,8.57764,1.42834,0.00185275,0.0031829,-0.0019552,0.00458304,0.000452606,-0.949338,0.00291622,0.0117932,1910,757,8.57767,-1.42832
693,267,8.56909,1.552,0.00361334,0.00559585,-0.00199271,0.00683024,0.00237895,-1.0162,0.00400349,0.011655,1917,757,8.56904,-1.55199
700,267,8.55603,1.65759,0.00557319,0.00866955,-0.00211502,0.00974247,0.00450027,-1.10134,0.00563025,0.0135945,1924,757,8.55608,-1.65756
707,267,8.54907,1.75592,0.00984137,0.0129591,-0.0025326,0.0143741,0.00842633,-1.06127,0.00833993,0.0143297,1931,757,8.54904,-1.75591
714,267,8.54224,1.81836,0.0173724,0.0180245,-0.00297271,0.020689,0.0147079,-0.840025,0.0122939,0.028315,1938,757,8.54221,-1.81839
721,267,8.48926,1.67023,0.0262393,0.0245897,-0.00308153,0.0286045,0.0222245,-0.654632,0.0173388,0.0454613,1945,757,8.48931,-1.67021
728,267,8.51648,1.14893,0.0387196,0.0326324,-0.00294677,0.0399124,0.0314396,-0.384619,0.0242819,0.0487091,1952,757,8.51644,-1.14892
735,267,8.94238,0.625488,0.0561043,0.0421593,-0.00254679,0.0565548,0.0417088,-0.175104,0.0338575,0.0486114,1959,757,8.9424,-0.625478
742,267,9.29248,-0.0622559,0.0797993,0.0530659,-0.00194823,0.0799405,0.0529246,-0.0723666,0.0469547,0.0482213,1966,757,9.29245,0.0622294
749,267,0,0,0,0,0,0,0,0,0,-1,1973,757,0,0
756,267,0,0,0,0,0,0,0,0,0,-1,1980,757,0,0
763,267,0,0,0,0,0,0,0,0,0,-1,1987,757,0,0
770,267,0,0,0,0,0,0,0,0,0,-1,1994,757,0,0
777,267,0,0,0,0,0,0,0,0,0,-1,2001,757,0,0
784,267,0,0,0,0,0,0,0,0,0,-1,2008,757,0,0
791,267,0,0,0,0,0,0,0,0,0,-1,2015,757,0,0
798,267,0,0,0,0,0,0,0,0,0,-1,2022,757,0,0
805,267,0,0,0,0,0,0,0,0,0,-1,2029,757,0,0
812,267,0,0,0,0,0,0,0,0,0,-1,2036,757,0,0
-700,260,0,0,0,0,0,0,0,0,0,-1,524,764,0,0
-693,260,0,0,0,0,0,0,0,0,0,-1,531,764,0,0
-686,260,0,0,0,0,0,0,0,0,0,-1,538,764,0,0
-679,260,0,0,0,0,0,0,0,0,0,-1,545,764,0,0
-672,260,0,0,0,0,0,0,0,0,0,-1,552,764,0,0
-665,260,0,0,0,0,0,0,0,0,0,-1,559,764,0,0
-658,260,0,0,0,0,0,0,0,0,0,-1,566,764,0,0
-651,260,0,0,0,0,0,0,0,0,0,-1,573,764,0,0
-644,260,0,0,0,0,0,0,0,0,0,-1,580,764,0,0
-637,260,0,0,0,0,0,0,0,0,0,-1,587,764,0,0
-630,260,-2.46838,4.4931,0.0198836,0.105857,-0.0382866,0.120435,0.00530533,-1.20698,0.0785814,0.0449092,594,764,-2.46836,-4.49308
-623,260,-3.08142,4.30042,0.0203835,0.087075,-0.0325282,0.100313,0.00714576,-1.1843,0.064625,0.0423652,601,764,-3.08142,-4.30044
-616,260,-3.55737,4.41461,0.0189979,0.0705521,-0.0275403,0.0824967,0.00705326,-1.16157,0.052804,0.0445639,608,764,-3.55738,-4.41462
-609,260,-3.93457,3.89136,0.0165756,0.0561551,-0.0230725,0.0667623,0.00596838,-1.13988,0.0426581,0.0435982,615,764,-3.93457,-3.89136
-602,260,-4.03967,3.37262,0.0136604,0.0436271,-0.0189644,0.052813,0.00447454,-1.11973,0.033816,0.0472158,622,764,-4.03965,-3.3726
-595,260,-3.30951,1.10895,0,0,0,0,0,0,0,-1,629,764,-3.30952,-1.10892
-588,260,-3.42328,0.852051,0.00693035,0.0230351,-0.0112182,0.0287917,0.00117372,-1.09668,0.0188154,0.042386,636,764,-3.42327,-0.852046
-581,260,-3.52094,0.636292,0.00365501,0.0151213,-0.00814673,0.01935,-0.000573689,-1.09201,0.0130954,0.0214091,643,764,-3.52094,-0.636269
-574,260,-3.52716,0.542175,0.0018869,0.00919768,-0.00548249,0.0121316,-0.00104706,-1.07942,0.00845842,0.014075,650,764,-3.52714,-0.542152
-567,260,-3.54926,0.428345,0.00120366,0.00481774,-0.00350222,0.00695164,-0.000930233,-1.02357,0.00497358,0.0161162,657,764,-3.54928,-0.428371
-560,260,-3.5285,0.327698,-0.000129198,0.00207673,-0.00192853,0.00319543,-0.00124789,-1.04516,0.00264622,0.0190673,664,764,-3.5285,-0.327681
-553,260,-3.52692,0.250916,-0.00172451,0.00064529,3.76655e-05,0.000645888,-0.00172511,1.55491,0.00141538,0.0166288,671,764,-3.52692,-0.25091
-546,260,-3.5293,0.136963,-0.00254648,-0.000499065,0.00163764,0.000408505,-0.00345405,1.06474,0.00245025,0.0105486,678,764,-3.5293,-0.136982
-539,260,-3.5116,0.0218506,-0.00305519,-0.00228783,0.0031533,0.000505045,-0.00584807,0.845939,0.0040775,0.0103655,685,764,-3.51158,-0.0218569
-532,260,-3.5155,-0.0995483,-0.00404979,-0.00418003,0.00448122,0.000366786,-0.0085966,0.778133,0.00585716,0.0120538,692,764,-3.51548,0.0995484
-525,260,-3.52362,-0.221375,-0.00562849,-0.00625435,0.00569229,-0.000240538,-0.0116423,0.757939,0.00768261,0.0112675,699,764,-3.5236,0.22135
-518,260,-3.51825,-0.319641,-0.00702986,-0.00826196,0.00691463,-0.000703896,-0.0145879,0.740969,0.00949935,0.0114676,706,764,-3.51825,0.319647
-511,260,-3.48834,-0.436829,-0.00817385,-0.0106879,0.00746391,-0.00186184,-0.0169999,0.701975,0.0107664,0.0178275,713,764,-3.48835,0.436843
-504,260,-3.46204,-0.51001,-0.00858849,-0.0134362,0.00779888,-0.00284549,-0.0191792,0.634732,0.0119511,0.0349259,720,764,-3.46205,0.510022
-497,260,-2.06946,0.697021,0,0,0,0,0,0,0,-1,727,764,-2.06947,-0.697022
-490,260,-2.52118,1.06012,-0.0074097,-0.0190738,0.00706132,-0.00408343,-0.0224001,0.440225,0.0137755,0.0450496,734,764,-2.52116,-1.06012
-483,260,-3.31818,1.65198,-0.00538221,-0.0216217,0.0054476,-0.00372409,-0.0232798,0.295467,0.0144395,0.0414943,741,764,-3.31819,-1.652
-476,260,-4.3844,2.27856,-0.0019726,-0.0234134,0.00305612,-0.00154549,-0.0238405,0.138855,0.0154043,0.042046,748,764,-4.38439,-2.27858
-469,260,-5.24951,2.93201,0,0,0,0,0,0,0,-1,755,764,-5.24952,-2.93202
-462,260,-7.21729,0.61438,0.0100776,-0.0242593,-0.00463308,0.0106917,-0.0248735,-0.131791,0.0210707,0.0421607,762,764,-7.21731,-0.614355
-455,260,-6.61066,0.552368,0.0189183,-0.0226052,-0.0103288,0.0213457,-0.0250326,-0.230819,0.0268047,0.0469718,769,764,-6.61064,-0.552364
-448,260,0,0,0,0,0,0,0,0,0,-1,776,764,0,0
-441,260,0,0,0,0,0,0,0,0,0,-1,783,764,0,0
-434,260,0,0,0,0,0,0,0,0,0,-1,790,764,0,0
-427,260,0,0,0,0,0,0,0,0,0,-1,797,764,0,0
-420,260,0,0,0,0,0,0,0,0,0,-1,804,764,0,0
-413,260,0,0,0,0,0,0,0,0,0,-1,811,764,0,0
-406,260,0,0,0,0,0,0,0,0,0,-1,818,764,0,0
-399,260,0,0,0,0,0,0,0,0,0,-1,825,764,0,0
-392,260,0,0,0,0,0,0,0,0,0,-1,832,764,0,0
-385,260,0,0,0,0,0,0,0,0,0,-1,839,764,0,0
-378,260,0,0,0,0,0,0,0,0,0,-1,846,764,0,0
-371,260,0,0,0,0,0,0,0,0,0,-1,853,764,0,0
-364,260,0,0,0,0,0,0,0,0,0,-1,860,764,0,0
-357,260,0,0,0,0,0,0,0,0,0,-1,867,764,0,0
-350,260,0,0,0,0,0,0,0,0,0,-1,874,764,0,0
-343,260,0,0,0,0,0,0,0,0,0,-1,881,764,0,0
-336,260,0,0,0,0,0,0,0,0,0,-1,888,764,0,0
-329,260,0,0,0,0,0,0,0,0,0,-1,895,764,0,0
-322,260,0,0,0,0,0,0,0,0,0,-1,902,764,0,0
-315,260,0,0,0,0,0,0,0,0,0,-1,909,764,0,0
-308,260,0,0,0,0,0,0,0,0,0,-1,916,764,0,0
-301,260,0,0,0,0,0,0,0,0,0,-1,923,764,0,0
-294,260,0,0,0,0,0,0,0,0,0,-1,930,764,0,0
-287,260,0,0,0,0,0,0,0,0,0,-1,937,764,0,0
-280,260,0,0,0,0,0,0,0,0,0,-1,944,764,0,0
-273,260,0,0,0,0,0,0,0,0,0,-1,951,764,0,0
-266,260,0,0,0,0,0,0,0,0,0,-1,958,764,0,0
-259,260,0,0,0,0,0,0,0,0,0,-1,965,764,0,0
-252,260,0,0,0,0,0,0,0,0,0,-1,972,764,0,0
-245,260,0,0,0,0,0,0,0,0,0,-1,979,764,0,0
-238,260,0,0,0,0,0,0,0,0,0,-1,986,764,0,0
-231,260,0,0,0,0,0,0,0,0,0,-1,993,764,0,0
-224,260,0,0,0,0,0,0,0,0,0,-1,1000,764,0,0
-217,260,0,0,0,0,0,0,0,0,0,-1,1007,764,0,0
-210,260,0,0,0,0,0,0,0,0,0,-1,1014,764,0,0
-203,260,0,0,0,0,0,0,0,0,0,-1,1021,764,0,0
-196,260,0,0,0,0,0,0,0,0,0,-1,1028,764,0,0
-189,260,0,0,0,0,0,0,0,0,0,-1,1035,764,0,0
-182,260,0,0,0,0,0,0,0,0,0,-1,1042,764,0,0
-175,260,0,0,0,0,0,0,0,0,0,-1,1049,764,0,0
-168,260,0,0,0,0,0,0,0,0,0,-1,1056,764,0,0
-161,260,0,0,0,0,0,0,0,0,0,-1,1063,764,0,0
-154,260,0,0,0,0,0,0,0,0,0,-1,1070,764,0,0
-147,260,0,0,0,0,0,0,0,0,0,-1,1077,764,0,0
-140,260,0,0,0,0,0,0,0,0,0,-1,1084,764,0,0
-133,260,0,0,0,0,0,0,0,0,0,-1,1091,764,0,0
-126,260,0,0,0,0,0,0,0,0,0,-1,1098,764,0,0
-119,260,0,0,0,0,0,0,0,0,0,-1,1105,764,0,0
-112,260,0,0,0,0,0,0,0,0,0,-1,1112,764,0,0
-105,260,0,0,0,0,0,0,0,0,0,-1,1119,764,0,0
-98,260,0,0,0,0,0,0,0,0,0,-1,1126,764,0,0
-91,260,0,0,0,0,0,0,0,0,0,-1,1133,764,0,0
-84,260,0,0,0,0,0,0,0,0,0,-1,1140,764,0,0
-77,260,0,0,0,0,0,0,0,0,0,-1,1147,764,0,0
-70,260,0,0,0,0,0,0,0,0,0,-1,1154,764,0,0
-63,260,0,0,0,0,0,0,0,0,0,-1,1161,764,0,0
-56,260,0,0,0,0,0,0,0,0,0,-1,1168,764,0,0
-49,260,0,0,0,0,0,0,0,0,0,-1,1175,764,0,0
-42,260,0,0,0,0,0,0,0,0,0,-1,1182,764,0,0
-35,260,0,0,0,0,0,0,0,0,0,-1,1189,764,0,0
-28,260,0,0,0,0,0,0,0,0,0,-1,1196,764,0,0
-21,260,0,0,0,0,0,0,0,0,0,-1,1203,764,0,0
-14,260,0,0,0,0,0,0,0,0,0,-1,1210,764,0,0
-7,260,0,0,0,0,0,0,0,0,0,-1,1217,764,0,0
0,260,0,0,0,0,0,0,0,0,0,-1,1224,764,0,0
7,260,0,0,0,0,0,0,0,0,0,-1,1231,764,0,0
14,260,0,0,0,0,0,0,0,0,0,-1,1238,764,0,0
21,260,0,0,0,0,0,0,0,0,0,-1,1245,764,0,0
28,260,0,0,0,0,0,0,0,0,0,-1,1252,764,0,0
35,260,0,0,0,0,0,0,0,0,0,-1,1259,764,0,0
42,260,0,0,0,0,0,0,0,0,0,-1,1266,764,0,0
49,260,0,0,0,0,0,0,0,0,0,-1,1273,764,0,0
56,260,0,0,0,0,0,0,0,0,0,-1,1280,764,0,0
63,260,0,0,0,0,0,0,0,0,0,-1,1287,764,0,0
70,260,0,0,0,0,0,0,0,0,0,-1,1294,764,0,0
77,260,0,0,0,0,0,0,0,0,0,-1,1301,764,0,0
84,260,0,0,0,0,0,0,0,0,0,-1,1308,764,0,0
91,260,0,0,0,0,0,0,0,0,0,-1,1315,764,0,0
98,260,0,0,0,0,0,0,0,0,0,-1,1322,764,0,0
105,260,0,0,0,0,0,0,0,0,0,-1,1329,764,0,0
112,260,0,0,0,0,0,0,0,0,0,-1,1336,764,0,0
119,260,0,0,0,0,0,0,0,0,0,-1,1343,764,0,0
126,260,0,0,0,0,0,0,0,0,0,-1,1350,764,0,0
133,260,0,0,0,0,0,0,0,0,0,-1,1357,764,0,0
140,260,0,0,0,0,0,0,0,0,0,-1,1364,764,0,0
147,260,0,0,0,0,0,0,0,0,0,-1,1371,764,0,0
154,260,0,0,0,0,0,0,0,0,0,-1,1378,764,0,0
161,260,0,0,0,0,0,0,0,0,0,-1,1385,764,0,0
168,260,0,0,0,0,0,0,0,0,0,-1,1392,764,0,0
175,260,0,0,0,0,0,0,0,0,0,-1,1399,764,0,0
182,260,0,0,0,0,0,0,0,0,0,-1,1406,764,0,0
189,260,0,0,0,0,0,0,0,0,0,-1,1413,764,0,0
196,260,0,0,0,0,0,0,0,0,0,-1,1420,764,0,0
203,260,0,0,0,0,0,0,0,0,0,-1,1427,764,0,0
210,260,0,0,0,0,0,0,0,0,0,-1,1434,764,0,0
217,260,0,0,0,0,0,0,0,0,0,-1,1441,764,0,0
224,260,0,0,0,0,0,0,0,0,0,-1,1448,764,0,0
231,260,0,0,0,0,0,0,0,0,0,-1,1455,764,0,0
238,260,0,0,0,0,0,0,0,0,0,-1,1462,764,0,0
245,260,0,0,0,0,0,0,0,0,0,-1,1469,764,0,0
252,260,0,0,0,0,0,0,0,0,0,-1,1476,764,0,0
259,260,0,0,0,0,0,0,0,0,0,-1,1483,764,0,0
266,260,0,0,0,0,0,0,0,0,0,-1,1490,764,0,0
273,260,0,0,0,0,0,0,0,0,0,-1,1497,764,0,0
280,260,0,0,0,0,0,0,0,0,0,-1,1504,764,0,0
287,260,0,0,0,0,0,0,0,0,0,-1,1511,764,0,0
294,260,0,0,0,0,0,0,0,0,0,-1,1518,764,0,0
301,260,0,0,0,0,0,0,0,0,0,-1,1525,764,0,0
308,260,0,0,0,0,0,0,0,0,0,-1,1532,764,0,0
315,260,0,0,0,0,0,0,0,0,0,-1,1539,764,0,0
322,260,0,0,0,0,0,0,0,0,0,-1,1546,764,0,0
329,260,0,0,0,0,0,0,0,0,0,-1,1553,764,0,0
336,260,0,0,0,0,0,0,0,0,0,-1,1560,764,0,0
343,260,0,0,0,0,0,0,0,0,0,-1,1567,764,0,0
350,260,0,0,0,0,0,0,0,0,0,-1,1574,764,0,0
357,260,0,0,0,0,0,0,0,0,0,-1,1581,764,0,0
364,260,0,0,0,0,0,0,0,0,0,-1,1588,764,0,0
371,260,0,0,0,0,0,0,0,0,0,-1,1595,764,0,0
378,260,0,0,0,0,0,0,0,0,0,-1,1602,764,0,0
385,260,0,0,0,0,0,0,0,0,0,-1,1609,764,0,0
392,260,0,0,0,0,0,0,0,0,0,-1,1616,764,0,0
399,260,0,0,0,0,0,0,0,0,0,-1,1623,764,0,0
406,260,0,0,0,0,0,0,0,0,0,-1,1630,764,0,0
413,260,0,0,0,0,0,0,0,0,0,-1,1637,764,0,0
420,260,0,0,0,0,0,0,0,0,0,-1,1644,764,0,0
427,260,0,0,0,0,0,0,0,0,0,-1,1651,764,0,0
434,260,0,0,0,0,0,0,0,0,0,-1,1658,764,0,0
441,260,0,0,0,0,0,0,0,0,0,-1,1665,764,0,0
448,260,0,0,0,0,0,0,0,0,0,-1,1672,764,0,0
455,260,0,0,0,0,0,0,0,0,0,-1,1679,764,0,0
462,260,0,0,0,0,0,0,0,0,0,-1,1686,764,0,0
469,260,0,0,0,0,0,0,0,0,0,-1,1693,764,0,0
476,260,0,0,0,0,0,0,0,0,0,-1,1700,764,0,0
483,260,0,0,0,0,0,0,0,0,0,-1,1707,764,0,0
490,260,0,0,0,0,0,0,0,0,0,-1,1714,764,0,0
497,260,0,0,0,0,0,0,0,0,0,-1,1721,764,0,0
504,260,0,0,0,0,0,0,0,0,0,-1,1728,764,0,0
511,260,0,0,0,0,0,0,0,0,0,-1,1735,764,0,0
518,260,0,0,0,0,0,0,0,0,0,-1,1742,764,0,0
525,260,0,0,0,0,0,0,0,0,0,-1,1749,764,0,0
532,260,0,0,0,0,0,0,0,0,0,-1,1756,764,0,0
539,260,0,0,0,0,0,0,0,0,0,-1,1763,764,0,0
546,260,0,0,0,0,0,0,0,0,0,-1,1770,764,0,0
553,260,0,0,0,0,0,0,0,0,0,-1,1777,764,0,0
560,260,0,0,0,0,0,0,0,0,0,-1,1784,764,0,0
567,260,0,0,0,0,0,0,0,0,0,-1,1791,764,0,0
574,260,11.7372,1.79419,-0.0085745,0.0223504,0.00328458,0.0226954,-0.00891951,1.46614,0.0188217,0.0326422,1798,764,11.7372,-1.79418
581,260,11.6592,1.95544,-0.00551417,0.0207656,0.000911604,0.0207972,-0.00554575,1.53616,0.0160363,0.0342499,1805,764,11.6592,-1.95545
588,260,11.8866,1.83282,-0.00436603,0.0184998,-0.000913048,0.0185362,-0.00440243,-1.53095,0.0140566,0.0433558,1812,764,11.8866,-1.83283
595,260,12.606,1.16895,0,0,0,0,0,0,0,-1,1819,764,12.606,-1.16896
602,260,10.6282,2.38629,0,0,0,0,0,0,0,-1,1826,764,10.6282,-2.38628
609,260,10.9003,2.60706,0,0,0,0,0,0,0,-1,1833,764,10.9003,-2.60704
616,260,9.0708,0.910217,0,0,0,0,0,0,0,-1,1840,764,9.07078,-0.91023
623,260,8.74341,0.428772,0,0,0,0,0,0,0,-1,1847,764,8.74346,-0.428794
630,260,8.67297,0.551453,-0.00348328,0.00621427,-0.00456065,0.00802208,-0.00529109,-1.1934,0.00774008,0.0486716,1854,764,8.67294,-0.551461
637,260,8.64978,0.628357,-0.00367203,0.00475944,-0.00421675,0.00650638,-0.00541897,-1.17804,0.00689463,0.041425,1861,764,8.64981,-0.628365
644,260,8.7074,0.669922,-0.00378632,0.00337035,-0.00360378,0.00487057,-0.00528654,-1.17633,0.00586585,0.0233002,1868,764,8.70735,-0.669938
651,260,8.73242,0.793518,-0.00321888,0.0022051,-0.00316378,0.00366017,-0.00467395,-1.13973,0.00482356,0.0136029,1875,764,8.73245,-0.793546
658,260,8.70081,0.938965,-0.00200879,0.0010817,-0.00249998,0.00247545,-0.00340254,-1.06221,0.0034077,0.0159257,1882,764,8.70084,-0.938968
665,260,8.68701,1.0686,-0.00109395,0.00022325,-0.00197466,0.00164625,-0.00251695,-0.94636,0.00242108,0.015792,1889,764,8.68696,-1.06861
672,260,8.69043,1.17596,-0.000345271,0.000211617,-0.00180192,0.00175648,-0.00189014,-0.862055,0.00210585,0.0131825,1896,764,8.6904,-1.17596
679,260,8.67932,1.28546,0.000514843,0.000522668,-0.00168389,0.00220265,-0.00116514,-0.78656,0.00197491,0.0115872,1903,764,8.67932,-1.28548
686,260,8.69128,1.41669,0.0016712,0.00216559,-0.00164768,0.00358452,0.000252274,-0.859857,0.00231018,0.0127116,1910,764,8.69128,-1.41671
693,260,8.69373,1.52045,0.00348911,0.0044256,-0.00137555,0.00541042,0.0025043,-0.949449,0.00312658,0.0130569,1917,764,8.69368,-1.52047
700,260,8.67615,1.63763,0.00546581,0.00727122,-0.00113656,0.00781994,0.00491709,-1.12101,0.0045645,0.012729,1924,764,8.67612,-1.63765
707,260,8.65979,1.74054,0.00988908,0.0111695,-0.00118048,0.0118722,0.00918638,-1.03386,0.00718875,0.0133894,1931,764,8.65975,-1.74052
714,260,8.66614,1.8186,0.0177879,0.0155458,-0.00119103,0.0183025,0.0150312,-0.407834,0.0112706,0.0229218,1938,764,8.66619,-1.81859
721,260,8.75574,1.76563,0.0269285,0.0212083,-0.000783314,0.0270338,0.021103,-0.13366,0.0164069,0.0424575,1945,764,8.75575,-1.76565
728,260,8.08118,0.890259,0.039833,0.0281388,-0.000103372,0.0398339,0.0281379,-0.00883864,0.0236421,0.0423245,1952,764,8.08121,-0.890256
735,260,7.94165,0.157166,0.0578439,0.0363092,0.00083961,0.0578766,0.0362766,0.03891,0.0337713,0.0410116,1959,764,7.94164,-0.157169
742,260,8.54883,-0.374878,0.0824736,0.0455799,0.00190855,0.0825721,0.0454814,0.0515477,0.047755,0.047637,1966,764,8.54888,0.374851
749,260,9.0531,-1.05353,0,0,0,0,0,0,0,-1,1973,764,9.05308,1.05352
756,260,0,0,0,0,0,0,0,0,0,-1,1980,764,0,0
763,260,0,0,0,0,0,0,0,0,0,-1,1987,764,0,0
770,260,0,0,0,0,0,0,0,0,0,-1,1994,764,0,0
777,260,0,0,0,0,0,0,0,0,0,-1,2001,764,0,0
784,260,0,0,0,0,0,0,0,0,0,-1,2008,764,0,0
791,260,0,0,0,0,0,0,0,0,0,-1,2015,764,0,0
798,260,0,0,0,0,0,0,0,0,0,-1,2022,764,0,0
805,260,0,0,0,0,0,0,0,0,0,-1,2029,764,0,0
812,260,0,0,0,0,0,0,0,0,0,-1,2036,764,0,0
-700,253,0,0,0,0,0,0,0,0,0,-1,524,771,0,0
-693,253,0,0,0,0,0,0,0,0,0,-1,531,771,0,0
-686,253,0,0,0,0,0,0,0,0,0,-1,538,771,0,0
-679,253,0,0,0,0,0,0,0,0,0,-1,545,771,0,0
-672,253,0,0,0,0,0,0,0,0,0,-1,552,771,0,0
-665,253,0,0,0,0,0,0,0,0,0,-1,559,771,0,0
-658,253,0,0,0,0,0,0,0,0,0,-1,566,771,0,0
-651,253,0,0,0,0,0,0,0,0,0,-1,573,771,0,0
-644,253,0,0,0,0,0,0,0,0,0,-1,580,771,0,0
-637,253,-1.66327,3.73694,0.0346492,0.129162,-0.0557513,0.15499,0.0088209,-1.13696,0.100516,0.0485899,587,771,-1.6633,-3.73694
-630,253,-2.35107,3.44977,0.0332596,0.108172,-0.0451413,0.129373,0.0120582,-1.13171,0.0825235,0.0486542,594,771,-2.35107,-3.44977
-623,253,-3.09833,3.57477,0.0297327,0.0893272,-0.0371666,0.107166,0.0118935,-1.12329,0.0678283,0.0457219,601,771,-3.09832,-3.57478
-616,253,-4.37787,4.10596,0.0253625,0.0726063,-0.0306247,0.0876608,0.010308,-1.11391,0.0553255,0.0442058,608,771,-4.37785,-4.10594
-609,253,-4.20514,3.52307,0.0207586,0.0578658,-0.0250629,0.0704953,0.00812905,-1.10402,0.0445352,0.0456355,615,771,-4.20511,-3.52307
-602,253,-3.97095,2.96222,0.0163026,0.0449924,-0.0202077,0.055429,0.00586592,-1.09406,0.0351609,0.0460609,622,771,-3.97098,-2.96219
-595,253,-3.67651,2.40369,0.0127964,0.0340252,-0.0145834,0.041448,0.0053736,-1.09998,0.0260264,0.0434509,629,771,-3.67651,-2.40368
-588,253,-3.52295,0.757385,0.0079309,0.0238108,-0.0112802,0.0296653,0.00207641,-1.09206,0.0191224,0.0400461,636,771,-3.52293,-0.757372
-581,253,-3.62195,0.628113,0.00382374,0.0156436,-0.00817503,0.0198212,-0.000353861,-1.09837,0.0133337,0.0215467,643,771,-3.62197,-0.628142
-574,253,-3.64575,0.520325,0.00168928,0.00967762,-0.00560556,0.0125664,-0.00119955,-1.09494,0.00880476,0.0173178,650,771,-3.64573,-0.520317
-567,253,-3.67432,0.410828,0.00104926,0.00519725,-0.00354395,0.00722947,-0.000982967,-1.05014,0.00517849,0.0153142,657,771,-3.6743,-0.410825
-560,253,-3.64551,0.334839,-0.000318441,0.00233763,-0.00190697,0.00333344,-0.00131424,-1.08955,0.00276647,0.0126916,664,771,-3.6455,-0.334849
-553,253,-3.6355,0.244568,-0.00203696,0.000644817,0.000183854,0.000657363,-0.00204951,1.50266,0.00163025,0.0121277,671,771,-3.63551,-0.24454
-546,253,-3.63605,0.157593,-0.00300153,-0.000666666,0.00192347,0.000415927,-0.00408413,1.05815,0.00287145,0.0105554,678,771,-3.63603,-0.157564
-539,253,-3.63184,0.0296631,-0.00380722,-0.00245859,0.00359689,0.000526652,-0.00679246,0.878058,0.00471367,0.0110356,685,771,-3.63183,-0.0296349
-532,253,-3.64545,-0.105957,-0.00501308,-0.00428707,0.00500123,0.000364312,-0.00966446,0.821626,0.00656778,0.0145426,692,771,-3.64545,0.105929
-525,253,-3.62933,-0.228699,-0.006699,-0.00622689,0.00623995,-0.000218534,-0.0127074,0.804304,0.00839967,0.0118774,699,771,-3.62933,0.228679
-518,253,-3.62238,-0.306152,-0.00809291,-0.00799512,0.00743825,-0.000605599,-0.0154824,0.788685,0.0101258,0.0142664,706,771,-3.62237,0.306182
-511,253,-3.66339,-0.381775,-0.00913094,-0.0100984,0.00788939,-0.00171047,-0.0175189,0.754778,0.0111529,0.0305507,713,771,-3.66339,0.381801
-504,253,-3.80249,-0.369385,-0.00950247,-0.0124686,0.00809143,-0.00275931,-0.0192117,0.69476,0.0119943,0.0428351,720,771,-3.80248,0.369362
-497,253,-3.73065,-0.381042,-0.00947671,-0.0150059,0.00789659,-0.00387474,-0.0206078,0.617017,0.0126464,0.0458874,727,771,-3.73067,0.381038
-490,253,-2.26868,1.97369,0,0,0,0,0,0,0,-1,734,771,-2.26868,-1.97371
-483,253,-3.00031,2.57947,-0.00701775,-0.0195714,0.00477238,-0.00540952,-0.0211796,0.325036,0.0127064,0.0448344,741,771,-3.00028,-2.57947
-476,253,-4.0827,2.92688,-0.00389673,-0.0209279,0.00183921,-0.00370038,-0.0211242,0.106357,0.0130258,0.0450914,748,771,-4.08273,-2.9269
-469,253,-5.19025,3.28223,0,0,0,0,0,0,0,-1,755,771,-5.19025,-3.28221
-462,253,-6.4566,0.636475,0.00794157,-0.0203902,-0.00740485,0.00976018,-0.0222089,-0.24083,0.018918,0.0453617,762,771,-6.45663,-0.636485
-455,253,-6.33008,0.681702,0.0171926,-0.0172152,-0.0140735,0.0222156,-0.0222383,-0.342823,0.0256655,0.0344087,769,771,-6.33011,-0.681714
-448,253,0,0,0,0,0,0,0,0,0,-1,776,771,0,0
-441,253,0,0,0,0,0,0,0,0,0,-1,783,771,0,0
-434,253,0,0,0,0,0,0,0,0,0,-1,790,771,0,0
-427,253,0,0,0,0,0,0,0,0,0,-1,797,771,0,0
-420,253,0,0,0,0,0,0,0,0,0,-1,804,771,0,0
-413,253,0,0,0,0,0,0,0,0,0,-1,811,771,0,0
-406,253,0,0,0,0,0,0,0,0,0,-1,818,771,0,0
-399,253,0,0,0,0,0,0,0,0,0,-1,825,771,0,0
-392,253,0,0,0,0,0,0,0,0,0,-1,832,771,0,0
-385,253,0,0,0,0,0,0,0,0,0,-1,839,771,0,0
-378,253,0,0,0,0,0,0,0,0,0,-1,846,771,0,0
-371,253,0,0,0,0,0,0,0,0,0,-1,853,771,0,0
-364,253,0,0,0,0,0,0,0,0,0,-1,860,771,0,0
-357,253,0,0,0,0,0,0,0,0,0,-1,867,771,0,0
-350,253,0,0,0,0,0,0,0,0,0,-1,874,771,0,0
-343,253,0,0,0,0,0,0,0,0,0,-1,881,771,0,0
-336,253,0,0,0,0,0,0,0,0,0,-1,888,771,0,0
-329,253,0,0,0,0,0,0,0,0,0,-1,895,771,0,0
-322,253,0,0,0,0,0,0,0,0,0,-1,902,771,0,0
-315,253,0,0,0,0,0,0,0,0,0,-1,909,771,0,0
-308,253,0,0,0,0,0,0,0,0,0,-1,916,771,0,0
-301,253,0,0,0,0,0,0,0,0,0,-1,923,771,0,0
-294,253,0,0,0,0,0,0,0,0,0,-1,930,771,0,0
-287,253,0,0,0,0,0,0,0,0,0,-1,937,771,0,0
-280,253,0,0,0,0,0,0,0,0,0,-1,944,771,0,0
-273,253,0,0,0,0,0,0,0,0,0,-1,951,771,0,0
-266,253,0,0,0,0,0,0,0,0,0,-1,958,771,0,0
-259,253,0,0,0,0,0,0,0,0,0,-1,965,771,0,0
-252,253,0,0,0,0,0,0,0,0,0,-1,972,771,0,0
-245,253,0,0,0,0,0,0,0,0,0,-1,979,771,0,0
-238,253,0,0,0,0,0,0,0,0,0,-1,986,771,0,0
-231,253,0,0,0,0,0,0,0,0,0,-1,993,771,0,0
-224,253,0,0,0,0,0,0,0,0,0,-1,1000,771,0,0
-217,253,0,0,0,0,0,0,0,0,0,-1,1007,771,0,0
-210,253,0,0,0,0,0,0,0,0,0,-1,1014,771,0,0
-203,253,0,0,0,0,0,0,0,0,0,-1,1021,771,0,0
-196,253,0,0,0,0,0,0,0,0,0,-1,1028,771,0,0
-189,253,0,0,0,0,0,0,0,0,0,-1,1035,771,0,0
-182,253,0,0,0,0,0,0,0,0,0,-1,1042,771,0,0
-175,253,0,0,0,0,0,0,0,0,0,-1,1049,771,0,0
-168,253,0,0,0,0,0,0,0,0,0,-1,1056,771,0,0
-161,253,0,0,0,0,0,0,0,0,0,-1,1063,771,0,0
-154,253,0,0,0,0,0,0,0,0,0,-1,1070,771,0,0
-147,253,0,0,0,0,0,0,0,0,0,-1,1077,771,0,0
-140,253,0,0,0,0,0,0,0,0,0,-1,1084,771,0,0
-133,253,0,0,0,0,0,0,0,0,0,-1,1091,771,0,0
-126,253,0,0,0,0,0,0,0,0,0,-1,1098,771,0,0
-119,253,0,0,0,0,0,0,0,0,0,-1,1105,771,0,0
-112,253,0,0,0,0,0,0,0,0,0,-1,1112,771,0,0
-105,253,0,0,0,0,0,0,0,0,0,-1,1119,771,0,0
-98,253,0,0,0,0,0,0,0,0,0,-1,1126,771,0,0
-91,253,0,0,0,0,0,0,0,0,0,-1,1133,771,0,0
-84,253,0,0,0,0,0,0,0,0,0,-1,1140,771,0,0
-77,253,0,0,0,0,0,0,0,0,0,-1,1147,771,0,0
-70,253,0,0,0,0,0,0,0,0,0,-1,1154,771,0,0
-63,253,0,0,0,0,0,0,0,0,0,-1,1161,771,0,0
-56,253,0,0,0,0,0,0,0,0,0,-1,1168,771,0,0
-49,253,0,0,0,0,0,0,0,0,0,-1,1175,771,0,0
-42,253,0,0,0,0,0,0,0,0,0,-1,1182,771,0,0
-35,253,0,0,0,0,0,0,0,0,0,-1,1189,771,0,0
-28,253,0,0,0,0,0,0,0,0,0,-1,1196,771,0,0
-21,253,0,0,0,0,0,0,0,0,0,-1,1203,771,0,0
-14,253,0,0,0,0,0,0,0,0,0,-1,1210,771,0,0
-7,253,0,0,0,0,0,0,0,0,0,-1,1217,771,0,0
0,253,0,0,0,0,0,0,0,0,0,-1,1224,771,0,0
7,253,0,0,0,0,0,0,0,0,0,-1,1231,771,0,0
14,253,0,0,0,0,0,0,0,0,0,-1,1238,771,0,0
21,253,0,0,0,0,0,0,0,0,0,-1,1245,771,0,0
28,253,0,0,0,0,0,0,0,0,0,-1,1252,771,0,0
35,253,0,0,0,0,0,0,0,0,0,-1,1259,771,0,0
42,253,0,0,0,0,0,0,0,0,0,-1,1266,771,0,0
49,253,0,0,0,0,0,0,0,0,0,-1,1273,771,0,0
56,253,0,0,0,0,0,0,0,0,0,-1,1280,771,0,0
63,253,0,0,0,0,0,0,0,0,0,-1,1287,771,0,0
70,253,0,0,0,0,0,0,0,0,0,-1,1294,771,0,0
77,253,0,0,0,0,0,0,0,0,0,-1,1301,771,0,0
84,253,0,0,0,0,0,0,0,0,0,-1,1308,771,0,0
91,253,0,0,0,0,0,0,0,0,0,-1,1315,771,0,0
98,253,0,0,0,0,0,0,0,0,0,-1,1322,771,0,0
105,253,0,0,0,0,0,0,0,0,0,-1,1329,771,0,0
112,253,0,0,0,0,0,0,0,0,0,-1,1336,771,0,0
119,253,0,0,0,0,0,0,0,0,0,-1,1343,771,0,0
126,253,0,0,0,0,0,0,0,0,0,-1,1350,771,0,0
133,253,0,0,0,0,0,0,0,0,0,-1,1357,771,0,0
140,253,0,0,0,0,0,0,0,0,0,-1,1364,771,0,0
147,253,0,0,0,0,0,0,0,0,0,-1,1371,771,0,0
154,253,0,0,0,0,0,0,0,0,0,-1,1378,771,0,0
161,253,0,0,0,0,0,0,0,0,0,-1,1385,771,0,0
168,253,0,0,0,0,0,0,0,0,0,-1,1392,771,0,0
175,253,0,0,0,0,0,0,0,0,0,-1,1399,771,0,0
182,253,0,0,0,0,0,0,0,0,0,-1,1406,771,0,0
189,253,0,0,0,0,0,0,0,0,0,-1,1413,771,0,0
196,253,0,0,0,0,0,0,0,0,0,-1,1420,771,0,0
203,253,0,0,0,0,0,0,0,0,0,-1,1427,771,0,0
210,253,0,0,0,0,0,0,0,0,0,-1,1434,771,0,0
217,253,0,0,0,0,0,0,0,0,0,-1,1441,771,0,0
224,253,0,0,0,0,0,0,0,0,0,-1,1448,771,0,0
231,253,0,0,0,0,0,0,0,0,0,-1,1455,771,0,0
238,253,0,0,0,0,0,0,0,0,0,-1,1462,771,0,0
245,253,0,0,0,0,0,0,0,0,0,-1,1469,771,0,0
252,253,0,0,0,0,0,0,0,0,0,-1,1476,771,0,0
259,253,0,0,0,0,0,0,0,0,0,-1,1483,771,0,0
266,253,0,0,0,0,0,0,0,0,0,-1,1490,771,0,0
273,253,0,0,0,0,0,0,0,0,0,-1,1497,771,0,0
280,253,0,0,0,0,0,0,0,0,0,-1,1504,771,0,0
287,253,0,0,0,0,0,0,0,0,0,-1,1511,771,0,0
294,253,0,0,0,0,0,0,0,0,0,-1,1518,771,0,0
301,253,0,0,0,0,0,0,0,0,0,-1,1525,771,0,0
308,253,0,0,0,0,0,0,0,0,0,-1,1532,771,0,0
315,253,0,0,0,0,0,0,0,0,0,-1,1539,771,0,0
322,253,0,0,0,0,0,0,0,0,0,-1,1546,771,0,0
329,253,0,0,0,0,0,0,0,0,0,-1,1553,771,0,0
336,253,0,0,0,0,0,0,0,0,0,-1,1560,771,0,0
343,253,0,0,0,0,0,0,0,0,0,-1,1567,771,0,0
350,253,0,0,0,0,0,0,0,0,0,-1,1574,771,0,0
357,253,0,0,0,0,0,0,0,0,0,-1,1581,771,0,0
364,253,0,0,0,0,0,0,0,0,0,-1,1588,771,0,0
371,253,0,0,0,0,0,0,0,0,0,-1,1595,771,0,0
378,253,0,0,0,0,0,0,0,0,0,-1,1602,771,0,0
385,253,0,0,0,0,0,0,0,0,0,-1,1609,771,0,0
392,253,0,0,0,0,0,0,0,0,0,-1,1616,771,0,0
399,253,0,0,0,0,0,0,0,0,0,-1,1623,771,0,0
406,253,0,0,0,0,0,0,0,0,0,-1,1630,771,0,0
413,253,0,0,0,0,0,0,0,0,0,-1,1637,771,0,0
420,253,0,0,0,0,0,0,0,0,0,-1,1644,771,0,0
427,253,0,0,0,0,0,0,0,0,0,-1,1651,771,0,0
434,253,0,0,0,0,0,0,0,0,0,-1,1658,771,0,0
441,253,0,0,0,0,0,0,0,0,0,-1,1665,771,0,0
448,253,0,0,0,0,0,0,0,0,0,-1,1672,771,0,0
455,253,0,0,0,0,0,0,0,0,0,-1,1679,771,0,0
462,253,0,0,0,0,0,0,0,0,0,-1,1686,771,0,0
469,253,0,0,0,0,0,0,0,0,0,-1,1693,771,0,0
476,253,0,0,0,0,0,0,0,0,0,-1,1700,771,0,0
483,253,0,0,0,0,0,0,0,0,0,-1,1707,771,0,0
490,253,0,0,0,0,0,0,0,0,0,-1,1714,771,0,0
497,253,0,0,0,0,0,0,0,0,0,-1,1721,771,0,0
504,253,0,0,0,0,0,0,0,0,0,-1,1728,771,0,0
511,253,0,0,0,0,0,0,0,0,0,-1,1735,771,0,0
518,253,0,0,0,0,0,0,0,0,0,-1,1742,771,0,0
525,253,0,0,0,0,0,0,0,0,0,-1,1749,771,0,0
532,253,0,0,0,0,0,0,0,0,0,-1,1756,771,0,0
539,253,0,0,0,0,0,0,0,0,0,-1,1763,771,0,0
546,253,0,0,0,0,0,0,0,0,0,-1,1770,771,0,0
553,253,0,0,0,0,0,0,0,0,0,-1,1777,771,0,0
560,253,0,0,0,0,0,0,0,0,0,-1,1784,771,0,0
567,253,0,0,0,0,0,0,0,0,0,-1,1791,771,0,0
574,253,11.8453,1.6286,-0.0037167,0.0166527,0.00400499,0.0174119,-0.00447586,1.38347,0.0133523,0.0341321,1798,771,11.8453,-1.62861
581,253,11.7863,1.75134,-0.00212649,0.0173546,0.00145973,0.0174634,-0.00223526,1.49642,0.0124544,0.0344148,1805,771,11.7862,-1.75136
588,253,11.8302,1.80157,-0.0023361,0.016553,-0.000537718,0.0165683,-0.00235139,-1.54236,0.011907,0.0409717,1812,771,11.8302,-1.80155
595,253,12.354,1.38147,-0.00284219,0.0153013,-0.00197498,0.0155138,-0.00305468,-1.46362,0.0114968,0.0448641,1819,771,12.354,-1.38146
602,253,12.6191,1.22748,0,0,0,0,0,0,0,-1,1826,771,12.6192,-1.2275
609,253,11.2087,2.62476,0,0,0,0,0,0,0,-1,1833,771,11.2087,-2.62477
616,253,8.83435,1.76935,0,0,0,0,0,0,0,-1,1840,771,8.83434,-1.76937
623,253,8.78503,1.60834,-0.00420197,0.00853386,-0.00454675,0.00999047,-0.00565858,-1.26076,0.00914965,0.041356,1847,771,8.78505,-1.60837
630,253,8.82141,1.14185,-0.00393194,0.00626074,-0.00452307,0.00797842,-0.00564963,-1.20786,0.00790635,0.0471684,1854,771,8.82145,-1.14186
637,253,8.82751,0.699768,-0.00403062,0.00464549,-0.00429185,0.00640979,-0.00579492,-1.18077,0.00704937,0.0474971,1861,771,8.82754,-0.699745
644,253,8.73267,0.652161,-0.00409926,0.00311351,-0.0037985,0.00474494,-0.00573068,-1.16513,0.00605702,0.037356,1868,771,8.73265,-0.652146
651,253,8.83801,0.786499,-0.00355698,0.00182407,-0.00347268,0.00352654,-0.00525946,-1.11498,0.00510538,0.0221062,1875,771,8.83805,-0.786482
658,253,8.83228,0.958008,-0.00236418,0.000541436,-0.0029246,0.0023542,-0.00417694,-1.01592,0.00381939,0.0180032,1882,771,8.83228,-0.958024
665,253,8.76025,1.06573,-0.00143326,-0.000437556,-0.00244142,0.00155626,-0.00342708,-0.885979,0.00294394,0.020131,1889,771,8.76022,-1.06574
672,253,8.74829,1.15027,-0.000684817,-0.000518014,-0.00218587,0.00158604,-0.00278887,-0.804466,0.00255748,0.0157013,1896,771,8.74832,-1.15026
679,253,8.80737,1.28259,0.000232944,-0.000479424,-0.00182194,0.00173319,-0.00197967,-0.688867,0.00214519,0.0120951,1903,771,8.80743,-1.28262
686,253,8.82288,1.41058,0.00139272,0.00102537,-0.00157843,0.00279812,-0.000380034,-0.727477,0.00200414,0.0158844,1910,771,8.82283,-1.41061
693,253,8.81372,1.54535,0.00311649,0.00310692,-0.00102698,0.00413869,0.00208472,-0.783071,0.0023895,0.0161492,1917,771,8.81374,-1.54533
700,253,8.80994,1.65625,0.00500037,0.00576355,-0.000479049,0.00599441,0.00476951,-1.12172,0.003657,0.0147112,1924,771,8.80994,-1.65622
707,253,8.80005,1.76471,0.00951865,0.00935266,-0.000217713,0.00966865,0.00920266,-0.603296,0.00629619,0.0138743,1931,771,8.80002,-1.76469
714,253,8.78125,1.85443,0.0176661,0.0131717,0.000102178,0.0176684,0.0131694,0.0227192,0.0106024,0.0176858,1938,771,8.78127,-1.85441
721,253,8.78271,1.90924,0.0269419,0.0180941,0.000860477,0.0270248,0.0180112,0.0960539,0.0158884,0.0308722,1945,771,8.78269,-1.90922
728,253,7.65906,0.670898,0,0,0,0,0,0,0,-1,1952,771,7.65911,-0.670896
735,253,6.93018,-0.0387573,0,0,0,0,0,0,0,-1,1959,771,6.93013,0.0387862
742,253,7.81421,-0.646973,0,0,0,0,0,0,0,-1,1966,771,7.81426,0.646944
749,253,11.5519,3.17261,0,0,0,0,0,0,0,-1,1973,771,11.5519,-3.1726
756,253,0,0,0,0,0,0,0,0,0,-1,1980,771,0,0
763,253,0,0,0,0,0,0,0,0,0,-1,1987,771,0,0
770,253,0,0,0,0,0,0,0,0,0,-1,1994,771,0,0
777,253,0,0,0,0,0,0,0,0,0,-1,2001,771,0,0
784,253,0,0,0,0,0,0,0,0,0,-1,2008,771,0,0
791,253,0,0,0,0,0,0,0,0,0,-1,2015,771,0,0
798,253,0,0,0,0,0,0,0,0,0,-1,2022,771,0,0
805,253,0,0,0,0,0,0,0,0,0,-1,2029,771,0,0
812,253,0,0,0,0,0,0,0,0,0,-1,2036,771,0,0
-700,246,0,0,0,0,0,0,0,0,0,-1,524,778,0,0
-693,246,0,0,0,0,0,0,0,0,0,-1,531,778,0,0
-686,246,0,0,0,0,0,0,0,0,0,-1,538,778,0,0
-679,246,0,0,0,0,0,0,0,0,0,-1,545,778,0,0
-672,246,0,0,0,0,0,0,0,0,0,-1,552,778,0,0
-665,246,0,0,0,0,0,0,0,0,0,-1,559,778,0,0
-658,246,0,0,0,0,0,0,0,0,0,-1,566,778,0,0
-651,246,0,0,0,0,0,0,0,0,0,-1,573,778,0,0
-644,246,0,0,0,0,0,0,0,0,0,-1,580,778,0,0
-637,246,-1.39795,2.65826,0,0,0,0,0,0,0,-1,587,778,-1.39796,-2.65826
-630,246,-4.86871,5.95758,0,0,0,0,0,0,0,-1,594,778,-4.86872,-5.95759
-623,246,-4.17126,4.08765,0,0,0,0,0,0,0,-1,601,778,-4.17129,-4.08763
-616,246,-4.09503,3.53442,0.0311675,0.0744802,-0.0327181,0.09206,0.0135877,-1.07775,0.0573829,0.0473371,608,778,-4.09505,-3.53442
-609,246,-4.04523,3.00513,0.0245805,0.059245,-0.0262771,0.0733912,0.0104343,-1.07694,0.0458469,0.0467176,615,778,-4.04522,-3.0051
-602,246,-4.02765,2.49139,0.0187085,0.045944,-0.0208257,0.057209,0.00744347,-1.07495,0.0359162,0.0455516,622,778,-4.02766,-2.49139
-595,246,-3.78998,1.90271,0.0144812,0.0344996,-0.0145596,0.0421587,0.00682214,-1.08653,0.0261303,0.0410709,629,778,-3.78999,-1.90269
-588,246,-3.59833,1.05865,0.00875788,0.0239149,-0.0110462,0.0297323,0.0029404,-1.08606,0.0189178,0.0310344,636,778,-3.59832,-1.05864
-581,246,-3.73962,0.641602,0.00384046,0.0155655,-0.00786301,0.019511,-0.000104968,-1.10573,0.0130424,0.016082,643,778,-3.73962,-0.641631
-574,246,-3.73059,0.496704,0.00133445,0.00961858,-0.00541147,0.0122913,-0.00133823,-1.11205,0.00867472,0.0178307,650,778,-3.73056,-0.496677
-567,246,-3.76196,0.410522,0.000727121,0.00520704,-0.00328916,0.00694653,-0.00101237,-1.08433,0.00500274,0.0162354,657,778,-3.76199,-0.410517
-560,246,-3.75317,0.310059,-0.000679419,0.00236414,-0.00161379,0.0030605,-0.00137577,-1.16343,0.00262212,0.0129247,664,778,-3.75318,-0.310064
-553,246,-3.75085,0.220703,-0.00250407,0.000496515,0.00054814,0.000593512,-0.00260107,1.39565,0.00196204,0.0126312,671,778,-3.75086,-0.220689
-546,246,-3.73969,0.143677,-0.00358336,-0.000936449,0.00235884,0.000444843,-0.00496465,1.04105,0.00346757,0.0107927,678,778,-3.7397,-0.143652
-539,246,-3.72089,0.020752,-0.00459499,-0.00264717,0.00410328,0.00059619,-0.00783835,0.901916,0.00543521,0.0102817,685,778,-3.72089,-0.0207242
-532,246,-3.74048,-0.110168,-0.00590092,-0.00433978,0.005511,0.000445654,-0.0106863,0.85575,0.00727733,0.0116706,692,778,-3.74047,0.110194
-525,246,-3.737,-0.208313,-0.00756948,-0.00610484,0.00672409,-7.33091e-05,-0.013601,0.839639,0.009043,0.012289,699,778,-3.73701,0.208296
-518,246,-3.73254,-0.264221,-0.00885713,-0.00760572,0.00784818,-0.00035834,-0.0161045,0.825177,0.0106189,0.0181423,706,778,-3.73255,0.264219
-511,246,-3.89453,-0.274109,-0.0097291,-0.00935732,0.00820857,-0.00133254,-0.0177539,0.796719,0.0114177,0.0382015,713,778,-3.89456,0.274117
-504,246,-4.11029,-0.346985,-0.0100807,-0.0112998,0.00827953,-0.00238833,-0.0189922,0.748654,0.0119452,0.043077,720,778,-4.11027,0.346955
-497,246,-4.0141,-0.301514,-0.010159,-0.0134129,0.00781695,-0.00380149,-0.0197704,0.682796,0.0121136,0.0472341,727,778,-4.01411,0.301485
-490,246,-4.02496,-0.299072,0,0,0,0,0,0,0,-1,734,778,-4.02497,0.299063
-483,246,-4.03595,-0.327332,0,0,0,0,0,0,0,-1,741,778,-4.03596,0.327341
-476,246,-3.67114,3.63556,0,0,0,0,0,0,0,-1,748,778,-3.67117,-3.63558
-469,246,-6.00659,1.06671,-0.000355747,-0.0172516,-0.0040789,0.00057742,-0.0181848,-0.224908,0.0123202,0.0420251,755,778,-6.00657,-1.06673
-462,246,-6.13177,0.880432,0.00647529,-0.0153116,-0.0102266,0.0105234,-0.0193597,-0.376917,0.0175026,0.0490782,762,778,-6.13175,-0.880436
-455,246,0,0,0,0,0,0,0,0,0,-1,769,778,0,0
-448,246,0,0,0,0,0,0,0,0,0,-1,776,778,0,0
-441,246,0,0,0,0,0,0,0,0,0,-1,783,778,0,0
-434,246,0,0,0,0,0,0,0,0,0,-1,790,778,0,0
-427,246,0,0,0,0,0,0,0,0,0,-1,797,778,0,0
-420,246,0,0,0,0,0,0,0,0,0,-1,804,778,0,0
-413,246,0,0,0,0,0,0,0,0,0,-1,811,778,0,0
-406,246,0,0,0,0,0,0,0,0,0,-1,818,778,0,0
-399,246,0,0,0,0,0,0,0,0,0,-1,825,778,0,0
-392,246,0,0,0,0,0,0,0,0,0,-1,832,778,0,0
-385,246,0,0,0,0,0,0,0,0,0,-1,839,778,0,0
-378,246,0,0,0,0,0,0,0,0,0,-1,846,778,0,0
-371,246,0,0,0,0,0,0,0,0,0,-1,853,778,0,0
-364,246,0,0,0,0,0,0,0,0,0,-1,860,778,0,0
-357,246,0,0,0,0,0,0,0,0,0,-1,867,778,0,0
-350,246,0,0,0,0,0,0,0,0,0,-1,874,778,0,0
-343,246,0,0,0,0,0,0,0,0,0,-1,881,778,0,0
-336,246,0,0,0,0,0,0,0,0,0,-1,888,778,0,0
-329,246,0,0,0,0,0,0,0,0,0,-1,895,778,0,0
-322,246,0,0,0,0,0,0,0,0,0,-1,902,778,0,0
-315,246,0,0,0,0,0,0,0,0,0,-1,909,778,0,0
-308,246,0,0,0,0,0,0,0,0,0,-1,916,778,0,0
-301,246,0,0,0,0,0,0,0,0,0,-1,923,778,0,0
-294,246,0,0,0,0,0,0,0,0,0,-1,930,778,0,0
-287,246,0,0,0,0,0,0,0,0,0,-1,937,778,0,0
-280,246,0,0,0,0,0,0,0,0,0,-1,944,778,0,0
-273,246,0,0,0,0,0,0,0,0,0,-1,951,778,0,0
-266,246,0,0,0,0,0,0,0,0,0,-1,958,778,0,0
-259,246,0,0,0,0,0,0,0,0,0,-1,965,778,0,0
-252,246,0,0,0,0,0,0,0,0,0,-1,972,778,0,0
-245,246,0,0,0,0,0,0,0,0,0,-1,979,778,0,0
-238,246,0,0,0,0,0,0,0,0,0,-1,986,778,0,0
-231,246,0,0,0,0,0,0,0,0,0,-1,993,778,0,0
-224,246,0,0,0,0,0,0,0,0,0,-1,1000,778,0,0
-217,246,0,0,0,0,0,0,0,0,0,-1,1007,778,0,0
-210,246,0,0,0,0,0,0,0,0,0,-1,1014,778,0,0
-203,246,0,0,0,0,0,0,0,0,0,-1,1021,778,0,0
-196,246,0,0,0,0,0,0,0,0,0,-1,1028,778,0,0
-189,246,0,0,0,0,0,0,0,0,0,-1,1035,778,0,0
-182,246,0,0,0,0,0,0,0,0,0,-1,1042,778,0,0
-175,246,0,0,0,0,0,0,0,0,0,-1,1049,778,0,0
-168,246,0,0,0,0,0,0,0,0,0,-1,1056,778,0,0
-161,246,0,0,0,0,0,0,0,0,0,-1,1063,778,0,0
-154,246,0,0,0,0,0,0,0,0,0,-1,1070,778,0,0
-147,246,0,0,0,0,0,0,0,0,0,-1,1077,778,0,0
-140,246,0,0,0,0,0,0,0,0,0,-1,1084,778,0,0
-133,246,0,0,0,0,0,0,0,0,0,-1,1091,778,0,0
-126,246,0,0,0,0,0,0,0,0,0,-1,1098,778,0,0
-119,246,0,0,0,0,0,0,0,0,0,-1,1105,778,0,0
-112,246,0,0,0,0,0,0,0,0,0,-1,1112,778,0,0
-105,246,0,0,0,0,0,0,0,0,0,-1,1119,778,0,0
-98,246,0,0,0,0,0,0,0,0,0,-1,1126,778,0,0
-91,246,0,0,0,0,0,0,0,0,0,-1,1133,778,0,0
-84,246,0,0,0,0,0,0,0,0,0,-1,1140,778,0,0
-77,246,0,0,0,0,0,0,0,0,0,-1,1147,778,0,0
-70,246,0,0,0,0,0,0,0,0,0,-1,1154,778,0,0
-63,246,0,0,0,0,0,0,0,0,0,-1,1161,778,0,0
-56,246,0,0,0,0,0,0,0,0,0,-1,1168,778,0,0
-49,246,0,0,0,0,0,0,0,0,0,-1,1175,778,0,0
-42,246,0,0,0,0,0,0,0,0,0,-1,1182,778,0,0
-35,246,0,0,0,0,0,0,0,0,0,-1,1189,778,0,0
-28,246,0,0,0,0,0,0,0,0,0,-1,1196,778,0,0
-21,246,0,0,0,0,0,0,0,0,0,-1,1203,778,0,0
-14,246,0,0,0,0,0,0,0,0,0,-1,1210,778,0,0
-7,246,0,0,0,0,0,0,0,0,0,-1,1217,778,0,0
0,246,0,0,0,0,0,0,0,0,0,-1,1224,778,0,0
7,246,0,0,0,0,0,0,0,0,0,-1,1231,778,0,0
14,246,0,0,0,0,0,0,0,0,0,-1,1238,778,0,0
21,246,0,0,0,0,0,0,0,0,0,-1,1245,778,0,0
28,246,0,0,0,0,0,0,0,0,0,-1,1252,778,0,0
35,246,0,0,0,0,0,0,0,0,0,-1,1259,778,0,0
42,246,0,0,0,0,0,0,0,0,0,-1,1266,778,0,0
49,246,0,0,0,0,0,0,0,0,0,-1,1273,778,0,0
56,246,0,0,0,0,0,0,0,0,0,-1,1280,778,0,0
63,246,0,0,0,0,0,0,0,0,0,-1,1287,778,0,0
70,246,0,0,0,0,0,0,0,0,0,-1,1294,778,0,0
77,246,0,0,0,0,0,0,0,0,0,-1,1301,778,0,0
84,246,0,0,0,0,0,0,0,0,0,-1,1308,778,0,0
91,246,0,0,0,0,0,0,0,0,0,-1,1315,778,0,0
98,246,0,0,0,0,0,0,0,0,0,-1,1322,778,0,0
105,246,0,0,0,0,0,0,0,0,0,-1,1329,778,0,0
112,246,0,0,0,0,0,0,0,0,0,-1,1336,778,0,0
119,246,0,0,0,0,0,0,0,0,0,-1,1343,778,0,0
126,246,0,0,0,0,0,0,0,0,0,-1,1350,778,0,0
133,246,0,0,0,0,0,0,0,0,0,-1,1357,778,0,0
140,246,0,0,0,0,0,0,0,0,0,-1,1364,778,0,0
147,246,0,0,0,0,0,0,0,0,0,-1,1371,778,0,0
154,246,0,0,0,0,0,0,0,0,0,-1,1378,778,0,0
161,246,0,0,0,0,0,0,0,0,0,-1,1385,778,0,0
168,246,0,0,0,0,0,0,0,0,0,-1,1392,778,0,0
175,246,0,0,0,0,0,0,0,0,0,-1,1399,778,0,0
182,246,0,0,0,0,0,0,0,0,0,-1,1406,778,0,0
189,246,0,0,0,0,0,0,0,0,0,-1,1413,778,0,0
196,246,0,0,0,0,0,0,0,0,0,-1,1420,778,0,0
203,246,0,0,0,0,0,0,0,0,0,-1,1427,778,0,0
210,246,0,0,0,0,0,0,0,0,0,-1,1434,778,0,0
217,246,0,0,0,0,0,0,0,0,0,-1,1441,778,0,0
224,246,0,0,0,0,0,0,0,0,0,-1,1448,778,0,0
231,246,0,0,0,0,0,0,0,0,0,-1,1455,778,0,0
238,246,0,0,0,0,0,0,0,0,0,-1,1462,778,0,0
245,246,0,0,0,0,0,0,0,0,0,-1,1469,778,0,0
252,246,0,0,0,0,0,0,0,0,0,-1,1476,778,0,0
259,246,0,0,0,0,0,0,0,0,0,-1,1483,778,0,0
266,246,0,0,0,0,0,0,0,0,0,-1,1490,778,0,0
273,246,0,0,0,0,0,0,0,0,0,-1,1497,778,0,0
280,246,0,0,0,0,0,0,0,0,0,-1,1504,778,0,0
287,246,0,0,0,0,0,0,0,0,0,-1,1511,778,0,0
294,246,0,0,0,0,0,0,0,0,0,-1,1518,778,0,0
301,246,0,0,0,0,0,0,0,0,0,-1,1525,778,0,0
308,246,0,0,0,0,0,0,0,0,0,-1,1532,778,0,0
315,246,0,0,0,0,0,0,0,0,0,-1,1539,778,0,0
322,246,0,0,0,0,0,0,0,0,0,-1,1546,778,0,0
329,246,0,0,0,0,0,0,0,0,0,-1,1553,778,0,0
336,246,0,0,0,0,0,0,0,0,0,-1,1560,778,0,0
343,246,0,0,0,0,0,0,0,0,0,-1,1567,778,0,0
350,246,0,0,0,0,0,0,0,0,0,-1,1574,778,0,0
357,246,0,0,0,0,0,0,0,0,0,-1,1581,778,0,0
364,246,0,0,0,0,0,0,0,0,0,-1,1588,778,0,0
371,246,0,0,0,0,0,0,0,0,0,-1,1595,778,0,0
378,246,0,0,0,0,0,0,0,0,0,-1,1602,778,0,0
385,246,0,0,0,0,0,0,0,0,0,-1,1609,778,0,0
392,246,0,0,0,0,0,0,0,0,0,-1,1616,778,0,0
399,246,0,0,0,0,0,0,0,0,0,-1,1623,778,0,0
406,246,0,0,0,0,0,0,0,0,0,-1,1630,778,0,0
413,246,0,0,0,0,0,0,0,0,0,-1,1637,778,0,0
420,246,0,0,0,0,0,0,0,0,0,-1,1644,778,0,0
427,246,0,0,0,0,0,0,0,0,0,-1,1651,778,0,0
434,246,0,0,0,0,0,0,0,0,0,-1,1658,778,0,0
441,246,0,0,0,0,0,0,0,0,0,-1,1665,778,0,0
448,246,0,0,0,0,0,0,0,0,0,-1,1672,778,0,0
455,246,0,0,0,0,0,0,0,0,0,-1,1679,778,0,0
462,246,0,0,0,0,0,0,0,0,0,-1,1686,778,0,0
469,246,0,0,0,0,0,0,0,0,0,-1,1693,778,0,0
476,246,0,0,0,0,0,0,0,0,0,-1,1700,778,0,0
483,246,0,0,0,0,0,0,0,0,0,-1,1707,778,0,0
490,246,0,0,0,0,0,0,0,0,0,-1,1714,778,0,0
497,246,0,0,0,0,0,0,0,0,0,-1,1721,778,0,0
504,246,0,0,0,0,0,0,0,0,0,-1,1728,778,0,0
511,246,0,0,0,0,0,0,0,0,0,-1,1735,778,0,0
518,246,0,0,0,0,0,0,0,0,0,-1,1742,778,0,0
525,246,0,0,0,0,0,0,0,0,0,-1,1749,778,0,0
532,246,0,0,0,0,0,0,0,0,0,-1,1756,778,0,0
539,246,0,0,0,0,0,0,0,0,0,-1,1763,778,0,0
546,246,0,0,0,0,0,0,0,0,0,-1,1770,778,0,0
553,246,0,0,0,0,0,0,0,0,0,-1,1777,778,0,0
560,246,0,0,0,0,0,0,0,0,0,-1,1784,778,0,0
567,246,0,0,0,0,0,0,0,0,0,-1,1791,778,0,0
574,246,0,0,0,0,0,0,0,0,0,-1,1798,778,0,0
581,246,11.7516,1.79266,0.000997819,0.0132636,0.00249765,0.0137527,0.000508734,1.37742,0.00900368,0.0366594,1805,778,11.7516,-1.79266
588,246,11.8032,1.77997,-0.000342534,0.013984,0.000285159,0.0139897,-0.000348208,1.5509,0.00944469,0.0383895,1812,778,11.8032,-1.77996
595,246,12.1005,1.58649,-0.00171695,0.0137614,-0.00131632,0.0138725,-0.0018281,-1.48656,0.00991405,0.0390063,1819,778,12.1004,-1.58652
602,246,11.6646,2.01813,-0.0027858,0.0128844,-0.00245392,0.0132596,-0.00316109,-1.41904,0.0100604,0.0417757,1826,778,11.6646,-2.01812
609,246,11.4861,2.51025,-0.00368526,0.0115532,-0.00327544,0.0122274,-0.00435947,-1.36779,0.00992909,0.0457389,1833,778,11.4861,-2.51023
616,246,9.05811,0.658875,0,0,0,0,0,0,0,-1,1840,778,9.05806,-0.658847
623,246,9.01038,0.441772,-0.00436132,0.00807817,-0.00424632,0.00938946,-0.00567261,-1.27128,0.00878391,0.0476763,1847,778,9.01038,-0.44177
630,246,8.7229,0.304077,-0.0041797,0.00586936,-0.00430093,0.00745875,-0.00576908,-1.21682,0.00765783,0.040901,1854,778,8.72295,-0.304065
637,246,8.83838,0.6651,-0.00422187,0.00415231,-0.004165,0.00587107,-0.00594062,-1.17942,0.00681952,0.0441568,1861,778,8.83836,-0.665123
644,246,8.74548,0.733521,-0.00427172,0.00254694,-0.003778,0.00422651,-0.00595129,-1.15247,0.00590421,0.043391,1868,778,8.74544,-0.733508
651,246,8.85974,0.854553,-0.00381033,0.001194,-0.00356276,0.00304546,-0.0056618,-1.09154,0.00510223,0.0285829,1875,778,8.85972,-0.854552
658,246,8.93274,0.975708,-0.00273856,-0.000197521,-0.00316609,0.00194346,-0.00487954,-0.976207,0.00405902,0.01951,1882,778,8.93271,-0.975693
665,246,8.88928,1.06641,-0.00188004,-0.00125132,-0.00277562,0.00122768,-0.00435904,-0.841787,0.00339018,0.0199474,1889,778,8.88925,-1.06642
672,246,8.88379,1.17407,-0.00119136,-0.0013907,-0.00250708,0.00121803,-0.00380009,-0.765531,0.00302235,0.0190865,1896,778,8.88382,-1.17405
679,246,8.91199,1.25476,-0.000242164,-0.00157083,-0.00198833,0.00118988,-0.00300287,-0.624171,0.00249498,0.0186687,1903,778,8.912,-1.25474
686,246,8.95459,1.38495,0.000903308,-0.000224214,-0.001622,0.00205673,-0.00137764,-0.618143,0.00199571,0.0198469,1910,778,8.95462,-1.38495
693,246,8.93433,1.5423,0.00251911,0.00166832,-0.00091794,0.00310543,0.001082,-0.568419,0.00182018,0.0155208,1917,778,8.93431,-1.54231
700,246,8.92932,1.65387,0.00435204,0.00412669,-0.000232443,0.00449768,0.00398106,-0.55972,0.00284194,0.0132802,1924,778,8.92933,-1.65387
707,246,8.92432,1.77032,0.00900633,0.00740922,0.000153977,0.00902104,0.00739451,0.0952411,0.00555185,0.013326,1931,778,8.92436,-1.77032
714,246,8.90857,1.87122,0.0173627,0.0107085,0.000609496,0.0174181,0.0106532,0.0905916,0.0101395,0.0123087,1938,778,8.90855,-1.87122
721,246,8.90906,1.93903,0.0266676,0.0149573,0.0014812,0.026852,0.0147729,0.123888,0.015529,0.0154876,1945,778,8.9091,-1.93903
728,246,8.96387,2.05066,0.0398011,0.0201575,0.00249492,0.040113,0.0198455,0.124378,0.0231597,0.0320825,1952,778,8.96384,-2.05067
735,246,8.93201,2.55115,0.0581151,0.0263334,0.00359988,0.0585177,0.0259308,0.111389,0.033858,0.044141,1959,778,8.93202,-2.55116
742,246,10.7456,3.1322,0.083224,0.033391,0.00457064,0.0836398,0.0329752,0.0907106,0.0486481,0.0431843,1966,778,10.7457,-3.13223
749,246,10.8673,3.08868,0.117086,0.0410872,0.00498586,0.117412,0.0407615,0.0652314,0.0688354,0.0449411,1973,778,10.8673,-3.08871
756,246,11.058,3.03204,0,0,0,0,0,0,0,-1,1980,778,11.0579,-3.03204
763,246,0,0,0,0,0,0,0,0,0,-1,1987,778,0,0
770,246,0,0,0,0,0,0,0,0,0,-1,1994,778,0,0
777,246,0,0,0,0,0,0,0,0,0,-1,2001,778,0,0
784,246,0,0,0,0,0,0,0,0,0,-1,2008,778,0,0
791,246,0,0,0,0,0,0,0,0,0,-1,2015,778,0,0
798,246,0,0,0,0,0,0,0,0,0,-1,2022,778,0,0
805,246,0,0,0,0,0,0,0,0,0,-1,2029,778,0,0
812,246,0,0,0,0,0,0,0,0,0,-1,2036,778,0,0
-700,239,0,0,0,0,0,0,0,0,0,-1,524,785,0,0
-693,239,0,0,0,0,0,0,0,0,0,-1,531,785,0,0
-686,239,0,0,0,0,0,0,0,0,0,-1,538,785,0,0
-679,239,0,0,0,0,0,0,0,0,0,-1,545,785,0,0
-672,239,0,0,0,0,0,0,0,0,0,-1,552,785,0,0
-665,239,0,0,0,0,0,0,0,0,0,-1,559,785,0,0
-658,239,0,0,0,0,0,0,0,0,0,-1,566,785,0,0
-651,239,0,0,0,0,0,0,0,0,0,-1,573,785,0,0
-644,239,0,0,0,0,0,0,0,0,0,-1,580,785,0,0
-637,239,-6.1098,5.36023,0,0,0,0,0,0,0,-1,587,785,-6.10979,-5.36022
-630,239,-5.65375,4.86768,0,0,0,0,0,0,0,-1,594,785,-5.65375,-4.86769
-623,239,-6.42773,3.76276,0,0,0,0,0,0,0,-1,601,785,-6.42774,-3.76275
-616,239,-4.59235,3.0188,0,0,0,0,0,0,0,-1,608,785,-4.59234,-3.01878
-609,239,-4.5462,2.34583,0,0,0,0,0,0,0,-1,615,785,-4.54618,-2.34585
-602,239,-4.46741,1.88318,0,0,0,0,0,0,0,-1,622,785,-4.46743,-1.88315
-595,239,-3.97528,1.33875,0,0,0,0,0,0,0,-1,629,785,-3.97527,-1.33871
-588,239,-3.83282,0.729919,0.0094541,0.0233492,-0.0100953,0.0286566,0.00414671,-1.08678,0.0178831,0.0193412,636,785,-3.83279,-0.729902
-581,239,-3.83484,0.623291,0.00378166,0.0149319,-0.00702857,0.018328,0.000385555,-1.12069,0.0120922,0.011146,643,785,-3.83482,-0.623262
-574,239,-3.83643,0.513794,0.000763966,0.0091295,-0.00486721,0.0113643,-0.00147084,-1.14035,0.00811106,0.0121732,650,785,-3.83643,-0.513767
-567,239,-3.85577,0.410217,7.02554e-05,0.00487275,-0.00282953,0.0061826,-0.00123959,-1.13725,0.00459106,0.0127316,657,785,-3.85578,-0.410196
-560,239,-3.85028,0.304443,-0.00136267,0.00210267,-0.00117455,0.00246326,-0.00172325,-1.27293,0.00242964,0.0121337,664,785,-3.8503,-0.304443
-553,239,-3.85413,0.205322,-0.00331643,0.000118782,0.00101114,0.000394307,-0.00359195,1.30477,0.00253631,0.0128857,671,785,-3.85414,-0.205344
-546,239,-3.85742,0.117676,-0.00453425,-0.00141521,0.00285405,0.000277609,-0.00622706,1.03544,0.00424694,0.0136743,678,785,-3.8574,-0.117676
-539,239,-3.84119,0.00201416,-0.00570453,-0.00305198,0.00463218,0.000440056,-0.00919657,0.924827,0.00628287,0.0145273,685,785,-3.8412,-0.00198421
-532,239,-3.82196,-0.11322,-0.00702685,-0.00462624,0.00603728,0.000328903,-0.011982,0.883526,0.00809985,0.0110511,692,785,-3.82196,0.113238
-525,239,-3.82599,-0.18573,-0.00856805,-0.00623699,0.00723388,-7.53524e-05,-0.0147297,0.865272,0.00979478,0.0122996,699,785,-3.82599,0.185746
-518,239,-3.93896,-0.316284,-0.00963621,-0.00750331,0.00829245,-0.000209015,-0.0169305,0.849349,0.011218,0.0312286,706,785,-3.93894,0.316282
-511,239,-4.23364,-0.395081,-0.0102137,-0.00891429,0.00857989,-0.000959532,-0.0181684,0.823187,0.0118054,0.0390183,713,785,-4.23362,0.395085
-504,239,-4.34924,-0.477478,-0.0102349,-0.0103883,0.00852647,-0.00178477,-0.0188384,0.780902,0.0120083,0.041781,720,785,-4.34923,0.477492
-497,239,-4.11902,-0.325439,-0.00995197,-0.0118427,0.00790171,-0.00293926,-0.0188554,0.725862,0.0117141,0.0441467,727,785,-4.119,0.325469
-490,239,-4.16046,-0.360168,0,0,0,0,0,0,0,-1,734,785,-4.16048,0.360151
-483,239,-6.26111,0.909851,-0.00729612,-0.0135074,0.00382644,-0.0054736,-0.0153299,0.444505,0.00897047,0.0442997,741,785,-6.26108,-0.909879
-476,239,-6.16077,0.879089,-0.00424822,-0.0131471,6.36551e-05,-0.00424776,-0.0131475,0.0071527,0.0077475,0.0422204,748,785,-6.16079,-0.87906
-469,239,-6.11676,0.877869,0.000584672,-0.011544,-0.00509142,0.00243859,-0.0133979,-0.349203,0.00984599,0.0453054,755,785,-6.11678,-0.877864
-462,239,-6.15356,0.774109,0.00730281,-0.00808864,-0.0118947,0.0137743,-0.0145601,-0.498271,0.0163609,0.0479939,762,785,-6.15356,-0.774094
-455,239,0,0,0,0,0,0,0,0,0,-1,769,785,0,0
-448,239,0,0,0,0,0,0,0,0,0,-1,776,785,0,0
-441,239,0,0,0,0,0,0,0,0,0,-1,783,785,0,0
-434,239,0,0,0,0,0,0,0,0,0,-1,790,785,0,0
-427,239,0,0,0,0,0,0,0,0,0,-1,797,785,0,0
-420,239,0,0,0,0,0,0,0,0,0,-1,804,785,0,0
-413,239,0,0,0,0,0,0,0,0,0,-1,811,785,0,0
-406,239,0,0,0,0,0,0,0,0,0,-1,818,785,0,0
-399,239,0,0,0,0,0,0,0,0,0,-1,825,785,0,0
-392,239,0,0,0,0,0,0,0,0,0,-1,832,785,0,0
-385,239,0,0,0,0,0,0,0,0,0,-1,839,785,0,0
-378,239,0,0,0,0,0,0,0,0,0,-1,846,785,0,0
-371,239,0,0,0,0,0,0,0,0,0,-1,853,785,0,0
-364,239,0,0,0,0,0,0,0,0,0,-1,860,785,0,0
-357,239,0,0,0,0,0,0,0,0,0,-1,867,785,0,0
-350,239,0,0,0,0,0,0,0,0,0,-1,874,785,0,0
-343,239,0,0,0,0,0,0,0,0,0,-1,881,785,0,0
-336,239,0,0,0,0,0,0,0,0,0,-1,888,785,0,0
-329,239,0,0,0,0,0,0,0,0,0,-1,895,785,0,0
-322,239,0,0,0,0,0,0,0,0,0,-1,902,785,0,0
-315,239,0,0,0,0,0,0,0,0,0,-1,909,785,0,0
-308,239,0,0,0,0,0,0,0,0,0,-1,916,785,0,0
-301,239,0,0,0,0,0,0,0,0,0,-1,923,785,0,0
-294,239,0,0,0,0,0,0,0,0,0,-1,930,785,0,0
-287,239,0,0,0,0,0,0,0,0,0,-1,937,785,0,0
-280,239,0,0,0,0,0,0,0,0,0,-1,944,785,0,0
-273,239,0,0,0,0,0,0,0,0,0,-1,951,785,0,0
-266,239,0,0,0,0,0,0,0,0,0,-1,958,785,0,0
-259,239,0,0,0,0,0,0,0,0,0,-1,965,785,0,0
-252,239,0,0,0,0,0,0,0,0,0,-1,972,785,0,0
-245,239,0,0,0,0,0,0,0,0,0,-1,979,785,0,0
-238,239,0,0,0,0,0,0,0,0,0,-1,986,785,0,0
-231,239,0,0,0,0,0,0,0,0,0,-1,993,785,0,0
-224,239,0,0,0,0,0,0,0,0,0,-1,1000,785,0,0
-217,239,0,0,0,0,0,0,0,0,0,-1,1007,785,0,0
-210,239,0,0,0,0,0,0,0,0,0,-1,1014,785,0,0
-203,239,0,0,0,0,0,0,0,0,0,-1,1021,785,0,0
-196,239,0,0,0,0,0,0,0,0,0,-1,1028,785,0,0
-189,239,0,0,0,0,0,0,0,0,0,-1,1035,785,0,0
-182,239,0,0,0,0,0,0,0,0,0,-1,1042,785,0,0
-175,239,0,0,0,0,0,0,0,0,0,-1,1049,785,0,0
-168,239,0,0,0,0,0,0,0,0,0,-1,1056,785,0,0
-161,239,0,0,0,0,0,0,0,0,0,-1,1063,785,0,0
-154,239,0,0,0,0,0,0,0,0,0,-1,1070,785,0,0
-147,239,0,0,0,0,0,0,0,0,0,-1,1077,785,0,0
-140,239,0,0,0,0,0,0,0,0,0,-1,1084,785,0,0
-133,239,0,0,0,0,0,0,0,0,0,-1,1091,785,0,0
-126,239,0,0,0,0,0,0,0,0,0,-1,1098,785,0,0
-119,239,0,0,0,0,0,0,0,0,0,-1,1105,785,0,0
-112,239,0,0,0,0,0,0,0,0,0,-1,1112,785,0,0
-105,239,0,0,0,0,0,0,0,0,0,-1,1119,785,0,0
-98,239,0,0,0,0,0,0,0,0,0,-1,1126,785,0,0
-91,239,0,0,0,0,0,0,0,0,0,-1,1133,785,0,0
-84,239,0,0,0,0,0,0,0,0,0,-1,1140,785,0,0
-77,239,0,0,0,0,0,0,0,0,0,-1,1147,785,0,0
-70,239,0,0,0,0,0,0,0,0,0,-1,1154,785,0,0
-63,239,0,0,0,0,0,0,0,0,0,-1,1161,785,0,0
-56,239,0,0,0,0,0,0,0,0,0,-1,1168,785,0,0
-49,239,0,0,0,0,0,0,0,0,0,-1,1175,785,0,0
-42,239,0,0,0,0,0,0,0,0,0,-1,1182,785,0,0
-35,239,0,0,0,0,0,0,0,0,0,-1,1189,785,0,0
-28,239,0,0,0,0,0,0,0,0,0,-1,1196,785,0,0
-21,239,0,0,0,0,0,0,0,0,0,-1,1203,785,0,0
-14,239,0,0,0,0,0,0,0,0,0,-1,1210,785,0,0
-7,239,0,0,0,0,0,0,0,0,0,-1,1217,785,0,0
0,239,0,0,0,0,0,0,0,0,0,-1,1224,785,0,0
7,239,0,0,0,0,0,0,0,0,0,-1,1231,785,0,0
14,239,0,0,0,0,0,0,0,0,0,-1,1238,785,0,0
21,239,0,0,0,0,0,0,0,0,0,-1,1245,785,0,0
28,239,0,0,0,0,0,0,0,0,0,-1,1252,785,0,0
35,239,0,0,0,0,0,0,0,0,0,-1,1259,785,0,0
42,239,0,0,0,0,0,0,0,0,0,-1,1266,785,0,0
49,239,0,0,0,0,0,0,0,0,0,-1,1273,785,0,0
56,239,0,0,0,0,0,0,0,0,0,-1,1280,785,0,0
63,239,0,0,0,0,0,0,0,0,0,-1,1287,785,0,0
70,239,0,0,0,0,0,0,0,0,0,-1,1294,785,0,0
77,239,0,0,0,0,0,0,0,0,0,-1,1301,785,0,0
84,239,0,0,0,0,0,0,0,0,0,-1,1308,785,0,0
91,239,0,0,0,0,0,0,0,0,0,-1,1315,785,0,0
98,239,0,0,0,0,0,0,0,0,0,-1,1322,785,0,0
105,239,0,0,0,0,0,0,0,0,0,-1,1329,785,0,0
112,239,0,0,0,0,0,0,0,0,0,-1,1336,785,0,0
119,239,0,0,0,0,0,0,0,0,0,-1,1343,785,0,0
126,239,0,0,0,0,0,0,0,0,0,-1,1350,785,0,0
133,239,0,0,0,0,0,0,0,0,0,-1,1357,785,0,0
140,239,0,0,0,0,0,0,0,0,0,-1,1364,785,0,0
147,239,0,0,0,0,0,0,0,0,0,-1,1371,785,0,0
154,239,0,0,0,0,0,0,0,0,0,-1,1378,785,0,0
161,239,0,0,0,0,0,0,0,0,0,-1,1385,785,0,0
168,239,0,0,0,0,0,0,0,0,0,-1,1392,785,0,0
175,239,0,0,0,0,0,0,0,0,0,-1,1399,785,0,0
182,239,0,0,0,0,0,0,0,0,0,-1,1406,785,0,0
189,239,0,0,0,0,0,0,0,0,0,-1,1413,785,0,0
196,239,0,0,0,0,0,0,0,0,0,-1,1420,785,0,0
203,239,0,0,0,0,0,0,0,0,0,-1,1427,785,0,0
210,239,0,0,0,0,0,0,0,0,0,-1,1434,785,0,0
217,239,0,0,0,0,0,0,0,0,0,-1,1441,785,0,0
224,239,0,0,0,0,0,0,0,0,0,-1,1448,785,0,0
231,239,0,0,0,0,0,0,0,0,0,-1,1455,785,0,0
238,239,0,0,0,0,0,0,0,0,0,-1,1462,785,0,0
245,239,0,0,0,0,0,0,0,0,0,-1,1469,785,0,0
252,239,0,0,0,0,0,0,0,0,0,-1,1476,785,0,0
259,239,0,0,0,0,0,0,0,0,0,-1,1483,785,0,0
266,239,0,0,0,0,0,0,0,0,0,-1,1490,785,0,0
273,239,0,0,0,0,0,0,0,0,0,-1,1497,785,0,0
280,239,0,0,0,0,0,0,0,0,0,-1,1504,785,0,0
287,239,0,0,0,0,0,0,0,0,0,-1,1511,785,0,0
294,239,0,0,0,0,0,0,0,0,0,-1,1518,785,0,0
301,239,0,0,0,0,0,0,0,0,0,-1,1525,785,0,0
308,239,0,0,0,0,0,0,0,0,0,-1,1532,785,0,0
315,239,0,0,0,0,0,0,0,0,0,-1,1539,785,0,0
322,239,0,0,0,0,0,0,0,0,0,-1,1546,785,0,0
329,239,0,0,0,0,0,0,0,0,0,-1,1553,785,0,0
336,239,0,0,0,0,0,0,0,0,0,-1,1560,785,0,0
343,239,0,0,0,0,0,0,0,0,0,-1,1567,785,0,0
350,239,0,0,0,0,0,0,0,0,0,-1,1574,785,0,0
357,239,0,0,0,0,0,0,0,0,0,-1,1581,785,0,0
364,239,0,0,0,0,0,0,0,0,0,-1,1588,785,0,0
371,239,0,0,0,0,0,0,0,0,0,-1,1595,785,0,0
378,239,0,0,0,0,0,0,0,0,0,-1,1602,785,0,0
385,239,0,0,0,0,0,0,0,0,0,-1,1609,785,0,0
392,239,0,0,0,0,0,0,0,0,0,-1,1616,785,0,0
399,239,0,0,0,0,0,0,0,0,0,-1,1623,785,0,0
406,239,0,0,0,0,0,0,0,0,0,-1,1630,785,0,0
413,239,0,0,0,0,0,0,0,0,0,-1,1637,785,0,0
420,239,0,0,0,0,0,0,0,0,0,-1,1644,785,0,0
427,239,0,0,0,0,0,0,0,0,0,-1,1651,785,0,0
434,239,0,0,0,0,0,0,0,0,0,-1,1658,785,0,0
441,239,0,0,0,0,0,0,0,0,0,-1,1665,785,0,0
448,239,0,0,0,0,0,0,0,0,0,-1,1672,785,0,0
455,239,0,0,0,0,0,0,0,0,0,-1,1679,785,0,0
462,239,0,0,0,0,0,0,0,0,0,-1,1686,785,0,0
469,239,0,0,0,0,0,0,0,0,0,-1,1693,785,0,0
476,239,0,0,0,0,0,0,0,0,0,-1,1700,785,0,0
483,239,0,0,0,0,0,0,0,0,0,-1,1707,785,0,0
490,239,0,0,0,0,0,0,0,0,0,-1,1714,785,0,0
497,239,0,0,0,0,0,0,0,0,0,-1,1721,785,0,0
504,239,0,0,0,0,0,0,0,0,0,-1,1728,785,0,0
511,239,0,0,0,0,0,0,0,0,0,-1,1735,785,0,0
518,239,0,0,0,0,0,0,0,0,0,-1,1742,785,0,0
525,239,0,0,0,0,0,0,0,0,0,-1,1749,785,0,0
532,239,0,0,0,0,0,0,0,0,0,-1,1756,785,0,0
539,239,0,0,0,0,0,0,0,0,0,-1,1763,785,0,0
546,239,0,0,0,0,0,0,0,0,0,-1,1770,785,0,0
553,239,0,0,0,0,0,0,0,0,0,-1,1777,785,0,0
560,239,0,0,0,0,0,0,0,0,0,-1,1784,785,0,0
567,239,0,0,0,0,0,0,0,0,0,-1,1791,785,0,0
574,239,0,0,0,0,0,0,0,0,0,-1,1798,785,0,0
581,239,11.7264,1.79126,0.00415403,0.00869388,0.00371552,0.010778,0.00206991,1.05961,0.00660438,0.0361555,1805,785,11.7264,-1.79125
588,239,11.7208,1.81116,0.00177022,0.0108126,0.00137715,0.0110177,0.00156514,1.42296,0.006883,0.0360185,1812,785,11.7208,-1.81114
595,239,11.8529,1.76276,-0.000487725,0.0116351,-0.000377343,0.0116468,-0.000499459,-1.53971,0.00793628,0.0329005,1819,785,11.8529,-1.76279
602,239,11.8755,1.77264,-0.00210808,0.0113761,-0.00164276,0.0115733,-0.00230534,-1.4513,0.00858775,0.0387823,1826,785,11.8755,-1.77263
609,239,11.8611,2.05267,-0.00331332,0.0103569,-0.00260419,0.0108362,-0.00379262,-1.38879,0.00876622,0.0463859,1833,785,11.8611,-2.05268
616,239,11.6653,0.885254,0,0,0,0,0,0,0,-1,1840,785,11.6653,-0.885225
623,239,10.8735,0.0317383,-0.00433084,0.00704548,-0.00381512,0.00820642,-0.00549179,-1.2754,0.00796027,0.0480468,1847,785,10.8735,-0.0317622
630,239,8.94397,0.526672,-0.00422759,0.00490726,-0.00399409,0.0064073,-0.00572762,-1.21153,0.00700977,0.0409758,1854,785,8.944,-0.526651
637,239,8.70898,0.624084,-0.00420189,0.00313221,-0.00398723,0.00488229,-0.00595197,-1.15719,0.00626532,0.0430755,1861,785,8.70895,-0.62406
644,239,8.7887,0.819153,-0.00419483,0.00150458,-0.00373113,0.00334979,-0.00604003,-1.11152,0.00549488,0.0481031,1868,785,8.7887,-0.819169
651,239,8.89917,0.910522,-0.00378179,0.000144848,-0.00362218,0.00230158,-0.00593852,-1.03375,0.00490946,0.0387171,1875,785,8.89914,-0.910492
658,239,9.02661,0.990295,-0.00286089,-0.00122728,-0.00335625,0.00141012,-0.0054983,-0.904762,0.00421494,0.0193341,1882,785,9.02661,-0.9903
665,239,9.05396,1.07983,-0.00210764,-0.00224677,-0.00304477,0.000868361,-0.00522277,-0.773976,0.00380448,0.0141583,1889,785,9.05394,-1.07985
672,239,9.00793,1.18573,-0.00150625,-0.00237534,-0.00275031,0.000843632,-0.00472522,-0.707047,0.00346576,0.0192404,1896,785,9.00793,-1.18575
679,239,9.03052,1.29199,-0.000576654,-0.00265817,-0.00207637,0.000705193,-0.00394002,-0.553079,0.00289056,0.0206997,1903,785,9.03052,-1.29199
686,239,9.06213,1.41217,0.000505,-0.00139854,-0.00155163,0.00137351,-0.00226705,-0.510292,0.00212288,0.0218544,1910,785,9.06217,-1.4122
693,239,9.04285,1.5271,0.00196516,0.000372062,-0.000664616,0.00220602,0.000131208,-0.347675,0.00142895,0.0139524,1917,785,9.04281,-1.52711
700,239,9.03613,1.6416,0.00373659,0.00263918,0.000171556,0.00376279,0.00261299,0.151513,0.00222652,0.0105235,1924,785,9.03608,-1.64161
707,239,9.04028,1.75604,0.00847791,0.00564483,0.000668606,0.00862777,0.00549496,0.220498,0.00504309,0.0108324,1931,785,9.04025,-1.75602
714,239,9.04138,1.84229,0.0169174,0.00843987,0.00122509,0.0170909,0.00826639,0.140676,0.00986919,0.0103596,1938,785,9.04142,-1.84227
721,239,9.04211,1.95135,0.0261883,0.0119464,0.00210091,0.0264917,0.011643,0.143447,0.0153323,0.0168773,1945,785,9.0421,-1.95136
728,239,9.0498,2.06537,0.039147,0.0162292,0.00300028,0.0395333,0.015843,0.128041,0.0229739,0.0329393,1952,785,9.04976,-2.06538
735,239,9.12585,2.69598,0.0570947,0.0213048,0.00382525,0.057499,0.0209005,0.105296,0.0336069,0.0455461,1959,785,9.12587,-2.69598
742,239,9.97705,2.91034,0.0815689,0.0270855,0.00434271,0.0819128,0.0267415,0.079042,0.0482325,0.0433603,1966,785,9.97711,-2.91036
749,239,10.1997,2.88525,0.114343,0.0333421,0.0041391,0.114554,0.0331312,0.0509227,0.0680685,0.0404695,1973,785,10.1997,-2.88524
756,239,10.4261,2.79175,0.157846,0.0396348,0.00260317,0.157904,0.0395775,0.0220071,0.0948695,0.0418214,1980,785,10.4261,-2.79172
763,239,0,0,0,0,0,0,0,0,0,-1,1987,785,0,0
770,239,0,0,0,0,0,0,0,0,0,-1,1994,785,0,0
777,239,0,0,0,0,0,0,0,0,0,-1,2001,785,0,0
784,239,0,0,0,0,0,0,0,0,0,-1,2008,785,0,0
791,239,0,0,0,0,0,0,0,0,0,-1,2015,785,0,0
798,239,0,0,0,0,0,0,0,0,0,-1,2022,785,0,0
805,239,0,0,0,0,0,0,0,0,0,-1,2029,785,0,0
812,239,0,0,0,0,0,0,0,0,0,-1,2036,785,0,0
-700,232,0,0,0,0,0,0,0,0,0,-1,524,792,0,0
-693,232,0,0,0,0,0,0,0,0,0,-1,531,792,0,0
-686,232,0,0,0,0,0,0,0,0,0,-1,538,792,0,0
-679,232,0,0,0,0,0,0,0,0,0,-1,545,792,0,0
-672,232,0,0,0,0,0,0,0,0,0,-1,552,792,0,0
-665,232,0,0,0,0,0,0,0,0,0,-1,559,792,0,0
-658,232,0,0,0,0,0,0,0,0,0,-1,566,792,0,0
-651,232,0,0,0,0,0,0,0,0,0,-1,573,792,0,0
-644,232,-7.70941,5.13202,0.0838057,0.160098,-0.0923773,0.221895,0.0220084,-0.981203,0.141167,0.0477102,580,792,-7.70941,-5.13203
-637,232,-6.97961,4.41498,0.0727858,0.134109,-0.0700049,0.179873,0.0270222,-0.991811,0.112,0.0429575,587,792,-6.97964,-4.41496
-630,232,-6.48578,3.83759,0,0,0,0,0,0,0,-1,594,792,-6.48581,-3.83758
-623,232,-6.21082,2.97156,0.0493177,0.0907353,-0.0421173,0.11696,0.0230934,-1.01389,0.0715289,0.045132,601,792,-6.21079,-2.97157
-616,232,-5.95813,2.2641,0,0,0,0,0,0,0,-1,608,792,-5.95816,-2.26408
-609,232,-5.43268,1.56384,0.0296802,0.0572532,-0.0253431,0.072317,0.0146164,-1.03451,0.0441531,0.0457149,615,792,-5.43265,-1.56383
-602,232,-4.73132,1.29333,0,0,0,0,0,0,0,-1,622,792,-4.73134,-1.29336
-595,232,-3.94904,0.848145,0.0167764,0.0319083,-0.0125684,0.0390123,0.00967242,-1.05634,0.0234584,0.0348334,629,792,-3.94904,-0.84813
-588,232,-3.96063,0.72229,0.00985352,0.0215321,-0.00903236,0.0264483,0.0049373,-1.07235,0.0162386,0.0118543,636,792,-3.96061,-0.72227
-581,232,-3.94568,0.622131,0.00357585,0.0135977,-0.00604155,0.016436,0.000737595,-1.13161,0.0107199,0.00814029,643,792,-3.94568,-0.622145
-574,232,-3.94611,0.520081,0.000199239,0.00825392,-0.00409633,0.00997109,-0.00151793,-1.17385,0.00720685,0.00845407,650,792,-3.94609,-0.520074
-567,232,-3.96063,0.433105,-0.000541307,0.00431226,-0.00217625,0.00514513,-0.00137418,-1.20528,0.00396826,0.00969632,657,792,-3.96063,-0.433091
-560,232,-3.96301,0.335754,-0.00198858,0.0017355,-0.000548848,0.0018147,-0.00206778,-1.42748,0.00224314,0.0115027,664,792,-3.96304,-0.335751
-553,232,-3.97192,0.223083,-0.00390135,-0.000288817,0.00159331,0.000313491,-0.00450366,1.20938,0.0031122,0.0126168,671,792,-3.97194,-0.223108
-546,232,-3.98328,0.121521,-0.00510749,-0.00188964,0.00340663,0.000268897,-0.00726603,1.00602,0.00493609,0.0198443,678,792,-3.9833,-0.121513
-539,232,-3.96674,0.00738525,-0.0062721,-0.00343209,0.00515462,0.00049454,-0.0101987,0.919806,0.00696985,0.023703,685,792,-3.96672,-0.00740535
-532,232,-3.92847,-0.0959473,-0.0075095,-0.00485397,0.0065198,0.000471887,-0.0128354,0.88585,0.00871846,0.0137797,692,792,-3.92847,0.0959397
-525,232,-3.92938,-0.11322,-0.00883254,-0.00630048,0.00767293,0.000210167,-0.0153432,0.867161,0.0102996,0.0204544,699,792,-3.9294,0.113239
-518,232,-4.14575,-0.307617,-0.00966427,-0.00733295,0.00865517,0.000234704,-0.0172319,0.852334,0.011567,0.0428935,706,792,-4.14576,0.307611
-511,232,-4.77216,-0.48584,-0.00995806,-0.00840644,0.00888437,-0.000264075,-0.0181004,0.828949,0.0119799,0.0425693,713,792,-4.77218,0.48584
-504,232,-4.67908,-0.589478,-0.00964989,-0.00941469,0.00871391,-0.000817584,-0.018247,0.792145,0.0119015,0.0421463,720,792,-4.67911,0.589476
-497,232,-4.20764,-0.37323,0,0,0,0,0,0,0,-1,727,792,-4.20762,0.373235
-490,232,-6.24115,0.780518,-0.00773936,-0.0104602,0.00621516,-0.00273747,-0.0154621,0.677653,0.00952758,0.0426468,734,792,-6.24118,-0.780545
-483,232,-6.26965,0.821411,-0.0056714,-0.00995072,0.00336805,-0.00382083,-0.0118013,0.502419,0.00695313,0.0414323,741,792,-6.26967,-0.821388
-476,232,-6.21814,0.715454,-0.00244425,-0.00836981,-0.000767262,-0.00234651,-0.00846754,-0.1267,0.00504805,0.0352066,748,792,-6.21812,-0.715463
-469,232,-6.23242,0.688538,0.00227985,-0.00533563,-0.00643895,0.00595268,-0.00900847,-0.518377,0.00869767,0.0351078,755,792,-6.23244,-0.68854
-462,232,0,0,0,0,0,0,0,0,0,-1,762,792,0,0
-455,232,0,0,0,0,0,0,0,0,0,-1,769,792,0,0
-448,232,0,0,0,0,0,0,0,0,0,-1,776,792,0,0
-441,232,0,0,0,0,0,0,0,0,0,-1,783,792,0,0
-434,232,0,0,0,0,0,0,0,0,0,-1,790,792,0,0
-427,232,0,0,0,0,0,0,0,0,0,-1,797,792,0,0
-420,232,0,0,0,0,0,0,0,0,0,-1,804,792,0,0
-413,232,0,0,0,0,0,0,0,0,0,-1,811,792,0,0
-406,232,0,0,0,0,0,0,0,0,0,-1,818,792,0,0
-399,232,0,0,0,0,0,0,0,0,0,-1,825,792,0,0
-392,232,0,0,0,0,0,0,0,0,0,-1,832,792,0,0
-385,232,0,0,0,0,0,0,0,0,0,-1,839,792,0,0
-378,232,0,0,0,0,0,0,0,0,0,-1,846,792,0,0
-371,232,0,0,0,0,0,0,0,0,0,-1,853,792,0,0
-364,232,0,0,0,0,0,0,0,0,0,-1,860,792,0,0
-357,232,0,0,0,0,0,0,0,0,0,-1,867,792,0,0
-350,232,0,0,0,0,0,0,0,0,0,-1,874,792,0,0
-343,232,0,0,0,0,0,0,0,0,0,-1,881,792,0,0
-336,232,0,0,0,0,0,0,0,0,0,-1,888,792,0,0
-329,232,0,0,0,0,0,0,0,0,0,-1,895,792,0,0
-322,232,0,0,0,0,0,0,0,0,0,-1,902,792,0,0
-315,232,0,0,0,0,0,0,0,0,0,-1,909,792,0,0
-308,232,0,0,0,0,0,0,0,0,0,-1,916,792,0,0
-301,232,0,0,0,0,0,0,0,0,0,-1,923,792,0,0
-294,232,0,0,0,0,0,0,0,0,0,-1,930,792,0,0
-287,232,0,0,0,0,0,0,0,0,0,-1,937,792,0,0
-280,232,0,0,0,0,0,0,0,0,0,-1,944,792,0,0
-273,232,0,0,0,0,0,0,0,0,0,-1,951,792,0,0
-266,232,0,0,0,0,0,0,0,0,0,-1,958,792,0,0
-259,232,0,0,0,0,0,0,0,0,0,-1,965,792,0,0
-252,232,0,0,0,0,0,0,0,0,0,-1,972,792,0,0
-245,232,0,0,0,0,0,0,0,0,0,-1,979,792,0,0
-238,232,0,0,0,0,0,0,0,0,0,-1,986,792,0,0
-231,232,0,0,0,0,0,0,0,0,0,-1,993,792,0,0
-224,232,0,0,0,0,0,0,0,0,0,-1,1000,792,0,0
-217,232,0,0,0,0,0,0,0,0,0,-1,1007,792,0,0
-210,232,0,0,0,0,0,0,0,0,0,-1,1014,792,0,0
-203,232,0,0,0,0,0,0,0,0,0,-1,1021,792,0,0
-196,232,0,0,0,0,0,0,0,0,0,-1,1028,792,0,0
-189,232,0,0,0,0,0,0,0,0,0,-1,1035,792,0,0
-182,232,0,0,0,0,0,0,0,0,0,-1,1042,792,0,0
-175,232,0,0,0,0,0,0,0,0,0,-1,1049,792,0,0
-168,232,0,0,0,0,0,0,0,0,0,-1,1056,792,0,0
-161,232,0,0,0,0,0,0,0,0,0,-1,1063,792,0,0
-154,232,0,0,0,0,0,0,0,0,0,-1,1070,792,0,0
-147,232,0,0,0,0,0,0,0,0,0,-1,1077,792,0,0
-140,232,0,0,0,0,0,0,0,0,0,-1,1084,792,0,0
-133,232,0,0,0,0,0,0,0,0,0,-1,1091,792,0,0
-126,232,0,0,0,0,0,0,0,0,0,-1,1098,792,0,0
-119,232,0,0,0,0,0,0,0,0,0,-1,1105,792,0,0
-112,232,0,0,0,0,0,0,0,0,0,-1,1112,792,0,0
-105,232,0,0,0,0,0,0,0,0,0,-1,1119,792,0,0
-98,232,0,0,0,0,0,0,0,0,0,-1,1126,792,0,0
-91,232,0,0,0,0,0,0,0,0,0,-1,1133,792,0,0
-84,232,0,0,0,0,0,0,0,0,0,-1,1140,792,0,0
-77,232,0,0,0,0,0,0,0,0,0,-1,1147,792,0,0
-70,232,0,0,0,0,0,0,0,0,0,-1,1154,792,0,0
-63,232,0,0,0,0,0,0,0,0,0,-1,1161,792,0,0
-56,232,0,0,0,0,0,0,0,0,0,-1,1168,792,0,0
-49,232,0,0,0,0,0,0,0,0,0,-1,1175,792,0,0
-42,232,0,0,0,0,0,0,0,0,0,-1,1182,792,0,0
-35,232,0,0,0,0,0,0,0,0,0,-1,1189,792,0,0
-28,232,0,0,0,0,0,0,0,0,0,-1,1196,792,0,0
-21,232,0,0,0,0,0,0,0,0,0,-1,1203,792,0,0
-14,232,0,0,0,0,0,0,0,0,0,-1,1210,792,0,0
-7,232,0,0,0,0,0,0,0,0,0,-1,1217,792,0,0
0,232,0,0,0,0,0,0,0,0,0,-1,1224,792,0,0
7,232,0,0,0,0,0,0,0,0,0,-1,1231,792,0,0
14,232,0,0,0,0,0,0,0,0,0,-1,1238,792,0,0
21,232,0,0,0,0,0,0,0,0,0,-1,1245,792,0,0
28,232,0,0,0,0,0,0,0,0,0,-1,1252,792,0,0
35,232,0,0,0,0,0,0,0,0,0,-1,1259,792,0,0
42,232,0,0,0,0,0,0,0,0,0,-1,1266,792,0,0
49,232,0,0,0,0,0,0,0,0,0,-1,1273,792,0,0
56,232,0,0,0,0,0,0,0,0,0,-1,1280,792,0,0
63,232,0,0,0,0,0,0,0,0,0,-1,1287,792,0,0
70,232,0,0,0,0,0,0,0,0,0,-1,1294,792,0,0
77,232,0,0,0,0,0,0,0,0,0,-1,1301,792,0,0
84,232,0,0,0,0,0,0,0,0,0,-1,1308,792,0,0
91,232,0,0,0,0,0,0,0,0,0,-1,1315,792,0,0
98,232,0,0,0,0,0,0,0,0,0,-1,1322,792,0,0
105,232,0,0,0,0,0,0,0,0,0,-1,1329,792,0,0
112,232,0,0,0,0,0,0,0,0,0,-1,1336,792,0,0
119,232,0,0,0,0,0,0,0,0,0,-1,1343,792,0,0
126,232,0,0,0,0,0,0,0,0,0,-1,1350,792,0,0
133,232,0,0,0,0,0,0,0,0,0,-1,1357,792,0,0
140,232,0,0,0,0,0,0,0,0,0,-1,1364,792,0,0
147,232,0,0,0,0,0,0,0,0,0,-1,1371,792,0,0
154,232,0,0,0,0,0,0,0,0,0,-1,1378,792,0,0
161,232,0,0,0,0,0,0,0,0,0,-1,1385,792,0,0
168,232,0,0,0,0,0,0,0,0,0,-1,1392,792,0,0
175,232,0,0,0,0,0,0,0,0,0,-1,1399,792,0,0
182,232,0,0,0,0,0,0,0,0,0,-1,1406,792,0,0
189,232,0,0,0,0,0,0,0,0,0,-1,1413,792,0,0
196,232,0,0,0,0,0,0,0,0,0,-1,1420,792,0,0
203,232,0,0,0,0,0,0,0,0,0,-1,1427,792,0,0
210,232,0,0,0,0,0,0,0,0,0,-1,1434,792,0,0
217,232,0,0,0,0,0,0,0,0,0,-1,1441,792,0,0
224,232,0,0,0,0,0,0,0,0,0,-1,1448,792,0,0
231,232,0,0,0,0,0,0,0,0,0,-1,1455,792,0,0
238,232,0,0,0,0,0,0,0,0,0,-1,1462,792,0,0
245,232,0,0,0,0,0,0,0,0,0,-1,1469,792,0,0
252,232,0,0,0,0,0,0,0,0,0,-1,1476,792,0,0
259,232,0,0,0,0,0,0,0,0,0,-1,1483,792,0,0
266,232,0,0,0,0,0,0,0,0,0,-1,1490,792,0,0
273,232,0,0,0,0,0,0,0,0,0,-1,1497,792,0,0
280,232,0,0,0,0,0,0,0,0,0,-1,1504,792,0,0
287,232,0,0,0,0,0,0,0,0,0,-1,1511,792,0,0
294,232,0,0,0,0,0,0,0,0,0,-1,1518,792,0,0
301,232,0,0,0,0,0,0,0,0,0,-1,1525,792,0,0
308,232,0,0,0,0,0,0,0,0,0,-1,1532,792,0,0
315,232,0,0,0,0,0,0,0,0,0,-1,1539,792,0,0
322,232,0,0,0,0,0,0,0,0,0,-1,1546,792,0,0
329,232,0,0,0,0,0,0,0,0,0,-1,1553,792,0,0
336,232,0,0,0,0,0,0,0,0,0,-1,1560,792,0,0
343,232,0,0,0,0,0,0,0,0,0,-1,1567,792,0,0
350,232,0,0,0,0,0,0,0,0,0,-1,1574,792,0,0
357,232,0,0,0,0,0,0,0,0,0,-1,1581,792,0,0
364,232,0,0,0,0,0,0,0,0,0,-1,1588,792,0,0
371,232,0,0,0,0,0,0,0,0,0,-1,1595,792,0,0
378,232,0,0,0,0,0,0,0,0,0,-1,1602,792,0,0
385,232,0,0,0,0,0,0,0,0,0,-1,1609,792,0,0
392,232,0,0,0,0,0,0,0,0,0,-1,1616,792,0,0
399,232,0,0,0,0,0,0,0,0,0,-1,1623,792,0,0
406,232,0,0,0,0,0,0,0,0,0,-1,1630,792,0,0
413,232,0,0,0,0,0,0,0,0,0,-1,1637,792,0,0
420,232,0,0,0,0,0,0,0,0,0,-1,1644,792,0,0
427,232,0,0,0,0,0,0,0,0,0,-1,1651,792,0,0
434,232,0,0,0,0,0,0,0,0,0,-1,1658,792,0,0
441,232,0,0,0,0,0,0,0,0,0,-1,1665,792,0,0
448,232,0,0,0,0,0,0,0,0,0,-1,1672,792,0,0
455,232,0,0,0,0,0,0,0,0,0,-1,1679,792,0,0
462,232,0,0,0,0,0,0,0,0,0,-1,1686,792,0,0
469,232,0,0,0,0,0,0,0,0,0,-1,1693,792,0,0
476,232,0,0,0,0,0,0,0,0,0,-1,1700,792,0,0
483,232,0,0,0,0,0,0,0,0,0,-1,1707,792,0,0
490,232,0,0,0,0,0,0,0,0,0,-1,1714,792,0,0
497,232,0,0,0,0,0,0,0,0,0,-1,1721,792,0,0
504,232,0,0,0,0,0,0,0,0,0,-1,1728,792,0,0
511,232,0,0,0,0,0,0,0,0,0,-1,1735,792,0,0
518,232,0,0,0,0,0,0,0,0,0,-1,1742,792,0,0
525,232,0,0,0,0,0,0,0,0,0,-1,1749,792,0,0
532,232,0,0,0,0,0,0,0,0,0,-1,1756,792,0,0
539,232,0,0,0,0,0,0,0,0,0,-1,1763,792,0,0
546,232,0,0,0,0,0,0,0,0,0,-1,1770,792,0,0
553,232,0,0,0,0,0,0,0,0,0,-1,1777,792,0,0
560,232,0,0,0,0,0,0,0,0,0,-1,1784,792,0,0
567,232,0,0,0,0,0,0,0,0,0,-1,1791,792,0,0
574,232,0,0,0,0,0,0,0,0,0,-1,1798,792,0,0
581,232,0,0,0,0,0,0,0,0,0,-1,1805,792,0,0
588,232,11.6884,1.94244,0.0035912,0.00735588,0.00249079,0.0085956,0.00235148,1.10897,0.0051295,0.0368684,1812,792,11.6883,-1.94243
595,232,11.7358,1.88544,0.000591981,0.00926291,0.00066179,0.00931313,0.000541762,1.49506,0.00603627,0.036304,1819,792,11.7358,-1.88546
602,232,11.7905,1.71655,-0.00143462,0.00967246,-0.000674244,0.00971324,-0.0014754,-1.51039,0.00701917,0.0350456,1826,792,11.7906,-1.71658
609,232,11.8882,1.76697,-0.00284584,0.00898872,-0.00176539,0.00924645,-0.00310358,-1.42583,0.00741848,0.0387031,1833,792,11.8882,-1.76698
616,232,11.9749,1.83167,-0.00377483,0.00761641,-0.00261987,0.00819007,-0.00434849,-1.35524,0.00735152,0.0430514,1840,792,11.9748,-1.83169
623,232,12.4949,-0.29126,0,0,0,0,0,0,0,-1,1847,792,12.4949,0.291285
630,232,9.12866,1.23694,0,0,0,0,0,0,0,-1,1854,792,9.12866,-1.23696
637,232,8.73828,0.877014,0,0,0,0,0,0,0,-1,1861,792,8.73826,-0.876992
644,232,8.81299,0.933228,-0.00394999,0.000357929,-0.00376197,0.00253894,-0.006131,-1.0454,0.0051468,0.04674,1868,792,8.81304,-0.933227
651,232,8.97974,0.965271,-0.00358304,-0.000964963,-0.00379656,0.0017419,-0.0062899,-0.951414,0.00487868,0.0416548,1875,792,8.97969,-0.965272
658,232,9.15161,0.998535,-0.00279369,-0.00223619,-0.00369437,0.00118993,-0.00621981,-0.823053,0.00459484,0.0222825,1882,792,9.15159,-0.998541
665,232,9.16699,1.07379,-0.00214185,-0.00316574,-0.00349657,0.000880051,-0.00618764,-0.712708,0.00444756,0.011258,1889,792,9.16701,-1.07377
672,232,9.11597,1.18988,-0.00165932,-0.00325673,-0.00321117,0.000850985,-0.00576704,-0.663508,0.00415749,0.0168339,1896,792,9.11599,-1.1899
679,232,9.13696,1.31055,-0.000833569,-0.00355482,-0.0024429,0.00060206,-0.00499045,-0.531308,0.00354474,0.0183651,1903,792,9.137,-1.31054
686,232,9.17566,1.43262,0.000119202,-0.00234173,-0.00177945,0.00105218,-0.00327471,-0.482903,0.00260566,0.0177739,1910,792,9.17567,-1.43261
693,232,9.15735,1.53357,0.0013672,-0.000637993,-0.000731026,0.00160541,-0.000876202,-0.315006,0.00145323,0.0103365,1917,792,9.15731,-1.53357
700,232,9.15564,1.65033,0.00301136,0.00154587,0.000233499,0.00304767,0.00150957,0.154245,0.0017596,0.012506,1924,792,9.15562,-1.65031
707,232,9.1781,1.75153,0.00770491,0.00432954,0.000850609,0.00790715,0.0041273,0.233425,0.00456666,0.0128868,1931,792,9.17812,-1.7515
714,232,9.18774,1.83429,0.0159586,0.00671056,0.00148901,0.0161924,0.00647673,0.155766,0.00941083,0.0135944,1938,792,9.1877,-1.83428
721,232,9.18506,1.94849,0.0249375,0.00952074,0.00229518,0.025272,0.0091863,0.144696,0.0147709,0.0159246,1945,792,9.18506,-1.94851
728,232,9.17798,2.05042,0.0373828,0.0129418,0.00299182,0.0377437,0.0125809,0.120048,0.0221913,0.0298006,1952,792,9.17799,-2.0504
735,232,9.09119,2.45813,0.0545175,0.016902,0.00341423,0.0548248,0.0165946,0.0897887,0.0324643,0.0455103,1959,792,9.09122,-2.45812
742,232,9.06653,2.76996,0.0777531,0.0212967,0.0033481,0.077951,0.0210989,0.0590284,0.0465563,0.0465229,1966,792,9.06654,-2.76993
749,232,9.24805,2.83643,0.108646,0.0258638,0.00239186,0.108715,0.0257947,0.0288613,0.0655916,0.0407778,1973,792,9.24808,-2.83642
756,232,9.55896,2.77289,0.14923,0.0301516,-1.75442e-05,0.14923,0.0301516,-0.000147333,0.0911148,0.0416663,1980,792,9.55902,-2.77289
763,232,12.5714,1.05389,0.202139,0.0333257,-0.00474439,0.202272,0.0331925,-0.0280749,0.125258,0.0437535,1987,792,12.5714,-1.05388
770,232,0,0,0,0,0,0,0,0,0,-1,1994,792,0,0
777,232,0,0,0,0,0,0,0,0,0,-1,2001,792,0,0
784,232,0,0,0,0,0,0,0,0,0,-1,2008,792,0,0
791,232,0,0,0,0,0,0,0,0,0,-1,2015,792,0,0
798,232,0,0,0,0,0,0,0,0,0,-1,2022,792,0,0
805,232,0,0,0,0,0,0,0,0,0,-1,2029,792,0,0
812,232,0,0,0,0,0,0,0,0,0,-1,2036,792,0,0
-700,225,0,0,0,0,0,0,0,0,0,-1,524,799,0,0
-693,225,0,0,0,0,0,0,0,0,0,-1,531,799,0,0
-686,225,0,0,0,0,0,0,0,0,0,-1,538,799,0,0
-679,225,0,0,0,0,0,0,0,0,0,-1,545,799,0,0
-672,225,0,0,0,0,0,0,0,0,0,-1,552,799,0,0
-665,225,0,0,0,0,0,0,0,0,0,-1,559,799,0,0
-658,225,0,0,0,0,0,0,0,0,0,-1,566,799,0,0
-651,225,0,0,0,0,0,0,0,0,0,-1,573,799,0,0
-644,225,-8.3537,3.98206,0.087201,0.151398,-0.0929707,0.217656,0.0209438,-0.951619,0.138651,0.0495807,580,799,-8.3537,-3.98207
-637,225,-7.72742,3.55646,0.0754664,0.1271,-0.0708416,0.176682,0.0258841,-0.960135,0.110178,0.0438149,587,799,-7.72741,-3.55646
-630,225,-6.3678,2.84717,0,0,0,0,0,0,0,-1,594,799,-6.36782,-2.84718
-623,225,-6.00909,2.16235,0,0,0,0,0,0,0,-1,601,799,-6.00911,-2.16236
-616,225,-6.45923,1.35577,0,0,0,0,0,0,0,-1,608,799,-6.45925,-1.35578
-609,225,-5.60553,0.781921,0,0,0,0,0,0,0,-1,615,799,-5.60555,-0.78193
-602,225,-4.81293,0.41864,0,0,0,0,0,0,0,-1,622,799,-4.81291,-0.418657
-595,225,-4.05518,0.858459,0.0164116,0.029446,-0.0113588,0.0360245,0.00983312,-1.04585,0.0215016,0.0280501,629,799,-4.0552,-0.858429
-588,225,-4.07935,0.724548,0.00932567,0.019659,-0.00772945,0.0237895,0.00519508,-1.08001,0.0144429,0.0116569,636,799,-4.07934,-0.724519
-581,225,-4.05261,0.619507,0.00275649,0.0121886,-0.00474581,0.0141631,0.000781964,-1.17652,0.00919253,0.00983225,643,799,-4.0526,-0.619535
-574,225,-4.04102,0.514771,-0.000785016,0.00726235,-0.00296928,0.00823934,-0.001762,-1.25292,0.00616474,0.00810392,650,799,-4.04101,-0.514756
-567,225,-4.0589,0.417786,-0.00154498,0.00365299,-0.00116545,0.00390234,-0.00179433,-1.36002,0.0033632,0.00995825,657,799,-4.05889,-0.417802
-560,225,-4.07452,0.330688,-0.00300925,0.00127609,0.000381759,0.00130984,-0.00304299,1.48264,0.00257866,0.0105216,664,799,-4.07451,-0.330662
-553,225,-4.08215,0.23114,-0.00486303,-0.0007479,0.00241308,0.000365735,-0.00597666,1.13842,0.00411178,0.0109898,671,799,-4.08214,-0.231146
-546,225,-4.06195,0.11908,-0.00607771,-0.00236581,0.00412994,0.000306041,-0.00874955,0.996571,0.00593768,0.0189111,678,799,-4.06197,-0.119051
-539,225,-4.0365,0.0145264,-0.0072242,-0.00370073,0.0057588,0.000559779,-0.0114847,0.933838,0.00784972,0.021101,685,799,-4.03648,-0.0145124
-532,225,-4.05817,-0.0545044,-0.00832024,-0.00488952,0.00701496,0.000616765,-0.0138265,0.905309,0.00943,0.0138431,692,799,-4.05815,0.0545018
-525,225,-4.02551,0.0629272,-0.00935335,-0.0061012,0.00804993,0.000485248,-0.0159398,0.885056,0.0107919,0.0312423,699,799,-4.02553,-0.0629031
-518,225,-4.28125,-0.19342,-0.0098402,-0.00686427,0.00889895,0.000670261,-0.0173747,0.868235,0.0118129,0.042682,706,799,-4.28123,0.193448
-511,225,-5.14697,-0.32074,-0.00971138,-0.00757643,0.00902269,0.00044171,-0.0177295,0.84428,0.0119696,0.0457026,713,799,-5.14699,0.320733
-504,225,-6.82617,-0.314026,-0.00891246,-0.00811201,0.00868911,0.000186089,-0.0172106,0.808412,0.0115362,0.0462479,720,799,-6.82619,0.314012
-497,225,-6.80542,0.380859,-0.0077244,-0.00824713,0.00769637,-0.000284957,-0.0156866,0.768425,0.010364,0.043856,727,799,-6.80543,-0.38084
-490,225,-6.41003,0.695679,-0.0059287,-0.00773432,0.0057594,-0.00100178,-0.0126612,0.707654,0.00812751,0.0368738,734,799,-6.41003,-0.695648
-483,225,-6.29382,0.72937,-0.00337003,-0.00632626,0.00263256,-0.00182901,-0.00786729,0.529593,0.00475395,0.0322458,741,799,-6.2938,-0.729388
-476,225,-6.24841,0.663757,4.09343e-05,-0.00371281,-0.00173917,0.00072284,-0.00439472,-0.373667,0.00319811,0.0315966,748,799,-6.24843,-0.663755
-469,225,-6.34546,0.702515,0.00442527,0.000530744,-0.0076596,0.0103813,-0.00542524,-0.660923,0.0092742,0.0352238,755,799,-6.34545,-0.702543
-462,225,0,0,0,0,0,0,0,0,0,-1,762,799,0,0
-455,225,0,0,0,0,0,0,0,0,0,-1,769,799,0,0
-448,225,0,0,0,0,0,0,0,0,0,-1,776,799,0,0
-441,225,0,0,0,0,0,0,0,0,0,-1,783,799,0,0
-434,225,0,0,0,0,0,0,0,0,0,-1,790,799,0,0
-427,225,0,0,0,0,0,0,0,0,0,-1,797,799,0,0
-420,225,0,0,0,0,0,0,0,0,0,-1,804,799,0,0
-413,225,0,0,0,0,0,0,0,0,0,-1,811,799,0,0
-406,225,0,0,0,0,0,0,0,0,0,-1,818,799,0,0
-399,225,0,0,0,0,0,0,0,0,0,-1,825,799,0,0
-392,225,0,0,0,0,0,0,0,0,0,-1,832,799,0,0
-385,225,0,0,0,0,0,0,0,0,0,-1,839,799,0,0
-378,225,0,0,0,0,0,0,0,0,0,-1,846,799,0,0
-371,225,0,0,0,0,0,0,0,0,0,-1,853,799,0,0
-364,225,0,0,0,0,0,0,0,0,0,-1,860,799,0,0
-357,225,0,0,0,0,0,0,0,0,0,-1,867,799,0,0
-350,225,0,0,0,0,0,0,0,0,0,-1,874,799,0,0
-343,225,0,0,0,0,0,0,0,0,0,-1,881,799,0,0
-336,225,0,0,0,0,0,0,0,0,0,-1,888,799,0,0
-329,225,0,0,0,0,0,0,0,0,0,-1,895,799,0,0
-322,225,0,0,0,0,0,0,0,0,0,-1,902,799,0,0
-315,225,0,0,0,0,0,0,0,0,0,-1,909,799,0,0
-308,225,0,0,0,0,0,0,0,0,0,-1,916,799,0,0
-301,225,0,0,0,0,0,0,0,0,0,-1,923,799,0,0
-294,225,0,0,0,0,0,0,0,0,0,-1,930,799,0,0
-287,225,0,0,0,0,0,0,0,0,0,-1,937,799,0,0
-280,225,0,0,0,0,0,0,0,0,0,-1,944,799,0,0
-273,225,0,0,0,0,0,0,0,0,0,-1,951,799,0,0
-266,225,0,0,0,0,0,0,0,0,0,-1,958,799,0,0
-259,225,0,0,0,0,0,0,0,0,0,-1,965,799,0,0
-252,225,0,0,0,0,0,0,0,0,0,-1,972,799,0,0
-245,225,0,0,0,0,0,0,0,0,0,-1,979,799,0,0
-238,225,0,0,0,0,0,0,0,0,0,-1,986,799,0,0
-231,225,0,0,0,0,0,0,0,0,0,-1,993,799,0,0
-224,225,0,0,0,0,0,0,0,0,0,-1,1000,799,0,0
-217,225,0,0,0,0,0,0,0,0,0,-1,1007,799,0,0
-210,225,0,0,0,0,0,0,0,0,0,-1,1014,799,0,0
-203,225,0,0,0,0,0,0,0,0,0,-1,1021,799,0,0
-196,225,0,0,0,0,0,0,0,0,0,-1,1028,799,0,0
-189,225,0,0,0,0,0,0,0,0,0,-1,1035,799,0,0
-182,225,0,0,0,0,0,0,0,0,0,-1,1042,799,0,0
-175,225,0,0,0,0,0,0,0,0,0,-1,1049,799,0,0
-168,225,0,0,0,0,0,0,0,0,0,-1,1056,799,0,0
-161,225,0,0,0,0,0,0,0,0,0,-1,1063,799,0,0
-154,225,0,0,0,0,0,0,0,0,0,-1,1070,799,0,0
-147,225,0,0,0,0,0,0,0,0,0,-1,1077,799,0,0
-140,225,0,0,0,0,0,0,0,0,0,-1,1084,799,0,0
-133,225,0,0,0,0,0,0,0,0,0,-1,1091,799,0,0
-126,225,0,0,0,0,0,0,0,0,0,-1,1098,799,0,0
-119,225,0,0,0,0,0,0,0,0,0,-1,1105,799,0,0
-112,225,0,0,0,0,0,0,0,0,0,-1,1112,799,0,0
-105,225,0,0,0,0,0,0,0,0,0,-1,1119,799,0,0
-98,225,0,0,0,0,0,0,0,0,0,-1,1126,799,0,0
-91,225,0,0,0,0,0,0,0,0,0,-1,1133,799,0,0
-84,225,0,0,0,0,0,0,0,0,0,-1,1140,799,0,0
-77,225,0,0,0,0,0,0,0,0,0,-1,1147,799,0,0
-70,225,0,0,0,0,0,0,0,0,0,-1,1154,799,0,0
-63,225,0,0,0,0,0,0,0,0,0,-1,1161,799,0,0
-56,225,0,0,0,0,0,0,0,0,0,-1,1168,799,0,0
-49,225,0,0,0,0,0,0,0,0,0,-1,1175,799,0,0
-42,225,0,0,0,0,0,0,0,0,0,-1,1182,799,0,0
-35,225,0,0,0,0,0,0,0,0,0,-1,1189,799,0,0
-28,225,0,0,0,0,0,0,0,0,0,-1,1196,799,0,0
-21,225,0,0,0,0,0,0,0,0,0,-1,1203,799,0,0
-14,225,0,0,0,0,0,0,0,0,0,-1,1210,799,0,0
-7,225,0,0,0,0,0,0,0,0,0,-1,1217,799,0,0
0,225,0,0,0,0,0,0,0,0,0,-1,1224,799,0,0
7,225,0,0,0,0,0,0,0,0,0,-1,1231,799,0,0
14,225,0,0,0,0,0,0,0,0,0,-1,1238,799,0,0
21,225,0,0,0,0,0,0,0,0,0,-1,1245,799,0,0
28,225,0,0,0,0,0,0,0,0,0,-1,1252,799,0,0
35,225,0,0,0,0,0,0,0,0,0,-1,1259,799,0,0
42,225,0,0,0,0,0,0,0,0,0,-1,1266,799,0,0
49,225,0,0,0,0,0,0,0,0,0,-1,1273,799,0,0
56,225,0,0,0,0,0,0,0,0,0,-1,1280,799,0,0
63,225,0,0,0,0,0,0,0,0,0,-1,1287,799,0,0
70,225,0,0,0,0,0,0,0,0,0,-1,1294,799,0,0
77,225,0,0,0,0,0,0,0,0,0,-1,1301,799,0,0
84,225,0,0,0,0,0,0,0,0,0,-1,1308,799,0,0
91,225,0,0,0,0,0,0,0,0,0,-1,1315,799,0,0
98,225,0,0,0,0,0,0,0,0,0,-1,1322,799,0,0
105,225,0,0,0,0,0,0,0,0,0,-1,1329,799,0,0
112,225,0,0,0,0,0,0,0,0,0,-1,1336,799,0,0
119,225,0,0,0,0,0,0,0,0,0,-1,1343,799,0,0
126,225,0,0,0,0,0,0,0,0,0,-1,1350,799,0,0
133,225,0,0,0,0,0,0,0,0,0,-1,1357,799,0,0
140,225,0,0,0,0,0,0,0,0,0,-1,1364,799,0,0
147,225,0,0,0,0,0,0,0,0,0,-1,1371,799,0,0
154,225,0,0,0,0,0,0,0,0,0,-1,1378,799,0,0
161,225,0,0,0,0,0,0,0,0,0,-1,1385,799,0,0
168,225,0,0,0,0,0,0,0,0,0,-1,1392,799,0,0
175,225,0,0,0,0,0,0,0,0,0,-1,1399,799,0,0
182,225,0,0,0,0,0,0,0,0,0,-1,1406,799,0,0
189,225,0,0,0,0,0,0,0,0,0,-1,1413,799,0,0
196,225,0,0,0,0,0,0,0,0,0,-1,1420,799,0,0
203,225,0,0,0,0,0,0,0,0,0,-1,1427,799,0,0
210,225,0,0,0,0,0,0,0,0,0,-1,1434,799,0,0
217,225,0,0,0,0,0,0,0,0,0,-1,1441,799,0,0
224,225,0,0,0,0,0,0,0,0,0,-1,1448,799,0,0
231,225,0,0,0,0,0,0,0,0,0,-1,1455,799,0,0
238,225,0,0,0,0,0,0,0,0,0,-1,1462,799,0,0
245,225,0,0,0,0,0,0,0,0,0,-1,1469,799,0,0
252,225,0,0,0,0,0,0,0,0,0,-1,1476,799,0,0
259,225,0,0,0,0,0,0,0,0,0,-1,1483,799,0,0
266,225,0,0,0,0,0,0,0,0,0,-1,1490,799,0,0
273,225,0,0,0,0,0,0,0,0,0,-1,1497,799,0,0
280,225,0,0,0,0,0,0,0,0,0,-1,1504,799,0,0
287,225,0,0,0,0,0,0,0,0,0,-1,1511,799,0,0
294,225,0,0,0,0,0,0,0,0,0,-1,1518,799,0,0
301,225,0,0,0,0,0,0,0,0,0,-1,1525,799,0,0
308,225,0,0,0,0,0,0,0,0,0,-1,1532,799,0,0
315,225,0,0,0,0,0,0,0,0,0,-1,1539,799,0,0
322,225,0,0,0,0,0,0,0,0,0,-1,1546,799,0,0
329,225,0,0,0,0,0,0,0,0,0,-1,1553,799,0,0
336,225,0,0,0,0,0,0,0,0,0,-1,1560,799,0,0
343,225,0,0,0,0,0,0,0,0,0,-1,1567,799,0,0
350,225,0,0,0,0,0,0,0,0,0,-1,1574,799,0,0
357,225,0,0,0,0,0,0,0,0,0,-1,1581,799,0,0
364,225,0,0,0,0,0,0,0,0,0,-1,1588,799,0,0
371,225,0,0,0,0,0,0,0,0,0,-1,1595,799,0,0
378,225,0,0,0,0,0,0,0,0,0,-1,1602,799,0,0
385,225,0,0,0,0,0,0,0,0,0,-1,1609,799,0,0
392,225,0,0,0,0,0,0,0,0,0,-1,1616,799,0,0
399,225,0,0,0,0,0,0,0,0,0,-1,1623,799,0,0
406,225,0,0,0,0,0,0,0,0,0,-1,1630,799,0,0
413,225,0,0,0,0,0,0,0,0,0,-1,1637,799,0,0
420,225,0,0,0,0,0,0,0,0,0,-1,1644,799,0,0
427,225,0,0,0,0,0,0,0,0,0,-1,1651,799,0,0
434,225,0,0,0,0,0,0,0,0,0,-1,1658,799,0,0
441,225,0,0,0,0,0,0,0,0,0,-1,1665,799,0,0
448,225,0,0,0,0,0,0,0,0,0,-1,1672,799,0,0
455,225,0,0,0,0,0,0,0,0,0,-1,1679,799,0,0
462,225,0,0,0,0,0,0,0,0,0,-1,1686,799,0,0
469,225,0,0,0,0,0,0,0,0,0,-1,1693,799,0,0
476,225,0,0,0,0,0,0,0,0,0,-1,1700,799,0,0
483,225,0,0,0,0,0,0,0,0,0,-1,1707,799,0,0
490,225,0,0,0,0,0,0,0,0,0,-1,1714,799,0,0
497,225,0,0,0,0,0,0,0,0,0,-1,1721,799,0,0
504,225,0,0,0,0,0,0,0,0,0,-1,1728,799,0,0
511,225,0,0,0,0,0,0,0,0,0,-1,1735,799,0,0
518,225,0,0,0,0,0,0,0,0,0,-1,1742,799,0,0
525,225,0,0,0,0,0,0,0,0,0,-1,1749,799,0,0
532,225,0,0,0,0,0,0,0,0,0,-1,1756,799,0,0
539,225,0,0,0,0,0,0,0,0,0,-1,1763,799,0,0
546,225,0,0,0,0,0,0,0,0,0,-1,1770,799,0,0
553,225,0,0,0,0,0,0,0,0,0,-1,1777,799,0,0
560,225,0,0,0,0,0,0,0,0,0,-1,1784,799,0,0
567,225,0,0,0,0,0,0,0,0,0,-1,1791,799,0,0
574,225,0,0,0,0,0,0,0,0,0,-1,1798,799,0,0
581,225,0,0,0,0,0,0,0,0,0,-1,1805,799,0,0
588,225,11.8132,1.85962,0.00626172,0.0035117,0.00308497,0.00826423,0.00150919,0.575757,0.00508169,0.0355237,1812,799,11.8132,-1.85962
595,225,11.8081,1.75397,0.00235704,0.00648631,0.00131114,0.00686744,0.0019759,1.2879,0.0040823,0.0358243,1819,799,11.8081,-1.75397
602,225,11.819,1.68451,-0.000149366,0.00760746,3.31234e-05,0.0076076,-0.000149507,1.56653,0.0051223,0.0341465,1826,799,11.819,-1.68454
609,225,11.8259,1.75385,-0.00185764,0.00728421,-0.00110076,0.00741488,-0.00198832,-1.45264,0.00572235,0.0308081,1833,799,11.826,-1.75385
616,225,11.807,1.80627,-0.00296462,0.00604819,-0.0020552,0.00649471,-0.00341115,-1.35685,0.00581078,0.0363689,1840,799,11.807,-1.80627
623,225,11.8428,1.80865,-0.00357681,0.00432359,-0.00288801,0.00526672,-0.00451994,-1.25515,0.00565581,0.0388097,1847,799,11.8427,-1.80868
630,225,11.7408,1.80023,-0.0037611,0.00237122,-0.00345304,0.00392294,-0.00531281,-1.14846,0.00535235,0.0411594,1854,799,11.7409,-1.80024
637,225,8.42712,1.00128,0,0,0,0,0,0,0,-1,1861,799,8.42715,-1.00131
644,225,8.7749,1.05835,-0.00376993,-0.00093434,-0.0039315,0.0018272,-0.00653147,-0.958452,0.00507425,0.0460627,1868,799,8.77487,-1.05832
651,225,9.49866,0.741638,-0.003541,-0.00215108,-0.00410997,0.00132227,-0.00701436,-0.869152,0.00517363,0.0391831,1875,799,9.4987,-0.741611
658,225,9.38745,1.04407,-0.00296433,-0.00324568,-0.0041632,0.00106057,-0.00727059,-0.76851,0.00523651,0.0327814,1882,799,9.38747,-1.04409
665,225,9.29443,1.06,-0.0024735,-0.00401979,-0.00408023,0.000906187,-0.00739948,-0.691766,0.00526113,0.0119614,1889,799,9.29439,-1.05999
672,225,9.25,1.20203,-0.00214259,-0.0040191,-0.00384738,0.000879289,-0.00704098,-0.665798,0.00501285,0.0156319,1896,799,9.25004,-1.20201
679,225,9.26733,1.31696,-0.00142648,-0.00420594,-0.00310452,0.000585169,-0.00621759,-0.57495,0.00435324,0.0160845,1903,799,9.26727,-1.31699
686,225,9.28442,1.4342,-0.000575165,-0.00302744,-0.00239358,0.000888055,-0.00449066,-0.548694,0.00332951,0.0102723,1910,799,9.28441,-1.43423
693,225,9.2688,1.54559,0.000527578,-0.00136762,-0.00129807,0.00118713,-0.00202717,-0.470106,0.00187678,0.010021,1917,799,9.26885,-1.54558
700,225,9.26807,1.65668,0.00216328,0.000749843,-0.000342038,0.0022417,0.000671424,-0.225375,0.00132848,0.0118487,1924,799,9.26801,-1.6567
707,225,9.2793,1.7547,0.00679118,0.00331917,0.000268534,0.00681182,0.00329853,0.0767345,0.00393346,0.0119664,1931,799,9.27936,-1.75468
714,225,9.29431,1.86462,0.0147008,0.00535285,0.000862987,0.0147798,0.00527385,0.0912906,0.00864892,0.0127282,1938,799,9.29433,-1.86465
721,225,9.31287,1.95544,0.0233546,0.00749139,0.00151433,0.0234979,0.00734812,0.0943266,0.0138801,0.0134237,1945,799,9.31289,-1.95543
728,225,9.32019,2.03937,0.0351566,0.0101509,0.00210082,0.0353319,0.00997566,0.083236,0.0210333,0.0229863,1952,799,9.32018,-2.03934
735,225,9.19849,2.41492,0.0511949,0.0130499,0.0022374,0.0513257,0.0129191,0.0583882,0.0308268,0.0427308,1959,799,9.19848,-2.41489
742,225,9.03979,2.9408,0.0727922,0.0161169,0.0019409,0.0728586,0.0160505,0.0341925,0.0442045,0.0484973,1966,799,9.03979,-2.94081
749,225,8.94128,3.23322,0,0,0,0,0,0,0,-1,1973,799,8.94134,-3.23321
756,225,10.7598,1.34283,0.138227,0.0215989,-0.00097705,0.138235,0.0215907,-0.00837671,0.0858695,0.048375,1980,799,10.7597,-1.34283
763,225,12.3146,1.06305,0.185624,0.0229727,-0.00429296,0.185738,0.0228595,-0.0263691,0.116952,0.0470915,1987,799,12.3146,-1.06306
770,225,0,0,0,0,0,0,0,0,0,-1,1994,799,0,0
777,225,0,0,0,0,0,0,0,0,0,-1,2001,799,0,0
784,225,0,0,0,0,0,0,0,0,0,-1,2008,799,0,0
791,225,0,0,0,0,0,0,0,0,0,-1,2015,799,0,0
798,225,0,0,0,0,0,0,0,0,0,-1,2022,799,0,0
805,225,0,0,0,0,0,0,0,0,0,-1,2029,799,0,0
812,225,0,0,0,0,0,0,0,0,0,-1,2036,799,0,0
-700,218,0,0,0,0,0,0,0,0,0,-1,524,806,0,0
-693,218,0,0,0,0,0,0,0,0,0,-1,531,806,0,0
-686,218,0,0,0,0,0,0,0,0,0,-1,538,806,0,0
-679,218,0,0,0,0,0,0,0,0,0,-1,545,806,0,0
-672,218,0,0,0,0,0,0,0,0,0,-1,552,806,0,0
-665,218,0,0,0,0,0,0,0,0,0,-1,559,806,0,0
-658,218,0,0,0,0,0,0,0,0,0,-1,566,806,0,0
-651,218,-9.6355,3.01477,0.0934512,0.169694,-0.120998,0.258433,0.00471154,-0.938005,0.17074,0.0459891,573,806,-9.63551,-3.01477
-644,218,-8.82013,2.65295,0.0858888,0.143437,-0.0915703,0.210648,0.0186781,-0.937628,0.134638,0.0445533,580,806,-8.82015,-2.65297
-637,218,-8.10205,2.31622,0.074222,0.119739,-0.0698702,0.170464,0.0234972,-0.942842,0.106676,0.0434505,587,806,-8.10205,-2.31623
-630,218,-3.67236,2.98834,0.0613922,0.0984999,-0.0535001,0.136572,0.02332,-0.952308,0.0843561,0.046429,594,806,-3.67234,-2.98832
-623,218,-5.82959,1.3266,0,0,0,0,0,0,0,-1,601,806,-5.82958,-1.32661
-616,218,-4.1955,1.44403,0,0,0,0,0,0,0,-1,608,806,-4.19552,-1.44405
-609,218,-5.76892,0.00421143,0,0,0,0,0,0,0,-1,615,806,-5.76889,-0.00423538
-602,218,-4.1145,0.937622,0.0201912,0.0372078,-0.0168586,0.0475834,0.0098155,-1.01909,0.0290094,0.0392885,622,806,-4.11447,-0.937648
-595,218,-4.17749,0.829285,0.0151322,0.0260273,-0.01002,0.0319848,0.0091747,-1.03438,0.0190176,0.0175062,629,806,-4.17747,-0.829312
-588,218,-4.17743,0.733215,0.00817485,0.0170024,-0.00638011,0.0203467,0.0048306,-1.088,0.0122753,0.0108625,636,806,-4.17744,-0.733228
-581,218,-4.15961,0.630981,0.00168082,0.0102248,-0.00345906,0.0114496,0.000456,-1.23048,0.00748572,0.00996669,643,806,-4.15961,-0.631011
-574,218,-4.1524,0.529114,-0.00185806,0.00590223,-0.00182818,0.00631135,-0.00226717,-1.35064,0.00513299,0.00940004,650,806,-4.15239,-0.529136
-567,218,-4.13586,0.404663,-0.00264137,0.0027831,-0.000116197,0.00278559,-0.00264385,-1.54939,0.00313505,0.0151482,657,806,-4.13584,-0.404656
-560,218,-4.14294,0.31073,-0.00409436,0.00072904,0.00136125,0.00108669,-0.00445201,1.31387,0.00338882,0.0156636,664,806,-4.14296,-0.310725
-553,218,-4.16101,0.228394,-0.00588922,-0.0011305,0.00327593,0.000538969,-0.00755869,1.09948,0.00522805,0.0166441,671,806,-4.161,-0.22841
-546,218,-4.1496,0.118164,-0.00710561,-0.00263931,0.00487675,0.000491268,-0.0102362,1.00011,0.00699364,0.0134968,678,806,-4.14959,-0.118159
-539,218,-4.14734,0.0175171,-0.00820433,-0.0037429,0.00638997,0.000794536,-0.0127418,0.953333,0.00877136,0.0143904,685,806,-4.14733,-0.0175017
-532,218,-4.17456,-0.0193481,-0.00913482,-0.00468274,0.00754313,0.000955954,-0.0147735,0.92888,0.0101826,0.0165257,692,806,-4.17457,0.0193223
-525,218,-4.23309,0.231934,-0.00985026,-0.00564564,0.00846508,0.000974284,-0.0164702,0.907111,0.0113189,0.0429506,699,806,-4.23312,-0.231905
-518,218,-4.37103,0.400635,-0.00996514,-0.00617395,0.00916979,0.00129413,-0.0174332,0.887323,0.0120767,0.0425395,706,806,-4.37102,-0.400643
-511,218,-7.06232,-0.128662,0,0,0,0,0,0,0,-1,713,806,-7.0623,0.128656
-504,218,-6.77673,0.165161,-0.00810056,-0.00669665,0.00867765,0.00130738,-0.0161046,0.825757,0.0111977,0.0446854,720,806,-6.77671,-0.165149
-497,218,-6.50958,0.540649,-0.00633337,-0.00628364,0.0074703,0.00116183,-0.0137788,0.787062,0.00959664,0.0434756,727,806,-6.50959,-0.540625
-490,218,-6.26306,0.689697,-0.00386088,-0.0051188,0.00525897,0.000806605,-0.00978629,0.725882,0.006809,0.034272,734,806,-6.26307,-0.689704
-483,218,-6.23322,0.714539,-0.000732469,-0.00292764,0.00184815,0.000319445,-0.00397955,0.517443,0.00276567,0.0338211,741,806,-6.23319,-0.714565
-476,218,-6.17859,0.716431,0.002917,0.000573399,-0.00269064,0.00467993,-0.00118953,-0.580029,0.0035829,0.0378943,748,806,-6.1786,-0.716427
-469,218,0,0,0,0,0,0,0,0,0,-1,755,806,0,0
-462,218,0,0,0,0,0,0,0,0,0,-1,762,806,0,0
-455,218,0,0,0,0,0,0,0,0,0,-1,769,806,0,0
-448,218,0,0,0,0,0,0,0,0,0,-1,776,806,0,0
-441,218,0,0,0,0,0,0,0,0,0,-1,783,806,0,0
-434,218,0,0,0,0,0,0,0,0,0,-1,790,806,0,0
-427,218,0,0,0,0,0,0,0,0,0,-1,797,806,0,0
-420,218,0,0,0,0,0,0,0,0,0,-1,804,806,0,0
-413,218,0,0,0,0,0,0,0,0,0,-1,811,806,0,0
-406,218,0,0,0,0,0,0,0,0,0,-1,818,806,0,0
-399,218,0,0,0,0,0,0,0,0,0,-1,825,806,0,0
-392,218,0,0,0,0,0,0,0,0,0,-1,832,806,0,0
-385,218,0,0,0,0,0,0,0,0,0,-1,839,806,0,0
-378,218,0,0,0,0,0,0,0,0,0,-1,846,806,0,0
-371,218,0,0,0,0,0,0,0,0,0,-1,853,806,0,0
-364,218,0,0,0,0,0,0,0,0,0,-1,860,806,0,0
-357,218,0,0,0,0,0,0,0,0,0,-1,867,806,0,0
-350,218,0,0,0,0,0,0,0,0,0,-1,874,806,0,0
-343,218,0,0,0,0,0,0,0,0,0,-1,881,806,0,0
-336,218,0,0,0,0,0,0,0,0,0,-1,888,806,0,0
-329,218,0,0,0,0,0,0,0,0,0,-1,895,806,0,0
-322,218,0,0,0,0,0,0,0,0,0,-1,902,806,0,0
-315,218,0,0,0,0,0,0,0,0,0,-1,909,806,0,0
-308,218,0,0,0,0,0,0,0,0,0,-1,916,806,0,0
-301,218,0,0,0,0,0,0,0,0,0,-1,923,806,0,0
-294,218,0,0,0,0,0,0,0,0,0,-1,930,806,0,0
-287,218,0,0,0,0,0,0,0,0,0,-1,937,806,0,0
-280,218,0,0,0,0,0,0,0,0,0,-1,944,806,0,0
-273,218,0,0,0,0,0,0,0,0,0,-1,951,806,0,0
-266,218,0,0,0,0,0,0,0,0,0,-1,958,806,0,0
-259,218,0,0,0,0,0,0,0,0,0,-1,965,806,0,0
-252,218,0,0,0,0,0,0,0,0,0,-1,972,806,0,0
-245,218,0,0,0,0,0,0,0,0,0,-1,979,806,0,0
-238,218,0,0,0,0,0,0,0,0,0,-1,986,806,0,0
-231,218,0,0,0,0,0,0,0,0,0,-1,993,806,0,0
-224,218,0,0,0,0,0,0,0,0,0,-1,1000,806,0,0
-217,218,0,0,0,0,0,0,0,0,0,-1,1007,806,0,0
-210,218,0,0,0,0,0,0,0,0,0,-1,1014,806,0,0
-203,218,0,0,0,0,0,0,0,0,0,-1,1021,806,0,0
-196,218,0,0,0,0,0,0,0,0,0,-1,1028,806,0,0
-189,218,0,0,0,0,0,0,0,0,0,-1,1035,806,0,0
-182,218,0,0,0,0,0,0,0,0,0,-1,1042,806,0,0
-175,218,0,0,0,0,0,0,0,0,0,-1,1049,806,0,0
-168,218,0,0,0,0,0,0,0,0,0,-1,1056,806,0,0
-161,218,0,0,0,0,0,0,0,0,0,-1,1063,806,0,0
-154,218,0,0,0,0,0,0,0,0,0,-1,1070,806,0,0
-147,218,0,0,0,0,0,0,0,0,0,-1,1077,806,0,0
-140,218,0,0,0,0,0,0,0,0,0,-1,1084,806,0,0
-133,218,0,0,0,0,0,0,0,0,0,-1,1091,806,0,0
-126,218,0,0,0,0,0,0,0,0,0,-1,1098,806,0,0
-119,218,0,0,0,0,0,0,0,0,0,-1,1105,806,0,0
-112,218,0,0,0,0,0,0,0,0,0,-1,1112,806,0,0
-105,218,0,0,0,0,0,0,0,0,0,-1,1119,806,0,0
-98,218,0,0,0,0,0,0,0,0,0,-1,1126,806,0,0
-91,218,0,0,0,0,0,0,0,0,0,-1,1133,806,0,0
-84,218,0,0,0,0,0,0,0,0,0,-1,1140,806,0,0
-77,218,0,0,0,0,0,0,0,0,0,-1,1147,806,0,0
-70,218,0,0,0,0,0,0,0,0,0,-1,1154,806,0,0
-63,218,0,0,0,0,0,0,0,0,0,-1,1161,806,0,0
-56,218,0,0,0,0,0,0,0,0,0,-1,1168,806,0,0
-49,218,0,0,0,0,0,0,0,0,0,-1,1175,806,0,0
-42,218,0,0,0,0,0,0,0,0,0,-1,1182,806,0,0
-35,218,0,0,0,0,0,0,0,0,0,-1,1189,806,0,0
-28,218,0,0,0,0,0,0,0,0,0,-1,1196,806,0,0
-21,218,0,0,0,0,0,0,0,0,0,-1,1203,806,0,0
-14,218,0,0,0,0,0,0,0,0,0,-1,1210,806,0,0
-7,218,0,0,0,0,0,0,0,0,0,-1,1217,806,0,0
0,218,0,0,0,0,0,0,0,0,0,-1,1224,806,0,0
7,218,0,0,0,0,0,0,0,0,0,-1,1231,806,0,0
14,218,0,0,0,0,0,0,0,0,0,-1,1238,806,0,0
21,218,0,0,0,0,0,0,0,0,0,-1,1245,806,0,0
28,218,0,0,0,0,0,0,0,0,0,-1,1252,806,0,0
35,218,0,0,0,0,0,0,0,0,0,-1,1259,806,0,0
42,218,0,0,0,0,0,0,0,0,0,-1,1266,806,0,0
49,218,0,0,0,0,0,0,0,0,0,-1,1273,806,0,0
56,218,0,0,0,0,0,0,0,0,0,-1,1280,806,0,0
63,218,0,0,0,0,0,0,0,0,0,-1,1287,806,0,0
70,218,0,0,0,0,0,0,0,0,0,-1,1294,806,0,0
77,218,0,0,0,0,0,0,0,0,0,-1,1301,806,0,0
84,218,0,0,0,0,0,0,0,0,0,-1,1308,806,0,0
91,218,0,0,0,0,0,0,0,0,0,-1,1315,806,0,0
98,218,0,0,0,0,0,0,0,0,0,-1,1322,806,0,0
105,218,0,0,0,0,0,0,0,0,0,-1,1329,806,0,0
112,218,0,0,0,0,0,0,0,0,0,-1,1336,806,0,0
119,218,0,0,0,0,0,0,0,0,0,-1,1343,806,0,0
126,218,0,0,0,0,0,0,0,0,0,-1,1350,806,0,0
133,218,0,0,0,0,0,0,0,0,0,-1,1357,806,0,0
140,218,0,0,0,0,0,0,0,0,0,-1,1364,806,0,0
147,218,0,0,0,0,0,0,0,0,0,-1,1371,806,0,0
154,218,0,0,0,0,0,0,0,0,0,-1,1378,806,0,0
161,218,0,0,0,0,0,0,0,0,0,-1,1385,806,0,0
168,218,0,0,0,0,0,0,0,0,0,-1,1392,806,0,0
175,218,0,0,0,0,0,0,0,0,0,-1,1399,806,0,0
182,218,0,0,0,0,0,0,0,0,0,-1,1406,806,0,0
189,218,0,0,0,0,0,0,0,0,0,-1,1413,806,0,0
196,218,0,0,0,0,0,0,0,0,0,-1,1420,806,0,0
203,218,0,0,0,0,0,0,0,0,0,-1,1427,806,0,0
210,218,0,0,0,0,0,0,0,0,0,-1,1434,806,0,0
217,218,0,0,0,0,0,0,0,0,0,-1,1441,806,0,0
224,218,0,0,0,0,0,0,0,0,0,-1,1448,806,0,0
231,218,0,0,0,0,0,0,0,0,0,-1,1455,806,0,0
238,218,0,0,0,0,0,0,0,0,0,-1,1462,806,0,0
245,218,0,0,0,0,0,0,0,0,0,-1,1469,806,0,0
252,218,0,0,0,0,0,0,0,0,0,-1,1476,806,0,0
259,218,0,0,0,0,0,0,0,0,0,-1,1483,806,0,0
266,218,0,0,0,0,0,0,0,0,0,-1,1490,806,0,0
273,218,0,0,0,0,0,0,0,0,0,-1,1497,806,0,0
280,218,0,0,0,0,0,0,0,0,0,-1,1504,806,0,0
287,218,0,0,0,0,0,0,0,0,0,-1,1511,806,0,0
294,218,0,0,0,0,0,0,0,0,0,-1,1518,806,0,0
301,218,0,0,0,0,0,0,0,0,0,-1,1525,806,0,0
308,218,0,0,0,0,0,0,0,0,0,-1,1532,806,0,0
315,218,0,0,0,0,0,0,0,0,0,-1,1539,806,0,0
322,218,0,0,0,0,0,0,0,0,0,-1,1546,806,0,0
329,218,0,0,0,0,0,0,0,0,0,-1,1553,806,0,0
336,218,0,0,0,0,0,0,0,0,0,-1,1560,806,0,0
343,218,0,0,0,0,0,0,0,0,0,-1,1567,806,0,0
350,218,0,0,0,0,0,0,0,0,0,-1,1574,806,0,0
357,218,0,0,0,0,0,0,0,0,0,-1,1581,806,0,0
364,218,0,0,0,0,0,0,0,0,0,-1,1588,806,0,0
371,218,0,0,0,0,0,0,0,0,0,-1,1595,806,0,0
378,218,0,0,0,0,0,0,0,0,0,-1,1602,806,0,0
385,218,0,0,0,0,0,0,0,0,0,-1,1609,806,0,0
392,218,0,0,0,0,0,0,0,0,0,-1,1616,806,0,0
399,218,0,0,0,0,0,0,0,0,0,-1,1623,806,0,0
406,218,0,0,0,0,0,0,0,0,0,-1,1630,806,0,0
413,218,0,0,0,0,0,0,0,0,0,-1,1637,806,0,0
420,218,0,0,0,0,0,0,0,0,0,-1,1644,806,0,0
427,218,0,0,0,0,0,0,0,0,0,-1,1651,806,0,0
434,218,0,0,0,0,0,0,0,0,0,-1,1658,806,0,0
441,218,0,0,0,0,0,0,0,0,0,-1,1665,806,0,0
448,218,0,0,0,0,0,0,0,0,0,-1,1672,806,0,0
455,218,0,0,0,0,0,0,0,0,0,-1,1679,806,0,0
462,218,0,0,0,0,0,0,0,0,0,-1,1686,806,0,0
469,218,0,0,0,0,0,0,0,0,0,-1,1693,806,0,0
476,218,0,0,0,0,0,0,0,0,0,-1,1700,806,0,0
483,218,0,0,0,0,0,0,0,0,0,-1,1707,806,0,0
490,218,0,0,0,0,0,0,0,0,0,-1,1714,806,0,0
497,218,0,0,0,0,0,0,0,0,0,-1,1721,806,0,0
504,218,0,0,0,0,0,0,0,0,0,-1,1728,806,0,0
511,218,0,0,0,0,0,0,0,0,0,-1,1735,806,0,0
518,218,0,0,0,0,0,0,0,0,0,-1,1742,806,0,0
525,218,0,0,0,0,0,0,0,0,0,-1,1749,806,0,0
532,218,0,0,0,0,0,0,0,0,0,-1,1756,806,0,0
539,218,0,0,0,0,0,0,0,0,0,-1,1763,806,0,0
546,218,0,0,0,0,0,0,0,0,0,-1,1770,806,0,0
553,218,0,0,0,0,0,0,0,0,0,-1,1777,806,0,0
560,218,0,0,0,0,0,0,0,0,0,-1,1784,806,0,0
567,218,0,0,0,0,0,0,0,0,0,-1,1791,806,0,0
574,218,0,0,0,0,0,0,0,0,0,-1,1798,806,0,0
581,218,0,0,0,0,0,0,0,0,0,-1,1805,806,0,0
588,218,0,0,0,0,0,0,0,0,0,-1,1812,806,0,0
595,218,11.8667,1.65997,0.00352632,0.00393271,0.00196447,0.00570446,0.00175456,0.836932,0.00337379,0.0377112,1819,806,11.8667,-1.65996
602,218,11.8646,1.72217,0.000796208,0.00573748,0.000764037,0.00585292,0.000680767,1.42084,0.00369598,0.0340141,1826,806,11.8646,-1.72219
609,218,11.7987,1.80212,-0.00103618,0.00574157,-0.000401833,0.00576531,-0.00105992,-1.51178,0.00424122,0.0278392,1833,806,11.7988,-1.80211
616,218,11.7533,1.8031,-0.00217367,0.00460496,-0.00145943,0.00490582,-0.00247454,-1.36749,0.00433744,0.0291655,1840,806,11.7533,-1.80312
623,218,11.8105,1.77887,-0.00289051,0.00289181,-0.00246017,0.00379687,-0.00379556,-1.21828,0.00438349,0.0348141,1847,806,11.8106,-1.7789
630,218,11.7811,1.77972,-0.00324732,0.00100896,-0.00324075,0.00275786,-0.00499622,-1.07593,0.00453857,0.0376149,1854,806,11.7811,-1.77971
637,218,11.8793,1.54547,-0.00337384,-0.000706753,-0.00378156,0.00196951,-0.0060501,-0.954912,0.00482579,0.0414097,1861,806,11.8793,-1.54546
644,218,8.78235,1.08881,0,0,0,0,0,0,0,-1,1868,806,8.78236,-1.08883
651,218,9.64648,0.855103,-0.00339535,-0.00325869,-0.00435206,0.00102557,-0.00767961,-0.793248,0.0054936,0.0432186,1875,806,9.64653,-0.855128
658,218,9.47266,1.13135,-0.00305551,-0.00415548,-0.00451422,0.000942108,-0.0081531,-0.72478,0.00577511,0.0395479,1882,806,9.4726,-1.13136
665,218,9.45007,1.09766,-0.0027527,-0.00474572,-0.00450258,0.000862324,-0.00836075,-0.676493,0.00588238,0.0250718,1889,806,9.4501,-1.09768
672,218,9.396,1.18903,-0.00262229,-0.00467074,-0.0043101,0.000783608,-0.00807665,-0.668745,0.00566373,0.0108815,1896,806,9.39596,-1.18904
679,218,9.38501,1.31256,-0.0020896,-0.00473063,-0.00362031,0.000443505,-0.00726374,-0.61052,0.00499689,0.0104048,1903,806,9.38498,-1.31257
686,218,9.3916,1.42694,-0.00136974,-0.00360562,-0.00289033,0.000611319,-0.00558668,-0.600867,0.00394405,0.0101855,1910,806,9.39159,-1.42693
693,218,9.39063,1.53888,-0.000397443,-0.00203175,-0.00179321,0.000756027,-0.00318522,-0.571609,0.00241526,0.011287,1917,806,9.39057,-1.53887
700,218,9.38745,1.64343,0.00124111,-4.49657e-05,-0.000871069,0.00168078,-0.000484636,-0.467439,0.00131225,0.0100874,1924,806,9.38744,-1.64344
707,218,9.38184,1.74854,0.00576503,0.00226486,-0.000259936,0.00578423,0.00224566,-0.0737249,0.00336722,0.00814408,1931,806,9.38185,-1.74854
714,218,9.38708,1.87195,0.0132498,0.00396266,0.000298295,0.0132594,0.00395309,0.0320751,0.00786052,0.00973144,1938,806,9.38713,-1.87196
721,218,9.41565,1.9726,0.0215249,0.00550869,0.000842436,0.0215691,0.00546451,0.0524061,0.0129482,0.0125634,1945,806,9.41565,-1.97262
728,218,9.43652,2.06122,0.0325713,0.00756422,0.0013877,0.0326481,0.00748745,0.055266,0.0197485,0.0186037,1952,806,9.43654,-2.06121
735,218,9.33606,2.27094,0.0471796,0.00965846,0.00146795,0.047237,0.00960112,0.0390438,0.0288289,0.0338394,1959,806,9.33603,-2.27097
742,218,9.33264,2.84344,0.0666113,0.0117461,0.00116883,0.0666362,0.0117213,0.0212907,0.0410783,0.0450467,1966,806,9.33269,-2.84347
749,218,9.44458,3.12616,0.0918202,0.0136828,0.000488105,0.0918233,0.0136798,0.00624643,0.0572035,0.0483498,1973,806,9.44454,-3.12616
756,218,10.4701,1.23901,0.123817,0.0152375,-0.000632865,0.123821,0.0152338,-0.00582831,0.0779669,0.0489739,1980,806,10.4701,-1.239
763,218,12.0248,1.05121,0.163651,0.0161121,-0.00218158,0.163683,0.0160799,-0.0147822,0.104177,0.0476684,1987,806,12.0248,-1.05122
770,218,0,0,0,0,0,0,0,0,0,-1,1994,806,0,0
777,218,0,0,0,0,0,0,0,0,0,-1,2001,806,0,0
784,218,0,0,0,0,0,0,0,0,0,-1,2008,806,0,0
791,218,0,0,0,0,0,0,0,0,0,-1,2015,806,0,0
798,218,0,0,0,0,0,0,0,0,0,-1,2022,806,0,0
805,218,0,0,0,0,0,0,0,0,0,-1,2029,806,0,0
812,218,0,0,0,0,0,0,0,0,0,-1,2036,806,0,0
-700,211,0,0,0,0,0,0,0,0,0,-1,524,813,0,0
-693,211,0,0,0,0,0,0,0,0,0,-1,531,813,0,0
-686,211,0,0,0,0,0,0,0,0,0,-1,538,813,0,0
-679,211,0,0,0,0,0,0,0,0,0,-1,545,813,0,0
-672,211,0,0,0,0,0,0,0,0,0,-1,552,813,0,0
-665,211,0,0,0,0,0,0,0,0,0,-1,559,813,0,0
-658,211,0,0,0,0,0,0,0,0,0,-1,566,813,0,0
-651,211,-4.16956,4.33917,0.0840348,0.157544,-0.114795,0.241325,0.000253379,-0.940328,0.160799,0.0441277,573,813,-4.16953,-4.33918
-644,211,-9.43298,0.816895,0.0788226,0.132587,-0.0877799,0.197509,0.0139008,-0.933986,0.127292,0.0431524,580,813,-9.43296,-0.816872
-637,211,-3.71295,3.25372,0.0689504,0.109893,-0.0672666,0.159735,0.0191092,-0.933112,0.100726,0.0438693,587,813,-3.71295,-3.25372
-630,211,-3.66443,2.52399,0.0573931,0.0895524,-0.051395,0.127324,0.0196211,-0.937006,0.0791574,0.0464518,594,813,-3.66443,-2.52396
-623,211,-3.77722,1.78485,0.0458708,0.0716496,-0.0389266,0.0997653,0.0177551,-0.945277,0.0614529,0.0478523,601,813,-3.7772,-1.78486
-616,211,-4.22864,1.24615,0.0352946,0.0561307,-0.0290882,0.0766103,0.0148151,-0.957358,0.0469214,0.0448658,608,813,-4.22864,-1.24613
-609,211,-4.2522,0.944763,0.0262829,0.0432183,-0.0213229,0.0576933,0.0118079,-0.974407,0.0351929,0.0365656,615,813,-4.25218,-0.944761
-602,211,-4.23718,0.869812,0.0186088,0.0320403,-0.0152775,0.042013,0.00863613,-0.992478,0.0256198,0.0193859,622,813,-4.23718,-0.869809
-595,211,-4.25244,0.802429,0.0138182,0.0215927,-0.00868465,0.0272204,0.00819053,-0.995826,0.0161257,0.0105581,629,813,-4.25244,-0.802433
-588,211,-4.26324,0.72406,0.007181,0.0136724,-0.00509684,0.0164692,0.00438416,-1.06892,0.00984893,0.0104389,636,813,-4.26322,-0.724067
-581,211,-4.26471,0.630798,0.000894916,0.00780279,-0.0022642,0.00847877,0.000218929,-1.28067,0.00558097,0.0107687,643,813,-4.2647,-0.630775
-574,211,-4.26837,0.526917,-0.00264723,0.00422767,-0.000783395,0.00431581,-0.00273537,-1.45876,0.00410495,0.0124019,650,813,-4.26836,-0.526947
-567,211,-4.24329,0.403015,-0.00357464,0.00175083,0.000815251,0.00187283,-0.00369665,1.42224,0.00327251,0.0184422,657,813,-4.24327,-0.40303
-560,211,-4.21436,0.303406,-0.00507354,0.000183833,0.00222246,0.000997429,-0.00588714,1.21987,0.00429601,0.0202983,664,813,-4.21439,-0.303407
-553,211,-4.24506,0.218079,-0.00683508,-0.00134167,0.00398665,0.000752885,-0.00892963,1.08704,0.00621926,0.0177311,671,813,-4.24505,-0.218087
-546,211,-4.27563,0.16394,-0.00810171,-0.00263689,0.00544414,0.000722064,-0.0114607,1.01798,0.00789215,0.0182172,678,813,-4.27562,-0.163928
-539,211,-4.28625,0.0553589,-0.00916009,-0.0034773,0.00680795,0.00105841,-0.0136958,0.983091,0.00950301,0.0121117,685,813,-4.28626,-0.055362
-532,211,-4.36993,0.0390015,-0.00992683,-0.00413477,0.00783272,0.00132016,-0.0153818,0.962471,0.0107217,0.034452,692,813,-4.36996,-0.0389877
-525,211,-4.6178,0.0771484,-0.0102825,-0.00478992,0.00859619,0.001488,-0.0165604,0.940013,0.0115682,0.0469885,699,813,-4.61777,-0.0771243
-518,211,-4.9809,0.145752,-0.00999587,-0.00503669,0.00912435,0.00193899,-0.0169715,0.918072,0.012013,0.0454333,706,813,-4.98088,-0.145739
-511,211,-5.83435,0.186218,0,0,0,0,0,0,0,-1,713,813,-5.83434,-0.186221
-504,211,-6.50403,0.41217,-0.00702227,-0.00472995,0.00825829,0.00246134,-0.0142136,0.854352,0.0103938,0.0446821,720,813,-6.50402,-0.41217
-497,211,-6.24506,0.677795,-0.00445237,-0.0037583,0.00677784,0.00268138,-0.0108921,0.810977,0.0083008,0.0438165,727,813,-6.24508,-0.677795
-490,211,-6.13446,0.835632,-0.00105155,-0.00192601,0.00425668,0.0027903,-0.00576785,0.734219,0.00503975,0.0340164,734,813,-6.13449,-0.835658
-483,211,-6.13501,0.854614,0.00295036,0.00104125,0.000561554,0.00310329,0.000888325,0.265882,0.00184545,0.0332025,741,813,-6.13502,-0.854587
-476,211,-6.19183,0.776489,0.00720764,0.00536656,-0.00403754,0.0104282,0.00214595,-0.673316,0.00635872,0.0360336,748,813,-6.19186,-0.776513
-469,211,0,0,0,0,0,0,0,0,0,-1,755,813,0,0
-462,211,0,0,0,0,0,0,0,0,0,-1,762,813,0,0
-455,211,0,0,0,0,0,0,0,0,0,-1,769,813,0,0
-448,211,0,0,0,0,0,0,0,0,0,-1,776,813,0,0
-441,211,0,0,0,0,0,0,0,0,0,-1,783,813,0,0
-434,211,0,0,0,0,0,0,0,0,0,-1,790,813,0,0
-427,211,0,0,0,0,0,0,0,0,0,-1,797,813,0,0
-420,211,0,0,0,0,0,0,0,0,0,-1,804,813,0,0
-413,211,0,0,0,0,0,0,0,0,0,-1,811,813,0,0
-406,211,0,0,0,0,0,0,0,0,0,-1,818,813,0,0
-399,211,0,0,0,0,0,0,0,0,0,-1,825,813,0,0
-392,211,0,0,0,0,0,0,0,0,0,-1,832,813,0,0
-385,211,0,0,0,0,0,0,0,0,0,-1,839,813,0,0
-378,211,0,0,0,0,0,0,0,0,0,-1,846,813,0,0
-371,211,0,0,0,0,0,0,0,0,0,-1,853,813,0,0
-364,211,0,0,0,0,0,0,0,0,0,-1,860,813,0,0
-357,211,0,0,0,0,0,0,0,0,0,-1,867,813,0,0
-350,211,0,0,0,0,0,0,0,0,0,-1,874,813,0,0
-343,211,0,0,0,0,0,0,0,0,0,-1,881,813,0,0
-336,211,0,0,0,0,0,0,0,0,0,-1,888,813,0,0
-329,211,0,0,0,0,0,0,0,0,0,-1,895,813,0,0
-322,211,0,0,0,0,0,0,0,0,0,-1,902,813,0,0
-315,211,0,0,0,0,0,0,0,0,0,-1,909,813,0,0
-308,211,0,0,0,0,0,0,0,0,0,-1,916,813,0,0
-301,211,0,0,0,0,0,0,0,0,0,-1,923,813,0,0
-294,211,0,0,0,0,0,0,0,0,0,-1,930,813,0,0
-287,211,0,0,0,0,0,0,0,0,0,-1,937,813,0,0
-280,211,0,0,0,0,0,0,0,0,0,-1,944,813,0,0
-273,211,0,0,0,0,0,0,0,0,0,-1,951,813,0,0
-266,211,0,0,0,0,0,0,0,0,0,-1,958,813,0,0
-259,211,0,0,0,0,0,0,0,0,0,-1,965,813,0,0
-252,211,0,0,0,0,0,0,0,0,0,-1,972,813,0,0
-245,211,0,0,0,0,0,0,0,0,0,-1,979,813,0,0
-238,211,0,0,0,0,0,0,0,0,0,-1,986,813,0,0
-231,211,0,0,0,0,0,0,0,0,0,-1,993,813,0,0
-224,211,0,0,0,0,0,0,0,0,0,-1,1000,813,0,0
-217,211,0,0,0,0,0,0,0,0,0,-1,1007,813,0,0
-210,211,0,0,0,0,0,0,0,0,0,-1,1014,813,0,0
-203,211,0,0,0,0,0,0,0,0,0,-1,1021,813,0,0
-196,211,0,0,0,0,0,0,0,0,0,-1,1028,813,0,0
-189,211,0,0,0,0,0,0,0,0,0,-1,1035,813,0,0
-182,211,0,0,0,0,0,0,0,0,0,-1,1042,813,0,0
-175,211,0,0,0,0,0,0,0,0,0,-1,1049,813,0,0
-168,211,0,0,0,0,0,0,0,0,0,-1,1056,813,0,0
-161,211,0,0,0,0,0,0,0,0,0,-1,1063,813,0,0
-154,211,0,0,0,0,0,0,0,0,0,-1,1070,813,0,0
-147,211,0,0,0,0,0,0,0,0,0,-1,1077,813,0,0
-140,211,0,0,0,0,0,0,0,0,0,-1,1084,813,0,0
-133,211,0,0,0,0,0,0,0,0,0,-1,1091,813,0,0
-126,211,0,0,0,0,0,0,0,0,0,-1,1098,813,0,0
-119,211,0,0,0,0,0,0,0,0,0,-1,1105,813,0,0
-112,211,0,0,0,0,0,0,0,0,0,-1,1112,813,0,0
-105,211,0,0,0,0,0,0,0,0,0,-1,1119,813,0,0
-98,211,0,0,0,0,0,0,0,0,0,-1,1126,813,0,0
-91,211,0,0,0,0,0,0,0,0,0,-1,1133,813,0,0
-84,211,0,0,0,0,0,0,0,0,0,-1,1140,813,0,0
-77,211,0,0,0,0,0,0,0,0,0,-1,1147,813,0,0
-70,211,0,0,0,0,0,0,0,0,0,-1,1154,813,0,0
-63,211,0,0,0,0,0,0,0,0,0,-1,1161,813,0,0
-56,211,0,0,0,0,0,0,0,0,0,-1,1168,813,0,0
-49,211,0,0,0,0,0,0,0,0,0,-1,1175,813,0,0
-42,211,0,0,0,0,0,0,0,0,0,-1,1182,813,0,0
-35,211,0,0,0,0,0,0,0,0,0,-1,1189,813,0,0
-28,211,0,0,0,0,0,0,0,0,0,-1,1196,813,0,0
-21,211,0,0,0,0,0,0,0,0,0,-1,1203,813,0,0
-14,211,0,0,0,0,0,0,0,0,0,-1,1210,813,0,0
-7,211,0,0,0,0,0,0,0,0,0,-1,1217,813,0,0
0,211,0,0,0,0,0,0,0,0,0,-1,1224,813,0,0
7,211,0,0,0,0,0,0,0,0,0,-1,1231,813,0,0
14,211,0,0,0,0,0,0,0,0,0,-1,1238,813,0,0
21,211,0,0,0,0,0,0,0,0,0,-1,1245,813,0,0
28,211,0,0,0,0,0,0,0,0,0,-1,1252,813,0,0
35,211,0,0,0,0,0,0,0,0,0,-1,1259,813,0,0
42,211,0,0,0,0,0,0,0,0,0,-1,1266,813,0,0
49,211,0,0,0,0,0,0,0,0,0,-1,1273,813,0,0
56,211,0,0,0,0,0,0,0,0,0,-1,1280,813,0,0
63,211,0,0,0,0,0,0,0,0,0,-1,1287,813,0,0
70,211,0,0,0,0,0,0,0,0,0,-1,1294,813,0,0
77,211,0,0,0,0,0,0,0,0,0,-1,1301,813,0,0
84,211,0,0,0,0,0,0,0,0,0,-1,1308,813,0,0
91,211,0,0,0,0,0,0,0,0,0,-1,1315,813,0,0
98,211,0,0,0,0,0,0,0,0,0,-1,1322,813,0,0
105,211,0,0,0,0,0,0,0,0,0,-1,1329,813,0,0
112,211,0,0,0,0,0,0,0,0,0,-1,1336,813,0,0
119,211,0,0,0,0,0,0,0,0,0,-1,1343,813,0,0
126,211,0,0,0,0,0,0,0,0,0,-1,1350,813,0,0
133,211,0,0,0,0,0,0,0,0,0,-1,1357,813,0,0
140,211,0,0,0,0,0,0,0,0,0,-1,1364,813,0,0
147,211,0,0,0,0,0,0,0,0,0,-1,1371,813,0,0
154,211,0,0,0,0,0,0,0,0,0,-1,1378,813,0,0
161,211,0,0,0,0,0,0,0,0,0,-1,1385,813,0,0
168,211,0,0,0,0,0,0,0,0,0,-1,1392,813,0,0
175,211,0,0,0,0,0,0,0,0,0,-1,1399,813,0,0
182,211,0,0,0,0,0,0,0,0,0,-1,1406,813,0,0
189,211,0,0,0,0,0,0,0,0,0,-1,1413,813,0,0
196,211,0,0,0,0,0,0,0,0,0,-1,1420,813,0,0
203,211,0,0,0,0,0,0,0,0,0,-1,1427,813,0,0
210,211,0,0,0,0,0,0,0,0,0,-1,1434,813,0,0
217,211,0,0,0,0,0,0,0,0,0,-1,1441,813,0,0
224,211,0,0,0,0,0,0,0,0,0,-1,1448,813,0,0
231,211,0,0,0,0,0,0,0,0,0,-1,1455,813,0,0
238,211,0,0,0,0,0,0,0,0,0,-1,1462,813,0,0
245,211,0,0,0,0,0,0,0,0,0,-1,1469,813,0,0
252,211,0,0,0,0,0,0,0,0,0,-1,1476,813,0,0
259,211,0,0,0,0,0,0,0,0,0,-1,1483,813,0,0
266,211,0,0,0,0,0,0,0,0,0,-1,1490,813,0,0
273,211,0,0,0,0,0,0,0,0,0,-1,1497,813,0,0
280,211,0,0,0,0,0,0,0,0,0,-1,1504,813,0,0
287,211,0,0,0,0,0,0,0,0,0,-1,1511,813,0,0
294,211,0,0,0,0,0,0,0,0,0,-1,1518,813,0,0
301,211,0,0,0,0,0,0,0,0,0,-1,1525,813,0,0
308,211,0,0,0,0,0,0,0,0,0,-1,1532,813,0,0
315,211,0,0,0,0,0,0,0,0,0,-1,1539,813,0,0
322,211,0,0,0,0,0,0,0,0,0,-1,1546,813,0,0
329,211,0,0,0,0,0,0,0,0,0,-1,1553,813,0,0
336,211,0,0,0,0,0,0,0,0,0,-1,1560,813,0,0
343,211,0,0,0,0,0,0,0,0,0,-1,1567,813,0,0
350,211,0,0,0,0,0,0,0,0,0,-1,1574,813,0,0
357,211,0,0,0,0,0,0,0,0,0,-1,1581,813,0,0
364,211,0,0,0,0,0,0,0,0,0,-1,1588,813,0,0
371,211,0,0,0,0,0,0,0,0,0,-1,1595,813,0,0
378,211,0,0,0,0,0,0,0,0,0,-1,1602,813,0,0
385,211,0,0,0,0,0,0,0,0,0,-1,1609,813,0,0
392,211,0,0,0,0,0,0,0,0,0,-1,1616,813,0,0
399,211,0,0,0,0,0,0,0,0,0,-1,1623,813,0,0
406,211,0,0,0,0,0,0,0,0,0,-1,1630,813,0,0
413,211,0,0,0,0,0,0,0,0,0,-1,1637,813,0,0
420,211,0,0,0,0,0,0,0,0,0,-1,1644,813,0,0
427,211,0,0,0,0,0,0,0,0,0,-1,1651,813,0,0
434,211,0,0,0,0,0,0,0,0,0,-1,1658,813,0,0
441,211,0,0,0,0,0,0,0,0,0,-1,1665,813,0,0
448,211,0,0,0,0,0,0,0,0,0,-1,1672,813,0,0
455,211,0,0,0,0,0,0,0,0,0,-1,1679,813,0,0
462,211,0,0,0,0,0,0,0,0,0,-1,1686,813,0,0
469,211,0,0,0,0,0,0,0,0,0,-1,1693,813,0,0
476,211,0,0,0,0,0,0,0,0,0,-1,1700,813,0,0
483,211,0,0,0,0,0,0,0,0,0,-1,1707,813,0,0
490,211,0,0,0,0,0,0,0,0,0,-1,1714,813,0,0
497,211,0,0,0,0,0,0,0,0,0,-1,1721,813,0,0
504,211,0,0,0,0,0,0,0,0,0,-1,1728,813,0,0
511,211,0,0,0,0,0,0,0,0,0,-1,1735,813,0,0
518,211,0,0,0,0,0,0,0,0,0,-1,1742,813,0,0
525,211,0,0,0,0,0,0,0,0,0,-1,1749,813,0,0
532,211,0,0,0,0,0,0,0,0,0,-1,1756,813,0,0
539,211,0,0,0,0,0,0,0,0,0,-1,1763,813,0,0
546,211,0,0,0,0,0,0,0,0,0,-1,1770,813,0,0
553,211,0,0,0,0,0,0,0,0,0,-1,1777,813,0,0
560,211,0,0,0,0,0,0,0,0,0,-1,1784,813,0,0
567,211,0,0,0,0,0,0,0,0,0,-1,1791,813,0,0
574,211,0,0,0,0,0,0,0,0,0,-1,1798,813,0,0
581,211,0,0,0,0,0,0,0,0,0,-1,1805,813,0,0
588,211,0,0,0,0,0,0,0,0,0,-1,1812,813,0,0
595,211,11.8427,1.65387,0.0040332,0.00164752,0.00237919,0.00550183,0.000178893,0.55303,0.00360973,0.0413113,1819,813,11.8427,-1.65386
602,211,11.8845,1.76392,0.00152455,0.00420373,0.00149618,0.00487239,0.000855887,1.15052,0.00300389,0.0371057,1826,813,11.8845,-1.76389
609,211,11.7578,1.82861,-0.000209701,0.00457617,0.000451399,0.00461838,-0.000251904,1.47757,0.00316623,0.0349654,1833,813,11.7579,-1.8286
616,211,11.6934,1.82037,-0.00124432,0.00354402,-0.000635171,0.00362684,-0.00132714,-1.44113,0.00296112,0.0297067,1840,813,11.6934,-1.82036
623,211,11.7769,1.77167,-0.00197255,0.0018379,-0.00178654,0.00254449,-0.00267914,-1.19417,0.0030162,0.0304598,1847,813,11.7768,-1.77167
630,211,11.84,1.73987,-0.00251891,-1.47422e-05,-0.00279368,0.00179461,-0.00432825,-0.996069,0.00363452,0.035726,1854,813,11.84,-1.73986
637,211,11.9174,1.6272,-0.00285485,-0.00169839,-0.00355139,0.00132154,-0.00587478,-0.866099,0.00442333,0.0387705,1861,813,11.9174,-1.62719
644,211,11.9966,1.55701,-0.00314327,-0.00308637,-0.00404142,0.000926694,-0.00715634,-0.788918,0.00510789,0.0407131,1868,813,11.9966,-1.55698
651,211,10.0128,1.60303,-0.00331031,-0.00408232,-0.0044619,0.00078225,-0.00817489,-0.74225,0.00572851,0.0427786,1875,813,10.0128,-1.603
658,211,9.5636,1.5,-0.00324936,-0.0048242,-0.00474209,0.000770238,-0.00884379,-0.703124,0.00616866,0.0413784,1882,813,9.56356,-1.50001
665,211,9.54614,1.24506,-0.00317261,-0.00526347,-0.00481274,0.000706945,-0.00914302,-0.678449,0.00634414,0.0387214,1889,813,9.54619,-1.24504
672,211,9.49829,1.1908,-0.00327243,-0.0051537,-0.00468685,0.000567251,-0.00899338,-0.686365,0.00619333,0.0152475,1896,813,9.49835,-1.19077
679,211,9.49316,1.31885,-0.00296165,-0.00509622,-0.00409213,0.000200088,-0.00825796,-0.657833,0.0055732,0.0114278,1903,813,9.49321,-1.31883
686,211,9.49866,1.4425,-0.00240566,-0.00406923,-0.00338997,0.000253082,-0.00672798,-0.665091,0.00457201,0.0102364,1910,813,9.49864,-1.44249
693,211,9.51904,1.54041,-0.00157499,-0.0026219,-0.0023228,0.000282602,-0.00447949,-0.674572,0.00308485,0.0111539,1917,813,9.51907,-1.54039
700,211,9.50232,1.63757,4.85438e-05,-0.000804834,-0.00144629,0.00112978,-0.00188607,-0.641956,0.00175935,0.0139397,1924,813,9.50231,-1.63758
707,211,9.50476,1.77271,0.00441405,0.00120666,-0.00082472,0.00461369,0.00100702,-0.237496,0.00280112,0.0206894,1931,813,9.50479,-1.77271
714,211,9.51563,1.89264,0.0114371,0.00258435,-0.000271569,0.0114454,0.00257603,-0.0306379,0.00693301,0.0199391,1938,813,9.51559,-1.89266
721,211,9.52454,1.94916,0.0193404,0.00362348,0.000221972,0.0193436,0.00362034,0.0141193,0.0118743,0.0159219,1945,813,9.52455,-1.94918
728,211,9.5293,2.04303,0.0296548,0.00522528,0.000858784,0.0296849,0.00519512,0.0350958,0.0183057,0.0146923,1952,813,9.52936,-2.04302
735,211,9.50452,2.1546,0.0428694,0.00675285,0.00108242,0.0429018,0.00672044,0.0299344,0.0266451,0.0235862,1959,813,9.50454,-2.15462
742,211,9.60461,2.25018,0.0601848,0.00818601,0.000998481,0.060204,0.00816684,0.0191926,0.0377096,0.0455918,1966,813,9.60456,-2.25016
749,211,9.89722,2.46289,0.0822858,0.00954633,0.000852129,0.0822958,0.00953635,0.0117127,0.0519775,0.0483495,1973,813,9.89717,-2.46286
756,211,10.019,1.3924,0,0,0,0,0,0,0,-1,1980,813,10.019,-1.39239
763,211,11.6328,1.08905,0,0,0,0,0,0,0,-1,1987,813,11.6328,-1.08908
770,211,13.2466,0.785767,0,0,0,0,0,0,0,-1,1994,813,13.2466,-0.785763
777,211,0,0,0,0,0,0,0,0,0,-1,2001,813,0,0
784,211,0,0,0,0,0,0,0,0,0,-1,2008,813,0,0
791,211,0,0,0,0,0,0,0,0,0,-1,2015,813,0,0
798,211,0,0,0,0,0,0,0,0,0,-1,2022,813,0,0
805,211,0,0,0,0,0,0,0,0,0,-1,2029,813,0,0
812,211,0,0,0,0,0,0,0,0,0,-1,2036,813,0,0
-700,204,0,0,0,0,0,0,0,0,0,-1,524,820,0,0
-693,204,0,0,0,0,0,0,0,0,0,-1,531,820,0,0
-686,204,0,0,0,0,0,0,0,0,0,-1,538,820,0,0
-679,204,0,0,0,0,0,0,0,0,0,-1,545,820,0,0
-672,204,0,0,0,0,0,0,0,0,0,-1,552,820,0,0
-665,204,0,0,0,0,0,0,0,0,0,-1,559,820,0,0
-658,204,0,0,0,0,0,0,0,0,0,-1,566,820,0,0
-651,204,-3.98254,4.29004,0.0688454,0.138414,-0.104181,0.213464,-0.00620457,-0.946521,0.144422,0.042293,573,820,-3.98257,-4.29007
-644,204,-4.68573,2.65247,0.0672884,0.116973,-0.0807554,0.176621,0.00764049,-0.934616,0.115285,0.0452408,580,820,-4.68572,-2.65249
-637,204,-4.401,2.50372,0.0604022,0.0968594,-0.0623173,0.143559,0.0137022,-0.927685,0.0914816,0.0476176,587,820,-4.40103,-2.50375
-630,204,-3.84387,2.37067,0.0511398,0.0785513,-0.0476616,0.114439,0.0152525,-0.925403,0.0717507,0.0429513,594,820,-3.84384,-2.37064
-623,204,-3.71802,1.50739,0.0412972,0.0623423,-0.0359504,0.0892784,0.014361,-0.927769,0.0553564,0.0437225,601,820,-3.71803,-1.50741
-616,204,-4.29712,0.961975,0.0319347,0.0483024,-0.026624,0.0679719,0.0122652,-0.934508,0.04183,0.0433121,608,820,-4.29714,-0.961965
-609,204,-4.35077,0.991089,0.0238254,0.0367874,-0.0192382,0.0506069,0.0100059,-0.947869,0.0309466,0.0330439,615,820,-4.35077,-0.991111
-602,204,-4.3324,0.902405,0.0168136,0.0268867,-0.0135383,0.036295,0.00740534,-0.963477,0.0221449,0.0144428,622,820,-4.33237,-0.90243
-595,204,-4.34821,0.795471,0.012336,0.0172988,-0.00737747,0.022601,0.00703377,-0.947629,0.0133551,0.0139552,629,820,-4.34823,-0.795448
-588,204,-4.35541,0.699036,0.00610188,0.0105384,-0.003906,0.0128121,0.0038282,-1.04364,0.00759406,0.0121611,636,820,-4.3554,-0.699061
-581,204,-4.34912,0.610291,0.000139154,0.0055539,-0.00118301,0.00580108,-0.000108026,-1.36482,0.00390389,0.012252,643,820,-4.34911,-0.610291
-574,204,-4.35919,0.507507,-0.0034008,0.00266416,0.000158102,0.00266828,-0.00340492,1.54475,0.00351495,0.0126309,650,820,-4.35921,-0.507494
-567,204,-4.34039,0.408447,-0.00451671,0.000733243,0.00160656,0.00118585,-0.00496932,1.29619,0.00377084,0.0121759,657,820,-4.34038,-0.40844
-560,204,-4.33063,0.300903,-0.00604752,-0.000430222,0.00289458,0.000794381,-0.00727212,1.17056,0.00513341,0.0118847,664,820,-4.3306,-0.300892
-553,204,-4.32306,0.211182,-0.00775086,-0.00161291,0.00447214,0.000742008,-0.0101058,1.08611,0.00699765,0.00986018,671,820,-4.32308,-0.211173
-546,204,-4.33313,0.15686,-0.00900671,-0.0026748,0.00576952,0.000740327,-0.0124218,1.03633,0.0085387,0.0124838,678,820,-4.33312,-0.156838
-539,204,-4.36401,0.0839844,-0.00988927,-0.00325356,0.00698366,0.00116032,-0.0143031,1.00716,0.00994479,0.0193931,685,820,-4.36399,-0.0839817
-532,204,-4.52124,0.0661011,-0.0103405,-0.00356265,0.00787168,0.0016186,-0.0155218,0.988668,0.0109274,0.044883,692,820,-4.52123,-0.0660913
-525,204,-4.77686,0.00592041,-0.0101972,-0.0038477,0.00848273,0.00203491,-0.0160798,0.964459,0.0114586,0.045202,699,820,-4.77686,-0.00590002
-518,204,-5.29071,0.148682,-0.00936017,-0.0037212,0.0088167,0.00271587,-0.0157972,0.940154,0.0115438,0.0462938,706,820,-5.29071,-0.148676
-511,204,-5.97687,0.245056,0,0,0,0,0,0,0,-1,713,820,-5.97685,-0.245046
-504,204,-6.17358,0.72052,-0.00521681,-0.00238203,0.00763924,0.0039702,-0.011569,0.877125,0.0093223,0.0470957,720,820,-6.17356,-0.720541
-497,204,-6.14648,0.818604,-0.00195908,-0.00075848,0.00590505,0.0045767,-0.00729427,0.836054,0.00691331,0.0396837,727,820,-6.14648,-0.818621
-490,204,-6.15985,0.798096,0.00192595,0.00176899,0.00310674,0.0049552,-0.00126026,0.77277,0.00379398,0.0329887,734,820,-6.15987,-0.7981
-483,204,-6.22504,0.748901,0.00578508,0.00543666,-0.000787024,0.00641694,0.0048048,-0.676478,0.00385464,0.0372552,741,820,-6.22503,-0.74889
-476,204,0,0,0,0,0,0,0,0,0,-1,748,820,0,0
-469,204,0,0,0,0,0,0,0,0,0,-1,755,820,0,0
-462,204,0,0,0,0,0,0,0,0,0,-1,762,820,0,0
-455,204,0,0,0,0,0,0,0,0,0,-1,769,820,0,0
-448,204,0,0,0,0,0,0,0,0,0,-1,776,820,0,0
-441,204,0,0,0,0,0,0,0,0,0,-1,783,820,0,0
-434,204,0,0,0,0,0,0,0,0,0,-1,790,820,0,0
-427,204,0,0,0,0,0,0,0,0,0,-1,797,820,0,0
-420,204,0,0,0,0,0,0,0,0,0,-1,804,820,0,0
-413,204,0,0,0,0,0,0,0,0,0,-1,811,820,0,0
-406,204,0,0,0,0,0,0,0,0,0,-1,818,820,0,0
-399,204,0,0,0,0,0,0,0,0,0,-1,825,820,0,0
-392,204,0,0,0,0,0,0,0,0,0,-1,832,820,0,0
-385,204,0,0,0,0,0,0,0,0,0,-1,839,820,0,0
-378,204,0,0,0,0,0,0,0,0,0,-1,846,820,0,0
-371,204,0,0,0,0,0,0,0,0,0,-1,853,820,0,0
-364,204,0,0,0,0,0,0,0,0,0,-1,860,820,0,0
-357,204,0,0,0,0,0,0,0,0,0,-1,867,820,0,0
-350,204,0,0,0,0,0,0,0,0,0,-1,874,820,0,0
-343,204,0,0,0,0,0,0,0,0,0,-1,881,820,0,0
-336,204,0,0,0,0,0,0,0,0,0,-1,888,820,0,0
-329,204,0,0,0,0,0,0,0,0,0,-1,895,820,0,0
-322,204,0,0,0,0,0,0,0,0,0,-1,902,820,0,0
-315,204,0,0,0,0,0,0,0,0,0,-1,909,820,0,0
-308,204,0,0,0,0,0,0,0,0,0,-1,916,820,0,0
-301,204,0,0,0,0,0,0,0,0,0,-1,923,820,0,0
-294,204,0,0,0,0,0,0,0,0,0,-1,930,820,0,0
-287,204,0,0,0,0,0,0,0,0,0,-1,937,820,0,0
-280,204,0,0,0,0,0,0,0,0,0,-1,944,820,0,0
-273,204,0,0,0,0,0,0,0,0,0,-1,951,820,0,0
-266,204,0,0,0,0,0,0,0,0,0,-1,958,820,0,0
-259,204,0,0,0,0,0,0,0,0,0,-1,965,820,0,0
-252,204,0,0,0,0,0,0,0,0,0,-1,972,820,0,0
-245,204,0,0,0,0,0,0,0,0,0,-1,979,820,0,0
-238,204,0,0,0,0,0,0,0,0,0,-1,986,820,0,0
-231,204,0,0,0,0,0,0,0,0,0,-1,993,820,0,0
-224,204,0,0,0,0,0,0,0,0,0,-1,1000,820,0,0
-217,204,0,0,0,0,0,0,0,0,0,-1,1007,820,0,0
-210,204,0,0,0,0,0,0,0,0,0,-1,1014,820,0,0
-203,204,0,0,0,0,0,0,0,0,0,-1,1021,820,0,0
-196,204,0,0,0,0,0,0,0,0,0,-1,1028,820,0,0
-189,204,0,0,0,0,0,0,0,0,0,-1,1035,820,0,0
-182,204,0,0,0,0,0,0,0,0,0,-1,1042,820,0,0
-175,204,0,0,0,0,0,0,0,0,0,-1,1049,820,0,0
-168,204,0,0,0,0,0,0,0,0,0,-1,1056,820,0,0
-161,204,0,0,0,0,0,0,0,0,0,-1,1063,820,0,0
-154,204,0,0,0,0,0,0,0,0,0,-1,1070,820,0,0
-147,204,0,0,0,0,0,0,0,0,0,-1,1077,820,0,0
-140,204,0,0,0,0,0,0,0,0,0,-1,1084,820,0,0
-133,204,0,0,0,0,0,0,0,0,0,-1,1091,820,0,0
-126,204,0,0,0,0,0,0,0,0,0,-1,1098,820,0,0
-119,204,0,0,0,0,0,0,0,0,0,-1,1105,820,0,0
-112,204,0,0,0,0,0,0,0,0,0,-1,1112,820,0,0
-105,204,0,0,0,0,0,0,0,0,0,-1,1119,820,0,0
-98,204,0,0,0,0,0,0,0,0,0,-1,1126,820,0,0
-91,204,0,0,0,0,0,0,0,0,0,-1,1133,820,0,0
-84,204,0,0,0,0,0,0,0,0,0,-1,1140,820,0,0
-77,204,0,0,0,0,0,0,0,0,0,-1,1147,820,0,0
-70,204,0,0,0,0,0,0,0,0,0,-1,1154,820,0,0
-63,204,0,0,0,0,0,0,0,0,0,-1,1161,820,0,0
-56,204,0,0,0,0,0,0,0,0,0,-1,1168,820,0,0
-49,204,0,0,0,0,0,0,0,0,0,-1,1175,820,0,0
-42,204,0,0,0,0,0,0,0,0,0,-1,1182,820,0,0
-35,204,0,0,0,0,0,0,0,0,0,-1,1189,820,0,0
-28,204,0,0,0,0,0,0,0,0,0,-1,1196,820,0,0
-21,204,0,0,0,0,0,0,0,0,0,-1,1203,820,0,0
-14,204,0,0,0,0,0,0,0,0,0,-1,1210,820,0,0
-7,204,0,0,0,0,0,0,0,0,0,-1,1217,820,0,0
0,204,0,0,0,0,0,0,0,0,0,-1,1224,820,0,0
7,204,0,0,0,0,0,0,0,0,0,-1,1231,820,0,0
14,204,0,0,0,0,0,0,0,0,0,-1,1238,820,0,0
21,204,0,0,0,0,0,0,0,0,0,-1,1245,820,0,0
28,204,0,0,0,0,0,0,0,0,0,-1,1252,820,0,0
35,204,0,0,0,0,0,0,0,0,0,-1,1259,820,0,0
42,204,0,0,0,0,0,0,0,0,0,-1,1266,820,0,0
49,204,0,0,0,0,0,0,0,0,0,-1,1273,820,0,0
56,204,0,0,0,0,0,0,0,0,0,-1,1280,820,0,0
63,204,0,0,0,0,0,0,0,0,0,-1,1287,820,0,0
70,204,0,0,0,0,0,0,0,0,0,-1,1294,820,0,0
77,204,0,0,0,0,0,0,0,0,0,-1,1301,820,0,0
84,204,0,0,0,0,0,0,0,0,0,-1,1308,820,0,0
91,204,0,0,0,0,0,0,0,0,0,-1,1315,820,0,0
98,204,0,0,0,0,0,0,0,0,0,-1,1322,820,0,0
105,204,0,0,0,0,0,0,0,0,0,-1,1329,820,0,0
112,204,0,0,0,0,0,0,0,0,0,-1,1336,820,0,0
119,204,0,0,0,0,0,0,0,0,0,-1,1343,820,0,0
126,204,0,0,0,0,0,0,0,0,0,-1,1350,820,0,0
133,204,0,0,0,0,0,0,0,0,0,-1,1357,820,0,0
140,204,0,0,0,0,0,0,0,0,0,-1,1364,820,0,0
147,204,0,0,0,0,0,0,0,0,0,-1,1371,820,0,0
154,204,0,0,0,0,0,0,0,0,0,-1,1378,820,0,0
161,204,0,0,0,0,0,0,0,0,0,-1,1385,820,0,0
168,204,0,0,0,0,0,0,0,0,0,-1,1392,820,0,0
175,204,0,0,0,0,0,0,0,0,0,-1,1399,820,0,0
182,204,0,0,0,0,0,0,0,0,0,-1,1406,820,0,0
189,204,0,0,0,0,0,0,0,0,0,-1,1413,820,0,0
196,204,0,0,0,0,0,0,0,0,0,-1,1420,820,0,0
203,204,0,0,0,0,0,0,0,0,0,-1,1427,820,0,0
210,204,0,0,0,0,0,0,0,0,0,-1,1434,820,0,0
217,204,0,0,0,0,0,0,0,0,0,-1,1441,820,0,0
224,204,0,0,0,0,0,0,0,0,0,-1,1448,820,0,0
231,204,0,0,0,0,0,0,0,0,0,-1,1455,820,0,0
238,204,0,0,0,0,0,0,0,0,0,-1,1462,820,0,0
245,204,0,0,0,0,0,0,0,0,0,-1,1469,820,0,0
252,204,0,0,0,0,0,0,0,0,0,-1,1476,820,0,0
259,204,0,0,0,0,0,0,0,0,0,-1,1483,820,0,0
266,204,0,0,0,0,0,0,0,0,0,-1,1490,820,0,0
273,204,0,0,0,0,0,0,0,0,0,-1,1497,820,0,0
280,204,0,0,0,0,0,0,0,0,0,-1,1504,820,0,0
287,204,0,0,0,0,0,0,0,0,0,-1,1511,820,0,0
294,204,0,0,0,0,0,0,0,0,0,-1,1518,820,0,0
301,204,0,0,0,0,0,0,0,0,0,-1,1525,820,0,0
308,204,0,0,0,0,0,0,0,0,0,-1,1532,820,0,0
315,204,0,0,0,0,0,0,0,0,0,-1,1539,820,0,0
322,204,0,0,0,0,0,0,0,0,0,-1,1546,820,0,0
329,204,0,0,0,0,0,0,0,0,0,-1,1553,820,0,0
336,204,0,0,0,0,0,0,0,0,0,-1,1560,820,0,0
343,204,0,0,0,0,0,0,0,0,0,-1,1567,820,0,0
350,204,0,0,0,0,0,0,0,0,0,-1,1574,820,0,0
357,204,0,0,0,0,0,0,0,0,0,-1,1581,820,0,0
364,204,0,0,0,0,0,0,0,0,0,-1,1588,820,0,0
371,204,0,0,0,0,0,0,0,0,0,-1,1595,820,0,0
378,204,0,0,0,0,0,0,0,0,0,-1,1602,820,0,0
385,204,0,0,0,0,0,0,0,0,0,-1,1609,820,0,0
392,204,0,0,0,0,0,0,0,0,0,-1,1616,820,0,0
399,204,0,0,0,0,0,0,0,0,0,-1,1623,820,0,0
406,204,0,0,0,0,0,0,0,0,0,-1,1630,820,0,0
413,204,0,0,0,0,0,0,0,0,0,-1,1637,820,0,0
420,204,0,0,0,0,0,0,0,0,0,-1,1644,820,0,0
427,204,0,0,0,0,0,0,0,0,0,-1,1651,820,0,0
434,204,0,0,0,0,0,0,0,0,0,-1,1658,820,0,0
441,204,0,0,0,0,0,0,0,0,0,-1,1665,820,0,0
448,204,0,0,0,0,0,0,0,0,0,-1,1672,820,0,0
455,204,0,0,0,0,0,0,0,0,0,-1,1679,820,0,0
462,204,0,0,0,0,0,0,0,0,0,-1,1686,820,0,0
469,204,0,0,0,0,0,0,0,0,0,-1,1693,820,0,0
476,204,0,0,0,0,0,0,0,0,0,-1,1700,820,0,0
483,204,0,0,0,0,0,0,0,0,0,-1,1707,820,0,0
490,204,0,0,0,0,0,0,0,0,0,-1,1714,820,0,0
497,204,0,0,0,0,0,0,0,0,0,-1,1721,820,0,0
504,204,0,0,0,0,0,0,0,0,0,-1,1728,820,0,0
511,204,0,0,0,0,0,0,0,0,0,-1,1735,820,0,0
518,204,0,0,0,0,0,0,0,0,0,-1,1742,820,0,0
525,204,0,0,0,0,0,0,0,0,0,-1,1749,820,0,0
532,204,0,0,0,0,0,0,0,0,0,-1,1756,820,0,0
539,204,0,0,0,0,0,0,0,0,0,-1,1763,820,0,0
546,204,0,0,0,0,0,0,0,0,0,-1,1770,820,0,0
553,204,0,0,0,0,0,0,0,0,0,-1,1777,820,0,0
560,204,0,0,0,0,0,0,0,0,0,-1,1784,820,0,0
567,204,0,0,0,0,0,0,0,0,0,-1,1791,820,0,0
574,204,0,0,0,0,0,0,0,0,0,-1,1798,820,0,0
581,204,0,0,0,0,0,0,0,0,0,-1,1805,820,0,0
588,204,0,0,0,0,0,0,0,0,0,-1,1812,820,0,0
595,204,0,0,0,0,0,0,0,0,0,-1,1819,820,0,0
602,204,11.8652,1.76117,0.00166466,0.00275892,0.00179024,0.00408377,0.000339811,0.9337,0.00261661,0.0379809,1826,820,11.8653,-1.76116
609,204,11.7676,1.81433,0.000143016,0.00342905,0.000893146,0.00365612,-8.40516e-05,1.32184,0.00246591,0.0394132,1833,820,11.7675,-1.81435
616,204,11.7285,1.7923,-0.000672853,0.00251203,-0.000164041,0.00252046,-0.00068128,-1.51947,0.00194753,0.0371286,1840,820,11.7285,-1.79227
623,204,11.7681,1.78125,-0.00128666,0.000863867,-0.00138306,0.00154048,-0.00196327,-1.11582,0.00202779,0.0274151,1847,820,11.768,-1.78125
630,204,11.8271,1.7475,-0.00199026,-0.000925972,-0.00256232,0.00115888,-0.00407511,-0.887783,0.00317435,0.0260256,1854,820,11.8271,-1.7475
637,204,11.8436,1.67932,-0.00256787,-0.0025295,-0.0034964,0.000947763,-0.00604514,-0.788142,0.00438033,0.0315135,1861,820,11.8437,-1.67932
644,204,11.889,1.61871,-0.00307847,-0.00381943,-0.00414656,0.00071413,-0.00761203,-0.740843,0.0053287,0.0400034,1868,820,11.889,-1.61874
651,204,9.6543,2.00116,0,0,0,0,0,0,0,-1,1875,820,9.65426,-2.00117
658,204,9.70618,1.89795,-0.0037053,-0.00531335,-0.0050313,0.000585811,-0.00960446,-0.706166,0.00660691,0.0455492,1882,820,9.70617,-1.89798
665,204,9.61194,1.45538,-0.0038526,-0.00561744,-0.00515987,0.000499764,-0.0099698,-0.700709,0.00681923,0.0449767,1889,820,9.61199,-1.45535
672,204,9.65588,1.18384,-0.00413605,-0.00545604,-0.00506534,0.000312114,-0.0099042,-0.720615,0.00670926,0.0248696,1896,820,9.65592,-1.18384
679,204,9.61047,1.29016,-0.00400491,-0.00529987,-0.00457591,-3.0899e-05,-0.00927389,-0.715116,0.00617232,0.0143518,1903,820,9.6105,-1.29017
686,204,9.61597,1.43842,-0.00357972,-0.00439765,-0.00393364,-3.38382e-05,-0.00794353,-0.733601,0.00528444,0.00995736,1910,820,9.616,-1.43844
693,204,9.62073,1.53027,-0.00285291,-0.00307414,-0.00293616,-2.52812e-05,-0.00590176,-0.76657,0.00392611,0.0154026,1917,820,9.62075,-1.5303
700,204,9.63831,1.63672,-0.00121218,-0.00142267,-0.0021164,0.000801584,-0.00343644,-0.760555,0.00259968,0.0164946,1924,820,9.63826,-1.63671
707,204,9.61328,1.77295,0.00299002,0.000295295,-0.00148479,0.00364765,-0.000362333,-0.416942,0.0025611,0.0139363,1931,820,9.61329,-1.77293
714,204,9.62451,1.90417,0.0095313,0.0013956,-0.0009264,0.00963545,0.00129145,-0.111959,0.00603936,0.020964,1938,820,9.62457,-1.90417
721,204,9.60718,1.95593,0.0170923,0.00200664,-0.000455919,0.017106,0.00199287,-0.0301853,0.0108012,0.0207791,1945,820,9.60717,-1.95591
728,204,9.60498,2.02612,0.0267411,0.00319109,0.000290022,0.0267447,0.00318752,0.0123126,0.016868,0.0126174,1952,820,9.60495,-2.02612
735,204,9.5968,2.13867,0.0387069,0.00416264,0.000629037,0.0387183,0.00415119,0.0182016,0.0245458,0.0138829,1959,820,9.5968,-2.13868
742,204,9.69263,2.20203,0.0540687,0.00492119,0.000703941,0.0540787,0.00491111,0.0143191,0.0345321,0.0295355,1966,820,9.69266,-2.20201
749,204,9.84302,2.25189,0.0733677,0.0055865,0.000924019,0.0733803,0.0055739,0.013629,0.0471721,0.0460118,1973,820,9.84303,-2.25192
756,204,10.3203,1.0401,0,0,0,0,0,0,0,-1,1980,820,10.3203,-1.04009
763,204,11.3989,1.09137,0,0,0,0,0,0,0,-1,1987,820,11.399,-1.09134
770,204,12.5681,0.905823,0,0,0,0,0,0,0,-1,1994,820,12.5681,-0.905836
777,204,0,0,0,0,0,0,0,0,0,-1,2001,820,0,0
784,204,0,0,0,0,0,0,0,0,0,-1,2008,820,0,0
791,204,0,0,0,0,0,0,0,0,0,-1,2015,820,0,0
798,204,0,0,0,0,0,0,0,0,0,-1,2022,820,0,0
805,204,0,0,0,0,0,0,0,0,0,-1,2029,820,0,0
812,204,0,0,0,0,0,0,0,0,0,-1,2036,820,0,0
-700,197,0,0,0,0,0,0,0,0,0,-1,524,827,0,0
-693,197,0,0,0,0,0,0,0,0,0,-1,531,827,0,0
-686,197,0,0,0,0,0,0,0,0,0,-1,538,827,0,0
-679,197,0,0,0,0,0,0,0,0,0,-1,545,827,0,0
-672,197,0,0,0,0,0,0,0,0,0,-1,552,827,0,0
-665,197,0,0,0,0,0,0,0,0,0,-1,559,827,0,0
-658,197,-3.68634,4.49225,0,0,0,0,0,0,0,-1,566,827,-3.68632,-4.49228
-651,197,-3.79962,3.96643,0.0499338,0.118091,-0.0925627,0.182649,-0.0146242,-0.961783,0.126922,0.0456673,573,827,-3.79962,-3.96641
-644,197,-3.64105,3.4223,0.052257,0.100187,-0.072713,0.152782,-0.000338592,-0.944583,0.101968,0.0460915,580,827,-3.64107,-3.4223
-637,197,-3.41681,2.70862,0.0487608,0.0828367,-0.0564375,0.124752,0.00684555,-0.931994,0.0809826,0.0478662,587,827,-3.4168,-2.70864
-630,197,-3.52618,1.93793,0.0422151,0.0668173,-0.0431327,0.0993687,0.00966375,-0.924307,0.063271,0.0450753,594,827,-3.5262,-1.93791
-623,197,-3.6792,1.20825,0.0344806,0.052558,-0.0323163,0.0770758,0.00996276,-0.921761,0.0484059,0.0455238,601,827,-3.67922,-1.20824
-616,197,-4.55847,0.873901,0.0267373,0.0402282,-0.0236252,0.058052,0.00891344,-0.924459,0.0360989,0.0461853,608,827,-4.55845,-0.873887
-609,197,-4.49414,0.898804,0.0198924,0.0302965,-0.0167215,0.0426065,0.00758245,-0.936202,0.0262445,0.0319056,615,827,-4.49412,-0.898834
-602,197,-4.45685,0.873779,0.0138153,0.021743,-0.0114319,0.0298788,0.00567957,-0.95228,0.0183218,0.0157895,622,827,-4.45685,-0.873793
-595,197,-4.45972,0.813782,0.009833,0.0131371,-0.00580648,0.017522,0.00544813,-0.923996,0.0103546,0.0155751,629,827,-4.45969,-0.813764
-588,197,-4.46381,0.711975,0.00424436,0.00755134,-0.00252413,0.00891535,0.00288035,-1.07536,0.00525359,0.0175198,636,827,-4.46382,-0.711978
-581,197,-4.4472,0.599487,-0.00115636,0.00352305,1.5863e-05,0.0035231,-0.00115641,1.56741,0.00281454,0.0109705,643,827,-4.44722,-0.59948
-574,197,-4.44495,0.505615,-0.00444919,0.00124645,0.00123017,0.00150079,-0.00470353,1.36692,0.00373777,0.0113936,650,827,-4.44493,-0.505591
-567,197,-4.44208,0.401733,-0.0056184,-0.00021997,0.00248318,0.000748506,-0.00658687,1.19893,0.00466083,0.0119702,657,827,-4.44211,-0.401704
-560,197,-4.44336,0.330627,-0.00700707,-0.00106291,0.00358504,0.000621812,-0.00869179,1.13149,0.00601252,0.0117153,664,827,-4.44337,-0.33062
-553,197,-4.42316,0.244568,-0.00848379,-0.00193481,0.00491764,0.000698785,-0.0111174,1.07912,0.00765515,0.01139,671,827,-4.42317,-0.244581
-546,197,-4.40881,0.15332,-0.00961334,-0.00277322,0.00600363,0.000716164,-0.0131027,1.04431,0.00898339,0.0196043,678,827,-4.40883,-0.153344
-539,197,-4.50232,0.175903,-0.0102935,-0.00314642,0.00699474,0.00113476,-0.0145747,1.02156,0.0101159,0.0367169,685,827,-4.50229,-0.175931
-532,197,-4.79254,0.216309,-0.0103875,-0.00318986,0.00770502,0.00171536,-0.0152927,1.00388,0.0108124,0.0470999,692,827,-4.79255,-0.216288
-525,197,-4.94733,0.213684,0,0,0,0,0,0,0,-1,699,827,-4.94735,-0.21367
-518,197,-5.56128,0.445435,0,0,0,0,0,0,0,-1,706,827,-5.5613,-0.445421
-511,197,-6.1153,0.751099,-0.00597964,-0.00184751,0.00781012,0.00416519,-0.0119923,0.914705,0.00968655,0.0426575,713,827,-6.1153,-0.751109
-504,197,-5.92999,1.03925,-0.00267467,-0.000387128,0.00670923,0.00527513,-0.00833692,0.869825,0.00792491,0.0405756,720,827,-5.92997,-1.03926
-497,197,-6.13641,0.96051,0.00148002,0.00189755,0.00472008,0.00641348,-0.00303591,0.807498,0.00557057,0.0403924,727,827,-6.13641,-0.960532
-490,197,-6.23242,0.612122,0.00605159,0.00519457,0.00168045,0.00735731,0.00388885,0.66056,0.00425006,0.035382,734,827,-6.2324,-0.61215
-483,197,-6.3056,0.51178,0.0100248,0.00977821,-0.00229649,0.0122013,0.00760172,-0.758578,0.00711515,0.0370385,741,827,-6.30559,-0.511781
-476,197,0,0,0,0,0,0,0,0,0,-1,748,827,0,0
-469,197,0,0,0,0,0,0,0,0,0,-1,755,827,0,0
-462,197,0,0,0,0,0,0,0,0,0,-1,762,827,0,0
-455,197,0,0,0,0,0,0,0,0,0,-1,769,827,0,0
-448,197,0,0,0,0,0,0,0,0,0,-1,776,827,0,0
-441,197,0,0,0,0,0,0,0,0,0,-1,783,827,0,0
-434,197,0,0,0,0,0,0,0,0,0,-1,790,827,0,0
-427,197,0,0,0,0,0,0,0,0,0,-1,797,827,0,0
-420,197,0,0,0,0,0,0,0,0,0,-1,804,827,0,0
-413,197,0,0,0,0,0,0,0,0,0,-1,811,827,0,0
-406,197,0,0,0,0,0,0,0,0,0,-1,818,827,0,0
-399,197,0,0,0,0,0,0,0,0,0,-1,825,827,0,0
-392,197,0,0,0,0,0,0,0,0,0,-1,832,827,0,0
-385,197,0,0,0,0,0,0,0,0,0,-1,839,827,0,0
-378,197,0,0,0,0,0,0,0,0,0,-1,846,827,0,0
-371,197,0,0,0,0,0,0,0,0,0,-1,853,827,0,0
-364,197,0,0,0,0,0,0,0,0,0,-1,860,827,0,0
-357,197,0,0,0,0,0,0,0,0,0,-1,867,827,0,0
-350,197,0,0,0,0,0,0,0,0,0,-1,874,827,0,0
-343,197,0,0,0,0,0,0,0,0,0,-1,881,827,0,0
-336,197,0,0,0,0,0,0,0,0,0,-1,888,827,0,0
-329,197,0,0,0,0,0,0,0,0,0,-1,895,827,0,0
-322,197,0,0,0,0,0,0,0,0,0,-1,902,827,0,0
-315,197,0,0,0,0,0,0,0,0,0,-1,909,827,0,0
-308,197,0,0,0,0,0,0,0,0,0,-1,916,827,0,0
-301,197,0,0,0,0,0,0,0,0,0,-1,923,827,0,0
-294,197,0,0,0,0,0,0,0,0,0,-1,930,827,0,0
-287,197,0,0,0,0,0,0,0,0,0,-1,937,827,0,0
-280,197,0,0,0,0,0,0,0,0,0,-1,944,827,0,0
-273,197,0,0,0,0,0,0,0,0,0,-1,951,827,0,0
-266,197,0,0,0,0,0,0,0,0,0,-1,958,827,0,0
-259,197,0,0,0,0,0,0,0,0,0,-1,965,827,0,0
-252,197,0,0,0,0,0,0,0,0,0,-1,972,827,0,0
-245,197,0,0,0,0,0,0,0,0,0,-1,979,827,0,0
-238,197,0,0,0,0,0,0,0,0,0,-1,986,827,0,0
-231,197,0,0,0,0,0,0,0,0,0,-1,993,827,0,0
-224,197,0,0,0,0,0,0,0,0,0,-1,1000,827,0,0
-217,197,0,0,0,0,0,0,0,0,0,-1,1007,827,0,0
-210,197,0,0,0,0,0,0,0,0,0,-1,1014,827,0,0
-203,197,0,0,0,0,0,0,0,0,0,-1,1021,827,0,0
-196,197,0,0,0,0,0,0,0,0,0,-1,1028,827,0,0
-189,197,0,0,0,0,0,0,0,0,0,-1,1035,827,0,0
-182,197,0,0,0,0,0,0,0,0,0,-1,1042,827,0,0
-175,197,0,0,0,0,0,0,0,0,0,-1,1049,827,0,0
-168,197,0,0,0,0,0,0,0,0,0,-1,1056,827,0,0
-161,197,0,0,0,0,0,0,0,0,0,-1,1063,827,0,0
-154,197,0,0,0,0,0,0,0,0,0,-1,1070,827,0,0
-147,197,0,0,0,0,0,0,0,0,0,-1,1077,827,0,0
-140,197,0,0,0,0,0,0,0,0,0,-1,1084,827,0,0
-133,197,0,0,0,0,0,0,0,0,0,-1,1091,827,0,0
-126,197,0,0,0,0,0,0,0,0,0,-1,1098,827,0,0
-119,197,0,0,0,0,0,0,0,0,0,-1,1105,827,0,0
-112,197,0,0,0,0,0,0,0,0,0,-1,1112,827,0,0
-105,197,0,0,0,0,0,0,0,0,0,-1,1119,827,0,0
-98,197,0,0,0,0,0,0,0,0,0,-1,1126,827,0,0
-91,197,0,0,0,0,0,0,0,0,0,-1,1133,827,0,0
-84,197,0,0,0,0,0,0,0,0,0,-1,1140,827,0,0
-77,197,0,0,0,0,0,0,0,0,0,-1,1147,827,0,0
-70,197,0,0,0,0,0,0,0,0,0,-1,1154,827,0,0
-63,197,0,0,0,0,0,0,0,0,0,-1,1161,827,0,0
-56,197,0,0,0,0,0,0,0,0,0,-1,1168,827,0,0
-49,197,0,0,0,0,0,0,0,0,0,-1,1175,827,0,0
-42,197,0,0,0,0,0,0,0,0,0,-1,1182,827,0,0
-35,197,0,0,0,0,0,0,0,0,0,-1,1189,827,0,0
-28,197,0,0,0,0,0,0,0,0,0,-1,1196,827,0,0
-21,197,0,0,0,0,0,0,0,0,0,-1,1203,827,0,0
-14,197,0,0,0,0,0,0,0,0,0,-1,1210,827,0,0
-7,197,0,0,0,0,0,0,0,0,0,-1,1217,827,0,0
0,197,0,0,0,0,0,0,0,0,0,-1,1224,827,0,0
7,197,0,0,0,0,0,0,0,0,0,-1,1231,827,0,0
14,197,0,0,0,0,0,0,0,0,0,-1,1238,827,0,0
21,197,0,0,0,0,0,0,0,0,0,-1,1245,827,0,0
28,197,0,0,0,0,0,0,0,0,0,-1,1252,827,0,0
35,197,0,0,0,0,0,0,0,0,0,-1,1259,827,0,0
42,197,0,0,0,0,0,0,0,0,0,-1,1266,827,0,0
49,197,0,0,0,0,0,0,0,0,0,-1,1273,827,0,0
56,197,0,0,0,0,0,0,0,0,0,-1,1280,827,0,0
63,197,0,0,0,0,0,0,0,0,0,-1,1287,827,0,0
70,197,0,0,0,0,0,0,0,0,0,-1,1294,827,0,0
77,197,0,0,0,0,0,0,0,0,0,-1,1301,827,0,0
84,197,0,0,0,0,0,0,0,0,0,-1,1308,827,0,0
91,197,0,0,0,0,0,0,0,0,0,-1,1315,827,0,0
98,197,0,0,0,0,0,0,0,0,0,-1,1322,827,0,0
105,197,0,0,0,0,0,0,0,0,0,-1,1329,827,0,0
112,197,0,0,0,0,0,0,0,0,0,-1,1336,827,0,0
119,197,0,0,0,0,0,0,0,0,0,-1,1343,827,0,0
126,197,0,0,0,0,0,0,0,0,0,-1,1350,827,0,0
133,197,0,0,0,0,0,0,0,0,0,-1,1357,827,0,0
140,197,0,0,0,0,0,0,0,0,0,-1,1364,827,0,0
147,197,0,0,0,0,0,0,0,0,0,-1,1371,827,0,0
154,197,0,0,0,0,0,0,0,0,0,-1,1378,827,0,0
161,197,0,0,0,0,0,0,0,0,0,-1,1385,827,0,0
168,197,0,0,0,0,0,0,0,0,0,-1,1392,827,0,0
175,197,0,0,0,0,0,0,0,0,0,-1,1399,827,0,0
182,197,0,0,0,0,0,0,0,0,0,-1,1406,827,0,0
189,197,0,0,0,0,0,0,0,0,0,-1,1413,827,0,0
196,197,0,0,0,0,0,0,0,0,0,-1,1420,827,0,0
203,197,0,0,0,0,0,0,0,0,0,-1,1427,827,0,0
210,197,0,0,0,0,0,0,0,0,0,-1,1434,827,0,0
217,197,0,0,0,0,0,0,0,0,0,-1,1441,827,0,0
224,197,0,0,0,0,0,0,0,0,0,-1,1448,827,0,0
231,197,0,0,0,0,0,0,0,0,0,-1,1455,827,0,0
238,197,0,0,0,0,0,0,0,0,0,-1,1462,827,0,0
245,197,0,0,0,0,0,0,0,0,0,-1,1469,827,0,0
252,197,0,0,0,0,0,0,0,0,0,-1,1476,827,0,0
259,197,0,0,0,0,0,0,0,0,0,-1,1483,827,0,0
266,197,0,0,0,0,0,0,0,0,0,-1,1490,827,0,0
273,197,0,0,0,0,0,0,0,0,0,-1,1497,827,0,0
280,197,0,0,0,0,0,0,0,0,0,-1,1504,827,0,0
287,197,0,0,0,0,0,0,0,0,0,-1,1511,827,0,0
294,197,0,0,0,0,0,0,0,0,0,-1,1518,827,0,0
301,197,0,0,0,0,0,0,0,0,0,-1,1525,827,0,0
308,197,0,0,0,0,0,0,0,0,0,-1,1532,827,0,0
315,197,0,0,0,0,0,0,0,0,0,-1,1539,827,0,0
322,197,0,0,0,0,0,0,0,0,0,-1,1546,827,0,0
329,197,0,0,0,0,0,0,0,0,0,-1,1553,827,0,0
336,197,0,0,0,0,0,0,0,0,0,-1,1560,827,0,0
343,197,0,0,0,0,0,0,0,0,0,-1,1567,827,0,0
350,197,0,0,0,0,0,0,0,0,0,-1,1574,827,0,0
357,197,0,0,0,0,0,0,0,0,0,-1,1581,827,0,0
364,197,0,0,0,0,0,0,0,0,0,-1,1588,827,0,0
371,197,0,0,0,0,0,0,0,0,0,-1,1595,827,0,0
378,197,0,0,0,0,0,0,0,0,0,-1,1602,827,0,0
385,197,0,0,0,0,0,0,0,0,0,-1,1609,827,0,0
392,197,0,0,0,0,0,0,0,0,0,-1,1616,827,0,0
399,197,0,0,0,0,0,0,0,0,0,-1,1623,827,0,0
406,197,0,0,0,0,0,0,0,0,0,-1,1630,827,0,0
413,197,0,0,0,0,0,0,0,0,0,-1,1637,827,0,0
420,197,0,0,0,0,0,0,0,0,0,-1,1644,827,0,0
427,197,0,0,0,0,0,0,0,0,0,-1,1651,827,0,0
434,197,0,0,0,0,0,0,0,0,0,-1,1658,827,0,0
441,197,0,0,0,0,0,0,0,0,0,-1,1665,827,0,0
448,197,0,0,0,0,0,0,0,0,0,-1,1672,827,0,0
455,197,0,0,0,0,0,0,0,0,0,-1,1679,827,0,0
462,197,0,0,0,0,0,0,0,0,0,-1,1686,827,0,0
469,197,0,0,0,0,0,0,0,0,0,-1,1693,827,0,0
476,197,0,0,0,0,0,0,0,0,0,-1,1700,827,0,0
483,197,0,0,0,0,0,0,0,0,0,-1,1707,827,0,0
490,197,0,0,0,0,0,0,0,0,0,-1,1714,827,0,0
497,197,0,0,0,0,0,0,0,0,0,-1,1721,827,0,0
504,197,0,0,0,0,0,0,0,0,0,-1,1728,827,0,0
511,197,0,0,0,0,0,0,0,0,0,-1,1735,827,0,0
518,197,0,0,0,0,0,0,0,0,0,-1,1742,827,0,0
525,197,0,0,0,0,0,0,0,0,0,-1,1749,827,0,0
532,197,0,0,0,0,0,0,0,0,0,-1,1756,827,0,0
539,197,0,0,0,0,0,0,0,0,0,-1,1763,827,0,0
546,197,0,0,0,0,0,0,0,0,0,-1,1770,827,0,0
553,197,0,0,0,0,0,0,0,0,0,-1,1777,827,0,0
560,197,0,0,0,0,0,0,0,0,0,-1,1784,827,0,0
567,197,0,0,0,0,0,0,0,0,0,-1,1791,827,0,0
574,197,0,0,0,0,0,0,0,0,0,-1,1798,827,0,0
581,197,0,0,0,0,0,0,0,0,0,-1,1805,827,0,0
588,197,0,0,0,0,0,0,0,0,0,-1,1812,827,0,0
595,197,0,0,0,0,0,0,0,0,0,-1,1819,827,0,0
602,197,11.7437,1.70374,0.00112583,0.00261229,0.00141865,0.00347061,0.000267509,1.02669,0.00222993,0.0390193,1826,827,11.7437,-1.70373
609,197,11.6744,1.6897,-0.000107291,0.00298425,0.000978112,0.00326772,-0.000390758,1.28871,0.00231973,0.0370463,1833,827,11.6744,-1.68968
616,197,11.7826,1.67249,-0.000571484,0.0018209,0.000164567,0.00183217,-0.000582751,1.50244,0.00145513,0.0371057,1840,827,11.7826,-1.67247
623,197,11.7933,1.66803,-0.000899725,6.64035e-05,-0.000940116,0.000640301,-0.00147362,-1.02273,0.00125169,0.0343977,1847,827,11.7933,-1.66802
630,197,11.8344,1.69244,-0.00159996,-0.00173281,-0.00220082,0.000535439,-0.0038682,-0.770312,0.00277456,0.0287894,1854,827,11.8343,-1.69244
637,197,11.8126,1.71722,-0.00237693,-0.00326309,-0.00327361,0.00048345,-0.00612346,-0.718132,0.00425263,0.026682,1861,827,11.8126,-1.7172
644,197,11.8167,1.71063,-0.00309071,-0.00442654,-0.00407781,0.000373521,-0.00789077,-0.704223,0.00538934,0.0338728,1868,827,11.8166,-1.71065
651,197,11.9601,1.69073,-0.00370552,-0.00519154,-0.00471621,0.000325852,-0.00922291,-0.707269,0.00626005,0.0423522,1875,827,11.9601,-1.69073
658,197,9.56128,1.97601,0,0,0,0,0,0,0,-1,1882,827,9.56123,-1.97604
665,197,10.4982,1.14789,0,0,0,0,0,0,0,-1,1889,827,10.4982,-1.14786
672,197,10.0637,1.21667,-0.00497663,-0.00553326,-0.00532127,7.3595e-05,-0.0105835,-0.759271,0.00708031,0.0388131,1896,827,10.0637,-1.21665
679,197,9.76282,1.33856,-0.00504043,-0.00519668,-0.00497647,-0.000141475,-0.0100956,-0.777549,0.00668376,0.0167553,1903,827,9.76284,-1.33859
686,197,9.73401,1.43726,-0.0047608,-0.00436625,-0.00443375,-0.000125383,-0.00900167,-0.807631,0.00595976,0.0112929,1910,827,9.734,-1.43723
693,197,9.70483,1.55688,-0.00414039,-0.00317076,-0.003549,-7.36183e-05,-0.00723754,-0.853281,0.00480067,0.0149027,1917,827,9.70487,-1.5569
700,197,9.71118,1.66882,-0.00254086,-0.00171036,-0.00280453,0.00070949,-0.00496072,-0.858896,0.00356724,0.0204396,1924,827,9.71113,-1.66882
707,197,9.729,1.7688,0.00138177,-0.000287711,-0.00216873,0.00287086,-0.0017768,-0.601688,0.002708,0.00848591,1931,827,9.72897,-1.76879
714,197,9.70789,1.86792,0.00730591,0.000575936,-0.00160687,0.00766989,0.000211961,-0.222753,0.00504409,0.0106397,1938,827,9.7079,-1.86789
721,197,9.69751,1.95929,0.0144222,0.000843401,-0.00113087,0.0145158,0.000749864,-0.0825244,0.00943715,0.0112856,1945,827,9.69748,-1.9593
728,197,9.69824,2.03394,0.0233357,0.00153675,-5.39169e-05,0.0233359,0.00153661,-0.00247335,0.0150712,0.00994398,1952,827,9.69826,-2.03394
735,197,9.69373,2.13043,0.0340466,0.00219972,0.000764635,0.0340649,0.00218137,0.0239913,0.0220189,0.0103023,1959,827,9.69367,-2.13045
742,197,9.71313,2.24896,0.0474183,0.0028223,0.00140981,0.0474628,0.00277778,0.0315709,0.0307578,0.0189607,1966,827,9.7131,-2.24894
749,197,9.79407,1.65698,0.0638942,0.00331924,0.00250764,0.0639978,0.00321561,0.0413031,0.0416348,0.0421902,1973,827,9.79405,-1.65698
756,197,10.2687,1.22424,0.0837624,0.00411237,0.00441463,0.0840064,0.00386844,0.0551999,0.0547603,0.0457153,1980,827,10.2687,-1.22427
763,197,11.0425,1.00812,0.106953,0.00560092,0.00757063,0.107515,0.00503854,0.074148,0.0700578,0.0456075,1987,827,11.0425,-1.0081
770,197,11.8086,0.783264,0,0,0,0,0,0,0,-1,1994,827,11.8086,-0.783283
777,197,0,0,0,0,0,0,0,0,0,-1,2001,827,0,0
784,197,0,0,0,0,0,0,0,0,0,-1,2008,827,0,0
791,197,0,0,0,0,0,0,0,0,0,-1,2015,827,0,0
798,197,0,0,0,0,0,0,0,0,0,-1,2022,827,0,0
805,197,0,0,0,0,0,0,0,0,0,-1,2029,827,0,0
812,197,0,0,0,0,0,0,0,0,0,-1,2036,827,0,0
-700,190,0,0,0,0,0,0,0,0,0,-1,524,834,0,0
-693,190,0,0,0,0,0,0,0,0,0,-1,531,834,0,0
-686,190,0,0,0,0,0,0,0,0,0,-1,538,834,0,0
-679,190,0,0,0,0,0,0,0,0,0,-1,545,834,0,0
-672,190,0,0,0,0,0,0,0,0,0,-1,552,834,0,0
-665,190,0,0,0,0,0,0,0,0,0,-1,559,834,0,0
-658,190,-3.51337,4.0929,0,0,0,0,0,0,0,-1,566,834,-3.51337,-4.09289
-651,190,-4.06201,0.791748,0.0283599,0.0967816,-0.0777222,0.147489,-0.0223476,-0.992722,0.106559,0.0497151,573,834,-4.06198,-0.791755
-644,190,-4.12738,0.687988,0.0321819,0.0821973,-0.0614094,0.123496,-0.00911652,-0.97876,0.0855315,0.0472951,580,834,-4.1274,-0.688011
-637,190,-4.26855,0.395386,0.0313247,0.0678152,-0.0477383,0.100676,-0.00153617,-0.967929,0.0676352,0.049023,587,834,-4.26854,-0.395374
-630,190,-4.83118,0.137451,0.027783,0.054456,-0.03639,0.0798763,0.00236263,-0.961042,0.0524811,0.046073,594,834,-4.83116,-0.137476
-623,190,-3.48022,0.861755,0.0229912,0.0425444,-0.0270871,0.0615653,0.00397038,-0.958589,0.0397861,0.0467132,601,834,-3.48025,-0.861725
-616,190,-4.69208,0.862671,0.0179104,0.0322612,-0.0195871,0.0459459,0.00422573,-0.960974,0.0293237,0.0468734,608,834,-4.69207,-0.862673
-609,190,-4.58862,0.873779,0.0133245,0.0241188,-0.0136076,0.0333605,0.00408275,-0.974196,0.021012,0.0247171,615,834,-4.58864,-0.873774
-602,190,-4.55341,0.856384,0.00902285,0.0170388,-0.00905033,0.0229289,0.00313273,-0.993846,0.0143561,0.0148887,622,834,-4.5534,-0.856356
-595,190,-4.5545,0.818909,0.00607869,0.00956381,-0.00426278,0.0124264,0.00321606,-0.979426,0.00744746,0.0166253,629,834,-4.55447,-0.818919
-588,190,-4.56262,0.71405,0.00164132,0.00513617,-0.0012909,0.00556128,0.00121621,-1.25267,0.00337595,0.0140455,636,834,-4.56265,-0.714034
-581,190,-4.55396,0.607056,-0.00274416,0.00190662,0.00103782,0.0021277,-0.00296524,1.36091,0.00295363,0.0100876,643,834,-4.55393,-0.607039
-574,190,-4.53583,0.501404,-0.0055611,8.45085e-05,0.00212823,0.000796895,-0.00627348,1.24779,0.00447169,0.00975281,650,834,-4.53581,-0.501419
-567,190,-4.52557,0.399109,-0.0066756,-0.00103058,0.00317148,0.000392485,-0.00809866,1.14902,0.00553458,0.0108583,657,834,-4.52555,-0.399112
-560,190,-4.54541,0.328125,-0.00789877,-0.00161049,0.00408981,0.000404067,-0.00991333,1.1131,0.00674761,0.0140208,664,834,-4.54538,-0.328118
-553,190,-4.54681,0.261414,-0.00917534,-0.00221022,0.00521322,0.000576654,-0.0119622,1.07987,0.00817381,0.0131517,671,834,-4.54682,-0.261387
-546,190,-4.5202,0.146545,-0.0101766,-0.00284268,0.00611369,0.00061943,-0.0136388,1.05553,0.00930585,0.0260439,678,834,-4.52019,-0.146534
-539,190,-4.9129,-0.0991821,-0.0106413,-0.00304227,0.00689711,0.00103264,-0.0147162,1.03716,0.0101725,0.0413067,685,834,-4.91289,0.0991627
-532,190,-5.29199,0.248413,-0.0104617,-0.00293726,0.00741828,0.00161827,-0.0150173,1.02008,0.0105922,0.0449887,692,834,-5.292,-0.248439
-525,190,-6.3689,0.460388,-0.00945409,-0.00272883,0.0076597,0.00227385,-0.0144568,0.992234,0.0104784,0.0444309,699,834,-6.36891,-0.460371
-518,190,-6.26184,0.56543,-0.00756073,-0.00211842,0.00757622,0.00321051,-0.0128897,0.957809,0.00983944,0.0473524,706,834,-6.26184,-0.565441
-511,190,-5.9765,0.89502,-0.00461632,-0.00102315,0.00694437,0.00435327,-0.00999274,0.911978,0.00849331,0.0423321,713,834,-5.9765,-0.895019
-504,190,-5.77515,1.22797,-0.000625738,0.000739567,0.00563115,0.00572929,-0.00561546,0.845718,0.00655001,0.0435423,720,834,-5.77515,-1.22796
-497,190,-5.63214,1.42621,0,0,0,0,0,0,0,-1,727,834,-5.63216,-1.42618
-490,190,-6.15826,0.246704,0,0,0,0,0,0,0,-1,734,834,-6.15827,-0.246707
-483,190,0,0,0,0,0,0,0,0,0,-1,741,834,0,0
-476,190,0,0,0,0,0,0,0,0,0,-1,748,834,0,0
-469,190,0,0,0,0,0,0,0,0,0,-1,755,834,0,0
-462,190,0,0,0,0,0,0,0,0,0,-1,762,834,0,0
-455,190,0,0,0,0,0,0,0,0,0,-1,769,834,0,0
-448,190,0,0,0,0,0,0,0,0,0,-1,776,834,0,0
-441,190,0,0,0,0,0,0,0,0,0,-1,783,834,0,0
-434,190,0,0,0,0,0,0,0,0,0,-1,790,834,0,0
-427,190,0,0,0,0,0,0,0,0,0,-1,797,834,0,0
-420,190,0,0,0,0,0,0,0,0,0,-1,804,834,0,0
-413,190,0,0,0,0,0,0,0,0,0,-1,811,834,0,0
-406,190,0,0,0,0,0,0,0,0,0,-1,818,834,0,0
-399,190,0,0,0,0,0,0,0,0,0,-1,825,834,0,0
-392,190,0,0,0,0,0,0,0,0,0,-1,832,834,0,0
-385,190,0,0,0,0,0,0,0,0,0,-1,839,834,0,0
-378,190,0,0,0,0,0,0,0,0,0,-1,846,834,0,0
-371,190,0,0,0,0,0,0,0,0,0,-1,853,834,0,0
-364,190,0,0,0,0,0,0,0,0,0,-1,860,834,0,0
-357,190,0,0,0,0,0,0,0,0,0,-1,867,834,0,0
-350,190,0,0,0,0,0,0,0,0,0,-1,874,834,0,0
-343,190,0,0,0,0,0,0,0,0,0,-1,881,834,0,0
-336,190,0,0,0,0,0,0,0,0,0,-1,888,834,0,0
-329,190,0,0,0,0,0,0,0,0,0,-1,895,834,0,0
-322,190,0,0,0,0,0,0,0,0,0,-1,902,834,0,0
-315,190,0,0,0,0,0,0,0,0,0,-1,909,834,0,0
-308,190,0,0,0,0,0,0,0,0,0,-1,916,834,0,0
-301,190,0,0,0,0,0,0,0,0,0,-1,923,834,0,0
-294,190,0,0,0,0,0,0,0,0,0,-1,930,834,0,0
-287,190,0,0,0,0,0,0,0,0,0,-1,937,834,0,0
-280,190,0,0,0,0,0,0,0,0,0,-1,944,834,0,0
-273,190,0,0,0,0,0,0,0,0,0,-1,951,834,0,0
-266,190,0,0,0,0,0,0,0,0,0,-1,958,834,0,0
-259,190,0,0,0,0,0,0,0,0,0,-1,965,834,0,0
-252,190,0,0,0,0,0,0,0,0,0,-1,972,834,0,0
-245,190,0,0,0,0,0,0,0,0,0,-1,979,834,0,0
-238,190,0,0,0,0,0,0,0,0,0,-1,986,834,0,0
-231,190,0,0,0,0,0,0,0,0,0,-1,993,834,0,0
-224,190,0,0,0,0,0,0,0,0,0,-1,1000,834,0,0
-217,190,0,0,0,0,0,0,0,0,0,-1,1007,834,0,0
-210,190,0,0,0,0,0,0,0,0,0,-1,1014,834,0,0
-203,190,0,0,0,0,0,0,0,0,0,-1,1021,834,0,0
-196,190,0,0,0,0,0,0,0,0,0,-1,1028,834,0,0
-189,190,0,0,0,0,0,0,0,0,0,-1,1035,834,0,0
-182,190,0,0,0,0,0,0,0,0,0,-1,1042,834,0,0
-175,190,0,0,0,0,0,0,0,0,0,-1,1049,834,0,0
-168,190,0,0,0,0,0,0,0,0,0,-1,1056,834,0,0
-161,190,0,0,0,0,0,0,0,0,0,-1,1063,834,0,0
-154,190,0,0,0,0,0,0,0,0,0,-1,1070,834,0,0
-147,190,0,0,0,0,0,0,0,0,0,-1,1077,834,0,0
-140,190,0,0,0,0,0,0,0,0,0,-1,1084,834,0,0
-133,190,0,0,0,0,0,0,0,0,0,-1,1091,834,0,0
-126,190,0,0,0,0,0,0,0,0,0,-1,1098,834,0,0
-119,190,0,0,0,0,0,0,0,0,0,-1,1105,834,0,0
-112,190,0,0,0,0,0,0,0,0,0,-1,1112,834,0,0
-105,190,0,0,0,0,0,0,0,0,0,-1,1119,834,0,0
-98,190,0,0,0,0,0,0,0,0,0,-1,1126,834,0,0
-91,190,0,0,0,0,0,0,0,0,0,-1,1133,834,0,0
-84,190,0,0,0,0,0,0,0,0,0,-1,1140,834,0,0
-77,190,0,0,0,0,0,0,0,0,0,-1,1147,834,0,0
-70,190,0,0,0,0,0,0,0,0,0,-1,1154,834,0,0
-63,190,0,0,0,0,0,0,0,0,0,-1,1161,834,0,0
-56,190,0,0,0,0,0,0,0,0,0,-1,1168,834,0,0
-49,190,0,0,0,0,0,0,0,0,0,-1,1175,834,0,0
-42,190,0,0,0,0,0,0,0,0,0,-1,1182,834,0,0
-35,190,0,0,0,0,0,0,0,0,0,-1,1189,834,0,0
-28,190,0,0,0,0,0,0,0,0,0,-1,1196,834,0,0
-21,190,0,0,0,0,0,0,0,0,0,-1,1203,834,0,0
-14,190,0,0,0,0,0,0,0,0,0,-1,1210,834,0,0
-7,190,0,0,0,0,0,0,0,0,0,-1,1217,834,0,0
0,190,0,0,0,0,0,0,0,0,0,-1,1224,834,0,0
7,190,0,0,0,0,0,0,0,0,0,-1,1231,834,0,0
14,190,0,0,0,0,0,0,0,0,0,-1,1238,834,0,0
21,190,0,0,0,0,0,0,0,0,0,-1,1245,834,0,0
28,190,0,0,0,0,0,0,0,0,0,-1,1252,834,0,0
35,190,0,0,0,0,0,0,0,0,0,-1,1259,834,0,0
42,190,0,0,0,0,0,0,0,0,0,-1,1266,834,0,0
49,190,0,0,0,0,0,0,0,0,0,-1,1273,834,0,0
56,190,0,0,0,0,0,0,0,0,0,-1,1280,834,0,0
63,190,0,0,0,0,0,0,0,0,0,-1,1287,834,0,0
70,190,0,0,0,0,0,0,0,0,0,-1,1294,834,0,0
77,190,0,0,0,0,0,0,0,0,0,-1,1301,834,0,0
84,190,0,0,0,0,0,0,0,0,0,-1,1308,834,0,0
91,190,0,0,0,0,0,0,0,0,0,-1,1315,834,0,0
98,190,0,0,0,0,0,0,0,0,0,-1,1322,834,0,0
105,190,0,0,0,0,0,0,0,0,0,-1,1329,834,0,0
112,190,0,0,0,0,0,0,0,0,0,-1,1336,834,0,0
119,190,0,0,0,0,0,0,0,0,0,-1,1343,834,0,0
126,190,0,0,0,0,0,0,0,0,0,-1,1350,834,0,0
133,190,0,0,0,0,0,0,0,0,0,-1,1357,834,0,0
140,190,0,0,0,0,0,0,0,0,0,-1,1364,834,0,0
147,190,0,0,0,0,0,0,0,0,0,-1,1371,834,0,0
154,190,0,0,0,0,0,0,0,0,0,-1,1378,834,0,0
161,190,0,0,0,0,0,0,0,0,0,-1,1385,834,0,0
168,190,0,0,0,0,0,0,0,0,0,-1,1392,834,0,0
175,190,0,0,0,0,0,0,0,0,0,-1,1399,834,0,0
182,190,0,0,0,0,0,0,0,0,0,-1,1406,834,0,0
189,190,0,0,0,0,0,0,0,0,0,-1,1413,834,0,0
196,190,0,0,0,0,0,0,0,0,0,-1,1420,834,0,0
203,190,0,0,0,0,0,0,0,0,0,-1,1427,834,0,0
210,190,0,0,0,0,0,0,0,0,0,-1,1434,834,0,0
217,190,0,0,0,0,0,0,0,0,0,-1,1441,834,0,0
224,190,0,0,0,0,0,0,0,0,0,-1,1448,834,0,0
231,190,0,0,0,0,0,0,0,0,0,-1,1455,834,0,0
238,190,0,0,0,0,0,0,0,0,0,-1,1462,834,0,0
245,190,0,0,0,0,0,0,0,0,0,-1,1469,834,0,0
252,190,0,0,0,0,0,0,0,0,0,-1,1476,834,0,0
259,190,0,0,0,0,0,0,0,0,0,-1,1483,834,0,0
266,190,0,0,0,0,0,0,0,0,0,-1,1490,834,0,0
273,190,0,0,0,0,0,0,0,0,0,-1,1497,834,0,0
280,190,0,0,0,0,0,0,0,0,0,-1,1504,834,0,0
287,190,0,0,0,0,0,0,0,0,0,-1,1511,834,0,0
294,190,0,0,0,0,0,0,0,0,0,-1,1518,834,0,0
301,190,0,0,0,0,0,0,0,0,0,-1,1525,834,0,0
308,190,0,0,0,0,0,0,0,0,0,-1,1532,834,0,0
315,190,0,0,0,0,0,0,0,0,0,-1,1539,834,0,0
322,190,0,0,0,0,0,0,0,0,0,-1,1546,834,0,0
329,190,0,0,0,0,0,0,0,0,0,-1,1553,834,0,0
336,190,0,0,0,0,0,0,0,0,0,-1,1560,834,0,0
343,190,0,0,0,0,0,0,0,0,0,-1,1567,834,0,0
350,190,0,0,0,0,0,0,0,0,0,-1,1574,834,0,0
357,190,0,0,0,0,0,0,0,0,0,-1,1581,834,0,0
364,190,0,0,0,0,0,0,0,0,0,-1,1588,834,0,0
371,190,0,0,0,0,0,0,0,0,0,-1,1595,834,0,0
378,190,0,0,0,0,0,0,0,0,0,-1,1602,834,0,0
385,190,0,0,0,0,0,0,0,0,0,-1,1609,834,0,0
392,190,0,0,0,0,0,0,0,0,0,-1,1616,834,0,0
399,190,0,0,0,0,0,0,0,0,0,-1,1623,834,0,0
406,190,0,0,0,0,0,0,0,0,0,-1,1630,834,0,0
413,190,0,0,0,0,0,0,0,0,0,-1,1637,834,0,0
420,190,0,0,0,0,0,0,0,0,0,-1,1644,834,0,0
427,190,0,0,0,0,0,0,0,0,0,-1,1651,834,0,0
434,190,0,0,0,0,0,0,0,0,0,-1,1658,834,0,0
441,190,0,0,0,0,0,0,0,0,0,-1,1665,834,0,0
448,190,0,0,0,0,0,0,0,0,0,-1,1672,834,0,0
455,190,0,0,0,0,0,0,0,0,0,-1,1679,834,0,0
462,190,0,0,0,0,0,0,0,0,0,-1,1686,834,0,0
469,190,0,0,0,0,0,0,0,0,0,-1,1693,834,0,0
476,190,0,0,0,0,0,0,0,0,0,-1,1700,834,0,0
483,190,0,0,0,0,0,0,0,0,0,-1,1707,834,0,0
490,190,0,0,0,0,0,0,0,0,0,-1,1714,834,0,0
497,190,0,0,0,0,0,0,0,0,0,-1,1721,834,0,0
504,190,0,0,0,0,0,0,0,0,0,-1,1728,834,0,0
511,190,0,0,0,0,0,0,0,0,0,-1,1735,834,0,0
518,190,0,0,0,0,0,0,0,0,0,-1,1742,834,0,0
525,190,0,0,0,0,0,0,0,0,0,-1,1749,834,0,0
532,190,0,0,0,0,0,0,0,0,0,-1,1756,834,0,0
539,190,0,0,0,0,0,0,0,0,0,-1,1763,834,0,0
546,190,0,0,0,0,0,0,0,0,0,-1,1770,834,0,0
553,190,0,0,0,0,0,0,0,0,0,-1,1777,834,0,0
560,190,0,0,0,0,0,0,0,0,0,-1,1784,834,0,0
567,190,0,0,0,0,0,0,0,0,0,-1,1791,834,0,0
574,190,0,0,0,0,0,0,0,0,0,-1,1798,834,0,0
581,190,0,0,0,0,0,0,0,0,0,-1,1805,834,0,0
588,190,0,0,0,0,0,0,0,0,0,-1,1812,834,0,0
595,190,0,0,0,0,0,0,0,0,0,-1,1819,834,0,0
602,190,11.6151,1.69452,0.000652395,0.00286452,0.000589291,0.00301171,0.000505207,1.32603,0.00186239,0.0426347,1826,834,11.6151,-1.69451
609,190,11.681,1.64227,-0.000121142,0.00282066,0.000577861,0.0029301,-0.000230581,1.38363,0.00203462,0.0397627,1833,834,11.6811,-1.6423
616,190,11.7402,1.6748,-0.000173278,0.00142025,2.71907e-05,0.00142071,-0.000173742,1.55374,0.00101005,0.0388223,1840,834,11.7403,-1.67481
623,190,11.7733,1.79767,-0.000173109,-0.000389506,-0.000843152,0.000568759,-0.00113137,-0.721584,0.000999327,0.0379254,1847,834,11.7733,-1.79765
630,190,11.793,1.80579,-0.000848312,-0.00215727,-0.00208315,0.000680751,-0.00368633,-0.633192,0.00271309,0.0405007,1854,834,11.793,-1.80578
637,190,11.7373,1.78131,-0.00184116,-0.00360044,-0.00323123,0.000628026,-0.00606962,-0.652504,0.00427118,0.0340118,1861,834,11.7373,-1.78132
644,190,11.7792,1.77576,-0.00282278,-0.00463918,-0.00413444,0.000502034,-0.007964,-0.677282,0.00548434,0.0261666,1868,834,11.7792,-1.77575
651,190,11.8959,1.76257,-0.00371594,-0.00529158,-0.00483204,0.000392082,-0.0093996,-0.704589,0.0064011,0.0348004,1875,834,11.8959,-1.76259
658,190,12.2279,1.45074,-0.00443539,-0.00559217,-0.00532764,0.000345164,-0.0103727,-0.731328,0.00703303,0.0426682,1882,834,12.2279,-1.45073
665,190,10.3044,1.32318,0,0,0,0,0,0,0,-1,1889,834,10.3045,-1.3232
672,190,10.046,1.42993,-0.00561723,-0.0053358,-0.00553568,6.09485e-05,-0.011014,-0.798105,0.00736306,0.045496,1896,834,10.046,-1.4299
679,190,9.88159,1.40411,-0.00586328,-0.00491573,-0.00530838,-6.00214e-05,-0.010719,-0.829905,0.00712607,0.0218704,1903,834,9.8816,-1.40413
686,190,9.82178,1.46283,-0.00577202,-0.00415703,-0.0048376,-5.9993e-05,-0.00986906,-0.868096,0.00655946,0.0109414,1910,834,9.82183,-1.46284
693,190,9.80164,1.55243,-0.00532962,-0.00311596,-0.00406957,-5.38398e-06,-0.0084402,-0.918175,0.005625,0.0124849,1917,834,9.80159,-1.55242
700,190,9.79285,1.65674,-0.00385347,-0.00188705,-0.00341937,0.000687664,-0.00642819,-0.925392,0.0045321,0.010936,1924,834,9.7929,-1.65671
707,190,9.80151,1.75439,-0.000271367,-0.000762347,-0.00281542,0.00230925,-0.00334296,-0.741911,0.00328144,0.0126189,1931,834,9.80152,-1.75439
714,190,9.80737,1.86011,0.00505353,-0.000121317,-0.0022947,0.00592449,-0.000992276,-0.362756,0.00431858,0.0112966,1938,834,9.80733,-1.8601
721,190,9.81873,1.95135,0.0116389,-0.000157971,-0.00179759,0.0119067,-0.000425804,-0.147908,0.0080835,0.00998149,1945,834,9.81876,-1.95138
728,190,9.79858,2.03265,0.0198125,0.000204327,-0.000448022,0.0198227,0.000194095,-0.0228329,0.0131509,0.0115496,1952,834,9.79858,-2.03264
735,190,9.7998,2.12378,0.0294691,0.00078692,0.000687771,0.0294856,0.000770437,0.0239606,0.0194054,0.0111933,1959,834,9.79976,-2.12378
742,190,9.80835,2.24121,0.0412596,0.00158665,0.00169954,0.0413323,0.00151397,0.0427344,0.0270643,0.0150577,1966,834,9.80841,-2.24122
749,190,9.66211,2.30902,0.0554879,0.00225002,0.0033331,0.0556958,0.00204215,0.0622835,0.0364689,0.0381061,1973,834,9.66215,-2.30902
756,190,10.1902,1.38538,0.0724516,0.00357718,0.00597793,0.0729666,0.00306218,0.0859382,0.0476565,0.0449255,1980,834,10.1901,-1.38537
763,190,10.8877,1.17615,0.0920249,0.00616969,0.0100634,0.0931887,0.00500588,0.115135,0.0605262,0.0460399,1987,834,10.8877,-1.17616
770,190,11.6177,0.955383,0.113688,0.0109758,0.0161075,0.116155,0.00850901,0.151963,0.0747618,0.0450364,1994,834,11.6177,-0.955405
777,190,12.3098,0.760315,0,0,0,0,0,0,0,-1,2001,834,12.3098,-0.760339
784,190,0,0,0,0,0,0,0,0,0,-1,2008,834,0,0
791,190,0,0,0,0,0,0,0,0,0,-1,2015,834,0,0
798,190,0,0,0,0,0,0,0,0,0,-1,2022,834,0,0
805,190,0,0,0,0,0,0,0,0,0,-1,2029,834,0,0
812,190,0,0,0,0,0,0,0,0,0,-1,2036,834,0,0
-700,183,0,0,0,0,0,0,0,0,0,-1,524,841,0,0
-693,183,0,0,0,0,0,0,0,0,0,-1,531,841,0,0
-686,183,0,0,0,0,0,0,0,0,0,-1,538,841,0,0
-679,183,0,0,0,0,0,0,0,0,0,-1,545,841,0,0
-672,183,0,0,0,0,0,0,0,0,0,-1,552,841,0,0
-665,183,0,0,0,0,0,0,0,0,0,-1,559,841,0,0
-658,183,-3.78613,-0.17511,0,0,0,0,0,0,0,-1,566,841,-3.78612,0.175122
-651,183,-4.49054,0.629822,0,0,0,0,0,0,0,-1,573,841,-4.49054,-0.629808
-644,183,-4.47974,0.601685,0.0206842,0.0685395,-0.0501348,0.100164,-0.0109402,-1.00805,0.0707053,0.0462909,580,841,-4.47973,-0.601714
-637,183,-4.42163,0.582214,0.0193659,0.0554532,-0.039023,0.0804022,-0.00558313,-1.00195,0.0555561,0.0480663,587,841,-4.42164,-0.582241
-630,183,-4.54962,0.638062,0.01678,0.0438128,-0.0297422,0.0629658,-0.00237304,-0.998673,0.0427901,0.0425271,594,841,-4.54961,-0.638083
-623,183,-4.8335,0.671753,0.0136315,0.0337579,-0.0220966,0.0479749,-0.000585517,-0.999074,0.0321802,0.0441198,601,841,-4.8335,-0.671727
-616,183,-4.80103,0.895447,0.0104235,0.0252883,-0.0159169,0.0354226,0.000289198,-1.00383,0.0235193,0.0407493,608,841,-4.80102,-0.895473
-609,183,-4.64874,0.945007,0.00759065,0.018744,-0.010938,0.0254449,0.000889706,-1.02114,0.0166746,0.0174582,615,841,-4.64872,-0.945008
-602,183,-4.64392,0.867493,0.00475473,0.0130852,-0.00715809,0.0172017,0.000638201,-1.0489,0.0112611,0.0111537,622,841,-4.64393,-0.867479
-595,183,-4.64209,0.785522,0.00264254,0.00684821,-0.00324956,0.00861597,0.000874778,-1.07257,0.00547573,0.0105815,629,841,-4.64208,-0.785519
-588,183,-4.6377,0.697327,-0.000754691,0.00351732,-0.000609871,0.00360268,-0.000840051,-1.43174,0.00272531,0.0102539,636,841,-4.63769,-0.69734
-581,183,-4.64563,0.607239,-0.00414715,0.00102945,0.00154671,0.00145638,-0.00457408,1.30148,0.00363348,0.0108389,643,841,-4.64561,-0.60722
-574,183,-4.63611,0.527161,-0.00651833,-0.000427905,0.00259533,0.000528015,-0.00747425,1.21789,0.00516784,0.0111492,650,841,-4.63613,-0.527131
-567,183,-4.60168,0.42865,-0.00759471,-0.00131207,0.00351035,0.000257286,-0.00916407,1.15039,0.00619692,0.0130472,657,841,-4.60171,-0.42867
-560,183,-4.64978,0.349976,-0.0086511,-0.00176883,0.00431356,0.000308025,-0.010728,1.12208,0.00725683,0.0146939,664,841,-4.6498,-0.35
-553,183,-4.62769,0.235229,-0.00974852,-0.00218272,0.00529204,0.000539454,-0.0124707,1.0957,0.00849932,0.0127325,671,841,-4.62768,-0.235236
-546,183,-4.53302,0.155823,-0.0106163,-0.00266689,0.00603669,0.000586124,-0.0138693,1.07654,0.00944765,0.0299524,678,841,-4.53303,-0.155817
-539,183,-4.36945,0.0933228,-0.0108527,-0.00273105,0.00663108,0.000983811,-0.0145676,1.06014,0.0100557,0.0455884,685,841,-4.36945,-0.0933049
-532,183,-4.21625,0.0501709,0,0,0,0,0,0,0,-1,692,841,-4.21626,-0.050199
-525,183,-6.17102,0.741455,-0.00896756,-0.00212405,0.00698593,0.00223312,-0.0133247,1.01313,0.00971347,0.0429197,699,841,-6.17105,-0.741473
-518,183,-6.05231,0.868286,-0.00656322,-0.00135628,0.00665071,0.00318238,-0.0111019,0.971959,0.00865922,0.0424613,706,841,-6.05233,-0.868289
-511,183,-5.88098,0.967041,-0.00298464,-7.52185e-05,0.00577537,0.00442583,-0.00748569,0.908773,0.00695234,0.0384829,713,841,-5.88095,-0.967068
-504,183,-5.80896,1.37665,0.0017255,0.00193347,0.00420567,0.00603644,-0.00237747,0.797758,0.00500854,0.0417611,720,841,-5.80897,-1.37666
-497,183,-5.65796,1.8772,0,0,0,0,0,0,0,-1,727,841,-5.65795,-1.87717
-490,183,-6.20117,0.214905,0,0,0,0,0,0,0,-1,734,841,-6.20115,-0.214907
-483,183,0,0,0,0,0,0,0,0,0,-1,741,841,0,0
-476,183,0,0,0,0,0,0,0,0,0,-1,748,841,0,0
-469,183,0,0,0,0,0,0,0,0,0,-1,755,841,0,0
-462,183,0,0,0,0,0,0,0,0,0,-1,762,841,0,0
-455,183,0,0,0,0,0,0,0,0,0,-1,769,841,0,0
-448,183,0,0,0,0,0,0,0,0,0,-1,776,841,0,0
-441,183,0,0,0,0,0,0,0,0,0,-1,783,841,0,0
-434,183,0,0,0,0,0,0,0,0,0,-1,790,841,0,0
-427,183,0,0,0,0,0,0,0,0,0,-1,797,841,0,0
-420,183,0,0,0,0,0,0,0,0,0,-1,804,841,0,0
-413,183,0,0,0,0,0,0,0,0,0,-1,811,841,0,0
-406,183,0,0,0,0,0,0,0,0,0,-1,818,841,0,0
-399,183,0,0,0,0,0,0,0,0,0,-1,825,841,0,0
-392,183,0,0,0,0,0,0,0,0,0,-1,832,841,0,0
-385,183,0,0,0,0,0,0,0,0,0,-1,839,841,0,0
-378,183,0,0,0,0,0,0,0,0,0,-1,846,841,0,0
-371,183,0,0,0,0,0,0,0,0,0,-1,853,841,0,0
-364,183,0,0,0,0,0,0,0,0,0,-1,860,841,0,0
-357,183,0,0,0,0,0,0,0,0,0,-1,867,841,0,0
-350,183,0,0,0,0,0,0,0,0,0,-1,874,841,0,0
-343,183,0,0,0,0,0,0,0,0,0,-1,881,841,0,0
-336,183,0,0,0,0,0,0,0,0,0,-1,888,841,0,0
-329,183,0,0,0,0,0,0,0,0,0,-1,895,841,0,0
-322,183,0,0,0,0,0,0,0,0,0,-1,902,841,0,0
-315,183,0,0,0,0,0,0,0,0,0,-1,909,841,0,0
-308,183,0,0,0,0,0,0,0,0,0,-1,916,841,0,0
-301,183,0,0,0,0,0,0,0,0,0,-1,923,841,0,0
-294,183,0,0,0,0,0,0,0,0,0,-1,930,841,0,0
-287,183,0,0,0,0,0,0,0,0,0,-1,937,841,0,0
-280,183,0,0,0,0,0,0,0,0,0,-1,944,841,0,0
-273,183,0,0,0,0,0,0,0,0,0,-1,951,841,0,0
-266,183,0,0,0,0,0,0,0,0,0,-1,958,841,0,0
-259,183,0,0,0,0,0,0,0,0,0,-1,965,841,0,0
-252,183,0,0,0,0,0,0,0,0,0,-1,972,841,0,0
-245,183,0,0,0,0,0,0,0,0,0,-1,979,841,0,0
-238,183,0,0,0,0,0,0,0,0,0,-1,986,841,0,0
-231,183,0,0,0,0,0,0,0,0,0,-1,993,841,0,0
-224,183,0,0,0,0,0,0,0,0,0,-1,1000,841,0,0
-217,183,0,0,0,0,0,0,0,0,0,-1,1007,841,0,0
-210,183,0,0,0,0,0,0,0,0,0,-1,1014,841,0,0
-203,183,0,0,0,0,0,0,0,0,0,-1,1021,841,0,0
-196,183,0,0,0,0,0,0,0,0,0,-1,1028,841,0,0
-189,183,0,0,0,0,0,0,0,0,0,-1,1035,841,0,0
-182,183,0,0,0,0,0,0,0,0,0,-1,1042,841,0,0
-175,183,0,0,0,0,0,0,0,0,0,-1,1049,841,0,0
-168,183,0,0,0,0,0,0,0,0,0,-1,1056,841,0,0
-161,183,0,0,0,0,0,0,0,0,0,-1,1063,841,0,0
-154,183,0,0,0,0,0,0,0,0,0,-1,1070,841,0,0
-147,183,0,0,0,0,0,0,0,0,0,-1,1077,841,0,0
-140,183,0,0,0,0,0,0,0,0,0,-1,1084,841,0,0
-133,183,0,0,0,0,0,0,0,0,0,-1,1091,841,0,0
-126,183,0,0,0,0,0,0,0,0,0,-1,1098,841,0,0
-119,183,0,0,0,0,0,0,0,0,0,-1,1105,841,0,0
-112,183,0,0,0,0,0,0,0,0,0,-1,1112,841,0,0
-105,183,0,0,0,0,0,0,0,0,0,-1,1119,841,0,0
-98,183,0,0,0,0,0,0,0,0,0,-1,1126,841,0,0
-91,183,0,0,0,0,0,0,0,0,0,-1,1133,841,0,0
-84,183,0,0,0,0,0,0,0,0,0,-1,1140,841,0,0
-77,183,0,0,0,0,0,0,0,0,0,-1,1147,841,0,0
-70,183,0,0,0,0,0,0,0,0,0,-1,1154,841,0,0
-63,183,0,0,0,0,0,0,0,0,0,-1,1161,841,0,0
-56,183,0,0,0,0,0,0,0,0,0,-1,1168,841,0,0
-49,183,0,0,0,0,0,0,0,0,0,-1,1175,841,0,0
-42,183,0,0,0,0,0,0,0,0,0,-1,1182,841,0,0
-35,183,0,0,0,0,0,0,0,0,0,-1,1189,841,0,0
-28,183,0,0,0,0,0,0,0,0,0,-1,1196,841,0,0
-21,183,0,0,0,0,0,0,0,0,0,-1,1203,841,0,0
-14,183,0,0,0,0,0,0,0,0,0,-1,1210,841,0,0
-7,183,0,0,0,0,0,0,0,0,0,-1,1217,841,0,0
0,183,0,0,0,0,0,0,0,0,0,-1,1224,841,0,0
7,183,0,0,0,0,0,0,0,0,0,-1,1231,841,0,0
14,183,0,0,0,0,0,0,0,0,0,-1,1238,841,0,0
21,183,0,0,0,0,0,0,0,0,0,-1,1245,841,0,0
28,183,0,0,0,0,0,0,0,0,0,-1,1252,841,0,0
35,183,0,0,0,0,0,0,0,0,0,-1,1259,841,0,0
42,183,0,0,0,0,0,0,0,0,0,-1,1266,841,0,0
49,183,0,0,0,0,0,0,0,0,0,-1,1273,841,0,0
56,183,0,0,0,0,0,0,0,0,0,-1,1280,841,0,0
63,183,0,0,0,0,0,0,0,0,0,-1,1287,841,0,0
70,183,0,0,0,0,0,0,0,0,0,-1,1294,841,0,0
77,183,0,0,0,0,0,0,0,0,0,-1,1301,841,0,0
84,183,0,0,0,0,0,0,0,0,0,-1,1308,841,0,0
91,183,0,0,0,0,0,0,0,0,0,-1,1315,841,0,0
98,183,0,0,0,0,0,0,0,0,0,-1,1322,841,0,0
105,183,0,0,0,0,0,0,0,0,0,-1,1329,841,0,0
112,183,0,0,0,0,0,0,0,0,0,-1,1336,841,0,0
119,183,0,0,0,0,0,0,0,0,0,-1,1343,841,0,0
126,183,0,0,0,0,0,0,0,0,0,-1,1350,841,0,0
133,183,0,0,0,0,0,0,0,0,0,-1,1357,841,0,0
140,183,0,0,0,0,0,0,0,0,0,-1,1364,841,0,0
147,183,0,0,0,0,0,0,0,0,0,-1,1371,841,0,0
154,183,0,0,0,0,0,0,0,0,0,-1,1378,841,0,0
161,183,0,0,0,0,0,0,0,0,0,-1,1385,841,0,0
168,183,0,0,0,0,0,0,0,0,0,-1,1392,841,0,0
175,183,0,0,0,0,0,0,0,0,0,-1,1399,841,0,0
182,183,0,0,0,0,0,0,0,0,0,-1,1406,841,0,0
189,183,0,0,0,0,0,0,0,0,0,-1,1413,841,0,0
196,183,0,0,0,0,0,0,0,0,0,-1,1420,841,0,0
203,183,0,0,0,0,0,0,0,0,0,-1,1427,841,0,0
210,183,0,0,0,0,0,0,0,0,0,-1,1434,841,0,0
217,183,0,0,0,0,0,0,0,0,0,-1,1441,841,0,0
224,183,0,0,0,0,0,0,0,0,0,-1,1448,841,0,0
231,183,0,0,0,0,0,0,0,0,0,-1,1455,841,0,0
238,183,0,0,0,0,0,0,0,0,0,-1,1462,841,0,0
245,183,0,0,0,0,0,0,0,0,0,-1,1469,841,0,0
252,183,0,0,0,0,0,0,0,0,0,-1,1476,841,0,0
259,183,0,0,0,0,0,0,0,0,0,-1,1483,841,0,0
266,183,0,0,0,0,0,0,0,0,0,-1,1490,841,0,0
273,183,0,0,0,0,0,0,0,0,0,-1,1497,841,0,0
280,183,0,0,0,0,0,0,0,0,0,-1,1504,841,0,0
287,183,0,0,0,0,0,0,0,0,0,-1,1511,841,0,0
294,183,0,0,0,0,0,0,0,0,0,-1,1518,841,0,0
301,183,0,0,0,0,0,0,0,0,0,-1,1525,841,0,0
308,183,0,0,0,0,0,0,0,0,0,-1,1532,841,0,0
315,183,0,0,0,0,0,0,0,0,0,-1,1539,841,0,0
322,183,0,0,0,0,0,0,0,0,0,-1,1546,841,0,0
329,183,0,0,0,0,0,0,0,0,0,-1,1553,841,0,0
336,183,0,0,0,0,0,0,0,0,0,-1,1560,841,0,0
343,183,0,0,0,0,0,0,0,0,0,-1,1567,841,0,0
350,183,0,0,0,0,0,0,0,0,0,-1,1574,841,0,0
357,183,0,0,0,0,0,0,0,0,0,-1,1581,841,0,0
364,183,0,0,0,0,0,0,0,0,0,-1,1588,841,0,0
371,183,0,0,0,0,0,0,0,0,0,-1,1595,841,0,0
378,183,0,0,0,0,0,0,0,0,0,-1,1602,841,0,0
385,183,0,0,0,0,0,0,0,0,0,-1,1609,841,0,0
392,183,0,0,0,0,0,0,0,0,0,-1,1616,841,0,0
399,183,0,0,0,0,0,0,0,0,0,-1,1623,841,0,0
406,183,0,0,0,0,0,0,0,0,0,-1,1630,841,0,0
413,183,0,0,0,0,0,0,0,0,0,-1,1637,841,0,0
420,183,0,0,0,0,0,0,0,0,0,-1,1644,841,0,0
427,183,0,0,0,0,0,0,0,0,0,-1,1651,841,0,0
434,183,0,0,0,0,0,0,0,0,0,-1,1658,841,0,0
441,183,0,0,0,0,0,0,0,0,0,-1,1665,841,0,0
448,183,0,0,0,0,0,0,0,0,0,-1,1672,841,0,0
455,183,0,0,0,0,0,0,0,0,0,-1,1679,841,0,0
462,183,0,0,0,0,0,0,0,0,0,-1,1686,841,0,0
469,183,0,0,0,0,0,0,0,0,0,-1,1693,841,0,0
476,183,0,0,0,0,0,0,0,0,0,-1,1700,841,0,0
483,183,0,0,0,0,0,0,0,0,0,-1,1707,841,0,0
490,183,0,0,0,0,0,0,0,0,0,-1,1714,841,0,0
497,183,0,0,0,0,0,0,0,0,0,-1,1721,841,0,0
504,183,0,0,0,0,0,0,0,0,0,-1,1728,841,0,0
511,183,0,0,0,0,0,0,0,0,0,-1,1735,841,0,0
518,183,0,0,0,0,0,0,0,0,0,-1,1742,841,0,0
525,183,0,0,0,0,0,0,0,0,0,-1,1749,841,0,0
532,183,0,0,0,0,0,0,0,0,0,-1,1756,841,0,0
539,183,0,0,0,0,0,0,0,0,0,-1,1763,841,0,0
546,183,0,0,0,0,0,0,0,0,0,-1,1770,841,0,0
553,183,0,0,0,0,0,0,0,0,0,-1,1777,841,0,0
560,183,0,0,0,0,0,0,0,0,0,-1,1784,841,0,0
567,183,0,0,0,0,0,0,0,0,0,-1,1791,841,0,0
574,183,0,0,0,0,0,0,0,0,0,-1,1798,841,0,0
581,183,0,0,0,0,0,0,0,0,0,-1,1805,841,0,0
588,183,0,0,0,0,0,0,0,0,0,-1,1812,841,0,0
595,183,0,0,0,0,0,0,0,0,0,-1,1819,841,0,0
602,183,0,0,0,0,0,0,0,0,0,-1,1826,841,0,0
609,183,11.8247,1.71429,-0.0012665,0.00257756,3.03845e-05,0.0025778,-0.00126674,1.56289,0.00226226,0.0420031,1833,841,11.8247,-1.71429
616,183,11.6879,1.6615,-0.00028596,0.00126871,-0.000229825,0.00130198,-0.000319223,-1.42706,0.000991668,0.0396125,1840,841,11.6878,-1.66151
623,183,11.6953,1.70203,0.000523726,-0.000384429,-0.000749664,0.000946109,-0.000806812,-0.513095,0.00101311,0.0427952,1847,841,11.6954,-1.702
630,183,11.7603,2.039,0.000177738,-0.00202798,-0.001882,0.00125621,-0.00310646,-0.520366,0.0025932,0.0412545,1854,841,11.7602,-2.03902
637,183,11.7394,1.84937,-0.000941383,-0.00335871,-0.00305413,0.00113455,-0.00543465,-0.596981,0.00405454,0.0343724,1861,841,11.7393,-1.84939
644,183,11.7422,1.79095,-0.00220519,-0.00430981,-0.00402058,0.000898511,-0.00741351,-0.657404,0.00526745,0.0262332,1868,841,11.7422,-1.79095
651,183,11.8496,1.72137,-0.0034165,-0.0049003,-0.00477412,0.000673026,-0.00898982,-0.708314,0.00622969,0.0226356,1875,841,11.8496,-1.7214
658,183,12.1345,1.47449,-0.0044338,-0.00514646,-0.00530746,0.000529282,-0.0101095,-0.75188,0.00692287,0.0404167,1882,841,12.1346,-1.47447
665,183,10.2651,2.25128,0,0,0,0,0,0,0,-1,1889,841,10.2651,-2.25127
672,183,10.0021,1.93561,-0.00605655,-0.00487114,-0.00555508,0.000122759,-0.0110505,-0.838545,0.00740823,0.0434254,1896,841,10.002,-1.93563
679,183,9.94495,1.39874,-0.00654689,-0.00446115,-0.00541265,8.18446e-06,-0.0110162,-0.880568,0.00734687,0.0290314,1903,841,9.94499,-1.39876
686,183,9.93933,1.4491,-0.0066237,-0.00385707,-0.00502597,-2.75243e-05,-0.0104532,-0.91969,0.00695967,0.0138889,1910,841,9.9393,-1.44913
693,183,9.91699,1.56622,-0.00628124,-0.00298784,-0.00438107,4.57787e-05,-0.00931486,-0.965164,0.00622522,0.012112,1917,841,9.91702,-1.56621
700,183,9.90454,1.66229,-0.00487478,-0.00200717,-0.00381151,0.000631295,-0.00751324,-0.965299,0.00523197,0.0146077,1924,841,9.90459,-1.66228
707,183,9.90857,1.76154,-0.00161128,-0.00119235,-0.00326407,0.00186897,-0.0046726,-0.817441,0.00389068,0.0122531,1931,841,9.90861,-1.76152
714,183,9.9209,1.85345,0.00316197,-0.00074169,-0.00277311,0.00460127,-0.00218099,-0.478748,0.00399799,0.0167322,1938,841,9.92091,-1.85346
721,183,9.91077,1.94434,0.00925767,-0.000965132,-0.00223664,0.00972561,-0.00143306,-0.206238,0.00701042,0.0141092,1945,841,9.91075,-1.94435
728,183,9.89221,2.04047,0.0167981,-0.000716683,-0.000685508,0.0168249,-0.000743471,-0.0390592,0.0114724,0.011115,1952,841,9.89224,-2.04044
735,183,9.9104,2.12622,0.0255951,5.06216e-05,0.000696044,0.0256141,3.16687e-05,0.0272214,0.0170655,0.0107195,1959,841,9.91044,-2.12621
742,183,9.9259,2.22131,0.036083,0.00134544,0.00193475,0.0361905,0.00123801,0.0554676,0.0237251,0.0104276,1966,841,9.92588,-2.22131
749,183,9.88977,1.70685,0,0,0,0,0,0,0,-1,1973,841,9.88979,-1.70685
756,183,10.4851,1.67206,0.0629424,0.00474434,0.00692444,0.063755,0.00393181,0.116808,0.0412552,0.0457343,1980,841,10.4851,-1.67208
763,183,11.1644,2.02515,0.0795389,0.00870103,0.0114656,0.0813484,0.00689146,0.156535,0.0520873,0.0478202,1987,841,11.1645,-2.02513
770,183,11.5697,1.39233,0.0977162,0.0154333,0.0179641,0.101467,0.0116824,0.205845,0.0641064,0.0480754,1994,841,11.5697,-1.39232
777,183,12.1285,1.25781,0,0,0,0,0,0,0,-1,2001,841,12.1286,-1.2578
784,183,0,0,0,0,0,0,0,0,0,-1,2008,841,0,0
791,183,0,0,0,0,0,0,0,0,0,-1,2015,841,0,0
798,183,0,0,0,0,0,0,0,0,0,-1,2022,841,0,0
805,183,0,0,0,0,0,0,0,0,0,-1,2029,841,0,0
812,183,0,0,0,0,0,0,0,0,0,-1,2036,841,0,0
-700,176,0,0,0,0,0,0,0,0,0,-1,524,848,0,0
-693,176,0,0,0,0,0,0,0,0,0,-1,531,848,0,0
-686,176,0,0,0,0,0,0,0,0,0,-1,538,848,0,0
-679,176,0,0,0,0,0,0,0,0,0,-1,545,848,0,0
-672,176,0,0,0,0,0,0,0,0,0,-1,552,848,0,0
-665,176,-3.21967,0.489258,0.0126714,0.107338,-0.0771996,0.15056,-0.0305505,-1.06041,0.111955,0.0483653,559,848,-3.21966,-0.489263
-658,176,-3.57629,0.797241,0,0,0,0,0,0,0,-1,566,848,-3.57627,-0.79727
-651,176,-4.00293,1.13989,0,0,0,0,0,0,0,-1,573,848,-4.00293,-1.1399
-644,176,-4.18317,1.28546,0.0127287,0.0584786,-0.0403603,0.0819956,-0.0107883,-1.04321,0.0585919,0.0431071,580,848,-4.18315,-1.28543
-637,176,-4.04449,1.21167,0.0109359,0.0458164,-0.0314863,0.0643699,-0.00761758,-1.03831,0.0456647,0.0436675,587,848,-4.04447,-1.21167
-630,176,-3.93945,0.881653,0.0088317,0.0351425,-0.024018,0.0493719,-0.00539775,-1.03595,0.0348535,0.0447279,594,848,-3.93944,-0.881652
-623,176,-4.86243,0.932556,0.00670111,0.0263336,-0.0178229,0.0368646,-0.00382996,-1.03711,0.0259475,0.0424577,601,848,-4.86244,-0.932586
-616,176,-4.79999,0.936157,0.00470366,0.0191464,-0.0128123,0.0266323,-0.00278218,-1.04202,0.0187512,0.0286009,608,848,-4.80002,-0.936157
-609,176,-4.71637,0.936829,0.00305662,0.0138187,-0.00866446,0.0186371,-0.00176177,-1.06327,0.0130517,0.0120145,615,848,-4.71636,-0.936841
-602,176,-4.72205,0.841858,0.00124587,0.00936265,-0.0055263,0.0121607,-0.00155216,-1.10211,0.00867095,0.0121339,622,848,-4.72205,-0.841888
-595,176,-4.73682,0.761902,-0.000261745,0.00425626,-0.00232322,0.0052377,-0.00124318,-1.17109,0.00397159,0.0111466,629,848,-4.73683,-0.761923
-588,176,-4.71545,0.682922,-0.00284929,0.00190587,2.52502e-05,0.001906,-0.00284942,1.56549,0.0027635,0.0110489,636,848,-4.71543,-0.682897
-581,176,-4.71967,0.613586,-0.00546288,0.000144244,0.00202161,0.000797103,-0.00611574,1.25843,0.00436718,0.0105271,643,848,-4.71964,-0.613574
-574,176,-4.73102,0.543091,-0.00746902,-0.000943323,0.0030065,0.000230631,-0.00864298,1.19853,0.00584038,0.0125581,650,848,-4.73102,-0.543061
-567,176,-4.70636,0.472778,-0.00843842,-0.0015511,0.00377208,0.000112818,-0.0101023,1.15536,0.00677281,0.0156705,657,848,-4.70636,-0.472752
-560,176,-4.75812,0.363892,-0.00929314,-0.00187176,0.00445081,0.000212283,-0.0113772,1.13288,0.00765653,0.0131369,664,848,-4.75809,-0.363893
-553,176,-4.71979,0.254517,-0.0101597,-0.00206003,0.00524784,0.000518942,-0.0127386,1.11402,0.00867059,0.0220811,671,848,-4.7198,-0.254546
-546,176,-4.67462,0.15741,-0.0108059,-0.00237803,0.00581633,0.000590448,-0.0137743,1.09889,0.0093859,0.0361767,678,848,-4.6746,-0.157439
-539,176,-5.37628,0.148865,-0.01074,-0.00230985,0.00618862,0.000962782,-0.0140127,1.08436,0.00967868,0.034973,685,848,-5.37629,-0.148863
-532,176,-5.96802,0.00799561,0,0,0,0,0,0,0,-1,692,848,-5.96804,-0.00797915
-525,176,-5.95398,1.07733,-0.00794174,-0.00140893,0.00604792,0.0021983,-0.011549,1.033,0.00852706,0.0473444,699,848,-5.95399,-1.07733
-518,176,-6.03253,0.876953,-0.0049069,-0.000489017,0.00542094,0.00315576,-0.00855167,0.978868,0.0069945,0.0401635,706,848,-6.03255,-0.876937
-511,176,-6.08063,0.633118,-0.000599527,0.000944849,0.00425707,0.0044992,-0.00415387,0.875117,0.00499718,0.0368075,713,848,-6.0806,-0.633126
-504,176,-5.86719,1.11731,0.00487394,0.0030771,0.00244924,0.00658434,0.00136671,0.60961,0.00401234,0.0395897,720,848,-5.86716,-1.11731
-497,176,-5.93555,1.54999,0,0,0,0,0,0,0,-1,727,848,-5.93554,-1.54997
-490,176,-6.08936,1.39606,0,0,0,0,0,0,0,-1,734,848,-6.08934,-1.39607
-483,176,0,0,0,0,0,0,0,0,0,-1,741,848,0,0
-476,176,0,0,0,0,0,0,0,0,0,-1,748,848,0,0
-469,176,0,0,0,0,0,0,0,0,0,-1,755,848,0,0
-462,176,0,0,0,0,0,0,0,0,0,-1,762,848,0,0
-455,176,0,0,0,0,0,0,0,0,0,-1,769,848,0,0
-448,176,0,0,0,0,0,0,0,0,0,-1,776,848,0,0
-441,176,0,0,0,0,0,0,0,0,0,-1,783,848,0,0
-434,176,0,0,0,0,0,0,0,0,0,-1,790,848,0,0
-427,176,0,0,0,0,0,0,0,0,0,-1,797,848,0,0
-420,176,0,0,0,0,0,0,0,0,0,-1,804,848,0,0
-413,176,0,0,0,0,0,0,0,0,0,-1,811,848,0,0
-406,176,0,0,0,0,0,0,0,0,0,-1,818,848,0,0
-399,176,0,0,0,0,0,0,0,0,0,-1,825,848,0,0
-392,176,0,0,0,0,0,0,0,0,0,-1,832,848,0,0
-385,176,0,0,0,0,0,0,0,0,0,-1,839,848,0,0
-378,176,0,0,0,0,0,0,0,0,0,-1,846,848,0,0
-371,176,0,0,0,0,0,0,0,0,0,-1,853,848,0,0
-364,176,0,0,0,0,0,0,0,0,0,-1,860,848,0,0
-357,176,0,0,0,0,0,0,0,0,0,-1,867,848,0,0
-350,176,0,0,0,0,0,0,0,0,0,-1,874,848,0,0
-343,176,0,0,0,0,0,0,0,0,0,-1,881,848,0,0
-336,176,0,0,0,0,0,0,0,0,0,-1,888,848,0,0
-329,176,0,0,0,0,0,0,0,0,0,-1,895,848,0,0
-322,176,0,0,0,0,0,0,0,0,0,-1,902,848,0,0
-315,176,0,0,0,0,0,0,0,0,0,-1,909,848,0,0
-308,176,0,0,0,0,0,0,0,0,0,-1,916,848,0,0
-301,176,0,0,0,0,0,0,0,0,0,-1,923,848,0,0
-294,176,0,0,0,0,0,0,0,0,0,-1,930,848,0,0
-287,176,0,0,0,0,0,0,0,0,0,-1,937,848,0,0
-280,176,0,0,0,0,0,0,0,0,0,-1,944,848,0,0
-273,176,0,0,0,0,0,0,0,0,0,-1,951,848,0,0
-266,176,0,0,0,0,0,0,0,0,0,-1,958,848,0,0
-259,176,0,0,0,0,0,0,0,0,0,-1,965,848,0,0
-252,176,0,0,0,0,0,0,0,0,0,-1,972,848,0,0
-245,176,0,0,0,0,0,0,0,0,0,-1,979,848,0,0
-238,176,0,0,0,0,0,0,0,0,0,-1,986,848,0,0
-231,176,0,0,0,0,0,0,0,0,0,-1,993,848,0,0
-224,176,0,0,0,0,0,0,0,0,0,-1,1000,848,0,0
-217,176,0,0,0,0,0,0,0,0,0,-1,1007,848,0,0
-210,176,0,0,0,0,0,0,0,0,0,-1,1014,848,0,0
-203,176,0,0,0,0,0,0,0,0,0,-1,1021,848,0,0
-196,176,0,0,0,0,0,0,0,0,0,-1,1028,848,0,0
-189,176,0,0,0,0,0,0,0,0,0,-1,1035,848,0,0
-182,176,0,0,0,0,0,0,0,0,0,-1,1042,848,0,0
-175,176,0,0,0,0,0,0,0,0,0,-1,1049,848,0,0
-168,176,0,0,0,0,0,0,0,0,0,-1,1056,848,0,0
-161,176,0,0,0,0,0,0,0,0,0,-1,1063,848,0,0
-154,176,0,0,0,0,0,0,0,0,0,-1,1070,848,0,0
-147,176,0,0,0,0,0,0,0,0,0,-1,1077,848,0,0
-140,176,0,0,0,0,0,0,0,0,0,-1,1084,848,0,0
-133,176,0,0,0,0,0,0,0,0,0,-1,1091,848,0,0
-126,176,0,0,0,0,0,0,0,0,0,-1,1098,848,0,0
-119,176,0,0,0,0,0,0,0,0,0,-1,1105,848,0,0
-112,176,0,0,0,0,0,0,0,0,0,-1,1112,848,0,0
-105,176,0,0,0,0,0,0,0,0,0,-1,1119,848,0,0
-98,176,0,0,0,0,0,0,0,0,0,-1,1126,848,0,0
-91,176,0,0,0,0,0,0,0,0,0,-1,1133,848,0,0
-84,176,0,0,0,0,0,0,0,0,0,-1,1140,848,0,0
-77,176,0,0,0,0,0,0,0,0,0,-1,1147,848,0,0
-70,176,0,0,0,0,0,0,0,0,0,-1,1154,848,0,0
-63,176,0,0,0,0,0,0,0,0,0,-1,1161,848,0,0
-56,176,0,0,0,0,0,0,0,0,0,-1,1168,848,0,0
-49,176,0,0,0,0,0,0,0,0,0,-1,1175,848,0,0
-42,176,0,0,0,0,0,0,0,0,0,-1,1182,848,0,0
-35,176,0,0,0,0,0,0,0,0,0,-1,1189,848,0,0
-28,176,0,0,0,0,0,0,0,0,0,-1,1196,848,0,0
-21,176,0,0,0,0,0,0,0,0,0,-1,1203,848,0,0
-14,176,0,0,0,0,0,0,0,0,0,-1,1210,848,0,0
-7,176,0,0,0,0,0,0,0,0,0,-1,1217,848,0,0
0,176,0,0,0,0,0,0,0,0,0,-1,1224,848,0,0
7,176,0,0,0,0,0,0,0,0,0,-1,1231,848,0,0
14,176,0,0,0,0,0,0,0,0,0,-1,1238,848,0,0
21,176,0,0,0,0,0,0,0,0,0,-1,1245,848,0,0
28,176,0,0,0,0,0,0,0,0,0,-1,1252,848,0,0
35,176,0,0,0,0,0,0,0,0,0,-1,1259,848,0,0
42,176,0,0,0,0,0,0,0,0,0,-1,1266,848,0,0
49,176,0,0,0,0,0,0,0,0,0,-1,1273,848,0,0
56,176,0,0,0,0,0,0,0,0,0,-1,1280,848,0,0
63,176,0,0,0,0,0,0,0,0,0,-1,1287,848,0,0
70,176,0,0,0,0,0,0,0,0,0,-1,1294,848,0,0
77,176,0,0,0,0,0,0,0,0,0,-1,1301,848,0,0
84,176,0,0,0,0,0,0,0,0,0,-1,1308,848,0,0
91,176,0,0,0,0,0,0,0,0,0,-1,1315,848,0,0
98,176,0,0,0,0,0,0,0,0,0,-1,1322,848,0,0
105,176,0,0,0,0,0,0,0,0,0,-1,1329,848,0,0
112,176,0,0,0,0,0,0,0,0,0,-1,1336,848,0,0
119,176,0,0,0,0,0,0,0,0,0,-1,1343,848,0,0
126,176,0,0,0,0,0,0,0,0,0,-1,1350,848,0,0
133,176,0,0,0,0,0,0,0,0,0,-1,1357,848,0,0
140,176,0,0,0,0,0,0,0,0,0,-1,1364,848,0,0
147,176,0,0,0,0,0,0,0,0,0,-1,1371,848,0,0
154,176,0,0,0,0,0,0,0,0,0,-1,1378,848,0,0
161,176,0,0,0,0,0,0,0,0,0,-1,1385,848,0,0
168,176,0,0,0,0,0,0,0,0,0,-1,1392,848,0,0
175,176,0,0,0,0,0,0,0,0,0,-1,1399,848,0,0
182,176,0,0,0,0,0,0,0,0,0,-1,1406,848,0,0
189,176,0,0,0,0,0,0,0,0,0,-1,1413,848,0,0
196,176,0,0,0,0,0,0,0,0,0,-1,1420,848,0,0
203,176,0,0,0,0,0,0,0,0,0,-1,1427,848,0,0
210,176,0,0,0,0,0,0,0,0,0,-1,1434,848,0,0
217,176,0,0,0,0,0,0,0,0,0,-1,1441,848,0,0
224,176,0,0,0,0,0,0,0,0,0,-1,1448,848,0,0
231,176,0,0,0,0,0,0,0,0,0,-1,1455,848,0,0
238,176,0,0,0,0,0,0,0,0,0,-1,1462,848,0,0
245,176,0,0,0,0,0,0,0,0,0,-1,1469,848,0,0
252,176,0,0,0,0,0,0,0,0,0,-1,1476,848,0,0
259,176,0,0,0,0,0,0,0,0,0,-1,1483,848,0,0
266,176,0,0,0,0,0,0,0,0,0,-1,1490,848,0,0
273,176,0,0,0,0,0,0,0,0,0,-1,1497,848,0,0
280,176,0,0,0,0,0,0,0,0,0,-1,1504,848,0,0
287,176,0,0,0,0,0,0,0,0,0,-1,1511,848,0,0
294,176,0,0,0,0,0,0,0,0,0,-1,1518,848,0,0
301,176,0,0,0,0,0,0,0,0,0,-1,1525,848,0,0
308,176,0,0,0,0,0,0,0,0,0,-1,1532,848,0,0
315,176,0,0,0,0,0,0,0,0,0,-1,1539,848,0,0
322,176,0,0,0,0,0,0,0,0,0,-1,1546,848,0,0
329,176,0,0,0,0,0,0,0,0,0,-1,1553,848,0,0
336,176,0,0,0,0,0,0,0,0,0,-1,1560,848,0,0
343,176,0,0,0,0,0,0,0,0,0,-1,1567,848,0,0
350,176,0,0,0,0,0,0,0,0,0,-1,1574,848,0,0
357,176,0,0,0,0,0,0,0,0,0,-1,1581,848,0,0
364,176,0,0,0,0,0,0,0,0,0,-1,1588,848,0,0
371,176,0,0,0,0,0,0,0,0,0,-1,1595,848,0,0
378,176,0,0,0,0,0,0,0,0,0,-1,1602,848,0,0
385,176,0,0,0,0,0,0,0,0,0,-1,1609,848,0,0
392,176,0,0,0,0,0,0,0,0,0,-1,1616,848,0,0
399,176,0,0,0,0,0,0,0,0,0,-1,1623,848,0,0
406,176,0,0,0,0,0,0,0,0,0,-1,1630,848,0,0
413,176,0,0,0,0,0,0,0,0,0,-1,1637,848,0,0
420,176,0,0,0,0,0,0,0,0,0,-1,1644,848,0,0
427,176,0,0,0,0,0,0,0,0,0,-1,1651,848,0,0
434,176,0,0,0,0,0,0,0,0,0,-1,1658,848,0,0
441,176,0,0,0,0,0,0,0,0,0,-1,1665,848,0,0
448,176,0,0,0,0,0,0,0,0,0,-1,1672,848,0,0
455,176,0,0,0,0,0,0,0,0,0,-1,1679,848,0,0
462,176,0,0,0,0,0,0,0,0,0,-1,1686,848,0,0
469,176,0,0,0,0,0,0,0,0,0,-1,1693,848,0,0
476,176,0,0,0,0,0,0,0,0,0,-1,1700,848,0,0
483,176,0,0,0,0,0,0,0,0,0,-1,1707,848,0,0
490,176,0,0,0,0,0,0,0,0,0,-1,1714,848,0,0
497,176,0,0,0,0,0,0,0,0,0,-1,1721,848,0,0
504,176,0,0,0,0,0,0,0,0,0,-1,1728,848,0,0
511,176,0,0,0,0,0,0,0,0,0,-1,1735,848,0,0
518,176,0,0,0,0,0,0,0,0,0,-1,1742,848,0,0
525,176,0,0,0,0,0,0,0,0,0,-1,1749,848,0,0
532,176,0,0,0,0,0,0,0,0,0,-1,1756,848,0,0
539,176,0,0,0,0,0,0,0,0,0,-1,1763,848,0,0
546,176,0,0,0,0,0,0,0,0,0,-1,1770,848,0,0
553,176,0,0,0,0,0,0,0,0,0,-1,1777,848,0,0
560,176,0,0,0,0,0,0,0,0,0,-1,1784,848,0,0
567,176,0,0,0,0,0,0,0,0,0,-1,1791,848,0,0
574,176,0,0,0,0,0,0,0,0,0,-1,1798,848,0,0
581,176,0,0,0,0,0,0,0,0,0,-1,1805,848,0,0
588,176,0,0,0,0,0,0,0,0,0,-1,1812,848,0,0
595,176,0,0,0,0,0,0,0,0,0,-1,1819,848,0,0
602,176,0,0,0,0,0,0,0,0,0,-1,1826,848,0,0
609,176,11.7535,1.77838,-0.00242582,0.00221181,-0.000729483,0.00232385,-0.00253786,-1.4184,0.00280781,0.039568,1833,848,11.7536,-1.77838
616,176,11.6063,1.65515,-0.00128191,0.0013539,-0.000717688,0.00153665,-0.00146466,-1.32146,0.00173297,0.0389911,1840,848,11.6064,-1.65513
623,176,11.7572,1.32874,-4.55986e-05,8.58121e-05,-0.000758237,0.000781185,-0.000740971,-0.828618,0.000878919,0.0446943,1847,848,11.7572,-1.32875
630,176,11.79,1.78326,-4.89572e-05,-0.00133471,-0.00164377,0.00107318,-0.00245685,-0.598993,0.0020896,0.0413604,1854,848,11.7901,-1.78324
637,176,11.9261,1.78723,-0.00115633,-0.00254675,-0.00274604,0.000981139,-0.00468422,-0.661419,0.00349606,0.0323271,1861,848,11.9262,-1.78725
644,176,11.7825,1.77539,-0.00258626,-0.0034528,-0.00372782,0.000733382,-0.00677244,-0.727545,0.00477822,0.0299491,1868,848,11.7825,-1.7754
651,176,11.7632,1.74023,-0.00398022,-0.00404912,-0.00452072,0.000506184,-0.00853552,-0.781588,0.00586636,0.0293693,1875,848,11.7632,-1.74024
658,176,11.9199,1.61536,-0.00515515,-0.00434068,-0.00509059,0.000358937,-0.00985477,-0.825312,0.0066927,0.0349405,1882,848,11.9199,-1.61537
665,176,11.2156,2.18091,0,0,0,0,0,0,0,-1,1889,848,11.2155,-2.18091
672,176,10.7075,1.85516,-0.00696189,-0.00420415,-0.00540214,-7.68527e-06,-0.0111584,-0.910353,0.00743634,0.0479898,1896,848,10.7076,-1.85517
679,176,10.0244,1.37524,-0.00746168,-0.00390388,-0.00532161,-7.17118e-05,-0.0112938,-0.946699,0.00750544,0.0401971,1903,848,10.0245,-1.37526
686,176,10.05,1.46271,-0.00755348,-0.00346804,-0.00504004,-7.24979e-05,-0.010949,-0.977931,0.0072753,0.0183209,1910,848,10.0501,-1.4627
693,176,10.027,1.58136,-0.00724373,-0.00278602,-0.00452065,2.53697e-05,-0.0100551,-1.01443,0.00671189,0.0112292,1917,848,10.027,-1.58134
700,176,10.0122,1.6709,-0.00588746,-0.00205774,-0.00403366,0.000492494,-0.00843769,-1.00701,0.00579627,0.0149707,1924,848,10.0123,-1.67091
707,176,10.0181,1.77716,-0.00298512,-0.00153648,-0.00348804,0.00130165,-0.00582325,-0.887772,0.00438099,0.0135888,1931,848,10.0181,-1.77717
714,176,10.0355,1.86829,0.00108403,-0.00124167,-0.00295369,0.00309553,-0.00325317,-0.597869,0.0036658,0.0126601,1938,848,10.0355,-1.86829
721,176,10.025,1.9491,0.00653868,-0.0015595,-0.00228756,0.00714019,-0.00216101,-0.257127,0.00562069,0.0109724,1945,848,10.025,-1.94909
728,176,9.99207,2.0451,0.0132051,-0.0013528,-0.000453452,0.0132192,-0.00136691,-0.031108,0.00930197,0.0119565,1952,848,9.99202,-2.04509
735,176,10.0017,2.13208,0.0208669,-0.000291129,0.00129869,0.0209463,-0.000370543,0.0610748,0.0140893,0.0120025,1959,848,10.0017,-2.13207
742,176,10.0294,2.22516,0.0297199,0.00160024,0.00292601,0.0300211,0.001299,0.102591,0.0195954,0.0150704,1966,848,10.0294,-2.22518
749,176,10.0254,2.30054,0.0397532,0.00338138,0.00534975,0.0405237,0.00261083,0.14305,0.026189,0.0261409,1973,848,10.0254,-2.30054
756,176,10.7272,2.27954,0.0513086,0.00649655,0.00893201,0.0530233,0.00478182,0.189668,0.0338677,0.0424515,1980,848,10.7272,-2.27954
763,176,11.2778,2.35516,0.0643732,0.0117149,0.0140786,0.0679009,0.00818722,0.245516,0.0428,0.0447665,1987,848,11.2779,-2.35515
770,176,11.8752,2.47162,0.0785377,0.0200992,0.0212058,0.0854218,0.0132151,0.313899,0.0530939,0.0465192,1994,848,11.8753,-2.47161
777,176,12.5688,3.92285,0.0931008,0.0331323,0.0307959,0.106098,0.0201347,0.399376,0.0650676,0.0458174,2001,848,12.5688,-3.92287
784,176,0,0,0,0,0,0,0,0,0,-1,2008,848,0,0
791,176,0,0,0,0,0,0,0,0,0,-1,2015,848,0,0
798,176,0,0,0,0,0,0,0,0,0,-1,2022,848,0,0
805,176,0,0,0,0,0,0,0,0,0,-1,2029,848,0,0
812,176,0,0,0,0,0,0,0,0,0,-1,2036,848,0,0
-700,169,0,0,0,0,0,0,0,0,0,-1,524,855,0,0
-693,169,0,0,0,0,0,0,0,0,0,-1,531,855,0,0
-686,169,0,0,0,0,0,0,0,0,0,-1,538,855,0,0
-679,169,0,0,0,0,0,0,0,0,0,-1,545,855,0,0
-672,169,0,0,0,0,0,0,0,0,0,-1,552,855,0,0
-665,169,-1.89825,1.51959,0,0,0,0,0,0,0,-1,559,855,-1.89826,-1.51958
-658,169,-1.94373,1.32489,0,0,0,0,0,0,0,-1,566,855,-1.94375,-1.32491
-651,169,-3.73444,2.06421,0,0,0,0,0,0,0,-1,573,855,-3.73442,-2.06418
-644,169,-2.74664,1.1109,0,0,0,0,0,0,0,-1,580,855,-2.74664,-1.11087
-637,169,-3.17218,1.24469,0.00490244,0.0376262,-0.0243561,0.0506059,-0.00807732,-1.08116,0.036727,0.0464289,587,855,-3.17219,-1.24472
-630,169,-3.6167,1.38568,0.00328053,0.0280641,-0.0185733,0.0379999,-0.0066553,-1.07958,0.0278184,0.0488841,594,855,-3.61671,-1.38565
-623,169,-4.25867,1.33313,0.00195275,0.0204531,-0.0137804,0.0278001,-0.0053942,-1.08099,0.0205686,0.0404617,601,855,-4.25866,-1.33315
-616,169,-4.84387,0.956665,0.000803735,0.0143664,-0.00990423,0.0195884,-0.00441828,-1.08559,0.0147539,0.0216029,608,855,-4.84389,-0.956637
-609,169,-4.79645,0.920044,-4.69058e-06,0.00999817,-0.00657482,0.0132576,-0.00326416,-1.11055,0.0101038,0.0133843,615,855,-4.79644,-0.920062
-602,169,-4.79126,0.835815,-0.00107326,0.00649784,-0.004068,0.00826918,-0.0028446,-1.16012,0.00666646,0.0127505,622,855,-4.79127,-0.835815
-595,169,-4.8147,0.752625,-0.00217265,0.00243143,-0.00154994,0.00290459,-0.0026458,-1.27451,0.00320568,0.0114251,629,855,-4.81472,-0.752609
-588,169,-4.79156,0.683044,-0.00416379,0.000815479,0.000490642,0.000863365,-0.00421167,1.47351,0.00313544,0.00908567,636,855,-4.79154,-0.683063
-581,169,-4.79669,0.604736,-0.00619665,-0.000406627,0.00230864,0.000401186,-0.00700446,1.2342,0.00480895,0.00940917,643,855,-4.7967,-0.604714
-574,169,-4.84717,0.523254,-0.00794171,-0.00125132,0.00322955,5.3246e-05,-0.00924628,1.18689,0.00618201,0.0119407,650,855,-4.84719,-0.523249
-567,169,-4.81519,0.465698,-0.00884186,-0.00171538,0.00388441,-7.44034e-06,-0.0105498,1.15655,0.00703072,0.0140936,657,855,-4.8152,-0.465698
-560,169,-4.83032,0.391235,-0.00945517,-0.0019343,0.00443474,0.000119708,-0.0115092,1.13705,0.007713,0.0130919,664,855,-4.83035,-0.391245
-553,169,-4.80878,0.30365,-0.0100684,-0.00195932,0.00505798,0.000468616,-0.0124963,1.12326,0.00849141,0.0218534,671,855,-4.80875,-0.303662
-546,169,-5.21979,0.384888,-0.010437,-0.00207909,0.00545236,0.00061159,-0.0131277,1.11237,0.00896262,0.0310767,678,855,-5.2198,-0.384882
-539,169,-5.83569,0.610657,-0.0100137,-0.00183408,0.0056123,0.0010205,-0.0128682,1.10027,0.00893843,0.0360497,685,855,-5.83568,-0.610629
-532,169,-6.0766,0.873535,-0.00865762,-0.00127498,0.00548684,0.00164666,-0.0115793,1.0815,0.00832287,0.0352995,692,855,-6.07657,-0.873527
-525,169,-6.01953,0.888184,-0.00617684,-0.000522184,0.00500727,0.00240084,-0.00909987,1.04241,0.00700536,0.0446878,699,855,-6.01951,-0.888199
-518,169,-6.09216,0.730164,-0.00244839,0.000626502,0.00411382,0.00348078,-0.00530267,0.964225,0.00510736,0.0413238,706,855,-6.09217,-0.730187
-511,169,-6.15472,0.644165,0.00258894,0.00224293,0.00270887,0.00513033,-0.00029846,0.753508,0.00352392,0.0398815,713,855,-6.15471,-0.644156
-504,169,-6.11658,0.970398,0.00867588,0.00444453,0.000754394,0.00880635,0.00431406,0.17126,0.0050847,0.0406994,720,855,-6.11657,-0.970373
-497,169,-6.05945,1.33258,0,0,0,0,0,0,0,-1,727,855,-6.05947,-1.33259
-490,169,0,0,0,0,0,0,0,0,0,-1,734,855,0,0
-483,169,0,0,0,0,0,0,0,0,0,-1,741,855,0,0
-476,169,0,0,0,0,0,0,0,0,0,-1,748,855,0,0
-469,169,0,0,0,0,0,0,0,0,0,-1,755,855,0,0
-462,169,0,0,0,0,0,0,0,0,0,-1,762,855,0,0
-455,169,0,0,0,0,0,0,0,0,0,-1,769,855,0,0
-448,169,0,0,0,0,0,0,0,0,0,-1,776,855,0,0
-441,169,0,0,0,0,0,0,0,0,0,-1,783,855,0,0
-434,169,0,0,0,0,0,0,0,0,0,-1,790,855,0,0
-427,169,0,0,0,0,0,0,0,0,0,-1,797,855,0,0
-420,169,0,0,0,0,0,0,0,0,0,-1,804,855,0,0
-413,169,0,0,0,0,0,0,0,0,0,-1,811,855,0,0
-406,169,0,0,0,0,0,0,0,0,0,-1,818,855,0,0
-399,169,0,0,0,0,0,0,0,0,0,-1,825,855,0,0
-392,169,0,0,0,0,0,0,0,0,0,-1,832,855,0,0
-385,169,0,0,0,0,0,0,0,0,0,-1,839,855,0,0
-378,169,0,0,0,0,0,0,0,0,0,-1,846,855,0,0
-371,169,0,0,0,0,0,0,0,0,0,-1,853,855,0,0
-364,169,0,0,0,0,0,0,0,0,0,-1,860,855,0,0
-357,169,0,0,0,0,0,0,0,0,0,-1,867,855,0,0
-350,169,0,0,0,0,0,0,0,0,0,-1,874,855,0,0
-343,169,0,0,0,0,0,0,0,0,0,-1,881,855,0,0
-336,169,0,0,0,0,0,0,0,0,0,-1,888,855,0,0
-329,169,0,0,0,0,0,0,0,0,0,-1,895,855,0,0
-322,169,0,0,0,0,0,0,0,0,0,-1,902,855,0,0
-315,169,0,0,0,0,0,0,0,0,0,-1,909,855,0,0
-308,169,0,0,0,0,0,0,0,0,0,-1,916,855,0,0
-301,169,0,0,0,0,0,0,0,0,0,-1,923,855,0,0
-294,169,0,0,0,0,0,0,0,0,0,-1,930,855,0,0
-287,169,0,0,0,0,0,0,0,0,0,-1,937,855,0,0
-280,169,0,0,0,0,0,0,0,0,0,-1,944,855,0,0
-273,169,0,0,0,0,0,0,0,0,0,-1,951,855,0,0
-266,169,0,0,0,0,0,0,0,0,0,-1,958,855,0,0
-259,169,0,0,0,0,0,0,0,0,0,-1,965,855,0,0
-252,169,0,0,0,0,0,0,0,0,0,-1,972,855,0,0
-245,169,0,0,0,0,0,0,0,0,0,-1,979,855,0,0
-238,169,0,0,0,0,0,0,0,0,0,-1,986,855,0,0
-231,169,0,0,0,0,0,0,0,0,0,-1,993,855,0,0
-224,169,0,0,0,0,0,0,0,0,0,-1,1000,855,0,0
-217,169,0,0,0,0,0,0,0,0,0,-1,1007,855,0,0
-210,169,0,0,0,0,0,0,0,0,0,-1,1014,855,0,0
-203,169,0,0,0,0,0,0,0,0,0,-1,1021,855,0,0
-196,169,0,0,0,0,0,0,0,0,0,-1,1028,855,0,0
-189,169,0,0,0,0,0,0,0,0,0,-1,1035,855,0,0
-182,169,0,0,0,0,0,0,0,0,0,-1,1042,855,0,0
-175,169,0,0,0,0,0,0,0,0,0,-1,1049,855,0,0
-168,169,0,0,0,0,0,0,0,0,0,-1,1056,855,0,0
-161,169,0,0,0,0,0,0,0,0,0,-1,1063,855,0,0
-154,169,0,0,0,0,0,0,0,0,0,-1,1070,855,0,0
-147,169,0,0,0,0,0,0,0,0,0,-1,1077,855,0,0
-140,169,0,0,0,0,0,0,0,0,0,-1,1084,855,0,0
-133,169,0,0,0,0,0,0,0,0,0,-1,1091,855,0,0
-126,169,0,0,0,0,0,0,0,0,0,-1,1098,855,0,0
-119,169,0,0,0,0,0,0,0,0,0,-1,1105,855,0,0
-112,169,0,0,0,0,0,0,0,0,0,-1,1112,855,0,0
-105,169,0,0,0,0,0,0,0,0,0,-1,1119,855,0,0
-98,169,0,0,0,0,0,0,0,0,0,-1,1126,855,0,0
-91,169,0,0,0,0,0,0,0,0,0,-1,1133,855,0,0
-84,169,0,0,0,0,0,0,0,0,0,-1,1140,855,0,0
-77,169,0,0,0,0,0,0,0,0,0,-1,1147,855,0,0
-70,169,0,0,0,0,0,0,0,0,0,-1,1154,855,0,0
-63,169,0,0,0,0,0,0,0,0,0,-1,1161,855,0,0
-56,169,0,0,0,0,0,0,0,0,0,-1,1168,855,0,0
-49,169,0,0,0,0,0,0,0,0,0,-1,1175,855,0,0
-42,169,0,0,0,0,0,0,0,0,0,-1,1182,855,0,0
-35,169,0,0,0,0,0,0,0,0,0,-1,1189,855,0,0
-28,169,0,0,0,0,0,0,0,0,0,-1,1196,855,0,0
-21,169,0,0,0,0,0,0,0,0,0,-1,1203,855,0,0
-14,169,0,0,0,0,0,0,0,0,0,-1,1210,855,0,0
-7,169,0,0,0,0,0,0,0,0,0,-1,1217,855,0,0
0,169,0,0,0,0,0,0,0,0,0,-1,1224,855,0,0
7,169,0,0,0,0,0,0,0,0,0,-1,1231,855,0,0
14,169,0,0,0,0,0,0,0,0,0,-1,1238,855,0,0
21,169,0,0,0,0,0,0,0,0,0,-1,1245,855,0,0
28,169,0,0,0,0,0,0,0,0,0,-1,1252,855,0,0
35,169,0,0,0,0,0,0,0,0,0,-1,1259,855,0,0
42,169,0,0,0,0,0,0,0,0,0,-1,1266,855,0,0
49,169,0,0,0,0,0,0,0,0,0,-1,1273,855,0,0
56,169,0,0,0,0,0,0,0,0,0,-1,1280,855,0,0
63,169,0,0,0,0,0,0,0,0,0,-1,1287,855,0,0
70,169,0,0,0,0,0,0,0,0,0,-1,1294,855,0,0
77,169,0,0,0,0,0,0,0,0,0,-1,1301,855,0,0
84,169,0,0,0,0,0,0,0,0,0,-1,1308,855,0,0
91,169,0,0,0,0,0,0,0,0,0,-1,1315,855,0,0
98,169,0,0,0,0,0,0,0,0,0,-1,1322,855,0,0
105,169,0,0,0,0,0,0,0,0,0,-1,1329,855,0,0
112,169,0,0,0,0,0,0,0,0,0,-1,1336,855,0,0
119,169,0,0,0,0,0,0,0,0,0,-1,1343,855,0,0
126,169,0,0,0,0,0,0,0,0,0,-1,1350,855,0,0
133,169,0,0,0,0,0,0,0,0,0,-1,1357,855,0,0
140,169,0,0,0,0,0,0,0,0,0,-1,1364,855,0,0
147,169,0,0,0,0,0,0,0,0,0,-1,1371,855,0,0
154,169,0,0,0,0,0,0,0,0,0,-1,1378,855,0,0
161,169,0,0,0,0,0,0,0,0,0,-1,1385,855,0,0
168,169,0,0,0,0,0,0,0,0,0,-1,1392,855,0,0
175,169,0,0,0,0,0,0,0,0,0,-1,1399,855,0,0
182,169,0,0,0,0,0,0,0,0,0,-1,1406,855,0,0
189,169,0,0,0,0,0,0,0,0,0,-1,1413,855,0,0
196,169,0,0,0,0,0,0,0,0,0,-1,1420,855,0,0
203,169,0,0,0,0,0,0,0,0,0,-1,1427,855,0,0
210,169,0,0,0,0,0,0,0,0,0,-1,1434,855,0,0
217,169,0,0,0,0,0,0,0,0,0,-1,1441,855,0,0
224,169,0,0,0,0,0,0,0,0,0,-1,1448,855,0,0
231,169,0,0,0,0,0,0,0,0,0,-1,1455,855,0,0
238,169,0,0,0,0,0,0,0,0,0,-1,1462,855,0,0
245,169,0,0,0,0,0,0,0,0,0,-1,1469,855,0,0
252,169,0,0,0,0,0,0,0,0,0,-1,1476,855,0,0
259,169,0,0,0,0,0,0,0,0,0,-1,1483,855,0,0
266,169,0,0,0,0,0,0,0,0,0,-1,1490,855,0,0
273,169,0,0,0,0,0,0,0,0,0,-1,1497,855,0,0
280,169,0,0,0,0,0,0,0,0,0,-1,1504,855,0,0
287,169,0,0,0,0,0,0,0,0,0,-1,1511,855,0,0
294,169,0,0,0,0,0,0,0,0,0,-1,1518,855,0,0
301,169,0,0,0,0,0,0,0,0,0,-1,1525,855,0,0
308,169,0,0,0,0,0,0,0,0,0,-1,1532,855,0,0
315,169,0,0,0,0,0,0,0,0,0,-1,1539,855,0,0
322,169,0,0,0,0,0,0,0,0,0,-1,1546,855,0,0
329,169,0,0,0,0,0,0,0,0,0,-1,1553,855,0,0
336,169,0,0,0,0,0,0,0,0,0,-1,1560,855,0,0
343,169,0,0,0,0,0,0,0,0,0,-1,1567,855,0,0
350,169,0,0,0,0,0,0,0,0,0,-1,1574,855,0,0
357,169,0,0,0,0,0,0,0,0,0,-1,1581,855,0,0
364,169,0,0,0,0,0,0,0,0,0,-1,1588,855,0,0
371,169,0,0,0,0,0,0,0,0,0,-1,1595,855,0,0
378,169,0,0,0,0,0,0,0,0,0,-1,1602,855,0,0
385,169,0,0,0,0,0,0,0,0,0,-1,1609,855,0,0
392,169,0,0,0,0,0,0,0,0,0,-1,1616,855,0,0
399,169,0,0,0,0,0,0,0,0,0,-1,1623,855,0,0
406,169,0,0,0,0,0,0,0,0,0,-1,1630,855,0,0
413,169,0,0,0,0,0,0,0,0,0,-1,1637,855,0,0
420,169,0,0,0,0,0,0,0,0,0,-1,1644,855,0,0
427,169,0,0,0,0,0,0,0,0,0,-1,1651,855,0,0
434,169,0,0,0,0,0,0,0,0,0,-1,1658,855,0,0
441,169,0,0,0,0,0,0,0,0,0,-1,1665,855,0,0
448,169,0,0,0,0,0,0,0,0,0,-1,1672,855,0,0
455,169,0,0,0,0,0,0,0,0,0,-1,1679,855,0,0
462,169,0,0,0,0,0,0,0,0,0,-1,1686,855,0,0
469,169,0,0,0,0,0,0,0,0,0,-1,1693,855,0,0
476,169,0,0,0,0,0,0,0,0,0,-1,1700,855,0,0
483,169,0,0,0,0,0,0,0,0,0,-1,1707,855,0,0
490,169,0,0,0,0,0,0,0,0,0,-1,1714,855,0,0
497,169,0,0,0,0,0,0,0,0,0,-1,1721,855,0,0
504,169,0,0,0,0,0,0,0,0,0,-1,1728,855,0,0
511,169,0,0,0,0,0,0,0,0,0,-1,1735,855,0,0
518,169,0,0,0,0,0,0,0,0,0,-1,1742,855,0,0
525,169,0,0,0,0,0,0,0,0,0,-1,1749,855,0,0
532,169,0,0,0,0,0,0,0,0,0,-1,1756,855,0,0
539,169,0,0,0,0,0,0,0,0,0,-1,1763,855,0,0
546,169,0,0,0,0,0,0,0,0,0,-1,1770,855,0,0
553,169,0,0,0,0,0,0,0,0,0,-1,1777,855,0,0
560,169,0,0,0,0,0,0,0,0,0,-1,1784,855,0,0
567,169,0,0,0,0,0,0,0,0,0,-1,1791,855,0,0
574,169,0,0,0,0,0,0,0,0,0,-1,1798,855,0,0
581,169,0,0,0,0,0,0,0,0,0,-1,1805,855,0,0
588,169,0,0,0,0,0,0,0,0,0,-1,1812,855,0,0
595,169,0,0,0,0,0,0,0,0,0,-1,1819,855,0,0
602,169,0,0,0,0,0,0,0,0,0,-1,1826,855,0,0
609,169,0,0,0,0,0,0,0,0,0,-1,1833,855,0,0
616,169,11.6354,1.83063,-0.0021044,0.00120097,-0.00162626,0.00186692,-0.00277035,-1.18213,0.00269422,0.0425366,1840,855,11.6354,-1.83065
623,169,11.8409,1.6225,-0.000583897,0.000356069,-0.00105696,0.00104282,-0.00127065,-0.994599,0.00133784,0.0466631,1847,855,11.8409,-1.6225
630,169,11.9584,1.76959,-0.000220994,-0.000784045,-0.00154782,0.0010707,-0.00207574,-0.695439,0.00184723,0.0440071,1854,855,11.9584,-1.76962
637,169,12.0022,1.79547,-0.00128491,-0.00182895,-0.0024665,0.00092453,-0.00403839,-0.730477,0.00304754,0.0375224,1861,855,12.0022,-1.79546
644,169,11.8605,1.76062,-0.0028793,-0.00265371,-0.00339626,0.000631629,-0.00616465,-0.801998,0.00433567,0.0347911,1868,855,11.8605,-1.7606
651,169,11.7567,1.79333,-0.00447769,-0.00323109,-0.00418944,0.000381164,-0.00808994,-0.859246,0.00552473,0.0339533,1875,855,11.7567,-1.79334
658,169,11.8353,1.65198,-0.00582542,-0.00355505,-0.00477599,0.000218813,-0.00959928,-0.902076,0.00647369,0.0329526,1882,855,11.8353,-1.652
665,169,11.944,1.61102,-0.00687867,-0.00362834,-0.00509719,9.6499e-05,-0.0106035,-0.939721,0.00710139,0.0440967,1889,855,11.9439,-1.61105
672,169,11.3142,1.53265,0,0,0,0,0,0,0,-1,1896,855,11.3142,-1.53267
679,169,10.6664,1.48657,-0.00834058,-0.00331383,-0.00512081,-0.000122839,-0.0115316,-1.01353,0.0076471,0.0456337,1903,855,10.6664,-1.4866
686,169,10.0803,1.49597,-0.00845782,-0.00302148,-0.00492142,-0.000117478,-0.0113618,-1.03771,0.00753569,0.0205809,1910,855,10.0803,-1.49596
693,169,10.1189,1.58569,-0.0081812,-0.00248701,-0.00450892,-1.53342e-06,-0.0106667,-1.06701,0.00711061,0.0117245,1917,855,10.1188,-1.5857
700,169,10.1259,1.67407,-0.00684977,-0.00195169,-0.00407641,0.000354786,-0.00915625,-1.0559,0.0062258,0.0121252,1924,855,10.1258,-1.67406
707,169,10.1239,1.77594,-0.00424299,-0.00164732,-0.00355413,0.000838524,-0.00672883,-0.960457,0.00478992,0.01375,1931,855,10.1239,-1.77595
714,169,10.1179,1.86664,-0.000621585,-0.0014645,-0.00302968,0.00201581,-0.00410189,-0.716287,0.00359985,0.0134353,1938,855,10.1179,-1.86661
721,169,10.1207,1.95306,0.00434648,-0.00180556,-0.00229353,0.00510741,-0.00256649,-0.320345,0.00451076,0.0128177,1945,855,10.1207,-1.95306
728,169,10.1033,2.03961,0.0104003,-0.00166321,-0.000324553,0.010409,-0.00167194,-0.0268778,0.00755854,0.0104728,1952,855,10.1033,-2.03962
735,169,10.0918,2.12488,0.0173476,-0.000262495,0.00162059,0.0174955,-0.00041039,0.0910079,0.0118028,0.017395,1959,855,10.0918,-2.12486
742,169,10.1259,2.2052,0.025206,0.00226901,0.00341907,0.0257048,0.0017702,0.144869,0.016578,0.013404,1966,855,10.1259,-2.20517
749,169,10.1613,2.2793,0.0338082,0.00467879,0.00600648,0.0349981,0.00348886,0.195575,0.0222605,0.0208668,1973,855,10.1612,-2.27932
756,169,10.6417,2.39606,0.0435448,0.00870268,0.00969411,0.0460603,0.00618711,0.253895,0.0288664,0.0396429,1980,855,10.6417,-2.39607
763,169,11.1277,2.52368,0,0,0,0,0,0,0,-1,1987,855,11.1277,-2.52365
770,169,11.8806,3.06067,0.0664354,0.0251912,0.0219017,0.0758957,0.0157309,0.407741,0.046254,0.0476168,1994,855,11.8806,-3.06069
777,169,12.2601,3.49023,0.078835,0.0402964,0.0311973,0.0962342,0.0228972,0.508747,0.0580491,0.0441972,2001,855,12.2601,-3.49022
784,169,12.3708,4.0036,0.0909087,0.0626875,0.043196,0.12224,0.0313558,0.62753,0.073312,0.0460751,2008,855,12.3708,-4.0036
791,169,0,0,0,0,0,0,0,0,0,-1,2015,855,0,0
798,169,0,0,0,0,0,0,0,0,0,-1,2022,855,0,0
805,169,0,0,0,0,0,0,0,0,0,-1,2029,855,0,0
812,169,0,0,0,0,0,0,0,0,0,-1,2036,855,0,0
-700,162,0,0,0,0,0,0,0,0,0,-1,524,862,0,0
-693,162,0,0,0,0,0,0,0,0,0,-1,531,862,0,0
-686,162,0,0,0,0,0,0,0,0,0,-1,538,862,0,0
-679,162,0,0,0,0,0,0,0,0,0,-1,545,862,0,0
-672,162,0,0,0,0,0,0,0,0,0,-1,552,862,0,0
-665,162,-2.30255,2.1745,0,0,0,0,0,0,0,-1,559,862,-2.30253,-2.17451
-658,162,-2.24011,1.91559,0,0,0,0,0,0,0,-1,566,862,-2.24012,-1.91558
-651,162,-2.2627,1.56317,0,0,0,0,0,0,0,-1,573,862,-2.2627,-1.56318
-644,162,-2.52734,1.46478,-0.00450402,0.0394265,-0.0195216,0.0468477,-0.0119253,-1.20751,0.0358738,0.047521,580,862,-2.52736,-1.4648
-637,162,-2.8949,1.48151,-0.0049621,0.0294502,-0.0153388,0.0352947,-0.0108066,-1.20675,0.0278401,0.0470353,587,862,-2.89489,-1.4815
-630,162,-3.39551,1.81018,0,0,0,0,0,0,0,-1,594,862,-3.39549,-1.81021
-623,162,-4.31317,1.74243,0,0,0,0,0,0,0,-1,601,862,-4.31318,-1.74241
-616,162,-4.90735,0.987061,-0.00452988,0.0103182,-0.00640408,0.0126987,-0.00691037,-1.21491,0.0114845,0.0179889,608,862,-4.90737,-0.987072
-609,162,-4.89124,0.911011,-0.00415077,0.00685513,-0.00413082,0.00823303,-0.00552867,-1.24884,0.0079963,0.012561,615,862,-4.89125,-0.911011
-602,162,-4.88568,0.823242,-0.00419447,0.00417813,-0.00241695,0.00482575,-0.00484209,-1.309,0.00558173,0.0110978,622,862,-4.8857,-0.823246
-595,162,-4.89349,0.761292,-0.00455658,0.00105895,-0.000786854,0.00116713,-0.00466475,-1.43418,0.00356317,0.0105301,629,862,-4.89346,-0.761278
-588,162,-4.87592,0.690491,-0.00585517,6.27829e-06,0.000934869,0.000151773,-0.00600067,1.4164,0.00405198,0.0109013,636,862,-4.87593,-0.690513
-581,162,-4.89929,0.586304,-0.00717017,-0.000816689,0.00249817,4.79226e-05,-0.00803478,1.2376,0.00537256,0.0122295,643,862,-4.8993,-0.586313
-574,162,-4.9704,0.4823,-0.00838185,-0.00144497,0.00336364,-8.18367e-05,-0.00974499,1.18577,0.00646955,0.0165714,650,862,-4.9704,-0.482275
-567,162,-4.93854,0.436035,-0.00925372,-0.001797,0.0038869,-0.000139391,-0.0109113,1.16769,0.0072282,0.0198236,657,862,-4.93853,-0.436044
-560,162,-4.9201,0.333923,-0.00977051,-0.00193525,0.00429622,-3.86424e-05,-0.0116671,1.15507,0.00776523,0.0148616,664,862,-4.92009,-0.333898
-553,162,-4.90442,0.235901,-0.0102984,-0.00183753,0.00477404,0.000310753,-0.0124467,1.14795,0.00840328,0.0245533,671,862,-4.90442,-0.235891
-546,162,-5.46039,0.385315,-0.0105225,-0.00179422,0.00499615,0.000475427,-0.0127922,1.14439,0.00869094,0.0363453,678,862,-5.46039,-0.38531
-539,162,-6.21191,0.504395,-0.00989934,-0.00139819,0.00495976,0.000883201,-0.0121807,1.13967,0.00843032,0.0392632,685,862,-6.21193,-0.50442
-532,162,-6.11511,0.708557,-0.00826777,-0.000667116,0.00462974,0.0015223,-0.0104572,1.12906,0.00753035,0.0339023,692,862,-6.11509,-0.708536
-525,162,-6.08032,0.716492,-0.00544729,0.000331213,0.00394772,0.00233402,-0.0074501,1.1013,0.00590067,0.0376704,699,862,-6.08031,-0.716498
-518,162,-6.10193,0.645264,-0.00127337,0.00175827,0.00286768,0.00348611,-0.0030012,1.02853,0.00374893,0.0392887,706,862,-6.10193,-0.645263
-511,162,-6.18726,0.56073,0.00431306,0.00367988,0.00135857,0.00539144,0.0026015,0.670925,0.00311338,0.0426024,713,862,-6.18727,-0.560727
-504,162,-6.27869,0.521851,0.0109204,0.00615539,-0.000504715,0.0109733,0.00610252,-0.104377,0.00634873,0.0438506,720,862,-6.27869,-0.521857
-497,162,-6.21295,0.582031,0,0,0,0,0,0,0,-1,727,862,-6.21297,-0.582023
-490,162,0,0,0,0,0,0,0,0,0,-1,734,862,0,0
-483,162,0,0,0,0,0,0,0,0,0,-1,741,862,0,0
-476,162,0,0,0,0,0,0,0,0,0,-1,748,862,0,0
-469,162,0,0,0,0,0,0,0,0,0,-1,755,862,0,0
-462,162,0,0,0,0,0,0,0,0,0,-1,762,862,0,0
-455,162,0,0,0,0,0,0,0,0,0,-1,769,862,0,0
-448,162,0,0,0,0,0,0,0,0,0,-1,776,862,0,0
-441,162,0,0,0,0,0,0,0,0,0,-1,783,862,0,0
-434,162,0,0,0,0,0,0,0,0,0,-1,790,862,0,0
-427,162,0,0,0,0,0,0,0,0,0,-1,797,862,0,0
-420,162,0,0,0,0,0,0,0,0,0,-1,804,862,0,0
-413,162,0,0,0,0,0,0,0,0,0,-1,811,862,0,0
-406,162,0,0,0,0,0,0,0,0,0,-1,818,862,0,0
-399,162,0,0,0,0,0,0,0,0,0,-1,825,862,0,0
-392,162,0,0,0,0,0,0,0,0,0,-1,832,862,0,0
-385,162,0,0,0,0,0,0,0,0,0,-1,839,862,0,0
-378,162,0,0,0,0,0,0,0,0,0,-1,846,862,0,0
-371,162,0,0,0,0,0,0,0,0,0,-1,853,862,0,0
-364,162,0,0,0,0,0,0,0,0,0,-1,860,862,0,0
-357,162,0,0,0,0,0,0,0,0,0,-1,867,862,0,0
-350,162,0,0,0,0,0,0,0,0,0,-1,874,862,0,0
-343,162,0,0,0,0,0,0,0,0,0,-1,881,862,0,0
-336,162,0,0,0,0,0,0,0,0,0,-1,888,862,0,0
-329,162,0,0,0,0,0,0,0,0,0,-1,895,862,0,0
-322,162,0,0,0,0,0,0,0,0,0,-1,902,862,0,0
-315,162,0,0,0,0,0,0,0,0,0,-1,909,862,0,0
-308,162,0,0,0,0,0,0,0,0,0,-1,916,862,0,0
-301,162,0,0,0,0,0,0,0,0,0,-1,923,862,0,0
-294,162,0,0,0,0,0,0,0,0,0,-1,930,862,0,0
-287,162,0,0,0,0,0,0,0,0,0,-1,937,862,0,0
-280,162,0,0,0,0,0,0,0,0,0,-1,944,862,0,0
-273,162,0,0,0,0,0,0,0,0,0,-1,951,862,0,0
-266,162,0,0,0,0,0,0,0,0,0,-1,958,862,0,0
-259,162,0,0,0,0,0,0,0,0,0,-1,965,862,0,0
-252,162,0,0,0,0,0,0,0,0,0,-1,972,862,0,0
-245,162,0,0,0,0,0,0,0,0,0,-1,979,862,0,0
-238,162,0,0,0,0,0,0,0,0,0,-1,986,862,0,0
-231,162,0,0,0,0,0,0,0,0,0,-1,993,862,0,0
-224,162,0,0,0,0,0,0,0,0,0,-1,1000,862,0,0
-217,162,0,0,0,0,0,0,0,0,0,-1,1007,862,0,0
-210,162,0,0,0,0,0,0,0,0,0,-1,1014,862,0,0
-203,162,0,0,0,0,0,0,0,0,0,-1,1021,862,0,0
-196,162,0,0,0,0,0,0,0,0,0,-1,1028,862,0,0
-189,162,0,0,0,0,0,0,0,0,0,-1,1035,862,0,0
-182,162,0,0,0,0,0,0,0,0,0,-1,1042,862,0,0
-175,162,0,0,0,0,0,0,0,0,0,-1,1049,862,0,0
-168,162,0,0,0,0,0,0,0,0,0,-1,1056,862,0,0
-161,162,0,0,0,0,0,0,0,0,0,-1,1063,862,0,0
-154,162,0,0,0,0,0,0,0,0,0,-1,1070,862,0,0
-147,162,0,0,0,0,0,0,0,0,0,-1,1077,862,0,0
-140,162,0,0,0,0,0,0,0,0,0,-1,1084,862,0,0
-133,162,0,0,0,0,0,0,0,0,0,-1,1091,862,0,0
-126,162,0,0,0,0,0,0,0,0,0,-1,1098,862,0,0
-119,162,0,0,0,0,0,0,0,0,0,-1,1105,862,0,0
-112,162,0,0,0,0,0,0,0,0,0,-1,1112,862,0,0
-105,162,0,0,0,0,0,0,0,0,0,-1,1119,862,0,0
-98,162,0,0,0,0,0,0,0,0,0,-1,1126,862,0,0
-91,162,0,0,0,0,0,0,0,0,0,-1,1133,862,0,0
-84,162,0,0,0,0,0,0,0,0,0,-1,1140,862,0,0
-77,162,0,0,0,0,0,0,0,0,0,-1,1147,862,0,0
-70,162,0,0,0,0,0,0,0,0,0,-1,1154,862,0,0
-63,162,0,0,0,0,0,0,0,0,0,-1,1161,862,0,0
-56,162,0,0,0,0,0,0,0,0,0,-1,1168,862,0,0
-49,162,0,0,0,0,0,0,0,0,0,-1,1175,862,0,0
-42,162,0,0,0,0,0,0,0,0,0,-1,1182,862,0,0
-35,162,0,0,0,0,0,0,0,0,0,-1,1189,862,0,0
-28,162,0,0,0,0,0,0,0,0,0,-1,1196,862,0,0
-21,162,0,0,0,0,0,0,0,0,0,-1,1203,862,0,0
-14,162,0,0,0,0,0,0,0,0,0,-1,1210,862,0,0
-7,162,0,0,0,0,0,0,0,0,0,-1,1217,862,0,0
0,162,0,0,0,0,0,0,0,0,0,-1,1224,862,0,0
7,162,0,0,0,0,0,0,0,0,0,-1,1231,862,0,0
14,162,0,0,0,0,0,0,0,0,0,-1,1238,862,0,0
21,162,0,0,0,0,0,0,0,0,0,-1,1245,862,0,0
28,162,0,0,0,0,0,0,0,0,0,-1,1252,862,0,0
35,162,0,0,0,0,0,0,0,0,0,-1,1259,862,0,0
42,162,0,0,0,0,0,0,0,0,0,-1,1266,862,0,0
49,162,0,0,0,0,0,0,0,0,0,-1,1273,862,0,0
56,162,0,0,0,0,0,0,0,0,0,-1,1280,862,0,0
63,162,0,0,0,0,0,0,0,0,0,-1,1287,862,0,0
70,162,0,0,0,0,0,0,0,0,0,-1,1294,862,0,0
77,162,0,0,0,0,0,0,0,0,0,-1,1301,862,0,0
84,162,0,0,0,0,0,0,0,0,0,-1,1308,862,0,0
91,162,0,0,0,0,0,0,0,0,0,-1,1315,862,0,0
98,162,0,0,0,0,0,0,0,0,0,-1,1322,862,0,0
105,162,0,0,0,0,0,0,0,0,0,-1,1329,862,0,0
112,162,0,0,0,0,0,0,0,0,0,-1,1336,862,0,0
119,162,0,0,0,0,0,0,0,0,0,-1,1343,862,0,0
126,162,0,0,0,0,0,0,0,0,0,-1,1350,862,0,0
133,162,0,0,0,0,0,0,0,0,0,-1,1357,862,0,0
140,162,0,0,0,0,0,0,0,0,0,-1,1364,862,0,0
147,162,0,0,0,0,0,0,0,0,0,-1,1371,862,0,0
154,162,0,0,0,0,0,0,0,0,0,-1,1378,862,0,0
161,162,0,0,0,0,0,0,0,0,0,-1,1385,862,0,0
168,162,0,0,0,0,0,0,0,0,0,-1,1392,862,0,0
175,162,0,0,0,0,0,0,0,0,0,-1,1399,862,0,0
182,162,0,0,0,0,0,0,0,0,0,-1,1406,862,0,0
189,162,0,0,0,0,0,0,0,0,0,-1,1413,862,0,0
196,162,0,0,0,0,0,0,0,0,0,-1,1420,862,0,0
203,162,0,0,0,0,0,0,0,0,0,-1,1427,862,0,0
210,162,0,0,0,0,0,0,0,0,0,-1,1434,862,0,0
217,162,0,0,0,0,0,0,0,0,0,-1,1441,862,0,0
224,162,0,0,0,0,0,0,0,0,0,-1,1448,862,0,0
231,162,0,0,0,0,0,0,0,0,0,-1,1455,862,0,0
238,162,0,0,0,0,0,0,0,0,0,-1,1462,862,0,0
245,162,0,0,0,0,0,0,0,0,0,-1,1469,862,0,0
252,162,0,0,0,0,0,0,0,0,0,-1,1476,862,0,0
259,162,0,0,0,0,0,0,0,0,0,-1,1483,862,0,0
266,162,0,0,0,0,0,0,0,0,0,-1,1490,862,0,0
273,162,0,0,0,0,0,0,0,0,0,-1,1497,862,0,0
280,162,0,0,0,0,0,0,0,0,0,-1,1504,862,0,0
287,162,0,0,0,0,0,0,0,0,0,-1,1511,862,0,0
294,162,0,0,0,0,0,0,0,0,0,-1,1518,862,0,0
301,162,0,0,0,0,0,0,0,0,0,-1,1525,862,0,0
308,162,0,0,0,0,0,0,0,0,0,-1,1532,862,0,0
315,162,0,0,0,0,0,0,0,0,0,-1,1539,862,0,0
322,162,0,0,0,0,0,0,0,0,0,-1,1546,862,0,0
329,162,0,0,0,0,0,0,0,0,0,-1,1553,862,0,0
336,162,0,0,0,0,0,0,0,0,0,-1,1560,862,0,0
343,162,0,0,0,0,0,0,0,0,0,-1,1567,862,0,0
350,162,0,0,0,0,0,0,0,0,0,-1,1574,862,0,0
357,162,0,0,0,0,0,0,0,0,0,-1,1581,862,0,0
364,162,0,0,0,0,0,0,0,0,0,-1,1588,862,0,0
371,162,0,0,0,0,0,0,0,0,0,-1,1595,862,0,0
378,162,0,0,0,0,0,0,0,0,0,-1,1602,862,0,0
385,162,0,0,0,0,0,0,0,0,0,-1,1609,862,0,0
392,162,0,0,0,0,0,0,0,0,0,-1,1616,862,0,0
399,162,0,0,0,0,0,0,0,0,0,-1,1623,862,0,0
406,162,0,0,0,0,0,0,0,0,0,-1,1630,862,0,0
413,162,0,0,0,0,0,0,0,0,0,-1,1637,862,0,0
420,162,0,0,0,0,0,0,0,0,0,-1,1644,862,0,0
427,162,0,0,0,0,0,0,0,0,0,-1,1651,862,0,0
434,162,0,0,0,0,0,0,0,0,0,-1,1658,862,0,0
441,162,0,0,0,0,0,0,0,0,0,-1,1665,862,0,0
448,162,0,0,0,0,0,0,0,0,0,-1,1672,862,0,0
455,162,0,0,0,0,0,0,0,0,0,-1,1679,862,0,0
462,162,0,0,0,0,0,0,0,0,0,-1,1686,862,0,0
469,162,0,0,0,0,0,0,0,0,0,-1,1693,862,0,0
476,162,0,0,0,0,0,0,0,0,0,-1,1700,862,0,0
483,162,0,0,0,0,0,0,0,0,0,-1,1707,862,0,0
490,162,0,0,0,0,0,0,0,0,0,-1,1714,862,0,0
497,162,0,0,0,0,0,0,0,0,0,-1,1721,862,0,0
504,162,0,0,0,0,0,0,0,0,0,-1,1728,862,0,0
511,162,0,0,0,0,0,0,0,0,0,-1,1735,862,0,0
518,162,0,0,0,0,0,0,0,0,0,-1,1742,862,0,0
525,162,0,0,0,0,0,0,0,0,0,-1,1749,862,0,0
532,162,0,0,0,0,0,0,0,0,0,-1,1756,862,0,0
539,162,0,0,0,0,0,0,0,0,0,-1,1763,862,0,0
546,162,0,0,0,0,0,0,0,0,0,-1,1770,862,0,0
553,162,0,0,0,0,0,0,0,0,0,-1,1777,862,0,0
560,162,0,0,0,0,0,0,0,0,0,-1,1784,862,0,0
567,162,0,0,0,0,0,0,0,0,0,-1,1791,862,0,0
574,162,0,0,0,0,0,0,0,0,0,-1,1798,862,0,0
581,162,0,0,0,0,0,0,0,0,0,-1,1805,862,0,0
588,162,0,0,0,0,0,0,0,0,0,-1,1812,862,0,0
595,162,0,0,0,0,0,0,0,0,0,-1,1819,862,0,0
602,162,0,0,0,0,0,0,0,0,0,-1,1826,862,0,0
609,162,0,0,0,0,0,0,0,0,0,-1,1833,862,0,0
616,162,11.8248,1.64844,-0.00351278,0.000402335,-0.00264952,0.00173901,-0.00484946,-1.10356,0.00394263,0.0437689,1840,862,11.8248,-1.64843
623,162,11.9106,1.70636,-0.00148031,8.3655e-05,-0.00141864,0.000921559,-0.00231822,-1.03729,0.00192755,0.0458022,1847,862,11.9107,-1.70637
630,162,11.8519,1.91138,-0.000435128,-0.000628079,-0.00143915,0.00091078,-0.00197399,-0.75193,0.00170281,0.041479,1854,862,11.852,-1.91136
637,162,11.8092,1.76135,-0.00117034,-0.00138799,-0.00212326,0.000846875,-0.00340521,-0.759794,0.00259884,0.0387589,1861,862,11.8092,-1.76136
644,162,11.8114,1.62988,-0.00273275,-0.00205008,-0.00296151,0.000589702,-0.00537253,-0.842774,0.00379356,0.0370346,1868,862,11.8114,-1.6299
651,162,11.7928,1.75684,-0.00446868,-0.00253966,-0.00374824,0.000366175,-0.00737452,-0.911327,0.00504284,0.033331,1875,862,11.7929,-1.75684
658,162,11.8359,1.62531,-0.00598131,-0.00284356,-0.00435315,0.000214803,-0.00903967,-0.958353,0.00609931,0.0325485,1882,862,11.836,-1.62532
665,162,11.8657,1.60284,-0.00717967,-0.00293988,-0.00471521,0.00011006,-0.0102296,-0.996653,0.00685672,0.0390491,1889,862,11.8657,-1.60282
672,162,11.7058,1.40027,0,0,0,0,0,0,0,-1,1896,862,11.7058,-1.40029
679,162,10.9757,1.42413,-0.00877235,-0.00273947,-0.00481992,-6.99167e-05,-0.0114419,-1.065,0.00760474,0.0439505,1903,862,10.9757,-1.42411
686,162,10.2118,1.50549,-0.00895909,-0.00256482,-0.00469504,-8.1718e-05,-0.0114422,-1.08431,0.00760103,0.0246928,1910,862,10.2117,-1.50548
693,162,10.1926,1.58221,-0.00878644,-0.0021675,-0.00437603,9.57726e-06,-0.0109635,-1.10915,0.00731221,0.015272,1917,862,10.1926,-1.5822
700,162,10.2041,1.6778,-0.00766201,-0.00182447,-0.00394847,0.000166918,-0.0096534,-1.10368,0.00649195,0.0152718,1924,862,10.2041,-1.67777
707,162,10.207,1.77277,-0.00541649,-0.00168791,-0.00343772,0.000358491,-0.00746288,-1.03386,0.00509896,0.0114619,1931,862,10.207,-1.77276
714,162,10.2058,1.85376,-0.00226447,-0.00159298,-0.00292233,0.00101283,-0.00487028,-0.842592,0.00363185,0.0148134,1938,862,10.2058,-1.85377
721,162,10.1986,1.96332,0.00214408,-0.00190574,-0.00211476,0.00304705,-0.00280871,-0.40355,0.00338176,0.0236567,1945,862,10.1986,-1.96334
728,162,10.2079,2.05048,0.00756004,-0.00181724,-0.000117491,0.00756151,-0.00181871,-0.0125267,0.00574403,0.0194699,1952,862,10.2079,-2.05049
735,162,10.2205,2.12714,0.0138557,-4.1536e-05,0.00184121,0.0140955,-0.000281337,0.129511,0.00949217,0.0108713,1959,862,10.2205,-2.12711
742,162,10.2163,2.19818,0.0208715,0.0031483,0.00365773,0.0215967,0.00242309,0.19573,0.0136619,0.0118611,1966,862,10.2163,-2.19819
749,162,10.1978,2.27106,0.0282841,0.00629948,0.00612633,0.029876,0.00470757,0.254226,0.0185484,0.0158224,1973,862,10.1978,-2.27103
756,162,10.3746,2.42773,0.0365582,0.0112825,0.00954255,0.0397562,0.00808447,0.323372,0.0242625,0.0354544,1980,862,10.3746,-2.42771
763,162,10.9556,2.50928,0.0458255,0.0190054,0.0142018,0.051948,0.0128829,0.407034,0.0312362,0.046364,1987,862,10.9556,-2.50931
770,162,11.4696,2.60498,0.0560155,0.0306077,0.0204087,0.0673512,0.019272,0.507007,0.0400533,0.0469679,1994,862,11.4696,-2.605
777,162,11.8678,2.88757,0.0667764,0.047585,0.0284489,0.0872043,0.0271571,0.622741,0.0515273,0.0464277,2001,862,11.8678,-2.88759
784,162,12.0171,3.66577,0.077552,0.072007,0.0385948,0.113474,0.0360852,0.749542,0.0669451,0.0446269,2008,862,12.0171,-3.66579
791,162,0,0,0,0,0,0,0,0,0,-1,2015,862,0,0
798,162,0,0,0,0,0,0,0,0,0,-1,2022,862,0,0
805,162,0,0,0,0,0,0,0,0,0,-1,2029,862,0,0
812,162,0,0,0,0,0,0,0,0,0,-1,2036,862,0,0
-700,155,0,0,0,0,0,0,0,0,0,-1,524,869,0,0
-693,155,0,0,0,0,0,0,0,0,0,-1,531,869,0,0
-686,155,0,0,0,0,0,0,0,0,0,-1,538,869,0,0
-679,155,0,0,0,0,0,0,0,0,0,-1,545,869,0,0
-672,155,0,0,0,0,0,0,0,0,0,-1,552,869,0,0
-665,155,-2.27557,2.78473,0,0,0,0,0,0,0,-1,559,869,-2.2756,-2.78475
-658,155,-2.37012,2.55542,-0.00511821,0.0487189,-0.0164711,0.0533583,-0.00975765,-1.29624,0.0392313,0.0482401,566,869,-2.3701,-2.55539
-651,155,-2.4679,2.31665,0,0,0,0,0,0,0,-1,573,869,-2.46788,-2.31664
-644,155,-2.70239,2.06671,-0.00812779,0.0291677,-0.0100116,0.0316853,-0.0106454,-1.32444,0.025426,0.0469428,580,869,-2.70242,-2.06673
-637,155,-2.73077,1.466,-0.00816758,0.021667,-0.00777564,0.0235719,-0.0100725,-1.33054,0.019939,0.0481314,587,869,-2.73077,-1.46603
-630,155,-2.88379,1.33148,0,0,0,0,0,0,0,-1,594,869,-2.88379,-1.3315
-623,155,-4.98029,1.08533,-0.00692998,0.0110555,-0.00440729,0.0120774,-0.00795191,-1.34295,0.0116454,0.0255207,601,869,-4.98027,-1.08535
-616,155,-4.97821,0.974854,-0.00618614,0.00726649,-0.00317183,0.00797683,-0.00689647,-1.35048,0.00859465,0.0130081,608,869,-4.9782,-0.974826
-609,155,-4.97723,0.897217,-0.0054371,0.00454697,-0.00182285,0.00486937,-0.0057595,-1.39574,0.00614375,0.012766,615,869,-4.97725,-0.897203
-602,155,-4.97894,0.838257,-0.00518299,0.00250816,-0.000822571,0.00259515,-0.00526998,-1.46543,0.00462764,0.0118515,622,869,-4.97896,-0.838286
-595,155,-4.98132,0.766113,-0.00550544,0.000104916,9.02765e-05,0.000106368,-0.0055069,1.55471,0.00370723,0.010395,629,869,-4.9813,-0.766112
-588,155,-4.95679,0.697327,-0.00640691,-0.000588898,0.00137825,-0.000278915,-0.00671689,1.34957,0.00438791,0.0118856,636,869,-4.95681,-0.697352
-581,155,-5.00403,0.599365,-0.00739677,-0.00112558,0.00269394,-0.000127261,-0.00839509,1.21591,0.00555479,0.0160108,643,869,-5.00403,-0.59935
-574,155,-5.04449,0.512817,-0.00861763,-0.00159371,0.00343148,-0.00019559,-0.0100157,1.18389,0.00661293,0.0208833,650,869,-5.04449,-0.512827
-567,155,-5.01941,0.436523,-0.00943871,-0.00186052,0.00382109,-0.000268351,-0.0110309,1.176,0.00726612,0.0222225,657,869,-5.01943,-0.43652
-560,155,-5.021,0.347778,-0.00985361,-0.00195008,0.00410314,-0.000205163,-0.0115985,1.1687,0.00766488,0.0208976,664,869,-5.021,-0.347803
-553,155,-5.04767,0.278625,-0.0102432,-0.00180313,0.00445192,0.000111031,-0.0121573,1.16473,0.00814214,0.0346445,671,869,-5.04765,-0.278644
-546,155,-5.60229,0.497559,-0.0102445,-0.0016742,0.00452408,0.00027201,-0.0121907,1.16454,0.0082193,0.0412801,678,869,-5.6023,-0.497556
-539,155,-6.20612,0.547668,-0.00934877,-0.0012153,0.00431224,0.000645341,-0.0112094,1.16345,0.00769708,0.0429471,685,869,-6.20612,-0.547662
-532,155,-6.1582,0.618774,-0.00738244,-0.000418814,0.00379158,0.0012471,-0.00904836,1.15682,0.00648802,0.0330149,692,869,-6.1582,-0.618756
-525,155,-6.10736,0.690735,-0.00415483,0.000701693,0.00291362,0.00206627,-0.00551941,1.13279,0.00452833,0.0358874,699,869,-6.10733,-0.69073
-518,155,-6.16785,0.581543,0.000518434,0.00227694,0.00164262,0.00326082,-0.000465446,1.03113,0.00234448,0.0415208,706,869,-6.16783,-0.58157
-511,155,-6.01898,0.136719,0.00666915,0.00440045,1.69904e-05,0.00666928,0.00440032,0.00748848,0.00391551,0.0444883,713,869,-6.01896,-0.136729
-504,155,-6.12329,0.166016,0.0137284,0.00711271,-0.00175346,0.0141644,0.0066767,-0.243716,0.00818229,0.0429187,720,869,-6.12328,-0.166018
-497,155,0,0,0,0,0,0,0,0,0,-1,727,869,0,0
-490,155,0,0,0,0,0,0,0,0,0,-1,734,869,0,0
-483,155,0,0,0,0,0,0,0,0,0,-1,741,869,0,0
-476,155,0,0,0,0,0,0,0,0,0,-1,748,869,0,0
-469,155,0,0,0,0,0,0,0,0,0,-1,755,869,0,0
-462,155,0,0,0,0,0,0,0,0,0,-1,762,869,0,0
-455,155,0,0,0,0,0,0,0,0,0,-1,769,869,0,0
-448,155,0,0,0,0,0,0,0,0,0,-1,776,869,0,0
-441,155,0,0,0,0,0,0,0,0,0,-1,783,869,0,0
-434,155,0,0,0,0,0,0,0,0,0,-1,790,869,0,0
-427,155,0,0,0,0,0,0,0,0,0,-1,797,869,0,0
-420,155,0,0,0,0,0,0,0,0,0,-1,804,869,0,0
-413,155,0,0,0,0,0,0,0,0,0,-1,811,869,0,0
-406,155,0,0,0,0,0,0,0,0,0,-1,818,869,0,0
-399,155,0,0,0,0,0,0,0,0,0,-1,825,869,0,0
-392,155,0,0,0,0,0,0,0,0,0,-1,832,869,0,0
-385,155,0,0,0,0,0,0,0,0,0,-1,839,869,0,0
-378,155,0,0,0,0,0,0,0,0,0,-1,846,869,0,0
-371,155,0,0,0,0,0,0,0,0,0,-1,853,869,0,0
-364,155,0,0,0,0,0,0,0,0,0,-1,860,869,0,0
-357,155,0,0,0,0,0,0,0,0,0,-1,867,869,0,0
-350,155,0,0,0,0,0,0,0,0,0,-1,874,869,0,0
-343,155,0,0,0,0,0,0,0,0,0,-1,881,869,0,0
-336,155,0,0,0,0,0,0,0,0,0,-1,888,869,0,0
-329,155,0,0,0,0,0,0,0,0,0,-1,895,869,0,0
-322,155,0,0,0,0,0,0,0,0,0,-1,902,869,0,0
-315,155,0,0,0,0,0,0,0,0,0,-1,909,869,0,0
-308,155,0,0,0,0,0,0,0,0,0,-1,916,869,0,0
-301,155,0,0,0,0,0,0,0,0,0,-1,923,869,0,0
-294,155,0,0,0,0,0,0,0,0,0,-1,930,869,0,0
-287,155,0,0,0,0,0,0,0,0,0,-1,937,869,0,0
-280,155,0,0,0,0,0,0,0,0,0,-1,944,869,0,0
-273,155,0,0,0,0,0,0,0,0,0,-1,951,869,0,0
-266,155,0,0,0,0,0,0,0,0,0,-1,958,869,0,0
-259,155,0,0,0,0,0,0,0,0,0,-1,965,869,0,0
-252,155,0,0,0,0,0,0,0,0,0,-1,972,869,0,0
-245,155,0,0,0,0,0,0,0,0,0,-1,979,869,0,0
-238,155,0,0,0,0,0,0,0,0,0,-1,986,869,0,0
-231,155,0,0,0,0,0,0,0,0,0,-1,993,869,0,0
-224,155,0,0,0,0,0,0,0,0,0,-1,1000,869,0,0
-217,155,0,0,0,0,0,0,0,0,0,-1,1007,869,0,0
-210,155,0,0,0,0,0,0,0,0,0,-1,1014,869,0,0
-203,155,0,0,0,0,0,0,0,0,0,-1,1021,869,0,0
-196,155,0,0,0,0,0,0,0,0,0,-1,1028,869,0,0
-189,155,0,0,0,0,0,0,0,0,0,-1,1035,869,0,0
-182,155,0,0,0,0,0,0,0,0,0,-1,1042,869,0,0
-175,155,0,0,0,0,0,0,0,0,0,-1,1049,869,0,0
-168,155,0,0,0,0,0,0,0,0,0,-1,1056,869,0,0
-161,155,0,0,0,0,0,0,0,0,0,-1,1063,869,0,0
-154,155,0,0,0,0,0,0,0,0,0,-1,1070,869,0,0
-147,155,0,0,0,0,0,0,0,0,0,-1,1077,869,0,0
-140,155,0,0,0,0,0,0,0,0,0,-1,1084,869,0,0
-133,155,0,0,0,0,0,0,0,0,0,-1,1091,869,0,0
-126,155,0,0,0,0,0,0,0,0,0,-1,1098,869,0,0
-119,155,0,0,0,0,0,0,0,0,0,-1,1105,869,0,0
-112,155,0,0,0,0,0,0,0,0,0,-1,1112,869,0,0
-105,155,0,0,0,0,0,0,0,0,0,-1,1119,869,0,0
-98,155,0,0,0,0,0,0,0,0,0,-1,1126,869,0,0
-91,155,0,0,0,0,0,0,0,0,0,-1,1133,869,0,0
-84,155,0,0,0,0,0,0,0,0,0,-1,1140,869,0,0
-77,155,0,0,0,0,0,0,0,0,0,-1,1147,869,0,0
-70,155,0,0,0,0,0,0,0,0,0,-1,1154,869,0,0
-63,155,0,0,0,0,0,0,0,0,0,-1,1161,869,0,0
-56,155,0,0,0,0,0,0,0,0,0,-1,1168,869,0,0
-49,155,0,0,0,0,0,0,0,0,0,-1,1175,869,0,0
-42,155,0,0,0,0,0,0,0,0,0,-1,1182,869,0,0
-35,155,0,0,0,0,0,0,0,0,0,-1,1189,869,0,0
-28,155,0,0,0,0,0,0,0,0,0,-1,1196,869,0,0
-21,155,0,0,0,0,0,0,0,0,0,-1,1203,869,0,0
-14,155,0,0,0,0,0,0,0,0,0,-1,1210,869,0,0
-7,155,0,0,0,0,0,0,0,0,0,-1,1217,869,0,0
0,155,0,0,0,0,0,0,0,0,0,-1,1224,869,0,0
7,155,0,0,0,0,0,0,0,0,0,-1,1231,869,0,0
14,155,0,0,0,0,0,0,0,0,0,-1,1238,869,0,0
21,155,0,0,0,0,0,0,0,0,0,-1,1245,869,0,0
28,155,0,0,0,0,0,0,0,0,0,-1,1252,869,0,0
35,155,0,0,0,0,0,0,0,0,0,-1,1259,869,0,0
42,155,0,0,0,0,0,0,0,0,0,-1,1266,869,0,0
49,155,0,0,0,0,0,0,0,0,0,-1,1273,869,0,0
56,155,0,0,0,0,0,0,0,0,0,-1,1280,869,0,0
63,155,0,0,0,0,0,0,0,0,0,-1,1287,869,0,0
70,155,0,0,0,0,0,0,0,0,0,-1,1294,869,0,0
77,155,0,0,0,0,0,0,0,0,0,-1,1301,869,0,0
84,155,0,0,0,0,0,0,0,0,0,-1,1308,869,0,0
91,155,0,0,0,0,0,0,0,0,0,-1,1315,869,0,0
98,155,0,0,0,0,0,0,0,0,0,-1,1322,869,0,0
105,155,0,0,0,0,0,0,0,0,0,-1,1329,869,0,0
112,155,0,0,0,0,0,0,0,0,0,-1,1336,869,0,0
119,155,0,0,0,0,0,0,0,0,0,-1,1343,869,0,0
126,155,0,0,0,0,0,0,0,0,0,-1,1350,869,0,0
133,155,0,0,0,0,0,0,0,0,0,-1,1357,869,0,0
140,155,0,0,0,0,0,0,0,0,0,-1,1364,869,0,0
147,155,0,0,0,0,0,0,0,0,0,-1,1371,869,0,0
154,155,0,0,0,0,0,0,0,0,0,-1,1378,869,0,0
161,155,0,0,0,0,0,0,0,0,0,-1,1385,869,0,0
168,155,0,0,0,0,0,0,0,0,0,-1,1392,869,0,0
175,155,0,0,0,0,0,0,0,0,0,-1,1399,869,0,0
182,155,0,0,0,0,0,0,0,0,0,-1,1406,869,0,0
189,155,0,0,0,0,0,0,0,0,0,-1,1413,869,0,0
196,155,0,0,0,0,0,0,0,0,0,-1,1420,869,0,0
203,155,0,0,0,0,0,0,0,0,0,-1,1427,869,0,0
210,155,0,0,0,0,0,0,0,0,0,-1,1434,869,0,0
217,155,0,0,0,0,0,0,0,0,0,-1,1441,869,0,0
224,155,0,0,0,0,0,0,0,0,0,-1,1448,869,0,0
231,155,0,0,0,0,0,0,0,0,0,-1,1455,869,0,0
238,155,0,0,0,0,0,0,0,0,0,-1,1462,869,0,0
245,155,0,0,0,0,0,0,0,0,0,-1,1469,869,0,0
252,155,0,0,0,0,0,0,0,0,0,-1,1476,869,0,0
259,155,0,0,0,0,0,0,0,0,0,-1,1483,869,0,0
266,155,0,0,0,0,0,0,0,0,0,-1,1490,869,0,0
273,155,0,0,0,0,0,0,0,0,0,-1,1497,869,0,0
280,155,0,0,0,0,0,0,0,0,0,-1,1504,869,0,0
287,155,0,0,0,0,0,0,0,0,0,-1,1511,869,0,0
294,155,0,0,0,0,0,0,0,0,0,-1,1518,869,0,0
301,155,0,0,0,0,0,0,0,0,0,-1,1525,869,0,0
308,155,0,0,0,0,0,0,0,0,0,-1,1532,869,0,0
315,155,0,0,0,0,0,0,0,0,0,-1,1539,869,0,0
322,155,0,0,0,0,0,0,0,0,0,-1,1546,869,0,0
329,155,0,0,0,0,0,0,0,0,0,-1,1553,869,0,0
336,155,0,0,0,0,0,0,0,0,0,-1,1560,869,0,0
343,155,0,0,0,0,0,0,0,0,0,-1,1567,869,0,0
350,155,0,0,0,0,0,0,0,0,0,-1,1574,869,0,0
357,155,0,0,0,0,0,0,0,0,0,-1,1581,869,0,0
364,155,0,0,0,0,0,0,0,0,0,-1,1588,869,0,0
371,155,0,0,0,0,0,0,0,0,0,-1,1595,869,0,0
378,155,0,0,0,0,0,0,0,0,0,-1,1602,869,0,0
385,155,0,0,0,0,0,0,0,0,0,-1,1609,869,0,0
392,155,0,0,0,0,0,0,0,0,0,-1,1616,869,0,0
399,155,0,0,0,0,0,0,0,0,0,-1,1623,869,0,0
406,155,0,0,0,0,0,0,0,0,0,-1,1630,869,0,0
413,155,0,0,0,0,0,0,0,0,0,-1,1637,869,0,0
420,155,0,0,0,0,0,0,0,0,0,-1,1644,869,0,0
427,155,0,0,0,0,0,0,0,0,0,-1,1651,869,0,0
434,155,0,0,0,0,0,0,0,0,0,-1,1658,869,0,0
441,155,0,0,0,0,0,0,0,0,0,-1,1665,869,0,0
448,155,0,0,0,0,0,0,0,0,0,-1,1672,869,0,0
455,155,0,0,0,0,0,0,0,0,0,-1,1679,869,0,0
462,155,0,0,0,0,0,0,0,0,0,-1,1686,869,0,0
469,155,0,0,0,0,0,0,0,0,0,-1,1693,869,0,0
476,155,0,0,0,0,0,0,0,0,0,-1,1700,869,0,0
483,155,0,0,0,0,0,0,0,0,0,-1,1707,869,0,0
490,155,0,0,0,0,0,0,0,0,0,-1,1714,869,0,0
497,155,0,0,0,0,0,0,0,0,0,-1,1721,869,0,0
504,155,0,0,0,0,0,0,0,0,0,-1,1728,869,0,0
511,155,0,0,0,0,0,0,0,0,0,-1,1735,869,0,0
518,155,0,0,0,0,0,0,0,0,0,-1,1742,869,0,0
525,155,0,0,0,0,0,0,0,0,0,-1,1749,869,0,0
532,155,0,0,0,0,0,0,0,0,0,-1,1756,869,0,0
539,155,0,0,0,0,0,0,0,0,0,-1,1763,869,0,0
546,155,0,0,0,0,0,0,0,0,0,-1,1770,869,0,0
553,155,0,0,0,0,0,0,0,0,0,-1,1777,869,0,0
560,155,0,0,0,0,0,0,0,0,0,-1,1784,869,0,0
567,155,0,0,0,0,0,0,0,0,0,-1,1791,869,0,0
574,155,0,0,0,0,0,0,0,0,0,-1,1798,869,0,0
581,155,0,0,0,0,0,0,0,0,0,-1,1805,869,0,0
588,155,0,0,0,0,0,0,0,0,0,-1,1812,869,0,0
595,155,0,0,0,0,0,0,0,0,0,-1,1819,869,0,0
602,155,0,0,0,0,0,0,0,0,0,-1,1826,869,0,0
609,155,0,0,0,0,0,0,0,0,0,-1,1833,869,0,0
616,155,12.0365,1.78986,-0.00579111,-0.000987345,-0.00382057,0.00112362,-0.00790208,-1.06602,0.00567976,0.0436045,1840,869,12.0364,-1.78984
623,155,11.9908,1.90491,-0.00287124,-0.000670797,-0.00195008,0.000468017,-0.00401006,-1.04224,0.00284225,0.0429336,1847,869,11.9908,-1.90488
630,155,11.8053,1.79785,-0.000744265,-0.000805446,-0.00143236,0.000657826,-0.00220754,-0.774721,0.00173309,0.043406,1854,869,11.8053,-1.79785
637,155,11.6876,1.75897,-0.000803396,-0.00118122,-0.00180948,0.000827002,-0.00281162,-0.733386,0.00220246,0.0425377,1861,869,11.6876,-1.75899
644,155,11.751,1.71454,-0.00210757,-0.001616,-0.00249144,0.000641748,-0.00436531,-0.834565,0.00314602,0.0378197,1868,869,11.751,-1.71453
651,155,11.803,1.70007,-0.00385559,-0.00199481,-0.00322346,0.000429837,-0.00628024,-0.925895,0.00433721,0.0326939,1875,869,11.803,-1.7001
658,155,11.7744,1.71301,-0.00549805,-0.00226477,-0.00382452,0.000270751,-0.00803357,-0.98536,0.00544821,0.0265216,1882,869,11.7745,-1.71299
665,155,11.7644,1.745,-0.00684375,-0.00238075,-0.00421672,0.000158526,-0.00938303,-1.02877,0.00630886,0.0299749,1889,869,11.7644,-1.74501
672,155,11.8002,1.55011,0,0,0,0,0,0,0,-1,1896,869,11.8002,-1.55013
679,155,11.3611,1.62219,-0.00860971,-0.00229776,-0.00440309,-3.64138e-05,-0.0108711,-1.09634,0.00723526,0.0418667,1903,869,11.361,-1.6222
686,155,10.7434,1.60541,-0.0089107,-0.00221778,-0.00434212,-8.21953e-05,-0.0110463,-1.11371,0.00733695,0.0298091,1910,869,10.7434,-1.6054
693,155,10.2892,1.63092,-0.00889517,-0.00191341,-0.00410105,-1.86684e-05,-0.0107899,-1.138,0.00718706,0.0159358,1917,869,10.2892,-1.63092
700,155,10.3026,1.70599,-0.00802311,-0.0017188,-0.00372342,7.56094e-06,-0.00974948,-1.13665,0.00650217,0.0149782,1924,869,10.3027,-1.70597
707,155,10.3302,1.80823,-0.00611979,-0.00167876,-0.00330484,8.22684e-05,-0.00788081,-1.08121,0.00528151,0.0115245,1931,869,10.3302,-1.8082
714,155,10.3372,1.84601,-0.00333567,-0.00157986,-0.00286261,0.000536444,-0.00545197,-0.934185,0.00382602,0.0200943,1938,869,10.3371,-1.846
721,155,10.3037,1.93951,0.000550198,-0.00175355,-0.00209219,0.00178664,-0.00298999,-0.533762,0.00278681,0.0251306,1945,869,10.3037,-1.9395
728,155,10.2975,2.03314,0.00541949,-0.0015648,-0.000325649,0.00543464,-0.00157995,-0.0464915,0.00424882,0.0190423,1952,869,10.2975,-2.03316
735,155,10.3276,2.13837,0.0112556,0.000495402,0.00130919,0.0114126,0.000338403,0.11935,0.00749814,0.0146497,1959,869,10.3276,-2.13835
742,155,10.322,2.22546,0.0177627,0.00423376,0.00287147,0.018347,0.00364954,0.20072,0.0112145,0.0160857,1966,869,10.3221,-2.22547
749,155,10.2894,2.27826,0.0244902,0.00798183,0.00489884,0.0258345,0.00663757,0.267812,0.0154919,0.0134816,1973,869,10.2895,-2.27824
756,155,10.3984,2.35974,0.0318673,0.0137204,0.00764071,0.0346559,0.0109318,0.349944,0.0204579,0.0227122,1980,869,10.3984,-2.35975
763,155,10.7896,2.27393,0.0400441,0.0223784,0.0113178,0.0455678,0.0168546,0.45405,0.0266039,0.0418889,1987,869,10.7896,-2.27395
770,155,11.2522,2.15991,0.0491043,0.0351188,0.0162141,0.0597693,0.0244539,0.581811,0.0346972,0.0474847,1994,869,11.2521,-2.1599
777,155,11.6969,1.99097,0,0,0,0,0,0,0,-1,2001,869,11.6969,-1.99096
784,155,11.9037,3.1347,0,0,0,0,0,0,0,-1,2008,869,11.9037,-3.13469
791,155,0,0,0,0,0,0,0,0,0,-1,2015,869,0,0
798,155,0,0,0,0,0,0,0,0,0,-1,2022,869,0,0
805,155,0,0,0,0,0,0,0,0,0,-1,2029,869,0,0
812,155,0,0,0,0,0,0,0,0,0,-1,2036,869,0,0
-700,148,0,0,0,0,0,0,0,0,0,-1,524,876,0,0
-693,148,0,0,0,0,0,0,0,0,0,-1,531,876,0,0
-686,148,0,0,0,0,0,0,0,0,0,-1,538,876,0,0
-679,148,0,0,0,0,0,0,0,0,0,-1,545,876,0,0
-672,148,-2.59412,-1.14886,0,0,0,0,0,0,0,-1,552,876,-2.59411,1.14885
-665,148,-2.56561,3.39874,0,0,0,0,0,0,0,-1,559,876,-2.56563,-3.39874
-658,148,-2.61969,3.1687,0,0,0,0,0,0,0,-1,566,876,-2.61968,-3.16873
-651,148,-2.66315,2.91663,0,0,0,0,0,0,0,-1,573,876,-2.66313,-2.9166
-644,148,-2.9104,2.59125,0,0,0,0,0,0,0,-1,580,876,-2.91038,-2.59124
-637,148,-2.56116,1.39545,0,0,0,0,0,0,0,-1,587,876,-2.56117,-1.39546
-630,148,-5.11786,1.22522,-0.00694096,0.0114038,-0.00217817,0.0116589,-0.00719604,-1.45422,0.0109871,0.0415925,594,876,-5.11789,-1.22519
-623,148,-4.99725,1.05371,-0.00623018,0.0081136,-0.00149841,0.00826846,-0.00638504,-1.46781,0.00848346,0.0212298,601,876,-4.99724,-1.0537
-616,148,-5.02875,0.962952,-0.00564952,0.00520129,-0.00102808,0.00529784,-0.00574607,-1.47716,0.00637795,0.0118363,608,876,-5.02872,-0.962966
-609,148,-5.05151,0.904724,-0.00512166,0.0030257,-0.000289703,0.00303599,-0.00513195,-1.5353,0.00476724,0.0115149,615,876,-5.05149,-0.904712
-602,148,-5.05841,0.843567,-0.00504668,0.00145471,0.000241847,0.0014637,-0.00505567,1.53367,0.0039498,0.0115185,622,876,-5.05842,-0.843538
-595,148,-5.05646,0.767212,-0.00551909,-0.000397614,0.000693006,-0.000305497,-0.00561121,1.43865,0.00364324,0.00951905,629,876,-5.05646,-0.767227
-588,148,-5.04675,0.684204,-0.00649275,-0.000944145,0.00162213,-0.000504716,-0.00693218,1.30625,0.00446274,0.0125232,636,876,-5.04675,-0.684184
-581,148,-5.06952,0.599121,-0.00751706,-0.00128569,0.0027654,-0.000235447,-0.0085673,1.20784,0.00563469,0.0180576,643,876,-5.06954,-0.599122
-574,148,-5.03424,0.533081,-0.00870038,-0.00163156,0.0033946,-0.000265425,-0.0100665,1.18818,0.00662431,0.0223469,650,876,-5.03422,-0.533109
-567,148,-5.06799,0.466797,-0.0094598,-0.00183224,0.00367961,-0.000346544,-0.0109455,1.18705,0.00718427,0.0265321,657,876,-5.06802,-0.466772
-560,148,-5.05707,0.408813,-0.00977451,-0.00188999,0.00386474,-0.000311594,-0.0113529,1.18306,0.0074669,0.0251236,664,876,-5.05707,-0.408793
-553,148,-5.40247,0.614197,-0.0100024,-0.00171649,0.00410163,-2.9562e-05,-0.0116893,1.1806,0.00778303,0.034457,671,876,-5.40245,-0.614183
-546,148,-5.84174,0.884644,0,0,0,0,0,0,0,-1,678,876,-5.84173,-0.884664
-539,148,-6.11017,0.667847,-0.00857717,-0.00106789,0.0036838,0.000437477,-0.0100825,1.18286,0.00687216,0.0371032,685,876,-6.11014,-0.667859
-532,148,-6.15057,0.630188,-0.00627746,-0.000301415,0.00299663,0.000942357,-0.00752123,1.17738,0.00535598,0.0352913,692,876,-6.15058,-0.6302
-525,148,-6.14258,0.66687,-0.0026774,0.000785659,0.00193586,0.00165139,-0.00354313,1.15027,0.00306463,0.0372088,699,876,-6.14256,-0.666882
-518,148,-6.25977,0.494873,0.00244173,0.00228558,0.00048534,0.00285524,0.00187208,0.705645,0.00167489,0.0433231,706,876,-6.25975,-0.494847
-511,148,-5.9198,0.211914,0.00903098,0.00427203,-0.00125532,0.00934181,0.0039612,-0.242727,0.00541421,0.0424583,713,876,-5.91979,-0.211894
-504,148,-5.76355,0.205688,0.016285,0.00670995,-0.002934,0.0171126,0.00588243,-0.274904,0.0100395,0.0437749,720,876,-5.76353,-0.205679
-497,148,0,0,0,0,0,0,0,0,0,-1,727,876,0,0
-490,148,0,0,0,0,0,0,0,0,0,-1,734,876,0,0
-483,148,0,0,0,0,0,0,0,0,0,-1,741,876,0,0
-476,148,0,0,0,0,0,0,0,0,0,-1,748,876,0,0
-469,148,0,0,0,0,0,0,0,0,0,-1,755,876,0,0
-462,148,0,0,0,0,0,0,0,0,0,-1,762,876,0,0
-455,148,0,0,0,0,0,0,0,0,0,-1,769,876,0,0
-448,148,0,0,0,0,0,0,0,0,0,-1,776,876,0,0
-441,148,0,0,0,0,0,0,0,0,0,-1,783,876,0,0
-434,148,0,0,0,0,0,0,0,0,0,-1,790,876,0,0
-427,148,0,0,0,0,0,0,0,0,0,-1,797,876,0,0
-420,148,0,0,0,0,0,0,0,0,0,-1,804,876,0,0
-413,148,0,0,0,0,0,0,0,0,0,-1,811,876,0,0
-406,148,0,0,0,0,0,0,0,0,0,-1,818,876,0,0
-399,148,0,0,0,0,0,0,0,0,0,-1,825,876,0,0
-392,148,0,0,0,0,0,0,0,0,0,-1,832,876,0,0
-385,148,0,0,0,0,0,0,0,0,0,-1,839,876,0,0
-378,148,0,0,0,0,0,0,0,0,0,-1,846,876,0,0
-371,148,0,0,0,0,0,0,0,0,0,-1,853,876,0,0
-364,148,0,0,0,0,0,0,0,0,0,-1,860,876,0,0
-357,148,0,0,0,0,0,0,0,0,0,-1,867,876,0,0
-350,148,0,0,0,0,0,0,0,0,0,-1,874,876,0,0
-343,148,0,0,0,0,0,0,0,0,0,-1,881,876,0,0
-336,148,0,0,0,0,0,0,0,0,0,-1,888,876,0,0
-329,148,0,0,0,0,0,0,0,0,0,-1,895,876,0,0
-322,148,0,0,0,0,0,0,0,0,0,-1,902,876,0,0
-315,148,0,0,0,0,0,0,0,0,0,-1,909,876,0,0
-308,148,0,0,0,0,0,0,0,0,0,-1,916,876,0,0
-301,148,0,0,0,0,0,0,0,0,0,-1,923,876,0,0
-294,148,0,0,0,0,0,0,0,0,0,-1,930,876,0,0
-287,148,0,0,0,0,0,0,0,0,0,-1,937,876,0,0
-280,148,0,0,0,0,0,0,0,0,0,-1,944,876,0,0
-273,148,0,0,0,0,0,0,0,0,0,-1,951,876,0,0
-266,148,0,0,0,0,0,0,0,0,0,-1,958,876,0,0
-259,148,0,0,0,0,0,0,0,0,0,-1,965,876,0,0
-252,148,0,0,0,0,0,0,0,0,0,-1,972,876,0,0
-245,148,0,0,0,0,0,0,0,0,0,-1,979,876,0,0
-238,148,0,0,0,0,0,0,0,0,0,-1,986,876,0,0
-231,148,0,0,0,0,0,0,0,0,0,-1,993,876,0,0
-224,148,0,0,0,0,0,0,0,0,0,-1,1000,876,0,0
-217,148,0,0,0,0,0,0,0,0,0,-1,1007,876,0,0
-210,148,0,0,0,0,0,0,0,0,0,-1,1014,876,0,0
-203,148,0,0,0,0,0,0,0,0,0,-1,1021,876,0,0
-196,148,0,0,0,0,0,0,0,0,0,-1,1028,876,0,0
-189,148,0,0,0,0,0,0,0,0,0,-1,1035,876,0,0
-182,148,0,0,0,0,0,0,0,0,0,-1,1042,876,0,0
-175,148,0,0,0,0,0,0,0,0,0,-1,1049,876,0,0
-168,148,0,0,0,0,0,0,0,0,0,-1,1056,876,0,0
-161,148,0,0,0,0,0,0,0,0,0,-1,1063,876,0,0
-154,148,0,0,0,0,0,0,0,0,0,-1,1070,876,0,0
-147,148,0,0,0,0,0,0,0,0,0,-1,1077,876,0,0
-140,148,0,0,0,0,0,0,0,0,0,-1,1084,876,0,0
-133,148,0,0,0,0,0,0,0,0,0,-1,1091,876,0,0
-126,148,0,0,0,0,0,0,0,0,0,-1,1098,876,0,0
-119,148,0,0,0,0,0,0,0,0,0,-1,1105,876,0,0
-112,148,0,0,0,0,0,0,0,0,0,-1,1112,876,0,0
-105,148,0,0,0,0,0,0,0,0,0,-1,1119,876,0,0
-98,148,0,0,0,0,0,0,0,0,0,-1,1126,876,0,0
-91,148,0,0,0,0,0,0,0,0,0,-1,1133,876,0,0
-84,148,0,0,0,0,0,0,0,0,0,-1,1140,876,0,0
-77,148,0,0,0,0,0,0,0,0,0,-1,1147,876,0,0
-70,148,0,0,0,0,0,0,0,0,0,-1,1154,876,0,0
-63,148,0,0,0,0,0,0,0,0,0,-1,1161,876,0,0
-56,148,0,0,0,0,0,0,0,0,0,-1,1168,876,0,0
-49,148,0,0,0,0,0,0,0,0,0,-1,1175,876,0,0
-42,148,0,0,0,0,0,0,0,0,0,-1,1182,876,0,0
-35,148,0,0,0,0,0,0,0,0,0,-1,1189,876,0,0
-28,148,0,0,0,0,0,0,0,0,0,-1,1196,876,0,0
-21,148,0,0,0,0,0,0,0,0,0,-1,1203,876,0,0
-14,148,0,0,0,0,0,0,0,0,0,-1,1210,876,0,0
-7,148,0,0,0,0,0,0,0,0,0,-1,1217,876,0,0
0,148,0,0,0,0,0,0,0,0,0,-1,1224,876,0,0
7,148,0,0,0,0,0,0,0,0,0,-1,1231,876,0,0
14,148,0,0,0,0,0,0,0,0,0,-1,1238,876,0,0
21,148,0,0,0,0,0,0,0,0,0,-1,1245,876,0,0
28,148,0,0,0,0,0,0,0,0,0,-1,1252,876,0,0
35,148,0,0,0,0,0,0,0,0,0,-1,1259,876,0,0
42,148,0,0,0,0,0,0,0,0,0,-1,1266,876,0,0
49,148,0,0,0,0,0,0,0,0,0,-1,1273,876,0,0
56,148,0,0,0,0,0,0,0,0,0,-1,1280,876,0,0
63,148,0,0,0,0,0,0,0,0,0,-1,1287,876,0,0
70,148,0,0,0,0,0,0,0,0,0,-1,1294,876,0,0
77,148,0,0,0,0,0,0,0,0,0,-1,1301,876,0,0
84,148,0,0,0,0,0,0,0,0,0,-1,1308,876,0,0
91,148,0,0,0,0,0,0,0,0,0,-1,1315,876,0,0
98,148,0,0,0,0,0,0,0,0,0,-1,1322,876,0,0
105,148,0,0,0,0,0,0,0,0,0,-1,1329,876,0,0
112,148,0,0,0,0,0,0,0,0,0,-1,1336,876,0,0
119,148,0,0,0,0,0,0,0,0,0,-1,1343,876,0,0
126,148,0,0,0,0,0,0,0,0,0,-1,1350,876,0,0
133,148,0,0,0,0,0,0,0,0,0,-1,1357,876,0,0
140,148,0,0,0,0,0,0,0,0,0,-1,1364,876,0,0
147,148,0,0,0,0,0,0,0,0,0,-1,1371,876,0,0
154,148,0,0,0,0,0,0,0,0,0,-1,1378,876,0,0
161,148,0,0,0,0,0,0,0,0,0,-1,1385,876,0,0
168,148,0,0,0,0,0,0,0,0,0,-1,1392,876,0,0
175,148,0,0,0,0,0,0,0,0,0,-1,1399,876,0,0
182,148,0,0,0,0,0,0,0,0,0,-1,1406,876,0,0
189,148,0,0,0,0,0,0,0,0,0,-1,1413,876,0,0
196,148,0,0,0,0,0,0,0,0,0,-1,1420,876,0,0
203,148,0,0,0,0,0,0,0,0,0,-1,1427,876,0,0
210,148,0,0,0,0,0,0,0,0,0,-1,1434,876,0,0
217,148,0,0,0,0,0,0,0,0,0,-1,1441,876,0,0
224,148,0,0,0,0,0,0,0,0,0,-1,1448,876,0,0
231,148,0,0,0,0,0,0,0,0,0,-1,1455,876,0,0
238,148,0,0,0,0,0,0,0,0,0,-1,1462,876,0,0
245,148,0,0,0,0,0,0,0,0,0,-1,1469,876,0,0
252,148,0,0,0,0,0,0,0,0,0,-1,1476,876,0,0
259,148,0,0,0,0,0,0,0,0,0,-1,1483,876,0,0
266,148,0,0,0,0,0,0,0,0,0,-1,1490,876,0,0
273,148,0,0,0,0,0,0,0,0,0,-1,1497,876,0,0
280,148,0,0,0,0,0,0,0,0,0,-1,1504,876,0,0
287,148,0,0,0,0,0,0,0,0,0,-1,1511,876,0,0
294,148,0,0,0,0,0,0,0,0,0,-1,1518,876,0,0
301,148,0,0,0,0,0,0,0,0,0,-1,1525,876,0,0
308,148,0,0,0,0,0,0,0,0,0,-1,1532,876,0,0
315,148,0,0,0,0,0,0,0,0,0,-1,1539,876,0,0
322,148,0,0,0,0,0,0,0,0,0,-1,1546,876,0,0
329,148,0,0,0,0,0,0,0,0,0,-1,1553,876,0,0
336,148,0,0,0,0,0,0,0,0,0,-1,1560,876,0,0
343,148,0,0,0,0,0,0,0,0,0,-1,1567,876,0,0
350,148,0,0,0,0,0,0,0,0,0,-1,1574,876,0,0
357,148,0,0,0,0,0,0,0,0,0,-1,1581,876,0,0
364,148,0,0,0,0,0,0,0,0,0,-1,1588,876,0,0
371,148,0,0,0,0,0,0,0,0,0,-1,1595,876,0,0
378,148,0,0,0,0,0,0,0,0,0,-1,1602,876,0,0
385,148,0,0,0,0,0,0,0,0,0,-1,1609,876,0,0
392,148,0,0,0,0,0,0,0,0,0,-1,1616,876,0,0
399,148,0,0,0,0,0,0,0,0,0,-1,1623,876,0,0
406,148,0,0,0,0,0,0,0,0,0,-1,1630,876,0,0
413,148,0,0,0,0,0,0,0,0,0,-1,1637,876,0,0
420,148,0,0,0,0,0,0,0,0,0,-1,1644,876,0,0
427,148,0,0,0,0,0,0,0,0,0,-1,1651,876,0,0
434,148,0,0,0,0,0,0,0,0,0,-1,1658,876,0,0
441,148,0,0,0,0,0,0,0,0,0,-1,1665,876,0,0
448,148,0,0,0,0,0,0,0,0,0,-1,1672,876,0,0
455,148,0,0,0,0,0,0,0,0,0,-1,1679,876,0,0
462,148,0,0,0,0,0,0,0,0,0,-1,1686,876,0,0
469,148,0,0,0,0,0,0,0,0,0,-1,1693,876,0,0
476,148,0,0,0,0,0,0,0,0,0,-1,1700,876,0,0
483,148,0,0,0,0,0,0,0,0,0,-1,1707,876,0,0
490,148,0,0,0,0,0,0,0,0,0,-1,1714,876,0,0
497,148,0,0,0,0,0,0,0,0,0,-1,1721,876,0,0
504,148,0,0,0,0,0,0,0,0,0,-1,1728,876,0,0
511,148,0,0,0,0,0,0,0,0,0,-1,1735,876,0,0
518,148,0,0,0,0,0,0,0,0,0,-1,1742,876,0,0
525,148,0,0,0,0,0,0,0,0,0,-1,1749,876,0,0
532,148,0,0,0,0,0,0,0,0,0,-1,1756,876,0,0
539,148,0,0,0,0,0,0,0,0,0,-1,1763,876,0,0
546,148,0,0,0,0,0,0,0,0,0,-1,1770,876,0,0
553,148,0,0,0,0,0,0,0,0,0,-1,1777,876,0,0
560,148,0,0,0,0,0,0,0,0,0,-1,1784,876,0,0
567,148,0,0,0,0,0,0,0,0,0,-1,1791,876,0,0
574,148,0,0,0,0,0,0,0,0,0,-1,1798,876,0,0
581,148,0,0,0,0,0,0,0,0,0,-1,1805,876,0,0
588,148,0,0,0,0,0,0,0,0,0,-1,1812,876,0,0
595,148,0,0,0,0,0,0,0,0,0,-1,1819,876,0,0
602,148,0,0,0,0,0,0,0,0,0,-1,1826,876,0,0
609,148,0,0,0,0,0,0,0,0,0,-1,1833,876,0,0
616,148,0,0,0,0,0,0,0,0,0,-1,1840,876,0,0
623,148,11.9673,2.06152,-0.00425685,-0.00109259,-0.00252101,0.00030163,-0.00565107,-1.06562,0.00387184,0.0407839,1847,876,11.9673,-2.06153
630,148,11.7328,1.69958,-0.00163229,-0.000857107,-0.00143919,0.00024577,-0.00273516,-0.916933,0.00191064,0.042679,1854,876,11.7328,-1.69958
637,148,11.7485,1.72168,-0.00125152,-0.000975059,-0.00145423,0.000347497,-0.00257408,-0.832783,0.00184284,0.0392778,1861,876,11.7485,-1.72169
644,148,11.7698,1.77203,-0.00233551,-0.00125231,-0.00192931,0.000209975,-0.00379779,-0.922238,0.00260468,0.0366833,1868,876,11.7698,-1.77201
651,148,11.7692,1.64532,-0.00404422,-0.00154904,-0.00258739,7.5836e-05,-0.0056691,-1.01004,0.00380493,0.034901,1875,876,11.7692,-1.64531
658,148,11.722,1.74768,-0.00573397,-0.00179023,-0.00318155,-1.90393e-05,-0.00750516,-1.06282,0.0049971,0.03184,1882,876,11.7221,-1.74769
665,148,11.7203,1.78546,-0.00711493,-0.00192036,-0.00361315,-6.78408e-05,-0.00896745,-1.09703,0.00595581,0.0238285,1889,876,11.7203,-1.78547
672,148,11.7441,1.76062,-0.00825713,-0.00195189,-0.00382482,-0.000147874,-0.0100611,-1.13008,0.00665869,0.0271455,1896,876,11.7442,-1.76062
679,148,11.755,1.76062,0,0,0,0,0,0,0,-1,1903,876,11.755,-1.7606
686,148,10.9677,1.65881,-0.00912885,-0.00191,-0.00392185,-0.000189434,-0.0108494,-1.15737,0.00717063,0.0322969,1910,876,10.9676,-1.65884
693,148,10.407,1.64929,-0.00914757,-0.00164988,-0.00376238,-8.74824e-05,-0.01071,-1.1772,0.007111,0.0211082,1917,876,10.407,-1.6493
700,148,10.4188,1.72284,-0.00833937,-0.00156122,-0.0034646,-0.000103721,-0.00979687,-1.17259,0.00649695,0.0138636,1924,876,10.4188,-1.72284
707,148,10.4441,1.82013,-0.0066585,-0.00152728,-0.00314582,-3.35085e-05,-0.00815227,-1.12748,0.00542371,0.0123327,1931,876,10.4441,-1.82012
714,148,10.4303,1.87189,-0.00423027,-0.00142657,-0.00279665,0.000299911,-0.00595675,-1.01773,0.00407482,0.012338,1938,876,10.4303,-1.87187
721,148,10.3767,1.92419,-0.000873448,-0.00148219,-0.00210376,0.000947848,-0.00330349,-0.713557,0.00257705,0.0160105,1945,876,10.3767,-1.9242
728,148,10.3849,2.02362,0.00340032,-0.00120964,-0.000606369,0.00347875,-0.00128806,-0.12862,0.00284735,0.0186427,1952,876,10.3849,-2.0236
735,148,10.4161,2.14191,0.00862192,0.000832011,0.000689264,0.00868244,0.000771495,0.087575,0.00554903,0.0164903,1959,876,10.4161,-2.14192
742,148,10.3889,2.23083,0.0143763,0.00485068,0.00190084,0.0147416,0.00448538,0.189866,0.00872574,0.017911,1966,876,10.3889,-2.23081
749,148,10.377,2.29358,0.0202727,0.0088682,0.00341343,0.0212163,0.00792461,0.269698,0.0123792,0.0148467,1973,876,10.377,-2.29355
756,148,10.4133,2.3559,0.0265795,0.0148443,0.00538734,0.0286776,0.0127462,0.371375,0.016591,0.0192,1980,876,10.4133,-2.35591
763,148,10.5315,2.30066,0.0334173,0.0236901,0.00795128,0.0378745,0.0192329,0.510917,0.0218678,0.0413494,1987,876,10.5315,-2.30068
770,148,11.0062,1.93591,0.0409668,0.0365459,0.0113429,0.0503126,0.0272001,0.689168,0.0290799,0.0455008,1994,876,11.0063,-1.93594
777,148,11.4189,1.9364,0.0491189,0.0548344,0.0157254,0.0679596,0.0359937,0.87528,0.0392595,0.0446175,2001,876,11.4189,-1.93639
784,148,11.2195,4.8457,0.0575651,0.080439,0.0212359,0.0931219,0.0448822,1.03241,0.0537756,0.0467063,2008,876,11.2195,-4.84573
791,148,11.7706,5.16687,0.065729,0.116065,0.0280359,0.128572,0.0532215,1.15117,0.0745968,0.047906,2015,876,11.7707,-5.16688
798,148,0,0,0,0,0,0,0,0,0,-1,2022,876,0,0
805,148,0,0,0,0,0,0,0,0,0,-1,2029,876,0,0
812,148,0,0,0,0,0,0,0,0,0,-1,2036,876,0,0
-700,141,0,0,0,0,0,0,0,0,0,-1,524,883,0,0
-693,141,0,0,0,0,0,0,0,0,0,-1,531,883,0,0
-686,141,0,0,0,0,0,0,0,0,0,-1,538,883,0,0
-679,141,0,0,0,0,0,0,0,0,0,-1,545,883,0,0
-672,141,-2.73773,-0.928467,0,0,0,0,0,0,0,-1,552,883,-2.73772,0.928493
-665,141,-6.33771,1.59583,0,0,0,0,0,0,0,-1,559,883,-6.33774,-1.59585
-658,141,-2.84869,3.745,0,0,0,0,0,0,0,-1,566,883,-2.8487,-3.74497
-651,141,-5.17694,1.78461,-0.00639079,0.0147048,-0.0020287,0.0148982,-0.00658411,-1.47579,0.0127086,0.0470699,573,883,-5.17694,-1.78459
-644,141,-5.71918,2.0434,-0.00684559,0.0110338,-0.0010771,0.0110984,-0.00691024,-1.51084,0.0104906,0.0420682,580,883,-5.71919,-2.04343
-637,141,-5.04938,0.986023,0,0,0,0,0,0,0,-1,587,883,-5.04939,-0.986028
-630,141,-5.03522,0.991821,-0.0060937,0.0056222,-0.000307598,0.00563027,-0.00610177,-1.54457,0.00677532,0.0388644,594,883,-5.0352,-0.991841
-623,141,-5.03522,1.00336,-0.00539729,0.00408236,-1.09378e-06,0.00408236,-0.00539729,-1.57068,0.00549061,0.0201082,601,883,-5.03521,-1.00337
-616,141,-5.09766,0.948303,-0.0049623,0.00240636,0.000126977,0.00240855,-0.00496449,1.55357,0.00434125,0.0117183,608,883,-5.09765,-0.948312
-609,141,-5.12555,0.893921,-0.00467945,0.000999357,0.000554229,0.00105294,-0.00473303,1.47441,0.00355865,0.0131661,615,883,-5.12557,-0.893915
-602,141,-5.12921,0.824219,-0.004806,0.000125498,0.00086146,0.000271651,-0.00495215,1.40274,0.00339561,0.0117932,622,883,-5.12923,-0.824224
-595,141,-5.13586,0.759827,-0.00538627,-0.00099161,0.00105522,-0.000751372,-0.00562651,1.34694,0.00352733,0.010117,629,883,-5.13584,-0.759852
-588,141,-5.17273,0.7052,-0.00640464,-0.0012925,0.00177527,-0.000736482,-0.00696065,1.26727,0.00441546,0.0137745,636,883,-5.17275,-0.705202
-581,141,-5.17731,0.638123,-0.00748414,-0.00140973,0.00271453,-0.00037345,-0.00852043,1.20612,0.00555998,0.0185282,643,883,-5.17731,-0.638148
-574,141,-5.09668,0.584412,-0.00867213,-0.00160363,0.00324829,-0.000337637,-0.00993812,1.19917,0.00651579,0.0210736,650,883,-5.0967,-0.584402
-567,141,-5.10254,0.553223,-0.00942021,-0.00176367,0.00346171,-0.000430634,-0.0107532,1.20322,0.00702969,0.0244342,657,883,-5.10254,-0.553217
-560,141,-5.18225,0.565857,-0.00968365,-0.00180679,0.00357414,-0.000426785,-0.0110637,1.20232,0.0072377,0.0272826,664,883,-5.18225,-0.565843
-553,141,-5.61719,0.723572,-0.00978709,-0.00163936,0.00371124,-0.000202361,-0.0112241,1.20137,0.0074162,0.0372082,671,883,-5.61716,-0.723569
-546,141,-6.08685,0.778015,0,0,0,0,0,0,0,-1,678,883,-6.08684,-0.778021
-539,141,-6.05927,0.731445,-0.00799281,-0.00101376,0.00311066,0.000171438,-0.009178,1.20677,0.00617661,0.0307106,685,883,-6.05926,-0.731432
-532,141,-6.12939,0.685242,-0.00548876,-0.000335049,0.00232921,0.000561625,-0.00638543,1.20331,0.00445598,0.0301072,692,883,-6.12937,-0.685228
-525,141,-6.12805,0.668762,-0.00166611,0.000639576,0.00117982,0.00113628,-0.00216282,1.17232,0.00193523,0.0383799,699,883,-6.12802,-0.668775
-518,141,-6.21582,0.488525,0.00373574,0.00195556,-0.000327643,0.00379412,0.00189717,-0.176355,0.00219054,0.0435925,706,883,-6.2158,-0.488549
-511,141,-6.04309,0.427063,0.0105946,0.00364783,-0.00200899,0.0111337,0.00310867,-0.262193,0.00663367,0.0406391,713,883,-6.04311,-0.427039
-504,141,-5.9632,0.410278,0.0179246,0.00560286,-0.00334304,0.0187732,0.00475429,-0.248581,0.0112701,0.0409175,720,883,-5.96318,-0.410274
-497,141,0,0,0,0,0,0,0,0,0,-1,727,883,0,0
-490,141,0,0,0,0,0,0,0,0,0,-1,734,883,0,0
-483,141,0,0,0,0,0,0,0,0,0,-1,741,883,0,0
-476,141,0,0,0,0,0,0,0,0,0,-1,748,883,0,0
-469,141,0,0,0,0,0,0,0,0,0,-1,755,883,0,0
-462,141,0,0,0,0,0,0,0,0,0,-1,762,883,0,0
-455,141,0,0,0,0,0,0,0,0,0,-1,769,883,0,0
-448,141,0,0,0,0,0,0,0,0,0,-1,776,883,0,0
-441,141,0,0,0,0,0,0,0,0,0,-1,783,883,0,0
-434,141,0,0,0,0,0,0,0,0,0,-1,790,883,0,0
-427,141,0,0,0,0,0,0,0,0,0,-1,797,883,0,0
-420,141,0,0,0,0,0,0,0,0,0,-1,804,883,0,0
-413,141,0,0,0,0,0,0,0,0,0,-1,811,883,0,0
-406,141,0,0,0,0,0,0,0,0,0,-1,818,883,0,0
-399,141,0,0,0,0,0,0,0,0,0,-1,825,883,0,0
-392,141,0,0,0,0,0,0,0,0,0,-1,832,883,0,0
-385,141,0,0,0,0,0,0,0,0,0,-1,839,883,0,0
-378,141,0,0,0,0,0,0,0,0,0,-1,846,883,0,0
-371,141,0,0,0,0,0,0,0,0,0,-1,853,883,0,0
-364,141,0,0,0,0,0,0,0,0,0,-1,860,883,0,0
-357,141,0,0,0,0,0,0,0,0,0,-1,867,883,0,0
-350,141,0,0,0,0,0,0,0,0,0,-1,874,883,0,0
-343,141,0,0,0,0,0,0,0,0,0,-1,881,883,0,0
-336,141,0,0,0,0,0,0,0,0,0,-1,888,883,0,0
-329,141,0,0,0,0,0,0,0,0,0,-1,895,883,0,0
-322,141,0,0,0,0,0,0,0,0,0,-1,902,883,0,0
-315,141,0,0,0,0,0,0,0,0,0,-1,909,883,0,0
-308,141,0,0,0,0,0,0,0,0,0,-1,916,883,0,0
-301,141,0,0,0,0,0,0,0,0,0,-1,923,883,0,0
-294,141,0,0,0,0,0,0,0,0,0,-1,930,883,0,0
-287,141,0,0,0,0,0,0,0,0,0,-1,937,883,0,0
-280,141,0,0,0,0,0,0,0,0,0,-1,944,883,0,0
-273,141,0,0,0,0,0,0,0,0,0,-1,951,883,0,0
-266,141,0,0,0,0,0,0,0,0,0,-1,958,883,0,0
-259,141,0,0,0,0,0,0,0,0,0,-1,965,883,0,0
-252,141,0,0,0,0,0,0,0,0,0,-1,972,883,0,0
-245,141,0,0,0,0,0,0,0,0,0,-1,979,883,0,0
-238,141,0,0,0,0,0,0,0,0,0,-1,986,883,0,0
-231,141,0,0,0,0,0,0,0,0,0,-1,993,883,0,0
-224,141,0,0,0,0,0,0,0,0,0,-1,1000,883,0,0
-217,141,0,0,0,0,0,0,0,0,0,-1,1007,883,0,0
-210,141,0,0,0,0,0,0,0,0,0,-1,1014,883,0,0
-203,141,0,0,0,0,0,0,0,0,0,-1,1021,883,0,0
-196,141,0,0,0,0,0,0,0,0,0,-1,1028,883,0,0
-189,141,0,0,0,0,0,0,0,0,0,-1,1035,883,0,0
-182,141,0,0,0,0,0,0,0,0,0,-1,1042,883,0,0
-175,141,0,0,0,0,0,0,0,0,0,-1,1049,883,0,0
-168,141,0,0,0,0,0,0,0,0,0,-1,1056,883,0,0
-161,141,0,0,0,0,0,0,0,0,0,-1,1063,883,0,0
-154,141,0,0,0,0,0,0,0,0,0,-1,1070,883,0,0
-147,141,0,0,0,0,0,0,0,0,0,-1,1077,883,0,0
-140,141,0,0,0,0,0,0,0,0,0,-1,1084,883,0,0
-133,141,0,0,0,0,0,0,0,0,0,-1,1091,883,0,0
-126,141,0,0,0,0,0,0,0,0,0,-1,1098,883,0,0
-119,141,0,0,0,0,0,0,0,0,0,-1,1105,883,0,0
-112,141,0,0,0,0,0,0,0,0,0,-1,1112,883,0,0
-105,141,0,0,0,0,0,0,0,0,0,-1,1119,883,0,0
-98,141,0,0,0,0,0,0,0,0,0,-1,1126,883,0,0
-91,141,0,0,0,0,0,0,0,0,0,-1,1133,883,0,0
-84,141,0,0,0,0,0,0,0,0,0,-1,1140,883,0,0
-77,141,0,0,0,0,0,0,0,0,0,-1,1147,883,0,0
-70,141,0,0,0,0,0,0,0,0,0,-1,1154,883,0,0
-63,141,0,0,0,0,0,0,0,0,0,-1,1161,883,0,0
-56,141,0,0,0,0,0,0,0,0,0,-1,1168,883,0,0
-49,141,0,0,0,0,0,0,0,0,0,-1,1175,883,0,0
-42,141,0,0,0,0,0,0,0,0,0,-1,1182,883,0,0
-35,141,0,0,0,0,0,0,0,0,0,-1,1189,883,0,0
-28,141,0,0,0,0,0,0,0,0,0,-1,1196,883,0,0
-21,141,0,0,0,0,0,0,0,0,0,-1,1203,883,0,0
-14,141,0,0,0,0,0,0,0,0,0,-1,1210,883,0,0
-7,141,0,0,0,0,0,0,0,0,0,-1,1217,883,0,0
0,141,0,0,0,0,0,0,0,0,0,-1,1224,883,0,0
7,141,0,0,0,0,0,0,0,0,0,-1,1231,883,0,0
14,141,0,0,0,0,0,0,0,0,0,-1,1238,883,0,0
21,141,0,0,0,0,0,0,0,0,0,-1,1245,883,0,0
28,141,0,0,0,0,0,0,0,0,0,-1,1252,883,0,0
35,141,0,0,0,0,0,0,0,0,0,-1,1259,883,0,0
42,141,0,0,0,0,0,0,0,0,0,-1,1266,883,0,0
49,141,0,0,0,0,0,0,0,0,0,-1,1273,883,0,0
56,141,0,0,0,0,0,0,0,0,0,-1,1280,883,0,0
63,141,0,0,0,0,0,0,0,0,0,-1,1287,883,0,0
70,141,0,0,0,0,0,0,0,0,0,-1,1294,883,0,0
77,141,0,0,0,0,0,0,0,0,0,-1,1301,883,0,0
84,141,0,0,0,0,0,0,0,0,0,-1,1308,883,0,0
91,141,0,0,0,0,0,0,0,0,0,-1,1315,883,0,0
98,141,0,0,0,0,0,0,0,0,0,-1,1322,883,0,0
105,141,0,0,0,0,0,0,0,0,0,-1,1329,883,0,0
112,141,0,0,0,0,0,0,0,0,0,-1,1336,883,0,0
119,141,0,0,0,0,0,0,0,0,0,-1,1343,883,0,0
126,141,0,0,0,0,0,0,0,0,0,-1,1350,883,0,0
133,141,0,0,0,0,0,0,0,0,0,-1,1357,883,0,0
140,141,0,0,0,0,0,0,0,0,0,-1,1364,883,0,0
147,141,0,0,0,0,0,0,0,0,0,-1,1371,883,0,0
154,141,0,0,0,0,0,0,0,0,0,-1,1378,883,0,0
161,141,0,0,0,0,0,0,0,0,0,-1,1385,883,0,0
168,141,0,0,0,0,0,0,0,0,0,-1,1392,883,0,0
175,141,0,0,0,0,0,0,0,0,0,-1,1399,883,0,0
182,141,0,0,0,0,0,0,0,0,0,-1,1406,883,0,0
189,141,0,0,0,0,0,0,0,0,0,-1,1413,883,0,0
196,141,0,0,0,0,0,0,0,0,0,-1,1420,883,0,0
203,141,0,0,0,0,0,0,0,0,0,-1,1427,883,0,0
210,141,0,0,0,0,0,0,0,0,0,-1,1434,883,0,0
217,141,0,0,0,0,0,0,0,0,0,-1,1441,883,0,0
224,141,0,0,0,0,0,0,0,0,0,-1,1448,883,0,0
231,141,0,0,0,0,0,0,0,0,0,-1,1455,883,0,0
238,141,0,0,0,0,0,0,0,0,0,-1,1462,883,0,0
245,141,0,0,0,0,0,0,0,0,0,-1,1469,883,0,0
252,141,0,0,0,0,0,0,0,0,0,-1,1476,883,0,0
259,141,0,0,0,0,0,0,0,0,0,-1,1483,883,0,0
266,141,0,0,0,0,0,0,0,0,0,-1,1490,883,0,0
273,141,0,0,0,0,0,0,0,0,0,-1,1497,883,0,0
280,141,0,0,0,0,0,0,0,0,0,-1,1504,883,0,0
287,141,0,0,0,0,0,0,0,0,0,-1,1511,883,0,0
294,141,0,0,0,0,0,0,0,0,0,-1,1518,883,0,0
301,141,0,0,0,0,0,0,0,0,0,-1,1525,883,0,0
308,141,0,0,0,0,0,0,0,0,0,-1,1532,883,0,0
315,141,0,0,0,0,0,0,0,0,0,-1,1539,883,0,0
322,141,0,0,0,0,0,0,0,0,0,-1,1546,883,0,0
329,141,0,0,0,0,0,0,0,0,0,-1,1553,883,0,0
336,141,0,0,0,0,0,0,0,0,0,-1,1560,883,0,0
343,141,0,0,0,0,0,0,0,0,0,-1,1567,883,0,0
350,141,0,0,0,0,0,0,0,0,0,-1,1574,883,0,0
357,141,0,0,0,0,0,0,0,0,0,-1,1581,883,0,0
364,141,0,0,0,0,0,0,0,0,0,-1,1588,883,0,0
371,141,0,0,0,0,0,0,0,0,0,-1,1595,883,0,0
378,141,0,0,0,0,0,0,0,0,0,-1,1602,883,0,0
385,141,0,0,0,0,0,0,0,0,0,-1,1609,883,0,0
392,141,0,0,0,0,0,0,0,0,0,-1,1616,883,0,0
399,141,0,0,0,0,0,0,0,0,0,-1,1623,883,0,0
406,141,0,0,0,0,0,0,0,0,0,-1,1630,883,0,0
413,141,0,0,0,0,0,0,0,0,0,-1,1637,883,0,0
420,141,0,0,0,0,0,0,0,0,0,-1,1644,883,0,0
427,141,0,0,0,0,0,0,0,0,0,-1,1651,883,0,0
434,141,0,0,0,0,0,0,0,0,0,-1,1658,883,0,0
441,141,0,0,0,0,0,0,0,0,0,-1,1665,883,0,0
448,141,0,0,0,0,0,0,0,0,0,-1,1672,883,0,0
455,141,0,0,0,0,0,0,0,0,0,-1,1679,883,0,0
462,141,0,0,0,0,0,0,0,0,0,-1,1686,883,0,0
469,141,0,0,0,0,0,0,0,0,0,-1,1693,883,0,0
476,141,0,0,0,0,0,0,0,0,0,-1,1700,883,0,0
483,141,0,0,0,0,0,0,0,0,0,-1,1707,883,0,0
490,141,0,0,0,0,0,0,0,0,0,-1,1714,883,0,0
497,141,0,0,0,0,0,0,0,0,0,-1,1721,883,0,0
504,141,0,0,0,0,0,0,0,0,0,-1,1728,883,0,0
511,141,0,0,0,0,0,0,0,0,0,-1,1735,883,0,0
518,141,0,0,0,0,0,0,0,0,0,-1,1742,883,0,0
525,141,0,0,0,0,0,0,0,0,0,-1,1749,883,0,0
532,141,0,0,0,0,0,0,0,0,0,-1,1756,883,0,0
539,141,0,0,0,0,0,0,0,0,0,-1,1763,883,0,0
546,141,0,0,0,0,0,0,0,0,0,-1,1770,883,0,0
553,141,0,0,0,0,0,0,0,0,0,-1,1777,883,0,0
560,141,0,0,0,0,0,0,0,0,0,-1,1784,883,0,0
567,141,0,0,0,0,0,0,0,0,0,-1,1791,883,0,0
574,141,0,0,0,0,0,0,0,0,0,-1,1798,883,0,0
581,141,0,0,0,0,0,0,0,0,0,-1,1805,883,0,0
588,141,0,0,0,0,0,0,0,0,0,-1,1812,883,0,0
595,141,0,0,0,0,0,0,0,0,0,-1,1819,883,0,0
602,141,0,0,0,0,0,0,0,0,0,-1,1826,883,0,0
609,141,0,0,0,0,0,0,0,0,0,-1,1833,883,0,0
616,141,0,0,0,0,0,0,0,0,0,-1,1840,883,0,0
623,141,11.808,1.93231,-0.00507182,-0.00147142,-0.00277858,3.9154e-05,-0.00658239,-1.07284,0.00440137,0.0423368,1847,883,11.8079,-1.93231
630,141,11.6473,1.70978,-0.00222793,-0.000970503,-0.00137202,-9.00052e-05,-0.00310843,-1.00024,0.00204294,0.0434834,1854,883,11.6473,-1.70981
637,141,11.7134,1.62946,-0.0014435,-0.000900562,-0.00114952,9.11031e-06,-0.00235317,-0.901353,0.00157183,0.0417565,1861,883,11.7134,-1.62946
644,141,11.8387,1.71088,-0.00222603,-0.00105098,-0.00147013,-5.53248e-05,-0.00322169,-0.975497,0.00212959,0.0377331,1868,883,11.8387,-1.71086
651,141,11.7974,1.66998,-0.00382241,-0.00128081,-0.00207335,-0.000119802,-0.00498342,-1.06033,0.00328308,0.0364171,1875,883,11.7973,-1.67
658,141,11.7883,1.79187,-0.00554668,-0.00149438,-0.00266789,-0.000170466,-0.00687059,-1.11016,0.00452464,0.0352473,1882,883,11.7883,-1.79188
665,141,11.749,1.7572,-0.00697213,-0.00162977,-0.00312682,-0.000188504,-0.00841339,-1.13888,0.00554716,0.0259644,1889,883,11.749,-1.75722
672,141,11.7869,1.72205,-0.00812417,-0.00168564,-0.00338346,-0.000234634,-0.00957518,-1.16567,0.0063067,0.021014,1896,883,11.7868,-1.72203
679,141,11.8381,1.66931,-0.00871491,-0.00169968,-0.00350594,-0.000247959,-0.0101666,-1.17822,0.00669663,0.0242659,1903,883,11.8381,-1.66933
686,141,10.9155,1.58984,0,0,0,0,0,0,0,-1,1910,883,10.9156,-1.58982
693,141,10.6207,1.65466,-0.00915849,-0.0014785,-0.00341541,-0.000179367,-0.0104576,-1.20732,0.00691273,0.0328114,1917,883,10.6208,-1.65469
700,141,10.4858,1.71991,-0.00847693,-0.00142646,-0.00315934,-0.00021791,-0.00968548,-1.20544,0.00638559,0.014705,1924,883,10.4859,-1.71991
707,141,10.4968,1.77228,-0.00706477,-0.00137132,-0.00290198,-0.000152909,-0.00828318,-1.17329,0.00547187,0.0125088,1931,883,10.4969,-1.7723
714,141,10.4738,1.83569,-0.00506014,-0.00124171,-0.00260372,7.77605e-05,-0.00637962,-1.10175,0.00427923,0.0126586,1938,883,10.4738,-1.83571
721,141,10.4557,1.92633,-0.00227161,-0.00118857,-0.00199143,0.00033365,-0.00379383,-0.918151,0.00264746,0.0113956,1945,883,10.4557,-1.9263
728,141,10.4639,2.01324,0.00134783,-0.000842512,-0.000793035,0.0016048,-0.00109949,-0.313366,0.00157038,0.0133751,1952,883,10.4638,-2.01323
735,141,10.4681,2.12512,0.00593755,0.00124804,0.000121472,0.00594069,0.0012449,0.0258798,0.00361761,0.013465,1959,883,10.4682,-2.1251
742,141,10.4679,2.21301,0.0109746,0.00546819,0.000925629,0.0111261,0.00531675,0.162163,0.00642574,0.0145771,1966,883,10.4679,-2.21301
749,141,10.4766,2.29065,0.0160862,0.00968244,0.00184323,0.0165789,0.00918979,0.261169,0.00959061,0.0133688,1973,883,10.4766,-2.29064
756,141,10.4387,2.34863,0.0214598,0.0157756,0.00298323,0.0227381,0.0144974,0.40481,0.0132925,0.0199117,1980,883,10.4387,-2.34861
763,141,10.5067,2.31171,0.027143,0.0245601,0.00435228,0.0303914,0.0213117,0.64117,0.018014,0.0415073,1987,883,10.5067,-2.31171
770,141,10.8903,1.94897,0.033382,0.0370854,0.00613677,0.0416438,0.0288237,0.931923,0.0246277,0.0433222,1994,883,10.8903,-1.94897
777,141,10.142,3.63947,0.0401851,0.0546086,0.00842929,0.0584902,0.0363035,1.13926,0.0340956,0.0442193,2001,883,10.142,-3.63946
784,141,11.069,3.67432,0.0473122,0.0787458,0.0112894,0.0823802,0.0436779,1.25935,0.0475911,0.0460917,2008,883,11.069,-3.67431
791,141,11.8715,3.5871,0.0543373,0.11177,0.0148006,0.11536,0.0507475,1.33285,0.0667633,0.0453,2015,883,11.8714,-3.58708
798,141,0,0,0,0,0,0,0,0,0,-1,2022,883,0,0
805,141,0,0,0,0,0,0,0,0,0,-1,2029,883,0,0
812,141,0,0,0,0,0,0,0,0,0,-1,2036,883,0,0
-700,134,0,0,0,0,0,0,0,0,0,-1,524,890,0,0
-693,134,0,0,0,0,0,0,0,0,0,-1,531,890,0,0
-686,134,0,0,0,0,0,0,0,0,0,-1,538,890,0,0
-679,134,0,0,0,0,0,0,0,0,0,-1,545,890,0,0
-672,134,-6.33124,1.01727,0,0,0,0,0,0,0,-1,552,890,-6.33125,-1.01726
-665,134,-6.03717,1.13623,-0.000650597,0.00645503,-0.00497138,0.00901262,-0.00320819,-1.09564,0.00731616,0.0449101,559,890,-6.03717,-1.13625
-658,134,-5.88745,1.21338,-0.00381065,0.00520229,-0.00291142,0.00606096,-0.00466931,-1.284,0.00621246,0.0444055,566,890,-5.88747,-1.21338
-651,134,-5.62018,1.60345,-0.00547546,0.00390443,-0.00166735,0.004192,-0.00576303,-1.40001,0.00577135,0.043353,573,890,-5.62016,-1.60348
-644,134,-5.31824,1.9408,-0.00608395,0.00274286,-0.00093633,0.00284109,-0.00618218,-1.46627,0.0053273,0.0438748,580,890,-5.31826,-1.94077
-637,134,-5.13068,1.02716,0,0,0,0,0,0,0,-1,587,890,-5.13068,-1.02714
-630,134,-5.1261,1.01605,-0.00550388,0.00116649,-0.000343118,0.00118409,-0.00552149,-1.51954,0.00413263,0.0387776,594,890,-5.12612,-1.01608
-623,134,-5.14673,0.997314,-0.00491045,0.00102893,-1.85739e-05,0.00102899,-0.00491051,-1.56767,0.00366514,0.0199577,601,890,-5.1467,-0.997316
-616,134,-5.18738,0.954712,-0.00464389,0.000350935,0.00011553,0.000353606,-0.00464656,1.54768,0.00322205,0.011367,608,890,-5.18741,-0.954725
-609,134,-5.20294,0.88855,-0.00455809,-0.000406236,0.00052316,-0.000341329,-0.00462299,1.44736,0.00297475,0.0114301,615,890,-5.20296,-0.888524
-602,134,-5.20593,0.808838,-0.00474949,-0.000729202,0.000906564,-0.00053423,-0.00494446,1.35896,0.00313345,0.0118502,622,890,-5.20593,-0.808818
-595,134,-5.20074,0.768066,-0.00535225,-0.00125184,0.00106292,-0.000992683,-0.0056114,1.33165,0.00345787,0.0108527,629,890,-5.20072,-0.768046
-588,134,-5.26196,0.727905,-0.00635566,-0.00143742,0.00170418,-0.000904632,-0.00688845,1.26779,0.00432243,0.0171051,636,890,-5.26198,-0.727906
-581,134,-5.26294,0.610657,-0.0074011,-0.00146388,0.00252305,-0.000536536,-0.00832844,1.21858,0.00538237,0.0213651,643,890,-5.26291,-0.610645
-574,134,-5.23975,0.539978,-0.00846699,-0.00159945,0.00302836,-0.000454817,-0.00961161,1.20942,0.00626165,0.0219924,650,890,-5.23974,-0.540007
-567,134,-5.16461,0.506165,-0.0091397,-0.00172206,0.00322952,-0.000513043,-0.0103487,1.21258,0.00673465,0.0202511,657,890,-5.16459,-0.506143
-560,134,-5.39026,0.633545,-0.00932277,-0.00176305,0.00327774,-0.000539815,-0.010546,1.21361,0.00685782,0.0307335,664,890,-5.39024,-0.633533
-553,134,-5.88354,0.802734,-0.00929421,-0.0016208,0.00330656,-0.000392563,-0.0105224,1.21514,0.00688784,0.0407521,671,890,-5.88353,-0.802743
-546,134,-6.05267,0.733826,-0.00870396,-0.00141324,0.00304921,-0.00030609,-0.00981111,1.2225,0.00644114,0.0243449,678,890,-6.05268,-0.733855
-539,134,-6.09058,0.696289,-0.00722106,-0.000999083,0.00248392,-0.000129102,-0.00809104,1.2339,0.00535152,0.0177415,685,890,-6.09059,-0.696311
-532,134,-6.13611,0.688965,-0.00468874,-0.000347417,0.00157899,0.00016613,-0.00520229,1.25635,0.00352488,0.0226357,692,890,-6.13612,-0.688947
-525,134,-6.11456,0.658264,-0.000958925,0.000569478,0.000295642,0.000624671,-0.00101412,1.38623,0.000955019,0.0345275,699,890,-6.11458,-0.658259
-518,134,-6.08691,0.637878,0.00415516,0.00177648,-0.00134871,0.00476402,0.00116761,-0.424053,0.00286719,0.0427366,706,890,-6.08693,-0.637856
-511,134,-5.91077,0.654785,0.0103224,0.00327754,-0.00312438,0.0115084,0.00209154,-0.362793,0.00707883,0.0436208,713,890,-5.91075,-0.654781
-504,134,0,0,0,0,0,0,0,0,0,-1,720,890,0,0
-497,134,0,0,0,0,0,0,0,0,0,-1,727,890,0,0
-490,134,0,0,0,0,0,0,0,0,0,-1,734,890,0,0
-483,134,0,0,0,0,0,0,0,0,0,-1,741,890,0,0
-476,134,0,0,0,0,0,0,0,0,0,-1,748,890,0,0
-469,134,0,0,0,0,0,0,0,0,0,-1,755,890,0,0
-462,134,0,0,0,0,0,0,0,0,0,-1,762,890,0,0
-455,134,0,0,0,0,0,0,0,0,0,-1,769,890,0,0
-448,134,0,0,0,0,0,0,0,0,0,-1,776,890,0,0
-441,134,0,0,0,0,0,0,0,0,0,-1,783,890,0,0
-434,134,0,0,0,0,0,0,0,0,0,-1,790,890,0,0
-427,134,0,0,0,0,0,0,0,0,0,-1,797,890,0,0
-420,134,0,0,0,0,0,0,0,0,0,-1,804,890,0,0
-413,134,0,0,0,0,0,0,0,0,0,-1,811,890,0,0
-406,134,0,0,0,0,0,0,0,0,0,-1,818,890,0,0
-399,134,0,0,0,0,0,0,0,0,0,-1,825,890,0,0
-392,134,0,0,0,0,0,0,0,0,0,-1,832,890,0,0
-385,134,0,0,0,0,0,0,0,0,0,-1,839,890,0,0
-378,134,0,0,0,0,0,0,0,0,0,-1,846,890,0,0
-371,134,0,0,0,0,0,0,0,0,0,-1,853,890,0,0
-364,134,0,0,0,0,0,0,0,0,0,-1,860,890,0,0
-357,134,0,0,0,0,0,0,0,0,0,-1,867,890,0,0
-350,134,0,0,0,0,0,0,0,0,0,-1,874,890,0,0
-343,134,0,0,0,0,0,0,0,0,0,-1,881,890,0,0
-336,134,0,0,0,0,0,0,0,0,0,-1,888,890,0,0
-329,134,0,0,0,0,0,0,0,0,0,-1,895,890,0,0
-322,134,0,0,0,0,0,0,0,0,0,-1,902,890,0,0
-315,134,0,0,0,0,0,0,0,0,0,-1,909,890,0,0
-308,134,0,0,0,0,0,0,0,0,0,-1,916,890,0,0
-301,134,0,0,0,0,0,0,0,0,0,-1,923,890,0,0
-294,134,0,0,0,0,0,0,0,0,0,-1,930,890,0,0
-287,134,0,0,0,0,0,0,0,0,0,-1,937,890,0,0
-280,134,0,0,0,0,0,0,0,0,0,-1,944,890,0,0
-273,134,0,0,0,0,0,0,0,0,0,-1,951,890,0,0
-266,134,0,0,0,0,0,0,0,0,0,-1,958,890,0,0
-259,134,0,0,0,0,0,0,0,0,0,-1,965,890,0,0
-252,134,0,0,0,0,0,0,0,0,0,-1,972,890,0,0
-245,134,0,0,0,0,0,0,0,0,0,-1,979,890,0,0
-238,134,0,0,0,0,0,0,0,0,0,-1,986,890,0,0
-231,134,0,0,0,0,0,0,0,0,0,-1,993,890,0,0
-224,134,0,0,0,0,0,0,0,0,0,-1,1000,890,0,0
-217,134,0,0,0,0,0,0,0,0,0,-1,1007,890,0,0
-210,134,0,0,0,0,0,0,0,0,0,-1,1014,890,0,0
-203,134,0,0,0,0,0,0,0,0,0,-1,1021,890,0,0
-196,134,0,0,0,0,0,0,0,0,0,-1,1028,890,0,0
-189,134,0,0,0,0,0,0,0,0,0,-1,1035,890,0,0
-182,134,0,0,0,0,0,0,0,0,0,-1,1042,890,0,0
-175,134,0,0,0,0,0,0,0,0,0,-1,1049,890,0,0
-168,134,0,0,0,0,0,0,0,0,0,-1,1056,890,0,0
-161,134,0,0,0,0,0,0,0,0,0,-1,1063,890,0,0
-154,134,0,0,0,0,0,0,0,0,0,-1,1070,890,0,0
-147,134,0,0,0,0,0,0,0,0,0,-1,1077,890,0,0
-140,134,0,0,0,0,0,0,0,0,0,-1,1084,890,0,0
-133,134,0,0,0,0,0,0,0,0,0,-1,1091,890,0,0
-126,134,0,0,0,0,0,0,0,0,0,-1,1098,890,0,0
-119,134,0,0,0,0,0,0,0,0,0,-1,1105,890,0,0
-112,134,0,0,0,0,0,0,0,0,0,-1,1112,890,0,0
-105,134,0,0,0,0,0,0,0,0,0,-1,1119,890,0,0
-98,134,0,0,0,0,0,0,0,0,0,-1,1126,890,0,0
-91,134,0,0,0,0,0,0,0,0,0,-1,1133,890,0,0
-84,134,0,0,0,0,0,0,0,0,0,-1,1140,890,0,0
-77,134,0,0,0,0,0,0,0,0,0,-1,1147,890,0,0
-70,134,0,0,0,0,0,0,0,0,0,-1,1154,890,0,0
-63,134,0,0,0,0,0,0,0,0,0,-1,1161,890,0,0
-56,134,0,0,0,0,0,0,0,0,0,-1,1168,890,0,0
-49,134,0,0,0,0,0,0,0,0,0,-1,1175,890,0,0
-42,134,0,0,0,0,0,0,0,0,0,-1,1182,890,0,0
-35,134,0,0,0,0,0,0,0,0,0,-1,1189,890,0,0
-28,134,0,0,0,0,0,0,0,0,0,-1,1196,890,0,0
-21,134,0,0,0,0,0,0,0,0,0,-1,1203,890,0,0
-14,134,0,0,0,0,0,0,0,0,0,-1,1210,890,0,0
-7,134,0,0,0,0,0,0,0,0,0,-1,1217,890,0,0
0,134,0,0,0,0,0,0,0,0,0,-1,1224,890,0,0
7,134,0,0,0,0,0,0,0,0,0,-1,1231,890,0,0
14,134,0,0,0,0,0,0,0,0,0,-1,1238,890,0,0
21,134,0,0,0,0,0,0,0,0,0,-1,1245,890,0,0
28,134,0,0,0,0,0,0,0,0,0,-1,1252,890,0,0
35,134,0,0,0,0,0,0,0,0,0,-1,1259,890,0,0
42,134,0,0,0,0,0,0,0,0,0,-1,1266,890,0,0
49,134,0,0,0,0,0,0,0,0,0,-1,1273,890,0,0
56,134,0,0,0,0,0,0,0,0,0,-1,1280,890,0,0
63,134,0,0,0,0,0,0,0,0,0,-1,1287,890,0,0
70,134,0,0,0,0,0,0,0,0,0,-1,1294,890,0,0
77,134,0,0,0,0,0,0,0,0,0,-1,1301,890,0,0
84,134,0,0,0,0,0,0,0,0,0,-1,1308,890,0,0
91,134,0,0,0,0,0,0,0,0,0,-1,1315,890,0,0
98,134,0,0,0,0,0,0,0,0,0,-1,1322,890,0,0
105,134,0,0,0,0,0,0,0,0,0,-1,1329,890,0,0
112,134,0,0,0,0,0,0,0,0,0,-1,1336,890,0,0
119,134,0,0,0,0,0,0,0,0,0,-1,1343,890,0,0
126,134,0,0,0,0,0,0,0,0,0,-1,1350,890,0,0
133,134,0,0,0,0,0,0,0,0,0,-1,1357,890,0,0
140,134,0,0,0,0,0,0,0,0,0,-1,1364,890,0,0
147,134,0,0,0,0,0,0,0,0,0,-1,1371,890,0,0
154,134,0,0,0,0,0,0,0,0,0,-1,1378,890,0,0
161,134,0,0,0,0,0,0,0,0,0,-1,1385,890,0,0
168,134,0,0,0,0,0,0,0,0,0,-1,1392,890,0,0
175,134,0,0,0,0,0,0,0,0,0,-1,1399,890,0,0
182,134,0,0,0,0,0,0,0,0,0,-1,1406,890,0,0
189,134,0,0,0,0,0,0,0,0,0,-1,1413,890,0,0
196,134,0,0,0,0,0,0,0,0,0,-1,1420,890,0,0
203,134,0,0,0,0,0,0,0,0,0,-1,1427,890,0,0
210,134,0,0,0,0,0,0,0,0,0,-1,1434,890,0,0
217,134,0,0,0,0,0,0,0,0,0,-1,1441,890,0,0
224,134,0,0,0,0,0,0,0,0,0,-1,1448,890,0,0
231,134,0,0,0,0,0,0,0,0,0,-1,1455,890,0,0
238,134,0,0,0,0,0,0,0,0,0,-1,1462,890,0,0
245,134,0,0,0,0,0,0,0,0,0,-1,1469,890,0,0
252,134,0,0,0,0,0,0,0,0,0,-1,1476,890,0,0
259,134,0,0,0,0,0,0,0,0,0,-1,1483,890,0,0
266,134,0,0,0,0,0,0,0,0,0,-1,1490,890,0,0
273,134,0,0,0,0,0,0,0,0,0,-1,1497,890,0,0
280,134,0,0,0,0,0,0,0,0,0,-1,1504,890,0,0
287,134,0,0,0,0,0,0,0,0,0,-1,1511,890,0,0
294,134,0,0,0,0,0,0,0,0,0,-1,1518,890,0,0
301,134,0,0,0,0,0,0,0,0,0,-1,1525,890,0,0
308,134,0,0,0,0,0,0,0,0,0,-1,1532,890,0,0
315,134,0,0,0,0,0,0,0,0,0,-1,1539,890,0,0
322,134,0,0,0,0,0,0,0,0,0,-1,1546,890,0,0
329,134,0,0,0,0,0,0,0,0,0,-1,1553,890,0,0
336,134,0,0,0,0,0,0,0,0,0,-1,1560,890,0,0
343,134,0,0,0,0,0,0,0,0,0,-1,1567,890,0,0
350,134,0,0,0,0,0,0,0,0,0,-1,1574,890,0,0
357,134,0,0,0,0,0,0,0,0,0,-1,1581,890,0,0
364,134,0,0,0,0,0,0,0,0,0,-1,1588,890,0,0
371,134,0,0,0,0,0,0,0,0,0,-1,1595,890,0,0
378,134,0,0,0,0,0,0,0,0,0,-1,1602,890,0,0
385,134,0,0,0,0,0,0,0,0,0,-1,1609,890,0,0
392,134,0,0,0,0,0,0,0,0,0,-1,1616,890,0,0
399,134,0,0,0,0,0,0,0,0,0,-1,1623,890,0,0
406,134,0,0,0,0,0,0,0,0,0,-1,1630,890,0,0
413,134,0,0,0,0,0,0,0,0,0,-1,1637,890,0,0
420,134,0,0,0,0,0,0,0,0,0,-1,1644,890,0,0
427,134,0,0,0,0,0,0,0,0,0,-1,1651,890,0,0
434,134,0,0,0,0,0,0,0,0,0,-1,1658,890,0,0
441,134,0,0,0,0,0,0,0,0,0,-1,1665,890,0,0
448,134,0,0,0,0,0,0,0,0,0,-1,1672,890,0,0
455,134,0,0,0,0,0,0,0,0,0,-1,1679,890,0,0
462,134,0,0,0,0,0,0,0,0,0,-1,1686,890,0,0
469,134,0,0,0,0,0,0,0,0,0,-1,1693,890,0,0
476,134,0,0,0,0,0,0,0,0,0,-1,1700,890,0,0
483,134,0,0,0,0,0,0,0,0,0,-1,1707,890,0,0
490,134,0,0,0,0,0,0,0,0,0,-1,1714,890,0,0
497,134,0,0,0,0,0,0,0,0,0,-1,1721,890,0,0
504,134,0,0,0,0,0,0,0,0,0,-1,1728,890,0,0
511,134,0,0,0,0,0,0,0,0,0,-1,1735,890,0,0
518,134,0,0,0,0,0,0,0,0,0,-1,1742,890,0,0
525,134,0,0,0,0,0,0,0,0,0,-1,1749,890,0,0
532,134,0,0,0,0,0,0,0,0,0,-1,1756,890,0,0
539,134,0,0,0,0,0,0,0,0,0,-1,1763,890,0,0
546,134,0,0,0,0,0,0,0,0,0,-1,1770,890,0,0
553,134,0,0,0,0,0,0,0,0,0,-1,1777,890,0,0
560,134,0,0,0,0,0,0,0,0,0,-1,1784,890,0,0
567,134,0,0,0,0,0,0,0,0,0,-1,1791,890,0,0
574,134,0,0,0,0,0,0,0,0,0,-1,1798,890,0,0
581,134,0,0,0,0,0,0,0,0,0,-1,1805,890,0,0
588,134,0,0,0,0,0,0,0,0,0,-1,1812,890,0,0
595,134,0,0,0,0,0,0,0,0,0,-1,1819,890,0,0
602,134,0,0,0,0,0,0,0,0,0,-1,1826,890,0,0
609,134,0,0,0,0,0,0,0,0,0,-1,1833,890,0,0
616,134,0,0,0,0,0,0,0,0,0,-1,1840,890,0,0
623,134,11.7877,1.84534,-0.0059347,-0.00182229,-0.00318736,-8.54442e-05,-0.00767154,-1.07186,0.00508612,0.0449306,1847,890,11.7877,-1.84535
630,134,11.6249,1.74225,-0.00301097,-0.00115768,-0.0014083,-0.000398505,-0.00377015,-1.07638,0.00239169,0.0456618,1854,890,11.6249,-1.74222
637,134,11.723,1.79913,-0.00186935,-0.000988085,-0.000888092,-0.000437323,-0.00242011,-1.01568,0.0014892,0.0448694,1861,890,11.723,-1.79915
644,134,11.6757,1.86047,0,0,0,0,0,0,0,-1,1868,890,11.6757,-1.86049
651,134,11.7705,1.67017,-0.00369025,-0.00125756,-0.00148132,-0.000557184,-0.00439062,-1.12914,0.00276016,0.0395453,1875,890,11.7705,-1.67017
658,134,11.7939,1.87024,-0.00538054,-0.00146309,-0.0020542,-0.000583444,-0.00626018,-1.1662,0.00399321,0.0377816,1882,890,11.7939,-1.87027
665,134,11.804,1.8006,-0.00681667,-0.00160928,-0.00253743,-0.000577345,-0.0078486,-1.18454,0.00505096,0.0298112,1889,890,11.804,-1.80061
672,134,11.808,1.72241,-0.00796298,-0.00167766,-0.0028383,-0.000585668,-0.00905497,-1.20352,0.0058512,0.0217669,1896,890,11.808,-1.72239
679,134,11.8308,1.67206,-0.0085728,-0.0017106,-0.00300518,-0.000580607,-0.0097028,-1.21114,0.00628394,0.0185667,1903,890,11.8309,-1.67207
686,134,11.6759,1.67078,0,0,0,0,0,0,0,-1,1910,890,11.6759,-1.67081
693,134,10.9977,1.66675,0,0,0,0,0,0,0,-1,1917,890,10.9976,-1.66674
700,134,10.3193,1.66266,0,0,0,0,0,0,0,-1,1924,890,10.3194,-1.66267
707,134,10.4612,1.71674,-0.00733432,-0.0012762,-0.00265676,-0.000276164,-0.00833435,-1.21079,0.0054665,0.016694,1931,890,10.4612,-1.71671
714,134,10.4973,1.81958,-0.00565879,-0.00106152,-0.00241656,-2.49618e-05,-0.00669534,-1.1656,0.00445527,0.0151173,1938,890,10.4974,-1.8196
721,134,10.5515,1.9361,-0.00342563,-0.000859682,-0.00190826,0.000156796,-0.0044421,-1.08135,0.00301503,0.013515,1945,890,10.5515,-1.93607
728,134,10.5627,2.01813,-0.000413981,-0.000402009,-0.00104965,0.000641677,-0.00145767,-0.788249,0.0012422,0.0142256,1952,890,10.5628,-2.01812
735,134,10.5455,2.10504,0.00352222,0.00167325,-0.000576213,0.00368709,0.00150838,-0.278681,0.00214044,0.0193598,1959,890,10.5455,-2.10506
742,134,10.5477,2.2088,0.00780159,0.00590889,-0.000240441,0.00783166,0.00587882,-0.124403,0.00470718,0.0135199,1966,890,10.5477,-2.20879
749,134,10.5625,2.27966,0.0121206,0.0101403,3.19787e-05,0.0121211,0.0101398,0.0161426,0.00750796,0.0129141,1973,890,10.5625,-2.27967
756,134,10.5465,2.33093,0.0165417,0.0160701,0.00028001,0.016672,0.0159398,0.435411,0.0108788,0.0171345,1980,890,10.5466,-2.33096
763,134,10.6188,2.37195,0.0210846,0.0243945,0.000458728,0.0244569,0.0210222,1.4356,0.0152888,0.0357796,1987,890,10.6187,-2.37198
770,134,10.6993,2.38275,0.0259684,0.0359975,0.000675455,0.0360428,0.0259231,1.50385,0.0214657,0.0412284,1994,890,10.6993,-2.38275
777,134,10.4741,2.67139,0.0312906,0.0519246,0.000990934,0.0519721,0.0312432,1.52292,0.0302101,0.0430061,2001,890,10.4741,-2.67141
784,134,11.0044,2.58887,0.036861,0.0734567,0.00143357,0.0735127,0.0368049,1.5317,0.0424426,0.0461578,2008,890,11.0044,-2.58887
791,134,11.3835,2.25507,0.0423416,0.102326,0.00208147,0.102398,0.0422694,1.53615,0.0594184,0.0426373,2015,890,11.3835,-2.25508
798,134,0,0,0,0,0,0,0,0,0,-1,2022,890,0,0
805,134,0,0,0,0,0,0,0,0,0,-1,2029,890,0,0
812,134,0,0,0,0,0,0,0,0,0,-1,2036,890,0,0
-700,127,0,0,0,0,0,0,0,0,0,-1,524,897,0,0
-693,127,0,0,0,0,0,0,0,0,0,-1,531,897,0,0
-686,127,0,0,0,0,0,0,0,0,0,-1,538,897,0,0
-679,127,-5.70068,0.00836182,0,0,0,0,0,0,0,-1,545,897,-5.70071,-0.00836916
-672,127,-5.57684,0.164673,0.00360017,0.00546774,-0.00341149,0.00807093,0.000996971,-0.918985,0.00508101,0.0448814,552,897,-5.57687,-0.164669
-665,127,-5.42358,0.303711,-0.00136061,0.00547804,-0.00195035,0.00599516,-0.00187774,-1.31161,0.00474811,0.0432813,559,897,-5.42359,-0.303708
-658,127,-5.54224,0.548279,-0.00427513,0.00496463,-0.00100578,0.00507284,-0.00438334,-1.46362,0.00546437,0.0449171,566,897,-5.54221,-0.548276
-651,127,-5.46814,0.963745,-0.00574858,0.00420574,-0.000434716,0.00422469,-0.00576753,-1.52724,0.00579189,0.0428958,573,897,-5.46815,-0.963772
-644,127,-5.36029,1.349,-0.00620775,0.00337666,-0.000112376,0.00337797,-0.00620906,-1.55907,0.00561495,0.0420333,580,897,-5.36031,-1.34899
-637,127,-5.30066,1.02161,-0.00601608,0.00258295,4.88807e-05,0.00258323,-0.00601636,1.56511,0.00509515,0.0453692,587,897,-5.30065,-1.02162
-630,127,-5.24817,1.00604,-0.00536038,0.00188496,-9.74999e-06,0.00188498,-0.00536039,-1.56945,0.00434056,0.0322714,594,897,-5.24817,-1.00606
-623,127,-5.24084,0.986206,-0.00479331,0.00182072,0.00027654,0.00183226,-0.00480485,1.52908,0.00395798,0.0130147,601,897,-5.24085,-0.986199
-616,127,-5.25726,0.955566,-0.00462043,0.0011266,0.000369854,0.00115031,-0.00464413,1.50679,0.00354234,0.00980179,608,897,-5.25725,-0.955582
-609,127,-5.26764,0.887634,-0.00465305,0.000251936,0.000708784,0.000352304,-0.00475341,1.43013,0.00329267,0.0130695,615,897,-5.26764,-0.887634
-602,127,-5.2688,0.814819,-0.00477523,-0.00012553,0.00116322,0.000149235,-0.00504999,1.33884,0.00341749,0.0138869,622,897,-5.26877,-0.814797
-595,127,-5.23633,0.749512,-0.00533499,-0.00080694,0.00124514,-0.000487133,-0.0056548,1.31939,0.00361844,0.0123469,629,897,-5.23633,-0.749483
-588,127,-5.27338,0.712036,-0.00633279,-0.0011821,0.00174434,-0.000646953,-0.00686794,1.27312,0.00437893,0.0158099,636,897,-5.27336,-0.712045
-581,127,-5.33136,0.620178,-0.00737791,-0.00130827,0.00241776,-0.000462923,-0.00822326,1.23444,0.00533457,0.0217728,643,897,-5.33139,-0.620194
-574,127,-5.30145,0.562683,-0.00844515,-0.0014671,0.00283846,-0.000458331,-0.00945392,1.22932,0.00615553,0.022552,650,897,-5.30144,-0.562683
-567,127,-5.24811,0.513672,-0.00910994,-0.00156175,0.0030056,-0.000511175,-0.0101605,1.23453,0.00660987,0.0339128,657,897,-5.24812,-0.513658
-560,127,-5.62787,0.561218,-0.00923982,-0.00159455,0.00300294,-0.0005561,-0.0102783,1.23786,0.00667454,0.0337514,664,897,-5.62785,-0.561249
-553,127,-6.12775,0.604431,-0.00914589,-0.00147323,0.00293261,-0.000480723,-0.0101384,1.24446,0.00660452,0.0364876,671,897,-6.12777,-0.604455
-546,127,-6.08746,0.71405,-0.00848201,-0.00125314,0.00258222,-0.000425504,-0.00930965,1.26063,0.00606957,0.022023,678,897,-6.08747,-0.714042
-539,127,-6.09784,0.674927,-0.006957,-0.000842872,0.00191268,-0.00029383,-0.00750604,1.29126,0.00490902,0.0193241,685,897,-6.09784,-0.674945
-532,127,-6.07196,0.705078,-0.0044299,-0.000220471,0.000887664,-4.09414e-05,-0.00460943,1.37124,0.0030594,0.0165501,692,897,-6.07198,-0.705097
-525,127,-6.07623,0.693176,-0.000756634,0.000632199,-0.00054151,0.000818377,-0.000942812,-1.23964,0.00101767,0.0321372,699,897,-6.07626,-0.693175
-518,127,-5.98041,0.689087,0.00418318,0.0017273,-0.00235501,0.00561116,0.000299324,-0.545081,0.0036451,0.0399087,706,897,-5.98039,-0.689097
-511,127,-5.78955,0.596863,0.00988056,0.00305366,-0.00428356,0.0119444,0.000989832,-0.448983,0.00765434,0.0432665,713,897,-5.78956,-0.596876
-504,127,0,0,0,0,0,0,0,0,0,-1,720,897,0,0
-497,127,0,0,0,0,0,0,0,0,0,-1,727,897,0,0
-490,127,0,0,0,0,0,0,0,0,0,-1,734,897,0,0
-483,127,0,0,0,0,0,0,0,0,0,-1,741,897,0,0
-476,127,0,0,0,0,0,0,0,0,0,-1,748,897,0,0
-469,127,0,0,0,0,0,0,0,0,0,-1,755,897,0,0
-462,127,0,0,0,0,0,0,0,0,0,-1,762,897,0,0
-455,127,0,0,0,0,0,0,0,0,0,-1,769,897,0,0
-448,127,0,0,0,0,0,0,0,0,0,-1,776,897,0,0
-441,127,0,0,0,0,0,0,0,0,0,-1,783,897,0,0
-434,127,0,0,0,0,0,0,0,0,0,-1,790,897,0,0
-427,127,0,0,0,0,0,0,0,0,0,-1,797,897,0,0
-420,127,0,0,0,0,0,0,0,0,0,-1,804,897,0,0
-413,127,0,0,0,0,0,0,0,0,0,-1,811,897,0,0
-406,127,0,0,0,0,0,0,0,0,0,-1,818,897,0,0
-399,127,0,0,0,0,0,0,0,0,0,-1,825,897,0,0
-392,127,0,0,0,0,0,0,0,0,0,-1,832,897,0,0
-385,127,0,0,0,0,0,0,0,0,0,-1,839,897,0,0
-378,127,0,0,0,0,0,0,0,0,0,-1,846,897,0,0
-371,127,0,0,0,0,0,0,0,0,0,-1,853,897,0,0
-364,127,0,0,0,0,0,0,0,0,0,-1,860,897,0,0
-357,127,0,0,0,0,0,0,0,0,0,-1,867,897,0,0
-350,127,0,0,0,0,0,0,0,0,0,-1,874,897,0,0
-343,127,0,0,0,0,0,0,0,0,0,-1,881,897,0,0
-336,127,0,0,0,0,0,0,0,0,0,-1,888,897,0,0
-329,127,0,0,0,0,0,0,0,0,0,-1,895,897,0,0
-322,127,0,0,0,0,0,0,0,0,0,-1,902,897,0,0
-315,127,0,0,0,0,0,0,0,0,0,-1,909,897,0,0
-308,127,0,0,0,0,0,0,0,0,0,-1,916,897,0,0
-301,127,0,0,0,0,0,0,0,0,0,-1,923,897,0,0
-294,127,0,0,0,0,0,0,0,0,0,-1,930,897,0,0
-287,127,0,0,0,0,0,0,0,0,0,-1,937,897,0,0
-280,127,0,0,0,0,0,0,0,0,0,-1,944,897,0,0
-273,127,0,0,0,0,0,0,0,0,0,-1,951,897,0,0
-266,127,0,0,0,0,0,0,0,0,0,-1,958,897,0,0
-259,127,0,0,0,0,0,0,0,0,0,-1,965,897,0,0
-252,127,0,0,0,0,0,0,0,0,0,-1,972,897,0,0
-245,127,0,0,0,0,0,0,0,0,0,-1,979,897,0,0
-238,127,0,0,0,0,0,0,0,0,0,-1,986,897,0,0
-231,127,0,0,0,0,0,0,0,0,0,-1,993,897,0,0
-224,127,0,0,0,0,0,0,0,0,0,-1,1000,897,0,0
-217,127,0,0,0,0,0,0,0,0,0,-1,1007,897,0,0
-210,127,0,0,0,0,0,0,0,0,0,-1,1014,897,0,0
-203,127,0,0,0,0,0,0,0,0,0,-1,1021,897,0,0
-196,127,0,0,0,0,0,0,0,0,0,-1,1028,897,0,0
-189,127,0,0,0,0,0,0,0,0,0,-1,1035,897,0,0
-182,127,0,0,0,0,0,0,0,0,0,-1,1042,897,0,0
-175,127,0,0,0,0,0,0,0,0,0,-1,1049,897,0,0
-168,127,0,0,0,0,0,0,0,0,0,-1,1056,897,0,0
-161,127,0,0,0,0,0,0,0,0,0,-1,1063,897,0,0
-154,127,0,0,0,0,0,0,0,0,0,-1,1070,897,0,0
-147,127,0,0,0,0,0,0,0,0,0,-1,1077,897,0,0
-140,127,0,0,0,0,0,0,0,0,0,-1,1084,897,0,0
-133,127,0,0,0,0,0,0,0,0,0,-1,1091,897,0,0
-126,127,0,0,0,0,0,0,0,0,0,-1,1098,897,0,0
-119,127,0,0,0,0,0,0,0,0,0,-1,1105,897,0,0
-112,127,0,0,0,0,0,0,0,0,0,-1,1112,897,0,0
-105,127,0,0,0,0,0,0,0,0,0,-1,1119,897,0,0
-98,127,0,0,0,0,0,0,0,0,0,-1,1126,897,0,0
-91,127,0,0,0,0,0,0,0,0,0,-1,1133,897,0,0
-84,127,0,0,0,0,0,0,0,0,0,-1,1140,897,0,0
-77,127,0,0,0,0,0,0,0,0,0,-1,1147,897,0,0
-70,127,0,0,0,0,0,0,0,0,0,-1,1154,897,0,0
-63,127,0,0,0,0,0,0,0,0,0,-1,1161,897,0,0
-56,127,0,0,0,0,0,0,0,0,0,-1,1168,897,0,0
-49,127,0,0,0,0,0,0,0,0,0,-1,1175,897,0,0
-42,127,0,0,0,0,0,0,0,0,0,-1,1182,897,0,0
-35,127,0,0,0,0,0,0,0,0,0,-1,1189,897,0,0
-28,127,0,0,0,0,0,0,0,0,0,-1,1196,897,0,0
-21,127,0,0,0,0,0,0,0,0,0,-1,1203,897,0,0
-14,127,0,0,0,0,0,0,0,0,0,-1,1210,897,0,0
-7,127,0,0,0,0,0,0,0,0,0,-1,1217,897,0,0
0,127,0,0,0,0,0,0,0,0,0,-1,1224,897,0,0
7,127,0,0,0,0,0,0,0,0,0,-1,1231,897,0,0
14,127,0,0,0,0,0,0,0,0,0,-1,1238,897,0,0
21,127,0,0,0,0,0,0,0,0,0,-1,1245,897,0,0
28,127,0,0,0,0,0,0,0,0,0,-1,1252,897,0,0
35,127,0,0,0,0,0,0,0,0,0,-1,1259,897,0,0
42,127,0,0,0,0,0,0,0,0,0,-1,1266,897,0,0
49,127,0,0,0,0,0,0,0,0,0,-1,1273,897,0,0
56,127,0,0,0,0,0,0,0,0,0,-1,1280,897,0,0
63,127,0,0,0,0,0,0,0,0,0,-1,1287,897,0,0
70,127,0,0,0,0,0,0,0,0,0,-1,1294,897,0,0
77,127,0,0,0,0,0,0,0,0,0,-1,1301,897,0,0
84,127,0,0,0,0,0,0,0,0,0,-1,1308,897,0,0
91,127,0,0,0,0,0,0,0,0,0,-1,1315,897,0,0
98,127,0,0,0,0,0,0,0,0,0,-1,1322,897,0,0
105,127,0,0,0,0,0,0,0,0,0,-1,1329,897,0,0
112,127,0,0,0,0,0,0,0,0,0,-1,1336,897,0,0
119,127,0,0,0,0,0,0,0,0,0,-1,1343,897,0,0
126,127,0,0,0,0,0,0,0,0,0,-1,1350,897,0,0
133,127,0,0,0,0,0,0,0,0,0,-1,1357,897,0,0
140,127,0,0,0,0,0,0,0,0,0,-1,1364,897,0,0
147,127,0,0,0,0,0,0,0,0,0,-1,1371,897,0,0
154,127,0,0,0,0,0,0,0,0,0,-1,1378,897,0,0
161,127,0,0,0,0,0,0,0,0,0,-1,1385,897,0,0
168,127,0,0,0,0,0,0,0,0,0,-1,1392,897,0,0
175,127,0,0,0,0,0,0,0,0,0,-1,1399,897,0,0
182,127,0,0,0,0,0,0,0,0,0,-1,1406,897,0,0
189,127,0,0,0,0,0,0,0,0,0,-1,1413,897,0,0
196,127,0,0,0,0,0,0,0,0,0,-1,1420,897,0,0
203,127,0,0,0,0,0,0,0,0,0,-1,1427,897,0,0
210,127,0,0,0,0,0,0,0,0,0,-1,1434,897,0,0
217,127,0,0,0,0,0,0,0,0,0,-1,1441,897,0,0
224,127,0,0,0,0,0,0,0,0,0,-1,1448,897,0,0
231,127,0,0,0,0,0,0,0,0,0,-1,1455,897,0,0
238,127,0,0,0,0,0,0,0,0,0,-1,1462,897,0,0
245,127,0,0,0,0,0,0,0,0,0,-1,1469,897,0,0
252,127,0,0,0,0,0,0,0,0,0,-1,1476,897,0,0
259,127,0,0,0,0,0,0,0,0,0,-1,1483,897,0,0
266,127,0,0,0,0,0,0,0,0,0,-1,1490,897,0,0
273,127,0,0,0,0,0,0,0,0,0,-1,1497,897,0,0
280,127,0,0,0,0,0,0,0,0,0,-1,1504,897,0,0
287,127,0,0,0,0,0,0,0,0,0,-1,1511,897,0,0
294,127,0,0,0,0,0,0,0,0,0,-1,1518,897,0,0
301,127,0,0,0,0,0,0,0,0,0,-1,1525,897,0,0
308,127,0,0,0,0,0,0,0,0,0,-1,1532,897,0,0
315,127,0,0,0,0,0,0,0,0,0,-1,1539,897,0,0
322,127,0,0,0,0,0,0,0,0,0,-1,1546,897,0,0
329,127,0,0,0,0,0,0,0,0,0,-1,1553,897,0,0
336,127,0,0,0,0,0,0,0,0,0,-1,1560,897,0,0
343,127,0,0,0,0,0,0,0,0,0,-1,1567,897,0,0
350,127,0,0,0,0,0,0,0,0,0,-1,1574,897,0,0
357,127,0,0,0,0,0,0,0,0,0,-1,1581,897,0,0
364,127,0,0,0,0,0,0,0,0,0,-1,1588,897,0,0
371,127,0,0,0,0,0,0,0,0,0,-1,1595,897,0,0
378,127,0,0,0,0,0,0,0,0,0,-1,1602,897,0,0
385,127,0,0,0,0,0,0,0,0,0,-1,1609,897,0,0
392,127,0,0,0,0,0,0,0,0,0,-1,1616,897,0,0
399,127,0,0,0,0,0,0,0,0,0,-1,1623,897,0,0
406,127,0,0,0,0,0,0,0,0,0,-1,1630,897,0,0
413,127,0,0,0,0,0,0,0,0,0,-1,1637,897,0,0
420,127,0,0,0,0,0,0,0,0,0,-1,1644,897,0,0
427,127,0,0,0,0,0,0,0,0,0,-1,1651,897,0,0
434,127,0,0,0,0,0,0,0,0,0,-1,1658,897,0,0
441,127,0,0,0,0,0,0,0,0,0,-1,1665,897,0,0
448,127,0,0,0,0,0,0,0,0,0,-1,1672,897,0,0
455,127,0,0,0,0,0,0,0,0,0,-1,1679,897,0,0
462,127,0,0,0,0,0,0,0,0,0,-1,1686,897,0,0
469,127,0,0,0,0,0,0,0,0,0,-1,1693,897,0,0
476,127,0,0,0,0,0,0,0,0,0,-1,1700,897,0,0
483,127,0,0,0,0,0,0,0,0,0,-1,1707,897,0,0
490,127,0,0,0,0,0,0,0,0,0,-1,1714,897,0,0
497,127,0,0,0,0,0,0,0,0,0,-1,1721,897,0,0
504,127,0,0,0,0,0,0,0,0,0,-1,1728,897,0,0
511,127,0,0,0,0,0,0,0,0,0,-1,1735,897,0,0
518,127,0,0,0,0,0,0,0,0,0,-1,1742,897,0,0
525,127,0,0,0,0,0,0,0,0,0,-1,1749,897,0,0
532,127,0,0,0,0,0,0,0,0,0,-1,1756,897,0,0
539,127,0,0,0,0,0,0,0,0,0,-1,1763,897,0,0
546,127,0,0,0,0,0,0,0,0,0,-1,1770,897,0,0
553,127,0,0,0,0,0,0,0,0,0,-1,1777,897,0,0
560,127,0,0,0,0,0,0,0,0,0,-1,1784,897,0,0
567,127,0,0,0,0,0,0,0,0,0,-1,1791,897,0,0
574,127,0,0,0,0,0,0,0,0,0,-1,1798,897,0,0
581,127,0,0,0,0,0,0,0,0,0,-1,1805,897,0,0
588,127,0,0,0,0,0,0,0,0,0,-1,1812,897,0,0
595,127,0,0,0,0,0,0,0,0,0,-1,1819,897,0,0
602,127,0,0,0,0,0,0,0,0,0,-1,1826,897,0,0
609,127,0,0,0,0,0,0,0,0,0,-1,1833,897,0,0
616,127,0,0,0,0,0,0,0,0,0,-1,1840,897,0,0
623,127,0,0,0,0,0,0,0,0,0,-1,1847,897,0,0
630,127,11.7843,1.79919,0,0,0,0,0,0,0,-1,1854,897,11.7843,-1.79921
637,127,12.0061,1.90607,0,0,0,0,0,0,0,-1,1861,897,12.0061,-1.90609
644,127,11.8163,1.55829,-0.00238888,-0.00145194,-0.000558823,-0.0011912,-0.00264962,-1.13424,0.00153235,0.0399255,1868,897,11.8163,-1.55827
651,127,11.6782,1.5061,-0.0035297,-0.00156637,-0.000849603,-0.00124977,-0.0038463,-1.21409,0.00226559,0.0419226,1875,897,11.6782,-1.50613
658,127,11.7021,1.74402,-0.00511992,-0.00170285,-0.00134004,-0.00124003,-0.00558274,-1.23824,0.00338506,0.041098,1882,897,11.7022,-1.74403
665,127,11.7423,1.84253,-0.00653685,-0.00180368,-0.00180911,-0.0011914,-0.00714913,-1.24446,0.00442277,0.0347876,1889,897,11.7424,-1.84255
672,127,11.7675,1.72156,-0.00764686,-0.00182886,-0.00214046,-0.00112623,-0.00834949,-1.25362,0.00523148,0.0297994,1896,897,11.7674,-1.72154
679,127,11.8514,1.67206,-0.00826053,-0.0018192,-0.00234993,-0.00105303,-0.0090267,-1.25562,0.00569931,0.025206,1903,897,11.8515,-1.67207
686,127,11.8258,1.63257,0,0,0,0,0,0,0,-1,1910,897,11.8258,-1.63255
693,127,11.2048,1.65179,-0.0088361,-0.00151802,-0.0024854,-0.00075373,-0.00960038,-1.27246,0.00616439,0.0278094,1917,897,11.2049,-1.65181
700,127,10.6313,1.68512,-0.00831303,-0.00140975,-0.00238957,-0.000663311,-0.00905946,-1.26803,0.00583113,0.0211535,1924,897,10.6313,-1.68512
707,127,10.5343,1.74738,-0.00733597,-0.00121944,-0.00233109,-0.000432326,-0.00812309,-1.24516,0.00527719,0.0202078,1931,897,10.5343,-1.74737
714,127,10.5427,1.83514,-0.00597568,-0.000949722,-0.00218054,-0.000135568,-0.00678983,-1.21345,0.00448205,0.0163412,1938,897,10.5427,-1.83513
721,127,10.6451,1.96667,-0.00420775,-0.00064564,-0.0018206,0.000120215,-0.00497361,-1.17261,0.00335653,0.0124938,1945,897,10.6452,-1.96667
728,127,10.6542,2.02771,-0.00172478,-0.000136997,-0.00136267,0.000646179,-0.00250795,-1.04916,0.00192388,0.0128437,1952,897,10.6542,-2.0277
735,127,10.6307,2.09515,0.00160013,0.00173668,-0.00135609,0.00302621,0.000310597,-0.810549,0.00192232,0.0195835,1959,897,10.6307,-2.09512
742,127,10.6292,2.20862,0.00516999,0.00569412,-0.00153045,0.00698478,0.00387933,-0.870193,0.00404091,0.0167801,1966,897,10.6292,-2.20864
749,127,10.6248,2.26953,0.00879965,0.00967951,-0.00192744,0.0112166,0.00726258,-0.8976,0.00656914,0.0130982,1973,897,10.6248,-2.26951
756,127,10.6233,2.31854,0.0124393,0.0151693,-0.00256687,0.0167115,0.010897,-1.02977,0.00979601,0.0155623,1980,897,10.6233,-2.31855
763,127,10.6693,2.32257,0.0160546,0.0227436,-0.00352881,0.024261,0.0145372,-1.1647,0.0140987,0.021421,1987,897,10.6693,-2.32256
770,127,10.7782,2.05658,0.0198211,0.0331545,-0.00476319,0.0346812,0.0182943,-1.26061,0.0200333,0.037106,1994,897,10.7782,-2.05661
777,127,10.7072,1.66644,0.023887,0.047264,-0.00624602,0.0488282,0.0223228,-1.32541,0.0282254,0.0462395,2001,897,10.7072,-1.66644
784,127,10.7144,1.35516,0.0280903,0.0661424,-0.00796435,0.0677421,0.0264906,-1.37258,0.0394192,0.0461269,2008,897,10.7144,-1.35517
791,127,11.011,1.04004,0.032104,0.0911885,-0.00985629,0.0927894,0.0305032,-1.40979,0.0546095,0.0408563,2015,897,11.011,-1.04003
798,127,0,0,0,0,0,0,0,0,0,-1,2022,897,0,0
805,127,0,0,0,0,0,0,0,0,0,-1,2029,897,0,0
812,127,0,0,0,0,0,0,0,0,0,-1,2036,897,0,0
-700,120,0,0,0,0,0,0,0,0,0,-1,524,904,0,0
-693,120,0,0,0,0,0,0,0,0,0,-1,531,904,0,0
-686,120,0,0,0,0,0,0,0,0,0,-1,538,904,0,0
-679,120,-5.8092,-0.674683,0,0,0,0,0,0,0,-1,545,904,-5.80923,0.674677
-672,120,-5.47278,-0.541199,0.000768959,-3.0221e-05,-0.000390365,0.000927989,-0.000189252,-0.386861,0.000690444,0.0398979,552,904,-5.47279,0.541215
-665,120,-5.00848,-0.596985,-0.00341729,0.00167393,0.000367357,0.0017003,-0.00344366,1.49914,0.00302619,0.0416387,559,904,-5.00849,0.596972
-658,120,-5.26465,-0.0423584,-0.00567819,0.00256665,0.000883022,0.00266017,-0.0057717,1.46529,0.0049774,0.0404723,566,904,-5.26464,0.0423585
-651,120,-5.3916,0.468933,-0.0066097,0.00287674,0.00117129,0.00301922,-0.00675218,1.44975,0.00577711,0.0435069,573,904,-5.3916,-0.468903
-644,120,-5.39935,0.907837,-0.00664964,0.00280243,0.00127628,0.00297173,-0.00681894,1.43892,0.00579629,0.0434028,580,904,-5.39936,-0.907844
-637,120,-5.34161,1.08276,-0.00615026,0.00249758,0.00124435,0.00267307,-0.00632576,1.43069,0.00533623,0.0411398,587,904,-5.34159,-1.08276
-630,120,-5.2948,1.08478,-0.00528226,0.00204343,0.000962253,0.00216771,-0.00540654,1.44235,0.0045043,0.0227046,594,904,-5.29483,-1.08478
-623,120,-5.33447,0.993042,-0.0046745,0.00218789,0.00112133,0.00236647,-0.00485308,1.41286,0.00424983,0.01047,601,904,-5.33449,-0.993062
-616,120,-5.32184,0.942627,-0.00449786,0.0015875,0.001084,0.00177483,-0.00468519,1.39967,0.0038538,0.0102439,608,904,-5.32186,-0.94264
-609,120,-5.33307,0.887634,-0.00460179,0.000677702,0.00123377,0.000951793,-0.00487588,1.35219,0.00360992,0.0128861,615,904,-5.33308,-0.887612
-602,120,-5.34113,0.84906,-0.00470424,0.000332685,0.00162659,0.000812296,-0.00518385,1.28406,0.00375606,0.0125335,622,904,-5.34111,-0.849064
-595,120,-5.32129,0.783875,-0.00520738,-0.000412546,0.0015531,4.65601e-05,-0.00566649,1.28338,0.00379327,0.0156421,629,904,-5.3213,-0.783867
-588,120,-5.33411,0.715515,-0.00611205,-0.000906491,0.00183652,-0.000323796,-0.00669475,1.26356,0.00435924,0.0187094,636,904,-5.33409,-0.715493
-581,120,-5.41522,0.664001,-0.00708029,-0.00106188,0.00229705,-0.000285357,-0.00785681,1.2448,0.00514539,0.0221795,643,904,-5.41519,-0.664007
-574,120,-5.33417,0.581482,-0.0080567,-0.00120841,0.00260098,-0.000332574,-0.00893254,1.24599,0.00584733,0.0206648,650,904,-5.33416,-0.581502
-567,120,-5.39343,0.529053,-0.00864855,-0.00128471,0.00269393,-0.000404421,-0.00952884,1.25496,0.00622214,0.0383219,657,904,-5.39343,-0.529081
-560,120,-6.10138,0.569275,0,0,0,0,0,0,0,-1,664,904,-6.10136,-0.569291
-553,120,-6.11572,0.75946,-0.0084364,-0.00114014,0.00247728,-0.000378536,-0.00919801,1.27253,0.0060098,0.0364643,671,904,-6.1157,-0.759463
-546,120,-6.04523,0.676086,-0.00763813,-0.000890159,0.00205599,-0.000313086,-0.0082152,1.29716,0.00537548,0.0299618,678,904,-6.04522,-0.676087
-539,120,-6.02478,0.66687,-0.00605044,-0.000478335,0.00132285,-0.00018023,-0.00634855,1.34915,0.00417359,0.0239662,685,904,-6.02479,-0.666849
-532,120,-5.97388,0.700256,-0.00357393,0.000107252,0.000240079,0.000122843,-0.00358952,1.50594,0.00243499,0.0268139,692,904,-5.97385,-0.700237
-525,120,-6.05469,0.76062,-0.000102127,0.0008741,-0.00124723,0.00172533,-0.000953352,-0.971916,0.0015678,0.0359095,699,904,-6.0547,-0.760621
-518,120,-6.13306,0.85791,0.00435211,0.0018174,-0.00311037,0.00644341,-0.000273905,-0.591937,0.00438976,0.0405958,706,904,-6.13305,-0.857907
-511,120,-5.91766,0.739014,0.00904121,0.00292395,-0.00503541,0.0118742,9.10102e-05,-0.512468,0.00788594,0.0408713,713,904,-5.91764,-0.738994
-504,120,0,0,0,0,0,0,0,0,0,-1,720,904,0,0
-497,120,0,0,0,0,0,0,0,0,0,-1,727,904,0,0
-490,120,0,0,0,0,0,0,0,0,0,-1,734,904,0,0
-483,120,0,0,0,0,0,0,0,0,0,-1,741,904,0,0
-476,120,0,0,0,0,0,0,0,0,0,-1,748,904,0,0
-469,120,0,0,0,0,0,0,0,0,0,-1,755,904,0,0
-462,120,0,0,0,0,0,0,0,0,0,-1,762,904,0,0
-455,120,0,0,0,0,0,0,0,0,0,-1,769,904,0,0
-448,120,0,0,0,0,0,0,0,0,0,-1,776,904,0,0
-441,120,0,0,0,0,0,0,0,0,0,-1,783,904,0,0
-434,120,0,0,0,0,0,0,0,0,0,-1,790,904,0,0
-427,120,0,0,0,0,0,0,0,0,0,-1,797,904,0,0
-420,120,0,0,0,0,0,0,0,0,0,-1,804,904,0,0
-413,120,0,0,0,0,0,0,0,0,0,-1,811,904,0,0
-406,120,0,0,0,0,0,0,0,0,0,-1,818,904,0,0
-399,120,0,0,0,0,0,0,0,0,0,-1,825,904,0,0
-392,120,0,0,0,0,0,0,0,0,0,-1,832,904,0,0
-385,120,0,0,0,0,0,0,0,0,0,-1,839,904,0,0
-378,120,0,0,0,0,0,0,0,0,0,-1,846,904,0,0
-371,120,0,0,0,0,0,0,0,0,0,-1,853,904,0,0
-364,120,0,0,0,0,0,0,0,0,0,-1,860,904,0,0
-357,120,0,0,0,0,0,0,0,0,0,-1,867,904,0,0
-350,120,0,0,0,0,0,0,0,0,0,-1,874,904,0,0
-343,120,0,0,0,0,0,0,0,0,0,-1,881,904,0,0
-336,120,0,0,0,0,0,0,0,0,0,-1,888,904,0,0
-329,120,0,0,0,0,0,0,0,0,0,-1,895,904,0,0
-322,120,0,0,0,0,0,0,0,0,0,-1,902,904,0,0
-315,120,0,0,0,0,0,0,0,0,0,-1,909,904,0,0
-308,120,0,0,0,0,0,0,0,0,0,-1,916,904,0,0
-301,120,0,0,0,0,0,0,0,0,0,-1,923,904,0,0
-294,120,0,0,0,0,0,0,0,0,0,-1,930,904,0,0
-287,120,0,0,0,0,0,0,0,0,0,-1,937,904,0,0
-280,120,0,0,0,0,0,0,0,0,0,-1,944,904,0,0
-273,120,0,0,0,0,0,0,0,0,0,-1,951,904,0,0
-266,120,0,0,0,0,0,0,0,0,0,-1,958,904,0,0
-259,120,0,0,0,0,0,0,0,0,0,-1,965,904,0,0
-252,120,0,0,0,0,0,0,0,0,0,-1,972,904,0,0
-245,120,0,0,0,0,0,0,0,0,0,-1,979,904,0,0
-238,120,0,0,0,0,0,0,0,0,0,-1,986,904,0,0
-231,120,0,0,0,0,0,0,0,0,0,-1,993,904,0,0
-224,120,0,0,0,0,0,0,0,0,0,-1,1000,904,0,0
-217,120,0,0,0,0,0,0,0,0,0,-1,1007,904,0,0
-210,120,0,0,0,0,0,0,0,0,0,-1,1014,904,0,0
-203,120,0,0,0,0,0,0,0,0,0,-1,1021,904,0,0
-196,120,0,0,0,0,0,0,0,0,0,-1,1028,904,0,0
-189,120,0,0,0,0,0,0,0,0,0,-1,1035,904,0,0
-182,120,0,0,0,0,0,0,0,0,0,-1,1042,904,0,0
-175,120,0,0,0,0,0,0,0,0,0,-1,1049,904,0,0
-168,120,0,0,0,0,0,0,0,0,0,-1,1056,904,0,0
-161,120,0,0,0,0,0,0,0,0,0,-1,1063,904,0,0
-154,120,0,0,0,0,0,0,0,0,0,-1,1070,904,0,0
-147,120,0,0,0,0,0,0,0,0,0,-1,1077,904,0,0
-140,120,0,0,0,0,0,0,0,0,0,-1,1084,904,0,0
-133,120,0,0,0,0,0,0,0,0,0,-1,1091,904,0,0
-126,120,0,0,0,0,0,0,0,0,0,-1,1098,904,0,0
-119,120,0,0,0,0,0,0,0,0,0,-1,1105,904,0,0
-112,120,0,0,0,0,0,0,0,0,0,-1,1112,904,0,0
-105,120,0,0,0,0,0,0,0,0,0,-1,1119,904,0,0
-98,120,0,0,0,0,0,0,0,0,0,-1,1126,904,0,0
-91,120,0,0,0,0,0,0,0,0,0,-1,1133,904,0,0
-84,120,0,0,0,0,0,0,0,0,0,-1,1140,904,0,0
-77,120,0,0,0,0,0,0,0,0,0,-1,1147,904,0,0
-70,120,0,0,0,0,0,0,0,0,0,-1,1154,904,0,0
-63,120,0,0,0,0,0,0,0,0,0,-1,1161,904,0,0
-56,120,0,0,0,0,0,0,0,0,0,-1,1168,904,0,0
-49,120,0,0,0,0,0,0,0,0,0,-1,1175,904,0,0
-42,120,0,0,0,0,0,0,0,0,0,-1,1182,904,0,0
-35,120,0,0,0,0,0,0,0,0,0,-1,1189,904,0,0
-28,120,0,0,0,0,0,0,0,0,0,-1,1196,904,0,0
-21,120,0,0,0,0,0,0,0,0,0,-1,1203,904,0,0
-14,120,0,0,0,0,0,0,0,0,0,-1,1210,904,0,0
-7,120,0,0,0,0,0,0,0,0,0,-1,1217,904,0,0
0,120,0,0,0,0,0,0,0,0,0,-1,1224,904,0,0
7,120,0,0,0,0,0,0,0,0,0,-1,1231,904,0,0
14,120,0,0,0,0,0,0,0,0,0,-1,1238,904,0,0
21,120,0,0,0,0,0,0,0,0,0,-1,1245,904,0,0
28,120,0,0,0,0,0,0,0,0,0,-1,1252,904,0,0
35,120,0,0,0,0,0,0,0,0,0,-1,1259,904,0,0
42,120,0,0,0,0,0,0,0,0,0,-1,1266,904,0,0
49,120,0,0,0,0,0,0,0,0,0,-1,1273,904,0,0
56,120,0,0,0,0,0,0,0,0,0,-1,1280,904,0,0
63,120,0,0,0,0,0,0,0,0,0,-1,1287,904,0,0
70,120,0,0,0,0,0,0,0,0,0,-1,1294,904,0,0
77,120,0,0,0,0,0,0,0,0,0,-1,1301,904,0,0
84,120,0,0,0,0,0,0,0,0,0,-1,1308,904,0,0
91,120,0,0,0,0,0,0,0,0,0,-1,1315,904,0,0
98,120,0,0,0,0,0,0,0,0,0,-1,1322,904,0,0
105,120,0,0,0,0,0,0,0,0,0,-1,1329,904,0,0
112,120,0,0,0,0,0,0,0,0,0,-1,1336,904,0,0
119,120,0,0,0,0,0,0,0,0,0,-1,1343,904,0,0
126,120,0,0,0,0,0,0,0,0,0,-1,1350,904,0,0
133,120,0,0,0,0,0,0,0,0,0,-1,1357,904,0,0
140,120,0,0,0,0,0,0,0,0,0,-1,1364,904,0,0
147,120,0,0,0,0,0,0,0,0,0,-1,1371,904,0,0
154,120,0,0,0,0,0,0,0,0,0,-1,1378,904,0,0
161,120,0,0,0,0,0,0,0,0,0,-1,1385,904,0,0
168,120,0,0,0,0,0,0,0,0,0,-1,1392,904,0,0
175,120,0,0,0,0,0,0,0,0,0,-1,1399,904,0,0
182,120,0,0,0,0,0,0,0,0,0,-1,1406,904,0,0
189,120,0,0,0,0,0,0,0,0,0,-1,1413,904,0,0
196,120,0,0,0,0,0,0,0,0,0,-1,1420,904,0,0
203,120,0,0,0,0,0,0,0,0,0,-1,1427,904,0,0
210,120,0,0,0,0,0,0,0,0,0,-1,1434,904,0,0
217,120,0,0,0,0,0,0,0,0,0,-1,1441,904,0,0
224,120,0,0,0,0,0,0,0,0,0,-1,1448,904,0,0
231,120,0,0,0,0,0,0,0,0,0,-1,1455,904,0,0
238,120,0,0,0,0,0,0,0,0,0,-1,1462,904,0,0
245,120,0,0,0,0,0,0,0,0,0,-1,1469,904,0,0
252,120,0,0,0,0,0,0,0,0,0,-1,1476,904,0,0
259,120,0,0,0,0,0,0,0,0,0,-1,1483,904,0,0
266,120,0,0,0,0,0,0,0,0,0,-1,1490,904,0,0
273,120,0,0,0,0,0,0,0,0,0,-1,1497,904,0,0
280,120,0,0,0,0,0,0,0,0,0,-1,1504,904,0,0
287,120,0,0,0,0,0,0,0,0,0,-1,1511,904,0,0
294,120,0,0,0,0,0,0,0,0,0,-1,1518,904,0,0
301,120,0,0,0,0,0,0,0,0,0,-1,1525,904,0,0
308,120,0,0,0,0,0,0,0,0,0,-1,1532,904,0,0
315,120,0,0,0,0,0,0,0,0,0,-1,1539,904,0,0
322,120,0,0,0,0,0,0,0,0,0,-1,1546,904,0,0
329,120,0,0,0,0,0,0,0,0,0,-1,1553,904,0,0
336,120,0,0,0,0,0,0,0,0,0,-1,1560,904,0,0
343,120,0,0,0,0,0,0,0,0,0,-1,1567,904,0,0
350,120,0,0,0,0,0,0,0,0,0,-1,1574,904,0,0
357,120,0,0,0,0,0,0,0,0,0,-1,1581,904,0,0
364,120,0,0,0,0,0,0,0,0,0,-1,1588,904,0,0
371,120,0,0,0,0,0,0,0,0,0,-1,1595,904,0,0
378,120,0,0,0,0,0,0,0,0,0,-1,1602,904,0,0
385,120,0,0,0,0,0,0,0,0,0,-1,1609,904,0,0
392,120,0,0,0,0,0,0,0,0,0,-1,1616,904,0,0
399,120,0,0,0,0,0,0,0,0,0,-1,1623,904,0,0
406,120,0,0,0,0,0,0,0,0,0,-1,1630,904,0,0
413,120,0,0,0,0,0,0,0,0,0,-1,1637,904,0,0
420,120,0,0,0,0,0,0,0,0,0,-1,1644,904,0,0
427,120,0,0,0,0,0,0,0,0,0,-1,1651,904,0,0
434,120,0,0,0,0,0,0,0,0,0,-1,1658,904,0,0
441,120,0,0,0,0,0,0,0,0,0,-1,1665,904,0,0
448,120,0,0,0,0,0,0,0,0,0,-1,1672,904,0,0
455,120,0,0,0,0,0,0,0,0,0,-1,1679,904,0,0
462,120,0,0,0,0,0,0,0,0,0,-1,1686,904,0,0
469,120,0,0,0,0,0,0,0,0,0,-1,1693,904,0,0
476,120,0,0,0,0,0,0,0,0,0,-1,1700,904,0,0
483,120,0,0,0,0,0,0,0,0,0,-1,1707,904,0,0
490,120,0,0,0,0,0,0,0,0,0,-1,1714,904,0,0
497,120,0,0,0,0,0,0,0,0,0,-1,1721,904,0,0
504,120,0,0,0,0,0,0,0,0,0,-1,1728,904,0,0
511,120,0,0,0,0,0,0,0,0,0,-1,1735,904,0,0
518,120,0,0,0,0,0,0,0,0,0,-1,1742,904,0,0
525,120,0,0,0,0,0,0,0,0,0,-1,1749,904,0,0
532,120,0,0,0,0,0,0,0,0,0,-1,1756,904,0,0
539,120,0,0,0,0,0,0,0,0,0,-1,1763,904,0,0
546,120,0,0,0,0,0,0,0,0,0,-1,1770,904,0,0
553,120,0,0,0,0,0,0,0,0,0,-1,1777,904,0,0
560,120,0,0,0,0,0,0,0,0,0,-1,1784,904,0,0
567,120,0,0,0,0,0,0,0,0,0,-1,1791,904,0,0
574,120,0,0,0,0,0,0,0,0,0,-1,1798,904,0,0
581,120,0,0,0,0,0,0,0,0,0,-1,1805,904,0,0
588,120,0,0,0,0,0,0,0,0,0,-1,1812,904,0,0
595,120,0,0,0,0,0,0,0,0,0,-1,1819,904,0,0
602,120,0,0,0,0,0,0,0,0,0,-1,1826,904,0,0
609,120,0,0,0,0,0,0,0,0,0,-1,1833,904,0,0
616,120,0,0,0,0,0,0,0,0,0,-1,1840,904,0,0
623,120,0,0,0,0,0,0,0,0,0,-1,1847,904,0,0
630,120,11.8422,1.84717,-0.00488813,-0.00192264,-0.00153506,-0.00127115,-0.00553962,-1.16943,0.00335072,0.0388691,1854,904,11.8421,-1.84717
637,120,11.8687,1.65088,-0.00313906,-0.00172751,-0.000422751,-0.00161058,-0.00325598,-1.30096,0.00187988,0.0403975,1861,904,11.8687,-1.65088
644,120,11.8561,1.37848,-0.00258453,-0.00167659,-3.17747e-05,-0.00167547,-0.00258564,-1.53586,0.00151446,0.0412852,1868,904,11.8561,-1.37851
651,120,11.7324,1.49634,-0.00320272,-0.00175951,-0.000212513,-0.00172887,-0.00323336,-1.42759,0.00186828,0.0425244,1875,904,11.7324,-1.49631
658,120,11.6996,1.70026,-0.00450995,-0.00184922,-0.000675883,-0.00168738,-0.00467179,-1.33577,0.00273169,0.04172,1882,904,11.6996,-1.70028
665,120,11.7466,1.84943,-0.00583199,-0.00190175,-0.00117041,-0.00157962,-0.00615412,-1.30221,0.00369067,0.0364923,1889,904,11.7465,-1.84941
672,120,11.7761,1.71802,-0.00690028,-0.00188841,-0.00155809,-0.00144352,-0.00734517,-1.29266,0.00449357,0.0331469,1896,904,11.7762,-1.71803
679,120,11.8027,1.65601,-0.00755559,-0.00184379,-0.00182206,-0.00131206,-0.00808733,-1.28685,0.00501178,0.0305943,1903,904,11.8027,-1.65599
686,120,11.808,1.67419,-0.00803393,-0.00179611,-0.00202363,-0.00119713,-0.00863291,-1.28302,0.00540064,0.0188758,1910,904,11.808,-1.67421
693,120,11.4858,1.70398,-0.00830172,-0.0014503,-0.00206593,-0.000875565,-0.00887645,-1.29946,0.00564845,0.0327009,1917,904,11.4859,-1.70399
700,120,10.908,1.74121,-0.00793591,-0.00132753,-0.00204865,-0.000743968,-0.00851948,-1.29329,0.00544862,0.0221511,1924,904,10.908,-1.74123
707,120,10.6464,1.81201,-0.00720805,-0.00109806,-0.00206577,-0.000465184,-0.00784093,-1.27351,0.00507933,0.0178489,1931,904,10.6464,-1.81204
714,120,10.6829,1.88092,-0.00618373,-0.000814904,-0.00197674,-0.000165616,-0.00683302,-1.25343,0.00450116,0.0146785,1938,904,10.6828,-1.88093
721,120,10.7048,1.96332,-0.00484765,-0.000463793,-0.00176683,0.000159638,-0.00547108,-1.23158,0.00370175,0.0128434,1945,904,10.7048,-1.96332
728,120,10.7269,2.05371,-0.00289997,1.04197e-05,-0.00170005,0.00079303,-0.00368258,-1.13937,0.00275767,0.00981554,1952,904,10.7269,-2.05374
735,120,10.7164,2.12927,-0.000145286,0.00156599,-0.0021394,0.00301451,-0.00159381,-0.975627,0.00270243,0.013091,1959,904,10.7164,-2.12927
742,120,10.7123,2.20264,0.00276754,0.0050587,-0.00281014,0.00694779,0.000878442,-0.978944,0.00436859,0.0135521,1966,904,10.7123,-2.20266
749,120,10.6893,2.25232,0.00575051,0.00856492,-0.00390574,0.0113092,0.00300621,-0.958305,0.00676389,0.0110318,1973,904,10.6893,-2.25229
756,120,10.6885,2.30615,0.00865898,0.0133518,-0.00546892,0.0169564,0.00505435,-0.988044,0.0100524,0.0131911,1980,904,10.6885,-2.30617
763,120,10.6711,2.33539,0.0114237,0.0198885,-0.007574,0.0243324,0.00697976,-1.04019,0.0144676,0.0206931,1987,904,10.6712,-2.33539
770,120,10.6852,2.3219,0.014134,0.0288113,-0.0102263,0.0340597,0.00888564,-1.09663,0.0204002,0.04071,1994,904,10.6852,-2.32191
777,120,10.7061,0.780212,0.0169566,0.0407905,-0.0134313,0.0468295,0.0109177,-1.14826,0.0282916,0.0492652,2001,904,10.7061,-0.78023
784,120,10.5404,0.419739,0.0197483,0.0567021,-0.0171829,0.0634571,0.0129933,-1.19623,0.0387075,0.048957,2008,904,10.5404,-0.419751
791,120,10.6161,-0.02771,0.0221725,0.077649,-0.0214193,0.0849564,0.0148651,-1.24202,0.0523903,0.0429775,2015,904,10.616,0.0277235
798,120,10.8137,-0.299194,0,0,0,0,0,0,0,-1,2022,904,10.8137,0.299185
805,120,0,0,0,0,0,0,0,0,0,-1,2029,904,0,0
812,120,0,0,0,0,0,0,0,0,0,-1,2036,904,0,0
-700,113,0,0,0,0,0,0,0,0,0,-1,524,911,0,0
-693,113,0,0,0,0,0,0,0,0,0,-1,531,911,0,0
-686,113,0,0,0,0,0,0,0,0,0,-1,538,911,0,0
-679,113,-6.27594,-0.631409,0,0,0,0,0,0,0,-1,545,911,-6.27595,0.631399
-672,113,-4.75836,-1.18286,0,0,0,0,0,0,0,-1,552,911,-4.75837,1.18284
-665,113,-4.65887,-0.787292,-0.00659234,-0.0067361,2.1534e-05,-0.00658918,-0.00673925,0.145534,0.00444366,0.0439617,559,911,-4.65887,0.787273
-658,113,-4.7254,-0.555115,-0.00772941,-0.00380422,0.000513999,-0.00373803,-0.0077956,1.44272,0.00450205,0.041012,566,911,-4.72542,0.555118
-651,113,-5.30969,0.457703,-0.00776414,-0.00172573,0.000907275,-0.00159236,-0.00789751,1.42484,0.00482266,0.0452825,573,911,-5.30971,-0.457712
-644,113,-5.37695,0.730225,-0.00713066,-0.000364005,0.00116138,-0.000170223,-0.00732444,1.40546,0.00482722,0.0424501,580,911,-5.37697,-0.730244
-637,113,-5.38312,1.02411,-0.00616123,0.00043031,0.00126772,0.000665717,-0.00639664,1.38719,0.00450276,0.0336415,587,911,-5.38309,-1.0241
-630,113,-5.37744,1.04138,-0.00505628,0.000699692,0.00105074,0.000885504,-0.00524209,1.39577,0.00382422,0.0154383,594,911,-5.37744,-1.04139
-623,113,-5.38928,0.988281,-0.004387,0.00143931,0.00129871,0.00171568,-0.00466338,1.36111,0.00381177,0.0102234,601,911,-5.38927,-0.988295
-616,113,-5.38525,0.926331,-0.00418067,0.00125493,0.00129998,0.00154984,-0.00447557,1.34772,0.00361289,0.00955961,608,911,-5.38527,-0.926302
-609,113,-5.39618,0.887573,-0.00429913,0.000643677,0.00143575,0.00103046,-0.00468591,1.30765,0.00351809,0.0107027,615,911,-5.39619,-0.887559
-602,113,-5.41034,0.859131,-0.00437548,0.00049009,0.00186087,0.00112019,-0.00500558,1.24431,0.00376639,0.0134919,622,911,-5.41032,-0.859133
-595,113,-5.43842,0.818909,-0.0048657,-0.00019291,0.0017116,0.000366952,-0.00542556,1.25467,0.00374535,0.016175,629,911,-5.4384,-0.8189
-588,113,-5.41827,0.745728,-0.00574104,-0.000698794,0.00183131,-0.000103871,-0.00633596,1.25669,0.00418978,0.0164584,636,911,-5.41826,-0.745711
-581,113,-5.41486,0.672607,-0.0066802,-0.000897675,0.00210941,-0.000209968,-0.00736791,1.25564,0.00484346,0.0174627,643,911,-5.41485,-0.672621
-574,113,-5.35492,0.569336,-0.0076051,-0.00108374,0.00229613,-0.000356403,-0.00833243,1.26403,0.00544005,0.0170795,650,911,-5.35494,-0.569339
-567,113,-5.59888,0.532715,-0.00816451,-0.00116911,0.00228741,-0.000487556,-0.00884606,1.28121,0.00574176,0.0331049,657,911,-5.59889,-0.532719
-560,113,-6.09344,0.579712,-0.0081225,-0.00114253,0.00216701,-0.000524479,-0.00874055,1.29297,0.00566031,0.0491358,664,911,-6.09343,-0.579714
-553,113,-6.08356,0.852356,-0.00781431,-0.00104345,0.00192233,-0.00053575,-0.00832201,1.31258,0.00537833,0.0373983,671,911,-6.08355,-0.852344
-546,113,-6.05078,0.60022,-0.00695952,-0.000818245,0.00143825,-0.000498105,-0.00727966,1.35178,0.00469589,0.0317725,678,911,-6.05078,-0.60019
-539,113,-5.97705,0.679504,-0.00540929,-0.00045301,0.000663625,-0.000365692,-0.00549661,1.43997,0.0035488,0.0345076,685,911,-5.97707,-0.679486
-532,113,-5.99194,0.750183,-0.00310697,6.60354e-05,-0.000436371,0.000124954,-0.00316588,-1.43659,0.00215345,0.0379883,692,911,-5.99194,-0.750156
-525,113,-6.09161,0.850891,5.77494e-06,0.000747575,-0.00191376,0.00232605,-0.0015727,-0.881115,0.00226491,0.0387388,699,911,-6.09164,-0.85088
-518,113,-6.15265,0.836426,0.0037527,0.00158903,-0.00372198,0.00654688,-0.00120514,-0.643964,0.00481682,0.0403843,706,911,-6.15262,-0.836447
-511,113,-6.17969,0.52301,0.00715273,0.00261678,-0.00550042,0.0108344,-0.00106489,-0.589854,0.0076028,0.0412446,713,911,-6.17969,-0.522991
-504,113,0,0,0,0,0,0,0,0,0,-1,720,911,0,0
-497,113,0,0,0,0,0,0,0,0,0,-1,727,911,0,0
-490,113,0,0,0,0,0,0,0,0,0,-1,734,911,0,0
-483,113,0,0,0,0,0,0,0,0,0,-1,741,911,0,0
-476,113,0,0,0,0,0,0,0,0,0,-1,748,911,0,0
-469,113,0,0,0,0,0,0,0,0,0,-1,755,911,0,0
-462,113,0,0,0,0,0,0,0,0,0,-1,762,911,0,0
-455,113,0,0,0,0,0,0,0,0,0,-1,769,911,0,0
-448,113,0,0,0,0,0,0,0,0,0,-1,776,911,0,0
-441,113,0,0,0,0,0,0,0,0,0,-1,783,911,0,0
-434,113,0,0,0,0,0,0,0,0,0,-1,790,911,0,0
-427,113,0,0,0,0,0,0,0,0,0,-1,797,911,0,0
-420,113,0,0,0,0,0,0,0,0,0,-1,804,911,0,0
-413,113,0,0,0,0,0,0,0,0,0,-1,811,911,0,0
-406,113,0,0,0,0,0,0,0,0,0,-1,818,911,0,0
-399,113,0,0,0,0,0,0,0,0,0,-1,825,911,0,0
-392,113,0,0,0,0,0,0,0,0,0,-1,832,911,0,0
-385,113,0,0,0,0,0,0,0,0,0,-1,839,911,0,0
-378,113,0,0,0,0,0,0,0,0,0,-1,846,911,0,0
-371,113,0,0,0,0,0,0,0,0,0,-1,853,911,0,0
-364,113,0,0,0,0,0,0,0,0,0,-1,860,911,0,0
-357,113,0,0,0,0,0,0,0,0,0,-1,867,911,0,0
-350,113,0,0,0,0,0,0,0,0,0,-1,874,911,0,0
-343,113,0,0,0,0,0,0,0,0,0,-1,881,911,0,0
-336,113,0,0,0,0,0,0,0,0,0,-1,888,911,0,0
-329,113,0,0,0,0,0,0,0,0,0,-1,895,911,0,0
-322,113,0,0,0,0,0,0,0,0,0,-1,902,911,0,0
-315,113,0,0,0,0,0,0,0,0,0,-1,909,911,0,0
-308,113,0,0,0,0,0,0,0,0,0,-1,916,911,0,0
-301,113,0,0,0,0,0,0,0,0,0,-1,923,911,0,0
-294,113,0,0,0,0,0,0,0,0,0,-1,930,911,0,0
-287,113,0,0,0,0,0,0,0,0,0,-1,937,911,0,0
-280,113,0,0,0,0,0,0,0,0,0,-1,944,911,0,0
-273,113,0,0,0,0,0,0,0,0,0,-1,951,911,0,0
-266,113,0,0,0,0,0,0,0,0,0,-1,958,911,0,0
-259,113,0,0,0,0,0,0,0,0,0,-1,965,911,0,0
-252,113,0,0,0,0,0,0,0,0,0,-1,972,911,0,0
-245,113,0,0,0,0,0,0,0,0,0,-1,979,911,0,0
-238,113,0,0,0,0,0,0,0,0,0,-1,986,911,0,0
-231,113,0,0,0,0,0,0,0,0,0,-1,993,911,0,0
-224,113,0,0,0,0,0,0,0,0,0,-1,1000,911,0,0
-217,113,0,0,0,0,0,0,0,0,0,-1,1007,911,0,0
-210,113,0,0,0,0,0,0,0,0,0,-1,1014,911,0,0
-203,113,0,0,0,0,0,0,0,0,0,-1,1021,911,0,0
-196,113,0,0,0,0,0,0,0,0,0,-1,1028,911,0,0
-189,113,0,0,0,0,0,0,0,0,0,-1,1035,911,0,0
-182,113,0,0,0,0,0,0,0,0,0,-1,1042,911,0,0
-175,113,0,0,0,0,0,0,0,0,0,-1,1049,911,0,0
-168,113,0,0,0,0,0,0,0,0,0,-1,1056,911,0,0
-161,113,0,0,0,0,0,0,0,0,0,-1,1063,911,0,0
-154,113,0,0,0,0,0,0,0,0,0,-1,1070,911,0,0
-147,113,0,0,0,0,0,0,0,0,0,-1,1077,911,0,0
-140,113,0,0,0,0,0,0,0,0,0,-1,1084,911,0,0
-133,113,0,0,0,0,0,0,0,0,0,-1,1091,911,0,0
-126,113,0,0,0,0,0,0,0,0,0,-1,1098,911,0,0
-119,113,0,0,0,0,0,0,0,0,0,-1,1105,911,0,0
-112,113,0,0,0,0,0,0,0,0,0,-1,1112,911,0,0
-105,113,0,0,0,0,0,0,0,0,0,-1,1119,911,0,0
-98,113,0,0,0,0,0,0,0,0,0,-1,1126,911,0,0
-91,113,0,0,0,0,0,0,0,0,0,-1,1133,911,0,0
-84,113,0,0,0,0,0,0,0,0,0,-1,1140,911,0,0
-77,113,0,0,0,0,0,0,0,0,0,-1,1147,911,0,0
-70,113,0,0,0,0,0,0,0,0,0,-1,1154,911,0,0
-63,113,0,0,0,0,0,0,0,0,0,-1,1161,911,0,0
-56,113,0,0,0,0,0,0,0,0,0,-1,1168,911,0,0
-49,113,0,0,0,0,0,0,0,0,0,-1,1175,911,0,0
-42,113,0,0,0,0,0,0,0,0,0,-1,1182,911,0,0
-35,113,0,0,0,0,0,0,0,0,0,-1,1189,911,0,0
-28,113,0,0,0,0,0,0,0,0,0,-1,1196,911,0,0
-21,113,0,0,0,0,0,0,0,0,0,-1,1203,911,0,0
-14,113,0,0,0,0,0,0,0,0,0,-1,1210,911,0,0
-7,113,0,0,0,0,0,0,0,0,0,-1,1217,911,0,0
0,113,0,0,0,0,0,0,0,0,0,-1,1224,911,0,0
7,113,0,0,0,0,0,0,0,0,0,-1,1231,911,0,0
14,113,0,0,0,0,0,0,0,0,0,-1,1238,911,0,0
21,113,0,0,0,0,0,0,0,0,0,-1,1245,911,0,0
28,113,0,0,0,0,0,0,0,0,0,-1,1252,911,0,0
35,113,0,0,0,0,0,0,0,0,0,-1,1259,911,0,0
42,113,0,0,0,0,0,0,0,0,0,-1,1266,911,0,0
49,113,0,0,0,0,0,0,0,0,0,-1,1273,911,0,0
56,113,0,0,0,0,0,0,0,0,0,-1,1280,911,0,0
63,113,0,0,0,0,0,0,0,0,0,-1,1287,911,0,0
70,113,0,0,0,0,0,0,0,0,0,-1,1294,911,0,0
77,113,0,0,0,0,0,0,0,0,0,-1,1301,911,0,0
84,113,0,0,0,0,0,0,0,0,0,-1,1308,911,0,0
91,113,0,0,0,0,0,0,0,0,0,-1,1315,911,0,0
98,113,0,0,0,0,0,0,0,0,0,-1,1322,911,0,0
105,113,0,0,0,0,0,0,0,0,0,-1,1329,911,0,0
112,113,0,0,0,0,0,0,0,0,0,-1,1336,911,0,0
119,113,0,0,0,0,0,0,0,0,0,-1,1343,911,0,0
126,113,0,0,0,0,0,0,0,0,0,-1,1350,911,0,0
133,113,0,0,0,0,0,0,0,0,0,-1,1357,911,0,0
140,113,0,0,0,0,0,0,0,0,0,-1,1364,911,0,0
147,113,0,0,0,0,0,0,0,0,0,-1,1371,911,0,0
154,113,0,0,0,0,0,0,0,0,0,-1,1378,911,0,0
161,113,0,0,0,0,0,0,0,0,0,-1,1385,911,0,0
168,113,0,0,0,0,0,0,0,0,0,-1,1392,911,0,0
175,113,0,0,0,0,0,0,0,0,0,-1,1399,911,0,0
182,113,0,0,0,0,0,0,0,0,0,-1,1406,911,0,0
189,113,0,0,0,0,0,0,0,0,0,-1,1413,911,0,0
196,113,0,0,0,0,0,0,0,0,0,-1,1420,911,0,0
203,113,0,0,0,0,0,0,0,0,0,-1,1427,911,0,0
210,113,0,0,0,0,0,0,0,0,0,-1,1434,911,0,0
217,113,0,0,0,0,0,0,0,0,0,-1,1441,911,0,0
224,113,0,0,0,0,0,0,0,0,0,-1,1448,911,0,0
231,113,0,0,0,0,0,0,0,0,0,-1,1455,911,0,0
238,113,0,0,0,0,0,0,0,0,0,-1,1462,911,0,0
245,113,0,0,0,0,0,0,0,0,0,-1,1469,911,0,0
252,113,0,0,0,0,0,0,0,0,0,-1,1476,911,0,0
259,113,0,0,0,0,0,0,0,0,0,-1,1483,911,0,0
266,113,0,0,0,0,0,0,0,0,0,-1,1490,911,0,0
273,113,0,0,0,0,0,0,0,0,0,-1,1497,911,0,0
280,113,0,0,0,0,0,0,0,0,0,-1,1504,911,0,0
287,113,0,0,0,0,0,0,0,0,0,-1,1511,911,0,0
294,113,0,0,0,0,0,0,0,0,0,-1,1518,911,0,0
301,113,0,0,0,0,0,0,0,0,0,-1,1525,911,0,0
308,113,0,0,0,0,0,0,0,0,0,-1,1532,911,0,0
315,113,0,0,0,0,0,0,0,0,0,-1,1539,911,0,0
322,113,0,0,0,0,0,0,0,0,0,-1,1546,911,0,0
329,113,0,0,0,0,0,0,0,0,0,-1,1553,911,0,0
336,113,0,0,0,0,0,0,0,0,0,-1,1560,911,0,0
343,113,0,0,0,0,0,0,0,0,0,-1,1567,911,0,0
350,113,0,0,0,0,0,0,0,0,0,-1,1574,911,0,0
357,113,0,0,0,0,0,0,0,0,0,-1,1581,911,0,0
364,113,0,0,0,0,0,0,0,0,0,-1,1588,911,0,0
371,113,0,0,0,0,0,0,0,0,0,-1,1595,911,0,0
378,113,0,0,0,0,0,0,0,0,0,-1,1602,911,0,0
385,113,0,0,0,0,0,0,0,0,0,-1,1609,911,0,0
392,113,0,0,0,0,0,0,0,0,0,-1,1616,911,0,0
399,113,0,0,0,0,0,0,0,0,0,-1,1623,911,0,0
406,113,0,0,0,0,0,0,0,0,0,-1,1630,911,0,0
413,113,0,0,0,0,0,0,0,0,0,-1,1637,911,0,0
420,113,0,0,0,0,0,0,0,0,0,-1,1644,911,0,0
427,113,0,0,0,0,0,0,0,0,0,-1,1651,911,0,0
434,113,0,0,0,0,0,0,0,0,0,-1,1658,911,0,0
441,113,0,0,0,0,0,0,0,0,0,-1,1665,911,0,0
448,113,0,0,0,0,0,0,0,0,0,-1,1672,911,0,0
455,113,0,0,0,0,0,0,0,0,0,-1,1679,911,0,0
462,113,0,0,0,0,0,0,0,0,0,-1,1686,911,0,0
469,113,0,0,0,0,0,0,0,0,0,-1,1693,911,0,0
476,113,0,0,0,0,0,0,0,0,0,-1,1700,911,0,0
483,113,0,0,0,0,0,0,0,0,0,-1,1707,911,0,0
490,113,0,0,0,0,0,0,0,0,0,-1,1714,911,0,0
497,113,0,0,0,0,0,0,0,0,0,-1,1721,911,0,0
504,113,0,0,0,0,0,0,0,0,0,-1,1728,911,0,0
511,113,0,0,0,0,0,0,0,0,0,-1,1735,911,0,0
518,113,0,0,0,0,0,0,0,0,0,-1,1742,911,0,0
525,113,0,0,0,0,0,0,0,0,0,-1,1749,911,0,0
532,113,0,0,0,0,0,0,0,0,0,-1,1756,911,0,0
539,113,0,0,0,0,0,0,0,0,0,-1,1763,911,0,0
546,113,0,0,0,0,0,0,0,0,0,-1,1770,911,0,0
553,113,0,0,0,0,0,0,0,0,0,-1,1777,911,0,0
560,113,0,0,0,0,0,0,0,0,0,-1,1784,911,0,0
567,113,0,0,0,0,0,0,0,0,0,-1,1791,911,0,0
574,113,0,0,0,0,0,0,0,0,0,-1,1798,911,0,0
581,113,0,0,0,0,0,0,0,0,0,-1,1805,911,0,0
588,113,0,0,0,0,0,0,0,0,0,-1,1812,911,0,0
595,113,0,0,0,0,0,0,0,0,0,-1,1819,911,0,0
602,113,0,0,0,0,0,0,0,0,0,-1,1826,911,0,0
609,113,0,0,0,0,0,0,0,0,0,-1,1833,911,0,0
616,113,0,0,0,0,0,0,0,0,0,-1,1840,911,0,0
623,113,0,0,0,0,0,0,0,0,0,-1,1847,911,0,0
630,113,11.8174,1.67499,-0.00598112,-0.00197885,-0.000913962,-0.00178002,-0.00617995,-1.35658,0.00367332,0.0399227,1854,911,11.8174,-1.67496
637,113,11.8212,1.71521,-0.00392771,-0.00177691,0.000153051,-0.00176608,-0.00393855,1.50011,0.00227795,0.0391438,1861,911,11.8212,-1.71519
644,113,11.8696,1.71234,-0.00281453,-0.00167391,0.000508271,-0.00148028,-0.00300815,1.20683,0.00173683,0.0407873,1868,911,11.8697,-1.71232
651,113,11.7723,1.68372,-0.002918,-0.00171361,0.000288857,-0.00164791,-0.00298369,1.34717,0.00172578,0.0434046,1875,911,11.7723,-1.68373
658,113,11.7368,1.62341,-0.00391068,-0.00175409,-0.000237865,-0.00172816,-0.0039366,-1.46224,0.00227843,0.0424929,1882,911,11.7368,-1.62343
665,113,11.8462,1.69379,-0.00511811,-0.00176044,-0.000800378,-0.00157941,-0.00529914,-1.34836,0.00314154,0.0377505,1889,911,11.8462,-1.69376
672,113,11.838,1.7439,-0.00615728,-0.00172027,-0.00125615,-0.00138933,-0.00648822,-1.31319,0.00394478,0.0357501,1896,911,11.838,-1.74389
679,113,11.7802,1.59167,-0.00687176,-0.00167609,-0.00156552,-0.00124085,-0.00730701,-1.29962,0.00451492,0.0298377,1903,911,11.7801,-1.59168
686,113,11.7762,1.60583,-0.00743406,-0.00161674,-0.00179833,-0.00110571,-0.00794509,-1.29392,0.00496933,0.0260187,1910,911,11.7762,-1.60583
693,113,11.6804,1.66022,0,0,0,0,0,0,0,-1,1917,911,11.6804,-1.66022
700,113,11.2065,1.73755,-0.00757989,-0.00114135,-0.00187086,-0.000637208,-0.00808403,-1.30758,0.00519001,0.031264,1924,911,11.2066,-1.73753
707,113,10.7521,1.81177,-0.00706704,-0.000923197,-0.00193179,-0.000366274,-0.00762397,-1.29011,0.00496506,0.0194391,1931,911,10.752,-1.81177
714,113,10.7482,1.87103,-0.00629499,-0.000682105,-0.0018692,-0.000116601,-0.0068605,-1.27701,0.0045353,0.015288,1938,911,10.7481,-1.87105
721,113,10.7726,1.96094,-0.0052637,-0.000397139,-0.00175838,0.000171704,-0.00583254,-1.25792,0.00394684,0.0152974,1945,911,10.7726,-1.96094
728,113,10.8004,2.05865,-0.00366815,-4.53396e-05,-0.00191339,0.000778072,-0.00449156,-1.16441,0.0032846,0.0152709,1952,911,10.8004,-2.05863
735,113,10.7881,2.11902,-0.00138265,0.00107587,-0.00270151,0.00281464,-0.00312143,-0.998911,0.00342872,0.0154956,1959,911,10.7881,-2.11901
742,113,10.7859,2.18201,0.000996572,0.00394085,-0.00376258,0.00650904,-0.00157161,-0.971872,0.00494715,0.0129297,1966,911,10.7859,-2.18199
749,113,10.7694,2.24976,0.00348816,0.00676171,-0.0054177,0.0107845,-0.000534615,-0.932097,0.00737433,0.00952694,1973,911,10.7694,-2.24974
756,113,10.7743,2.30359,0.00583722,0.0106081,-0.00773287,0.0163151,0.000130235,-0.935008,0.0108336,0.0108795,1980,911,10.7743,-2.30359
763,113,10.7465,2.3855,0.00794886,0.0158716,-0.0107553,0.0233718,0.000448646,-0.961849,0.0154338,0.0188818,1987,911,10.7464,-2.38547
770,113,10.6807,2.48663,0.00980192,0.0230896,-0.0145486,0.0324396,0.000451991,-0.999591,0.0214773,0.040098,1994,911,10.6807,-2.48666
777,113,10.6417,2.56049,0.011552,0.0327701,-0.0191298,0.0440358,0.000286402,-1.03858,0.0292622,0.0479807,2001,911,10.6417,-2.56049
784,113,10.49,-0.267517,0.0130721,0.0456325,-0.0245056,0.0587728,-6.82939e-05,-1.0786,0.0392047,0.0468146,2008,911,10.49,0.267543
791,113,10.3651,-0.886475,0.0140238,0.0625497,-0.0306091,0.0773458,-0.000772312,-1.12053,0.0518232,0.0438838,2015,911,10.3652,0.886497
798,113,10.2968,-1.5105,0.0138072,0.084685,-0.0371613,0.100597,-0.00210444,-1.16624,0.0677768,0.046345,2022,911,10.2967,1.5105
805,113,0,0,0,0,0,0,0,0,0,-1,2029,911,0,0
812,113,0,0,0,0,0,0,0,0,0,-1,2036,911,0,0
-700,106,0,0,0,0,0,0,0,0,0,-1,524,918,0,0
-693,106,0,0,0,0,0,0,0,0,0,-1,531,918,0,0
-686,106,0,0,0,0,0,0,0,0,0,-1,538,918,0,0
-679,106,-5.55212,-0.0778198,-0.00385144,-0.0224521,9.17649e-05,-0.00385099,-0.0224526,0.00493325,0.0138642,0.0457563,545,918,-5.55213,0.0778212
-672,106,-4.96613,-0.221252,-0.00818063,-0.0172558,-0.000684667,-0.00812927,-0.0173072,-0.0748791,0.00999841,0.0487957,552,918,-4.96612,0.221273
-665,106,-4.89685,-0.0383301,-0.0100755,-0.0126312,-0.000794293,-0.00984879,-0.0128579,-0.278077,0.00776572,0.0459181,559,918,-4.89682,0.0383248
-658,106,-4.97784,0.0638428,-0.0104106,-0.00874793,-0.000555885,-0.0085792,-0.0105793,-1.2761,0.00648974,0.0414275,566,918,-4.97784,-0.0638683
-651,106,-5.44897,0.415222,-0.00975865,-0.00566597,-0.000188289,-0.00565733,-0.0097673,-1.52492,0.00566269,0.041586,573,918,-5.44895,-0.415245
-644,106,-5.49329,0.756409,-0.00855341,-0.00335835,0.000177254,-0.00335231,-0.00855945,1.53673,0.00498033,0.0395738,580,918,-5.49328,-0.756431
-637,106,-5.42871,1.04895,-0.00712646,-0.00174623,0.000459492,-0.00170727,-0.00716542,1.48621,0.00432177,0.0271278,587,918,-5.4287,-1.04892
-630,106,-5.44812,1.03503,-0.00574487,-0.000911998,0.000379128,-0.000882437,-0.00577443,1.49298,0.00359179,0.0116852,594,918,-5.44813,-1.03504
-623,106,-5.43878,0.99176,-0.00492215,0.000367834,0.000809803,0.000489024,-0.00504334,1.42224,0.00353652,0.0104671,601,918,-5.43881,-0.991746
-616,106,-5.43231,0.926697,-0.00454644,0.000615568,0.00095453,0.000786419,-0.00471729,1.39368,0.00343712,0.010506,608,918,-5.4323,-0.926706
-609,106,-5.45459,0.87616,-0.00453417,0.000356739,0.00119429,0.000632785,-0.00481022,1.34365,0.00343721,0.0101696,615,918,-5.45456,-0.876151
-602,106,-5.46326,0.827087,-0.00445573,0.000479353,0.00175471,0.00103964,-0.00501602,1.26172,0.00373905,0.0110459,622,918,-5.46323,-0.827063
-595,106,-5.50464,0.779419,-0.00482274,-7.55369e-05,0.00165903,0.000446785,-0.00534507,1.26579,0.00372126,0.0141895,629,918,-5.50463,-0.779432
-588,106,-5.49561,0.719299,-0.0056076,-0.000575395,0.00171975,-4.3822e-05,-0.00613917,1.27101,0.00407825,0.0148436,636,918,-5.49557,-0.719315
-581,106,-5.44067,0.653687,-0.00643417,-0.000770446,0.00189578,-0.000194459,-0.00701016,1.27583,0.00460998,0.0129211,643,918,-5.44064,-0.65368
-574,106,-5.44458,0.607788,-0.00722788,-0.000939543,0.00200569,-0.000354289,-0.00781314,1.28688,0.00509477,0.0155251,650,918,-5.44455,-0.607771
-567,106,-5.72424,0.632019,-0.00771515,-0.000999945,0.0019498,-0.000474866,-0.00824023,1.30774,0.00534224,0.0289956,657,918,-5.72425,-0.632007
-560,106,-6.03778,0.66925,-0.007621,-0.000982027,0.00179388,-0.000528321,-0.00807471,1.32307,0.00521596,0.0365669,664,918,-6.03778,-0.66922
-553,106,-6.12024,0.672241,-0.00725985,-0.000931764,0.00150001,-0.000594207,-0.00759741,1.34945,0.00487895,0.0349977,671,918,-6.12024,-0.672251
-546,106,-6.13226,0.461426,-0.00639704,-0.000755314,0.000971416,-0.000592737,-0.00655962,1.40497,0.0041895,0.0362061,678,918,-6.13225,-0.461452
-539,106,-5.98712,0.59552,-0.00494165,-0.000462158,0.000165371,-0.000456061,-0.00494775,1.53395,0.00315748,0.0395253,685,918,-5.98714,-0.595528
-532,106,-6.04755,0.72406,-0.00287562,-3.72703e-05,-0.000953264,0.000253165,-0.00316606,-1.27506,0.00219996,0.0408763,692,918,-6.04758,-0.724042
-525,106,-6.16394,0.763245,-0.00019999,0.000529558,-0.00243466,0.00262662,-0.00229705,-0.859758,0.00284481,0.0382372,699,918,-6.16391,-0.763217
-518,106,-6.18701,0.720825,0.0027224,0.00124434,-0.00421583,0.00626348,-0.00229674,-0.698631,0.00511607,0.0380019,706,918,-6.18702,-0.720824
-511,106,0,0,0,0,0,0,0,0,0,-1,713,918,0,0
-504,106,0,0,0,0,0,0,0,0,0,-1,720,918,0,0
-497,106,0,0,0,0,0,0,0,0,0,-1,727,918,0,0
-490,106,0,0,0,0,0,0,0,0,0,-1,734,918,0,0
-483,106,0,0,0,0,0,0,0,0,0,-1,741,918,0,0
-476,106,0,0,0,0,0,0,0,0,0,-1,748,918,0,0
-469,106,0,0,0,0,0,0,0,0,0,-1,755,918,0,0
-462,106,0,0,0,0,0,0,0,0,0,-1,762,918,0,0
-455,106,0,0,0,0,0,0,0,0,0,-1,769,918,0,0
-448,106,0,0,0,0,0,0,0,0,0,-1,776,918,0,0
-441,106,0,0,0,0,0,0,0,0,0,-1,783,918,0,0
-434,106,0,0,0,0,0,0,0,0,0,-1,790,918,0,0
-427,106,0,0,0,0,0,0,0,0,0,-1,797,918,0,0
-420,106,0,0,0,0,0,0,0,0,0,-1,804,918,0,0
-413,106,0,0,0,0,0,0,0,0,0,-1,811,918,0,0
-406,106,0,0,0,0,0,0,0,0,0,-1,818,918,0,0
-399,106,0,0,0,0,0,0,0,0,0,-1,825,918,0,0
-392,106,0,0,0,0,0,0,0,0,0,-1,832,918,0,0
-385,106,0,0,0,0,0,0,0,0,0,-1,839,918,0,0
-378,106,0,0,0,0,0,0,0,0,0,-1,846,918,0,0
-371,106,0,0,0,0,0,0,0,0,0,-1,853,918,0,0
-364,106,0,0,0,0,0,0,0,0,0,-1,860,918,0,0
-357,106,0,0,0,0,0,0,0,0,0,-1,867,918,0,0
-350,106,0,0,0,0,0,0,0,0,0,-1,874,918,0,0
-343,106,0,0,0,0,0,0,0,0,0,-1,881,918,0,0
-336,106,0,0,0,0,0,0,0,0,0,-1,888,918,0,0
-329,106,0,0,0,0,0,0,0,0,0,-1,895,918,0,0
-322,106,0,0,0,0,0,0,0,0,0,-1,902,918,0,0
-315,106,0,0,0,0,0,0,0,0,0,-1,909,918,0,0
-308,106,0,0,0,0,0,0,0,0,0,-1,916,918,0,0
-301,106,0,0,0,0,0,0,0,0,0,-1,923,918,0,0
-294,106,0,0,0,0,0,0,0,0,0,-1,930,918,0,0
-287,106,0,0,0,0,0,0,0,0,0,-1,937,918,0,0
-280,106,0,0,0,0,0,0,0,0,0,-1,944,918,0,0
-273,106,0,0,0,0,0,0,0,0,0,-1,951,918,0,0
-266,106,0,0,0,0,0,0,0,0,0,-1,958,918,0,0
-259,106,0,0,0,0,0,0,0,0,0,-1,965,918,0,0
-252,106,0,0,0,0,0,0,0,0,0,-1,972,918,0,0
-245,106,0,0,0,0,0,0,0,0,0,-1,979,918,0,0
-238,106,0,0,0,0,0,0,0,0,0,-1,986,918,0,0
-231,106,0,0,0,0,0,0,0,0,0,-1,993,918,0,0
-224,106,0,0,0,0,0,0,0,0,0,-1,1000,918,0,0
-217,106,0,0,0,0,0,0,0,0,0,-1,1007,918,0,0
-210,106,0,0,0,0,0,0,0,0,0,-1,1014,918,0,0
-203,106,0,0,0,0,0,0,0,0,0,-1,1021,918,0,0
-196,106,0,0,0,0,0,0,0,0,0,-1,1028,918,0,0
-189,106,0,0,0,0,0,0,0,0,0,-1,1035,918,0,0
-182,106,0,0,0,0,0,0,0,0,0,-1,1042,918,0,0
-175,106,0,0,0,0,0,0,0,0,0,-1,1049,918,0,0
-168,106,0,0,0,0,0,0,0,0,0,-1,1056,918,0,0
-161,106,0,0,0,0,0,0,0,0,0,-1,1063,918,0,0
-154,106,0,0,0,0,0,0,0,0,0,-1,1070,918,0,0
-147,106,0,0,0,0,0,0,0,0,0,-1,1077,918,0,0
-140,106,0,0,0,0,0,0,0,0,0,-1,1084,918,0,0
-133,106,0,0,0,0,0,0,0,0,0,-1,1091,918,0,0
-126,106,0,0,0,0,0,0,0,0,0,-1,1098,918,0,0
-119,106,0,0,0,0,0,0,0,0,0,-1,1105,918,0,0
-112,106,0,0,0,0,0,0,0,0,0,-1,1112,918,0,0
-105,106,0,0,0,0,0,0,0,0,0,-1,1119,918,0,0
-98,106,0,0,0,0,0,0,0,0,0,-1,1126,918,0,0
-91,106,0,0,0,0,0,0,0,0,0,-1,1133,918,0,0
-84,106,0,0,0,0,0,0,0,0,0,-1,1140,918,0,0
-77,106,0,0,0,0,0,0,0,0,0,-1,1147,918,0,0
-70,106,0,0,0,0,0,0,0,0,0,-1,1154,918,0,0
-63,106,0,0,0,0,0,0,0,0,0,-1,1161,918,0,0
-56,106,0,0,0,0,0,0,0,0,0,-1,1168,918,0,0
-49,106,0,0,0,0,0,0,0,0,0,-1,1175,918,0,0
-42,106,0,0,0,0,0,0,0,0,0,-1,1182,918,0,0
-35,106,0,0,0,0,0,0,0,0,0,-1,1189,918,0,0
-28,106,0,0,0,0,0,0,0,0,0,-1,1196,918,0,0
-21,106,0,0,0,0,0,0,0,0,0,-1,1203,918,0,0
-14,106,0,0,0,0,0,0,0,0,0,-1,1210,918,0,0
-7,106,0,0,0,0,0,0,0,0,0,-1,1217,918,0,0
0,106,0,0,0,0,0,0,0,0,0,-1,1224,918,0,0
7,106,0,0,0,0,0,0,0,0,0,-1,1231,918,0,0
14,106,0,0,0,0,0,0,0,0,0,-1,1238,918,0,0
21,106,0,0,0,0,0,0,0,0,0,-1,1245,918,0,0
28,106,0,0,0,0,0,0,0,0,0,-1,1252,918,0,0
35,106,0,0,0,0,0,0,0,0,0,-1,1259,918,0,0
42,106,0,0,0,0,0,0,0,0,0,-1,1266,918,0,0
49,106,0,0,0,0,0,0,0,0,0,-1,1273,918,0,0
56,106,0,0,0,0,0,0,0,0,0,-1,1280,918,0,0
63,106,0,0,0,0,0,0,0,0,0,-1,1287,918,0,0
70,106,0,0,0,0,0,0,0,0,0,-1,1294,918,0,0
77,106,0,0,0,0,0,0,0,0,0,-1,1301,918,0,0
84,106,0,0,0,0,0,0,0,0,0,-1,1308,918,0,0
91,106,0,0,0,0,0,0,0,0,0,-1,1315,918,0,0
98,106,0,0,0,0,0,0,0,0,0,-1,1322,918,0,0
105,106,0,0,0,0,0,0,0,0,0,-1,1329,918,0,0
112,106,0,0,0,0,0,0,0,0,0,-1,1336,918,0,0
119,106,0,0,0,0,0,0,0,0,0,-1,1343,918,0,0
126,106,0,0,0,0,0,0,0,0,0,-1,1350,918,0,0
133,106,0,0,0,0,0,0,0,0,0,-1,1357,918,0,0
140,106,0,0,0,0,0,0,0,0,0,-1,1364,918,0,0
147,106,0,0,0,0,0,0,0,0,0,-1,1371,918,0,0
154,106,0,0,0,0,0,0,0,0,0,-1,1378,918,0,0
161,106,0,0,0,0,0,0,0,0,0,-1,1385,918,0,0
168,106,0,0,0,0,0,0,0,0,0,-1,1392,918,0,0
175,106,0,0,0,0,0,0,0,0,0,-1,1399,918,0,0
182,106,0,0,0,0,0,0,0,0,0,-1,1406,918,0,0
189,106,0,0,0,0,0,0,0,0,0,-1,1413,918,0,0
196,106,0,0,0,0,0,0,0,0,0,-1,1420,918,0,0
203,106,0,0,0,0,0,0,0,0,0,-1,1427,918,0,0
210,106,0,0,0,0,0,0,0,0,0,-1,1434,918,0,0
217,106,0,0,0,0,0,0,0,0,0,-1,1441,918,0,0
224,106,0,0,0,0,0,0,0,0,0,-1,1448,918,0,0
231,106,0,0,0,0,0,0,0,0,0,-1,1455,918,0,0
238,106,0,0,0,0,0,0,0,0,0,-1,1462,918,0,0
245,106,0,0,0,0,0,0,0,0,0,-1,1469,918,0,0
252,106,0,0,0,0,0,0,0,0,0,-1,1476,918,0,0
259,106,0,0,0,0,0,0,0,0,0,-1,1483,918,0,0
266,106,0,0,0,0,0,0,0,0,0,-1,1490,918,0,0
273,106,0,0,0,0,0,0,0,0,0,-1,1497,918,0,0
280,106,0,0,0,0,0,0,0,0,0,-1,1504,918,0,0
287,106,0,0,0,0,0,0,0,0,0,-1,1511,918,0,0
294,106,0,0,0,0,0,0,0,0,0,-1,1518,918,0,0
301,106,0,0,0,0,0,0,0,0,0,-1,1525,918,0,0
308,106,0,0,0,0,0,0,0,0,0,-1,1532,918,0,0
315,106,0,0,0,0,0,0,0,0,0,-1,1539,918,0,0
322,106,0,0,0,0,0,0,0,0,0,-1,1546,918,0,0
329,106,0,0,0,0,0,0,0,0,0,-1,1553,918,0,0
336,106,0,0,0,0,0,0,0,0,0,-1,1560,918,0,0
343,106,0,0,0,0,0,0,0,0,0,-1,1567,918,0,0
350,106,0,0,0,0,0,0,0,0,0,-1,1574,918,0,0
357,106,0,0,0,0,0,0,0,0,0,-1,1581,918,0,0
364,106,0,0,0,0,0,0,0,0,0,-1,1588,918,0,0
371,106,0,0,0,0,0,0,0,0,0,-1,1595,918,0,0
378,106,0,0,0,0,0,0,0,0,0,-1,1602,918,0,0
385,106,0,0,0,0,0,0,0,0,0,-1,1609,918,0,0
392,106,0,0,0,0,0,0,0,0,0,-1,1616,918,0,0
399,106,0,0,0,0,0,0,0,0,0,-1,1623,918,0,0
406,106,0,0,0,0,0,0,0,0,0,-1,1630,918,0,0
413,106,0,0,0,0,0,0,0,0,0,-1,1637,918,0,0
420,106,0,0,0,0,0,0,0,0,0,-1,1644,918,0,0
427,106,0,0,0,0,0,0,0,0,0,-1,1651,918,0,0
434,106,0,0,0,0,0,0,0,0,0,-1,1658,918,0,0
441,106,0,0,0,0,0,0,0,0,0,-1,1665,918,0,0
448,106,0,0,0,0,0,0,0,0,0,-1,1672,918,0,0
455,106,0,0,0,0,0,0,0,0,0,-1,1679,918,0,0
462,106,0,0,0,0,0,0,0,0,0,-1,1686,918,0,0
469,106,0,0,0,0,0,0,0,0,0,-1,1693,918,0,0
476,106,0,0,0,0,0,0,0,0,0,-1,1700,918,0,0
483,106,0,0,0,0,0,0,0,0,0,-1,1707,918,0,0
490,106,0,0,0,0,0,0,0,0,0,-1,1714,918,0,0
497,106,0,0,0,0,0,0,0,0,0,-1,1721,918,0,0
504,106,0,0,0,0,0,0,0,0,0,-1,1728,918,0,0
511,106,0,0,0,0,0,0,0,0,0,-1,1735,918,0,0
518,106,0,0,0,0,0,0,0,0,0,-1,1742,918,0,0
525,106,0,0,0,0,0,0,0,0,0,-1,1749,918,0,0
532,106,0,0,0,0,0,0,0,0,0,-1,1756,918,0,0
539,106,0,0,0,0,0,0,0,0,0,-1,1763,918,0,0
546,106,0,0,0,0,0,0,0,0,0,-1,1770,918,0,0
553,106,0,0,0,0,0,0,0,0,0,-1,1777,918,0,0
560,106,0,0,0,0,0,0,0,0,0,-1,1784,918,0,0
567,106,0,0,0,0,0,0,0,0,0,-1,1791,918,0,0
574,106,0,0,0,0,0,0,0,0,0,-1,1798,918,0,0
581,106,0,0,0,0,0,0,0,0,0,-1,1805,918,0,0
588,106,0,0,0,0,0,0,0,0,0,-1,1812,918,0,0
595,106,0,0,0,0,0,0,0,0,0,-1,1819,918,0,0
602,106,0,0,0,0,0,0,0,0,0,-1,1826,918,0,0
609,106,0,0,0,0,0,0,0,0,0,-1,1833,918,0,0
616,106,0,0,0,0,0,0,0,0,0,-1,1840,918,0,0
623,106,0,0,0,0,0,0,0,0,0,-1,1847,918,0,0
630,106,11.7531,1.73773,-0.00671425,-0.00263884,-0.00077878,-0.0024951,-0.006858,-1.38827,0.00400812,0.0397989,1854,918,11.7531,-1.73774
637,106,11.8401,1.93073,-0.0045591,-0.00220343,0.000339892,-0.00215537,-0.00460717,1.43033,0.00266178,0.0391594,1861,918,11.8401,-1.93075
644,106,11.8789,1.87756,-0.00302998,-0.00186701,0.000758937,-0.0014924,-0.00340458,1.11229,0.00197061,0.0412348,1868,918,11.879,-1.87756
651,106,11.7205,1.74835,-0.00265185,-0.00171643,0.000593304,-0.00142865,-0.00293963,1.11919,0.00169742,0.0420899,1875,918,11.7204,-1.74833
658,106,11.6833,1.67682,-0.00328298,-0.00159847,9.2474e-05,-0.00159341,-0.00328804,1.51612,0.00189865,0.0389089,1882,918,11.6833,-1.6768
665,106,11.7084,1.69598,-0.00433941,-0.00148591,-0.000462225,-0.00141291,-0.00441242,-1.41415,0.00260183,0.0384839,1889,918,11.7084,-1.69598
672,106,11.7603,1.87378,-0.0053487,-0.00137872,-0.000924658,-0.00117392,-0.0055535,-1.35283,0.00337969,0.0397907,1896,918,11.7603,-1.87378
679,106,11.8098,1.901,-0.00612506,-0.00131216,-0.0012406,-0.00101119,-0.00642603,-1.3328,0.0039899,0.034965,1903,918,11.8098,-1.90099
686,106,11.7773,1.64447,-0.0067702,-0.00123976,-0.00148474,-0.000866369,-0.00714359,-1.32442,0.00450148,0.0323344,1910,918,11.7774,-1.64445
693,106,11.9312,1.47797,0,0,0,0,0,0,0,-1,1917,918,11.9311,-1.47797
700,106,11.5884,1.61566,0,0,0,0,0,0,0,-1,1924,918,11.5884,-1.61566
707,106,10.8101,1.82007,0,0,0,0,0,0,0,-1,1931,918,10.8101,-1.82008
714,106,10.8224,1.87604,-0.00630742,-0.000430086,-0.00164891,9.17818e-07,-0.00673843,-1.31513,0.00449259,0.0158903,1938,918,10.8224,-1.87606
721,106,10.8469,1.95868,-0.00556102,-0.000274051,-0.00162917,0.000187652,-0.00602272,-1.29464,0.00407914,0.0156524,1945,918,10.847,-1.95869
728,106,10.8719,2.04694,-0.00426899,-7.65598e-05,-0.00197158,0.00070494,-0.00505049,-1.19341,0.0036249,0.0149608,1952,918,10.872,-2.04696
735,106,10.8689,2.09772,-0.00241203,0.000602678,-0.00301365,0.00246493,-0.00427428,-1.01729,0.00393735,0.0144057,1959,918,10.8688,-2.09773
742,106,10.8573,2.16437,-0.000513924,0.00282401,-0.00435188,0.00581598,-0.00350589,-0.968501,0.00543679,0.0115911,1966,918,10.8573,-2.16434
749,106,10.8431,2.24054,0.0014885,0.00497368,-0.00636321,0.00982859,-0.00336641,-0.919049,0.00791682,0.00881518,1973,918,10.8431,-2.24051
756,106,10.8429,2.289,0.00327427,0.00787569,-0.00915018,0.01501,-0.00386001,-0.908564,0.0115111,0.00926279,1980,918,10.8428,-2.28902
763,106,10.8369,2.36682,0.00477013,0.0118939,-0.0127162,0.0215376,-0.00487356,-0.921953,0.0162287,0.0158733,1987,918,10.8369,-2.36679
770,106,10.8292,2.46088,0.00580891,0.0174757,-0.0171538,0.0297609,-0.00647625,-0.949296,0.0223148,0.0333078,1994,918,10.8293,-2.46086
777,106,10.939,2.3186,0.00652351,0.0250049,-0.0224498,0.0400414,-0.00851303,-0.980638,0.0299382,0.0426263,2001,918,10.939,-2.31862
784,106,10.4924,-1.07849,0.00680387,0.0350678,-0.0285975,0.0528346,-0.0109629,-1.01488,0.0393892,0.0457767,2008,918,10.4924,1.07849
791,106,8.98352,2.06384,0,0,0,0,0,0,0,-1,2015,918,8.98346,-2.06383
798,106,10.0996,-2.35004,0,0,0,0,0,0,0,-1,2022,918,10.0996,2.35005
805,106,0,0,0,0,0,0,0,0,0,-1,2029,918,0,0
812,106,0,0,0,0,0,0,0,0,0,-1,2036,918,0,0
-700,99,0,0,0,0,0,0,0,0,0,-1,524,925,0,0
-693,99,0,0,0,0,0,0,0,0,0,-1,531,925,0,0
-686,99,0,0,0,0,0,0,0,0,0,-1,538,925,0,0
-679,99,-4.83411,0.738403,-0.00704871,-0.0214474,0.00107335,-0.00696914,-0.021527,0.0739998,0.0126834,0.0460321,545,925,-4.83408,-0.738401
-672,99,-5.09991,0.796448,-0.0111928,-0.0180698,-0.000621387,-0.0111371,-0.0181255,-0.0893922,0.0105557,0.0463292,552,925,-5.09991,-0.79646
-665,99,-5.13422,0.833374,-0.012822,-0.0144335,-0.00130746,-0.012092,-0.0151636,-0.509249,0.00925665,0.0464886,559,925,-5.13422,-0.833381
-658,99,-5.10919,0.888489,-0.0128076,-0.0109248,-0.00135919,-0.0102128,-0.0135196,-1.08828,0.00813791,0.0437289,566,925,-5.10921,-0.888467
-651,99,-5.34888,1.02765,-0.011755,-0.00780247,-0.00106443,-0.00753404,-0.0120234,-1.32377,0.00701551,0.0445355,573,925,-5.34886,-1.02763
-644,99,-5.45502,1.16376,-0.010134,-0.00521668,-0.000628279,-0.00513767,-0.010213,-1.4457,0.00589652,0.0422199,580,925,-5.45501,-1.16375
-637,99,-5.4494,1.09943,-0.00836005,-0.00332072,-0.000208014,-0.00331215,-0.00836862,-1.52961,0.00486649,0.0270733,587,925,-5.44937,-1.09944
-630,99,-5.49854,1.01672,-0.00672037,-0.00219745,-0.000189104,-0.00218956,-0.00672826,-1.52908,0.0039627,0.0123476,594,925,-5.49854,-1.01671
-623,99,-5.5155,0.981384,-0.00570496,-0.000554797,0.000394697,-0.000524724,-0.00573504,1.49475,0.00366101,0.00778743,601,925,-5.51552,-0.981364
-616,99,-5.51062,0.938232,-0.00505768,4.24385e-05,0.000670906,0.000129218,-0.00514446,1.44216,0.00347351,0.00908614,608,925,-5.51062,-0.938221
-609,99,-5.52087,0.876404,-0.00483573,8.37198e-05,0.000982795,0.000272793,-0.0050248,1.38074,0.0034444,0.00919913,615,925,-5.52085,-0.876396
-602,99,-5.51941,0.828369,-0.00456914,0.000431704,0.00164854,0.000926241,-0.00506368,1.27935,0.00372314,0.00915919,622,925,-5.51943,-0.82836
-595,99,-5.54742,0.784851,-0.00480411,7.22407e-06,0.0015944,0.000487616,-0.0052845,1.27815,0.00369627,0.0123368,629,925,-5.54743,-0.784852
-588,99,-5.53735,0.734802,-0.00545722,-0.000427341,0.00158385,2.98412e-05,-0.0059144,1.28978,0.00395292,0.0120394,636,925,-5.53736,-0.734815
-581,99,-5.48633,0.663757,-0.00613521,-0.000564527,0.0016495,-0.000112745,-0.00658699,1.30346,0.00435423,0.0100856,643,925,-5.48633,-0.663782
-574,99,-5.54822,0.611206,-0.00679362,-0.000680378,0.001691,-0.000243804,-0.0072302,1.31814,0.00474095,0.0126552,650,925,-5.54819,-0.611225
-567,99,-5.77747,0.611938,-0.00720999,-0.000671664,0.00159377,-0.00030386,-0.00757779,1.34399,0.00495368,0.0287877,657,925,-5.77744,-0.611948
-560,99,-5.99945,0.70166,-0.0070743,-0.000605556,0.00141198,-0.000310784,-0.00736907,1.36499,0.00481247,0.0341105,664,925,-5.99944,-0.701664
-553,99,-6.06445,0.894043,-0.0066555,-0.000513469,0.00109118,-0.000325372,-0.00684359,1.40009,0.0044579,0.0365022,671,925,-6.06444,-0.894028
-546,99,-6.05188,0.540955,-0.00578993,-0.000306085,0.00054171,-0.000253086,-0.00584293,1.47327,0.00381372,0.0400342,678,925,-6.05189,-0.540932
-539,99,-5.95306,0.563293,-0.00443351,-1.87476e-06,-0.000270298,1.45505e-05,-0.00444993,-1.5101,0.00297148,0.0393692,685,925,-5.95308,-0.563267
-532,99,-5.987,0.706482,-0.00260455,0.000410823,-0.00138196,0.000948361,-0.00314209,-1.19984,0.00247224,0.040948,692,925,-5.98698,-0.70649
-525,99,-6.09161,0.771179,-0.000383266,0.000939861,-0.0028423,0.00319658,-0.00263998,-0.89974,0.00337484,0.040019,699,925,-6.09164,-0.771158
-518,99,-6.2699,0.712463,0.00167216,0.00158977,-0.0045695,0.00620065,-0.00293873,-0.780891,0.00538749,0.0378085,706,925,-6.26987,-0.712478
-511,99,0,0,0,0,0,0,0,0,0,-1,713,925,0,0
-504,99,0,0,0,0,0,0,0,0,0,-1,720,925,0,0
-497,99,0,0,0,0,0,0,0,0,0,-1,727,925,0,0
-490,99,0,0,0,0,0,0,0,0,0,-1,734,925,0,0
-483,99,0,0,0,0,0,0,0,0,0,-1,741,925,0,0
-476,99,0,0,0,0,0,0,0,0,0,-1,748,925,0,0
-469,99,0,0,0,0,0,0,0,0,0,-1,755,925,0,0
-462,99,0,0,0,0,0,0,0,0,0,-1,762,925,0,0
-455,99,0,0,0,0,0,0,0,0,0,-1,769,925,0,0
-448,99,0,0,0,0,0,0,0,0,0,-1,776,925,0,0
-441,99,0,0,0,0,0,0,0,0,0,-1,783,925,0,0
-434,99,0,0,0,0,0,0,0,0,0,-1,790,925,0,0
-427,99,0,0,0,0,0,0,0,0,0,-1,797,925,0,0
-420,99,0,0,0,0,0,0,0,0,0,-1,804,925,0,0
-413,99,0,0,0,0,0,0,0,0,0,-1,811,925,0,0
-406,99,0,0,0,0,0,0,0,0,0,-1,818,925,0,0
-399,99,0,0,0,0,0,0,0,0,0,-1,825,925,0,0
-392,99,0,0,0,0,0,0,0,0,0,-1,832,925,0,0
-385,99,0,0,0,0,0,0,0,0,0,-1,839,925,0,0
-378,99,0,0,0,0,0,0,0,0,0,-1,846,925,0,0
-371,99,0,0,0,0,0,0,0,0,0,-1,853,925,0,0
-364,99,0,0,0,0,0,0,0,0,0,-1,860,925,0,0
-357,99,0,0,0,0,0,0,0,0,0,-1,867,925,0,0
-350,99,0,0,0,0,0,0,0,0,0,-1,874,925,0,0
-343,99,0,0,0,0,0,0,0,0,0,-1,881,925,0,0
-336,99,0,0,0,0,0,0,0,0,0,-1,888,925,0,0
-329,99,0,0,0,0,0,0,0,0,0,-1,895,925,0,0
-322,99,0,0,0,0,0,0,0,0,0,-1,902,925,0,0
-315,99,0,0,0,0,0,0,0,0,0,-1,909,925,0,0
-308,99,0,0,0,0,0,0,0,0,0,-1,916,925,0,0
-301,99,0,0,0,0,0,0,0,0,0,-1,923,925,0,0
-294,99,0,0,0,0,0,0,0,0,0,-1,930,925,0,0
-287,99,0,0,0,0,0,0,0,0,0,-1,937,925,0,0
-280,99,0,0,0,0,0,0,0,0,0,-1,944,925,0,0
-273,99,0,0,0,0,0,0,0,0,0,-1,951,925,0,0
-266,99,0,0,0,0,0,0,0,0,0,-1,958,925,0,0
-259,99,0,0,0,0,0,0,0,0,0,-1,965,925,0,0
-252,99,0,0,0,0,0,0,0,0,0,-1,972,925,0,0
-245,99,0,0,0,0,0,0,0,0,0,-1,979,925,0,0
-238,99,0,0,0,0,0,0,0,0,0,-1,986,925,0,0
-231,99,0,0,0,0,0,0,0,0,0,-1,993,925,0,0
-224,99,0,0,0,0,0,0,0,0,0,-1,1000,925,0,0
-217,99,0,0,0,0,0,0,0,0,0,-1,1007,925,0,0
-210,99,0,0,0,0,0,0,0,0,0,-1,1014,925,0,0
-203,99,0,0,0,0,0,0,0,0,0,-1,1021,925,0,0
-196,99,0,0,0,0,0,0,0,0,0,-1,1028,925,0,0
-189,99,0,0,0,0,0,0,0,0,0,-1,1035,925,0,0
-182,99,0,0,0,0,0,0,0,0,0,-1,1042,925,0,0
-175,99,0,0,0,0,0,0,0,0,0,-1,1049,925,0,0
-168,99,0,0,0,0,0,0,0,0,0,-1,1056,925,0,0
-161,99,0,0,0,0,0,0,0,0,0,-1,1063,925,0,0
-154,99,0,0,0,0,0,0,0,0,0,-1,1070,925,0,0
-147,99,0,0,0,0,0,0,0,0,0,-1,1077,925,0,0
-140,99,0,0,0,0,0,0,0,0,0,-1,1084,925,0,0
-133,99,0,0,0,0,0,0,0,0,0,-1,1091,925,0,0
-126,99,0,0,0,0,0,0,0,0,0,-1,1098,925,0,0
-119,99,0,0,0,0,0,0,0,0,0,-1,1105,925,0,0
-112,99,0,0,0,0,0,0,0,0,0,-1,1112,925,0,0
-105,99,0,0,0,0,0,0,0,0,0,-1,1119,925,0,0
-98,99,0,0,0,0,0,0,0,0,0,-1,1126,925,0,0
-91,99,0,0,0,0,0,0,0,0,0,-1,1133,925,0,0
-84,99,0,0,0,0,0,0,0,0,0,-1,1140,925,0,0
-77,99,0,0,0,0,0,0,0,0,0,-1,1147,925,0,0
-70,99,0,0,0,0,0,0,0,0,0,-1,1154,925,0,0
-63,99,0,0,0,0,0,0,0,0,0,-1,1161,925,0,0
-56,99,0,0,0,0,0,0,0,0,0,-1,1168,925,0,0
-49,99,0,0,0,0,0,0,0,0,0,-1,1175,925,0,0
-42,99,0,0,0,0,0,0,0,0,0,-1,1182,925,0,0
-35,99,0,0,0,0,0,0,0,0,0,-1,1189,925,0,0
-28,99,0,0,0,0,0,0,0,0,0,-1,1196,925,0,0
-21,99,0,0,0,0,0,0,0,0,0,-1,1203,925,0,0
-14,99,0,0,0,0,0,0,0,0,0,-1,1210,925,0,0
-7,99,0,0,0,0,0,0,0,0,0,-1,1217,925,0,0
0,99,0,0,0,0,0,0,0,0,0,-1,1224,925,0,0
7,99,0,0,0,0,0,0,0,0,0,-1,1231,925,0,0
14,99,0,0,0,0,0,0,0,0,0,-1,1238,925,0,0
21,99,0,0,0,0,0,0,0,0,0,-1,1245,925,0,0
28,99,0,0,0,0,0,0,0,0,0,-1,1252,925,0,0
35,99,0,0,0,0,0,0,0,0,0,-1,1259,925,0,0
42,99,0,0,0,0,0,0,0,0,0,-1,1266,925,0,0
49,99,0,0,0,0,0,0,0,0,0,-1,1273,925,0,0
56,99,0,0,0,0,0,0,0,0,0,-1,1280,925,0,0
63,99,0,0,0,0,0,0,0,0,0,-1,1287,925,0,0
70,99,0,0,0,0,0,0,0,0,0,-1,1294,925,0,0
77,99,0,0,0,0,0,0,0,0,0,-1,1301,925,0,0
84,99,0,0,0,0,0,0,0,0,0,-1,1308,925,0,0
91,99,0,0,0,0,0,0,0,0,0,-1,1315,925,0,0
98,99,0,0,0,0,0,0,0,0,0,-1,1322,925,0,0
105,99,0,0,0,0,0,0,0,0,0,-1,1329,925,0,0
112,99,0,0,0,0,0,0,0,0,0,-1,1336,925,0,0
119,99,0,0,0,0,0,0,0,0,0,-1,1343,925,0,0
126,99,0,0,0,0,0,0,0,0,0,-1,1350,925,0,0
133,99,0,0,0,0,0,0,0,0,0,-1,1357,925,0,0
140,99,0,0,0,0,0,0,0,0,0,-1,1364,925,0,0
147,99,0,0,0,0,0,0,0,0,0,-1,1371,925,0,0
154,99,0,0,0,0,0,0,0,0,0,-1,1378,925,0,0
161,99,0,0,0,0,0,0,0,0,0,-1,1385,925,0,0
168,99,0,0,0,0,0,0,0,0,0,-1,1392,925,0,0
175,99,0,0,0,0,0,0,0,0,0,-1,1399,925,0,0
182,99,0,0,0,0,0,0,0,0,0,-1,1406,925,0,0
189,99,0,0,0,0,0,0,0,0,0,-1,1413,925,0,0
196,99,0,0,0,0,0,0,0,0,0,-1,1420,925,0,0
203,99,0,0,0,0,0,0,0,0,0,-1,1427,925,0,0
210,99,0,0,0,0,0,0,0,0,0,-1,1434,925,0,0
217,99,0,0,0,0,0,0,0,0,0,-1,1441,925,0,0
224,99,0,0,0,0,0,0,0,0,0,-1,1448,925,0,0
231,99,0,0,0,0,0,0,0,0,0,-1,1455,925,0,0
238,99,0,0,0,0,0,0,0,0,0,-1,1462,925,0,0
245,99,0,0,0,0,0,0,0,0,0,-1,1469,925,0,0
252,99,0,0,0,0,0,0,0,0,0,-1,1476,925,0,0
259,99,0,0,0,0,0,0,0,0,0,-1,1483,925,0,0
266,99,0,0,0,0,0,0,0,0,0,-1,1490,925,0,0
273,99,0,0,0,0,0,0,0,0,0,-1,1497,925,0,0
280,99,0,0,0,0,0,0,0,0,0,-1,1504,925,0,0
287,99,0,0,0,0,0,0,0,0,0,-1,1511,925,0,0
294,99,0,0,0,0,0,0,0,0,0,-1,1518,925,0,0
301,99,0,0,0,0,0,0,0,0,0,-1,1525,925,0,0
308,99,0,0,0,0,0,0,0,0,0,-1,1532,925,0,0
315,99,0,0,0,0,0,0,0,0,0,-1,1539,925,0,0
322,99,0,0,0,0,0,0,0,0,0,-1,1546,925,0,0
329,99,0,0,0,0,0,0,0,0,0,-1,1553,925,0,0
336,99,0,0,0,0,0,0,0,0,0,-1,1560,925,0,0
343,99,0,0,0,0,0,0,0,0,0,-1,1567,925,0,0
350,99,0,0,0,0,0,0,0,0,0,-1,1574,925,0,0
357,99,0,0,0,0,0,0,0,0,0,-1,1581,925,0,0
364,99,0,0,0,0,0,0,0,0,0,-1,1588,925,0,0
371,99,0,0,0,0,0,0,0,0,0,-1,1595,925,0,0
378,99,0,0,0,0,0,0,0,0,0,-1,1602,925,0,0
385,99,0,0,0,0,0,0,0,0,0,-1,1609,925,0,0
392,99,0,0,0,0,0,0,0,0,0,-1,1616,925,0,0
399,99,0,0,0,0,0,0,0,0,0,-1,1623,925,0,0
406,99,0,0,0,0,0,0,0,0,0,-1,1630,925,0,0
413,99,0,0,0,0,0,0,0,0,0,-1,1637,925,0,0
420,99,0,0,0,0,0,0,0,0,0,-1,1644,925,0,0
427,99,0,0,0,0,0,0,0,0,0,-1,1651,925,0,0
434,99,0,0,0,0,0,0,0,0,0,-1,1658,925,0,0
441,99,0,0,0,0,0,0,0,0,0,-1,1665,925,0,0
448,99,0,0,0,0,0,0,0,0,0,-1,1672,925,0,0
455,99,0,0,0,0,0,0,0,0,0,-1,1679,925,0,0
462,99,0,0,0,0,0,0,0,0,0,-1,1686,925,0,0
469,99,0,0,0,0,0,0,0,0,0,-1,1693,925,0,0
476,99,0,0,0,0,0,0,0,0,0,-1,1700,925,0,0
483,99,0,0,0,0,0,0,0,0,0,-1,1707,925,0,0
490,99,0,0,0,0,0,0,0,0,0,-1,1714,925,0,0
497,99,0,0,0,0,0,0,0,0,0,-1,1721,925,0,0
504,99,0,0,0,0,0,0,0,0,0,-1,1728,925,0,0
511,99,0,0,0,0,0,0,0,0,0,-1,1735,925,0,0
518,99,0,0,0,0,0,0,0,0,0,-1,1742,925,0,0
525,99,0,0,0,0,0,0,0,0,0,-1,1749,925,0,0
532,99,0,0,0,0,0,0,0,0,0,-1,1756,925,0,0
539,99,0,0,0,0,0,0,0,0,0,-1,1763,925,0,0
546,99,0,0,0,0,0,0,0,0,0,-1,1770,925,0,0
553,99,0,0,0,0,0,0,0,0,0,-1,1777,925,0,0
560,99,0,0,0,0,0,0,0,0,0,-1,1784,925,0,0
567,99,0,0,0,0,0,0,0,0,0,-1,1791,925,0,0
574,99,0,0,0,0,0,0,0,0,0,-1,1798,925,0,0
581,99,0,0,0,0,0,0,0,0,0,-1,1805,925,0,0
588,99,0,0,0,0,0,0,0,0,0,-1,1812,925,0,0
595,99,0,0,0,0,0,0,0,0,0,-1,1819,925,0,0
602,99,0,0,0,0,0,0,0,0,0,-1,1826,925,0,0
609,99,0,0,0,0,0,0,0,0,0,-1,1833,925,0,0
616,99,0,0,0,0,0,0,0,0,0,-1,1840,925,0,0
623,99,0,0,0,0,0,0,0,0,0,-1,1847,925,0,0
630,99,0,0,0,0,0,0,0,0,0,-1,1854,925,0,0
637,99,11.9872,1.52954,0,0,0,0,0,0,0,-1,1861,925,11.9871,-1.52956
644,99,12.1152,1.49567,-0.00329656,-0.00198393,0.000758428,-0.00163727,-0.00364323,1.14207,0.002107,0.0414817,1868,925,12.1153,-1.49566
651,99,11.7456,1.72266,-0.00251739,-0.00161108,0.000677574,-0.0012491,-0.00287937,1.08013,0.00166726,0.0402176,1875,925,11.7456,-1.72267
658,99,11.7579,1.81488,-0.00276167,-0.00130187,0.000258281,-0.00125752,-0.00280602,1.40074,0.00162296,0.0395213,1882,925,11.7579,-1.81491
665,99,11.7588,1.8573,-0.00362108,-0.00103766,-0.000230748,-0.00101721,-0.00364152,-1.48241,0.00216961,0.0388,1889,925,11.7588,-1.85732
672,99,11.8026,1.99188,-0.00457556,-0.000845009,-0.000649697,-0.000735098,-0.00468547,-1.40321,0.00290973,0.0398653,1896,925,11.8026,-1.99186
679,99,11.8969,1.92609,-0.00538699,-0.000735645,-0.00094074,-0.000552584,-0.00557005,-1.37861,0.00354356,0.0370863,1903,925,11.8969,-1.9261
686,99,11.8447,1.72858,-0.00609087,-0.000638896,-0.00117522,-0.000396356,-0.00633341,-1.36728,0.00409655,0.0319906,1910,925,11.8447,-1.7286
693,99,11.7937,1.66278,-0.00660735,-0.000321525,-0.00121048,-9.64776e-05,-0.0068324,-1.38698,0.00452311,0.0250433,1917,925,11.7936,-1.66278
700,99,11.7095,1.6217,0,0,0,0,0,0,0,-1,1924,925,11.7094,-1.62173
707,99,11.1302,1.77277,-0.00646394,-7.19228e-05,-0.00137234,0.000210255,-0.00674611,-1.368,0.00456911,0.0283864,1931,925,11.1303,-1.77278
714,99,10.9172,1.87335,-0.0061949,1.98593e-05,-0.00135144,0.000301019,-0.00647606,-1.36568,0.00442113,0.014638,1938,925,10.9173,-1.87337
721,99,10.8999,1.9339,-0.00568554,6.65095e-05,-0.00138653,0.000383286,-0.00600232,-1.34618,0.00413523,0.0169352,1945,925,10.9,-1.93392
728,99,10.9335,2.02667,-0.00462996,0.000156553,-0.00181924,0.000769509,-0.00524291,-1.24581,0.00377799,0.0146902,1952,925,10.9335,-2.02665
735,99,10.9446,2.0929,-0.00311327,0.000480759,-0.00294643,0.00213493,-0.00476745,-1.05923,0.00408056,0.013615,1959,925,10.9445,-2.09293
742,99,10.9398,2.14807,-0.00162966,0.00209903,-0.00437011,0.00498586,-0.00451649,-0.987016,0.00548841,0.0115161,1966,925,10.9398,-2.14806
749,99,10.9108,2.2265,-2.55325e-05,0.00363462,-0.00644181,0.00850126,-0.00489218,-0.923799,0.00782573,0.008786,1973,925,10.9108,-2.22648
756,99,10.9006,2.27673,0.0013477,0.00564692,-0.00930117,0.0130436,-0.00604903,-0.89896,0.011267,0.00980293,1980,925,10.9006,-2.27673
763,99,10.9175,2.31128,0.00241797,0.00848919,-0.0129282,0.0187334,-0.00782627,-0.900711,0.0157594,0.0125137,1987,925,10.9175,-2.31131
770,99,10.9388,2.38617,0.00288913,0.0124908,-0.0174233,0.0257626,-0.0103826,-0.919833,0.0214889,0.024373,1994,925,10.9388,-2.38614
777,99,10.9755,2.36053,0.00287344,0.0179302,-0.0227371,0.0343528,-0.0135492,-0.94527,0.0285124,0.0417607,2001,925,10.9755,-2.36054
784,99,11.033,2.31793,0.00229759,0.0252461,-0.0288615,0.0448306,-0.0172869,-0.9746,0.0370201,0.0463599,2008,925,11.033,-2.31796
791,99,9.68237,1.96954,0.000924992,0.0349876,-0.035681,0.0574937,-0.021581,-1.00807,0.0471972,0.0434201,2015,925,9.68242,-1.96956
798,99,10.0548,2.01837,0,0,0,0,0,0,0,-1,2022,925,10.0548,-2.01837
805,99,0,0,0,0,0,0,0,0,0,-1,2029,925,0,0
812,99,0,0,0,0,0,0,0,0,0,-1,2036,925,0,0
-700,92,0,0,0,0,0,0,0,0,0,-1,524,932,0,0
-693,92,0,0,0,0,0,0,0,0,0,-1,531,932,0,0
-686,92,-4.40448,1.19647,-0.00200101,-0.0167203,0.00603709,0.00015832,-0.0188796,0.343497,0.0126395,0.0435175,538,932,-4.40449,-1.19646
-679,92,-4.54224,1.60571,-0.00935166,-0.0168279,0.00187355,-0.00890842,-0.0172711,0.232305,0.00997314,0.0430803,545,932,-4.54223,-1.60574
-672,92,-4.92261,1.58862,-0.0131379,-0.0155776,-0.000489647,-0.0130433,-0.0156722,-0.190856,0.0096914,0.0432626,552,932,-4.9226,-1.58864
-665,92,-5.35815,1.6698,0,0,0,0,0,0,0,-1,559,932,-5.35816,-1.66981
-658,92,-5.05798,2.02747,-0.0143157,-0.0111306,-0.00204322,-0.0101326,-0.0153137,-1.11644,0.00899412,0.043864,566,932,-5.058,-2.02744
-651,92,-5.06403,1.76758,-0.0130402,-0.00863488,-0.00189075,-0.00793468,-0.0137404,-1.21613,0.00796472,0.0445803,573,932,-5.06403,-1.76758
-644,92,-5.37616,1.23242,-0.0111748,-0.00630877,-0.00145677,-0.00590599,-0.0115776,-1.30105,0.00668477,0.0406643,580,932,-5.37616,-1.23242
-637,92,-5.48358,1.07678,-0.00920474,-0.00453971,-0.000961908,-0.00434915,-0.0093953,-1.37523,0.00542935,0.0227923,587,932,-5.4836,-1.07679
-630,92,-5.55444,1.01184,-0.0074499,-0.00337884,-0.000855909,-0.00320621,-0.00762253,-1.37178,0.00441932,0.0110618,594,932,-5.55443,-1.01187
-623,92,-5.57513,0.960266,-0.00632537,-0.00156722,-0.000154662,-0.00156219,-0.0063304,-1.53834,0.00380789,0.00783448,601,932,-5.57516,-0.960245
-616,92,-5.57379,0.91803,-0.0054218,-0.000673705,0.000256746,-0.000659863,-0.00543565,1.51693,0.00342506,0.0075603,608,932,-5.57377,-0.918043
-609,92,-5.57825,0.871826,-0.00499185,-0.000333457,0.000651432,-0.000244076,-0.00508123,1.43444,0.00330913,0.00779163,615,932,-5.57825,-0.871848
-602,92,-5.5683,0.828796,-0.0045644,0.000269517,0.00141537,0.000653445,-0.00494833,1.30591,0.00353688,0.008218,622,932,-5.56831,-0.828788
-595,92,-5.55151,0.780334,-0.0047221,2.43114e-06,0.00140529,0.000388825,-0.0051085,1.30247,0.00354239,0.0141215,629,932,-5.55152,-0.780359
-588,92,-5.54321,0.735046,-0.00527408,-0.000312089,0.00134666,2.98277e-05,-0.005616,1.32215,0.00375398,0.0164616,636,932,-5.5432,-0.735068
-581,92,-5.53345,0.665833,-0.00581284,-0.000412501,0.00134086,-9.79013e-05,-0.00612744,1.34034,0.00405272,0.0132189,643,932,-5.53344,-0.66581
-574,92,-5.6615,0.634583,-0.00633645,-0.000488437,0.00131604,-0.000205921,-0.00661896,1.35934,0.00434563,0.0172807,650,932,-5.66148,-0.634604
-567,92,-5.89172,0.621094,-0.00668756,-0.000435595,0.00117764,-0.000221129,-0.00690203,1.39066,0.00452944,0.0301091,657,932,-5.89171,-0.621089
-560,92,-5.95905,0.656067,-0.00653855,-0.000333363,0.00095995,-0.000188251,-0.00668367,1.42077,0.00439437,0.0329656,664,932,-5.95903,-0.656067
-553,92,-6.10767,0.719666,-0.00611125,-0.000202249,0.000605973,-0.000140746,-0.00617276,1.46965,0.00406907,0.0354295,671,932,-6.10769,-0.719656
-546,92,-6.20776,0.614685,-0.0052849,2.11007e-05,3.76091e-05,2.13671e-05,-0.00528517,1.56371,0.00353059,0.040578,678,932,-6.20777,-0.614693
-539,92,-6.10284,0.554993,-0.00406994,0.000330152,-0.000778611,0.000463866,-0.00420365,-1.40072,0.00296916,0.0392756,685,932,-6.10285,-0.554969
-532,92,-5.96857,0.658142,-0.00252249,0.000742782,-0.00188513,0.00160398,-0.00338369,-1.14227,0.00294011,0.041582,692,932,-5.96856,-0.658147
-525,92,-6.10413,0.7547,-0.000831818,0.00127742,-0.00332842,0.0037143,-0.0032687,-0.938821,0.00403437,0.0393506,699,932,-6.10411,-0.754694
-518,92,-6.3186,0.810669,0.000257399,0.00195061,-0.00502278,0.00619763,-0.00398963,-0.86889,0.00592749,0.0385814,706,932,-6.31863,-0.810672
-511,92,0,0,0,0,0,0,0,0,0,-1,713,932,0,0
-504,92,0,0,0,0,0,0,0,0,0,-1,720,932,0,0
-497,92,0,0,0,0,0,0,0,0,0,-1,727,932,0,0
-490,92,0,0,0,0,0,0,0,0,0,-1,734,932,0,0
-483,92,0,0,0,0,0,0,0,0,0,-1,741,932,0,0
-476,92,0,0,0,0,0,0,0,0,0,-1,748,932,0,0
-469,92,0,0,0,0,0,0,0,0,0,-1,755,932,0,0
-462,92,0,0,0,0,0,0,0,0,0,-1,762,932,0,0
-455,92,0,0,0,0,0,0,0,0,0,-1,769,932,0,0
-448,92,0,0,0,0,0,0,0,0,0,-1,776,932,0,0
-441,92,0,0,0,0,0,0,0,0,0,-1,783,932,0,0
-434,92,0,0,0,0,0,0,0,0,0,-1,790,932,0,0
-427,92,0,0,0,0,0,0,0,0,0,-1,797,932,0,0
-420,92,0,0,0,0,0,0,0,0,0,-1,804,932,0,0
-413,92,0,0,0,0,0,0,0,0,0,-1,811,932,0,0
-406,92,0,0,0,0,0,0,0,0,0,-1,818,932,0,0
-399,92,0,0,0,0,0,0,0,0,0,-1,825,932,0,0
-392,92,0,0,0,0,0,0,0,0,0,-1,832,932,0,0
-385,92,0,0,0,0,0,0,0,0,0,-1,839,932,0,0
-378,92,0,0,0,0,0,0,0,0,0,-1,846,932,0,0
-371,92,0,0,0,0,0,0,0,0,0,-1,853,932,0,0
-364,92,0,0,0,0,0,0,0,0,0,-1,860,932,0,0
-357,92,0,0,0,0,0,0,0,0,0,-1,867,932,0,0
-350,92,0,0,0,0,0,0,0,0,0,-1,874,932,0,0
-343,92,0,0,0,0,0,0,0,0,0,-1,881,932,0,0
-336,92,0,0,0,0,0,0,0,0,0,-1,888,932,0,0
-329,92,0,0,0,0,0,0,0,0,0,-1,895,932,0,0
-322,92,0,0,0,0,0,0,0,0,0,-1,902,932,0,0
-315,92,0,0,0,0,0,0,0,0,0,-1,909,932,0,0
-308,92,0,0,0,0,0,0,0,0,0,-1,916,932,0,0
-301,92,0,0,0,0,0,0,0,0,0,-1,923,932,0,0
-294,92,0,0,0,0,0,0,0,0,0,-1,930,932,0,0
-287,92,0,0,0,0,0,0,0,0,0,-1,937,932,0,0
-280,92,0,0,0,0,0,0,0,0,0,-1,944,932,0,0
-273,92,0,0,0,0,0,0,0,0,0,-1,951,932,0,0
-266,92,0,0,0,0,0,0,0,0,0,-1,958,932,0,0
-259,92,0,0,0,0,0,0,0,0,0,-1,965,932,0,0
-252,92,0,0,0,0,0,0,0,0,0,-1,972,932,0,0
-245,92,0,0,0,0,0,0,0,0,0,-1,979,932,0,0
-238,92,0,0,0,0,0,0,0,0,0,-1,986,932,0,0
-231,92,0,0,0,0,0,0,0,0,0,-1,993,932,0,0
-224,92,0,0,0,0,0,0,0,0,0,-1,1000,932,0,0
-217,92,0,0,0,0,0,0,0,0,0,-1,1007,932,0,0
-210,92,0,0,0,0,0,0,0,0,0,-1,1014,932,0,0
-203,92,0,0,0,0,0,0,0,0,0,-1,1021,932,0,0
-196,92,0,0,0,0,0,0,0,0,0,-1,1028,932,0,0
-189,92,0,0,0,0,0,0,0,0,0,-1,1035,932,0,0
-182,92,0,0,0,0,0,0,0,0,0,-1,1042,932,0,0
-175,92,0,0,0,0,0,0,0,0,0,-1,1049,932,0,0
-168,92,0,0,0,0,0,0,0,0,0,-1,1056,932,0,0
-161,92,0,0,0,0,0,0,0,0,0,-1,1063,932,0,0
-154,92,0,0,0,0,0,0,0,0,0,-1,1070,932,0,0
-147,92,0,0,0,0,0,0,0,0,0,-1,1077,932,0,0
-140,92,0,0,0,0,0,0,0,0,0,-1,1084,932,0,0
-133,92,0,0,0,0,0,0,0,0,0,-1,1091,932,0,0
-126,92,0,0,0,0,0,0,0,0,0,-1,1098,932,0,0
-119,92,0,0,0,0,0,0,0,0,0,-1,1105,932,0,0
-112,92,0,0,0,0,0,0,0,0,0,-1,1112,932,0,0
-105,92,0,0,0,0,0,0,0,0,0,-1,1119,932,0,0
-98,92,0,0,0,0,0,0,0,0,0,-1,1126,932,0,0
-91,92,0,0,0,0,0,0,0,0,0,-1,1133,932,0,0
-84,92,0,0,0,0,0,0,0,0,0,-1,1140,932,0,0
-77,92,0,0,0,0,0,0,0,0,0,-1,1147,932,0,0
-70,92,0,0,0,0,0,0,0,0,0,-1,1154,932,0,0
-63,92,0,0,0,0,0,0,0,0,0,-1,1161,932,0,0
-56,92,0,0,0,0,0,0,0,0,0,-1,1168,932,0,0
-49,92,0,0,0,0,0,0,0,0,0,-1,1175,932,0,0
-42,92,0,0,0,0,0,0,0,0,0,-1,1182,932,0,0
-35,92,0,0,0,0,0,0,0,0,0,-1,1189,932,0,0
-28,92,0,0,0,0,0,0,0,0,0,-1,1196,932,0,0
-21,92,0,0,0,0,0,0,0,0,0,-1,1203,932,0,0
-14,92,0,0,0,0,0,0,0,0,0,-1,1210,932,0,0
-7,92,0,0,0,0,0,0,0,0,0,-1,1217,932,0,0
0,92,0,0,0,0,0,0,0,0,0,-1,1224,932,0,0
7,92,0,0,0,0,0,0,0,0,0,-1,1231,932,0,0
14,92,0,0,0,0,0,0,0,0,0,-1,1238,932,0,0
21,92,0,0,0,0,0,0,0,0,0,-1,1245,932,0,0
28,92,0,0,0,0,0,0,0,0,0,-1,1252,932,0,0
35,92,0,0,0,0,0,0,0,0,0,-1,1259,932,0,0
42,92,0,0,0,0,0,0,0,0,0,-1,1266,932,0,0
49,92,0,0,0,0,0,0,0,0,0,-1,1273,932,0,0
56,92,0,0,0,0,0,0,0,0,0,-1,1280,932,0,0
63,92,0,0,0,0,0,0,0,0,0,-1,1287,932,0,0
70,92,0,0,0,0,0,0,0,0,0,-1,1294,932,0,0
77,92,0,0,0,0,0,0,0,0,0,-1,1301,932,0,0
84,92,0,0,0,0,0,0,0,0,0,-1,1308,932,0,0
91,92,0,0,0,0,0,0,0,0,0,-1,1315,932,0,0
98,92,0,0,0,0,0,0,0,0,0,-1,1322,932,0,0
105,92,0,0,0,0,0,0,0,0,0,-1,1329,932,0,0
112,92,0,0,0,0,0,0,0,0,0,-1,1336,932,0,0
119,92,0,0,0,0,0,0,0,0,0,-1,1343,932,0,0
126,92,0,0,0,0,0,0,0,0,0,-1,1350,932,0,0
133,92,0,0,0,0,0,0,0,0,0,-1,1357,932,0,0
140,92,0,0,0,0,0,0,0,0,0,-1,1364,932,0,0
147,92,0,0,0,0,0,0,0,0,0,-1,1371,932,0,0
154,92,0,0,0,0,0,0,0,0,0,-1,1378,932,0,0
161,92,0,0,0,0,0,0,0,0,0,-1,1385,932,0,0
168,92,0,0,0,0,0,0,0,0,0,-1,1392,932,0,0
175,92,0,0,0,0,0,0,0,0,0,-1,1399,932,0,0
182,92,0,0,0,0,0,0,0,0,0,-1,1406,932,0,0
189,92,0,0,0,0,0,0,0,0,0,-1,1413,932,0,0
196,92,0,0,0,0,0,0,0,0,0,-1,1420,932,0,0
203,92,0,0,0,0,0,0,0,0,0,-1,1427,932,0,0
210,92,0,0,0,0,0,0,0,0,0,-1,1434,932,0,0
217,92,0,0,0,0,0,0,0,0,0,-1,1441,932,0,0
224,92,0,0,0,0,0,0,0,0,0,-1,1448,932,0,0
231,92,0,0,0,0,0,0,0,0,0,-1,1455,932,0,0
238,92,0,0,0,0,0,0,0,0,0,-1,1462,932,0,0
245,92,0,0,0,0,0,0,0,0,0,-1,1469,932,0,0
252,92,0,0,0,0,0,0,0,0,0,-1,1476,932,0,0
259,92,0,0,0,0,0,0,0,0,0,-1,1483,932,0,0
266,92,0,0,0,0,0,0,0,0,0,-1,1490,932,0,0
273,92,0,0,0,0,0,0,0,0,0,-1,1497,932,0,0
280,92,0,0,0,0,0,0,0,0,0,-1,1504,932,0,0
287,92,0,0,0,0,0,0,0,0,0,-1,1511,932,0,0
294,92,0,0,0,0,0,0,0,0,0,-1,1518,932,0,0
301,92,0,0,0,0,0,0,0,0,0,-1,1525,932,0,0
308,92,0,0,0,0,0,0,0,0,0,-1,1532,932,0,0
315,92,0,0,0,0,0,0,0,0,0,-1,1539,932,0,0
322,92,0,0,0,0,0,0,0,0,0,-1,1546,932,0,0
329,92,0,0,0,0,0,0,0,0,0,-1,1553,932,0,0
336,92,0,0,0,0,0,0,0,0,0,-1,1560,932,0,0
343,92,0,0,0,0,0,0,0,0,0,-1,1567,932,0,0
350,92,0,0,0,0,0,0,0,0,0,-1,1574,932,0,0
357,92,0,0,0,0,0,0,0,0,0,-1,1581,932,0,0
364,92,0,0,0,0,0,0,0,0,0,-1,1588,932,0,0
371,92,0,0,0,0,0,0,0,0,0,-1,1595,932,0,0
378,92,0,0,0,0,0,0,0,0,0,-1,1602,932,0,0
385,92,0,0,0,0,0,0,0,0,0,-1,1609,932,0,0
392,92,0,0,0,0,0,0,0,0,0,-1,1616,932,0,0
399,92,0,0,0,0,0,0,0,0,0,-1,1623,932,0,0
406,92,0,0,0,0,0,0,0,0,0,-1,1630,932,0,0
413,92,0,0,0,0,0,0,0,0,0,-1,1637,932,0,0
420,92,0,0,0,0,0,0,0,0,0,-1,1644,932,0,0
427,92,0,0,0,0,0,0,0,0,0,-1,1651,932,0,0
434,92,0,0,0,0,0,0,0,0,0,-1,1658,932,0,0
441,92,0,0,0,0,0,0,0,0,0,-1,1665,932,0,0
448,92,0,0,0,0,0,0,0,0,0,-1,1672,932,0,0
455,92,0,0,0,0,0,0,0,0,0,-1,1679,932,0,0
462,92,0,0,0,0,0,0,0,0,0,-1,1686,932,0,0
469,92,0,0,0,0,0,0,0,0,0,-1,1693,932,0,0
476,92,0,0,0,0,0,0,0,0,0,-1,1700,932,0,0
483,92,0,0,0,0,0,0,0,0,0,-1,1707,932,0,0
490,92,0,0,0,0,0,0,0,0,0,-1,1714,932,0,0
497,92,0,0,0,0,0,0,0,0,0,-1,1721,932,0,0
504,92,0,0,0,0,0,0,0,0,0,-1,1728,932,0,0
511,92,0,0,0,0,0,0,0,0,0,-1,1735,932,0,0
518,92,0,0,0,0,0,0,0,0,0,-1,1742,932,0,0
525,92,0,0,0,0,0,0,0,0,0,-1,1749,932,0,0
532,92,0,0,0,0,0,0,0,0,0,-1,1756,932,0,0
539,92,0,0,0,0,0,0,0,0,0,-1,1763,932,0,0
546,92,0,0,0,0,0,0,0,0,0,-1,1770,932,0,0
553,92,0,0,0,0,0,0,0,0,0,-1,1777,932,0,0
560,92,0,0,0,0,0,0,0,0,0,-1,1784,932,0,0
567,92,0,0,0,0,0,0,0,0,0,-1,1791,932,0,0
574,92,0,0,0,0,0,0,0,0,0,-1,1798,932,0,0
581,92,0,0,0,0,0,0,0,0,0,-1,1805,932,0,0
588,92,0,0,0,0,0,0,0,0,0,-1,1812,932,0,0
595,92,0,0,0,0,0,0,0,0,0,-1,1819,932,0,0
602,92,0,0,0,0,0,0,0,0,0,-1,1826,932,0,0
609,92,0,0,0,0,0,0,0,0,0,-1,1833,932,0,0
616,92,0,0,0,0,0,0,0,0,0,-1,1840,932,0,0
623,92,0,0,0,0,0,0,0,0,0,-1,1847,932,0,0
630,92,0,0,0,0,0,0,0,0,0,-1,1854,932,0,0
637,92,11.861,1.63763,-0.00498481,-0.00285651,0.000379669,-0.00279081,-0.00505051,1.39944,0.00292128,0.0452621,1861,932,11.8609,-1.63763
644,92,11.9716,1.44916,-0.00335307,-0.0019982,0.000819493,-0.00161239,-0.00373888,1.13079,0.00216544,0.0397037,1868,932,11.9716,-1.44916
651,92,11.8069,1.76044,-0.00238484,-0.00143495,0.000731924,-0.00103738,-0.00278241,1.0732,0.00162365,0.0396402,1875,932,11.8068,-1.76041
658,92,11.8419,1.66473,-0.00235732,-0.000997264,0.000350524,-0.00091224,-0.00244234,1.33283,0.00142505,0.0440037,1882,932,11.842,-1.66475
665,92,11.7935,1.80804,-0.0030668,-0.000649149,-9.3684e-05,-0.000645524,-0.00307043,-1.53212,0.00186931,0.044187,1889,932,11.7934,-1.80807
672,92,11.943,1.79803,-0.00398894,-0.00041046,-0.000466423,-0.000350665,-0.00404873,-1.44329,0.00259019,0.0416978,1896,932,11.943,-1.79803
679,92,11.9894,1.69696,-0.00485415,-0.000282846,-0.000732528,-0.000168331,-0.00496867,-1.41572,0.00325778,0.0365537,1903,932,11.9894,-1.69693
686,92,11.8494,1.7298,-0.00560637,-0.000196379,-0.00094491,-3.60897e-05,-0.00576665,-1.40276,0.00383246,0.0284322,1910,932,11.8494,-1.72983
693,92,11.7672,1.76959,-0.00617346,7.58229e-05,-0.000955654,0.000218697,-0.00631634,-1.42239,0.00428565,0.0228266,1917,932,11.7672,-1.76956
700,92,11.8199,1.57404,0,0,0,0,0,0,0,-1,1924,932,11.8199,-1.57405
707,92,11.3086,1.76392,-0.00624856,0.00026275,-0.00110854,0.000446301,-0.00643211,-1.4067,0.00444432,0.0318207,1931,932,11.3086,-1.76389
714,92,10.9438,1.87555,-0.00614285,0.000312113,-0.00106954,0.000484714,-0.00631545,-1.4108,0.00438082,0.021999,1938,932,10.9438,-1.87553
721,92,11.0084,1.98065,-0.00579132,0.000305637,-0.00112077,0.000505133,-0.00599081,-1.39464,0.00417246,0.0206196,1945,932,11.0084,-1.98065
728,92,11.0016,2.08032,-0.00491624,0.000407273,-0.00166096,0.000882988,-0.00539196,-1.29185,0.00392224,0.0157416,1952,932,11.0016,-2.08034
735,92,11,2.11786,-0.00366129,0.000441976,-0.00287559,0.00192279,-0.0051421,-1.09525,0.00421772,0.0151346,1959,932,11,-2.11788
742,92,11.0411,2.15228,-0.00254579,0.0014928,-0.00436986,0.00428737,-0.00534036,-1.00183,0.00556964,0.0157489,1966,932,11.0411,-2.15229
749,92,11.009,2.21796,-0.00129631,0.00250499,-0.00648804,0.00736505,-0.00615636,-0.927885,0.00781698,0.0125633,1973,932,11.0091,-2.21795
756,92,10.9681,2.29181,-0.000290387,0.00372304,-0.00939495,0.0113232,-0.00789054,-0.890615,0.0111519,0.0123728,1980,932,10.9681,-2.29182
763,92,11.006,2.33496,0.000408446,0.00550321,-0.0130633,0.0162652,-0.0103535,-0.881691,0.0154941,0.0144135,1987,932,11.006,-2.33496
770,92,11.0048,2.38666,0.000396944,0.00805114,-0.01759,0.0222256,-0.0137775,-0.892515,0.0209763,0.0235086,1994,932,11.0048,-2.38666
777,92,10.9984,2.37073,-0.000239041,0.011568,-0.0228888,0.0293023,-0.0179734,-0.911608,0.0275547,0.0432144,2001,932,10.9984,-2.37072
784,92,11.0167,2.34393,0,0,0,0,0,0,0,-1,2008,932,11.0167,-2.34391
791,92,10.3053,2.03058,-0.00368192,0.0227362,-0.0356664,0.047561,-0.0285067,-0.962742,0.0443746,0.0431013,2015,932,10.3053,-2.03055
798,92,10.256,1.93506,-0.00707596,0.0313105,-0.0426964,0.0589292,-0.0346947,-0.996629,0.0546541,0.0426387,2022,932,10.256,-1.93505
805,92,0,0,0,0,0,0,0,0,0,-1,2029,932,0,0
812,92,0,0,0,0,0,0,0,0,0,-1,2036,932,0,0
-700,85,0,0,0,0,0,0,0,0,0,-1,524,939,0,0
-693,85,0,0,0,0,0,0,0,0,0,-1,531,939,0,0
-686,85,-4.52618,1.9093,0,0,0,0,0,0,0,-1,538,939,-4.52616,-1.90932
-679,85,-4.36737,2.50989,0,0,0,0,0,0,0,-1,545,939,-4.3674,-2.50989
-672,85,-3.7829,3.01874,0,0,0,0,0,0,0,-1,552,939,-3.7829,-3.01873
-665,85,-4.16705,2.73584,0,0,0,0,0,0,0,-1,559,939,-4.16703,-2.73585
-658,85,-4.41742,2.48822,-0.0146562,-0.00952137,-0.00247396,-0.00852339,-0.0156542,-1.18737,0.00904987,0.0431849,566,939,-4.41742,-2.48819
-651,85,-5.40796,1.04193,-0.0132806,-0.00800116,-0.00252112,-0.00699065,-0.0142911,-1.18959,0.00825161,0.0412527,573,939,-5.40793,-1.04196
-644,85,-5.48926,1.05432,-0.0113233,-0.00628858,-0.00216765,-0.00548392,-0.012128,-1.21535,0.00701276,0.0308226,580,939,-5.48926,-1.05432
-637,85,-5.57935,1.04779,-0.00932913,-0.00496545,-0.00168742,-0.00438907,-0.00990552,-1.24164,0.00573129,0.01599,587,939,-5.57932,-1.04778
-630,85,-5.61731,1.01062,-0.00759935,-0.00401423,-0.00154289,-0.00344167,-0.00817191,-1.21546,0.00473756,0.0102179,594,939,-5.61733,-1.01063
-623,85,-5.62225,0.950073,-0.00644026,-0.00217944,-0.000764863,-0.00204629,-0.0065734,-1.39845,0.0038842,0.00857968,601,939,-5.62227,-0.950063
-616,85,-5.62659,0.918396,-0.00536579,-0.00112363,-0.000249078,-0.00110906,-0.00538036,-1.51235,0.00328032,0.00830777,608,939,-5.62659,-0.918408
-609,85,-5.63611,0.878662,-0.00480036,-0.000562299,0.000223955,-0.000550497,-0.00481216,1.51815,0.00304126,0.0103952,615,939,-5.63613,-0.878688
-602,85,-5.63208,0.828369,-0.00428227,0.000229132,0.00108041,0.000474524,-0.00452767,1.34746,0.00318841,0.014384,622,939,-5.63209,-0.828373
-595,85,-5.5968,0.789795,-0.00442002,0.000138103,0.00115088,0.000412206,-0.00469412,1.33698,0.00327547,0.016333,629,939,-5.59679,-0.789772
-588,85,-5.58923,0.73645,-0.00490944,-6.7916e-05,0.00107037,0.000158164,-0.00513552,1.36264,0.0034776,0.015979,636,939,-5.58925,-0.736464
-581,85,-5.59253,0.67572,-0.00531514,-0.000131224,0.00103304,6.70529e-05,-0.00551342,1.38117,0.00369817,0.0150301,643,939,-5.5925,-0.67574
-574,85,-5.73456,0.68573,-0.00571525,-0.000164717,0.00098551,5.06826e-06,-0.00588504,1.40019,0.00392505,0.0231596,650,939,-5.73456,-0.685733
-567,85,-5.97058,0.651978,-0.00597514,-5.47802e-05,0.000842194,6.26941e-05,-0.00609261,1.4322,0.0040828,0.0303704,657,939,-5.9706,-0.651998
-560,85,-5.99725,0.585083,-0.00577963,9.5162e-05,0.00062665,0.000161262,-0.00584573,1.4657,0.003952,0.0330584,664,939,-5.99727,-0.585068
-553,85,-6.09137,0.639038,-0.00532227,0.00028077,0.00027445,0.000294181,-0.00533568,1.52197,0.00365912,0.0391588,671,939,-6.09139,-0.639032
-546,85,-6.21069,0.834045,-0.00453068,0.000538182,-0.000268324,0.000552346,-0.00454485,-1.51806,0.0032298,0.0427087,678,939,-6.21069,-0.834043
-539,85,-6.11414,0.852234,-0.00345983,0.000881324,-0.00104733,0.00112079,-0.0036993,-1.34602,0.00291259,0.0402734,685,939,-6.11412,-0.852239
-532,85,-5.96576,0.713867,-0.00221118,0.00134485,-0.00211656,0.0023311,-0.00319743,-1.13474,0.00320494,0.0399366,692,939,-5.96577,-0.713849
-525,85,-6.047,0.694763,-0.00110421,0.00197219,-0.00352782,0.00428257,-0.00341459,-0.990981,0.00445337,0.037386,699,939,-6.047,-0.694734
-518,85,-6.23657,0.751038,-0.00104862,0.00280518,-0.0052399,0.00646124,-0.00470468,-0.961591,0.00647319,0.0365028,706,939,-6.23655,-0.751036
-511,85,0,0,0,0,0,0,0,0,0,-1,713,939,0,0
-504,85,0,0,0,0,0,0,0,0,0,-1,720,939,0,0
-497,85,0,0,0,0,0,0,0,0,0,-1,727,939,0,0
-490,85,0,0,0,0,0,0,0,0,0,-1,734,939,0,0
-483,85,0,0,0,0,0,0,0,0,0,-1,741,939,0,0
-476,85,0,0,0,0,0,0,0,0,0,-1,748,939,0,0
-469,85,0,0,0,0,0,0,0,0,0,-1,755,939,0,0
-462,85,0,0,0,0,0,0,0,0,0,-1,762,939,0,0
-455,85,0,0,0,0,0,0,0,0,0,-1,769,939,0,0
-448,85,0,0,0,0,0,0,0,0,0,-1,776,939,0,0
-441,85,0,0,0,0,0,0,0,0,0,-1,783,939,0,0
-434,85,0,0,0,0,0,0,0,0,0,-1,790,939,0,0
-427,85,0,0,0,0,0,0,0,0,0,-1,797,939,0,0
-420,85,0,0,0,0,0,0,0,0,0,-1,804,939,0,0
-413,85,0,0,0,0,0,0,0,0,0,-1,811,939,0,0
-406,85,0,0,0,0,0,0,0,0,0,-1,818,939,0,0
-399,85,0,0,0,0,0,0,0,0,0,-1,825,939,0,0
-392,85,0,0,0,0,0,0,0,0,0,-1,832,939,0,0
-385,85,0,0,0,0,0,0,0,0,0,-1,839,939,0,0
-378,85,0,0,0,0,0,0,0,0,0,-1,846,939,0,0
-371,85,0,0,0,0,0,0,0,0,0,-1,853,939,0,0
-364,85,0,0,0,0,0,0,0,0,0,-1,860,939,0,0
-357,85,0,0,0,0,0,0,0,0,0,-1,867,939,0,0
-350,85,0,0,0,0,0,0,0,0,0,-1,874,939,0,0
-343,85,0,0,0,0,0,0,0,0,0,-1,881,939,0,0
-336,85,0,0,0,0,0,0,0,0,0,-1,888,939,0,0
-329,85,0,0,0,0,0,0,0,0,0,-1,895,939,0,0
-322,85,0,0,0,0,0,0,0,0,0,-1,902,939,0,0
-315,85,0,0,0,0,0,0,0,0,0,-1,909,939,0,0
-308,85,0,0,0,0,0,0,0,0,0,-1,916,939,0,0
-301,85,0,0,0,0,0,0,0,0,0,-1,923,939,0,0
-294,85,0,0,0,0,0,0,0,0,0,-1,930,939,0,0
-287,85,0,0,0,0,0,0,0,0,0,-1,937,939,0,0
-280,85,0,0,0,0,0,0,0,0,0,-1,944,939,0,0
-273,85,0,0,0,0,0,0,0,0,0,-1,951,939,0,0
-266,85,0,0,0,0,0,0,0,0,0,-1,958,939,0,0
-259,85,0,0,0,0,0,0,0,0,0,-1,965,939,0,0
-252,85,0,0,0,0,0,0,0,0,0,-1,972,939,0,0
-245,85,0,0,0,0,0,0,0,0,0,-1,979,939,0,0
-238,85,0,0,0,0,0,0,0,0,0,-1,986,939,0,0
-231,85,0,0,0,0,0,0,0,0,0,-1,993,939,0,0
-224,85,0,0,0,0,0,0,0,0,0,-1,1000,939,0,0
-217,85,0,0,0,0,0,0,0,0,0,-1,1007,939,0,0
-210,85,0,0,0,0,0,0,0,0,0,-1,1014,939,0,0
-203,85,0,0,0,0,0,0,0,0,0,-1,1021,939,0,0
-196,85,0,0,0,0,0,0,0,0,0,-1,1028,939,0,0
-189,85,0,0,0,0,0,0,0,0,0,-1,1035,939,0,0
-182,85,0,0,0,0,0,0,0,0,0,-1,1042,939,0,0
-175,85,0,0,0,0,0,0,0,0,0,-1,1049,939,0,0
-168,85,0,0,0,0,0,0,0,0,0,-1,1056,939,0,0
-161,85,0,0,0,0,0,0,0,0,0,-1,1063,939,0,0
-154,85,0,0,0,0,0,0,0,0,0,-1,1070,939,0,0
-147,85,0,0,0,0,0,0,0,0,0,-1,1077,939,0,0
-140,85,0,0,0,0,0,0,0,0,0,-1,1084,939,0,0
-133,85,0,0,0,0,0,0,0,0,0,-1,1091,939,0,0
-126,85,0,0,0,0,0,0,0,0,0,-1,1098,939,0,0
-119,85,0,0,0,0,0,0,0,0,0,-1,1105,939,0,0
-112,85,0,0,0,0,0,0,0,0,0,-1,1112,939,0,0
-105,85,0,0,0,0,0,0,0,0,0,-1,1119,939,0,0
-98,85,0,0,0,0,0,0,0,0,0,-1,1126,939,0,0
-91,85,0,0,0,0,0,0,0,0,0,-1,1133,939,0,0
-84,85,0,0,0,0,0,0,0,0,0,-1,1140,939,0,0
-77,85,0,0,0,0,0,0,0,0,0,-1,1147,939,0,0
-70,85,0,0,0,0,0,0,0,0,0,-1,1154,939,0,0
-63,85,0,0,0,0,0,0,0,0,0,-1,1161,939,0,0
-56,85,0,0,0,0,0,0,0,0,0,-1,1168,939,0,0
-49,85,0,0,0,0,0,0,0,0,0,-1,1175,939,0,0
-42,85,0,0,0,0,0,0,0,0,0,-1,1182,939,0,0
-35,85,0,0,0,0,0,0,0,0,0,-1,1189,939,0,0
-28,85,0,0,0,0,0,0,0,0,0,-1,1196,939,0,0
-21,85,0,0,0,0,0,0,0,0,0,-1,1203,939,0,0
-14,85,0,0,0,0,0,0,0,0,0,-1,1210,939,0,0
-7,85,0,0,0,0,0,0,0,0,0,-1,1217,939,0,0
0,85,0,0,0,0,0,0,0,0,0,-1,1224,939,0,0
7,85,0,0,0,0,0,0,0,0,0,-1,1231,939,0,0
14,85,0,0,0,0,0,0,0,0,0,-1,1238,939,0,0
21,85,0,0,0,0,0,0,0,0,0,-1,1245,939,0,0
28,85,0,0,0,0,0,0,0,0,0,-1,1252,939,0,0
35,85,0,0,0,0,0,0,0,0,0,-1,1259,939,0,0
42,85,0,0,0,0,0,0,0,0,0,-1,1266,939,0,0
49,85,0,0,0,0,0,0,0,0,0,-1,1273,939,0,0
56,85,0,0,0,0,0,0,0,0,0,-1,1280,939,0,0
63,85,0,0,0,0,0,0,0,0,0,-1,1287,939,0,0
70,85,0,0,0,0,0,0,0,0,0,-1,1294,939,0,0
77,85,0,0,0,0,0,0,0,0,0,-1,1301,939,0,0
84,85,0,0,0,0,0,0,0,0,0,-1,1308,939,0,0
91,85,0,0,0,0,0,0,0,0,0,-1,1315,939,0,0
98,85,0,0,0,0,0,0,0,0,0,-1,1322,939,0,0
105,85,0,0,0,0,0,0,0,0,0,-1,1329,939,0,0
112,85,0,0,0,0,0,0,0,0,0,-1,1336,939,0,0
119,85,0,0,0,0,0,0,0,0,0,-1,1343,939,0,0
126,85,0,0,0,0,0,0,0,0,0,-1,1350,939,0,0
133,85,0,0,0,0,0,0,0,0,0,-1,1357,939,0,0
140,85,0,0,0,0,0,0,0,0,0,-1,1364,939,0,0
147,85,0,0,0,0,0,0,0,0,0,-1,1371,939,0,0
154,85,0,0,0,0,0,0,0,0,0,-1,1378,939,0,0
161,85,0,0,0,0,0,0,0,0,0,-1,1385,939,0,0
168,85,0,0,0,0,0,0,0,0,0,-1,1392,939,0,0
175,85,0,0,0,0,0,0,0,0,0,-1,1399,939,0,0
182,85,0,0,0,0,0,0,0,0,0,-1,1406,939,0,0
189,85,0,0,0,0,0,0,0,0,0,-1,1413,939,0,0
196,85,0,0,0,0,0,0,0,0,0,-1,1420,939,0,0
203,85,0,0,0,0,0,0,0,0,0,-1,1427,939,0,0
210,85,0,0,0,0,0,0,0,0,0,-1,1434,939,0,0
217,85,0,0,0,0,0,0,0,0,0,-1,1441,939,0,0
224,85,0,0,0,0,0,0,0,0,0,-1,1448,939,0,0
231,85,0,0,0,0,0,0,0,0,0,-1,1455,939,0,0
238,85,0,0,0,0,0,0,0,0,0,-1,1462,939,0,0
245,85,0,0,0,0,0,0,0,0,0,-1,1469,939,0,0
252,85,0,0,0,0,0,0,0,0,0,-1,1476,939,0,0
259,85,0,0,0,0,0,0,0,0,0,-1,1483,939,0,0
266,85,0,0,0,0,0,0,0,0,0,-1,1490,939,0,0
273,85,0,0,0,0,0,0,0,0,0,-1,1497,939,0,0
280,85,0,0,0,0,0,0,0,0,0,-1,1504,939,0,0
287,85,0,0,0,0,0,0,0,0,0,-1,1511,939,0,0
294,85,0,0,0,0,0,0,0,0,0,-1,1518,939,0,0
301,85,0,0,0,0,0,0,0,0,0,-1,1525,939,0,0
308,85,0,0,0,0,0,0,0,0,0,-1,1532,939,0,0
315,85,0,0,0,0,0,0,0,0,0,-1,1539,939,0,0
322,85,0,0,0,0,0,0,0,0,0,-1,1546,939,0,0
329,85,0,0,0,0,0,0,0,0,0,-1,1553,939,0,0
336,85,0,0,0,0,0,0,0,0,0,-1,1560,939,0,0
343,85,0,0,0,0,0,0,0,0,0,-1,1567,939,0,0
350,85,0,0,0,0,0,0,0,0,0,-1,1574,939,0,0
357,85,0,0,0,0,0,0,0,0,0,-1,1581,939,0,0
364,85,0,0,0,0,0,0,0,0,0,-1,1588,939,0,0
371,85,0,0,0,0,0,0,0,0,0,-1,1595,939,0,0
378,85,0,0,0,0,0,0,0,0,0,-1,1602,939,0,0
385,85,0,0,0,0,0,0,0,0,0,-1,1609,939,0,0
392,85,0,0,0,0,0,0,0,0,0,-1,1616,939,0,0
399,85,0,0,0,0,0,0,0,0,0,-1,1623,939,0,0
406,85,0,0,0,0,0,0,0,0,0,-1,1630,939,0,0
413,85,0,0,0,0,0,0,0,0,0,-1,1637,939,0,0
420,85,0,0,0,0,0,0,0,0,0,-1,1644,939,0,0
427,85,0,0,0,0,0,0,0,0,0,-1,1651,939,0,0
434,85,0,0,0,0,0,0,0,0,0,-1,1658,939,0,0
441,85,0,0,0,0,0,0,0,0,0,-1,1665,939,0,0
448,85,0,0,0,0,0,0,0,0,0,-1,1672,939,0,0
455,85,0,0,0,0,0,0,0,0,0,-1,1679,939,0,0
462,85,0,0,0,0,0,0,0,0,0,-1,1686,939,0,0
469,85,0,0,0,0,0,0,0,0,0,-1,1693,939,0,0
476,85,0,0,0,0,0,0,0,0,0,-1,1700,939,0,0
483,85,0,0,0,0,0,0,0,0,0,-1,1707,939,0,0
490,85,0,0,0,0,0,0,0,0,0,-1,1714,939,0,0
497,85,0,0,0,0,0,0,0,0,0,-1,1721,939,0,0
504,85,0,0,0,0,0,0,0,0,0,-1,1728,939,0,0
511,85,0,0,0,0,0,0,0,0,0,-1,1735,939,0,0
518,85,0,0,0,0,0,0,0,0,0,-1,1742,939,0,0
525,85,0,0,0,0,0,0,0,0,0,-1,1749,939,0,0
532,85,0,0,0,0,0,0,0,0,0,-1,1756,939,0,0
539,85,0,0,0,0,0,0,0,0,0,-1,1763,939,0,0
546,85,0,0,0,0,0,0,0,0,0,-1,1770,939,0,0
553,85,0,0,0,0,0,0,0,0,0,-1,1777,939,0,0
560,85,0,0,0,0,0,0,0,0,0,-1,1784,939,0,0
567,85,0,0,0,0,0,0,0,0,0,-1,1791,939,0,0
574,85,0,0,0,0,0,0,0,0,0,-1,1798,939,0,0
581,85,0,0,0,0,0,0,0,0,0,-1,1805,939,0,0
588,85,0,0,0,0,0,0,0,0,0,-1,1812,939,0,0
595,85,0,0,0,0,0,0,0,0,0,-1,1819,939,0,0
602,85,0,0,0,0,0,0,0,0,0,-1,1826,939,0,0
609,85,0,0,0,0,0,0,0,0,0,-1,1833,939,0,0
616,85,0,0,0,0,0,0,0,0,0,-1,1840,939,0,0
623,85,0,0,0,0,0,0,0,0,0,-1,1847,939,0,0
630,85,0,0,0,0,0,0,0,0,0,-1,1854,939,0,0
637,85,11.8005,1.69379,-0.004914,-0.00306466,0.000290628,-0.00302006,-0.0049586,1.41853,0.00288546,0.0469737,1861,939,11.8005,-1.69381
644,85,11.7607,1.51196,-0.00339336,-0.00194459,0.00071345,-0.00165225,-0.00368571,1.1819,0.00213174,0.0416193,1868,939,11.7607,-1.51194
651,85,11.6594,1.65247,-0.00234554,-0.00122923,0.000656081,-0.000926002,-0.00264877,1.13786,0.00155216,0.041888,1875,939,11.6594,-1.65248
658,85,11.7813,1.62115,0,0,0,0,0,0,0,-1,1882,939,11.7813,-1.62117
665,85,11.6708,1.90051,-0.00270218,-0.000354764,2.90488e-06,-0.000354761,-0.00270218,1.56956,0.00169562,0.0464782,1889,939,11.6708,-1.90049
672,85,11.8214,1.87421,-0.00361019,-0.000120487,-0.000287642,-9.69367e-05,-0.00363374,-1.4891,0.00239083,0.0441662,1896,939,11.8214,-1.87419
679,85,11.9001,1.86194,-0.00452681,5.40796e-07,-0.000494158,5.385e-05,-0.00458012,-1.46333,0.00307152,0.0380083,1903,939,11.9002,-1.86194
686,85,11.7889,1.86084,-0.00532539,5.03841e-05,-0.000665709,0.000131595,-0.0054066,-1.4494,0.00364905,0.0321917,1910,939,11.789,-1.86083
693,85,11.7599,1.77234,-0.00593607,0.000252344,-0.000647309,0.000319327,-0.00600306,-1.46768,0.00411261,0.0260462,1917,939,11.7599,-1.77237
700,85,11.785,1.71466,-0.00611809,0.000303074,-0.000705604,0.000379696,-0.00619472,-1.46263,0.00426202,0.0257618,1924,939,11.785,-1.71468
707,85,11.4683,1.75732,-0.00619127,0.000361015,-0.000774472,0.000451312,-0.00628157,-1.45473,0.00434597,0.0343253,1931,939,11.4682,-1.75733
714,85,11.0468,1.9314,0,0,0,0,0,0,0,-1,1938,939,11.0467,-1.93137
721,85,11.062,2.00708,-0.00591115,0.00036705,-0.000799519,0.000467268,-0.00601137,-1.4461,0.00417207,0.020605,1945,939,11.062,-2.0071
728,85,11.0627,2.09204,-0.00513168,0.000411777,-0.00135485,0.000725188,-0.00544509,-1.34347,0.00389436,0.0163805,1952,939,11.0628,-2.09204
735,85,11.0529,2.11566,-0.00406357,0.00023343,-0.00250218,0.00138296,-0.0052131,-1.14015,0.00401655,0.0156014,1959,939,11.0529,-2.11566
742,85,11.0962,2.16016,-0.00318967,0.000822697,-0.00391659,0.00321702,-0.005584,-1.02209,0.00514216,0.0131688,1966,939,11.0962,-2.16013
749,85,11.0691,2.21985,-0.00219304,0.0014295,-0.00586756,0.005759,-0.00652253,-0.935104,0.00709531,0.0124545,1973,939,11.0691,-2.21986
756,85,11.0428,2.26599,-0.00144262,0.00203359,-0.00852699,0.00899782,-0.00840684,-0.885939,0.0100505,0.012163,1980,939,11.0429,-2.26601
763,85,11.0562,2.33295,-0.000984618,0.00296433,-0.0118783,0.0130311,-0.0110514,-0.867758,0.0139197,0.0123849,1987,939,11.0561,-2.33295
770,85,11.056,2.38153,-0.00130873,0.00435756,-0.0160122,0.0177854,-0.0147365,-0.87296,0.018804,0.0176829,1994,939,11.056,-2.38151
777,85,11.0455,2.32697,-0.00238025,0.00637518,-0.0208318,0.0232843,-0.0192894,-0.888964,0.024616,0.0399463,2001,939,11.0455,-2.32694
784,85,11.1218,2.42084,-0.00422575,0.00919708,-0.0263368,0.0296642,-0.0246928,-0.910158,0.0314268,0.0487318,2008,939,11.1218,-2.42081
791,85,10.9004,2.20215,-0.00692637,0.0130953,-0.0324643,0.0370572,-0.0308883,-0.934954,0.0392822,0.0484013,2015,939,10.9003,-2.20216
798,85,10.7761,1.95917,-0.0108576,0.0184766,-0.038947,0.0454267,-0.0378077,-0.965481,0.0481225,0.0453469,2022,939,10.7762,-1.95915
805,85,10.5947,1.81567,-0.0167122,0.0258899,-0.0453108,0.0546569,-0.0454791,-1.00512,0.0578944,0.0487831,2029,939,10.5947,-1.81568
812,85,0,0,0,0,0,0,0,0,0,-1,2036,939,0,0
-700,78,0,0,0,0,0,0,0,0,0,-1,524,946,0,0
-693,78,0,0,0,0,0,0,0,0,0,-1,531,946,0,0
-686,78,-4.46625,2.38049,-0.00472209,-0.000505275,0.00835522,0.00600345,-0.0112308,0.908991,0.0101016,0.0422176,538,946,-4.46622,-2.3805
-679,78,-5.12854,2.61237,0,0,0,0,0,0,0,-1,545,946,-5.12855,-2.61238
-672,78,-5.44366,2.62952,0,0,0,0,0,0,0,-1,552,946,-5.44366,-2.62952
-665,78,-3.70001,3.2381,0,0,0,0,0,0,0,-1,559,946,-3.7,-3.23812
-658,78,-3.69415,2.95642,-0.0146383,-0.00837991,-0.00273186,-0.0073552,-0.015663,-1.21194,0.00904862,0.0461112,566,946,-3.69415,-2.95641
-651,78,-5.47565,0.971924,-0.0134159,-0.00760103,-0.00295943,-0.0063598,-0.0146571,-1.17367,0.00848691,0.0428891,573,946,-5.47566,-0.971943
-644,78,-5.57751,1.0332,-0.0115671,-0.00636856,-0.00270775,-0.00521441,-0.0127212,-1.16788,0.00738424,0.0251104,580,946,-5.57751,-1.03323
-637,78,-5.63562,1.0481,-0.00965626,-0.00539098,-0.0022692,-0.00440956,-0.0106377,-1.16259,0.00617151,0.0129892,587,946,-5.63565,-1.04807
-630,78,-5.65607,0.996521,-0.00800158,-0.00459592,-0.00211105,-0.00358653,-0.00901097,-1.12478,0.00523843,0.0120779,594,946,-5.65605,-0.996495
-623,78,-5.66309,0.936157,-0.0068309,-0.00277766,-0.00131513,-0.00238834,-0.00722022,-1.28298,0.00424743,0.0108903,601,946,-5.66312,-0.936178
-616,78,-5.68262,0.905457,-0.00556786,-0.00156847,-0.000725855,-0.00144081,-0.00569552,-1.3967,0.00341947,0.0092513,608,946,-5.68262,-0.905435
-609,78,-5.66296,0.876526,-0.00480911,-0.000729797,-0.00020205,-0.000719814,-0.00481909,-1.52143,0.0030017,0.0103012,615,946,-5.66296,-0.876513
-602,78,-5.67462,0.831238,-0.00414085,0.000204298,0.000711114,0.000317717,-0.00425426,1.41263,0.00294779,0.0140372,622,946,-5.67462,-0.831263
-595,78,-5.65637,0.770935,-0.00412926,0.000282729,0.000880136,0.000451824,-0.00429835,1.38099,0.00302744,0.0140056,629,946,-5.6564,-0.770952
-588,78,-5.64069,0.753906,-0.00448899,0.000187621,0.000816109,0.000325948,-0.00462732,1.4029,0.00319907,0.0124664,636,946,-5.64071,-0.753925
-581,78,-5.66846,0.711487,-0.00477734,0.000182511,0.000764276,0.000297609,-0.00489244,1.42132,0.00336522,0.0153869,643,946,-5.66849,-0.711514
-574,78,-5.84979,0.667603,-0.00506125,0.000226885,0.00070863,0.000320197,-0.00515456,1.43987,0.00354793,0.0221174,650,946,-5.84979,-0.667631
-567,78,-6.04626,0.617859,-0.00522893,0.000430764,0.000576788,0.000488947,-0.00528712,1.47026,0.00369851,0.029369,657,946,-6.04625,-0.617849
-560,78,-6.08667,0.634155,-0.00499124,0.000676549,0.000391796,0.000703505,-0.00501819,1.5021,0.00360293,0.030327,664,946,-6.08668,-0.634134
-553,78,-6.01447,0.742859,-0.00450552,0.000973246,8.59141e-05,0.000974593,-0.00450687,1.55512,0.00337665,0.0403424,671,946,-6.01444,-0.74287
-546,78,-6.04547,1.00452,-0.00376054,0.00135765,-0.000383569,0.00138623,-0.00378913,-1.49641,0.00309349,0.0433298,678,946,-6.04546,-1.00453
-539,78,-6.03711,1.12689,-0.00283814,0.00184886,-0.00106664,0.00208019,-0.00306947,-1.35723,0.00299139,0.0399988,685,946,-6.03708,-1.12687
-532,78,-5.98975,0.876831,-0.00188346,0.00249577,-0.00202428,0.00328812,-0.00267581,-1.19771,0.00344932,0.0409508,692,946,-5.98975,-0.876835
-525,78,-5.99725,0.689087,-0.00132944,0.00336051,-0.00330434,0.00506739,-0.00303632,-1.09399,0.00472741,0.0387082,699,946,-5.99725,-0.68911
-518,78,-6.04181,0.541199,-0.0021925,0.00448905,-0.00492194,0.00709691,-0.00480035,-1.08356,0.00691141,0.0402308,706,946,-6.04184,-0.541211
-511,78,0,0,0,0,0,0,0,0,0,-1,713,946,0,0
-504,78,0,0,0,0,0,0,0,0,0,-1,720,946,0,0
-497,78,0,0,0,0,0,0,0,0,0,-1,727,946,0,0
-490,78,0,0,0,0,0,0,0,0,0,-1,734,946,0,0
-483,78,0,0,0,0,0,0,0,0,0,-1,741,946,0,0
-476,78,0,0,0,0,0,0,0,0,0,-1,748,946,0,0
-469,78,0,0,0,0,0,0,0,0,0,-1,755,946,0,0
-462,78,0,0,0,0,0,0,0,0,0,-1,762,946,0,0
-455,78,0,0,0,0,0,0,0,0,0,-1,769,946,0,0
-448,78,0,0,0,0,0,0,0,0,0,-1,776,946,0,0
-441,78,0,0,0,0,0,0,0,0,0,-1,783,946,0,0
-434,78,0,0,0,0,0,0,0,0,0,-1,790,946,0,0
-427,78,0,0,0,0,0,0,0,0,0,-1,797,946,0,0
-420,78,0,0,0,0,0,0,0,0,0,-1,804,946,0,0
-413,78,0,0,0,0,0,0,0,0,0,-1,811,946,0,0
-406,78,0,0,0,0,0,0,0,0,0,-1,818,946,0,0
-399,78,0,0,0,0,0,0,0,0,0,-1,825,946,0,0
-392,78,0,0,0,0,0,0,0,0,0,-1,832,946,0,0
-385,78,0,0,0,0,0,0,0,0,0,-1,839,946,0,0
-378,78,0,0,0,0,0,0,0,0,0,-1,846,946,0,0
-371,78,0,0,0,0,0,0,0,0,0,-1,853,946,0,0
-364,78,0,0,0,0,0,0,0,0,0,-1,860,946,0,0
-357,78,0,0,0,0,0,0,0,0,0,-1,867,946,0,0
-350,78,0,0,0,0,0,0,0,0,0,-1,874,946,0,0
-343,78,0,0,0,0,0,0,0,0,0,-1,881,946,0,0
-336,78,0,0,0,0,0,0,0,0,0,-1,888,946,0,0
-329,78,0,0,0,0,0,0,0,0,0,-1,895,946,0,0
-322,78,0,0,0,0,0,0,0,0,0,-1,902,946,0,0
-315,78,0,0,0,0,0,0,0,0,0,-1,909,946,0,0
-308,78,0,0,0,0,0,0,0,0,0,-1,916,946,0,0
-301,78,0,0,0,0,0,0,0,0,0,-1,923,946,0,0
-294,78,0,0,0,0,0,0,0,0,0,-1,930,946,0,0
-287,78,0,0,0,0,0,0,0,0,0,-1,937,946,0,0
-280,78,0,0,0,0,0,0,0,0,0,-1,944,946,0,0
-273,78,0,0,0,0,0,0,0,0,0,-1,951,946,0,0
-266,78,0,0,0,0,0,0,0,0,0,-1,958,946,0,0
-259,78,0,0,0,0,0,0,0,0,0,-1,965,946,0,0
-252,78,0,0,0,0,0,0,0,0,0,-1,972,946,0,0
-245,78,0,0,0,0,0,0,0,0,0,-1,979,946,0,0
-238,78,0,0,0,0,0,0,0,0,0,-1,986,946,0,0
-231,78,0,0,0,0,0,0,0,0,0,-1,993,946,0,0
-224,78,0,0,0,0,0,0,0,0,0,-1,1000,946,0,0
-217,78,0,0,0,0,0,0,0,0,0,-1,1007,946,0,0
-210,78,0,0,0,0,0,0,0,0,0,-1,1014,946,0,0
-203,78,0,0,0,0,0,0,0,0,0,-1,1021,946,0,0
-196,78,0,0,0,0,0,0,0,0,0,-1,1028,946,0,0
-189,78,0,0,0,0,0,0,0,0,0,-1,1035,946,0,0
-182,78,0,0,0,0,0,0,0,0,0,-1,1042,946,0,0
-175,78,0,0,0,0,0,0,0,0,0,-1,1049,946,0,0
-168,78,0,0,0,0,0,0,0,0,0,-1,1056,946,0,0
-161,78,0,0,0,0,0,0,0,0,0,-1,1063,946,0,0
-154,78,0,0,0,0,0,0,0,0,0,-1,1070,946,0,0
-147,78,0,0,0,0,0,0,0,0,0,-1,1077,946,0,0
-140,78,0,0,0,0,0,0,0,0,0,-1,1084,946,0,0
-133,78,0,0,0,0,0,0,0,0,0,-1,1091,946,0,0
-126,78,0,0,0,0,0,0,0,0,0,-1,1098,946,0,0
-119,78,0,0,0,0,0,0,0,0,0,-1,1105,946,0,0
-112,78,0,0,0,0,0,0,0,0,0,-1,1112,946,0,0
-105,78,0,0,0,0,0,0,0,0,0,-1,1119,946,0,0
-98,78,0,0,0,0,0,0,0,0,0,-1,1126,946,0,0
-91,78,0,0,0,0,0,0,0,0,0,-1,1133,946,0,0
-84,78,0,0,0,0,0,0,0,0,0,-1,1140,946,0,0
-77,78,0,0,0,0,0,0,0,0,0,-1,1147,946,0,0
-70,78,0,0,0,0,0,0,0,0,0,-1,1154,946,0,0
-63,78,0,0,0,0,0,0,0,0,0,-1,1161,946,0,0
-56,78,0,0,0,0,0,0,0,0,0,-1,1168,946,0,0
-49,78,0,0,0,0,0,0,0,0,0,-1,1175,946,0,0
-42,78,0,0,0,0,0,0,0,0,0,-1,1182,946,0,0
-35,78,0,0,0,0,0,0,0,0,0,-1,1189,946,0,0
-28,78,0,0,0,0,0,0,0,0,0,-1,1196,946,0,0
-21,78,0,0,0,0,0,0,0,0,0,-1,1203,946,0,0
-14,78,0,0,0,0,0,0,0,0,0,-1,1210,946,0,0
-7,78,0,0,0,0,0,0,0,0,0,-1,1217,946,0,0
0,78,0,0,0,0,0,0,0,0,0,-1,1224,946,0,0
7,78,0,0,0,0,0,0,0,0,0,-1,1231,946,0,0
14,78,0,0,0,0,0,0,0,0,0,-1,1238,946,0,0
21,78,0,0,0,0,0,0,0,0,0,-1,1245,946,0,0
28,78,0,0,0,0,0,0,0,0,0,-1,1252,946,0,0
35,78,0,0,0,0,0,0,0,0,0,-1,1259,946,0,0
42,78,0,0,0,0,0,0,0,0,0,-1,1266,946,0,0
49,78,0,0,0,0,0,0,0,0,0,-1,1273,946,0,0
56,78,0,0,0,0,0,0,0,0,0,-1,1280,946,0,0
63,78,0,0,0,0,0,0,0,0,0,-1,1287,946,0,0
70,78,0,0,0,0,0,0,0,0,0,-1,1294,946,0,0
77,78,0,0,0,0,0,0,0,0,0,-1,1301,946,0,0
84,78,0,0,0,0,0,0,0,0,0,-1,1308,946,0,0
91,78,0,0,0,0,0,0,0,0,0,-1,1315,946,0,0
98,78,0,0,0,0,0,0,0,0,0,-1,1322,946,0,0
105,78,0,0,0,0,0,0,0,0,0,-1,1329,946,0,0
112,78,0,0,0,0,0,0,0,0,0,-1,1336,946,0,0
119,78,0,0,0,0,0,0,0,0,0,-1,1343,946,0,0
126,78,0,0,0,0,0,0,0,0,0,-1,1350,946,0,0
133,78,0,0,0,0,0,0,0,0,0,-1,1357,946,0,0
140,78,0,0,0,0,0,0,0,0,0,-1,1364,946,0,0
147,78,0,0,0,0,0,0,0,0,0,-1,1371,946,0,0
154,78,0,0,0,0,0,0,0,0,0,-1,1378,946,0,0
161,78,0,0,0,0,0,0,0,0,0,-1,1385,946,0,0
168,78,0,0,0,0,0,0,0,0,0,-1,1392,946,0,0
175,78,0,0,0,0,0,0,0,0,0,-1,1399,946,0,0
182,78,0,0,0,0,0,0,0,0,0,-1,1406,946,0,0
189,78,0,0,0,0,0,0,0,0,0,-1,1413,946,0,0
196,78,0,0,0,0,0,0,0,0,0,-1,1420,946,0,0
203,78,0,0,0,0,0,0,0,0,0,-1,1427,946,0,0
210,78,0,0,0,0,0,0,0,0,0,-1,1434,946,0,0
217,78,0,0,0,0,0,0,0,0,0,-1,1441,946,0,0
224,78,0,0,0,0,0,0,0,0,0,-1,1448,946,0,0
231,78,0,0,0,0,0,0,0,0,0,-1,1455,946,0,0
238,78,0,0,0,0,0,0,0,0,0,-1,1462,946,0,0
245,78,0,0,0,0,0,0,0,0,0,-1,1469,946,0,0
252,78,0,0,0,0,0,0,0,0,0,-1,1476,946,0,0
259,78,0,0,0,0,0,0,0,0,0,-1,1483,946,0,0
266,78,0,0,0,0,0,0,0,0,0,-1,1490,946,0,0
273,78,0,0,0,0,0,0,0,0,0,-1,1497,946,0,0
280,78,0,0,0,0,0,0,0,0,0,-1,1504,946,0,0
287,78,0,0,0,0,0,0,0,0,0,-1,1511,946,0,0
294,78,0,0,0,0,0,0,0,0,0,-1,1518,946,0,0
301,78,0,0,0,0,0,0,0,0,0,-1,1525,946,0,0
308,78,0,0,0,0,0,0,0,0,0,-1,1532,946,0,0
315,78,0,0,0,0,0,0,0,0,0,-1,1539,946,0,0
322,78,0,0,0,0,0,0,0,0,0,-1,1546,946,0,0
329,78,0,0,0,0,0,0,0,0,0,-1,1553,946,0,0
336,78,0,0,0,0,0,0,0,0,0,-1,1560,946,0,0
343,78,0,0,0,0,0,0,0,0,0,-1,1567,946,0,0
350,78,0,0,0,0,0,0,0,0,0,-1,1574,946,0,0
357,78,0,0,0,0,0,0,0,0,0,-1,1581,946,0,0
364,78,0,0,0,0,0,0,0,0,0,-1,1588,946,0,0
371,78,0,0,0,0,0,0,0,0,0,-1,1595,946,0,0
378,78,0,0,0,0,0,0,0,0,0,-1,1602,946,0,0
385,78,0,0,0,0,0,0,0,0,0,-1,1609,946,0,0
392,78,0,0,0,0,0,0,0,0,0,-1,1616,946,0,0
399,78,0,0,0,0,0,0,0,0,0,-1,1623,946,0,0
406,78,0,0,0,0,0,0,0,0,0,-1,1630,946,0,0
413,78,0,0,0,0,0,0,0,0,0,-1,1637,946,0,0
420,78,0,0,0,0,0,0,0,0,0,-1,1644,946,0,0
427,78,0,0,0,0,0,0,0,0,0,-1,1651,946,0,0
434,78,0,0,0,0,0,0,0,0,0,-1,1658,946,0,0
441,78,0,0,0,0,0,0,0,0,0,-1,1665,946,0,0
448,78,0,0,0,0,0,0,0,0,0,-1,1672,946,0,0
455,78,0,0,0,0,0,0,0,0,0,-1,1679,946,0,0
462,78,0,0,0,0,0,0,0,0,0,-1,1686,946,0,0
469,78,0,0,0,0,0,0,0,0,0,-1,1693,946,0,0
476,78,0,0,0,0,0,0,0,0,0,-1,1700,946,0,0
483,78,0,0,0,0,0,0,0,0,0,-1,1707,946,0,0
490,78,0,0,0,0,0,0,0,0,0,-1,1714,946,0,0
497,78,0,0,0,0,0,0,0,0,0,-1,1721,946,0,0
504,78,0,0,0,0,0,0,0,0,0,-1,1728,946,0,0
511,78,0,0,0,0,0,0,0,0,0,-1,1735,946,0,0
518,78,0,0,0,0,0,0,0,0,0,-1,1742,946,0,0
525,78,0,0,0,0,0,0,0,0,0,-1,1749,946,0,0
532,78,0,0,0,0,0,0,0,0,0,-1,1756,946,0,0
539,78,0,0,0,0,0,0,0,0,0,-1,1763,946,0,0
546,78,0,0,0,0,0,0,0,0,0,-1,1770,946,0,0
553,78,0,0,0,0,0,0,0,0,0,-1,1777,946,0,0
560,78,0,0,0,0,0,0,0,0,0,-1,1784,946,0,0
567,78,0,0,0,0,0,0,0,0,0,-1,1791,946,0,0
574,78,0,0,0,0,0,0,0,0,0,-1,1798,946,0,0
581,78,0,0,0,0,0,0,0,0,0,-1,1805,946,0,0
588,78,0,0,0,0,0,0,0,0,0,-1,1812,946,0,0
595,78,0,0,0,0,0,0,0,0,0,-1,1819,946,0,0
602,78,0,0,0,0,0,0,0,0,0,-1,1826,946,0,0
609,78,0,0,0,0,0,0,0,0,0,-1,1833,946,0,0
616,78,0,0,0,0,0,0,0,0,0,-1,1840,946,0,0
623,78,0,0,0,0,0,0,0,0,0,-1,1847,946,0,0
630,78,0,0,0,0,0,0,0,0,0,-1,1854,946,0,0
637,78,11.9004,1.7464,-0.00452354,-0.00296318,0.00023208,-0.00292939,-0.00455732,1.42623,0.0026667,0.04777,1861,946,11.9004,-1.74643
644,78,11.8167,1.57184,-0.00316707,-0.00167721,0.000602651,-0.00146396,-0.00338032,1.23069,0.00195744,0.0446129,1868,946,11.8166,-1.57182
651,78,11.6785,1.68817,-0.00213894,-0.000862497,0.000529142,-0.000671672,-0.00232976,1.22468,0.00138469,0.044098,1875,946,11.6785,-1.68819
658,78,11.6754,1.66998,-0.0017851,-0.000318953,0.000289591,-0.000263826,-0.00184023,1.38269,0.00114902,0.0415771,1882,946,11.6754,-1.66997
665,78,11.6558,1.9491,-0.00227017,5.945e-05,1.10951e-05,5.95029e-05,-0.00227023,1.56603,0.0015337,0.0429613,1889,946,11.6558,-1.94907
672,78,11.6162,2.20367,-0.00317421,0.0002982,-0.000196931,0.000309333,-0.00318534,-1.51432,0.00223382,0.0429734,1896,946,11.6162,-2.20365
679,78,11.6709,1.94763,-0.00414827,0.000420862,-0.000329135,0.000444449,-0.00417185,-1.49925,0.0029406,0.0401127,1903,946,11.6709,-1.94762
686,78,11.7383,1.88965,-0.00500199,0.000446809,-0.000441143,0.000482294,-0.00503747,-1.49053,0.00353008,0.0358655,1910,946,11.7382,-1.88966
693,78,11.7654,1.77344,-0.00567312,0.000576141,-0.000384474,0.000599707,-0.00569669,-1.50958,0.00401266,0.0281922,1917,946,11.7654,-1.77343
700,78,11.7777,1.69861,-0.00596005,0.000592894,-0.000423173,0.000620108,-0.00598727,-1.50657,0.00421345,0.0238221,1924,946,11.7777,-1.69861
707,78,11.6604,1.82697,-0.00614668,0.000605542,-0.00045833,0.000636511,-0.00617765,-1.50333,0.00434617,0.0325897,1931,946,11.6604,-1.82696
714,78,11.0859,1.95471,0,0,0,0,0,0,0,-1,1938,946,11.0859,-1.95471
721,78,11.1158,1.98773,-0.00600893,0.000535283,-0.000464384,0.000568072,-0.00604172,-1.50031,0.0042299,0.0177679,1945,946,11.1158,-1.98774
728,78,11.1532,2.07361,-0.00530504,0.000434197,-0.000929842,0.000581086,-0.00545192,-1.41412,0.00384298,0.0192543,1952,946,11.1532,-2.0736
735,78,11.1305,2.10889,-0.00435438,6.78488e-05,-0.00191813,0.00078389,-0.00507042,-1.21352,0.00366959,0.0127823,1959,946,11.1304,-2.10892
742,78,11.1409,2.16718,-0.0036019,0.000232482,-0.00316488,0.00201557,-0.00538499,-1.05772,0.00441787,0.0114533,1966,946,11.1408,-2.16717
749,78,11.1151,2.20483,-0.00274348,0.000468786,-0.00481839,0.00394169,-0.00621638,-0.946274,0.00591357,0.0126031,1973,946,11.1151,-2.20483
756,78,11.1184,2.22034,-0.00210199,0.000544695,-0.00705992,0.00640423,-0.00796152,-0.878045,0.0083103,0.0144065,1980,946,11.1184,-2.22031
763,78,11.1239,2.28107,-0.00169409,0.000754072,-0.00989488,0.00950029,-0.0104403,-0.84694,0.011517,0.0132162,1987,946,11.1239,-2.28107
770,78,11.1188,2.3429,-0.00205882,0.00118547,-0.0134057,0.0130668,-0.0139401,-0.845608,0.0155952,0.0161128,1994,946,11.1188,-2.3429
777,78,11.1458,2.29352,-0.00322707,0.00197842,-0.017508,0.0170761,-0.0183247,-0.859188,0.0204429,0.037078,2001,946,11.1458,-2.29349
784,78,11.3531,2.1723,-0.00520628,0.00323788,-0.0222121,0.0216256,-0.023594,-0.879318,0.0261158,0.0461051,2008,946,11.3532,-2.17232
791,78,11.5062,2.12885,-0.00799385,0.00515441,-0.0275085,0.0268634,-0.0297028,-0.902691,0.0326722,0.0463799,2015,946,11.5063,-2.12885
798,78,11.5649,2.08167,0,0,0,0,0,0,0,-1,2022,946,11.5649,-2.08164
805,78,11.1233,1.60889,0,0,0,0,0,0,0,-1,2029,946,11.1233,-1.60887
812,78,0,0,0,0,0,0,0,0,0,-1,2036,946,0,0
-700,71,0,0,0,0,0,0,0,0,0,-1,524,953,0,0
-693,71,0,0,0,0,0,0,0,0,0,-1,531,953,0,0
-686,71,-5.77893,1.22198,0,0,0,0,0,0,0,-1,538,953,-5.77893,-1.22197
-679,71,-5.22571,1.16028,0,0,0,0,0,0,0,-1,545,953,-5.22572,-1.16026
-672,71,-5.40021,1.65381,-0.012586,-0.00483993,0.000503772,-0.0048073,-0.0126187,1.50612,0.00735388,0.0434224,552,953,-5.40018,-1.6538
-665,71,-6.14087,1.5694,-0.0137898,-0.00664983,-0.00149708,-0.00634864,-0.014091,-1.37226,0.00814871,0.0471582,559,953,-6.14087,-1.56941
-658,71,-3.04956,3.44611,0,0,0,0,0,0,0,-1,566,953,-3.04954,-3.44612
-651,71,-5.66248,0.862122,-0.0127449,-0.00696787,-0.0029376,-0.00573655,-0.0139762,-1.17388,0.00811218,0.04364,573,953,-5.6625,-0.862093
-644,71,-5.64197,1.01563,-0.0111275,-0.0061018,-0.0028115,-0.00484385,-0.0123854,-1.15008,0.00720706,0.0311114,580,953,-5.64196,-1.0156
-637,71,-5.68781,1.03595,-0.00943649,-0.00545569,-0.0024747,-0.00427027,-0.0106219,-1.12408,0.00617168,0.0134488,587,953,-5.6878,-1.03595
-630,71,-5.70172,0.988708,-0.00796904,-0.00478991,-0.00236398,-0.00353077,-0.00922818,-1.08138,0.00537662,0.0124309,594,953,-5.70171,-0.988718
-623,71,-5.7196,0.925964,-0.00688502,-0.00308801,-0.00163328,-0.00248213,-0.00749089,-1.21558,0.00440611,0.0115826,601,953,-5.71961,-0.925987
-616,71,-5.73425,0.88446,-0.00553228,-0.00176803,-0.00103652,-0.00150149,-0.00579883,-1.3191,0.00347524,0.0110951,608,953,-5.73427,-0.884458
-609,71,-5.7077,0.867676,-0.00466166,-0.00076646,-0.000516394,-0.000699164,-0.00472895,-1.44121,0.00294735,0.0127973,615,953,-5.70771,-0.867685
-602,71,-5.68719,0.813904,-0.00391671,0.000196016,0.000380459,0.000230915,-0.00395161,1.47932,0.00271466,0.0150778,622,953,-5.68719,-0.813913
-595,71,-5.70496,0.783936,-0.00378888,0.000385174,0.000589827,0.000466921,-0.00387063,1.43308,0.00274931,0.0161259,629,953,-5.70495,-0.783955
-588,71,-5.70593,0.757874,-0.00404349,0.000391956,0.000529385,0.000454265,-0.0041058,1.45364,0.0029005,0.0159204,636,953,-5.70591,-0.757853
-581,71,-5.77063,0.700928,-0.00422485,0.000431283,0.000455409,0.000475408,-0.00426897,1.47421,0.00301696,0.0202008,643,953,-5.77062,-0.700949
-574,71,-5.9541,0.643494,-0.00440436,0.000518724,0.000387362,0.000549017,-0.00443465,1.49275,0.0031554,0.0263015,650,953,-5.95411,-0.643523
-567,71,-6.05121,0.60144,-0.00448999,0.000784737,0.000258832,0.000797407,-0.00450266,1.52188,0.00329985,0.0202519,657,953,-6.05121,-0.601411
-560,71,-6.07031,0.69873,-0.00422676,0.00108772,9.50317e-05,0.00108942,-0.00422846,1.55292,0.00324368,0.0263924,664,953,-6.07028,-0.698716
-553,71,-6.09595,0.797913,-0.00373921,0.00145174,-0.000169372,0.00145726,-0.00374473,-1.53821,0.00309865,0.0406177,671,953,-6.09597,-0.797933
-546,71,-6.04993,1.07043,-0.00306577,0.00190657,-0.000569571,0.00197098,-0.00313018,-1.45819,0.00297039,0.0437951,678,953,-6.04995,-1.07044
-539,71,-6.22516,0.897278,-0.00230407,0.00247095,-0.00116143,0.00273846,-0.00257158,-1.34442,0.00306626,0.0423914,685,953,-6.22518,-0.897282
-532,71,-6.19214,0.53772,-0.0016352,0.00319902,-0.00201515,0.00392885,-0.00236503,-1.22332,0.00367097,0.0441926,692,953,-6.19213,-0.537703
-525,71,-6.0108,0.34137,-0.00158896,0.00416583,-0.00317246,0.00557141,-0.00299454,-1.15373,0.00501959,0.0405701,699,953,-6.01078,-0.341339
-518,71,0,0,0,0,0,0,0,0,0,-1,706,953,0,0
-511,71,0,0,0,0,0,0,0,0,0,-1,713,953,0,0
-504,71,0,0,0,0,0,0,0,0,0,-1,720,953,0,0
-497,71,0,0,0,0,0,0,0,0,0,-1,727,953,0,0
-490,71,0,0,0,0,0,0,0,0,0,-1,734,953,0,0
-483,71,0,0,0,0,0,0,0,0,0,-1,741,953,0,0
-476,71,0,0,0,0,0,0,0,0,0,-1,748,953,0,0
-469,71,0,0,0,0,0,0,0,0,0,-1,755,953,0,0
-462,71,0,0,0,0,0,0,0,0,0,-1,762,953,0,0
-455,71,0,0,0,0,0,0,0,0,0,-1,769,953,0,0
-448,71,0,0,0,0,0,0,0,0,0,-1,776,953,0,0
-441,71,0,0,0,0,0,0,0,0,0,-1,783,953,0,0
-434,71,0,0,0,0,0,0,0,0,0,-1,790,953,0,0
-427,71,0,0,0,0,0,0,0,0,0,-1,797,953,0,0
-420,71,0,0,0,0,0,0,0,0,0,-1,804,953,0,0
-413,71,0,0,0,0,0,0,0,0,0,-1,811,953,0,0
-406,71,0,0,0,0,0,0,0,0,0,-1,818,953,0,0
-399,71,0,0,0,0,0,0,0,0,0,-1,825,953,0,0
-392,71,0,0,0,0,0,0,0,0,0,-1,832,953,0,0
-385,71,0,0,0,0,0,0,0,0,0,-1,839,953,0,0
-378,71,0,0,0,0,0,0,0,0,0,-1,846,953,0,0
-371,71,0,0,0,0,0,0,0,0,0,-1,853,953,0,0
-364,71,0,0,0,0,0,0,0,0,0,-1,860,953,0,0
-357,71,0,0,0,0,0,0,0,0,0,-1,867,953,0,0
-350,71,0,0,0,0,0,0,0,0,0,-1,874,953,0,0
-343,71,0,0,0,0,0,0,0,0,0,-1,881,953,0,0
-336,71,0,0,0,0,0,0,0,0,0,-1,888,953,0,0
-329,71,0,0,0,0,0,0,0,0,0,-1,895,953,0,0
-322,71,0,0,0,0,0,0,0,0,0,-1,902,953,0,0
-315,71,0,0,0,0,0,0,0,0,0,-1,909,953,0,0
-308,71,0,0,0,0,0,0,0,0,0,-1,916,953,0,0
-301,71,0,0,0,0,0,0,0,0,0,-1,923,953,0,0
-294,71,0,0,0,0,0,0,0,0,0,-1,930,953,0,0
-287,71,0,0,0,0,0,0,0,0,0,-1,937,953,0,0
-280,71,0,0,0,0,0,0,0,0,0,-1,944,953,0,0
-273,71,0,0,0,0,0,0,0,0,0,-1,951,953,0,0
-266,71,0,0,0,0,0,0,0,0,0,-1,958,953,0,0
-259,71,0,0,0,0,0,0,0,0,0,-1,965,953,0,0
-252,71,0,0,0,0,0,0,0,0,0,-1,972,953,0,0
-245,71,0,0,0,0,0,0,0,0,0,-1,979,953,0,0
-238,71,0,0,0,0,0,0,0,0,0,-1,986,953,0,0
-231,71,0,0,0,0,0,0,0,0,0,-1,993,953,0,0
-224,71,0,0,0,0,0,0,0,0,0,-1,1000,953,0,0
-217,71,0,0,0,0,0,0,0,0,0,-1,1007,953,0,0
-210,71,0,0,0,0,0,0,0,0,0,-1,1014,953,0,0
-203,71,0,0,0,0,0,0,0,0,0,-1,1021,953,0,0
-196,71,0,0,0,0,0,0,0,0,0,-1,1028,953,0,0
-189,71,0,0,0,0,0,0,0,0,0,-1,1035,953,0,0
-182,71,0,0,0,0,0,0,0,0,0,-1,1042,953,0,0
-175,71,0,0,0,0,0,0,0,0,0,-1,1049,953,0,0
-168,71,0,0,0,0,0,0,0,0,0,-1,1056,953,0,0
-161,71,0,0,0,0,0,0,0,0,0,-1,1063,953,0,0
-154,71,0,0,0,0,0,0,0,0,0,-1,1070,953,0,0
-147,71,0,0,0,0,0,0,0,0,0,-1,1077,953,0,0
-140,71,0,0,0,0,0,0,0,0,0,-1,1084,953,0,0
-133,71,0,0,0,0,0,0,0,0,0,-1,1091,953,0,0
-126,71,0,0,0,0,0,0,0,0,0,-1,1098,953,0,0
-119,71,0,0,0,0,0,0,0,0,0,-1,1105,953,0,0
-112,71,0,0,0,0,0,0,0,0,0,-1,1112,953,0,0
-105,71,0,0,0,0,0,0,0,0,0,-1,1119,953,0,0
-98,71,0,0,0,0,0,0,0,0,0,-1,1126,953,0,0
-91,71,0,0,0,0,0,0,0,0,0,-1,1133,953,0,0
-84,71,0,0,0,0,0,0,0,0,0,-1,1140,953,0,0
-77,71,0,0,0,0,0,0,0,0,0,-1,1147,953,0,0
-70,71,0,0,0,0,0,0,0,0,0,-1,1154,953,0,0
-63,71,0,0,0,0,0,0,0,0,0,-1,1161,953,0,0
-56,71,0,0,0,0,0,0,0,0,0,-1,1168,953,0,0
-49,71,0,0,0,0,0,0,0,0,0,-1,1175,953,0,0
-42,71,0,0,0,0,0,0,0,0,0,-1,1182,953,0,0
-35,71,0,0,0,0,0,0,0,0,0,-1,1189,953,0,0
-28,71,0,0,0,0,0,0,0,0,0,-1,1196,953,0,0
-21,71,0,0,0,0,0,0,0,0,0,-1,1203,953,0,0
-14,71,0,0,0,0,0,0,0,0,0,-1,1210,953,0,0
-7,71,0,0,0,0,0,0,0,0,0,-1,1217,953,0,0
0,71,0,0,0,0,0,0,0,0,0,-1,1224,953,0,0
7,71,0,0,0,0,0,0,0,0,0,-1,1231,953,0,0
14,71,0,0,0,0,0,0,0,0,0,-1,1238,953,0,0
21,71,0,0,0,0,0,0,0,0,0,-1,1245,953,0,0
28,71,0,0,0,0,0,0,0,0,0,-1,1252,953,0,0
35,71,0,0,0,0,0,0,0,0,0,-1,1259,953,0,0
42,71,0,0,0,0,0,0,0,0,0,-1,1266,953,0,0
49,71,0,0,0,0,0,0,0,0,0,-1,1273,953,0,0
56,71,0,0,0,0,0,0,0,0,0,-1,1280,953,0,0
63,71,0,0,0,0,0,0,0,0,0,-1,1287,953,0,0
70,71,0,0,0,0,0,0,0,0,0,-1,1294,953,0,0
77,71,0,0,0,0,0,0,0,0,0,-1,1301,953,0,0
84,71,0,0,0,0,0,0,0,0,0,-1,1308,953,0,0
91,71,0,0,0,0,0,0,0,0,0,-1,1315,953,0,0
98,71,0,0,0,0,0,0,0,0,0,-1,1322,953,0,0
105,71,0,0,0,0,0,0,0,0,0,-1,1329,953,0,0
112,71,0,0,0,0,0,0,0,0,0,-1,1336,953,0,0
119,71,0,0,0,0,0,0,0,0,0,-1,1343,953,0,0
126,71,0,0,0,0,0,0,0,0,0,-1,1350,953,0,0
133,71,0,0,0,0,0,0,0,0,0,-1,1357,953,0,0
140,71,0,0,0,0,0,0,0,0,0,-1,1364,953,0,0
147,71,0,0,0,0,0,0,0,0,0,-1,1371,953,0,0
154,71,0,0,0,0,0,0,0,0,0,-1,1378,953,0,0
161,71,0,0,0,0,0,0,0,0,0,-1,1385,953,0,0
168,71,0,0,0,0,0,0,0,0,0,-1,1392,953,0,0
175,71,0,0,0,0,0,0,0,0,0,-1,1399,953,0,0
182,71,0,0,0,0,0,0,0,0,0,-1,1406,953,0,0
189,71,0,0,0,0,0,0,0,0,0,-1,1413,953,0,0
196,71,0,0,0,0,0,0,0,0,0,-1,1420,953,0,0
203,71,0,0,0,0,0,0,0,0,0,-1,1427,953,0,0
210,71,0,0,0,0,0,0,0,0,0,-1,1434,953,0,0
217,71,0,0,0,0,0,0,0,0,0,-1,1441,953,0,0
224,71,0,0,0,0,0,0,0,0,0,-1,1448,953,0,0
231,71,0,0,0,0,0,0,0,0,0,-1,1455,953,0,0
238,71,0,0,0,0,0,0,0,0,0,-1,1462,953,0,0
245,71,0,0,0,0,0,0,0,0,0,-1,1469,953,0,0
252,71,0,0,0,0,0,0,0,0,0,-1,1476,953,0,0
259,71,0,0,0,0,0,0,0,0,0,-1,1483,953,0,0
266,71,0,0,0,0,0,0,0,0,0,-1,1490,953,0,0
273,71,0,0,0,0,0,0,0,0,0,-1,1497,953,0,0
280,71,0,0,0,0,0,0,0,0,0,-1,1504,953,0,0
287,71,0,0,0,0,0,0,0,0,0,-1,1511,953,0,0
294,71,0,0,0,0,0,0,0,0,0,-1,1518,953,0,0
301,71,0,0,0,0,0,0,0,0,0,-1,1525,953,0,0
308,71,0,0,0,0,0,0,0,0,0,-1,1532,953,0,0
315,71,0,0,0,0,0,0,0,0,0,-1,1539,953,0,0
322,71,0,0,0,0,0,0,0,0,0,-1,1546,953,0,0
329,71,0,0,0,0,0,0,0,0,0,-1,1553,953,0,0
336,71,0,0,0,0,0,0,0,0,0,-1,1560,953,0,0
343,71,0,0,0,0,0,0,0,0,0,-1,1567,953,0,0
350,71,0,0,0,0,0,0,0,0,0,-1,1574,953,0,0
357,71,0,0,0,0,0,0,0,0,0,-1,1581,953,0,0
364,71,0,0,0,0,0,0,0,0,0,-1,1588,953,0,0
371,71,0,0,0,0,0,0,0,0,0,-1,1595,953,0,0
378,71,0,0,0,0,0,0,0,0,0,-1,1602,953,0,0
385,71,0,0,0,0,0,0,0,0,0,-1,1609,953,0,0
392,71,0,0,0,0,0,0,0,0,0,-1,1616,953,0,0
399,71,0,0,0,0,0,0,0,0,0,-1,1623,953,0,0
406,71,0,0,0,0,0,0,0,0,0,-1,1630,953,0,0
413,71,0,0,0,0,0,0,0,0,0,-1,1637,953,0,0
420,71,0,0,0,0,0,0,0,0,0,-1,1644,953,0,0
427,71,0,0,0,0,0,0,0,0,0,-1,1651,953,0,0
434,71,0,0,0,0,0,0,0,0,0,-1,1658,953,0,0
441,71,0,0,0,0,0,0,0,0,0,-1,1665,953,0,0
448,71,0,0,0,0,0,0,0,0,0,-1,1672,953,0,0
455,71,0,0,0,0,0,0,0,0,0,-1,1679,953,0,0
462,71,0,0,0,0,0,0,0,0,0,-1,1686,953,0,0
469,71,0,0,0,0,0,0,0,0,0,-1,1693,953,0,0
476,71,0,0,0,0,0,0,0,0,0,-1,1700,953,0,0
483,71,0,0,0,0,0,0,0,0,0,-1,1707,953,0,0
490,71,0,0,0,0,0,0,0,0,0,-1,1714,953,0,0
497,71,0,0,0,0,0,0,0,0,0,-1,1721,953,0,0
504,71,0,0,0,0,0,0,0,0,0,-1,1728,953,0,0
511,71,0,0,0,0,0,0,0,0,0,-1,1735,953,0,0
518,71,0,0,0,0,0,0,0,0,0,-1,1742,953,0,0
525,71,0,0,0,0,0,0,0,0,0,-1,1749,953,0,0
532,71,0,0,0,0,0,0,0,0,0,-1,1756,953,0,0
539,71,0,0,0,0,0,0,0,0,0,-1,1763,953,0,0
546,71,0,0,0,0,0,0,0,0,0,-1,1770,953,0,0
553,71,0,0,0,0,0,0,0,0,0,-1,1777,953,0,0
560,71,0,0,0,0,0,0,0,0,0,-1,1784,953,0,0
567,71,0,0,0,0,0,0,0,0,0,-1,1791,953,0,0
574,71,0,0,0,0,0,0,0,0,0,-1,1798,953,0,0
581,71,0,0,0,0,0,0,0,0,0,-1,1805,953,0,0
588,71,0,0,0,0,0,0,0,0,0,-1,1812,953,0,0
595,71,0,0,0,0,0,0,0,0,0,-1,1819,953,0,0
602,71,0,0,0,0,0,0,0,0,0,-1,1826,953,0,0
609,71,0,0,0,0,0,0,0,0,0,-1,1833,953,0,0
616,71,0,0,0,0,0,0,0,0,0,-1,1840,953,0,0
623,71,0,0,0,0,0,0,0,0,0,-1,1847,953,0,0
630,71,0,0,0,0,0,0,0,0,0,-1,1854,953,0,0
637,71,11.848,1.62323,0,0,0,0,0,0,0,-1,1861,953,11.8481,-1.62321
644,71,11.7765,1.65808,-0.00261963,-0.00113023,0.000448735,-0.00100548,-0.00274438,1.29964,0.00160322,0.0442274,1868,953,11.7765,-1.65809
651,71,11.6591,1.71484,-0.00167634,-0.000244702,0.000380319,-0.000149941,-0.0017711,1.32661,0.00113406,0.0422696,1875,953,11.6591,-1.71483
658,71,11.7271,1.78156,-0.00123917,0.000330149,0.000216448,0.000359456,-0.00126847,1.43622,0.000987521,0.0401692,1882,953,11.7271,-1.78156
665,71,11.6533,2.0329,-0.00161066,0.000722083,3.49296e-05,0.000722606,-0.00161119,1.55583,0.00137959,0.0412792,1889,953,11.6533,-2.03289
672,71,11.4473,2.02057,-0.00248105,0.000969322,-7.11073e-05,0.000970787,-0.00248251,-1.5502,0.00205646,0.0411764,1896,953,11.4473,-2.02058
679,71,11.605,1.95087,-0.00347542,0.00108072,-0.000106849,0.00108323,-0.00347793,-1.54736,0.0027517,0.0384175,1903,953,11.605,-1.95088
686,71,11.751,1.87549,-0.00436745,0.0010827,-0.000140213,0.00108631,-0.00437105,-1.54509,0.00333563,0.0345784,1910,953,11.7509,-1.87552
693,71,11.8036,1.67212,-0.00510142,0.00114535,-4.09736e-05,0.00114562,-0.00510169,-1.56424,0.00384039,0.0299761,1917,953,11.8036,-1.67209
700,71,11.7726,1.66327,-0.00550007,0.00112619,-5.27891e-05,0.00112661,-0.00550049,-1.56283,0.00409452,0.031434,1924,953,11.7726,-1.66328
707,71,11.7441,1.76062,-0.00582036,0.00107287,-6.28561e-05,0.00107344,-0.00582093,-1.56168,0.00428351,0.026301,1931,953,11.7441,-1.76065
714,71,11.3842,1.93756,-0.00603578,0.000990174,2.38722e-05,0.000990255,-0.00603586,1.5674,0.00439137,0.026004,1938,953,11.3842,-1.93756
721,71,11.2114,1.98291,-0.00589891,0.000854451,-2.82696e-05,0.00085457,-0.00589903,-1.56661,0.0042463,0.0200643,1945,953,11.2114,-1.98289
728,71,11.1582,2.07684,-0.00530213,0.000620811,-0.000394546,0.000646977,-0.00532829,-1.50457,0.00378633,0.0160256,1952,953,11.1582,-2.07687
735,71,11.1746,2.09338,-0.0044665,0.000129831,-0.0011989,0.000423755,-0.00476042,-1.33038,0.00332388,0.0101893,1959,953,11.1745,-2.09341
742,71,11.1921,2.15155,-0.00381717,-4.06812e-05,-0.00224547,0.00100495,-0.0048628,-1.135,0.0036236,0.0110925,1966,953,11.1921,-2.15154
749,71,11.1835,2.19263,-0.00310979,-9.54971e-05,-0.00356612,0.00226888,-0.00547416,-0.985329,0.00459635,0.0145753,1973,953,11.1835,-2.19266
756,71,11.1841,2.24188,-0.00256367,-0.000413533,-0.00532808,0.00394686,-0.00692406,-0.884949,0.0063543,0.0153673,1980,953,11.1841,-2.24187
763,71,11.1826,2.30524,-0.00217962,-0.000715012,-0.00755202,0.00614013,-0.00903476,-0.833731,0.0088142,0.0134564,1987,953,11.1826,-2.30521
770,71,11.1591,2.33978,-0.00250522,-0.000978032,-0.0103081,0.00859468,-0.0120779,-0.822369,0.0119917,0.0150033,1994,953,11.1591,-2.33981
777,71,11.1757,2.30914,-0.00365708,-0.00108153,-0.013529,0.0112208,-0.0159594,-0.832848,0.0157718,0.034067,2001,953,11.1757,-2.30915
784,71,11.5034,2.02393,-0.00565118,-0.000984931,-0.0172328,0.014072,-0.0207081,-0.852683,0.0202017,0.0429993,2008,953,11.5034,-2.0239
791,71,11.6836,1.85931,0,0,0,0,0,0,0,-1,2015,953,11.6836,-1.85933
798,71,10.9152,5.198,0,0,0,0,0,0,0,-1,2022,953,10.9151,-5.19803
805,71,11.5994,1.40765,0,0,0,0,0,0,0,-1,2029,953,11.5994,-1.40766
812,71,0,0,0,0,0,0,0,0,0,-1,2036,953,0,0
-700,64,0,0,0,0,0,0,0,0,0,-1,524,960,0,0
-693,64,0,0,0,0,0,0,0,0,0,-1,531,960,0,0
-686,64,-5.81097,1.16052,-0.00263642,0.0129514,0.00883402,0.0169382,-0.00662321,1.14686,0.014031,0.0433662,538,960,-5.81096,-1.16052
-679,64,-5.38733,1.11285,-0.00763997,0.00523236,0.00416998,0.00646515,-0.00887276,1.28335,0.00889164,0.0412438,545,960,-5.38731,-1.11285
-672,64,-5.35773,1.37573,-0.0105294,0.000307954,0.00103965,0.000406788,-0.0106282,1.47602,0.00722489,0.0427126,552,960,-5.35775,-1.37573
-665,64,-5.91425,1.65424,-0.0119118,-0.00272877,-0.00100082,-0.00262096,-0.0120197,-1.46349,0.00729805,0.0433958,559,960,-5.91425,-1.65421
-658,64,-5.95288,1.37695,0,0,0,0,0,0,0,-1,566,960,-5.95288,-1.37697
-651,64,-6.05042,0.949341,-0.0114814,-0.00494484,-0.00269081,-0.00397967,-0.0124466,-1.2264,0.00734006,0.0404434,573,960,-6.0504,-0.949348
-644,64,-5.7865,1.02234,-0.0101724,-0.00474505,-0.0027077,-0.00362523,-0.0112922,-1.17865,0.0066573,0.0297071,580,960,-5.78653,-1.02231
-637,64,-5.74084,1.02972,-0.00877293,-0.00468874,-0.00250531,-0.0034987,-0.00996297,-1.12734,0.00583645,0.0142205,587,960,-5.74085,-1.02971
-630,64,-5.7561,0.989075,-0.00755244,-0.00435571,-0.00246597,-0.0030154,-0.00889275,-1.07294,0.00522211,0.0117448,594,960,-5.75608,-0.989071
-623,64,-5.75946,0.924194,-0.00660086,-0.00294038,-0.0018426,-0.00217352,-0.00736773,-1.17641,0.00437131,0.0123511,601,960,-5.75948,-0.924217
-616,64,-5.76648,0.878967,-0.00522072,-0.0016547,-0.0012783,-0.00124381,-0.00563161,-1.2598,0.00341613,0.015294,608,960,-5.76647,-0.878994
-609,64,-5.74536,0.863647,-0.00433589,-0.000635787,-0.000780622,-0.000477839,-0.00449384,-1.37116,0.00285,0.0144502,615,960,-5.74538,-0.863642
-602,64,-5.72009,0.829163,-0.00361542,0.000284242,4.3502e-05,0.000284728,-0.0036159,1.55964,0.0025109,0.0161777,622,960,-5.72007,-0.829148
-595,64,-5.73871,0.803162,-0.00343968,0.000536514,0.000262732,0.000553799,-0.00345696,1.5051,0.00250969,0.0169602,629,960,-5.7387,-0.803161
-588,64,-5.7619,0.787659,-0.00364816,0.000621224,0.000218252,0.000632352,-0.00365929,1.51985,0.00267534,0.0209414,636,960,-5.76188,-0.787668
-581,64,-5.84503,0.777527,-0.00377797,0.00070911,0.000151987,0.000714252,-0.00378311,1.53698,0.00279079,0.024957,643,960,-5.84503,-0.777525
-574,64,-5.96655,0.76239,-0.00388537,0.000850351,8.71138e-05,0.000851953,-0.00388697,1.55241,0.00291707,0.0296906,650,960,-5.96658,-0.762412
-567,64,-6.03882,0.598572,-0.00390911,0.00116356,-2.11597e-05,0.00116364,-0.0039092,-1.56663,0.00306847,0.0261666,657,960,-6.0388,-0.59857
-560,64,-6.08215,0.654663,-0.0036466,0.00150028,-0.000149432,0.00150462,-0.00365094,-1.5418,0.00306134,0.0339686,664,960,-6.08218,-0.654667
-553,64,-6.04523,0.698059,-0.00318198,0.00189257,-0.000354302,0.00191718,-0.0032066,-1.50143,0.00298928,0.0401714,671,960,-6.04526,-0.698031
-546,64,-6.01068,0.697754,-0.00258493,0.00235441,-0.000673384,0.00244457,-0.00267508,-1.4377,0.00295683,0.0414181,678,960,-6.0107,-0.697774
-539,64,-6.31146,0.724243,-0.00195943,0.00289929,-0.00117369,0.00316796,-0.00222809,-1.34577,0.00313112,0.0417378,685,960,-6.31148,-0.724267
-532,64,-6.05341,0.484192,-0.00151857,0.00358049,-0.00193941,0.00423431,-0.00217238,-1.24564,0.00376222,0.0415834,692,960,-6.05342,-0.48417
-525,64,-6.185,0.414368,-0.00186756,0.00446726,-0.0030024,0.00566413,-0.00306442,-1.19147,0.00511339,0.0402759,699,960,-6.18501,-0.414377
-518,64,0,0,0,0,0,0,0,0,0,-1,706,960,0,0
-511,64,0,0,0,0,0,0,0,0,0,-1,713,960,0,0
-504,64,0,0,0,0,0,0,0,0,0,-1,720,960,0,0
-497,64,0,0,0,0,0,0,0,0,0,-1,727,960,0,0
-490,64,0,0,0,0,0,0,0,0,0,-1,734,960,0,0
-483,64,0,0,0,0,0,0,0,0,0,-1,741,960,0,0
-476,64,0,0,0,0,0,0,0,0,0,-1,748,960,0,0
-469,64,0,0,0,0,0,0,0,0,0,-1,755,960,0,0
-462,64,0,0,0,0,0,0,0,0,0,-1,762,960,0,0
-455,64,0,0,0,0,0,0,0,0,0,-1,769,960,0,0
-448,64,0,0,0,0,0,0,0,0,0,-1,776,960,0,0
-441,64,0,0,0,0,0,0,0,0,0,-1,783,960,0,0
-434,64,0,0,0,0,0,0,0,0,0,-1,790,960,0,0
-427,64,0,0,0,0,0,0,0,0,0,-1,797,960,0,0
-420,64,0,0,0,0,0,0,0,0,0,-1,804,960,0,0
-413,64,0,0,0,0,0,0,0,0,0,-1,811,960,0,0
-406,64,0,0,0,0,0,0,0,0,0,-1,818,960,0,0
-399,64,0,0,0,0,0,0,0,0,0,-1,825,960,0,0
-392,64,0,0,0,0,0,0,0,0,0,-1,832,960,0,0
-385,64,0,0,0,0,0,0,0,0,0,-1,839,960,0,0
-378,64,0,0,0,0,0,0,0,0,0,-1,846,960,0,0
-371,64,0,0,0,0,0,0,0,0,0,-1,853,960,0,0
-364,64,0,0,0,0,0,0,0,0,0,-1,860,960,0,0
-357,64,0,0,0,0,0,0,0,0,0,-1,867,960,0,0
-350,64,0,0,0,0,0,0,0,0,0,-1,874,960,0,0
-343,64,0,0,0,0,0,0,0,0,0,-1,881,960,0,0
-336,64,0,0,0,0,0,0,0,0,0,-1,888,960,0,0
-329,64,0,0,0,0,0,0,0,0,0,-1,895,960,0,0
-322,64,0,0,0,0,0,0,0,0,0,-1,902,960,0,0
-315,64,0,0,0,0,0,0,0,0,0,-1,909,960,0,0
-308,64,0,0,0,0,0,0,0,0,0,-1,916,960,0,0
-301,64,0,0,0,0,0,0,0,0,0,-1,923,960,0,0
-294,64,0,0,0,0,0,0,0,0,0,-1,930,960,0,0
-287,64,0,0,0,0,0,0,0,0,0,-1,937,960,0,0
-280,64,0,0,0,0,0,0,0,0,0,-1,944,960,0,0
-273,64,0,0,0,0,0,0,0,0,0,-1,951,960,0,0
-266,64,0,0,0,0,0,0,0,0,0,-1,958,960,0,0
-259,64,0,0,0,0,0,0,0,0,0,-1,965,960,0,0
-252,64,0,0,0,0,0,0,0,0,0,-1,972,960,0,0
-245,64,0,0,0,0,0,0,0,0,0,-1,979,960,0,0
-238,64,0,0,0,0,0,0,0,0,0,-1,986,960,0,0
-231,64,0,0,0,0,0,0,0,0,0,-1,993,960,0,0
-224,64,0,0,0,0,0,0,0,0,0,-1,1000,960,0,0
-217,64,0,0,0,0,0,0,0,0,0,-1,1007,960,0,0
-210,64,0,0,0,0,0,0,0,0,0,-1,1014,960,0,0
-203,64,0,0,0,0,0,0,0,0,0,-1,1021,960,0,0
-196,64,0,0,0,0,0,0,0,0,0,-1,1028,960,0,0
-189,64,0,0,0,0,0,0,0,0,0,-1,1035,960,0,0
-182,64,0,0,0,0,0,0,0,0,0,-1,1042,960,0,0
-175,64,0,0,0,0,0,0,0,0,0,-1,1049,960,0,0
-168,64,0,0,0,0,0,0,0,0,0,-1,1056,960,0,0
-161,64,0,0,0,0,0,0,0,0,0,-1,1063,960,0,0
-154,64,0,0,0,0,0,0,0,0,0,-1,1070,960,0,0
-147,64,0,0,0,0,0,0,0,0,0,-1,1077,960,0,0
-140,64,0,0,0,0,0,0,0,0,0,-1,1084,960,0,0
-133,64,0,0,0,0,0,0,0,0,0,-1,1091,960,0,0
-126,64,0,0,0,0,0,0,0,0,0,-1,1098,960,0,0
-119,64,0,0,0,0,0,0,0,0,0,-1,1105,960,0,0
-112,64,0,0,0,0,0,0,0,0,0,-1,1112,960,0,0
-105,64,0,0,0,0,0,0,0,0,0,-1,1119,960,0,0
-98,64,0,0,0,0,0,0,0,0,0,-1,1126,960,0,0
-91,64,0,0,0,0,0,0,0,0,0,-1,1133,960,0,0
-84,64,0,0,0,0,0,0,0,0,0,-1,1140,960,0,0
-77,64,0,0,0,0,0,0,0,0,0,-1,1147,960,0,0
-70,64,0,0,0,0,0,0,0,0,0,-1,1154,960,0,0
-63,64,0,0,0,0,0,0,0,0,0,-1,1161,960,0,0
-56,64,0,0,0,0,0,0,0,0,0,-1,1168,960,0,0
-49,64,0,0,0,0,0,0,0,0,0,-1,1175,960,0,0
-42,64,0,0,0,0,0,0,0,0,0,-1,1182,960,0,0
-35,64,0,0,0,0,0,0,0,0,0,-1,1189,960,0,0
-28,64,0,0,0,0,0,0,0,0,0,-1,1196,960,0,0
-21,64,0,0,0,0,0,0,0,0,0,-1,1203,960,0,0
-14,64,0,0,0,0,0,0,0,0,0,-1,1210,960,0,0
-7,64,0,0,0,0,0,0,0,0,0,-1,1217,960,0,0
0,64,0,0,0,0,0,0,0,0,0,-1,1224,960,0,0
7,64,0,0,0,0,0,0,0,0,0,-1,1231,960,0,0
14,64,0,0,0,0,0,0,0,0,0,-1,1238,960,0,0
21,64,0,0,0,0,0,0,0,0,0,-1,1245,960,0,0
28,64,0,0,0,0,0,0,0,0,0,-1,1252,960,0,0
35,64,0,0,0,0,0,0,0,0,0,-1,1259,960,0,0
42,64,0,0,0,0,0,0,0,0,0,-1,1266,960,0,0
49,64,0,0,0,0,0,0,0,0,0,-1,1273,960,0,0
56,64,0,0,0,0,0,0,0,0,0,-1,1280,960,0,0
63,64,0,0,0,0,0,0,0,0,0,-1,1287,960,0,0
70,64,0,0,0,0,0,0,0,0,0,-1,1294,960,0,0
77,64,0,0,0,0,0,0,0,0,0,-1,1301,960,0,0
84,64,0,0,0,0,0,0,0,0,0,-1,1308,960,0,0
91,64,0,0,0,0,0,0,0,0,0,-1,1315,960,0,0
98,64,0,0,0,0,0,0,0,0,0,-1,1322,960,0,0
105,64,0,0,0,0,0,0,0,0,0,-1,1329,960,0,0
112,64,0,0,0,0,0,0,0,0,0,-1,1336,960,0,0
119,64,0,0,0,0,0,0,0,0,0,-1,1343,960,0,0
126,64,0,0,0,0,0,0,0,0,0,-1,1350,960,0,0
133,64,0,0,0,0,0,0,0,0,0,-1,1357,960,0,0
140,64,0,0,0,0,0,0,0,0,0,-1,1364,960,0,0
147,64,0,0,0,0,0,0,0,0,0,-1,1371,960,0,0
154,64,0,0,0,0,0,0,0,0,0,-1,1378,960,0,0
161,64,0,0,0,0,0,0,0,0,0,-1,1385,960,0,0
168,64,0,0,0,0,0,0,0,0,0,-1,1392,960,0,0
175,64,0,0,0,0,0,0,0,0,0,-1,1399,960,0,0
182,64,0,0,0,0,0,0,0,0,0,-1,1406,960,0,0
189,64,0,0,0,0,0,0,0,0,0,-1,1413,960,0,0
196,64,0,0,0,0,0,0,0,0,0,-1,1420,960,0,0
203,64,0,0,0,0,0,0,0,0,0,-1,1427,960,0,0
210,64,0,0,0,0,0,0,0,0,0,-1,1434,960,0,0
217,64,0,0,0,0,0,0,0,0,0,-1,1441,960,0,0
224,64,0,0,0,0,0,0,0,0,0,-1,1448,960,0,0
231,64,0,0,0,0,0,0,0,0,0,-1,1455,960,0,0
238,64,0,0,0,0,0,0,0,0,0,-1,1462,960,0,0
245,64,0,0,0,0,0,0,0,0,0,-1,1469,960,0,0
252,64,0,0,0,0,0,0,0,0,0,-1,1476,960,0,0
259,64,0,0,0,0,0,0,0,0,0,-1,1483,960,0,0
266,64,0,0,0,0,0,0,0,0,0,-1,1490,960,0,0
273,64,0,0,0,0,0,0,0,0,0,-1,1497,960,0,0
280,64,0,0,0,0,0,0,0,0,0,-1,1504,960,0,0
287,64,0,0,0,0,0,0,0,0,0,-1,1511,960,0,0
294,64,0,0,0,0,0,0,0,0,0,-1,1518,960,0,0
301,64,0,0,0,0,0,0,0,0,0,-1,1525,960,0,0
308,64,0,0,0,0,0,0,0,0,0,-1,1532,960,0,0
315,64,0,0,0,0,0,0,0,0,0,-1,1539,960,0,0
322,64,0,0,0,0,0,0,0,0,0,-1,1546,960,0,0
329,64,0,0,0,0,0,0,0,0,0,-1,1553,960,0,0
336,64,0,0,0,0,0,0,0,0,0,-1,1560,960,0,0
343,64,0,0,0,0,0,0,0,0,0,-1,1567,960,0,0
350,64,0,0,0,0,0,0,0,0,0,-1,1574,960,0,0
357,64,0,0,0,0,0,0,0,0,0,-1,1581,960,0,0
364,64,0,0,0,0,0,0,0,0,0,-1,1588,960,0,0
371,64,0,0,0,0,0,0,0,0,0,-1,1595,960,0,0
378,64,0,0,0,0,0,0,0,0,0,-1,1602,960,0,0
385,64,0,0,0,0,0,0,0,0,0,-1,1609,960,0,0
392,64,0,0,0,0,0,0,0,0,0,-1,1616,960,0,0
399,64,0,0,0,0,0,0,0,0,0,-1,1623,960,0,0
406,64,0,0,0,0,0,0,0,0,0,-1,1630,960,0,0
413,64,0,0,0,0,0,0,0,0,0,-1,1637,960,0,0
420,64,0,0,0,0,0,0,0,0,0,-1,1644,960,0,0
427,64,0,0,0,0,0,0,0,0,0,-1,1651,960,0,0
434,64,0,0,0,0,0,0,0,0,0,-1,1658,960,0,0
441,64,0,0,0,0,0,0,0,0,0,-1,1665,960,0,0
448,64,0,0,0,0,0,0,0,0,0,-1,1672,960,0,0
455,64,0,0,0,0,0,0,0,0,0,-1,1679,960,0,0
462,64,0,0,0,0,0,0,0,0,0,-1,1686,960,0,0
469,64,0,0,0,0,0,0,0,0,0,-1,1693,960,0,0
476,64,0,0,0,0,0,0,0,0,0,-1,1700,960,0,0
483,64,0,0,0,0,0,0,0,0,0,-1,1707,960,0,0
490,64,0,0,0,0,0,0,0,0,0,-1,1714,960,0,0
497,64,0,0,0,0,0,0,0,0,0,-1,1721,960,0,0
504,64,0,0,0,0,0,0,0,0,0,-1,1728,960,0,0
511,64,0,0,0,0,0,0,0,0,0,-1,1735,960,0,0
518,64,0,0,0,0,0,0,0,0,0,-1,1742,960,0,0
525,64,0,0,0,0,0,0,0,0,0,-1,1749,960,0,0
532,64,0,0,0,0,0,0,0,0,0,-1,1756,960,0,0
539,64,0,0,0,0,0,0,0,0,0,-1,1763,960,0,0
546,64,0,0,0,0,0,0,0,0,0,-1,1770,960,0,0
553,64,0,0,0,0,0,0,0,0,0,-1,1777,960,0,0
560,64,0,0,0,0,0,0,0,0,0,-1,1784,960,0,0
567,64,0,0,0,0,0,0,0,0,0,-1,1791,960,0,0
574,64,0,0,0,0,0,0,0,0,0,-1,1798,960,0,0
581,64,0,0,0,0,0,0,0,0,0,-1,1805,960,0,0
588,64,0,0,0,0,0,0,0,0,0,-1,1812,960,0,0
595,64,0,0,0,0,0,0,0,0,0,-1,1819,960,0,0
602,64,0,0,0,0,0,0,0,0,0,-1,1826,960,0,0
609,64,0,0,0,0,0,0,0,0,0,-1,1833,960,0,0
616,64,0,0,0,0,0,0,0,0,0,-1,1840,960,0,0
623,64,0,0,0,0,0,0,0,0,0,-1,1847,960,0,0
630,64,0,0,0,0,0,0,0,0,0,-1,1854,960,0,0
637,64,0,0,0,0,0,0,0,0,0,-1,1861,960,0,0
644,64,11.6614,1.59851,-0.00217103,-0.000319311,0.000279387,-0.000278075,-0.00221227,1.42426,0.00139145,0.0404082,1868,960,11.6614,-1.59852
651,64,11.7156,1.69501,-0.00126478,0.000606015,0.000216479,0.000630738,-0.0012895,1.45708,0.00113019,0.0397104,1875,960,11.7156,-1.695
658,64,11.8103,1.85828,-0.000749874,0.00114847,0.000135397,0.00115808,-0.000759482,1.49995,0.00111505,0.0384644,1882,960,11.8103,-1.85829
665,64,11.8358,2.02777,-0.000989935,0.00147825,5.64688e-05,0.00147954,-0.000991226,1.54793,0.00143576,0.0423827,1889,960,11.8358,-2.02777
672,64,11.7493,1.9267,-0.00179809,0.00166571,6.30237e-05,0.00166686,-0.00179924,1.55261,0.00200164,0.0432451,1896,960,11.7493,-1.92672
679,64,11.7876,1.89709,-0.00279831,0.00171147,0.000133676,0.00171543,-0.00280227,1.54119,0.00263334,0.0404131,1903,960,11.7876,-1.89708
686,64,11.8168,1.80743,-0.00371647,0.00165921,0.000185778,0.00166563,-0.00372289,1.53629,0.00318574,0.0350253,1910,960,11.8168,-1.80746
693,64,11.7921,1.60406,-0.00450263,0.00162445,0.000332218,0.00164241,-0.00452059,1.51679,0.00368528,0.0313573,1917,960,11.7921,-1.60406
700,64,11.7997,1.69763,-0.00499416,0.00152893,0.000363333,0.00154911,-0.00501433,1.51533,0.00396154,0.029086,1924,960,11.7997,-1.69761
707,64,11.7777,1.7243,-0.00544049,0.00140188,0.000386069,0.0014236,-0.0054622,1.51461,0.00419726,0.0294989,1931,960,11.7777,-1.72429
714,64,11.6104,1.87115,-0.00576559,0.00126537,0.000476878,0.00129756,-0.00579779,1.50338,0.00436252,0.0310003,1938,960,11.6104,-1.87117
721,64,11.2496,2.00043,-0.00572766,0.00109606,0.000451112,0.00112575,-0.00575735,1.50507,0.00426332,0.0202575,1945,960,11.2496,-2.00045
728,64,11.1801,2.08569,-0.00524743,0.000871423,0.000175976,0.00087648,-0.00525249,1.54207,0.00382742,0.0126862,1952,960,11.18,-2.08569
735,64,11.1947,2.12317,-0.00452894,0.000396691,-0.000432261,0.000434337,-0.00456658,-1.48392,0.00319901,0.0143688,1959,960,11.1947,-2.12317
742,64,11.2343,2.14484,-0.00395184,7.58034e-05,-0.00125085,0.000432655,-0.00430869,-1.29289,0.003027,0.0138621,1966,960,11.2343,-2.14482
749,64,11.2145,2.20679,-0.00333947,-9.38184e-05,-0.00221137,0.0010263,-0.00445959,-1.10194,0.00336769,0.0126904,1973,960,11.2145,-2.20681
756,64,11.212,2.25745,-0.00281833,-0.000559883,-0.00348098,0.00197045,-0.00534867,-0.942242,0.00437316,0.013237,1980,960,11.2121,-2.25747
763,64,11.2288,2.31659,-0.0023283,-0.00105387,-0.00507752,0.00342626,-0.00680843,-0.84782,0.00601559,0.0122294,1987,960,11.2288,-2.31657
770,64,11.2013,2.35376,-0.00243478,-0.00164074,-0.00704107,0.0050145,-0.00909001,-0.813562,0.00825578,0.0129583,1994,960,11.2013,-2.35373
777,64,11.1536,2.36432,-0.00328041,-0.00221278,-0.00933396,0.00660262,-0.0120958,-0.813962,0.0109497,0.0300058,2001,960,11.1535,-2.36432
784,64,11.519,1.97705,0,0,0,0,0,0,0,-1,2008,960,11.5191,-1.97703
791,64,11.3693,2.52509,0,0,0,0,0,0,0,-1,2015,960,11.3692,-2.52506
798,64,11.5079,3.7439,0,0,0,0,0,0,0,-1,2022,960,11.5079,-3.74391
805,64,11.0048,2.95837,0,0,0,0,0,0,0,-1,2029,960,11.0048,-2.9584
812,64,0,0,0,0,0,0,0,0,0,-1,2036,960,0,0
-700,57,0,0,0,0,0,0,0,0,0,-1,524,967,0,0
-693,57,0,0,0,0,0,0,0,0,0,-1,531,967,0,0
-686,57,-5.7088,1.10358,0.000914648,0.0238224,0.00834001,0.026537,-0.0018,1.25611,0.0183208,0.0411186,538,967,-5.70881,-1.10361
-679,57,-5.50928,1.06653,-0.00410812,0.0144658,0.00377589,0.0152041,-0.00484638,1.37771,0.01208,0.0429639,545,967,-5.50925,-1.06654
-672,57,-5.40601,1.18823,-0.00722332,0.0080026,0.000695602,0.00803431,-0.00725503,1.52524,0.00883113,0.0463838,552,967,-5.40598,-1.18821
-665,57,-5.67694,1.52527,-0.00894988,0.00355237,-0.00131448,0.00368908,-0.00908659,-1.46717,0.00759229,0.045506,559,967,-5.67692,-1.52525
-658,57,-5.86987,1.23816,0,0,0,0,0,0,0,-1,566,967,-5.86985,-1.23813
-651,57,-5.82196,1.08466,-0.00938081,-0.00109973,-0.00297972,-0.000139015,-0.0103415,-1.2589,0.00684848,0.0431329,573,967,-5.82197,-1.08465
-644,57,-5.75415,1.04144,-0.00851278,-0.0019028,-0.00299789,-0.000745695,-0.00966989,-1.20244,0.00621296,0.0283097,580,967,-5.75414,-1.04145
-637,57,-5.77155,1.01221,-0.00752289,-0.00271127,-0.00281744,-0.00141223,-0.00882192,-1.13878,0.00547163,0.0142523,587,967,-5.77155,-1.0122
-630,57,-5.80383,0.968689,-0.00664803,-0.00308021,-0.00275421,-0.00158266,-0.00814558,-1.07278,0.00498725,0.0115219,594,967,-5.80385,-0.968675
-623,57,-5.78906,0.932556,-0.00594791,-0.0022001,-0.00217377,-0.00120402,-0.00694399,-1.14112,0.00428475,0.0119323,601,967,-5.78907,-0.932528
-616,57,-5.78223,0.883911,-0.00473446,-0.0012922,-0.00158928,-0.000670661,-0.005356,-1.198,0.00336944,0.0135024,608,967,-5.78221,-0.883921
-609,57,-5.7821,0.853333,-0.00388546,-0.000452224,-0.00108678,-0.000137125,-0.00420056,-1.2886,0.0027558,0.0128771,615,967,-5.78208,-0.853347
-602,57,-5.78607,0.836914,-0.00317567,0.000320683,-0.000354349,0.000356234,-0.00321122,-1.4708,0.0022689,0.0106447,622,967,-5.78604,-0.836911
-595,57,-5.789,0.814697,-0.00293533,0.000601938,-0.000132053,0.000606861,-0.00294026,-1.53353,0.00219066,0.0116602,629,967,-5.789,-0.814667
-588,57,-5.81378,0.803345,-0.00308277,0.000721784,-0.000167756,0.000729167,-0.00309015,-1.52682,0.00234132,0.0163789,636,967,-5.81375,-0.803342
-581,57,-5.90173,0.771729,-0.00316607,0.000847365,-0.000225598,0.000860006,-0.00317871,-1.51482,0.00245651,0.0221828,643,967,-5.90173,-0.771722
-574,57,-5.98956,0.705688,-0.00320468,0.00103678,-0.000279574,0.00105513,-0.00322302,-1.50526,0.00257353,0.0272302,650,967,-5.98959,-0.705714
-567,57,-6.06702,0.563721,-0.00317544,0.00137347,-0.000345017,0.00139949,-0.00320146,-1.49552,0.00272342,0.0342187,657,967,-6.06699,-0.563742
-560,57,-6.12054,0.616882,-0.00292254,0.00171505,-0.000399329,0.00174918,-0.00295667,-1.48553,0.00274658,0.0418722,664,967,-6.12055,-0.616893
-553,57,-6.09564,0.671875,-0.0025263,0.00210554,-0.000488854,0.00215657,-0.00257733,-1.46678,0.00273671,0.0412618,671,967,-6.09567,-0.671884
-546,57,-5.94806,0.57373,-0.00207117,0.0025334,-0.000644063,0.00262179,-0.00215956,-1.43441,0.00276481,0.0411978,678,967,-5.94804,-0.573721
-539,57,-6.09088,0.867493,-0.00165954,0.00299967,-0.000936135,0.00318073,-0.0018406,-1.37975,0.00293328,0.042293,685,967,-6.0909,-0.867493
-532,57,-6.14276,0.960022,-0.00153471,0.0035496,-0.0014526,0.00393535,-0.00192046,-1.31123,0.00344692,0.0419848,692,967,-6.14276,-0.960021
-525,57,-6.20428,0.706299,-0.00234485,0.00422929,-0.00219637,0.00489556,-0.00301111,-1.27627,0.00460793,0.0411159,699,967,-6.20427,-0.706269
-518,57,0,0,0,0,0,0,0,0,0,-1,706,967,0,0
-511,57,0,0,0,0,0,0,0,0,0,-1,713,967,0,0
-504,57,0,0,0,0,0,0,0,0,0,-1,720,967,0,0
-497,57,0,0,0,0,0,0,0,0,0,-1,727,967,0,0
-490,57,0,0,0,0,0,0,0,0,0,-1,734,967,0,0
-483,57,0,0,0,0,0,0,0,0,0,-1,741,967,0,0
-476,57,0,0,0,0,0,0,0,0,0,-1,748,967,0,0
-469,57,0,0,0,0,0,0,0,0,0,-1,755,967,0,0
-462,57,0,0,0,0,0,0,0,0,0,-1,762,967,0,0
-455,57,0,0,0,0,0,0,0,0,0,-1,769,967,0,0
-448,57,0,0,0,0,0,0,0,0,0,-1,776,967,0,0
-441,57,0,0,0,0,0,0,0,0,0,-1,783,967,0,0
-434,57,0,0,0,0,0,0,0,0,0,-1,790,967,0,0
-427,57,0,0,0,0,0,0,0,0,0,-1,797,967,0,0
-420,57,0,0,0,0,0,0,0,0,0,-1,804,967,0,0
-413,57,0,0,0,0,0,0,0,0,0,-1,811,967,0,0
-406,57,0,0,0,0,0,0,0,0,0,-1,818,967,0,0
-399,57,0,0,0,0,0,0,0,0,0,-1,825,967,0,0
-392,57,0,0,0,0,0,0,0,0,0,-1,832,967,0,0
-385,57,0,0,0,0,0,0,0,0,0,-1,839,967,0,0
-378,57,0,0,0,0,0,0,0,0,0,-1,846,967,0,0
-371,57,0,0,0,0,0,0,0,0,0,-1,853,967,0,0
-364,57,0,0,0,0,0,0,0,0,0,-1,860,967,0,0
-357,57,0,0,0,0,0,0,0,0,0,-1,867,967,0,0
-350,57,0,0,0,0,0,0,0,0,0,-1,874,967,0,0
-343,57,0,0,0,0,0,0,0,0,0,-1,881,967,0,0
-336,57,0,0,0,0,0,0,0,0,0,-1,888,967,0,0
-329,57,0,0,0,0,0,0,0,0,0,-1,895,967,0,0
-322,57,0,0,0,0,0,0,0,0,0,-1,902,967,0,0
-315,57,0,0,0,0,0,0,0,0,0,-1,909,967,0,0
-308,57,0,0,0,0,0,0,0,0,0,-1,916,967,0,0
-301,57,0,0,0,0,0,0,0,0,0,-1,923,967,0,0
-294,57,0,0,0,0,0,0,0,0,0,-1,930,967,0,0
-287,57,0,0,0,0,0,0,0,0,0,-1,937,967,0,0
-280,57,0,0,0,0,0,0,0,0,0,-1,944,967,0,0
-273,57,0,0,0,0,0,0,0,0,0,-1,951,967,0,0
-266,57,0,0,0,0,0,0,0,0,0,-1,958,967,0,0
-259,57,0,0,0,0,0,0,0,0,0,-1,965,967,0,0
-252,57,0,0,0,0,0,0,0,0,0,-1,972,967,0,0
-245,57,0,0,0,0,0,0,0,0,0,-1,979,967,0,0
-238,57,0,0,0,0,0,0,0,0,0,-1,986,967,0,0
-231,57,0,0,0,0,0,0,0,0,0,-1,993,967,0,0
-224,57,0,0,0,0,0,0,0,0,0,-1,1000,967,0,0
-217,57,0,0,0,0,0,0,0,0,0,-1,1007,967,0,0
-210,57,0,0,0,0,0,0,0,0,0,-1,1014,967,0,0
-203,57,0,0,0,0,0,0,0,0,0,-1,1021,967,0,0
-196,57,0,0,0,0,0,0,0,0,0,-1,1028,967,0,0
-189,57,0,0,0,0,0,0,0,0,0,-1,1035,967,0,0
-182,57,0,0,0,0,0,0,0,0,0,-1,1042,967,0,0
-175,57,0,0,0,0,0,0,0,0,0,-1,1049,967,0,0
-168,57,0,0,0,0,0,0,0,0,0,-1,1056,967,0,0
-161,57,0,0,0,0,0,0,0,0,0,-1,1063,967,0,0
-154,57,0,0,0,0,0,0,0,0,0,-1,1070,967,0,0
-147,57,0,0,0,0,0,0,0,0,0,-1,1077,967,0,0
-140,57,0,0,0,0,0,0,0,0,0,-1,1084,967,0,0
-133,57,0,0,0,0,0,0,0,0,0,-1,1091,967,0,0
-126,57,0,0,0,0,0,0,0,0,0,-1,1098,967,0,0
-119,57,0,0,0,0,0,0,0,0,0,-1,1105,967,0,0
-112,57,0,0,0,0,0,0,0,0,0,-1,1112,967,0,0
-105,57,0,0,0,0,0,0,0,0,0,-1,1119,967,0,0
-98,57,0,0,0,0,0,0,0,0,0,-1,1126,967,0,0
-91,57,0,0,0,0,0,0,0,0,0,-1,1133,967,0,0
-84,57,0,0,0,0,0,0,0,0,0,-1,1140,967,0,0
-77,57,0,0,0,0,0,0,0,0,0,-1,1147,967,0,0
-70,57,0,0,0,0,0,0,0,0,0,-1,1154,967,0,0
-63,57,0,0,0,0,0,0,0,0,0,-1,1161,967,0,0
-56,57,0,0,0,0,0,0,0,0,0,-1,1168,967,0,0
-49,57,0,0,0,0,0,0,0,0,0,-1,1175,967,0,0
-42,57,0,0,0,0,0,0,0,0,0,-1,1182,967,0,0
-35,57,0,0,0,0,0,0,0,0,0,-1,1189,967,0,0
-28,57,0,0,0,0,0,0,0,0,0,-1,1196,967,0,0
-21,57,0,0,0,0,0,0,0,0,0,-1,1203,967,0,0
-14,57,0,0,0,0,0,0,0,0,0,-1,1210,967,0,0
-7,57,0,0,0,0,0,0,0,0,0,-1,1217,967,0,0
0,57,0,0,0,0,0,0,0,0,0,-1,1224,967,0,0
7,57,0,0,0,0,0,0,0,0,0,-1,1231,967,0,0
14,57,0,0,0,0,0,0,0,0,0,-1,1238,967,0,0
21,57,0,0,0,0,0,0,0,0,0,-1,1245,967,0,0
28,57,0,0,0,0,0,0,0,0,0,-1,1252,967,0,0
35,57,0,0,0,0,0,0,0,0,0,-1,1259,967,0,0
42,57,0,0,0,0,0,0,0,0,0,-1,1266,967,0,0
49,57,0,0,0,0,0,0,0,0,0,-1,1273,967,0,0
56,57,0,0,0,0,0,0,0,0,0,-1,1280,967,0,0
63,57,0,0,0,0,0,0,0,0,0,-1,1287,967,0,0
70,57,0,0,0,0,0,0,0,0,0,-1,1294,967,0,0
77,57,0,0,0,0,0,0,0,0,0,-1,1301,967,0,0
84,57,0,0,0,0,0,0,0,0,0,-1,1308,967,0,0
91,57,0,0,0,0,0,0,0,0,0,-1,1315,967,0,0
98,57,0,0,0,0,0,0,0,0,0,-1,1322,967,0,0
105,57,0,0,0,0,0,0,0,0,0,-1,1329,967,0,0
112,57,0,0,0,0,0,0,0,0,0,-1,1336,967,0,0
119,57,0,0,0,0,0,0,0,0,0,-1,1343,967,0,0
126,57,0,0,0,0,0,0,0,0,0,-1,1350,967,0,0
133,57,0,0,0,0,0,0,0,0,0,-1,1357,967,0,0
140,57,0,0,0,0,0,0,0,0,0,-1,1364,967,0,0
147,57,0,0,0,0,0,0,0,0,0,-1,1371,967,0,0
154,57,0,0,0,0,0,0,0,0,0,-1,1378,967,0,0
161,57,0,0,0,0,0,0,0,0,0,-1,1385,967,0,0
168,57,0,0,0,0,0,0,0,0,0,-1,1392,967,0,0
175,57,0,0,0,0,0,0,0,0,0,-1,1399,967,0,0
182,57,0,0,0,0,0,0,0,0,0,-1,1406,967,0,0
189,57,0,0,0,0,0,0,0,0,0,-1,1413,967,0,0
196,57,0,0,0,0,0,0,0,0,0,-1,1420,967,0,0
203,57,0,0,0,0,0,0,0,0,0,-1,1427,967,0,0
210,57,0,0,0,0,0,0,0,0,0,-1,1434,967,0,0
217,57,0,0,0,0,0,0,0,0,0,-1,1441,967,0,0
224,57,0,0,0,0,0,0,0,0,0,-1,1448,967,0,0
231,57,0,0,0,0,0,0,0,0,0,-1,1455,967,0,0
238,57,0,0,0,0,0,0,0,0,0,-1,1462,967,0,0
245,57,0,0,0,0,0,0,0,0,0,-1,1469,967,0,0
252,57,0,0,0,0,0,0,0,0,0,-1,1476,967,0,0
259,57,0,0,0,0,0,0,0,0,0,-1,1483,967,0,0
266,57,0,0,0,0,0,0,0,0,0,-1,1490,967,0,0
273,57,0,0,0,0,0,0,0,0,0,-1,1497,967,0,0
280,57,0,0,0,0,0,0,0,0,0,-1,1504,967,0,0
287,57,0,0,0,0,0,0,0,0,0,-1,1511,967,0,0
294,57,0,0,0,0,0,0,0,0,0,-1,1518,967,0,0
301,57,0,0,0,0,0,0,0,0,0,-1,1525,967,0,0
308,57,0,0,0,0,0,0,0,0,0,-1,1532,967,0,0
315,57,0,0,0,0,0,0,0,0,0,-1,1539,967,0,0
322,57,0,0,0,0,0,0,0,0,0,-1,1546,967,0,0
329,57,0,0,0,0,0,0,0,0,0,-1,1553,967,0,0
336,57,0,0,0,0,0,0,0,0,0,-1,1560,967,0,0
343,57,0,0,0,0,0,0,0,0,0,-1,1567,967,0,0
350,57,0,0,0,0,0,0,0,0,0,-1,1574,967,0,0
357,57,0,0,0,0,0,0,0,0,0,-1,1581,967,0,0
364,57,0,0,0,0,0,0,0,0,0,-1,1588,967,0,0
371,57,0,0,0,0,0,0,0,0,0,-1,1595,967,0,0
378,57,0,0,0,0,0,0,0,0,0,-1,1602,967,0,0
385,57,0,0,0,0,0,0,0,0,0,-1,1609,967,0,0
392,57,0,0,0,0,0,0,0,0,0,-1,1616,967,0,0
399,57,0,0,0,0,0,0,0,0,0,-1,1623,967,0,0
406,57,0,0,0,0,0,0,0,0,0,-1,1630,967,0,0
413,57,0,0,0,0,0,0,0,0,0,-1,1637,967,0,0
420,57,0,0,0,0,0,0,0,0,0,-1,1644,967,0,0
427,57,0,0,0,0,0,0,0,0,0,-1,1651,967,0,0
434,57,0,0,0,0,0,0,0,0,0,-1,1658,967,0,0
441,57,0,0,0,0,0,0,0,0,0,-1,1665,967,0,0
448,57,0,0,0,0,0,0,0,0,0,-1,1672,967,0,0
455,57,0,0,0,0,0,0,0,0,0,-1,1679,967,0,0
462,57,0,0,0,0,0,0,0,0,0,-1,1686,967,0,0
469,57,0,0,0,0,0,0,0,0,0,-1,1693,967,0,0
476,57,0,0,0,0,0,0,0,0,0,-1,1700,967,0,0
483,57,0,0,0,0,0,0,0,0,0,-1,1707,967,0,0
490,57,0,0,0,0,0,0,0,0,0,-1,1714,967,0,0
497,57,0,0,0,0,0,0,0,0,0,-1,1721,967,0,0
504,57,0,0,0,0,0,0,0,0,0,-1,1728,967,0,0
511,57,0,0,0,0,0,0,0,0,0,-1,1735,967,0,0
518,57,0,0,0,0,0,0,0,0,0,-1,1742,967,0,0
525,57,0,0,0,0,0,0,0,0,0,-1,1749,967,0,0
532,57,0,0,0,0,0,0,0,0,0,-1,1756,967,0,0
539,57,0,0,0,0,0,0,0,0,0,-1,1763,967,0,0
546,57,0,0,0,0,0,0,0,0,0,-1,1770,967,0,0
553,57,0,0,0,0,0,0,0,0,0,-1,1777,967,0,0
560,57,0,0,0,0,0,0,0,0,0,-1,1784,967,0,0
567,57,0,0,0,0,0,0,0,0,0,-1,1791,967,0,0
574,57,0,0,0,0,0,0,0,0,0,-1,1798,967,0,0
581,57,0,0,0,0,0,0,0,0,0,-1,1805,967,0,0
588,57,0,0,0,0,0,0,0,0,0,-1,1812,967,0,0
595,57,0,0,0,0,0,0,0,0,0,-1,1819,967,0,0
602,57,0,0,0,0,0,0,0,0,0,-1,1826,967,0,0
609,57,0,0,0,0,0,0,0,0,0,-1,1833,967,0,0
616,57,0,0,0,0,0,0,0,0,0,-1,1840,967,0,0
623,57,0,0,0,0,0,0,0,0,0,-1,1847,967,0,0
630,57,0,0,0,0,0,0,0,0,0,-1,1854,967,0,0
637,57,0,0,0,0,0,0,0,0,0,-1,1861,967,0,0
644,57,11.7491,1.75543,-0.00169581,0.000633601,3.07366e-05,0.000634006,-0.00169622,1.5576,0.00139117,0.037386,1868,967,11.7492,-1.75546
651,57,11.7263,1.74438,-0.000901775,0.00141938,2.35296e-05,0.00141962,-0.000902013,1.56066,0.00135145,0.0341286,1875,967,11.7264,-1.74438
658,57,11.7598,1.79755,-0.000408745,0.00181969,3.86421e-05,0.00182036,-0.000409415,1.55346,0.00137058,0.0352124,1882,967,11.7597,-1.79752
665,57,11.8948,1.66718,-0.000562626,0.0020275,5.68902e-05,0.00202875,-0.000563875,1.54885,0.00157448,0.043544,1889,967,11.8947,-1.66715
672,57,11.8591,1.6037,-0.00131258,0.00212677,0.000168949,0.00213505,-0.00132085,1.52183,0.00201364,0.0435623,1896,967,11.8591,-1.60368
679,57,11.7416,1.74713,-0.00231435,0.00210067,0.000342706,0.00212711,-0.00234079,1.49379,0.00258053,0.0402938,1903,967,11.7416,-1.74712
686,57,11.7231,1.72198,-0.00325072,0.00198771,0.000489259,0.00203301,-0.00329603,1.47846,0.00310539,0.0372139,1910,967,11.7231,-1.72197
693,57,11.776,1.63794,-0.00407143,0.00187106,0.000686802,0.00194941,-0.00414978,1.45722,0.00359694,0.0311314,1917,967,11.776,-1.63791
700,57,11.8049,1.71637,-0.00462951,0.00169462,0.000762258,0.0017852,-0.00472009,1.45252,0.00388115,0.0231109,1924,967,11.8049,-1.7164
707,57,11.792,1.69476,-0.00516594,0.00152888,0.000814615,0.00162658,-0.00526364,1.45144,0.00415871,0.0310354,1931,967,11.792,-1.69476
714,57,11.7114,1.87323,-0.00555875,0.00137433,0.000905653,0.00149068,-0.00567511,1.44302,0.00436597,0.0395968,1938,967,11.7115,-1.87323
721,57,11.3246,1.98724,-0.00557673,0.00119508,0.000879914,0.00130754,-0.0056892,1.44367,0.0042955,0.024819,1945,967,11.3246,-1.98726
728,57,11.2242,2.10028,-0.0052095,0.00101461,0.00068927,0.00109003,-0.00528492,1.46181,0.00393724,0.0177786,1952,967,11.2243,-2.10029
735,57,11.2496,2.16681,-0.00462378,0.000583128,0.000302011,0.000600586,-0.00464124,1.51305,0.00331255,0.018652,1959,967,11.2497,-2.16682
742,57,11.2936,2.16571,-0.00409512,0.000194511,-0.000279985,0.000212708,-0.00411332,-1.50589,0.0028158,0.0149541,1966,967,11.2936,-2.16571
749,57,11.2563,2.20862,-0.0034955,-1.19974e-05,-0.000911194,0.000211951,-0.00371945,-1.3298,0.00255322,0.0123351,1973,967,11.2564,-2.20865
756,57,11.2421,2.24603,-0.00293359,-0.000516762,-0.00173255,0.000387165,-0.00383752,-1.08991,0.00269668,0.00976497,1980,967,11.242,-2.24602
763,57,11.2588,2.27838,-0.00225969,-0.000950778,-0.00276308,0.0012343,-0.00444477,-0.901684,0.00344903,0.0100556,1987,967,11.2588,-2.27836
770,57,11.2513,2.31506,-0.0020315,-0.00160071,-0.00400053,0.00219022,-0.00582243,-0.812293,0.00478191,0.010302,1994,967,11.2514,-2.31509
777,57,11.2098,2.39746,-0.00238058,-0.0022915,-0.00543958,0.00310373,-0.0077758,-0.789492,0.00647148,0.0257773,2001,967,11.2098,-2.39743
784,57,11.1711,2.51508,-0.00334959,-0.00305514,-0.0071183,0.00391746,-0.0103222,-0.795738,0.00849394,0.0447967,2008,967,11.1711,-2.51506
791,57,11.0994,2.71899,0,0,0,0,0,0,0,-1,2015,967,11.0993,-2.719
798,57,11.326,3.24176,-0.00639735,-0.0046004,-0.0117713,0.00630666,-0.0173044,-0.823488,0.0141162,0.0495798,2022,967,11.326,-3.24178
805,57,10.9978,2.90967,-0.0088229,-0.00506716,-0.0149987,0.00817074,-0.0220608,-0.847675,0.0180578,0.0498036,2029,967,10.9978,-2.90965
812,57,0,0,0,0,0,0,0,0,0,-1,2036,967,0,0
-700,50,0,0,0,0,0,0,0,0,0,-1,524,974,0,0
-693,50,-6.22687,1.09344,0.0110284,0.04329,0.0123631,0.0474828,0.00683558,1.24383,0.0296406,0.0465199,531,974,-6.22689,-1.09342
-686,50,-6.03784,0.88855,0.00327478,0.02981,0.00618256,0.0311798,0.00190499,1.35276,0.0201815,0.0436551,538,974,-6.03782,-0.888553
-679,50,-5.79285,0.85968,-0.00170353,0.0204299,0.0022527,0.0206569,-0.00193047,1.47039,0.0144578,0.0433879,545,974,-5.79285,-0.85968
-672,50,-5.2674,1.12531,0,0,0,0,0,0,0,-1,552,974,-5.26741,-1.1253
-665,50,-5.43243,1.43915,0,0,0,0,0,0,0,-1,559,974,-5.43242,-1.43913
-658,50,-5.7868,1.0993,0,0,0,0,0,0,0,-1,566,974,-5.78683,-1.09929
-651,50,-5.80695,1.05621,0,0,0,0,0,0,0,-1,573,974,-5.80693,-1.05624
-644,50,-5.80084,0.989258,-0.00723525,0.000984534,-0.00323042,0.00210215,-0.00835286,-1.23772,0.00638569,0.0257278,580,974,-5.80086,-0.989246
-637,50,-5.82019,0.980774,-0.00657219,-0.000457694,-0.00296842,0.000746314,-0.00777619,-1.18547,0.00544996,0.0130775,587,974,-5.82019,-0.980759
-630,50,-5.83038,0.946594,-0.00595553,-0.00141452,-0.00283183,-5.53627e-05,-0.00731468,-1.12331,0.00485811,0.00932143,594,974,-5.83036,-0.946598
-623,50,-5.82306,0.907532,-0.0053555,-0.00116297,-0.00233625,-0.000120386,-0.00639809,-1.15105,0.00422584,0.010577,601,974,-5.82306,-0.907511
-616,50,-5.81042,0.875549,-0.00425933,-0.000753913,-0.00175475,-2.64707e-05,-0.00498677,-1.17781,0.00331573,0.0104338,608,974,-5.81042,-0.875546
-609,50,-5.81696,0.864624,-0.00344556,-0.00018275,-0.00129452,0.000268456,-0.00389677,-1.23541,0.0026918,0.00926671,615,974,-5.81698,-0.864644
-602,50,-5.84406,0.834473,-0.00272868,0.000360109,-0.000700892,0.000511711,-0.00288028,-1.35778,0.00211153,0.0100526,622,974,-5.84407,-0.834493
-595,50,-5.83655,0.805054,-0.00241023,0.000614843,-0.000501571,0.000695837,-0.00249123,-1.4107,0.00193493,0.010593,629,974,-5.83657,-0.805083
-588,50,-5.84192,0.779114,-0.00250441,0.000723078,-0.00052762,0.000807142,-0.00258847,-1.4128,0.00204841,0.0124512,636,974,-5.84191,-0.779106
-581,50,-5.94568,0.724426,-0.00257219,0.000857191,-0.000570653,0.000949655,-0.00266465,-1.41016,0.00216361,0.0193225,643,974,-5.94566,-0.724413
-574,50,-6.01563,0.660767,-0.00257559,0.00107688,-0.000598609,0.00117248,-0.00267119,-1.41242,0.00227468,0.0248983,650,974,-6.01565,-0.660745
-567,50,-6.01508,0.662598,-0.00254357,0.00141592,-0.000608469,0.00150732,-0.00263496,-1.4217,0.0024209,0.0365899,657,974,-6.0151,-0.662625
-560,50,-6.09961,0.574524,-0.00236586,0.00176995,-0.000571285,0.00184741,-0.00244332,-1.43603,0.00248521,0.0422885,664,974,-6.09963,-0.574531
-553,50,-6.12183,0.311829,-0.00212328,0.00216654,-0.000519361,0.00222852,-0.00218526,-1.45201,0.00254834,0.0402485,671,974,-6.12184,-0.311813
-546,50,-6.01019,0.525208,-0.0019143,0.0025904,-0.000477666,0.0026405,-0.00196439,-1.46631,0.00266817,0.038632,678,974,-6.01017,-0.525194
-539,50,-5.93658,0.833984,-0.00183996,0.00303892,-0.000522214,0.00309419,-0.00189523,-1.46535,0.00290824,0.0432512,685,974,-5.93658,-0.833968
-532,50,-5.93085,0.791931,-0.00217056,0.00356373,-0.000744872,0.00365891,-0.00226574,-1.44371,0.00345197,0.045137,692,974,-5.93083,-0.791931
-525,50,-5.89417,0.861755,-0.00355963,0.00421921,-0.00111386,0.00437556,-0.00371598,-1.43134,0.00467683,0.0428433,699,974,-5.89418,-0.861752
-518,50,0,0,0,0,0,0,0,0,0,-1,706,974,0,0
-511,50,0,0,0,0,0,0,0,0,0,-1,713,974,0,0
-504,50,0,0,0,0,0,0,0,0,0,-1,720,974,0,0
-497,50,0,0,0,0,0,0,0,0,0,-1,727,974,0,0
-490,50,0,0,0,0,0,0,0,0,0,-1,734,974,0,0
-483,50,0,0,0,0,0,0,0,0,0,-1,741,974,0,0
-476,50,0,0,0,0,0,0,0,0,0,-1,748,974,0,0
-469,50,0,0,0,0,0,0,0,0,0,-1,755,974,0,0
-462,50,0,0,0,0,0,0,0,0,0,-1,762,974,0,0
-455,50,0,0,0,0,0,0,0,0,0,-1,769,974,0,0
-448,50,0,0,0,0,0,0,0,0,0,-1,776,974,0,0
-441,50,0,0,0,0,0,0,0,0,0,-1,783,974,0,0
-434,50,0,0,0,0,0,0,0,0,0,-1,790,974,0,0
-427,50,0,0,0,0,0,0,0,0,0,-1,797,974,0,0
-420,50,0,0,0,0,0,0,0,0,0,-1,804,974,0,0
-413,50,0,0,0,0,0,0,0,0,0,-1,811,974,0,0
-406,50,0,0,0,0,0,0,0,0,0,-1,818,974,0,0
-399,50,0,0,0,0,0,0,0,0,0,-1,825,974,0,0
-392,50,0,0,0,0,0,0,0,0,0,-1,832,974,0,0
-385,50,0,0,0,0,0,0,0,0,0,-1,839,974,0,0
-378,50,0,0,0,0,0,0,0,0,0,-1,846,974,0,0
-371,50,0,0,0,0,0,0,0,0,0,-1,853,974,0,0
-364,50,0,0,0,0,0,0,0,0,0,-1,860,974,0,0
-357,50,0,0,0,0,0,0,0,0,0,-1,867,974,0,0
-350,50,0,0,0,0,0,0,0,0,0,-1,874,974,0,0
-343,50,0,0,0,0,0,0,0,0,0,-1,881,974,0,0
-336,50,0,0,0,0,0,0,0,0,0,-1,888,974,0,0
-329,50,0,0,0,0,0,0,0,0,0,-1,895,974,0,0
-322,50,0,0,0,0,0,0,0,0,0,-1,902,974,0,0
-315,50,0,0,0,0,0,0,0,0,0,-1,909,974,0,0
-308,50,0,0,0,0,0,0,0,0,0,-1,916,974,0,0
-301,50,0,0,0,0,0,0,0,0,0,-1,923,974,0,0
-294,50,0,0,0,0,0,0,0,0,0,-1,930,974,0,0
-287,50,0,0,0,0,0,0,0,0,0,-1,937,974,0,0
-280,50,0,0,0,0,0,0,0,0,0,-1,944,974,0,0
-273,50,0,0,0,0,0,0,0,0,0,-1,951,974,0,0
-266,50,0,0,0,0,0,0,0,0,0,-1,958,974,0,0
-259,50,0,0,0,0,0,0,0,0,0,-1,965,974,0,0
-252,50,0,0,0,0,0,0,0,0,0,-1,972,974,0,0
-245,50,0,0,0,0,0,0,0,0,0,-1,979,974,0,0
-238,50,0,0,0,0,0,0,0,0,0,-1,986,974,0,0
-231,50,0,0,0,0,0,0,0,0,0,-1,993,974,0,0
-224,50,0,0,0,0,0,0,0,0,0,-1,1000,974,0,0
-217,50,0,0,0,0,0,0,0,0,0,-1,1007,974,0,0
-210,50,0,0,0,0,0,0,0,0,0,-1,1014,974,0,0
-203,50,0,0,0,0,0,0,0,0,0,-1,1021,974,0,0
-196,50,0,0,0,0,0,0,0,0,0,-1,1028,974,0,0
-189,50,0,0,0,0,0,0,0,0,0,-1,1035,974,0,0
-182,50,0,0,0,0,0,0,0,0,0,-1,1042,974,0,0
-175,50,0,0,0,0,0,0,0,0,0,-1,1049,974,0,0
-168,50,0,0,0,0,0,0,0,0,0,-1,1056,974,0,0
-161,50,0,0,0,0,0,0,0,0,0,-1,1063,974,0,0
-154,50,0,0,0,0,0,0,0,0,0,-1,1070,974,0,0
-147,50,0,0,0,0,0,0,0,0,0,-1,1077,974,0,0
-140,50,0,0,0,0,0,0,0,0,0,-1,1084,974,0,0
-133,50,0,0,0,0,0,0,0,0,0,-1,1091,974,0,0
-126,50,0,0,0,0,0,0,0,0,0,-1,1098,974,0,0
-119,50,0,0,0,0,0,0,0,0,0,-1,1105,974,0,0
-112,50,0,0,0,0,0,0,0,0,0,-1,1112,974,0,0
-105,50,0,0,0,0,0,0,0,0,0,-1,1119,974,0,0
-98,50,0,0,0,0,0,0,0,0,0,-1,1126,974,0,0
-91,50,0,0,0,0,0,0,0,0,0,-1,1133,974,0,0
-84,50,0,0,0,0,0,0,0,0,0,-1,1140,974,0,0
-77,50,0,0,0,0,0,0,0,0,0,-1,1147,974,0,0
-70,50,0,0,0,0,0,0,0,0,0,-1,1154,974,0,0
-63,50,0,0,0,0,0,0,0,0,0,-1,1161,974,0,0
-56,50,0,0,0,0,0,0,0,0,0,-1,1168,974,0,0
-49,50,0,0,0,0,0,0,0,0,0,-1,1175,974,0,0
-42,50,0,0,0,0,0,0,0,0,0,-1,1182,974,0,0
-35,50,0,0,0,0,0,0,0,0,0,-1,1189,974,0,0
-28,50,0,0,0,0,0,0,0,0,0,-1,1196,974,0,0
-21,50,0,0,0,0,0,0,0,0,0,-1,1203,974,0,0
-14,50,0,0,0,0,0,0,0,0,0,-1,1210,974,0,0
-7,50,0,0,0,0,0,0,0,0,0,-1,1217,974,0,0
0,50,0,0,0,0,0,0,0,0,0,-1,1224,974,0,0
7,50,0,0,0,0,0,0,0,0,0,-1,1231,974,0,0
14,50,0,0,0,0,0,0,0,0,0,-1,1238,974,0,0
21,50,0,0,0,0,0,0,0,0,0,-1,1245,974,0,0
28,50,0,0,0,0,0,0,0,0,0,-1,1252,974,0,0
35,50,0,0,0,0,0,0,0,0,0,-1,1259,974,0,0
42,50,0,0,0,0,0,0,0,0,0,-1,1266,974,0,0
49,50,0,0,0,0,0,0,0,0,0,-1,1273,974,0,0
56,50,0,0,0,0,0,0,0,0,0,-1,1280,974,0,0
63,50,0,0,0,0,0,0,0,0,0,-1,1287,974,0,0
70,50,0,0,0,0,0,0,0,0,0,-1,1294,974,0,0
77,50,0,0,0,0,0,0,0,0,0,-1,1301,974,0,0
84,50,0,0,0,0,0,0,0,0,0,-1,1308,974,0,0
91,50,0,0,0,0,0,0,0,0,0,-1,1315,974,0,0
98,50,0,0,0,0,0,0,0,0,0,-1,1322,974,0,0
105,50,0,0,0,0,0,0,0,0,0,-1,1329,974,0,0
112,50,0,0,0,0,0,0,0,0,0,-1,1336,974,0,0
119,50,0,0,0,0,0,0,0,0,0,-1,1343,974,0,0
126,50,0,0,0,0,0,0,0,0,0,-1,1350,974,0,0
133,50,0,0,0,0,0,0,0,0,0,-1,1357,974,0,0
140,50,0,0,0,0,0,0,0,0,0,-1,1364,974,0,0
147,50,0,0,0,0,0,0,0,0,0,-1,1371,974,0,0
154,50,0,0,0,0,0,0,0,0,0,-1,1378,974,0,0
161,50,0,0,0,0,0,0,0,0,0,-1,1385,974,0,0
168,50,0,0,0,0,0,0,0,0,0,-1,1392,974,0,0
175,50,0,0,0,0,0,0,0,0,0,-1,1399,974,0,0
182,50,0,0,0,0,0,0,0,0,0,-1,1406,974,0,0
189,50,0,0,0,0,0,0,0,0,0,-1,1413,974,0,0
196,50,0,0,0,0,0,0,0,0,0,-1,1420,974,0,0
203,50,0,0,0,0,0,0,0,0,0,-1,1427,974,0,0
210,50,0,0,0,0,0,0,0,0,0,-1,1434,974,0,0
217,50,0,0,0,0,0,0,0,0,0,-1,1441,974,0,0
224,50,0,0,0,0,0,0,0,0,0,-1,1448,974,0,0
231,50,0,0,0,0,0,0,0,0,0,-1,1455,974,0,0
238,50,0,0,0,0,0,0,0,0,0,-1,1462,974,0,0
245,50,0,0,0,0,0,0,0,0,0,-1,1469,974,0,0
252,50,0,0,0,0,0,0,0,0,0,-1,1476,974,0,0
259,50,0,0,0,0,0,0,0,0,0,-1,1483,974,0,0
266,50,0,0,0,0,0,0,0,0,0,-1,1490,974,0,0
273,50,0,0,0,0,0,0,0,0,0,-1,1497,974,0,0
280,50,0,0,0,0,0,0,0,0,0,-1,1504,974,0,0
287,50,0,0,0,0,0,0,0,0,0,-1,1511,974,0,0
294,50,0,0,0,0,0,0,0,0,0,-1,1518,974,0,0
301,50,0,0,0,0,0,0,0,0,0,-1,1525,974,0,0
308,50,0,0,0,0,0,0,0,0,0,-1,1532,974,0,0
315,50,0,0,0,0,0,0,0,0,0,-1,1539,974,0,0
322,50,0,0,0,0,0,0,0,0,0,-1,1546,974,0,0
329,50,0,0,0,0,0,0,0,0,0,-1,1553,974,0,0
336,50,0,0,0,0,0,0,0,0,0,-1,1560,974,0,0
343,50,0,0,0,0,0,0,0,0,0,-1,1567,974,0,0
350,50,0,0,0,0,0,0,0,0,0,-1,1574,974,0,0
357,50,0,0,0,0,0,0,0,0,0,-1,1581,974,0,0
364,50,0,0,0,0,0,0,0,0,0,-1,1588,974,0,0
371,50,0,0,0,0,0,0,0,0,0,-1,1595,974,0,0
378,50,0,0,0,0,0,0,0,0,0,-1,1602,974,0,0
385,50,0,0,0,0,0,0,0,0,0,-1,1609,974,0,0
392,50,0,0,0,0,0,0,0,0,0,-1,1616,974,0,0
399,50,0,0,0,0,0,0,0,0,0,-1,1623,974,0,0
406,50,0,0,0,0,0,0,0,0,0,-1,1630,974,0,0
413,50,0,0,0,0,0,0,0,0,0,-1,1637,974,0,0
420,50,0,0,0,0,0,0,0,0,0,-1,1644,974,0,0
427,50,0,0,0,0,0,0,0,0,0,-1,1651,974,0,0
434,50,0,0,0,0,0,0,0,0,0,-1,1658,974,0,0
441,50,0,0,0,0,0,0,0,0,0,-1,1665,974,0,0
448,50,0,0,0,0,0,0,0,0,0,-1,1672,974,0,0
455,50,0,0,0,0,0,0,0,0,0,-1,1679,974,0,0
462,50,0,0,0,0,0,0,0,0,0,-1,1686,974,0,0
469,50,0,0,0,0,0,0,0,0,0,-1,1693,974,0,0
476,50,0,0,0,0,0,0,0,0,0,-1,1700,974,0,0
483,50,0,0,0,0,0,0,0,0,0,-1,1707,974,0,0
490,50,0,0,0,0,0,0,0,0,0,-1,1714,974,0,0
497,50,0,0,0,0,0,0,0,0,0,-1,1721,974,0,0
504,50,0,0,0,0,0,0,0,0,0,-1,1728,974,0,0
511,50,0,0,0,0,0,0,0,0,0,-1,1735,974,0,0
518,50,0,0,0,0,0,0,0,0,0,-1,1742,974,0,0
525,50,0,0,0,0,0,0,0,0,0,-1,1749,974,0,0
532,50,0,0,0,0,0,0,0,0,0,-1,1756,974,0,0
539,50,0,0,0,0,0,0,0,0,0,-1,1763,974,0,0
546,50,0,0,0,0,0,0,0,0,0,-1,1770,974,0,0
553,50,0,0,0,0,0,0,0,0,0,-1,1777,974,0,0
560,50,0,0,0,0,0,0,0,0,0,-1,1784,974,0,0
567,50,0,0,0,0,0,0,0,0,0,-1,1791,974,0,0
574,50,0,0,0,0,0,0,0,0,0,-1,1798,974,0,0
581,50,0,0,0,0,0,0,0,0,0,-1,1805,974,0,0
588,50,0,0,0,0,0,0,0,0,0,-1,1812,974,0,0
595,50,0,0,0,0,0,0,0,0,0,-1,1819,974,0,0
602,50,0,0,0,0,0,0,0,0,0,-1,1826,974,0,0
609,50,0,0,0,0,0,0,0,0,0,-1,1833,974,0,0
616,50,0,0,0,0,0,0,0,0,0,-1,1840,974,0,0
623,50,0,0,0,0,0,0,0,0,0,-1,1847,974,0,0
630,50,0,0,0,0,0,0,0,0,0,-1,1854,974,0,0
637,50,0,0,0,0,0,0,0,0,0,-1,1861,974,0,0
644,50,11.8639,2.02197,-0.00145584,0.00109249,-0.000123533,0.00109846,-0.00146182,-1.52247,0.00148313,0.0359007,1868,974,11.8639,-2.02198
651,50,11.7653,1.78107,-0.000661081,0.00169966,-7.52083e-05,0.00170205,-0.000663475,-1.53898,0.00140893,0.0313022,1875,974,11.7653,-1.78109
658,50,11.8196,1.75397,-0.000201451,0.00200188,2.51142e-06,0.00200188,-0.000201454,1.56966,0.00140656,0.0364169,1882,974,11.8195,-1.75394
665,50,11.7944,1.50677,-0.00030112,0.00215049,7.97599e-05,0.00215308,-0.000303712,1.53831,0.0015466,0.0419354,1889,974,11.7944,-1.5068
672,50,11.8221,1.5282,-0.00100138,0.0022317,0.000269349,0.00225399,-0.00102366,1.48824,0.00193628,0.0409517,1896,974,11.8221,-1.52821
679,50,11.6283,1.65601,-0.0020102,0.00220275,0.00053021,0.00226845,-0.0020759,1.4475,0.00250903,0.039754,1903,974,11.6283,-1.65598
686,50,11.5774,1.65985,-0.00296426,0.00208437,0.000766707,0.00219824,-0.00307813,1.42336,0.0030604,0.0393849,1910,974,11.5774,-1.65983
693,50,11.766,1.60358,-0.00381998,0.00194431,0.00101296,0.00211713,-0.0039928,1.40181,0.00358255,0.0359846,1917,974,11.766,-1.60355
700,50,11.7838,1.69147,-0.00444271,0.00174815,0.00112988,0.00194792,-0.00464248,1.3958,0.00390955,0.0208359,1924,974,11.7838,-1.69145
707,50,11.7892,1.67065,-0.00503875,0.00158459,0.00121174,0.00179932,-0.00525348,1.39541,0.00423159,0.0265402,1931,974,11.7892,-1.67063
714,50,11.754,1.79211,-0.00547784,0.00142613,0.00130653,0.00166511,-0.00571682,1.38988,0.00447083,0.0348011,1938,974,11.754,-1.79214
721,50,11.4342,1.99036,-0.00554385,0.00124335,0.00129685,0.0014827,-0.00578321,1.38829,0.00443314,0.0260969,1945,974,11.4342,-1.99033
728,50,11.2896,2.07098,-0.00526473,0.00104978,0.00120679,0.00127256,-0.00548751,1.38825,0.00414811,0.0186211,1952,974,11.2896,-2.07098
735,50,11.3077,2.12134,-0.00479945,0.000746425,0.00103925,0.000934774,-0.0049878,1.39151,0.00367662,0.0175419,1959,974,11.3078,-2.12132
742,50,11.3241,2.1524,-0.00434848,0.000413397,0.000659144,0.000502952,-0.00443803,1.43576,0.00313979,0.0142293,1966,974,11.3241,-2.15239
749,50,11.3267,2.20178,-0.00383611,0.000384453,0.000327097,0.000409653,-0.00386131,1.49391,0.00272106,0.0142867,1973,974,11.3267,-2.20181
756,50,11.3051,2.23993,-0.00323253,4.9261e-05,-9.36083e-05,5.1929e-05,-0.0032352,-1.5423,0.00217432,0.0104468,1980,974,11.305,-2.23992
763,50,11.3118,2.27307,-0.00234417,7.94857e-06,-0.000741079,0.000221966,-0.00255819,-1.28965,0.00178406,0.0099088,1987,974,11.3117,-2.27307
770,50,11.3073,2.29944,-0.00181688,-0.000235565,-0.00142415,0.000602684,-0.00265513,-1.0388,0.00200146,0.0101238,1994,974,11.3073,-2.29945
777,50,11.286,2.37518,-0.00164443,-0.000419761,-0.00222266,0.00127337,-0.00333757,-0.919812,0.00274961,0.0216387,2001,974,11.286,-2.3752
784,50,11.2241,2.50745,-0.00188362,-0.000565008,-0.00318698,0.00203014,-0.00447877,-0.887397,0.00384554,0.0404778,2008,974,11.2241,-2.50742
791,50,11.1624,2.65991,-0.00219255,-0.000661015,-0.00451006,0.00314782,-0.00600139,-0.869492,0.00536726,0.047443,2015,974,11.1624,-2.6599
798,50,11.1248,2.77252,-0.00243345,-0.000632329,-0.00638079,0.00491114,-0.00797692,-0.855503,0.00751077,0.0481259,2022,974,11.1248,-2.7725
805,50,11.0283,2.83423,-0.0027318,-0.000333458,-0.00901889,0.00756564,-0.0106309,-0.851491,0.0105553,0.045941,2029,974,11.0283,-2.83423
812,50,0,0,0,0,0,0,0,0,0,-1,2036,974,0,0
-700,43,0,0,0,0,0,0,0,0,0,-1,524,981,0,0
-693,43,-6.41132,0.449768,0.0139991,0.0416525,0.00788119,0.0437409,0.0119107,1.31176,0.0261121,0.0457557,531,981,-6.41135,-0.449796
-686,43,-6.41589,0.464417,0.00637721,0.0305378,0.00319516,0.0309532,0.0059618,1.44151,0.0189632,0.0455968,538,981,-6.41587,-0.464406
-679,43,-6.11499,0.325439,0.00127536,0.0223597,0.000234666,0.0223623,0.00127275,1.55967,0.0145026,0.0432066,545,981,-6.11497,-0.325453
-672,43,-5.81964,0.325317,0,0,0,0,0,0,0,-1,552,981,-5.81962,-0.32531
-665,43,-6.38721,0.0149536,0,0,0,0,0,0,0,-1,559,981,-6.38719,-0.0149592
-658,43,-6.14294,0.268738,0,0,0,0,0,0,0,-1,566,981,-6.14296,-0.268745
-651,43,-5.82709,0.75531,-0.00606891,0.00486898,-0.00357478,0.00593367,-0.0071336,-1.28133,0.00755499,0.0400157,573,981,-5.82709,-0.755283
-644,43,-5.85626,0.989075,-0.00585338,0.00294201,-0.00334042,0.00406683,-0.0069782,-1.24599,0.00645027,0.0188216,580,981,-5.85628,-0.989066
-637,43,-5.85461,0.981262,-0.00552792,0.00120682,-0.00297614,0.00233351,-0.00665462,-1.20889,0.00538549,0.0119412,587,981,-5.85459,-0.981278
-630,43,-5.836,0.946106,-0.00516899,-4.30065e-05,-0.00275224,0.00115482,-0.00636682,-1.1603,0.00467725,0.0114563,594,981,-5.836,-0.946133
-623,43,-5.84375,0.904419,-0.00475972,-0.000271049,-0.00232199,0.000713962,-0.00574473,-1.1696,0.00408864,0.0114529,601,981,-5.84376,-0.904436
-616,43,-5.84332,0.885071,-0.00381777,-0.000240504,-0.00178428,0.000497293,-0.00455557,-1.17871,0.00321565,0.00973025,608,981,-5.84332,-0.885098
-609,43,-5.84186,0.877686,-0.00303152,9.76663e-05,-0.00140763,0.000637681,-0.00357153,-1.20448,0.00261958,0.0115343,615,981,-5.84188,-0.877671
-602,43,-5.86322,0.864929,-0.00229394,0.000417343,-0.00098031,0.000734654,-0.00261125,-1.25775,0.00203051,0.0139961,622,981,-5.86323,-0.864907
-595,43,-5.85126,0.811584,-0.00190147,0.000619136,-0.000820674,0.000862785,-0.00214511,-1.2822,0.00178844,0.0133012,629,981,-5.85123,-0.811577
-588,43,-5.8374,0.757385,-0.00196321,0.000713282,-0.000841533,0.000955884,-0.00220581,-1.29012,0.00187235,0.0134619,636,981,-5.83741,-0.757399
-581,43,-5.9342,0.741089,-0.0020497,0.000850833,-0.000865286,0.00108935,-0.00228821,-1.30182,0.00199056,0.0184933,643,981,-5.93419,-0.741071
-574,43,-6.01794,0.753601,-0.00204492,0.00109597,-0.000849501,0.00131101,-0.00225996,-1.32287,0.00208582,0.025654,650,981,-6.01796,-0.753599
-567,43,-6.0274,0.750244,-0.00203796,0.00143828,-0.00078014,0.00160533,-0.00220501,-1.35985,0.00220897,0.0361761,657,981,-6.02738,-0.750228
-560,43,-5.97858,0.635071,-0.00197429,0.00180477,-0.000627157,0.00190613,-0.00207565,-1.41056,0.00229958,0.0397938,664,981,-5.9786,-0.635044
-553,43,-5.93048,0.478516,-0.00192975,0.00221827,-0.000407623,0.00225795,-0.00196942,-1.47376,0.00244257,0.0393545,671,981,-5.93049,-0.47854
-546,43,-5.85345,0.517761,-0.00201534,0.00266885,-0.000140754,0.00267307,-0.00201957,-1.54078,0.00271804,0.0407978,678,981,-5.85342,-0.517732
-539,43,-5.80969,0.665466,-0.00232835,0.00315809,9.14078e-05,0.00315961,-0.00232988,1.55414,0.0031814,0.0429636,685,981,-5.80967,-0.665488
-532,43,-5.7533,0.751892,-0.00316168,0.00375449,0.00019041,0.00375973,-0.00316692,1.54329,0.00400398,0.0452962,692,981,-5.75328,-0.751888
-525,43,-5.70038,0.991211,-0.00515241,0.00453144,0.000231177,0.00453695,-0.00515793,1.54694,0.00560117,0.0455067,699,981,-5.70039,-0.991217
-518,43,0,0,0,0,0,0,0,0,0,-1,706,981,0,0
-511,43,0,0,0,0,0,0,0,0,0,-1,713,981,0,0
-504,43,0,0,0,0,0,0,0,0,0,-1,720,981,0,0
-497,43,0,0,0,0,0,0,0,0,0,-1,727,981,0,0
-490,43,0,0,0,0,0,0,0,0,0,-1,734,981,0,0
-483,43,0,0,0,0,0,0,0,0,0,-1,741,981,0,0
-476,43,0,0,0,0,0,0,0,0,0,-1,748,981,0,0
-469,43,0,0,0,0,0,0,0,0,0,-1,755,981,0,0
-462,43,0,0,0,0,0,0,0,0,0,-1,762,981,0,0
-455,43,0,0,0,0,0,0,0,0,0,-1,769,981,0,0
-448,43,0,0,0,0,0,0,0,0,0,-1,776,981,0,0
-441,43,0,0,0,0,0,0,0,0,0,-1,783,981,0,0
-434,43,0,0,0,0,0,0,0,0,0,-1,790,981,0,0
-427,43,0,0,0,0,0,0,0,0,0,-1,797,981,0,0
-420,43,0,0,0,0,0,0,0,0,0,-1,804,981,0,0
-413,43,0,0,0,0,0,0,0,0,0,-1,811,981,0,0
-406,43,0,0,0,0,0,0,0,0,0,-1,818,981,0,0
-399,43,0,0,0,0,0,0,0,0,0,-1,825,981,0,0
-392,43,0,0,0,0,0,0,0,0,0,-1,832,981,0,0
-385,43,0,0,0,0,0,0,0,0,0,-1,839,981,0,0
-378,43,0,0,0,0,0,0,0,0,0,-1,846,981,0,0
-371,43,0,0,0,0,0,0,0,0,0,-1,853,981,0,0
-364,43,0,0,0,0,0,0,0,0,0,-1,860,981,0,0
-357,43,0,0,0,0,0,0,0,0,0,-1,867,981,0,0
-350,43,0,0,0,0,0,0,0,0,0,-1,874,981,0,0
-343,43,0,0,0,0,0,0,0,0,0,-1,881,981,0,0
-336,43,0,0,0,0,0,0,0,0,0,-1,888,981,0,0
-329,43,0,0,0,0,0,0,0,0,0,-1,895,981,0,0
-322,43,0,0,0,0,0,0,0,0,0,-1,902,981,0,0
-315,43,0,0,0,0,0,0,0,0,0,-1,909,981,0,0
-308,43,0,0,0,0,0,0,0,0,0,-1,916,981,0,0
-301,43,0,0,0,0,0,0,0,0,0,-1,923,981,0,0
-294,43,0,0,0,0,0,0,0,0,0,-1,930,981,0,0
-287,43,0,0,0,0,0,0,0,0,0,-1,937,981,0,0
-280,43,0,0,0,0,0,0,0,0,0,-1,944,981,0,0
-273,43,0,0,0,0,0,0,0,0,0,-1,951,981,0,0
-266,43,0,0,0,0,0,0,0,0,0,-1,958,981,0,0
-259,43,0,0,0,0,0,0,0,0,0,-1,965,981,0,0
-252,43,0,0,0,0,0,0,0,0,0,-1,972,981,0,0
-245,43,0,0,0,0,0,0,0,0,0,-1,979,981,0,0
-238,43,0,0,0,0,0,0,0,0,0,-1,986,981,0,0
-231,43,0,0,0,0,0,0,0,0,0,-1,993,981,0,0
-224,43,0,0,0,0,0,0,0,0,0,-1,1000,981,0,0
-217,43,0,0,0,0,0,0,0,0,0,-1,1007,981,0,0
-210,43,0,0,0,0,0,0,0,0,0,-1,1014,981,0,0
-203,43,0,0,0,0,0,0,0,0,0,-1,1021,981,0,0
-196,43,0,0,0,0,0,0,0,0,0,-1,1028,981,0,0
-189,43,0,0,0,0,0,0,0,0,0,-1,1035,981,0,0
-182,43,0,0,0,0,0,0,0,0,0,-1,1042,981,0,0
-175,43,0,0,0,0,0,0,0,0,0,-1,1049,981,0,0
-168,43,0,0,0,0,0,0,0,0,0,-1,1056,981,0,0
-161,43,0,0,0,0,0,0,0,0,0,-1,1063,981,0,0
-154,43,0,0,0,0,0,0,0,0,0,-1,1070,981,0,0
-147,43,0,0,0,0,0,0,0,0,0,-1,1077,981,0,0
-140,43,0,0,0,0,0,0,0,0,0,-1,1084,981,0,0
-133,43,0,0,0,0,0,0,0,0,0,-1,1091,981,0,0
-126,43,0,0,0,0,0,0,0,0,0,-1,1098,981,0,0
-119,43,0,0,0,0,0,0,0,0,0,-1,1105,981,0,0
-112,43,0,0,0,0,0,0,0,0,0,-1,1112,981,0,0
-105,43,0,0,0,0,0,0,0,0,0,-1,1119,981,0,0
-98,43,0,0,0,0,0,0,0,0,0,-1,1126,981,0,0
-91,43,0,0,0,0,0,0,0,0,0,-1,1133,981,0,0
-84,43,0,0,0,0,0,0,0,0,0,-1,1140,981,0,0
-77,43,0,0,0,0,0,0,0,0,0,-1,1147,981,0,0
-70,43,0,0,0,0,0,0,0,0,0,-1,1154,981,0,0
-63,43,0,0,0,0,0,0,0,0,0,-1,1161,981,0,0
-56,43,0,0,0,0,0,0,0,0,0,-1,1168,981,0,0
-49,43,0,0,0,0,0,0,0,0,0,-1,1175,981,0,0
-42,43,0,0,0,0,0,0,0,0,0,-1,1182,981,0,0
-35,43,0,0,0,0,0,0,0,0,0,-1,1189,981,0,0
-28,43,0,0,0,0,0,0,0,0,0,-1,1196,981,0,0
-21,43,0,0,0,0,0,0,0,0,0,-1,1203,981,0,0
-14,43,0,0,0,0,0,0,0,0,0,-1,1210,981,0,0
-7,43,0,0,0,0,0,0,0,0,0,-1,1217,981,0,0
0,43,0,0,0,0,0,0,0,0,0,-1,1224,981,0,0
7,43,0,0,0,0,0,0,0,0,0,-1,1231,981,0,0
14,43,0,0,0,0,0,0,0,0,0,-1,1238,981,0,0
21,43,0,0,0,0,0,0,0,0,0,-1,1245,981,0,0
28,43,0,0,0,0,0,0,0,0,0,-1,1252,981,0,0
35,43,0,0,0,0,0,0,0,0,0,-1,1259,981,0,0
42,43,0,0,0,0,0,0,0,0,0,-1,1266,981,0,0
49,43,0,0,0,0,0,0,0,0,0,-1,1273,981,0,0
56,43,0,0,0,0,0,0,0,0,0,-1,1280,981,0,0
63,43,0,0,0,0,0,0,0,0,0,-1,1287,981,0,0
70,43,0,0,0,0,0,0,0,0,0,-1,1294,981,0,0
77,43,0,0,0,0,0,0,0,0,0,-1,1301,981,0,0
84,43,0,0,0,0,0,0,0,0,0,-1,1308,981,0,0
91,43,0,0,0,0,0,0,0,0,0,-1,1315,981,0,0
98,43,0,0,0,0,0,0,0,0,0,-1,1322,981,0,0
105,43,0,0,0,0,0,0,0,0,0,-1,1329,981,0,0
112,43,0,0,0,0,0,0,0,0,0,-1,1336,981,0,0
119,43,0,0,0,0,0,0,0,0,0,-1,1343,981,0,0
126,43,0,0,0,0,0,0,0,0,0,-1,1350,981,0,0
133,43,0,0,0,0,0,0,0,0,0,-1,1357,981,0,0
140,43,0,0,0,0,0,0,0,0,0,-1,1364,981,0,0
147,43,0,0,0,0,0,0,0,0,0,-1,1371,981,0,0
154,43,0,0,0,0,0,0,0,0,0,-1,1378,981,0,0
161,43,0,0,0,0,0,0,0,0,0,-1,1385,981,0,0
168,43,0,0,0,0,0,0,0,0,0,-1,1392,981,0,0
175,43,0,0,0,0,0,0,0,0,0,-1,1399,981,0,0
182,43,0,0,0,0,0,0,0,0,0,-1,1406,981,0,0
189,43,0,0,0,0,0,0,0,0,0,-1,1413,981,0,0
196,43,0,0,0,0,0,0,0,0,0,-1,1420,981,0,0
203,43,0,0,0,0,0,0,0,0,0,-1,1427,981,0,0
210,43,0,0,0,0,0,0,0,0,0,-1,1434,981,0,0
217,43,0,0,0,0,0,0,0,0,0,-1,1441,981,0,0
224,43,0,0,0,0,0,0,0,0,0,-1,1448,981,0,0
231,43,0,0,0,0,0,0,0,0,0,-1,1455,981,0,0
238,43,0,0,0,0,0,0,0,0,0,-1,1462,981,0,0
245,43,0,0,0,0,0,0,0,0,0,-1,1469,981,0,0
252,43,0,0,0,0,0,0,0,0,0,-1,1476,981,0,0
259,43,0,0,0,0,0,0,0,0,0,-1,1483,981,0,0
266,43,0,0,0,0,0,0,0,0,0,-1,1490,981,0,0
273,43,0,0,0,0,0,0,0,0,0,-1,1497,981,0,0
280,43,0,0,0,0,0,0,0,0,0,-1,1504,981,0,0
287,43,0,0,0,0,0,0,0,0,0,-1,1511,981,0,0
294,43,0,0,0,0,0,0,0,0,0,-1,1518,981,0,0
301,43,0,0,0,0,0,0,0,0,0,-1,1525,981,0,0
308,43,0,0,0,0,0,0,0,0,0,-1,1532,981,0,0
315,43,0,0,0,0,0,0,0,0,0,-1,1539,981,0,0
322,43,0,0,0,0,0,0,0,0,0,-1,1546,981,0,0
329,43,0,0,0,0,0,0,0,0,0,-1,1553,981,0,0
336,43,0,0,0,0,0,0,0,0,0,-1,1560,981,0,0
343,43,0,0,0,0,0,0,0,0,0,-1,1567,981,0,0
350,43,0,0,0,0,0,0,0,0,0,-1,1574,981,0,0
357,43,0,0,0,0,0,0,0,0,0,-1,1581,981,0,0
364,43,0,0,0,0,0,0,0,0,0,-1,1588,981,0,0
371,43,0,0,0,0,0,0,0,0,0,-1,1595,981,0,0
378,43,0,0,0,0,0,0,0,0,0,-1,1602,981,0,0
385,43,0,0,0,0,0,0,0,0,0,-1,1609,981,0,0
392,43,0,0,0,0,0,0,0,0,0,-1,1616,981,0,0
399,43,0,0,0,0,0,0,0,0,0,-1,1623,981,0,0
406,43,0,0,0,0,0,0,0,0,0,-1,1630,981,0,0
413,43,0,0,0,0,0,0,0,0,0,-1,1637,981,0,0
420,43,0,0,0,0,0,0,0,0,0,-1,1644,981,0,0
427,43,0,0,0,0,0,0,0,0,0,-1,1651,981,0,0
434,43,0,0,0,0,0,0,0,0,0,-1,1658,981,0,0
441,43,0,0,0,0,0,0,0,0,0,-1,1665,981,0,0
448,43,0,0,0,0,0,0,0,0,0,-1,1672,981,0,0
455,43,0,0,0,0,0,0,0,0,0,-1,1679,981,0,0
462,43,0,0,0,0,0,0,0,0,0,-1,1686,981,0,0
469,43,0,0,0,0,0,0,0,0,0,-1,1693,981,0,0
476,43,0,0,0,0,0,0,0,0,0,-1,1700,981,0,0
483,43,0,0,0,0,0,0,0,0,0,-1,1707,981,0,0
490,43,0,0,0,0,0,0,0,0,0,-1,1714,981,0,0
497,43,0,0,0,0,0,0,0,0,0,-1,1721,981,0,0
504,43,0,0,0,0,0,0,0,0,0,-1,1728,981,0,0
511,43,0,0,0,0,0,0,0,0,0,-1,1735,981,0,0
518,43,0,0,0,0,0,0,0,0,0,-1,1742,981,0,0
525,43,0,0,0,0,0,0,0,0,0,-1,1749,981,0,0
532,43,0,0,0,0,0,0,0,0,0,-1,1756,981,0,0
539,43,0,0,0,0,0,0,0,0,0,-1,1763,981,0,0
546,43,0,0,0,0,0,0,0,0,0,-1,1770,981,0,0
553,43,0,0,0,0,0,0,0,0,0,-1,1777,981,0,0
560,43,0,0,0,0,0,0,0,0,0,-1,1784,981,0,0
567,43,0,0,0,0,0,0,0,0,0,-1,1791,981,0,0
574,43,0,0,0,0,0,0,0,0,0,-1,1798,981,0,0
581,43,0,0,0,0,0,0,0,0,0,-1,1805,981,0,0
588,43,0,0,0,0,0,0,0,0,0,-1,1812,981,0,0
595,43,0,0,0,0,0,0,0,0,0,-1,1819,981,0,0
602,43,0,0,0,0,0,0,0,0,0,-1,1826,981,0,0
609,43,0,0,0,0,0,0,0,0,0,-1,1833,981,0,0
616,43,0,0,0,0,0,0,0,0,0,-1,1840,981,0,0
623,43,0,0,0,0,0,0,0,0,0,-1,1847,981,0,0
630,43,0,0,0,0,0,0,0,0,0,-1,1854,981,0,0
637,43,0,0,0,0,0,0,0,0,0,-1,1861,981,0,0
644,43,11.7574,1.87823,-0.000821469,0.00158041,-0.000109249,0.00158537,-0.000826428,-1.52544,0.00141524,0.0385726,1868,981,11.7574,-1.87823
651,43,11.7164,1.81683,-0.000182081,0.00190081,-9.16921e-05,0.00190484,-0.000186109,-1.52689,0.00133625,0.0361382,1875,981,11.7164,-1.81685
658,43,11.8528,1.74414,0.000139195,0.00203712,1.23895e-06,0.00203712,0.000139194,1.57014,0.00131414,0.0384687,1882,981,11.8527,-1.74412
665,43,11.8429,1.4447,3.82612e-05,0.0020842,0.000109776,0.00209007,3.2388e-05,1.51735,0.00138271,0.0404365,1889,981,11.8429,-1.44469
672,43,11.8058,1.36603,-0.000620551,0.00211718,0.000359641,0.00216363,-0.000667007,1.44233,0.00170872,0.0396964,1896,981,11.8058,-1.36604
679,43,11.7289,1.50818,-0.00162138,0.00207509,0.000698328,0.00220262,-0.00174891,1.39017,0.00228642,0.0402403,1903,981,11.7288,-1.50818
686,43,11.7129,1.55109,-0.00257552,0.00196411,0.00100767,0.00217773,-0.00278914,1.36189,0.00287486,0.0397737,1910,981,11.7128,-1.55108
693,43,11.7914,1.54327,-0.00344154,0.00183219,0.00130614,0.00213795,-0.0037473,1.34084,0.00343994,0.0362063,1917,981,11.7914,-1.5433
700,43,11.7742,1.64056,-0.00411393,0.00163336,0.00147914,0.00199169,-0.00447226,1.33312,0.00382247,0.0310987,1924,981,11.7741,-1.64056
707,43,11.77,1.64923,-0.00473223,0.00149134,0.0015942,0.00187593,-0.00511682,1.33407,0.00417931,0.0257509,1931,981,11.77,-1.64924
714,43,11.8112,1.61658,-0.00520823,0.00135078,0.00169626,0.00176348,-0.00562094,1.33213,0.00445308,0.028122,1938,981,11.8112,-1.61655
721,43,11.6514,1.84467,-0.00534179,0.00119468,0.00169909,0.00160995,-0.00575707,1.33108,0.00447235,0.025408,1945,981,11.6514,-1.84466
728,43,11.4105,2.04694,-0.00515014,0.00103865,0.00161632,0.00143535,-0.00554684,1.33012,0.00425777,0.0168736,1952,981,11.4105,-2.04694
735,43,11.3425,2.11755,-0.0047313,0.000974632,0.00149308,0.00134171,-0.00509838,1.32972,0.00392339,0.0127633,1959,981,11.3425,-2.11756
742,43,11.3658,2.15894,-0.00422647,0.000758667,0.00120815,0.00103603,-0.00450383,1.34513,0.00340091,0.0152986,1966,981,11.3658,-2.15895
749,43,11.3718,2.20929,-0.00366094,0.000903131,0.000990515,0.00110883,-0.00386663,1.36604,0.00301609,0.0170073,1973,981,11.3718,-2.20926
756,43,11.3608,2.23773,-0.00289365,0.000761743,0.00076289,0.000914571,-0.00304647,1.37309,0.00239478,0.0147595,1980,981,11.3608,-2.23775
763,43,11.3615,2.24884,-0.00170936,0.00110528,0.000297269,0.00113634,-0.00174041,1.46671,0.00167305,0.0155714,1987,981,11.3614,-2.24884
770,43,11.3586,2.27777,-0.000749279,0.00126232,-9.84183e-05,0.00126712,-0.000754083,-1.52203,0.00117941,0.0140262,1994,981,11.3586,-2.2778
777,43,11.3617,2.32574,8.66554e-05,0.00154058,-0.000528108,0.00171216,-8.49215e-05,-1.25666,0.00117077,0.0200152,2001,981,11.3617,-2.32577
784,43,11.3331,2.43384,0.000693123,0.00192601,-0.00101718,0.00249897,0.000120172,-1.05782,0.0016274,0.0417057,2008,981,11.3331,-2.43384
791,43,11.3075,2.92133,0.00143195,0.00241051,-0.00176009,0.00374806,9.43943e-05,-0.920968,0.00246784,0.0454087,2015,981,11.3075,-2.92133
798,43,11.2889,3.19733,0.00253995,0.0030419,-0.00295526,0.00575683,-0.000174973,-0.827759,0.00389752,0.0443299,2022,981,11.289,-3.1973
805,43,11.2268,3.4425,0.00400224,0.00393061,-0.00482843,0.00879499,-0.000862134,-0.781689,0.00617081,0.0445397,2029,981,11.2268,-3.44253
812,43,11.1891,3.70496,0,0,0,0,0,0,0,-1,2036,981,11.1891,-3.70494
-700,36,0,0,0,0,0,0,0,0,0,-1,524,988,0,0
-693,36,-6.4162,-0.0206909,0.0155859,0.0379979,0.00183601,0.0381473,0.0154365,1.4896,0.0221574,0.0462511,531,988,-6.41617,0.020705
-686,36,-6.43408,0.0761719,0.00845193,0.0291453,-0.000953926,0.0291892,0.00840804,-1.52483,0.0173497,0.0454858,538,988,-6.43409,-0.0761702
-679,36,-6.24286,-0.104736,0,0,0,0,0,0,0,-1,545,988,-6.24284,0.104706
-672,36,-4.07513,1.53888,0,0,0,0,0,0,0,-1,552,988,-4.07512,-1.53885
-665,36,-3.89941,0.985535,0,0,0,0,0,0,0,-1,559,988,-3.89943,-0.98551
-658,36,-6.88257,0.805786,0,0,0,0,0,0,0,-1,566,988,-6.88255,-0.805788
-651,36,-5.86786,0.921265,-0.00457995,0.0056974,-0.00389628,0.00700752,-0.00589007,-1.24642,0.00745574,0.0379221,573,988,-5.86784,-0.92129
-644,36,-5.89496,0.96936,-0.00464649,0.00365764,-0.00344674,0.00490184,-0.00589069,-1.22437,0.00623978,0.0187635,580,988,-5.89495,-0.969337
-637,36,-5.89001,0.97876,-0.00459477,0.00191616,-0.00292808,0.00303925,-0.00571786,-1.20454,0.00513415,0.0127525,587,988,-5.89003,-0.978734
-630,36,-5.85669,0.95105,-0.00443009,0.000530177,-0.0025738,0.00162433,-0.00552425,-1.16883,0.00432712,0.0121969,594,988,-5.85666,-0.951069
-623,36,-5.87164,0.90564,-0.00416276,6.91816e-05,-0.00220959,0.00101256,-0.00510614,-1.16728,0.00378701,0.0129567,601,988,-5.87165,-0.905634
-616,36,-5.89459,0.884644,-0.00337661,-8.13886e-05,-0.00174721,0.000672534,-0.00413054,-1.16343,0.00300308,0.0100951,608,988,-5.8946,-0.884662
-609,36,-5.87982,0.882446,-0.00261138,0.000169698,-0.00147778,0.000808307,-0.00324999,-1.16289,0.00248039,0.0146615,615,988,-5.87982,-0.882475
-602,36,-5.87872,0.870483,-0.00185201,0.0003376,-0.0012361,0.000894022,-0.00240843,-1.14782,0.00197236,0.0186159,622,988,-5.8787,-0.870483
-595,36,-5.85785,0.812988,-0.00140095,0.00052535,-0.00112732,0.00104494,-0.00192054,-1.13891,0.00173682,0.0198517,629,988,-5.85787,-0.81299
-588,36,-5.87042,0.751526,-0.00145282,0.000625885,-0.00114583,0.00113352,-0.00196046,-1.15375,0.00180746,0.0204938,636,988,-5.8704,-0.751524
-581,36,-5.92725,0.697205,-0.00157601,0.000769399,-0.00115237,0.00124083,-0.00204745,-1.18247,0.00191743,0.0212454,643,988,-5.92722,-0.697197
-574,36,-5.97107,0.714355,-0.00158278,0.00103697,-0.00109554,0.00143472,-0.00198053,-1.22253,0.00198017,0.0237851,650,988,-5.97108,-0.714343
-567,36,-6.01324,0.632202,-0.00162886,0.00138899,-0.000954689,0.00166564,-0.00190551,-1.28874,0.00206335,0.0334633,657,988,-6.01325,-0.632178
-560,36,-5.98859,0.563477,-0.00171054,0.00178768,-0.000696899,0.0019214,-0.00184426,-1.38122,0.00217426,0.0390322,664,988,-5.98859,-0.563498
-553,36,-5.91418,0.486267,-0.00190319,0.0022534,-0.000327476,0.00227904,-0.00192883,-1.49265,0.00243222,0.0439898,671,988,-5.9142,-0.486281
-546,36,-5.57172,0.599182,-0.00233203,0.00278516,0.000138745,0.00278892,-0.00233579,1.54371,0.00296261,0.0476086,678,988,-5.5717,-0.599172
-539,36,-5.55139,0.790833,-0.00309251,0.00339134,0.000611795,0.00344856,-0.00314973,1.47754,0.00381083,0.0443369,685,988,-5.55141,-0.790841
-532,36,-5.6062,1.12213,-0.00449261,0.00415652,0.000985149,0.00426731,-0.0046034,1.45881,0.00512273,0.04378,692,988,-5.60622,-1.12213
-525,36,-5.70245,1.18402,-0.00714485,0.00517323,0.00138508,0.00532705,-0.00729867,1.46019,0.00731903,0.0464997,699,988,-5.70248,-1.18405
-518,36,0,0,0,0,0,0,0,0,0,-1,706,988,0,0
-511,36,0,0,0,0,0,0,0,0,0,-1,713,988,0,0
-504,36,0,0,0,0,0,0,0,0,0,-1,720,988,0,0
-497,36,0,0,0,0,0,0,0,0,0,-1,727,988,0,0
-490,36,0,0,0,0,0,0,0,0,0,-1,734,988,0,0
-483,36,0,0,0,0,0,0,0,0,0,-1,741,988,0,0
-476,36,0,0,0,0,0,0,0,0,0,-1,748,988,0,0
-469,36,0,0,0,0,0,0,0,0,0,-1,755,988,0,0
-462,36,0,0,0,0,0,0,0,0,0,-1,762,988,0,0
-455,36,0,0,0,0,0,0,0,0,0,-1,769,988,0,0
-448,36,0,0,0,0,0,0,0,0,0,-1,776,988,0,0
-441,36,0,0,0,0,0,0,0,0,0,-1,783,988,0,0
-434,36,0,0,0,0,0,0,0,0,0,-1,790,988,0,0
-427,36,0,0,0,0,0,0,0,0,0,-1,797,988,0,0
-420,36,0,0,0,0,0,0,0,0,0,-1,804,988,0,0
-413,36,0,0,0,0,0,0,0,0,0,-1,811,988,0,0
-406,36,0,0,0,0,0,0,0,0,0,-1,818,988,0,0
-399,36,0,0,0,0,0,0,0,0,0,-1,825,988,0,0
-392,36,0,0,0,0,0,0,0,0,0,-1,832,988,0,0
-385,36,0,0,0,0,0,0,0,0,0,-1,839,988,0,0
-378,36,0,0,0,0,0,0,0,0,0,-1,846,988,0,0
-371,36,0,0,0,0,0,0,0,0,0,-1,853,988,0,0
-364,36,0,0,0,0,0,0,0,0,0,-1,860,988,0,0
-357,36,0,0,0,0,0,0,0,0,0,-1,867,988,0,0
-350,36,0,0,0,0,0,0,0,0,0,-1,874,988,0,0
-343,36,0,0,0,0,0,0,0,0,0,-1,881,988,0,0
-336,36,0,0,0,0,0,0,0,0,0,-1,888,988,0,0
-329,36,0,0,0,0,0,0,0,0,0,-1,895,988,0,0
-322,36,0,0,0,0,0,0,0,0,0,-1,902,988,0,0
-315,36,0,0,0,0,0,0,0,0,0,-1,909,988,0,0
-308,36,0,0,0,0,0,0,0,0,0,-1,916,988,0,0
-301,36,0,0,0,0,0,0,0,0,0,-1,923,988,0,0
-294,36,0,0,0,0,0,0,0,0,0,-1,930,988,0,0
-287,36,0,0,0,0,0,0,0,0,0,-1,937,988,0,0
-280,36,0,0,0,0,0,0,0,0,0,-1,944,988,0,0
-273,36,0,0,0,0,0,0,0,0,0,-1,951,988,0,0
-266,36,0,0,0,0,0,0,0,0,0,-1,958,988,0,0
-259,36,0,0,0,0,0,0,0,0,0,-1,965,988,0,0
-252,36,0,0,0,0,0,0,0,0,0,-1,972,988,0,0
-245,36,0,0,0,0,0,0,0,0,0,-1,979,988,0,0
-238,36,0,0,0,0,0,0,0,0,0,-1,986,988,0,0
-231,36,0,0,0,0,0,0,0,0,0,-1,993,988,0,0
-224,36,0,0,0,0,0,0,0,0,0,-1,1000,988,0,0
-217,36,0,0,0,0,0,0,0,0,0,-1,1007,988,0,0
-210,36,0,0,0,0,0,0,0,0,0,-1,1014,988,0,0
-203,36,0,0,0,0,0,0,0,0,0,-1,1021,988,0,0
-196,36,0,0,0,0,0,0,0,0,0,-1,1028,988,0,0
-189,36,0,0,0,0,0,0,0,0,0,-1,1035,988,0,0
-182,36,0,0,0,0,0,0,0,0,0,-1,1042,988,0,0
-175,36,0,0,0,0,0,0,0,0,0,-1,1049,988,0,0
-168,36,0,0,0,0,0,0,0,0,0,-1,1056,988,0,0
-161,36,0,0,0,0,0,0,0,0,0,-1,1063,988,0,0
-154,36,0,0,0,0,0,0,0,0,0,-1,1070,988,0,0
-147,36,0,0,0,0,0,0,0,0,0,-1,1077,988,0,0
-140,36,0,0,0,0,0,0,0,0,0,-1,1084,988,0,0
-133,36,0,0,0,0,0,0,0,0,0,-1,1091,988,0,0
-126,36,0,0,0,0,0,0,0,0,0,-1,1098,988,0,0
-119,36,0,0,0,0,0,0,0,0,0,-1,1105,988,0,0
-112,36,0,0,0,0,0,0,0,0,0,-1,1112,988,0,0
-105,36,0,0,0,0,0,0,0,0,0,-1,1119,988,0,0
-98,36,0,0,0,0,0,0,0,0,0,-1,1126,988,0,0
-91,36,0,0,0,0,0,0,0,0,0,-1,1133,988,0,0
-84,36,0,0,0,0,0,0,0,0,0,-1,1140,988,0,0
-77,36,0,0,0,0,0,0,0,0,0,-1,1147,988,0,0
-70,36,0,0,0,0,0,0,0,0,0,-1,1154,988,0,0
-63,36,0,0,0,0,0,0,0,0,0,-1,1161,988,0,0
-56,36,0,0,0,0,0,0,0,0,0,-1,1168,988,0,0
-49,36,0,0,0,0,0,0,0,0,0,-1,1175,988,0,0
-42,36,0,0,0,0,0,0,0,0,0,-1,1182,988,0,0
-35,36,0,0,0,0,0,0,0,0,0,-1,1189,988,0,0
-28,36,0,0,0,0,0,0,0,0,0,-1,1196,988,0,0
-21,36,0,0,0,0,0,0,0,0,0,-1,1203,988,0,0
-14,36,0,0,0,0,0,0,0,0,0,-1,1210,988,0,0
-7,36,0,0,0,0,0,0,0,0,0,-1,1217,988,0,0
0,36,0,0,0,0,0,0,0,0,0,-1,1224,988,0,0
7,36,0,0,0,0,0,0,0,0,0,-1,1231,988,0,0
14,36,0,0,0,0,0,0,0,0,0,-1,1238,988,0,0
21,36,0,0,0,0,0,0,0,0,0,-1,1245,988,0,0
28,36,0,0,0,0,0,0,0,0,0,-1,1252,988,0,0
35,36,0,0,0,0,0,0,0,0,0,-1,1259,988,0,0
42,36,0,0,0,0,0,0,0,0,0,-1,1266,988,0,0
49,36,0,0,0,0,0,0,0,0,0,-1,1273,988,0,0
56,36,0,0,0,0,0,0,0,0,0,-1,1280,988,0,0
63,36,0,0,0,0,0,0,0,0,0,-1,1287,988,0,0
70,36,0,0,0,0,0,0,0,0,0,-1,1294,988,0,0
77,36,0,0,0,0,0,0,0,0,0,-1,1301,988,0,0
84,36,0,0,0,0,0,0,0,0,0,-1,1308,988,0,0
91,36,0,0,0,0,0,0,0,0,0,-1,1315,988,0,0
98,36,0,0,0,0,0,0,0,0,0,-1,1322,988,0,0
105,36,0,0,0,0,0,0,0,0,0,-1,1329,988,0,0
112,36,0,0,0,0,0,0,0,0,0,-1,1336,988,0,0
119,36,0,0,0,0,0,0,0,0,0,-1,1343,988,0,0
126,36,0,0,0,0,0,0,0,0,0,-1,1350,988,0,0
133,36,0,0,0,0,0,0,0,0,0,-1,1357,988,0,0
140,36,0,0,0,0,0,0,0,0,0,-1,1364,988,0,0
147,36,0,0,0,0,0,0,0,0,0,-1,1371,988,0,0
154,36,0,0,0,0,0,0,0,0,0,-1,1378,988,0,0
161,36,0,0,0,0,0,0,0,0,0,-1,1385,988,0,0
168,36,0,0,0,0,0,0,0,0,0,-1,1392,988,0,0
175,36,0,0,0,0,0,0,0,0,0,-1,1399,988,0,0
182,36,0,0,0,0,0,0,0,0,0,-1,1406,988,0,0
189,36,0,0,0,0,0,0,0,0,0,-1,1413,988,0,0
196,36,0,0,0,0,0,0,0,0,0,-1,1420,988,0,0
203,36,0,0,0,0,0,0,0,0,0,-1,1427,988,0,0
210,36,0,0,0,0,0,0,0,0,0,-1,1434,988,0,0
217,36,0,0,0,0,0,0,0,0,0,-1,1441,988,0,0
224,36,0,0,0,0,0,0,0,0,0,-1,1448,988,0,0
231,36,0,0,0,0,0,0,0,0,0,-1,1455,988,0,0
238,36,0,0,0,0,0,0,0,0,0,-1,1462,988,0,0
245,36,0,0,0,0,0,0,0,0,0,-1,1469,988,0,0
252,36,0,0,0,0,0,0,0,0,0,-1,1476,988,0,0
259,36,0,0,0,0,0,0,0,0,0,-1,1483,988,0,0
266,36,0,0,0,0,0,0,0,0,0,-1,1490,988,0,0
273,36,0,0,0,0,0,0,0,0,0,-1,1497,988,0,0
280,36,0,0,0,0,0,0,0,0,0,-1,1504,988,0,0
287,36,0,0,0,0,0,0,0,0,0,-1,1511,988,0,0
294,36,0,0,0,0,0,0,0,0,0,-1,1518,988,0,0
301,36,0,0,0,0,0,0,0,0,0,-1,1525,988,0,0
308,36,0,0,0,0,0,0,0,0,0,-1,1532,988,0,0
315,36,0,0,0,0,0,0,0,0,0,-1,1539,988,0,0
322,36,0,0,0,0,0,0,0,0,0,-1,1546,988,0,0
329,36,0,0,0,0,0,0,0,0,0,-1,1553,988,0,0
336,36,0,0,0,0,0,0,0,0,0,-1,1560,988,0,0
343,36,0,0,0,0,0,0,0,0,0,-1,1567,988,0,0
350,36,0,0,0,0,0,0,0,0,0,-1,1574,988,0,0
357,36,0,0,0,0,0,0,0,0,0,-1,1581,988,0,0
364,36,0,0,0,0,0,0,0,0,0,-1,1588,988,0,0
371,36,0,0,0,0,0,0,0,0,0,-1,1595,988,0,0
378,36,0,0,0,0,0,0,0,0,0,-1,1602,988,0,0
385,36,0,0,0,0,0,0,0,0,0,-1,1609,988,0,0
392,36,0,0,0,0,0,0,0,0,0,-1,1616,988,0,0
399,36,0,0,0,0,0,0,0,0,0,-1,1623,988,0,0
406,36,0,0,0,0,0,0,0,0,0,-1,1630,988,0,0
413,36,0,0,0,0,0,0,0,0,0,-1,1637,988,0,0
420,36,0,0,0,0,0,0,0,0,0,-1,1644,988,0,0
427,36,0,0,0,0,0,0,0,0,0,-1,1651,988,0,0
434,36,0,0,0,0,0,0,0,0,0,-1,1658,988,0,0
441,36,0,0,0,0,0,0,0,0,0,-1,1665,988,0,0
448,36,0,0,0,0,0,0,0,0,0,-1,1672,988,0,0
455,36,0,0,0,0,0,0,0,0,0,-1,1679,988,0,0
462,36,0,0,0,0,0,0,0,0,0,-1,1686,988,0,0
469,36,0,0,0,0,0,0,0,0,0,-1,1693,988,0,0
476,36,0,0,0,0,0,0,0,0,0,-1,1700,988,0,0
483,36,0,0,0,0,0,0,0,0,0,-1,1707,988,0,0
490,36,0,0,0,0,0,0,0,0,0,-1,1714,988,0,0
497,36,0,0,0,0,0,0,0,0,0,-1,1721,988,0,0
504,36,0,0,0,0,0,0,0,0,0,-1,1728,988,0,0
511,36,0,0,0,0,0,0,0,0,0,-1,1735,988,0,0
518,36,0,0,0,0,0,0,0,0,0,-1,1742,988,0,0
525,36,0,0,0,0,0,0,0,0,0,-1,1749,988,0,0
532,36,0,0,0,0,0,0,0,0,0,-1,1756,988,0,0
539,36,0,0,0,0,0,0,0,0,0,-1,1763,988,0,0
546,36,0,0,0,0,0,0,0,0,0,-1,1770,988,0,0
553,36,0,0,0,0,0,0,0,0,0,-1,1777,988,0,0
560,36,0,0,0,0,0,0,0,0,0,-1,1784,988,0,0
567,36,0,0,0,0,0,0,0,0,0,-1,1791,988,0,0
574,36,0,0,0,0,0,0,0,0,0,-1,1798,988,0,0
581,36,0,0,0,0,0,0,0,0,0,-1,1805,988,0,0
588,36,0,0,0,0,0,0,0,0,0,-1,1812,988,0,0
595,36,0,0,0,0,0,0,0,0,0,-1,1819,988,0,0
602,36,0,0,0,0,0,0,0,0,0,-1,1826,988,0,0
609,36,0,0,0,0,0,0,0,0,0,-1,1833,988,0,0
616,36,0,0,0,0,0,0,0,0,0,-1,1840,988,0,0
623,36,0,0,0,0,0,0,0,0,0,-1,1847,988,0,0
630,36,0,0,0,0,0,0,0,0,0,-1,1854,988,0,0
637,36,0,0,0,0,0,0,0,0,0,-1,1861,988,0,0
644,36,11.7137,1.71777,-0.0013841,0.00288121,8.61602e-05,0.00288295,-0.00138584,1.55061,0.0025146,0.040844,1868,988,11.7137,-1.71779
651,36,11.6689,1.76544,-0.000568265,0.00269336,-7.70863e-06,0.00269338,-0.000568283,-1.56843,0.00201195,0.04055,1875,988,11.6689,-1.76543
658,36,11.8326,1.59155,-0.000138966,0.00249469,4.35373e-05,0.00249541,-0.000139686,1.55427,0.00171207,0.0385099,1882,988,11.8326,-1.59155
665,36,11.8484,1.41644,-5.23711e-05,0.00230769,0.000135298,0.00231542,-6.01021e-05,1.51372,0.00156403,0.0378665,1889,988,11.8484,-1.41645
672,36,11.7821,1.36761,-0.000510661,0.00218404,0.000406146,0.00224393,-0.000570544,1.42441,0.00171801,0.0388605,1896,988,11.7821,-1.3676
679,36,11.7675,1.57831,-0.00137945,0.00204984,0.000797782,0.00222635,-0.00155596,1.35305,0.00219512,0.0393803,1903,988,11.7675,-1.5783
686,36,11.7656,1.76239,-0.00224895,0.00188859,0.00116757,0.00219533,-0.00255569,1.31389,0.00274563,0.0374158,1910,988,11.7656,-1.76238
693,36,11.754,1.77826,-0.00306187,0.00172416,0.00151282,0.00216224,-0.00349996,1.28892,0.00329934,0.0376352,1917,988,11.754,-1.77829
700,36,11.724,1.75012,-0.00372379,0.00149382,0.00173921,0.00202041,-0.00425038,1.27679,0.00369596,0.0348018,1924,988,11.7239,-1.75011
707,36,11.7299,1.70679,-0.00432171,0.00136469,0.0018939,0.00193772,-0.00489474,1.27699,0.00406601,0.0243462,1931,988,11.7298,-1.70676
714,36,11.8051,1.64203,-0.00482307,0.00124388,0.00201064,0.00184973,-0.00542891,1.27813,0.0043684,0.025195,1938,988,11.805,-1.642
721,36,11.6628,1.90167,-0.00502777,0.00111996,0.00203044,0.00173003,-0.00563783,1.27892,0.00444881,0.0283264,1945,988,11.6629,-1.90166
728,36,11.4958,2.07874,-0.00492942,0.00101053,0.00195902,0.00159844,-0.00551733,1.27925,0.00431097,0.0193892,1952,988,11.4958,-2.07876
735,36,11.396,2.13458,-0.00462082,0.000934791,0.00186294,0.00150165,-0.00518767,1.27542,0.00405282,0.0164128,1959,988,11.3959,-2.13461
742,36,11.4052,2.17285,-0.00421931,0.000732103,0.00164448,0.0012285,-0.00471572,1.27763,0.00362341,0.0137345,1966,988,11.4052,-2.17285
749,36,11.4109,2.21423,-0.0036896,0.000903907,0.0015278,0.00136564,-0.00415133,1.2773,0.00331782,0.0156204,1973,988,11.4109,-2.21423
756,36,11.3925,2.22955,-0.00286755,0.000733547,0.00145044,0.00124508,-0.00337909,1.23174,0.00276291,0.0139478,1980,988,11.3924,-2.22954
763,36,11.3993,2.25458,-0.00155585,0.00118409,0.00110195,0.00157228,-0.00194404,1.2321,0.00203392,0.0148701,1987,988,11.3993,-2.25461
770,36,11.3965,2.28564,-0.000395108,0.00140421,0.00091528,0.00178796,-0.000778852,1.17379,0.00151964,0.012904,1994,988,11.3965,-2.28566
777,36,11.3918,2.34882,0.000827363,0.001761,0.00075185,0.00217917,0.000409198,1.06322,0.00133741,0.0222934,2001,988,11.3918,-2.34881
784,36,11.3911,2.65424,0.00196795,0.00227582,0.000606268,0.00274739,0.00149638,0.909722,0.00158831,0.0445848,2008,988,11.3911,-2.65427
791,36,11.3865,2.94922,0.00339762,0.0029583,0.00027772,0.00353205,0.00282388,0.450801,0.00215773,0.0464229,2015,988,11.3865,-2.94921
798,36,11.3738,3.2002,0.00545913,0.0038854,-0.000458267,0.00558285,0.00376168,-0.263687,0.00328752,0.0450177,2022,988,11.3738,-3.20018
805,36,11.4054,3.50861,0.00827377,0.00521862,-0.00185173,0.00914669,0.0043457,-0.440515,0.00528302,0.0484031,2029,988,11.4054,-3.50861
812,36,11.4716,3.77307,0,0,0,0,0,0,0,-1,2036,988,11.4716,-3.77309
-700,29,0,0,0,0,0,0,0,0,0,-1,524,995,0,0
-693,29,-6.83289,-0.270447,0,0,0,0,0,0,0,-1,531,995,-6.83288,0.270428
-686,29,-4.73248,3.25201,0,0,0,0,0,0,0,-1,538,995,-4.73247,-3.25203
-679,29,-4.7525,2.71185,0.00459337,0.0166329,-0.00536638,0.0186776,0.00254868,-1.20676,0.0116951,0.0456116,545,995,-4.75249,-2.71185
-672,29,-4.62817,2.10175,0.00146155,0.0126835,-0.00537787,0.0148445,-0.000699517,-1.1887,0.0101376,0.0424146,552,995,-4.62815,-2.10173
-665,29,-4.4433,1.474,-0.00075741,0.00939747,-0.00514677,0.0115498,-0.00290974,-1.17471,0.00883104,0.0429374,559,995,-4.44327,-1.474
-658,29,-4.25842,0.86615,0,0,0,0,0,0,0,-1,566,995,-4.25842,-0.86617
-651,29,-5.4408,1.37061,-0.00304444,0.00461812,-0.00411882,0.00641209,-0.00483841,-1.16002,0.00651662,0.0369452,573,995,-5.44079,-1.3706
-644,29,-5.8736,0.950073,-0.00331477,0.00302979,-0.00349542,0.00457782,-0.0048628,-1.15388,0.00545137,0.0171062,580,995,-5.87361,-0.950093
-637,29,-5.90216,0.95813,-0.00348473,0.00169791,-0.00285967,0.00296569,-0.00475251,-1.1535,0.00449573,0.0109712,587,995,-5.90213,-0.958131
-630,29,-5.9079,0.939392,-0.00348323,0.00057668,-0.00242976,0.00171287,-0.00461941,-1.13339,0.00378214,0.0102607,594,995,-5.90792,-0.939381
-623,29,-5.90912,0.912659,-0.00336591,0.000197944,-0.00212436,0.00118877,-0.00435674,-1.13438,0.00337135,0.0108894,601,995,-5.90911,-0.912648
-616,29,-5.90277,0.891357,-0.00278281,-8.93039e-06,-0.00173932,0.000828732,-0.00362047,-1.12198,0.00273211,0.0122424,608,995,-5.9028,-0.891379
-609,29,-5.91168,0.884521,-0.00210625,0.000173711,-0.00157767,0.00098016,-0.0029127,-1.09826,0.00233804,0.0189959,615,995,-5.91169,-0.884537
-602,29,-5.9176,0.858704,-0.0014246,0.000252071,-0.00151879,0.00114854,-0.00232107,-1.03758,0.00204095,0.0210909,622,995,-5.91762,-0.858701
-595,29,-5.89948,0.798462,-0.000965436,0.000438618,-0.00145529,0.00135236,-0.00187918,-1.01013,0.00187398,0.0194173,629,995,-5.89949,-0.79848
-588,29,-5.92041,0.651367,-0.00100999,0.000560439,-0.00145291,0.00142674,-0.00187629,-1.03314,0.00191289,0.0238694,636,995,-5.92039,-0.651377
-581,29,-5.94751,0.583252,-0.00117888,0.000718343,-0.00143458,0.00148959,-0.00195012,-1.07752,0.00199184,0.0313179,643,995,-5.9475,-0.583222
-574,29,-5.92297,0.666016,-0.00121993,0.00102216,-0.00133267,0.00164259,-0.00184037,-1.13508,0.00201197,0.0286502,650,995,-5.92299,-0.666036
-567,29,-5.95233,0.551147,-0.00135357,0.00139244,-0.001112,0.00178626,-0.00174739,-1.23042,0.0020402,0.0334068,657,995,-5.95233,-0.55112
-560,29,-6.10364,0.345398,-0.00161699,0.00183454,-0.000737798,0.00198564,-0.00176809,-1.3688,0.00216843,0.0373104,664,995,-6.10361,-0.345383
-553,29,-6.13428,0.348083,-0.00209107,0.00235761,-0.000201251,0.0023667,-0.00210016,-1.52568,0.00258047,0.0415433,671,995,-6.13425,-0.348106
-546,29,-5.65002,0.541199,-0.0029154,0.00296231,0.000489191,0.00300275,-0.00295584,1.48832,0.00344023,0.0453485,678,995,-5.65003,-0.541203
-539,29,-5.75128,0.790649,-0.00418752,0.00365324,0.00123515,0.00384321,-0.00437748,1.41819,0.00474956,0.0415527,685,995,-5.75127,-0.790646
-532,29,-5.92615,0.816162,-0.00622635,0.00451668,0.00192501,0.0048512,-0.00656087,1.39874,0.00661336,0.0422612,692,995,-5.92614,-0.816152
-525,29,-5.93158,0.676575,-0.00962163,0.00565206,0.0027534,0.00613326,-0.0101028,1.39778,0.00946684,0.0438082,699,995,-5.93159,-0.676591
-518,29,0,0,0,0,0,0,0,0,0,-1,706,995,0,0
-511,29,0,0,0,0,0,0,0,0,0,-1,713,995,0,0
-504,29,0,0,0,0,0,0,0,0,0,-1,720,995,0,0
-497,29,0,0,0,0,0,0,0,0,0,-1,727,995,0,0
-490,29,0,0,0,0,0,0,0,0,0,-1,734,995,0,0
-483,29,0,0,0,0,0,0,0,0,0,-1,741,995,0,0
-476,29,0,0,0,0,0,0,0,0,0,-1,748,995,0,0
-469,29,0,0,0,0,0,0,0,0,0,-1,755,995,0,0
-462,29,0,0,0,0,0,0,0,0,0,-1,762,995,0,0
-455,29,0,0,0,0,0,0,0,0,0,-1,769,995,0,0
-448,29,0,0,0,0,0,0,0,0,0,-1,776,995,0,0
-441,29,0,0,0,0,0,0,0,0,0,-1,783,995,0,0
-434,29,0,0,0,0,0,0,0,0,0,-1,790,995,0,0
-427,29,0,0,0,0,0,0,0,0,0,-1,797,995,0,0
-420,29,0,0,0,0,0,0,0,0,0,-1,804,995,0,0
-413,29,0,0,0,0,0,0,0,0,0,-1,811,995,0,0
-406,29,0,0,0,0,0,0,0,0,0,-1,818,995,0,0
-399,29,0,0,0,0,0,0,0,0,0,-1,825,995,0,0
-392,29,0,0,0,0,0,0,0,0,0,-1,832,995,0,0
-385,29,0,0,0,0,0,0,0,0,0,-1,839,995,0,0
-378,29,0,0,0,0,0,0,0,0,0,-1,846,995,0,0
-371,29,0,0,0,0,0,0,0,0,0,-1,853,995,0,0
-364,29,0,0,0,0,0,0,0,0,0,-1,860,995,0,0
-357,29,0,0,0,0,0,0,0,0,0,-1,867,995,0,0
-350,29,0,0,0,0,0,0,0,0,0,-1,874,995,0,0
-343,29,0,0,0,0,0,0,0,0,0,-1,881,995,0,0
-336,29,0,0,0,0,0,0,0,0,0,-1,888,995,0,0
-329,29,0,0,0,0,0,0,0,0,0,-1,895,995,0,0
-322,29,0,0,0,0,0,0,0,0,0,-1,902,995,0,0
-315,29,0,0,0,0,0,0,0,0,0,-1,909,995,0,0
-308,29,0,0,0,0,0,0,0,0,0,-1,916,995,0,0
-301,29,0,0,0,0,0,0,0,0,0,-1,923,995,0,0
-294,29,0,0,0,0,0,0,0,0,0,-1,930,995,0,0
-287,29,0,0,0,0,0,0,0,0,0,-1,937,995,0,0
-280,29,0,0,0,0,0,0,0,0,0,-1,944,995,0,0
-273,29,0,0,0,0,0,0,0,0,0,-1,951,995,0,0
-266,29,0,0,0,0,0,0,0,0,0,-1,958,995,0,0
-259,29,0,0,0,0,0,0,0,0,0,-1,965,995,0,0
-252,29,0,0,0,0,0,0,0,0,0,-1,972,995,0,0
-245,29,0,0,0,0,0,0,0,0,0,-1,979,995,0,0
-238,29,0,0,0,0,0,0,0,0,0,-1,986,995,0,0
-231,29,0,0,0,0,0,0,0,0,0,-1,993,995,0,0
-224,29,0,0,0,0,0,0,0,0,0,-1,1000,995,0,0
-217,29,0,0,0,0,0,0,0,0,0,-1,1007,995,0,0
-210,29,0,0,0,0,0,0,0,0,0,-1,1014,995,0,0
-203,29,0,0,0,0,0,0,0,0,0,-1,1021,995,0,0
-196,29,0,0,0,0,0,0,0,0,0,-1,1028,995,0,0
-189,29,0,0,0,0,0,0,0,0,0,-1,1035,995,0,0
-182,29,0,0,0,0,0,0,0,0,0,-1,1042,995,0,0
-175,29,0,0,0,0,0,0,0,0,0,-1,1049,995,0,0
-168,29,0,0,0,0,0,0,0,0,0,-1,1056,995,0,0
-161,29,0,0,0,0,0,0,0,0,0,-1,1063,995,0,0
-154,29,0,0,0,0,0,0,0,0,0,-1,1070,995,0,0
-147,29,0,0,0,0,0,0,0,0,0,-1,1077,995,0,0
-140,29,0,0,0,0,0,0,0,0,0,-1,1084,995,0,0
-133,29,0,0,0,0,0,0,0,0,0,-1,1091,995,0,0
-126,29,0,0,0,0,0,0,0,0,0,-1,1098,995,0,0
-119,29,0,0,0,0,0,0,0,0,0,-1,1105,995,0,0
-112,29,0,0,0,0,0,0,0,0,0,-1,1112,995,0,0
-105,29,0,0,0,0,0,0,0,0,0,-1,1119,995,0,0
-98,29,0,0,0,0,0,0,0,0,0,-1,1126,995,0,0
-91,29,0,0,0,0,0,0,0,0,0,-1,1133,995,0,0
-84,29,0,0,0,0,0,0,0,0,0,-1,1140,995,0,0
-77,29,0,0,0,0,0,0,0,0,0,-1,1147,995,0,0
-70,29,0,0,0,0,0,0,0,0,0,-1,1154,995,0,0
-63,29,0,0,0,0,0,0,0,0,0,-1,1161,995,0,0
-56,29,0,0,0,0,0,0,0,0,0,-1,1168,995,0,0
-49,29,0,0,0,0,0,0,0,0,0,-1,1175,995,0,0
-42,29,0,0,0,0,0,0,0,0,0,-1,1182,995,0,0
-35,29,0,0,0,0,0,0,0,0,0,-1,1189,995,0,0
-28,29,0,0,0,0,0,0,0,0,0,-1,1196,995,0,0
-21,29,0,0,0,0,0,0,0,0,0,-1,1203,995,0,0
-14,29,0,0,0,0,0,0,0,0,0,-1,1210,995,0,0
-7,29,0,0,0,0,0,0,0,0,0,-1,1217,995,0,0
0,29,0,0,0,0,0,0,0,0,0,-1,1224,995,0,0
7,29,0,0,0,0,0,0,0,0,0,-1,1231,995,0,0
14,29,0,0,0,0,0,0,0,0,0,-1,1238,995,0,0
21,29,0,0,0,0,0,0,0,0,0,-1,1245,995,0,0
28,29,0,0,0,0,0,0,0,0,0,-1,1252,995,0,0
35,29,0,0,0,0,0,0,0,0,0,-1,1259,995,0,0
42,29,0,0,0,0,0,0,0,0,0,-1,1266,995,0,0
49,29,0,0,0,0,0,0,0,0,0,-1,1273,995,0,0
56,29,0,0,0,0,0,0,0,0,0,-1,1280,995,0,0
63,29,0,0,0,0,0,0,0,0,0,-1,1287,995,0,0
70,29,0,0,0,0,0,0,0,0,0,-1,1294,995,0,0
77,29,0,0,0,0,0,0,0,0,0,-1,1301,995,0,0
84,29,0,0,0,0,0,0,0,0,0,-1,1308,995,0,0
91,29,0,0,0,0,0,0,0,0,0,-1,1315,995,0,0
98,29,0,0,0,0,0,0,0,0,0,-1,1322,995,0,0
105,29,0,0,0,0,0,0,0,0,0,-1,1329,995,0,0
112,29,0,0,0,0,0,0,0,0,0,-1,1336,995,0,0
119,29,0,0,0,0,0,0,0,0,0,-1,1343,995,0,0
126,29,0,0,0,0,0,0,0,0,0,-1,1350,995,0,0
133,29,0,0,0,0,0,0,0,0,0,-1,1357,995,0,0
140,29,0,0,0,0,0,0,0,0,0,-1,1364,995,0,0
147,29,0,0,0,0,0,0,0,0,0,-1,1371,995,0,0
154,29,0,0,0,0,0,0,0,0,0,-1,1378,995,0,0
161,29,0,0,0,0,0,0,0,0,0,-1,1385,995,0,0
168,29,0,0,0,0,0,0,0,0,0,-1,1392,995,0,0
175,29,0,0,0,0,0,0,0,0,0,-1,1399,995,0,0
182,29,0,0,0,0,0,0,0,0,0,-1,1406,995,0,0
189,29,0,0,0,0,0,0,0,0,0,-1,1413,995,0,0
196,29,0,0,0,0,0,0,0,0,0,-1,1420,995,0,0
203,29,0,0,0,0,0,0,0,0,0,-1,1427,995,0,0
210,29,0,0,0,0,0,0,0,0,0,-1,1434,995,0,0
217,29,0,0,0,0,0,0,0,0,0,-1,1441,995,0,0
224,29,0,0,0,0,0,0,0,0,0,-1,1448,995,0,0
231,29,0,0,0,0,0,0,0,0,0,-1,1455,995,0,0
238,29,0,0,0,0,0,0,0,0,0,-1,1462,995,0,0
245,29,0,0,0,0,0,0,0,0,0,-1,1469,995,0,0
252,29,0,0,0,0,0,0,0,0,0,-1,1476,995,0,0
259,29,0,0,0,0,0,0,0,0,0,-1,1483,995,0,0
266,29,0,0,0,0,0,0,0,0,0,-1,1490,995,0,0
273,29,0,0,0,0,0,0,0,0,0,-1,1497,995,0,0
280,29,0,0,0,0,0,0,0,0,0,-1,1504,995,0,0
287,29,0,0,0,0,0,0,0,0,0,-1,1511,995,0,0
294,29,0,0,0,0,0,0,0,0,0,-1,1518,995,0,0
301,29,0,0,0,0,0,0,0,0,0,-1,1525,995,0,0
308,29,0,0,0,0,0,0,0,0,0,-1,1532,995,0,0
315,29,0,0,0,0,0,0,0,0,0,-1,1539,995,0,0
322,29,0,0,0,0,0,0,0,0,0,-1,1546,995,0,0
329,29,0,0,0,0,0,0,0,0,0,-1,1553,995,0,0
336,29,0,0,0,0,0,0,0,0,0,-1,1560,995,0,0
343,29,0,0,0,0,0,0,0,0,0,-1,1567,995,0,0
350,29,0,0,0,0,0,0,0,0,0,-1,1574,995,0,0
357,29,0,0,0,0,0,0,0,0,0,-1,1581,995,0,0
364,29,0,0,0,0,0,0,0,0,0,-1,1588,995,0,0
371,29,0,0,0,0,0,0,0,0,0,-1,1595,995,0,0
378,29,0,0,0,0,0,0,0,0,0,-1,1602,995,0,0
385,29,0,0,0,0,0,0,0,0,0,-1,1609,995,0,0
392,29,0,0,0,0,0,0,0,0,0,-1,1616,995,0,0
399,29,0,0,0,0,0,0,0,0,0,-1,1623,995,0,0
406,29,0,0,0,0,0,0,0,0,0,-1,1630,995,0,0
413,29,0,0,0,0,0,0,0,0,0,-1,1637,995,0,0
420,29,0,0,0,0,0,0,0,0,0,-1,1644,995,0,0
427,29,0,0,0,0,0,0,0,0,0,-1,1651,995,0,0
434,29,0,0,0,0,0,0,0,0,0,-1,1658,995,0,0
441,29,0,0,0,0,0,0,0,0,0,-1,1665,995,0,0
448,29,0,0,0,0,0,0,0,0,0,-1,1672,995,0,0
455,29,0,0,0,0,0,0,0,0,0,-1,1679,995,0,0
462,29,0,0,0,0,0,0,0,0,0,-1,1686,995,0,0
469,29,0,0,0,0,0,0,0,0,0,-1,1693,995,0,0
476,29,0,0,0,0,0,0,0,0,0,-1,1700,995,0,0
483,29,0,0,0,0,0,0,0,0,0,-1,1707,995,0,0
490,29,0,0,0,0,0,0,0,0,0,-1,1714,995,0,0
497,29,0,0,0,0,0,0,0,0,0,-1,1721,995,0,0
504,29,0,0,0,0,0,0,0,0,0,-1,1728,995,0,0
511,29,0,0,0,0,0,0,0,0,0,-1,1735,995,0,0
518,29,0,0,0,0,0,0,0,0,0,-1,1742,995,0,0
525,29,0,0,0,0,0,0,0,0,0,-1,1749,995,0,0
532,29,0,0,0,0,0,0,0,0,0,-1,1756,995,0,0
539,29,0,0,0,0,0,0,0,0,0,-1,1763,995,0,0
546,29,0,0,0,0,0,0,0,0,0,-1,1770,995,0,0
553,29,0,0,0,0,0,0,0,0,0,-1,1777,995,0,0
560,29,0,0,0,0,0,0,0,0,0,-1,1784,995,0,0
567,29,0,0,0,0,0,0,0,0,0,-1,1791,995,0,0
574,29,0,0,0,0,0,0,0,0,0,-1,1798,995,0,0
581,29,0,0,0,0,0,0,0,0,0,-1,1805,995,0,0
588,29,0,0,0,0,0,0,0,0,0,-1,1812,995,0,0
595,29,0,0,0,0,0,0,0,0,0,-1,1819,995,0,0
602,29,0,0,0,0,0,0,0,0,0,-1,1826,995,0,0
609,29,0,0,0,0,0,0,0,0,0,-1,1833,995,0,0
616,29,0,0,0,0,0,0,0,0,0,-1,1840,995,0,0
623,29,0,0,0,0,0,0,0,0,0,-1,1847,995,0,0
630,29,0,0,0,0,0,0,0,0,0,-1,1854,995,0,0
637,29,0,0,0,0,0,0,0,0,0,-1,1861,995,0,0
644,29,11.663,1.59888,-0.00181258,0.00415676,0.000378562,0.00418067,-0.00183649,1.50772,0.0035608,0.0414746,1868,995,11.663,-1.59887
651,29,11.6919,1.6662,-0.000936832,0.00346637,0.000114902,0.00346937,-0.000939828,1.54472,0.00268166,0.0406561,1875,995,11.6919,-1.66619
658,29,11.8284,1.66058,-0.000441145,0.00293014,8.83793e-05,0.00293245,-0.00044346,1.54461,0.00211832,0.040807,1882,995,11.8284,-1.66056
665,29,11.8455,1.71783,-0.000210087,0.0025022,0.000145315,0.00250997,-0.00021785,1.51742,0.00175045,0.0412837,1889,995,11.8455,-1.71781
672,29,11.8109,1.64337,-0.000491336,0.00220806,0.000428306,0.00227439,-0.000557664,1.41715,0.00173233,0.0392972,1896,995,11.8109,-1.64338
679,29,11.7512,1.65936,-0.00123545,0.00196534,0.00087255,0.00218775,-0.00145786,1.32122,0.00211881,0.0378438,1903,995,11.7512,-1.65939
686,29,11.7461,1.70544,-0.00201807,0.00173878,0.00130736,0.00214895,-0.00242824,1.26678,0.00264428,0.0349081,1910,995,11.7461,-1.70546
693,29,11.7355,1.87158,-0.00277435,0.00153436,0.00170414,0.00212689,-0.00336687,1.23618,0.00319864,0.0352928,1917,995,11.7354,-1.87158
700,29,11.6807,1.93365,-0.00341408,0.00126987,0.00198203,0.00199601,-0.00414022,1.21962,0.00361413,0.0331796,1924,995,11.6807,-1.93364
707,29,11.6869,1.75623,-0.00396897,0.00114725,0.00218307,0.00195214,-0.00477385,1.21757,0.00399554,0.022059,1931,995,11.6869,-1.75625
714,29,11.7668,1.76996,-0.00447201,0.00103909,0.00232315,0.00188772,-0.00532064,1.22056,0.0043162,0.021441,1938,995,11.7668,-1.76999
721,29,11.6655,1.96368,-0.00472877,0.000951128,0.00235838,0.00180269,-0.00558033,1.22428,0.0044447,0.0236161,1945,995,11.6656,-1.96367
728,29,11.4917,2.06274,-0.00471592,0.000880014,0.00230315,0.00170601,-0.00554191,1.22645,0.00437558,0.0192499,1952,995,11.4916,-2.06273
735,29,11.4231,2.15051,-0.00449989,0.000787153,0.00223305,0.00160408,-0.00531682,1.22008,0.00418305,0.0144774,1959,995,11.4231,-2.15052
742,29,11.4403,2.17731,-0.00418088,0.000612412,0.00205325,0.00137167,-0.00494014,1.21661,0.00383334,0.0120954,1966,995,11.4403,-2.17732
749,29,11.4343,2.20618,-0.0036645,0.000831992,0.00199321,0.00158833,-0.00442083,1.20813,0.00359557,0.0129251,1973,995,11.4343,-2.2062
756,29,11.4227,2.24036,-0.00275924,0.000661372,0.00204184,0.00161457,-0.00371244,1.13403,0.00315405,0.0117179,1980,995,11.4228,-2.24037
763,29,11.4552,2.25391,-0.00127705,0.00124346,0.00175611,0.00214472,-0.00217831,1.09663,0.00249593,0.0119401,1987,995,11.4553,-2.25391
770,29,11.4247,2.27954,0.00010694,0.00156571,0.00171822,0.00270294,-0.0010303,0.986122,0.00222633,0.0127296,1994,995,11.4246,-2.27952
777,29,11.4146,2.35138,0.00174643,0.00206441,0.00174444,0.0036571,0.000153745,0.830843,0.00238847,0.0207808,2001,995,11.4145,-2.35136
784,29,11.3914,2.60114,0.00349591,0.00279727,0.00184173,0.00502115,0.00127203,0.691676,0.00301426,0.0434367,2008,995,11.3914,-2.60116
791,29,11.3601,2.80524,0,0,0,0,0,0,0,-1,2015,995,11.3601,-2.80524
798,29,11.5847,3.29144,0.00893391,0.00518771,0.00136059,0.00937591,0.0047457,0.314107,0.00541332,0.0434135,2022,995,11.5848,-3.29144
805,29,11.6239,3.49011,0.0133217,0.00717111,0.000245323,0.0133315,0.00716134,0.0398017,0.00770402,0.0479595,2029,995,11.6239,-3.49013
812,29,11.6921,3.67719,0,0,0,0,0,0,0,-1,2036,995,11.6921,-3.6772
-700,22,0,0,0,0,0,0,0,0,0,-1,524,1002,0,0
-693,22,-5.38776,5.69275,0,0,0,0,0,0,0,-1,531,1002,-5.38776,-5.69277
-686,22,-4.98285,3.33069,0.00650067,0.0120975,-0.00838534,0.0181391,0.000459117,-0.946451,0.0119426,0.0474462,538,1002,-4.98283,-3.33069
-679,22,-5.26239,2.83716,0.00379413,0.00975218,-0.00777837,0.0151025,-0.00155617,-0.968276,0.0106251,0.0494825,545,1002,-5.26237,-2.83713
-672,22,-5.03101,2.35541,0.00162425,0.00768948,-0.00701474,0.0122991,-0.00298534,-0.989425,0.00935464,0.0453169,552,1002,-5.03099,-2.35539
-665,22,-4.79889,1.99133,-2.49634e-05,0.00589602,-0.00615853,0.00976868,-0.00389763,-1.00945,0.00812933,0.0427924,559,1002,-4.79892,-1.99135
-658,22,-4.78882,1.88086,0,0,0,0,0,0,0,-1,566,1002,-4.78881,-1.88087
-651,22,-5.44934,1.35834,-0.00193768,0.00314347,-0.00433154,0.00562452,-0.00441873,-1.05063,0.00581239,0.0356418,573,1002,-5.44933,-1.35836
-644,22,-5.85529,0.940613,-0.00219081,0.00216905,-0.00355211,0.0041568,-0.00417856,-1.06061,0.00481243,0.0154675,580,1002,-5.85532,-0.940629
-637,22,-5.88885,0.946777,-0.00246356,0.00136422,-0.00279052,0.00283411,-0.00393346,-1.08598,0.0039244,0.0110268,587,1002,-5.88885,-0.946768
-630,22,-5.92798,0.924744,-0.00261679,0.000681251,-0.00221897,0.00179685,-0.00373239,-1.10495,0.00325685,0.010105,594,1002,-5.92799,-0.924748
-623,22,-5.92896,0.910522,-0.00259521,0.000378707,-0.00198433,0.00137139,-0.00358789,-1.10694,0.00295703,0.00945019,601,1002,-5.92897,-0.910508
-616,22,-5.89569,0.895996,-0.00217473,9.66941e-05,-0.00169248,0.000999198,-0.00307724,-1.08091,0.00245335,0.0150118,608,1002,-5.89569,-0.895989
-609,22,-5.95551,0.889404,-0.00157913,0.000205035,-0.0016635,0.00120055,-0.00257465,-1.03152,0.00222722,0.0250716,615,1002,-5.95549,-0.889401
-602,22,-6.00439,0.876526,-0.00101093,0.000206064,-0.00177209,0.00147122,-0.00227609,-0.95078,0.00218008,0.0252282,622,1002,-6.00442,-0.876542
-595,22,-5.98047,0.787415,-0.000600938,0.000343386,-0.00176702,0.00170024,-0.00195779,-0.915952,0.00211371,0.0213298,629,1002,-5.98049,-0.787436
-588,22,-5.97076,0.603271,-0.000655292,0.000444994,-0.00176433,0.00174297,-0.00195327,-0.936528,0.00213517,0.0267388,636,1002,-5.97075,-0.603294
-581,22,-5.97888,0.524719,-0.000884276,0.000581579,-0.00173675,0.00173372,-0.00203642,-0.985066,0.00217903,0.0368934,643,1002,-5.9789,-0.524697
-574,22,-5.93372,0.586853,-0.00100047,0.00087801,-0.00160122,0.00179513,-0.00191759,-1.05064,0.00214393,0.0346472,650,1002,-5.93374,-0.586835
-567,22,-5.88849,0.694702,-0.00128201,0.00120881,-0.00130726,0.00176894,-0.00184214,-1.16598,0.002085,0.0348764,657,1002,-5.8885,-0.694709
-560,22,-6.0213,0.330688,-0.00178616,0.00161283,-0.000826823,0.00180328,-0.00197662,-1.3444,0.00218309,0.0371587,664,1002,-6.0213,-0.330694
-553,22,-6.05139,0.51239,-0.00261393,0.00208554,-0.000130617,0.00208917,-0.00261756,-1.54303,0.00272313,0.0383794,671,1002,-6.0514,-0.51242
-546,22,-5.91693,0.454712,-0.00392293,0.00262806,0.000784227,0.00272063,-0.00401551,1.4533,0.00391299,0.0412933,678,1002,-5.91691,-0.454737
-539,22,-6.03217,0.514282,-0.00582189,0.00324197,0.00181799,0.00359302,-0.00617294,1.38005,0.00570358,0.0400736,685,1002,-6.03218,-0.514263
-532,22,-6.08765,0.423645,-0.00865686,0.00401841,0.00286169,0.00463454,-0.00927299,1.35873,0.00817702,0.0398993,692,1002,-6.08767,-0.423661
-525,22,0,0,0,0,0,0,0,0,0,-1,699,1002,0,0
-518,22,0,0,0,0,0,0,0,0,0,-1,706,1002,0,0
-511,22,0,0,0,0,0,0,0,0,0,-1,713,1002,0,0
-504,22,0,0,0,0,0,0,0,0,0,-1,720,1002,0,0
-497,22,0,0,0,0,0,0,0,0,0,-1,727,1002,0,0
-490,22,0,0,0,0,0,0,0,0,0,-1,734,1002,0,0
-483,22,0,0,0,0,0,0,0,0,0,-1,741,1002,0,0
-476,22,0,0,0,0,0,0,0,0,0,-1,748,1002,0,0
-469,22,0,0,0,0,0,0,0,0,0,-1,755,1002,0,0
-462,22,0,0,0,0,0,0,0,0,0,-1,762,1002,0,0
-455,22,0,0,0,0,0,0,0,0,0,-1,769,1002,0,0
-448,22,0,0,0,0,0,0,0,0,0,-1,776,1002,0,0
-441,22,0,0,0,0,0,0,0,0,0,-1,783,1002,0,0
-434,22,0,0,0,0,0,0,0,0,0,-1,790,1002,0,0
-427,22,0,0,0,0,0,0,0,0,0,-1,797,1002,0,0
-420,22,0,0,0,0,0,0,0,0,0,-1,804,1002,0,0
-413,22,0,0,0,0,0,0,0,0,0,-1,811,1002,0,0
-406,22,0,0,0,0,0,0,0,0,0,-1,818,1002,0,0
-399,22,0,0,0,0,0,0,0,0,0,-1,825,1002,0,0
-392,22,0,0,0,0,0,0,0,0,0,-1,832,1002,0,0
-385,22,0,0,0,0,0,0,0,0,0,-1,839,1002,0,0
-378,22,0,0,0,0,0,0,0,0,0,-1,846,1002,0,0
-371,22,0,0,0,0,0,0,0,0,0,-1,853,1002,0,0
-364,22,0,0,0,0,0,0,0,0,0,-1,860,1002,0,0
-357,22,0,0,0,0,0,0,0,0,0,-1,867,1002,0,0
-350,22,0,0,0,0,0,0,0,0,0,-1,874,1002,0,0
-343,22,0,0,0,0,0,0,0,0,0,-1,881,1002,0,0
-336,22,0,0,0,0,0,0,0,0,0,-1,888,1002,0,0
-329,22,0,0,0,0,0,0,0,0,0,-1,895,1002,0,0
-322,22,0,0,0,0,0,0,0,0,0,-1,902,1002,0,0
-315,22,0,0,0,0,0,0,0,0,0,-1,909,1002,0,0
-308,22,0,0,0,0,0,0,0,0,0,-1,916,1002,0,0
-301,22,0,0,0,0,0,0,0,0,0,-1,923,1002,0,0
-294,22,0,0,0,0,0,0,0,0,0,-1,930,1002,0,0
-287,22,0,0,0,0,0,0,0,0,0,-1,937,1002,0,0
-280,22,0,0,0,0,0,0,0,0,0,-1,944,1002,0,0
-273,22,0,0,0,0,0,0,0,0,0,-1,951,1002,0,0
-266,22,0,0,0,0,0,0,0,0,0,-1,958,1002,0,0
-259,22,0,0,0,0,0,0,0,0,0,-1,965,1002,0,0
-252,22,0,0,0,0,0,0,0,0,0,-1,972,1002,0,0
-245,22,0,0,0,0,0,0,0,0,0,-1,979,1002,0,0
-238,22,0,0,0,0,0,0,0,0,0,-1,986,1002,0,0
-231,22,0,0,0,0,0,0,0,0,0,-1,993,1002,0,0
-224,22,0,0,0,0,0,0,0,0,0,-1,1000,1002,0,0
-217,22,0,0,0,0,0,0,0,0,0,-1,1007,1002,0,0
-210,22,0,0,0,0,0,0,0,0,0,-1,1014,1002,0,0
-203,22,0,0,0,0,0,0,0,0,0,-1,1021,1002,0,0
-196,22,0,0,0,0,0,0,0,0,0,-1,1028,1002,0,0
-189,22,0,0,0,0,0,0,0,0,0,-1,1035,1002,0,0
-182,22,0,0,0,0,0,0,0,0,0,-1,1042,1002,0,0
-175,22,0,0,0,0,0,0,0,0,0,-1,1049,1002,0,0
-168,22,0,0,0,0,0,0,0,0,0,-1,1056,1002,0,0
-161,22,0,0,0,0,0,0,0,0,0,-1,1063,1002,0,0
-154,22,0,0,0,0,0,0,0,0,0,-1,1070,1002,0,0
-147,22,0,0,0,0,0,0,0,0,0,-1,1077,1002,0,0
-140,22,0,0,0,0,0,0,0,0,0,-1,1084,1002,0,0
-133,22,0,0,0,0,0,0,0,0,0,-1,1091,1002,0,0
-126,22,0,0,0,0,0,0,0,0,0,-1,1098,1002,0,0
-119,22,0,0,0,0,0,0,0,0,0,-1,1105,1002,0,0
-112,22,0,0,0,0,0,0,0,0,0,-1,1112,1002,0,0
-105,22,0,0,0,0,0,0,0,0,0,-1,1119,1002,0,0
-98,22,0,0,0,0,0,0,0,0,0,-1,1126,1002,0,0
-91,22,0,0,0,0,0,0,0,0,0,-1,1133,1002,0,0
-84,22,0,0,0,0,0,0,0,0,0,-1,1140,1002,0,0
-77,22,0,0,0,0,0,0,0,0,0,-1,1147,1002,0,0
-70,22,0,0,0,0,0,0,0,0,0,-1,1154,1002,0,0
-63,22,0,0,0,0,0,0,0,0,0,-1,1161,1002,0,0
-56,22,0,0,0,0,0,0,0,0,0,-1,1168,1002,0,0
-49,22,0,0,0,0,0,0,0,0,0,-1,1175,1002,0,0
-42,22,0,0,0,0,0,0,0,0,0,-1,1182,1002,0,0
-35,22,0,0,0,0,0,0,0,0,0,-1,1189,1002,0,0
-28,22,0,0,0,0,0,0,0,0,0,-1,1196,1002,0,0
-21,22,0,0,0,0,0,0,0,0,0,-1,1203,1002,0,0
-14,22,0,0,0,0,0,0,0,0,0,-1,1210,1002,0,0
-7,22,0,0,0,0,0,0,0,0,0,-1,1217,1002,0,0
0,22,0,0,0,0,0,0,0,0,0,-1,1224,1002,0,0
7,22,0,0,0,0,0,0,0,0,0,-1,1231,1002,0,0
14,22,0,0,0,0,0,0,0,0,0,-1,1238,1002,0,0
21,22,0,0,0,0,0,0,0,0,0,-1,1245,1002,0,0
28,22,0,0,0,0,0,0,0,0,0,-1,1252,1002,0,0
35,22,0,0,0,0,0,0,0,0,0,-1,1259,1002,0,0
42,22,0,0,0,0,0,0,0,0,0,-1,1266,1002,0,0
49,22,0,0,0,0,0,0,0,0,0,-1,1273,1002,0,0
56,22,0,0,0,0,0,0,0,0,0,-1,1280,1002,0,0
63,22,0,0,0,0,0,0,0,0,0,-1,1287,1002,0,0
70,22,0,0,0,0,0,0,0,0,0,-1,1294,1002,0,0
77,22,0,0,0,0,0,0,0,0,0,-1,1301,1002,0,0
84,22,0,0,0,0,0,0,0,0,0,-1,1308,1002,0,0
91,22,0,0,0,0,0,0,0,0,0,-1,1315,1002,0,0
98,22,0,0,0,0,0,0,0,0,0,-1,1322,1002,0,0
105,22,0,0,0,0,0,0,0,0,0,-1,1329,1002,0,0
112,22,0,0,0,0,0,0,0,0,0,-1,1336,1002,0,0
119,22,0,0,0,0,0,0,0,0,0,-1,1343,1002,0,0
126,22,0,0,0,0,0,0,0,0,0,-1,1350,1002,0,0
133,22,0,0,0,0,0,0,0,0,0,-1,1357,1002,0,0
140,22,0,0,0,0,0,0,0,0,0,-1,1364,1002,0,0
147,22,0,0,0,0,0,0,0,0,0,-1,1371,1002,0,0
154,22,0,0,0,0,0,0,0,0,0,-1,1378,1002,0,0
161,22,0,0,0,0,0,0,0,0,0,-1,1385,1002,0,0
168,22,0,0,0,0,0,0,0,0,0,-1,1392,1002,0,0
175,22,0,0,0,0,0,0,0,0,0,-1,1399,1002,0,0
182,22,0,0,0,0,0,0,0,0,0,-1,1406,1002,0,0
189,22,0,0,0,0,0,0,0,0,0,-1,1413,1002,0,0
196,22,0,0,0,0,0,0,0,0,0,-1,1420,1002,0,0
203,22,0,0,0,0,0,0,0,0,0,-1,1427,1002,0,0
210,22,0,0,0,0,0,0,0,0,0,-1,1434,1002,0,0
217,22,0,0,0,0,0,0,0,0,0,-1,1441,1002,0,0
224,22,0,0,0,0,0,0,0,0,0,-1,1448,1002,0,0
231,22,0,0,0,0,0,0,0,0,0,-1,1455,1002,0,0
238,22,0,0,0,0,0,0,0,0,0,-1,1462,1002,0,0
245,22,0,0,0,0,0,0,0,0,0,-1,1469,1002,0,0
252,22,0,0,0,0,0,0,0,0,0,-1,1476,1002,0,0
259,22,0,0,0,0,0,0,0,0,0,-1,1483,1002,0,0
266,22,0,0,0,0,0,0,0,0,0,-1,1490,1002,0,0
273,22,0,0,0,0,0,0,0,0,0,-1,1497,1002,0,0
280,22,0,0,0,0,0,0,0,0,0,-1,1504,1002,0,0
287,22,0,0,0,0,0,0,0,0,0,-1,1511,1002,0,0
294,22,0,0,0,0,0,0,0,0,0,-1,1518,1002,0,0
301,22,0,0,0,0,0,0,0,0,0,-1,1525,1002,0,0
308,22,0,0,0,0,0,0,0,0,0,-1,1532,1002,0,0
315,22,0,0,0,0,0,0,0,0,0,-1,1539,1002,0,0
322,22,0,0,0,0,0,0,0,0,0,-1,1546,1002,0,0
329,22,0,0,0,0,0,0,0,0,0,-1,1553,1002,0,0
336,22,0,0,0,0,0,0,0,0,0,-1,1560,1002,0,0
343,22,0,0,0,0,0,0,0,0,0,-1,1567,1002,0,0
350,22,0,0,0,0,0,0,0,0,0,-1,1574,1002,0,0
357,22,0,0,0,0,0,0,0,0,0,-1,1581,1002,0,0
364,22,0,0,0,0,0,0,0,0,0,-1,1588,1002,0,0
371,22,0,0,0,0,0,0,0,0,0,-1,1595,1002,0,0
378,22,0,0,0,0,0,0,0,0,0,-1,1602,1002,0,0
385,22,0,0,0,0,0,0,0,0,0,-1,1609,1002,0,0
392,22,0,0,0,0,0,0,0,0,0,-1,1616,1002,0,0
399,22,0,0,0,0,0,0,0,0,0,-1,1623,1002,0,0
406,22,0,0,0,0,0,0,0,0,0,-1,1630,1002,0,0
413,22,0,0,0,0,0,0,0,0,0,-1,1637,1002,0,0
420,22,0,0,0,0,0,0,0,0,0,-1,1644,1002,0,0
427,22,0,0,0,0,0,0,0,0,0,-1,1651,1002,0,0
434,22,0,0,0,0,0,0,0,0,0,-1,1658,1002,0,0
441,22,0,0,0,0,0,0,0,0,0,-1,1665,1002,0,0
448,22,0,0,0,0,0,0,0,0,0,-1,1672,1002,0,0
455,22,0,0,0,0,0,0,0,0,0,-1,1679,1002,0,0
462,22,0,0,0,0,0,0,0,0,0,-1,1686,1002,0,0
469,22,0,0,0,0,0,0,0,0,0,-1,1693,1002,0,0
476,22,0,0,0,0,0,0,0,0,0,-1,1700,1002,0,0
483,22,0,0,0,0,0,0,0,0,0,-1,1707,1002,0,0
490,22,0,0,0,0,0,0,0,0,0,-1,1714,1002,0,0
497,22,0,0,0,0,0,0,0,0,0,-1,1721,1002,0,0
504,22,0,0,0,0,0,0,0,0,0,-1,1728,1002,0,0
511,22,0,0,0,0,0,0,0,0,0,-1,1735,1002,0,0
518,22,0,0,0,0,0,0,0,0,0,-1,1742,1002,0,0
525,22,0,0,0,0,0,0,0,0,0,-1,1749,1002,0,0
532,22,0,0,0,0,0,0,0,0,0,-1,1756,1002,0,0
539,22,0,0,0,0,0,0,0,0,0,-1,1763,1002,0,0
546,22,0,0,0,0,0,0,0,0,0,-1,1770,1002,0,0
553,22,0,0,0,0,0,0,0,0,0,-1,1777,1002,0,0
560,22,0,0,0,0,0,0,0,0,0,-1,1784,1002,0,0
567,22,0,0,0,0,0,0,0,0,0,-1,1791,1002,0,0
574,22,0,0,0,0,0,0,0,0,0,-1,1798,1002,0,0
581,22,0,0,0,0,0,0,0,0,0,-1,1805,1002,0,0
588,22,0,0,0,0,0,0,0,0,0,-1,1812,1002,0,0
595,22,0,0,0,0,0,0,0,0,0,-1,1819,1002,0,0
602,22,0,0,0,0,0,0,0,0,0,-1,1826,1002,0,0
609,22,0,0,0,0,0,0,0,0,0,-1,1833,1002,0,0
616,22,0,0,0,0,0,0,0,0,0,-1,1840,1002,0,0
623,22,0,0,0,0,0,0,0,0,0,-1,1847,1002,0,0
630,22,0,0,0,0,0,0,0,0,0,-1,1854,1002,0,0
637,22,0,0,0,0,0,0,0,0,0,-1,1861,1002,0,0
644,22,11.5486,1.51721,-0.002245,0.00541663,0.000635757,0.00546903,-0.0022974,1.48857,0.00460689,0.0383229,1868,1002,11.5486,-1.51723
651,22,11.5884,1.58099,-0.00129893,0.00414928,0.000233689,0.00415929,-0.00130893,1.52801,0.00329695,0.0394481,1875,1002,11.5884,-1.58102
658,22,11.6899,1.67426,-0.000749133,0.00322829,0.000152157,0.0032341,-0.000754945,1.53262,0.00244685,0.0399375,1882,1002,11.6899,-1.67427
665,22,11.7316,1.61462,-0.00042482,0.00252759,0.000181872,0.00253875,-0.000435982,1.5095,0.00185498,0.0415828,1889,1002,11.7316,-1.61461
672,22,11.8448,1.76324,-0.000562849,0.00203658,0.000472857,0.00211993,-0.000646193,1.39633,0.00167087,0.0414447,1896,1002,11.8448,-1.76322
679,22,11.7762,1.71198,-0.0012015,0.00166673,0.000959945,0.00195836,-0.00149312,1.27586,0.00199874,0.0383619,1903,1002,11.7763,-1.71197
686,22,11.7906,1.65515,-0.00191058,0.00136825,0.00144764,0.00191592,-0.00245825,1.20912,0.00253189,0.0365988,1910,1002,11.7906,-1.65516
693,22,11.8231,1.79303,-0.00261321,0.00112814,0.00188591,0.00191379,-0.00339886,1.17607,0.00310695,0.0354196,1917,1002,11.8231,-1.79301
700,22,11.782,1.84766,-0.00322864,0.000843994,0.00220597,0.00180983,-0.00419448,1.15811,0.00355655,0.0308067,1924,1002,11.7819,-1.84767
707,22,11.703,1.69592,-0.00373005,0.000737681,0.00244404,0.00181493,-0.0048073,1.15565,0.00395132,0.0278587,1931,1002,11.703,-1.69591
714,22,11.7528,1.72559,-0.00421337,0.000655285,0.0026035,0.00178525,-0.00534333,1.16131,0.00428317,0.0224715,1938,1002,11.7528,-1.72558
721,22,11.7523,1.88727,-0.00450689,0.000621996,0.00265261,0.00174709,-0.00563198,1.16965,0.00445277,0.0232234,1945,1002,11.7523,-1.88724
728,22,11.5033,2.04303,-0.00455864,0.000617221,0.00261281,0.00170681,-0.00564823,1.17571,0.00444503,0.0187672,1952,1002,11.5033,-2.043
735,22,11.469,2.14526,-0.0044264,0.000562927,0.00254976,0.00163542,-0.00549889,1.17264,0.00431563,0.0150253,1959,1002,11.4689,-2.14524
742,22,11.4753,2.17975,-0.00421753,0.00045424,0.00238031,0.00145336,-0.00521665,1.17339,0.00405009,0.0148468,1966,1002,11.4753,-2.17974
749,22,11.4708,2.20203,-0.00375213,0.000753154,0.00231605,0.00173138,-0.00473035,1.17116,0.00386229,0.0112934,1973,1002,11.4708,-2.20202
756,22,11.4581,2.20929,-0.00282015,0.000646879,0.00239381,0.00186894,-0.00404221,1.09878,0.00348884,0.0153461,1980,1002,11.4581,-2.20931
763,22,11.4303,2.27277,-0.00124034,0.00140547,0.00206926,0.00253855,-0.00237343,1.06981,0.00283647,0.0172927,1987,1002,11.4303,-2.27277
770,22,11.4606,2.26941,0.000242166,0.00190338,0.00202479,0.00326131,-0.00111576,0.980041,0.00262635,0.011351,1994,1002,11.4606,-2.26943
777,22,11.4366,2.28125,0.00215282,0.0026428,0.00201845,0.00443107,0.000364552,0.84579,0.00284034,0.0182755,2001,1002,11.4367,-2.28127
784,22,11.3357,2.18103,0,0,0,0,0,0,0,-1,2008,1002,11.3357,-2.18106
791,22,11.6414,3.42267,0,0,0,0,0,0,0,-1,2015,1002,11.6414,-3.42266
798,22,11.4995,3.44287,0.0114838,0.00732793,0.00128286,0.0118479,0.00696383,0.276548,0.00687543,0.0445737,2022,1002,11.4996,-3.44285
805,22,11.3569,3.58258,0.0173661,0.0103235,-0.000177724,0.0173706,0.010319,-0.025214,0.0100879,0.0442024,2029,1002,11.3569,-3.58258
812,22,11.2146,3.74316,0.0256682,0.0146577,-0.00298117,0.0264236,0.0139024,-0.248153,0.0152626,0.044435,2036,1002,11.2146,-3.74314
-700,15,0,0,0,0,0,0,0,0,0,-1,524,1009,0,0
-693,15,-5.35602,4.22308,0,0,0,0,0,0,0,-1,531,1009,-5.35599,-4.22308
-686,15,-5.39075,3.93604,0,0,0,0,0,0,0,-1,538,1009,-5.39074,-3.93602
-679,15,-5.44769,3.35852,0,0,0,0,0,0,0,-1,545,1009,-5.44772,-3.3585
-672,15,-5.40845,2.49384,0,0,0,0,0,0,0,-1,552,1009,-5.40843,-2.49382
-665,15,-5.34784,2.20538,0,0,0,0,0,0,0,-1,559,1009,-5.34786,-2.20538
-658,15,-5.76416,1.10742,0,0,0,0,0,0,0,-1,566,1009,-5.76417,-1.10743
-651,15,-5.86859,0.889832,-0.00180852,0.00171258,-0.00532548,0.00556098,-0.00565691,-0.945038,0.00647673,0.0335044,573,1009,-5.86858,-0.889824
-644,15,-5.91077,0.942139,-0.00187729,0.00127956,-0.0043512,0.00432978,-0.00492751,-0.959395,0.00534841,0.0146814,580,1009,-5.91079,-0.942141
-637,15,-5.90509,0.954346,-0.00212086,0.00100384,-0.00338819,0.00317254,-0.00428957,-1.00143,0.00432431,0.0117515,587,1009,-5.90511,-0.954339
-630,15,-5.92657,0.92041,-0.00224655,0.000634404,-0.00263027,0.00219281,-0.00380496,-1.03592,0.00350426,0.0102125,594,1009,-5.92658,-0.920439
-623,15,-5.94849,0.910828,-0.00218345,0.000508588,-0.00224926,0.00178382,-0.00345868,-1.05503,0.00307782,0.00879015,601,1009,-5.94846,-0.910812
-616,15,-5.96045,0.89032,-0.00184361,0.000207561,-0.00192099,0.0013596,-0.00299565,-1.03059,0.00257296,0.0135034,608,1009,-5.96046,-0.89029
-609,15,-5.97522,0.895996,-0.00126623,0.000259425,-0.00191284,0.00155594,-0.00256274,-0.975131,0.00240149,0.0196107,615,1009,-5.97524,-0.896012
-602,15,-5.98389,0.884338,-0.000691678,0.000228737,-0.0019984,0.00181923,-0.00228217,-0.898569,0.00237297,0.0195299,622,1009,-5.98391,-0.884366
-595,15,-5.97205,0.791809,-0.000302832,0.000289818,-0.00197478,0.00199038,-0.0020034,-0.85987,0.00230582,0.0195438,629,1009,-5.97202,-0.791782
-588,15,-5.94604,0.650146,-0.000366774,0.000332489,-0.00194687,0.00196087,-0.00199516,-0.874244,0.00228405,0.0264974,636,1009,-5.94605,-0.650153
-581,15,-5.9718,0.548584,-0.000658987,0.000389212,-0.00188574,0.00182232,-0.0020921,-0.920941,0.00226178,0.0368703,643,1009,-5.97181,-0.548571
-574,15,-5.95105,0.583618,-0.00086995,0.000617844,-0.00169839,0.00172811,-0.00198021,-0.991814,0.00214265,0.0346892,650,1009,-5.95105,-0.583644
-567,15,-5.97552,0.596313,-0.00130745,0.000840881,-0.0013315,0.00147748,-0.00194406,-1.12481,0.00198154,0.0351029,657,1009,-5.9755,-0.59631
-560,15,-5.89508,0.703857,-0.00204977,0.00110221,-0.000749137,0.0012712,-0.00221876,-1.34893,0.00203954,0.0390324,664,1009,-5.89508,-0.703857
-553,15,-5.82837,0.61853,-0.00321633,0.00139374,7.7454e-05,0.00139505,-0.00321763,1.554,0.00273155,0.0388464,671,1009,-5.82838,-0.618527
-546,15,-5.78723,0.465149,-0.00498072,0.00171787,0.00114984,0.00190974,-0.0051726,1.40545,0.00423117,0.0402328,678,1009,-5.78726,-0.46517
-539,15,-6.07062,0.432556,-0.00745909,0.00207617,0.00235283,0.00262513,-0.00800804,1.34158,0.00639591,0.0421659,685,1009,-6.07063,-0.43258
-532,15,-6.20239,0.475586,-0.0110109,0.00256286,0.00355356,0.00343689,-0.0118849,1.32962,0.00928344,0.0405774,692,1009,-6.20242,-0.475612
-525,15,0,0,0,0,0,0,0,0,0,-1,699,1009,0,0
-518,15,0,0,0,0,0,0,0,0,0,-1,706,1009,0,0
-511,15,0,0,0,0,0,0,0,0,0,-1,713,1009,0,0
-504,15,0,0,0,0,0,0,0,0,0,-1,720,1009,0,0
-497,15,0,0,0,0,0,0,0,0,0,-1,727,1009,0,0
-490,15,0,0,0,0,0,0,0,0,0,-1,734,1009,0,0
-483,15,0,0,0,0,0,0,0,0,0,-1,741,1009,0,0
-476,15,0,0,0,0,0,0,0,0,0,-1,748,1009,0,0
-469,15,0,0,0,0,0,0,0,0,0,-1,755,1009,0,0
-462,15,0,0,0,0,0,0,0,0,0,-1,762,1009,0,0
-455,15,0,0,0,0,0,0,0,0,0,-1,769,1009,0,0
-448,15,0,0,0,0,0,0,0,0,0,-1,776,1009,0,0
-441,15,0,0,0,0,0,0,0,0,0,-1,783,1009,0,0
-434,15,0,0,0,0,0,0,0,0,0,-1,790,1009,0,0
-427,15,0,0,0,0,0,0,0,0,0,-1,797,1009,0,0
-420,15,0,0,0,0,0,0,0,0,0,-1,804,1009,0,0
-413,15,0,0,0,0,0,0,0,0,0,-1,811,1009,0,0
-406,15,0,0,0,0,0,0,0,0,0,-1,818,1009,0,0
-399,15,0,0,0,0,0,0,0,0,0,-1,825,1009,0,0
-392,15,0,0,0,0,0,0,0,0,0,-1,832,1009,0,0
-385,15,0,0,0,0,0,0,0,0,0,-1,839,1009,0,0
-378,15,0,0,0,0,0,0,0,0,0,-1,846,1009,0,0
-371,15,0,0,0,0,0,0,0,0,0,-1,853,1009,0,0
-364,15,0,0,0,0,0,0,0,0,0,-1,860,1009,0,0
-357,15,0,0,0,0,0,0,0,0,0,-1,867,1009,0,0
-350,15,0,0,0,0,0,0,0,0,0,-1,874,1009,0,0
-343,15,0,0,0,0,0,0,0,0,0,-1,881,1009,0,0
-336,15,0,0,0,0,0,0,0,0,0,-1,888,1009,0,0
-329,15,0,0,0,0,0,0,0,0,0,-1,895,1009,0,0
-322,15,0,0,0,0,0,0,0,0,0,-1,902,1009,0,0
-315,15,0,0,0,0,0,0,0,0,0,-1,909,1009,0,0
-308,15,0,0,0,0,0,0,0,0,0,-1,916,1009,0,0
-301,15,0,0,0,0,0,0,0,0,0,-1,923,1009,0,0
-294,15,0,0,0,0,0,0,0,0,0,-1,930,1009,0,0
-287,15,0,0,0,0,0,0,0,0,0,-1,937,1009,0,0
-280,15,0,0,0,0,0,0,0,0,0,-1,944,1009,0,0
-273,15,0,0,0,0,0,0,0,0,0,-1,951,1009,0,0
-266,15,0,0,0,0,0,0,0,0,0,-1,958,1009,0,0
-259,15,0,0,0,0,0,0,0,0,0,-1,965,1009,0,0
-252,15,0,0,0,0,0,0,0,0,0,-1,972,1009,0,0
-245,15,0,0,0,0,0,0,0,0,0,-1,979,1009,0,0
-238,15,0,0,0,0,0,0,0,0,0,-1,986,1009,0,0
-231,15,0,0,0,0,0,0,0,0,0,-1,993,1009,0,0
-224,15,0,0,0,0,0,0,0,0,0,-1,1000,1009,0,0
-217,15,0,0,0,0,0,0,0,0,0,-1,1007,1009,0,0
-210,15,0,0,0,0,0,0,0,0,0,-1,1014,1009,0,0
-203,15,0,0,0,0,0,0,0,0,0,-1,1021,1009,0,0
-196,15,0,0,0,0,0,0,0,0,0,-1,1028,1009,0,0
-189,15,0,0,0,0,0,0,0,0,0,-1,1035,1009,0,0
-182,15,0,0,0,0,0,0,0,0,0,-1,1042,1009,0,0
-175,15,0,0,0,0,0,0,0,0,0,-1,1049,1009,0,0
-168,15,0,0,0,0,0,0,0,0,0,-1,1056,1009,0,0
-161,15,0,0,0,0,0,0,0,0,0,-1,1063,1009,0,0
-154,15,0,0,0,0,0,0,0,0,0,-1,1070,1009,0,0
-147,15,0,0,0,0,0,0,0,0,0,-1,1077,1009,0,0
-140,15,0,0,0,0,0,0,0,0,0,-1,1084,1009,0,0
-133,15,0,0,0,0,0,0,0,0,0,-1,1091,1009,0,0
-126,15,0,0,0,0,0,0,0,0,0,-1,1098,1009,0,0
-119,15,0,0,0,0,0,0,0,0,0,-1,1105,1009,0,0
-112,15,0,0,0,0,0,0,0,0,0,-1,1112,1009,0,0
-105,15,0,0,0,0,0,0,0,0,0,-1,1119,1009,0,0
-98,15,0,0,0,0,0,0,0,0,0,-1,1126,1009,0,0
-91,15,0,0,0,0,0,0,0,0,0,-1,1133,1009,0,0
-84,15,0,0,0,0,0,0,0,0,0,-1,1140,1009,0,0
-77,15,0,0,0,0,0,0,0,0,0,-1,1147,1009,0,0
-70,15,0,0,0,0,0,0,0,0,0,-1,1154,1009,0,0
-63,15,0,0,0,0,0,0,0,0,0,-1,1161,1009,0,0
-56,15,0,0,0,0,0,0,0,0,0,-1,1168,1009,0,0
-49,15,0,0,0,0,0,0,0,0,0,-1,1175,1009,0,0
-42,15,0,0,0,0,0,0,0,0,0,-1,1182,1009,0,0
-35,15,0,0,0,0,0,0,0,0,0,-1,1189,1009,0,0
-28,15,0,0,0,0,0,0,0,0,0,-1,1196,1009,0,0
-21,15,0,0,0,0,0,0,0,0,0,-1,1203,1009,0,0
-14,15,0,0,0,0,0,0,0,0,0,-1,1210,1009,0,0
-7,15,0,0,0,0,0,0,0,0,0,-1,1217,1009,0,0
0,15,0,0,0,0,0,0,0,0,0,-1,1224,1009,0,0
7,15,0,0,0,0,0,0,0,0,0,-1,1231,1009,0,0
14,15,0,0,0,0,0,0,0,0,0,-1,1238,1009,0,0
21,15,0,0,0,0,0,0,0,0,0,-1,1245,1009,0,0
28,15,0,0,0,0,0,0,0,0,0,-1,1252,1009,0,0
35,15,0,0,0,0,0,0,0,0,0,-1,1259,1009,0,0
42,15,0,0,0,0,0,0,0,0,0,-1,1266,1009,0,0
49,15,0,0,0,0,0,0,0,0,0,-1,1273,1009,0,0
56,15,0,0,0,0,0,0,0,0,0,-1,1280,1009,0,0
63,15,0,0,0,0,0,0,0,0,0,-1,1287,1009,0,0
70,15,0,0,0,0,0,0,0,0,0,-1,1294,1009,0,0
77,15,0,0,0,0,0,0,0,0,0,-1,1301,1009,0,0
84,15,0,0,0,0,0,0,0,0,0,-1,1308,1009,0,0
91,15,0,0,0,0,0,0,0,0,0,-1,1315,1009,0,0
98,15,0,0,0,0,0,0,0,0,0,-1,1322,1009,0,0
105,15,0,0,0,0,0,0,0,0,0,-1,1329,1009,0,0
112,15,0,0,0,0,0,0,0,0,0,-1,1336,1009,0,0
119,15,0,0,0,0,0,0,0,0,0,-1,1343,1009,0,0
126,15,0,0,0,0,0,0,0,0,0,-1,1350,1009,0,0
133,15,0,0,0,0,0,0,0,0,0,-1,1357,1009,0,0
140,15,0,0,0,0,0,0,0,0,0,-1,1364,1009,0,0
147,15,0,0,0,0,0,0,0,0,0,-1,1371,1009,0,0
154,15,0,0,0,0,0,0,0,0,0,-1,1378,1009,0,0
161,15,0,0,0,0,0,0,0,0,0,-1,1385,1009,0,0
168,15,0,0,0,0,0,0,0,0,0,-1,1392,1009,0,0
175,15,0,0,0,0,0,0,0,0,0,-1,1399,1009,0,0
182,15,0,0,0,0,0,0,0,0,0,-1,1406,1009,0,0
189,15,0,0,0,0,0,0,0,0,0,-1,1413,1009,0,0
196,15,0,0,0,0,0,0,0,0,0,-1,1420,1009,0,0
203,15,0,0,0,0,0,0,0,0,0,-1,1427,1009,0,0
210,15,0,0,0,0,0,0,0,0,0,-1,1434,1009,0,0
217,15,0,0,0,0,0,0,0,0,0,-1,1441,1009,0,0
224,15,0,0,0,0,0,0,0,0,0,-1,1448,1009,0,0
231,15,0,0,0,0,0,0,0,0,0,-1,1455,1009,0,0
238,15,0,0,0,0,0,0,0,0,0,-1,1462,1009,0,0
245,15,0,0,0,0,0,0,0,0,0,-1,1469,1009,0,0
252,15,0,0,0,0,0,0,0,0,0,-1,1476,1009,0,0
259,15,0,0,0,0,0,0,0,0,0,-1,1483,1009,0,0
266,15,0,0,0,0,0,0,0,0,0,-1,1490,1009,0,0
273,15,0,0,0,0,0,0,0,0,0,-1,1497,1009,0,0
280,15,0,0,0,0,0,0,0,0,0,-1,1504,1009,0,0
287,15,0,0,0,0,0,0,0,0,0,-1,1511,1009,0,0
294,15,0,0,0,0,0,0,0,0,0,-1,1518,1009,0,0
301,15,0,0,0,0,0,0,0,0,0,-1,1525,1009,0,0
308,15,0,0,0,0,0,0,0,0,0,-1,1532,1009,0,0
315,15,0,0,0,0,0,0,0,0,0,-1,1539,1009,0,0
322,15,0,0,0,0,0,0,0,0,0,-1,1546,1009,0,0
329,15,0,0,0,0,0,0,0,0,0,-1,1553,1009,0,0
336,15,0,0,0,0,0,0,0,0,0,-1,1560,1009,0,0
343,15,0,0,0,0,0,0,0,0,0,-1,1567,1009,0,0
350,15,0,0,0,0,0,0,0,0,0,-1,1574,1009,0,0
357,15,0,0,0,0,0,0,0,0,0,-1,1581,1009,0,0
364,15,0,0,0,0,0,0,0,0,0,-1,1588,1009,0,0
371,15,0,0,0,0,0,0,0,0,0,-1,1595,1009,0,0
378,15,0,0,0,0,0,0,0,0,0,-1,1602,1009,0,0
385,15,0,0,0,0,0,0,0,0,0,-1,1609,1009,0,0
392,15,0,0,0,0,0,0,0,0,0,-1,1616,1009,0,0
399,15,0,0,0,0,0,0,0,0,0,-1,1623,1009,0,0
406,15,0,0,0,0,0,0,0,0,0,-1,1630,1009,0,0
413,15,0,0,0,0,0,0,0,0,0,-1,1637,1009,0,0
420,15,0,0,0,0,0,0,0,0,0,-1,1644,1009,0,0
427,15,0,0,0,0,0,0,0,0,0,-1,1651,1009,0,0
434,15,0,0,0,0,0,0,0,0,0,-1,1658,1009,0,0
441,15,0,0,0,0,0,0,0,0,0,-1,1665,1009,0,0
448,15,0,0,0,0,0,0,0,0,0,-1,1672,1009,0,0
455,15,0,0,0,0,0,0,0,0,0,-1,1679,1009,0,0
462,15,0,0,0,0,0,0,0,0,0,-1,1686,1009,0,0
469,15,0,0,0,0,0,0,0,0,0,-1,1693,1009,0,0
476,15,0,0,0,0,0,0,0,0,0,-1,1700,1009,0,0
483,15,0,0,0,0,0,0,0,0,0,-1,1707,1009,0,0
490,15,0,0,0,0,0,0,0,0,0,-1,1714,1009,0,0
497,15,0,0,0,0,0,0,0,0,0,-1,1721,1009,0,0
504,15,0,0,0,0,0,0,0,0,0,-1,1728,1009,0,0
511,15,0,0,0,0,0,0,0,0,0,-1,1735,1009,0,0
518,15,0,0,0,0,0,0,0,0,0,-1,1742,1009,0,0
525,15,0,0,0,0,0,0,0,0,0,-1,1749,1009,0,0
532,15,0,0,0,0,0,0,0,0,0,-1,1756,1009,0,0
539,15,0,0,0,0,0,0,0,0,0,-1,1763,1009,0,0
546,15,0,0,0,0,0,0,0,0,0,-1,1770,1009,0,0
553,15,0,0,0,0,0,0,0,0,0,-1,1777,1009,0,0
560,15,0,0,0,0,0,0,0,0,0,-1,1784,1009,0,0
567,15,0,0,0,0,0,0,0,0,0,-1,1791,1009,0,0
574,15,0,0,0,0,0,0,0,0,0,-1,1798,1009,0,0
581,15,0,0,0,0,0,0,0,0,0,-1,1805,1009,0,0
588,15,0,0,0,0,0,0,0,0,0,-1,1812,1009,0,0
595,15,0,0,0,0,0,0,0,0,0,-1,1819,1009,0,0
602,15,0,0,0,0,0,0,0,0,0,-1,1826,1009,0,0
609,15,0,0,0,0,0,0,0,0,0,-1,1833,1009,0,0
616,15,0,0,0,0,0,0,0,0,0,-1,1840,1009,0,0
623,15,0,0,0,0,0,0,0,0,0,-1,1847,1009,0,0
630,15,0,0,0,0,0,0,0,0,0,-1,1854,1009,0,0
637,15,0,0,0,0,0,0,0,0,0,-1,1861,1009,0,0
644,15,11.6185,1.45819,-0.00345184,0.00619746,0.000661753,0.00624263,-0.00349701,1.50264,0.00569718,0.0382974,1868,1009,11.6185,-1.45818
651,15,11.5952,1.4751,-0.00226152,0.00451424,0.000324654,0.00452976,-0.00227704,1.52303,0.00400101,0.036237,1875,1009,11.5952,-1.47512
658,15,11.6935,1.45917,-0.00152157,0.00334448,0.000293192,0.00336208,-0.00153918,1.51083,0.00289424,0.0362223,1882,1009,11.6935,-1.45917
665,15,11.7366,1.46582,-0.000999962,0.00247583,0.000337606,0.00250832,-0.00103245,1.47486,0.00210263,0.0396903,1889,1009,11.7365,-1.46584
672,15,11.808,1.63068,-0.000887983,0.00186185,0.000642492,0.00200456,-0.00103069,1.35222,0.00178222,0.0397141,1896,1009,11.808,-1.63068
679,15,11.7848,1.65674,-0.00131994,0.00141444,0.001156,0.00183766,-0.00174315,1.21985,0.00206762,0.0389159,1903,1009,11.7848,-1.65673
686,15,11.7892,1.53375,-0.0018741,0.00107567,0.00166876,0.0018279,-0.00262633,1.1473,0.00258539,0.0424746,1910,1009,11.7892,-1.53373
693,15,11.78,1.5567,-0.00244999,0.000821018,0.00212574,0.00186761,-0.00349658,1.11329,0.00314426,0.0393049,1917,1009,11.78,-1.5567
700,15,11.7849,1.67743,-0.00299051,0.000528976,0.00246647,0.00179911,-0.00426064,1.09525,0.00359353,0.0303799,1924,1009,11.785,-1.67743
707,15,11.7292,1.7146,-0.0033951,0.000436529,0.00271254,0.00184159,-0.00480017,1.09286,0.0039594,0.0267199,1931,1009,11.7292,-1.7146
714,15,11.7662,1.7002,-0.00383152,0.000372597,0.00286865,0.00182691,-0.00528584,1.10159,0.00426533,0.0262638,1938,1009,11.7662,-1.7002
721,15,11.7981,1.81775,-0.0041526,0.000375863,0.00290736,0.00179667,-0.0055734,1.11624,0.00443744,0.0254005,1945,1009,11.7981,-1.81776
728,15,11.5044,2.08728,-0.00426234,0.000428313,0.00286276,0.00178379,-0.00561782,1.12858,0.00446034,0.0227638,1952,1009,11.5044,-2.08727
735,15,11.4967,2.15137,-0.00420568,0.000417108,0.00279511,0.00173272,-0.00552129,1.13088,0.00437436,0.0162508,1959,1009,11.4967,-2.15139
742,15,11.5033,2.18005,-0.00409309,0.000385921,0.00260272,0.00158001,-0.00528717,1.14066,0.00415288,0.0154979,1966,1009,11.5033,-2.18007
749,15,11.4954,2.19391,-0.00369183,0.000773445,0.00250641,0.00189741,-0.00481579,1.14924,0.00399608,0.00941969,1973,1009,11.4953,-2.19388
756,15,11.493,2.2124,-0.00274374,0.000755104,0.00256396,0.00210961,-0.00409825,1.08478,0.00364489,0.0115451,1980,1009,11.493,-2.21238
763,15,11.4744,2.24512,-0.00107548,0.00170329,0.00215089,0.00287451,-0.00224671,1.07216,0.00296414,0.0116334,1987,1009,11.4744,-2.24511
770,15,11.47,2.25403,0.000506207,0.00241744,0.00202465,0.00370067,-0.00077702,1.00589,0.00276279,0.0104859,1994,1009,11.47,-2.25401
777,15,11.4608,2.24548,0.00267948,0.00343993,0.00189909,0.00499649,0.00112293,0.884198,0.00302693,0.0187257,2001,1009,11.4608,-2.24549
784,15,11.3666,2.23254,0.00535809,0.00490442,0.00178165,0.00692729,0.00333522,0.722079,0.00400039,0.0397,2008,1009,11.3666,-2.23256
791,15,11.262,2.21985,0,0,0,0,0,0,0,-1,2015,1009,11.262,-2.21988
798,15,10.9918,3.66364,0.0141736,0.00977628,0.000434533,0.0142161,0.00973375,0.0975613,0.00839225,0.0471533,2022,1009,10.9918,-3.66361
805,15,11.0765,3.78387,0.0215278,0.0137752,-0.00153377,0.0218203,0.0134828,-0.188387,0.0127141,0.0440463,2029,1009,11.0765,-3.78386
812,15,11.4215,3.7373,0.0319391,0.019484,-0.00508649,0.0337523,0.0176707,-0.342443,0.0194941,0.0432505,2036,1009,11.4215,-3.7373
-700,8,0,0,0,0,0,0,0,0,0,-1,524,1016,0,0
-693,8,-5.67175,2.76099,0,0,0,0,0,0,0,-1,531,1016,-5.67177,-2.76101
-686,8,-5.7406,2.56317,0.00182748,-0.00375687,-0.0121762,0.0115275,-0.0134569,-0.67269,0.0144391,0.0471066,538,1016,-5.74058,-2.56318
-679,8,-5.80389,2.4613,0,0,0,0,0,0,0,-1,545,1016,-5.80392,-2.4613
-672,8,-5.74304,2.30444,-1.91274e-05,-0.00160603,-0.0105043,0.00972163,-0.0113468,-0.747702,0.0121759,0.0437958,552,1016,-5.74304,-2.30444
-665,8,-5.57593,1.91522,-0.000837665,-0.000848424,-0.00915191,0.00830887,-0.00999496,-0.785104,0.0105827,0.0421661,559,1016,-5.57593,-1.91522
-658,8,-5.78064,1.07935,-0.00147272,-0.000278605,-0.00767772,0.00682523,-0.00857656,-0.824203,0.00891137,0.0319225,566,1016,-5.78065,-1.07937
-651,8,-5.88135,0.908447,-0.00187317,0.000119752,-0.00621895,0.00542157,-0.00717499,-0.864838,0.00729607,0.0177494,573,1016,-5.88135,-0.908469
-644,8,-5.90363,0.93103,-0.00176453,0.000351637,-0.0051015,0.00450362,-0.00591651,-0.887652,0.00603447,0.0120715,580,1016,-5.9036,-0.931054
-637,8,-5.91327,0.942627,-0.00199124,0.000669204,-0.00393112,0.00348906,-0.0048111,-0.948542,0.00481232,0.0104943,587,1016,-5.9133,-0.942611
-630,8,-5.93024,0.909058,-0.00211203,0.000660439,-0.00299094,0.00257078,-0.00402236,-1.0024,0.00383718,0.0103653,594,1016,-5.93023,-0.909028
-623,8,-5.94244,0.8927,-0.00202637,0.000717357,-0.00245566,0.00215837,-0.00346739,-1.04013,0.00327721,0.0122607,601,1016,-5.94243,-0.89272
-616,8,-5.93939,0.889221,-0.00165035,0.000352475,-0.00209587,0.00167389,-0.00297177,-1.00826,0.00271684,0.0116366,608,1016,-5.9394,-0.889211
-609,8,-5.93274,0.891846,-0.00104406,0.000314641,-0.00210102,0.00184341,-0.00257283,-0.941765,0.00256128,0.0150317,615,1016,-5.93276,-0.891853
-602,8,-5.95898,0.872375,-0.000478133,0.000221658,-0.00216656,0.0020664,-0.00232287,-0.865456,0.00253559,0.0217317,622,1016,-5.95901,-0.872363
-595,8,-5.9339,0.797668,-0.00011796,0.000193938,-0.00213463,0.00217831,-0.00210233,-0.821862,0.00247156,0.0186184,629,1016,-5.93392,-0.797638
-588,8,-5.92456,0.681946,-0.000191697,0.000186973,-0.00206959,0.00207587,-0.00208059,-0.831014,0.00239973,0.0208364,636,1016,-5.92456,-0.681959
-581,8,-5.9281,0.65802,-0.000525479,0.000200352,-0.00195643,0.00182725,-0.00215237,-0.877105,0.00230019,0.0293351,643,1016,-5.92809,-0.65804
-574,8,-5.98541,0.626221,-0.000790863,0.000401859,-0.00169676,0.00160401,-0.00199301,-0.95439,0.00208079,0.0380106,650,1016,-5.98541,-0.626219
-567,8,-6.0921,0.383789,-0.00133328,0.000576338,-0.00122859,0.00117752,-0.00193446,-1.11573,0.00181433,0.0412607,657,1016,-6.0921,-0.383797
-560,8,-5.85205,0.514099,-0.00223094,0.000781512,-0.00051808,0.000868121,-0.00231755,-1.40515,0.00190164,0.0401912,664,1016,-5.85206,-0.514086
-553,8,-5.72766,0.575684,-0.00361259,0.0010096,0.000458891,0.00105471,-0.00365771,1.47279,0.00285572,0.0397854,671,1016,-5.72768,-0.575665
-546,8,-5.80603,0.504333,-0.0056561,0.00126606,0.00169652,0.00165949,-0.00604953,1.34292,0.00468519,0.0391329,678,1016,-5.80602,-0.504357
-539,8,-6.04791,0.549561,-0.00847475,0.00154875,0.00305903,0.00240856,-0.00933457,1.29679,0.00716219,0.0400383,685,1016,-6.04794,-0.549575
-532,8,-6.26733,0.587891,-0.0124126,0.00194444,0.00437427,0.00317218,-0.0136404,1.29716,0.0103149,0.0412658,692,1016,-6.26731,-0.587882
-525,8,0,0,0,0,0,0,0,0,0,-1,699,1016,0,0
-518,8,0,0,0,0,0,0,0,0,0,-1,706,1016,0,0
-511,8,0,0,0,0,0,0,0,0,0,-1,713,1016,0,0
-504,8,0,0,0,0,0,0,0,0,0,-1,720,1016,0,0
-497,8,0,0,0,0,0,0,0,0,0,-1,727,1016,0,0
-490,8,0,0,0,0,0,0,0,0,0,-1,734,1016,0,0
-483,8,0,0,0,0,0,0,0,0,0,-1,741,1016,0,0
-476,8,0,0,0,0,0,0,0,0,0,-1,748,1016,0,0
-469,8,0,0,0,0,0,0,0,0,0,-1,755,1016,0,0
-462,8,0,0,0,0,0,0,0,0,0,-1,762,1016,0,0
-455,8,0,0,0,0,0,0,0,0,0,-1,769,1016,0,0
-448,8,0,0,0,0,0,0,0,0,0,-1,776,1016,0,0
-441,8,0,0,0,0,0,0,0,0,0,-1,783,1016,0,0
-434,8,0,0,0,0,0,0,0,0,0,-1,790,1016,0,0
-427,8,0,0,0,0,0,0,0,0,0,-1,797,1016,0,0
-420,8,0,0,0,0,0,0,0,0,0,-1,804,1016,0,0
-413,8,0,0,0,0,0,0,0,0,0,-1,811,1016,0,0
-406,8,0,0,0,0,0,0,0,0,0,-1,818,1016,0,0
-399,8,0,0,0,0,0,0,0,0,0,-1,825,1016,0,0
-392,8,0,0,0,0,0,0,0,0,0,-1,832,1016,0,0
-385,8,0,0,0,0,0,0,0,0,0,-1,839,1016,0,0
-378,8,0,0,0,0,0,0,0,0,0,-1,846,1016,0,0
-371,8,0,0,0,0,0,0,0,0,0,-1,853,1016,0,0
-364,8,0,0,0,0,0,0,0,0,0,-1,860,1016,0,0
-357,8,0,0,0,0,0,0,0,0,0,-1,867,1016,0,0
-350,8,0,0,0,0,0,0,0,0,0,-1,874,1016,0,0
-343,8,0,0,0,0,0,0,0,0,0,-1,881,1016,0,0
-336,8,0,0,0,0,0,0,0,0,0,-1,888,1016,0,0
-329,8,0,0,0,0,0,0,0,0,0,-1,895,1016,0,0
-322,8,0,0,0,0,0,0,0,0,0,-1,902,1016,0,0
-315,8,0,0,0,0,0,0,0,0,0,-1,909,1016,0,0
-308,8,0,0,0,0,0,0,0,0,0,-1,916,1016,0,0
-301,8,0,0,0,0,0,0,0,0,0,-1,923,1016,0,0
-294,8,0,0,0,0,0,0,0,0,0,-1,930,1016,0,0
-287,8,0,0,0,0,0,0,0,0,0,-1,937,1016,0,0
-280,8,0,0,0,0,0,0,0,0,0,-1,944,1016,0,0
-273,8,0,0,0,0,0,0,0,0,0,-1,951,1016,0,0
-266,8,0,0,0,0,0,0,0,0,0,-1,958,1016,0,0
-259,8,0,0,0,0,0,0,0,0,0,-1,965,1016,0,0
-252,8,0,0,0,0,0,0,0,0,0,-1,972,1016,0,0
-245,8,0,0,0,0,0,0,0,0,0,-1,979,1016,0,0
-238,8,0,0,0,0,0,0,0,0,0,-1,986,1016,0,0
-231,8,0,0,0,0,0,0,0,0,0,-1,993,1016,0,0
-224,8,0,0,0,0,0,0,0,0,0,-1,1000,1016,0,0
-217,8,0,0,0,0,0,0,0,0,0,-1,1007,1016,0,0
-210,8,0,0,0,0,0,0,0,0,0,-1,1014,1016,0,0
-203,8,0,0,0,0,0,0,0,0,0,-1,1021,1016,0,0
-196,8,0,0,0,0,0,0,0,0,0,-1,1028,1016,0,0
-189,8,0,0,0,0,0,0,0,0,0,-1,1035,1016,0,0
-182,8,0,0,0,0,0,0,0,0,0,-1,1042,1016,0,0
-175,8,0,0,0,0,0,0,0,0,0,-1,1049,1016,0,0
-168,8,0,0,0,0,0,0,0,0,0,-1,1056,1016,0,0
-161,8,0,0,0,0,0,0,0,0,0,-1,1063,1016,0,0
-154,8,0,0,0,0,0,0,0,0,0,-1,1070,1016,0,0
-147,8,0,0,0,0,0,0,0,0,0,-1,1077,1016,0,0
-140,8,0,0,0,0,0,0,0,0,0,-1,1084,1016,0,0
-133,8,0,0,0,0,0,0,0,0,0,-1,1091,1016,0,0
-126,8,0,0,0,0,0,0,0,0,0,-1,1098,1016,0,0
-119,8,0,0,0,0,0,0,0,0,0,-1,1105,1016,0,0
-112,8,0,0,0,0,0,0,0,0,0,-1,1112,1016,0,0
-105,8,0,0,0,0,0,0,0,0,0,-1,1119,1016,0,0
-98,8,0,0,0,0,0,0,0,0,0,-1,1126,1016,0,0
-91,8,0,0,0,0,0,0,0,0,0,-1,1133,1016,0,0
-84,8,0,0,0,0,0,0,0,0,0,-1,1140,1016,0,0
-77,8,0,0,0,0,0,0,0,0,0,-1,1147,1016,0,0
-70,8,0,0,0,0,0,0,0,0,0,-1,1154,1016,0,0
-63,8,0,0,0,0,0,0,0,0,0,-1,1161,1016,0,0
-56,8,0,0,0,0,0,0,0,0,0,-1,1168,1016,0,0
-49,8,0,0,0,0,0,0,0,0,0,-1,1175,1016,0,0
-42,8,0,0,0,0,0,0,0,0,0,-1,1182,1016,0,0
-35,8,0,0,0,0,0,0,0,0,0,-1,1189,1016,0,0
-28,8,0,0,0,0,0,0,0,0,0,-1,1196,1016,0,0
-21,8,0,0,0,0,0,0,0,0,0,-1,1203,1016,0,0
-14,8,0,0,0,0,0,0,0,0,0,-1,1210,1016,0,0
-7,8,0,0,0,0,0,0,0,0,0,-1,1217,1016,0,0
0,8,0,0,0,0,0,0,0,0,0,-1,1224,1016,0,0
7,8,0,0,0,0,0,0,0,0,0,-1,1231,1016,0,0
14,8,0,0,0,0,0,0,0,0,0,-1,1238,1016,0,0
21,8,0,0,0,0,0,0,0,0,0,-1,1245,1016,0,0
28,8,0,0,0,0,0,0,0,0,0,-1,1252,1016,0,0
35,8,0,0,0,0,0,0,0,0,0,-1,1259,1016,0,0
42,8,0,0,0,0,0,0,0,0,0,-1,1266,1016,0,0
49,8,0,0,0,0,0,0,0,0,0,-1,1273,1016,0,0
56,8,0,0,0,0,0,0,0,0,0,-1,1280,1016,0,0
63,8,0,0,0,0,0,0,0,0,0,-1,1287,1016,0,0
70,8,0,0,0,0,0,0,0,0,0,-1,1294,1016,0,0
77,8,0,0,0,0,0,0,0,0,0,-1,1301,1016,0,0
84,8,0,0,0,0,0,0,0,0,0,-1,1308,1016,0,0
91,8,0,0,0,0,0,0,0,0,0,-1,1315,1016,0,0
98,8,0,0,0,0,0,0,0,0,0,-1,1322,1016,0,0
105,8,0,0,0,0,0,0,0,0,0,-1,1329,1016,0,0
112,8,0,0,0,0,0,0,0,0,0,-1,1336,1016,0,0
119,8,0,0,0,0,0,0,0,0,0,-1,1343,1016,0,0
126,8,0,0,0,0,0,0,0,0,0,-1,1350,1016,0,0
133,8,0,0,0,0,0,0,0,0,0,-1,1357,1016,0,0
140,8,0,0,0,0,0,0,0,0,0,-1,1364,1016,0,0
147,8,0,0,0,0,0,0,0,0,0,-1,1371,1016,0,0
154,8,0,0,0,0,0,0,0,0,0,-1,1378,1016,0,0
161,8,0,0,0,0,0,0,0,0,0,-1,1385,1016,0,0
168,8,0,0,0,0,0,0,0,0,0,-1,1392,1016,0,0
175,8,0,0,0,0,0,0,0,0,0,-1,1399,1016,0,0
182,8,0,0,0,0,0,0,0,0,0,-1,1406,1016,0,0
189,8,0,0,0,0,0,0,0,0,0,-1,1413,1016,0,0
196,8,0,0,0,0,0,0,0,0,0,-1,1420,1016,0,0
203,8,0,0,0,0,0,0,0,0,0,-1,1427,1016,0,0
210,8,0,0,0,0,0,0,0,0,0,-1,1434,1016,0,0
217,8,0,0,0,0,0,0,0,0,0,-1,1441,1016,0,0
224,8,0,0,0,0,0,0,0,0,0,-1,1448,1016,0,0
231,8,0,0,0,0,0,0,0,0,0,-1,1455,1016,0,0
238,8,0,0,0,0,0,0,0,0,0,-1,1462,1016,0,0
245,8,0,0,0,0,0,0,0,0,0,-1,1469,1016,0,0
252,8,0,0,0,0,0,0,0,0,0,-1,1476,1016,0,0
259,8,0,0,0,0,0,0,0,0,0,-1,1483,1016,0,0
266,8,0,0,0,0,0,0,0,0,0,-1,1490,1016,0,0
273,8,0,0,0,0,0,0,0,0,0,-1,1497,1016,0,0
280,8,0,0,0,0,0,0,0,0,0,-1,1504,1016,0,0
287,8,0,0,0,0,0,0,0,0,0,-1,1511,1016,0,0
294,8,0,0,0,0,0,0,0,0,0,-1,1518,1016,0,0
301,8,0,0,0,0,0,0,0,0,0,-1,1525,1016,0,0
308,8,0,0,0,0,0,0,0,0,0,-1,1532,1016,0,0
315,8,0,0,0,0,0,0,0,0,0,-1,1539,1016,0,0
322,8,0,0,0,0,0,0,0,0,0,-1,1546,1016,0,0
329,8,0,0,0,0,0,0,0,0,0,-1,1553,1016,0,0
336,8,0,0,0,0,0,0,0,0,0,-1,1560,1016,0,0
343,8,0,0,0,0,0,0,0,0,0,-1,1567,1016,0,0
350,8,0,0,0,0,0,0,0,0,0,-1,1574,1016,0,0
357,8,0,0,0,0,0,0,0,0,0,-1,1581,1016,0,0
364,8,0,0,0,0,0,0,0,0,0,-1,1588,1016,0,0
371,8,0,0,0,0,0,0,0,0,0,-1,1595,1016,0,0
378,8,0,0,0,0,0,0,0,0,0,-1,1602,1016,0,0
385,8,0,0,0,0,0,0,0,0,0,-1,1609,1016,0,0
392,8,0,0,0,0,0,0,0,0,0,-1,1616,1016,0,0
399,8,0,0,0,0,0,0,0,0,0,-1,1623,1016,0,0
406,8,0,0,0,0,0,0,0,0,0,-1,1630,1016,0,0
413,8,0,0,0,0,0,0,0,0,0,-1,1637,1016,0,0
420,8,0,0,0,0,0,0,0,0,0,-1,1644,1016,0,0
427,8,0,0,0,0,0,0,0,0,0,-1,1651,1016,0,0
434,8,0,0,0,0,0,0,0,0,0,-1,1658,1016,0,0
441,8,0,0,0,0,0,0,0,0,0,-1,1665,1016,0,0
448,8,0,0,0,0,0,0,0,0,0,-1,1672,1016,0,0
455,8,0,0,0,0,0,0,0,0,0,-1,1679,1016,0,0
462,8,0,0,0,0,0,0,0,0,0,-1,1686,1016,0,0
469,8,0,0,0,0,0,0,0,0,0,-1,1693,1016,0,0
476,8,0,0,0,0,0,0,0,0,0,-1,1700,1016,0,0
483,8,0,0,0,0,0,0,0,0,0,-1,1707,1016,0,0
490,8,0,0,0,0,0,0,0,0,0,-1,1714,1016,0,0
497,8,0,0,0,0,0,0,0,0,0,-1,1721,1016,0,0
504,8,0,0,0,0,0,0,0,0,0,-1,1728,1016,0,0
511,8,0,0,0,0,0,0,0,0,0,-1,1735,1016,0,0
518,8,0,0,0,0,0,0,0,0,0,-1,1742,1016,0,0
525,8,0,0,0,0,0,0,0,0,0,-1,1749,1016,0,0
532,8,0,0,0,0,0,0,0,0,0,-1,1756,1016,0,0
539,8,0,0,0,0,0,0,0,0,0,-1,1763,1016,0,0
546,8,0,0,0,0,0,0,0,0,0,-1,1770,1016,0,0
553,8,0,0,0,0,0,0,0,0,0,-1,1777,1016,0,0
560,8,0,0,0,0,0,0,0,0,0,-1,1784,1016,0,0
567,8,0,0,0,0,0,0,0,0,0,-1,1791,1016,0,0
574,8,0,0,0,0,0,0,0,0,0,-1,1798,1016,0,0
581,8,0,0,0,0,0,0,0,0,0,-1,1805,1016,0,0
588,8,0,0,0,0,0,0,0,0,0,-1,1812,1016,0,0
595,8,0,0,0,0,0,0,0,0,0,-1,1819,1016,0,0
602,8,0,0,0,0,0,0,0,0,0,-1,1826,1016,0,0
609,8,0,0,0,0,0,0,0,0,0,-1,1833,1016,0,0
616,8,0,0,0,0,0,0,0,0,0,-1,1840,1016,0,0
623,8,0,0,0,0,0,0,0,0,0,-1,1847,1016,0,0
630,8,0,0,0,0,0,0,0,0,0,-1,1854,1016,0,0
637,8,0,0,0,0,0,0,0,0,0,-1,1861,1016,0,0
644,8,11.8105,1.26367,-0.00527991,0.00665186,0.000919036,0.00672223,-0.00535028,1.49437,0.00698506,0.0420701,1868,1016,11.8105,-1.26367
651,8,11.7855,1.49487,-0.00365301,0.00461675,0.000590799,0.00465874,-0.00369501,1.49984,0.00483373,0.0350953,1875,1016,11.7856,-1.49487
658,8,11.7112,1.55457,-0.0025633,0.00327731,0.000548616,0.0033284,-0.00261438,1.47795,0.00343931,0.0359573,1882,1016,11.7111,-1.55457
665,8,11.676,1.62848,-0.00175611,0.00232115,0.000561224,0.00239699,-0.00183195,1.43648,0.00244883,0.0396179,1889,1016,11.6761,-1.6285
672,8,11.6724,1.68591,-0.00133571,0.00165264,0.000835839,0.00187053,-0.00155361,1.31578,0.00197975,0.0395472,1896,1016,11.6723,-1.68593
679,8,11.7769,1.62067,-0.00151582,0.0011792,0.00134268,0.00173394,-0.00207056,1.179,0.00219939,0.0387269,1903,1016,11.7768,-1.62066
686,8,11.7592,1.32819,-0.00189047,0.000836855,0.00185743,0.00177746,-0.00283108,1.10204,0.00268382,0.0419889,1910,1016,11.7592,-1.32819
693,8,11.7065,1.60083,-0.00232753,0.000589847,0.00231984,0.00187149,-0.00360918,1.06606,0.00321685,0.0385937,1917,1016,11.7065,-1.60084
700,8,11.7687,1.70569,-0.00277509,0.000305344,0.00267332,0.0018504,-0.00432014,1.04675,0.00365645,0.0296888,1924,1016,11.7686,-1.70572
707,8,11.757,1.73938,-0.00308253,0.000225485,0.00292505,0.00193178,-0.00478883,1.04272,0.00399531,0.0234892,1931,1016,11.7569,-1.73939
714,8,11.778,1.71405,-0.00347065,0.000176558,0.00307903,0.0019315,-0.00522559,1.05275,0.00427555,0.0242429,1938,1016,11.778,-1.71405
721,8,11.8191,1.79053,-0.00380893,0.000209928,0.00310616,0.00189996,-0.00549896,1.0725,0.00443703,0.0247819,1945,1016,11.8191,-1.79052
728,8,11.5593,2.07819,-0.00395415,0.000291165,0.00304979,0.00188427,-0.00554725,1.08942,0.00446094,0.0189021,1952,1016,11.5593,-2.07816
735,8,11.4961,2.14539,-0.00392876,0.000314431,0.00295618,0.00183154,-0.00544587,1.09665,0.00437093,0.0165566,1959,1016,11.4962,-2.14536
742,8,11.5068,2.15277,-0.00387586,0.00033874,0.00273416,0.00168345,-0.00522056,1.11372,0.00415675,0.0145884,1966,1016,11.5068,-2.15277
749,8,11.5021,2.17944,-0.0035168,0.000780794,0.00257876,0.00198868,-0.00472469,1.13275,0.00398182,0.00987772,1973,1016,11.5021,-2.17946
756,8,11.5183,2.19757,-0.00254978,0.000831919,0.00257021,0.00221759,-0.00393545,1.07634,0.00359831,0.0123428,1980,1016,11.5183,-2.19755
763,8,11.4954,2.21729,-0.000816323,0.00190103,0.00204564,0.00299809,-0.00191338,1.07854,0.0028586,0.0123958,1987,1016,11.4954,-2.21731
770,8,11.4766,2.25195,0.000830084,0.00276902,0.00180258,0.0038463,-0.000247196,1.03212,0.00265044,0.0125381,1994,1016,11.4766,-2.25195
777,8,11.4948,2.26215,0.00316561,0.00399043,0.00153306,0.00516558,0.00199046,0.916792,0.00300838,0.0169844,2001,1016,11.4947,-2.26216
784,8,11.3018,2.28577,0.00613581,0.00571153,0.00124999,0.00719153,0.0046558,0.701342,0.00421175,0.0352475,2008,1016,11.3017,-2.28574
791,8,11.0604,2.30719,0,0,0,0,0,0,0,-1,2015,1016,11.0604,-2.30717
798,8,10.3661,4.02899,0.0160388,0.0114204,-0.00060283,0.0161162,0.0113431,-0.127678,0.00955895,0.0440545,2022,1016,10.3661,-4.02896
805,8,10.9178,3.68872,0.0243853,0.0160983,-0.0029979,0.0253561,0.0151275,-0.313168,0.0147302,0.0453547,2029,1016,10.9179,-3.68875
812,8,11.4268,3.62274,0.0362631,0.0227555,-0.00716993,0.0393593,0.0196594,-0.407639,0.0227241,0.0449643,2036,1016,11.4267,-3.62273
-700,1,0,0,0,0,0,0,0,0,0,-1,524,1023,0,0
-693,1,-6.19769,2.15967,0.00348174,-0.0132935,-0.0125268,0.0101697,-0.0199814,-0.490392,0.0177123,0.0420119,531,1023,-6.19768,-2.15965
-686,1,-5.95514,1.42371,0.00282158,-0.0094519,-0.0129447,0.0110105,-0.0176409,-0.564053,0.0166889,0.0435391,538,1023,-5.95513,-1.42372
-679,1,-5.61102,1.9472,0,0,0,0,0,0,0,-1,545,1023,-5.61104,-1.94719
-672,1,-5.65601,1.67694,0.000839641,-0.00409975,-0.0110393,0.00968214,-0.0129422,-0.675351,0.0131073,0.0475768,552,1023,-5.656,-1.67696
-665,1,-5.70386,1.38171,-4.27432e-05,-0.00231818,-0.00951757,0.00840487,-0.0107658,-0.725911,0.0110961,0.0431604,559,1023,-5.70388,-1.38172
-658,1,-5.84521,1.04156,-0.000746229,-0.00101442,-0.00788607,0.00700688,-0.00876753,-0.776897,0.00912625,0.0310996,566,1023,-5.84523,-1.04154
-651,1,-5.91296,0.905029,-0.00122251,-0.00012884,-0.00630225,0.00565026,-0.00700161,-0.828674,0.00731844,0.0136289,573,1023,-5.91297,-0.905025
-644,1,-5.90564,0.929199,-0.00118789,0.000484358,-0.00520612,0.00492107,-0.0056246,-0.86502,0.00609306,0.0111612,580,1023,-5.90565,-0.929223
-637,1,-5.91235,0.921021,-0.00152984,0.00107707,-0.00394453,0.00392793,-0.0043807,-0.944973,0.00479936,0.0095635,587,1023,-5.91234,-0.921006
-630,1,-5.94318,0.894165,-0.0017619,0.00121605,-0.00292545,0.00300965,-0.0035555,-1.0208,0.00379476,0.0118299,594,1023,-5.94316,-0.894156
-623,1,-5.95245,0.893188,-0.00174697,0.000904544,-0.00242703,0.00234431,-0.00318674,-1.03538,0.00320567,0.0122238,601,1023,-5.95243,-0.893185
-616,1,-5.93726,0.885803,-0.00135688,0.000442717,-0.00212537,0.00185092,-0.00276507,-0.985638,0.00268241,0.013978,608,1023,-5.93728,-0.88579
-609,1,-5.91235,0.899414,-0.000748672,0.0002674,-0.00220269,0.00201988,-0.00250115,-0.898738,0.00261515,0.0158718,615,1023,-5.91235,-0.899411
-602,1,-5.94659,0.885681,-0.000273142,6.78169e-05,-0.00229642,0.00220008,-0.00240541,-0.822449,0.00265986,0.0131696,622,1023,-5.9466,-0.885705
-595,1,-5.94855,0.856689,-1.94014e-05,-5.80329e-05,-0.00229843,0.00225979,-0.00233723,-0.781196,0.00265421,0.0119326,629,1023,-5.94856,-0.856687
-588,1,-5.94055,0.754822,-0.000123538,-0.000122948,-0.00222964,0.00210639,-0.00235288,-0.785464,0.00257588,0.0179975,636,1023,-5.94053,-0.754818
-581,1,-5.94867,0.700256,-0.000482497,-0.000160356,-0.00209529,0.00178004,-0.00242289,-0.823759,0.00243601,0.0264755,643,1023,-5.94865,-0.700262
-574,1,-5.97064,0.857849,-0.000801827,-6.4427e-06,-0.00178038,0.00142012,-0.00222839,-0.895282,0.00212363,0.0381,650,1023,-5.97066,-0.857826
-567,1,-5.90125,0.601379,-0.00142125,0.000123617,-0.00123463,0.000807536,-0.00210517,-1.06493,0.00173639,0.0435649,657,1023,-5.90123,-0.601406
-560,1,-5.724,0.432983,-0.00241885,0.000296047,-0.000415637,0.000358253,-0.00248106,-1.42223,0.00178548,0.042348,664,1023,-5.72402,-0.432964
-553,1,-5.65125,0.472168,-0.00392142,0.0005095,0.000700766,0.000617687,-0.00402961,1.41762,0.00291421,0.0404584,671,1023,-5.65127,-0.472179
-546,1,-5.80383,0.56665,-0.0061,0.000776978,0.00210907,0.00137227,-0.00669529,1.2957,0.00498432,0.0396387,678,1023,-5.80384,-0.566626
-539,1,-6.02405,0.693481,-0.00905731,0.00109712,0.00366332,0.00228074,-0.0102409,1.25828,0.00770095,0.0396621,685,1023,-6.02404,-0.693487
-532,1,-6.27991,0.689697,-0.0130987,0.00155521,0.00515923,0.00318939,-0.0147329,1.26405,0.0110397,0.0422197,692,1023,-6.27988,-0.689695
-525,1,0,0,0,0,0,0,0,0,0,-1,699,1023,0,0
-518,1,0,0,0,0,0,0,0,0,0,-1,706,1023,0,0
-511,1,0,0,0,0,0,0,0,0,0,-1,713,1023,0,0
-504,1,0,0,0,0,0,0,0,0,0,-1,720,1023,0,0
-497,1,0,0,0,0,0,0,0,0,0,-1,727,1023,0,0
-490,1,0,0,0,0,0,0,0,0,0,-1,734,1023,0,0
-483,1,0,0,0,0,0,0,0,0,0,-1,741,1023,0,0
-476,1,0,0,0,0,0,0,0,0,0,-1,748,1023,0,0
-469,1,0,0,0,0,0,0,0,0,0,-1,755,1023,0,0
-462,1,0,0,0,0,0,0,0,0,0,-1,762,1023,0,0
-455,1,0,0,0,0,0,0,0,0,0,-1,769,1023,0,0
-448,1,0,0,0,0,0,0,0,0,0,-1,776,1023,0,0
-441,1,0,0,0,0,0,0,0,0,0,-1,783,1023,0,0
-434,1,0,0,0,0,0,0,0,0,0,-1,790,1023,0,0
-427,1,0,0,0,0,0,0,0,0,0,-1,797,1023,0,0
-420,1,0,0,0,0,0,0,0,0,0,-1,804,1023,0,0
-413,1,0,0,0,0,0,0,0,0,0,-1,811,1023,0,0
-406,1,0,0,0,0,0,0,0,0,0,-1,818,1023,0,0
-399,1,0,0,0,0,0,0,0,0,0,-1,825,1023,0,0
-392,1,0,0,0,0,0,0,0,0,0,-1,832,1023,0,0
-385,1,0,0,0,0,0,0,0,0,0,-1,839,1023,0,0
-378,1,0,0,0,0,0,0,0,0,0,-1,846,1023,0,0
-371,1,0,0,0,0,0,0,0,0,0,-1,853,1023,0,0
-364,1,0,0,0,0,0,0,0,0,0,-1,860,1023,0,0
-357,1,0,0,0,0,0,0,0,0,0,-1,867,1023,0,0
-350,1,0,0,0,0,0,0,0,0,0,-1,874,1023,0,0
-343,1,0,0,0,0,0,0,0,0,0,-1,881,1023,0,0
-336,1,0,0,0,0,0,0,0,0,0,-1,888,1023,0,0
-329,1,0,0,0,0,0,0,0,0,0,-1,895,1023,0,0
-322,1,0,0,0,0,0,0,0,0,0,-1,902,1023,0,0
-315,1,0,0,0,0,0,0,0,0,0,-1,909,1023,0,0
-308,1,0,0,0,0,0,0,0,0,0,-1,916,1023,0,0
-301,1,0,0,0,0,0,0,0,0,0,-1,923,1023,0,0
-294,1,0,0,0,0,0,0,0,0,0,-1,930,1023,0,0
-287,1,0,0,0,0,0,0,0,0,0,-1,937,1023,0,0
-280,1,0,0,0,0,0,0,0,0,0,-1,944,1023,0,0
-273,1,0,0,0,0,0,0,0,0,0,-1,951,1023,0,0
-266,1,0,0,0,0,0,0,0,0,0,-1,958,1023,0,0
-259,1,0,0,0,0,0,0,0,0,0,-1,965,1023,0,0
-252,1,0,0,0,0,0,0,0,0,0,-1,972,1023,0,0
-245,1,0,0,0,0,0,0,0,0,0,-1,979,1023,0,0
-238,1,0,0,0,0,0,0,0,0,0,-1,986,1023,0,0
-231,1,0,0,0,0,0,0,0,0,0,-1,993,1023,0,0
-224,1,0,0,0,0,0,0,0,0,0,-1,1000,1023,0,0
-217,1,0,0,0,0,0,0,0,0,0,-1,1007,1023,0,0
-210,1,0,0,0,0,0,0,0,0,0,-1,1014,1023,0,0
-203,1,0,0,0,0,0,0,0,0,0,-1,1021,1023,0,0
-196,1,0,0,0,0,0,0,0,0,0,-1,1028,1023,0,0
-189,1,0,0,0,0,0,0,0,0,0,-1,1035,1023,0,0
-182,1,0,0,0,0,0,0,0,0,0,-1,1042,1023,0,0
-175,1,0,0,0,0,0,0,0,0,0,-1,1049,1023,0,0
-168,1,0,0,0,0,0,0,0,0,0,-1,1056,1023,0,0
-161,1,0,0,0,0,0,0,0,0,0,-1,1063,1023,0,0
-154,1,0,0,0,0,0,0,0,0,0,-1,1070,1023,0,0
-147,1,0,0,0,0,0,0,0,0,0,-1,1077,1023,0,0
-140,1,0,0,0,0,0,0,0,0,0,-1,1084,1023,0,0
-133,1,0,0,0,0,0,0,0,0,0,-1,1091,1023,0,0
-126,1,0,0,0,0,0,0,0,0,0,-1,1098,1023,0,0
-119,1,0,0,0,0,0,0,0,0,0,-1,1105,1023,0,0
-112,1,0,0,0,0,0,0,0,0,0,-1,1112,1023,0,0
-105,1,0,0,0,0,0,0,0,0,0,-1,1119,1023,0,0
-98,1,0,0,0,0,0,0,0,0,0,-1,1126,1023,0,0
-91,1,0,0,0,0,0,0,0,0,0,-1,1133,1023,0,0
-84,1,0,0,0,0,0,0,0,0,0,-1,1140,1023,0,0
-77,1,0,0,0,0,0,0,0,0,0,-1,1147,1023,0,0
-70,1,0,0,0,0,0,0,0,0,0,-1,1154,1023,0,0
-63,1,0,0,0,0,0,0,0,0,0,-1,1161,1023,0,0
-56,1,0,0,0,0,0,0,0,0,0,-1,1168,1023,0,0
-49,1,0,0,0,0,0,0,0,0,0,-1,1175,1023,0,0
-42,1,0,0,0,0,0,0,0,0,0,-1,1182,1023,0,0
-35,1,0,0,0,0,0,0,0,0,0,-1,1189,1023,0,0
-28,1,0,0,0,0,0,0,0,0,0,-1,1196,1023,0,0
-21,1,0,0,0,0,0,0,0,0,0,-1,1203,1023,0,0
-14,1,0,0,0,0,0,0,0,0,0,-1,1210,1023,0,0
-7,1,0,0,0,0,0,0,0,0,0,-1,1217,1023,0,0
0,1,0,0,0,0,0,0,0,0,0,-1,1224,1023,0,0
7,1,0,0,0,0,0,0,0,0,0,-1,1231,1023,0,0
14,1,0,0,0,0,0,0,0,0,0,-1,1238,1023,0,0
21,1,0,0,0,0,0,0,0,0,0,-1,1245,1023,0,0
28,1,0,0,0,0,0,0,0,0,0,-1,1252,1023,0,0
35,1,0,0,0,0,0,0,0,0,0,-1,1259,1023,0,0
42,1,0,0,0,0,0,0,0,0,0,-1,1266,1023,0,0
49,1,0,0,0,0,0,0,0,0,0,-1,1273,1023,0,0
56,1,0,0,0,0,0,0,0,0,0,-1,1280,1023,0,0
63,1,0,0,0,0,0,0,0,0,0,-1,1287,1023,0,0
70,1,0,0,0,0,0,0,0,0,0,-1,1294,1023,0,0
77,1,0,0,0,0,0,0,0,0,0,-1,1301,1023,0,0
84,1,0,0,0,0,0,0,0,0,0,-1,1308,1023,0,0
91,1,0,0,0,0,0,0,0,0,0,-1,1315,1023,0,0
98,1,0,0,0,0,0,0,0,0,0,-1,1322,1023,0,0
105,1,0,0,0,0,0,0,0,0,0,-1,1329,1023,0,0
112,1,0,0,0,0,0,0,0,0,0,-1,1336,1023,0,0
119,1,0,0,0,0,0,0,0,0,0,-1,1343,1023,0,0
126,1,0,0,0,0,0,0,0,0,0,-1,1350,1023,0,0
133,1,0,0,0,0,0,0,0,0,0,-1,1357,1023,0,0
140,1,0,0,0,0,0,0,0,0,0,-1,1364,1023,0,0
147,1,0,0,0,0,0,0,0,0,0,-1,1371,1023,0,0
154,1,0,0,0,0,0,0,0,0,0,-1,1378,1023,0,0
161,1,0,0,0,0,0,0,0,0,0,-1,1385,1023,0,0
168,1,0,0,0,0,0,0,0,0,0,-1,1392,1023,0,0
175,1,0,0,0,0,0,0,0,0,0,-1,1399,1023,0,0
182,1,0,0,0,0,0,0,0,0,0,-1,1406,1023,0,0
189,1,0,0,0,0,0,0,0,0,0,-1,1413,1023,0,0
196,1,0,0,0,0,0,0,0,0,0,-1,1420,1023,0,0
203,1,0,0,0,0,0,0,0,0,0,-1,1427,1023,0,0
210,1,0,0,0,0,0,0,0,0,0,-1,1434,1023,0,0
217,1,0,0,0,0,0,0,0,0,0,-1,1441,1023,0,0
224,1,0,0,0,0,0,0,0,0,0,-1,1448,1023,0,0
231,1,0,0,0,0,0,0,0,0,0,-1,1455,1023,0,0
238,1,0,0,0,0,0,0,0,0,0,-1,1462,1023,0,0
245,1,0,0,0,0,0,0,0,0,0,-1,1469,1023,0,0
252,1,0,0,0,0,0,0,0,0,0,-1,1476,1023,0,0
259,1,0,0,0,0,0,0,0,0,0,-1,1483,1023,0,0
266,1,0,0,0,0,0,0,0,0,0,-1,1490,1023,0,0
273,1,0,0,0,0,0,0,0,0,0,-1,1497,1023,0,0
280,1,0,0,0,0,0,0,0,0,0,-1,1504,1023,0,0
287,1,0,0,0,0,0,0,0,0,0,-1,1511,1023,0,0
294,1,0,0,0,0,0,0,0,0,0,-1,1518,1023,0,0
301,1,0,0,0,0,0,0,0,0,0,-1,1525,1023,0,0
308,1,0,0,0,0,0,0,0,0,0,-1,1532,1023,0,0
315,1,0,0,0,0,0,0,0,0,0,-1,1539,1023,0,0
322,1,0,0,0,0,0,0,0,0,0,-1,1546,1023,0,0
329,1,0,0,0,0,0,0,0,0,0,-1,1553,1023,0,0
336,1,0,0,0,0,0,0,0,0,0,-1,1560,1023,0,0
343,1,0,0,0,0,0,0,0,0,0,-1,1567,1023,0,0
350,1,0,0,0,0,0,0,0,0,0,-1,1574,1023,0,0
357,1,0,0,0,0,0,0,0,0,0,-1,1581,1023,0,0
364,1,0,0,0,0,0,0,0,0,0,-1,1588,1023,0,0
371,1,0,0,0,0,0,0,0,0,0,-1,1595,1023,0,0
378,1,0,0,0,0,0,0,0,0,0,-1,1602,1023,0,0
385,1,0,0,0,0,0,0,0,0,0,-1,1609,1023,0,0
392,1,0,0,0,0,0,0,0,0,0,-1,1616,1023,0,0
399,1,0,0,0,0,0,0,0,0,0,-1,1623,1023,0,0
406,1,0,0,0,0,0,0,0,0,0,-1,1630,1023,0,0
413,1,0,0,0,0,0,0,0,0,0,-1,1637,1023,0,0
420,1,0,0,0,0,0,0,0,0,0,-1,1644,1023,0,0
427,1,0,0,0,0,0,0,0,0,0,-1,1651,1023,0,0
434,1,0,0,0,0,0,0,0,0,0,-1,1658,1023,0,0
441,1,0,0,0,0,0,0,0,0,0,-1,1665,1023,0,0
448,1,0,0,0,0,0,0,0,0,0,-1,1672,1023,0,0
455,1,0,0,0,0,0,0,0,0,0,-1,1679,1023,0,0
462,1,0,0,0,0,0,0,0,0,0,-1,1686,1023,0,0
469,1,0,0,0,0,0,0,0,0,0,-1,1693,1023,0,0
476,1,0,0,0,0,0,0,0,0,0,-1,1700,1023,0,0
483,1,0,0,0,0,0,0,0,0,0,-1,1707,1023,0,0
490,1,0,0,0,0,0,0,0,0,0,-1,1714,1023,0,0
497,1,0,0,0,0,0,0,0,0,0,-1,1721,1023,0,0
504,1,0,0,0,0,0,0,0,0,0,-1,1728,1023,0,0
511,1,0,0,0,0,0,0,0,0,0,-1,1735,1023,0,0
518,1,0,0,0,0,0,0,0,0,0,-1,1742,1023,0,0
525,1,0,0,0,0,0,0,0,0,0,-1,1749,1023,0,0
532,1,0,0,0,0,0,0,0,0,0,-1,1756,1023,0,0
539,1,0,0,0,0,0,0,0,0,0,-1,1763,1023,0,0
546,1,0,0,0,0,0,0,0,0,0,-1,1770,1023,0,0
553,1,0,0,0,0,0,0,0,0,0,-1,1777,1023,0,0
560,1,0,0,0,0,0,0,0,0,0,-1,1784,1023,0,0
567,1,0,0,0,0,0,0,0,0,0,-1,1791,1023,0,0
574,1,0,0,0,0,0,0,0,0,0,-1,1798,1023,0,0
581,1,0,0,0,0,0,0,0,0,0,-1,1805,1023,0,0
588,1,0,0,0,0,0,0,0,0,0,-1,1812,1023,0,0
595,1,0,0,0,0,0,0,0,0,0,-1,1819,1023,0,0
602,1,0,0,0,0,0,0,0,0,0,-1,1826,1023,0,0
609,1,0,0,0,0,0,0,0,0,0,-1,1833,1023,0,0
616,1,0,0,0,0,0,0,0,0,0,-1,1840,1023,0,0
623,1,0,0,0,0,0,0,0,0,0,-1,1847,1023,0,0
630,1,0,0,0,0,0,0,0,0,0,-1,1854,1023,0,0
637,1,0,0,0,0,0,0,0,0,0,-1,1861,1023,0,0
644,1,0,0,0,0,0,0,0,0,0,-1,1868,1023,0,0
651,1,11.887,1.70551,-0.00499354,0.00474808,0.000915268,0.00483332,-0.00507879,1.47792,0.00572335,0.0355188,1875,1023,11.887,-1.70551
658,1,11.6759,1.95868,-0.00354746,0.00322383,0.000761671,0.00330845,-0.00363208,1.46015,0.00400857,0.0387345,1882,1023,11.6759,-1.95865
665,1,11.6716,1.95239,-0.00246918,0.00215883,0.000691708,0.00226,-0.00257035,1.42556,0.00279072,0.0424177,1889,1023,11.6717,-1.95242
672,1,11.714,1.78094,-0.00177069,0.00141131,0.00090865,0.0016525,-0.00201188,1.31134,0.00211902,0.0420239,1896,1023,11.714,-1.78097
679,1,11.7345,1.37866,-0.00171999,0.000886585,0.0014003,0.00149625,-0.00232965,1.16016,0.00222629,0.041341,1903,1023,11.7345,-1.37864
686,1,11.7373,1.40863,-0.00193366,0.00051696,0.00192289,0.00157176,-0.00298846,1.06907,0.00267486,0.0401952,1910,1023,11.7373,-1.4086
693,1,11.8011,1.63818,-0.00224869,0.000260462,0.00240449,0.00171799,-0.00370622,1.02585,0.00320103,0.0351739,1917,1023,11.8012,-1.6382
700,1,11.7886,1.76654,-0.00261589,-2.40005e-05,0.0027818,0.00174891,-0.0043888,1.00338,0.00365124,0.02901,1924,1023,11.7885,-1.76652
707,1,11.7603,1.73181,-0.00283827,-9.87023e-05,0.00305843,0.00188267,-0.00481965,0.99594,0.00399151,0.0244144,1931,1023,11.7603,-1.7318
714,1,11.7483,1.67511,-0.00317282,-0.000133854,0.00322678,0.0019133,-0.00521998,1.00545,0.00426335,0.0264829,1938,1023,11.7483,-1.6751
721,1,11.782,1.78278,-0.00351111,-7.37137e-05,0.00326233,0.00189496,-0.00547978,1.02784,0.00442231,0.0274771,1945,1023,11.7819,-1.78277
728,1,11.5674,2.0686,-0.00368526,3.54368e-05,0.00321405,0.00188871,-0.00553854,1.04775,0.00445737,0.0186095,1952,1023,11.5673,-2.0686
735,1,11.5216,2.12726,-0.00368864,0.000107497,0.00309975,0.00184414,-0.00542528,1.06012,0.00436346,0.0153307,1959,1023,11.5216,-2.12723
742,1,11.5295,2.14148,-0.00367509,0.000193552,0.00285707,0.00170952,-0.00519105,1.08297,0.00414963,0.0141054,1966,1023,11.5295,-2.14149
749,1,11.5063,2.16223,-0.00331646,0.000653054,0.00265625,0.00198415,-0.00464756,1.10625,0.00393041,0.0119141,1973,1023,11.5064,-2.16225
756,1,11.4977,2.16455,-0.00230326,0.000765804,0.00259677,0.00224756,-0.00378502,1.05226,0.00352041,0.0122721,1980,1023,11.4977,-2.16454
763,1,11.5072,2.21497,-0.00051813,0.00186823,0.00199568,0.00300022,-0.00165012,1.05483,0.00272233,0.0127822,1987,1023,11.5072,-2.21495
770,1,11.4928,2.24835,0.00119498,0.00279348,0.00168477,0.00385897,0.000129489,1.00688,0.00253059,0.0115051,1994,1023,11.4928,-2.24838
777,1,11.5137,2.24634,0.0036532,0.00407116,0.00134897,0.00522724,0.00249712,0.862247,0.00301895,0.0143795,2001,1023,11.5137,-2.24635
784,1,11.4214,2.23462,0.00680769,0.00583648,0.00101476,0.00744705,0.00519712,0.562232,0.00441036,0.0334467,2008,1023,11.4214,-2.23465
791,1,11.3977,2.3913,0.011075,0.00826155,0.000385401,0.0111268,0.00820971,0.133705,0.00666192,0.0423122,2015,1023,11.3977,-2.39132
798,1,10.9541,2.59711,0.0172119,0.0116108,-0.000941954,0.0173661,0.0114566,-0.162228,0.0101954,0.0436376,2022,1023,10.9541,-2.59712
805,1,10.7738,3.44177,0.0258763,0.0162835,-0.00339787,0.0269579,0.0152019,-0.308177,0.0156065,0.0496758,2029,1023,10.7738,-3.44177
812,1,11.7805,2.04266,0.0380413,0.0228558,-0.00761778,0.041204,0.019693,-0.393521,0.0237969,0.0477012,2036,1023,11.7805,-2.04263
-700,-6,0,0,0,0,0,0,0,0,0,-1,524,1030,0,0
-693,-6,-5.96838,2.77332,0.000878706,-0.0210385,-0.0131724,0.00705497,-0.0272148,-0.438442,0.0208957,0.04211,531,1030,-5.96835,-2.77328
-686,-6,-5.89111,2.43933,0.00107488,-0.014127,-0.0132338,0.00873525,-0.0217874,-0.524722,0.0181514,0.04379,538,1030,-5.8911,-2.4393
-679,-6,-5.70557,2.08875,0,0,0,0,0,0,0,-1,545,1030,-5.70555,-2.08871
-672,-6,-5.4978,1.63428,0.000224032,-0.00520623,-0.0108763,0.008719,-0.0137012,-0.66308,0.0130504,0.0494997,552,1030,-5.49778,-1.63423
-665,-6,-5.72913,1.41479,-0.000291842,-0.00250148,-0.00921979,0.00788909,-0.0106824,-0.725767,0.0107626,0.0430252,559,1030,-5.72913,-1.41476
-658,-6,-5.88458,1.07593,-0.000732027,-0.000673037,-0.00751517,0.0068127,-0.00821776,-0.787361,0.00869047,0.0385872,566,1030,-5.88459,-1.0759
-651,-6,-5.9389,0.87146,-0.00103583,0.000442675,-0.00591189,0.00566136,-0.00625451,-0.847598,0.00688247,0.0318677,573,1030,-5.93892,-0.871509
-644,-6,-5.92273,0.878052,-0.000859433,0.00116261,-0.00490928,0.00516389,-0.00486071,-0.886949,0.00578859,0.0233087,580,1030,-5.92272,-0.878082
-637,-6,-5.92737,0.912354,-0.00116174,0.00183241,-0.00368081,0.00430895,-0.00363828,-0.978543,0.00459378,0.0131533,587,1030,-5.92738,-0.912344
-630,-6,-5.94916,0.904663,-0.00143457,0.00195527,-0.00268047,0.00343173,-0.00291104,-1.06732,0.00366611,0.0115346,594,1030,-5.94916,-0.904667
-623,-6,-5.95679,0.897339,-0.0014334,0.00106577,-0.00228955,0.00242454,-0.00279217,-1.0352,0.00301436,0.0120881,601,1030,-5.95681,-0.897286
-616,-6,-5.9447,0.888672,-0.00104033,0.000508735,-0.00208707,0.00196036,-0.00249195,-0.963076,0.00257664,0.0130892,608,1030,-5.94468,-0.888718
-609,-6,-5.92316,0.894653,-0.000448765,0.000222659,-0.00222457,0.0021367,-0.00236281,-0.860289,0.00259888,0.0159592,615,1030,-5.92314,-0.894604
-602,-6,-5.93195,0.87915,-8.97729e-05,-4.8781e-05,-0.00234496,0.00227577,-0.00241433,-0.789768,0.00270822,0.0124637,622,1030,-5.93196,-0.879174
-595,-6,-5.91998,0.881592,2.9846e-05,-0.000225599,-0.00237911,0.00228466,-0.00248041,-0.758581,0.00275189,0.0125359,629,1030,-5.91999,-0.881589
-588,-6,-5.92126,0.736572,-0.000113695,-0.000319369,-0.00231835,0.0021041,-0.00253717,-0.763234,0.00268352,0.0144721,636,1030,-5.92127,-0.736571
-581,-6,-5.95795,0.654175,-0.000487323,-0.000381838,-0.00218131,0.00174737,-0.00261653,-0.797485,0.0025361,0.0223761,643,1030,-5.95793,-0.654216
-574,-6,-6.04303,0.7854,-0.000860631,-0.000268531,-0.00185136,0.0013103,-0.00243946,-0.864682,0.0021974,0.0306253,650,1030,-6.04306,-0.785386
-567,-6,-5.99634,0.724243,-0.0015406,-0.000167387,-0.00127916,0.000597788,-0.00230577,-1.03171,0.00177041,0.0396384,657,1030,-5.99636,-0.72419
-560,-6,-5.76398,0.510254,-0.00260427,-1.87232e-05,-0.000429291,5.06903e-05,-0.00267368,-1.41049,0.00179959,0.0409181,664,1030,-5.76396,-0.510218
-553,-6,-5.65967,0.481812,-0.00417151,0.000181425,0.000714183,0.000295605,-0.00428569,1.41226,0.00296059,0.0397778,671,1030,-5.65966,-0.481785
-546,-6,-5.82275,0.593628,-0.00639954,0.000452248,0.00214123,0.00106636,-0.00701365,1.29149,0.00506874,0.0393244,678,1030,-5.82277,-0.593572
-539,-6,-5.97607,0.812012,-0.00937657,0.00079467,0.00368657,0.00199032,-0.0105722,1.25717,0.00779673,0.0400386,685,1030,-5.97607,-0.811965
-532,-6,-6.18689,0.845703,-0.0133614,0.00129231,0.00509461,0.00288946,-0.0149586,1.267,0.011062,0.0428508,692,1030,-6.18691,-0.845712
-525,-6,0,0,0,0,0,0,0,0,0,-1,699,1030,0,0
-518,-6,0,0,0,0,0,0,0,0,0,-1,706,1030,0,0
-511,-6,0,0,0,0,0,0,0,0,0,-1,713,1030,0,0
-504,-6,0,0,0,0,0,0,0,0,0,-1,720,1030,0,0
-497,-6,0,0,0,0,0,0,0,0,0,-1,727,1030,0,0
-490,-6,0,0,0,0,0,0,0,0,0,-1,734,1030,0,0
-483,-6,0,0,0,0,0,0,0,0,0,-1,741,1030,0,0
-476,-6,0,0,0,0,0,0,0,0,0,-1,748,1030,0,0
-469,-6,0,0,0,0,0,0,0,0,0,-1,755,1030,0,0
-462,-6,0,0,0,0,0,0,0,0,0,-1,762,1030,0,0
-455,-6,0,0,0,0,0,0,0,0,0,-1,769,1030,0,0
-448,-6,0,0,0,0,0,0,0,0,0,-1,776,1030,0,0
-441,-6,0,0,0,0,0,0,0,0,0,-1,783,1030,0,0
-434,-6,0,0,0,0,0,0,0,0,0,-1,790,1030,0,0
-427,-6,0,0,0,0,0,0,0,0,0,-1,797,1030,0,0
-420,-6,0,0,0,0,0,0,0,0,0,-1,804,1030,0,0
-413,-6,0,0,0,0,0,0,0,0,0,-1,811,1030,0,0
-406,-6,0,0,0,0,0,0,0,0,0,-1,818,1030,0,0
-399,-6,0,0,0,0,0,0,0,0,0,-1,825,1030,0,0
-392,-6,0,0,0,0,0,0,0,0,0,-1,832,1030,0,0
-385,-6,0,0,0,0,0,0,0,0,0,-1,839,1030,0,0
-378,-6,0,0,0,0,0,0,0,0,0,-1,846,1030,0,0
-371,-6,0,0,0,0,0,0,0,0,0,-1,853,1030,0,0
-364,-6,0,0,0,0,0,0,0,0,0,-1,860,1030,0,0
-357,-6,0,0,0,0,0,0,0,0,0,-1,867,1030,0,0
-350,-6,0,0,0,0,0,0,0,0,0,-1,874,1030,0,0
-343,-6,0,0,0,0,0,0,0,0,0,-1,881,1030,0,0
-336,-6,0,0,0,0,0,0,0,0,0,-1,888,1030,0,0
-329,-6,0,0,0,0,0,0,0,0,0,-1,895,1030,0,0
-322,-6,0,0,0,0,0,0,0,0,0,-1,902,1030,0,0
-315,-6,0,0,0,0,0,0,0,0,0,-1,909,1030,0,0
-308,-6,0,0,0,0,0,0,0,0,0,-1,916,1030,0,0
-301,-6,0,0,0,0,0,0,0,0,0,-1,923,1030,0,0
-294,-6,0,0,0,0,0,0,0,0,0,-1,930,1030,0,0
-287,-6,0,0,0,0,0,0,0,0,0,-1,937,1030,0,0
-280,-6,0,0,0,0,0,0,0,0,0,-1,944,1030,0,0
-273,-6,0,0,0,0,0,0,0,0,0,-1,951,1030,0,0
-266,-6,0,0,0,0,0,0,0,0,0,-1,958,1030,0,0
-259,-6,0,0,0,0,0,0,0,0,0,-1,965,1030,0,0
-252,-6,0,0,0,0,0,0,0,0,0,-1,972,1030,0,0
-245,-6,0,0,0,0,0,0,0,0,0,-1,979,1030,0,0
-238,-6,0,0,0,0,0,0,0,0,0,-1,986,1030,0,0
-231,-6,0,0,0,0,0,0,0,0,0,-1,993,1030,0,0
-224,-6,0,0,0,0,0,0,0,0,0,-1,1000,1030,0,0
-217,-6,0,0,0,0,0,0,0,0,0,-1,1007,1030,0,0
-210,-6,0,0,0,0,0,0,0,0,0,-1,1014,1030,0,0
-203,-6,0,0,0,0,0,0,0,0,0,-1,1021,1030,0,0
-196,-6,0,0,0,0,0,0,0,0,0,-1,1028,1030,0,0
-189,-6,0,0,0,0,0,0,0,0,0,-1,1035,1030,0,0
-182,-6,0,0,0,0,0,0,0,0,0,-1,1042,1030,0,0
-175,-6,0,0,0,0,0,0,0,0,0,-1,1049,1030,0,0
-168,-6,0,0,0,0,0,0,0,0,0,-1,1056,1030,0,0
-161,-6,0,0,0,0,0,0,0,0,0,-1,1063,1030,0,0
-154,-6,0,0,0,0,0,0,0,0,0,-1,1070,1030,0,0
-147,-6,0,0,0,0,0,0,0,0,0,-1,1077,1030,0,0
-140,-6,0,0,0,0,0,0,0,0,0,-1,1084,1030,0,0
-133,-6,0,0,0,0,0,0,0,0,0,-1,1091,1030,0,0
-126,-6,0,0,0,0,0,0,0,0,0,-1,1098,1030,0,0
-119,-6,0,0,0,0,0,0,0,0,0,-1,1105,1030,0,0
-112,-6,0,0,0,0,0,0,0,0,0,-1,1112,1030,0,0
-105,-6,0,0,0,0,0,0,0,0,0,-1,1119,1030,0,0
-98,-6,0,0,0,0,0,0,0,0,0,-1,1126,1030,0,0
-91,-6,0,0,0,0,0,0,0,0,0,-1,1133,1030,0,0
-84,-6,0,0,0,0,0,0,0,0,0,-1,1140,1030,0,0
-77,-6,0,0,0,0,0,0,0,0,0,-1,1147,1030,0,0
-70,-6,0,0,0,0,0,0,0,0,0,-1,1154,1030,0,0
-63,-6,0,0,0,0,0,0,0,0,0,-1,1161,1030,0,0
-56,-6,0,0,0,0,0,0,0,0,0,-1,1168,1030,0,0
-49,-6,0,0,0,0,0,0,0,0,0,-1,1175,1030,0,0
-42,-6,0,0,0,0,0,0,0,0,0,-1,1182,1030,0,0
-35,-6,0,0,0,0,0,0,0,0,0,-1,1189,1030,0,0
-28,-6,0,0,0,0,0,0,0,0,0,-1,1196,1030,0,0
-21,-6,0,0,0,0,0,0,0,0,0,-1,1203,1030,0,0
-14,-6,0,0,0,0,0,0,0,0,0,-1,1210,1030,0,0
-7,-6,0,0,0,0,0,0,0,0,0,-1,1217,1030,0,0
0,-6,0,0,0,0,0,0,0,0,0,-1,1224,1030,0,0
7,-6,0,0,0,0,0,0,0,0,0,-1,1231,1030,0,0
14,-6,0,0,0,0,0,0,0,0,0,-1,1238,1030,0,0
21,-6,0,0,0,0,0,0,0,0,0,-1,1245,1030,0,0
28,-6,0,0,0,0,0,0,0,0,0,-1,1252,1030,0,0
35,-6,0,0,0,0,0,0,0,0,0,-1,1259,1030,0,0
42,-6,0,0,0,0,0,0,0,0,0,-1,1266,1030,0,0
49,-6,0,0,0,0,0,0,0,0,0,-1,1273,1030,0,0
56,-6,0,0,0,0,0,0,0,0,0,-1,1280,1030,0,0
63,-6,0,0,0,0,0,0,0,0,0,-1,1287,1030,0,0
70,-6,0,0,0,0,0,0,0,0,0,-1,1294,1030,0,0
77,-6,0,0,0,0,0,0,0,0,0,-1,1301,1030,0,0
84,-6,0,0,0,0,0,0,0,0,0,-1,1308,1030,0,0
91,-6,0,0,0,0,0,0,0,0,0,-1,1315,1030,0,0
98,-6,0,0,0,0,0,0,0,0,0,-1,1322,1030,0,0
105,-6,0,0,0,0,0,0,0,0,0,-1,1329,1030,0,0
112,-6,0,0,0,0,0,0,0,0,0,-1,1336,1030,0,0
119,-6,0,0,0,0,0,0,0,0,0,-1,1343,1030,0,0
126,-6,0,0,0,0,0,0,0,0,0,-1,1350,1030,0,0
133,-6,0,0,0,0,0,0,0,0,0,-1,1357,1030,0,0
140,-6,0,0,0,0,0,0,0,0,0,-1,1364,1030,0,0
147,-6,0,0,0,0,0,0,0,0,0,-1,1371,1030,0,0
154,-6,0,0,0,0,0,0,0,0,0,-1,1378,1030,0,0
161,-6,0,0,0,0,0,0,0,0,0,-1,1385,1030,0,0
168,-6,0,0,0,0,0,0,0,0,0,-1,1392,1030,0,0
175,-6,0,0,0,0,0,0,0,0,0,-1,1399,1030,0,0
182,-6,0,0,0,0,0,0,0,0,0,-1,1406,1030,0,0
189,-6,0,0,0,0,0,0,0,0,0,-1,1413,1030,0,0
196,-6,0,0,0,0,0,0,0,0,0,-1,1420,1030,0,0
203,-6,0,0,0,0,0,0,0,0,0,-1,1427,1030,0,0
210,-6,0,0,0,0,0,0,0,0,0,-1,1434,1030,0,0
217,-6,0,0,0,0,0,0,0,0,0,-1,1441,1030,0,0
224,-6,0,0,0,0,0,0,0,0,0,-1,1448,1030,0,0
231,-6,0,0,0,0,0,0,0,0,0,-1,1455,1030,0,0
238,-6,0,0,0,0,0,0,0,0,0,-1,1462,1030,0,0
245,-6,0,0,0,0,0,0,0,0,0,-1,1469,1030,0,0
252,-6,0,0,0,0,0,0,0,0,0,-1,1476,1030,0,0
259,-6,0,0,0,0,0,0,0,0,0,-1,1483,1030,0,0
266,-6,0,0,0,0,0,0,0,0,0,-1,1490,1030,0,0
273,-6,0,0,0,0,0,0,0,0,0,-1,1497,1030,0,0
280,-6,0,0,0,0,0,0,0,0,0,-1,1504,1030,0,0
287,-6,0,0,0,0,0,0,0,0,0,-1,1511,1030,0,0
294,-6,0,0,0,0,0,0,0,0,0,-1,1518,1030,0,0
301,-6,0,0,0,0,0,0,0,0,0,-1,1525,1030,0,0
308,-6,0,0,0,0,0,0,0,0,0,-1,1532,1030,0,0
315,-6,0,0,0,0,0,0,0,0,0,-1,1539,1030,0,0
322,-6,0,0,0,0,0,0,0,0,0,-1,1546,1030,0,0
329,-6,0,0,0,0,0,0,0,0,0,-1,1553,1030,0,0
336,-6,0,0,0,0,0,0,0,0,0,-1,1560,1030,0,0
343,-6,0,0,0,0,0,0,0,0,0,-1,1567,1030,0,0
350,-6,0,0,0,0,0,0,0,0,0,-1,1574,1030,0,0
357,-6,0,0,0,0,0,0,0,0,0,-1,1581,1030,0,0
364,-6,0,0,0,0,0,0,0,0,0,-1,1588,1030,0,0
371,-6,0,0,0,0,0,0,0,0,0,-1,1595,1030,0,0
378,-6,0,0,0,0,0,0,0,0,0,-1,1602,1030,0,0
385,-6,0,0,0,0,0,0,0,0,0,-1,1609,1030,0,0
392,-6,0,0,0,0,0,0,0,0,0,-1,1616,1030,0,0
399,-6,0,0,0,0,0,0,0,0,0,-1,1623,1030,0,0
406,-6,0,0,0,0,0,0,0,0,0,-1,1630,1030,0,0
413,-6,0,0,0,0,0,0,0,0,0,-1,1637,1030,0,0
420,-6,0,0,0,0,0,0,0,0,0,-1,1644,1030,0,0
427,-6,0,0,0,0,0,0,0,0,0,-1,1651,1030,0,0
434,-6,0,0,0,0,0,0,0,0,0,-1,1658,1030,0,0
441,-6,0,0,0,0,0,0,0,0,0,-1,1665,1030,0,0
448,-6,0,0,0,0,0,0,0,0,0,-1,1672,1030,0,0
455,-6,0,0,0,0,0,0,0,0,0,-1,1679,1030,0,0
462,-6,0,0,0,0,0,0,0,0,0,-1,1686,1030,0,0
469,-6,0,0,0,0,0,0,0,0,0,-1,1693,1030,0,0
476,-6,0,0,0,0,0,0,0,0,0,-1,1700,1030,0,0
483,-6,0,0,0,0,0,0,0,0,0,-1,1707,1030,0,0
490,-6,0,0,0,0,0,0,0,0,0,-1,1714,1030,0,0
497,-6,0,0,0,0,0,0,0,0,0,-1,1721,1030,0,0
504,-6,0,0,0,0,0,0,0,0,0,-1,1728,1030,0,0
511,-6,0,0,0,0,0,0,0,0,0,-1,1735,1030,0,0
518,-6,0,0,0,0,0,0,0,0,0,-1,1742,1030,0,0
525,-6,0,0,0,0,0,0,0,0,0,-1,1749,1030,0,0
532,-6,0,0,0,0,0,0,0,0,0,-1,1756,1030,0,0
539,-6,0,0,0,0,0,0,0,0,0,-1,1763,1030,0,0
546,-6,0,0,0,0,0,0,0,0,0,-1,1770,1030,0,0
553,-6,0,0,0,0,0,0,0,0,0,-1,1777,1030,0,0
560,-6,0,0,0,0,0,0,0,0,0,-1,1784,1030,0,0
567,-6,0,0,0,0,0,0,0,0,0,-1,1791,1030,0,0
574,-6,0,0,0,0,0,0,0,0,0,-1,1798,1030,0,0
581,-6,0,0,0,0,0,0,0,0,0,-1,1805,1030,0,0
588,-6,0,0,0,0,0,0,0,0,0,-1,1812,1030,0,0
595,-6,0,0,0,0,0,0,0,0,0,-1,1819,1030,0,0
602,-6,0,0,0,0,0,0,0,0,0,-1,1826,1030,0,0
609,-6,0,0,0,0,0,0,0,0,0,-1,1833,1030,0,0
616,-6,0,0,0,0,0,0,0,0,0,-1,1840,1030,0,0
623,-6,0,0,0,0,0,0,0,0,0,-1,1847,1030,0,0
630,-6,0,0,0,0,0,0,0,0,0,-1,1854,1030,0,0
637,-6,0,0,0,0,0,0,0,0,0,-1,1861,1030,0,0
644,-6,0,0,0,0,0,0,0,0,0,-1,1868,1030,0,0
651,-6,11.9063,1.85559,-0.00611254,0.00461544,0.00122025,0.00475249,-0.00624959,1.45896,0.00637163,0.0365359,1875,1030,11.9063,-1.85557
658,-6,11.6171,2.06555,-0.00439233,0.00306004,0.00097625,0.0031858,-0.0045181,1.44268,0.00446996,0.0387444,1882,1030,11.6171,-2.06559
665,-6,11.6299,2.15369,-0.00310855,0.00197526,0.000845086,0.00211206,-0.00324535,1.41031,0.00311609,0.0426498,1889,1030,11.6299,-2.15374
672,-6,11.8553,1.83313,-0.00219862,0.00119137,0.00101465,0.00147186,-0.00247911,1.3011,0.00230567,0.0425224,1896,1030,11.8553,-1.83312
679,-6,11.7355,1.5304,-0.00196488,0.000626996,0.00149085,0.00130642,-0.00264431,1.14318,0.00232415,0.041672,1903,1030,11.7355,-1.53044
686,-6,11.7223,1.4751,-0.00204727,0.000225614,0.00201518,0.00140271,-0.00322437,1.04214,0.00273958,0.0380222,1910,1030,11.7223,-1.47514
693,-6,11.8287,1.53735,-0.00225944,-5.25498e-05,0.00250524,0.00158149,-0.00389348,0.992842,0.00325356,0.0355385,1917,1030,11.8288,-1.53738
700,-6,11.8212,1.66772,-0.00255638,-0.000334232,0.00289519,0.00165576,-0.00454637,0.968615,0.00370817,0.0306751,1924,1030,11.8212,-1.66767
707,-6,11.7468,1.74512,-0.00270308,-0.00041554,0.00318732,0.00182702,-0.00494563,0.957667,0.00404602,0.0264387,1931,1030,11.7468,-1.74518
714,-6,11.7545,1.67627,-0.0029779,-0.000452242,0.00336051,0.00187488,-0.00530502,0.965128,0.00430011,0.0345093,1938,1030,11.7545,-1.67629
721,-6,11.7401,1.76294,-0.00330037,-0.000387593,0.00339741,0.00185243,-0.00554039,0.987888,0.00444175,0.0347046,1945,1030,11.7401,-1.76299
728,-6,11.5996,2.08691,-0.00348296,-0.000255733,0.0033514,0.00185028,-0.00558897,1.00976,0.0044722,0.0247557,1952,1030,11.5996,-2.08686
735,-6,11.5229,2.14392,-0.00349208,-0.000126411,0.00321179,0.00181671,-0.0054352,1.02671,0.00435717,0.0160964,1959,1030,11.5229,-2.14393
742,-6,11.5261,2.16284,-0.0034923,4.19869e-05,0.00295436,0.00171738,-0.00516769,1.05493,0.00413813,0.0127923,1966,1030,11.5262,-2.16287
749,-6,11.5122,2.177,-0.00315448,0.00057515,0.00271156,0.00200125,-0.00458058,1.08662,0.00389607,0.0122401,1973,1030,11.5122,-2.177
756,-6,11.5253,2.18127,-0.00216154,0.000828368,0.00259064,0.00232445,-0.00365763,1.04709,0.00348223,0.0131131,1980,1030,11.5253,-2.18127
763,-6,11.526,2.21069,-0.000421508,0.00198268,0.00195268,0.00307362,-0.00151245,1.06131,0.00269842,0.0119104,1987,1030,11.526,-2.21065
770,-6,11.5146,2.23218,0.00125022,0.00302584,0.00159754,0.00396569,0.000310365,1.03902,0.00254665,0.0106532,1994,1030,11.5147,-2.23215
777,-6,11.5215,2.2179,0.00366479,0.00442435,0.00123395,0.00533563,0.0027535,0.934687,0.00308106,0.0143946,2001,1030,11.5215,-2.21795
784,-6,11.5054,2.19006,0.00676477,0.0062933,0.000905981,0.00746518,0.00559288,0.658121,0.00448491,0.0348479,2008,1030,11.5054,-2.19002
791,-6,11.6068,2.30457,0.0109394,0.00878993,0.00031911,0.0109858,0.00874355,0.144314,0.00670264,0.0424457,2015,1030,11.6069,-2.30453
798,-6,11.6802,2.5116,0.0169254,0.0121365,-0.000909818,0.0170924,0.0119694,-0.18156,0.0101288,0.0439089,2022,1030,11.6801,-2.51156
805,-6,11.7676,2.70447,0,0,0,0,0,0,0,-1,2029,1030,11.7675,-2.70446
812,-6,11.9159,2.4967,0,0,0,0,0,0,0,-1,2036,1030,11.9159,-2.49668
-700,-13,0,0,0,0,0,0,0,0,0,-1,524,1037,0,0
-693,-13,-5.6601,3.09375,0.000160554,-0.0272761,-0.0124475,0.00496604,-0.0320816,-0.368433,0.0232207,0.0466246,531,1037,-5.66008,-3.0938
-686,-13,-5.60004,2.76538,0.000765452,-0.0180167,-0.0123795,0.00691282,-0.0241641,-0.460906,0.0188413,0.042972,538,1037,-5.60004,-2.7654
-679,-13,-5.46509,2.25,0,0,0,0,0,0,0,-1,545,1037,-5.4651,-2.25006
-672,-13,-5.4577,1.73779,0.000389857,-0.00631864,-0.00996696,0.00755185,-0.0134806,-0.623083,0.0123029,0.0487292,552,1037,-5.4577,-1.73785
-665,-13,-5.78601,1.37354,1.88776e-06,-0.00288661,-0.00834746,0.00702912,-0.00991384,-0.699738,0.00982917,0.0442321,559,1037,-5.786,-1.37355
-658,-13,-5.90851,1.12036,0,0,0,0,0,0,0,-1,566,1037,-5.9085,-1.12038
-651,-13,-5.96619,0.931274,-0.000634299,0.000691625,-0.00521496,0.00528559,-0.00522827,-0.848623,0.00607021,0.0432473,573,1037,-5.96616,-0.931234
-644,-13,-5.92188,0.881348,-0.00042939,0.00154379,-0.00439043,0.00505711,-0.00394271,-0.895919,0.00520931,0.029095,580,1037,-5.92189,-0.881322
-637,-13,-5.93579,0.887695,-0.000776748,0.00226851,-0.00326822,0.00435139,-0.00285962,-1.00339,0.00419287,0.0182101,587,1037,-5.93577,-0.887655
-630,-13,-5.94885,0.896973,-0.00113602,0.00242834,-0.00235327,0.00359811,-0.00230579,-1.10948,0.00343573,0.0117548,594,1037,-5.94888,-0.896977
-623,-13,-5.94354,0.908569,-0.00117329,0.00119187,-0.00207578,0.0023983,-0.00237972,-1.04432,0.0027586,0.0105628,601,1037,-5.94353,-0.908531
-616,-13,-5.93463,0.896362,-0.000789798,0.000557906,-0.00199467,0.00198948,-0.00222137,-0.948292,0.00243236,0.0108884,608,1037,-5.93466,-0.896352
-609,-13,-5.92004,0.880737,-0.000244098,0.000188688,-0.00221001,0.00219287,-0.00224828,-0.8342,0.00256417,0.0162505,615,1037,-5.92001,-0.880788
-602,-13,-5.92688,0.883423,-8.3059e-06,-0.000109692,-0.00236197,0.00230352,-0.00242151,-0.774669,0.00272828,0.0108749,622,1037,-5.92686,-0.883444
-595,-13,-5.91119,0.88269,-4.07324e-07,-0.000307027,-0.00241252,0.00226367,-0.00257111,-0.753667,0.00279324,0.0123232,629,1037,-5.91121,-0.882633
-588,-13,-5.8761,0.730103,-0.000153773,-0.00039851,-0.00235353,0.00208056,-0.00263285,-0.759425,0.00272751,0.0167111,636,1037,-5.87608,-0.730072
-581,-13,-5.92145,0.654907,-0.000502533,-0.00043203,-0.00221859,0.00175158,-0.00268615,-0.793342,0.00258099,0.0181712,643,1037,-5.92147,-0.654877
-574,-13,-6.03113,0.712769,-0.000878148,-0.000307256,-0.00188822,0.00131697,-0.00250238,-0.860416,0.00224023,0.0323569,650,1037,-6.03115,-0.712822
-567,-13,-6.09827,0.734009,-0.00153653,-0.000170352,-0.00130607,0.000620475,-0.00232736,-1.02634,0.00179452,0.0391124,657,1037,-6.09825,-0.733953
-560,-13,-5.91449,0.539307,-0.00254684,2.83562e-05,-0.000456649,0.000106934,-0.00262542,-1.40039,0.00178699,0.0405691,664,1037,-5.91451,-0.539293
-553,-13,-5.74005,0.502441,-0.00401824,0.00029254,0.000659994,0.000391324,-0.00411702,1.42223,0.00288399,0.0412726,671,1037,-5.74004,-0.502502
-546,-13,-5.81177,0.631226,-0.00609165,0.000640661,0.00202192,0.00120123,-0.00665222,1.30034,0.0048847,0.0391505,678,1037,-5.8118,-0.631255
-539,-13,-5.91351,0.789795,-0.00884504,0.00106694,0.00343522,0.00214108,-0.00991918,1.26774,0.00743004,0.0386496,685,1037,-5.91354,-0.789735
-532,-13,-6.00818,0.730713,-0.0125003,0.00163012,0.00456624,0.00297727,-0.0138474,1.28391,0.0103675,0.0416487,692,1037,-6.0082,-0.730665
-525,-13,0,0,0,0,0,0,0,0,0,-1,699,1037,0,0
-518,-13,0,0,0,0,0,0,0,0,0,-1,706,1037,0,0
-511,-13,0,0,0,0,0,0,0,0,0,-1,713,1037,0,0
-504,-13,0,0,0,0,0,0,0,0,0,-1,720,1037,0,0
-497,-13,0,0,0,0,0,0,0,0,0,-1,727,1037,0,0
-490,-13,0,0,0,0,0,0,0,0,0,-1,734,1037,0,0
-483,-13,0,0,0,0,0,0,0,0,0,-1,741,1037,0,0
-476,-13,0,0,0,0,0,0,0,0,0,-1,748,1037,0,0
-469,-13,0,0,0,0,0,0,0,0,0,-1,755,1037,0,0
-462,-13,0,0,0,0,0,0,0,0,0,-1,762,1037,0,0
-455,-13,0,0,0,0,0,0,0,0,0,-1,769,1037,0,0
-448,-13,0,0,0,0,0,0,0,0,0,-1,776,1037,0,0
-441,-13,0,0,0,0,0,0,0,0,0,-1,783,1037,0,0
-434,-13,0,0,0,0,0,0,0,0,0,-1,790,1037,0,0
-427,-13,0,0,0,0,0,0,0,0,0,-1,797,1037,0,0
-420,-13,0,0,0,0,0,0,0,0,0,-1,804,1037,0,0
-413,-13,0,0,0,0,0,0,0,0,0,-1,811,1037,0,0
-406,-13,0,0,0,0,0,0,0,0,0,-1,818,1037,0,0
-399,-13,0,0,0,0,0,0,0,0,0,-1,825,1037,0,0
-392,-13,0,0,0,0,0,0,0,0,0,-1,832,1037,0,0
-385,-13,0,0,0,0,0,0,0,0,0,-1,839,1037,0,0
-378,-13,0,0,0,0,0,0,0,0,0,-1,846,1037,0,0
-371,-13,0,0,0,0,0,0,0,0,0,-1,853,1037,0,0
-364,-13,0,0,0,0,0,0,0,0,0,-1,860,1037,0,0
-357,-13,0,0,0,0,0,0,0,0,0,-1,867,1037,0,0
-350,-13,0,0,0,0,0,0,0,0,0,-1,874,1037,0,0
-343,-13,0,0,0,0,0,0,0,0,0,-1,881,1037,0,0
-336,-13,0,0,0,0,0,0,0,0,0,-1,888,1037,0,0
-329,-13,0,0,0,0,0,0,0,0,0,-1,895,1037,0,0
-322,-13,0,0,0,0,0,0,0,0,0,-1,902,1037,0,0
-315,-13,0,0,0,0,0,0,0,0,0,-1,909,1037,0,0
-308,-13,0,0,0,0,0,0,0,0,0,-1,916,1037,0,0
-301,-13,0,0,0,0,0,0,0,0,0,-1,923,1037,0,0
-294,-13,0,0,0,0,0,0,0,0,0,-1,930,1037,0,0
-287,-13,0,0,0,0,0,0,0,0,0,-1,937,1037,0,0
-280,-13,0,0,0,0,0,0,0,0,0,-1,944,1037,0,0
-273,-13,0,0,0,0,0,0,0,0,0,-1,951,1037,0,0
-266,-13,0,0,0,0,0,0,0,0,0,-1,958,1037,0,0
-259,-13,0,0,0,0,0,0,0,0,0,-1,965,1037,0,0
-252,-13,0,0,0,0,0,0,0,0,0,-1,972,1037,0,0
-245,-13,0,0,0,0,0,0,0,0,0,-1,979,1037,0,0
-238,-13,0,0,0,0,0,0,0,0,0,-1,986,1037,0,0
-231,-13,0,0,0,0,0,0,0,0,0,-1,993,1037,0,0
-224,-13,0,0,0,0,0,0,0,0,0,-1,1000,1037,0,0
-217,-13,0,0,0,0,0,0,0,0,0,-1,1007,1037,0,0
-210,-13,0,0,0,0,0,0,0,0,0,-1,1014,1037,0,0
-203,-13,0,0,0,0,0,0,0,0,0,-1,1021,1037,0,0
-196,-13,0,0,0,0,0,0,0,0,0,-1,1028,1037,0,0
-189,-13,0,0,0,0,0,0,0,0,0,-1,1035,1037,0,0
-182,-13,0,0,0,0,0,0,0,0,0,-1,1042,1037,0,0
-175,-13,0,0,0,0,0,0,0,0,0,-1,1049,1037,0,0
-168,-13,0,0,0,0,0,0,0,0,0,-1,1056,1037,0,0
-161,-13,0,0,0,0,0,0,0,0,0,-1,1063,1037,0,0
-154,-13,0,0,0,0,0,0,0,0,0,-1,1070,1037,0,0
-147,-13,0,0,0,0,0,0,0,0,0,-1,1077,1037,0,0
-140,-13,0,0,0,0,0,0,0,0,0,-1,1084,1037,0,0
-133,-13,0,0,0,0,0,0,0,0,0,-1,1091,1037,0,0
-126,-13,0,0,0,0,0,0,0,0,0,-1,1098,1037,0,0
-119,-13,0,0,0,0,0,0,0,0,0,-1,1105,1037,0,0
-112,-13,0,0,0,0,0,0,0,0,0,-1,1112,1037,0,0
-105,-13,0,0,0,0,0,0,0,0,0,-1,1119,1037,0,0
-98,-13,0,0,0,0,0,0,0,0,0,-1,1126,1037,0,0
-91,-13,0,0,0,0,0,0,0,0,0,-1,1133,1037,0,0
-84,-13,0,0,0,0,0,0,0,0,0,-1,1140,1037,0,0
-77,-13,0,0,0,0,0,0,0,0,0,-1,1147,1037,0,0
-70,-13,0,0,0,0,0,0,0,0,0,-1,1154,1037,0,0
-63,-13,0,0,0,0,0,0,0,0,0,-1,1161,1037,0,0
-56,-13,0,0,0,0,0,0,0,0,0,-1,1168,1037,0,0
-49,-13,0,0,0,0,0,0,0,0,0,-1,1175,1037,0,0
-42,-13,0,0,0,0,0,0,0,0,0,-1,1182,1037,0,0
-35,-13,0,0,0,0,0,0,0,0,0,-1,1189,1037,0,0
-28,-13,0,0,0,0,0,0,0,0,0,-1,1196,1037,0,0
-21,-13,0,0,0,0,0,0,0,0,0,-1,1203,1037,0,0
-14,-13,0,0,0,0,0,0,0,0,0,-1,1210,1037,0,0
-7,-13,0,0,0,0,0,0,0,0,0,-1,1217,1037,0,0
0,-13,0,0,0,0,0,0,0,0,0,-1,1224,1037,0,0
7,-13,0,0,0,0,0,0,0,0,0,-1,1231,1037,0,0
14,-13,0,0,0,0,0,0,0,0,0,-1,1238,1037,0,0
21,-13,0,0,0,0,0,0,0,0,0,-1,1245,1037,0,0
28,-13,0,0,0,0,0,0,0,0,0,-1,1252,1037,0,0
35,-13,0,0,0,0,0,0,0,0,0,-1,1259,1037,0,0
42,-13,0,0,0,0,0,0,0,0,0,-1,1266,1037,0,0
49,-13,0,0,0,0,0,0,0,0,0,-1,1273,1037,0,0
56,-13,0,0,0,0,0,0,0,0,0,-1,1280,1037,0,0
63,-13,0,0,0,0,0,0,0,0,0,-1,1287,1037,0,0
70,-13,0,0,0,0,0,0,0,0,0,-1,1294,1037,0,0
77,-13,0,0,0,0,0,0,0,0,0,-1,1301,1037,0,0
84,-13,0,0,0,0,0,0,0,0,0,-1,1308,1037,0,0
91,-13,0,0,0,0,0,0,0,0,0,-1,1315,1037,0,0
98,-13,0,0,0,0,0,0,0,0,0,-1,1322,1037,0,0
105,-13,0,0,0,0,0,0,0,0,0,-1,1329,1037,0,0
112,-13,0,0,0,0,0,0,0,0,0,-1,1336,1037,0,0
119,-13,0,0,0,0,0,0,0,0,0,-1,1343,1037,0,0
126,-13,0,0,0,0,0,0,0,0,0,-1,1350,1037,0,0
133,-13,0,0,0,0,0,0,0,0,0,-1,1357,1037,0,0
140,-13,0,0,0,0,0,0,0,0,0,-1,1364,1037,0,0
147,-13,0,0,0,0,0,0,0,0,0,-1,1371,1037,0,0
154,-13,0,0,0,0,0,0,0,0,0,-1,1378,1037,0,0
161,-13,0,0,0,0,0,0,0,0,0,-1,1385,1037,0,0
168,-13,0,0,0,0,0,0,0,0,0,-1,1392,1037,0,0
175,-13,0,0,0,0,0,0,0,0,0,-1,1399,1037,0,0
182,-13,0,0,0,0,0,0,0,0,0,-1,1406,1037,0,0
189,-13,0,0,0,0,0,0,0,0,0,-1,1413,1037,0,0
196,-13,0,0,0,0,0,0,0,0,0,-1,1420,1037,0,0
203,-13,0,0,0,0,0,0,0,0,0,-1,1427,1037,0,0
210,-13,0,0,0,0,0,0,0,0,0,-1,1434,1037,0,0
217,-13,0,0,0,0,0,0,0,0,0,-1,1441,1037,0,0
224,-13,0,0,0,0,0,0,0,0,0,-1,1448,1037,0,0
231,-13,0,0,0,0,0,0,0,0,0,-1,1455,1037,0,0
238,-13,0,0,0,0,0,0,0,0,0,-1,1462,1037,0,0
245,-13,0,0,0,0,0,0,0,0,0,-1,1469,1037,0,0
252,-13,0,0,0,0,0,0,0,0,0,-1,1476,1037,0,0
259,-13,0,0,0,0,0,0,0,0,0,-1,1483,1037,0,0
266,-13,0,0,0,0,0,0,0,0,0,-1,1490,1037,0,0
273,-13,0,0,0,0,0,0,0,0,0,-1,1497,1037,0,0
280,-13,0,0,0,0,0,0,0,0,0,-1,1504,1037,0,0
287,-13,0,0,0,0,0,0,0,0,0,-1,1511,1037,0,0
294,-13,0,0,0,0,0,0,0,0,0,-1,1518,1037,0,0
301,-13,0,0,0,0,0,0,0,0,0,-1,1525,1037,0,0
308,-13,0,0,0,0,0,0,0,0,0,-1,1532,1037,0,0
315,-13,0,0,0,0,0,0,0,0,0,-1,1539,1037,0,0
322,-13,0,0,0,0,0,0,0,0,0,-1,1546,1037,0,0
329,-13,0,0,0,0,0,0,0,0,0,-1,1553,1037,0,0
336,-13,0,0,0,0,0,0,0,0,0,-1,1560,1037,0,0
343,-13,0,0,0,0,0,0,0,0,0,-1,1567,1037,0,0
350,-13,0,0,0,0,0,0,0,0,0,-1,1574,1037,0,0
357,-13,0,0,0,0,0,0,0,0,0,-1,1581,1037,0,0
364,-13,0,0,0,0,0,0,0,0,0,-1,1588,1037,0,0
371,-13,0,0,0,0,0,0,0,0,0,-1,1595,1037,0,0
378,-13,0,0,0,0,0,0,0,0,0,-1,1602,1037,0,0
385,-13,0,0,0,0,0,0,0,0,0,-1,1609,1037,0,0
392,-13,0,0,0,0,0,0,0,0,0,-1,1616,1037,0,0
399,-13,0,0,0,0,0,0,0,0,0,-1,1623,1037,0,0
406,-13,0,0,0,0,0,0,0,0,0,-1,1630,1037,0,0
413,-13,0,0,0,0,0,0,0,0,0,-1,1637,1037,0,0
420,-13,0,0,0,0,0,0,0,0,0,-1,1644,1037,0,0
427,-13,0,0,0,0,0,0,0,0,0,-1,1651,1037,0,0
434,-13,0,0,0,0,0,0,0,0,0,-1,1658,1037,0,0
441,-13,0,0,0,0,0,0,0,0,0,-1,1665,1037,0,0
448,-13,0,0,0,0,0,0,0,0,0,-1,1672,1037,0,0
455,-13,0,0,0,0,0,0,0,0,0,-1,1679,1037,0,0
462,-13,0,0,0,0,0,0,0,0,0,-1,1686,1037,0,0
469,-13,0,0,0,0,0,0,0,0,0,-1,1693,1037,0,0
476,-13,0,0,0,0,0,0,0,0,0,-1,1700,1037,0,0
483,-13,0,0,0,0,0,0,0,0,0,-1,1707,1037,0,0
490,-13,0,0,0,0,0,0,0,0,0,-1,1714,1037,0,0
497,-13,0,0,0,0,0,0,0,0,0,-1,1721,1037,0,0
504,-13,0,0,0,0,0,0,0,0,0,-1,1728,1037,0,0
511,-13,0,0,0,0,0,0,0,0,0,-1,1735,1037,0,0
518,-13,0,0,0,0,0,0,0,0,0,-1,1742,1037,0,0
525,-13,0,0,0,0,0,0,0,0,0,-1,1749,1037,0,0
532,-13,0,0,0,0,0,0,0,0,0,-1,1756,1037,0,0
539,-13,0,0,0,0,0,0,0,0,0,-1,1763,1037,0,0
546,-13,0,0,0,0,0,0,0,0,0,-1,1770,1037,0,0
553,-13,0,0,0,0,0,0,0,0,0,-1,1777,1037,0,0
560,-13,0,0,0,0,0,0,0,0,0,-1,1784,1037,0,0
567,-13,0,0,0,0,0,0,0,0,0,-1,1791,1037,0,0
574,-13,0,0,0,0,0,0,0,0,0,-1,1798,1037,0,0
581,-13,0,0,0,0,0,0,0,0,0,-1,1805,1037,0,0
588,-13,0,0,0,0,0,0,0,0,0,-1,1812,1037,0,0
595,-13,0,0,0,0,0,0,0,0,0,-1,1819,1037,0,0
602,-13,0,0,0,0,0,0,0,0,0,-1,1826,1037,0,0
609,-13,0,0,0,0,0,0,0,0,0,-1,1833,1037,0,0
616,-13,0,0,0,0,0,0,0,0,0,-1,1840,1037,0,0
623,-13,0,0,0,0,0,0,0,0,0,-1,1847,1037,0,0
630,-13,0,0,0,0,0,0,0,0,0,-1,1854,1037,0,0
637,-13,0,0,0,0,0,0,0,0,0,-1,1861,1037,0,0
644,-13,0,0,0,0,0,0,0,0,0,-1,1868,1037,0,0
651,-13,11.9038,1.71179,-0.0072773,0.00373663,0.00140946,0.00391414,-0.00745481,1.44551,0.00666913,0.0386433,1875,1037,11.9038,-1.71175
658,-13,11.6213,1.68457,-0.0052855,0.00248189,0.00113195,0.00264349,-0.00544709,1.42899,0.00476367,0.0409811,1882,1037,11.6213,-1.68461
665,-13,11.6509,1.8634,-0.00378869,0.00161636,0.000979268,0.00178831,-0.00396064,1.39698,0.00339723,0.0414627,1889,1037,11.6508,-1.86346
672,-13,11.7994,1.73096,-0.0026726,0.000972297,0.00112747,0.00129286,-0.00299317,1.29378,0.00253862,0.0381523,1896,1037,11.7994,-1.73099
679,-13,11.7456,1.63794,-0.00225808,0.00048639,0.00159293,0.00121664,-0.00298833,1.14095,0.00249854,0.0370989,1903,1037,11.7456,-1.63795
686,-13,11.7186,1.54028,-0.00220744,0.000126712,0.0021133,0.00137378,-0.00345451,1.03768,0.0028726,0.0383999,1910,1037,11.7186,-1.54022
693,-13,11.7273,1.53711,-0.00231733,-0.000134002,0.00260086,0.00159501,-0.00404634,0.984098,0.00335797,0.0389809,1917,1037,11.7273,-1.5371
700,-13,11.7893,1.61731,-0.00254022,-0.000386425,0.00299799,0.00172221,-0.00464885,0.957825,0.0038055,0.0375047,1924,1037,11.7894,-1.61732
707,-13,11.7775,1.69495,-0.00261988,-0.000471593,0.00329266,0.0019177,-0.00500917,0.943068,0.00412986,0.0306455,1931,1037,11.7775,-1.69492
714,-13,11.7518,1.79663,-0.00283708,-0.000522506,0.00345964,0.00196828,-0.00532786,0.946803,0.00435874,0.0279314,1938,1037,11.7518,-1.79669
721,-13,11.7257,1.8844,-0.00313725,-0.000487227,0.0034876,0.00191858,-0.00554306,0.966937,0.00447418,0.0310104,1945,1037,11.7257,-1.88443
728,-13,11.6344,2.1366,-0.00331683,-0.000368146,0.00342987,0.00189083,-0.00557581,0.988385,0.00448245,0.0241883,1952,1037,11.6344,-2.13654
735,-13,11.5347,2.17078,-0.00333079,-0.000212653,0.00325741,0.00183957,-0.00538301,1.0086,0.00433401,0.0175363,1959,1037,11.5347,-2.17078
742,-13,11.509,2.18384,-0.00336026,-3.67873e-05,0.00299263,0.00172451,-0.00512156,1.03884,0.00411158,0.0101781,1966,1037,11.509,-2.18389
749,-13,11.524,2.16431,-0.00305474,0.000527995,0.00272123,0.00199456,-0.0045213,1.07649,0.00385506,0.0148928,1973,1037,11.5241,-2.16433
756,-13,11.5421,2.17529,-0.0020978,0.000901102,0.00253621,0.00234796,-0.00354465,1.05237,0.00342541,0.011994,1980,1037,11.5421,-2.17534
763,-13,11.5448,2.198,-0.000462885,0.00205226,0.00188063,0.00305705,-0.00146767,1.0801,0.00266553,0.011684,1987,1037,11.5447,-2.19795
770,-13,11.5406,2.2074,0.00111983,0.00316927,0.00149114,0.00395384,0.000335254,1.08644,0.00253156,0.0113752,1994,1037,11.5406,-2.20739
777,-13,11.5232,2.20496,0.0034199,0.00465092,0.00111794,0.00531159,0.00275923,1.03704,0.00306742,0.0122374,2001,1037,11.5232,-2.20498
784,-13,11.5417,2.19446,0.00637749,0.0065952,0.000814228,0.00730782,0.00566487,0.851851,0.00442705,0.0268563,2008,1037,11.5417,-2.19452
791,-13,11.6173,2.33386,0.0103716,0.0091538,0.000289465,0.0104369,0.0090885,0.221882,0.00655486,0.0417881,2015,1037,11.6173,-2.33386
798,-13,11.6649,2.5708,0.0161309,0.0125219,-0.000816041,0.0163069,0.012346,-0.212352,0.00982091,0.0437942,2022,1037,11.6649,-2.57085
805,-13,11.722,2.73413,0.0242466,0.0169746,-0.00284238,0.0252257,0.0159954,-0.33175,0.0147376,0.0408941,2029,1037,11.722,-2.73414
812,-13,11.7625,2.97937,0,0,0,0,0,0,0,-1,2036,1037,11.7624,-2.97933
-700,-20,-4.11316,3.98035,0,0,0,0,0,0,0,-1,524,1044,-4.11315,-3.98037
-693,-20,-5.32019,3.35962,0,0,0,0,0,0,0,-1,531,1044,-5.32017,-3.35963
-686,-20,-5.42078,3.24158,0.00470581,-0.0180082,-0.00951396,0.00816424,-0.0214666,-0.34866,0.0176727,0.0442084,538,1044,-5.42079,-3.24155
-679,-20,-5.58728,3.02771,0.004399,-0.0105178,-0.00882936,0.00849851,-0.0146173,-0.434686,0.0135009,0.0462407,545,1044,-5.58728,-3.02771
-672,-20,-5.44604,1.521,0,0,0,0,0,0,0,-1,552,1044,-5.44607,-1.52096
-665,-20,-5.98999,1.09631,0,0,0,0,0,0,0,-1,559,1044,-5.98998,-1.09627
-658,-20,-6.27063,0.839233,0.00191688,0.000439538,-0.00506563,0.00629741,-0.00394099,-0.712998,0.0059631,0.0461222,566,1044,-6.27063,-0.839294
-651,-20,-5.98193,0.834961,0.00117094,0.00160457,-0.0038613,0.00525514,-0.00247963,-0.813444,0.0045605,0.0411673,573,1044,-5.98193,-0.834949
-644,-20,-5.91156,0.827515,0.00100055,0.00234297,-0.0033579,0.00509609,-0.00175257,-0.884043,0.00410814,0.0262648,580,1044,-5.91157,-0.827461
-637,-20,-5.92084,0.848999,0.000262645,0.00291389,-0.00252125,0.00443678,-0.00126024,-1.02743,0.0034554,0.015961,587,1044,-5.92083,-0.84905
-630,-20,-5.92224,0.874146,-0.000492711,0.00298573,-0.00180074,0.00375002,-0.00125699,-1.16941,0.00300787,0.0127485,594,1044,-5.92224,-0.874197
-623,-20,-5.92139,0.886597,-0.00085484,0.00127585,-0.00167504,0.00219563,-0.00177462,-1.06864,0.00229652,0.0122356,601,1044,-5.92141,-0.886593
-616,-20,-5.9256,0.893311,-0.000547126,0.000579826,-0.00177725,0.00188079,-0.00184809,-0.93891,0.0021529,0.012134,608,1044,-5.9256,-0.893299
-609,-20,-5.92737,0.889771,-0.000111338,0.000100484,-0.00215348,0.00215066,-0.00216151,-0.809969,0.00248964,0.0138746,615,1044,-5.92737,-0.889821
-602,-20,-5.92474,0.88916,-2.72639e-05,-0.000230952,-0.00239992,0.00227297,-0.00253119,-0.764193,0.00277502,0.010046,622,1044,-5.92474,-0.889215
-595,-20,-5.92291,0.888794,-0.000134707,-0.000485553,-0.00251068,0.00220667,-0.00282693,-0.75052,0.0029135,0.0100469,629,1044,-5.92292,-0.888809
-588,-20,-5.92853,0.750732,-0.000285289,-0.000610898,-0.00248534,0.00204258,-0.00293877,-0.752692,0.00289145,0.0144813,636,1044,-5.92855,-0.75073
-581,-20,-5.91504,0.672119,-0.000575025,-0.00067338,-0.00238194,0.00175824,-0.00300665,-0.775077,0.00278231,0.0235347,643,1044,-5.91506,-0.672145
-574,-20,-6.00641,0.737549,-0.000904922,-0.000625258,-0.00208688,0.00132647,-0.00285665,-0.818851,0.00246839,0.038095,650,1044,-6.00643,-0.737536
-567,-20,-6.05487,0.743652,-0.00147068,-0.000544559,-0.0015336,0.00059436,-0.0026096,-0.932019,0.001968,0.0436829,657,1044,-6.05489,-0.743656
-560,-20,-5.97272,0.591553,-0.00231398,-0.000406354,-0.000718169,-0.000166213,-0.00255412,-1.2481,0.00165013,0.0421522,664,1044,-5.97272,-0.591528
-553,-20,-5.72577,0.55249,-0.00352439,-0.000212819,0.000350404,-0.000176148,-0.00356106,1.46652,0.00231756,0.0417318,671,1044,-5.72579,-0.552467
-546,-20,-5.76422,0.531494,-0.00521579,4.40734e-05,0.00164825,0.000517893,-0.00568961,1.29088,0.00397696,0.0424156,678,1044,-5.76423,-0.53153
-539,-20,-5.8714,0.641479,-0.00744149,0.000341141,0.00296662,0.001343,-0.00844335,1.24511,0.00612584,0.0426411,685,1044,-5.87142,-0.641524
-532,-20,-5.92957,0.650879,-0.0103769,0.00068347,0.00390781,0.00192484,-0.0116183,1.26321,0.00846042,0.0420188,692,1044,-5.92959,-0.65091
-525,-20,0,0,0,0,0,0,0,0,0,-1,699,1044,0,0
-518,-20,0,0,0,0,0,0,0,0,0,-1,706,1044,0,0
-511,-20,0,0,0,0,0,0,0,0,0,-1,713,1044,0,0
-504,-20,0,0,0,0,0,0,0,0,0,-1,720,1044,0,0
-497,-20,0,0,0,0,0,0,0,0,0,-1,727,1044,0,0
-490,-20,0,0,0,0,0,0,0,0,0,-1,734,1044,0,0
-483,-20,0,0,0,0,0,0,0,0,0,-1,741,1044,0,0
-476,-20,0,0,0,0,0,0,0,0,0,-1,748,1044,0,0
-469,-20,0,0,0,0,0,0,0,0,0,-1,755,1044,0,0
-462,-20,0,0,0,0,0,0,0,0,0,-1,762,1044,0,0
-455,-20,0,0,0,0,0,0,0,0,0,-1,769,1044,0,0
-448,-20,0,0,0,0,0,0,0,0,0,-1,776,1044,0,0
-441,-20,0,0,0,0,0,0,0,0,0,-1,783,1044,0,0
-434,-20,0,0,0,0,0,0,0,0,0,-1,790,1044,0,0
-427,-20,0,0,0,0,0,0,0,0,0,-1,797,1044,0,0
-420,-20,0,0,0,0,0,0,0,0,0,-1,804,1044,0,0
-413,-20,0,0,0,0,0,0,0,0,0,-1,811,1044,0,0
-406,-20,0,0,0,0,0,0,0,0,0,-1,818,1044,0,0
-399,-20,0,0,0,0,0,0,0,0,0,-1,825,1044,0,0
-392,-20,0,0,0,0,0,0,0,0,0,-1,832,1044,0,0
-385,-20,0,0,0,0,0,0,0,0,0,-1,839,1044,0,0
-378,-20,0,0,0,0,0,0,0,0,0,-1,846,1044,0,0
-371,-20,0,0,0,0,0,0,0,0,0,-1,853,1044,0,0
-364,-20,0,0,0,0,0,0,0,0,0,-1,860,1044,0,0
-357,-20,0,0,0,0,0,0,0,0,0,-1,867,1044,0,0
-350,-20,0,0,0,0,0,0,0,0,0,-1,874,1044,0,0
-343,-20,0,0,0,0,0,0,0,0,0,-1,881,1044,0,0
-336,-20,0,0,0,0,0,0,0,0,0,-1,888,1044,0,0
-329,-20,0,0,0,0,0,0,0,0,0,-1,895,1044,0,0
-322,-20,0,0,0,0,0,0,0,0,0,-1,902,1044,0,0
-315,-20,0,0,0,0,0,0,0,0,0,-1,909,1044,0,0
-308,-20,0,0,0,0,0,0,0,0,0,-1,916,1044,0,0
-301,-20,0,0,0,0,0,0,0,0,0,-1,923,1044,0,0
-294,-20,0,0,0,0,0,0,0,0,0,-1,930,1044,0,0
-287,-20,0,0,0,0,0,0,0,0,0,-1,937,1044,0,0
-280,-20,0,0,0,0,0,0,0,0,0,-1,944,1044,0,0
-273,-20,0,0,0,0,0,0,0,0,0,-1,951,1044,0,0
-266,-20,0,0,0,0,0,0,0,0,0,-1,958,1044,0,0
-259,-20,0,0,0,0,0,0,0,0,0,-1,965,1044,0,0
-252,-20,0,0,0,0,0,0,0,0,0,-1,972,1044,0,0
-245,-20,0,0,0,0,0,0,0,0,0,-1,979,1044,0,0
-238,-20,0,0,0,0,0,0,0,0,0,-1,986,1044,0,0
-231,-20,0,0,0,0,0,0,0,0,0,-1,993,1044,0,0
-224,-20,0,0,0,0,0,0,0,0,0,-1,1000,1044,0,0
-217,-20,0,0,0,0,0,0,0,0,0,-1,1007,1044,0,0
-210,-20,0,0,0,0,0,0,0,0,0,-1,1014,1044,0,0
-203,-20,0,0,0,0,0,0,0,0,0,-1,1021,1044,0,0
-196,-20,0,0,0,0,0,0,0,0,0,-1,1028,1044,0,0
-189,-20,0,0,0,0,0,0,0,0,0,-1,1035,1044,0,0
-182,-20,0,0,0,0,0,0,0,0,0,-1,1042,1044,0,0
-175,-20,0,0,0,0,0,0,0,0,0,-1,1049,1044,0,0
-168,-20,0,0,0,0,0,0,0,0,0,-1,1056,1044,0,0
-161,-20,0,0,0,0,0,0,0,0,0,-1,1063,1044,0,0
-154,-20,0,0,0,0,0,0,0,0,0,-1,1070,1044,0,0
-147,-20,0,0,0,0,0,0,0,0,0,-1,1077,1044,0,0
-140,-20,0,0,0,0,0,0,0,0,0,-1,1084,1044,0,0
-133,-20,0,0,0,0,0,0,0,0,0,-1,1091,1044,0,0
-126,-20,0,0,0,0,0,0,0,0,0,-1,1098,1044,0,0
-119,-20,0,0,0,0,0,0,0,0,0,-1,1105,1044,0,0
-112,-20,0,0,0,0,0,0,0,0,0,-1,1112,1044,0,0
-105,-20,0,0,0,0,0,0,0,0,0,-1,1119,1044,0,0
-98,-20,0,0,0,0,0,0,0,0,0,-1,1126,1044,0,0
-91,-20,0,0,0,0,0,0,0,0,0,-1,1133,1044,0,0
-84,-20,0,0,0,0,0,0,0,0,0,-1,1140,1044,0,0
-77,-20,0,0,0,0,0,0,0,0,0,-1,1147,1044,0,0
-70,-20,0,0,0,0,0,0,0,0,0,-1,1154,1044,0,0
-63,-20,0,0,0,0,0,0,0,0,0,-1,1161,1044,0,0
-56,-20,0,0,0,0,0,0,0,0,0,-1,1168,1044,0,0
-49,-20,0,0,0,0,0,0,0,0,0,-1,1175,1044,0,0
-42,-20,0,0,0,0,0,0,0,0,0,-1,1182,1044,0,0
-35,-20,0,0,0,0,0,0,0,0,0,-1,1189,1044,0,0
-28,-20,0,0,0,0,0,0,0,0,0,-1,1196,1044,0,0
-21,-20,0,0,0,0,0,0,0,0,0,-1,1203,1044,0,0
-14,-20,0,0,0,0,0,0,0,0,0,-1,1210,1044,0,0
-7,-20,0,0,0,0,0,0,0,0,0,-1,1217,1044,0,0
0,-20,0,0,0,0,0,0,0,0,0,-1,1224,1044,0,0
7,-20,0,0,0,0,0,0,0,0,0,-1,1231,1044,0,0
14,-20,0,0,0,0,0,0,0,0,0,-1,1238,1044,0,0
21,-20,0,0,0,0,0,0,0,0,0,-1,1245,1044,0,0
28,-20,0,0,0,0,0,0,0,0,0,-1,1252,1044,0,0
35,-20,0,0,0,0,0,0,0,0,0,-1,1259,1044,0,0
42,-20,0,0,0,0,0,0,0,0,0,-1,1266,1044,0,0
49,-20,0,0,0,0,0,0,0,0,0,-1,1273,1044,0,0
56,-20,0,0,0,0,0,0,0,0,0,-1,1280,1044,0,0
63,-20,0,0,0,0,0,0,0,0,0,-1,1287,1044,0,0
70,-20,0,0,0,0,0,0,0,0,0,-1,1294,1044,0,0
77,-20,0,0,0,0,0,0,0,0,0,-1,1301,1044,0,0
84,-20,0,0,0,0,0,0,0,0,0,-1,1308,1044,0,0
91,-20,0,0,0,0,0,0,0,0,0,-1,1315,1044,0,0
98,-20,0,0,0,0,0,0,0,0,0,-1,1322,1044,0,0
105,-20,0,0,0,0,0,0,0,0,0,-1,1329,1044,0,0
112,-20,0,0,0,0,0,0,0,0,0,-1,1336,1044,0,0
119,-20,0,0,0,0,0,0,0,0,0,-1,1343,1044,0,0
126,-20,0,0,0,0,0,0,0,0,0,-1,1350,1044,0,0
133,-20,0,0,0,0,0,0,0,0,0,-1,1357,1044,0,0
140,-20,0,0,0,0,0,0,0,0,0,-1,1364,1044,0,0
147,-20,0,0,0,0,0,0,0,0,0,-1,1371,1044,0,0
154,-20,0,0,0,0,0,0,0,0,0,-1,1378,1044,0,0
161,-20,0,0,0,0,0,0,0,0,0,-1,1385,1044,0,0
168,-20,0,0,0,0,0,0,0,0,0,-1,1392,1044,0,0
175,-20,0,0,0,0,0,0,0,0,0,-1,1399,1044,0,0
182,-20,0,0,0,0,0,0,0,0,0,-1,1406,1044,0,0
189,-20,0,0,0,0,0,0,0,0,0,-1,1413,1044,0,0
196,-20,0,0,0,0,0,0,0,0,0,-1,1420,1044,0,0
203,-20,0,0,0,0,0,0,0,0,0,-1,1427,1044,0,0
210,-20,0,0,0,0,0,0,0,0,0,-1,1434,1044,0,0
217,-20,0,0,0,0,0,0,0,0,0,-1,1441,1044,0,0
224,-20,0,0,0,0,0,0,0,0,0,-1,1448,1044,0,0
231,-20,0,0,0,0,0,0,0,0,0,-1,1455,1044,0,0
238,-20,0,0,0,0,0,0,0,0,0,-1,1462,1044,0,0
245,-20,0,0,0,0,0,0,0,0,0,-1,1469,1044,0,0
252,-20,0,0,0,0,0,0,0,0,0,-1,1476,1044,0,0
259,-20,0,0,0,0,0,0,0,0,0,-1,1483,1044,0,0
266,-20,0,0,0,0,0,0,0,0,0,-1,1490,1044,0,0
273,-20,0,0,0,0,0,0,0,0,0,-1,1497,1044,0,0
280,-20,0,0,0,0,0,0,0,0,0,-1,1504,1044,0,0
287,-20,0,0,0,0,0,0,0,0,0,-1,1511,1044,0,0
294,-20,0,0,0,0,0,0,0,0,0,-1,1518,1044,0,0
301,-20,0,0,0,0,0,0,0,0,0,-1,1525,1044,0,0
308,-20,0,0,0,0,0,0,0,0,0,-1,1532,1044,0,0
315,-20,0,0,0,0,0,0,0,0,0,-1,1539,1044,0,0
322,-20,0,0,0,0,0,0,0,0,0,-1,1546,1044,0,0
329,-20,0,0,0,0,0,0,0,0,0,-1,1553,1044,0,0
336,-20,0,0,0,0,0,0,0,0,0,-1,1560,1044,0,0
343,-20,0,0,0,0,0,0,0,0,0,-1,1567,1044,0,0
350,-20,0,0,0,0,0,0,0,0,0,-1,1574,1044,0,0
357,-20,0,0,0,0,0,0,0,0,0,-1,1581,1044,0,0
364,-20,0,0,0,0,0,0,0,0,0,-1,1588,1044,0,0
371,-20,0,0,0,0,0,0,0,0,0,-1,1595,1044,0,0
378,-20,0,0,0,0,0,0,0,0,0,-1,1602,1044,0,0
385,-20,0,0,0,0,0,0,0,0,0,-1,1609,1044,0,0
392,-20,0,0,0,0,0,0,0,0,0,-1,1616,1044,0,0
399,-20,0,0,0,0,0,0,0,0,0,-1,1623,1044,0,0
406,-20,0,0,0,0,0,0,0,0,0,-1,1630,1044,0,0
413,-20,0,0,0,0,0,0,0,0,0,-1,1637,1044,0,0
420,-20,0,0,0,0,0,0,0,0,0,-1,1644,1044,0,0
427,-20,0,0,0,0,0,0,0,0,0,-1,1651,1044,0,0
434,-20,0,0,0,0,0,0,0,0,0,-1,1658,1044,0,0
441,-20,0,0,0,0,0,0,0,0,0,-1,1665,1044,0,0
448,-20,0,0,0,0,0,0,0,0,0,-1,1672,1044,0,0
455,-20,0,0,0,0,0,0,0,0,0,-1,1679,1044,0,0
462,-20,0,0,0,0,0,0,0,0,0,-1,1686,1044,0,0
469,-20,0,0,0,0,0,0,0,0,0,-1,1693,1044,0,0
476,-20,0,0,0,0,0,0,0,0,0,-1,1700,1044,0,0
483,-20,0,0,0,0,0,0,0,0,0,-1,1707,1044,0,0
490,-20,0,0,0,0,0,0,0,0,0,-1,1714,1044,0,0
497,-20,0,0,0,0,0,0,0,0,0,-1,1721,1044,0,0
504,-20,0,0,0,0,0,0,0,0,0,-1,1728,1044,0,0
511,-20,0,0,0,0,0,0,0,0,0,-1,1735,1044,0,0
518,-20,0,0,0,0,0,0,0,0,0,-1,1742,1044,0,0
525,-20,0,0,0,0,0,0,0,0,0,-1,1749,1044,0,0
532,-20,0,0,0,0,0,0,0,0,0,-1,1756,1044,0,0
539,-20,0,0,0,0,0,0,0,0,0,-1,1763,1044,0,0
546,-20,0,0,0,0,0,0,0,0,0,-1,1770,1044,0,0
553,-20,0,0,0,0,0,0,0,0,0,-1,1777,1044,0,0
560,-20,0,0,0,0,0,0,0,0,0,-1,1784,1044,0,0
567,-20,0,0,0,0,0,0,0,0,0,-1,1791,1044,0,0
574,-20,0,0,0,0,0,0,0,0,0,-1,1798,1044,0,0
581,-20,0,0,0,0,0,0,0,0,0,-1,1805,1044,0,0
588,-20,0,0,0,0,0,0,0,0,0,-1,1812,1044,0,0
595,-20,0,0,0,0,0,0,0,0,0,-1,1819,1044,0,0
602,-20,0,0,0,0,0,0,0,0,0,-1,1826,1044,0,0
609,-20,0,0,0,0,0,0,0,0,0,-1,1833,1044,0,0
616,-20,0,0,0,0,0,0,0,0,0,-1,1840,1044,0,0
623,-20,0,0,0,0,0,0,0,0,0,-1,1847,1044,0,0
630,-20,0,0,0,0,0,0,0,0,0,-1,1854,1044,0,0
637,-20,0,0,0,0,0,0,0,0,0,-1,1861,1044,0,0
644,-20,0,0,0,0,0,0,0,0,0,-1,1868,1044,0,0
651,-20,11.842,1.56152,-0.0077711,0.00301119,0.00133147,0.00317317,-0.00793308,1.44973,0.00660558,0.0397222,1875,1044,11.842,-1.56153
658,-20,11.7343,1.46863,-0.00569455,0.0021378,0.00104426,0.00227463,-0.00583139,1.4405,0.00482785,0.04197,1882,1044,11.7343,-1.46864
665,-20,11.7203,1.59839,-0.00412255,0.0015216,0.000899887,0.00166161,-0.00426255,1.41646,0.00352848,0.038727,1889,1044,11.7204,-1.59836
672,-20,11.756,1.70032,-0.00291215,0.00103172,0.00106198,0.00129951,-0.00317993,1.32379,0.00266108,0.0254796,1896,1044,11.756,-1.70032
679,-20,11.7314,1.65454,-0.00240732,0.000622246,0.00154917,0.00127414,-0.00305922,1.17249,0.00257165,0.0271725,1903,1044,11.7314,-1.65449
686,-20,11.7334,1.62122,-0.0022897,0.000290203,0.00209544,0.00146091,-0.00346041,1.0613,0.00291845,0.0361216,1910,1044,11.7334,-1.62121
693,-20,11.7275,1.58789,-0.00234734,2.6054e-05,0.00260709,0.00170382,-0.0040251,0.998975,0.0033969,0.0410712,1917,1044,11.7275,-1.58786
700,-20,11.7623,1.64209,-0.00253052,-0.000223791,0.00303372,0.00186841,-0.00462272,0.967051,0.00385848,0.0397237,1924,1044,11.7624,-1.64204
707,-20,11.7689,1.7196,-0.00258222,-0.000332475,0.00334922,0.00207573,-0.00499042,0.94741,0.00419374,0.0314293,1931,1044,11.769,-1.71965
714,-20,11.7531,1.75183,-0.00276505,-0.000419317,0.00352801,0.00212568,-0.00531004,0.945873,0.00442229,0.0236314,1938,1044,11.7531,-1.75187
721,-20,11.769,1.85779,-0.00304196,-0.000444184,0.00355839,0.00204497,-0.00553111,0.960395,0.00452578,0.0185046,1945,1044,11.7691,-1.85774
728,-20,11.6439,2.05518,-0.00320911,-0.000368094,0.0034875,0.00197709,-0.0055543,0.978796,0.00450878,0.0167053,1952,1044,11.6439,-2.05515
735,-20,11.5063,2.17383,-0.00324975,-0.000220122,0.00330285,0.00189872,-0.0053686,1.00041,0.00435229,0.0148211,1959,1044,11.5063,-2.17388
742,-20,11.545,2.17957,-0.00335667,-8.83568e-05,0.00307263,0.00175764,-0.00520268,1.0298,0.0041794,0.013004,1966,1044,11.5451,-2.17957
749,-20,11.5588,2.15417,-0.00311745,0.000423319,0.00279283,0.00195962,-0.00465375,1.06789,0.00392242,0.0148086,1973,1044,11.5588,-2.15413
756,-20,11.564,2.17175,-0.00228246,0.00080439,0.00257208,0.00226059,-0.00373866,1.05563,0.00349854,0.011765,1980,1044,11.564,-2.17177
763,-20,11.552,2.17957,-0.000867361,0.00182307,0.00195623,0.00285198,-0.00189627,1.0866,0.00275985,0.0132558,1987,1044,11.552,-2.17955
770,-20,11.55,2.19995,0.000488236,0.00284773,0.00159747,0.00365386,-0.000317896,1.10345,0.00254849,0.0130148,1994,1044,11.55,-2.19989
777,-20,11.5106,2.22388,0.00248884,0.00420543,0.00129979,0.00490473,0.00178954,1.0772,0.00286602,0.0121911,2001,1044,11.5106,-2.22385
784,-20,11.5283,2.25122,0.00506497,0.00597318,0.00112244,0.00672989,0.00430825,0.977618,0.00393607,0.0175705,2008,1044,11.5283,-2.25122
791,-20,11.5155,2.29187,0.0086022,0.00829417,0.000774282,0.00923763,0.00765873,0.687224,0.00570542,0.0351784,2015,1044,11.5155,-2.29189
798,-20,11.262,2.16052,0,0,0,0,0,0,0,-1,2022,1044,11.262,-2.16058
805,-20,11.7626,3.2019,0,0,0,0,0,0,0,-1,2029,1044,11.7626,-3.20188
812,-20,11.6954,3.38611,0,0,0,0,0,0,0,-1,2036,1044,11.6954,-3.38613
-700,-27,-4.55933,3.93396,0.00776558,-0.0396522,-0.000583815,0.00777277,-0.0396594,-0.0123097,0.0293753,0.0461157,524,1051,-4.55931,-3.93394
-693,-27,-5.2373,3.89026,0.00934421,-0.0250712,-0.00357743,0.00971215,-0.0254392,-0.102489,0.0209608,0.0434508,531,1051,-5.2373,-3.89021
-686,-27,-5.52368,3.80005,0.00916737,-0.014981,-0.00469804,0.0100492,-0.0158628,-0.185537,0.0150853,0.0417981,538,1051,-5.52367,-3.80008
-679,-27,-5.66571,3.58081,0.00814667,-0.00793569,-0.00480807,0.00947448,-0.0092635,-0.269448,0.0108186,0.0457725,545,1051,-5.66572,-3.58082
-672,-27,-6.36438,-0.359985,0,0,0,0,0,0,0,-1,552,1051,-6.36441,0.359994
-665,-27,-6.05286,0.261963,0.00536916,-3.53924e-05,-0.0036419,0.00720183,-0.00186806,-0.466219,0.0055301,0.0454573,559,1051,-6.05287,-0.262002
-658,-27,-6.06665,0.778931,0.00402756,0.00176001,-0.00284568,0.00595701,-0.000169437,-0.595827,0.00402901,0.0446353,566,1051,-6.06666,-0.778886
-651,-27,-5.96881,0.820557,0.00286393,0.00258123,-0.00209682,0.00482415,0.000621006,-0.751743,0.00303039,0.0340767,573,1051,-5.96884,-0.820569
-644,-27,-5.90637,0.854736,0.0023518,0.0031049,-0.00200588,0.00476927,0.000687438,-0.878181,0.00297694,0.0160445,580,1051,-5.90635,-0.854698
-637,-27,-5.91486,0.821655,0.00124988,0.00343685,-0.00156784,0.00425487,0.000431863,-1.0899,0.00270415,0.0124551,587,1051,-5.91484,-0.821699
-630,-27,-5.91351,0.864502,0.000147911,0.00338387,-0.00113636,0.00374305,-0.000211271,-1.26465,0.00256869,0.0157998,594,1051,-5.91349,-0.864553
-623,-27,-5.91687,0.885986,-0.000446981,0.00122353,-0.00121962,0.00186649,-0.00108994,-1.08564,0.00172641,0.0142575,601,1051,-5.91688,-0.885947
-616,-27,-5.90143,0.895752,-0.000218965,0.000590751,-0.00150317,0.00174263,-0.00137085,-0.916944,0.00180184,0.0121144,608,1051,-5.90144,-0.895795
-609,-27,-5.92273,0.907959,9.35085e-05,3.2371e-05,-0.00205153,0.0021147,-0.00198882,-0.777948,0.00236954,0.0127324,615,1051,-5.92273,-0.908004
-602,-27,-5.91406,0.929321,6.42899e-07,-0.0003448,-0.00241963,0.00225371,-0.00259787,-0.749767,0.00280341,0.0115229,622,1051,-5.91405,-0.929351
-595,-27,-5.90204,0.929688,-0.000233342,-0.000679145,-0.00261921,0.00217244,-0.00308493,-0.742949,0.00305054,0.00996936,629,1051,-5.90205,-0.929742
-588,-27,-5.92694,0.777344,-0.000366669,-0.000883848,-0.00265668,0.00204398,-0.0032945,-0.736883,0.00311023,0.0145734,636,1051,-5.92695,-0.777366
-581,-27,-5.92438,0.630981,-0.000570106,-0.00103665,-0.00259574,0.00180282,-0.00340957,-0.740585,0.00305666,0.0204337,643,1051,-5.92436,-0.630935
-574,-27,-5.89313,0.558838,-0.000832747,-0.00116181,-0.00235142,0.0013599,-0.00335445,-0.75047,0.00280185,0.0348134,650,1051,-5.8931,-0.558872
-567,-27,-5.8634,0.551025,-0.0012736,-0.00125865,-0.00185018,0.000584071,-0.00311633,-0.787418,0.00229713,0.0436227,657,1051,-5.86341,-0.550982
-560,-27,-5.83777,0.568726,-0.00191668,-0.00134083,-0.0010926,-0.000498857,-0.00275865,-0.914233,0.00169743,0.0437777,664,1051,-5.83774,-0.568783
-553,-27,-5.79034,0.616333,-0.00283286,-0.00142126,-9.0717e-05,-0.00141546,-0.00283866,-1.50688,0.0016389,0.042514,671,1051,-5.79033,-0.616387
-546,-27,-5.94604,0.413208,-0.00410971,-0.00150983,0.00113307,-0.00108533,-0.00453421,1.21234,0.00273381,0.0455148,678,1051,-5.94604,-0.413247
-539,-27,-5.83289,0.99707,0,0,0,0,0,0,0,-1,685,1051,-5.83291,-0.997017
-532,-27,-5.92072,0.696411,0,0,0,0,0,0,0,-1,692,1051,-5.92073,-0.69642
-525,-27,0,0,0,0,0,0,0,0,0,-1,699,1051,0,0
-518,-27,0,0,0,0,0,0,0,0,0,-1,706,1051,0,0
-511,-27,0,0,0,0,0,0,0,0,0,-1,713,1051,0,0
-504,-27,0,0,0,0,0,0,0,0,0,-1,720,1051,0,0
-497,-27,0,0,0,0,0,0,0,0,0,-1,727,1051,0,0
-490,-27,0,0,0,0,0,0,0,0,0,-1,734,1051,0,0
-483,-27,0,0,0,0,0,0,0,0,0,-1,741,1051,0,0
-476,-27,0,0,0,0,0,0,0,0,0,-1,748,1051,0,0
-469,-27,0,0,0,0,0,0,0,0,0,-1,755,1051,0,0
-462,-27,0,0,0,0,0,0,0,0,0,-1,762,1051,0,0
-455,-27,0,0,0,0,0,0,0,0,0,-1,769,1051,0,0
-448,-27,0,0,0,0,0,0,0,0,0,-1,776,1051,0,0
-441,-27,0,0,0,0,0,0,0,0,0,-1,783,1051,0,0
-434,-27,0,0,0,0,0,0,0,0,0,-1,790,1051,0,0
-427,-27,0,0,0,0,0,0,0,0,0,-1,797,1051,0,0
-420,-27,0,0,0,0,0,0,0,0,0,-1,804,1051,0,0
-413,-27,0,0,0,0,0,0,0,0,0,-1,811,1051,0,0
-406,-27,0,0,0,0,0,0,0,0,0,-1,818,1051,0,0
-399,-27,0,0,0,0,0,0,0,0,0,-1,825,1051,0,0
-392,-27,0,0,0,0,0,0,0,0,0,-1,832,1051,0,0
-385,-27,0,0,0,0,0,0,0,0,0,-1,839,1051,0,0
-378,-27,0,0,0,0,0,0,0,0,0,-1,846,1051,0,0
-371,-27,0,0,0,0,0,0,0,0,0,-1,853,1051,0,0
-364,-27,0,0,0,0,0,0,0,0,0,-1,860,1051,0,0
-357,-27,0,0,0,0,0,0,0,0,0,-1,867,1051,0,0
-350,-27,0,0,0,0,0,0,0,0,0,-1,874,1051,0,0
-343,-27,0,0,0,0,0,0,0,0,0,-1,881,1051,0,0
-336,-27,0,0,0,0,0,0,0,0,0,-1,888,1051,0,0
-329,-27,0,0,0,0,0,0,0,0,0,-1,895,1051,0,0
-322,-27,0,0,0,0,0,0,0,0,0,-1,902,1051,0,0
-315,-27,0,0,0,0,0,0,0,0,0,-1,909,1051,0,0
-308,-27,0,0,0,0,0,0,0,0,0,-1,916,1051,0,0
-301,-27,0,0,0,0,0,0,0,0,0,-1,923,1051,0,0
-294,-27,0,0,0,0,0,0,0,0,0,-1,930,1051,0,0
-287,-27,0,0,0,0,0,0,0,0,0,-1,937,1051,0,0
-280,-27,0,0,0,0,0,0,0,0,0,-1,944,1051,0,0
-273,-27,0,0,0,0,0,0,0,0,0,-1,951,1051,0,0
-266,-27,0,0,0,0,0,0,0,0,0,-1,958,1051,0,0
-259,-27,0,0,0,0,0,0,0,0,0,-1,965,1051,0,0
-252,-27,0,0,0,0,0,0,0,0,0,-1,972,1051,0,0
-245,-27,0,0,0,0,0,0,0,0,0,-1,979,1051,0,0
-238,-27,0,0,0,0,0,0,0,0,0,-1,986,1051,0,0
-231,-27,0,0,0,0,0,0,0,0,0,-1,993,1051,0,0
-224,-27,0,0,0,0,0,0,0,0,0,-1,1000,1051,0,0
-217,-27,0,0,0,0,0,0,0,0,0,-1,1007,1051,0,0
-210,-27,0,0,0,0,0,0,0,0,0,-1,1014,1051,0,0
-203,-27,0,0,0,0,0,0,0,0,0,-1,1021,1051,0,0
-196,-27,0,0,0,0,0,0,0,0,0,-1,1028,1051,0,0
-189,-27,0,0,0,0,0,0,0,0,0,-1,1035,1051,0,0
-182,-27,0,0,0,0,0,0,0,0,0,-1,1042,1051,0,0
-175,-27,0,0,0,0,0,0,0,0,0,-1,1049,1051,0,0
-168,-27,0,0,0,0,0,0,0,0,0,-1,1056,1051,0,0
-161,-27,0,0,0,0,0,0,0,0,0,-1,1063,1051,0,0
-154,-27,0,0,0,0,0,0,0,0,0,-1,1070,1051,0,0
-147,-27,0,0,0,0,0,0,0,0,0,-1,1077,1051,0,0
-140,-27,0,0,0,0,0,0,0,0,0,-1,1084,1051,0,0
-133,-27,0,0,0,0,0,0,0,0,0,-1,1091,1051,0,0
-126,-27,0,0,0,0,0,0,0,0,0,-1,1098,1051,0,0
-119,-27,0,0,0,0,0,0,0,0,0,-1,1105,1051,0,0
-112,-27,0,0,0,0,0,0,0,0,0,-1,1112,1051,0,0
-105,-27,0,0,0,0,0,0,0,0,0,-1,1119,1051,0,0
-98,-27,0,0,0,0,0,0,0,0,0,-1,1126,1051,0,0
-91,-27,0,0,0,0,0,0,0,0,0,-1,1133,1051,0,0
-84,-27,0,0,0,0,0,0,0,0,0,-1,1140,1051,0,0
-77,-27,0,0,0,0,0,0,0,0,0,-1,1147,1051,0,0
-70,-27,0,0,0,0,0,0,0,0,0,-1,1154,1051,0,0
-63,-27,0,0,0,0,0,0,0,0,0,-1,1161,1051,0,0
-56,-27,0,0,0,0,0,0,0,0,0,-1,1168,1051,0,0
-49,-27,0,0,0,0,0,0,0,0,0,-1,1175,1051,0,0
-42,-27,0,0,0,0,0,0,0,0,0,-1,1182,1051,0,0
-35,-27,0,0,0,0,0,0,0,0,0,-1,1189,1051,0,0
-28,-27,0,0,0,0,0,0,0,0,0,-1,1196,1051,0,0
-21,-27,0,0,0,0,0,0,0,0,0,-1,1203,1051,0,0
-14,-27,0,0,0,0,0,0,0,0,0,-1,1210,1051,0,0
-7,-27,0,0,0,0,0,0,0,0,0,-1,1217,1051,0,0
0,-27,0,0,0,0,0,0,0,0,0,-1,1224,1051,0,0
7,-27,0,0,0,0,0,0,0,0,0,-1,1231,1051,0,0
14,-27,0,0,0,0,0,0,0,0,0,-1,1238,1051,0,0
21,-27,0,0,0,0,0,0,0,0,0,-1,1245,1051,0,0
28,-27,0,0,0,0,0,0,0,0,0,-1,1252,1051,0,0
35,-27,0,0,0,0,0,0,0,0,0,-1,1259,1051,0,0
42,-27,0,0,0,0,0,0,0,0,0,-1,1266,1051,0,0
49,-27,0,0,0,0,0,0,0,0,0,-1,1273,1051,0,0
56,-27,0,0,0,0,0,0,0,0,0,-1,1280,1051,0,0
63,-27,0,0,0,0,0,0,0,0,0,-1,1287,1051,0,0
70,-27,0,0,0,0,0,0,0,0,0,-1,1294,1051,0,0
77,-27,0,0,0,0,0,0,0,0,0,-1,1301,1051,0,0
84,-27,0,0,0,0,0,0,0,0,0,-1,1308,1051,0,0
91,-27,0,0,0,0,0,0,0,0,0,-1,1315,1051,0,0
98,-27,0,0,0,0,0,0,0,0,0,-1,1322,1051,0,0
105,-27,0,0,0,0,0,0,0,0,0,-1,1329,1051,0,0
112,-27,0,0,0,0,0,0,0,0,0,-1,1336,1051,0,0
119,-27,0,0,0,0,0,0,0,0,0,-1,1343,1051,0,0
126,-27,0,0,0,0,0,0,0,0,0,-1,1350,1051,0,0
133,-27,0,0,0,0,0,0,0,0,0,-1,1357,1051,0,0
140,-27,0,0,0,0,0,0,0,0,0,-1,1364,1051,0,0
147,-27,0,0,0,0,0,0,0,0,0,-1,1371,1051,0,0
154,-27,0,0,0,0,0,0,0,0,0,-1,1378,1051,0,0
161,-27,0,0,0,0,0,0,0,0,0,-1,1385,1051,0,0
168,-27,0,0,0,0,0,0,0,0,0,-1,1392,1051,0,0
175,-27,0,0,0,0,0,0,0,0,0,-1,1399,1051,0,0
182,-27,0,0,0,0,0,0,0,0,0,-1,1406,1051,0,0
189,-27,0,0,0,0,0,0,0,0,0,-1,1413,1051,0,0
196,-27,0,0,0,0,0,0,0,0,0,-1,1420,1051,0,0
203,-27,0,0,0,0,0,0,0,0,0,-1,1427,1051,0,0
210,-27,0,0,0,0,0,0,0,0,0,-1,1434,1051,0,0
217,-27,0,0,0,0,0,0,0,0,0,-1,1441,1051,0,0
224,-27,0,0,0,0,0,0,0,0,0,-1,1448,1051,0,0
231,-27,0,0,0,0,0,0,0,0,0,-1,1455,1051,0,0
238,-27,0,0,0,0,0,0,0,0,0,-1,1462,1051,0,0
245,-27,0,0,0,0,0,0,0,0,0,-1,1469,1051,0,0
252,-27,0,0,0,0,0,0,0,0,0,-1,1476,1051,0,0
259,-27,0,0,0,0,0,0,0,0,0,-1,1483,1051,0,0
266,-27,0,0,0,0,0,0,0,0,0,-1,1490,1051,0,0
273,-27,0,0,0,0,0,0,0,0,0,-1,1497,1051,0,0
280,-27,0,0,0,0,0,0,0,0,0,-1,1504,1051,0,0
287,-27,0,0,0,0,0,0,0,0,0,-1,1511,1051,0,0
294,-27,0,0,0,0,0,0,0,0,0,-1,1518,1051,0,0
301,-27,0,0,0,0,0,0,0,0,0,-1,1525,1051,0,0
308,-27,0,0,0,0,0,0,0,0,0,-1,1532,1051,0,0
315,-27,0,0,0,0,0,0,0,0,0,-1,1539,1051,0,0
322,-27,0,0,0,0,0,0,0,0,0,-1,1546,1051,0,0
329,-27,0,0,0,0,0,0,0,0,0,-1,1553,1051,0,0
336,-27,0,0,0,0,0,0,0,0,0,-1,1560,1051,0,0
343,-27,0,0,0,0,0,0,0,0,0,-1,1567,1051,0,0
350,-27,0,0,0,0,0,0,0,0,0,-1,1574,1051,0,0
357,-27,0,0,0,0,0,0,0,0,0,-1,1581,1051,0,0
364,-27,0,0,0,0,0,0,0,0,0,-1,1588,1051,0,0
371,-27,0,0,0,0,0,0,0,0,0,-1,1595,1051,0,0
378,-27,0,0,0,0,0,0,0,0,0,-1,1602,1051,0,0
385,-27,0,0,0,0,0,0,0,0,0,-1,1609,1051,0,0
392,-27,0,0,0,0,0,0,0,0,0,-1,1616,1051,0,0
399,-27,0,0,0,0,0,0,0,0,0,-1,1623,1051,0,0
406,-27,0,0,0,0,0,0,0,0,0,-1,1630,1051,0,0
413,-27,0,0,0,0,0,0,0,0,0,-1,1637,1051,0,0
420,-27,0,0,0,0,0,0,0,0,0,-1,1644,1051,0,0
427,-27,0,0,0,0,0,0,0,0,0,-1,1651,1051,0,0
434,-27,0,0,0,0,0,0,0,0,0,-1,1658,1051,0,0
441,-27,0,0,0,0,0,0,0,0,0,-1,1665,1051,0,0
448,-27,0,0,0,0,0,0,0,0,0,-1,1672,1051,0,0
455,-27,0,0,0,0,0,0,0,0,0,-1,1679,1051,0,0
462,-27,0,0,0,0,0,0,0,0,0,-1,1686,1051,0,0
469,-27,0,0,0,0,0,0,0,0,0,-1,1693,1051,0,0
476,-27,0,0,0,0,0,0,0,0,0,-1,1700,1051,0,0
483,-27,0,0,0,0,0,0,0,0,0,-1,1707,1051,0,0
490,-27,0,0,0,0,0,0,0,0,0,-1,1714,1051,0,0
497,-27,0,0,0,0,0,0,0,0,0,-1,1721,1051,0,0
504,-27,0,0,0,0,0,0,0,0,0,-1,1728,1051,0,0
511,-27,0,0,0,0,0,0,0,0,0,-1,1735,1051,0,0
518,-27,0,0,0,0,0,0,0,0,0,-1,1742,1051,0,0
525,-27,0,0,0,0,0,0,0,0,0,-1,1749,1051,0,0
532,-27,0,0,0,0,0,0,0,0,0,-1,1756,1051,0,0
539,-27,0,0,0,0,0,0,0,0,0,-1,1763,1051,0,0
546,-27,0,0,0,0,0,0,0,0,0,-1,1770,1051,0,0
553,-27,0,0,0,0,0,0,0,0,0,-1,1777,1051,0,0
560,-27,0,0,0,0,0,0,0,0,0,-1,1784,1051,0,0
567,-27,0,0,0,0,0,0,0,0,0,-1,1791,1051,0,0
574,-27,0,0,0,0,0,0,0,0,0,-1,1798,1051,0,0
581,-27,0,0,0,0,0,0,0,0,0,-1,1805,1051,0,0
588,-27,0,0,0,0,0,0,0,0,0,-1,1812,1051,0,0
595,-27,0,0,0,0,0,0,0,0,0,-1,1819,1051,0,0
602,-27,0,0,0,0,0,0,0,0,0,-1,1826,1051,0,0
609,-27,0,0,0,0,0,0,0,0,0,-1,1833,1051,0,0
616,-27,0,0,0,0,0,0,0,0,0,-1,1840,1051,0,0
623,-27,0,0,0,0,0,0,0,0,0,-1,1847,1051,0,0
630,-27,0,0,0,0,0,0,0,0,0,-1,1854,1051,0,0
637,-27,0,0,0,0,0,0,0,0,0,-1,1861,1051,0,0
644,-27,0,0,0,0,0,0,0,0,0,-1,1868,1051,0,0
651,-27,11.8881,1.51294,-0.0080363,0.00267212,0.00107393,0.00277876,-0.00814294,1.47182,0.00655426,0.0396838,1875,1051,11.8881,-1.513
658,-27,11.9795,1.422,-0.00591186,0.00198937,0.000859775,0.00208184,-0.00600433,1.46365,0.00484819,0.0408729,1882,1051,11.9795,-1.42205
665,-27,11.9126,1.56055,-0.00429825,0.00147915,0.000784232,0.00158372,-0.00440281,1.43825,0.00358178,0.0375675,1889,1051,11.9126,-1.56051
672,-27,11.7998,1.68677,-0.00304319,0.00104023,0.00100802,0.00127551,-0.00327847,1.34149,0.00271268,0.0289208,1896,1051,11.7998,-1.68672
679,-27,11.6721,1.75562,-0.00250009,0.000635804,0.00155224,0.00127419,-0.00313847,1.18061,0.00262235,0.0287212,1903,1051,11.6721,-1.75567
686,-27,11.6875,1.84656,-0.00235881,0.000289514,0.00214567,0.00148672,-0.00355601,1.06186,0.00299202,0.0384688,1910,1051,11.6875,-1.8466
693,-27,11.7554,1.82251,-0.0023979,2.43645e-06,0.00269417,0.00175167,-0.00414713,0.994938,0.00349803,0.0395758,1917,1051,11.7554,-1.8225
700,-27,11.7405,1.69055,-0.00256255,-0.000255295,0.00315435,0.00194977,-0.00476761,0.960706,0.0039904,0.0376052,1924,1051,11.7405,-1.69052
707,-27,11.6968,1.75647,-0.00260883,-0.000384706,0.00349267,0.00216867,-0.00516221,0.939523,0.00434852,0.023627,1931,1051,11.6968,-1.75647
714,-27,11.7488,1.79431,-0.00277059,-0.00049391,0.00368673,0.00222622,-0.00549072,0.935139,0.00458634,0.0182646,1938,1051,11.7488,-1.79427
721,-27,11.7991,1.89624,-0.00302273,-0.000541106,0.0037121,0.00213207,-0.00569591,0.946691,0.004673,0.0180375,1945,1051,11.7991,-1.89628
728,-27,11.6527,2.07361,-0.00317781,-0.000478199,0.00361175,0.00202774,-0.00568375,0.964225,0.004616,0.0194272,1952,1051,11.6528,-2.07361
735,-27,11.5303,2.17883,-0.00322379,-0.000321228,0.00339795,0.00192239,-0.00546741,0.987224,0.00442712,0.0154609,1959,1051,11.5303,-2.17885
742,-27,11.5521,2.18433,-0.00334541,-0.000207959,0.00317936,0.00176863,-0.00532199,1.01458,0.00426168,0.0150729,1966,1051,11.5522,-2.18437
749,-27,11.5631,2.17273,-0.00312931,0.000271909,0.00288793,0.00192275,-0.00478015,1.05149,0.00398541,0.0111319,1973,1051,11.5632,-2.17271
756,-27,11.5566,2.19507,-0.00248795,0.000693848,0.00264857,0.00219259,-0.00398669,1.05585,0.00361739,0.0111646,1980,1051,11.5567,-2.19513
763,-27,11.5601,2.1842,-0.00147224,0.00157721,0.00211705,0.00266145,-0.00255648,1.09748,0.00301277,0.0129776,1987,1051,11.56,-2.18416
770,-27,11.5422,2.17493,-0.000521942,0.00250681,0.00183067,0.00336829,-0.00138342,1.13096,0.00282206,0.0147716,1994,1051,11.5422,-2.17498
777,-27,11.5193,2.22583,0.000867471,0.00372946,0.00167753,0.00450342,9.3508e-05,1.13853,0.0029716,0.0147936,2001,1051,11.5192,-2.22583
784,-27,11.5017,2.28943,0.00255628,0.00529869,0.00173648,0.00614008,0.0017149,1.1196,0.00365828,0.0238921,2008,1051,11.5017,-2.28939
791,-27,11.3966,2.34973,0.00485053,0.00735533,0.00173158,0.00823995,0.0039659,1.09849,0.00475845,0.0428896,2015,1051,11.3966,-2.34975
798,-27,11.2728,2.26208,0,0,0,0,0,0,0,-1,2022,1051,11.2729,-2.26204
805,-27,11.2029,2.22437,0,0,0,0,0,0,0,-1,2029,1051,11.2029,-2.22433
812,-27,10.8181,0.967407,0,0,0,0,0,0,0,-1,2036,1051,10.8181,-0.967353
-700,-34,-4.95374,3.91223,0.0177787,-0.0334473,0.00643206,0.018574,-0.0342426,0.123018,0.0309377,0.0442293,524,1058,-4.95373,-3.9122
-693,-34,-5.55853,3.87317,0.0175599,-0.0193181,0.00162071,0.017631,-0.0193892,0.0438351,0.0213816,0.0447949,531,1058,-5.55856,-3.87317
-686,-34,-5.34259,4.24146,0.0159308,-0.00989128,-0.000792562,0.0159551,-0.00991558,-0.0306547,0.0150715,0.0440959,538,1058,-5.34262,-4.24148
-679,-34,-5.63684,3.74585,0.0136781,-0.00361369,-0.00185967,0.0138759,-0.00381143,-0.105932,0.0107487,0.0467896,545,1058,-5.63683,-3.74586
-672,-34,-6.16284,-0.0478516,0,0,0,0,0,0,0,-1,552,1058,-6.16285,0.0478119
-665,-34,-6.06427,0.464111,0.0089295,0.00272494,-0.00196096,0.0094973,0.00215714,-0.281845,0.00574901,0.0458786,559,1058,-6.06426,-0.46411
-658,-34,-6.04358,0.858276,0.00680747,0.00382012,-0.00158387,0.00749088,0.00313671,-0.407348,0.00434386,0.0433004,566,1058,-6.0436,-0.858317
-651,-34,-5.83252,0.888184,0.00498665,0.00403788,-0.00115263,0.00575869,0.00326584,-0.590179,0.00333475,0.0257437,573,1058,-5.8325,-0.888223
-644,-34,-5.9082,0.822388,0.0039426,0.00415447,-0.00131944,0.00537222,0.00272486,-0.825457,0.00310176,0.0102083,580,1058,-5.90821,-0.822402
-637,-34,-5.90796,0.817749,0.00233754,0.00408218,-0.00117085,0.00466995,0.00174978,-1.10555,0.00272427,0.0108845,587,1058,-5.90799,-0.817804
-630,-34,-5.92798,0.865723,0.000794161,0.00375338,-0.000928922,0.00402081,0.000526732,-1.29049,0.00252335,0.0134741,594,1058,-5.92798,-0.865704
-623,-34,-5.91565,0.886963,-9.97959e-05,0.00107158,-0.00104189,0.00168112,-0.000709338,-1.04145,0.00141764,0.011463,601,1058,-5.91567,-0.886976
-616,-34,-5.88806,0.90564,8.34941e-06,0.000510406,-0.00138047,0.00166249,-0.00114373,-0.875336,0.00162938,0.0178456,608,1058,-5.88808,-0.905602
-609,-34,-5.89789,0.922119,0.000175538,-2.90913e-05,-0.00197516,0.00205103,-0.00190459,-0.759521,0.0022843,0.0180082,615,1058,-5.89787,-0.922152
-602,-34,-5.91711,0.929443,-4.24759e-05,-0.000424517,-0.00239331,0.00216743,-0.00263442,-0.745575,0.00277672,0.0145184,622,1058,-5.91714,-0.92947
-595,-34,-5.90509,0.953857,-0.00034625,-0.000784215,-0.00263069,0.00207456,-0.00320502,-0.743873,0.00307137,0.0124577,629,1058,-5.90508,-0.95382
-588,-34,-5.91992,0.800171,-0.000452884,-0.00104622,-0.00270003,0.00196673,-0.00346583,-0.73068,0.00317605,0.0183564,636,1058,-5.91993,-0.800202
-581,-34,-5.92188,0.640625,-0.000566025,-0.00123571,-0.00265854,0.00177868,-0.00358041,-0.722754,0.00315182,0.0212275,643,1058,-5.92188,-0.640629
-574,-34,-5.88007,0.522949,-0.000743979,-0.00142776,-0.00243008,0.00136815,-0.00353988,-0.715512,0.00292466,0.0334842,650,1058,-5.88007,-0.522942
-567,-34,-5.85461,0.410156,-0.00103271,-0.00160709,-0.00195596,0.000657037,-0.00329683,-0.712505,0.00244649,0.0390943,657,1058,-5.85463,-0.410133
-560,-34,-5.84009,0.528931,-0.0014373,-0.00178221,-0.00124535,-0.000352524,-0.00286699,-0.716596,0.00180533,0.0401503,664,1058,-5.84007,-0.528887
-553,-34,-5.90509,0.575806,-0.00200334,-0.00195998,-0.000321306,-0.00165962,-0.00230369,-0.819087,0.00137244,0.0443667,671,1058,-5.90511,-0.575793
-546,-34,-6.02155,0.605713,-0.0027838,-0.00213974,0.000786026,-0.00161234,-0.00331121,0.979816,0.00191194,0.0480205,678,1058,-6.02157,-0.60567
-539,-34,-6.00806,0.603027,-0.00379192,-0.00234796,0.00185297,-0.00108129,-0.00505859,0.971168,0.00307598,0.0453159,685,1058,-6.00805,-0.60298
-532,-34,-6.03351,0.75354,-0.00515134,-0.00262016,0.00235722,-0.00121027,-0.00656124,1.03176,0.00403175,0.0429339,692,1058,-6.03352,-0.753589
-525,-34,0,0,0,0,0,0,0,0,0,-1,699,1058,0,0
-518,-34,0,0,0,0,0,0,0,0,0,-1,706,1058,0,0
-511,-34,0,0,0,0,0,0,0,0,0,-1,713,1058,0,0
-504,-34,0,0,0,0,0,0,0,0,0,-1,720,1058,0,0
-497,-34,0,0,0,0,0,0,0,0,0,-1,727,1058,0,0
-490,-34,0,0,0,0,0,0,0,0,0,-1,734,1058,0,0
-483,-34,0,0,0,0,0,0,0,0,0,-1,741,1058,0,0
-476,-34,0,0,0,0,0,0,0,0,0,-1,748,1058,0,0
-469,-34,0,0,0,0,0,0,0,0,0,-1,755,1058,0,0
-462,-34,0,0,0,0,0,0,0,0,0,-1,762,1058,0,0
-455,-34,0,0,0,0,0,0,0,0,0,-1,769,1058,0,0
-448,-34,0,0,0,0,0,0,0,0,0,-1,776,1058,0,0
-441,-34,0,0,0,0,0,0,0,0,0,-1,783,1058,0,0
-434,-34,0,0,0,0,0,0,0,0,0,-1,790,1058,0,0
-427,-34,0,0,0,0,0,0,0,0,0,-1,797,1058,0,0
-420,-34,0,0,0,0,0,0,0,0,0,-1,804,1058,0,0
-413,-34,0,0,0,0,0,0,0,0,0,-1,811,1058,0,0
-406,-34,0,0,0,0,0,0,0,0,0,-1,818,1058,0,0
-399,-34,0,0,0,0,0,0,0,0,0,-1,825,1058,0,0
-392,-34,0,0,0,0,0,0,0,0,0,-1,832,1058,0,0
-385,-34,0,0,0,0,0,0,0,0,0,-1,839,1058,0,0
-378,-34,0,0,0,0,0,0,0,0,0,-1,846,1058,0,0
-371,-34,0,0,0,0,0,0,0,0,0,-1,853,1058,0,0
-364,-34,0,0,0,0,0,0,0,0,0,-1,860,1058,0,0
-357,-34,0,0,0,0,0,0,0,0,0,-1,867,1058,0,0
-350,-34,0,0,0,0,0,0,0,0,0,-1,874,1058,0,0
-343,-34,0,0,0,0,0,0,0,0,0,-1,881,1058,0,0
-336,-34,0,0,0,0,0,0,0,0,0,-1,888,1058,0,0
-329,-34,0,0,0,0,0,0,0,0,0,-1,895,1058,0,0
-322,-34,0,0,0,0,0,0,0,0,0,-1,902,1058,0,0
-315,-34,0,0,0,0,0,0,0,0,0,-1,909,1058,0,0
-308,-34,0,0,0,0,0,0,0,0,0,-1,916,1058,0,0
-301,-34,0,0,0,0,0,0,0,0,0,-1,923,1058,0,0
-294,-34,0,0,0,0,0,0,0,0,0,-1,930,1058,0,0
-287,-34,0,0,0,0,0,0,0,0,0,-1,937,1058,0,0
-280,-34,0,0,0,0,0,0,0,0,0,-1,944,1058,0,0
-273,-34,0,0,0,0,0,0,0,0,0,-1,951,1058,0,0
-266,-34,0,0,0,0,0,0,0,0,0,-1,958,1058,0,0
-259,-34,0,0,0,0,0,0,0,0,0,-1,965,1058,0,0
-252,-34,0,0,0,0,0,0,0,0,0,-1,972,1058,0,0
-245,-34,0,0,0,0,0,0,0,0,0,-1,979,1058,0,0
-238,-34,0,0,0,0,0,0,0,0,0,-1,986,1058,0,0
-231,-34,0,0,0,0,0,0,0,0,0,-1,993,1058,0,0
-224,-34,0,0,0,0,0,0,0,0,0,-1,1000,1058,0,0
-217,-34,0,0,0,0,0,0,0,0,0,-1,1007,1058,0,0
-210,-34,0,0,0,0,0,0,0,0,0,-1,1014,1058,0,0
-203,-34,0,0,0,0,0,0,0,0,0,-1,1021,1058,0,0
-196,-34,0,0,0,0,0,0,0,0,0,-1,1028,1058,0,0
-189,-34,0,0,0,0,0,0,0,0,0,-1,1035,1058,0,0
-182,-34,0,0,0,0,0,0,0,0,0,-1,1042,1058,0,0
-175,-34,0,0,0,0,0,0,0,0,0,-1,1049,1058,0,0
-168,-34,0,0,0,0,0,0,0,0,0,-1,1056,1058,0,0
-161,-34,0,0,0,0,0,0,0,0,0,-1,1063,1058,0,0
-154,-34,0,0,0,0,0,0,0,0,0,-1,1070,1058,0,0
-147,-34,0,0,0,0,0,0,0,0,0,-1,1077,1058,0,0
-140,-34,0,0,0,0,0,0,0,0,0,-1,1084,1058,0,0
-133,-34,0,0,0,0,0,0,0,0,0,-1,1091,1058,0,0
-126,-34,0,0,0,0,0,0,0,0,0,-1,1098,1058,0,0
-119,-34,0,0,0,0,0,0,0,0,0,-1,1105,1058,0,0
-112,-34,0,0,0,0,0,0,0,0,0,-1,1112,1058,0,0
-105,-34,0,0,0,0,0,0,0,0,0,-1,1119,1058,0,0
-98,-34,0,0,0,0,0,0,0,0,0,-1,1126,1058,0,0
-91,-34,0,0,0,0,0,0,0,0,0,-1,1133,1058,0,0
-84,-34,0,0,0,0,0,0,0,0,0,-1,1140,1058,0,0
-77,-34,0,0,0,0,0,0,0,0,0,-1,1147,1058,0,0
-70,-34,0,0,0,0,0,0,0,0,0,-1,1154,1058,0,0
-63,-34,0,0,0,0,0,0,0,0,0,-1,1161,1058,0,0
-56,-34,0,0,0,0,0,0,0,0,0,-1,1168,1058,0,0
-49,-34,0,0,0,0,0,0,0,0,0,-1,1175,1058,0,0
-42,-34,0,0,0,0,0,0,0,0,0,-1,1182,1058,0,0
-35,-34,0,0,0,0,0,0,0,0,0,-1,1189,1058,0,0
-28,-34,0,0,0,0,0,0,0,0,0,-1,1196,1058,0,0
-21,-34,0,0,0,0,0,0,0,0,0,-1,1203,1058,0,0
-14,-34,0,0,0,0,0,0,0,0,0,-1,1210,1058,0,0
-7,-34,0,0,0,0,0,0,0,0,0,-1,1217,1058,0,0
0,-34,0,0,0,0,0,0,0,0,0,-1,1224,1058,0,0
7,-34,0,0,0,0,0,0,0,0,0,-1,1231,1058,0,0
14,-34,0,0,0,0,0,0,0,0,0,-1,1238,1058,0,0
21,-34,0,0,0,0,0,0,0,0,0,-1,1245,1058,0,0
28,-34,0,0,0,0,0,0,0,0,0,-1,1252,1058,0,0
35,-34,0,0,0,0,0,0,0,0,0,-1,1259,1058,0,0
42,-34,0,0,0,0,0,0,0,0,0,-1,1266,1058,0,0
49,-34,0,0,0,0,0,0,0,0,0,-1,1273,1058,0,0
56,-34,0,0,0,0,0,0,0,0,0,-1,1280,1058,0,0
63,-34,0,0,0,0,0,0,0,0,0,-1,1287,1058,0,0
70,-34,0,0,0,0,0,0,0,0,0,-1,1294,1058,0,0
77,-34,0,0,0,0,0,0,0,0,0,-1,1301,1058,0,0
84,-34,0,0,0,0,0,0,0,0,0,-1,1308,1058,0,0
91,-34,0,0,0,0,0,0,0,0,0,-1,1315,1058,0,0
98,-34,0,0,0,0,0,0,0,0,0,-1,1322,1058,0,0
105,-34,0,0,0,0,0,0,0,0,0,-1,1329,1058,0,0
112,-34,0,0,0,0,0,0,0,0,0,-1,1336,1058,0,0
119,-34,0,0,0,0,0,0,0,0,0,-1,1343,1058,0,0
126,-34,0,0,0,0,0,0,0,0,0,-1,1350,1058,0,0
133,-34,0,0,0,0,0,0,0,0,0,-1,1357,1058,0,0
140,-34,0,0,0,0,0,0,0,0,0,-1,1364,1058,0,0
147,-34,0,0,0,0,0,0,0,0,0,-1,1371,1058,0,0
154,-34,0,0,0,0,0,0,0,0,0,-1,1378,1058,0,0
161,-34,0,0,0,0,0,0,0,0,0,-1,1385,1058,0,0
168,-34,0,0,0,0,0,0,0,0,0,-1,1392,1058,0,0
175,-34,0,0,0,0,0,0,0,0,0,-1,1399,1058,0,0
182,-34,0,0,0,0,0,0,0,0,0,-1,1406,1058,0,0
189,-34,0,0,0,0,0,0,0,0,0,-1,1413,1058,0,0
196,-34,0,0,0,0,0,0,0,0,0,-1,1420,1058,0,0
203,-34,0,0,0,0,0,0,0,0,0,-1,1427,1058,0,0
210,-34,0,0,0,0,0,0,0,0,0,-1,1434,1058,0,0
217,-34,0,0,0,0,0,0,0,0,0,-1,1441,1058,0,0
224,-34,0,0,0,0,0,0,0,0,0,-1,1448,1058,0,0
231,-34,0,0,0,0,0,0,0,0,0,-1,1455,1058,0,0
238,-34,0,0,0,0,0,0,0,0,0,-1,1462,1058,0,0
245,-34,0,0,0,0,0,0,0,0,0,-1,1469,1058,0,0
252,-34,0,0,0,0,0,0,0,0,0,-1,1476,1058,0,0
259,-34,0,0,0,0,0,0,0,0,0,-1,1483,1058,0,0
266,-34,0,0,0,0,0,0,0,0,0,-1,1490,1058,0,0
273,-34,0,0,0,0,0,0,0,0,0,-1,1497,1058,0,0
280,-34,0,0,0,0,0,0,0,0,0,-1,1504,1058,0,0
287,-34,0,0,0,0,0,0,0,0,0,-1,1511,1058,0,0
294,-34,0,0,0,0,0,0,0,0,0,-1,1518,1058,0,0
301,-34,0,0,0,0,0,0,0,0,0,-1,1525,1058,0,0
308,-34,0,0,0,0,0,0,0,0,0,-1,1532,1058,0,0
315,-34,0,0,0,0,0,0,0,0,0,-1,1539,1058,0,0
322,-34,0,0,0,0,0,0,0,0,0,-1,1546,1058,0,0
329,-34,0,0,0,0,0,0,0,0,0,-1,1553,1058,0,0
336,-34,0,0,0,0,0,0,0,0,0,-1,1560,1058,0,0
343,-34,0,0,0,0,0,0,0,0,0,-1,1567,1058,0,0
350,-34,0,0,0,0,0,0,0,0,0,-1,1574,1058,0,0
357,-34,0,0,0,0,0,0,0,0,0,-1,1581,1058,0,0
364,-34,0,0,0,0,0,0,0,0,0,-1,1588,1058,0,0
371,-34,0,0,0,0,0,0,0,0,0,-1,1595,1058,0,0
378,-34,0,0,0,0,0,0,0,0,0,-1,1602,1058,0,0
385,-34,0,0,0,0,0,0,0,0,0,-1,1609,1058,0,0
392,-34,0,0,0,0,0,0,0,0,0,-1,1616,1058,0,0
399,-34,0,0,0,0,0,0,0,0,0,-1,1623,1058,0,0
406,-34,0,0,0,0,0,0,0,0,0,-1,1630,1058,0,0
413,-34,0,0,0,0,0,0,0,0,0,-1,1637,1058,0,0
420,-34,0,0,0,0,0,0,0,0,0,-1,1644,1058,0,0
427,-34,0,0,0,0,0,0,0,0,0,-1,1651,1058,0,0
434,-34,0,0,0,0,0,0,0,0,0,-1,1658,1058,0,0
441,-34,0,0,0,0,0,0,0,0,0,-1,1665,1058,0,0
448,-34,0,0,0,0,0,0,0,0,0,-1,1672,1058,0,0
455,-34,0,0,0,0,0,0,0,0,0,-1,1679,1058,0,0
462,-34,0,0,0,0,0,0,0,0,0,-1,1686,1058,0,0
469,-34,0,0,0,0,0,0,0,0,0,-1,1693,1058,0,0
476,-34,0,0,0,0,0,0,0,0,0,-1,1700,1058,0,0
483,-34,0,0,0,0,0,0,0,0,0,-1,1707,1058,0,0
490,-34,0,0,0,0,0,0,0,0,0,-1,1714,1058,0,0
497,-34,0,0,0,0,0,0,0,0,0,-1,1721,1058,0,0
504,-34,0,0,0,0,0,0,0,0,0,-1,1728,1058,0,0
511,-34,0,0,0,0,0,0,0,0,0,-1,1735,1058,0,0
518,-34,0,0,0,0,0,0,0,0,0,-1,1742,1058,0,0
525,-34,0,0,0,0,0,0,0,0,0,-1,1749,1058,0,0
532,-34,0,0,0,0,0,0,0,0,0,-1,1756,1058,0,0
539,-34,0,0,0,0,0,0,0,0,0,-1,1763,1058,0,0
546,-34,0,0,0,0,0,0,0,0,0,-1,1770,1058,0,0
553,-34,0,0,0,0,0,0,0,0,0,-1,1777,1058,0,0
560,-34,0,0,0,0,0,0,0,0,0,-1,1784,1058,0,0
567,-34,0,0,0,0,0,0,0,0,0,-1,1791,1058,0,0
574,-34,0,0,0,0,0,0,0,0,0,-1,1798,1058,0,0
581,-34,0,0,0,0,0,0,0,0,0,-1,1805,1058,0,0
588,-34,0,0,0,0,0,0,0,0,0,-1,1812,1058,0,0
595,-34,0,0,0,0,0,0,0,0,0,-1,1819,1058,0,0
602,-34,0,0,0,0,0,0,0,0,0,-1,1826,1058,0,0
609,-34,0,0,0,0,0,0,0,0,0,-1,1833,1058,0,0
616,-34,0,0,0,0,0,0,0,0,0,-1,1840,1058,0,0
623,-34,0,0,0,0,0,0,0,0,0,-1,1847,1058,0,0
630,-34,0,0,0,0,0,0,0,0,0,-1,1854,1058,0,0
637,-34,0,0,0,0,0,0,0,0,0,-1,1861,1058,0,0
644,-34,0,0,0,0,0,0,0,0,0,-1,1868,1058,0,0
651,-34,12.0391,1.49927,-0.00780082,0.00223386,0.000711317,0.00228403,-0.00785099,1.50038,0.00613865,0.0395163,1875,1058,12.039,-1.49921
658,-34,12.0334,1.43506,-0.00578852,0.00156444,0.000639466,0.00161964,-0.00584371,1.48469,0.00453318,0.043273,1882,1058,12.0334,-1.43512
665,-34,11.944,1.4054,-0.0042307,0.00107061,0.000663298,0.00115234,-0.00431243,1.44819,0.00332628,0.0416571,1889,1058,11.944,-1.40539
672,-34,11.8237,1.55591,-0.00302304,0.000642173,0.000973799,0.000884834,-0.0032657,1.32658,0.00252431,0.0358488,1896,1058,11.8237,-1.55588
679,-34,11.6378,1.8114,-0.00251558,0.000239111,0.00158442,0.000961161,-0.00323763,1.1432,0.00254016,0.0370056,1903,1058,11.6378,-1.81144
686,-34,11.4933,2.02283,-0.00239839,-0.000100688,0.0022239,0.00125358,-0.00375265,1.02381,0.003008,0.0433783,1910,1058,11.4933,-2.0228
693,-34,11.6921,1.81372,-0.00245164,-0.000373853,0.00280518,0.00157863,-0.00440412,0.962741,0.00358025,0.0420642,1917,1058,11.6922,-1.81376
700,-34,11.6957,1.71094,-0.00261996,-0.000599187,0.00329558,0.00183741,-0.00505656,0.934143,0.00412235,0.0382078,1924,1058,11.6957,-1.71097
707,-34,11.6975,1.74304,-0.00267997,-0.000709334,0.00365095,0.00208692,-0.00547623,0.917198,0.00451037,0.0233186,1931,1058,11.6975,-1.74304
714,-34,11.7496,1.80603,-0.0028271,-0.000798063,0.00384939,0.00216825,-0.00579342,0.914245,0.00475285,0.0169822,1938,1058,11.7496,-1.80605
721,-34,11.8171,1.9519,-0.00304518,-0.000807517,0.00386425,0.00209661,-0.00594931,0.926312,0.00481957,0.0216731,1945,1058,11.8171,-1.95189
728,-34,11.6744,2.1394,-0.00317995,-0.00070272,0.00373921,0.00199768,-0.00588035,0.945335,0.00472893,0.0191444,1952,1058,11.6745,-2.13939
735,-34,11.5342,2.19153,-0.00323113,-0.000496511,0.00350544,0.00189885,-0.00562649,0.97135,0.00451894,0.0136628,1959,1058,11.5341,-2.1915
742,-34,11.5264,2.17737,-0.00342366,-0.000379052,0.00333434,0.00176405,-0.00556676,0.999544,0.00441818,0.0143595,1966,1058,11.5264,-2.17739
749,-34,11.5421,2.1781,-0.00323853,9.12891e-05,0.0030516,0.00190261,-0.00504986,1.03512,0.00414884,0.0124625,1973,1058,11.5421,-2.17813
756,-34,11.5588,2.20251,-0.00284742,0.000601566,0.00284399,0.00220305,-0.00444891,1.05794,0.0039128,0.00992816,1980,1058,11.5588,-2.20247
763,-34,11.558,2.1908,-0.00232732,0.00137715,0.00246598,0.00260904,-0.0035592,1.10751,0.00357529,0.0107035,1987,1058,11.558,-2.19079
770,-34,11.5311,2.17871,-0.00188916,0.00224767,0.00232368,0.00329017,-0.00293166,1.14907,0.00359417,0.0152798,1994,1058,11.5311,-2.17867
777,-34,11.5072,2.19788,-0.00124829,0.0033789,0.00240283,0.00440092,-0.0022703,1.16864,0.00391656,0.0157597,2001,1058,11.5072,-2.19784
784,-34,11.5046,2.23352,-0.000597566,0.00481128,0.00278921,0.00599191,-0.00177819,1.17038,0.00470081,0.0320461,2008,1058,11.5047,-2.23357
791,-34,11.5256,2.10352,0,0,0,0,0,0,0,-1,2015,1058,11.5256,-2.10355
798,-34,11.2837,2.36353,0,0,0,0,0,0,0,-1,2022,1058,11.2837,-2.3635
805,-34,8.97083,2.72583,0,0,0,0,0,0,0,-1,2029,1058,8.97084,-2.72585
812,-34,8.32227,2.43127,0,0,0,0,0,0,0,-1,2036,1058,8.32227,-2.43131
-700,-41,-5.33392,3.80237,0.0290721,-0.0261692,0.0124995,0.0317687,-0.0288658,0.212483,0.0350208,0.0435307,524,1065,-5.33391,-3.80236
-693,-41,-5.67706,4.34595,0.0264859,-0.0124368,0.0062672,0.0274702,-0.013421,0.155773,0.0240685,0.0421554,531,1065,-5.67706,-4.34598
-686,-41,-4.91199,4.79529,0.0228841,-0.00381447,0.0027526,0.023165,-0.00409531,0.101674,0.0169739,0.0427554,538,1065,-4.91199,-4.79529
-679,-41,-4.09583,4.98755,0.0190083,0.00147796,0.000835419,0.0190481,0.00143824,0.0475119,0.0122475,0.0458892,545,1065,-4.09584,-4.9875
-672,-41,-3.36462,5.17603,0,0,0,0,0,0,0,-1,552,1065,-3.36463,-5.17605
-665,-41,-5.72614,0.730713,0,0,0,0,0,0,0,-1,559,1065,-5.72616,-0.730655
-658,-41,-5.74158,0.787109,0.00892685,0.00605906,-0.000455587,0.00899749,0.00598842,-0.153819,0.00528878,0.0419203,566,1065,-5.74156,-0.787054
-651,-41,-5.78778,0.802734,0.0064735,0.00556893,-0.000325036,0.00657818,0.00546425,-0.311568,0.00406533,0.0246129,573,1065,-5.78777,-0.80279
-644,-41,-5.88977,0.813232,0.00492492,0.00519806,-0.000707283,0.00578184,0.00434114,-0.880772,0.00347533,0.00947201,580,1065,-5.88976,-0.813253
-637,-41,-5.90076,0.817749,0.0029218,0.00467926,-0.000827099,0.00500728,0.00259377,-1.19323,0.00289158,0.0101035,587,1065,-5.90076,-0.817745
-630,-41,-5.89563,0.847656,0.00108262,0.0040663,-0.000771684,0.00425407,0.000894848,-1.33211,0.00258982,0.0107022,594,1065,-5.89562,-0.847638
-623,-41,-5.8894,0.871338,-1.37664e-05,0.000897746,-0.000882149,0.00143492,-0.000550936,-1.02383,0.00118379,0.010368,601,1065,-5.88939,-0.871342
-616,-41,-5.86951,0.893555,1.57214e-05,0.000376731,-0.00126857,0.00147758,-0.00108513,-0.856068,0.00148535,0.0143885,608,1065,-5.86952,-0.893595
-609,-41,-5.88025,0.917236,8.28186e-05,-0.000145699,-0.00190253,0.00187452,-0.0019374,-0.755406,0.00220091,0.0192386,615,1065,-5.88025,-0.917293
-602,-41,-5.88354,0.928467,-0.000214808,-0.000557029,-0.00236288,0.00198315,-0.00275498,-0.749253,0.00274763,0.011621,622,1065,-5.88353,-0.928497
-595,-41,-5.90765,0.969849,-0.000524034,-0.000943097,-0.0026164,0.00189121,-0.00335834,-0.745441,0.00307004,0.013319,629,1065,-5.90764,-0.969813
-588,-41,-5.91864,0.839844,-0.000573245,-0.00122771,-0.00271767,0.00183683,-0.00363778,-0.725482,0.00321727,0.0223673,636,1065,-5.91866,-0.839879
-581,-41,-5.89392,0.680786,-0.000579251,-0.00140249,-0.00271377,0.00175394,-0.00373568,-0.710132,0.00323754,0.035517,643,1065,-5.89389,-0.680802
-574,-41,-6.03699,0.183594,-0.000645802,-0.00160722,-0.002519,0.00143794,-0.00369097,-0.691115,0.00305493,0.038757,650,1065,-6.03697,-0.18363
-567,-41,-6.02155,0.243286,-0.000746943,-0.00178305,-0.00209893,0.000896921,-0.00342692,-0.664407,0.00263497,0.0408331,657,1065,-6.02154,-0.243306
-560,-41,-5.97424,0.449341,-0.000867679,-0.00192797,-0.00147247,0.00016717,-0.00296282,-0.612603,0.00203323,0.0406786,664,1065,-5.97427,-0.449377
-553,-41,-5.97772,0.580444,-0.00103053,-0.00203144,-0.000676145,-0.00068978,-0.00237219,-0.466813,0.00140899,0.0445678,671,1065,-5.97772,-0.580483
-546,-41,-5.99554,0.595703,-0.00125647,-0.00207061,0.000250296,-0.00118568,-0.0021414,0.275643,0.00123871,0.0470129,678,1065,-5.99556,-0.595654
-539,-41,-6.0531,0.779907,-0.00153226,-0.00203553,0.00107303,-0.000681755,-0.00288603,0.670225,0.00174182,0.0434945,685,1065,-6.0531,-0.779951
-532,-41,-6.03204,1.03687,-0.00198466,-0.00192909,0.00119758,-0.000758975,-0.00315478,0.796996,0.00190138,0.0408164,692,1065,-6.03206,-1.03684
-525,-41,0,0,0,0,0,0,0,0,0,-1,699,1065,0,0
-518,-41,0,0,0,0,0,0,0,0,0,-1,706,1065,0,0
-511,-41,0,0,0,0,0,0,0,0,0,-1,713,1065,0,0
-504,-41,0,0,0,0,0,0,0,0,0,-1,720,1065,0,0
-497,-41,0,0,0,0,0,0,0,0,0,-1,727,1065,0,0
-490,-41,0,0,0,0,0,0,0,0,0,-1,734,1065,0,0
-483,-41,0,0,0,0,0,0,0,0,0,-1,741,1065,0,0
-476,-41,0,0,0,0,0,0,0,0,0,-1,748,1065,0,0
-469,-41,0,0,0,0,0,0,0,0,0,-1,755,1065,0,0
-462,-41,0,0,0,0,0,0,0,0,0,-1,762,1065,0,0
-455,-41,0,0,0,0,0,0,0,0,0,-1,769,1065,0,0
-448,-41,0,0,0,0,0,0,0,0,0,-1,776,1065,0,0
-441,-41,0,0,0,0,0,0,0,0,0,-1,783,1065,0,0
-434,-41,0,0,0,0,0,0,0,0,0,-1,790,1065,0,0
-427,-41,0,0,0,0,0,0,0,0,0,-1,797,1065,0,0
-420,-41,0,0,0,0,0,0,0,0,0,-1,804,1065,0,0
-413,-41,0,0,0,0,0,0,0,0,0,-1,811,1065,0,0
-406,-41,0,0,0,0,0,0,0,0,0,-1,818,1065,0,0
-399,-41,0,0,0,0,0,0,0,0,0,-1,825,1065,0,0
-392,-41,0,0,0,0,0,0,0,0,0,-1,832,1065,0,0
-385,-41,0,0,0,0,0,0,0,0,0,-1,839,1065,0,0
-378,-41,0,0,0,0,0,0,0,0,0,-1,846,1065,0,0
-371,-41,0,0,0,0,0,0,0,0,0,-1,853,1065,0,0
-364,-41,0,0,0,0,0,0,0,0,0,-1,860,1065,0,0
-357,-41,0,0,0,0,0,0,0,0,0,-1,867,1065,0,0
-350,-41,0,0,0,0,0,0,0,0,0,-1,874,1065,0,0
-343,-41,0,0,0,0,0,0,0,0,0,-1,881,1065,0,0
-336,-41,0,0,0,0,0,0,0,0,0,-1,888,1065,0,0
-329,-41,0,0,0,0,0,0,0,0,0,-1,895,1065,0,0
-322,-41,0,0,0,0,0,0,0,0,0,-1,902,1065,0,0
-315,-41,0,0,0,0,0,0,0,0,0,-1,909,1065,0,0
-308,-41,0,0,0,0,0,0,0,0,0,-1,916,1065,0,0
-301,-41,0,0,0,0,0,0,0,0,0,-1,923,1065,0,0
-294,-41,0,0,0,0,0,0,0,0,0,-1,930,1065,0,0
-287,-41,0,0,0,0,0,0,0,0,0,-1,937,1065,0,0
-280,-41,0,0,0,0,0,0,0,0,0,-1,944,1065,0,0
-273,-41,0,0,0,0,0,0,0,0,0,-1,951,1065,0,0
-266,-41,0,0,0,0,0,0,0,0,0,-1,958,1065,0,0
-259,-41,0,0,0,0,0,0,0,0,0,-1,965,1065,0,0
-252,-41,0,0,0,0,0,0,0,0,0,-1,972,1065,0,0
-245,-41,0,0,0,0,0,0,0,0,0,-1,979,1065,0,0
-238,-41,0,0,0,0,0,0,0,0,0,-1,986,1065,0,0
-231,-41,0,0,0,0,0,0,0,0,0,-1,993,1065,0,0
-224,-41,0,0,0,0,0,0,0,0,0,-1,1000,1065,0,0
-217,-41,0,0,0,0,0,0,0,0,0,-1,1007,1065,0,0
-210,-41,0,0,0,0,0,0,0,0,0,-1,1014,1065,0,0
-203,-41,0,0,0,0,0,0,0,0,0,-1,1021,1065,0,0
-196,-41,0,0,0,0,0,0,0,0,0,-1,1028,1065,0,0
-189,-41,0,0,0,0,0,0,0,0,0,-1,1035,1065,0,0
-182,-41,0,0,0,0,0,0,0,0,0,-1,1042,1065,0,0
-175,-41,0,0,0,0,0,0,0,0,0,-1,1049,1065,0,0
-168,-41,0,0,0,0,0,0,0,0,0,-1,1056,1065,0,0
-161,-41,0,0,0,0,0,0,0,0,0,-1,1063,1065,0,0
-154,-41,0,0,0,0,0,0,0,0,0,-1,1070,1065,0,0
-147,-41,0,0,0,0,0,0,0,0,0,-1,1077,1065,0,0
-140,-41,0,0,0,0,0,0,0,0,0,-1,1084,1065,0,0
-133,-41,0,0,0,0,0,0,0,0,0,-1,1091,1065,0,0
-126,-41,0,0,0,0,0,0,0,0,0,-1,1098,1065,0,0
-119,-41,0,0,0,0,0,0,0,0,0,-1,1105,1065,0,0
-112,-41,0,0,0,0,0,0,0,0,0,-1,1112,1065,0,0
-105,-41,0,0,0,0,0,0,0,0,0,-1,1119,1065,0,0
-98,-41,0,0,0,0,0,0,0,0,0,-1,1126,1065,0,0
-91,-41,0,0,0,0,0,0,0,0,0,-1,1133,1065,0,0
-84,-41,0,0,0,0,0,0,0,0,0,-1,1140,1065,0,0
-77,-41,0,0,0,0,0,0,0,0,0,-1,1147,1065,0,0
-70,-41,0,0,0,0,0,0,0,0,0,-1,1154,1065,0,0
-63,-41,0,0,0,0,0,0,0,0,0,-1,1161,1065,0,0
-56,-41,0,0,0,0,0,0,0,0,0,-1,1168,1065,0,0
-49,-41,0,0,0,0,0,0,0,0,0,-1,1175,1065,0,0
-42,-41,0,0,0,0,0,0,0,0,0,-1,1182,1065,0,0
-35,-41,0,0,0,0,0,0,0,0,0,-1,1189,1065,0,0
-28,-41,0,0,0,0,0,0,0,0,0,-1,1196,1065,0,0
-21,-41,0,0,0,0,0,0,0,0,0,-1,1203,1065,0,0
-14,-41,0,0,0,0,0,0,0,0,0,-1,1210,1065,0,0
-7,-41,0,0,0,0,0,0,0,0,0,-1,1217,1065,0,0
0,-41,0,0,0,0,0,0,0,0,0,-1,1224,1065,0,0
7,-41,0,0,0,0,0,0,0,0,0,-1,1231,1065,0,0
14,-41,0,0,0,0,0,0,0,0,0,-1,1238,1065,0,0
21,-41,0,0,0,0,0,0,0,0,0,-1,1245,1065,0,0
28,-41,0,0,0,0,0,0,0,0,0,-1,1252,1065,0,0
35,-41,0,0,0,0,0,0,0,0,0,-1,1259,1065,0,0
42,-41,0,0,0,0,0,0,0,0,0,-1,1266,1065,0,0
49,-41,0,0,0,0,0,0,0,0,0,-1,1273,1065,0,0
56,-41,0,0,0,0,0,0,0,0,0,-1,1280,1065,0,0
63,-41,0,0,0,0,0,0,0,0,0,-1,1287,1065,0,0
70,-41,0,0,0,0,0,0,0,0,0,-1,1294,1065,0,0
77,-41,0,0,0,0,0,0,0,0,0,-1,1301,1065,0,0
84,-41,0,0,0,0,0,0,0,0,0,-1,1308,1065,0,0
91,-41,0,0,0,0,0,0,0,0,0,-1,1315,1065,0,0
98,-41,0,0,0,0,0,0,0,0,0,-1,1322,1065,0,0
105,-41,0,0,0,0,0,0,0,0,0,-1,1329,1065,0,0
112,-41,0,0,0,0,0,0,0,0,0,-1,1336,1065,0,0
119,-41,0,0,0,0,0,0,0,0,0,-1,1343,1065,0,0
126,-41,0,0,0,0,0,0,0,0,0,-1,1350,1065,0,0
133,-41,0,0,0,0,0,0,0,0,0,-1,1357,1065,0,0
140,-41,0,0,0,0,0,0,0,0,0,-1,1364,1065,0,0
147,-41,0,0,0,0,0,0,0,0,0,-1,1371,1065,0,0
154,-41,0,0,0,0,0,0,0,0,0,-1,1378,1065,0,0
161,-41,0,0,0,0,0,0,0,0,0,-1,1385,1065,0,0
168,-41,0,0,0,0,0,0,0,0,0,-1,1392,1065,0,0
175,-41,0,0,0,0,0,0,0,0,0,-1,1399,1065,0,0
182,-41,0,0,0,0,0,0,0,0,0,-1,1406,1065,0,0
189,-41,0,0,0,0,0,0,0,0,0,-1,1413,1065,0,0
196,-41,0,0,0,0,0,0,0,0,0,-1,1420,1065,0,0
203,-41,0,0,0,0,0,0,0,0,0,-1,1427,1065,0,0
210,-41,0,0,0,0,0,0,0,0,0,-1,1434,1065,0,0
217,-41,0,0,0,0,0,0,0,0,0,-1,1441,1065,0,0
224,-41,0,0,0,0,0,0,0,0,0,-1,1448,1065,0,0
231,-41,0,0,0,0,0,0,0,0,0,-1,1455,1065,0,0
238,-41,0,0,0,0,0,0,0,0,0,-1,1462,1065,0,0
245,-41,0,0,0,0,0,0,0,0,0,-1,1469,1065,0,0
252,-41,0,0,0,0,0,0,0,0,0,-1,1476,1065,0,0
259,-41,0,0,0,0,0,0,0,0,0,-1,1483,1065,0,0
266,-41,0,0,0,0,0,0,0,0,0,-1,1490,1065,0,0
273,-41,0,0,0,0,0,0,0,0,0,-1,1497,1065,0,0
280,-41,0,0,0,0,0,0,0,0,0,-1,1504,1065,0,0
287,-41,0,0,0,0,0,0,0,0,0,-1,1511,1065,0,0
294,-41,0,0,0,0,0,0,0,0,0,-1,1518,1065,0,0
301,-41,0,0,0,0,0,0,0,0,0,-1,1525,1065,0,0
308,-41,0,0,0,0,0,0,0,0,0,-1,1532,1065,0,0
315,-41,0,0,0,0,0,0,0,0,0,-1,1539,1065,0,0
322,-41,0,0,0,0,0,0,0,0,0,-1,1546,1065,0,0
329,-41,0,0,0,0,0,0,0,0,0,-1,1553,1065,0,0
336,-41,0,0,0,0,0,0,0,0,0,-1,1560,1065,0,0
343,-41,0,0,0,0,0,0,0,0,0,-1,1567,1065,0,0
350,-41,0,0,0,0,0,0,0,0,0,-1,1574,1065,0,0
357,-41,0,0,0,0,0,0,0,0,0,-1,1581,1065,0,0
364,-41,0,0,0,0,0,0,0,0,0,-1,1588,1065,0,0
371,-41,0,0,0,0,0,0,0,0,0,-1,1595,1065,0,0
378,-41,0,0,0,0,0,0,0,0,0,-1,1602,1065,0,0
385,-41,0,0,0,0,0,0,0,0,0,-1,1609,1065,0,0
392,-41,0,0,0,0,0,0,0,0,0,-1,1616,1065,0,0
399,-41,0,0,0,0,0,0,0,0,0,-1,1623,1065,0,0
406,-41,0,0,0,0,0,0,0,0,0,-1,1630,1065,0,0
413,-41,0,0,0,0,0,0,0,0,0,-1,1637,1065,0,0
420,-41,0,0,0,0,0,0,0,0,0,-1,1644,1065,0,0
427,-41,0,0,0,0,0,0,0,0,0,-1,1651,1065,0,0
434,-41,0,0,0,0,0,0,0,0,0,-1,1658,1065,0,0
441,-41,0,0,0,0,0,0,0,0,0,-1,1665,1065,0,0
448,-41,0,0,0,0,0,0,0,0,0,-1,1672,1065,0,0
455,-41,0,0,0,0,0,0,0,0,0,-1,1679,1065,0,0
462,-41,0,0,0,0,0,0,0,0,0,-1,1686,1065,0,0
469,-41,0,0,0,0,0,0,0,0,0,-1,1693,1065,0,0
476,-41,0,0,0,0,0,0,0,0,0,-1,1700,1065,0,0
483,-41,0,0,0,0,0,0,0,0,0,-1,1707,1065,0,0
490,-41,0,0,0,0,0,0,0,0,0,-1,1714,1065,0,0
497,-41,0,0,0,0,0,0,0,0,0,-1,1721,1065,0,0
504,-41,0,0,0,0,0,0,0,0,0,-1,1728,1065,0,0
511,-41,0,0,0,0,0,0,0,0,0,-1,1735,1065,0,0
518,-41,0,0,0,0,0,0,0,0,0,-1,1742,1065,0,0
525,-41,0,0,0,0,0,0,0,0,0,-1,1749,1065,0,0
532,-41,0,0,0,0,0,0,0,0,0,-1,1756,1065,0,0
539,-41,0,0,0,0,0,0,0,0,0,-1,1763,1065,0,0
546,-41,0,0,0,0,0,0,0,0,0,-1,1770,1065,0,0
553,-41,0,0,0,0,0,0,0,0,0,-1,1777,1065,0,0
560,-41,0,0,0,0,0,0,0,0,0,-1,1784,1065,0,0
567,-41,0,0,0,0,0,0,0,0,0,-1,1791,1065,0,0
574,-41,0,0,0,0,0,0,0,0,0,-1,1798,1065,0,0
581,-41,0,0,0,0,0,0,0,0,0,-1,1805,1065,0,0
588,-41,0,0,0,0,0,0,0,0,0,-1,1812,1065,0,0
595,-41,0,0,0,0,0,0,0,0,0,-1,1819,1065,0,0
602,-41,0,0,0,0,0,0,0,0,0,-1,1826,1065,0,0
609,-41,0,0,0,0,0,0,0,0,0,-1,1833,1065,0,0
616,-41,0,0,0,0,0,0,0,0,0,-1,1840,1065,0,0
623,-41,0,0,0,0,0,0,0,0,0,-1,1847,1065,0,0
630,-41,0,0,0,0,0,0,0,0,0,-1,1854,1065,0,0
637,-41,0,0,0,0,0,0,0,0,0,-1,1861,1065,0,0
644,-41,0,0,0,0,0,0,0,0,0,-1,1868,1065,0,0
651,-41,11.8671,1.48218,-0.00719987,0.00160631,0.000336797,0.00161917,-0.00721273,1.53263,0.0054293,0.0348141,1875,1065,11.8671,-1.48216
658,-41,11.8567,1.45544,-0.00532861,0.00101616,0.00039984,0.00104126,-0.0053537,1.50811,0.0039621,0.041151,1882,1065,11.8567,-1.45541
665,-41,11.764,1.4707,-0.00387848,0.000587343,0.000503618,0.000643433,-0.00393457,1.45988,0.00286174,0.04075,1889,1065,11.7641,-1.47073
672,-41,11.741,1.54614,-0.00279348,0.000200547,0.000893319,0.000446826,-0.00303976,1.30179,0.00219069,0.0371986,1896,1065,11.7409,-1.54613
679,-41,11.7166,1.63318,-0.00239792,-0.000173732,0.0015597,0.000629745,-0.0032014,1.0951,0.00237221,0.0391773,1903,1065,11.7165,-1.63318
686,-41,11.6708,1.73889,-0.00236637,-0.000486853,0.00223528,0.00099818,-0.0038514,0.984391,0.00295703,0.0442924,1910,1065,11.6708,-1.73888
693,-41,11.7789,1.69958,-0.00248267,-0.000732629,0.00284242,0.00136641,-0.0045817,0.934717,0.0035975,0.0447243,1917,1065,11.7789,-1.69952
700,-41,11.8127,1.63379,-0.00268755,-0.000915306,0.00336124,0.00167466,-0.00527751,0.91428,0.00418965,0.0394698,1924,1065,11.8127,-1.63379
707,-41,11.7341,1.66565,-0.00278756,-0.000998903,0.00373396,0.00194634,-0.0057328,0.90294,0.00460971,0.0270441,1931,1065,11.7342,-1.66567
714,-41,11.7363,1.76367,-0.00294373,-0.00106215,0.00393704,0.00204494,-0.00605082,0.902678,0.00486108,0.0151319,1938,1065,11.7363,-1.76368
721,-41,11.8145,1.94141,-0.00314031,-0.00104294,0.00394195,0.00198743,-0.00617068,0.915403,0.00491216,0.0249131,1945,1065,11.8145,-1.94141
728,-41,11.6328,2.17932,-0.00324908,-0.000893876,0.00380278,0.00190946,-0.00605242,0.93555,0.00479975,0.0206701,1952,1065,11.6328,-2.17933
735,-41,11.5328,2.19189,-0.00329105,-0.000638925,0.00355962,0.00183361,-0.00576359,0.963699,0.00457769,0.015348,1959,1065,11.5328,-2.19183
742,-41,11.5155,2.18579,-0.00350865,-0.000509105,0.00342328,0.00172853,-0.00574628,0.991859,0.00451861,0.0138154,1966,1065,11.5154,-2.18582
749,-41,11.5508,2.18677,-0.00333782,-4.53854e-05,0.00314312,0.00185653,-0.00523974,1.02663,0.00424941,0.0130195,1973,1065,11.5507,-2.18678
756,-41,11.5654,2.18652,-0.00315828,0.000538145,0.00296956,0.00218767,-0.00480781,1.06376,0.0041322,0.0125123,1980,1065,11.5654,-2.1865
763,-41,11.5483,2.17651,-0.00309894,0.00122034,0.00272579,0.00253833,-0.00441694,1.12041,0.00406416,0.01098,1987,1065,11.5484,-2.17657
770,-41,11.5251,2.17725,-0.00314411,0.00203942,0.00271084,0.00319811,-0.0043028,1.16687,0.00434628,0.0123163,1994,1065,11.5252,-2.17721
777,-41,11.5018,2.16504,-0.00324373,0.00307435,0.00301075,0.00427927,-0.00444866,1.19011,0.00503939,0.0131422,2001,1065,11.5019,-2.16503
784,-41,11.527,2.15454,-0.00365373,0.00435248,0.00370598,0.00580457,-0.00510582,1.19736,0.00630342,0.0234662,2008,1065,11.527,-2.15459
791,-41,11.4889,2.11609,-0.00413915,0.00601896,0.00452142,0.00773991,-0.0058601,1.20711,0.00787693,0.0423351,2015,1065,11.4889,-2.11605
798,-41,11.4094,2.17773,-0.00419294,0.00821622,0.00520654,0.0101113,-0.00608804,1.22172,0.00944837,0.0466276,2022,1065,11.4094,-2.17775
805,-41,11.3484,2.4093,0,0,0,0,0,0,0,-1,2029,1065,11.3484,-2.40933
812,-41,11.8026,2.16309,0,0,0,0,0,0,0,-1,2036,1065,11.8026,-2.16304
-700,-48,-5.95349,4.8324,0.0418198,-0.0189413,0.017773,0.0466367,-0.0237582,0.264662,0.0413518,0.0463367,524,1072,-5.95347,-4.83242
-693,-48,-5.1889,5.05322,0.0364819,-0.00638102,0.0104873,0.0389102,-0.00880937,0.227542,0.0293211,0.0432341,531,1072,-5.18891,-5.05325
-686,-48,-4.45825,5.28906,0.030629,0.00102345,0.00615234,0.0318566,-0.000204163,0.19695,0.0213061,0.0458138,538,1072,-4.45828,-5.28905
-679,-48,-3.66199,5.47437,0.0249307,0.00518171,0.00357527,0.025558,0.00455438,0.173694,0.0157417,0.0488744,545,1072,-3.66199,-5.47437
-672,-48,-2.90643,5.68457,0,0,0,0,0,0,0,-1,552,1072,-2.90643,-5.68454
-665,-48,-5.80579,0.645996,0.0151588,0.00771615,0.00132018,0.015386,0.00748892,0.170455,0.00888418,0.0475289,559,1072,-5.80579,-0.645937
-658,-48,-5.74762,0.577271,0.0112842,0.00730689,0.000925401,0.011489,0.00710212,0.217767,0.00669464,0.0468477,566,1072,-5.74761,-0.577254
-651,-48,-5.82379,0.69812,0.00812215,0.00633109,0.000744969,0.00839151,0.00606174,0.346938,0.005002,0.0295943,573,1072,-5.82381,-0.698117
-644,-48,-5.85675,0.811157,0.00601261,0.00564856,0.000135445,0.00605747,0.0056037,0.319861,0.00389587,0.012238,580,1072,-5.85675,-0.8112
-637,-48,-5.86316,0.804688,0.00355181,0.00485189,-0.000282532,0.00491063,0.00349306,-1.36579,0.00291834,0.0122628,587,1072,-5.86319,-0.804716
-630,-48,-5.85144,0.845459,0.00136937,0.00412667,-0.000454781,0.00419974,0.0012963,-1.41148,0.0024832,0.0138415,594,1072,-5.85146,-0.845414
-623,-48,-5.84949,0.871582,6.66762e-05,0.000632262,-0.000622123,0.00103285,-0.000333911,-0.998719,0.000822774,0.00950997,601,1072,-5.84947,-0.871628
-616,-48,-5.84662,0.889038,9.57981e-06,0.000248608,-0.00109105,0.00122667,-0.000968481,-0.839951,0.00127029,0.00882619,608,1072,-5.8466,-0.889017
-609,-48,-5.84015,0.895508,-3.74923e-05,-0.000232828,-0.00179385,0.00166135,-0.00193167,-0.758202,0.00207638,0.0108338,615,1072,-5.84017,-0.895491
-602,-48,-5.86609,0.911255,-0.000401066,-0.000648371,-0.00231006,0.00178865,-0.00283808,-0.75866,0.00269405,0.0112271,622,1072,-5.86606,-0.911281
-595,-48,-5.88318,0.964478,-0.000703918,-0.00104823,-0.00259544,0.00172507,-0.00347722,-0.752282,0.0030598,0.0141661,629,1072,-5.8832,-0.964503
-588,-48,-5.89087,0.882324,-0.000707782,-0.0013301,-0.00273786,0.00173654,-0.00377442,-0.728816,0.00325346,0.0274795,636,1072,-5.89088,-0.882266
-581,-48,-5.87091,0.731567,-0.000628731,-0.00148481,-0.00277245,0.00174852,-0.00386207,-0.708807,0.003315,0.0410289,643,1072,-5.8709,-0.731515
-574,-48,-5.81488,0.715332,-0.000597429,-0.00168653,-0.00262013,0.00153415,-0.0038181,-0.68294,0.00318252,0.0422233,650,1072,-5.8149,-0.715292
-567,-48,-6.14478,0.341431,-0.000538898,-0.00184175,-0.0022682,0.00116957,-0.00355022,-0.645562,0.00283817,0.0412522,657,1072,-6.1448,-0.341417
-560,-48,-5.90253,0.42041,-0.000425308,-0.00193824,-0.00174667,0.000721669,-0.00308522,-0.581046,0.00233485,0.0403321,664,1072,-5.90253,-0.420377
-553,-48,-5.99139,0.427734,-0.000263714,-0.00194929,-0.00110584,0.000283888,-0.00249689,-0.459792,0.00176684,0.0438339,671,1072,-5.9914,-0.427687
-546,-48,-6.18762,0.526489,-5.26556e-05,-0.00183348,-0.000395898,3.13906e-05,-0.00191752,-0.209187,0.00128894,0.0444977,678,1072,-6.18763,-0.526464
-539,-48,-6.15839,0.88501,0.000238777,-0.00155138,0.000142578,0.000250061,-0.00156266,0.0789822,0.00113435,0.0414656,685,1072,-6.15841,-0.884957
-532,-48,-6.06531,0.991089,0.000452151,-0.00108559,-0.000149998,0.000466646,-0.00110008,-0.0963347,0.000928868,0.039826,692,1072,-6.06531,-0.991082
-525,-48,0,0,0,0,0,0,0,0,0,-1,699,1072,0,0
-518,-48,0,0,0,0,0,0,0,0,0,-1,706,1072,0,0
-511,-48,0,0,0,0,0,0,0,0,0,-1,713,1072,0,0
-504,-48,0,0,0,0,0,0,0,0,0,-1,720,1072,0,0
-497,-48,0,0,0,0,0,0,0,0,0,-1,727,1072,0,0
-490,-48,0,0,0,0,0,0,0,0,0,-1,734,1072,0,0
-483,-48,0,0,0,0,0,0,0,0,0,-1,741,1072,0,0
-476,-48,0,0,0,0,0,0,0,0,0,-1,748,1072,0,0
-469,-48,0,0,0,0,0,0,0,0,0,-1,755,1072,0,0
-462,-48,0,0,0,0,0,0,0,0,0,-1,762,1072,0,0
-455,-48,0,0,0,0,0,0,0,0,0,-1,769,1072,0,0
-448,-48,0,0,0,0,0,0,0,0,0,-1,776,1072,0,0
-441,-48,0,0,0,0,0,0,0,0,0,-1,783,1072,0,0
-434,-48,0,0,0,0,0,0,0,0,0,-1,790,1072,0,0
-427,-48,0,0,0,0,0,0,0,0,0,-1,797,1072,0,0
-420,-48,0,0,0,0,0,0,0,0,0,-1,804,1072,0,0
-413,-48,0,0,0,0,0,0,0,0,0,-1,811,1072,0,0
-406,-48,0,0,0,0,0,0,0,0,0,-1,818,1072,0,0
-399,-48,0,0,0,0,0,0,0,0,0,-1,825,1072,0,0
-392,-48,0,0,0,0,0,0,0,0,0,-1,832,1072,0,0
-385,-48,0,0,0,0,0,0,0,0,0,-1,839,1072,0,0
-378,-48,0,0,0,0,0,0,0,0,0,-1,846,1072,0,0
-371,-48,0,0,0,0,0,0,0,0,0,-1,853,1072,0,0
-364,-48,0,0,0,0,0,0,0,0,0,-1,860,1072,0,0
-357,-48,0,0,0,0,0,0,0,0,0,-1,867,1072,0,0
-350,-48,0,0,0,0,0,0,0,0,0,-1,874,1072,0,0
-343,-48,0,0,0,0,0,0,0,0,0,-1,881,1072,0,0
-336,-48,0,0,0,0,0,0,0,0,0,-1,888,1072,0,0
-329,-48,0,0,0,0,0,0,0,0,0,-1,895,1072,0,0
-322,-48,0,0,0,0,0,0,0,0,0,-1,902,1072,0,0
-315,-48,0,0,0,0,0,0,0,0,0,-1,909,1072,0,0
-308,-48,0,0,0,0,0,0,0,0,0,-1,916,1072,0,0
-301,-48,0,0,0,0,0,0,0,0,0,-1,923,1072,0,0
-294,-48,0,0,0,0,0,0,0,0,0,-1,930,1072,0,0
-287,-48,0,0,0,0,0,0,0,0,0,-1,937,1072,0,0
-280,-48,0,0,0,0,0,0,0,0,0,-1,944,1072,0,0
-273,-48,0,0,0,0,0,0,0,0,0,-1,951,1072,0,0
-266,-48,0,0,0,0,0,0,0,0,0,-1,958,1072,0,0
-259,-48,0,0,0,0,0,0,0,0,0,-1,965,1072,0,0
-252,-48,0,0,0,0,0,0,0,0,0,-1,972,1072,0,0
-245,-48,0,0,0,0,0,0,0,0,0,-1,979,1072,0,0
-238,-48,0,0,0,0,0,0,0,0,0,-1,986,1072,0,0
-231,-48,0,0,0,0,0,0,0,0,0,-1,993,1072,0,0
-224,-48,0,0,0,0,0,0,0,0,0,-1,1000,1072,0,0
-217,-48,0,0,0,0,0,0,0,0,0,-1,1007,1072,0,0
-210,-48,0,0,0,0,0,0,0,0,0,-1,1014,1072,0,0
-203,-48,0,0,0,0,0,0,0,0,0,-1,1021,1072,0,0
-196,-48,0,0,0,0,0,0,0,0,0,-1,1028,1072,0,0
-189,-48,0,0,0,0,0,0,0,0,0,-1,1035,1072,0,0
-182,-48,0,0,0,0,0,0,0,0,0,-1,1042,1072,0,0
-175,-48,0,0,0,0,0,0,0,0,0,-1,1049,1072,0,0
-168,-48,0,0,0,0,0,0,0,0,0,-1,1056,1072,0,0
-161,-48,0,0,0,0,0,0,0,0,0,-1,1063,1072,0,0
-154,-48,0,0,0,0,0,0,0,0,0,-1,1070,1072,0,0
-147,-48,0,0,0,0,0,0,0,0,0,-1,1077,1072,0,0
-140,-48,0,0,0,0,0,0,0,0,0,-1,1084,1072,0,0
-133,-48,0,0,0,0,0,0,0,0,0,-1,1091,1072,0,0
-126,-48,0,0,0,0,0,0,0,0,0,-1,1098,1072,0,0
-119,-48,0,0,0,0,0,0,0,0,0,-1,1105,1072,0,0
-112,-48,0,0,0,0,0,0,0,0,0,-1,1112,1072,0,0
-105,-48,0,0,0,0,0,0,0,0,0,-1,1119,1072,0,0
-98,-48,0,0,0,0,0,0,0,0,0,-1,1126,1072,0,0
-91,-48,0,0,0,0,0,0,0,0,0,-1,1133,1072,0,0
-84,-48,0,0,0,0,0,0,0,0,0,-1,1140,1072,0,0
-77,-48,0,0,0,0,0,0,0,0,0,-1,1147,1072,0,0
-70,-48,0,0,0,0,0,0,0,0,0,-1,1154,1072,0,0
-63,-48,0,0,0,0,0,0,0,0,0,-1,1161,1072,0,0
-56,-48,0,0,0,0,0,0,0,0,0,-1,1168,1072,0,0
-49,-48,0,0,0,0,0,0,0,0,0,-1,1175,1072,0,0
-42,-48,0,0,0,0,0,0,0,0,0,-1,1182,1072,0,0
-35,-48,0,0,0,0,0,0,0,0,0,-1,1189,1072,0,0
-28,-48,0,0,0,0,0,0,0,0,0,-1,1196,1072,0,0
-21,-48,0,0,0,0,0,0,0,0,0,-1,1203,1072,0,0
-14,-48,0,0,0,0,0,0,0,0,0,-1,1210,1072,0,0
-7,-48,0,0,0,0,0,0,0,0,0,-1,1217,1072,0,0
0,-48,0,0,0,0,0,0,0,0,0,-1,1224,1072,0,0
7,-48,0,0,0,0,0,0,0,0,0,-1,1231,1072,0,0
14,-48,0,0,0,0,0,0,0,0,0,-1,1238,1072,0,0
21,-48,0,0,0,0,0,0,0,0,0,-1,1245,1072,0,0
28,-48,0,0,0,0,0,0,0,0,0,-1,1252,1072,0,0
35,-48,0,0,0,0,0,0,0,0,0,-1,1259,1072,0,0
42,-48,0,0,0,0,0,0,0,0,0,-1,1266,1072,0,0
49,-48,0,0,0,0,0,0,0,0,0,-1,1273,1072,0,0
56,-48,0,0,0,0,0,0,0,0,0,-1,1280,1072,0,0
63,-48,0,0,0,0,0,0,0,0,0,-1,1287,1072,0,0
70,-48,0,0,0,0,0,0,0,0,0,-1,1294,1072,0,0
77,-48,0,0,0,0,0,0,0,0,0,-1,1301,1072,0,0
84,-48,0,0,0,0,0,0,0,0,0,-1,1308,1072,0,0
91,-48,0,0,0,0,0,0,0,0,0,-1,1315,1072,0,0
98,-48,0,0,0,0,0,0,0,0,0,-1,1322,1072,0,0
105,-48,0,0,0,0,0,0,0,0,0,-1,1329,1072,0,0
112,-48,0,0,0,0,0,0,0,0,0,-1,1336,1072,0,0
119,-48,0,0,0,0,0,0,0,0,0,-1,1343,1072,0,0
126,-48,0,0,0,0,0,0,0,0,0,-1,1350,1072,0,0
133,-48,0,0,0,0,0,0,0,0,0,-1,1357,1072,0,0
140,-48,0,0,0,0,0,0,0,0,0,-1,1364,1072,0,0
147,-48,0,0,0,0,0,0,0,0,0,-1,1371,1072,0,0
154,-48,0,0,0,0,0,0,0,0,0,-1,1378,1072,0,0
161,-48,0,0,0,0,0,0,0,0,0,-1,1385,1072,0,0
168,-48,0,0,0,0,0,0,0,0,0,-1,1392,1072,0,0
175,-48,0,0,0,0,0,0,0,0,0,-1,1399,1072,0,0
182,-48,0,0,0,0,0,0,0,0,0,-1,1406,1072,0,0
189,-48,0,0,0,0,0,0,0,0,0,-1,1413,1072,0,0
196,-48,0,0,0,0,0,0,0,0,0,-1,1420,1072,0,0
203,-48,0,0,0,0,0,0,0,0,0,-1,1427,1072,0,0
210,-48,0,0,0,0,0,0,0,0,0,-1,1434,1072,0,0
217,-48,0,0,0,0,0,0,0,0,0,-1,1441,1072,0,0
224,-48,0,0,0,0,0,0,0,0,0,-1,1448,1072,0,0
231,-48,0,0,0,0,0,0,0,0,0,-1,1455,1072,0,0
238,-48,0,0,0,0,0,0,0,0,0,-1,1462,1072,0,0
245,-48,0,0,0,0,0,0,0,0,0,-1,1469,1072,0,0
252,-48,0,0,0,0,0,0,0,0,0,-1,1476,1072,0,0
259,-48,0,0,0,0,0,0,0,0,0,-1,1483,1072,0,0
266,-48,0,0,0,0,0,0,0,0,0,-1,1490,1072,0,0
273,-48,0,0,0,0,0,0,0,0,0,-1,1497,1072,0,0
280,-48,0,0,0,0,0,0,0,0,0,-1,1504,1072,0,0
287,-48,0,0,0,0,0,0,0,0,0,-1,1511,1072,0,0
294,-48,0,0,0,0,0,0,0,0,0,-1,1518,1072,0,0
301,-48,0,0,0,0,0,0,0,0,0,-1,1525,1072,0,0
308,-48,0,0,0,0,0,0,0,0,0,-1,1532,1072,0,0
315,-48,0,0,0,0,0,0,0,0,0,-1,1539,1072,0,0
322,-48,0,0,0,0,0,0,0,0,0,-1,1546,1072,0,0
329,-48,0,0,0,0,0,0,0,0,0,-1,1553,1072,0,0
336,-48,0,0,0,0,0,0,0,0,0,-1,1560,1072,0,0
343,-48,0,0,0,0,0,0,0,0,0,-1,1567,1072,0,0
350,-48,0,0,0,0,0,0,0,0,0,-1,1574,1072,0,0
357,-48,0,0,0,0,0,0,0,0,0,-1,1581,1072,0,0
364,-48,0,0,0,0,0,0,0,0,0,-1,1588,1072,0,0
371,-48,0,0,0,0,0,0,0,0,0,-1,1595,1072,0,0
378,-48,0,0,0,0,0,0,0,0,0,-1,1602,1072,0,0
385,-48,0,0,0,0,0,0,0,0,0,-1,1609,1072,0,0
392,-48,0,0,0,0,0,0,0,0,0,-1,1616,1072,0,0
399,-48,0,0,0,0,0,0,0,0,0,-1,1623,1072,0,0
406,-48,0,0,0,0,0,0,0,0,0,-1,1630,1072,0,0
413,-48,0,0,0,0,0,0,0,0,0,-1,1637,1072,0,0
420,-48,0,0,0,0,0,0,0,0,0,-1,1644,1072,0,0
427,-48,0,0,0,0,0,0,0,0,0,-1,1651,1072,0,0
434,-48,0,0,0,0,0,0,0,0,0,-1,1658,1072,0,0
441,-48,0,0,0,0,0,0,0,0,0,-1,1665,1072,0,0
448,-48,0,0,0,0,0,0,0,0,0,-1,1672,1072,0,0
455,-48,0,0,0,0,0,0,0,0,0,-1,1679,1072,0,0
462,-48,0,0,0,0,0,0,0,0,0,-1,1686,1072,0,0
469,-48,0,0,0,0,0,0,0,0,0,-1,1693,1072,0,0
476,-48,0,0,0,0,0,0,0,0,0,-1,1700,1072,0,0
483,-48,0,0,0,0,0,0,0,0,0,-1,1707,1072,0,0
490,-48,0,0,0,0,0,0,0,0,0,-1,1714,1072,0,0
497,-48,0,0,0,0,0,0,0,0,0,-1,1721,1072,0,0
504,-48,0,0,0,0,0,0,0,0,0,-1,1728,1072,0,0
511,-48,0,0,0,0,0,0,0,0,0,-1,1735,1072,0,0
518,-48,0,0,0,0,0,0,0,0,0,-1,1742,1072,0,0
525,-48,0,0,0,0,0,0,0,0,0,-1,1749,1072,0,0
532,-48,0,0,0,0,0,0,0,0,0,-1,1756,1072,0,0
539,-48,0,0,0,0,0,0,0,0,0,-1,1763,1072,0,0
546,-48,0,0,0,0,0,0,0,0,0,-1,1770,1072,0,0
553,-48,0,0,0,0,0,0,0,0,0,-1,1777,1072,0,0
560,-48,0,0,0,0,0,0,0,0,0,-1,1784,1072,0,0
567,-48,0,0,0,0,0,0,0,0,0,-1,1791,1072,0,0
574,-48,0,0,0,0,0,0,0,0,0,-1,1798,1072,0,0
581,-48,0,0,0,0,0,0,0,0,0,-1,1805,1072,0,0
588,-48,0,0,0,0,0,0,0,0,0,-1,1812,1072,0,0
595,-48,0,0,0,0,0,0,0,0,0,-1,1819,1072,0,0
602,-48,0,0,0,0,0,0,0,0,0,-1,1826,1072,0,0
609,-48,0,0,0,0,0,0,0,0,0,-1,1833,1072,0,0
616,-48,0,0,0,0,0,0,0,0,0,-1,1840,1072,0,0
623,-48,0,0,0,0,0,0,0,0,0,-1,1847,1072,0,0
630,-48,0,0,0,0,0,0,0,0,0,-1,1854,1072,0,0
637,-48,0,0,0,0,0,0,0,0,0,-1,1861,1072,0,0
644,-48,0,0,0,0,0,0,0,0,0,-1,1868,1072,0,0
651,-48,11.8105,1.51233,-0.00625903,0.000976553,-0.000402547,0.00099888,-0.00628136,-1.51539,0.00455717,0.0307472,1875,1072,11.8105,-1.51238
658,-48,11.7539,1.59058,-0.0045919,0.000593788,-7.85764e-05,0.000594979,-0.00459309,-1.55565,0.00327843,0.035821,1882,1072,11.7539,-1.59053
665,-48,11.6345,1.62769,-0.0033162,0.000306557,0.00019982,0.000317545,-0.00332719,1.51586,0.00233119,0.0400726,1889,1072,11.6345,-1.62763
672,-48,11.5735,1.52881,-0.00243,3.2598e-06,0.000741227,0.000211272,-0.00263802,1.2972,0.00183316,0.0376816,1896,1072,11.5735,-1.52878
679,-48,11.6779,1.52466,-0.00221484,-0.000319854,0.00150884,0.000514321,-0.00304901,1.06576,0.00222403,0.0383249,1903,1072,11.6779,-1.52472
686,-48,11.8051,1.66882,-0.00231885,-0.000602043,0.00224785,0.000945725,-0.00386662,0.967792,0.00294406,0.0413918,1910,1072,11.805,-1.6688
693,-48,11.845,1.68713,-0.00253609,-0.000832311,0.00289601,0.0013345,-0.00470291,0.928443,0.00366207,0.0411365,1917,1072,11.845,-1.68715
700,-48,11.8184,1.55188,-0.0027996,-0.000993211,0.00345172,0.00167152,-0.00546434,0.913362,0.00430951,0.0354403,1924,1072,11.8184,-1.55188
707,-48,11.7731,1.64746,-0.00295624,-0.00107249,0.0038458,0.00194509,-0.00597382,0.90549,0.00476513,0.0282962,1931,1072,11.773,-1.64748
714,-48,11.7302,1.76978,-0.00313678,-0.00113997,0.00405419,0.00203694,-0.0063137,0.906128,0.00502759,0.0228418,1938,1072,11.7303,-1.76981
721,-48,11.7144,2.03174,-0.00331827,-0.00112364,0.00404094,0.00196633,-0.00640823,0.917976,0.00505668,0.0287016,1945,1072,11.7144,-2.03174
728,-48,11.5217,2.22681,-0.00339194,-0.000963454,0.00387034,0.00187865,-0.00623404,0.937401,0.0049037,0.0227213,1952,1072,11.5217,-2.22681
735,-48,11.5258,2.21338,-0.00340221,-0.000695228,0.00360791,0.00180471,-0.00590215,0.964847,0.00465446,0.0165168,1959,1072,11.5257,-2.21339
742,-48,11.5103,2.20117,-0.00368479,-0.000601811,0.00350592,0.00168654,-0.00597313,0.992518,0.00464742,0.0132639,1966,1072,11.5102,-2.20117
749,-48,11.5471,2.17725,-0.00363719,-3.18353e-05,0.00330448,0.00192969,-0.00559872,1.0351,0.00451531,0.0123626,1973,1072,11.5471,-2.17727
756,-48,11.5508,2.17542,-0.00384546,0.00118729,0.00328482,0.00280881,-0.00546698,1.11225,0.00485949,0.0120108,1980,1072,11.5508,-2.17539
763,-48,11.5444,2.17395,-0.00441569,0.00212767,0.00327741,0.0034869,-0.00577492,1.17766,0.00540143,0.0120935,1987,1072,11.5444,-2.1739
770,-48,11.5504,2.15735,-0.00519612,0.00350645,0.00354581,0.00476823,-0.00645789,1.22892,0.00650583,0.0131265,1994,1072,11.5505,-2.15735
777,-48,11.5144,2.13623,-0.00636165,0.00530365,0.00427263,0.00670116,-0.00775916,1.25468,0.00835612,0.011208,2001,1072,11.5144,-2.13627
784,-48,11.5065,2.12732,-0.00822591,0.00756305,0.00553798,0.00931181,-0.00997467,1.26493,0.0111372,0.0216012,2008,1072,11.5065,-2.12737
791,-48,11.5009,2.16577,-0.0105922,0.0104009,0.00708002,0.0125655,-0.0127568,1.27409,0.01462,0.0379842,2015,1072,11.5008,-2.1658
798,-48,11.4667,2.26685,-0.0130259,0.0138485,0.00867782,0.016407,-0.0155844,1.28409,0.0184723,0.0442041,2022,1072,11.4666,-2.26685
805,-48,11.6127,2.45422,-0.015216,0.0178698,0.010131,0.0207255,-0.0180717,1.29605,0.022417,0.0445244,2029,1072,11.6127,-2.45427
812,-48,11.6808,2.27222,-0.0166611,0.0223229,0.0111277,0.0252756,-0.0196137,1.31143,0.0259855,0.0467305,2036,1072,11.6808,-2.27222
-700,-55,-5.71576,5.55396,0,0,0,0,0,0,0,-1,524,1079,-5.71574,-5.554
-693,-55,-4.55475,5.40454,0,0,0,0,0,0,0,-1,531,1079,-4.55478,-5.40458
-686,-55,-4.06702,5.79163,0,0,0,0,0,0,0,-1,538,1079,-4.06699,-5.79164
-679,-55,-5.65747,0.137817,0.0293822,0.0104958,0.0062149,0.0312438,0.00863415,0.291036,0.0186304,0.0456968,545,1079,-5.65744,-0.137793
-672,-55,-5.77521,0.31958,0.0228171,0.0113144,0.00421112,0.024194,0.0099375,0.316003,0.0140424,0.0457341,552,1079,-5.7752,-0.319591
-665,-55,-5.74249,0.352905,0.0172512,0.0108143,0.00297193,0.0184135,0.00965205,0.3728,0.0106352,0.0465807,559,1079,-5.74246,-0.352924
-658,-55,-5.83905,0.387939,0.0126494,0.00953153,0.00220006,0.0137869,0.00839407,0.477165,0.00802247,0.0464731,566,1079,-5.83906,-0.387901
-651,-55,-5.88342,0.619507,0.00897784,0.00785717,0.00170738,0.0102145,0.00662053,0.626845,0.00598301,0.0329979,573,1079,-5.8834,-0.619504
-644,-55,-5.84351,0.78186,0.00646937,0.00665935,0.000896961,0.00746634,0.00566238,0.838155,0.00449847,0.0142289,580,1079,-5.8435,-0.781866
-637,-55,-5.84607,0.786865,0.00372314,0.00539036,0.000162226,0.005406,0.0037075,1.47469,0.00319219,0.012047,587,1079,-5.84608,-0.786892
-630,-55,-5.83051,0.834595,0.00136856,0.00433651,-0.000267162,0.00436036,0.0013447,-1.48173,0.00257834,0.0140786,594,1079,-5.83053,-0.834598
-623,-55,-5.83307,0.875244,-4.40642e-05,0.000592876,-0.000473208,0.000844799,-0.000295988,-1.08159,0.000683567,0.0133471,601,1079,-5.83305,-0.875214
-616,-55,-5.83344,0.894409,-0.000134064,0.000256327,-0.000996861,0.00107692,-0.000954661,-0.88208,0.00117364,0.012457,608,1079,-5.83342,-0.894362
-609,-55,-5.83929,0.919189,-0.000248509,-0.000299021,-0.00176603,0.00149244,-0.00203997,-0.778248,0.00204759,0.0132212,615,1079,-5.83932,-0.919226
-602,-55,-5.85522,0.929932,-0.000649974,-0.000719685,-0.00232695,0.00164238,-0.00301204,-0.777909,0.00272574,0.012549,622,1079,-5.85524,-0.929973
-595,-55,-5.84821,0.970703,-0.00094148,-0.00107817,-0.00262828,0.00161934,-0.00363899,-0.772399,0.00310965,0.0138281,629,1079,-5.84818,-0.970674
-588,-55,-5.83911,0.838257,-0.000918459,-0.00133323,-0.00280362,0.00168543,-0.00393712,-0.74848,0.00333182,0.0238836,636,1079,-5.83911,-0.838299
-581,-55,-5.88409,0.680908,-0.000771043,-0.00145349,-0.00286818,0.00177615,-0.00400067,-0.726193,0.00341668,0.0354076,643,1079,-5.8841,-0.680954
-574,-55,-5.80762,0.717651,-0.000650825,-0.00162847,-0.00275673,0.00166008,-0.00393938,-0.69765,0.00332093,0.0369697,650,1079,-5.80759,-0.717662
-567,-55,-5.75598,0.751831,-0.000447879,-0.00173486,-0.00246543,0.00145665,-0.00363939,-0.657743,0.00303083,0.0384472,657,1079,-5.75598,-0.75188
-560,-55,-5.79431,0.790405,-0.00011611,-0.00176852,-0.00203914,0.00125785,-0.00314248,-0.592919,0.00261705,0.0409447,664,1079,-5.79431,-0.790447
-553,-55,-5.88208,0.624512,0.000352458,-0.00170497,-0.00154267,0.00117795,-0.00253046,-0.491337,0.00218801,0.0430207,671,1079,-5.88207,-0.624533
-546,-55,-6.10638,0.628296,0.000982504,-0.0015117,-0.00103667,0.00135711,-0.00188631,-0.346758,0.00188088,0.0409248,678,1079,-6.10638,-0.628266
-539,-55,-6.03369,0.7323,0.00182159,-0.00115704,-0.000762501,0.00200543,-0.00134089,-0.236593,0.00194466,0.0391776,685,1079,-6.03369,-0.73234
-532,-55,-5.92523,0.776855,0.00267183,-0.000671888,-0.00142907,0.00319937,-0.00119943,-0.353632,0.00262568,0.0387819,692,1079,-5.92521,-0.776905
-525,-55,0,0,0,0,0,0,0,0,0,-1,699,1079,0,0
-518,-55,0,0,0,0,0,0,0,0,0,-1,706,1079,0,0
-511,-55,0,0,0,0,0,0,0,0,0,-1,713,1079,0,0
-504,-55,0,0,0,0,0,0,0,0,0,-1,720,1079,0,0
-497,-55,0,0,0,0,0,0,0,0,0,-1,727,1079,0,0
-490,-55,0,0,0,0,0,0,0,0,0,-1,734,1079,0,0
-483,-55,0,0,0,0,0,0,0,0,0,-1,741,1079,0,0
-476,-55,0,0,0,0,0,0,0,0,0,-1,748,1079,0,0
-469,-55,0,0,0,0,0,0,0,0,0,-1,755,1079,0,0
-462,-55,0,0,0,0,0,0,0,0,0,-1,762,1079,0,0
-455,-55,0,0,0,0,0,0,0,0,0,-1,769,1079,0,0
-448,-55,0,0,0,0,0,0,0,0,0,-1,776,1079,0,0
-441,-55,0,0,0,0,0,0,0,0,0,-1,783,1079,0,0
-434,-55,0,0,0,0,0,0,0,0,0,-1,790,1079,0,0
-427,-55,0,0,0,0,0,0,0,0,0,-1,797,1079,0,0
-420,-55,0,0,0,0,0,0,0,0,0,-1,804,1079,0,0
-413,-55,0,0,0,0,0,0,0,0,0,-1,811,1079,0,0
-406,-55,0,0,0,0,0,0,0,0,0,-1,818,1079,0,0
-399,-55,0,0,0,0,0,0,0,0,0,-1,825,1079,0,0
-392,-55,0,0,0,0,0,0,0,0,0,-1,832,1079,0,0
-385,-55,0,0,0,0,0,0,0,0,0,-1,839,1079,0,0
-378,-55,0,0,0,0,0,0,0,0,0,-1,846,1079,0,0
-371,-55,0,0,0,0,0,0,0,0,0,-1,853,1079,0,0
-364,-55,0,0,0,0,0,0,0,0,0,-1,860,1079,0,0
-357,-55,0,0,0,0,0,0,0,0,0,-1,867,1079,0,0
-350,-55,0,0,0,0,0,0,0,0,0,-1,874,1079,0,0
-343,-55,0,0,0,0,0,0,0,0,0,-1,881,1079,0,0
-336,-55,0,0,0,0,0,0,0,0,0,-1,888,1079,0,0
-329,-55,0,0,0,0,0,0,0,0,0,-1,895,1079,0,0
-322,-55,0,0,0,0,0,0,0,0,0,-1,902,1079,0,0
-315,-55,0,0,0,0,0,0,0,0,0,-1,909,1079,0,0
-308,-55,0,0,0,0,0,0,0,0,0,-1,916,1079,0,0
-301,-55,0,0,0,0,0,0,0,0,0,-1,923,1079,0,0
-294,-55,0,0,0,0,0,0,0,0,0,-1,930,1079,0,0
-287,-55,0,0,0,0,0,0,0,0,0,-1,937,1079,0,0
-280,-55,0,0,0,0,0,0,0,0,0,-1,944,1079,0,0
-273,-55,0,0,0,0,0,0,0,0,0,-1,951,1079,0,0
-266,-55,0,0,0,0,0,0,0,0,0,-1,958,1079,0,0
-259,-55,0,0,0,0,0,0,0,0,0,-1,965,1079,0,0
-252,-55,0,0,0,0,0,0,0,0,0,-1,972,1079,0,0
-245,-55,0,0,0,0,0,0,0,0,0,-1,979,1079,0,0
-238,-55,0,0,0,0,0,0,0,0,0,-1,986,1079,0,0
-231,-55,0,0,0,0,0,0,0,0,0,-1,993,1079,0,0
-224,-55,0,0,0,0,0,0,0,0,0,-1,1000,1079,0,0
-217,-55,0,0,0,0,0,0,0,0,0,-1,1007,1079,0,0
-210,-55,0,0,0,0,0,0,0,0,0,-1,1014,1079,0,0
-203,-55,0,0,0,0,0,0,0,0,0,-1,1021,1079,0,0
-196,-55,0,0,0,0,0,0,0,0,0,-1,1028,1079,0,0
-189,-55,0,0,0,0,0,0,0,0,0,-1,1035,1079,0,0
-182,-55,0,0,0,0,0,0,0,0,0,-1,1042,1079,0,0
-175,-55,0,0,0,0,0,0,0,0,0,-1,1049,1079,0,0
-168,-55,0,0,0,0,0,0,0,0,0,-1,1056,1079,0,0
-161,-55,0,0,0,0,0,0,0,0,0,-1,1063,1079,0,0
-154,-55,0,0,0,0,0,0,0,0,0,-1,1070,1079,0,0
-147,-55,0,0,0,0,0,0,0,0,0,-1,1077,1079,0,0
-140,-55,0,0,0,0,0,0,0,0,0,-1,1084,1079,0,0
-133,-55,0,0,0,0,0,0,0,0,0,-1,1091,1079,0,0
-126,-55,0,0,0,0,0,0,0,0,0,-1,1098,1079,0,0
-119,-55,0,0,0,0,0,0,0,0,0,-1,1105,1079,0,0
-112,-55,0,0,0,0,0,0,0,0,0,-1,1112,1079,0,0
-105,-55,0,0,0,0,0,0,0,0,0,-1,1119,1079,0,0
-98,-55,0,0,0,0,0,0,0,0,0,-1,1126,1079,0,0
-91,-55,0,0,0,0,0,0,0,0,0,-1,1133,1079,0,0
-84,-55,0,0,0,0,0,0,0,0,0,-1,1140,1079,0,0
-77,-55,0,0,0,0,0,0,0,0,0,-1,1147,1079,0,0
-70,-55,0,0,0,0,0,0,0,0,0,-1,1154,1079,0,0
-63,-55,0,0,0,0,0,0,0,0,0,-1,1161,1079,0,0
-56,-55,0,0,0,0,0,0,0,0,0,-1,1168,1079,0,0
-49,-55,0,0,0,0,0,0,0,0,0,-1,1175,1079,0,0
-42,-55,0,0,0,0,0,0,0,0,0,-1,1182,1079,0,0
-35,-55,0,0,0,0,0,0,0,0,0,-1,1189,1079,0,0
-28,-55,0,0,0,0,0,0,0,0,0,-1,1196,1079,0,0
-21,-55,0,0,0,0,0,0,0,0,0,-1,1203,1079,0,0
-14,-55,0,0,0,0,0,0,0,0,0,-1,1210,1079,0,0
-7,-55,0,0,0,0,0,0,0,0,0,-1,1217,1079,0,0
0,-55,0,0,0,0,0,0,0,0,0,-1,1224,1079,0,0
7,-55,0,0,0,0,0,0,0,0,0,-1,1231,1079,0,0
14,-55,0,0,0,0,0,0,0,0,0,-1,1238,1079,0,0
21,-55,0,0,0,0,0,0,0,0,0,-1,1245,1079,0,0
28,-55,0,0,0,0,0,0,0,0,0,-1,1252,1079,0,0
35,-55,0,0,0,0,0,0,0,0,0,-1,1259,1079,0,0
42,-55,0,0,0,0,0,0,0,0,0,-1,1266,1079,0,0
49,-55,0,0,0,0,0,0,0,0,0,-1,1273,1079,0,0
56,-55,0,0,0,0,0,0,0,0,0,-1,1280,1079,0,0
63,-55,0,0,0,0,0,0,0,0,0,-1,1287,1079,0,0
70,-55,0,0,0,0,0,0,0,0,0,-1,1294,1079,0,0
77,-55,0,0,0,0,0,0,0,0,0,-1,1301,1079,0,0
84,-55,0,0,0,0,0,0,0,0,0,-1,1308,1079,0,0
91,-55,0,0,0,0,0,0,0,0,0,-1,1315,1079,0,0
98,-55,0,0,0,0,0,0,0,0,0,-1,1322,1079,0,0
105,-55,0,0,0,0,0,0,0,0,0,-1,1329,1079,0,0
112,-55,0,0,0,0,0,0,0,0,0,-1,1336,1079,0,0
119,-55,0,0,0,0,0,0,0,0,0,-1,1343,1079,0,0
126,-55,0,0,0,0,0,0,0,0,0,-1,1350,1079,0,0
133,-55,0,0,0,0,0,0,0,0,0,-1,1357,1079,0,0
140,-55,0,0,0,0,0,0,0,0,0,-1,1364,1079,0,0
147,-55,0,0,0,0,0,0,0,0,0,-1,1371,1079,0,0
154,-55,0,0,0,0,0,0,0,0,0,-1,1378,1079,0,0
161,-55,0,0,0,0,0,0,0,0,0,-1,1385,1079,0,0
168,-55,0,0,0,0,0,0,0,0,0,-1,1392,1079,0,0
175,-55,0,0,0,0,0,0,0,0,0,-1,1399,1079,0,0
182,-55,0,0,0,0,0,0,0,0,0,-1,1406,1079,0,0
189,-55,0,0,0,0,0,0,0,0,0,-1,1413,1079,0,0
196,-55,0,0,0,0,0,0,0,0,0,-1,1420,1079,0,0
203,-55,0,0,0,0,0,0,0,0,0,-1,1427,1079,0,0
210,-55,0,0,0,0,0,0,0,0,0,-1,1434,1079,0,0
217,-55,0,0,0,0,0,0,0,0,0,-1,1441,1079,0,0
224,-55,0,0,0,0,0,0,0,0,0,-1,1448,1079,0,0
231,-55,0,0,0,0,0,0,0,0,0,-1,1455,1079,0,0
238,-55,0,0,0,0,0,0,0,0,0,-1,1462,1079,0,0
245,-55,0,0,0,0,0,0,0,0,0,-1,1469,1079,0,0
252,-55,0,0,0,0,0,0,0,0,0,-1,1476,1079,0,0
259,-55,0,0,0,0,0,0,0,0,0,-1,1483,1079,0,0
266,-55,0,0,0,0,0,0,0,0,0,-1,1490,1079,0,0
273,-55,0,0,0,0,0,0,0,0,0,-1,1497,1079,0,0
280,-55,0,0,0,0,0,0,0,0,0,-1,1504,1079,0,0
287,-55,0,0,0,0,0,0,0,0,0,-1,1511,1079,0,0
294,-55,0,0,0,0,0,0,0,0,0,-1,1518,1079,0,0
301,-55,0,0,0,0,0,0,0,0,0,-1,1525,1079,0,0
308,-55,0,0,0,0,0,0,0,0,0,-1,1532,1079,0,0
315,-55,0,0,0,0,0,0,0,0,0,-1,1539,1079,0,0
322,-55,0,0,0,0,0,0,0,0,0,-1,1546,1079,0,0
329,-55,0,0,0,0,0,0,0,0,0,-1,1553,1079,0,0
336,-55,0,0,0,0,0,0,0,0,0,-1,1560,1079,0,0
343,-55,0,0,0,0,0,0,0,0,0,-1,1567,1079,0,0
350,-55,0,0,0,0,0,0,0,0,0,-1,1574,1079,0,0
357,-55,0,0,0,0,0,0,0,0,0,-1,1581,1079,0,0
364,-55,0,0,0,0,0,0,0,0,0,-1,1588,1079,0,0
371,-55,0,0,0,0,0,0,0,0,0,-1,1595,1079,0,0
378,-55,0,0,0,0,0,0,0,0,0,-1,1602,1079,0,0
385,-55,0,0,0,0,0,0,0,0,0,-1,1609,1079,0,0
392,-55,0,0,0,0,0,0,0,0,0,-1,1616,1079,0,0
399,-55,0,0,0,0,0,0,0,0,0,-1,1623,1079,0,0
406,-55,0,0,0,0,0,0,0,0,0,-1,1630,1079,0,0
413,-55,0,0,0,0,0,0,0,0,0,-1,1637,1079,0,0
420,-55,0,0,0,0,0,0,0,0,0,-1,1644,1079,0,0
427,-55,0,0,0,0,0,0,0,0,0,-1,1651,1079,0,0
434,-55,0,0,0,0,0,0,0,0,0,-1,1658,1079,0,0
441,-55,0,0,0,0,0,0,0,0,0,-1,1665,1079,0,0
448,-55,0,0,0,0,0,0,0,0,0,-1,1672,1079,0,0
455,-55,0,0,0,0,0,0,0,0,0,-1,1679,1079,0,0
462,-55,0,0,0,0,0,0,0,0,0,-1,1686,1079,0,0
469,-55,0,0,0,0,0,0,0,0,0,-1,1693,1079,0,0
476,-55,0,0,0,0,0,0,0,0,0,-1,1700,1079,0,0
483,-55,0,0,0,0,0,0,0,0,0,-1,1707,1079,0,0
490,-55,0,0,0,0,0,0,0,0,0,-1,1714,1079,0,0
497,-55,0,0,0,0,0,0,0,0,0,-1,1721,1079,0,0
504,-55,0,0,0,0,0,0,0,0,0,-1,1728,1079,0,0
511,-55,0,0,0,0,0,0,0,0,0,-1,1735,1079,0,0
518,-55,0,0,0,0,0,0,0,0,0,-1,1742,1079,0,0
525,-55,0,0,0,0,0,0,0,0,0,-1,1749,1079,0,0
532,-55,0,0,0,0,0,0,0,0,0,-1,1756,1079,0,0
539,-55,0,0,0,0,0,0,0,0,0,-1,1763,1079,0,0
546,-55,0,0,0,0,0,0,0,0,0,-1,1770,1079,0,0
553,-55,0,0,0,0,0,0,0,0,0,-1,1777,1079,0,0
560,-55,0,0,0,0,0,0,0,0,0,-1,1784,1079,0,0
567,-55,0,0,0,0,0,0,0,0,0,-1,1791,1079,0,0
574,-55,0,0,0,0,0,0,0,0,0,-1,1798,1079,0,0
581,-55,0,0,0,0,0,0,0,0,0,-1,1805,1079,0,0
588,-55,0,0,0,0,0,0,0,0,0,-1,1812,1079,0,0
595,-55,0,0,0,0,0,0,0,0,0,-1,1819,1079,0,0
602,-55,0,0,0,0,0,0,0,0,0,-1,1826,1079,0,0
609,-55,0,0,0,0,0,0,0,0,0,-1,1833,1079,0,0
616,-55,0,0,0,0,0,0,0,0,0,-1,1840,1079,0,0
623,-55,0,0,0,0,0,0,0,0,0,-1,1847,1079,0,0
630,-55,0,0,0,0,0,0,0,0,0,-1,1854,1079,0,0
637,-55,0,0,0,0,0,0,0,0,0,-1,1861,1079,0,0
644,-55,0,0,0,0,0,0,0,0,0,-1,1868,1079,0,0
651,-55,11.9053,1.54663,-0.00461589,0.000966013,-0.00108876,0.00117086,-0.00482074,-1.38482,0.00366696,0.0344591,1875,1079,11.9053,-1.54658
658,-55,11.8385,1.56921,-0.00339703,0.00060769,-0.000500297,0.000669244,-0.00345859,-1.44838,0.00255816,0.0328126,1882,1079,11.8385,-1.56923
665,-55,11.6533,1.63501,-0.00246037,0.000331417,-3.37035e-05,0.000331824,-0.00246078,-1.55873,0.00176158,0.0381294,1889,1079,11.6534,-1.63504
672,-55,11.728,1.65356,-0.00189978,1.68555e-05,0.000672453,0.000229249,-0.00211218,1.26486,0.00149042,0.0385321,1896,1079,11.728,-1.65352
679,-55,11.8345,1.6272,-0.00194567,-0.000320378,0.00154189,0.000609906,-0.00287596,1.02792,0.00214964,0.0368338,1903,1079,11.8345,-1.62714
686,-55,11.8367,1.65686,-0.00223505,-0.00061798,0.0023409,0.00105008,-0.00390311,0.951682,0.00301371,0.039556,1910,1079,11.8367,-1.65688
693,-55,11.8219,1.76208,-0.00258511,-0.000863886,0.00302356,0.00141916,-0.00486815,0.924049,0.00380769,0.039438,1917,1079,11.8219,-1.76205
700,-55,11.7129,1.65967,-0.00293248,-0.00103982,0.00360217,0.00173825,-0.00571056,0.913851,0.0044998,0.0338387,1924,1079,11.7129,-1.65972
707,-55,11.744,1.72131,-0.00316257,-0.0011308,0.00401475,0.0019946,-0.00628797,0.909316,0.0049915,0.0278176,1931,1079,11.744,-1.72128
714,-55,11.7588,1.79077,-0.00337519,-0.0012002,0.0042233,0.00207337,-0.00664876,0.91141,0.00526161,0.0258148,1938,1079,11.7588,-1.7908
721,-55,11.7072,2.0448,-0.00353848,-0.00118274,0.00417722,0.0019795,-0.00670072,0.922818,0.00525282,0.0250049,1945,1079,11.7072,-2.04486
728,-55,11.4802,2.21301,-0.00357465,-0.00101414,0.00395955,0.00186699,-0.00645578,0.94176,0.00504273,0.0197092,1952,1079,11.4802,-2.21301
735,-55,11.5082,2.20837,-0.00356095,-0.000748823,0.00367644,0.00178126,-0.00609104,0.968042,0.00476671,0.0155237,1959,1079,11.5082,-2.20836
742,-55,11.5094,2.21045,-0.00394762,-0.000674108,0.00351943,0.00157055,-0.00619228,1.00305,0.00473926,0.0152689,1966,1079,11.5094,-2.21042
749,-55,11.533,2.18518,-0.00403028,3.12064e-05,0.00320941,0.00179839,-0.00579746,1.06747,0.00458359,0.0122656,1973,1079,11.533,-2.18513
756,-55,11.5295,2.172,-0.00468592,0.0018559,0.00307734,0.00307596,-0.00590599,1.19334,0.00527083,0.01133,1980,1079,11.5295,-2.17198
763,-55,11.5337,2.17822,-0.00596284,0.0031258,0.00310239,0.00408381,-0.00692086,1.27129,0.00642354,0.0134863,1987,1079,11.5337,-2.17826
770,-55,11.5443,2.15076,-0.00755803,0.00508966,0.00330567,0.00590153,-0.0083699,1.32996,0.0082806,0.0140027,1994,1079,11.5443,-2.1508
777,-55,11.5214,2.11853,-0.00988603,0.0076682,0.004012,0.00854168,-0.0107595,1.35643,0.011168,0.0120597,2001,1079,11.5213,-2.11855
784,-55,11.5405,2.12683,-0.0132947,0.0109152,0.0053104,0.0120288,-0.0144083,1.36409,0.0152841,0.0268222,2008,1079,11.5405,-2.12686
791,-55,11.4844,2.18408,-0.0176165,0.0149055,0.00700647,0.0163507,-0.0190617,1.36738,0.0204654,0.0401862,2015,1079,11.4844,-2.18409
798,-55,11.4526,2.21289,-0.0224933,0.0195528,0.00901283,0.0214033,-0.0243438,1.36829,0.0264303,0.0461768,2022,1079,11.4526,-2.21291
805,-55,11.4988,2.28552,-0.0276807,0.0245901,0.0113266,0.026939,-0.0300295,1.36632,0.0329069,0.0471504,2029,1079,11.4988,-2.28557
812,-55,11.5773,2.3667,-0.032754,0.029453,0.0139725,0.0324473,-0.0357483,1.35969,0.0393881,0.0469067,2036,1079,11.5772,-2.36673
-700,-62,-7.04248,-1.19226,0,0,0,0,0,0,0,-1,524,1086,-7.0425,1.19229
-693,-62,-4.18524,5.92505,0,0,0,0,0,0,0,-1,531,1086,-4.18525,-5.92511
-686,-62,-5.25049,-0.382446,0,0,0,0,0,0,0,-1,538,1086,-5.25047,0.38247
-679,-62,-5.45752,-0.175293,0.032695,0.0161465,0.00784344,0.0358217,0.0130198,0.379339,0.0209372,0.0426248,545,1086,-5.45755,0.175329
-672,-62,-5.63849,0.0771484,0.0250304,0.0158206,0.0055221,0.0276157,0.0132353,0.43786,0.0159485,0.0438841,552,1086,-5.63848,-0.0771515
-665,-62,-5.72717,0.170898,0.0186867,0.014268,0.00402316,0.0210673,0.0118875,0.534299,0.0121966,0.0449564,559,1086,-5.72717,-0.170874
-658,-62,-5.81335,0.36438,0.0135492,0.0120737,0.00303122,0.0159311,0.00969174,0.66603,0.00926956,0.043045,566,1086,-5.81336,-0.36436
-651,-62,-5.82635,0.691528,0.00952152,0.00965432,0.00235059,0.0119394,0.00723639,0.799518,0.00694477,0.0331162,573,1086,-5.82636,-0.691549
-644,-62,-5.82697,0.76123,0.00672556,0.00786802,0.00144502,0.00885062,0.00574296,0.973626,0.00518487,0.0115671,580,1086,-5.82695,-0.761273
-637,-62,-5.82568,0.793213,0.00376988,0.00610455,0.000486613,0.00620192,0.00367252,1.37332,0.0036009,0.0101904,587,1086,-5.8257,-0.793158
-630,-62,-5.81995,0.833008,0.00130978,0.00462726,-0.000146012,0.00463367,0.00130336,-1.5269,0.00275925,0.0112847,594,1086,-5.81993,-0.83297
-623,-62,-5.81714,0.873535,-0.000156619,0.000692295,-0.000355661,0.000821606,-0.00028593,-1.22208,0.000663899,0.0126241,601,1086,-5.81714,-0.87348
-616,-62,-5.81201,0.898804,-0.000221996,0.000288065,-0.000905982,0.000974228,-0.000908158,-0.922596,0.00108702,0.0129007,608,1086,-5.81203,-0.898834
-609,-62,-5.81018,0.932251,-0.000405298,-0.000365754,-0.00173037,0.00134496,-0.00211601,-0.791111,0.00201465,0.013153,615,1086,-5.8102,-0.932248
-602,-62,-5.81116,0.963623,-0.000883312,-0.00082937,-0.00238168,0.00152549,-0.00323817,-0.79106,0.00280893,0.0130932,622,1086,-5.81116,-0.963671
-595,-62,-5.79919,0.991821,-0.00116628,-0.00118724,-0.00272237,0.00154563,-0.00389915,-0.783474,0.00323996,0.0150169,629,1086,-5.7992,-0.99188
-588,-62,-5.82813,0.889526,-0.00113177,-0.00144826,-0.00294979,0.00166402,-0.00424405,-0.758601,0.00351777,0.0212308,636,1086,-5.82814,-0.889502
-581,-62,-5.88458,0.769775,-0.000934706,-0.00157697,-0.00306328,0.00182423,-0.0043359,-0.733173,0.00365377,0.030062,643,1086,-5.88459,-0.769757
-574,-62,-5.91418,0.723145,-0.000732166,-0.00176664,-0.00302192,0.00181647,-0.00431527,-0.700639,0.00363683,0.0317308,650,1086,-5.91418,-0.723108
-567,-62,-5.88745,0.715332,-0.000410369,-0.00187284,-0.00282214,0.00177373,-0.00405694,-0.658632,0.0034513,0.0355133,657,1086,-5.88743,-0.71532
-560,-62,-5.85669,0.713135,9.81441e-05,-0.00190441,-0.00251799,0.00180663,-0.0036129,-0.596159,0.00318637,0.0400619,664,1086,-5.85672,-0.713145
-553,-62,-5.86023,0.676636,0.000812529,-0.00184433,-0.00217978,0.00203678,-0.00306858,-0.511735,0.00296758,0.0380911,671,1086,-5.86023,-0.676671
-546,-62,-5.89685,0.598267,0.00177344,-0.00167707,-0.00186929,0.00259195,-0.00249558,-0.412724,0.00293747,0.0337129,678,1086,-5.89686,-0.598296
-539,-62,-5.7099,0.408203,0.00304509,-0.00138678,-0.00180558,0.00368756,-0.00202925,-0.341855,0.00334657,0.0392633,685,1086,-5.70992,-0.408168
-532,-62,-5.60345,0.337158,0.00439069,-0.00106107,-0.00271245,0.0055103,-0.00218069,-0.391465,0.004577,0.0401169,692,1086,-5.60343,-0.33716
-525,-62,0,0,0,0,0,0,0,0,0,-1,699,1086,0,0
-518,-62,0,0,0,0,0,0,0,0,0,-1,706,1086,0,0
-511,-62,0,0,0,0,0,0,0,0,0,-1,713,1086,0,0
-504,-62,0,0,0,0,0,0,0,0,0,-1,720,1086,0,0
-497,-62,0,0,0,0,0,0,0,0,0,-1,727,1086,0,0
-490,-62,0,0,0,0,0,0,0,0,0,-1,734,1086,0,0
-483,-62,0,0,0,0,0,0,0,0,0,-1,741,1086,0,0
-476,-62,0,0,0,0,0,0,0,0,0,-1,748,1086,0,0
-469,-62,0,0,0,0,0,0,0,0,0,-1,755,1086,0,0
-462,-62,0,0,0,0,0,0,0,0,0,-1,762,1086,0,0
-455,-62,0,0,0,0,0,0,0,0,0,-1,769,1086,0,0
-448,-62,0,0,0,0,0,0,0,0,0,-1,776,1086,0,0
-441,-62,0,0,0,0,0,0,0,0,0,-1,783,1086,0,0
-434,-62,0,0,0,0,0,0,0,0,0,-1,790,1086,0,0
-427,-62,0,0,0,0,0,0,0,0,0,-1,797,1086,0,0
-420,-62,0,0,0,0,0,0,0,0,0,-1,804,1086,0,0
-413,-62,0,0,0,0,0,0,0,0,0,-1,811,1086,0,0
-406,-62,0,0,0,0,0,0,0,0,0,-1,818,1086,0,0
-399,-62,0,0,0,0,0,0,0,0,0,-1,825,1086,0,0
-392,-62,0,0,0,0,0,0,0,0,0,-1,832,1086,0,0
-385,-62,0,0,0,0,0,0,0,0,0,-1,839,1086,0,0
-378,-62,0,0,0,0,0,0,0,0,0,-1,846,1086,0,0
-371,-62,0,0,0,0,0,0,0,0,0,-1,853,1086,0,0
-364,-62,0,0,0,0,0,0,0,0,0,-1,860,1086,0,0
-357,-62,0,0,0,0,0,0,0,0,0,-1,867,1086,0,0
-350,-62,0,0,0,0,0,0,0,0,0,-1,874,1086,0,0
-343,-62,0,0,0,0,0,0,0,0,0,-1,881,1086,0,0
-336,-62,0,0,0,0,0,0,0,0,0,-1,888,1086,0,0
-329,-62,0,0,0,0,0,0,0,0,0,-1,895,1086,0,0
-322,-62,0,0,0,0,0,0,0,0,0,-1,902,1086,0,0
-315,-62,0,0,0,0,0,0,0,0,0,-1,909,1086,0,0
-308,-62,0,0,0,0,0,0,0,0,0,-1,916,1086,0,0
-301,-62,0,0,0,0,0,0,0,0,0,-1,923,1086,0,0
-294,-62,0,0,0,0,0,0,0,0,0,-1,930,1086,0,0
-287,-62,0,0,0,0,0,0,0,0,0,-1,937,1086,0,0
-280,-62,0,0,0,0,0,0,0,0,0,-1,944,1086,0,0
-273,-62,0,0,0,0,0,0,0,0,0,-1,951,1086,0,0
-266,-62,0,0,0,0,0,0,0,0,0,-1,958,1086,0,0
-259,-62,0,0,0,0,0,0,0,0,0,-1,965,1086,0,0
-252,-62,0,0,0,0,0,0,0,0,0,-1,972,1086,0,0
-245,-62,0,0,0,0,0,0,0,0,0,-1,979,1086,0,0
-238,-62,0,0,0,0,0,0,0,0,0,-1,986,1086,0,0
-231,-62,0,0,0,0,0,0,0,0,0,-1,993,1086,0,0
-224,-62,0,0,0,0,0,0,0,0,0,-1,1000,1086,0,0
-217,-62,0,0,0,0,0,0,0,0,0,-1,1007,1086,0,0
-210,-62,0,0,0,0,0,0,0,0,0,-1,1014,1086,0,0
-203,-62,0,0,0,0,0,0,0,0,0,-1,1021,1086,0,0
-196,-62,0,0,0,0,0,0,0,0,0,-1,1028,1086,0,0
-189,-62,0,0,0,0,0,0,0,0,0,-1,1035,1086,0,0
-182,-62,0,0,0,0,0,0,0,0,0,-1,1042,1086,0,0
-175,-62,0,0,0,0,0,0,0,0,0,-1,1049,1086,0,0
-168,-62,0,0,0,0,0,0,0,0,0,-1,1056,1086,0,0
-161,-62,0,0,0,0,0,0,0,0,0,-1,1063,1086,0,0
-154,-62,0,0,0,0,0,0,0,0,0,-1,1070,1086,0,0
-147,-62,0,0,0,0,0,0,0,0,0,-1,1077,1086,0,0
-140,-62,0,0,0,0,0,0,0,0,0,-1,1084,1086,0,0
-133,-62,0,0,0,0,0,0,0,0,0,-1,1091,1086,0,0
-126,-62,0,0,0,0,0,0,0,0,0,-1,1098,1086,0,0
-119,-62,0,0,0,0,0,0,0,0,0,-1,1105,1086,0,0
-112,-62,0,0,0,0,0,0,0,0,0,-1,1112,1086,0,0
-105,-62,0,0,0,0,0,0,0,0,0,-1,1119,1086,0,0
-98,-62,0,0,0,0,0,0,0,0,0,-1,1126,1086,0,0
-91,-62,0,0,0,0,0,0,0,0,0,-1,1133,1086,0,0
-84,-62,0,0,0,0,0,0,0,0,0,-1,1140,1086,0,0
-77,-62,0,0,0,0,0,0,0,0,0,-1,1147,1086,0,0
-70,-62,0,0,0,0,0,0,0,0,0,-1,1154,1086,0,0
-63,-62,0,0,0,0,0,0,0,0,0,-1,1161,1086,0,0
-56,-62,0,0,0,0,0,0,0,0,0,-1,1168,1086,0,0
-49,-62,0,0,0,0,0,0,0,0,0,-1,1175,1086,0,0
-42,-62,0,0,0,0,0,0,0,0,0,-1,1182,1086,0,0
-35,-62,0,0,0,0,0,0,0,0,0,-1,1189,1086,0,0
-28,-62,0,0,0,0,0,0,0,0,0,-1,1196,1086,0,0
-21,-62,0,0,0,0,0,0,0,0,0,-1,1203,1086,0,0
-14,-62,0,0,0,0,0,0,0,0,0,-1,1210,1086,0,0
-7,-62,0,0,0,0,0,0,0,0,0,-1,1217,1086,0,0
0,-62,0,0,0,0,0,0,0,0,0,-1,1224,1086,0,0
7,-62,0,0,0,0,0,0,0,0,0,-1,1231,1086,0,0
14,-62,0,0,0,0,0,0,0,0,0,-1,1238,1086,0,0
21,-62,0,0,0,0,0,0,0,0,0,-1,1245,1086,0,0
28,-62,0,0,0,0,0,0,0,0,0,-1,1252,1086,0,0
35,-62,0,0,0,0,0,0,0,0,0,-1,1259,1086,0,0
42,-62,0,0,0,0,0,0,0,0,0,-1,1266,1086,0,0
49,-62,0,0,0,0,0,0,0,0,0,-1,1273,1086,0,0
56,-62,0,0,0,0,0,0,0,0,0,-1,1280,1086,0,0
63,-62,0,0,0,0,0,0,0,0,0,-1,1287,1086,0,0
70,-62,0,0,0,0,0,0,0,0,0,-1,1294,1086,0,0
77,-62,0,0,0,0,0,0,0,0,0,-1,1301,1086,0,0
84,-62,0,0,0,0,0,0,0,0,0,-1,1308,1086,0,0
91,-62,0,0,0,0,0,0,0,0,0,-1,1315,1086,0,0
98,-62,0,0,0,0,0,0,0,0,0,-1,1322,1086,0,0
105,-62,0,0,0,0,0,0,0,0,0,-1,1329,1086,0,0
112,-62,0,0,0,0,0,0,0,0,0,-1,1336,1086,0,0
119,-62,0,0,0,0,0,0,0,0,0,-1,1343,1086,0,0
126,-62,0,0,0,0,0,0,0,0,0,-1,1350,1086,0,0
133,-62,0,0,0,0,0,0,0,0,0,-1,1357,1086,0,0
140,-62,0,0,0,0,0,0,0,0,0,-1,1364,1086,0,0
147,-62,0,0,0,0,0,0,0,0,0,-1,1371,1086,0,0
154,-62,0,0,0,0,0,0,0,0,0,-1,1378,1086,0,0
161,-62,0,0,0,0,0,0,0,0,0,-1,1385,1086,0,0
168,-62,0,0,0,0,0,0,0,0,0,-1,1392,1086,0,0
175,-62,0,0,0,0,0,0,0,0,0,-1,1399,1086,0,0
182,-62,0,0,0,0,0,0,0,0,0,-1,1406,1086,0,0
189,-62,0,0,0,0,0,0,0,0,0,-1,1413,1086,0,0
196,-62,0,0,0,0,0,0,0,0,0,-1,1420,1086,0,0
203,-62,0,0,0,0,0,0,0,0,0,-1,1427,1086,0,0
210,-62,0,0,0,0,0,0,0,0,0,-1,1434,1086,0,0
217,-62,0,0,0,0,0,0,0,0,0,-1,1441,1086,0,0
224,-62,0,0,0,0,0,0,0,0,0,-1,1448,1086,0,0
231,-62,0,0,0,0,0,0,0,0,0,-1,1455,1086,0,0
238,-62,0,0,0,0,0,0,0,0,0,-1,1462,1086,0,0
245,-62,0,0,0,0,0,0,0,0,0,-1,1469,1086,0,0
252,-62,0,0,0,0,0,0,0,0,0,-1,1476,1086,0,0
259,-62,0,0,0,0,0,0,0,0,0,-1,1483,1086,0,0
266,-62,0,0,0,0,0,0,0,0,0,-1,1490,1086,0,0
273,-62,0,0,0,0,0,0,0,0,0,-1,1497,1086,0,0
280,-62,0,0,0,0,0,0,0,0,0,-1,1504,1086,0,0
287,-62,0,0,0,0,0,0,0,0,0,-1,1511,1086,0,0
294,-62,0,0,0,0,0,0,0,0,0,-1,1518,1086,0,0
301,-62,0,0,0,0,0,0,0,0,0,-1,1525,1086,0,0
308,-62,0,0,0,0,0,0,0,0,0,-1,1532,1086,0,0
315,-62,0,0,0,0,0,0,0,0,0,-1,1539,1086,0,0
322,-62,0,0,0,0,0,0,0,0,0,-1,1546,1086,0,0
329,-62,0,0,0,0,0,0,0,0,0,-1,1553,1086,0,0
336,-62,0,0,0,0,0,0,0,0,0,-1,1560,1086,0,0
343,-62,0,0,0,0,0,0,0,0,0,-1,1567,1086,0,0
350,-62,0,0,0,0,0,0,0,0,0,-1,1574,1086,0,0
357,-62,0,0,0,0,0,0,0,0,0,-1,1581,1086,0,0
364,-62,0,0,0,0,0,0,0,0,0,-1,1588,1086,0,0
371,-62,0,0,0,0,0,0,0,0,0,-1,1595,1086,0,0
378,-62,0,0,0,0,0,0,0,0,0,-1,1602,1086,0,0
385,-62,0,0,0,0,0,0,0,0,0,-1,1609,1086,0,0
392,-62,0,0,0,0,0,0,0,0,0,-1,1616,1086,0,0
399,-62,0,0,0,0,0,0,0,0,0,-1,1623,1086,0,0
406,-62,0,0,0,0,0,0,0,0,0,-1,1630,1086,0,0
413,-62,0,0,0,0,0,0,0,0,0,-1,1637,1086,0,0
420,-62,0,0,0,0,0,0,0,0,0,-1,1644,1086,0,0
427,-62,0,0,0,0,0,0,0,0,0,-1,1651,1086,0,0
434,-62,0,0,0,0,0,0,0,0,0,-1,1658,1086,0,0
441,-62,0,0,0,0,0,0,0,0,0,-1,1665,1086,0,0
448,-62,0,0,0,0,0,0,0,0,0,-1,1672,1086,0,0
455,-62,0,0,0,0,0,0,0,0,0,-1,1679,1086,0,0
462,-62,0,0,0,0,0,0,0,0,0,-1,1686,1086,0,0
469,-62,0,0,0,0,0,0,0,0,0,-1,1693,1086,0,0
476,-62,0,0,0,0,0,0,0,0,0,-1,1700,1086,0,0
483,-62,0,0,0,0,0,0,0,0,0,-1,1707,1086,0,0
490,-62,0,0,0,0,0,0,0,0,0,-1,1714,1086,0,0
497,-62,0,0,0,0,0,0,0,0,0,-1,1721,1086,0,0
504,-62,0,0,0,0,0,0,0,0,0,-1,1728,1086,0,0
511,-62,0,0,0,0,0,0,0,0,0,-1,1735,1086,0,0
518,-62,0,0,0,0,0,0,0,0,0,-1,1742,1086,0,0
525,-62,0,0,0,0,0,0,0,0,0,-1,1749,1086,0,0
532,-62,0,0,0,0,0,0,0,0,0,-1,1756,1086,0,0
539,-62,0,0,0,0,0,0,0,0,0,-1,1763,1086,0,0
546,-62,0,0,0,0,0,0,0,0,0,-1,1770,1086,0,0
553,-62,0,0,0,0,0,0,0,0,0,-1,1777,1086,0,0
560,-62,0,0,0,0,0,0,0,0,0,-1,1784,1086,0,0
567,-62,0,0,0,0,0,0,0,0,0,-1,1791,1086,0,0
574,-62,0,0,0,0,0,0,0,0,0,-1,1798,1086,0,0
581,-62,0,0,0,0,0,0,0,0,0,-1,1805,1086,0,0
588,-62,0,0,0,0,0,0,0,0,0,-1,1812,1086,0,0
595,-62,0,0,0,0,0,0,0,0,0,-1,1819,1086,0,0
602,-62,0,0,0,0,0,0,0,0,0,-1,1826,1086,0,0
609,-62,0,0,0,0,0,0,0,0,0,-1,1833,1086,0,0
616,-62,0,0,0,0,0,0,0,0,0,-1,1840,1086,0,0
623,-62,0,0,0,0,0,0,0,0,0,-1,1847,1086,0,0
630,-62,0,0,0,0,0,0,0,0,0,-1,1854,1086,0,0
637,-62,0,0,0,0,0,0,0,0,0,-1,1861,1086,0,0
644,-62,0,0,0,0,0,0,0,0,0,-1,1868,1086,0,0
651,-62,11.8805,1.66418,-0.00344839,0.000779083,-0.00191458,0.00151728,-0.00418659,-1.2028,0.00341122,0.0408252,1875,1086,11.8805,-1.66424
658,-62,11.8009,1.64417,-0.00255984,0.000448387,-0.00101744,0.000760187,-0.00287163,-1.27343,0.0022118,0.0406727,1882,1086,11.8009,-1.64417
665,-62,11.722,1.67114,-0.00188232,0.000175394,-0.000322032,0.000224615,-0.00193154,-1.41913,0.00136872,0.0394972,1889,1086,11.7221,-1.67109
672,-62,11.7169,1.69055,-0.00159246,-0.000147856,0.00057475,5.2912e-05,-0.00179323,1.23473,0.00121351,0.0369068,1896,1086,11.7169,-1.69053
679,-62,11.7469,1.72437,-0.00184835,-0.000487666,0.00155894,0.000532923,-0.00286894,0.991146,0.00211279,0.0353427,1903,1086,11.747,-1.72438
686,-62,11.772,1.61865,-0.00228211,-0.000784209,0.00242579,0.00100561,-0.00407194,0.935129,0.0031046,0.0373303,1910,1086,11.772,-1.61868
693,-62,11.8317,1.72192,-0.00273639,-0.00102427,0.00314603,0.00138009,-0.00514075,0.918236,0.00396802,0.0382714,1917,1086,11.8317,-1.7219
700,-62,11.7341,1.65466,-0.00314358,-0.00119974,0.00375493,0.00170702,-0.00605034,0.912038,0.0047069,0.0319466,1924,1086,11.7342,-1.6546
707,-62,11.7404,1.71533,-0.00343126,-0.00128769,0.00418347,0.00195911,-0.00667806,0.910798,0.00522888,0.0229753,1931,1086,11.7404,-1.71538
714,-62,11.772,1.75012,-0.00366743,-0.00132079,0.00438182,0.00204208,-0.00703031,0.916214,0.00549552,0.0199183,1938,1086,11.7719,-1.75008
721,-62,11.782,2.01868,-0.00379437,-0.00127803,0.00429557,0.00193983,-0.00701223,0.927863,0.00543801,0.0218744,1945,1086,11.782,-2.01873
728,-62,11.5424,2.20361,-0.00378958,-0.00108602,0.00403843,0.00182087,-0.00669647,0.946901,0.00517909,0.0175281,1952,1086,11.5423,-2.20363
735,-62,11.5116,2.20215,-0.0037548,-0.000818212,0.00373279,0.00172468,-0.0062977,0.972778,0.00487611,0.0149468,1959,1086,11.5117,-2.20212
742,-62,11.5023,2.22278,-0.00429575,-0.000686228,0.00349848,0.00144558,-0.00642755,1.02353,0.0048394,0.0137769,1966,1086,11.5023,-2.22277
749,-62,11.4967,2.18408,-0.00461364,0.000258806,0.00305139,0.00172722,-0.00608205,1.12228,0.0047366,0.0128277,1973,1086,11.4967,-2.18406
756,-62,11.493,2.17126,-0.0057699,0.00271129,0.00275865,0.00352963,-0.00658824,1.28242,0.00592986,0.0130665,1980,1086,11.493,-2.17131
763,-62,11.4948,2.17346,-0.00766118,0.00447358,0.00264184,0.00502378,-0.00821139,1.36547,0.00771485,0.0129412,1987,1086,11.4948,-2.17341
770,-62,11.498,2.14917,-0.0100515,0.00716936,0.00261052,0.00755639,-0.0104385,1.42361,0.0104337,0.0103501,1994,1086,11.4981,-2.1492
777,-62,11.4912,2.08057,-0.0134582,0.0107294,0.00303688,0.0111049,-0.0138337,1.44778,0.014427,0.0123123,2001,1086,11.4913,-2.08057
784,-62,11.5187,2.05164,-0.0182081,0.0152457,0.00398668,0.0157142,-0.0186767,1.45381,0.0198801,0.0261958,2008,1086,11.5187,-2.05161
791,-62,11.3864,2.03711,-0.0241131,0.0208112,0.00528679,0.021425,-0.0247269,1.45522,0.0266685,0.0427861,2015,1086,11.3864,-2.03713
798,-62,11.3041,2.00146,-0.0308302,0.0273509,0.00691039,0.0281604,-0.0316397,1.45418,0.0345451,0.0464632,2022,1086,11.3041,-2.00148
805,-62,11.527,1.98987,-0.0381084,0.034606,0.00894087,0.0356892,-0.0391916,1.45023,0.0432482,0.0481811,2029,1086,11.527,-1.98981
812,-62,11.6614,1.9679,0,0,0,0,0,0,0,-1,2036,1086,11.6614,-1.96791
-700,-69,-7.63257,-1.12683,0,0,0,0,0,0,0,-1,524,1093,-7.63258,1.12689
-693,-69,-6.99188,-0.271362,0.0583389,0.0116136,0.0157376,0.0631452,0.00680734,0.296401,0.0400211,0.0440916,531,1093,-6.9919,0.271342
-686,-69,-6.49365,0.432617,0.0467893,0.0168034,0.0105327,0.0501192,0.0134735,0.306205,0.0299495,0.0441247,538,1093,-6.49368,-0.432642
-679,-69,-5.23499,-0.323242,0.0366935,0.0182663,0.00721345,0.0391814,0.0157785,0.332118,0.0227637,0.0435073,545,1093,-5.23496,0.323301
-672,-69,-5.58563,-0.0557861,0,0,0,0,0,0,0,-1,552,1093,-5.58565,0.0557436
-665,-69,-6.08472,-0.0623779,0.0209761,0.0155546,0.00375998,0.0229006,0.0136301,0.473077,0.0133013,0.0445152,559,1093,-6.08472,0.0624212
-658,-69,-5.97382,0.532959,0.0152108,0.0129795,0.00286867,0.0171731,0.0110171,0.599946,0.0100464,0.0448856,566,1093,-5.97381,-0.532937
-651,-69,-5.80072,0.751587,0.0106941,0.010255,0.00225344,0.0127386,0.00821043,0.736839,0.00745638,0.0305847,573,1093,-5.80073,-0.75162
-644,-69,-5.78925,0.77478,0.00747095,0.00817571,0.00145629,0.00932165,0.00632501,0.904102,0.00549502,0.00951081,580,1093,-5.78922,-0.774732
-637,-69,-5.78717,0.809937,0.00420067,0.00621266,0.000451543,0.00630935,0.00410398,1.35985,0.00369728,0.0114303,587,1093,-5.78718,-0.809933
-630,-69,-5.80725,0.824463,0.00151809,0.00455191,-0.000255473,0.00457327,0.00149672,-1.48737,0.00269238,0.0127049,594,1093,-5.80728,-0.82443
-623,-69,-5.78558,0.86438,-0.00010861,0.000671665,-0.000359682,0.000812167,-0.000249112,-1.19839,0.00064083,0.0122299,601,1093,-5.78557,-0.864321
-616,-69,-5.75684,0.894409,-0.000294254,0.000252553,-0.000904911,0.000924461,-0.000966162,-0.932105,0.00109164,0.0124699,608,1093,-5.75682,-0.894397
-609,-69,-5.76965,0.89502,-0.000590301,-0.000423454,-0.00173335,0.00122847,-0.00224223,-0.809444,0.00203211,0.0119964,615,1093,-5.76965,-0.895018
-602,-69,-5.77246,0.96582,-0.00111578,-0.00090781,-0.00242851,0.00141894,-0.00344253,-0.806794,0.00288668,0.0148842,622,1093,-5.77249,-0.965793
-595,-69,-5.76239,1.00085,-0.00139925,-0.00123782,-0.00278544,0.00146807,-0.00410514,-0.799883,0.0033356,0.0171505,629,1093,-5.76239,-1.0008
-588,-69,-5.81665,0.925903,-0.00139347,-0.00149766,-0.00304468,0.00159955,-0.00449069,-0.776844,0.00364588,0.0195423,636,1093,-5.81664,-0.925926
-581,-69,-5.88776,0.799316,-0.00118741,-0.0016309,-0.0031937,0.00179223,-0.00461054,-0.750738,0.00381415,0.025798,643,1093,-5.88778,-0.799278
-574,-69,-5.94104,0.709717,-0.00092304,-0.00181719,-0.00320897,0.00186985,-0.00461008,-0.716183,0.00385108,0.0292637,650,1093,-5.94106,-0.70966
-567,-69,-5.94739,0.684692,-0.000536521,-0.00191749,-0.00308125,0.00193067,-0.00438468,-0.675173,0.0037368,0.0342956,657,1093,-5.94741,-0.684712
-560,-69,-6.04468,0.631958,7.14865e-05,-0.00194956,-0.00287892,0.00211208,-0.00399015,-0.616612,0.00357831,0.0383975,664,1093,-6.04468,-0.631967
-553,-69,-5.97925,0.557495,0.000929402,-0.00190557,-0.00267855,0.00254242,-0.00351858,-0.542032,0.00351441,0.0387123,671,1093,-5.97927,-0.557503
-546,-69,-5.90472,0.554321,0.00209107,-0.0017845,-0.00254737,0.00335393,-0.00304736,-0.460241,0.0036972,0.0364532,678,1093,-5.90474,-0.554317
-539,-69,-5.79761,0.568359,0.00364542,-0.00159015,-0.00268868,0.00478021,-0.00272494,-0.399378,0.00438693,0.0388146,685,1093,-5.79759,-0.568302
-532,-69,-5.67114,0.44458,0.00533476,-0.00144681,-0.00383931,0.00706625,-0.0031783,-0.423677,0.00605502,0.0399795,692,1093,-5.67112,-0.444634
-525,-69,0,0,0,0,0,0,0,0,0,-1,699,1093,0,0
-518,-69,0,0,0,0,0,0,0,0,0,-1,706,1093,0,0
-511,-69,0,0,0,0,0,0,0,0,0,-1,713,1093,0,0
-504,-69,0,0,0,0,0,0,0,0,0,-1,720,1093,0,0
-497,-69,0,0,0,0,0,0,0,0,0,-1,727,1093,0,0
-490,-69,0,0,0,0,0,0,0,0,0,-1,734,1093,0,0
-483,-69,0,0,0,0,0,0,0,0,0,-1,741,1093,0,0
-476,-69,0,0,0,0,0,0,0,0,0,-1,748,1093,0,0
-469,-69,0,0,0,0,0,0,0,0,0,-1,755,1093,0,0
-462,-69,0,0,0,0,0,0,0,0,0,-1,762,1093,0,0
-455,-69,0,0,0,0,0,0,0,0,0,-1,769,1093,0,0
-448,-69,0,0,0,0,0,0,0,0,0,-1,776,1093,0,0
-441,-69,0,0,0,0,0,0,0,0,0,-1,783,1093,0,0
-434,-69,0,0,0,0,0,0,0,0,0,-1,790,1093,0,0
-427,-69,0,0,0,0,0,0,0,0,0,-1,797,1093,0,0
-420,-69,0,0,0,0,0,0,0,0,0,-1,804,1093,0,0
-413,-69,0,0,0,0,0,0,0,0,0,-1,811,1093,0,0
-406,-69,0,0,0,0,0,0,0,0,0,-1,818,1093,0,0
-399,-69,0,0,0,0,0,0,0,0,0,-1,825,1093,0,0
-392,-69,0,0,0,0,0,0,0,0,0,-1,832,1093,0,0
-385,-69,0,0,0,0,0,0,0,0,0,-1,839,1093,0,0
-378,-69,0,0,0,0,0,0,0,0,0,-1,846,1093,0,0
-371,-69,0,0,0,0,0,0,0,0,0,-1,853,1093,0,0
-364,-69,0,0,0,0,0,0,0,0,0,-1,860,1093,0,0
-357,-69,0,0,0,0,0,0,0,0,0,-1,867,1093,0,0
-350,-69,0,0,0,0,0,0,0,0,0,-1,874,1093,0,0
-343,-69,0,0,0,0,0,0,0,0,0,-1,881,1093,0,0
-336,-69,0,0,0,0,0,0,0,0,0,-1,888,1093,0,0
-329,-69,0,0,0,0,0,0,0,0,0,-1,895,1093,0,0
-322,-69,0,0,0,0,0,0,0,0,0,-1,902,1093,0,0
-315,-69,0,0,0,0,0,0,0,0,0,-1,909,1093,0,0
-308,-69,0,0,0,0,0,0,0,0,0,-1,916,1093,0,0
-301,-69,0,0,0,0,0,0,0,0,0,-1,923,1093,0,0
-294,-69,0,0,0,0,0,0,0,0,0,-1,930,1093,0,0
-287,-69,0,0,0,0,0,0,0,0,0,-1,937,1093,0,0
-280,-69,0,0,0,0,0,0,0,0,0,-1,944,1093,0,0
-273,-69,0,0,0,0,0,0,0,0,0,-1,951,1093,0,0
-266,-69,0,0,0,0,0,0,0,0,0,-1,958,1093,0,0
-259,-69,0,0,0,0,0,0,0,0,0,-1,965,1093,0,0
-252,-69,0,0,0,0,0,0,0,0,0,-1,972,1093,0,0
-245,-69,0,0,0,0,0,0,0,0,0,-1,979,1093,0,0
-238,-69,0,0,0,0,0,0,0,0,0,-1,986,1093,0,0
-231,-69,0,0,0,0,0,0,0,0,0,-1,993,1093,0,0
-224,-69,0,0,0,0,0,0,0,0,0,-1,1000,1093,0,0
-217,-69,0,0,0,0,0,0,0,0,0,-1,1007,1093,0,0
-210,-69,0,0,0,0,0,0,0,0,0,-1,1014,1093,0,0
-203,-69,0,0,0,0,0,0,0,0,0,-1,1021,1093,0,0
-196,-69,0,0,0,0,0,0,0,0,0,-1,1028,1093,0,0
-189,-69,0,0,0,0,0,0,0,0,0,-1,1035,1093,0,0
-182,-69,0,0,0,0,0,0,0,0,0,-1,1042,1093,0,0
-175,-69,0,0,0,0,0,0,0,0,0,-1,1049,1093,0,0
-168,-69,0,0,0,0,0,0,0,0,0,-1,1056,1093,0,0
-161,-69,0,0,0,0,0,0,0,0,0,-1,1063,1093,0,0
-154,-69,0,0,0,0,0,0,0,0,0,-1,1070,1093,0,0
-147,-69,0,0,0,0,0,0,0,0,0,-1,1077,1093,0,0
-140,-69,0,0,0,0,0,0,0,0,0,-1,1084,1093,0,0
-133,-69,0,0,0,0,0,0,0,0,0,-1,1091,1093,0,0
-126,-69,0,0,0,0,0,0,0,0,0,-1,1098,1093,0,0
-119,-69,0,0,0,0,0,0,0,0,0,-1,1105,1093,0,0
-112,-69,0,0,0,0,0,0,0,0,0,-1,1112,1093,0,0
-105,-69,0,0,0,0,0,0,0,0,0,-1,1119,1093,0,0
-98,-69,0,0,0,0,0,0,0,0,0,-1,1126,1093,0,0
-91,-69,0,0,0,0,0,0,0,0,0,-1,1133,1093,0,0
-84,-69,0,0,0,0,0,0,0,0,0,-1,1140,1093,0,0
-77,-69,0,0,0,0,0,0,0,0,0,-1,1147,1093,0,0
-70,-69,0,0,0,0,0,0,0,0,0,-1,1154,1093,0,0
-63,-69,0,0,0,0,0,0,0,0,0,-1,1161,1093,0,0
-56,-69,0,0,0,0,0,0,0,0,0,-1,1168,1093,0,0
-49,-69,0,0,0,0,0,0,0,0,0,-1,1175,1093,0,0
-42,-69,0,0,0,0,0,0,0,0,0,-1,1182,1093,0,0
-35,-69,0,0,0,0,0,0,0,0,0,-1,1189,1093,0,0
-28,-69,0,0,0,0,0,0,0,0,0,-1,1196,1093,0,0
-21,-69,0,0,0,0,0,0,0,0,0,-1,1203,1093,0,0
-14,-69,0,0,0,0,0,0,0,0,0,-1,1210,1093,0,0
-7,-69,0,0,0,0,0,0,0,0,0,-1,1217,1093,0,0
0,-69,0,0,0,0,0,0,0,0,0,-1,1224,1093,0,0
7,-69,0,0,0,0,0,0,0,0,0,-1,1231,1093,0,0
14,-69,0,0,0,0,0,0,0,0,0,-1,1238,1093,0,0
21,-69,0,0,0,0,0,0,0,0,0,-1,1245,1093,0,0
28,-69,0,0,0,0,0,0,0,0,0,-1,1252,1093,0,0
35,-69,0,0,0,0,0,0,0,0,0,-1,1259,1093,0,0
42,-69,0,0,0,0,0,0,0,0,0,-1,1266,1093,0,0
49,-69,0,0,0,0,0,0,0,0,0,-1,1273,1093,0,0
56,-69,0,0,0,0,0,0,0,0,0,-1,1280,1093,0,0
63,-69,0,0,0,0,0,0,0,0,0,-1,1287,1093,0,0
70,-69,0,0,0,0,0,0,0,0,0,-1,1294,1093,0,0
77,-69,0,0,0,0,0,0,0,0,0,-1,1301,1093,0,0
84,-69,0,0,0,0,0,0,0,0,0,-1,1308,1093,0,0
91,-69,0,0,0,0,0,0,0,0,0,-1,1315,1093,0,0
98,-69,0,0,0,0,0,0,0,0,0,-1,1322,1093,0,0
105,-69,0,0,0,0,0,0,0,0,0,-1,1329,1093,0,0
112,-69,0,0,0,0,0,0,0,0,0,-1,1336,1093,0,0
119,-69,0,0,0,0,0,0,0,0,0,-1,1343,1093,0,0
126,-69,0,0,0,0,0,0,0,0,0,-1,1350,1093,0,0
133,-69,0,0,0,0,0,0,0,0,0,-1,1357,1093,0,0
140,-69,0,0,0,0,0,0,0,0,0,-1,1364,1093,0,0
147,-69,0,0,0,0,0,0,0,0,0,-1,1371,1093,0,0
154,-69,0,0,0,0,0,0,0,0,0,-1,1378,1093,0,0
161,-69,0,0,0,0,0,0,0,0,0,-1,1385,1093,0,0
168,-69,0,0,0,0,0,0,0,0,0,-1,1392,1093,0,0
175,-69,0,0,0,0,0,0,0,0,0,-1,1399,1093,0,0
182,-69,0,0,0,0,0,0,0,0,0,-1,1406,1093,0,0
189,-69,0,0,0,0,0,0,0,0,0,-1,1413,1093,0,0
196,-69,0,0,0,0,0,0,0,0,0,-1,1420,1093,0,0
203,-69,0,0,0,0,0,0,0,0,0,-1,1427,1093,0,0
210,-69,0,0,0,0,0,0,0,0,0,-1,1434,1093,0,0
217,-69,0,0,0,0,0,0,0,0,0,-1,1441,1093,0,0
224,-69,0,0,0,0,0,0,0,0,0,-1,1448,1093,0,0
231,-69,0,0,0,0,0,0,0,0,0,-1,1455,1093,0,0
238,-69,0,0,0,0,0,0,0,0,0,-1,1462,1093,0,0
245,-69,0,0,0,0,0,0,0,0,0,-1,1469,1093,0,0
252,-69,0,0,0,0,0,0,0,0,0,-1,1476,1093,0,0
259,-69,0,0,0,0,0,0,0,0,0,-1,1483,1093,0,0
266,-69,0,0,0,0,0,0,0,0,0,-1,1490,1093,0,0
273,-69,0,0,0,0,0,0,0,0,0,-1,1497,1093,0,0
280,-69,0,0,0,0,0,0,0,0,0,-1,1504,1093,0,0
287,-69,0,0,0,0,0,0,0,0,0,-1,1511,1093,0,0
294,-69,0,0,0,0,0,0,0,0,0,-1,1518,1093,0,0
301,-69,0,0,0,0,0,0,0,0,0,-1,1525,1093,0,0
308,-69,0,0,0,0,0,0,0,0,0,-1,1532,1093,0,0
315,-69,0,0,0,0,0,0,0,0,0,-1,1539,1093,0,0
322,-69,0,0,0,0,0,0,0,0,0,-1,1546,1093,0,0
329,-69,0,0,0,0,0,0,0,0,0,-1,1553,1093,0,0
336,-69,0,0,0,0,0,0,0,0,0,-1,1560,1093,0,0
343,-69,0,0,0,0,0,0,0,0,0,-1,1567,1093,0,0
350,-69,0,0,0,0,0,0,0,0,0,-1,1574,1093,0,0
357,-69,0,0,0,0,0,0,0,0,0,-1,1581,1093,0,0
364,-69,0,0,0,0,0,0,0,0,0,-1,1588,1093,0,0
371,-69,0,0,0,0,0,0,0,0,0,-1,1595,1093,0,0
378,-69,0,0,0,0,0,0,0,0,0,-1,1602,1093,0,0
385,-69,0,0,0,0,0,0,0,0,0,-1,1609,1093,0,0
392,-69,0,0,0,0,0,0,0,0,0,-1,1616,1093,0,0
399,-69,0,0,0,0,0,0,0,0,0,-1,1623,1093,0,0
406,-69,0,0,0,0,0,0,0,0,0,-1,1630,1093,0,0
413,-69,0,0,0,0,0,0,0,0,0,-1,1637,1093,0,0
420,-69,0,0,0,0,0,0,0,0,0,-1,1644,1093,0,0
427,-69,0,0,0,0,0,0,0,0,0,-1,1651,1093,0,0
434,-69,0,0,0,0,0,0,0,0,0,-1,1658,1093,0,0
441,-69,0,0,0,0,0,0,0,0,0,-1,1665,1093,0,0
448,-69,0,0,0,0,0,0,0,0,0,-1,1672,1093,0,0
455,-69,0,0,0,0,0,0,0,0,0,-1,1679,1093,0,0
462,-69,0,0,0,0,0,0,0,0,0,-1,1686,1093,0,0
469,-69,0,0,0,0,0,0,0,0,0,-1,1693,1093,0,0
476,-69,0,0,0,0,0,0,0,0,0,-1,1700,1093,0,0
483,-69,0,0,0,0,0,0,0,0,0,-1,1707,1093,0,0
490,-69,0,0,0,0,0,0,0,0,0,-1,1714,1093,0,0
497,-69,0,0,0,0,0,0,0,0,0,-1,1721,1093,0,0
504,-69,0,0,0,0,0,0,0,0,0,-1,1728,1093,0,0
511,-69,0,0,0,0,0,0,0,0,0,-1,1735,1093,0,0
518,-69,0,0,0,0,0,0,0,0,0,-1,1742,1093,0,0
525,-69,0,0,0,0,0,0,0,0,0,-1,1749,1093,0,0
532,-69,0,0,0,0,0,0,0,0,0,-1,1756,1093,0,0
539,-69,0,0,0,0,0,0,0,0,0,-1,1763,1093,0,0
546,-69,0,0,0,0,0,0,0,0,0,-1,1770,1093,0,0
553,-69,0,0,0,0,0,0,0,0,0,-1,1777,1093,0,0
560,-69,0,0,0,0,0,0,0,0,0,-1,1784,1093,0,0
567,-69,0,0,0,0,0,0,0,0,0,-1,1791,1093,0,0
574,-69,0,0,0,0,0,0,0,0,0,-1,1798,1093,0,0
581,-69,0,0,0,0,0,0,0,0,0,-1,1805,1093,0,0
588,-69,0,0,0,0,0,0,0,0,0,-1,1812,1093,0,0
595,-69,0,0,0,0,0,0,0,0,0,-1,1819,1093,0,0
602,-69,0,0,0,0,0,0,0,0,0,-1,1826,1093,0,0
609,-69,0,0,0,0,0,0,0,0,0,-1,1833,1093,0,0
616,-69,0,0,0,0,0,0,0,0,0,-1,1840,1093,0,0
623,-69,0,0,0,0,0,0,0,0,0,-1,1847,1093,0,0
630,-69,0,0,0,0,0,0,0,0,0,-1,1854,1093,0,0
637,-69,0,0,0,0,0,0,0,0,0,-1,1861,1093,0,0
644,-69,0,0,0,0,0,0,0,0,0,-1,1868,1093,0,0
651,-69,11.6575,1.86475,-0.00256049,-0.000267847,-0.00276961,0.0015833,-0.00441164,-0.981611,0.00358728,0.0416435,1875,1093,11.6575,-1.86479
658,-69,11.7035,1.73218,-0.00186964,-0.000452693,-0.00156357,0.000555424,-0.00287776,-0.998118,0.00212795,0.0449156,1882,1093,11.7035,-1.73221
665,-69,11.8142,1.65369,-0.00135907,-0.000590212,-0.000642802,-0.000225655,-0.00172363,-1.05489,0.00108174,0.0422209,1889,1093,11.8142,-1.65371
672,-69,11.7429,1.67761,-0.00129436,-0.00079759,0.000438347,-0.000542146,-0.0015498,1.04316,0.000908134,0.0355624,1896,1093,11.7429,-1.67757
679,-69,11.7501,1.70581,-0.0017354,-0.00102874,0.00153083,0.000189008,-0.00295315,0.898817,0.0020347,0.0346897,1903,1093,11.7501,-1.70582
686,-69,11.8936,1.65735,-0.00230252,-0.00123034,0.00246112,0.000752404,-0.00428525,0.892635,0.00313785,0.0365404,1910,1093,11.8936,-1.65732
693,-69,11.7683,1.63867,-0.00285884,-0.00138878,0.00321762,0.00117669,-0.00542431,0.897691,0.0040656,0.0349211,1917,1093,11.7683,-1.63867
700,-69,11.7075,1.68335,-0.00332429,-0.00150788,0.00386291,0.00155215,-0.00638432,0.900856,0.00485698,0.0284291,1924,1093,11.7075,-1.6833
707,-69,11.7314,1.70251,-0.00366345,-0.00154593,0.00430441,0.00182802,-0.0070374,0.90599,0.00540498,0.0207437,1931,1093,11.7314,-1.70256
714,-69,11.7799,1.73694,-0.00393383,-0.00149267,0.00449099,0.00194065,-0.00736715,0.918085,0.00567012,0.0203563,1938,1093,11.7799,-1.73688
721,-69,11.8041,2.02856,-0.00405556,-0.00140226,0.00436443,0.00183269,-0.00729051,0.932945,0.00557262,0.0302588,1945,1093,11.8041,-2.02851
728,-69,11.5856,2.2146,-0.00403685,-0.00118354,0.00407873,0.00171085,-0.00693124,0.953637,0.00528425,0.0171965,1952,1093,11.5855,-2.21459
735,-69,11.5061,2.23022,-0.00401252,-0.000884933,0.0037294,0.00159527,-0.00649273,0.983921,0.00494674,0.0151688,1959,1093,11.5062,-2.23019
742,-69,11.505,2.21594,-0.00471747,-0.000641798,0.00338027,0.00126739,-0.00662666,1.05666,0.00489524,0.0126547,1966,1093,11.505,-2.21594
749,-69,11.4612,2.18542,-0.00530752,0.000632624,0.0026932,0.00167187,-0.00634677,1.20252,0.00488479,0.0140362,1973,1093,11.4611,-2.18546
756,-69,11.4714,2.16882,-0.00698076,0.00384744,0.00206615,0.00422829,-0.00736161,1.38851,0.00677246,0.0135606,1980,1093,11.4715,-2.16887
763,-69,11.4744,2.16418,-0.00947291,0.00624181,0.00164258,0.00641167,-0.00964276,1.46776,0.00933139,0.0132387,1987,1093,11.4744,-2.16416
770,-69,11.465,2.14807,-0.0126313,0.00984897,0.00114874,0.00990752,-0.0126898,1.51987,0.0130795,0.0131729,1994,1093,11.4649,-2.14809
777,-69,11.4628,2.09631,-0.0170539,0.0146039,0.00100388,0.0146357,-0.0170857,1.53913,0.0183326,0.0178452,2001,1093,11.4628,-2.09632
784,-69,11.4908,2.08899,-0.0230322,0.0206413,0.00125283,0.0206772,-0.0230681,1.54214,0.0252689,0.0305059,2008,1093,11.4909,-2.08893
791,-69,10.9052,2.55176,-0.0303627,0.028082,0.0017483,0.0281343,-0.030415,1.54092,0.0338119,0.0438808,2015,1093,10.9052,-2.55179
798,-69,11.2913,1.81152,0,0,0,0,0,0,0,-1,2022,1093,11.2912,-1.81147
805,-69,11.4915,1.80518,0,0,0,0,0,0,0,-1,2029,1093,11.4915,-1.80515
812,-69,8.11047,4.26392,0,0,0,0,0,0,0,-1,2036,1093,8.11049,-4.26397
-700,-76,0,0,0,0,0,0,0,0,0,-1,524,1100,0,0
-693,-76,-7.29987,-0.13147,0.0632726,0.0121778,0.0129205,0.066354,0.00909637,0.234117,0.0415372,0.0422427,531,1100,-7.29987,0.131495
-686,-76,-6.75482,0.441895,0.0505755,0.0173729,0.00824129,0.0525085,0.0154399,0.230392,0.0311613,0.0461622,538,1100,-6.75483,-0.441949
-679,-76,-5.99878,0.102051,0,0,0,0,0,0,0,-1,545,1100,-5.99877,-0.102013
-672,-76,-6.2135,-0.136475,0.0301517,0.0177793,0.00366918,0.031158,0.016773,0.267674,0.0180067,0.0465658,552,1100,-6.21352,0.136473
-665,-76,-6.41333,-0.353394,0.022423,0.0156407,0.00265061,0.023336,0.0147277,0.33172,0.0136266,0.0467589,559,1100,-6.41333,0.353409
-658,-76,-5.96057,0.607666,0.0162031,0.0129536,0.00203362,0.0171813,0.0119754,0.44835,0.010173,0.0452616,566,1100,-5.96058,-0.607705
-651,-76,-5.76312,0.758057,0.0113554,0.010171,0.00164051,0.0125073,0.00901905,0.612183,0.00745272,0.0270702,573,1100,-5.76315,-0.758052
-644,-76,-5.73224,0.78064,0.00783981,0.00798316,0.00108022,0.00899409,0.00682889,0.818524,0.00542044,0.00970152,580,1100,-5.73226,-0.78069
-637,-76,-5.75214,0.807373,0.00439397,0.00602312,0.000180918,0.00604297,0.00437412,1.46152,0.00360356,0.0123607,587,1100,-5.75216,-0.807371
-630,-76,-5.77856,0.817627,0.00155554,0.00430206,-0.000501822,0.00439088,0.00146672,-1.39562,0.00258121,0.0137204,594,1100,-5.77855,-0.817612
-623,-76,-5.76367,0.845337,-0.00019865,0.000611665,-0.000474923,0.000830771,-0.000417756,-1.13854,0.000733866,0.0131511,601,1100,-5.76368,-0.845332
-616,-76,-5.74121,0.88501,-0.000451162,0.000175571,-0.000967083,0.00087879,-0.00115438,-0.942077,0.00117744,0.0114853,608,1100,-5.7412,-0.884994
-609,-76,-5.75812,0.900269,-0.000817488,-0.000494266,-0.00175864,0.00111017,-0.00242192,-0.831217,0.0020856,0.0117461,615,1100,-5.75813,-0.900328
-602,-76,-5.74744,0.96167,-0.00137801,-0.000961065,-0.00247152,0.00131075,-0.00364983,-0.827474,0.00296823,0.0166397,622,1100,-5.74744,-0.961659
-595,-76,-5.73248,1.00378,-0.00166498,-0.00124395,-0.00282447,0.00137784,-0.00428676,-0.822596,0.00341117,0.0205961,629,1100,-5.73246,-1.00381
-588,-76,-5.77698,0.943115,-0.00170292,-0.00147247,-0.003107,0.00152144,-0.00469684,-0.803933,0.00374291,0.022302,636,1100,-5.77699,-0.943173
-581,-76,-5.86029,0.740234,-0.00149881,-0.00157275,-0.0032958,0.00176023,-0.00483179,-0.77979,0.00394121,0.0270992,643,1100,-5.86028,-0.740219
-574,-76,-5.83679,0.60376,-0.00117949,-0.00171157,-0.0033631,0.00192808,-0.00481914,-0.745927,0.00401294,0.0352977,650,1100,-5.83677,-0.603789
-567,-76,-5.90784,0.77832,-0.00073834,-0.0017524,-0.00330416,0.00209747,-0.00458821,-0.709266,0.00394826,0.0385936,657,1100,-5.90785,-0.778301
-560,-76,-5.65582,0.958252,-4.466e-05,-0.00172157,-0.00320372,0.00242851,-0.00419473,-0.657413,0.00386899,0.040573,664,1100,-5.65581,-0.958207
-553,-76,-5.6217,0.390137,0.000935003,-0.00162127,-0.00314817,0.0030546,-0.00374087,-0.592567,0.00393003,0.0427798,671,1100,-5.62173,-0.390143
-546,-76,-5.8761,0.924438,0.00226153,-0.00146216,-0.00321426,0.00411424,-0.00331487,-0.522889,0.00429747,0.0418151,678,1100,-5.8761,-0.924416
-539,-76,-5.90234,0.690063,0.00404719,-0.00126946,-0.00359484,0.00585984,-0.00308211,-0.46703,0.00524501,0.0415556,685,1100,-5.90234,-0.690033
-532,-76,-5.78375,0.529541,0.00600541,-0.00120297,-0.00503085,0.00858988,-0.00378745,-0.474568,0.00732316,0.0429347,692,1100,-5.78376,-0.529493
-525,-76,0,0,0,0,0,0,0,0,0,-1,699,1100,0,0
-518,-76,0,0,0,0,0,0,0,0,0,-1,706,1100,0,0
-511,-76,0,0,0,0,0,0,0,0,0,-1,713,1100,0,0
-504,-76,0,0,0,0,0,0,0,0,0,-1,720,1100,0,0
-497,-76,0,0,0,0,0,0,0,0,0,-1,727,1100,0,0
-490,-76,0,0,0,0,0,0,0,0,0,-1,734,1100,0,0
-483,-76,0,0,0,0,0,0,0,0,0,-1,741,1100,0,0
-476,-76,0,0,0,0,0,0,0,0,0,-1,748,1100,0,0
-469,-76,0,0,0,0,0,0,0,0,0,-1,755,1100,0,0
-462,-76,0,0,0,0,0,0,0,0,0,-1,762,1100,0,0
-455,-76,0,0,0,0,0,0,0,0,0,-1,769,1100,0,0
-448,-76,0,0,0,0,0,0,0,0,0,-1,776,1100,0,0
-441,-76,0,0,0,0,0,0,0,0,0,-1,783,1100,0,0
-434,-76,0,0,0,0,0,0,0,0,0,-1,790,1100,0,0
-427,-76,0,0,0,0,0,0,0,0,0,-1,797,1100,0,0
-420,-76,0,0,0,0,0,0,0,0,0,-1,804,1100,0,0
-413,-76,0,0,0,0,0,0,0,0,0,-1,811,1100,0,0
-406,-76,0,0,0,0,0,0,0,0,0,-1,818,1100,0,0
-399,-76,0,0,0,0,0,0,0,0,0,-1,825,1100,0,0
-392,-76,0,0,0,0,0,0,0,0,0,-1,832,1100,0,0
-385,-76,0,0,0,0,0,0,0,0,0,-1,839,1100,0,0
-378,-76,0,0,0,0,0,0,0,0,0,-1,846,1100,0,0
-371,-76,0,0,0,0,0,0,0,0,0,-1,853,1100,0,0
-364,-76,0,0,0,0,0,0,0,0,0,-1,860,1100,0,0
-357,-76,0,0,0,0,0,0,0,0,0,-1,867,1100,0,0
-350,-76,0,0,0,0,0,0,0,0,0,-1,874,1100,0,0
-343,-76,0,0,0,0,0,0,0,0,0,-1,881,1100,0,0
-336,-76,0,0,0,0,0,0,0,0,0,-1,888,1100,0,0
-329,-76,0,0,0,0,0,0,0,0,0,-1,895,1100,0,0
-322,-76,0,0,0,0,0,0,0,0,0,-1,902,1100,0,0
-315,-76,0,0,0,0,0,0,0,0,0,-1,909,1100,0,0
-308,-76,0,0,0,0,0,0,0,0,0,-1,916,1100,0,0
-301,-76,0,0,0,0,0,0,0,0,0,-1,923,1100,0,0
-294,-76,0,0,0,0,0,0,0,0,0,-1,930,1100,0,0
-287,-76,0,0,0,0,0,0,0,0,0,-1,937,1100,0,0
-280,-76,0,0,0,0,0,0,0,0,0,-1,944,1100,0,0
-273,-76,0,0,0,0,0,0,0,0,0,-1,951,1100,0,0
-266,-76,0,0,0,0,0,0,0,0,0,-1,958,1100,0,0
-259,-76,0,0,0,0,0,0,0,0,0,-1,965,1100,0,0
-252,-76,0,0,0,0,0,0,0,0,0,-1,972,1100,0,0
-245,-76,0,0,0,0,0,0,0,0,0,-1,979,1100,0,0
-238,-76,0,0,0,0,0,0,0,0,0,-1,986,1100,0,0
-231,-76,0,0,0,0,0,0,0,0,0,-1,993,1100,0,0
-224,-76,0,0,0,0,0,0,0,0,0,-1,1000,1100,0,0
-217,-76,0,0,0,0,0,0,0,0,0,-1,1007,1100,0,0
-210,-76,0,0,0,0,0,0,0,0,0,-1,1014,1100,0,0
-203,-76,0,0,0,0,0,0,0,0,0,-1,1021,1100,0,0
-196,-76,0,0,0,0,0,0,0,0,0,-1,1028,1100,0,0
-189,-76,0,0,0,0,0,0,0,0,0,-1,1035,1100,0,0
-182,-76,0,0,0,0,0,0,0,0,0,-1,1042,1100,0,0
-175,-76,0,0,0,0,0,0,0,0,0,-1,1049,1100,0,0
-168,-76,0,0,0,0,0,0,0,0,0,-1,1056,1100,0,0
-161,-76,0,0,0,0,0,0,0,0,0,-1,1063,1100,0,0
-154,-76,0,0,0,0,0,0,0,0,0,-1,1070,1100,0,0
-147,-76,0,0,0,0,0,0,0,0,0,-1,1077,1100,0,0
-140,-76,0,0,0,0,0,0,0,0,0,-1,1084,1100,0,0
-133,-76,0,0,0,0,0,0,0,0,0,-1,1091,1100,0,0
-126,-76,0,0,0,0,0,0,0,0,0,-1,1098,1100,0,0
-119,-76,0,0,0,0,0,0,0,0,0,-1,1105,1100,0,0
-112,-76,0,0,0,0,0,0,0,0,0,-1,1112,1100,0,0
-105,-76,0,0,0,0,0,0,0,0,0,-1,1119,1100,0,0
-98,-76,0,0,0,0,0,0,0,0,0,-1,1126,1100,0,0
-91,-76,0,0,0,0,0,0,0,0,0,-1,1133,1100,0,0
-84,-76,0,0,0,0,0,0,0,0,0,-1,1140,1100,0,0
-77,-76,0,0,0,0,0,0,0,0,0,-1,1147,1100,0,0
-70,-76,0,0,0,0,0,0,0,0,0,-1,1154,1100,0,0
-63,-76,0,0,0,0,0,0,0,0,0,-1,1161,1100,0,0
-56,-76,0,0,0,0,0,0,0,0,0,-1,1168,1100,0,0
-49,-76,0,0,0,0,0,0,0,0,0,-1,1175,1100,0,0
-42,-76,0,0,0,0,0,0,0,0,0,-1,1182,1100,0,0
-35,-76,0,0,0,0,0,0,0,0,0,-1,1189,1100,0,0
-28,-76,0,0,0,0,0,0,0,0,0,-1,1196,1100,0,0
-21,-76,0,0,0,0,0,0,0,0,0,-1,1203,1100,0,0
-14,-76,0,0,0,0,0,0,0,0,0,-1,1210,1100,0,0
-7,-76,0,0,0,0,0,0,0,0,0,-1,1217,1100,0,0
0,-76,0,0,0,0,0,0,0,0,0,-1,1224,1100,0,0
7,-76,0,0,0,0,0,0,0,0,0,-1,1231,1100,0,0
14,-76,0,0,0,0,0,0,0,0,0,-1,1238,1100,0,0
21,-76,0,0,0,0,0,0,0,0,0,-1,1245,1100,0,0
28,-76,0,0,0,0,0,0,0,0,0,-1,1252,1100,0,0
35,-76,0,0,0,0,0,0,0,0,0,-1,1259,1100,0,0
42,-76,0,0,0,0,0,0,0,0,0,-1,1266,1100,0,0
49,-76,0,0,0,0,0,0,0,0,0,-1,1273,1100,0,0
56,-76,0,0,0,0,0,0,0,0,0,-1,1280,1100,0,0
63,-76,0,0,0,0,0,0,0,0,0,-1,1287,1100,0,0
70,-76,0,0,0,0,0,0,0,0,0,-1,1294,1100,0,0
77,-76,0,0,0,0,0,0,0,0,0,-1,1301,1100,0,0
84,-76,0,0,0,0,0,0,0,0,0,-1,1308,1100,0,0
91,-76,0,0,0,0,0,0,0,0,0,-1,1315,1100,0,0
98,-76,0,0,0,0,0,0,0,0,0,-1,1322,1100,0,0
105,-76,0,0,0,0,0,0,0,0,0,-1,1329,1100,0,0
112,-76,0,0,0,0,0,0,0,0,0,-1,1336,1100,0,0
119,-76,0,0,0,0,0,0,0,0,0,-1,1343,1100,0,0
126,-76,0,0,0,0,0,0,0,0,0,-1,1350,1100,0,0
133,-76,0,0,0,0,0,0,0,0,0,-1,1357,1100,0,0
140,-76,0,0,0,0,0,0,0,0,0,-1,1364,1100,0,0
147,-76,0,0,0,0,0,0,0,0,0,-1,1371,1100,0,0
154,-76,0,0,0,0,0,0,0,0,0,-1,1378,1100,0,0
161,-76,0,0,0,0,0,0,0,0,0,-1,1385,1100,0,0
168,-76,0,0,0,0,0,0,0,0,0,-1,1392,1100,0,0
175,-76,0,0,0,0,0,0,0,0,0,-1,1399,1100,0,0
182,-76,0,0,0,0,0,0,0,0,0,-1,1406,1100,0,0
189,-76,0,0,0,0,0,0,0,0,0,-1,1413,1100,0,0
196,-76,0,0,0,0,0,0,0,0,0,-1,1420,1100,0,0
203,-76,0,0,0,0,0,0,0,0,0,-1,1427,1100,0,0
210,-76,0,0,0,0,0,0,0,0,0,-1,1434,1100,0,0
217,-76,0,0,0,0,0,0,0,0,0,-1,1441,1100,0,0
224,-76,0,0,0,0,0,0,0,0,0,-1,1448,1100,0,0
231,-76,0,0,0,0,0,0,0,0,0,-1,1455,1100,0,0
238,-76,0,0,0,0,0,0,0,0,0,-1,1462,1100,0,0
245,-76,0,0,0,0,0,0,0,0,0,-1,1469,1100,0,0
252,-76,0,0,0,0,0,0,0,0,0,-1,1476,1100,0,0
259,-76,0,0,0,0,0,0,0,0,0,-1,1483,1100,0,0
266,-76,0,0,0,0,0,0,0,0,0,-1,1490,1100,0,0
273,-76,0,0,0,0,0,0,0,0,0,-1,1497,1100,0,0
280,-76,0,0,0,0,0,0,0,0,0,-1,1504,1100,0,0
287,-76,0,0,0,0,0,0,0,0,0,-1,1511,1100,0,0
294,-76,0,0,0,0,0,0,0,0,0,-1,1518,1100,0,0
301,-76,0,0,0,0,0,0,0,0,0,-1,1525,1100,0,0
308,-76,0,0,0,0,0,0,0,0,0,-1,1532,1100,0,0
315,-76,0,0,0,0,0,0,0,0,0,-1,1539,1100,0,0
322,-76,0,0,0,0,0,0,0,0,0,-1,1546,1100,0,0
329,-76,0,0,0,0,0,0,0,0,0,-1,1553,1100,0,0
336,-76,0,0,0,0,0,0,0,0,0,-1,1560,1100,0,0
343,-76,0,0,0,0,0,0,0,0,0,-1,1567,1100,0,0
350,-76,0,0,0,0,0,0,0,0,0,-1,1574,1100,0,0
357,-76,0,0,0,0,0,0,0,0,0,-1,1581,1100,0,0
364,-76,0,0,0,0,0,0,0,0,0,-1,1588,1100,0,0
371,-76,0,0,0,0,0,0,0,0,0,-1,1595,1100,0,0
378,-76,0,0,0,0,0,0,0,0,0,-1,1602,1100,0,0
385,-76,0,0,0,0,0,0,0,0,0,-1,1609,1100,0,0
392,-76,0,0,0,0,0,0,0,0,0,-1,1616,1100,0,0
399,-76,0,0,0,0,0,0,0,0,0,-1,1623,1100,0,0
406,-76,0,0,0,0,0,0,0,0,0,-1,1630,1100,0,0
413,-76,0,0,0,0,0,0,0,0,0,-1,1637,1100,0,0
420,-76,0,0,0,0,0,0,0,0,0,-1,1644,1100,0,0
427,-76,0,0,0,0,0,0,0,0,0,-1,1651,1100,0,0
434,-76,0,0,0,0,0,0,0,0,0,-1,1658,1100,0,0
441,-76,0,0,0,0,0,0,0,0,0,-1,1665,1100,0,0
448,-76,0,0,0,0,0,0,0,0,0,-1,1672,1100,0,0
455,-76,0,0,0,0,0,0,0,0,0,-1,1679,1100,0,0
462,-76,0,0,0,0,0,0,0,0,0,-1,1686,1100,0,0
469,-76,0,0,0,0,0,0,0,0,0,-1,1693,1100,0,0
476,-76,0,0,0,0,0,0,0,0,0,-1,1700,1100,0,0
483,-76,0,0,0,0,0,0,0,0,0,-1,1707,1100,0,0
490,-76,0,0,0,0,0,0,0,0,0,-1,1714,1100,0,0
497,-76,0,0,0,0,0,0,0,0,0,-1,1721,1100,0,0
504,-76,0,0,0,0,0,0,0,0,0,-1,1728,1100,0,0
511,-76,0,0,0,0,0,0,0,0,0,-1,1735,1100,0,0
518,-76,0,0,0,0,0,0,0,0,0,-1,1742,1100,0,0
525,-76,0,0,0,0,0,0,0,0,0,-1,1749,1100,0,0
532,-76,0,0,0,0,0,0,0,0,0,-1,1756,1100,0,0
539,-76,0,0,0,0,0,0,0,0,0,-1,1763,1100,0,0
546,-76,0,0,0,0,0,0,0,0,0,-1,1770,1100,0,0
553,-76,0,0,0,0,0,0,0,0,0,-1,1777,1100,0,0
560,-76,0,0,0,0,0,0,0,0,0,-1,1784,1100,0,0
567,-76,0,0,0,0,0,0,0,0,0,-1,1791,1100,0,0
574,-76,0,0,0,0,0,0,0,0,0,-1,1798,1100,0,0
581,-76,0,0,0,0,0,0,0,0,0,-1,1805,1100,0,0
588,-76,0,0,0,0,0,0,0,0,0,-1,1812,1100,0,0
595,-76,0,0,0,0,0,0,0,0,0,-1,1819,1100,0,0
602,-76,0,0,0,0,0,0,0,0,0,-1,1826,1100,0,0
609,-76,0,0,0,0,0,0,0,0,0,-1,1833,1100,0,0
616,-76,0,0,0,0,0,0,0,0,0,-1,1840,1100,0,0
623,-76,0,0,0,0,0,0,0,0,0,-1,1847,1100,0,0
630,-76,0,0,0,0,0,0,0,0,0,-1,1854,1100,0,0
637,-76,0,0,0,0,0,0,0,0,0,-1,1861,1100,0,0
644,-76,0,0,0,0,0,0,0,0,0,-1,1868,1100,0,0
651,-76,11.7196,1.71924,-0.00225736,-0.000991512,-0.00331996,0.00175532,-0.00500419,-0.879589,0.00405008,0.0406558,1875,1100,11.7196,-1.71918
658,-76,11.6864,1.70398,-0.00159461,-0.00107599,-0.00192359,0.000605689,-0.00327629,-0.852398,0.00241158,0.0426409,1882,1100,11.6864,-1.70394
665,-76,11.7778,1.54297,-0.00113464,-0.00111546,-0.000848098,-0.000276898,-0.0019732,-0.791054,0.00123357,0.0394676,1889,1100,11.7779,-1.54302
672,-76,11.8015,1.63,-0.0012134,-0.0012455,0.000370436,-0.000858669,-0.00160024,0.76375,0.000924721,0.0365165,1896,1100,11.8015,-1.63002
679,-76,11.9419,1.64722,-0.00177057,-0.00140407,0.00153807,-3.83731e-05,-0.00313627,0.84469,0.00207817,0.0363863,1903,1100,11.9419,-1.64722
686,-76,11.9182,1.6571,-0.00242355,-0.00154475,0.00251149,0.000565493,-0.00453379,0.872,0.00322758,0.0358931,1910,1100,11.9182,-1.65705
693,-76,11.73,1.67102,-0.00304806,-0.00165306,0.00329174,0.00101427,-0.00571539,0.8898,0.00418948,0.0372422,1917,1100,11.73,-1.67105
700,-76,11.697,1.69653,-0.00353969,-0.00173904,0.00395922,0.00142093,-0.00669966,0.897197,0.00500774,0.0310328,1924,1100,11.697,-1.69649
707,-76,11.7139,1.71106,-0.00390283,-0.00174357,0.00440643,0.00171357,-0.00735997,0.905538,0.00556646,0.0220117,1931,1100,11.7138,-1.71102
714,-76,11.8007,1.82007,-0.00419882,-0.00163309,0.00457693,0.00183736,-0.00766927,0.922037,0.00582274,0.0289999,1938,1100,11.8007,-1.82007
721,-76,11.683,2.05383,-0.00431754,-0.00151004,0.00441247,0.00171659,-0.00754417,0.939403,0.00568864,0.0293763,1945,1100,11.683,-2.05387
728,-76,11.5304,2.21021,-0.00427455,-0.00127644,0.00409565,0.00158587,-0.00713686,0.960832,0.00536523,0.0190854,1952,1100,11.5304,-2.21015
735,-76,11.4298,2.22021,-0.00424468,-0.000953317,0.00367911,0.0014314,-0.0066294,0.995703,0.00496599,0.017875,1959,1100,11.4299,-2.22027
742,-76,11.4664,2.20422,-0.00510486,-0.000558986,0.00315333,0.0010552,-0.00671904,1.09767,0.00486936,0.0125531,1966,1100,11.4665,-2.20417
749,-76,11.4349,2.18323,-0.00595884,0.000968526,0.00217103,0.00159269,-0.006583,1.29085,0.00500476,0.0127643,1973,1100,11.4349,-2.18321
756,-76,11.4387,2.16333,-0.00811112,0.00465432,0.00116176,0.00475919,-0.00821598,1.48077,0.00757932,0.0137292,1980,1100,11.4388,-2.1633
763,-76,11.451,2.14514,-0.0112026,0.00709869,0.000290445,0.0071033,-0.0112072,1.55493,0.0106597,0.0138992,1987,1100,11.4511,-2.14513
770,-76,11.4572,2.13159,-0.0150666,0.0109955,-0.000798684,0.01102,-0.0150911,-1.54019,0.0151362,0.0133924,1994,1100,11.4571,-2.13159
777,-76,11.4424,2.12061,-0.0204137,0.0160083,-0.00167953,0.0160856,-0.020491,-1.52481,0.0211685,0.0160478,2001,1100,11.4424,-2.12065
784,-76,11.3497,2.16138,0,0,0,0,0,0,0,-1,2008,1100,11.3498,-2.16137
791,-76,10.8573,2.61584,0,0,0,0,0,0,0,-1,2015,1100,10.8573,-2.6158
798,-76,10.3649,3.07019,0,0,0,0,0,0,0,-1,2022,1100,10.3649,-3.07022
805,-76,9.34741,3.64343,-0.0570646,0.0480629,-0.00331068,0.0481671,-0.0571688,-1.53935,0.0608897,0.0479523,2029,1100,9.34739,-3.64342
812,-76,8.34741,4.12354,-0.0689723,0.0581091,-0.00262222,0.0581632,-0.0690264,-1.55017,0.0735221,0.0488977,2036,1100,8.34737,-4.12348
-700,-83,0,0,0,0,0,0,0,0,0,-1,524,1107,0,0
-693,-83,-7.62042,-0.202026,0.0698979,0.0123036,0.00950036,0.0714246,0.0107769,0.159332,0.0444616,0.0444935,531,1107,-7.62043,0.202025
-686,-83,-6.97052,0.46875,0.0554534,0.0174995,0.00533033,0.0561878,0.0167651,0.136914,0.0333076,0.0465802,538,1107,-6.97055,-0.468804
-679,-83,-6.33185,0.966553,0.0431327,0.0187317,0.00300748,0.0434979,0.0183665,0.120843,0.0252146,0.0478451,545,1107,-6.33182,-0.966569
-672,-83,-6.14142,0.945435,0.0328282,0.0177332,0.00179851,0.0330396,0.0175219,0.116964,0.0190871,0.0448567,552,1107,-6.14142,-0.945375
-665,-83,-5.7876,0.709106,0.0244093,0.0155438,0.00122446,0.0245754,0.0153778,0.134754,0.0143374,0.0445558,559,1107,-5.78759,-0.709063
-658,-83,-5.69281,0.605591,0.0176765,0.0128457,0.000979802,0.0178677,0.0126546,0.192683,0.0106099,0.0421492,566,1107,-5.69279,-0.60561
-651,-83,-5.68445,0.663818,0.0124402,0.0100826,0.000886324,0.0127362,0.00978658,0.32236,0.00769831,0.0299922,573,1107,-5.68443,-0.663794
-644,-83,-5.69006,0.727783,0.00853561,0.00783135,0.000617402,0.00889424,0.00747272,0.526238,0.00551704,0.0134876,580,1107,-5.69005,-0.727772
-637,-83,-5.69153,0.800903,0.0048708,0.00591857,-0.0001134,0.0059307,0.00485867,-1.46421,0.00364933,0.010483,587,1107,-5.69151,-0.80091
-630,-83,-5.7171,0.834229,0.00183628,0.00418451,-0.000720712,0.00438807,0.00163272,-1.29553,0.00256094,0.0150432,594,1107,-5.71709,-0.834221
-623,-83,-5.72241,0.84729,-7.05647e-05,0.000744067,-0.000548812,0.0010202,-0.000346696,-1.10464,0.000820489,0.0154444,601,1107,-5.72239,-0.847306
-616,-83,-5.7254,0.884399,-0.000482631,0.000158385,-0.000992827,0.000881156,-0.0012054,-0.941529,0.00120951,0.0121847,608,1107,-5.72543,-0.88435
-609,-83,-5.73175,0.925903,-0.00102875,-0.000550728,-0.00178325,0.00100946,-0.00258893,-0.852017,0.00214321,0.0112875,615,1107,-5.73176,-0.925869
-602,-83,-5.71814,0.973511,-0.00166137,-0.00102026,-0.00251775,0.00119726,-0.00387889,-0.848717,0.003064,0.0142435,622,1107,-5.71812,-0.973511
-595,-83,-5.68713,1.02539,-0.00195062,-0.00124008,-0.00287671,0.00130322,-0.00449392,-0.846837,0.0035119,0.0181156,629,1107,-5.68715,-1.02542
-588,-83,-5.71851,0.928467,-0.00203546,-0.00141493,-0.00318021,0.00147012,-0.0049205,-0.834024,0.00386473,0.0249552,636,1107,-5.71849,-0.928438
-581,-83,-5.82678,0.623291,-0.00186059,-0.00147034,-0.00339161,0.00173175,-0.00506268,-0.814132,0.00407688,0.0310776,643,1107,-5.8268,-0.623285
-574,-83,-5.7677,0.524048,-0.00150806,-0.00153749,-0.0034894,0.00196665,-0.0050122,-0.783289,0.00415516,0.0377296,650,1107,-5.76771,-0.524058
-567,-83,-5.76947,0.718262,-0.00103318,-0.00147648,-0.00346865,0.00222089,-0.00473055,-0.753491,0.00409967,0.0418149,657,1107,-5.76944,-0.718221
-560,-83,-5.6723,1,-0.000292138,-0.00132618,-0.0034176,0.00264733,-0.00426564,-0.710327,0.0040275,0.0428046,664,1107,-5.67231,-1.00003
-553,-83,-5.76373,1.15967,0.000744333,-0.00109947,-0.00342635,0.00337064,-0.00372578,-0.65398,0.00409883,0.0442184,671,1107,-5.76373,-1.1597
-546,-83,-5.828,1.26978,0.00212602,-0.000825854,-0.0035753,0.00451805,-0.00321788,-0.589646,0.00448732,0.0397943,678,1107,-5.828,-1.26972
-539,-83,-5.89661,0.978516,0.00396231,-0.000555666,-0.00403477,0.00632743,-0.00292078,-0.530199,0.00545887,0.0428787,685,1107,-5.89663,-0.978461
-532,-83,-5.85034,0.714966,0.00593626,-0.000487307,-0.00550748,0.00910005,-0.00365109,-0.521423,0.00758263,0.0449516,692,1107,-5.85032,-0.714914
-525,-83,0,0,0,0,0,0,0,0,0,-1,699,1107,0,0
-518,-83,0,0,0,0,0,0,0,0,0,-1,706,1107,0,0
-511,-83,0,0,0,0,0,0,0,0,0,-1,713,1107,0,0
-504,-83,0,0,0,0,0,0,0,0,0,-1,720,1107,0,0
-497,-83,0,0,0,0,0,0,0,0,0,-1,727,1107,0,0
-490,-83,0,0,0,0,0,0,0,0,0,-1,734,1107,0,0
-483,-83,0,0,0,0,0,0,0,0,0,-1,741,1107,0,0
-476,-83,0,0,0,0,0,0,0,0,0,-1,748,1107,0,0
-469,-83,0,0,0,0,0,0,0,0,0,-1,755,1107,0,0
-462,-83,0,0,0,0,0,0,0,0,0,-1,762,1107,0,0
-455,-83,0,0,0,0,0,0,0,0,0,-1,769,1107,0,0
-448,-83,0,0,0,0,0,0,0,0,0,-1,776,1107,0,0
-441,-83,0,0,0,0,0,0,0,0,0,-1,783,1107,0,0
-434,-83,0,0,0,0,0,0,0,0,0,-1,790,1107,0,0
-427,-83,0,0,0,0,0,0,0,0,0,-1,797,1107,0,0
-420,-83,0,0,0,0,0,0,0,0,0,-1,804,1107,0,0
-413,-83,0,0,0,0,0,0,0,0,0,-1,811,1107,0,0
-406,-83,0,0,0,0,0,0,0,0,0,-1,818,1107,0,0
-399,-83,0,0,0,0,0,0,0,0,0,-1,825,1107,0,0
-392,-83,0,0,0,0,0,0,0,0,0,-1,832,1107,0,0
-385,-83,0,0,0,0,0,0,0,0,0,-1,839,1107,0,0
-378,-83,0,0,0,0,0,0,0,0,0,-1,846,1107,0,0
-371,-83,0,0,0,0,0,0,0,0,0,-1,853,1107,0,0
-364,-83,0,0,0,0,0,0,0,0,0,-1,860,1107,0,0
-357,-83,0,0,0,0,0,0,0,0,0,-1,867,1107,0,0
-350,-83,0,0,0,0,0,0,0,0,0,-1,874,1107,0,0
-343,-83,0,0,0,0,0,0,0,0,0,-1,881,1107,0,0
-336,-83,0,0,0,0,0,0,0,0,0,-1,888,1107,0,0
-329,-83,0,0,0,0,0,0,0,0,0,-1,895,1107,0,0
-322,-83,0,0,0,0,0,0,0,0,0,-1,902,1107,0,0
-315,-83,0,0,0,0,0,0,0,0,0,-1,909,1107,0,0
-308,-83,0,0,0,0,0,0,0,0,0,-1,916,1107,0,0
-301,-83,0,0,0,0,0,0,0,0,0,-1,923,1107,0,0
-294,-83,0,0,0,0,0,0,0,0,0,-1,930,1107,0,0
-287,-83,0,0,0,0,0,0,0,0,0,-1,937,1107,0,0
-280,-83,0,0,0,0,0,0,0,0,0,-1,944,1107,0,0
-273,-83,0,0,0,0,0,0,0,0,0,-1,951,1107,0,0
-266,-83,0,0,0,0,0,0,0,0,0,-1,958,1107,0,0
-259,-83,0,0,0,0,0,0,0,0,0,-1,965,1107,0,0
-252,-83,0,0,0,0,0,0,0,0,0,-1,972,1107,0,0
-245,-83,0,0,0,0,0,0,0,0,0,-1,979,1107,0,0
-238,-83,0,0,0,0,0,0,0,0,0,-1,986,1107,0,0
-231,-83,0,0,0,0,0,0,0,0,0,-1,993,1107,0,0
-224,-83,0,0,0,0,0,0,0,0,0,-1,1000,1107,0,0
-217,-83,0,0,0,0,0,0,0,0,0,-1,1007,1107,0,0
-210,-83,0,0,0,0,0,0,0,0,0,-1,1014,1107,0,0
-203,-83,0,0,0,0,0,0,0,0,0,-1,1021,1107,0,0
-196,-83,0,0,0,0,0,0,0,0,0,-1,1028,1107,0,0
-189,-83,0,0,0,0,0,0,0,0,0,-1,1035,1107,0,0
-182,-83,0,0,0,0,0,0,0,0,0,-1,1042,1107,0,0
-175,-83,0,0,0,0,0,0,0,0,0,-1,1049,1107,0,0
-168,-83,0,0,0,0,0,0,0,0,0,-1,1056,1107,0,0
-161,-83,0,0,0,0,0,0,0,0,0,-1,1063,1107,0,0
-154,-83,0,0,0,0,0,0,0,0,0,-1,1070,1107,0,0
-147,-83,0,0,0,0,0,0,0,0,0,-1,1077,1107,0,0
-140,-83,0,0,0,0,0,0,0,0,0,-1,1084,1107,0,0
-133,-83,0,0,0,0,0,0,0,0,0,-1,1091,1107,0,0
-126,-83,0,0,0,0,0,0,0,0,0,-1,1098,1107,0,0
-119,-83,0,0,0,0,0,0,0,0,0,-1,1105,1107,0,0
-112,-83,0,0,0,0,0,0,0,0,0,-1,1112,1107,0,0
-105,-83,0,0,0,0,0,0,0,0,0,-1,1119,1107,0,0
-98,-83,0,0,0,0,0,0,0,0,0,-1,1126,1107,0,0
-91,-83,0,0,0,0,0,0,0,0,0,-1,1133,1107,0,0
-84,-83,0,0,0,0,0,0,0,0,0,-1,1140,1107,0,0
-77,-83,0,0,0,0,0,0,0,0,0,-1,1147,1107,0,0
-70,-83,0,0,0,0,0,0,0,0,0,-1,1154,1107,0,0
-63,-83,0,0,0,0,0,0,0,0,0,-1,1161,1107,0,0
-56,-83,0,0,0,0,0,0,0,0,0,-1,1168,1107,0,0
-49,-83,0,0,0,0,0,0,0,0,0,-1,1175,1107,0,0
-42,-83,0,0,0,0,0,0,0,0,0,-1,1182,1107,0,0
-35,-83,0,0,0,0,0,0,0,0,0,-1,1189,1107,0,0
-28,-83,0,0,0,0,0,0,0,0,0,-1,1196,1107,0,0
-21,-83,0,0,0,0,0,0,0,0,0,-1,1203,1107,0,0
-14,-83,0,0,0,0,0,0,0,0,0,-1,1210,1107,0,0
-7,-83,0,0,0,0,0,0,0,0,0,-1,1217,1107,0,0
0,-83,0,0,0,0,0,0,0,0,0,-1,1224,1107,0,0
7,-83,0,0,0,0,0,0,0,0,0,-1,1231,1107,0,0
14,-83,0,0,0,0,0,0,0,0,0,-1,1238,1107,0,0
21,-83,0,0,0,0,0,0,0,0,0,-1,1245,1107,0,0
28,-83,0,0,0,0,0,0,0,0,0,-1,1252,1107,0,0
35,-83,0,0,0,0,0,0,0,0,0,-1,1259,1107,0,0
42,-83,0,0,0,0,0,0,0,0,0,-1,1266,1107,0,0
49,-83,0,0,0,0,0,0,0,0,0,-1,1273,1107,0,0
56,-83,0,0,0,0,0,0,0,0,0,-1,1280,1107,0,0
63,-83,0,0,0,0,0,0,0,0,0,-1,1287,1107,0,0
70,-83,0,0,0,0,0,0,0,0,0,-1,1294,1107,0,0
77,-83,0,0,0,0,0,0,0,0,0,-1,1301,1107,0,0
84,-83,0,0,0,0,0,0,0,0,0,-1,1308,1107,0,0
91,-83,0,0,0,0,0,0,0,0,0,-1,1315,1107,0,0
98,-83,0,0,0,0,0,0,0,0,0,-1,1322,1107,0,0
105,-83,0,0,0,0,0,0,0,0,0,-1,1329,1107,0,0
112,-83,0,0,0,0,0,0,0,0,0,-1,1336,1107,0,0
119,-83,0,0,0,0,0,0,0,0,0,-1,1343,1107,0,0
126,-83,0,0,0,0,0,0,0,0,0,-1,1350,1107,0,0
133,-83,0,0,0,0,0,0,0,0,0,-1,1357,1107,0,0
140,-83,0,0,0,0,0,0,0,0,0,-1,1364,1107,0,0
147,-83,0,0,0,0,0,0,0,0,0,-1,1371,1107,0,0
154,-83,0,0,0,0,0,0,0,0,0,-1,1378,1107,0,0
161,-83,0,0,0,0,0,0,0,0,0,-1,1385,1107,0,0
168,-83,0,0,0,0,0,0,0,0,0,-1,1392,1107,0,0
175,-83,0,0,0,0,0,0,0,0,0,-1,1399,1107,0,0
182,-83,0,0,0,0,0,0,0,0,0,-1,1406,1107,0,0
189,-83,0,0,0,0,0,0,0,0,0,-1,1413,1107,0,0
196,-83,0,0,0,0,0,0,0,0,0,-1,1420,1107,0,0
203,-83,0,0,0,0,0,0,0,0,0,-1,1427,1107,0,0
210,-83,0,0,0,0,0,0,0,0,0,-1,1434,1107,0,0
217,-83,0,0,0,0,0,0,0,0,0,-1,1441,1107,0,0
224,-83,0,0,0,0,0,0,0,0,0,-1,1448,1107,0,0
231,-83,0,0,0,0,0,0,0,0,0,-1,1455,1107,0,0
238,-83,0,0,0,0,0,0,0,0,0,-1,1462,1107,0,0
245,-83,0,0,0,0,0,0,0,0,0,-1,1469,1107,0,0
252,-83,0,0,0,0,0,0,0,0,0,-1,1476,1107,0,0
259,-83,0,0,0,0,0,0,0,0,0,-1,1483,1107,0,0
266,-83,0,0,0,0,0,0,0,0,0,-1,1490,1107,0,0
273,-83,0,0,0,0,0,0,0,0,0,-1,1497,1107,0,0
280,-83,0,0,0,0,0,0,0,0,0,-1,1504,1107,0,0
287,-83,0,0,0,0,0,0,0,0,0,-1,1511,1107,0,0
294,-83,0,0,0,0,0,0,0,0,0,-1,1518,1107,0,0
301,-83,0,0,0,0,0,0,0,0,0,-1,1525,1107,0,0
308,-83,0,0,0,0,0,0,0,0,0,-1,1532,1107,0,0
315,-83,0,0,0,0,0,0,0,0,0,-1,1539,1107,0,0
322,-83,0,0,0,0,0,0,0,0,0,-1,1546,1107,0,0
329,-83,0,0,0,0,0,0,0,0,0,-1,1553,1107,0,0
336,-83,0,0,0,0,0,0,0,0,0,-1,1560,1107,0,0
343,-83,0,0,0,0,0,0,0,0,0,-1,1567,1107,0,0
350,-83,0,0,0,0,0,0,0,0,0,-1,1574,1107,0,0
357,-83,0,0,0,0,0,0,0,0,0,-1,1581,1107,0,0
364,-83,0,0,0,0,0,0,0,0,0,-1,1588,1107,0,0
371,-83,0,0,0,0,0,0,0,0,0,-1,1595,1107,0,0
378,-83,0,0,0,0,0,0,0,0,0,-1,1602,1107,0,0
385,-83,0,0,0,0,0,0,0,0,0,-1,1609,1107,0,0
392,-83,0,0,0,0,0,0,0,0,0,-1,1616,1107,0,0
399,-83,0,0,0,0,0,0,0,0,0,-1,1623,1107,0,0
406,-83,0,0,0,0,0,0,0,0,0,-1,1630,1107,0,0
413,-83,0,0,0,0,0,0,0,0,0,-1,1637,1107,0,0
420,-83,0,0,0,0,0,0,0,0,0,-1,1644,1107,0,0
427,-83,0,0,0,0,0,0,0,0,0,-1,1651,1107,0,0
434,-83,0,0,0,0,0,0,0,0,0,-1,1658,1107,0,0
441,-83,0,0,0,0,0,0,0,0,0,-1,1665,1107,0,0
448,-83,0,0,0,0,0,0,0,0,0,-1,1672,1107,0,0
455,-83,0,0,0,0,0,0,0,0,0,-1,1679,1107,0,0
462,-83,0,0,0,0,0,0,0,0,0,-1,1686,1107,0,0
469,-83,0,0,0,0,0,0,0,0,0,-1,1693,1107,0,0
476,-83,0,0,0,0,0,0,0,0,0,-1,1700,1107,0,0
483,-83,0,0,0,0,0,0,0,0,0,-1,1707,1107,0,0
490,-83,0,0,0,0,0,0,0,0,0,-1,1714,1107,0,0
497,-83,0,0,0,0,0,0,0,0,0,-1,1721,1107,0,0
504,-83,0,0,0,0,0,0,0,0,0,-1,1728,1107,0,0
511,-83,0,0,0,0,0,0,0,0,0,-1,1735,1107,0,0
518,-83,0,0,0,0,0,0,0,0,0,-1,1742,1107,0,0
525,-83,0,0,0,0,0,0,0,0,0,-1,1749,1107,0,0
532,-83,0,0,0,0,0,0,0,0,0,-1,1756,1107,0,0
539,-83,0,0,0,0,0,0,0,0,0,-1,1763,1107,0,0
546,-83,0,0,0,0,0,0,0,0,0,-1,1770,1107,0,0
553,-83,0,0,0,0,0,0,0,0,0,-1,1777,1107,0,0
560,-83,0,0,0,0,0,0,0,0,0,-1,1784,1107,0,0
567,-83,0,0,0,0,0,0,0,0,0,-1,1791,1107,0,0
574,-83,0,0,0,0,0,0,0,0,0,-1,1798,1107,0,0
581,-83,0,0,0,0,0,0,0,0,0,-1,1805,1107,0,0
588,-83,0,0,0,0,0,0,0,0,0,-1,1812,1107,0,0
595,-83,0,0,0,0,0,0,0,0,0,-1,1819,1107,0,0
602,-83,0,0,0,0,0,0,0,0,0,-1,1826,1107,0,0
609,-83,0,0,0,0,0,0,0,0,0,-1,1833,1107,0,0
616,-83,0,0,0,0,0,0,0,0,0,-1,1840,1107,0,0
623,-83,0,0,0,0,0,0,0,0,0,-1,1847,1107,0,0
630,-83,0,0,0,0,0,0,0,0,0,-1,1854,1107,0,0
637,-83,0,0,0,0,0,0,0,0,0,-1,1861,1107,0,0
644,-83,11.6603,1.76514,-0.00356003,-0.000936723,-0.00633315,0.00421917,-0.00871593,-0.887509,0.00761702,0.0346774,1868,1107,11.6603,-1.76518
651,-83,11.6649,1.63171,-0.0023766,-0.00117719,-0.00383292,0.00210266,-0.00565645,-0.863,0.0046337,0.0402144,1875,1107,11.6649,-1.63173
658,-83,11.7048,1.51135,-0.00162393,-0.0012554,-0.00229158,0.000859308,-0.00373864,-0.825517,0.0028228,0.0448635,1882,1107,11.7049,-1.51134
665,-83,11.6849,1.58093,-0.00113006,-0.0012905,-0.00107816,-0.000129132,-0.00229142,-0.748265,0.00148644,0.0413391,1889,1107,11.6849,-1.58096
672,-83,11.7024,1.70886,-0.00127325,-0.00142512,0.000262301,-0.00107612,-0.00162226,0.6445,0.000953127,0.0378093,1896,1107,11.7024,-1.70883
679,-83,11.7993,1.75134,-0.00187517,-0.00157539,0.00149319,-0.000224581,-0.00322598,0.835422,0.00207984,0.0365995,1903,1107,11.7993,-1.75134
686,-83,11.7985,1.66296,-0.00256097,-0.00170611,0.00250396,0.000406638,-0.00467372,0.869934,0.00325983,0.0340681,1910,1107,11.7985,-1.66294
693,-83,11.7919,1.67004,-0.00321195,-0.00180203,0.0033027,0.000870109,-0.0058841,0.890545,0.00424261,0.0349494,1917,1107,11.7919,-1.67009
700,-83,11.7506,1.68213,-0.00369922,-0.00187816,0.00398532,0.00129932,-0.0068767,0.897706,0.00507334,0.0305995,1924,1107,11.7506,-1.68219
707,-83,11.709,1.70313,-0.00406029,-0.00187308,0.00443795,0.00160402,-0.00753739,0.906202,0.0056362,0.0223276,1931,1107,11.7089,-1.70307
714,-83,11.7676,1.81458,-0.00436812,-0.00172172,0.00460067,0.00174225,-0.00783209,0.925424,0.00588869,0.0302317,1938,1107,11.7675,-1.81457
721,-83,11.5319,2.16382,-0.00448943,-0.00157577,0.00440512,0.00160717,-0.00767237,0.945093,0.00572631,0.0202325,1945,1107,11.5318,-2.16376
728,-83,11.4033,2.21533,-0.00443246,-0.00132169,0.00406366,0.00147408,-0.00722823,0.968174,0.00537794,0.0184586,1952,1107,11.4033,-2.21533
735,-83,11.376,2.19629,-0.00437286,-0.00099341,0.00359014,0.00128477,-0.00665104,1.00535,0.00491854,0.0196349,1959,1107,11.376,-2.1963
742,-83,11.4113,2.18823,-0.00532547,-0.000471846,0.00291063,0.000890954,-0.00668827,1.1329,0.00478357,0.0125516,1966,1107,11.4112,-2.18823
749,-83,11.4229,2.16528,-0.006444,0.00124042,0.00165278,0.00158083,-0.0067844,1.36768,0.00513169,0.0107013,1973,1107,11.4229,-2.16527
756,-83,11.431,2.15332,-0.00902061,0.00511478,0.000290858,0.00512076,-0.00902659,1.55023,0.00827109,0.0126444,1980,1107,11.4311,-2.15327
763,-83,11.4376,2.12549,-0.0125864,0.00727155,-0.000990068,0.00732079,-0.0126357,-1.5211,0.0116573,0.0112525,1987,1107,11.4376,-2.12545
770,-83,11.4324,2.11084,-0.0170225,0.0110606,-0.00261242,0.0113015,-0.0172635,-1.47882,0.0166113,0.0129507,1994,1107,11.4324,-2.11078
777,-83,11.4199,2.09155,-0.0231195,0.0157863,-0.00414689,0.0162234,-0.0235566,-1.46578,0.0230967,0.0138103,2001,1107,11.4199,-2.09155
784,-83,11.4125,2.11755,0,0,0,0,0,0,0,-1,2008,1107,11.4124,-2.1176
791,-83,10.7395,2.63684,-0.0406953,0.0281261,-0.00708884,0.0288487,-0.0414179,-1.46921,0.0407842,0.0390545,2015,1107,10.7395,-2.6369
798,-83,10.0751,3.16089,0,0,0,0,0,0,0,-1,2022,1107,10.0751,-3.16093
805,-83,9.323,3.56335,-0.0641082,0.0432186,-0.00974119,0.0440956,-0.0649851,-1.48101,0.0633615,0.0491066,2029,1107,9.32297,-3.56332
812,-83,8.44373,4.10266,-0.0775348,0.0504409,-0.0102991,0.0512645,-0.0783583,-1.491,0.0753807,0.0499593,2036,1107,8.44368,-4.10267
-700,-90,0,0,0,0,0,0,0,0,0,-1,524,1114,0,0
-693,-90,-7.67151,-0.665894,0,0,0,0,0,0,0,-1,531,1114,-7.67149,0.665946
-686,-90,-4.85406,-0.0270996,0,0,0,0,0,0,0,-1,538,1114,-4.85405,0.0271299
-679,-90,-4.78864,0.117432,0.0452772,0.0185703,0.00104293,0.0453179,0.0185296,0.0389717,0.0263087,0.0486144,545,1114,-4.78864,-0.117448
-672,-90,-4.74841,0.248779,0.0343628,0.0173883,0.000379276,0.0343713,0.0173798,0.022329,0.0198447,0.0463335,552,1114,-4.74842,-0.248761
-665,-90,-5.00671,0.650513,0.0255489,0.0151473,0.000236109,0.0255543,0.015142,0.0226837,0.0148378,0.0443874,559,1114,-5.00673,-0.650469
-658,-90,-5.65179,0.531738,0,0,0,0,0,0,0,-1,566,1114,-5.6518,-0.531775
-651,-90,-5.62604,0.588867,0.0131138,0.0097892,0.000452403,0.0131742,0.00972874,0.13286,0.00788924,0.029617,573,1114,-5.62605,-0.588869
-644,-90,-5.66199,0.689819,0.00898864,0.00753613,0.00040071,0.00909185,0.00743292,0.252092,0.00559091,0.0128176,580,1114,-5.66199,-0.68984
-637,-90,-5.63672,0.781006,0.00524076,0.00568717,-0.000186506,0.00575483,0.0051731,-1.22276,0.0036581,0.0108891,587,1114,-5.63672,-0.780987
-630,-90,-5.62115,0.843872,0.00210721,0.00397943,-0.000756202,0.0042467,0.00183993,-1.23105,0.00245911,0.0109068,594,1114,-5.62118,-0.843884
-623,-90,-5.64691,0.878784,5.11075e-05,0.000822805,-0.000549299,0.00110823,-0.000234317,-1.09158,0.000828051,0.00918024,601,1114,-5.64691,-0.878815
-616,-90,-5.66943,0.922363,-0.00052065,0.000109679,-0.000998048,0.000841141,-0.00125211,-0.938334,0.00121628,0.00775496,608,1114,-5.66941,-0.922327
-609,-90,-5.67505,0.944092,-0.00121915,-0.000650411,-0.00180012,0.00088766,-0.00275722,-0.863737,0.00219471,0.0106398,615,1114,-5.67506,-0.944138
-602,-90,-5.68237,0.982422,-0.00194426,-0.00114452,-0.00258598,0.00107232,-0.00416111,-0.862106,0.00319213,0.0108934,622,1114,-5.68235,-0.982436
-595,-90,-5.65839,1.02612,-0.00227626,-0.00132995,-0.00297266,0.00120697,-0.00481318,-0.864321,0.00367773,0.0134658,629,1114,-5.65837,-1.02616
-588,-90,-5.65424,0.973145,-0.00243687,-0.0014784,-0.00329662,0.00137364,-0.00528891,-0.857578,0.00406199,0.0200472,636,1114,-5.65421,-0.973109
-581,-90,-5.86346,0.737061,-0.00229708,-0.00150475,-0.00353673,0.00165793,-0.00545976,-0.841173,0.00430037,0.0289252,643,1114,-5.86347,-0.737074
-574,-90,-5.82294,0.598145,-0.00190189,-0.00152266,-0.00367829,0.0019709,-0.00539544,-0.81115,0.00440349,0.035906,650,1114,-5.82291,-0.598094
-567,-90,-5.86511,0.547119,-0.00138728,-0.00138046,-0.00369601,0.00231214,-0.00507988,-0.785859,0.00436636,0.0364899,657,1114,-5.86514,-0.547093
-560,-90,-5.85431,0.825684,-0.000580148,-0.00112363,-0.00368073,0.00283886,-0.00454263,-0.748551,0.00429938,0.0389418,664,1114,-5.85432,-0.825651
-553,-90,-5.74799,1.14233,0.00055273,-0.000770132,-0.00372073,0.00367037,-0.00388777,-0.697433,0.00436429,0.0398652,671,1114,-5.748,-1.14227
-546,-90,-5.73633,1.2782,0.00205911,-0.000360955,-0.00389609,0.00492874,-0.00323059,-0.634832,0.00474468,0.0400128,678,1114,-5.73634,-1.27821
-539,-90,-5.77667,0.977905,0.00405446,4.43955e-05,-0.00435707,0.0068457,-0.00274685,-0.569755,0.0057043,0.0416622,685,1114,-5.77667,-0.977925
-532,-90,-5.75031,0.621094,0.00622583,0.000238244,-0.00576215,0.00972551,-0.00326143,-0.545811,0.00780147,0.0427278,692,1114,-5.7503,-0.621066
-525,-90,0,0,0,0,0,0,0,0,0,-1,699,1114,0,0
-518,-90,0,0,0,0,0,0,0,0,0,-1,706,1114,0,0
-511,-90,0,0,0,0,0,0,0,0,0,-1,713,1114,0,0
-504,-90,0,0,0,0,0,0,0,0,0,-1,720,1114,0,0
-497,-90,0,0,0,0,0,0,0,0,0,-1,727,1114,0,0
-490,-90,0,0,0,0,0,0,0,0,0,-1,734,1114,0,0
-483,-90,0,0,0,0,0,0,0,0,0,-1,741,1114,0,0
-476,-90,0,0,0,0,0,0,0,0,0,-1,748,1114,0,0
-469,-90,0,0,0,0,0,0,0,0,0,-1,755,1114,0,0
-462,-90,0,0,0,0,0,0,0,0,0,-1,762,1114,0,0
-455,-90,0,0,0,0,0,0,0,0,0,-1,769,1114,0,0
-448,-90,0,0,0,0,0,0,0,0,0,-1,776,1114,0,0
-441,-90,0,0,0,0,0,0,0,0,0,-1,783,1114,0,0
-434,-90,0,0,0,0,0,0,0,0,0,-1,790,1114,0,0
-427,-90,0,0,0,0,0,0,0,0,0,-1,797,1114,0,0
-420,-90,0,0,0,0,0,0,0,0,0,-1,804,1114,0,0
-413,-90,0,0,0,0,0,0,0,0,0,-1,811,1114,0,0
-406,-90,0,0,0,0,0,0,0,0,0,-1,818,1114,0,0
-399,-90,0,0,0,0,0,0,0,0,0,-1,825,1114,0,0
-392,-90,0,0,0,0,0,0,0,0,0,-1,832,1114,0,0
-385,-90,0,0,0,0,0,0,0,0,0,-1,839,1114,0,0
-378,-90,0,0,0,0,0,0,0,0,0,-1,846,1114,0,0
-371,-90,0,0,0,0,0,0,0,0,0,-1,853,1114,0,0
-364,-90,0,0,0,0,0,0,0,0,0,-1,860,1114,0,0
-357,-90,0,0,0,0,0,0,0,0,0,-1,867,1114,0,0
-350,-90,0,0,0,0,0,0,0,0,0,-1,874,1114,0,0
-343,-90,0,0,0,0,0,0,0,0,0,-1,881,1114,0,0
-336,-90,0,0,0,0,0,0,0,0,0,-1,888,1114,0,0
-329,-90,0,0,0,0,0,0,0,0,0,-1,895,1114,0,0
-322,-90,0,0,0,0,0,0,0,0,0,-1,902,1114,0,0
-315,-90,0,0,0,0,0,0,0,0,0,-1,909,1114,0,0
-308,-90,0,0,0,0,0,0,0,0,0,-1,916,1114,0,0
-301,-90,0,0,0,0,0,0,0,0,0,-1,923,1114,0,0
-294,-90,0,0,0,0,0,0,0,0,0,-1,930,1114,0,0
-287,-90,0,0,0,0,0,0,0,0,0,-1,937,1114,0,0
-280,-90,0,0,0,0,0,0,0,0,0,-1,944,1114,0,0
-273,-90,0,0,0,0,0,0,0,0,0,-1,951,1114,0,0
-266,-90,0,0,0,0,0,0,0,0,0,-1,958,1114,0,0
-259,-90,0,0,0,0,0,0,0,0,0,-1,965,1114,0,0
-252,-90,0,0,0,0,0,0,0,0,0,-1,972,1114,0,0
-245,-90,0,0,0,0,0,0,0,0,0,-1,979,1114,0,0
-238,-90,0,0,0,0,0,0,0,0,0,-1,986,1114,0,0
-231,-90,0,0,0,0,0,0,0,0,0,-1,993,1114,0,0
-224,-90,0,0,0,0,0,0,0,0,0,-1,1000,1114,0,0
-217,-90,0,0,0,0,0,0,0,0,0,-1,1007,1114,0,0
-210,-90,0,0,0,0,0,0,0,0,0,-1,1014,1114,0,0
-203,-90,0,0,0,0,0,0,0,0,0,-1,1021,1114,0,0
-196,-90,0,0,0,0,0,0,0,0,0,-1,1028,1114,0,0
-189,-90,0,0,0,0,0,0,0,0,0,-1,1035,1114,0,0
-182,-90,0,0,0,0,0,0,0,0,0,-1,1042,1114,0,0
-175,-90,0,0,0,0,0,0,0,0,0,-1,1049,1114,0,0
-168,-90,0,0,0,0,0,0,0,0,0,-1,1056,1114,0,0
-161,-90,0,0,0,0,0,0,0,0,0,-1,1063,1114,0,0
-154,-90,0,0,0,0,0,0,0,0,0,-1,1070,1114,0,0
-147,-90,0,0,0,0,0,0,0,0,0,-1,1077,1114,0,0
-140,-90,0,0,0,0,0,0,0,0,0,-1,1084,1114,0,0
-133,-90,0,0,0,0,0,0,0,0,0,-1,1091,1114,0,0
-126,-90,0,0,0,0,0,0,0,0,0,-1,1098,1114,0,0
-119,-90,0,0,0,0,0,0,0,0,0,-1,1105,1114,0,0
-112,-90,0,0,0,0,0,0,0,0,0,-1,1112,1114,0,0
-105,-90,0,0,0,0,0,0,0,0,0,-1,1119,1114,0,0
-98,-90,0,0,0,0,0,0,0,0,0,-1,1126,1114,0,0
-91,-90,0,0,0,0,0,0,0,0,0,-1,1133,1114,0,0
-84,-90,0,0,0,0,0,0,0,0,0,-1,1140,1114,0,0
-77,-90,0,0,0,0,0,0,0,0,0,-1,1147,1114,0,0
-70,-90,0,0,0,0,0,0,0,0,0,-1,1154,1114,0,0
-63,-90,0,0,0,0,0,0,0,0,0,-1,1161,1114,0,0
-56,-90,0,0,0,0,0,0,0,0,0,-1,1168,1114,0,0
-49,-90,0,0,0,0,0,0,0,0,0,-1,1175,1114,0,0
-42,-90,0,0,0,0,0,0,0,0,0,-1,1182,1114,0,0
-35,-90,0,0,0,0,0,0,0,0,0,-1,1189,1114,0,0
-28,-90,0,0,0,0,0,0,0,0,0,-1,1196,1114,0,0
-21,-90,0,0,0,0,0,0,0,0,0,-1,1203,1114,0,0
-14,-90,0,0,0,0,0,0,0,0,0,-1,1210,1114,0,0
-7,-90,0,0,0,0,0,0,0,0,0,-1,1217,1114,0,0
0,-90,0,0,0,0,0,0,0,0,0,-1,1224,1114,0,0
7,-90,0,0,0,0,0,0,0,0,0,-1,1231,1114,0,0
14,-90,0,0,0,0,0,0,0,0,0,-1,1238,1114,0,0
21,-90,0,0,0,0,0,0,0,0,0,-1,1245,1114,0,0
28,-90,0,0,0,0,0,0,0,0,0,-1,1252,1114,0,0
35,-90,0,0,0,0,0,0,0,0,0,-1,1259,1114,0,0
42,-90,0,0,0,0,0,0,0,0,0,-1,1266,1114,0,0
49,-90,0,0,0,0,0,0,0,0,0,-1,1273,1114,0,0
56,-90,0,0,0,0,0,0,0,0,0,-1,1280,1114,0,0
63,-90,0,0,0,0,0,0,0,0,0,-1,1287,1114,0,0
70,-90,0,0,0,0,0,0,0,0,0,-1,1294,1114,0,0
77,-90,0,0,0,0,0,0,0,0,0,-1,1301,1114,0,0
84,-90,0,0,0,0,0,0,0,0,0,-1,1308,1114,0,0
91,-90,0,0,0,0,0,0,0,0,0,-1,1315,1114,0,0
98,-90,0,0,0,0,0,0,0,0,0,-1,1322,1114,0,0
105,-90,0,0,0,0,0,0,0,0,0,-1,1329,1114,0,0
112,-90,0,0,0,0,0,0,0,0,0,-1,1336,1114,0,0
119,-90,0,0,0,0,0,0,0,0,0,-1,1343,1114,0,0
126,-90,0,0,0,0,0,0,0,0,0,-1,1350,1114,0,0
133,-90,0,0,0,0,0,0,0,0,0,-1,1357,1114,0,0
140,-90,0,0,0,0,0,0,0,0,0,-1,1364,1114,0,0
147,-90,0,0,0,0,0,0,0,0,0,-1,1371,1114,0,0
154,-90,0,0,0,0,0,0,0,0,0,-1,1378,1114,0,0
161,-90,0,0,0,0,0,0,0,0,0,-1,1385,1114,0,0
168,-90,0,0,0,0,0,0,0,0,0,-1,1392,1114,0,0
175,-90,0,0,0,0,0,0,0,0,0,-1,1399,1114,0,0
182,-90,0,0,0,0,0,0,0,0,0,-1,1406,1114,0,0
189,-90,0,0,0,0,0,0,0,0,0,-1,1413,1114,0,0
196,-90,0,0,0,0,0,0,0,0,0,-1,1420,1114,0,0
203,-90,0,0,0,0,0,0,0,0,0,-1,1427,1114,0,0
210,-90,0,0,0,0,0,0,0,0,0,-1,1434,1114,0,0
217,-90,0,0,0,0,0,0,0,0,0,-1,1441,1114,0,0
224,-90,0,0,0,0,0,0,0,0,0,-1,1448,1114,0,0
231,-90,0,0,0,0,0,0,0,0,0,-1,1455,1114,0,0
238,-90,0,0,0,0,0,0,0,0,0,-1,1462,1114,0,0
245,-90,0,0,0,0,0,0,0,0,0,-1,1469,1114,0,0
252,-90,0,0,0,0,0,0,0,0,0,-1,1476,1114,0,0
259,-90,0,0,0,0,0,0,0,0,0,-1,1483,1114,0,0
266,-90,0,0,0,0,0,0,0,0,0,-1,1490,1114,0,0
273,-90,0,0,0,0,0,0,0,0,0,-1,1497,1114,0,0
280,-90,0,0,0,0,0,0,0,0,0,-1,1504,1114,0,0
287,-90,0,0,0,0,0,0,0,0,0,-1,1511,1114,0,0
294,-90,0,0,0,0,0,0,0,0,0,-1,1518,1114,0,0
301,-90,0,0,0,0,0,0,0,0,0,-1,1525,1114,0,0
308,-90,0,0,0,0,0,0,0,0,0,-1,1532,1114,0,0
315,-90,0,0,0,0,0,0,0,0,0,-1,1539,1114,0,0
322,-90,0,0,0,0,0,0,0,0,0,-1,1546,1114,0,0
329,-90,0,0,0,0,0,0,0,0,0,-1,1553,1114,0,0
336,-90,0,0,0,0,0,0,0,0,0,-1,1560,1114,0,0
343,-90,0,0,0,0,0,0,0,0,0,-1,1567,1114,0,0
350,-90,0,0,0,0,0,0,0,0,0,-1,1574,1114,0,0
357,-90,0,0,0,0,0,0,0,0,0,-1,1581,1114,0,0
364,-90,0,0,0,0,0,0,0,0,0,-1,1588,1114,0,0
371,-90,0,0,0,0,0,0,0,0,0,-1,1595,1114,0,0
378,-90,0,0,0,0,0,0,0,0,0,-1,1602,1114,0,0
385,-90,0,0,0,0,0,0,0,0,0,-1,1609,1114,0,0
392,-90,0,0,0,0,0,0,0,0,0,-1,1616,1114,0,0
399,-90,0,0,0,0,0,0,0,0,0,-1,1623,1114,0,0
406,-90,0,0,0,0,0,0,0,0,0,-1,1630,1114,0,0
413,-90,0,0,0,0,0,0,0,0,0,-1,1637,1114,0,0
420,-90,0,0,0,0,0,0,0,0,0,-1,1644,1114,0,0
427,-90,0,0,0,0,0,0,0,0,0,-1,1651,1114,0,0
434,-90,0,0,0,0,0,0,0,0,0,-1,1658,1114,0,0
441,-90,0,0,0,0,0,0,0,0,0,-1,1665,1114,0,0
448,-90,0,0,0,0,0,0,0,0,0,-1,1672,1114,0,0
455,-90,0,0,0,0,0,0,0,0,0,-1,1679,1114,0,0
462,-90,0,0,0,0,0,0,0,0,0,-1,1686,1114,0,0
469,-90,0,0,0,0,0,0,0,0,0,-1,1693,1114,0,0
476,-90,0,0,0,0,0,0,0,0,0,-1,1700,1114,0,0
483,-90,0,0,0,0,0,0,0,0,0,-1,1707,1114,0,0
490,-90,0,0,0,0,0,0,0,0,0,-1,1714,1114,0,0
497,-90,0,0,0,0,0,0,0,0,0,-1,1721,1114,0,0
504,-90,0,0,0,0,0,0,0,0,0,-1,1728,1114,0,0
511,-90,0,0,0,0,0,0,0,0,0,-1,1735,1114,0,0
518,-90,0,0,0,0,0,0,0,0,0,-1,1742,1114,0,0
525,-90,0,0,0,0,0,0,0,0,0,-1,1749,1114,0,0
532,-90,0,0,0,0,0,0,0,0,0,-1,1756,1114,0,0
539,-90,0,0,0,0,0,0,0,0,0,-1,1763,1114,0,0
546,-90,0,0,0,0,0,0,0,0,0,-1,1770,1114,0,0
553,-90,0,0,0,0,0,0,0,0,0,-1,1777,1114,0,0
560,-90,0,0,0,0,0,0,0,0,0,-1,1784,1114,0,0
567,-90,0,0,0,0,0,0,0,0,0,-1,1791,1114,0,0
574,-90,0,0,0,0,0,0,0,0,0,-1,1798,1114,0,0
581,-90,0,0,0,0,0,0,0,0,0,-1,1805,1114,0,0
588,-90,0,0,0,0,0,0,0,0,0,-1,1812,1114,0,0
595,-90,0,0,0,0,0,0,0,0,0,-1,1819,1114,0,0
602,-90,0,0,0,0,0,0,0,0,0,-1,1826,1114,0,0
609,-90,0,0,0,0,0,0,0,0,0,-1,1833,1114,0,0
616,-90,0,0,0,0,0,0,0,0,0,-1,1840,1114,0,0
623,-90,0,0,0,0,0,0,0,0,0,-1,1847,1114,0,0
630,-90,0,0,0,0,0,0,0,0,0,-1,1854,1114,0,0
637,-90,0,0,0,0,0,0,0,0,0,-1,1861,1114,0,0
644,-90,11.6938,1.76257,-0.00325728,-0.0011215,-0.00693094,0.00482333,-0.00920212,-0.861835,0.00822809,0.0365343,1868,1114,11.6939,-1.76263
651,-90,11.5955,1.54456,-0.00220208,-0.00142808,-0.00432021,0.00252243,-0.00615258,-0.830069,0.00515262,0.0403146,1875,1114,11.5954,-1.5445
658,-90,11.6371,1.23938,-0.00145712,-0.00152572,-0.00266069,0.00116949,-0.00415233,-0.778953,0.00322942,0.0420907,1882,1114,11.637,-1.23933
665,-90,11.7549,1.5144,-0.00105643,-0.00159576,-0.00129103,-7.19854e-06,-0.00264499,-0.68244,0.00176093,0.0416009,1889,1114,11.7549,-1.51438
672,-90,11.8152,1.78235,-0.00134675,-0.0017571,0.000175503,-0.00128193,-0.00182193,0.3538,0.00108057,0.0422712,1896,1114,11.8152,-1.78236
679,-90,11.8026,1.93152,-0.00204175,-0.00191068,0.00146931,-0.000505441,-0.00344699,0.807685,0.00214941,0.0388611,1903,1114,11.8026,-1.93154
686,-90,11.7858,1.8822,-0.0027889,-0.0020349,0.002515,0.000131201,-0.00495499,0.859795,0.00334792,0.0337233,1910,1114,11.7858,-1.88217
693,-90,11.7854,1.75745,-0.00347804,-0.00211199,0.00332574,0.000600137,-0.00619017,0.886677,0.00434068,0.0324681,1917,1114,11.7854,-1.75742
700,-90,11.7903,1.68054,-0.00397042,-0.00216679,0.00401303,0.00104451,-0.00718172,0.895923,0.00517126,0.0290879,1924,1114,11.7903,-1.6805
707,-90,11.7238,1.70715,-0.00433563,-0.00213925,0.00446729,0.00136286,-0.00783774,0.905923,0.00573369,0.0231869,1931,1114,11.7238,-1.70711
714,-90,11.741,1.9126,-0.0046395,-0.00192883,0.00461619,0.00152688,-0.00809521,0.928187,0.0059712,0.0344132,1938,1114,11.741,-1.91259
721,-90,11.4767,2.26721,-0.00473627,-0.00174626,0.00438629,0.0013928,-0.00787533,0.949642,0.00577079,0.0178698,1945,1114,11.4767,-2.26723
728,-90,11.3654,2.28723,-0.00463948,-0.00145423,0.0040267,0.00128336,-0.00737707,0.973716,0.00539694,0.0154033,1952,1114,11.3653,-2.28728
735,-90,11.3634,2.24414,-0.0045285,-0.00109561,0.00350132,0.00108736,-0.00671147,1.0133,0.00487734,0.0169067,1959,1114,11.3634,-2.24413
742,-90,11.3866,2.19348,-0.00554098,-0.000420236,0.0026515,0.000705304,-0.00666652,1.16936,0.00469713,0.0159151,1966,1114,11.3866,-2.19354
749,-90,11.4176,2.15259,-0.00689322,0.00148775,0.00110523,0.00163105,-0.00703652,1.44186,0.00531873,0.0124915,1973,1114,11.4176,-2.15264
756,-90,11.4265,2.13953,-0.00976983,0.00556285,-0.000640371,0.00558955,-0.00979652,-1.52913,0.00899316,0.0124135,1980,1114,11.4265,-2.13951
763,-90,11.4226,2.11584,-0.0136718,0.0076753,-0.00238037,0.00793751,-0.0139341,-1.46108,0.0127848,0.0118533,1987,1114,11.4226,-2.11582
770,-90,11.4037,2.08752,-0.0185529,0.0115428,-0.00458036,0.0122244,-0.0192346,-1.42306,0.0183126,0.0145816,1994,1114,11.4037,-2.0875
777,-90,11.386,2.0752,-0.0252673,0.0162845,-0.00684493,0.017383,-0.0263658,-1.41166,0.0254353,0.0134158,2001,1114,11.386,-2.07515
784,-90,11.3066,2.15039,0,0,0,0,0,0,0,-1,2008,1114,11.3066,-2.15044
791,-90,10.6188,2.65491,0,0,0,0,0,0,0,-1,2015,1114,10.6188,-2.65493
798,-90,9.93091,3.15942,0,0,0,0,0,0,0,-1,2022,1114,9.93086,-3.15942
805,-90,9.39539,3.26294,0,0,0,0,0,0,0,-1,2029,1114,9.39542,-3.26294
812,-90,8.73755,3.60388,0,0,0,0,0,0,0,-1,2036,1114,8.73753,-3.60389
-700,-97,0,0,0,0,0,0,0,0,0,-1,524,1121,0,0
-693,-97,-7.62506,-0.960083,0,0,0,0,0,0,0,-1,531,1121,-7.62506,0.960048
-686,-97,-6.53479,-0.764526,0,0,0,0,0,0,0,-1,538,1121,-6.5348,0.764559
-679,-97,-4.76111,0.0915527,0,0,0,0,0,0,0,-1,545,1121,-4.76113,-0.0915686
-672,-97,-4.78241,0.252441,0,0,0,0,0,0,0,-1,552,1121,-4.7824,-0.252492
-665,-97,-5.13208,0.557007,0,0,0,0,0,0,0,-1,559,1121,-5.13208,-0.557018
-658,-97,-5.39807,0.677979,0,0,0,0,0,0,0,-1,566,1121,-5.39804,-0.678008
-651,-97,-5.59509,0.634033,0.0133261,0.00891435,0.000498488,0.0133817,0.00885872,0.111125,0.00785994,0.028571,573,1121,-5.5951,-0.634071
-644,-97,-5.61346,0.708374,0.00926329,0.00678214,0.000580285,0.0093923,0.00665313,0.218759,0.00557739,0.0105415,580,1121,-5.61344,-0.70837
-637,-97,-5.59576,0.766968,0.00561519,0.00511532,6.5726e-05,0.00562369,0.00510682,0.128574,0.00358926,0.0117585,587,1121,-5.59577,-0.766984
-630,-97,-5.58746,0.832764,0.00250633,0.00356122,-0.000521022,0.00377516,0.00229238,-1.18116,0.00219623,0.00961166,594,1121,-5.58748,-0.832795
-623,-97,-5.60162,0.91333,0.000359723,0.000811282,-0.000368568,0.00101773,0.000153277,-1.06021,0.000633604,0.0105995,601,1121,-5.60165,-0.913312
-616,-97,-5.61877,0.933228,-0.000428666,4.57995e-05,-0.000927495,0.000765921,-0.00114879,-0.910603,0.0011128,0.0108614,608,1121,-5.61878,-0.933167
-609,-97,-5.61316,0.950195,-0.00132999,-0.000676014,-0.00179435,0.000820899,-0.0028269,-0.875525,0.00220966,0.0129139,615,1121,-5.61317,-0.950185
-602,-97,-5.62976,0.978027,-0.00219458,-0.00117442,-0.00262673,0.000991302,-0.0043603,-0.881298,0.0032875,0.0118957,622,1121,-5.62979,-0.978027
-595,-97,-5.63214,1.02966,-0.00261133,-0.00135707,-0.00303542,0.00111532,-0.00508373,-0.887267,0.00381565,0.0163948,629,1121,-5.63213,-1.02968
-588,-97,-5.6037,1.02368,-0.00286056,-0.00148941,-0.0033757,0.00126963,-0.0056196,-0.885581,0.00423355,0.0199103,636,1121,-5.60369,-1.02371
-581,-97,-5.79651,0.791016,-0.00276368,-0.00150229,-0.00363327,0.00155462,-0.00582058,-0.871336,0.00448924,0.0290113,643,1121,-5.79652,-0.79104
-574,-97,-5.90503,0.642578,-0.00233224,-0.00149536,-0.00379598,0.00190518,-0.00573277,-0.840293,0.00459063,0.0408729,650,1121,-5.90504,-0.642522
-567,-97,-5.89777,0.668823,-0.00179281,-0.00131829,-0.00383032,0.00228211,-0.00539321,-0.81633,0.00455107,0.0377333,657,1121,-5.89776,-0.668833
-560,-97,-5.84338,0.812744,-0.000934254,-0.00101842,-0.00381705,0.00284094,-0.00479362,-0.779886,0.00445561,0.0376652,664,1121,-5.84337,-0.812769
-553,-97,-5.68182,1.10925,0.000285051,-0.000618622,-0.00384015,0.00369985,-0.00403342,-0.726837,0.00446619,0.0434897,671,1121,-5.68181,-1.10924
-546,-97,-5.64355,1.25293,0.00191386,-0.00016464,-0.00397617,0.00498435,-0.00323513,-0.657573,0.00478121,0.0459008,678,1121,-5.64357,-1.25294
-539,-97,-5.73743,0.765747,0.00407459,0.000282224,-0.00435441,0.00692776,-0.00257095,-0.580048,0.00567312,0.0429502,685,1121,-5.73745,-0.765711
-532,-97,-5.91913,0.510254,0.00649034,0.000523297,-0.005568,0.00982378,-0.00281015,-0.539447,0.0076597,0.0404491,692,1121,-5.91913,-0.510286
-525,-97,0,0,0,0,0,0,0,0,0,-1,699,1121,0,0
-518,-97,0,0,0,0,0,0,0,0,0,-1,706,1121,0,0
-511,-97,0,0,0,0,0,0,0,0,0,-1,713,1121,0,0
-504,-97,0,0,0,0,0,0,0,0,0,-1,720,1121,0,0
-497,-97,0,0,0,0,0,0,0,0,0,-1,727,1121,0,0
-490,-97,0,0,0,0,0,0,0,0,0,-1,734,1121,0,0
-483,-97,0,0,0,0,0,0,0,0,0,-1,741,1121,0,0
-476,-97,0,0,0,0,0,0,0,0,0,-1,748,1121,0,0
-469,-97,0,0,0,0,0,0,0,0,0,-1,755,1121,0,0
-462,-97,0,0,0,0,0,0,0,0,0,-1,762,1121,0,0
-455,-97,0,0,0,0,0,0,0,0,0,-1,769,1121,0,0
-448,-97,0,0,0,0,0,0,0,0,0,-1,776,1121,0,0
-441,-97,0,0,0,0,0,0,0,0,0,-1,783,1121,0,0
-434,-97,0,0,0,0,0,0,0,0,0,-1,790,1121,0,0
-427,-97,0,0,0,0,0,0,0,0,0,-1,797,1121,0,0
-420,-97,0,0,0,0,0,0,0,0,0,-1,804,1121,0,0
-413,-97,0,0,0,0,0,0,0,0,0,-1,811,1121,0,0
-406,-97,0,0,0,0,0,0,0,0,0,-1,818,1121,0,0
-399,-97,0,0,0,0,0,0,0,0,0,-1,825,1121,0,0
-392,-97,0,0,0,0,0,0,0,0,0,-1,832,1121,0,0
-385,-97,0,0,0,0,0,0,0,0,0,-1,839,1121,0,0
-378,-97,0,0,0,0,0,0,0,0,0,-1,846,1121,0,0
-371,-97,0,0,0,0,0,0,0,0,0,-1,853,1121,0,0
-364,-97,0,0,0,0,0,0,0,0,0,-1,860,1121,0,0
-357,-97,0,0,0,0,0,0,0,0,0,-1,867,1121,0,0
-350,-97,0,0,0,0,0,0,0,0,0,-1,874,1121,0,0
-343,-97,0,0,0,0,0,0,0,0,0,-1,881,1121,0,0
-336,-97,0,0,0,0,0,0,0,0,0,-1,888,1121,0,0
-329,-97,0,0,0,0,0,0,0,0,0,-1,895,1121,0,0
-322,-97,0,0,0,0,0,0,0,0,0,-1,902,1121,0,0
-315,-97,0,0,0,0,0,0,0,0,0,-1,909,1121,0,0
-308,-97,0,0,0,0,0,0,0,0,0,-1,916,1121,0,0
-301,-97,0,0,0,0,0,0,0,0,0,-1,923,1121,0,0
-294,-97,0,0,0,0,0,0,0,0,0,-1,930,1121,0,0
-287,-97,0,0,0,0,0,0,0,0,0,-1,937,1121,0,0
-280,-97,0,0,0,0,0,0,0,0,0,-1,944,1121,0,0
-273,-97,0,0,0,0,0,0,0,0,0,-1,951,1121,0,0
-266,-97,0,0,0,0,0,0,0,0,0,-1,958,1121,0,0
-259,-97,0,0,0,0,0,0,0,0,0,-1,965,1121,0,0
-252,-97,0,0,0,0,0,0,0,0,0,-1,972,1121,0,0
-245,-97,0,0,0,0,0,0,0,0,0,-1,979,1121,0,0
-238,-97,0,0,0,0,0,0,0,0,0,-1,986,1121,0,0
-231,-97,0,0,0,0,0,0,0,0,0,-1,993,1121,0,0
-224,-97,0,0,0,0,0,0,0,0,0,-1,1000,1121,0,0
-217,-97,0,0,0,0,0,0,0,0,0,-1,1007,1121,0,0
-210,-97,0,0,0,0,0,0,0,0,0,-1,1014,1121,0,0
-203,-97,0,0,0,0,0,0,0,0,0,-1,1021,1121,0,0
-196,-97,0,0,0,0,0,0,0,0,0,-1,1028,1121,0,0
-189,-97,0,0,0,0,0,0,0,0,0,-1,1035,1121,0,0
-182,-97,0,0,0,0,0,0,0,0,0,-1,1042,1121,0,0
-175,-97,0,0,0,0,0,0,0,0,0,-1,1049,1121,0,0
-168,-97,0,0,0,0,0,0,0,0,0,-1,1056,1121,0,0
-161,-97,0,0,0,0,0,0,0,0,0,-1,1063,1121,0,0
-154,-97,0,0,0,0,0,0,0,0,0,-1,1070,1121,0,0
-147,-97,0,0,0,0,0,0,0,0,0,-1,1077,1121,0,0
-140,-97,0,0,0,0,0,0,0,0,0,-1,1084,1121,0,0
-133,-97,0,0,0,0,0,0,0,0,0,-1,1091,1121,0,0
-126,-97,0,0,0,0,0,0,0,0,0,-1,1098,1121,0,0
-119,-97,0,0,0,0,0,0,0,0,0,-1,1105,1121,0,0
-112,-97,0,0,0,0,0,0,0,0,0,-1,1112,1121,0,0
-105,-97,0,0,0,0,0,0,0,0,0,-1,1119,1121,0,0
-98,-97,0,0,0,0,0,0,0,0,0,-1,1126,1121,0,0
-91,-97,0,0,0,0,0,0,0,0,0,-1,1133,1121,0,0
-84,-97,0,0,0,0,0,0,0,0,0,-1,1140,1121,0,0
-77,-97,0,0,0,0,0,0,0,0,0,-1,1147,1121,0,0
-70,-97,0,0,0,0,0,0,0,0,0,-1,1154,1121,0,0
-63,-97,0,0,0,0,0,0,0,0,0,-1,1161,1121,0,0
-56,-97,0,0,0,0,0,0,0,0,0,-1,1168,1121,0,0
-49,-97,0,0,0,0,0,0,0,0,0,-1,1175,1121,0,0
-42,-97,0,0,0,0,0,0,0,0,0,-1,1182,1121,0,0
-35,-97,0,0,0,0,0,0,0,0,0,-1,1189,1121,0,0
-28,-97,0,0,0,0,0,0,0,0,0,-1,1196,1121,0,0
-21,-97,0,0,0,0,0,0,0,0,0,-1,1203,1121,0,0
-14,-97,0,0,0,0,0,0,0,0,0,-1,1210,1121,0,0
-7,-97,0,0,0,0,0,0,0,0,0,-1,1217,1121,0,0
0,-97,0,0,0,0,0,0,0,0,0,-1,1224,1121,0,0
7,-97,0,0,0,0,0,0,0,0,0,-1,1231,1121,0,0
14,-97,0,0,0,0,0,0,0,0,0,-1,1238,1121,0,0
21,-97,0,0,0,0,0,0,0,0,0,-1,1245,1121,0,0
28,-97,0,0,0,0,0,0,0,0,0,-1,1252,1121,0,0
35,-97,0,0,0,0,0,0,0,0,0,-1,1259,1121,0,0
42,-97,0,0,0,0,0,0,0,0,0,-1,1266,1121,0,0
49,-97,0,0,0,0,0,0,0,0,0,-1,1273,1121,0,0
56,-97,0,0,0,0,0,0,0,0,0,-1,1280,1121,0,0
63,-97,0,0,0,0,0,0,0,0,0,-1,1287,1121,0,0
70,-97,0,0,0,0,0,0,0,0,0,-1,1294,1121,0,0
77,-97,0,0,0,0,0,0,0,0,0,-1,1301,1121,0,0
84,-97,0,0,0,0,0,0,0,0,0,-1,1308,1121,0,0
91,-97,0,0,0,0,0,0,0,0,0,-1,1315,1121,0,0
98,-97,0,0,0,0,0,0,0,0,0,-1,1322,1121,0,0
105,-97,0,0,0,0,0,0,0,0,0,-1,1329,1121,0,0
112,-97,0,0,0,0,0,0,0,0,0,-1,1336,1121,0,0
119,-97,0,0,0,0,0,0,0,0,0,-1,1343,1121,0,0
126,-97,0,0,0,0,0,0,0,0,0,-1,1350,1121,0,0
133,-97,0,0,0,0,0,0,0,0,0,-1,1357,1121,0,0
140,-97,0,0,0,0,0,0,0,0,0,-1,1364,1121,0,0
147,-97,0,0,0,0,0,0,0,0,0,-1,1371,1121,0,0
154,-97,0,0,0,0,0,0,0,0,0,-1,1378,1121,0,0
161,-97,0,0,0,0,0,0,0,0,0,-1,1385,1121,0,0
168,-97,0,0,0,0,0,0,0,0,0,-1,1392,1121,0,0
175,-97,0,0,0,0,0,0,0,0,0,-1,1399,1121,0,0
182,-97,0,0,0,0,0,0,0,0,0,-1,1406,1121,0,0
189,-97,0,0,0,0,0,0,0,0,0,-1,1413,1121,0,0
196,-97,0,0,0,0,0,0,0,0,0,-1,1420,1121,0,0
203,-97,0,0,0,0,0,0,0,0,0,-1,1427,1121,0,0
210,-97,0,0,0,0,0,0,0,0,0,-1,1434,1121,0,0
217,-97,0,0,0,0,0,0,0,0,0,-1,1441,1121,0,0
224,-97,0,0,0,0,0,0,0,0,0,-1,1448,1121,0,0
231,-97,0,0,0,0,0,0,0,0,0,-1,1455,1121,0,0
238,-97,0,0,0,0,0,0,0,0,0,-1,1462,1121,0,0
245,-97,0,0,0,0,0,0,0,0,0,-1,1469,1121,0,0
252,-97,0,0,0,0,0,0,0,0,0,-1,1476,1121,0,0
259,-97,0,0,0,0,0,0,0,0,0,-1,1483,1121,0,0
266,-97,0,0,0,0,0,0,0,0,0,-1,1490,1121,0,0
273,-97,0,0,0,0,0,0,0,0,0,-1,1497,1121,0,0
280,-97,0,0,0,0,0,0,0,0,0,-1,1504,1121,0,0
287,-97,0,0,0,0,0,0,0,0,0,-1,1511,1121,0,0
294,-97,0,0,0,0,0,0,0,0,0,-1,1518,1121,0,0
301,-97,0,0,0,0,0,0,0,0,0,-1,1525,1121,0,0
308,-97,0,0,0,0,0,0,0,0,0,-1,1532,1121,0,0
315,-97,0,0,0,0,0,0,0,0,0,-1,1539,1121,0,0
322,-97,0,0,0,0,0,0,0,0,0,-1,1546,1121,0,0
329,-97,0,0,0,0,0,0,0,0,0,-1,1553,1121,0,0
336,-97,0,0,0,0,0,0,0,0,0,-1,1560,1121,0,0
343,-97,0,0,0,0,0,0,0,0,0,-1,1567,1121,0,0
350,-97,0,0,0,0,0,0,0,0,0,-1,1574,1121,0,0
357,-97,0,0,0,0,0,0,0,0,0,-1,1581,1121,0,0
364,-97,0,0,0,0,0,0,0,0,0,-1,1588,1121,0,0
371,-97,0,0,0,0,0,0,0,0,0,-1,1595,1121,0,0
378,-97,0,0,0,0,0,0,0,0,0,-1,1602,1121,0,0
385,-97,0,0,0,0,0,0,0,0,0,-1,1609,1121,0,0
392,-97,0,0,0,0,0,0,0,0,0,-1,1616,1121,0,0
399,-97,0,0,0,0,0,0,0,0,0,-1,1623,1121,0,0
406,-97,0,0,0,0,0,0,0,0,0,-1,1630,1121,0,0
413,-97,0,0,0,0,0,0,0,0,0,-1,1637,1121,0,0
420,-97,0,0,0,0,0,0,0,0,0,-1,1644,1121,0,0
427,-97,0,0,0,0,0,0,0,0,0,-1,1651,1121,0,0
434,-97,0,0,0,0,0,0,0,0,0,-1,1658,1121,0,0
441,-97,0,0,0,0,0,0,0,0,0,-1,1665,1121,0,0
448,-97,0,0,0,0,0,0,0,0,0,-1,1672,1121,0,0
455,-97,0,0,0,0,0,0,0,0,0,-1,1679,1121,0,0
462,-97,0,0,0,0,0,0,0,0,0,-1,1686,1121,0,0
469,-97,0,0,0,0,0,0,0,0,0,-1,1693,1121,0,0
476,-97,0,0,0,0,0,0,0,0,0,-1,1700,1121,0,0
483,-97,0,0,0,0,0,0,0,0,0,-1,1707,1121,0,0
490,-97,0,0,0,0,0,0,0,0,0,-1,1714,1121,0,0
497,-97,0,0,0,0,0,0,0,0,0,-1,1721,1121,0,0
504,-97,0,0,0,0,0,0,0,0,0,-1,1728,1121,0,0
511,-97,0,0,0,0,0,0,0,0,0,-1,1735,1121,0,0
518,-97,0,0,0,0,0,0,0,0,0,-1,1742,1121,0,0
525,-97,0,0,0,0,0,0,0,0,0,-1,1749,1121,0,0
532,-97,0,0,0,0,0,0,0,0,0,-1,1756,1121,0,0
539,-97,0,0,0,0,0,0,0,0,0,-1,1763,1121,0,0
546,-97,0,0,0,0,0,0,0,0,0,-1,1770,1121,0,0
553,-97,0,0,0,0,0,0,0,0,0,-1,1777,1121,0,0
560,-97,0,0,0,0,0,0,0,0,0,-1,1784,1121,0,0
567,-97,0,0,0,0,0,0,0,0,0,-1,1791,1121,0,0
574,-97,0,0,0,0,0,0,0,0,0,-1,1798,1121,0,0
581,-97,0,0,0,0,0,0,0,0,0,-1,1805,1121,0,0
588,-97,0,0,0,0,0,0,0,0,0,-1,1812,1121,0,0
595,-97,0,0,0,0,0,0,0,0,0,-1,1819,1121,0,0
602,-97,0,0,0,0,0,0,0,0,0,-1,1826,1121,0,0
609,-97,0,0,0,0,0,0,0,0,0,-1,1833,1121,0,0
616,-97,0,0,0,0,0,0,0,0,0,-1,1840,1121,0,0
623,-97,0,0,0,0,0,0,0,0,0,-1,1847,1121,0,0
630,-97,0,0,0,0,0,0,0,0,0,-1,1854,1121,0,0
637,-97,0,0,0,0,0,0,0,0,0,-1,1861,1121,0,0
644,-97,11.8447,1.8042,-0.00352563,-0.00169742,-0.00668523,0.00413591,-0.00935896,-0.853344,0.00798342,0.0395877,1868,1121,11.8447,-1.80424
651,-97,11.7406,1.67224,-0.00248889,-0.00187735,-0.00422998,0.00205789,-0.00642414,-0.821479,0.0051088,0.0372258,1875,1121,11.7406,-1.67228
658,-97,11.7402,1.44983,-0.00166051,-0.001885,-0.00261481,0.00084446,-0.00438997,-0.763948,0.00324497,0.0356612,1882,1121,11.7403,-1.44983
665,-97,11.8165,1.50256,-0.00127684,-0.00192162,-0.00120477,-0.000352069,-0.00284639,-0.654665,0.0017918,0.0394497,1889,1121,11.8165,-1.50256
672,-97,11.8979,1.74097,-0.00162807,-0.00205545,0.000284222,-0.00148617,-0.00219735,0.463059,0.00129467,0.0409793,1896,1121,11.898,-1.74102
679,-97,11.8829,1.89539,-0.00233509,-0.0021779,0.00155641,-0.000698098,-0.00381489,0.810624,0.00234545,0.0400226,1903,1121,11.8829,-1.89544
686,-97,11.7813,2.03503,-0.00307998,-0.0022753,0.00257161,-7.47456e-05,-0.00528054,0.862996,0.00349571,0.0359622,1910,1121,11.7812,-2.035
693,-97,11.7429,1.80334,-0.00374938,-0.00231328,0.00333132,0.000376502,-0.00643916,0.891547,0.00442362,0.0328511,1917,1121,11.7429,-1.80336
700,-97,11.7644,1.68628,-0.00421464,-0.00234893,0.0039855,0.000811434,-0.007375,0.90036,0.00520826,0.0266611,1924,1121,11.7644,-1.68626
707,-97,11.7305,1.72498,-0.00456582,-0.00230513,0.00441899,0.0011258,-0.00799675,0.910609,0.00574333,0.0214366,1931,1121,11.7305,-1.72494
714,-97,11.6941,2.00647,-0.00485287,-0.00204441,0.00453933,0.00130292,-0.0082002,0.935404,0.00594886,0.0353732,1938,1121,11.694,-2.00646
721,-97,11.4684,2.28613,-0.00492057,-0.00184629,0.00427224,0.00115693,-0.00792379,0.958086,0.00570739,0.0188458,1945,1121,11.4683,-2.28608
728,-97,11.358,2.28052,-0.00478411,-0.0015453,0.00389713,0.0010555,-0.00738491,0.982313,0.00531019,0.0175181,1952,1121,11.3581,-2.28047
735,-97,11.3392,2.25952,-0.00461906,-0.00116089,0.00332995,0.000862133,-0.00664209,1.02486,0.00474164,0.0173883,1959,1121,11.3393,-2.25954
742,-97,11.3519,2.22095,-0.00563659,-0.000338829,0.00232577,0.00053731,-0.00651273,1.21053,0.00453155,0.0141655,1966,1121,11.3519,-2.22092
749,-97,11.3689,2.17908,-0.00715443,0.00169339,0.00050484,0.0017221,-0.00718315,1.51398,0.00545419,0.0158514,1973,1121,11.3689,-2.17913
756,-97,11.389,2.12354,-0.0102169,0.00581006,-0.00164746,0.00597766,-0.0103844,-1.46942,0.00956019,0.0139396,1980,1121,11.389,-2.12348
763,-97,11.3856,2.09656,-0.0143072,0.00775329,-0.00386235,0.00840996,-0.0149639,-1.40239,0.0136706,0.0122241,1987,1121,11.3856,-2.09658
770,-97,11.3684,2.0769,-0.0194425,0.0115279,-0.00664156,0.012892,-0.0208067,-1.36821,0.019634,0.0100469,1994,1121,11.3684,-2.07691
777,-97,11.36,2.05469,-0.0265202,0.0160624,-0.00964358,0.0181445,-0.0286024,-1.35815,0.0272135,0.0129198,2001,1121,11.36,-2.05472
784,-97,11.1825,2.33167,0,0,0,0,0,0,0,-1,2008,1121,11.1825,-2.33162
791,-97,10.5618,2.65161,-0.046703,0.0271543,-0.0167263,0.0307657,-0.0503144,-1.35815,0.0472629,0.0472453,2015,1121,10.5618,-2.65166
798,-97,9.96387,2.97632,-0.0594964,0.0331096,-0.02089,0.0376039,-0.0639907,-1.35889,0.0593114,0.0493633,2022,1121,9.96389,-2.97633
805,-97,9.37756,3.30847,-0.0739919,0.0383915,-0.0252881,0.0438196,-0.07942,-1.35936,0.0721352,0.0481087,2029,1121,9.37755,-3.30845
812,-97,8.76477,3.6261,0,0,0,0,0,0,0,-1,2036,1121,8.76477,-3.62604
-700,-104,0,0,0,0,0,0,0,0,0,-1,524,1128,0,0
-693,-104,-7.62939,-1.26172,0,0,0,0,0,0,0,-1,531,1128,-7.6294,1.26168
-686,-104,-6.61786,-1.06006,0,0,0,0,0,0,0,-1,538,1128,-6.61784,1.06001
-679,-104,-4.6864,0.071167,0,0,0,0,0,0,0,-1,545,1128,-4.68643,-0.0712196
-672,-104,-4.77081,0.219604,0.0323786,0.0114218,-0.000528917,0.0323919,0.0114085,-0.0252171,0.0189719,0.049035,552,1128,-4.77082,-0.219619
-665,-104,-5.15289,0.584351,0.0247281,0.0100417,0.000207837,0.0247311,0.0100387,0.0141479,0.0143625,0.0462158,559,1128,-5.15289,-0.584397
-658,-104,-5.33588,0.71875,0.0185275,0.00841494,0.000742937,0.0185818,0.00836065,0.072945,0.0107461,0.0423771,566,1128,-5.3359,-0.718705
-651,-104,-5.49286,0.723022,0.0135646,0.00675004,0.00105187,0.0137232,0.00659138,0.149715,0.00792517,0.0345917,573,1128,-5.49284,-0.723042
-644,-104,-5.56635,0.701294,0.00969145,0.00518089,0.00112125,0.0099548,0.00491754,0.23069,0.00574755,0.0144033,580,1128,-5.56634,-0.701329
-637,-104,-5.53931,0.769165,0.00614402,0.00402313,0.000581305,0.0062929,0.00387426,0.250719,0.00366546,0.0104967,587,1128,-5.53931,-0.769192
-630,-104,-5.56195,0.824585,0.00299097,0.00285664,-8.41728e-05,0.0030315,0.00281612,-0.448656,0.00195317,0.0114518,594,1128,-5.56195,-0.824614
-623,-104,-5.565,0.901489,0.000685456,0.000874208,-5.23566e-05,0.000887758,0.000671906,-1.31755,0.000534616,0.0138678,601,1128,-5.56503,-0.901436
-616,-104,-5.57471,0.927979,-0.000366099,5.84363e-05,-0.000792463,0.000666568,-0.000974231,-0.916255,0.00095285,0.0145897,608,1128,-5.5747,-0.92796
-609,-104,-5.57678,0.938599,-0.00150079,-0.000609842,-0.00177226,0.000772074,-0.00288271,-0.908527,0.00222429,0.0166866,615,1128,-5.57679,-0.938651
-602,-104,-5.56458,0.992432,-0.00250365,-0.00110403,-0.00263448,0.000922005,-0.00452969,-0.915217,0.00336944,0.013671,622,1128,-5.56457,-0.992413
-595,-104,-5.55524,1.06226,-0.00303744,-0.00128514,-0.00308426,0.001045,-0.00536758,-0.923788,0.0039728,0.0140912,629,1128,-5.55521,-1.06224
-588,-104,-5.55658,1.05225,-0.00340317,-0.00139378,-0.00344051,0.00118573,-0.00598268,-0.927458,0.00443683,0.020844,636,1128,-5.55657,-1.05225
-581,-104,-5.68878,0.765747,-0.00337518,-0.00138053,-0.00369577,0.00145012,-0.00620582,-0.917187,0.00469582,0.0310349,643,1128,-5.68879,-0.765754
-574,-104,-5.8324,0.556152,-0.00293805,-0.00132435,-0.00384954,0.00180199,-0.00606439,-0.888701,0.00475871,0.0413868,650,1128,-5.83238,-0.556163
-567,-104,-5.87799,0.762451,-0.0024022,-0.00109089,-0.00386973,0.00217833,-0.00567142,-0.869317,0.00467924,0.0398138,657,1128,-5.878,-0.762416
-560,-104,-5.84576,0.904541,-0.00151564,-0.000729393,-0.00381656,0.00271424,-0.00495927,-0.83672,0.00449306,0.0430654,664,1128,-5.84576,-0.904498
-553,-104,-5.89197,0.739014,-0.000229789,-0.000272262,-0.00376682,0.00351585,-0.0040179,-0.782579,0.00435283,0.0477489,671,1128,-5.89197,-0.739016
-546,-104,-5.935,0.748291,0.00150294,0.000221407,-0.00378902,0.00470499,-0.00298065,-0.701635,0.00447438,0.0482346,678,1128,-5.935,-0.748303
-539,-104,-5.95282,0.630127,0.00380561,0.000674273,-0.00398929,0.00652547,-0.00204559,-0.5984,0.00516891,0.0419143,685,1128,-5.95279,-0.630153
-532,-104,-6.02295,0.62561,0.00644913,0.000883226,-0.00487362,0.0092784,-0.00194604,-0.525978,0.00692602,0.0397324,692,1128,-6.02296,-0.625647
-525,-104,-5.95074,0.548218,0.00856057,0.000378271,-0.00747918,0.0129944,-0.00405558,-0.535128,0.0102849,0.0367276,699,1128,-5.95074,-0.548158
-518,-104,0,0,0,0,0,0,0,0,0,-1,706,1128,0,0
-511,-104,0,0,0,0,0,0,0,0,0,-1,713,1128,0,0
-504,-104,0,0,0,0,0,0,0,0,0,-1,720,1128,0,0
-497,-104,0,0,0,0,0,0,0,0,0,-1,727,1128,0,0
-490,-104,0,0,0,0,0,0,0,0,0,-1,734,1128,0,0
-483,-104,0,0,0,0,0,0,0,0,0,-1,741,1128,0,0
-476,-104,0,0,0,0,0,0,0,0,0,-1,748,1128,0,0
-469,-104,0,0,0,0,0,0,0,0,0,-1,755,1128,0,0
-462,-104,0,0,0,0,0,0,0,0,0,-1,762,1128,0,0
-455,-104,0,0,0,0,0,0,0,0,0,-1,769,1128,0,0
-448,-104,0,0,0,0,0,0,0,0,0,-1,776,1128,0,0
-441,-104,0,0,0,0,0,0,0,0,0,-1,783,1128,0,0
-434,-104,0,0,0,0,0,0,0,0,0,-1,790,1128,0,0
-427,-104,0,0,0,0,0,0,0,0,0,-1,797,1128,0,0
-420,-104,0,0,0,0,0,0,0,0,0,-1,804,1128,0,0
-413,-104,0,0,0,0,0,0,0,0,0,-1,811,1128,0,0
-406,-104,0,0,0,0,0,0,0,0,0,-1,818,1128,0,0
-399,-104,0,0,0,0,0,0,0,0,0,-1,825,1128,0,0
-392,-104,0,0,0,0,0,0,0,0,0,-1,832,1128,0,0
-385,-104,0,0,0,0,0,0,0,0,0,-1,839,1128,0,0
-378,-104,0,0,0,0,0,0,0,0,0,-1,846,1128,0,0
-371,-104,0,0,0,0,0,0,0,0,0,-1,853,1128,0,0
-364,-104,0,0,0,0,0,0,0,0,0,-1,860,1128,0,0
-357,-104,0,0,0,0,0,0,0,0,0,-1,867,1128,0,0
-350,-104,0,0,0,0,0,0,0,0,0,-1,874,1128,0,0
-343,-104,0,0,0,0,0,0,0,0,0,-1,881,1128,0,0
-336,-104,0,0,0,0,0,0,0,0,0,-1,888,1128,0,0
-329,-104,0,0,0,0,0,0,0,0,0,-1,895,1128,0,0
-322,-104,0,0,0,0,0,0,0,0,0,-1,902,1128,0,0
-315,-104,0,0,0,0,0,0,0,0,0,-1,909,1128,0,0
-308,-104,0,0,0,0,0,0,0,0,0,-1,916,1128,0,0
-301,-104,0,0,0,0,0,0,0,0,0,-1,923,1128,0,0
-294,-104,0,0,0,0,0,0,0,0,0,-1,930,1128,0,0
-287,-104,0,0,0,0,0,0,0,0,0,-1,937,1128,0,0
-280,-104,0,0,0,0,0,0,0,0,0,-1,944,1128,0,0
-273,-104,0,0,0,0,0,0,0,0,0,-1,951,1128,0,0
-266,-104,0,0,0,0,0,0,0,0,0,-1,958,1128,0,0
-259,-104,0,0,0,0,0,0,0,0,0,-1,965,1128,0,0
-252,-104,0,0,0,0,0,0,0,0,0,-1,972,1128,0,0
-245,-104,0,0,0,0,0,0,0,0,0,-1,979,1128,0,0
-238,-104,0,0,0,0,0,0,0,0,0,-1,986,1128,0,0
-231,-104,0,0,0,0,0,0,0,0,0,-1,993,1128,0,0
-224,-104,0,0,0,0,0,0,0,0,0,-1,1000,1128,0,0
-217,-104,0,0,0,0,0,0,0,0,0,-1,1007,1128,0,0
-210,-104,0,0,0,0,0,0,0,0,0,-1,1014,1128,0,0
-203,-104,0,0,0,0,0,0,0,0,0,-1,1021,1128,0,0
-196,-104,0,0,0,0,0,0,0,0,0,-1,1028,1128,0,0
-189,-104,0,0,0,0,0,0,0,0,0,-1,1035,1128,0,0
-182,-104,0,0,0,0,0,0,0,0,0,-1,1042,1128,0,0
-175,-104,0,0,0,0,0,0,0,0,0,-1,1049,1128,0,0
-168,-104,0,0,0,0,0,0,0,0,0,-1,1056,1128,0,0
-161,-104,0,0,0,0,0,0,0,0,0,-1,1063,1128,0,0
-154,-104,0,0,0,0,0,0,0,0,0,-1,1070,1128,0,0
-147,-104,0,0,0,0,0,0,0,0,0,-1,1077,1128,0,0
-140,-104,0,0,0,0,0,0,0,0,0,-1,1084,1128,0,0
-133,-104,0,0,0,0,0,0,0,0,0,-1,1091,1128,0,0
-126,-104,0,0,0,0,0,0,0,0,0,-1,1098,1128,0,0
-119,-104,0,0,0,0,0,0,0,0,0,-1,1105,1128,0,0
-112,-104,0,0,0,0,0,0,0,0,0,-1,1112,1128,0,0
-105,-104,0,0,0,0,0,0,0,0,0,-1,1119,1128,0,0
-98,-104,0,0,0,0,0,0,0,0,0,-1,1126,1128,0,0
-91,-104,0,0,0,0,0,0,0,0,0,-1,1133,1128,0,0
-84,-104,0,0,0,0,0,0,0,0,0,-1,1140,1128,0,0
-77,-104,0,0,0,0,0,0,0,0,0,-1,1147,1128,0,0
-70,-104,0,0,0,0,0,0,0,0,0,-1,1154,1128,0,0
-63,-104,0,0,0,0,0,0,0,0,0,-1,1161,1128,0,0
-56,-104,0,0,0,0,0,0,0,0,0,-1,1168,1128,0,0
-49,-104,0,0,0,0,0,0,0,0,0,-1,1175,1128,0,0
-42,-104,0,0,0,0,0,0,0,0,0,-1,1182,1128,0,0
-35,-104,0,0,0,0,0,0,0,0,0,-1,1189,1128,0,0
-28,-104,0,0,0,0,0,0,0,0,0,-1,1196,1128,0,0
-21,-104,0,0,0,0,0,0,0,0,0,-1,1203,1128,0,0
-14,-104,0,0,0,0,0,0,0,0,0,-1,1210,1128,0,0
-7,-104,0,0,0,0,0,0,0,0,0,-1,1217,1128,0,0
0,-104,0,0,0,0,0,0,0,0,0,-1,1224,1128,0,0
7,-104,0,0,0,0,0,0,0,0,0,-1,1231,1128,0,0
14,-104,0,0,0,0,0,0,0,0,0,-1,1238,1128,0,0
21,-104,0,0,0,0,0,0,0,0,0,-1,1245,1128,0,0
28,-104,0,0,0,0,0,0,0,0,0,-1,1252,1128,0,0
35,-104,0,0,0,0,0,0,0,0,0,-1,1259,1128,0,0
42,-104,0,0,0,0,0,0,0,0,0,-1,1266,1128,0,0
49,-104,0,0,0,0,0,0,0,0,0,-1,1273,1128,0,0
56,-104,0,0,0,0,0,0,0,0,0,-1,1280,1128,0,0
63,-104,0,0,0,0,0,0,0,0,0,-1,1287,1128,0,0
70,-104,0,0,0,0,0,0,0,0,0,-1,1294,1128,0,0
77,-104,0,0,0,0,0,0,0,0,0,-1,1301,1128,0,0
84,-104,0,0,0,0,0,0,0,0,0,-1,1308,1128,0,0
91,-104,0,0,0,0,0,0,0,0,0,-1,1315,1128,0,0
98,-104,0,0,0,0,0,0,0,0,0,-1,1322,1128,0,0
105,-104,0,0,0,0,0,0,0,0,0,-1,1329,1128,0,0
112,-104,0,0,0,0,0,0,0,0,0,-1,1336,1128,0,0
119,-104,0,0,0,0,0,0,0,0,0,-1,1343,1128,0,0
126,-104,0,0,0,0,0,0,0,0,0,-1,1350,1128,0,0
133,-104,0,0,0,0,0,0,0,0,0,-1,1357,1128,0,0
140,-104,0,0,0,0,0,0,0,0,0,-1,1364,1128,0,0
147,-104,0,0,0,0,0,0,0,0,0,-1,1371,1128,0,0
154,-104,0,0,0,0,0,0,0,0,0,-1,1378,1128,0,0
161,-104,0,0,0,0,0,0,0,0,0,-1,1385,1128,0,0
168,-104,0,0,0,0,0,0,0,0,0,-1,1392,1128,0,0
175,-104,0,0,0,0,0,0,0,0,0,-1,1399,1128,0,0
182,-104,0,0,0,0,0,0,0,0,0,-1,1406,1128,0,0
189,-104,0,0,0,0,0,0,0,0,0,-1,1413,1128,0,0
196,-104,0,0,0,0,0,0,0,0,0,-1,1420,1128,0,0
203,-104,0,0,0,0,0,0,0,0,0,-1,1427,1128,0,0
210,-104,0,0,0,0,0,0,0,0,0,-1,1434,1128,0,0
217,-104,0,0,0,0,0,0,0,0,0,-1,1441,1128,0,0
224,-104,0,0,0,0,0,0,0,0,0,-1,1448,1128,0,0
231,-104,0,0,0,0,0,0,0,0,0,-1,1455,1128,0,0
238,-104,0,0,0,0,0,0,0,0,0,-1,1462,1128,0,0
245,-104,0,0,0,0,0,0,0,0,0,-1,1469,1128,0,0
252,-104,0,0,0,0,0,0,0,0,0,-1,1476,1128,0,0
259,-104,0,0,0,0,0,0,0,0,0,-1,1483,1128,0,0
266,-104,0,0,0,0,0,0,0,0,0,-1,1490,1128,0,0
273,-104,0,0,0,0,0,0,0,0,0,-1,1497,1128,0,0
280,-104,0,0,0,0,0,0,0,0,0,-1,1504,1128,0,0
287,-104,0,0,0,0,0,0,0,0,0,-1,1511,1128,0,0
294,-104,0,0,0,0,0,0,0,0,0,-1,1518,1128,0,0
301,-104,0,0,0,0,0,0,0,0,0,-1,1525,1128,0,0
308,-104,0,0,0,0,0,0,0,0,0,-1,1532,1128,0,0
315,-104,0,0,0,0,0,0,0,0,0,-1,1539,1128,0,0
322,-104,0,0,0,0,0,0,0,0,0,-1,1546,1128,0,0
329,-104,0,0,0,0,0,0,0,0,0,-1,1553,1128,0,0
336,-104,0,0,0,0,0,0,0,0,0,-1,1560,1128,0,0
343,-104,0,0,0,0,0,0,0,0,0,-1,1567,1128,0,0
350,-104,0,0,0,0,0,0,0,0,0,-1,1574,1128,0,0
357,-104,0,0,0,0,0,0,0,0,0,-1,1581,1128,0,0
364,-104,0,0,0,0,0,0,0,0,0,-1,1588,1128,0,0
371,-104,0,0,0,0,0,0,0,0,0,-1,1595,1128,0,0
378,-104,0,0,0,0,0,0,0,0,0,-1,1602,1128,0,0
385,-104,0,0,0,0,0,0,0,0,0,-1,1609,1128,0,0
392,-104,0,0,0,0,0,0,0,0,0,-1,1616,1128,0,0
399,-104,0,0,0,0,0,0,0,0,0,-1,1623,1128,0,0
406,-104,0,0,0,0,0,0,0,0,0,-1,1630,1128,0,0
413,-104,0,0,0,0,0,0,0,0,0,-1,1637,1128,0,0
420,-104,0,0,0,0,0,0,0,0,0,-1,1644,1128,0,0
427,-104,0,0,0,0,0,0,0,0,0,-1,1651,1128,0,0
434,-104,0,0,0,0,0,0,0,0,0,-1,1658,1128,0,0
441,-104,0,0,0,0,0,0,0,0,0,-1,1665,1128,0,0
448,-104,0,0,0,0,0,0,0,0,0,-1,1672,1128,0,0
455,-104,0,0,0,0,0,0,0,0,0,-1,1679,1128,0,0
462,-104,0,0,0,0,0,0,0,0,0,-1,1686,1128,0,0
469,-104,0,0,0,0,0,0,0,0,0,-1,1693,1128,0,0
476,-104,0,0,0,0,0,0,0,0,0,-1,1700,1128,0,0
483,-104,0,0,0,0,0,0,0,0,0,-1,1707,1128,0,0
490,-104,0,0,0,0,0,0,0,0,0,-1,1714,1128,0,0
497,-104,0,0,0,0,0,0,0,0,0,-1,1721,1128,0,0
504,-104,0,0,0,0,0,0,0,0,0,-1,1728,1128,0,0
511,-104,0,0,0,0,0,0,0,0,0,-1,1735,1128,0,0
518,-104,0,0,0,0,0,0,0,0,0,-1,1742,1128,0,0
525,-104,0,0,0,0,0,0,0,0,0,-1,1749,1128,0,0
532,-104,0,0,0,0,0,0,0,0,0,-1,1756,1128,0,0
539,-104,0,0,0,0,0,0,0,0,0,-1,1763,1128,0,0
546,-104,0,0,0,0,0,0,0,0,0,-1,1770,1128,0,0
553,-104,0,0,0,0,0,0,0,0,0,-1,1777,1128,0,0
560,-104,0,0,0,0,0,0,0,0,0,-1,1784,1128,0,0
567,-104,0,0,0,0,0,0,0,0,0,-1,1791,1128,0,0
574,-104,0,0,0,0,0,0,0,0,0,-1,1798,1128,0,0
581,-104,0,0,0,0,0,0,0,0,0,-1,1805,1128,0,0
588,-104,0,0,0,0,0,0,0,0,0,-1,1812,1128,0,0
595,-104,0,0,0,0,0,0,0,0,0,-1,1819,1128,0,0
602,-104,0,0,0,0,0,0,0,0,0,-1,1826,1128,0,0
609,-104,0,0,0,0,0,0,0,0,0,-1,1833,1128,0,0
616,-104,0,0,0,0,0,0,0,0,0,-1,1840,1128,0,0
623,-104,0,0,0,0,0,0,0,0,0,-1,1847,1128,0,0
630,-104,0,0,0,0,0,0,0,0,0,-1,1854,1128,0,0
637,-104,0,0,0,0,0,0,0,0,0,-1,1861,1128,0,0
644,-104,11.7335,1.88782,-0.00381511,-0.00258872,-0.0059064,0.00273623,-0.00914006,-0.837122,0.00718137,0.0371975,1868,1128,11.7336,-1.88787
651,-104,11.8231,1.83081,-0.00282126,-0.00250471,-0.00372638,0.00106675,-0.00639273,-0.806623,0.0046583,0.0365875,1875,1128,11.8232,-1.83086
658,-104,11.8391,1.55969,-0.00191755,-0.00229577,-0.00225986,0.000161096,-0.00437442,-0.743654,0.00297143,0.0390983,1882,1128,11.8391,-1.55966
665,-104,11.9136,1.61829,-0.00155536,-0.00220887,-0.000902438,-0.000922341,-0.00284189,-0.6117,0.0016741,0.0428262,1889,1128,11.9136,-1.61831
672,-104,11.8282,1.81079,-0.00194,-0.00224861,0.000520807,-0.00155112,-0.00263749,0.641378,0.00153062,0.0415517,1896,1128,11.8282,-1.81076
679,-104,11.7257,1.82141,-0.00263462,-0.00230015,0.00170788,-0.000751342,-0.00418343,0.834203,0.0025753,0.0394281,1903,1128,11.7257,-1.8214
686,-104,11.6934,1.77014,-0.00336016,-0.00234961,0.00264623,-0.000160842,-0.00554892,0.879734,0.00364685,0.0384198,1910,1128,11.6934,-1.77009
693,-104,11.7388,1.70947,-0.00399752,-0.00234027,0.00332055,0.000253485,-0.00659128,0.907673,0.00448107,0.0336262,1917,1128,11.7387,-1.70953
700,-104,11.7571,1.69812,-0.00442662,-0.00236195,0.00392365,0.000662899,-0.00745146,0.914036,0.00520271,0.0252601,1924,1128,11.7571,-1.69816
707,-104,11.7487,1.76172,-0.00475593,-0.00230533,0.00432038,0.000960148,-0.0080214,0.923574,0.0056947,0.0240938,1931,1128,11.7487,-1.76172
714,-104,11.6135,2.03809,-0.00502344,-0.00200604,0.00440413,0.00114063,-0.00817011,0.950417,0.00586405,0.0296887,1938,1128,11.6135,-2.03809
721,-104,11.385,2.32007,-0.00506783,-0.00180847,0.00410837,0.000981639,-0.00785794,0.974216,0.00559462,0.0180364,1945,1128,11.385,-2.32005
728,-104,11.3597,2.2489,-0.00489676,-0.00153099,0.00372618,0.000874713,-0.00730246,0.997505,0.00518453,0.0223077,1952,1128,11.3598,-2.24885
735,-104,11.3322,2.23657,-0.00468866,-0.0011558,0.00312546,0.000667862,-0.00651232,1.04261,0.00458043,0.0215414,1959,1128,11.3321,-2.23658
742,-104,11.3131,2.23547,-0.00568004,-0.00023087,0.0019976,0.000422971,-0.00633388,1.25447,0.0043704,0.0139925,1966,1128,11.3131,-2.23544
749,-104,11.3285,2.17798,-0.00735243,0.00177743,-8.44584e-05,0.00177821,-0.00735321,-1.56155,0.00558996,0.0160096,1973,1128,11.3285,-2.17799
756,-104,11.3423,2.12256,-0.0105732,0.00572338,-0.00266592,0.00614841,-0.0109982,-1.4127,0.0100307,0.0156022,1980,1128,11.3423,-2.12261
763,-104,11.3457,2.09192,-0.0148548,0.0073305,-0.00540149,0.00857572,-0.0161001,-1.34422,0.0144657,0.0146643,1987,1128,11.3457,-2.09195
770,-104,11.3245,2.07581,-0.0202719,0.0107793,-0.00880301,0.0131013,-0.0225939,-1.3129,0.0208501,0.0117547,1994,1128,11.3245,-2.07577
777,-104,11.3196,2.0708,-0.0277752,0.0148239,-0.0126116,0.0182776,-0.0312289,-1.3035,0.0289068,0.0183201,2001,1128,11.3196,-2.07084
784,-104,11.5341,3.89453,0,0,0,0,0,0,0,-1,2008,1128,11.534,-3.89447
791,-104,10.7856,2.76367,-0.0491545,0.0242519,-0.0219479,0.0303136,-0.0552162,-1.30133,0.0500735,0.0494705,2015,1128,10.7857,-2.76369
798,-104,9.73706,1.36597,-0.0627642,0.0288234,-0.0275331,0.0364631,-0.0704039,-1.30013,0.0627284,0.046084,2022,1128,9.73702,-1.36602
805,-104,8.86304,-0.0377197,-0.0782437,0.0320986,-0.0335263,0.0414865,-0.0876315,-1.29777,0.0761167,0.0439017,2029,1128,8.863,0.037672
812,-104,8.05139,-1.36804,0,0,0,0,0,0,0,-1,2036,1128,8.05138,1.36804
-700,-111,0,0,0,0,0,0,0,0,0,-1,524,1135,0,0
-693,-111,-8.19696,0.396362,0,0,0,0,0,0,0,-1,531,1135,-8.19695,-0.396385
-686,-111,-8.09894,0.872803,0,0,0,0,0,0,0,-1,538,1135,-8.09896,-0.872786
-679,-111,-5.34546,-0.368408,0,0,0,0,0,0,0,-1,545,1135,-5.34549,0.368406
-672,-111,-4.70203,0.460205,0.0324529,0.00459786,0.00052565,0.0324628,0.00458795,0.0188619,0.0202863,0.0479597,552,1135,-4.70203,-0.46018
-665,-111,-5.86676,-0.217041,0.0251217,0.00488246,0.0013928,0.0252171,0.00478706,0.0683873,0.0154647,0.0453427,559,1135,-5.86677,0.217007
-658,-111,-5.42517,0.431152,0.0190712,0.00464966,0.00188305,0.019313,0.00440785,0.12772,0.0116865,0.0416069,566,1135,-5.42515,-0.431107
-651,-111,-5.36841,0.0805664,0,0,0,0,0,0,0,-1,573,1135,-5.36841,-0.0805269
-644,-111,-5.48907,0.689331,0.0102172,0.00341281,0.00194632,0.0107346,0.00289543,0.259818,0.00641295,0.0227407,580,1135,-5.4891,-0.689322
-637,-111,-5.49097,0.749023,0.00664701,0.00288064,0.00134025,0.00707524,0.0024524,0.309266,0.00414847,0.00840095,587,1135,-5.49096,-0.749084
-630,-111,-5.50824,0.808838,0.00338346,0.00217247,0.000557663,0.00360113,0.00195479,0.37215,0.00208166,0.0125627,594,1135,-5.50827,-0.808814
-623,-111,-5.51959,0.857788,0.000872007,0.000894816,0.000355749,0.00123934,0.000527479,0.801421,0.00071817,0.0122146,601,1135,-5.51957,-0.857834
-616,-111,-5.51685,0.872803,-0.000422594,6.88673e-05,-0.000635195,0.000504206,-0.000857933,-0.969961,0.000795221,0.0131106,608,1135,-5.51682,-0.872833
-609,-111,-5.52539,0.949951,-0.00175402,-0.000574224,-0.00176312,0.000695063,-0.0030233,-0.946832,0.00228277,0.0154854,615,1135,-5.52538,-0.949913
-602,-111,-5.52191,1.00806,-0.00290547,-0.00105597,-0.00268455,0.000858638,-0.00482008,-0.951268,0.00353454,0.0146603,622,1135,-5.5219,-1.00805
-595,-111,-5.50159,1.06763,-0.00356073,-0.00124212,-0.00320526,0.00100705,-0.00580989,-0.958923,0.00424891,0.010801,629,1135,-5.50158,-1.06768
-588,-111,-5.47571,1.14709,-0.00403751,-0.00134514,-0.00360974,0.00116126,-0.00654391,-0.963876,0.00479678,0.0194214,636,1135,-5.47569,-1.1471
-581,-111,-5.58948,0.86377,-0.00407376,-0.00134087,-0.00388439,0.00141041,-0.00682504,-0.954527,0.00508578,0.0316479,643,1135,-5.58946,-0.863761
-574,-111,-5.76581,0.57019,-0.00363381,-0.00128898,-0.00404466,0.00174975,-0.00667255,-0.926466,0.00513203,0.0441845,650,1135,-5.76583,-0.57018
-567,-111,-5.85486,0.86438,-0.00309257,-0.00106019,-0.00405414,0.00210317,-0.00625593,-0.908195,0.00502073,0.0416933,657,1135,-5.85487,-0.864339
-560,-111,-5.81244,0.888428,-0.00215924,-0.000706349,-0.00394662,0.00258013,-0.00544572,-0.876413,0.00473115,0.0403103,664,1135,-5.81245,-0.888472
-553,-111,-5.80096,0.525024,-0.000771341,-0.000279555,-0.00377938,0.00326193,-0.00431282,-0.817883,0.00438729,0.0411247,671,1135,-5.80095,-0.525028
-546,-111,-5.70636,0.233643,0,0,0,0,0,0,0,-1,678,1135,-5.70637,-0.233676
-539,-111,-5.96515,0.619141,0.00362237,0.000463253,-0.0035041,0.00588647,-0.00180085,-0.573649,0.00464252,0.039306,685,1135,-5.96516,-0.61916
-532,-111,-5.9809,0.76123,0.00656923,0.000466955,-0.00387584,0.0084508,-0.00141461,-0.451948,0.00615978,0.0400406,692,1135,-5.98092,-0.761258
-525,-111,-5.83807,0.722412,0.00896018,-0.00038177,-0.00574631,0.0116945,-0.00311607,-0.44413,0.00901632,0.0404468,699,1135,-5.83806,-0.722364
-518,-111,0,0,0,0,0,0,0,0,0,-1,706,1135,0,0
-511,-111,0,0,0,0,0,0,0,0,0,-1,713,1135,0,0
-504,-111,0,0,0,0,0,0,0,0,0,-1,720,1135,0,0
-497,-111,0,0,0,0,0,0,0,0,0,-1,727,1135,0,0
-490,-111,0,0,0,0,0,0,0,0,0,-1,734,1135,0,0
-483,-111,0,0,0,0,0,0,0,0,0,-1,741,1135,0,0
-476,-111,0,0,0,0,0,0,0,0,0,-1,748,1135,0,0
-469,-111,0,0,0,0,0,0,0,0,0,-1,755,1135,0,0
-462,-111,0,0,0,0,0,0,0,0,0,-1,762,1135,0,0
-455,-111,0,0,0,0,0,0,0,0,0,-1,769,1135,0,0
-448,-111,0,0,0,0,0,0,0,0,0,-1,776,1135,0,0
-441,-111,0,0,0,0,0,0,0,0,0,-1,783,1135,0,0
-434,-111,0,0,0,0,0,0,0,0,0,-1,790,1135,0,0
-427,-111,0,0,0,0,0,0,0,0,0,-1,797,1135,0,0
-420,-111,0,0,0,0,0,0,0,0,0,-1,804,1135,0,0
-413,-111,0,0,0,0,0,0,0,0,0,-1,811,1135,0,0
-406,-111,0,0,0,0,0,0,0,0,0,-1,818,1135,0,0
-399,-111,0,0,0,0,0,0,0,0,0,-1,825,1135,0,0
-392,-111,0,0,0,0,0,0,0,0,0,-1,832,1135,0,0
-385,-111,0,0,0,0,0,0,0,0,0,-1,839,1135,0,0
-378,-111,0,0,0,0,0,0,0,0,0,-1,846,1135,0,0
-371,-111,0,0,0,0,0,0,0,0,0,-1,853,1135,0,0
-364,-111,0,0,0,0,0,0,0,0,0,-1,860,1135,0,0
-357,-111,0,0,0,0,0,0,0,0,0,-1,867,1135,0,0
-350,-111,0,0,0,0,0,0,0,0,0,-1,874,1135,0,0
-343,-111,0,0,0,0,0,0,0,0,0,-1,881,1135,0,0
-336,-111,0,0,0,0,0,0,0,0,0,-1,888,1135,0,0
-329,-111,0,0,0,0,0,0,0,0,0,-1,895,1135,0,0
-322,-111,0,0,0,0,0,0,0,0,0,-1,902,1135,0,0
-315,-111,0,0,0,0,0,0,0,0,0,-1,909,1135,0,0
-308,-111,0,0,0,0,0,0,0,0,0,-1,916,1135,0,0
-301,-111,0,0,0,0,0,0,0,0,0,-1,923,1135,0,0
-294,-111,0,0,0,0,0,0,0,0,0,-1,930,1135,0,0
-287,-111,0,0,0,0,0,0,0,0,0,-1,937,1135,0,0
-280,-111,0,0,0,0,0,0,0,0,0,-1,944,1135,0,0
-273,-111,0,0,0,0,0,0,0,0,0,-1,951,1135,0,0
-266,-111,0,0,0,0,0,0,0,0,0,-1,958,1135,0,0
-259,-111,0,0,0,0,0,0,0,0,0,-1,965,1135,0,0
-252,-111,0,0,0,0,0,0,0,0,0,-1,972,1135,0,0
-245,-111,0,0,0,0,0,0,0,0,0,-1,979,1135,0,0
-238,-111,0,0,0,0,0,0,0,0,0,-1,986,1135,0,0
-231,-111,0,0,0,0,0,0,0,0,0,-1,993,1135,0,0
-224,-111,0,0,0,0,0,0,0,0,0,-1,1000,1135,0,0
-217,-111,0,0,0,0,0,0,0,0,0,-1,1007,1135,0,0
-210,-111,0,0,0,0,0,0,0,0,0,-1,1014,1135,0,0
-203,-111,0,0,0,0,0,0,0,0,0,-1,1021,1135,0,0
-196,-111,0,0,0,0,0,0,0,0,0,-1,1028,1135,0,0
-189,-111,0,0,0,0,0,0,0,0,0,-1,1035,1135,0,0
-182,-111,0,0,0,0,0,0,0,0,0,-1,1042,1135,0,0
-175,-111,0,0,0,0,0,0,0,0,0,-1,1049,1135,0,0
-168,-111,0,0,0,0,0,0,0,0,0,-1,1056,1135,0,0
-161,-111,0,0,0,0,0,0,0,0,0,-1,1063,1135,0,0
-154,-111,0,0,0,0,0,0,0,0,0,-1,1070,1135,0,0
-147,-111,0,0,0,0,0,0,0,0,0,-1,1077,1135,0,0
-140,-111,0,0,0,0,0,0,0,0,0,-1,1084,1135,0,0
-133,-111,0,0,0,0,0,0,0,0,0,-1,1091,1135,0,0
-126,-111,0,0,0,0,0,0,0,0,0,-1,1098,1135,0,0
-119,-111,0,0,0,0,0,0,0,0,0,-1,1105,1135,0,0
-112,-111,0,0,0,0,0,0,0,0,0,-1,1112,1135,0,0
-105,-111,0,0,0,0,0,0,0,0,0,-1,1119,1135,0,0
-98,-111,0,0,0,0,0,0,0,0,0,-1,1126,1135,0,0
-91,-111,0,0,0,0,0,0,0,0,0,-1,1133,1135,0,0
-84,-111,0,0,0,0,0,0,0,0,0,-1,1140,1135,0,0
-77,-111,0,0,0,0,0,0,0,0,0,-1,1147,1135,0,0
-70,-111,0,0,0,0,0,0,0,0,0,-1,1154,1135,0,0
-63,-111,0,0,0,0,0,0,0,0,0,-1,1161,1135,0,0
-56,-111,0,0,0,0,0,0,0,0,0,-1,1168,1135,0,0
-49,-111,0,0,0,0,0,0,0,0,0,-1,1175,1135,0,0
-42,-111,0,0,0,0,0,0,0,0,0,-1,1182,1135,0,0
-35,-111,0,0,0,0,0,0,0,0,0,-1,1189,1135,0,0
-28,-111,0,0,0,0,0,0,0,0,0,-1,1196,1135,0,0
-21,-111,0,0,0,0,0,0,0,0,0,-1,1203,1135,0,0
-14,-111,0,0,0,0,0,0,0,0,0,-1,1210,1135,0,0
-7,-111,0,0,0,0,0,0,0,0,0,-1,1217,1135,0,0
0,-111,0,0,0,0,0,0,0,0,0,-1,1224,1135,0,0
7,-111,0,0,0,0,0,0,0,0,0,-1,1231,1135,0,0
14,-111,0,0,0,0,0,0,0,0,0,-1,1238,1135,0,0
21,-111,0,0,0,0,0,0,0,0,0,-1,1245,1135,0,0
28,-111,0,0,0,0,0,0,0,0,0,-1,1252,1135,0,0
35,-111,0,0,0,0,0,0,0,0,0,-1,1259,1135,0,0
42,-111,0,0,0,0,0,0,0,0,0,-1,1266,1135,0,0
49,-111,0,0,0,0,0,0,0,0,0,-1,1273,1135,0,0
56,-111,0,0,0,0,0,0,0,0,0,-1,1280,1135,0,0
63,-111,0,0,0,0,0,0,0,0,0,-1,1287,1135,0,0
70,-111,0,0,0,0,0,0,0,0,0,-1,1294,1135,0,0
77,-111,0,0,0,0,0,0,0,0,0,-1,1301,1135,0,0
84,-111,0,0,0,0,0,0,0,0,0,-1,1308,1135,0,0
91,-111,0,0,0,0,0,0,0,0,0,-1,1315,1135,0,0
98,-111,0,0,0,0,0,0,0,0,0,-1,1322,1135,0,0
105,-111,0,0,0,0,0,0,0,0,0,-1,1329,1135,0,0
112,-111,0,0,0,0,0,0,0,0,0,-1,1336,1135,0,0
119,-111,0,0,0,0,0,0,0,0,0,-1,1343,1135,0,0
126,-111,0,0,0,0,0,0,0,0,0,-1,1350,1135,0,0
133,-111,0,0,0,0,0,0,0,0,0,-1,1357,1135,0,0
140,-111,0,0,0,0,0,0,0,0,0,-1,1364,1135,0,0
147,-111,0,0,0,0,0,0,0,0,0,-1,1371,1135,0,0
154,-111,0,0,0,0,0,0,0,0,0,-1,1378,1135,0,0
161,-111,0,0,0,0,0,0,0,0,0,-1,1385,1135,0,0
168,-111,0,0,0,0,0,0,0,0,0,-1,1392,1135,0,0
175,-111,0,0,0,0,0,0,0,0,0,-1,1399,1135,0,0
182,-111,0,0,0,0,0,0,0,0,0,-1,1406,1135,0,0
189,-111,0,0,0,0,0,0,0,0,0,-1,1413,1135,0,0
196,-111,0,0,0,0,0,0,0,0,0,-1,1420,1135,0,0
203,-111,0,0,0,0,0,0,0,0,0,-1,1427,1135,0,0
210,-111,0,0,0,0,0,0,0,0,0,-1,1434,1135,0,0
217,-111,0,0,0,0,0,0,0,0,0,-1,1441,1135,0,0
224,-111,0,0,0,0,0,0,0,0,0,-1,1448,1135,0,0
231,-111,0,0,0,0,0,0,0,0,0,-1,1455,1135,0,0
238,-111,0,0,0,0,0,0,0,0,0,-1,1462,1135,0,0
245,-111,0,0,0,0,0,0,0,0,0,-1,1469,1135,0,0
252,-111,0,0,0,0,0,0,0,0,0,-1,1476,1135,0,0
259,-111,0,0,0,0,0,0,0,0,0,-1,1483,1135,0,0
266,-111,0,0,0,0,0,0,0,0,0,-1,1490,1135,0,0
273,-111,0,0,0,0,0,0,0,0,0,-1,1497,1135,0,0
280,-111,0,0,0,0,0,0,0,0,0,-1,1504,1135,0,0
287,-111,0,0,0,0,0,0,0,0,0,-1,1511,1135,0,0
294,-111,0,0,0,0,0,0,0,0,0,-1,1518,1135,0,0
301,-111,0,0,0,0,0,0,0,0,0,-1,1525,1135,0,0
308,-111,0,0,0,0,0,0,0,0,0,-1,1532,1135,0,0
315,-111,0,0,0,0,0,0,0,0,0,-1,1539,1135,0,0
322,-111,0,0,0,0,0,0,0,0,0,-1,1546,1135,0,0
329,-111,0,0,0,0,0,0,0,0,0,-1,1553,1135,0,0
336,-111,0,0,0,0,0,0,0,0,0,-1,1560,1135,0,0
343,-111,0,0,0,0,0,0,0,0,0,-1,1567,1135,0,0
350,-111,0,0,0,0,0,0,0,0,0,-1,1574,1135,0,0
357,-111,0,0,0,0,0,0,0,0,0,-1,1581,1135,0,0
364,-111,0,0,0,0,0,0,0,0,0,-1,1588,1135,0,0
371,-111,0,0,0,0,0,0,0,0,0,-1,1595,1135,0,0
378,-111,0,0,0,0,0,0,0,0,0,-1,1602,1135,0,0
385,-111,0,0,0,0,0,0,0,0,0,-1,1609,1135,0,0
392,-111,0,0,0,0,0,0,0,0,0,-1,1616,1135,0,0
399,-111,0,0,0,0,0,0,0,0,0,-1,1623,1135,0,0
406,-111,0,0,0,0,0,0,0,0,0,-1,1630,1135,0,0
413,-111,0,0,0,0,0,0,0,0,0,-1,1637,1135,0,0
420,-111,0,0,0,0,0,0,0,0,0,-1,1644,1135,0,0
427,-111,0,0,0,0,0,0,0,0,0,-1,1651,1135,0,0
434,-111,0,0,0,0,0,0,0,0,0,-1,1658,1135,0,0
441,-111,0,0,0,0,0,0,0,0,0,-1,1665,1135,0,0
448,-111,0,0,0,0,0,0,0,0,0,-1,1672,1135,0,0
455,-111,0,0,0,0,0,0,0,0,0,-1,1679,1135,0,0
462,-111,0,0,0,0,0,0,0,0,0,-1,1686,1135,0,0
469,-111,0,0,0,0,0,0,0,0,0,-1,1693,1135,0,0
476,-111,0,0,0,0,0,0,0,0,0,-1,1700,1135,0,0
483,-111,0,0,0,0,0,0,0,0,0,-1,1707,1135,0,0
490,-111,0,0,0,0,0,0,0,0,0,-1,1714,1135,0,0
497,-111,0,0,0,0,0,0,0,0,0,-1,1721,1135,0,0
504,-111,0,0,0,0,0,0,0,0,0,-1,1728,1135,0,0
511,-111,0,0,0,0,0,0,0,0,0,-1,1735,1135,0,0
518,-111,0,0,0,0,0,0,0,0,0,-1,1742,1135,0,0
525,-111,0,0,0,0,0,0,0,0,0,-1,1749,1135,0,0
532,-111,0,0,0,0,0,0,0,0,0,-1,1756,1135,0,0
539,-111,0,0,0,0,0,0,0,0,0,-1,1763,1135,0,0
546,-111,0,0,0,0,0,0,0,0,0,-1,1770,1135,0,0
553,-111,0,0,0,0,0,0,0,0,0,-1,1777,1135,0,0
560,-111,0,0,0,0,0,0,0,0,0,-1,1784,1135,0,0
567,-111,0,0,0,0,0,0,0,0,0,-1,1791,1135,0,0
574,-111,0,0,0,0,0,0,0,0,0,-1,1798,1135,0,0
581,-111,0,0,0,0,0,0,0,0,0,-1,1805,1135,0,0
588,-111,0,0,0,0,0,0,0,0,0,-1,1812,1135,0,0
595,-111,0,0,0,0,0,0,0,0,0,-1,1819,1135,0,0
602,-111,0,0,0,0,0,0,0,0,0,-1,1826,1135,0,0
609,-111,0,0,0,0,0,0,0,0,0,-1,1833,1135,0,0
616,-111,0,0,0,0,0,0,0,0,0,-1,1840,1135,0,0
623,-111,0,0,0,0,0,0,0,0,0,-1,1847,1135,0,0
630,-111,0,0,0,0,0,0,0,0,0,-1,1854,1135,0,0
637,-111,0,0,0,0,0,0,0,0,0,-1,1861,1135,0,0
644,-111,11.7125,1.75757,-0.00358421,-0.00418937,-0.00467283,0.000795829,-0.0085694,-0.753067,0.00599584,0.0399661,1868,1135,11.7125,-1.75762
651,-111,11.6869,1.60437,-0.00272224,-0.00364498,-0.00293788,-0.000209727,-0.00615749,-0.707513,0.0040369,0.0397141,1875,1135,11.6869,-1.60439
658,-111,12.0203,1.54761,0,0,0,0,0,0,0,-1,1882,1135,12.0203,-1.54755
665,-111,11.9209,1.6272,-0.00170051,-0.00286045,-0.000445043,-0.00154943,-0.00301153,-0.327257,0.00173895,0.0460273,1889,1135,11.9209,-1.62723
672,-111,11.7218,1.75623,-0.00218794,-0.00275309,0.000876506,-0.00154959,-0.00339145,0.629462,0.00196048,0.0441868,1896,1135,11.7218,-1.75625
679,-111,11.6287,1.71558,-0.00291969,-0.00269642,0.00196772,-0.000837168,-0.00477894,0.813734,0.00294681,0.0407782,1903,1135,11.6286,-1.71563
686,-111,11.6805,1.71863,-0.00365993,-0.00266835,0.00282592,-0.000295057,-0.00603322,0.872235,0.00392749,0.0379036,1910,1135,11.6805,-1.71858
693,-111,11.7515,1.71252,-0.00430008,-0.00258204,0.00341574,8.10428e-05,-0.00696315,0.908588,0.00466935,0.0330429,1917,1135,11.7515,-1.71255
700,-111,11.7506,1.71875,-0.00470545,-0.0025615,0.00395882,0.000467908,-0.00773486,0.917618,0.00531941,0.0239706,1924,1135,11.7506,-1.71876
707,-111,11.7749,1.83936,-0.00500073,-0.00246287,0.00430398,0.000755343,-0.00821895,0.92875,0.00574765,0.0351125,1931,1135,11.7749,-1.83934
714,-111,11.5089,2.1261,-0.00523357,-0.00210322,0.00434447,0.000949419,-0.0082862,0.958295,0.00586627,0.0189457,1938,1135,11.5089,-2.12607
721,-111,11.3373,2.33972,-0.00523838,-0.00188127,0.00402303,0.000799346,-0.00791899,0.983036,0.00556494,0.0116725,1945,1135,11.3372,-2.33977
728,-111,11.3201,2.28345,-0.00499779,-0.00158976,0.00361771,0.000705156,-0.00729271,1.0055,0.00511309,0.0152543,1952,1135,11.3201,-2.28347
735,-111,11.3092,2.23608,-0.00472286,-0.00120039,0.00296843,0.000489976,-0.00641322,1.05315,0.00444781,0.0154012,1959,1135,11.3092,-2.23603
742,-111,11.3004,2.21118,-0.0055837,-0.000150032,0.00172933,0.000353657,-0.00608739,1.28737,0.00418113,0.01116,1966,1135,11.3004,-2.21119
749,-111,11.2825,2.18433,-0.00722154,0.0016959,-0.000589805,0.00173474,-0.00726038,-1.50504,0.00551029,0.0144557,1973,1135,11.2824,-2.18432
756,-111,11.2914,2.14148,-0.0103219,0.00527199,-0.00363775,0.00607885,-0.0111288,-1.35253,0.0100764,0.0145758,1980,1135,11.2914,-2.14143
763,-111,11.2935,2.10376,-0.0145045,0.00635974,-0.00690966,0.00844051,-0.0165853,-1.27829,0.0147015,0.0131086,1987,1135,11.2935,-2.1037
770,-111,11.2805,2.08789,-0.0198418,0.00919049,-0.0109367,0.0128493,-0.0235007,-1.24795,0.0212849,0.0107744,1994,1135,11.2805,-2.08786
777,-111,11.2592,2.05737,-0.0273141,0.0123567,-0.0155901,0.0177501,-0.0327075,-1.23773,0.0295553,0.0229214,2001,1135,11.2592,-2.05734
784,-111,11.451,3.24207,0,0,0,0,0,0,0,-1,2008,1135,11.451,-3.24207
791,-111,10.6383,2.28357,-0.048778,0.0190226,-0.0274074,0.0287158,-0.0584712,-1.23085,0.0513053,0.0443372,2015,1135,10.6383,-2.28363
798,-111,9.82617,1.32446,-0.0625915,0.0215027,-0.0346583,0.0339456,-0.0750344,-1.22611,0.064393,0.0456226,2022,1135,9.82613,-1.32445
805,-111,9.04443,0.35791,-0.0784407,0.0219663,-0.0426199,0.0376175,-0.094092,-1.21886,0.078338,0.0444445,2029,1135,9.04443,-0.357903
812,-111,8.25684,-0.612427,0,0,0,0,0,0,0,-1,2036,1135,8.25686,0.612465
-700,-118,0,0,0,0,0,0,0,0,0,-1,524,1142,0,0
-693,-118,-7.81476,0.539063,0.0598927,-0.0117075,-0.0020476,0.0599512,-0.011766,-0.0285666,0.0444121,0.0477382,531,1142,-7.81475,-0.539123
-686,-118,-7.47467,0.74939,0.0488444,-0.00557932,0.000447903,0.0488481,-0.00558301,0.00822918,0.0345769,0.0459383,538,1142,-7.47466,-0.749428
-679,-118,-7.0871,0.670532,0.0394526,-0.00181239,0.00218484,0.039568,-0.00192775,0.0527499,0.0270442,0.0443791,545,1142,-7.08707,-0.670574
-672,-118,-6.5528,0.115723,0.0314499,0.000465281,0.00327569,0.0317924,0.000122761,0.104186,0.0211541,0.0444385,552,1142,-6.55282,-0.115697
-665,-118,-5.81384,-0.210815,0.0246615,0.00174849,0.0038182,0.025281,0.00112898,0.16085,0.0164906,0.0430413,559,1142,-5.81385,0.210776
-658,-118,-5.4483,-0.0855713,0.0189644,0.0023485,0.00390661,0.0198371,0.00147584,0.219773,0.0127612,0.0421962,566,1142,-5.44829,0.0855303
-651,-118,-5.32959,0.229004,0,0,0,0,0,0,0,-1,573,1142,-5.32957,-0.228953
-644,-118,-5.42572,0.638306,0,0,0,0,0,0,0,-1,580,1142,-5.4257,-0.638309
-637,-118,-5.43915,0.750977,0.00693053,0.00219068,0.00236123,0.00790604,0.00121517,0.39178,0.00491596,0.0134322,587,1142,-5.43913,-0.75095
-630,-118,-5.43713,0.781616,0.00366024,0.00181981,0.00134397,0.00436884,0.00111121,0.485206,0.00262186,0.0170949,594,1142,-5.43715,-0.781579
-623,-118,-5.43787,0.824829,0.00103671,0.000874739,0.000782747,0.00174265,0.000168798,0.733851,0.00110979,0.0147431,601,1142,-5.43784,-0.824856
-616,-118,-5.43933,0.855469,-0.000453047,8.64986e-05,-0.000496926,0.000382157,-0.000748705,-1.03408,0.000664238,0.0129367,608,1142,-5.43933,-0.855479
-609,-118,-5.4422,0.924805,-0.00195895,-0.00053778,-0.00177303,0.000661757,-0.00315849,-0.975985,0.00235741,0.0137296,615,1142,-5.44219,-0.924765
-602,-118,-5.45459,1.01111,-0.0032664,-0.00103293,-0.0027569,0.000824822,-0.00512415,-0.977833,0.00372164,0.0137022,622,1142,-5.45458,-1.01116
-595,-118,-5.47357,1.04907,-0.00406473,-0.00128071,-0.00336858,0.000972137,-0.00631758,-0.981329,0.00457036,0.0103085,629,1142,-5.47357,-1.04913
-588,-118,-5.39362,1.1394,-0.00465946,-0.00140443,-0.00383208,0.00113142,-0.00719531,-0.98621,0.00521509,0.0145675,636,1142,-5.39361,-1.13945
-581,-118,-5.53754,1.00635,-0.00477834,-0.00143128,-0.00412309,0.00134498,-0.00755459,-0.978186,0.00553942,0.0353413,643,1142,-5.53755,-1.00632
-574,-118,-5.76215,0.709473,-0.0043746,-0.00142393,-0.00428205,0.00162982,-0.00742835,-0.951299,0.00557549,0.044299,650,1142,-5.76213,-0.709515
-567,-118,-5.84021,0.8125,-0.00385971,-0.00124815,-0.00428731,0.00192783,-0.00703568,-0.933219,0.00544797,0.0423312,657,1142,-5.8402,-0.812449
-560,-118,-5.74524,0.731079,-0.00292055,-0.000938711,-0.00411683,0.00230478,-0.00616404,-0.903501,0.00505587,0.0358305,664,1142,-5.74521,-0.731059
-553,-118,-5.61401,0.535889,-0.00147676,-0.000555659,-0.00381233,0.00282384,-0.00485626,-0.84551,0.00448557,0.0369588,671,1142,-5.61404,-0.535837
-546,-118,-5.64093,0.46875,0.000520347,-0.000174329,-0.00341224,0.00360288,-0.00325686,-0.734677,0.00396215,0.0375347,678,1142,-5.64092,-0.468736
-539,-118,-5.97565,0.725952,0.00317199,0.000111091,-0.00297097,0.00498354,-0.00170046,-0.547558,0.00401118,0.0383624,685,1142,-5.97563,-0.72593
-532,-118,-6.09283,0.889282,0.00636906,0.00011101,-0.00279964,0.0074387,-0.000958632,-0.364949,0.00530761,0.0400875,692,1142,-6.09285,-0.889341
-525,-118,-5.79138,0.773315,0.00906059,-0.000699458,-0.00387452,0.0104117,-0.00205053,-0.335522,0.00771598,0.0436151,699,1142,-5.79141,-0.773281
-518,-118,0,0,0,0,0,0,0,0,0,-1,706,1142,0,0
-511,-118,0,0,0,0,0,0,0,0,0,-1,713,1142,0,0
-504,-118,0,0,0,0,0,0,0,0,0,-1,720,1142,0,0
-497,-118,0,0,0,0,0,0,0,0,0,-1,727,1142,0,0
-490,-118,0,0,0,0,0,0,0,0,0,-1,734,1142,0,0
-483,-118,0,0,0,0,0,0,0,0,0,-1,741,1142,0,0
-476,-118,0,0,0,0,0,0,0,0,0,-1,748,1142,0,0
-469,-118,0,0,0,0,0,0,0,0,0,-1,755,1142,0,0
-462,-118,0,0,0,0,0,0,0,0,0,-1,762,1142,0,0
-455,-118,0,0,0,0,0,0,0,0,0,-1,769,1142,0,0
-448,-118,0,0,0,0,0,0,0,0,0,-1,776,1142,0,0
-441,-118,0,0,0,0,0,0,0,0,0,-1,783,1142,0,0
-434,-118,0,0,0,0,0,0,0,0,0,-1,790,1142,0,0
-427,-118,0,0,0,0,0,0,0,0,0,-1,797,1142,0,0
-420,-118,0,0,0,0,0,0,0,0,0,-1,804,1142,0,0
-413,-118,0,0,0,0,0,0,0,0,0,-1,811,1142,0,0
-406,-118,0,0,0,0,0,0,0,0,0,-1,818,1142,0,0
-399,-118,0,0,0,0,0,0,0,0,0,-1,825,1142,0,0
-392,-118,0,0,0,0,0,0,0,0,0,-1,832,1142,0,0
-385,-118,0,0,0,0,0,0,0,0,0,-1,839,1142,0,0
-378,-118,0,0,0,0,0,0,0,0,0,-1,846,1142,0,0
-371,-118,0,0,0,0,0,0,0,0,0,-1,853,1142,0,0
-364,-118,0,0,0,0,0,0,0,0,0,-1,860,1142,0,0
-357,-118,0,0,0,0,0,0,0,0,0,-1,867,1142,0,0
-350,-118,0,0,0,0,0,0,0,0,0,-1,874,1142,0,0
-343,-118,0,0,0,0,0,0,0,0,0,-1,881,1142,0,0
-336,-118,0,0,0,0,0,0,0,0,0,-1,888,1142,0,0
-329,-118,0,0,0,0,0,0,0,0,0,-1,895,1142,0,0
-322,-118,0,0,0,0,0,0,0,0,0,-1,902,1142,0,0
-315,-118,0,0,0,0,0,0,0,0,0,-1,909,1142,0,0
-308,-118,0,0,0,0,0,0,0,0,0,-1,916,1142,0,0
-301,-118,0,0,0,0,0,0,0,0,0,-1,923,1142,0,0
-294,-118,0,0,0,0,0,0,0,0,0,-1,930,1142,0,0
-287,-118,0,0,0,0,0,0,0,0,0,-1,937,1142,0,0
-280,-118,0,0,0,0,0,0,0,0,0,-1,944,1142,0,0
-273,-118,0,0,0,0,0,0,0,0,0,-1,951,1142,0,0
-266,-118,0,0,0,0,0,0,0,0,0,-1,958,1142,0,0
-259,-118,0,0,0,0,0,0,0,0,0,-1,965,1142,0,0
-252,-118,0,0,0,0,0,0,0,0,0,-1,972,1142,0,0
-245,-118,0,0,0,0,0,0,0,0,0,-1,979,1142,0,0
-238,-118,0,0,0,0,0,0,0,0,0,-1,986,1142,0,0
-231,-118,0,0,0,0,0,0,0,0,0,-1,993,1142,0,0
-224,-118,0,0,0,0,0,0,0,0,0,-1,1000,1142,0,0
-217,-118,0,0,0,0,0,0,0,0,0,-1,1007,1142,0,0
-210,-118,0,0,0,0,0,0,0,0,0,-1,1014,1142,0,0
-203,-118,0,0,0,0,0,0,0,0,0,-1,1021,1142,0,0
-196,-118,0,0,0,0,0,0,0,0,0,-1,1028,1142,0,0
-189,-118,0,0,0,0,0,0,0,0,0,-1,1035,1142,0,0
-182,-118,0,0,0,0,0,0,0,0,0,-1,1042,1142,0,0
-175,-118,0,0,0,0,0,0,0,0,0,-1,1049,1142,0,0
-168,-118,0,0,0,0,0,0,0,0,0,-1,1056,1142,0,0
-161,-118,0,0,0,0,0,0,0,0,0,-1,1063,1142,0,0
-154,-118,0,0,0,0,0,0,0,0,0,-1,1070,1142,0,0
-147,-118,0,0,0,0,0,0,0,0,0,-1,1077,1142,0,0
-140,-118,0,0,0,0,0,0,0,0,0,-1,1084,1142,0,0
-133,-118,0,0,0,0,0,0,0,0,0,-1,1091,1142,0,0
-126,-118,0,0,0,0,0,0,0,0,0,-1,1098,1142,0,0
-119,-118,0,0,0,0,0,0,0,0,0,-1,1105,1142,0,0
-112,-118,0,0,0,0,0,0,0,0,0,-1,1112,1142,0,0
-105,-118,0,0,0,0,0,0,0,0,0,-1,1119,1142,0,0
-98,-118,0,0,0,0,0,0,0,0,0,-1,1126,1142,0,0
-91,-118,0,0,0,0,0,0,0,0,0,-1,1133,1142,0,0
-84,-118,0,0,0,0,0,0,0,0,0,-1,1140,1142,0,0
-77,-118,0,0,0,0,0,0,0,0,0,-1,1147,1142,0,0
-70,-118,0,0,0,0,0,0,0,0,0,-1,1154,1142,0,0
-63,-118,0,0,0,0,0,0,0,0,0,-1,1161,1142,0,0
-56,-118,0,0,0,0,0,0,0,0,0,-1,1168,1142,0,0
-49,-118,0,0,0,0,0,0,0,0,0,-1,1175,1142,0,0
-42,-118,0,0,0,0,0,0,0,0,0,-1,1182,1142,0,0
-35,-118,0,0,0,0,0,0,0,0,0,-1,1189,1142,0,0
-28,-118,0,0,0,0,0,0,0,0,0,-1,1196,1142,0,0
-21,-118,0,0,0,0,0,0,0,0,0,-1,1203,1142,0,0
-14,-118,0,0,0,0,0,0,0,0,0,-1,1210,1142,0,0
-7,-118,0,0,0,0,0,0,0,0,0,-1,1217,1142,0,0
0,-118,0,0,0,0,0,0,0,0,0,-1,1224,1142,0,0
7,-118,0,0,0,0,0,0,0,0,0,-1,1231,1142,0,0
14,-118,0,0,0,0,0,0,0,0,0,-1,1238,1142,0,0
21,-118,0,0,0,0,0,0,0,0,0,-1,1245,1142,0,0
28,-118,0,0,0,0,0,0,0,0,0,-1,1252,1142,0,0
35,-118,0,0,0,0,0,0,0,0,0,-1,1259,1142,0,0
42,-118,0,0,0,0,0,0,0,0,0,-1,1266,1142,0,0
49,-118,0,0,0,0,0,0,0,0,0,-1,1273,1142,0,0
56,-118,0,0,0,0,0,0,0,0,0,-1,1280,1142,0,0
63,-118,0,0,0,0,0,0,0,0,0,-1,1287,1142,0,0
70,-118,0,0,0,0,0,0,0,0,0,-1,1294,1142,0,0
77,-118,0,0,0,0,0,0,0,0,0,-1,1301,1142,0,0
84,-118,0,0,0,0,0,0,0,0,0,-1,1308,1142,0,0
91,-118,0,0,0,0,0,0,0,0,0,-1,1315,1142,0,0
98,-118,0,0,0,0,0,0,0,0,0,-1,1322,1142,0,0
105,-118,0,0,0,0,0,0,0,0,0,-1,1329,1142,0,0
112,-118,0,0,0,0,0,0,0,0,0,-1,1336,1142,0,0
119,-118,0,0,0,0,0,0,0,0,0,-1,1343,1142,0,0
126,-118,0,0,0,0,0,0,0,0,0,-1,1350,1142,0,0
133,-118,0,0,0,0,0,0,0,0,0,-1,1357,1142,0,0
140,-118,0,0,0,0,0,0,0,0,0,-1,1364,1142,0,0
147,-118,0,0,0,0,0,0,0,0,0,-1,1371,1142,0,0
154,-118,0,0,0,0,0,0,0,0,0,-1,1378,1142,0,0
161,-118,0,0,0,0,0,0,0,0,0,-1,1385,1142,0,0
168,-118,0,0,0,0,0,0,0,0,0,-1,1392,1142,0,0
175,-118,0,0,0,0,0,0,0,0,0,-1,1399,1142,0,0
182,-118,0,0,0,0,0,0,0,0,0,-1,1406,1142,0,0
189,-118,0,0,0,0,0,0,0,0,0,-1,1413,1142,0,0
196,-118,0,0,0,0,0,0,0,0,0,-1,1420,1142,0,0
203,-118,0,0,0,0,0,0,0,0,0,-1,1427,1142,0,0
210,-118,0,0,0,0,0,0,0,0,0,-1,1434,1142,0,0
217,-118,0,0,0,0,0,0,0,0,0,-1,1441,1142,0,0
224,-118,0,0,0,0,0,0,0,0,0,-1,1448,1142,0,0
231,-118,0,0,0,0,0,0,0,0,0,-1,1455,1142,0,0
238,-118,0,0,0,0,0,0,0,0,0,-1,1462,1142,0,0
245,-118,0,0,0,0,0,0,0,0,0,-1,1469,1142,0,0
252,-118,0,0,0,0,0,0,0,0,0,-1,1476,1142,0,0
259,-118,0,0,0,0,0,0,0,0,0,-1,1483,1142,0,0
266,-118,0,0,0,0,0,0,0,0,0,-1,1490,1142,0,0
273,-118,0,0,0,0,0,0,0,0,0,-1,1497,1142,0,0
280,-118,0,0,0,0,0,0,0,0,0,-1,1504,1142,0,0
287,-118,0,0,0,0,0,0,0,0,0,-1,1511,1142,0,0
294,-118,0,0,0,0,0,0,0,0,0,-1,1518,1142,0,0
301,-118,0,0,0,0,0,0,0,0,0,-1,1525,1142,0,0
308,-118,0,0,0,0,0,0,0,0,0,-1,1532,1142,0,0
315,-118,0,0,0,0,0,0,0,0,0,-1,1539,1142,0,0
322,-118,0,0,0,0,0,0,0,0,0,-1,1546,1142,0,0
329,-118,0,0,0,0,0,0,0,0,0,-1,1553,1142,0,0
336,-118,0,0,0,0,0,0,0,0,0,-1,1560,1142,0,0
343,-118,0,0,0,0,0,0,0,0,0,-1,1567,1142,0,0
350,-118,0,0,0,0,0,0,0,0,0,-1,1574,1142,0,0
357,-118,0,0,0,0,0,0,0,0,0,-1,1581,1142,0,0
364,-118,0,0,0,0,0,0,0,0,0,-1,1588,1142,0,0
371,-118,0,0,0,0,0,0,0,0,0,-1,1595,1142,0,0
378,-118,0,0,0,0,0,0,0,0,0,-1,1602,1142,0,0
385,-118,0,0,0,0,0,0,0,0,0,-1,1609,1142,0,0
392,-118,0,0,0,0,0,0,0,0,0,-1,1616,1142,0,0
399,-118,0,0,0,0,0,0,0,0,0,-1,1623,1142,0,0
406,-118,0,0,0,0,0,0,0,0,0,-1,1630,1142,0,0
413,-118,0,0,0,0,0,0,0,0,0,-1,1637,1142,0,0
420,-118,0,0,0,0,0,0,0,0,0,-1,1644,1142,0,0
427,-118,0,0,0,0,0,0,0,0,0,-1,1651,1142,0,0
434,-118,0,0,0,0,0,0,0,0,0,-1,1658,1142,0,0
441,-118,0,0,0,0,0,0,0,0,0,-1,1665,1142,0,0
448,-118,0,0,0,0,0,0,0,0,0,-1,1672,1142,0,0
455,-118,0,0,0,0,0,0,0,0,0,-1,1679,1142,0,0
462,-118,0,0,0,0,0,0,0,0,0,-1,1686,1142,0,0
469,-118,0,0,0,0,0,0,0,0,0,-1,1693,1142,0,0
476,-118,0,0,0,0,0,0,0,0,0,-1,1700,1142,0,0
483,-118,0,0,0,0,0,0,0,0,0,-1,1707,1142,0,0
490,-118,0,0,0,0,0,0,0,0,0,-1,1714,1142,0,0
497,-118,0,0,0,0,0,0,0,0,0,-1,1721,1142,0,0
504,-118,0,0,0,0,0,0,0,0,0,-1,1728,1142,0,0
511,-118,0,0,0,0,0,0,0,0,0,-1,1735,1142,0,0
518,-118,0,0,0,0,0,0,0,0,0,-1,1742,1142,0,0
525,-118,0,0,0,0,0,0,0,0,0,-1,1749,1142,0,0
532,-118,0,0,0,0,0,0,0,0,0,-1,1756,1142,0,0
539,-118,0,0,0,0,0,0,0,0,0,-1,1763,1142,0,0
546,-118,0,0,0,0,0,0,0,0,0,-1,1770,1142,0,0
553,-118,0,0,0,0,0,0,0,0,0,-1,1777,1142,0,0
560,-118,0,0,0,0,0,0,0,0,0,-1,1784,1142,0,0
567,-118,0,0,0,0,0,0,0,0,0,-1,1791,1142,0,0
574,-118,0,0,0,0,0,0,0,0,0,-1,1798,1142,0,0
581,-118,0,0,0,0,0,0,0,0,0,-1,1805,1142,0,0
588,-118,0,0,0,0,0,0,0,0,0,-1,1812,1142,0,0
595,-118,0,0,0,0,0,0,0,0,0,-1,1819,1142,0,0
602,-118,0,0,0,0,0,0,0,0,0,-1,1826,1142,0,0
609,-118,0,0,0,0,0,0,0,0,0,-1,1833,1142,0,0
616,-118,0,0,0,0,0,0,0,0,0,-1,1840,1142,0,0
623,-118,0,0,0,0,0,0,0,0,0,-1,1847,1142,0,0
630,-118,0,0,0,0,0,0,0,0,0,-1,1854,1142,0,0
637,-118,0,0,0,0,0,0,0,0,0,-1,1861,1142,0,0
644,-118,11.8445,1.60107,-0.00354919,-0.00568091,-0.00333985,-0.00110925,-0.00812086,-0.630939,0.00508465,0.0399386,1868,1142,11.8445,-1.60108
651,-118,11.777,1.34924,-0.00265175,-0.0046384,-0.00209043,-0.00133064,-0.00595951,-0.563602,0.0036121,0.0384261,1875,1142,11.777,-1.34919
658,-118,11.5803,1.26721,-0.00189074,-0.00386961,-0.00113228,-0.0013765,-0.00438385,-0.426311,0.00258874,0.0405273,1882,1142,11.5803,-1.26718
665,-118,11.7073,1.45959,-0.00182895,-0.00343542,-3.74169e-05,-0.00182808,-0.00343629,-0.0232745,0.0019853,0.0444883,1889,1142,11.7073,-1.45958
672,-118,11.7751,1.70313,-0.00241679,-0.00321231,0.00112812,-0.00161836,-0.00401074,0.615908,0.00232993,0.045279,1896,1142,11.7752,-1.70307
679,-118,11.6885,1.76721,-0.00319419,-0.00307715,0.00209064,-0.00104421,-0.00522713,0.79939,0.00319409,0.041409,1903,1142,11.6885,-1.76723
686,-118,11.7084,1.76636,-0.00395787,-0.00299361,0.00284878,-0.000586452,-0.00636504,0.869224,0.00406201,0.0361061,1910,1142,11.7084,-1.76633
693,-118,11.7216,1.75293,-0.00460217,-0.00283485,0.00334458,-0.00025917,-0.00717785,0.91455,0.00470123,0.0327684,1917,1142,11.7216,-1.75295
700,-118,11.7563,1.76099,-0.00499109,-0.00278157,0.00382157,9.17204e-05,-0.00786438,0.926105,0.00527376,0.0198401,1924,1142,11.7563,-1.76104
707,-118,11.8009,1.88611,0,0,0,0,0,0,0,-1,1931,1142,11.8009,-1.88616
714,-118,11.5048,2.13684,-0.00545845,-0.00226169,0.00413987,0.000577645,-0.00829778,0.969629,0.00573411,0.0277639,1938,1142,11.5047,-2.13681
721,-118,11.2952,2.33728,-0.00540894,-0.00200625,0.00381386,0.00046854,-0.00788372,0.995199,0.00541875,0.00988457,1945,1142,11.2952,-2.33726
728,-118,11.2798,2.30664,-0.00507126,-0.00166547,0.00339107,0.000426257,-0.007163,1.01809,0.00492357,0.0119028,1952,1142,11.2797,-2.30669
735,-118,11.276,2.25269,-0.00468859,-0.00123873,0.00271304,0.000251296,-0.00617862,1.06856,0.00420535,0.0118958,1959,1142,11.276,-2.25268
742,-118,11.2793,2.22412,-0.00533162,-8.06605e-05,0.00139708,0.00026791,-0.0056802,1.32629,0.00387919,0.0194187,1966,1142,11.2793,-2.2241
749,-118,11.2756,2.18176,-0.00684905,0.0016273,-0.00108335,0.00176357,-0.00698532,-1.44567,0.00534266,0.0197158,1973,1142,11.2756,-2.18172
756,-118,11.2659,2.16797,-0.00973117,0.00475988,-0.00446098,0.00602305,-0.0109943,-1.29486,0.00996376,0.0155532,1980,1142,11.2659,-2.16793
763,-118,11.2546,2.10913,-0.0136509,0.00521644,-0.00812639,0.00823397,-0.0166684,-1.21525,0.0146497,0.00925499,1987,1142,11.2546,-2.1091
770,-118,11.2329,2.07422,-0.0187517,0.00725552,-0.0126191,0.012372,-0.0238681,-1.1856,0.0212712,0.0113151,1994,1142,11.2329,-2.07419
777,-118,11.2115,1.99878,-0.0259673,0.00924816,-0.0179263,0.0167678,-0.0334869,-1.17361,0.0295449,0.0254707,2001,1142,11.2115,-1.99875
784,-118,10.7611,1.96667,-0.0353295,0.0109802,-0.0242564,0.0213592,-0.0457085,-1.16648,0.039563,0.0430498,2008,1142,10.7611,-1.96664
791,-118,10.3989,1.84717,-0.0467354,0.0119492,-0.0317517,0.0258405,-0.0606267,-1.15839,0.0512508,0.0441309,2015,1142,10.3989,-1.84721
798,-118,10.0385,1.01575,-0.0601242,0.0112921,-0.0403865,0.0294926,-0.0783247,-1.1474,0.0643413,0.0447423,2022,1142,10.0385,-1.01569
805,-118,9.39502,-0.454102,-0.0755035,0.00751118,-0.0500108,0.0309957,-0.098988,-1.13177,0.0783938,0.0481962,2029,1142,9.39502,0.45412
812,-118,8.46863,-2.11218,0,0,0,0,0,0,0,-1,2036,1142,8.46866,2.11224
-700,-125,0,0,0,0,0,0,0,0,0,-1,524,1149,0,0
-693,-125,-7.35052,0.68457,0.0490077,-0.0174652,-0.000414082,0.0490103,-0.0174678,-0.00622901,0.0397952,0.0465759,531,1149,-7.35053,-0.684612
-686,-125,-7.0639,0.891235,0.0426116,-0.00996878,0.00247347,0.0427277,-0.0100849,0.0469036,0.0323747,0.04386,538,1149,-7.06393,-0.891229
-679,-125,-6.48553,0.867798,0.0364839,-0.00512416,0.00417303,0.0368983,-0.00553856,0.0989803,0.0266377,0.043475,545,1149,-6.48552,-0.867748
-672,-125,-6.01251,0.59021,0.0307296,-0.00199088,0.00502118,0.0314828,-0.00274407,0.148894,0.0219604,0.046238,552,1149,-6.01252,-0.590164
-665,-125,-5.58301,0.291016,0.025392,-2.36146e-05,0.00524578,0.0264322,-0.00106377,0.195746,0.0179865,0.0414281,559,1149,-5.58303,-0.290962
-658,-125,-5.33997,0.147095,0.0205274,0.00111475,0.0050114,0.0217448,-0.000102604,0.238302,0.0145308,0.0424483,566,1149,-5.33998,-0.147114
-651,-125,-5.2345,0.0998535,0,0,0,0,0,0,0,-1,573,1149,-5.23451,-0.0998756
-644,-125,-5.38593,0.713135,0.0123466,0.00181122,0.0037544,0.0135476,0.000610216,0.309606,0.00883537,0.0244257,580,1149,-5.38595,-0.713127
-637,-125,-5.36786,0.744263,0.00878405,0.00189188,0.00287442,0.00982548,0.000850449,0.347599,0.00628604,0.0133954,587,1149,-5.36785,-0.744311
-630,-125,-5.36267,0.786621,0.0053261,0.0017066,0.00171815,0.0060118,0.00102091,0.37972,0.00371462,0.0142892,594,1149,-5.36266,-0.786682
-623,-125,-5.36469,0.843994,0.00241901,0.00101148,0.000852985,0.00282108,0.000609409,0.44048,0.00171408,0.0128798,601,1149,-5.3647,-0.844017
-616,-125,-5.37262,0.884888,0.00046698,0.000131002,-0.000512807,0.000838612,-0.00024063,-0.627113,0.000654207,0.0127602,608,1149,-5.37263,-0.884869
-609,-125,-5.3996,0.927368,-0.00163767,-0.000540575,-0.00173107,0.000726777,-0.00290503,-0.938836,0.00221898,0.0129731,615,1149,-5.39961,-0.927355
-602,-125,-5.41589,0.997314,-0.00356274,-0.0010779,-0.00271754,0.000667765,-0.00530841,-0.999805,0.00378123,0.0118754,622,1149,-5.41589,-0.997274
-595,-125,-5.40887,1.07239,-0.00449253,-0.00141465,-0.0033938,0.000772825,-0.00668001,-0.99826,0.00473203,0.00988549,629,1149,-5.40888,-1.07241
-588,-125,-5.32593,1.14417,-0.00518996,-0.00158521,-0.00389444,0.00090371,-0.00767888,-1.00212,0.00544554,0.0151838,636,1149,-5.3259,-1.14421
-581,-125,-5.49829,1.05872,-0.00539117,-0.00163947,-0.00417621,0.00106284,-0.00809348,-0.996482,0.00578259,0.0364774,643,1149,-5.49827,-1.05877
-574,-125,-5.73444,0.813721,-0.00502883,-0.00165687,-0.00430545,0.00128094,-0.00796664,-0.972017,0.00578553,0.0433654,650,1149,-5.73443,-0.813768
-567,-125,-5.8092,0.670776,-0.00452943,-0.00149852,-0.00428811,0.00153405,-0.007562,-0.955252,0.00562287,0.038306,657,1149,-5.80918,-0.670721
-560,-125,-5.80908,0.759888,-0.00359234,-0.00118523,-0.00405928,0.00184516,-0.00662273,-0.929517,0.00514177,0.0371872,664,1149,-5.80908,-0.759917
-553,-125,-5.63422,0.643066,-0.00210618,-0.00075834,-0.00364466,0.00227419,-0.0051387,-0.876818,0.00438505,0.0392854,671,1149,-5.63423,-0.643075
-546,-125,-5.59766,0.484863,-1.56609e-05,-0.000275779,-0.00307379,0.00293082,-0.00322226,-0.764255,0.00355381,0.042177,678,1149,-5.59763,-0.484883
-539,-125,-5.93335,0.735474,0.00277183,0.000193531,-0.00238544,0.00419418,-0.00122882,-0.537667,0.00328329,0.0406238,685,1149,-5.93337,-0.73553
-532,-125,-5.7832,0.727905,0.00621147,0.000509097,-0.0018096,0.00673725,-1.66823e-05,-0.282765,0.00449707,0.0379379,692,1149,-5.78319,-0.72789
-525,-125,-5.61359,0.586182,0.00925099,0.000196969,-0.00225095,0.00977973,-0.000331771,-0.230714,0.00663318,0.0404551,699,1149,-5.61361,-0.586157
-518,-125,0,0,0,0,0,0,0,0,0,-1,706,1149,0,0
-511,-125,0,0,0,0,0,0,0,0,0,-1,713,1149,0,0
-504,-125,0,0,0,0,0,0,0,0,0,-1,720,1149,0,0
-497,-125,0,0,0,0,0,0,0,0,0,-1,727,1149,0,0
-490,-125,0,0,0,0,0,0,0,0,0,-1,734,1149,0,0
-483,-125,0,0,0,0,0,0,0,0,0,-1,741,1149,0,0
-476,-125,0,0,0,0,0,0,0,0,0,-1,748,1149,0,0
-469,-125,0,0,0,0,0,0,0,0,0,-1,755,1149,0,0
-462,-125,0,0,0,0,0,0,0,0,0,-1,762,1149,0,0
-455,-125,0,0,0,0,0,0,0,0,0,-1,769,1149,0,0
-448,-125,0,0,0,0,0,0,0,0,0,-1,776,1149,0,0
-441,-125,0,0,0,0,0,0,0,0,0,-1,783,1149,0,0
-434,-125,0,0,0,0,0,0,0,0,0,-1,790,1149,0,0
-427,-125,0,0,0,0,0,0,0,0,0,-1,797,1149,0,0
-420,-125,0,0,0,0,0,0,0,0,0,-1,804,1149,0,0
-413,-125,0,0,0,0,0,0,0,0,0,-1,811,1149,0,0
-406,-125,0,0,0,0,0,0,0,0,0,-1,818,1149,0,0
-399,-125,0,0,0,0,0,0,0,0,0,-1,825,1149,0,0
-392,-125,0,0,0,0,0,0,0,0,0,-1,832,1149,0,0
-385,-125,0,0,0,0,0,0,0,0,0,-1,839,1149,0,0
-378,-125,0,0,0,0,0,0,0,0,0,-1,846,1149,0,0
-371,-125,0,0,0,0,0,0,0,0,0,-1,853,1149,0,0
-364,-125,0,0,0,0,0,0,0,0,0,-1,860,1149,0,0
-357,-125,0,0,0,0,0,0,0,0,0,-1,867,1149,0,0
-350,-125,0,0,0,0,0,0,0,0,0,-1,874,1149,0,0
-343,-125,0,0,0,0,0,0,0,0,0,-1,881,1149,0,0
-336,-125,0,0,0,0,0,0,0,0,0,-1,888,1149,0,0
-329,-125,0,0,0,0,0,0,0,0,0,-1,895,1149,0,0
-322,-125,0,0,0,0,0,0,0,0,0,-1,902,1149,0,0
-315,-125,0,0,0,0,0,0,0,0,0,-1,909,1149,0,0
-308,-125,0,0,0,0,0,0,0,0,0,-1,916,1149,0,0
-301,-125,0,0,0,0,0,0,0,0,0,-1,923,1149,0,0
-294,-125,0,0,0,0,0,0,0,0,0,-1,930,1149,0,0
-287,-125,0,0,0,0,0,0,0,0,0,-1,937,1149,0,0
-280,-125,0,0,0,0,0,0,0,0,0,-1,944,1149,0,0
-273,-125,0,0,0,0,0,0,0,0,0,-1,951,1149,0,0
-266,-125,0,0,0,0,0,0,0,0,0,-1,958,1149,0,0
-259,-125,0,0,0,0,0,0,0,0,0,-1,965,1149,0,0
-252,-125,0,0,0,0,0,0,0,0,0,-1,972,1149,0,0
-245,-125,0,0,0,0,0,0,0,0,0,-1,979,1149,0,0
-238,-125,0,0,0,0,0,0,0,0,0,-1,986,1149,0,0
-231,-125,0,0,0,0,0,0,0,0,0,-1,993,1149,0,0
-224,-125,0,0,0,0,0,0,0,0,0,-1,1000,1149,0,0
-217,-125,0,0,0,0,0,0,0,0,0,-1,1007,1149,0,0
-210,-125,0,0,0,0,0,0,0,0,0,-1,1014,1149,0,0
-203,-125,0,0,0,0,0,0,0,0,0,-1,1021,1149,0,0
-196,-125,0,0,0,0,0,0,0,0,0,-1,1028,1149,0,0
-189,-125,0,0,0,0,0,0,0,0,0,-1,1035,1149,0,0
-182,-125,0,0,0,0,0,0,0,0,0,-1,1042,1149,0,0
-175,-125,0,0,0,0,0,0,0,0,0,-1,1049,1149,0,0
-168,-125,0,0,0,0,0,0,0,0,0,-1,1056,1149,0,0
-161,-125,0,0,0,0,0,0,0,0,0,-1,1063,1149,0,0
-154,-125,0,0,0,0,0,0,0,0,0,-1,1070,1149,0,0
-147,-125,0,0,0,0,0,0,0,0,0,-1,1077,1149,0,0
-140,-125,0,0,0,0,0,0,0,0,0,-1,1084,1149,0,0
-133,-125,0,0,0,0,0,0,0,0,0,-1,1091,1149,0,0
-126,-125,0,0,0,0,0,0,0,0,0,-1,1098,1149,0,0
-119,-125,0,0,0,0,0,0,0,0,0,-1,1105,1149,0,0
-112,-125,0,0,0,0,0,0,0,0,0,-1,1112,1149,0,0
-105,-125,0,0,0,0,0,0,0,0,0,-1,1119,1149,0,0
-98,-125,0,0,0,0,0,0,0,0,0,-1,1126,1149,0,0
-91,-125,0,0,0,0,0,0,0,0,0,-1,1133,1149,0,0
-84,-125,0,0,0,0,0,0,0,0,0,-1,1140,1149,0,0
-77,-125,0,0,0,0,0,0,0,0,0,-1,1147,1149,0,0
-70,-125,0,0,0,0,0,0,0,0,0,-1,1154,1149,0,0
-63,-125,0,0,0,0,0,0,0,0,0,-1,1161,1149,0,0
-56,-125,0,0,0,0,0,0,0,0,0,-1,1168,1149,0,0
-49,-125,0,0,0,0,0,0,0,0,0,-1,1175,1149,0,0
-42,-125,0,0,0,0,0,0,0,0,0,-1,1182,1149,0,0
-35,-125,0,0,0,0,0,0,0,0,0,-1,1189,1149,0,0
-28,-125,0,0,0,0,0,0,0,0,0,-1,1196,1149,0,0
-21,-125,0,0,0,0,0,0,0,0,0,-1,1203,1149,0,0
-14,-125,0,0,0,0,0,0,0,0,0,-1,1210,1149,0,0
-7,-125,0,0,0,0,0,0,0,0,0,-1,1217,1149,0,0
0,-125,0,0,0,0,0,0,0,0,0,-1,1224,1149,0,0
7,-125,0,0,0,0,0,0,0,0,0,-1,1231,1149,0,0
14,-125,0,0,0,0,0,0,0,0,0,-1,1238,1149,0,0
21,-125,0,0,0,0,0,0,0,0,0,-1,1245,1149,0,0
28,-125,0,0,0,0,0,0,0,0,0,-1,1252,1149,0,0
35,-125,0,0,0,0,0,0,0,0,0,-1,1259,1149,0,0
42,-125,0,0,0,0,0,0,0,0,0,-1,1266,1149,0,0
49,-125,0,0,0,0,0,0,0,0,0,-1,1273,1149,0,0
56,-125,0,0,0,0,0,0,0,0,0,-1,1280,1149,0,0
63,-125,0,0,0,0,0,0,0,0,0,-1,1287,1149,0,0
70,-125,0,0,0,0,0,0,0,0,0,-1,1294,1149,0,0
77,-125,0,0,0,0,0,0,0,0,0,-1,1301,1149,0,0
84,-125,0,0,0,0,0,0,0,0,0,-1,1308,1149,0,0
91,-125,0,0,0,0,0,0,0,0,0,-1,1315,1149,0,0
98,-125,0,0,0,0,0,0,0,0,0,-1,1322,1149,0,0
105,-125,0,0,0,0,0,0,0,0,0,-1,1329,1149,0,0
112,-125,0,0,0,0,0,0,0,0,0,-1,1336,1149,0,0
119,-125,0,0,0,0,0,0,0,0,0,-1,1343,1149,0,0
126,-125,0,0,0,0,0,0,0,0,0,-1,1350,1149,0,0
133,-125,0,0,0,0,0,0,0,0,0,-1,1357,1149,0,0
140,-125,0,0,0,0,0,0,0,0,0,-1,1364,1149,0,0
147,-125,0,0,0,0,0,0,0,0,0,-1,1371,1149,0,0
154,-125,0,0,0,0,0,0,0,0,0,-1,1378,1149,0,0
161,-125,0,0,0,0,0,0,0,0,0,-1,1385,1149,0,0
168,-125,0,0,0,0,0,0,0,0,0,-1,1392,1149,0,0
175,-125,0,0,0,0,0,0,0,0,0,-1,1399,1149,0,0
182,-125,0,0,0,0,0,0,0,0,0,-1,1406,1149,0,0
189,-125,0,0,0,0,0,0,0,0,0,-1,1413,1149,0,0
196,-125,0,0,0,0,0,0,0,0,0,-1,1420,1149,0,0
203,-125,0,0,0,0,0,0,0,0,0,-1,1427,1149,0,0
210,-125,0,0,0,0,0,0,0,0,0,-1,1434,1149,0,0
217,-125,0,0,0,0,0,0,0,0,0,-1,1441,1149,0,0
224,-125,0,0,0,0,0,0,0,0,0,-1,1448,1149,0,0
231,-125,0,0,0,0,0,0,0,0,0,-1,1455,1149,0,0
238,-125,0,0,0,0,0,0,0,0,0,-1,1462,1149,0,0
245,-125,0,0,0,0,0,0,0,0,0,-1,1469,1149,0,0
252,-125,0,0,0,0,0,0,0,0,0,-1,1476,1149,0,0
259,-125,0,0,0,0,0,0,0,0,0,-1,1483,1149,0,0
266,-125,0,0,0,0,0,0,0,0,0,-1,1490,1149,0,0
273,-125,0,0,0,0,0,0,0,0,0,-1,1497,1149,0,0
280,-125,0,0,0,0,0,0,0,0,0,-1,1504,1149,0,0
287,-125,0,0,0,0,0,0,0,0,0,-1,1511,1149,0,0
294,-125,0,0,0,0,0,0,0,0,0,-1,1518,1149,0,0
301,-125,0,0,0,0,0,0,0,0,0,-1,1525,1149,0,0
308,-125,0,0,0,0,0,0,0,0,0,-1,1532,1149,0,0
315,-125,0,0,0,0,0,0,0,0,0,-1,1539,1149,0,0
322,-125,0,0,0,0,0,0,0,0,0,-1,1546,1149,0,0
329,-125,0,0,0,0,0,0,0,0,0,-1,1553,1149,0,0
336,-125,0,0,0,0,0,0,0,0,0,-1,1560,1149,0,0
343,-125,0,0,0,0,0,0,0,0,0,-1,1567,1149,0,0
350,-125,0,0,0,0,0,0,0,0,0,-1,1574,1149,0,0
357,-125,0,0,0,0,0,0,0,0,0,-1,1581,1149,0,0
364,-125,0,0,0,0,0,0,0,0,0,-1,1588,1149,0,0
371,-125,0,0,0,0,0,0,0,0,0,-1,1595,1149,0,0
378,-125,0,0,0,0,0,0,0,0,0,-1,1602,1149,0,0
385,-125,0,0,0,0,0,0,0,0,0,-1,1609,1149,0,0
392,-125,0,0,0,0,0,0,0,0,0,-1,1616,1149,0,0
399,-125,0,0,0,0,0,0,0,0,0,-1,1623,1149,0,0
406,-125,0,0,0,0,0,0,0,0,0,-1,1630,1149,0,0
413,-125,0,0,0,0,0,0,0,0,0,-1,1637,1149,0,0
420,-125,0,0,0,0,0,0,0,0,0,-1,1644,1149,0,0
427,-125,0,0,0,0,0,0,0,0,0,-1,1651,1149,0,0
434,-125,0,0,0,0,0,0,0,0,0,-1,1658,1149,0,0
441,-125,0,0,0,0,0,0,0,0,0,-1,1665,1149,0,0
448,-125,0,0,0,0,0,0,0,0,0,-1,1672,1149,0,0
455,-125,0,0,0,0,0,0,0,0,0,-1,1679,1149,0,0
462,-125,0,0,0,0,0,0,0,0,0,-1,1686,1149,0,0
469,-125,0,0,0,0,0,0,0,0,0,-1,1693,1149,0,0
476,-125,0,0,0,0,0,0,0,0,0,-1,1700,1149,0,0
483,-125,0,0,0,0,0,0,0,0,0,-1,1707,1149,0,0
490,-125,0,0,0,0,0,0,0,0,0,-1,1714,1149,0,0
497,-125,0,0,0,0,0,0,0,0,0,-1,1721,1149,0,0
504,-125,0,0,0,0,0,0,0,0,0,-1,1728,1149,0,0
511,-125,0,0,0,0,0,0,0,0,0,-1,1735,1149,0,0
518,-125,0,0,0,0,0,0,0,0,0,-1,1742,1149,0,0
525,-125,0,0,0,0,0,0,0,0,0,-1,1749,1149,0,0
532,-125,0,0,0,0,0,0,0,0,0,-1,1756,1149,0,0
539,-125,0,0,0,0,0,0,0,0,0,-1,1763,1149,0,0
546,-125,0,0,0,0,0,0,0,0,0,-1,1770,1149,0,0
553,-125,0,0,0,0,0,0,0,0,0,-1,1777,1149,0,0
560,-125,0,0,0,0,0,0,0,0,0,-1,1784,1149,0,0
567,-125,0,0,0,0,0,0,0,0,0,-1,1791,1149,0,0
574,-125,0,0,0,0,0,0,0,0,0,-1,1798,1149,0,0
581,-125,0,0,0,0,0,0,0,0,0,-1,1805,1149,0,0
588,-125,0,0,0,0,0,0,0,0,0,-1,1812,1149,0,0
595,-125,0,0,0,0,0,0,0,0,0,-1,1819,1149,0,0
602,-125,0,0,0,0,0,0,0,0,0,-1,1826,1149,0,0
609,-125,0,0,0,0,0,0,0,0,0,-1,1833,1149,0,0
616,-125,0,0,0,0,0,0,0,0,0,-1,1840,1149,0,0
623,-125,0,0,0,0,0,0,0,0,0,-1,1847,1149,0,0
630,-125,0,0,0,0,0,0,0,0,0,-1,1854,1149,0,0
637,-125,0,0,0,0,0,0,0,0,0,-1,1861,1149,0,0
644,-125,11.8855,1.62476,-0.00373057,-0.00652093,-0.0024146,-0.00233706,-0.00791444,-0.523426,0.00469533,0.0411623,1868,1149,11.8856,-1.62482
651,-125,11.7604,1.62,-0.00275733,-0.0051504,-0.00149344,-0.00204021,-0.00586752,-0.447665,0.00343959,0.0376838,1875,1149,11.7603,-1.62005
658,-125,11.6326,1.66016,-0.00197119,-0.00419402,-0.000715963,-0.00176055,-0.00440467,-0.286141,0.00256003,0.038143,1882,1149,11.6326,-1.6602
665,-125,11.686,1.74402,-0.00196724,-0.00365417,0.000258067,-0.00192864,-0.00369277,0.148458,0.00213272,0.0430073,1889,1149,11.6861,-1.74406
672,-125,11.7482,1.71155,-0.00257204,-0.00335484,0.00128263,-0.00162242,-0.00430445,0.637308,0.00251015,0.0419385,1896,1149,11.7482,-1.71157
679,-125,11.7469,1.79382,-0.00333578,-0.00317502,0.00212281,-0.00113107,-0.00537973,0.804322,0.00327522,0.0381681,1903,1149,11.7469,-1.7938
686,-125,11.7415,1.81604,-0.00408014,-0.00306498,0.00278032,-0.000746294,-0.00639883,0.875685,0.00404016,0.0366194,1910,1149,11.7414,-1.81609
693,-125,11.702,1.74866,-0.00470001,-0.0028721,0.00319402,-0.000463846,-0.00710827,0.924748,0.00459204,0.0329884,1917,1149,11.7021,-1.74872
700,-125,11.7604,1.77087,-0.00506852,-0.00280575,0.00360646,-0.000157372,-0.00771689,0.937392,0.00509295,0.0153864,1924,1149,11.7604,-1.77089
707,-125,11.9348,1.90906,0,0,0,0,0,0,0,-1,1931,1149,11.9349,-1.90912
714,-125,11.4633,2.16138,-0.00547927,-0.00228791,0.00384131,0.000275955,-0.00804314,0.982254,0.0054564,0.0331356,1938,1149,11.4632,-2.16137
721,-125,11.2283,2.33948,-0.00540841,-0.00201896,0.00352459,0.000197168,-0.00762454,1.00949,0.00515001,0.0170822,1945,1149,11.2283,-2.33947
728,-125,11.2159,2.30493,-0.0050293,-0.00165803,0.00311117,0.0001948,-0.00688213,1.03366,0.00465438,0.0115046,1952,1149,11.2159,-2.30496
735,-125,11.2103,2.27795,-0.0045593,-0.00121223,0.00242112,5.74507e-05,-0.00582898,1.0878,0.00390528,0.0140251,1959,1149,11.2103,-2.27792
742,-125,11.2263,2.20886,-0.00494333,-4.71703e-06,0.00106993,0.000217115,-0.00516516,1.36636,0.00351805,0.0223822,1966,1149,11.2263,-2.20887
749,-125,11.2507,2.17139,-0.00624709,0.00150352,-0.00149429,0.00178164,-0.0065252,-1.38678,0.00504989,0.0252906,1973,1149,11.2507,-2.17139
756,-125,11.2502,2.17664,-0.0087332,0.00410589,-0.00510461,0.00588803,-0.0105153,-1.2349,0.00959527,0.0186955,1980,1149,11.2502,-2.17664
763,-125,11.2157,2.10095,-0.0121461,0.00389607,-0.00902911,0.00795235,-0.0162023,-1.14857,0.0142143,0.010559,1987,1149,11.2156,-2.10094
770,-125,11.2056,2.03674,-0.0166631,0.00501968,-0.013823,0.0117457,-0.023389,-1.11794,0.020653,0.0129195,1994,1149,11.2055,-2.03674
777,-125,11.2119,1.97913,-0.0231133,0.00566131,-0.0195855,0.015576,-0.033028,-1.10218,0.0286581,0.0244568,2001,1149,11.2119,-1.97918
784,-125,11.1095,1.83838,-0.0314636,0.00547936,-0.0265676,0.0193657,-0.04535,-1.08917,0.0383544,0.0436633,2008,1149,11.1096,-1.83844
791,-125,10.5156,1.3468,-0.0416148,0.00380747,-0.0349126,0.0227459,-0.0605532,-1.07377,0.0497166,0.0455138,2015,1149,10.5156,-1.34674
798,-125,10.1808,0.418335,-0.0535273,-0.000399335,-0.0446276,0.0249719,-0.0788985,-1.05385,0.0626057,0.0430092,2022,1149,10.1808,-0.418333
805,-125,9.98193,-0.379517,-0.0672598,-0.00885724,-0.0556012,0.0247445,-0.100861,-1.0272,0.0768291,0.044077,2029,1149,9.98193,0.379557
812,-125,9.06836,-1.12842,-0.0828076,-0.0246523,-0.0675553,0.0198175,-0.127277,-0.988628,0.0921704,0.0481609,2036,1149,9.06836,1.12844
-700,-132,0,0,0,0,0,0,0,0,0,-1,524,1156,0,0
-693,-132,-7.21832,0.993408,0.043037,-0.0210255,0.000453945,0.0430403,-0.0210287,0.0070855,0.0377109,0.0488873,531,1156,-7.21834,-0.993445
-686,-132,-6.92499,1.19067,0.0391411,-0.0115896,0.00318339,0.03934,-0.0117886,0.0624245,0.0309147,0.0486492,538,1156,-6.92501,-1.19073
-679,-132,-6.09369,0.984863,0.0346709,-0.0056552,0.00468049,0.035207,-0.00619132,0.114046,0.0257841,0.0487739,545,1156,-6.09367,-0.984914
-672,-132,-7.03552,-0.358643,0.0300044,-0.00193267,0.00533728,0.0308727,-0.00280102,0.161282,0.0215762,0.0443384,552,1156,-7.0355,0.358621
-665,-132,-5.77899,0.280029,0.025352,0.000319629,0.00541159,0.0264718,-0.000800172,0.204047,0.0179206,0.0428762,559,1156,-5.77899,-0.28004
-658,-132,-5.40881,0.362061,0.0208928,0.00155674,0.00507528,0.022144,0.000305552,0.241706,0.0146619,0.0451923,566,1156,-5.4088,-0.362037
-651,-132,-5.31946,0.458252,0.0167203,0.00209871,0.00447636,0.0179819,0.000837133,0.274705,0.0117189,0.0411065,573,1156,-5.31948,-0.458263
-644,-132,-5.35114,0.69812,0.012971,0.00217893,0.00373563,0.0141379,0.00101203,0.302768,0.00910667,0.0216737,580,1156,-5.35113,-0.698078
-637,-132,-5.31506,0.735962,0.00945957,0.00219161,0.00293103,0.0104943,0.00115689,0.339365,0.00664422,0.0118436,587,1156,-5.31503,-0.735954
-630,-132,-5.30835,0.778076,0.00597992,0.0019509,0.00181097,0.00667426,0.00125656,0.366121,0.00409542,0.0097916,594,1156,-5.30835,-0.778046
-623,-132,-5.32996,0.859131,0.0029339,0.00131103,0.000792533,0.00325672,0.000988209,0.386807,0.00192809,0.014709,601,1156,-5.32997,-0.85912
-616,-132,-5.34631,0.929443,0.000748681,0.000131655,-0.000504636,0.00103164,-0.000151303,-0.511034,0.000743345,0.0203059,608,1156,-5.34634,-0.929457
-609,-132,-5.33655,0.944824,-0.0016462,-0.000660758,-0.00166763,0.000585416,-0.00289238,-0.929043,0.00215012,0.0120783,615,1156,-5.33655,-0.944872
-602,-132,-5.35602,0.983521,-0.00387971,-0.00118312,-0.00266063,0.00045135,-0.00551417,-1.01992,0.00383543,0.00974322,622,1156,-5.35604,-0.983503
-595,-132,-5.34241,1.07007,-0.0049487,-0.00155239,-0.00340435,0.000553838,-0.00705492,-1.01675,0.00489834,0.0099493,629,1156,-5.34243,-1.07001
-588,-132,-5.29443,1.14734,-0.00576262,-0.0017674,-0.00394878,0.000660298,-0.00819032,-1.01957,0.00569309,0.0145284,636,1156,-5.29441,-1.14736
-581,-132,-5.42273,1.08008,-0.00606371,-0.00185293,-0.00423716,0.000773088,-0.00868972,-1.01598,0.00606728,0.0338518,643,1156,-5.42275,-1.08002
-574,-132,-5.62036,0.804321,-0.0057559,-0.00188583,-0.00436081,0.000949989,-0.00859172,-0.994214,0.00606931,0.0422715,650,1156,-5.62037,-0.804372
-567,-132,-5.76129,0.595825,-0.0052635,-0.00171107,-0.00435872,0.00121946,-0.00819402,-0.978879,0.00591124,0.0385466,657,1156,-5.76127,-0.595836
-560,-132,-5.8031,0.640503,-0.00432093,-0.00137343,-0.00411256,0.00152146,-0.00721583,-0.957447,0.00538977,0.0348802,664,1156,-5.80311,-0.640552
-553,-132,-5.81165,0.684448,-0.00276246,-0.000874612,-0.00364121,0.00194304,-0.00558011,-0.912223,0.00450951,0.0375887,671,1156,-5.81168,-0.684486
-546,-132,-5.68585,0.505981,-0.000518059,-0.000252546,-0.00296672,0.00258438,-0.00335499,-0.807758,0.0034387,0.0419071,678,1156,-5.68588,-0.505979
-539,-132,-5.53827,0.456665,0.00250275,0.000448114,-0.00211809,0.00382951,-0.000878645,-0.559601,0.00289075,0.0429518,685,1156,-5.53825,-0.456612
-532,-132,-5.6593,0.551147,0.00632091,0.00113588,-0.00125583,0.00660906,0.000847724,-0.225548,0.00415241,0.0398301,692,1156,-5.65931,-0.551102
-525,-132,-5.74005,0.547729,0.00994184,0.00140827,-0.00119303,0.0101055,0.00124462,-0.136323,0.00636283,0.0398391,699,1156,-5.74008,-0.547702
-518,-132,0,0,0,0,0,0,0,0,0,-1,706,1156,0,0
-511,-132,0,0,0,0,0,0,0,0,0,-1,713,1156,0,0
-504,-132,0,0,0,0,0,0,0,0,0,-1,720,1156,0,0
-497,-132,0,0,0,0,0,0,0,0,0,-1,727,1156,0,0
-490,-132,0,0,0,0,0,0,0,0,0,-1,734,1156,0,0
-483,-132,0,0,0,0,0,0,0,0,0,-1,741,1156,0,0
-476,-132,0,0,0,0,0,0,0,0,0,-1,748,1156,0,0
-469,-132,0,0,0,0,0,0,0,0,0,-1,755,1156,0,0
-462,-132,0,0,0,0,0,0,0,0,0,-1,762,1156,0,0
-455,-132,0,0,0,0,0,0,0,0,0,-1,769,1156,0,0
-448,-132,0,0,0,0,0,0,0,0,0,-1,776,1156,0,0
-441,-132,0,0,0,0,0,0,0,0,0,-1,783,1156,0,0
-434,-132,0,0,0,0,0,0,0,0,0,-1,790,1156,0,0
-427,-132,0,0,0,0,0,0,0,0,0,-1,797,1156,0,0
-420,-132,0,0,0,0,0,0,0,0,0,-1,804,1156,0,0
-413,-132,0,0,0,0,0,0,0,0,0,-1,811,1156,0,0
-406,-132,0,0,0,0,0,0,0,0,0,-1,818,1156,0,0
-399,-132,0,0,0,0,0,0,0,0,0,-1,825,1156,0,0
-392,-132,0,0,0,0,0,0,0,0,0,-1,832,1156,0,0
-385,-132,0,0,0,0,0,0,0,0,0,-1,839,1156,0,0
-378,-132,0,0,0,0,0,0,0,0,0,-1,846,1156,0,0
-371,-132,0,0,0,0,0,0,0,0,0,-1,853,1156,0,0
-364,-132,0,0,0,0,0,0,0,0,0,-1,860,1156,0,0
-357,-132,0,0,0,0,0,0,0,0,0,-1,867,1156,0,0
-350,-132,0,0,0,0,0,0,0,0,0,-1,874,1156,0,0
-343,-132,0,0,0,0,0,0,0,0,0,-1,881,1156,0,0
-336,-132,0,0,0,0,0,0,0,0,0,-1,888,1156,0,0
-329,-132,0,0,0,0,0,0,0,0,0,-1,895,1156,0,0
-322,-132,0,0,0,0,0,0,0,0,0,-1,902,1156,0,0
-315,-132,0,0,0,0,0,0,0,0,0,-1,909,1156,0,0
-308,-132,0,0,0,0,0,0,0,0,0,-1,916,1156,0,0
-301,-132,0,0,0,0,0,0,0,0,0,-1,923,1156,0,0
-294,-132,0,0,0,0,0,0,0,0,0,-1,930,1156,0,0
-287,-132,0,0,0,0,0,0,0,0,0,-1,937,1156,0,0
-280,-132,0,0,0,0,0,0,0,0,0,-1,944,1156,0,0
-273,-132,0,0,0,0,0,0,0,0,0,-1,951,1156,0,0
-266,-132,0,0,0,0,0,0,0,0,0,-1,958,1156,0,0
-259,-132,0,0,0,0,0,0,0,0,0,-1,965,1156,0,0
-252,-132,0,0,0,0,0,0,0,0,0,-1,972,1156,0,0
-245,-132,0,0,0,0,0,0,0,0,0,-1,979,1156,0,0
-238,-132,0,0,0,0,0,0,0,0,0,-1,986,1156,0,0
-231,-132,0,0,0,0,0,0,0,0,0,-1,993,1156,0,0
-224,-132,0,0,0,0,0,0,0,0,0,-1,1000,1156,0,0
-217,-132,0,0,0,0,0,0,0,0,0,-1,1007,1156,0,0
-210,-132,0,0,0,0,0,0,0,0,0,-1,1014,1156,0,0
-203,-132,0,0,0,0,0,0,0,0,0,-1,1021,1156,0,0
-196,-132,0,0,0,0,0,0,0,0,0,-1,1028,1156,0,0
-189,-132,0,0,0,0,0,0,0,0,0,-1,1035,1156,0,0
-182,-132,0,0,0,0,0,0,0,0,0,-1,1042,1156,0,0
-175,-132,0,0,0,0,0,0,0,0,0,-1,1049,1156,0,0
-168,-132,0,0,0,0,0,0,0,0,0,-1,1056,1156,0,0
-161,-132,0,0,0,0,0,0,0,0,0,-1,1063,1156,0,0
-154,-132,0,0,0,0,0,0,0,0,0,-1,1070,1156,0,0
-147,-132,0,0,0,0,0,0,0,0,0,-1,1077,1156,0,0
-140,-132,0,0,0,0,0,0,0,0,0,-1,1084,1156,0,0
-133,-132,0,0,0,0,0,0,0,0,0,-1,1091,1156,0,0
-126,-132,0,0,0,0,0,0,0,0,0,-1,1098,1156,0,0
-119,-132,0,0,0,0,0,0,0,0,0,-1,1105,1156,0,0
-112,-132,0,0,0,0,0,0,0,0,0,-1,1112,1156,0,0
-105,-132,0,0,0,0,0,0,0,0,0,-1,1119,1156,0,0
-98,-132,0,0,0,0,0,0,0,0,0,-1,1126,1156,0,0
-91,-132,0,0,0,0,0,0,0,0,0,-1,1133,1156,0,0
-84,-132,0,0,0,0,0,0,0,0,0,-1,1140,1156,0,0
-77,-132,0,0,0,0,0,0,0,0,0,-1,1147,1156,0,0
-70,-132,0,0,0,0,0,0,0,0,0,-1,1154,1156,0,0
-63,-132,0,0,0,0,0,0,0,0,0,-1,1161,1156,0,0
-56,-132,0,0,0,0,0,0,0,0,0,-1,1168,1156,0,0
-49,-132,0,0,0,0,0,0,0,0,0,-1,1175,1156,0,0
-42,-132,0,0,0,0,0,0,0,0,0,-1,1182,1156,0,0
-35,-132,0,0,0,0,0,0,0,0,0,-1,1189,1156,0,0
-28,-132,0,0,0,0,0,0,0,0,0,-1,1196,1156,0,0
-21,-132,0,0,0,0,0,0,0,0,0,-1,1203,1156,0,0
-14,-132,0,0,0,0,0,0,0,0,0,-1,1210,1156,0,0
-7,-132,0,0,0,0,0,0,0,0,0,-1,1217,1156,0,0
0,-132,0,0,0,0,0,0,0,0,0,-1,1224,1156,0,0
7,-132,0,0,0,0,0,0,0,0,0,-1,1231,1156,0,0
14,-132,0,0,0,0,0,0,0,0,0,-1,1238,1156,0,0
21,-132,0,0,0,0,0,0,0,0,0,-1,1245,1156,0,0
28,-132,0,0,0,0,0,0,0,0,0,-1,1252,1156,0,0
35,-132,0,0,0,0,0,0,0,0,0,-1,1259,1156,0,0
42,-132,0,0,0,0,0,0,0,0,0,-1,1266,1156,0,0
49,-132,0,0,0,0,0,0,0,0,0,-1,1273,1156,0,0
56,-132,0,0,0,0,0,0,0,0,0,-1,1280,1156,0,0
63,-132,0,0,0,0,0,0,0,0,0,-1,1287,1156,0,0
70,-132,0,0,0,0,0,0,0,0,0,-1,1294,1156,0,0
77,-132,0,0,0,0,0,0,0,0,0,-1,1301,1156,0,0
84,-132,0,0,0,0,0,0,0,0,0,-1,1308,1156,0,0
91,-132,0,0,0,0,0,0,0,0,0,-1,1315,1156,0,0
98,-132,0,0,0,0,0,0,0,0,0,-1,1322,1156,0,0
105,-132,0,0,0,0,0,0,0,0,0,-1,1329,1156,0,0
112,-132,0,0,0,0,0,0,0,0,0,-1,1336,1156,0,0
119,-132,0,0,0,0,0,0,0,0,0,-1,1343,1156,0,0
126,-132,0,0,0,0,0,0,0,0,0,-1,1350,1156,0,0
133,-132,0,0,0,0,0,0,0,0,0,-1,1357,1156,0,0
140,-132,0,0,0,0,0,0,0,0,0,-1,1364,1156,0,0
147,-132,0,0,0,0,0,0,0,0,0,-1,1371,1156,0,0
154,-132,0,0,0,0,0,0,0,0,0,-1,1378,1156,0,0
161,-132,0,0,0,0,0,0,0,0,0,-1,1385,1156,0,0
168,-132,0,0,0,0,0,0,0,0,0,-1,1392,1156,0,0
175,-132,0,0,0,0,0,0,0,0,0,-1,1399,1156,0,0
182,-132,0,0,0,0,0,0,0,0,0,-1,1406,1156,0,0
189,-132,0,0,0,0,0,0,0,0,0,-1,1413,1156,0,0
196,-132,0,0,0,0,0,0,0,0,0,-1,1420,1156,0,0
203,-132,0,0,0,0,0,0,0,0,0,-1,1427,1156,0,0
210,-132,0,0,0,0,0,0,0,0,0,-1,1434,1156,0,0
217,-132,0,0,0,0,0,0,0,0,0,-1,1441,1156,0,0
224,-132,0,0,0,0,0,0,0,0,0,-1,1448,1156,0,0
231,-132,0,0,0,0,0,0,0,0,0,-1,1455,1156,0,0
238,-132,0,0,0,0,0,0,0,0,0,-1,1462,1156,0,0
245,-132,0,0,0,0,0,0,0,0,0,-1,1469,1156,0,0
252,-132,0,0,0,0,0,0,0,0,0,-1,1476,1156,0,0
259,-132,0,0,0,0,0,0,0,0,0,-1,1483,1156,0,0
266,-132,0,0,0,0,0,0,0,0,0,-1,1490,1156,0,0
273,-132,0,0,0,0,0,0,0,0,0,-1,1497,1156,0,0
280,-132,0,0,0,0,0,0,0,0,0,-1,1504,1156,0,0
287,-132,0,0,0,0,0,0,0,0,0,-1,1511,1156,0,0
294,-132,0,0,0,0,0,0,0,0,0,-1,1518,1156,0,0
301,-132,0,0,0,0,0,0,0,0,0,-1,1525,1156,0,0
308,-132,0,0,0,0,0,0,0,0,0,-1,1532,1156,0,0
315,-132,0,0,0,0,0,0,0,0,0,-1,1539,1156,0,0
322,-132,0,0,0,0,0,0,0,0,0,-1,1546,1156,0,0
329,-132,0,0,0,0,0,0,0,0,0,-1,1553,1156,0,0
336,-132,0,0,0,0,0,0,0,0,0,-1,1560,1156,0,0
343,-132,0,0,0,0,0,0,0,0,0,-1,1567,1156,0,0
350,-132,0,0,0,0,0,0,0,0,0,-1,1574,1156,0,0
357,-132,0,0,0,0,0,0,0,0,0,-1,1581,1156,0,0
364,-132,0,0,0,0,0,0,0,0,0,-1,1588,1156,0,0
371,-132,0,0,0,0,0,0,0,0,0,-1,1595,1156,0,0
378,-132,0,0,0,0,0,0,0,0,0,-1,1602,1156,0,0
385,-132,0,0,0,0,0,0,0,0,0,-1,1609,1156,0,0
392,-132,0,0,0,0,0,0,0,0,0,-1,1616,1156,0,0
399,-132,0,0,0,0,0,0,0,0,0,-1,1623,1156,0,0
406,-132,0,0,0,0,0,0,0,0,0,-1,1630,1156,0,0
413,-132,0,0,0,0,0,0,0,0,0,-1,1637,1156,0,0
420,-132,0,0,0,0,0,0,0,0,0,-1,1644,1156,0,0
427,-132,0,0,0,0,0,0,0,0,0,-1,1651,1156,0,0
434,-132,0,0,0,0,0,0,0,0,0,-1,1658,1156,0,0
441,-132,0,0,0,0,0,0,0,0,0,-1,1665,1156,0,0
448,-132,0,0,0,0,0,0,0,0,0,-1,1672,1156,0,0
455,-132,0,0,0,0,0,0,0,0,0,-1,1679,1156,0,0
462,-132,0,0,0,0,0,0,0,0,0,-1,1686,1156,0,0
469,-132,0,0,0,0,0,0,0,0,0,-1,1693,1156,0,0
476,-132,0,0,0,0,0,0,0,0,0,-1,1700,1156,0,0
483,-132,0,0,0,0,0,0,0,0,0,-1,1707,1156,0,0
490,-132,0,0,0,0,0,0,0,0,0,-1,1714,1156,0,0
497,-132,0,0,0,0,0,0,0,0,0,-1,1721,1156,0,0
504,-132,0,0,0,0,0,0,0,0,0,-1,1728,1156,0,0
511,-132,0,0,0,0,0,0,0,0,0,-1,1735,1156,0,0
518,-132,0,0,0,0,0,0,0,0,0,-1,1742,1156,0,0
525,-132,0,0,0,0,0,0,0,0,0,-1,1749,1156,0,0
532,-132,0,0,0,0,0,0,0,0,0,-1,1756,1156,0,0
539,-132,0,0,0,0,0,0,0,0,0,-1,1763,1156,0,0
546,-132,0,0,0,0,0,0,0,0,0,-1,1770,1156,0,0
553,-132,0,0,0,0,0,0,0,0,0,-1,1777,1156,0,0
560,-132,0,0,0,0,0,0,0,0,0,-1,1784,1156,0,0
567,-132,0,0,0,0,0,0,0,0,0,-1,1791,1156,0,0
574,-132,0,0,0,0,0,0,0,0,0,-1,1798,1156,0,0
581,-132,0,0,0,0,0,0,0,0,0,-1,1805,1156,0,0
588,-132,0,0,0,0,0,0,0,0,0,-1,1812,1156,0,0
595,-132,0,0,0,0,0,0,0,0,0,-1,1819,1156,0,0
602,-132,0,0,0,0,0,0,0,0,0,-1,1826,1156,0,0
609,-132,0,0,0,0,0,0,0,0,0,-1,1833,1156,0,0
616,-132,0,0,0,0,0,0,0,0,0,-1,1840,1156,0,0
623,-132,0,0,0,0,0,0,0,0,0,-1,1847,1156,0,0
630,-132,0,0,0,0,0,0,0,0,0,-1,1854,1156,0,0
637,-132,0,0,0,0,0,0,0,0,0,-1,1861,1156,0,0
644,-132,11.8994,1.72339,-0.00403171,-0.00663443,-0.000957764,-0.00371726,-0.00694888,-0.317232,0.0040152,0.0425026,1868,1156,11.8994,-1.72333
651,-132,11.8156,1.67969,-0.00288174,-0.00520619,-0.000581221,-0.00274451,-0.00534342,-0.231861,0.0030854,0.0405591,1875,1156,11.8156,-1.67973
658,-132,11.7273,1.71448,-0.00201321,-0.0041822,-0.000172675,-0.00199955,-0.00419586,-0.078948,0.00242337,0.040115,1882,1156,11.7272,-1.71445
665,-132,11.6293,1.79822,-0.00199645,-0.00358844,0.000538827,-0.00183122,-0.00375367,0.297533,0.00216739,0.0408,1889,1156,11.6293,-1.79826
672,-132,11.6958,1.73706,-0.00255283,-0.00323109,0.00133313,-0.00151637,-0.00426755,0.660846,0.00249802,0.0382534,1896,1156,11.6958,-1.73709
679,-132,11.735,1.79468,-0.00326589,-0.00301637,0.00200735,-0.00112991,-0.00515235,0.816433,0.00312706,0.0382078,1903,1156,11.735,-1.79467
686,-132,11.7606,1.84204,-0.00396095,-0.00290627,0.00253971,-0.000839729,-0.00602749,0.887762,0.00376972,0.0360749,1910,1156,11.7606,-1.8421
693,-132,11.7032,1.75635,-0.00454733,-0.00270445,0.00287017,-0.000611442,-0.00664034,0.940721,0.00423781,0.029368,1917,1156,11.7033,-1.75635
700,-132,11.7805,1.77856,-0.00490082,-0.0026354,0.00322588,-0.000349141,-0.00718708,0.954239,0.00467935,0.0318432,1924,1156,11.7805,-1.77851
707,-132,11.5842,1.97815,0,0,0,0,0,0,0,-1,1931,1156,11.5842,-1.97811
714,-132,11.3197,2.25781,-0.00530971,-0.00213769,0.00342628,5.18621e-05,-0.00749926,1.00216,0.00501688,0.0267043,1938,1156,11.3197,-2.25776
721,-132,11.1691,2.37793,-0.00523756,-0.00188954,0.00314963,3.31062e-06,-0.00713041,1.02966,0.00475471,0.0213619,1945,1156,11.169,-2.37794
728,-132,11.1533,2.30994,-0.00482664,-0.0015366,0.00276822,3.84953e-05,-0.00640173,1.05349,0.00428071,0.0123702,1952,1156,11.1533,-2.30992
735,-132,11.152,2.26306,-0.00431049,-0.00111242,0.00210917,-6.46596e-05,-0.00535825,1.10974,0.00355081,0.0142737,1959,1156,11.152,-2.26307
742,-132,11.1775,2.21521,-0.00448102,4.86203e-05,0.000822263,0.000193266,-0.00462566,1.39667,0.00315017,0.0195432,1966,1156,11.1774,-2.21518
749,-132,11.2124,2.16943,-0.0055281,0.00129352,-0.00171737,0.00170148,-0.00593605,-1.33757,0.00462994,0.0238432,1973,1156,11.2124,-2.16944
756,-132,11.2113,2.14099,-0.00750357,0.00331373,-0.00543071,0.00556968,-0.00975952,-1.17708,0.00895983,0.0220034,1980,1156,11.2113,-2.14097
763,-132,11.1879,2.09143,-0.0102691,0.00250254,-0.00948223,0.00754875,-0.0153153,-1.08174,0.013452,0.0133029,1987,1156,11.1879,-2.09148
770,-132,11.1754,2.06079,-0.0140867,0.00272368,-0.0144234,0.0110122,-0.0223752,-1.04922,0.0196449,0.0127228,1994,1156,11.1754,-2.06076
777,-132,11.1699,1.96912,-0.0196189,0.00207767,-0.0205047,0.014427,-0.0319682,-1.02871,0.027417,0.0202839,2001,1156,11.17,-1.96906
784,-132,11.2152,1.86572,-0.0267846,0.00011224,-0.0280317,0.0177546,-0.044427,-1.00906,0.0369851,0.0421853,2008,1156,11.2153,-1.86573
791,-132,11.4495,1.9729,0,0,0,0,0,0,0,-1,2015,1156,11.4494,-1.9729
798,-132,10.521,1.87695,-0.045807,-0.011299,-0.0479705,0.0224261,-0.0795321,-0.958034,0.0618668,0.0448676,2022,1156,10.5211,-1.87689
805,-132,10.0543,1.72314,-0.057787,-0.0236923,-0.0604038,0.0220236,-0.103503,-0.922933,0.0773948,0.0457831,2029,1156,10.0543,-1.72313
812,-132,9.64014,1.88184,-0.0716341,-0.0442429,-0.0742803,0.0175938,-0.133471,-0.876563,0.0953875,0.0458713,2036,1156,9.64019,-1.88178
-700,-139,0,0,0,0,0,0,0,0,0,-1,524,1163,0,0
-693,-139,-7.21002,1.22461,0,0,0,0,0,0,0,-1,531,1163,-7.21,-1.22463
-686,-139,-6.86176,1.46143,0,0,0,0,0,0,0,-1,538,1163,-6.86175,-1.46141
-679,-139,-5.93573,1.21265,0,0,0,0,0,0,0,-1,545,1163,-5.93573,-1.21269
-672,-139,-5.44684,-0.824829,0,0,0,0,0,0,0,-1,552,1163,-5.44682,0.824864
-665,-139,-5.64459,0.238281,0,0,0,0,0,0,0,-1,559,1163,-5.64459,-0.238289
-658,-139,-5.55518,0.420166,0.0211251,-0.00103382,0.0069896,0.0231456,-0.00305432,0.281402,0.0165427,0.0443599,566,1163,-5.55516,-0.420132
-651,-139,-5.31866,0.515137,0.0172502,6.34429e-05,0.00586671,0.0190618,-0.0017482,0.299511,0.0133289,0.0398531,573,1163,-5.31864,-0.515114
-644,-139,-5.27136,0.659058,0.0136089,0.000617222,0.00471275,0.0151384,-0.000912272,0.313819,0.0104097,0.0207931,580,1163,-5.27138,-0.659091
-637,-139,-5.25818,0.723267,0.0101654,0.00101827,0.00367414,0.0114584,-0.000274748,0.338388,0.00773215,0.0118108,587,1163,-5.25818,-0.723252
-630,-139,-5.2536,0.772583,0.00669313,0.00111513,0.00234804,0.00754993,0.000258333,0.349884,0.00494942,0.0105989,594,1163,-5.25358,-0.772641
-623,-139,-5.2832,0.852295,0.00357453,0.000905487,0.000967214,0.00388818,0.000591843,0.313577,0.00241909,0.0162969,601,1163,-5.28322,-0.852306
-616,-139,-5.3078,0.88562,0.0012372,-0.000207434,-0.000435456,0.0013583,-0.000328541,-0.271261,0.00103262,0.0175774,608,1163,-5.30782,-0.885639
-609,-139,-5.27173,0.956543,-0.0014069,-0.000936353,-0.0016411,0.000486257,-0.00282951,-0.856594,0.00206757,0.0201334,615,1163,-5.27174,-0.956491
-602,-139,-5.29022,1.01123,-0.00393951,-0.00133845,-0.00267526,0.000335646,-0.00561361,-1.01164,0.00385916,0.0114405,622,1163,-5.29023,-1.0112
-595,-139,-5.28723,1.07043,-0.00507791,-0.00171506,-0.00348779,0.000475452,-0.00726842,-1.01001,0.00501162,0.00993023,629,1163,-5.28722,-1.07044
-588,-139,-5.2616,1.14636,-0.0059242,-0.00196653,-0.00407999,0.000589186,-0.00847991,-1.01119,0.00585955,0.0133927,636,1163,-5.26157,-1.1464
-581,-139,-5.27972,1.15503,-0.00625612,-0.00211234,-0.00439111,0.000671132,-0.00903959,-1.00583,0.0062621,0.0288347,643,1163,-5.27972,-1.15501
-574,-139,-5.55426,0.986084,-0.00596706,-0.00219639,-0.00453199,0.000826775,-0.00899023,-0.982513,0.00628722,0.040782,650,1163,-5.55427,-0.986079
-567,-139,-5.85358,0.790161,-0.00547813,-0.00207391,-0.00455983,0.00109114,-0.00864318,-0.964031,0.00615814,0.0416069,657,1163,-5.8536,-0.790144
-560,-139,-5.83612,0.714722,-0.00456927,-0.00181084,-0.00428689,0.00131324,-0.00769335,-0.941034,0.00561804,0.0352907,664,1163,-5.8361,-0.714661
-553,-139,-5.8255,0.6875,-0.00302905,-0.00134922,-0.0037556,0.00165925,-0.00603751,-0.89541,0.00467724,0.0378383,671,1163,-5.8255,-0.687552
-546,-139,-5.68671,0.362793,-0.000797744,-0.000734367,-0.00295628,0.00219039,-0.00372251,-0.790757,0.0034518,0.0418198,678,1163,-5.6867,-0.362772
-539,-139,-5.72095,0.526123,0.00218984,-3.97646e-06,-0.0019013,0.00328796,-0.00110209,-0.523758,0.00263725,0.041601,685,1163,-5.72095,-0.526154
-532,-139,-5.78027,0.605591,0.00597964,0.000768314,-0.000674873,0.00606562,0.000682336,-0.126717,0.00383658,0.0391754,692,1163,-5.78029,-0.605621
-525,-139,-5.66272,0.547119,0.00964875,0.00124623,5.52395e-05,0.00964911,0.00124586,0.00657378,0.00606029,0.0389267,699,1163,-5.66271,-0.547148
-518,-139,0,0,0,0,0,0,0,0,0,-1,706,1163,0,0
-511,-139,0,0,0,0,0,0,0,0,0,-1,713,1163,0,0
-504,-139,0,0,0,0,0,0,0,0,0,-1,720,1163,0,0
-497,-139,0,0,0,0,0,0,0,0,0,-1,727,1163,0,0
-490,-139,0,0,0,0,0,0,0,0,0,-1,734,1163,0,0
-483,-139,0,0,0,0,0,0,0,0,0,-1,741,1163,0,0
-476,-139,0,0,0,0,0,0,0,0,0,-1,748,1163,0,0
-469,-139,0,0,0,0,0,0,0,0,0,-1,755,1163,0,0
-462,-139,0,0,0,0,0,0,0,0,0,-1,762,1163,0,0
-455,-139,0,0,0,0,0,0,0,0,0,-1,769,1163,0,0
-448,-139,0,0,0,0,0,0,0,0,0,-1,776,1163,0,0
-441,-139,0,0,0,0,0,0,0,0,0,-1,783,1163,0,0
-434,-139,0,0,0,0,0,0,0,0,0,-1,790,1163,0,0
-427,-139,0,0,0,0,0,0,0,0,0,-1,797,1163,0,0
-420,-139,0,0,0,0,0,0,0,0,0,-1,804,1163,0,0
-413,-139,0,0,0,0,0,0,0,0,0,-1,811,1163,0,0
-406,-139,0,0,0,0,0,0,0,0,0,-1,818,1163,0,0
-399,-139,0,0,0,0,0,0,0,0,0,-1,825,1163,0,0
-392,-139,0,0,0,0,0,0,0,0,0,-1,832,1163,0,0
-385,-139,0,0,0,0,0,0,0,0,0,-1,839,1163,0,0
-378,-139,0,0,0,0,0,0,0,0,0,-1,846,1163,0,0
-371,-139,0,0,0,0,0,0,0,0,0,-1,853,1163,0,0
-364,-139,0,0,0,0,0,0,0,0,0,-1,860,1163,0,0
-357,-139,0,0,0,0,0,0,0,0,0,-1,867,1163,0,0
-350,-139,0,0,0,0,0,0,0,0,0,-1,874,1163,0,0
-343,-139,0,0,0,0,0,0,0,0,0,-1,881,1163,0,0
-336,-139,0,0,0,0,0,0,0,0,0,-1,888,1163,0,0
-329,-139,0,0,0,0,0,0,0,0,0,-1,895,1163,0,0
-322,-139,0,0,0,0,0,0,0,0,0,-1,902,1163,0,0
-315,-139,0,0,0,0,0,0,0,0,0,-1,909,1163,0,0
-308,-139,0,0,0,0,0,0,0,0,0,-1,916,1163,0,0
-301,-139,0,0,0,0,0,0,0,0,0,-1,923,1163,0,0
-294,-139,0,0,0,0,0,0,0,0,0,-1,930,1163,0,0
-287,-139,0,0,0,0,0,0,0,0,0,-1,937,1163,0,0
-280,-139,0,0,0,0,0,0,0,0,0,-1,944,1163,0,0
-273,-139,0,0,0,0,0,0,0,0,0,-1,951,1163,0,0
-266,-139,0,0,0,0,0,0,0,0,0,-1,958,1163,0,0
-259,-139,0,0,0,0,0,0,0,0,0,-1,965,1163,0,0
-252,-139,0,0,0,0,0,0,0,0,0,-1,972,1163,0,0
-245,-139,0,0,0,0,0,0,0,0,0,-1,979,1163,0,0
-238,-139,0,0,0,0,0,0,0,0,0,-1,986,1163,0,0
-231,-139,0,0,0,0,0,0,0,0,0,-1,993,1163,0,0
-224,-139,0,0,0,0,0,0,0,0,0,-1,1000,1163,0,0
-217,-139,0,0,0,0,0,0,0,0,0,-1,1007,1163,0,0
-210,-139,0,0,0,0,0,0,0,0,0,-1,1014,1163,0,0
-203,-139,0,0,0,0,0,0,0,0,0,-1,1021,1163,0,0
-196,-139,0,0,0,0,0,0,0,0,0,-1,1028,1163,0,0
-189,-139,0,0,0,0,0,0,0,0,0,-1,1035,1163,0,0
-182,-139,0,0,0,0,0,0,0,0,0,-1,1042,1163,0,0
-175,-139,0,0,0,0,0,0,0,0,0,-1,1049,1163,0,0
-168,-139,0,0,0,0,0,0,0,0,0,-1,1056,1163,0,0
-161,-139,0,0,0,0,0,0,0,0,0,-1,1063,1163,0,0
-154,-139,0,0,0,0,0,0,0,0,0,-1,1070,1163,0,0
-147,-139,0,0,0,0,0,0,0,0,0,-1,1077,1163,0,0
-140,-139,0,0,0,0,0,0,0,0,0,-1,1084,1163,0,0
-133,-139,0,0,0,0,0,0,0,0,0,-1,1091,1163,0,0
-126,-139,0,0,0,0,0,0,0,0,0,-1,1098,1163,0,0
-119,-139,0,0,0,0,0,0,0,0,0,-1,1105,1163,0,0
-112,-139,0,0,0,0,0,0,0,0,0,-1,1112,1163,0,0
-105,-139,0,0,0,0,0,0,0,0,0,-1,1119,1163,0,0
-98,-139,0,0,0,0,0,0,0,0,0,-1,1126,1163,0,0
-91,-139,0,0,0,0,0,0,0,0,0,-1,1133,1163,0,0
-84,-139,0,0,0,0,0,0,0,0,0,-1,1140,1163,0,0
-77,-139,0,0,0,0,0,0,0,0,0,-1,1147,1163,0,0
-70,-139,0,0,0,0,0,0,0,0,0,-1,1154,1163,0,0
-63,-139,0,0,0,0,0,0,0,0,0,-1,1161,1163,0,0
-56,-139,0,0,0,0,0,0,0,0,0,-1,1168,1163,0,0
-49,-139,0,0,0,0,0,0,0,0,0,-1,1175,1163,0,0
-42,-139,0,0,0,0,0,0,0,0,0,-1,1182,1163,0,0
-35,-139,0,0,0,0,0,0,0,0,0,-1,1189,1163,0,0
-28,-139,0,0,0,0,0,0,0,0,0,-1,1196,1163,0,0
-21,-139,0,0,0,0,0,0,0,0,0,-1,1203,1163,0,0
-14,-139,0,0,0,0,0,0,0,0,0,-1,1210,1163,0,0
-7,-139,0,0,0,0,0,0,0,0,0,-1,1217,1163,0,0
0,-139,0,0,0,0,0,0,0,0,0,-1,1224,1163,0,0
7,-139,0,0,0,0,0,0,0,0,0,-1,1231,1163,0,0
14,-139,0,0,0,0,0,0,0,0,0,-1,1238,1163,0,0
21,-139,0,0,0,0,0,0,0,0,0,-1,1245,1163,0,0
28,-139,0,0,0,0,0,0,0,0,0,-1,1252,1163,0,0
35,-139,0,0,0,0,0,0,0,0,0,-1,1259,1163,0,0
42,-139,0,0,0,0,0,0,0,0,0,-1,1266,1163,0,0
49,-139,0,0,0,0,0,0,0,0,0,-1,1273,1163,0,0
56,-139,0,0,0,0,0,0,0,0,0,-1,1280,1163,0,0
63,-139,0,0,0,0,0,0,0,0,0,-1,1287,1163,0,0
70,-139,0,0,0,0,0,0,0,0,0,-1,1294,1163,0,0
77,-139,0,0,0,0,0,0,0,0,0,-1,1301,1163,0,0
84,-139,0,0,0,0,0,0,0,0,0,-1,1308,1163,0,0
91,-139,0,0,0,0,0,0,0,0,0,-1,1315,1163,0,0
98,-139,0,0,0,0,0,0,0,0,0,-1,1322,1163,0,0
105,-139,0,0,0,0,0,0,0,0,0,-1,1329,1163,0,0
112,-139,0,0,0,0,0,0,0,0,0,-1,1336,1163,0,0
119,-139,0,0,0,0,0,0,0,0,0,-1,1343,1163,0,0
126,-139,0,0,0,0,0,0,0,0,0,-1,1350,1163,0,0
133,-139,0,0,0,0,0,0,0,0,0,-1,1357,1163,0,0
140,-139,0,0,0,0,0,0,0,0,0,-1,1364,1163,0,0
147,-139,0,0,0,0,0,0,0,0,0,-1,1371,1163,0,0
154,-139,0,0,0,0,0,0,0,0,0,-1,1378,1163,0,0
161,-139,0,0,0,0,0,0,0,0,0,-1,1385,1163,0,0
168,-139,0,0,0,0,0,0,0,0,0,-1,1392,1163,0,0
175,-139,0,0,0,0,0,0,0,0,0,-1,1399,1163,0,0
182,-139,0,0,0,0,0,0,0,0,0,-1,1406,1163,0,0
189,-139,0,0,0,0,0,0,0,0,0,-1,1413,1163,0,0
196,-139,0,0,0,0,0,0,0,0,0,-1,1420,1163,0,0
203,-139,0,0,0,0,0,0,0,0,0,-1,1427,1163,0,0
210,-139,0,0,0,0,0,0,0,0,0,-1,1434,1163,0,0
217,-139,0,0,0,0,0,0,0,0,0,-1,1441,1163,0,0
224,-139,0,0,0,0,0,0,0,0,0,-1,1448,1163,0,0
231,-139,0,0,0,0,0,0,0,0,0,-1,1455,1163,0,0
238,-139,0,0,0,0,0,0,0,0,0,-1,1462,1163,0,0
245,-139,0,0,0,0,0,0,0,0,0,-1,1469,1163,0,0
252,-139,0,0,0,0,0,0,0,0,0,-1,1476,1163,0,0
259,-139,0,0,0,0,0,0,0,0,0,-1,1483,1163,0,0
266,-139,0,0,0,0,0,0,0,0,0,-1,1490,1163,0,0
273,-139,0,0,0,0,0,0,0,0,0,-1,1497,1163,0,0
280,-139,0,0,0,0,0,0,0,0,0,-1,1504,1163,0,0
287,-139,0,0,0,0,0,0,0,0,0,-1,1511,1163,0,0
294,-139,0,0,0,0,0,0,0,0,0,-1,1518,1163,0,0
301,-139,0,0,0,0,0,0,0,0,0,-1,1525,1163,0,0
308,-139,0,0,0,0,0,0,0,0,0,-1,1532,1163,0,0
315,-139,0,0,0,0,0,0,0,0,0,-1,1539,1163,0,0
322,-139,0,0,0,0,0,0,0,0,0,-1,1546,1163,0,0
329,-139,0,0,0,0,0,0,0,0,0,-1,1553,1163,0,0
336,-139,0,0,0,0,0,0,0,0,0,-1,1560,1163,0,0
343,-139,0,0,0,0,0,0,0,0,0,-1,1567,1163,0,0
350,-139,0,0,0,0,0,0,0,0,0,-1,1574,1163,0,0
357,-139,0,0,0,0,0,0,0,0,0,-1,1581,1163,0,0
364,-139,0,0,0,0,0,0,0,0,0,-1,1588,1163,0,0
371,-139,0,0,0,0,0,0,0,0,0,-1,1595,1163,0,0
378,-139,0,0,0,0,0,0,0,0,0,-1,1602,1163,0,0
385,-139,0,0,0,0,0,0,0,0,0,-1,1609,1163,0,0
392,-139,0,0,0,0,0,0,0,0,0,-1,1616,1163,0,0
399,-139,0,0,0,0,0,0,0,0,0,-1,1623,1163,0,0
406,-139,0,0,0,0,0,0,0,0,0,-1,1630,1163,0,0
413,-139,0,0,0,0,0,0,0,0,0,-1,1637,1163,0,0
420,-139,0,0,0,0,0,0,0,0,0,-1,1644,1163,0,0
427,-139,0,0,0,0,0,0,0,0,0,-1,1651,1163,0,0
434,-139,0,0,0,0,0,0,0,0,0,-1,1658,1163,0,0
441,-139,0,0,0,0,0,0,0,0,0,-1,1665,1163,0,0
448,-139,0,0,0,0,0,0,0,0,0,-1,1672,1163,0,0
455,-139,0,0,0,0,0,0,0,0,0,-1,1679,1163,0,0
462,-139,0,0,0,0,0,0,0,0,0,-1,1686,1163,0,0
469,-139,0,0,0,0,0,0,0,0,0,-1,1693,1163,0,0
476,-139,0,0,0,0,0,0,0,0,0,-1,1700,1163,0,0
483,-139,0,0,0,0,0,0,0,0,0,-1,1707,1163,0,0
490,-139,0,0,0,0,0,0,0,0,0,-1,1714,1163,0,0
497,-139,0,0,0,0,0,0,0,0,0,-1,1721,1163,0,0
504,-139,0,0,0,0,0,0,0,0,0,-1,1728,1163,0,0
511,-139,0,0,0,0,0,0,0,0,0,-1,1735,1163,0,0
518,-139,0,0,0,0,0,0,0,0,0,-1,1742,1163,0,0
525,-139,0,0,0,0,0,0,0,0,0,-1,1749,1163,0,0
532,-139,0,0,0,0,0,0,0,0,0,-1,1756,1163,0,0
539,-139,0,0,0,0,0,0,0,0,0,-1,1763,1163,0,0
546,-139,0,0,0,0,0,0,0,0,0,-1,1770,1163,0,0
553,-139,0,0,0,0,0,0,0,0,0,-1,1777,1163,0,0
560,-139,0,0,0,0,0,0,0,0,0,-1,1784,1163,0,0
567,-139,0,0,0,0,0,0,0,0,0,-1,1791,1163,0,0
574,-139,0,0,0,0,0,0,0,0,0,-1,1798,1163,0,0
581,-139,0,0,0,0,0,0,0,0,0,-1,1805,1163,0,0
588,-139,0,0,0,0,0,0,0,0,0,-1,1812,1163,0,0
595,-139,0,0,0,0,0,0,0,0,0,-1,1819,1163,0,0
602,-139,0,0,0,0,0,0,0,0,0,-1,1826,1163,0,0
609,-139,0,0,0,0,0,0,0,0,0,-1,1833,1163,0,0
616,-139,0,0,0,0,0,0,0,0,0,-1,1840,1163,0,0
623,-139,0,0,0,0,0,0,0,0,0,-1,1847,1163,0,0
630,-139,0,0,0,0,0,0,0,0,0,-1,1854,1163,0,0
637,-139,0,0,0,0,0,0,0,0,0,-1,1861,1163,0,0
644,-139,11.7766,1.73669,-0.00400217,-0.0066609,0.000219936,-0.0039841,-0.00667897,0.0819794,0.00387998,0.0408487,1868,1163,11.7766,-1.73674
651,-139,11.7976,1.67957,-0.00272204,-0.00501189,9.8582e-05,-0.00271781,-0.00501612,0.0429459,0.00289943,0.0407199,1875,1163,11.7976,-1.67957
658,-139,11.8972,1.65186,-0.0018776,-0.00383563,0.000174806,-0.00186211,-0.00385111,0.0883453,0.00222384,0.0426229,1882,1163,11.8973,-1.65183
665,-139,11.7914,1.77832,-0.00192694,-0.00315268,0.000652266,-0.00164479,-0.00343483,0.408265,0.00198369,0.0414491,1889,1163,11.7914,-1.7783
672,-139,11.7302,1.85278,-0.00248922,-0.00273892,0.00124879,-0.00135906,-0.00386909,0.735576,0.00226652,0.0388994,1896,1163,11.7302,-1.85283
679,-139,11.7415,1.72449,-0.0031979,-0.002513,0.00179439,-0.00102867,-0.00468222,0.879687,0.00284136,0.0353536,1903,1163,11.7414,-1.72449
686,-139,11.7418,1.7843,-0.0038738,-0.00243294,0.00223513,-0.000805003,-0.00550174,0.941302,0.00343112,0.0320102,1910,1163,11.7419,-1.78424
693,-139,11.7212,1.76172,-0.00444366,-0.00225588,0.00251296,-0.000609047,-0.0060905,0.990679,0.00387331,0.0202804,1917,1163,11.7212,-1.76176
700,-139,11.7394,1.87073,0,0,0,0,0,0,0,-1,1924,1163,11.7394,-1.87077
707,-139,11.4618,2.11707,-0.00503317,-0.0021547,0.00303362,-0.00023622,-0.00695165,1.00689,0.00455774,0.0240329,1931,1163,11.4618,-2.11704
714,-139,11.1974,2.39673,-0.0051972,-0.00183392,0.00303324,-4.73503e-05,-0.00698377,1.03851,0.00464014,0.0231724,1938,1163,11.1974,-2.39677
721,-139,11.1224,2.35083,-0.00511289,-0.00163823,0.00281318,-6.91554e-05,-0.00668196,1.06202,0.00443177,0.0179763,1945,1163,11.1224,-2.35086
728,-139,11.1147,2.3053,-0.00465616,-0.00131713,0.0024758,-5.29923e-07,-0.00597276,1.08204,0.00398166,0.0191648,1952,1163,11.1147,-2.30529
735,-139,11.1185,2.25513,-0.00407112,-0.000911262,0.00187731,-3.75307e-05,-0.00494486,1.1352,0.00328413,0.0155363,1959,1163,11.1186,-2.25514
742,-139,11.1383,2.18054,-0.00395285,0.000189189,0.000664257,0.000293109,-0.00405677,1.41561,0.00280732,0.020978,1966,1163,11.1383,-2.18054
749,-139,11.1295,2.1366,-0.00466616,0.00122232,-0.00180744,0.00173284,-0.00517668,-1.29551,0.0041511,0.0185885,1973,1163,11.1295,-2.13663
756,-139,11.1052,2.10974,-0.006094,0.00278251,-0.00553533,0.00543918,-0.00875067,-1.12332,0.00826654,0.0106583,1980,1163,11.1052,-2.10976
763,-139,11.1136,2.07361,-0.00822184,0.0015989,-0.00958637,0.00745934,-0.0140823,-1.02209,0.0126315,0.0101469,1987,1163,11.1137,-2.0736
770,-139,11.1184,2.03613,-0.0113512,0.00117544,-0.0145432,0.0107467,-0.0209225,-0.988729,0.0185962,0.0112526,1994,1163,11.1185,-2.03615
777,-139,11.0978,1.95325,-0.0159799,-0.000383757,-0.0207775,0.0140108,-0.0303745,-0.964921,0.0261999,0.0217419,2001,1163,11.0978,-1.95325
784,-139,11.2576,2.01477,-0.0220069,-0.00363376,-0.0286165,0.0172346,-0.0428753,-0.940714,0.0357414,0.0402847,2008,1163,11.2576,-2.01479
791,-139,11.3837,1.85144,-0.0293962,-0.00947621,-0.0382275,0.0200675,-0.0589399,-0.912837,0.0474197,0.0470724,2015,1163,11.3837,-1.8515
798,-139,10.8165,1.43457,-0.0381402,-0.0191742,-0.0497319,0.0219707,-0.0792852,-0.879608,0.0615027,0.0451004,2022,1163,10.8165,-1.43459
805,-139,10.4601,1.07153,0,0,0,0,0,0,0,-1,2029,1163,10.4601,-1.07158
812,-139,0,0,0,0,0,0,0,0,0,-1,2036,1163,0,0
-700,-146,0,0,0,0,0,0,0,0,0,-1,524,1170,0,0
-693,-146,-7.22906,1.1825,0,0,0,0,0,0,0,-1,531,1170,-7.22906,-1.18248
-686,-146,-6.33203,-2.41223,0,0,0,0,0,0,0,-1,538,1170,-6.33204,2.41228
-679,-146,-5.73254,-0.901367,0,0,0,0,0,0,0,-1,545,1170,-5.73254,0.901327
-672,-146,-5.83234,-0.282349,0.0280816,-0.0100377,0.0110343,0.0310452,-0.0130013,0.262393,0.0261319,0.0438555,552,1170,-5.83235,0.282301
-665,-146,-5.82092,0.296997,0.0250094,-0.00648192,0.00935948,0.0275811,-0.00905362,0.268152,0.0220343,0.043899,559,1170,-5.8209,-0.296997
-658,-146,-5.64728,0.4823,0.0214747,-0.00402387,0.00769167,0.0236152,-0.00616438,0.271422,0.0181506,0.0431927,566,1170,-5.64731,-0.482316
-651,-146,-5.2879,0.469727,0.0177631,-0.00236447,0.00611066,0.019473,-0.00407438,0.272846,0.0145318,0.0367805,573,1170,-5.28791,-0.469773
-644,-146,-5.19403,0.607788,0.0141494,-0.00128811,0.00468436,0.0154596,-0.00259833,0.272732,0.0112728,0.0196167,580,1170,-5.194,-0.607743
-637,-146,-5.18451,0.704224,0.0107011,-0.000464402,0.0035222,0.0117193,-0.00148264,0.281419,0.00835107,0.0107998,587,1170,-5.18449,-0.70426
-630,-146,-5.18951,0.770996,0.00722959,5.42065e-05,0.00213582,0.00781721,-0.000533415,0.268485,0.00539807,0.0106545,594,1170,-5.18951,-0.770967
-623,-146,-5.22064,0.84314,0.00407574,0.00031299,0.000601812,0.00416965,0.00021908,0.154796,0.0027097,0.0132001,601,1170,-5.22064,-0.84315
-616,-146,-5.27319,0.918091,0.00163528,-0.000625896,-0.000679309,0.00182367,-0.00081428,-0.27052,0.00155974,0.018779,608,1170,-5.27319,-0.918122
-609,-146,-5.22571,0.984741,-0.00118466,-0.00118519,-0.00173985,0.000554929,-0.00292478,-0.785321,0.00215874,0.0175412,615,1170,-5.22571,-0.984787
-602,-146,-5.22992,1.04089,-0.00393641,-0.00146589,-0.00269382,0.000262383,-0.00566468,-1.00037,0.00386688,0.0175825,622,1170,-5.22992,-1.04094
-595,-146,-5.25275,1.06433,-0.00509363,-0.00187245,-0.00349042,0.000361053,-0.00732714,-1.00156,0.00500945,0.0104681,629,1170,-5.25275,-1.0643
-588,-146,-5.23407,1.14856,-0.00595684,-0.0021951,-0.00407239,0.000409791,-0.00856173,-1.00173,0.0058492,0.0121071,636,1170,-5.23408,-1.1486
-581,-146,-5.18994,1.24878,-0.00631823,-0.00245111,-0.00436175,0.000386445,-0.00915578,-0.994032,0.00623666,0.0229976,643,1170,-5.18994,-1.24882
-574,-146,-5.51801,0.971069,-0.00605622,-0.00263559,-0.0044835,0.000452741,-0.00914454,-0.967613,0.00625274,0.0376575,650,1170,-5.51803,-0.971071
-567,-146,-5.87463,0.760132,0,0,0,0,0,0,0,-1,657,1170,-5.87464,-0.760135
-560,-146,-5.85004,0.8125,-0.00478684,-0.00255427,-0.00421176,0.00068662,-0.00802773,-0.91494,0.00559476,0.0400074,664,1170,-5.85006,-0.812475
-553,-146,-5.83228,0.862549,-0.00334011,-0.0022403,-0.00363824,0.000889352,-0.00646977,-0.860403,0.00463814,0.0369805,671,1170,-5.83227,-0.862608
-546,-146,-5.79498,0.794678,-0.00122699,-0.00175857,-0.00275923,0.00127922,-0.00426478,-0.737382,0.00335197,0.0394747,678,1170,-5.79498,-0.794654
-539,-146,-5.88324,0.670654,0.00158986,-0.0011372,-0.00157566,0.00231006,-0.0018574,-0.428724,0.00241081,0.0420836,685,1170,-5.88327,-0.670643
-532,-146,-5.82886,0.672974,0.00516536,-0.000435056,-0.000122849,0.00516805,-0.00043775,-0.0219217,0.00360016,0.0397404,692,1170,-5.82886,-0.673005
-525,-146,-5.67328,0.679443,0.00867668,9.28158e-05,0.00107172,0.00880846,-3.89698e-05,0.122351,0.00588534,0.0426779,699,1170,-5.67328,-0.679421
-518,-146,0,0,0,0,0,0,0,0,0,-1,706,1170,0,0
-511,-146,0,0,0,0,0,0,0,0,0,-1,713,1170,0,0
-504,-146,0,0,0,0,0,0,0,0,0,-1,720,1170,0,0
-497,-146,0,0,0,0,0,0,0,0,0,-1,727,1170,0,0
-490,-146,0,0,0,0,0,0,0,0,0,-1,734,1170,0,0
-483,-146,0,0,0,0,0,0,0,0,0,-1,741,1170,0,0
-476,-146,0,0,0,0,0,0,0,0,0,-1,748,1170,0,0
-469,-146,0,0,0,0,0,0,0,0,0,-1,755,1170,0,0
-462,-146,0,0,0,0,0,0,0,0,0,-1,762,1170,0,0
-455,-146,0,0,0,0,0,0,0,0,0,-1,769,1170,0,0
-448,-146,0,0,0,0,0,0,0,0,0,-1,776,1170,0,0
-441,-146,0,0,0,0,0,0,0,0,0,-1,783,1170,0,0
-434,-146,0,0,0,0,0,0,0,0,0,-1,790,1170,0,0
-427,-146,0,0,0,0,0,0,0,0,0,-1,797,1170,0,0
-420,-146,0,0,0,0,0,0,0,0,0,-1,804,1170,0,0
-413,-146,0,0,0,0,0,0,0,0,0,-1,811,1170,0,0
-406,-146,0,0,0,0,0,0,0,0,0,-1,818,1170,0,0
-399,-146,0,0,0,0,0,0,0,0,0,-1,825,1170,0,0
-392,-146,0,0,0,0,0,0,0,0,0,-1,832,1170,0,0
-385,-146,0,0,0,0,0,0,0,0,0,-1,839,1170,0,0
-378,-146,0,0,0,0,0,0,0,0,0,-1,846,1170,0,0
-371,-146,0,0,0,0,0,0,0,0,0,-1,853,1170,0,0
-364,-146,0,0,0,0,0,0,0,0,0,-1,860,1170,0,0
-357,-146,0,0,0,0,0,0,0,0,0,-1,867,1170,0,0
-350,-146,0,0,0,0,0,0,0,0,0,-1,874,1170,0,0
-343,-146,0,0,0,0,0,0,0,0,0,-1,881,1170,0,0
-336,-146,0,0,0,0,0,0,0,0,0,-1,888,1170,0,0
-329,-146,0,0,0,0,0,0,0,0,0,-1,895,1170,0,0
-322,-146,0,0,0,0,0,0,0,0,0,-1,902,1170,0,0
-315,-146,0,0,0,0,0,0,0,0,0,-1,909,1170,0,0
-308,-146,0,0,0,0,0,0,0,0,0,-1,916,1170,0,0
-301,-146,0,0,0,0,0,0,0,0,0,-1,923,1170,0,0
-294,-146,0,0,0,0,0,0,0,0,0,-1,930,1170,0,0
-287,-146,0,0,0,0,0,0,0,0,0,-1,937,1170,0,0
-280,-146,0,0,0,0,0,0,0,0,0,-1,944,1170,0,0
-273,-146,0,0,0,0,0,0,0,0,0,-1,951,1170,0,0
-266,-146,0,0,0,0,0,0,0,0,0,-1,958,1170,0,0
-259,-146,0,0,0,0,0,0,0,0,0,-1,965,1170,0,0
-252,-146,0,0,0,0,0,0,0,0,0,-1,972,1170,0,0
-245,-146,0,0,0,0,0,0,0,0,0,-1,979,1170,0,0
-238,-146,0,0,0,0,0,0,0,0,0,-1,986,1170,0,0
-231,-146,0,0,0,0,0,0,0,0,0,-1,993,1170,0,0
-224,-146,0,0,0,0,0,0,0,0,0,-1,1000,1170,0,0
-217,-146,0,0,0,0,0,0,0,0,0,-1,1007,1170,0,0
-210,-146,0,0,0,0,0,0,0,0,0,-1,1014,1170,0,0
-203,-146,0,0,0,0,0,0,0,0,0,-1,1021,1170,0,0
-196,-146,0,0,0,0,0,0,0,0,0,-1,1028,1170,0,0
-189,-146,0,0,0,0,0,0,0,0,0,-1,1035,1170,0,0
-182,-146,0,0,0,0,0,0,0,0,0,-1,1042,1170,0,0
-175,-146,0,0,0,0,0,0,0,0,0,-1,1049,1170,0,0
-168,-146,0,0,0,0,0,0,0,0,0,-1,1056,1170,0,0
-161,-146,0,0,0,0,0,0,0,0,0,-1,1063,1170,0,0
-154,-146,0,0,0,0,0,0,0,0,0,-1,1070,1170,0,0
-147,-146,0,0,0,0,0,0,0,0,0,-1,1077,1170,0,0
-140,-146,0,0,0,0,0,0,0,0,0,-1,1084,1170,0,0
-133,-146,0,0,0,0,0,0,0,0,0,-1,1091,1170,0,0
-126,-146,0,0,0,0,0,0,0,0,0,-1,1098,1170,0,0
-119,-146,0,0,0,0,0,0,0,0,0,-1,1105,1170,0,0
-112,-146,0,0,0,0,0,0,0,0,0,-1,1112,1170,0,0
-105,-146,0,0,0,0,0,0,0,0,0,-1,1119,1170,0,0
-98,-146,0,0,0,0,0,0,0,0,0,-1,1126,1170,0,0
-91,-146,0,0,0,0,0,0,0,0,0,-1,1133,1170,0,0
-84,-146,0,0,0,0,0,0,0,0,0,-1,1140,1170,0,0
-77,-146,0,0,0,0,0,0,0,0,0,-1,1147,1170,0,0
-70,-146,0,0,0,0,0,0,0,0,0,-1,1154,1170,0,0
-63,-146,0,0,0,0,0,0,0,0,0,-1,1161,1170,0,0
-56,-146,0,0,0,0,0,0,0,0,0,-1,1168,1170,0,0
-49,-146,0,0,0,0,0,0,0,0,0,-1,1175,1170,0,0
-42,-146,0,0,0,0,0,0,0,0,0,-1,1182,1170,0,0
-35,-146,0,0,0,0,0,0,0,0,0,-1,1189,1170,0,0
-28,-146,0,0,0,0,0,0,0,0,0,-1,1196,1170,0,0
-21,-146,0,0,0,0,0,0,0,0,0,-1,1203,1170,0,0
-14,-146,0,0,0,0,0,0,0,0,0,-1,1210,1170,0,0
-7,-146,0,0,0,0,0,0,0,0,0,-1,1217,1170,0,0
0,-146,0,0,0,0,0,0,0,0,0,-1,1224,1170,0,0
7,-146,0,0,0,0,0,0,0,0,0,-1,1231,1170,0,0
14,-146,0,0,0,0,0,0,0,0,0,-1,1238,1170,0,0
21,-146,0,0,0,0,0,0,0,0,0,-1,1245,1170,0,0
28,-146,0,0,0,0,0,0,0,0,0,-1,1252,1170,0,0
35,-146,0,0,0,0,0,0,0,0,0,-1,1259,1170,0,0
42,-146,0,0,0,0,0,0,0,0,0,-1,1266,1170,0,0
49,-146,0,0,0,0,0,0,0,0,0,-1,1273,1170,0,0
56,-146,0,0,0,0,0,0,0,0,0,-1,1280,1170,0,0
63,-146,0,0,0,0,0,0,0,0,0,-1,1287,1170,0,0
70,-146,0,0,0,0,0,0,0,0,0,-1,1294,1170,0,0
77,-146,0,0,0,0,0,0,0,0,0,-1,1301,1170,0,0
84,-146,0,0,0,0,0,0,0,0,0,-1,1308,1170,0,0
91,-146,0,0,0,0,0,0,0,0,0,-1,1315,1170,0,0
98,-146,0,0,0,0,0,0,0,0,0,-1,1322,1170,0,0
105,-146,0,0,0,0,0,0,0,0,0,-1,1329,1170,0,0
112,-146,0,0,0,0,0,0,0,0,0,-1,1336,1170,0,0
119,-146,0,0,0,0,0,0,0,0,0,-1,1343,1170,0,0
126,-146,0,0,0,0,0,0,0,0,0,-1,1350,1170,0,0
133,-146,0,0,0,0,0,0,0,0,0,-1,1357,1170,0,0
140,-146,0,0,0,0,0,0,0,0,0,-1,1364,1170,0,0
147,-146,0,0,0,0,0,0,0,0,0,-1,1371,1170,0,0
154,-146,0,0,0,0,0,0,0,0,0,-1,1378,1170,0,0
161,-146,0,0,0,0,0,0,0,0,0,-1,1385,1170,0,0
168,-146,0,0,0,0,0,0,0,0,0,-1,1392,1170,0,0
175,-146,0,0,0,0,0,0,0,0,0,-1,1399,1170,0,0
182,-146,0,0,0,0,0,0,0,0,0,-1,1406,1170,0,0
189,-146,0,0,0,0,0,0,0,0,0,-1,1413,1170,0,0
196,-146,0,0,0,0,0,0,0,0,0,-1,1420,1170,0,0
203,-146,0,0,0,0,0,0,0,0,0,-1,1427,1170,0,0
210,-146,0,0,0,0,0,0,0,0,0,-1,1434,1170,0,0
217,-146,0,0,0,0,0,0,0,0,0,-1,1441,1170,0,0
224,-146,0,0,0,0,0,0,0,0,0,-1,1448,1170,0,0
231,-146,0,0,0,0,0,0,0,0,0,-1,1455,1170,0,0
238,-146,0,0,0,0,0,0,0,0,0,-1,1462,1170,0,0
245,-146,0,0,0,0,0,0,0,0,0,-1,1469,1170,0,0
252,-146,0,0,0,0,0,0,0,0,0,-1,1476,1170,0,0
259,-146,0,0,0,0,0,0,0,0,0,-1,1483,1170,0,0
266,-146,0,0,0,0,0,0,0,0,0,-1,1490,1170,0,0
273,-146,0,0,0,0,0,0,0,0,0,-1,1497,1170,0,0
280,-146,0,0,0,0,0,0,0,0,0,-1,1504,1170,0,0
287,-146,0,0,0,0,0,0,0,0,0,-1,1511,1170,0,0
294,-146,0,0,0,0,0,0,0,0,0,-1,1518,1170,0,0
301,-146,0,0,0,0,0,0,0,0,0,-1,1525,1170,0,0
308,-146,0,0,0,0,0,0,0,0,0,-1,1532,1170,0,0
315,-146,0,0,0,0,0,0,0,0,0,-1,1539,1170,0,0
322,-146,0,0,0,0,0,0,0,0,0,-1,1546,1170,0,0
329,-146,0,0,0,0,0,0,0,0,0,-1,1553,1170,0,0
336,-146,0,0,0,0,0,0,0,0,0,-1,1560,1170,0,0
343,-146,0,0,0,0,0,0,0,0,0,-1,1567,1170,0,0
350,-146,0,0,0,0,0,0,0,0,0,-1,1574,1170,0,0
357,-146,0,0,0,0,0,0,0,0,0,-1,1581,1170,0,0
364,-146,0,0,0,0,0,0,0,0,0,-1,1588,1170,0,0
371,-146,0,0,0,0,0,0,0,0,0,-1,1595,1170,0,0
378,-146,0,0,0,0,0,0,0,0,0,-1,1602,1170,0,0
385,-146,0,0,0,0,0,0,0,0,0,-1,1609,1170,0,0
392,-146,0,0,0,0,0,0,0,0,0,-1,1616,1170,0,0
399,-146,0,0,0,0,0,0,0,0,0,-1,1623,1170,0,0
406,-146,0,0,0,0,0,0,0,0,0,-1,1630,1170,0,0
413,-146,0,0,0,0,0,0,0,0,0,-1,1637,1170,0,0
420,-146,0,0,0,0,0,0,0,0,0,-1,1644,1170,0,0
427,-146,0,0,0,0,0,0,0,0,0,-1,1651,1170,0,0
434,-146,0,0,0,0,0,0,0,0,0,-1,1658,1170,0,0
441,-146,0,0,0,0,0,0,0,0,0,-1,1665,1170,0,0
448,-146,0,0,0,0,0,0,0,0,0,-1,1672,1170,0,0
455,-146,0,0,0,0,0,0,0,0,0,-1,1679,1170,0,0
462,-146,0,0,0,0,0,0,0,0,0,-1,1686,1170,0,0
469,-146,0,0,0,0,0,0,0,0,0,-1,1693,1170,0,0
476,-146,0,0,0,0,0,0,0,0,0,-1,1700,1170,0,0
483,-146,0,0,0,0,0,0,0,0,0,-1,1707,1170,0,0
490,-146,0,0,0,0,0,0,0,0,0,-1,1714,1170,0,0
497,-146,0,0,0,0,0,0,0,0,0,-1,1721,1170,0,0
504,-146,0,0,0,0,0,0,0,0,0,-1,1728,1170,0,0
511,-146,0,0,0,0,0,0,0,0,0,-1,1735,1170,0,0
518,-146,0,0,0,0,0,0,0,0,0,-1,1742,1170,0,0
525,-146,0,0,0,0,0,0,0,0,0,-1,1749,1170,0,0
532,-146,0,0,0,0,0,0,0,0,0,-1,1756,1170,0,0
539,-146,0,0,0,0,0,0,0,0,0,-1,1763,1170,0,0
546,-146,0,0,0,0,0,0,0,0,0,-1,1770,1170,0,0
553,-146,0,0,0,0,0,0,0,0,0,-1,1777,1170,0,0
560,-146,0,0,0,0,0,0,0,0,0,-1,1784,1170,0,0
567,-146,0,0,0,0,0,0,0,0,0,-1,1791,1170,0,0
574,-146,0,0,0,0,0,0,0,0,0,-1,1798,1170,0,0
581,-146,0,0,0,0,0,0,0,0,0,-1,1805,1170,0,0
588,-146,0,0,0,0,0,0,0,0,0,-1,1812,1170,0,0
595,-146,0,0,0,0,0,0,0,0,0,-1,1819,1170,0,0
602,-146,0,0,0,0,0,0,0,0,0,-1,1826,1170,0,0
609,-146,0,0,0,0,0,0,0,0,0,-1,1833,1170,0,0
616,-146,0,0,0,0,0,0,0,0,0,-1,1840,1170,0,0
623,-146,0,0,0,0,0,0,0,0,0,-1,1847,1170,0,0
630,-146,0,0,0,0,0,0,0,0,0,-1,1854,1170,0,0
637,-146,11.8269,1.5199,-0.00491177,-0.00772985,0.00197028,-0.00389854,-0.00874308,0.474988,0.00505766,0.0381485,1861,1170,11.8269,-1.51994
644,-146,11.7135,1.78174,-0.00363877,-0.0061965,0.00117906,-0.00317819,-0.00665708,0.372408,0.00384477,0.0372335,1868,1170,11.7135,-1.78172
651,-146,11.7255,1.81384,-0.00237691,-0.00442257,0.000589974,-0.00221896,-0.00458052,0.261595,0.00264499,0.0345415,1875,1170,11.7255,-1.81381
658,-146,11.7665,1.75684,-0.0017003,-0.00322324,0.000377817,-0.00161172,-0.00331182,0.230287,0.00191231,0.0395315,1882,1170,11.7665,-1.75685
665,-146,11.7622,1.78149,-0.00187987,-0.00255202,0.000647335,-0.00148657,-0.00294532,0.545967,0.00170051,0.0428963,1889,1170,11.7622,-1.78151
672,-146,11.7195,1.87817,-0.00248068,-0.00216696,0.00107933,-0.00123315,-0.00341449,0.857557,0.00199653,0.0389442,1896,1170,11.7194,-1.87819
679,-146,11.765,1.70129,-0.00320039,-0.0019906,0.00153146,-0.000948909,-0.00424208,0.973484,0.00257081,0.0304476,1903,1170,11.765,-1.70127
686,-146,11.6932,1.71204,-0.00385653,-0.00197134,0.00190631,-0.000787314,-0.00504056,1.015,0.0031311,0.0221802,1910,1170,11.6932,-1.71209
693,-146,11.7582,1.72705,-0.00440292,-0.00184087,0.00215969,-0.00061086,-0.00563293,1.05308,0.00356913,0.0140794,1917,1170,11.7581,-1.72707
700,-146,11.7236,2.02271,0,0,0,0,0,0,0,-1,1924,1170,11.7236,-2.02274
707,-146,11.4017,2.23035,-0.0049664,-0.00184696,0.00265135,-0.000330588,-0.00648278,1.05127,0.00421598,0.0293821,1931,1170,11.4018,-2.23037
714,-146,11.1566,2.40417,-0.00510853,-0.00160469,0.00267133,-0.000162042,-0.00655117,1.07563,0.00431445,0.0200095,1938,1170,11.1566,-2.40417
721,-146,11.1061,2.37146,-0.00499727,-0.00144868,0.00251038,-0.000148867,-0.00629709,1.09303,0.00414932,0.0241742,1945,1170,11.106,-2.3715
728,-146,11.1178,2.30908,-0.00449016,-0.00112792,0.00221621,-2.73541e-05,-0.00559072,1.10988,0.00371806,0.0187898,1952,1170,11.1178,-2.30909
735,-146,11.0856,2.27612,-0.00384159,-0.000694432,0.0016768,3.15099e-05,-0.00456753,1.16222,0.00305558,0.0162564,1959,1170,11.0856,-2.27607
742,-146,11.0898,2.18079,-0.00350923,0.000368292,0.000560791,0.000447768,-0.00358871,1.43001,0.00255484,0.0158165,1966,1170,11.0898,-2.18084
749,-146,11.0675,2.14075,-0.00389887,0.00123812,-0.00178317,0.00179642,-0.00445717,-1.26737,0.00371785,0.0147158,1973,1170,11.0675,-2.14079
756,-146,11.0535,2.09863,-0.00488552,0.00248986,-0.00537592,0.00532134,-0.007717,-1.08602,0.00756993,0.0109967,1980,1170,11.0535,-2.09858
763,-146,11.0541,2.04834,-0.00654025,0.00119843,-0.00921032,0.00731918,-0.012661,-0.984259,0.0116722,0.00964434,1987,1170,11.054,-2.04832
770,-146,11.0665,2.00964,-0.00911564,0.000429024,-0.0139527,0.010403,-0.0190896,-0.95018,0.017272,0.0106893,1994,1170,11.0666,-2.00966
777,-146,11.0569,1.93201,-0.0129774,-0.00160548,-0.0200385,0.0135381,-0.028121,-0.923641,0.0245382,0.0196005,2001,1170,11.0569,-1.93204
784,-146,11.1653,1.92139,-0.0180181,-0.00553114,-0.0277993,0.0167172,-0.0402664,-0.895861,0.033823,0.0397825,2008,1170,11.1653,-1.92133
791,-146,11.3438,1.82556,-0.0242133,-0.0123059,-0.0374185,0.0196295,-0.0561488,-0.864292,0.0454126,0.0455665,2015,1170,11.3437,-1.82555
798,-146,11.1356,1.3855,-0.0315254,-0.0232521,-0.0490707,0.021856,-0.0766335,-0.827448,0.0597226,0.0417455,2022,1170,11.1356,-1.38549
805,-146,10.9004,0.881714,-0.0401014,-0.0403553,-0.0628078,0.0225796,-0.103036,-0.784387,0.0773242,0.0455535,2029,1170,10.9004,-0.881681
812,-146,0,0,0,0,0,0,0,0,0,-1,2036,1170,0,0
-700,-153,0,0,0,0,0,0,0,0,0,-1,524,1177,0,0
-693,-153,0,0,0,0,0,0,0,0,0,-1,531,1177,0,0
-686,-153,-6.43811,-2.21118,0,0,0,0,0,0,0,-1,538,1177,-6.43809,2.21114
-679,-153,-6.45959,-1.11292,0.0223315,-0.0157199,0.0126758,0.0261674,-0.0195558,0.293855,0.0264902,0.0474599,545,1177,-6.45961,1.11288
-672,-153,-6.29028,-0.00964355,0.0224854,-0.010708,0.0103269,0.0254359,-0.0136585,0.278301,0.02291,0.044864,552,1177,-6.29029,0.00959403
-665,-153,-6.23621,0.632202,0.0211138,-0.00718068,0.00825174,0.0233445,-0.00941134,0.264016,0.0194735,0.0442092,559,1177,-6.23622,-0.632172
-658,-153,-5.55762,0.122559,0,0,0,0,0,0,0,-1,566,1177,-5.55764,-0.122552
-651,-153,-5.29425,0.212891,0.0160533,-0.00300827,0.00488128,0.0172306,-0.00418555,0.236663,0.013107,0.0434867,573,1177,-5.29423,-0.212915
-644,-153,-5.10358,0.558105,0.0130918,-0.00185741,0.00357957,0.0139047,-0.00267032,0.223312,0.0102762,0.0271959,580,1177,-5.10358,-0.558057
-637,-153,-5.11707,0.696045,0.0101156,-0.000971841,0.00258368,0.0106881,-0.00154435,0.218063,0.00769203,0.0111839,587,1177,-5.11707,-0.696018
-630,-153,-5.13037,0.761597,0.00701706,-0.000335195,0.00136797,0.00726334,-0.000581472,0.178123,0.00504723,0.0096761,594,1177,-5.13037,-0.761645
-623,-153,-5.13794,0.836182,0.00420992,8.53779e-05,-4.67269e-05,0.00421045,8.48488e-05,-0.0113271,0.00277911,0.00920494,601,1177,-5.13792,-0.836169
-616,-153,-5.14496,0.903442,0.0019229,-0.000829899,-0.00104603,0.00227527,-0.00118227,-0.324927,0.00202919,0.0122094,608,1177,-5.14499,-0.903424
-609,-153,-5.13293,0.963989,-0.000958703,-0.00136712,-0.00190586,0.000753853,-0.00307968,-0.732028,0.00234514,0.0174686,615,1177,-5.13294,-0.963941
-602,-153,-5.15234,1.02979,-0.00390251,-0.00161753,-0.0027689,0.000235323,-0.00575536,-0.981065,0.00391771,0.0193942,622,1177,-5.15234,-1.02974
-595,-153,-5.17633,1.07751,-0.00507502,-0.00209822,-0.00353765,0.000251388,-0.00742463,-0.984523,0.00503564,0.0145804,629,1177,-5.1763,-1.07753
-588,-153,-5.18042,1.15869,-0.00596607,-0.00250634,-0.0041173,0.000229732,-0.00870214,-0.984274,0.0058795,0.0104705,636,1177,-5.18041,-1.15875
-581,-153,-5.18463,1.24561,-0.00637325,-0.00287253,-0.004413,0.000124567,-0.00937035,-0.9742,0.00628883,0.0189123,643,1177,-5.18462,-1.24566
-574,-153,-5.50183,1.11658,-0.00616284,-0.00315232,-0.00453789,0.00012345,-0.00943861,-0.945542,0.00633396,0.0385276,650,1177,-5.50185,-1.1166
-567,-153,-5.82477,0.859497,-0.00575471,-0.0032707,-0.00458508,0.000237611,-0.00926302,-0.917664,0.00625605,0.0453283,657,1177,-5.82479,-0.85951
-560,-153,-5.87341,0.816772,-0.00505832,-0.0033085,-0.00428636,0.00019133,-0.00855815,-0.886073,0.00577027,0.0415785,664,1177,-5.87343,-0.816766
-553,-153,-5.87317,1.03271,-0.0037165,-0.00309399,-0.00370982,0.000317608,-0.0071281,-0.82725,0.0048614,0.0366419,671,1177,-5.87315,-1.03273
-546,-153,-5.95355,1.00269,-0.00171662,-0.00266805,-0.00279513,0.000642989,-0.00502766,-0.701108,0.00358537,0.041007,678,1177,-5.95357,-1.00265
-539,-153,-6.05884,0.646118,0.000961889,-0.00203898,-0.00152893,0.00160363,-0.00268072,-0.397401,0.00249949,0.043447,685,1177,-6.05885,-0.646154
-532,-153,-6.10461,0.472656,0.004383,-0.00124097,9.19883e-05,0.0043845,-0.00124248,0.0163507,0.00341339,0.0444154,692,1177,-6.10459,-0.472686
-525,-153,-6.05902,0.66748,0.00785102,-0.000453146,0.00168211,0.00817881,-0.000780939,0.192458,0.00573062,0.0452664,699,1177,-6.05903,-0.667481
-518,-153,0,0,0,0,0,0,0,0,0,-1,706,1177,0,0
-511,-153,0,0,0,0,0,0,0,0,0,-1,713,1177,0,0
-504,-153,0,0,0,0,0,0,0,0,0,-1,720,1177,0,0
-497,-153,0,0,0,0,0,0,0,0,0,-1,727,1177,0,0
-490,-153,0,0,0,0,0,0,0,0,0,-1,734,1177,0,0
-483,-153,0,0,0,0,0,0,0,0,0,-1,741,1177,0,0
-476,-153,0,0,0,0,0,0,0,0,0,-1,748,1177,0,0
-469,-153,0,0,0,0,0,0,0,0,0,-1,755,1177,0,0
-462,-153,0,0,0,0,0,0,0,0,0,-1,762,1177,0,0
-455,-153,0,0,0,0,0,0,0,0,0,-1,769,1177,0,0
-448,-153,0,0,0,0,0,0,0,0,0,-1,776,1177,0,0
-441,-153,0,0,0,0,0,0,0,0,0,-1,783,1177,0,0
-434,-153,0,0,0,0,0,0,0,0,0,-1,790,1177,0,0
-427,-153,0,0,0,0,0,0,0,0,0,-1,797,1177,0,0
-420,-153,0,0,0,0,0,0,0,0,0,-1,804,1177,0,0
-413,-153,0,0,0,0,0,0,0,0,0,-1,811,1177,0,0
-406,-153,0,0,0,0,0,0,0,0,0,-1,818,1177,0,0
-399,-153,0,0,0,0,0,0,0,0,0,-1,825,1177,0,0
-392,-153,0,0,0,0,0,0,0,0,0,-1,832,1177,0,0
-385,-153,0,0,0,0,0,0,0,0,0,-1,839,1177,0,0
-378,-153,0,0,0,0,0,0,0,0,0,-1,846,1177,0,0
-371,-153,0,0,0,0,0,0,0,0,0,-1,853,1177,0,0
-364,-153,0,0,0,0,0,0,0,0,0,-1,860,1177,0,0
-357,-153,0,0,0,0,0,0,0,0,0,-1,867,1177,0,0
-350,-153,0,0,0,0,0,0,0,0,0,-1,874,1177,0,0
-343,-153,0,0,0,0,0,0,0,0,0,-1,881,1177,0,0
-336,-153,0,0,0,0,0,0,0,0,0,-1,888,1177,0,0
-329,-153,0,0,0,0,0,0,0,0,0,-1,895,1177,0,0
-322,-153,0,0,0,0,0,0,0,0,0,-1,902,1177,0,0
-315,-153,0,0,0,0,0,0,0,0,0,-1,909,1177,0,0
-308,-153,0,0,0,0,0,0,0,0,0,-1,916,1177,0,0
-301,-153,0,0,0,0,0,0,0,0,0,-1,923,1177,0,0
-294,-153,0,0,0,0,0,0,0,0,0,-1,930,1177,0,0
-287,-153,0,0,0,0,0,0,0,0,0,-1,937,1177,0,0
-280,-153,0,0,0,0,0,0,0,0,0,-1,944,1177,0,0
-273,-153,0,0,0,0,0,0,0,0,0,-1,951,1177,0,0
-266,-153,0,0,0,0,0,0,0,0,0,-1,958,1177,0,0
-259,-153,0,0,0,0,0,0,0,0,0,-1,965,1177,0,0
-252,-153,0,0,0,0,0,0,0,0,0,-1,972,1177,0,0
-245,-153,0,0,0,0,0,0,0,0,0,-1,979,1177,0,0
-238,-153,0,0,0,0,0,0,0,0,0,-1,986,1177,0,0
-231,-153,0,0,0,0,0,0,0,0,0,-1,993,1177,0,0
-224,-153,0,0,0,0,0,0,0,0,0,-1,1000,1177,0,0
-217,-153,0,0,0,0,0,0,0,0,0,-1,1007,1177,0,0
-210,-153,0,0,0,0,0,0,0,0,0,-1,1014,1177,0,0
-203,-153,0,0,0,0,0,0,0,0,0,-1,1021,1177,0,0
-196,-153,0,0,0,0,0,0,0,0,0,-1,1028,1177,0,0
-189,-153,0,0,0,0,0,0,0,0,0,-1,1035,1177,0,0
-182,-153,0,0,0,0,0,0,0,0,0,-1,1042,1177,0,0
-175,-153,0,0,0,0,0,0,0,0,0,-1,1049,1177,0,0
-168,-153,0,0,0,0,0,0,0,0,0,-1,1056,1177,0,0
-161,-153,0,0,0,0,0,0,0,0,0,-1,1063,1177,0,0
-154,-153,0,0,0,0,0,0,0,0,0,-1,1070,1177,0,0
-147,-153,0,0,0,0,0,0,0,0,0,-1,1077,1177,0,0
-140,-153,0,0,0,0,0,0,0,0,0,-1,1084,1177,0,0
-133,-153,0,0,0,0,0,0,0,0,0,-1,1091,1177,0,0
-126,-153,0,0,0,0,0,0,0,0,0,-1,1098,1177,0,0
-119,-153,0,0,0,0,0,0,0,0,0,-1,1105,1177,0,0
-112,-153,0,0,0,0,0,0,0,0,0,-1,1112,1177,0,0
-105,-153,0,0,0,0,0,0,0,0,0,-1,1119,1177,0,0
-98,-153,0,0,0,0,0,0,0,0,0,-1,1126,1177,0,0
-91,-153,0,0,0,0,0,0,0,0,0,-1,1133,1177,0,0
-84,-153,0,0,0,0,0,0,0,0,0,-1,1140,1177,0,0
-77,-153,0,0,0,0,0,0,0,0,0,-1,1147,1177,0,0
-70,-153,0,0,0,0,0,0,0,0,0,-1,1154,1177,0,0
-63,-153,0,0,0,0,0,0,0,0,0,-1,1161,1177,0,0
-56,-153,0,0,0,0,0,0,0,0,0,-1,1168,1177,0,0
-49,-153,0,0,0,0,0,0,0,0,0,-1,1175,1177,0,0
-42,-153,0,0,0,0,0,0,0,0,0,-1,1182,1177,0,0
-35,-153,0,0,0,0,0,0,0,0,0,-1,1189,1177,0,0
-28,-153,0,0,0,0,0,0,0,0,0,-1,1196,1177,0,0
-21,-153,0,0,0,0,0,0,0,0,0,-1,1203,1177,0,0
-14,-153,0,0,0,0,0,0,0,0,0,-1,1210,1177,0,0
-7,-153,0,0,0,0,0,0,0,0,0,-1,1217,1177,0,0
0,-153,0,0,0,0,0,0,0,0,0,-1,1224,1177,0,0
7,-153,0,0,0,0,0,0,0,0,0,-1,1231,1177,0,0
14,-153,0,0,0,0,0,0,0,0,0,-1,1238,1177,0,0
21,-153,0,0,0,0,0,0,0,0,0,-1,1245,1177,0,0
28,-153,0,0,0,0,0,0,0,0,0,-1,1252,1177,0,0
35,-153,0,0,0,0,0,0,0,0,0,-1,1259,1177,0,0
42,-153,0,0,0,0,0,0,0,0,0,-1,1266,1177,0,0
49,-153,0,0,0,0,0,0,0,0,0,-1,1273,1177,0,0
56,-153,0,0,0,0,0,0,0,0,0,-1,1280,1177,0,0
63,-153,0,0,0,0,0,0,0,0,0,-1,1287,1177,0,0
70,-153,0,0,0,0,0,0,0,0,0,-1,1294,1177,0,0
77,-153,0,0,0,0,0,0,0,0,0,-1,1301,1177,0,0
84,-153,0,0,0,0,0,0,0,0,0,-1,1308,1177,0,0
91,-153,0,0,0,0,0,0,0,0,0,-1,1315,1177,0,0
98,-153,0,0,0,0,0,0,0,0,0,-1,1322,1177,0,0
105,-153,0,0,0,0,0,0,0,0,0,-1,1329,1177,0,0
112,-153,0,0,0,0,0,0,0,0,0,-1,1336,1177,0,0
119,-153,0,0,0,0,0,0,0,0,0,-1,1343,1177,0,0
126,-153,0,0,0,0,0,0,0,0,0,-1,1350,1177,0,0
133,-153,0,0,0,0,0,0,0,0,0,-1,1357,1177,0,0
140,-153,0,0,0,0,0,0,0,0,0,-1,1364,1177,0,0
147,-153,0,0,0,0,0,0,0,0,0,-1,1371,1177,0,0
154,-153,0,0,0,0,0,0,0,0,0,-1,1378,1177,0,0
161,-153,0,0,0,0,0,0,0,0,0,-1,1385,1177,0,0
168,-153,0,0,0,0,0,0,0,0,0,-1,1392,1177,0,0
175,-153,0,0,0,0,0,0,0,0,0,-1,1399,1177,0,0
182,-153,0,0,0,0,0,0,0,0,0,-1,1406,1177,0,0
189,-153,0,0,0,0,0,0,0,0,0,-1,1413,1177,0,0
196,-153,0,0,0,0,0,0,0,0,0,-1,1420,1177,0,0
203,-153,0,0,0,0,0,0,0,0,0,-1,1427,1177,0,0
210,-153,0,0,0,0,0,0,0,0,0,-1,1434,1177,0,0
217,-153,0,0,0,0,0,0,0,0,0,-1,1441,1177,0,0
224,-153,0,0,0,0,0,0,0,0,0,-1,1448,1177,0,0
231,-153,0,0,0,0,0,0,0,0,0,-1,1455,1177,0,0
238,-153,0,0,0,0,0,0,0,0,0,-1,1462,1177,0,0
245,-153,0,0,0,0,0,0,0,0,0,-1,1469,1177,0,0
252,-153,0,0,0,0,0,0,0,0,0,-1,1476,1177,0,0
259,-153,0,0,0,0,0,0,0,0,0,-1,1483,1177,0,0
266,-153,0,0,0,0,0,0,0,0,0,-1,1490,1177,0,0
273,-153,0,0,0,0,0,0,0,0,0,-1,1497,1177,0,0
280,-153,0,0,0,0,0,0,0,0,0,-1,1504,1177,0,0
287,-153,0,0,0,0,0,0,0,0,0,-1,1511,1177,0,0
294,-153,0,0,0,0,0,0,0,0,0,-1,1518,1177,0,0
301,-153,0,0,0,0,0,0,0,0,0,-1,1525,1177,0,0
308,-153,0,0,0,0,0,0,0,0,0,-1,1532,1177,0,0
315,-153,0,0,0,0,0,0,0,0,0,-1,1539,1177,0,0
322,-153,0,0,0,0,0,0,0,0,0,-1,1546,1177,0,0
329,-153,0,0,0,0,0,0,0,0,0,-1,1553,1177,0,0
336,-153,0,0,0,0,0,0,0,0,0,-1,1560,1177,0,0
343,-153,0,0,0,0,0,0,0,0,0,-1,1567,1177,0,0
350,-153,0,0,0,0,0,0,0,0,0,-1,1574,1177,0,0
357,-153,0,0,0,0,0,0,0,0,0,-1,1581,1177,0,0
364,-153,0,0,0,0,0,0,0,0,0,-1,1588,1177,0,0
371,-153,0,0,0,0,0,0,0,0,0,-1,1595,1177,0,0
378,-153,0,0,0,0,0,0,0,0,0,-1,1602,1177,0,0
385,-153,0,0,0,0,0,0,0,0,0,-1,1609,1177,0,0
392,-153,0,0,0,0,0,0,0,0,0,-1,1616,1177,0,0
399,-153,0,0,0,0,0,0,0,0,0,-1,1623,1177,0,0
406,-153,0,0,0,0,0,0,0,0,0,-1,1630,1177,0,0
413,-153,0,0,0,0,0,0,0,0,0,-1,1637,1177,0,0
420,-153,0,0,0,0,0,0,0,0,0,-1,1644,1177,0,0
427,-153,0,0,0,0,0,0,0,0,0,-1,1651,1177,0,0
434,-153,0,0,0,0,0,0,0,0,0,-1,1658,1177,0,0
441,-153,0,0,0,0,0,0,0,0,0,-1,1665,1177,0,0
448,-153,0,0,0,0,0,0,0,0,0,-1,1672,1177,0,0
455,-153,0,0,0,0,0,0,0,0,0,-1,1679,1177,0,0
462,-153,0,0,0,0,0,0,0,0,0,-1,1686,1177,0,0
469,-153,0,0,0,0,0,0,0,0,0,-1,1693,1177,0,0
476,-153,0,0,0,0,0,0,0,0,0,-1,1700,1177,0,0
483,-153,0,0,0,0,0,0,0,0,0,-1,1707,1177,0,0
490,-153,0,0,0,0,0,0,0,0,0,-1,1714,1177,0,0
497,-153,0,0,0,0,0,0,0,0,0,-1,1721,1177,0,0
504,-153,0,0,0,0,0,0,0,0,0,-1,1728,1177,0,0
511,-153,0,0,0,0,0,0,0,0,0,-1,1735,1177,0,0
518,-153,0,0,0,0,0,0,0,0,0,-1,1742,1177,0,0
525,-153,0,0,0,0,0,0,0,0,0,-1,1749,1177,0,0
532,-153,0,0,0,0,0,0,0,0,0,-1,1756,1177,0,0
539,-153,0,0,0,0,0,0,0,0,0,-1,1763,1177,0,0
546,-153,0,0,0,0,0,0,0,0,0,-1,1770,1177,0,0
553,-153,0,0,0,0,0,0,0,0,0,-1,1777,1177,0,0
560,-153,0,0,0,0,0,0,0,0,0,-1,1784,1177,0,0
567,-153,0,0,0,0,0,0,0,0,0,-1,1791,1177,0,0
574,-153,0,0,0,0,0,0,0,0,0,-1,1798,1177,0,0
581,-153,0,0,0,0,0,0,0,0,0,-1,1805,1177,0,0
588,-153,0,0,0,0,0,0,0,0,0,-1,1812,1177,0,0
595,-153,0,0,0,0,0,0,0,0,0,-1,1819,1177,0,0
602,-153,0,0,0,0,0,0,0,0,0,-1,1826,1177,0,0
609,-153,0,0,0,0,0,0,0,0,0,-1,1833,1177,0,0
616,-153,0,0,0,0,0,0,0,0,0,-1,1840,1177,0,0
623,-153,0,0,0,0,0,0,0,0,0,-1,1847,1177,0,0
630,-153,0,0,0,0,0,0,0,0,0,-1,1854,1177,0,0
637,-153,11.7939,1.69519,-0.00419089,-0.00606735,0.00285453,-0.00212436,-0.00813388,0.626619,0.0048714,0.0390674,1861,1177,11.794,-1.69525
644,-153,11.7975,1.79126,-0.00295385,-0.00473219,0.00158002,-0.00202999,-0.00565606,0.529105,0.00330858,0.0362364,1868,1177,11.7975,-1.7913
651,-153,11.7109,1.73828,-0.00186324,-0.0032271,0.000708823,-0.00156157,-0.00352876,0.402367,0.00204181,0.0305222,1875,1177,11.711,-1.73827
658,-153,11.6719,1.77332,-0.0014631,-0.0023376,0.000363539,-0.00133171,-0.00246899,0.346804,0.00142694,0.0357133,1882,1177,11.6719,-1.77338
665,-153,11.6871,1.84021,-0.00181076,-0.00191092,0.000522492,-0.00133595,-0.00238573,0.737617,0.0013807,0.0394536,1889,1177,11.6871,-1.84024
672,-153,11.6755,1.75989,-0.00247341,-0.00171502,0.000864775,-0.00114996,-0.00303848,0.992019,0.00177145,0.0377498,1896,1177,11.6755,-1.75993
679,-153,11.6675,1.64917,-0.00321387,-0.00168402,0.00127182,-0.00096482,-0.00393307,1.05614,0.00236692,0.0295556,1903,1177,11.6675,-1.64911
686,-153,11.7085,1.7229,-0.00385495,-0.00177349,0.00160585,-0.000900624,-0.00472783,1.07291,0.00289869,0.018514,1910,1177,11.7085,-1.72292
693,-153,11.7905,1.69495,-0.0043727,-0.00171194,0.00185465,-0.000759859,-0.00532478,1.09653,0.00332563,0.0278093,1917,1177,11.7905,-1.695
700,-153,11.6973,2.17249,0,0,0,0,0,0,0,-1,1924,1177,11.6972,-2.17253
707,-153,11.3798,2.29077,-0.00488708,-0.0018042,0.00232731,-0.000554147,-0.00613713,1.07789,0.00391979,0.033783,1931,1177,11.3798,-2.29072
714,-153,11.1281,2.38416,-0.00500136,-0.00161972,0.00235628,-0.000410381,-0.0062107,1.09661,0.00401067,0.0196988,1938,1177,11.128,-2.38417
721,-153,11.1002,2.33093,-0.00485752,-0.00146717,0.00223299,-0.000358798,-0.00596589,1.11006,0.00386322,0.016013,1945,1177,11.1002,-2.33088
728,-153,11.0605,2.31079,-0.00428762,-0.00110405,0.00197249,-0.000161169,-0.00523049,1.12489,0.00343453,0.0200555,1952,1177,11.0606,-2.31079
735,-153,10.9922,2.28931,-0.00355961,-0.000571618,0.00147144,3.13271e-05,-0.00416255,1.1819,0.00278554,0.015886,1959,1177,10.9922,-2.28931
742,-153,11.0295,2.2041,-0.00298682,0.000483277,0.00043911,0.00053798,-0.00304153,1.44686,0.00222876,0.0142037,1966,1177,11.0296,-2.20406
749,-153,11.0374,2.13025,-0.00299293,0.00111675,-0.00181326,0.0018024,-0.00367858,-1.20928,0.00322565,0.0155875,1973,1177,11.0374,-2.13026
756,-153,11.0238,2.0979,-0.00350508,0.00176398,-0.00533605,0.00508043,-0.00682154,-1.01471,0.00689607,0.0108461,1980,1177,11.0238,-2.09793
763,-153,11.0173,2.05493,-0.00469536,0.000195456,-0.00902702,0.00710243,-0.0116023,-0.917673,0.0109029,0.010099,1987,1177,11.0174,-2.05494
770,-153,11.0239,2.01807,-0.00671034,-0.00114987,-0.0136922,0.0100415,-0.0179017,-0.885563,0.0163443,0.00942732,1994,1177,11.0239,-2.01812
777,-153,11.0272,1.96851,-0.00981437,-0.00389864,-0.019808,0.0131711,-0.0268841,-0.859514,0.0235733,0.0202531,2001,1177,11.0272,-1.9685
784,-153,11.1567,2.24023,0,0,0,0,0,0,0,-1,2008,1177,11.1567,-2.24026
791,-153,11.3475,2.34131,0,0,0,0,0,0,0,-1,2015,1177,11.3476,-2.34135
798,-153,11.6083,1.17554,-0.0250366,-0.0282003,-0.0494603,0.0228671,-0.0761041,-0.769412,0.0598332,0.0430906,2022,1177,11.6083,-1.17558
805,-153,11.307,0.64563,-0.0321197,-0.0458917,-0.063562,0.0249282,-0.10294,-0.731441,0.0782704,0.0424809,2029,1177,11.3071,-0.645646
812,-153,0,0,0,0,0,0,0,0,0,-1,2036,1177,0,0
-700,-160,0,0,0,0,0,0,0,0,0,-1,524,1184,0,0
-693,-160,0,0,0,0,0,0,0,0,0,-1,531,1184,0,0
-686,-160,-6.54413,-2.01001,0,0,0,0,0,0,0,-1,538,1184,-6.54414,2.00999
-679,-160,-6.51874,-0.87085,0.0126764,-0.0146876,0.0099478,0.0159106,-0.0179217,0.314333,0.0195446,0.0446263,545,1184,-6.51876,0.870864
-672,-160,-6.51422,0.279785,0.0156384,-0.0100872,0.00734811,0.0175893,-0.0120381,0.259513,0.0172052,0.0431936,552,1184,-6.51423,-0.279837
-665,-160,-6.90308,0.514893,0.0163248,-0.00688092,0.00534404,0.0174964,-0.00805245,0.215808,0.0150828,0.0444343,559,1184,-6.90305,-0.514851
-658,-160,-7.24152,0.612061,0,0,0,0,0,0,0,-1,566,1184,-7.24154,-0.612051
-651,-160,-4.90295,0.0627441,0,0,0,0,0,0,0,-1,573,1184,-4.90298,-0.0627322
-644,-160,-4.97668,0.373901,0.0117422,-0.00201356,0.00169277,0.0119475,-0.00221881,0.12066,0.00879833,0.0356722,580,1184,-4.9767,-0.373924
-637,-160,-5.04816,0.69519,0.00934604,-0.00118413,0.00108132,0.00945593,-0.00129402,0.10128,0.0067766,0.0130319,587,1184,-5.04817,-0.695192
-630,-160,-5.07214,0.74231,0.0066935,-0.000514534,0.00020947,0.00669958,-0.000520616,0.029028,0.00464965,0.00771243,594,1184,-5.07213,-0.74226
-623,-160,-5.09015,0.801758,0.00432564,8.04354e-06,-0.000911296,0.0045101,-0.000176419,-0.199719,0.00306723,0.00889918,601,1184,-5.09015,-0.801757
-616,-160,-5.08881,0.879028,0.00225082,-0.000964665,-0.00149131,0.00283598,-0.00154983,-0.373922,0.00256818,0.00828117,608,1184,-5.08882,-0.878982
-609,-160,-5.0755,0.975708,-0.000619444,-0.00145012,-0.00203633,0.00104347,-0.00311303,-0.684796,0.00249695,0.0118941,615,1184,-5.07548,-0.975656
-602,-160,-5.06738,1.05493,-0.00365818,-0.00176075,-0.00274747,0.000197189,-0.00561612,-0.951641,0.00381151,0.0166304,622,1184,-5.06736,-1.05491
-595,-160,-5.04987,1.12146,-0.0047654,-0.00230024,-0.0035357,0.000211571,-0.0072772,-0.953116,0.00492351,0.0170597,629,1184,-5.04989,-1.12145
-588,-160,-5.07843,1.16589,-0.00560942,-0.00274892,-0.00415065,0.000210996,-0.00856934,-0.95132,0.00578451,0.0178531,636,1184,-5.07841,-1.16593
-581,-160,-5.10175,1.23987,-0.00602981,-0.00319349,-0.00447907,8.65613e-05,-0.00930987,-0.938715,0.00623563,0.0152604,643,1184,-5.10172,-1.23985
-574,-160,-5.375,1.19568,-0.00584608,-0.00352587,-0.00464121,9.80273e-05,-0.00946998,-0.907867,0.00634625,0.0388472,650,1184,-5.375,-1.1957
-567,-160,-5.65045,0.95874,-0.00546849,-0.00369432,-0.00474919,0.000249917,-0.00941273,-0.877727,0.0063601,0.0457267,657,1184,-5.65047,-0.958761
-560,-160,-5.88214,0.772583,0,0,0,0,0,0,0,-1,664,1184,-5.88214,-0.772595
-553,-160,-5.86096,0.849243,-0.00374359,-0.00363495,-0.00402264,0.000333739,-0.00771228,-0.792149,0.0052563,0.0385376,671,1184,-5.86098,-0.849194
-546,-160,-5.9455,0.755737,-0.00199441,-0.0032085,-0.00316526,0.000621489,-0.0058244,-0.690656,0.0041058,0.0408713,678,1184,-5.94551,-0.755797
-539,-160,-5.96509,0.481323,0.000330587,-0.0025124,-0.00190579,0.00128663,-0.00346845,-0.464968,0.00284004,0.044329,685,1184,-5.96511,-0.481268
-532,-160,-5.91162,0.486206,0.00328462,-0.00155723,-0.000188664,0.00329196,-0.00156457,-0.0388868,0.00286243,0.0474242,692,1184,-5.9116,-0.486201
-525,-160,-5.76447,0.700073,0.00627557,-0.000457988,0.00175719,0.00670655,-0.000888963,0.240515,0.0047949,0.0451367,699,1184,-5.76449,-0.700081
-518,-160,-5.75201,0.79187,0.00798743,0.000318563,0.0030225,0.00903545,-0.000729459,0.333768,0.00628092,0.0432989,706,1184,-5.75202,-0.791878
-511,-160,0,0,0,0,0,0,0,0,0,-1,713,1184,0,0
-504,-160,0,0,0,0,0,0,0,0,0,-1,720,1184,0,0
-497,-160,0,0,0,0,0,0,0,0,0,-1,727,1184,0,0
-490,-160,0,0,0,0,0,0,0,0,0,-1,734,1184,0,0
-483,-160,0,0,0,0,0,0,0,0,0,-1,741,1184,0,0
-476,-160,0,0,0,0,0,0,0,0,0,-1,748,1184,0,0
-469,-160,0,0,0,0,0,0,0,0,0,-1,755,1184,0,0
-462,-160,0,0,0,0,0,0,0,0,0,-1,762,1184,0,0
-455,-160,0,0,0,0,0,0,0,0,0,-1,769,1184,0,0
-448,-160,0,0,0,0,0,0,0,0,0,-1,776,1184,0,0
-441,-160,0,0,0,0,0,0,0,0,0,-1,783,1184,0,0
-434,-160,0,0,0,0,0,0,0,0,0,-1,790,1184,0,0
-427,-160,0,0,0,0,0,0,0,0,0,-1,797,1184,0,0
-420,-160,0,0,0,0,0,0,0,0,0,-1,804,1184,0,0
-413,-160,0,0,0,0,0,0,0,0,0,-1,811,1184,0,0
-406,-160,0,0,0,0,0,0,0,0,0,-1,818,1184,0,0
-399,-160,0,0,0,0,0,0,0,0,0,-1,825,1184,0,0
-392,-160,0,0,0,0,0,0,0,0,0,-1,832,1184,0,0
-385,-160,0,0,0,0,0,0,0,0,0,-1,839,1184,0,0
-378,-160,0,0,0,0,0,0,0,0,0,-1,846,1184,0,0
-371,-160,0,0,0,0,0,0,0,0,0,-1,853,1184,0,0
-364,-160,0,0,0,0,0,0,0,0,0,-1,860,1184,0,0
-357,-160,0,0,0,0,0,0,0,0,0,-1,867,1184,0,0
-350,-160,0,0,0,0,0,0,0,0,0,-1,874,1184,0,0
-343,-160,0,0,0,0,0,0,0,0,0,-1,881,1184,0,0
-336,-160,0,0,0,0,0,0,0,0,0,-1,888,1184,0,0
-329,-160,0,0,0,0,0,0,0,0,0,-1,895,1184,0,0
-322,-160,0,0,0,0,0,0,0,0,0,-1,902,1184,0,0
-315,-160,0,0,0,0,0,0,0,0,0,-1,909,1184,0,0
-308,-160,0,0,0,0,0,0,0,0,0,-1,916,1184,0,0
-301,-160,0,0,0,0,0,0,0,0,0,-1,923,1184,0,0
-294,-160,0,0,0,0,0,0,0,0,0,-1,930,1184,0,0
-287,-160,0,0,0,0,0,0,0,0,0,-1,937,1184,0,0
-280,-160,0,0,0,0,0,0,0,0,0,-1,944,1184,0,0
-273,-160,0,0,0,0,0,0,0,0,0,-1,951,1184,0,0
-266,-160,0,0,0,0,0,0,0,0,0,-1,958,1184,0,0
-259,-160,0,0,0,0,0,0,0,0,0,-1,965,1184,0,0
-252,-160,0,0,0,0,0,0,0,0,0,-1,972,1184,0,0
-245,-160,0,0,0,0,0,0,0,0,0,-1,979,1184,0,0
-238,-160,0,0,0,0,0,0,0,0,0,-1,986,1184,0,0
-231,-160,0,0,0,0,0,0,0,0,0,-1,993,1184,0,0
-224,-160,0,0,0,0,0,0,0,0,0,-1,1000,1184,0,0
-217,-160,0,0,0,0,0,0,0,0,0,-1,1007,1184,0,0
-210,-160,0,0,0,0,0,0,0,0,0,-1,1014,1184,0,0
-203,-160,0,0,0,0,0,0,0,0,0,-1,1021,1184,0,0
-196,-160,0,0,0,0,0,0,0,0,0,-1,1028,1184,0,0
-189,-160,0,0,0,0,0,0,0,0,0,-1,1035,1184,0,0
-182,-160,0,0,0,0,0,0,0,0,0,-1,1042,1184,0,0
-175,-160,0,0,0,0,0,0,0,0,0,-1,1049,1184,0,0
-168,-160,0,0,0,0,0,0,0,0,0,-1,1056,1184,0,0
-161,-160,0,0,0,0,0,0,0,0,0,-1,1063,1184,0,0
-154,-160,0,0,0,0,0,0,0,0,0,-1,1070,1184,0,0
-147,-160,0,0,0,0,0,0,0,0,0,-1,1077,1184,0,0
-140,-160,0,0,0,0,0,0,0,0,0,-1,1084,1184,0,0
-133,-160,0,0,0,0,0,0,0,0,0,-1,1091,1184,0,0
-126,-160,0,0,0,0,0,0,0,0,0,-1,1098,1184,0,0
-119,-160,0,0,0,0,0,0,0,0,0,-1,1105,1184,0,0
-112,-160,0,0,0,0,0,0,0,0,0,-1,1112,1184,0,0
-105,-160,0,0,0,0,0,0,0,0,0,-1,1119,1184,0,0
-98,-160,0,0,0,0,0,0,0,0,0,-1,1126,1184,0,0
-91,-160,0,0,0,0,0,0,0,0,0,-1,1133,1184,0,0
-84,-160,0,0,0,0,0,0,0,0,0,-1,1140,1184,0,0
-77,-160,0,0,0,0,0,0,0,0,0,-1,1147,1184,0,0
-70,-160,0,0,0,0,0,0,0,0,0,-1,1154,1184,0,0
-63,-160,0,0,0,0,0,0,0,0,0,-1,1161,1184,0,0
-56,-160,0,0,0,0,0,0,0,0,0,-1,1168,1184,0,0
-49,-160,0,0,0,0,0,0,0,0,0,-1,1175,1184,0,0
-42,-160,0,0,0,0,0,0,0,0,0,-1,1182,1184,0,0
-35,-160,0,0,0,0,0,0,0,0,0,-1,1189,1184,0,0
-28,-160,0,0,0,0,0,0,0,0,0,-1,1196,1184,0,0
-21,-160,0,0,0,0,0,0,0,0,0,-1,1203,1184,0,0
-14,-160,0,0,0,0,0,0,0,0,0,-1,1210,1184,0,0
-7,-160,0,0,0,0,0,0,0,0,0,-1,1217,1184,0,0
0,-160,0,0,0,0,0,0,0,0,0,-1,1224,1184,0,0
7,-160,0,0,0,0,0,0,0,0,0,-1,1231,1184,0,0
14,-160,0,0,0,0,0,0,0,0,0,-1,1238,1184,0,0
21,-160,0,0,0,0,0,0,0,0,0,-1,1245,1184,0,0
28,-160,0,0,0,0,0,0,0,0,0,-1,1252,1184,0,0
35,-160,0,0,0,0,0,0,0,0,0,-1,1259,1184,0,0
42,-160,0,0,0,0,0,0,0,0,0,-1,1266,1184,0,0
49,-160,0,0,0,0,0,0,0,0,0,-1,1273,1184,0,0
56,-160,0,0,0,0,0,0,0,0,0,-1,1280,1184,0,0
63,-160,0,0,0,0,0,0,0,0,0,-1,1287,1184,0,0
70,-160,0,0,0,0,0,0,0,0,0,-1,1294,1184,0,0
77,-160,0,0,0,0,0,0,0,0,0,-1,1301,1184,0,0
84,-160,0,0,0,0,0,0,0,0,0,-1,1308,1184,0,0
91,-160,0,0,0,0,0,0,0,0,0,-1,1315,1184,0,0
98,-160,0,0,0,0,0,0,0,0,0,-1,1322,1184,0,0
105,-160,0,0,0,0,0,0,0,0,0,-1,1329,1184,0,0
112,-160,0,0,0,0,0,0,0,0,0,-1,1336,1184,0,0
119,-160,0,0,0,0,0,0,0,0,0,-1,1343,1184,0,0
126,-160,0,0,0,0,0,0,0,0,0,-1,1350,1184,0,0
133,-160,0,0,0,0,0,0,0,0,0,-1,1357,1184,0,0
140,-160,0,0,0,0,0,0,0,0,0,-1,1364,1184,0,0
147,-160,0,0,0,0,0,0,0,0,0,-1,1371,1184,0,0
154,-160,0,0,0,0,0,0,0,0,0,-1,1378,1184,0,0
161,-160,0,0,0,0,0,0,0,0,0,-1,1385,1184,0,0
168,-160,0,0,0,0,0,0,0,0,0,-1,1392,1184,0,0
175,-160,0,0,0,0,0,0,0,0,0,-1,1399,1184,0,0
182,-160,0,0,0,0,0,0,0,0,0,-1,1406,1184,0,0
189,-160,0,0,0,0,0,0,0,0,0,-1,1413,1184,0,0
196,-160,0,0,0,0,0,0,0,0,0,-1,1420,1184,0,0
203,-160,0,0,0,0,0,0,0,0,0,-1,1427,1184,0,0
210,-160,0,0,0,0,0,0,0,0,0,-1,1434,1184,0,0
217,-160,0,0,0,0,0,0,0,0,0,-1,1441,1184,0,0
224,-160,0,0,0,0,0,0,0,0,0,-1,1448,1184,0,0
231,-160,0,0,0,0,0,0,0,0,0,-1,1455,1184,0,0
238,-160,0,0,0,0,0,0,0,0,0,-1,1462,1184,0,0
245,-160,0,0,0,0,0,0,0,0,0,-1,1469,1184,0,0
252,-160,0,0,0,0,0,0,0,0,0,-1,1476,1184,0,0
259,-160,0,0,0,0,0,0,0,0,0,-1,1483,1184,0,0
266,-160,0,0,0,0,0,0,0,0,0,-1,1490,1184,0,0
273,-160,0,0,0,0,0,0,0,0,0,-1,1497,1184,0,0
280,-160,0,0,0,0,0,0,0,0,0,-1,1504,1184,0,0
287,-160,0,0,0,0,0,0,0,0,0,-1,1511,1184,0,0
294,-160,0,0,0,0,0,0,0,0,0,-1,1518,1184,0,0
301,-160,0,0,0,0,0,0,0,0,0,-1,1525,1184,0,0
308,-160,0,0,0,0,0,0,0,0,0,-1,1532,1184,0,0
315,-160,0,0,0,0,0,0,0,0,0,-1,1539,1184,0,0
322,-160,0,0,0,0,0,0,0,0,0,-1,1546,1184,0,0
329,-160,0,0,0,0,0,0,0,0,0,-1,1553,1184,0,0
336,-160,0,0,0,0,0,0,0,0,0,-1,1560,1184,0,0
343,-160,0,0,0,0,0,0,0,0,0,-1,1567,1184,0,0
350,-160,0,0,0,0,0,0,0,0,0,-1,1574,1184,0,0
357,-160,0,0,0,0,0,0,0,0,0,-1,1581,1184,0,0
364,-160,0,0,0,0,0,0,0,0,0,-1,1588,1184,0,0
371,-160,0,0,0,0,0,0,0,0,0,-1,1595,1184,0,0
378,-160,0,0,0,0,0,0,0,0,0,-1,1602,1184,0,0
385,-160,0,0,0,0,0,0,0,0,0,-1,1609,1184,0,0
392,-160,0,0,0,0,0,0,0,0,0,-1,1616,1184,0,0
399,-160,0,0,0,0,0,0,0,0,0,-1,1623,1184,0,0
406,-160,0,0,0,0,0,0,0,0,0,-1,1630,1184,0,0
413,-160,0,0,0,0,0,0,0,0,0,-1,1637,1184,0,0
420,-160,0,0,0,0,0,0,0,0,0,-1,1644,1184,0,0
427,-160,0,0,0,0,0,0,0,0,0,-1,1651,1184,0,0
434,-160,0,0,0,0,0,0,0,0,0,-1,1658,1184,0,0
441,-160,0,0,0,0,0,0,0,0,0,-1,1665,1184,0,0
448,-160,0,0,0,0,0,0,0,0,0,-1,1672,1184,0,0
455,-160,0,0,0,0,0,0,0,0,0,-1,1679,1184,0,0
462,-160,0,0,0,0,0,0,0,0,0,-1,1686,1184,0,0
469,-160,0,0,0,0,0,0,0,0,0,-1,1693,1184,0,0
476,-160,0,0,0,0,0,0,0,0,0,-1,1700,1184,0,0
483,-160,0,0,0,0,0,0,0,0,0,-1,1707,1184,0,0
490,-160,0,0,0,0,0,0,0,0,0,-1,1714,1184,0,0
497,-160,0,0,0,0,0,0,0,0,0,-1,1721,1184,0,0
504,-160,0,0,0,0,0,0,0,0,0,-1,1728,1184,0,0
511,-160,0,0,0,0,0,0,0,0,0,-1,1735,1184,0,0
518,-160,0,0,0,0,0,0,0,0,0,-1,1742,1184,0,0
525,-160,0,0,0,0,0,0,0,0,0,-1,1749,1184,0,0
532,-160,0,0,0,0,0,0,0,0,0,-1,1756,1184,0,0
539,-160,0,0,0,0,0,0,0,0,0,-1,1763,1184,0,0
546,-160,0,0,0,0,0,0,0,0,0,-1,1770,1184,0,0
553,-160,0,0,0,0,0,0,0,0,0,-1,1777,1184,0,0
560,-160,0,0,0,0,0,0,0,0,0,-1,1784,1184,0,0
567,-160,0,0,0,0,0,0,0,0,0,-1,1791,1184,0,0
574,-160,0,0,0,0,0,0,0,0,0,-1,1798,1184,0,0
581,-160,0,0,0,0,0,0,0,0,0,-1,1805,1184,0,0
588,-160,0,0,0,0,0,0,0,0,0,-1,1812,1184,0,0
595,-160,0,0,0,0,0,0,0,0,0,-1,1819,1184,0,0
602,-160,0,0,0,0,0,0,0,0,0,-1,1826,1184,0,0
609,-160,0,0,0,0,0,0,0,0,0,-1,1833,1184,0,0
616,-160,0,0,0,0,0,0,0,0,0,-1,1840,1184,0,0
623,-160,0,0,0,0,0,0,0,0,0,-1,1847,1184,0,0
630,-160,0,0,0,0,0,0,0,0,0,-1,1854,1184,0,0
637,-160,11.574,1.82678,-0.00315045,-0.00419297,0.00287699,-0.000747873,-0.00659554,0.695779,0.00417015,0.041718,1861,1184,11.574,-1.82678
644,-160,11.802,1.79138,-0.00227007,-0.00315619,0.00147969,-0.00116853,-0.00425773,0.639932,0.0025402,0.0423567,1868,1184,11.802,-1.79135
651,-160,11.6854,1.88599,-0.00159544,-0.00207099,0.000629538,-0.00116027,-0.00250616,0.604832,0.00144825,0.0408316,1875,1184,11.6854,-1.88594
658,-160,11.5883,1.95203,-0.00157797,-0.0015632,0.000358528,-0.00121198,-0.00192919,0.795695,0.00112596,0.0381399,1882,1184,11.5882,-1.95198
665,-160,11.6754,1.87024,-0.00210699,-0.00140328,0.000525912,-0.00112238,-0.0023879,1.08022,0.00137948,0.0369147,1889,1184,11.6754,-1.87019
672,-160,11.6782,1.67603,-0.00281298,-0.00139813,0.000849776,-0.000999858,-0.00321125,1.13252,0.00189749,0.0355421,1896,1184,11.6783,-1.67602
679,-160,11.704,1.6582,-0.00353614,-0.00149452,0.00123336,-0.00091432,-0.00411634,1.13109,0.00249592,0.027308,1903,1184,11.704,-1.65814
686,-160,11.7434,1.7002,-0.00411059,-0.001673,0.0015284,-0.000936938,-0.00484665,1.12199,0.00296849,0.017439,1910,1184,11.7434,-1.70018
693,-160,11.7472,1.69385,-0.00454391,-0.00167209,0.00175916,-0.000837214,-0.00537879,1.12768,0.00334193,0.0473835,1917,1184,11.7472,-1.69386
700,-160,11.4131,2.11963,-0.00476756,-0.00175146,0.00201041,-0.000746346,-0.00577267,1.10719,0.00362536,0.0422292,1924,1184,11.4131,-2.11961
707,-160,11.0164,2.62378,-0.00488775,-0.00179366,0.00215955,-0.000684205,-0.00599721,1.09621,0.00379071,0.0338792,1931,1184,11.0163,-2.62383
714,-160,11.0831,2.48682,-0.00492941,-0.00164036,0.00216343,-0.000567368,-0.00600241,1.11038,0.00382653,0.0248572,1938,1184,11.0831,-2.48681
721,-160,11.0266,2.30701,-0.00470845,-0.00147611,0.00203257,-0.000495487,-0.00568908,1.12128,0.00363882,0.0125116,1945,1184,11.0266,-2.30697
728,-160,10.9908,2.28198,-0.00402692,-0.00105986,0.00175215,-0.000247545,-0.00483923,1.13668,0.00314688,0.0114622,1952,1184,10.9908,-2.28196
735,-160,10.9554,2.24854,-0.00318074,-0.000409102,0.00124151,6.56815e-05,-0.00365553,1.20553,0.0024592,0.0134203,1959,1184,10.9555,-2.24853
742,-160,10.9795,2.17737,-0.00238696,0.000618944,0.000343202,0.000657631,-0.00242565,1.45855,0.00187515,0.0157075,1966,1184,10.9794,-2.17736
749,-160,10.988,2.1073,-0.00203678,0.00116893,-0.00165253,0.00186825,-0.00273609,-1.17047,0.00267401,0.0181544,1973,1184,10.988,-2.10736
756,-160,10.975,2.09717,-0.00210532,0.00164772,-0.00482784,0.00495091,-0.00540851,-0.970756,0.00598296,0.0114878,1980,1184,10.975,-2.09716
763,-160,10.9672,2.07874,-0.00284022,0.000199024,-0.00814745,0.00696736,-0.00960856,-0.877596,0.00961052,0.0110574,1987,1184,10.9671,-2.0788
770,-160,10.9612,2.01538,-0.00428212,-0.00118564,-0.0124543,0.0098163,-0.0152841,-0.847238,0.0146059,0.0171011,1994,1184,10.9612,-2.01541
777,-160,10.9805,1.94861,-0.00664163,-0.00392929,-0.0182731,0.0130379,-0.0236088,-0.822439,0.0214493,0.0323455,2001,1184,10.9805,-1.94856
784,-160,11.3435,1.86853,0,0,0,0,0,0,0,-1,2008,1184,11.3435,-1.86849
791,-160,11.5732,2.00964,-0.0140441,-0.0161049,-0.0357222,0.0206626,-0.0508115,-0.77098,0.0424717,0.0481643,2015,1184,11.5732,-2.00967
798,-160,11.7653,2.16895,-0.0190219,-0.0273262,-0.0479144,0.0249199,-0.071268,-0.742177,0.057643,0.048692,2022,1184,11.7653,-2.16889
805,-160,11.7704,0.492676,-0.0250392,-0.0437721,-0.0626403,0.0289311,-0.0977423,-0.711184,0.0766474,0.0444269,2029,1184,11.7704,-0.492675
812,-160,0,0,0,0,0,0,0,0,0,-1,2036,1184,0,0
-700,-167,0,0,0,0,0,0,0,0,0,-1,524,1191,0,0
-693,-167,0,0,0,0,0,0,0,0,0,-1,531,1191,0,0
-686,-167,-6.84003,-1.22302,-0.00612639,-0.0189892,0.0110414,0.000220169,-0.0253357,0.52168,0.0169643,0.0439111,538,1191,-6.84,1.22307
-679,-167,-6.72339,-0.345825,0.00405594,-0.0129323,0.00721969,0.00670965,-0.015586,0.352237,0.0132081,0.0432401,545,1191,-6.72341,0.345783
-672,-167,-7.21851,0.831299,0.00960042,-0.00882729,0.0046181,0.010693,-0.00991984,0.232309,0.0119036,0.045754,552,1191,-7.21848,-0.831316
-665,-167,-7.66724,0.428223,0.0121107,-0.00601263,0.00285383,0.0125495,-0.00645139,0.15255,0.0111569,0.0474216,559,1191,-7.66721,-0.428213
-658,-167,-5.13403,0.00915527,0,0,0,0,0,0,0,-1,566,1191,-5.13402,-0.00914869
-651,-167,-5.0448,0.372437,0,0,0,0,0,0,0,-1,573,1191,-5.04478,-0.372477
-644,-167,-5.0036,0.613037,0.0104218,-0.00180853,0.000345335,0.0104316,-0.00181827,0.0282059,0.00763302,0.0400497,580,1191,-5.0036,-0.613037
-637,-167,-4.99939,0.685547,0.00851076,-0.00110191,7.02021e-05,0.00851127,-0.00110242,0.00730257,0.00607509,0.0152925,587,1191,-4.99941,-0.685542
-630,-167,-5.00067,0.72937,0.00626376,-0.000467582,-0.000507053,0.00630174,-0.000505563,-0.0747649,0.00437942,0.00773297,594,1191,-5.00067,-0.729314
-623,-167,-5.00458,0.782471,0.00429354,8.39022e-05,-0.00138002,0.00470561,-0.000328165,-0.290168,0.00325198,0.00883985,601,1191,-5.0046,-0.782458
-616,-167,-5.02185,0.869873,0.00241773,-0.000937496,-0.00161454,0.00306844,-0.00158821,-0.383121,0.00273342,0.0120652,608,1191,-5.02185,-0.869848
-609,-167,-5.02161,0.957153,-0.000359989,-0.00143394,-0.00194058,0.00111654,-0.00291047,-0.650422,0.00240066,0.0126182,615,1191,-5.0216,-0.957183
-602,-167,-5.01343,1.01746,-0.00334746,-0.00187565,-0.00253892,3.18638e-05,-0.00525498,-0.926457,0.00351399,0.0131882,622,1191,-5.01342,-1.01749
-595,-167,-5.03052,1.11292,-0.00434897,-0.00242242,-0.00333804,8.85502e-05,-0.00685994,-0.92587,0.00460309,0.0176154,629,1191,-5.03052,-1.11297
-588,-167,-5.026,1.18188,-0.00512818,-0.00290633,-0.00399199,0.000126432,-0.00816094,-0.921109,0.00548325,0.0161506,636,1191,-5.02598,-1.18188
-581,-167,-5.01086,1.21741,-0.0055648,-0.00347252,-0.00433971,-5.46384e-05,-0.00898268,-0.903673,0.00597033,0.014982,643,1191,-5.01086,-1.21738
-574,-167,-5.1731,1.14417,-0.00544307,-0.00387572,-0.00451995,-7.20103e-05,-0.00924678,-0.871235,0.00614066,0.0346997,650,1191,-5.1731,-1.14411
-567,-167,-5.4375,0.899414,-0.00513254,-0.00409267,-0.00465366,7.00098e-05,-0.00929522,-0.84103,0.00622028,0.0403973,657,1191,-5.43748,-0.899393
-560,-167,-5.69623,0.481445,-0.00474835,-0.00427059,-0.00445977,-4.33023e-05,-0.00897563,-0.812154,0.00596937,0.0355842,664,1191,-5.69624,-0.481437
-553,-167,-5.76306,0.620728,-0.00379294,-0.00414888,-0.00402833,6.13504e-05,-0.00800317,-0.763323,0.00535601,0.0372022,671,1191,-5.76306,-0.620775
-546,-167,-5.78003,0.647583,-0.00235022,-0.00373444,-0.00324403,0.0002747,-0.00635937,-0.680299,0.00433405,0.0357585,678,1191,-5.78004,-0.647596
-539,-167,-5.64807,0.525635,-0.000430331,-0.00299476,-0.00205335,0.000708265,-0.00413336,-0.506296,0.00301948,0.0396758,685,1191,-5.64805,-0.525619
-532,-167,-5.61609,0.709229,0.00201704,-0.00192648,-0.00037794,0.00205293,-0.00196237,-0.0946898,0.00231843,0.0456996,692,1191,-5.6161,-0.709189
-525,-167,-5.66937,1.08154,0.0045448,-0.000589901,0.00166998,0.00504014,-0.00108525,0.288352,0.00377422,0.0460118,699,1191,-5.66938,-1.08157
-518,-167,-5.64648,0.874023,0.00605308,0.000637178,0.00330812,0.00762024,-0.000929991,0.442415,0.00541684,0.0423649,706,1191,-5.64646,-0.874037
-511,-167,0,0,0,0,0,0,0,0,0,-1,713,1191,0,0
-504,-167,0,0,0,0,0,0,0,0,0,-1,720,1191,0,0
-497,-167,0,0,0,0,0,0,0,0,0,-1,727,1191,0,0
-490,-167,0,0,0,0,0,0,0,0,0,-1,734,1191,0,0
-483,-167,0,0,0,0,0,0,0,0,0,-1,741,1191,0,0
-476,-167,0,0,0,0,0,0,0,0,0,-1,748,1191,0,0
-469,-167,0,0,0,0,0,0,0,0,0,-1,755,1191,0,0
-462,-167,0,0,0,0,0,0,0,0,0,-1,762,1191,0,0
-455,-167,0,0,0,0,0,0,0,0,0,-1,769,1191,0,0
-448,-167,0,0,0,0,0,0,0,0,0,-1,776,1191,0,0
-441,-167,0,0,0,0,0,0,0,0,0,-1,783,1191,0,0
-434,-167,0,0,0,0,0,0,0,0,0,-1,790,1191,0,0
-427,-167,0,0,0,0,0,0,0,0,0,-1,797,1191,0,0
-420,-167,0,0,0,0,0,0,0,0,0,-1,804,1191,0,0
-413,-167,0,0,0,0,0,0,0,0,0,-1,811,1191,0,0
-406,-167,0,0,0,0,0,0,0,0,0,-1,818,1191,0,0
-399,-167,0,0,0,0,0,0,0,0,0,-1,825,1191,0,0
-392,-167,0,0,0,0,0,0,0,0,0,-1,832,1191,0,0
-385,-167,0,0,0,0,0,0,0,0,0,-1,839,1191,0,0
-378,-167,0,0,0,0,0,0,0,0,0,-1,846,1191,0,0
-371,-167,0,0,0,0,0,0,0,0,0,-1,853,1191,0,0
-364,-167,0,0,0,0,0,0,0,0,0,-1,860,1191,0,0
-357,-167,0,0,0,0,0,0,0,0,0,-1,867,1191,0,0
-350,-167,0,0,0,0,0,0,0,0,0,-1,874,1191,0,0
-343,-167,0,0,0,0,0,0,0,0,0,-1,881,1191,0,0
-336,-167,0,0,0,0,0,0,0,0,0,-1,888,1191,0,0
-329,-167,0,0,0,0,0,0,0,0,0,-1,895,1191,0,0
-322,-167,0,0,0,0,0,0,0,0,0,-1,902,1191,0,0
-315,-167,0,0,0,0,0,0,0,0,0,-1,909,1191,0,0
-308,-167,0,0,0,0,0,0,0,0,0,-1,916,1191,0,0
-301,-167,0,0,0,0,0,0,0,0,0,-1,923,1191,0,0
-294,-167,0,0,0,0,0,0,0,0,0,-1,930,1191,0,0
-287,-167,0,0,0,0,0,0,0,0,0,-1,937,1191,0,0
-280,-167,0,0,0,0,0,0,0,0,0,-1,944,1191,0,0
-273,-167,0,0,0,0,0,0,0,0,0,-1,951,1191,0,0
-266,-167,0,0,0,0,0,0,0,0,0,-1,958,1191,0,0
-259,-167,0,0,0,0,0,0,0,0,0,-1,965,1191,0,0
-252,-167,0,0,0,0,0,0,0,0,0,-1,972,1191,0,0
-245,-167,0,0,0,0,0,0,0,0,0,-1,979,1191,0,0
-238,-167,0,0,0,0,0,0,0,0,0,-1,986,1191,0,0
-231,-167,0,0,0,0,0,0,0,0,0,-1,993,1191,0,0
-224,-167,0,0,0,0,0,0,0,0,0,-1,1000,1191,0,0
-217,-167,0,0,0,0,0,0,0,0,0,-1,1007,1191,0,0
-210,-167,0,0,0,0,0,0,0,0,0,-1,1014,1191,0,0
-203,-167,0,0,0,0,0,0,0,0,0,-1,1021,1191,0,0
-196,-167,0,0,0,0,0,0,0,0,0,-1,1028,1191,0,0
-189,-167,0,0,0,0,0,0,0,0,0,-1,1035,1191,0,0
-182,-167,0,0,0,0,0,0,0,0,0,-1,1042,1191,0,0
-175,-167,0,0,0,0,0,0,0,0,0,-1,1049,1191,0,0
-168,-167,0,0,0,0,0,0,0,0,0,-1,1056,1191,0,0
-161,-167,0,0,0,0,0,0,0,0,0,-1,1063,1191,0,0
-154,-167,0,0,0,0,0,0,0,0,0,-1,1070,1191,0,0
-147,-167,0,0,0,0,0,0,0,0,0,-1,1077,1191,0,0
-140,-167,0,0,0,0,0,0,0,0,0,-1,1084,1191,0,0
-133,-167,0,0,0,0,0,0,0,0,0,-1,1091,1191,0,0
-126,-167,0,0,0,0,0,0,0,0,0,-1,1098,1191,0,0
-119,-167,0,0,0,0,0,0,0,0,0,-1,1105,1191,0,0
-112,-167,0,0,0,0,0,0,0,0,0,-1,1112,1191,0,0
-105,-167,0,0,0,0,0,0,0,0,0,-1,1119,1191,0,0
-98,-167,0,0,0,0,0,0,0,0,0,-1,1126,1191,0,0
-91,-167,0,0,0,0,0,0,0,0,0,-1,1133,1191,0,0
-84,-167,0,0,0,0,0,0,0,0,0,-1,1140,1191,0,0
-77,-167,0,0,0,0,0,0,0,0,0,-1,1147,1191,0,0
-70,-167,0,0,0,0,0,0,0,0,0,-1,1154,1191,0,0
-63,-167,0,0,0,0,0,0,0,0,0,-1,1161,1191,0,0
-56,-167,0,0,0,0,0,0,0,0,0,-1,1168,1191,0,0
-49,-167,0,0,0,0,0,0,0,0,0,-1,1175,1191,0,0
-42,-167,0,0,0,0,0,0,0,0,0,-1,1182,1191,0,0
-35,-167,0,0,0,0,0,0,0,0,0,-1,1189,1191,0,0
-28,-167,0,0,0,0,0,0,0,0,0,-1,1196,1191,0,0
-21,-167,0,0,0,0,0,0,0,0,0,-1,1203,1191,0,0
-14,-167,0,0,0,0,0,0,0,0,0,-1,1210,1191,0,0
-7,-167,0,0,0,0,0,0,0,0,0,-1,1217,1191,0,0
0,-167,0,0,0,0,0,0,0,0,0,-1,1224,1191,0,0
7,-167,0,0,0,0,0,0,0,0,0,-1,1231,1191,0,0
14,-167,0,0,0,0,0,0,0,0,0,-1,1238,1191,0,0
21,-167,0,0,0,0,0,0,0,0,0,-1,1245,1191,0,0
28,-167,0,0,0,0,0,0,0,0,0,-1,1252,1191,0,0
35,-167,0,0,0,0,0,0,0,0,0,-1,1259,1191,0,0
42,-167,0,0,0,0,0,0,0,0,0,-1,1266,1191,0,0
49,-167,0,0,0,0,0,0,0,0,0,-1,1273,1191,0,0
56,-167,0,0,0,0,0,0,0,0,0,-1,1280,1191,0,0
63,-167,0,0,0,0,0,0,0,0,0,-1,1287,1191,0,0
70,-167,0,0,0,0,0,0,0,0,0,-1,1294,1191,0,0
77,-167,0,0,0,0,0,0,0,0,0,-1,1301,1191,0,0
84,-167,0,0,0,0,0,0,0,0,0,-1,1308,1191,0,0
91,-167,0,0,0,0,0,0,0,0,0,-1,1315,1191,0,0
98,-167,0,0,0,0,0,0,0,0,0,-1,1322,1191,0,0
105,-167,0,0,0,0,0,0,0,0,0,-1,1329,1191,0,0
112,-167,0,0,0,0,0,0,0,0,0,-1,1336,1191,0,0
119,-167,0,0,0,0,0,0,0,0,0,-1,1343,1191,0,0
126,-167,0,0,0,0,0,0,0,0,0,-1,1350,1191,0,0
133,-167,0,0,0,0,0,0,0,0,0,-1,1357,1191,0,0
140,-167,0,0,0,0,0,0,0,0,0,-1,1364,1191,0,0
147,-167,0,0,0,0,0,0,0,0,0,-1,1371,1191,0,0
154,-167,0,0,0,0,0,0,0,0,0,-1,1378,1191,0,0
161,-167,0,0,0,0,0,0,0,0,0,-1,1385,1191,0,0
168,-167,0,0,0,0,0,0,0,0,0,-1,1392,1191,0,0
175,-167,0,0,0,0,0,0,0,0,0,-1,1399,1191,0,0
182,-167,0,0,0,0,0,0,0,0,0,-1,1406,1191,0,0
189,-167,0,0,0,0,0,0,0,0,0,-1,1413,1191,0,0
196,-167,0,0,0,0,0,0,0,0,0,-1,1420,1191,0,0
203,-167,0,0,0,0,0,0,0,0,0,-1,1427,1191,0,0
210,-167,0,0,0,0,0,0,0,0,0,-1,1434,1191,0,0
217,-167,0,0,0,0,0,0,0,0,0,-1,1441,1191,0,0
224,-167,0,0,0,0,0,0,0,0,0,-1,1448,1191,0,0
231,-167,0,0,0,0,0,0,0,0,0,-1,1455,1191,0,0
238,-167,0,0,0,0,0,0,0,0,0,-1,1462,1191,0,0
245,-167,0,0,0,0,0,0,0,0,0,-1,1469,1191,0,0
252,-167,0,0,0,0,0,0,0,0,0,-1,1476,1191,0,0
259,-167,0,0,0,0,0,0,0,0,0,-1,1483,1191,0,0
266,-167,0,0,0,0,0,0,0,0,0,-1,1490,1191,0,0
273,-167,0,0,0,0,0,0,0,0,0,-1,1497,1191,0,0
280,-167,0,0,0,0,0,0,0,0,0,-1,1504,1191,0,0
287,-167,0,0,0,0,0,0,0,0,0,-1,1511,1191,0,0
294,-167,0,0,0,0,0,0,0,0,0,-1,1518,1191,0,0
301,-167,0,0,0,0,0,0,0,0,0,-1,1525,1191,0,0
308,-167,0,0,0,0,0,0,0,0,0,-1,1532,1191,0,0
315,-167,0,0,0,0,0,0,0,0,0,-1,1539,1191,0,0
322,-167,0,0,0,0,0,0,0,0,0,-1,1546,1191,0,0
329,-167,0,0,0,0,0,0,0,0,0,-1,1553,1191,0,0
336,-167,0,0,0,0,0,0,0,0,0,-1,1560,1191,0,0
343,-167,0,0,0,0,0,0,0,0,0,-1,1567,1191,0,0
350,-167,0,0,0,0,0,0,0,0,0,-1,1574,1191,0,0
357,-167,0,0,0,0,0,0,0,0,0,-1,1581,1191,0,0
364,-167,0,0,0,0,0,0,0,0,0,-1,1588,1191,0,0
371,-167,0,0,0,0,0,0,0,0,0,-1,1595,1191,0,0
378,-167,0,0,0,0,0,0,0,0,0,-1,1602,1191,0,0
385,-167,0,0,0,0,0,0,0,0,0,-1,1609,1191,0,0
392,-167,0,0,0,0,0,0,0,0,0,-1,1616,1191,0,0
399,-167,0,0,0,0,0,0,0,0,0,-1,1623,1191,0,0
406,-167,0,0,0,0,0,0,0,0,0,-1,1630,1191,0,0
413,-167,0,0,0,0,0,0,0,0,0,-1,1637,1191,0,0
420,-167,0,0,0,0,0,0,0,0,0,-1,1644,1191,0,0
427,-167,0,0,0,0,0,0,0,0,0,-1,1651,1191,0,0
434,-167,0,0,0,0,0,0,0,0,0,-1,1658,1191,0,0
441,-167,0,0,0,0,0,0,0,0,0,-1,1665,1191,0,0
448,-167,0,0,0,0,0,0,0,0,0,-1,1672,1191,0,0
455,-167,0,0,0,0,0,0,0,0,0,-1,1679,1191,0,0
462,-167,0,0,0,0,0,0,0,0,0,-1,1686,1191,0,0
469,-167,0,0,0,0,0,0,0,0,0,-1,1693,1191,0,0
476,-167,0,0,0,0,0,0,0,0,0,-1,1700,1191,0,0
483,-167,0,0,0,0,0,0,0,0,0,-1,1707,1191,0,0
490,-167,0,0,0,0,0,0,0,0,0,-1,1714,1191,0,0
497,-167,0,0,0,0,0,0,0,0,0,-1,1721,1191,0,0
504,-167,0,0,0,0,0,0,0,0,0,-1,1728,1191,0,0
511,-167,0,0,0,0,0,0,0,0,0,-1,1735,1191,0,0
518,-167,0,0,0,0,0,0,0,0,0,-1,1742,1191,0,0
525,-167,0,0,0,0,0,0,0,0,0,-1,1749,1191,0,0
532,-167,0,0,0,0,0,0,0,0,0,-1,1756,1191,0,0
539,-167,0,0,0,0,0,0,0,0,0,-1,1763,1191,0,0
546,-167,0,0,0,0,0,0,0,0,0,-1,1770,1191,0,0
553,-167,0,0,0,0,0,0,0,0,0,-1,1777,1191,0,0
560,-167,0,0,0,0,0,0,0,0,0,-1,1784,1191,0,0
567,-167,0,0,0,0,0,0,0,0,0,-1,1791,1191,0,0
574,-167,0,0,0,0,0,0,0,0,0,-1,1798,1191,0,0
581,-167,0,0,0,0,0,0,0,0,0,-1,1805,1191,0,0
588,-167,0,0,0,0,0,0,0,0,0,-1,1812,1191,0,0
595,-167,0,0,0,0,0,0,0,0,0,-1,1819,1191,0,0
602,-167,0,0,0,0,0,0,0,0,0,-1,1826,1191,0,0
609,-167,0,0,0,0,0,0,0,0,0,-1,1833,1191,0,0
616,-167,0,0,0,0,0,0,0,0,0,-1,1840,1191,0,0
623,-167,0,0,0,0,0,0,0,0,0,-1,1847,1191,0,0
630,-167,0,0,0,0,0,0,0,0,0,-1,1854,1191,0,0
637,-167,11.5765,2.07324,-0.00207717,-0.00279853,0.0029209,0.000505232,-0.00538093,0.723968,0.00376701,0.0419761,1861,1191,11.5765,-2.07324
644,-167,11.6389,2.12415,-0.001486,-0.00199973,0.00137907,-0.000340077,-0.00314565,0.693322,0.00199344,0.0444584,1868,1191,11.639,-2.12418
651,-167,11.5302,2.09937,-0.0011839,-0.00125999,0.000521292,-0.000699269,-0.00174463,0.748971,0.00101385,0.0433912,1875,1191,11.5302,-2.09942
658,-167,11.4963,2.15637,-0.00147049,-0.00100793,0.000281736,-0.0008747,-0.00160372,1.12908,0.000927179,0.0419421,1882,1191,11.4963,-2.15642
665,-167,11.6379,1.94238,-0.00212401,-0.000998733,0.000431074,-0.000852578,-0.00227016,1.24391,0.00132414,0.0374359,1889,1191,11.638,-1.94237
672,-167,11.6755,1.74634,-0.0028545,-0.00109262,0.000734224,-0.000826761,-0.00312035,1.22339,0.00186671,0.028925,1896,1191,11.6755,-1.74636
679,-167,11.7263,1.68213,-0.00356174,-0.00123744,0.00109984,-0.000799512,-0.00399967,1.19187,0.00244393,0.021608,1903,1191,11.7263,-1.68212
686,-167,11.7242,1.70288,-0.00408465,-0.00145517,0.0013679,-0.000872619,-0.0046672,1.16819,0.00286523,0.0295201,1910,1191,11.7243,-1.70284
693,-167,11.7069,1.6792,0,0,0,0,0,0,0,-1,1917,1191,11.7069,-1.67924
700,-167,11.3828,2.4696,-0.00461289,-0.00157968,0.00182552,-0.000722975,-0.0054696,1.13201,0.00343089,0.0382615,1924,1191,11.3829,-2.46961
707,-167,10.9426,2.61121,-0.0046939,-0.00161902,0.00195952,-0.00066579,-0.00564713,1.11804,0.00356362,0.0301651,1931,1191,10.9426,-2.61117
714,-167,10.9911,2.45215,-0.00469582,-0.0014912,0.00196698,-0.000556496,-0.00563052,1.12719,0.00358262,0.0194479,1938,1191,10.9911,-2.4522
721,-167,10.9764,2.29895,-0.00443243,-0.00131015,0.00184936,-0.000451105,-0.00529148,1.13594,0.00338731,0.0168929,1945,1191,10.9765,-2.29901
728,-167,10.9426,2.30017,-0.00367992,-0.000877144,0.00155331,-0.000186487,-0.00437057,1.15241,0.00285358,0.0130462,1952,1191,10.9426,-2.30019
735,-167,10.9143,2.26111,-0.00275163,-0.000168857,0.00103649,0.000195654,-0.00311614,1.23263,0.00214562,0.013443,1959,1191,10.9144,-2.26108
742,-167,10.9402,2.19946,-0.0018165,0.000793788,0.000225092,0.000813056,-0.00183577,1.4854,0.00156683,0.0140403,1966,1191,10.9402,-2.1995
749,-167,10.9381,2.14795,-0.00120063,0.00135671,-0.00154363,0.00208248,-0.00192641,-1.13129,0.00231512,0.0140476,1973,1191,10.9381,-2.14792
756,-167,10.9104,2.11072,-0.000927389,0.00194005,-0.00439445,0.00512875,-0.00411609,-0.943082,0.00534818,0.0110195,1980,1191,10.9103,-2.11078
763,-167,10.8943,2.04126,-0.00128474,0.000877997,-0.00738124,0.00725666,-0.00766341,-0.858132,0.00861517,0.0117861,1987,1191,10.8943,-2.04129
770,-167,10.8823,1.98926,-0.00222125,-0.000172344,-0.0113821,0.0102313,-0.0126249,-0.83028,0.0132201,0.0223195,1994,1191,10.8824,-1.98928
777,-167,11.1993,1.68604,-0.00392936,-0.0024241,-0.0169431,0.0137831,-0.0201366,-0.807594,0.0196977,0.0388513,2001,1191,11.1993,-1.68603
784,-167,11.5303,1.4967,0,0,0,0,0,0,0,-1,2008,1191,11.5303,-1.49672
791,-167,11.8665,1.66809,0,0,0,0,0,0,0,-1,2015,1191,11.8664,-1.66804
798,-167,11.9717,1.84619,0,0,0,0,0,0,0,-1,2022,1191,11.9717,-1.84615
805,-167,12.2113,0.36438,0,0,0,0,0,0,0,-1,2029,1191,12.2114,-0.364364
812,-167,0,0,0,0,0,0,0,0,0,-1,2036,1191,0,0
-700,-174,0,0,0,0,0,0,0,0,0,-1,524,1198,0,0
-693,-174,0,0,0,0,0,0,0,0,0,-1,531,1198,0,0
-686,-174,-6.72046,-0.740234,-0.0208989,-0.0164002,0.00970374,-0.00868855,-0.0286106,0.899287,0.0169374,0.0457687,538,1198,-6.72047,0.740251
-679,-174,-6.92126,0.202271,-0.00731081,-0.010739,0.00537661,-0.00338168,-0.0146681,0.631088,0.00886911,0.0473074,545,1198,-6.92126,-0.202228
-672,-174,-7.95374,1.31018,0.000912433,-0.0070293,0.00269544,0.00174086,-0.00785772,0.298179,0.00590493,0.0472862,552,1198,-7.95376,-1.31021
-665,-174,-8.54828,0.329346,0.00553521,-0.00460046,0.00108575,0.00565021,-0.00471546,0.105526,0.00599273,0.0468823,559,1198,-8.5483,-0.329393
-658,-174,-4.96588,0.364502,0.00777632,-0.00300906,0.000160909,0.00777872,-0.00301146,0.0149147,0.00642919,0.0451955,566,1198,-4.96587,-0.36455
-651,-174,-5.05261,0.711304,0,0,0,0,0,0,0,-1,573,1198,-5.05264,-0.711299
-644,-174,-4.98419,0.687988,0.00791504,-0.00125814,-0.000535816,0.00794623,-0.00128933,-0.0581476,0.00577544,0.0465872,580,1198,-4.98417,-0.687981
-637,-174,-4.92432,0.650757,0.00682286,-0.00074663,-0.000566445,0.00686501,-0.000788784,-0.0742814,0.00486098,0.0220344,587,1198,-4.92432,-0.650701
-630,-174,-4.91736,0.727783,0.00525087,-0.000233364,-0.000918037,0.00540047,-0.000382959,-0.161531,0.00373452,0.0109104,594,1198,-4.91734,-0.72774
-623,-174,-4.91595,0.789673,0.00390199,0.000264649,-0.00157834,0.00449137,-0.000324734,-0.357384,0.00310815,0.0122829,601,1198,-4.91596,-0.789731
-616,-174,-4.91797,0.885376,0.00250079,-0.000838363,-0.00151036,0.00308258,-0.00142016,-0.367686,0.00265806,0.0182981,608,1198,-4.91799,-0.885363
-609,-174,-4.9425,0.946533,-1.27357e-05,-0.00138086,-0.00170609,0.00114132,-0.00253491,-0.594734,0.00217271,0.0199264,615,1198,-4.94252,-0.946494
-602,-174,-4.95178,0.991455,-0.00286851,-0.00192109,-0.00227734,-6.87125e-05,-0.00472089,-0.887941,0.0031246,0.0131854,622,1198,-4.95179,-0.991481
-595,-174,-4.9361,1.09119,-0.00382788,-0.00246798,-0.00313661,6.15388e-05,-0.00635739,-0.892136,0.00425892,0.0122955,629,1198,-4.93612,-1.09121
-588,-174,-4.94849,1.17847,-0.00462971,-0.00289598,-0.00389355,0.000226038,-0.00775173,-0.894932,0.00524479,0.0122408,636,1198,-4.9485,-1.17849
-581,-174,-4.95898,1.23413,-0.00514868,-0.00357713,-0.00428559,-5.87478e-06,-0.00871994,-0.876068,0.00581133,0.0136569,643,1198,-4.959,-1.23409
-574,-174,-5.11981,1.18323,-0.00516196,-0.00402831,-0.00453797,-2.18968e-05,-0.00916837,-0.84753,0.00610496,0.0320918,650,1198,-5.11979,-1.18319
-567,-174,-5.3916,-0.0472412,0,0,0,0,0,0,0,-1,657,1198,-5.3916,0.0472299
-560,-174,-5.64008,0.468872,-0.0048424,-0.00445986,-0.0046203,-2.68752e-05,-0.00927539,-0.806085,0.00617465,0.0381361,664,1198,-5.64008,-0.468898
-553,-174,-5.75439,0.661011,-0.00416764,-0.00436111,-0.00428439,2.11061e-05,-0.00854985,-0.774111,0.00570695,0.0376938,671,1198,-5.75439,-0.661038
-546,-174,-5.80243,0.746094,-0.00306769,-0.0039757,-0.00359595,0.000102798,-0.00714619,-0.722603,0.00479876,0.0303555,678,1198,-5.80242,-0.746138
-539,-174,-5.68494,0.624268,-0.00154146,-0.00326863,-0.00247538,0.000216655,-0.00502674,-0.617564,0.00342566,0.0341462,685,1198,-5.68493,-0.624234
-532,-174,-5.72382,0.636353,0.000471725,-0.00224445,-0.000812704,0.000696322,-0.00246905,-0.269628,0.00192068,0.0455642,692,1198,-5.72381,-0.636317
-525,-174,-5.83832,0.942383,0.00268088,-0.000953405,0.00138762,0.0031501,-0.00142263,0.326083,0.00270214,0.0453877,699,1198,-5.83833,-0.942386
-518,-174,-5.67633,0.961548,0.0042773,0.000294927,0.00355426,0.00636013,-0.0017879,0.530068,0.00494499,0.0414912,706,1198,-5.67632,-0.961524
-511,-174,0,0,0,0,0,0,0,0,0,-1,713,1198,0,0
-504,-174,0,0,0,0,0,0,0,0,0,-1,720,1198,0,0
-497,-174,0,0,0,0,0,0,0,0,0,-1,727,1198,0,0
-490,-174,0,0,0,0,0,0,0,0,0,-1,734,1198,0,0
-483,-174,0,0,0,0,0,0,0,0,0,-1,741,1198,0,0
-476,-174,0,0,0,0,0,0,0,0,0,-1,748,1198,0,0
-469,-174,0,0,0,0,0,0,0,0,0,-1,755,1198,0,0
-462,-174,0,0,0,0,0,0,0,0,0,-1,762,1198,0,0
-455,-174,0,0,0,0,0,0,0,0,0,-1,769,1198,0,0
-448,-174,0,0,0,0,0,0,0,0,0,-1,776,1198,0,0
-441,-174,0,0,0,0,0,0,0,0,0,-1,783,1198,0,0
-434,-174,0,0,0,0,0,0,0,0,0,-1,790,1198,0,0
-427,-174,0,0,0,0,0,0,0,0,0,-1,797,1198,0,0
-420,-174,0,0,0,0,0,0,0,0,0,-1,804,1198,0,0
-413,-174,0,0,0,0,0,0,0,0,0,-1,811,1198,0,0
-406,-174,0,0,0,0,0,0,0,0,0,-1,818,1198,0,0
-399,-174,0,0,0,0,0,0,0,0,0,-1,825,1198,0,0
-392,-174,0,0,0,0,0,0,0,0,0,-1,832,1198,0,0
-385,-174,0,0,0,0,0,0,0,0,0,-1,839,1198,0,0
-378,-174,0,0,0,0,0,0,0,0,0,-1,846,1198,0,0
-371,-174,0,0,0,0,0,0,0,0,0,-1,853,1198,0,0
-364,-174,0,0,0,0,0,0,0,0,0,-1,860,1198,0,0
-357,-174,0,0,0,0,0,0,0,0,0,-1,867,1198,0,0
-350,-174,0,0,0,0,0,0,0,0,0,-1,874,1198,0,0
-343,-174,0,0,0,0,0,0,0,0,0,-1,881,1198,0,0
-336,-174,0,0,0,0,0,0,0,0,0,-1,888,1198,0,0
-329,-174,0,0,0,0,0,0,0,0,0,-1,895,1198,0,0
-322,-174,0,0,0,0,0,0,0,0,0,-1,902,1198,0,0
-315,-174,0,0,0,0,0,0,0,0,0,-1,909,1198,0,0
-308,-174,0,0,0,0,0,0,0,0,0,-1,916,1198,0,0
-301,-174,0,0,0,0,0,0,0,0,0,-1,923,1198,0,0
-294,-174,0,0,0,0,0,0,0,0,0,-1,930,1198,0,0
-287,-174,0,0,0,0,0,0,0,0,0,-1,937,1198,0,0
-280,-174,0,0,0,0,0,0,0,0,0,-1,944,1198,0,0
-273,-174,0,0,0,0,0,0,0,0,0,-1,951,1198,0,0
-266,-174,0,0,0,0,0,0,0,0,0,-1,958,1198,0,0
-259,-174,0,0,0,0,0,0,0,0,0,-1,965,1198,0,0
-252,-174,0,0,0,0,0,0,0,0,0,-1,972,1198,0,0
-245,-174,0,0,0,0,0,0,0,0,0,-1,979,1198,0,0
-238,-174,0,0,0,0,0,0,0,0,0,-1,986,1198,0,0
-231,-174,0,0,0,0,0,0,0,0,0,-1,993,1198,0,0
-224,-174,0,0,0,0,0,0,0,0,0,-1,1000,1198,0,0
-217,-174,0,0,0,0,0,0,0,0,0,-1,1007,1198,0,0
-210,-174,0,0,0,0,0,0,0,0,0,-1,1014,1198,0,0
-203,-174,0,0,0,0,0,0,0,0,0,-1,1021,1198,0,0
-196,-174,0,0,0,0,0,0,0,0,0,-1,1028,1198,0,0
-189,-174,0,0,0,0,0,0,0,0,0,-1,1035,1198,0,0
-182,-174,0,0,0,0,0,0,0,0,0,-1,1042,1198,0,0
-175,-174,0,0,0,0,0,0,0,0,0,-1,1049,1198,0,0
-168,-174,0,0,0,0,0,0,0,0,0,-1,1056,1198,0,0
-161,-174,0,0,0,0,0,0,0,0,0,-1,1063,1198,0,0
-154,-174,0,0,0,0,0,0,0,0,0,-1,1070,1198,0,0
-147,-174,0,0,0,0,0,0,0,0,0,-1,1077,1198,0,0
-140,-174,0,0,0,0,0,0,0,0,0,-1,1084,1198,0,0
-133,-174,0,0,0,0,0,0,0,0,0,-1,1091,1198,0,0
-126,-174,0,0,0,0,0,0,0,0,0,-1,1098,1198,0,0
-119,-174,0,0,0,0,0,0,0,0,0,-1,1105,1198,0,0
-112,-174,0,0,0,0,0,0,0,0,0,-1,1112,1198,0,0
-105,-174,0,0,0,0,0,0,0,0,0,-1,1119,1198,0,0
-98,-174,0,0,0,0,0,0,0,0,0,-1,1126,1198,0,0
-91,-174,0,0,0,0,0,0,0,0,0,-1,1133,1198,0,0
-84,-174,0,0,0,0,0,0,0,0,0,-1,1140,1198,0,0
-77,-174,0,0,0,0,0,0,0,0,0,-1,1147,1198,0,0
-70,-174,0,0,0,0,0,0,0,0,0,-1,1154,1198,0,0
-63,-174,0,0,0,0,0,0,0,0,0,-1,1161,1198,0,0
-56,-174,0,0,0,0,0,0,0,0,0,-1,1168,1198,0,0
-49,-174,0,0,0,0,0,0,0,0,0,-1,1175,1198,0,0
-42,-174,0,0,0,0,0,0,0,0,0,-1,1182,1198,0,0
-35,-174,0,0,0,0,0,0,0,0,0,-1,1189,1198,0,0
-28,-174,0,0,0,0,0,0,0,0,0,-1,1196,1198,0,0
-21,-174,0,0,0,0,0,0,0,0,0,-1,1203,1198,0,0
-14,-174,0,0,0,0,0,0,0,0,0,-1,1210,1198,0,0
-7,-174,0,0,0,0,0,0,0,0,0,-1,1217,1198,0,0
0,-174,0,0,0,0,0,0,0,0,0,-1,1224,1198,0,0
7,-174,0,0,0,0,0,0,0,0,0,-1,1231,1198,0,0
14,-174,0,0,0,0,0,0,0,0,0,-1,1238,1198,0,0
21,-174,0,0,0,0,0,0,0,0,0,-1,1245,1198,0,0
28,-174,0,0,0,0,0,0,0,0,0,-1,1252,1198,0,0
35,-174,0,0,0,0,0,0,0,0,0,-1,1259,1198,0,0
42,-174,0,0,0,0,0,0,0,0,0,-1,1266,1198,0,0
49,-174,0,0,0,0,0,0,0,0,0,-1,1273,1198,0,0
56,-174,0,0,0,0,0,0,0,0,0,-1,1280,1198,0,0
63,-174,0,0,0,0,0,0,0,0,0,-1,1287,1198,0,0
70,-174,0,0,0,0,0,0,0,0,0,-1,1294,1198,0,0
77,-174,0,0,0,0,0,0,0,0,0,-1,1301,1198,0,0
84,-174,0,0,0,0,0,0,0,0,0,-1,1308,1198,0,0
91,-174,0,0,0,0,0,0,0,0,0,-1,1315,1198,0,0
98,-174,0,0,0,0,0,0,0,0,0,-1,1322,1198,0,0
105,-174,0,0,0,0,0,0,0,0,0,-1,1329,1198,0,0
112,-174,0,0,0,0,0,0,0,0,0,-1,1336,1198,0,0
119,-174,0,0,0,0,0,0,0,0,0,-1,1343,1198,0,0
126,-174,0,0,0,0,0,0,0,0,0,-1,1350,1198,0,0
133,-174,0,0,0,0,0,0,0,0,0,-1,1357,1198,0,0
140,-174,0,0,0,0,0,0,0,0,0,-1,1364,1198,0,0
147,-174,0,0,0,0,0,0,0,0,0,-1,1371,1198,0,0
154,-174,0,0,0,0,0,0,0,0,0,-1,1378,1198,0,0
161,-174,0,0,0,0,0,0,0,0,0,-1,1385,1198,0,0
168,-174,0,0,0,0,0,0,0,0,0,-1,1392,1198,0,0
175,-174,0,0,0,0,0,0,0,0,0,-1,1399,1198,0,0
182,-174,0,0,0,0,0,0,0,0,0,-1,1406,1198,0,0
189,-174,0,0,0,0,0,0,0,0,0,-1,1413,1198,0,0
196,-174,0,0,0,0,0,0,0,0,0,-1,1420,1198,0,0
203,-174,0,0,0,0,0,0,0,0,0,-1,1427,1198,0,0
210,-174,0,0,0,0,0,0,0,0,0,-1,1434,1198,0,0
217,-174,0,0,0,0,0,0,0,0,0,-1,1441,1198,0,0
224,-174,0,0,0,0,0,0,0,0,0,-1,1448,1198,0,0
231,-174,0,0,0,0,0,0,0,0,0,-1,1455,1198,0,0
238,-174,0,0,0,0,0,0,0,0,0,-1,1462,1198,0,0
245,-174,0,0,0,0,0,0,0,0,0,-1,1469,1198,0,0
252,-174,0,0,0,0,0,0,0,0,0,-1,1476,1198,0,0
259,-174,0,0,0,0,0,0,0,0,0,-1,1483,1198,0,0
266,-174,0,0,0,0,0,0,0,0,0,-1,1490,1198,0,0
273,-174,0,0,0,0,0,0,0,0,0,-1,1497,1198,0,0
280,-174,0,0,0,0,0,0,0,0,0,-1,1504,1198,0,0
287,-174,0,0,0,0,0,0,0,0,0,-1,1511,1198,0,0
294,-174,0,0,0,0,0,0,0,0,0,-1,1518,1198,0,0
301,-174,0,0,0,0,0,0,0,0,0,-1,1525,1198,0,0
308,-174,0,0,0,0,0,0,0,0,0,-1,1532,1198,0,0
315,-174,0,0,0,0,0,0,0,0,0,-1,1539,1198,0,0
322,-174,0,0,0,0,0,0,0,0,0,-1,1546,1198,0,0
329,-174,0,0,0,0,0,0,0,0,0,-1,1553,1198,0,0
336,-174,0,0,0,0,0,0,0,0,0,-1,1560,1198,0,0
343,-174,0,0,0,0,0,0,0,0,0,-1,1567,1198,0,0
350,-174,0,0,0,0,0,0,0,0,0,-1,1574,1198,0,0
357,-174,0,0,0,0,0,0,0,0,0,-1,1581,1198,0,0
364,-174,0,0,0,0,0,0,0,0,0,-1,1588,1198,0,0
371,-174,0,0,0,0,0,0,0,0,0,-1,1595,1198,0,0
378,-174,0,0,0,0,0,0,0,0,0,-1,1602,1198,0,0
385,-174,0,0,0,0,0,0,0,0,0,-1,1609,1198,0,0
392,-174,0,0,0,0,0,0,0,0,0,-1,1616,1198,0,0
399,-174,0,0,0,0,0,0,0,0,0,-1,1623,1198,0,0
406,-174,0,0,0,0,0,0,0,0,0,-1,1630,1198,0,0
413,-174,0,0,0,0,0,0,0,0,0,-1,1637,1198,0,0
420,-174,0,0,0,0,0,0,0,0,0,-1,1644,1198,0,0
427,-174,0,0,0,0,0,0,0,0,0,-1,1651,1198,0,0
434,-174,0,0,0,0,0,0,0,0,0,-1,1658,1198,0,0
441,-174,0,0,0,0,0,0,0,0,0,-1,1665,1198,0,0
448,-174,0,0,0,0,0,0,0,0,0,-1,1672,1198,0,0
455,-174,0,0,0,0,0,0,0,0,0,-1,1679,1198,0,0
462,-174,0,0,0,0,0,0,0,0,0,-1,1686,1198,0,0
469,-174,0,0,0,0,0,0,0,0,0,-1,1693,1198,0,0
476,-174,0,0,0,0,0,0,0,0,0,-1,1700,1198,0,0
483,-174,0,0,0,0,0,0,0,0,0,-1,1707,1198,0,0
490,-174,0,0,0,0,0,0,0,0,0,-1,1714,1198,0,0
497,-174,0,0,0,0,0,0,0,0,0,-1,1721,1198,0,0
504,-174,0,0,0,0,0,0,0,0,0,-1,1728,1198,0,0
511,-174,0,0,0,0,0,0,0,0,0,-1,1735,1198,0,0
518,-174,0,0,0,0,0,0,0,0,0,-1,1742,1198,0,0
525,-174,0,0,0,0,0,0,0,0,0,-1,1749,1198,0,0
532,-174,0,0,0,0,0,0,0,0,0,-1,1756,1198,0,0
539,-174,0,0,0,0,0,0,0,0,0,-1,1763,1198,0,0
546,-174,0,0,0,0,0,0,0,0,0,-1,1770,1198,0,0
553,-174,0,0,0,0,0,0,0,0,0,-1,1777,1198,0,0
560,-174,0,0,0,0,0,0,0,0,0,-1,1784,1198,0,0
567,-174,0,0,0,0,0,0,0,0,0,-1,1791,1198,0,0
574,-174,0,0,0,0,0,0,0,0,0,-1,1798,1198,0,0
581,-174,0,0,0,0,0,0,0,0,0,-1,1805,1198,0,0
588,-174,0,0,0,0,0,0,0,0,0,-1,1812,1198,0,0
595,-174,0,0,0,0,0,0,0,0,0,-1,1819,1198,0,0
602,-174,0,0,0,0,0,0,0,0,0,-1,1826,1198,0,0
609,-174,0,0,0,0,0,0,0,0,0,-1,1833,1198,0,0
616,-174,0,0,0,0,0,0,0,0,0,-1,1840,1198,0,0
623,-174,0,0,0,0,0,0,0,0,0,-1,1847,1198,0,0
630,-174,0,0,0,0,0,0,0,0,0,-1,1854,1198,0,0
637,-174,11.5828,2.40796,-0.000677085,-0.000876201,0.00259315,0.00181842,-0.00337171,0.766211,0.00304092,0.0426311,1861,1198,11.5827,-2.40799
644,-174,11.5896,2.06519,-0.000689472,-0.000430911,0.00120864,0.000655346,-0.00177573,0.838677,0.00145242,0.042167,1868,1198,11.5896,-2.06514
651,-174,11.5457,1.79944,-0.00102649,-0.000137691,0.000542669,0.000119322,-0.00128351,1.12848,0.000898092,0.0426967,1875,1198,11.5457,-1.7995
658,-174,11.4895,1.83997,-0.00177914,-0.000197473,0.000435535,-8.54735e-05,-0.00189114,1.3191,0.00123326,0.0397343,1882,1198,11.4895,-1.83995
665,-174,11.5278,1.88245,-0.00266027,-0.000392859,0.000618819,-0.000234967,-0.00281816,1.32098,0.00180555,0.0349733,1889,1198,11.5279,-1.88248
672,-174,11.6284,1.724,-0.00346584,-0.000631872,0.000917769,-0.00036062,-0.0037371,1.28342,0.00238031,0.0267916,1896,1198,11.6284,-1.72397
679,-174,11.7004,1.67896,-0.00416222,-0.00086279,0.00126044,-0.000436385,-0.00458862,1.24458,0.00292449,0.0219847,1903,1198,11.7004,-1.67895
686,-174,11.7498,1.74988,-0.00460983,-0.00114947,0.00148401,-0.000600219,-0.00515908,1.21632,0.0032578,0.0479877,1910,1198,11.7497,-1.74989
693,-174,11.7903,1.8551,0,0,0,0,0,0,0,-1,1917,1198,11.7903,-1.85507
700,-174,10.8717,2.68921,0,0,0,0,0,0,0,-1,1924,1198,10.8717,-2.68916
707,-174,10.9575,2.58972,-0.00486391,-0.00144618,0.00194443,-0.000566414,-0.00574368,1.1459,0.00365497,0.0297807,1931,1198,10.9575,-2.5897
714,-174,10.9329,2.44482,-0.00474433,-0.00136073,0.00190867,-0.000502003,-0.00560306,1.14802,0.00357979,0.0182063,1938,1198,10.9329,-2.44482
721,-174,10.9,2.35681,-0.00434531,-0.00115564,0.00175123,-0.000381869,-0.00511908,1.15474,0.00329282,0.0151472,1945,1198,10.9,-2.35681
728,-174,10.8717,2.32373,-0.00338369,-0.00071,0.00141177,-0.000102561,-0.00399113,1.16447,0.00262723,0.0118659,1952,1198,10.8716,-2.3237
735,-174,10.8547,2.27258,-0.00227429,4.85474e-05,0.00086921,0.00033779,-0.00256353,1.24956,0.00183203,0.0111205,1959,1198,10.8547,-2.2726
742,-174,10.8856,2.2218,-0.00125752,0.000974102,0.000103726,0.000978912,-0.00126233,1.52445,0.00129743,0.0184276,1966,1198,10.8857,-2.22184
749,-174,10.8871,2.17969,-0.000463261,0.00155739,-0.00143806,0.00230456,-0.00121043,-1.09162,0.00206189,0.0167775,1973,1198,10.8871,-2.17967
756,-174,10.8495,2.10181,4.07264e-05,0.00222845,-0.00390954,0.00519428,-0.0029251,-0.921806,0.00474836,0.0105907,1980,1198,10.8495,-2.10176
763,-174,10.8342,2.00964,-2.40268e-05,0.00156032,-0.00652939,0.00734542,-0.00580912,-0.845765,0.00761202,0.013122,1987,1198,10.8342,-2.00967
770,-174,10.8551,1.96997,-0.000557502,0.000864995,-0.0101596,0.0103382,-0.0100307,-0.820345,0.0117605,0.0231091,1994,1198,10.8551,-1.96994
777,-174,10.9346,1.83655,0,0,0,0,0,0,0,-1,2001,1198,10.9346,-1.83657
784,-174,10.6844,1.25745,0,0,0,0,0,0,0,-1,2008,1198,10.6844,-1.2574
791,-174,12.0848,1.31274,0,0,0,0,0,0,0,-1,2015,1198,12.0849,-1.31277
798,-174,10.5342,1.85815,0,0,0,0,0,0,0,-1,2022,1198,10.5342,-1.85813
805,-174,11.1412,2.01404,0,0,0,0,0,0,0,-1,2029,1198,11.1413,-2.01407
812,-174,0,0,0,0,0,0,0,0,0,-1,2036,1198,0,0
-700,-181,0,0,0,0,0,0,0,0,0,-1,524,1205,0,0
-693,-181,0,0,0,0,0,0,0,0,0,-1,531,1205,0,0
-686,-181,-7.12628,-0.769775,0,0,0,0,0,0,0,-1,538,1205,-7.12625,0.769747
-679,-181,-7.06586,0.72168,0,0,0,0,0,0,0,-1,545,1205,-7.06586,-0.721647
-672,-181,-4.73969,0.373413,-0.00849101,-0.00488749,-0.000265246,-0.00486807,-0.00851043,-1.49771,0.00493045,0.0489339,552,1205,-4.73968,-0.373354
-665,-181,-4.72162,0.240601,-0.00153302,-0.00290014,-0.00133224,-0.000719205,-0.00371395,-0.548365,0.00227446,0.0450143,559,1205,-4.72163,-0.240574
-658,-181,-4.8894,0.296509,0.00254673,-0.00169374,-0.00170815,0.00314921,-0.00229622,-0.339086,0.00315675,0.0439515,566,1205,-4.88939,-0.296528
-651,-181,-5.06036,0.546509,0.00459632,-0.000960547,-0.0017015,0.00507592,-0.00144015,-0.274742,0.00395244,0.0471176,573,1205,-5.06038,-0.546525
-644,-181,-4.93518,0.592163,0.00526545,-0.000512562,-0.00148871,0.00562646,-0.000873573,-0.237907,0.00407351,0.0434816,580,1205,-4.93517,-0.592191
-637,-181,-4.83038,0.619873,0.00505314,-0.000220539,-0.00119909,0.00531298,-0.000480378,-0.213397,0.00371249,0.0234143,587,1205,-4.83037,-0.619873
-630,-181,-4.83557,0.740479,0.00419105,0.000133885,-0.00128661,0.00456466,-0.000239723,-0.282609,0.00312608,0.011712,594,1205,-4.83555,-0.740483
-623,-181,-4.86243,0.795898,0.00349207,0.000543376,-0.00168056,0.00425334,-0.000217895,-0.425334,0.00291091,0.0138715,601,1205,-4.86244,-0.795936
-616,-181,-4.85718,0.881714,0.00256849,-0.000642253,-0.0013457,0.0030579,-0.00113167,-0.348817,0.00250262,0.0138605,608,1205,-4.85717,-0.881692
-609,-181,-4.84314,0.965698,0.000382834,-0.00121543,-0.00144599,0.00123582,-0.00206842,-0.532958,0.00192778,0.0129941,615,1205,-4.84313,-0.965644
-602,-181,-4.85132,1.02979,-0.00222255,-0.0019112,-0.00200549,-5.53527e-05,-0.0040784,-0.824132,0.00270067,0.0111338,622,1205,-4.85129,-1.0298
-595,-181,-4.84747,1.09521,-0.00307703,-0.00248454,-0.00289498,0.000129314,-0.00569088,-0.836387,0.00383775,0.0114728,629,1205,-4.84749,-1.09523
-588,-181,-4.85059,1.18726,-0.00396595,-0.00287179,-0.00365326,0.000275122,-0.00711287,-0.859721,0.00483623,0.0107232,636,1205,-4.85059,-1.18725
-581,-181,-4.86505,1.28418,-0.00458789,-0.00357733,-0.00405612,4.86476e-06,-0.00817008,-0.847365,0.00544834,0.0115043,643,1205,-4.86507,-1.28412
-574,-181,-4.95856,1.26904,-0.00468688,-0.00401317,-0.00437523,3.81521e-05,-0.0087382,-0.823818,0.00583823,0.0271999,650,1205,-4.95856,-1.26904
-567,-181,-5.20612,0.749268,0,0,0,0,0,0,0,-1,657,1205,-5.20611,-0.749314
-560,-181,-5.42615,0.802368,-0.00473094,-0.00436273,-0.00454948,6.36559e-06,-0.00910003,-0.805621,0.00606881,0.046267,664,1205,-5.42617,-0.802328
-553,-181,-5.80011,0.779785,-0.00434754,-0.00422026,-0.00429846,1.50297e-05,-0.00858283,-0.7928,0.0057269,0.0454216,671,1205,-5.80014,-0.779742
-546,-181,-5.83917,0.849121,-0.00361664,-0.00380337,-0.00372537,1.65373e-05,-0.00743654,-0.77287,0.00496322,0.0355407,678,1205,-5.83917,-0.849091
-539,-181,-5.77563,0.807617,-0.00252202,-0.00309345,-0.00273889,-5.39797e-05,-0.00556149,-0.733427,0.0036898,0.037498,685,1205,-5.77562,-0.807673
-532,-181,-5.87207,0.775146,-0.00098494,-0.0021215,-0.00121667,-0.000210375,-0.00289607,-0.566916,0.00186455,0.0439934,692,1205,-5.87207,-0.775148
-525,-181,-5.88733,0.799438,0.000850307,-0.000972015,0.000899132,0.00121924,-0.00134095,0.389377,0.00147869,0.0417531,699,1205,-5.8873,-0.799433
-518,-181,-5.64734,0.651733,0.00245438,4.82381e-05,0.00322288,0.00469142,-0.0021888,0.606762,0.00405894,0.0392267,706,1205,-5.64735,-0.651761
-511,-181,0,0,0,0,0,0,0,0,0,-1,713,1205,0,0
-504,-181,0,0,0,0,0,0,0,0,0,-1,720,1205,0,0
-497,-181,0,0,0,0,0,0,0,0,0,-1,727,1205,0,0
-490,-181,0,0,0,0,0,0,0,0,0,-1,734,1205,0,0
-483,-181,0,0,0,0,0,0,0,0,0,-1,741,1205,0,0
-476,-181,0,0,0,0,0,0,0,0,0,-1,748,1205,0,0
-469,-181,0,0,0,0,0,0,0,0,0,-1,755,1205,0,0
-462,-181,0,0,0,0,0,0,0,0,0,-1,762,1205,0,0
-455,-181,0,0,0,0,0,0,0,0,0,-1,769,1205,0,0
-448,-181,0,0,0,0,0,0,0,0,0,-1,776,1205,0,0
-441,-181,0,0,0,0,0,0,0,0,0,-1,783,1205,0,0
-434,-181,0,0,0,0,0,0,0,0,0,-1,790,1205,0,0
-427,-181,0,0,0,0,0,0,0,0,0,-1,797,1205,0,0
-420,-181,0,0,0,0,0,0,0,0,0,-1,804,1205,0,0
-413,-181,0,0,0,0,0,0,0,0,0,-1,811,1205,0,0
-406,-181,0,0,0,0,0,0,0,0,0,-1,818,1205,0,0
-399,-181,0,0,0,0,0,0,0,0,0,-1,825,1205,0,0
-392,-181,0,0,0,0,0,0,0,0,0,-1,832,1205,0,0
-385,-181,0,0,0,0,0,0,0,0,0,-1,839,1205,0,0
-378,-181,0,0,0,0,0,0,0,0,0,-1,846,1205,0,0
-371,-181,0,0,0,0,0,0,0,0,0,-1,853,1205,0,0
-364,-181,0,0,0,0,0,0,0,0,0,-1,860,1205,0,0
-357,-181,0,0,0,0,0,0,0,0,0,-1,867,1205,0,0
-350,-181,0,0,0,0,0,0,0,0,0,-1,874,1205,0,0
-343,-181,0,0,0,0,0,0,0,0,0,-1,881,1205,0,0
-336,-181,0,0,0,0,0,0,0,0,0,-1,888,1205,0,0
-329,-181,0,0,0,0,0,0,0,0,0,-1,895,1205,0,0
-322,-181,0,0,0,0,0,0,0,0,0,-1,902,1205,0,0
-315,-181,0,0,0,0,0,0,0,0,0,-1,909,1205,0,0
-308,-181,0,0,0,0,0,0,0,0,0,-1,916,1205,0,0
-301,-181,0,0,0,0,0,0,0,0,0,-1,923,1205,0,0
-294,-181,0,0,0,0,0,0,0,0,0,-1,930,1205,0,0
-287,-181,0,0,0,0,0,0,0,0,0,-1,937,1205,0,0
-280,-181,0,0,0,0,0,0,0,0,0,-1,944,1205,0,0
-273,-181,0,0,0,0,0,0,0,0,0,-1,951,1205,0,0
-266,-181,0,0,0,0,0,0,0,0,0,-1,958,1205,0,0
-259,-181,0,0,0,0,0,0,0,0,0,-1,965,1205,0,0
-252,-181,0,0,0,0,0,0,0,0,0,-1,972,1205,0,0
-245,-181,0,0,0,0,0,0,0,0,0,-1,979,1205,0,0
-238,-181,0,0,0,0,0,0,0,0,0,-1,986,1205,0,0
-231,-181,0,0,0,0,0,0,0,0,0,-1,993,1205,0,0
-224,-181,0,0,0,0,0,0,0,0,0,-1,1000,1205,0,0
-217,-181,0,0,0,0,0,0,0,0,0,-1,1007,1205,0,0
-210,-181,0,0,0,0,0,0,0,0,0,-1,1014,1205,0,0
-203,-181,0,0,0,0,0,0,0,0,0,-1,1021,1205,0,0
-196,-181,0,0,0,0,0,0,0,0,0,-1,1028,1205,0,0
-189,-181,0,0,0,0,0,0,0,0,0,-1,1035,1205,0,0
-182,-181,0,0,0,0,0,0,0,0,0,-1,1042,1205,0,0
-175,-181,0,0,0,0,0,0,0,0,0,-1,1049,1205,0,0
-168,-181,0,0,0,0,0,0,0,0,0,-1,1056,1205,0,0
-161,-181,0,0,0,0,0,0,0,0,0,-1,1063,1205,0,0
-154,-181,0,0,0,0,0,0,0,0,0,-1,1070,1205,0,0
-147,-181,0,0,0,0,0,0,0,0,0,-1,1077,1205,0,0
-140,-181,0,0,0,0,0,0,0,0,0,-1,1084,1205,0,0
-133,-181,0,0,0,0,0,0,0,0,0,-1,1091,1205,0,0
-126,-181,0,0,0,0,0,0,0,0,0,-1,1098,1205,0,0
-119,-181,0,0,0,0,0,0,0,0,0,-1,1105,1205,0,0
-112,-181,0,0,0,0,0,0,0,0,0,-1,1112,1205,0,0
-105,-181,0,0,0,0,0,0,0,0,0,-1,1119,1205,0,0
-98,-181,0,0,0,0,0,0,0,0,0,-1,1126,1205,0,0
-91,-181,0,0,0,0,0,0,0,0,0,-1,1133,1205,0,0
-84,-181,0,0,0,0,0,0,0,0,0,-1,1140,1205,0,0
-77,-181,0,0,0,0,0,0,0,0,0,-1,1147,1205,0,0
-70,-181,0,0,0,0,0,0,0,0,0,-1,1154,1205,0,0
-63,-181,0,0,0,0,0,0,0,0,0,-1,1161,1205,0,0
-56,-181,0,0,0,0,0,0,0,0,0,-1,1168,1205,0,0
-49,-181,0,0,0,0,0,0,0,0,0,-1,1175,1205,0,0
-42,-181,0,0,0,0,0,0,0,0,0,-1,1182,1205,0,0
-35,-181,0,0,0,0,0,0,0,0,0,-1,1189,1205,0,0
-28,-181,0,0,0,0,0,0,0,0,0,-1,1196,1205,0,0
-21,-181,0,0,0,0,0,0,0,0,0,-1,1203,1205,0,0
-14,-181,0,0,0,0,0,0,0,0,0,-1,1210,1205,0,0
-7,-181,0,0,0,0,0,0,0,0,0,-1,1217,1205,0,0
0,-181,0,0,0,0,0,0,0,0,0,-1,1224,1205,0,0
7,-181,0,0,0,0,0,0,0,0,0,-1,1231,1205,0,0
14,-181,0,0,0,0,0,0,0,0,0,-1,1238,1205,0,0
21,-181,0,0,0,0,0,0,0,0,0,-1,1245,1205,0,0
28,-181,0,0,0,0,0,0,0,0,0,-1,1252,1205,0,0
35,-181,0,0,0,0,0,0,0,0,0,-1,1259,1205,0,0
42,-181,0,0,0,0,0,0,0,0,0,-1,1266,1205,0,0
49,-181,0,0,0,0,0,0,0,0,0,-1,1273,1205,0,0
56,-181,0,0,0,0,0,0,0,0,0,-1,1280,1205,0,0
63,-181,0,0,0,0,0,0,0,0,0,-1,1287,1205,0,0
70,-181,0,0,0,0,0,0,0,0,0,-1,1294,1205,0,0
77,-181,0,0,0,0,0,0,0,0,0,-1,1301,1205,0,0
84,-181,0,0,0,0,0,0,0,0,0,-1,1308,1205,0,0
91,-181,0,0,0,0,0,0,0,0,0,-1,1315,1205,0,0
98,-181,0,0,0,0,0,0,0,0,0,-1,1322,1205,0,0
105,-181,0,0,0,0,0,0,0,0,0,-1,1329,1205,0,0
112,-181,0,0,0,0,0,0,0,0,0,-1,1336,1205,0,0
119,-181,0,0,0,0,0,0,0,0,0,-1,1343,1205,0,0
126,-181,0,0,0,0,0,0,0,0,0,-1,1350,1205,0,0
133,-181,0,0,0,0,0,0,0,0,0,-1,1357,1205,0,0
140,-181,0,0,0,0,0,0,0,0,0,-1,1364,1205,0,0
147,-181,0,0,0,0,0,0,0,0,0,-1,1371,1205,0,0
154,-181,0,0,0,0,0,0,0,0,0,-1,1378,1205,0,0
161,-181,0,0,0,0,0,0,0,0,0,-1,1385,1205,0,0
168,-181,0,0,0,0,0,0,0,0,0,-1,1392,1205,0,0
175,-181,0,0,0,0,0,0,0,0,0,-1,1399,1205,0,0
182,-181,0,0,0,0,0,0,0,0,0,-1,1406,1205,0,0
189,-181,0,0,0,0,0,0,0,0,0,-1,1413,1205,0,0
196,-181,0,0,0,0,0,0,0,0,0,-1,1420,1205,0,0
203,-181,0,0,0,0,0,0,0,0,0,-1,1427,1205,0,0
210,-181,0,0,0,0,0,0,0,0,0,-1,1434,1205,0,0
217,-181,0,0,0,0,0,0,0,0,0,-1,1441,1205,0,0
224,-181,0,0,0,0,0,0,0,0,0,-1,1448,1205,0,0
231,-181,0,0,0,0,0,0,0,0,0,-1,1455,1205,0,0
238,-181,0,0,0,0,0,0,0,0,0,-1,1462,1205,0,0
245,-181,0,0,0,0,0,0,0,0,0,-1,1469,1205,0,0
252,-181,0,0,0,0,0,0,0,0,0,-1,1476,1205,0,0
259,-181,0,0,0,0,0,0,0,0,0,-1,1483,1205,0,0
266,-181,0,0,0,0,0,0,0,0,0,-1,1490,1205,0,0
273,-181,0,0,0,0,0,0,0,0,0,-1,1497,1205,0,0
280,-181,0,0,0,0,0,0,0,0,0,-1,1504,1205,0,0
287,-181,0,0,0,0,0,0,0,0,0,-1,1511,1205,0,0
294,-181,0,0,0,0,0,0,0,0,0,-1,1518,1205,0,0
301,-181,0,0,0,0,0,0,0,0,0,-1,1525,1205,0,0
308,-181,0,0,0,0,0,0,0,0,0,-1,1532,1205,0,0
315,-181,0,0,0,0,0,0,0,0,0,-1,1539,1205,0,0
322,-181,0,0,0,0,0,0,0,0,0,-1,1546,1205,0,0
329,-181,0,0,0,0,0,0,0,0,0,-1,1553,1205,0,0
336,-181,0,0,0,0,0,0,0,0,0,-1,1560,1205,0,0
343,-181,0,0,0,0,0,0,0,0,0,-1,1567,1205,0,0
350,-181,0,0,0,0,0,0,0,0,0,-1,1574,1205,0,0
357,-181,0,0,0,0,0,0,0,0,0,-1,1581,1205,0,0
364,-181,0,0,0,0,0,0,0,0,0,-1,1588,1205,0,0
371,-181,0,0,0,0,0,0,0,0,0,-1,1595,1205,0,0
378,-181,0,0,0,0,0,0,0,0,0,-1,1602,1205,0,0
385,-181,0,0,0,0,0,0,0,0,0,-1,1609,1205,0,0
392,-181,0,0,0,0,0,0,0,0,0,-1,1616,1205,0,0
399,-181,0,0,0,0,0,0,0,0,0,-1,1623,1205,0,0
406,-181,0,0,0,0,0,0,0,0,0,-1,1630,1205,0,0
413,-181,0,0,0,0,0,0,0,0,0,-1,1637,1205,0,0
420,-181,0,0,0,0,0,0,0,0,0,-1,1644,1205,0,0
427,-181,0,0,0,0,0,0,0,0,0,-1,1651,1205,0,0
434,-181,0,0,0,0,0,0,0,0,0,-1,1658,1205,0,0
441,-181,0,0,0,0,0,0,0,0,0,-1,1665,1205,0,0
448,-181,0,0,0,0,0,0,0,0,0,-1,1672,1205,0,0
455,-181,0,0,0,0,0,0,0,0,0,-1,1679,1205,0,0
462,-181,0,0,0,0,0,0,0,0,0,-1,1686,1205,0,0
469,-181,0,0,0,0,0,0,0,0,0,-1,1693,1205,0,0
476,-181,0,0,0,0,0,0,0,0,0,-1,1700,1205,0,0
483,-181,0,0,0,0,0,0,0,0,0,-1,1707,1205,0,0
490,-181,0,0,0,0,0,0,0,0,0,-1,1714,1205,0,0
497,-181,0,0,0,0,0,0,0,0,0,-1,1721,1205,0,0
504,-181,0,0,0,0,0,0,0,0,0,-1,1728,1205,0,0
511,-181,0,0,0,0,0,0,0,0,0,-1,1735,1205,0,0
518,-181,0,0,0,0,0,0,0,0,0,-1,1742,1205,0,0
525,-181,0,0,0,0,0,0,0,0,0,-1,1749,1205,0,0
532,-181,0,0,0,0,0,0,0,0,0,-1,1756,1205,0,0
539,-181,0,0,0,0,0,0,0,0,0,-1,1763,1205,0,0
546,-181,0,0,0,0,0,0,0,0,0,-1,1770,1205,0,0
553,-181,0,0,0,0,0,0,0,0,0,-1,1777,1205,0,0
560,-181,0,0,0,0,0,0,0,0,0,-1,1784,1205,0,0
567,-181,0,0,0,0,0,0,0,0,0,-1,1791,1205,0,0
574,-181,0,0,0,0,0,0,0,0,0,-1,1798,1205,0,0
581,-181,0,0,0,0,0,0,0,0,0,-1,1805,1205,0,0
588,-181,0,0,0,0,0,0,0,0,0,-1,1812,1205,0,0
595,-181,0,0,0,0,0,0,0,0,0,-1,1819,1205,0,0
602,-181,0,0,0,0,0,0,0,0,0,-1,1826,1205,0,0
609,-181,0,0,0,0,0,0,0,0,0,-1,1833,1205,0,0
616,-181,0,0,0,0,0,0,0,0,0,-1,1840,1205,0,0
623,-181,0,0,0,0,0,0,0,0,0,-1,1847,1205,0,0
630,-181,11.7819,1.84106,7.21239e-05,0.00144502,0.00317783,0.0040097,-0.00249256,0.891769,0.00378799,0.0388186,1854,1205,11.7819,-1.84104
637,-181,11.6503,2.0116,-0.000126691,0.000934392,0.00188474,0.00236184,-0.00155414,0.922595,0.00227686,0.0406285,1861,1205,11.6503,-2.01158
644,-181,11.5287,2.07324,-0.000320499,0.000948476,0.000935619,0.00144446,-0.000816479,1.08335,0.00132203,0.0440409,1868,1205,11.5287,-2.07321
651,-181,11.7551,1.45264,0,0,0,0,0,0,0,-1,1875,1205,11.7552,-1.45259
658,-181,11.5397,1.81641,-0.00176488,0.000406411,0.000697972,0.000611421,-0.00196989,1.28511,0.0015576,0.0357746,1882,1205,11.5397,-1.81639
665,-181,11.5806,1.79321,-0.00266912,1.00919e-05,0.000936444,0.000304949,-0.00296398,1.26575,0.00208508,0.0328557,1889,1205,11.5805,-1.79323
672,-181,11.6827,1.75623,-0.00345648,-0.000365097,0.00123192,6.57709e-05,-0.00388735,1.23434,0.00261376,0.0253449,1896,1205,11.6828,-1.75621
679,-181,11.7422,1.69312,-0.00411662,-0.000667502,0.00153541,-8.30395e-05,-0.00470108,1.20708,0.00310674,0.0295731,1903,1205,11.7422,-1.6931
686,-181,11.7823,1.60168,-0.00451365,-0.000999023,0.0016951,-0.000314716,-0.00519795,1.18711,0.00336531,0.048789,1910,1205,11.7824,-1.60173
693,-181,10.4637,2.78699,0,0,0,0,0,0,0,-1,1917,1205,10.4637,-2.78701
700,-181,10.7485,2.65588,-0.00469307,-0.00130202,0.00195798,-0.000407466,-0.00558762,1.14224,0.00359696,0.0461834,1924,1205,10.7486,-2.65592
707,-181,10.9366,2.5531,-0.00462592,-0.00137426,0.00196924,-0.000446425,-0.00555376,1.13048,0.00356303,0.0216262,1931,1205,10.9367,-2.55308
714,-181,10.8698,2.44849,-0.00444662,-0.00126908,0.00185649,-0.000414339,-0.00530136,1.13932,0.00340454,0.015644,1938,1205,10.8698,-2.4485
721,-181,10.8181,2.38293,-0.00400574,-0.00101377,0.00159777,-0.000320958,-0.00469855,1.16165,0.00303105,0.0120237,1945,1205,10.8181,-2.38288
728,-181,10.8011,2.32922,-0.00301143,-0.000538732,0.00121679,-4.03931e-05,-0.00350977,1.18208,0.0023265,0.0107437,1952,1205,10.8012,-2.32924
735,-181,10.793,2.27307,-0.00180227,0.000306848,0.000644692,0.0004883,-0.00198372,1.29644,0.00151176,0.0107719,1959,1205,10.793,-2.27301
742,-181,10.7885,2.23706,-0.000750205,0.00122948,-6.91503e-05,0.00123189,-0.000752617,-1.53592,0.00115684,0.0161503,1966,1205,10.7885,-2.23701
749,-181,10.8214,2.16321,0.000151645,0.00196684,-0.00140484,0.00273176,-0.000613273,-1.07219,0.00205631,0.0148476,1973,1205,10.8214,-2.16316
756,-181,10.804,2.09082,0.000848767,0.00297742,-0.00354927,0.00561851,-0.00179232,-0.931068,0.00446469,0.0109305,1980,1205,10.804,-2.09076
763,-181,10.7987,2.02112,0.00121655,0.00335269,-0.00578798,0.00817033,-0.00360108,-0.876638,0.0069648,0.011573,1987,1205,10.7987,-2.02111
770,-181,10.8281,1.93823,0.00123888,0.00373783,-0.00905611,0.0116303,-0.00665355,-0.853951,0.0106857,0.022856,1994,1205,10.8282,-1.93828
777,-181,10.875,1.83447,0.000791396,0.00358278,-0.0138712,0.0161283,-0.0117542,-0.835538,0.0161639,0.0437072,2001,1205,10.875,-1.83449
784,-181,10.9302,1.73254,0,0,0,0,0,0,0,-1,2008,1205,10.9301,-1.7325
791,-181,12.7412,1.89819,0,0,0,0,0,0,0,-1,2015,1205,12.7412,-1.89813
798,-181,11.8602,1.98547,0,0,0,0,0,0,0,-1,2022,1205,11.8603,-1.98551
805,-181,0,0,0,0,0,0,0,0,0,-1,2029,1205,0,0
812,-181,0,0,0,0,0,0,0,0,0,-1,2036,1205,0,0
-700,-188,0,0,0,0,0,0,0,0,0,-1,524,1212,0,0
-693,-188,0,0,0,0,0,0,0,0,0,-1,531,1212,0,0
-686,-188,0,0,0,0,0,0,0,0,0,-1,538,1212,0,0
-679,-188,-2.19238,2.21936,0,0,0,0,0,0,0,-1,545,1212,-2.19236,-2.21931
-672,-188,-4.95483,0.161499,0,0,0,0,0,0,0,-1,552,1212,-4.95485,-0.161555
-665,-188,-4.92773,-0.0482178,-0.00779125,-0.00177139,-0.00390539,0.000149372,-0.00971201,-1.11371,0.00652504,0.0491201,559,1212,-4.92772,0.0481576
-658,-188,-4.7793,0.232056,-0.00209449,-0.000862099,-0.00364935,0.00222271,-0.0051793,-0.869035,0.00438572,0.0437442,566,1212,-4.77929,-0.232092
-651,-188,-4.83801,0.915405,0.00121063,-0.000347028,-0.00310178,0.00362986,-0.00276626,-0.662396,0.00370401,0.0414221,573,1212,-4.83798,-0.915352
-644,-188,-4.86273,0.632446,0.00285955,-5.55573e-05,-0.00245101,0.00425365,-0.00144965,-0.51715,0.00342288,0.0398812,580,1212,-4.86274,-0.63249
-637,-188,-4.74536,0.651245,0.00342423,0.000100219,-0.00181926,0.00422636,-0.000701912,-0.415269,0.00307834,0.0206583,587,1212,-4.74536,-0.651227
-630,-188,-4.77777,0.746216,0.00319533,0.000344872,-0.00163348,0.00393794,-0.000397742,-0.426689,0.00276742,0.00977917,594,1212,-4.77776,-0.746182
-623,-188,-4.79297,0.803955,0.0030618,0.000701956,-0.00174968,0.00399224,-0.00022848,-0.488742,0.00274083,0.0105087,601,1212,-4.79295,-0.803911
-616,-188,-4.7804,0.876343,0.002585,-0.000466868,-0.00119069,0.00299458,-0.000876446,-0.331306,0.00234381,0.0101323,608,1212,-4.78038,-0.876391
-609,-188,-4.76208,0.973267,0.000781271,-0.000981594,-0.0011839,0.00137583,-0.00157615,-0.465408,0.00170564,0.0118597,615,1212,-4.76207,-0.973259
-602,-188,-4.76526,1.06555,-0.00154534,-0.00185221,-0.00170142,9.55001e-06,-0.0034071,-0.74043,0.00227459,0.0144886,622,1212,-4.76528,-1.0656
-595,-188,-4.77258,1.12219,-0.00233607,-0.00242649,-0.00259394,0.000213049,-0.00497561,-0.776684,0.00339033,0.0117089,629,1212,-4.77255,-1.12214
-588,-188,-4.7713,1.20325,-0.00329606,-0.0027749,-0.00338794,0.000362469,-0.00643343,-0.82378,0.00441474,0.00968459,636,1212,-4.77133,-1.20324
-581,-188,-4.77661,1.30005,-0.00399965,-0.00335571,-0.00388473,0.000220373,-0.00757573,-0.826744,0.00512552,0.00913204,643,1212,-4.77662,-1.30006
-574,-188,-4.77704,1.30713,-0.00420262,-0.00367345,-0.00430243,0.000372516,-0.00824859,-0.816108,0.00562734,0.022889,650,1212,-4.77704,-1.30712
-567,-188,-4.4939,0.865845,-0.00432049,-0.0037484,-0.00460482,0.000579248,-0.00864814,-0.816418,0.00596789,0.0436768,657,1212,-4.49388,-0.865901
-560,-188,-5.78278,0.657837,0,0,0,0,0,0,0,-1,664,1212,-5.78277,-0.657816
-553,-188,-5.80731,0.72937,-0.00449673,-0.00352168,-0.00452657,0.000543548,-0.00856195,-0.839043,0.0058975,0.049608,671,1212,-5.80728,-0.729337
-546,-188,-5.83496,0.798462,-0.00413327,-0.00299144,-0.00411731,0.000594346,-0.00771906,-0.85429,0.00535516,0.0409856,678,1212,-5.83498,-0.798462
-539,-188,-5.80164,0.833862,-0.00346153,-0.0022063,-0.00331509,0.000540067,-0.00620789,-0.878951,0.00432986,0.0360856,685,1212,-5.80165,-0.833866
-532,-188,-5.74316,0.785889,-0.00238269,-0.00125264,-0.00197102,0.000232741,-0.00386807,-0.924989,0.00265969,0.0391919,692,1212,-5.74314,-0.785938
-525,-188,-5.64929,0.605957,-0.000912223,-0.00028775,3.20775e-05,-0.000286106,-0.000913867,1.51961,0.000539772,0.0390826,699,1212,-5.64932,-0.605949
-518,-188,-5.51843,0.370483,0.000675559,0.000320298,0.00250645,0.00301067,-0.00201481,0.750023,0.00292039,0.0425702,706,1212,-5.51845,-0.370501
-511,-188,-5.64642,0.535889,0.00277097,-0.000871446,0.00530102,0.0065549,-0.00465538,0.619936,0.00650315,0.0400095,713,1212,-5.64645,-0.535837
-504,-188,0,0,0,0,0,0,0,0,0,-1,720,1212,0,0
-497,-188,0,0,0,0,0,0,0,0,0,-1,727,1212,0,0
-490,-188,0,0,0,0,0,0,0,0,0,-1,734,1212,0,0
-483,-188,0,0,0,0,0,0,0,0,0,-1,741,1212,0,0
-476,-188,0,0,0,0,0,0,0,0,0,-1,748,1212,0,0
-469,-188,0,0,0,0,0,0,0,0,0,-1,755,1212,0,0
-462,-188,0,0,0,0,0,0,0,0,0,-1,762,1212,0,0
-455,-188,0,0,0,0,0,0,0,0,0,-1,769,1212,0,0
-448,-188,0,0,0,0,0,0,0,0,0,-1,776,1212,0,0
-441,-188,0,0,0,0,0,0,0,0,0,-1,783,1212,0,0
-434,-188,0,0,0,0,0,0,0,0,0,-1,790,1212,0,0
-427,-188,0,0,0,0,0,0,0,0,0,-1,797,1212,0,0
-420,-188,0,0,0,0,0,0,0,0,0,-1,804,1212,0,0
-413,-188,0,0,0,0,0,0,0,0,0,-1,811,1212,0,0
-406,-188,0,0,0,0,0,0,0,0,0,-1,818,1212,0,0
-399,-188,0,0,0,0,0,0,0,0,0,-1,825,1212,0,0
-392,-188,0,0,0,0,0,0,0,0,0,-1,832,1212,0,0
-385,-188,0,0,0,0,0,0,0,0,0,-1,839,1212,0,0
-378,-188,0,0,0,0,0,0,0,0,0,-1,846,1212,0,0
-371,-188,0,0,0,0,0,0,0,0,0,-1,853,1212,0,0
-364,-188,0,0,0,0,0,0,0,0,0,-1,860,1212,0,0
-357,-188,0,0,0,0,0,0,0,0,0,-1,867,1212,0,0
-350,-188,0,0,0,0,0,0,0,0,0,-1,874,1212,0,0
-343,-188,0,0,0,0,0,0,0,0,0,-1,881,1212,0,0
-336,-188,0,0,0,0,0,0,0,0,0,-1,888,1212,0,0
-329,-188,0,0,0,0,0,0,0,0,0,-1,895,1212,0,0
-322,-188,0,0,0,0,0,0,0,0,0,-1,902,1212,0,0
-315,-188,0,0,0,0,0,0,0,0,0,-1,909,1212,0,0
-308,-188,0,0,0,0,0,0,0,0,0,-1,916,1212,0,0
-301,-188,0,0,0,0,0,0,0,0,0,-1,923,1212,0,0
-294,-188,0,0,0,0,0,0,0,0,0,-1,930,1212,0,0
-287,-188,0,0,0,0,0,0,0,0,0,-1,937,1212,0,0
-280,-188,0,0,0,0,0,0,0,0,0,-1,944,1212,0,0
-273,-188,0,0,0,0,0,0,0,0,0,-1,951,1212,0,0
-266,-188,0,0,0,0,0,0,0,0,0,-1,958,1212,0,0
-259,-188,0,0,0,0,0,0,0,0,0,-1,965,1212,0,0
-252,-188,0,0,0,0,0,0,0,0,0,-1,972,1212,0,0
-245,-188,0,0,0,0,0,0,0,0,0,-1,979,1212,0,0
-238,-188,0,0,0,0,0,0,0,0,0,-1,986,1212,0,0
-231,-188,0,0,0,0,0,0,0,0,0,-1,993,1212,0,0
-224,-188,0,0,0,0,0,0,0,0,0,-1,1000,1212,0,0
-217,-188,0,0,0,0,0,0,0,0,0,-1,1007,1212,0,0
-210,-188,0,0,0,0,0,0,0,0,0,-1,1014,1212,0,0
-203,-188,0,0,0,0,0,0,0,0,0,-1,1021,1212,0,0
-196,-188,0,0,0,0,0,0,0,0,0,-1,1028,1212,0,0
-189,-188,0,0,0,0,0,0,0,0,0,-1,1035,1212,0,0
-182,-188,0,0,0,0,0,0,0,0,0,-1,1042,1212,0,0
-175,-188,0,0,0,0,0,0,0,0,0,-1,1049,1212,0,0
-168,-188,0,0,0,0,0,0,0,0,0,-1,1056,1212,0,0
-161,-188,0,0,0,0,0,0,0,0,0,-1,1063,1212,0,0
-154,-188,0,0,0,0,0,0,0,0,0,-1,1070,1212,0,0
-147,-188,0,0,0,0,0,0,0,0,0,-1,1077,1212,0,0
-140,-188,0,0,0,0,0,0,0,0,0,-1,1084,1212,0,0
-133,-188,0,0,0,0,0,0,0,0,0,-1,1091,1212,0,0
-126,-188,0,0,0,0,0,0,0,0,0,-1,1098,1212,0,0
-119,-188,0,0,0,0,0,0,0,0,0,-1,1105,1212,0,0
-112,-188,0,0,0,0,0,0,0,0,0,-1,1112,1212,0,0
-105,-188,0,0,0,0,0,0,0,0,0,-1,1119,1212,0,0
-98,-188,0,0,0,0,0,0,0,0,0,-1,1126,1212,0,0
-91,-188,0,0,0,0,0,0,0,0,0,-1,1133,1212,0,0
-84,-188,0,0,0,0,0,0,0,0,0,-1,1140,1212,0,0
-77,-188,0,0,0,0,0,0,0,0,0,-1,1147,1212,0,0
-70,-188,0,0,0,0,0,0,0,0,0,-1,1154,1212,0,0
-63,-188,0,0,0,0,0,0,0,0,0,-1,1161,1212,0,0
-56,-188,0,0,0,0,0,0,0,0,0,-1,1168,1212,0,0
-49,-188,0,0,0,0,0,0,0,0,0,-1,1175,1212,0,0
-42,-188,0,0,0,0,0,0,0,0,0,-1,1182,1212,0,0
-35,-188,0,0,0,0,0,0,0,0,0,-1,1189,1212,0,0
-28,-188,0,0,0,0,0,0,0,0,0,-1,1196,1212,0,0
-21,-188,0,0,0,0,0,0,0,0,0,-1,1203,1212,0,0
-14,-188,0,0,0,0,0,0,0,0,0,-1,1210,1212,0,0
-7,-188,0,0,0,0,0,0,0,0,0,-1,1217,1212,0,0
0,-188,0,0,0,0,0,0,0,0,0,-1,1224,1212,0,0
7,-188,0,0,0,0,0,0,0,0,0,-1,1231,1212,0,0
14,-188,0,0,0,0,0,0,0,0,0,-1,1238,1212,0,0
21,-188,0,0,0,0,0,0,0,0,0,-1,1245,1212,0,0
28,-188,0,0,0,0,0,0,0,0,0,-1,1252,1212,0,0
35,-188,0,0,0,0,0,0,0,0,0,-1,1259,1212,0,0
42,-188,0,0,0,0,0,0,0,0,0,-1,1266,1212,0,0
49,-188,0,0,0,0,0,0,0,0,0,-1,1273,1212,0,0
56,-188,0,0,0,0,0,0,0,0,0,-1,1280,1212,0,0
63,-188,0,0,0,0,0,0,0,0,0,-1,1287,1212,0,0
70,-188,0,0,0,0,0,0,0,0,0,-1,1294,1212,0,0
77,-188,0,0,0,0,0,0,0,0,0,-1,1301,1212,0,0
84,-188,0,0,0,0,0,0,0,0,0,-1,1308,1212,0,0
91,-188,0,0,0,0,0,0,0,0,0,-1,1315,1212,0,0
98,-188,0,0,0,0,0,0,0,0,0,-1,1322,1212,0,0
105,-188,0,0,0,0,0,0,0,0,0,-1,1329,1212,0,0
112,-188,0,0,0,0,0,0,0,0,0,-1,1336,1212,0,0
119,-188,0,0,0,0,0,0,0,0,0,-1,1343,1212,0,0
126,-188,0,0,0,0,0,0,0,0,0,-1,1350,1212,0,0
133,-188,0,0,0,0,0,0,0,0,0,-1,1357,1212,0,0
140,-188,0,0,0,0,0,0,0,0,0,-1,1364,1212,0,0
147,-188,0,0,0,0,0,0,0,0,0,-1,1371,1212,0,0
154,-188,0,0,0,0,0,0,0,0,0,-1,1378,1212,0,0
161,-188,0,0,0,0,0,0,0,0,0,-1,1385,1212,0,0
168,-188,0,0,0,0,0,0,0,0,0,-1,1392,1212,0,0
175,-188,0,0,0,0,0,0,0,0,0,-1,1399,1212,0,0
182,-188,0,0,0,0,0,0,0,0,0,-1,1406,1212,0,0
189,-188,0,0,0,0,0,0,0,0,0,-1,1413,1212,0,0
196,-188,0,0,0,0,0,0,0,0,0,-1,1420,1212,0,0
203,-188,0,0,0,0,0,0,0,0,0,-1,1427,1212,0,0
210,-188,0,0,0,0,0,0,0,0,0,-1,1434,1212,0,0
217,-188,0,0,0,0,0,0,0,0,0,-1,1441,1212,0,0
224,-188,0,0,0,0,0,0,0,0,0,-1,1448,1212,0,0
231,-188,0,0,0,0,0,0,0,0,0,-1,1455,1212,0,0
238,-188,0,0,0,0,0,0,0,0,0,-1,1462,1212,0,0
245,-188,0,0,0,0,0,0,0,0,0,-1,1469,1212,0,0
252,-188,0,0,0,0,0,0,0,0,0,-1,1476,1212,0,0
259,-188,0,0,0,0,0,0,0,0,0,-1,1483,1212,0,0
266,-188,0,0,0,0,0,0,0,0,0,-1,1490,1212,0,0
273,-188,0,0,0,0,0,0,0,0,0,-1,1497,1212,0,0
280,-188,0,0,0,0,0,0,0,0,0,-1,1504,1212,0,0
287,-188,0,0,0,0,0,0,0,0,0,-1,1511,1212,0,0
294,-188,0,0,0,0,0,0,0,0,0,-1,1518,1212,0,0
301,-188,0,0,0,0,0,0,0,0,0,-1,1525,1212,0,0
308,-188,0,0,0,0,0,0,0,0,0,-1,1532,1212,0,0
315,-188,0,0,0,0,0,0,0,0,0,-1,1539,1212,0,0
322,-188,0,0,0,0,0,0,0,0,0,-1,1546,1212,0,0
329,-188,0,0,0,0,0,0,0,0,0,-1,1553,1212,0,0
336,-188,0,0,0,0,0,0,0,0,0,-1,1560,1212,0,0
343,-188,0,0,0,0,0,0,0,0,0,-1,1567,1212,0,0
350,-188,0,0,0,0,0,0,0,0,0,-1,1574,1212,0,0
357,-188,0,0,0,0,0,0,0,0,0,-1,1581,1212,0,0
364,-188,0,0,0,0,0,0,0,0,0,-1,1588,1212,0,0
371,-188,0,0,0,0,0,0,0,0,0,-1,1595,1212,0,0
378,-188,0,0,0,0,0,0,0,0,0,-1,1602,1212,0,0
385,-188,0,0,0,0,0,0,0,0,0,-1,1609,1212,0,0
392,-188,0,0,0,0,0,0,0,0,0,-1,1616,1212,0,0
399,-188,0,0,0,0,0,0,0,0,0,-1,1623,1212,0,0
406,-188,0,0,0,0,0,0,0,0,0,-1,1630,1212,0,0
413,-188,0,0,0,0,0,0,0,0,0,-1,1637,1212,0,0
420,-188,0,0,0,0,0,0,0,0,0,-1,1644,1212,0,0
427,-188,0,0,0,0,0,0,0,0,0,-1,1651,1212,0,0
434,-188,0,0,0,0,0,0,0,0,0,-1,1658,1212,0,0
441,-188,0,0,0,0,0,0,0,0,0,-1,1665,1212,0,0
448,-188,0,0,0,0,0,0,0,0,0,-1,1672,1212,0,0
455,-188,0,0,0,0,0,0,0,0,0,-1,1679,1212,0,0
462,-188,0,0,0,0,0,0,0,0,0,-1,1686,1212,0,0
469,-188,0,0,0,0,0,0,0,0,0,-1,1693,1212,0,0
476,-188,0,0,0,0,0,0,0,0,0,-1,1700,1212,0,0
483,-188,0,0,0,0,0,0,0,0,0,-1,1707,1212,0,0
490,-188,0,0,0,0,0,0,0,0,0,-1,1714,1212,0,0
497,-188,0,0,0,0,0,0,0,0,0,-1,1721,1212,0,0
504,-188,0,0,0,0,0,0,0,0,0,-1,1728,1212,0,0
511,-188,0,0,0,0,0,0,0,0,0,-1,1735,1212,0,0
518,-188,0,0,0,0,0,0,0,0,0,-1,1742,1212,0,0
525,-188,0,0,0,0,0,0,0,0,0,-1,1749,1212,0,0
532,-188,0,0,0,0,0,0,0,0,0,-1,1756,1212,0,0
539,-188,0,0,0,0,0,0,0,0,0,-1,1763,1212,0,0
546,-188,0,0,0,0,0,0,0,0,0,-1,1770,1212,0,0
553,-188,0,0,0,0,0,0,0,0,0,-1,1777,1212,0,0
560,-188,0,0,0,0,0,0,0,0,0,-1,1784,1212,0,0
567,-188,0,0,0,0,0,0,0,0,0,-1,1791,1212,0,0
574,-188,0,0,0,0,0,0,0,0,0,-1,1798,1212,0,0
581,-188,0,0,0,0,0,0,0,0,0,-1,1805,1212,0,0
588,-188,0,0,0,0,0,0,0,0,0,-1,1812,1212,0,0
595,-188,0,0,0,0,0,0,0,0,0,-1,1819,1212,0,0
602,-188,0,0,0,0,0,0,0,0,0,-1,1826,1212,0,0
609,-188,0,0,0,0,0,0,0,0,0,-1,1833,1212,0,0
616,-188,0,0,0,0,0,0,0,0,0,-1,1840,1212,0,0
623,-188,0,0,0,0,0,0,0,0,0,-1,1847,1212,0,0
630,-188,11.7167,1.65576,0.00151823,0.0027144,0.00200064,0.00420444,2.819e-05,0.930644,0.00279361,0.0412579,1854,1212,11.7166,-1.65575
637,-188,11.6444,1.75195,0.000472316,0.00188196,0.00129599,0.00265239,-0.000298113,1.03445,0.00187554,0.0409412,1861,1212,11.6445,-1.7519
644,-188,11.5308,1.82178,-0.000485702,0.00146685,0.000850203,0.00178516,-0.000804015,1.21255,0.00153022,0.0380562,1868,1212,11.5307,-1.82178
651,-188,11.6161,1.76331,-0.0016177,0.000926066,0.000890962,0.00120708,-0.00189872,1.26526,0.00180789,0.0330511,1875,1212,11.6161,-1.76329
658,-188,11.7009,1.75732,-0.00277514,0.000353446,0.00117286,0.000744304,-0.00316599,1.24912,0.00239759,0.0321019,1882,1212,11.7009,-1.75727
665,-188,11.6846,1.77783,-0.00373451,-0.000137207,0.00147178,0.000388205,-0.00425992,1.22791,0.0029778,0.0296357,1889,1212,11.6846,-1.77781
672,-188,11.7177,1.76685,-0.00445685,-0.000553055,0.00176389,0.000125869,-0.00513578,1.20337,0.00346657,0.0255049,1896,1212,11.7177,-1.76684
679,-188,11.6909,1.5293,-0.00498335,-0.000836837,0.00201979,-1.56264e-05,-0.00580456,1.18463,0.00386451,0.0475801,1903,1212,11.6909,-1.52928
686,-188,11.6764,1.30347,-0.00521925,-0.00113211,0.00210798,-0.000239732,-0.00611162,1.17034,0.0039969,0.0419654,1910,1212,11.6764,-1.30352
693,-188,10.8823,2.52112,0,0,0,0,0,0,0,-1,1917,1212,10.8823,-2.52117
700,-188,10.8488,2.51892,-0.00503441,-0.00139113,0.00222008,-0.000340986,-0.00608455,1.12897,0.00394762,0.0343278,1924,1212,10.8487,-2.51896
707,-188,10.7882,2.51563,-0.0048,-0.00140292,0.00213043,-0.000376795,-0.00582612,1.12194,0.00376477,0.012046,1931,1212,10.7882,-2.51564
714,-188,10.7491,2.45007,-0.0043903,-0.0011984,0.00188917,-0.000321291,-0.0052674,1.13613,0.00340956,0.00949998,1938,1212,10.7492,-2.45007
721,-188,10.7336,2.39905,-0.00375697,-0.00085679,0.0014767,-0.000237245,-0.00437651,1.17355,0.0028419,0.0101247,1945,1212,10.7336,-2.399
728,-188,10.7456,2.33838,-0.00265123,-0.000365863,0.000975967,-5.80226e-06,-0.00301129,1.21736,0.00200559,0.00910657,1952,1212,10.7456,-2.33841
735,-188,10.719,2.28369,-0.00136269,0.000545607,0.000291825,0.000589237,-0.00140632,1.42239,0.00118389,0.012204,1959,1212,10.7189,-2.28369
742,-188,10.6992,2.21521,-0.000333003,0.001496,-0.000515698,0.00163139,-0.000468385,-1.31407,0.00127278,0.013494,1966,1212,10.6992,-2.21519
749,-188,10.7198,2.13916,0.000652462,0.00240061,-0.00183367,0.00355788,-0.000504807,-1.00781,0.00255686,0.0125309,1973,1212,10.7199,-2.13913
756,-188,10.741,2.07373,0.00151254,0.00384669,-0.00388425,0.00673541,-0.00137618,-0.931339,0.00501237,0.0104741,1980,1212,10.7409,-2.07374
763,-188,10.7306,2.01147,0.00223298,0.00534505,-0.00607466,0.0100598,-0.00248177,-0.910778,0.00766884,0.0119837,1987,1212,10.7306,-2.01147
770,-188,10.7444,1.91992,0.00280057,0.00707471,-0.00934315,0.0145221,-0.0046468,-0.89783,0.0115463,0.0204934,1994,1212,10.7444,-1.91989
777,-188,10.7622,1.82117,0.0031639,0.0089842,-0.0141987,0.0205679,-0.00841983,-0.886477,0.017219,0.0425072,2001,1212,10.7622,-1.8212
784,-188,10.7833,1.71997,0.00309613,0.0109563,-0.0212075,0.0285948,-0.0145424,-0.877017,0.025342,0.0495687,2008,1212,10.7833,-1.71994
791,-188,10.7704,1.61877,0,0,0,0,0,0,0,-1,2015,1212,10.7704,-1.61883
798,-188,12.0311,1.37183,0,0,0,0,0,0,0,-1,2022,1212,12.0312,-1.37181
805,-188,0,0,0,0,0,0,0,0,0,-1,2029,1212,0,0
812,-188,0,0,0,0,0,0,0,0,0,-1,2036,1212,0,0
-700,-195,0,0,0,0,0,0,0,0,0,-1,524,1219,0,0
-693,-195,0,0,0,0,0,0,0,0,0,-1,531,1219,0,0
-686,-195,0,0,0,0,0,0,0,0,0,-1,538,1219,0,0
-679,-195,-2.10315,2.61963,0,0,0,0,0,0,0,-1,545,1219,-2.10314,-2.61968
-672,-195,-4.0824,2.21545,0,0,0,0,0,0,0,-1,552,1219,-4.0824,-2.21541
-665,-195,-4.13452,1.87341,-0.0101192,-0.000396819,-0.00631448,0.00271092,-0.0132269,-1.11344,0.00984679,0.0451452,559,1219,-4.13452,-1.87336
-658,-195,-4.3642,1.69751,-0.0035401,0.000262828,-0.00508429,0.00378959,-0.00706685,-0.96434,0.00636245,0.0428848,566,1219,-4.36417,-1.69752
-651,-195,-4.70319,1.5603,0.000368781,0.000576986,-0.00387027,0.00434455,-0.00339878,-0.798844,0.00448172,0.0429139,573,1219,-4.70322,-1.56029
-644,-195,-4.73639,1.104,0.00243152,0.000707356,-0.00278443,0.00448427,-0.0013454,-0.635275,0.00352464,0.0402645,580,1219,-4.73642,-1.10401
-637,-195,-4.62555,0.634766,0.00327365,0.00073033,-0.00188773,0.00427809,-0.00027411,-0.488989,0.00294768,0.0215964,587,1219,-4.62555,-0.634791
-630,-195,-4.68048,0.73291,0.00324491,0.000839153,-0.00150959,0.00397226,0.000111807,-0.448996,0.0026117,0.00758331,594,1219,-4.68046,-0.732938
-623,-195,-4.70111,0.803223,0.00335512,0.00108084,-0.00140777,0.00402765,0.000408305,-0.445671,0.00255988,0.00767084,601,1219,-4.70108,-0.803214
-616,-195,-4.68982,0.87561,0.00303818,-0.000112911,-0.000776733,0.00321924,-0.000293969,-0.229013,0.00225056,0.00940337,608,1219,-4.68981,-0.875582
-609,-195,-4.6806,0.971558,0.00139787,-0.000545882,-0.000776975,0.00167027,-0.000818287,-0.337206,0.00146457,0.0165347,615,1219,-4.68059,-0.971592
-602,-195,-4.70239,1.0271,-0.000716607,-0.00158695,-0.00130575,0.00022458,-0.00252814,-0.62455,0.00176506,0.0199567,622,1219,-4.70239,-1.02704
-595,-195,-4.73419,1.12659,-0.00151058,-0.00215061,-0.00224313,0.000435242,-0.00409644,-0.714544,0.002887,0.0153071,629,1219,-4.73419,-1.12653
-588,-195,-4.70526,1.19958,-0.00255995,-0.00243794,-0.00309823,0.000599882,-0.00559777,-0.795242,0.00394703,0.00825426,636,1219,-4.70523,-1.19956
-581,-195,-4.68158,1.26538,-0.0033648,-0.0029493,-0.00365941,0.000508251,-0.00682234,-0.813753,0.00472676,0.00848139,643,1219,-4.6816,-1.26538
-574,-195,-4.68726,1.29456,-0.00366596,-0.00317417,-0.00416694,0.000754126,-0.00759425,-0.814869,0.00533202,0.0207407,650,1219,-4.68725,-1.2945
-567,-195,-4.63672,1.27893,-0.00390157,-0.00315892,-0.00452679,0.00101175,-0.00807224,-0.826321,0.0057485,0.041091,657,1219,-4.63673,-1.27893
-560,-195,-5.87164,0.610596,0,0,0,0,0,0,0,-1,664,1219,-5.87163,-0.610551
-553,-195,-5.86078,0.694092,-0.00449563,-0.00268754,-0.00466212,0.00115738,-0.00834055,-0.881166,0.00598359,0.0459062,671,1219,-5.86076,-0.694058
-546,-195,-5.77539,0.772217,-0.00448521,-0.00205177,-0.00441959,0.00131552,-0.00785251,-0.919722,0.00572412,0.0430311,678,1219,-5.77538,-0.772185
-539,-195,-5.75006,0.718628,-0.0042397,-0.00118358,-0.00382669,0.00140887,-0.00683215,-0.975357,0.0050898,0.0347992,685,1219,-5.75007,-0.718593
-532,-195,-5.76007,0.721191,-0.0036506,-0.000192754,-0.00272395,0.00130463,-0.00514799,-1.06817,0.00393955,0.0339294,692,1219,-5.76007,-0.721167
-525,-195,-5.69971,0.730835,-0.0026519,0.000739671,-0.000965548,0.000995288,-0.00290752,-1.312,0.00234171,0.040537,699,1219,-5.69968,-0.730857
-518,-195,-5.63934,0.774658,-0.00133795,0.00125079,0.00140383,0.00186591,-0.00195307,1.15783,0.00220508,0.0450781,706,1219,-5.63935,-0.774693
-511,-195,-5.85919,0.776123,0.000723565,0.00012316,0.00435326,0.00478696,-0.00394024,0.750972,0.00504655,0.0444675,713,1219,-5.85918,-0.77613
-504,-195,0,0,0,0,0,0,0,0,0,-1,720,1219,0,0
-497,-195,0,0,0,0,0,0,0,0,0,-1,727,1219,0,0
-490,-195,0,0,0,0,0,0,0,0,0,-1,734,1219,0,0
-483,-195,0,0,0,0,0,0,0,0,0,-1,741,1219,0,0
-476,-195,0,0,0,0,0,0,0,0,0,-1,748,1219,0,0
-469,-195,0,0,0,0,0,0,0,0,0,-1,755,1219,0,0
-462,-195,0,0,0,0,0,0,0,0,0,-1,762,1219,0,0
-455,-195,0,0,0,0,0,0,0,0,0,-1,769,1219,0,0
-448,-195,0,0,0,0,0,0,0,0,0,-1,776,1219,0,0
-441,-195,0,0,0,0,0,0,0,0,0,-1,783,1219,0,0
-434,-195,0,0,0,0,0,0,0,0,0,-1,790,1219,0,0
-427,-195,0,0,0,0,0,0,0,0,0,-1,797,1219,0,0
-420,-195,0,0,0,0,0,0,0,0,0,-1,804,1219,0,0
-413,-195,0,0,0,0,0,0,0,0,0,-1,811,1219,0,0
-406,-195,0,0,0,0,0,0,0,0,0,-1,818,1219,0,0
-399,-195,0,0,0,0,0,0,0,0,0,-1,825,1219,0,0
-392,-195,0,0,0,0,0,0,0,0,0,-1,832,1219,0,0
-385,-195,0,0,0,0,0,0,0,0,0,-1,839,1219,0,0
-378,-195,0,0,0,0,0,0,0,0,0,-1,846,1219,0,0
-371,-195,0,0,0,0,0,0,0,0,0,-1,853,1219,0,0
-364,-195,0,0,0,0,0,0,0,0,0,-1,860,1219,0,0
-357,-195,0,0,0,0,0,0,0,0,0,-1,867,1219,0,0
-350,-195,0,0,0,0,0,0,0,0,0,-1,874,1219,0,0
-343,-195,0,0,0,0,0,0,0,0,0,-1,881,1219,0,0
-336,-195,0,0,0,0,0,0,0,0,0,-1,888,1219,0,0
-329,-195,0,0,0,0,0,0,0,0,0,-1,895,1219,0,0
-322,-195,0,0,0,0,0,0,0,0,0,-1,902,1219,0,0
-315,-195,0,0,0,0,0,0,0,0,0,-1,909,1219,0,0
-308,-195,0,0,0,0,0,0,0,0,0,-1,916,1219,0,0
-301,-195,0,0,0,0,0,0,0,0,0,-1,923,1219,0,0
-294,-195,0,0,0,0,0,0,0,0,0,-1,930,1219,0,0
-287,-195,0,0,0,0,0,0,0,0,0,-1,937,1219,0,0
-280,-195,0,0,0,0,0,0,0,0,0,-1,944,1219,0,0
-273,-195,0,0,0,0,0,0,0,0,0,-1,951,1219,0,0
-266,-195,0,0,0,0,0,0,0,0,0,-1,958,1219,0,0
-259,-195,0,0,0,0,0,0,0,0,0,-1,965,1219,0,0
-252,-195,0,0,0,0,0,0,0,0,0,-1,972,1219,0,0
-245,-195,0,0,0,0,0,0,0,0,0,-1,979,1219,0,0
-238,-195,0,0,0,0,0,0,0,0,0,-1,986,1219,0,0
-231,-195,0,0,0,0,0,0,0,0,0,-1,993,1219,0,0
-224,-195,0,0,0,0,0,0,0,0,0,-1,1000,1219,0,0
-217,-195,0,0,0,0,0,0,0,0,0,-1,1007,1219,0,0
-210,-195,0,0,0,0,0,0,0,0,0,-1,1014,1219,0,0
-203,-195,0,0,0,0,0,0,0,0,0,-1,1021,1219,0,0
-196,-195,0,0,0,0,0,0,0,0,0,-1,1028,1219,0,0
-189,-195,0,0,0,0,0,0,0,0,0,-1,1035,1219,0,0
-182,-195,0,0,0,0,0,0,0,0,0,-1,1042,1219,0,0
-175,-195,0,0,0,0,0,0,0,0,0,-1,1049,1219,0,0
-168,-195,0,0,0,0,0,0,0,0,0,-1,1056,1219,0,0
-161,-195,0,0,0,0,0,0,0,0,0,-1,1063,1219,0,0
-154,-195,0,0,0,0,0,0,0,0,0,-1,1070,1219,0,0
-147,-195,0,0,0,0,0,0,0,0,0,-1,1077,1219,0,0
-140,-195,0,0,0,0,0,0,0,0,0,-1,1084,1219,0,0
-133,-195,0,0,0,0,0,0,0,0,0,-1,1091,1219,0,0
-126,-195,0,0,0,0,0,0,0,0,0,-1,1098,1219,0,0
-119,-195,0,0,0,0,0,0,0,0,0,-1,1105,1219,0,0
-112,-195,0,0,0,0,0,0,0,0,0,-1,1112,1219,0,0
-105,-195,0,0,0,0,0,0,0,0,0,-1,1119,1219,0,0
-98,-195,0,0,0,0,0,0,0,0,0,-1,1126,1219,0,0
-91,-195,0,0,0,0,0,0,0,0,0,-1,1133,1219,0,0
-84,-195,0,0,0,0,0,0,0,0,0,-1,1140,1219,0,0
-77,-195,0,0,0,0,0,0,0,0,0,-1,1147,1219,0,0
-70,-195,0,0,0,0,0,0,0,0,0,-1,1154,1219,0,0
-63,-195,0,0,0,0,0,0,0,0,0,-1,1161,1219,0,0
-56,-195,0,0,0,0,0,0,0,0,0,-1,1168,1219,0,0
-49,-195,0,0,0,0,0,0,0,0,0,-1,1175,1219,0,0
-42,-195,0,0,0,0,0,0,0,0,0,-1,1182,1219,0,0
-35,-195,0,0,0,0,0,0,0,0,0,-1,1189,1219,0,0
-28,-195,0,0,0,0,0,0,0,0,0,-1,1196,1219,0,0
-21,-195,0,0,0,0,0,0,0,0,0,-1,1203,1219,0,0
-14,-195,0,0,0,0,0,0,0,0,0,-1,1210,1219,0,0
-7,-195,0,0,0,0,0,0,0,0,0,-1,1217,1219,0,0
0,-195,0,0,0,0,0,0,0,0,0,-1,1224,1219,0,0
7,-195,0,0,0,0,0,0,0,0,0,-1,1231,1219,0,0
14,-195,0,0,0,0,0,0,0,0,0,-1,1238,1219,0,0
21,-195,0,0,0,0,0,0,0,0,0,-1,1245,1219,0,0
28,-195,0,0,0,0,0,0,0,0,0,-1,1252,1219,0,0
35,-195,0,0,0,0,0,0,0,0,0,-1,1259,1219,0,0
42,-195,0,0,0,0,0,0,0,0,0,-1,1266,1219,0,0
49,-195,0,0,0,0,0,0,0,0,0,-1,1273,1219,0,0
56,-195,0,0,0,0,0,0,0,0,0,-1,1280,1219,0,0
63,-195,0,0,0,0,0,0,0,0,0,-1,1287,1219,0,0
70,-195,0,0,0,0,0,0,0,0,0,-1,1294,1219,0,0
77,-195,0,0,0,0,0,0,0,0,0,-1,1301,1219,0,0
84,-195,0,0,0,0,0,0,0,0,0,-1,1308,1219,0,0
91,-195,0,0,0,0,0,0,0,0,0,-1,1315,1219,0,0
98,-195,0,0,0,0,0,0,0,0,0,-1,1322,1219,0,0
105,-195,0,0,0,0,0,0,0,0,0,-1,1329,1219,0,0
112,-195,0,0,0,0,0,0,0,0,0,-1,1336,1219,0,0
119,-195,0,0,0,0,0,0,0,0,0,-1,1343,1219,0,0
126,-195,0,0,0,0,0,0,0,0,0,-1,1350,1219,0,0
133,-195,0,0,0,0,0,0,0,0,0,-1,1357,1219,0,0
140,-195,0,0,0,0,0,0,0,0,0,-1,1364,1219,0,0
147,-195,0,0,0,0,0,0,0,0,0,-1,1371,1219,0,0
154,-195,0,0,0,0,0,0,0,0,0,-1,1378,1219,0,0
161,-195,0,0,0,0,0,0,0,0,0,-1,1385,1219,0,0
168,-195,0,0,0,0,0,0,0,0,0,-1,1392,1219,0,0
175,-195,0,0,0,0,0,0,0,0,0,-1,1399,1219,0,0
182,-195,0,0,0,0,0,0,0,0,0,-1,1406,1219,0,0
189,-195,0,0,0,0,0,0,0,0,0,-1,1413,1219,0,0
196,-195,0,0,0,0,0,0,0,0,0,-1,1420,1219,0,0
203,-195,0,0,0,0,0,0,0,0,0,-1,1427,1219,0,0
210,-195,0,0,0,0,0,0,0,0,0,-1,1434,1219,0,0
217,-195,0,0,0,0,0,0,0,0,0,-1,1441,1219,0,0
224,-195,0,0,0,0,0,0,0,0,0,-1,1448,1219,0,0
231,-195,0,0,0,0,0,0,0,0,0,-1,1455,1219,0,0
238,-195,0,0,0,0,0,0,0,0,0,-1,1462,1219,0,0
245,-195,0,0,0,0,0,0,0,0,0,-1,1469,1219,0,0
252,-195,0,0,0,0,0,0,0,0,0,-1,1476,1219,0,0
259,-195,0,0,0,0,0,0,0,0,0,-1,1483,1219,0,0
266,-195,0,0,0,0,0,0,0,0,0,-1,1490,1219,0,0
273,-195,0,0,0,0,0,0,0,0,0,-1,1497,1219,0,0
280,-195,0,0,0,0,0,0,0,0,0,-1,1504,1219,0,0
287,-195,0,0,0,0,0,0,0,0,0,-1,1511,1219,0,0
294,-195,0,0,0,0,0,0,0,0,0,-1,1518,1219,0,0
301,-195,0,0,0,0,0,0,0,0,0,-1,1525,1219,0,0
308,-195,0,0,0,0,0,0,0,0,0,-1,1532,1219,0,0
315,-195,0,0,0,0,0,0,0,0,0,-1,1539,1219,0,0
322,-195,0,0,0,0,0,0,0,0,0,-1,1546,1219,0,0
329,-195,0,0,0,0,0,0,0,0,0,-1,1553,1219,0,0
336,-195,0,0,0,0,0,0,0,0,0,-1,1560,1219,0,0
343,-195,0,0,0,0,0,0,0,0,0,-1,1567,1219,0,0
350,-195,0,0,0,0,0,0,0,0,0,-1,1574,1219,0,0
357,-195,0,0,0,0,0,0,0,0,0,-1,1581,1219,0,0
364,-195,0,0,0,0,0,0,0,0,0,-1,1588,1219,0,0
371,-195,0,0,0,0,0,0,0,0,0,-1,1595,1219,0,0
378,-195,0,0,0,0,0,0,0,0,0,-1,1602,1219,0,0
385,-195,0,0,0,0,0,0,0,0,0,-1,1609,1219,0,0
392,-195,0,0,0,0,0,0,0,0,0,-1,1616,1219,0,0
399,-195,0,0,0,0,0,0,0,0,0,-1,1623,1219,0,0
406,-195,0,0,0,0,0,0,0,0,0,-1,1630,1219,0,0
413,-195,0,0,0,0,0,0,0,0,0,-1,1637,1219,0,0
420,-195,0,0,0,0,0,0,0,0,0,-1,1644,1219,0,0
427,-195,0,0,0,0,0,0,0,0,0,-1,1651,1219,0,0
434,-195,0,0,0,0,0,0,0,0,0,-1,1658,1219,0,0
441,-195,0,0,0,0,0,0,0,0,0,-1,1665,1219,0,0
448,-195,0,0,0,0,0,0,0,0,0,-1,1672,1219,0,0
455,-195,0,0,0,0,0,0,0,0,0,-1,1679,1219,0,0
462,-195,0,0,0,0,0,0,0,0,0,-1,1686,1219,0,0
469,-195,0,0,0,0,0,0,0,0,0,-1,1693,1219,0,0
476,-195,0,0,0,0,0,0,0,0,0,-1,1700,1219,0,0
483,-195,0,0,0,0,0,0,0,0,0,-1,1707,1219,0,0
490,-195,0,0,0,0,0,0,0,0,0,-1,1714,1219,0,0
497,-195,0,0,0,0,0,0,0,0,0,-1,1721,1219,0,0
504,-195,0,0,0,0,0,0,0,0,0,-1,1728,1219,0,0
511,-195,0,0,0,0,0,0,0,0,0,-1,1735,1219,0,0
518,-195,0,0,0,0,0,0,0,0,0,-1,1742,1219,0,0
525,-195,0,0,0,0,0,0,0,0,0,-1,1749,1219,0,0
532,-195,0,0,0,0,0,0,0,0,0,-1,1756,1219,0,0
539,-195,0,0,0,0,0,0,0,0,0,-1,1763,1219,0,0
546,-195,0,0,0,0,0,0,0,0,0,-1,1770,1219,0,0
553,-195,0,0,0,0,0,0,0,0,0,-1,1777,1219,0,0
560,-195,0,0,0,0,0,0,0,0,0,-1,1784,1219,0,0
567,-195,0,0,0,0,0,0,0,0,0,-1,1791,1219,0,0
574,-195,0,0,0,0,0,0,0,0,0,-1,1798,1219,0,0
581,-195,0,0,0,0,0,0,0,0,0,-1,1805,1219,0,0
588,-195,0,0,0,0,0,0,0,0,0,-1,1812,1219,0,0
595,-195,0,0,0,0,0,0,0,0,0,-1,1819,1219,0,0
602,-195,0,0,0,0,0,0,0,0,0,-1,1826,1219,0,0
609,-195,0,0,0,0,0,0,0,0,0,-1,1833,1219,0,0
616,-195,0,0,0,0,0,0,0,0,0,-1,1840,1219,0,0
623,-195,0,0,0,0,0,0,0,0,0,-1,1847,1219,0,0
630,-195,11.7404,1.67456,0.0013744,0.00338749,0.000731349,0.00362513,0.00113676,1.25662,0.00214091,0.041369,1854,1219,11.7403,-1.67452
637,-195,11.7178,1.7688,0.0011559,0.00236885,0.0014601,0.00334342,0.000181324,0.98224,0.00217103,0.0384477,1861,1219,11.7177,-1.76876
644,-195,11.6166,1.79626,0.00048469,0.0016383,0.0020253,0.00316733,-0.00104434,0.924125,0.00253249,0.0353823,1868,1219,11.6166,-1.79629
651,-195,11.6259,1.75574,-0.000642996,0.000848281,0.00260482,0.00281208,-0.0026068,0.924797,0.00312934,0.0281969,1875,1219,11.6258,-1.75572
658,-195,11.702,1.75708,-0.00188897,0.000146983,0.00304116,0.00233602,-0.004078,0.946903,0.00374839,0.0249107,1882,1219,11.7021,-1.75706
665,-195,11.7446,1.74158,-0.00298854,-0.000404854,0.00326015,0.00181007,-0.00520346,0.974034,0.00420428,0.0224372,1889,1219,11.7447,-1.74156
672,-195,11.7133,1.63782,-0.00385397,-0.000844398,0.00336695,0.00133873,-0.0060371,0.995546,0.00453729,0.0323729,1896,1219,11.7133,-1.63779
679,-195,11.545,1.29993,-0.00449412,-0.00109939,0.00338641,0.000991232,-0.00658474,1.01771,0.0047548,0.0441957,1903,1219,11.545,-1.29992
686,-195,11.0092,2.33826,0,0,0,0,0,0,0,-1,1910,1219,11.0091,-2.33826
693,-195,10.8926,2.42859,-0.00485206,-0.00146365,0.00307836,0.000355926,-0.00667163,1.03696,0.00457102,0.0404015,1917,1219,10.8926,-2.42857
700,-195,10.7085,2.52576,-0.00467513,-0.00153216,0.00287911,0.000176418,-0.0063837,1.03521,0.00431581,0.0229309,1924,1219,10.7085,-2.5258
707,-195,10.6561,2.5625,-0.00464708,-0.00149613,0.00240828,-0.000193773,-0.00594945,1.07506,0.00390331,0.0118325,1931,1219,10.6562,-2.5625
714,-195,10.6422,2.49243,-0.00416228,-0.00121417,0.00193077,-0.000259085,-0.00511737,1.11143,0.00332858,0.0140902,1938,1219,10.6422,-2.49244
721,-195,10.6589,2.41943,-0.00332011,-0.000790329,0.00136714,-0.000192691,-0.00391775,1.15868,0.00255003,0.0118983,1945,1219,10.6589,-2.41947
728,-195,10.6742,2.36365,-0.0020882,-0.000313774,0.000715381,-6.1287e-05,-0.00234069,1.2315,0.00154044,0.0103627,1952,1219,10.6742,-2.3636
735,-195,10.6687,2.28223,-0.000692703,0.000596369,-0.000116198,0.00060676,-0.000703094,-1.48161,0.000756926,0.0124755,1959,1219,10.6687,-2.28222
742,-195,10.6404,2.20105,0.000389305,0.00149823,-0.00104375,0.00212564,-0.000238112,-1.02955,0.00150277,0.0131948,1966,1219,10.6403,-2.20109
749,-195,10.651,2.12231,0.00153321,0.00237293,-0.00237811,0.00436795,-0.00046182,-0.872774,0.00307748,0.0125371,1973,1219,10.6511,-2.1223
756,-195,10.6628,2.05273,0.00260867,0.0037273,-0.00436751,0.00757116,-0.0012352,-0.849083,0.00550556,0.0111984,1980,1219,10.6629,-2.05271
763,-195,10.6595,1.9873,0.00372276,0.00521459,-0.00658094,0.0110918,-0.0021544,-0.84183,0.00820744,0.0122929,1987,1219,10.6595,-1.98724
770,-195,10.6085,1.87439,0.00492351,0.00697687,-0.00985258,0.0158561,-0.00395574,-0.837313,0.0121067,0.0254517,1994,1219,10.6085,-1.8744
777,-195,10.5314,1.63062,0.00617005,0.00893613,-0.0146475,0.0222658,-0.00715958,-0.832469,0.0177193,0.0437875,2001,1219,10.5314,-1.63063
784,-195,10.4465,1.40161,0.00726383,0.0109751,-0.0215722,0.0307713,-0.0125325,-0.828302,0.02573,0.0453541,2008,1219,10.4465,-1.40161
791,-195,10.323,1.23022,0,0,0,0,0,0,0,-1,2015,1219,10.3231,-1.23027
798,-195,10.2147,1.14563,0,0,0,0,0,0,0,-1,2022,1219,10.2147,-1.14563
805,-195,0,0,0,0,0,0,0,0,0,-1,2029,1219,0,0
812,-195,0,0,0,0,0,0,0,0,0,-1,2036,1219,0,0
-700,-202,0,0,0,0,0,0,0,0,0,-1,524,1226,0,0
-693,-202,0,0,0,0,0,0,0,0,0,-1,531,1226,0,0
-686,-202,0,0,0,0,0,0,0,0,0,-1,538,1226,0,0
-679,-202,-2.23395,2.92529,-0.0371532,-0.00352612,-0.0129591,0.000888476,-0.0415678,-1.24247,0.0280128,0.0486301,545,1226,-2.23395,-2.92534
-672,-202,-3.34039,2.37,-0.0196565,-0.00104375,-0.0110478,0.00409504,-0.0247953,-1.13542,0.0180507,0.0458729,552,1226,-3.34042,-2.36999
-665,-202,-4.14587,1.95166,-0.00874367,0.000281195,-0.00873766,0.00560282,-0.0140653,-1.02375,0.0117005,0.0443913,559,1226,-4.1459,-1.95163
-658,-202,-4.61682,1.60315,-0.00200769,0.000906476,-0.00653159,0.00614153,-0.00724274,-0.895142,0.00773613,0.0464922,566,1226,-4.61681,-1.60317
-651,-202,-4.81982,1.49524,0.00187554,0.00116633,-0.0046315,0.00616599,-0.00312412,-0.74719,0.00545865,0.0473198,573,1226,-4.8198,-1.49518
-644,-202,-4.71417,1.16296,0.00380828,0.00123473,-0.00308301,0.00586228,-0.00081927,-0.587701,0.00420794,0.0429493,580,1226,-4.7142,-1.16296
-637,-202,-4.54669,0.587402,0.00446405,0.00119336,-0.0018941,0.0053311,0.000326312,-0.429291,0.00345044,0.0323619,587,1226,-4.5467,-0.587423
-630,-202,-4.55701,0.69104,0.0042485,0.0012105,-0.00130305,0.00473083,0.000728176,-0.354513,0.00294136,0.0127422,594,1226,-4.557,-0.691047
-623,-202,-4.60461,0.791382,0.00426201,0.00135965,-0.000989383,0.00456719,0.00105447,-0.299196,0.00276125,0.00783829,601,1226,-4.60461,-0.791414
-616,-202,-4.60675,0.860229,0.00382061,0.000183161,-0.000293812,0.00384419,0.000159582,-0.0800824,0.00251129,0.00837828,608,1226,-4.60673,-0.860255
-609,-202,-4.58691,0.932373,0.00217799,-0.000149711,-0.000287321,0.00221293,-0.000184652,-0.121016,0.00154053,0.0199574,615,1226,-4.58689,-0.932418
-602,-202,-4.61267,0.99646,0.000142962,-0.00132395,-0.000823169,0.000512032,-0.00169302,-0.421484,0.00133256,0.0202384,622,1226,-4.61266,-0.996456
-595,-202,-4.67444,1.12585,-0.000744781,-0.00185515,-0.00181961,0.00060246,-0.00320239,-0.637328,0.00236151,0.0156332,629,1226,-4.67443,-1.12586
-588,-202,-4.5896,1.21375,-0.00190658,-0.00208667,-0.00274969,0.000754543,-0.00474779,-0.76903,0.00344437,0.00821483,636,1226,-4.5896,-1.2137
-581,-202,-4.57245,1.2749,-0.00283098,-0.00249035,-0.00339743,0.000741037,-0.00606236,-0.810443,0.00430987,0.00990189,643,1226,-4.57246,-1.2749
-574,-202,-4.60278,1.29346,-0.00323121,-0.00256447,-0.00401234,0.00112833,-0.006924,-0.826846,0.00503444,0.0145124,650,1226,-4.6028,-1.29342
-567,-202,-4.72803,1.23401,0,0,0,0,0,0,0,-1,657,1226,-4.72805,-1.23402
-560,-202,-5.48999,1.11902,-0.00421107,-0.00219549,-0.00467859,0.00158262,-0.00798918,-0.891479,0.00592455,0.045095,664,1226,-5.48997,-1.11907
-553,-202,-5.99921,0.743042,-0.00460665,-0.00166874,-0.00479319,0.00187553,-0.00815093,-0.934088,0.00615513,0.0461755,671,1226,-5.99918,-0.743026
-546,-202,-5.8399,0.960571,-0.00494304,-0.000892346,-0.00471464,0.00221357,-0.00804896,-0.988273,0.00623618,0.0462699,678,1226,-5.83989,-0.960543
-539,-202,-5.74402,0.790894,-0.00510997,8.27993e-05,-0.00432981,0.00253503,-0.0075622,-1.05548,0.0060657,0.0404926,685,1226,-5.74403,-0.790873
-532,-202,-5.7486,0.657104,-0.00498243,0.00112684,-0.00347851,0.00270155,-0.00655714,-1.1457,0.00549784,0.0305313,692,1226,-5.74859,-0.657098
-525,-202,-5.79309,0.713867,-0.00443872,0.00203759,-0.00200489,0.00260801,-0.00500914,-1.29361,0.00447,0.0372088,699,1226,-5.7931,-0.71392
-518,-202,-5.81909,0.868042,-0.00343945,0.00245658,0.00014401,0.0024601,-0.00344297,1.54639,0.00342385,0.0431906,706,1226,-5.81911,-0.868003
-511,-202,-5.9444,0.919067,-0.00150908,0.00136799,0.00304939,0.00330113,-0.00344222,1.00579,0.00389355,0.0441956,713,1226,-5.94441,-0.919123
-504,-202,0,0,0,0,0,0,0,0,0,-1,720,1226,0,0
-497,-202,0,0,0,0,0,0,0,0,0,-1,727,1226,0,0
-490,-202,0,0,0,0,0,0,0,0,0,-1,734,1226,0,0
-483,-202,0,0,0,0,0,0,0,0,0,-1,741,1226,0,0
-476,-202,0,0,0,0,0,0,0,0,0,-1,748,1226,0,0
-469,-202,0,0,0,0,0,0,0,0,0,-1,755,1226,0,0
-462,-202,0,0,0,0,0,0,0,0,0,-1,762,1226,0,0
-455,-202,0,0,0,0,0,0,0,0,0,-1,769,1226,0,0
-448,-202,0,0,0,0,0,0,0,0,0,-1,776,1226,0,0
-441,-202,0,0,0,0,0,0,0,0,0,-1,783,1226,0,0
-434,-202,0,0,0,0,0,0,0,0,0,-1,790,1226,0,0
-427,-202,0,0,0,0,0,0,0,0,0,-1,797,1226,0,0
-420,-202,0,0,0,0,0,0,0,0,0,-1,804,1226,0,0
-413,-202,0,0,0,0,0,0,0,0,0,-1,811,1226,0,0
-406,-202,0,0,0,0,0,0,0,0,0,-1,818,1226,0,0
-399,-202,0,0,0,0,0,0,0,0,0,-1,825,1226,0,0
-392,-202,0,0,0,0,0,0,0,0,0,-1,832,1226,0,0
-385,-202,0,0,0,0,0,0,0,0,0,-1,839,1226,0,0
-378,-202,0,0,0,0,0,0,0,0,0,-1,846,1226,0,0
-371,-202,0,0,0,0,0,0,0,0,0,-1,853,1226,0,0
-364,-202,0,0,0,0,0,0,0,0,0,-1,860,1226,0,0
-357,-202,0,0,0,0,0,0,0,0,0,-1,867,1226,0,0
-350,-202,0,0,0,0,0,0,0,0,0,-1,874,1226,0,0
-343,-202,0,0,0,0,0,0,0,0,0,-1,881,1226,0,0
-336,-202,0,0,0,0,0,0,0,0,0,-1,888,1226,0,0
-329,-202,0,0,0,0,0,0,0,0,0,-1,895,1226,0,0
-322,-202,0,0,0,0,0,0,0,0,0,-1,902,1226,0,0
-315,-202,0,0,0,0,0,0,0,0,0,-1,909,1226,0,0
-308,-202,0,0,0,0,0,0,0,0,0,-1,916,1226,0,0
-301,-202,0,0,0,0,0,0,0,0,0,-1,923,1226,0,0
-294,-202,0,0,0,0,0,0,0,0,0,-1,930,1226,0,0
-287,-202,0,0,0,0,0,0,0,0,0,-1,937,1226,0,0
-280,-202,0,0,0,0,0,0,0,0,0,-1,944,1226,0,0
-273,-202,0,0,0,0,0,0,0,0,0,-1,951,1226,0,0
-266,-202,0,0,0,0,0,0,0,0,0,-1,958,1226,0,0
-259,-202,0,0,0,0,0,0,0,0,0,-1,965,1226,0,0
-252,-202,0,0,0,0,0,0,0,0,0,-1,972,1226,0,0
-245,-202,0,0,0,0,0,0,0,0,0,-1,979,1226,0,0
-238,-202,0,0,0,0,0,0,0,0,0,-1,986,1226,0,0
-231,-202,0,0,0,0,0,0,0,0,0,-1,993,1226,0,0
-224,-202,0,0,0,0,0,0,0,0,0,-1,1000,1226,0,0
-217,-202,0,0,0,0,0,0,0,0,0,-1,1007,1226,0,0
-210,-202,0,0,0,0,0,0,0,0,0,-1,1014,1226,0,0
-203,-202,0,0,0,0,0,0,0,0,0,-1,1021,1226,0,0
-196,-202,0,0,0,0,0,0,0,0,0,-1,1028,1226,0,0
-189,-202,0,0,0,0,0,0,0,0,0,-1,1035,1226,0,0
-182,-202,0,0,0,0,0,0,0,0,0,-1,1042,1226,0,0
-175,-202,0,0,0,0,0,0,0,0,0,-1,1049,1226,0,0
-168,-202,0,0,0,0,0,0,0,0,0,-1,1056,1226,0,0
-161,-202,0,0,0,0,0,0,0,0,0,-1,1063,1226,0,0
-154,-202,0,0,0,0,0,0,0,0,0,-1,1070,1226,0,0
-147,-202,0,0,0,0,0,0,0,0,0,-1,1077,1226,0,0
-140,-202,0,0,0,0,0,0,0,0,0,-1,1084,1226,0,0
-133,-202,0,0,0,0,0,0,0,0,0,-1,1091,1226,0,0
-126,-202,0,0,0,0,0,0,0,0,0,-1,1098,1226,0,0
-119,-202,0,0,0,0,0,0,0,0,0,-1,1105,1226,0,0
-112,-202,0,0,0,0,0,0,0,0,0,-1,1112,1226,0,0
-105,-202,0,0,0,0,0,0,0,0,0,-1,1119,1226,0,0
-98,-202,0,0,0,0,0,0,0,0,0,-1,1126,1226,0,0
-91,-202,0,0,0,0,0,0,0,0,0,-1,1133,1226,0,0
-84,-202,0,0,0,0,0,0,0,0,0,-1,1140,1226,0,0
-77,-202,0,0,0,0,0,0,0,0,0,-1,1147,1226,0,0
-70,-202,0,0,0,0,0,0,0,0,0,-1,1154,1226,0,0
-63,-202,0,0,0,0,0,0,0,0,0,-1,1161,1226,0,0
-56,-202,0,0,0,0,0,0,0,0,0,-1,1168,1226,0,0
-49,-202,0,0,0,0,0,0,0,0,0,-1,1175,1226,0,0
-42,-202,0,0,0,0,0,0,0,0,0,-1,1182,1226,0,0
-35,-202,0,0,0,0,0,0,0,0,0,-1,1189,1226,0,0
-28,-202,0,0,0,0,0,0,0,0,0,-1,1196,1226,0,0
-21,-202,0,0,0,0,0,0,0,0,0,-1,1203,1226,0,0
-14,-202,0,0,0,0,0,0,0,0,0,-1,1210,1226,0,0
-7,-202,0,0,0,0,0,0,0,0,0,-1,1217,1226,0,0
0,-202,0,0,0,0,0,0,0,0,0,-1,1224,1226,0,0
7,-202,0,0,0,0,0,0,0,0,0,-1,1231,1226,0,0
14,-202,0,0,0,0,0,0,0,0,0,-1,1238,1226,0,0
21,-202,0,0,0,0,0,0,0,0,0,-1,1245,1226,0,0
28,-202,0,0,0,0,0,0,0,0,0,-1,1252,1226,0,0
35,-202,0,0,0,0,0,0,0,0,0,-1,1259,1226,0,0
42,-202,0,0,0,0,0,0,0,0,0,-1,1266,1226,0,0
49,-202,0,0,0,0,0,0,0,0,0,-1,1273,1226,0,0
56,-202,0,0,0,0,0,0,0,0,0,-1,1280,1226,0,0
63,-202,0,0,0,0,0,0,0,0,0,-1,1287,1226,0,0
70,-202,0,0,0,0,0,0,0,0,0,-1,1294,1226,0,0
77,-202,0,0,0,0,0,0,0,0,0,-1,1301,1226,0,0
84,-202,0,0,0,0,0,0,0,0,0,-1,1308,1226,0,0
91,-202,0,0,0,0,0,0,0,0,0,-1,1315,1226,0,0
98,-202,0,0,0,0,0,0,0,0,0,-1,1322,1226,0,0
105,-202,0,0,0,0,0,0,0,0,0,-1,1329,1226,0,0
112,-202,0,0,0,0,0,0,0,0,0,-1,1336,1226,0,0
119,-202,0,0,0,0,0,0,0,0,0,-1,1343,1226,0,0
126,-202,0,0,0,0,0,0,0,0,0,-1,1350,1226,0,0
133,-202,0,0,0,0,0,0,0,0,0,-1,1357,1226,0,0
140,-202,0,0,0,0,0,0,0,0,0,-1,1364,1226,0,0
147,-202,0,0,0,0,0,0,0,0,0,-1,1371,1226,0,0
154,-202,0,0,0,0,0,0,0,0,0,-1,1378,1226,0,0
161,-202,0,0,0,0,0,0,0,0,0,-1,1385,1226,0,0
168,-202,0,0,0,0,0,0,0,0,0,-1,1392,1226,0,0
175,-202,0,0,0,0,0,0,0,0,0,-1,1399,1226,0,0
182,-202,0,0,0,0,0,0,0,0,0,-1,1406,1226,0,0
189,-202,0,0,0,0,0,0,0,0,0,-1,1413,1226,0,0
196,-202,0,0,0,0,0,0,0,0,0,-1,1420,1226,0,0
203,-202,0,0,0,0,0,0,0,0,0,-1,1427,1226,0,0
210,-202,0,0,0,0,0,0,0,0,0,-1,1434,1226,0,0
217,-202,0,0,0,0,0,0,0,0,0,-1,1441,1226,0,0
224,-202,0,0,0,0,0,0,0,0,0,-1,1448,1226,0,0
231,-202,0,0,0,0,0,0,0,0,0,-1,1455,1226,0,0
238,-202,0,0,0,0,0,0,0,0,0,-1,1462,1226,0,0
245,-202,0,0,0,0,0,0,0,0,0,-1,1469,1226,0,0
252,-202,0,0,0,0,0,0,0,0,0,-1,1476,1226,0,0
259,-202,0,0,0,0,0,0,0,0,0,-1,1483,1226,0,0
266,-202,0,0,0,0,0,0,0,0,0,-1,1490,1226,0,0
273,-202,0,0,0,0,0,0,0,0,0,-1,1497,1226,0,0
280,-202,0,0,0,0,0,0,0,0,0,-1,1504,1226,0,0
287,-202,0,0,0,0,0,0,0,0,0,-1,1511,1226,0,0
294,-202,0,0,0,0,0,0,0,0,0,-1,1518,1226,0,0
301,-202,0,0,0,0,0,0,0,0,0,-1,1525,1226,0,0
308,-202,0,0,0,0,0,0,0,0,0,-1,1532,1226,0,0
315,-202,0,0,0,0,0,0,0,0,0,-1,1539,1226,0,0
322,-202,0,0,0,0,0,0,0,0,0,-1,1546,1226,0,0
329,-202,0,0,0,0,0,0,0,0,0,-1,1553,1226,0,0
336,-202,0,0,0,0,0,0,0,0,0,-1,1560,1226,0,0
343,-202,0,0,0,0,0,0,0,0,0,-1,1567,1226,0,0
350,-202,0,0,0,0,0,0,0,0,0,-1,1574,1226,0,0
357,-202,0,0,0,0,0,0,0,0,0,-1,1581,1226,0,0
364,-202,0,0,0,0,0,0,0,0,0,-1,1588,1226,0,0
371,-202,0,0,0,0,0,0,0,0,0,-1,1595,1226,0,0
378,-202,0,0,0,0,0,0,0,0,0,-1,1602,1226,0,0
385,-202,0,0,0,0,0,0,0,0,0,-1,1609,1226,0,0
392,-202,0,0,0,0,0,0,0,0,0,-1,1616,1226,0,0
399,-202,0,0,0,0,0,0,0,0,0,-1,1623,1226,0,0
406,-202,0,0,0,0,0,0,0,0,0,-1,1630,1226,0,0
413,-202,0,0,0,0,0,0,0,0,0,-1,1637,1226,0,0
420,-202,0,0,0,0,0,0,0,0,0,-1,1644,1226,0,0
427,-202,0,0,0,0,0,0,0,0,0,-1,1651,1226,0,0
434,-202,0,0,0,0,0,0,0,0,0,-1,1658,1226,0,0
441,-202,0,0,0,0,0,0,0,0,0,-1,1665,1226,0,0
448,-202,0,0,0,0,0,0,0,0,0,-1,1672,1226,0,0
455,-202,0,0,0,0,0,0,0,0,0,-1,1679,1226,0,0
462,-202,0,0,0,0,0,0,0,0,0,-1,1686,1226,0,0
469,-202,0,0,0,0,0,0,0,0,0,-1,1693,1226,0,0
476,-202,0,0,0,0,0,0,0,0,0,-1,1700,1226,0,0
483,-202,0,0,0,0,0,0,0,0,0,-1,1707,1226,0,0
490,-202,0,0,0,0,0,0,0,0,0,-1,1714,1226,0,0
497,-202,0,0,0,0,0,0,0,0,0,-1,1721,1226,0,0
504,-202,0,0,0,0,0,0,0,0,0,-1,1728,1226,0,0
511,-202,0,0,0,0,0,0,0,0,0,-1,1735,1226,0,0
518,-202,0,0,0,0,0,0,0,0,0,-1,1742,1226,0,0
525,-202,0,0,0,0,0,0,0,0,0,-1,1749,1226,0,0
532,-202,0,0,0,0,0,0,0,0,0,-1,1756,1226,0,0
539,-202,0,0,0,0,0,0,0,0,0,-1,1763,1226,0,0
546,-202,0,0,0,0,0,0,0,0,0,-1,1770,1226,0,0
553,-202,0,0,0,0,0,0,0,0,0,-1,1777,1226,0,0
560,-202,0,0,0,0,0,0,0,0,0,-1,1784,1226,0,0
567,-202,0,0,0,0,0,0,0,0,0,-1,1791,1226,0,0
574,-202,0,0,0,0,0,0,0,0,0,-1,1798,1226,0,0
581,-202,0,0,0,0,0,0,0,0,0,-1,1805,1226,0,0
588,-202,0,0,0,0,0,0,0,0,0,-1,1812,1226,0,0
595,-202,0,0,0,0,0,0,0,0,0,-1,1819,1226,0,0
602,-202,0,0,0,0,0,0,0,0,0,-1,1826,1226,0,0
609,-202,0,0,0,0,0,0,0,0,0,-1,1833,1226,0,0
616,-202,0,0,0,0,0,0,0,0,0,-1,1840,1226,0,0
623,-202,0,0,0,0,0,0,0,0,0,-1,1847,1226,0,0
630,-202,11.7396,1.69592,0.00153131,0.00373242,-0.000534513,0.00385536,0.00140838,-1.34474,0.00225265,0.0381708,1854,1226,11.7396,-1.69591
637,-202,11.8302,1.80969,0.00231371,0.00252581,0.0019714,0.00439401,0.000445512,0.812269,0.00279271,0.036554,1861,1226,11.8302,-1.80967
644,-202,11.7554,1.77844,0.0020309,0.00150036,0.00374581,0.00552082,-0.00198956,0.750049,0.00449305,0.0335676,1868,1226,11.7554,-1.77847
651,-202,11.743,1.77197,0.000957887,0.000504437,0.00493637,0.00567273,-0.00421041,0.76245,0.00572682,0.0270598,1875,1226,11.743,-1.77203
658,-202,11.7322,1.7312,-0.000401463,-0.00030342,0.00554291,0.00519068,-0.00589557,0.78982,0.00640496,0.0224892,1882,1226,11.7322,-1.7312
665,-202,11.7643,1.69006,-0.00171697,-0.000903919,0.00567282,0.00437692,-0.00699782,0.821168,0.00662506,0.0207002,1889,1226,11.7643,-1.69011
672,-202,11.7448,1.67419,-0.00281999,-0.00135301,0.00554977,0.00351153,-0.00768453,0.8511,0.00661202,0.0404823,1896,1226,11.7447,-1.67418
679,-202,11.54,1.453,-0.00367276,-0.00156809,0.00526974,0.00275336,-0.00799422,0.883949,0.00644634,0.0443111,1903,1226,11.5401,-1.453
686,-202,11.3499,1.26355,0,0,0,0,0,0,0,-1,1910,1226,11.3498,-1.26361
693,-202,10.8413,2.38501,-0.00433295,-0.001839,0.00434337,0.00143285,-0.0076048,0.925187,0.00560883,0.0399833,1917,1226,10.8413,-2.38504
700,-202,10.5795,2.61694,-0.00424502,-0.00182769,0.00381829,0.000968671,-0.00704137,0.938681,0.00504821,0.017352,1924,1226,10.5795,-2.61698
707,-202,10.5663,2.5769,-0.00456344,-0.00168837,0.00285032,6.64103e-05,-0.00631822,1.01896,0.00423445,0.0171504,1931,1226,10.5663,-2.5769
714,-202,10.5791,2.50964,-0.0040001,-0.00137213,0.00208043,-0.000225474,-0.00514676,1.06706,0.00335854,0.0154577,1938,1226,10.579,-2.50966
721,-202,10.5992,2.42261,-0.00282653,-0.000858711,0.00131437,-0.000200775,-0.00348447,1.10669,0.00225903,0.0122142,1945,1226,10.5992,-2.42259
728,-202,10.5989,2.35193,-0.00139728,-0.000375856,0.00049654,-0.000174263,-0.00159887,1.18513,0.00101284,0.010813,1952,1226,10.5989,-2.35187
735,-202,10.5945,2.28259,0.000205593,0.000481852,-0.000496314,0.000858899,-0.000171455,-0.921119,0.000637484,0.0109654,1959,1226,10.5945,-2.28264
742,-202,10.5985,2.21277,0.00147308,0.00128441,-0.00157136,0.00295294,-0.000195443,-0.755416,0.0020369,0.00973208,1966,1226,10.5985,-2.21275
749,-202,10.5884,2.13611,0.00289882,0.00208125,-0.00297298,0.00549099,-0.000510911,-0.717076,0.0038423,0.00917569,1973,1226,10.5884,-2.13612
756,-202,10.5795,2.04895,0.00442205,0.00326303,-0.00491522,0.0087918,-0.00110672,-0.726718,0.00626279,0.00965659,1980,1226,10.5794,-2.04895
763,-202,10.5773,1.99243,0.0061895,0.00466072,-0.00719663,0.0126622,-0.001812,-0.732489,0.00910578,0.0139956,1987,1226,10.5773,-1.99246
770,-202,10.5424,1.83044,0.00833291,0.00637287,-0.0104835,0.0178821,-0.00317635,-0.738793,0.0131091,0.0365313,1994,1226,10.5424,-1.83039
777,-202,10.4099,1.50391,0,0,0,0,0,0,0,-1,2001,1226,10.41,-1.50393
784,-202,10.3831,1.19775,0,0,0,0,0,0,0,-1,2008,1226,10.383,-1.19774
791,-202,10.2577,1.06738,0,0,0,0,0,0,0,-1,2015,1226,10.2577,-1.06738
798,-202,10.7284,1.58789,0,0,0,0,0,0,0,-1,2022,1226,10.7284,-1.58785
805,-202,0,0,0,0,0,0,0,0,0,-1,2029,1226,0,0
812,-202,0,0,0,0,0,0,0,0,0,-1,2036,1226,0,0
-700,-209,0,0,0,0,0,0,0,0,0,-1,524,1233,0,0
-693,-209,0,0,0,0,0,0,0,0,0,-1,531,1233,0,0
-686,-209,0,0,0,0,0,0,0,0,0,-1,538,1233,0,0
-679,-209,-2.30914,3.16211,-0.027347,-0.00480034,-0.021492,0.00819549,-0.0403428,-1.02694,0.0300025,0.0471704,545,1233,-2.30915,-3.16213
-672,-209,-3.25397,2.16565,-0.0101752,-0.00172261,-0.0168984,0.01147,-0.0233678,-0.907934,0.0205009,0.0469981,552,1233,-3.25395,-2.16566
-665,-209,-4.12561,1.75452,-0.000313099,0.000106725,-0.0125108,0.0124094,-0.0126157,-0.793787,0.0144484,0.0424745,559,1233,-4.1256,-1.75447
-658,-209,-4.6048,1.23242,0.00521492,0.00108642,-0.00875936,0.01215,-0.00584863,-0.669678,0.0106017,0.0436202,566,1233,-4.60482,-1.23242
-651,-209,-4.92828,1.13794,0,0,0,0,0,0,0,-1,573,1233,-4.92829,-1.13798
-644,-209,-4.87262,0.851685,0,0,0,0,0,0,0,-1,580,1233,-4.8726,-0.851701
-637,-209,-4.65338,0.727051,0.0082514,0.00184475,-0.00181633,0.00873051,0.00136564,-0.257906,0.00542275,0.0403394,587,1233,-4.65337,-0.72703
-630,-209,-4.44983,0.637817,0.0071385,0.00184265,-0.000908784,0.00729011,0.00169104,-0.165305,0.00440593,0.021529,594,1233,-4.44983,-0.637798
-623,-209,-4.50873,0.786499,0.00647602,0.00190641,-0.000326569,0.00649924,0.00188319,-0.0709845,0.00386133,0.0108511,601,1233,-4.50876,-0.786493
-616,-209,-4.50952,0.862793,0.00544283,0.000784249,0.000391307,0.00547547,0.000751609,0.08322,0.00342736,0.0117389,608,1233,-4.50952,-0.86278
-609,-209,-4.5033,0.923584,0.00335275,0.000558907,0.000421469,0.00341495,0.00049671,0.146513,0.00213045,0.0137742,615,1233,-4.50328,-0.923574
-602,-209,-4.51392,1.00952,0.00112682,-0.00078986,-8.23474e-05,0.00113035,-0.000793391,-0.0428582,0.00111634,0.0158464,622,1233,-4.5139,-1.00946
-595,-209,-4.51044,1.09924,0.00012738,-0.00140463,-0.00118542,0.000772751,-0.00205,-0.498552,0.00168441,0.01148,629,1233,-4.51046,-1.09925
-588,-209,-4.47968,1.19275,-0.00120973,-0.00169465,-0.00223299,0.000793919,-0.0036983,-0.73132,0.00276838,0.0123855,636,1233,-4.47965,-1.19273
-581,-209,-4.47546,1.30237,-0.00227223,-0.00204053,-0.00299252,0.000838379,-0.00515114,-0.804745,0.00374497,0.0111415,643,1233,-4.47544,-1.30231
-574,-209,-4.53943,1.35632,-0.00273348,-0.0020522,-0.00372489,0.00134759,-0.00613328,-0.830996,0.00460426,0.0118089,650,1233,-4.53943,-1.35631
-567,-209,-4.65503,1.53699,0,0,0,0,0,0,0,-1,657,1233,-4.65506,-1.53697
-560,-209,-5.06421,1.5907,0,0,0,0,0,0,0,-1,664,1233,-5.06421,-1.59072
-553,-209,-6.09534,0.806396,0,0,0,0,0,0,0,-1,671,1233,-6.09536,-0.806369
-546,-209,-5.93213,1.1532,-0.00519571,3.46241e-05,-0.00477372,0.00286257,-0.00802366,-1.03598,0.00651636,0.0452068,678,1233,-5.93214,-1.15317
-539,-209,-5.62549,0.569946,-0.00571458,0.00107948,-0.00455,0.00336068,-0.00799578,-1.10606,0.00673624,0.040378,685,1233,-5.6255,-0.569968
-532,-209,-5.62109,0.593262,-0.00598198,0.00216811,-0.00392607,0.00375169,-0.00756556,-1.18741,0.00665654,0.03193,692,1233,-5.62109,-0.593269
-525,-209,-5.69495,0.619751,-0.00584681,0.00307421,-0.00273491,0.00384589,-0.0066185,-1.29578,0.0061119,0.0333693,699,1233,-5.69494,-0.619714
-518,-209,-5.87396,0.767822,-0.00519316,0.00345879,-0.000869734,0.00354536,-0.00527972,-1.47159,0.00512786,0.0405409,706,1233,-5.87394,-0.767765
-511,-209,-6.01044,0.782471,-0.00351013,0.00250482,0.0018495,0.00302801,-0.00403331,1.29512,0.0040906,0.042809,713,1233,-6.01047,-0.782461
-504,-209,0,0,0,0,0,0,0,0,0,-1,720,1233,0,0
-497,-209,0,0,0,0,0,0,0,0,0,-1,727,1233,0,0
-490,-209,0,0,0,0,0,0,0,0,0,-1,734,1233,0,0
-483,-209,0,0,0,0,0,0,0,0,0,-1,741,1233,0,0
-476,-209,0,0,0,0,0,0,0,0,0,-1,748,1233,0,0
-469,-209,0,0,0,0,0,0,0,0,0,-1,755,1233,0,0
-462,-209,0,0,0,0,0,0,0,0,0,-1,762,1233,0,0
-455,-209,0,0,0,0,0,0,0,0,0,-1,769,1233,0,0
-448,-209,0,0,0,0,0,0,0,0,0,-1,776,1233,0,0
-441,-209,0,0,0,0,0,0,0,0,0,-1,783,1233,0,0
-434,-209,0,0,0,0,0,0,0,0,0,-1,790,1233,0,0
-427,-209,0,0,0,0,0,0,0,0,0,-1,797,1233,0,0
-420,-209,0,0,0,0,0,0,0,0,0,-1,804,1233,0,0
-413,-209,0,0,0,0,0,0,0,0,0,-1,811,1233,0,0
-406,-209,0,0,0,0,0,0,0,0,0,-1,818,1233,0,0
-399,-209,0,0,0,0,0,0,0,0,0,-1,825,1233,0,0
-392,-209,0,0,0,0,0,0,0,0,0,-1,832,1233,0,0
-385,-209,0,0,0,0,0,0,0,0,0,-1,839,1233,0,0
-378,-209,0,0,0,0,0,0,0,0,0,-1,846,1233,0,0
-371,-209,0,0,0,0,0,0,0,0,0,-1,853,1233,0,0
-364,-209,0,0,0,0,0,0,0,0,0,-1,860,1233,0,0
-357,-209,0,0,0,0,0,0,0,0,0,-1,867,1233,0,0
-350,-209,0,0,0,0,0,0,0,0,0,-1,874,1233,0,0
-343,-209,0,0,0,0,0,0,0,0,0,-1,881,1233,0,0
-336,-209,0,0,0,0,0,0,0,0,0,-1,888,1233,0,0
-329,-209,0,0,0,0,0,0,0,0,0,-1,895,1233,0,0
-322,-209,0,0,0,0,0,0,0,0,0,-1,902,1233,0,0
-315,-209,0,0,0,0,0,0,0,0,0,-1,909,1233,0,0
-308,-209,0,0,0,0,0,0,0,0,0,-1,916,1233,0,0
-301,-209,0,0,0,0,0,0,0,0,0,-1,923,1233,0,0
-294,-209,0,0,0,0,0,0,0,0,0,-1,930,1233,0,0
-287,-209,0,0,0,0,0,0,0,0,0,-1,937,1233,0,0
-280,-209,0,0,0,0,0,0,0,0,0,-1,944,1233,0,0
-273,-209,0,0,0,0,0,0,0,0,0,-1,951,1233,0,0
-266,-209,0,0,0,0,0,0,0,0,0,-1,958,1233,0,0
-259,-209,0,0,0,0,0,0,0,0,0,-1,965,1233,0,0
-252,-209,0,0,0,0,0,0,0,0,0,-1,972,1233,0,0
-245,-209,0,0,0,0,0,0,0,0,0,-1,979,1233,0,0
-238,-209,0,0,0,0,0,0,0,0,0,-1,986,1233,0,0
-231,-209,0,0,0,0,0,0,0,0,0,-1,993,1233,0,0
-224,-209,0,0,0,0,0,0,0,0,0,-1,1000,1233,0,0
-217,-209,0,0,0,0,0,0,0,0,0,-1,1007,1233,0,0
-210,-209,0,0,0,0,0,0,0,0,0,-1,1014,1233,0,0
-203,-209,0,0,0,0,0,0,0,0,0,-1,1021,1233,0,0
-196,-209,0,0,0,0,0,0,0,0,0,-1,1028,1233,0,0
-189,-209,0,0,0,0,0,0,0,0,0,-1,1035,1233,0,0
-182,-209,0,0,0,0,0,0,0,0,0,-1,1042,1233,0,0
-175,-209,0,0,0,0,0,0,0,0,0,-1,1049,1233,0,0
-168,-209,0,0,0,0,0,0,0,0,0,-1,1056,1233,0,0
-161,-209,0,0,0,0,0,0,0,0,0,-1,1063,1233,0,0
-154,-209,0,0,0,0,0,0,0,0,0,-1,1070,1233,0,0
-147,-209,0,0,0,0,0,0,0,0,0,-1,1077,1233,0,0
-140,-209,0,0,0,0,0,0,0,0,0,-1,1084,1233,0,0
-133,-209,0,0,0,0,0,0,0,0,0,-1,1091,1233,0,0
-126,-209,0,0,0,0,0,0,0,0,0,-1,1098,1233,0,0
-119,-209,0,0,0,0,0,0,0,0,0,-1,1105,1233,0,0
-112,-209,0,0,0,0,0,0,0,0,0,-1,1112,1233,0,0
-105,-209,0,0,0,0,0,0,0,0,0,-1,1119,1233,0,0
-98,-209,0,0,0,0,0,0,0,0,0,-1,1126,1233,0,0
-91,-209,0,0,0,0,0,0,0,0,0,-1,1133,1233,0,0
-84,-209,0,0,0,0,0,0,0,0,0,-1,1140,1233,0,0
-77,-209,0,0,0,0,0,0,0,0,0,-1,1147,1233,0,0
-70,-209,0,0,0,0,0,0,0,0,0,-1,1154,1233,0,0
-63,-209,0,0,0,0,0,0,0,0,0,-1,1161,1233,0,0
-56,-209,0,0,0,0,0,0,0,0,0,-1,1168,1233,0,0
-49,-209,0,0,0,0,0,0,0,0,0,-1,1175,1233,0,0
-42,-209,0,0,0,0,0,0,0,0,0,-1,1182,1233,0,0
-35,-209,0,0,0,0,0,0,0,0,0,-1,1189,1233,0,0
-28,-209,0,0,0,0,0,0,0,0,0,-1,1196,1233,0,0
-21,-209,0,0,0,0,0,0,0,0,0,-1,1203,1233,0,0
-14,-209,0,0,0,0,0,0,0,0,0,-1,1210,1233,0,0
-7,-209,0,0,0,0,0,0,0,0,0,-1,1217,1233,0,0
0,-209,0,0,0,0,0,0,0,0,0,-1,1224,1233,0,0
7,-209,0,0,0,0,0,0,0,0,0,-1,1231,1233,0,0
14,-209,0,0,0,0,0,0,0,0,0,-1,1238,1233,0,0
21,-209,0,0,0,0,0,0,0,0,0,-1,1245,1233,0,0
28,-209,0,0,0,0,0,0,0,0,0,-1,1252,1233,0,0
35,-209,0,0,0,0,0,0,0,0,0,-1,1259,1233,0,0
42,-209,0,0,0,0,0,0,0,0,0,-1,1266,1233,0,0
49,-209,0,0,0,0,0,0,0,0,0,-1,1273,1233,0,0
56,-209,0,0,0,0,0,0,0,0,0,-1,1280,1233,0,0
63,-209,0,0,0,0,0,0,0,0,0,-1,1287,1233,0,0
70,-209,0,0,0,0,0,0,0,0,0,-1,1294,1233,0,0
77,-209,0,0,0,0,0,0,0,0,0,-1,1301,1233,0,0
84,-209,0,0,0,0,0,0,0,0,0,-1,1308,1233,0,0
91,-209,0,0,0,0,0,0,0,0,0,-1,1315,1233,0,0
98,-209,0,0,0,0,0,0,0,0,0,-1,1322,1233,0,0
105,-209,0,0,0,0,0,0,0,0,0,-1,1329,1233,0,0
112,-209,0,0,0,0,0,0,0,0,0,-1,1336,1233,0,0
119,-209,0,0,0,0,0,0,0,0,0,-1,1343,1233,0,0
126,-209,0,0,0,0,0,0,0,0,0,-1,1350,1233,0,0
133,-209,0,0,0,0,0,0,0,0,0,-1,1357,1233,0,0
140,-209,0,0,0,0,0,0,0,0,0,-1,1364,1233,0,0
147,-209,0,0,0,0,0,0,0,0,0,-1,1371,1233,0,0
154,-209,0,0,0,0,0,0,0,0,0,-1,1378,1233,0,0
161,-209,0,0,0,0,0,0,0,0,0,-1,1385,1233,0,0
168,-209,0,0,0,0,0,0,0,0,0,-1,1392,1233,0,0
175,-209,0,0,0,0,0,0,0,0,0,-1,1399,1233,0,0
182,-209,0,0,0,0,0,0,0,0,0,-1,1406,1233,0,0
189,-209,0,0,0,0,0,0,0,0,0,-1,1413,1233,0,0
196,-209,0,0,0,0,0,0,0,0,0,-1,1420,1233,0,0
203,-209,0,0,0,0,0,0,0,0,0,-1,1427,1233,0,0
210,-209,0,0,0,0,0,0,0,0,0,-1,1434,1233,0,0
217,-209,0,0,0,0,0,0,0,0,0,-1,1441,1233,0,0
224,-209,0,0,0,0,0,0,0,0,0,-1,1448,1233,0,0
231,-209,0,0,0,0,0,0,0,0,0,-1,1455,1233,0,0
238,-209,0,0,0,0,0,0,0,0,0,-1,1462,1233,0,0
245,-209,0,0,0,0,0,0,0,0,0,-1,1469,1233,0,0
252,-209,0,0,0,0,0,0,0,0,0,-1,1476,1233,0,0
259,-209,0,0,0,0,0,0,0,0,0,-1,1483,1233,0,0
266,-209,0,0,0,0,0,0,0,0,0,-1,1490,1233,0,0
273,-209,0,0,0,0,0,0,0,0,0,-1,1497,1233,0,0
280,-209,0,0,0,0,0,0,0,0,0,-1,1504,1233,0,0
287,-209,0,0,0,0,0,0,0,0,0,-1,1511,1233,0,0
294,-209,0,0,0,0,0,0,0,0,0,-1,1518,1233,0,0
301,-209,0,0,0,0,0,0,0,0,0,-1,1525,1233,0,0
308,-209,0,0,0,0,0,0,0,0,0,-1,1532,1233,0,0
315,-209,0,0,0,0,0,0,0,0,0,-1,1539,1233,0,0
322,-209,0,0,0,0,0,0,0,0,0,-1,1546,1233,0,0
329,-209,0,0,0,0,0,0,0,0,0,-1,1553,1233,0,0
336,-209,0,0,0,0,0,0,0,0,0,-1,1560,1233,0,0
343,-209,0,0,0,0,0,0,0,0,0,-1,1567,1233,0,0
350,-209,0,0,0,0,0,0,0,0,0,-1,1574,1233,0,0
357,-209,0,0,0,0,0,0,0,0,0,-1,1581,1233,0,0
364,-209,0,0,0,0,0,0,0,0,0,-1,1588,1233,0,0
371,-209,0,0,0,0,0,0,0,0,0,-1,1595,1233,0,0
378,-209,0,0,0,0,0,0,0,0,0,-1,1602,1233,0,0
385,-209,0,0,0,0,0,0,0,0,0,-1,1609,1233,0,0
392,-209,0,0,0,0,0,0,0,0,0,-1,1616,1233,0,0
399,-209,0,0,0,0,0,0,0,0,0,-1,1623,1233,0,0
406,-209,0,0,0,0,0,0,0,0,0,-1,1630,1233,0,0
413,-209,0,0,0,0,0,0,0,0,0,-1,1637,1233,0,0
420,-209,0,0,0,0,0,0,0,0,0,-1,1644,1233,0,0
427,-209,0,0,0,0,0,0,0,0,0,-1,1651,1233,0,0
434,-209,0,0,0,0,0,0,0,0,0,-1,1658,1233,0,0
441,-209,0,0,0,0,0,0,0,0,0,-1,1665,1233,0,0
448,-209,0,0,0,0,0,0,0,0,0,-1,1672,1233,0,0
455,-209,0,0,0,0,0,0,0,0,0,-1,1679,1233,0,0
462,-209,0,0,0,0,0,0,0,0,0,-1,1686,1233,0,0
469,-209,0,0,0,0,0,0,0,0,0,-1,1693,1233,0,0
476,-209,0,0,0,0,0,0,0,0,0,-1,1700,1233,0,0
483,-209,0,0,0,0,0,0,0,0,0,-1,1707,1233,0,0
490,-209,0,0,0,0,0,0,0,0,0,-1,1714,1233,0,0
497,-209,0,0,0,0,0,0,0,0,0,-1,1721,1233,0,0
504,-209,0,0,0,0,0,0,0,0,0,-1,1728,1233,0,0
511,-209,0,0,0,0,0,0,0,0,0,-1,1735,1233,0,0
518,-209,0,0,0,0,0,0,0,0,0,-1,1742,1233,0,0
525,-209,0,0,0,0,0,0,0,0,0,-1,1749,1233,0,0
532,-209,0,0,0,0,0,0,0,0,0,-1,1756,1233,0,0
539,-209,0,0,0,0,0,0,0,0,0,-1,1763,1233,0,0
546,-209,0,0,0,0,0,0,0,0,0,-1,1770,1233,0,0
553,-209,0,0,0,0,0,0,0,0,0,-1,1777,1233,0,0
560,-209,0,0,0,0,0,0,0,0,0,-1,1784,1233,0,0
567,-209,0,0,0,0,0,0,0,0,0,-1,1791,1233,0,0
574,-209,0,0,0,0,0,0,0,0,0,-1,1798,1233,0,0
581,-209,0,0,0,0,0,0,0,0,0,-1,1805,1233,0,0
588,-209,0,0,0,0,0,0,0,0,0,-1,1812,1233,0,0
595,-209,0,0,0,0,0,0,0,0,0,-1,1819,1233,0,0
602,-209,0,0,0,0,0,0,0,0,0,-1,1826,1233,0,0
609,-209,0,0,0,0,0,0,0,0,0,-1,1833,1233,0,0
616,-209,0,0,0,0,0,0,0,0,0,-1,1840,1233,0,0
623,-209,11.726,1.54944,-0.00301165,0.00449166,-0.00497931,0.00697447,-0.00549445,-1.10825,0.00721582,0.0341943,1847,1233,11.7259,-1.5494
630,-209,11.821,1.63342,0.00194288,0.00353815,-0.000570705,0.0037213,0.00175973,-1.26027,0.00214954,0.035808,1854,1233,11.8211,-1.63346
637,-209,11.8955,1.72681,0.00314237,0.00223574,0.00303649,0.0057592,-0.000381087,0.711301,0.00397259,0.0352911,1861,1233,11.8955,-1.72684
644,-209,11.8188,1.7666,0.00298084,0.00103926,0.00554545,0.00763983,-0.00361973,0.698746,0.00663739,0.0296922,1868,1233,11.8188,-1.76659
651,-209,11.8029,1.75537,0.00193301,-4.87057e-05,0.00708017,0.00809132,-0.00620702,0.715876,0.00827901,0.0233432,1875,1233,11.8028,-1.75533
658,-209,11.7689,1.7251,0.000531654,-0.000882041,0.00774242,0.00759942,-0.00794981,0.739877,0.00897812,0.0203489,1882,1233,11.7689,-1.72508
665,-209,11.7881,1.65369,-0.000872946,-0.00147394,0.007776,0.00660836,-0.00895525,0.766086,0.00901965,0.0346674,1889,1233,11.7881,-1.65373
672,-209,11.7677,1.71936,-0.00209721,-0.0018927,0.0074508,0.00545655,-0.00944646,0.79226,0.00870644,0.0492124,1896,1233,11.7677,-1.71932
679,-209,10.8048,2.42261,-0.00307776,-0.00204423,0.00691134,0.00436963,-0.00949162,0.822714,0.0081829,0.0482696,1903,1233,10.8048,-2.42265
686,-209,10.4941,2.49146,-0.0036858,-0.00215975,0.00617863,0.00330279,-0.00914834,0.846834,0.00744806,0.0470233,1910,1233,10.4941,-2.49143
693,-209,10.5165,2.62903,-0.00391789,-0.00219208,0.0054234,0.00243663,-0.0085466,0.864291,0.00666021,0.0401519,1917,1233,10.5165,-2.62909
700,-209,10.5104,2.68457,-0.0038998,-0.00208089,0.00457821,0.00167732,-0.00765801,0.883446,0.00574663,0.0161507,1924,1233,10.5104,-2.6846
707,-209,10.5134,2.58215,-0.00446629,-0.00182901,0.00319681,0.000310447,-0.00660574,0.98101,0.00451087,0.0153914,1931,1233,10.5134,-2.58212
714,-209,10.5171,2.49377,-0.00381638,-0.00143242,0.00217721,-0.000142253,-0.00510655,1.03585,0.00335796,0.0133924,1938,1233,10.5171,-2.49375
721,-209,10.5232,2.41956,-0.00241048,-0.000825433,0.00123217,-0.000152919,-0.003083,1.07119,0.0020063,0.0124585,1945,1233,10.5232,-2.41958
728,-209,10.5374,2.34326,-0.000923106,-0.0002514,0.00019861,-0.00019707,-0.000977437,1.30378,0.000596879,0.0122946,1952,1233,10.5373,-2.34321
735,-209,10.5238,2.2749,0.000763445,0.000613781,-0.000963096,0.00165461,-0.000277386,-0.746626,0.00120622,0.0124929,1959,1233,10.5239,-2.27487
742,-209,10.5233,2.20935,0.00206986,0.00143396,-0.00223787,0.00401226,-0.000508433,-0.714832,0.00285942,0.0103114,1966,1233,10.5233,-2.20934
749,-209,10.5243,2.13733,0.00358543,0.00237944,-0.00382416,0.00685384,-0.000888971,-0.707202,0.00489255,0.00921053,1973,1233,10.5242,-2.13735
756,-209,10.5063,2.06238,0.00533168,0.00368694,-0.00590719,0.0104735,-0.00145484,-0.716235,0.00751435,0.00989171,1980,1233,10.5063,-2.06242
763,-209,10.4691,1.98682,0.00746569,0.00541355,-0.00850872,0.01501,-0.00213074,-0.725393,0.0107873,0.0164671,1987,1233,10.4691,-1.98677
770,-209,10.5208,1.80286,0.010179,0.00770645,-0.0121237,0.0211293,-0.0032438,-0.734587,0.0152827,0.0402449,1994,1233,10.5208,-1.80291
777,-209,10.7594,1.52246,0,0,0,0,0,0,0,-1,2001,1233,10.7594,-1.52246
784,-209,10.8721,1.38562,0,0,0,0,0,0,0,-1,2008,1233,10.8721,-1.38564
791,-209,10.9225,1.2793,0,0,0,0,0,0,0,-1,2015,1233,10.9225,-1.27927
798,-209,10.4336,1.47742,0,0,0,0,0,0,0,-1,2022,1233,10.4335,-1.47738
805,-209,0,0,0,0,0,0,0,0,0,-1,2029,1233,0,0
812,-209,0,0,0,0,0,0,0,0,0,-1,2036,1233,0,0
-700,-216,0,0,0,0,0,0,0,0,0,-1,524,1240,0,0
-693,-216,0,0,0,0,0,0,0,0,0,-1,531,1240,0,0
-686,-216,0,0,0,0,0,0,0,0,0,-1,538,1240,0,0
-679,-216,-2.3963,3.38879,0,0,0,0,0,0,0,-1,545,1240,-2.39632,-3.38884
-672,-216,-3.16809,1.9624,0,0,0,0,0,0,0,-1,552,1240,-3.16807,-1.9624
-665,-216,-4.56305,-1.0072,0,0,0,0,0,0,0,-1,559,1240,-4.56307,1.00716
-658,-216,-4.53534,-0.82959,0.0116084,0.00132157,-0.00949224,0.0172611,-0.00433119,-0.537114,0.0131904,0.0447113,566,1240,-4.53532,0.829584
-651,-216,-4.1723,-0.588867,0.0132331,0.00217224,-0.00571638,0.0156564,-0.000251113,-0.400966,0.0105223,0.0436647,573,1240,-4.17232,0.588922
-644,-216,-4.18634,-0.326782,0.0130035,0.00260166,-0.00296764,0.0137906,0.00181456,-0.259259,0.00865257,0.0461044,580,1240,-4.18632,0.326761
-637,-216,-4.60126,0.654297,0.0116979,0.00273328,-0.0010671,0.0118231,0.00260801,-0.116859,0.00717258,0.0455115,587,1240,-4.60123,-0.654264
-630,-216,-4.42206,0.551758,0.00981695,0.00271063,-2.14944e-05,0.00981702,0.00271056,-0.00302466,0.0058542,0.0282904,594,1240,-4.42209,-0.551703
-623,-216,-4.41388,0.760132,0.00850584,0.00265504,0.000662232,0.00857986,0.00258102,0.11131,0.00508291,0.0122652,601,1240,-4.41388,-0.76019
-616,-216,-4.42755,0.869019,0.00692266,0.00156296,0.00127194,0.00720919,0.00127642,0.221574,0.00444221,0.0135361,608,1240,-4.42752,-0.868991
-609,-216,-4.43073,0.947144,0.00450082,0.00138803,0.00123689,0.00493245,0.000956394,0.335755,0.00302041,0.0133271,615,1240,-4.43075,-0.947116
-602,-216,-4.42731,1.00183,0.00218552,-0.000135845,0.000730485,0.00239625,-0.000346582,0.280864,0.00172468,0.0128737,622,1240,-4.4273,-1.00181
-595,-216,-4.40485,1.07312,0.00101498,-0.000900853,-0.000412544,0.00110004,-0.000985911,-0.203331,0.00120492,0.0173717,629,1240,-4.40484,-1.07311
-588,-216,-4.37701,1.1897,-0.000523814,-0.00127466,-0.00152538,0.000671665,-0.00247014,-0.664737,0.00191042,0.0194572,636,1240,-4.37703,-1.18965
-581,-216,-4.38007,1.30396,-0.00173701,-0.00156976,-0.00237518,0.000723268,-0.00403004,-0.802994,0.00295741,0.0161656,643,1240,-4.38009,-1.30391
-574,-216,-4.4231,1.40417,-0.00228564,-0.00152377,-0.0031963,0.00131422,-0.00512362,-0.844708,0.0039278,0.0120758,650,1240,-4.42308,-1.40415
-567,-216,-4.44086,1.55371,-0.00286904,-0.00126386,-0.00377094,0.00178895,-0.00592185,-0.890252,0.00466012,0.0210907,657,1240,-4.44088,-1.55368
-560,-216,-4.61719,1.68445,0,0,0,0,0,0,0,-1,664,1240,-4.61721,-1.68443
-553,-216,-4.63428,1.24255,-0.00460892,8.85816e-05,-0.00437962,0.00270951,-0.00722985,-1.03153,0.00593301,0.0448052,671,1240,-4.63426,-1.2425
-546,-216,-4.63684,1.59497,-0.00546244,0.0011567,-0.00452421,0.00345263,-0.00775838,-1.10118,0.0066299,0.045078,678,1240,-4.63684,-1.59493
-539,-216,-4.79333,1.64734,0,0,0,0,0,0,0,-1,685,1240,-4.79331,-1.64739
-532,-216,-5.56122,0.608765,-0.00686146,0.00360584,-0.00403619,0.00498142,-0.00823705,-1.24233,0.00770845,0.0393685,692,1240,-5.56124,-0.608732
-525,-216,-5.66986,0.606079,-0.00709316,0.00464691,-0.00314244,0.00543512,-0.00788137,-1.32504,0.0077314,0.0381458,699,1240,-5.66984,-0.606033
-518,-216,-5.78076,0.696289,-0.00682032,0.00517409,-0.00164616,0.00539592,-0.00704214,-1.43685,0.00720205,0.0397647,706,1240,-5.78079,-0.696252
-511,-216,-5.83856,0.783813,-0.00553844,0.00451305,0.000690309,0.00456023,-0.00558563,1.50255,0.00586768,0.0424325,713,1240,-5.83858,-0.783832
-504,-216,-5.70648,0.750732,-0.003597,0.00206466,0.00375951,0.00393994,-0.00547228,1.1081,0.0054581,0.0424394,720,1240,-5.70651,-0.750769
-497,-216,0,0,0,0,0,0,0,0,0,-1,727,1240,0,0
-490,-216,0,0,0,0,0,0,0,0,0,-1,734,1240,0,0
-483,-216,0,0,0,0,0,0,0,0,0,-1,741,1240,0,0
-476,-216,0,0,0,0,0,0,0,0,0,-1,748,1240,0,0
-469,-216,0,0,0,0,0,0,0,0,0,-1,755,1240,0,0
-462,-216,0,0,0,0,0,0,0,0,0,-1,762,1240,0,0
-455,-216,0,0,0,0,0,0,0,0,0,-1,769,1240,0,0
-448,-216,0,0,0,0,0,0,0,0,0,-1,776,1240,0,0
-441,-216,0,0,0,0,0,0,0,0,0,-1,783,1240,0,0
-434,-216,0,0,0,0,0,0,0,0,0,-1,790,1240,0,0
-427,-216,0,0,0,0,0,0,0,0,0,-1,797,1240,0,0
-420,-216,0,0,0,0,0,0,0,0,0,-1,804,1240,0,0
-413,-216,0,0,0,0,0,0,0,0,0,-1,811,1240,0,0
-406,-216,0,0,0,0,0,0,0,0,0,-1,818,1240,0,0
-399,-216,0,0,0,0,0,0,0,0,0,-1,825,1240,0,0
-392,-216,0,0,0,0,0,0,0,0,0,-1,832,1240,0,0
-385,-216,0,0,0,0,0,0,0,0,0,-1,839,1240,0,0
-378,-216,0,0,0,0,0,0,0,0,0,-1,846,1240,0,0
-371,-216,0,0,0,0,0,0,0,0,0,-1,853,1240,0,0
-364,-216,0,0,0,0,0,0,0,0,0,-1,860,1240,0,0
-357,-216,0,0,0,0,0,0,0,0,0,-1,867,1240,0,0
-350,-216,0,0,0,0,0,0,0,0,0,-1,874,1240,0,0
-343,-216,0,0,0,0,0,0,0,0,0,-1,881,1240,0,0
-336,-216,0,0,0,0,0,0,0,0,0,-1,888,1240,0,0
-329,-216,0,0,0,0,0,0,0,0,0,-1,895,1240,0,0
-322,-216,0,0,0,0,0,0,0,0,0,-1,902,1240,0,0
-315,-216,0,0,0,0,0,0,0,0,0,-1,909,1240,0,0
-308,-216,0,0,0,0,0,0,0,0,0,-1,916,1240,0,0
-301,-216,0,0,0,0,0,0,0,0,0,-1,923,1240,0,0
-294,-216,0,0,0,0,0,0,0,0,0,-1,930,1240,0,0
-287,-216,0,0,0,0,0,0,0,0,0,-1,937,1240,0,0
-280,-216,0,0,0,0,0,0,0,0,0,-1,944,1240,0,0
-273,-216,0,0,0,0,0,0,0,0,0,-1,951,1240,0,0
-266,-216,0,0,0,0,0,0,0,0,0,-1,958,1240,0,0
-259,-216,0,0,0,0,0,0,0,0,0,-1,965,1240,0,0
-252,-216,0,0,0,0,0,0,0,0,0,-1,972,1240,0,0
-245,-216,0,0,0,0,0,0,0,0,0,-1,979,1240,0,0
-238,-216,0,0,0,0,0,0,0,0,0,-1,986,1240,0,0
-231,-216,0,0,0,0,0,0,0,0,0,-1,993,1240,0,0
-224,-216,0,0,0,0,0,0,0,0,0,-1,1000,1240,0,0
-217,-216,0,0,0,0,0,0,0,0,0,-1,1007,1240,0,0
-210,-216,0,0,0,0,0,0,0,0,0,-1,1014,1240,0,0
-203,-216,0,0,0,0,0,0,0,0,0,-1,1021,1240,0,0
-196,-216,0,0,0,0,0,0,0,0,0,-1,1028,1240,0,0
-189,-216,0,0,0,0,0,0,0,0,0,-1,1035,1240,0,0
-182,-216,0,0,0,0,0,0,0,0,0,-1,1042,1240,0,0
-175,-216,0,0,0,0,0,0,0,0,0,-1,1049,1240,0,0
-168,-216,0,0,0,0,0,0,0,0,0,-1,1056,1240,0,0
-161,-216,0,0,0,0,0,0,0,0,0,-1,1063,1240,0,0
-154,-216,0,0,0,0,0,0,0,0,0,-1,1070,1240,0,0
-147,-216,0,0,0,0,0,0,0,0,0,-1,1077,1240,0,0
-140,-216,0,0,0,0,0,0,0,0,0,-1,1084,1240,0,0
-133,-216,0,0,0,0,0,0,0,0,0,-1,1091,1240,0,0
-126,-216,0,0,0,0,0,0,0,0,0,-1,1098,1240,0,0
-119,-216,0,0,0,0,0,0,0,0,0,-1,1105,1240,0,0
-112,-216,0,0,0,0,0,0,0,0,0,-1,1112,1240,0,0
-105,-216,0,0,0,0,0,0,0,0,0,-1,1119,1240,0,0
-98,-216,0,0,0,0,0,0,0,0,0,-1,1126,1240,0,0
-91,-216,0,0,0,0,0,0,0,0,0,-1,1133,1240,0,0
-84,-216,0,0,0,0,0,0,0,0,0,-1,1140,1240,0,0
-77,-216,0,0,0,0,0,0,0,0,0,-1,1147,1240,0,0
-70,-216,0,0,0,0,0,0,0,0,0,-1,1154,1240,0,0
-63,-216,0,0,0,0,0,0,0,0,0,-1,1161,1240,0,0
-56,-216,0,0,0,0,0,0,0,0,0,-1,1168,1240,0,0
-49,-216,0,0,0,0,0,0,0,0,0,-1,1175,1240,0,0
-42,-216,0,0,0,0,0,0,0,0,0,-1,1182,1240,0,0
-35,-216,0,0,0,0,0,0,0,0,0,-1,1189,1240,0,0
-28,-216,0,0,0,0,0,0,0,0,0,-1,1196,1240,0,0
-21,-216,0,0,0,0,0,0,0,0,0,-1,1203,1240,0,0
-14,-216,0,0,0,0,0,0,0,0,0,-1,1210,1240,0,0
-7,-216,0,0,0,0,0,0,0,0,0,-1,1217,1240,0,0
0,-216,0,0,0,0,0,0,0,0,0,-1,1224,1240,0,0
7,-216,0,0,0,0,0,0,0,0,0,-1,1231,1240,0,0
14,-216,0,0,0,0,0,0,0,0,0,-1,1238,1240,0,0
21,-216,0,0,0,0,0,0,0,0,0,-1,1245,1240,0,0
28,-216,0,0,0,0,0,0,0,0,0,-1,1252,1240,0,0
35,-216,0,0,0,0,0,0,0,0,0,-1,1259,1240,0,0
42,-216,0,0,0,0,0,0,0,0,0,-1,1266,1240,0,0
49,-216,0,0,0,0,0,0,0,0,0,-1,1273,1240,0,0
56,-216,0,0,0,0,0,0,0,0,0,-1,1280,1240,0,0
63,-216,0,0,0,0,0,0,0,0,0,-1,1287,1240,0,0
70,-216,0,0,0,0,0,0,0,0,0,-1,1294,1240,0,0
77,-216,0,0,0,0,0,0,0,0,0,-1,1301,1240,0,0
84,-216,0,0,0,0,0,0,0,0,0,-1,1308,1240,0,0
91,-216,0,0,0,0,0,0,0,0,0,-1,1315,1240,0,0
98,-216,0,0,0,0,0,0,0,0,0,-1,1322,1240,0,0
105,-216,0,0,0,0,0,0,0,0,0,-1,1329,1240,0,0
112,-216,0,0,0,0,0,0,0,0,0,-1,1336,1240,0,0
119,-216,0,0,0,0,0,0,0,0,0,-1,1343,1240,0,0
126,-216,0,0,0,0,0,0,0,0,0,-1,1350,1240,0,0
133,-216,0,0,0,0,0,0,0,0,0,-1,1357,1240,0,0
140,-216,0,0,0,0,0,0,0,0,0,-1,1364,1240,0,0
147,-216,0,0,0,0,0,0,0,0,0,-1,1371,1240,0,0
154,-216,0,0,0,0,0,0,0,0,0,-1,1378,1240,0,0
161,-216,0,0,0,0,0,0,0,0,0,-1,1385,1240,0,0
168,-216,0,0,0,0,0,0,0,0,0,-1,1392,1240,0,0
175,-216,0,0,0,0,0,0,0,0,0,-1,1399,1240,0,0
182,-216,0,0,0,0,0,0,0,0,0,-1,1406,1240,0,0
189,-216,0,0,0,0,0,0,0,0,0,-1,1413,1240,0,0
196,-216,0,0,0,0,0,0,0,0,0,-1,1420,1240,0,0
203,-216,0,0,0,0,0,0,0,0,0,-1,1427,1240,0,0
210,-216,0,0,0,0,0,0,0,0,0,-1,1434,1240,0,0
217,-216,0,0,0,0,0,0,0,0,0,-1,1441,1240,0,0
224,-216,0,0,0,0,0,0,0,0,0,-1,1448,1240,0,0
231,-216,0,0,0,0,0,0,0,0,0,-1,1455,1240,0,0
238,-216,0,0,0,0,0,0,0,0,0,-1,1462,1240,0,0
245,-216,0,0,0,0,0,0,0,0,0,-1,1469,1240,0,0
252,-216,0,0,0,0,0,0,0,0,0,-1,1476,1240,0,0
259,-216,0,0,0,0,0,0,0,0,0,-1,1483,1240,0,0
266,-216,0,0,0,0,0,0,0,0,0,-1,1490,1240,0,0
273,-216,0,0,0,0,0,0,0,0,0,-1,1497,1240,0,0
280,-216,0,0,0,0,0,0,0,0,0,-1,1504,1240,0,0
287,-216,0,0,0,0,0,0,0,0,0,-1,1511,1240,0,0
294,-216,0,0,0,0,0,0,0,0,0,-1,1518,1240,0,0
301,-216,0,0,0,0,0,0,0,0,0,-1,1525,1240,0,0
308,-216,0,0,0,0,0,0,0,0,0,-1,1532,1240,0,0
315,-216,0,0,0,0,0,0,0,0,0,-1,1539,1240,0,0
322,-216,0,0,0,0,0,0,0,0,0,-1,1546,1240,0,0
329,-216,0,0,0,0,0,0,0,0,0,-1,1553,1240,0,0
336,-216,0,0,0,0,0,0,0,0,0,-1,1560,1240,0,0
343,-216,0,0,0,0,0,0,0,0,0,-1,1567,1240,0,0
350,-216,0,0,0,0,0,0,0,0,0,-1,1574,1240,0,0
357,-216,0,0,0,0,0,0,0,0,0,-1,1581,1240,0,0
364,-216,0,0,0,0,0,0,0,0,0,-1,1588,1240,0,0
371,-216,0,0,0,0,0,0,0,0,0,-1,1595,1240,0,0
378,-216,0,0,0,0,0,0,0,0,0,-1,1602,1240,0,0
385,-216,0,0,0,0,0,0,0,0,0,-1,1609,1240,0,0
392,-216,0,0,0,0,0,0,0,0,0,-1,1616,1240,0,0
399,-216,0,0,0,0,0,0,0,0,0,-1,1623,1240,0,0
406,-216,0,0,0,0,0,0,0,0,0,-1,1630,1240,0,0
413,-216,0,0,0,0,0,0,0,0,0,-1,1637,1240,0,0
420,-216,0,0,0,0,0,0,0,0,0,-1,1644,1240,0,0
427,-216,0,0,0,0,0,0,0,0,0,-1,1651,1240,0,0
434,-216,0,0,0,0,0,0,0,0,0,-1,1658,1240,0,0
441,-216,0,0,0,0,0,0,0,0,0,-1,1665,1240,0,0
448,-216,0,0,0,0,0,0,0,0,0,-1,1672,1240,0,0
455,-216,0,0,0,0,0,0,0,0,0,-1,1679,1240,0,0
462,-216,0,0,0,0,0,0,0,0,0,-1,1686,1240,0,0
469,-216,0,0,0,0,0,0,0,0,0,-1,1693,1240,0,0
476,-216,0,0,0,0,0,0,0,0,0,-1,1700,1240,0,0
483,-216,0,0,0,0,0,0,0,0,0,-1,1707,1240,0,0
490,-216,0,0,0,0,0,0,0,0,0,-1,1714,1240,0,0
497,-216,0,0,0,0,0,0,0,0,0,-1,1721,1240,0,0
504,-216,0,0,0,0,0,0,0,0,0,-1,1728,1240,0,0
511,-216,0,0,0,0,0,0,0,0,0,-1,1735,1240,0,0
518,-216,0,0,0,0,0,0,0,0,0,-1,1742,1240,0,0
525,-216,0,0,0,0,0,0,0,0,0,-1,1749,1240,0,0
532,-216,0,0,0,0,0,0,0,0,0,-1,1756,1240,0,0
539,-216,0,0,0,0,0,0,0,0,0,-1,1763,1240,0,0
546,-216,0,0,0,0,0,0,0,0,0,-1,1770,1240,0,0
553,-216,0,0,0,0,0,0,0,0,0,-1,1777,1240,0,0
560,-216,0,0,0,0,0,0,0,0,0,-1,1784,1240,0,0
567,-216,0,0,0,0,0,0,0,0,0,-1,1791,1240,0,0
574,-216,0,0,0,0,0,0,0,0,0,-1,1798,1240,0,0
581,-216,0,0,0,0,0,0,0,0,0,-1,1805,1240,0,0
588,-216,0,0,0,0,0,0,0,0,0,-1,1812,1240,0,0
595,-216,0,0,0,0,0,0,0,0,0,-1,1819,1240,0,0
602,-216,0,0,0,0,0,0,0,0,0,-1,1826,1240,0,0
609,-216,0,0,0,0,0,0,0,0,0,-1,1833,1240,0,0
616,-216,0,0,0,0,0,0,0,0,0,-1,1840,1240,0,0
623,-216,11.756,1.53711,-0.00343063,0.00475185,-0.00487466,0.00702462,-0.0057034,-1.13452,0.00736171,0.0401115,1847,1240,11.756,-1.5371
630,-216,11.8245,1.57336,0.00284279,0.00316721,-1.54648e-05,0.00316795,0.00284205,-1.52327,0.00201215,0.0360646,1854,1240,11.8244,-1.57335
637,-216,11.8137,1.67273,0.00506198,0.00158137,0.00399503,0.0076793,-0.00103596,0.579984,0.00549749,0.0310418,1861,1240,11.8137,-1.67279
644,-216,11.7251,1.71973,0.00537491,0.00020326,0.00682787,0.0100902,-0.00451203,0.604386,0.00863322,0.024418,1868,1240,11.7251,-1.71969
651,-216,11.7378,1.76172,0.00449178,-0.000896957,0.00852494,0.010738,-0.00714318,0.632337,0.010393,0.0207422,1875,1240,11.7378,-1.76167
658,-216,11.8203,1.81091,0.00303359,-0.00167291,0.0092455,0.0102206,-0.00885995,0.66078,0.0110255,0.0296982,1882,1240,11.8203,-1.81089
665,-216,11.8358,1.68225,0.00141063,-0.00216587,0.00924773,0.00904142,-0.00979666,0.689891,0.0108791,0.0422671,1889,1240,11.8358,-1.68226
672,-216,10.6614,2.44885,0,0,0,0,0,0,0,-1,1896,1240,10.6614,-2.44884
679,-216,10.5643,2.40356,-0.00141503,-0.00249793,0.00810887,0.00617045,-0.0100834,0.752061,0.00947438,0.0462036,1903,1240,10.5644,-2.40355
686,-216,10.3561,2.52893,-0.0023505,-0.00249634,0.00720344,0.00478039,-0.00962722,0.780337,0.00847369,0.0453955,1910,1240,10.3561,-2.5289
693,-216,10.4028,2.68079,-0.00283068,-0.0024245,0.00619464,0.00357038,-0.00882556,0.801785,0.00736806,0.0310022,1917,1240,10.4028,-2.68079
700,-216,10.4285,2.68921,-0.00313325,-0.00217469,0.00516288,0.0025311,-0.00783905,0.831682,0.00624317,0.0130099,1924,1240,10.4285,-2.6892
707,-216,10.4149,2.58899,-0.00416846,-0.00176627,0.0034097,0.000647697,-0.00658242,0.954741,0.00461934,0.0139208,1931,1240,10.4149,-2.58899
714,-216,10.439,2.4906,-0.00348404,-0.00133072,0.00212798,-2.25301e-05,-0.00479222,1.0196,0.00318733,0.0140055,1938,1240,10.4389,-2.49061
721,-216,10.4463,2.42041,-0.00186816,-0.000667826,0.00101414,-8.95693e-05,-0.00244642,1.05258,0.00160192,0.0128675,1945,1240,10.4463,-2.42043
728,-216,10.4698,2.33801,-0.000351308,-0.000102247,-0.000188133,-1.1636e-06,-0.000452392,-1.07776,0.000301207,0.0108666,1952,1240,10.4698,-2.33795
735,-216,10.4669,2.27173,0.00140858,0.000694204,-0.00149075,0.00258434,-0.000481549,-0.667813,0.00190382,0.00990028,1959,1240,10.4669,-2.27168
742,-216,10.4537,2.21228,0.00279865,0.00142686,-0.0029418,0.00513345,-0.000907945,-0.670867,0.00376165,0.0107222,1966,1240,10.4537,-2.21225
749,-216,10.4623,2.12158,0.00442598,0.00243189,-0.00472082,0.00825389,-0.00139602,-0.681327,0.00602212,0.00911477,1973,1240,10.4622,-2.12159
756,-216,10.4366,2.05261,0.00637684,0.00375091,-0.00689782,0.0120855,-0.00195779,-0.691351,0.00878267,0.00914,1980,1240,10.4366,-2.05264
763,-216,10.4155,1.97839,0.00884049,0.0056409,-0.00976803,0.0171389,-0.00265747,-0.704229,0.012407,0.0143462,1987,1240,10.4155,-1.97835
770,-216,10.4974,1.74805,0.0119174,0.00834182,-0.0135407,0.0237878,-0.00352866,-0.719763,0.0171562,0.0373129,1994,1240,10.4974,-1.74804
777,-216,10.5942,1.50391,0,0,0,0,0,0,0,-1,2001,1240,10.5942,-1.50388
784,-216,10.801,1.49268,0,0,0,0,0,0,0,-1,2008,1240,10.801,-1.49268
791,-216,10.8562,1.42896,0,0,0,0,0,0,0,-1,2015,1240,10.8562,-1.42895
798,-216,0,0,0,0,0,0,0,0,0,-1,2022,1240,0,0
805,-216,0,0,0,0,0,0,0,0,0,-1,2029,1240,0,0
812,-216,0,0,0,0,0,0,0,0,0,-1,2036,1240,0,0
-700,-223,0,0,0,0,0,0,0,0,0,-1,524,1247,0,0
-693,-223,0,0,0,0,0,0,0,0,0,-1,531,1247,0,0
-686,-223,0,0,0,0,0,0,0,0,0,-1,538,1247,0,0
-679,-223,0,0,0,0,0,0,0,0,0,-1,545,1247,0,0
-672,-223,-4.78558,-1.25574,0,0,0,0,0,0,0,-1,552,1247,-4.78558,1.25568
-665,-223,-4.75085,-1.01221,0.017014,-0.00037982,-0.0168953,0.0273194,-0.0106852,-0.547708,0.0226317,0.0487716,559,1247,-4.75085,1.01224
-658,-223,-4.66315,-0.819946,0.0200497,0.00142587,-0.0104612,0.0247432,-0.00326755,-0.421729,0.0176855,0.0448022,566,1247,-4.66316,0.81997
-651,-223,-4.5766,-0.574707,0.0201347,0.00247922,-0.00585936,0.0219023,0.000711624,-0.292988,0.0143702,0.0465828,573,1247,-4.57657,0.574652
-644,-223,-4.52789,-0.159912,0.0184898,0.00302534,-0.00266059,0.0189347,0.0025804,-0.165701,0.011857,0.0486069,580,1247,-4.52791,0.159895
-637,-223,-4.43036,0.193115,0.0159528,0.0032054,-0.000538663,0.0159755,0.00318268,-0.0421566,0.00976391,0.0472235,587,1247,-4.43033,-0.193164
-630,-223,-4.38409,0.454224,0.0130577,0.00313007,0.000664716,0.013102,0.00308576,0.0665602,0.00790934,0.036694,594,1247,-4.38406,-0.454204
-623,-223,-4.3587,0.678223,0.0108517,0.00298907,0.00140513,0.0110952,0.0027455,0.171636,0.00667265,0.0200563,601,1247,-4.35871,-0.678247
-616,-223,-4.3645,0.879883,0.00855013,0.00198501,0.00191563,0.0090682,0.00146693,0.264129,0.00562067,0.0155216,608,1247,-4.36452,-0.879934
-609,-223,-4.35107,0.95874,0.00566728,0.00190248,0.00184815,0.00642289,0.00114687,0.388109,0.00395545,0.0119813,615,1247,-4.35107,-0.958756
-602,-223,-4.33362,1.00098,0.00314843,0.000310219,0.00138942,0.00371536,-0.000256712,0.387414,0.00256676,0.0146128,622,1247,-4.33361,-1.00094
-595,-223,-4.31561,1.09558,0.00176452,-0.000504229,0.000237527,0.00178912,-0.00052883,0.103204,0.00140266,0.0197109,629,1247,-4.31562,-1.09554
-588,-223,-4.30823,1.1969,3.20986e-05,-0.000895105,-0.000911076,0.000590742,-0.00145375,-0.550047,0.00121494,0.0221527,636,1247,-4.3082,-1.19694
-581,-223,-4.31549,1.31812,-0.00131736,-0.00108466,-0.00184365,0.000646313,-0.00304833,-0.816911,0.00227842,0.0202167,643,1247,-4.31551,-1.31814
-574,-223,-4.32599,1.38745,-0.00194208,-0.00090304,-0.00272907,0.00135552,-0.00420063,-0.879455,0.0033451,0.0160824,650,1247,-4.326,-1.38745
-567,-223,-4.24121,1.5636,-0.00262473,-0.00053885,-0.00336045,0.00193678,-0.00510036,-0.935864,0.00419752,0.0209235,657,1247,-4.24121,-1.56362
-560,-223,-4.16455,1.75171,-0.00369067,0.000189621,-0.00380617,0.00252161,-0.00602266,-1.0211,0.0050692,0.0332313,664,1247,-4.16458,-1.75175
-553,-223,-4.19568,1.66516,-0.00461761,0.00115505,-0.00408055,0.0032669,-0.00672946,-1.09322,0.00588568,0.048996,671,1247,-4.19565,-1.66516
-546,-223,-4.60577,1.51465,-0.00563281,0.00238599,-0.00430106,0.00425659,-0.00750341,-1.16056,0.00687535,0.0474301,678,1247,-4.60576,-1.51462
-539,-223,-5.59259,1.02612,-0.00659469,0.00367495,-0.00436279,0.00527811,-0.00819784,-1.21865,0.00784098,0.0418982,685,1247,-5.59258,-1.02612
-532,-223,-5.69196,0.995605,-0.00739099,0.00499766,-0.00416042,0.00626515,-0.00865849,-1.27507,0.00865302,0.0430007,692,1247,-5.69197,-0.995637
-525,-223,-5.70502,0.759033,-0.00786589,0.00608744,-0.00357045,0.006948,-0.00872644,-1.33429,0.00906904,0.0453491,699,1247,-5.70502,-0.759076
-518,-223,-5.76459,0.723633,-0.00787912,0.00666681,-0.00249512,0.00708291,-0.00829522,-1.40555,0.00888776,0.0414691,706,1247,-5.76458,-0.723656
-511,-223,-5.79877,0.787598,-0.00697694,0.00618724,-0.000696644,0.006224,-0.00701371,-1.51807,0.00764733,0.040105,713,1247,-5.7988,-0.787651
-504,-223,-5.7854,0.80542,-0.00513883,0.0040843,0.00189298,0.0044577,-0.00551223,1.37604,0.00576686,0.0406802,720,1247,-5.78537,-0.805438
-497,-223,0,0,0,0,0,0,0,0,0,-1,727,1247,0,0
-490,-223,0,0,0,0,0,0,0,0,0,-1,734,1247,0,0
-483,-223,0,0,0,0,0,0,0,0,0,-1,741,1247,0,0
-476,-223,0,0,0,0,0,0,0,0,0,-1,748,1247,0,0
-469,-223,0,0,0,0,0,0,0,0,0,-1,755,1247,0,0
-462,-223,0,0,0,0,0,0,0,0,0,-1,762,1247,0,0
-455,-223,0,0,0,0,0,0,0,0,0,-1,769,1247,0,0
-448,-223,0,0,0,0,0,0,0,0,0,-1,776,1247,0,0
-441,-223,0,0,0,0,0,0,0,0,0,-1,783,1247,0,0
-434,-223,0,0,0,0,0,0,0,0,0,-1,790,1247,0,0
-427,-223,0,0,0,0,0,0,0,0,0,-1,797,1247,0,0
-420,-223,0,0,0,0,0,0,0,0,0,-1,804,1247,0,0
-413,-223,0,0,0,0,0,0,0,0,0,-1,811,1247,0,0
-406,-223,0,0,0,0,0,0,0,0,0,-1,818,1247,0,0
-399,-223,0,0,0,0,0,0,0,0,0,-1,825,1247,0,0
-392,-223,0,0,0,0,0,0,0,0,0,-1,832,1247,0,0
-385,-223,0,0,0,0,0,0,0,0,0,-1,839,1247,0,0
-378,-223,0,0,0,0,0,0,0,0,0,-1,846,1247,0,0
-371,-223,0,0,0,0,0,0,0,0,0,-1,853,1247,0,0
-364,-223,0,0,0,0,0,0,0,0,0,-1,860,1247,0,0
-357,-223,0,0,0,0,0,0,0,0,0,-1,867,1247,0,0
-350,-223,0,0,0,0,0,0,0,0,0,-1,874,1247,0,0
-343,-223,0,0,0,0,0,0,0,0,0,-1,881,1247,0,0
-336,-223,0,0,0,0,0,0,0,0,0,-1,888,1247,0,0
-329,-223,0,0,0,0,0,0,0,0,0,-1,895,1247,0,0
-322,-223,0,0,0,0,0,0,0,0,0,-1,902,1247,0,0
-315,-223,0,0,0,0,0,0,0,0,0,-1,909,1247,0,0
-308,-223,0,0,0,0,0,0,0,0,0,-1,916,1247,0,0
-301,-223,0,0,0,0,0,0,0,0,0,-1,923,1247,0,0
-294,-223,0,0,0,0,0,0,0,0,0,-1,930,1247,0,0
-287,-223,0,0,0,0,0,0,0,0,0,-1,937,1247,0,0
-280,-223,0,0,0,0,0,0,0,0,0,-1,944,1247,0,0
-273,-223,0,0,0,0,0,0,0,0,0,-1,951,1247,0,0
-266,-223,0,0,0,0,0,0,0,0,0,-1,958,1247,0,0
-259,-223,0,0,0,0,0,0,0,0,0,-1,965,1247,0,0
-252,-223,0,0,0,0,0,0,0,0,0,-1,972,1247,0,0
-245,-223,0,0,0,0,0,0,0,0,0,-1,979,1247,0,0
-238,-223,0,0,0,0,0,0,0,0,0,-1,986,1247,0,0
-231,-223,0,0,0,0,0,0,0,0,0,-1,993,1247,0,0
-224,-223,0,0,0,0,0,0,0,0,0,-1,1000,1247,0,0
-217,-223,0,0,0,0,0,0,0,0,0,-1,1007,1247,0,0
-210,-223,0,0,0,0,0,0,0,0,0,-1,1014,1247,0,0
-203,-223,0,0,0,0,0,0,0,0,0,-1,1021,1247,0,0
-196,-223,0,0,0,0,0,0,0,0,0,-1,1028,1247,0,0
-189,-223,0,0,0,0,0,0,0,0,0,-1,1035,1247,0,0
-182,-223,0,0,0,0,0,0,0,0,0,-1,1042,1247,0,0
-175,-223,0,0,0,0,0,0,0,0,0,-1,1049,1247,0,0
-168,-223,0,0,0,0,0,0,0,0,0,-1,1056,1247,0,0
-161,-223,0,0,0,0,0,0,0,0,0,-1,1063,1247,0,0
-154,-223,0,0,0,0,0,0,0,0,0,-1,1070,1247,0,0
-147,-223,0,0,0,0,0,0,0,0,0,-1,1077,1247,0,0
-140,-223,0,0,0,0,0,0,0,0,0,-1,1084,1247,0,0
-133,-223,0,0,0,0,0,0,0,0,0,-1,1091,1247,0,0
-126,-223,0,0,0,0,0,0,0,0,0,-1,1098,1247,0,0
-119,-223,0,0,0,0,0,0,0,0,0,-1,1105,1247,0,0
-112,-223,0,0,0,0,0,0,0,0,0,-1,1112,1247,0,0
-105,-223,0,0,0,0,0,0,0,0,0,-1,1119,1247,0,0
-98,-223,0,0,0,0,0,0,0,0,0,-1,1126,1247,0,0
-91,-223,0,0,0,0,0,0,0,0,0,-1,1133,1247,0,0
-84,-223,0,0,0,0,0,0,0,0,0,-1,1140,1247,0,0
-77,-223,0,0,0,0,0,0,0,0,0,-1,1147,1247,0,0
-70,-223,0,0,0,0,0,0,0,0,0,-1,1154,1247,0,0
-63,-223,0,0,0,0,0,0,0,0,0,-1,1161,1247,0,0
-56,-223,0,0,0,0,0,0,0,0,0,-1,1168,1247,0,0
-49,-223,0,0,0,0,0,0,0,0,0,-1,1175,1247,0,0
-42,-223,0,0,0,0,0,0,0,0,0,-1,1182,1247,0,0
-35,-223,0,0,0,0,0,0,0,0,0,-1,1189,1247,0,0
-28,-223,0,0,0,0,0,0,0,0,0,-1,1196,1247,0,0
-21,-223,0,0,0,0,0,0,0,0,0,-1,1203,1247,0,0
-14,-223,0,0,0,0,0,0,0,0,0,-1,1210,1247,0,0
-7,-223,0,0,0,0,0,0,0,0,0,-1,1217,1247,0,0
0,-223,0,0,0,0,0,0,0,0,0,-1,1224,1247,0,0
7,-223,0,0,0,0,0,0,0,0,0,-1,1231,1247,0,0
14,-223,0,0,0,0,0,0,0,0,0,-1,1238,1247,0,0
21,-223,0,0,0,0,0,0,0,0,0,-1,1245,1247,0,0
28,-223,0,0,0,0,0,0,0,0,0,-1,1252,1247,0,0
35,-223,0,0,0,0,0,0,0,0,0,-1,1259,1247,0,0
42,-223,0,0,0,0,0,0,0,0,0,-1,1266,1247,0,0
49,-223,0,0,0,0,0,0,0,0,0,-1,1273,1247,0,0
56,-223,0,0,0,0,0,0,0,0,0,-1,1280,1247,0,0
63,-223,0,0,0,0,0,0,0,0,0,-1,1287,1247,0,0
70,-223,0,0,0,0,0,0,0,0,0,-1,1294,1247,0,0
77,-223,0,0,0,0,0,0,0,0,0,-1,1301,1247,0,0
84,-223,0,0,0,0,0,0,0,0,0,-1,1308,1247,0,0
91,-223,0,0,0,0,0,0,0,0,0,-1,1315,1247,0,0
98,-223,0,0,0,0,0,0,0,0,0,-1,1322,1247,0,0
105,-223,0,0,0,0,0,0,0,0,0,-1,1329,1247,0,0
112,-223,0,0,0,0,0,0,0,0,0,-1,1336,1247,0,0
119,-223,0,0,0,0,0,0,0,0,0,-1,1343,1247,0,0
126,-223,0,0,0,0,0,0,0,0,0,-1,1350,1247,0,0
133,-223,0,0,0,0,0,0,0,0,0,-1,1357,1247,0,0
140,-223,0,0,0,0,0,0,0,0,0,-1,1364,1247,0,0
147,-223,0,0,0,0,0,0,0,0,0,-1,1371,1247,0,0
154,-223,0,0,0,0,0,0,0,0,0,-1,1378,1247,0,0
161,-223,0,0,0,0,0,0,0,0,0,-1,1385,1247,0,0
168,-223,0,0,0,0,0,0,0,0,0,-1,1392,1247,0,0
175,-223,0,0,0,0,0,0,0,0,0,-1,1399,1247,0,0
182,-223,0,0,0,0,0,0,0,0,0,-1,1406,1247,0,0
189,-223,0,0,0,0,0,0,0,0,0,-1,1413,1247,0,0
196,-223,0,0,0,0,0,0,0,0,0,-1,1420,1247,0,0
203,-223,0,0,0,0,0,0,0,0,0,-1,1427,1247,0,0
210,-223,0,0,0,0,0,0,0,0,0,-1,1434,1247,0,0
217,-223,0,0,0,0,0,0,0,0,0,-1,1441,1247,0,0
224,-223,0,0,0,0,0,0,0,0,0,-1,1448,1247,0,0
231,-223,0,0,0,0,0,0,0,0,0,-1,1455,1247,0,0
238,-223,0,0,0,0,0,0,0,0,0,-1,1462,1247,0,0
245,-223,0,0,0,0,0,0,0,0,0,-1,1469,1247,0,0
252,-223,0,0,0,0,0,0,0,0,0,-1,1476,1247,0,0
259,-223,0,0,0,0,0,0,0,0,0,-1,1483,1247,0,0
266,-223,0,0,0,0,0,0,0,0,0,-1,1490,1247,0,0
273,-223,0,0,0,0,0,0,0,0,0,-1,1497,1247,0,0
280,-223,0,0,0,0,0,0,0,0,0,-1,1504,1247,0,0
287,-223,0,0,0,0,0,0,0,0,0,-1,1511,1247,0,0
294,-223,0,0,0,0,0,0,0,0,0,-1,1518,1247,0,0
301,-223,0,0,0,0,0,0,0,0,0,-1,1525,1247,0,0
308,-223,0,0,0,0,0,0,0,0,0,-1,1532,1247,0,0
315,-223,0,0,0,0,0,0,0,0,0,-1,1539,1247,0,0
322,-223,0,0,0,0,0,0,0,0,0,-1,1546,1247,0,0
329,-223,0,0,0,0,0,0,0,0,0,-1,1553,1247,0,0
336,-223,0,0,0,0,0,0,0,0,0,-1,1560,1247,0,0
343,-223,0,0,0,0,0,0,0,0,0,-1,1567,1247,0,0
350,-223,0,0,0,0,0,0,0,0,0,-1,1574,1247,0,0
357,-223,0,0,0,0,0,0,0,0,0,-1,1581,1247,0,0
364,-223,0,0,0,0,0,0,0,0,0,-1,1588,1247,0,0
371,-223,0,0,0,0,0,0,0,0,0,-1,1595,1247,0,0
378,-223,0,0,0,0,0,0,0,0,0,-1,1602,1247,0,0
385,-223,0,0,0,0,0,0,0,0,0,-1,1609,1247,0,0
392,-223,0,0,0,0,0,0,0,0,0,-1,1616,1247,0,0
399,-223,0,0,0,0,0,0,0,0,0,-1,1623,1247,0,0
406,-223,0,0,0,0,0,0,0,0,0,-1,1630,1247,0,0
413,-223,0,0,0,0,0,0,0,0,0,-1,1637,1247,0,0
420,-223,0,0,0,0,0,0,0,0,0,-1,1644,1247,0,0
427,-223,0,0,0,0,0,0,0,0,0,-1,1651,1247,0,0
434,-223,0,0,0,0,0,0,0,0,0,-1,1658,1247,0,0
441,-223,0,0,0,0,0,0,0,0,0,-1,1665,1247,0,0
448,-223,0,0,0,0,0,0,0,0,0,-1,1672,1247,0,0
455,-223,0,0,0,0,0,0,0,0,0,-1,1679,1247,0,0
462,-223,0,0,0,0,0,0,0,0,0,-1,1686,1247,0,0
469,-223,0,0,0,0,0,0,0,0,0,-1,1693,1247,0,0
476,-223,0,0,0,0,0,0,0,0,0,-1,1700,1247,0,0
483,-223,0,0,0,0,0,0,0,0,0,-1,1707,1247,0,0
490,-223,0,0,0,0,0,0,0,0,0,-1,1714,1247,0,0
497,-223,0,0,0,0,0,0,0,0,0,-1,1721,1247,0,0
504,-223,0,0,0,0,0,0,0,0,0,-1,1728,1247,0,0
511,-223,0,0,0,0,0,0,0,0,0,-1,1735,1247,0,0
518,-223,0,0,0,0,0,0,0,0,0,-1,1742,1247,0,0
525,-223,0,0,0,0,0,0,0,0,0,-1,1749,1247,0,0
532,-223,0,0,0,0,0,0,0,0,0,-1,1756,1247,0,0
539,-223,0,0,0,0,0,0,0,0,0,-1,1763,1247,0,0
546,-223,0,0,0,0,0,0,0,0,0,-1,1770,1247,0,0
553,-223,0,0,0,0,0,0,0,0,0,-1,1777,1247,0,0
560,-223,0,0,0,0,0,0,0,0,0,-1,1784,1247,0,0
567,-223,0,0,0,0,0,0,0,0,0,-1,1791,1247,0,0
574,-223,0,0,0,0,0,0,0,0,0,-1,1798,1247,0,0
581,-223,0,0,0,0,0,0,0,0,0,-1,1805,1247,0,0
588,-223,0,0,0,0,0,0,0,0,0,-1,1812,1247,0,0
595,-223,0,0,0,0,0,0,0,0,0,-1,1819,1247,0,0
602,-223,0,0,0,0,0,0,0,0,0,-1,1826,1247,0,0
609,-223,0,0,0,0,0,0,0,0,0,-1,1833,1247,0,0
616,-223,0,0,0,0,0,0,0,0,0,-1,1840,1247,0,0
623,-223,11.6902,1.68921,-0.00257203,0.00432362,-0.00382285,0.00602377,-0.00427218,-1.15233,0.00597298,0.0395412,1847,1247,11.6901,-1.68927
630,-223,11.7427,1.61584,0.0049989,0.00216636,0.000864267,0.00524178,0.00192348,0.273958,0.00306185,0.0366528,1854,1247,11.7427,-1.61579
637,-223,11.7251,1.66431,0.00817448,0.000328676,0.00483256,0.0104759,-0.00197279,0.444461,0.00772598,0.0304342,1861,1247,11.725,-1.66432
644,-223,11.6838,1.7002,0.00890484,-0.00115162,0.00772239,0.0130917,-0.00533851,0.496816,0.0109501,0.0218845,1868,1247,11.6839,-1.70026
651,-223,11.7021,1.74597,0.00810919,-0.00219791,0.00949027,0.0137549,-0.00784363,0.536658,0.0126246,0.0250398,1875,1247,11.7022,-1.74596
658,-223,11.8615,1.99744,0.00652548,-0.00287297,0.0103028,0.0131502,-0.00949766,0.571437,0.0131323,0.0417668,1882,1247,11.8615,-1.99746
665,-223,12.0974,2.09338,0.00459299,-0.00321915,0.0103635,0.0117621,-0.0103883,0.605178,0.0127967,0.0426259,1889,1247,12.0974,-2.09335
672,-223,12.3093,2.05798,0.0026754,-0.00338342,0.0099289,0.0100268,-0.0107348,0.637329,0.011989,0.0467832,1896,1247,12.3094,-2.058
679,-223,10.4794,2.26025,0.000905942,-0.00323728,0.0091593,0.00822498,-0.0105563,0.674182,0.0108712,0.0447284,1903,1247,10.4794,-2.26022
686,-223,10.3743,2.5741,-0.000511348,-0.00307349,0.00815245,0.00646008,-0.0100449,0.707466,0.00960379,0.0431747,1910,1247,10.3743,-2.57411
693,-223,10.304,2.69421,-0.00149537,-0.00285241,0.00701943,0.00487826,-0.00922604,0.737216,0.00827108,0.0194936,1917,1247,10.3039,-2.69422
700,-223,10.3451,2.65649,-0.00222408,-0.00239132,0.00582726,0.00352015,-0.00813556,0.778224,0.00690305,0.00906187,1924,1247,10.3451,-2.65653
707,-223,10.3452,2.5835,-0.00374898,-0.00174812,0.00368801,0.00107274,-0.00656984,0.917844,0.00477779,0.0119709,1931,1247,10.3452,-2.58352
714,-223,10.3711,2.49756,-0.00302904,-0.00124955,0.00212232,0.000161978,-0.00444057,0.983886,0.00301583,0.0111677,1938,1247,10.3711,-2.49757
721,-223,10.3726,2.42786,-0.00121443,-0.00047623,0.000768091,6.84214e-06,-0.00169751,1.00938,0.00113396,0.0134004,1945,1247,10.3726,-2.42788
728,-223,10.3589,2.35718,0.000319722,0.000144758,-0.000666183,0.000904143,-0.000439662,-0.720113,0.000791144,0.0147386,1952,1247,10.3589,-2.35712
735,-223,10.3693,2.27441,0.0021465,0.000938418,-0.00219993,0.00382381,-0.000738886,-0.651413,0.00282786,0.0131099,1959,1247,10.3692,-2.27439
742,-223,10.36,2.19751,0.00366914,0.00172076,-0.00395738,0.00677048,-0.00138057,-0.664713,0.0050373,0.0111673,1966,1247,10.36,-2.19746
749,-223,10.3605,2.11279,0.00547951,0.00274526,-0.00616701,0.0104291,-0.00220434,-0.676321,0.00779216,0.0099821,1973,1247,10.3604,-2.11279
756,-223,10.3606,2.04797,0.00773022,0.00410916,-0.0089901,0.0150903,-0.00325091,-0.686031,0.0113008,0.011033,1980,1247,10.3606,-2.04802
763,-223,10.3635,1.96448,0.0106093,0.00605115,-0.0127634,0.0212955,-0.004635,-0.697046,0.0159678,0.013601,1987,1247,10.3635,-1.96449
770,-223,10.4023,1.65906,0.0141684,0.00880857,-0.01775,0.0294396,-0.00646266,-0.710474,0.0220979,0.0373498,1994,1247,10.4023,-1.65901
777,-223,10.4348,1.34363,0,0,0,0,0,0,0,-1,2001,1247,10.4348,-1.34366
784,-223,10.7109,1.6062,0,0,0,0,0,0,0,-1,2008,1247,10.7109,-1.60624
791,-223,11.2819,2.25757,0,0,0,0,0,0,0,-1,2015,1247,11.2819,-2.25761
798,-223,0,0,0,0,0,0,0,0,0,-1,2022,1247,0,0
805,-223,0,0,0,0,0,0,0,0,0,-1,2029,1247,0,0
812,-223,0,0,0,0,0,0,0,0,0,-1,2036,1247,0,0
-700,-230,0,0,0,0,0,0,0,0,0,-1,524,1254,0,0
-693,-230,0,0,0,0,0,0,0,0,0,-1,531,1254,0,0
-686,-230,0,0,0,0,0,0,0,0,0,-1,538,1254,0,0
-679,-230,0,0,0,0,0,0,0,0,0,-1,545,1254,0,0
-672,-230,-4.89838,-1.15906,0,0,0,0,0,0,0,-1,552,1254,-4.89835,1.15907
-665,-230,-4.94244,-1.00293,0.0252194,-0.00221355,-0.0177573,0.0339409,-0.0109351,-0.456543,0.0270202,0.0453374,559,1254,-4.94245,1.00297
-658,-230,-4.97461,-0.765747,0.0262043,0.000442549,-0.0103352,0.029838,-0.00319123,-0.338092,0.0210366,0.0441749,566,1254,-4.97459,0.765795
-651,-230,-4.84564,-0.465942,0,0,0,0,0,0,0,-1,573,1254,-4.84566,0.465893
-644,-230,-4.75867,-0.0646973,0,0,0,0,0,0,0,-1,580,1254,-4.75867,0.0647181
-637,-230,-4.37787,0.138428,0.0185384,0.00342246,0.000247246,0.0185424,0.00341842,0.0163509,0.0113944,0.0487635,587,1254,-4.3779,-0.138463
-630,-230,-4.2265,0.340698,0.0149744,0.00345262,0.00148071,0.0151616,0.00326537,0.125792,0.00921423,0.040818,594,1254,-4.22652,-0.34068
-623,-230,-4.22375,0.691284,0.0121595,0.00331374,0.00217815,0.0126668,0.00280649,0.228803,0.00768187,0.0254929,601,1254,-4.22375,-0.691227
-616,-230,-4.24506,0.859253,0.00942111,0.00250549,0.00248453,0.0102212,0.00170545,0.311526,0.00632276,0.0160806,608,1254,-4.24507,-0.859246
-609,-230,-4.23444,0.942871,0.00636583,0.00255292,0.00232427,0.0074655,0.00145325,0.441918,0.00457026,0.0117098,615,1254,-4.23445,-0.942839
-602,-230,-4.22772,1.0155,0.00393975,0.000950655,0.00192882,0.00488529,5.11971e-06,0.455789,0.00325515,0.0112839,622,1254,-4.22775,-1.01551
-595,-230,-4.22278,1.12048,0.00234982,0.00011097,0.000777666,0.00259344,-0.000132644,0.30358,0.00177483,0.0173628,629,1254,-4.22277,-1.12054
-588,-230,-4.22815,1.22815,0.000455175,-0.000301442,-0.000413266,0.00063714,-0.000483407,-0.414766,0.000648974,0.0240249,636,1254,-4.22816,-1.22817
-581,-230,-4.25092,1.33679,-0.000983214,-0.000388161,-0.00145226,0.000796733,-0.00216811,-0.886436,0.00177174,0.0228273,643,1254,-4.25091,-1.33681
-574,-230,-4.23828,1.40601,-0.00163278,-8.6407e-05,-0.00241133,0.00167267,-0.00339185,-0.940543,0.00297963,0.0158797,650,1254,-4.23825,-1.406
-567,-230,-4.15991,1.52417,-0.00238631,0.000301083,-0.00312226,0.00235651,-0.00444174,-0.988599,0.00398604,0.0176264,657,1254,-4.1599,-1.52418
-560,-230,-4.0918,1.7002,-0.00339719,0.00106892,-0.00367863,0.00313922,-0.00546749,-1.05819,0.00502933,0.0300464,664,1254,-4.09181,-1.7002
-553,-230,-3.90094,1.65845,-0.00418569,0.00200865,-0.00402743,0.00399209,-0.00616913,-1.11318,0.0059113,0.0483416,671,1254,-3.90096,-1.65849
-546,-230,-4.93951,0.572266,0,0,0,0,0,0,0,-1,678,1254,-4.93952,-0.5723
-539,-230,-5.07507,0.528687,-0.0055359,0.00436579,-0.00475661,0.00628053,-0.00745064,-1.1881,0.00793728,0.0462994,685,1254,-5.07508,-0.528726
-532,-230,-6.39673,1.41638,-0.00591761,0.00551542,-0.00489543,0.00732511,-0.0077273,-1.21671,0.00869155,0.0453425,692,1254,-6.39671,-1.41639
-525,-230,-5.69678,0.795776,-0.00590957,0.00640796,-0.00478981,0.00805129,-0.0075529,-1.24029,0.00901061,0.0486488,699,1254,-5.6968,-0.795726
-518,-230,-5.64655,0.60083,-0.00544281,0.00684223,-0.0043601,0.00823237,-0.00683295,-1.26215,0.00871047,0.0405655,706,1254,-5.64652,-0.600796
-511,-230,-5.69623,0.630615,-0.00428551,0.00644164,-0.00337634,0.00741586,-0.00525972,-1.28988,0.00735346,0.036938,713,1254,-5.69624,-0.630607
-504,-230,-5.72528,0.694214,-0.00248726,0.00479334,-0.00158479,0.00512335,-0.00281726,-1.3655,0.00464851,0.0360291,720,1254,-5.72527,-0.694236
-497,-230,0,0,0,0,0,0,0,0,0,-1,727,1254,0,0
-490,-230,0,0,0,0,0,0,0,0,0,-1,734,1254,0,0
-483,-230,0,0,0,0,0,0,0,0,0,-1,741,1254,0,0
-476,-230,0,0,0,0,0,0,0,0,0,-1,748,1254,0,0
-469,-230,0,0,0,0,0,0,0,0,0,-1,755,1254,0,0
-462,-230,0,0,0,0,0,0,0,0,0,-1,762,1254,0,0
-455,-230,0,0,0,0,0,0,0,0,0,-1,769,1254,0,0
-448,-230,0,0,0,0,0,0,0,0,0,-1,776,1254,0,0
-441,-230,0,0,0,0,0,0,0,0,0,-1,783,1254,0,0
-434,-230,0,0,0,0,0,0,0,0,0,-1,790,1254,0,0
-427,-230,0,0,0,0,0,0,0,0,0,-1,797,1254,0,0
-420,-230,0,0,0,0,0,0,0,0,0,-1,804,1254,0,0
-413,-230,0,0,0,0,0,0,0,0,0,-1,811,1254,0,0
-406,-230,0,0,0,0,0,0,0,0,0,-1,818,1254,0,0
-399,-230,0,0,0,0,0,0,0,0,0,-1,825,1254,0,0
-392,-230,0,0,0,0,0,0,0,0,0,-1,832,1254,0,0
-385,-230,0,0,0,0,0,0,0,0,0,-1,839,1254,0,0
-378,-230,0,0,0,0,0,0,0,0,0,-1,846,1254,0,0
-371,-230,0,0,0,0,0,0,0,0,0,-1,853,1254,0,0
-364,-230,0,0,0,0,0,0,0,0,0,-1,860,1254,0,0
-357,-230,0,0,0,0,0,0,0,0,0,-1,867,1254,0,0
-350,-230,0,0,0,0,0,0,0,0,0,-1,874,1254,0,0
-343,-230,0,0,0,0,0,0,0,0,0,-1,881,1254,0,0
-336,-230,0,0,0,0,0,0,0,0,0,-1,888,1254,0,0
-329,-230,0,0,0,0,0,0,0,0,0,-1,895,1254,0,0
-322,-230,0,0,0,0,0,0,0,0,0,-1,902,1254,0,0
-315,-230,0,0,0,0,0,0,0,0,0,-1,909,1254,0,0
-308,-230,0,0,0,0,0,0,0,0,0,-1,916,1254,0,0
-301,-230,0,0,0,0,0,0,0,0,0,-1,923,1254,0,0
-294,-230,0,0,0,0,0,0,0,0,0,-1,930,1254,0,0
-287,-230,0,0,0,0,0,0,0,0,0,-1,937,1254,0,0
-280,-230,0,0,0,0,0,0,0,0,0,-1,944,1254,0,0
-273,-230,0,0,0,0,0,0,0,0,0,-1,951,1254,0,0
-266,-230,0,0,0,0,0,0,0,0,0,-1,958,1254,0,0
-259,-230,0,0,0,0,0,0,0,0,0,-1,965,1254,0,0
-252,-230,0,0,0,0,0,0,0,0,0,-1,972,1254,0,0
-245,-230,0,0,0,0,0,0,0,0,0,-1,979,1254,0,0
-238,-230,0,0,0,0,0,0,0,0,0,-1,986,1254,0,0
-231,-230,0,0,0,0,0,0,0,0,0,-1,993,1254,0,0
-224,-230,0,0,0,0,0,0,0,0,0,-1,1000,1254,0,0
-217,-230,0,0,0,0,0,0,0,0,0,-1,1007,1254,0,0
-210,-230,0,0,0,0,0,0,0,0,0,-1,1014,1254,0,0
-203,-230,0,0,0,0,0,0,0,0,0,-1,1021,1254,0,0
-196,-230,0,0,0,0,0,0,0,0,0,-1,1028,1254,0,0
-189,-230,0,0,0,0,0,0,0,0,0,-1,1035,1254,0,0
-182,-230,0,0,0,0,0,0,0,0,0,-1,1042,1254,0,0
-175,-230,0,0,0,0,0,0,0,0,0,-1,1049,1254,0,0
-168,-230,0,0,0,0,0,0,0,0,0,-1,1056,1254,0,0
-161,-230,0,0,0,0,0,0,0,0,0,-1,1063,1254,0,0
-154,-230,0,0,0,0,0,0,0,0,0,-1,1070,1254,0,0
-147,-230,0,0,0,0,0,0,0,0,0,-1,1077,1254,0,0
-140,-230,0,0,0,0,0,0,0,0,0,-1,1084,1254,0,0
-133,-230,0,0,0,0,0,0,0,0,0,-1,1091,1254,0,0
-126,-230,0,0,0,0,0,0,0,0,0,-1,1098,1254,0,0
-119,-230,0,0,0,0,0,0,0,0,0,-1,1105,1254,0,0
-112,-230,0,0,0,0,0,0,0,0,0,-1,1112,1254,0,0
-105,-230,0,0,0,0,0,0,0,0,0,-1,1119,1254,0,0
-98,-230,0,0,0,0,0,0,0,0,0,-1,1126,1254,0,0
-91,-230,0,0,0,0,0,0,0,0,0,-1,1133,1254,0,0
-84,-230,0,0,0,0,0,0,0,0,0,-1,1140,1254,0,0
-77,-230,0,0,0,0,0,0,0,0,0,-1,1147,1254,0,0
-70,-230,0,0,0,0,0,0,0,0,0,-1,1154,1254,0,0
-63,-230,0,0,0,0,0,0,0,0,0,-1,1161,1254,0,0
-56,-230,0,0,0,0,0,0,0,0,0,-1,1168,1254,0,0
-49,-230,0,0,0,0,0,0,0,0,0,-1,1175,1254,0,0
-42,-230,0,0,0,0,0,0,0,0,0,-1,1182,1254,0,0
-35,-230,0,0,0,0,0,0,0,0,0,-1,1189,1254,0,0
-28,-230,0,0,0,0,0,0,0,0,0,-1,1196,1254,0,0
-21,-230,0,0,0,0,0,0,0,0,0,-1,1203,1254,0,0
-14,-230,0,0,0,0,0,0,0,0,0,-1,1210,1254,0,0
-7,-230,0,0,0,0,0,0,0,0,0,-1,1217,1254,0,0
0,-230,0,0,0,0,0,0,0,0,0,-1,1224,1254,0,0
7,-230,0,0,0,0,0,0,0,0,0,-1,1231,1254,0,0
14,-230,0,0,0,0,0,0,0,0,0,-1,1238,1254,0,0
21,-230,0,0,0,0,0,0,0,0,0,-1,1245,1254,0,0
28,-230,0,0,0,0,0,0,0,0,0,-1,1252,1254,0,0
35,-230,0,0,0,0,0,0,0,0,0,-1,1259,1254,0,0
42,-230,0,0,0,0,0,0,0,0,0,-1,1266,1254,0,0
49,-230,0,0,0,0,0,0,0,0,0,-1,1273,1254,0,0
56,-230,0,0,0,0,0,0,0,0,0,-1,1280,1254,0,0
63,-230,0,0,0,0,0,0,0,0,0,-1,1287,1254,0,0
70,-230,0,0,0,0,0,0,0,0,0,-1,1294,1254,0,0
77,-230,0,0,0,0,0,0,0,0,0,-1,1301,1254,0,0
84,-230,0,0,0,0,0,0,0,0,0,-1,1308,1254,0,0
91,-230,0,0,0,0,0,0,0,0,0,-1,1315,1254,0,0
98,-230,0,0,0,0,0,0,0,0,0,-1,1322,1254,0,0
105,-230,0,0,0,0,0,0,0,0,0,-1,1329,1254,0,0
112,-230,0,0,0,0,0,0,0,0,0,-1,1336,1254,0,0
119,-230,0,0,0,0,0,0,0,0,0,-1,1343,1254,0,0
126,-230,0,0,0,0,0,0,0,0,0,-1,1350,1254,0,0
133,-230,0,0,0,0,0,0,0,0,0,-1,1357,1254,0,0
140,-230,0,0,0,0,0,0,0,0,0,-1,1364,1254,0,0
147,-230,0,0,0,0,0,0,0,0,0,-1,1371,1254,0,0
154,-230,0,0,0,0,0,0,0,0,0,-1,1378,1254,0,0
161,-230,0,0,0,0,0,0,0,0,0,-1,1385,1254,0,0
168,-230,0,0,0,0,0,0,0,0,0,-1,1392,1254,0,0
175,-230,0,0,0,0,0,0,0,0,0,-1,1399,1254,0,0
182,-230,0,0,0,0,0,0,0,0,0,-1,1406,1254,0,0
189,-230,0,0,0,0,0,0,0,0,0,-1,1413,1254,0,0
196,-230,0,0,0,0,0,0,0,0,0,-1,1420,1254,0,0
203,-230,0,0,0,0,0,0,0,0,0,-1,1427,1254,0,0
210,-230,0,0,0,0,0,0,0,0,0,-1,1434,1254,0,0
217,-230,0,0,0,0,0,0,0,0,0,-1,1441,1254,0,0
224,-230,0,0,0,0,0,0,0,0,0,-1,1448,1254,0,0
231,-230,0,0,0,0,0,0,0,0,0,-1,1455,1254,0,0
238,-230,0,0,0,0,0,0,0,0,0,-1,1462,1254,0,0
245,-230,0,0,0,0,0,0,0,0,0,-1,1469,1254,0,0
252,-230,0,0,0,0,0,0,0,0,0,-1,1476,1254,0,0
259,-230,0,0,0,0,0,0,0,0,0,-1,1483,1254,0,0
266,-230,0,0,0,0,0,0,0,0,0,-1,1490,1254,0,0
273,-230,0,0,0,0,0,0,0,0,0,-1,1497,1254,0,0
280,-230,0,0,0,0,0,0,0,0,0,-1,1504,1254,0,0
287,-230,0,0,0,0,0,0,0,0,0,-1,1511,1254,0,0
294,-230,0,0,0,0,0,0,0,0,0,-1,1518,1254,0,0
301,-230,0,0,0,0,0,0,0,0,0,-1,1525,1254,0,0
308,-230,0,0,0,0,0,0,0,0,0,-1,1532,1254,0,0
315,-230,0,0,0,0,0,0,0,0,0,-1,1539,1254,0,0
322,-230,0,0,0,0,0,0,0,0,0,-1,1546,1254,0,0
329,-230,0,0,0,0,0,0,0,0,0,-1,1553,1254,0,0
336,-230,0,0,0,0,0,0,0,0,0,-1,1560,1254,0,0
343,-230,0,0,0,0,0,0,0,0,0,-1,1567,1254,0,0
350,-230,0,0,0,0,0,0,0,0,0,-1,1574,1254,0,0
357,-230,0,0,0,0,0,0,0,0,0,-1,1581,1254,0,0
364,-230,0,0,0,0,0,0,0,0,0,-1,1588,1254,0,0
371,-230,0,0,0,0,0,0,0,0,0,-1,1595,1254,0,0
378,-230,0,0,0,0,0,0,0,0,0,-1,1602,1254,0,0
385,-230,0,0,0,0,0,0,0,0,0,-1,1609,1254,0,0
392,-230,0,0,0,0,0,0,0,0,0,-1,1616,1254,0,0
399,-230,0,0,0,0,0,0,0,0,0,-1,1623,1254,0,0
406,-230,0,0,0,0,0,0,0,0,0,-1,1630,1254,0,0
413,-230,0,0,0,0,0,0,0,0,0,-1,1637,1254,0,0
420,-230,0,0,0,0,0,0,0,0,0,-1,1644,1254,0,0
427,-230,0,0,0,0,0,0,0,0,0,-1,1651,1254,0,0
434,-230,0,0,0,0,0,0,0,0,0,-1,1658,1254,0,0
441,-230,0,0,0,0,0,0,0,0,0,-1,1665,1254,0,0
448,-230,0,0,0,0,0,0,0,0,0,-1,1672,1254,0,0
455,-230,0,0,0,0,0,0,0,0,0,-1,1679,1254,0,0
462,-230,0,0,0,0,0,0,0,0,0,-1,1686,1254,0,0
469,-230,0,0,0,0,0,0,0,0,0,-1,1693,1254,0,0
476,-230,0,0,0,0,0,0,0,0,0,-1,1700,1254,0,0
483,-230,0,0,0,0,0,0,0,0,0,-1,1707,1254,0,0
490,-230,0,0,0,0,0,0,0,0,0,-1,1714,1254,0,0
497,-230,0,0,0,0,0,0,0,0,0,-1,1721,1254,0,0
504,-230,0,0,0,0,0,0,0,0,0,-1,1728,1254,0,0
511,-230,0,0,0,0,0,0,0,0,0,-1,1735,1254,0,0
518,-230,0,0,0,0,0,0,0,0,0,-1,1742,1254,0,0
525,-230,0,0,0,0,0,0,0,0,0,-1,1749,1254,0,0
532,-230,0,0,0,0,0,0,0,0,0,-1,1756,1254,0,0
539,-230,0,0,0,0,0,0,0,0,0,-1,1763,1254,0,0
546,-230,0,0,0,0,0,0,0,0,0,-1,1770,1254,0,0
553,-230,0,0,0,0,0,0,0,0,0,-1,1777,1254,0,0
560,-230,0,0,0,0,0,0,0,0,0,-1,1784,1254,0,0
567,-230,0,0,0,0,0,0,0,0,0,-1,1791,1254,0,0
574,-230,0,0,0,0,0,0,0,0,0,-1,1798,1254,0,0
581,-230,0,0,0,0,0,0,0,0,0,-1,1805,1254,0,0
588,-230,0,0,0,0,0,0,0,0,0,-1,1812,1254,0,0
595,-230,0,0,0,0,0,0,0,0,0,-1,1819,1254,0,0
602,-230,0,0,0,0,0,0,0,0,0,-1,1826,1254,0,0
609,-230,0,0,0,0,0,0,0,0,0,-1,1833,1254,0,0
616,-230,11.7061,1.78845,-0.012672,0.00744059,-0.00662791,0.00942831,-0.0146597,-1.27943,0.0140161,0.0357783,1840,1254,11.706,-1.78843
623,-230,11.7437,1.73547,0.000199462,0.00385302,-0.00251793,0.00513704,-0.00108456,-1.09922,0.00383764,0.0349911,1847,1254,11.7437,-1.73542
630,-230,11.7129,1.69092,0.00895289,0.000532655,0.00144715,0.00919466,0.00029088,0.16554,0.00603515,0.0321103,1854,1254,11.7129,-1.69091
637,-230,11.6844,1.67908,0.0129214,-0.00203086,0.00498879,0.0144331,-0.00354253,0.294219,0.0109948,0.0281895,1861,1254,11.6844,-1.6791
644,-230,11.6415,1.65125,0.0139351,-0.00389136,0.00769837,0.0167994,-0.00675568,0.356198,0.0140056,0.0218035,1868,1254,11.6415,-1.65125
651,-230,11.6586,1.73364,0.0130642,-0.00504159,0.00944445,0.0170938,-0.00907122,0.403282,0.0153413,0.04041,1875,1254,11.6586,-1.7337
658,-230,11.6691,2.01355,0.011206,-0.00564497,0.0103512,0.0161273,-0.0105662,0.443798,0.0155226,0.0433252,1882,1254,11.669,-2.01355
665,-230,11.4905,2.19763,0.00882351,-0.00577874,0.0105578,0.0143588,-0.011314,0.482886,0.0148569,0.0434453,1889,1254,11.4905,-2.19767
672,-230,12.2611,2.02649,0.00634405,-0.00570082,0.010266,0.0122237,-0.0115805,0.520128,0.013745,0.0469622,1896,1254,12.2611,-2.02652
679,-230,10.4086,2.86707,0,0,0,0,0,0,0,-1,1903,1254,10.4085,-2.86709
686,-230,10.3063,2.82166,0.00180626,-0.00467932,0.00858399,0.00773955,-0.0106126,0.604799,0.0106388,0.0402154,1910,1254,10.3062,-2.8216
693,-230,10.2515,2.72705,7.65893e-05,-0.00406421,0.00744974,0.00573828,-0.0097259,0.649861,0.00902665,0.0163809,1917,1254,10.2514,-2.72708
700,-230,10.2982,2.67236,-0.00126616,-0.00316466,0.00619991,0.00405674,-0.00848757,0.709434,0.00739152,0.0105267,1924,1254,10.2983,-2.67234
707,-230,10.2979,2.58899,-0.00335647,-0.0020906,0.00379198,0.0011209,-0.00656798,0.868093,0.00479615,0.00962394,1931,1254,10.2978,-2.58897
714,-230,10.2921,2.49817,-0.00267764,-0.00124393,0.00202483,0.000187192,-0.00410877,0.955529,0.00280366,0.0121108,1938,1254,10.2921,-2.49822
721,-230,10.299,2.40833,-0.000637378,-0.000374991,0.000502912,1.35581e-05,-0.00102593,0.912988,0.000688515,0.0119614,1945,1254,10.299,-2.40835
728,-230,10.2877,2.34131,0.000982034,0.000360119,-0.00114005,0.00185277,-0.000510619,-0.652258,0.00143597,0.0135364,1952,1254,10.2878,-2.34128
735,-230,10.2864,2.27515,0.00293428,0.00117673,-0.00286187,0.00504925,-0.000938242,-0.636436,0.00371858,0.0139451,1959,1254,10.2863,-2.27518
742,-230,10.2716,2.19409,0.00469849,0.00203471,-0.00488924,0.00843401,-0.00170081,-0.652418,0.00626701,0.0103527,1966,1254,10.2716,-2.19405
749,-230,10.2737,2.11499,0.00683417,0.0031131,-0.00750496,0.0127058,-0.00275851,-0.663894,0.00952413,0.0096819,1973,1254,10.2737,-2.11505
756,-230,10.2786,2.03833,0.00955215,0.00455559,-0.0109733,0.018308,-0.00420026,-0.673472,0.0138199,0.0124749,1980,1254,10.2786,-2.03837
763,-230,10.2719,1.9165,0.0130423,0.00658967,-0.0156721,0.0258167,-0.00618471,-0.683884,0.0196007,0.023982,1987,1254,10.2719,-1.91648
770,-230,10.4396,1.55164,0.0173594,0.00946354,-0.021955,0.0357187,-0.00889569,-0.696439,0.0272658,0.0413751,1994,1254,10.4396,-1.55162
777,-230,10.5647,1.2384,0,0,0,0,0,0,0,-1,2001,1254,10.5647,-1.23842
784,-230,10.859,1.21191,0,0,0,0,0,0,0,-1,2008,1254,10.859,-1.2119
791,-230,11.2313,1.5614,0,0,0,0,0,0,0,-1,2015,1254,11.2313,-1.56143
798,-230,0,0,0,0,0,0,0,0,0,-1,2022,1254,0,0
805,-230,0,0,0,0,0,0,0,0,0,-1,2029,1254,0,0
812,-230,0,0,0,0,0,0,0,0,0,-1,2036,1254,0,0
-700,-237,0,0,0,0,0,0,0,0,0,-1,524,1261,0,0
-693,-237,0,0,0,0,0,0,0,0,0,-1,531,1261,0,0
-686,-237,0,0,0,0,0,0,0,0,0,-1,538,1261,0,0
-679,-237,0,0,0,0,0,0,0,0,0,-1,545,1261,0,0
-672,-237,-5.08295,-1.21167,0,0,0,0,0,0,0,-1,552,1261,-5.08292,1.21163
-665,-237,-5.57904,-0.584717,0.0388603,-0.00515338,-0.0159054,0.0440065,-0.0102995,-0.312915,0.0333059,0.0448134,559,1261,-5.57903,0.584724
-658,-237,-5.35144,-0.770874,0.0370723,-0.000900292,-0.00882294,0.0390222,-0.00285018,-0.217506,0.027015,0.0455632,566,1261,-5.35143,0.770846
-651,-237,-5.03809,-1.05164,0.0333644,0.00176347,-0.00406171,0.0338781,0.00124977,-0.125807,0.0221805,0.0478353,573,1261,-5.03808,1.05168
-644,-237,-4.42993,-0.230835,0,0,0,0,0,0,0,-1,580,1261,-4.42995,0.230838
-637,-237,-4.31146,0.0130615,0,0,0,0,0,0,0,-1,587,1261,-4.31144,-0.0130684
-630,-237,-4.08264,0.338745,0,0,0,0,0,0,0,-1,594,1261,-4.08262,-0.338751
-623,-237,-4.06976,0.740601,0.0151448,0.00421539,0.0027634,0.0158038,0.00355643,0.23409,0.00957319,0.0267859,601,1261,-4.06979,-0.7406
-616,-237,-4.11517,0.84436,0.011566,0.00356189,0.00286128,0.0124837,0.00264425,0.310345,0.00759602,0.0137259,608,1261,-4.11519,-0.844392
-609,-237,-4.13104,0.934814,0.00785073,0.00362771,0.00271395,0.00917783,0.00230062,0.454801,0.00551405,0.0153482,615,1261,-4.13103,-0.934801
-602,-237,-4.13037,1.02173,0.0050037,0.00194908,0.00242827,0.00634504,0.000607732,0.504674,0.00404271,0.0112456,622,1261,-4.13039,-1.0217
-595,-237,-4.12915,1.13098,0.00314697,0.00095375,0.00132677,0.00377165,0.000329062,0.440044,0.00241224,0.0141907,629,1261,-4.12913,-1.13093
-588,-237,-4.13562,1.27283,0.00107872,0.000435756,0.000135965,0.00110629,0.000408186,0.20006,0.000645985,0.0233349,636,1261,-4.13561,-1.27288
-581,-237,-4.1524,1.37793,-0.000396052,0.000340628,-0.000941402,0.000983185,-0.00103861,-0.971876,0.00116743,0.0215227,643,1261,-4.1524,-1.37798
-574,-237,-4.1449,1.401,-0.000999099,0.000628267,-0.00191311,0.00189354,-0.00226437,-0.986469,0.00240375,0.0136193,650,1261,-4.14488,-1.40095
-567,-237,-4.10211,1.50903,-0.00173901,0.000923296,-0.0026487,0.00255653,-0.00337224,-1.01825,0.00343376,0.0128526,657,1261,-4.10211,-1.50901
-560,-237,-4.01929,1.64661,-0.00256167,0.0016215,-0.00333863,0.00346961,-0.00440977,-1.06523,0.00455994,0.0207817,664,1261,-4.01931,-1.6466
-553,-237,-3.95776,1.67712,-0.00295326,0.00239689,-0.00381491,0.00438117,-0.00493754,-1.09117,0.00538336,0.0429038,671,1261,-3.95775,-1.67707
-546,-237,-4.6933,0.183472,0,0,0,0,0,0,0,-1,678,1261,-4.6933,-0.183506
-539,-237,-4.97021,0.30957,-0.0031625,0.00438322,-0.00512935,0.00697783,-0.00575711,-1.10249,0.00736377,0.0488269,685,1261,-4.9702,-0.309535
-532,-237,-5.39246,0.263062,-0.00286228,0.00526629,-0.00569049,0.00819487,-0.00579086,-1.0955,0.00811433,0.0473481,692,1261,-5.39245,-0.263062
-525,-237,-5.41632,0.4104,-0.00212979,0.00590016,-0.00614919,0.00922906,-0.0054587,-1.07461,0.00857261,0.0485066,699,1261,-5.41631,-0.41042
-518,-237,-5.65149,0.649292,-0.00100698,0.00615777,-0.00643004,0.00993602,-0.00478524,-1.03955,0.00867101,0.0418605,706,1261,-5.65148,-0.649338
-511,-237,-5.66022,0.633545,0.000512711,0.00580224,-0.00630975,0.00999909,-0.00368414,-0.983853,0.00817565,0.0372813,713,1261,-5.66023,-0.633511
-504,-237,-5.7002,0.659058,0.00216272,0.00460911,-0.00539544,0.00891827,-0.00214644,-0.896869,0.00677529,0.0375395,720,1261,-5.70017,-0.659023
-497,-237,-5.76184,0.740601,0.00413597,0.000902936,-0.00274749,0.00570721,-0.000668309,-0.519489,0.00404602,0.0428186,727,1261,-5.76182,-0.740566
-490,-237,0,0,0,0,0,0,0,0,0,-1,734,1261,0,0
-483,-237,0,0,0,0,0,0,0,0,0,-1,741,1261,0,0
-476,-237,0,0,0,0,0,0,0,0,0,-1,748,1261,0,0
-469,-237,0,0,0,0,0,0,0,0,0,-1,755,1261,0,0
-462,-237,0,0,0,0,0,0,0,0,0,-1,762,1261,0,0
-455,-237,0,0,0,0,0,0,0,0,0,-1,769,1261,0,0
-448,-237,0,0,0,0,0,0,0,0,0,-1,776,1261,0,0
-441,-237,0,0,0,0,0,0,0,0,0,-1,783,1261,0,0
-434,-237,0,0,0,0,0,0,0,0,0,-1,790,1261,0,0
-427,-237,0,0,0,0,0,0,0,0,0,-1,797,1261,0,0
-420,-237,0,0,0,0,0,0,0,0,0,-1,804,1261,0,0
-413,-237,0,0,0,0,0,0,0,0,0,-1,811,1261,0,0
-406,-237,0,0,0,0,0,0,0,0,0,-1,818,1261,0,0
-399,-237,0,0,0,0,0,0,0,0,0,-1,825,1261,0,0
-392,-237,0,0,0,0,0,0,0,0,0,-1,832,1261,0,0
-385,-237,0,0,0,0,0,0,0,0,0,-1,839,1261,0,0
-378,-237,0,0,0,0,0,0,0,0,0,-1,846,1261,0,0
-371,-237,0,0,0,0,0,0,0,0,0,-1,853,1261,0,0
-364,-237,0,0,0,0,0,0,0,0,0,-1,860,1261,0,0
-357,-237,0,0,0,0,0,0,0,0,0,-1,867,1261,0,0
-350,-237,0,0,0,0,0,0,0,0,0,-1,874,1261,0,0
-343,-237,0,0,0,0,0,0,0,0,0,-1,881,1261,0,0
-336,-237,0,0,0,0,0,0,0,0,0,-1,888,1261,0,0
-329,-237,0,0,0,0,0,0,0,0,0,-1,895,1261,0,0
-322,-237,0,0,0,0,0,0,0,0,0,-1,902,1261,0,0
-315,-237,0,0,0,0,0,0,0,0,0,-1,909,1261,0,0
-308,-237,0,0,0,0,0,0,0,0,0,-1,916,1261,0,0
-301,-237,0,0,0,0,0,0,0,0,0,-1,923,1261,0,0
-294,-237,0,0,0,0,0,0,0,0,0,-1,930,1261,0,0
-287,-237,0,0,0,0,0,0,0,0,0,-1,937,1261,0,0
-280,-237,0,0,0,0,0,0,0,0,0,-1,944,1261,0,0
-273,-237,0,0,0,0,0,0,0,0,0,-1,951,1261,0,0
-266,-237,0,0,0,0,0,0,0,0,0,-1,958,1261,0,0
-259,-237,0,0,0,0,0,0,0,0,0,-1,965,1261,0,0
-252,-237,0,0,0,0,0,0,0,0,0,-1,972,1261,0,0
-245,-237,0,0,0,0,0,0,0,0,0,-1,979,1261,0,0
-238,-237,0,0,0,0,0,0,0,0,0,-1,986,1261,0,0
-231,-237,0,0,0,0,0,0,0,0,0,-1,993,1261,0,0
-224,-237,0,0,0,0,0,0,0,0,0,-1,1000,1261,0,0
-217,-237,0,0,0,0,0,0,0,0,0,-1,1007,1261,0,0
-210,-237,0,0,0,0,0,0,0,0,0,-1,1014,1261,0,0
-203,-237,0,0,0,0,0,0,0,0,0,-1,1021,1261,0,0
-196,-237,0,0,0,0,0,0,0,0,0,-1,1028,1261,0,0
-189,-237,0,0,0,0,0,0,0,0,0,-1,1035,1261,0,0
-182,-237,0,0,0,0,0,0,0,0,0,-1,1042,1261,0,0
-175,-237,0,0,0,0,0,0,0,0,0,-1,1049,1261,0,0
-168,-237,0,0,0,0,0,0,0,0,0,-1,1056,1261,0,0
-161,-237,0,0,0,0,0,0,0,0,0,-1,1063,1261,0,0
-154,-237,0,0,0,0,0,0,0,0,0,-1,1070,1261,0,0
-147,-237,0,0,0,0,0,0,0,0,0,-1,1077,1261,0,0
-140,-237,0,0,0,0,0,0,0,0,0,-1,1084,1261,0,0
-133,-237,0,0,0,0,0,0,0,0,0,-1,1091,1261,0,0
-126,-237,0,0,0,0,0,0,0,0,0,-1,1098,1261,0,0
-119,-237,0,0,0,0,0,0,0,0,0,-1,1105,1261,0,0
-112,-237,0,0,0,0,0,0,0,0,0,-1,1112,1261,0,0
-105,-237,0,0,0,0,0,0,0,0,0,-1,1119,1261,0,0
-98,-237,0,0,0,0,0,0,0,0,0,-1,1126,1261,0,0
-91,-237,0,0,0,0,0,0,0,0,0,-1,1133,1261,0,0
-84,-237,0,0,0,0,0,0,0,0,0,-1,1140,1261,0,0
-77,-237,0,0,0,0,0,0,0,0,0,-1,1147,1261,0,0
-70,-237,0,0,0,0,0,0,0,0,0,-1,1154,1261,0,0
-63,-237,0,0,0,0,0,0,0,0,0,-1,1161,1261,0,0
-56,-237,0,0,0,0,0,0,0,0,0,-1,1168,1261,0,0
-49,-237,0,0,0,0,0,0,0,0,0,-1,1175,1261,0,0
-42,-237,0,0,0,0,0,0,0,0,0,-1,1182,1261,0,0
-35,-237,0,0,0,0,0,0,0,0,0,-1,1189,1261,0,0
-28,-237,0,0,0,0,0,0,0,0,0,-1,1196,1261,0,0
-21,-237,0,0,0,0,0,0,0,0,0,-1,1203,1261,0,0
-14,-237,0,0,0,0,0,0,0,0,0,-1,1210,1261,0,0
-7,-237,0,0,0,0,0,0,0,0,0,-1,1217,1261,0,0
0,-237,0,0,0,0,0,0,0,0,0,-1,1224,1261,0,0
7,-237,0,0,0,0,0,0,0,0,0,-1,1231,1261,0,0
14,-237,0,0,0,0,0,0,0,0,0,-1,1238,1261,0,0
21,-237,0,0,0,0,0,0,0,0,0,-1,1245,1261,0,0
28,-237,0,0,0,0,0,0,0,0,0,-1,1252,1261,0,0
35,-237,0,0,0,0,0,0,0,0,0,-1,1259,1261,0,0
42,-237,0,0,0,0,0,0,0,0,0,-1,1266,1261,0,0
49,-237,0,0,0,0,0,0,0,0,0,-1,1273,1261,0,0
56,-237,0,0,0,0,0,0,0,0,0,-1,1280,1261,0,0
63,-237,0,0,0,0,0,0,0,0,0,-1,1287,1261,0,0
70,-237,0,0,0,0,0,0,0,0,0,-1,1294,1261,0,0
77,-237,0,0,0,0,0,0,0,0,0,-1,1301,1261,0,0
84,-237,0,0,0,0,0,0,0,0,0,-1,1308,1261,0,0
91,-237,0,0,0,0,0,0,0,0,0,-1,1315,1261,0,0
98,-237,0,0,0,0,0,0,0,0,0,-1,1322,1261,0,0
105,-237,0,0,0,0,0,0,0,0,0,-1,1329,1261,0,0
112,-237,0,0,0,0,0,0,0,0,0,-1,1336,1261,0,0
119,-237,0,0,0,0,0,0,0,0,0,-1,1343,1261,0,0
126,-237,0,0,0,0,0,0,0,0,0,-1,1350,1261,0,0
133,-237,0,0,0,0,0,0,0,0,0,-1,1357,1261,0,0
140,-237,0,0,0,0,0,0,0,0,0,-1,1364,1261,0,0
147,-237,0,0,0,0,0,0,0,0,0,-1,1371,1261,0,0
154,-237,0,0,0,0,0,0,0,0,0,-1,1378,1261,0,0
161,-237,0,0,0,0,0,0,0,0,0,-1,1385,1261,0,0
168,-237,0,0,0,0,0,0,0,0,0,-1,1392,1261,0,0
175,-237,0,0,0,0,0,0,0,0,0,-1,1399,1261,0,0
182,-237,0,0,0,0,0,0,0,0,0,-1,1406,1261,0,0
189,-237,0,0,0,0,0,0,0,0,0,-1,1413,1261,0,0
196,-237,0,0,0,0,0,0,0,0,0,-1,1420,1261,0,0
203,-237,0,0,0,0,0,0,0,0,0,-1,1427,1261,0,0
210,-237,0,0,0,0,0,0,0,0,0,-1,1434,1261,0,0
217,-237,0,0,0,0,0,0,0,0,0,-1,1441,1261,0,0
224,-237,0,0,0,0,0,0,0,0,0,-1,1448,1261,0,0
231,-237,0,0,0,0,0,0,0,0,0,-1,1455,1261,0,0
238,-237,0,0,0,0,0,0,0,0,0,-1,1462,1261,0,0
245,-237,0,0,0,0,0,0,0,0,0,-1,1469,1261,0,0
252,-237,0,0,0,0,0,0,0,0,0,-1,1476,1261,0,0
259,-237,0,0,0,0,0,0,0,0,0,-1,1483,1261,0,0
266,-237,0,0,0,0,0,0,0,0,0,-1,1490,1261,0,0
273,-237,0,0,0,0,0,0,0,0,0,-1,1497,1261,0,0
280,-237,0,0,0,0,0,0,0,0,0,-1,1504,1261,0,0
287,-237,0,0,0,0,0,0,0,0,0,-1,1511,1261,0,0
294,-237,0,0,0,0,0,0,0,0,0,-1,1518,1261,0,0
301,-237,0,0,0,0,0,0,0,0,0,-1,1525,1261,0,0
308,-237,0,0,0,0,0,0,0,0,0,-1,1532,1261,0,0
315,-237,0,0,0,0,0,0,0,0,0,-1,1539,1261,0,0
322,-237,0,0,0,0,0,0,0,0,0,-1,1546,1261,0,0
329,-237,0,0,0,0,0,0,0,0,0,-1,1553,1261,0,0
336,-237,0,0,0,0,0,0,0,0,0,-1,1560,1261,0,0
343,-237,0,0,0,0,0,0,0,0,0,-1,1567,1261,0,0
350,-237,0,0,0,0,0,0,0,0,0,-1,1574,1261,0,0
357,-237,0,0,0,0,0,0,0,0,0,-1,1581,1261,0,0
364,-237,0,0,0,0,0,0,0,0,0,-1,1588,1261,0,0
371,-237,0,0,0,0,0,0,0,0,0,-1,1595,1261,0,0
378,-237,0,0,0,0,0,0,0,0,0,-1,1602,1261,0,0
385,-237,0,0,0,0,0,0,0,0,0,-1,1609,1261,0,0
392,-237,0,0,0,0,0,0,0,0,0,-1,1616,1261,0,0
399,-237,0,0,0,0,0,0,0,0,0,-1,1623,1261,0,0
406,-237,0,0,0,0,0,0,0,0,0,-1,1630,1261,0,0
413,-237,0,0,0,0,0,0,0,0,0,-1,1637,1261,0,0
420,-237,0,0,0,0,0,0,0,0,0,-1,1644,1261,0,0
427,-237,0,0,0,0,0,0,0,0,0,-1,1651,1261,0,0
434,-237,0,0,0,0,0,0,0,0,0,-1,1658,1261,0,0
441,-237,0,0,0,0,0,0,0,0,0,-1,1665,1261,0,0
448,-237,0,0,0,0,0,0,0,0,0,-1,1672,1261,0,0
455,-237,0,0,0,0,0,0,0,0,0,-1,1679,1261,0,0
462,-237,0,0,0,0,0,0,0,0,0,-1,1686,1261,0,0
469,-237,0,0,0,0,0,0,0,0,0,-1,1693,1261,0,0
476,-237,0,0,0,0,0,0,0,0,0,-1,1700,1261,0,0
483,-237,0,0,0,0,0,0,0,0,0,-1,1707,1261,0,0
490,-237,0,0,0,0,0,0,0,0,0,-1,1714,1261,0,0
497,-237,0,0,0,0,0,0,0,0,0,-1,1721,1261,0,0
504,-237,0,0,0,0,0,0,0,0,0,-1,1728,1261,0,0
511,-237,0,0,0,0,0,0,0,0,0,-1,1735,1261,0,0
518,-237,0,0,0,0,0,0,0,0,0,-1,1742,1261,0,0
525,-237,0,0,0,0,0,0,0,0,0,-1,1749,1261,0,0
532,-237,0,0,0,0,0,0,0,0,0,-1,1756,1261,0,0
539,-237,0,0,0,0,0,0,0,0,0,-1,1763,1261,0,0
546,-237,0,0,0,0,0,0,0,0,0,-1,1770,1261,0,0
553,-237,0,0,0,0,0,0,0,0,0,-1,1777,1261,0,0
560,-237,0,0,0,0,0,0,0,0,0,-1,1784,1261,0,0
567,-237,0,0,0,0,0,0,0,0,0,-1,1791,1261,0,0
574,-237,0,0,0,0,0,0,0,0,0,-1,1798,1261,0,0
581,-237,0,0,0,0,0,0,0,0,0,-1,1805,1261,0,0
588,-237,0,0,0,0,0,0,0,0,0,-1,1812,1261,0,0
595,-237,0,0,0,0,0,0,0,0,0,-1,1819,1261,0,0
602,-237,0,0,0,0,0,0,0,0,0,-1,1826,1261,0,0
609,-237,0,0,0,0,0,0,0,0,0,-1,1833,1261,0,0
616,-237,11.7284,1.74268,-0.0093301,0.0058395,-0.00525599,0.00748263,-0.0109732,-1.2678,0.0107188,0.0376133,1840,1261,11.7284,-1.74269
623,-237,11.792,1.77551,0.00525387,0.00165869,-0.00242854,0.00647773,0.000434832,-0.466801,0.00418108,0.0324313,1847,1261,11.792,-1.77549
630,-237,11.728,1.7428,0.0145503,-0.00203558,0.000852039,0.014594,-0.00207924,0.0511916,0.0104913,0.0257381,1854,1261,11.728,-1.74276
637,-237,11.6573,1.67432,0.0187876,-0.00476836,0.00403106,0.0194583,-0.00543908,0.164879,0.015115,0.0221194,1861,1261,11.6573,-1.67434
644,-237,11.5996,1.60217,0.0197237,-0.00661922,0.00662936,0.0212979,-0.00819346,0.233147,0.0175783,0.043594,1868,1261,11.5996,-1.60216
651,-237,9.65588,-1.62927,0,0,0,0,0,0,0,-1,1875,1261,9.65589,1.62923
658,-237,11.4979,2.20215,0.0162285,-0.00804209,0.00956703,0.0195461,-0.0113597,0.333803,0.018051,0.0439254,1882,1261,11.4979,-2.20216
665,-237,10.5952,2.43225,0.0132922,-0.00793799,0.010023,0.0172765,-0.0119223,0.378359,0.0169521,0.0448408,1889,1261,10.5952,-2.43225
672,-237,10.2888,2.81543,0,0,0,0,0,0,0,-1,1896,1261,10.2889,-2.81537
679,-237,10.3058,2.83752,0.00695229,-0.00681714,0.00943814,0.0117499,-0.0116148,0.470287,0.0134897,0.0474754,1903,1261,10.3058,-2.83758
686,-237,10.2809,2.84717,0.00410226,-0.00594535,0.00860106,0.00903923,-0.0108823,0.521078,0.0115181,0.0298484,1910,1261,10.2809,-2.84713
693,-237,10.1957,2.74646,0.00153166,-0.00498022,0.00760106,0.00654478,-0.00999333,0.583045,0.00961723,0.0143105,1917,1261,10.1957,-2.74644
700,-237,10.204,2.67859,-0.000480832,-0.0037066,0.0064061,0.00451231,-0.00869974,0.662075,0.00775464,0.0108353,1924,1261,10.204,-2.67858
707,-237,10.2118,2.58728,-0.00299371,-0.00231574,0.00379051,0.00115092,-0.00646037,0.829995,0.00473738,0.0101142,1931,1261,10.2119,-2.58733
714,-237,10.2144,2.50073,-0.00231162,-0.00119823,0.00185123,0.000178195,-0.00368805,0.931455,0.0025202,0.0129567,1938,1261,10.2144,-2.50074
721,-237,10.2057,2.41382,-8.86225e-05,-0.000268356,0.00018873,3.05448e-05,-0.000387523,0.563199,0.000269109,0.0136287,1945,1261,10.2056,-2.41378
728,-237,10.2179,2.34082,0.0015949,0.000587665,-0.00164194,0.00280872,-0.000626154,-0.636592,0.00211236,0.0136289,1952,1261,10.2179,-2.34077
735,-237,10.2169,2.24951,0.00364312,0.00145616,-0.0035384,0.00625315,-0.00115387,-0.635537,0.00460186,0.0186151,1959,1261,10.2169,-2.24951
742,-237,10.1981,2.19592,0.00563766,0.00242242,-0.00583627,0.0100837,-0.00202359,-0.651004,0.00748868,0.0138875,1966,1261,10.1981,-2.19588
749,-237,10.1974,2.11768,0.00809763,0.00362171,-0.00887695,0.0150144,-0.00329505,-0.661917,0.0112697,0.00883927,1973,1261,10.1973,-2.1177
756,-237,10.1942,1.99316,0.0112559,0.00523731,-0.0130114,0.0216015,-0.00510827,-0.671756,0.0163716,0.0123827,1980,1261,10.1942,-1.99314
763,-237,10.2271,1.7561,0.0153063,0.00750466,-0.0186815,0.0304899,-0.00767892,-0.682474,0.0233117,0.0273645,1987,1261,10.227,-1.75615
770,-237,10.444,1.37708,0.0203156,0.0106971,-0.0263368,0.0422786,-0.0112659,-0.695091,0.0325966,0.0400746,1994,1261,10.444,-1.37707
777,-237,10.6014,1.05115,0.0262383,0.0152292,-0.0364856,0.0576322,-0.0161647,-0.710529,0.0447928,0.0438519,2001,1261,10.6015,-1.05121
784,-237,10.6377,0.841187,0,0,0,0,0,0,0,-1,2008,1261,10.6377,-0.841222
791,-237,11.017,1.32788,0,0,0,0,0,0,0,-1,2015,1261,11.017,-1.32786
798,-237,0,0,0,0,0,0,0,0,0,-1,2022,1261,0,0
805,-237,0,0,0,0,0,0,0,0,0,-1,2029,1261,0,0
812,-237,0,0,0,0,0,0,0,0,0,-1,2036,1261,0,0
-700,-244,0,0,0,0,0,0,0,0,0,-1,524,1268,0,0
-693,-244,0,0,0,0,0,0,0,0,0,-1,531,1268,0,0
-686,-244,0,0,0,0,0,0,0,0,0,-1,538,1268,0,0
-679,-244,0,0,0,0,0,0,0,0,0,-1,545,1268,0,0
-672,-244,-6.7464,0.734863,0,0,0,0,0,0,0,-1,552,1268,-6.74641,-0.734844
-665,-244,-6.23413,-0.10144,0.0532194,-0.004485,-0.0189272,0.0588736,-0.0101392,-0.290293,0.0430288,0.043093,559,1268,-6.23415,0.101424
-658,-244,-5.63629,-1.15356,0.0478204,0.000144809,-0.0109537,0.0502166,-0.00225142,-0.215367,0.0342529,0.0426153,566,1268,-5.6363,1.15356
-651,-244,-4.94031,-0.77417,0.0414006,0.00291377,-0.00551639,0.0421757,0.00213871,-0.139589,0.027432,0.044855,573,1268,-4.9403,0.774208
-644,-244,-4.59698,-0.223267,0.0346994,0.00444947,-0.00186993,0.0348146,0.00433432,-0.0615039,0.0219083,0.0469963,580,1268,-4.59701,0.223292
-637,-244,-4.16504,-0.0117188,0.0282201,0.0051434,0.000497434,0.0282308,0.00513268,0.0215424,0.0173644,0.0470297,587,1268,-4.16505,0.0117613
-630,-244,-3.81366,0.214233,0,0,0,0,0,0,0,-1,594,1268,-3.81368,-0.214272
-623,-244,-3.98047,0.692017,0.0173547,0.00501354,0.00269099,0.0179159,0.00445229,0.205617,0.0107711,0.0315496,601,1268,-3.98049,-0.691974
-616,-244,-4.04297,0.852539,0.0130353,0.00432197,0.00293838,0.0139336,0.00342368,0.296687,0.0083842,0.0163947,608,1268,-4.04298,-0.852552
-609,-244,-4.0368,0.927612,0.00876944,0.00430914,0.00295542,0.0102417,0.00283685,0.46218,0.00610597,0.015077,615,1268,-4.03678,-0.927656
-602,-244,-4.02307,1.02649,0.0055785,0.00262283,0.00282218,0.00728637,0.000914957,0.544204,0.00458314,0.0152354,622,1268,-4.02309,-1.02648
-595,-244,-4.02826,1.13696,0.00351471,0.00154278,0.00182987,0.00460734,0.000450149,0.53829,0.00293305,0.0152478,629,1268,-4.02824,-1.13691
-588,-244,-4.03119,1.27197,0.00127452,0.000951715,0.000685112,0.00181699,0.000409251,0.669713,0.00110057,0.0180701,636,1268,-4.03122,-1.27194
-581,-244,-4.04553,1.3584,-0.00022659,0.00080721,-0.000378627,0.000931047,-0.000350427,-1.25469,0.000764754,0.0156601,643,1268,-4.04552,-1.35837
-574,-244,-4.04279,1.42957,-0.000744624,0.00104399,-0.0013187,0.00174303,-0.00144366,-1.08336,0.00184254,0.011805,650,1268,-4.0428,-1.4295
-567,-244,-4.04114,1.50964,-0.00140639,0.00120216,-0.00210089,0.00237071,-0.00257494,-1.06319,0.00285619,0.00929809,657,1268,-4.04111,-1.50963
-560,-244,-4.00793,1.61572,-0.00200954,0.00181783,-0.00299192,0.00345573,-0.00364744,-1.06992,0.00410152,0.0118755,664,1268,-4.00792,-1.61572
-553,-244,-3.92395,1.73621,-0.00205095,0.00235557,-0.00362358,0.00439314,-0.00408852,-1.05855,0.00489794,0.0335279,671,1268,-3.92395,-1.73625
-546,-244,-4.69177,0.253296,0,0,0,0,0,0,0,-1,678,1268,-4.6918,-0.253247
-539,-244,-4.7879,0.520386,0,0,0,0,0,0,0,-1,685,1268,-4.78792,-0.520408
-532,-244,-5.27673,0.540405,0,0,0,0,0,0,0,-1,692,1268,-5.27674,-0.540382
-525,-244,-5.39343,0.470459,0,0,0,0,0,0,0,-1,699,1268,-5.39345,-0.470517
-518,-244,-5.66559,0.704956,0.00253061,0.0047188,-0.00831166,0.0120081,-0.00475865,-0.850839,0.00997733,0.0446357,706,1268,-5.66557,-0.705014
-511,-244,-5.57745,0.594604,0.00451723,0.00426841,-0.00899136,0.013385,-0.0045994,-0.77848,0.0107884,0.0393644,713,1268,-5.57748,-0.594574
-504,-244,-5.68768,0.693237,0.00660288,0.00326073,-0.00910049,0.0141845,-0.00432084,-0.694597,0.0111785,0.0397399,720,1268,-5.68769,-0.693248
-497,-244,-5.79205,0.772827,0.00874331,0.000652303,-0.0079522,0.0136199,-0.00422427,-0.550095,0.0107679,0.0425512,727,1268,-5.79206,-0.772835
-490,-244,0,0,0,0,0,0,0,0,0,-1,734,1268,0,0
-483,-244,0,0,0,0,0,0,0,0,0,-1,741,1268,0,0
-476,-244,0,0,0,0,0,0,0,0,0,-1,748,1268,0,0
-469,-244,0,0,0,0,0,0,0,0,0,-1,755,1268,0,0
-462,-244,0,0,0,0,0,0,0,0,0,-1,762,1268,0,0
-455,-244,0,0,0,0,0,0,0,0,0,-1,769,1268,0,0
-448,-244,0,0,0,0,0,0,0,0,0,-1,776,1268,0,0
-441,-244,0,0,0,0,0,0,0,0,0,-1,783,1268,0,0
-434,-244,0,0,0,0,0,0,0,0,0,-1,790,1268,0,0
-427,-244,0,0,0,0,0,0,0,0,0,-1,797,1268,0,0
-420,-244,0,0,0,0,0,0,0,0,0,-1,804,1268,0,0
-413,-244,0,0,0,0,0,0,0,0,0,-1,811,1268,0,0
-406,-244,0,0,0,0,0,0,0,0,0,-1,818,1268,0,0
-399,-244,0,0,0,0,0,0,0,0,0,-1,825,1268,0,0
-392,-244,0,0,0,0,0,0,0,0,0,-1,832,1268,0,0
-385,-244,0,0,0,0,0,0,0,0,0,-1,839,1268,0,0
-378,-244,0,0,0,0,0,0,0,0,0,-1,846,1268,0,0
-371,-244,0,0,0,0,0,0,0,0,0,-1,853,1268,0,0
-364,-244,0,0,0,0,0,0,0,0,0,-1,860,1268,0,0
-357,-244,0,0,0,0,0,0,0,0,0,-1,867,1268,0,0
-350,-244,0,0,0,0,0,0,0,0,0,-1,874,1268,0,0
-343,-244,0,0,0,0,0,0,0,0,0,-1,881,1268,0,0
-336,-244,0,0,0,0,0,0,0,0,0,-1,888,1268,0,0
-329,-244,0,0,0,0,0,0,0,0,0,-1,895,1268,0,0
-322,-244,0,0,0,0,0,0,0,0,0,-1,902,1268,0,0
-315,-244,0,0,0,0,0,0,0,0,0,-1,909,1268,0,0
-308,-244,0,0,0,0,0,0,0,0,0,-1,916,1268,0,0
-301,-244,0,0,0,0,0,0,0,0,0,-1,923,1268,0,0
-294,-244,0,0,0,0,0,0,0,0,0,-1,930,1268,0,0
-287,-244,0,0,0,0,0,0,0,0,0,-1,937,1268,0,0
-280,-244,0,0,0,0,0,0,0,0,0,-1,944,1268,0,0
-273,-244,0,0,0,0,0,0,0,0,0,-1,951,1268,0,0
-266,-244,0,0,0,0,0,0,0,0,0,-1,958,1268,0,0
-259,-244,0,0,0,0,0,0,0,0,0,-1,965,1268,0,0
-252,-244,0,0,0,0,0,0,0,0,0,-1,972,1268,0,0
-245,-244,0,0,0,0,0,0,0,0,0,-1,979,1268,0,0
-238,-244,0,0,0,0,0,0,0,0,0,-1,986,1268,0,0
-231,-244,0,0,0,0,0,0,0,0,0,-1,993,1268,0,0
-224,-244,0,0,0,0,0,0,0,0,0,-1,1000,1268,0,0
-217,-244,0,0,0,0,0,0,0,0,0,-1,1007,1268,0,0
-210,-244,0,0,0,0,0,0,0,0,0,-1,1014,1268,0,0
-203,-244,0,0,0,0,0,0,0,0,0,-1,1021,1268,0,0
-196,-244,0,0,0,0,0,0,0,0,0,-1,1028,1268,0,0
-189,-244,0,0,0,0,0,0,0,0,0,-1,1035,1268,0,0
-182,-244,0,0,0,0,0,0,0,0,0,-1,1042,1268,0,0
-175,-244,0,0,0,0,0,0,0,0,0,-1,1049,1268,0,0
-168,-244,0,0,0,0,0,0,0,0,0,-1,1056,1268,0,0
-161,-244,0,0,0,0,0,0,0,0,0,-1,1063,1268,0,0
-154,-244,0,0,0,0,0,0,0,0,0,-1,1070,1268,0,0
-147,-244,0,0,0,0,0,0,0,0,0,-1,1077,1268,0,0
-140,-244,0,0,0,0,0,0,0,0,0,-1,1084,1268,0,0
-133,-244,0,0,0,0,0,0,0,0,0,-1,1091,1268,0,0
-126,-244,0,0,0,0,0,0,0,0,0,-1,1098,1268,0,0
-119,-244,0,0,0,0,0,0,0,0,0,-1,1105,1268,0,0
-112,-244,0,0,0,0,0,0,0,0,0,-1,1112,1268,0,0
-105,-244,0,0,0,0,0,0,0,0,0,-1,1119,1268,0,0
-98,-244,0,0,0,0,0,0,0,0,0,-1,1126,1268,0,0
-91,-244,0,0,0,0,0,0,0,0,0,-1,1133,1268,0,0
-84,-244,0,0,0,0,0,0,0,0,0,-1,1140,1268,0,0
-77,-244,0,0,0,0,0,0,0,0,0,-1,1147,1268,0,0
-70,-244,0,0,0,0,0,0,0,0,0,-1,1154,1268,0,0
-63,-244,0,0,0,0,0,0,0,0,0,-1,1161,1268,0,0
-56,-244,0,0,0,0,0,0,0,0,0,-1,1168,1268,0,0
-49,-244,0,0,0,0,0,0,0,0,0,-1,1175,1268,0,0
-42,-244,0,0,0,0,0,0,0,0,0,-1,1182,1268,0,0
-35,-244,0,0,0,0,0,0,0,0,0,-1,1189,1268,0,0
-28,-244,0,0,0,0,0,0,0,0,0,-1,1196,1268,0,0
-21,-244,0,0,0,0,0,0,0,0,0,-1,1203,1268,0,0
-14,-244,0,0,0,0,0,0,0,0,0,-1,1210,1268,0,0
-7,-244,0,0,0,0,0,0,0,0,0,-1,1217,1268,0,0
0,-244,0,0,0,0,0,0,0,0,0,-1,1224,1268,0,0
7,-244,0,0,0,0,0,0,0,0,0,-1,1231,1268,0,0
14,-244,0,0,0,0,0,0,0,0,0,-1,1238,1268,0,0
21,-244,0,0,0,0,0,0,0,0,0,-1,1245,1268,0,0
28,-244,0,0,0,0,0,0,0,0,0,-1,1252,1268,0,0
35,-244,0,0,0,0,0,0,0,0,0,-1,1259,1268,0,0
42,-244,0,0,0,0,0,0,0,0,0,-1,1266,1268,0,0
49,-244,0,0,0,0,0,0,0,0,0,-1,1273,1268,0,0
56,-244,0,0,0,0,0,0,0,0,0,-1,1280,1268,0,0
63,-244,0,0,0,0,0,0,0,0,0,-1,1287,1268,0,0
70,-244,0,0,0,0,0,0,0,0,0,-1,1294,1268,0,0
77,-244,0,0,0,0,0,0,0,0,0,-1,1301,1268,0,0
84,-244,0,0,0,0,0,0,0,0,0,-1,1308,1268,0,0
91,-244,0,0,0,0,0,0,0,0,0,-1,1315,1268,0,0
98,-244,0,0,0,0,0,0,0,0,0,-1,1322,1268,0,0
105,-244,0,0,0,0,0,0,0,0,0,-1,1329,1268,0,0
112,-244,0,0,0,0,0,0,0,0,0,-1,1336,1268,0,0
119,-244,0,0,0,0,0,0,0,0,0,-1,1343,1268,0,0
126,-244,0,0,0,0,0,0,0,0,0,-1,1350,1268,0,0
133,-244,0,0,0,0,0,0,0,0,0,-1,1357,1268,0,0
140,-244,0,0,0,0,0,0,0,0,0,-1,1364,1268,0,0
147,-244,0,0,0,0,0,0,0,0,0,-1,1371,1268,0,0
154,-244,0,0,0,0,0,0,0,0,0,-1,1378,1268,0,0
161,-244,0,0,0,0,0,0,0,0,0,-1,1385,1268,0,0
168,-244,0,0,0,0,0,0,0,0,0,-1,1392,1268,0,0
175,-244,0,0,0,0,0,0,0,0,0,-1,1399,1268,0,0
182,-244,0,0,0,0,0,0,0,0,0,-1,1406,1268,0,0
189,-244,0,0,0,0,0,0,0,0,0,-1,1413,1268,0,0
196,-244,0,0,0,0,0,0,0,0,0,-1,1420,1268,0,0
203,-244,0,0,0,0,0,0,0,0,0,-1,1427,1268,0,0
210,-244,0,0,0,0,0,0,0,0,0,-1,1434,1268,0,0
217,-244,0,0,0,0,0,0,0,0,0,-1,1441,1268,0,0
224,-244,0,0,0,0,0,0,0,0,0,-1,1448,1268,0,0
231,-244,0,0,0,0,0,0,0,0,0,-1,1455,1268,0,0
238,-244,0,0,0,0,0,0,0,0,0,-1,1462,1268,0,0
245,-244,0,0,0,0,0,0,0,0,0,-1,1469,1268,0,0
252,-244,0,0,0,0,0,0,0,0,0,-1,1476,1268,0,0
259,-244,0,0,0,0,0,0,0,0,0,-1,1483,1268,0,0
266,-244,0,0,0,0,0,0,0,0,0,-1,1490,1268,0,0
273,-244,0,0,0,0,0,0,0,0,0,-1,1497,1268,0,0
280,-244,0,0,0,0,0,0,0,0,0,-1,1504,1268,0,0
287,-244,0,0,0,0,0,0,0,0,0,-1,1511,1268,0,0
294,-244,0,0,0,0,0,0,0,0,0,-1,1518,1268,0,0
301,-244,0,0,0,0,0,0,0,0,0,-1,1525,1268,0,0
308,-244,0,0,0,0,0,0,0,0,0,-1,1532,1268,0,0
315,-244,0,0,0,0,0,0,0,0,0,-1,1539,1268,0,0
322,-244,0,0,0,0,0,0,0,0,0,-1,1546,1268,0,0
329,-244,0,0,0,0,0,0,0,0,0,-1,1553,1268,0,0
336,-244,0,0,0,0,0,0,0,0,0,-1,1560,1268,0,0
343,-244,0,0,0,0,0,0,0,0,0,-1,1567,1268,0,0
350,-244,0,0,0,0,0,0,0,0,0,-1,1574,1268,0,0
357,-244,0,0,0,0,0,0,0,0,0,-1,1581,1268,0,0
364,-244,0,0,0,0,0,0,0,0,0,-1,1588,1268,0,0
371,-244,0,0,0,0,0,0,0,0,0,-1,1595,1268,0,0
378,-244,0,0,0,0,0,0,0,0,0,-1,1602,1268,0,0
385,-244,0,0,0,0,0,0,0,0,0,-1,1609,1268,0,0
392,-244,0,0,0,0,0,0,0,0,0,-1,1616,1268,0,0
399,-244,0,0,0,0,0,0,0,0,0,-1,1623,1268,0,0
406,-244,0,0,0,0,0,0,0,0,0,-1,1630,1268,0,0
413,-244,0,0,0,0,0,0,0,0,0,-1,1637,1268,0,0
420,-244,0,0,0,0,0,0,0,0,0,-1,1644,1268,0,0
427,-244,0,0,0,0,0,0,0,0,0,-1,1651,1268,0,0
434,-244,0,0,0,0,0,0,0,0,0,-1,1658,1268,0,0
441,-244,0,0,0,0,0,0,0,0,0,-1,1665,1268,0,0
448,-244,0,0,0,0,0,0,0,0,0,-1,1672,1268,0,0
455,-244,0,0,0,0,0,0,0,0,0,-1,1679,1268,0,0
462,-244,0,0,0,0,0,0,0,0,0,-1,1686,1268,0,0
469,-244,0,0,0,0,0,0,0,0,0,-1,1693,1268,0,0
476,-244,0,0,0,0,0,0,0,0,0,-1,1700,1268,0,0
483,-244,0,0,0,0,0,0,0,0,0,-1,1707,1268,0,0
490,-244,0,0,0,0,0,0,0,0,0,-1,1714,1268,0,0
497,-244,0,0,0,0,0,0,0,0,0,-1,1721,1268,0,0
504,-244,0,0,0,0,0,0,0,0,0,-1,1728,1268,0,0
511,-244,0,0,0,0,0,0,0,0,0,-1,1735,1268,0,0
518,-244,0,0,0,0,0,0,0,0,0,-1,1742,1268,0,0
525,-244,0,0,0,0,0,0,0,0,0,-1,1749,1268,0,0
532,-244,0,0,0,0,0,0,0,0,0,-1,1756,1268,0,0
539,-244,0,0,0,0,0,0,0,0,0,-1,1763,1268,0,0
546,-244,0,0,0,0,0,0,0,0,0,-1,1770,1268,0,0
553,-244,0,0,0,0,0,0,0,0,0,-1,1777,1268,0,0
560,-244,0,0,0,0,0,0,0,0,0,-1,1784,1268,0,0
567,-244,0,0,0,0,0,0,0,0,0,-1,1791,1268,0,0
574,-244,0,0,0,0,0,0,0,0,0,-1,1798,1268,0,0
581,-244,0,0,0,0,0,0,0,0,0,-1,1805,1268,0,0
588,-244,0,0,0,0,0,0,0,0,0,-1,1812,1268,0,0
595,-244,0,0,0,0,0,0,0,0,0,-1,1819,1268,0,0
602,-244,0,0,0,0,0,0,0,0,0,-1,1826,1268,0,0
609,-244,0,0,0,0,0,0,0,0,0,-1,1833,1268,0,0
616,-244,11.7728,1.70581,-0.00366958,0.00360278,-0.00466409,0.00588061,-0.00594741,-1.11649,0.00682895,0.03405,1840,1268,11.7729,-1.70583
623,-244,11.7543,1.79272,0.0119457,-0.000859072,-0.00324355,0.0127204,-0.00163381,-0.234463,0.00907406,0.0265528,1847,1268,11.7543,-1.79268
630,-244,11.7246,1.78979,0.0213468,-0.00460035,-0.000760682,0.0213691,-0.00462263,-0.029283,0.016011,0.023313,1854,1268,11.7246,-1.78977
637,-244,11.7253,1.71436,0.0255202,-0.00728334,0.00200859,0.0256427,-0.00740587,0.0609275,0.0200256,0.0390749,1861,1268,11.7254,-1.7143
644,-244,10.2311,-0.21167,0,0,0,0,0,0,0,-1,1868,1268,10.2311,0.211677
651,-244,9.61609,-1.54114,0.0245621,-0.0098129,0.00645363,0.0257338,-0.0109846,0.179598,0.021762,0.0498022,1875,1268,9.6161,1.54116
658,-244,11.1324,2.64575,0.0217893,-0.0100153,0.00780585,0.0236018,-0.0118278,0.228155,0.0208284,0.0441886,1882,1268,11.1325,-2.64579
665,-244,10.5905,2.56433,0.0182299,-0.00969802,0.00860527,0.0206684,-0.0121366,0.276141,0.0191523,0.0447363,1889,1268,10.5904,-2.56429
672,-244,10.3888,2.65137,0,0,0,0,0,0,0,-1,1896,1268,10.3888,-2.65143
679,-244,10.2433,2.73767,0.0103825,-0.00810711,0.00868301,0.0138208,-0.0115454,0.377036,0.0146648,0.0427292,1903,1268,10.2433,-2.73769
686,-244,10.1398,2.83618,0.00672964,-0.00694153,0.00808159,0.0104788,-0.0106907,0.434366,0.0122224,0.0210376,1910,1268,10.1397,-2.83619
693,-244,10.1028,2.77173,0.0032113,-0.00568612,0.00734699,0.00735149,-0.00982631,0.513166,0.00995186,0.00932525,1917,1268,10.1028,-2.77169
700,-244,10.1019,2.6731,0.000457854,-0.00407895,0.00630218,0.00488745,-0.00850854,0.612647,0.0078278,0.00822768,1924,1268,10.1019,-2.6731
707,-244,10.1188,2.58594,-0.00240244,-0.00240283,0.00359487,0.00119224,-0.0059975,0.785371,0.00444931,0.0104401,1931,1268,10.1188,-2.58593
714,-244,10.1499,2.5033,-0.00177714,-0.00110241,0.00155536,0.000151754,-0.00303131,0.892197,0.00207331,0.0113516,1938,1268,10.1499,-2.50335
721,-244,10.1259,2.44092,0.000511262,-0.000149498,-0.00021427,0.000574662,-0.000212898,-0.28768,0.000470417,0.0126799,1945,1268,10.1259,-2.44088
728,-244,10.124,2.34265,0.00217884,0.000794423,-0.0021979,0.00379096,-0.000817692,-0.632844,0.00283939,0.0160286,1952,1268,10.124,-2.34268
735,-244,10.1123,2.20825,0.00424291,0.00166474,-0.00426261,0.00740709,-0.00149944,-0.638561,0.00550635,0.0208677,1959,1268,10.1123,-2.20825
742,-244,10.1265,2.16748,0.00640508,0.00269078,-0.0068399,0.0116355,-0.00253961,-0.652835,0.00872756,0.0146185,1966,1268,10.1265,-2.16743
749,-244,10.1249,2.11609,0.00914283,0.00398716,-0.0103476,0.0172289,-0.00409887,-0.663321,0.0130683,0.0177721,1973,1268,10.1248,-2.11613
756,-244,10.0881,2.00903,0.0127096,0.00577129,-0.0152283,0.0248589,-0.006378,-0.673404,0.0190577,0.0231278,1980,1268,10.0881,-2.00909
763,-244,10.3768,1.68616,0.017303,0.00829604,-0.0220113,0.0352668,-0.00966774,-0.684492,0.0273102,0.0394976,1987,1268,10.3768,-1.68617
770,-244,10.7228,1.42566,0.0229719,0.0118619,-0.0312641,0.0491706,-0.0143369,-0.697476,0.0384607,0.0458616,1994,1268,10.7227,-1.42564
777,-244,11.0444,1.15442,0.0296428,0.0169147,-0.0436766,0.0674165,-0.020859,-0.713053,0.0532764,0.0482952,2001,1268,11.0445,-1.15439
784,-244,11.2898,0.913818,0,0,0,0,0,0,0,-1,2008,1268,11.2898,-0.913779
791,-244,0,0,0,0,0,0,0,0,0,-1,2015,1268,0,0
798,-244,0,0,0,0,0,0,0,0,0,-1,2022,1268,0,0
805,-244,0,0,0,0,0,0,0,0,0,-1,2029,1268,0,0
812,-244,0,0,0,0,0,0,0,0,0,-1,2036,1268,0,0
-700,-251,0,0,0,0,0,0,0,0,0,-1,524,1275,0,0
-693,-251,0,0,0,0,0,0,0,0,0,-1,531,1275,0,0
-686,-251,0,0,0,0,0,0,0,0,0,-1,538,1275,0,0
-679,-251,0,0,0,0,0,0,0,0,0,-1,545,1275,0,0
-672,-251,0,0,0,0,0,0,0,0,0,-1,552,1275,0,0
-665,-251,-6.85822,0.389526,0.0676459,-0.00507708,-0.0219798,0.0737729,-0.0112041,-0.271854,0.0533105,0.0391676,559,1275,-6.85822,-0.3895
-658,-251,-6.33716,-0.867798,0.0587896,-0.000449856,-0.0131527,0.0615786,-0.00323878,-0.208948,0.0421734,0.0447645,566,1275,-6.33718,0.867763
-651,-251,-4.6756,-0.750854,0.0497094,0.00224457,-0.00705841,0.0507368,0.00121716,-0.144543,0.0334262,0.0491783,573,1275,-4.67558,0.750854
-644,-251,-4.44269,-0.370361,0.0409321,0.00370668,-0.00292997,0.0411614,0.00347748,-0.0780682,0.0263583,0.0448742,580,1275,-4.44268,0.370387
-637,-251,-3.81055,-0.119751,0.0328311,0.00436868,-0.000195925,0.0328325,0.00436734,-0.0068832,0.0205875,0.0435933,587,1275,-3.81055,0.11971
-630,-251,-3.4425,0.237305,0.0255924,0.00449383,0.00149362,0.0256976,0.00438862,0.070325,0.0158724,0.0437267,594,1275,-3.44248,-0.237269
-623,-251,-3.86578,0.644775,0.0196626,0.00431468,0.00248217,0.0200541,0.00392323,0.156416,0.0122725,0.0373598,601,1275,-3.86577,-0.644716
-616,-251,-3.96265,0.852661,0.0145865,0.00378737,0.00287601,0.0153047,0.0030692,0.244707,0.00934951,0.0201897,608,1275,-3.96267,-0.852683
-609,-251,-3.94397,0.889282,0.00976641,0.00386039,0.00303777,0.0110499,0.00257685,0.399773,0.00667557,0.0208787,615,1275,-3.94395,-0.88925
-602,-251,-3.93604,0.999146,0.00625484,0.00237388,0.00303381,0.00791568,0.000713051,0.500877,0.00505622,0.0154395,622,1275,-3.93601,-0.999152
-595,-251,-3.93256,1.10901,0.0039228,0.00148421,0.00216903,0.00519175,0.000215254,0.52934,0.0033917,0.0123578,629,1275,-3.93254,-1.10899
-588,-251,-3.92834,1.22058,0.00152534,0.00102103,0.00109228,0.00239419,0.000152178,0.67196,0.0015479,0.013399,636,1275,-3.92836,-1.22061
-581,-251,-3.9314,1.34241,5.44519e-05,0.000943324,3.8146e-05,0.000944958,5.28179e-05,1.52799,0.000613125,0.012682,643,1275,-3.93142,-1.34244
-574,-251,-3.92511,1.453,-0.000301321,0.00119228,-0.000895218,0.0016113,-0.000720336,-1.13303,0.00137854,0.0118281,650,1275,-3.92508,-1.45305
-567,-251,-3.93427,1.51929,-0.000815322,0.00125204,-0.00181544,0.00230745,-0.00187073,-1.0442,0.00241666,0.0103466,657,1275,-3.93426,-1.51934
-560,-251,-3.91925,1.60742,-0.00116208,0.00176696,-0.00292427,0.00357294,-0.00296806,-1.01755,0.00378183,0.0109808,664,1275,-3.91927,-1.60737
-553,-251,-3.84845,1.67664,-0.000824217,0.00207977,-0.00376056,0.00465892,-0.00340337,-0.969636,0.00467354,0.0255936,671,1275,-3.84846,-1.67659
-546,-251,-3.89294,-0.249756,0,0,0,0,0,0,0,-1,678,1275,-3.89297,0.24973
-539,-251,-4.42957,0.380859,0,0,0,0,0,0,0,-1,685,1275,-4.42959,-0.38086
-532,-251,-4.97235,1.06897,0,0,0,0,0,0,0,-1,692,1275,-4.97235,-1.06902
-525,-251,-5.62323,1.81104,0,0,0,0,0,0,0,-1,699,1275,-5.62325,-1.81106
-518,-251,-5.52612,0.584106,0,0,0,0,0,0,0,-1,706,1275,-5.52614,-0.584046
-511,-251,-5.32172,0.380249,0.00973891,0.00251751,-0.0119363,0.0185986,-0.00634222,-0.638524,0.014968,0.0422979,713,1275,-5.3217,-0.380248
-504,-251,-5.45911,0.512207,0.0128225,0.00148347,-0.0129868,0.0213233,-0.0070174,-0.579588,0.0170432,0.039252,720,1275,-5.45908,-0.512226
-497,-251,-5.55457,0.579102,0.0160387,-0.000603035,-0.013171,0.0232971,-0.00786137,-0.503676,0.0187107,0.0443781,727,1275,-5.55459,-0.579068
-490,-251,0,0,0,0,0,0,0,0,0,-1,734,1275,0,0
-483,-251,0,0,0,0,0,0,0,0,0,-1,741,1275,0,0
-476,-251,0,0,0,0,0,0,0,0,0,-1,748,1275,0,0
-469,-251,0,0,0,0,0,0,0,0,0,-1,755,1275,0,0
-462,-251,0,0,0,0,0,0,0,0,0,-1,762,1275,0,0
-455,-251,0,0,0,0,0,0,0,0,0,-1,769,1275,0,0
-448,-251,0,0,0,0,0,0,0,0,0,-1,776,1275,0,0
-441,-251,0,0,0,0,0,0,0,0,0,-1,783,1275,0,0
-434,-251,0,0,0,0,0,0,0,0,0,-1,790,1275,0,0
-427,-251,0,0,0,0,0,0,0,0,0,-1,797,1275,0,0
-420,-251,0,0,0,0,0,0,0,0,0,-1,804,1275,0,0
-413,-251,0,0,0,0,0,0,0,0,0,-1,811,1275,0,0
-406,-251,0,0,0,0,0,0,0,0,0,-1,818,1275,0,0
-399,-251,0,0,0,0,0,0,0,0,0,-1,825,1275,0,0
-392,-251,0,0,0,0,0,0,0,0,0,-1,832,1275,0,0
-385,-251,0,0,0,0,0,0,0,0,0,-1,839,1275,0,0
-378,-251,0,0,0,0,0,0,0,0,0,-1,846,1275,0,0
-371,-251,0,0,0,0,0,0,0,0,0,-1,853,1275,0,0
-364,-251,0,0,0,0,0,0,0,0,0,-1,860,1275,0,0
-357,-251,0,0,0,0,0,0,0,0,0,-1,867,1275,0,0
-350,-251,0,0,0,0,0,0,0,0,0,-1,874,1275,0,0
-343,-251,0,0,0,0,0,0,0,0,0,-1,881,1275,0,0
-336,-251,0,0,0,0,0,0,0,0,0,-1,888,1275,0,0
-329,-251,0,0,0,0,0,0,0,0,0,-1,895,1275,0,0
-322,-251,0,0,0,0,0,0,0,0,0,-1,902,1275,0,0
-315,-251,0,0,0,0,0,0,0,0,0,-1,909,1275,0,0
-308,-251,0,0,0,0,0,0,0,0,0,-1,916,1275,0,0
-301,-251,0,0,0,0,0,0,0,0,0,-1,923,1275,0,0
-294,-251,0,0,0,0,0,0,0,0,0,-1,930,1275,0,0
-287,-251,0,0,0,0,0,0,0,0,0,-1,937,1275,0,0
-280,-251,0,0,0,0,0,0,0,0,0,-1,944,1275,0,0
-273,-251,0,0,0,0,0,0,0,0,0,-1,951,1275,0,0
-266,-251,0,0,0,0,0,0,0,0,0,-1,958,1275,0,0
-259,-251,0,0,0,0,0,0,0,0,0,-1,965,1275,0,0
-252,-251,0,0,0,0,0,0,0,0,0,-1,972,1275,0,0
-245,-251,0,0,0,0,0,0,0,0,0,-1,979,1275,0,0
-238,-251,0,0,0,0,0,0,0,0,0,-1,986,1275,0,0
-231,-251,0,0,0,0,0,0,0,0,0,-1,993,1275,0,0
-224,-251,0,0,0,0,0,0,0,0,0,-1,1000,1275,0,0
-217,-251,0,0,0,0,0,0,0,0,0,-1,1007,1275,0,0
-210,-251,0,0,0,0,0,0,0,0,0,-1,1014,1275,0,0
-203,-251,0,0,0,0,0,0,0,0,0,-1,1021,1275,0,0
-196,-251,0,0,0,0,0,0,0,0,0,-1,1028,1275,0,0
-189,-251,0,0,0,0,0,0,0,0,0,-1,1035,1275,0,0
-182,-251,0,0,0,0,0,0,0,0,0,-1,1042,1275,0,0
-175,-251,0,0,0,0,0,0,0,0,0,-1,1049,1275,0,0
-168,-251,0,0,0,0,0,0,0,0,0,-1,1056,1275,0,0
-161,-251,0,0,0,0,0,0,0,0,0,-1,1063,1275,0,0
-154,-251,0,0,0,0,0,0,0,0,0,-1,1070,1275,0,0
-147,-251,0,0,0,0,0,0,0,0,0,-1,1077,1275,0,0
-140,-251,0,0,0,0,0,0,0,0,0,-1,1084,1275,0,0
-133,-251,0,0,0,0,0,0,0,0,0,-1,1091,1275,0,0
-126,-251,0,0,0,0,0,0,0,0,0,-1,1098,1275,0,0
-119,-251,0,0,0,0,0,0,0,0,0,-1,1105,1275,0,0
-112,-251,0,0,0,0,0,0,0,0,0,-1,1112,1275,0,0
-105,-251,0,0,0,0,0,0,0,0,0,-1,1119,1275,0,0
-98,-251,0,0,0,0,0,0,0,0,0,-1,1126,1275,0,0
-91,-251,0,0,0,0,0,0,0,0,0,-1,1133,1275,0,0
-84,-251,0,0,0,0,0,0,0,0,0,-1,1140,1275,0,0
-77,-251,0,0,0,0,0,0,0,0,0,-1,1147,1275,0,0
-70,-251,0,0,0,0,0,0,0,0,0,-1,1154,1275,0,0
-63,-251,0,0,0,0,0,0,0,0,0,-1,1161,1275,0,0
-56,-251,0,0,0,0,0,0,0,0,0,-1,1168,1275,0,0
-49,-251,0,0,0,0,0,0,0,0,0,-1,1175,1275,0,0
-42,-251,0,0,0,0,0,0,0,0,0,-1,1182,1275,0,0
-35,-251,0,0,0,0,0,0,0,0,0,-1,1189,1275,0,0
-28,-251,0,0,0,0,0,0,0,0,0,-1,1196,1275,0,0
-21,-251,0,0,0,0,0,0,0,0,0,-1,1203,1275,0,0
-14,-251,0,0,0,0,0,0,0,0,0,-1,1210,1275,0,0
-7,-251,0,0,0,0,0,0,0,0,0,-1,1217,1275,0,0
0,-251,0,0,0,0,0,0,0,0,0,-1,1224,1275,0,0
7,-251,0,0,0,0,0,0,0,0,0,-1,1231,1275,0,0
14,-251,0,0,0,0,0,0,0,0,0,-1,1238,1275,0,0
21,-251,0,0,0,0,0,0,0,0,0,-1,1245,1275,0,0
28,-251,0,0,0,0,0,0,0,0,0,-1,1252,1275,0,0
35,-251,0,0,0,0,0,0,0,0,0,-1,1259,1275,0,0
42,-251,0,0,0,0,0,0,0,0,0,-1,1266,1275,0,0
49,-251,0,0,0,0,0,0,0,0,0,-1,1273,1275,0,0
56,-251,0,0,0,0,0,0,0,0,0,-1,1280,1275,0,0
63,-251,0,0,0,0,0,0,0,0,0,-1,1287,1275,0,0
70,-251,0,0,0,0,0,0,0,0,0,-1,1294,1275,0,0
77,-251,0,0,0,0,0,0,0,0,0,-1,1301,1275,0,0
84,-251,0,0,0,0,0,0,0,0,0,-1,1308,1275,0,0
91,-251,0,0,0,0,0,0,0,0,0,-1,1315,1275,0,0
98,-251,0,0,0,0,0,0,0,0,0,-1,1322,1275,0,0
105,-251,0,0,0,0,0,0,0,0,0,-1,1329,1275,0,0
112,-251,0,0,0,0,0,0,0,0,0,-1,1336,1275,0,0
119,-251,0,0,0,0,0,0,0,0,0,-1,1343,1275,0,0
126,-251,0,0,0,0,0,0,0,0,0,-1,1350,1275,0,0
133,-251,0,0,0,0,0,0,0,0,0,-1,1357,1275,0,0
140,-251,0,0,0,0,0,0,0,0,0,-1,1364,1275,0,0
147,-251,0,0,0,0,0,0,0,0,0,-1,1371,1275,0,0
154,-251,0,0,0,0,0,0,0,0,0,-1,1378,1275,0,0
161,-251,0,0,0,0,0,0,0,0,0,-1,1385,1275,0,0
168,-251,0,0,0,0,0,0,0,0,0,-1,1392,1275,0,0
175,-251,0,0,0,0,0,0,0,0,0,-1,1399,1275,0,0
182,-251,0,0,0,0,0,0,0,0,0,-1,1406,1275,0,0
189,-251,0,0,0,0,0,0,0,0,0,-1,1413,1275,0,0
196,-251,0,0,0,0,0,0,0,0,0,-1,1420,1275,0,0
203,-251,0,0,0,0,0,0,0,0,0,-1,1427,1275,0,0
210,-251,0,0,0,0,0,0,0,0,0,-1,1434,1275,0,0
217,-251,0,0,0,0,0,0,0,0,0,-1,1441,1275,0,0
224,-251,0,0,0,0,0,0,0,0,0,-1,1448,1275,0,0
231,-251,0,0,0,0,0,0,0,0,0,-1,1455,1275,0,0
238,-251,0,0,0,0,0,0,0,0,0,-1,1462,1275,0,0
245,-251,0,0,0,0,0,0,0,0,0,-1,1469,1275,0,0
252,-251,0,0,0,0,0,0,0,0,0,-1,1476,1275,0,0
259,-251,0,0,0,0,0,0,0,0,0,-1,1483,1275,0,0
266,-251,0,0,0,0,0,0,0,0,0,-1,1490,1275,0,0
273,-251,0,0,0,0,0,0,0,0,0,-1,1497,1275,0,0
280,-251,0,0,0,0,0,0,0,0,0,-1,1504,1275,0,0
287,-251,0,0,0,0,0,0,0,0,0,-1,1511,1275,0,0
294,-251,0,0,0,0,0,0,0,0,0,-1,1518,1275,0,0
301,-251,0,0,0,0,0,0,0,0,0,-1,1525,1275,0,0
308,-251,0,0,0,0,0,0,0,0,0,-1,1532,1275,0,0
315,-251,0,0,0,0,0,0,0,0,0,-1,1539,1275,0,0
322,-251,0,0,0,0,0,0,0,0,0,-1,1546,1275,0,0
329,-251,0,0,0,0,0,0,0,0,0,-1,1553,1275,0,0
336,-251,0,0,0,0,0,0,0,0,0,-1,1560,1275,0,0
343,-251,0,0,0,0,0,0,0,0,0,-1,1567,1275,0,0
350,-251,0,0,0,0,0,0,0,0,0,-1,1574,1275,0,0
357,-251,0,0,0,0,0,0,0,0,0,-1,1581,1275,0,0
364,-251,0,0,0,0,0,0,0,0,0,-1,1588,1275,0,0
371,-251,0,0,0,0,0,0,0,0,0,-1,1595,1275,0,0
378,-251,0,0,0,0,0,0,0,0,0,-1,1602,1275,0,0
385,-251,0,0,0,0,0,0,0,0,0,-1,1609,1275,0,0
392,-251,0,0,0,0,0,0,0,0,0,-1,1616,1275,0,0
399,-251,0,0,0,0,0,0,0,0,0,-1,1623,1275,0,0
406,-251,0,0,0,0,0,0,0,0,0,-1,1630,1275,0,0
413,-251,0,0,0,0,0,0,0,0,0,-1,1637,1275,0,0
420,-251,0,0,0,0,0,0,0,0,0,-1,1644,1275,0,0
427,-251,0,0,0,0,0,0,0,0,0,-1,1651,1275,0,0
434,-251,0,0,0,0,0,0,0,0,0,-1,1658,1275,0,0
441,-251,0,0,0,0,0,0,0,0,0,-1,1665,1275,0,0
448,-251,0,0,0,0,0,0,0,0,0,-1,1672,1275,0,0
455,-251,0,0,0,0,0,0,0,0,0,-1,1679,1275,0,0
462,-251,0,0,0,0,0,0,0,0,0,-1,1686,1275,0,0
469,-251,0,0,0,0,0,0,0,0,0,-1,1693,1275,0,0
476,-251,0,0,0,0,0,0,0,0,0,-1,1700,1275,0,0
483,-251,0,0,0,0,0,0,0,0,0,-1,1707,1275,0,0
490,-251,0,0,0,0,0,0,0,0,0,-1,1714,1275,0,0
497,-251,0,0,0,0,0,0,0,0,0,-1,1721,1275,0,0
504,-251,0,0,0,0,0,0,0,0,0,-1,1728,1275,0,0
511,-251,0,0,0,0,0,0,0,0,0,-1,1735,1275,0,0
518,-251,0,0,0,0,0,0,0,0,0,-1,1742,1275,0,0
525,-251,0,0,0,0,0,0,0,0,0,-1,1749,1275,0,0
532,-251,0,0,0,0,0,0,0,0,0,-1,1756,1275,0,0
539,-251,0,0,0,0,0,0,0,0,0,-1,1763,1275,0,0
546,-251,0,0,0,0,0,0,0,0,0,-1,1770,1275,0,0
553,-251,0,0,0,0,0,0,0,0,0,-1,1777,1275,0,0
560,-251,0,0,0,0,0,0,0,0,0,-1,1784,1275,0,0
567,-251,0,0,0,0,0,0,0,0,0,-1,1791,1275,0,0
574,-251,0,0,0,0,0,0,0,0,0,-1,1798,1275,0,0
581,-251,0,0,0,0,0,0,0,0,0,-1,1805,1275,0,0
588,-251,0,0,0,0,0,0,0,0,0,-1,1812,1275,0,0
595,-251,0,0,0,0,0,0,0,0,0,-1,1819,1275,0,0
602,-251,0,0,0,0,0,0,0,0,0,-1,1826,1275,0,0
609,-251,11.6953,1.67212,-0.0183058,0.00644509,-0.00324176,0.00686264,-0.0187234,-1.4427,0.015292,0.0305077,1833,1275,11.6953,-1.67214
616,-251,11.7212,1.65198,0.00302512,0.00187068,-0.0050035,0.00748458,-0.00258879,-0.72797,0.00604048,0.0263851,1840,1275,11.7212,-1.65203
623,-251,11.7153,1.74072,0.0182818,-0.00276583,-0.00488633,0.0193609,-0.0038449,-0.217345,0.0143615,0.0224908,1847,1275,11.7153,-1.74076
630,-251,11.7615,1.7915,0.0271603,-0.00653885,-0.00323817,0.0274686,-0.00684719,-0.0949332,0.0209708,0.0320157,1854,1275,11.7615,-1.79151
637,-251,11.7059,1.63232,0.0310225,-0.00920905,-0.000957972,0.0310453,-0.00923184,-0.0237935,0.0243643,0.0376975,1861,1275,11.706,-1.63234
644,-251,9.24316,0.256836,0,0,0,0,0,0,0,-1,1868,1275,9.24319,-0.25681
651,-251,9.70325,-1.71472,0.0295133,-0.0115783,0.00343002,0.0297977,-0.0118626,0.0827099,0.0247844,0.0481105,1875,1275,9.70323,1.71469
658,-251,11.0908,2.4364,0.0264921,-0.0116575,0.00501652,0.0271407,-0.0123061,0.128584,0.0233053,0.0456815,1882,1275,11.0908,-2.4364
665,-251,10.6108,2.56775,0.0226088,-0.0112384,0.00619602,0.0237073,-0.012337,0.17548,0.0211525,0.0441757,1889,1275,10.6108,-2.5677
672,-251,10.3235,2.63025,0.0182541,-0.0105667,0.0069653,0.0198492,-0.0121618,0.225121,0.0186583,0.0461456,1896,1275,10.3235,-2.63031
679,-251,10.1342,2.80286,0.0135527,-0.0092172,0.00716649,0.0156204,-0.011285,0.280904,0.0156009,0.0374993,1903,1275,10.1342,-2.80288
686,-251,10.0039,2.85852,0.00915342,-0.00773626,0.00692815,0.0116317,-0.0102145,0.343529,0.0126218,0.0161339,1910,1275,10.0039,-2.8585
693,-251,10.0293,2.78821,0.0047595,-0.00621324,0.00662263,0.0078731,-0.00932684,0.43948,0.0099422,0.00819016,1917,1275,10.0293,-2.78826
700,-251,10.0321,2.68298,0.00133357,-0.00432159,0.00587838,0.00502907,-0.00801709,0.561226,0.00759777,0.00798364,1924,1275,10.0322,-2.68303
707,-251,10.046,2.59045,-0.00173218,-0.00240317,0.00325225,0.00120183,-0.00533718,0.734001,0.00401908,0.0108151,1931,1275,10.0461,-2.59041
714,-251,10.0588,2.50635,-0.00117218,-0.000959978,0.00123214,0.000170624,-0.00230278,0.828348,0.00159511,0.0113646,1938,1275,10.0589,-2.50634
721,-251,10.0365,2.41907,0.00109575,-5.6617e-05,-0.000574409,0.00133316,-0.000294026,-0.391928,0.00100128,0.0122845,1945,1275,10.0365,-2.41911
728,-251,10.0255,2.34558,0.00271606,0.000895151,-0.00263421,0.00459272,-0.000981502,-0.619011,0.00343603,0.0131808,1952,1275,10.0255,-2.34559
735,-251,10.0356,2.23145,0.00477494,0.00172022,-0.00479955,0.0082843,-0.00178913,-0.63135,0.00620581,0.013016,1959,1275,10.0357,-2.23149
742,-251,10.0605,2.16931,0.00708418,0.00276899,-0.00759645,0.0128235,-0.00297033,-0.647029,0.00969204,0.0140023,1966,1275,10.0606,-2.16936
749,-251,10.0641,2.17371,0.0100826,0.00416832,-0.0115164,0.0190155,-0.00476456,-0.659725,0.014528,0.0223402,1973,1275,10.0641,-2.17375
756,-251,9.97034,2.23657,0.0140319,0.0061717,-0.0170816,0.0276297,-0.00742607,-0.672327,0.0213305,0.038567,1980,1275,9.97028,-2.23663
763,-251,9.88074,2.34192,0.0191218,0.009068,-0.0249066,0.0395038,-0.0113139,-0.685821,0.0308076,0.0485059,1987,1275,9.88073,-2.34186
770,-251,10.9659,1.30591,0.0253786,0.0132178,-0.0356861,0.0554985,-0.0169022,-0.701015,0.0437357,0.0487871,1994,1275,10.9659,-1.30586
777,-251,11.2369,1.06079,0,0,0,0,0,0,0,-1,2001,1275,11.237,-1.06083
784,-251,6.11511,1.60986,0,0,0,0,0,0,0,-1,2008,1275,6.11512,-1.60988
791,-251,0,0,0,0,0,0,0,0,0,-1,2015,1275,0,0
798,-251,0,0,0,0,0,0,0,0,0,-1,2022,1275,0,0
805,-251,0,0,0,0,0,0,0,0,0,-1,2029,1275,0,0
812,-251,0,0,0,0,0,0,0,0,0,-1,2036,1275,0,0
-700,-258,0,0,0,0,0,0,0,0,0,-1,524,1282,0,0
-693,-258,0,0,0,0,0,0,0,0,0,-1,531,1282,0,0
-686,-258,0,0,0,0,0,0,0,0,0,-1,538,1282,0,0
-679,-258,0,0,0,0,0,0,0,0,0,-1,545,1282,0,0
-672,-258,0,0,0,0,0,0,0,0,0,-1,552,1282,0,0
-665,-258,-7.01575,0.94751,0.0856412,-0.00731725,-0.0258609,0.0923513,-0.0140274,-0.253871,0.0667366,0.0409207,559,1282,-7.01577,-0.9475
-658,-258,-5.14081,-0.785034,0.0724082,-0.00298886,-0.0163916,0.0758176,-0.00639829,-0.205074,0.0528072,0.0478792,566,1282,-5.14082,0.785024
-651,-258,-4.62421,-0.59729,0,0,0,0,0,0,0,-1,573,1282,-4.62421,0.597239
-644,-258,-4.63788,-0.737061,0.0487936,0.00114373,-0.00505364,0.0493237,0.00061365,-0.104509,0.0326798,0.0468311,580,1282,-4.63789,0.737064
-637,-258,-3.72913,-0.0396729,0.0387626,0.00197737,-0.00186738,0.0388572,0.00188281,-0.0505909,0.0253006,0.0423353,587,1282,-3.72913,0.0396448
-630,-258,-2.8739,0.689453,0.0300308,0.00235612,0.000224887,0.0300326,0.00235429,0.00812536,0.019285,0.0445734,594,1282,-2.87391,-0.689498
-623,-258,-4.13531,0.314209,0.0227682,0.00244898,0.00152433,0.0228819,0.00233527,0.0744634,0.0145389,0.0422451,601,1282,-4.1353,-0.314266
-616,-258,-3.90393,0.850586,0.0167601,0.00229014,0.00218537,0.0170829,0.00196729,0.146672,0.0107928,0.0309614,608,1282,-3.90392,-0.850587
-609,-258,-3.83807,0.90686,0.01133,0.00268535,0.0026352,0.01207,0.00194538,0.273751,0.00748295,0.0171467,615,1282,-3.83807,-0.906902
-602,-258,-3.84406,0.999634,0.00748885,0.00158267,0.00285871,0.00864586,0.000425654,0.38458,0.00562739,0.0136647,622,1282,-3.84404,-0.999594
-595,-258,-3.83746,1.1001,0.0047858,0.00104248,0.00224828,0.00583952,-1.12439e-05,0.438279,0.00389677,0.0103879,629,1282,-3.83745,-1.10005
-588,-258,-3.81738,1.21606,0.00214452,0.000823052,0.00143652,0.00306497,-9.74049e-05,0.569848,0.00207655,0.0111145,636,1282,-3.81739,-1.21603
-581,-258,-3.83063,1.32861,0.000636534,0.000903152,0.000487976,0.0012757,0.000263985,0.918739,0.000777556,0.0130479,643,1282,-3.83065,-1.32867
-574,-258,-3.81476,1.43323,0.000482859,0.00117018,-0.000391405,0.00134739,0.000305655,-1.14567,0.000815691,0.0134076,650,1282,-3.81473,-1.43327
-567,-258,-3.81329,1.51331,0.000192443,0.00113258,-0.00140499,0.00214405,-0.000819027,-0.94683,0.00176683,0.0132465,657,1282,-3.81331,-1.51331
-560,-258,-3.81622,1.58594,0.000149813,0.00147382,-0.00270535,0.00359698,-0.00197335,-0.905391,0.00326125,0.0172081,664,1282,-3.81624,-1.5859
-553,-258,-3.82111,1.69434,0.000905755,0.00148977,-0.00375995,0.00496903,-0.0025735,-0.824152,0.00442729,0.021905,671,1282,-3.82109,-1.69437
-546,-258,-3.73389,1.69055,0.00212581,0.00213025,-0.005297,0.00742503,-0.00316897,-0.785608,0.00627883,0.0415134,678,1282,-3.73389,-1.69056
-539,-258,-4.36432,0.475708,0,0,0,0,0,0,0,-1,685,1282,-4.36433,-0.475752
-532,-258,-5.39008,1.17371,0,0,0,0,0,0,0,-1,692,1282,-5.39009,-1.17371
-525,-258,-4.76343,0.560913,0,0,0,0,0,0,0,-1,699,1282,-4.76343,-0.560947
-518,-258,-5.03131,0.537842,0,0,0,0,0,0,0,-1,706,1282,-5.03129,-0.537814
-511,-258,-5.25574,0.456299,0.0153344,3.80155e-05,-0.0147913,0.0243379,-0.00896546,-0.546792,0.0198988,0.0495265,713,1282,-5.25576,-0.456303
-504,-258,-5.48401,0.517578,0.0194429,-0.00124045,-0.0167494,0.028786,-0.0105836,-0.508829,0.023526,0.0437476,720,1282,-5.48399,-0.517553
-497,-258,-5.41492,0.434692,0.0238428,-0.00327881,-0.0182033,0.0329813,-0.0124173,-0.465264,0.0270924,0.0474,727,1282,-5.41493,-0.434705
-490,-258,-5.53357,0.610229,0.0260988,-0.00603747,-0.0183487,0.0344204,-0.0143591,-0.425783,0.0289459,0.0449421,734,1282,-5.53356,-0.610263
-483,-258,0,0,0,0,0,0,0,0,0,-1,741,1282,0,0
-476,-258,0,0,0,0,0,0,0,0,0,-1,748,1282,0,0
-469,-258,0,0,0,0,0,0,0,0,0,-1,755,1282,0,0
-462,-258,0,0,0,0,0,0,0,0,0,-1,762,1282,0,0
-455,-258,0,0,0,0,0,0,0,0,0,-1,769,1282,0,0
-448,-258,0,0,0,0,0,0,0,0,0,-1,776,1282,0,0
-441,-258,0,0,0,0,0,0,0,0,0,-1,783,1282,0,0
-434,-258,0,0,0,0,0,0,0,0,0,-1,790,1282,0,0
-427,-258,0,0,0,0,0,0,0,0,0,-1,797,1282,0,0
-420,-258,0,0,0,0,0,0,0,0,0,-1,804,1282,0,0
-413,-258,0,0,0,0,0,0,0,0,0,-1,811,1282,0,0
-406,-258,0,0,0,0,0,0,0,0,0,-1,818,1282,0,0
-399,-258,0,0,0,0,0,0,0,0,0,-1,825,1282,0,0
-392,-258,0,0,0,0,0,0,0,0,0,-1,832,1282,0,0
-385,-258,0,0,0,0,0,0,0,0,0,-1,839,1282,0,0
-378,-258,0,0,0,0,0,0,0,0,0,-1,846,1282,0,0
-371,-258,0,0,0,0,0,0,0,0,0,-1,853,1282,0,0
-364,-258,0,0,0,0,0,0,0,0,0,-1,860,1282,0,0
-357,-258,0,0,0,0,0,0,0,0,0,-1,867,1282,0,0
-350,-258,0,0,0,0,0,0,0,0,0,-1,874,1282,0,0
-343,-258,0,0,0,0,0,0,0,0,0,-1,881,1282,0,0
-336,-258,0,0,0,0,0,0,0,0,0,-1,888,1282,0,0
-329,-258,0,0,0,0,0,0,0,0,0,-1,895,1282,0,0
-322,-258,0,0,0,0,0,0,0,0,0,-1,902,1282,0,0
-315,-258,0,0,0,0,0,0,0,0,0,-1,909,1282,0,0
-308,-258,0,0,0,0,0,0,0,0,0,-1,916,1282,0,0
-301,-258,0,0,0,0,0,0,0,0,0,-1,923,1282,0,0
-294,-258,0,0,0,0,0,0,0,0,0,-1,930,1282,0,0
-287,-258,0,0,0,0,0,0,0,0,0,-1,937,1282,0,0
-280,-258,0,0,0,0,0,0,0,0,0,-1,944,1282,0,0
-273,-258,0,0,0,0,0,0,0,0,0,-1,951,1282,0,0
-266,-258,0,0,0,0,0,0,0,0,0,-1,958,1282,0,0
-259,-258,0,0,0,0,0,0,0,0,0,-1,965,1282,0,0
-252,-258,0,0,0,0,0,0,0,0,0,-1,972,1282,0,0
-245,-258,0,0,0,0,0,0,0,0,0,-1,979,1282,0,0
-238,-258,0,0,0,0,0,0,0,0,0,-1,986,1282,0,0
-231,-258,0,0,0,0,0,0,0,0,0,-1,993,1282,0,0
-224,-258,0,0,0,0,0,0,0,0,0,-1,1000,1282,0,0
-217,-258,0,0,0,0,0,0,0,0,0,-1,1007,1282,0,0
-210,-258,0,0,0,0,0,0,0,0,0,-1,1014,1282,0,0
-203,-258,0,0,0,0,0,0,0,0,0,-1,1021,1282,0,0
-196,-258,0,0,0,0,0,0,0,0,0,-1,1028,1282,0,0
-189,-258,0,0,0,0,0,0,0,0,0,-1,1035,1282,0,0
-182,-258,0,0,0,0,0,0,0,0,0,-1,1042,1282,0,0
-175,-258,0,0,0,0,0,0,0,0,0,-1,1049,1282,0,0
-168,-258,0,0,0,0,0,0,0,0,0,-1,1056,1282,0,0
-161,-258,0,0,0,0,0,0,0,0,0,-1,1063,1282,0,0
-154,-258,0,0,0,0,0,0,0,0,0,-1,1070,1282,0,0
-147,-258,0,0,0,0,0,0,0,0,0,-1,1077,1282,0,0
-140,-258,0,0,0,0,0,0,0,0,0,-1,1084,1282,0,0
-133,-258,0,0,0,0,0,0,0,0,0,-1,1091,1282,0,0
-126,-258,0,0,0,0,0,0,0,0,0,-1,1098,1282,0,0
-119,-258,0,0,0,0,0,0,0,0,0,-1,1105,1282,0,0
-112,-258,0,0,0,0,0,0,0,0,0,-1,1112,1282,0,0
-105,-258,0,0,0,0,0,0,0,0,0,-1,1119,1282,0,0
-98,-258,0,0,0,0,0,0,0,0,0,-1,1126,1282,0,0
-91,-258,0,0,0,0,0,0,0,0,0,-1,1133,1282,0,0
-84,-258,0,0,0,0,0,0,0,0,0,-1,1140,1282,0,0
-77,-258,0,0,0,0,0,0,0,0,0,-1,1147,1282,0,0
-70,-258,0,0,0,0,0,0,0,0,0,-1,1154,1282,0,0
-63,-258,0,0,0,0,0,0,0,0,0,-1,1161,1282,0,0
-56,-258,0,0,0,0,0,0,0,0,0,-1,1168,1282,0,0
-49,-258,0,0,0,0,0,0,0,0,0,-1,1175,1282,0,0
-42,-258,0,0,0,0,0,0,0,0,0,-1,1182,1282,0,0
-35,-258,0,0,0,0,0,0,0,0,0,-1,1189,1282,0,0
-28,-258,0,0,0,0,0,0,0,0,0,-1,1196,1282,0,0
-21,-258,0,0,0,0,0,0,0,0,0,-1,1203,1282,0,0
-14,-258,0,0,0,0,0,0,0,0,0,-1,1210,1282,0,0
-7,-258,0,0,0,0,0,0,0,0,0,-1,1217,1282,0,0
0,-258,0,0,0,0,0,0,0,0,0,-1,1224,1282,0,0
7,-258,0,0,0,0,0,0,0,0,0,-1,1231,1282,0,0
14,-258,0,0,0,0,0,0,0,0,0,-1,1238,1282,0,0
21,-258,0,0,0,0,0,0,0,0,0,-1,1245,1282,0,0
28,-258,0,0,0,0,0,0,0,0,0,-1,1252,1282,0,0
35,-258,0,0,0,0,0,0,0,0,0,-1,1259,1282,0,0
42,-258,0,0,0,0,0,0,0,0,0,-1,1266,1282,0,0
49,-258,0,0,0,0,0,0,0,0,0,-1,1273,1282,0,0
56,-258,0,0,0,0,0,0,0,0,0,-1,1280,1282,0,0
63,-258,0,0,0,0,0,0,0,0,0,-1,1287,1282,0,0
70,-258,0,0,0,0,0,0,0,0,0,-1,1294,1282,0,0
77,-258,0,0,0,0,0,0,0,0,0,-1,1301,1282,0,0
84,-258,0,0,0,0,0,0,0,0,0,-1,1308,1282,0,0
91,-258,0,0,0,0,0,0,0,0,0,-1,1315,1282,0,0
98,-258,0,0,0,0,0,0,0,0,0,-1,1322,1282,0,0
105,-258,0,0,0,0,0,0,0,0,0,-1,1329,1282,0,0
112,-258,0,0,0,0,0,0,0,0,0,-1,1336,1282,0,0
119,-258,0,0,0,0,0,0,0,0,0,-1,1343,1282,0,0
126,-258,0,0,0,0,0,0,0,0,0,-1,1350,1282,0,0
133,-258,0,0,0,0,0,0,0,0,0,-1,1357,1282,0,0
140,-258,0,0,0,0,0,0,0,0,0,-1,1364,1282,0,0
147,-258,0,0,0,0,0,0,0,0,0,-1,1371,1282,0,0
154,-258,0,0,0,0,0,0,0,0,0,-1,1378,1282,0,0
161,-258,0,0,0,0,0,0,0,0,0,-1,1385,1282,0,0
168,-258,0,0,0,0,0,0,0,0,0,-1,1392,1282,0,0
175,-258,0,0,0,0,0,0,0,0,0,-1,1399,1282,0,0
182,-258,0,0,0,0,0,0,0,0,0,-1,1406,1282,0,0
189,-258,0,0,0,0,0,0,0,0,0,-1,1413,1282,0,0
196,-258,0,0,0,0,0,0,0,0,0,-1,1420,1282,0,0
203,-258,0,0,0,0,0,0,0,0,0,-1,1427,1282,0,0
210,-258,0,0,0,0,0,0,0,0,0,-1,1434,1282,0,0
217,-258,0,0,0,0,0,0,0,0,0,-1,1441,1282,0,0
224,-258,0,0,0,0,0,0,0,0,0,-1,1448,1282,0,0
231,-258,0,0,0,0,0,0,0,0,0,-1,1455,1282,0,0
238,-258,0,0,0,0,0,0,0,0,0,-1,1462,1282,0,0
245,-258,0,0,0,0,0,0,0,0,0,-1,1469,1282,0,0
252,-258,0,0,0,0,0,0,0,0,0,-1,1476,1282,0,0
259,-258,0,0,0,0,0,0,0,0,0,-1,1483,1282,0,0
266,-258,0,0,0,0,0,0,0,0,0,-1,1490,1282,0,0
273,-258,0,0,0,0,0,0,0,0,0,-1,1497,1282,0,0
280,-258,0,0,0,0,0,0,0,0,0,-1,1504,1282,0,0
287,-258,0,0,0,0,0,0,0,0,0,-1,1511,1282,0,0
294,-258,0,0,0,0,0,0,0,0,0,-1,1518,1282,0,0
301,-258,0,0,0,0,0,0,0,0,0,-1,1525,1282,0,0
308,-258,0,0,0,0,0,0,0,0,0,-1,1532,1282,0,0
315,-258,0,0,0,0,0,0,0,0,0,-1,1539,1282,0,0
322,-258,0,0,0,0,0,0,0,0,0,-1,1546,1282,0,0
329,-258,0,0,0,0,0,0,0,0,0,-1,1553,1282,0,0
336,-258,0,0,0,0,0,0,0,0,0,-1,1560,1282,0,0
343,-258,0,0,0,0,0,0,0,0,0,-1,1567,1282,0,0
350,-258,0,0,0,0,0,0,0,0,0,-1,1574,1282,0,0
357,-258,0,0,0,0,0,0,0,0,0,-1,1581,1282,0,0
364,-258,0,0,0,0,0,0,0,0,0,-1,1588,1282,0,0
371,-258,0,0,0,0,0,0,0,0,0,-1,1595,1282,0,0
378,-258,0,0,0,0,0,0,0,0,0,-1,1602,1282,0,0
385,-258,0,0,0,0,0,0,0,0,0,-1,1609,1282,0,0
392,-258,0,0,0,0,0,0,0,0,0,-1,1616,1282,0,0
399,-258,0,0,0,0,0,0,0,0,0,-1,1623,1282,0,0
406,-258,0,0,0,0,0,0,0,0,0,-1,1630,1282,0,0
413,-258,0,0,0,0,0,0,0,0,0,-1,1637,1282,0,0
420,-258,0,0,0,0,0,0,0,0,0,-1,1644,1282,0,0
427,-258,0,0,0,0,0,0,0,0,0,-1,1651,1282,0,0
434,-258,0,0,0,0,0,0,0,0,0,-1,1658,1282,0,0
441,-258,0,0,0,0,0,0,0,0,0,-1,1665,1282,0,0
448,-258,0,0,0,0,0,0,0,0,0,-1,1672,1282,0,0
455,-258,0,0,0,0,0,0,0,0,0,-1,1679,1282,0,0
462,-258,0,0,0,0,0,0,0,0,0,-1,1686,1282,0,0
469,-258,0,0,0,0,0,0,0,0,0,-1,1693,1282,0,0
476,-258,0,0,0,0,0,0,0,0,0,-1,1700,1282,0,0
483,-258,0,0,0,0,0,0,0,0,0,-1,1707,1282,0,0
490,-258,0,0,0,0,0,0,0,0,0,-1,1714,1282,0,0
497,-258,0,0,0,0,0,0,0,0,0,-1,1721,1282,0,0
504,-258,0,0,0,0,0,0,0,0,0,-1,1728,1282,0,0
511,-258,0,0,0,0,0,0,0,0,0,-1,1735,1282,0,0
518,-258,0,0,0,0,0,0,0,0,0,-1,1742,1282,0,0
525,-258,0,0,0,0,0,0,0,0,0,-1,1749,1282,0,0
532,-258,0,0,0,0,0,0,0,0,0,-1,1756,1282,0,0
539,-258,0,0,0,0,0,0,0,0,0,-1,1763,1282,0,0
546,-258,0,0,0,0,0,0,0,0,0,-1,1770,1282,0,0
553,-258,0,0,0,0,0,0,0,0,0,-1,1777,1282,0,0
560,-258,0,0,0,0,0,0,0,0,0,-1,1784,1282,0,0
567,-258,0,0,0,0,0,0,0,0,0,-1,1791,1282,0,0
574,-258,0,0,0,0,0,0,0,0,0,-1,1798,1282,0,0
581,-258,0,0,0,0,0,0,0,0,0,-1,1805,1282,0,0
588,-258,0,0,0,0,0,0,0,0,0,-1,1812,1282,0,0
595,-258,0,0,0,0,0,0,0,0,0,-1,1819,1282,0,0
602,-258,0,0,0,0,0,0,0,0,0,-1,1826,1282,0,0
609,-258,11.7041,1.71252,-0.0122346,0.00435215,-0.00424684,0.00537627,-0.0132587,-1.33416,0.0110751,0.0253528,1833,1282,11.7041,-1.71254
616,-258,11.6727,1.73218,0.00805872,-0.000199868,-0.00697945,0.0120389,-0.00418006,-0.518275,0.00972356,0.0237696,1840,1282,11.6727,-1.73212
623,-258,11.7092,1.77124,0.0225529,-0.00467854,-0.00765238,0.024556,-0.00668162,-0.256015,0.0189937,0.0342319,1847,1282,11.7092,-1.77128
630,-258,11.8068,1.64148,0.0309252,-0.00825835,-0.00657199,0.0319981,-0.00933125,-0.161825,0.0250292,0.0434271,1854,1282,11.8068,-1.64154
637,-258,11.6304,1.52148,0.0345921,-0.0107867,-0.00463806,0.0350613,-0.0112559,-0.100819,0.0278937,0.0430186,1861,1282,11.6304,-1.52146
644,-258,8.22192,1.13281,0,0,0,0,0,0,0,-1,1868,1282,8.22191,-1.1328
651,-258,9.55615,-0.989502,0,0,0,0,0,0,0,-1,1875,1282,9.55609,0.989492
658,-258,10.1882,-3.02661,0,0,0,0,0,0,0,-1,1882,1282,10.1882,3.02655
665,-258,10.6395,2.52527,0,0,0,0,0,0,0,-1,1889,1282,10.6396,-2.52521
672,-258,10.0084,2.89124,0.0214359,-0.0116302,0.0043941,0.0220099,-0.0122041,0.129886,0.0200221,0.0459242,1896,1282,10.0084,-2.89125
679,-258,9.94812,2.92444,0.016091,-0.00998574,0.00508938,0.0170491,-0.0109438,0.186075,0.0162894,0.0291962,1903,1282,9.94815,-2.92442
686,-258,9.91687,2.89832,0.0110538,-0.0081979,0.00528974,0.0124115,-0.0095556,0.251243,0.0127184,0.0158171,1910,1282,9.91688,-2.89829
693,-258,9.95959,2.78296,0.00592279,-0.00647123,0.00551266,0.00801989,-0.00856833,0.36351,0.00957896,0.00908776,1917,1282,9.95956,-2.78296
700,-258,9.96411,2.67688,0.00195904,-0.0043884,0.00518778,0.0048669,-0.00729625,0.510885,0.00706893,0.00826193,1924,1282,9.96411,-2.67691
707,-258,9.97498,2.58167,-0.0011254,-0.00231774,0.00280048,0.00114167,-0.00458481,0.680524,0.00349973,0.00999017,1931,1282,9.97496,-2.58165
714,-258,9.97668,2.495,-0.000613412,-0.000814971,0.000906263,0.000197658,-0.00162604,0.730024,0.00115556,0.00979676,1938,1282,9.9767,-2.49496
721,-258,9.97375,2.40625,0.00156035,-4.04653e-05,-0.000861154,0.00193563,-0.000415744,-0.410971,0.00144902,0.0105778,1945,1282,9.97381,-2.40628
728,-258,9.9552,2.33459,0.00309553,0.000855319,-0.00290593,0.00508976,-0.00113891,-0.601445,0.00382968,0.0104921,1952,1282,9.95514,-2.33457
735,-258,9.96021,2.25439,0.00507573,0.00162933,-0.00507861,0.00871552,-0.00201046,-0.62184,0.00658363,0.0136095,1959,1282,9.96024,-2.25444
742,-258,9.98425,2.18091,0.00742175,0.00271008,-0.00800109,0.0134066,-0.00327479,-0.642224,0.010206,0.0154994,1966,1282,9.98428,-2.18095
749,-258,9.95325,2.1687,0.0105113,0.00426182,-0.0122009,0.0199812,-0.00520811,-0.660039,0.0153542,0.0264302,1973,1282,9.9532,-2.16866
756,-258,9.76025,2.23291,0.0145802,0.00659283,-0.0182456,0.0292641,-0.00809105,-0.677655,0.0226924,0.0407637,1980,1282,9.76026,-2.23285
763,-258,9.65576,2.25671,0,0,0,0,0,0,0,-1,1987,1282,9.65574,-2.2567
770,-258,11.1096,1.13354,0,0,0,0,0,0,0,-1,1994,1282,11.1097,-1.13358
777,-258,7.80054,1.4425,0.0331286,0.0225362,-0.0548883,0.0829756,-0.0273109,-0.737302,0.0663224,0.0474074,2001,1282,7.80053,-1.44246
784,-258,7.37598,1.23706,0,0,0,0,0,0,0,-1,2008,1282,7.37599,-1.23708
791,-258,0,0,0,0,0,0,0,0,0,-1,2015,1282,0,0
798,-258,0,0,0,0,0,0,0,0,0,-1,2022,1282,0,0
805,-258,0,0,0,0,0,0,0,0,0,-1,2029,1282,0,0
812,-258,0,0,0,0,0,0,0,0,0,-1,2036,1282,0,0
-700,-265,0,0,0,0,0,0,0,0,0,-1,524,1289,0,0
-693,-265,0,0,0,0,0,0,0,0,0,-1,531,1289,0,0
-686,-265,0,0,0,0,0,0,0,0,0,-1,538,1289,0,0
-679,-265,0,0,0,0,0,0,0,0,0,-1,545,1289,0,0
-672,-265,0,0,0,0,0,0,0,0,0,-1,552,1289,0,0
-665,-265,-4.36115,-0.708496,0,0,0,0,0,0,0,-1,559,1289,-4.36116,0.708458
-658,-265,-4.47571,-0.492798,0.0776594,-0.00600076,-0.0208499,0.0825677,-0.0109091,-0.231201,0.0590185,0.0440833,566,1289,-4.47571,0.49275
-651,-265,-4.79993,-0.196899,0.0627274,-0.00363905,-0.0137676,0.0654701,-0.00638177,-0.196641,0.045922,0.0471192,573,1289,-4.7999,0.196939
-644,-265,-4.89398,-1.09045,0.0498788,-0.00202574,-0.00863226,0.0512768,-0.00342372,-0.160554,0.035381,0.0487292,580,1289,-4.89398,1.09051
-637,-265,-3.9978,-0.179932,0.038932,-0.000914899,-0.00490438,0.0395267,-0.00150965,-0.120681,0.0268685,0.0433024,587,1289,-3.99779,0.179911
-630,-265,-4.21545,-0.24231,0.0297307,-0.000145479,-0.00226309,0.0299012,-0.000315934,-0.0751772,0.0200403,0.0431251,594,1289,-4.21548,0.242251
-623,-265,-4.04193,0.0726318,0.0221522,0.000365112,-0.000483861,0.022163,0.000354371,-0.022194,0.0146586,0.0433419,601,1289,-4.04193,-0.0726419
-616,-265,-3.83124,0.704346,0.0161008,0.000676597,0.000630458,0.0161266,0.00065087,0.0407838,0.0105408,0.0347845,608,1289,-3.83123,-0.704337
-609,-265,-3.74158,0.920166,0.0107735,0.00140401,0.0014819,0.0110023,0.00117521,0.153182,0.00697619,0.0161418,615,1289,-3.74155,-0.920213
-602,-265,-3.74243,1.00842,0.00713333,0.000760963,0.00201494,0.00771699,0.0001773,0.281951,0.00508659,0.0134967,622,1289,-3.74241,-1.00848
-595,-265,-3.73859,1.1062,0.00452891,0.000532099,0.00182322,0.00523564,-0.000174634,0.369796,0.00355007,0.0104857,629,1289,-3.73858,-1.10623
-588,-265,-3.73279,1.21423,0.00206821,0.000530998,0.00149285,0.0029787,-0.000379495,0.547668,0.00212363,0.0097135,636,1289,-3.73277,-1.21426
-581,-265,-3.73029,1.33069,0.000790059,0.000747949,0.000778396,0.00154768,-9.67708e-06,0.771877,0.00103503,0.0124133,643,1289,-3.73031,-1.33066
-574,-265,-3.72437,1.46265,0.00092719,0.000991012,7.60383e-05,0.00104156,0.000876638,0.984073,0.000646452,0.0137711,650,1289,-3.72439,-1.46267
-567,-265,-3.73389,1.53638,0.000861264,0.000688631,-0.000930462,0.0017094,-0.00015951,-0.739147,0.00119632,0.0188876,657,1289,-3.73391,-1.53632
-560,-265,-3.74353,1.61633,0.00118124,0.000774679,-0.00234861,0.00333535,-0.00137943,-0.742229,0.00279907,0.0191193,664,1289,-3.74355,-1.61628
-553,-265,-3.72809,1.73633,0.00240434,0.000458526,-0.0035766,0.005138,-0.00227513,-0.652601,0.00438507,0.0182683,671,1289,-3.72807,-1.7363
-546,-265,-3.69916,1.87854,0.00419199,0.000859803,-0.00541195,0.00818851,-0.00313671,-0.636075,0.00675197,0.0280676,678,1289,-3.69914,-1.87855
-539,-265,-3.66296,1.92664,0.00624476,0.000581622,-0.00724852,0.0111951,-0.00436876,-0.599192,0.00926946,0.0463681,685,1289,-3.66295,-1.92663
-532,-265,-3.63123,1.98608,0,0,0,0,0,0,0,-1,692,1289,-3.6312,-1.98612
-525,-265,-3.21686,-0.208496,0,0,0,0,0,0,0,-1,699,1289,-3.21684,0.208531
-518,-265,-5.06744,0.824341,0,0,0,0,0,0,0,-1,706,1289,-5.06745,-0.824338
-511,-265,-5.44482,0.651123,0,0,0,0,0,0,0,-1,713,1289,-5.4448,-0.651113
-504,-265,-5.73938,0.723877,0,0,0,0,0,0,0,-1,720,1289,-5.73939,-0.723893
-497,-265,-5.30579,0.332764,0,0,0,0,0,0,0,-1,727,1289,-5.30577,-0.332784
-490,-265,-5.55438,0.616333,0,0,0,0,0,0,0,-1,734,1289,-5.55438,-0.616383
-483,-265,0,0,0,0,0,0,0,0,0,-1,741,1289,0,0
-476,-265,0,0,0,0,0,0,0,0,0,-1,748,1289,0,0
-469,-265,0,0,0,0,0,0,0,0,0,-1,755,1289,0,0
-462,-265,0,0,0,0,0,0,0,0,0,-1,762,1289,0,0
-455,-265,0,0,0,0,0,0,0,0,0,-1,769,1289,0,0
-448,-265,0,0,0,0,0,0,0,0,0,-1,776,1289,0,0
-441,-265,0,0,0,0,0,0,0,0,0,-1,783,1289,0,0
-434,-265,0,0,0,0,0,0,0,0,0,-1,790,1289,0,0
-427,-265,0,0,0,0,0,0,0,0,0,-1,797,1289,0,0
-420,-265,0,0,0,0,0,0,0,0,0,-1,804,1289,0,0
-413,-265,0,0,0,0,0,0,0,0,0,-1,811,1289,0,0
-406,-265,0,0,0,0,0,0,0,0,0,-1,818,1289,0,0
-399,-265,0,0,0,0,0,0,0,0,0,-1,825,1289,0,0
-392,-265,0,0,0,0,0,0,0,0,0,-1,832,1289,0,0
-385,-265,0,0,0,0,0,0,0,0,0,-1,839,1289,0,0
-378,-265,0,0,0,0,0,0,0,0,0,-1,846,1289,0,0
-371,-265,0,0,0,0,0,0,0,0,0,-1,853,1289,0,0
-364,-265,0,0,0,0,0,0,0,0,0,-1,860,1289,0,0
-357,-265,0,0,0,0,0,0,0,0,0,-1,867,1289,0,0
-350,-265,0,0,0,0,0,0,0,0,0,-1,874,1289,0,0
-343,-265,0,0,0,0,0,0,0,0,0,-1,881,1289,0,0
-336,-265,0,0,0,0,0,0,0,0,0,-1,888,1289,0,0
-329,-265,0,0,0,0,0,0,0,0,0,-1,895,1289,0,0
-322,-265,0,0,0,0,0,0,0,0,0,-1,902,1289,0,0
-315,-265,0,0,0,0,0,0,0,0,0,-1,909,1289,0,0
-308,-265,0,0,0,0,0,0,0,0,0,-1,916,1289,0,0
-301,-265,0,0,0,0,0,0,0,0,0,-1,923,1289,0,0
-294,-265,0,0,0,0,0,0,0,0,0,-1,930,1289,0,0
-287,-265,0,0,0,0,0,0,0,0,0,-1,937,1289,0,0
-280,-265,0,0,0,0,0,0,0,0,0,-1,944,1289,0,0
-273,-265,0,0,0,0,0,0,0,0,0,-1,951,1289,0,0
-266,-265,0,0,0,0,0,0,0,0,0,-1,958,1289,0,0
-259,-265,0,0,0,0,0,0,0,0,0,-1,965,1289,0,0
-252,-265,0,0,0,0,0,0,0,0,0,-1,972,1289,0,0
-245,-265,0,0,0,0,0,0,0,0,0,-1,979,1289,0,0
-238,-265,0,0,0,0,0,0,0,0,0,-1,986,1289,0,0
-231,-265,0,0,0,0,0,0,0,0,0,-1,993,1289,0,0
-224,-265,0,0,0,0,0,0,0,0,0,-1,1000,1289,0,0
-217,-265,0,0,0,0,0,0,0,0,0,-1,1007,1289,0,0
-210,-265,0,0,0,0,0,0,0,0,0,-1,1014,1289,0,0
-203,-265,0,0,0,0,0,0,0,0,0,-1,1021,1289,0,0
-196,-265,0,0,0,0,0,0,0,0,0,-1,1028,1289,0,0
-189,-265,0,0,0,0,0,0,0,0,0,-1,1035,1289,0,0
-182,-265,0,0,0,0,0,0,0,0,0,-1,1042,1289,0,0
-175,-265,0,0,0,0,0,0,0,0,0,-1,1049,1289,0,0
-168,-265,0,0,0,0,0,0,0,0,0,-1,1056,1289,0,0
-161,-265,0,0,0,0,0,0,0,0,0,-1,1063,1289,0,0
-154,-265,0,0,0,0,0,0,0,0,0,-1,1070,1289,0,0
-147,-265,0,0,0,0,0,0,0,0,0,-1,1077,1289,0,0
-140,-265,0,0,0,0,0,0,0,0,0,-1,1084,1289,0,0
-133,-265,0,0,0,0,0,0,0,0,0,-1,1091,1289,0,0
-126,-265,0,0,0,0,0,0,0,0,0,-1,1098,1289,0,0
-119,-265,0,0,0,0,0,0,0,0,0,-1,1105,1289,0,0
-112,-265,0,0,0,0,0,0,0,0,0,-1,1112,1289,0,0
-105,-265,0,0,0,0,0,0,0,0,0,-1,1119,1289,0,0
-98,-265,0,0,0,0,0,0,0,0,0,-1,1126,1289,0,0
-91,-265,0,0,0,0,0,0,0,0,0,-1,1133,1289,0,0
-84,-265,0,0,0,0,0,0,0,0,0,-1,1140,1289,0,0
-77,-265,0,0,0,0,0,0,0,0,0,-1,1147,1289,0,0
-70,-265,0,0,0,0,0,0,0,0,0,-1,1154,1289,0,0
-63,-265,0,0,0,0,0,0,0,0,0,-1,1161,1289,0,0
-56,-265,0,0,0,0,0,0,0,0,0,-1,1168,1289,0,0
-49,-265,0,0,0,0,0,0,0,0,0,-1,1175,1289,0,0
-42,-265,0,0,0,0,0,0,0,0,0,-1,1182,1289,0,0
-35,-265,0,0,0,0,0,0,0,0,0,-1,1189,1289,0,0
-28,-265,0,0,0,0,0,0,0,0,0,-1,1196,1289,0,0
-21,-265,0,0,0,0,0,0,0,0,0,-1,1203,1289,0,0
-14,-265,0,0,0,0,0,0,0,0,0,-1,1210,1289,0,0
-7,-265,0,0,0,0,0,0,0,0,0,-1,1217,1289,0,0
0,-265,0,0,0,0,0,0,0,0,0,-1,1224,1289,0,0
7,-265,0,0,0,0,0,0,0,0,0,-1,1231,1289,0,0
14,-265,0,0,0,0,0,0,0,0,0,-1,1238,1289,0,0
21,-265,0,0,0,0,0,0,0,0,0,-1,1245,1289,0,0
28,-265,0,0,0,0,0,0,0,0,0,-1,1252,1289,0,0
35,-265,0,0,0,0,0,0,0,0,0,-1,1259,1289,0,0
42,-265,0,0,0,0,0,0,0,0,0,-1,1266,1289,0,0
49,-265,0,0,0,0,0,0,0,0,0,-1,1273,1289,0,0
56,-265,0,0,0,0,0,0,0,0,0,-1,1280,1289,0,0
63,-265,0,0,0,0,0,0,0,0,0,-1,1287,1289,0,0
70,-265,0,0,0,0,0,0,0,0,0,-1,1294,1289,0,0
77,-265,0,0,0,0,0,0,0,0,0,-1,1301,1289,0,0
84,-265,0,0,0,0,0,0,0,0,0,-1,1308,1289,0,0
91,-265,0,0,0,0,0,0,0,0,0,-1,1315,1289,0,0
98,-265,0,0,0,0,0,0,0,0,0,-1,1322,1289,0,0
105,-265,0,0,0,0,0,0,0,0,0,-1,1329,1289,0,0
112,-265,0,0,0,0,0,0,0,0,0,-1,1336,1289,0,0
119,-265,0,0,0,0,0,0,0,0,0,-1,1343,1289,0,0
126,-265,0,0,0,0,0,0,0,0,0,-1,1350,1289,0,0
133,-265,0,0,0,0,0,0,0,0,0,-1,1357,1289,0,0
140,-265,0,0,0,0,0,0,0,0,0,-1,1364,1289,0,0
147,-265,0,0,0,0,0,0,0,0,0,-1,1371,1289,0,0
154,-265,0,0,0,0,0,0,0,0,0,-1,1378,1289,0,0
161,-265,0,0,0,0,0,0,0,0,0,-1,1385,1289,0,0
168,-265,0,0,0,0,0,0,0,0,0,-1,1392,1289,0,0
175,-265,0,0,0,0,0,0,0,0,0,-1,1399,1289,0,0
182,-265,0,0,0,0,0,0,0,0,0,-1,1406,1289,0,0
189,-265,0,0,0,0,0,0,0,0,0,-1,1413,1289,0,0
196,-265,0,0,0,0,0,0,0,0,0,-1,1420,1289,0,0
203,-265,0,0,0,0,0,0,0,0,0,-1,1427,1289,0,0
210,-265,0,0,0,0,0,0,0,0,0,-1,1434,1289,0,0
217,-265,0,0,0,0,0,0,0,0,0,-1,1441,1289,0,0
224,-265,0,0,0,0,0,0,0,0,0,-1,1448,1289,0,0
231,-265,0,0,0,0,0,0,0,0,0,-1,1455,1289,0,0
238,-265,0,0,0,0,0,0,0,0,0,-1,1462,1289,0,0
245,-265,0,0,0,0,0,0,0,0,0,-1,1469,1289,0,0
252,-265,0,0,0,0,0,0,0,0,0,-1,1476,1289,0,0
259,-265,0,0,0,0,0,0,0,0,0,-1,1483,1289,0,0
266,-265,0,0,0,0,0,0,0,0,0,-1,1490,1289,0,0
273,-265,0,0,0,0,0,0,0,0,0,-1,1497,1289,0,0
280,-265,0,0,0,0,0,0,0,0,0,-1,1504,1289,0,0
287,-265,0,0,0,0,0,0,0,0,0,-1,1511,1289,0,0
294,-265,0,0,0,0,0,0,0,0,0,-1,1518,1289,0,0
301,-265,0,0,0,0,0,0,0,0,0,-1,1525,1289,0,0
308,-265,0,0,0,0,0,0,0,0,0,-1,1532,1289,0,0
315,-265,0,0,0,0,0,0,0,0,0,-1,1539,1289,0,0
322,-265,0,0,0,0,0,0,0,0,0,-1,1546,1289,0,0
329,-265,0,0,0,0,0,0,0,0,0,-1,1553,1289,0,0
336,-265,0,0,0,0,0,0,0,0,0,-1,1560,1289,0,0
343,-265,0,0,0,0,0,0,0,0,0,-1,1567,1289,0,0
350,-265,0,0,0,0,0,0,0,0,0,-1,1574,1289,0,0
357,-265,0,0,0,0,0,0,0,0,0,-1,1581,1289,0,0
364,-265,0,0,0,0,0,0,0,0,0,-1,1588,1289,0,0
371,-265,0,0,0,0,0,0,0,0,0,-1,1595,1289,0,0
378,-265,0,0,0,0,0,0,0,0,0,-1,1602,1289,0,0
385,-265,0,0,0,0,0,0,0,0,0,-1,1609,1289,0,0
392,-265,0,0,0,0,0,0,0,0,0,-1,1616,1289,0,0
399,-265,0,0,0,0,0,0,0,0,0,-1,1623,1289,0,0
406,-265,0,0,0,0,0,0,0,0,0,-1,1630,1289,0,0
413,-265,0,0,0,0,0,0,0,0,0,-1,1637,1289,0,0
420,-265,0,0,0,0,0,0,0,0,0,-1,1644,1289,0,0
427,-265,0,0,0,0,0,0,0,0,0,-1,1651,1289,0,0
434,-265,0,0,0,0,0,0,0,0,0,-1,1658,1289,0,0
441,-265,0,0,0,0,0,0,0,0,0,-1,1665,1289,0,0
448,-265,0,0,0,0,0,0,0,0,0,-1,1672,1289,0,0
455,-265,0,0,0,0,0,0,0,0,0,-1,1679,1289,0,0
462,-265,0,0,0,0,0,0,0,0,0,-1,1686,1289,0,0
469,-265,0,0,0,0,0,0,0,0,0,-1,1693,1289,0,0
476,-265,0,0,0,0,0,0,0,0,0,-1,1700,1289,0,0
483,-265,0,0,0,0,0,0,0,0,0,-1,1707,1289,0,0
490,-265,0,0,0,0,0,0,0,0,0,-1,1714,1289,0,0
497,-265,0,0,0,0,0,0,0,0,0,-1,1721,1289,0,0
504,-265,0,0,0,0,0,0,0,0,0,-1,1728,1289,0,0
511,-265,0,0,0,0,0,0,0,0,0,-1,1735,1289,0,0
518,-265,0,0,0,0,0,0,0,0,0,-1,1742,1289,0,0
525,-265,0,0,0,0,0,0,0,0,0,-1,1749,1289,0,0
532,-265,0,0,0,0,0,0,0,0,0,-1,1756,1289,0,0
539,-265,0,0,0,0,0,0,0,0,0,-1,1763,1289,0,0
546,-265,0,0,0,0,0,0,0,0,0,-1,1770,1289,0,0
553,-265,0,0,0,0,0,0,0,0,0,-1,1777,1289,0,0
560,-265,0,0,0,0,0,0,0,0,0,-1,1784,1289,0,0
567,-265,0,0,0,0,0,0,0,0,0,-1,1791,1289,0,0
574,-265,0,0,0,0,0,0,0,0,0,-1,1798,1289,0,0
581,-265,0,0,0,0,0,0,0,0,0,-1,1805,1289,0,0
588,-265,0,0,0,0,0,0,0,0,0,-1,1812,1289,0,0
595,-265,0,0,0,0,0,0,0,0,0,-1,1819,1289,0,0
602,-265,11.6848,1.79077,-0.0282412,0.000436037,0.00223426,0.000609064,-0.0284142,1.49351,0.019149,0.0274619,1826,1289,11.6848,-1.79074
609,-265,11.7104,1.69702,-0.00617906,0.00166109,-0.00633701,0.00519251,-0.00971047,-1.06239,0.00873504,0.0283385,1833,1289,11.7105,-1.69708
616,-265,11.7043,1.73865,0.0124158,-0.00250742,-0.00968785,0.0171824,-0.00727407,-0.457246,0.0145011,0.0316705,1840,1289,11.7043,-1.73868
623,-265,11.8558,1.70239,0.0257019,-0.00655472,-0.0108432,0.0290081,-0.00986088,-0.29595,0.0233309,0.0433044,1847,1289,11.8559,-1.70245
630,-265,12.0939,1.55676,0.0334857,-0.0097874,-0.0101719,0.0357575,-0.0120592,-0.219731,0.0287149,0.0450843,1854,1289,12.0939,-1.5568
637,-265,7.57715,3.02502,0,0,0,0,0,0,0,-1,1861,1289,7.57718,-3.02508
644,-265,8.4989,1.47119,0.0372131,-0.0134626,-0.0062525,0.0379731,-0.0142226,-0.120966,0.0311578,0.0454082,1868,1289,8.49894,-1.47124
651,-265,9.36304,-0.128174,0.0354839,-0.0139407,-0.00396195,0.0357995,-0.0142563,-0.0794852,0.0297785,0.0419271,1875,1289,9.3631,0.128205
658,-265,9.91858,-1.88586,0,0,0,0,0,0,0,-1,1882,1289,9.91862,1.88586
665,-265,9.81592,2.84729,0,0,0,0,0,0,0,-1,1889,1289,9.8159,-2.84731
672,-265,9.81677,2.89038,0.0239607,-0.0124898,0.00151822,0.0240238,-0.012553,0.0415556,0.021461,0.0462794,1896,1289,9.81676,-2.89035
679,-265,9.85266,2.93909,0.0180562,-0.0105697,0.00268644,0.0183061,-0.0108197,0.0927671,0.0169999,0.0224698,1903,1289,9.85263,-2.93903
686,-265,9.86816,2.87866,0.0125088,-0.00851028,0.00335251,0.0130306,-0.00903205,0.154397,0.0128074,0.0123151,1910,1289,9.86815,-2.87869
693,-265,9.86694,2.77454,0.00680905,-0.00663155,0.00415144,0.00798792,-0.00781042,0.276683,0.00912137,0.00945348,1917,1289,9.86692,-2.77458
700,-265,9.86975,2.68237,0.00245657,-0.0044027,0.00429539,0.00452355,-0.00646968,0.448502,0.00638001,0.00951055,1924,1289,9.86977,-2.68234
707,-265,9.89514,2.58398,-0.000490634,-0.00221047,0.00227941,0.00108566,-0.00378677,0.605025,0.00295367,0.00972362,1931,1289,9.89518,-2.58397
714,-265,9.90247,2.50098,-1.48983e-05,-0.000649204,0.000587732,0.000335792,-0.000999894,0.537978,0.000802303,0.00913699,1938,1289,9.90248,-2.50096
721,-265,9.88306,2.42493,0.00201333,1.77134e-05,-0.00107952,0.00248555,-0.000454508,-0.412357,0.00182747,0.00870526,1945,1289,9.88309,-2.42495
728,-265,9.88477,2.3407,0.00347134,0.000871374,-0.00304337,0.00548074,-0.00113803,-0.583551,0.00408634,0.0120624,1952,1289,9.8848,-2.3407
735,-265,9.88171,2.24854,0.00538933,0.00163241,-0.00519304,0.00903322,-0.00201148,-0.611857,0.00679265,0.0158777,1959,1289,9.88176,-2.24848
742,-265,9.88074,2.17993,0.0077672,0.00276347,-0.00821487,0.0138527,-0.00332207,-0.637584,0.0105189,0.0193481,1966,1289,9.8808,-2.1799
749,-265,9.86951,2.12158,0.0108937,0.00448723,-0.0126552,0.0207448,-0.00536379,-0.661442,0.0159218,0.0369106,1973,1289,9.86952,-2.12156
756,-265,9.83691,2.01611,0.0149735,0.00715512,-0.0191137,0.0305737,-0.00844504,-0.684528,0.0237043,0.0449715,1980,1289,9.83695,-2.0161
763,-265,9.39001,1.53357,0,0,0,0,0,0,0,-1,1987,1289,9.38996,-1.5336
770,-265,9.31909,1.06128,0,0,0,0,0,0,0,-1,1994,1289,9.31908,-1.06123
777,-265,9.08325,0.750122,0,0,0,0,0,0,0,-1,2001,1289,9.0832,-0.750159
784,-265,0,0,0,0,0,0,0,0,0,-1,2008,1289,0,0
791,-265,0,0,0,0,0,0,0,0,0,-1,2015,1289,0,0
798,-265,0,0,0,0,0,0,0,0,0,-1,2022,1289,0,0
805,-265,0,0,0,0,0,0,0,0,0,-1,2029,1289,0,0
812,-265,0,0,0,0,0,0,0,0,0,-1,2036,1289,0,0
-700,-272,0,0,0,0,0,0,0,0,0,-1,524,1296,0,0
-693,-272,0,0,0,0,0,0,0,0,0,-1,531,1296,0,0
-686,-272,0,0,0,0,0,0,0,0,0,-1,538,1296,0,0
-679,-272,0,0,0,0,0,0,0,0,0,-1,545,1296,0,0
-672,-272,0,0,0,0,0,0,0,0,0,-1,552,1296,0,0
-665,-272,0,0,0,0,0,0,0,0,0,-1,559,1296,0,0
-658,-272,-4.25421,-0.661499,0.0736548,-0.00923779,-0.0271098,0.0817336,-0.0173166,-0.289624,0.061085,0.0421516,566,1296,-4.25423,0.661445
-651,-272,-4.28687,-0.428955,0.058693,-0.00758245,-0.0194487,0.0639787,-0.0128682,-0.265368,0.0475262,0.0412093,573,1296,-4.28684,0.429003
-644,-272,-4.41504,-0.248047,0.0460096,-0.00612795,-0.0136038,0.0493456,-0.00946399,-0.240484,0.0364635,0.0436039,580,1296,-4.41501,0.248059
-637,-272,-4.16608,-0.28418,0.03536,-0.00485606,-0.00911947,0.0373314,-0.00682737,-0.21289,0.0274479,0.0441914,587,1296,-4.16611,0.284227
-630,-272,-3.87579,-0.278076,0.0265604,-0.00371625,-0.00572329,0.0276061,-0.00476202,-0.180728,0.0201796,0.0452506,594,1296,-3.87577,0.278086
-623,-272,-3.94928,0.0219727,0,0,0,0,0,0,0,-1,601,1296,-3.94928,-0.0219159
-616,-272,-3.69958,0.727783,0.0138613,-0.00185405,-0.00145995,0.0139958,-0.00198853,-0.0918519,0.0100591,0.0340542,608,1296,-3.69961,-0.727796
-609,-272,-3.62598,0.972412,0.00902733,-0.000691086,-8.13695e-05,0.00902801,-0.000691767,-0.00837193,0.00626201,0.0177846,615,1296,-3.62599,-0.972382
-602,-272,-3.64343,1.00061,0.0058594,-0.000774954,0.000870073,0.00597161,-0.000887163,0.128257,0.00430736,0.0128732,622,1296,-3.64344,-1.00059
-595,-272,-3.63831,1.11694,0.00353846,-0.000537855,0.00111837,0.00382513,-0.000824531,0.25093,0.00286476,0.0103888,629,1296,-3.63831,-1.11698
-588,-272,-3.62744,1.21887,0.00139821,-0.000148756,0.00125333,0.00209752,-0.000848065,0.508934,0.00175089,0.00969078,636,1296,-3.62741,-1.21893
-581,-272,-3.63702,1.32935,0.000608684,0.000410476,0.000828291,0.00134378,-0.000324619,0.725857,0.0010214,0.00989051,643,1296,-3.63703,-1.3293
-574,-272,-3.65588,1.45813,0.00122875,0.000826642,0.000302196,0.00139066,0.000664729,0.491867,0.00080316,0.0148084,650,1296,-3.65587,-1.45808
-567,-272,-3.66083,1.54761,0.00153607,0.000432497,-0.00073383,0.00190242,6.61469e-05,-0.463032,0.00124682,0.0199645,657,1296,-3.66082,-1.54758
-560,-272,-3.66479,1.64087,0.00216918,0.000280443,-0.00227073,0.00368409,-0.00123447,-0.588335,0.00295479,0.0191106,664,1296,-3.66482,-1.64087
-553,-272,-3.61884,1.73999,0.0037068,-0.000304011,-0.00366517,0.00587933,-0.00247654,-0.535071,0.00495581,0.0128967,671,1296,-3.61884,-1.73999
-546,-272,-3.59894,1.84387,0.00586899,-0.000138646,-0.00576125,0.00936247,-0.00363212,-0.545094,0.00774177,0.017376,678,1296,-3.59893,-1.84385
-539,-272,-3.61371,1.96582,0.00825927,-0.000664176,-0.00784495,0.0128225,-0.00522743,-0.52684,0.0107243,0.0448224,685,1296,-3.61369,-1.96577
-532,-272,-3.6355,2.08313,0,0,0,0,0,0,0,-1,692,1296,-3.63551,-2.08319
-525,-272,-2.70404,-0.499023,0,0,0,0,0,0,0,-1,699,1296,-2.70402,0.499029
-518,-272,-8.29626,3.24695,0,0,0,0,0,0,0,-1,706,1296,-8.29628,-3.24696
-511,-272,-7.48047,2.46155,0,0,0,0,0,0,0,-1,713,1296,-7.48048,-2.46157
-504,-272,-6.93115,1.74585,0,0,0,0,0,0,0,-1,720,1296,-6.93115,-1.74582
-497,-272,-5.90308,1.26453,0,0,0,0,0,0,0,-1,727,1296,-5.90306,-1.26452
-490,-272,-5.64868,0.910645,0.0479348,-0.0109699,-0.0254657,0.0574176,-0.0204527,-0.356466,0.0466163,0.0396978,734,1296,-5.64869,-0.910664
-483,-272,-5.56635,0.633545,0,0,0,0,0,0,0,-1,741,1296,-5.56632,-0.633547
-476,-272,0,0,0,0,0,0,0,0,0,-1,748,1296,0,0
-469,-272,0,0,0,0,0,0,0,0,0,-1,755,1296,0,0
-462,-272,0,0,0,0,0,0,0,0,0,-1,762,1296,0,0
-455,-272,0,0,0,0,0,0,0,0,0,-1,769,1296,0,0
-448,-272,0,0,0,0,0,0,0,0,0,-1,776,1296,0,0
-441,-272,0,0,0,0,0,0,0,0,0,-1,783,1296,0,0
-434,-272,0,0,0,0,0,0,0,0,0,-1,790,1296,0,0
-427,-272,0,0,0,0,0,0,0,0,0,-1,797,1296,0,0
-420,-272,0,0,0,0,0,0,0,0,0,-1,804,1296,0,0
-413,-272,0,0,0,0,0,0,0,0,0,-1,811,1296,0,0
-406,-272,0,0,0,0,0,0,0,0,0,-1,818,1296,0,0
-399,-272,0,0,0,0,0,0,0,0,0,-1,825,1296,0,0
-392,-272,0,0,0,0,0,0,0,0,0,-1,832,1296,0,0
-385,-272,0,0,0,0,0,0,0,0,0,-1,839,1296,0,0
-378,-272,0,0,0,0,0,0,0,0,0,-1,846,1296,0,0
-371,-272,0,0,0,0,0,0,0,0,0,-1,853,1296,0,0
-364,-272,0,0,0,0,0,0,0,0,0,-1,860,1296,0,0
-357,-272,0,0,0,0,0,0,0,0,0,-1,867,1296,0,0
-350,-272,0,0,0,0,0,0,0,0,0,-1,874,1296,0,0
-343,-272,0,0,0,0,0,0,0,0,0,-1,881,1296,0,0
-336,-272,0,0,0,0,0,0,0,0,0,-1,888,1296,0,0
-329,-272,0,0,0,0,0,0,0,0,0,-1,895,1296,0,0
-322,-272,0,0,0,0,0,0,0,0,0,-1,902,1296,0,0
-315,-272,0,0,0,0,0,0,0,0,0,-1,909,1296,0,0
-308,-272,0,0,0,0,0,0,0,0,0,-1,916,1296,0,0
-301,-272,0,0,0,0,0,0,0,0,0,-1,923,1296,0,0
-294,-272,0,0,0,0,0,0,0,0,0,-1,930,1296,0,0
-287,-272,0,0,0,0,0,0,0,0,0,-1,937,1296,0,0
-280,-272,0,0,0,0,0,0,0,0,0,-1,944,1296,0,0
-273,-272,0,0,0,0,0,0,0,0,0,-1,951,1296,0,0
-266,-272,0,0,0,0,0,0,0,0,0,-1,958,1296,0,0
-259,-272,0,0,0,0,0,0,0,0,0,-1,965,1296,0,0
-252,-272,0,0,0,0,0,0,0,0,0,-1,972,1296,0,0
-245,-272,0,0,0,0,0,0,0,0,0,-1,979,1296,0,0
-238,-272,0,0,0,0,0,0,0,0,0,-1,986,1296,0,0
-231,-272,0,0,0,0,0,0,0,0,0,-1,993,1296,0,0
-224,-272,0,0,0,0,0,0,0,0,0,-1,1000,1296,0,0
-217,-272,0,0,0,0,0,0,0,0,0,-1,1007,1296,0,0
-210,-272,0,0,0,0,0,0,0,0,0,-1,1014,1296,0,0
-203,-272,0,0,0,0,0,0,0,0,0,-1,1021,1296,0,0
-196,-272,0,0,0,0,0,0,0,0,0,-1,1028,1296,0,0
-189,-272,0,0,0,0,0,0,0,0,0,-1,1035,1296,0,0
-182,-272,0,0,0,0,0,0,0,0,0,-1,1042,1296,0,0
-175,-272,0,0,0,0,0,0,0,0,0,-1,1049,1296,0,0
-168,-272,0,0,0,0,0,0,0,0,0,-1,1056,1296,0,0
-161,-272,0,0,0,0,0,0,0,0,0,-1,1063,1296,0,0
-154,-272,0,0,0,0,0,0,0,0,0,-1,1070,1296,0,0
-147,-272,0,0,0,0,0,0,0,0,0,-1,1077,1296,0,0
-140,-272,0,0,0,0,0,0,0,0,0,-1,1084,1296,0,0
-133,-272,0,0,0,0,0,0,0,0,0,-1,1091,1296,0,0
-126,-272,0,0,0,0,0,0,0,0,0,-1,1098,1296,0,0
-119,-272,0,0,0,0,0,0,0,0,0,-1,1105,1296,0,0
-112,-272,0,0,0,0,0,0,0,0,0,-1,1112,1296,0,0
-105,-272,0,0,0,0,0,0,0,0,0,-1,1119,1296,0,0
-98,-272,0,0,0,0,0,0,0,0,0,-1,1126,1296,0,0
-91,-272,0,0,0,0,0,0,0,0,0,-1,1133,1296,0,0
-84,-272,0,0,0,0,0,0,0,0,0,-1,1140,1296,0,0
-77,-272,0,0,0,0,0,0,0,0,0,-1,1147,1296,0,0
-70,-272,0,0,0,0,0,0,0,0,0,-1,1154,1296,0,0
-63,-272,0,0,0,0,0,0,0,0,0,-1,1161,1296,0,0
-56,-272,0,0,0,0,0,0,0,0,0,-1,1168,1296,0,0
-49,-272,0,0,0,0,0,0,0,0,0,-1,1175,1296,0,0
-42,-272,0,0,0,0,0,0,0,0,0,-1,1182,1296,0,0
-35,-272,0,0,0,0,0,0,0,0,0,-1,1189,1296,0,0
-28,-272,0,0,0,0,0,0,0,0,0,-1,1196,1296,0,0
-21,-272,0,0,0,0,0,0,0,0,0,-1,1203,1296,0,0
-14,-272,0,0,0,0,0,0,0,0,0,-1,1210,1296,0,0
-7,-272,0,0,0,0,0,0,0,0,0,-1,1217,1296,0,0
0,-272,0,0,0,0,0,0,0,0,0,-1,1224,1296,0,0
7,-272,0,0,0,0,0,0,0,0,0,-1,1231,1296,0,0
14,-272,0,0,0,0,0,0,0,0,0,-1,1238,1296,0,0
21,-272,0,0,0,0,0,0,0,0,0,-1,1245,1296,0,0
28,-272,0,0,0,0,0,0,0,0,0,-1,1252,1296,0,0
35,-272,0,0,0,0,0,0,0,0,0,-1,1259,1296,0,0
42,-272,0,0,0,0,0,0,0,0,0,-1,1266,1296,0,0
49,-272,0,0,0,0,0,0,0,0,0,-1,1273,1296,0,0
56,-272,0,0,0,0,0,0,0,0,0,-1,1280,1296,0,0
63,-272,0,0,0,0,0,0,0,0,0,-1,1287,1296,0,0
70,-272,0,0,0,0,0,0,0,0,0,-1,1294,1296,0,0
77,-272,0,0,0,0,0,0,0,0,0,-1,1301,1296,0,0
84,-272,0,0,0,0,0,0,0,0,0,-1,1308,1296,0,0
91,-272,0,0,0,0,0,0,0,0,0,-1,1315,1296,0,0
98,-272,0,0,0,0,0,0,0,0,0,-1,1322,1296,0,0
105,-272,0,0,0,0,0,0,0,0,0,-1,1329,1296,0,0
112,-272,0,0,0,0,0,0,0,0,0,-1,1336,1296,0,0
119,-272,0,0,0,0,0,0,0,0,0,-1,1343,1296,0,0
126,-272,0,0,0,0,0,0,0,0,0,-1,1350,1296,0,0
133,-272,0,0,0,0,0,0,0,0,0,-1,1357,1296,0,0
140,-272,0,0,0,0,0,0,0,0,0,-1,1364,1296,0,0
147,-272,0,0,0,0,0,0,0,0,0,-1,1371,1296,0,0
154,-272,0,0,0,0,0,0,0,0,0,-1,1378,1296,0,0
161,-272,0,0,0,0,0,0,0,0,0,-1,1385,1296,0,0
168,-272,0,0,0,0,0,0,0,0,0,-1,1392,1296,0,0
175,-272,0,0,0,0,0,0,0,0,0,-1,1399,1296,0,0
182,-272,0,0,0,0,0,0,0,0,0,-1,1406,1296,0,0
189,-272,0,0,0,0,0,0,0,0,0,-1,1413,1296,0,0
196,-272,0,0,0,0,0,0,0,0,0,-1,1420,1296,0,0
203,-272,0,0,0,0,0,0,0,0,0,-1,1427,1296,0,0
210,-272,0,0,0,0,0,0,0,0,0,-1,1434,1296,0,0
217,-272,0,0,0,0,0,0,0,0,0,-1,1441,1296,0,0
224,-272,0,0,0,0,0,0,0,0,0,-1,1448,1296,0,0
231,-272,0,0,0,0,0,0,0,0,0,-1,1455,1296,0,0
238,-272,0,0,0,0,0,0,0,0,0,-1,1462,1296,0,0
245,-272,0,0,0,0,0,0,0,0,0,-1,1469,1296,0,0
252,-272,0,0,0,0,0,0,0,0,0,-1,1476,1296,0,0
259,-272,0,0,0,0,0,0,0,0,0,-1,1483,1296,0,0
266,-272,0,0,0,0,0,0,0,0,0,-1,1490,1296,0,0
273,-272,0,0,0,0,0,0,0,0,0,-1,1497,1296,0,0
280,-272,0,0,0,0,0,0,0,0,0,-1,1504,1296,0,0
287,-272,0,0,0,0,0,0,0,0,0,-1,1511,1296,0,0
294,-272,0,0,0,0,0,0,0,0,0,-1,1518,1296,0,0
301,-272,0,0,0,0,0,0,0,0,0,-1,1525,1296,0,0
308,-272,0,0,0,0,0,0,0,0,0,-1,1532,1296,0,0
315,-272,0,0,0,0,0,0,0,0,0,-1,1539,1296,0,0
322,-272,0,0,0,0,0,0,0,0,0,-1,1546,1296,0,0
329,-272,0,0,0,0,0,0,0,0,0,-1,1553,1296,0,0
336,-272,0,0,0,0,0,0,0,0,0,-1,1560,1296,0,0
343,-272,0,0,0,0,0,0,0,0,0,-1,1567,1296,0,0
350,-272,0,0,0,0,0,0,0,0,0,-1,1574,1296,0,0
357,-272,0,0,0,0,0,0,0,0,0,-1,1581,1296,0,0
364,-272,0,0,0,0,0,0,0,0,0,-1,1588,1296,0,0
371,-272,0,0,0,0,0,0,0,0,0,-1,1595,1296,0,0
378,-272,0,0,0,0,0,0,0,0,0,-1,1602,1296,0,0
385,-272,0,0,0,0,0,0,0,0,0,-1,1609,1296,0,0
392,-272,0,0,0,0,0,0,0,0,0,-1,1616,1296,0,0
399,-272,0,0,0,0,0,0,0,0,0,-1,1623,1296,0,0
406,-272,0,0,0,0,0,0,0,0,0,-1,1630,1296,0,0
413,-272,0,0,0,0,0,0,0,0,0,-1,1637,1296,0,0
420,-272,0,0,0,0,0,0,0,0,0,-1,1644,1296,0,0
427,-272,0,0,0,0,0,0,0,0,0,-1,1651,1296,0,0
434,-272,0,0,0,0,0,0,0,0,0,-1,1658,1296,0,0
441,-272,0,0,0,0,0,0,0,0,0,-1,1665,1296,0,0
448,-272,0,0,0,0,0,0,0,0,0,-1,1672,1296,0,0
455,-272,0,0,0,0,0,0,0,0,0,-1,1679,1296,0,0
462,-272,0,0,0,0,0,0,0,0,0,-1,1686,1296,0,0
469,-272,0,0,0,0,0,0,0,0,0,-1,1693,1296,0,0
476,-272,0,0,0,0,0,0,0,0,0,-1,1700,1296,0,0
483,-272,0,0,0,0,0,0,0,0,0,-1,1707,1296,0,0
490,-272,0,0,0,0,0,0,0,0,0,-1,1714,1296,0,0
497,-272,0,0,0,0,0,0,0,0,0,-1,1721,1296,0,0
504,-272,0,0,0,0,0,0,0,0,0,-1,1728,1296,0,0
511,-272,0,0,0,0,0,0,0,0,0,-1,1735,1296,0,0
518,-272,0,0,0,0,0,0,0,0,0,-1,1742,1296,0,0
525,-272,0,0,0,0,0,0,0,0,0,-1,1749,1296,0,0
532,-272,0,0,0,0,0,0,0,0,0,-1,1756,1296,0,0
539,-272,0,0,0,0,0,0,0,0,0,-1,1763,1296,0,0
546,-272,0,0,0,0,0,0,0,0,0,-1,1770,1296,0,0
553,-272,0,0,0,0,0,0,0,0,0,-1,1777,1296,0,0
560,-272,0,0,0,0,0,0,0,0,0,-1,1784,1296,0,0
567,-272,0,0,0,0,0,0,0,0,0,-1,1791,1296,0,0
574,-272,0,0,0,0,0,0,0,0,0,-1,1798,1296,0,0
581,-272,0,0,0,0,0,0,0,0,0,-1,1805,1296,0,0
588,-272,0,0,0,0,0,0,0,0,0,-1,1812,1296,0,0
595,-272,0,0,0,0,0,0,0,0,0,-1,1819,1296,0,0
602,-272,11.6938,1.74548,-0.0209093,-0.00383115,-0.00183526,-0.00363615,-0.0211043,-1.46494,0.0130277,0.0308204,1826,1296,11.6938,-1.74544
609,-272,11.6853,1.64111,-0.00074524,-0.0025818,-0.00953953,0.0079201,-0.0112471,-0.737416,0.0111216,0.0379315,1833,1296,11.6853,-1.64106
616,-272,11.7422,1.74487,0.0157573,-0.00583166,-0.0129581,0.021828,-0.0119023,-0.438118,0.0197532,0.0429392,1840,1296,11.7421,-1.74483
623,-272,11.728,1.80652,0.0274995,-0.00900169,-0.0142048,0.0323759,-0.0138782,-0.330691,0.0274074,0.0449113,1847,1296,11.728,-1.80652
630,-272,6.78589,4.5929,0,0,0,0,0,0,0,-1,1854,1296,6.78586,-4.59292
637,-272,7.87744,3.20996,0.0377243,-0.0134505,-0.0121358,0.0404564,-0.0161826,-0.221434,0.0336867,0.0480733,1861,1296,7.87745,-3.21
644,-272,8.9082,1.83838,0.037979,-0.0144758,-0.00992719,0.0397949,-0.0162917,-0.18092,0.0333159,0.0471295,1868,1296,8.90825,-1.83839
651,-272,9.36719,0.567017,0.0364013,-0.0147735,-0.00751809,0.0374829,-0.0158551,-0.142889,0.0316273,0.0443939,1875,1296,9.36716,-0.567051
658,-272,9.69287,-0.705933,0,0,0,0,0,0,0,-1,1882,1296,9.69281,0.705961
665,-272,9.73877,2.59753,0,0,0,0,0,0,0,-1,1889,1296,9.73872,-2.59756
672,-272,9.77368,2.74097,0.0250425,-0.0131709,-0.00116052,0.0250777,-0.0132061,-0.0303323,0.0224546,0.0415195,1896,1296,9.7737,-2.74099
679,-272,9.80969,2.8905,0.0186718,-0.0110188,0.000489609,0.0186799,-0.0110269,0.0164844,0.0173399,0.0176509,1903,1296,9.80964,-2.8905
686,-272,9.79456,2.86047,0.0128149,-0.00873871,0.0016157,0.0129354,-0.00885915,0.0744075,0.0126562,0.0132639,1910,1296,9.79451,-2.86049
693,-272,9.77075,2.77454,0.00684372,-0.00675485,0.00293989,0.00745209,-0.00736321,0.204053,0.00855367,0.0104154,1917,1296,9.7707,-2.7746
700,-272,9.77319,2.70325,0.00241497,-0.00459047,0.00342569,0.00381168,-0.00598718,0.38714,0.00570366,0.00952672,1924,1296,9.77314,-2.70323
707,-272,9.79956,2.60645,-0.000121748,-0.00258776,0.00166654,0.000718322,-0.00342783,0.466908,0.0025585,0.0100202,1931,1296,9.79962,-2.60642
714,-272,9.80579,2.50562,0.000409234,-0.00125185,4.12577e-05,0.000410259,-0.00125288,0.0248174,0.00100045,0.00976725,1938,1296,9.80577,-2.50557
721,-272,9.78931,2.42505,0.00229871,-0.00103777,-0.00171057,0.00301984,-0.0017589,-0.398962,0.00279084,0.0110148,1945,1296,9.78936,-2.42502
728,-272,9.80225,2.33301,0.00370761,-0.000722015,-0.00381205,0.00590156,-0.00291596,-0.522231,0.00518716,0.0134534,1952,1296,9.80229,-2.33295
735,-272,9.82043,2.23914,0.00555233,-0.000662441,-0.00623911,0.00941504,-0.00452515,-0.554355,0.00821177,0.013046,1959,1296,9.82041,-2.23909
742,-272,9.8208,2.16968,0.00787617,-0.000439968,-0.00970813,0.0142792,-0.00684302,-0.583064,0.0124443,0.0226425,1966,1296,9.82079,-2.16965
749,-272,9.85193,2.09473,0.0109006,0.000159166,-0.0147999,0.0212741,-0.0102144,-0.611343,0.0185499,0.0390673,1973,1296,9.85188,-2.09477
756,-272,10.1383,1.75208,0.0148069,0.0014653,-0.0221545,0.0312731,-0.0150009,-0.639164,0.0272614,0.045591,1980,1296,10.1383,-1.75205
763,-272,10.4475,1.17017,0,0,0,0,0,0,0,-1,1987,1296,10.4475,-1.17019
770,-272,10.3872,0.699951,0.0251241,0.00831041,-0.0471519,0.0646127,-0.0311782,-0.697179,0.0564166,0.046319,1994,1296,10.3872,-0.699973
777,-272,10.22,0.278687,0,0,0,0,0,0,0,-1,2001,1296,10.2199,-0.278651
784,-272,0,0,0,0,0,0,0,0,0,-1,2008,1296,0,0
791,-272,0,0,0,0,0,0,0,0,0,-1,2015,1296,0,0
798,-272,0,0,0,0,0,0,0,0,0,-1,2022,1296,0,0
805,-272,0,0,0,0,0,0,0,0,0,-1,2029,1296,0,0
812,-272,0,0,0,0,0,0,0,0,0,-1,2036,1296,0,0
-700,-279,0,0,0,0,0,0,0,0,0,-1,524,1303,0,0
-693,-279,0,0,0,0,0,0,0,0,0,-1,531,1303,0,0
-686,-279,0,0,0,0,0,0,0,0,0,-1,538,1303,0,0
-679,-279,0,0,0,0,0,0,0,0,0,-1,545,1303,0,0
-672,-279,0,0,0,0,0,0,0,0,0,-1,552,1303,0,0
-665,-279,0,0,0,0,0,0,0,0,0,-1,559,1303,0,0
-658,-279,-3.97546,-0.949951,0.0666142,-0.0119477,-0.0335115,0.0789667,-0.0243002,-0.353152,0.0623437,0.0427525,566,1303,-3.97545,0.949997
-651,-279,-4.17505,-0.554565,0.0515731,-0.0112755,-0.0254142,0.0605637,-0.0202661,-0.340024,0.0485619,0.0407294,573,1303,-4.17502,0.554569
-644,-279,-3.96674,-0.673218,0.0391514,-0.010185,-0.0189486,0.045589,-0.0166226,-0.327504,0.037193,0.0420145,580,1303,-3.96676,0.673265
-637,-279,-3.59686,0.341675,0,0,0,0,0,0,0,-1,587,1303,-3.59686,-0.341716
-630,-279,-3.57684,0.541626,0.0209804,-0.00749106,-0.0096761,0.0239575,-0.0104682,-0.298488,0.020378,0.0446679,594,1303,-3.57687,-0.54158
-623,-279,-3.6958,0.619751,0.0147035,-0.00604657,-0.00648467,0.0165634,-0.00790641,-0.279309,0.0144193,0.0423483,601,1303,-3.69578,-0.619778
-616,-279,-3.6593,0.836792,0.00999394,-0.00466618,-0.00407127,0.0110487,-0.00572093,-0.253498,0.00984347,0.0387798,608,1303,-3.65932,-0.836797
-609,-279,-3.58063,0.970703,0.00603639,-0.0030601,-0.00213554,0.00651279,-0.00353651,-0.219488,0.00588617,0.0256857,615,1303,-3.58064,-0.970739
-602,-279,-3.52997,1.00208,0.00365455,-0.00264759,-0.000744421,0.00374129,-0.00273433,-0.115995,0.00375373,0.0121729,622,1303,-3.52996,-1.00203
-595,-279,-3.53424,1.12073,0.0018868,-0.00190712,-3.62055e-05,0.00188714,-0.00190746,-0.00954189,0.00219083,0.0102233,629,1303,-3.53427,-1.1207
-588,-279,-3.51154,1.2251,0.00035227,-0.00113598,0.000638562,0.000588698,-0.00137241,0.3546,0.00116199,0.0098571,636,1303,-3.51151,-1.22507
-581,-279,-3.52393,1.32043,0.000311471,-0.000242763,0.000585725,0.000682326,-0.000613617,0.564442,0.000748564,0.0113846,643,1303,-3.52393,-1.3204
-574,-279,-3.5451,1.42395,0.00157337,0.00034515,0.00035298,0.00166759,0.000250934,0.260835,0.00103824,0.0116215,650,1303,-3.54511,-1.42389
-567,-279,-3.54919,1.53845,0.00231938,-0.000103795,-0.000577809,0.00245011,-0.000234522,-0.222499,0.00171693,0.0153073,657,1303,-3.54921,-1.53847
-560,-279,-3.53961,1.6615,0.00330702,-0.00055943,-0.00213046,0.00425064,-0.00150305,-0.416948,0.00344583,0.0159357,664,1303,-3.53958,-1.6615
-553,-279,-3.52698,1.76941,0.00519665,-0.00145147,-0.00362043,0.00678756,-0.00304237,-0.414025,0.005811,0.0114243,671,1303,-3.52695,-1.76946
-546,-279,-3.52484,1.84644,0.00772563,-0.00155326,-0.00588677,0.0105814,-0.00440904,-0.451673,0.00889594,0.0119642,678,1303,-3.52486,-1.84641
-539,-279,-3.5155,1.94482,0.0104243,-0.00232552,-0.00816539,0.0144086,-0.00630981,-0.45396,0.0122626,0.0392064,685,1303,-3.51549,-1.94478
-532,-279,-3.50946,2.04956,0,0,0,0,0,0,0,-1,692,1303,-3.50945,-2.04953
-525,-279,-2.52936,-0.644531,0,0,0,0,0,0,0,-1,699,1303,-2.52933,0.644544
-518,-279,-8.38324,3.30066,0,0,0,0,0,0,0,-1,706,1303,-8.38326,-3.3007
-511,-279,-7.65558,2.66174,0.0298201,-0.00752083,-0.0198071,0.0383693,-0.01607,-0.407465,0.0322975,0.0457224,713,1303,-7.6556,-2.66173
-504,-279,-6.94366,1.99585,0.0370804,-0.00938822,-0.0227262,0.0463471,-0.0186549,-0.387172,0.0386475,0.0458752,720,1303,-6.94364,-1.99587
-497,-279,-6.09576,1.4895,0.0461157,-0.0114905,-0.0250208,0.0554657,-0.0208405,-0.357621,0.0455422,0.0440122,727,1303,-6.09576,-1.48945
-490,-279,-5.58167,0.992798,0.0569753,-0.0136859,-0.025767,0.0653733,-0.0220838,-0.315064,0.0525148,0.0411249,734,1303,-5.58169,-0.992737
-483,-279,-5.26703,0.530151,0,0,0,0,0,0,0,-1,741,1303,-5.26702,-0.530107
-476,-279,0,0,0,0,0,0,0,0,0,-1,748,1303,0,0
-469,-279,0,0,0,0,0,0,0,0,0,-1,755,1303,0,0
-462,-279,0,0,0,0,0,0,0,0,0,-1,762,1303,0,0
-455,-279,0,0,0,0,0,0,0,0,0,-1,769,1303,0,0
-448,-279,0,0,0,0,0,0,0,0,0,-1,776,1303,0,0
-441,-279,0,0,0,0,0,0,0,0,0,-1,783,1303,0,0
-434,-279,0,0,0,0,0,0,0,0,0,-1,790,1303,0,0
-427,-279,0,0,0,0,0,0,0,0,0,-1,797,1303,0,0
-420,-279,0,0,0,0,0,0,0,0,0,-1,804,1303,0,0
-413,-279,0,0,0,0,0,0,0,0,0,-1,811,1303,0,0
-406,-279,0,0,0,0,0,0,0,0,0,-1,818,1303,0,0
-399,-279,0,0,0,0,0,0,0,0,0,-1,825,1303,0,0
-392,-279,0,0,0,0,0,0,0,0,0,-1,832,1303,0,0
-385,-279,0,0,0,0,0,0,0,0,0,-1,839,1303,0,0
-378,-279,0,0,0,0,0,0,0,0,0,-1,846,1303,0,0
-371,-279,0,0,0,0,0,0,0,0,0,-1,853,1303,0,0
-364,-279,0,0,0,0,0,0,0,0,0,-1,860,1303,0,0
-357,-279,0,0,0,0,0,0,0,0,0,-1,867,1303,0,0
-350,-279,0,0,0,0,0,0,0,0,0,-1,874,1303,0,0
-343,-279,0,0,0,0,0,0,0,0,0,-1,881,1303,0,0
-336,-279,0,0,0,0,0,0,0,0,0,-1,888,1303,0,0
-329,-279,0,0,0,0,0,0,0,0,0,-1,895,1303,0,0
-322,-279,0,0,0,0,0,0,0,0,0,-1,902,1303,0,0
-315,-279,0,0,0,0,0,0,0,0,0,-1,909,1303,0,0
-308,-279,0,0,0,0,0,0,0,0,0,-1,916,1303,0,0
-301,-279,0,0,0,0,0,0,0,0,0,-1,923,1303,0,0
-294,-279,0,0,0,0,0,0,0,0,0,-1,930,1303,0,0
-287,-279,0,0,0,0,0,0,0,0,0,-1,937,1303,0,0
-280,-279,0,0,0,0,0,0,0,0,0,-1,944,1303,0,0
-273,-279,0,0,0,0,0,0,0,0,0,-1,951,1303,0,0
-266,-279,0,0,0,0,0,0,0,0,0,-1,958,1303,0,0
-259,-279,0,0,0,0,0,0,0,0,0,-1,965,1303,0,0
-252,-279,0,0,0,0,0,0,0,0,0,-1,972,1303,0,0
-245,-279,0,0,0,0,0,0,0,0,0,-1,979,1303,0,0
-238,-279,0,0,0,0,0,0,0,0,0,-1,986,1303,0,0
-231,-279,0,0,0,0,0,0,0,0,0,-1,993,1303,0,0
-224,-279,0,0,0,0,0,0,0,0,0,-1,1000,1303,0,0
-217,-279,0,0,0,0,0,0,0,0,0,-1,1007,1303,0,0
-210,-279,0,0,0,0,0,0,0,0,0,-1,1014,1303,0,0
-203,-279,0,0,0,0,0,0,0,0,0,-1,1021,1303,0,0
-196,-279,0,0,0,0,0,0,0,0,0,-1,1028,1303,0,0
-189,-279,0,0,0,0,0,0,0,0,0,-1,1035,1303,0,0
-182,-279,0,0,0,0,0,0,0,0,0,-1,1042,1303,0,0
-175,-279,0,0,0,0,0,0,0,0,0,-1,1049,1303,0,0
-168,-279,0,0,0,0,0,0,0,0,0,-1,1056,1303,0,0
-161,-279,0,0,0,0,0,0,0,0,0,-1,1063,1303,0,0
-154,-279,0,0,0,0,0,0,0,0,0,-1,1070,1303,0,0
-147,-279,0,0,0,0,0,0,0,0,0,-1,1077,1303,0,0
-140,-279,0,0,0,0,0,0,0,0,0,-1,1084,1303,0,0
-133,-279,0,0,0,0,0,0,0,0,0,-1,1091,1303,0,0
-126,-279,0,0,0,0,0,0,0,0,0,-1,1098,1303,0,0
-119,-279,0,0,0,0,0,0,0,0,0,-1,1105,1303,0,0
-112,-279,0,0,0,0,0,0,0,0,0,-1,1112,1303,0,0
-105,-279,0,0,0,0,0,0,0,0,0,-1,1119,1303,0,0
-98,-279,0,0,0,0,0,0,0,0,0,-1,1126,1303,0,0
-91,-279,0,0,0,0,0,0,0,0,0,-1,1133,1303,0,0
-84,-279,0,0,0,0,0,0,0,0,0,-1,1140,1303,0,0
-77,-279,0,0,0,0,0,0,0,0,0,-1,1147,1303,0,0
-70,-279,0,0,0,0,0,0,0,0,0,-1,1154,1303,0,0
-63,-279,0,0,0,0,0,0,0,0,0,-1,1161,1303,0,0
-56,-279,0,0,0,0,0,0,0,0,0,-1,1168,1303,0,0
-49,-279,0,0,0,0,0,0,0,0,0,-1,1175,1303,0,0
-42,-279,0,0,0,0,0,0,0,0,0,-1,1182,1303,0,0
-35,-279,0,0,0,0,0,0,0,0,0,-1,1189,1303,0,0
-28,-279,0,0,0,0,0,0,0,0,0,-1,1196,1303,0,0
-21,-279,0,0,0,0,0,0,0,0,0,-1,1203,1303,0,0
-14,-279,0,0,0,0,0,0,0,0,0,-1,1210,1303,0,0
-7,-279,0,0,0,0,0,0,0,0,0,-1,1217,1303,0,0
0,-279,0,0,0,0,0,0,0,0,0,-1,1224,1303,0,0
7,-279,0,0,0,0,0,0,0,0,0,-1,1231,1303,0,0
14,-279,0,0,0,0,0,0,0,0,0,-1,1238,1303,0,0
21,-279,0,0,0,0,0,0,0,0,0,-1,1245,1303,0,0
28,-279,0,0,0,0,0,0,0,0,0,-1,1252,1303,0,0
35,-279,0,0,0,0,0,0,0,0,0,-1,1259,1303,0,0
42,-279,0,0,0,0,0,0,0,0,0,-1,1266,1303,0,0
49,-279,0,0,0,0,0,0,0,0,0,-1,1273,1303,0,0
56,-279,0,0,0,0,0,0,0,0,0,-1,1280,1303,0,0
63,-279,0,0,0,0,0,0,0,0,0,-1,1287,1303,0,0
70,-279,0,0,0,0,0,0,0,0,0,-1,1294,1303,0,0
77,-279,0,0,0,0,0,0,0,0,0,-1,1301,1303,0,0
84,-279,0,0,0,0,0,0,0,0,0,-1,1308,1303,0,0
91,-279,0,0,0,0,0,0,0,0,0,-1,1315,1303,0,0
98,-279,0,0,0,0,0,0,0,0,0,-1,1322,1303,0,0
105,-279,0,0,0,0,0,0,0,0,0,-1,1329,1303,0,0
112,-279,0,0,0,0,0,0,0,0,0,-1,1336,1303,0,0
119,-279,0,0,0,0,0,0,0,0,0,-1,1343,1303,0,0
126,-279,0,0,0,0,0,0,0,0,0,-1,1350,1303,0,0
133,-279,0,0,0,0,0,0,0,0,0,-1,1357,1303,0,0
140,-279,0,0,0,0,0,0,0,0,0,-1,1364,1303,0,0
147,-279,0,0,0,0,0,0,0,0,0,-1,1371,1303,0,0
154,-279,0,0,0,0,0,0,0,0,0,-1,1378,1303,0,0
161,-279,0,0,0,0,0,0,0,0,0,-1,1385,1303,0,0
168,-279,0,0,0,0,0,0,0,0,0,-1,1392,1303,0,0
175,-279,0,0,0,0,0,0,0,0,0,-1,1399,1303,0,0
182,-279,0,0,0,0,0,0,0,0,0,-1,1406,1303,0,0
189,-279,0,0,0,0,0,0,0,0,0,-1,1413,1303,0,0
196,-279,0,0,0,0,0,0,0,0,0,-1,1420,1303,0,0
203,-279,0,0,0,0,0,0,0,0,0,-1,1427,1303,0,0
210,-279,0,0,0,0,0,0,0,0,0,-1,1434,1303,0,0
217,-279,0,0,0,0,0,0,0,0,0,-1,1441,1303,0,0
224,-279,0,0,0,0,0,0,0,0,0,-1,1448,1303,0,0
231,-279,0,0,0,0,0,0,0,0,0,-1,1455,1303,0,0
238,-279,0,0,0,0,0,0,0,0,0,-1,1462,1303,0,0
245,-279,0,0,0,0,0,0,0,0,0,-1,1469,1303,0,0
252,-279,0,0,0,0,0,0,0,0,0,-1,1476,1303,0,0
259,-279,0,0,0,0,0,0,0,0,0,-1,1483,1303,0,0
266,-279,0,0,0,0,0,0,0,0,0,-1,1490,1303,0,0
273,-279,0,0,0,0,0,0,0,0,0,-1,1497,1303,0,0
280,-279,0,0,0,0,0,0,0,0,0,-1,1504,1303,0,0
287,-279,0,0,0,0,0,0,0,0,0,-1,1511,1303,0,0
294,-279,0,0,0,0,0,0,0,0,0,-1,1518,1303,0,0
301,-279,0,0,0,0,0,0,0,0,0,-1,1525,1303,0,0
308,-279,0,0,0,0,0,0,0,0,0,-1,1532,1303,0,0
315,-279,0,0,0,0,0,0,0,0,0,-1,1539,1303,0,0
322,-279,0,0,0,0,0,0,0,0,0,-1,1546,1303,0,0
329,-279,0,0,0,0,0,0,0,0,0,-1,1553,1303,0,0
336,-279,0,0,0,0,0,0,0,0,0,-1,1560,1303,0,0
343,-279,0,0,0,0,0,0,0,0,0,-1,1567,1303,0,0
350,-279,0,0,0,0,0,0,0,0,0,-1,1574,1303,0,0
357,-279,0,0,0,0,0,0,0,0,0,-1,1581,1303,0,0
364,-279,0,0,0,0,0,0,0,0,0,-1,1588,1303,0,0
371,-279,0,0,0,0,0,0,0,0,0,-1,1595,1303,0,0
378,-279,0,0,0,0,0,0,0,0,0,-1,1602,1303,0,0
385,-279,0,0,0,0,0,0,0,0,0,-1,1609,1303,0,0
392,-279,0,0,0,0,0,0,0,0,0,-1,1616,1303,0,0
399,-279,0,0,0,0,0,0,0,0,0,-1,1623,1303,0,0
406,-279,0,0,0,0,0,0,0,0,0,-1,1630,1303,0,0
413,-279,0,0,0,0,0,0,0,0,0,-1,1637,1303,0,0
420,-279,0,0,0,0,0,0,0,0,0,-1,1644,1303,0,0
427,-279,0,0,0,0,0,0,0,0,0,-1,1651,1303,0,0
434,-279,0,0,0,0,0,0,0,0,0,-1,1658,1303,0,0
441,-279,0,0,0,0,0,0,0,0,0,-1,1665,1303,0,0
448,-279,0,0,0,0,0,0,0,0,0,-1,1672,1303,0,0
455,-279,0,0,0,0,0,0,0,0,0,-1,1679,1303,0,0
462,-279,0,0,0,0,0,0,0,0,0,-1,1686,1303,0,0
469,-279,0,0,0,0,0,0,0,0,0,-1,1693,1303,0,0
476,-279,0,0,0,0,0,0,0,0,0,-1,1700,1303,0,0
483,-279,0,0,0,0,0,0,0,0,0,-1,1707,1303,0,0
490,-279,0,0,0,0,0,0,0,0,0,-1,1714,1303,0,0
497,-279,0,0,0,0,0,0,0,0,0,-1,1721,1303,0,0
504,-279,0,0,0,0,0,0,0,0,0,-1,1728,1303,0,0
511,-279,0,0,0,0,0,0,0,0,0,-1,1735,1303,0,0
518,-279,0,0,0,0,0,0,0,0,0,-1,1742,1303,0,0
525,-279,0,0,0,0,0,0,0,0,0,-1,1749,1303,0,0
532,-279,0,0,0,0,0,0,0,0,0,-1,1756,1303,0,0
539,-279,0,0,0,0,0,0,0,0,0,-1,1763,1303,0,0
546,-279,0,0,0,0,0,0,0,0,0,-1,1770,1303,0,0
553,-279,0,0,0,0,0,0,0,0,0,-1,1777,1303,0,0
560,-279,0,0,0,0,0,0,0,0,0,-1,1784,1303,0,0
567,-279,0,0,0,0,0,0,0,0,0,-1,1791,1303,0,0
574,-279,0,0,0,0,0,0,0,0,0,-1,1798,1303,0,0
581,-279,0,0,0,0,0,0,0,0,0,-1,1805,1303,0,0
588,-279,0,0,0,0,0,0,0,0,0,-1,1812,1303,0,0
595,-279,0,0,0,0,0,0,0,0,0,-1,1819,1303,0,0
602,-279,11.7833,1.77588,-0.0162585,-0.00820687,-0.0067036,-0.00441312,-0.0200522,-1.05581,0.0121669,0.0404882,1826,1303,11.7833,-1.77582
609,-279,11.9292,1.82581,0.0017482,-0.00677297,-0.0130827,0.0112466,-0.0162714,-0.627981,0.0159755,0.0489795,1833,1303,11.9292,-1.82582
616,-279,12.0743,1.54919,0.0162789,-0.00895807,-0.0160687,0.0240915,-0.0167707,-0.452547,0.0237177,0.0466001,1840,1303,12.0744,-1.54916
623,-279,11.7515,2.01501,0,0,0,0,0,0,0,-1,1847,1303,11.7515,-2.015
630,-279,6.65662,4.45703,0,0,0,0,0,0,0,-1,1854,1303,6.65659,-4.45705
637,-279,7.80737,3.26062,0.0365178,-0.0144779,-0.0151217,0.0406646,-0.0186247,-0.267649,0.0350102,0.0446776,1861,1303,7.80738,-3.26061
644,-279,8.97058,2.08594,0.03708,-0.0151055,-0.0129475,0.0401157,-0.0181413,-0.230306,0.034423,0.0469698,1868,1303,8.97062,-2.08591
651,-279,9.7157,1.16357,0.0359172,-0.0152087,-0.010481,0.0379824,-0.0172739,-0.194553,0.0326405,0.0477651,1875,1303,9.71567,-1.16357
658,-279,10.1769,0.0476074,0.0338568,-0.0149279,-0.00829746,0.0352294,-0.0163005,-0.163944,0.0304125,0.0492239,1882,1303,10.1769,-0.047605
665,-279,10.1576,3.25085,0,0,0,0,0,0,0,-1,1889,1303,10.1576,-3.25091
672,-279,9.84436,2.98816,0.0254203,-0.013501,-0.00359457,0.0257495,-0.0138302,-0.0913257,0.0231941,0.0326554,1896,1303,9.84436,-2.98821
679,-279,9.74158,2.96643,0.0188134,-0.0111572,-0.0015262,0.0188909,-0.0112347,-0.0507484,0.0175792,0.0200673,1903,1303,9.74154,-2.96639
686,-279,9.72803,2.89856,0.0129003,-0.00874668,1.08635e-05,0.0129003,-0.00874669,0.000501849,0.0125743,0.019647,1910,1303,9.72803,-2.89851
693,-279,9.68469,2.79395,0.00691033,-0.00673549,0.0017822,0.00713925,-0.00696441,0.127749,0.00814296,0.0150468,1917,1303,9.68465,-2.79398
700,-279,9.6781,2.7074,0.0026427,-0.00473479,0.00256279,0.00344559,-0.00553768,0.3036,0.00523316,0.00969999,1924,1303,9.67811,-2.70742
707,-279,9.69702,2.61096,0.000670885,-0.00307269,0.0010973,0.000968813,-0.00337061,0.265118,0.00263018,0.00825904,1931,1303,9.69701,-2.61098
714,-279,9.6969,2.50427,0.00133907,-0.00210497,-0.000390149,0.00138271,-0.00214862,-0.111402,0.00205474,0.00942066,1938,1303,9.69685,-2.50429
721,-279,9.6991,2.41199,0.00317725,-0.00245621,-0.0021338,0.00389423,-0.00317318,-0.324156,0.00408744,0.0119572,1945,1303,9.69906,-2.41194
728,-279,9.72131,2.32446,0.00467117,-0.00283595,-0.0042786,0.00660932,-0.0047741,-0.425336,0.00660063,0.0129831,1952,1303,9.72129,-2.32443
735,-279,9.71472,2.23926,0.00666305,-0.00366539,-0.00687392,0.0100965,-0.00709883,-0.463239,0.00997789,0.0121355,1959,1303,9.71476,-2.23929
742,-279,9.703,2.10535,0.00920531,-0.00458705,-0.0106378,0.0149867,-0.0103684,-0.497819,0.0147195,0.022008,1966,1303,9.70298,-2.10535
749,-279,9.85071,1.84973,0.0124619,-0.00543454,-0.0161652,0.0219903,-0.0149629,-0.532616,0.0214631,0.0376139,1973,1303,9.85067,-1.84969
756,-279,10.063,1.552,0.0165967,-0.00592972,-0.0241286,0.0319615,-0.0212945,-0.56703,0.0309523,0.045967,1980,1303,10.0629,-1.55199
763,-279,10.2272,1.26355,0,0,0,0,0,0,0,-1,1987,1303,10.2272,-1.26351
770,-279,11.454,0.25647,0,0,0,0,0,0,0,-1,1994,1303,11.454,-0.256479
777,-279,11.4131,-0.191162,0,0,0,0,0,0,0,-1,2001,1303,11.4131,0.191121
784,-279,0,0,0,0,0,0,0,0,0,-1,2008,1303,0,0
791,-279,0,0,0,0,0,0,0,0,0,-1,2015,1303,0,0
798,-279,0,0,0,0,0,0,0,0,0,-1,2022,1303,0,0
805,-279,0,0,0,0,0,0,0,0,0,-1,2029,1303,0,0
812,-279,0,0,0,0,0,0,0,0,0,-1,2036,1303,0,0
-700,-286,0,0,0,0,0,0,0,0,0,-1,524,1310,0,0
-693,-286,0,0,0,0,0,0,0,0,0,-1,531,1310,0,0
-686,-286,0,0,0,0,0,0,0,0,0,-1,538,1310,0,0
-679,-286,0,0,0,0,0,0,0,0,0,-1,545,1310,0,0
-672,-286,0,0,0,0,0,0,0,0,0,-1,552,1310,0,0
-665,-286,0,0,0,0,0,0,0,0,0,-1,559,1310,0,0
-658,-286,-3.57391,-1.5675,0.0550519,-0.0153789,-0.0400089,0.073136,-0.033463,-0.424517,0.0629497,0.0468169,566,1310,-3.57393,1.56749
-651,-286,-3.87512,-1.04224,0.0401762,-0.0155652,-0.0314633,0.0543378,-0.0297268,-0.422936,0.0492232,0.0476172,573,1310,-3.87513,1.04219
-644,-286,-3.3764,-0.832031,0.0284906,-0.0146096,-0.0243651,0.0394684,-0.0255874,-0.423315,0.0378439,0.0458145,580,1310,-3.37641,0.832076
-637,-286,-2.87964,-0.494141,0.0195407,-0.0130564,-0.018514,0.0279081,-0.0214238,-0.424476,0.0285637,0.0429945,587,1310,-2.87966,0.49409
-630,-286,-3.72064,0.579712,0,0,0,0,0,0,0,-1,594,1310,-3.72064,-0.579672
-623,-286,-3.80377,0.372803,0.00803947,-0.00906448,-0.00984697,0.0125297,-0.0135547,-0.427833,0.0150637,0.0425663,601,1310,-3.80377,-0.372805
-616,-286,-3.56659,0.435791,0.00472805,-0.0070383,-0.00680143,0.00783771,-0.010148,-0.428832,0.0104126,0.0413103,608,1310,-3.56659,-0.435737
-609,-286,-3.48517,0.800537,0.00208699,-0.00494136,-0.00431665,0.00413904,-0.00699341,-0.443759,0.00649737,0.030725,615,1310,-3.48514,-0.800499
-602,-286,-3.41467,0.989136,0.000768049,-0.00399955,-0.00250097,0.00183929,-0.00507079,-0.40469,0.0041324,0.0138049,622,1310,-3.41468,-0.989136
-595,-286,-3.43372,1.11853,-0.000324403,-0.00279001,-0.00139743,0.000306292,-0.0034207,-0.423954,0.00238912,0.0107742,629,1310,-3.43374,-1.11858
-588,-286,-3.39862,1.21826,-0.00113623,-0.00168346,-0.000261536,-0.00103134,-0.00178835,-0.381416,0.00103655,0.0110829,636,1310,-3.39863,-1.21831
-581,-286,-3.3949,1.31848,-0.000352321,-0.00061154,4.22149e-05,-0.000345619,-0.000618241,0.157436,0.00035777,0.0125918,643,1310,-3.39492,-1.31848
-574,-286,-3.42358,1.42468,0.001508,8.54936e-06,8.50502e-05,0.00151281,3.7406e-06,0.0564793,0.0010073,0.0128675,650,1310,-3.42359,-1.42469
-567,-286,-3.43616,1.54456,0.00253021,-0.000591923,-0.000769217,0.00270944,-0.00077115,-0.228916,0.00211083,0.0129138,657,1310,-3.43616,-1.54458
-560,-286,-3.41852,1.66431,0.00370267,-0.00144416,-0.00232586,0.00459799,-0.00233947,-0.367456,0.00407548,0.0133406,664,1310,-3.4185,-1.66435
-553,-286,-3.39734,1.76318,0.0057754,-0.0027797,-0.0038888,0.00727887,-0.00428317,-0.368915,0.00674962,0.00971135,671,1310,-3.39736,-1.76313
-546,-286,-3.39612,1.86609,0.00858486,-0.00330767,-0.00626473,0.011276,-0.00599881,-0.405736,0.0101276,0.0112419,678,1310,-3.39615,-1.86608
-539,-286,-3.38416,1.97839,0.0115643,-0.0044291,-0.00869739,0.0153825,-0.00824729,-0.413673,0.0138484,0.0286547,685,1310,-3.38418,-1.97835
-532,-286,-2.96326,1.80859,0.0157952,-0.00585903,-0.0116371,0.020863,-0.0109268,-0.410719,0.0186503,0.0483052,692,1310,-2.96326,-1.80857
-525,-286,-2.85547,1.6698,0,0,0,0,0,0,0,-1,699,1310,-2.85545,-1.6698
-518,-286,-7.23071,3.42065,0,0,0,0,0,0,0,-1,706,1310,-7.23068,-3.42067
-511,-286,-7.61584,2.90967,0.0331654,-0.0107143,-0.0207959,0.0414551,-0.019004,-0.379318,0.0356993,0.0465578,713,1310,-7.61584,-2.90968
-504,-286,-7.06384,2.28613,0.0414442,-0.0126311,-0.0235667,0.0502733,-0.0214602,-0.358458,0.0425145,0.0441829,720,1310,-7.06383,-2.28615
-497,-286,-5.57587,1.34131,0.0516793,-0.0146708,-0.0255542,0.0603803,-0.0233718,-0.328178,0.0499031,0.0437975,727,1310,-5.57585,-1.34133
-490,-286,-5.45679,1.06555,0.0645104,-0.0167226,-0.025992,0.0721151,-0.0243273,-0.284634,0.0579148,0.0440628,734,1310,-5.45679,-1.06553
-483,-286,-5.16772,0.521362,0,0,0,0,0,0,0,-1,741,1310,-5.16775,-0.521398
-476,-286,-4.44812,0.456421,0,0,0,0,0,0,0,-1,748,1310,-4.44811,-0.456375
-469,-286,0,0,0,0,0,0,0,0,0,-1,755,1310,0,0
-462,-286,0,0,0,0,0,0,0,0,0,-1,762,1310,0,0
-455,-286,0,0,0,0,0,0,0,0,0,-1,769,1310,0,0
-448,-286,0,0,0,0,0,0,0,0,0,-1,776,1310,0,0
-441,-286,0,0,0,0,0,0,0,0,0,-1,783,1310,0,0
-434,-286,0,0,0,0,0,0,0,0,0,-1,790,1310,0,0
-427,-286,0,0,0,0,0,0,0,0,0,-1,797,1310,0,0
-420,-286,0,0,0,0,0,0,0,0,0,-1,804,1310,0,0
-413,-286,0,0,0,0,0,0,0,0,0,-1,811,1310,0,0
-406,-286,0,0,0,0,0,0,0,0,0,-1,818,1310,0,0
-399,-286,0,0,0,0,0,0,0,0,0,-1,825,1310,0,0
-392,-286,0,0,0,0,0,0,0,0,0,-1,832,1310,0,0
-385,-286,0,0,0,0,0,0,0,0,0,-1,839,1310,0,0
-378,-286,0,0,0,0,0,0,0,0,0,-1,846,1310,0,0
-371,-286,0,0,0,0,0,0,0,0,0,-1,853,1310,0,0
-364,-286,0,0,0,0,0,0,0,0,0,-1,860,1310,0,0
-357,-286,0,0,0,0,0,0,0,0,0,-1,867,1310,0,0
-350,-286,0,0,0,0,0,0,0,0,0,-1,874,1310,0,0
-343,-286,0,0,0,0,0,0,0,0,0,-1,881,1310,0,0
-336,-286,0,0,0,0,0,0,0,0,0,-1,888,1310,0,0
-329,-286,0,0,0,0,0,0,0,0,0,-1,895,1310,0,0
-322,-286,0,0,0,0,0,0,0,0,0,-1,902,1310,0,0
-315,-286,0,0,0,0,0,0,0,0,0,-1,909,1310,0,0
-308,-286,0,0,0,0,0,0,0,0,0,-1,916,1310,0,0
-301,-286,0,0,0,0,0,0,0,0,0,-1,923,1310,0,0
-294,-286,0,0,0,0,0,0,0,0,0,-1,930,1310,0,0
-287,-286,0,0,0,0,0,0,0,0,0,-1,937,1310,0,0
-280,-286,0,0,0,0,0,0,0,0,0,-1,944,1310,0,0
-273,-286,0,0,0,0,0,0,0,0,0,-1,951,1310,0,0
-266,-286,0,0,0,0,0,0,0,0,0,-1,958,1310,0,0
-259,-286,0,0,0,0,0,0,0,0,0,-1,965,1310,0,0
-252,-286,0,0,0,0,0,0,0,0,0,-1,972,1310,0,0
-245,-286,0,0,0,0,0,0,0,0,0,-1,979,1310,0,0
-238,-286,0,0,0,0,0,0,0,0,0,-1,986,1310,0,0
-231,-286,0,0,0,0,0,0,0,0,0,-1,993,1310,0,0
-224,-286,0,0,0,0,0,0,0,0,0,-1,1000,1310,0,0
-217,-286,0,0,0,0,0,0,0,0,0,-1,1007,1310,0,0
-210,-286,0,0,0,0,0,0,0,0,0,-1,1014,1310,0,0
-203,-286,0,0,0,0,0,0,0,0,0,-1,1021,1310,0,0
-196,-286,0,0,0,0,0,0,0,0,0,-1,1028,1310,0,0
-189,-286,0,0,0,0,0,0,0,0,0,-1,1035,1310,0,0
-182,-286,0,0,0,0,0,0,0,0,0,-1,1042,1310,0,0
-175,-286,0,0,0,0,0,0,0,0,0,-1,1049,1310,0,0
-168,-286,0,0,0,0,0,0,0,0,0,-1,1056,1310,0,0
-161,-286,0,0,0,0,0,0,0,0,0,-1,1063,1310,0,0
-154,-286,0,0,0,0,0,0,0,0,0,-1,1070,1310,0,0
-147,-286,0,0,0,0,0,0,0,0,0,-1,1077,1310,0,0
-140,-286,0,0,0,0,0,0,0,0,0,-1,1084,1310,0,0
-133,-286,0,0,0,0,0,0,0,0,0,-1,1091,1310,0,0
-126,-286,0,0,0,0,0,0,0,0,0,-1,1098,1310,0,0
-119,-286,0,0,0,0,0,0,0,0,0,-1,1105,1310,0,0
-112,-286,0,0,0,0,0,0,0,0,0,-1,1112,1310,0,0
-105,-286,0,0,0,0,0,0,0,0,0,-1,1119,1310,0,0
-98,-286,0,0,0,0,0,0,0,0,0,-1,1126,1310,0,0
-91,-286,0,0,0,0,0,0,0,0,0,-1,1133,1310,0,0
-84,-286,0,0,0,0,0,0,0,0,0,-1,1140,1310,0,0
-77,-286,0,0,0,0,0,0,0,0,0,-1,1147,1310,0,0
-70,-286,0,0,0,0,0,0,0,0,0,-1,1154,1310,0,0
-63,-286,0,0,0,0,0,0,0,0,0,-1,1161,1310,0,0
-56,-286,0,0,0,0,0,0,0,0,0,-1,1168,1310,0,0
-49,-286,0,0,0,0,0,0,0,0,0,-1,1175,1310,0,0
-42,-286,0,0,0,0,0,0,0,0,0,-1,1182,1310,0,0
-35,-286,0,0,0,0,0,0,0,0,0,-1,1189,1310,0,0
-28,-286,0,0,0,0,0,0,0,0,0,-1,1196,1310,0,0
-21,-286,0,0,0,0,0,0,0,0,0,-1,1203,1310,0,0
-14,-286,0,0,0,0,0,0,0,0,0,-1,1210,1310,0,0
-7,-286,0,0,0,0,0,0,0,0,0,-1,1217,1310,0,0
0,-286,0,0,0,0,0,0,0,0,0,-1,1224,1310,0,0
7,-286,0,0,0,0,0,0,0,0,0,-1,1231,1310,0,0
14,-286,0,0,0,0,0,0,0,0,0,-1,1238,1310,0,0
21,-286,0,0,0,0,0,0,0,0,0,-1,1245,1310,0,0
28,-286,0,0,0,0,0,0,0,0,0,-1,1252,1310,0,0
35,-286,0,0,0,0,0,0,0,0,0,-1,1259,1310,0,0
42,-286,0,0,0,0,0,0,0,0,0,-1,1266,1310,0,0
49,-286,0,0,0,0,0,0,0,0,0,-1,1273,1310,0,0
56,-286,0,0,0,0,0,0,0,0,0,-1,1280,1310,0,0
63,-286,0,0,0,0,0,0,0,0,0,-1,1287,1310,0,0
70,-286,0,0,0,0,0,0,0,0,0,-1,1294,1310,0,0
77,-286,0,0,0,0,0,0,0,0,0,-1,1301,1310,0,0
84,-286,0,0,0,0,0,0,0,0,0,-1,1308,1310,0,0
91,-286,0,0,0,0,0,0,0,0,0,-1,1315,1310,0,0
98,-286,0,0,0,0,0,0,0,0,0,-1,1322,1310,0,0
105,-286,0,0,0,0,0,0,0,0,0,-1,1329,1310,0,0
112,-286,0,0,0,0,0,0,0,0,0,-1,1336,1310,0,0
119,-286,0,0,0,0,0,0,0,0,0,-1,1343,1310,0,0
126,-286,0,0,0,0,0,0,0,0,0,-1,1350,1310,0,0
133,-286,0,0,0,0,0,0,0,0,0,-1,1357,1310,0,0
140,-286,0,0,0,0,0,0,0,0,0,-1,1364,1310,0,0
147,-286,0,0,0,0,0,0,0,0,0,-1,1371,1310,0,0
154,-286,0,0,0,0,0,0,0,0,0,-1,1378,1310,0,0
161,-286,0,0,0,0,0,0,0,0,0,-1,1385,1310,0,0
168,-286,0,0,0,0,0,0,0,0,0,-1,1392,1310,0,0
175,-286,0,0,0,0,0,0,0,0,0,-1,1399,1310,0,0
182,-286,0,0,0,0,0,0,0,0,0,-1,1406,1310,0,0
189,-286,0,0,0,0,0,0,0,0,0,-1,1413,1310,0,0
196,-286,0,0,0,0,0,0,0,0,0,-1,1420,1310,0,0
203,-286,0,0,0,0,0,0,0,0,0,-1,1427,1310,0,0
210,-286,0,0,0,0,0,0,0,0,0,-1,1434,1310,0,0
217,-286,0,0,0,0,0,0,0,0,0,-1,1441,1310,0,0
224,-286,0,0,0,0,0,0,0,0,0,-1,1448,1310,0,0
231,-286,0,0,0,0,0,0,0,0,0,-1,1455,1310,0,0
238,-286,0,0,0,0,0,0,0,0,0,-1,1462,1310,0,0
245,-286,0,0,0,0,0,0,0,0,0,-1,1469,1310,0,0
252,-286,0,0,0,0,0,0,0,0,0,-1,1476,1310,0,0
259,-286,0,0,0,0,0,0,0,0,0,-1,1483,1310,0,0
266,-286,0,0,0,0,0,0,0,0,0,-1,1490,1310,0,0
273,-286,0,0,0,0,0,0,0,0,0,-1,1497,1310,0,0
280,-286,0,0,0,0,0,0,0,0,0,-1,1504,1310,0,0
287,-286,0,0,0,0,0,0,0,0,0,-1,1511,1310,0,0
294,-286,0,0,0,0,0,0,0,0,0,-1,1518,1310,0,0
301,-286,0,0,0,0,0,0,0,0,0,-1,1525,1310,0,0
308,-286,0,0,0,0,0,0,0,0,0,-1,1532,1310,0,0
315,-286,0,0,0,0,0,0,0,0,0,-1,1539,1310,0,0
322,-286,0,0,0,0,0,0,0,0,0,-1,1546,1310,0,0
329,-286,0,0,0,0,0,0,0,0,0,-1,1553,1310,0,0
336,-286,0,0,0,0,0,0,0,0,0,-1,1560,1310,0,0
343,-286,0,0,0,0,0,0,0,0,0,-1,1567,1310,0,0
350,-286,0,0,0,0,0,0,0,0,0,-1,1574,1310,0,0
357,-286,0,0,0,0,0,0,0,0,0,-1,1581,1310,0,0
364,-286,0,0,0,0,0,0,0,0,0,-1,1588,1310,0,0
371,-286,0,0,0,0,0,0,0,0,0,-1,1595,1310,0,0
378,-286,0,0,0,0,0,0,0,0,0,-1,1602,1310,0,0
385,-286,0,0,0,0,0,0,0,0,0,-1,1609,1310,0,0
392,-286,0,0,0,0,0,0,0,0,0,-1,1616,1310,0,0
399,-286,0,0,0,0,0,0,0,0,0,-1,1623,1310,0,0
406,-286,0,0,0,0,0,0,0,0,0,-1,1630,1310,0,0
413,-286,0,0,0,0,0,0,0,0,0,-1,1637,1310,0,0
420,-286,0,0,0,0,0,0,0,0,0,-1,1644,1310,0,0
427,-286,0,0,0,0,0,0,0,0,0,-1,1651,1310,0,0
434,-286,0,0,0,0,0,0,0,0,0,-1,1658,1310,0,0
441,-286,0,0,0,0,0,0,0,0,0,-1,1665,1310,0,0
448,-286,0,0,0,0,0,0,0,0,0,-1,1672,1310,0,0
455,-286,0,0,0,0,0,0,0,0,0,-1,1679,1310,0,0
462,-286,0,0,0,0,0,0,0,0,0,-1,1686,1310,0,0
469,-286,0,0,0,0,0,0,0,0,0,-1,1693,1310,0,0
476,-286,0,0,0,0,0,0,0,0,0,-1,1700,1310,0,0
483,-286,0,0,0,0,0,0,0,0,0,-1,1707,1310,0,0
490,-286,0,0,0,0,0,0,0,0,0,-1,1714,1310,0,0
497,-286,0,0,0,0,0,0,0,0,0,-1,1721,1310,0,0
504,-286,0,0,0,0,0,0,0,0,0,-1,1728,1310,0,0
511,-286,0,0,0,0,0,0,0,0,0,-1,1735,1310,0,0
518,-286,0,0,0,0,0,0,0,0,0,-1,1742,1310,0,0
525,-286,0,0,0,0,0,0,0,0,0,-1,1749,1310,0,0
532,-286,0,0,0,0,0,0,0,0,0,-1,1756,1310,0,0
539,-286,0,0,0,0,0,0,0,0,0,-1,1763,1310,0,0
546,-286,0,0,0,0,0,0,0,0,0,-1,1770,1310,0,0
553,-286,0,0,0,0,0,0,0,0,0,-1,1777,1310,0,0
560,-286,0,0,0,0,0,0,0,0,0,-1,1784,1310,0,0
567,-286,0,0,0,0,0,0,0,0,0,-1,1791,1310,0,0
574,-286,0,0,0,0,0,0,0,0,0,-1,1798,1310,0,0
581,-286,0,0,0,0,0,0,0,0,0,-1,1805,1310,0,0
588,-286,0,0,0,0,0,0,0,0,0,-1,1812,1310,0,0
595,-286,11.8582,1.86377,-0.0257146,-0.0169896,-0.00528712,-0.0144976,-0.0282067,-1.13033,0.0162873,0.0398926,1819,1310,11.8582,-1.86375
602,-286,12.0475,1.90417,-0.0139726,-0.0117078,-0.0109362,-0.00184553,-0.0238349,-0.836988,0.0153119,0.0451499,1826,1310,12.0475,-1.90418
609,-286,12.1536,1.94189,0.00179391,-0.00997733,-0.0160789,0.0130306,-0.021214,-0.60995,0.0199584,0.0467999,1833,1310,12.1536,-1.94194
616,-286,12.2501,1.52185,0,0,0,0,0,0,0,-1,1840,1310,12.2501,-1.52191
623,-286,6.72083,5.25159,0,0,0,0,0,0,0,-1,1847,1310,6.7208,-5.25157
630,-286,7.22693,4.28101,0,0,0,0,0,0,0,-1,1854,1310,7.22699,-4.28095
637,-286,7.82825,3.40027,0.033558,-0.0149042,-0.0174597,0.0391931,-0.0205392,-0.312192,0.0350425,0.0442405,1861,1310,7.8283,-3.40027
644,-286,9.1012,2.22559,0.0344071,-0.0152251,-0.0153302,0.0387604,-0.0195784,-0.276686,0.0342835,0.0418098,1868,1310,9.1012,-2.22562
651,-286,10.1329,1.14612,0,0,0,0,0,0,0,-1,1875,1310,10.133,-1.14617
658,-286,10.0028,3.26782,0.0320281,-0.0148487,-0.0106326,0.034327,-0.0171476,-0.212938,0.0302656,0.0429701,1882,1310,10.0028,-3.26786
665,-286,9.86316,3.17761,0.0288923,-0.0143213,-0.00818973,0.0303924,-0.0158213,-0.181152,0.0271199,0.0381082,1889,1310,9.86312,-3.17762
672,-286,9.66321,3.07385,0.0238005,-0.0133262,-0.00552677,0.0246057,-0.0141315,-0.144684,0.0226358,0.0228122,1896,1310,9.66325,-3.07382
679,-286,9.59778,3.0033,0.0171838,-0.0108158,-0.00305505,0.0175133,-0.0111452,-0.107426,0.0166816,0.0191142,1903,1310,9.5978,-3.00325
686,-286,9.61597,2.89856,0.011578,-0.00838744,-0.00114388,0.0116433,-0.00845277,-0.0570441,0.0116511,0.0189995,1910,1310,9.616,-2.89855
693,-286,9.58777,2.79492,0.0060241,-0.00644226,0.000981851,0.00610096,-0.00651911,0.0781181,0.00728754,0.0151552,1917,1310,9.58779,-2.7949
700,-286,9.58386,2.68811,0.00235346,-0.00471293,0.00204343,0.00290182,-0.00526128,0.262175,0.00477814,0.0111022,1924,1310,9.58381,-2.68815
707,-286,9.59961,2.60803,0.00124541,-0.00353191,0.000995392,0.00144451,-0.00373101,0.197417,0.00308376,0.00852389,1931,1310,9.59958,-2.608
714,-286,9.59888,2.51526,0.00227634,-0.00303774,-0.000173945,0.00228203,-0.00304343,-0.0326861,0.00308512,0.00845796,1938,1310,9.59891,-2.51523
721,-286,9.61475,2.4165,0.00429508,-0.00398013,-0.00163824,0.0046076,-0.00429265,-0.188501,0.00513963,0.01095,1945,1310,9.61479,-2.41645
728,-286,9.61853,2.32813,0.00612531,-0.00510675,-0.0034842,0.00711832,-0.00609976,-0.277644,0.00763901,0.0133295,1952,1310,9.61855,-2.32813
735,-286,9.59485,2.23291,0.00845864,-0.00686939,-0.00577921,0.0103934,-0.00880414,-0.323051,0.0110964,0.0145951,1959,1310,9.59487,-2.23292
742,-286,9.58069,2.08447,0.0114071,-0.00897649,-0.00917966,0.0149316,-0.0125011,-0.366599,0.015859,0.0236652,1966,1310,9.58065,-2.08453
749,-286,9.69067,1.80029,0.0151174,-0.0113093,-0.014245,0.0213337,-0.0175257,-0.411476,0.0224714,0.0377167,1973,1310,9.69068,-1.80026
756,-286,9.87,1.4021,0.0197523,-0.0136282,-0.0216295,0.0303824,-0.0242582,-0.456793,0.0316127,0.0458971,1980,1310,9.87004,-1.40216
763,-286,9.8772,1.14758,0,0,0,0,0,0,0,-1,1987,1310,9.87715,-1.14753
770,-286,12.5054,-0.27771,0,0,0,0,0,0,0,-1,1994,1310,12.5054,0.277745
777,-286,0,0,0,0,0,0,0,0,0,-1,2001,1310,0,0
784,-286,0,0,0,0,0,0,0,0,0,-1,2008,1310,0,0
791,-286,0,0,0,0,0,0,0,0,0,-1,2015,1310,0,0
798,-286,0,0,0,0,0,0,0,0,0,-1,2022,1310,0,0
805,-286,0,0,0,0,0,0,0,0,0,-1,2029,1310,0,0
812,-286,0,0,0,0,0,0,0,0,0,-1,2036,1310,0,0
-700,-293,0,0,0,0,0,0,0,0,0,-1,524,1317,0,0
-693,-293,0,0,0,0,0,0,0,0,0,-1,531,1317,0,0
-686,-293,0,0,0,0,0,0,0,0,0,-1,538,1317,0,0
-679,-293,0,0,0,0,0,0,0,0,0,-1,545,1317,0,0
-672,-293,0,0,0,0,0,0,0,0,0,-1,552,1317,0,0
-665,-293,0,0,0,0,0,0,0,0,0,-1,559,1317,0,0
-658,-293,0,0,0,0,0,0,0,0,0,-1,566,1317,0,0
-651,-293,-3.25299,-1.20801,0,0,0,0,0,0,0,-1,573,1317,-3.25298,1.20805
-644,-293,-3.06,-0.644531,0.0163314,-0.0193045,-0.0306658,0.0339799,-0.036953,-0.522219,0.0409651,0.044595,580,1317,-3.06,0.644584
-637,-293,-2.46906,-0.424683,0.00871864,-0.0171928,-0.0241447,0.023164,-0.0316381,-0.539155,0.0317659,0.0420797,587,1317,-2.46908,0.424741
-630,-293,-3.41724,-0.878784,0.00367236,-0.0145293,-0.0186138,0.0152911,-0.026148,-0.558023,0.024197,0.0454283,594,1317,-3.41724,0.87881
-623,-293,-3.46429,-0.406128,0.000557528,-0.0116784,-0.0139915,0.00971013,-0.020831,-0.579291,0.0180184,0.043135,601,1317,-3.46429,0.40617
-616,-293,-3.37555,0.0805664,-0.00112757,-0.00892354,-0.0102187,0.00591139,-0.0159625,-0.603189,0.0130658,0.0420458,608,1317,-3.37554,-0.0805991
-609,-293,-3.35089,0.771606,-0.00224297,-0.00630961,-0.00708999,0.00309951,-0.0116521,-0.645753,0.00898131,0.0356996,615,1317,-3.3509,-0.771639
-602,-293,-3.28864,0.987427,-0.00234682,-0.00482655,-0.00475734,0.00132957,-0.00850294,-0.657923,0.00615983,0.0235138,622,1317,-3.28862,-0.987412
-595,-293,-3.33661,1.10107,-0.00266896,-0.00321197,-0.00317533,0.000246445,-0.00612738,-0.742749,0.0041695,0.0136421,629,1317,-3.33663,-1.10111
-588,-293,-3.31696,1.19324,-0.00275127,-0.00183107,-0.00146317,-0.000757364,-0.00382498,-0.93773,0.00233877,0.0140848,636,1317,-3.31694,-1.19319
-581,-293,-3.29712,1.31982,-0.00121705,-0.000662528,-0.000688427,-0.000197625,-0.00168195,-0.976832,0.00106157,0.0162796,643,1317,-3.29713,-1.31981
-574,-293,-3.30664,1.44214,0.00121191,-7.10627e-05,-0.000277894,0.00126951,-0.000128669,-0.2044,0.000892328,0.0152133,650,1317,-3.30661,-1.44212
-567,-293,-3.33411,1.5636,0.00250276,-0.000800561,-0.000889912,0.00272725,-0.00102505,-0.247101,0.00223946,0.015904,657,1317,-3.3341,-1.56365
-560,-293,-3.31757,1.67163,0.00376484,-0.00205207,-0.00230139,0.00456523,-0.00285246,-0.334699,0.00432049,0.0164469,664,1317,-3.31759,-1.67167
-553,-293,-3.26984,1.75879,0.00587752,-0.00381278,-0.00381795,0.00720101,-0.00513628,-0.333689,0.00715611,0.0107345,671,1317,-3.26981,-1.7588
-546,-293,-3.27789,1.88538,0.0088739,-0.00482645,-0.00620865,0.0112688,-0.00722139,-0.368156,0.0107603,0.00969183,678,1317,-3.27792,-1.88542
-539,-293,-3.28827,1.98889,0.0120738,-0.00632734,-0.00874052,0.0155637,-0.0098172,-0.379881,0.0147783,0.0198172,685,1317,-3.28825,-1.98885
-532,-293,-3.25885,1.87537,0.0166982,-0.00814212,-0.0118528,0.0214463,-0.0128902,-0.381014,0.0200283,0.0387277,692,1317,-3.25884,-1.87535
-525,-293,-3.10339,1.71362,0.0213528,-0.0099168,-0.01534,0.0276215,-0.0161855,-0.387941,0.0255776,0.0445898,699,1317,-3.10337,-1.71357
-518,-293,-2.97522,1.61963,0,0,0,0,0,0,0,-1,706,1317,-2.97523,-1.61966
-511,-293,-7.02179,2.86353,0.0359592,-0.0137223,-0.0214096,0.0439122,-0.0216754,-0.355673,0.0385856,0.0467348,713,1317,-7.02178,-2.86349
-504,-293,-6.9577,2.76074,0.045211,-0.0156461,-0.0242795,0.0537105,-0.0241455,-0.336735,0.0460178,0.0445323,720,1317,-6.95771,-2.76077
-497,-293,-5.85419,1.8186,0,0,0,0,0,0,0,-1,727,1317,-5.85418,-1.81864
-490,-293,-5.57941,1.28625,0.0705814,-0.0195143,-0.0269021,0.0780029,-0.0269358,-0.269175,0.0629323,0.0466563,734,1317,-5.57939,-1.28625
-483,-293,-5.30566,0.759521,0.0880742,-0.0211662,-0.0257578,0.093843,-0.026935,-0.220327,0.073211,0.0469217,741,1317,-5.30566,-0.759578
-476,-293,-4.85071,0.22998,0,0,0,0,0,0,0,-1,748,1317,-4.8507,-0.229949
-469,-293,0,0,0,0,0,0,0,0,0,-1,755,1317,0,0
-462,-293,0,0,0,0,0,0,0,0,0,-1,762,1317,0,0
-455,-293,0,0,0,0,0,0,0,0,0,-1,769,1317,0,0
-448,-293,0,0,0,0,0,0,0,0,0,-1,776,1317,0,0
-441,-293,0,0,0,0,0,0,0,0,0,-1,783,1317,0,0
-434,-293,0,0,0,0,0,0,0,0,0,-1,790,1317,0,0
-427,-293,0,0,0,0,0,0,0,0,0,-1,797,1317,0,0
-420,-293,0,0,0,0,0,0,0,0,0,-1,804,1317,0,0
-413,-293,0,0,0,0,0,0,0,0,0,-1,811,1317,0,0
-406,-293,0,0,0,0,0,0,0,0,0,-1,818,1317,0,0
-399,-293,0,0,0,0,0,0,0,0,0,-1,825,1317,0,0
-392,-293,0,0,0,0,0,0,0,0,0,-1,832,1317,0,0
-385,-293,0,0,0,0,0,0,0,0,0,-1,839,1317,0,0
-378,-293,0,0,0,0,0,0,0,0,0,-1,846,1317,0,0
-371,-293,0,0,0,0,0,0,0,0,0,-1,853,1317,0,0
-364,-293,0,0,0,0,0,0,0,0,0,-1,860,1317,0,0
-357,-293,0,0,0,0,0,0,0,0,0,-1,867,1317,0,0
-350,-293,0,0,0,0,0,0,0,0,0,-1,874,1317,0,0
-343,-293,0,0,0,0,0,0,0,0,0,-1,881,1317,0,0
-336,-293,0,0,0,0,0,0,0,0,0,-1,888,1317,0,0
-329,-293,0,0,0,0,0,0,0,0,0,-1,895,1317,0,0
-322,-293,0,0,0,0,0,0,0,0,0,-1,902,1317,0,0
-315,-293,0,0,0,0,0,0,0,0,0,-1,909,1317,0,0
-308,-293,0,0,0,0,0,0,0,0,0,-1,916,1317,0,0
-301,-293,0,0,0,0,0,0,0,0,0,-1,923,1317,0,0
-294,-293,0,0,0,0,0,0,0,0,0,-1,930,1317,0,0
-287,-293,0,0,0,0,0,0,0,0,0,-1,937,1317,0,0
-280,-293,0,0,0,0,0,0,0,0,0,-1,944,1317,0,0
-273,-293,0,0,0,0,0,0,0,0,0,-1,951,1317,0,0
-266,-293,0,0,0,0,0,0,0,0,0,-1,958,1317,0,0
-259,-293,0,0,0,0,0,0,0,0,0,-1,965,1317,0,0
-252,-293,0,0,0,0,0,0,0,0,0,-1,972,1317,0,0
-245,-293,0,0,0,0,0,0,0,0,0,-1,979,1317,0,0
-238,-293,0,0,0,0,0,0,0,0,0,-1,986,1317,0,0
-231,-293,0,0,0,0,0,0,0,0,0,-1,993,1317,0,0
-224,-293,0,0,0,0,0,0,0,0,0,-1,1000,1317,0,0
-217,-293,0,0,0,0,0,0,0,0,0,-1,1007,1317,0,0
-210,-293,0,0,0,0,0,0,0,0,0,-1,1014,1317,0,0
-203,-293,0,0,0,0,0,0,0,0,0,-1,1021,1317,0,0
-196,-293,0,0,0,0,0,0,0,0,0,-1,1028,1317,0,0
-189,-293,0,0,0,0,0,0,0,0,0,-1,1035,1317,0,0
-182,-293,0,0,0,0,0,0,0,0,0,-1,1042,1317,0,0
-175,-293,0,0,0,0,0,0,0,0,0,-1,1049,1317,0,0
-168,-293,0,0,0,0,0,0,0,0,0,-1,1056,1317,0,0
-161,-293,0,0,0,0,0,0,0,0,0,-1,1063,1317,0,0
-154,-293,0,0,0,0,0,0,0,0,0,-1,1070,1317,0,0
-147,-293,0,0,0,0,0,0,0,0,0,-1,1077,1317,0,0
-140,-293,0,0,0,0,0,0,0,0,0,-1,1084,1317,0,0
-133,-293,0,0,0,0,0,0,0,0,0,-1,1091,1317,0,0
-126,-293,0,0,0,0,0,0,0,0,0,-1,1098,1317,0,0
-119,-293,0,0,0,0,0,0,0,0,0,-1,1105,1317,0,0
-112,-293,0,0,0,0,0,0,0,0,0,-1,1112,1317,0,0
-105,-293,0,0,0,0,0,0,0,0,0,-1,1119,1317,0,0
-98,-293,0,0,0,0,0,0,0,0,0,-1,1126,1317,0,0
-91,-293,0,0,0,0,0,0,0,0,0,-1,1133,1317,0,0
-84,-293,0,0,0,0,0,0,0,0,0,-1,1140,1317,0,0
-77,-293,0,0,0,0,0,0,0,0,0,-1,1147,1317,0,0
-70,-293,0,0,0,0,0,0,0,0,0,-1,1154,1317,0,0
-63,-293,0,0,0,0,0,0,0,0,0,-1,1161,1317,0,0
-56,-293,0,0,0,0,0,0,0,0,0,-1,1168,1317,0,0
-49,-293,0,0,0,0,0,0,0,0,0,-1,1175,1317,0,0
-42,-293,0,0,0,0,0,0,0,0,0,-1,1182,1317,0,0
-35,-293,0,0,0,0,0,0,0,0,0,-1,1189,1317,0,0
-28,-293,0,0,0,0,0,0,0,0,0,-1,1196,1317,0,0
-21,-293,0,0,0,0,0,0,0,0,0,-1,1203,1317,0,0
-14,-293,0,0,0,0,0,0,0,0,0,-1,1210,1317,0,0
-7,-293,0,0,0,0,0,0,0,0,0,-1,1217,1317,0,0
0,-293,0,0,0,0,0,0,0,0,0,-1,1224,1317,0,0
7,-293,0,0,0,0,0,0,0,0,0,-1,1231,1317,0,0
14,-293,0,0,0,0,0,0,0,0,0,-1,1238,1317,0,0
21,-293,0,0,0,0,0,0,0,0,0,-1,1245,1317,0,0
28,-293,0,0,0,0,0,0,0,0,0,-1,1252,1317,0,0
35,-293,0,0,0,0,0,0,0,0,0,-1,1259,1317,0,0
42,-293,0,0,0,0,0,0,0,0,0,-1,1266,1317,0,0
49,-293,0,0,0,0,0,0,0,0,0,-1,1273,1317,0,0
56,-293,0,0,0,0,0,0,0,0,0,-1,1280,1317,0,0
63,-293,0,0,0,0,0,0,0,0,0,-1,1287,1317,0,0
70,-293,0,0,0,0,0,0,0,0,0,-1,1294,1317,0,0
77,-293,0,0,0,0,0,0,0,0,0,-1,1301,1317,0,0
84,-293,0,0,0,0,0,0,0,0,0,-1,1308,1317,0,0
91,-293,0,0,0,0,0,0,0,0,0,-1,1315,1317,0,0
98,-293,0,0,0,0,0,0,0,0,0,-1,1322,1317,0,0
105,-293,0,0,0,0,0,0,0,0,0,-1,1329,1317,0,0
112,-293,0,0,0,0,0,0,0,0,0,-1,1336,1317,0,0
119,-293,0,0,0,0,0,0,0,0,0,-1,1343,1317,0,0
126,-293,0,0,0,0,0,0,0,0,0,-1,1350,1317,0,0
133,-293,0,0,0,0,0,0,0,0,0,-1,1357,1317,0,0
140,-293,0,0,0,0,0,0,0,0,0,-1,1364,1317,0,0
147,-293,0,0,0,0,0,0,0,0,0,-1,1371,1317,0,0
154,-293,0,0,0,0,0,0,0,0,0,-1,1378,1317,0,0
161,-293,0,0,0,0,0,0,0,0,0,-1,1385,1317,0,0
168,-293,0,0,0,0,0,0,0,0,0,-1,1392,1317,0,0
175,-293,0,0,0,0,0,0,0,0,0,-1,1399,1317,0,0
182,-293,0,0,0,0,0,0,0,0,0,-1,1406,1317,0,0
189,-293,0,0,0,0,0,0,0,0,0,-1,1413,1317,0,0
196,-293,0,0,0,0,0,0,0,0,0,-1,1420,1317,0,0
203,-293,0,0,0,0,0,0,0,0,0,-1,1427,1317,0,0
210,-293,0,0,0,0,0,0,0,0,0,-1,1434,1317,0,0
217,-293,0,0,0,0,0,0,0,0,0,-1,1441,1317,0,0
224,-293,0,0,0,0,0,0,0,0,0,-1,1448,1317,0,0
231,-293,0,0,0,0,0,0,0,0,0,-1,1455,1317,0,0
238,-293,0,0,0,0,0,0,0,0,0,-1,1462,1317,0,0
245,-293,0,0,0,0,0,0,0,0,0,-1,1469,1317,0,0
252,-293,0,0,0,0,0,0,0,0,0,-1,1476,1317,0,0
259,-293,0,0,0,0,0,0,0,0,0,-1,1483,1317,0,0
266,-293,0,0,0,0,0,0,0,0,0,-1,1490,1317,0,0
273,-293,0,0,0,0,0,0,0,0,0,-1,1497,1317,0,0
280,-293,0,0,0,0,0,0,0,0,0,-1,1504,1317,0,0
287,-293,0,0,0,0,0,0,0,0,0,-1,1511,1317,0,0
294,-293,0,0,0,0,0,0,0,0,0,-1,1518,1317,0,0
301,-293,0,0,0,0,0,0,0,0,0,-1,1525,1317,0,0
308,-293,0,0,0,0,0,0,0,0,0,-1,1532,1317,0,0
315,-293,0,0,0,0,0,0,0,0,0,-1,1539,1317,0,0
322,-293,0,0,0,0,0,0,0,0,0,-1,1546,1317,0,0
329,-293,0,0,0,0,0,0,0,0,0,-1,1553,1317,0,0
336,-293,0,0,0,0,0,0,0,0,0,-1,1560,1317,0,0
343,-293,0,0,0,0,0,0,0,0,0,-1,1567,1317,0,0
350,-293,0,0,0,0,0,0,0,0,0,-1,1574,1317,0,0
357,-293,0,0,0,0,0,0,0,0,0,-1,1581,1317,0,0
364,-293,0,0,0,0,0,0,0,0,0,-1,1588,1317,0,0
371,-293,0,0,0,0,0,0,0,0,0,-1,1595,1317,0,0
378,-293,0,0,0,0,0,0,0,0,0,-1,1602,1317,0,0
385,-293,0,0,0,0,0,0,0,0,0,-1,1609,1317,0,0
392,-293,0,0,0,0,0,0,0,0,0,-1,1616,1317,0,0
399,-293,0,0,0,0,0,0,0,0,0,-1,1623,1317,0,0
406,-293,0,0,0,0,0,0,0,0,0,-1,1630,1317,0,0
413,-293,0,0,0,0,0,0,0,0,0,-1,1637,1317,0,0
420,-293,0,0,0,0,0,0,0,0,0,-1,1644,1317,0,0
427,-293,0,0,0,0,0,0,0,0,0,-1,1651,1317,0,0
434,-293,0,0,0,0,0,0,0,0,0,-1,1658,1317,0,0
441,-293,0,0,0,0,0,0,0,0,0,-1,1665,1317,0,0
448,-293,0,0,0,0,0,0,0,0,0,-1,1672,1317,0,0
455,-293,0,0,0,0,0,0,0,0,0,-1,1679,1317,0,0
462,-293,0,0,0,0,0,0,0,0,0,-1,1686,1317,0,0
469,-293,0,0,0,0,0,0,0,0,0,-1,1693,1317,0,0
476,-293,0,0,0,0,0,0,0,0,0,-1,1700,1317,0,0
483,-293,0,0,0,0,0,0,0,0,0,-1,1707,1317,0,0
490,-293,0,0,0,0,0,0,0,0,0,-1,1714,1317,0,0
497,-293,0,0,0,0,0,0,0,0,0,-1,1721,1317,0,0
504,-293,0,0,0,0,0,0,0,0,0,-1,1728,1317,0,0
511,-293,0,0,0,0,0,0,0,0,0,-1,1735,1317,0,0
518,-293,0,0,0,0,0,0,0,0,0,-1,1742,1317,0,0
525,-293,0,0,0,0,0,0,0,0,0,-1,1749,1317,0,0
532,-293,0,0,0,0,0,0,0,0,0,-1,1756,1317,0,0
539,-293,0,0,0,0,0,0,0,0,0,-1,1763,1317,0,0
546,-293,0,0,0,0,0,0,0,0,0,-1,1770,1317,0,0
553,-293,0,0,0,0,0,0,0,0,0,-1,1777,1317,0,0
560,-293,0,0,0,0,0,0,0,0,0,-1,1784,1317,0,0
567,-293,0,0,0,0,0,0,0,0,0,-1,1791,1317,0,0
574,-293,0,0,0,0,0,0,0,0,0,-1,1798,1317,0,0
581,-293,0,0,0,0,0,0,0,0,0,-1,1805,1317,0,0
588,-293,0,0,0,0,0,0,0,0,0,-1,1812,1317,0,0
595,-293,12.1124,2.10815,-0.0260052,-0.0208639,-0.0103513,-0.0127688,-0.0341003,-0.907105,0.0198936,0.0438246,1819,1317,12.1124,-2.10819
602,-293,12.3016,2.22986,-0.014727,-0.0152105,-0.0148091,-0.000157702,-0.0297798,-0.777238,0.0198008,0.0462889,1826,1317,12.3017,-2.22989
609,-293,12.3267,2.04431,0,0,0,0,0,0,0,-1,1833,1317,12.3266,-2.04432
616,-293,12.0247,3.15015,0,0,0,0,0,0,0,-1,1840,1317,12.0247,-3.15019
623,-293,11.4619,3.65173,0,0,0,0,0,0,0,-1,1847,1317,11.4619,-3.65167
630,-293,6.89355,4.69373,0,0,0,0,0,0,0,-1,1854,1317,6.89357,-4.69369
637,-293,7.67896,3.61426,0.0294744,-0.0149865,-0.0190246,0.0365036,-0.0220157,-0.353922,0.0341296,0.0495351,1861,1317,7.67892,-3.61423
644,-293,8.98657,2.59766,0.030804,-0.014912,-0.0168831,0.0363631,-0.020471,-0.318086,0.033238,0.0481544,1868,1317,8.98663,-2.59769
651,-293,9.67883,2.83777,0,0,0,0,0,0,0,-1,1875,1317,9.67879,-2.83781
658,-293,9.60803,3.02844,0.0295819,-0.0142165,-0.0121506,0.0327269,-0.0173615,-0.253277,0.0293686,0.0387297,1882,1317,9.60803,-3.02847
665,-293,9.59937,3.08984,0.0269327,-0.0136513,-0.00962387,0.0290992,-0.0158178,-0.221426,0.026308,0.0287105,1889,1317,9.59941,-3.0899
672,-293,9.50122,3.08496,0.0220683,-0.0125743,-0.00675556,0.023339,-0.0138451,-0.185934,0.0217003,0.0147423,1896,1317,9.50124,-3.08497
679,-293,9.49841,2.97717,0.0157644,-0.00994201,-0.00396679,0.0163626,-0.0105402,-0.149674,0.0156531,0.0115323,1903,1317,9.49846,-2.97722
686,-293,9.51611,2.86035,0.0106146,-0.00764088,-0.00185118,0.0108004,-0.00782671,-0.100047,0.0108,0.0134938,1910,1317,9.51613,-2.86031
693,-293,9.52283,2.7655,0.00563479,-0.00587404,0.000432735,0.00565104,-0.00589028,0.0375296,0.00666386,0.0115124,1917,1317,9.52283,-2.76554
700,-293,9.49902,2.6698,0.00253836,-0.00454165,0.00157628,0.00287345,-0.00487674,0.20946,0.00452412,0.0108677,1924,1317,9.49899,-2.66982
707,-293,9.50049,2.60449,0.00207272,-0.00395516,0.000788094,0.00217405,-0.00405649,0.127878,0.00365152,0.0107187,1931,1317,9.50045,-2.60444
714,-293,9.5105,2.51868,0.0032535,-0.00403814,-0.000161657,0.00325708,-0.00404172,-0.0221557,0.00422208,0.00759409,1938,1317,9.51047,-2.51871
721,-293,9.52661,2.40576,0.00528502,-0.0056202,-0.0014574,0.00547644,-0.00581161,-0.13059,0.00651812,0.00928015,1945,1317,9.52661,-2.40572
728,-293,9.53113,2.30212,0.00732624,-0.00763256,-0.00311662,0.0079496,-0.00825592,-0.197407,0.00935681,0.0113175,1952,1317,9.53114,-2.30218
735,-293,9.50305,2.21472,0.00991974,-0.0105717,-0.00530601,0.0112122,-0.0118641,-0.238923,0.0133249,0.0148728,1959,1317,9.50304,-2.21468
742,-293,9.37988,2.13977,0.0131591,-0.0142388,-0.00861483,0.0156428,-0.0167225,-0.280688,0.0186895,0.0251724,1966,1317,9.37994,-2.13973
749,-293,9.46338,1.75598,0.017169,-0.0185787,-0.0135966,0.0217527,-0.0231624,-0.325157,0.025936,0.0375695,1973,1317,9.46339,-1.75603
756,-293,9.55859,1.38159,0,0,0,0,0,0,0,-1,1980,1317,9.55857,-1.38158
763,-293,8.4137,2.38745,0,0,0,0,0,0,0,-1,1987,1317,8.41376,-2.38741
770,-293,13.6322,-0.689819,0,0,0,0,0,0,0,-1,1994,1317,13.6322,0.689824
777,-293,0,0,0,0,0,0,0,0,0,-1,2001,1317,0,0
784,-293,0,0,0,0,0,0,0,0,0,-1,2008,1317,0,0
791,-293,0,0,0,0,0,0,0,0,0,-1,2015,1317,0,0
798,-293,0,0,0,0,0,0,0,0,0,-1,2022,1317,0,0
805,-293,0,0,0,0,0,0,0,0,0,-1,2029,1317,0,0
812,-293,0,0,0,0,0,0,0,0,0,-1,2036,1317,0,0
-700,-300,0,0,0,0,0,0,0,0,0,-1,524,1324,0,0
-693,-300,0,0,0,0,0,0,0,0,0,-1,531,1324,0,0
-686,-300,0,0,0,0,0,0,0,0,0,-1,538,1324,0,0
-679,-300,0,0,0,0,0,0,0,0,0,-1,545,1324,0,0
-672,-300,0,0,0,0,0,0,0,0,0,-1,552,1324,0,0
-665,-300,0,0,0,0,0,0,0,0,0,-1,559,1324,0,0
-658,-300,0,0,0,0,0,0,0,0,0,-1,566,1324,0,0
-651,-300,-4.30518,-0.130005,0.0108154,-0.0239685,-0.045472,0.0421079,-0.055261,-0.602744,0.0563867,0.0460205,573,1324,-4.3052,0.129971
-644,-300,-3.19727,0.0308838,0.000928539,-0.0228484,-0.0373713,0.0282568,-0.0501767,-0.631401,0.0458693,0.0470495,580,1324,-3.19724,-0.0308384
-637,-300,-2.11914,0.0483398,-0.00487237,-0.0203173,-0.0301799,0.0185574,-0.0437471,-0.660145,0.0369385,0.042587,587,1324,-2.11916,-0.0483225
-630,-300,-2.46173,-0.212158,-0.00781141,-0.0170864,-0.0238949,0.0118919,-0.0367897,-0.68955,0.029306,0.0469891,594,1324,-2.46175,0.212166
-623,-300,-3.21478,-0.759399,-0.00876036,-0.0136442,-0.0184833,0.00744165,-0.0298462,-0.719721,0.0227867,0.0446125,601,1324,-3.2148,0.759368
-616,-300,-3.15204,-0.166382,-0.00840319,-0.0103422,-0.0139257,0.00458671,-0.0233321,-0.750644,0.0172877,0.0440775,608,1324,-3.15205,0.166338
-609,-300,-3.28101,0.837036,-0.00761136,-0.00733967,-0.0101074,0.00263282,-0.0175838,-0.792118,0.0126915,0.0405802,615,1324,-3.28104,-0.837028
-602,-300,-3.17157,1.04822,-0.00621347,-0.00544437,-0.00716646,0.00134785,-0.0130057,-0.812202,0.00915288,0.0277989,622,1324,-3.17159,-1.04826
-595,-300,-3.23309,1.10718,-0.00552557,-0.00350453,-0.00502991,0.000615368,-0.00964547,-0.884529,0.00664494,0.0154768,629,1324,-3.23309,-1.10713
-588,-300,-3.21655,1.20508,-0.0047176,-0.00193051,-0.00273024,-0.000258741,-0.00638937,-1.02137,0.00417601,0.018851,636,1324,-3.21654,-1.20504
-581,-300,-3.1991,1.31775,-0.00233264,-0.000573922,-0.00153656,0.000317106,-0.00322367,-1.0453,0.00226224,0.0192462,643,1324,-3.19912,-1.31769
-574,-300,-3.18488,1.43896,0.000662839,7.92213e-05,-0.00077716,0.00120117,-0.000459108,-0.605802,0.000989961,0.0151215,650,1324,-3.18484,-1.43901
-567,-300,-3.19934,1.55945,0.00212297,-0.000499661,-0.00112977,0.00254253,-0.000919224,-0.355583,0.0020706,0.0160807,657,1324,-3.19932,-1.55941
-560,-300,-3.2085,1.67822,0.00326852,-0.00187999,-0.00237356,0.00419578,-0.00280724,-0.372429,0.0040696,0.0149501,664,1324,-3.20848,-1.67827
-553,-300,-3.16412,1.77539,0.0051111,-0.00374974,-0.00379785,0.00651612,-0.00515475,-0.354335,0.00675344,0.0103539,671,1324,-3.16413,-1.77534
-546,-300,-3.18195,1.8822,0.00789202,-0.00501178,-0.00606285,0.0102937,-0.00741342,-0.377161,0.0102682,0.00846158,678,1324,-3.18192,-1.88217
-539,-300,-3.19025,2.0011,0.0109598,-0.00670952,-0.00854466,0.0144159,-0.0101656,-0.384357,0.0142627,0.0110072,685,1324,-3.19026,-2.00107
-532,-300,-3.29242,1.99963,0.015598,-0.00874087,-0.0115736,0.0202227,-0.0133656,-0.380154,0.0195264,0.0231026,692,1324,-3.29244,-1.99957
-525,-300,-3.08667,1.77686,0.0203013,-0.0108266,-0.0150821,0.0264101,-0.0169354,-0.384837,0.025224,0.0398343,699,1324,-3.08667,-1.77683
-518,-300,-3.01495,1.42102,0.0273341,-0.0126658,-0.018107,0.034313,-0.0196448,-0.367882,0.0315339,0.047621,706,1324,-3.01497,-1.42103
-511,-300,-2.70996,1.28589,0,0,0,0,0,0,0,-1,713,1324,-2.70995,-1.28588
-504,-300,-6.54236,3.46008,0,0,0,0,0,0,0,-1,720,1324,-6.54236,-3.46012
-497,-300,0.767334,-3.65747,0,0,0,0,0,0,0,-1,727,1324,0.767334,3.65749
-490,-300,-5.64319,1.46057,0,0,0,0,0,0,0,-1,734,1324,-5.64322,-1.46052
-483,-300,-5.17041,1.11389,0.0931673,-0.0216407,-0.0229036,0.0975678,-0.0260411,-0.189817,0.075243,0.0441697,741,1324,-5.1704,-1.11394
-476,-300,-4.51672,0.400757,0,0,0,0,0,0,0,-1,748,1324,-4.51675,-0.400769
-469,-300,0,0,0,0,0,0,0,0,0,-1,755,1324,0,0
-462,-300,0,0,0,0,0,0,0,0,0,-1,762,1324,0,0
-455,-300,0,0,0,0,0,0,0,0,0,-1,769,1324,0,0
-448,-300,0,0,0,0,0,0,0,0,0,-1,776,1324,0,0
-441,-300,0,0,0,0,0,0,0,0,0,-1,783,1324,0,0
-434,-300,0,0,0,0,0,0,0,0,0,-1,790,1324,0,0
-427,-300,0,0,0,0,0,0,0,0,0,-1,797,1324,0,0
-420,-300,0,0,0,0,0,0,0,0,0,-1,804,1324,0,0
-413,-300,0,0,0,0,0,0,0,0,0,-1,811,1324,0,0
-406,-300,0,0,0,0,0,0,0,0,0,-1,818,1324,0,0
-399,-300,0,0,0,0,0,0,0,0,0,-1,825,1324,0,0
-392,-300,0,0,0,0,0,0,0,0,0,-1,832,1324,0,0
-385,-300,0,0,0,0,0,0,0,0,0,-1,839,1324,0,0
-378,-300,0,0,0,0,0,0,0,0,0,-1,846,1324,0,0
-371,-300,0,0,0,0,0,0,0,0,0,-1,853,1324,0,0
-364,-300,0,0,0,0,0,0,0,0,0,-1,860,1324,0,0
-357,-300,0,0,0,0,0,0,0,0,0,-1,867,1324,0,0
-350,-300,0,0,0,0,0,0,0,0,0,-1,874,1324,0,0
-343,-300,0,0,0,0,0,0,0,0,0,-1,881,1324,0,0
-336,-300,0,0,0,0,0,0,0,0,0,-1,888,1324,0,0
-329,-300,0,0,0,0,0,0,0,0,0,-1,895,1324,0,0
-322,-300,0,0,0,0,0,0,0,0,0,-1,902,1324,0,0
-315,-300,0,0,0,0,0,0,0,0,0,-1,909,1324,0,0
-308,-300,0,0,0,0,0,0,0,0,0,-1,916,1324,0,0
-301,-300,0,0,0,0,0,0,0,0,0,-1,923,1324,0,0
-294,-300,0,0,0,0,0,0,0,0,0,-1,930,1324,0,0
-287,-300,0,0,0,0,0,0,0,0,0,-1,937,1324,0,0
-280,-300,0,0,0,0,0,0,0,0,0,-1,944,1324,0,0
-273,-300,0,0,0,0,0,0,0,0,0,-1,951,1324,0,0
-266,-300,0,0,0,0,0,0,0,0,0,-1,958,1324,0,0
-259,-300,0,0,0,0,0,0,0,0,0,-1,965,1324,0,0
-252,-300,0,0,0,0,0,0,0,0,0,-1,972,1324,0,0
-245,-300,0,0,0,0,0,0,0,0,0,-1,979,1324,0,0
-238,-300,0,0,0,0,0,0,0,0,0,-1,986,1324,0,0
-231,-300,0,0,0,0,0,0,0,0,0,-1,993,1324,0,0
-224,-300,0,0,0,0,0,0,0,0,0,-1,1000,1324,0,0
-217,-300,0,0,0,0,0,0,0,0,0,-1,1007,1324,0,0
-210,-300,0,0,0,0,0,0,0,0,0,-1,1014,1324,0,0
-203,-300,0,0,0,0,0,0,0,0,0,-1,1021,1324,0,0
-196,-300,0,0,0,0,0,0,0,0,0,-1,1028,1324,0,0
-189,-300,0,0,0,0,0,0,0,0,0,-1,1035,1324,0,0
-182,-300,0,0,0,0,0,0,0,0,0,-1,1042,1324,0,0
-175,-300,0,0,0,0,0,0,0,0,0,-1,1049,1324,0,0
-168,-300,0,0,0,0,0,0,0,0,0,-1,1056,1324,0,0
-161,-300,0,0,0,0,0,0,0,0,0,-1,1063,1324,0,0
-154,-300,0,0,0,0,0,0,0,0,0,-1,1070,1324,0,0
-147,-300,0,0,0,0,0,0,0,0,0,-1,1077,1324,0,0
-140,-300,0,0,0,0,0,0,0,0,0,-1,1084,1324,0,0
-133,-300,0,0,0,0,0,0,0,0,0,-1,1091,1324,0,0
-126,-300,0,0,0,0,0,0,0,0,0,-1,1098,1324,0,0
-119,-300,0,0,0,0,0,0,0,0,0,-1,1105,1324,0,0
-112,-300,0,0,0,0,0,0,0,0,0,-1,1112,1324,0,0
-105,-300,0,0,0,0,0,0,0,0,0,-1,1119,1324,0,0
-98,-300,0,0,0,0,0,0,0,0,0,-1,1126,1324,0,0
-91,-300,0,0,0,0,0,0,0,0,0,-1,1133,1324,0,0
-84,-300,0,0,0,0,0,0,0,0,0,-1,1140,1324,0,0
-77,-300,0,0,0,0,0,0,0,0,0,-1,1147,1324,0,0
-70,-300,0,0,0,0,0,0,0,0,0,-1,1154,1324,0,0
-63,-300,0,0,0,0,0,0,0,0,0,-1,1161,1324,0,0
-56,-300,0,0,0,0,0,0,0,0,0,-1,1168,1324,0,0
-49,-300,0,0,0,0,0,0,0,0,0,-1,1175,1324,0,0
-42,-300,0,0,0,0,0,0,0,0,0,-1,1182,1324,0,0
-35,-300,0,0,0,0,0,0,0,0,0,-1,1189,1324,0,0
-28,-300,0,0,0,0,0,0,0,0,0,-1,1196,1324,0,0
-21,-300,0,0,0,0,0,0,0,0,0,-1,1203,1324,0,0
-14,-300,0,0,0,0,0,0,0,0,0,-1,1210,1324,0,0
-7,-300,0,0,0,0,0,0,0,0,0,-1,1217,1324,0,0
0,-300,0,0,0,0,0,0,0,0,0,-1,1224,1324,0,0
7,-300,0,0,0,0,0,0,0,0,0,-1,1231,1324,0,0
14,-300,0,0,0,0,0,0,0,0,0,-1,1238,1324,0,0
21,-300,0,0,0,0,0,0,0,0,0,-1,1245,1324,0,0
28,-300,0,0,0,0,0,0,0,0,0,-1,1252,1324,0,0
35,-300,0,0,0,0,0,0,0,0,0,-1,1259,1324,0,0
42,-300,0,0,0,0,0,0,0,0,0,-1,1266,1324,0,0
49,-300,0,0,0,0,0,0,0,0,0,-1,1273,1324,0,0
56,-300,0,0,0,0,0,0,0,0,0,-1,1280,1324,0,0
63,-300,0,0,0,0,0,0,0,0,0,-1,1287,1324,0,0
70,-300,0,0,0,0,0,0,0,0,0,-1,1294,1324,0,0
77,-300,0,0,0,0,0,0,0,0,0,-1,1301,1324,0,0
84,-300,0,0,0,0,0,0,0,0,0,-1,1308,1324,0,0
91,-300,0,0,0,0,0,0,0,0,0,-1,1315,1324,0,0
98,-300,0,0,0,0,0,0,0,0,0,-1,1322,1324,0,0
105,-300,0,0,0,0,0,0,0,0,0,-1,1329,1324,0,0
112,-300,0,0,0,0,0,0,0,0,0,-1,1336,1324,0,0
119,-300,0,0,0,0,0,0,0,0,0,-1,1343,1324,0,0
126,-300,0,0,0,0,0,0,0,0,0,-1,1350,1324,0,0
133,-300,0,0,0,0,0,0,0,0,0,-1,1357,1324,0,0
140,-300,0,0,0,0,0,0,0,0,0,-1,1364,1324,0,0
147,-300,0,0,0,0,0,0,0,0,0,-1,1371,1324,0,0
154,-300,0,0,0,0,0,0,0,0,0,-1,1378,1324,0,0
161,-300,0,0,0,0,0,0,0,0,0,-1,1385,1324,0,0
168,-300,0,0,0,0,0,0,0,0,0,-1,1392,1324,0,0
175,-300,0,0,0,0,0,0,0,0,0,-1,1399,1324,0,0
182,-300,0,0,0,0,0,0,0,0,0,-1,1406,1324,0,0
189,-300,0,0,0,0,0,0,0,0,0,-1,1413,1324,0,0
196,-300,0,0,0,0,0,0,0,0,0,-1,1420,1324,0,0
203,-300,0,0,0,0,0,0,0,0,0,-1,1427,1324,0,0
210,-300,0,0,0,0,0,0,0,0,0,-1,1434,1324,0,0
217,-300,0,0,0,0,0,0,0,0,0,-1,1441,1324,0,0
224,-300,0,0,0,0,0,0,0,0,0,-1,1448,1324,0,0
231,-300,0,0,0,0,0,0,0,0,0,-1,1455,1324,0,0
238,-300,0,0,0,0,0,0,0,0,0,-1,1462,1324,0,0
245,-300,0,0,0,0,0,0,0,0,0,-1,1469,1324,0,0
252,-300,0,0,0,0,0,0,0,0,0,-1,1476,1324,0,0
259,-300,0,0,0,0,0,0,0,0,0,-1,1483,1324,0,0
266,-300,0,0,0,0,0,0,0,0,0,-1,1490,1324,0,0
273,-300,0,0,0,0,0,0,0,0,0,-1,1497,1324,0,0
280,-300,0,0,0,0,0,0,0,0,0,-1,1504,1324,0,0
287,-300,0,0,0,0,0,0,0,0,0,-1,1511,1324,0,0
294,-300,0,0,0,0,0,0,0,0,0,-1,1518,1324,0,0
301,-300,0,0,0,0,0,0,0,0,0,-1,1525,1324,0,0
308,-300,0,0,0,0,0,0,0,0,0,-1,1532,1324,0,0
315,-300,0,0,0,0,0,0,0,0,0,-1,1539,1324,0,0
322,-300,0,0,0,0,0,0,0,0,0,-1,1546,1324,0,0
329,-300,0,0,0,0,0,0,0,0,0,-1,1553,1324,0,0
336,-300,0,0,0,0,0,0,0,0,0,-1,1560,1324,0,0
343,-300,0,0,0,0,0,0,0,0,0,-1,1567,1324,0,0
350,-300,0,0,0,0,0,0,0,0,0,-1,1574,1324,0,0
357,-300,0,0,0,0,0,0,0,0,0,-1,1581,1324,0,0
364,-300,0,0,0,0,0,0,0,0,0,-1,1588,1324,0,0
371,-300,0,0,0,0,0,0,0,0,0,-1,1595,1324,0,0
378,-300,0,0,0,0,0,0,0,0,0,-1,1602,1324,0,0
385,-300,0,0,0,0,0,0,0,0,0,-1,1609,1324,0,0
392,-300,0,0,0,0,0,0,0,0,0,-1,1616,1324,0,0
399,-300,0,0,0,0,0,0,0,0,0,-1,1623,1324,0,0
406,-300,0,0,0,0,0,0,0,0,0,-1,1630,1324,0,0
413,-300,0,0,0,0,0,0,0,0,0,-1,1637,1324,0,0
420,-300,0,0,0,0,0,0,0,0,0,-1,1644,1324,0,0
427,-300,0,0,0,0,0,0,0,0,0,-1,1651,1324,0,0
434,-300,0,0,0,0,0,0,0,0,0,-1,1658,1324,0,0
441,-300,0,0,0,0,0,0,0,0,0,-1,1665,1324,0,0
448,-300,0,0,0,0,0,0,0,0,0,-1,1672,1324,0,0
455,-300,0,0,0,0,0,0,0,0,0,-1,1679,1324,0,0
462,-300,0,0,0,0,0,0,0,0,0,-1,1686,1324,0,0
469,-300,0,0,0,0,0,0,0,0,0,-1,1693,1324,0,0
476,-300,0,0,0,0,0,0,0,0,0,-1,1700,1324,0,0
483,-300,0,0,0,0,0,0,0,0,0,-1,1707,1324,0,0
490,-300,0,0,0,0,0,0,0,0,0,-1,1714,1324,0,0
497,-300,0,0,0,0,0,0,0,0,0,-1,1721,1324,0,0
504,-300,0,0,0,0,0,0,0,0,0,-1,1728,1324,0,0
511,-300,0,0,0,0,0,0,0,0,0,-1,1735,1324,0,0
518,-300,0,0,0,0,0,0,0,0,0,-1,1742,1324,0,0
525,-300,0,0,0,0,0,0,0,0,0,-1,1749,1324,0,0
532,-300,0,0,0,0,0,0,0,0,0,-1,1756,1324,0,0
539,-300,0,0,0,0,0,0,0,0,0,-1,1763,1324,0,0
546,-300,0,0,0,0,0,0,0,0,0,-1,1770,1324,0,0
553,-300,0,0,0,0,0,0,0,0,0,-1,1777,1324,0,0
560,-300,0,0,0,0,0,0,0,0,0,-1,1784,1324,0,0
567,-300,0,0,0,0,0,0,0,0,0,-1,1791,1324,0,0
574,-300,0,0,0,0,0,0,0,0,0,-1,1798,1324,0,0
581,-300,0,0,0,0,0,0,0,0,0,-1,1805,1324,0,0
588,-300,12.0876,1.86218,0,0,0,0,0,0,0,-1,1812,1324,12.0876,-1.86224
595,-300,12.3451,2.11743,-0.028165,-0.0253051,-0.0148717,-0.0117947,-0.0416754,-0.833327,0.0248051,0.0395127,1819,1324,12.3451,-2.11741
602,-300,12.6332,2.48792,-0.0173642,-0.0184346,-0.0172641,-0.000626991,-0.0351717,-0.769903,0.0232417,0.0457922,1826,1324,12.6332,-2.4879
609,-300,12.5044,2.99609,-0.00508339,-0.0150149,-0.0199645,0.0105237,-0.030622,-0.663507,0.0246821,0.0498671,1833,1324,12.5044,-2.99613
616,-300,11.8945,3.41272,0.00528616,-0.0141417,-0.0212881,0.0189719,-0.0278274,-0.571355,0.0271803,0.047867,1840,1324,11.8946,-3.4127
623,-300,11.502,3.65759,0,0,0,0,0,0,0,-1,1847,1324,11.502,-3.65757
630,-300,7.54614,4.74133,0,0,0,0,0,0,0,-1,1854,1324,7.54617,-4.74133
637,-300,8.17981,3.67871,0.0227353,-0.0143191,-0.0199019,0.031399,-0.0229828,-0.410577,0.0315224,0.0463769,1861,1324,8.17982,-3.67869
644,-300,8.87976,2.7417,0.0242465,-0.0139138,-0.017921,0.0313429,-0.0210103,-0.377041,0.0304217,0.0479376,1868,1324,8.87976,-2.74173
651,-300,9.68701,1.93188,0,0,0,0,0,0,0,-1,1875,1324,9.68705,-1.93189
658,-300,9.45447,3.20398,0.0238202,-0.0129859,-0.0134327,0.0282011,-0.0173668,-0.315262,0.0265554,0.0379434,1882,1324,9.45442,-3.20397
665,-300,9.40991,3.15686,0.0217445,-0.0123927,-0.0109036,0.02493,-0.0155781,-0.284236,0.0235942,0.0231073,1889,1324,9.40988,-3.15689
672,-300,9.39001,3.10034,0.0175259,-0.0113022,-0.00791538,0.0195563,-0.0133326,-0.251092,0.0191014,0.0103546,1896,1324,9.39005,-3.10029
679,-300,9.41174,2.97217,0.0122666,-0.00873469,-0.00488541,0.0133475,-0.00981553,-0.217731,0.0134249,0.0109917,1903,1324,9.41176,-2.97222
686,-300,9.41785,2.87341,0.00828853,-0.00669634,-0.00256758,0.00871626,-0.00712407,-0.165074,0.00916081,0.0114771,1910,1324,9.41786,-2.87344
693,-300,9.40796,2.78149,0.00433427,-0.0051774,-0.000138899,0.0043363,-0.00517943,-0.0145988,0.00550109,0.0107179,1917,1324,9.40795,-2.78153
700,-300,9.41077,2.66455,0.00206399,-0.00431185,0.00113062,0.00225854,-0.0045064,0.17041,0.00397697,0.0124597,1924,1324,9.41082,-2.66457
707,-300,9.4198,2.5863,0.00238494,-0.00436692,0.000736625,0.00246437,-0.00444635,0.107416,0.00404423,0.00847742,1931,1324,9.41983,-2.58628
714,-300,9.42725,2.50562,0.00367857,-0.00504659,6.16632e-05,0.00367901,-0.00504703,0.00706681,0.00505857,0.00982713,1938,1324,9.42729,-2.50565
721,-300,9.4364,2.4032,0.0055136,-0.00729365,-0.000993619,0.00559023,-0.00737028,-0.0769688,0.00750624,0.0116363,1945,1324,9.43639,-2.40322
728,-300,9.43872,2.29126,0.00740794,-0.0102626,-0.00236245,0.00771833,-0.010573,-0.130638,0.0106033,0.00951978,1952,1324,9.43868,-2.29129
735,-300,9.35815,2.24585,0.00978107,-0.0144538,-0.0042931,0.0105191,-0.0151918,-0.170246,0.0149257,0.0142158,1959,1324,9.35817,-2.24585
742,-300,9.34534,2.23608,0.0126642,-0.0197781,-0.00730005,0.0142311,-0.021345,-0.211441,0.0206763,0.0292431,1966,1324,9.34533,-2.23605
749,-300,9.42847,2.17822,0.0161152,-0.0262494,-0.011914,0.0192358,-0.02937,-0.256175,0.0282652,0.0438915,1973,1324,9.42848,-2.17821
756,-300,9.5564,2.16614,0,0,0,0,0,0,0,-1,1980,1324,9.55637,-2.16619
763,-300,9.42932,2.40344,0,0,0,0,0,0,0,-1,1987,1324,9.42935,-2.40348
770,-300,9.49133,2.83154,0,0,0,0,0,0,0,-1,1994,1324,9.49134,-2.83159
777,-300,0,0,0,0,0,0,0,0,0,-1,2001,1324,0,0
784,-300,0,0,0,0,0,0,0,0,0,-1,2008,1324,0,0
791,-300,0,0,0,0,0,0,0,0,0,-1,2015,1324,0,0
798,-300,0,0,0,0,0,0,0,0,0,-1,2022,1324,0,0
805,-300,0,0,0,0,0,0,0,0,0,-1,2029,1324,0,0
812,-300,0,0,0,0,0,0,0,0,0,-1,2036,1324,0,0
-700,-307,0,0,0,0,0,0,0,0,0,-1,524,1331,0,0
-693,-307,0,0,0,0,0,0,0,0,0,-1,531,1331,0,0
-686,-307,0,0,0,0,0,0,0,0,0,-1,538,1331,0,0
-679,-307,0,0,0,0,0,0,0,0,0,-1,545,1331,0,0
-672,-307,0,0,0,0,0,0,0,0,0,-1,552,1331,0,0
-665,-307,0,0,0,0,0,0,0,0,0,-1,559,1331,0,0
-658,-307,0,0,0,0,0,0,0,0,0,-1,566,1331,0,0
-651,-307,-4.18054,0.454956,-0.0079898,-0.0254164,-0.0514376,0.0354673,-0.0688735,-0.701497,0.0612617,0.04546,573,1331,-4.18054,-0.454995
-644,-307,-3.07031,0.598877,-0.0165005,-0.0243028,-0.0432053,0.0229794,-0.0637827,-0.740373,0.0519058,0.046517,580,1331,-3.0703,-0.598827
-637,-307,-1.68115,0.722412,-0.0201288,-0.0214517,-0.0356221,0.014838,-0.0564185,-0.776115,0.043412,0.0422218,587,1331,-1.68116,-0.72239
-630,-307,-3.28735,0.726563,0,0,0,0,0,0,0,-1,594,1331,-3.28737,-0.72656
-623,-307,-3.40479,0.850464,-0.0191962,-0.0140715,-0.0228313,0.00634078,-0.0396085,-0.84128,0.0287533,0.0458954,601,1331,-3.40478,-0.85041
-616,-307,-3.22595,0.778076,-0.0166311,-0.0105167,-0.0176463,0.00433521,-0.0314831,-0.871172,0.022573,0.0476735,608,1331,-3.22597,-0.778136
-609,-307,-3.16809,0.898438,-0.0138159,-0.00738954,-0.013241,0.00302256,-0.024228,-0.904432,0.017248,0.0461848,615,1331,-3.16809,-0.898424
-602,-307,-3.078,1.026,-0.0107934,-0.00533258,-0.00975017,0.00206228,-0.0181883,-0.92192,0.0128681,0.0322994,622,1331,-3.078,-1.02598
-595,-307,-3.10803,1.11914,-0.00894793,-0.00327305,-0.00707513,0.0015124,-0.0137334,-0.976101,0.00969911,0.0137207,629,1331,-3.10802,-1.11919
-588,-307,-3.10211,1.20056,-0.00714212,-0.00168124,-0.00419614,0.000594605,-0.00941797,-1.07383,0.00648594,0.0180421,636,1331,-3.10214,-1.2005
-581,-307,-3.09436,1.29907,-0.00382756,-0.000275919,-0.00256453,0.00106761,-0.00517109,-1.08822,0.00385289,0.0162638,643,1331,-3.09433,-1.29912
-574,-307,-3.08527,1.41736,-0.000227175,0.000296302,-0.0014418,0.00149992,-0.0014308,-0.875189,0.00169221,0.0127738,650,1331,-3.08529,-1.41737
-567,-307,-3.09924,1.54761,0.00145962,-0.000132006,-0.00143454,0.00230431,-0.000976691,-0.532156,0.00194529,0.0125326,657,1331,-3.09925,-1.54758
-560,-307,-3.0896,1.69067,0.00254665,-0.00161099,-0.00242862,0.00366466,-0.002729,-0.431424,0.00370453,0.0139636,664,1331,-3.08962,-1.69073
-553,-307,-3.06696,1.78455,0.00410728,-0.00353397,-0.00367621,0.0055887,-0.00501539,-0.383069,0.00612526,0.0112857,671,1331,-3.06697,-1.78451
-546,-307,-3.07361,1.8761,0.00654586,-0.00495924,-0.00570156,0.00889267,-0.00730605,-0.390473,0.00936727,0.0100426,678,1331,-3.07361,-1.87606
-539,-307,-3.0683,2.00256,0.00925937,-0.00676371,-0.00798444,0.0125587,-0.010063,-0.391852,0.0130871,0.0102579,685,1331,-3.0683,-2.00258
-532,-307,-3.06525,2.07788,0.0135318,-0.00889581,-0.0107725,0.0178678,-0.0132318,-0.382665,0.0180218,0.0181744,692,1331,-3.06526,-2.07782
-525,-307,-2.98584,1.91199,0.0178774,-0.0111913,-0.0141283,0.0236127,-0.0169265,-0.385617,0.0235112,0.0385646,699,1331,-2.98585,-1.91197
-518,-307,-2.66693,1.59399,0.0250224,-0.0131631,-0.0168726,0.0314094,-0.0195501,-0.361873,0.0296858,0.0458916,706,1331,-2.66696,-1.59402
-511,-307,-2.44617,1.19727,0,0,0,0,0,0,0,-1,713,1331,-2.44614,-1.1973
-504,-307,-2.90088,1.67615,0,0,0,0,0,0,0,-1,720,1331,-2.9009,-1.67611
-497,-307,-6.61969,2.64246,0,0,0,0,0,0,0,-1,727,1331,-6.61966,-2.64246
-490,-307,-5.9635,1.98926,0,0,0,0,0,0,0,-1,734,1331,-5.96349,-1.98927
-483,-307,-5.32526,1.33423,0,0,0,0,0,0,0,-1,741,1331,-5.32527,-1.33428
-476,-307,-4.64728,0.66687,0,0,0,0,0,0,0,-1,748,1331,-4.64726,-0.666865
-469,-307,-3.21155,-0.531616,0,0,0,0,0,0,0,-1,755,1331,-3.21152,0.531578
-462,-307,0,0,0,0,0,0,0,0,0,-1,762,1331,0,0
-455,-307,0,0,0,0,0,0,0,0,0,-1,769,1331,0,0
-448,-307,0,0,0,0,0,0,0,0,0,-1,776,1331,0,0
-441,-307,0,0,0,0,0,0,0,0,0,-1,783,1331,0,0
-434,-307,0,0,0,0,0,0,0,0,0,-1,790,1331,0,0
-427,-307,0,0,0,0,0,0,0,0,0,-1,797,1331,0,0
-420,-307,0,0,0,0,0,0,0,0,0,-1,804,1331,0,0
-413,-307,0,0,0,0,0,0,0,0,0,-1,811,1331,0,0
-406,-307,0,0,0,0,0,0,0,0,0,-1,818,1331,0,0
-399,-307,0,0,0,0,0,0,0,0,0,-1,825,1331,0,0
-392,-307,0,0,0,0,0,0,0,0,0,-1,832,1331,0,0
-385,-307,0,0,0,0,0,0,0,0,0,-1,839,1331,0,0
-378,-307,0,0,0,0,0,0,0,0,0,-1,846,1331,0,0
-371,-307,0,0,0,0,0,0,0,0,0,-1,853,1331,0,0
-364,-307,0,0,0,0,0,0,0,0,0,-1,860,1331,0,0
-357,-307,0,0,0,0,0,0,0,0,0,-1,867,1331,0,0
-350,-307,0,0,0,0,0,0,0,0,0,-1,874,1331,0,0
-343,-307,0,0,0,0,0,0,0,0,0,-1,881,1331,0,0
-336,-307,0,0,0,0,0,0,0,0,0,-1,888,1331,0,0
-329,-307,0,0,0,0,0,0,0,0,0,-1,895,1331,0,0
-322,-307,0,0,0,0,0,0,0,0,0,-1,902,1331,0,0
-315,-307,0,0,0,0,0,0,0,0,0,-1,909,1331,0,0
-308,-307,0,0,0,0,0,0,0,0,0,-1,916,1331,0,0
-301,-307,0,0,0,0,0,0,0,0,0,-1,923,1331,0,0
-294,-307,0,0,0,0,0,0,0,0,0,-1,930,1331,0,0
-287,-307,0,0,0,0,0,0,0,0,0,-1,937,1331,0,0
-280,-307,0,0,0,0,0,0,0,0,0,-1,944,1331,0,0
-273,-307,0,0,0,0,0,0,0,0,0,-1,951,1331,0,0
-266,-307,0,0,0,0,0,0,0,0,0,-1,958,1331,0,0
-259,-307,0,0,0,0,0,0,0,0,0,-1,965,1331,0,0
-252,-307,0,0,0,0,0,0,0,0,0,-1,972,1331,0,0
-245,-307,0,0,0,0,0,0,0,0,0,-1,979,1331,0,0
-238,-307,0,0,0,0,0,0,0,0,0,-1,986,1331,0,0
-231,-307,0,0,0,0,0,0,0,0,0,-1,993,1331,0,0
-224,-307,0,0,0,0,0,0,0,0,0,-1,1000,1331,0,0
-217,-307,0,0,0,0,0,0,0,0,0,-1,1007,1331,0,0
-210,-307,0,0,0,0,0,0,0,0,0,-1,1014,1331,0,0
-203,-307,0,0,0,0,0,0,0,0,0,-1,1021,1331,0,0
-196,-307,0,0,0,0,0,0,0,0,0,-1,1028,1331,0,0
-189,-307,0,0,0,0,0,0,0,0,0,-1,1035,1331,0,0
-182,-307,0,0,0,0,0,0,0,0,0,-1,1042,1331,0,0
-175,-307,0,0,0,0,0,0,0,0,0,-1,1049,1331,0,0
-168,-307,0,0,0,0,0,0,0,0,0,-1,1056,1331,0,0
-161,-307,0,0,0,0,0,0,0,0,0,-1,1063,1331,0,0
-154,-307,0,0,0,0,0,0,0,0,0,-1,1070,1331,0,0
-147,-307,0,0,0,0,0,0,0,0,0,-1,1077,1331,0,0
-140,-307,0,0,0,0,0,0,0,0,0,-1,1084,1331,0,0
-133,-307,0,0,0,0,0,0,0,0,0,-1,1091,1331,0,0
-126,-307,0,0,0,0,0,0,0,0,0,-1,1098,1331,0,0
-119,-307,0,0,0,0,0,0,0,0,0,-1,1105,1331,0,0
-112,-307,0,0,0,0,0,0,0,0,0,-1,1112,1331,0,0
-105,-307,0,0,0,0,0,0,0,0,0,-1,1119,1331,0,0
-98,-307,0,0,0,0,0,0,0,0,0,-1,1126,1331,0,0
-91,-307,0,0,0,0,0,0,0,0,0,-1,1133,1331,0,0
-84,-307,0,0,0,0,0,0,0,0,0,-1,1140,1331,0,0
-77,-307,0,0,0,0,0,0,0,0,0,-1,1147,1331,0,0
-70,-307,0,0,0,0,0,0,0,0,0,-1,1154,1331,0,0
-63,-307,0,0,0,0,0,0,0,0,0,-1,1161,1331,0,0
-56,-307,0,0,0,0,0,0,0,0,0,-1,1168,1331,0,0
-49,-307,0,0,0,0,0,0,0,0,0,-1,1175,1331,0,0
-42,-307,0,0,0,0,0,0,0,0,0,-1,1182,1331,0,0
-35,-307,0,0,0,0,0,0,0,0,0,-1,1189,1331,0,0
-28,-307,0,0,0,0,0,0,0,0,0,-1,1196,1331,0,0
-21,-307,0,0,0,0,0,0,0,0,0,-1,1203,1331,0,0
-14,-307,0,0,0,0,0,0,0,0,0,-1,1210,1331,0,0
-7,-307,0,0,0,0,0,0,0,0,0,-1,1217,1331,0,0
0,-307,0,0,0,0,0,0,0,0,0,-1,1224,1331,0,0
7,-307,0,0,0,0,0,0,0,0,0,-1,1231,1331,0,0
14,-307,0,0,0,0,0,0,0,0,0,-1,1238,1331,0,0
21,-307,0,0,0,0,0,0,0,0,0,-1,1245,1331,0,0
28,-307,0,0,0,0,0,0,0,0,0,-1,1252,1331,0,0
35,-307,0,0,0,0,0,0,0,0,0,-1,1259,1331,0,0
42,-307,0,0,0,0,0,0,0,0,0,-1,1266,1331,0,0
49,-307,0,0,0,0,0,0,0,0,0,-1,1273,1331,0,0
56,-307,0,0,0,0,0,0,0,0,0,-1,1280,1331,0,0
63,-307,0,0,0,0,0,0,0,0,0,-1,1287,1331,0,0
70,-307,0,0,0,0,0,0,0,0,0,-1,1294,1331,0,0
77,-307,0,0,0,0,0,0,0,0,0,-1,1301,1331,0,0
84,-307,0,0,0,0,0,0,0,0,0,-1,1308,1331,0,0
91,-307,0,0,0,0,0,0,0,0,0,-1,1315,1331,0,0
98,-307,0,0,0,0,0,0,0,0,0,-1,1322,1331,0,0
105,-307,0,0,0,0,0,0,0,0,0,-1,1329,1331,0,0
112,-307,0,0,0,0,0,0,0,0,0,-1,1336,1331,0,0
119,-307,0,0,0,0,0,0,0,0,0,-1,1343,1331,0,0
126,-307,0,0,0,0,0,0,0,0,0,-1,1350,1331,0,0
133,-307,0,0,0,0,0,0,0,0,0,-1,1357,1331,0,0
140,-307,0,0,0,0,0,0,0,0,0,-1,1364,1331,0,0
147,-307,0,0,0,0,0,0,0,0,0,-1,1371,1331,0,0
154,-307,0,0,0,0,0,0,0,0,0,-1,1378,1331,0,0
161,-307,0,0,0,0,0,0,0,0,0,-1,1385,1331,0,0
168,-307,0,0,0,0,0,0,0,0,0,-1,1392,1331,0,0
175,-307,0,0,0,0,0,0,0,0,0,-1,1399,1331,0,0
182,-307,0,0,0,0,0,0,0,0,0,-1,1406,1331,0,0
189,-307,0,0,0,0,0,0,0,0,0,-1,1413,1331,0,0
196,-307,0,0,0,0,0,0,0,0,0,-1,1420,1331,0,0
203,-307,0,0,0,0,0,0,0,0,0,-1,1427,1331,0,0
210,-307,0,0,0,0,0,0,0,0,0,-1,1434,1331,0,0
217,-307,0,0,0,0,0,0,0,0,0,-1,1441,1331,0,0
224,-307,0,0,0,0,0,0,0,0,0,-1,1448,1331,0,0
231,-307,0,0,0,0,0,0,0,0,0,-1,1455,1331,0,0
238,-307,0,0,0,0,0,0,0,0,0,-1,1462,1331,0,0
245,-307,0,0,0,0,0,0,0,0,0,-1,1469,1331,0,0
252,-307,0,0,0,0,0,0,0,0,0,-1,1476,1331,0,0
259,-307,0,0,0,0,0,0,0,0,0,-1,1483,1331,0,0
266,-307,0,0,0,0,0,0,0,0,0,-1,1490,1331,0,0
273,-307,0,0,0,0,0,0,0,0,0,-1,1497,1331,0,0
280,-307,0,0,0,0,0,0,0,0,0,-1,1504,1331,0,0
287,-307,0,0,0,0,0,0,0,0,0,-1,1511,1331,0,0
294,-307,0,0,0,0,0,0,0,0,0,-1,1518,1331,0,0
301,-307,0,0,0,0,0,0,0,0,0,-1,1525,1331,0,0
308,-307,0,0,0,0,0,0,0,0,0,-1,1532,1331,0,0
315,-307,0,0,0,0,0,0,0,0,0,-1,1539,1331,0,0
322,-307,0,0,0,0,0,0,0,0,0,-1,1546,1331,0,0
329,-307,0,0,0,0,0,0,0,0,0,-1,1553,1331,0,0
336,-307,0,0,0,0,0,0,0,0,0,-1,1560,1331,0,0
343,-307,0,0,0,0,0,0,0,0,0,-1,1567,1331,0,0
350,-307,0,0,0,0,0,0,0,0,0,-1,1574,1331,0,0
357,-307,0,0,0,0,0,0,0,0,0,-1,1581,1331,0,0
364,-307,0,0,0,0,0,0,0,0,0,-1,1588,1331,0,0
371,-307,0,0,0,0,0,0,0,0,0,-1,1595,1331,0,0
378,-307,0,0,0,0,0,0,0,0,0,-1,1602,1331,0,0
385,-307,0,0,0,0,0,0,0,0,0,-1,1609,1331,0,0
392,-307,0,0,0,0,0,0,0,0,0,-1,1616,1331,0,0
399,-307,0,0,0,0,0,0,0,0,0,-1,1623,1331,0,0
406,-307,0,0,0,0,0,0,0,0,0,-1,1630,1331,0,0
413,-307,0,0,0,0,0,0,0,0,0,-1,1637,1331,0,0
420,-307,0,0,0,0,0,0,0,0,0,-1,1644,1331,0,0
427,-307,0,0,0,0,0,0,0,0,0,-1,1651,1331,0,0
434,-307,0,0,0,0,0,0,0,0,0,-1,1658,1331,0,0
441,-307,0,0,0,0,0,0,0,0,0,-1,1665,1331,0,0
448,-307,0,0,0,0,0,0,0,0,0,-1,1672,1331,0,0
455,-307,0,0,0,0,0,0,0,0,0,-1,1679,1331,0,0
462,-307,0,0,0,0,0,0,0,0,0,-1,1686,1331,0,0
469,-307,0,0,0,0,0,0,0,0,0,-1,1693,1331,0,0
476,-307,0,0,0,0,0,0,0,0,0,-1,1700,1331,0,0
483,-307,0,0,0,0,0,0,0,0,0,-1,1707,1331,0,0
490,-307,0,0,0,0,0,0,0,0,0,-1,1714,1331,0,0
497,-307,0,0,0,0,0,0,0,0,0,-1,1721,1331,0,0
504,-307,0,0,0,0,0,0,0,0,0,-1,1728,1331,0,0
511,-307,0,0,0,0,0,0,0,0,0,-1,1735,1331,0,0
518,-307,0,0,0,0,0,0,0,0,0,-1,1742,1331,0,0
525,-307,0,0,0,0,0,0,0,0,0,-1,1749,1331,0,0
532,-307,0,0,0,0,0,0,0,0,0,-1,1756,1331,0,0
539,-307,0,0,0,0,0,0,0,0,0,-1,1763,1331,0,0
546,-307,0,0,0,0,0,0,0,0,0,-1,1770,1331,0,0
553,-307,0,0,0,0,0,0,0,0,0,-1,1777,1331,0,0
560,-307,0,0,0,0,0,0,0,0,0,-1,1784,1331,0,0
567,-307,0,0,0,0,0,0,0,0,0,-1,1791,1331,0,0
574,-307,0,0,0,0,0,0,0,0,0,-1,1798,1331,0,0
581,-307,0,0,0,0,0,0,0,0,0,-1,1805,1331,0,0
588,-307,14.429,2.40588,0,0,0,0,0,0,0,-1,1812,1331,14.4289,-2.40585
595,-307,13.8284,2.34875,-0.030767,-0.0283726,-0.0181134,-0.0114169,-0.0477227,-0.818398,0.0287746,0.0440451,1819,1331,13.8283,-2.34877
602,-307,13.0717,2.45752,-0.0203605,-0.0204256,-0.0186222,-0.00177079,-0.0390153,-0.784524,0.0254405,0.0477546,1826,1331,13.0717,-2.45749
609,-307,12.6464,2.7085,-0.00928401,-0.0160611,-0.0202191,0.00782849,-0.0331736,-0.702374,0.0251349,0.0476721,1833,1331,12.6463,-2.70849
616,-307,12.0729,3.17419,3.61313e-05,-0.0144044,-0.0210523,0.0150719,-0.0294401,-0.6202,0.0261415,0.0447482,1840,1331,12.0728,-3.17415
623,-307,11.645,3.46167,0,0,0,0,0,0,0,-1,1847,1331,11.645,-3.46164
630,-307,8.22742,4.43811,0,0,0,0,0,0,0,-1,1854,1331,8.22746,-4.43817
637,-307,8.54651,3.71814,0.0163127,-0.0132557,-0.0196712,0.026136,-0.0230789,-0.463147,0.0284325,0.0446491,1861,1331,8.54647,-3.71815
644,-307,8.81714,3.05017,0.0179533,-0.0125419,-0.0178066,0.0261485,-0.020737,-0.431331,0.0271294,0.0435617,1868,1331,8.81709,-3.0502
651,-307,9.09448,2.39417,0,0,0,0,0,0,0,-1,1875,1331,9.09443,-2.39411
658,-307,9.41382,3.16431,0.0182013,-0.0113762,-0.0135862,0.0234947,-0.0166696,-0.371521,0.0233002,0.0383777,1882,1331,9.41387,-3.1643
665,-307,9.31006,3.16345,0.0166531,-0.0107104,-0.0110751,0.0205739,-0.0146312,-0.340248,0.020422,0.014081,1889,1331,9.31011,-3.16349
672,-307,9.31323,3.08667,0.0132867,-0.00964947,-0.00813273,0.0158777,-0.0122405,-0.308424,0.0162793,0.0085778,1896,1331,9.31327,-3.08665
679,-307,9.3219,2.98206,0.00919004,-0.00727227,-0.00511157,0.0106481,-0.00873028,-0.27786,0.0112063,0.0095057,1903,1331,9.32185,-2.98201
686,-307,9.31372,2.88745,0.00635534,-0.00556026,-0.00280198,0.00698135,-0.00618626,-0.219805,0.00760694,0.00952655,1910,1331,9.31369,-2.88744
693,-307,9.29871,2.79932,0.00336254,-0.00433101,-0.000411637,0.0033845,-0.00435297,-0.0533014,0.00447888,0.0112283,1917,1331,9.29876,-2.79937
700,-307,9.32324,2.6864,0.00178829,-0.00397491,0.000872008,0.00191734,-0.00410396,0.146926,0.00355198,0.0118427,1924,1331,9.32324,-2.68641
707,-307,9.33118,2.57922,0.00263991,-0.00474859,0.000748301,0.00271494,-0.00482361,0.0999271,0.00440878,0.0128513,1931,1331,9.33121,-2.57924
714,-307,9.3252,2.52051,0.003903,-0.00605359,0.000321391,0.00391337,-0.00606396,0.0322344,0.00580484,0.0125163,1938,1331,9.32514,-2.52051
721,-307,9.33789,2.41858,0.00536683,-0.0090184,-0.000417796,0.00537896,-0.00903052,-0.0290108,0.00840789,0.0142852,1945,1331,9.33793,-2.4186
728,-307,9.3136,2.32788,0.00691739,-0.0130163,-0.00147389,0.00702578,-0.0131247,-0.0734077,0.0118102,0.0160026,1952,1331,9.31365,-2.32785
735,-307,9.26392,2.29199,0.00874471,-0.0185291,-0.00307064,0.00908615,-0.0188705,-0.110739,0.016467,0.0266999,1959,1331,9.26396,-2.29203
742,-307,9.37817,2.46924,0.0107925,-0.0256015,-0.00564802,0.0116489,-0.0264579,-0.150477,0.0225479,0.0380157,1966,1331,9.37823,-2.46927
749,-307,9.349,2.55847,0.0129972,-0.0343395,-0.00969021,0.0149041,-0.0362464,-0.194299,0.0303765,0.0417345,1973,1331,9.34894,-2.55851
756,-307,9.4812,2.6825,0,0,0,0,0,0,0,-1,1980,1331,9.48119,-2.68248
763,-307,8.50317,2.1864,0,0,0,0,0,0,0,-1,1987,1331,8.50316,-2.18645
770,-307,0,0,0,0,0,0,0,0,0,-1,1994,1331,0,0
777,-307,0,0,0,0,0,0,0,0,0,-1,2001,1331,0,0
784,-307,0,0,0,0,0,0,0,0,0,-1,2008,1331,0,0
791,-307,0,0,0,0,0,0,0,0,0,-1,2015,1331,0,0
798,-307,0,0,0,0,0,0,0,0,0,-1,2022,1331,0,0
805,-307,0,0,0,0,0,0,0,0,0,-1,2029,1331,0,0
812,-307,0,0,0,0,0,0,0,0,0,-1,2036,1331,0,0
-700,-314,0,0,0,0,0,0,0,0,0,-1,524,1338,0,0
-693,-314,0,0,0,0,0,0,0,0,0,-1,531,1338,0,0
-686,-314,0,0,0,0,0,0,0,0,0,-1,538,1338,0,0
-679,-314,0,0,0,0,0,0,0,0,0,-1,545,1338,0,0
-672,-314,0,0,0,0,0,0,0,0,0,-1,552,1338,0,0
-665,-314,0,0,0,0,0,0,0,0,0,-1,559,1338,0,0
-658,-314,0,0,0,0,0,0,0,0,0,-1,566,1338,0,0
-651,-314,0,0,0,0,0,0,0,0,0,-1,573,1338,0,0
-644,-314,0.617981,1.48254,-0.0396465,-0.024773,-0.0487171,0.0170717,-0.0814912,-0.861139,0.0608219,0.0484162,580,1338,0.617975,-1.48253
-637,-314,-0.901611,1.41895,-0.0393507,-0.0216283,-0.0411081,0.0115628,-0.0725419,-0.891553,0.0526405,0.0450437,587,1338,-0.901625,-1.41898
-630,-314,-2.38184,1.3916,-0.0361983,-0.0176959,-0.0339779,0.0082677,-0.0621619,-0.918312,0.0444542,0.0436395,594,1338,-2.38185,-1.39158
-623,-314,-3.41504,0.793457,0,0,0,0,0,0,0,-1,601,1338,-3.41505,-0.793497
-616,-314,-2.98138,0.877808,-0.0261389,-0.0100364,-0.0216684,0.00502823,-0.0412035,-0.963277,0.0292893,0.0499442,608,1338,-2.9814,-0.877792
-609,-314,-2.87115,0.762817,-0.020844,-0.00690009,-0.0166723,0.00419932,-0.0319434,-0.983437,0.0228245,0.0495524,615,1338,-2.87118,-0.762874
-602,-314,-2.89063,0.871216,-0.0159609,-0.00479049,-0.0126369,0.00344045,-0.0241918,-0.993479,0.0173885,0.0404961,622,1338,-2.8906,-0.871261
-595,-314,-2.91119,1.10974,-0.0128492,-0.00272892,-0.00937214,0.00286184,-0.01844,-1.03293,0.0133499,0.0248258,629,1338,-2.91116,-1.1097
-588,-314,-2.97797,1.20764,-0.00988428,-0.00119903,-0.00588988,0.00177607,-0.0128594,-1.10306,0.00922213,0.0140372,636,1338,-2.97798,-1.2076
-581,-314,-2.97754,1.30762,-0.0055732,0.000186917,-0.00378826,0.0020656,-0.00745189,-1.11042,0.00578081,0.0124393,643,1338,-2.97757,-1.30756
-574,-314,-3.00421,1.39197,-0.00139081,0.000688866,-0.0022688,0.00214476,-0.00284671,-1.00027,0.00289131,0.0120371,650,1338,-3.00419,-1.39196
-567,-314,-2.99078,1.53003,0.0005371,0.000375742,-0.00185433,0.0023125,-0.00139966,-0.763658,0.00216471,0.0134047,657,1338,-2.99076,-1.52999
-560,-314,-2.95752,1.67554,0.00163683,-0.00117463,-0.00253042,0.00312577,-0.00266356,-0.531858,0.00334602,0.0140044,664,1338,-2.9575,-1.6755
-553,-314,-2.97351,1.7749,0.00296818,-0.0031011,-0.00353426,0.00459187,-0.00472479,-0.430655,0.00537916,0.0173532,671,1338,-2.97353,-1.77494
-546,-314,-2.97772,1.87939,0.00504963,-0.00458483,-0.00525352,0.00736018,-0.00689537,-0.414347,0.00823191,0.0174812,678,1338,-2.97773,-1.87941
-539,-314,-2.95721,2.0033,0.00737412,-0.00643039,-0.00728603,0.0105082,-0.00956444,-0.40622,0.0115932,0.0157406,685,1338,-2.95719,-2.00329
-532,-314,-2.88574,2.11096,0.0111441,-0.00857318,-0.00974924,0.0151506,-0.0125796,-0.389909,0.0160329,0.018897,692,1338,-2.88573,-2.11099
-525,-314,-2.94562,2.15356,0.0149377,-0.0109323,-0.0128633,0.0202449,-0.0162395,-0.391309,0.0211066,0.0336406,699,1338,-2.94563,-2.15361
-518,-314,-2.67438,1.72192,0.0219198,-0.0129412,-0.0153,0.0276822,-0.0187036,-0.360199,0.0269476,0.0436746,706,1338,-2.67436,-1.72192
-511,-314,-2.41992,1.24207,0.0319071,-0.0155121,-0.0169287,0.0373304,-0.0209354,-0.310031,0.0340808,0.0450838,713,1338,-2.41994,-1.24211
-504,-314,-2.00391,0.848145,0,0,0,0,0,0,0,-1,720,1338,-2.00389,-0.84817
-497,-314,-3.74518,2.35034,0,0,0,0,0,0,0,-1,727,1338,-3.74519,-2.3503
-490,-314,-6.14325,2.18079,0,0,0,0,0,0,0,-1,734,1338,-6.14323,-2.18078
-483,-314,-5.7796,1.47388,0.0866961,0.00311184,-0.0313956,0.097175,-0.00736709,-0.322144,0.0673734,0.0460159,741,1338,-5.77959,-1.47391
-476,-314,-4.82709,0.732178,0,0,0,0,0,0,0,-1,748,1338,-4.82709,-0.732131
-469,-314,-3.80182,-0.232544,0,0,0,0,0,0,0,-1,755,1338,-3.80183,0.2325
-462,-314,0,0,0,0,0,0,0,0,0,-1,762,1338,0,0
-455,-314,0,0,0,0,0,0,0,0,0,-1,769,1338,0,0
-448,-314,0,0,0,0,0,0,0,0,0,-1,776,1338,0,0
-441,-314,0,0,0,0,0,0,0,0,0,-1,783,1338,0,0
-434,-314,0,0,0,0,0,0,0,0,0,-1,790,1338,0,0
-427,-314,0,0,0,0,0,0,0,0,0,-1,797,1338,0,0
-420,-314,0,0,0,0,0,0,0,0,0,-1,804,1338,0,0
-413,-314,0,0,0,0,0,0,0,0,0,-1,811,1338,0,0
-406,-314,0,0,0,0,0,0,0,0,0,-1,818,1338,0,0
-399,-314,0,0,0,0,0,0,0,0,0,-1,825,1338,0,0
-392,-314,0,0,0,0,0,0,0,0,0,-1,832,1338,0,0
-385,-314,0,0,0,0,0,0,0,0,0,-1,839,1338,0,0
-378,-314,0,0,0,0,0,0,0,0,0,-1,846,1338,0,0
-371,-314,0,0,0,0,0,0,0,0,0,-1,853,1338,0,0
-364,-314,0,0,0,0,0,0,0,0,0,-1,860,1338,0,0
-357,-314,0,0,0,0,0,0,0,0,0,-1,867,1338,0,0
-350,-314,0,0,0,0,0,0,0,0,0,-1,874,1338,0,0
-343,-314,0,0,0,0,0,0,0,0,0,-1,881,1338,0,0
-336,-314,0,0,0,0,0,0,0,0,0,-1,888,1338,0,0
-329,-314,0,0,0,0,0,0,0,0,0,-1,895,1338,0,0
-322,-314,0,0,0,0,0,0,0,0,0,-1,902,1338,0,0
-315,-314,0,0,0,0,0,0,0,0,0,-1,909,1338,0,0
-308,-314,0,0,0,0,0,0,0,0,0,-1,916,1338,0,0
-301,-314,0,0,0,0,0,0,0,0,0,-1,923,1338,0,0
-294,-314,0,0,0,0,0,0,0,0,0,-1,930,1338,0,0
-287,-314,0,0,0,0,0,0,0,0,0,-1,937,1338,0,0
-280,-314,0,0,0,0,0,0,0,0,0,-1,944,1338,0,0
-273,-314,0,0,0,0,0,0,0,0,0,-1,951,1338,0,0
-266,-314,0,0,0,0,0,0,0,0,0,-1,958,1338,0,0
-259,-314,0,0,0,0,0,0,0,0,0,-1,965,1338,0,0
-252,-314,0,0,0,0,0,0,0,0,0,-1,972,1338,0,0
-245,-314,0,0,0,0,0,0,0,0,0,-1,979,1338,0,0
-238,-314,0,0,0,0,0,0,0,0,0,-1,986,1338,0,0
-231,-314,0,0,0,0,0,0,0,0,0,-1,993,1338,0,0
-224,-314,0,0,0,0,0,0,0,0,0,-1,1000,1338,0,0
-217,-314,0,0,0,0,0,0,0,0,0,-1,1007,1338,0,0
-210,-314,0,0,0,0,0,0,0,0,0,-1,1014,1338,0,0
-203,-314,0,0,0,0,0,0,0,0,0,-1,1021,1338,0,0
-196,-314,0,0,0,0,0,0,0,0,0,-1,1028,1338,0,0
-189,-314,0,0,0,0,0,0,0,0,0,-1,1035,1338,0,0
-182,-314,0,0,0,0,0,0,0,0,0,-1,1042,1338,0,0
-175,-314,0,0,0,0,0,0,0,0,0,-1,1049,1338,0,0
-168,-314,0,0,0,0,0,0,0,0,0,-1,1056,1338,0,0
-161,-314,0,0,0,0,0,0,0,0,0,-1,1063,1338,0,0
-154,-314,0,0,0,0,0,0,0,0,0,-1,1070,1338,0,0
-147,-314,0,0,0,0,0,0,0,0,0,-1,1077,1338,0,0
-140,-314,0,0,0,0,0,0,0,0,0,-1,1084,1338,0,0
-133,-314,0,0,0,0,0,0,0,0,0,-1,1091,1338,0,0
-126,-314,0,0,0,0,0,0,0,0,0,-1,1098,1338,0,0
-119,-314,0,0,0,0,0,0,0,0,0,-1,1105,1338,0,0
-112,-314,0,0,0,0,0,0,0,0,0,-1,1112,1338,0,0
-105,-314,0,0,0,0,0,0,0,0,0,-1,1119,1338,0,0
-98,-314,0,0,0,0,0,0,0,0,0,-1,1126,1338,0,0
-91,-314,0,0,0,0,0,0,0,0,0,-1,1133,1338,0,0
-84,-314,0,0,0,0,0,0,0,0,0,-1,1140,1338,0,0
-77,-314,0,0,0,0,0,0,0,0,0,-1,1147,1338,0,0
-70,-314,0,0,0,0,0,0,0,0,0,-1,1154,1338,0,0
-63,-314,0,0,0,0,0,0,0,0,0,-1,1161,1338,0,0
-56,-314,0,0,0,0,0,0,0,0,0,-1,1168,1338,0,0
-49,-314,0,0,0,0,0,0,0,0,0,-1,1175,1338,0,0
-42,-314,0,0,0,0,0,0,0,0,0,-1,1182,1338,0,0
-35,-314,0,0,0,0,0,0,0,0,0,-1,1189,1338,0,0
-28,-314,0,0,0,0,0,0,0,0,0,-1,1196,1338,0,0
-21,-314,0,0,0,0,0,0,0,0,0,-1,1203,1338,0,0
-14,-314,0,0,0,0,0,0,0,0,0,-1,1210,1338,0,0
-7,-314,0,0,0,0,0,0,0,0,0,-1,1217,1338,0,0
0,-314,0,0,0,0,0,0,0,0,0,-1,1224,1338,0,0
7,-314,0,0,0,0,0,0,0,0,0,-1,1231,1338,0,0
14,-314,0,0,0,0,0,0,0,0,0,-1,1238,1338,0,0
21,-314,0,0,0,0,0,0,0,0,0,-1,1245,1338,0,0
28,-314,0,0,0,0,0,0,0,0,0,-1,1252,1338,0,0
35,-314,0,0,0,0,0,0,0,0,0,-1,1259,1338,0,0
42,-314,0,0,0,0,0,0,0,0,0,-1,1266,1338,0,0
49,-314,0,0,0,0,0,0,0,0,0,-1,1273,1338,0,0
56,-314,0,0,0,0,0,0,0,0,0,-1,1280,1338,0,0
63,-314,0,0,0,0,0,0,0,0,0,-1,1287,1338,0,0
70,-314,0,0,0,0,0,0,0,0,0,-1,1294,1338,0,0
77,-314,0,0,0,0,0,0,0,0,0,-1,1301,1338,0,0
84,-314,0,0,0,0,0,0,0,0,0,-1,1308,1338,0,0
91,-314,0,0,0,0,0,0,0,0,0,-1,1315,1338,0,0
98,-314,0,0,0,0,0,0,0,0,0,-1,1322,1338,0,0
105,-314,0,0,0,0,0,0,0,0,0,-1,1329,1338,0,0
112,-314,0,0,0,0,0,0,0,0,0,-1,1336,1338,0,0
119,-314,0,0,0,0,0,0,0,0,0,-1,1343,1338,0,0
126,-314,0,0,0,0,0,0,0,0,0,-1,1350,1338,0,0
133,-314,0,0,0,0,0,0,0,0,0,-1,1357,1338,0,0
140,-314,0,0,0,0,0,0,0,0,0,-1,1364,1338,0,0
147,-314,0,0,0,0,0,0,0,0,0,-1,1371,1338,0,0
154,-314,0,0,0,0,0,0,0,0,0,-1,1378,1338,0,0
161,-314,0,0,0,0,0,0,0,0,0,-1,1385,1338,0,0
168,-314,0,0,0,0,0,0,0,0,0,-1,1392,1338,0,0
175,-314,0,0,0,0,0,0,0,0,0,-1,1399,1338,0,0
182,-314,0,0,0,0,0,0,0,0,0,-1,1406,1338,0,0
189,-314,0,0,0,0,0,0,0,0,0,-1,1413,1338,0,0
196,-314,0,0,0,0,0,0,0,0,0,-1,1420,1338,0,0
203,-314,0,0,0,0,0,0,0,0,0,-1,1427,1338,0,0
210,-314,0,0,0,0,0,0,0,0,0,-1,1434,1338,0,0
217,-314,0,0,0,0,0,0,0,0,0,-1,1441,1338,0,0
224,-314,0,0,0,0,0,0,0,0,0,-1,1448,1338,0,0
231,-314,0,0,0,0,0,0,0,0,0,-1,1455,1338,0,0
238,-314,0,0,0,0,0,0,0,0,0,-1,1462,1338,0,0
245,-314,0,0,0,0,0,0,0,0,0,-1,1469,1338,0,0
252,-314,0,0,0,0,0,0,0,0,0,-1,1476,1338,0,0
259,-314,0,0,0,0,0,0,0,0,0,-1,1483,1338,0,0
266,-314,0,0,0,0,0,0,0,0,0,-1,1490,1338,0,0
273,-314,0,0,0,0,0,0,0,0,0,-1,1497,1338,0,0
280,-314,0,0,0,0,0,0,0,0,0,-1,1504,1338,0,0
287,-314,0,0,0,0,0,0,0,0,0,-1,1511,1338,0,0
294,-314,0,0,0,0,0,0,0,0,0,-1,1518,1338,0,0
301,-314,0,0,0,0,0,0,0,0,0,-1,1525,1338,0,0
308,-314,0,0,0,0,0,0,0,0,0,-1,1532,1338,0,0
315,-314,0,0,0,0,0,0,0,0,0,-1,1539,1338,0,0
322,-314,0,0,0,0,0,0,0,0,0,-1,1546,1338,0,0
329,-314,0,0,0,0,0,0,0,0,0,-1,1553,1338,0,0
336,-314,0,0,0,0,0,0,0,0,0,-1,1560,1338,0,0
343,-314,0,0,0,0,0,0,0,0,0,-1,1567,1338,0,0
350,-314,0,0,0,0,0,0,0,0,0,-1,1574,1338,0,0
357,-314,0,0,0,0,0,0,0,0,0,-1,1581,1338,0,0
364,-314,0,0,0,0,0,0,0,0,0,-1,1588,1338,0,0
371,-314,0,0,0,0,0,0,0,0,0,-1,1595,1338,0,0
378,-314,0,0,0,0,0,0,0,0,0,-1,1602,1338,0,0
385,-314,0,0,0,0,0,0,0,0,0,-1,1609,1338,0,0
392,-314,0,0,0,0,0,0,0,0,0,-1,1616,1338,0,0
399,-314,0,0,0,0,0,0,0,0,0,-1,1623,1338,0,0
406,-314,0,0,0,0,0,0,0,0,0,-1,1630,1338,0,0
413,-314,0,0,0,0,0,0,0,0,0,-1,1637,1338,0,0
420,-314,0,0,0,0,0,0,0,0,0,-1,1644,1338,0,0
427,-314,0,0,0,0,0,0,0,0,0,-1,1651,1338,0,0
434,-314,0,0,0,0,0,0,0,0,0,-1,1658,1338,0,0
441,-314,0,0,0,0,0,0,0,0,0,-1,1665,1338,0,0
448,-314,0,0,0,0,0,0,0,0,0,-1,1672,1338,0,0
455,-314,0,0,0,0,0,0,0,0,0,-1,1679,1338,0,0
462,-314,0,0,0,0,0,0,0,0,0,-1,1686,1338,0,0
469,-314,0,0,0,0,0,0,0,0,0,-1,1693,1338,0,0
476,-314,0,0,0,0,0,0,0,0,0,-1,1700,1338,0,0
483,-314,0,0,0,0,0,0,0,0,0,-1,1707,1338,0,0
490,-314,0,0,0,0,0,0,0,0,0,-1,1714,1338,0,0
497,-314,0,0,0,0,0,0,0,0,0,-1,1721,1338,0,0
504,-314,0,0,0,0,0,0,0,0,0,-1,1728,1338,0,0
511,-314,0,0,0,0,0,0,0,0,0,-1,1735,1338,0,0
518,-314,0,0,0,0,0,0,0,0,0,-1,1742,1338,0,0
525,-314,0,0,0,0,0,0,0,0,0,-1,1749,1338,0,0
532,-314,0,0,0,0,0,0,0,0,0,-1,1756,1338,0,0
539,-314,0,0,0,0,0,0,0,0,0,-1,1763,1338,0,0
546,-314,0,0,0,0,0,0,0,0,0,-1,1770,1338,0,0
553,-314,0,0,0,0,0,0,0,0,0,-1,1777,1338,0,0
560,-314,0,0,0,0,0,0,0,0,0,-1,1784,1338,0,0
567,-314,0,0,0,0,0,0,0,0,0,-1,1791,1338,0,0
574,-314,0,0,0,0,0,0,0,0,0,-1,1798,1338,0,0
581,-314,12.6844,1.28186,0,0,0,0,0,0,0,-1,1805,1338,12.6844,-1.28188
588,-314,12.996,1.80273,0,0,0,0,0,0,0,-1,1812,1338,12.996,-1.80272
595,-314,13.713,2.12805,0,0,0,0,0,0,0,-1,1819,1338,13.713,-2.1281
602,-314,13.1885,2.39343,-0.0237116,-0.0215285,-0.0194876,-0.00310194,-0.0421382,-0.813376,0.0271173,0.0466605,1826,1338,13.1885,-2.39342
609,-314,12.6243,2.72156,-0.0134344,-0.0166672,-0.0199055,0.00492018,-0.0350218,-0.744885,0.0251489,0.0429109,1833,1338,12.6243,-2.72157
616,-314,12.2631,2.95459,-0.0048403,-0.0144967,-0.0198816,0.010791,-0.030128,-0.66628,0.0244881,0.0434502,1840,1338,12.2631,-2.9546
623,-314,12.1829,2.94873,0,0,0,0,0,0,0,-1,1847,1338,12.1829,-2.94876
630,-314,8.70972,3.93005,0,0,0,0,0,0,0,-1,1854,1338,8.70971,-3.93006
637,-314,8.86768,3.43591,0.0106915,-0.0121253,-0.0172904,0.019998,-0.0214319,-0.493777,0.0239243,0.0479465,1861,1338,8.86768,-3.43593
644,-314,9.01636,3.0321,0.0125277,-0.0110715,-0.0153175,0.0200635,-0.0186073,-0.457203,0.0223318,0.0430463,1868,1338,9.0164,-3.03207
651,-314,9.11414,2.922,0.0133452,-0.0103469,-0.0130704,0.019139,-0.0161407,-0.417248,0.0203932,0.0426103,1875,1338,9.11416,-2.92199
658,-314,9.28503,3.177,0.0134546,-0.00958537,-0.0111581,0.0179725,-0.0141032,-0.38472,0.0185638,0.0278223,1882,1338,9.28501,-3.17705
665,-314,9.20239,3.18408,0.0124254,-0.00886657,-0.00884869,0.0156227,-0.0120639,-0.346732,0.0160288,0.0123173,1889,1338,9.20244,-3.18412
672,-314,9.21252,3.11401,0.00985216,-0.00786081,-0.0063629,0.0119009,-0.00990954,-0.311499,0.0126097,0.0110305,1896,1338,9.21249,-3.11399
679,-314,9.22546,3.00476,0.00682255,-0.00574419,-0.0038675,0.00791741,-0.00683905,-0.275875,0.00852723,0.00931035,1903,1338,9.22547,-3.00481
686,-314,9.22241,2.88916,0.00494174,-0.00443453,-0.00202628,0.0053609,-0.00485369,-0.203983,0.00589982,0.0115633,1910,1338,9.22236,-2.88915
693,-314,9.21387,2.79248,0.00280106,-0.00351979,-3.01615e-05,0.0028012,-0.00351994,-0.0047716,0.00365737,0.0115908,1917,1338,9.21386,-2.79246
700,-314,9.23132,2.6864,0.0018349,-0.00370233,0.00101854,0.00201631,-0.00388374,0.176261,0.0034628,0.0108963,1924,1338,9.23133,-2.68639
707,-314,9.22668,2.58167,0.00292951,-0.00521865,0.00088063,0.0030236,-0.00531274,0.10644,0.0048731,0.0116247,1931,1338,9.22664,-2.58165
714,-314,9.21326,2.50977,0.00423612,-0.00725405,0.000623625,0.00426987,-0.0072878,0.054063,0.00674823,0.0115689,1938,1338,9.21321,-2.50976
721,-314,9.21338,2.41699,0.00570823,-0.0109607,0.000149536,0.00570957,-0.010962,0.00897,0.0097833,0.0153834,1945,1338,9.21338,-2.41694
728,-314,9.19763,2.32629,0.00737377,-0.0162362,-0.000490377,0.00738395,-0.0162464,-0.020758,0.0139591,0.0225388,1952,1338,9.19763,-2.32625
735,-314,9.34814,2.46362,0.00929754,-0.0233841,-0.00164031,0.00937966,-0.0234663,-0.0500229,0.0195363,0.0357686,1959,1338,9.34812,-2.46363
742,-314,9.47839,2.58545,0.0115015,-0.0327504,-0.00360293,0.011793,-0.0330419,-0.0807101,0.026837,0.0445287,1966,1338,9.47834,-2.58542
749,-314,9.62793,2.73999,0,0,0,0,0,0,0,-1,1973,1338,9.62795,-2.74005
756,-314,8.87317,2.11499,0,0,0,0,0,0,0,-1,1980,1338,8.87321,-2.11497
763,-314,8.90234,2.23816,0,0,0,0,0,0,0,-1,1987,1338,8.90238,-2.23812
770,-314,0,0,0,0,0,0,0,0,0,-1,1994,1338,0,0
777,-314,0,0,0,0,0,0,0,0,0,-1,2001,1338,0,0
784,-314,0,0,0,0,0,0,0,0,0,-1,2008,1338,0,0
791,-314,0,0,0,0,0,0,0,0,0,-1,2015,1338,0,0
798,-314,0,0,0,0,0,0,0,0,0,-1,2022,1338,0,0
805,-314,0,0,0,0,0,0,0,0,0,-1,2029,1338,0,0
812,-314,0,0,0,0,0,0,0,0,0,-1,2036,1338,0,0
-700,-321,0,0,0,0,0,0,0,0,0,-1,524,1345,0,0
-693,-321,0,0,0,0,0,0,0,0,0,-1,531,1345,0,0
-686,-321,0,0,0,0,0,0,0,0,0,-1,538,1345,0,0
-679,-321,0,0,0,0,0,0,0,0,0,-1,545,1345,0,0
-672,-321,0,0,0,0,0,0,0,0,0,-1,552,1345,0,0
-665,-321,0,0,0,0,0,0,0,0,0,-1,559,1345,0,0
-658,-321,0,0,0,0,0,0,0,0,0,-1,566,1345,0,0
-651,-321,0,0,0,0,0,0,0,0,0,-1,573,1345,0,0
-644,-321,1.59296,2.33496,0,0,0,0,0,0,0,-1,580,1345,1.59297,-2.33501
-637,-321,0.0551147,2.17432,-0.0559682,-0.0187349,-0.046967,0.0131706,-0.0878737,-0.974088,0.0634301,0.0481105,587,1345,0.0550985,-2.17431
-630,-321,-1.51056,2.11279,-0.0502402,-0.0147313,-0.0392627,0.0106047,-0.0755761,-0.997737,0.0542655,0.0468658,594,1345,-1.51058,-2.11278
-623,-321,-3.24475,1.99695,-0.0428883,-0.0109487,-0.0321394,0.00896986,-0.0628069,-1.01598,0.0451591,0.0490416,601,1345,-3.24476,-1.99696
-616,-321,-2.59106,0.679565,0,0,0,0,0,0,0,-1,608,1345,-2.59104,-0.679589
-609,-321,-2.70355,0.442139,0,0,0,0,0,0,0,-1,615,1345,-2.70358,-0.442171
-602,-321,-2.69641,0.771484,-0.0212833,-0.0031343,-0.0154446,0.00570435,-0.030122,-1.05101,0.0222281,0.0481814,622,1345,-2.69643,-0.771507
-595,-321,-2.74506,1.11096,-0.0167826,-0.00139925,-0.0116506,0.0048697,-0.0230516,-1.07715,0.017222,0.0404645,629,1345,-2.74508,-1.11092
-588,-321,-2.8642,1.17798,-0.012611,-0.000241392,-0.00763541,0.00339985,-0.0162522,-1.12581,0.012128,0.0139714,636,1345,-2.86422,-1.17796
-581,-321,-2.87494,1.3125,-0.00729387,0.000936164,-0.00507348,0.00335364,-0.00971135,-1.12613,0.00783513,0.0114703,643,1345,-2.87495,-1.31253
-574,-321,-2.89276,1.3999,-0.00252503,0.00121039,-0.00314737,0.0030025,-0.00431715,-1.05318,0.00424866,0.0144859,650,1345,-2.89276,-1.39992
-567,-321,-2.87592,1.51099,-0.00033638,0.000915009,-0.00226886,0.00264287,-0.00206424,-0.919941,0.00272449,0.0195516,657,1345,-2.87589,-1.51101
-560,-321,-2.88605,1.66211,0.000733044,-0.00073138,-0.00260714,0.00270884,-0.00270718,-0.6485,0.00312694,0.0226903,664,1345,-2.88608,-1.66215
-553,-321,-2.93811,1.74695,0.00181469,-0.00264686,-0.00333646,0.00359743,-0.0044296,-0.490727,0.00464271,0.024624,671,1345,-2.93814,-1.74691
-546,-321,-2.92267,1.85754,0.0034706,-0.00409718,-0.00471239,0.00573025,-0.00635684,-0.447125,0.00698161,0.0241797,678,1345,-2.92268,-1.85757
-539,-321,-2.88977,1.97864,0.00519081,-0.00586619,-0.00635857,0.00808821,-0.00876359,-0.427557,0.00973199,0.021729,685,1345,-2.88975,-1.9786
-532,-321,-2.80292,2.11169,0.00816517,-0.00786728,-0.00832985,0.0117095,-0.0114116,-0.402291,0.0133493,0.0145334,692,1345,-2.80292,-2.11168
-525,-321,-2.81476,2.25732,0.0110288,-0.0101282,-0.010932,0.0156626,-0.014762,-0.400915,0.0175682,0.0226382,699,1345,-2.81474,-2.25736
-518,-321,-2.95673,2.30005,0.0170466,-0.0119968,-0.0128062,0.0218867,-0.0168368,-0.361353,0.0224203,0.039676,706,1345,-2.95672,-2.30008
-511,-321,-2.46771,1.18591,0.0262028,-0.0145231,-0.0139721,0.0305354,-0.0188557,-0.300686,0.0287805,0.0452649,713,1345,-2.4677,-1.18592
-504,-321,-3.20441,1.82971,0.0367164,-0.0131672,-0.0170131,0.0419663,-0.0184171,-0.29931,0.0357352,0.0473316,720,1345,-3.20441,-1.82971
-497,-321,-3.30914,1.74854,0.0486379,-0.00828855,-0.020297,0.0551336,-0.0147842,-0.309731,0.0425487,0.0463512,727,1345,-3.30917,-1.74853
-490,-321,-2.948,2.12292,0,0,0,0,0,0,0,-1,734,1345,-2.94798,-2.12292
-483,-321,-6.41876,1.47461,0,0,0,0,0,0,0,-1,741,1345,-6.41874,-1.47463
-476,-321,-5.50281,0.173096,0,0,0,0,0,0,0,-1,748,1345,-5.50283,-0.173073
-469,-321,-4.16827,-0.329956,0.111723,0.0454864,-0.0473088,0.136354,0.0208558,-0.480019,0.0848099,0.041315,755,1345,-4.16827,0.329995
-462,-321,-2.94421,-1.03101,0.130645,0.0682445,-0.0591488,0.166318,0.0325715,-0.5427,0.101774,0.045013,762,1345,-2.9442,1.031
-455,-321,0,0,0,0,0,0,0,0,0,-1,769,1345,0,0
-448,-321,0,0,0,0,0,0,0,0,0,-1,776,1345,0,0
-441,-321,0,0,0,0,0,0,0,0,0,-1,783,1345,0,0
-434,-321,0,0,0,0,0,0,0,0,0,-1,790,1345,0,0
-427,-321,0,0,0,0,0,0,0,0,0,-1,797,1345,0,0
-420,-321,0,0,0,0,0,0,0,0,0,-1,804,1345,0,0
-413,-321,0,0,0,0,0,0,0,0,0,-1,811,1345,0,0
-406,-321,0,0,0,0,0,0,0,0,0,-1,818,1345,0,0
-399,-321,0,0,0,0,0,0,0,0,0,-1,825,1345,0,0
-392,-321,0,0,0,0,0,0,0,0,0,-1,832,1345,0,0
-385,-321,0,0,0,0,0,0,0,0,0,-1,839,1345,0,0
-378,-321,0,0,0,0,0,0,0,0,0,-1,846,1345,0,0
-371,-321,0,0,0,0,0,0,0,0,0,-1,853,1345,0,0
-364,-321,0,0,0,0,0,0,0,0,0,-1,860,1345,0,0
-357,-321,0,0,0,0,0,0,0,0,0,-1,867,1345,0,0
-350,-321,0,0,0,0,0,0,0,0,0,-1,874,1345,0,0
-343,-321,0,0,0,0,0,0,0,0,0,-1,881,1345,0,0
-336,-321,0,0,0,0,0,0,0,0,0,-1,888,1345,0,0
-329,-321,0,0,0,0,0,0,0,0,0,-1,895,1345,0,0
-322,-321,0,0,0,0,0,0,0,0,0,-1,902,1345,0,0
-315,-321,0,0,0,0,0,0,0,0,0,-1,909,1345,0,0
-308,-321,0,0,0,0,0,0,0,0,0,-1,916,1345,0,0
-301,-321,0,0,0,0,0,0,0,0,0,-1,923,1345,0,0
-294,-321,0,0,0,0,0,0,0,0,0,-1,930,1345,0,0
-287,-321,0,0,0,0,0,0,0,0,0,-1,937,1345,0,0
-280,-321,0,0,0,0,0,0,0,0,0,-1,944,1345,0,0
-273,-321,0,0,0,0,0,0,0,0,0,-1,951,1345,0,0
-266,-321,0,0,0,0,0,0,0,0,0,-1,958,1345,0,0
-259,-321,0,0,0,0,0,0,0,0,0,-1,965,1345,0,0
-252,-321,0,0,0,0,0,0,0,0,0,-1,972,1345,0,0
-245,-321,0,0,0,0,0,0,0,0,0,-1,979,1345,0,0
-238,-321,0,0,0,0,0,0,0,0,0,-1,986,1345,0,0
-231,-321,0,0,0,0,0,0,0,0,0,-1,993,1345,0,0
-224,-321,0,0,0,0,0,0,0,0,0,-1,1000,1345,0,0
-217,-321,0,0,0,0,0,0,0,0,0,-1,1007,1345,0,0
-210,-321,0,0,0,0,0,0,0,0,0,-1,1014,1345,0,0
-203,-321,0,0,0,0,0,0,0,0,0,-1,1021,1345,0,0
-196,-321,0,0,0,0,0,0,0,0,0,-1,1028,1345,0,0
-189,-321,0,0,0,0,0,0,0,0,0,-1,1035,1345,0,0
-182,-321,0,0,0,0,0,0,0,0,0,-1,1042,1345,0,0
-175,-321,0,0,0,0,0,0,0,0,0,-1,1049,1345,0,0
-168,-321,0,0,0,0,0,0,0,0,0,-1,1056,1345,0,0
-161,-321,0,0,0,0,0,0,0,0,0,-1,1063,1345,0,0
-154,-321,0,0,0,0,0,0,0,0,0,-1,1070,1345,0,0
-147,-321,0,0,0,0,0,0,0,0,0,-1,1077,1345,0,0
-140,-321,0,0,0,0,0,0,0,0,0,-1,1084,1345,0,0
-133,-321,0,0,0,0,0,0,0,0,0,-1,1091,1345,0,0
-126,-321,0,0,0,0,0,0,0,0,0,-1,1098,1345,0,0
-119,-321,0,0,0,0,0,0,0,0,0,-1,1105,1345,0,0
-112,-321,0,0,0,0,0,0,0,0,0,-1,1112,1345,0,0
-105,-321,0,0,0,0,0,0,0,0,0,-1,1119,1345,0,0
-98,-321,0,0,0,0,0,0,0,0,0,-1,1126,1345,0,0
-91,-321,0,0,0,0,0,0,0,0,0,-1,1133,1345,0,0
-84,-321,0,0,0,0,0,0,0,0,0,-1,1140,1345,0,0
-77,-321,0,0,0,0,0,0,0,0,0,-1,1147,1345,0,0
-70,-321,0,0,0,0,0,0,0,0,0,-1,1154,1345,0,0
-63,-321,0,0,0,0,0,0,0,0,0,-1,1161,1345,0,0
-56,-321,0,0,0,0,0,0,0,0,0,-1,1168,1345,0,0
-49,-321,0,0,0,0,0,0,0,0,0,-1,1175,1345,0,0
-42,-321,0,0,0,0,0,0,0,0,0,-1,1182,1345,0,0
-35,-321,0,0,0,0,0,0,0,0,0,-1,1189,1345,0,0
-28,-321,0,0,0,0,0,0,0,0,0,-1,1196,1345,0,0
-21,-321,0,0,0,0,0,0,0,0,0,-1,1203,1345,0,0
-14,-321,0,0,0,0,0,0,0,0,0,-1,1210,1345,0,0
-7,-321,0,0,0,0,0,0,0,0,0,-1,1217,1345,0,0
0,-321,0,0,0,0,0,0,0,0,0,-1,1224,1345,0,0
7,-321,0,0,0,0,0,0,0,0,0,-1,1231,1345,0,0
14,-321,0,0,0,0,0,0,0,0,0,-1,1238,1345,0,0
21,-321,0,0,0,0,0,0,0,0,0,-1,1245,1345,0,0
28,-321,0,0,0,0,0,0,0,0,0,-1,1252,1345,0,0
35,-321,0,0,0,0,0,0,0,0,0,-1,1259,1345,0,0
42,-321,0,0,0,0,0,0,0,0,0,-1,1266,1345,0,0
49,-321,0,0,0,0,0,0,0,0,0,-1,1273,1345,0,0
56,-321,0,0,0,0,0,0,0,0,0,-1,1280,1345,0,0
63,-321,0,0,0,0,0,0,0,0,0,-1,1287,1345,0,0
70,-321,0,0,0,0,0,0,0,0,0,-1,1294,1345,0,0
77,-321,0,0,0,0,0,0,0,0,0,-1,1301,1345,0,0
84,-321,0,0,0,0,0,0,0,0,0,-1,1308,1345,0,0
91,-321,0,0,0,0,0,0,0,0,0,-1,1315,1345,0,0
98,-321,0,0,0,0,0,0,0,0,0,-1,1322,1345,0,0
105,-321,0,0,0,0,0,0,0,0,0,-1,1329,1345,0,0
112,-321,0,0,0,0,0,0,0,0,0,-1,1336,1345,0,0
119,-321,0,0,0,0,0,0,0,0,0,-1,1343,1345,0,0
126,-321,0,0,0,0,0,0,0,0,0,-1,1350,1345,0,0
133,-321,0,0,0,0,0,0,0,0,0,-1,1357,1345,0,0
140,-321,0,0,0,0,0,0,0,0,0,-1,1364,1345,0,0
147,-321,0,0,0,0,0,0,0,0,0,-1,1371,1345,0,0
154,-321,0,0,0,0,0,0,0,0,0,-1,1378,1345,0,0
161,-321,0,0,0,0,0,0,0,0,0,-1,1385,1345,0,0
168,-321,0,0,0,0,0,0,0,0,0,-1,1392,1345,0,0
175,-321,0,0,0,0,0,0,0,0,0,-1,1399,1345,0,0
182,-321,0,0,0,0,0,0,0,0,0,-1,1406,1345,0,0
189,-321,0,0,0,0,0,0,0,0,0,-1,1413,1345,0,0
196,-321,0,0,0,0,0,0,0,0,0,-1,1420,1345,0,0
203,-321,0,0,0,0,0,0,0,0,0,-1,1427,1345,0,0
210,-321,0,0,0,0,0,0,0,0,0,-1,1434,1345,0,0
217,-321,0,0,0,0,0,0,0,0,0,-1,1441,1345,0,0
224,-321,0,0,0,0,0,0,0,0,0,-1,1448,1345,0,0
231,-321,0,0,0,0,0,0,0,0,0,-1,1455,1345,0,0
238,-321,0,0,0,0,0,0,0,0,0,-1,1462,1345,0,0
245,-321,0,0,0,0,0,0,0,0,0,-1,1469,1345,0,0
252,-321,0,0,0,0,0,0,0,0,0,-1,1476,1345,0,0
259,-321,0,0,0,0,0,0,0,0,0,-1,1483,1345,0,0
266,-321,0,0,0,0,0,0,0,0,0,-1,1490,1345,0,0
273,-321,0,0,0,0,0,0,0,0,0,-1,1497,1345,0,0
280,-321,0,0,0,0,0,0,0,0,0,-1,1504,1345,0,0
287,-321,0,0,0,0,0,0,0,0,0,-1,1511,1345,0,0
294,-321,0,0,0,0,0,0,0,0,0,-1,1518,1345,0,0
301,-321,0,0,0,0,0,0,0,0,0,-1,1525,1345,0,0
308,-321,0,0,0,0,0,0,0,0,0,-1,1532,1345,0,0
315,-321,0,0,0,0,0,0,0,0,0,-1,1539,1345,0,0
322,-321,0,0,0,0,0,0,0,0,0,-1,1546,1345,0,0
329,-321,0,0,0,0,0,0,0,0,0,-1,1553,1345,0,0
336,-321,0,0,0,0,0,0,0,0,0,-1,1560,1345,0,0
343,-321,0,0,0,0,0,0,0,0,0,-1,1567,1345,0,0
350,-321,0,0,0,0,0,0,0,0,0,-1,1574,1345,0,0
357,-321,0,0,0,0,0,0,0,0,0,-1,1581,1345,0,0
364,-321,0,0,0,0,0,0,0,0,0,-1,1588,1345,0,0
371,-321,0,0,0,0,0,0,0,0,0,-1,1595,1345,0,0
378,-321,0,0,0,0,0,0,0,0,0,-1,1602,1345,0,0
385,-321,0,0,0,0,0,0,0,0,0,-1,1609,1345,0,0
392,-321,0,0,0,0,0,0,0,0,0,-1,1616,1345,0,0
399,-321,0,0,0,0,0,0,0,0,0,-1,1623,1345,0,0
406,-321,0,0,0,0,0,0,0,0,0,-1,1630,1345,0,0
413,-321,0,0,0,0,0,0,0,0,0,-1,1637,1345,0,0
420,-321,0,0,0,0,0,0,0,0,0,-1,1644,1345,0,0
427,-321,0,0,0,0,0,0,0,0,0,-1,1651,1345,0,0
434,-321,0,0,0,0,0,0,0,0,0,-1,1658,1345,0,0
441,-321,0,0,0,0,0,0,0,0,0,-1,1665,1345,0,0
448,-321,0,0,0,0,0,0,0,0,0,-1,1672,1345,0,0
455,-321,0,0,0,0,0,0,0,0,0,-1,1679,1345,0,0
462,-321,0,0,0,0,0,0,0,0,0,-1,1686,1345,0,0
469,-321,0,0,0,0,0,0,0,0,0,-1,1693,1345,0,0
476,-321,0,0,0,0,0,0,0,0,0,-1,1700,1345,0,0
483,-321,0,0,0,0,0,0,0,0,0,-1,1707,1345,0,0
490,-321,0,0,0,0,0,0,0,0,0,-1,1714,1345,0,0
497,-321,0,0,0,0,0,0,0,0,0,-1,1721,1345,0,0
504,-321,0,0,0,0,0,0,0,0,0,-1,1728,1345,0,0
511,-321,0,0,0,0,0,0,0,0,0,-1,1735,1345,0,0
518,-321,0,0,0,0,0,0,0,0,0,-1,1742,1345,0,0
525,-321,0,0,0,0,0,0,0,0,0,-1,1749,1345,0,0
532,-321,0,0,0,0,0,0,0,0,0,-1,1756,1345,0,0
539,-321,0,0,0,0,0,0,0,0,0,-1,1763,1345,0,0
546,-321,0,0,0,0,0,0,0,0,0,-1,1770,1345,0,0
553,-321,0,0,0,0,0,0,0,0,0,-1,1777,1345,0,0
560,-321,0,0,0,0,0,0,0,0,0,-1,1784,1345,0,0
567,-321,0,0,0,0,0,0,0,0,0,-1,1791,1345,0,0
574,-321,0,0,0,0,0,0,0,0,0,-1,1798,1345,0,0
581,-321,13.8167,2.00781,0,0,0,0,0,0,0,-1,1805,1345,13.8166,-2.00786
588,-321,13.8162,2.34851,-0.0391698,-0.0481637,-0.0309698,-0.0123722,-0.0749614,-0.7133,0.0464033,0.0477481,1812,1345,13.8162,-2.34853
595,-321,13.8228,2.69067,-0.0366797,-0.0305957,-0.0231901,-0.0102489,-0.0570264,-0.850614,0.0351036,0.0463804,1819,1345,13.8227,-2.69065
602,-321,13.8103,2.93909,-0.027775,-0.0218669,-0.0209545,-0.0036593,-0.0459826,-0.855423,0.029511,0.043494,1826,1345,13.8103,-2.93909
609,-321,13.6345,3.19434,-0.0185663,-0.016645,-0.0199489,0.00236634,-0.0375776,-0.809458,0.0258766,0.0442971,1833,1345,13.6346,-3.19428
616,-321,12.4124,2.73022,0,0,0,0,0,0,0,-1,1840,1345,12.4123,-2.73019
623,-321,12.4622,2.66492,0,0,0,0,0,0,0,-1,1847,1345,12.4622,-2.66496
630,-321,9.14392,2.9646,0,0,0,0,0,0,0,-1,1854,1345,9.14394,-2.96462
637,-321,9.31641,3.35706,0.00387252,-0.010503,-0.0144081,0.0127862,-0.0194167,-0.554027,0.0187233,0.047298,1861,1345,9.31638,-3.35709
644,-321,9.30566,3.09766,0.0059812,-0.00918155,-0.0122692,0.0128224,-0.0160228,-0.508653,0.0166879,0.0431108,1868,1345,9.30569,-3.09761
651,-321,9.29688,3.1051,0.00719015,-0.00831974,-0.0100275,0.0121116,-0.0132411,-0.456253,0.0146422,0.042536,1875,1345,9.29685,-3.10514
658,-321,9.15198,3.22949,0.00782456,-0.00750113,-0.00815041,0.0113487,-0.0110253,-0.40811,0.0129181,0.0215913,1882,1345,9.15197,-3.22953
665,-321,9.10815,3.18591,0.0076485,-0.00688194,-0.00618226,0.00992287,-0.00915631,-0.352519,0.0110183,0.0145801,1889,1345,9.10816,-3.18594
672,-321,9.11829,3.10229,0.00612313,-0.00604135,-0.00430331,0.00749154,-0.00740976,-0.307878,0.00860331,0.0124847,1896,1345,9.11828,-3.10235
679,-321,9.13086,2.99622,0.00436156,-0.00428244,-0.00245113,0.00500823,-0.00492912,-0.257949,0.00573739,0.0106309,1903,1345,9.13083,-2.99625
686,-321,9.11328,2.89465,0.00358431,-0.00340021,-0.00116381,0.00377313,-0.00358902,-0.160839,0.00425099,0.0109683,1910,1345,9.11331,-2.89464
693,-321,9.10852,2.80371,0.00234284,-0.00281905,0.00038499,0.0023714,-0.00284761,0.0740372,0.00301737,0.0115534,1917,1345,9.10853,-2.8037
700,-321,9.12598,2.68726,0.00199874,-0.00348529,0.00117702,0.00224069,-0.00372724,0.202733,0.00348103,0.0111425,1924,1345,9.126,-2.68726
707,-321,9.12939,2.5824,0.00332593,-0.00567946,0.00106112,0.00344928,-0.0058028,0.11572,0.00539899,0.0127507,1931,1345,9.12937,-2.58238
714,-321,9.12122,2.48792,0.00460614,-0.00836242,0.00102911,0.00468729,-0.00844357,0.0786982,0.00768381,0.012308,1938,1345,9.12118,-2.48795
721,-321,9.0907,2.34937,0.00595618,-0.0127305,0.000900009,0.00599943,-0.0127738,0.0480149,0.0110714,0.0158725,1945,1345,9.09065,-2.3494
728,-321,9.11475,2.29285,0.00740196,-0.0189426,0.000672874,0.00741914,-0.0189598,0.0255191,0.0157082,0.0242929,1952,1345,9.1147,-2.29279
735,-321,9.35413,2.38,0.00898058,-0.0273448,6.098e-05,0.00898069,-0.0273449,0.00167871,0.0218477,0.0410418,1959,1345,9.35417,-2.37996
742,-321,9.50647,2.44141,0.0106924,-0.0383625,-0.00119492,0.0107215,-0.0383916,-0.0243395,0.0298178,0.0455928,1966,1345,9.50647,-2.44136
749,-321,9.35327,2.16931,0.012591,-0.0524506,-0.00348774,0.0127775,-0.052637,-0.0534191,0.040036,0.0428237,1973,1345,9.35324,-2.16935
756,-321,9.37769,1.94739,0.0148023,-0.0700833,-0.00745111,0.0154514,-0.0707324,-0.0868928,0.0530607,0.0431318,1980,1345,9.37766,-1.94736
763,-321,9.39575,2.2207,0,0,0,0,0,0,0,-1,1987,1345,9.39578,-2.22075
770,-321,0,0,0,0,0,0,0,0,0,-1,1994,1345,0,0
777,-321,0,0,0,0,0,0,0,0,0,-1,2001,1345,0,0
784,-321,0,0,0,0,0,0,0,0,0,-1,2008,1345,0,0
791,-321,0,0,0,0,0,0,0,0,0,-1,2015,1345,0,0
798,-321,0,0,0,0,0,0,0,0,0,-1,2022,1345,0,0
805,-321,0,0,0,0,0,0,0,0,0,-1,2029,1345,0,0
812,-321,0,0,0,0,0,0,0,0,0,-1,2036,1345,0,0
-700,-328,0,0,0,0,0,0,0,0,0,-1,524,1352,0,0
-693,-328,0,0,0,0,0,0,0,0,0,-1,531,1352,0,0
-686,-328,0,0,0,0,0,0,0,0,0,-1,538,1352,0,0
-679,-328,0,0,0,0,0,0,0,0,0,-1,545,1352,0,0
-672,-328,0,0,0,0,0,0,0,0,0,-1,552,1352,0,0
-665,-328,0,0,0,0,0,0,0,0,0,-1,559,1352,0,0
-658,-328,0,0,0,0,0,0,0,0,0,-1,566,1352,0,0
-651,-328,0,0,0,0,0,0,0,0,0,-1,573,1352,0,0
-644,-328,0,0,0,0,0,0,0,0,0,-1,580,1352,0,0
-637,-328,1.25348,2.3291,-0.0729516,-0.0121453,-0.0521151,0.0177867,-0.102884,-1.04945,0.0752222,0.0464521,587,1352,1.25348,-2.32914
-630,-328,-0.610291,2.67444,-0.0642344,-0.00822783,-0.0438308,0.0157816,-0.0882438,-1.06966,0.0647342,0.0476532,594,1352,-0.61028,-2.67439
-623,-328,-2.013,2.9436,-0.0539848,-0.00515343,-0.0361662,0.0140671,-0.0732053,-1.08231,0.0541056,0.0448578,601,1352,-2.01299,-2.94358
-616,-328,-2.521,2.37488,-0.0438043,-0.00278666,-0.0292465,0.0124252,-0.0590162,-1.09118,0.0440736,0.0448095,608,1352,-2.52102,-2.37489
-609,-328,-3.01703,2.50537,0,0,0,0,0,0,0,-1,615,1352,-3.01705,-2.50541
-602,-328,-2.68817,0.688965,0,0,0,0,0,0,0,-1,622,1352,-2.68817,-0.688986
-595,-328,-2.77905,1.56274,-0.0204125,0.000900888,-0.0136118,0.00753136,-0.027043,-1.11751,0.0209943,0.0442598,629,1352,-2.77904,-1.56272
-588,-328,-2.7309,1.18115,-0.0151313,0.00137645,-0.00917704,0.00546537,-0.0192202,-1.15164,0.0149715,0.0261685,636,1352,-2.73089,-1.18119
-581,-328,-2.76221,1.30957,-0.00890009,0.00208795,-0.00623501,0.00490414,-0.0117163,-1.14655,0.00986081,0.0128646,643,1352,-2.76223,-1.30953
-574,-328,-2.77179,1.41089,-0.00363635,0.00186995,-0.00397599,0.00395295,-0.00571935,-1.08822,0.00561526,0.0137933,650,1352,-2.77178,-1.41095
-567,-328,-2.75208,1.53577,-0.00124944,0.00146366,-0.00263705,0.00307262,-0.0028584,-1.02296,0.00342502,0.0185473,657,1352,-2.75207,-1.53577
-560,-328,-2.73962,1.66101,-0.000173302,-0.00029189,-0.00264294,0.00241101,-0.0028762,-0.774183,0.00305651,0.0261203,664,1352,-2.73963,-1.66098
-553,-328,-2.8075,1.77136,0.000750407,-0.00218877,-0.00309783,0.00270956,-0.00414792,-0.563922,0.00398809,0.0269735,671,1352,-2.80747,-1.77132
-546,-328,-2.83398,1.85486,0.00209424,-0.00357366,-0.00414528,0.00428171,-0.00576113,-0.485562,0.00581917,0.0249286,678,1352,-2.83399,-1.8549
-539,-328,-2.79346,1.96265,0.00332903,-0.00525371,-0.00543771,0.00596475,-0.00788943,-0.451342,0.00802441,0.0208324,685,1352,-2.79347,-1.9627
-532,-328,-2.72662,2.08875,0.00558579,-0.00708847,-0.0069613,0.00866242,-0.0101651,-0.41615,0.0108816,0.0140511,692,1352,-2.72661,-2.08868
-525,-328,-2.72833,2.24243,0.00757318,-0.00923365,-0.00908413,0.0115447,-0.0132052,-0.412152,0.0143,0.0102853,699,1352,-2.72833,-2.24239
-518,-328,-2.71802,2.36963,0.0124769,-0.0108951,-0.0105263,0.0165188,-0.014937,-0.366618,0.0181686,0.0264132,706,1352,-2.71801,-2.36968
-511,-328,-2.76611,2.0907,0.0205003,-0.0133178,-0.0113854,0.0239761,-0.0167937,-0.296301,0.0236599,0.0392005,713,1352,-2.76609,-2.09067
-504,-328,-2.9314,1.82336,0.0300438,-0.0111443,-0.0144968,0.0346346,-0.0157351,-0.30668,0.0297555,0.0447703,720,1352,-2.93139,-1.82336
-497,-328,-2.98169,1.79956,0.0409148,-0.00483173,-0.0181588,0.0472465,-0.0111634,-0.335501,0.0358037,0.0446327,727,1352,-2.98169,-1.79959
-490,-328,-2.85364,1.93762,0,0,0,0,0,0,0,-1,734,1352,-2.85363,-1.93759
-483,-328,-2.68738,2.13879,0,0,0,0,0,0,0,-1,741,1352,-2.68737,-2.13883
-476,-328,-5.8902,0.378418,0,0,0,0,0,0,0,-1,748,1352,-5.8902,-0.378381
-469,-328,-4.69135,-0.118896,0.0989851,0.0600672,-0.0505,0.133645,0.0254068,-0.601502,0.0819515,0.0468343,755,1352,-4.69134,0.118879
-462,-328,-3.54944,-0.631958,0.115889,0.0873005,-0.0640944,0.167264,0.0359258,-0.675684,0.101672,0.0443393,762,1352,-3.54946,0.631899
-455,-328,0,0,0,0,0,0,0,0,0,-1,769,1352,0,0
-448,-328,0,0,0,0,0,0,0,0,0,-1,776,1352,0,0
-441,-328,0,0,0,0,0,0,0,0,0,-1,783,1352,0,0
-434,-328,0,0,0,0,0,0,0,0,0,-1,790,1352,0,0
-427,-328,0,0,0,0,0,0,0,0,0,-1,797,1352,0,0
-420,-328,0,0,0,0,0,0,0,0,0,-1,804,1352,0,0
-413,-328,0,0,0,0,0,0,0,0,0,-1,811,1352,0,0
-406,-328,0,0,0,0,0,0,0,0,0,-1,818,1352,0,0
-399,-328,0,0,0,0,0,0,0,0,0,-1,825,1352,0,0
-392,-328,0,0,0,0,0,0,0,0,0,-1,832,1352,0,0
-385,-328,0,0,0,0,0,0,0,0,0,-1,839,1352,0,0
-378,-328,0,0,0,0,0,0,0,0,0,-1,846,1352,0,0
-371,-328,0,0,0,0,0,0,0,0,0,-1,853,1352,0,0
-364,-328,0,0,0,0,0,0,0,0,0,-1,860,1352,0,0
-357,-328,0,0,0,0,0,0,0,0,0,-1,867,1352,0,0
-350,-328,0,0,0,0,0,0,0,0,0,-1,874,1352,0,0
-343,-328,0,0,0,0,0,0,0,0,0,-1,881,1352,0,0
-336,-328,0,0,0,0,0,0,0,0,0,-1,888,1352,0,0
-329,-328,0,0,0,0,0,0,0,0,0,-1,895,1352,0,0
-322,-328,0,0,0,0,0,0,0,0,0,-1,902,1352,0,0
-315,-328,0,0,0,0,0,0,0,0,0,-1,909,1352,0,0
-308,-328,0,0,0,0,0,0,0,0,0,-1,916,1352,0,0
-301,-328,0,0,0,0,0,0,0,0,0,-1,923,1352,0,0
-294,-328,0,0,0,0,0,0,0,0,0,-1,930,1352,0,0
-287,-328,0,0,0,0,0,0,0,0,0,-1,937,1352,0,0
-280,-328,0,0,0,0,0,0,0,0,0,-1,944,1352,0,0
-273,-328,0,0,0,0,0,0,0,0,0,-1,951,1352,0,0
-266,-328,0,0,0,0,0,0,0,0,0,-1,958,1352,0,0
-259,-328,0,0,0,0,0,0,0,0,0,-1,965,1352,0,0
-252,-328,0,0,0,0,0,0,0,0,0,-1,972,1352,0,0
-245,-328,0,0,0,0,0,0,0,0,0,-1,979,1352,0,0
-238,-328,0,0,0,0,0,0,0,0,0,-1,986,1352,0,0
-231,-328,0,0,0,0,0,0,0,0,0,-1,993,1352,0,0
-224,-328,0,0,0,0,0,0,0,0,0,-1,1000,1352,0,0
-217,-328,0,0,0,0,0,0,0,0,0,-1,1007,1352,0,0
-210,-328,0,0,0,0,0,0,0,0,0,-1,1014,1352,0,0
-203,-328,0,0,0,0,0,0,0,0,0,-1,1021,1352,0,0
-196,-328,0,0,0,0,0,0,0,0,0,-1,1028,1352,0,0
-189,-328,0,0,0,0,0,0,0,0,0,-1,1035,1352,0,0
-182,-328,0,0,0,0,0,0,0,0,0,-1,1042,1352,0,0
-175,-328,0,0,0,0,0,0,0,0,0,-1,1049,1352,0,0
-168,-328,0,0,0,0,0,0,0,0,0,-1,1056,1352,0,0
-161,-328,0,0,0,0,0,0,0,0,0,-1,1063,1352,0,0
-154,-328,0,0,0,0,0,0,0,0,0,-1,1070,1352,0,0
-147,-328,0,0,0,0,0,0,0,0,0,-1,1077,1352,0,0
-140,-328,0,0,0,0,0,0,0,0,0,-1,1084,1352,0,0
-133,-328,0,0,0,0,0,0,0,0,0,-1,1091,1352,0,0
-126,-328,0,0,0,0,0,0,0,0,0,-1,1098,1352,0,0
-119,-328,0,0,0,0,0,0,0,0,0,-1,1105,1352,0,0
-112,-328,0,0,0,0,0,0,0,0,0,-1,1112,1352,0,0
-105,-328,0,0,0,0,0,0,0,0,0,-1,1119,1352,0,0
-98,-328,0,0,0,0,0,0,0,0,0,-1,1126,1352,0,0
-91,-328,0,0,0,0,0,0,0,0,0,-1,1133,1352,0,0
-84,-328,0,0,0,0,0,0,0,0,0,-1,1140,1352,0,0
-77,-328,0,0,0,0,0,0,0,0,0,-1,1147,1352,0,0
-70,-328,0,0,0,0,0,0,0,0,0,-1,1154,1352,0,0
-63,-328,0,0,0,0,0,0,0,0,0,-1,1161,1352,0,0
-56,-328,0,0,0,0,0,0,0,0,0,-1,1168,1352,0,0
-49,-328,0,0,0,0,0,0,0,0,0,-1,1175,1352,0,0
-42,-328,0,0,0,0,0,0,0,0,0,-1,1182,1352,0,0
-35,-328,0,0,0,0,0,0,0,0,0,-1,1189,1352,0,0
-28,-328,0,0,0,0,0,0,0,0,0,-1,1196,1352,0,0
-21,-328,0,0,0,0,0,0,0,0,0,-1,1203,1352,0,0
-14,-328,0,0,0,0,0,0,0,0,0,-1,1210,1352,0,0
-7,-328,0,0,0,0,0,0,0,0,0,-1,1217,1352,0,0
0,-328,0,0,0,0,0,0,0,0,0,-1,1224,1352,0,0
7,-328,0,0,0,0,0,0,0,0,0,-1,1231,1352,0,0
14,-328,0,0,0,0,0,0,0,0,0,-1,1238,1352,0,0
21,-328,0,0,0,0,0,0,0,0,0,-1,1245,1352,0,0
28,-328,0,0,0,0,0,0,0,0,0,-1,1252,1352,0,0
35,-328,0,0,0,0,0,0,0,0,0,-1,1259,1352,0,0
42,-328,0,0,0,0,0,0,0,0,0,-1,1266,1352,0,0
49,-328,0,0,0,0,0,0,0,0,0,-1,1273,1352,0,0
56,-328,0,0,0,0,0,0,0,0,0,-1,1280,1352,0,0
63,-328,0,0,0,0,0,0,0,0,0,-1,1287,1352,0,0
70,-328,0,0,0,0,0,0,0,0,0,-1,1294,1352,0,0
77,-328,0,0,0,0,0,0,0,0,0,-1,1301,1352,0,0
84,-328,0,0,0,0,0,0,0,0,0,-1,1308,1352,0,0
91,-328,0,0,0,0,0,0,0,0,0,-1,1315,1352,0,0
98,-328,0,0,0,0,0,0,0,0,0,-1,1322,1352,0,0
105,-328,0,0,0,0,0,0,0,0,0,-1,1329,1352,0,0
112,-328,0,0,0,0,0,0,0,0,0,-1,1336,1352,0,0
119,-328,0,0,0,0,0,0,0,0,0,-1,1343,1352,0,0
126,-328,0,0,0,0,0,0,0,0,0,-1,1350,1352,0,0
133,-328,0,0,0,0,0,0,0,0,0,-1,1357,1352,0,0
140,-328,0,0,0,0,0,0,0,0,0,-1,1364,1352,0,0
147,-328,0,0,0,0,0,0,0,0,0,-1,1371,1352,0,0
154,-328,0,0,0,0,0,0,0,0,0,-1,1378,1352,0,0
161,-328,0,0,0,0,0,0,0,0,0,-1,1385,1352,0,0
168,-328,0,0,0,0,0,0,0,0,0,-1,1392,1352,0,0
175,-328,0,0,0,0,0,0,0,0,0,-1,1399,1352,0,0
182,-328,0,0,0,0,0,0,0,0,0,-1,1406,1352,0,0
189,-328,0,0,0,0,0,0,0,0,0,-1,1413,1352,0,0
196,-328,0,0,0,0,0,0,0,0,0,-1,1420,1352,0,0
203,-328,0,0,0,0,0,0,0,0,0,-1,1427,1352,0,0
210,-328,0,0,0,0,0,0,0,0,0,-1,1434,1352,0,0
217,-328,0,0,0,0,0,0,0,0,0,-1,1441,1352,0,0
224,-328,0,0,0,0,0,0,0,0,0,-1,1448,1352,0,0
231,-328,0,0,0,0,0,0,0,0,0,-1,1455,1352,0,0
238,-328,0,0,0,0,0,0,0,0,0,-1,1462,1352,0,0
245,-328,0,0,0,0,0,0,0,0,0,-1,1469,1352,0,0
252,-328,0,0,0,0,0,0,0,0,0,-1,1476,1352,0,0
259,-328,0,0,0,0,0,0,0,0,0,-1,1483,1352,0,0
266,-328,0,0,0,0,0,0,0,0,0,-1,1490,1352,0,0
273,-328,0,0,0,0,0,0,0,0,0,-1,1497,1352,0,0
280,-328,0,0,0,0,0,0,0,0,0,-1,1504,1352,0,0
287,-328,0,0,0,0,0,0,0,0,0,-1,1511,1352,0,0
294,-328,0,0,0,0,0,0,0,0,0,-1,1518,1352,0,0
301,-328,0,0,0,0,0,0,0,0,0,-1,1525,1352,0,0
308,-328,0,0,0,0,0,0,0,0,0,-1,1532,1352,0,0
315,-328,0,0,0,0,0,0,0,0,0,-1,1539,1352,0,0
322,-328,0,0,0,0,0,0,0,0,0,-1,1546,1352,0,0
329,-328,0,0,0,0,0,0,0,0,0,-1,1553,1352,0,0
336,-328,0,0,0,0,0,0,0,0,0,-1,1560,1352,0,0
343,-328,0,0,0,0,0,0,0,0,0,-1,1567,1352,0,0
350,-328,0,0,0,0,0,0,0,0,0,-1,1574,1352,0,0
357,-328,0,0,0,0,0,0,0,0,0,-1,1581,1352,0,0
364,-328,0,0,0,0,0,0,0,0,0,-1,1588,1352,0,0
371,-328,0,0,0,0,0,0,0,0,0,-1,1595,1352,0,0
378,-328,0,0,0,0,0,0,0,0,0,-1,1602,1352,0,0
385,-328,0,0,0,0,0,0,0,0,0,-1,1609,1352,0,0
392,-328,0,0,0,0,0,0,0,0,0,-1,1616,1352,0,0
399,-328,0,0,0,0,0,0,0,0,0,-1,1623,1352,0,0
406,-328,0,0,0,0,0,0,0,0,0,-1,1630,1352,0,0
413,-328,0,0,0,0,0,0,0,0,0,-1,1637,1352,0,0
420,-328,0,0,0,0,0,0,0,0,0,-1,1644,1352,0,0
427,-328,0,0,0,0,0,0,0,0,0,-1,1651,1352,0,0
434,-328,0,0,0,0,0,0,0,0,0,-1,1658,1352,0,0
441,-328,0,0,0,0,0,0,0,0,0,-1,1665,1352,0,0
448,-328,0,0,0,0,0,0,0,0,0,-1,1672,1352,0,0
455,-328,0,0,0,0,0,0,0,0,0,-1,1679,1352,0,0
462,-328,0,0,0,0,0,0,0,0,0,-1,1686,1352,0,0
469,-328,0,0,0,0,0,0,0,0,0,-1,1693,1352,0,0
476,-328,0,0,0,0,0,0,0,0,0,-1,1700,1352,0,0
483,-328,0,0,0,0,0,0,0,0,0,-1,1707,1352,0,0
490,-328,0,0,0,0,0,0,0,0,0,-1,1714,1352,0,0
497,-328,0,0,0,0,0,0,0,0,0,-1,1721,1352,0,0
504,-328,0,0,0,0,0,0,0,0,0,-1,1728,1352,0,0
511,-328,0,0,0,0,0,0,0,0,0,-1,1735,1352,0,0
518,-328,0,0,0,0,0,0,0,0,0,-1,1742,1352,0,0
525,-328,0,0,0,0,0,0,0,0,0,-1,1749,1352,0,0
532,-328,0,0,0,0,0,0,0,0,0,-1,1756,1352,0,0
539,-328,0,0,0,0,0,0,0,0,0,-1,1763,1352,0,0
546,-328,0,0,0,0,0,0,0,0,0,-1,1770,1352,0,0
553,-328,0,0,0,0,0,0,0,0,0,-1,1777,1352,0,0
560,-328,0,0,0,0,0,0,0,0,0,-1,1784,1352,0,0
567,-328,0,0,0,0,0,0,0,0,0,-1,1791,1352,0,0
574,-328,15.3656,3.64807,0,0,0,0,0,0,0,-1,1798,1352,15.3655,-3.64802
581,-328,14.9037,3.08704,0,0,0,0,0,0,0,-1,1805,1352,14.9037,-3.08699
588,-328,14.7303,3.14551,-0.0403169,-0.047543,-0.0340714,-0.00966755,-0.0781924,-0.732574,0.0492232,0.0480901,1812,1352,14.7304,-3.14547
595,-328,14.5319,3.23181,-0.0382284,-0.0304535,-0.024825,-0.00921342,-0.0594685,-0.863065,0.0369593,0.0457247,1819,1352,14.5318,-3.23178
602,-328,14.3949,3.28149,-0.0304189,-0.0218073,-0.0212568,-0.00442456,-0.0478017,-0.885326,0.0305001,0.0458552,1826,1352,14.3949,-3.28146
609,-328,13.9486,3.35095,-0.0223329,-0.0163777,-0.0190333,-9.04631e-05,-0.0386201,-0.862991,0.0257167,0.0483985,1833,1352,13.9486,-3.35095
616,-328,13.3735,3.52502,0,0,0,0,0,0,0,-1,1840,1352,13.3735,-3.52499
623,-328,9.78296,3.3728,0,0,0,0,0,0,0,-1,1847,1352,9.78298,-3.37279
630,-328,9.69055,3.34424,0,0,0,0,0,0,0,-1,1854,1352,9.6906,-3.34429
637,-328,9.42346,3.34863,-0.00178122,-0.00899386,-0.0112799,0.00645482,-0.0172299,-0.630677,0.0141382,0.0451363,1861,1352,9.42352,-3.34869
644,-328,9.26477,3.27051,0.000539634,-0.0074785,-0.00912558,0.00649795,-0.0134368,-0.578429,0.0117395,0.0437728,1868,1352,9.26473,-3.27052
651,-328,9.11487,3.27295,0.00208215,-0.00651455,-0.00703415,0.00602729,-0.0104597,-0.511139,0.00963275,0.0335368,1875,1352,9.11485,-3.27293
658,-328,9.01099,3.27319,0.00321784,-0.00569814,-0.00536132,0.00573247,-0.00821277,-0.438568,0.00809363,0.0171789,1882,1352,9.01104,-3.27316
665,-328,9.01208,3.18445,0.00383115,-0.00519166,-0.0038319,0.00523889,-0.00659939,-0.352067,0.00684986,0.0134021,1889,1352,9.01208,-3.1845
672,-328,9.01599,3.08911,0.00336687,-0.00452795,-0.00257884,0.00413459,-0.00529567,-0.289345,0.0054583,0.0109775,1896,1352,9.016,-3.08909
679,-328,9.02563,2.98828,0.00285965,-0.00314494,-0.00133385,0.00314261,-0.0034279,-0.209043,0.00379468,0.0121804,1903,1352,9.02566,-2.98833
686,-328,9.01453,2.89746,0.00317377,-0.00271684,-0.000531383,0.00322133,-0.00276439,-0.0892484,0.00345921,0.011384,1910,1352,9.01458,-2.89747
693,-328,9.02283,2.80212,0.00287418,-0.00249187,0.000616593,0.00294412,-0.00256181,0.112945,0.0031814,0.00819942,1917,1352,9.02282,-2.80208
700,-328,9.02344,2.71484,0.00310302,-0.00358932,0.00128519,0.00334134,-0.00382764,0.183352,0.00414218,0.0122238,1924,1352,9.02345,-2.7148
707,-328,9.0177,2.59485,0.00470113,-0.00634065,0.00129549,0.00485109,-0.00649061,0.115241,0.0065709,0.0150734,1931,1352,9.01772,-2.5949
714,-328,9.04346,2.49414,0.00609602,-0.00957601,0.00153345,0.00624465,-0.00972465,0.0966254,0.00929256,0.0128882,1938,1352,9.04344,-2.49409
721,-328,8.98438,2.36511,0.00744327,-0.0145995,0.00189189,0.00760447,-0.0147607,0.0849998,0.013131,0.0217757,1945,1352,8.98437,-2.36512
728,-328,9.18384,2.33533,0.00866197,-0.021617,0.00223339,0.00882582,-0.0217808,0.0732323,0.0181908,0.0361781,1952,1352,9.18389,-2.33536
735,-328,9.5979,2.47791,0.00972257,-0.0310946,0.00240557,0.00986385,-0.0312359,0.0586646,0.0247753,0.0473712,1959,1352,9.59784,-2.47789
742,-328,9.64856,2.22058,0,0,0,0,0,0,0,-1,1966,1352,9.6485,-2.22053
749,-328,10.8118,4.43359,0.0111785,-0.059702,0.00142141,0.011207,-0.0597305,0.0200429,0.044034,0.0423098,1973,1352,10.8118,-4.4336
756,-328,11.2795,4.32202,0.0117071,-0.0803717,-0.00054521,0.0117104,-0.0803749,-0.00592085,0.0578829,0.0464873,1980,1352,11.2795,-4.32205
763,-328,0,0,0,0,0,0,0,0,0,-1,1987,1352,0,0
770,-328,0,0,0,0,0,0,0,0,0,-1,1994,1352,0,0
777,-328,0,0,0,0,0,0,0,0,0,-1,2001,1352,0,0
784,-328,0,0,0,0,0,0,0,0,0,-1,2008,1352,0,0
791,-328,0,0,0,0,0,0,0,0,0,-1,2015,1352,0,0
798,-328,0,0,0,0,0,0,0,0,0,-1,2022,1352,0,0
805,-328,0,0,0,0,0,0,0,0,0,-1,2029,1352,0,0
812,-328,0,0,0,0,0,0,0,0,0,-1,2036,1352,0,0
-700,-335,0,0,0,0,0,0,0,0,0,-1,524,1359,0,0
-693,-335,0,0,0,0,0,0,0,0,0,-1,531,1359,0,0
-686,-335,0,0,0,0,0,0,0,0,0,-1,538,1359,0,0
-679,-335,0,0,0,0,0,0,0,0,0,-1,545,1359,0,0
-672,-335,0,0,0,0,0,0,0,0,0,-1,552,1359,0,0
-665,-335,0,0,0,0,0,0,0,0,0,-1,559,1359,0,0
-658,-335,0,0,0,0,0,0,0,0,0,-1,566,1359,0,0
-651,-335,0,0,0,0,0,0,0,0,0,-1,573,1359,0,0
-644,-335,0,0,0,0,0,0,0,0,0,-1,580,1359,0,0
-637,-335,2.17554,2.38184,-0.0881084,-0.00157515,-0.0557878,0.0257577,-0.115441,-1.11523,0.0868297,0.0477508,587,1359,2.17553,-2.3818
-630,-335,0.398254,2.69116,-0.0755298,0.00119577,-0.047077,0.0235615,-0.0978955,-1.12728,0.0743722,0.0461954,594,1359,0.398272,-2.69113
-623,-335,-2.95532,2.26343,0,0,0,0,0,0,0,-1,601,1359,-2.95533,-2.26346
-616,-335,-2.94183,2.10522,-0.0498061,0.00321474,-0.0317999,0.0181052,-0.0646966,-1.13286,0.0502651,0.044874,608,1359,-2.94186,-2.10522
-609,-335,-2.91205,1.98413,-0.0387717,0.00342809,-0.0253163,0.0152846,-0.0506282,-1.1328,0.0398367,0.0487295,615,1359,-2.91202,-1.98414
-602,-335,-2.57159,1.66541,0,0,0,0,0,0,0,-1,622,1359,-2.57161,-1.6654
-595,-335,-2.5459,1.54456,-0.0224125,0.00330879,-0.0150545,0.010248,-0.0293518,-1.13888,0.0237332,0.0418343,629,1359,-2.54589,-1.54457
-588,-335,-2.54633,1.39355,-0.0163468,0.0030483,-0.010357,0.0075391,-0.0208376,-1.16166,0.0169724,0.0295547,636,1359,-2.54632,-1.39351
-581,-335,-2.63202,1.33459,-0.00956175,0.00321553,-0.00714913,0.00641463,-0.0127609,-1.15004,0.0112713,0.0157936,643,1359,-2.632,-1.33459
-574,-335,-2.64758,1.41248,-0.00412005,0.00246029,-0.00463761,0.0048563,-0.00651606,-1.09392,0.00658911,0.0123398,650,1359,-2.64759,-1.41244
-567,-335,-2.60394,1.521,-0.00171399,0.00192994,-0.00290907,0.0035405,-0.00332455,-1.06517,0.0039642,0.0170802,657,1359,-2.60393,-1.52099
-560,-335,-2.56433,1.6261,-0.000735753,0.000157322,-0.00262688,0.00237535,-0.00295378,-0.869587,0.00308281,0.0253404,664,1359,-2.56434,-1.62614
-553,-335,-2.65271,1.79773,-5.22637e-05,-0.00165197,-0.00282283,0.00208184,-0.00378608,-0.647341,0.00343514,0.0265038,671,1359,-2.65273,-1.79773
-546,-335,-2.66071,1.92126,0.000882168,-0.00294659,-0.00352502,0.0029791,-0.00504352,-0.536639,0.0046827,0.0245383,678,1359,-2.66073,-1.92124
-539,-335,-2.62769,1.99084,0.00150768,-0.00452369,-0.00444743,0.00386545,-0.00688145,-0.487469,0.00628564,0.0197389,685,1359,-2.6277,-1.99088
-532,-335,-2.64496,2.10742,0.00294565,-0.00617841,-0.00553378,0.00555543,-0.00878819,-0.440677,0.00835111,0.0149266,692,1359,-2.64494,-2.10737
-525,-335,-2.61853,2.24402,0.00396163,-0.00816468,-0.007199,0.00731057,-0.0115136,-0.435418,0.0109581,0.0103076,699,1359,-2.61855,-2.24396
-518,-335,-2.62152,2.3512,0.00759779,-0.00964704,-0.00827179,0.010924,-0.0129732,-0.382323,0.0138139,0.0147688,706,1359,-2.62154,-2.35118
-511,-335,-2.66296,2.28809,0.0142128,-0.0119387,-0.00889274,0.0169502,-0.0146761,-0.298621,0.0182752,0.0360699,713,1359,-2.66295,-2.28814
-504,-335,-2.91425,2.09009,0.0224991,-0.00902304,-0.0120853,0.0265992,-0.0131231,-0.327078,0.0233695,0.0470298,720,1359,-2.91426,-2.09003
-497,-335,-3.19916,2.10754,0,0,0,0,0,0,0,-1,727,1359,-3.19914,-2.10755
-490,-335,-2.75928,1.75232,0,0,0,0,0,0,0,-1,734,1359,-2.75928,-1.75227
-483,-335,-2.68866,4.69775,0,0,0,0,0,0,0,-1,741,1359,-2.68864,-4.69774
-476,-335,-2.67096,5.87085,0,0,0,0,0,0,0,-1,748,1359,-2.67096,-5.87081
-469,-335,0.841858,3.56396,0,0,0,0,0,0,0,-1,755,1359,0.841878,-3.56393
-462,-335,-4.38153,-0.250122,0.0983241,0.104416,-0.0683978,0.169836,0.0329044,-0.80765,0.104005,0.0454447,762,1359,-4.38154,0.250143
-455,-335,-3.30756,-1.00037,0.112165,0.142998,-0.0885217,0.217435,0.0377273,-0.87161,0.134161,0.0459276,769,1359,-3.30758,1.00034
-448,-335,0,0,0,0,0,0,0,0,0,-1,776,1359,0,0
-441,-335,0,0,0,0,0,0,0,0,0,-1,783,1359,0,0
-434,-335,0,0,0,0,0,0,0,0,0,-1,790,1359,0,0
-427,-335,0,0,0,0,0,0,0,0,0,-1,797,1359,0,0
-420,-335,0,0,0,0,0,0,0,0,0,-1,804,1359,0,0
-413,-335,0,0,0,0,0,0,0,0,0,-1,811,1359,0,0
-406,-335,0,0,0,0,0,0,0,0,0,-1,818,1359,0,0
-399,-335,0,0,0,0,0,0,0,0,0,-1,825,1359,0,0
-392,-335,0,0,0,0,0,0,0,0,0,-1,832,1359,0,0
-385,-335,0,0,0,0,0,0,0,0,0,-1,839,1359,0,0
-378,-335,0,0,0,0,0,0,0,0,0,-1,846,1359,0,0
-371,-335,0,0,0,0,0,0,0,0,0,-1,853,1359,0,0
-364,-335,0,0,0,0,0,0,0,0,0,-1,860,1359,0,0
-357,-335,0,0,0,0,0,0,0,0,0,-1,867,1359,0,0
-350,-335,0,0,0,0,0,0,0,0,0,-1,874,1359,0,0
-343,-335,0,0,0,0,0,0,0,0,0,-1,881,1359,0,0
-336,-335,0,0,0,0,0,0,0,0,0,-1,888,1359,0,0
-329,-335,0,0,0,0,0,0,0,0,0,-1,895,1359,0,0
-322,-335,0,0,0,0,0,0,0,0,0,-1,902,1359,0,0
-315,-335,0,0,0,0,0,0,0,0,0,-1,909,1359,0,0
-308,-335,0,0,0,0,0,0,0,0,0,-1,916,1359,0,0
-301,-335,0,0,0,0,0,0,0,0,0,-1,923,1359,0,0
-294,-335,0,0,0,0,0,0,0,0,0,-1,930,1359,0,0
-287,-335,0,0,0,0,0,0,0,0,0,-1,937,1359,0,0
-280,-335,0,0,0,0,0,0,0,0,0,-1,944,1359,0,0
-273,-335,0,0,0,0,0,0,0,0,0,-1,951,1359,0,0
-266,-335,0,0,0,0,0,0,0,0,0,-1,958,1359,0,0
-259,-335,0,0,0,0,0,0,0,0,0,-1,965,1359,0,0
-252,-335,0,0,0,0,0,0,0,0,0,-1,972,1359,0,0
-245,-335,0,0,0,0,0,0,0,0,0,-1,979,1359,0,0
-238,-335,0,0,0,0,0,0,0,0,0,-1,986,1359,0,0
-231,-335,0,0,0,0,0,0,0,0,0,-1,993,1359,0,0
-224,-335,0,0,0,0,0,0,0,0,0,-1,1000,1359,0,0
-217,-335,0,0,0,0,0,0,0,0,0,-1,1007,1359,0,0
-210,-335,0,0,0,0,0,0,0,0,0,-1,1014,1359,0,0
-203,-335,0,0,0,0,0,0,0,0,0,-1,1021,1359,0,0
-196,-335,0,0,0,0,0,0,0,0,0,-1,1028,1359,0,0
-189,-335,0,0,0,0,0,0,0,0,0,-1,1035,1359,0,0
-182,-335,0,0,0,0,0,0,0,0,0,-1,1042,1359,0,0
-175,-335,0,0,0,0,0,0,0,0,0,-1,1049,1359,0,0
-168,-335,0,0,0,0,0,0,0,0,0,-1,1056,1359,0,0
-161,-335,0,0,0,0,0,0,0,0,0,-1,1063,1359,0,0
-154,-335,0,0,0,0,0,0,0,0,0,-1,1070,1359,0,0
-147,-335,0,0,0,0,0,0,0,0,0,-1,1077,1359,0,0
-140,-335,0,0,0,0,0,0,0,0,0,-1,1084,1359,0,0
-133,-335,0,0,0,0,0,0,0,0,0,-1,1091,1359,0,0
-126,-335,0,0,0,0,0,0,0,0,0,-1,1098,1359,0,0
-119,-335,0,0,0,0,0,0,0,0,0,-1,1105,1359,0,0
-112,-335,0,0,0,0,0,0,0,0,0,-1,1112,1359,0,0
-105,-335,0,0,0,0,0,0,0,0,0,-1,1119,1359,0,0
-98,-335,0,0,0,0,0,0,0,0,0,-1,1126,1359,0,0
-91,-335,0,0,0,0,0,0,0,0,0,-1,1133,1359,0,0
-84,-335,0,0,0,0,0,0,0,0,0,-1,1140,1359,0,0
-77,-335,0,0,0,0,0,0,0,0,0,-1,1147,1359,0,0
-70,-335,0,0,0,0,0,0,0,0,0,-1,1154,1359,0,0
-63,-335,0,0,0,0,0,0,0,0,0,-1,1161,1359,0,0
-56,-335,0,0,0,0,0,0,0,0,0,-1,1168,1359,0,0
-49,-335,0,0,0,0,0,0,0,0,0,-1,1175,1359,0,0
-42,-335,0,0,0,0,0,0,0,0,0,-1,1182,1359,0,0
-35,-335,0,0,0,0,0,0,0,0,0,-1,1189,1359,0,0
-28,-335,0,0,0,0,0,0,0,0,0,-1,1196,1359,0,0
-21,-335,0,0,0,0,0,0,0,0,0,-1,1203,1359,0,0
-14,-335,0,0,0,0,0,0,0,0,0,-1,1210,1359,0,0
-7,-335,0,0,0,0,0,0,0,0,0,-1,1217,1359,0,0
0,-335,0,0,0,0,0,0,0,0,0,-1,1224,1359,0,0
7,-335,0,0,0,0,0,0,0,0,0,-1,1231,1359,0,0
14,-335,0,0,0,0,0,0,0,0,0,-1,1238,1359,0,0
21,-335,0,0,0,0,0,0,0,0,0,-1,1245,1359,0,0
28,-335,0,0,0,0,0,0,0,0,0,-1,1252,1359,0,0
35,-335,0,0,0,0,0,0,0,0,0,-1,1259,1359,0,0
42,-335,0,0,0,0,0,0,0,0,0,-1,1266,1359,0,0
49,-335,0,0,0,0,0,0,0,0,0,-1,1273,1359,0,0
56,-335,0,0,0,0,0,0,0,0,0,-1,1280,1359,0,0
63,-335,0,0,0,0,0,0,0,0,0,-1,1287,1359,0,0
70,-335,0,0,0,0,0,0,0,0,0,-1,1294,1359,0,0
77,-335,0,0,0,0,0,0,0,0,0,-1,1301,1359,0,0
84,-335,0,0,0,0,0,0,0,0,0,-1,1308,1359,0,0
91,-335,0,0,0,0,0,0,0,0,0,-1,1315,1359,0,0
98,-335,0,0,0,0,0,0,0,0,0,-1,1322,1359,0,0
105,-335,0,0,0,0,0,0,0,0,0,-1,1329,1359,0,0
112,-335,0,0,0,0,0,0,0,0,0,-1,1336,1359,0,0
119,-335,0,0,0,0,0,0,0,0,0,-1,1343,1359,0,0
126,-335,0,0,0,0,0,0,0,0,0,-1,1350,1359,0,0
133,-335,0,0,0,0,0,0,0,0,0,-1,1357,1359,0,0
140,-335,0,0,0,0,0,0,0,0,0,-1,1364,1359,0,0
147,-335,0,0,0,0,0,0,0,0,0,-1,1371,1359,0,0
154,-335,0,0,0,0,0,0,0,0,0,-1,1378,1359,0,0
161,-335,0,0,0,0,0,0,0,0,0,-1,1385,1359,0,0
168,-335,0,0,0,0,0,0,0,0,0,-1,1392,1359,0,0
175,-335,0,0,0,0,0,0,0,0,0,-1,1399,1359,0,0
182,-335,0,0,0,0,0,0,0,0,0,-1,1406,1359,0,0
189,-335,0,0,0,0,0,0,0,0,0,-1,1413,1359,0,0
196,-335,0,0,0,0,0,0,0,0,0,-1,1420,1359,0,0
203,-335,0,0,0,0,0,0,0,0,0,-1,1427,1359,0,0
210,-335,0,0,0,0,0,0,0,0,0,-1,1434,1359,0,0
217,-335,0,0,0,0,0,0,0,0,0,-1,1441,1359,0,0
224,-335,0,0,0,0,0,0,0,0,0,-1,1448,1359,0,0
231,-335,0,0,0,0,0,0,0,0,0,-1,1455,1359,0,0
238,-335,0,0,0,0,0,0,0,0,0,-1,1462,1359,0,0
245,-335,0,0,0,0,0,0,0,0,0,-1,1469,1359,0,0
252,-335,0,0,0,0,0,0,0,0,0,-1,1476,1359,0,0
259,-335,0,0,0,0,0,0,0,0,0,-1,1483,1359,0,0
266,-335,0,0,0,0,0,0,0,0,0,-1,1490,1359,0,0
273,-335,0,0,0,0,0,0,0,0,0,-1,1497,1359,0,0
280,-335,0,0,0,0,0,0,0,0,0,-1,1504,1359,0,0
287,-335,0,0,0,0,0,0,0,0,0,-1,1511,1359,0,0
294,-335,0,0,0,0,0,0,0,0,0,-1,1518,1359,0,0
301,-335,0,0,0,0,0,0,0,0,0,-1,1525,1359,0,0
308,-335,0,0,0,0,0,0,0,0,0,-1,1532,1359,0,0
315,-335,0,0,0,0,0,0,0,0,0,-1,1539,1359,0,0
322,-335,0,0,0,0,0,0,0,0,0,-1,1546,1359,0,0
329,-335,0,0,0,0,0,0,0,0,0,-1,1553,1359,0,0
336,-335,0,0,0,0,0,0,0,0,0,-1,1560,1359,0,0
343,-335,0,0,0,0,0,0,0,0,0,-1,1567,1359,0,0
350,-335,0,0,0,0,0,0,0,0,0,-1,1574,1359,0,0
357,-335,0,0,0,0,0,0,0,0,0,-1,1581,1359,0,0
364,-335,0,0,0,0,0,0,0,0,0,-1,1588,1359,0,0
371,-335,0,0,0,0,0,0,0,0,0,-1,1595,1359,0,0
378,-335,0,0,0,0,0,0,0,0,0,-1,1602,1359,0,0
385,-335,0,0,0,0,0,0,0,0,0,-1,1609,1359,0,0
392,-335,0,0,0,0,0,0,0,0,0,-1,1616,1359,0,0
399,-335,0,0,0,0,0,0,0,0,0,-1,1623,1359,0,0
406,-335,0,0,0,0,0,0,0,0,0,-1,1630,1359,0,0
413,-335,0,0,0,0,0,0,0,0,0,-1,1637,1359,0,0
420,-335,0,0,0,0,0,0,0,0,0,-1,1644,1359,0,0
427,-335,0,0,0,0,0,0,0,0,0,-1,1651,1359,0,0
434,-335,0,0,0,0,0,0,0,0,0,-1,1658,1359,0,0
441,-335,0,0,0,0,0,0,0,0,0,-1,1665,1359,0,0
448,-335,0,0,0,0,0,0,0,0,0,-1,1672,1359,0,0
455,-335,0,0,0,0,0,0,0,0,0,-1,1679,1359,0,0
462,-335,0,0,0,0,0,0,0,0,0,-1,1686,1359,0,0
469,-335,0,0,0,0,0,0,0,0,0,-1,1693,1359,0,0
476,-335,0,0,0,0,0,0,0,0,0,-1,1700,1359,0,0
483,-335,0,0,0,0,0,0,0,0,0,-1,1707,1359,0,0
490,-335,0,0,0,0,0,0,0,0,0,-1,1714,1359,0,0
497,-335,0,0,0,0,0,0,0,0,0,-1,1721,1359,0,0
504,-335,0,0,0,0,0,0,0,0,0,-1,1728,1359,0,0
511,-335,0,0,0,0,0,0,0,0,0,-1,1735,1359,0,0
518,-335,0,0,0,0,0,0,0,0,0,-1,1742,1359,0,0
525,-335,0,0,0,0,0,0,0,0,0,-1,1749,1359,0,0
532,-335,0,0,0,0,0,0,0,0,0,-1,1756,1359,0,0
539,-335,0,0,0,0,0,0,0,0,0,-1,1763,1359,0,0
546,-335,0,0,0,0,0,0,0,0,0,-1,1770,1359,0,0
553,-335,0,0,0,0,0,0,0,0,0,-1,1777,1359,0,0
560,-335,0,0,0,0,0,0,0,0,0,-1,1784,1359,0,0
567,-335,0,0,0,0,0,0,0,0,0,-1,1791,1359,0,0
574,-335,15.0328,3.78662,0,0,0,0,0,0,0,-1,1798,1359,15.0329,-3.78667
581,-335,14.0425,2.98389,0,0,0,0,0,0,0,-1,1805,1359,14.0425,-2.98393
588,-335,15.2139,3.27307,0,0,0,0,0,0,0,-1,1812,1359,15.2139,-3.27309
595,-335,15.0316,3.49133,0,0,0,0,0,0,0,-1,1819,1359,15.0316,-3.49135
602,-335,14.8949,3.57361,0,0,0,0,0,0,0,-1,1826,1359,14.8949,-3.57365
609,-335,8.43604,4.08008,0,0,0,0,0,0,0,-1,1833,1359,8.436,-4.08006
616,-335,8.55176,3.43323,0,0,0,0,0,0,0,-1,1840,1359,8.55179,-3.43322
623,-335,8.58997,2.86963,0,0,0,0,0,0,0,-1,1847,1359,8.59,-2.86968
630,-335,10.2373,3.724,0,0,0,0,0,0,0,-1,1854,1359,10.2373,-3.72396
637,-335,9.51331,3.61499,-0.00683328,-0.00698152,-0.00780296,0.000895914,-0.0147107,-0.780649,0.010119,0.0489979,1861,1359,9.51333,-3.61496
644,-335,9.07117,3.40173,-0.00430347,-0.00527514,-0.00586222,0.00109301,-0.0106716,-0.744055,0.00750533,0.035942,1868,1359,9.07113,-3.40171
651,-335,8.91992,3.39111,-0.00240266,-0.0042008,-0.00412094,0.000916141,-0.0075196,-0.677995,0.00534469,0.0155719,1875,1359,8.91993,-3.39111
658,-335,8.90259,3.31335,-0.000687712,-0.00345112,-0.00280213,0.00105485,-0.00519369,-0.556346,0.00386239,0.0123848,1882,1359,8.9026,-3.31334
665,-335,8.89929,3.20117,0.000726531,-0.00313273,-0.00183281,0.00145823,-0.00386443,-0.379835,0.00317598,0.01382,1889,1359,8.89935,-3.20114
672,-335,8.91199,3.07397,0.00131795,-0.00276333,-0.00119037,0.00163976,-0.00308515,-0.264037,0.00277015,0.0150922,1896,1359,8.91197,-3.07396
679,-335,8.92871,2.98999,0.00197805,-0.00192277,-0.000434421,0.00202584,-0.00197056,-0.109578,0.0023074,0.0123734,1903,1359,8.9287,-2.98995
686,-335,8.94141,2.89075,0.00328898,-0.00208878,-5.39674e-06,0.00328898,-0.00208878,-0.00100353,0.00313052,0.00979373,1910,1359,8.94144,-2.89071
693,-335,8.94373,2.76843,0.00382873,-0.0023641,0.000838635,0.00394028,-0.00247566,0.132248,0.00373628,0.00857283,1917,1359,8.9437,-2.76845
700,-335,8.92261,2.7002,0.00456497,-0.00394535,0.00146779,0.00481101,-0.00419139,0.166082,0.00520164,0.00960706,1924,1359,8.92257,-2.70022
707,-335,8.90149,2.58899,0.00645055,-0.0072391,0.00163686,0.00664355,-0.0074321,0.117365,0.00813083,0.0137085,1931,1359,8.9015,-2.58904
714,-335,8.92969,2.46484,0.00798609,-0.0110031,0.00214687,0.00822579,-0.0112428,0.111188,0.0112851,0.0175657,1938,1359,8.92964,-2.46485
721,-335,8.8761,2.3905,0.00927535,-0.0164426,0.00287265,0.00959231,-0.0167595,0.109894,0.0154007,0.0329463,1945,1359,8.87611,-2.39053
728,-335,9.17651,2.69714,0.0101746,-0.0239202,0.00370369,0.0105723,-0.0243179,0.106967,0.0206584,0.0465151,1952,1359,9.17653,-2.69717
735,-335,9.65869,3.1189,0.0105118,-0.0338844,0.0045322,0.0109698,-0.0343423,0.100701,0.0272964,0.0483744,1959,1359,9.65865,-3.11895
742,-335,9.88025,3.59167,0,0,0,0,0,0,0,-1,1966,1359,9.8802,-3.59169
749,-335,9.93005,4.1311,0.0087704,-0.0634306,0.00555641,0.0091955,-0.0638557,0.0763584,0.0459434,0.0460027,1973,1359,9.93004,-4.13114
756,-335,10.505,4.81201,0.00651316,-0.0845335,0.00504821,0.00679221,-0.0848126,0.0552208,0.0589364,0.0451629,1980,1359,10.505,-4.81199
763,-335,0,0,0,0,0,0,0,0,0,-1,1987,1359,0,0
770,-335,0,0,0,0,0,0,0,0,0,-1,1994,1359,0,0
777,-335,0,0,0,0,0,0,0,0,0,-1,2001,1359,0,0
784,-335,0,0,0,0,0,0,0,0,0,-1,2008,1359,0,0
791,-335,0,0,0,0,0,0,0,0,0,-1,2015,1359,0,0
798,-335,0,0,0,0,0,0,0,0,0,-1,2022,1359,0,0
805,-335,0,0,0,0,0,0,0,0,0,-1,2029,1359,0,0
812,-335,0,0,0,0,0,0,0,0,0,-1,2036,1359,0,0
-700,-342,0,0,0,0,0,0,0,0,0,-1,524,1366,0,0
-693,-342,0,0,0,0,0,0,0,0,0,-1,531,1366,0,0
-686,-342,0,0,0,0,0,0,0,0,0,-1,538,1366,0,0
-679,-342,0,0,0,0,0,0,0,0,0,-1,545,1366,0,0
-672,-342,0,0,0,0,0,0,0,0,0,-1,552,1366,0,0
-665,-342,0,0,0,0,0,0,0,0,0,-1,559,1366,0,0
-658,-342,0,0,0,0,0,0,0,0,0,-1,566,1366,0,0
-651,-342,0,0,0,0,0,0,0,0,0,-1,573,1366,0,0
-644,-342,0,0,0,0,0,0,0,0,0,-1,580,1366,0,0
-637,-342,3.0498,2.46545,0,0,0,0,0,0,0,-1,587,1366,3.04982,-2.46543
-630,-342,-2.42383,2.76404,0,0,0,0,0,0,0,-1,594,1366,-2.42386,-2.76408
-623,-342,-2.45105,2.11731,-0.0648034,0.0125457,-0.0401294,0.0296034,-0.0818611,-1.16887,0.0666699,0.0408239,601,1366,-2.45107,-2.11732
-616,-342,-2.64404,1.62109,-0.0510659,0.0109826,-0.0327604,0.0250776,-0.0651609,-1.16449,0.0537852,0.045611,608,1366,-2.64405,-1.62105
-609,-342,-2.71179,1.4082,-0.0392188,0.00933179,-0.0261435,0.0207325,-0.0506195,-1.15958,0.0423826,0.0484004,615,1366,-2.71181,-1.40819
-602,-342,-2.57404,1.3092,0,0,0,0,0,0,0,-1,622,1366,-2.57404,-1.30919
-595,-342,-2.4054,1.21643,-0.0219372,0.00670149,-0.0155289,0.0135053,-0.028741,-1.15785,0.0249141,0.041437,629,1366,-2.40537,-1.21638
-588,-342,-2.41016,1.229,-0.0156531,0.00551625,-0.0107783,0.0100381,-0.0201749,-1.17357,0.0177677,0.0354757,636,1366,-2.41015,-1.229
-581,-342,-2.5155,1.30359,-0.00882581,0.00497953,-0.0074719,0.00824918,-0.0120955,-1.15831,0.0118157,0.0240412,643,1366,-2.51549,-1.30355
-574,-342,-2.53198,1.42493,-0.00369232,0.00363006,-0.00485625,0.0060506,-0.00611286,-1.1084,0.00702261,0.0105374,650,1366,-2.53198,-1.4249
-567,-342,-2.47107,1.5271,-0.00158547,0.00283138,-0.00289388,0.00426324,-0.00301733,-1.11133,0.00422391,0.0170238,657,1366,-2.47106,-1.52708
-560,-342,-2.50031,1.62427,-0.000905012,0.000972694,-0.0024299,0.00263881,-0.00257112,-0.969751,0.00300804,0.0247083,664,1366,-2.50028,-1.62423
-553,-342,-2.57623,1.76172,-0.000569532,-0.000827059,-0.0024376,0.00174271,-0.0031393,-0.759011,0.00285681,0.0263399,671,1366,-2.57621,-1.76169
-546,-342,-2.52722,1.89233,-7.03235e-05,-0.00209556,-0.00287802,0.00196803,-0.00413391,-0.616239,0.00359617,0.0267663,678,1366,-2.52721,-1.89239
-539,-342,-2.47638,2.02014,5.68107e-06,-0.00366064,-0.00353207,0.00215196,-0.00580692,-0.54603,0.00475383,0.0224067,685,1366,-2.4764,-2.0202
-532,-342,-2.52643,2.1499,0.000787608,-0.00514325,-0.00427943,0.00302865,-0.00738429,-0.482409,0.00618475,0.0173598,692,1366,-2.52641,-2.14984
-525,-342,-2.50763,2.27454,0.00110381,-0.00697282,-0.00556259,0.00393939,-0.0098084,-0.471424,0.00817483,0.0111862,699,1366,-2.50763,-2.27448
-518,-342,-2.50439,2.37732,0.00363085,-0.00831127,-0.00635993,0.00638345,-0.0110639,-0.408462,0.0101933,0.0111834,706,1366,-2.50437,-2.37726
-511,-342,-2.54535,2.44946,0.00877959,-0.0104333,-0.00682621,0.0109579,-0.0126116,-0.308898,0.013619,0.0285819,713,1366,-2.54537,-2.44945
-504,-342,-2.60382,2.44006,0.0156595,-0.00692733,-0.0100528,0.0194857,-0.0107535,-0.363673,0.0176996,0.0487847,720,1366,-2.60379,-2.4401
-497,-342,-2.6814,2.3988,0,0,0,0,0,0,0,-1,727,1366,-2.68137,-2.39884
-490,-342,-2.72333,2.76965,0,0,0,0,0,0,0,-1,734,1366,-2.72331,-2.76969
-483,-342,-1.61206,2.49402,0,0,0,0,0,0,0,-1,741,1366,-1.61204,-2.49406
-476,-342,-1.12659,2.99512,0,0,0,0,0,0,0,-1,748,1366,-1.1266,-2.99517
-469,-342,-0.152161,3.06885,0,0,0,0,0,0,0,-1,755,1366,-0.152185,-3.06891
-462,-342,0.701172,3.22339,0,0,0,0,0,0,0,-1,762,1366,0.701173,-3.22334
-455,-342,-3.42786,-0.729004,0.0891708,0.158585,-0.0944074,0.224463,0.0232929,-0.961545,0.142514,0.0473173,769,1366,-3.42784,0.728984
-448,-342,-2.69263,-2.09509,0,0,0,0,0,0,0,-1,776,1366,-2.69265,2.0951
-441,-342,0,0,0,0,0,0,0,0,0,-1,783,1366,0,0
-434,-342,0,0,0,0,0,0,0,0,0,-1,790,1366,0,0
-427,-342,0,0,0,0,0,0,0,0,0,-1,797,1366,0,0
-420,-342,0,0,0,0,0,0,0,0,0,-1,804,1366,0,0
-413,-342,0,0,0,0,0,0,0,0,0,-1,811,1366,0,0
-406,-342,0,0,0,0,0,0,0,0,0,-1,818,1366,0,0
-399,-342,0,0,0,0,0,0,0,0,0,-1,825,1366,0,0
-392,-342,0,0,0,0,0,0,0,0,0,-1,832,1366,0,0
-385,-342,0,0,0,0,0,0,0,0,0,-1,839,1366,0,0
-378,-342,0,0,0,0,0,0,0,0,0,-1,846,1366,0,0
-371,-342,0,0,0,0,0,0,0,0,0,-1,853,1366,0,0
-364,-342,0,0,0,0,0,0,0,0,0,-1,860,1366,0,0
-357,-342,0,0,0,0,0,0,0,0,0,-1,867,1366,0,0
-350,-342,0,0,0,0,0,0,0,0,0,-1,874,1366,0,0
-343,-342,0,0,0,0,0,0,0,0,0,-1,881,1366,0,0
-336,-342,0,0,0,0,0,0,0,0,0,-1,888,1366,0,0
-329,-342,0,0,0,0,0,0,0,0,0,-1,895,1366,0,0
-322,-342,0,0,0,0,0,0,0,0,0,-1,902,1366,0,0
-315,-342,0,0,0,0,0,0,0,0,0,-1,909,1366,0,0
-308,-342,0,0,0,0,0,0,0,0,0,-1,916,1366,0,0
-301,-342,0,0,0,0,0,0,0,0,0,-1,923,1366,0,0
-294,-342,0,0,0,0,0,0,0,0,0,-1,930,1366,0,0
-287,-342,0,0,0,0,0,0,0,0,0,-1,937,1366,0,0
-280,-342,0,0,0,0,0,0,0,0,0,-1,944,1366,0,0
-273,-342,0,0,0,0,0,0,0,0,0,-1,951,1366,0,0
-266,-342,0,0,0,0,0,0,0,0,0,-1,958,1366,0,0
-259,-342,0,0,0,0,0,0,0,0,0,-1,965,1366,0,0
-252,-342,0,0,0,0,0,0,0,0,0,-1,972,1366,0,0
-245,-342,0,0,0,0,0,0,0,0,0,-1,979,1366,0,0
-238,-342,0,0,0,0,0,0,0,0,0,-1,986,1366,0,0
-231,-342,0,0,0,0,0,0,0,0,0,-1,993,1366,0,0
-224,-342,0,0,0,0,0,0,0,0,0,-1,1000,1366,0,0
-217,-342,0,0,0,0,0,0,0,0,0,-1,1007,1366,0,0
-210,-342,0,0,0,0,0,0,0,0,0,-1,1014,1366,0,0
-203,-342,0,0,0,0,0,0,0,0,0,-1,1021,1366,0,0
-196,-342,0,0,0,0,0,0,0,0,0,-1,1028,1366,0,0
-189,-342,0,0,0,0,0,0,0,0,0,-1,1035,1366,0,0
-182,-342,0,0,0,0,0,0,0,0,0,-1,1042,1366,0,0
-175,-342,0,0,0,0,0,0,0,0,0,-1,1049,1366,0,0
-168,-342,0,0,0,0,0,0,0,0,0,-1,1056,1366,0,0
-161,-342,0,0,0,0,0,0,0,0,0,-1,1063,1366,0,0
-154,-342,0,0,0,0,0,0,0,0,0,-1,1070,1366,0,0
-147,-342,0,0,0,0,0,0,0,0,0,-1,1077,1366,0,0
-140,-342,0,0,0,0,0,0,0,0,0,-1,1084,1366,0,0
-133,-342,0,0,0,0,0,0,0,0,0,-1,1091,1366,0,0
-126,-342,0,0,0,0,0,0,0,0,0,-1,1098,1366,0,0
-119,-342,0,0,0,0,0,0,0,0,0,-1,1105,1366,0,0
-112,-342,0,0,0,0,0,0,0,0,0,-1,1112,1366,0,0
-105,-342,0,0,0,0,0,0,0,0,0,-1,1119,1366,0,0
-98,-342,0,0,0,0,0,0,0,0,0,-1,1126,1366,0,0
-91,-342,0,0,0,0,0,0,0,0,0,-1,1133,1366,0,0
-84,-342,0,0,0,0,0,0,0,0,0,-1,1140,1366,0,0
-77,-342,0,0,0,0,0,0,0,0,0,-1,1147,1366,0,0
-70,-342,0,0,0,0,0,0,0,0,0,-1,1154,1366,0,0
-63,-342,0,0,0,0,0,0,0,0,0,-1,1161,1366,0,0
-56,-342,0,0,0,0,0,0,0,0,0,-1,1168,1366,0,0
-49,-342,0,0,0,0,0,0,0,0,0,-1,1175,1366,0,0
-42,-342,0,0,0,0,0,0,0,0,0,-1,1182,1366,0,0
-35,-342,0,0,0,0,0,0,0,0,0,-1,1189,1366,0,0
-28,-342,0,0,0,0,0,0,0,0,0,-1,1196,1366,0,0
-21,-342,0,0,0,0,0,0,0,0,0,-1,1203,1366,0,0
-14,-342,0,0,0,0,0,0,0,0,0,-1,1210,1366,0,0
-7,-342,0,0,0,0,0,0,0,0,0,-1,1217,1366,0,0
0,-342,0,0,0,0,0,0,0,0,0,-1,1224,1366,0,0
7,-342,0,0,0,0,0,0,0,0,0,-1,1231,1366,0,0
14,-342,0,0,0,0,0,0,0,0,0,-1,1238,1366,0,0
21,-342,0,0,0,0,0,0,0,0,0,-1,1245,1366,0,0
28,-342,0,0,0,0,0,0,0,0,0,-1,1252,1366,0,0
35,-342,0,0,0,0,0,0,0,0,0,-1,1259,1366,0,0
42,-342,0,0,0,0,0,0,0,0,0,-1,1266,1366,0,0
49,-342,0,0,0,0,0,0,0,0,0,-1,1273,1366,0,0
56,-342,0,0,0,0,0,0,0,0,0,-1,1280,1366,0,0
63,-342,0,0,0,0,0,0,0,0,0,-1,1287,1366,0,0
70,-342,0,0,0,0,0,0,0,0,0,-1,1294,1366,0,0
77,-342,0,0,0,0,0,0,0,0,0,-1,1301,1366,0,0
84,-342,0,0,0,0,0,0,0,0,0,-1,1308,1366,0,0
91,-342,0,0,0,0,0,0,0,0,0,-1,1315,1366,0,0
98,-342,0,0,0,0,0,0,0,0,0,-1,1322,1366,0,0
105,-342,0,0,0,0,0,0,0,0,0,-1,1329,1366,0,0
112,-342,0,0,0,0,0,0,0,0,0,-1,1336,1366,0,0
119,-342,0,0,0,0,0,0,0,0,0,-1,1343,1366,0,0
126,-342,0,0,0,0,0,0,0,0,0,-1,1350,1366,0,0
133,-342,0,0,0,0,0,0,0,0,0,-1,1357,1366,0,0
140,-342,0,0,0,0,0,0,0,0,0,-1,1364,1366,0,0
147,-342,0,0,0,0,0,0,0,0,0,-1,1371,1366,0,0
154,-342,0,0,0,0,0,0,0,0,0,-1,1378,1366,0,0
161,-342,0,0,0,0,0,0,0,0,0,-1,1385,1366,0,0
168,-342,0,0,0,0,0,0,0,0,0,-1,1392,1366,0,0
175,-342,0,0,0,0,0,0,0,0,0,-1,1399,1366,0,0
182,-342,0,0,0,0,0,0,0,0,0,-1,1406,1366,0,0
189,-342,0,0,0,0,0,0,0,0,0,-1,1413,1366,0,0
196,-342,0,0,0,0,0,0,0,0,0,-1,1420,1366,0,0
203,-342,0,0,0,0,0,0,0,0,0,-1,1427,1366,0,0
210,-342,0,0,0,0,0,0,0,0,0,-1,1434,1366,0,0
217,-342,0,0,0,0,0,0,0,0,0,-1,1441,1366,0,0
224,-342,0,0,0,0,0,0,0,0,0,-1,1448,1366,0,0
231,-342,0,0,0,0,0,0,0,0,0,-1,1455,1366,0,0
238,-342,0,0,0,0,0,0,0,0,0,-1,1462,1366,0,0
245,-342,0,0,0,0,0,0,0,0,0,-1,1469,1366,0,0
252,-342,0,0,0,0,0,0,0,0,0,-1,1476,1366,0,0
259,-342,0,0,0,0,0,0,0,0,0,-1,1483,1366,0,0
266,-342,0,0,0,0,0,0,0,0,0,-1,1490,1366,0,0
273,-342,0,0,0,0,0,0,0,0,0,-1,1497,1366,0,0
280,-342,0,0,0,0,0,0,0,0,0,-1,1504,1366,0,0
287,-342,0,0,0,0,0,0,0,0,0,-1,1511,1366,0,0
294,-342,0,0,0,0,0,0,0,0,0,-1,1518,1366,0,0
301,-342,0,0,0,0,0,0,0,0,0,-1,1525,1366,0,0
308,-342,0,0,0,0,0,0,0,0,0,-1,1532,1366,0,0
315,-342,0,0,0,0,0,0,0,0,0,-1,1539,1366,0,0
322,-342,0,0,0,0,0,0,0,0,0,-1,1546,1366,0,0
329,-342,0,0,0,0,0,0,0,0,0,-1,1553,1366,0,0
336,-342,0,0,0,0,0,0,0,0,0,-1,1560,1366,0,0
343,-342,0,0,0,0,0,0,0,0,0,-1,1567,1366,0,0
350,-342,0,0,0,0,0,0,0,0,0,-1,1574,1366,0,0
357,-342,0,0,0,0,0,0,0,0,0,-1,1581,1366,0,0
364,-342,0,0,0,0,0,0,0,0,0,-1,1588,1366,0,0
371,-342,0,0,0,0,0,0,0,0,0,-1,1595,1366,0,0
378,-342,0,0,0,0,0,0,0,0,0,-1,1602,1366,0,0
385,-342,0,0,0,0,0,0,0,0,0,-1,1609,1366,0,0
392,-342,0,0,0,0,0,0,0,0,0,-1,1616,1366,0,0
399,-342,0,0,0,0,0,0,0,0,0,-1,1623,1366,0,0
406,-342,0,0,0,0,0,0,0,0,0,-1,1630,1366,0,0
413,-342,0,0,0,0,0,0,0,0,0,-1,1637,1366,0,0
420,-342,0,0,0,0,0,0,0,0,0,-1,1644,1366,0,0
427,-342,0,0,0,0,0,0,0,0,0,-1,1651,1366,0,0
434,-342,0,0,0,0,0,0,0,0,0,-1,1658,1366,0,0
441,-342,0,0,0,0,0,0,0,0,0,-1,1665,1366,0,0
448,-342,0,0,0,0,0,0,0,0,0,-1,1672,1366,0,0
455,-342,0,0,0,0,0,0,0,0,0,-1,1679,1366,0,0
462,-342,0,0,0,0,0,0,0,0,0,-1,1686,1366,0,0
469,-342,0,0,0,0,0,0,0,0,0,-1,1693,1366,0,0
476,-342,0,0,0,0,0,0,0,0,0,-1,1700,1366,0,0
483,-342,0,0,0,0,0,0,0,0,0,-1,1707,1366,0,0
490,-342,0,0,0,0,0,0,0,0,0,-1,1714,1366,0,0
497,-342,0,0,0,0,0,0,0,0,0,-1,1721,1366,0,0
504,-342,0,0,0,0,0,0,0,0,0,-1,1728,1366,0,0
511,-342,0,0,0,0,0,0,0,0,0,-1,1735,1366,0,0
518,-342,0,0,0,0,0,0,0,0,0,-1,1742,1366,0,0
525,-342,0,0,0,0,0,0,0,0,0,-1,1749,1366,0,0
532,-342,0,0,0,0,0,0,0,0,0,-1,1756,1366,0,0
539,-342,0,0,0,0,0,0,0,0,0,-1,1763,1366,0,0
546,-342,0,0,0,0,0,0,0,0,0,-1,1770,1366,0,0
553,-342,0,0,0,0,0,0,0,0,0,-1,1777,1366,0,0
560,-342,0,0,0,0,0,0,0,0,0,-1,1784,1366,0,0
567,-342,15.1537,5.11206,0,0,0,0,0,0,0,-1,1791,1366,15.1537,-5.11207
574,-342,14.6833,3.98413,0,0,0,0,0,0,0,-1,1798,1366,14.6834,-3.98417
581,-342,13.8571,2.7832,0,0,0,0,0,0,0,-1,1805,1366,13.8571,-2.78321
588,-342,12.7277,1.60681,0,0,0,0,0,0,0,-1,1812,1366,12.7277,-1.60683
595,-342,11.5063,1.46106,0,0,0,0,0,0,0,-1,1819,1366,11.5064,-1.46104
602,-342,9.11377,4.11499,0,0,0,0,0,0,0,-1,1826,1366,9.11376,-4.11495
609,-342,8.94678,3.53308,-0.0270584,-0.0145335,-0.0137508,-0.00568633,-0.0359056,-0.999076,0.0222848,0.0468762,1833,1366,8.94676,-3.53305
616,-342,8.7998,3.23511,-0.0219711,-0.0112959,-0.0108898,-0.00450595,-0.0287611,-1.01326,0.0178625,0.0447951,1840,1366,8.79984,-3.23511
623,-342,8.80286,2.79211,-0.0174047,-0.00892613,-0.00854446,-0.00362711,-0.0227038,-1.01568,0.0140834,0.0477193,1847,1366,8.80287,-2.79206
630,-342,9.63513,3.89148,0,0,0,0,0,0,0,-1,1854,1366,9.63507,-3.8915
637,-342,9.22656,3.71704,-0.00999169,-0.00573857,-0.00492215,-0.00250324,-0.013227,-0.989307,0.00811336,0.049828,1861,1366,9.22653,-3.71708
644,-342,8.84106,3.53003,-0.00726492,-0.00413143,-0.00333452,-0.00201392,-0.00938242,-1.00502,0.00570342,0.0294712,1868,1366,8.84108,-3.53004
651,-342,8.82703,3.45654,-0.00502857,-0.00315827,-0.00203598,-0.00185294,-0.0063339,-1.00068,0.00376034,0.0166043,1875,1366,8.82698,-3.45659
658,-342,8.84058,3.31799,-0.00288123,-0.00256825,-0.0010984,-0.00161525,-0.00383423,-0.856159,0.00222282,0.0186333,1882,1366,8.84056,-3.31797
665,-342,8.79102,3.18127,-0.000948994,-0.00236248,-0.000615064,-0.000718833,-0.00259264,-0.358075,0.00154558,0.015604,1889,1366,8.79104,-3.18126
672,-342,8.81201,3.0896,0.000331344,-0.00213743,-0.000400568,0.000394711,-0.0022008,-0.156893,0.00161493,0.0122217,1896,1366,8.81196,-3.08959
679,-342,8.8075,2.99951,0.00176015,-0.00157984,3.13873e-05,0.00176044,-0.00158013,0.00939634,0.00192962,0.0116069,1903,1366,8.80749,-2.99954
686,-342,8.82825,2.90405,0.00374586,-0.0020444,0.000222606,0.00375441,-0.00205295,0.0383694,0.00340051,0.00947987,1910,1366,8.8283,-2.90403
693,-342,8.83203,2.77917,0.00485638,-0.00262231,0.00085221,0.00495226,-0.0027182,0.112038,0.00449072,0.0107579,1917,1366,8.83208,-2.77917
700,-342,8.81506,2.68945,0.00589324,-0.00447826,0.00151597,0.00611028,-0.00469531,0.142205,0.00625641,0.0132058,1924,1366,8.81501,-2.68945
707,-342,8.82031,2.58142,0.0079194,-0.00806446,0.00191745,0.0081462,-0.00829127,0.117736,0.0094903,0.0128422,1931,1366,8.8203,-2.58145
714,-342,8.80444,2.45923,0.00949394,-0.0121246,0.00272921,0.00983316,-0.0124638,0.123659,0.012903,0.0211716,1938,1366,8.80447,-2.45922
721,-342,8.7616,2.39563,0.0106289,-0.017831,0.0038532,0.0111413,-0.0183434,0.13222,0.0171915,0.0349117,1945,1366,8.76162,-2.39569
728,-342,8.94788,2.49817,0.0110665,-0.0255527,0.00523077,0.011799,-0.0262853,0.139136,0.0225119,0.0477106,1952,1366,8.9479,-2.49822
735,-342,9.10632,2.67273,0,0,0,0,0,0,0,-1,1959,1366,9.10629,-2.67268
742,-342,9.47937,3.13647,0,0,0,0,0,0,0,-1,1966,1366,9.47937,-3.13651
749,-342,8.94958,4.03516,0,0,0,0,0,0,0,-1,1973,1366,8.94952,-4.03517
756,-342,0,0,0,0,0,0,0,0,0,-1,1980,1366,0,0
763,-342,0,0,0,0,0,0,0,0,0,-1,1987,1366,0,0
770,-342,0,0,0,0,0,0,0,0,0,-1,1994,1366,0,0
777,-342,0,0,0,0,0,0,0,0,0,-1,2001,1366,0,0
784,-342,0,0,0,0,0,0,0,0,0,-1,2008,1366,0,0
791,-342,0,0,0,0,0,0,0,0,0,-1,2015,1366,0,0
798,-342,0,0,0,0,0,0,0,0,0,-1,2022,1366,0,0
805,-342,0,0,0,0,0,0,0,0,0,-1,2029,1366,0,0
812,-342,0,0,0,0,0,0,0,0,0,-1,2036,1366,0,0
-700,-349,0,0,0,0,0,0,0,0,0,-1,524,1373,0,0
-693,-349,0,0,0,0,0,0,0,0,0,-1,531,1373,0,0
-686,-349,0,0,0,0,0,0,0,0,0,-1,538,1373,0,0
-679,-349,0,0,0,0,0,0,0,0,0,-1,545,1373,0,0
-672,-349,0,0,0,0,0,0,0,0,0,-1,552,1373,0,0
-665,-349,0,0,0,0,0,0,0,0,0,-1,559,1373,0,0
-658,-349,0,0,0,0,0,0,0,0,0,-1,566,1373,0,0
-651,-349,0,0,0,0,0,0,0,0,0,-1,573,1373,0,0
-644,-349,0,0,0,0,0,0,0,0,0,-1,580,1373,0,0
-637,-349,0,0,0,0,0,0,0,0,0,-1,587,1373,0,0
-630,-349,-1.56451,2.09082,-0.0795168,0.0298706,-0.0480266,0.047964,-0.0976102,-1.2105,0.085661,0.0485637,594,1373,-1.5645,-2.09081
-623,-349,-1.83221,1.80615,-0.0628895,0.0245248,-0.0406224,0.0404875,-0.0788522,-1.19638,0.0700775,0.0442335,601,1373,-1.83219,-1.80619
-616,-349,-2.24799,1.19897,0,0,0,0,0,0,0,-1,608,1373,-2.24797,-1.19898
-609,-349,-2.55481,0.86853,0,0,0,0,0,0,0,-1,615,1373,-2.55482,-0.86855
-602,-349,-2.43488,0.819458,0,0,0,0,0,0,0,-1,622,1373,-2.4349,-0.819504
-595,-349,-2.25183,0.832153,-0.0204305,0.0100221,-0.0167863,0.0174589,-0.0278674,-1.15375,0.0263981,0.0458261,629,1373,-2.25181,-0.832175
-588,-349,-1.92651,1.25586,-0.0142513,0.00784609,-0.011929,0.013057,-0.0194622,-1.15895,0.0188959,0.0393176,636,1373,-1.9265,-1.25585
-581,-349,-2.32764,1.40222,-0.00771925,0.00658831,-0.00845973,0.0105135,-0.0116444,-1.13637,0.0127984,0.0313017,643,1373,-2.32767,-1.40221
-574,-349,-2.38892,1.41907,-0.0030965,0.00460878,-0.00566678,0.00760853,-0.00609625,-1.08394,0.0079285,0.0161098,650,1373,-2.3889,-1.41903
-567,-349,-2.38116,1.56238,-0.00139046,0.00357898,-0.00334693,0.00526269,-0.00307417,-1.1047,0.00486825,0.0161328,657,1373,-2.38114,-1.56242
-560,-349,-2.40271,1.67664,-0.000981454,0.00171556,-0.0025804,0.00327858,-0.00254447,-1.02618,0.00337083,0.0196488,664,1373,-2.40269,-1.67665
-553,-349,-2.44879,1.73901,-0.000822399,-1.35645e-05,-0.00232096,0.00193795,-0.00277391,-0.871655,0.00273463,0.0246407,671,1373,-2.44881,-1.73899
-546,-349,-2.42413,1.87207,-0.000478963,-0.00119617,-0.00250558,0.00169355,-0.00336868,-0.71432,0.00297554,0.0278875,678,1373,-2.42412,-1.87206
-539,-349,-2.39099,2.00732,-0.000623792,-0.00269378,-0.00292618,0.00144504,-0.00476262,-0.615414,0.00375072,0.0227286,685,1373,-2.39097,-2.00734
-532,-349,-2.40106,2.14941,-0.000162581,-0.0039868,-0.00340892,0.00183388,-0.00598326,-0.529806,0.00472041,0.0161764,692,1373,-2.40109,-2.14944
-525,-349,-2.3866,2.28394,-0.000130657,-0.00561604,-0.00439723,0.00230912,-0.00805582,-0.506554,0.00628331,0.0116909,699,1373,-2.38662,-2.28388
-518,-349,-2.39117,2.39368,0.00168567,-0.00677692,-0.00507858,0.00406465,-0.0091559,-0.438079,0.00781928,0.0109022,706,1373,-2.39115,-2.3937
-511,-349,-2.35406,2.53455,0.00558463,-0.00865631,-0.00553014,0.0074799,-0.0105516,-0.330171,0.0104607,0.0217943,713,1373,-2.35407,-2.53451
-504,-349,-2.39319,2.52612,0.0110832,-0.00472354,-0.00877388,0.0149884,-0.00862882,-0.418775,0.0137992,0.0421985,720,1373,-2.39317,-2.52613
-497,-349,-2.3316,2.4292,0.0171522,0.0040808,-0.0134163,0.0255401,-0.00430707,-0.558742,0.0186291,0.0477199,727,1373,-2.3316,-2.42922
-490,-349,-2.26129,2.31885,0,0,0,0,0,0,0,-1,734,1373,-2.26128,-2.31881
-483,-349,-2.09546,2.33301,0.0324076,0.0392362,-0.0323465,0.0683481,0.00329562,-0.83798,0.0445076,0.0467071,741,1373,-2.09547,-2.33302
-476,-349,-1.81934,2.57959,0,0,0,0,0,0,0,-1,748,1373,-1.81933,-2.57962
-469,-349,-1.34729,2.80786,0.0513877,0.0900765,-0.0581215,0.131988,0.00947598,-0.946046,0.0850097,0.0468679,755,1373,-1.34731,-2.80791
-462,-349,-0.49176,3.03174,0,0,0,0,0,0,0,-1,762,1373,-0.491786,-3.03175
-455,-349,0.401367,3.30347,0,0,0,0,0,0,0,-1,769,1373,0.401364,-3.30348
-448,-349,-3.43884,-2.31201,0,0,0,0,0,0,0,-1,776,1373,-3.43883,2.31203
-441,-349,0,0,0,0,0,0,0,0,0,-1,783,1373,0,0
-434,-349,0,0,0,0,0,0,0,0,0,-1,790,1373,0,0
-427,-349,0,0,0,0,0,0,0,0,0,-1,797,1373,0,0
-420,-349,0,0,0,0,0,0,0,0,0,-1,804,1373,0,0
-413,-349,0,0,0,0,0,0,0,0,0,-1,811,1373,0,0
-406,-349,0,0,0,0,0,0,0,0,0,-1,818,1373,0,0
-399,-349,0,0,0,0,0,0,0,0,0,-1,825,1373,0,0
-392,-349,0,0,0,0,0,0,0,0,0,-1,832,1373,0,0
-385,-349,0,0,0,0,0,0,0,0,0,-1,839,1373,0,0
-378,-349,0,0,0,0,0,0,0,0,0,-1,846,1373,0,0
-371,-349,0,0,0,0,0,0,0,0,0,-1,853,1373,0,0
-364,-349,0,0,0,0,0,0,0,0,0,-1,860,1373,0,0
-357,-349,0,0,0,0,0,0,0,0,0,-1,867,1373,0,0
-350,-349,0,0,0,0,0,0,0,0,0,-1,874,1373,0,0
-343,-349,0,0,0,0,0,0,0,0,0,-1,881,1373,0,0
-336,-349,0,0,0,0,0,0,0,0,0,-1,888,1373,0,0
-329,-349,0,0,0,0,0,0,0,0,0,-1,895,1373,0,0
-322,-349,0,0,0,0,0,0,0,0,0,-1,902,1373,0,0
-315,-349,0,0,0,0,0,0,0,0,0,-1,909,1373,0,0
-308,-349,0,0,0,0,0,0,0,0,0,-1,916,1373,0,0
-301,-349,0,0,0,0,0,0,0,0,0,-1,923,1373,0,0
-294,-349,0,0,0,0,0,0,0,0,0,-1,930,1373,0,0
-287,-349,0,0,0,0,0,0,0,0,0,-1,937,1373,0,0
-280,-349,0,0,0,0,0,0,0,0,0,-1,944,1373,0,0
-273,-349,0,0,0,0,0,0,0,0,0,-1,951,1373,0,0
-266,-349,0,0,0,0,0,0,0,0,0,-1,958,1373,0,0
-259,-349,0,0,0,0,0,0,0,0,0,-1,965,1373,0,0
-252,-349,0,0,0,0,0,0,0,0,0,-1,972,1373,0,0
-245,-349,0,0,0,0,0,0,0,0,0,-1,979,1373,0,0
-238,-349,0,0,0,0,0,0,0,0,0,-1,986,1373,0,0
-231,-349,0,0,0,0,0,0,0,0,0,-1,993,1373,0,0
-224,-349,0,0,0,0,0,0,0,0,0,-1,1000,1373,0,0
-217,-349,0,0,0,0,0,0,0,0,0,-1,1007,1373,0,0
-210,-349,0,0,0,0,0,0,0,0,0,-1,1014,1373,0,0
-203,-349,0,0,0,0,0,0,0,0,0,-1,1021,1373,0,0
-196,-349,0,0,0,0,0,0,0,0,0,-1,1028,1373,0,0
-189,-349,0,0,0,0,0,0,0,0,0,-1,1035,1373,0,0
-182,-349,0,0,0,0,0,0,0,0,0,-1,1042,1373,0,0
-175,-349,0,0,0,0,0,0,0,0,0,-1,1049,1373,0,0
-168,-349,0,0,0,0,0,0,0,0,0,-1,1056,1373,0,0
-161,-349,0,0,0,0,0,0,0,0,0,-1,1063,1373,0,0
-154,-349,0,0,0,0,0,0,0,0,0,-1,1070,1373,0,0
-147,-349,0,0,0,0,0,0,0,0,0,-1,1077,1373,0,0
-140,-349,0,0,0,0,0,0,0,0,0,-1,1084,1373,0,0
-133,-349,0,0,0,0,0,0,0,0,0,-1,1091,1373,0,0
-126,-349,0,0,0,0,0,0,0,0,0,-1,1098,1373,0,0
-119,-349,0,0,0,0,0,0,0,0,0,-1,1105,1373,0,0
-112,-349,0,0,0,0,0,0,0,0,0,-1,1112,1373,0,0
-105,-349,0,0,0,0,0,0,0,0,0,-1,1119,1373,0,0
-98,-349,0,0,0,0,0,0,0,0,0,-1,1126,1373,0,0
-91,-349,0,0,0,0,0,0,0,0,0,-1,1133,1373,0,0
-84,-349,0,0,0,0,0,0,0,0,0,-1,1140,1373,0,0
-77,-349,0,0,0,0,0,0,0,0,0,-1,1147,1373,0,0
-70,-349,0,0,0,0,0,0,0,0,0,-1,1154,1373,0,0
-63,-349,0,0,0,0,0,0,0,0,0,-1,1161,1373,0,0
-56,-349,0,0,0,0,0,0,0,0,0,-1,1168,1373,0,0
-49,-349,0,0,0,0,0,0,0,0,0,-1,1175,1373,0,0
-42,-349,0,0,0,0,0,0,0,0,0,-1,1182,1373,0,0
-35,-349,0,0,0,0,0,0,0,0,0,-1,1189,1373,0,0
-28,-349,0,0,0,0,0,0,0,0,0,-1,1196,1373,0,0
-21,-349,0,0,0,0,0,0,0,0,0,-1,1203,1373,0,0
-14,-349,0,0,0,0,0,0,0,0,0,-1,1210,1373,0,0
-7,-349,0,0,0,0,0,0,0,0,0,-1,1217,1373,0,0
0,-349,0,0,0,0,0,0,0,0,0,-1,1224,1373,0,0
7,-349,0,0,0,0,0,0,0,0,0,-1,1231,1373,0,0
14,-349,0,0,0,0,0,0,0,0,0,-1,1238,1373,0,0
21,-349,0,0,0,0,0,0,0,0,0,-1,1245,1373,0,0
28,-349,0,0,0,0,0,0,0,0,0,-1,1252,1373,0,0
35,-349,0,0,0,0,0,0,0,0,0,-1,1259,1373,0,0
42,-349,0,0,0,0,0,0,0,0,0,-1,1266,1373,0,0
49,-349,0,0,0,0,0,0,0,0,0,-1,1273,1373,0,0
56,-349,0,0,0,0,0,0,0,0,0,-1,1280,1373,0,0
63,-349,0,0,0,0,0,0,0,0,0,-1,1287,1373,0,0
70,-349,0,0,0,0,0,0,0,0,0,-1,1294,1373,0,0
77,-349,0,0,0,0,0,0,0,0,0,-1,1301,1373,0,0
84,-349,0,0,0,0,0,0,0,0,0,-1,1308,1373,0,0
91,-349,0,0,0,0,0,0,0,0,0,-1,1315,1373,0,0
98,-349,0,0,0,0,0,0,0,0,0,-1,1322,1373,0,0
105,-349,0,0,0,0,0,0,0,0,0,-1,1329,1373,0,0
112,-349,0,0,0,0,0,0,0,0,0,-1,1336,1373,0,0
119,-349,0,0,0,0,0,0,0,0,0,-1,1343,1373,0,0
126,-349,0,0,0,0,0,0,0,0,0,-1,1350,1373,0,0
133,-349,0,0,0,0,0,0,0,0,0,-1,1357,1373,0,0
140,-349,0,0,0,0,0,0,0,0,0,-1,1364,1373,0,0
147,-349,0,0,0,0,0,0,0,0,0,-1,1371,1373,0,0
154,-349,0,0,0,0,0,0,0,0,0,-1,1378,1373,0,0
161,-349,0,0,0,0,0,0,0,0,0,-1,1385,1373,0,0
168,-349,0,0,0,0,0,0,0,0,0,-1,1392,1373,0,0
175,-349,0,0,0,0,0,0,0,0,0,-1,1399,1373,0,0
182,-349,0,0,0,0,0,0,0,0,0,-1,1406,1373,0,0
189,-349,0,0,0,0,0,0,0,0,0,-1,1413,1373,0,0
196,-349,0,0,0,0,0,0,0,0,0,-1,1420,1373,0,0
203,-349,0,0,0,0,0,0,0,0,0,-1,1427,1373,0,0
210,-349,0,0,0,0,0,0,0,0,0,-1,1434,1373,0,0
217,-349,0,0,0,0,0,0,0,0,0,-1,1441,1373,0,0
224,-349,0,0,0,0,0,0,0,0,0,-1,1448,1373,0,0
231,-349,0,0,0,0,0,0,0,0,0,-1,1455,1373,0,0
238,-349,0,0,0,0,0,0,0,0,0,-1,1462,1373,0,0
245,-349,0,0,0,0,0,0,0,0,0,-1,1469,1373,0,0
252,-349,0,0,0,0,0,0,0,0,0,-1,1476,1373,0,0
259,-349,0,0,0,0,0,0,0,0,0,-1,1483,1373,0,0
266,-349,0,0,0,0,0,0,0,0,0,-1,1490,1373,0,0
273,-349,0,0,0,0,0,0,0,0,0,-1,1497,1373,0,0
280,-349,0,0,0,0,0,0,0,0,0,-1,1504,1373,0,0
287,-349,0,0,0,0,0,0,0,0,0,-1,1511,1373,0,0
294,-349,0,0,0,0,0,0,0,0,0,-1,1518,1373,0,0
301,-349,0,0,0,0,0,0,0,0,0,-1,1525,1373,0,0
308,-349,0,0,0,0,0,0,0,0,0,-1,1532,1373,0,0
315,-349,0,0,0,0,0,0,0,0,0,-1,1539,1373,0,0
322,-349,0,0,0,0,0,0,0,0,0,-1,1546,1373,0,0
329,-349,0,0,0,0,0,0,0,0,0,-1,1553,1373,0,0
336,-349,0,0,0,0,0,0,0,0,0,-1,1560,1373,0,0
343,-349,0,0,0,0,0,0,0,0,0,-1,1567,1373,0,0
350,-349,0,0,0,0,0,0,0,0,0,-1,1574,1373,0,0
357,-349,0,0,0,0,0,0,0,0,0,-1,1581,1373,0,0
364,-349,0,0,0,0,0,0,0,0,0,-1,1588,1373,0,0
371,-349,0,0,0,0,0,0,0,0,0,-1,1595,1373,0,0
378,-349,0,0,0,0,0,0,0,0,0,-1,1602,1373,0,0
385,-349,0,0,0,0,0,0,0,0,0,-1,1609,1373,0,0
392,-349,0,0,0,0,0,0,0,0,0,-1,1616,1373,0,0
399,-349,0,0,0,0,0,0,0,0,0,-1,1623,1373,0,0
406,-349,0,0,0,0,0,0,0,0,0,-1,1630,1373,0,0
413,-349,0,0,0,0,0,0,0,0,0,-1,1637,1373,0,0
420,-349,0,0,0,0,0,0,0,0,0,-1,1644,1373,0,0
427,-349,0,0,0,0,0,0,0,0,0,-1,1651,1373,0,0
434,-349,0,0,0,0,0,0,0,0,0,-1,1658,1373,0,0
441,-349,0,0,0,0,0,0,0,0,0,-1,1665,1373,0,0
448,-349,0,0,0,0,0,0,0,0,0,-1,1672,1373,0,0
455,-349,0,0,0,0,0,0,0,0,0,-1,1679,1373,0,0
462,-349,0,0,0,0,0,0,0,0,0,-1,1686,1373,0,0
469,-349,0,0,0,0,0,0,0,0,0,-1,1693,1373,0,0
476,-349,0,0,0,0,0,0,0,0,0,-1,1700,1373,0,0
483,-349,0,0,0,0,0,0,0,0,0,-1,1707,1373,0,0
490,-349,0,0,0,0,0,0,0,0,0,-1,1714,1373,0,0
497,-349,0,0,0,0,0,0,0,0,0,-1,1721,1373,0,0
504,-349,0,0,0,0,0,0,0,0,0,-1,1728,1373,0,0
511,-349,0,0,0,0,0,0,0,0,0,-1,1735,1373,0,0
518,-349,0,0,0,0,0,0,0,0,0,-1,1742,1373,0,0
525,-349,0,0,0,0,0,0,0,0,0,-1,1749,1373,0,0
532,-349,0,0,0,0,0,0,0,0,0,-1,1756,1373,0,0
539,-349,0,0,0,0,0,0,0,0,0,-1,1763,1373,0,0
546,-349,0,0,0,0,0,0,0,0,0,-1,1770,1373,0,0
553,-349,0,0,0,0,0,0,0,0,0,-1,1777,1373,0,0
560,-349,7.95508,3.36218,0,0,0,0,0,0,0,-1,1784,1373,7.95512,-3.36217
567,-349,14.7559,5.26501,0,0,0,0,0,0,0,-1,1791,1373,14.7559,-5.26498
574,-349,14.3474,4.07104,0,0,0,0,0,0,0,-1,1798,1373,14.3474,-4.07103
581,-349,13.734,2.62146,0,0,0,0,0,0,0,-1,1805,1373,13.734,-2.62143
588,-349,12.9476,1.28503,0,0,0,0,0,0,0,-1,1812,1373,12.9476,-1.28505
595,-349,11.4526,-0.0360107,0,0,0,0,0,0,0,-1,1819,1373,11.4527,0.0360303
602,-349,9.36108,4.05981,0,0,0,0,0,0,0,-1,1826,1373,9.36106,-4.05976
609,-349,9.25586,3.45557,-0.026823,-0.0135983,-0.00675683,-0.0107566,-0.0296646,-1.17269,0.0173411,0.0403515,1833,1373,9.25582,-3.45563
616,-349,8.95691,3.17896,-0.0230414,-0.0106485,-0.00577196,-0.00837664,-0.0253132,-1.19582,0.0148905,0.0410291,1840,1373,8.95685,-3.17901
623,-349,9.64673,3.76379,-0.0190371,-0.00833829,-0.00455161,-0.00666393,-0.0207115,-1.2183,0.0122084,0.0452945,1847,1373,9.64675,-3.76385
630,-349,9.34998,3.70508,-0.015202,-0.00657212,-0.00332902,-0.00543719,-0.0163369,-1.24223,0.00960628,0.047656,1854,1373,9.35001,-3.70509
637,-349,8.98718,3.5686,-0.0118287,-0.00517658,-0.00222996,-0.00449822,-0.012507,-1.27549,0.00731514,0.0394528,1861,1373,8.9872,-3.56864
644,-349,8.66528,3.54187,-0.00902716,-0.00367102,-0.00116628,-0.00342809,-0.00927009,-1.36543,0.00541224,0.0274953,1868,1373,8.66524,-3.54182
651,-349,8.75708,3.40576,-0.00659461,-0.00280034,-0.00033286,-0.00277136,-0.00662359,-1.48395,0.00384106,0.0204202,1875,1373,8.75712,-3.40581
658,-349,8.71692,3.31104,-0.00417971,-0.00233778,0.000247457,-0.00230512,-0.00421238,1.43955,0.00243563,0.0249465,1882,1373,8.71697,-3.31103
665,-349,8.68799,3.20227,-0.00192189,-0.00215817,0.000321244,-0.00169775,-0.00238231,0.609193,0.00141628,0.0189288,1889,1373,8.68797,-3.20224
672,-349,8.69373,3.09399,-0.000115429,-0.00201041,0.000213112,-9.17579e-05,-0.00203408,0.110621,0.00132652,0.0137109,1896,1373,8.69378,-3.09404
679,-349,8.68323,3.00073,0.00193245,-0.00166064,0.000414029,0.00197954,-0.00170773,0.113252,0.00213078,0.012446,1903,1373,8.68327,-3.00078
686,-349,8.70215,2.91699,0.00449924,-0.00231568,0.000443004,0.00452791,-0.00234435,0.0646425,0.00403391,0.0110477,1910,1373,8.70216,-2.91704
693,-349,8.724,2.79871,0.00612826,-0.00314803,0.000926096,0.00621982,-0.00323959,0.0985388,0.005551,0.0145512,1917,1373,8.72398,-2.79865
700,-349,8.72253,2.69641,0.00747739,-0.00519314,0.00166285,0.00769198,-0.00540773,0.128342,0.00760136,0.0169462,1924,1373,8.72258,-2.6964
707,-349,8.74243,2.58655,0.00979086,-0.00894083,0.00227569,0.0100634,-0.00921334,0.119179,0.011133,0.0167379,1931,1373,8.74239,-2.58651
714,-349,8.71631,2.47571,0.0115713,-0.0131894,0.00335668,0.0120183,-0.0136364,0.132382,0.0148216,0.0205081,1938,1373,8.71632,-2.47568
721,-349,8.6814,2.39685,0.0127026,-0.0190296,0.00484396,0.0134256,-0.0197526,0.148157,0.0192712,0.0365792,1945,1373,8.68134,-2.39681
728,-349,8.76392,2.3855,0.0127775,-0.0267638,0.00674172,0.0138953,-0.0278816,0.164316,0.0245664,0.0474898,1952,1373,8.76394,-2.38556
735,-349,8.89844,2.71655,0,0,0,0,0,0,0,-1,1959,1373,8.89844,-2.71653
742,-349,9.0769,4.41174,0.00762021,-0.049191,0.0118045,0.00997537,-0.0515461,0.196928,0.0381267,0.0470952,1966,1373,9.07686,-4.41169
749,-349,8.19446,4.41138,0.0014053,-0.0645344,0.0148241,0.00458466,-0.0677138,0.211271,0.0467457,0.0468411,1973,1373,8.19448,-4.41141
756,-349,0,0,0,0,0,0,0,0,0,-1,1980,1373,0,0
763,-349,0,0,0,0,0,0,0,0,0,-1,1987,1373,0,0
770,-349,0,0,0,0,0,0,0,0,0,-1,1994,1373,0,0
777,-349,0,0,0,0,0,0,0,0,0,-1,2001,1373,0,0
784,-349,0,0,0,0,0,0,0,0,0,-1,2008,1373,0,0
791,-349,0,0,0,0,0,0,0,0,0,-1,2015,1373,0,0
798,-349,0,0,0,0,0,0,0,0,0,-1,2022,1373,0,0
805,-349,0,0,0,0,0,0,0,0,0,-1,2029,1373,0,0
812,-349,0,0,0,0,0,0,0,0,0,-1,2036,1373,0,0
-700,-356,0,0,0,0,0,0,0,0,0,-1,524,1380,0,0
-693,-356,0,0,0,0,0,0,0,0,0,-1,531,1380,0,0
-686,-356,0,0,0,0,0,0,0,0,0,-1,538,1380,0,0
-679,-356,0,0,0,0,0,0,0,0,0,-1,545,1380,0,0
-672,-356,0,0,0,0,0,0,0,0,0,-1,552,1380,0,0
-665,-356,0,0,0,0,0,0,0,0,0,-1,559,1380,0,0
-658,-356,0,0,0,0,0,0,0,0,0,-1,566,1380,0,0
-651,-356,0,0,0,0,0,0,0,0,0,-1,573,1380,0,0
-644,-356,0,0,0,0,0,0,0,0,0,-1,580,1380,0,0
-637,-356,0,0,0,0,0,0,0,0,0,-1,587,1380,0,0
-630,-356,-1.30219,1.43835,-0.0678924,0.0465362,-0.0462329,0.0628811,-0.0842373,-1.23098,0.0852366,0.0440793,594,1380,-1.30218,-1.43834
-623,-356,-1.34033,1.50952,-0.0511074,0.0387801,-0.0397338,0.0538256,-0.066153,-1.20882,0.0693914,0.047547,601,1380,-1.34031,-1.50956
-616,-356,-1.56702,1.88806,0,0,0,0,0,0,0,-1,608,1380,-1.56702,-1.88803
-609,-356,-0.884949,1.8551,0,0,0,0,0,0,0,-1,615,1380,-0.884941,-1.85509
-602,-356,-1.04016,1.60461,0,0,0,0,0,0,0,-1,622,1380,-1.04015,-1.60458
-595,-356,-1.36249,1.20496,0,0,0,0,0,0,0,-1,629,1380,-1.36252,-1.20499
-588,-356,-1.74194,1.32776,-0.00819146,0.0130485,-0.0124568,0.0187979,-0.0139408,-1.13838,0.0189709,0.0408558,636,1380,-1.74192,-1.32776
-581,-356,-2.23657,1.43176,-0.00307571,0.0104098,-0.00897647,0.0148939,-0.00755978,-1.10752,0.0131921,0.0347819,643,1380,-2.2366,-1.43176
-574,-356,-2.19958,1.44482,9.32624e-05,0.00727076,-0.00615063,0.0108031,-0.00343904,-1.04949,0.00858125,0.0225081,650,1380,-2.19959,-1.44481
-567,-356,-2.27728,1.5321,0.000642774,0.00538265,-0.00361768,0.00733755,-0.00131212,-1.07537,0.00538265,0.015251,657,1380,-2.2773,-1.53208
-560,-356,-2.2605,1.68616,0.000211006,0.00311724,-0.00260394,0.00464608,-0.00131783,-1.0399,0.00361758,0.0167299,664,1380,-2.26052,-1.68621
-553,-356,-2.2865,1.78455,-0.000199763,0.00120003,-0.0021207,0.00273334,-0.00173307,-0.944787,0.00260015,0.0194155,671,1380,-2.28648,-1.78459
-546,-356,-2.30573,1.87097,-0.000272819,-8.53586e-05,-0.00208346,0.00190648,-0.00226466,-0.807877,0.00241116,0.0217577,678,1380,-2.30573,-1.87103
-539,-356,-2.27301,1.99756,-0.000850736,-0.00172148,-0.00230592,0.00106055,-0.00363276,-0.692094,0.0028421,0.0153972,685,1380,-2.27302,-1.99756
-532,-356,-2.26526,2.14392,-0.00082073,-0.00291722,-0.00259704,0.000931635,-0.00466959,-0.593582,0.0034656,0.0141243,692,1380,-2.26525,-2.14391
-525,-356,-2.26221,2.27661,-0.00102541,-0.00435467,-0.00335246,0.00105295,-0.00643303,-0.55496,0.00467932,0.0115444,699,1380,-2.26223,-2.27658
-518,-356,-2.25568,2.39539,8.94588e-05,-0.00540106,-0.00400443,0.00219929,-0.00751089,-0.484915,0.00587911,0.0109802,706,1380,-2.25569,-2.39534
-511,-356,-2.20538,2.53906,0.00267098,-0.00709582,-0.00452307,0.00444383,-0.00886867,-0.373555,0.00782622,0.0162899,713,1380,-2.20541,-2.5391
-504,-356,-2.21942,2.58984,0.00653188,-0.00326531,-0.00766497,0.0107299,-0.0074633,-0.501065,0.0105601,0.032657,720,1380,-2.21943,-2.58989
-497,-356,-2.25739,2.48926,0.0106103,0.00507639,-0.0123449,0.0204945,-0.00480788,-0.675152,0.015516,0.0451192,727,1380,-2.25739,-2.48928
-490,-356,-2.34314,2.47803,0.0154477,0.0207177,-0.02099,0.0392374,-0.00307211,-0.847839,0.0272401,0.0488602,734,1380,-2.34313,-2.47805
-483,-356,-2.40283,2.39819,0.0213412,0.0399273,-0.0318305,0.0637936,-0.00252509,-0.927428,0.0433952,0.0454954,741,1380,-2.40285,-2.39817
-476,-356,-2.42493,2.33838,0,0,0,0,0,0,0,-1,748,1380,-2.42493,-2.33839
-469,-356,-2.55823,2.21729,0,0,0,0,0,0,0,-1,755,1380,-2.55825,-2.21732
-462,-356,-1.97559,2.36877,0,0,0,0,0,0,0,-1,762,1380,-1.9756,-2.36883
-455,-356,-6.02258,6.52075,0.0448859,0.170629,-0.101998,0.227576,-0.0120611,-1.06159,0.155893,0.0464043,769,1380,-6.02257,-6.52071
-448,-356,-5.92737,5.73621,0.0456821,0.222807,-0.132013,0.293212,-0.0247231,-1.08085,0.204215,0.0462165,776,1380,-5.92737,-5.73622
-441,-356,-5.97772,4.16052,0.0416974,0.285537,-0.169702,0.372575,-0.0453401,-1.09689,0.264794,0.0468058,783,1380,-5.97775,-4.16055
-434,-356,0,0,0,0,0,0,0,0,0,-1,790,1380,0,0
-427,-356,0,0,0,0,0,0,0,0,0,-1,797,1380,0,0
-420,-356,0,0,0,0,0,0,0,0,0,-1,804,1380,0,0
-413,-356,0,0,0,0,0,0,0,0,0,-1,811,1380,0,0
-406,-356,0,0,0,0,0,0,0,0,0,-1,818,1380,0,0
-399,-356,0,0,0,0,0,0,0,0,0,-1,825,1380,0,0
-392,-356,0,0,0,0,0,0,0,0,0,-1,832,1380,0,0
-385,-356,0,0,0,0,0,0,0,0,0,-1,839,1380,0,0
-378,-356,0,0,0,0,0,0,0,0,0,-1,846,1380,0,0
-371,-356,0,0,0,0,0,0,0,0,0,-1,853,1380,0,0
-364,-356,0,0,0,0,0,0,0,0,0,-1,860,1380,0,0
-357,-356,0,0,0,0,0,0,0,0,0,-1,867,1380,0,0
-350,-356,0,0,0,0,0,0,0,0,0,-1,874,1380,0,0
-343,-356,0,0,0,0,0,0,0,0,0,-1,881,1380,0,0
-336,-356,0,0,0,0,0,0,0,0,0,-1,888,1380,0,0
-329,-356,0,0,0,0,0,0,0,0,0,-1,895,1380,0,0
-322,-356,0,0,0,0,0,0,0,0,0,-1,902,1380,0,0
-315,-356,0,0,0,0,0,0,0,0,0,-1,909,1380,0,0
-308,-356,0,0,0,0,0,0,0,0,0,-1,916,1380,0,0
-301,-356,0,0,0,0,0,0,0,0,0,-1,923,1380,0,0
-294,-356,0,0,0,0,0,0,0,0,0,-1,930,1380,0,0
-287,-356,0,0,0,0,0,0,0,0,0,-1,937,1380,0,0
-280,-356,0,0,0,0,0,0,0,0,0,-1,944,1380,0,0
-273,-356,0,0,0,0,0,0,0,0,0,-1,951,1380,0,0
-266,-356,0,0,0,0,0,0,0,0,0,-1,958,1380,0,0
-259,-356,0,0,0,0,0,0,0,0,0,-1,965,1380,0,0
-252,-356,0,0,0,0,0,0,0,0,0,-1,972,1380,0,0
-245,-356,0,0,0,0,0,0,0,0,0,-1,979,1380,0,0
-238,-356,0,0,0,0,0,0,0,0,0,-1,986,1380,0,0
-231,-356,0,0,0,0,0,0,0,0,0,-1,993,1380,0,0
-224,-356,0,0,0,0,0,0,0,0,0,-1,1000,1380,0,0
-217,-356,0,0,0,0,0,0,0,0,0,-1,1007,1380,0,0
-210,-356,0,0,0,0,0,0,0,0,0,-1,1014,1380,0,0
-203,-356,0,0,0,0,0,0,0,0,0,-1,1021,1380,0,0
-196,-356,0,0,0,0,0,0,0,0,0,-1,1028,1380,0,0
-189,-356,0,0,0,0,0,0,0,0,0,-1,1035,1380,0,0
-182,-356,0,0,0,0,0,0,0,0,0,-1,1042,1380,0,0
-175,-356,0,0,0,0,0,0,0,0,0,-1,1049,1380,0,0
-168,-356,0,0,0,0,0,0,0,0,0,-1,1056,1380,0,0
-161,-356,0,0,0,0,0,0,0,0,0,-1,1063,1380,0,0
-154,-356,0,0,0,0,0,0,0,0,0,-1,1070,1380,0,0
-147,-356,0,0,0,0,0,0,0,0,0,-1,1077,1380,0,0
-140,-356,0,0,0,0,0,0,0,0,0,-1,1084,1380,0,0
-133,-356,0,0,0,0,0,0,0,0,0,-1,1091,1380,0,0
-126,-356,0,0,0,0,0,0,0,0,0,-1,1098,1380,0,0
-119,-356,0,0,0,0,0,0,0,0,0,-1,1105,1380,0,0
-112,-356,0,0,0,0,0,0,0,0,0,-1,1112,1380,0,0
-105,-356,0,0,0,0,0,0,0,0,0,-1,1119,1380,0,0
-98,-356,0,0,0,0,0,0,0,0,0,-1,1126,1380,0,0
-91,-356,0,0,0,0,0,0,0,0,0,-1,1133,1380,0,0
-84,-356,0,0,0,0,0,0,0,0,0,-1,1140,1380,0,0
-77,-356,0,0,0,0,0,0,0,0,0,-1,1147,1380,0,0
-70,-356,0,0,0,0,0,0,0,0,0,-1,1154,1380,0,0
-63,-356,0,0,0,0,0,0,0,0,0,-1,1161,1380,0,0
-56,-356,0,0,0,0,0,0,0,0,0,-1,1168,1380,0,0
-49,-356,0,0,0,0,0,0,0,0,0,-1,1175,1380,0,0
-42,-356,0,0,0,0,0,0,0,0,0,-1,1182,1380,0,0
-35,-356,0,0,0,0,0,0,0,0,0,-1,1189,1380,0,0
-28,-356,0,0,0,0,0,0,0,0,0,-1,1196,1380,0,0
-21,-356,0,0,0,0,0,0,0,0,0,-1,1203,1380,0,0
-14,-356,0,0,0,0,0,0,0,0,0,-1,1210,1380,0,0
-7,-356,0,0,0,0,0,0,0,0,0,-1,1217,1380,0,0
0,-356,0,0,0,0,0,0,0,0,0,-1,1224,1380,0,0
7,-356,0,0,0,0,0,0,0,0,0,-1,1231,1380,0,0
14,-356,0,0,0,0,0,0,0,0,0,-1,1238,1380,0,0
21,-356,0,0,0,0,0,0,0,0,0,-1,1245,1380,0,0
28,-356,0,0,0,0,0,0,0,0,0,-1,1252,1380,0,0
35,-356,0,0,0,0,0,0,0,0,0,-1,1259,1380,0,0
42,-356,0,0,0,0,0,0,0,0,0,-1,1266,1380,0,0
49,-356,0,0,0,0,0,0,0,0,0,-1,1273,1380,0,0
56,-356,0,0,0,0,0,0,0,0,0,-1,1280,1380,0,0
63,-356,0,0,0,0,0,0,0,0,0,-1,1287,1380,0,0
70,-356,0,0,0,0,0,0,0,0,0,-1,1294,1380,0,0
77,-356,0,0,0,0,0,0,0,0,0,-1,1301,1380,0,0
84,-356,0,0,0,0,0,0,0,0,0,-1,1308,1380,0,0
91,-356,0,0,0,0,0,0,0,0,0,-1,1315,1380,0,0
98,-356,0,0,0,0,0,0,0,0,0,-1,1322,1380,0,0
105,-356,0,0,0,0,0,0,0,0,0,-1,1329,1380,0,0
112,-356,0,0,0,0,0,0,0,0,0,-1,1336,1380,0,0
119,-356,0,0,0,0,0,0,0,0,0,-1,1343,1380,0,0
126,-356,0,0,0,0,0,0,0,0,0,-1,1350,1380,0,0
133,-356,0,0,0,0,0,0,0,0,0,-1,1357,1380,0,0
140,-356,0,0,0,0,0,0,0,0,0,-1,1364,1380,0,0
147,-356,0,0,0,0,0,0,0,0,0,-1,1371,1380,0,0
154,-356,0,0,0,0,0,0,0,0,0,-1,1378,1380,0,0
161,-356,0,0,0,0,0,0,0,0,0,-1,1385,1380,0,0
168,-356,0,0,0,0,0,0,0,0,0,-1,1392,1380,0,0
175,-356,0,0,0,0,0,0,0,0,0,-1,1399,1380,0,0
182,-356,0,0,0,0,0,0,0,0,0,-1,1406,1380,0,0
189,-356,0,0,0,0,0,0,0,0,0,-1,1413,1380,0,0
196,-356,0,0,0,0,0,0,0,0,0,-1,1420,1380,0,0
203,-356,0,0,0,0,0,0,0,0,0,-1,1427,1380,0,0
210,-356,0,0,0,0,0,0,0,0,0,-1,1434,1380,0,0
217,-356,0,0,0,0,0,0,0,0,0,-1,1441,1380,0,0
224,-356,0,0,0,0,0,0,0,0,0,-1,1448,1380,0,0
231,-356,0,0,0,0,0,0,0,0,0,-1,1455,1380,0,0
238,-356,0,0,0,0,0,0,0,0,0,-1,1462,1380,0,0
245,-356,0,0,0,0,0,0,0,0,0,-1,1469,1380,0,0
252,-356,0,0,0,0,0,0,0,0,0,-1,1476,1380,0,0
259,-356,0,0,0,0,0,0,0,0,0,-1,1483,1380,0,0
266,-356,0,0,0,0,0,0,0,0,0,-1,1490,1380,0,0
273,-356,0,0,0,0,0,0,0,0,0,-1,1497,1380,0,0
280,-356,0,0,0,0,0,0,0,0,0,-1,1504,1380,0,0
287,-356,0,0,0,0,0,0,0,0,0,-1,1511,1380,0,0
294,-356,0,0,0,0,0,0,0,0,0,-1,1518,1380,0,0
301,-356,0,0,0,0,0,0,0,0,0,-1,1525,1380,0,0
308,-356,0,0,0,0,0,0,0,0,0,-1,1532,1380,0,0
315,-356,0,0,0,0,0,0,0,0,0,-1,1539,1380,0,0
322,-356,0,0,0,0,0,0,0,0,0,-1,1546,1380,0,0
329,-356,0,0,0,0,0,0,0,0,0,-1,1553,1380,0,0
336,-356,0,0,0,0,0,0,0,0,0,-1,1560,1380,0,0
343,-356,0,0,0,0,0,0,0,0,0,-1,1567,1380,0,0
350,-356,0,0,0,0,0,0,0,0,0,-1,1574,1380,0,0
357,-356,0,0,0,0,0,0,0,0,0,-1,1581,1380,0,0
364,-356,0,0,0,0,0,0,0,0,0,-1,1588,1380,0,0
371,-356,0,0,0,0,0,0,0,0,0,-1,1595,1380,0,0
378,-356,0,0,0,0,0,0,0,0,0,-1,1602,1380,0,0
385,-356,0,0,0,0,0,0,0,0,0,-1,1609,1380,0,0
392,-356,0,0,0,0,0,0,0,0,0,-1,1616,1380,0,0
399,-356,0,0,0,0,0,0,0,0,0,-1,1623,1380,0,0
406,-356,0,0,0,0,0,0,0,0,0,-1,1630,1380,0,0
413,-356,0,0,0,0,0,0,0,0,0,-1,1637,1380,0,0
420,-356,0,0,0,0,0,0,0,0,0,-1,1644,1380,0,0
427,-356,0,0,0,0,0,0,0,0,0,-1,1651,1380,0,0
434,-356,0,0,0,0,0,0,0,0,0,-1,1658,1380,0,0
441,-356,0,0,0,0,0,0,0,0,0,-1,1665,1380,0,0
448,-356,0,0,0,0,0,0,0,0,0,-1,1672,1380,0,0
455,-356,0,0,0,0,0,0,0,0,0,-1,1679,1380,0,0
462,-356,0,0,0,0,0,0,0,0,0,-1,1686,1380,0,0
469,-356,0,0,0,0,0,0,0,0,0,-1,1693,1380,0,0
476,-356,0,0,0,0,0,0,0,0,0,-1,1700,1380,0,0
483,-356,0,0,0,0,0,0,0,0,0,-1,1707,1380,0,0
490,-356,0,0,0,0,0,0,0,0,0,-1,1714,1380,0,0
497,-356,0,0,0,0,0,0,0,0,0,-1,1721,1380,0,0
504,-356,0,0,0,0,0,0,0,0,0,-1,1728,1380,0,0
511,-356,0,0,0,0,0,0,0,0,0,-1,1735,1380,0,0
518,-356,0,0,0,0,0,0,0,0,0,-1,1742,1380,0,0
525,-356,0,0,0,0,0,0,0,0,0,-1,1749,1380,0,0
532,-356,0,0,0,0,0,0,0,0,0,-1,1756,1380,0,0
539,-356,0,0,0,0,0,0,0,0,0,-1,1763,1380,0,0
546,-356,0,0,0,0,0,0,0,0,0,-1,1770,1380,0,0
553,-356,0,0,0,0,0,0,0,0,0,-1,1777,1380,0,0
560,-356,8.22205,3.62878,0,0,0,0,0,0,0,-1,1784,1380,8.22201,-3.6288
567,-356,11.2386,3.05603,0,0,0,0,0,0,0,-1,1791,1380,11.2386,-3.05604
574,-356,9.00793,3.26978,0,0,0,0,0,0,0,-1,1798,1380,9.00795,-3.26981
581,-356,9.76221,3.35327,0,0,0,0,0,0,0,-1,1805,1380,9.76219,-3.35329
588,-356,13.3733,1.17883,0,0,0,0,0,0,0,-1,1812,1380,13.3732,-1.17888
595,-356,9.29761,3.95911,0,0,0,0,0,0,0,-1,1819,1380,9.29758,-3.9591
602,-356,9.20154,3.79236,-0.0283991,-0.0137915,0.00284837,-0.0132557,-0.0289349,1.38488,0.0167251,0.043574,1826,1380,9.2015,-3.7924
609,-356,9.11572,3.52393,-0.0268374,-0.0127576,0.000837749,-0.0127079,-0.0268871,1.51157,0.015531,0.0364102,1833,1380,9.11573,-3.52387
616,-356,8.91528,3.17603,-0.0233839,-0.0103038,-0.000106613,-0.0103029,-0.0233848,-1.56265,0.0135329,0.0392001,1840,1380,8.91533,-3.17604
623,-356,8.72046,3.11829,-0.0194133,-0.0081217,-0.000343346,-0.00811127,-0.0194237,-1.54043,0.0112649,0.0399321,1847,1380,8.7205,-3.11825
630,-356,8.88135,3.38782,-0.0155239,-0.00637369,-0.000107595,-0.00637243,-0.0155252,-1.55904,0.00901124,0.0345853,1854,1380,8.88132,-3.38785
637,-356,8.64905,3.42749,-0.0121275,-0.00489957,0.000262419,-0.00489006,-0.012137,1.53455,0.00705123,0.0253303,1861,1380,8.64908,-3.42743
644,-356,8.61682,3.5647,-0.00931384,-0.00340178,0.000751492,-0.00330775,-0.00940787,1.44632,0.00551081,0.0186485,1868,1380,8.61676,-3.56475
651,-356,8.62939,3.40735,-0.006813,-0.00255058,0.00109184,-0.00228718,-0.0070764,1.33407,0.00416982,0.0147569,1875,1380,8.62937,-3.40731
658,-356,8.6001,3.28369,-0.00432392,-0.00213975,0.00136895,-0.00148064,-0.00498303,1.12208,0.00295483,0.0131479,1882,1380,8.60014,-3.28371
665,-356,8.58667,3.21912,-0.0020053,-0.00197095,0.00111907,-0.000868927,-0.00310732,0.79307,0.00185118,0.0124898,1889,1380,8.58665,-3.21907
672,-356,8.59229,3.10327,4.07287e-05,-0.00189561,0.000771948,0.000310806,-0.00216569,0.336554,0.00155777,0.0134243,1896,1380,8.59229,-3.10333
679,-356,8.5741,2.97241,0.0024597,-0.00178371,0.000810488,0.00260923,-0.00193324,0.182446,0.00263226,0.0152359,1903,1380,8.57409,-2.97244
686,-356,8.56128,2.89063,0.00539944,-0.00263522,0.000734321,0.005466,-0.00270178,0.0903961,0.00480485,0.0144516,1910,1380,8.56125,-2.89062
693,-356,8.61084,2.80786,0.00742767,-0.00375868,0.00112014,0.00753873,-0.00386974,0.0988274,0.00669926,0.0133053,1917,1380,8.61089,-2.80792
700,-356,8.62854,2.68811,0.00910218,-0.00600355,0.00192061,0.00934255,-0.00624392,0.124505,0.00905793,0.0175546,1924,1380,8.62858,-2.6881
707,-356,8.6366,2.47803,0.0118451,-0.0099211,0.00270818,0.012177,-0.010253,0.121945,0.0129658,0.0250454,1931,1380,8.63656,-2.47798
714,-356,8.4386,2.29614,0.0140313,-0.014376,0.00400536,0.0145853,-0.01493,0.137429,0.017041,0.0367299,1938,1380,8.43859,-2.29615
721,-356,8.68433,2.2876,0.0153911,-0.0203445,0.0058011,0.0163092,-0.0212626,0.156966,0.0217549,0.046616,1945,1380,8.68429,-2.2876
728,-356,8.70435,2.27954,0,0,0,0,0,0,0,-1,1952,1380,8.70434,-2.27954
735,-356,9.57788,4.67737,0,0,0,0,0,0,0,-1,1959,1380,9.57791,-4.67737
742,-356,8.64099,4.71082,0.00790591,-0.0495792,0.0148549,0.0115177,-0.053191,0.238509,0.0398585,0.0482679,1966,1380,8.64101,-4.71078
749,-356,7.65344,4.6106,-0.000963547,-0.0636932,0.0191514,0.00442116,-0.0690779,0.274089,0.0475941,0.0490687,1973,1380,7.65348,-4.61059
756,-356,0,0,0,0,0,0,0,0,0,-1,1980,1380,0,0
763,-356,0,0,0,0,0,0,0,0,0,-1,1987,1380,0,0
770,-356,0,0,0,0,0,0,0,0,0,-1,1994,1380,0,0
777,-356,0,0,0,0,0,0,0,0,0,-1,2001,1380,0,0
784,-356,0,0,0,0,0,0,0,0,0,-1,2008,1380,0,0
791,-356,0,0,0,0,0,0,0,0,0,-1,2015,1380,0,0
798,-356,0,0,0,0,0,0,0,0,0,-1,2022,1380,0,0
805,-356,0,0,0,0,0,0,0,0,0,-1,2029,1380,0,0
812,-356,0,0,0,0,0,0,0,0,0,-1,2036,1380,0,0
-700,-363,0,0,0,0,0,0,0,0,0,-1,524,1387,0,0
-693,-363,0,0,0,0,0,0,0,0,0,-1,531,1387,0,0
-686,-363,0,0,0,0,0,0,0,0,0,-1,538,1387,0,0
-679,-363,0,0,0,0,0,0,0,0,0,-1,545,1387,0,0
-672,-363,0,0,0,0,0,0,0,0,0,-1,552,1387,0,0
-665,-363,0,0,0,0,0,0,0,0,0,-1,559,1387,0,0
-658,-363,0,0,0,0,0,0,0,0,0,-1,566,1387,0,0
-651,-363,0,0,0,0,0,0,0,0,0,-1,573,1387,0,0
-644,-363,0,0,0,0,0,0,0,0,0,-1,580,1387,0,0
-637,-363,0,0,0,0,0,0,0,0,0,-1,587,1387,0,0
-630,-363,0,0,0,0,0,0,0,0,0,-1,594,1387,0,0
-623,-363,-1.17157,1.28381,0,0,0,0,0,0,0,-1,601,1387,-1.17159,-1.28382
-616,-363,-2.84363,-0.12439,0,0,0,0,0,0,0,-1,608,1387,-2.84362,0.124445
-609,-363,-0.844055,2.11475,0,0,0,0,0,0,0,-1,615,1387,-0.844082,-2.11469
-602,-363,-1.00232,1.83972,-0.00801323,0.0313783,-0.0212421,0.0406506,-0.0172855,-1.15922,0.0343442,0.0487458,622,1387,-1.00234,-1.83967
-595,-363,-1.21216,1.52271,0,0,0,0,0,0,0,-1,629,1387,-1.21213,-1.52273
-588,-363,-1.52539,1.40198,0.000307232,0.0193383,-0.0122214,0.0253118,-0.00566622,-1.11617,0.0190463,0.0426452,636,1387,-1.5254,-1.40198
-581,-363,-1.9707,1.32544,0.00358682,0.0149734,-0.00885936,0.0198111,-0.00125087,-1.07099,0.0136435,0.0383537,643,1387,-1.97071,-1.32543
-574,-363,-2.06769,1.42957,0.00487086,0.0105221,-0.00608377,0.0144044,0.00098854,-1.0028,0.00929097,0.0296056,650,1387,-2.06766,-1.42961
-567,-363,-2.15625,1.51514,0.00393243,0.00744611,-0.00354087,0.00964202,0.00173651,-1.01568,0.00593448,0.0173348,657,1387,-2.15623,-1.51517
-560,-363,-2.16327,1.65247,0.0023184,0.00460499,-0.00245487,0.00616973,0.000753652,-1.00333,0.00388637,0.0124694,664,1387,-2.16325,-1.65245
-553,-363,-2.1759,1.79102,0.00107387,0.00239977,-0.00186514,0.00371628,-0.000242638,-0.956155,0.00256223,0.0131535,671,1387,-2.17591,-1.79103
-546,-363,-2.15948,1.8844,0.000395256,0.000936158,-0.00167952,0.00236686,-0.00103545,-0.865227,0.00201384,0.0129101,678,1387,-2.1595,-1.88436
-539,-363,-2.12109,1.99792,-0.000764924,-0.000911291,-0.00177132,0.000934728,-0.00261094,-0.764752,0.00212198,0.0142526,685,1387,-2.12111,-1.99789
-532,-363,-2.13123,2.14368,-0.00117508,-0.00206363,-0.00197654,0.000406504,-0.00364522,-0.674849,0.00257636,0.0120867,692,1387,-2.13124,-2.14369
-525,-363,-2.1355,2.26758,-0.0015908,-0.00328067,-0.00256315,0.000263092,-0.00513456,-0.626183,0.00351402,0.0100428,699,1387,-2.13547,-2.26755
-518,-363,-2.13336,2.3811,-0.00100274,-0.004225,-0.00325873,0.00102138,-0.00624912,-0.555817,0.00454496,0.00894032,706,1387,-2.13334,-2.38109
-511,-363,-2.12659,2.51685,0.000562377,-0.00575495,-0.00388833,0.00241333,-0.0076059,-0.444287,0.00603801,0.0133359,713,1387,-2.12657,-2.5169
-504,-363,-2.08508,2.65771,0.00304993,-0.0023426,-0.00684322,0.00770891,-0.00700157,-0.597734,0.00849637,0.0231568,720,1387,-2.08511,-2.65774
-497,-363,-2.08893,2.5813,0.00543954,0.0049504,-0.0113305,0.0165281,-0.0061382,-0.774607,0.0135369,0.0377446,727,1387,-2.08891,-2.58132
-490,-363,-2.2168,2.5614,0.00835456,0.0190658,-0.019636,0.0340635,-0.00664309,-0.918532,0.0252167,0.0429594,734,1387,-2.21683,-2.56142
-483,-363,-2.33746,2.47815,0.0121455,0.0371243,-0.0303316,0.0574372,-0.00816743,-0.9807,0.0412841,0.0428636,741,1387,-2.33746,-2.47817
-476,-363,-2.39001,2.36047,0.016656,0.0588512,-0.0424001,0.0851127,-0.00960544,-1.01625,0.0601996,0.0454168,748,1387,-2.39002,-2.36044
-469,-363,-2.34998,2.31018,0,0,0,0,0,0,0,-1,755,1387,-2.34996,-2.31021
-462,-363,-4.8324,4.3208,0,0,0,0,0,0,0,-1,762,1387,-4.83242,-4.32082
-455,-363,-4.6908,4.02527,0.0263748,0.16159,-0.0998829,0.214595,-0.0266302,-1.08291,0.152716,0.0452103,769,1387,-4.69078,-4.02532
-448,-363,-4.85638,3.06812,0.0254406,0.209708,-0.128329,0.275552,-0.0404033,-1.09673,0.198544,0.0482476,776,1387,-4.85639,-3.06809
-441,-363,-4.8847,1.57507,0.0204735,0.265989,-0.16308,0.34735,-0.0608877,-1.10803,0.254304,0.0463534,783,1387,-4.88471,-1.57501
-434,-363,-5.03949,-0.098877,0.0105832,0.331211,-0.204671,0.430879,-0.0890855,-1.11763,0.321094,0.0467973,790,1387,-5.03952,0.0988918
-427,-363,0,0,0,0,0,0,0,0,0,-1,797,1387,0,0
-420,-363,0,0,0,0,0,0,0,0,0,-1,804,1387,0,0
-413,-363,0,0,0,0,0,0,0,0,0,-1,811,1387,0,0
-406,-363,0,0,0,0,0,0,0,0,0,-1,818,1387,0,0
-399,-363,0,0,0,0,0,0,0,0,0,-1,825,1387,0,0
-392,-363,0,0,0,0,0,0,0,0,0,-1,832,1387,0,0
-385,-363,0,0,0,0,0,0,0,0,0,-1,839,1387,0,0
-378,-363,0,0,0,0,0,0,0,0,0,-1,846,1387,0,0
-371,-363,0,0,0,0,0,0,0,0,0,-1,853,1387,0,0
-364,-363,0,0,0,0,0,0,0,0,0,-1,860,1387,0,0
-357,-363,0,0,0,0,0,0,0,0,0,-1,867,1387,0,0
-350,-363,0,0,0,0,0,0,0,0,0,-1,874,1387,0,0
-343,-363,0,0,0,0,0,0,0,0,0,-1,881,1387,0,0
-336,-363,0,0,0,0,0,0,0,0,0,-1,888,1387,0,0
-329,-363,0,0,0,0,0,0,0,0,0,-1,895,1387,0,0
-322,-363,0,0,0,0,0,0,0,0,0,-1,902,1387,0,0
-315,-363,0,0,0,0,0,0,0,0,0,-1,909,1387,0,0
-308,-363,0,0,0,0,0,0,0,0,0,-1,916,1387,0,0
-301,-363,0,0,0,0,0,0,0,0,0,-1,923,1387,0,0
-294,-363,0,0,0,0,0,0,0,0,0,-1,930,1387,0,0
-287,-363,0,0,0,0,0,0,0,0,0,-1,937,1387,0,0
-280,-363,0,0,0,0,0,0,0,0,0,-1,944,1387,0,0
-273,-363,0,0,0,0,0,0,0,0,0,-1,951,1387,0,0
-266,-363,0,0,0,0,0,0,0,0,0,-1,958,1387,0,0
-259,-363,0,0,0,0,0,0,0,0,0,-1,965,1387,0,0
-252,-363,0,0,0,0,0,0,0,0,0,-1,972,1387,0,0
-245,-363,0,0,0,0,0,0,0,0,0,-1,979,1387,0,0
-238,-363,0,0,0,0,0,0,0,0,0,-1,986,1387,0,0
-231,-363,0,0,0,0,0,0,0,0,0,-1,993,1387,0,0
-224,-363,0,0,0,0,0,0,0,0,0,-1,1000,1387,0,0
-217,-363,0,0,0,0,0,0,0,0,0,-1,1007,1387,0,0
-210,-363,0,0,0,0,0,0,0,0,0,-1,1014,1387,0,0
-203,-363,0,0,0,0,0,0,0,0,0,-1,1021,1387,0,0
-196,-363,0,0,0,0,0,0,0,0,0,-1,1028,1387,0,0
-189,-363,0,0,0,0,0,0,0,0,0,-1,1035,1387,0,0
-182,-363,0,0,0,0,0,0,0,0,0,-1,1042,1387,0,0
-175,-363,0,0,0,0,0,0,0,0,0,-1,1049,1387,0,0
-168,-363,0,0,0,0,0,0,0,0,0,-1,1056,1387,0,0
-161,-363,0,0,0,0,0,0,0,0,0,-1,1063,1387,0,0
-154,-363,0,0,0,0,0,0,0,0,0,-1,1070,1387,0,0
-147,-363,0,0,0,0,0,0,0,0,0,-1,1077,1387,0,0
-140,-363,0,0,0,0,0,0,0,0,0,-1,1084,1387,0,0
-133,-363,0,0,0,0,0,0,0,0,0,-1,1091,1387,0,0
-126,-363,0,0,0,0,0,0,0,0,0,-1,1098,1387,0,0
-119,-363,0,0,0,0,0,0,0,0,0,-1,1105,1387,0,0
-112,-363,0,0,0,0,0,0,0,0,0,-1,1112,1387,0,0
-105,-363,0,0,0,0,0,0,0,0,0,-1,1119,1387,0,0
-98,-363,0,0,0,0,0,0,0,0,0,-1,1126,1387,0,0
-91,-363,0,0,0,0,0,0,0,0,0,-1,1133,1387,0,0
-84,-363,0,0,0,0,0,0,0,0,0,-1,1140,1387,0,0
-77,-363,0,0,0,0,0,0,0,0,0,-1,1147,1387,0,0
-70,-363,0,0,0,0,0,0,0,0,0,-1,1154,1387,0,0
-63,-363,0,0,0,0,0,0,0,0,0,-1,1161,1387,0,0
-56,-363,0,0,0,0,0,0,0,0,0,-1,1168,1387,0,0
-49,-363,0,0,0,0,0,0,0,0,0,-1,1175,1387,0,0
-42,-363,0,0,0,0,0,0,0,0,0,-1,1182,1387,0,0
-35,-363,0,0,0,0,0,0,0,0,0,-1,1189,1387,0,0
-28,-363,0,0,0,0,0,0,0,0,0,-1,1196,1387,0,0
-21,-363,0,0,0,0,0,0,0,0,0,-1,1203,1387,0,0
-14,-363,0,0,0,0,0,0,0,0,0,-1,1210,1387,0,0
-7,-363,0,0,0,0,0,0,0,0,0,-1,1217,1387,0,0
0,-363,0,0,0,0,0,0,0,0,0,-1,1224,1387,0,0
7,-363,0,0,0,0,0,0,0,0,0,-1,1231,1387,0,0
14,-363,0,0,0,0,0,0,0,0,0,-1,1238,1387,0,0
21,-363,0,0,0,0,0,0,0,0,0,-1,1245,1387,0,0
28,-363,0,0,0,0,0,0,0,0,0,-1,1252,1387,0,0
35,-363,0,0,0,0,0,0,0,0,0,-1,1259,1387,0,0
42,-363,0,0,0,0,0,0,0,0,0,-1,1266,1387,0,0
49,-363,0,0,0,0,0,0,0,0,0,-1,1273,1387,0,0
56,-363,0,0,0,0,0,0,0,0,0,-1,1280,1387,0,0
63,-363,0,0,0,0,0,0,0,0,0,-1,1287,1387,0,0
70,-363,0,0,0,0,0,0,0,0,0,-1,1294,1387,0,0
77,-363,0,0,0,0,0,0,0,0,0,-1,1301,1387,0,0
84,-363,0,0,0,0,0,0,0,0,0,-1,1308,1387,0,0
91,-363,0,0,0,0,0,0,0,0,0,-1,1315,1387,0,0
98,-363,0,0,0,0,0,0,0,0,0,-1,1322,1387,0,0
105,-363,0,0,0,0,0,0,0,0,0,-1,1329,1387,0,0
112,-363,0,0,0,0,0,0,0,0,0,-1,1336,1387,0,0
119,-363,0,0,0,0,0,0,0,0,0,-1,1343,1387,0,0
126,-363,0,0,0,0,0,0,0,0,0,-1,1350,1387,0,0
133,-363,0,0,0,0,0,0,0,0,0,-1,1357,1387,0,0
140,-363,0,0,0,0,0,0,0,0,0,-1,1364,1387,0,0
147,-363,0,0,0,0,0,0,0,0,0,-1,1371,1387,0,0
154,-363,0,0,0,0,0,0,0,0,0,-1,1378,1387,0,0
161,-363,0,0,0,0,0,0,0,0,0,-1,1385,1387,0,0
168,-363,0,0,0,0,0,0,0,0,0,-1,1392,1387,0,0
175,-363,0,0,0,0,0,0,0,0,0,-1,1399,1387,0,0
182,-363,0,0,0,0,0,0,0,0,0,-1,1406,1387,0,0
189,-363,0,0,0,0,0,0,0,0,0,-1,1413,1387,0,0
196,-363,0,0,0,0,0,0,0,0,0,-1,1420,1387,0,0
203,-363,0,0,0,0,0,0,0,0,0,-1,1427,1387,0,0
210,-363,0,0,0,0,0,0,0,0,0,-1,1434,1387,0,0
217,-363,0,0,0,0,0,0,0,0,0,-1,1441,1387,0,0
224,-363,0,0,0,0,0,0,0,0,0,-1,1448,1387,0,0
231,-363,0,0,0,0,0,0,0,0,0,-1,1455,1387,0,0
238,-363,0,0,0,0,0,0,0,0,0,-1,1462,1387,0,0
245,-363,0,0,0,0,0,0,0,0,0,-1,1469,1387,0,0
252,-363,0,0,0,0,0,0,0,0,0,-1,1476,1387,0,0
259,-363,0,0,0,0,0,0,0,0,0,-1,1483,1387,0,0
266,-363,0,0,0,0,0,0,0,0,0,-1,1490,1387,0,0
273,-363,0,0,0,0,0,0,0,0,0,-1,1497,1387,0,0
280,-363,0,0,0,0,0,0,0,0,0,-1,1504,1387,0,0
287,-363,0,0,0,0,0,0,0,0,0,-1,1511,1387,0,0
294,-363,0,0,0,0,0,0,0,0,0,-1,1518,1387,0,0
301,-363,0,0,0,0,0,0,0,0,0,-1,1525,1387,0,0
308,-363,0,0,0,0,0,0,0,0,0,-1,1532,1387,0,0
315,-363,0,0,0,0,0,0,0,0,0,-1,1539,1387,0,0
322,-363,0,0,0,0,0,0,0,0,0,-1,1546,1387,0,0
329,-363,0,0,0,0,0,0,0,0,0,-1,1553,1387,0,0
336,-363,0,0,0,0,0,0,0,0,0,-1,1560,1387,0,0
343,-363,0,0,0,0,0,0,0,0,0,-1,1567,1387,0,0
350,-363,0,0,0,0,0,0,0,0,0,-1,1574,1387,0,0
357,-363,0,0,0,0,0,0,0,0,0,-1,1581,1387,0,0
364,-363,0,0,0,0,0,0,0,0,0,-1,1588,1387,0,0
371,-363,0,0,0,0,0,0,0,0,0,-1,1595,1387,0,0
378,-363,0,0,0,0,0,0,0,0,0,-1,1602,1387,0,0
385,-363,0,0,0,0,0,0,0,0,0,-1,1609,1387,0,0
392,-363,0,0,0,0,0,0,0,0,0,-1,1616,1387,0,0
399,-363,0,0,0,0,0,0,0,0,0,-1,1623,1387,0,0
406,-363,0,0,0,0,0,0,0,0,0,-1,1630,1387,0,0
413,-363,0,0,0,0,0,0,0,0,0,-1,1637,1387,0,0
420,-363,0,0,0,0,0,0,0,0,0,-1,1644,1387,0,0
427,-363,0,0,0,0,0,0,0,0,0,-1,1651,1387,0,0
434,-363,0,0,0,0,0,0,0,0,0,-1,1658,1387,0,0
441,-363,0,0,0,0,0,0,0,0,0,-1,1665,1387,0,0
448,-363,0,0,0,0,0,0,0,0,0,-1,1672,1387,0,0
455,-363,0,0,0,0,0,0,0,0,0,-1,1679,1387,0,0
462,-363,0,0,0,0,0,0,0,0,0,-1,1686,1387,0,0
469,-363,0,0,0,0,0,0,0,0,0,-1,1693,1387,0,0
476,-363,0,0,0,0,0,0,0,0,0,-1,1700,1387,0,0
483,-363,0,0,0,0,0,0,0,0,0,-1,1707,1387,0,0
490,-363,0,0,0,0,0,0,0,0,0,-1,1714,1387,0,0
497,-363,0,0,0,0,0,0,0,0,0,-1,1721,1387,0,0
504,-363,0,0,0,0,0,0,0,0,0,-1,1728,1387,0,0
511,-363,0,0,0,0,0,0,0,0,0,-1,1735,1387,0,0
518,-363,0,0,0,0,0,0,0,0,0,-1,1742,1387,0,0
525,-363,0,0,0,0,0,0,0,0,0,-1,1749,1387,0,0
532,-363,0,0,0,0,0,0,0,0,0,-1,1756,1387,0,0
539,-363,0,0,0,0,0,0,0,0,0,-1,1763,1387,0,0
546,-363,0,0,0,0,0,0,0,0,0,-1,1770,1387,0,0
553,-363,6.97498,3.65332,0,0,0,0,0,0,0,-1,1777,1387,6.97495,-3.65337
560,-363,8.27246,3.22314,0,0,0,0,0,0,0,-1,1784,1387,8.27242,-3.22312
567,-363,9.84692,2.46863,0,0,0,0,0,0,0,-1,1791,1387,9.84689,-2.46862
574,-363,10.5508,2.77344,0,0,0,0,0,0,0,-1,1798,1387,10.5508,-2.77345
581,-363,9.84143,2.62561,0,0,0,0,0,0,0,-1,1805,1387,9.84142,-2.62563
588,-363,9.54565,2.73425,0,0,0,0,0,0,0,-1,1812,1387,9.54559,-2.73426
595,-363,9.35999,3.78101,0,0,0,0,0,0,0,-1,1819,1387,9.36003,-3.78106
602,-363,9.18347,3.64722,-0.0256657,-0.0133557,0.0116773,-0.00631056,-0.0327109,1.02794,0.0200377,0.0457866,1826,1387,9.18353,-3.6472
609,-363,8.86035,3.34143,-0.0247549,-0.0127693,0.00833007,-0.00850032,-0.0290238,1.09722,0.0172295,0.041828,1833,1387,8.86035,-3.34143
616,-363,8.72473,3.13416,-0.0217437,-0.0104072,0.00577982,-0.0079801,-0.0241709,1.17322,0.0142209,0.0472174,1840,1387,8.72473,-3.13415
623,-363,8.60144,3.26672,-0.0180309,-0.00819409,0.00406537,-0.00673143,-0.0194935,1.22543,0.0114327,0.0454848,1847,1387,8.60143,-3.26674
630,-363,8.55896,3.41077,-0.0143151,-0.00624975,0.00303038,-0.00523805,-0.0153268,1.24858,0.00899542,0.0293486,1854,1387,8.55898,-3.41073
637,-363,8.43359,3.56152,-0.0111251,-0.0047598,0.00245478,-0.0039231,-0.0119618,1.2423,0.00704111,0.0186962,1861,1387,8.43365,-3.56148
644,-363,8.51855,3.54565,-0.00848504,-0.00329176,0.00226917,-0.00243997,-0.00933683,1.2117,0.00559159,0.0116161,1868,1387,8.51853,-3.5457
651,-363,8.53552,3.39404,-0.0061853,-0.00247965,0.00210267,-0.00152995,-0.00713501,1.14656,0.00433758,0.0106442,1875,1387,8.53547,-3.39399
658,-363,8.51318,3.27368,-0.00382824,-0.00210853,0.00210733,-0.000692385,-0.00524438,0.979103,0.00328984,0.0106952,1882,1387,8.51322,-3.27365
665,-363,8.48621,3.21594,-0.00156087,-0.00197267,0.00159106,-0.000162447,-0.00337109,0.72105,0.00219525,0.0102229,1889,1387,8.48625,-3.21588
672,-363,8.48975,3.1178,0.000621043,-0.00199833,0.0010902,0.00101542,-0.0023927,0.347098,0.00202053,0.0116985,1896,1387,8.4898,-3.11775
679,-363,8.48962,2.98169,0.00330919,-0.00215377,0.0010521,0.0035048,-0.00234939,0.183831,0.00340179,0.0139195,1903,1387,8.48968,-2.98169
686,-363,8.48572,2.89636,0.00653933,-0.00320774,0.000948503,0.00663077,-0.00329918,0.0961102,0.00583963,0.0148807,1910,1387,8.48568,-2.89633
693,-363,8.50525,2.79871,0.00897834,-0.0046655,0.00130062,0.00910122,-0.00478838,0.0941961,0.008147,0.0134989,1917,1387,8.50519,-2.79867
700,-363,8.55029,2.67004,0.0111178,-0.00716419,0.00216396,0.0113704,-0.00741684,0.116226,0.0109266,0.0156279,1924,1387,8.55025,-2.6701
707,-363,8.51123,2.50537,0.0145108,-0.0112973,0.00310359,0.0148788,-0.0116653,0.118015,0.0153626,0.0258685,1931,1387,8.51125,-2.50534
714,-363,8.37976,2.35828,0.0174016,-0.016029,0.00457568,0.0180166,-0.016644,0.133598,0.0200165,0.0412386,1938,1387,8.37974,-2.35822
721,-363,8.30713,2.18323,0,0,0,0,0,0,0,-1,1945,1387,8.30717,-2.18322
728,-363,10.8525,1.79797,0,0,0,0,0,0,0,-1,1952,1387,10.8526,-1.79803
735,-363,11.0974,1.16296,0,0,0,0,0,0,0,-1,1959,1387,11.0974,-1.16302
742,-363,8.21667,4.96802,0,0,0,0,0,0,0,-1,1966,1387,8.2167,-4.96807
749,-363,0,0,0,0,0,0,0,0,0,-1,1973,1387,0,0
756,-363,0,0,0,0,0,0,0,0,0,-1,1980,1387,0,0
763,-363,0,0,0,0,0,0,0,0,0,-1,1987,1387,0,0
770,-363,0,0,0,0,0,0,0,0,0,-1,1994,1387,0,0
777,-363,0,0,0,0,0,0,0,0,0,-1,2001,1387,0,0
784,-363,0,0,0,0,0,0,0,0,0,-1,2008,1387,0,0
791,-363,0,0,0,0,0,0,0,0,0,-1,2015,1387,0,0
798,-363,0,0,0,0,0,0,0,0,0,-1,2022,1387,0,0
805,-363,0,0,0,0,0,0,0,0,0,-1,2029,1387,0,0
812,-363,0,0,0,0,0,0,0,0,0,-1,2036,1387,0,0
-700,-370,0,0,0,0,0,0,0,0,0,-1,524,1394,0,0
-693,-370,0,0,0,0,0,0,0,0,0,-1,531,1394,0,0
-686,-370,0,0,0,0,0,0,0,0,0,-1,538,1394,0,0
-679,-370,0,0,0,0,0,0,0,0,0,-1,545,1394,0,0
-672,-370,0,0,0,0,0,0,0,0,0,-1,552,1394,0,0
-665,-370,0,0,0,0,0,0,0,0,0,-1,559,1394,0,0
-658,-370,0,0,0,0,0,0,0,0,0,-1,566,1394,0,0
-651,-370,0,0,0,0,0,0,0,0,0,-1,573,1394,0,0
-644,-370,0,0,0,0,0,0,0,0,0,-1,580,1394,0,0
-637,-370,0,0,0,0,0,0,0,0,0,-1,587,1394,0,0
-630,-370,0,0,0,0,0,0,0,0,0,-1,594,1394,0,0
-623,-370,-3.19244,-2.09131,0,0,0,0,0,0,0,-1,601,1394,-3.19245,2.09125
-616,-370,-2.57788,-1.04871,0,0,0,0,0,0,0,-1,608,1394,-2.5779,1.04871
-609,-370,-1.30579,2.1969,0,0,0,0,0,0,0,-1,615,1394,-1.30579,-2.19687
-602,-370,-0.932983,1.82971,0,0,0,0,0,0,0,-1,622,1394,-0.932969,-1.82972
-595,-370,-1.07794,1.79736,0,0,0,0,0,0,0,-1,629,1394,-1.07793,-1.79734
-588,-370,-1.29413,1.62415,0,0,0,0,0,0,0,-1,636,1394,-1.29416,-1.62413
-581,-370,-1.92725,1.45166,0,0,0,0,0,0,0,-1,643,1394,-1.92726,-1.45167
-574,-370,-1.95892,1.51001,0.0116944,0.0142414,-0.0057331,0.0188407,0.00709506,-0.894691,0.0109876,0.0370873,650,1394,-1.95892,-1.51001
-567,-370,-1.99988,1.52234,0.00873717,0.010056,-0.00335797,0.0128187,0.00597447,-0.88235,0.00740654,0.0208089,657,1394,-1.99986,-1.52238
-560,-370,-2.03833,1.62329,0.00551994,0.00647599,-0.00229711,0.00834428,0.00365165,-0.887983,0.00483005,0.0140426,664,1394,-2.03832,-1.62324
-553,-370,-2.03723,1.76575,0.00311145,0.00380789,-0.00166448,0.00516018,0.00175915,-0.888514,0.00302908,0.0115144,671,1394,-2.03726,-1.7657
-546,-370,-2.0188,1.88147,0.00160353,0.00202816,-0.00137653,0.00320866,0.000423035,-0.861915,0.00201296,0.0145702,678,1394,-2.01882,-1.88144
-539,-370,-1.98883,2.03687,-0.000307475,-0.000157732,-0.00136861,0.00113806,-0.00160326,-0.812724,0.00159028,0.0172432,685,1394,-1.98884,-2.03686
-532,-370,-2.01379,2.17566,-0.00132971,-0.00136671,-0.00152278,0.000174685,-0.00287111,-0.779325,0.00197488,0.0190481,692,1394,-2.01382,-2.17571
-525,-370,-2.01117,2.25903,-0.00201833,-0.00238304,-0.00195963,-0.000232592,-0.00416878,-0.739004,0.00270499,0.0122196,699,1394,-2.01115,-2.25901
-518,-370,-2.02954,2.36255,-0.00189326,-0.00325101,-0.0026906,0.000202783,-0.00534706,-0.66182,0.00363419,0.00927478,706,1394,-2.02951,-2.36256
-511,-370,-2.03271,2.49988,-0.00115631,-0.00465159,-0.00338838,0.000908581,-0.00671648,-0.547304,0.00480921,0.0130436,713,1394,-2.0327,-2.49987
-504,-370,-2.02136,2.65149,0.000158752,-0.00176835,-0.00610039,0.00537122,-0.00698082,-0.707071,0.00715161,0.0186274,720,1394,-2.02136,-2.65147
-497,-370,-1.92761,2.76563,0.00112256,0.00427922,-0.0102638,0.0130853,-0.00768353,-0.861689,0.0121253,0.0305666,727,1394,-1.92762,-2.76562
-490,-370,-2.20966,2.73682,0.00241556,0.0162961,-0.0179068,0.0285605,-0.00984884,-0.970275,0.0230361,0.0385522,734,1394,-2.20968,-2.73685
-483,-370,-2.54913,2.77344,0.00443954,0.0321455,-0.0279078,0.0494494,-0.0128643,-1.01577,0.0379875,0.0446692,741,1394,-2.54913,-2.77339
-476,-370,-2.26538,2.26514,0.00697928,0.0514042,-0.0392815,0.0743185,-0.0159351,-1.04272,0.0556235,0.0452726,748,1394,-2.26541,-2.26519
-469,-370,-3.70117,3.08301,0,0,0,0,0,0,0,-1,755,1394,-3.70118,-3.08304
-462,-370,-3.7453,1.66187,0,0,0,0,0,0,0,-1,762,1394,-3.74529,-1.66181
-455,-370,-3.50079,1.76855,0,0,0,0,0,0,0,-1,769,1394,-3.5008,-1.7686
-448,-370,-3.70166,0.371338,0,0,0,0,0,0,0,-1,776,1394,-3.70167,-0.37133
-441,-370,-3.43658,-0.604004,0.00638037,0.230694,-0.147618,0.30393,-0.066855,-1.11026,0.228193,0.0438208,783,1394,-3.43656,0.603969
-434,-370,-3.66516,-1.88062,-0.00225278,0.283955,-0.182974,0.37314,-0.0914376,-1.11726,0.284186,0.0467851,790,1394,-3.66517,1.88066
-427,-370,0,0,0,0,0,0,0,0,0,-1,797,1394,0,0
-420,-370,0,0,0,0,0,0,0,0,0,-1,804,1394,0,0
-413,-370,0,0,0,0,0,0,0,0,0,-1,811,1394,0,0
-406,-370,0,0,0,0,0,0,0,0,0,-1,818,1394,0,0
-399,-370,0,0,0,0,0,0,0,0,0,-1,825,1394,0,0
-392,-370,0,0,0,0,0,0,0,0,0,-1,832,1394,0,0
-385,-370,0,0,0,0,0,0,0,0,0,-1,839,1394,0,0
-378,-370,0,0,0,0,0,0,0,0,0,-1,846,1394,0,0
-371,-370,0,0,0,0,0,0,0,0,0,-1,853,1394,0,0
-364,-370,0,0,0,0,0,0,0,0,0,-1,860,1394,0,0
-357,-370,0,0,0,0,0,0,0,0,0,-1,867,1394,0,0
-350,-370,0,0,0,0,0,0,0,0,0,-1,874,1394,0,0
-343,-370,0,0,0,0,0,0,0,0,0,-1,881,1394,0,0
-336,-370,0,0,0,0,0,0,0,0,0,-1,888,1394,0,0
-329,-370,0,0,0,0,0,0,0,0,0,-1,895,1394,0,0
-322,-370,0,0,0,0,0,0,0,0,0,-1,902,1394,0,0
-315,-370,0,0,0,0,0,0,0,0,0,-1,909,1394,0,0
-308,-370,0,0,0,0,0,0,0,0,0,-1,916,1394,0,0
-301,-370,0,0,0,0,0,0,0,0,0,-1,923,1394,0,0
-294,-370,0,0,0,0,0,0,0,0,0,-1,930,1394,0,0
-287,-370,0,0,0,0,0,0,0,0,0,-1,937,1394,0,0
-280,-370,0,0,0,0,0,0,0,0,0,-1,944,1394,0,0
-273,-370,0,0,0,0,0,0,0,0,0,-1,951,1394,0,0
-266,-370,0,0,0,0,0,0,0,0,0,-1,958,1394,0,0
-259,-370,0,0,0,0,0,0,0,0,0,-1,965,1394,0,0
-252,-370,0,0,0,0,0,0,0,0,0,-1,972,1394,0,0
-245,-370,0,0,0,0,0,0,0,0,0,-1,979,1394,0,0
-238,-370,0,0,0,0,0,0,0,0,0,-1,986,1394,0,0
-231,-370,0,0,0,0,0,0,0,0,0,-1,993,1394,0,0
-224,-370,0,0,0,0,0,0,0,0,0,-1,1000,1394,0,0
-217,-370,0,0,0,0,0,0,0,0,0,-1,1007,1394,0,0
-210,-370,0,0,0,0,0,0,0,0,0,-1,1014,1394,0,0
-203,-370,0,0,0,0,0,0,0,0,0,-1,1021,1394,0,0
-196,-370,0,0,0,0,0,0,0,0,0,-1,1028,1394,0,0
-189,-370,0,0,0,0,0,0,0,0,0,-1,1035,1394,0,0
-182,-370,0,0,0,0,0,0,0,0,0,-1,1042,1394,0,0
-175,-370,0,0,0,0,0,0,0,0,0,-1,1049,1394,0,0
-168,-370,0,0,0,0,0,0,0,0,0,-1,1056,1394,0,0
-161,-370,0,0,0,0,0,0,0,0,0,-1,1063,1394,0,0
-154,-370,0,0,0,0,0,0,0,0,0,-1,1070,1394,0,0
-147,-370,0,0,0,0,0,0,0,0,0,-1,1077,1394,0,0
-140,-370,0,0,0,0,0,0,0,0,0,-1,1084,1394,0,0
-133,-370,0,0,0,0,0,0,0,0,0,-1,1091,1394,0,0
-126,-370,0,0,0,0,0,0,0,0,0,-1,1098,1394,0,0
-119,-370,0,0,0,0,0,0,0,0,0,-1,1105,1394,0,0
-112,-370,0,0,0,0,0,0,0,0,0,-1,1112,1394,0,0
-105,-370,0,0,0,0,0,0,0,0,0,-1,1119,1394,0,0
-98,-370,0,0,0,0,0,0,0,0,0,-1,1126,1394,0,0
-91,-370,0,0,0,0,0,0,0,0,0,-1,1133,1394,0,0
-84,-370,0,0,0,0,0,0,0,0,0,-1,1140,1394,0,0
-77,-370,0,0,0,0,0,0,0,0,0,-1,1147,1394,0,0
-70,-370,0,0,0,0,0,0,0,0,0,-1,1154,1394,0,0
-63,-370,0,0,0,0,0,0,0,0,0,-1,1161,1394,0,0
-56,-370,0,0,0,0,0,0,0,0,0,-1,1168,1394,0,0
-49,-370,0,0,0,0,0,0,0,0,0,-1,1175,1394,0,0
-42,-370,0,0,0,0,0,0,0,0,0,-1,1182,1394,0,0
-35,-370,0,0,0,0,0,0,0,0,0,-1,1189,1394,0,0
-28,-370,0,0,0,0,0,0,0,0,0,-1,1196,1394,0,0
-21,-370,0,0,0,0,0,0,0,0,0,-1,1203,1394,0,0
-14,-370,0,0,0,0,0,0,0,0,0,-1,1210,1394,0,0
-7,-370,0,0,0,0,0,0,0,0,0,-1,1217,1394,0,0
0,-370,0,0,0,0,0,0,0,0,0,-1,1224,1394,0,0
7,-370,0,0,0,0,0,0,0,0,0,-1,1231,1394,0,0
14,-370,0,0,0,0,0,0,0,0,0,-1,1238,1394,0,0
21,-370,0,0,0,0,0,0,0,0,0,-1,1245,1394,0,0
28,-370,0,0,0,0,0,0,0,0,0,-1,1252,1394,0,0
35,-370,0,0,0,0,0,0,0,0,0,-1,1259,1394,0,0
42,-370,0,0,0,0,0,0,0,0,0,-1,1266,1394,0,0
49,-370,0,0,0,0,0,0,0,0,0,-1,1273,1394,0,0
56,-370,0,0,0,0,0,0,0,0,0,-1,1280,1394,0,0
63,-370,0,0,0,0,0,0,0,0,0,-1,1287,1394,0,0
70,-370,0,0,0,0,0,0,0,0,0,-1,1294,1394,0,0
77,-370,0,0,0,0,0,0,0,0,0,-1,1301,1394,0,0
84,-370,0,0,0,0,0,0,0,0,0,-1,1308,1394,0,0
91,-370,0,0,0,0,0,0,0,0,0,-1,1315,1394,0,0
98,-370,0,0,0,0,0,0,0,0,0,-1,1322,1394,0,0
105,-370,0,0,0,0,0,0,0,0,0,-1,1329,1394,0,0
112,-370,0,0,0,0,0,0,0,0,0,-1,1336,1394,0,0
119,-370,0,0,0,0,0,0,0,0,0,-1,1343,1394,0,0
126,-370,0,0,0,0,0,0,0,0,0,-1,1350,1394,0,0
133,-370,0,0,0,0,0,0,0,0,0,-1,1357,1394,0,0
140,-370,0,0,0,0,0,0,0,0,0,-1,1364,1394,0,0
147,-370,0,0,0,0,0,0,0,0,0,-1,1371,1394,0,0
154,-370,0,0,0,0,0,0,0,0,0,-1,1378,1394,0,0
161,-370,0,0,0,0,0,0,0,0,0,-1,1385,1394,0,0
168,-370,0,0,0,0,0,0,0,0,0,-1,1392,1394,0,0
175,-370,0,0,0,0,0,0,0,0,0,-1,1399,1394,0,0
182,-370,0,0,0,0,0,0,0,0,0,-1,1406,1394,0,0
189,-370,0,0,0,0,0,0,0,0,0,-1,1413,1394,0,0
196,-370,0,0,0,0,0,0,0,0,0,-1,1420,1394,0,0
203,-370,0,0,0,0,0,0,0,0,0,-1,1427,1394,0,0
210,-370,0,0,0,0,0,0,0,0,0,-1,1434,1394,0,0
217,-370,0,0,0,0,0,0,0,0,0,-1,1441,1394,0,0
224,-370,0,0,0,0,0,0,0,0,0,-1,1448,1394,0,0
231,-370,0,0,0,0,0,0,0,0,0,-1,1455,1394,0,0
238,-370,0,0,0,0,0,0,0,0,0,-1,1462,1394,0,0
245,-370,0,0,0,0,0,0,0,0,0,-1,1469,1394,0,0
252,-370,0,0,0,0,0,0,0,0,0,-1,1476,1394,0,0
259,-370,0,0,0,0,0,0,0,0,0,-1,1483,1394,0,0
266,-370,0,0,0,0,0,0,0,0,0,-1,1490,1394,0,0
273,-370,0,0,0,0,0,0,0,0,0,-1,1497,1394,0,0
280,-370,0,0,0,0,0,0,0,0,0,-1,1504,1394,0,0
287,-370,0,0,0,0,0,0,0,0,0,-1,1511,1394,0,0
294,-370,0,0,0,0,0,0,0,0,0,-1,1518,1394,0,0
301,-370,0,0,0,0,0,0,0,0,0,-1,1525,1394,0,0
308,-370,0,0,0,0,0,0,0,0,0,-1,1532,1394,0,0
315,-370,0,0,0,0,0,0,0,0,0,-1,1539,1394,0,0
322,-370,0,0,0,0,0,0,0,0,0,-1,1546,1394,0,0
329,-370,0,0,0,0,0,0,0,0,0,-1,1553,1394,0,0
336,-370,0,0,0,0,0,0,0,0,0,-1,1560,1394,0,0
343,-370,0,0,0,0,0,0,0,0,0,-1,1567,1394,0,0
350,-370,0,0,0,0,0,0,0,0,0,-1,1574,1394,0,0
357,-370,0,0,0,0,0,0,0,0,0,-1,1581,1394,0,0
364,-370,0,0,0,0,0,0,0,0,0,-1,1588,1394,0,0
371,-370,0,0,0,0,0,0,0,0,0,-1,1595,1394,0,0
378,-370,0,0,0,0,0,0,0,0,0,-1,1602,1394,0,0
385,-370,0,0,0,0,0,0,0,0,0,-1,1609,1394,0,0
392,-370,0,0,0,0,0,0,0,0,0,-1,1616,1394,0,0
399,-370,0,0,0,0,0,0,0,0,0,-1,1623,1394,0,0
406,-370,0,0,0,0,0,0,0,0,0,-1,1630,1394,0,0
413,-370,0,0,0,0,0,0,0,0,0,-1,1637,1394,0,0
420,-370,0,0,0,0,0,0,0,0,0,-1,1644,1394,0,0
427,-370,0,0,0,0,0,0,0,0,0,-1,1651,1394,0,0
434,-370,0,0,0,0,0,0,0,0,0,-1,1658,1394,0,0
441,-370,0,0,0,0,0,0,0,0,0,-1,1665,1394,0,0
448,-370,0,0,0,0,0,0,0,0,0,-1,1672,1394,0,0
455,-370,0,0,0,0,0,0,0,0,0,-1,1679,1394,0,0
462,-370,0,0,0,0,0,0,0,0,0,-1,1686,1394,0,0
469,-370,0,0,0,0,0,0,0,0,0,-1,1693,1394,0,0
476,-370,0,0,0,0,0,0,0,0,0,-1,1700,1394,0,0
483,-370,0,0,0,0,0,0,0,0,0,-1,1707,1394,0,0
490,-370,0,0,0,0,0,0,0,0,0,-1,1714,1394,0,0
497,-370,0,0,0,0,0,0,0,0,0,-1,1721,1394,0,0
504,-370,0,0,0,0,0,0,0,0,0,-1,1728,1394,0,0
511,-370,0,0,0,0,0,0,0,0,0,-1,1735,1394,0,0
518,-370,0,0,0,0,0,0,0,0,0,-1,1742,1394,0,0
525,-370,0,0,0,0,0,0,0,0,0,-1,1749,1394,0,0
532,-370,0,0,0,0,0,0,0,0,0,-1,1756,1394,0,0
539,-370,0,0,0,0,0,0,0,0,0,-1,1763,1394,0,0
546,-370,12.9033,-0.567139,0,0,0,0,0,0,0,-1,1770,1394,12.9033,0.567139
553,-370,8.01465,3.37891,0,0,0,0,0,0,0,-1,1777,1394,8.01465,-3.37896
560,-370,8.3584,2.79895,0,0,0,0,0,0,0,-1,1784,1394,8.35834,-2.79897
567,-370,9.93872,2.10315,0,0,0,0,0,0,0,-1,1791,1394,9.9387,-2.10318
574,-370,11.5107,1.4574,0,0,0,0,0,0,0,-1,1798,1394,11.5107,-1.45741
581,-370,9.7113,2.31702,0,0,0,0,0,0,0,-1,1805,1394,9.71134,-2.31707
588,-370,9.19885,1.1311,0,0,0,0,0,0,0,-1,1812,1394,9.19888,-1.13114
595,-370,9.71533,3.67273,0,0,0,0,0,0,0,-1,1819,1394,9.71529,-3.67278
602,-370,9.4458,3.59424,-0.024375,-0.0114026,0.0193543,0.00252344,-0.038301,0.947081,0.0264154,0.0472985,1826,1394,9.44579,-3.59425
609,-370,8.67603,2.99939,-0.0237084,-0.0116465,0.0147722,-0.00172158,-0.0336333,0.979204,0.0218709,0.0476816,1833,1394,8.67609,-2.99938
616,-370,8.56079,3.06433,0,0,0,0,0,0,0,-1,1840,1394,8.56078,-3.06439
623,-370,8.20154,3.0249,0,0,0,0,0,0,0,-1,1847,1394,8.20156,-3.02486
630,-370,8.4209,3.65295,-0.0133869,-0.00589377,0.00558527,-0.00291486,-0.0163658,1.08082,0.0100804,0.0254485,1854,1394,8.42095,-3.65296
637,-370,8.33594,3.66626,-0.0102624,-0.00445679,0.00418083,-0.00226983,-0.0124493,1.08885,0.00765594,0.0167464,1861,1394,8.33592,-3.66627
644,-370,8.39636,3.52405,-0.0076999,-0.003056,0.00338021,-0.00127706,-0.00947883,1.08635,0.00593948,0.0115804,1868,1394,8.39636,-3.5241
651,-370,8.42188,3.39734,-0.00550213,-0.00236558,0.00276731,-0.000753051,-0.00711466,1.04319,0.00451308,0.0115322,1875,1394,8.42182,-3.39739
658,-370,8.41321,3.30811,-0.00326391,-0.00209862,0.00248949,-0.00012451,-0.00523803,0.90035,0.00345126,0.0114446,1882,1394,8.41323,-3.3081
665,-370,8.38745,3.21533,-0.0010507,-0.00206381,0.00169606,0.00021284,-0.00332735,0.640282,0.00229247,0.0123351,1889,1394,8.38749,-3.21528
672,-370,8.38684,3.10425,0.00126621,-0.0022911,0.0010238,0.00153982,-0.00256471,0.261144,0.00239425,0.0136513,1896,1394,8.38679,-3.1042
679,-370,8.3999,2.98999,0.00418772,-0.00283248,0.000874768,0.00429508,-0.00293984,0.12212,0.00420144,0.013891,1903,1394,8.39995,-2.99004
686,-370,8.40527,2.88928,0.00768303,-0.00423637,0.000666602,0.00772019,-0.00427353,0.0556943,0.00701924,0.013678,1910,1394,8.40522,-2.88924
693,-370,8.4032,2.77197,0.0105857,-0.00622452,0.000880793,0.0106317,-0.00627054,0.0522058,0.0098662,0.0112843,1917,1394,8.40323,-2.77192
700,-370,8.43774,2.65674,0.0133166,-0.00921856,0.00163798,0.0134351,-0.00933699,0.0721799,0.0132182,0.0136024,1924,1394,8.43777,-2.65679
707,-370,8.40527,2.57642,0.0175084,-0.0137709,0.00251669,0.0177096,-0.0139721,0.0797746,0.0183338,0.0243245,1931,1394,8.40533,-2.57647
714,-370,8.78149,2.50525,0.0213419,-0.0190163,0.00393266,0.0217216,-0.0193959,0.0962374,0.0237519,0.0430222,1938,1394,8.78145,-2.50531
721,-370,9.1748,2.41113,0,0,0,0,0,0,0,-1,1945,1394,9.17477,-2.41118
728,-370,11.1046,2.03943,0,0,0,0,0,0,0,-1,1952,1394,11.1046,-2.03939
735,-370,11.3257,1.52063,0,0,0,0,0,0,0,-1,1959,1394,11.3257,-1.5206
742,-370,11.6576,1.06567,0,0,0,0,0,0,0,-1,1966,1394,11.6576,-1.06567
749,-370,0,0,0,0,0,0,0,0,0,-1,1973,1394,0,0
756,-370,0,0,0,0,0,0,0,0,0,-1,1980,1394,0,0
763,-370,0,0,0,0,0,0,0,0,0,-1,1987,1394,0,0
770,-370,0,0,0,0,0,0,0,0,0,-1,1994,1394,0,0
777,-370,0,0,0,0,0,0,0,0,0,-1,2001,1394,0,0
784,-370,0,0,0,0,0,0,0,0,0,-1,2008,1394,0,0
791,-370,0,0,0,0,0,0,0,0,0,-1,2015,1394,0,0
798,-370,0,0,0,0,0,0,0,0,0,-1,2022,1394,0,0
805,-370,0,0,0,0,0,0,0,0,0,-1,2029,1394,0,0
812,-370,0,0,0,0,0,0,0,0,0,-1,2036,1394,0,0
-700,-377,0,0,0,0,0,0,0,0,0,-1,524,1401,0,0
-693,-377,0,0,0,0,0,0,0,0,0,-1,531,1401,0,0
-686,-377,0,0,0,0,0,0,0,0,0,-1,538,1401,0,0
-679,-377,0,0,0,0,0,0,0,0,0,-1,545,1401,0,0
-672,-377,0,0,0,0,0,0,0,0,0,-1,552,1401,0,0
-665,-377,0,0,0,0,0,0,0,0,0,-1,559,1401,0,0
-658,-377,0,0,0,0,0,0,0,0,0,-1,566,1401,0,0
-651,-377,0,0,0,0,0,0,0,0,0,-1,573,1401,0,0
-644,-377,0,0,0,0,0,0,0,0,0,-1,580,1401,0,0
-637,-377,0,0,0,0,0,0,0,0,0,-1,587,1401,0,0
-630,-377,0,0,0,0,0,0,0,0,0,-1,594,1401,0,0
-623,-377,0,0,0,0,0,0,0,0,0,-1,601,1401,0,0
-616,-377,-2.36285,-1.66052,0,0,0,0,0,0,0,-1,608,1401,-2.36286,1.66054
-609,-377,-1.44891,1.84839,0,0,0,0,0,0,0,-1,615,1401,-1.44893,-1.84843
-602,-377,-0.943054,1.46558,0,0,0,0,0,0,0,-1,622,1401,-0.94303,-1.46561
-595,-377,-0.437134,1.08276,0,0,0,0,0,0,0,-1,629,1401,-0.437131,-1.08278
-588,-377,-2.56696,0.540527,0,0,0,0,0,0,0,-1,636,1401,-2.56694,-0.540562
-581,-377,-1.89099,1.3999,0,0,0,0,0,0,0,-1,643,1401,-1.89097,-1.39995
-574,-377,-1.89081,1.46948,0.0201561,0.0185026,-0.0054576,0.0248492,0.0138095,-0.710229,0.0143764,0.0461781,650,1401,-1.89079,-1.46947
-567,-377,-1.86243,1.56104,0.014624,0.0129634,-0.00332629,0.0172221,0.0103654,-0.663085,0.0100117,0.0270052,657,1401,-1.86243,-1.56101
-560,-377,-1.92059,1.66956,0.00962272,0.00858527,-0.00225499,0.0114179,0.00679011,-0.672347,0.0066314,0.0170342,664,1401,-1.92058,-1.66958
-553,-377,-1.89545,1.75635,0.00591819,0.00536731,-0.00156706,0.00723384,0.00405166,-0.698402,0.0041865,0.0126913,671,1401,-1.89542,-1.75636
-546,-377,-1.91132,1.88977,0.00349516,0.00320417,-0.00118222,0.0045408,0.00215853,-0.724171,0.00262269,0.0158406,678,1401,-1.91135,-1.8898
-539,-377,-1.89648,2.02063,0.000810716,0.000621812,-0.00108228,0.00180266,-0.000370133,-0.741873,0.00134227,0.0192064,685,1401,-1.8965,-2.02067
-532,-377,-1.91211,2.15735,-0.000733163,-0.000659592,-0.00120395,0.000508134,-0.00190089,-0.80067,0.00146629,0.0199855,692,1401,-1.91213,-2.15741
-525,-377,-1.86517,2.26648,-0.00162746,-0.00148838,-0.0014977,-5.86109e-05,-0.00305724,-0.808597,0.0020189,0.0168147,699,1401,-1.86518,-2.26642
-518,-377,-1.90558,2.36218,-0.00187409,-0.00228905,-0.00225479,0.000182742,-0.00434588,-0.739518,0.00296005,0.0108956,706,1401,-1.90557,-2.36215
-511,-377,-1.90985,2.49023,-0.00183331,-0.00354122,-0.00299161,0.000423839,-0.00579836,-0.646371,0.00401432,0.0105611,713,1401,-1.90988,-2.49024
-504,-377,-1.91144,2.60986,-0.00148532,-0.00120825,-0.00541756,0.00407254,-0.00676611,-0.798181,0.00632178,0.0107007,720,1401,-1.91144,-2.60982
-497,-377,-1.82507,2.73486,-0.00174773,0.0035747,-0.00917749,0.010469,-0.00864206,-0.926514,0.0110506,0.0150905,727,1401,-1.8251,-2.73492
-490,-377,-1.87897,2.80249,-0.00191569,0.0133892,-0.0160033,0.0234755,-0.012002,-1.00842,0.020837,0.0348278,734,1401,-1.87898,-2.80252
-483,-377,-2.35016,2.96399,-0.00157388,0.026773,-0.0250715,0.0414,-0.0162009,-1.04266,0.0343003,0.0440645,741,1401,-2.35018,-2.96403
-476,-377,-2.74408,3.05139,-0.00098418,0.0432478,-0.0354984,0.0629558,-0.0206922,-1.06398,0.0503071,0.0439592,748,1401,-2.74408,-3.05136
-469,-377,-3.10925,2.95728,-0.000431484,0.0646651,-0.048695,0.0906881,-0.0264545,-1.08,0.0709406,0.0434969,755,1401,-3.10926,-2.95723
-462,-377,-3.341,2.90063,0,0,0,0,0,0,0,-1,762,1401,-3.34103,-2.90059
-455,-377,-2.3573,1.72791,0,0,0,0,0,0,0,-1,769,1401,-2.3573,-1.72791
-448,-377,-3.31354,1.65015,0,0,0,0,0,0,0,-1,776,1401,-3.31352,-1.65014
-441,-377,-2.09814,0.288086,0,0,0,0,0,0,0,-1,783,1401,-2.09814,-0.288126
-434,-377,-2.22241,-3.71777,0,0,0,0,0,0,0,-1,790,1401,-2.22238,3.71777
-427,-377,-2.79779,-0.10144,0,0,0,0,0,0,0,-1,797,1401,-2.79778,0.101434
-420,-377,0,0,0,0,0,0,0,0,0,-1,804,1401,0,0
-413,-377,0,0,0,0,0,0,0,0,0,-1,811,1401,0,0
-406,-377,0,0,0,0,0,0,0,0,0,-1,818,1401,0,0
-399,-377,0,0,0,0,0,0,0,0,0,-1,825,1401,0,0
-392,-377,0,0,0,0,0,0,0,0,0,-1,832,1401,0,0
-385,-377,0,0,0,0,0,0,0,0,0,-1,839,1401,0,0
-378,-377,0,0,0,0,0,0,0,0,0,-1,846,1401,0,0
-371,-377,0,0,0,0,0,0,0,0,0,-1,853,1401,0,0
-364,-377,0,0,0,0,0,0,0,0,0,-1,860,1401,0,0
-357,-377,0,0,0,0,0,0,0,0,0,-1,867,1401,0,0
-350,-377,0,0,0,0,0,0,0,0,0,-1,874,1401,0,0
-343,-377,0,0,0,0,0,0,0,0,0,-1,881,1401,0,0
-336,-377,0,0,0,0,0,0,0,0,0,-1,888,1401,0,0
-329,-377,0,0,0,0,0,0,0,0,0,-1,895,1401,0,0
-322,-377,0,0,0,0,0,0,0,0,0,-1,902,1401,0,0
-315,-377,0,0,0,0,0,0,0,0,0,-1,909,1401,0,0
-308,-377,0,0,0,0,0,0,0,0,0,-1,916,1401,0,0
-301,-377,0,0,0,0,0,0,0,0,0,-1,923,1401,0,0
-294,-377,0,0,0,0,0,0,0,0,0,-1,930,1401,0,0
-287,-377,0,0,0,0,0,0,0,0,0,-1,937,1401,0,0
-280,-377,0,0,0,0,0,0,0,0,0,-1,944,1401,0,0
-273,-377,0,0,0,0,0,0,0,0,0,-1,951,1401,0,0
-266,-377,0,0,0,0,0,0,0,0,0,-1,958,1401,0,0
-259,-377,0,0,0,0,0,0,0,0,0,-1,965,1401,0,0
-252,-377,0,0,0,0,0,0,0,0,0,-1,972,1401,0,0
-245,-377,0,0,0,0,0,0,0,0,0,-1,979,1401,0,0
-238,-377,0,0,0,0,0,0,0,0,0,-1,986,1401,0,0
-231,-377,0,0,0,0,0,0,0,0,0,-1,993,1401,0,0
-224,-377,0,0,0,0,0,0,0,0,0,-1,1000,1401,0,0
-217,-377,0,0,0,0,0,0,0,0,0,-1,1007,1401,0,0
-210,-377,0,0,0,0,0,0,0,0,0,-1,1014,1401,0,0
-203,-377,0,0,0,0,0,0,0,0,0,-1,1021,1401,0,0
-196,-377,0,0,0,0,0,0,0,0,0,-1,1028,1401,0,0
-189,-377,0,0,0,0,0,0,0,0,0,-1,1035,1401,0,0
-182,-377,0,0,0,0,0,0,0,0,0,-1,1042,1401,0,0
-175,-377,0,0,0,0,0,0,0,0,0,-1,1049,1401,0,0
-168,-377,0,0,0,0,0,0,0,0,0,-1,1056,1401,0,0
-161,-377,0,0,0,0,0,0,0,0,0,-1,1063,1401,0,0
-154,-377,0,0,0,0,0,0,0,0,0,-1,1070,1401,0,0
-147,-377,0,0,0,0,0,0,0,0,0,-1,1077,1401,0,0
-140,-377,0,0,0,0,0,0,0,0,0,-1,1084,1401,0,0
-133,-377,0,0,0,0,0,0,0,0,0,-1,1091,1401,0,0
-126,-377,0,0,0,0,0,0,0,0,0,-1,1098,1401,0,0
-119,-377,0,0,0,0,0,0,0,0,0,-1,1105,1401,0,0
-112,-377,0,0,0,0,0,0,0,0,0,-1,1112,1401,0,0
-105,-377,0,0,0,0,0,0,0,0,0,-1,1119,1401,0,0
-98,-377,0,0,0,0,0,0,0,0,0,-1,1126,1401,0,0
-91,-377,0,0,0,0,0,0,0,0,0,-1,1133,1401,0,0
-84,-377,0,0,0,0,0,0,0,0,0,-1,1140,1401,0,0
-77,-377,0,0,0,0,0,0,0,0,0,-1,1147,1401,0,0
-70,-377,0,0,0,0,0,0,0,0,0,-1,1154,1401,0,0
-63,-377,0,0,0,0,0,0,0,0,0,-1,1161,1401,0,0
-56,-377,0,0,0,0,0,0,0,0,0,-1,1168,1401,0,0
-49,-377,0,0,0,0,0,0,0,0,0,-1,1175,1401,0,0
-42,-377,0,0,0,0,0,0,0,0,0,-1,1182,1401,0,0
-35,-377,0,0,0,0,0,0,0,0,0,-1,1189,1401,0,0
-28,-377,0,0,0,0,0,0,0,0,0,-1,1196,1401,0,0
-21,-377,0,0,0,0,0,0,0,0,0,-1,1203,1401,0,0
-14,-377,0,0,0,0,0,0,0,0,0,-1,1210,1401,0,0
-7,-377,0,0,0,0,0,0,0,0,0,-1,1217,1401,0,0
0,-377,0,0,0,0,0,0,0,0,0,-1,1224,1401,0,0
7,-377,0,0,0,0,0,0,0,0,0,-1,1231,1401,0,0
14,-377,0,0,0,0,0,0,0,0,0,-1,1238,1401,0,0
21,-377,0,0,0,0,0,0,0,0,0,-1,1245,1401,0,0
28,-377,0,0,0,0,0,0,0,0,0,-1,1252,1401,0,0
35,-377,0,0,0,0,0,0,0,0,0,-1,1259,1401,0,0
42,-377,0,0,0,0,0,0,0,0,0,-1,1266,1401,0,0
49,-377,0,0,0,0,0,0,0,0,0,-1,1273,1401,0,0
56,-377,0,0,0,0,0,0,0,0,0,-1,1280,1401,0,0
63,-377,0,0,0,0,0,0,0,0,0,-1,1287,1401,0,0
70,-377,0,0,0,0,0,0,0,0,0,-1,1294,1401,0,0
77,-377,0,0,0,0,0,0,0,0,0,-1,1301,1401,0,0
84,-377,0,0,0,0,0,0,0,0,0,-1,1308,1401,0,0
91,-377,0,0,0,0,0,0,0,0,0,-1,1315,1401,0,0
98,-377,0,0,0,0,0,0,0,0,0,-1,1322,1401,0,0
105,-377,0,0,0,0,0,0,0,0,0,-1,1329,1401,0,0
112,-377,0,0,0,0,0,0,0,0,0,-1,1336,1401,0,0
119,-377,0,0,0,0,0,0,0,0,0,-1,1343,1401,0,0
126,-377,0,0,0,0,0,0,0,0,0,-1,1350,1401,0,0
133,-377,0,0,0,0,0,0,0,0,0,-1,1357,1401,0,0
140,-377,0,0,0,0,0,0,0,0,0,-1,1364,1401,0,0
147,-377,0,0,0,0,0,0,0,0,0,-1,1371,1401,0,0
154,-377,0,0,0,0,0,0,0,0,0,-1,1378,1401,0,0
161,-377,0,0,0,0,0,0,0,0,0,-1,1385,1401,0,0
168,-377,0,0,0,0,0,0,0,0,0,-1,1392,1401,0,0
175,-377,0,0,0,0,0,0,0,0,0,-1,1399,1401,0,0
182,-377,0,0,0,0,0,0,0,0,0,-1,1406,1401,0,0
189,-377,0,0,0,0,0,0,0,0,0,-1,1413,1401,0,0
196,-377,0,0,0,0,0,0,0,0,0,-1,1420,1401,0,0
203,-377,0,0,0,0,0,0,0,0,0,-1,1427,1401,0,0
210,-377,0,0,0,0,0,0,0,0,0,-1,1434,1401,0,0
217,-377,0,0,0,0,0,0,0,0,0,-1,1441,1401,0,0
224,-377,0,0,0,0,0,0,0,0,0,-1,1448,1401,0,0
231,-377,0,0,0,0,0,0,0,0,0,-1,1455,1401,0,0
238,-377,0,0,0,0,0,0,0,0,0,-1,1462,1401,0,0
245,-377,0,0,0,0,0,0,0,0,0,-1,1469,1401,0,0
252,-377,0,0,0,0,0,0,0,0,0,-1,1476,1401,0,0
259,-377,0,0,0,0,0,0,0,0,0,-1,1483,1401,0,0
266,-377,0,0,0,0,0,0,0,0,0,-1,1490,1401,0,0
273,-377,0,0,0,0,0,0,0,0,0,-1,1497,1401,0,0
280,-377,0,0,0,0,0,0,0,0,0,-1,1504,1401,0,0
287,-377,0,0,0,0,0,0,0,0,0,-1,1511,1401,0,0
294,-377,0,0,0,0,0,0,0,0,0,-1,1518,1401,0,0
301,-377,0,0,0,0,0,0,0,0,0,-1,1525,1401,0,0
308,-377,0,0,0,0,0,0,0,0,0,-1,1532,1401,0,0
315,-377,0,0,0,0,0,0,0,0,0,-1,1539,1401,0,0
322,-377,0,0,0,0,0,0,0,0,0,-1,1546,1401,0,0
329,-377,0,0,0,0,0,0,0,0,0,-1,1553,1401,0,0
336,-377,0,0,0,0,0,0,0,0,0,-1,1560,1401,0,0
343,-377,0,0,0,0,0,0,0,0,0,-1,1567,1401,0,0
350,-377,0,0,0,0,0,0,0,0,0,-1,1574,1401,0,0
357,-377,0,0,0,0,0,0,0,0,0,-1,1581,1401,0,0
364,-377,0,0,0,0,0,0,0,0,0,-1,1588,1401,0,0
371,-377,0,0,0,0,0,0,0,0,0,-1,1595,1401,0,0
378,-377,0,0,0,0,0,0,0,0,0,-1,1602,1401,0,0
385,-377,0,0,0,0,0,0,0,0,0,-1,1609,1401,0,0
392,-377,0,0,0,0,0,0,0,0,0,-1,1616,1401,0,0
399,-377,0,0,0,0,0,0,0,0,0,-1,1623,1401,0,0
406,-377,0,0,0,0,0,0,0,0,0,-1,1630,1401,0,0
413,-377,0,0,0,0,0,0,0,0,0,-1,1637,1401,0,0
420,-377,0,0,0,0,0,0,0,0,0,-1,1644,1401,0,0
427,-377,0,0,0,0,0,0,0,0,0,-1,1651,1401,0,0
434,-377,0,0,0,0,0,0,0,0,0,-1,1658,1401,0,0
441,-377,0,0,0,0,0,0,0,0,0,-1,1665,1401,0,0
448,-377,0,0,0,0,0,0,0,0,0,-1,1672,1401,0,0
455,-377,0,0,0,0,0,0,0,0,0,-1,1679,1401,0,0
462,-377,0,0,0,0,0,0,0,0,0,-1,1686,1401,0,0
469,-377,0,0,0,0,0,0,0,0,0,-1,1693,1401,0,0
476,-377,0,0,0,0,0,0,0,0,0,-1,1700,1401,0,0
483,-377,0,0,0,0,0,0,0,0,0,-1,1707,1401,0,0
490,-377,0,0,0,0,0,0,0,0,0,-1,1714,1401,0,0
497,-377,0,0,0,0,0,0,0,0,0,-1,1721,1401,0,0
504,-377,0,0,0,0,0,0,0,0,0,-1,1728,1401,0,0
511,-377,0,0,0,0,0,0,0,0,0,-1,1735,1401,0,0
518,-377,0,0,0,0,0,0,0,0,0,-1,1742,1401,0,0
525,-377,0,0,0,0,0,0,0,0,0,-1,1749,1401,0,0
532,-377,0,0,0,0,0,0,0,0,0,-1,1756,1401,0,0
539,-377,0,0,0,0,0,0,0,0,0,-1,1763,1401,0,0
546,-377,8.05139,4.69971,0,0,0,0,0,0,0,-1,1770,1401,8.05137,-4.69972
553,-377,8.31445,3.34216,0,0,0,0,0,0,0,-1,1777,1401,8.31447,-3.34215
560,-377,8.53857,2.03357,0,0,0,0,0,0,0,-1,1784,1401,8.53862,-2.03358
567,-377,8.83057,0.818115,0,0,0,0,0,0,0,-1,1791,1401,8.83052,-0.818055
574,-377,10.7527,3.06067,0,0,0,0,0,0,0,-1,1798,1401,10.7527,-3.06071
581,-377,12.4272,1.85266,0,0,0,0,0,0,0,-1,1805,1401,12.4272,-1.85265
588,-377,8.97449,1.15356,0,0,0,0,0,0,0,-1,1812,1401,8.97446,-1.15352
595,-377,8.84888,1.34106,0,0,0,0,0,0,0,-1,1819,1401,8.84892,-1.34105
602,-377,9.57764,3.55103,0,0,0,0,0,0,0,-1,1826,1401,9.57769,-3.55102
609,-377,9.71802,2.84546,0,0,0,0,0,0,0,-1,1833,1401,9.71802,-2.84544
616,-377,8.05774,2.73621,0,0,0,0,0,0,0,-1,1840,1401,8.05779,-2.73622
623,-377,8.19543,3.33069,-0.0162736,-0.00652384,0.0110378,0.000667708,-0.0234651,0.993342,0.0158707,0.04155,1847,1401,8.19545,-3.33073
630,-377,8.26355,3.77417,-0.0124188,-0.0050675,0.00774619,-0.000169134,-0.0173172,1.00692,0.0114888,0.0216639,1854,1401,8.26358,-3.77422
637,-377,8.2533,3.66162,-0.00931441,-0.0038771,0.00547732,-0.000480845,-0.0127107,1.01576,0.00831813,0.0125651,1861,1401,8.25324,-3.66158
644,-377,8.26367,3.52002,-0.00682106,-0.00271155,0.00403229,-0.000240671,-0.00929194,1.02104,0.00611598,0.0106122,1868,1401,8.26363,-3.52001
651,-377,8.28967,3.40723,-0.00474947,-0.00223675,0.00301546,-0.000226393,-0.00675983,0.982782,0.00443301,0.0118231,1875,1401,8.28971,-3.40724
658,-377,8.30286,3.30835,-0.00267722,-0.00212703,0.00249051,0.000103535,-0.00490779,0.840404,0.00330691,0.0127698,1882,1401,8.30288,-3.3084
665,-377,8.3009,3.17834,-0.000611017,-0.00224041,0.00150332,0.00028417,-0.0031356,0.537084,0.00219127,0.0153425,1889,1401,8.3009,-3.17829
672,-377,8.29724,3.06274,0.00170338,-0.00274379,0.000743221,0.0018243,-0.00286471,0.161285,0.00272933,0.0166639,1896,1401,8.29722,-3.06273
679,-377,8.29663,2.99194,0.00473238,-0.00371931,0.000551636,0.00476823,-0.00375517,0.0649023,0.00493256,0.0174907,1903,1401,8.29668,-2.99198
686,-377,8.30078,2.87915,0.00839455,-0.00552157,0.000313932,0.00840163,-0.00552865,0.0225436,0.00809947,0.0143902,1910,1401,8.30084,-2.87915
693,-377,8.31189,2.76331,0.0117764,-0.00809636,0.000462677,0.0117872,-0.00810712,0.0232652,0.0115513,0.010899,1917,1401,8.31194,-2.76332
700,-377,8.30396,2.67017,0.0152612,-0.011418,0.00125333,0.01532,-0.0114768,0.0468402,0.0155241,0.0184356,1924,1401,8.3039,-2.67016
707,-377,8.38,2.66064,0.0205284,-0.0160462,0.00234249,0.0206778,-0.0161956,0.0637,0.0213412,0.0359149,1931,1401,8.38005,-2.6606
714,-377,8.99475,2.69678,0.0257129,-0.0215023,0.0039825,0.0260464,-0.0218359,0.0835611,0.0276805,0.0426163,1938,1401,8.99471,-2.69682
721,-377,9.77991,2.5835,0.0301055,-0.0280658,0.00652619,0.0308287,-0.028789,0.110361,0.034427,0.0401365,1945,1401,9.77987,-2.58344
728,-377,10.8475,2.25354,0.0325252,-0.03568,0.0101875,0.0340143,-0.0371692,0.145146,0.0411113,0.0434025,1952,1401,10.8475,-2.25348
735,-377,11.24,2.01782,0,0,0,0,0,0,0,-1,1959,1401,11.24,-2.01784
742,-377,0,0,0,0,0,0,0,0,0,-1,1966,1401,0,0
749,-377,0,0,0,0,0,0,0,0,0,-1,1973,1401,0,0
756,-377,0,0,0,0,0,0,0,0,0,-1,1980,1401,0,0
763,-377,0,0,0,0,0,0,0,0,0,-1,1987,1401,0,0
770,-377,0,0,0,0,0,0,0,0,0,-1,1994,1401,0,0
777,-377,0,0,0,0,0,0,0,0,0,-1,2001,1401,0,0
784,-377,0,0,0,0,0,0,0,0,0,-1,2008,1401,0,0
791,-377,0,0,0,0,0,0,0,0,0,-1,2015,1401,0,0
798,-377,0,0,0,0,0,0,0,0,0,-1,2022,1401,0,0
805,-377,0,0,0,0,0,0,0,0,0,-1,2029,1401,0,0
812,-377,0,0,0,0,0,0,0,0,0,-1,2036,1401,0,0
-700,-384,0,0,0,0,0,0,0,0,0,-1,524,1408,0,0
-693,-384,0,0,0,0,0,0,0,0,0,-1,531,1408,0,0
-686,-384,0,0,0,0,0,0,0,0,0,-1,538,1408,0,0
-679,-384,0,0,0,0,0,0,0,0,0,-1,545,1408,0,0
-672,-384,0,0,0,0,0,0,0,0,0,-1,552,1408,0,0
-665,-384,0,0,0,0,0,0,0,0,0,-1,559,1408,0,0
-658,-384,0,0,0,0,0,0,0,0,0,-1,566,1408,0,0
-651,-384,0,0,0,0,0,0,0,0,0,-1,573,1408,0,0
-644,-384,0,0,0,0,0,0,0,0,0,-1,580,1408,0,0
-637,-384,0,0,0,0,0,0,0,0,0,-1,587,1408,0,0
-630,-384,0,0,0,0,0,0,0,0,0,-1,594,1408,0,0
-623,-384,0,0,0,0,0,0,0,0,0,-1,601,1408,0,0
-616,-384,-2.27063,-3.19421,0,0,0,0,0,0,0,-1,608,1408,-2.27061,3.19421
-609,-384,-1.63611,1.43079,0,0,0,0,0,0,0,-1,615,1408,-1.63608,-1.43074
-602,-384,-0.96759,1.0238,0,0,0,0,0,0,0,-1,622,1408,-0.967576,-1.02382
-595,-384,-2.65564,0.131592,0,0,0,0,0,0,0,-1,629,1408,-2.65566,-0.131533
-588,-384,-2.34363,0.645264,0.0477952,0.0438294,-0.00937891,0.0553985,0.0362261,-0.681223,0.0324856,0.0476581,636,1408,-2.34363,-0.645287
-581,-384,-1.93823,1.1615,0.0387013,0.033098,-0.00690048,0.0433472,0.0284521,-0.592559,0.0254312,0.0497548,643,1408,-1.93826,-1.16152
-574,-384,-1.7384,1.40735,0.0300658,0.0237401,-0.00483841,0.0326835,0.0211225,-0.495912,0.0191371,0.0486007,650,1408,-1.73843,-1.40729
-567,-384,-1.7254,1.57458,0.021634,0.0166132,-0.00303022,0.0230586,0.0151886,-0.439473,0.0135346,0.0393958,657,1408,-1.72541,-1.57461
-560,-384,-1.77441,1.67725,0.0144085,0.0111572,-0.0020224,0.0153776,0.0101881,-0.446862,0.00903326,0.0232595,664,1408,-1.77443,-1.67726
-553,-384,-1.79431,1.77527,0.00911024,0.00715833,-0.00133551,0.0097884,0.00648018,-0.469858,0.00574939,0.0164338,671,1408,-1.79433,-1.77532
-546,-384,-1.78723,1.89905,0.00555669,0.00444253,-0.000913319,0.00606942,0.0039298,-0.511547,0.00355462,0.0136771,678,1408,-1.78726,-1.89902
-539,-384,-1.79999,2.01147,0.00192859,0.00130755,-0.000760414,0.00243944,0.000796698,-0.591555,0.00143637,0.0147597,685,1408,-1.80001,-2.01148
-532,-384,-1.78101,2.11731,-0.000236073,-0.000135359,-0.000872527,0.000688263,-0.0010597,-0.814223,0.00101675,0.0223115,692,1408,-1.78103,-2.11726
-525,-384,-1.74902,2.26526,-0.00132752,-0.000761829,-0.00102601,1.9613e-05,-0.00210896,-0.919895,0.00141256,0.0216869,699,1408,-1.74902,-2.26528
-518,-384,-1.78534,2.37256,-0.00177835,-0.00149028,-0.00179896,0.000170395,-0.00343903,-0.825346,0.00235155,0.0124269,706,1408,-1.78535,-2.37255
-511,-384,-1.79773,2.50537,-0.00213381,-0.0026031,-0.00256429,0.000206553,-0.00494346,-0.739772,0.0033666,0.00985362,713,1408,-1.79773,-2.50543
-504,-384,-1.7934,2.63403,-0.00243133,-0.000883311,-0.00466429,0.00307076,-0.00638539,-0.86762,0.00557019,0.0107653,720,1408,-1.79337,-2.63401
-497,-384,-1.78082,2.75085,-0.00350563,0.00255213,-0.00792601,0.00800828,-0.00896178,-0.967908,0.00980283,0.0122031,727,1408,-1.78084,-2.75088
-490,-384,-1.72754,2.90515,-0.00469851,0.00992222,-0.0137153,0.0181538,-0.0129301,-1.03025,0.0180306,0.0214012,734,1408,-1.72754,-2.90511
-483,-384,-1.99402,3.08618,-0.00557148,0.0204284,-0.0215573,0.0326022,-0.0177453,-1.05672,0.029487,0.0386305,741,1408,-1.99401,-3.08622
-476,-384,-2.30914,3.01807,-0.00645607,0.0335182,-0.030667,0.0501364,-0.0230742,-1.0742,0.04322,0.0417859,748,1408,-2.30914,-3.01806
-469,-384,-2.47699,2.8219,-0.00742285,0.0508707,-0.0422539,0.0730555,-0.0296076,-1.08732,0.0610163,0.0404526,755,1408,-2.47698,-2.82189
-462,-384,-2.62524,2.57434,0,0,0,0,0,0,0,-1,762,1408,-2.62523,-2.57439
-455,-384,-1.90936,1.73987,0,0,0,0,0,0,0,-1,769,1408,-1.90934,-1.73985
-448,-384,-2.27698,1.65247,0,0,0,0,0,0,0,-1,776,1408,-2.27698,-1.6525
-441,-384,-2.54742,0.868164,0,0,0,0,0,0,0,-1,783,1408,-2.54745,-0.868223
-434,-384,-2.69482,0.0419922,0,0,0,0,0,0,0,-1,790,1408,-2.69485,-0.0420305
-427,-384,-1.1095,-0.13916,0,0,0,0,0,0,0,-1,797,1408,-1.10952,0.13915
-420,-384,-1.67053,0.0454102,0,0,0,0,0,0,0,-1,804,1408,-1.67053,-0.0453977
-413,-384,0,0,0,0,0,0,0,0,0,-1,811,1408,0,0
-406,-384,0,0,0,0,0,0,0,0,0,-1,818,1408,0,0
-399,-384,0,0,0,0,0,0,0,0,0,-1,825,1408,0,0
-392,-384,0,0,0,0,0,0,0,0,0,-1,832,1408,0,0
-385,-384,0,0,0,0,0,0,0,0,0,-1,839,1408,0,0
-378,-384,0,0,0,0,0,0,0,0,0,-1,846,1408,0,0
-371,-384,0,0,0,0,0,0,0,0,0,-1,853,1408,0,0
-364,-384,0,0,0,0,0,0,0,0,0,-1,860,1408,0,0
-357,-384,0,0,0,0,0,0,0,0,0,-1,867,1408,0,0
-350,-384,0,0,0,0,0,0,0,0,0,-1,874,1408,0,0
-343,-384,0,0,0,0,0,0,0,0,0,-1,881,1408,0,0
-336,-384,0,0,0,0,0,0,0,0,0,-1,888,1408,0,0
-329,-384,0,0,0,0,0,0,0,0,0,-1,895,1408,0,0
-322,-384,0,0,0,0,0,0,0,0,0,-1,902,1408,0,0
-315,-384,0,0,0,0,0,0,0,0,0,-1,909,1408,0,0
-308,-384,0,0,0,0,0,0,0,0,0,-1,916,1408,0,0
-301,-384,0,0,0,0,0,0,0,0,0,-1,923,1408,0,0
-294,-384,0,0,0,0,0,0,0,0,0,-1,930,1408,0,0
-287,-384,0,0,0,0,0,0,0,0,0,-1,937,1408,0,0
-280,-384,0,0,0,0,0,0,0,0,0,-1,944,1408,0,0
-273,-384,0,0,0,0,0,0,0,0,0,-1,951,1408,0,0
-266,-384,0,0,0,0,0,0,0,0,0,-1,958,1408,0,0
-259,-384,0,0,0,0,0,0,0,0,0,-1,965,1408,0,0
-252,-384,0,0,0,0,0,0,0,0,0,-1,972,1408,0,0
-245,-384,0,0,0,0,0,0,0,0,0,-1,979,1408,0,0
-238,-384,0,0,0,0,0,0,0,0,0,-1,986,1408,0,0
-231,-384,0,0,0,0,0,0,0,0,0,-1,993,1408,0,0
-224,-384,0,0,0,0,0,0,0,0,0,-1,1000,1408,0,0
-217,-384,0,0,0,0,0,0,0,0,0,-1,1007,1408,0,0
-210,-384,0,0,0,0,0,0,0,0,0,-1,1014,1408,0,0
-203,-384,0,0,0,0,0,0,0,0,0,-1,1021,1408,0,0
-196,-384,0,0,0,0,0,0,0,0,0,-1,1028,1408,0,0
-189,-384,0,0,0,0,0,0,0,0,0,-1,1035,1408,0,0
-182,-384,0,0,0,0,0,0,0,0,0,-1,1042,1408,0,0
-175,-384,0,0,0,0,0,0,0,0,0,-1,1049,1408,0,0
-168,-384,0,0,0,0,0,0,0,0,0,-1,1056,1408,0,0
-161,-384,0,0,0,0,0,0,0,0,0,-1,1063,1408,0,0
-154,-384,0,0,0,0,0,0,0,0,0,-1,1070,1408,0,0
-147,-384,0,0,0,0,0,0,0,0,0,-1,1077,1408,0,0
-140,-384,0,0,0,0,0,0,0,0,0,-1,1084,1408,0,0
-133,-384,0,0,0,0,0,0,0,0,0,-1,1091,1408,0,0
-126,-384,0,0,0,0,0,0,0,0,0,-1,1098,1408,0,0
-119,-384,0,0,0,0,0,0,0,0,0,-1,1105,1408,0,0
-112,-384,0,0,0,0,0,0,0,0,0,-1,1112,1408,0,0
-105,-384,0,0,0,0,0,0,0,0,0,-1,1119,1408,0,0
-98,-384,0,0,0,0,0,0,0,0,0,-1,1126,1408,0,0
-91,-384,0,0,0,0,0,0,0,0,0,-1,1133,1408,0,0
-84,-384,0,0,0,0,0,0,0,0,0,-1,1140,1408,0,0
-77,-384,0,0,0,0,0,0,0,0,0,-1,1147,1408,0,0
-70,-384,0,0,0,0,0,0,0,0,0,-1,1154,1408,0,0
-63,-384,0,0,0,0,0,0,0,0,0,-1,1161,1408,0,0
-56,-384,0,0,0,0,0,0,0,0,0,-1,1168,1408,0,0
-49,-384,0,0,0,0,0,0,0,0,0,-1,1175,1408,0,0
-42,-384,0,0,0,0,0,0,0,0,0,-1,1182,1408,0,0
-35,-384,0,0,0,0,0,0,0,0,0,-1,1189,1408,0,0
-28,-384,0,0,0,0,0,0,0,0,0,-1,1196,1408,0,0
-21,-384,0,0,0,0,0,0,0,0,0,-1,1203,1408,0,0
-14,-384,0,0,0,0,0,0,0,0,0,-1,1210,1408,0,0
-7,-384,0,0,0,0,0,0,0,0,0,-1,1217,1408,0,0
0,-384,0,0,0,0,0,0,0,0,0,-1,1224,1408,0,0
7,-384,0,0,0,0,0,0,0,0,0,-1,1231,1408,0,0
14,-384,0,0,0,0,0,0,0,0,0,-1,1238,1408,0,0
21,-384,0,0,0,0,0,0,0,0,0,-1,1245,1408,0,0
28,-384,0,0,0,0,0,0,0,0,0,-1,1252,1408,0,0
35,-384,0,0,0,0,0,0,0,0,0,-1,1259,1408,0,0
42,-384,0,0,0,0,0,0,0,0,0,-1,1266,1408,0,0
49,-384,0,0,0,0,0,0,0,0,0,-1,1273,1408,0,0
56,-384,0,0,0,0,0,0,0,0,0,-1,1280,1408,0,0
63,-384,0,0,0,0,0,0,0,0,0,-1,1287,1408,0,0
70,-384,0,0,0,0,0,0,0,0,0,-1,1294,1408,0,0
77,-384,0,0,0,0,0,0,0,0,0,-1,1301,1408,0,0
84,-384,0,0,0,0,0,0,0,0,0,-1,1308,1408,0,0
91,-384,0,0,0,0,0,0,0,0,0,-1,1315,1408,0,0
98,-384,0,0,0,0,0,0,0,0,0,-1,1322,1408,0,0
105,-384,0,0,0,0,0,0,0,0,0,-1,1329,1408,0,0
112,-384,0,0,0,0,0,0,0,0,0,-1,1336,1408,0,0
119,-384,0,0,0,0,0,0,0,0,0,-1,1343,1408,0,0
126,-384,0,0,0,0,0,0,0,0,0,-1,1350,1408,0,0
133,-384,0,0,0,0,0,0,0,0,0,-1,1357,1408,0,0
140,-384,0,0,0,0,0,0,0,0,0,-1,1364,1408,0,0
147,-384,0,0,0,0,0,0,0,0,0,-1,1371,1408,0,0
154,-384,0,0,0,0,0,0,0,0,0,-1,1378,1408,0,0
161,-384,0,0,0,0,0,0,0,0,0,-1,1385,1408,0,0
168,-384,0,0,0,0,0,0,0,0,0,-1,1392,1408,0,0
175,-384,0,0,0,0,0,0,0,0,0,-1,1399,1408,0,0
182,-384,0,0,0,0,0,0,0,0,0,-1,1406,1408,0,0
189,-384,0,0,0,0,0,0,0,0,0,-1,1413,1408,0,0
196,-384,0,0,0,0,0,0,0,0,0,-1,1420,1408,0,0
203,-384,0,0,0,0,0,0,0,0,0,-1,1427,1408,0,0
210,-384,0,0,0,0,0,0,0,0,0,-1,1434,1408,0,0
217,-384,0,0,0,0,0,0,0,0,0,-1,1441,1408,0,0
224,-384,0,0,0,0,0,0,0,0,0,-1,1448,1408,0,0
231,-384,0,0,0,0,0,0,0,0,0,-1,1455,1408,0,0
238,-384,0,0,0,0,0,0,0,0,0,-1,1462,1408,0,0
245,-384,0,0,0,0,0,0,0,0,0,-1,1469,1408,0,0
252,-384,0,0,0,0,0,0,0,0,0,-1,1476,1408,0,0
259,-384,0,0,0,0,0,0,0,0,0,-1,1483,1408,0,0
266,-384,0,0,0,0,0,0,0,0,0,-1,1490,1408,0,0
273,-384,0,0,0,0,0,0,0,0,0,-1,1497,1408,0,0
280,-384,0,0,0,0,0,0,0,0,0,-1,1504,1408,0,0
287,-384,0,0,0,0,0,0,0,0,0,-1,1511,1408,0,0
294,-384,0,0,0,0,0,0,0,0,0,-1,1518,1408,0,0
301,-384,0,0,0,0,0,0,0,0,0,-1,1525,1408,0,0
308,-384,0,0,0,0,0,0,0,0,0,-1,1532,1408,0,0
315,-384,0,0,0,0,0,0,0,0,0,-1,1539,1408,0,0
322,-384,0,0,0,0,0,0,0,0,0,-1,1546,1408,0,0
329,-384,0,0,0,0,0,0,0,0,0,-1,1553,1408,0,0
336,-384,0,0,0,0,0,0,0,0,0,-1,1560,1408,0,0
343,-384,0,0,0,0,0,0,0,0,0,-1,1567,1408,0,0
350,-384,0,0,0,0,0,0,0,0,0,-1,1574,1408,0,0
357,-384,0,0,0,0,0,0,0,0,0,-1,1581,1408,0,0
364,-384,0,0,0,0,0,0,0,0,0,-1,1588,1408,0,0
371,-384,0,0,0,0,0,0,0,0,0,-1,1595,1408,0,0
378,-384,0,0,0,0,0,0,0,0,0,-1,1602,1408,0,0
385,-384,0,0,0,0,0,0,0,0,0,-1,1609,1408,0,0
392,-384,0,0,0,0,0,0,0,0,0,-1,1616,1408,0,0
399,-384,0,0,0,0,0,0,0,0,0,-1,1623,1408,0,0
406,-384,0,0,0,0,0,0,0,0,0,-1,1630,1408,0,0
413,-384,0,0,0,0,0,0,0,0,0,-1,1637,1408,0,0
420,-384,0,0,0,0,0,0,0,0,0,-1,1644,1408,0,0
427,-384,0,0,0,0,0,0,0,0,0,-1,1651,1408,0,0
434,-384,0,0,0,0,0,0,0,0,0,-1,1658,1408,0,0
441,-384,0,0,0,0,0,0,0,0,0,-1,1665,1408,0,0
448,-384,0,0,0,0,0,0,0,0,0,-1,1672,1408,0,0
455,-384,0,0,0,0,0,0,0,0,0,-1,1679,1408,0,0
462,-384,0,0,0,0,0,0,0,0,0,-1,1686,1408,0,0
469,-384,0,0,0,0,0,0,0,0,0,-1,1693,1408,0,0
476,-384,0,0,0,0,0,0,0,0,0,-1,1700,1408,0,0
483,-384,0,0,0,0,0,0,0,0,0,-1,1707,1408,0,0
490,-384,0,0,0,0,0,0,0,0,0,-1,1714,1408,0,0
497,-384,0,0,0,0,0,0,0,0,0,-1,1721,1408,0,0
504,-384,0,0,0,0,0,0,0,0,0,-1,1728,1408,0,0
511,-384,0,0,0,0,0,0,0,0,0,-1,1735,1408,0,0
518,-384,0,0,0,0,0,0,0,0,0,-1,1742,1408,0,0
525,-384,0,0,0,0,0,0,0,0,0,-1,1749,1408,0,0
532,-384,0,0,0,0,0,0,0,0,0,-1,1756,1408,0,0
539,-384,7.75085,5.5365,0,0,0,0,0,0,0,-1,1763,1408,7.75089,-5.53651
546,-384,10.4924,0.854492,0,0,0,0,0,0,0,-1,1770,1408,10.4924,-0.854452
553,-384,10.8159,1.06165,0,0,0,0,0,0,0,-1,1777,1408,10.8159,-1.06165
560,-384,8.97913,2.04846,0,0,0,0,0,0,0,-1,1784,1408,8.97917,-2.04843
567,-384,9.2124,1.02808,0,0,0,0,0,0,0,-1,1791,1408,9.2124,-1.02807
574,-384,15.0504,1.13953,0,0,0,0,0,0,0,-1,1798,1408,15.0504,-1.13955
581,-384,11.7467,2.13342,0,0,0,0,0,0,0,-1,1805,1408,11.7467,-2.13338
588,-384,8.21533,0.779907,0,0,0,0,0,0,0,-1,1812,1408,8.21537,-0.779886
595,-384,8.34753,1.23694,0,0,0,0,0,0,0,-1,1819,1408,8.3475,-1.23699
602,-384,8.81726,2.3114,0,0,0,0,0,0,0,-1,1826,1408,8.81732,-2.31135
609,-384,8.90576,2.97937,-0.021773,-0.00785387,0.0254808,0.0116007,-0.0412275,0.918712,0.0320593,0.0429982,1833,1408,8.90581,-2.97935
616,-384,8.69031,3.6012,-0.0185102,-0.00722239,0.0188044,0.00676683,-0.0324994,0.93119,0.0242388,0.0422437,1840,1408,8.69036,-3.60115
623,-384,8.16895,3.77515,-0.014578,-0.00597574,0.0132983,0.00369974,-0.0242535,0.941805,0.0175328,0.0319984,1847,1408,8.16892,-3.7751
630,-384,8.16479,3.73083,-0.0108355,-0.00461731,0.00912594,0.00191461,-0.0173674,0.949576,0.0122664,0.0162371,1854,1408,8.16485,-3.73085
637,-384,8.16418,3.65393,-0.00798029,-0.00353468,0.00616537,0.000796342,-0.0123113,0.958411,0.00848545,0.0140319,1861,1408,8.16424,-3.65393
644,-384,8.16382,3.54443,-0.00572761,-0.0025144,0.00424394,0.000416859,-0.00865887,0.966344,0.00591643,0.0136884,1868,1408,8.16382,-3.54444
651,-384,8.15955,3.4176,-0.0038056,-0.00228097,0.00285874,-8.46572e-05,-0.00600192,0.915697,0.00397336,0.0136144,1875,1408,8.15951,-3.41766
658,-384,8.16919,3.28833,-0.00192192,-0.00236759,0.00211033,-2.26875e-05,-0.00426682,0.732797,0.00283701,0.0132505,1882,1408,8.16914,-3.28835
665,-384,8.1936,3.18359,1.94088e-06,-0.00271586,0.000952328,0.000302419,-0.00301634,0.305634,0.00211891,0.0141826,1889,1408,8.19355,-3.18363
672,-384,8.21387,3.07788,0.0023388,-0.00361625,4.28313e-05,0.00233911,-0.00361655,0.00719194,0.00346477,0.0144827,1896,1408,8.21389,-3.07782
679,-384,8.20386,2.97156,0.00551422,-0.00514016,-0.000338369,0.00552495,-0.0051509,-0.0317161,0.00616497,0.0152731,1903,1408,8.20388,-2.97157
686,-384,8.19617,2.86621,0.00943069,-0.00747459,-0.000848323,0.00947316,-0.00751705,-0.0500135,0.00983095,0.0120405,1910,1408,8.19616,-2.86616
693,-384,8.21326,2.77051,0.013445,-0.0107244,-0.00111519,0.0134964,-0.0107757,-0.0460102,0.0140428,0.0152735,1917,1408,8.2132,-2.77048
700,-384,8.18347,2.84302,0.0178597,-0.014696,-0.000862988,0.0178826,-0.0147189,-0.0264832,0.018852,0.032398,1924,1408,8.18353,-2.84298
707,-384,8.44495,2.86975,0.0243204,-0.0198036,-0.000316002,0.0243226,-0.0198058,-0.0071612,0.025522,0.0429624,1931,1408,8.44493,-2.8697
714,-384,9.11267,2.99487,0.0310189,-0.0258818,0.000774736,0.0310294,-0.0258924,0.0136122,0.0329084,0.046005,1938,1408,9.11261,-2.99483
721,-384,9.73853,2.83191,0.0370997,-0.0329745,0.00287374,0.0372174,-0.0330921,0.0409184,0.0406165,0.0444821,1945,1408,9.73849,-2.83194
728,-384,10.27,2.5918,0.0412647,-0.0410115,0.00624751,0.0417364,-0.0414832,0.0753575,0.048047,0.0455688,1952,1408,10.2701,-2.59178
735,-384,10.5852,2.40125,0,0,0,0,0,0,0,-1,1959,1408,10.5852,-2.40123
742,-384,0,0,0,0,0,0,0,0,0,-1,1966,1408,0,0
749,-384,0,0,0,0,0,0,0,0,0,-1,1973,1408,0,0
756,-384,0,0,0,0,0,0,0,0,0,-1,1980,1408,0,0
763,-384,0,0,0,0,0,0,0,0,0,-1,1987,1408,0,0
770,-384,0,0,0,0,0,0,0,0,0,-1,1994,1408,0,0
777,-384,0,0,0,0,0,0,0,0,0,-1,2001,1408,0,0
784,-384,0,0,0,0,0,0,0,0,0,-1,2008,1408,0,0
791,-384,0,0,0,0,0,0,0,0,0,-1,2015,1408,0,0
798,-384,0,0,0,0,0,0,0,0,0,-1,2022,1408,0,0
805,-384,0,0,0,0,0,0,0,0,0,-1,2029,1408,0,0
812,-384,0,0,0,0,0,0,0,0,0,-1,2036,1408,0,0
-700,-391,0,0,0,0,0,0,0,0,0,-1,524,1415,0,0
-693,-391,0,0,0,0,0,0,0,0,0,-1,531,1415,0,0
-686,-391,0,0,0,0,0,0,0,0,0,-1,538,1415,0,0
-679,-391,0,0,0,0,0,0,0,0,0,-1,545,1415,0,0
-672,-391,0,0,0,0,0,0,0,0,0,-1,552,1415,0,0
-665,-391,0,0,0,0,0,0,0,0,0,-1,559,1415,0,0
-658,-391,0,0,0,0,0,0,0,0,0,-1,566,1415,0,0
-651,-391,0,0,0,0,0,0,0,0,0,-1,573,1415,0,0
-644,-391,0,0,0,0,0,0,0,0,0,-1,580,1415,0,0
-637,-391,0,0,0,0,0,0,0,0,0,-1,587,1415,0,0
-630,-391,0,0,0,0,0,0,0,0,0,-1,594,1415,0,0
-623,-391,0,0,0,0,0,0,0,0,0,-1,601,1415,0,0
-616,-391,0,0,0,0,0,0,0,0,0,-1,608,1415,0,0
-609,-391,-0.851379,-2.12756,0,0,0,0,0,0,0,-1,615,1415,-0.851353,2.12751
-602,-391,-3.3241,-0.12439,0,0,0,0,0,0,0,-1,622,1415,-3.32412,0.124442
-595,-391,-2.75964,0.216919,0.0816402,0.0680945,-0.0114274,0.0881511,0.0615837,-0.517886,0.0522153,0.0432179,629,1415,-2.75967,-0.216969
-588,-391,-2.09045,0.762695,0.0678511,0.053212,-0.00854438,0.0717825,0.0492807,-0.431226,0.042394,0.0478034,636,1415,-2.09046,-0.762635
-581,-391,-1.54602,1.40063,0.0537381,0.0403047,-0.00625434,0.0561991,0.0378436,-0.374884,0.0330905,0.048763,643,1415,-1.546,-1.40068
-574,-391,-1.55908,1.36926,0,0,0,0,0,0,0,-1,650,1415,-1.55911,-1.36921
-567,-391,-1.28094,1.02283,0.0298603,0.0206391,-0.00275649,0.0306215,0.0198779,-0.269422,0.0179396,0.0454063,657,1415,-1.28094,-1.02286
-560,-391,-1.4834,1.59924,0.0202285,0.0139275,-0.00180585,0.0207094,0.0134467,-0.260238,0.0121329,0.0335672,664,1415,-1.48341,-1.59922
-553,-391,-1.64685,1.75305,0.0130508,0.00900872,-0.00114001,0.0133501,0.00870936,-0.256793,0.0078261,0.0200346,671,1415,-1.64686,-1.75309
-546,-391,-1.66138,1.90393,0.00815255,0.00561738,-0.000693051,0.00832965,0.00544029,-0.250171,0.00488372,0.0111183,678,1415,-1.6614,-1.90389
-539,-391,-1.64813,2.021,0.00339809,0.00182828,-0.000486972,0.00353688,0.00168949,-0.27765,0.0020427,0.0139292,685,1415,-1.64814,-2.02096
-532,-391,-1.63983,2.15076,0.000503765,0.000149477,-0.000590857,0.000943461,-0.000290219,-0.639758,0.000744806,0.0252484,692,1415,-1.63986,-2.15073
-525,-391,-1.63123,2.28931,-0.000790529,-0.000268905,-0.000611785,0.000135342,-0.00119478,-0.98689,0.000845251,0.0231001,699,1415,-1.63122,-2.28925
-518,-391,-1.66516,2.39697,-0.00126686,-0.000921773,-0.00135604,0.000272661,-0.00246129,-0.848678,0.00173889,0.0136614,706,1415,-1.66519,-2.39696
-511,-391,-1.6568,2.51624,-0.00174957,-0.00190407,-0.00209551,0.000270113,-0.00392375,-0.766975,0.00271036,0.0123727,713,1415,-1.65681,-2.51618
-504,-391,-1.65692,2.64172,-0.00248126,-0.000769706,-0.00380257,0.00227219,-0.00552316,-0.89608,0.00462927,0.0111983,720,1415,-1.65693,-2.64169
-497,-391,-1.65173,2.74731,-0.00399781,0.00140808,-0.00646654,0.00571384,-0.00830358,-0.983357,0.00813887,0.00901182,727,1415,-1.65172,-2.74735
-490,-391,-1.62921,2.89392,-0.00580147,0.0064038,-0.0110705,0.0129423,-0.01234,-1.0373,0.0145981,0.0120095,734,1415,-1.62918,-2.89397
-483,-391,-1.62097,2.95251,-0.00747277,0.0138973,-0.0174198,0.023648,-0.0172235,-1.0605,0.0236941,0.0283098,741,1415,-1.62097,-2.95248
-476,-391,-1.71185,3.00146,-0.00941128,0.0234224,-0.0248968,0.0368277,-0.0228166,-1.07687,0.0347509,0.0403444,748,1415,-1.71184,-3.0015
-469,-391,-1.74689,3.09705,-0.0115906,0.0364757,-0.034543,0.0545236,-0.0296384,-1.08933,0.0492939,0.0461099,755,1415,-1.74689,-3.09701
-462,-391,-1.8457,2.86084,0,0,0,0,0,0,0,-1,762,1415,-1.84573,-2.86081
-455,-391,-1.88483,2.50305,0,0,0,0,0,0,0,-1,769,1415,-1.88483,-2.50308
-448,-391,-2.29651,2.25342,-0.0197125,0.0960352,-0.0767535,0.134289,-0.0579661,-1.10843,0.113877,0.0457243,776,1415,-2.29648,-2.25337
-441,-391,-2.80511,1.66772,-0.0230381,0.120541,-0.0946372,0.167537,-0.0700338,-1.10988,0.140959,0.046088,783,1415,-2.80509,-1.66773
-434,-391,-3.18774,0.913696,0,0,0,0,0,0,0,-1,790,1415,-3.18776,-0.913734
-427,-391,-5.43121,3.38196,0,0,0,0,0,0,0,-1,797,1415,-5.4312,-3.38193
-420,-391,-2.40631,2.1106,0,0,0,0,0,0,0,-1,804,1415,-2.40628,-2.11058
-413,-391,0,0,0,0,0,0,0,0,0,-1,811,1415,0,0
-406,-391,0,0,0,0,0,0,0,0,0,-1,818,1415,0,0
-399,-391,0,0,0,0,0,0,0,0,0,-1,825,1415,0,0
-392,-391,0,0,0,0,0,0,0,0,0,-1,832,1415,0,0
-385,-391,0,0,0,0,0,0,0,0,0,-1,839,1415,0,0
-378,-391,0,0,0,0,0,0,0,0,0,-1,846,1415,0,0
-371,-391,0,0,0,0,0,0,0,0,0,-1,853,1415,0,0
-364,-391,0,0,0,0,0,0,0,0,0,-1,860,1415,0,0
-357,-391,0,0,0,0,0,0,0,0,0,-1,867,1415,0,0
-350,-391,0,0,0,0,0,0,0,0,0,-1,874,1415,0,0
-343,-391,0,0,0,0,0,0,0,0,0,-1,881,1415,0,0
-336,-391,0,0,0,0,0,0,0,0,0,-1,888,1415,0,0
-329,-391,0,0,0,0,0,0,0,0,0,-1,895,1415,0,0
-322,-391,0,0,0,0,0,0,0,0,0,-1,902,1415,0,0
-315,-391,0,0,0,0,0,0,0,0,0,-1,909,1415,0,0
-308,-391,0,0,0,0,0,0,0,0,0,-1,916,1415,0,0
-301,-391,0,0,0,0,0,0,0,0,0,-1,923,1415,0,0
-294,-391,0,0,0,0,0,0,0,0,0,-1,930,1415,0,0
-287,-391,0,0,0,0,0,0,0,0,0,-1,937,1415,0,0
-280,-391,0,0,0,0,0,0,0,0,0,-1,944,1415,0,0
-273,-391,0,0,0,0,0,0,0,0,0,-1,951,1415,0,0
-266,-391,0,0,0,0,0,0,0,0,0,-1,958,1415,0,0
-259,-391,0,0,0,0,0,0,0,0,0,-1,965,1415,0,0
-252,-391,0,0,0,0,0,0,0,0,0,-1,972,1415,0,0
-245,-391,0,0,0,0,0,0,0,0,0,-1,979,1415,0,0
-238,-391,0,0,0,0,0,0,0,0,0,-1,986,1415,0,0
-231,-391,0,0,0,0,0,0,0,0,0,-1,993,1415,0,0
-224,-391,0,0,0,0,0,0,0,0,0,-1,1000,1415,0,0
-217,-391,0,0,0,0,0,0,0,0,0,-1,1007,1415,0,0
-210,-391,0,0,0,0,0,0,0,0,0,-1,1014,1415,0,0
-203,-391,0,0,0,0,0,0,0,0,0,-1,1021,1415,0,0
-196,-391,0,0,0,0,0,0,0,0,0,-1,1028,1415,0,0
-189,-391,0,0,0,0,0,0,0,0,0,-1,1035,1415,0,0
-182,-391,0,0,0,0,0,0,0,0,0,-1,1042,1415,0,0
-175,-391,0,0,0,0,0,0,0,0,0,-1,1049,1415,0,0
-168,-391,0,0,0,0,0,0,0,0,0,-1,1056,1415,0,0
-161,-391,0,0,0,0,0,0,0,0,0,-1,1063,1415,0,0
-154,-391,0,0,0,0,0,0,0,0,0,-1,1070,1415,0,0
-147,-391,0,0,0,0,0,0,0,0,0,-1,1077,1415,0,0
-140,-391,0,0,0,0,0,0,0,0,0,-1,1084,1415,0,0
-133,-391,0,0,0,0,0,0,0,0,0,-1,1091,1415,0,0
-126,-391,0,0,0,0,0,0,0,0,0,-1,1098,1415,0,0
-119,-391,0,0,0,0,0,0,0,0,0,-1,1105,1415,0,0
-112,-391,0,0,0,0,0,0,0,0,0,-1,1112,1415,0,0
-105,-391,0,0,0,0,0,0,0,0,0,-1,1119,1415,0,0
-98,-391,0,0,0,0,0,0,0,0,0,-1,1126,1415,0,0
-91,-391,0,0,0,0,0,0,0,0,0,-1,1133,1415,0,0
-84,-391,0,0,0,0,0,0,0,0,0,-1,1140,1415,0,0
-77,-391,0,0,0,0,0,0,0,0,0,-1,1147,1415,0,0
-70,-391,0,0,0,0,0,0,0,0,0,-1,1154,1415,0,0
-63,-391,0,0,0,0,0,0,0,0,0,-1,1161,1415,0,0
-56,-391,0,0,0,0,0,0,0,0,0,-1,1168,1415,0,0
-49,-391,0,0,0,0,0,0,0,0,0,-1,1175,1415,0,0
-42,-391,0,0,0,0,0,0,0,0,0,-1,1182,1415,0,0
-35,-391,0,0,0,0,0,0,0,0,0,-1,1189,1415,0,0
-28,-391,0,0,0,0,0,0,0,0,0,-1,1196,1415,0,0
-21,-391,0,0,0,0,0,0,0,0,0,-1,1203,1415,0,0
-14,-391,0,0,0,0,0,0,0,0,0,-1,1210,1415,0,0
-7,-391,0,0,0,0,0,0,0,0,0,-1,1217,1415,0,0
0,-391,0,0,0,0,0,0,0,0,0,-1,1224,1415,0,0
7,-391,0,0,0,0,0,0,0,0,0,-1,1231,1415,0,0
14,-391,0,0,0,0,0,0,0,0,0,-1,1238,1415,0,0
21,-391,0,0,0,0,0,0,0,0,0,-1,1245,1415,0,0
28,-391,0,0,0,0,0,0,0,0,0,-1,1252,1415,0,0
35,-391,0,0,0,0,0,0,0,0,0,-1,1259,1415,0,0
42,-391,0,0,0,0,0,0,0,0,0,-1,1266,1415,0,0
49,-391,0,0,0,0,0,0,0,0,0,-1,1273,1415,0,0
56,-391,0,0,0,0,0,0,0,0,0,-1,1280,1415,0,0
63,-391,0,0,0,0,0,0,0,0,0,-1,1287,1415,0,0
70,-391,0,0,0,0,0,0,0,0,0,-1,1294,1415,0,0
77,-391,0,0,0,0,0,0,0,0,0,-1,1301,1415,0,0
84,-391,0,0,0,0,0,0,0,0,0,-1,1308,1415,0,0
91,-391,0,0,0,0,0,0,0,0,0,-1,1315,1415,0,0
98,-391,0,0,0,0,0,0,0,0,0,-1,1322,1415,0,0
105,-391,0,0,0,0,0,0,0,0,0,-1,1329,1415,0,0
112,-391,0,0,0,0,0,0,0,0,0,-1,1336,1415,0,0
119,-391,0,0,0,0,0,0,0,0,0,-1,1343,1415,0,0
126,-391,0,0,0,0,0,0,0,0,0,-1,1350,1415,0,0
133,-391,0,0,0,0,0,0,0,0,0,-1,1357,1415,0,0
140,-391,0,0,0,0,0,0,0,0,0,-1,1364,1415,0,0
147,-391,0,0,0,0,0,0,0,0,0,-1,1371,1415,0,0
154,-391,0,0,0,0,0,0,0,0,0,-1,1378,1415,0,0
161,-391,0,0,0,0,0,0,0,0,0,-1,1385,1415,0,0
168,-391,0,0,0,0,0,0,0,0,0,-1,1392,1415,0,0
175,-391,0,0,0,0,0,0,0,0,0,-1,1399,1415,0,0
182,-391,0,0,0,0,0,0,0,0,0,-1,1406,1415,0,0
189,-391,0,0,0,0,0,0,0,0,0,-1,1413,1415,0,0
196,-391,0,0,0,0,0,0,0,0,0,-1,1420,1415,0,0
203,-391,0,0,0,0,0,0,0,0,0,-1,1427,1415,0,0
210,-391,0,0,0,0,0,0,0,0,0,-1,1434,1415,0,0
217,-391,0,0,0,0,0,0,0,0,0,-1,1441,1415,0,0
224,-391,0,0,0,0,0,0,0,0,0,-1,1448,1415,0,0
231,-391,0,0,0,0,0,0,0,0,0,-1,1455,1415,0,0
238,-391,0,0,0,0,0,0,0,0,0,-1,1462,1415,0,0
245,-391,0,0,0,0,0,0,0,0,0,-1,1469,1415,0,0
252,-391,0,0,0,0,0,0,0,0,0,-1,1476,1415,0,0
259,-391,0,0,0,0,0,0,0,0,0,-1,1483,1415,0,0
266,-391,0,0,0,0,0,0,0,0,0,-1,1490,1415,0,0
273,-391,0,0,0,0,0,0,0,0,0,-1,1497,1415,0,0
280,-391,0,0,0,0,0,0,0,0,0,-1,1504,1415,0,0
287,-391,0,0,0,0,0,0,0,0,0,-1,1511,1415,0,0
294,-391,0,0,0,0,0,0,0,0,0,-1,1518,1415,0,0
301,-391,0,0,0,0,0,0,0,0,0,-1,1525,1415,0,0
308,-391,0,0,0,0,0,0,0,0,0,-1,1532,1415,0,0
315,-391,0,0,0,0,0,0,0,0,0,-1,1539,1415,0,0
322,-391,0,0,0,0,0,0,0,0,0,-1,1546,1415,0,0
329,-391,0,0,0,0,0,0,0,0,0,-1,1553,1415,0,0
336,-391,0,0,0,0,0,0,0,0,0,-1,1560,1415,0,0
343,-391,0,0,0,0,0,0,0,0,0,-1,1567,1415,0,0
350,-391,0,0,0,0,0,0,0,0,0,-1,1574,1415,0,0
357,-391,0,0,0,0,0,0,0,0,0,-1,1581,1415,0,0
364,-391,0,0,0,0,0,0,0,0,0,-1,1588,1415,0,0
371,-391,0,0,0,0,0,0,0,0,0,-1,1595,1415,0,0
378,-391,0,0,0,0,0,0,0,0,0,-1,1602,1415,0,0
385,-391,0,0,0,0,0,0,0,0,0,-1,1609,1415,0,0
392,-391,0,0,0,0,0,0,0,0,0,-1,1616,1415,0,0
399,-391,0,0,0,0,0,0,0,0,0,-1,1623,1415,0,0
406,-391,0,0,0,0,0,0,0,0,0,-1,1630,1415,0,0
413,-391,0,0,0,0,0,0,0,0,0,-1,1637,1415,0,0
420,-391,0,0,0,0,0,0,0,0,0,-1,1644,1415,0,0
427,-391,0,0,0,0,0,0,0,0,0,-1,1651,1415,0,0
434,-391,0,0,0,0,0,0,0,0,0,-1,1658,1415,0,0
441,-391,0,0,0,0,0,0,0,0,0,-1,1665,1415,0,0
448,-391,0,0,0,0,0,0,0,0,0,-1,1672,1415,0,0
455,-391,0,0,0,0,0,0,0,0,0,-1,1679,1415,0,0
462,-391,0,0,0,0,0,0,0,0,0,-1,1686,1415,0,0
469,-391,0,0,0,0,0,0,0,0,0,-1,1693,1415,0,0
476,-391,0,0,0,0,0,0,0,0,0,-1,1700,1415,0,0
483,-391,0,0,0,0,0,0,0,0,0,-1,1707,1415,0,0
490,-391,0,0,0,0,0,0,0,0,0,-1,1714,1415,0,0
497,-391,0,0,0,0,0,0,0,0,0,-1,1721,1415,0,0
504,-391,0,0,0,0,0,0,0,0,0,-1,1728,1415,0,0
511,-391,0,0,0,0,0,0,0,0,0,-1,1735,1415,0,0
518,-391,0,0,0,0,0,0,0,0,0,-1,1742,1415,0,0
525,-391,0,0,0,0,0,0,0,0,0,-1,1749,1415,0,0
532,-391,9.33533,1.44128,0,0,0,0,0,0,0,-1,1756,1415,9.33528,-1.44132
539,-391,9.89307,0.0421143,0,0,0,0,0,0,0,-1,1763,1415,9.89309,-0.0420902
546,-391,10.1688,0.25769,0.046214,0.0926404,0.077531,0.150359,-0.0115043,0.930854,0.104286,0.0493654,1770,1415,10.1688,-0.257651
553,-391,10.4854,0.466553,0.0295156,0.065608,0.0838249,0.133307,-0.0381837,0.891422,0.103964,0.0464459,1777,1415,10.4853,-0.466576
560,-391,10.8026,0.670166,0,0,0,0,0,0,0,-1,1784,1415,10.8026,-0.670109
567,-391,10.408,0.30188,0,0,0,0,0,0,0,-1,1791,1415,10.408,-0.30192
574,-391,10.4883,0.811035,0,0,0,0,0,0,0,-1,1798,1415,10.4882,-0.811006
581,-391,10.4678,1.69238,0,0,0,0,0,0,0,-1,1805,1415,10.4678,-1.69234
588,-391,10.2775,2.42542,0,0,0,0,0,0,0,-1,1812,1415,10.2775,-2.42538
595,-391,8.26733,1.59595,0,0,0,0,0,0,0,-1,1819,1415,8.26738,-1.59591
602,-391,8.31274,2.31506,0,0,0,0,0,0,0,-1,1826,1415,8.31271,-2.31511
609,-391,8.28394,3.16028,-0.0197454,-0.00863184,0.0263062,0.0126981,-0.0410753,0.889485,0.0324551,0.0435973,1833,1415,8.28398,-3.16028
616,-391,8.19263,3.85059,-0.0165825,-0.00770774,0.0194081,0.00776384,-0.032054,0.897783,0.024373,0.0306837,1840,1415,8.19266,-3.85062
623,-391,8.07825,3.8374,-0.0128177,-0.00617103,0.0136914,0.00459456,-0.0235833,0.904462,0.0174565,0.0165922,1847,1415,8.07824,-3.83743
630,-391,8.07813,3.7157,-0.00926586,-0.00459445,0.00931306,0.00267133,-0.0165316,0.908263,0.012011,0.0153531,1854,1415,8.07812,-3.71565
637,-391,8.0752,3.63403,-0.00665865,-0.00343898,0.00614413,0.00130271,-0.0114003,0.913524,0.00806959,0.0143766,1861,1415,8.07522,-3.63398
644,-391,8.07361,3.53601,-0.00452237,-0.00237643,0.00398698,0.000679427,-0.00757824,0.916843,0.00529319,0.0148141,1868,1415,8.07357,-3.53596
651,-391,8.07483,3.41626,-0.00249531,-0.00230769,0.00224096,-0.000158575,-0.00464442,0.806316,0.0030448,0.0150787,1875,1415,8.07482,-3.41621
658,-391,8.06128,3.31055,-0.000546439,-0.00254676,0.00117202,-5.83194e-06,-0.00308736,0.432177,0.0020563,0.0129652,1882,1415,8.06131,-3.31053
665,-391,8.07727,3.20874,0.0015542,-0.00312769,-0.000349499,0.00158014,-0.00315364,-0.0741017,0.00278292,0.0103732,1889,1415,8.07724,-3.20871
672,-391,8.09875,3.09741,0.00429351,-0.00442231,-0.00177099,0.00463962,-0.00476842,-0.192999,0.0054319,0.0112316,1896,1415,8.09874,-3.09747
679,-391,8.09265,3.00061,0.00809693,-0.00650132,-0.00288382,0.00864597,-0.00705036,-0.188134,0.00907787,0.0113087,1903,1415,8.09268,-3.00055
686,-391,8.08826,2.88562,0.0129597,-0.00938251,-0.00442745,0.0138051,-0.0102279,-0.188669,0.0139266,0.0121607,1910,1415,8.0882,-2.88562
693,-391,8.08667,2.85889,0.0184846,-0.0133129,-0.00604287,0.0195943,-0.0144225,-0.181611,0.0197151,0.0247053,1917,1415,8.08664,-2.85884
700,-391,8.11719,3.09045,0,0,0,0,0,0,0,-1,1924,1415,8.11718,-3.09046
707,-391,8.44092,3.07922,0,0,0,0,0,0,0,-1,1931,1415,8.44097,-3.07918
714,-391,8.76477,3.06787,0,0,0,0,0,0,0,-1,1938,1415,8.76475,-3.06791
721,-391,9.34082,3.40564,0,0,0,0,0,0,0,-1,1945,1415,9.34084,-3.40563
728,-391,10.1492,3.03723,0,0,0,0,0,0,0,-1,1952,1415,10.1492,-3.03722
735,-391,0,0,0,0,0,0,0,0,0,-1,1959,1415,0,0
742,-391,0,0,0,0,0,0,0,0,0,-1,1966,1415,0,0
749,-391,0,0,0,0,0,0,0,0,0,-1,1973,1415,0,0
756,-391,0,0,0,0,0,0,0,0,0,-1,1980,1415,0,0
763,-391,0,0,0,0,0,0,0,0,0,-1,1987,1415,0,0
770,-391,0,0,0,0,0,0,0,0,0,-1,1994,1415,0,0
777,-391,0,0,0,0,0,0,0,0,0,-1,2001,1415,0,0
784,-391,0,0,0,0,0,0,0,0,0,-1,2008,1415,0,0
791,-391,0,0,0,0,0,0,0,0,0,-1,2015,1415,0,0
798,-391,0,0,0,0,0,0,0,0,0,-1,2022,1415,0,0
805,-391,0,0,0,0,0,0,0,0,0,-1,2029,1415,0,0
812,-391,0,0,0,0,0,0,0,0,0,-1,2036,1415,0,0
-700,-398,0,0,0,0,0,0,0,0,0,-1,524,1422,0,0
-693,-398,0,0,0,0,0,0,0,0,0,-1,531,1422,0,0
-686,-398,0,0,0,0,0,0,0,0,0,-1,538,1422,0,0
-679,-398,0,0,0,0,0,0,0,0,0,-1,545,1422,0,0
-672,-398,0,0,0,0,0,0,0,0,0,-1,552,1422,0,0
-665,-398,0,0,0,0,0,0,0,0,0,-1,559,1422,0,0
-658,-398,0,0,0,0,0,0,0,0,0,-1,566,1422,0,0
-651,-398,0,0,0,0,0,0,0,0,0,-1,573,1422,0,0
-644,-398,0,0,0,0,0,0,0,0,0,-1,580,1422,0,0
-637,-398,0,0,0,0,0,0,0,0,0,-1,587,1422,0,0
-630,-398,0,0,0,0,0,0,0,0,0,-1,594,1422,0,0
-623,-398,0,0,0,0,0,0,0,0,0,-1,601,1422,0,0
-616,-398,0,0,0,0,0,0,0,0,0,-1,608,1422,0,0
-609,-398,-1.78363,-1.31091,0,0,0,0,0,0,0,-1,615,1422,-1.78365,1.31093
-602,-398,-3.0899,-1.0979,0,0,0,0,0,0,0,-1,622,1422,-3.0899,1.09786
-595,-398,-2.3606,-0.665771,0,0,0,0,0,0,0,-1,629,1422,-2.36062,0.665799
-588,-398,-1.87213,0.874268,0,0,0,0,0,0,0,-1,636,1422,-1.87215,-0.874273
-581,-398,-1.20496,1.62927,0.0694931,0.0479985,-0.00458386,0.0704298,0.0470618,-0.201576,0.0414226,0.0460758,643,1422,-1.20495,-1.62929
-574,-398,-0.268738,0.161743,0,0,0,0,0,0,0,-1,650,1422,-0.268762,-0.161685
-567,-398,-0.670532,0.737427,0.0392062,0.0247846,-0.00158453,0.0393783,0.0246126,-0.108153,0.0229708,0.0439069,657,1422,-0.670528,-0.737386
-560,-398,-1.09308,1.30603,0.0271394,0.0167057,-0.000760529,0.0271945,0.0166506,-0.072382,0.0158322,0.0382153,664,1422,-1.09308,-1.30604
-553,-398,-1.48016,1.75537,0.0180098,0.010783,-0.000206931,0.0180157,0.010777,-0.0286026,0.010468,0.0242958,671,1422,-1.48019,-1.75537
-546,-398,-1.5304,1.89246,0.0116234,0.00669089,0.000127169,0.0116267,0.00668761,0.0257588,0.00673795,0.0112018,678,1422,-1.53038,-1.89243
-539,-398,-1.52869,2.02283,0.00562397,0.00224905,0.000266327,0.00564486,0.00222816,0.078268,0.00328305,0.0120615,685,1422,-1.52867,-2.02278
-532,-398,-1.53345,2.13562,0.00186991,0.000304762,4.70975e-05,0.00187132,0.000303346,0.0300552,0.00115973,0.019955,692,1422,-1.53342,-2.13562
-525,-398,-1.53284,2.2749,0.000235562,6.24342e-05,9.70937e-06,0.000236105,6.18914e-05,0.0558487,0.000141363,0.0190894,699,1422,-1.53287,-2.27492
-518,-398,-1.52124,2.39368,-0.000414753,-0.000509402,-0.00077982,0.000319177,-0.00124333,-0.755092,0.000953261,0.017017,706,1422,-1.52122,-2.39368
-511,-398,-1.49811,2.50061,-0.000990831,-0.00139056,-0.00152886,0.000351171,-0.00273257,-0.720402,0.00194934,0.0132972,713,1422,-1.4981,-2.5006
-504,-398,-1.50439,2.63562,-0.00194702,-0.000753444,-0.00290272,0.0016132,-0.00431367,-0.886784,0.0035383,0.0129762,720,1422,-1.50441,-2.63566
-497,-398,-1.51788,2.75183,-0.00362734,0.000397099,-0.00501416,0.00378774,-0.00701798,-0.976215,0.00633092,0.0095789,727,1422,-1.5179,-2.75188
-490,-398,-1.51404,2.88159,-0.00560994,0.00333581,-0.00844672,0.00842085,-0.010695,-1.0289,0.0110625,0.00948626,734,1422,-1.51403,-2.88156
-483,-398,-1.46606,3.03967,-0.00750553,0.00802957,-0.0132203,0.0155953,-0.0150713,-1.051,0.0177063,0.0163338,741,1422,-1.46606,-3.03966
-476,-398,-1.5,3.06055,-0.00973704,0.0140679,-0.0188347,0.0244458,-0.0201149,-1.06719,0.0257677,0.0368645,748,1422,-1.50002,-3.06059
-469,-398,-1.50018,3.15576,-0.0123553,0.0226928,-0.0261923,0.0366827,-0.0263452,-1.08022,0.036552,0.0453326,755,1422,-1.50019,-3.15572
-462,-398,-1.49951,3.24634,0,0,0,0,0,0,0,-1,762,1422,-1.49949,-3.24629
-455,-398,-1.86029,3.26636,0,0,0,0,0,0,0,-1,769,1422,-1.86032,-3.26631
-448,-398,-2.34296,2.88257,-0.021997,0.0653691,-0.0597,0.095661,-0.052289,-1.10124,0.0866338,0.0413683,776,1422,-2.34297,-2.88255
-441,-398,-2.95306,2.51233,-0.0254415,0.0842426,-0.0744018,0.12183,-0.0630293,-1.103,0.108514,0.0478993,783,1422,-2.95305,-2.51227
-434,-398,-3.68542,1.9248,0,0,0,0,0,0,0,-1,790,1422,-3.68543,-1.92482
-427,-398,-4.57416,2.07874,0,0,0,0,0,0,0,-1,797,1422,-4.57417,-2.07879
-420,-398,-5.27423,1.91919,0,0,0,0,0,0,0,-1,804,1422,-5.27423,-1.91916
-413,-398,-3.21277,3.37427,0,0,0,0,0,0,0,-1,811,1422,-3.21278,-3.37428
-406,-398,0,0,0,0,0,0,0,0,0,-1,818,1422,0,0
-399,-398,0,0,0,0,0,0,0,0,0,-1,825,1422,0,0
-392,-398,0,0,0,0,0,0,0,0,0,-1,832,1422,0,0
-385,-398,0,0,0,0,0,0,0,0,0,-1,839,1422,0,0
-378,-398,0,0,0,0,0,0,0,0,0,-1,846,1422,0,0
-371,-398,0,0,0,0,0,0,0,0,0,-1,853,1422,0,0
-364,-398,0,0,0,0,0,0,0,0,0,-1,860,1422,0,0
-357,-398,0,0,0,0,0,0,0,0,0,-1,867,1422,0,0
-350,-398,0,0,0,0,0,0,0,0,0,-1,874,1422,0,0
-343,-398,0,0,0,0,0,0,0,0,0,-1,881,1422,0,0
-336,-398,0,0,0,0,0,0,0,0,0,-1,888,1422,0,0
-329,-398,0,0,0,0,0,0,0,0,0,-1,895,1422,0,0
-322,-398,0,0,0,0,0,0,0,0,0,-1,902,1422,0,0
-315,-398,0,0,0,0,0,0,0,0,0,-1,909,1422,0,0
-308,-398,0,0,0,0,0,0,0,0,0,-1,916,1422,0,0
-301,-398,0,0,0,0,0,0,0,0,0,-1,923,1422,0,0
-294,-398,0,0,0,0,0,0,0,0,0,-1,930,1422,0,0
-287,-398,0,0,0,0,0,0,0,0,0,-1,937,1422,0,0
-280,-398,0,0,0,0,0,0,0,0,0,-1,944,1422,0,0
-273,-398,0,0,0,0,0,0,0,0,0,-1,951,1422,0,0
-266,-398,0,0,0,0,0,0,0,0,0,-1,958,1422,0,0
-259,-398,0,0,0,0,0,0,0,0,0,-1,965,1422,0,0
-252,-398,0,0,0,0,0,0,0,0,0,-1,972,1422,0,0
-245,-398,0,0,0,0,0,0,0,0,0,-1,979,1422,0,0
-238,-398,0,0,0,0,0,0,0,0,0,-1,986,1422,0,0
-231,-398,0,0,0,0,0,0,0,0,0,-1,993,1422,0,0
-224,-398,0,0,0,0,0,0,0,0,0,-1,1000,1422,0,0
-217,-398,0,0,0,0,0,0,0,0,0,-1,1007,1422,0,0
-210,-398,0,0,0,0,0,0,0,0,0,-1,1014,1422,0,0
-203,-398,0,0,0,0,0,0,0,0,0,-1,1021,1422,0,0
-196,-398,0,0,0,0,0,0,0,0,0,-1,1028,1422,0,0
-189,-398,0,0,0,0,0,0,0,0,0,-1,1035,1422,0,0
-182,-398,0,0,0,0,0,0,0,0,0,-1,1042,1422,0,0
-175,-398,0,0,0,0,0,0,0,0,0,-1,1049,1422,0,0
-168,-398,0,0,0,0,0,0,0,0,0,-1,1056,1422,0,0
-161,-398,0,0,0,0,0,0,0,0,0,-1,1063,1422,0,0
-154,-398,0,0,0,0,0,0,0,0,0,-1,1070,1422,0,0
-147,-398,0,0,0,0,0,0,0,0,0,-1,1077,1422,0,0
-140,-398,0,0,0,0,0,0,0,0,0,-1,1084,1422,0,0
-133,-398,0,0,0,0,0,0,0,0,0,-1,1091,1422,0,0
-126,-398,0,0,0,0,0,0,0,0,0,-1,1098,1422,0,0
-119,-398,0,0,0,0,0,0,0,0,0,-1,1105,1422,0,0
-112,-398,0,0,0,0,0,0,0,0,0,-1,1112,1422,0,0
-105,-398,0,0,0,0,0,0,0,0,0,-1,1119,1422,0,0
-98,-398,0,0,0,0,0,0,0,0,0,-1,1126,1422,0,0
-91,-398,0,0,0,0,0,0,0,0,0,-1,1133,1422,0,0
-84,-398,0,0,0,0,0,0,0,0,0,-1,1140,1422,0,0
-77,-398,0,0,0,0,0,0,0,0,0,-1,1147,1422,0,0
-70,-398,0,0,0,0,0,0,0,0,0,-1,1154,1422,0,0
-63,-398,0,0,0,0,0,0,0,0,0,-1,1161,1422,0,0
-56,-398,0,0,0,0,0,0,0,0,0,-1,1168,1422,0,0
-49,-398,0,0,0,0,0,0,0,0,0,-1,1175,1422,0,0
-42,-398,0,0,0,0,0,0,0,0,0,-1,1182,1422,0,0
-35,-398,0,0,0,0,0,0,0,0,0,-1,1189,1422,0,0
-28,-398,0,0,0,0,0,0,0,0,0,-1,1196,1422,0,0
-21,-398,0,0,0,0,0,0,0,0,0,-1,1203,1422,0,0
-14,-398,0,0,0,0,0,0,0,0,0,-1,1210,1422,0,0
-7,-398,0,0,0,0,0,0,0,0,0,-1,1217,1422,0,0
0,-398,0,0,0,0,0,0,0,0,0,-1,1224,1422,0,0
7,-398,0,0,0,0,0,0,0,0,0,-1,1231,1422,0,0
14,-398,0,0,0,0,0,0,0,0,0,-1,1238,1422,0,0
21,-398,0,0,0,0,0,0,0,0,0,-1,1245,1422,0,0
28,-398,0,0,0,0,0,0,0,0,0,-1,1252,1422,0,0
35,-398,0,0,0,0,0,0,0,0,0,-1,1259,1422,0,0
42,-398,0,0,0,0,0,0,0,0,0,-1,1266,1422,0,0
49,-398,0,0,0,0,0,0,0,0,0,-1,1273,1422,0,0
56,-398,0,0,0,0,0,0,0,0,0,-1,1280,1422,0,0
63,-398,0,0,0,0,0,0,0,0,0,-1,1287,1422,0,0
70,-398,0,0,0,0,0,0,0,0,0,-1,1294,1422,0,0
77,-398,0,0,0,0,0,0,0,0,0,-1,1301,1422,0,0
84,-398,0,0,0,0,0,0,0,0,0,-1,1308,1422,0,0
91,-398,0,0,0,0,0,0,0,0,0,-1,1315,1422,0,0
98,-398,0,0,0,0,0,0,0,0,0,-1,1322,1422,0,0
105,-398,0,0,0,0,0,0,0,0,0,-1,1329,1422,0,0
112,-398,0,0,0,0,0,0,0,0,0,-1,1336,1422,0,0
119,-398,0,0,0,0,0,0,0,0,0,-1,1343,1422,0,0
126,-398,0,0,0,0,0,0,0,0,0,-1,1350,1422,0,0
133,-398,0,0,0,0,0,0,0,0,0,-1,1357,1422,0,0
140,-398,0,0,0,0,0,0,0,0,0,-1,1364,1422,0,0
147,-398,0,0,0,0,0,0,0,0,0,-1,1371,1422,0,0
154,-398,0,0,0,0,0,0,0,0,0,-1,1378,1422,0,0
161,-398,0,0,0,0,0,0,0,0,0,-1,1385,1422,0,0
168,-398,0,0,0,0,0,0,0,0,0,-1,1392,1422,0,0
175,-398,0,0,0,0,0,0,0,0,0,-1,1399,1422,0,0
182,-398,0,0,0,0,0,0,0,0,0,-1,1406,1422,0,0
189,-398,0,0,0,0,0,0,0,0,0,-1,1413,1422,0,0
196,-398,0,0,0,0,0,0,0,0,0,-1,1420,1422,0,0
203,-398,0,0,0,0,0,0,0,0,0,-1,1427,1422,0,0
210,-398,0,0,0,0,0,0,0,0,0,-1,1434,1422,0,0
217,-398,0,0,0,0,0,0,0,0,0,-1,1441,1422,0,0
224,-398,0,0,0,0,0,0,0,0,0,-1,1448,1422,0,0
231,-398,0,0,0,0,0,0,0,0,0,-1,1455,1422,0,0
238,-398,0,0,0,0,0,0,0,0,0,-1,1462,1422,0,0
245,-398,0,0,0,0,0,0,0,0,0,-1,1469,1422,0,0
252,-398,0,0,0,0,0,0,0,0,0,-1,1476,1422,0,0
259,-398,0,0,0,0,0,0,0,0,0,-1,1483,1422,0,0
266,-398,0,0,0,0,0,0,0,0,0,-1,1490,1422,0,0
273,-398,0,0,0,0,0,0,0,0,0,-1,1497,1422,0,0
280,-398,0,0,0,0,0,0,0,0,0,-1,1504,1422,0,0
287,-398,0,0,0,0,0,0,0,0,0,-1,1511,1422,0,0
294,-398,0,0,0,0,0,0,0,0,0,-1,1518,1422,0,0
301,-398,0,0,0,0,0,0,0,0,0,-1,1525,1422,0,0
308,-398,0,0,0,0,0,0,0,0,0,-1,1532,1422,0,0
315,-398,0,0,0,0,0,0,0,0,0,-1,1539,1422,0,0
322,-398,0,0,0,0,0,0,0,0,0,-1,1546,1422,0,0
329,-398,0,0,0,0,0,0,0,0,0,-1,1553,1422,0,0
336,-398,0,0,0,0,0,0,0,0,0,-1,1560,1422,0,0
343,-398,0,0,0,0,0,0,0,0,0,-1,1567,1422,0,0
350,-398,0,0,0,0,0,0,0,0,0,-1,1574,1422,0,0
357,-398,0,0,0,0,0,0,0,0,0,-1,1581,1422,0,0
364,-398,0,0,0,0,0,0,0,0,0,-1,1588,1422,0,0
371,-398,0,0,0,0,0,0,0,0,0,-1,1595,1422,0,0
378,-398,0,0,0,0,0,0,0,0,0,-1,1602,1422,0,0
385,-398,0,0,0,0,0,0,0,0,0,-1,1609,1422,0,0
392,-398,0,0,0,0,0,0,0,0,0,-1,1616,1422,0,0
399,-398,0,0,0,0,0,0,0,0,0,-1,1623,1422,0,0
406,-398,0,0,0,0,0,0,0,0,0,-1,1630,1422,0,0
413,-398,0,0,0,0,0,0,0,0,0,-1,1637,1422,0,0
420,-398,0,0,0,0,0,0,0,0,0,-1,1644,1422,0,0
427,-398,0,0,0,0,0,0,0,0,0,-1,1651,1422,0,0
434,-398,0,0,0,0,0,0,0,0,0,-1,1658,1422,0,0
441,-398,0,0,0,0,0,0,0,0,0,-1,1665,1422,0,0
448,-398,0,0,0,0,0,0,0,0,0,-1,1672,1422,0,0
455,-398,0,0,0,0,0,0,0,0,0,-1,1679,1422,0,0
462,-398,0,0,0,0,0,0,0,0,0,-1,1686,1422,0,0
469,-398,0,0,0,0,0,0,0,0,0,-1,1693,1422,0,0
476,-398,0,0,0,0,0,0,0,0,0,-1,1700,1422,0,0
483,-398,0,0,0,0,0,0,0,0,0,-1,1707,1422,0,0
490,-398,0,0,0,0,0,0,0,0,0,-1,1714,1422,0,0
497,-398,0,0,0,0,0,0,0,0,0,-1,1721,1422,0,0
504,-398,0,0,0,0,0,0,0,0,0,-1,1728,1422,0,0
511,-398,0,0,0,0,0,0,0,0,0,-1,1735,1422,0,0
518,-398,0,0,0,0,0,0,0,0,0,-1,1742,1422,0,0
525,-398,0,0,0,0,0,0,0,0,0,-1,1749,1422,0,0
532,-398,8.77051,1.94336,0,0,0,0,0,0,0,-1,1756,1422,8.77045,-1.9433
539,-398,9.5271,-1.04871,0,0,0,0,0,0,0,-1,1763,1422,9.52715,1.0487
546,-398,9.84033,-0.564819,0.0353319,0.0849252,0.0685492,0.133025,-0.0127677,0.958943,0.093231,0.047616,1770,1422,9.8403,0.564762
553,-398,10.1635,-0.0931396,0.0213879,0.0568328,0.0805812,0.121617,-0.0433967,0.893641,0.0987744,0.0439826,1777,1422,10.1634,0.0931609
560,-398,10.417,0.598999,0.00725986,0.0378384,0.0802635,0.104256,-0.0591576,0.879515,0.0955369,0.0451352,1784,1422,10.417,-0.598945
567,-398,10.9257,1.09802,-0.00377022,0.0229388,0.0757296,0.0864824,-0.0673138,0.872673,0.0890239,0.0427877,1791,1422,10.9257,-1.09807
574,-398,10.599,1.7395,-0.0116181,0.0115861,0.0688746,0.069829,-0.069861,0.868841,0.0806501,0.043544,1798,1422,10.599,-1.73948
581,-398,10.0892,2.47095,-0.0167965,0.00357464,0.0606056,0.0548446,-0.0680665,0.868652,0.0710995,0.0436024,1805,1422,10.0892,-2.4709
588,-398,9.77991,3.16016,-0.0194892,-0.00180436,0.0515956,0.041701,-0.0629946,0.870263,0.0608613,0.0480658,1812,1422,9.77995,-3.16015
595,-398,9.48584,3.88733,0,0,0,0,0,0,0,-1,1819,1422,9.48584,-3.88739
602,-398,8.68799,4.14636,0,0,0,0,0,0,0,-1,1826,1422,8.68795,-4.1464
609,-398,8.03271,3.78027,-0.0179662,-0.00858425,0.0268536,0.013985,-0.0405355,0.871869,0.0326979,0.0368865,1833,1422,8.03275,-3.78022
616,-398,7.9917,3.95349,-0.014855,-0.00749626,0.0198962,0.00905791,-0.0314091,0.876829,0.0245228,0.016152,1840,1422,7.99168,-3.95355
623,-398,7.95093,3.85938,-0.0112598,-0.00584521,0.0140798,0.0057852,-0.0228902,0.88038,0.01751,0.0110853,1847,1422,7.95095,-3.85941
630,-398,7.96741,3.7406,-0.00793187,-0.00423855,0.00955383,0.00364545,-0.0158159,0.880866,0.0119459,0.0113718,1854,1422,7.96738,-3.74057
637,-398,7.97644,3.63208,-0.00558672,-0.00314645,0.00619231,0.00194478,-0.010678,0.882672,0.00784764,0.0125222,1861,1422,7.97646,-3.63206
644,-398,7.92871,3.52063,-0.00360804,-0.00213881,0.00382291,0.00101943,-0.00676628,0.880322,0.00488624,0.0188516,1868,1422,7.92876,-3.52062
651,-398,7.98315,3.42468,-0.00157993,-0.00229194,0.00174211,-0.000157822,-0.00371405,0.684609,0.00242514,0.0250785,1875,1422,7.98314,-3.42473
658,-398,7.98962,3.34448,0.000311978,-0.00273214,0.000367183,0.000355641,-0.0027758,0.118359,0.00197976,0.0170094,1882,1422,7.98962,-3.34444
665,-398,7.95996,3.22156,0.00244157,-0.00360696,-0.00147698,0.00278296,-0.00394836,-0.227153,0.00390569,0.0120408,1889,1422,7.95997,-3.22151
672,-398,7.97485,3.10718,0.00539796,-0.0053522,-0.00334303,0.00635276,-0.006307,-0.278202,0.00730913,0.0119704,1896,1422,7.9748,-3.10723
679,-398,7.98621,2.99377,0.0096544,-0.0080608,-0.00511054,0.011023,-0.00942937,-0.261655,0.0118201,0.0109606,1903,1422,7.98616,-2.99377
686,-398,7.99951,2.88403,0.015293,-0.0116824,-0.0075979,0.0172859,-0.0136752,-0.256506,0.0179158,0.0165246,1910,1422,7.9995,-2.88403
693,-398,7.91174,2.97729,0.0221833,-0.0165174,-0.0105321,0.0248639,-0.019198,-0.249223,0.0255091,0.0390811,1917,1422,7.91177,-2.97731
700,-398,7.8573,3.08484,0,0,0,0,0,0,0,-1,1924,1422,7.8573,-3.08479
707,-398,8.47034,3.30957,0,0,0,0,0,0,0,-1,1931,1422,8.47035,-3.30952
714,-398,7.05786,4.02783,0,0,0,0,0,0,0,-1,1938,1422,7.05788,-4.02779
721,-398,9.06262,4.06287,0,0,0,0,0,0,0,-1,1945,1422,9.06261,-4.06292
728,-398,9.66663,0.810547,0,0,0,0,0,0,0,-1,1952,1422,9.66667,-0.810506
735,-398,0,0,0,0,0,0,0,0,0,-1,1959,1422,0,0
742,-398,0,0,0,0,0,0,0,0,0,-1,1966,1422,0,0
749,-398,0,0,0,0,0,0,0,0,0,-1,1973,1422,0,0
756,-398,0,0,0,0,0,0,0,0,0,-1,1980,1422,0,0
763,-398,0,0,0,0,0,0,0,0,0,-1,1987,1422,0,0
770,-398,0,0,0,0,0,0,0,0,0,-1,1994,1422,0,0
777,-398,0,0,0,0,0,0,0,0,0,-1,2001,1422,0,0
784,-398,0,0,0,0,0,0,0,0,0,-1,2008,1422,0,0
791,-398,0,0,0,0,0,0,0,0,0,-1,2015,1422,0,0
798,-398,0,0,0,0,0,0,0,0,0,-1,2022,1422,0,0
805,-398,0,0,0,0,0,0,0,0,0,-1,2029,1422,0,0
812,-398,0,0,0,0,0,0,0,0,0,-1,2036,1422,0,0
-700,-405,0,0,0,0,0,0,0,0,0,-1,524,1429,0,0
-693,-405,0,0,0,0,0,0,0,0,0,-1,531,1429,0,0
-686,-405,0,0,0,0,0,0,0,0,0,-1,538,1429,0,0
-679,-405,0,0,0,0,0,0,0,0,0,-1,545,1429,0,0
-672,-405,0,0,0,0,0,0,0,0,0,-1,552,1429,0,0
-665,-405,0,0,0,0,0,0,0,0,0,-1,559,1429,0,0
-658,-405,0,0,0,0,0,0,0,0,0,-1,566,1429,0,0
-651,-405,0,0,0,0,0,0,0,0,0,-1,573,1429,0,0
-644,-405,0,0,0,0,0,0,0,0,0,-1,580,1429,0,0
-637,-405,0,0,0,0,0,0,0,0,0,-1,587,1429,0,0
-630,-405,0,0,0,0,0,0,0,0,0,-1,594,1429,0,0
-623,-405,0,0,0,0,0,0,0,0,0,-1,601,1429,0,0
-616,-405,0,0,0,0,0,0,0,0,0,-1,608,1429,0,0
-609,-405,0,0,0,0,0,0,0,0,0,-1,615,1429,0,0
-602,-405,-3.06696,-1.60571,0,0,0,0,0,0,0,-1,622,1429,-3.06697,1.60577
-595,-405,-2.16455,-1.21411,0.129612,0.094228,-0.00726544,0.131046,0.0927942,-0.194832,0.077813,0.0492069,629,1429,-2.16453,1.21413
-588,-405,-0.952393,-1.07251,0.107317,0.0739984,-0.00475678,0.107983,0.0733326,-0.139067,0.0636633,0.0489433,636,1429,-0.952398,1.07254
-581,-405,-0.962524,1.6228,0,0,0,0,0,0,0,-1,643,1429,-0.962537,-1.62284
-574,-405,0.00811768,0.293945,0,0,0,0,0,0,0,-1,650,1429,0.00812748,-0.293897
-567,-405,-0.453918,0.706543,0,0,0,0,0,0,0,-1,657,1429,-0.45391,-0.706596
-560,-405,-0.824158,1.20605,0,0,0,0,0,0,0,-1,664,1429,-0.824182,-1.20609
-553,-405,-1.30524,1.70264,0.0237376,0.0125972,0.00133901,0.0238963,0.0124385,0.117956,0.0138004,0.0359236,671,1429,-1.30524,-1.70259
-546,-405,-1.40393,1.87,0.015757,0.0078006,0.00147387,0.0160212,0.00753635,0.177404,0.00925527,0.0157323,678,1429,-1.40393,-1.86994
-539,-405,-1.41028,1.99902,0.00842563,0.00271309,0.00148504,0.00878862,0.0023501,0.239729,0.00525394,0.0104423,685,1429,-1.41026,-1.99901
-532,-405,-1.40619,2.12341,0.00368841,0.000469513,0.00107242,0.00401297,0.00014495,0.293883,0.00262833,0.0140741,692,1429,-1.40621,-2.12343
-525,-405,-1.40472,2.28247,0.00156285,0.000357438,0.00088612,0.00203181,-0.00011152,0.486754,0.0013932,0.0146544,699,1429,-1.40473,-2.28242
-518,-405,-1.36993,2.40918,0.000553191,-0.000178602,-6.20473e-05,0.000558414,-0.000183825,-0.0839891,0.000446353,0.0159345,706,1429,-1.36994,-2.4092
-511,-405,-1.39166,2.49902,-0.000278298,-0.00100564,-0.000932077,0.000358543,-0.00164248,-0.599395,0.00123202,0.0155426,713,1429,-1.39167,-2.49897
-504,-405,-1.40778,2.62,-0.00143022,-0.00077966,-0.00222371,0.00114244,-0.00335232,-0.858022,0.00269757,0.0162554,720,1429,-1.4078,-2.61999
-497,-405,-1.39203,2.7605,-0.00325594,-0.000373517,-0.00406386,0.00249712,-0.00612658,-0.9558,0.00512377,0.0137495,727,1429,-1.39202,-2.76044
-490,-405,-1.39209,2.88208,-0.00530311,0.00105751,-0.00672927,0.00532015,-0.00956575,-1.00615,0.00871011,0.0120862,734,1429,-1.39206,-2.88206
-483,-405,-1.37927,3.01746,-0.00720422,0.00358397,-0.0103772,0.00988526,-0.0135055,-1.02508,0.0135585,0.00980789,741,1429,-1.37925,-3.0174
-476,-405,-1.4021,3.15442,-0.00941268,0.00687926,-0.0145893,0.0154427,-0.0179762,-1.04001,0.0193129,0.022634,748,1429,-1.40211,-3.15443
-469,-405,-1.44147,3.17114,-0.0120312,0.0119035,-0.0200343,0.0232726,-0.0234003,-1.05463,0.0269466,0.0365929,755,1429,-1.44145,-3.1711
-462,-405,-1.37079,3.15515,-0.0150053,0.0188332,-0.0268927,0.0336863,-0.0298584,-1.06618,0.0367097,0.0412044,762,1429,-1.37082,-3.15509
-455,-405,-1.55432,3.2998,-0.0182584,0.0278829,-0.0352165,0.0469128,-0.0372883,-1.07538,0.0487193,0.042409,769,1429,-1.55434,-3.29983
-448,-405,-1.71552,3.37769,-0.021639,0.0391274,-0.0449716,0.0630174,-0.045529,-1.08248,0.0629399,0.0465039,776,1429,-1.71552,-3.37768
-441,-405,-2.89142,3.44836,0,0,0,0,0,0,0,-1,783,1429,-2.89144,-3.44831
-434,-405,-2.76917,2.82507,0,0,0,0,0,0,0,-1,790,1429,-2.76916,-2.82512
-427,-405,-3.72668,2.99243,0,0,0,0,0,0,0,-1,797,1429,-3.7267,-2.99237
-420,-405,-4.34088,3.03638,0,0,0,0,0,0,0,-1,804,1429,-4.3409,-3.03641
-413,-405,-5.03845,3.15222,0,0,0,0,0,0,0,-1,811,1429,-5.03843,-3.15223
-406,-405,-4.26294,4.57898,0,0,0,0,0,0,0,-1,818,1429,-4.26293,-4.57903
-399,-405,0,0,0,0,0,0,0,0,0,-1,825,1429,0,0
-392,-405,0,0,0,0,0,0,0,0,0,-1,832,1429,0,0
-385,-405,0,0,0,0,0,0,0,0,0,-1,839,1429,0,0
-378,-405,0,0,0,0,0,0,0,0,0,-1,846,1429,0,0
-371,-405,0,0,0,0,0,0,0,0,0,-1,853,1429,0,0
-364,-405,0,0,0,0,0,0,0,0,0,-1,860,1429,0,0
-357,-405,0,0,0,0,0,0,0,0,0,-1,867,1429,0,0
-350,-405,0,0,0,0,0,0,0,0,0,-1,874,1429,0,0
-343,-405,0,0,0,0,0,0,0,0,0,-1,881,1429,0,0
-336,-405,0,0,0,0,0,0,0,0,0,-1,888,1429,0,0
-329,-405,0,0,0,0,0,0,0,0,0,-1,895,1429,0,0
-322,-405,0,0,0,0,0,0,0,0,0,-1,902,1429,0,0
-315,-405,0,0,0,0,0,0,0,0,0,-1,909,1429,0,0
-308,-405,0,0,0,0,0,0,0,0,0,-1,916,1429,0,0
-301,-405,0,0,0,0,0,0,0,0,0,-1,923,1429,0,0
-294,-405,0,0,0,0,0,0,0,0,0,-1,930,1429,0,0
-287,-405,0,0,0,0,0,0,0,0,0,-1,937,1429,0,0
-280,-405,0,0,0,0,0,0,0,0,0,-1,944,1429,0,0
-273,-405,0,0,0,0,0,0,0,0,0,-1,951,1429,0,0
-266,-405,0,0,0,0,0,0,0,0,0,-1,958,1429,0,0
-259,-405,0,0,0,0,0,0,0,0,0,-1,965,1429,0,0
-252,-405,0,0,0,0,0,0,0,0,0,-1,972,1429,0,0
-245,-405,0,0,0,0,0,0,0,0,0,-1,979,1429,0,0
-238,-405,0,0,0,0,0,0,0,0,0,-1,986,1429,0,0
-231,-405,0,0,0,0,0,0,0,0,0,-1,993,1429,0,0
-224,-405,0,0,0,0,0,0,0,0,0,-1,1000,1429,0,0
-217,-405,0,0,0,0,0,0,0,0,0,-1,1007,1429,0,0
-210,-405,0,0,0,0,0,0,0,0,0,-1,1014,1429,0,0
-203,-405,0,0,0,0,0,0,0,0,0,-1,1021,1429,0,0
-196,-405,0,0,0,0,0,0,0,0,0,-1,1028,1429,0,0
-189,-405,0,0,0,0,0,0,0,0,0,-1,1035,1429,0,0
-182,-405,0,0,0,0,0,0,0,0,0,-1,1042,1429,0,0
-175,-405,0,0,0,0,0,0,0,0,0,-1,1049,1429,0,0
-168,-405,0,0,0,0,0,0,0,0,0,-1,1056,1429,0,0
-161,-405,0,0,0,0,0,0,0,0,0,-1,1063,1429,0,0
-154,-405,0,0,0,0,0,0,0,0,0,-1,1070,1429,0,0
-147,-405,0,0,0,0,0,0,0,0,0,-1,1077,1429,0,0
-140,-405,0,0,0,0,0,0,0,0,0,-1,1084,1429,0,0
-133,-405,0,0,0,0,0,0,0,0,0,-1,1091,1429,0,0
-126,-405,0,0,0,0,0,0,0,0,0,-1,1098,1429,0,0
-119,-405,0,0,0,0,0,0,0,0,0,-1,1105,1429,0,0
-112,-405,0,0,0,0,0,0,0,0,0,-1,1112,1429,0,0
-105,-405,0,0,0,0,0,0,0,0,0,-1,1119,1429,0,0
-98,-405,0,0,0,0,0,0,0,0,0,-1,1126,1429,0,0
-91,-405,0,0,0,0,0,0,0,0,0,-1,1133,1429,0,0
-84,-405,0,0,0,0,0,0,0,0,0,-1,1140,1429,0,0
-77,-405,0,0,0,0,0,0,0,0,0,-1,1147,1429,0,0
-70,-405,0,0,0,0,0,0,0,0,0,-1,1154,1429,0,0
-63,-405,0,0,0,0,0,0,0,0,0,-1,1161,1429,0,0
-56,-405,0,0,0,0,0,0,0,0,0,-1,1168,1429,0,0
-49,-405,0,0,0,0,0,0,0,0,0,-1,1175,1429,0,0
-42,-405,0,0,0,0,0,0,0,0,0,-1,1182,1429,0,0
-35,-405,0,0,0,0,0,0,0,0,0,-1,1189,1429,0,0
-28,-405,0,0,0,0,0,0,0,0,0,-1,1196,1429,0,0
-21,-405,0,0,0,0,0,0,0,0,0,-1,1203,1429,0,0
-14,-405,0,0,0,0,0,0,0,0,0,-1,1210,1429,0,0
-7,-405,0,0,0,0,0,0,0,0,0,-1,1217,1429,0,0
0,-405,0,0,0,0,0,0,0,0,0,-1,1224,1429,0,0
7,-405,0,0,0,0,0,0,0,0,0,-1,1231,1429,0,0
14,-405,0,0,0,0,0,0,0,0,0,-1,1238,1429,0,0
21,-405,0,0,0,0,0,0,0,0,0,-1,1245,1429,0,0
28,-405,0,0,0,0,0,0,0,0,0,-1,1252,1429,0,0
35,-405,0,0,0,0,0,0,0,0,0,-1,1259,1429,0,0
42,-405,0,0,0,0,0,0,0,0,0,-1,1266,1429,0,0
49,-405,0,0,0,0,0,0,0,0,0,-1,1273,1429,0,0
56,-405,0,0,0,0,0,0,0,0,0,-1,1280,1429,0,0
63,-405,0,0,0,0,0,0,0,0,0,-1,1287,1429,0,0
70,-405,0,0,0,0,0,0,0,0,0,-1,1294,1429,0,0
77,-405,0,0,0,0,0,0,0,0,0,-1,1301,1429,0,0
84,-405,0,0,0,0,0,0,0,0,0,-1,1308,1429,0,0
91,-405,0,0,0,0,0,0,0,0,0,-1,1315,1429,0,0
98,-405,0,0,0,0,0,0,0,0,0,-1,1322,1429,0,0
105,-405,0,0,0,0,0,0,0,0,0,-1,1329,1429,0,0
112,-405,0,0,0,0,0,0,0,0,0,-1,1336,1429,0,0
119,-405,0,0,0,0,0,0,0,0,0,-1,1343,1429,0,0
126,-405,0,0,0,0,0,0,0,0,0,-1,1350,1429,0,0
133,-405,0,0,0,0,0,0,0,0,0,-1,1357,1429,0,0
140,-405,0,0,0,0,0,0,0,0,0,-1,1364,1429,0,0
147,-405,0,0,0,0,0,0,0,0,0,-1,1371,1429,0,0
154,-405,0,0,0,0,0,0,0,0,0,-1,1378,1429,0,0
161,-405,0,0,0,0,0,0,0,0,0,-1,1385,1429,0,0
168,-405,0,0,0,0,0,0,0,0,0,-1,1392,1429,0,0
175,-405,0,0,0,0,0,0,0,0,0,-1,1399,1429,0,0
182,-405,0,0,0,0,0,0,0,0,0,-1,1406,1429,0,0
189,-405,0,0,0,0,0,0,0,0,0,-1,1413,1429,0,0
196,-405,0,0,0,0,0,0,0,0,0,-1,1420,1429,0,0
203,-405,0,0,0,0,0,0,0,0,0,-1,1427,1429,0,0
210,-405,0,0,0,0,0,0,0,0,0,-1,1434,1429,0,0
217,-405,0,0,0,0,0,0,0,0,0,-1,1441,1429,0,0
224,-405,0,0,0,0,0,0,0,0,0,-1,1448,1429,0,0
231,-405,0,0,0,0,0,0,0,0,0,-1,1455,1429,0,0
238,-405,0,0,0,0,0,0,0,0,0,-1,1462,1429,0,0
245,-405,0,0,0,0,0,0,0,0,0,-1,1469,1429,0,0
252,-405,0,0,0,0,0,0,0,0,0,-1,1476,1429,0,0
259,-405,0,0,0,0,0,0,0,0,0,-1,1483,1429,0,0
266,-405,0,0,0,0,0,0,0,0,0,-1,1490,1429,0,0
273,-405,0,0,0,0,0,0,0,0,0,-1,1497,1429,0,0
280,-405,0,0,0,0,0,0,0,0,0,-1,1504,1429,0,0
287,-405,0,0,0,0,0,0,0,0,0,-1,1511,1429,0,0
294,-405,0,0,0,0,0,0,0,0,0,-1,1518,1429,0,0
301,-405,0,0,0,0,0,0,0,0,0,-1,1525,1429,0,0
308,-405,0,0,0,0,0,0,0,0,0,-1,1532,1429,0,0
315,-405,0,0,0,0,0,0,0,0,0,-1,1539,1429,0,0
322,-405,0,0,0,0,0,0,0,0,0,-1,1546,1429,0,0
329,-405,0,0,0,0,0,0,0,0,0,-1,1553,1429,0,0
336,-405,0,0,0,0,0,0,0,0,0,-1,1560,1429,0,0
343,-405,0,0,0,0,0,0,0,0,0,-1,1567,1429,0,0
350,-405,0,0,0,0,0,0,0,0,0,-1,1574,1429,0,0
357,-405,0,0,0,0,0,0,0,0,0,-1,1581,1429,0,0
364,-405,0,0,0,0,0,0,0,0,0,-1,1588,1429,0,0
371,-405,0,0,0,0,0,0,0,0,0,-1,1595,1429,0,0
378,-405,0,0,0,0,0,0,0,0,0,-1,1602,1429,0,0
385,-405,0,0,0,0,0,0,0,0,0,-1,1609,1429,0,0
392,-405,0,0,0,0,0,0,0,0,0,-1,1616,1429,0,0
399,-405,0,0,0,0,0,0,0,0,0,-1,1623,1429,0,0
406,-405,0,0,0,0,0,0,0,0,0,-1,1630,1429,0,0
413,-405,0,0,0,0,0,0,0,0,0,-1,1637,1429,0,0
420,-405,0,0,0,0,0,0,0,0,0,-1,1644,1429,0,0
427,-405,0,0,0,0,0,0,0,0,0,-1,1651,1429,0,0
434,-405,0,0,0,0,0,0,0,0,0,-1,1658,1429,0,0
441,-405,0,0,0,0,0,0,0,0,0,-1,1665,1429,0,0
448,-405,0,0,0,0,0,0,0,0,0,-1,1672,1429,0,0
455,-405,0,0,0,0,0,0,0,0,0,-1,1679,1429,0,0
462,-405,0,0,0,0,0,0,0,0,0,-1,1686,1429,0,0
469,-405,0,0,0,0,0,0,0,0,0,-1,1693,1429,0,0
476,-405,0,0,0,0,0,0,0,0,0,-1,1700,1429,0,0
483,-405,0,0,0,0,0,0,0,0,0,-1,1707,1429,0,0
490,-405,0,0,0,0,0,0,0,0,0,-1,1714,1429,0,0
497,-405,0,0,0,0,0,0,0,0,0,-1,1721,1429,0,0
504,-405,0,0,0,0,0,0,0,0,0,-1,1728,1429,0,0
511,-405,0,0,0,0,0,0,0,0,0,-1,1735,1429,0,0
518,-405,0,0,0,0,0,0,0,0,0,-1,1742,1429,0,0
525,-405,9.5575,1.57031,0,0,0,0,0,0,0,-1,1749,1429,9.55751,-1.57032
532,-405,9.10876,2.55408,0,0,0,0,0,0,0,-1,1756,1429,9.10871,-2.5541
539,-405,8.9657,3.29761,0,0,0,0,0,0,0,-1,1763,1429,8.96574,-3.29756
546,-405,9.41443,-1.25073,0,0,0,0,0,0,0,-1,1770,1429,9.41443,1.25075
553,-405,9.89697,-0.249146,0,0,0,0,0,0,0,-1,1777,1429,9.89695,0.249131
560,-405,9.85266,0.508667,0.000757084,0.0301344,0.0748301,0.0917038,-0.0608123,0.882313,0.0886553,0.0444181,1784,1429,9.85263,-0.508609
567,-405,9.78223,1.19971,-0.00822531,0.0166746,0.0714917,0.0767923,-0.068343,0.871606,0.0838412,0.0447736,1791,1429,9.78218,-1.19972
574,-405,9.36682,1.87805,-0.014367,0.00683449,0.065332,0.0624201,-0.0699527,0.865827,0.0764667,0.0444678,1798,1429,9.36679,-1.8781
581,-405,9.31799,2.78589,-0.0179469,9.92877e-05,0.0574665,0.0492468,-0.0670944,0.86327,0.0674326,0.0431314,1805,1429,9.31796,-2.78588
588,-405,9.17126,3.604,-0.0193757,-0.00415643,0.0488104,0.0376339,-0.061166,0.862727,0.057579,0.0449649,1812,1429,9.17126,-3.60395
595,-405,9.05615,4.12842,-0.018994,-0.00642485,0.0401068,0.0278868,-0.0533056,0.863114,0.047636,0.0460318,1819,1429,9.05609,-4.12848
602,-405,8.36548,4.18909,-0.0182465,-0.00870222,0.032399,0.0192742,-0.0462229,0.858519,0.038867,0.0371879,1826,1429,8.36549,-4.18906
609,-405,7.89575,4.104,0,0,0,0,0,0,0,-1,1833,1429,7.8958,-4.10395
616,-405,7.85034,3.98755,-0.0131271,-0.00755595,0.0184929,0.00836003,-0.029043,0.86015,0.0226685,0.00930835,1840,1429,7.85039,-3.98756
623,-405,7.83813,3.87024,-0.00978386,-0.00583624,0.0129967,0.00533564,-0.0209557,0.860758,0.0160475,0.00933927,1847,1429,7.83814,-3.87028
630,-405,7.85876,3.73828,-0.00675862,-0.0042381,0.00869557,0.00328806,-0.0142848,0.857363,0.0107876,0.00972687,1854,1429,7.85877,-3.73829
637,-405,7.87268,3.62512,-0.00472836,-0.00320746,0.00543403,0.00151907,-0.00945489,0.854918,0.00686586,0.00983748,1861,1429,7.87268,-3.62512
644,-405,7.82593,3.48645,-0.00292678,-0.0022281,0.00306011,0.000502549,-0.00565743,0.842232,0.00394981,0.0271495,1868,1429,7.82595,-3.48651
651,-405,7.802,3.40063,-0.000878915,-0.00255934,0.000770569,-0.000579069,-0.00285918,0.371095,0.00174542,0.0315516,1875,1429,7.80196,-3.40069
658,-405,7.83594,3.34363,0.000980557,-0.00315824,-0.000840793,0.00114484,-0.00332253,-0.192962,0.00267944,0.0206757,1882,1429,7.83598,-3.34366
665,-405,7.85278,3.21143,0.00321331,-0.00432845,-0.00300026,0.00426126,-0.00537639,-0.336038,0.0055767,0.0170056,1889,1429,7.85272,-3.21143
672,-405,7.86011,3.10205,0.00649937,-0.00652535,-0.00542109,0.00846044,-0.00848642,-0.347103,0.00978428,0.0208134,1896,1429,7.86006,-3.10208
679,-405,7.88489,2.96411,0.0113821,-0.00989144,-0.00812392,0.0141296,-0.012639,-0.326125,0.0154628,0.0192742,1903,1429,7.88483,-2.96405
686,-405,7.83679,2.83032,0.0181085,-0.0143787,-0.0119912,0.0220551,-0.0183253,-0.317957,0.0233468,0.0297662,1910,1429,7.83684,-2.83038
693,-405,7.45898,2.92932,0.0271269,-0.0202605,-0.0168897,0.0325305,-0.0256641,-0.309644,0.0336766,0.0465414,1917,1429,7.45897,-2.92936
700,-405,7.10583,2.89441,0,0,0,0,0,0,0,-1,1924,1429,7.10579,-2.89444
707,-405,7.40308,3.83191,0,0,0,0,0,0,0,-1,1931,1429,7.40311,-3.83194
714,-405,7.33252,3.47388,0,0,0,0,0,0,0,-1,1938,1429,7.33255,-3.47383
721,-405,9.23523,0.993896,0,0,0,0,0,0,0,-1,1945,1429,9.23523,-0.993884
728,-405,0,0,0,0,0,0,0,0,0,-1,1952,1429,0,0
735,-405,0,0,0,0,0,0,0,0,0,-1,1959,1429,0,0
742,-405,0,0,0,0,0,0,0,0,0,-1,1966,1429,0,0
749,-405,0,0,0,0,0,0,0,0,0,-1,1973,1429,0,0
756,-405,0,0,0,0,0,0,0,0,0,-1,1980,1429,0,0
763,-405,0,0,0,0,0,0,0,0,0,-1,1987,1429,0,0
770,-405,0,0,0,0,0,0,0,0,0,-1,1994,1429,0,0
777,-405,0,0,0,0,0,0,0,0,0,-1,2001,1429,0,0
784,-405,0,0,0,0,0,0,0,0,0,-1,2008,1429,0,0
791,-405,0,0,0,0,0,0,0,0,0,-1,2015,1429,0,0
798,-405,0,0,0,0,0,0,0,0,0,-1,2022,1429,0,0
805,-405,0,0,0,0,0,0,0,0,0,-1,2029,1429,0,0
812,-405,0,0,0,0,0,0,0,0,0,-1,2036,1429,0,0
-700,-412,0,0,0,0,0,0,0,0,0,-1,524,1436,0,0
-693,-412,0,0,0,0,0,0,0,0,0,-1,531,1436,0,0
-686,-412,0,0,0,0,0,0,0,0,0,-1,538,1436,0,0
-679,-412,0,0,0,0,0,0,0,0,0,-1,545,1436,0,0
-672,-412,0,0,0,0,0,0,0,0,0,-1,552,1436,0,0
-665,-412,0,0,0,0,0,0,0,0,0,-1,559,1436,0,0
-658,-412,0,0,0,0,0,0,0,0,0,-1,566,1436,0,0
-651,-412,0,0,0,0,0,0,0,0,0,-1,573,1436,0,0
-644,-412,0,0,0,0,0,0,0,0,0,-1,580,1436,0,0
-637,-412,0,0,0,0,0,0,0,0,0,-1,587,1436,0,0
-630,-412,0,0,0,0,0,0,0,0,0,-1,594,1436,0,0
-623,-412,0,0,0,0,0,0,0,0,0,-1,601,1436,0,0
-616,-412,0,0,0,0,0,0,0,0,0,-1,608,1436,0,0
-609,-412,0,0,0,0,0,0,0,0,0,-1,615,1436,0,0
-602,-412,-2.5661,-2.60291,0,0,0,0,0,0,0,-1,622,1436,-2.56609,2.60293
-595,-412,-1.64655,-2.24573,0.154133,0.109211,-0.0054305,0.15478,0.108564,-0.118613,0.0917471,0.0497894,629,1436,-1.64657,2.24578
-588,-412,-0.713379,-1.93298,0.127527,0.0848491,-0.00239333,0.127661,0.0847153,-0.0558451,0.0750087,0.0498808,636,1436,-0.713359,1.93298
-581,-412,0.149597,-1.98853,0,0,0,0,0,0,0,-1,643,1436,0.149579,1.98847
-574,-412,2.00122,0.435669,0,0,0,0,0,0,0,-1,650,1436,2.00119,-0.435635
-567,-412,-0.382751,0.623291,0,0,0,0,0,0,0,-1,657,1436,-0.382775,-0.623297
-560,-412,-1.5332,1.60669,0.0438661,0.0222552,0.00335856,0.044376,0.0217453,0.150677,0.0256222,0.0470989,664,1436,-1.53322,-1.60673
-553,-412,-1.31873,1.84729,0.0308206,0.0143105,0.00351963,0.0315396,0.0135915,0.201511,0.0182672,0.0405348,671,1436,-1.31873,-1.84727
-546,-412,-1.23151,1.94983,0.0210662,0.00887734,0.00334364,0.0219231,0.00802037,0.250899,0.0128083,0.0256784,678,1436,-1.23153,-1.94981
-539,-412,-1.28595,1.98474,0.0122456,0.00320888,0.00311438,0.013215,0.00223953,0.301744,0.00816649,0.0123124,685,1436,-1.28597,-1.98473
-532,-412,-1.27942,2.10986,0.00631796,0.000691169,0.00243123,0.0072229,-0.000213775,0.356329,0.00488809,0.0130645,692,1436,-1.2794,-2.10983
-525,-412,-1.27545,2.25891,0.0035068,0.00068145,0.00199451,0.00453825,-0.000349998,0.477267,0.00314866,0.015027,699,1436,-1.27543,-2.25886
-518,-412,-1.24762,2.40527,0.00203402,0.000226156,0.000906937,0.00241057,-0.000150392,0.393528,0.00165945,0.0159137,706,1436,-1.24759,-2.40531
-511,-412,-1.28046,2.5072,0.00090473,-0.000502842,-5.41655e-05,0.000906812,-0.000504923,-0.0384058,0.000826001,0.0180333,713,1436,-1.28043,-2.50715
-504,-412,-1.30823,2.63098,-0.000412283,-0.000716592,-0.00117271,0.000618107,-0.00174698,-0.720886,0.00141638,0.0171831,720,1436,-1.3082,-2.63092
-497,-412,-1.28918,2.78076,-0.00234691,-0.00111519,-0.00261722,0.000957659,-0.00441975,-0.900952,0.0033122,0.0134621,727,1436,-1.2892,-2.78079
-490,-412,-1.26575,2.90283,-0.00437282,-0.00127315,-0.00436367,0.00180774,-0.00745371,-0.956034,0.00566864,0.011706,734,1436,-1.26576,-2.90283
-483,-412,-1.25568,3.00208,-0.00610829,-0.000890984,-0.00677134,0.00375681,-0.0107561,-0.969261,0.00869778,0.00821629,741,1436,-1.25566,-3.00204
-476,-412,-1.23248,3.16919,-0.00813196,-0.000380159,-0.00943027,0.00593965,-0.0144518,-0.980377,0.0121101,0.0138447,748,1436,-1.23246,-3.16919
-469,-412,-1.24463,3.24695,-0.0106483,0.00089455,-0.0128212,0.00918341,-0.0189371,-0.996886,0.0165577,0.022933,755,1436,-1.2446,-3.24692
-462,-412,-1.26849,3.29529,-0.0136193,0.0029832,-0.017148,0.0137336,-0.0243697,-1.01082,0.0222828,0.0354089,762,1436,-1.26849,-3.2953
-455,-412,-1.42108,3.46509,-0.0169923,0.0062055,-0.022523,0.0199408,-0.0307275,-1.02318,0.0294735,0.0436903,769,1436,-1.42108,-3.46508
-448,-412,-1.59967,3.69092,-0.0206438,0.0108626,-0.0290112,0.0281217,-0.0379029,-1.03413,0.0382585,0.04661,776,1436,-1.59966,-3.69087
-441,-412,-1.97925,3.59949,0,0,0,0,0,0,0,-1,783,1436,-1.97923,-3.59949
-434,-412,-2.23492,3.1947,0,0,0,0,0,0,0,-1,790,1436,-2.23493,-3.19466
-427,-412,-1.87207,2.71692,0,0,0,0,0,0,0,-1,797,1436,-1.87204,-2.71688
-420,-412,-2.35724,3.54688,0,0,0,0,0,0,0,-1,804,1436,-2.35723,-3.54692
-413,-412,-2.34644,3.73303,0,0,0,0,0,0,0,-1,811,1436,-2.34642,-3.73301
-406,-412,-4.38068,5.15979,0,0,0,0,0,0,0,-1,818,1436,-4.38066,-5.1598
-399,-412,-3.28802,1.53503,0,0,0,0,0,0,0,-1,825,1436,-3.28802,-1.53506
-392,-412,0,0,0,0,0,0,0,0,0,-1,832,1436,0,0
-385,-412,0,0,0,0,0,0,0,0,0,-1,839,1436,0,0
-378,-412,0,0,0,0,0,0,0,0,0,-1,846,1436,0,0
-371,-412,0,0,0,0,0,0,0,0,0,-1,853,1436,0,0
-364,-412,0,0,0,0,0,0,0,0,0,-1,860,1436,0,0
-357,-412,0,0,0,0,0,0,0,0,0,-1,867,1436,0,0
-350,-412,0,0,0,0,0,0,0,0,0,-1,874,1436,0,0
-343,-412,0,0,0,0,0,0,0,0,0,-1,881,1436,0,0
-336,-412,0,0,0,0,0,0,0,0,0,-1,888,1436,0,0
-329,-412,0,0,0,0,0,0,0,0,0,-1,895,1436,0,0
-322,-412,0,0,0,0,0,0,0,0,0,-1,902,1436,0,0
-315,-412,0,0,0,0,0,0,0,0,0,-1,909,1436,0,0
-308,-412,0,0,0,0,0,0,0,0,0,-1,916,1436,0,0
-301,-412,0,0,0,0,0,0,0,0,0,-1,923,1436,0,0
-294,-412,0,0,0,0,0,0,0,0,0,-1,930,1436,0,0
-287,-412,0,0,0,0,0,0,0,0,0,-1,937,1436,0,0
-280,-412,0,0,0,0,0,0,0,0,0,-1,944,1436,0,0
-273,-412,0,0,0,0,0,0,0,0,0,-1,951,1436,0,0
-266,-412,0,0,0,0,0,0,0,0,0,-1,958,1436,0,0
-259,-412,0,0,0,0,0,0,0,0,0,-1,965,1436,0,0
-252,-412,0,0,0,0,0,0,0,0,0,-1,972,1436,0,0
-245,-412,0,0,0,0,0,0,0,0,0,-1,979,1436,0,0
-238,-412,0,0,0,0,0,0,0,0,0,-1,986,1436,0,0
-231,-412,0,0,0,0,0,0,0,0,0,-1,993,1436,0,0
-224,-412,0,0,0,0,0,0,0,0,0,-1,1000,1436,0,0
-217,-412,0,0,0,0,0,0,0,0,0,-1,1007,1436,0,0
-210,-412,0,0,0,0,0,0,0,0,0,-1,1014,1436,0,0
-203,-412,0,0,0,0,0,0,0,0,0,-1,1021,1436,0,0
-196,-412,0,0,0,0,0,0,0,0,0,-1,1028,1436,0,0
-189,-412,0,0,0,0,0,0,0,0,0,-1,1035,1436,0,0
-182,-412,0,0,0,0,0,0,0,0,0,-1,1042,1436,0,0
-175,-412,0,0,0,0,0,0,0,0,0,-1,1049,1436,0,0
-168,-412,0,0,0,0,0,0,0,0,0,-1,1056,1436,0,0
-161,-412,0,0,0,0,0,0,0,0,0,-1,1063,1436,0,0
-154,-412,0,0,0,0,0,0,0,0,0,-1,1070,1436,0,0
-147,-412,0,0,0,0,0,0,0,0,0,-1,1077,1436,0,0
-140,-412,0,0,0,0,0,0,0,0,0,-1,1084,1436,0,0
-133,-412,0,0,0,0,0,0,0,0,0,-1,1091,1436,0,0
-126,-412,0,0,0,0,0,0,0,0,0,-1,1098,1436,0,0
-119,-412,0,0,0,0,0,0,0,0,0,-1,1105,1436,0,0
-112,-412,0,0,0,0,0,0,0,0,0,-1,1112,1436,0,0
-105,-412,0,0,0,0,0,0,0,0,0,-1,1119,1436,0,0
-98,-412,0,0,0,0,0,0,0,0,0,-1,1126,1436,0,0
-91,-412,0,0,0,0,0,0,0,0,0,-1,1133,1436,0,0
-84,-412,0,0,0,0,0,0,0,0,0,-1,1140,1436,0,0
-77,-412,0,0,0,0,0,0,0,0,0,-1,1147,1436,0,0
-70,-412,0,0,0,0,0,0,0,0,0,-1,1154,1436,0,0
-63,-412,0,0,0,0,0,0,0,0,0,-1,1161,1436,0,0
-56,-412,0,0,0,0,0,0,0,0,0,-1,1168,1436,0,0
-49,-412,0,0,0,0,0,0,0,0,0,-1,1175,1436,0,0
-42,-412,0,0,0,0,0,0,0,0,0,-1,1182,1436,0,0
-35,-412,0,0,0,0,0,0,0,0,0,-1,1189,1436,0,0
-28,-412,0,0,0,0,0,0,0,0,0,-1,1196,1436,0,0
-21,-412,0,0,0,0,0,0,0,0,0,-1,1203,1436,0,0
-14,-412,0,0,0,0,0,0,0,0,0,-1,1210,1436,0,0
-7,-412,0,0,0,0,0,0,0,0,0,-1,1217,1436,0,0
0,-412,0,0,0,0,0,0,0,0,0,-1,1224,1436,0,0
7,-412,0,0,0,0,0,0,0,0,0,-1,1231,1436,0,0
14,-412,0,0,0,0,0,0,0,0,0,-1,1238,1436,0,0
21,-412,0,0,0,0,0,0,0,0,0,-1,1245,1436,0,0
28,-412,0,0,0,0,0,0,0,0,0,-1,1252,1436,0,0
35,-412,0,0,0,0,0,0,0,0,0,-1,1259,1436,0,0
42,-412,0,0,0,0,0,0,0,0,0,-1,1266,1436,0,0
49,-412,0,0,0,0,0,0,0,0,0,-1,1273,1436,0,0
56,-412,0,0,0,0,0,0,0,0,0,-1,1280,1436,0,0
63,-412,0,0,0,0,0,0,0,0,0,-1,1287,1436,0,0
70,-412,0,0,0,0,0,0,0,0,0,-1,1294,1436,0,0
77,-412,0,0,0,0,0,0,0,0,0,-1,1301,1436,0,0
84,-412,0,0,0,0,0,0,0,0,0,-1,1308,1436,0,0
91,-412,0,0,0,0,0,0,0,0,0,-1,1315,1436,0,0
98,-412,0,0,0,0,0,0,0,0,0,-1,1322,1436,0,0
105,-412,0,0,0,0,0,0,0,0,0,-1,1329,1436,0,0
112,-412,0,0,0,0,0,0,0,0,0,-1,1336,1436,0,0
119,-412,0,0,0,0,0,0,0,0,0,-1,1343,1436,0,0
126,-412,0,0,0,0,0,0,0,0,0,-1,1350,1436,0,0
133,-412,0,0,0,0,0,0,0,0,0,-1,1357,1436,0,0
140,-412,0,0,0,0,0,0,0,0,0,-1,1364,1436,0,0
147,-412,0,0,0,0,0,0,0,0,0,-1,1371,1436,0,0
154,-412,0,0,0,0,0,0,0,0,0,-1,1378,1436,0,0
161,-412,0,0,0,0,0,0,0,0,0,-1,1385,1436,0,0
168,-412,0,0,0,0,0,0,0,0,0,-1,1392,1436,0,0
175,-412,0,0,0,0,0,0,0,0,0,-1,1399,1436,0,0
182,-412,0,0,0,0,0,0,0,0,0,-1,1406,1436,0,0
189,-412,0,0,0,0,0,0,0,0,0,-1,1413,1436,0,0
196,-412,0,0,0,0,0,0,0,0,0,-1,1420,1436,0,0
203,-412,0,0,0,0,0,0,0,0,0,-1,1427,1436,0,0
210,-412,0,0,0,0,0,0,0,0,0,-1,1434,1436,0,0
217,-412,0,0,0,0,0,0,0,0,0,-1,1441,1436,0,0
224,-412,0,0,0,0,0,0,0,0,0,-1,1448,1436,0,0
231,-412,0,0,0,0,0,0,0,0,0,-1,1455,1436,0,0
238,-412,0,0,0,0,0,0,0,0,0,-1,1462,1436,0,0
245,-412,0,0,0,0,0,0,0,0,0,-1,1469,1436,0,0
252,-412,0,0,0,0,0,0,0,0,0,-1,1476,1436,0,0
259,-412,0,0,0,0,0,0,0,0,0,-1,1483,1436,0,0
266,-412,0,0,0,0,0,0,0,0,0,-1,1490,1436,0,0
273,-412,0,0,0,0,0,0,0,0,0,-1,1497,1436,0,0
280,-412,0,0,0,0,0,0,0,0,0,-1,1504,1436,0,0
287,-412,0,0,0,0,0,0,0,0,0,-1,1511,1436,0,0
294,-412,0,0,0,0,0,0,0,0,0,-1,1518,1436,0,0
301,-412,0,0,0,0,0,0,0,0,0,-1,1525,1436,0,0
308,-412,0,0,0,0,0,0,0,0,0,-1,1532,1436,0,0
315,-412,0,0,0,0,0,0,0,0,0,-1,1539,1436,0,0
322,-412,0,0,0,0,0,0,0,0,0,-1,1546,1436,0,0
329,-412,0,0,0,0,0,0,0,0,0,-1,1553,1436,0,0
336,-412,0,0,0,0,0,0,0,0,0,-1,1560,1436,0,0
343,-412,0,0,0,0,0,0,0,0,0,-1,1567,1436,0,0
350,-412,0,0,0,0,0,0,0,0,0,-1,1574,1436,0,0
357,-412,0,0,0,0,0,0,0,0,0,-1,1581,1436,0,0
364,-412,0,0,0,0,0,0,0,0,0,-1,1588,1436,0,0
371,-412,0,0,0,0,0,0,0,0,0,-1,1595,1436,0,0
378,-412,0,0,0,0,0,0,0,0,0,-1,1602,1436,0,0
385,-412,0,0,0,0,0,0,0,0,0,-1,1609,1436,0,0
392,-412,0,0,0,0,0,0,0,0,0,-1,1616,1436,0,0
399,-412,0,0,0,0,0,0,0,0,0,-1,1623,1436,0,0
406,-412,0,0,0,0,0,0,0,0,0,-1,1630,1436,0,0
413,-412,0,0,0,0,0,0,0,0,0,-1,1637,1436,0,0
420,-412,0,0,0,0,0,0,0,0,0,-1,1644,1436,0,0
427,-412,0,0,0,0,0,0,0,0,0,-1,1651,1436,0,0
434,-412,0,0,0,0,0,0,0,0,0,-1,1658,1436,0,0
441,-412,0,0,0,0,0,0,0,0,0,-1,1665,1436,0,0
448,-412,0,0,0,0,0,0,0,0,0,-1,1672,1436,0,0
455,-412,0,0,0,0,0,0,0,0,0,-1,1679,1436,0,0
462,-412,0,0,0,0,0,0,0,0,0,-1,1686,1436,0,0
469,-412,0,0,0,0,0,0,0,0,0,-1,1693,1436,0,0
476,-412,0,0,0,0,0,0,0,0,0,-1,1700,1436,0,0
483,-412,0,0,0,0,0,0,0,0,0,-1,1707,1436,0,0
490,-412,0,0,0,0,0,0,0,0,0,-1,1714,1436,0,0
497,-412,0,0,0,0,0,0,0,0,0,-1,1721,1436,0,0
504,-412,0,0,0,0,0,0,0,0,0,-1,1728,1436,0,0
511,-412,0,0,0,0,0,0,0,0,0,-1,1735,1436,0,0
518,-412,6.61182,4.17822,0,0,0,0,0,0,0,-1,1742,1436,6.61182,-4.17821
525,-412,9.99048,2.36035,0,0,0,0,0,0,0,-1,1749,1436,9.99048,-2.3604
532,-412,9.30872,3.47961,0,0,0,0,0,0,0,-1,1756,1436,9.30877,-3.4796
539,-412,9.51404,3.82092,0,0,0,0,0,0,0,-1,1763,1436,9.51406,-3.82094
546,-412,8.97034,3.7439,0,0,0,0,0,0,0,-1,1770,1436,8.97038,-3.74391
553,-412,10.7908,3.6814,0,0,0,0,0,0,0,-1,1777,1436,10.7907,-3.68136
560,-412,9.24194,0.299805,0,0,0,0,0,0,0,-1,1784,1436,9.24191,-0.29986
567,-412,9.47217,0.724976,0,0,0,0,0,0,0,-1,1791,1436,9.47214,-0.724939
574,-412,9.12512,1.69397,-0.0159653,0.00295396,0.0593728,0.053616,-0.0666274,0.864397,0.0695579,0.0408755,1798,1436,9.12513,-1.69398
581,-412,8.81262,2.84692,-0.0182255,-0.00253577,0.052277,0.0424816,-0.063243,0.859874,0.0614312,0.0396526,1805,1436,8.81264,-2.84692
588,-412,8.81177,3.88599,-0.018641,-0.00578351,0.0443632,0.0326143,-0.0570389,0.857353,0.0523977,0.04336,1812,1436,8.81178,-3.88598
595,-412,8.31885,4.24194,-0.0176323,-0.00731204,0.0363715,0.0242636,-0.0492079,0.855864,0.043226,0.0432203,1819,1436,8.31881,-4.2419
602,-412,7.88342,4.22778,-0.0164273,-0.00881469,0.0292253,0.0168511,-0.0420932,0.850154,0.0350562,0.0235088,1826,1436,7.88342,-4.22783
609,-412,7.74768,4.1106,-0.0141837,-0.00848888,0.0225123,0.0113554,-0.034028,0.848305,0.0272703,0.00853058,1833,1436,7.7477,-4.11063
616,-412,7.72314,3.99023,-0.0113798,-0.00727817,0.0164542,0.00725258,-0.0259105,0.847397,0.0201315,0.00753709,1840,1436,7.72318,-3.99029
623,-412,7.73071,3.86963,-0.00834655,-0.00553223,0.0114359,0.00458273,-0.0184615,0.846614,0.014086,0.00923797,1847,1436,7.73067,-3.86967
630,-412,7.74902,3.73206,-0.00568049,-0.00399346,0.00749695,0.00270728,-0.0123812,0.84142,0.00928903,0.011262,1854,1436,7.74897,-3.73203
637,-412,7.76624,3.60278,-0.00401133,-0.0030666,0.0044378,0.000923906,-0.00800183,0.838419,0.00566768,0.0122148,1861,1436,7.76618,-3.60276
644,-412,7.75745,3.51929,-0.00241017,-0.00216998,0.00210263,-0.000184023,-0.00439613,0.813926,0.00287138,0.0133408,1868,1436,7.7574,-3.51924
651,-412,7.72876,3.40869,-0.000329705,-0.00272386,-0.000402325,-0.000263905,-0.00278966,-0.162114,0.00177835,0.0240886,1875,1436,7.7287,-3.40867
658,-412,7.75403,3.30615,0.00153908,-0.00352726,-0.00229156,0.00242179,-0.00440996,-0.367681,0.0039996,0.016348,1882,1436,7.75398,-3.3062
665,-412,7.75354,3.19666,0.00398152,-0.00506675,-0.00485291,0.00609203,-0.00717726,-0.410223,0.00766957,0.0218488,1889,1436,7.75351,-3.19669
672,-412,7.76257,3.09961,0.00773097,-0.00779046,-0.00802567,0.0111345,-0.011194,-0.40109,0.0128914,0.0254087,1896,1436,7.7626,-3.0996
679,-412,7.8147,3.00293,0.0134497,-0.0118698,-0.0119875,0.0182247,-0.0166448,-0.379064,0.0201388,0.0313306,1903,1436,7.81472,-3.00297
686,-412,7.59131,2.94446,0.0215407,-0.0172987,-0.0177083,0.0284023,-0.0241604,-0.369669,0.03038,0.0482069,1910,1436,7.59127,-2.94447
693,-412,7.32471,2.86438,0,0,0,0,0,0,0,-1,1917,1436,7.32471,-2.86437
700,-412,5.6781,-1.14246,0,0,0,0,0,0,0,-1,1924,1436,5.67809,1.14241
707,-412,4.61316,-1.65405,0,0,0,0,0,0,0,-1,1931,1436,4.61312,1.6541
714,-412,4.77283,-2.39832,0,0,0,0,0,0,0,-1,1938,1436,4.77288,2.39835
721,-412,0,0,0,0,0,0,0,0,0,-1,1945,1436,0,0
728,-412,0,0,0,0,0,0,0,0,0,-1,1952,1436,0,0
735,-412,0,0,0,0,0,0,0,0,0,-1,1959,1436,0,0
742,-412,0,0,0,0,0,0,0,0,0,-1,1966,1436,0,0
749,-412,0,0,0,0,0,0,0,0,0,-1,1973,1436,0,0
756,-412,0,0,0,0,0,0,0,0,0,-1,1980,1436,0,0
763,-412,0,0,0,0,0,0,0,0,0,-1,1987,1436,0,0
770,-412,0,0,0,0,0,0,0,0,0,-1,1994,1436,0,0
777,-412,0,0,0,0,0,0,0,0,0,-1,2001,1436,0,0
784,-412,0,0,0,0,0,0,0,0,0,-1,2008,1436,0,0
791,-412,0,0,0,0,0,0,0,0,0,-1,2015,1436,0,0
798,-412,0,0,0,0,0,0,0,0,0,-1,2022,1436,0,0
805,-412,0,0,0,0,0,0,0,0,0,-1,2029,1436,0,0
812,-412,0,0,0,0,0,0,0,0,0,-1,2036,1436,0,0
-700,-419,0,0,0,0,0,0,0,0,0,-1,524,1443,0,0
-693,-419,0,0,0,0,0,0,0,0,0,-1,531,1443,0,0
-686,-419,0,0,0,0,0,0,0,0,0,-1,538,1443,0,0
-679,-419,0,0,0,0,0,0,0,0,0,-1,545,1443,0,0
-672,-419,0,0,0,0,0,0,0,0,0,-1,552,1443,0,0
-665,-419,0,0,0,0,0,0,0,0,0,-1,559,1443,0,0
-658,-419,0,0,0,0,0,0,0,0,0,-1,566,1443,0,0
-651,-419,0,0,0,0,0,0,0,0,0,-1,573,1443,0,0
-644,-419,0,0,0,0,0,0,0,0,0,-1,580,1443,0,0
-637,-419,0,0,0,0,0,0,0,0,0,-1,587,1443,0,0
-630,-419,0,0,0,0,0,0,0,0,0,-1,594,1443,0,0
-623,-419,0,0,0,0,0,0,0,0,0,-1,601,1443,0,0
-616,-419,0,0,0,0,0,0,0,0,0,-1,608,1443,0,0
-609,-419,0,0,0,0,0,0,0,0,0,-1,615,1443,0,0
-602,-419,0,0,0,0,0,0,0,0,0,-1,622,1443,0,0
-595,-419,-1.39307,-3.07031,0.172756,0.122459,-0.00213056,0.172846,0.122369,-0.0422589,0.10263,0.0483282,629,1443,-1.39307,3.07027
-588,-419,-0.467957,-2.77954,0.144798,0.0946973,0.00124255,0.144829,0.0946665,0.0247809,0.0849226,0.0483245,636,1443,-0.467976,2.77949
-581,-419,0.460022,-2.50549,0,0,0,0,0,0,0,-1,643,1443,0.460008,2.5055
-574,-419,-3.19775,1.24023,0,0,0,0,0,0,0,-1,650,1443,-3.19777,-1.24021
-567,-419,-2.26263,1.49817,0,0,0,0,0,0,0,-1,657,1443,-2.26266,-1.49813
-560,-419,-1.51935,1.81372,0.05322,0.025582,0.00624487,0.0545655,0.0242364,0.212218,0.0315688,0.0445344,664,1443,-1.51934,-1.81369
-553,-419,-1.37079,2.10291,0.0381612,0.0167311,0.00601692,0.039735,0.0151573,0.255829,0.0231549,0.0414092,671,1443,-1.3708,-2.10292
-546,-419,-1.0871,2.02637,0.0265335,0.0106695,0.0053758,0.0281836,0.00901947,0.297813,0.0166195,0.0374743,678,1443,-1.08709,-2.02635
-539,-419,-1.07532,2.0011,0.0162517,0.00448144,0.00480817,0.0179662,0.00276702,0.342511,0.0111699,0.0248464,685,1443,-1.07532,-2.00114
-532,-419,-1.15857,2.11267,0.00915614,0.00171063,0.00375749,0.0107228,0.000144002,0.395021,0.007101,0.0125286,692,1443,-1.15856,-2.1127
-525,-419,-1.16492,2.25403,0.00563987,0.00176075,0.00298631,0.0072612,0.000139415,0.497392,0.004795,0.0122465,699,1443,-1.16493,-2.25407
-518,-419,-1.15814,2.39221,0.00365373,0.00131231,0.00173401,0.00457523,0.000390807,0.488474,0.00292859,0.0161893,706,1443,-1.15817,-2.39217
-511,-419,-1.14825,2.52661,0.0021874,0.000583104,0.000675431,0.0024339,0.000336612,0.349923,0.00152285,0.01857,713,1443,-1.14828,-2.52658
-504,-419,-1.16681,2.65503,0.000700569,2.10255e-05,-0.000333818,0.000837116,-0.000115521,-0.38828,0.000600301,0.0175149,720,1443,-1.16678,-2.65503
-497,-419,-1.16498,2.77478,-0.00130883,-0.000904761,-0.00151319,0.000419821,-0.00263341,-0.851764,0.00191098,0.0122385,727,1443,-1.16497,-2.77476
-490,-419,-1.14301,2.89819,-0.00326645,-0.00205763,-0.00261448,2.13976e-05,-0.00534548,-0.898992,0.00357081,0.0103724,734,1443,-1.14301,-2.89815
-483,-419,-1.13104,3.01147,-0.00480138,-0.0033134,-0.00393722,-5.04903e-05,-0.00806429,-0.878779,0.00535944,0.00905824,741,1443,-1.13105,-3.01149
-476,-419,-1.12946,3.13208,-0.00654232,-0.0047018,-0.00534814,-0.000195317,-0.0110488,-0.870599,0.00730163,0.00952449,748,1443,-1.12945,-3.13208
-469,-419,-1.10883,3.27197,-0.00875461,-0.00607042,-0.00702425,-0.000261195,-0.0145638,-0.879794,0.00962334,0.0132838,755,1443,-1.1088,-3.27192
-462,-419,-1.10999,3.40356,-0.0114203,-0.00754585,-0.00913429,-0.000145607,-0.0188205,-0.889891,0.0124988,0.0236481,762,1443,-1.11,-3.40354
-455,-419,-1.23987,3.45056,-0.0145308,-0.00896659,-0.0118039,0.000378638,-0.023876,-0.901133,0.016045,0.0388046,769,1443,-1.23988,-3.45061
-448,-419,-1.45868,3.41956,-0.0180729,-0.0102053,-0.0150014,0.00136945,-0.0296477,-0.913625,0.0202371,0.0465082,776,1443,-1.45869,-3.41952
-441,-419,-1.6004,3.61084,-0.0218118,-0.0109236,-0.0188713,0.00327317,-0.0360086,-0.925828,0.0251678,0.045456,783,1443,-1.6004,-3.61089
-434,-419,-1.82819,3.48132,-0.0255303,-0.010639,-0.0235288,0.00659413,-0.0427634,-0.938637,0.0309421,0.0455636,790,1443,-1.82821,-3.48129
-427,-419,-1.59027,3.23694,0,0,0,0,0,0,0,-1,797,1443,-1.59026,-3.23697
-420,-419,0.521301,0.928589,0,0,0,0,0,0,0,-1,804,1443,0.521288,-0.928611
-413,-419,-3.22369,4.04431,0,0,0,0,0,0,0,-1,811,1443,-3.22372,-4.04437
-406,-419,-3.85529,5.42542,0,0,0,0,0,0,0,-1,818,1443,-3.85529,-5.42541
-399,-419,-2.21466,0.609131,0,0,0,0,0,0,0,-1,825,1443,-2.21463,-0.609137
-392,-419,0,0,0,0,0,0,0,0,0,-1,832,1443,0,0
-385,-419,0,0,0,0,0,0,0,0,0,-1,839,1443,0,0
-378,-419,0,0,0,0,0,0,0,0,0,-1,846,1443,0,0
-371,-419,0,0,0,0,0,0,0,0,0,-1,853,1443,0,0
-364,-419,0,0,0,0,0,0,0,0,0,-1,860,1443,0,0
-357,-419,0,0,0,0,0,0,0,0,0,-1,867,1443,0,0
-350,-419,0,0,0,0,0,0,0,0,0,-1,874,1443,0,0
-343,-419,0,0,0,0,0,0,0,0,0,-1,881,1443,0,0
-336,-419,0,0,0,0,0,0,0,0,0,-1,888,1443,0,0
-329,-419,0,0,0,0,0,0,0,0,0,-1,895,1443,0,0
-322,-419,0,0,0,0,0,0,0,0,0,-1,902,1443,0,0
-315,-419,0,0,0,0,0,0,0,0,0,-1,909,1443,0,0
-308,-419,0,0,0,0,0,0,0,0,0,-1,916,1443,0,0
-301,-419,0,0,0,0,0,0,0,0,0,-1,923,1443,0,0
-294,-419,0,0,0,0,0,0,0,0,0,-1,930,1443,0,0
-287,-419,0,0,0,0,0,0,0,0,0,-1,937,1443,0,0
-280,-419,0,0,0,0,0,0,0,0,0,-1,944,1443,0,0
-273,-419,0,0,0,0,0,0,0,0,0,-1,951,1443,0,0
-266,-419,0,0,0,0,0,0,0,0,0,-1,958,1443,0,0
-259,-419,0,0,0,0,0,0,0,0,0,-1,965,1443,0,0
-252,-419,0,0,0,0,0,0,0,0,0,-1,972,1443,0,0
-245,-419,0,0,0,0,0,0,0,0,0,-1,979,1443,0,0
-238,-419,0,0,0,0,0,0,0,0,0,-1,986,1443,0,0
-231,-419,0,0,0,0,0,0,0,0,0,-1,993,1443,0,0
-224,-419,0,0,0,0,0,0,0,0,0,-1,1000,1443,0,0
-217,-419,0,0,0,0,0,0,0,0,0,-1,1007,1443,0,0
-210,-419,0,0,0,0,0,0,0,0,0,-1,1014,1443,0,0
-203,-419,0,0,0,0,0,0,0,0,0,-1,1021,1443,0,0
-196,-419,0,0,0,0,0,0,0,0,0,-1,1028,1443,0,0
-189,-419,0,0,0,0,0,0,0,0,0,-1,1035,1443,0,0
-182,-419,0,0,0,0,0,0,0,0,0,-1,1042,1443,0,0
-175,-419,0,0,0,0,0,0,0,0,0,-1,1049,1443,0,0
-168,-419,0,0,0,0,0,0,0,0,0,-1,1056,1443,0,0
-161,-419,0,0,0,0,0,0,0,0,0,-1,1063,1443,0,0
-154,-419,0,0,0,0,0,0,0,0,0,-1,1070,1443,0,0
-147,-419,0,0,0,0,0,0,0,0,0,-1,1077,1443,0,0
-140,-419,0,0,0,0,0,0,0,0,0,-1,1084,1443,0,0
-133,-419,0,0,0,0,0,0,0,0,0,-1,1091,1443,0,0
-126,-419,0,0,0,0,0,0,0,0,0,-1,1098,1443,0,0
-119,-419,0,0,0,0,0,0,0,0,0,-1,1105,1443,0,0
-112,-419,0,0,0,0,0,0,0,0,0,-1,1112,1443,0,0
-105,-419,0,0,0,0,0,0,0,0,0,-1,1119,1443,0,0
-98,-419,0,0,0,0,0,0,0,0,0,-1,1126,1443,0,0
-91,-419,0,0,0,0,0,0,0,0,0,-1,1133,1443,0,0
-84,-419,0,0,0,0,0,0,0,0,0,-1,1140,1443,0,0
-77,-419,0,0,0,0,0,0,0,0,0,-1,1147,1443,0,0
-70,-419,0,0,0,0,0,0,0,0,0,-1,1154,1443,0,0
-63,-419,0,0,0,0,0,0,0,0,0,-1,1161,1443,0,0
-56,-419,0,0,0,0,0,0,0,0,0,-1,1168,1443,0,0
-49,-419,0,0,0,0,0,0,0,0,0,-1,1175,1443,0,0
-42,-419,0,0,0,0,0,0,0,0,0,-1,1182,1443,0,0
-35,-419,0,0,0,0,0,0,0,0,0,-1,1189,1443,0,0
-28,-419,0,0,0,0,0,0,0,0,0,-1,1196,1443,0,0
-21,-419,0,0,0,0,0,0,0,0,0,-1,1203,1443,0,0
-14,-419,0,0,0,0,0,0,0,0,0,-1,1210,1443,0,0
-7,-419,0,0,0,0,0,0,0,0,0,-1,1217,1443,0,0
0,-419,0,0,0,0,0,0,0,0,0,-1,1224,1443,0,0
7,-419,0,0,0,0,0,0,0,0,0,-1,1231,1443,0,0
14,-419,0,0,0,0,0,0,0,0,0,-1,1238,1443,0,0
21,-419,0,0,0,0,0,0,0,0,0,-1,1245,1443,0,0
28,-419,0,0,0,0,0,0,0,0,0,-1,1252,1443,0,0
35,-419,0,0,0,0,0,0,0,0,0,-1,1259,1443,0,0
42,-419,0,0,0,0,0,0,0,0,0,-1,1266,1443,0,0
49,-419,0,0,0,0,0,0,0,0,0,-1,1273,1443,0,0
56,-419,0,0,0,0,0,0,0,0,0,-1,1280,1443,0,0
63,-419,0,0,0,0,0,0,0,0,0,-1,1287,1443,0,0
70,-419,0,0,0,0,0,0,0,0,0,-1,1294,1443,0,0
77,-419,0,0,0,0,0,0,0,0,0,-1,1301,1443,0,0
84,-419,0,0,0,0,0,0,0,0,0,-1,1308,1443,0,0
91,-419,0,0,0,0,0,0,0,0,0,-1,1315,1443,0,0
98,-419,0,0,0,0,0,0,0,0,0,-1,1322,1443,0,0
105,-419,0,0,0,0,0,0,0,0,0,-1,1329,1443,0,0
112,-419,0,0,0,0,0,0,0,0,0,-1,1336,1443,0,0
119,-419,0,0,0,0,0,0,0,0,0,-1,1343,1443,0,0
126,-419,0,0,0,0,0,0,0,0,0,-1,1350,1443,0,0
133,-419,0,0,0,0,0,0,0,0,0,-1,1357,1443,0,0
140,-419,0,0,0,0,0,0,0,0,0,-1,1364,1443,0,0
147,-419,0,0,0,0,0,0,0,0,0,-1,1371,1443,0,0
154,-419,0,0,0,0,0,0,0,0,0,-1,1378,1443,0,0
161,-419,0,0,0,0,0,0,0,0,0,-1,1385,1443,0,0
168,-419,0,0,0,0,0,0,0,0,0,-1,1392,1443,0,0
175,-419,0,0,0,0,0,0,0,0,0,-1,1399,1443,0,0
182,-419,0,0,0,0,0,0,0,0,0,-1,1406,1443,0,0
189,-419,0,0,0,0,0,0,0,0,0,-1,1413,1443,0,0
196,-419,0,0,0,0,0,0,0,0,0,-1,1420,1443,0,0
203,-419,0,0,0,0,0,0,0,0,0,-1,1427,1443,0,0
210,-419,0,0,0,0,0,0,0,0,0,-1,1434,1443,0,0
217,-419,0,0,0,0,0,0,0,0,0,-1,1441,1443,0,0
224,-419,0,0,0,0,0,0,0,0,0,-1,1448,1443,0,0
231,-419,0,0,0,0,0,0,0,0,0,-1,1455,1443,0,0
238,-419,0,0,0,0,0,0,0,0,0,-1,1462,1443,0,0
245,-419,0,0,0,0,0,0,0,0,0,-1,1469,1443,0,0
252,-419,0,0,0,0,0,0,0,0,0,-1,1476,1443,0,0
259,-419,0,0,0,0,0,0,0,0,0,-1,1483,1443,0,0
266,-419,0,0,0,0,0,0,0,0,0,-1,1490,1443,0,0
273,-419,0,0,0,0,0,0,0,0,0,-1,1497,1443,0,0
280,-419,0,0,0,0,0,0,0,0,0,-1,1504,1443,0,0
287,-419,0,0,0,0,0,0,0,0,0,-1,1511,1443,0,0
294,-419,0,0,0,0,0,0,0,0,0,-1,1518,1443,0,0
301,-419,0,0,0,0,0,0,0,0,0,-1,1525,1443,0,0
308,-419,0,0,0,0,0,0,0,0,0,-1,1532,1443,0,0
315,-419,0,0,0,0,0,0,0,0,0,-1,1539,1443,0,0
322,-419,0,0,0,0,0,0,0,0,0,-1,1546,1443,0,0
329,-419,0,0,0,0,0,0,0,0,0,-1,1553,1443,0,0
336,-419,0,0,0,0,0,0,0,0,0,-1,1560,1443,0,0
343,-419,0,0,0,0,0,0,0,0,0,-1,1567,1443,0,0
350,-419,0,0,0,0,0,0,0,0,0,-1,1574,1443,0,0
357,-419,0,0,0,0,0,0,0,0,0,-1,1581,1443,0,0
364,-419,0,0,0,0,0,0,0,0,0,-1,1588,1443,0,0
371,-419,0,0,0,0,0,0,0,0,0,-1,1595,1443,0,0
378,-419,0,0,0,0,0,0,0,0,0,-1,1602,1443,0,0
385,-419,0,0,0,0,0,0,0,0,0,-1,1609,1443,0,0
392,-419,0,0,0,0,0,0,0,0,0,-1,1616,1443,0,0
399,-419,0,0,0,0,0,0,0,0,0,-1,1623,1443,0,0
406,-419,0,0,0,0,0,0,0,0,0,-1,1630,1443,0,0
413,-419,0,0,0,0,0,0,0,0,0,-1,1637,1443,0,0
420,-419,0,0,0,0,0,0,0,0,0,-1,1644,1443,0,0
427,-419,0,0,0,0,0,0,0,0,0,-1,1651,1443,0,0
434,-419,0,0,0,0,0,0,0,0,0,-1,1658,1443,0,0
441,-419,0,0,0,0,0,0,0,0,0,-1,1665,1443,0,0
448,-419,0,0,0,0,0,0,0,0,0,-1,1672,1443,0,0
455,-419,0,0,0,0,0,0,0,0,0,-1,1679,1443,0,0
462,-419,0,0,0,0,0,0,0,0,0,-1,1686,1443,0,0
469,-419,0,0,0,0,0,0,0,0,0,-1,1693,1443,0,0
476,-419,0,0,0,0,0,0,0,0,0,-1,1700,1443,0,0
483,-419,0,0,0,0,0,0,0,0,0,-1,1707,1443,0,0
490,-419,0,0,0,0,0,0,0,0,0,-1,1714,1443,0,0
497,-419,0,0,0,0,0,0,0,0,0,-1,1721,1443,0,0
504,-419,0,0,0,0,0,0,0,0,0,-1,1728,1443,0,0
511,-419,11.0873,3.80701,0,0,0,0,0,0,0,-1,1735,1443,11.0873,-3.80696
518,-419,10.2955,2.29688,0,0,0,0,0,0,0,-1,1742,1443,10.2956,-2.2969
525,-419,10.3064,2.84338,0,0,0,0,0,0,0,-1,1749,1443,10.3064,-2.84338
532,-419,10.0875,3.56445,0,0,0,0,0,0,0,-1,1756,1443,10.0876,-3.5644
539,-419,10.0989,4.03345,0,0,0,0,0,0,0,-1,1763,1443,10.0989,-4.03345
546,-419,11.5909,4.39246,0,0,0,0,0,0,0,-1,1770,1443,11.591,-4.39249
553,-419,10.5228,4.49658,0,0,0,0,0,0,0,-1,1777,1443,10.5228,-4.49654
560,-419,9.80688,4.78564,0,0,0,0,0,0,0,-1,1784,1443,9.80686,-4.78562
567,-419,8.28088,4.07458,0,0,0,0,0,0,0,-1,1791,1443,8.28094,-4.07462
574,-419,8.30823,4.51843,0,0,0,0,0,0,0,-1,1798,1443,8.30821,-4.51847
581,-419,8.30603,4.21863,0,0,0,0,0,0,0,-1,1805,1443,8.30603,-4.21857
588,-419,8.18579,4.17786,-0.0173095,-0.00639073,0.038392,0.0269281,-0.0506283,0.856025,0.0454688,0.0486716,1812,1443,8.18578,-4.17792
595,-419,7.84265,4.27979,-0.0158238,-0.00724556,0.0314391,0.0201957,-0.043265,0.853193,0.0374373,0.0365951,1819,1443,7.84269,-4.27975
602,-419,7.65759,4.20483,-0.0142921,-0.00806391,0.0251782,0.014192,-0.0365481,0.846927,0.0302278,0.0147462,1826,1443,7.65761,-4.20488
609,-419,7.63123,4.09949,-0.0120478,-0.00747533,0.0193175,0.00969074,-0.0292138,0.844299,0.0233853,0.0100252,1833,1443,7.6312,-4.09949
616,-419,7.61182,4.01599,-0.00948028,-0.00631929,0.0140121,0.00620117,-0.0220007,0.841558,0.0171129,0.0113655,1840,1443,7.61184,-4.01593
623,-419,7.62585,3.87952,-0.00675489,-0.00465049,0.00963267,0.00398727,-0.0153927,0.839799,0.0118173,0.00969798,1847,1443,7.62589,-3.87948
630,-419,7.6449,3.74243,-0.00443265,-0.00328604,0.00619174,0.00235888,-0.0100776,0.831563,0.00762725,0.0120844,1854,1443,7.64485,-3.74242
637,-419,7.63635,3.6333,-0.00307956,-0.0025776,0.0034337,0.000614274,-0.00627144,0.82188,0.00440003,0.0127458,1861,1443,7.6364,-3.63334
644,-419,7.62573,3.54797,-0.00159978,-0.00189429,0.00115628,-0.000581421,-0.00291265,0.722063,0.0017799,0.0112088,1868,1443,7.62573,-3.54797
651,-419,7.64185,3.45032,0.000630218,-0.00278438,-0.00162621,0.00128076,-0.00343492,-0.380539,0.0028157,0.0111516,1875,1443,7.64179,-3.4503
658,-419,7.64709,3.3114,0.00263227,-0.00389978,-0.0038936,0.00444828,-0.00571578,-0.436414,0.00588341,0.0130674,1882,1443,7.64711,-3.31138
665,-419,7.61401,3.16382,0.00550386,-0.00591304,-0.00702153,0.00884462,-0.0092538,-0.444091,0.01045,0.0198274,1889,1443,7.61402,-3.16376
672,-419,7.6886,3.08301,0.0100006,-0.00921796,-0.0112247,0.0151674,-0.0143847,-0.43139,0.0170639,0.0234956,1896,1443,7.68859,-3.08302
679,-419,7.69788,3.09387,0.0168954,-0.014027,-0.0168539,0.0243056,-0.0214373,-0.414235,0.026427,0.0377121,1903,1443,7.69782,-3.09381
686,-419,7.6687,3.17444,0,0,0,0,0,0,0,-1,1910,1443,7.66869,-3.17439
693,-419,6.80664,0.907837,0,0,0,0,0,0,0,-1,1917,1443,6.80668,-0.907862
700,-419,6.68616,-0.175781,0.0596544,-0.0385331,-0.048953,0.0798902,-0.0587689,-0.391981,0.0803639,0.0468883,1924,1443,6.68613,0.17583
707,-419,6.66895,-1.01721,0,0,0,0,0,0,0,-1,1931,1443,6.66896,1.0172
714,-419,7.07935,-1.91895,0,0,0,0,0,0,0,-1,1938,1443,7.0793,1.91892
721,-419,0,0,0,0,0,0,0,0,0,-1,1945,1443,0,0
728,-419,0,0,0,0,0,0,0,0,0,-1,1952,1443,0,0
735,-419,0,0,0,0,0,0,0,0,0,-1,1959,1443,0,0
742,-419,0,0,0,0,0,0,0,0,0,-1,1966,1443,0,0
749,-419,0,0,0,0,0,0,0,0,0,-1,1973,1443,0,0
756,-419,0,0,0,0,0,0,0,0,0,-1,1980,1443,0,0
763,-419,0,0,0,0,0,0,0,0,0,-1,1987,1443,0,0
770,-419,0,0,0,0,0,0,0,0,0,-1,1994,1443,0,0
777,-419,0,0,0,0,0,0,0,0,0,-1,2001,1443,0,0
784,-419,0,0,0,0,0,0,0,0,0,-1,2008,1443,0,0
791,-419,0,0,0,0,0,0,0,0,0,-1,2015,1443,0,0
798,-419,0,0,0,0,0,0,0,0,0,-1,2022,1443,0,0
805,-419,0,0,0,0,0,0,0,0,0,-1,2029,1443,0,0
812,-419,0,0,0,0,0,0,0,0,0,-1,2036,1443,0,0
-700,-426,0,0,0,0,0,0,0,0,0,-1,524,1450,0,0
-693,-426,0,0,0,0,0,0,0,0,0,-1,531,1450,0,0
-686,-426,0,0,0,0,0,0,0,0,0,-1,538,1450,0,0
-679,-426,0,0,0,0,0,0,0,0,0,-1,545,1450,0,0
-672,-426,0,0,0,0,0,0,0,0,0,-1,552,1450,0,0
-665,-426,0,0,0,0,0,0,0,0,0,-1,559,1450,0,0
-658,-426,0,0,0,0,0,0,0,0,0,-1,566,1450,0,0
-651,-426,0,0,0,0,0,0,0,0,0,-1,573,1450,0,0
-644,-426,0,0,0,0,0,0,0,0,0,-1,580,1450,0,0
-637,-426,0,0,0,0,0,0,0,0,0,-1,587,1450,0,0
-630,-426,0,0,0,0,0,0,0,0,0,-1,594,1450,0,0
-623,-426,0,0,0,0,0,0,0,0,0,-1,601,1450,0,0
-616,-426,0,0,0,0,0,0,0,0,0,-1,608,1450,0,0
-609,-426,0,0,0,0,0,0,0,0,0,-1,615,1450,0,0
-602,-426,0,0,0,0,0,0,0,0,0,-1,622,1450,0,0
-595,-426,0,0,0,0,0,0,0,0,0,-1,629,1450,0,0
-588,-426,-0.307312,-3.77551,0,0,0,0,0,0,0,-1,636,1450,-0.307313,3.77555
-581,-426,0.689575,-3.19495,0,0,0,0,0,0,0,-1,643,1450,0.689595,3.19499
-574,-426,-4.62823,4.92419,0,0,0,0,0,0,0,-1,650,1450,-4.62823,-4.92422
-567,-426,-1.79169,0.913574,0,0,0,0,0,0,0,-1,657,1450,-1.7917,-0.913623
-560,-426,-1.33264,1.66248,0,0,0,0,0,0,0,-1,664,1450,-1.33265,-1.6625
-553,-426,-1.42383,2.01733,0.0477333,0.0191351,0.00710257,0.0494002,0.0174683,0.230508,0.0289258,0.048598,671,1450,-1.42381,-2.01729
-546,-426,-0.916809,2.00745,0.0346621,0.0128438,0.00604087,0.036223,0.011283,0.252857,0.0214031,0.0472007,678,1450,-0.916829,-2.00746
-539,-426,-0.805969,2.00061,0,0,0,0,0,0,0,-1,685,1450,-0.80599,-2.00057
-532,-426,-0.988281,2.12854,0.0148471,0.00360909,0.00381907,0.0160221,0.00243409,0.298474,0.00996961,0.0209018,692,1450,-0.98827,-2.1285
-525,-426,-1.03516,2.2511,0.0102231,0.00359997,0.00282551,0.0112647,0.00255838,0.353182,0.0068189,0.011916,699,1450,-1.03514,-2.25114
-518,-426,-1.03827,2.38965,0.00720951,0.00307803,0.00154888,0.00772569,0.00256185,0.321686,0.00454397,0.015238,706,1450,-1.03826,-2.38964
-511,-426,-1.02203,2.53223,0.00491932,0.00225517,0.000563516,0.00503361,0.00214088,0.200103,0.00291694,0.0154075,713,1450,-1.02202,-2.53226
-504,-426,-1.02026,2.6554,0.00284664,0.00155919,-0.00029219,0.00290985,0.00149598,-0.213049,0.00168022,0.0150527,720,1450,-1.02025,-2.65535
-497,-426,-1.02704,2.77417,0.000449304,0.000616351,-0.00130978,0.00184527,-0.000779615,-0.81724,0.00155655,0.0123953,727,1450,-1.02703,-2.77412
-490,-426,-1.01697,2.91272,-0.00173194,-0.000815323,-0.00198279,0.000761434,-0.0033087,-0.898975,0.00249859,0.0126129,734,1450,-1.01698,-2.91275
-483,-426,-1.01367,3.03625,-0.00323423,-0.0025813,-0.00262351,-0.000264023,-0.00555151,-0.847299,0.00361621,0.0116852,741,1450,-1.01368,-3.03622
-476,-426,-1.02789,3.14612,-0.00474379,-0.00438137,-0.00337594,-0.00118178,-0.00794338,-0.812211,0.00494892,0.00881087,748,1450,-1.02789,-3.14607
-469,-426,-1.03149,3.2594,-0.0065569,-0.00633357,-0.00418151,-0.00226223,-0.0106282,-0.798748,0.00646473,0.00708529,755,1450,-1.03151,-3.25935
-462,-426,-0.978577,3.41663,-0.00858495,-0.00867005,-0.00521511,-0.00341221,-0.0138428,-0.781319,0.0083275,0.0139053,762,1450,-0.978596,-3.41662
-455,-426,-0.973572,3.48181,-0.0108281,-0.0113965,-0.00657318,-0.00453294,-0.0176916,-0.763794,0.0106112,0.0286147,769,1450,-0.973601,-3.48177
-448,-426,-1.18768,3.50037,-0.0134405,-0.0146724,-0.00804209,-0.00599081,-0.0221221,-0.747179,0.0132119,0.0429564,776,1450,-1.18767,-3.5004
-441,-426,-1.36365,3.74646,-0.0161871,-0.0184552,-0.0097673,-0.00748823,-0.0271541,-0.727604,0.0161944,0.0444229,783,1450,-1.36366,-3.74645
-434,-426,-1.62012,3.79724,-0.0188661,-0.0226564,-0.011812,-0.00879814,-0.0327243,-0.705854,0.0195547,0.0463162,790,1450,-1.62014,-3.79719
-427,-426,-1.74243,3.78943,0,0,0,0,0,0,0,-1,797,1450,-1.74243,-3.78944
-420,-426,-0.922363,2.4989,0,0,0,0,0,0,0,-1,804,1450,-0.922351,-2.49892
-413,-426,-2.54846,3.75806,0,0,0,0,0,0,0,-1,811,1450,-2.54845,-3.75811
-406,-426,-2.04626,-0.513794,0,0,0,0,0,0,0,-1,818,1450,-2.04625,0.513816
-399,-426,-1.76575,1.13013,0,0,0,0,0,0,0,-1,825,1450,-1.76576,-1.13014
-392,-426,-1.67249,0.956055,0,0,0,0,0,0,0,-1,832,1450,-1.67248,-0.956061
-385,-426,0,0,0,0,0,0,0,0,0,-1,839,1450,0,0
-378,-426,0,0,0,0,0,0,0,0,0,-1,846,1450,0,0
-371,-426,0,0,0,0,0,0,0,0,0,-1,853,1450,0,0
-364,-426,0,0,0,0,0,0,0,0,0,-1,860,1450,0,0
-357,-426,0,0,0,0,0,0,0,0,0,-1,867,1450,0,0
-350,-426,0,0,0,0,0,0,0,0,0,-1,874,1450,0,0
-343,-426,0,0,0,0,0,0,0,0,0,-1,881,1450,0,0
-336,-426,0,0,0,0,0,0,0,0,0,-1,888,1450,0,0
-329,-426,0,0,0,0,0,0,0,0,0,-1,895,1450,0,0
-322,-426,0,0,0,0,0,0,0,0,0,-1,902,1450,0,0
-315,-426,0,0,0,0,0,0,0,0,0,-1,909,1450,0,0
-308,-426,0,0,0,0,0,0,0,0,0,-1,916,1450,0,0
-301,-426,0,0,0,0,0,0,0,0,0,-1,923,1450,0,0
-294,-426,0,0,0,0,0,0,0,0,0,-1,930,1450,0,0
-287,-426,0,0,0,0,0,0,0,0,0,-1,937,1450,0,0
-280,-426,0,0,0,0,0,0,0,0,0,-1,944,1450,0,0
-273,-426,0,0,0,0,0,0,0,0,0,-1,951,1450,0,0
-266,-426,0,0,0,0,0,0,0,0,0,-1,958,1450,0,0
-259,-426,0,0,0,0,0,0,0,0,0,-1,965,1450,0,0
-252,-426,0,0,0,0,0,0,0,0,0,-1,972,1450,0,0
-245,-426,0,0,0,0,0,0,0,0,0,-1,979,1450,0,0
-238,-426,0,0,0,0,0,0,0,0,0,-1,986,1450,0,0
-231,-426,0,0,0,0,0,0,0,0,0,-1,993,1450,0,0
-224,-426,0,0,0,0,0,0,0,0,0,-1,1000,1450,0,0
-217,-426,0,0,0,0,0,0,0,0,0,-1,1007,1450,0,0
-210,-426,0,0,0,0,0,0,0,0,0,-1,1014,1450,0,0
-203,-426,0,0,0,0,0,0,0,0,0,-1,1021,1450,0,0
-196,-426,0,0,0,0,0,0,0,0,0,-1,1028,1450,0,0
-189,-426,0,0,0,0,0,0,0,0,0,-1,1035,1450,0,0
-182,-426,0,0,0,0,0,0,0,0,0,-1,1042,1450,0,0
-175,-426,0,0,0,0,0,0,0,0,0,-1,1049,1450,0,0
-168,-426,0,0,0,0,0,0,0,0,0,-1,1056,1450,0,0
-161,-426,0,0,0,0,0,0,0,0,0,-1,1063,1450,0,0
-154,-426,0,0,0,0,0,0,0,0,0,-1,1070,1450,0,0
-147,-426,0,0,0,0,0,0,0,0,0,-1,1077,1450,0,0
-140,-426,0,0,0,0,0,0,0,0,0,-1,1084,1450,0,0
-133,-426,0,0,0,0,0,0,0,0,0,-1,1091,1450,0,0
-126,-426,0,0,0,0,0,0,0,0,0,-1,1098,1450,0,0
-119,-426,0,0,0,0,0,0,0,0,0,-1,1105,1450,0,0
-112,-426,0,0,0,0,0,0,0,0,0,-1,1112,1450,0,0
-105,-426,0,0,0,0,0,0,0,0,0,-1,1119,1450,0,0
-98,-426,0,0,0,0,0,0,0,0,0,-1,1126,1450,0,0
-91,-426,0,0,0,0,0,0,0,0,0,-1,1133,1450,0,0
-84,-426,0,0,0,0,0,0,0,0,0,-1,1140,1450,0,0
-77,-426,0,0,0,0,0,0,0,0,0,-1,1147,1450,0,0
-70,-426,0,0,0,0,0,0,0,0,0,-1,1154,1450,0,0
-63,-426,0,0,0,0,0,0,0,0,0,-1,1161,1450,0,0
-56,-426,0,0,0,0,0,0,0,0,0,-1,1168,1450,0,0
-49,-426,0,0,0,0,0,0,0,0,0,-1,1175,1450,0,0
-42,-426,0,0,0,0,0,0,0,0,0,-1,1182,1450,0,0
-35,-426,0,0,0,0,0,0,0,0,0,-1,1189,1450,0,0
-28,-426,0,0,0,0,0,0,0,0,0,-1,1196,1450,0,0
-21,-426,0,0,0,0,0,0,0,0,0,-1,1203,1450,0,0
-14,-426,0,0,0,0,0,0,0,0,0,-1,1210,1450,0,0
-7,-426,0,0,0,0,0,0,0,0,0,-1,1217,1450,0,0
0,-426,0,0,0,0,0,0,0,0,0,-1,1224,1450,0,0
7,-426,0,0,0,0,0,0,0,0,0,-1,1231,1450,0,0
14,-426,0,0,0,0,0,0,0,0,0,-1,1238,1450,0,0
21,-426,0,0,0,0,0,0,0,0,0,-1,1245,1450,0,0
28,-426,0,0,0,0,0,0,0,0,0,-1,1252,1450,0,0
35,-426,0,0,0,0,0,0,0,0,0,-1,1259,1450,0,0
42,-426,0,0,0,0,0,0,0,0,0,-1,1266,1450,0,0
49,-426,0,0,0,0,0,0,0,0,0,-1,1273,1450,0,0
56,-426,0,0,0,0,0,0,0,0,0,-1,1280,1450,0,0
63,-426,0,0,0,0,0,0,0,0,0,-1,1287,1450,0,0
70,-426,0,0,0,0,0,0,0,0,0,-1,1294,1450,0,0
77,-426,0,0,0,0,0,0,0,0,0,-1,1301,1450,0,0
84,-426,0,0,0,0,0,0,0,0,0,-1,1308,1450,0,0
91,-426,0,0,0,0,0,0,0,0,0,-1,1315,1450,0,0
98,-426,0,0,0,0,0,0,0,0,0,-1,1322,1450,0,0
105,-426,0,0,0,0,0,0,0,0,0,-1,1329,1450,0,0
112,-426,0,0,0,0,0,0,0,0,0,-1,1336,1450,0,0
119,-426,0,0,0,0,0,0,0,0,0,-1,1343,1450,0,0
126,-426,0,0,0,0,0,0,0,0,0,-1,1350,1450,0,0
133,-426,0,0,0,0,0,0,0,0,0,-1,1357,1450,0,0
140,-426,0,0,0,0,0,0,0,0,0,-1,1364,1450,0,0
147,-426,0,0,0,0,0,0,0,0,0,-1,1371,1450,0,0
154,-426,0,0,0,0,0,0,0,0,0,-1,1378,1450,0,0
161,-426,0,0,0,0,0,0,0,0,0,-1,1385,1450,0,0
168,-426,0,0,0,0,0,0,0,0,0,-1,1392,1450,0,0
175,-426,0,0,0,0,0,0,0,0,0,-1,1399,1450,0,0
182,-426,0,0,0,0,0,0,0,0,0,-1,1406,1450,0,0
189,-426,0,0,0,0,0,0,0,0,0,-1,1413,1450,0,0
196,-426,0,0,0,0,0,0,0,0,0,-1,1420,1450,0,0
203,-426,0,0,0,0,0,0,0,0,0,-1,1427,1450,0,0
210,-426,0,0,0,0,0,0,0,0,0,-1,1434,1450,0,0
217,-426,0,0,0,0,0,0,0,0,0,-1,1441,1450,0,0
224,-426,0,0,0,0,0,0,0,0,0,-1,1448,1450,0,0
231,-426,0,0,0,0,0,0,0,0,0,-1,1455,1450,0,0
238,-426,0,0,0,0,0,0,0,0,0,-1,1462,1450,0,0
245,-426,0,0,0,0,0,0,0,0,0,-1,1469,1450,0,0
252,-426,0,0,0,0,0,0,0,0,0,-1,1476,1450,0,0
259,-426,0,0,0,0,0,0,0,0,0,-1,1483,1450,0,0
266,-426,0,0,0,0,0,0,0,0,0,-1,1490,1450,0,0
273,-426,0,0,0,0,0,0,0,0,0,-1,1497,1450,0,0
280,-426,0,0,0,0,0,0,0,0,0,-1,1504,1450,0,0
287,-426,0,0,0,0,0,0,0,0,0,-1,1511,1450,0,0
294,-426,0,0,0,0,0,0,0,0,0,-1,1518,1450,0,0
301,-426,0,0,0,0,0,0,0,0,0,-1,1525,1450,0,0
308,-426,0,0,0,0,0,0,0,0,0,-1,1532,1450,0,0
315,-426,0,0,0,0,0,0,0,0,0,-1,1539,1450,0,0
322,-426,0,0,0,0,0,0,0,0,0,-1,1546,1450,0,0
329,-426,0,0,0,0,0,0,0,0,0,-1,1553,1450,0,0
336,-426,0,0,0,0,0,0,0,0,0,-1,1560,1450,0,0
343,-426,0,0,0,0,0,0,0,0,0,-1,1567,1450,0,0
350,-426,0,0,0,0,0,0,0,0,0,-1,1574,1450,0,0
357,-426,0,0,0,0,0,0,0,0,0,-1,1581,1450,0,0
364,-426,0,0,0,0,0,0,0,0,0,-1,1588,1450,0,0
371,-426,0,0,0,0,0,0,0,0,0,-1,1595,1450,0,0
378,-426,0,0,0,0,0,0,0,0,0,-1,1602,1450,0,0
385,-426,0,0,0,0,0,0,0,0,0,-1,1609,1450,0,0
392,-426,0,0,0,0,0,0,0,0,0,-1,1616,1450,0,0
399,-426,0,0,0,0,0,0,0,0,0,-1,1623,1450,0,0
406,-426,0,0,0,0,0,0,0,0,0,-1,1630,1450,0,0
413,-426,0,0,0,0,0,0,0,0,0,-1,1637,1450,0,0
420,-426,0,0,0,0,0,0,0,0,0,-1,1644,1450,0,0
427,-426,0,0,0,0,0,0,0,0,0,-1,1651,1450,0,0
434,-426,0,0,0,0,0,0,0,0,0,-1,1658,1450,0,0
441,-426,0,0,0,0,0,0,0,0,0,-1,1665,1450,0,0
448,-426,0,0,0,0,0,0,0,0,0,-1,1672,1450,0,0
455,-426,0,0,0,0,0,0,0,0,0,-1,1679,1450,0,0
462,-426,0,0,0,0,0,0,0,0,0,-1,1686,1450,0,0
469,-426,0,0,0,0,0,0,0,0,0,-1,1693,1450,0,0
476,-426,0,0,0,0,0,0,0,0,0,-1,1700,1450,0,0
483,-426,0,0,0,0,0,0,0,0,0,-1,1707,1450,0,0
490,-426,0,0,0,0,0,0,0,0,0,-1,1714,1450,0,0
497,-426,0,0,0,0,0,0,0,0,0,-1,1721,1450,0,0
504,-426,10.2612,3.01746,0,0,0,0,0,0,0,-1,1728,1450,10.2612,-3.01741
511,-426,10.7216,3.39111,0,0,0,0,0,0,0,-1,1735,1450,10.7216,-3.39107
518,-426,10.8788,3.31226,0,0,0,0,0,0,0,-1,1742,1450,10.8787,-3.31229
525,-426,10.7302,3.46716,0,0,0,0,0,0,0,-1,1749,1450,10.7302,-3.46719
532,-426,10.5573,3.6283,0,0,0,0,0,0,0,-1,1756,1450,10.5572,-3.62824
539,-426,12.6981,4.71521,0,0,0,0,0,0,0,-1,1763,1450,12.6982,-4.71523
546,-426,11.6884,4.80334,0,0,0,0,0,0,0,-1,1770,1450,11.6883,-4.80337
553,-426,10.4634,5.04309,0,0,0,0,0,0,0,-1,1777,1450,10.4634,-5.04308
560,-426,9.62109,4.81543,0,0,0,0,0,0,0,-1,1784,1450,9.62109,-4.8154
567,-426,8.04382,4.04663,0,0,0,0,0,0,0,-1,1791,1450,8.04383,-4.04661
574,-426,7.8175,4.05408,-0.0162248,-0.00238989,0.04318,0.0344232,-0.053038,0.864824,0.0508755,0.048955,1798,1450,7.81753,-4.0541
581,-426,7.56787,4.0741,-0.0162721,-0.00513229,0.0376676,0.027375,-0.0487794,0.858801,0.0445429,0.045057,1805,1450,7.56786,-4.07406
588,-426,7.54297,4.27527,-0.0152205,-0.00638535,0.0317647,0.0212675,-0.0428733,0.854491,0.0377255,0.0399293,1812,1450,7.54302,-4.27528
595,-426,7.47412,4.31372,-0.0134345,-0.00667679,0.0259568,0.0161201,-0.0362314,0.85012,0.0309597,0.0253259,1819,1450,7.47414,-4.31376
602,-426,7.52576,4.17273,-0.0117235,-0.00697971,0.0207256,0.0115093,-0.0302125,0.842372,0.0248818,0.0145068,1826,1450,7.52581,-4.17276
609,-426,7.51843,4.07739,-0.00961449,-0.0062478,0.0158573,0.00801525,-0.0238775,0.838278,0.0191574,0.0112761,1833,1450,7.51844,-4.07739
616,-426,7.50854,3.99585,-0.00740139,-0.00522398,0.0114276,0.00516663,-0.017792,0.83289,0.0139072,0.0138085,1840,1450,7.50859,-3.99586
623,-426,7.51477,3.86768,-0.00510355,-0.0037168,0.00779427,0.00341488,-0.0122352,0.829761,0.0095019,0.0117237,1847,1450,7.51476,-3.86768
630,-426,7.53442,3.74915,-0.00323697,-0.00260081,0.00495066,0.00204198,-0.00787976,0.817479,0.00604982,0.0121989,1854,1450,7.53444,-3.74912
637,-426,7.53906,3.64026,-0.00228741,-0.00216393,0.00257829,0.000353365,-0.0048047,0.797369,0.00332718,0.0125787,1861,1450,7.5391,-3.64021
644,-426,7.50513,3.552,-0.000977967,-0.00175,0.000369557,-0.000829586,-0.00189839,0.381807,0.00109893,0.0120795,1868,1450,7.50508,-3.55203
651,-426,7.49622,3.45276,0.00141436,-0.00299128,-0.0027473,0.00273292,-0.00430983,-0.447475,0.00409997,0.0120143,1875,1450,7.49625,-3.45273
658,-426,7.52563,3.30627,0.00358499,-0.00442424,-0.00548009,0.00636774,-0.00720699,-0.469862,0.00784237,0.0118761,1882,1450,7.52562,-3.30632
665,-426,7.51135,3.11536,0.00697481,-0.00691572,-0.00934274,0.011671,-0.0116119,-0.465771,0.0134424,0.0167245,1889,1450,7.51131,-3.1154
672,-426,7.51099,2.94897,0.0124002,-0.0107898,-0.0148612,0.0196546,-0.0180442,-0.454116,0.021772,0.027922,1896,1450,7.51097,-2.94892
679,-426,7.35376,3.03284,0.0207606,-0.0163545,-0.0226004,0.0314462,-0.0270401,-0.441656,0.033799,0.0406245,1903,1450,7.35375,-3.03289
686,-426,7.07715,2.80469,0.0328395,-0.0236109,-0.0336317,0.0485205,-0.0392919,-0.43629,0.0507918,0.0467794,1910,1450,7.0771,-2.80467
693,-426,7.26685,1.8064,0,0,0,0,0,0,0,-1,1917,1450,7.26682,-1.80641
700,-426,7.77161,0.693237,0,0,0,0,0,0,0,-1,1924,1450,7.77159,-0.693212
707,-426,8.41284,-0.367798,0,0,0,0,0,0,0,-1,1931,1450,8.41278,0.367803
714,-426,0,0,0,0,0,0,0,0,0,-1,1938,1450,0,0
721,-426,0,0,0,0,0,0,0,0,0,-1,1945,1450,0,0
728,-426,0,0,0,0,0,0,0,0,0,-1,1952,1450,0,0
735,-426,0,0,0,0,0,0,0,0,0,-1,1959,1450,0,0
742,-426,0,0,0,0,0,0,0,0,0,-1,1966,1450,0,0
749,-426,0,0,0,0,0,0,0,0,0,-1,1973,1450,0,0
756,-426,0,0,0,0,0,0,0,0,0,-1,1980,1450,0,0
763,-426,0,0,0,0,0,0,0,0,0,-1,1987,1450,0,0
770,-426,0,0,0,0,0,0,0,0,0,-1,1994,1450,0,0
777,-426,0,0,0,0,0,0,0,0,0,-1,2001,1450,0,0
784,-426,0,0,0,0,0,0,0,0,0,-1,2008,1450,0,0
791,-426,0,0,0,0,0,0,0,0,0,-1,2015,1450,0,0
798,-426,0,0,0,0,0,0,0,0,0,-1,2022,1450,0,0
805,-426,0,0,0,0,0,0,0,0,0,-1,2029,1450,0,0
812,-426,0,0,0,0,0,0,0,0,0,-1,2036,1450,0,0
-700,-433,0,0,0,0,0,0,0,0,0,-1,524,1457,0,0
-693,-433,0,0,0,0,0,0,0,0,0,-1,531,1457,0,0
-686,-433,0,0,0,0,0,0,0,0,0,-1,538,1457,0,0
-679,-433,0,0,0,0,0,0,0,0,0,-1,545,1457,0,0
-672,-433,0,0,0,0,0,0,0,0,0,-1,552,1457,0,0
-665,-433,0,0,0,0,0,0,0,0,0,-1,559,1457,0,0
-658,-433,0,0,0,0,0,0,0,0,0,-1,566,1457,0,0
-651,-433,0,0,0,0,0,0,0,0,0,-1,573,1457,0,0
-644,-433,0,0,0,0,0,0,0,0,0,-1,580,1457,0,0
-637,-433,0,0,0,0,0,0,0,0,0,-1,587,1457,0,0
-630,-433,0,0,0,0,0,0,0,0,0,-1,594,1457,0,0
-623,-433,0,0,0,0,0,0,0,0,0,-1,601,1457,0,0
-616,-433,0,0,0,0,0,0,0,0,0,-1,608,1457,0,0
-609,-433,0,0,0,0,0,0,0,0,0,-1,615,1457,0,0
-602,-433,0,0,0,0,0,0,0,0,0,-1,622,1457,0,0
-595,-433,0,0,0,0,0,0,0,0,0,-1,629,1457,0,0
-588,-433,-6.59692,5.9574,0,0,0,0,0,0,0,-1,636,1457,-6.59693,-5.95745
-581,-433,-5.53436,5.06726,0,0,0,0,0,0,0,-1,643,1457,-5.53435,-5.06726
-574,-433,-4.72687,4.04785,0,0,0,0,0,0,0,-1,650,1457,-4.72688,-4.04783
-567,-433,-3.75824,3.12964,0,0,0,0,0,0,0,-1,657,1457,-3.75823,-3.12963
-560,-433,-2.07922,1.02295,0,0,0,0,0,0,0,-1,664,1457,-2.07921,-1.02301
-553,-433,-1.37872,2.03455,0,0,0,0,0,0,0,-1,671,1457,-1.3787,-2.03449
-546,-433,-0.707764,2.07239,0,0,0,0,0,0,0,-1,678,1457,-0.707762,-2.07241
-539,-433,-1.005,1.87219,0,0,0,0,0,0,0,-1,685,1457,-1.005,-1.87219
-532,-433,-0.839661,2.1377,0.0223723,0.00560202,0.00322271,0.0229703,0.00500404,0.183465,0.013948,0.027197,692,1457,-0.83969,-2.13774
-525,-433,-0.877075,2.25391,0.0162806,0.00548934,0.00204738,0.016656,0.00511396,0.181334,0.00985217,0.014272,699,1457,-0.877087,-2.25395
-518,-433,-0.911316,2.38037,0.0119292,0.00484208,0.000808702,0.0120203,0.00475097,0.112187,0.00699053,0.0154482,706,1457,-0.911318,-2.38043
-511,-433,-0.904053,2.51611,0.00856658,0.00385961,-2.78912e-05,0.00856674,0.00385945,-0.00592524,0.00495408,0.0156098,713,1457,-0.904058,-2.51612
-504,-433,-0.888123,2.63525,0.00572825,0.00296061,-0.000661498,0.00587823,0.00281064,-0.222956,0.00339488,0.0134488,720,1457,-0.888103,-2.63521
-497,-433,-0.873108,2.75598,0.0028217,0.00193462,-0.0014743,0.00391773,0.000838586,-0.639281,0.00238201,0.0136539,727,1457,-0.87308,-2.75603
-490,-433,-0.870422,2.91785,0.000253375,0.000505648,-0.00187837,0.00226212,-0.00150309,-0.818924,0.00218852,0.0150443,734,1457,-0.870444,-2.9179
-483,-433,-0.88147,3.04712,-0.00128716,-0.00121734,-0.00212817,0.000876207,-0.0033807,-0.7936,0.00259564,0.0149672,741,1457,-0.881469,-3.04717
-476,-433,-0.902161,3.16248,-0.00260408,-0.00285062,-0.00255871,-0.000165669,-0.00528903,-0.761329,0.00347212,0.0097013,748,1457,-0.902161,-3.16253
-469,-433,-0.896729,3.29553,-0.00406924,-0.00448404,-0.00300299,-0.00126649,-0.00728678,-0.750921,0.00449555,0.00951062,755,1457,-0.89674,-3.29557
-462,-433,-0.893433,3.42371,-0.00552052,-0.0063346,-0.00368501,-0.00222013,-0.00963498,-0.730392,0.00582603,0.00887896,762,1457,-0.893451,-3.42369
-455,-433,-0.813782,3.55518,-0.00681753,-0.00832967,-0.00482424,-0.00269047,-0.0124567,-0.707669,0.00756877,0.0181747,769,1457,-0.813775,-3.55522
-448,-433,-0.848877,3.65552,-0.00821419,-0.0108438,-0.00603471,-0.00335273,-0.0157053,-0.678136,0.00955084,0.0315786,776,1457,-0.848861,-3.65548
-441,-433,-1.04926,3.9707,-0.00955265,-0.0141755,-0.00732021,-0.0041876,-0.0195405,-0.632474,0.0118798,0.0402785,783,1457,-1.04925,-3.97072
-434,-433,-1.38458,4.05432,0,0,0,0,0,0,0,-1,790,1457,-1.38459,-4.05434
-427,-433,-0.737122,2.74634,0,0,0,0,0,0,0,-1,797,1457,-0.737108,-2.74635
-420,-433,-0.683533,2.92432,0,0,0,0,0,0,0,-1,804,1457,-0.68351,-2.92438
-413,-433,-0.608887,3.07666,0,0,0,0,0,0,0,-1,811,1457,-0.608879,-3.07669
-406,-433,-0.968445,0.847534,0,0,0,0,0,0,0,-1,818,1457,-0.968457,-0.847496
-399,-433,-0.951477,-0.0518799,0,0,0,0,0,0,0,-1,825,1457,-0.951454,0.0519234
-392,-433,-0.858398,1.59338,0,0,0,0,0,0,0,-1,832,1457,-0.858375,-1.59339
-385,-433,-1.65833,1.2821,0,0,0,0,0,0,0,-1,839,1457,-1.65834,-1.28209
-378,-433,0,0,0,0,0,0,0,0,0,-1,846,1457,0,0
-371,-433,0,0,0,0,0,0,0,0,0,-1,853,1457,0,0
-364,-433,0,0,0,0,0,0,0,0,0,-1,860,1457,0,0
-357,-433,0,0,0,0,0,0,0,0,0,-1,867,1457,0,0
-350,-433,0,0,0,0,0,0,0,0,0,-1,874,1457,0,0
-343,-433,0,0,0,0,0,0,0,0,0,-1,881,1457,0,0
-336,-433,0,0,0,0,0,0,0,0,0,-1,888,1457,0,0
-329,-433,0,0,0,0,0,0,0,0,0,-1,895,1457,0,0
-322,-433,0,0,0,0,0,0,0,0,0,-1,902,1457,0,0
-315,-433,0,0,0,0,0,0,0,0,0,-1,909,1457,0,0
-308,-433,0,0,0,0,0,0,0,0,0,-1,916,1457,0,0
-301,-433,0,0,0,0,0,0,0,0,0,-1,923,1457,0,0
-294,-433,0,0,0,0,0,0,0,0,0,-1,930,1457,0,0
-287,-433,0,0,0,0,0,0,0,0,0,-1,937,1457,0,0
-280,-433,0,0,0,0,0,0,0,0,0,-1,944,1457,0,0
-273,-433,0,0,0,0,0,0,0,0,0,-1,951,1457,0,0
-266,-433,0,0,0,0,0,0,0,0,0,-1,958,1457,0,0
-259,-433,0,0,0,0,0,0,0,0,0,-1,965,1457,0,0
-252,-433,0,0,0,0,0,0,0,0,0,-1,972,1457,0,0
-245,-433,0,0,0,0,0,0,0,0,0,-1,979,1457,0,0
-238,-433,0,0,0,0,0,0,0,0,0,-1,986,1457,0,0
-231,-433,0,0,0,0,0,0,0,0,0,-1,993,1457,0,0
-224,-433,0,0,0,0,0,0,0,0,0,-1,1000,1457,0,0
-217,-433,0,0,0,0,0,0,0,0,0,-1,1007,1457,0,0
-210,-433,0,0,0,0,0,0,0,0,0,-1,1014,1457,0,0
-203,-433,0,0,0,0,0,0,0,0,0,-1,1021,1457,0,0
-196,-433,0,0,0,0,0,0,0,0,0,-1,1028,1457,0,0
-189,-433,0,0,0,0,0,0,0,0,0,-1,1035,1457,0,0
-182,-433,0,0,0,0,0,0,0,0,0,-1,1042,1457,0,0
-175,-433,0,0,0,0,0,0,0,0,0,-1,1049,1457,0,0
-168,-433,0,0,0,0,0,0,0,0,0,-1,1056,1457,0,0
-161,-433,0,0,0,0,0,0,0,0,0,-1,1063,1457,0,0
-154,-433,0,0,0,0,0,0,0,0,0,-1,1070,1457,0,0
-147,-433,0,0,0,0,0,0,0,0,0,-1,1077,1457,0,0
-140,-433,0,0,0,0,0,0,0,0,0,-1,1084,1457,0,0
-133,-433,0,0,0,0,0,0,0,0,0,-1,1091,1457,0,0
-126,-433,0,0,0,0,0,0,0,0,0,-1,1098,1457,0,0
-119,-433,0,0,0,0,0,0,0,0,0,-1,1105,1457,0,0
-112,-433,0,0,0,0,0,0,0,0,0,-1,1112,1457,0,0
-105,-433,0,0,0,0,0,0,0,0,0,-1,1119,1457,0,0
-98,-433,0,0,0,0,0,0,0,0,0,-1,1126,1457,0,0
-91,-433,0,0,0,0,0,0,0,0,0,-1,1133,1457,0,0
-84,-433,0,0,0,0,0,0,0,0,0,-1,1140,1457,0,0
-77,-433,0,0,0,0,0,0,0,0,0,-1,1147,1457,0,0
-70,-433,0,0,0,0,0,0,0,0,0,-1,1154,1457,0,0
-63,-433,0,0,0,0,0,0,0,0,0,-1,1161,1457,0,0
-56,-433,0,0,0,0,0,0,0,0,0,-1,1168,1457,0,0
-49,-433,0,0,0,0,0,0,0,0,0,-1,1175,1457,0,0
-42,-433,0,0,0,0,0,0,0,0,0,-1,1182,1457,0,0
-35,-433,0,0,0,0,0,0,0,0,0,-1,1189,1457,0,0
-28,-433,0,0,0,0,0,0,0,0,0,-1,1196,1457,0,0
-21,-433,0,0,0,0,0,0,0,0,0,-1,1203,1457,0,0
-14,-433,0,0,0,0,0,0,0,0,0,-1,1210,1457,0,0
-7,-433,0,0,0,0,0,0,0,0,0,-1,1217,1457,0,0
0,-433,0,0,0,0,0,0,0,0,0,-1,1224,1457,0,0
7,-433,0,0,0,0,0,0,0,0,0,-1,1231,1457,0,0
14,-433,0,0,0,0,0,0,0,0,0,-1,1238,1457,0,0
21,-433,0,0,0,0,0,0,0,0,0,-1,1245,1457,0,0
28,-433,0,0,0,0,0,0,0,0,0,-1,1252,1457,0,0
35,-433,0,0,0,0,0,0,0,0,0,-1,1259,1457,0,0
42,-433,0,0,0,0,0,0,0,0,0,-1,1266,1457,0,0
49,-433,0,0,0,0,0,0,0,0,0,-1,1273,1457,0,0
56,-433,0,0,0,0,0,0,0,0,0,-1,1280,1457,0,0
63,-433,0,0,0,0,0,0,0,0,0,-1,1287,1457,0,0
70,-433,0,0,0,0,0,0,0,0,0,-1,1294,1457,0,0
77,-433,0,0,0,0,0,0,0,0,0,-1,1301,1457,0,0
84,-433,0,0,0,0,0,0,0,0,0,-1,1308,1457,0,0
91,-433,0,0,0,0,0,0,0,0,0,-1,1315,1457,0,0
98,-433,0,0,0,0,0,0,0,0,0,-1,1322,1457,0,0
105,-433,0,0,0,0,0,0,0,0,0,-1,1329,1457,0,0
112,-433,0,0,0,0,0,0,0,0,0,-1,1336,1457,0,0
119,-433,0,0,0,0,0,0,0,0,0,-1,1343,1457,0,0
126,-433,0,0,0,0,0,0,0,0,0,-1,1350,1457,0,0
133,-433,0,0,0,0,0,0,0,0,0,-1,1357,1457,0,0
140,-433,0,0,0,0,0,0,0,0,0,-1,1364,1457,0,0
147,-433,0,0,0,0,0,0,0,0,0,-1,1371,1457,0,0
154,-433,0,0,0,0,0,0,0,0,0,-1,1378,1457,0,0
161,-433,0,0,0,0,0,0,0,0,0,-1,1385,1457,0,0
168,-433,0,0,0,0,0,0,0,0,0,-1,1392,1457,0,0
175,-433,0,0,0,0,0,0,0,0,0,-1,1399,1457,0,0
182,-433,0,0,0,0,0,0,0,0,0,-1,1406,1457,0,0
189,-433,0,0,0,0,0,0,0,0,0,-1,1413,1457,0,0
196,-433,0,0,0,0,0,0,0,0,0,-1,1420,1457,0,0
203,-433,0,0,0,0,0,0,0,0,0,-1,1427,1457,0,0
210,-433,0,0,0,0,0,0,0,0,0,-1,1434,1457,0,0
217,-433,0,0,0,0,0,0,0,0,0,-1,1441,1457,0,0
224,-433,0,0,0,0,0,0,0,0,0,-1,1448,1457,0,0
231,-433,0,0,0,0,0,0,0,0,0,-1,1455,1457,0,0
238,-433,0,0,0,0,0,0,0,0,0,-1,1462,1457,0,0
245,-433,0,0,0,0,0,0,0,0,0,-1,1469,1457,0,0
252,-433,0,0,0,0,0,0,0,0,0,-1,1476,1457,0,0
259,-433,0,0,0,0,0,0,0,0,0,-1,1483,1457,0,0
266,-433,0,0,0,0,0,0,0,0,0,-1,1490,1457,0,0
273,-433,0,0,0,0,0,0,0,0,0,-1,1497,1457,0,0
280,-433,0,0,0,0,0,0,0,0,0,-1,1504,1457,0,0
287,-433,0,0,0,0,0,0,0,0,0,-1,1511,1457,0,0
294,-433,0,0,0,0,0,0,0,0,0,-1,1518,1457,0,0
301,-433,0,0,0,0,0,0,0,0,0,-1,1525,1457,0,0
308,-433,0,0,0,0,0,0,0,0,0,-1,1532,1457,0,0
315,-433,0,0,0,0,0,0,0,0,0,-1,1539,1457,0,0
322,-433,0,0,0,0,0,0,0,0,0,-1,1546,1457,0,0
329,-433,0,0,0,0,0,0,0,0,0,-1,1553,1457,0,0
336,-433,0,0,0,0,0,0,0,0,0,-1,1560,1457,0,0
343,-433,0,0,0,0,0,0,0,0,0,-1,1567,1457,0,0
350,-433,0,0,0,0,0,0,0,0,0,-1,1574,1457,0,0
357,-433,0,0,0,0,0,0,0,0,0,-1,1581,1457,0,0
364,-433,0,0,0,0,0,0,0,0,0,-1,1588,1457,0,0
371,-433,0,0,0,0,0,0,0,0,0,-1,1595,1457,0,0
378,-433,0,0,0,0,0,0,0,0,0,-1,1602,1457,0,0
385,-433,0,0,0,0,0,0,0,0,0,-1,1609,1457,0,0
392,-433,0,0,0,0,0,0,0,0,0,-1,1616,1457,0,0
399,-433,0,0,0,0,0,0,0,0,0,-1,1623,1457,0,0
406,-433,0,0,0,0,0,0,0,0,0,-1,1630,1457,0,0
413,-433,0,0,0,0,0,0,0,0,0,-1,1637,1457,0,0
420,-433,0,0,0,0,0,0,0,0,0,-1,1644,1457,0,0
427,-433,0,0,0,0,0,0,0,0,0,-1,1651,1457,0,0
434,-433,0,0,0,0,0,0,0,0,0,-1,1658,1457,0,0
441,-433,0,0,0,0,0,0,0,0,0,-1,1665,1457,0,0
448,-433,0,0,0,0,0,0,0,0,0,-1,1672,1457,0,0
455,-433,0,0,0,0,0,0,0,0,0,-1,1679,1457,0,0
462,-433,0,0,0,0,0,0,0,0,0,-1,1686,1457,0,0
469,-433,0,0,0,0,0,0,0,0,0,-1,1693,1457,0,0
476,-433,0,0,0,0,0,0,0,0,0,-1,1700,1457,0,0
483,-433,0,0,0,0,0,0,0,0,0,-1,1707,1457,0,0
490,-433,0,0,0,0,0,0,0,0,0,-1,1714,1457,0,0
497,-433,0,0,0,0,0,0,0,0,0,-1,1721,1457,0,0
504,-433,10.1234,2.77124,0,0,0,0,0,0,0,-1,1728,1457,10.1234,-2.77122
511,-433,10.3503,3.08398,0,0,0,0,0,0,0,-1,1735,1457,10.3503,-3.08393
518,-433,10.5598,3.40564,0,0,0,0,0,0,0,-1,1742,1457,10.5599,-3.40561
525,-433,10.7435,3.59106,0,0,0,0,0,0,0,-1,1749,1457,10.7435,-3.59101
532,-433,10.7013,3.65295,0,0,0,0,0,0,0,-1,1756,1457,10.7013,-3.65299
539,-433,10.6143,4.23657,0,0,0,0,0,0,0,-1,1763,1457,10.6143,-4.23663
546,-433,11.4943,5.22449,0,0,0,0,0,0,0,-1,1770,1457,11.4942,-5.22452
553,-433,10.1008,5.54382,0,0,0,0,0,0,0,-1,1777,1457,10.1008,-5.54379
560,-433,9.26697,4.83459,-0.0141348,-0.000176511,0.0452248,0.0386045,-0.0529158,0.861955,0.0530542,0.0418749,1784,1457,9.26701,-4.83464
567,-433,8.60132,4.24512,-0.0151273,-0.00185205,0.0394505,0.0315153,-0.0484947,0.868744,0.0465392,0.0463943,1791,1457,8.60136,-4.24511
574,-433,7.47705,3.54736,-0.0154114,-0.00406951,0.0345028,0.0252253,-0.0447062,0.866851,0.0408938,0.0490292,1798,1457,7.47703,-3.54742
581,-433,7.40747,4.00049,-0.0148093,-0.00538652,0.0296365,0.0199108,-0.0401066,0.864225,0.0352989,0.0409414,1805,1457,7.4075,-4.00051
588,-433,7.35632,4.34595,-0.0134993,-0.00575879,0.024688,0.0153604,-0.0346185,0.863149,0.0295608,0.0286172,1812,1457,7.35634,-4.34598
595,-433,7.36292,4.32593,-0.0116742,-0.00561211,0.0200108,0.011596,-0.0288822,0.860561,0.02407,0.0208505,1819,1457,7.36296,-4.32588
602,-433,7.41333,4.20203,-0.0099533,-0.00556017,0.0158296,0.00822455,-0.023738,0.854339,0.0191644,0.0188335,1826,1457,7.41331,-4.20199
609,-433,7.42761,4.09473,-0.00803039,-0.00479584,0.0119923,0.00568777,-0.018514,0.852423,0.0146124,0.0149583,1833,1457,7.42757,-4.0947
616,-433,7.41882,3.99292,-0.00613464,-0.00395085,0.00848308,0.00351032,-0.0135958,0.849403,0.0104327,0.0132025,1840,1457,7.41879,-3.99289
623,-433,7.38965,3.85901,-0.00417953,-0.00267643,0.00565803,0.00227974,-0.0091357,0.851426,0.00697568,0.0109342,1847,1457,7.38971,-3.85901
630,-433,7.39404,3.75854,-0.00266252,-0.00186687,0.00348767,0.00124559,-0.00577498,0.842186,0.00432539,0.0140029,1854,1457,7.39408,-3.75851
637,-433,7.40723,3.64502,-0.00198191,-0.00174562,0.0016042,-0.000255213,-0.00347231,0.822156,0.00223467,0.0141221,1861,1457,7.40724,-3.645
644,-433,7.41504,3.53516,-0.000704364,-0.00165385,-0.000467857,-0.00051257,-0.00184564,-0.389047,0.00110012,0.0141867,1868,1457,7.41504,-3.53518
651,-433,7.39417,3.4541,0.00198947,-0.00325264,-0.00388133,0.00405186,-0.00531503,-0.488421,0.00542434,0.011222,1875,1457,7.3942,-3.45407
658,-433,7.39587,3.30627,0.00448063,-0.00501147,-0.00709383,0.00826965,-0.00880049,-0.490576,0.00985704,0.0122442,1882,1457,7.39593,-3.30628
665,-433,7.36609,3.11096,0.00853087,-0.00796684,-0.0118468,0.0147178,-0.0141538,-0.481282,0.0166701,0.0183369,1889,1457,7.36607,-3.11099
672,-433,7.46179,3.1145,0.0149797,-0.0123923,-0.0189699,0.0246852,-0.0220978,-0.472906,0.027024,0.0349255,1896,1457,7.46181,-3.11451
679,-433,7.46606,3.18982,0.0248631,-0.0185823,-0.0294014,0.0396961,-0.0334153,-0.467241,0.0422627,0.0421299,1903,1457,7.46605,-3.18982
686,-433,7.44238,3.34338,0.039279,-0.0267798,-0.0441704,0.0614036,-0.0489044,-0.464361,0.0638225,0.0489267,1910,1457,7.44234,-3.34341
693,-433,7.68591,3.32251,0,0,0,0,0,0,0,-1,1917,1457,7.68587,-3.3225
700,-433,8.63684,1.46997,0.0853523,-0.0503547,-0.088513,0.129027,-0.0940298,-0.45838,0.12931,0.0443258,1924,1457,8.6368,-1.46992
707,-433,9.48206,0.734253,0,0,0,0,0,0,0,-1,1931,1457,9.48205,-0.734253
714,-433,0,0,0,0,0,0,0,0,0,-1,1938,1457,0,0
721,-433,0,0,0,0,0,0,0,0,0,-1,1945,1457,0,0
728,-433,0,0,0,0,0,0,0,0,0,-1,1952,1457,0,0
735,-433,0,0,0,0,0,0,0,0,0,-1,1959,1457,0,0
742,-433,0,0,0,0,0,0,0,0,0,-1,1966,1457,0,0
749,-433,0,0,0,0,0,0,0,0,0,-1,1973,1457,0,0
756,-433,0,0,0,0,0,0,0,0,0,-1,1980,1457,0,0
763,-433,0,0,0,0,0,0,0,0,0,-1,1987,1457,0,0
770,-433,0,0,0,0,0,0,0,0,0,-1,1994,1457,0,0
777,-433,0,0,0,0,0,0,0,0,0,-1,2001,1457,0,0
784,-433,0,0,0,0,0,0,0,0,0,-1,2008,1457,0,0
791,-433,0,0,0,0,0,0,0,0,0,-1,2015,1457,0,0
798,-433,0,0,0,0,0,0,0,0,0,-1,2022,1457,0,0
805,-433,0,0,0,0,0,0,0,0,0,-1,2029,1457,0,0
812,-433,0,0,0,0,0,0,0,0,0,-1,2036,1457,0,0
-700,-440,0,0,0,0,0,0,0,0,0,-1,524,1464,0,0
-693,-440,0,0,0,0,0,0,0,0,0,-1,531,1464,0,0
-686,-440,0,0,0,0,0,0,0,0,0,-1,538,1464,0,0
-679,-440,0,0,0,0,0,0,0,0,0,-1,545,1464,0,0
-672,-440,0,0,0,0,0,0,0,0,0,-1,552,1464,0,0
-665,-440,0,0,0,0,0,0,0,0,0,-1,559,1464,0,0
-658,-440,0,0,0,0,0,0,0,0,0,-1,566,1464,0,0
-651,-440,0,0,0,0,0,0,0,0,0,-1,573,1464,0,0
-644,-440,0,0,0,0,0,0,0,0,0,-1,580,1464,0,0
-637,-440,0,0,0,0,0,0,0,0,0,-1,587,1464,0,0
-630,-440,0,0,0,0,0,0,0,0,0,-1,594,1464,0,0
-623,-440,0,0,0,0,0,0,0,0,0,-1,601,1464,0,0
-616,-440,0,0,0,0,0,0,0,0,0,-1,608,1464,0,0
-609,-440,0,0,0,0,0,0,0,0,0,-1,615,1464,0,0
-602,-440,0,0,0,0,0,0,0,0,0,-1,622,1464,0,0
-595,-440,0,0,0,0,0,0,0,0,0,-1,629,1464,0,0
-588,-440,0,0,0,0,0,0,0,0,0,-1,636,1464,0,0
-581,-440,-6.1582,3.65881,0,0,0,0,0,0,0,-1,643,1464,-6.15822,-3.65878
-574,-440,-4.98981,3.02271,0,0,0,0,0,0,0,-1,650,1464,-4.9898,-3.02269
-567,-440,-3.76709,2.63611,0,0,0,0,0,0,0,-1,657,1464,-3.76709,-2.63617
-560,-440,-2.53284,0.853271,0,0,0,0,0,0,0,-1,664,1464,-2.53282,-0.853284
-553,-440,-2.06982,1.58154,0,0,0,0,0,0,0,-1,671,1464,-2.0698,-1.5815
-546,-440,-1.87225,1.03259,0,0,0,0,0,0,0,-1,678,1464,-1.87223,-1.03259
-539,-440,-0.895508,2.00366,0,0,0,0,0,0,0,-1,685,1464,-0.895537,-2.00363
-532,-440,-0.807922,2.15442,0.0295748,0.0070105,0.0036041,0.0301365,0.00644882,0.154602,0.0183237,0.0372833,692,1464,-0.807922,-2.1544
-525,-440,-0.777771,2.27637,0.0219668,0.00673244,0.00213389,0.02226,0.00643919,0.13657,0.0132268,0.0151878,699,1464,-0.777776,-2.27637
-518,-440,-0.783875,2.37891,0.0162149,0.0059111,0.00086256,0.0162866,0.00583939,0.0829438,0.00952768,0.011773,706,1464,-0.783855,-2.37891
-511,-440,-0.767456,2.50281,0.0117401,0.00476989,7.7586e-05,0.011741,0.00476902,0.0111292,0.00681832,0.0145712,713,1464,-0.767461,-2.50286
-504,-440,-0.763916,2.62708,0.00811117,0.00367638,-0.000444442,0.00815527,0.00363227,-0.0989065,0.0047178,0.0178057,720,1464,-0.763887,-2.62705
-497,-440,-0.762329,2.74487,0.00467423,0.0025799,-0.00115783,0.00518819,0.00206594,-0.417773,0.00301603,0.0203197,727,1464,-0.762347,-2.74482
-490,-440,-0.752869,2.82104,0.00173614,0.00117326,-0.00142724,0.00290942,-2.468e-08,-0.68805,0.00193962,0.0198255,734,1464,-0.752889,-2.82102
-483,-440,-0.766357,2.97241,0.000112118,-0.00043528,-0.0014538,0.00131776,-0.00164092,-0.692355,0.00171159,0.0172606,741,1464,-0.76633,-2.97247
-476,-440,-0.773071,3.12769,-0.00110068,-0.00187094,-0.00170972,0.00026675,-0.00323837,-0.674618,0.0022531,0.0124393,748,1464,-0.773074,-3.12766
-469,-440,-0.771362,3.28467,-0.0023611,-0.00320132,-0.00189648,-0.000838762,-0.00472366,-0.676398,0.0029101,0.0118098,755,1464,-0.771379,-3.2847
-462,-440,-0.765381,3.4436,-0.00335034,-0.0046018,-0.00235516,-0.0015392,-0.00641293,-0.655555,0.00386575,0.0120276,762,1464,-0.76539,-3.44364
-455,-440,-0.732178,3.56433,-0.00389378,-0.00597724,-0.00334219,-0.00143473,-0.00843629,-0.634325,0.00521219,0.0135459,769,1464,-0.732168,-3.56432
-448,-440,-0.659058,3.64893,-0.00438807,-0.00790519,-0.00432057,-0.00148188,-0.0108114,-0.592127,0.00676792,0.0226552,776,1464,-0.659087,-3.64888
-441,-440,-0.693848,3.63318,-0.0046979,-0.0108848,-0.00525308,-0.00169509,-0.0138876,-0.519296,0.00874827,0.0350021,783,1464,-0.693867,-3.63321
-434,-440,-0.703552,3.73999,-0.00487578,-0.0145981,-0.00611272,-0.00192693,-0.017547,-0.449478,0.0111115,0.0424491,790,1464,-0.703576,-3.74004
-427,-440,-0.550232,3.84912,0,0,0,0,0,0,0,-1,797,1464,-0.550216,-3.84912
-420,-440,-0.398071,3.36157,0,0,0,0,0,0,0,-1,804,1464,-0.398072,-3.36155
-413,-440,0.154175,2.72852,0,0,0,0,0,0,0,-1,811,1464,0.154167,-2.72857
-406,-440,0.120422,2.0979,0,0,0,0,0,0,0,-1,818,1464,0.120432,-2.09791
-399,-440,0.452515,1.51501,0,0,0,0,0,0,0,-1,825,1464,0.452505,-1.51499
-392,-440,-4.84833,2.56592,0,0,0,0,0,0,0,-1,832,1464,-4.84832,-2.56597
-385,-440,6.70496,1.25854,0,0,0,0,0,0,0,-1,839,1464,6.70498,-1.25858
-378,-440,7.93719,1.35864,0,0,0,0,0,0,0,-1,846,1464,7.93722,-1.35859
-371,-440,0,0,0,0,0,0,0,0,0,-1,853,1464,0,0
-364,-440,0,0,0,0,0,0,0,0,0,-1,860,1464,0,0
-357,-440,0,0,0,0,0,0,0,0,0,-1,867,1464,0,0
-350,-440,0,0,0,0,0,0,0,0,0,-1,874,1464,0,0
-343,-440,0,0,0,0,0,0,0,0,0,-1,881,1464,0,0
-336,-440,0,0,0,0,0,0,0,0,0,-1,888,1464,0,0
-329,-440,0,0,0,0,0,0,0,0,0,-1,895,1464,0,0
-322,-440,0,0,0,0,0,0,0,0,0,-1,902,1464,0,0
-315,-440,0,0,0,0,0,0,0,0,0,-1,909,1464,0,0
-308,-440,0,0,0,0,0,0,0,0,0,-1,916,1464,0,0
-301,-440,0,0,0,0,0,0,0,0,0,-1,923,1464,0,0
-294,-440,0,0,0,0,0,0,0,0,0,-1,930,1464,0,0
-287,-440,0,0,0,0,0,0,0,0,0,-1,937,1464,0,0
-280,-440,0,0,0,0,0,0,0,0,0,-1,944,1464,0,0
-273,-440,0,0,0,0,0,0,0,0,0,-1,951,1464,0,0
-266,-440,0,0,0,0,0,0,0,0,0,-1,958,1464,0,0
-259,-440,0,0,0,0,0,0,0,0,0,-1,965,1464,0,0
-252,-440,0,0,0,0,0,0,0,0,0,-1,972,1464,0,0
-245,-440,0,0,0,0,0,0,0,0,0,-1,979,1464,0,0
-238,-440,0,0,0,0,0,0,0,0,0,-1,986,1464,0,0
-231,-440,0,0,0,0,0,0,0,0,0,-1,993,1464,0,0
-224,-440,0,0,0,0,0,0,0,0,0,-1,1000,1464,0,0
-217,-440,0,0,0,0,0,0,0,0,0,-1,1007,1464,0,0
-210,-440,0,0,0,0,0,0,0,0,0,-1,1014,1464,0,0
-203,-440,0,0,0,0,0,0,0,0,0,-1,1021,1464,0,0
-196,-440,0,0,0,0,0,0,0,0,0,-1,1028,1464,0,0
-189,-440,0,0,0,0,0,0,0,0,0,-1,1035,1464,0,0
-182,-440,0,0,0,0,0,0,0,0,0,-1,1042,1464,0,0
-175,-440,0,0,0,0,0,0,0,0,0,-1,1049,1464,0,0
-168,-440,0,0,0,0,0,0,0,0,0,-1,1056,1464,0,0
-161,-440,0,0,0,0,0,0,0,0,0,-1,1063,1464,0,0
-154,-440,0,0,0,0,0,0,0,0,0,-1,1070,1464,0,0
-147,-440,0,0,0,0,0,0,0,0,0,-1,1077,1464,0,0
-140,-440,0,0,0,0,0,0,0,0,0,-1,1084,1464,0,0
-133,-440,0,0,0,0,0,0,0,0,0,-1,1091,1464,0,0
-126,-440,0,0,0,0,0,0,0,0,0,-1,1098,1464,0,0
-119,-440,0,0,0,0,0,0,0,0,0,-1,1105,1464,0,0
-112,-440,0,0,0,0,0,0,0,0,0,-1,1112,1464,0,0
-105,-440,0,0,0,0,0,0,0,0,0,-1,1119,1464,0,0
-98,-440,0,0,0,0,0,0,0,0,0,-1,1126,1464,0,0
-91,-440,0,0,0,0,0,0,0,0,0,-1,1133,1464,0,0
-84,-440,0,0,0,0,0,0,0,0,0,-1,1140,1464,0,0
-77,-440,0,0,0,0,0,0,0,0,0,-1,1147,1464,0,0
-70,-440,0,0,0,0,0,0,0,0,0,-1,1154,1464,0,0
-63,-440,0,0,0,0,0,0,0,0,0,-1,1161,1464,0,0
-56,-440,0,0,0,0,0,0,0,0,0,-1,1168,1464,0,0
-49,-440,0,0,0,0,0,0,0,0,0,-1,1175,1464,0,0
-42,-440,0,0,0,0,0,0,0,0,0,-1,1182,1464,0,0
-35,-440,0,0,0,0,0,0,0,0,0,-1,1189,1464,0,0
-28,-440,0,0,0,0,0,0,0,0,0,-1,1196,1464,0,0
-21,-440,0,0,0,0,0,0,0,0,0,-1,1203,1464,0,0
-14,-440,0,0,0,0,0,0,0,0,0,-1,1210,1464,0,0
-7,-440,0,0,0,0,0,0,0,0,0,-1,1217,1464,0,0
0,-440,0,0,0,0,0,0,0,0,0,-1,1224,1464,0,0
7,-440,0,0,0,0,0,0,0,0,0,-1,1231,1464,0,0
14,-440,0,0,0,0,0,0,0,0,0,-1,1238,1464,0,0
21,-440,0,0,0,0,0,0,0,0,0,-1,1245,1464,0,0
28,-440,0,0,0,0,0,0,0,0,0,-1,1252,1464,0,0
35,-440,0,0,0,0,0,0,0,0,0,-1,1259,1464,0,0
42,-440,0,0,0,0,0,0,0,0,0,-1,1266,1464,0,0
49,-440,0,0,0,0,0,0,0,0,0,-1,1273,1464,0,0
56,-440,0,0,0,0,0,0,0,0,0,-1,1280,1464,0,0
63,-440,0,0,0,0,0,0,0,0,0,-1,1287,1464,0,0
70,-440,0,0,0,0,0,0,0,0,0,-1,1294,1464,0,0
77,-440,0,0,0,0,0,0,0,0,0,-1,1301,1464,0,0
84,-440,0,0,0,0,0,0,0,0,0,-1,1308,1464,0,0
91,-440,0,0,0,0,0,0,0,0,0,-1,1315,1464,0,0
98,-440,0,0,0,0,0,0,0,0,0,-1,1322,1464,0,0
105,-440,0,0,0,0,0,0,0,0,0,-1,1329,1464,0,0
112,-440,0,0,0,0,0,0,0,0,0,-1,1336,1464,0,0
119,-440,0,0,0,0,0,0,0,0,0,-1,1343,1464,0,0
126,-440,0,0,0,0,0,0,0,0,0,-1,1350,1464,0,0
133,-440,0,0,0,0,0,0,0,0,0,-1,1357,1464,0,0
140,-440,0,0,0,0,0,0,0,0,0,-1,1364,1464,0,0
147,-440,0,0,0,0,0,0,0,0,0,-1,1371,1464,0,0
154,-440,0,0,0,0,0,0,0,0,0,-1,1378,1464,0,0
161,-440,0,0,0,0,0,0,0,0,0,-1,1385,1464,0,0
168,-440,0,0,0,0,0,0,0,0,0,-1,1392,1464,0,0
175,-440,0,0,0,0,0,0,0,0,0,-1,1399,1464,0,0
182,-440,0,0,0,0,0,0,0,0,0,-1,1406,1464,0,0
189,-440,0,0,0,0,0,0,0,0,0,-1,1413,1464,0,0
196,-440,0,0,0,0,0,0,0,0,0,-1,1420,1464,0,0
203,-440,0,0,0,0,0,0,0,0,0,-1,1427,1464,0,0
210,-440,0,0,0,0,0,0,0,0,0,-1,1434,1464,0,0
217,-440,0,0,0,0,0,0,0,0,0,-1,1441,1464,0,0
224,-440,0,0,0,0,0,0,0,0,0,-1,1448,1464,0,0
231,-440,0,0,0,0,0,0,0,0,0,-1,1455,1464,0,0
238,-440,0,0,0,0,0,0,0,0,0,-1,1462,1464,0,0
245,-440,0,0,0,0,0,0,0,0,0,-1,1469,1464,0,0
252,-440,0,0,0,0,0,0,0,0,0,-1,1476,1464,0,0
259,-440,0,0,0,0,0,0,0,0,0,-1,1483,1464,0,0
266,-440,0,0,0,0,0,0,0,0,0,-1,1490,1464,0,0
273,-440,0,0,0,0,0,0,0,0,0,-1,1497,1464,0,0
280,-440,0,0,0,0,0,0,0,0,0,-1,1504,1464,0,0
287,-440,0,0,0,0,0,0,0,0,0,-1,1511,1464,0,0
294,-440,0,0,0,0,0,0,0,0,0,-1,1518,1464,0,0
301,-440,0,0,0,0,0,0,0,0,0,-1,1525,1464,0,0
308,-440,0,0,0,0,0,0,0,0,0,-1,1532,1464,0,0
315,-440,0,0,0,0,0,0,0,0,0,-1,1539,1464,0,0
322,-440,0,0,0,0,0,0,0,0,0,-1,1546,1464,0,0
329,-440,0,0,0,0,0,0,0,0,0,-1,1553,1464,0,0
336,-440,0,0,0,0,0,0,0,0,0,-1,1560,1464,0,0
343,-440,0,0,0,0,0,0,0,0,0,-1,1567,1464,0,0
350,-440,0,0,0,0,0,0,0,0,0,-1,1574,1464,0,0
357,-440,0,0,0,0,0,0,0,0,0,-1,1581,1464,0,0
364,-440,0,0,0,0,0,0,0,0,0,-1,1588,1464,0,0
371,-440,0,0,0,0,0,0,0,0,0,-1,1595,1464,0,0
378,-440,0,0,0,0,0,0,0,0,0,-1,1602,1464,0,0
385,-440,0,0,0,0,0,0,0,0,0,-1,1609,1464,0,0
392,-440,0,0,0,0,0,0,0,0,0,-1,1616,1464,0,0
399,-440,0,0,0,0,0,0,0,0,0,-1,1623,1464,0,0
406,-440,0,0,0,0,0,0,0,0,0,-1,1630,1464,0,0
413,-440,0,0,0,0,0,0,0,0,0,-1,1637,1464,0,0
420,-440,0,0,0,0,0,0,0,0,0,-1,1644,1464,0,0
427,-440,0,0,0,0,0,0,0,0,0,-1,1651,1464,0,0
434,-440,0,0,0,0,0,0,0,0,0,-1,1658,1464,0,0
441,-440,0,0,0,0,0,0,0,0,0,-1,1665,1464,0,0
448,-440,0,0,0,0,0,0,0,0,0,-1,1672,1464,0,0
455,-440,0,0,0,0,0,0,0,0,0,-1,1679,1464,0,0
462,-440,0,0,0,0,0,0,0,0,0,-1,1686,1464,0,0
469,-440,0,0,0,0,0,0,0,0,0,-1,1693,1464,0,0
476,-440,0,0,0,0,0,0,0,0,0,-1,1700,1464,0,0
483,-440,0,0,0,0,0,0,0,0,0,-1,1707,1464,0,0
490,-440,0,0,0,0,0,0,0,0,0,-1,1714,1464,0,0
497,-440,5.7356,0.300171,0,0,0,0,0,0,0,-1,1721,1464,5.73564,-0.300115
504,-440,6.49207,1.63757,0,0,0,0,0,0,0,-1,1728,1464,6.49202,-1.63758
511,-440,7.23035,2.56873,0,0,0,0,0,0,0,-1,1735,1464,7.23036,-2.56869
518,-440,10.4532,2.90808,0,0,0,0,0,0,0,-1,1742,1464,10.4533,-2.90803
525,-440,10.6204,3.07227,0,0,0,0,0,0,0,-1,1749,1464,10.6203,-3.07221
532,-440,10.6107,3.45947,0,0,0,0,0,0,0,-1,1756,1464,10.6107,-3.45941
539,-440,6.28162,6.06335,0,0,0,0,0,0,0,-1,1763,1464,6.28163,-6.06337
546,-440,6.30176,5.07361,0,0,0,0,0,0,0,-1,1770,1464,6.30177,-5.07365
553,-440,8.14331,4.53723,0,0,0,0,0,0,0,-1,1777,1464,8.14326,-4.53729
560,-440,8.19788,4.61804,-0.0151953,-0.0055371,0.0373162,0.0272612,-0.0479936,0.849745,0.0439946,0.044059,1784,1464,8.19793,-4.61802
567,-440,8.28406,4.54712,-0.014511,-0.00469183,0.0313629,0.0221435,-0.0413463,0.863038,0.0372105,0.04424,1791,1464,8.28408,-4.54716
574,-440,7.87061,4.38086,-0.0137584,-0.00508668,0.0267382,0.0176649,-0.03651,0.865778,0.0319024,0.0475685,1798,1464,7.87056,-4.38091
581,-440,7.33423,4.49622,-0.0127024,-0.00530114,0.0226166,0.0139156,-0.0319191,0.866492,0.0271346,0.031977,1805,1464,7.33427,-4.49622
588,-440,7.27393,4.48145,-0.0113224,-0.00503943,0.018582,0.0106648,-0.0270266,0.869136,0.0224342,0.0201688,1812,1464,7.27387,-4.48147
595,-440,7.29419,4.36938,-0.00958759,-0.00463253,0.0148894,0.00798409,-0.0222042,0.867841,0.0180623,0.0181472,1819,1464,7.29421,-4.36939
602,-440,7.30444,4.21472,-0.00796428,-0.00439781,0.0116121,0.00556718,-0.0179293,0.861587,0.0141777,0.018736,1826,1464,7.30443,-4.21469
609,-440,7.29248,4.09521,-0.00627768,-0.00366859,0.00864063,0.00376543,-0.0137117,0.860321,0.0106211,0.0159465,1833,1464,7.29249,-4.09516
616,-440,7.2749,4.00269,-0.00471274,-0.0029845,0.00590022,0.00211454,-0.00981178,0.858109,0.00734816,0.0163182,1840,1464,7.27495,-4.00267
623,-440,7.29565,3.88281,-0.00312093,-0.00193457,0.00376549,0.00128418,-0.00633968,0.863521,0.00471319,0.0129189,1847,1464,7.29566,-3.88279
630,-440,7.27551,3.74268,-0.00198378,-0.00140048,0.00219467,0.000521829,-0.00390609,0.851457,0.00279429,0.0112987,1854,1464,7.27547,-3.74262
637,-440,7.28369,3.646,-0.00161452,-0.00155184,0.000789339,-0.000793221,-0.00237314,0.805238,0.001395,0.015313,1861,1464,7.28374,-3.646
644,-440,7.31384,3.53162,-0.000434349,-0.00175466,-0.00114316,0.000225579,-0.00241459,-0.523549,0.00168994,0.0137392,1868,1464,7.31384,-3.53159
651,-440,7.32422,3.42529,0.00249761,-0.00365991,-0.00484773,0.00516161,-0.0063239,-0.502486,0.00664247,0.0109755,1875,1464,7.32422,-3.42531
658,-440,7.30029,3.3075,0.00528776,-0.00571123,-0.00860214,0.00999813,-0.0104216,-0.500984,0.0117902,0.0138167,1882,1464,7.30028,-3.30748
665,-440,7.30896,3.07983,0.010098,-0.00906224,-0.0144382,0.0178453,-0.0168095,-0.492485,0.020011,0.0293011,1889,1464,7.30892,-3.07983
672,-440,7.42566,2.87598,0.0179358,-0.0139025,-0.0234755,0.0303808,-0.0263474,-0.487454,0.0327796,0.0463608,1896,1464,7.42565,-2.87596
679,-440,7.59534,3.49219,0.0300168,-0.0206483,-0.0369999,0.0495254,-0.040157,-0.485218,0.0518722,0.0442403,1903,1464,7.59533,-3.4922
686,-440,7.45227,3.22656,0,0,0,0,0,0,0,-1,1910,1464,7.45226,-3.22662
693,-440,8.36401,3.22119,0.0719028,-0.0414818,-0.0820084,0.114907,-0.084486,-0.482967,0.115565,0.0473038,1917,1464,8.36397,-3.22118
700,-440,9.73596,2.05823,0.103819,-0.0563345,-0.115663,0.16442,-0.116936,-0.482619,0.16321,0.0463791,1924,1464,9.73591,-2.05828
707,-440,0,0,0,0,0,0,0,0,0,-1,1931,1464,0,0
714,-440,0,0,0,0,0,0,0,0,0,-1,1938,1464,0,0
721,-440,0,0,0,0,0,0,0,0,0,-1,1945,1464,0,0
728,-440,0,0,0,0,0,0,0,0,0,-1,1952,1464,0,0
735,-440,0,0,0,0,0,0,0,0,0,-1,1959,1464,0,0
742,-440,0,0,0,0,0,0,0,0,0,-1,1966,1464,0,0
749,-440,0,0,0,0,0,0,0,0,0,-1,1973,1464,0,0
756,-440,0,0,0,0,0,0,0,0,0,-1,1980,1464,0,0
763,-440,0,0,0,0,0,0,0,0,0,-1,1987,1464,0,0
770,-440,0,0,0,0,0,0,0,0,0,-1,1994,1464,0,0
777,-440,0,0,0,0,0,0,0,0,0,-1,2001,1464,0,0
784,-440,0,0,0,0,0,0,0,0,0,-1,2008,1464,0,0
791,-440,0,0,0,0,0,0,0,0,0,-1,2015,1464,0,0
798,-440,0,0,0,0,0,0,0,0,0,-1,2022,1464,0,0
805,-440,0,0,0,0,0,0,0,0,0,-1,2029,1464,0,0
812,-440,0,0,0,0,0,0,0,0,0,-1,2036,1464,0,0
-700,-447,0,0,0,0,0,0,0,0,0,-1,524,1471,0,0
-693,-447,0,0,0,0,0,0,0,0,0,-1,531,1471,0,0
-686,-447,0,0,0,0,0,0,0,0,0,-1,538,1471,0,0
-679,-447,0,0,0,0,0,0,0,0,0,-1,545,1471,0,0
-672,-447,0,0,0,0,0,0,0,0,0,-1,552,1471,0,0
-665,-447,0,0,0,0,0,0,0,0,0,-1,559,1471,0,0
-658,-447,0,0,0,0,0,0,0,0,0,-1,566,1471,0,0
-651,-447,0,0,0,0,0,0,0,0,0,-1,573,1471,0,0
-644,-447,0,0,0,0,0,0,0,0,0,-1,580,1471,0,0
-637,-447,0,0,0,0,0,0,0,0,0,-1,587,1471,0,0
-630,-447,0,0,0,0,0,0,0,0,0,-1,594,1471,0,0
-623,-447,0,0,0,0,0,0,0,0,0,-1,601,1471,0,0
-616,-447,0,0,0,0,0,0,0,0,0,-1,608,1471,0,0
-609,-447,0,0,0,0,0,0,0,0,0,-1,615,1471,0,0
-602,-447,0,0,0,0,0,0,0,0,0,-1,622,1471,0,0
-595,-447,0,0,0,0,0,0,0,0,0,-1,629,1471,0,0
-588,-447,0,0,0,0,0,0,0,0,0,-1,636,1471,0,0
-581,-447,-6.33344,2.99316,0,0,0,0,0,0,0,-1,643,1471,-6.33342,-2.99313
-574,-447,-6.00104,2.17188,0,0,0,0,0,0,0,-1,650,1471,-6.00102,-2.17186
-567,-447,-4.55084,1.93091,0,0,0,0,0,0,0,-1,657,1471,-4.55085,-1.93097
-560,-447,-3.53186,1.63794,0,0,0,0,0,0,0,-1,664,1471,-3.53188,-1.63795
-553,-447,-2.68939,1.01135,0.081479,0.0233945,0.0104144,0.0832898,0.0215837,0.172155,0.0499126,0.0433932,671,1471,-2.68942,-1.01132
-546,-447,-2.27881,1.48767,0.0640687,0.0172724,0.00808953,0.0654276,0.0159134,0.166435,0.0394001,0.0473582,678,1471,-2.2788,-1.48769
-539,-447,-0.964661,2.0271,0,0,0,0,0,0,0,-1,685,1471,-0.964678,-2.02715
-532,-447,-0.799988,2.16821,0.0365475,0.00890185,0.00391066,0.03709,0.00835931,0.137854,0.0224648,0.0468965,692,1471,-0.8,-2.16816
-525,-447,-0.619751,2.31995,0.0275339,0.00817555,0.00222678,0.0277867,0.00792271,0.113062,0.0165291,0.0265838,699,1471,-0.619781,-2.31997
-518,-447,-0.646484,2.37903,0.0204201,0.00696375,0.000934914,0.0204847,0.00689911,0.0690357,0.012035,0.0156903,706,1471,-0.646487,-2.379
-511,-447,-0.637268,2.5011,0.0148129,0.00553726,0.000176638,0.0148163,0.00553389,0.019034,0.00864498,0.014057,713,1471,-0.637285,-2.50104
-504,-447,-0.654175,2.62756,0.0103555,0.00418649,-0.000289833,0.0103691,0.00417291,-0.0468446,0.00602447,0.0184463,720,1471,-0.654159,-2.6276
-497,-447,-0.681702,2.745,0.00636587,0.00300102,-0.00094618,0.00661368,0.00275321,-0.256153,0.00383621,0.0236567,727,1471,-0.681715,-2.74494
-490,-447,-0.636475,2.81299,0.00302908,0.00164959,-0.00113811,0.00367014,0.00100853,-0.512972,0.00218943,0.022784,734,1471,-0.636504,-2.81299
-483,-447,-0.653809,2.95496,0.00128467,0.000159803,-0.00102829,0.00189429,-0.00044982,-0.535146,0.00143647,0.0191412,741,1471,-0.653814,-2.95498
-476,-447,-0.636169,3.11682,7.42571e-05,-0.00104762,-0.00111848,0.000764575,-0.00173794,-0.552966,0.00148081,0.0137377,748,1471,-0.636158,-3.11683
-469,-447,-0.638367,3.28235,-0.0010567,-0.00198361,-0.00111693,-0.000310888,-0.00272942,-0.58874,0.00172535,0.012017,755,1471,-0.638339,-3.28231
-462,-447,-0.63623,3.43982,-0.00164672,-0.00288923,-0.00140309,-0.000733495,-0.00380245,-0.576983,0.00232929,0.0111761,762,1471,-0.636213,-3.43983
-455,-447,-0.659912,3.56226,-0.00151119,-0.00364843,-0.00225372,-8.55753e-05,-0.00507404,-0.564017,0.00335453,0.0117364,769,1471,-0.659892,-3.56221
-448,-447,-0.611328,3.64832,-0.00124976,-0.00498623,-0.00298884,0.000406702,-0.00664269,-0.506073,0.00457007,0.016784,776,1471,-0.611344,-3.64831
-441,-447,-0.562927,3.7146,-0.000775644,-0.00748265,-0.00361091,0.000798798,-0.00905709,-0.411171,0.00632117,0.0259634,783,1471,-0.562897,-3.71463
-434,-447,-0.487854,3.85046,-0.00014534,-0.0106217,-0.00414224,0.00129455,-0.0120616,-0.334545,0.00850551,0.0361647,790,1471,-0.487872,-3.85044
-427,-447,-0.345215,4.05835,0.000848695,-0.0147238,-0.00480289,0.00221086,-0.016086,-0.276356,0.0115318,0.0431937,797,1471,-0.345199,-4.05839
-420,-447,-0.372986,4.28442,0,0,0,0,0,0,0,-1,804,1471,-0.373016,-4.28437
-413,-447,-0.325684,4.6969,0,0,0,0,0,0,0,-1,811,1471,-0.325671,-4.69685
-406,-447,-0.491028,4.6554,0,0,0,0,0,0,0,-1,818,1471,-0.491034,-4.65541
-399,-447,0.432678,2.60425,0,0,0,0,0,0,0,-1,825,1471,0.432705,-2.60422
-392,-447,-0.048645,2.17273,0,0,0,0,0,0,0,-1,832,1471,-0.0486386,-2.17277
-385,-447,3.02551,3.47607,0,0,0,0,0,0,0,-1,839,1471,3.0255,-3.47602
-378,-447,6.5293,1.50708,0,0,0,0,0,0,0,-1,846,1471,6.52927,-1.50709
-371,-447,7.32819,1.62622,0,0,0,0,0,0,0,-1,853,1471,7.3282,-1.62617
-364,-447,0,0,0,0,0,0,0,0,0,-1,860,1471,0,0
-357,-447,0,0,0,0,0,0,0,0,0,-1,867,1471,0,0
-350,-447,0,0,0,0,0,0,0,0,0,-1,874,1471,0,0
-343,-447,0,0,0,0,0,0,0,0,0,-1,881,1471,0,0
-336,-447,0,0,0,0,0,0,0,0,0,-1,888,1471,0,0
-329,-447,0,0,0,0,0,0,0,0,0,-1,895,1471,0,0
-322,-447,0,0,0,0,0,0,0,0,0,-1,902,1471,0,0
-315,-447,0,0,0,0,0,0,0,0,0,-1,909,1471,0,0
-308,-447,0,0,0,0,0,0,0,0,0,-1,916,1471,0,0
-301,-447,0,0,0,0,0,0,0,0,0,-1,923,1471,0,0
-294,-447,0,0,0,0,0,0,0,0,0,-1,930,1471,0,0
-287,-447,0,0,0,0,0,0,0,0,0,-1,937,1471,0,0
-280,-447,0,0,0,0,0,0,0,0,0,-1,944,1471,0,0
-273,-447,0,0,0,0,0,0,0,0,0,-1,951,1471,0,0
-266,-447,0,0,0,0,0,0,0,0,0,-1,958,1471,0,0
-259,-447,0,0,0,0,0,0,0,0,0,-1,965,1471,0,0
-252,-447,0,0,0,0,0,0,0,0,0,-1,972,1471,0,0
-245,-447,0,0,0,0,0,0,0,0,0,-1,979,1471,0,0
-238,-447,0,0,0,0,0,0,0,0,0,-1,986,1471,0,0
-231,-447,0,0,0,0,0,0,0,0,0,-1,993,1471,0,0
-224,-447,0,0,0,0,0,0,0,0,0,-1,1000,1471,0,0
-217,-447,0,0,0,0,0,0,0,0,0,-1,1007,1471,0,0
-210,-447,0,0,0,0,0,0,0,0,0,-1,1014,1471,0,0
-203,-447,0,0,0,0,0,0,0,0,0,-1,1021,1471,0,0
-196,-447,0,0,0,0,0,0,0,0,0,-1,1028,1471,0,0
-189,-447,0,0,0,0,0,0,0,0,0,-1,1035,1471,0,0
-182,-447,0,0,0,0,0,0,0,0,0,-1,1042,1471,0,0
-175,-447,0,0,0,0,0,0,0,0,0,-1,1049,1471,0,0
-168,-447,0,0,0,0,0,0,0,0,0,-1,1056,1471,0,0
-161,-447,0,0,0,0,0,0,0,0,0,-1,1063,1471,0,0
-154,-447,0,0,0,0,0,0,0,0,0,-1,1070,1471,0,0
-147,-447,0,0,0,0,0,0,0,0,0,-1,1077,1471,0,0
-140,-447,0,0,0,0,0,0,0,0,0,-1,1084,1471,0,0
-133,-447,0,0,0,0,0,0,0,0,0,-1,1091,1471,0,0
-126,-447,0,0,0,0,0,0,0,0,0,-1,1098,1471,0,0
-119,-447,0,0,0,0,0,0,0,0,0,-1,1105,1471,0,0
-112,-447,0,0,0,0,0,0,0,0,0,-1,1112,1471,0,0
-105,-447,0,0,0,0,0,0,0,0,0,-1,1119,1471,0,0
-98,-447,0,0,0,0,0,0,0,0,0,-1,1126,1471,0,0
-91,-447,0,0,0,0,0,0,0,0,0,-1,1133,1471,0,0
-84,-447,0,0,0,0,0,0,0,0,0,-1,1140,1471,0,0
-77,-447,0,0,0,0,0,0,0,0,0,-1,1147,1471,0,0
-70,-447,0,0,0,0,0,0,0,0,0,-1,1154,1471,0,0
-63,-447,0,0,0,0,0,0,0,0,0,-1,1161,1471,0,0
-56,-447,0,0,0,0,0,0,0,0,0,-1,1168,1471,0,0
-49,-447,0,0,0,0,0,0,0,0,0,-1,1175,1471,0,0
-42,-447,0,0,0,0,0,0,0,0,0,-1,1182,1471,0,0
-35,-447,0,0,0,0,0,0,0,0,0,-1,1189,1471,0,0
-28,-447,0,0,0,0,0,0,0,0,0,-1,1196,1471,0,0
-21,-447,0,0,0,0,0,0,0,0,0,-1,1203,1471,0,0
-14,-447,0,0,0,0,0,0,0,0,0,-1,1210,1471,0,0
-7,-447,0,0,0,0,0,0,0,0,0,-1,1217,1471,0,0
0,-447,0,0,0,0,0,0,0,0,0,-1,1224,1471,0,0
7,-447,0,0,0,0,0,0,0,0,0,-1,1231,1471,0,0
14,-447,0,0,0,0,0,0,0,0,0,-1,1238,1471,0,0
21,-447,0,0,0,0,0,0,0,0,0,-1,1245,1471,0,0
28,-447,0,0,0,0,0,0,0,0,0,-1,1252,1471,0,0
35,-447,0,0,0,0,0,0,0,0,0,-1,1259,1471,0,0
42,-447,0,0,0,0,0,0,0,0,0,-1,1266,1471,0,0
49,-447,0,0,0,0,0,0,0,0,0,-1,1273,1471,0,0
56,-447,0,0,0,0,0,0,0,0,0,-1,1280,1471,0,0
63,-447,0,0,0,0,0,0,0,0,0,-1,1287,1471,0,0
70,-447,0,0,0,0,0,0,0,0,0,-1,1294,1471,0,0
77,-447,0,0,0,0,0,0,0,0,0,-1,1301,1471,0,0
84,-447,0,0,0,0,0,0,0,0,0,-1,1308,1471,0,0
91,-447,0,0,0,0,0,0,0,0,0,-1,1315,1471,0,0
98,-447,0,0,0,0,0,0,0,0,0,-1,1322,1471,0,0
105,-447,0,0,0,0,0,0,0,0,0,-1,1329,1471,0,0
112,-447,0,0,0,0,0,0,0,0,0,-1,1336,1471,0,0
119,-447,0,0,0,0,0,0,0,0,0,-1,1343,1471,0,0
126,-447,0,0,0,0,0,0,0,0,0,-1,1350,1471,0,0
133,-447,0,0,0,0,0,0,0,0,0,-1,1357,1471,0,0
140,-447,0,0,0,0,0,0,0,0,0,-1,1364,1471,0,0
147,-447,0,0,0,0,0,0,0,0,0,-1,1371,1471,0,0
154,-447,0,0,0,0,0,0,0,0,0,-1,1378,1471,0,0
161,-447,0,0,0,0,0,0,0,0,0,-1,1385,1471,0,0
168,-447,0,0,0,0,0,0,0,0,0,-1,1392,1471,0,0
175,-447,0,0,0,0,0,0,0,0,0,-1,1399,1471,0,0
182,-447,0,0,0,0,0,0,0,0,0,-1,1406,1471,0,0
189,-447,0,0,0,0,0,0,0,0,0,-1,1413,1471,0,0
196,-447,0,0,0,0,0,0,0,0,0,-1,1420,1471,0,0
203,-447,0,0,0,0,0,0,0,0,0,-1,1427,1471,0,0
210,-447,0,0,0,0,0,0,0,0,0,-1,1434,1471,0,0
217,-447,0,0,0,0,0,0,0,0,0,-1,1441,1471,0,0
224,-447,0,0,0,0,0,0,0,0,0,-1,1448,1471,0,0
231,-447,0,0,0,0,0,0,0,0,0,-1,1455,1471,0,0
238,-447,0,0,0,0,0,0,0,0,0,-1,1462,1471,0,0
245,-447,0,0,0,0,0,0,0,0,0,-1,1469,1471,0,0
252,-447,0,0,0,0,0,0,0,0,0,-1,1476,1471,0,0
259,-447,0,0,0,0,0,0,0,0,0,-1,1483,1471,0,0
266,-447,0,0,0,0,0,0,0,0,0,-1,1490,1471,0,0
273,-447,0,0,0,0,0,0,0,0,0,-1,1497,1471,0,0
280,-447,0,0,0,0,0,0,0,0,0,-1,1504,1471,0,0
287,-447,0,0,0,0,0,0,0,0,0,-1,1511,1471,0,0
294,-447,0,0,0,0,0,0,0,0,0,-1,1518,1471,0,0
301,-447,0,0,0,0,0,0,0,0,0,-1,1525,1471,0,0
308,-447,0,0,0,0,0,0,0,0,0,-1,1532,1471,0,0
315,-447,0,0,0,0,0,0,0,0,0,-1,1539,1471,0,0
322,-447,0,0,0,0,0,0,0,0,0,-1,1546,1471,0,0
329,-447,0,0,0,0,0,0,0,0,0,-1,1553,1471,0,0
336,-447,0,0,0,0,0,0,0,0,0,-1,1560,1471,0,0
343,-447,0,0,0,0,0,0,0,0,0,-1,1567,1471,0,0
350,-447,0,0,0,0,0,0,0,0,0,-1,1574,1471,0,0
357,-447,0,0,0,0,0,0,0,0,0,-1,1581,1471,0,0
364,-447,0,0,0,0,0,0,0,0,0,-1,1588,1471,0,0
371,-447,0,0,0,0,0,0,0,0,0,-1,1595,1471,0,0
378,-447,0,0,0,0,0,0,0,0,0,-1,1602,1471,0,0
385,-447,0,0,0,0,0,0,0,0,0,-1,1609,1471,0,0
392,-447,0,0,0,0,0,0,0,0,0,-1,1616,1471,0,0
399,-447,0,0,0,0,0,0,0,0,0,-1,1623,1471,0,0
406,-447,0,0,0,0,0,0,0,0,0,-1,1630,1471,0,0
413,-447,0,0,0,0,0,0,0,0,0,-1,1637,1471,0,0
420,-447,0,0,0,0,0,0,0,0,0,-1,1644,1471,0,0
427,-447,0,0,0,0,0,0,0,0,0,-1,1651,1471,0,0
434,-447,0,0,0,0,0,0,0,0,0,-1,1658,1471,0,0
441,-447,0,0,0,0,0,0,0,0,0,-1,1665,1471,0,0
448,-447,0,0,0,0,0,0,0,0,0,-1,1672,1471,0,0
455,-447,0,0,0,0,0,0,0,0,0,-1,1679,1471,0,0
462,-447,0,0,0,0,0,0,0,0,0,-1,1686,1471,0,0
469,-447,0,0,0,0,0,0,0,0,0,-1,1693,1471,0,0
476,-447,0,0,0,0,0,0,0,0,0,-1,1700,1471,0,0
483,-447,0,0,0,0,0,0,0,0,0,-1,1707,1471,0,0
490,-447,10.047,-3.62781,0,0,0,0,0,0,0,-1,1714,1471,10.047,3.62776
497,-447,9.0625,-2.16907,0,0,0,0,0,0,0,-1,1721,1471,9.06252,2.16907
504,-447,6.0575,1.50513,0,0,0,0,0,0,0,-1,1728,1471,6.05748,-1.50515
511,-447,6.84131,2.56519,0,0,0,0,0,0,0,-1,1735,1471,6.84132,-2.5652
518,-447,9.15405,11.3463,0,0,0,0,0,0,0,-1,1742,1471,9.15401,-11.3463
525,-447,8.4552,9.28113,0,0,0,0,0,0,0,-1,1749,1471,8.4552,-9.28114
532,-447,7.98938,7.48596,0,0,0,0,0,0,0,-1,1756,1471,7.98933,-7.48597
539,-447,7.66663,5.67151,0,0,0,0,0,0,0,-1,1763,1471,7.66665,-5.67151
546,-447,6.97876,5.11877,0,0,0,0,0,0,0,-1,1770,1471,6.97881,-5.11878
553,-447,7.86841,4.66931,0,0,0,0,0,0,0,-1,1777,1471,7.86838,-4.66927
560,-447,7.71582,4.67322,-0.0157633,-0.0104808,0.0305394,0.0175314,-0.0437755,0.828535,0.0364605,0.0428258,1784,1471,7.71585,-4.67321
567,-447,7.52527,4.57397,-0.0137602,-0.00746629,0.0245929,0.0141801,-0.0354066,0.849033,0.0294903,0.0389669,1791,1471,7.52528,-4.57394
574,-447,7.27698,4.55408,-0.0121872,-0.00628773,0.020362,0.0113371,-0.0298119,0.85733,0.0245426,0.0247792,1798,1471,7.27697,-4.55402
581,-447,7.20398,4.54492,-0.0108006,-0.00548699,0.0169312,0.00899454,-0.0252822,0.863223,0.0205209,0.0122023,1805,1471,7.20403,-4.5449
588,-447,7.20239,4.45032,-0.00941686,-0.00461318,0.0136887,0.00688282,-0.0209129,0.872245,0.0167154,0.0117722,1812,1471,7.20244,-4.45037
595,-447,7.19226,4.33801,-0.00781577,-0.00395285,0.010821,0.00510771,-0.0168763,0.873714,0.0132849,0.0114556,1819,1471,7.19225,-4.33803
602,-447,7.18445,4.1947,-0.00630432,-0.00351816,0.00829575,0.00350067,-0.0133231,0.868586,0.0102502,0.0111445,1826,1471,7.18442,-4.19466
609,-447,7.1676,4.07239,-0.00484849,-0.00281721,0.00604276,0.00229466,-0.00996037,0.868658,0.00752271,0.0123992,1833,1471,7.16761,-4.07243
616,-447,7.1676,3.96777,-0.00361086,-0.00228993,0.00394355,0.00104808,-0.00694887,0.868368,0.00501856,0.0129692,1840,1471,7.16755,-3.9678
623,-447,7.18176,3.87207,-0.00236241,-0.00147529,0.00237599,0.000498187,-0.00433589,0.877678,0.00307016,0.0142841,1847,1471,7.18177,-3.87205
630,-447,7.19775,3.75122,-0.00156989,-0.00120409,0.00129975,-7.44312e-05,-0.00269955,0.855298,0.00177541,0.00903524,1854,1471,7.1978,-3.7512
637,-447,7.20764,3.62769,-0.00145592,-0.00160147,0.000306681,-0.0012135,-0.00184389,0.668908,0.00108217,0.00999727,1861,1471,7.20764,-3.62773
644,-447,7.21301,3.51221,-0.000337262,-0.00207431,-0.00152231,0.000546857,-0.00295843,-0.526163,0.00217759,0.00984588,1868,1471,7.21305,-3.51217
651,-447,7.21875,3.39465,0.00286467,-0.00425822,-0.00550156,0.00585693,-0.00725048,-0.498143,0.00758181,0.0138304,1875,1471,7.21876,-3.39469
658,-447,7.1543,3.2782,0.00607448,-0.00659969,-0.00980061,0.0114083,-0.0119335,-0.498407,0.0134776,0.022106,1882,1471,7.15425,-3.2782
665,-447,7.16028,2.94751,0.0118537,-0.0102877,-0.0167247,0.0208398,-0.0192738,-0.493037,0.0231655,0.0405716,1889,1471,7.16025,-2.94745
672,-447,7.1687,2.62976,0,0,0,0,0,0,0,-1,1896,1471,7.16874,-2.62976
679,-447,7.64307,3.62354,0,0,0,0,0,0,0,-1,1903,1471,7.64311,-3.62356
686,-447,8.78931,4.56091,0,0,0,0,0,0,0,-1,1910,1471,8.78936,-4.56092
693,-447,10.3082,3.50696,0,0,0,0,0,0,0,-1,1917,1471,10.3083,-3.507
700,-447,0,0,0,0,0,0,0,0,0,-1,1924,1471,0,0
707,-447,0,0,0,0,0,0,0,0,0,-1,1931,1471,0,0
714,-447,0,0,0,0,0,0,0,0,0,-1,1938,1471,0,0
721,-447,0,0,0,0,0,0,0,0,0,-1,1945,1471,0,0
728,-447,0,0,0,0,0,0,0,0,0,-1,1952,1471,0,0
735,-447,0,0,0,0,0,0,0,0,0,-1,1959,1471,0,0
742,-447,0,0,0,0,0,0,0,0,0,-1,1966,1471,0,0
749,-447,0,0,0,0,0,0,0,0,0,-1,1973,1471,0,0
756,-447,0,0,0,0,0,0,0,0,0,-1,1980,1471,0,0
763,-447,0,0,0,0,0,0,0,0,0,-1,1987,1471,0,0
770,-447,0,0,0,0,0,0,0,0,0,-1,1994,1471,0,0
777,-447,0,0,0,0,0,0,0,0,0,-1,2001,1471,0,0
784,-447,0,0,0,0,0,0,0,0,0,-1,2008,1471,0,0
791,-447,0,0,0,0,0,0,0,0,0,-1,2015,1471,0,0
798,-447,0,0,0,0,0,0,0,0,0,-1,2022,1471,0,0
805,-447,0,0,0,0,0,0,0,0,0,-1,2029,1471,0,0
812,-447,0,0,0,0,0,0,0,0,0,-1,2036,1471,0,0
-700,-454,0,0,0,0,0,0,0,0,0,-1,524,1478,0,0
-693,-454,0,0,0,0,0,0,0,0,0,-1,531,1478,0,0
-686,-454,0,0,0,0,0,0,0,0,0,-1,538,1478,0,0
-679,-454,0,0,0,0,0,0,0,0,0,-1,545,1478,0,0
-672,-454,0,0,0,0,0,0,0,0,0,-1,552,1478,0,0
-665,-454,0,0,0,0,0,0,0,0,0,-1,559,1478,0,0
-658,-454,0,0,0,0,0,0,0,0,0,-1,566,1478,0,0
-651,-454,0,0,0,0,0,0,0,0,0,-1,573,1478,0,0
-644,-454,0,0,0,0,0,0,0,0,0,-1,580,1478,0,0
-637,-454,0,0,0,0,0,0,0,0,0,-1,587,1478,0,0
-630,-454,0,0,0,0,0,0,0,0,0,-1,594,1478,0,0
-623,-454,0,0,0,0,0,0,0,0,0,-1,601,1478,0,0
-616,-454,0,0,0,0,0,0,0,0,0,-1,608,1478,0,0
-609,-454,0,0,0,0,0,0,0,0,0,-1,615,1478,0,0
-602,-454,0,0,0,0,0,0,0,0,0,-1,622,1478,0,0
-595,-454,0,0,0,0,0,0,0,0,0,-1,629,1478,0,0
-588,-454,0,0,0,0,0,0,0,0,0,-1,636,1478,0,0
-581,-454,0,0,0,0,0,0,0,0,0,-1,643,1478,0,0
-574,-454,-6.9444,1.31116,0,0,0,0,0,0,0,-1,650,1478,-6.94443,-1.31121
-567,-454,-5.43274,1.13525,0,0,0,0,0,0,0,-1,657,1478,-5.43274,-1.13531
-560,-454,-4.19116,1.0343,0,0,0,0,0,0,0,-1,664,1478,-4.19113,-1.03428
-553,-454,-3.1474,1.08093,0.0900184,0.0258426,0.0144248,0.0931115,0.0227494,0.211235,0.0560518,0.0466606,671,1478,-3.14738,-1.08091
-546,-454,-2.58057,1.50952,0.0717888,0.0200133,0.0109052,0.073992,0.0178101,0.199345,0.044593,0.0468114,678,1478,-2.58059,-1.5095
-539,-454,-0.537476,1.31226,0,0,0,0,0,0,0,-1,685,1478,-0.537494,-1.31223
-532,-454,-0.483826,1.7251,0.0423858,0.0117906,0.00529702,0.0432769,0.0108994,0.166672,0.0259914,0.0459342,692,1478,-0.483853,-1.7251
-525,-454,-0.56311,2.28369,0.0321315,0.0103569,0.00311477,0.0325683,0.0099201,0.139325,0.019276,0.0397061,699,1478,-0.563103,-2.28372
-518,-454,-0.493408,2.45178,0.0237984,0.00855795,0.00171935,0.0239899,0.00836639,0.110957,0.0140603,0.0230871,706,1478,-0.493419,-2.4518
-511,-454,-0.52948,2.49609,0.0171853,0.00665858,0.000863128,0.0172556,0.00658828,0.0812708,0.0100549,0.0139441,713,1478,-0.529473,-2.49607
-504,-454,-0.513794,2.61377,0.0120176,0.00494624,0.000302861,0.0120306,0.0049333,0.0427247,0.00698322,0.0151071,720,1478,-0.513778,-2.61382
-497,-454,-0.513733,2.74841,0.00758063,0.00356435,-0.000426285,0.00762537,0.0035196,-0.104587,0.00440685,0.0197761,727,1478,-0.513754,-2.74835
-490,-454,-0.516235,2.86755,0.00391106,0.00215735,-0.000693875,0.00415239,0.00191602,-0.334714,0.00239976,0.0181205,734,1478,-0.516253,-2.86755
-483,-454,-0.523193,3.01367,0.002065,0.000639716,-0.000621462,0.00229791,0.000406804,-0.358579,0.00141596,0.0151354,741,1478,-0.523213,-3.01362
-476,-454,-0.527344,3.1394,0.000859423,-0.000486243,-0.000705812,0.00116172,-0.000788538,-0.404657,0.00113283,0.0126591,748,1478,-0.527344,-3.13943
-469,-454,-0.51825,3.27832,-0.000206402,-0.00115877,-0.000638252,0.000113729,-0.0014789,-0.464906,0.00102595,0.00910088,755,1478,-0.518226,-3.27828
-462,-454,-0.522095,3.41846,-0.000525888,-0.00177814,-0.000855462,-9.18973e-05,-0.00221213,-0.469484,0.0014451,0.00923446,762,1478,-0.52208,-3.41851
-455,-454,-0.522949,3.54749,0.00017047,-0.00212889,-0.00166125,0.00104107,-0.00299949,-0.482711,0.00242244,0.0104716,769,1478,-0.522937,-3.54746
-448,-454,-0.520569,3.64673,0.00101356,-0.00312519,-0.00219673,0.00196212,-0.00407374,-0.407621,0.00355518,0.0114181,776,1478,-0.520552,-3.64672
-441,-454,-0.415466,3.75854,0.00205443,-0.00533386,-0.00255104,0.00284966,-0.00612909,-0.302182,0.00529789,0.0191489,783,1478,-0.415459,-3.75855
-434,-454,-0.267944,3.87402,0.00320728,-0.00810774,-0.0028225,0.00387226,-0.00877273,-0.231382,0.0074811,0.0285228,790,1478,-0.267921,-3.87397
-427,-454,-0.164978,4.08789,0.00459075,-0.0116586,-0.00320002,0.00519823,-0.0122661,-0.187603,0.0103546,0.0414136,797,1478,-0.164951,-4.08792
-420,-454,-0.159363,4.28931,0.00576982,-0.0164683,-0.00327316,0.00624157,-0.0169401,-0.143143,0.0138509,0.0472512,804,1478,-0.159335,-4.28926
-413,-454,-0.164551,4.41077,0,0,0,0,0,0,0,-1,811,1478,-0.164544,-4.41071
-406,-454,-0.305786,4.26697,0,0,0,0,0,0,0,-1,818,1478,-0.305796,-4.26698
-399,-454,-0.342529,4.13611,0,0,0,0,0,0,0,-1,825,1478,-0.342532,-4.13614
-392,-454,1.54077,3.3634,0,0,0,0,0,0,0,-1,832,1478,1.54077,-3.36345
-385,-454,2.38629,3.297,0,0,0,0,0,0,0,-1,839,1478,2.38629,-3.29702
-378,-454,3.80048,3.42151,0,0,0,0,0,0,0,-1,846,1478,3.80046,-3.4215
-371,-454,1.25891,1.51331,0,0,0,0,0,0,0,-1,853,1478,1.25891,-1.51328
-364,-454,1.08124,0.819458,0,0,0,0,0,0,0,-1,860,1478,1.08124,-0.819513
-357,-454,0,0,0,0,0,0,0,0,0,-1,867,1478,0,0
-350,-454,0,0,0,0,0,0,0,0,0,-1,874,1478,0,0
-343,-454,0,0,0,0,0,0,0,0,0,-1,881,1478,0,0
-336,-454,0,0,0,0,0,0,0,0,0,-1,888,1478,0,0
-329,-454,0,0,0,0,0,0,0,0,0,-1,895,1478,0,0
-322,-454,0,0,0,0,0,0,0,0,0,-1,902,1478,0,0
-315,-454,0,0,0,0,0,0,0,0,0,-1,909,1478,0,0
-308,-454,0,0,0,0,0,0,0,0,0,-1,916,1478,0,0
-301,-454,0,0,0,0,0,0,0,0,0,-1,923,1478,0,0
-294,-454,0,0,0,0,0,0,0,0,0,-1,930,1478,0,0
-287,-454,0,0,0,0,0,0,0,0,0,-1,937,1478,0,0
-280,-454,0,0,0,0,0,0,0,0,0,-1,944,1478,0,0
-273,-454,0,0,0,0,0,0,0,0,0,-1,951,1478,0,0
-266,-454,0,0,0,0,0,0,0,0,0,-1,958,1478,0,0
-259,-454,0,0,0,0,0,0,0,0,0,-1,965,1478,0,0
-252,-454,0,0,0,0,0,0,0,0,0,-1,972,1478,0,0
-245,-454,0,0,0,0,0,0,0,0,0,-1,979,1478,0,0
-238,-454,0,0,0,0,0,0,0,0,0,-1,986,1478,0,0
-231,-454,0,0,0,0,0,0,0,0,0,-1,993,1478,0,0
-224,-454,0,0,0,0,0,0,0,0,0,-1,1000,1478,0,0
-217,-454,0,0,0,0,0,0,0,0,0,-1,1007,1478,0,0
-210,-454,0,0,0,0,0,0,0,0,0,-1,1014,1478,0,0
-203,-454,0,0,0,0,0,0,0,0,0,-1,1021,1478,0,0
-196,-454,0,0,0,0,0,0,0,0,0,-1,1028,1478,0,0
-189,-454,0,0,0,0,0,0,0,0,0,-1,1035,1478,0,0
-182,-454,0,0,0,0,0,0,0,0,0,-1,1042,1478,0,0
-175,-454,0,0,0,0,0,0,0,0,0,-1,1049,1478,0,0
-168,-454,0,0,0,0,0,0,0,0,0,-1,1056,1478,0,0
-161,-454,0,0,0,0,0,0,0,0,0,-1,1063,1478,0,0
-154,-454,0,0,0,0,0,0,0,0,0,-1,1070,1478,0,0
-147,-454,0,0,0,0,0,0,0,0,0,-1,1077,1478,0,0
-140,-454,0,0,0,0,0,0,0,0,0,-1,1084,1478,0,0
-133,-454,0,0,0,0,0,0,0,0,0,-1,1091,1478,0,0
-126,-454,0,0,0,0,0,0,0,0,0,-1,1098,1478,0,0
-119,-454,0,0,0,0,0,0,0,0,0,-1,1105,1478,0,0
-112,-454,0,0,0,0,0,0,0,0,0,-1,1112,1478,0,0
-105,-454,0,0,0,0,0,0,0,0,0,-1,1119,1478,0,0
-98,-454,0,0,0,0,0,0,0,0,0,-1,1126,1478,0,0
-91,-454,0,0,0,0,0,0,0,0,0,-1,1133,1478,0,0
-84,-454,0,0,0,0,0,0,0,0,0,-1,1140,1478,0,0
-77,-454,0,0,0,0,0,0,0,0,0,-1,1147,1478,0,0
-70,-454,0,0,0,0,0,0,0,0,0,-1,1154,1478,0,0
-63,-454,0,0,0,0,0,0,0,0,0,-1,1161,1478,0,0
-56,-454,0,0,0,0,0,0,0,0,0,-1,1168,1478,0,0
-49,-454,0,0,0,0,0,0,0,0,0,-1,1175,1478,0,0
-42,-454,0,0,0,0,0,0,0,0,0,-1,1182,1478,0,0
-35,-454,0,0,0,0,0,0,0,0,0,-1,1189,1478,0,0
-28,-454,0,0,0,0,0,0,0,0,0,-1,1196,1478,0,0
-21,-454,0,0,0,0,0,0,0,0,0,-1,1203,1478,0,0
-14,-454,0,0,0,0,0,0,0,0,0,-1,1210,1478,0,0
-7,-454,0,0,0,0,0,0,0,0,0,-1,1217,1478,0,0
0,-454,0,0,0,0,0,0,0,0,0,-1,1224,1478,0,0
7,-454,0,0,0,0,0,0,0,0,0,-1,1231,1478,0,0
14,-454,0,0,0,0,0,0,0,0,0,-1,1238,1478,0,0
21,-454,0,0,0,0,0,0,0,0,0,-1,1245,1478,0,0
28,-454,0,0,0,0,0,0,0,0,0,-1,1252,1478,0,0
35,-454,0,0,0,0,0,0,0,0,0,-1,1259,1478,0,0
42,-454,0,0,0,0,0,0,0,0,0,-1,1266,1478,0,0
49,-454,0,0,0,0,0,0,0,0,0,-1,1273,1478,0,0
56,-454,0,0,0,0,0,0,0,0,0,-1,1280,1478,0,0
63,-454,0,0,0,0,0,0,0,0,0,-1,1287,1478,0,0
70,-454,0,0,0,0,0,0,0,0,0,-1,1294,1478,0,0
77,-454,0,0,0,0,0,0,0,0,0,-1,1301,1478,0,0
84,-454,0,0,0,0,0,0,0,0,0,-1,1308,1478,0,0
91,-454,0,0,0,0,0,0,0,0,0,-1,1315,1478,0,0
98,-454,0,0,0,0,0,0,0,0,0,-1,1322,1478,0,0
105,-454,0,0,0,0,0,0,0,0,0,-1,1329,1478,0,0
112,-454,0,0,0,0,0,0,0,0,0,-1,1336,1478,0,0
119,-454,0,0,0,0,0,0,0,0,0,-1,1343,1478,0,0
126,-454,0,0,0,0,0,0,0,0,0,-1,1350,1478,0,0
133,-454,0,0,0,0,0,0,0,0,0,-1,1357,1478,0,0
140,-454,0,0,0,0,0,0,0,0,0,-1,1364,1478,0,0
147,-454,0,0,0,0,0,0,0,0,0,-1,1371,1478,0,0
154,-454,0,0,0,0,0,0,0,0,0,-1,1378,1478,0,0
161,-454,0,0,0,0,0,0,0,0,0,-1,1385,1478,0,0
168,-454,0,0,0,0,0,0,0,0,0,-1,1392,1478,0,0
175,-454,0,0,0,0,0,0,0,0,0,-1,1399,1478,0,0
182,-454,0,0,0,0,0,0,0,0,0,-1,1406,1478,0,0
189,-454,0,0,0,0,0,0,0,0,0,-1,1413,1478,0,0
196,-454,0,0,0,0,0,0,0,0,0,-1,1420,1478,0,0
203,-454,0,0,0,0,0,0,0,0,0,-1,1427,1478,0,0
210,-454,0,0,0,0,0,0,0,0,0,-1,1434,1478,0,0
217,-454,0,0,0,0,0,0,0,0,0,-1,1441,1478,0,0
224,-454,0,0,0,0,0,0,0,0,0,-1,1448,1478,0,0
231,-454,0,0,0,0,0,0,0,0,0,-1,1455,1478,0,0
238,-454,0,0,0,0,0,0,0,0,0,-1,1462,1478,0,0
245,-454,0,0,0,0,0,0,0,0,0,-1,1469,1478,0,0
252,-454,0,0,0,0,0,0,0,0,0,-1,1476,1478,0,0
259,-454,0,0,0,0,0,0,0,0,0,-1,1483,1478,0,0
266,-454,0,0,0,0,0,0,0,0,0,-1,1490,1478,0,0
273,-454,0,0,0,0,0,0,0,0,0,-1,1497,1478,0,0
280,-454,0,0,0,0,0,0,0,0,0,-1,1504,1478,0,0
287,-454,0,0,0,0,0,0,0,0,0,-1,1511,1478,0,0
294,-454,0,0,0,0,0,0,0,0,0,-1,1518,1478,0,0
301,-454,0,0,0,0,0,0,0,0,0,-1,1525,1478,0,0
308,-454,0,0,0,0,0,0,0,0,0,-1,1532,1478,0,0
315,-454,0,0,0,0,0,0,0,0,0,-1,1539,1478,0,0
322,-454,0,0,0,0,0,0,0,0,0,-1,1546,1478,0,0
329,-454,0,0,0,0,0,0,0,0,0,-1,1553,1478,0,0
336,-454,0,0,0,0,0,0,0,0,0,-1,1560,1478,0,0
343,-454,0,0,0,0,0,0,0,0,0,-1,1567,1478,0,0
350,-454,0,0,0,0,0,0,0,0,0,-1,1574,1478,0,0
357,-454,0,0,0,0,0,0,0,0,0,-1,1581,1478,0,0
364,-454,0,0,0,0,0,0,0,0,0,-1,1588,1478,0,0
371,-454,0,0,0,0,0,0,0,0,0,-1,1595,1478,0,0
378,-454,0,0,0,0,0,0,0,0,0,-1,1602,1478,0,0
385,-454,0,0,0,0,0,0,0,0,0,-1,1609,1478,0,0
392,-454,0,0,0,0,0,0,0,0,0,-1,1616,1478,0,0
399,-454,0,0,0,0,0,0,0,0,0,-1,1623,1478,0,0
406,-454,0,0,0,0,0,0,0,0,0,-1,1630,1478,0,0
413,-454,0,0,0,0,0,0,0,0,0,-1,1637,1478,0,0
420,-454,0,0,0,0,0,0,0,0,0,-1,1644,1478,0,0
427,-454,0,0,0,0,0,0,0,0,0,-1,1651,1478,0,0
434,-454,0,0,0,0,0,0,0,0,0,-1,1658,1478,0,0
441,-454,0,0,0,0,0,0,0,0,0,-1,1665,1478,0,0
448,-454,0,0,0,0,0,0,0,0,0,-1,1672,1478,0,0
455,-454,0,0,0,0,0,0,0,0,0,-1,1679,1478,0,0
462,-454,0,0,0,0,0,0,0,0,0,-1,1686,1478,0,0
469,-454,0,0,0,0,0,0,0,0,0,-1,1693,1478,0,0
476,-454,0,0,0,0,0,0,0,0,0,-1,1700,1478,0,0
483,-454,10.955,-5.32214,0,0,0,0,0,0,0,-1,1707,1478,10.955,5.3221
490,-454,9.95667,-3.80872,0,0,0,0,0,0,0,-1,1714,1478,9.95668,3.80875
497,-454,8.97449,-2.34668,0,0,0,0,0,0,0,-1,1721,1478,8.97451,2.3467
504,-454,8.80908,-0.822876,0,0,0,0,0,0,0,-1,1728,1478,8.80914,0.822912
511,-454,10.5947,11.7461,0,0,0,0,0,0,0,-1,1735,1478,10.5947,-11.7461
518,-454,9.75757,10.1605,0,0,0,0,0,0,0,-1,1742,1478,9.75762,-10.1606
525,-454,8.85999,8.79492,0,0,0,0,0,0,0,-1,1749,1478,8.85996,-8.79491
532,-454,8.27881,7.18921,0,0,0,0,0,0,0,-1,1756,1478,8.27878,-7.18925
539,-454,7.77405,5.83984,0,0,0,0,0,0,0,-1,1763,1478,7.77405,-5.8398
546,-454,7.49182,5.07788,-0.0207808,-0.0269738,0.044442,0.0206725,-0.068427,0.750617,0.0538482,0.0428048,1770,1478,7.49182,-5.07792
553,-454,7.23254,4.72253,-0.0192031,-0.0174696,0.031129,0.0128047,-0.0494774,0.799316,0.0379796,0.0392113,1777,1478,7.23248,-4.72256
560,-454,7.16089,4.80017,-0.0156883,-0.0129277,0.022285,0.00801972,-0.0366357,0.816328,0.0274898,0.0373389,1784,1478,7.16089,-4.80015
567,-454,7.10559,4.71472,-0.012636,-0.00869471,0.0171065,0.00655432,-0.027885,0.842745,0.0211166,0.0196056,1791,1478,7.10565,-4.71467
574,-454,7.06873,4.61694,-0.0104306,-0.00652365,0.0137906,0.00545113,-0.0224054,0.855757,0.017047,0.0109219,1798,1478,7.06867,-4.617
581,-454,7.07886,4.52588,-0.00884589,-0.00510615,0.0113554,0.00453229,-0.0184843,0.867,0.014079,0.010431,1805,1478,7.07886,-4.52592
588,-454,7.08154,4.42859,-0.00754212,-0.00389697,0.00906508,0.00352694,-0.014966,0.884603,0.0113374,0.0118358,1812,1478,7.08158,-4.4286
595,-454,7.06848,4.32031,-0.00612553,-0.00314908,0.00710747,0.00262431,-0.0118989,0.888602,0.00893676,0.0109653,1819,1478,7.06846,-4.32033
602,-454,7.06628,4.19873,-0.0047928,-0.00268512,0.00539421,0.00175723,-0.00923515,0.881865,0.00681841,0.00838927,1826,1478,7.0663,-4.19871
609,-454,7.08496,4.09851,-0.00359237,-0.00210553,0.00388152,0.00110312,-0.00680102,0.880016,0.00494292,0.0100819,1833,1478,7.08498,-4.0985
616,-454,7.09033,3.98083,-0.0026545,-0.0017592,0.00242074,0.000254929,-0.00466863,0.876826,0.00320078,0.0131784,1840,1478,7.09027,-3.98085
623,-454,7.08875,3.86279,-0.00176527,-0.00122608,0.00139958,-7.0369e-05,-0.00292098,0.880546,0.00192429,0.0103463,1847,1478,7.08875,-3.86284
630,-454,7.10059,3.76416,-0.00133789,-0.00124987,0.000758078,-0.000534522,-0.00205323,0.814392,0.00122999,0.00888918,1854,1478,7.10062,-3.7641
637,-454,7.09583,3.65942,-0.00147605,-0.00190944,9.8673e-05,-0.00145464,-0.00193085,0.213647,0.00116151,0.00948372,1861,1478,7.09581,-3.65948
644,-454,7.09314,3.53174,-0.000425043,-0.00264473,-0.00171379,0.000506883,-0.00357665,-0.498056,0.00257011,0.0118708,1868,1478,7.09313,-3.53175
651,-454,7.03931,3.43713,0.00300953,-0.00509383,-0.00597494,0.00617699,-0.00826129,-0.487456,0.00836485,0.019437,1875,1478,7.03927,-3.43715
658,-454,7.00098,3.27258,0.00663654,-0.00773046,-0.0108553,0.01247,-0.0135639,-0.493102,0.0150351,0.0314092,1882,1478,7.00093,-3.27257
665,-454,6.70459,2.97546,0.0133725,-0.0116182,-0.0188627,0.0235031,-0.0217488,-0.492863,0.0261328,0.0417214,1889,1478,6.70455,-2.97544
672,-454,6.4397,2.53113,0,0,0,0,0,0,0,-1,1896,1478,6.43973,-2.53107
679,-454,7.82642,0.708618,0,0,0,0,0,0,0,-1,1903,1478,7.8264,-0.708589
686,-454,10.8621,4.86084,0,0,0,0,0,0,0,-1,1910,1478,10.8621,-4.86089
693,-454,12.4622,3.90857,0,0,0,0,0,0,0,-1,1917,1478,12.4621,-3.90858
700,-454,0,0,0,0,0,0,0,0,0,-1,1924,1478,0,0
707,-454,0,0,0,0,0,0,0,0,0,-1,1931,1478,0,0
714,-454,0,0,0,0,0,0,0,0,0,-1,1938,1478,0,0
721,-454,0,0,0,0,0,0,0,0,0,-1,1945,1478,0,0
728,-454,0,0,0,0,0,0,0,0,0,-1,1952,1478,0,0
735,-454,0,0,0,0,0,0,0,0,0,-1,1959,1478,0,0
742,-454,0,0,0,0,0,0,0,0,0,-1,1966,1478,0,0
749,-454,0,0,0,0,0,0,0,0,0,-1,1973,1478,0,0
756,-454,0,0,0,0,0,0,0,0,0,-1,1980,1478,0,0
763,-454,0,0,0,0,0,0,0,0,0,-1,1987,1478,0,0
770,-454,0,0,0,0,0,0,0,0,0,-1,1994,1478,0,0
777,-454,0,0,0,0,0,0,0,0,0,-1,2001,1478,0,0
784,-454,0,0,0,0,0,0,0,0,0,-1,2008,1478,0,0
791,-454,0,0,0,0,0,0,0,0,0,-1,2015,1478,0,0
798,-454,0,0,0,0,0,0,0,0,0,-1,2022,1478,0,0
805,-454,0,0,0,0,0,0,0,0,0,-1,2029,1478,0,0
812,-454,0,0,0,0,0,0,0,0,0,-1,2036,1478,0,0
-700,-461,0,0,0,0,0,0,0,0,0,-1,524,1485,0,0
-693,-461,0,0,0,0,0,0,0,0,0,-1,531,1485,0,0
-686,-461,0,0,0,0,0,0,0,0,0,-1,538,1485,0,0
-679,-461,0,0,0,0,0,0,0,0,0,-1,545,1485,0,0
-672,-461,0,0,0,0,0,0,0,0,0,-1,552,1485,0,0
-665,-461,0,0,0,0,0,0,0,0,0,-1,559,1485,0,0
-658,-461,0,0,0,0,0,0,0,0,0,-1,566,1485,0,0
-651,-461,0,0,0,0,0,0,0,0,0,-1,573,1485,0,0
-644,-461,0,0,0,0,0,0,0,0,0,-1,580,1485,0,0
-637,-461,0,0,0,0,0,0,0,0,0,-1,587,1485,0,0
-630,-461,0,0,0,0,0,0,0,0,0,-1,594,1485,0,0
-623,-461,0,0,0,0,0,0,0,0,0,-1,601,1485,0,0
-616,-461,0,0,0,0,0,0,0,0,0,-1,608,1485,0,0
-609,-461,0,0,0,0,0,0,0,0,0,-1,615,1485,0,0
-602,-461,0,0,0,0,0,0,0,0,0,-1,622,1485,0,0
-595,-461,0,0,0,0,0,0,0,0,0,-1,629,1485,0,0
-588,-461,0,0,0,0,0,0,0,0,0,-1,636,1485,0,0
-581,-461,0,0,0,0,0,0,0,0,0,-1,643,1485,0,0
-574,-461,0,0,0,0,0,0,0,0,0,-1,650,1485,0,0
-567,-461,-6.33441,0.374878,0,0,0,0,0,0,0,-1,657,1485,-6.33444,-0.374864
-560,-461,-4.64178,1.02356,0,0,0,0,0,0,0,-1,664,1485,-4.64177,-1.02359
-553,-461,-3.4809,1.23474,0.0961871,0.0269882,0.0176757,0.100441,0.0227347,0.236152,0.0608156,0.0478173,671,1485,-3.48087,-1.23479
-546,-461,-2.58337,1.521,0.0777878,0.0229389,0.0131586,0.0807813,0.0199455,0.223683,0.04859,0.0471172,678,1485,-2.58335,-1.52096
-539,-461,-0.234802,1.13525,0,0,0,0,0,0,0,-1,685,1485,-0.234774,-1.13522
-532,-461,-0.239563,1.56763,0.0475151,0.0158399,0.00665295,0.0488557,0.0144993,0.198845,0.0289731,0.0420359,692,1485,-0.239568,-1.56757
-525,-461,-0.562622,2.02344,0.0360793,0.0134375,0.0044596,0.0369261,0.0125908,0.18763,0.0216757,0.0415697,699,1485,-0.562596,-2.02347
-518,-461,-0.384155,2.46021,0.0267451,0.0108014,0.00299344,0.0272886,0.0102579,0.179605,0.015916,0.0337015,706,1485,-0.384177,-2.46016
-511,-461,-0.363586,2.5304,0.0193048,0.0082328,0.00200982,0.0196583,0.00787926,0.174125,0.0114239,0.0153984,713,1485,-0.363612,-2.53042
-504,-461,-0.380554,2.62927,0.0134958,0.00600656,0.0012905,0.013712,0.00579043,0.16594,0.00794842,0.0101596,720,1485,-0.380548,-2.62932
-497,-461,-0.375732,2.77441,0.00860594,0.00430623,0.000414475,0.00864553,0.00426664,0.0952279,0.00499164,0.011291,727,1485,-0.375708,-2.77441
-490,-461,-0.389771,2.89148,0.00455375,0.00270306,-1.32598e-05,0.00455384,0.00270296,-0.00716428,0.00264446,0.0128195,734,1485,-0.389765,-2.89152
-483,-461,-0.386841,3.02734,0.00249974,0.00105935,-7.5127e-05,0.00250365,0.00105544,-0.0519693,0.0014514,0.0120987,741,1485,-0.386831,-3.02738
-476,-461,-0.384094,3.17224,0.00120767,-0.000166985,-0.000267439,0.00125786,-0.000217183,-0.185537,0.00091956,0.0100755,748,1485,-0.384073,-3.17228
-469,-461,-0.389465,3.30347,5.96155e-05,-0.000775597,-0.00024481,0.000126082,-0.000842064,-0.265113,0.000607779,0.0115333,755,1485,-0.389474,-3.30342
-462,-461,-0.358093,3.42957,-0.000191215,-0.00126327,-0.000503481,8.16077e-06,-0.00146265,-0.377048,0.000977831,0.0167228,762,1485,-0.358079,-3.42953
-455,-461,-0.352051,3.55322,0.000834834,-0.0014188,-0.00135113,0.00146735,-0.00205132,-0.437837,0.00204081,0.0217788,769,1485,-0.352022,-3.55323
-448,-461,-0.388184,3.67285,0.00200428,-0.00232058,-0.00176295,0.00263185,-0.00294815,-0.341989,0.00322334,0.017004,776,1485,-0.388211,-3.67282
-441,-461,-0.351196,3.79663,0.00330362,-0.0044667,-0.00191923,0.00375181,-0.00491489,-0.229414,0.00501872,0.0124517,783,1485,-0.351216,-3.79668
-434,-461,-0.249695,3.88538,0.00463199,-0.00711936,-0.00200968,0.00496618,-0.00745355,-0.16478,0.00721831,0.0164908,790,1485,-0.249692,-3.88541
-427,-461,-0.181519,3.9303,0.00604202,-0.0104315,-0.00220512,0.00633209,-0.0107216,-0.130791,0.00995406,0.0247285,797,1485,-0.181513,-3.9303
-420,-461,-0.174011,3.97498,0.00711325,-0.0147831,-0.0020963,0.00731213,-0.0149819,-0.0945925,0.0131229,0.0453043,804,1485,-0.174034,-3.97493
-413,-461,-0.162903,4.03979,0,0,0,0,0,0,0,-1,811,1485,-0.16293,-4.03978
-406,-461,-0.0938721,3.87842,0,0,0,0,0,0,0,-1,818,1485,-0.0938911,-3.87842
-399,-461,-0.053894,3.74329,0,0,0,0,0,0,0,-1,825,1485,-0.0539081,-3.74334
-392,-461,-0.804077,5.97729,0,0,0,0,0,0,0,-1,832,1485,-0.804098,-5.97725
-385,-461,1.71509,3.35254,0,0,0,0,0,0,0,-1,839,1485,1.71511,-3.35255
-378,-461,1.95996,3.01111,0,0,0,0,0,0,0,-1,846,1485,1.95993,-3.01111
-371,-461,2.17938,2.37439,0,0,0,0,0,0,0,-1,853,1485,2.17941,-2.37441
-364,-461,-1.93097,2.56458,0,0,0,0,0,0,0,-1,860,1485,-1.93095,-2.56456
-357,-461,-2.41516,3.49487,0,0,0,0,0,0,0,-1,867,1485,-2.41517,-3.49487
-350,-461,0,0,0,0,0,0,0,0,0,-1,874,1485,0,0
-343,-461,0,0,0,0,0,0,0,0,0,-1,881,1485,0,0
-336,-461,0,0,0,0,0,0,0,0,0,-1,888,1485,0,0
-329,-461,0,0,0,0,0,0,0,0,0,-1,895,1485,0,0
-322,-461,0,0,0,0,0,0,0,0,0,-1,902,1485,0,0
-315,-461,0,0,0,0,0,0,0,0,0,-1,909,1485,0,0
-308,-461,0,0,0,0,0,0,0,0,0,-1,916,1485,0,0
-301,-461,0,0,0,0,0,0,0,0,0,-1,923,1485,0,0
-294,-461,0,0,0,0,0,0,0,0,0,-1,930,1485,0,0
-287,-461,0,0,0,0,0,0,0,0,0,-1,937,1485,0,0
-280,-461,0,0,0,0,0,0,0,0,0,-1,944,1485,0,0
-273,-461,0,0,0,0,0,0,0,0,0,-1,951,1485,0,0
-266,-461,0,0,0,0,0,0,0,0,0,-1,958,1485,0,0
-259,-461,0,0,0,0,0,0,0,0,0,-1,965,1485,0,0
-252,-461,0,0,0,0,0,0,0,0,0,-1,972,1485,0,0
-245,-461,0,0,0,0,0,0,0,0,0,-1,979,1485,0,0
-238,-461,0,0,0,0,0,0,0,0,0,-1,986,1485,0,0
-231,-461,0,0,0,0,0,0,0,0,0,-1,993,1485,0,0
-224,-461,0,0,0,0,0,0,0,0,0,-1,1000,1485,0,0
-217,-461,0,0,0,0,0,0,0,0,0,-1,1007,1485,0,0
-210,-461,0,0,0,0,0,0,0,0,0,-1,1014,1485,0,0
-203,-461,0,0,0,0,0,0,0,0,0,-1,1021,1485,0,0
-196,-461,0,0,0,0,0,0,0,0,0,-1,1028,1485,0,0
-189,-461,0,0,0,0,0,0,0,0,0,-1,1035,1485,0,0
-182,-461,0,0,0,0,0,0,0,0,0,-1,1042,1485,0,0
-175,-461,0,0,0,0,0,0,0,0,0,-1,1049,1485,0,0
-168,-461,0,0,0,0,0,0,0,0,0,-1,1056,1485,0,0
-161,-461,0,0,0,0,0,0,0,0,0,-1,1063,1485,0,0
-154,-461,0,0,0,0,0,0,0,0,0,-1,1070,1485,0,0
-147,-461,0,0,0,0,0,0,0,0,0,-1,1077,1485,0,0
-140,-461,0,0,0,0,0,0,0,0,0,-1,1084,1485,0,0
-133,-461,0,0,0,0,0,0,0,0,0,-1,1091,1485,0,0
-126,-461,0,0,0,0,0,0,0,0,0,-1,1098,1485,0,0
-119,-461,0,0,0,0,0,0,0,0,0,-1,1105,1485,0,0
-112,-461,0,0,0,0,0,0,0,0,0,-1,1112,1485,0,0
-105,-461,0,0,0,0,0,0,0,0,0,-1,1119,1485,0,0
-98,-461,0,0,0,0,0,0,0,0,0,-1,1126,1485,0,0
-91,-461,0,0,0,0,0,0,0,0,0,-1,1133,1485,0,0
-84,-461,0,0,0,0,0,0,0,0,0,-1,1140,1485,0,0
-77,-461,0,0,0,0,0,0,0,0,0,-1,1147,1485,0,0
-70,-461,0,0,0,0,0,0,0,0,0,-1,1154,1485,0,0
-63,-461,0,0,0,0,0,0,0,0,0,-1,1161,1485,0,0
-56,-461,0,0,0,0,0,0,0,0,0,-1,1168,1485,0,0
-49,-461,0,0,0,0,0,0,0,0,0,-1,1175,1485,0,0
-42,-461,0,0,0,0,0,0,0,0,0,-1,1182,1485,0,0
-35,-461,0,0,0,0,0,0,0,0,0,-1,1189,1485,0,0
-28,-461,0,0,0,0,0,0,0,0,0,-1,1196,1485,0,0
-21,-461,0,0,0,0,0,0,0,0,0,-1,1203,1485,0,0
-14,-461,0,0,0,0,0,0,0,0,0,-1,1210,1485,0,0
-7,-461,0,0,0,0,0,0,0,0,0,-1,1217,1485,0,0
0,-461,0,0,0,0,0,0,0,0,0,-1,1224,1485,0,0
7,-461,0,0,0,0,0,0,0,0,0,-1,1231,1485,0,0
14,-461,0,0,0,0,0,0,0,0,0,-1,1238,1485,0,0
21,-461,0,0,0,0,0,0,0,0,0,-1,1245,1485,0,0
28,-461,0,0,0,0,0,0,0,0,0,-1,1252,1485,0,0
35,-461,0,0,0,0,0,0,0,0,0,-1,1259,1485,0,0
42,-461,0,0,0,0,0,0,0,0,0,-1,1266,1485,0,0
49,-461,0,0,0,0,0,0,0,0,0,-1,1273,1485,0,0
56,-461,0,0,0,0,0,0,0,0,0,-1,1280,1485,0,0
63,-461,0,0,0,0,0,0,0,0,0,-1,1287,1485,0,0
70,-461,0,0,0,0,0,0,0,0,0,-1,1294,1485,0,0
77,-461,0,0,0,0,0,0,0,0,0,-1,1301,1485,0,0
84,-461,0,0,0,0,0,0,0,0,0,-1,1308,1485,0,0
91,-461,0,0,0,0,0,0,0,0,0,-1,1315,1485,0,0
98,-461,0,0,0,0,0,0,0,0,0,-1,1322,1485,0,0
105,-461,0,0,0,0,0,0,0,0,0,-1,1329,1485,0,0
112,-461,0,0,0,0,0,0,0,0,0,-1,1336,1485,0,0
119,-461,0,0,0,0,0,0,0,0,0,-1,1343,1485,0,0
126,-461,0,0,0,0,0,0,0,0,0,-1,1350,1485,0,0
133,-461,0,0,0,0,0,0,0,0,0,-1,1357,1485,0,0
140,-461,0,0,0,0,0,0,0,0,0,-1,1364,1485,0,0
147,-461,0,0,0,0,0,0,0,0,0,-1,1371,1485,0,0
154,-461,0,0,0,0,0,0,0,0,0,-1,1378,1485,0,0
161,-461,0,0,0,0,0,0,0,0,0,-1,1385,1485,0,0
168,-461,0,0,0,0,0,0,0,0,0,-1,1392,1485,0,0
175,-461,0,0,0,0,0,0,0,0,0,-1,1399,1485,0,0
182,-461,0,0,0,0,0,0,0,0,0,-1,1406,1485,0,0
189,-461,0,0,0,0,0,0,0,0,0,-1,1413,1485,0,0
196,-461,0,0,0,0,0,0,0,0,0,-1,1420,1485,0,0
203,-461,0,0,0,0,0,0,0,0,0,-1,1427,1485,0,0
210,-461,0,0,0,0,0,0,0,0,0,-1,1434,1485,0,0
217,-461,0,0,0,0,0,0,0,0,0,-1,1441,1485,0,0
224,-461,0,0,0,0,0,0,0,0,0,-1,1448,1485,0,0
231,-461,0,0,0,0,0,0,0,0,0,-1,1455,1485,0,0
238,-461,0,0,0,0,0,0,0,0,0,-1,1462,1485,0,0
245,-461,0,0,0,0,0,0,0,0,0,-1,1469,1485,0,0
252,-461,0,0,0,0,0,0,0,0,0,-1,1476,1485,0,0
259,-461,0,0,0,0,0,0,0,0,0,-1,1483,1485,0,0
266,-461,0,0,0,0,0,0,0,0,0,-1,1490,1485,0,0
273,-461,0,0,0,0,0,0,0,0,0,-1,1497,1485,0,0
280,-461,0,0,0,0,0,0,0,0,0,-1,1504,1485,0,0
287,-461,0,0,0,0,0,0,0,0,0,-1,1511,1485,0,0
294,-461,0,0,0,0,0,0,0,0,0,-1,1518,1485,0,0
301,-461,0,0,0,0,0,0,0,0,0,-1,1525,1485,0,0
308,-461,0,0,0,0,0,0,0,0,0,-1,1532,1485,0,0
315,-461,0,0,0,0,0,0,0,0,0,-1,1539,1485,0,0
322,-461,0,0,0,0,0,0,0,0,0,-1,1546,1485,0,0
329,-461,0,0,0,0,0,0,0,0,0,-1,1553,1485,0,0
336,-461,0,0,0,0,0,0,0,0,0,-1,1560,1485,0,0
343,-461,0,0,0,0,0,0,0,0,0,-1,1567,1485,0,0
350,-461,0,0,0,0,0,0,0,0,0,-1,1574,1485,0,0
357,-461,0,0,0,0,0,0,0,0,0,-1,1581,1485,0,0
364,-461,0,0,0,0,0,0,0,0,0,-1,1588,1485,0,0
371,-461,0,0,0,0,0,0,0,0,0,-1,1595,1485,0,0
378,-461,0,0,0,0,0,0,0,0,0,-1,1602,1485,0,0
385,-461,0,0,0,0,0,0,0,0,0,-1,1609,1485,0,0
392,-461,0,0,0,0,0,0,0,0,0,-1,1616,1485,0,0
399,-461,0,0,0,0,0,0,0,0,0,-1,1623,1485,0,0
406,-461,0,0,0,0,0,0,0,0,0,-1,1630,1485,0,0
413,-461,0,0,0,0,0,0,0,0,0,-1,1637,1485,0,0
420,-461,0,0,0,0,0,0,0,0,0,-1,1644,1485,0,0
427,-461,0,0,0,0,0,0,0,0,0,-1,1651,1485,0,0
434,-461,0,0,0,0,0,0,0,0,0,-1,1658,1485,0,0
441,-461,0,0,0,0,0,0,0,0,0,-1,1665,1485,0,0
448,-461,0,0,0,0,0,0,0,0,0,-1,1672,1485,0,0
455,-461,0,0,0,0,0,0,0,0,0,-1,1679,1485,0,0
462,-461,0,0,0,0,0,0,0,0,0,-1,1686,1485,0,0
469,-461,0,0,0,0,0,0,0,0,0,-1,1693,1485,0,0
476,-461,8.17102,4.18921,0,0,0,0,0,0,0,-1,1700,1485,8.17097,-4.1892
483,-461,8.40637,5.04382,0,0,0,0,0,0,0,-1,1707,1485,8.40637,-5.04381
490,-461,9.71997,-4.12805,0,0,0,0,0,0,0,-1,1714,1485,9.71997,4.12809
497,-461,9.09558,-2.3208,-0.0407803,-0.102185,0.15184,0.0834299,-0.226396,0.685642,0.185117,0.0461554,1721,1485,9.09556,2.32078
504,-461,8.57971,-0.412964,-0.0371666,-0.0900081,0.131676,0.0707135,-0.197888,0.686389,0.160767,0.0489314,1728,1485,8.57971,0.412927
511,-461,7.86731,1.28259,0,0,0,0,0,0,0,-1,1735,1485,7.86725,-1.28261
518,-461,10.3612,8.97485,0,0,0,0,0,0,0,-1,1742,1485,10.3612,-8.97482
525,-461,9.26477,8.30872,0,0,0,0,0,0,0,-1,1749,1485,9.26472,-8.30869
532,-461,8.56824,6.89258,0,0,0,0,0,0,0,-1,1756,1485,8.56823,-6.89253
539,-461,6.48535,5.44128,0,0,0,0,0,0,0,-1,1763,1485,6.48531,-5.44127
546,-461,6.82764,4.95361,-0.0164167,-0.025768,0.0357376,0.0149498,-0.0571345,0.720351,0.0439292,0.0464183,1770,1485,6.82758,-4.95357
553,-461,7.22302,4.82263,-0.0153746,-0.0165811,0.0234696,0.00749947,-0.0394552,0.77255,0.0291269,0.0401704,1777,1485,7.223,-4.82268
560,-461,6.94678,4.81738,-0.0121688,-0.0122096,0.0157269,0.0035377,-0.0279161,0.784751,0.0198951,0.0234432,1784,1485,6.94679,-4.81734
567,-461,6.95227,4.74243,-0.00935109,-0.00798291,0.011372,0.00272556,-0.0200596,0.81544,0.014368,0.0116711,1791,1485,6.95231,-4.74246
574,-461,6.95313,4.63403,-0.00738636,-0.00572098,0.00882345,0.00230899,-0.0154163,0.832445,0.0111274,0.0127208,1798,1485,6.95314,-4.63408
581,-461,6.9729,4.53613,-0.0061293,-0.00429801,0.00715618,0.00200087,-0.0124282,0.849028,0.00902663,0.012636,1805,1485,6.9729,-4.53613
588,-461,6.95544,4.42725,-0.00520832,-0.00313972,0.00557892,0.00149997,-0.00984801,0.877054,0.00711821,0.00999228,1812,1485,6.95542,-4.42723
595,-461,6.94604,4.32178,-0.00415404,-0.00252913,0.00430318,0.00103761,-0.00772079,0.878702,0.00552563,0.00839239,1819,1485,6.946,-4.32182
602,-461,6.96045,4.22119,-0.0031323,-0.00222402,0.00319518,0.000549134,-0.00590546,0.855992,0.0041322,0.0091171,1826,1485,6.96049,-4.22118
609,-461,6.98181,4.10803,-0.00225441,-0.00182935,0.00225328,0.000221401,-0.00430516,0.832419,0.00294668,0.0105997,1833,1485,6.98182,-4.10809
616,-461,6.99426,3.98486,-0.00165888,-0.00164198,0.00133066,-0.000319744,-0.00298112,0.788573,0.00188987,0.0131918,1840,1485,6.99427,-3.98492
623,-461,6.97473,3.87891,-0.00115029,-0.00135672,0.000755829,-0.000490664,-0.00201635,0.717539,0.00121419,0.0116034,1847,1485,6.97478,-3.87889
630,-461,6.974,3.77222,-0.00110034,-0.00162355,0.000466147,-0.000827405,-0.00189648,0.529695,0.00109789,0.00934559,1854,1485,6.97403,-3.77218
637,-461,6.98096,3.66113,-0.00151923,-0.0024715,7.98914e-05,-0.00151257,-0.00247816,0.0831215,0.00144234,0.011258,1861,1485,6.981,-3.66109
644,-461,6.95581,3.53979,-0.000581313,-0.00339757,-0.00174024,0.000249144,-0.00422802,-0.445248,0.00290529,0.0165218,1868,1485,6.95587,-3.53974
651,-461,6.95276,3.40381,0.00307,-0.00603074,-0.00632084,0.00630801,-0.00926875,-0.47342,0.00904724,0.0229478,1875,1485,6.95273,-3.40375
658,-461,6.89429,3.25867,0.00723105,-0.00888805,-0.0118099,0.0134694,-0.0151264,-0.485976,0.016519,0.0415784,1882,1485,6.89434,-3.25864
665,-461,6.53613,3.04004,0.0149008,-0.0131084,-0.0208986,0.0260533,-0.0242609,-0.490203,0.0290551,0.0448651,1889,1485,6.53614,-3.04
672,-461,6.21582,2.46021,0,0,0,0,0,0,0,-1,1896,1485,6.21579,-2.46019
679,-461,7.39221,0.835938,0,0,0,0,0,0,0,-1,1903,1485,7.39224,-0.835895
686,-461,12.1923,5.11084,0,0,0,0,0,0,0,-1,1910,1485,12.1922,-5.11078
693,-461,0,0,0,0,0,0,0,0,0,-1,1917,1485,0,0
700,-461,0,0,0,0,0,0,0,0,0,-1,1924,1485,0,0
707,-461,0,0,0,0,0,0,0,0,0,-1,1931,1485,0,0
714,-461,0,0,0,0,0,0,0,0,0,-1,1938,1485,0,0
721,-461,0,0,0,0,0,0,0,0,0,-1,1945,1485,0,0
728,-461,0,0,0,0,0,0,0,0,0,-1,1952,1485,0,0
735,-461,0,0,0,0,0,0,0,0,0,-1,1959,1485,0,0
742,-461,0,0,0,0,0,0,0,0,0,-1,1966,1485,0,0
749,-461,0,0,0,0,0,0,0,0,0,-1,1973,1485,0,0
756,-461,0,0,0,0,0,0,0,0,0,-1,1980,1485,0,0
763,-461,0,0,0,0,0,0,0,0,0,-1,1987,1485,0,0
770,-461,0,0,0,0,0,0,0,0,0,-1,1994,1485,0,0
777,-461,0,0,0,0,0,0,0,0,0,-1,2001,1485,0,0
784,-461,0,0,0,0,0,0,0,0,0,-1,2008,1485,0,0
791,-461,0,0,0,0,0,0,0,0,0,-1,2015,1485,0,0
798,-461,0,0,0,0,0,0,0,0,0,-1,2022,1485,0,0
805,-461,0,0,0,0,0,0,0,0,0,-1,2029,1485,0,0
812,-461,0,0,0,0,0,0,0,0,0,-1,2036,1485,0,0
-700,-468,0,0,0,0,0,0,0,0,0,-1,524,1492,0,0
-693,-468,0,0,0,0,0,0,0,0,0,-1,531,1492,0,0
-686,-468,0,0,0,0,0,0,0,0,0,-1,538,1492,0,0
-679,-468,0,0,0,0,0,0,0,0,0,-1,545,1492,0,0
-672,-468,0,0,0,0,0,0,0,0,0,-1,552,1492,0,0
-665,-468,0,0,0,0,0,0,0,0,0,-1,559,1492,0,0
-658,-468,0,0,0,0,0,0,0,0,0,-1,566,1492,0,0
-651,-468,0,0,0,0,0,0,0,0,0,-1,573,1492,0,0
-644,-468,0,0,0,0,0,0,0,0,0,-1,580,1492,0,0
-637,-468,0,0,0,0,0,0,0,0,0,-1,587,1492,0,0
-630,-468,0,0,0,0,0,0,0,0,0,-1,594,1492,0,0
-623,-468,0,0,0,0,0,0,0,0,0,-1,601,1492,0,0
-616,-468,0,0,0,0,0,0,0,0,0,-1,608,1492,0,0
-609,-468,0,0,0,0,0,0,0,0,0,-1,615,1492,0,0
-602,-468,0,0,0,0,0,0,0,0,0,-1,622,1492,0,0
-595,-468,0,0,0,0,0,0,0,0,0,-1,629,1492,0,0
-588,-468,0,0,0,0,0,0,0,0,0,-1,636,1492,0,0
-581,-468,0,0,0,0,0,0,0,0,0,-1,643,1492,0,0
-574,-468,0,0,0,0,0,0,0,0,0,-1,650,1492,0,0
-567,-468,-0.0491333,0.895996,0,0,0,0,0,0,0,-1,657,1492,-0.0491181,-0.896051
-560,-468,0.345825,0.735352,0,0,0,0,0,0,0,-1,664,1492,0.345842,-0.735325
-553,-468,-3.60651,0.766357,0,0,0,0,0,0,0,-1,671,1492,-3.60652,-0.766308
-546,-468,-2.35266,1.10364,0,0,0,0,0,0,0,-1,678,1492,-2.35266,-1.10369
-539,-468,-1.03009,1.40149,0,0,0,0,0,0,0,-1,685,1492,-1.03011,-1.40146
-532,-468,-0.663025,1.60938,0.0522425,0.0200473,0.00765289,0.053969,0.0183207,0.221889,0.0316898,0.0409241,692,1492,-0.663054,-1.60936
-525,-468,-0.36261,1.84351,0.0395465,0.0164746,0.0057019,0.0408787,0.0151424,0.229528,0.023864,0.0417295,699,1492,-0.362598,-1.84355
-518,-468,-0.19281,2.39893,0.0291867,0.0128947,0.00434242,0.0302719,0.0118096,0.244878,0.0176176,0.0409539,706,1492,-0.192803,-2.39898
-511,-468,-0.234314,2.50391,0.0209398,0.00961708,0.00333964,0.0218514,0.00870546,0.26648,0.0127025,0.0291097,713,1492,-0.234293,-2.50385
-504,-468,-0.252014,2.65369,0.0145201,0.00684776,0.00251738,0.0152723,0.00609553,0.290369,0.00887708,0.0119381,720,1492,-0.251995,-2.6537
-497,-468,-0.254883,2.79578,0.00925983,0.00480548,0.00149678,0.00971605,0.00434926,0.295861,0.00561981,0.00881195,727,1492,-0.254891,-2.79579
-490,-468,-0.254883,2.91858,0.00488522,0.0030126,0.000883022,0.00523592,0.00266189,0.378058,0.0030231,0.00812166,734,1492,-0.254872,-2.91853
-483,-468,-0.252563,3.04663,0.00264508,0.00122121,0.000628856,0.00288305,0.000983248,0.361757,0.00169234,0.00809283,741,1492,-0.252579,-3.04665
-476,-468,-0.245422,3.17712,0.0012498,-0.000110509,0.000294329,0.00131075,-0.000171462,0.204204,0.000936238,0.00838191,748,1492,-0.245419,-3.17714
-469,-468,-0.242798,3.30432,1.39997e-06,-0.000679128,0.000208655,6.02806e-05,-0.000738009,0.27504,0.000513281,0.0120792,755,1492,-0.242783,-3.30433
-462,-468,-0.200867,3.43726,-0.000202841,-0.00108765,-0.000203706,-0.000158195,-0.0011323,-0.215755,0.000708049,0.0215878,762,1492,-0.200874,-3.43724
-455,-468,-0.212891,3.5354,0.00107451,-0.00114085,-0.00118505,0.00158896,-0.0016553,-0.409567,0.0018732,0.0223237,769,1492,-0.212882,-3.53536
-448,-468,-0.244385,3.65344,0.00246187,-0.00200493,-0.00155235,0.00294838,-0.00249143,-0.303702,0.00314436,0.0132245,776,1492,-0.244379,-3.65349
-441,-468,-0.234131,3.78564,0.00388618,-0.00410056,-0.00156916,0.00418342,-0.00439779,-0.187204,0.00495488,0.0112204,783,1492,-0.23413,-3.7856
-434,-468,-0.227356,3.92151,0.00528674,-0.00664907,-0.00150738,0.00547417,-0.00683649,-0.123703,0.00712206,0.0105245,790,1492,-0.227384,-3.92147
-427,-468,-0.190369,4.00244,0.00665266,-0.00976648,-0.00156773,0.00680101,-0.00991483,-0.0943459,0.00970655,0.0135968,797,1492,-0.190362,-4.00244
-420,-468,-0.136414,4.08496,0.00766521,-0.0138151,-0.00134773,0.00774944,-0.0138993,-0.0624163,0.0126659,0.0254202,804,1492,-0.136428,-4.08497
-413,-468,0.0496216,3.99426,0.00882403,-0.0194403,-0.000701216,0.00884142,-0.0194577,-0.0247889,0.0167173,0.0433926,811,1492,0.0496117,-3.99422
-406,-468,0.15094,3.56567,0.00933983,-0.0264438,0.000688779,0.00935308,-0.0264571,0.0192389,0.0214467,0.0447761,818,1492,0.150945,-3.5657
-399,-468,0.183228,3.42505,0,0,0,0,0,0,0,-1,825,1492,0.183201,-3.42505
-392,-468,-0.872131,4.71094,0,0,0,0,0,0,0,-1,832,1492,-0.872116,-4.71099
-385,-468,-0.884583,5.22644,0,0,0,0,0,0,0,-1,839,1492,-0.884562,-5.2265
-378,-468,1.99835,3.25391,0,0,0,0,0,0,0,-1,846,1492,1.99837,-3.2539
-371,-468,-0.31842,3.1532,0,0,0,0,0,0,0,-1,853,1492,-0.318441,-3.15324
-364,-468,-0.752136,1.72119,0,0,0,0,0,0,0,-1,860,1492,-0.752112,-1.72116
-357,-468,-1.69568,2.94958,0,0,0,0,0,0,0,-1,867,1492,-1.69568,-2.9496
-350,-468,-2.38977,3.93274,0,0,0,0,0,0,0,-1,874,1492,-2.38974,-3.9327
-343,-468,0,0,0,0,0,0,0,0,0,-1,881,1492,0,0
-336,-468,0,0,0,0,0,0,0,0,0,-1,888,1492,0,0
-329,-468,0,0,0,0,0,0,0,0,0,-1,895,1492,0,0
-322,-468,0,0,0,0,0,0,0,0,0,-1,902,1492,0,0
-315,-468,0,0,0,0,0,0,0,0,0,-1,909,1492,0,0
-308,-468,0,0,0,0,0,0,0,0,0,-1,916,1492,0,0
-301,-468,0,0,0,0,0,0,0,0,0,-1,923,1492,0,0
-294,-468,0,0,0,0,0,0,0,0,0,-1,930,1492,0,0
-287,-468,0,0,0,0,0,0,0,0,0,-1,937,1492,0,0
-280,-468,0,0,0,0,0,0,0,0,0,-1,944,1492,0,0
-273,-468,0,0,0,0,0,0,0,0,0,-1,951,1492,0,0
-266,-468,0,0,0,0,0,0,0,0,0,-1,958,1492,0,0
-259,-468,0,0,0,0,0,0,0,0,0,-1,965,1492,0,0
-252,-468,0,0,0,0,0,0,0,0,0,-1,972,1492,0,0
-245,-468,0,0,0,0,0,0,0,0,0,-1,979,1492,0,0
-238,-468,0,0,0,0,0,0,0,0,0,-1,986,1492,0,0
-231,-468,0,0,0,0,0,0,0,0,0,-1,993,1492,0,0
-224,-468,0,0,0,0,0,0,0,0,0,-1,1000,1492,0,0
-217,-468,0,0,0,0,0,0,0,0,0,-1,1007,1492,0,0
-210,-468,0,0,0,0,0,0,0,0,0,-1,1014,1492,0,0
-203,-468,0,0,0,0,0,0,0,0,0,-1,1021,1492,0,0
-196,-468,0,0,0,0,0,0,0,0,0,-1,1028,1492,0,0
-189,-468,0,0,0,0,0,0,0,0,0,-1,1035,1492,0,0
-182,-468,0,0,0,0,0,0,0,0,0,-1,1042,1492,0,0
-175,-468,0,0,0,0,0,0,0,0,0,-1,1049,1492,0,0
-168,-468,0,0,0,0,0,0,0,0,0,-1,1056,1492,0,0
-161,-468,0,0,0,0,0,0,0,0,0,-1,1063,1492,0,0
-154,-468,0,0,0,0,0,0,0,0,0,-1,1070,1492,0,0
-147,-468,0,0,0,0,0,0,0,0,0,-1,1077,1492,0,0
-140,-468,0,0,0,0,0,0,0,0,0,-1,1084,1492,0,0
-133,-468,0,0,0,0,0,0,0,0,0,-1,1091,1492,0,0
-126,-468,0,0,0,0,0,0,0,0,0,-1,1098,1492,0,0
-119,-468,0,0,0,0,0,0,0,0,0,-1,1105,1492,0,0
-112,-468,0,0,0,0,0,0,0,0,0,-1,1112,1492,0,0
-105,-468,0,0,0,0,0,0,0,0,0,-1,1119,1492,0,0
-98,-468,0,0,0,0,0,0,0,0,0,-1,1126,1492,0,0
-91,-468,0,0,0,0,0,0,0,0,0,-1,1133,1492,0,0
-84,-468,0,0,0,0,0,0,0,0,0,-1,1140,1492,0,0
-77,-468,0,0,0,0,0,0,0,0,0,-1,1147,1492,0,0
-70,-468,0,0,0,0,0,0,0,0,0,-1,1154,1492,0,0
-63,-468,0,0,0,0,0,0,0,0,0,-1,1161,1492,0,0
-56,-468,0,0,0,0,0,0,0,0,0,-1,1168,1492,0,0
-49,-468,0,0,0,0,0,0,0,0,0,-1,1175,1492,0,0
-42,-468,0,0,0,0,0,0,0,0,0,-1,1182,1492,0,0
-35,-468,0,0,0,0,0,0,0,0,0,-1,1189,1492,0,0
-28,-468,0,0,0,0,0,0,0,0,0,-1,1196,1492,0,0
-21,-468,0,0,0,0,0,0,0,0,0,-1,1203,1492,0,0
-14,-468,0,0,0,0,0,0,0,0,0,-1,1210,1492,0,0
-7,-468,0,0,0,0,0,0,0,0,0,-1,1217,1492,0,0
0,-468,0,0,0,0,0,0,0,0,0,-1,1224,1492,0,0
7,-468,0,0,0,0,0,0,0,0,0,-1,1231,1492,0,0
14,-468,0,0,0,0,0,0,0,0,0,-1,1238,1492,0,0
21,-468,0,0,0,0,0,0,0,0,0,-1,1245,1492,0,0
28,-468,0,0,0,0,0,0,0,0,0,-1,1252,1492,0,0
35,-468,0,0,0,0,0,0,0,0,0,-1,1259,1492,0,0
42,-468,0,0,0,0,0,0,0,0,0,-1,1266,1492,0,0
49,-468,0,0,0,0,0,0,0,0,0,-1,1273,1492,0,0
56,-468,0,0,0,0,0,0,0,0,0,-1,1280,1492,0,0
63,-468,0,0,0,0,0,0,0,0,0,-1,1287,1492,0,0
70,-468,0,0,0,0,0,0,0,0,0,-1,1294,1492,0,0
77,-468,0,0,0,0,0,0,0,0,0,-1,1301,1492,0,0
84,-468,0,0,0,0,0,0,0,0,0,-1,1308,1492,0,0
91,-468,0,0,0,0,0,0,0,0,0,-1,1315,1492,0,0
98,-468,0,0,0,0,0,0,0,0,0,-1,1322,1492,0,0
105,-468,0,0,0,0,0,0,0,0,0,-1,1329,1492,0,0
112,-468,0,0,0,0,0,0,0,0,0,-1,1336,1492,0,0
119,-468,0,0,0,0,0,0,0,0,0,-1,1343,1492,0,0
126,-468,0,0,0,0,0,0,0,0,0,-1,1350,1492,0,0
133,-468,0,0,0,0,0,0,0,0,0,-1,1357,1492,0,0
140,-468,0,0,0,0,0,0,0,0,0,-1,1364,1492,0,0
147,-468,0,0,0,0,0,0,0,0,0,-1,1371,1492,0,0
154,-468,0,0,0,0,0,0,0,0,0,-1,1378,1492,0,0
161,-468,0,0,0,0,0,0,0,0,0,-1,1385,1492,0,0
168,-468,0,0,0,0,0,0,0,0,0,-1,1392,1492,0,0
175,-468,0,0,0,0,0,0,0,0,0,-1,1399,1492,0,0
182,-468,0,0,0,0,0,0,0,0,0,-1,1406,1492,0,0
189,-468,0,0,0,0,0,0,0,0,0,-1,1413,1492,0,0
196,-468,0,0,0,0,0,0,0,0,0,-1,1420,1492,0,0
203,-468,0,0,0,0,0,0,0,0,0,-1,1427,1492,0,0
210,-468,0,0,0,0,0,0,0,0,0,-1,1434,1492,0,0
217,-468,0,0,0,0,0,0,0,0,0,-1,1441,1492,0,0
224,-468,0,0,0,0,0,0,0,0,0,-1,1448,1492,0,0
231,-468,0,0,0,0,0,0,0,0,0,-1,1455,1492,0,0
238,-468,0,0,0,0,0,0,0,0,0,-1,1462,1492,0,0
245,-468,0,0,0,0,0,0,0,0,0,-1,1469,1492,0,0
252,-468,0,0,0,0,0,0,0,0,0,-1,1476,1492,0,0
259,-468,0,0,0,0,0,0,0,0,0,-1,1483,1492,0,0
266,-468,0,0,0,0,0,0,0,0,0,-1,1490,1492,0,0
273,-468,0,0,0,0,0,0,0,0,0,-1,1497,1492,0,0
280,-468,0,0,0,0,0,0,0,0,0,-1,1504,1492,0,0
287,-468,0,0,0,0,0,0,0,0,0,-1,1511,1492,0,0
294,-468,0,0,0,0,0,0,0,0,0,-1,1518,1492,0,0
301,-468,0,0,0,0,0,0,0,0,0,-1,1525,1492,0,0
308,-468,0,0,0,0,0,0,0,0,0,-1,1532,1492,0,0
315,-468,0,0,0,0,0,0,0,0,0,-1,1539,1492,0,0
322,-468,0,0,0,0,0,0,0,0,0,-1,1546,1492,0,0
329,-468,0,0,0,0,0,0,0,0,0,-1,1553,1492,0,0
336,-468,0,0,0,0,0,0,0,0,0,-1,1560,1492,0,0
343,-468,0,0,0,0,0,0,0,0,0,-1,1567,1492,0,0
350,-468,0,0,0,0,0,0,0,0,0,-1,1574,1492,0,0
357,-468,0,0,0,0,0,0,0,0,0,-1,1581,1492,0,0
364,-468,0,0,0,0,0,0,0,0,0,-1,1588,1492,0,0
371,-468,0,0,0,0,0,0,0,0,0,-1,1595,1492,0,0
378,-468,0,0,0,0,0,0,0,0,0,-1,1602,1492,0,0
385,-468,0,0,0,0,0,0,0,0,0,-1,1609,1492,0,0
392,-468,0,0,0,0,0,0,0,0,0,-1,1616,1492,0,0
399,-468,0,0,0,0,0,0,0,0,0,-1,1623,1492,0,0
406,-468,0,0,0,0,0,0,0,0,0,-1,1630,1492,0,0
413,-468,0,0,0,0,0,0,0,0,0,-1,1637,1492,0,0
420,-468,0,0,0,0,0,0,0,0,0,-1,1644,1492,0,0
427,-468,0,0,0,0,0,0,0,0,0,-1,1651,1492,0,0
434,-468,0,0,0,0,0,0,0,0,0,-1,1658,1492,0,0
441,-468,0,0,0,0,0,0,0,0,0,-1,1665,1492,0,0
448,-468,0,0,0,0,0,0,0,0,0,-1,1672,1492,0,0
455,-468,0,0,0,0,0,0,0,0,0,-1,1679,1492,0,0
462,-468,0,0,0,0,0,0,0,0,0,-1,1686,1492,0,0
469,-468,7.82861,4.17322,0,0,0,0,0,0,0,-1,1693,1492,7.82857,-4.17324
476,-468,11.2617,-0.752686,0,0,0,0,0,0,0,-1,1700,1492,11.2617,0.752678
483,-468,10.828,-3.92957,0,0,0,0,0,0,0,-1,1707,1492,10.828,3.92962
490,-468,9.6366,-3.66626,0,0,0,0,0,0,0,-1,1714,1492,9.63662,3.66629
497,-468,9.04382,-1.78943,-0.0126631,-0.111048,0.145493,0.0917285,-0.215439,0.622377,0.182075,0.046916,1721,1492,9.04388,1.7894
504,-468,8.39258,0.0291748,-0.0159164,-0.0957704,0.124556,0.0749556,-0.186642,0.630295,0.155554,0.0463245,1728,1492,8.3926,-0.0291746
511,-468,7.80237,1.81091,-0.0143003,-0.0812114,0.106075,0.0634696,-0.158981,0.632638,0.132319,0.0489847,1735,1492,7.80236,-1.81087
518,-468,7.48315,3.63086,0,0,0,0,0,0,0,-1,1742,1492,7.48318,-3.63086
525,-468,6.99744,5.22583,0,0,0,0,0,0,0,-1,1749,1492,6.99749,-5.22585
532,-468,6.66223,3.66736,0,0,0,0,0,0,0,-1,1756,1492,6.66224,-3.66734
539,-468,6.91772,4.60571,0,0,0,0,0,0,0,-1,1763,1492,6.91769,-4.6057
546,-468,6.72681,5.01733,-0.0119909,-0.0230374,0.0296474,0.0126434,-0.0476717,0.693305,0.0367283,0.0459268,1770,1492,6.72682,-5.01731
553,-468,6.91077,4.87097,-0.0116055,-0.0143953,0.0185265,0.00557848,-0.0315793,0.747823,0.0231377,0.0316339,1777,1492,6.91076,-4.87096
560,-468,6.87708,4.86267,-0.00883805,-0.0104204,0.0118475,0.00224463,-0.0215031,0.752057,0.0151392,0.0160043,1784,1492,6.87705,-4.86268
567,-468,6.84668,4.76941,-0.00639711,-0.00651935,0.00806116,0.00160316,-0.0145196,0.781607,0.010256,0.0127693,1791,1492,6.84663,-4.76938
574,-468,6.85266,4.6532,-0.00475164,-0.00440794,0.00592709,0.00134978,-0.0105094,0.799891,0.00749679,0.0132646,1798,1492,6.85264,-4.65316
581,-468,6.85681,4.53186,-0.00381881,-0.00313904,0.00465647,0.00118993,-0.00814779,0.821829,0.00586885,0.0141079,1805,1492,6.85681,-4.53191
588,-468,6.83826,4.41907,-0.00324324,-0.00215058,0.00347052,0.000816348,-0.00621017,0.863467,0.00443733,0.0121,1812,1492,6.8383,-4.41907
595,-468,6.84717,4.31812,-0.00250905,-0.00175453,0.00258839,0.000483946,-0.00474753,0.857764,0.00333805,0.0103963,1819,1492,6.84714,-4.31805
602,-468,6.85754,4.20447,-0.00174236,-0.00165158,0.00185227,0.000155856,-0.00354979,0.797649,0.00242015,0.00921165,1826,1492,6.85757,-4.2045
609,-468,6.85693,4.09497,-0.00113258,-0.00148746,0.00128403,-1.37832e-05,-0.00260626,0.716738,0.00173293,0.0095854,1833,1492,6.85696,-4.09498
616,-468,6.8562,3.9834,-0.000834832,-0.00150291,0.000747831,-0.000349827,-0.00198792,0.575354,0.00122543,0.00970544,1840,1492,6.85623,-3.98335
623,-468,6.84229,3.87537,-0.000654289,-0.0014983,0.000505204,-0.000418024,-0.00173456,0.437445,0.00104528,0.00953825,1847,1492,6.84227,-3.87535
630,-468,6.85388,3.75537,-0.000925592,-0.00197883,0.00047579,-0.000742489,-0.00216193,0.367368,0.00126842,0.00933036,1854,1492,6.8539,-3.75542
637,-468,6.87036,3.64063,-0.00158813,-0.00300867,0.000275316,-0.00153663,-0.00306017,0.184894,0.00176679,0.0138093,1861,1492,6.87038,-3.64068
644,-468,6.85217,3.56506,-0.000814298,-0.00410619,-0.00154006,-0.000206153,-0.00471433,-0.376088,0.00307647,0.025526,1868,1492,6.85213,-3.56501
651,-468,7.15674,3.49341,0.00302468,-0.0069211,-0.00638521,0.00614503,-0.0100415,-0.454554,0.00943509,0.0413755,1875,1492,7.15669,-3.49344
658,-468,6.88867,3.2356,0,0,0,0,0,0,0,-1,1882,1492,6.88873,-3.23563
665,-468,6.46484,3.07861,0,0,0,0,0,0,0,-1,1889,1492,6.4648,-3.07862
672,-468,6.07922,2.30957,0,0,0,0,0,0,0,-1,1896,1492,6.07924,-2.30952
679,-468,7.51624,0.894775,0,0,0,0,0,0,0,-1,1903,1492,7.51629,-0.894763
686,-468,8.39185,-0.078125,0,0,0,0,0,0,0,-1,1910,1492,8.3919,0.0780743
693,-468,0,0,0,0,0,0,0,0,0,-1,1917,1492,0,0
700,-468,0,0,0,0,0,0,0,0,0,-1,1924,1492,0,0
707,-468,0,0,0,0,0,0,0,0,0,-1,1931,1492,0,0
714,-468,0,0,0,0,0,0,0,0,0,-1,1938,1492,0,0
721,-468,0,0,0,0,0,0,0,0,0,-1,1945,1492,0,0
728,-468,0,0,0,0,0,0,0,0,0,-1,1952,1492,0,0
735,-468,0,0,0,0,0,0,0,0,0,-1,1959,1492,0,0
742,-468,0,0,0,0,0,0,0,0,0,-1,1966,1492,0,0
749,-468,0,0,0,0,0,0,0,0,0,-1,1973,1492,0,0
756,-468,0,0,0,0,0,0,0,0,0,-1,1980,1492,0,0
763,-468,0,0,0,0,0,0,0,0,0,-1,1987,1492,0,0
770,-468,0,0,0,0,0,0,0,0,0,-1,1994,1492,0,0
777,-468,0,0,0,0,0,0,0,0,0,-1,2001,1492,0,0
784,-468,0,0,0,0,0,0,0,0,0,-1,2008,1492,0,0
791,-468,0,0,0,0,0,0,0,0,0,-1,2015,1492,0,0
798,-468,0,0,0,0,0,0,0,0,0,-1,2022,1492,0,0
805,-468,0,0,0,0,0,0,0,0,0,-1,2029,1492,0,0
812,-468,0,0,0,0,0,0,0,0,0,-1,2036,1492,0,0
-700,-475,0,0,0,0,0,0,0,0,0,-1,524,1499,0,0
-693,-475,0,0,0,0,0,0,0,0,0,-1,531,1499,0,0
-686,-475,0,0,0,0,0,0,0,0,0,-1,538,1499,0,0
-679,-475,0,0,0,0,0,0,0,0,0,-1,545,1499,0,0
-672,-475,0,0,0,0,0,0,0,0,0,-1,552,1499,0,0
-665,-475,0,0,0,0,0,0,0,0,0,-1,559,1499,0,0
-658,-475,0,0,0,0,0,0,0,0,0,-1,566,1499,0,0
-651,-475,0,0,0,0,0,0,0,0,0,-1,573,1499,0,0
-644,-475,0,0,0,0,0,0,0,0,0,-1,580,1499,0,0
-637,-475,0,0,0,0,0,0,0,0,0,-1,587,1499,0,0
-630,-475,0,0,0,0,0,0,0,0,0,-1,594,1499,0,0
-623,-475,0,0,0,0,0,0,0,0,0,-1,601,1499,0,0
-616,-475,0,0,0,0,0,0,0,0,0,-1,608,1499,0,0
-609,-475,0,0,0,0,0,0,0,0,0,-1,615,1499,0,0
-602,-475,0,0,0,0,0,0,0,0,0,-1,622,1499,0,0
-595,-475,0,0,0,0,0,0,0,0,0,-1,629,1499,0,0
-588,-475,0,0,0,0,0,0,0,0,0,-1,636,1499,0,0
-581,-475,0,0,0,0,0,0,0,0,0,-1,643,1499,0,0
-574,-475,0,0,0,0,0,0,0,0,0,-1,650,1499,0,0
-567,-475,0,0,0,0,0,0,0,0,0,-1,657,1499,0,0
-560,-475,0.379333,0.630859,0,0,0,0,0,0,0,-1,664,1499,0.379316,-0.630856
-553,-475,-3.10895,0.496948,0,0,0,0,0,0,0,-1,671,1499,-3.10893,-0.49694
-546,-475,-2.02863,0.898193,0.091076,0.033323,0.0144848,0.0945052,0.0298938,0.232468,0.0557764,0.0453785,678,1499,-2.0286,-0.898173
-539,-475,-1.27063,1.23206,0.0713319,0.0294906,0.01153,0.0742987,0.0265237,0.251856,0.0434774,0.0425545,685,1499,-1.27061,-1.23208
-532,-475,-0.577393,1.49268,0.054653,0.0247781,0.00935849,0.0573425,0.0220886,0.279843,0.0333963,0.0405407,692,1499,-0.57738,-1.49271
-525,-475,0.191223,1.35938,0.0408743,0.019905,0.00779318,0.0434534,0.0173259,0.319598,0.0252588,0.0402192,699,1499,0.191212,-1.35935
-518,-475,1.13464,0.643066,0.0297558,0.0153086,0.00657168,0.0322979,0.0127666,0.369088,0.018783,0.0459822,706,1499,1.13463,-0.643032
-511,-475,1.72241,-0.166504,0,0,0,0,0,0,0,-1,713,1499,1.72238,0.166487
-504,-475,-0.0995483,2.64368,0.0142768,0.00791129,0.0044914,0.0165988,0.00558928,0.477148,0.00975218,0.0249116,720,1499,-0.0995411,-2.64371
-497,-475,-0.114014,2.78967,0.0089342,0.00546429,0.00322834,0.0108643,0.00353424,0.538834,0.00639882,0.0117127,727,1499,-0.114032,-2.78966
-490,-475,-0.120117,2.91235,0.0044988,0.00342613,0.0023164,0.00634014,0.00158479,0.671634,0.00381,0.00845874,734,1499,-0.120106,-2.91231
-483,-475,-0.119812,3.05151,0.00225475,0.00142169,0.00175257,0.00363961,3.68381e-05,0.668729,0.00241422,0.00872622,741,1499,-0.119818,-3.05156
-476,-475,-0.112671,3.18262,0.000877066,-8.71499e-05,0.00118923,0.00167819,-0.000888274,0.592823,0.00150496,0.00966554,748,1499,-0.112641,-3.18259
-469,-475,-0.112305,3.28564,-0.00037418,-0.000639563,0.000905268,0.000408069,-0.00142181,0.712628,0.00110921,0.0109534,755,1499,-0.112277,-3.28565
-462,-475,-0.0952759,3.40161,-0.000437434,-0.000988527,0.00027776,-0.000321731,-0.00110423,0.394699,0.000655768,0.015685,762,1499,-0.095262,-3.40159
-455,-475,-0.10553,3.5332,0.00107262,-0.00099137,-0.000872895,0.00139228,-0.00131103,-0.351034,0.00156099,0.0145152,769,1499,-0.105549,-3.53317
-448,-475,-0.123291,3.68909,0.00262686,-0.00179126,-0.00123397,0.00294814,-0.00211254,-0.25471,0.00293503,0.0125683,776,1499,-0.123296,-3.68904
-441,-475,-0.11676,3.82886,0.00411603,-0.0037533,-0.0011139,0.00427067,-0.00390793,-0.13794,0.00472346,0.0160652,783,1499,-0.116763,-3.8289
-434,-475,-0.123108,3.89734,0.00553176,-0.00611739,-0.000907669,0.00560206,-0.00618769,-0.0772955,0.00680961,0.0103101,790,1499,-0.123079,-3.89728
-427,-475,-0.109192,4.02454,0.0068219,-0.00893667,-0.000840195,0.00686657,-0.00898134,-0.053116,0.00917691,0.0113294,797,1499,-0.10918,-4.02449
-420,-475,-0.0593262,4.13428,0.00771605,-0.0125568,-0.000539078,0.00773038,-0.0125711,-0.0265661,0.0118316,0.0164002,804,1499,-0.0593533,-4.13428
-413,-475,0.0979614,4.01086,0.0086951,-0.0176074,0.000101551,0.00869549,-0.0176078,0.00386083,0.015474,0.031983,811,1499,0.0979745,-4.01082
-406,-475,0.472656,3.44434,0.00902091,-0.0238112,0.00132473,0.00907427,-0.0238646,0.0402614,0.0196459,0.0480661,818,1499,0.472666,-3.44431
-399,-475,0.897095,2.72192,0,0,0,0,0,0,0,-1,825,1499,0.897068,-2.72192
-392,-475,1.83771,2.00806,0,0,0,0,0,0,0,-1,832,1499,1.83769,-2.00809
-385,-475,1.2193,3.2085,0,0,0,0,0,0,0,-1,839,1499,1.2193,-3.20849
-378,-475,1.31409,2.90149,0,0,0,0,0,0,0,-1,846,1499,1.31411,-2.90151
-371,-475,2.3476,3.31116,0,0,0,0,0,0,0,-1,853,1499,2.34761,-3.31121
-364,-475,1.53912,9.46326,0,0,0,0,0,0,0,-1,860,1499,1.53912,-9.4633
-357,-475,-0.262756,7.97205,0,0,0,0,0,0,0,-1,867,1499,-0.262784,-7.97205
-350,-475,-0.213196,8.33887,0,0,0,0,0,0,0,-1,874,1499,-0.21318,-8.33891
-343,-475,2.49066,1.85254,0,0,0,0,0,0,0,-1,881,1499,2.49066,-1.85255
-336,-475,0,0,0,0,0,0,0,0,0,-1,888,1499,0,0
-329,-475,0,0,0,0,0,0,0,0,0,-1,895,1499,0,0
-322,-475,0,0,0,0,0,0,0,0,0,-1,902,1499,0,0
-315,-475,0,0,0,0,0,0,0,0,0,-1,909,1499,0,0
-308,-475,0,0,0,0,0,0,0,0,0,-1,916,1499,0,0
-301,-475,0,0,0,0,0,0,0,0,0,-1,923,1499,0,0
-294,-475,0,0,0,0,0,0,0,0,0,-1,930,1499,0,0
-287,-475,0,0,0,0,0,0,0,0,0,-1,937,1499,0,0
-280,-475,0,0,0,0,0,0,0,0,0,-1,944,1499,0,0
-273,-475,0,0,0,0,0,0,0,0,0,-1,951,1499,0,0
-266,-475,0,0,0,0,0,0,0,0,0,-1,958,1499,0,0
-259,-475,0,0,0,0,0,0,0,0,0,-1,965,1499,0,0
-252,-475,0,0,0,0,0,0,0,0,0,-1,972,1499,0,0
-245,-475,0,0,0,0,0,0,0,0,0,-1,979,1499,0,0
-238,-475,0,0,0,0,0,0,0,0,0,-1,986,1499,0,0
-231,-475,0,0,0,0,0,0,0,0,0,-1,993,1499,0,0
-224,-475,0,0,0,0,0,0,0,0,0,-1,1000,1499,0,0
-217,-475,0,0,0,0,0,0,0,0,0,-1,1007,1499,0,0
-210,-475,0,0,0,0,0,0,0,0,0,-1,1014,1499,0,0
-203,-475,0,0,0,0,0,0,0,0,0,-1,1021,1499,0,0
-196,-475,0,0,0,0,0,0,0,0,0,-1,1028,1499,0,0
-189,-475,0,0,0,0,0,0,0,0,0,-1,1035,1499,0,0
-182,-475,0,0,0,0,0,0,0,0,0,-1,1042,1499,0,0
-175,-475,0,0,0,0,0,0,0,0,0,-1,1049,1499,0,0
-168,-475,0,0,0,0,0,0,0,0,0,-1,1056,1499,0,0
-161,-475,0,0,0,0,0,0,0,0,0,-1,1063,1499,0,0
-154,-475,0,0,0,0,0,0,0,0,0,-1,1070,1499,0,0
-147,-475,0,0,0,0,0,0,0,0,0,-1,1077,1499,0,0
-140,-475,0,0,0,0,0,0,0,0,0,-1,1084,1499,0,0
-133,-475,0,0,0,0,0,0,0,0,0,-1,1091,1499,0,0
-126,-475,0,0,0,0,0,0,0,0,0,-1,1098,1499,0,0
-119,-475,0,0,0,0,0,0,0,0,0,-1,1105,1499,0,0
-112,-475,0,0,0,0,0,0,0,0,0,-1,1112,1499,0,0
-105,-475,0,0,0,0,0,0,0,0,0,-1,1119,1499,0,0
-98,-475,0,0,0,0,0,0,0,0,0,-1,1126,1499,0,0
-91,-475,0,0,0,0,0,0,0,0,0,-1,1133,1499,0,0
-84,-475,0,0,0,0,0,0,0,0,0,-1,1140,1499,0,0
-77,-475,0,0,0,0,0,0,0,0,0,-1,1147,1499,0,0
-70,-475,0,0,0,0,0,0,0,0,0,-1,1154,1499,0,0
-63,-475,0,0,0,0,0,0,0,0,0,-1,1161,1499,0,0
-56,-475,0,0,0,0,0,0,0,0,0,-1,1168,1499,0,0
-49,-475,0,0,0,0,0,0,0,0,0,-1,1175,1499,0,0
-42,-475,0,0,0,0,0,0,0,0,0,-1,1182,1499,0,0
-35,-475,0,0,0,0,0,0,0,0,0,-1,1189,1499,0,0
-28,-475,0,0,0,0,0,0,0,0,0,-1,1196,1499,0,0
-21,-475,0,0,0,0,0,0,0,0,0,-1,1203,1499,0,0
-14,-475,0,0,0,0,0,0,0,0,0,-1,1210,1499,0,0
-7,-475,0,0,0,0,0,0,0,0,0,-1,1217,1499,0,0
0,-475,0,0,0,0,0,0,0,0,0,-1,1224,1499,0,0
7,-475,0,0,0,0,0,0,0,0,0,-1,1231,1499,0,0
14,-475,0,0,0,0,0,0,0,0,0,-1,1238,1499,0,0
21,-475,0,0,0,0,0,0,0,0,0,-1,1245,1499,0,0
28,-475,0,0,0,0,0,0,0,0,0,-1,1252,1499,0,0
35,-475,0,0,0,0,0,0,0,0,0,-1,1259,1499,0,0
42,-475,0,0,0,0,0,0,0,0,0,-1,1266,1499,0,0
49,-475,0,0,0,0,0,0,0,0,0,-1,1273,1499,0,0
56,-475,0,0,0,0,0,0,0,0,0,-1,1280,1499,0,0
63,-475,0,0,0,0,0,0,0,0,0,-1,1287,1499,0,0
70,-475,0,0,0,0,0,0,0,0,0,-1,1294,1499,0,0
77,-475,0,0,0,0,0,0,0,0,0,-1,1301,1499,0,0
84,-475,0,0,0,0,0,0,0,0,0,-1,1308,1499,0,0
91,-475,0,0,0,0,0,0,0,0,0,-1,1315,1499,0,0
98,-475,0,0,0,0,0,0,0,0,0,-1,1322,1499,0,0
105,-475,0,0,0,0,0,0,0,0,0,-1,1329,1499,0,0
112,-475,0,0,0,0,0,0,0,0,0,-1,1336,1499,0,0
119,-475,0,0,0,0,0,0,0,0,0,-1,1343,1499,0,0
126,-475,0,0,0,0,0,0,0,0,0,-1,1350,1499,0,0
133,-475,0,0,0,0,0,0,0,0,0,-1,1357,1499,0,0
140,-475,0,0,0,0,0,0,0,0,0,-1,1364,1499,0,0
147,-475,0,0,0,0,0,0,0,0,0,-1,1371,1499,0,0
154,-475,0,0,0,0,0,0,0,0,0,-1,1378,1499,0,0
161,-475,0,0,0,0,0,0,0,0,0,-1,1385,1499,0,0
168,-475,0,0,0,0,0,0,0,0,0,-1,1392,1499,0,0
175,-475,0,0,0,0,0,0,0,0,0,-1,1399,1499,0,0
182,-475,0,0,0,0,0,0,0,0,0,-1,1406,1499,0,0
189,-475,0,0,0,0,0,0,0,0,0,-1,1413,1499,0,0
196,-475,0,0,0,0,0,0,0,0,0,-1,1420,1499,0,0
203,-475,0,0,0,0,0,0,0,0,0,-1,1427,1499,0,0
210,-475,0,0,0,0,0,0,0,0,0,-1,1434,1499,0,0
217,-475,0,0,0,0,0,0,0,0,0,-1,1441,1499,0,0
224,-475,0,0,0,0,0,0,0,0,0,-1,1448,1499,0,0
231,-475,0,0,0,0,0,0,0,0,0,-1,1455,1499,0,0
238,-475,0,0,0,0,0,0,0,0,0,-1,1462,1499,0,0
245,-475,0,0,0,0,0,0,0,0,0,-1,1469,1499,0,0
252,-475,0,0,0,0,0,0,0,0,0,-1,1476,1499,0,0
259,-475,0,0,0,0,0,0,0,0,0,-1,1483,1499,0,0
266,-475,0,0,0,0,0,0,0,0,0,-1,1490,1499,0,0
273,-475,0,0,0,0,0,0,0,0,0,-1,1497,1499,0,0
280,-475,0,0,0,0,0,0,0,0,0,-1,1504,1499,0,0
287,-475,0,0,0,0,0,0,0,0,0,-1,1511,1499,0,0
294,-475,0,0,0,0,0,0,0,0,0,-1,1518,1499,0,0
301,-475,0,0,0,0,0,0,0,0,0,-1,1525,1499,0,0
308,-475,0,0,0,0,0,0,0,0,0,-1,1532,1499,0,0
315,-475,0,0,0,0,0,0,0,0,0,-1,1539,1499,0,0
322,-475,0,0,0,0,0,0,0,0,0,-1,1546,1499,0,0
329,-475,0,0,0,0,0,0,0,0,0,-1,1553,1499,0,0
336,-475,0,0,0,0,0,0,0,0,0,-1,1560,1499,0,0
343,-475,0,0,0,0,0,0,0,0,0,-1,1567,1499,0,0
350,-475,0,0,0,0,0,0,0,0,0,-1,1574,1499,0,0
357,-475,0,0,0,0,0,0,0,0,0,-1,1581,1499,0,0
364,-475,0,0,0,0,0,0,0,0,0,-1,1588,1499,0,0
371,-475,0,0,0,0,0,0,0,0,0,-1,1595,1499,0,0
378,-475,0,0,0,0,0,0,0,0,0,-1,1602,1499,0,0
385,-475,0,0,0,0,0,0,0,0,0,-1,1609,1499,0,0
392,-475,0,0,0,0,0,0,0,0,0,-1,1616,1499,0,0
399,-475,0,0,0,0,0,0,0,0,0,-1,1623,1499,0,0
406,-475,0,0,0,0,0,0,0,0,0,-1,1630,1499,0,0
413,-475,0,0,0,0,0,0,0,0,0,-1,1637,1499,0,0
420,-475,0,0,0,0,0,0,0,0,0,-1,1644,1499,0,0
427,-475,0,0,0,0,0,0,0,0,0,-1,1651,1499,0,0
434,-475,0,0,0,0,0,0,0,0,0,-1,1658,1499,0,0
441,-475,0,0,0,0,0,0,0,0,0,-1,1665,1499,0,0
448,-475,0,0,0,0,0,0,0,0,0,-1,1672,1499,0,0
455,-475,0,0,0,0,0,0,0,0,0,-1,1679,1499,0,0
462,-475,12.0649,-0.388184,0,0,0,0,0,0,0,-1,1686,1499,12.0649,0.388237
469,-475,11.8989,-1.18579,0,0,0,0,0,0,0,-1,1693,1499,11.8989,1.18584
476,-475,10.1871,-4.43628,0,0,0,0,0,0,0,-1,1700,1499,10.1872,4.43625
483,-475,9.95264,-3.74719,0,0,0,0,0,0,0,-1,1707,1499,9.95263,3.74724
490,-475,9.2655,-3.21057,0,0,0,0,0,0,0,-1,1714,1499,9.26549,3.21061
497,-475,8.77014,-1.47998,0.00950804,-0.112866,0.137535,0.0988526,-0.202211,0.576102,0.177201,0.0484704,1721,1499,8.7701,1.48004
504,-475,8.11951,0.253662,0.000933989,-0.0956912,0.116282,0.0785409,-0.173298,0.58851,0.148791,0.0453349,1728,1499,8.11956,-0.253706
511,-475,7.7395,2.29272,-0.00279935,-0.0798012,0.0971687,0.063218,-0.145819,0.596773,0.123788,0.0420771,1735,1499,7.73956,-2.2927
518,-475,7.08533,3.84351,-0.00502525,-0.0657229,0.079391,0.0496199,-0.120368,0.602833,0.100936,0.0473454,1742,1499,7.08533,-3.84346
525,-475,6.71606,4.09888,0,0,0,0,0,0,0,-1,1749,1499,6.71606,-4.09884
532,-475,6.55798,4.09351,-0.00683447,-0.0412391,0.0488384,0.0277427,-0.0758162,0.616069,0.0618999,0.0462854,1756,1499,6.55799,-4.09346
539,-475,6.76038,4.70361,-0.00662209,-0.0310858,0.036429,0.0195738,-0.0572817,0.623426,0.0461185,0.0480206,1763,1499,6.76035,-4.70364
546,-475,6.76318,4.9812,-0.00856283,-0.0206711,0.0250118,0.0111171,-0.0403511,0.666656,0.0312722,0.036921,1770,1499,6.76319,-4.98124
553,-475,6.77246,4.96167,-0.00872932,-0.0128576,0.0151644,0.00451076,-0.0260977,0.717755,0.0190806,0.0176042,1777,1499,6.77248,-4.96163
560,-475,6.72827,4.88843,-0.00633032,-0.00933819,0.00955255,0.00183596,-0.0175045,0.70732,0.0123273,0.0130965,1784,1499,6.72826,-4.88838
567,-475,6.75684,4.75244,-0.00418449,-0.00579975,0.00628079,0.00134038,-0.0113246,0.721455,0.0080339,0.0133161,1791,1499,6.75681,-4.75242
574,-475,6.74231,4.65344,-0.00276351,-0.00377311,0.00441838,0.00117881,-0.00771543,0.72852,0.00557823,0.0134404,1798,1499,6.74226,-4.65344
581,-475,6.72974,4.54785,-0.0020377,-0.00253423,0.0033424,0.00106564,-0.00563757,0.748327,0.00415935,0.0115199,1805,1499,6.72974,-4.54787
588,-475,6.72571,4.4364,-0.00168392,-0.00157745,0.0023354,0.000705325,-0.00396669,0.796793,0.00290822,0.0103937,1812,1499,6.72575,-4.4364
595,-475,6.74414,4.32056,-0.00116554,-0.00123526,0.00161432,0.000414298,-0.0028151,0.774604,0.00202898,0.011699,1819,1499,6.74414,-4.32051
602,-475,6.75745,4.18372,-0.000563849,-0.00118051,0.00102841,0.00020146,-0.00194582,0.639756,0.00136931,0.0135722,1826,1499,6.75742,-4.18369
609,-475,6.75171,4.08411,-0.000136407,-0.00111463,0.000615102,0.000160343,-0.00141138,0.449503,0.000998671,0.0125013,1833,1499,6.75166,-4.08407
616,-475,6.73547,3.99036,-5.8147e-05,-0.0012316,0.0002855,7.62806e-06,-0.00129737,0.226435,0.000867469,0.0115218,1840,1499,6.73549,-3.99034
623,-475,6.72815,3.8739,-0.000125282,-0.00143005,0.000206668,-9.33292e-05,-0.001462,0.153394,0.000945095,0.0101773,1847,1499,6.72816,-3.87388
630,-475,6.74255,3.75867,-0.000659751,-0.00211063,0.000309108,-0.000596641,-0.00217374,0.2014,0.00129687,0.0113317,1854,1499,6.74251,-3.75866
637,-475,6.74524,3.68115,-0.00155885,-0.00334976,0.000284488,-0.00151474,-0.00339386,0.153809,0.00196321,0.0239998,1861,1499,6.74518,-3.68113
644,-475,6.65845,3.75488,-0.000932575,-0.00465095,-0.00151063,-0.00039623,-0.00518729,-0.341165,0.00333398,0.0460349,1868,1499,6.6584,-3.75485
651,-475,7.40552,3.71533,0,0,0,0,0,0,0,-1,1875,1499,7.40552,-3.71535
658,-475,6.69043,2.77783,0,0,0,0,0,0,0,-1,1882,1499,6.69049,-2.77782
665,-475,6.49829,3.1665,0,0,0,0,0,0,0,-1,1889,1499,6.4983,-3.16656
672,-475,6.99939,1.99622,0,0,0,0,0,0,0,-1,1896,1499,6.99942,-1.99626
679,-475,7.64038,0.953613,0,0,0,0,0,0,0,-1,1903,1499,7.64034,-0.953632
686,-475,0,0,0,0,0,0,0,0,0,-1,1910,1499,0,0
693,-475,0,0,0,0,0,0,0,0,0,-1,1917,1499,0,0
700,-475,0,0,0,0,0,0,0,0,0,-1,1924,1499,0,0
707,-475,0,0,0,0,0,0,0,0,0,-1,1931,1499,0,0
714,-475,0,0,0,0,0,0,0,0,0,-1,1938,1499,0,0
721,-475,0,0,0,0,0,0,0,0,0,-1,1945,1499,0,0
728,-475,0,0,0,0,0,0,0,0,0,-1,1952,1499,0,0
735,-475,0,0,0,0,0,0,0,0,0,-1,1959,1499,0,0
742,-475,0,0,0,0,0,0,0,0,0,-1,1966,1499,0,0
749,-475,0,0,0,0,0,0,0,0,0,-1,1973,1499,0,0
756,-475,0,0,0,0,0,0,0,0,0,-1,1980,1499,0,0
763,-475,0,0,0,0,0,0,0,0,0,-1,1987,1499,0,0
770,-475,0,0,0,0,0,0,0,0,0,-1,1994,1499,0,0
777,-475,0,0,0,0,0,0,0,0,0,-1,2001,1499,0,0
784,-475,0,0,0,0,0,0,0,0,0,-1,2008,1499,0,0
791,-475,0,0,0,0,0,0,0,0,0,-1,2015,1499,0,0
798,-475,0,0,0,0,0,0,0,0,0,-1,2022,1499,0,0
805,-475,0,0,0,0,0,0,0,0,0,-1,2029,1499,0,0
812,-475,0,0,0,0,0,0,0,0,0,-1,2036,1499,0,0
-700,-482,0,0,0,0,0,0,0,0,0,-1,524,1506,0,0
-693,-482,0,0,0,0,0,0,0,0,0,-1,531,1506,0,0
-686,-482,0,0,0,0,0,0,0,0,0,-1,538,1506,0,0
-679,-482,0,0,0,0,0,0,0,0,0,-1,545,1506,0,0
-672,-482,0,0,0,0,0,0,0,0,0,-1,552,1506,0,0
-665,-482,0,0,0,0,0,0,0,0,0,-1,559,1506,0,0
-658,-482,0,0,0,0,0,0,0,0,0,-1,566,1506,0,0
-651,-482,0,0,0,0,0,0,0,0,0,-1,573,1506,0,0
-644,-482,0,0,0,0,0,0,0,0,0,-1,580,1506,0,0
-637,-482,0,0,0,0,0,0,0,0,0,-1,587,1506,0,0
-630,-482,0,0,0,0,0,0,0,0,0,-1,594,1506,0,0
-623,-482,0,0,0,0,0,0,0,0,0,-1,601,1506,0,0
-616,-482,0,0,0,0,0,0,0,0,0,-1,608,1506,0,0
-609,-482,0,0,0,0,0,0,0,0,0,-1,615,1506,0,0
-602,-482,0,0,0,0,0,0,0,0,0,-1,622,1506,0,0
-595,-482,0,0,0,0,0,0,0,0,0,-1,629,1506,0,0
-588,-482,0,0,0,0,0,0,0,0,0,-1,636,1506,0,0
-581,-482,0,0,0,0,0,0,0,0,0,-1,643,1506,0,0
-574,-482,0,0,0,0,0,0,0,0,0,-1,650,1506,0,0
-567,-482,0,0,0,0,0,0,0,0,0,-1,657,1506,0,0
-560,-482,0,0,0,0,0,0,0,0,0,-1,664,1506,0,0
-553,-482,-3.12329,0.391724,0,0,0,0,0,0,0,-1,671,1506,-3.12329,-0.391734
-546,-482,-1.76398,0.828125,0.0910859,0.0418498,0.0155652,0.0955939,0.0373418,0.281904,0.0556295,0.0478405,678,1506,-1.76401,-0.828163
-539,-482,-0.428894,1.21655,0.0710708,0.0356245,0.0138012,0.0758106,0.0308847,0.330812,0.0440188,0.044028,685,1506,-0.428867,-1.21658
-532,-482,-0.0914307,1.39905,0.0540807,0.029025,0.0123084,0.0591154,0.0239903,0.388281,0.0343315,0.0442832,692,1506,-0.091435,-1.39905
-525,-482,0.567993,1.04773,0.040072,0.0227341,0.0110341,0.0454352,0.0173709,0.452433,0.0264731,0.0391462,699,1506,0.567994,-1.04774
-518,-482,1.52563,0.0384521,0.028846,0.0170921,0.00978327,0.0343818,0.0115563,0.514926,0.0202026,0.0458183,706,1506,1.52561,-0.0384257
-511,-482,2.46277,-0.927002,0,0,0,0,0,0,0,-1,713,1506,2.46277,0.926981
-504,-482,0.120728,2.5769,0.0134098,0.00846302,0.00702646,0.0183855,0.00348733,0.616166,0.0112758,0.0399487,720,1506,0.120703,-2.57685
-497,-482,0.0324707,2.76196,0.00821316,0.00566836,0.00534676,0.0124368,0.00144468,0.668583,0.00785408,0.0215473,727,1506,0.0324961,-2.76197
-490,-482,0.000793457,2.89514,0.00387467,0.00344123,0.00398269,0.00764653,-0.000330626,0.758217,0.00521139,0.0131505,734,1506,0.000823965,-2.89516
-483,-482,0.0146484,3.03186,0.00169141,0.00125478,0.00297158,0.00445268,-0.00150649,0.748731,0.00357794,0.00913632,741,1506,0.0146595,-3.03185
-476,-482,0.0261841,3.16284,0.000332921,-0.00041572,0.00208545,0.00207738,-0.00216018,0.696598,0.00244671,0.00972356,748,1506,0.0261639,-3.16285
-469,-482,0.012146,3.2782,-0.000942373,-0.000876752,0.00151424,0.000605037,-0.00242416,0.79623,0.00185105,0.0100343,755,1506,0.012142,-3.27817
-462,-482,0.0195313,3.39063,-0.000919745,-0.00107605,0.00060286,-0.000389995,-0.00160581,0.720938,0.000967115,0.0118099,762,1506,0.019548,-3.39059
-455,-482,0.0169678,3.52136,0.000728613,-0.000978977,-0.000714337,0.000988031,-0.00123839,-0.348349,0.00128813,0.0132501,769,1506,0.0169601,-3.52134
-448,-482,0.00531006,3.68359,0.00236325,-0.00166501,-0.00108814,0.00263839,-0.00194016,-0.247665,0.00265365,0.013678,776,1506,0.00532059,-3.68358
-441,-482,-0.00836182,3.80688,0.00382934,-0.00340788,-0.000865592,0.00393143,-0.00350997,-0.117397,0.00429859,0.0126001,783,1506,-0.00836463,-3.80692
-434,-482,-0.0143433,3.94189,0.00517725,-0.00553136,-0.000553644,0.0052058,-0.00555991,-0.0515177,0.0062167,0.0145042,790,1506,-0.0143182,-3.9419
-427,-482,-0.0164185,4.06543,0.00630549,-0.00800193,-0.000397593,0.00631653,-0.00801297,-0.0277608,0.00829244,0.0162721,797,1506,-0.0164158,-4.0654
-420,-482,0.00488281,4.24658,0.00700247,-0.0111328,-5.33084e-05,0.00700263,-0.011133,-0.00293945,0.0105607,0.0192804,804,1506,0.00489689,-4.24653
-413,-482,-0.0335083,4.22205,0,0,0,0,0,0,0,-1,811,1506,-0.0335055,-4.22209
-406,-482,0.406982,3.91382,0.00780387,-0.0208561,0.00159874,0.00789278,-0.020945,0.0555535,0.0172086,0.0390164,818,1506,0.406958,-3.91383
-399,-482,0.91272,3.29028,0.00704271,-0.0269268,0.00335263,0.00737044,-0.0272545,0.0974426,0.0210609,0.0449612,825,1506,0.912741,-3.29033
-392,-482,1.43982,2.49109,0.00509405,-0.0333752,0.00600351,0.00600919,-0.0342903,0.151269,0.0251042,0.047252,832,1506,1.43982,-2.49113
-385,-482,0.940002,3.50244,0.00194754,-0.0391097,0.00998394,0.00424661,-0.0414088,0.226331,0.0291248,0.0457458,839,1506,0.939982,-3.50248
-378,-482,1.44104,3.66833,0,0,0,0,0,0,0,-1,846,1506,1.44104,-3.66834
-371,-482,0.153503,5.06897,0,0,0,0,0,0,0,-1,853,1506,0.153485,-5.06893
-364,-482,-0.335327,6.46594,0,0,0,0,0,0,0,-1,860,1506,-0.335344,-6.46592
-357,-482,2.14807,4.60144,0,0,0,0,0,0,0,-1,867,1506,2.14807,-4.60144
-350,-482,2.43085,4.41077,0,0,0,0,0,0,0,-1,874,1506,2.43085,-4.41077
-343,-482,2.66656,4.45215,0,0,0,0,0,0,0,-1,881,1506,2.66659,-4.45214
-336,-482,-5.57947,5.07666,0,0,0,0,0,0,0,-1,888,1506,-5.57948,-5.07663
-329,-482,0,0,0,0,0,0,0,0,0,-1,895,1506,0,0
-322,-482,0,0,0,0,0,0,0,0,0,-1,902,1506,0,0
-315,-482,0,0,0,0,0,0,0,0,0,-1,909,1506,0,0
-308,-482,0,0,0,0,0,0,0,0,0,-1,916,1506,0,0
-301,-482,0,0,0,0,0,0,0,0,0,-1,923,1506,0,0
-294,-482,0,0,0,0,0,0,0,0,0,-1,930,1506,0,0
-287,-482,0,0,0,0,0,0,0,0,0,-1,937,1506,0,0
-280,-482,0,0,0,0,0,0,0,0,0,-1,944,1506,0,0
-273,-482,0,0,0,0,0,0,0,0,0,-1,951,1506,0,0
-266,-482,0,0,0,0,0,0,0,0,0,-1,958,1506,0,0
-259,-482,0,0,0,0,0,0,0,0,0,-1,965,1506,0,0
-252,-482,0,0,0,0,0,0,0,0,0,-1,972,1506,0,0
-245,-482,0,0,0,0,0,0,0,0,0,-1,979,1506,0,0
-238,-482,0,0,0,0,0,0,0,0,0,-1,986,1506,0,0
-231,-482,0,0,0,0,0,0,0,0,0,-1,993,1506,0,0
-224,-482,0,0,0,0,0,0,0,0,0,-1,1000,1506,0,0
-217,-482,0,0,0,0,0,0,0,0,0,-1,1007,1506,0,0
-210,-482,0,0,0,0,0,0,0,0,0,-1,1014,1506,0,0
-203,-482,0,0,0,0,0,0,0,0,0,-1,1021,1506,0,0
-196,-482,0,0,0,0,0,0,0,0,0,-1,1028,1506,0,0
-189,-482,0,0,0,0,0,0,0,0,0,-1,1035,1506,0,0
-182,-482,0,0,0,0,0,0,0,0,0,-1,1042,1506,0,0
-175,-482,0,0,0,0,0,0,0,0,0,-1,1049,1506,0,0
-168,-482,0,0,0,0,0,0,0,0,0,-1,1056,1506,0,0
-161,-482,0,0,0,0,0,0,0,0,0,-1,1063,1506,0,0
-154,-482,0,0,0,0,0,0,0,0,0,-1,1070,1506,0,0
-147,-482,0,0,0,0,0,0,0,0,0,-1,1077,1506,0,0
-140,-482,0,0,0,0,0,0,0,0,0,-1,1084,1506,0,0
-133,-482,0,0,0,0,0,0,0,0,0,-1,1091,1506,0,0
-126,-482,0,0,0,0,0,0,0,0,0,-1,1098,1506,0,0
-119,-482,0,0,0,0,0,0,0,0,0,-1,1105,1506,0,0
-112,-482,0,0,0,0,0,0,0,0,0,-1,1112,1506,0,0
-105,-482,0,0,0,0,0,0,0,0,0,-1,1119,1506,0,0
-98,-482,0,0,0,0,0,0,0,0,0,-1,1126,1506,0,0
-91,-482,0,0,0,0,0,0,0,0,0,-1,1133,1506,0,0
-84,-482,0,0,0,0,0,0,0,0,0,-1,1140,1506,0,0
-77,-482,0,0,0,0,0,0,0,0,0,-1,1147,1506,0,0
-70,-482,0,0,0,0,0,0,0,0,0,-1,1154,1506,0,0
-63,-482,0,0,0,0,0,0,0,0,0,-1,1161,1506,0,0
-56,-482,0,0,0,0,0,0,0,0,0,-1,1168,1506,0,0
-49,-482,0,0,0,0,0,0,0,0,0,-1,1175,1506,0,0
-42,-482,0,0,0,0,0,0,0,0,0,-1,1182,1506,0,0
-35,-482,0,0,0,0,0,0,0,0,0,-1,1189,1506,0,0
-28,-482,0,0,0,0,0,0,0,0,0,-1,1196,1506,0,0
-21,-482,0,0,0,0,0,0,0,0,0,-1,1203,1506,0,0
-14,-482,0,0,0,0,0,0,0,0,0,-1,1210,1506,0,0
-7,-482,0,0,0,0,0,0,0,0,0,-1,1217,1506,0,0
0,-482,0,0,0,0,0,0,0,0,0,-1,1224,1506,0,0
7,-482,0,0,0,0,0,0,0,0,0,-1,1231,1506,0,0
14,-482,0,0,0,0,0,0,0,0,0,-1,1238,1506,0,0
21,-482,0,0,0,0,0,0,0,0,0,-1,1245,1506,0,0
28,-482,0,0,0,0,0,0,0,0,0,-1,1252,1506,0,0
35,-482,0,0,0,0,0,0,0,0,0,-1,1259,1506,0,0
42,-482,0,0,0,0,0,0,0,0,0,-1,1266,1506,0,0
49,-482,0,0,0,0,0,0,0,0,0,-1,1273,1506,0,0
56,-482,0,0,0,0,0,0,0,0,0,-1,1280,1506,0,0
63,-482,0,0,0,0,0,0,0,0,0,-1,1287,1506,0,0
70,-482,0,0,0,0,0,0,0,0,0,-1,1294,1506,0,0
77,-482,0,0,0,0,0,0,0,0,0,-1,1301,1506,0,0
84,-482,0,0,0,0,0,0,0,0,0,-1,1308,1506,0,0
91,-482,0,0,0,0,0,0,0,0,0,-1,1315,1506,0,0
98,-482,0,0,0,0,0,0,0,0,0,-1,1322,1506,0,0
105,-482,0,0,0,0,0,0,0,0,0,-1,1329,1506,0,0
112,-482,0,0,0,0,0,0,0,0,0,-1,1336,1506,0,0
119,-482,0,0,0,0,0,0,0,0,0,-1,1343,1506,0,0
126,-482,0,0,0,0,0,0,0,0,0,-1,1350,1506,0,0
133,-482,0,0,0,0,0,0,0,0,0,-1,1357,1506,0,0
140,-482,0,0,0,0,0,0,0,0,0,-1,1364,1506,0,0
147,-482,0,0,0,0,0,0,0,0,0,-1,1371,1506,0,0
154,-482,0,0,0,0,0,0,0,0,0,-1,1378,1506,0,0
161,-482,0,0,0,0,0,0,0,0,0,-1,1385,1506,0,0
168,-482,0,0,0,0,0,0,0,0,0,-1,1392,1506,0,0
175,-482,0,0,0,0,0,0,0,0,0,-1,1399,1506,0,0
182,-482,0,0,0,0,0,0,0,0,0,-1,1406,1506,0,0
189,-482,0,0,0,0,0,0,0,0,0,-1,1413,1506,0,0
196,-482,0,0,0,0,0,0,0,0,0,-1,1420,1506,0,0
203,-482,0,0,0,0,0,0,0,0,0,-1,1427,1506,0,0
210,-482,0,0,0,0,0,0,0,0,0,-1,1434,1506,0,0
217,-482,0,0,0,0,0,0,0,0,0,-1,1441,1506,0,0
224,-482,0,0,0,0,0,0,0,0,0,-1,1448,1506,0,0
231,-482,0,0,0,0,0,0,0,0,0,-1,1455,1506,0,0
238,-482,0,0,0,0,0,0,0,0,0,-1,1462,1506,0,0
245,-482,0,0,0,0,0,0,0,0,0,-1,1469,1506,0,0
252,-482,0,0,0,0,0,0,0,0,0,-1,1476,1506,0,0
259,-482,0,0,0,0,0,0,0,0,0,-1,1483,1506,0,0
266,-482,0,0,0,0,0,0,0,0,0,-1,1490,1506,0,0
273,-482,0,0,0,0,0,0,0,0,0,-1,1497,1506,0,0
280,-482,0,0,0,0,0,0,0,0,0,-1,1504,1506,0,0
287,-482,0,0,0,0,0,0,0,0,0,-1,1511,1506,0,0
294,-482,0,0,0,0,0,0,0,0,0,-1,1518,1506,0,0
301,-482,0,0,0,0,0,0,0,0,0,-1,1525,1506,0,0
308,-482,0,0,0,0,0,0,0,0,0,-1,1532,1506,0,0
315,-482,0,0,0,0,0,0,0,0,0,-1,1539,1506,0,0
322,-482,0,0,0,0,0,0,0,0,0,-1,1546,1506,0,0
329,-482,0,0,0,0,0,0,0,0,0,-1,1553,1506,0,0
336,-482,0,0,0,0,0,0,0,0,0,-1,1560,1506,0,0
343,-482,0,0,0,0,0,0,0,0,0,-1,1567,1506,0,0
350,-482,0,0,0,0,0,0,0,0,0,-1,1574,1506,0,0
357,-482,0,0,0,0,0,0,0,0,0,-1,1581,1506,0,0
364,-482,0,0,0,0,0,0,0,0,0,-1,1588,1506,0,0
371,-482,0,0,0,0,0,0,0,0,0,-1,1595,1506,0,0
378,-482,0,0,0,0,0,0,0,0,0,-1,1602,1506,0,0
385,-482,0,0,0,0,0,0,0,0,0,-1,1609,1506,0,0
392,-482,0,0,0,0,0,0,0,0,0,-1,1616,1506,0,0
399,-482,0,0,0,0,0,0,0,0,0,-1,1623,1506,0,0
406,-482,0,0,0,0,0,0,0,0,0,-1,1630,1506,0,0
413,-482,0,0,0,0,0,0,0,0,0,-1,1637,1506,0,0
420,-482,0,0,0,0,0,0,0,0,0,-1,1644,1506,0,0
427,-482,0,0,0,0,0,0,0,0,0,-1,1651,1506,0,0
434,-482,0,0,0,0,0,0,0,0,0,-1,1658,1506,0,0
441,-482,0,0,0,0,0,0,0,0,0,-1,1665,1506,0,0
448,-482,4.24146,1.55383,0,0,0,0,0,0,0,-1,1672,1506,4.24149,-1.55381
455,-482,11.5724,0.469971,0,0,0,0,0,0,0,-1,1679,1506,11.5724,-0.469993
462,-482,11.41,-0.385986,0,0,0,0,0,0,0,-1,1686,1506,11.4101,0.385943
469,-482,11.2297,-1.20422,0,0,0,0,0,0,0,-1,1693,1506,11.2298,1.20424
476,-482,9.32043,-4.35608,0,0,0,0,0,0,0,-1,1700,1506,9.32048,4.35606
483,-482,9.07837,-3.33582,0.0610665,-0.149835,0.168641,0.154512,-0.24328,0.505992,0.231563,0.0446652,1707,1506,9.07841,3.33577
490,-482,8.77417,-2.28711,0.0406714,-0.128075,0.149189,0.127693,-0.215097,0.528048,0.200043,0.0452399,1714,1506,8.77415,2.28717
497,-482,8.30127,-1.05994,0.0229322,-0.108099,0.126763,0.100109,-0.185276,0.546885,0.167195,0.0469755,1721,1506,8.30126,1.05997
504,-482,8.24219,3.26965,0,0,0,0,0,0,0,-1,1728,1506,8.24219,-3.26971
511,-482,7.56042,3.74841,0.00525224,-0.0746077,0.0872859,0.0613078,-0.130663,0.570877,0.11322,0.0485093,1735,1506,7.56049,-3.74845
518,-482,6.94714,4.23682,0.000946832,-0.0605299,0.0703013,0.046936,-0.106519,0.579303,0.0907962,0.0481389,1742,1506,6.94719,-4.23686
525,-482,6.47595,4.27075,-0.0017925,-0.0480966,0.055166,0.0348827,-0.0847718,0.58672,0.0710559,0.0455931,1749,1506,6.47593,-4.27077
532,-482,6.39063,4.51855,-0.00324588,-0.0372053,0.0420697,0.0251415,-0.0655926,0.593591,0.0540929,0.0412254,1756,1506,6.3906,-4.51849
539,-482,6.63623,4.90344,-0.00372458,-0.0278016,0.0309039,0.0174028,-0.048929,0.599667,0.0397123,0.0329313,1763,1506,6.63624,-4.90344
546,-482,6.63977,5.09216,-0.00606978,-0.018146,0.0207939,0.00954497,-0.0337608,0.644095,0.0262733,0.0172484,1770,1506,6.63977,-5.09212
553,-482,6.63379,4.99292,-0.00662243,-0.0113218,0.0121978,0.00344991,-0.0213942,0.690247,0.0155409,0.0136078,1777,1506,6.63382,-4.99288
560,-482,6.62415,4.87878,-0.00451146,-0.00828433,0.00753074,0.00136553,-0.0141613,0.662675,0.00992741,0.0119401,1784,1506,6.6242,-4.8788
567,-482,6.63879,4.76892,-0.00257459,-0.00514934,0.00471361,0.00102428,-0.00874821,0.65209,0.00620183,0.0143827,1791,1506,6.63878,-4.76887
574,-482,6.63062,4.65845,-0.00127788,-0.00322133,0.0030648,0.00096556,-0.00546476,0.631882,0.00400403,0.0133435,1798,1506,6.63063,-4.65849
581,-482,6.61646,4.55896,-0.000637786,-0.00198534,0.00210876,0.000902224,-0.00352535,0.630768,0.00270166,0.00953915,1805,1506,6.61651,-4.559
588,-482,6.61646,4.4386,-0.00036724,-0.00101062,0.00120909,0.000562222,-0.00194009,0.65538,0.00151596,0.0106592,1812,1506,6.61643,-4.43858
595,-482,6.63489,4.30603,6.82631e-05,-0.000637699,0.000574915,0.00038991,-0.000959345,0.510084,0.000801784,0.0168945,1819,1506,6.63494,-4.30605
602,-482,6.65601,4.16821,0.000617306,-0.000540257,7.24328e-05,0.000621821,-0.000544772,0.0622499,0.000674022,0.0210879,1826,1506,6.65599,-4.16821
609,-482,6.6488,4.06787,0.000978701,-0.000486273,-0.000251684,0.00102073,-0.000528307,-0.165482,0.000909278,0.0164865,1833,1506,6.64878,-4.0679
616,-482,6.63367,3.97498,0.000965619,-0.000626148,-0.000437524,0.00107795,-0.000738481,-0.251319,0.00105481,0.0115624,1840,1506,6.6337,-3.97499
623,-482,6.62708,3.8667,0.000790633,-0.000938096,-0.000396528,0.000877247,-0.00102471,-0.215054,0.0010992,0.0109227,1847,1506,6.62711,-3.86666
630,-482,6.64063,3.78308,0.000192384,-0.00181944,-0.000199829,0.00021204,-0.00183909,-0.0980509,0.00130251,0.0195528,1854,1506,6.64065,-3.78304
637,-482,6.47607,3.78064,-0.000774019,-0.00311191,2.33525e-05,-0.000773786,-0.00311214,0.00998735,0.00187095,0.0416805,1861,1506,6.47608,-3.78068
644,-482,6.38342,3.87659,0,0,0,0,0,0,0,-1,1868,1506,6.38348,-3.87664
651,-482,4.03845,7.05273,0,0,0,0,0,0,0,-1,1875,1506,4.03843,-7.05279
658,-482,2.6803,3.83582,0,0,0,0,0,0,0,-1,1882,1506,2.68028,-3.83587
665,-482,5.75806,5.79529,0,0,0,0,0,0,0,-1,1889,1506,5.7581,-5.79531
672,-482,7.26868,2.12964,0,0,0,0,0,0,0,-1,1896,1506,7.2687,-2.12968
679,-482,0,0,0,0,0,0,0,0,0,-1,1903,1506,0,0
686,-482,0,0,0,0,0,0,0,0,0,-1,1910,1506,0,0
693,-482,0,0,0,0,0,0,0,0,0,-1,1917,1506,0,0
700,-482,0,0,0,0,0,0,0,0,0,-1,1924,1506,0,0
707,-482,0,0,0,0,0,0,0,0,0,-1,1931,1506,0,0
714,-482,0,0,0,0,0,0,0,0,0,-1,1938,1506,0,0
721,-482,0,0,0,0,0,0,0,0,0,-1,1945,1506,0,0
728,-482,0,0,0,0,0,0,0,0,0,-1,1952,1506,0,0
735,-482,0,0,0,0,0,0,0,0,0,-1,1959,1506,0,0
742,-482,0,0,0,0,0,0,0,0,0,-1,1966,1506,0,0
749,-482,0,0,0,0,0,0,0,0,0,-1,1973,1506,0,0
756,-482,0,0,0,0,0,0,0,0,0,-1,1980,1506,0,0
763,-482,0,0,0,0,0,0,0,0,0,-1,1987,1506,0,0
770,-482,0,0,0,0,0,0,0,0,0,-1,1994,1506,0,0
777,-482,0,0,0,0,0,0,0,0,0,-1,2001,1506,0,0
784,-482,0,0,0,0,0,0,0,0,0,-1,2008,1506,0,0
791,-482,0,0,0,0,0,0,0,0,0,-1,2015,1506,0,0
798,-482,0,0,0,0,0,0,0,0,0,-1,2022,1506,0,0
805,-482,0,0,0,0,0,0,0,0,0,-1,2029,1506,0,0
812,-482,0,0,0,0,0,0,0,0,0,-1,2036,1506,0,0
-700,-489,0,0,0,0,0,0,0,0,0,-1,524,1513,0,0
-693,-489,0,0,0,0,0,0,0,0,0,-1,531,1513,0,0
-686,-489,0,0,0,0,0,0,0,0,0,-1,538,1513,0,0
-679,-489,0,0,0,0,0,0,0,0,0,-1,545,1513,0,0
-672,-489,0,0,0,0,0,0,0,0,0,-1,552,1513,0,0
-665,-489,0,0,0,0,0,0,0,0,0,-1,559,1513,0,0
-658,-489,0,0,0,0,0,0,0,0,0,-1,566,1513,0,0
-651,-489,0,0,0,0,0,0,0,0,0,-1,573,1513,0,0
-644,-489,0,0,0,0,0,0,0,0,0,-1,580,1513,0,0
-637,-489,0,0,0,0,0,0,0,0,0,-1,587,1513,0,0
-630,-489,0,0,0,0,0,0,0,0,0,-1,594,1513,0,0
-623,-489,0,0,0,0,0,0,0,0,0,-1,601,1513,0,0
-616,-489,0,0,0,0,0,0,0,0,0,-1,608,1513,0,0
-609,-489,0,0,0,0,0,0,0,0,0,-1,615,1513,0,0
-602,-489,0,0,0,0,0,0,0,0,0,-1,622,1513,0,0
-595,-489,0,0,0,0,0,0,0,0,0,-1,629,1513,0,0
-588,-489,0,0,0,0,0,0,0,0,0,-1,636,1513,0,0
-581,-489,0,0,0,0,0,0,0,0,0,-1,643,1513,0,0
-574,-489,0,0,0,0,0,0,0,0,0,-1,650,1513,0,0
-567,-489,0,0,0,0,0,0,0,0,0,-1,657,1513,0,0
-560,-489,0,0,0,0,0,0,0,0,0,-1,664,1513,0,0
-553,-489,-1.36615,-0.855957,0,0,0,0,0,0,0,-1,671,1513,-1.36613,0.855994
-546,-489,-1.4292,0.746704,0,0,0,0,0,0,0,-1,678,1513,-1.42919,-0.74675
-539,-489,0.508179,0.963989,0,0,0,0,0,0,0,-1,685,1513,0.50815,-0.964012
-532,-489,-0.10675,1.79688,0,0,0,0,0,0,0,-1,692,1513,-0.106723,-1.79692
-525,-489,0.845764,0.753662,0.0365096,0.0257885,0.0159749,0.0479994,0.0142988,0.623522,0.0284571,0.0413366,699,1513,0.84577,-0.753621
-518,-489,1.89777,-0.45166,0.0257583,0.0189931,0.0144183,0.0371855,0.00756588,0.670179,0.0226928,0.0438871,706,1513,1.89779,0.451666
-511,-489,0.528809,2.49194,0.0175281,0.0134152,0.0125254,0.0281647,0.00277859,0.704032,0.0179222,0.0490926,713,1513,0.528806,-2.49191
-504,-489,0.279968,2.80188,0.0113615,0.00904685,0.0103972,0.0206656,-0.00025721,0.72997,0.0138636,0.0449867,720,1513,0.279986,-2.80193
-497,-489,0.137939,2.95691,0.00665089,0.00586,0.00804925,0.0143144,-0.00180351,0.760854,0.0101974,0.0364222,727,1513,0.137953,-2.95693
-490,-489,0.111694,2.95068,0.00267607,0.0033933,0.00602196,0.00906732,-0.00299795,0.815139,0.00725373,0.0196019,734,1513,0.111713,-2.95069
-483,-489,0.13031,3.02747,0.000729502,0.000942591,0.00438223,0.00521958,-0.00354748,0.797552,0.00509226,0.010235,741,1513,0.130317,-3.02751
-476,-489,0.149414,3.1499,-0.000499637,-0.000968283,0.00303444,0.00230951,-0.00377743,0.746864,0.0035482,0.00897341,748,1513,0.149401,-3.14985
-469,-489,0.141846,3.2804,-0.0017263,-0.00136571,0.00204726,0.00050918,-0.00360119,0.829318,0.00258728,0.00969866,755,1513,0.141835,-3.28041
-462,-489,0.161377,3.40808,-0.00159951,-0.00144717,0.000773473,-0.000746125,-0.00230055,0.834478,0.00135528,0.015173,762,1513,0.161385,-3.40812
-455,-489,0.145691,3.53369,0.000105323,-0.0013082,-0.000731593,0.000415783,-0.00161866,-0.40133,0.00124114,0.0189748,769,1513,0.145684,-3.53364
-448,-489,0.116638,3.65198,0.00172859,-0.00187979,-0.00115039,0.00206414,-0.00221535,-0.283812,0.00247128,0.016993,776,1513,0.116657,-3.65193
-441,-489,0.116882,3.81555,0.00308133,-0.00335106,-0.000837865,0.00318868,-0.00345841,-0.127425,0.00383875,0.0145642,783,1513,0.116867,-3.81559
-434,-489,0.103638,3.95789,0.00428945,-0.00519462,-0.000433225,0.0043092,-0.00521437,-0.0455527,0.00550671,0.0165778,790,1513,0.103635,-3.95788
-427,-489,0.100891,4.08862,0.00520139,-0.00728518,-0.000199798,0.00520459,-0.00728837,-0.0159956,0.00724618,0.0183289,797,1513,0.10089,-4.08867
-420,-489,0.0848389,4.2345,0.00566542,-0.00988626,0.000176078,0.00566741,-0.00988825,0.0113202,0.0090906,0.0176035,804,1513,0.0848543,-4.23456
-413,-489,0.213013,4.3114,0.00608294,-0.0135197,0.000732199,0.00611025,-0.013547,0.0372828,0.0116167,0.0192882,811,1513,0.213038,-4.31135
-406,-489,0.196594,4.3197,0.00592893,-0.0178705,0.00159977,0.00603598,-0.0179775,0.0668183,0.0144243,0.0247638,818,1513,0.196607,-4.3197
-399,-489,0.364502,4.0647,0.00510947,-0.0226463,0.00304013,0.00543856,-0.0229754,0.107828,0.0174152,0.0328208,825,1513,0.364491,-4.06464
-392,-489,0.571533,3.91772,0.00332109,-0.0273766,0.00517828,0.00417106,-0.0282265,0.162691,0.020351,0.0407426,832,1513,0.57153,-3.91775
-385,-489,0.783691,3.91138,0.000635637,-0.030676,0.00835682,0.00272639,-0.0327668,0.245154,0.0228077,0.0470687,839,1513,0.783701,-3.91138
-378,-489,1.04218,3.93384,0,0,0,0,0,0,0,-1,846,1513,1.0422,-3.93387
-371,-489,0.0744629,5.16052,0,0,0,0,0,0,0,-1,853,1513,0.0744595,-5.16052
-364,-489,0.586609,5.47754,0,0,0,0,0,0,0,-1,860,1513,0.586609,-5.47752
-357,-489,1.38062,4.49646,0,0,0,0,0,0,0,-1,867,1513,1.38064,-4.4964
-350,-489,1.7019,4.33948,0,0,0,0,0,0,0,-1,874,1513,1.70188,-4.3395
-343,-489,2.37402,4.32898,0,0,0,0,0,0,0,-1,881,1513,2.37404,-4.32895
-336,-489,3.08551,4.5636,0,0,0,0,0,0,0,-1,888,1513,3.08552,-4.56357
-329,-489,-4.23425,3.97546,0,0,0,0,0,0,0,-1,895,1513,-4.23426,-3.9755
-322,-489,0,0,0,0,0,0,0,0,0,-1,902,1513,0,0
-315,-489,0,0,0,0,0,0,0,0,0,-1,909,1513,0,0
-308,-489,0,0,0,0,0,0,0,0,0,-1,916,1513,0,0
-301,-489,0,0,0,0,0,0,0,0,0,-1,923,1513,0,0
-294,-489,0,0,0,0,0,0,0,0,0,-1,930,1513,0,0
-287,-489,0,0,0,0,0,0,0,0,0,-1,937,1513,0,0
-280,-489,0,0,0,0,0,0,0,0,0,-1,944,1513,0,0
-273,-489,0,0,0,0,0,0,0,0,0,-1,951,1513,0,0
-266,-489,0,0,0,0,0,0,0,0,0,-1,958,1513,0,0
-259,-489,0,0,0,0,0,0,0,0,0,-1,965,1513,0,0
-252,-489,0,0,0,0,0,0,0,0,0,-1,972,1513,0,0
-245,-489,0,0,0,0,0,0,0,0,0,-1,979,1513,0,0
-238,-489,0,0,0,0,0,0,0,0,0,-1,986,1513,0,0
-231,-489,0,0,0,0,0,0,0,0,0,-1,993,1513,0,0
-224,-489,0,0,0,0,0,0,0,0,0,-1,1000,1513,0,0
-217,-489,0,0,0,0,0,0,0,0,0,-1,1007,1513,0,0
-210,-489,0,0,0,0,0,0,0,0,0,-1,1014,1513,0,0
-203,-489,0,0,0,0,0,0,0,0,0,-1,1021,1513,0,0
-196,-489,0,0,0,0,0,0,0,0,0,-1,1028,1513,0,0
-189,-489,0,0,0,0,0,0,0,0,0,-1,1035,1513,0,0
-182,-489,0,0,0,0,0,0,0,0,0,-1,1042,1513,0,0
-175,-489,0,0,0,0,0,0,0,0,0,-1,1049,1513,0,0
-168,-489,0,0,0,0,0,0,0,0,0,-1,1056,1513,0,0
-161,-489,0,0,0,0,0,0,0,0,0,-1,1063,1513,0,0
-154,-489,0,0,0,0,0,0,0,0,0,-1,1070,1513,0,0
-147,-489,0,0,0,0,0,0,0,0,0,-1,1077,1513,0,0
-140,-489,0,0,0,0,0,0,0,0,0,-1,1084,1513,0,0
-133,-489,0,0,0,0,0,0,0,0,0,-1,1091,1513,0,0
-126,-489,0,0,0,0,0,0,0,0,0,-1,1098,1513,0,0
-119,-489,0,0,0,0,0,0,0,0,0,-1,1105,1513,0,0
-112,-489,0,0,0,0,0,0,0,0,0,-1,1112,1513,0,0
-105,-489,0,0,0,0,0,0,0,0,0,-1,1119,1513,0,0
-98,-489,0,0,0,0,0,0,0,0,0,-1,1126,1513,0,0
-91,-489,0,0,0,0,0,0,0,0,0,-1,1133,1513,0,0
-84,-489,0,0,0,0,0,0,0,0,0,-1,1140,1513,0,0
-77,-489,0,0,0,0,0,0,0,0,0,-1,1147,1513,0,0
-70,-489,0,0,0,0,0,0,0,0,0,-1,1154,1513,0,0
-63,-489,0,0,0,0,0,0,0,0,0,-1,1161,1513,0,0
-56,-489,0,0,0,0,0,0,0,0,0,-1,1168,1513,0,0
-49,-489,0,0,0,0,0,0,0,0,0,-1,1175,1513,0,0
-42,-489,0,0,0,0,0,0,0,0,0,-1,1182,1513,0,0
-35,-489,0,0,0,0,0,0,0,0,0,-1,1189,1513,0,0
-28,-489,0,0,0,0,0,0,0,0,0,-1,1196,1513,0,0
-21,-489,0,0,0,0,0,0,0,0,0,-1,1203,1513,0,0
-14,-489,0,0,0,0,0,0,0,0,0,-1,1210,1513,0,0
-7,-489,0,0,0,0,0,0,0,0,0,-1,1217,1513,0,0
0,-489,0,0,0,0,0,0,0,0,0,-1,1224,1513,0,0
7,-489,0,0,0,0,0,0,0,0,0,-1,1231,1513,0,0
14,-489,0,0,0,0,0,0,0,0,0,-1,1238,1513,0,0
21,-489,0,0,0,0,0,0,0,0,0,-1,1245,1513,0,0
28,-489,0,0,0,0,0,0,0,0,0,-1,1252,1513,0,0
35,-489,0,0,0,0,0,0,0,0,0,-1,1259,1513,0,0
42,-489,0,0,0,0,0,0,0,0,0,-1,1266,1513,0,0
49,-489,0,0,0,0,0,0,0,0,0,-1,1273,1513,0,0
56,-489,0,0,0,0,0,0,0,0,0,-1,1280,1513,0,0
63,-489,0,0,0,0,0,0,0,0,0,-1,1287,1513,0,0
70,-489,0,0,0,0,0,0,0,0,0,-1,1294,1513,0,0
77,-489,0,0,0,0,0,0,0,0,0,-1,1301,1513,0,0
84,-489,0,0,0,0,0,0,0,0,0,-1,1308,1513,0,0
91,-489,0,0,0,0,0,0,0,0,0,-1,1315,1513,0,0
98,-489,0,0,0,0,0,0,0,0,0,-1,1322,1513,0,0
105,-489,0,0,0,0,0,0,0,0,0,-1,1329,1513,0,0
112,-489,0,0,0,0,0,0,0,0,0,-1,1336,1513,0,0
119,-489,0,0,0,0,0,0,0,0,0,-1,1343,1513,0,0
126,-489,0,0,0,0,0,0,0,0,0,-1,1350,1513,0,0
133,-489,0,0,0,0,0,0,0,0,0,-1,1357,1513,0,0
140,-489,0,0,0,0,0,0,0,0,0,-1,1364,1513,0,0
147,-489,0,0,0,0,0,0,0,0,0,-1,1371,1513,0,0
154,-489,0,0,0,0,0,0,0,0,0,-1,1378,1513,0,0
161,-489,0,0,0,0,0,0,0,0,0,-1,1385,1513,0,0
168,-489,0,0,0,0,0,0,0,0,0,-1,1392,1513,0,0
175,-489,0,0,0,0,0,0,0,0,0,-1,1399,1513,0,0
182,-489,0,0,0,0,0,0,0,0,0,-1,1406,1513,0,0
189,-489,0,0,0,0,0,0,0,0,0,-1,1413,1513,0,0
196,-489,0,0,0,0,0,0,0,0,0,-1,1420,1513,0,0
203,-489,0,0,0,0,0,0,0,0,0,-1,1427,1513,0,0
210,-489,0,0,0,0,0,0,0,0,0,-1,1434,1513,0,0
217,-489,0,0,0,0,0,0,0,0,0,-1,1441,1513,0,0
224,-489,0,0,0,0,0,0,0,0,0,-1,1448,1513,0,0
231,-489,0,0,0,0,0,0,0,0,0,-1,1455,1513,0,0
238,-489,0,0,0,0,0,0,0,0,0,-1,1462,1513,0,0
245,-489,0,0,0,0,0,0,0,0,0,-1,1469,1513,0,0
252,-489,0,0,0,0,0,0,0,0,0,-1,1476,1513,0,0
259,-489,0,0,0,0,0,0,0,0,0,-1,1483,1513,0,0
266,-489,0,0,0,0,0,0,0,0,0,-1,1490,1513,0,0
273,-489,0,0,0,0,0,0,0,0,0,-1,1497,1513,0,0
280,-489,0,0,0,0,0,0,0,0,0,-1,1504,1513,0,0
287,-489,0,0,0,0,0,0,0,0,0,-1,1511,1513,0,0
294,-489,0,0,0,0,0,0,0,0,0,-1,1518,1513,0,0
301,-489,0,0,0,0,0,0,0,0,0,-1,1525,1513,0,0
308,-489,0,0,0,0,0,0,0,0,0,-1,1532,1513,0,0
315,-489,0,0,0,0,0,0,0,0,0,-1,1539,1513,0,0
322,-489,0,0,0,0,0,0,0,0,0,-1,1546,1513,0,0
329,-489,0,0,0,0,0,0,0,0,0,-1,1553,1513,0,0
336,-489,0,0,0,0,0,0,0,0,0,-1,1560,1513,0,0
343,-489,0,0,0,0,0,0,0,0,0,-1,1567,1513,0,0
350,-489,0,0,0,0,0,0,0,0,0,-1,1574,1513,0,0
357,-489,0,0,0,0,0,0,0,0,0,-1,1581,1513,0,0
364,-489,0,0,0,0,0,0,0,0,0,-1,1588,1513,0,0
371,-489,0,0,0,0,0,0,0,0,0,-1,1595,1513,0,0
378,-489,0,0,0,0,0,0,0,0,0,-1,1602,1513,0,0
385,-489,0,0,0,0,0,0,0,0,0,-1,1609,1513,0,0
392,-489,0,0,0,0,0,0,0,0,0,-1,1616,1513,0,0
399,-489,0,0,0,0,0,0,0,0,0,-1,1623,1513,0,0
406,-489,0,0,0,0,0,0,0,0,0,-1,1630,1513,0,0
413,-489,0,0,0,0,0,0,0,0,0,-1,1637,1513,0,0
420,-489,0,0,0,0,0,0,0,0,0,-1,1644,1513,0,0
427,-489,0,0,0,0,0,0,0,0,0,-1,1651,1513,0,0
434,-489,0,0,0,0,0,0,0,0,0,-1,1658,1513,0,0
441,-489,12.3212,5.92639,0,0,0,0,0,0,0,-1,1665,1513,12.3211,-5.92641
448,-489,12.0258,6.46533,0,0,0,0,0,0,0,-1,1672,1513,12.0258,-6.46534
455,-489,4.49927,1.59009,0,0,0,0,0,0,0,-1,1679,1513,4.49924,-1.59004
462,-489,11.4536,-0.42334,0,0,0,0,0,0,0,-1,1686,1513,11.4536,0.423371
469,-489,10.4142,-0.931641,0,0,0,0,0,0,0,-1,1693,1513,10.4142,0.931625
476,-489,8.58923,-3.64673,0,0,0,0,0,0,0,-1,1700,1513,8.58923,3.64675
483,-489,8.37366,-2.60828,0.0570279,-0.135831,0.150048,0.13896,-0.217764,0.4998,0.207623,0.0493899,1707,1513,8.37366,2.60832
490,-489,8.20776,-1.55225,0.0443211,-0.11832,0.135478,0.121011,-0.19501,0.515096,0.184114,0.0483332,1714,1513,8.20774,1.55223
497,-489,7.99878,2.77087,0.0288373,-0.0991277,0.114203,0.0957593,-0.16605,0.530057,0.152961,0.0460871,1721,1513,7.99874,-2.77089
504,-489,7.58398,3.46875,0,0,0,0,0,0,0,-1,1728,1513,7.58402,-3.46872
511,-489,7.51233,4.20422,0.0100923,-0.0670213,0.0768804,0.0575426,-0.114472,0.552968,0.101109,0.0483382,1735,1513,7.5123,-4.20425
518,-489,7.07532,4.57629,0.00489986,-0.0537284,0.0611738,0.0434205,-0.092249,0.561966,0.080002,0.048119,1742,1513,7.07527,-4.57634
525,-489,6.56519,4.70459,0.00155799,-0.0421934,0.047462,0.031943,-0.0725784,0.569453,0.061847,0.0450517,1749,1513,6.56518,-4.70462
532,-489,6.37964,4.91956,-0.000380316,-0.0322853,0.0357388,0.0228047,-0.0554703,0.575485,0.0464853,0.0337778,1756,1513,6.37963,-4.9196
539,-489,6.48767,5.17053,-0.00125241,-0.0238456,0.0259276,0.0157327,-0.0408307,0.57995,0.0337114,0.0174823,1763,1513,6.48766,-5.17054
546,-489,6.49756,5.10583,-0.00370848,-0.0151168,0.0171491,0.00866025,-0.0274856,0.624843,0.0217918,0.0113824,1770,1513,6.4976,-5.10582
553,-489,6.52307,4.99377,-0.00444641,-0.00927733,0.0097339,0.00316725,-0.016891,0.66378,0.0124514,0.0129333,1777,1513,6.52306,-4.9938
560,-489,6.52747,4.88123,-0.00258143,-0.00667284,0.00588021,0.00159876,-0.010853,0.617998,0.00782292,0.0127956,1784,1513,6.52745,-4.88119
567,-489,6.50073,4.77869,-0.000853839,-0.00395409,0.00347429,0.00140045,-0.00620838,0.575566,0.00467617,0.0146244,1791,1513,6.50078,-4.77868
574,-489,6.48743,4.67737,0.000287486,-0.0021857,0.00201967,0.00141907,-0.00331728,0.510701,0.00280678,0.0142188,1798,1513,6.48739,-4.67736
581,-489,6.51746,4.56299,0.000808374,-0.00102891,0.00115393,0.00136467,-0.00158521,0.449218,0.0017047,0.0101073,1805,1513,6.51744,-4.56297
588,-489,6.5155,4.44653,0.000974349,-0.000128971,0.000331857,0.00106647,-0.000221095,0.270783,0.000794996,0.0125848,1812,1513,6.5155,-4.44659
595,-489,6.52405,4.32996,0.00129794,0.000188402,-0.000253002,0.0013529,0.000133434,-0.213937,0.000860912,0.0187151,1819,1513,6.52409,-4.32992
602,-489,6.55054,4.1853,0.00176263,0.000244705,-0.00071384,0.00204558,-3.82506e-05,-0.377386,0.00137665,0.0237685,1826,1513,6.55057,-4.18533
609,-489,6.54419,4.07434,0.00203917,0.000195527,-0.00099853,0.00247633,-0.000241628,-0.412661,0.00173704,0.0167714,1833,1513,6.54421,-4.07439
616,-489,6.51807,3.97009,0.00196196,-7.7503e-05,-0.00111144,0.00245059,-0.000566129,-0.414201,0.00185152,0.0100363,1840,1513,6.51804,-3.97013
623,-489,6.51855,3.87952,0.00176814,-0.000573863,-0.000987878,0.00212918,-0.000934902,-0.350389,0.00181328,0.0141104,1847,1513,6.51852,-3.87949
630,-489,6.47131,3.86206,0.00117281,-0.00160935,-0.000698387,0.00133828,-0.00177482,-0.232642,0.00180323,0.0326181,1854,1513,6.47134,-3.86208
637,-489,6.25037,3.93921,0,0,0,0,0,0,0,-1,1861,1513,6.25037,-3.93926
644,-489,5.96191,3.078,0,0,0,0,0,0,0,-1,1868,1513,5.96188,-3.07794
651,-489,5.2113,5.91199,0,0,0,0,0,0,0,-1,1875,1513,5.21129,-5.91204
658,-489,5.526,5.71619,0,0,0,0,0,0,0,-1,1882,1513,5.52595,-5.71621
665,-489,6.1897,5.26318,0,0,0,0,0,0,0,-1,1889,1513,6.18974,-5.26317
672,-489,0,0,0,0,0,0,0,0,0,-1,1896,1513,0,0
679,-489,0,0,0,0,0,0,0,0,0,-1,1903,1513,0,0
686,-489,0,0,0,0,0,0,0,0,0,-1,1910,1513,0,0
693,-489,0,0,0,0,0,0,0,0,0,-1,1917,1513,0,0
700,-489,0,0,0,0,0,0,0,0,0,-1,1924,1513,0,0
707,-489,0,0,0,0,0,0,0,0,0,-1,1931,1513,0,0
714,-489,0,0,0,0,0,0,0,0,0,-1,1938,1513,0,0
721,-489,0,0,0,0,0,0,0,0,0,-1,1945,1513,0,0
728,-489,0,0,0,0,0,0,0,0,0,-1,1952,1513,0,0
735,-489,0,0,0,0,0,0,0,0,0,-1,1959,1513,0,0
742,-489,0,0,0,0,0,0,0,0,0,-1,1966,1513,0,0
749,-489,0,0,0,0,0,0,0,0,0,-1,1973,1513,0,0
756,-489,0,0,0,0,0,0,0,0,0,-1,1980,1513,0,0
763,-489,0,0,0,0,0,0,0,0,0,-1,1987,1513,0,0
770,-489,0,0,0,0,0,0,0,0,0,-1,1994,1513,0,0
777,-489,0,0,0,0,0,0,0,0,0,-1,2001,1513,0,0
784,-489,0,0,0,0,0,0,0,0,0,-1,2008,1513,0,0
791,-489,0,0,0,0,0,0,0,0,0,-1,2015,1513,0,0
798,-489,0,0,0,0,0,0,0,0,0,-1,2022,1513,0,0
805,-489,0,0,0,0,0,0,0,0,0,-1,2029,1513,0,0
812,-489,0,0,0,0,0,0,0,0,0,-1,2036,1513,0,0
-700,-496,0,0,0,0,0,0,0,0,0,-1,524,1520,0,0
-693,-496,0,0,0,0,0,0,0,0,0,-1,531,1520,0,0
-686,-496,0,0,0,0,0,0,0,0,0,-1,538,1520,0,0
-679,-496,0,0,0,0,0,0,0,0,0,-1,545,1520,0,0
-672,-496,0,0,0,0,0,0,0,0,0,-1,552,1520,0,0
-665,-496,0,0,0,0,0,0,0,0,0,-1,559,1520,0,0
-658,-496,0,0,0,0,0,0,0,0,0,-1,566,1520,0,0
-651,-496,0,0,0,0,0,0,0,0,0,-1,573,1520,0,0
-644,-496,0,0,0,0,0,0,0,0,0,-1,580,1520,0,0
-637,-496,0,0,0,0,0,0,0,0,0,-1,587,1520,0,0
-630,-496,0,0,0,0,0,0,0,0,0,-1,594,1520,0,0
-623,-496,0,0,0,0,0,0,0,0,0,-1,601,1520,0,0
-616,-496,0,0,0,0,0,0,0,0,0,-1,608,1520,0,0
-609,-496,0,0,0,0,0,0,0,0,0,-1,615,1520,0,0
-602,-496,0,0,0,0,0,0,0,0,0,-1,622,1520,0,0
-595,-496,0,0,0,0,0,0,0,0,0,-1,629,1520,0,0
-588,-496,0,0,0,0,0,0,0,0,0,-1,636,1520,0,0
-581,-496,0,0,0,0,0,0,0,0,0,-1,643,1520,0,0
-574,-496,0,0,0,0,0,0,0,0,0,-1,650,1520,0,0
-567,-496,0,0,0,0,0,0,0,0,0,-1,657,1520,0,0
-560,-496,0,0,0,0,0,0,0,0,0,-1,664,1520,0,0
-553,-496,0,0,0,0,0,0,0,0,0,-1,671,1520,0,0
-546,-496,0.949829,2.69409,0,0,0,0,0,0,0,-1,678,1520,0.949826,-2.69413
-539,-496,0.670105,3.06787,0.0579024,0.0507719,0.0245499,0.0791446,0.0295297,0.71329,0.046182,0.0434741,685,1520,0.670112,-3.06786
-532,-496,0.476074,3.15234,0.0424285,0.0392558,0.0241177,0.0650119,0.0166724,0.752558,0.0389907,0.0424578,692,1520,0.476064,-3.15233
-525,-496,1.2345,-0.0593262,0.0297551,0.0295706,0.0228393,0.0525024,0.00682337,0.783379,0.0329634,0.0460657,699,1520,1.23451,0.0593002
-518,-496,0.462341,2.59497,0.0200539,0.0214862,0.0206874,0.0414698,7.02981e-05,0.8027,0.0276231,0.0471903,706,1520,0.462322,-2.59501
-511,-496,0.0563965,2.94165,0.0128803,0.0150245,0.0179592,0.0319436,-0.00403882,0.815211,0.0227618,0.0466671,713,1520,0.0564191,-2.94163
-504,-496,0.273621,3.10315,0,0,0,0,0,0,0,-1,720,1520,0.273637,-3.10314
-497,-496,0.263855,3.13501,0.00391578,0.00644332,0.0116223,0.0168703,-0.00651125,0.839554,0.013934,0.0484826,727,1520,0.263859,-3.13496
-490,-496,0.309143,3.06262,0.000672216,0.00369445,0.00872055,0.0110338,-0.00666717,0.871188,0.0103228,0.0355775,734,1520,0.30915,-3.06266
-483,-496,0.258118,3.04138,-0.000796958,0.00092435,0.00627638,0.00639881,-0.00627142,0.853536,0.00731528,0.0170273,741,1520,0.258126,-3.04134
-476,-496,0.259949,3.14832,-0.00172907,-0.00129411,0.00432385,0.00281772,-0.0058409,0.810526,0.00509962,0.00955818,748,1520,0.259964,-3.14832
-469,-496,0.259949,3.29297,-0.00278372,-0.0016414,0.00278635,0.00063173,-0.00505685,0.88649,0.00360033,0.00985726,755,1520,0.259965,-3.29292
-462,-496,0.26532,3.43127,-0.00248676,-0.00162637,0.00107882,-0.000895136,-0.00321799,0.975119,0.00191789,0.0139341,762,1520,0.265317,-3.43126
-455,-496,0.255737,3.5448,-0.000744519,-0.00149323,-0.000647051,-0.000371333,-0.00186641,-0.523147,0.00114082,0.0182447,769,1520,0.255712,-3.54476
-448,-496,0.244873,3.66016,0.000858129,-0.00193604,-0.0011537,0.00127292,-0.00235083,-0.345136,0.0021228,0.0175025,776,1520,0.24488,-3.66017
-441,-496,0.250488,3.8053,0.00211091,-0.00308971,-0.000773962,0.00222364,-0.00320245,-0.144646,0.0031497,0.0142658,783,1520,0.25047,-3.80527
-434,-496,0.258789,3.9325,0.00321678,-0.00463561,-0.000308471,0.00322888,-0.00464771,-0.0392031,0.00457208,0.013396,790,1520,0.258818,-3.93246
-427,-496,0.249268,4.08374,0.00398019,-0.00635635,-3.19286e-05,0.00398029,-0.00635645,-0.00308886,0.00602025,0.0166743,797,1520,0.249258,-4.08371
-420,-496,0.248169,4.18884,0.00429675,-0.00846124,0.00034201,0.00430591,-0.0084704,0.0267819,0.00750589,0.0174591,804,1520,0.248193,-4.18881
-413,-496,0.271423,4.30713,0.00451929,-0.0113443,0.00083276,0.00456289,-0.0113879,0.0523034,0.00948604,0.0149909,811,1520,0.271421,-4.30713
-406,-496,0.289734,4.45129,0.00420276,-0.0147647,0.00152437,0.00432449,-0.0148864,0.0796861,0.0116368,0.0176283,818,1520,0.289723,-4.45131
-399,-496,0.368408,4.56628,0.00337496,-0.0183886,0.00266848,0.00369737,-0.018711,0.12024,0.0138717,0.0272607,825,1520,0.36842,-4.56633
-392,-496,0.282959,4.53308,0.00183743,-0.021681,0.00433627,0.00261146,-0.0224551,0.176642,0.0159121,0.03408,832,1520,0.282987,-4.53306
-385,-496,0.636108,4.33789,0,0,0,0,0,0,0,-1,839,1520,0.636094,-4.33789
-378,-496,0.324707,4.9198,-0.00127091,-0.0220707,0.00868253,0.00187704,-0.0252187,0.347821,0.0174718,0.0403767,846,1520,0.324677,-4.91977
-371,-496,-0.120605,5.14978,-0.00212754,-0.018048,0.0103742,0.00298852,-0.023164,0.458154,0.0165292,0.0417642,853,1520,-0.120586,-5.14975
-364,-496,-0.394836,5.82239,0,0,0,0,0,0,0,-1,860,1520,-0.394812,-5.82242
-357,-496,0.124695,6.32898,0,0,0,0,0,0,0,-1,867,1520,0.124695,-6.32899
-350,-496,1.29504,4.4198,0,0,0,0,0,0,0,-1,874,1520,1.29507,-4.41975
-343,-496,1.85406,4.2041,0,0,0,0,0,0,0,-1,881,1520,1.85404,-4.20409
-336,-496,2.44379,4.32092,0,0,0,0,0,0,0,-1,888,1520,2.44376,-4.32094
-329,-496,-1.9776,9.2085,0,0,0,0,0,0,0,-1,895,1520,-1.9776,-9.20851
-322,-496,-3.6651,4.06116,0,0,0,0,0,0,0,-1,902,1520,-3.6651,-4.06118
-315,-496,-4.00482,3.56042,0,0,0,0,0,0,0,-1,909,1520,-4.00482,-3.56039
-308,-496,0,0,0,0,0,0,0,0,0,-1,916,1520,0,0
-301,-496,0,0,0,0,0,0,0,0,0,-1,923,1520,0,0
-294,-496,0,0,0,0,0,0,0,0,0,-1,930,1520,0,0
-287,-496,0,0,0,0,0,0,0,0,0,-1,937,1520,0,0
-280,-496,0,0,0,0,0,0,0,0,0,-1,944,1520,0,0
-273,-496,0,0,0,0,0,0,0,0,0,-1,951,1520,0,0
-266,-496,0,0,0,0,0,0,0,0,0,-1,958,1520,0,0
-259,-496,0,0,0,0,0,0,0,0,0,-1,965,1520,0,0
-252,-496,0,0,0,0,0,0,0,0,0,-1,972,1520,0,0
-245,-496,0,0,0,0,0,0,0,0,0,-1,979,1520,0,0
-238,-496,0,0,0,0,0,0,0,0,0,-1,986,1520,0,0
-231,-496,0,0,0,0,0,0,0,0,0,-1,993,1520,0,0
-224,-496,0,0,0,0,0,0,0,0,0,-1,1000,1520,0,0
-217,-496,0,0,0,0,0,0,0,0,0,-1,1007,1520,0,0
-210,-496,0,0,0,0,0,0,0,0,0,-1,1014,1520,0,0
-203,-496,0,0,0,0,0,0,0,0,0,-1,1021,1520,0,0
-196,-496,0,0,0,0,0,0,0,0,0,-1,1028,1520,0,0
-189,-496,0,0,0,0,0,0,0,0,0,-1,1035,1520,0,0
-182,-496,0,0,0,0,0,0,0,0,0,-1,1042,1520,0,0
-175,-496,0,0,0,0,0,0,0,0,0,-1,1049,1520,0,0
-168,-496,0,0,0,0,0,0,0,0,0,-1,1056,1520,0,0
-161,-496,0,0,0,0,0,0,0,0,0,-1,1063,1520,0,0
-154,-496,0,0,0,0,0,0,0,0,0,-1,1070,1520,0,0
-147,-496,0,0,0,0,0,0,0,0,0,-1,1077,1520,0,0
-140,-496,0,0,0,0,0,0,0,0,0,-1,1084,1520,0,0
-133,-496,0,0,0,0,0,0,0,0,0,-1,1091,1520,0,0
-126,-496,0,0,0,0,0,0,0,0,0,-1,1098,1520,0,0
-119,-496,0,0,0,0,0,0,0,0,0,-1,1105,1520,0,0
-112,-496,0,0,0,0,0,0,0,0,0,-1,1112,1520,0,0
-105,-496,0,0,0,0,0,0,0,0,0,-1,1119,1520,0,0
-98,-496,0,0,0,0,0,0,0,0,0,-1,1126,1520,0,0
-91,-496,0,0,0,0,0,0,0,0,0,-1,1133,1520,0,0
-84,-496,0,0,0,0,0,0,0,0,0,-1,1140,1520,0,0
-77,-496,0,0,0,0,0,0,0,0,0,-1,1147,1520,0,0
-70,-496,0,0,0,0,0,0,0,0,0,-1,1154,1520,0,0
-63,-496,0,0,0,0,0,0,0,0,0,-1,1161,1520,0,0
-56,-496,0,0,0,0,0,0,0,0,0,-1,1168,1520,0,0
-49,-496,0,0,0,0,0,0,0,0,0,-1,1175,1520,0,0
-42,-496,0,0,0,0,0,0,0,0,0,-1,1182,1520,0,0
-35,-496,0,0,0,0,0,0,0,0,0,-1,1189,1520,0,0
-28,-496,0,0,0,0,0,0,0,0,0,-1,1196,1520,0,0
-21,-496,0,0,0,0,0,0,0,0,0,-1,1203,1520,0,0
-14,-496,0,0,0,0,0,0,0,0,0,-1,1210,1520,0,0
-7,-496,0,0,0,0,0,0,0,0,0,-1,1217,1520,0,0
0,-496,0,0,0,0,0,0,0,0,0,-1,1224,1520,0,0
7,-496,0,0,0,0,0,0,0,0,0,-1,1231,1520,0,0
14,-496,0,0,0,0,0,0,0,0,0,-1,1238,1520,0,0
21,-496,0,0,0,0,0,0,0,0,0,-1,1245,1520,0,0
28,-496,0,0,0,0,0,0,0,0,0,-1,1252,1520,0,0
35,-496,0,0,0,0,0,0,0,0,0,-1,1259,1520,0,0
42,-496,0,0,0,0,0,0,0,0,0,-1,1266,1520,0,0
49,-496,0,0,0,0,0,0,0,0,0,-1,1273,1520,0,0
56,-496,0,0,0,0,0,0,0,0,0,-1,1280,1520,0,0
63,-496,0,0,0,0,0,0,0,0,0,-1,1287,1520,0,0
70,-496,0,0,0,0,0,0,0,0,0,-1,1294,1520,0,0
77,-496,0,0,0,0,0,0,0,0,0,-1,1301,1520,0,0
84,-496,0,0,0,0,0,0,0,0,0,-1,1308,1520,0,0
91,-496,0,0,0,0,0,0,0,0,0,-1,1315,1520,0,0
98,-496,0,0,0,0,0,0,0,0,0,-1,1322,1520,0,0
105,-496,0,0,0,0,0,0,0,0,0,-1,1329,1520,0,0
112,-496,0,0,0,0,0,0,0,0,0,-1,1336,1520,0,0
119,-496,0,0,0,0,0,0,0,0,0,-1,1343,1520,0,0
126,-496,0,0,0,0,0,0,0,0,0,-1,1350,1520,0,0
133,-496,0,0,0,0,0,0,0,0,0,-1,1357,1520,0,0
140,-496,0,0,0,0,0,0,0,0,0,-1,1364,1520,0,0
147,-496,0,0,0,0,0,0,0,0,0,-1,1371,1520,0,0
154,-496,0,0,0,0,0,0,0,0,0,-1,1378,1520,0,0
161,-496,0,0,0,0,0,0,0,0,0,-1,1385,1520,0,0
168,-496,0,0,0,0,0,0,0,0,0,-1,1392,1520,0,0
175,-496,0,0,0,0,0,0,0,0,0,-1,1399,1520,0,0
182,-496,0,0,0,0,0,0,0,0,0,-1,1406,1520,0,0
189,-496,0,0,0,0,0,0,0,0,0,-1,1413,1520,0,0
196,-496,0,0,0,0,0,0,0,0,0,-1,1420,1520,0,0
203,-496,0,0,0,0,0,0,0,0,0,-1,1427,1520,0,0
210,-496,0,0,0,0,0,0,0,0,0,-1,1434,1520,0,0
217,-496,0,0,0,0,0,0,0,0,0,-1,1441,1520,0,0
224,-496,0,0,0,0,0,0,0,0,0,-1,1448,1520,0,0
231,-496,0,0,0,0,0,0,0,0,0,-1,1455,1520,0,0
238,-496,0,0,0,0,0,0,0,0,0,-1,1462,1520,0,0
245,-496,0,0,0,0,0,0,0,0,0,-1,1469,1520,0,0
252,-496,0,0,0,0,0,0,0,0,0,-1,1476,1520,0,0
259,-496,0,0,0,0,0,0,0,0,0,-1,1483,1520,0,0
266,-496,0,0,0,0,0,0,0,0,0,-1,1490,1520,0,0
273,-496,0,0,0,0,0,0,0,0,0,-1,1497,1520,0,0
280,-496,0,0,0,0,0,0,0,0,0,-1,1504,1520,0,0
287,-496,0,0,0,0,0,0,0,0,0,-1,1511,1520,0,0
294,-496,0,0,0,0,0,0,0,0,0,-1,1518,1520,0,0
301,-496,0,0,0,0,0,0,0,0,0,-1,1525,1520,0,0
308,-496,0,0,0,0,0,0,0,0,0,-1,1532,1520,0,0
315,-496,0,0,0,0,0,0,0,0,0,-1,1539,1520,0,0
322,-496,0,0,0,0,0,0,0,0,0,-1,1546,1520,0,0
329,-496,0,0,0,0,0,0,0,0,0,-1,1553,1520,0,0
336,-496,0,0,0,0,0,0,0,0,0,-1,1560,1520,0,0
343,-496,0,0,0,0,0,0,0,0,0,-1,1567,1520,0,0
350,-496,0,0,0,0,0,0,0,0,0,-1,1574,1520,0,0
357,-496,0,0,0,0,0,0,0,0,0,-1,1581,1520,0,0
364,-496,0,0,0,0,0,0,0,0,0,-1,1588,1520,0,0
371,-496,0,0,0,0,0,0,0,0,0,-1,1595,1520,0,0
378,-496,0,0,0,0,0,0,0,0,0,-1,1602,1520,0,0
385,-496,0,0,0,0,0,0,0,0,0,-1,1609,1520,0,0
392,-496,0,0,0,0,0,0,0,0,0,-1,1616,1520,0,0
399,-496,0,0,0,0,0,0,0,0,0,-1,1623,1520,0,0
406,-496,0,0,0,0,0,0,0,0,0,-1,1630,1520,0,0
413,-496,0,0,0,0,0,0,0,0,0,-1,1637,1520,0,0
420,-496,0,0,0,0,0,0,0,0,0,-1,1644,1520,0,0
427,-496,0,0,0,0,0,0,0,0,0,-1,1651,1520,0,0
434,-496,13.1229,4.59521,0,0,0,0,0,0,0,-1,1658,1520,13.1229,-4.59526
441,-496,10.4907,-1.81775,0,0,0,0,0,0,0,-1,1665,1520,10.4907,1.81774
448,-496,10.686,6.91199,0,0,0,0,0,0,0,-1,1672,1520,10.6861,-6.91198
455,-496,11.8505,-1.2196,0,0,0,0,0,0,0,-1,1679,1520,11.8504,1.21963
462,-496,10.5363,-0.0723877,0,0,0,0,0,0,0,-1,1686,1520,10.5363,0.0724285
469,-496,9.44177,-0.560669,0,0,0,0,0,0,0,-1,1693,1520,9.44176,0.560707
476,-496,6.93689,5.58215,0,0,0,0,0,0,0,-1,1700,1520,6.93684,-5.5822
483,-496,7.81262,-1.86694,0,0,0,0,0,0,0,-1,1707,1520,7.81262,1.86689
490,-496,7.59741,-0.850708,0.0418006,-0.104057,0.117211,0.106919,-0.169175,0.507105,0.160748,0.049461,1714,1520,7.59744,0.850725
497,-496,8.26111,6.45264,0.0299799,-0.087249,0.0994873,0.0868357,-0.144105,0.519191,0.134693,0.0430298,1721,1520,8.26107,-6.45267
504,-496,7.96204,6.43127,0,0,0,0,0,0,0,-1,1728,1520,7.96204,-6.43131
511,-496,7.1803,5.91431,0,0,0,0,0,0,0,-1,1735,1520,7.18029,-5.91431
518,-496,6.78247,5.62744,0,0,0,0,0,0,0,-1,1742,1520,6.7825,-5.62744
525,-496,6.56177,5.15112,0,0,0,0,0,0,0,-1,1749,1520,6.56183,-5.15111
532,-496,6.38232,5.30261,0.000995197,-0.0268399,0.0294621,0.0196616,-0.0455063,0.564741,0.0385984,0.0218625,1756,1520,6.38235,-5.30261
539,-496,6.38135,5.20728,-0.000143716,-0.0195703,0.0210608,0.0133358,-0.0330497,0.569333,0.0275751,0.0122362,1763,1520,6.3814,-5.20725
546,-496,6.36853,5.09399,-0.00253619,-0.0119487,0.0135967,0.0071457,-0.0216306,0.618786,0.0173014,0.00964084,1770,1520,6.36851,-5.09404
553,-496,6.40991,4.98792,-0.00332297,-0.00715341,0.00732298,0.0023311,-0.0128075,0.657495,0.00941207,0.014559,1777,1520,6.40991,-4.98788
560,-496,6.42651,4.88306,-0.00163885,-0.00499342,0.00419834,0.00120486,-0.00783713,0.595356,0.00566921,0.0146512,1784,1520,6.42649,-4.8831
567,-496,6.3866,4.77234,-4.03584e-05,-0.00274595,0.00219548,0.00118564,-0.00397194,0.509285,0.00311921,0.0123236,1791,1520,6.38662,-4.77229
574,-496,6.38074,4.67273,0.00106093,-0.00120446,0.000945778,0.00140387,-0.0015474,0.347854,0.00170459,0.0116183,1798,1520,6.38079,-4.67269
581,-496,6.39771,4.57678,0.00162558,-0.000169302,0.00017164,0.00164185,-0.000185568,0.094486,0.00116137,0.0121856,1805,1520,6.39774,-4.57676
588,-496,6.41235,4.46106,0.0018841,0.00062652,-0.000573064,0.00210606,0.000404558,-0.369532,0.0012905,0.0140688,1812,1520,6.41235,-4.461
595,-496,6.4093,4.34424,0.00228832,0.000901501,-0.001124,0.00291559,0.000274232,-0.509017,0.00185907,0.0155503,1819,1520,6.40931,-4.34427
602,-496,6.42847,4.19788,0.00283777,0.000954453,-0.00158189,0.00373706,5.51636e-05,-0.516929,0.00247319,0.0161779,1826,1520,6.42845,-4.19787
609,-496,6.42383,4.08313,0.00318973,0.000853567,-0.00188488,0.00423912,-0.000195822,-0.508004,0.00289356,0.0135403,1833,1520,6.42387,-4.0831
616,-496,6.4054,3.96887,0.00315561,0.000498686,-0.00202043,0.00424519,-0.0005909,-0.494579,0.00304626,0.0118266,1840,1520,6.40545,-3.9689
623,-496,6.40161,3.90906,0.00296476,-0.000170135,-0.00196054,0.00390742,-0.00111279,-0.448181,0.00304444,0.024418,1847,1520,6.40161,-3.90901
630,-496,6.32849,3.91479,0.002355,-0.0012268,-0.00177263,0.00308393,-0.00195573,-0.390135,0.00293385,0.0415353,1854,1520,6.32853,-3.91474
637,-496,6.5647,3.75366,0,0,0,0,0,0,0,-1,1861,1520,6.56473,-3.75367
644,-496,7.0282,3.82239,0,0,0,0,0,0,0,-1,1868,1520,7.02825,-3.82235
651,-496,6.00659,4.87854,0,0,0,0,0,0,0,-1,1875,1520,6.00657,-4.87851
658,-496,6.1593,4.97949,0,0,0,0,0,0,0,-1,1882,1520,6.15933,-4.97946
665,-496,6.57422,4.94165,0,0,0,0,0,0,0,-1,1889,1520,6.57421,-4.94164
672,-496,0,0,0,0,0,0,0,0,0,-1,1896,1520,0,0
679,-496,0,0,0,0,0,0,0,0,0,-1,1903,1520,0,0
686,-496,0,0,0,0,0,0,0,0,0,-1,1910,1520,0,0
693,-496,0,0,0,0,0,0,0,0,0,-1,1917,1520,0,0
700,-496,0,0,0,0,0,0,0,0,0,-1,1924,1520,0,0
707,-496,0,0,0,0,0,0,0,0,0,-1,1931,1520,0,0
714,-496,0,0,0,0,0,0,0,0,0,-1,1938,1520,0,0
721,-496,0,0,0,0,0,0,0,0,0,-1,1945,1520,0,0
728,-496,0,0,0,0,0,0,0,0,0,-1,1952,1520,0,0
735,-496,0,0,0,0,0,0,0,0,0,-1,1959,1520,0,0
742,-496,0,0,0,0,0,0,0,0,0,-1,1966,1520,0,0
749,-496,0,0,0,0,0,0,0,0,0,-1,1973,1520,0,0
756,-496,0,0,0,0,0,0,0,0,0,-1,1980,1520,0,0
763,-496,0,0,0,0,0,0,0,0,0,-1,1987,1520,0,0
770,-496,0,0,0,0,0,0,0,0,0,-1,1994,1520,0,0
777,-496,0,0,0,0,0,0,0,0,0,-1,2001,1520,0,0
784,-496,0,0,0,0,0,0,0,0,0,-1,2008,1520,0,0
791,-496,0,0,0,0,0,0,0,0,0,-1,2015,1520,0,0
798,-496,0,0,0,0,0,0,0,0,0,-1,2022,1520,0,0
805,-496,0,0,0,0,0,0,0,0,0,-1,2029,1520,0,0
812,-496,0,0,0,0,0,0,0,0,0,-1,2036,1520,0,0
-700,-503,0,0,0,0,0,0,0,0,0,-1,524,1527,0,0
-693,-503,0,0,0,0,0,0,0,0,0,-1,531,1527,0,0
-686,-503,0,0,0,0,0,0,0,0,0,-1,538,1527,0,0
-679,-503,0,0,0,0,0,0,0,0,0,-1,545,1527,0,0
-672,-503,0,0,0,0,0,0,0,0,0,-1,552,1527,0,0
-665,-503,0,0,0,0,0,0,0,0,0,-1,559,1527,0,0
-658,-503,0,0,0,0,0,0,0,0,0,-1,566,1527,0,0
-651,-503,0,0,0,0,0,0,0,0,0,-1,573,1527,0,0
-644,-503,0,0,0,0,0,0,0,0,0,-1,580,1527,0,0
-637,-503,0,0,0,0,0,0,0,0,0,-1,587,1527,0,0
-630,-503,0,0,0,0,0,0,0,0,0,-1,594,1527,0,0
-623,-503,0,0,0,0,0,0,0,0,0,-1,601,1527,0,0
-616,-503,0,0,0,0,0,0,0,0,0,-1,608,1527,0,0
-609,-503,0,0,0,0,0,0,0,0,0,-1,615,1527,0,0
-602,-503,0,0,0,0,0,0,0,0,0,-1,622,1527,0,0
-595,-503,0,0,0,0,0,0,0,0,0,-1,629,1527,0,0
-588,-503,0,0,0,0,0,0,0,0,0,-1,636,1527,0,0
-581,-503,0,0,0,0,0,0,0,0,0,-1,643,1527,0,0
-574,-503,0,0,0,0,0,0,0,0,0,-1,650,1527,0,0
-567,-503,0,0,0,0,0,0,0,0,0,-1,657,1527,0,0
-560,-503,0,0,0,0,0,0,0,0,0,-1,664,1527,0,0
-553,-503,0,0,0,0,0,0,0,0,0,-1,671,1527,0,0
-546,-503,0,0,0,0,0,0,0,0,0,-1,678,1527,0,0
-539,-503,0.167603,2.21521,0.0452373,0.0613929,0.0322747,0.0865853,0.0200449,0.908021,0.0523374,0.0429422,685,1527,0.16762,-2.21522
-532,-503,0.0124512,2.31763,0.0310434,0.0464615,0.0327354,0.0723833,0.00512164,0.901039,0.0466422,0.0446607,692,1527,0.0124222,-2.31761
-525,-503,-0.17334,2.38879,0.0196581,0.0345825,0.0314271,0.0594212,-0.00518056,0.901962,0.041449,0.0482335,699,1527,-0.173349,-2.38876
-518,-503,-0.312561,2.84058,0.0115757,0.0249468,0.0284705,0.0475062,-0.0109837,0.900721,0.0358966,0.0475842,706,1527,-0.312567,-2.84061
-511,-503,-0.150513,3.46277,0.00606226,0.0174147,0.0246324,0.0370164,-0.0135394,0.89864,0.0302193,0.0471008,713,1527,-0.15049,-3.46272
-504,-503,-0.582336,4.23157,0.00243009,0.011717,0.0203408,0.0279376,-0.0137906,0.897616,0.0245489,0.0471058,720,1527,-0.58232,-4.23159
-497,-503,0.409241,3.30493,0,0,0,0,0,0,0,-1,727,1527,0.409227,-3.3049
-490,-503,0.540161,3.08875,-0.0020177,0.00443959,0.0119356,0.0135755,-0.0111537,0.917489,0.0143002,0.0482334,734,1527,0.540167,-3.08875
-483,-503,0.53064,3.01709,-0.00275367,0.00125798,0.00853159,0.00801637,-0.00951206,0.900854,0.0101323,0.0356325,741,1527,0.530641,-3.01704
-476,-503,0.424683,3.15698,-0.00320724,-0.00134763,0.00583704,0.0036332,-0.00818807,0.864382,0.00699185,0.0156684,748,1527,0.424703,-3.15702
-469,-503,0.394714,3.28967,-0.00396028,-0.00168153,0.00363205,0.000985663,-0.00662747,0.937387,0.00478086,0.00889686,755,1527,0.394696,-3.28969
-462,-503,0.382446,3.43103,-0.00343224,-0.00161329,0.00144707,-0.000813625,-0.0042319,1.06595,0.00259297,0.0100818,762,1527,0.382433,-3.43099
-455,-503,0.389221,3.5426,-0.00167795,-0.00151983,-0.000525967,-0.00106701,-0.00213076,-0.859996,0.0012302,0.0145949,769,1527,0.389231,-3.54263
-448,-503,0.394958,3.65344,-0.0001144,-0.00180145,-0.0011672,0.000482177,-0.00239803,-0.472502,0.0017813,0.0144125,776,1527,0.394935,-3.65343
-441,-503,0.40033,3.78833,0.00104091,-0.00259385,-0.000753085,0.00119076,-0.0027437,-0.196421,0.0023298,0.0123003,783,1527,0.400302,-3.78836
-434,-503,0.39093,3.91357,0.00206231,-0.00383041,-0.000260833,0.00207384,-0.00384194,-0.0441485,0.00346595,0.0107895,790,1527,0.390924,-3.91353
-427,-503,0.36322,4.0426,0.00272409,-0.0051998,2.68471e-05,0.00272418,-0.00519989,0.00338806,0.0046488,0.0163592,797,1527,0.363247,-4.04261
-420,-503,0.406738,4.16443,0.00295836,-0.006848,0.000374027,0.0029726,-0.00686224,0.0380676,0.0058243,0.0176616,804,1527,0.406763,-4.16445
-413,-503,0.401306,4.28137,0.00306639,-0.00904592,0.000784003,0.00311693,-0.00909646,0.0643697,0.00732769,0.0144475,811,1527,0.401314,-4.28135
-406,-503,0.38739,4.41968,0.00268012,-0.0116605,0.00130434,0.00279779,-0.0117781,0.0899707,0.00893195,0.0110407,818,1527,0.387398,-4.41963
-399,-503,0.449402,4.57654,0.00193058,-0.0143388,0.00218735,0.00221953,-0.0146278,0.131339,0.0105697,0.0130774,825,1527,0.449408,-4.57658
-392,-503,0.488647,4.72522,0.000706082,-0.0165251,0.0034708,0.00137892,-0.0171979,0.191481,0.0119515,0.0224888,832,1527,0.488642,-4.72521
-385,-503,0.397461,4.68628,-0.00084202,-0.0170409,0.00543647,0.000813342,-0.0186962,0.295573,0.0127439,0.0331379,839,1527,0.397459,-4.68634
-378,-503,0.289917,4.88977,-0.00127354,-0.0152233,0.00675039,0.0014581,-0.017955,0.384521,0.0124844,0.0404695,846,1527,0.289902,-4.88971
-371,-503,0.0456543,5.14905,-0.00136451,-0.0108895,0.00791875,0.00311356,-0.0153675,0.514668,0.0114252,0.0447487,853,1527,0.0456706,-5.14911
-364,-503,0.00152588,5.33447,0,0,0,0,0,0,0,-1,860,1527,0.00154531,-5.33444
-357,-503,0.153442,5.6731,0,0,0,0,0,0,0,-1,867,1527,0.153461,-5.67307
-350,-503,0.253845,6.27539,0,0,0,0,0,0,0,-1,874,1527,0.253871,-6.27538
-343,-503,1.27985,4.21729,0,0,0,0,0,0,0,-1,881,1527,1.27986,-4.21724
-336,-503,-3.60461,7.79102,0,0,0,0,0,0,0,-1,888,1527,-3.60464,-7.79099
-329,-503,-1.84546,8.45178,0,0,0,0,0,0,0,-1,895,1527,-1.84547,-8.45177
-322,-503,-3.93005,6.87598,0,0,0,0,0,0,0,-1,902,1527,-3.93004,-6.87597
-315,-503,6.86487,7.39038,0,0,0,0,0,0,0,-1,909,1527,6.86486,-7.39034
-308,-503,8.1449,7.53113,0,0,0,0,0,0,0,-1,916,1527,8.14487,-7.53107
-301,-503,0,0,0,0,0,0,0,0,0,-1,923,1527,0,0
-294,-503,0,0,0,0,0,0,0,0,0,-1,930,1527,0,0
-287,-503,0,0,0,0,0,0,0,0,0,-1,937,1527,0,0
-280,-503,0,0,0,0,0,0,0,0,0,-1,944,1527,0,0
-273,-503,0,0,0,0,0,0,0,0,0,-1,951,1527,0,0
-266,-503,0,0,0,0,0,0,0,0,0,-1,958,1527,0,0
-259,-503,0,0,0,0,0,0,0,0,0,-1,965,1527,0,0
-252,-503,0,0,0,0,0,0,0,0,0,-1,972,1527,0,0
-245,-503,0,0,0,0,0,0,0,0,0,-1,979,1527,0,0
-238,-503,0,0,0,0,0,0,0,0,0,-1,986,1527,0,0
-231,-503,0,0,0,0,0,0,0,0,0,-1,993,1527,0,0
-224,-503,0,0,0,0,0,0,0,0,0,-1,1000,1527,0,0
-217,-503,0,0,0,0,0,0,0,0,0,-1,1007,1527,0,0
-210,-503,0,0,0,0,0,0,0,0,0,-1,1014,1527,0,0
-203,-503,0,0,0,0,0,0,0,0,0,-1,1021,1527,0,0
-196,-503,0,0,0,0,0,0,0,0,0,-1,1028,1527,0,0
-189,-503,0,0,0,0,0,0,0,0,0,-1,1035,1527,0,0
-182,-503,0,0,0,0,0,0,0,0,0,-1,1042,1527,0,0
-175,-503,0,0,0,0,0,0,0,0,0,-1,1049,1527,0,0
-168,-503,0,0,0,0,0,0,0,0,0,-1,1056,1527,0,0
-161,-503,0,0,0,0,0,0,0,0,0,-1,1063,1527,0,0
-154,-503,0,0,0,0,0,0,0,0,0,-1,1070,1527,0,0
-147,-503,0,0,0,0,0,0,0,0,0,-1,1077,1527,0,0
-140,-503,0,0,0,0,0,0,0,0,0,-1,1084,1527,0,0
-133,-503,0,0,0,0,0,0,0,0,0,-1,1091,1527,0,0
-126,-503,0,0,0,0,0,0,0,0,0,-1,1098,1527,0,0
-119,-503,0,0,0,0,0,0,0,0,0,-1,1105,1527,0,0
-112,-503,0,0,0,0,0,0,0,0,0,-1,1112,1527,0,0
-105,-503,0,0,0,0,0,0,0,0,0,-1,1119,1527,0,0
-98,-503,0,0,0,0,0,0,0,0,0,-1,1126,1527,0,0
-91,-503,0,0,0,0,0,0,0,0,0,-1,1133,1527,0,0
-84,-503,0,0,0,0,0,0,0,0,0,-1,1140,1527,0,0
-77,-503,0,0,0,0,0,0,0,0,0,-1,1147,1527,0,0
-70,-503,0,0,0,0,0,0,0,0,0,-1,1154,1527,0,0
-63,-503,0,0,0,0,0,0,0,0,0,-1,1161,1527,0,0
-56,-503,0,0,0,0,0,0,0,0,0,-1,1168,1527,0,0
-49,-503,0,0,0,0,0,0,0,0,0,-1,1175,1527,0,0
-42,-503,0,0,0,0,0,0,0,0,0,-1,1182,1527,0,0
-35,-503,0,0,0,0,0,0,0,0,0,-1,1189,1527,0,0
-28,-503,0,0,0,0,0,0,0,0,0,-1,1196,1527,0,0
-21,-503,0,0,0,0,0,0,0,0,0,-1,1203,1527,0,0
-14,-503,0,0,0,0,0,0,0,0,0,-1,1210,1527,0,0
-7,-503,0,0,0,0,0,0,0,0,0,-1,1217,1527,0,0
0,-503,0,0,0,0,0,0,0,0,0,-1,1224,1527,0,0
7,-503,0,0,0,0,0,0,0,0,0,-1,1231,1527,0,0
14,-503,0,0,0,0,0,0,0,0,0,-1,1238,1527,0,0
21,-503,0,0,0,0,0,0,0,0,0,-1,1245,1527,0,0
28,-503,0,0,0,0,0,0,0,0,0,-1,1252,1527,0,0
35,-503,0,0,0,0,0,0,0,0,0,-1,1259,1527,0,0
42,-503,0,0,0,0,0,0,0,0,0,-1,1266,1527,0,0
49,-503,0,0,0,0,0,0,0,0,0,-1,1273,1527,0,0
56,-503,0,0,0,0,0,0,0,0,0,-1,1280,1527,0,0
63,-503,0,0,0,0,0,0,0,0,0,-1,1287,1527,0,0
70,-503,0,0,0,0,0,0,0,0,0,-1,1294,1527,0,0
77,-503,0,0,0,0,0,0,0,0,0,-1,1301,1527,0,0
84,-503,0,0,0,0,0,0,0,0,0,-1,1308,1527,0,0
91,-503,0,0,0,0,0,0,0,0,0,-1,1315,1527,0,0
98,-503,0,0,0,0,0,0,0,0,0,-1,1322,1527,0,0
105,-503,0,0,0,0,0,0,0,0,0,-1,1329,1527,0,0
112,-503,0,0,0,0,0,0,0,0,0,-1,1336,1527,0,0
119,-503,0,0,0,0,0,0,0,0,0,-1,1343,1527,0,0
126,-503,0,0,0,0,0,0,0,0,0,-1,1350,1527,0,0
133,-503,0,0,0,0,0,0,0,0,0,-1,1357,1527,0,0
140,-503,0,0,0,0,0,0,0,0,0,-1,1364,1527,0,0
147,-503,0,0,0,0,0,0,0,0,0,-1,1371,1527,0,0
154,-503,0,0,0,0,0,0,0,0,0,-1,1378,1527,0,0
161,-503,0,0,0,0,0,0,0,0,0,-1,1385,1527,0,0
168,-503,0,0,0,0,0,0,0,0,0,-1,1392,1527,0,0
175,-503,0,0,0,0,0,0,0,0,0,-1,1399,1527,0,0
182,-503,0,0,0,0,0,0,0,0,0,-1,1406,1527,0,0
189,-503,0,0,0,0,0,0,0,0,0,-1,1413,1527,0,0
196,-503,0,0,0,0,0,0,0,0,0,-1,1420,1527,0,0
203,-503,0,0,0,0,0,0,0,0,0,-1,1427,1527,0,0
210,-503,0,0,0,0,0,0,0,0,0,-1,1434,1527,0,0
217,-503,0,0,0,0,0,0,0,0,0,-1,1441,1527,0,0
224,-503,0,0,0,0,0,0,0,0,0,-1,1448,1527,0,0
231,-503,0,0,0,0,0,0,0,0,0,-1,1455,1527,0,0
238,-503,0,0,0,0,0,0,0,0,0,-1,1462,1527,0,0
245,-503,0,0,0,0,0,0,0,0,0,-1,1469,1527,0,0
252,-503,0,0,0,0,0,0,0,0,0,-1,1476,1527,0,0
259,-503,0,0,0,0,0,0,0,0,0,-1,1483,1527,0,0
266,-503,0,0,0,0,0,0,0,0,0,-1,1490,1527,0,0
273,-503,0,0,0,0,0,0,0,0,0,-1,1497,1527,0,0
280,-503,0,0,0,0,0,0,0,0,0,-1,1504,1527,0,0
287,-503,0,0,0,0,0,0,0,0,0,-1,1511,1527,0,0
294,-503,0,0,0,0,0,0,0,0,0,-1,1518,1527,0,0
301,-503,0,0,0,0,0,0,0,0,0,-1,1525,1527,0,0
308,-503,0,0,0,0,0,0,0,0,0,-1,1532,1527,0,0
315,-503,0,0,0,0,0,0,0,0,0,-1,1539,1527,0,0
322,-503,0,0,0,0,0,0,0,0,0,-1,1546,1527,0,0
329,-503,0,0,0,0,0,0,0,0,0,-1,1553,1527,0,0
336,-503,0,0,0,0,0,0,0,0,0,-1,1560,1527,0,0
343,-503,0,0,0,0,0,0,0,0,0,-1,1567,1527,0,0
350,-503,0,0,0,0,0,0,0,0,0,-1,1574,1527,0,0
357,-503,0,0,0,0,0,0,0,0,0,-1,1581,1527,0,0
364,-503,0,0,0,0,0,0,0,0,0,-1,1588,1527,0,0
371,-503,0,0,0,0,0,0,0,0,0,-1,1595,1527,0,0
378,-503,0,0,0,0,0,0,0,0,0,-1,1602,1527,0,0
385,-503,0,0,0,0,0,0,0,0,0,-1,1609,1527,0,0
392,-503,0,0,0,0,0,0,0,0,0,-1,1616,1527,0,0
399,-503,0,0,0,0,0,0,0,0,0,-1,1623,1527,0,0
406,-503,0,0,0,0,0,0,0,0,0,-1,1630,1527,0,0
413,-503,0,0,0,0,0,0,0,0,0,-1,1637,1527,0,0
420,-503,0,0,0,0,0,0,0,0,0,-1,1644,1527,0,0
427,-503,14.849,4.34363,0,0,0,0,0,0,0,-1,1651,1527,14.849,-4.3436
434,-503,10.5668,-1.18909,0,0,0,0,0,0,0,-1,1658,1527,10.5667,1.18904
441,-503,10.5645,-0.989258,0,0,0,0,0,0,0,-1,1665,1527,10.5644,0.989255
448,-503,12.6876,-0.778931,0,0,0,0,0,0,0,-1,1672,1527,12.6876,0.778884
455,-503,11.3021,-0.424561,0,0,0,0,0,0,0,-1,1679,1527,11.3021,0.424564
462,-503,9.88538,-0.227539,0,0,0,0,0,0,0,-1,1686,1527,9.88539,0.22756
469,-503,5.51379,3.48669,0,0,0,0,0,0,0,-1,1693,1527,5.51379,-3.4867
476,-503,6.00928,4.22876,0,0,0,0,0,0,0,-1,1700,1527,6.00923,-4.22877
483,-503,6.62842,5.07532,0,0,0,0,0,0,0,-1,1707,1527,6.62839,-5.07529
490,-503,7.07544,5.58582,0.0357855,-0.0879402,0.0976662,0.0895328,-0.141688,0.503086,0.134622,0.0481482,1714,1527,7.07542,-5.58585
497,-503,7.32886,5.85144,0.0271722,-0.0736018,0.0834041,0.074228,-0.120658,0.513673,0.113577,0.0398926,1721,1527,7.32888,-5.85141
504,-503,7.28796,5.86182,0.0191932,-0.0600559,0.0687638,0.0589322,-0.0997948,0.524015,0.0926478,0.0393179,1728,1527,7.28798,-5.86186
511,-503,6.90295,5.83728,0.0125882,-0.0480625,0.0550833,0.0451421,-0.0806165,0.533771,0.0735633,0.0401625,1735,1527,6.90294,-5.83733
518,-503,6.5061,5.51746,0.00741212,-0.0375936,0.04281,0.0332733,-0.0634548,0.543422,0.0567449,0.0388705,1742,1527,6.50605,-5.51751
525,-503,6.32532,5.4071,0.00389735,-0.0287427,0.0323655,0.0238246,-0.04867,0.55188,0.0426663,0.0260758,1749,1527,6.32535,-5.40716
532,-503,6.302,5.32813,0.00169892,-0.0215166,0.0236504,0.0164366,-0.0362542,0.557266,0.03113,0.0112797,1756,1527,6.302,-5.3281
539,-503,6.28723,5.21204,0.000441935,-0.0155757,0.0166367,0.0108971,-0.0260309,0.561071,0.0219091,0.0117776,1763,1527,6.28719,-5.21206
546,-503,6.2699,5.1001,-0.00174282,-0.00922711,0.0104248,0.00559116,-0.0165611,0.613079,0.0133021,0.0111012,1770,1527,6.26987,-5.10015
553,-503,6.30127,4.99622,-0.0024932,-0.00553183,0.005211,0.00141545,-0.00944048,0.64355,0.00681465,0.0132417,1777,1527,6.30129,-4.9962
560,-503,6.30481,4.89038,-0.00102594,-0.00386958,0.00266934,0.000576634,-0.00547215,0.540686,0.00385472,0.0132435,1784,1527,6.30477,-4.89032
567,-503,6.28638,4.78198,0.000394026,-0.00217481,0.000983314,0.000727209,-0.002508,0.326696,0.0019599,0.0116348,1791,1527,6.2864,-4.78203
574,-503,6.27454,4.69788,0.00141567,-0.000963364,-0.000135073,0.00142332,-0.000971008,-0.0565343,0.00139056,0.0113987,1798,1527,6.27449,-4.6979
581,-503,6.24854,4.57458,0.00201863,-0.000122216,-0.000892641,0.00234198,-0.00044557,-0.347541,0.00172909,0.0128732,1805,1527,6.2485,-4.57461
588,-503,6.24854,4.47119,0.00241529,0.000531591,-0.00163086,0.00335673,-0.000409851,-0.523536,0.0023862,0.0156028,1812,1527,6.24854,-4.47123
595,-503,6.2771,4.35559,0.0029787,0.000796706,-0.00221853,0.00435998,-0.000584575,-0.556879,0.00311982,0.0116557,1819,1527,6.27706,-4.35555
602,-503,6.29529,4.21802,0.00371611,0.000941811,-0.00275204,0.00541083,-0.000752909,-0.551959,0.0038826,0.0117863,1826,1527,6.29532,-4.21798
609,-503,6.31409,4.08496,0.00429237,0.000944983,-0.00315418,0.0061894,-0.00095205,-0.541474,0.00447748,0.0139595,1833,1527,6.31407,-4.085
616,-503,6.27673,4.00525,0.0045217,0.000729216,-0.0034073,0.00652488,-0.00127396,-0.531479,0.00483089,0.0173263,1840,1527,6.27668,-4.00529
623,-503,6.27905,3.93164,0.00462746,0.000187698,-0.00347843,0.006534,-0.00171884,-0.501386,0.00502785,0.0343887,1847,1527,6.27904,-3.93161
630,-503,6.27148,3.88721,0.00428908,-0.000765494,-0.00340465,0.00600193,-0.00247835,-0.466119,0.005035,0.0449318,1854,1527,6.27153,-3.8872
637,-503,6.29651,3.83948,0,0,0,0,0,0,0,-1,1861,1527,6.29652,-3.83943
644,-503,6.32104,3.99731,0,0,0,0,0,0,0,-1,1868,1527,6.32105,-3.99729
651,-503,6.49146,4.15125,0,0,0,0,0,0,0,-1,1875,1527,6.49141,-4.1512
658,-503,6.67151,4.33142,0,0,0,0,0,0,0,-1,1882,1527,6.67151,-4.33147
665,-503,0,0,0,0,0,0,0,0,0,-1,1889,1527,0,0
672,-503,0,0,0,0,0,0,0,0,0,-1,1896,1527,0,0
679,-503,0,0,0,0,0,0,0,0,0,-1,1903,1527,0,0
686,-503,0,0,0,0,0,0,0,0,0,-1,1910,1527,0,0
693,-503,0,0,0,0,0,0,0,0,0,-1,1917,1527,0,0
700,-503,0,0,0,0,0,0,0,0,0,-1,1924,1527,0,0
707,-503,0,0,0,0,0,0,0,0,0,-1,1931,1527,0,0
714,-503,0,0,0,0,0,0,0,0,0,-1,1938,1527,0,0
721,-503,0,0,0,0,0,0,0,0,0,-1,1945,1527,0,0
728,-503,0,0,0,0,0,0,0,0,0,-1,1952,1527,0,0
735,-503,0,0,0,0,0,0,0,0,0,-1,1959,1527,0,0
742,-503,0,0,0,0,0,0,0,0,0,-1,1966,1527,0,0
749,-503,0,0,0,0,0,0,0,0,0,-1,1973,1527,0,0
756,-503,0,0,0,0,0,0,0,0,0,-1,1980,1527,0,0
763,-503,0,0,0,0,0,0,0,0,0,-1,1987,1527,0,0
770,-503,0,0,0,0,0,0,0,0,0,-1,1994,1527,0,0
777,-503,0,0,0,0,0,0,0,0,0,-1,2001,1527,0,0
784,-503,0,0,0,0,0,0,0,0,0,-1,2008,1527,0,0
791,-503,0,0,0,0,0,0,0,0,0,-1,2015,1527,0,0
798,-503,0,0,0,0,0,0,0,0,0,-1,2022,1527,0,0
805,-503,0,0,0,0,0,0,0,0,0,-1,2029,1527,0,0
812,-503,0,0,0,0,0,0,0,0,0,-1,2036,1527,0,0
-700,-510,0,0,0,0,0,0,0,0,0,-1,524,1534,0,0
-693,-510,0,0,0,0,0,0,0,0,0,-1,531,1534,0,0
-686,-510,0,0,0,0,0,0,0,0,0,-1,538,1534,0,0
-679,-510,0,0,0,0,0,0,0,0,0,-1,545,1534,0,0
-672,-510,0,0,0,0,0,0,0,0,0,-1,552,1534,0,0
-665,-510,0,0,0,0,0,0,0,0,0,-1,559,1534,0,0
-658,-510,0,0,0,0,0,0,0,0,0,-1,566,1534,0,0
-651,-510,0,0,0,0,0,0,0,0,0,-1,573,1534,0,0
-644,-510,0,0,0,0,0,0,0,0,0,-1,580,1534,0,0
-637,-510,0,0,0,0,0,0,0,0,0,-1,587,1534,0,0
-630,-510,0,0,0,0,0,0,0,0,0,-1,594,1534,0,0
-623,-510,0,0,0,0,0,0,0,0,0,-1,601,1534,0,0
-616,-510,0,0,0,0,0,0,0,0,0,-1,608,1534,0,0
-609,-510,0,0,0,0,0,0,0,0,0,-1,615,1534,0,0
-602,-510,0,0,0,0,0,0,0,0,0,-1,622,1534,0,0
-595,-510,0,0,0,0,0,0,0,0,0,-1,629,1534,0,0
-588,-510,0,0,0,0,0,0,0,0,0,-1,636,1534,0,0
-581,-510,0,0,0,0,0,0,0,0,0,-1,643,1534,0,0
-574,-510,0,0,0,0,0,0,0,0,0,-1,650,1534,0,0
-567,-510,0,0,0,0,0,0,0,0,0,-1,657,1534,0,0
-560,-510,0,0,0,0,0,0,0,0,0,-1,664,1534,0,0
-553,-510,0,0,0,0,0,0,0,0,0,-1,671,1534,0,0
-546,-510,0,0,0,0,0,0,0,0,0,-1,678,1534,0,0
-539,-510,0,0,0,0,0,0,0,0,0,-1,685,1534,0,0
-532,-510,-0.375854,1.37622,0.0144363,0.0555563,0.0443912,0.0839176,-0.0139251,1.00227,0.0611178,0.0441798,692,1534,-0.375855,-1.37624
-525,-510,-0.732483,1.91614,0.00524168,0.0412071,0.0425766,0.0694428,-0.0229941,0.985215,0.055569,0.0490598,699,1534,-0.732493,-1.91611
-518,-510,-0.775635,2.87402,-0.000186087,0.0297535,0.0381597,0.0557746,-0.0262072,0.972321,0.0483475,0.0459552,706,1534,-0.775643,-2.87407
-511,-510,-0.402466,3.70068,-0.0031409,0.0209144,0.0326788,0.0437087,-0.0259352,0.961733,0.040643,0.0466582,713,1534,-0.402458,-3.70066
-504,-510,-0.418335,4.19751,-0.00449953,0.0142629,0.026764,0.0332423,-0.0234789,0.953965,0.0329093,0.0466668,720,1534,-0.418356,-4.19745
-497,-510,1.18359,2.55237,0,0,0,0,0,0,0,-1,727,1534,1.1836,-2.55231
-490,-510,1.03607,2.94299,-0.00525255,0.0057672,0.0155449,0.0167498,-0.0162352,0.955715,0.0190447,0.0457331,734,1534,1.03607,-2.943
-483,-510,0.743347,2.99341,-0.005011,0.00202338,0.0110902,0.0101407,-0.0131284,0.938953,0.0134713,0.0419099,741,1534,0.743377,-2.99337
-476,-510,0.600769,3.13342,-0.00485124,-0.00110501,0.00758901,0.00483864,-0.0107949,0.90639,0.0092418,0.0241551,748,1534,0.600785,-3.13338
-469,-510,0.51947,3.28931,-0.00519954,-0.00150436,0.00465921,0.00166022,-0.00836411,0.974161,0.00620398,0.0093343,755,1534,0.519489,-3.28928
-462,-510,0.512207,3.42578,-0.00437448,-0.00147742,0.00198854,-0.000465761,-0.00538614,1.10018,0.00344601,0.0101474,762,1534,0.5122,-3.42574
-455,-510,0.514709,3.55969,-0.00260379,-0.00149516,-0.000258121,-0.00143801,-0.00266094,-1.3529,0.00153796,0.0118115,769,1534,0.51472,-3.55965
-448,-510,0.525757,3.68982,-0.00106503,-0.00162954,-0.00107545,-0.000235406,-0.00245916,-0.657067,0.00156687,0.0115053,776,1534,0.525729,-3.68981
-441,-510,0.517822,3.80127,2.24309e-05,-0.00208004,-0.000663099,0.000214094,-0.00227171,-0.281372,0.00159065,0.0129513,783,1534,0.517814,-3.80126
-434,-510,0.498718,3.91089,0.00099512,-0.00304253,-0.000185666,0.00100364,-0.00305104,-0.0458548,0.00243843,0.0143031,790,1534,0.498735,-3.91084
-427,-510,0.488708,4.02271,0.00161478,-0.00411998,7.19281e-05,0.00161568,-0.00412088,0.0125398,0.00341566,0.0212286,797,1534,0.488684,-4.02268
-420,-510,0.504822,4.14917,0.00183396,-0.00538881,0.000357965,0.00185165,-0.00540651,0.0493993,0.00435482,0.0221576,804,1534,0.50481,-4.14916
-413,-510,0.503906,4.29236,0.00190436,-0.00700798,0.000666643,0.00195395,-0.00705757,0.0742493,0.00547387,0.0113349,811,1534,0.503879,-4.29231
-406,-510,0.506714,4.41211,0.00152582,-0.00896293,0.00101634,0.00162339,-0.00906051,0.0957121,0.00664787,0.00999671,818,1534,0.506715,-4.41215
-399,-510,0.518372,4.53699,0.000906366,-0.0108978,0.00166505,0.00113674,-0.0111282,0.137483,0.00782525,0.0108277,825,1534,0.518392,-4.53693
-392,-510,0.549988,4.71814,5.96066e-06,-0.0122536,0.00262616,0.000544831,-0.0127925,0.202384,0.00871561,0.0157887,832,1534,0.549978,-4.7181
-385,-510,0.529419,4.81238,-0.00104432,-0.0119757,0.0041816,0.000371825,-0.0133918,0.326537,0.00905435,0.0241389,839,1534,0.529429,-4.81239
-378,-510,0.455933,4.76453,-0.00112265,-0.00990043,0.00514582,0.00125173,-0.0122748,0.432309,0.00863076,0.0325345,846,1534,0.455908,-4.76457
-371,-510,0.16864,5.07336,-0.000796316,-0.00560173,0.00599134,0.00325615,-0.00965419,0.594701,0.00775289,0.0424505,853,1534,0.168615,-5.07335
-364,-510,-0.0740967,5.34949,0,0,0,0,0,0,0,-1,860,1534,-0.0741095,-5.34943
-357,-510,0.182251,5.01709,0,0,0,0,0,0,0,-1,867,1534,0.182227,-5.01715
-350,-510,0.432922,3.86731,0,0,0,0,0,0,0,-1,874,1534,0.432937,-3.86733
-343,-510,-2.64429,6.24609,0,0,0,0,0,0,0,-1,881,1534,-2.64429,-6.24604
-336,-510,-2.29181,7.53674,0,0,0,0,0,0,0,-1,888,1534,-2.29181,-7.5367
-329,-510,-1.50336,9.1554,0,0,0,0,0,0,0,-1,895,1534,-1.50335,-9.15534
-322,-510,-0.815796,10.1642,0,0,0,0,0,0,0,-1,902,1534,-0.815804,-10.1642
-315,-510,0.0783691,10.9597,0,0,0,0,0,0,0,-1,909,1534,0.0783599,-10.9597
-308,-510,7.2215,6.85254,0,0,0,0,0,0,0,-1,916,1534,7.2215,-6.85248
-301,-510,8.52374,7.0282,0,0,0,0,0,0,0,-1,923,1534,8.52374,-7.02824
-294,-510,0,0,0,0,0,0,0,0,0,-1,930,1534,0,0
-287,-510,0,0,0,0,0,0,0,0,0,-1,937,1534,0,0
-280,-510,0,0,0,0,0,0,0,0,0,-1,944,1534,0,0
-273,-510,0,0,0,0,0,0,0,0,0,-1,951,1534,0,0
-266,-510,0,0,0,0,0,0,0,0,0,-1,958,1534,0,0
-259,-510,0,0,0,0,0,0,0,0,0,-1,965,1534,0,0
-252,-510,0,0,0,0,0,0,0,0,0,-1,972,1534,0,0
-245,-510,0,0,0,0,0,0,0,0,0,-1,979,1534,0,0
-238,-510,0,0,0,0,0,0,0,0,0,-1,986,1534,0,0
-231,-510,0,0,0,0,0,0,0,0,0,-1,993,1534,0,0
-224,-510,0,0,0,0,0,0,0,0,0,-1,1000,1534,0,0
-217,-510,0,0,0,0,0,0,0,0,0,-1,1007,1534,0,0
-210,-510,0,0,0,0,0,0,0,0,0,-1,1014,1534,0,0
-203,-510,0,0,0,0,0,0,0,0,0,-1,1021,1534,0,0
-196,-510,0,0,0,0,0,0,0,0,0,-1,1028,1534,0,0
-189,-510,0,0,0,0,0,0,0,0,0,-1,1035,1534,0,0
-182,-510,0,0,0,0,0,0,0,0,0,-1,1042,1534,0,0
-175,-510,0,0,0,0,0,0,0,0,0,-1,1049,1534,0,0
-168,-510,0,0,0,0,0,0,0,0,0,-1,1056,1534,0,0
-161,-510,0,0,0,0,0,0,0,0,0,-1,1063,1534,0,0
-154,-510,0,0,0,0,0,0,0,0,0,-1,1070,1534,0,0
-147,-510,0,0,0,0,0,0,0,0,0,-1,1077,1534,0,0
-140,-510,0,0,0,0,0,0,0,0,0,-1,1084,1534,0,0
-133,-510,0,0,0,0,0,0,0,0,0,-1,1091,1534,0,0
-126,-510,0,0,0,0,0,0,0,0,0,-1,1098,1534,0,0
-119,-510,0,0,0,0,0,0,0,0,0,-1,1105,1534,0,0
-112,-510,0,0,0,0,0,0,0,0,0,-1,1112,1534,0,0
-105,-510,0,0,0,0,0,0,0,0,0,-1,1119,1534,0,0
-98,-510,0,0,0,0,0,0,0,0,0,-1,1126,1534,0,0
-91,-510,0,0,0,0,0,0,0,0,0,-1,1133,1534,0,0
-84,-510,0,0,0,0,0,0,0,0,0,-1,1140,1534,0,0
-77,-510,0,0,0,0,0,0,0,0,0,-1,1147,1534,0,0
-70,-510,0,0,0,0,0,0,0,0,0,-1,1154,1534,0,0
-63,-510,0,0,0,0,0,0,0,0,0,-1,1161,1534,0,0
-56,-510,0,0,0,0,0,0,0,0,0,-1,1168,1534,0,0
-49,-510,0,0,0,0,0,0,0,0,0,-1,1175,1534,0,0
-42,-510,0,0,0,0,0,0,0,0,0,-1,1182,1534,0,0
-35,-510,0,0,0,0,0,0,0,0,0,-1,1189,1534,0,0
-28,-510,0,0,0,0,0,0,0,0,0,-1,1196,1534,0,0
-21,-510,0,0,0,0,0,0,0,0,0,-1,1203,1534,0,0
-14,-510,0,0,0,0,0,0,0,0,0,-1,1210,1534,0,0
-7,-510,0,0,0,0,0,0,0,0,0,-1,1217,1534,0,0
0,-510,0,0,0,0,0,0,0,0,0,-1,1224,1534,0,0
7,-510,0,0,0,0,0,0,0,0,0,-1,1231,1534,0,0
14,-510,0,0,0,0,0,0,0,0,0,-1,1238,1534,0,0
21,-510,0,0,0,0,0,0,0,0,0,-1,1245,1534,0,0
28,-510,0,0,0,0,0,0,0,0,0,-1,1252,1534,0,0
35,-510,0,0,0,0,0,0,0,0,0,-1,1259,1534,0,0
42,-510,0,0,0,0,0,0,0,0,0,-1,1266,1534,0,0
49,-510,0,0,0,0,0,0,0,0,0,-1,1273,1534,0,0
56,-510,0,0,0,0,0,0,0,0,0,-1,1280,1534,0,0
63,-510,0,0,0,0,0,0,0,0,0,-1,1287,1534,0,0
70,-510,0,0,0,0,0,0,0,0,0,-1,1294,1534,0,0
77,-510,0,0,0,0,0,0,0,0,0,-1,1301,1534,0,0
84,-510,0,0,0,0,0,0,0,0,0,-1,1308,1534,0,0
91,-510,0,0,0,0,0,0,0,0,0,-1,1315,1534,0,0
98,-510,0,0,0,0,0,0,0,0,0,-1,1322,1534,0,0
105,-510,0,0,0,0,0,0,0,0,0,-1,1329,1534,0,0
112,-510,0,0,0,0,0,0,0,0,0,-1,1336,1534,0,0
119,-510,0,0,0,0,0,0,0,0,0,-1,1343,1534,0,0
126,-510,0,0,0,0,0,0,0,0,0,-1,1350,1534,0,0
133,-510,0,0,0,0,0,0,0,0,0,-1,1357,1534,0,0
140,-510,0,0,0,0,0,0,0,0,0,-1,1364,1534,0,0
147,-510,0,0,0,0,0,0,0,0,0,-1,1371,1534,0,0
154,-510,0,0,0,0,0,0,0,0,0,-1,1378,1534,0,0
161,-510,0,0,0,0,0,0,0,0,0,-1,1385,1534,0,0
168,-510,0,0,0,0,0,0,0,0,0,-1,1392,1534,0,0
175,-510,0,0,0,0,0,0,0,0,0,-1,1399,1534,0,0
182,-510,0,0,0,0,0,0,0,0,0,-1,1406,1534,0,0
189,-510,0,0,0,0,0,0,0,0,0,-1,1413,1534,0,0
196,-510,0,0,0,0,0,0,0,0,0,-1,1420,1534,0,0
203,-510,0,0,0,0,0,0,0,0,0,-1,1427,1534,0,0
210,-510,0,0,0,0,0,0,0,0,0,-1,1434,1534,0,0
217,-510,0,0,0,0,0,0,0,0,0,-1,1441,1534,0,0
224,-510,0,0,0,0,0,0,0,0,0,-1,1448,1534,0,0
231,-510,0,0,0,0,0,0,0,0,0,-1,1455,1534,0,0
238,-510,0,0,0,0,0,0,0,0,0,-1,1462,1534,0,0
245,-510,0,0,0,0,0,0,0,0,0,-1,1469,1534,0,0
252,-510,0,0,0,0,0,0,0,0,0,-1,1476,1534,0,0
259,-510,0,0,0,0,0,0,0,0,0,-1,1483,1534,0,0
266,-510,0,0,0,0,0,0,0,0,0,-1,1490,1534,0,0
273,-510,0,0,0,0,0,0,0,0,0,-1,1497,1534,0,0
280,-510,0,0,0,0,0,0,0,0,0,-1,1504,1534,0,0
287,-510,0,0,0,0,0,0,0,0,0,-1,1511,1534,0,0
294,-510,0,0,0,0,0,0,0,0,0,-1,1518,1534,0,0
301,-510,0,0,0,0,0,0,0,0,0,-1,1525,1534,0,0
308,-510,0,0,0,0,0,0,0,0,0,-1,1532,1534,0,0
315,-510,0,0,0,0,0,0,0,0,0,-1,1539,1534,0,0
322,-510,0,0,0,0,0,0,0,0,0,-1,1546,1534,0,0
329,-510,0,0,0,0,0,0,0,0,0,-1,1553,1534,0,0
336,-510,0,0,0,0,0,0,0,0,0,-1,1560,1534,0,0
343,-510,0,0,0,0,0,0,0,0,0,-1,1567,1534,0,0
350,-510,0,0,0,0,0,0,0,0,0,-1,1574,1534,0,0
357,-510,0,0,0,0,0,0,0,0,0,-1,1581,1534,0,0
364,-510,0,0,0,0,0,0,0,0,0,-1,1588,1534,0,0
371,-510,0,0,0,0,0,0,0,0,0,-1,1595,1534,0,0
378,-510,0,0,0,0,0,0,0,0,0,-1,1602,1534,0,0
385,-510,0,0,0,0,0,0,0,0,0,-1,1609,1534,0,0
392,-510,0,0,0,0,0,0,0,0,0,-1,1616,1534,0,0
399,-510,0,0,0,0,0,0,0,0,0,-1,1623,1534,0,0
406,-510,0,0,0,0,0,0,0,0,0,-1,1630,1534,0,0
413,-510,0,0,0,0,0,0,0,0,0,-1,1637,1534,0,0
420,-510,7.86963,3.62756,0,0,0,0,0,0,0,-1,1644,1534,7.86959,-3.6275
427,-510,7.94495,3.58032,0,0,0,0,0,0,0,-1,1651,1534,7.94491,-3.58031
434,-510,14.7521,-1.28125,0,0,0,0,0,0,0,-1,1658,1534,14.7521,1.2813
441,-510,13.2164,-0.432251,0,0,0,0,0,0,0,-1,1665,1534,13.2165,0.432205
448,-510,12.1311,0.0625,0,0,0,0,0,0,0,-1,1672,1534,12.1311,-0.0625299
455,-510,10.745,0.222168,0,0,0,0,0,0,0,-1,1679,1534,10.745,-0.222115
462,-510,9.39539,0.371582,0,0,0,0,0,0,0,-1,1686,1534,9.39534,-0.371588
469,-510,7.94263,0.446167,0,0,0,0,0,0,0,-1,1693,1534,7.94262,-0.446169
476,-510,5.08167,2.87537,0,0,0,0,0,0,0,-1,1700,1534,5.08163,-2.87535
483,-510,5.58704,3.8645,0,0,0,0,0,0,0,-1,1707,1534,5.58704,-3.86453
490,-510,6.53906,4.96362,0,0,0,0,0,0,0,-1,1714,1534,6.53903,-4.96362
497,-510,6.24475,5.4093,0.022813,-0.0600404,0.0680109,0.0610208,-0.0982481,0.511849,0.0927875,0.0406892,1721,1534,6.24474,-5.40925
504,-510,6.43872,5.4303,0.01664,-0.0485894,0.0559825,0.0488154,-0.0807648,0.521639,0.0755674,0.0395772,1728,1534,6.43876,-5.43026
511,-510,6.45667,5.48206,0.0113198,-0.0385523,0.044643,0.0375189,-0.0647514,0.5307,0.0597395,0.0339879,1735,1534,6.45671,-5.48201
518,-510,6.28784,5.52979,0.00694667,-0.0298309,0.0344272,0.0275884,-0.0504726,0.540107,0.0457095,0.0268803,1742,1534,6.2879,-5.52981
525,-510,6.18982,5.4386,0.00391034,-0.0224993,0.0257479,0.019642,-0.038231,0.548461,0.0339827,0.0148886,1749,1534,6.18987,-5.43858
532,-510,6.19128,5.31836,0.00196188,-0.0166701,0.0185111,0.0133691,-0.0280773,0.55227,0.0244262,0.0116987,1756,1534,6.19124,-5.31842
539,-510,6.18262,5.20386,0.000759585,-0.0119478,0.0127857,0.00868328,-0.0198715,0.554802,0.0169026,0.013047,1763,1534,6.18259,-5.20392
546,-510,6.16711,5.10217,-0.00107077,-0.00677568,0.00770513,0.00429295,-0.0121394,0.608119,0.00984114,0.0120549,1770,1534,6.16707,-5.10216
553,-510,6.16443,4.99304,-0.00166752,-0.00397539,0.00343149,0.000798862,-0.00644178,0.623199,0.00458407,0.0118752,1777,1534,6.16437,-4.99305
560,-510,6.15881,4.86841,-0.000368847,-0.00262689,0.00133061,0.000247183,-0.00324292,0.433587,0.00224887,0.0123064,1784,1534,6.15886,-4.86836
567,-510,6.16541,4.76868,0.000903749,-0.0013296,-0.000119713,0.000910148,-0.001336,-0.0533983,0.00130456,0.0114949,1791,1534,6.1654,-4.76867
574,-510,6.16223,4.67981,0.00187434,-0.000346222,-0.00117364,0.00237965,-0.00085154,-0.406567,0.00193382,0.0125653,1798,1534,6.16219,-4.67986
581,-510,6.12891,4.57434,0.00255971,0.00037824,-0.00199139,0.00373951,-0.000801562,-0.534851,0.00279872,0.0121007,1805,1534,6.12896,-4.57434
588,-510,6.13611,4.45789,0.00317197,0.000950927,-0.00281343,0.00508613,-0.000963225,-0.597424,0.00375325,0.0128682,1812,1534,6.13607,-4.45783
595,-510,6.18457,4.3075,0.00399648,0.00127286,-0.00354392,0.00643124,-0.0011619,-0.601963,0.00472267,0.0114197,1819,1534,6.18451,-4.30745
602,-510,6.19055,4.17615,0.00505182,0.00156368,-0.0042846,0.00793372,-0.00131822,-0.592112,0.00577889,0.0159182,1826,1534,6.19049,-4.1762
609,-510,6.19214,4.12231,0.00604313,0.00176126,-0.00491481,0.00926307,-0.00145868,-0.579987,0.00671463,0.0237906,1833,1534,6.19216,-4.12235
616,-510,6.26355,4.10046,0.00678785,0.00177963,-0.00544041,0.0102728,-0.0017053,-0.569713,0.00748201,0.0343088,1840,1534,6.26354,-4.10045
623,-510,6.36023,4.00073,0.00740349,0.0014373,-0.00570729,0.0108603,-0.00201948,-0.544584,0.00799877,0.0411818,1847,1534,6.36018,-4.00071
630,-510,6.1731,3.89453,0,0,0,0,0,0,0,-1,1854,1534,6.17305,-3.89453
637,-510,6.30518,3.01831,0,0,0,0,0,0,0,-1,1861,1534,6.30514,-3.0183
644,-510,6.72595,3.32324,0,0,0,0,0,0,0,-1,1868,1534,6.72598,-3.32326
651,-510,6.6571,3.75806,0,0,0,0,0,0,0,-1,1875,1534,6.65716,-3.75809
658,-510,0,0,0,0,0,0,0,0,0,-1,1882,1534,0,0
665,-510,0,0,0,0,0,0,0,0,0,-1,1889,1534,0,0
672,-510,0,0,0,0,0,0,0,0,0,-1,1896,1534,0,0
679,-510,0,0,0,0,0,0,0,0,0,-1,1903,1534,0,0
686,-510,0,0,0,0,0,0,0,0,0,-1,1910,1534,0,0
693,-510,0,0,0,0,0,0,0,0,0,-1,1917,1534,0,0
700,-510,0,0,0,0,0,0,0,0,0,-1,1924,1534,0,0
707,-510,0,0,0,0,0,0,0,0,0,-1,1931,1534,0,0
714,-510,0,0,0,0,0,0,0,0,0,-1,1938,1534,0,0
721,-510,0,0,0,0,0,0,0,0,0,-1,1945,1534,0,0
728,-510,0,0,0,0,0,0,0,0,0,-1,1952,1534,0,0
735,-510,0,0,0,0,0,0,0,0,0,-1,1959,1534,0,0
742,-510,0,0,0,0,0,0,0,0,0,-1,1966,1534,0,0
749,-510,0,0,0,0,0,0,0,0,0,-1,1973,1534,0,0
756,-510,0,0,0,0,0,0,0,0,0,-1,1980,1534,0,0
763,-510,0,0,0,0,0,0,0,0,0,-1,1987,1534,0,0
770,-510,0,0,0,0,0,0,0,0,0,-1,1994,1534,0,0
777,-510,0,0,0,0,0,0,0,0,0,-1,2001,1534,0,0
784,-510,0,0,0,0,0,0,0,0,0,-1,2008,1534,0,0
791,-510,0,0,0,0,0,0,0,0,0,-1,2015,1534,0,0
798,-510,0,0,0,0,0,0,0,0,0,-1,2022,1534,0,0
805,-510,0,0,0,0,0,0,0,0,0,-1,2029,1534,0,0
812,-510,0,0,0,0,0,0,0,0,0,-1,2036,1534,0,0
-700,-517,0,0,0,0,0,0,0,0,0,-1,524,1541,0,0
-693,-517,0,0,0,0,0,0,0,0,0,-1,531,1541,0,0
-686,-517,0,0,0,0,0,0,0,0,0,-1,538,1541,0,0
-679,-517,0,0,0,0,0,0,0,0,0,-1,545,1541,0,0
-672,-517,0,0,0,0,0,0,0,0,0,-1,552,1541,0,0
-665,-517,0,0,0,0,0,0,0,0,0,-1,559,1541,0,0
-658,-517,0,0,0,0,0,0,0,0,0,-1,566,1541,0,0
-651,-517,0,0,0,0,0,0,0,0,0,-1,573,1541,0,0
-644,-517,0,0,0,0,0,0,0,0,0,-1,580,1541,0,0
-637,-517,0,0,0,0,0,0,0,0,0,-1,587,1541,0,0
-630,-517,0,0,0,0,0,0,0,0,0,-1,594,1541,0,0
-623,-517,0,0,0,0,0,0,0,0,0,-1,601,1541,0,0
-616,-517,0,0,0,0,0,0,0,0,0,-1,608,1541,0,0
-609,-517,0,0,0,0,0,0,0,0,0,-1,615,1541,0,0
-602,-517,0,0,0,0,0,0,0,0,0,-1,622,1541,0,0
-595,-517,0,0,0,0,0,0,0,0,0,-1,629,1541,0,0
-588,-517,0,0,0,0,0,0,0,0,0,-1,636,1541,0,0
-581,-517,0,0,0,0,0,0,0,0,0,-1,643,1541,0,0
-574,-517,0,0,0,0,0,0,0,0,0,-1,650,1541,0,0
-567,-517,0,0,0,0,0,0,0,0,0,-1,657,1541,0,0
-560,-517,0,0,0,0,0,0,0,0,0,-1,664,1541,0,0
-553,-517,0,0,0,0,0,0,0,0,0,-1,671,1541,0,0
-546,-517,0,0,0,0,0,0,0,0,0,-1,678,1541,0,0
-539,-517,0,0,0,0,0,0,0,0,0,-1,685,1541,0,0
-532,-517,0,0,0,0,0,0,0,0,0,-1,692,1541,0,0
-525,-517,-1.30493,1.44531,0,0,0,0,0,0,0,-1,699,1541,-1.30496,-1.44532
-518,-517,-0.432373,2.8363,-0.0156731,0.0365857,0.0497752,0.066673,-0.0457604,1.0271,0.0652867,0.0464435,706,1541,-0.432366,-2.83635
-511,-517,-0.538147,3.54797,-0.014906,0.0260434,0.0419994,0.052293,-0.0411555,1.0122,0.0540801,0.0490614,713,1541,-0.538152,-3.548
-504,-517,-0.640076,4.17297,-0.0131215,0.0180836,0.0340187,0.0399071,-0.034945,1.00041,0.0432475,0.0471975,720,1541,-0.640051,-4.17294
-497,-517,-0.963501,4.74622,0,0,0,0,0,0,0,-1,727,1541,-0.96353,-4.74623
-490,-517,1.55402,2.93103,0,0,0,0,0,0,0,-1,734,1541,1.55404,-2.93106
-483,-517,0.911072,3.03796,-0.00755237,0.00331377,0.0139154,0.0128191,-0.0170577,0.971515,0.0173072,0.0455902,741,1541,0.911086,-3.03799
-476,-517,0.758179,3.17761,-0.00666167,-0.000529483,0.00957276,0.00645623,-0.0136474,0.940383,0.0118518,0.0315584,748,1541,0.758158,-3.17766
-469,-517,0.672302,3.28564,-0.00650493,-0.00112129,0.00586971,0.0026444,-0.0102706,1.00039,0.0078779,0.0120466,755,1541,0.672317,-3.2856
-462,-517,0.637024,3.40613,-0.00530658,-0.00123126,0.00271646,0.000126846,-0.00666469,1.10719,0.004486,0.0124762,762,1541,0.637015,-3.40615
-455,-517,0.649109,3.55103,-0.00349323,-0.00140184,0.000173439,-0.00138755,-0.00350751,1.48861,0.00203973,0.0123394,769,1541,0.649132,-3.55106
-448,-517,0.646179,3.6908,-0.00195434,-0.00135944,-0.000838658,-0.000767047,-0.00254674,-0.955815,0.00150861,0.0124712,776,1541,0.646193,-3.69081
-441,-517,0.64093,3.81555,-0.000898258,-0.00143154,-0.000430683,-0.000658356,-0.00167144,-0.508223,0.000972223,0.0117357,783,1541,0.640925,-3.81556
-434,-517,0.663269,3.93152,5.8879e-05,-0.00209658,2.10748e-05,5.90852e-05,-0.00209678,0.00977618,0.00141796,0.0142421,790,1541,0.663264,-3.93148
-427,-517,0.649414,4.04956,0.000681977,-0.00288781,0.000238098,0.000697788,-0.00290362,0.0663068,0.00220545,0.0134859,797,1541,0.649425,-4.0495
-420,-517,0.616028,4.20483,0.000933139,-0.00382185,0.000452477,0.000975813,-0.00386452,0.0940338,0.00295581,0.0214893,804,1541,0.616032,-4.2048
-413,-517,0.619507,4.29761,0.00101451,-0.00495141,0.000660089,0.00108667,-0.00502357,0.108889,0.00376393,0.0110868,811,1541,0.619489,-4.29766
-406,-517,0.624023,4.41406,0.000687052,-0.00638347,0.000852868,0.000788472,-0.00648489,0.118362,0.00460862,0.0105745,818,1541,0.624007,-4.41406
-399,-517,0.642822,4.54822,0.000211174,-0.00776949,0.00129657,0.000416534,-0.00797485,0.157083,0.00546071,0.0106382,825,1541,0.64281,-4.54826
-392,-517,0.638977,4.67188,-0.000392593,-0.0085552,0.00197759,6.12889e-05,-0.00900909,0.225605,0.00602659,0.0110928,832,1541,0.638962,-4.67187
-385,-517,0.66394,4.85876,-0.00105066,-0.00780461,0.00317492,0.000207454,-0.00906272,0.377284,0.00611214,0.0144983,839,1541,0.663919,-4.85872
-378,-517,0.630249,4.89319,-0.000925209,-0.00573762,0.00386677,0.0012229,-0.00788572,0.507079,0.00570861,0.0247824,846,1541,0.630261,-4.89315
-371,-517,0.416016,4.94238,0,0,0,0,0,0,0,-1,853,1541,0.416026,-4.94236
-364,-517,0.342041,4.8407,0,0,0,0,0,0,0,-1,860,1541,0.342034,-4.84068
-357,-517,0.247681,5.05334,0,0,0,0,0,0,0,-1,867,1541,0.247682,-5.0534
-350,-517,0.823914,4.28491,0,0,0,0,0,0,0,-1,874,1541,0.82391,-4.28488
-343,-517,-1.44324,6.1615,0,0,0,0,0,0,0,-1,881,1541,-1.44322,-6.16149
-336,-517,-0.984863,7.41003,0,0,0,0,0,0,0,-1,888,1541,-0.98489,-7.41001
-329,-517,-0.215942,8.40808,0.0368183,0.0872296,-0.000877251,0.0872449,0.036803,-1.5534,0.0505756,0.0472202,895,1541,-0.215938,-8.40802
-322,-517,0.457642,9.36902,0,0,0,0,0,0,0,-1,902,1541,0.457636,-9.36908
-315,-517,1.36975,10.1527,0,0,0,0,0,0,0,-1,909,1541,1.36976,-10.1527
-308,-517,1.96375,11.1676,0,0,0,0,0,0,0,-1,916,1541,1.96372,-11.1676
-301,-517,6.32941,6.12732,0,0,0,0,0,0,0,-1,923,1541,6.3294,-6.12727
-294,-517,8.435,6.60754,0,0,0,0,0,0,0,-1,930,1541,8.43502,-6.60754
-287,-517,-1.83276,7.73596,0,0,0,0,0,0,0,-1,937,1541,-1.83279,-7.73598
-280,-517,0,0,0,0,0,0,0,0,0,-1,944,1541,0,0
-273,-517,0,0,0,0,0,0,0,0,0,-1,951,1541,0,0
-266,-517,0,0,0,0,0,0,0,0,0,-1,958,1541,0,0
-259,-517,0,0,0,0,0,0,0,0,0,-1,965,1541,0,0
-252,-517,0,0,0,0,0,0,0,0,0,-1,972,1541,0,0
-245,-517,0,0,0,0,0,0,0,0,0,-1,979,1541,0,0
-238,-517,0,0,0,0,0,0,0,0,0,-1,986,1541,0,0
-231,-517,0,0,0,0,0,0,0,0,0,-1,993,1541,0,0
-224,-517,0,0,0,0,0,0,0,0,0,-1,1000,1541,0,0
-217,-517,0,0,0,0,0,0,0,0,0,-1,1007,1541,0,0
-210,-517,0,0,0,0,0,0,0,0,0,-1,1014,1541,0,0
-203,-517,0,0,0,0,0,0,0,0,0,-1,1021,1541,0,0
-196,-517,0,0,0,0,0,0,0,0,0,-1,1028,1541,0,0
-189,-517,0,0,0,0,0,0,0,0,0,-1,1035,1541,0,0
-182,-517,0,0,0,0,0,0,0,0,0,-1,1042,1541,0,0
-175,-517,0,0,0,0,0,0,0,0,0,-1,1049,1541,0,0
-168,-517,0,0,0,0,0,0,0,0,0,-1,1056,1541,0,0
-161,-517,0,0,0,0,0,0,0,0,0,-1,1063,1541,0,0
-154,-517,0,0,0,0,0,0,0,0,0,-1,1070,1541,0,0
-147,-517,0,0,0,0,0,0,0,0,0,-1,1077,1541,0,0
-140,-517,0,0,0,0,0,0,0,0,0,-1,1084,1541,0,0
-133,-517,0,0,0,0,0,0,0,0,0,-1,1091,1541,0,0
-126,-517,0,0,0,0,0,0,0,0,0,-1,1098,1541,0,0
-119,-517,0,0,0,0,0,0,0,0,0,-1,1105,1541,0,0
-112,-517,0,0,0,0,0,0,0,0,0,-1,1112,1541,0,0
-105,-517,0,0,0,0,0,0,0,0,0,-1,1119,1541,0,0
-98,-517,0,0,0,0,0,0,0,0,0,-1,1126,1541,0,0
-91,-517,0,0,0,0,0,0,0,0,0,-1,1133,1541,0,0
-84,-517,0,0,0,0,0,0,0,0,0,-1,1140,1541,0,0
-77,-517,0,0,0,0,0,0,0,0,0,-1,1147,1541,0,0
-70,-517,0,0,0,0,0,0,0,0,0,-1,1154,1541,0,0
-63,-517,0,0,0,0,0,0,0,0,0,-1,1161,1541,0,0
-56,-517,0,0,0,0,0,0,0,0,0,-1,1168,1541,0,0
-49,-517,0,0,0,0,0,0,0,0,0,-1,1175,1541,0,0
-42,-517,0,0,0,0,0,0,0,0,0,-1,1182,1541,0,0
-35,-517,0,0,0,0,0,0,0,0,0,-1,1189,1541,0,0
-28,-517,0,0,0,0,0,0,0,0,0,-1,1196,1541,0,0
-21,-517,0,0,0,0,0,0,0,0,0,-1,1203,1541,0,0
-14,-517,0,0,0,0,0,0,0,0,0,-1,1210,1541,0,0
-7,-517,0,0,0,0,0,0,0,0,0,-1,1217,1541,0,0
0,-517,0,0,0,0,0,0,0,0,0,-1,1224,1541,0,0
7,-517,0,0,0,0,0,0,0,0,0,-1,1231,1541,0,0
14,-517,0,0,0,0,0,0,0,0,0,-1,1238,1541,0,0
21,-517,0,0,0,0,0,0,0,0,0,-1,1245,1541,0,0
28,-517,0,0,0,0,0,0,0,0,0,-1,1252,1541,0,0
35,-517,0,0,0,0,0,0,0,0,0,-1,1259,1541,0,0
42,-517,0,0,0,0,0,0,0,0,0,-1,1266,1541,0,0
49,-517,0,0,0,0,0,0,0,0,0,-1,1273,1541,0,0
56,-517,0,0,0,0,0,0,0,0,0,-1,1280,1541,0,0
63,-517,0,0,0,0,0,0,0,0,0,-1,1287,1541,0,0
70,-517,0,0,0,0,0,0,0,0,0,-1,1294,1541,0,0
77,-517,0,0,0,0,0,0,0,0,0,-1,1301,1541,0,0
84,-517,0,0,0,0,0,0,0,0,0,-1,1308,1541,0,0
91,-517,0,0,0,0,0,0,0,0,0,-1,1315,1541,0,0
98,-517,0,0,0,0,0,0,0,0,0,-1,1322,1541,0,0
105,-517,0,0,0,0,0,0,0,0,0,-1,1329,1541,0,0
112,-517,0,0,0,0,0,0,0,0,0,-1,1336,1541,0,0
119,-517,0,0,0,0,0,0,0,0,0,-1,1343,1541,0,0
126,-517,0,0,0,0,0,0,0,0,0,-1,1350,1541,0,0
133,-517,0,0,0,0,0,0,0,0,0,-1,1357,1541,0,0
140,-517,0,0,0,0,0,0,0,0,0,-1,1364,1541,0,0
147,-517,0,0,0,0,0,0,0,0,0,-1,1371,1541,0,0
154,-517,0,0,0,0,0,0,0,0,0,-1,1378,1541,0,0
161,-517,0,0,0,0,0,0,0,0,0,-1,1385,1541,0,0
168,-517,0,0,0,0,0,0,0,0,0,-1,1392,1541,0,0
175,-517,0,0,0,0,0,0,0,0,0,-1,1399,1541,0,0
182,-517,0,0,0,0,0,0,0,0,0,-1,1406,1541,0,0
189,-517,0,0,0,0,0,0,0,0,0,-1,1413,1541,0,0
196,-517,0,0,0,0,0,0,0,0,0,-1,1420,1541,0,0
203,-517,0,0,0,0,0,0,0,0,0,-1,1427,1541,0,0
210,-517,0,0,0,0,0,0,0,0,0,-1,1434,1541,0,0
217,-517,0,0,0,0,0,0,0,0,0,-1,1441,1541,0,0
224,-517,0,0,0,0,0,0,0,0,0,-1,1448,1541,0,0
231,-517,0,0,0,0,0,0,0,0,0,-1,1455,1541,0,0
238,-517,0,0,0,0,0,0,0,0,0,-1,1462,1541,0,0
245,-517,0,0,0,0,0,0,0,0,0,-1,1469,1541,0,0
252,-517,0,0,0,0,0,0,0,0,0,-1,1476,1541,0,0
259,-517,0,0,0,0,0,0,0,0,0,-1,1483,1541,0,0
266,-517,0,0,0,0,0,0,0,0,0,-1,1490,1541,0,0
273,-517,0,0,0,0,0,0,0,0,0,-1,1497,1541,0,0
280,-517,0,0,0,0,0,0,0,0,0,-1,1504,1541,0,0
287,-517,0,0,0,0,0,0,0,0,0,-1,1511,1541,0,0
294,-517,0,0,0,0,0,0,0,0,0,-1,1518,1541,0,0
301,-517,0,0,0,0,0,0,0,0,0,-1,1525,1541,0,0
308,-517,0,0,0,0,0,0,0,0,0,-1,1532,1541,0,0
315,-517,0,0,0,0,0,0,0,0,0,-1,1539,1541,0,0
322,-517,0,0,0,0,0,0,0,0,0,-1,1546,1541,0,0
329,-517,0,0,0,0,0,0,0,0,0,-1,1553,1541,0,0
336,-517,0,0,0,0,0,0,0,0,0,-1,1560,1541,0,0
343,-517,0,0,0,0,0,0,0,0,0,-1,1567,1541,0,0
350,-517,0,0,0,0,0,0,0,0,0,-1,1574,1541,0,0
357,-517,0,0,0,0,0,0,0,0,0,-1,1581,1541,0,0
364,-517,0,0,0,0,0,0,0,0,0,-1,1588,1541,0,0
371,-517,0,0,0,0,0,0,0,0,0,-1,1595,1541,0,0
378,-517,0,0,0,0,0,0,0,0,0,-1,1602,1541,0,0
385,-517,0,0,0,0,0,0,0,0,0,-1,1609,1541,0,0
392,-517,0,0,0,0,0,0,0,0,0,-1,1616,1541,0,0
399,-517,0,0,0,0,0,0,0,0,0,-1,1623,1541,0,0
406,-517,7.24731,4.40625,0,0,0,0,0,0,0,-1,1630,1541,7.24728,-4.40621
413,-517,7.36206,4.12061,0,0,0,0,0,0,0,-1,1637,1541,7.3621,-4.12055
420,-517,7.4176,4.01514,0,0,0,0,0,0,0,-1,1644,1541,7.41765,-4.01512
427,-517,15.6979,-0.94873,0,0,0,0,0,0,0,-1,1651,1541,15.6979,0.948786
434,-517,5.17554,4.23877,0,0,0,0,0,0,0,-1,1658,1541,5.17552,-4.23873
441,-517,13.127,-0.0456543,0,0,0,0,0,0,0,-1,1665,1541,13.1269,0.0456369
448,-517,11.6797,0.612305,0,0,0,0,0,0,0,-1,1672,1541,11.6797,-0.61225
455,-517,7.46655,4.13293,0,0,0,0,0,0,0,-1,1679,1541,7.46658,-4.13296
462,-517,9.10547,1.28796,0,0,0,0,0,0,0,-1,1686,1541,9.10543,-1.28791
469,-517,9.12231,3.77515,0,0,0,0,0,0,0,-1,1693,1541,9.12226,-3.77515
476,-517,8.7876,4.36475,0,0,0,0,0,0,0,-1,1700,1541,8.78763,-4.36471
483,-517,6.43701,5.2616,0,0,0,0,0,0,0,-1,1707,1541,6.43699,-5.26157
490,-517,6.38855,5.41736,0,0,0,0,0,0,0,-1,1714,1541,6.38851,-5.41733
497,-517,6.34009,5.57312,0,0,0,0,0,0,0,-1,1721,1541,6.34003,-5.57308
504,-517,6.12207,5.55957,0.0138072,-0.0381681,0.0439858,0.0389087,-0.0632697,0.518577,0.059549,0.0337264,1728,1541,6.12213,-5.55962
511,-517,6.07605,5.63269,0.00959084,-0.0299022,0.0348151,0.0298695,-0.0501809,0.527429,0.0467104,0.0261565,1735,1541,6.07602,-5.63268
518,-517,6.06421,5.56665,0.00597531,-0.0227667,0.0265485,0.0217929,-0.0385842,0.537324,0.0353052,0.0178289,1742,1541,6.06427,-5.56664
525,-517,6.04956,5.42322,0.00341236,-0.0167872,0.0195315,0.0153009,-0.0286758,0.54678,0.0257784,0.010398,1749,1541,6.04952,-5.42316
532,-517,6.06787,5.3136,0.00172828,-0.0121966,0.0136787,0.0101145,-0.0205828,0.549987,0.0180634,0.00989443,1756,1541,6.06782,-5.31354
539,-517,6.08777,5.19641,0.000607964,-0.00858332,0.00917166,0.00627094,-0.0142463,0.553146,0.0121403,0.0118795,1763,1541,6.0878,-5.19646
546,-517,6.07642,5.07593,-0.000829047,-0.0045524,0.00516818,0.00280254,-0.00818399,0.612523,0.00659184,0.0122194,1770,1541,6.07641,-5.07597
553,-517,6.05823,4.96167,-0.00120701,-0.00257493,0.00182932,6.20298e-05,-0.00384397,0.6065,0.00258357,0.0148438,1777,1541,6.05826,-4.96164
560,-517,6.05237,4.8656,-3.68408e-05,-0.00151311,0.000129126,-2.56315e-05,-0.00152432,0.0865917,0.00100778,0.0150182,1784,1541,6.05236,-4.86554
567,-517,6.06018,4.77869,0.00113318,-0.000592775,-0.00114034,0.00170027,-0.00115987,-0.461487,0.0016611,0.0118188,1791,1541,6.06017,-4.77871
574,-517,6.06458,4.66919,0.00210789,0.000139965,-0.00218231,0.00351781,-0.00126996,-0.573606,0.00286397,0.0130087,1798,1541,6.06463,-4.66922
581,-517,6.03479,4.55469,0.00294808,0.00071901,-0.00312517,0.00515151,-0.00148442,-0.614113,0.00402153,0.0150852,1805,1541,6.03483,-4.55467
588,-517,6.06567,4.43787,0.00387507,0.00118593,-0.00412173,0.006866,-0.001805,-0.627733,0.00528281,0.0152419,1812,1541,6.06569,-4.43787
595,-517,6.09619,4.31079,0.00507623,0.00157059,-0.0051088,0.00872454,-0.00207772,-0.620142,0.00661855,0.0139958,1819,1541,6.09615,-4.31075
602,-517,6.07104,4.19214,0.00651561,0.00205589,-0.00619278,0.0108678,-0.00229626,-0.612587,0.00811955,0.0198723,1826,1541,6.07106,-4.19213
609,-517,6.19287,4.12817,0.00805718,0.00254586,-0.00722463,0.0130338,-0.00243081,-0.603202,0.00960261,0.0391954,1833,1541,6.1929,-4.12814
616,-517,6.32336,4.15637,0.00959448,0.00293716,-0.00813503,0.0150555,-0.00252387,-0.591202,0.0109755,0.0439925,1840,1541,6.32335,-4.15643
623,-517,6.4812,4.00293,0,0,0,0,0,0,0,-1,1847,1541,6.48117,-4.00288
630,-517,7.45178,2.65198,0,0,0,0,0,0,0,-1,1854,1541,7.45184,-2.65195
637,-517,6.88367,2.85046,0,0,0,0,0,0,0,-1,1861,1541,6.88372,-2.85052
644,-517,7.09839,2.67981,0,0,0,0,0,0,0,-1,1868,1541,7.0984,-2.67979
651,-517,0,0,0,0,0,0,0,0,0,-1,1875,1541,0,0
658,-517,0,0,0,0,0,0,0,0,0,-1,1882,1541,0,0
665,-517,0,0,0,0,0,0,0,0,0,-1,1889,1541,0,0
672,-517,0,0,0,0,0,0,0,0,0,-1,1896,1541,0,0
679,-517,0,0,0,0,0,0,0,0,0,-1,1903,1541,0,0
686,-517,0,0,0,0,0,0,0,0,0,-1,1910,1541,0,0
693,-517,0,0,0,0,0,0,0,0,0,-1,1917,1541,0,0
700,-517,0,0,0,0,0,0,0,0,0,-1,1924,1541,0,0
707,-517,0,0,0,0,0,0,0,0,0,-1,1931,1541,0,0
714,-517,0,0,0,0,0,0,0,0,0,-1,1938,1541,0,0
721,-517,0,0,0,0,0,0,0,0,0,-1,1945,1541,0,0
728,-517,0,0,0,0,0,0,0,0,0,-1,1952,1541,0,0
735,-517,0,0,0,0,0,0,0,0,0,-1,1959,1541,0,0
742,-517,0,0,0,0,0,0,0,0,0,-1,1966,1541,0,0
749,-517,0,0,0,0,0,0,0,0,0,-1,1973,1541,0,0
756,-517,0,0,0,0,0,0,0,0,0,-1,1980,1541,0,0
763,-517,0,0,0,0,0,0,0,0,0,-1,1987,1541,0,0
770,-517,0,0,0,0,0,0,0,0,0,-1,1994,1541,0,0
777,-517,0,0,0,0,0,0,0,0,0,-1,2001,1541,0,0
784,-517,0,0,0,0,0,0,0,0,0,-1,2008,1541,0,0
791,-517,0,0,0,0,0,0,0,0,0,-1,2015,1541,0,0
798,-517,0,0,0,0,0,0,0,0,0,-1,2022,1541,0,0
805,-517,0,0,0,0,0,0,0,0,0,-1,2029,1541,0,0
812,-517,0,0,0,0,0,0,0,0,0,-1,2036,1541,0,0
-700,-524,0,0,0,0,0,0,0,0,0,-1,524,1548,0,0
-693,-524,0,0,0,0,0,0,0,0,0,-1,531,1548,0,0
-686,-524,0,0,0,0,0,0,0,0,0,-1,538,1548,0,0
-679,-524,0,0,0,0,0,0,0,0,0,-1,545,1548,0,0
-672,-524,0,0,0,0,0,0,0,0,0,-1,552,1548,0,0
-665,-524,0,0,0,0,0,0,0,0,0,-1,559,1548,0,0
-658,-524,0,0,0,0,0,0,0,0,0,-1,566,1548,0,0
-651,-524,0,0,0,0,0,0,0,0,0,-1,573,1548,0,0
-644,-524,0,0,0,0,0,0,0,0,0,-1,580,1548,0,0
-637,-524,0,0,0,0,0,0,0,0,0,-1,587,1548,0,0
-630,-524,0,0,0,0,0,0,0,0,0,-1,594,1548,0,0
-623,-524,0,0,0,0,0,0,0,0,0,-1,601,1548,0,0
-616,-524,0,0,0,0,0,0,0,0,0,-1,608,1548,0,0
-609,-524,0,0,0,0,0,0,0,0,0,-1,615,1548,0,0
-602,-524,0,0,0,0,0,0,0,0,0,-1,622,1548,0,0
-595,-524,0,0,0,0,0,0,0,0,0,-1,629,1548,0,0
-588,-524,0,0,0,0,0,0,0,0,0,-1,636,1548,0,0
-581,-524,0,0,0,0,0,0,0,0,0,-1,643,1548,0,0
-574,-524,0,0,0,0,0,0,0,0,0,-1,650,1548,0,0
-567,-524,0,0,0,0,0,0,0,0,0,-1,657,1548,0,0
-560,-524,0,0,0,0,0,0,0,0,0,-1,664,1548,0,0
-553,-524,0,0,0,0,0,0,0,0,0,-1,671,1548,0,0
-546,-524,0,0,0,0,0,0,0,0,0,-1,678,1548,0,0
-539,-524,0,0,0,0,0,0,0,0,0,-1,685,1548,0,0
-532,-524,0,0,0,0,0,0,0,0,0,-1,692,1548,0,0
-525,-524,-0.104614,2.02979,0,0,0,0,0,0,0,-1,699,1548,-0.10463,-2.02975
-518,-524,0.0501709,2.5813,-0.0345505,0.0486634,0.0621025,0.0818084,-0.0676955,1.08054,0.0864443,0.0446844,706,1548,0.0501595,-2.58126
-511,-524,-0.626892,2.79517,-0.0289053,0.0351168,0.0516582,0.0638781,-0.0576666,1.06278,0.0702044,0.0486576,713,1548,-0.626891,-2.79516
-504,-524,-0.894836,3.92688,-0.0231199,0.0247558,0.0414207,0.0486583,-0.0470224,1.04741,0.0552439,0.0493517,720,1548,-0.894845,-3.92692
-497,-524,-1.24713,4.3606,0,0,0,0,0,0,0,-1,727,1548,-1.24713,-4.36065
-490,-524,1.07605,2.45776,0,0,0,0,0,0,0,-1,734,1548,1.07603,-2.45781
-483,-524,1.04352,3.07031,0,0,0,0,0,0,0,-1,741,1548,1.04352,-3.07027
-476,-524,0.862732,3.2373,-0.00852609,0.000427154,0.0117618,0.00853545,-0.0166344,0.967237,0.0147804,0.0448868,748,1548,0.862706,-3.23735
-469,-524,0.748962,3.33643,-0.00767897,-0.000571003,0.00720635,0.00391008,-0.01216,1.01448,0.00967706,0.029888,755,1548,0.748945,-3.33647
-462,-524,0.785095,3.40479,-0.00601578,-0.0008682,0.00352828,0.00092529,-0.00780927,1.10052,0.00554042,0.0215771,762,1548,0.785101,-3.40484
-455,-524,0.755188,3.54858,-0.00412047,-0.00124272,0.000616688,-0.00111613,-0.00424705,1.36834,0.00254235,0.0154883,769,1548,0.75519,-3.54862
-448,-524,0.764526,3.68359,-0.00255364,-0.00101378,-0.000603921,-0.000805181,-0.00276224,-1.23822,0.00164035,0.0125813,776,1548,0.764528,-3.68357
-441,-524,0.750488,3.81201,-0.0015116,-0.000710766,-0.000177986,-0.000672991,-0.00154938,-1.36166,0.000897098,0.0107388,783,1548,0.750501,-3.81203
-434,-524,0.793701,3.92871,-0.000570859,-0.00110009,0.000272518,-0.000455623,-0.00121532,0.400055,0.000708951,0.0119562,790,1548,0.793674,-3.9287
-427,-524,0.792297,4.05664,5.66543e-05,-0.00166022,0.000479988,0.000181733,-0.0017853,0.254917,0.00125517,0.0122959,797,1548,0.792305,-4.05662
-420,-524,0.753418,4.1897,0.000336192,-0.00235221,0.000657468,0.000488367,-0.00250438,0.227451,0.00185394,0.0111276,804,1548,0.753397,-4.18964
-413,-524,0.754211,4.3114,0.000421434,-0.00312959,0.000812466,0.000598496,-0.00330665,0.214576,0.00242864,0.0104402,811,1548,0.754199,-4.31138
-406,-524,0.761414,4.4292,0.000128845,-0.00421023,0.000910767,0.00031226,-0.00439365,0.198728,0.00303854,0.0107037,818,1548,0.761435,-4.42924
-399,-524,0.763611,4.55444,-0.000245981,-0.00525466,0.00121588,3.35746e-05,-0.00553422,0.225994,0.00370072,0.00918143,825,1548,0.763623,-4.55443
-392,-524,0.756409,4.67285,-0.000634585,-0.00572059,0.00169431,-0.000121848,-0.00623333,0.293862,0.00411554,0.00984595,832,1548,0.756407,-4.6728
-385,-524,0.749817,4.80823,-0.00102341,-0.00477066,0.00260191,0.000309269,-0.00610334,0.473355,0.00417581,0.0113096,839,1548,0.749827,-4.80818
-378,-524,0.766052,4.97131,-0.000795029,-0.00289372,0.00307421,0.00140399,-0.00509274,0.620929,0.00394728,0.0151088,846,1548,0.766022,-4.97135
-371,-524,0.825745,5.05408,-0.000134621,0.000602369,0.00352133,0.00377443,-0.00330668,0.837532,0.00409126,0.0267645,853,1548,0.825731,-5.05414
-364,-524,0.741882,5.06763,0.00108904,0.00520769,0.00422895,0.00785207,-0.00155534,1.01198,0.00582281,0.0350444,860,1548,0.741861,-5.06763
-357,-524,0.573242,5.11487,0.00338289,0.0119288,0.00477885,0.0140664,0.00124526,1.15018,0.00899132,0.0449747,867,1548,0.573232,-5.11485
-350,-524,0.566223,5.18384,0,0,0,0,0,0,0,-1,874,1548,0.566195,-5.1838
-343,-524,0.423401,6.47449,0,0,0,0,0,0,0,-1,881,1548,0.4234,-6.47452
-336,-524,0.592407,7.27979,0,0,0,0,0,0,0,-1,888,1548,0.592402,-7.27983
-329,-524,1.2276,7.64917,0,0,0,0,0,0,0,-1,895,1548,1.2276,-7.64922
-322,-524,1.59253,8.27832,0,0,0,0,0,0,0,-1,902,1548,1.59253,-8.27834
-315,-524,0.989746,8.25598,0,0,0,0,0,0,0,-1,909,1548,0.989726,-8.25593
-308,-524,5.01941,6.05139,0,0,0,0,0,0,0,-1,916,1548,5.01942,-6.0514
-301,-524,6.08246,6.26929,0,0,0,0,0,0,0,-1,923,1548,6.08247,-6.26928
-294,-524,7.1532,6.46277,0,0,0,0,0,0,0,-1,930,1548,7.15323,-6.46279
-287,-524,-1.21161,5.6438,0,0,0,0,0,0,0,-1,937,1548,-1.21159,-5.64375
-280,-524,-1.26532,6.50476,0,0,0,0,0,0,0,-1,944,1548,-1.26531,-6.50474
-273,-524,0,0,0,0,0,0,0,0,0,-1,951,1548,0,0
-266,-524,0,0,0,0,0,0,0,0,0,-1,958,1548,0,0
-259,-524,0,0,0,0,0,0,0,0,0,-1,965,1548,0,0
-252,-524,0,0,0,0,0,0,0,0,0,-1,972,1548,0,0
-245,-524,0,0,0,0,0,0,0,0,0,-1,979,1548,0,0
-238,-524,0,0,0,0,0,0,0,0,0,-1,986,1548,0,0
-231,-524,0,0,0,0,0,0,0,0,0,-1,993,1548,0,0
-224,-524,0,0,0,0,0,0,0,0,0,-1,1000,1548,0,0
-217,-524,0,0,0,0,0,0,0,0,0,-1,1007,1548,0,0
-210,-524,0,0,0,0,0,0,0,0,0,-1,1014,1548,0,0
-203,-524,0,0,0,0,0,0,0,0,0,-1,1021,1548,0,0
-196,-524,0,0,0,0,0,0,0,0,0,-1,1028,1548,0,0
-189,-524,0,0,0,0,0,0,0,0,0,-1,1035,1548,0,0
-182,-524,0,0,0,0,0,0,0,0,0,-1,1042,1548,0,0
-175,-524,0,0,0,0,0,0,0,0,0,-1,1049,1548,0,0
-168,-524,0,0,0,0,0,0,0,0,0,-1,1056,1548,0,0
-161,-524,0,0,0,0,0,0,0,0,0,-1,1063,1548,0,0
-154,-524,0,0,0,0,0,0,0,0,0,-1,1070,1548,0,0
-147,-524,0,0,0,0,0,0,0,0,0,-1,1077,1548,0,0
-140,-524,0,0,0,0,0,0,0,0,0,-1,1084,1548,0,0
-133,-524,0,0,0,0,0,0,0,0,0,-1,1091,1548,0,0
-126,-524,0,0,0,0,0,0,0,0,0,-1,1098,1548,0,0
-119,-524,0,0,0,0,0,0,0,0,0,-1,1105,1548,0,0
-112,-524,0,0,0,0,0,0,0,0,0,-1,1112,1548,0,0
-105,-524,0,0,0,0,0,0,0,0,0,-1,1119,1548,0,0
-98,-524,0,0,0,0,0,0,0,0,0,-1,1126,1548,0,0
-91,-524,0,0,0,0,0,0,0,0,0,-1,1133,1548,0,0
-84,-524,0,0,0,0,0,0,0,0,0,-1,1140,1548,0,0
-77,-524,0,0,0,0,0,0,0,0,0,-1,1147,1548,0,0
-70,-524,0,0,0,0,0,0,0,0,0,-1,1154,1548,0,0
-63,-524,0,0,0,0,0,0,0,0,0,-1,1161,1548,0,0
-56,-524,0,0,0,0,0,0,0,0,0,-1,1168,1548,0,0
-49,-524,0,0,0,0,0,0,0,0,0,-1,1175,1548,0,0
-42,-524,0,0,0,0,0,0,0,0,0,-1,1182,1548,0,0
-35,-524,0,0,0,0,0,0,0,0,0,-1,1189,1548,0,0
-28,-524,0,0,0,0,0,0,0,0,0,-1,1196,1548,0,0
-21,-524,0,0,0,0,0,0,0,0,0,-1,1203,1548,0,0
-14,-524,0,0,0,0,0,0,0,0,0,-1,1210,1548,0,0
-7,-524,0,0,0,0,0,0,0,0,0,-1,1217,1548,0,0
0,-524,0,0,0,0,0,0,0,0,0,-1,1224,1548,0,0
7,-524,0,0,0,0,0,0,0,0,0,-1,1231,1548,0,0
14,-524,0,0,0,0,0,0,0,0,0,-1,1238,1548,0,0
21,-524,0,0,0,0,0,0,0,0,0,-1,1245,1548,0,0
28,-524,0,0,0,0,0,0,0,0,0,-1,1252,1548,0,0
35,-524,0,0,0,0,0,0,0,0,0,-1,1259,1548,0,0
42,-524,0,0,0,0,0,0,0,0,0,-1,1266,1548,0,0
49,-524,0,0,0,0,0,0,0,0,0,-1,1273,1548,0,0
56,-524,0,0,0,0,0,0,0,0,0,-1,1280,1548,0,0
63,-524,0,0,0,0,0,0,0,0,0,-1,1287,1548,0,0
70,-524,0,0,0,0,0,0,0,0,0,-1,1294,1548,0,0
77,-524,0,0,0,0,0,0,0,0,0,-1,1301,1548,0,0
84,-524,0,0,0,0,0,0,0,0,0,-1,1308,1548,0,0
91,-524,0,0,0,0,0,0,0,0,0,-1,1315,1548,0,0
98,-524,0,0,0,0,0,0,0,0,0,-1,1322,1548,0,0
105,-524,0,0,0,0,0,0,0,0,0,-1,1329,1548,0,0
112,-524,0,0,0,0,0,0,0,0,0,-1,1336,1548,0,0
119,-524,0,0,0,0,0,0,0,0,0,-1,1343,1548,0,0
126,-524,0,0,0,0,0,0,0,0,0,-1,1350,1548,0,0
133,-524,0,0,0,0,0,0,0,0,0,-1,1357,1548,0,0
140,-524,0,0,0,0,0,0,0,0,0,-1,1364,1548,0,0
147,-524,0,0,0,0,0,0,0,0,0,-1,1371,1548,0,0
154,-524,0,0,0,0,0,0,0,0,0,-1,1378,1548,0,0
161,-524,0,0,0,0,0,0,0,0,0,-1,1385,1548,0,0
168,-524,0,0,0,0,0,0,0,0,0,-1,1392,1548,0,0
175,-524,0,0,0,0,0,0,0,0,0,-1,1399,1548,0,0
182,-524,0,0,0,0,0,0,0,0,0,-1,1406,1548,0,0
189,-524,0,0,0,0,0,0,0,0,0,-1,1413,1548,0,0
196,-524,0,0,0,0,0,0,0,0,0,-1,1420,1548,0,0
203,-524,0,0,0,0,0,0,0,0,0,-1,1427,1548,0,0
210,-524,0,0,0,0,0,0,0,0,0,-1,1434,1548,0,0
217,-524,0,0,0,0,0,0,0,0,0,-1,1441,1548,0,0
224,-524,0,0,0,0,0,0,0,0,0,-1,1448,1548,0,0
231,-524,0,0,0,0,0,0,0,0,0,-1,1455,1548,0,0
238,-524,0,0,0,0,0,0,0,0,0,-1,1462,1548,0,0
245,-524,0,0,0,0,0,0,0,0,0,-1,1469,1548,0,0
252,-524,0,0,0,0,0,0,0,0,0,-1,1476,1548,0,0
259,-524,0,0,0,0,0,0,0,0,0,-1,1483,1548,0,0
266,-524,0,0,0,0,0,0,0,0,0,-1,1490,1548,0,0
273,-524,0,0,0,0,0,0,0,0,0,-1,1497,1548,0,0
280,-524,0,0,0,0,0,0,0,0,0,-1,1504,1548,0,0
287,-524,0,0,0,0,0,0,0,0,0,-1,1511,1548,0,0
294,-524,0,0,0,0,0,0,0,0,0,-1,1518,1548,0,0
301,-524,0,0,0,0,0,0,0,0,0,-1,1525,1548,0,0
308,-524,0,0,0,0,0,0,0,0,0,-1,1532,1548,0,0
315,-524,0,0,0,0,0,0,0,0,0,-1,1539,1548,0,0
322,-524,0,0,0,0,0,0,0,0,0,-1,1546,1548,0,0
329,-524,0,0,0,0,0,0,0,0,0,-1,1553,1548,0,0
336,-524,0,0,0,0,0,0,0,0,0,-1,1560,1548,0,0
343,-524,0,0,0,0,0,0,0,0,0,-1,1567,1548,0,0
350,-524,0,0,0,0,0,0,0,0,0,-1,1574,1548,0,0
357,-524,0,0,0,0,0,0,0,0,0,-1,1581,1548,0,0
364,-524,0,0,0,0,0,0,0,0,0,-1,1588,1548,0,0
371,-524,0,0,0,0,0,0,0,0,0,-1,1595,1548,0,0
378,-524,0,0,0,0,0,0,0,0,0,-1,1602,1548,0,0
385,-524,0,0,0,0,0,0,0,0,0,-1,1609,1548,0,0
392,-524,0,0,0,0,0,0,0,0,0,-1,1616,1548,0,0
399,-524,8.13403,4.49084,0,0,0,0,0,0,0,-1,1623,1548,8.13399,-4.4909
406,-524,6.80859,5.24133,0,0,0,0,0,0,0,-1,1630,1548,6.80861,-5.24128
413,-524,6.797,4.75049,0,0,0,0,0,0,0,-1,1637,1548,6.79703,-4.75053
420,-524,6.93799,4.42676,0,0,0,0,0,0,0,-1,1644,1548,6.93801,-4.42672
427,-524,5.9895,5.37256,0,0,0,0,0,0,0,-1,1651,1548,5.98953,-5.37258
434,-524,5.67932,4.79773,0,0,0,0,0,0,0,-1,1658,1548,5.67933,-4.79769
441,-524,6.14441,4.26135,0,0,0,0,0,0,0,-1,1665,1548,6.14438,-4.26133
448,-524,6.35095,3.71729,0,0,0,0,0,0,0,-1,1672,1548,6.35097,-3.71726
455,-524,6.78833,4.27454,0,0,0,0,0,0,0,-1,1679,1548,6.78838,-4.27454
462,-524,8.46252,3.71338,0,0,0,0,0,0,0,-1,1686,1548,8.46258,-3.7134
469,-524,8.14978,4.36267,0,0,0,0,0,0,0,-1,1693,1548,8.1498,-4.36267
476,-524,7.83691,4.97766,0,0,0,0,0,0,0,-1,1700,1548,7.83695,-4.97762
483,-524,6.33533,5.47363,0,0,0,0,0,0,0,-1,1707,1548,6.33534,-5.47362
490,-524,6.18176,5.64355,0.0187327,-0.0448759,0.0482687,0.0447331,-0.0708763,0.494095,0.0673136,0.0391976,1714,1548,6.18182,-5.64353
497,-524,5.97192,5.81201,0.0145967,-0.0364586,0.0406441,0.037065,-0.0589268,0.504994,0.055898,0.0271195,1721,1548,5.9719,-5.81196
504,-524,5.92603,5.71045,0.0109307,-0.0287087,0.0330169,0.0296199,-0.0473978,0.515082,0.0448594,0.0145772,1728,1548,5.92607,-5.71043
511,-524,5.94019,5.65051,0.00775792,-0.0221656,0.0259134,0.0227187,-0.0371264,0.523589,0.0348838,0.0143869,1735,1548,5.94013,-5.65048
518,-524,5.96338,5.5365,0.00492904,-0.0165246,0.0194758,0.0164367,-0.0280323,0.533679,0.0259635,0.0146486,1742,1548,5.96342,-5.53647
525,-524,5.97095,5.43713,0.00288537,-0.0117819,0.0139918,0.0113489,-0.0202454,0.544013,0.0184805,0.012976,1749,1548,5.97092,-5.43717
532,-524,5.96484,5.32849,0.00150204,-0.00830188,0.00938884,0.00719156,-0.0139914,0.544811,0.0124383,0.00913038,1756,1548,5.9649,-5.32851
539,-524,5.96997,5.19604,0.000500879,-0.00568525,0.00596714,0.00412896,-0.00931334,0.546289,0.00795099,0.0105093,1763,1548,5.96992,-5.19603
546,-524,5.94482,5.06543,-0.000533185,-0.00273372,0.00292029,0.00148723,-0.00475414,0.605239,0.00376441,0.0140816,1770,1548,5.94488,-5.06544
553,-524,5.95178,4.97339,-0.000672877,-0.00145246,0.000391673,-0.000510087,-0.00161524,0.393904,0.000953424,0.0227773,1777,1548,5.95174,-4.97338
560,-524,5.97742,4.854,0.000364782,-0.000635493,-0.00103354,0.00101284,-0.00128355,-0.560053,0.00132889,0.0296442,1784,1548,5.97743,-4.85399
567,-524,5.95386,4.7771,0.00141121,-7.34321e-05,-0.00218196,0.00297367,-0.00163589,-0.621436,0.00269843,0.0163712,1791,1548,5.95384,-4.77709
574,-524,5.96313,4.67102,0.0023704,0.00038555,-0.0032849,0.00480952,-0.00205356,-0.638699,0.0040675,0.0124136,1798,1548,5.96314,-4.67106
581,-524,5.96472,4.54431,0.00335103,0.000778361,-0.00442598,0.00667381,-0.00254442,-0.643978,0.00549726,0.0137918,1805,1548,5.96472,-4.5443
588,-524,5.98181,4.42505,0.00459502,0.00109937,-0.00569543,0.00880478,-0.00311039,-0.636519,0.00713629,0.0139319,1812,1548,5.98187,-4.42503
595,-524,5.98425,4.30762,0.00618338,0.00153399,-0.00706606,0.0112973,-0.00357996,-0.626478,0.00896635,0.0138734,1819,1548,5.9843,-4.30756
602,-524,6.06763,4.0907,0.0080046,0.00225288,-0.00859233,0.0141896,-0.00393209,-0.623908,0.0110071,0.0290375,1826,1548,6.06757,-4.09064
609,-524,6.27332,3.85083,0.010087,0.0031132,-0.0102265,0.0174047,-0.00420452,-0.621096,0.0132292,0.0450557,1833,1548,6.27331,-3.85079
616,-524,6.44299,3.68604,0,0,0,0,0,0,0,-1,1840,1548,6.44304,-3.68607
623,-524,7.70862,2.86377,0,0,0,0,0,0,0,-1,1847,1548,7.70866,-2.86373
630,-524,8.77869,2.24292,0,0,0,0,0,0,0,-1,1854,1548,8.77864,-2.24287
637,-524,7.18762,2.27917,0,0,0,0,0,0,0,-1,1861,1548,7.18759,-2.27914
644,-524,7.49158,1.9386,0,0,0,0,0,0,0,-1,1868,1548,7.49159,-1.93861
651,-524,0,0,0,0,0,0,0,0,0,-1,1875,1548,0,0
658,-524,0,0,0,0,0,0,0,0,0,-1,1882,1548,0,0
665,-524,0,0,0,0,0,0,0,0,0,-1,1889,1548,0,0
672,-524,0,0,0,0,0,0,0,0,0,-1,1896,1548,0,0
679,-524,0,0,0,0,0,0,0,0,0,-1,1903,1548,0,0
686,-524,0,0,0,0,0,0,0,0,0,-1,1910,1548,0,0
693,-524,0,0,0,0,0,0,0,0,0,-1,1917,1548,0,0
700,-524,0,0,0,0,0,0,0,0,0,-1,1924,1548,0,0
707,-524,0,0,0,0,0,0,0,0,0,-1,1931,1548,0,0
714,-524,0,0,0,0,0,0,0,0,0,-1,1938,1548,0,0
721,-524,0,0,0,0,0,0,0,0,0,-1,1945,1548,0,0
728,-524,0,0,0,0,0,0,0,0,0,-1,1952,1548,0,0
735,-524,0,0,0,0,0,0,0,0,0,-1,1959,1548,0,0
742,-524,0,0,0,0,0,0,0,0,0,-1,1966,1548,0,0
749,-524,0,0,0,0,0,0,0,0,0,-1,1973,1548,0,0
756,-524,0,0,0,0,0,0,0,0,0,-1,1980,1548,0,0
763,-524,0,0,0,0,0,0,0,0,0,-1,1987,1548,0,0
770,-524,0,0,0,0,0,0,0,0,0,-1,1994,1548,0,0
777,-524,0,0,0,0,0,0,0,0,0,-1,2001,1548,0,0
784,-524,0,0,0,0,0,0,0,0,0,-1,2008,1548,0,0
791,-524,0,0,0,0,0,0,0,0,0,-1,2015,1548,0,0
798,-524,0,0,0,0,0,0,0,0,0,-1,2022,1548,0,0
805,-524,0,0,0,0,0,0,0,0,0,-1,2029,1548,0,0
812,-524,0,0,0,0,0,0,0,0,0,-1,2036,1548,0,0
-700,-531,0,0,0,0,0,0,0,0,0,-1,524,1555,0,0
-693,-531,0,0,0,0,0,0,0,0,0,-1,531,1555,0,0
-686,-531,0,0,0,0,0,0,0,0,0,-1,538,1555,0,0
-679,-531,0,0,0,0,0,0,0,0,0,-1,545,1555,0,0
-672,-531,0,0,0,0,0,0,0,0,0,-1,552,1555,0,0
-665,-531,0,0,0,0,0,0,0,0,0,-1,559,1555,0,0
-658,-531,0,0,0,0,0,0,0,0,0,-1,566,1555,0,0
-651,-531,0,0,0,0,0,0,0,0,0,-1,573,1555,0,0
-644,-531,0,0,0,0,0,0,0,0,0,-1,580,1555,0,0
-637,-531,0,0,0,0,0,0,0,0,0,-1,587,1555,0,0
-630,-531,0,0,0,0,0,0,0,0,0,-1,594,1555,0,0
-623,-531,0,0,0,0,0,0,0,0,0,-1,601,1555,0,0
-616,-531,0,0,0,0,0,0,0,0,0,-1,608,1555,0,0
-609,-531,0,0,0,0,0,0,0,0,0,-1,615,1555,0,0
-602,-531,0,0,0,0,0,0,0,0,0,-1,622,1555,0,0
-595,-531,0,0,0,0,0,0,0,0,0,-1,629,1555,0,0
-588,-531,0,0,0,0,0,0,0,0,0,-1,636,1555,0,0
-581,-531,0,0,0,0,0,0,0,0,0,-1,643,1555,0,0
-574,-531,0,0,0,0,0,0,0,0,0,-1,650,1555,0,0
-567,-531,0,0,0,0,0,0,0,0,0,-1,657,1555,0,0
-560,-531,0,0,0,0,0,0,0,0,0,-1,664,1555,0,0
-553,-531,0,0,0,0,0,0,0,0,0,-1,671,1555,0,0
-546,-531,0,0,0,0,0,0,0,0,0,-1,678,1555,0,0
-539,-531,0,0,0,0,0,0,0,0,0,-1,685,1555,0,0
-532,-531,0,0,0,0,0,0,0,0,0,-1,692,1555,0,0
-525,-531,0,0,0,0,0,0,0,0,0,-1,699,1555,0,0
-518,-531,0.472717,2.18799,0,0,0,0,0,0,0,-1,706,1555,0.472696,-2.18799
-511,-531,-0.485779,2.14624,0,0,0,0,0,0,0,-1,713,1555,-0.485763,-2.1463
-504,-531,-1.14557,3.62915,0,0,0,0,0,0,0,-1,720,1555,-1.14554,-3.62911
-497,-531,-1.48236,4.05566,0,0,0,0,0,0,0,-1,727,1555,-1.48235,-4.05567
-490,-531,1.03308,2.37048,0,0,0,0,0,0,0,-1,734,1555,1.03309,-2.3705
-483,-531,0.945435,2.33948,0,0,0,0,0,0,0,-1,741,1555,0.945437,-2.3395
-476,-531,0.972229,3.26111,0,0,0,0,0,0,0,-1,748,1555,0.972247,-3.26114
-469,-531,0.840759,3.59387,-0.00915378,0.000407691,0.00870895,0.0055618,-0.0143079,1.03641,0.0118364,0.0414237,755,1555,0.840733,-3.5939
-462,-531,0.751038,3.60046,-0.00686257,-0.000223833,0.00441436,0.00197991,-0.00906631,1.10777,0.00680093,0.0368186,762,1555,0.751037,-3.60048
-455,-531,0.867493,3.57837,-0.00482772,-0.000924233,0.00105137,-0.00065907,-0.00509288,1.32374,0.00319828,0.0253137,769,1555,0.867491,-3.57839
-448,-531,0.901672,3.67651,-0.00324387,-0.000525968,-0.000419335,-0.000462741,-0.0033071,-1.42115,0.00206782,0.0122743,776,1555,0.901658,-3.67653
-441,-531,0.868408,3.80591,-0.0022197,0.000119161,-2.95125e-06,0.000119165,-0.0022197,-1.56953,0.00152108,0.0110477,783,1555,0.868394,-3.80586
-434,-531,0.878052,3.9408,-0.00129985,-2.28478e-05,0.000422423,0.000104239,-0.00142694,1.27856,0.000987872,0.0112623,790,1555,0.878036,-3.94077
-427,-531,0.897827,4.05859,-0.000656178,-0.000394391,0.000602483,9.12538e-05,-0.00114182,0.892364,0.000793384,0.013019,797,1555,0.897822,-4.05862
-420,-531,0.880493,4.18445,-0.00032467,-0.000907937,0.000730598,0.00017035,-0.00140296,0.595502,0.000996951,0.0116975,804,1555,0.880517,-4.18451
-413,-531,0.883118,4.30835,-0.000197772,-0.00142331,0.000835846,0.000225858,-0.00184694,0.469095,0.00131307,0.00981525,811,1555,0.88311,-4.30836
-406,-531,0.889709,4.43518,-0.000405857,-0.00225715,0.000862447,-6.63416e-05,-0.00259667,0.375034,0.00170943,0.0114221,818,1555,0.889726,-4.43524
-399,-531,0.883728,4.5603,-0.000643065,-0.00308502,0.00106048,-0.000246823,-0.00348127,0.357582,0.0022431,0.0138609,825,1555,0.883709,-4.56028
-392,-531,0.874451,4.67932,-0.00081202,-0.00339599,0.00138261,-0.000211695,-0.00399632,0.409635,0.00259652,0.0169741,832,1555,0.874432,-4.67937
-385,-531,0.865906,4.78552,-0.000959343,-0.00244321,0.00205655,0.000485016,-0.00388757,0.612282,0.00276759,0.0141987,839,1555,0.86591,-4.78557
-378,-531,0.87677,4.88416,-0.000648289,-0.000862309,0.00237811,0.00162522,-0.00313582,0.762914,0.00279453,0.0107957,846,1555,0.876761,-4.88415
-371,-531,0.905945,5.04382,5.46307e-05,0.00207002,0.00269485,0.00393941,-0.00181477,0.964316,0.00339683,0.0119051,853,1555,0.905946,-5.04384
-364,-531,0.913696,5.18811,0.00115618,0.00576964,0.00324079,0.00744081,-0.000514997,1.09469,0.00514081,0.0210535,860,1555,0.913673,-5.18814
-357,-531,0.809204,5.23389,0.00306495,0.0109976,0.00367361,0.0124375,0.00162506,1.19724,0.00780657,0.0318545,867,1555,0.809215,-5.23387
-350,-531,0.917786,5.45178,0.00576203,0.0178755,0.00397895,0.0190656,0.00457197,1.28018,0.0114936,0.0428433,874,1555,0.917767,-5.45179
-343,-531,1.11322,6.12268,0.00947612,0.0266219,0.00378467,0.0274201,0.00867787,1.36293,0.0161826,0.0470336,881,1555,1.11324,-6.12269
-336,-531,1.60162,6.68823,0.0148757,0.0373451,0.00306269,0.0377551,0.0144658,1.43772,0.0219954,0.0436009,888,1555,1.60165,-6.68826
-329,-531,2.21979,7.04761,0,0,0,0,0,0,0,-1,895,1555,2.21976,-7.04761
-322,-531,2.61493,7.61182,0.0302866,0.0609964,-0.000922722,0.0610241,0.0302589,-1.54079,0.0352327,0.0467888,902,1555,2.61495,-7.61187
-315,-531,2.88599,7.92542,0,0,0,0,0,0,0,-1,909,1555,2.88601,-7.92543
-308,-531,2.90582,8.21497,0,0,0,0,0,0,0,-1,916,1555,2.90583,-8.21492
-301,-531,5.09583,6.01624,0,0,0,0,0,0,0,-1,923,1555,5.09584,-6.01622
-294,-531,5.70935,5.96387,0,0,0,0,0,0,0,-1,930,1555,5.70933,-5.96391
-287,-531,-1.07782,5.81726,0,0,0,0,0,0,0,-1,937,1555,-1.07779,-5.81732
-280,-531,-1.14233,6.2655,0,0,0,0,0,0,0,-1,944,1555,-1.14234,-6.26547
-273,-531,-2.73926,0.277954,0,0,0,0,0,0,0,-1,951,1555,-2.73926,-0.277897
-266,-531,-1.36493,6.92603,0,0,0,0,0,0,0,-1,958,1555,-1.36495,-6.92597
-259,-531,0,0,0,0,0,0,0,0,0,-1,965,1555,0,0
-252,-531,0,0,0,0,0,0,0,0,0,-1,972,1555,0,0
-245,-531,0,0,0,0,0,0,0,0,0,-1,979,1555,0,0
-238,-531,0,0,0,0,0,0,0,0,0,-1,986,1555,0,0
-231,-531,0,0,0,0,0,0,0,0,0,-1,993,1555,0,0
-224,-531,0,0,0,0,0,0,0,0,0,-1,1000,1555,0,0
-217,-531,0,0,0,0,0,0,0,0,0,-1,1007,1555,0,0
-210,-531,0,0,0,0,0,0,0,0,0,-1,1014,1555,0,0
-203,-531,0,0,0,0,0,0,0,0,0,-1,1021,1555,0,0
-196,-531,0,0,0,0,0,0,0,0,0,-1,1028,1555,0,0
-189,-531,0,0,0,0,0,0,0,0,0,-1,1035,1555,0,0
-182,-531,0,0,0,0,0,0,0,0,0,-1,1042,1555,0,0
-175,-531,0,0,0,0,0,0,0,0,0,-1,1049,1555,0,0
-168,-531,0,0,0,0,0,0,0,0,0,-1,1056,1555,0,0
-161,-531,0,0,0,0,0,0,0,0,0,-1,1063,1555,0,0
-154,-531,0,0,0,0,0,0,0,0,0,-1,1070,1555,0,0
-147,-531,0,0,0,0,0,0,0,0,0,-1,1077,1555,0,0
-140,-531,0,0,0,0,0,0,0,0,0,-1,1084,1555,0,0
-133,-531,0,0,0,0,0,0,0,0,0,-1,1091,1555,0,0
-126,-531,0,0,0,0,0,0,0,0,0,-1,1098,1555,0,0
-119,-531,0,0,0,0,0,0,0,0,0,-1,1105,1555,0,0
-112,-531,0,0,0,0,0,0,0,0,0,-1,1112,1555,0,0
-105,-531,0,0,0,0,0,0,0,0,0,-1,1119,1555,0,0
-98,-531,0,0,0,0,0,0,0,0,0,-1,1126,1555,0,0
-91,-531,0,0,0,0,0,0,0,0,0,-1,1133,1555,0,0
-84,-531,0,0,0,0,0,0,0,0,0,-1,1140,1555,0,0
-77,-531,0,0,0,0,0,0,0,0,0,-1,1147,1555,0,0
-70,-531,0,0,0,0,0,0,0,0,0,-1,1154,1555,0,0
-63,-531,0,0,0,0,0,0,0,0,0,-1,1161,1555,0,0
-56,-531,0,0,0,0,0,0,0,0,0,-1,1168,1555,0,0
-49,-531,0,0,0,0,0,0,0,0,0,-1,1175,1555,0,0
-42,-531,0,0,0,0,0,0,0,0,0,-1,1182,1555,0,0
-35,-531,0,0,0,0,0,0,0,0,0,-1,1189,1555,0,0
-28,-531,0,0,0,0,0,0,0,0,0,-1,1196,1555,0,0
-21,-531,0,0,0,0,0,0,0,0,0,-1,1203,1555,0,0
-14,-531,0,0,0,0,0,0,0,0,0,-1,1210,1555,0,0
-7,-531,0,0,0,0,0,0,0,0,0,-1,1217,1555,0,0
0,-531,0,0,0,0,0,0,0,0,0,-1,1224,1555,0,0
7,-531,0,0,0,0,0,0,0,0,0,-1,1231,1555,0,0
14,-531,0,0,0,0,0,0,0,0,0,-1,1238,1555,0,0
21,-531,0,0,0,0,0,0,0,0,0,-1,1245,1555,0,0
28,-531,0,0,0,0,0,0,0,0,0,-1,1252,1555,0,0
35,-531,0,0,0,0,0,0,0,0,0,-1,1259,1555,0,0
42,-531,0,0,0,0,0,0,0,0,0,-1,1266,1555,0,0
49,-531,0,0,0,0,0,0,0,0,0,-1,1273,1555,0,0
56,-531,0,0,0,0,0,0,0,0,0,-1,1280,1555,0,0
63,-531,0,0,0,0,0,0,0,0,0,-1,1287,1555,0,0
70,-531,0,0,0,0,0,0,0,0,0,-1,1294,1555,0,0
77,-531,0,0,0,0,0,0,0,0,0,-1,1301,1555,0,0
84,-531,0,0,0,0,0,0,0,0,0,-1,1308,1555,0,0
91,-531,0,0,0,0,0,0,0,0,0,-1,1315,1555,0,0
98,-531,0,0,0,0,0,0,0,0,0,-1,1322,1555,0,0
105,-531,0,0,0,0,0,0,0,0,0,-1,1329,1555,0,0
112,-531,0,0,0,0,0,0,0,0,0,-1,1336,1555,0,0
119,-531,0,0,0,0,0,0,0,0,0,-1,1343,1555,0,0
126,-531,0,0,0,0,0,0,0,0,0,-1,1350,1555,0,0
133,-531,0,0,0,0,0,0,0,0,0,-1,1357,1555,0,0
140,-531,0,0,0,0,0,0,0,0,0,-1,1364,1555,0,0
147,-531,0,0,0,0,0,0,0,0,0,-1,1371,1555,0,0
154,-531,0,0,0,0,0,0,0,0,0,-1,1378,1555,0,0
161,-531,0,0,0,0,0,0,0,0,0,-1,1385,1555,0,0
168,-531,0,0,0,0,0,0,0,0,0,-1,1392,1555,0,0
175,-531,0,0,0,0,0,0,0,0,0,-1,1399,1555,0,0
182,-531,0,0,0,0,0,0,0,0,0,-1,1406,1555,0,0
189,-531,0,0,0,0,0,0,0,0,0,-1,1413,1555,0,0
196,-531,0,0,0,0,0,0,0,0,0,-1,1420,1555,0,0
203,-531,0,0,0,0,0,0,0,0,0,-1,1427,1555,0,0
210,-531,0,0,0,0,0,0,0,0,0,-1,1434,1555,0,0
217,-531,0,0,0,0,0,0,0,0,0,-1,1441,1555,0,0
224,-531,0,0,0,0,0,0,0,0,0,-1,1448,1555,0,0
231,-531,0,0,0,0,0,0,0,0,0,-1,1455,1555,0,0
238,-531,0,0,0,0,0,0,0,0,0,-1,1462,1555,0,0
245,-531,0,0,0,0,0,0,0,0,0,-1,1469,1555,0,0
252,-531,0,0,0,0,0,0,0,0,0,-1,1476,1555,0,0
259,-531,0,0,0,0,0,0,0,0,0,-1,1483,1555,0,0
266,-531,0,0,0,0,0,0,0,0,0,-1,1490,1555,0,0
273,-531,0,0,0,0,0,0,0,0,0,-1,1497,1555,0,0
280,-531,0,0,0,0,0,0,0,0,0,-1,1504,1555,0,0
287,-531,0,0,0,0,0,0,0,0,0,-1,1511,1555,0,0
294,-531,0,0,0,0,0,0,0,0,0,-1,1518,1555,0,0
301,-531,0,0,0,0,0,0,0,0,0,-1,1525,1555,0,0
308,-531,0,0,0,0,0,0,0,0,0,-1,1532,1555,0,0
315,-531,0,0,0,0,0,0,0,0,0,-1,1539,1555,0,0
322,-531,0,0,0,0,0,0,0,0,0,-1,1546,1555,0,0
329,-531,0,0,0,0,0,0,0,0,0,-1,1553,1555,0,0
336,-531,0,0,0,0,0,0,0,0,0,-1,1560,1555,0,0
343,-531,0,0,0,0,0,0,0,0,0,-1,1567,1555,0,0
350,-531,0,0,0,0,0,0,0,0,0,-1,1574,1555,0,0
357,-531,0,0,0,0,0,0,0,0,0,-1,1581,1555,0,0
364,-531,0,0,0,0,0,0,0,0,0,-1,1588,1555,0,0
371,-531,0,0,0,0,0,0,0,0,0,-1,1595,1555,0,0
378,-531,0,0,0,0,0,0,0,0,0,-1,1602,1555,0,0
385,-531,3.13403,1.88721,0,0,0,0,0,0,0,-1,1609,1555,3.13401,-1.88726
392,-531,8.49451,7.77673,0,0,0,0,0,0,0,-1,1616,1555,8.49447,-7.77677
399,-531,7.98743,6.80579,0,0,0,0,0,0,0,-1,1623,1555,7.98747,-6.80577
406,-531,7.28821,5.25403,0,0,0,0,0,0,0,-1,1630,1555,7.28823,-5.25408
413,-531,6.13135,4.62024,0,0,0,0,0,0,0,-1,1637,1555,6.1314,-4.62027
420,-531,6.46155,4.66296,0,0,0,0,0,0,0,-1,1644,1555,6.4616,-4.66294
427,-531,6.35693,6.28711,0,0,0,0,0,0,0,-1,1651,1555,6.35687,-6.2871
434,-531,6.15088,5.62451,-0.0115054,-0.025923,-0.00872606,-0.00739559,-0.0300328,-0.440164,0.0180684,0.0495414,1658,1555,6.15086,-5.62452
441,-531,5.98975,4.99036,0,0,0,0,0,0,0,-1,1665,1555,5.9898,-4.99037
448,-531,6.12378,4.47058,0,0,0,0,0,0,0,-1,1672,1555,6.12372,-4.47064
455,-531,6.26831,3.8916,0,0,0,0,0,0,0,-1,1679,1555,6.26833,-3.89166
462,-531,7.20422,4.18665,0,0,0,0,0,0,0,-1,1686,1555,7.20418,-4.18669
469,-531,6.74512,4.91162,0,0,0,0,0,0,0,-1,1693,1555,6.74506,-4.91162
476,-531,6.94788,5.34595,0.0162537,-0.0418093,0.0390469,0.0358791,-0.0614346,0.465733,0.0568262,0.0462494,1700,1555,6.94789,-5.34598
483,-531,6.64124,5.78748,0,0,0,0,0,0,0,-1,1707,1555,6.64126,-5.78747
490,-531,5.94312,5.89282,0.0136772,-0.0329291,0.0349001,0.032339,-0.0515908,0.491035,0.04888,0.0284314,1714,1555,5.94307,-5.89281
497,-531,5.84045,5.85645,0.0106283,-0.0263657,0.0291019,0.0266141,-0.0423515,0.502307,0.0401613,0.0143133,1721,1555,5.84046,-5.8565
504,-531,5.82373,5.77808,0.00807679,-0.0203864,0.0233744,0.0212113,-0.0335209,0.511947,0.0318649,0.0106638,1728,1555,5.82368,-5.77805
511,-531,5.82971,5.65906,0.00589467,-0.0154319,0.0180593,0.0162038,-0.0257411,0.518711,0.0244247,0.0131336,1735,1555,5.82967,-5.65901
518,-531,5.84753,5.5354,0.00386517,-0.0111493,0.0131998,0.0115432,-0.0188273,0.52684,0.0177018,0.0140529,1742,1555,5.84753,-5.53546
525,-531,5.85571,5.43958,0.00238003,-0.00751735,0.00903119,0.0077295,-0.0128668,0.534762,0.012014,0.0126399,1749,1555,5.85576,-5.43955
532,-531,5.87744,5.32349,0.0013333,-0.00496945,0.00547336,0.00449768,-0.00813384,0.524193,0.00739285,0.00951727,1756,1555,5.87741,-5.32343
539,-531,5.85706,5.20618,0.000501659,-0.00319119,0.0029435,0.00212993,-0.00481946,0.505277,0.00411117,0.0115642,1763,1555,5.85706,-5.20624
546,-531,5.79785,5.08569,-0.00015844,-0.00115284,0.000673777,0.000181728,-0.001493,0.467533,0.00106111,0.0159339,1770,1555,5.79789,-5.08572
553,-531,5.80994,4.9657,-7.54712e-05,-0.000370026,-0.0012194,0.00100551,-0.00145101,-0.7253,0.00142602,0.0300802,1777,1555,5.8099,-4.9657
560,-531,5.83594,4.87854,0.000834893,0.000310223,-0.00249477,0.00308108,-0.00193597,-0.733014,0.00292164,0.0334545,1784,1555,5.83599,-4.87859
567,-531,5.81982,4.79504,0.00173244,0.000687607,-0.00364617,0.00489343,-0.00247338,-0.714243,0.00432906,0.018824,1791,1555,5.81985,-4.79509
574,-531,5.85437,4.68469,0.002623,0.00103334,-0.00493293,0.00682472,-0.00316838,-0.705521,0.00589685,0.0128907,1798,1555,5.85433,-4.68469
581,-531,5.87939,4.54688,0.00365369,0.00139747,-0.0063966,0.00902089,-0.00396973,-0.698115,0.00768681,0.0110607,1805,1555,5.87934,-4.54693
588,-531,5.88489,4.39478,0.00506288,0.00180156,-0.00814172,0.0117356,-0.00487119,-0.686564,0.00985721,0.0143389,1812,1555,5.88487,-4.39476
595,-531,5.89209,4.21643,0.00689287,0.0025157,-0.0101171,0.0150554,-0.00564684,-0.678877,0.0123571,0.0287991,1819,1555,5.89209,-4.2164
602,-531,6.33557,3.83215,0.00906582,0.00362912,-0.012359,0.0190019,-0.00630693,-0.677147,0.0152124,0.0421495,1826,1555,6.33559,-3.8322
609,-531,6.48706,3.53564,0.011818,0.00505673,-0.0148742,0.0236909,-0.00681621,-0.673656,0.0184897,0.0421505,1833,1555,6.48706,-3.53563
616,-531,6.62878,3.47839,0,0,0,0,0,0,0,-1,1840,1555,6.62874,-3.47839
623,-531,8.19458,2.66968,0,0,0,0,0,0,0,-1,1847,1555,8.19455,-2.66971
630,-531,7.1311,1.48865,0,0,0,0,0,0,0,-1,1854,1555,7.13106,-1.48859
637,-531,7.49207,1.65552,0,0,0,0,0,0,0,-1,1861,1555,7.49211,-1.65551
644,-531,0,0,0,0,0,0,0,0,0,-1,1868,1555,0,0
651,-531,0,0,0,0,0,0,0,0,0,-1,1875,1555,0,0
658,-531,0,0,0,0,0,0,0,0,0,-1,1882,1555,0,0
665,-531,0,0,0,0,0,0,0,0,0,-1,1889,1555,0,0
672,-531,0,0,0,0,0,0,0,0,0,-1,1896,1555,0,0
679,-531,0,0,0,0,0,0,0,0,0,-1,1903,1555,0,0
686,-531,0,0,0,0,0,0,0,0,0,-1,1910,1555,0,0
693,-531,0,0,0,0,0,0,0,0,0,-1,1917,1555,0,0
700,-531,0,0,0,0,0,0,0,0,0,-1,1924,1555,0,0
707,-531,0,0,0,0,0,0,0,0,0,-1,1931,1555,0,0
714,-531,0,0,0,0,0,0,0,0,0,-1,1938,1555,0,0
721,-531,0,0,0,0,0,0,0,0,0,-1,1945,1555,0,0
728,-531,0,0,0,0,0,0,0,0,0,-1,1952,1555,0,0
735,-531,0,0,0,0,0,0,0,0,0,-1,1959,1555,0,0
742,-531,0,0,0,0,0,0,0,0,0,-1,1966,1555,0,0
749,-531,0,0,0,0,0,0,0,0,0,-1,1973,1555,0,0
756,-531,0,0,0,0,0,0,0,0,0,-1,1980,1555,0,0
763,-531,0,0,0,0,0,0,0,0,0,-1,1987,1555,0,0
770,-531,0,0,0,0,0,0,0,0,0,-1,1994,1555,0,0
777,-531,0,0,0,0,0,0,0,0,0,-1,2001,1555,0,0
784,-531,0,0,0,0,0,0,0,0,0,-1,2008,1555,0,0
791,-531,0,0,0,0,0,0,0,0,0,-1,2015,1555,0,0
798,-531,0,0,0,0,0,0,0,0,0,-1,2022,1555,0,0
805,-531,0,0,0,0,0,0,0,0,0,-1,2029,1555,0,0
812,-531,0,0,0,0,0,0,0,0,0,-1,2036,1555,0,0
-700,-538,0,0,0,0,0,0,0,0,0,-1,524,1562,0,0
-693,-538,0,0,0,0,0,0,0,0,0,-1,531,1562,0,0
-686,-538,0,0,0,0,0,0,0,0,0,-1,538,1562,0,0
-679,-538,0,0,0,0,0,0,0,0,0,-1,545,1562,0,0
-672,-538,0,0,0,0,0,0,0,0,0,-1,552,1562,0,0
-665,-538,0,0,0,0,0,0,0,0,0,-1,559,1562,0,0
-658,-538,0,0,0,0,0,0,0,0,0,-1,566,1562,0,0
-651,-538,0,0,0,0,0,0,0,0,0,-1,573,1562,0,0
-644,-538,0,0,0,0,0,0,0,0,0,-1,580,1562,0,0
-637,-538,0,0,0,0,0,0,0,0,0,-1,587,1562,0,0
-630,-538,0,0,0,0,0,0,0,0,0,-1,594,1562,0,0
-623,-538,0,0,0,0,0,0,0,0,0,-1,601,1562,0,0
-616,-538,0,0,0,0,0,0,0,0,0,-1,608,1562,0,0
-609,-538,0,0,0,0,0,0,0,0,0,-1,615,1562,0,0
-602,-538,0,0,0,0,0,0,0,0,0,-1,622,1562,0,0
-595,-538,0,0,0,0,0,0,0,0,0,-1,629,1562,0,0
-588,-538,0,0,0,0,0,0,0,0,0,-1,636,1562,0,0
-581,-538,0,0,0,0,0,0,0,0,0,-1,643,1562,0,0
-574,-538,0,0,0,0,0,0,0,0,0,-1,650,1562,0,0
-567,-538,0,0,0,0,0,0,0,0,0,-1,657,1562,0,0
-560,-538,0,0,0,0,0,0,0,0,0,-1,664,1562,0,0
-553,-538,0,0,0,0,0,0,0,0,0,-1,671,1562,0,0
-546,-538,0,0,0,0,0,0,0,0,0,-1,678,1562,0,0
-539,-538,0,0,0,0,0,0,0,0,0,-1,685,1562,0,0
-532,-538,0,0,0,0,0,0,0,0,0,-1,692,1562,0,0
-525,-538,0,0,0,0,0,0,0,0,0,-1,699,1562,0,0
-518,-538,0,0,0,0,0,0,0,0,0,-1,706,1562,0,0
-511,-538,-1.02081,2.94775,0,0,0,0,0,0,0,-1,713,1562,-1.0208,-2.9477
-504,-538,-1.36633,3.41541,0,0,0,0,0,0,0,-1,720,1562,-1.36633,-3.41538
-497,-538,-1.71185,3.88306,0,0,0,0,0,0,0,-1,727,1562,-1.71187,-3.88305
-490,-538,1.08667,2.16589,0,0,0,0,0,0,0,-1,734,1562,1.08668,-2.16586
-483,-538,1.0094,2.13562,0,0,0,0,0,0,0,-1,741,1562,1.0094,-2.13557
-476,-538,0.981384,3.9104,0,0,0,0,0,0,0,-1,748,1562,0.981359,-3.91035
-469,-538,0.848938,3.95093,-0.0107685,0.00208011,0.010501,0.00796605,-0.0166544,1.05992,0.0145067,0.0437265,755,1562,0.848938,-3.95098
-462,-538,0.783997,3.74548,-0.00780131,0.000840043,0.00560689,0.00359789,-0.0105592,1.11368,0.00849657,0.0412252,762,1562,0.784026,-3.74554
-455,-538,0.998169,3.53052,-0.00549729,-0.00036374,0.00175899,0.000181136,-0.00604216,1.2704,0.00408982,0.0352224,769,1562,0.998147,-3.5305
-448,-538,1.0318,3.6853,-0.00379192,3.51413e-05,-2.47983e-05,3.5302e-05,-0.00379209,-1.56432,0.00253991,0.0145514,776,1562,1.03181,-3.68528
-441,-538,1.02258,3.8363,-0.00276445,0.00088757,0.000325588,0.00091637,-0.00279325,1.48257,0.00223126,0.0129912,783,1562,1.02259,-3.8363
-434,-538,1.01196,3.94556,-0.00187376,0.00101666,0.000638278,0.00115133,-0.00200844,1.36285,0.00184653,0.0114901,790,1562,1.01199,-3.94561
-427,-538,0.995544,4.0719,-0.00119705,0.000898358,0.000671021,0.00109482,-0.00139351,1.28597,0.00144008,0.0131446,797,1562,0.995571,-4.07195
-420,-538,0.978455,4.20349,-0.000806393,0.000630439,0.000634464,0.000870494,-0.00104645,1.20908,0.0011083,0.0166426,804,1562,0.978444,-4.20348
-413,-538,0.970215,4.33667,-0.000632679,0.000429452,0.000589539,0.000691851,-0.000895079,1.15203,0.000918716,0.0160603,811,1562,0.970186,-4.33668
-406,-538,1.00842,4.42029,-0.000758835,-0.000115094,0.000466636,0.000129913,-0.00100384,1.08731,0.000716468,0.0137142,818,1562,1.00843,-4.42031
-399,-538,1.01642,4.53882,-0.000883862,-0.000706133,0.000500788,-0.000286386,-0.00130361,0.873209,0.000791083,0.01351,825,1562,1.01645,-4.5388
-392,-538,1.00916,4.66504,-0.000887905,-0.000894351,0.000646381,-0.000244739,-0.00153752,0.782905,0.000953954,0.0146701,832,1562,1.00914,-4.66502
-385,-538,0.997375,4.78638,-0.000863262,-1.76042e-05,0.00109934,0.000737415,-0.00161828,0.968988,0.0013914,0.012349,839,1562,0.997368,-4.78639
-378,-538,1.00159,4.90308,-0.00050266,0.0012514,0.00130702,0.00194837,-0.00119963,1.0809,0.00183456,0.0102784,846,1562,1.00157,-4.90313
-371,-538,1,5.03284,0.000202254,0.00361682,0.00154615,0.00421288,-0.000393804,1.20284,0.00294864,0.0101898,853,1562,0.999982,-5.0328
-364,-538,1.02075,5.17578,0.00119104,0.0064653,0.00201902,0.00714945,0.000506885,1.24409,0.00460664,0.00885936,860,1562,1.02074,-5.17576
-357,-538,1.01196,5.2804,0.00273235,0.0103273,0.00242033,0.0110331,0.00202663,1.28708,0.00678154,0.0158471,867,1562,1.01199,-5.28044
-350,-538,0.990356,5.34924,0.00486475,0.0151542,0.00271776,0.0158279,0.00419102,1.3278,0.00946931,0.0310405,874,1562,0.990347,-5.34921
-343,-538,1.09668,5.86938,0.00769347,0.0210769,0.00264892,0.0215821,0.00718825,1.38233,0.0126898,0.0431816,881,1562,1.09668,-5.8694
-336,-538,0.888245,5.64526,0.0115629,0.0277276,0.00248469,0.0281009,0.0111896,1.42167,0.0163358,0.0481045,888,1562,0.888264,-5.64525
-329,-538,3.17065,6.36401,0,0,0,0,0,0,0,-1,895,1562,3.17064,-6.36403
-322,-538,3.71936,6.85962,0,0,0,0,0,0,0,-1,902,1562,3.71936,-6.85967
-315,-538,4.29193,7.43567,0,0,0,0,0,0,0,-1,909,1562,4.29196,-7.43568
-308,-538,4.22363,6.24329,0,0,0,0,0,0,0,-1,916,1562,4.22363,-6.24333
-301,-538,4.80219,6.14355,0,0,0,0,0,0,0,-1,923,1562,4.8022,-6.14354
-294,-538,4.75861,6.98962,0,0,0,0,0,0,0,-1,930,1562,4.7586,-6.98965
-287,-538,5.36835,7.73828,0,0,0,0,0,0,0,-1,937,1562,5.36833,-7.73829
-280,-538,-3.65491,-1.68176,0,0,0,0,0,0,0,-1,944,1562,-3.6549,1.68181
-273,-538,-3.29932,-0.374756,0,0,0,0,0,0,0,-1,951,1562,-3.29933,0.374719
-266,-538,-2.42151,1.55591,0,0,0,0,0,0,0,-1,958,1562,-2.42152,-1.55588
-259,-538,-1.82385,3.02747,0,0,0,0,0,0,0,-1,965,1562,-1.82386,-3.02747
-252,-538,0,0,0,0,0,0,0,0,0,-1,972,1562,0,0
-245,-538,0,0,0,0,0,0,0,0,0,-1,979,1562,0,0
-238,-538,0,0,0,0,0,0,0,0,0,-1,986,1562,0,0
-231,-538,0,0,0,0,0,0,0,0,0,-1,993,1562,0,0
-224,-538,0,0,0,0,0,0,0,0,0,-1,1000,1562,0,0
-217,-538,0,0,0,0,0,0,0,0,0,-1,1007,1562,0,0
-210,-538,0,0,0,0,0,0,0,0,0,-1,1014,1562,0,0
-203,-538,0,0,0,0,0,0,0,0,0,-1,1021,1562,0,0
-196,-538,0,0,0,0,0,0,0,0,0,-1,1028,1562,0,0
-189,-538,0,0,0,0,0,0,0,0,0,-1,1035,1562,0,0
-182,-538,0,0,0,0,0,0,0,0,0,-1,1042,1562,0,0
-175,-538,0,0,0,0,0,0,0,0,0,-1,1049,1562,0,0
-168,-538,0,0,0,0,0,0,0,0,0,-1,1056,1562,0,0
-161,-538,0,0,0,0,0,0,0,0,0,-1,1063,1562,0,0
-154,-538,0,0,0,0,0,0,0,0,0,-1,1070,1562,0,0
-147,-538,0,0,0,0,0,0,0,0,0,-1,1077,1562,0,0
-140,-538,0,0,0,0,0,0,0,0,0,-1,1084,1562,0,0
-133,-538,0,0,0,0,0,0,0,0,0,-1,1091,1562,0,0
-126,-538,0,0,0,0,0,0,0,0,0,-1,1098,1562,0,0
-119,-538,0,0,0,0,0,0,0,0,0,-1,1105,1562,0,0
-112,-538,0,0,0,0,0,0,0,0,0,-1,1112,1562,0,0
-105,-538,0,0,0,0,0,0,0,0,0,-1,1119,1562,0,0
-98,-538,0,0,0,0,0,0,0,0,0,-1,1126,1562,0,0
-91,-538,0,0,0,0,0,0,0,0,0,-1,1133,1562,0,0
-84,-538,0,0,0,0,0,0,0,0,0,-1,1140,1562,0,0
-77,-538,0,0,0,0,0,0,0,0,0,-1,1147,1562,0,0
-70,-538,0,0,0,0,0,0,0,0,0,-1,1154,1562,0,0
-63,-538,0,0,0,0,0,0,0,0,0,-1,1161,1562,0,0
-56,-538,0,0,0,0,0,0,0,0,0,-1,1168,1562,0,0
-49,-538,0,0,0,0,0,0,0,0,0,-1,1175,1562,0,0
-42,-538,0,0,0,0,0,0,0,0,0,-1,1182,1562,0,0
-35,-538,0,0,0,0,0,0,0,0,0,-1,1189,1562,0,0
-28,-538,0,0,0,0,0,0,0,0,0,-1,1196,1562,0,0
-21,-538,0,0,0,0,0,0,0,0,0,-1,1203,1562,0,0
-14,-538,0,0,0,0,0,0,0,0,0,-1,1210,1562,0,0
-7,-538,0,0,0,0,0,0,0,0,0,-1,1217,1562,0,0
0,-538,0,0,0,0,0,0,0,0,0,-1,1224,1562,0,0
7,-538,0,0,0,0,0,0,0,0,0,-1,1231,1562,0,0
14,-538,0,0,0,0,0,0,0,0,0,-1,1238,1562,0,0
21,-538,0,0,0,0,0,0,0,0,0,-1,1245,1562,0,0
28,-538,0,0,0,0,0,0,0,0,0,-1,1252,1562,0,0
35,-538,0,0,0,0,0,0,0,0,0,-1,1259,1562,0,0
42,-538,0,0,0,0,0,0,0,0,0,-1,1266,1562,0,0
49,-538,0,0,0,0,0,0,0,0,0,-1,1273,1562,0,0
56,-538,0,0,0,0,0,0,0,0,0,-1,1280,1562,0,0
63,-538,0,0,0,0,0,0,0,0,0,-1,1287,1562,0,0
70,-538,0,0,0,0,0,0,0,0,0,-1,1294,1562,0,0
77,-538,0,0,0,0,0,0,0,0,0,-1,1301,1562,0,0
84,-538,0,0,0,0,0,0,0,0,0,-1,1308,1562,0,0
91,-538,0,0,0,0,0,0,0,0,0,-1,1315,1562,0,0
98,-538,0,0,0,0,0,0,0,0,0,-1,1322,1562,0,0
105,-538,0,0,0,0,0,0,0,0,0,-1,1329,1562,0,0
112,-538,0,0,0,0,0,0,0,0,0,-1,1336,1562,0,0
119,-538,0,0,0,0,0,0,0,0,0,-1,1343,1562,0,0
126,-538,0,0,0,0,0,0,0,0,0,-1,1350,1562,0,0
133,-538,0,0,0,0,0,0,0,0,0,-1,1357,1562,0,0
140,-538,0,0,0,0,0,0,0,0,0,-1,1364,1562,0,0
147,-538,0,0,0,0,0,0,0,0,0,-1,1371,1562,0,0
154,-538,0,0,0,0,0,0,0,0,0,-1,1378,1562,0,0
161,-538,0,0,0,0,0,0,0,0,0,-1,1385,1562,0,0
168,-538,0,0,0,0,0,0,0,0,0,-1,1392,1562,0,0
175,-538,0,0,0,0,0,0,0,0,0,-1,1399,1562,0,0
182,-538,0,0,0,0,0,0,0,0,0,-1,1406,1562,0,0
189,-538,0,0,0,0,0,0,0,0,0,-1,1413,1562,0,0
196,-538,0,0,0,0,0,0,0,0,0,-1,1420,1562,0,0
203,-538,0,0,0,0,0,0,0,0,0,-1,1427,1562,0,0
210,-538,0,0,0,0,0,0,0,0,0,-1,1434,1562,0,0
217,-538,0,0,0,0,0,0,0,0,0,-1,1441,1562,0,0
224,-538,0,0,0,0,0,0,0,0,0,-1,1448,1562,0,0
231,-538,0,0,0,0,0,0,0,0,0,-1,1455,1562,0,0
238,-538,0,0,0,0,0,0,0,0,0,-1,1462,1562,0,0
245,-538,0,0,0,0,0,0,0,0,0,-1,1469,1562,0,0
252,-538,0,0,0,0,0,0,0,0,0,-1,1476,1562,0,0
259,-538,0,0,0,0,0,0,0,0,0,-1,1483,1562,0,0
266,-538,0,0,0,0,0,0,0,0,0,-1,1490,1562,0,0
273,-538,0,0,0,0,0,0,0,0,0,-1,1497,1562,0,0
280,-538,0,0,0,0,0,0,0,0,0,-1,1504,1562,0,0
287,-538,0,0,0,0,0,0,0,0,0,-1,1511,1562,0,0
294,-538,0,0,0,0,0,0,0,0,0,-1,1518,1562,0,0
301,-538,0,0,0,0,0,0,0,0,0,-1,1525,1562,0,0
308,-538,0,0,0,0,0,0,0,0,0,-1,1532,1562,0,0
315,-538,0,0,0,0,0,0,0,0,0,-1,1539,1562,0,0
322,-538,0,0,0,0,0,0,0,0,0,-1,1546,1562,0,0
329,-538,0,0,0,0,0,0,0,0,0,-1,1553,1562,0,0
336,-538,0,0,0,0,0,0,0,0,0,-1,1560,1562,0,0
343,-538,0,0,0,0,0,0,0,0,0,-1,1567,1562,0,0
350,-538,0,0,0,0,0,0,0,0,0,-1,1574,1562,0,0
357,-538,0,0,0,0,0,0,0,0,0,-1,1581,1562,0,0
364,-538,0,0,0,0,0,0,0,0,0,-1,1588,1562,0,0
371,-538,0,0,0,0,0,0,0,0,0,-1,1595,1562,0,0
378,-538,7.65637,4.13477,0,0,0,0,0,0,0,-1,1602,1562,7.65643,-4.13477
385,-538,8.69836,7.6283,0,0,0,0,0,0,0,-1,1609,1562,8.69835,-7.62829
392,-538,8.20361,7.07214,0,0,0,0,0,0,0,-1,1616,1562,8.20362,-7.07211
399,-538,7.80615,6.35547,0,0,0,0,0,0,0,-1,1623,1562,7.80614,-6.35552
406,-538,7.2229,5.98401,0,0,0,0,0,0,0,-1,1630,1562,7.22295,-5.98397
413,-538,6.245,4.24988,0,0,0,0,0,0,0,-1,1637,1562,6.24496,-4.24988
420,-538,6.43909,7.67322,0,0,0,0,0,0,0,-1,1644,1562,6.43903,-7.6732
427,-538,6.35852,7.0697,-0.00744386,-0.0195133,-0.0208213,0.00819963,-0.0351568,-0.644346,0.0265958,0.0481149,1651,1562,6.35848,-7.0697
434,-538,6.32751,6.4425,-0.00756006,-0.022003,-0.00915975,-0.00311746,-0.0264456,-0.451587,0.0166886,0.0490155,1658,1562,6.32754,-6.4425
441,-538,6.16394,5.59045,0,0,0,0,0,0,0,-1,1665,1562,6.16394,-5.59047
448,-538,6.01343,5.32788,0,0,0,0,0,0,0,-1,1672,1562,6.01344,-5.32785
455,-538,5.35815,5.89502,0,0,0,0,0,0,0,-1,1679,1562,5.35817,-5.89505
462,-538,6.62378,4.52161,0,0,0,0,0,0,0,-1,1686,1562,6.62382,-4.52164
469,-538,6.3584,5.16064,0.0119978,-0.0317218,0.0279658,0.0256336,-0.0453576,0.453669,0.0415108,0.044086,1693,1562,6.3584,-5.16063
476,-538,6.03918,5.72034,0.0116066,-0.0284792,0.0276499,0.0257139,-0.0425865,0.471783,0.0398323,0.0414003,1700,1562,6.0392,-5.72038
483,-538,5.83093,5.99854,0,0,0,0,0,0,0,-1,1707,1562,5.83087,-5.99857
490,-538,5.75732,5.94287,0.00988228,-0.0215818,0.0247909,0.0235115,-0.035211,0.502666,0.034127,0.0124569,1714,1562,5.75738,-5.94288
497,-538,5.74475,5.85828,0.0077295,-0.0168446,0.0205428,0.0193794,-0.0284945,0.515881,0.0278065,0.0100093,1721,1562,5.74476,-5.85833
504,-538,5.72424,5.76758,0.00605381,-0.0125815,0.016348,0.015553,-0.0220807,0.52638,0.0218365,0.00928804,1728,1562,5.72422,-5.76758
511,-538,5.72229,5.65356,0.00467654,-0.009188,0.0124396,0.0119851,-0.0164965,0.531193,0.0165125,0.00989208,1735,1562,5.72235,-5.65352
518,-538,5.72559,5.54639,0.00335513,-0.00625202,0.00874715,0.00853088,-0.0114278,0.5343,0.0115635,0.0101024,1742,1562,5.72562,-5.54641
525,-538,5.72119,5.41919,0.00239228,-0.00370871,0.00546037,0.00559648,-0.00691291,0.530664,0.00723562,0.0107106,1749,1562,5.72119,-5.41914
532,-538,5.73962,5.30176,0.00164506,-0.00197411,0.00248696,0.00291112,-0.00324017,0.470884,0.00355314,0.0122783,1756,1562,5.73961,-5.3018
539,-538,5.72803,5.19873,0.000963114,-0.000905149,0.000353495,0.00102776,-0.000969797,0.180883,0.00115345,0.0156183,1763,1562,5.72797,-5.19875
546,-538,5.70154,5.09509,0.000571831,0.000452642,-0.00167665,0.00218994,-0.00116547,-0.767634,0.00196712,0.0171485,1770,1562,5.7015,-5.09511
553,-538,5.72766,4.93164,0.000766556,0.00104901,-0.00355903,0.00446962,-0.00265405,-0.805228,0.00415714,0.0244544,1777,1562,5.72767,-4.93159
560,-538,5.73035,4.83276,0.00147275,0.00187118,-0.00522946,0.00690522,-0.00356129,-0.804437,0.00614478,0.0264036,1784,1562,5.73039,-4.83274
567,-538,5.70471,4.7699,0.00214285,0.00246397,-0.00692394,0.00922921,-0.0046224,-0.796991,0.00814333,0.0192549,1791,1562,5.70475,-4.76984
574,-538,5.7384,4.67249,0.00286783,0.00310962,-0.00890013,0.0118897,-0.00591222,-0.79219,0.0104693,0.0121005,1798,1562,5.73845,-4.67249
581,-538,5.76477,4.51978,0.00380895,0.00390865,-0.0111658,0.0150247,-0.00730709,-0.78763,0.0131474,0.0142937,1805,1562,5.76476,-4.51974
588,-538,5.76208,4.34192,0.00513176,0.00487294,-0.0138571,0.0188601,-0.00885536,-0.780729,0.0163453,0.0314009,1812,1562,5.7621,-4.34196
595,-538,5.8866,4.13989,0.00680751,0.00626097,-0.0167863,0.0233228,-0.0102543,-0.777259,0.0198692,0.0449269,1819,1562,5.88665,-4.13984
602,-538,5.88806,3.98572,0,0,0,0,0,0,0,-1,1826,1562,5.88802,-3.98572
609,-538,6.724,2.84668,0,0,0,0,0,0,0,-1,1833,1562,6.72402,-2.84669
616,-538,4.13013,2.6958,0,0,0,0,0,0,0,-1,1840,1562,4.13007,-2.69579
623,-538,5.69141,1.92102,0,0,0,0,0,0,0,-1,1847,1562,5.69142,-1.92105
630,-538,7.49463,0.804932,0,0,0,0,0,0,0,-1,1854,1562,7.49462,-0.80495
637,-538,0,0,0,0,0,0,0,0,0,-1,1861,1562,0,0
644,-538,0,0,0,0,0,0,0,0,0,-1,1868,1562,0,0
651,-538,0,0,0,0,0,0,0,0,0,-1,1875,1562,0,0
658,-538,0,0,0,0,0,0,0,0,0,-1,1882,1562,0,0
665,-538,0,0,0,0,0,0,0,0,0,-1,1889,1562,0,0
672,-538,0,0,0,0,0,0,0,0,0,-1,1896,1562,0,0
679,-538,0,0,0,0,0,0,0,0,0,-1,1903,1562,0,0
686,-538,0,0,0,0,0,0,0,0,0,-1,1910,1562,0,0
693,-538,0,0,0,0,0,0,0,0,0,-1,1917,1562,0,0
700,-538,0,0,0,0,0,0,0,0,0,-1,1924,1562,0,0
707,-538,0,0,0,0,0,0,0,0,0,-1,1931,1562,0,0
714,-538,0,0,0,0,0,0,0,0,0,-1,1938,1562,0,0
721,-538,0,0,0,0,0,0,0,0,0,-1,1945,1562,0,0
728,-538,0,0,0,0,0,0,0,0,0,-1,1952,1562,0,0
735,-538,0,0,0,0,0,0,0,0,0,-1,1959,1562,0,0
742,-538,0,0,0,0,0,0,0,0,0,-1,1966,1562,0,0
749,-538,0,0,0,0,0,0,0,0,0,-1,1973,1562,0,0
756,-538,0,0,0,0,0,0,0,0,0,-1,1980,1562,0,0
763,-538,0,0,0,0,0,0,0,0,0,-1,1987,1562,0,0
770,-538,0,0,0,0,0,0,0,0,0,-1,1994,1562,0,0
777,-538,0,0,0,0,0,0,0,0,0,-1,2001,1562,0,0
784,-538,0,0,0,0,0,0,0,0,0,-1,2008,1562,0,0
791,-538,0,0,0,0,0,0,0,0,0,-1,2015,1562,0,0
798,-538,0,0,0,0,0,0,0,0,0,-1,2022,1562,0,0
805,-538,0,0,0,0,0,0,0,0,0,-1,2029,1562,0,0
812,-538,0,0,0,0,0,0,0,0,0,-1,2036,1562,0,0
-700,-545,0,0,0,0,0,0,0,0,0,-1,524,1569,0,0
-693,-545,0,0,0,0,0,0,0,0,0,-1,531,1569,0,0
-686,-545,0,0,0,0,0,0,0,0,0,-1,538,1569,0,0
-679,-545,0,0,0,0,0,0,0,0,0,-1,545,1569,0,0
-672,-545,0,0,0,0,0,0,0,0,0,-1,552,1569,0,0
-665,-545,0,0,0,0,0,0,0,0,0,-1,559,1569,0,0
-658,-545,0,0,0,0,0,0,0,0,0,-1,566,1569,0,0
-651,-545,0,0,0,0,0,0,0,0,0,-1,573,1569,0,0
-644,-545,0,0,0,0,0,0,0,0,0,-1,580,1569,0,0
-637,-545,0,0,0,0,0,0,0,0,0,-1,587,1569,0,0
-630,-545,0,0,0,0,0,0,0,0,0,-1,594,1569,0,0
-623,-545,0,0,0,0,0,0,0,0,0,-1,601,1569,0,0
-616,-545,0,0,0,0,0,0,0,0,0,-1,608,1569,0,0
-609,-545,0,0,0,0,0,0,0,0,0,-1,615,1569,0,0
-602,-545,0,0,0,0,0,0,0,0,0,-1,622,1569,0,0
-595,-545,0,0,0,0,0,0,0,0,0,-1,629,1569,0,0
-588,-545,0,0,0,0,0,0,0,0,0,-1,636,1569,0,0
-581,-545,0,0,0,0,0,0,0,0,0,-1,643,1569,0,0
-574,-545,0,0,0,0,0,0,0,0,0,-1,650,1569,0,0
-567,-545,0,0,0,0,0,0,0,0,0,-1,657,1569,0,0
-560,-545,0,0,0,0,0,0,0,0,0,-1,664,1569,0,0
-553,-545,0,0,0,0,0,0,0,0,0,-1,671,1569,0,0
-546,-545,0,0,0,0,0,0,0,0,0,-1,678,1569,0,0
-539,-545,0,0,0,0,0,0,0,0,0,-1,685,1569,0,0
-532,-545,0,0,0,0,0,0,0,0,0,-1,692,1569,0,0
-525,-545,0,0,0,0,0,0,0,0,0,-1,699,1569,0,0
-518,-545,0,0,0,0,0,0,0,0,0,-1,706,1569,0,0
-511,-545,0,0,0,0,0,0,0,0,0,-1,713,1569,0,0
-504,-545,-1.59235,3.19678,0,0,0,0,0,0,0,-1,720,1569,-1.59235,-3.19673
-497,-545,-2.60529,2.47607,0,0,0,0,0,0,0,-1,727,1569,-2.6053,-2.47604
-490,-545,0.137451,6.56543,0,0,0,0,0,0,0,-1,734,1569,0.137444,-6.56545
-483,-545,0.222839,6.21082,0,0,0,0,0,0,0,-1,741,1569,0.222818,-6.21079
-476,-545,0.981873,2.77502,0,0,0,0,0,0,0,-1,748,1569,0.981898,-2.77505
-469,-545,0.822815,4.14624,0,0,0,0,0,0,0,-1,755,1569,0.82282,-4.14622
-462,-545,0.749451,3.96692,0,0,0,0,0,0,0,-1,762,1569,0.749458,-3.96697
-455,-545,1.11536,3.49561,0,0,0,0,0,0,0,-1,769,1569,1.11537,-3.49563
-448,-545,1.19983,3.63196,-0.00136756,0.00314746,0.00150631,0.00360386,-0.00182396,1.2766,0.00318942,0.027373,776,1569,1.19986,-3.63197
-441,-545,1.15979,3.82178,-0.00085558,0.00356131,0.00156825,0.00406149,-0.00135576,1.26206,0.00325509,0.01585,783,1569,1.15978,-3.82179
-434,-545,1.12048,3.95532,-0.000463116,0.00337704,0.00157623,0.00394116,-0.00102723,1.22711,0.00302848,0.0123832,790,1569,1.12046,-3.95531
-427,-545,1.11432,4.08154,-0.000200395,0.00301061,0.00131973,0.0034834,-0.00067319,1.22679,0.00257615,0.0163878,797,1569,1.11434,-4.08153
-420,-545,1.10608,4.20764,-0.000137182,0.00254403,0.00101671,0.00288596,-0.000479113,1.24637,0.00210196,0.0223895,804,1569,1.10609,-4.20759
-413,-545,1.09723,4.34009,-0.000227827,0.00224693,0.000763315,0.00246342,-0.000444325,1.29443,0.00180868,0.0220828,811,1569,1.09725,-4.34012
-406,-545,1.13306,4.41406,-0.000537664,0.00164244,0.000472639,0.00174049,-0.00063572,1.36623,0.00142047,0.0170722,818,1569,1.13308,-4.41407
-399,-545,1.15002,4.52527,-0.000784917,0.000994665,0.000349519,0.00106085,-0.000851103,1.38365,0.00110608,0.0109726,825,1569,1.15002,-4.52524
-392,-545,1.14362,4.6698,-0.000823616,0.000688839,0.000349438,0.00076567,-0.000900447,1.35437,0.000962982,0.0112521,832,1569,1.14361,-4.6698
-385,-545,1.1452,4.81055,-0.000830586,0.00126273,0.000615056,0.00143007,-0.000997924,1.30516,0.00140918,0.00962009,839,1569,1.1452,-4.81052
-378,-545,1.12476,4.92615,-0.000527785,0.00212036,0.000748741,0.0023174,-0.000724824,1.31347,0.0018349,0.0121552,846,1569,1.12474,-4.92621
-371,-545,1.09009,5.04175,0.000122378,0.0039133,0.000963193,0.00414399,-0.000108311,1.33572,0.00279946,0.0151069,853,1569,1.09007,-5.04179
-364,-545,1.13135,5.15759,0.000982198,0.00599581,0.00140053,0.00636051,0.000617494,1.31605,0.00405023,0.00924143,860,1569,1.13135,-5.15754
-357,-545,1.14063,5.27136,0.00221695,0.00871224,0.00177191,0.00916417,0.00176501,1.32107,0.00561436,0.00987232,867,1569,1.14063,-5.27134
-350,-545,1.13898,5.38989,0.00382367,0.0119415,0.0020703,0.012439,0.00332617,1.33496,0.00743616,0.015027,874,1569,1.13897,-5.38993
-343,-545,1.09521,5.50574,0.00590636,0.0157723,0.00205443,0.016183,0.00549566,1.37348,0.00950216,0.0251273,881,1569,1.09521,-5.50573
-336,-545,1.06409,5.59521,0.00866608,0.0196975,0.00211047,0.0200875,0.00827611,1.38808,0.0116572,0.0324589,888,1569,1.06406,-5.5952
-329,-545,0.871399,5.74341,0.0115649,0.0243154,0.00160427,0.0245142,0.0113661,1.44754,0.0141657,0.0391725,895,1569,0.871386,-5.74335
-322,-545,4.73328,5.89209,0,0,0,0,0,0,0,-1,902,1569,4.7333,-5.89211
-315,-545,1.31439,5.74194,0,0,0,0,0,0,0,-1,909,1569,1.31439,-5.74198
-308,-545,3.7417,6.3689,0,0,0,0,0,0,0,-1,916,1569,3.74169,-6.36887
-301,-545,4.40234,6.40186,0,0,0,0,0,0,0,-1,923,1569,4.40237,-6.40189
-294,-545,4.83228,6.73596,0,0,0,0,0,0,0,-1,930,1569,4.83229,-6.73595
-287,-545,5.32678,7.29541,0,0,0,0,0,0,0,-1,937,1569,5.32675,-7.29545
-280,-545,-4.43591,-2.41907,0,0,0,0,0,0,0,-1,944,1569,-4.43594,2.4191
-273,-545,-3.94476,-1.00256,0,0,0,0,0,0,0,-1,951,1569,-3.94474,1.0026
-266,-545,-3.42291,0.711548,0,0,0,0,0,0,0,-1,958,1569,-3.42289,-0.711503
-259,-545,-2.57837,2.41602,0,0,0,0,0,0,0,-1,965,1569,-2.57836,-2.41602
-252,-545,-1.94031,3.99524,0,0,0,0,0,0,0,-1,972,1569,-1.9403,-3.99529
-245,-545,-2.40717,1.64893,0,0,0,0,0,0,0,-1,979,1569,-2.40716,-1.64894
-238,-545,0,0,0,0,0,0,0,0,0,-1,986,1569,0,0
-231,-545,0,0,0,0,0,0,0,0,0,-1,993,1569,0,0
-224,-545,0,0,0,0,0,0,0,0,0,-1,1000,1569,0,0
-217,-545,0,0,0,0,0,0,0,0,0,-1,1007,1569,0,0
-210,-545,0,0,0,0,0,0,0,0,0,-1,1014,1569,0,0
-203,-545,0,0,0,0,0,0,0,0,0,-1,1021,1569,0,0
-196,-545,0,0,0,0,0,0,0,0,0,-1,1028,1569,0,0
-189,-545,0,0,0,0,0,0,0,0,0,-1,1035,1569,0,0
-182,-545,0,0,0,0,0,0,0,0,0,-1,1042,1569,0,0
-175,-545,0,0,0,0,0,0,0,0,0,-1,1049,1569,0,0
-168,-545,0,0,0,0,0,0,0,0,0,-1,1056,1569,0,0
-161,-545,0,0,0,0,0,0,0,0,0,-1,1063,1569,0,0
-154,-545,0,0,0,0,0,0,0,0,0,-1,1070,1569,0,0
-147,-545,0,0,0,0,0,0,0,0,0,-1,1077,1569,0,0
-140,-545,0,0,0,0,0,0,0,0,0,-1,1084,1569,0,0
-133,-545,0,0,0,0,0,0,0,0,0,-1,1091,1569,0,0
-126,-545,0,0,0,0,0,0,0,0,0,-1,1098,1569,0,0
-119,-545,0,0,0,0,0,0,0,0,0,-1,1105,1569,0,0
-112,-545,0,0,0,0,0,0,0,0,0,-1,1112,1569,0,0
-105,-545,0,0,0,0,0,0,0,0,0,-1,1119,1569,0,0
-98,-545,0,0,0,0,0,0,0,0,0,-1,1126,1569,0,0
-91,-545,0,0,0,0,0,0,0,0,0,-1,1133,1569,0,0
-84,-545,0,0,0,0,0,0,0,0,0,-1,1140,1569,0,0
-77,-545,0,0,0,0,0,0,0,0,0,-1,1147,1569,0,0
-70,-545,0,0,0,0,0,0,0,0,0,-1,1154,1569,0,0
-63,-545,0,0,0,0,0,0,0,0,0,-1,1161,1569,0,0
-56,-545,0,0,0,0,0,0,0,0,0,-1,1168,1569,0,0
-49,-545,0,0,0,0,0,0,0,0,0,-1,1175,1569,0,0
-42,-545,0,0,0,0,0,0,0,0,0,-1,1182,1569,0,0
-35,-545,0,0,0,0,0,0,0,0,0,-1,1189,1569,0,0
-28,-545,0,0,0,0,0,0,0,0,0,-1,1196,1569,0,0
-21,-545,0,0,0,0,0,0,0,0,0,-1,1203,1569,0,0
-14,-545,0,0,0,0,0,0,0,0,0,-1,1210,1569,0,0
-7,-545,0,0,0,0,0,0,0,0,0,-1,1217,1569,0,0
0,-545,0,0,0,0,0,0,0,0,0,-1,1224,1569,0,0
7,-545,0,0,0,0,0,0,0,0,0,-1,1231,1569,0,0
14,-545,0,0,0,0,0,0,0,0,0,-1,1238,1569,0,0
21,-545,0,0,0,0,0,0,0,0,0,-1,1245,1569,0,0
28,-545,0,0,0,0,0,0,0,0,0,-1,1252,1569,0,0
35,-545,0,0,0,0,0,0,0,0,0,-1,1259,1569,0,0
42,-545,0,0,0,0,0,0,0,0,0,-1,1266,1569,0,0
49,-545,0,0,0,0,0,0,0,0,0,-1,1273,1569,0,0
56,-545,0,0,0,0,0,0,0,0,0,-1,1280,1569,0,0
63,-545,0,0,0,0,0,0,0,0,0,-1,1287,1569,0,0
70,-545,0,0,0,0,0,0,0,0,0,-1,1294,1569,0,0
77,-545,0,0,0,0,0,0,0,0,0,-1,1301,1569,0,0
84,-545,0,0,0,0,0,0,0,0,0,-1,1308,1569,0,0
91,-545,0,0,0,0,0,0,0,0,0,-1,1315,1569,0,0
98,-545,0,0,0,0,0,0,0,0,0,-1,1322,1569,0,0
105,-545,0,0,0,0,0,0,0,0,0,-1,1329,1569,0,0
112,-545,0,0,0,0,0,0,0,0,0,-1,1336,1569,0,0
119,-545,0,0,0,0,0,0,0,0,0,-1,1343,1569,0,0
126,-545,0,0,0,0,0,0,0,0,0,-1,1350,1569,0,0
133,-545,0,0,0,0,0,0,0,0,0,-1,1357,1569,0,0
140,-545,0,0,0,0,0,0,0,0,0,-1,1364,1569,0,0
147,-545,0,0,0,0,0,0,0,0,0,-1,1371,1569,0,0
154,-545,0,0,0,0,0,0,0,0,0,-1,1378,1569,0,0
161,-545,0,0,0,0,0,0,0,0,0,-1,1385,1569,0,0
168,-545,0,0,0,0,0,0,0,0,0,-1,1392,1569,0,0
175,-545,0,0,0,0,0,0,0,0,0,-1,1399,1569,0,0
182,-545,0,0,0,0,0,0,0,0,0,-1,1406,1569,0,0
189,-545,0,0,0,0,0,0,0,0,0,-1,1413,1569,0,0
196,-545,0,0,0,0,0,0,0,0,0,-1,1420,1569,0,0
203,-545,0,0,0,0,0,0,0,0,0,-1,1427,1569,0,0
210,-545,0,0,0,0,0,0,0,0,0,-1,1434,1569,0,0
217,-545,0,0,0,0,0,0,0,0,0,-1,1441,1569,0,0
224,-545,0,0,0,0,0,0,0,0,0,-1,1448,1569,0,0
231,-545,0,0,0,0,0,0,0,0,0,-1,1455,1569,0,0
238,-545,0,0,0,0,0,0,0,0,0,-1,1462,1569,0,0
245,-545,0,0,0,0,0,0,0,0,0,-1,1469,1569,0,0
252,-545,0,0,0,0,0,0,0,0,0,-1,1476,1569,0,0
259,-545,0,0,0,0,0,0,0,0,0,-1,1483,1569,0,0
266,-545,0,0,0,0,0,0,0,0,0,-1,1490,1569,0,0
273,-545,0,0,0,0,0,0,0,0,0,-1,1497,1569,0,0
280,-545,0,0,0,0,0,0,0,0,0,-1,1504,1569,0,0
287,-545,0,0,0,0,0,0,0,0,0,-1,1511,1569,0,0
294,-545,0,0,0,0,0,0,0,0,0,-1,1518,1569,0,0
301,-545,0,0,0,0,0,0,0,0,0,-1,1525,1569,0,0
308,-545,0,0,0,0,0,0,0,0,0,-1,1532,1569,0,0
315,-545,0,0,0,0,0,0,0,0,0,-1,1539,1569,0,0
322,-545,0,0,0,0,0,0,0,0,0,-1,1546,1569,0,0
329,-545,0,0,0,0,0,0,0,0,0,-1,1553,1569,0,0
336,-545,0,0,0,0,0,0,0,0,0,-1,1560,1569,0,0
343,-545,0,0,0,0,0,0,0,0,0,-1,1567,1569,0,0
350,-545,0,0,0,0,0,0,0,0,0,-1,1574,1569,0,0
357,-545,0,0,0,0,0,0,0,0,0,-1,1581,1569,0,0
364,-545,5.47632,4.19043,0,0,0,0,0,0,0,-1,1588,1569,5.47628,-4.19048
371,-545,7.62146,5.18079,0,0,0,0,0,0,0,-1,1595,1569,7.62146,-5.1808
378,-545,7.24146,4.54224,0,0,0,0,0,0,0,-1,1602,1569,7.24145,-4.54226
385,-545,8.58447,1.16125,0,0,0,0,0,0,0,-1,1609,1569,8.5845,-1.1612
392,-545,7.91272,6.36743,0,0,0,0,0,0,0,-1,1616,1569,7.91276,-6.36745
399,-545,7.62476,5.90527,0,0,0,0,0,0,0,-1,1623,1569,7.62481,-5.90528
406,-545,7.15771,6.71387,0,0,0,0,0,0,0,-1,1630,1569,7.15766,-6.71386
413,-545,6.84534,8.04944,0,0,0,0,0,0,0,-1,1637,1569,6.84528,-8.04942
420,-545,6.1709,7.48792,0,0,0,0,0,0,0,-1,1644,1569,6.1709,-7.48797
427,-545,5.91125,7.26404,-0.00375184,-0.0196003,-0.0148594,0.00516417,-0.0285163,-0.540439,0.0209456,0.0478959,1651,1569,5.9113,-7.2641
434,-545,5.24805,5.38074,-0.00425771,-0.0200817,-0.00713448,-0.00151605,-0.0228234,-0.366884,0.0147363,0.0497864,1658,1569,5.248,-5.3807
441,-545,5.38721,5.67114,-0.00087505,-0.0251113,0.000976108,-0.000835801,-0.0251506,0.040188,0.0164955,0.0479263,1665,1569,5.38722,-5.67117
448,-545,5.70044,5.73035,0.00312308,-0.0251176,0.00893204,0.00571098,-0.0277055,0.28201,0.0206391,0.0474926,1672,1569,5.70042,-5.73041
455,-545,5.43201,6.11084,0.0044464,-0.0242001,0.0136096,0.00988109,-0.0296348,0.379927,0.0237457,0.0450066,1679,1569,5.432,-6.11079
462,-545,5.54932,6.26001,0,0,0,0,0,0,0,-1,1686,1569,5.54927,-6.25997
469,-545,5.86218,5.65356,0,0,0,0,0,0,0,-1,1693,1569,5.86213,-5.65351
476,-545,5.73059,5.85559,0,0,0,0,0,0,0,-1,1700,1569,5.73063,-5.85557
483,-545,5.61353,6.04089,0.00587751,-0.0144622,0.0174982,0.0159465,-0.0245313,0.522159,0.0235444,0.0124583,1707,1569,5.61352,-6.04095
490,-545,5.63269,5.94885,0.0053759,-0.0123676,0.0159948,0.0147946,-0.0217864,0.53219,0.0212482,0.0108461,1714,1569,5.63271,-5.94889
497,-545,5.64722,5.85828,0.00423973,-0.0091852,0.0131388,0.0122815,-0.0172269,0.549239,0.0171163,0.0163445,1721,1569,5.64723,-5.85828
504,-545,5.64197,5.75378,0.00349724,-0.00637092,0.0103095,0.00999255,-0.0128662,0.562209,0.0132322,0.0151311,1728,1569,5.64192,-5.75381
511,-545,5.61951,5.63965,0.00298371,-0.00427277,0.00761636,0.00779188,-0.00908094,0.563114,0.009751,0.0109338,1735,1569,5.61955,-5.63967
518,-545,5.61572,5.54749,0.00246794,-0.00240819,0.004856,0.00546356,-0.0054038,0.552746,0.0062743,0.0118838,1742,1569,5.61571,-5.54751
525,-545,5.62036,5.42249,0.00212841,-0.000687675,0.00218367,0.00331863,-0.0018779,0.499041,0.00303841,0.0126742,1749,1569,5.62033,-5.42252
532,-545,5.61218,5.302,0.00177711,0.000511238,-0.000474815,0.00193541,0.000352936,-0.321808,0.0011902,0.0134269,1756,1569,5.61214,-5.302
539,-545,5.61694,5.16138,0.001394,0.00118412,-0.00258526,0.00387645,-0.00129833,-0.765113,0.0031088,0.0161744,1763,1569,5.61697,-5.16139
546,-545,5.61487,5.0304,0.00132669,0.00223383,-0.00480909,0.00661069,-0.00305017,-0.832417,0.00570257,0.0178363,1770,1569,5.61481,-5.03037
553,-545,5.65381,4.88599,0.00165708,0.00303517,-0.00718318,0.00956227,-0.00487002,-0.833214,0.00847801,0.0243757,1777,1569,5.65381,-4.88604
560,-545,5.66357,4.77026,0.00224283,0.00427489,-0.00969809,0.01301,-0.00649231,-0.837591,0.0114674,0.0241945,1784,1569,5.66356,-4.77028
567,-545,5.59802,4.7301,0.00279219,0.00540332,-0.0124253,0.0165914,-0.00839591,-0.837743,0.0146828,0.0263215,1791,1569,5.59805,-4.73014
574,-545,5.56738,4.63354,0.00344612,0.00669038,-0.0155697,0.0207222,-0.0105857,-0.837303,0.0183887,0.0256171,1798,1569,5.56738,-4.6335
581,-545,5.55652,4.54089,0.00436517,0.00822291,-0.0190822,0.0254735,-0.0128854,-0.835768,0.0225405,0.0380641,1805,1569,5.55647,-4.54088
588,-545,5.51965,4.44836,0,0,0,0,0,0,0,-1,1812,1569,5.51964,-4.44842
595,-545,5.9137,3.99292,0,0,0,0,0,0,0,-1,1819,1569,5.91364,-3.99288
602,-545,5.17566,3.40002,0,0,0,0,0,0,0,-1,1826,1569,5.17563,-3.40008
609,-545,4.51929,2.84827,0,0,0,0,0,0,0,-1,1833,1569,4.51933,-2.84822
616,-545,4.9375,2.3988,0,0,0,0,0,0,0,-1,1840,1569,4.9375,-2.39886
623,-545,5.30322,1.9928,0,0,0,0,0,0,0,-1,1847,1569,5.30328,-1.99275
630,-545,0,0,0,0,0,0,0,0,0,-1,1854,1569,0,0
637,-545,0,0,0,0,0,0,0,0,0,-1,1861,1569,0,0
644,-545,0,0,0,0,0,0,0,0,0,-1,1868,1569,0,0
651,-545,0,0,0,0,0,0,0,0,0,-1,1875,1569,0,0
658,-545,0,0,0,0,0,0,0,0,0,-1,1882,1569,0,0
665,-545,0,0,0,0,0,0,0,0,0,-1,1889,1569,0,0
672,-545,0,0,0,0,0,0,0,0,0,-1,1896,1569,0,0
679,-545,0,0,0,0,0,0,0,0,0,-1,1903,1569,0,0
686,-545,0,0,0,0,0,0,0,0,0,-1,1910,1569,0,0
693,-545,0,0,0,0,0,0,0,0,0,-1,1917,1569,0,0
700,-545,0,0,0,0,0,0,0,0,0,-1,1924,1569,0,0
707,-545,0,0,0,0,0,0,0,0,0,-1,1931,1569,0,0
714,-545,0,0,0,0,0,0,0,0,0,-1,1938,1569,0,0
721,-545,0,0,0,0,0,0,0,0,0,-1,1945,1569,0,0
728,-545,0,0,0,0,0,0,0,0,0,-1,1952,1569,0,0
735,-545,0,0,0,0,0,0,0,0,0,-1,1959,1569,0,0
742,-545,0,0,0,0,0,0,0,0,0,-1,1966,1569,0,0
749,-545,0,0,0,0,0,0,0,0,0,-1,1973,1569,0,0
756,-545,0,0,0,0,0,0,0,0,0,-1,1980,1569,0,0
763,-545,0,0,0,0,0,0,0,0,0,-1,1987,1569,0,0
770,-545,0,0,0,0,0,0,0,0,0,-1,1994,1569,0,0
777,-545,0,0,0,0,0,0,0,0,0,-1,2001,1569,0,0
784,-545,0,0,0,0,0,0,0,0,0,-1,2008,1569,0,0
791,-545,0,0,0,0,0,0,0,0,0,-1,2015,1569,0,0
798,-545,0,0,0,0,0,0,0,0,0,-1,2022,1569,0,0
805,-545,0,0,0,0,0,0,0,0,0,-1,2029,1569,0,0
812,-545,0,0,0,0,0,0,0,0,0,-1,2036,1569,0,0
-700,-552,0,0,0,0,0,0,0,0,0,-1,524,1576,0,0
-693,-552,0,0,0,0,0,0,0,0,0,-1,531,1576,0,0
-686,-552,0,0,0,0,0,0,0,0,0,-1,538,1576,0,0
-679,-552,0,0,0,0,0,0,0,0,0,-1,545,1576,0,0
-672,-552,0,0,0,0,0,0,0,0,0,-1,552,1576,0,0
-665,-552,0,0,0,0,0,0,0,0,0,-1,559,1576,0,0
-658,-552,0,0,0,0,0,0,0,0,0,-1,566,1576,0,0
-651,-552,0,0,0,0,0,0,0,0,0,-1,573,1576,0,0
-644,-552,0,0,0,0,0,0,0,0,0,-1,580,1576,0,0
-637,-552,0,0,0,0,0,0,0,0,0,-1,587,1576,0,0
-630,-552,0,0,0,0,0,0,0,0,0,-1,594,1576,0,0
-623,-552,0,0,0,0,0,0,0,0,0,-1,601,1576,0,0
-616,-552,0,0,0,0,0,0,0,0,0,-1,608,1576,0,0
-609,-552,0,0,0,0,0,0,0,0,0,-1,615,1576,0,0
-602,-552,0,0,0,0,0,0,0,0,0,-1,622,1576,0,0
-595,-552,0,0,0,0,0,0,0,0,0,-1,629,1576,0,0
-588,-552,0,0,0,0,0,0,0,0,0,-1,636,1576,0,0
-581,-552,0,0,0,0,0,0,0,0,0,-1,643,1576,0,0
-574,-552,0,0,0,0,0,0,0,0,0,-1,650,1576,0,0
-567,-552,0,0,0,0,0,0,0,0,0,-1,657,1576,0,0
-560,-552,0,0,0,0,0,0,0,0,0,-1,664,1576,0,0
-553,-552,0,0,0,0,0,0,0,0,0,-1,671,1576,0,0
-546,-552,0,0,0,0,0,0,0,0,0,-1,678,1576,0,0
-539,-552,0,0,0,0,0,0,0,0,0,-1,685,1576,0,0
-532,-552,0,0,0,0,0,0,0,0,0,-1,692,1576,0,0
-525,-552,0,0,0,0,0,0,0,0,0,-1,699,1576,0,0
-518,-552,0,0,0,0,0,0,0,0,0,-1,706,1576,0,0
-511,-552,0,0,0,0,0,0,0,0,0,-1,713,1576,0,0
-504,-552,0,0,0,0,0,0,0,0,0,-1,720,1576,0,0
-497,-552,-0.260986,6.17261,0,0,0,0,0,0,0,-1,727,1576,-0.261013,-6.1726
-490,-552,-0.0143433,6.00854,0,0,0,0,0,0,0,-1,734,1576,-0.0143295,-6.00859
-483,-552,0.188904,5.77026,0,0,0,0,0,0,0,-1,741,1576,0.188889,-5.77024
-476,-552,0.304138,5.54553,0,0,0,0,0,0,0,-1,748,1576,0.304144,-5.54549
-469,-552,0.555237,5.11755,0,0,0,0,0,0,0,-1,755,1576,0.555229,-5.11755
-462,-552,0.529236,3.94617,0,0,0,0,0,0,0,-1,762,1576,0.529248,-3.94611
-455,-552,1.7547,3.15454,0,0,0,0,0,0,0,-1,769,1576,1.7547,-3.1545
-448,-552,1.45398,3.37659,0.00387537,0.0080758,0.00265168,0.00935824,0.00259293,1.12033,0.00557911,0.0425902,776,1576,1.45397,-3.37657
-441,-552,1.33319,3.68848,0.00346747,0.00777777,0.00245432,0.00888887,0.00235637,1.14569,0.00531744,0.0338096,783,1576,1.33317,-3.6885
-434,-552,1.27112,3.94067,0.0030009,0.0069497,0.0022198,0.00794611,0.00200448,1.14888,0.00477172,0.0182257,790,1576,1.2711,-3.9407
-427,-552,1.23737,4.05237,0.00250133,0.00597849,0.00175762,0.00671213,0.00176769,1.17538,0.00401732,0.0143951,797,1576,1.23738,-4.05235
-420,-552,1.2583,4.19897,0.00193844,0.00496584,0.00127459,0.005431,0.00147329,1.22087,0.0032431,0.0175844,804,1576,1.25832,-4.19896
-413,-552,1.25525,4.31641,0.00135187,0.00422065,0.000892845,0.00447583,0.00109669,1.29241,0.0026938,0.0169479,811,1576,1.25525,-4.31637
-406,-552,1.23975,4.40796,0.000663518,0.00324105,0.000512888,0.00333936,0.000565211,1.38142,0.0020638,0.0140165,818,1576,1.23975,-4.40791
-399,-552,1.24799,4.53552,0.000129461,0.00226701,0.000298564,0.00230792,8.85418e-05,1.43459,0.00150997,0.0135544,825,1576,1.24797,-4.53553
-392,-552,1.23486,4.6626,-8.411e-05,0.00163434,0.000201897,0.00165775,-0.000107512,1.4554,0.00114269,0.0142971,832,1576,1.23485,-4.66262
-385,-552,1.25348,4.80847,-0.000262127,0.00173946,0.000316856,0.00178842,-0.000311089,1.41749,0.00130836,0.0127901,839,1576,1.25345,-4.80849
-378,-552,1.24005,4.91052,-0.000101814,0.00211093,0.000375322,0.00217286,-0.000163743,1.40727,0.00150612,0.0146728,846,1576,1.24005,-4.91052
-371,-552,1.2251,5.03943,0.000460472,0.00337704,0.000555136,0.00347913,0.000358381,1.38893,0.00220967,0.0198274,853,1576,1.22509,-5.03943
-364,-552,1.24744,5.14917,0.00117592,0.00482888,0.000945101,0.00505891,0.000945884,1.33204,0.0031057,0.0152968,860,1576,1.24744,-5.14914
-357,-552,1.25513,5.26355,0.00218353,0.00669489,0.00125952,0.00702272,0.00185571,1.31617,0.00420212,0.00981128,867,1576,1.25516,-5.2636
-350,-552,1.26154,5.39319,0.00341645,0.00882785,0.00152401,0.00922753,0.00301677,1.31431,0.00543286,0.00914328,874,1576,1.26152,-5.39318
-343,-552,1.25708,5.51318,0.0049402,0.0112315,0.00152406,0.0115813,0.00459045,1.34521,0.00673416,0.00968256,881,1576,1.25706,-5.51322
-336,-552,1.26111,5.59937,0.006822,0.01342,0.00168249,0.0138243,0.00641773,1.33499,0.00798825,0.013986,888,1576,1.26112,-5.5994
-329,-552,1.30035,5.78284,0.00866095,0.0161955,0.00134175,0.0164273,0.00842914,1.39972,0.00948539,0.0298909,895,1576,1.30038,-5.78284
-322,-552,1.4762,6.06824,0.0110777,0.0185083,0.000427897,0.0185329,0.0110531,1.51346,0.0107661,0.0486979,902,1576,1.47619,-6.06822
-315,-552,1.67065,6.09924,0,0,0,0,0,0,0,-1,909,1576,1.67067,-6.09928
-308,-552,3.00549,6.10327,0,0,0,0,0,0,0,-1,916,1576,3.00549,-6.10324
-301,-552,3.47986,6.28784,0,0,0,0,0,0,0,-1,923,1576,3.47984,-6.28789
-294,-552,3.72571,6.08081,0,0,0,0,0,0,0,-1,930,1576,3.72573,-6.08077
-287,-552,3.70581,6.10852,0,0,0,0,0,0,0,-1,937,1576,3.70578,-6.10848
-280,-552,-0.316711,6.32776,0,0,0,0,0,0,0,-1,944,1576,-0.316723,-6.3277
-273,-552,-4.29285,-1.70056,0,0,0,0,0,0,0,-1,951,1576,-4.29287,1.7005
-266,-552,-3.9538,0.198242,0,0,0,0,0,0,0,-1,958,1576,-3.9538,-0.198254
-259,-552,-3.34406,1.74341,0,0,0,0,0,0,0,-1,965,1576,-3.34405,-1.74342
-252,-552,-2.73431,3.28857,0,0,0,0,0,0,0,-1,972,1576,-2.7343,-3.28858
-245,-552,-2.65497,1.65137,0,0,0,0,0,0,0,-1,979,1576,-2.65496,-1.65141
-238,-552,-2.04474,1.87451,0,0,0,0,0,0,0,-1,986,1576,-2.04473,-1.87452
-231,-552,-2.03931,2.02283,0,0,0,0,0,0,0,-1,993,1576,-2.03933,-2.02287
-224,-552,0,0,0,0,0,0,0,0,0,-1,1000,1576,0,0
-217,-552,0,0,0,0,0,0,0,0,0,-1,1007,1576,0,0
-210,-552,0,0,0,0,0,0,0,0,0,-1,1014,1576,0,0
-203,-552,0,0,0,0,0,0,0,0,0,-1,1021,1576,0,0
-196,-552,0,0,0,0,0,0,0,0,0,-1,1028,1576,0,0
-189,-552,0,0,0,0,0,0,0,0,0,-1,1035,1576,0,0
-182,-552,0,0,0,0,0,0,0,0,0,-1,1042,1576,0,0
-175,-552,0,0,0,0,0,0,0,0,0,-1,1049,1576,0,0
-168,-552,0,0,0,0,0,0,0,0,0,-1,1056,1576,0,0
-161,-552,0,0,0,0,0,0,0,0,0,-1,1063,1576,0,0
-154,-552,0,0,0,0,0,0,0,0,0,-1,1070,1576,0,0
-147,-552,0,0,0,0,0,0,0,0,0,-1,1077,1576,0,0
-140,-552,0,0,0,0,0,0,0,0,0,-1,1084,1576,0,0
-133,-552,0,0,0,0,0,0,0,0,0,-1,1091,1576,0,0
-126,-552,0,0,0,0,0,0,0,0,0,-1,1098,1576,0,0
-119,-552,0,0,0,0,0,0,0,0,0,-1,1105,1576,0,0
-112,-552,0,0,0,0,0,0,0,0,0,-1,1112,1576,0,0
-105,-552,0,0,0,0,0,0,0,0,0,-1,1119,1576,0,0
-98,-552,0,0,0,0,0,0,0,0,0,-1,1126,1576,0,0
-91,-552,0,0,0,0,0,0,0,0,0,-1,1133,1576,0,0
-84,-552,0,0,0,0,0,0,0,0,0,-1,1140,1576,0,0
-77,-552,0,0,0,0,0,0,0,0,0,-1,1147,1576,0,0
-70,-552,0,0,0,0,0,0,0,0,0,-1,1154,1576,0,0
-63,-552,0,0,0,0,0,0,0,0,0,-1,1161,1576,0,0
-56,-552,0,0,0,0,0,0,0,0,0,-1,1168,1576,0,0
-49,-552,0,0,0,0,0,0,0,0,0,-1,1175,1576,0,0
-42,-552,0,0,0,0,0,0,0,0,0,-1,1182,1576,0,0
-35,-552,0,0,0,0,0,0,0,0,0,-1,1189,1576,0,0
-28,-552,0,0,0,0,0,0,0,0,0,-1,1196,1576,0,0
-21,-552,0,0,0,0,0,0,0,0,0,-1,1203,1576,0,0
-14,-552,0,0,0,0,0,0,0,0,0,-1,1210,1576,0,0
-7,-552,0,0,0,0,0,0,0,0,0,-1,1217,1576,0,0
0,-552,0,0,0,0,0,0,0,0,0,-1,1224,1576,0,0
7,-552,0,0,0,0,0,0,0,0,0,-1,1231,1576,0,0
14,-552,0,0,0,0,0,0,0,0,0,-1,1238,1576,0,0
21,-552,0,0,0,0,0,0,0,0,0,-1,1245,1576,0,0
28,-552,0,0,0,0,0,0,0,0,0,-1,1252,1576,0,0
35,-552,0,0,0,0,0,0,0,0,0,-1,1259,1576,0,0
42,-552,0,0,0,0,0,0,0,0,0,-1,1266,1576,0,0
49,-552,0,0,0,0,0,0,0,0,0,-1,1273,1576,0,0
56,-552,0,0,0,0,0,0,0,0,0,-1,1280,1576,0,0
63,-552,0,0,0,0,0,0,0,0,0,-1,1287,1576,0,0
70,-552,0,0,0,0,0,0,0,0,0,-1,1294,1576,0,0
77,-552,0,0,0,0,0,0,0,0,0,-1,1301,1576,0,0
84,-552,0,0,0,0,0,0,0,0,0,-1,1308,1576,0,0
91,-552,0,0,0,0,0,0,0,0,0,-1,1315,1576,0,0
98,-552,0,0,0,0,0,0,0,0,0,-1,1322,1576,0,0
105,-552,0,0,0,0,0,0,0,0,0,-1,1329,1576,0,0
112,-552,0,0,0,0,0,0,0,0,0,-1,1336,1576,0,0
119,-552,0,0,0,0,0,0,0,0,0,-1,1343,1576,0,0
126,-552,0,0,0,0,0,0,0,0,0,-1,1350,1576,0,0
133,-552,0,0,0,0,0,0,0,0,0,-1,1357,1576,0,0
140,-552,0,0,0,0,0,0,0,0,0,-1,1364,1576,0,0
147,-552,0,0,0,0,0,0,0,0,0,-1,1371,1576,0,0
154,-552,0,0,0,0,0,0,0,0,0,-1,1378,1576,0,0
161,-552,0,0,0,0,0,0,0,0,0,-1,1385,1576,0,0
168,-552,0,0,0,0,0,0,0,0,0,-1,1392,1576,0,0
175,-552,0,0,0,0,0,0,0,0,0,-1,1399,1576,0,0
182,-552,0,0,0,0,0,0,0,0,0,-1,1406,1576,0,0
189,-552,0,0,0,0,0,0,0,0,0,-1,1413,1576,0,0
196,-552,0,0,0,0,0,0,0,0,0,-1,1420,1576,0,0
203,-552,0,0,0,0,0,0,0,0,0,-1,1427,1576,0,0
210,-552,0,0,0,0,0,0,0,0,0,-1,1434,1576,0,0
217,-552,0,0,0,0,0,0,0,0,0,-1,1441,1576,0,0
224,-552,0,0,0,0,0,0,0,0,0,-1,1448,1576,0,0
231,-552,0,0,0,0,0,0,0,0,0,-1,1455,1576,0,0
238,-552,0,0,0,0,0,0,0,0,0,-1,1462,1576,0,0
245,-552,0,0,0,0,0,0,0,0,0,-1,1469,1576,0,0
252,-552,0,0,0,0,0,0,0,0,0,-1,1476,1576,0,0
259,-552,0,0,0,0,0,0,0,0,0,-1,1483,1576,0,0
266,-552,0,0,0,0,0,0,0,0,0,-1,1490,1576,0,0
273,-552,0,0,0,0,0,0,0,0,0,-1,1497,1576,0,0
280,-552,0,0,0,0,0,0,0,0,0,-1,1504,1576,0,0
287,-552,0,0,0,0,0,0,0,0,0,-1,1511,1576,0,0
294,-552,0,0,0,0,0,0,0,0,0,-1,1518,1576,0,0
301,-552,0,0,0,0,0,0,0,0,0,-1,1525,1576,0,0
308,-552,0,0,0,0,0,0,0,0,0,-1,1532,1576,0,0
315,-552,0,0,0,0,0,0,0,0,0,-1,1539,1576,0,0
322,-552,0,0,0,0,0,0,0,0,0,-1,1546,1576,0,0
329,-552,0,0,0,0,0,0,0,0,0,-1,1553,1576,0,0
336,-552,0,0,0,0,0,0,0,0,0,-1,1560,1576,0,0
343,-552,0,0,0,0,0,0,0,0,0,-1,1567,1576,0,0
350,-552,5.03149,3.31958,0,0,0,0,0,0,0,-1,1574,1576,5.03152,-3.31962
357,-552,5.18469,4.10706,0,0,0,0,0,0,0,-1,1581,1576,5.1847,-4.10702
364,-552,4.6189,3.48181,0,0,0,0,0,0,0,-1,1588,1576,4.61895,-3.48178
371,-552,7.10657,5.64783,0,0,0,0,0,0,0,-1,1595,1576,7.10651,-5.64786
378,-552,6.44446,4.91492,0,0,0,0,0,0,0,-1,1602,1576,6.44448,-4.91496
385,-552,7.89954,0.97937,0,0,0,0,0,0,0,-1,1609,1576,7.89949,-0.979358
392,-552,7.74719,1.49023,0,0,0,0,0,0,0,-1,1616,1576,7.7472,-1.49022
399,-552,7.20313,2.12769,0,0,0,0,0,0,0,-1,1623,1576,7.20317,-2.12768
406,-552,7.47522,8.68372,0,0,0,0,0,0,0,-1,1630,1576,7.47522,-8.68373
413,-552,6.82996,8.17822,0,0,0,0,0,0,0,-1,1637,1576,6.82993,-8.1782
420,-552,6.11975,7.64868,0,0,0,0,0,0,0,-1,1644,1576,6.1198,-7.64863
427,-552,5.56519,7.37988,0,0,0,0,0,0,0,-1,1651,1576,5.56521,-7.37994
434,-552,5.10913,5.87524,0,0,0,0,0,0,0,-1,1658,1576,5.10914,-5.87525
441,-552,5.31226,5.99194,-0.00238574,-0.0200269,0.000446936,-0.00237443,-0.0200382,0.0253132,0.0126419,0.046281,1665,1576,5.31221,-5.99193
448,-552,5.5531,6.12183,-0.00273814,-0.0187331,0.00437485,-0.00161975,-0.0198515,0.25028,0.0127288,0.0442072,1672,1576,5.5531,-6.1218
455,-552,5.66846,6.25879,-0.00311459,-0.0172063,0.00712938,-0.000136871,-0.020184,0.395645,0.0134106,0.0415713,1679,1576,5.66849,-6.25879
462,-552,5.63013,6.2041,-0.00334936,-0.0152925,0.00870277,0.00123359,-0.0198755,0.484707,0.0136801,0.0404977,1686,1576,5.63017,-6.20407
469,-552,5.50159,6.13025,-0.00337381,-0.0132109,0.00931483,0.00224131,-0.018826,0.542487,0.0133606,0.0310677,1693,1576,5.5016,-6.13019
476,-552,5.49023,6.14917,-0.00324078,-0.0109891,0.00918292,0.00285176,-0.0170816,0.585783,0.0124477,0.0143322,1700,1576,5.49023,-6.14912
483,-552,5.53137,6.07263,-0.00282465,-0.00850157,0.00918352,0.00394906,-0.0152753,0.635514,0.0117237,0.0127003,1707,1576,5.53136,-6.07261
490,-552,5.54138,5.97046,-0.00251427,-0.00710038,0.00823739,0.00374327,-0.0133579,0.649649,0.0103805,0.0137254,1714,1576,5.54141,-5.97041
497,-552,5.54919,5.85266,-0.0023055,-0.0050064,0.00652886,0.00301112,-0.010323,0.683415,0.00807507,0.0212338,1721,1576,5.54918,-5.85264
504,-552,5.53613,5.74817,-0.00167175,-0.00314521,0.00488774,0.00253447,-0.00735143,0.710597,0.00592918,0.0227765,1728,1576,5.53614,-5.74811
511,-552,5.51282,5.64246,-0.000768442,-0.00177297,0.00320317,0.0019716,-0.00451301,0.70763,0.00383854,0.0165672,1735,1576,5.51279,-5.64249
518,-552,5.51514,5.53491,0.000135884,-0.000340224,0.0011377,0.00106017,-0.00126451,0.682265,0.00134388,0.013582,1742,1576,5.51513,-5.5349
525,-552,5.51038,5.43115,0.000994761,0.00113897,-0.00110575,0.00217496,-4.1233e-05,-0.817956,0.00146391,0.0128615,1749,1576,5.51041,-5.43118
532,-552,5.50537,5.32251,0.00152318,0.00241088,-0.00367084,0.00566461,-0.00173054,-0.845562,0.00446644,0.0131548,1756,1576,5.5054,-5.32257
539,-552,5.52881,5.18738,0.00191435,0.00332696,-0.00607129,0.00873289,-0.00349158,-0.843305,0.00727083,0.0158311,1763,1576,5.52878,-5.18739
546,-552,5.51636,5.0658,0.00244625,0.0047168,-0.00887776,0.0125316,-0.00536852,-0.848992,0.0106069,0.0200421,1770,1576,5.51642,-5.06578
553,-552,5.54468,4.91174,0.00298784,0.00632542,-0.0122141,0.0169842,-0.00767095,-0.853292,0.0145692,0.0235265,1777,1576,5.54469,-4.91171
560,-552,5.48706,4.91187,0.003585,0.00843276,-0.0159945,0.022186,-0.0101683,-0.860598,0.0191045,0.0361934,1784,1576,5.48708,-4.91187
567,-552,5.38757,4.7998,0.00410189,0.0105461,-0.0201823,0.0277619,-0.0131139,-0.864555,0.0240994,0.0406202,1791,1576,5.38757,-4.79986
574,-552,5.47864,4.59375,0,0,0,0,0,0,0,-1,1798,1576,5.47865,-4.5938
581,-552,5.74597,5.20056,0.00550269,0.015507,-0.030088,0.0410058,-0.0199962,-0.86777,0.0359091,0.0498373,1805,1576,5.74599,-5.20061
588,-552,5.56958,5.02576,0.0066364,0.0184684,-0.0357033,0.0487425,-0.0236377,-0.867502,0.0426184,0.048053,1812,1576,5.56957,-5.02575
595,-552,5.39014,4.48657,0,0,0,0,0,0,0,-1,1819,1576,5.3902,-4.48658
602,-552,5.27734,3.33813,0,0,0,0,0,0,0,-1,1826,1576,5.2774,-3.33809
609,-552,5.04895,2.57019,0,0,0,0,0,0,0,-1,1833,1576,5.04901,-2.57014
616,-552,5.63306,2.13196,0,0,0,0,0,0,0,-1,1840,1576,5.63303,-2.13196
623,-552,0,0,0,0,0,0,0,0,0,-1,1847,1576,0,0
630,-552,0,0,0,0,0,0,0,0,0,-1,1854,1576,0,0
637,-552,0,0,0,0,0,0,0,0,0,-1,1861,1576,0,0
644,-552,0,0,0,0,0,0,0,0,0,-1,1868,1576,0,0
651,-552,0,0,0,0,0,0,0,0,0,-1,1875,1576,0,0
658,-552,0,0,0,0,0,0,0,0,0,-1,1882,1576,0,0
665,-552,0,0,0,0,0,0,0,0,0,-1,1889,1576,0,0
672,-552,0,0,0,0,0,0,0,0,0,-1,1896,1576,0,0
679,-552,0,0,0,0,0,0,0,0,0,-1,1903,1576,0,0
686,-552,0,0,0,0,0,0,0,0,0,-1,1910,1576,0,0
693,-552,0,0,0,0,0,0,0,0,0,-1,1917,1576,0,0
700,-552,0,0,0,0,0,0,0,0,0,-1,1924,1576,0,0
707,-552,0,0,0,0,0,0,0,0,0,-1,1931,1576,0,0
714,-552,0,0,0,0,0,0,0,0,0,-1,1938,1576,0,0
721,-552,0,0,0,0,0,0,0,0,0,-1,1945,1576,0,0
728,-552,0,0,0,0,0,0,0,0,0,-1,1952,1576,0,0
735,-552,0,0,0,0,0,0,0,0,0,-1,1959,1576,0,0
742,-552,0,0,0,0,0,0,0,0,0,-1,1966,1576,0,0
749,-552,0,0,0,0,0,0,0,0,0,-1,1973,1576,0,0
756,-552,0,0,0,0,0,0,0,0,0,-1,1980,1576,0,0
763,-552,0,0,0,0,0,0,0,0,0,-1,1987,1576,0,0
770,-552,0,0,0,0,0,0,0,0,0,-1,1994,1576,0,0
777,-552,0,0,0,0,0,0,0,0,0,-1,2001,1576,0,0
784,-552,0,0,0,0,0,0,0,0,0,-1,2008,1576,0,0
791,-552,0,0,0,0,0,0,0,0,0,-1,2015,1576,0,0
798,-552,0,0,0,0,0,0,0,0,0,-1,2022,1576,0,0
805,-552,0,0,0,0,0,0,0,0,0,-1,2029,1576,0,0
812,-552,0,0,0,0,0,0,0,0,0,-1,2036,1576,0,0
-700,-559,0,0,0,0,0,0,0,0,0,-1,524,1583,0,0
-693,-559,0,0,0,0,0,0,0,0,0,-1,531,1583,0,0
-686,-559,0,0,0,0,0,0,0,0,0,-1,538,1583,0,0
-679,-559,0,0,0,0,0,0,0,0,0,-1,545,1583,0,0
-672,-559,0,0,0,0,0,0,0,0,0,-1,552,1583,0,0
-665,-559,0,0,0,0,0,0,0,0,0,-1,559,1583,0,0
-658,-559,0,0,0,0,0,0,0,0,0,-1,566,1583,0,0
-651,-559,0,0,0,0,0,0,0,0,0,-1,573,1583,0,0
-644,-559,0,0,0,0,0,0,0,0,0,-1,580,1583,0,0
-637,-559,0,0,0,0,0,0,0,0,0,-1,587,1583,0,0
-630,-559,0,0,0,0,0,0,0,0,0,-1,594,1583,0,0
-623,-559,0,0,0,0,0,0,0,0,0,-1,601,1583,0,0
-616,-559,0,0,0,0,0,0,0,0,0,-1,608,1583,0,0
-609,-559,0,0,0,0,0,0,0,0,0,-1,615,1583,0,0
-602,-559,0,0,0,0,0,0,0,0,0,-1,622,1583,0,0
-595,-559,0,0,0,0,0,0,0,0,0,-1,629,1583,0,0
-588,-559,0,0,0,0,0,0,0,0,0,-1,636,1583,0,0
-581,-559,0,0,0,0,0,0,0,0,0,-1,643,1583,0,0
-574,-559,0,0,0,0,0,0,0,0,0,-1,650,1583,0,0
-567,-559,0,0,0,0,0,0,0,0,0,-1,657,1583,0,0
-560,-559,0,0,0,0,0,0,0,0,0,-1,664,1583,0,0
-553,-559,0,0,0,0,0,0,0,0,0,-1,671,1583,0,0
-546,-559,0,0,0,0,0,0,0,0,0,-1,678,1583,0,0
-539,-559,0,0,0,0,0,0,0,0,0,-1,685,1583,0,0
-532,-559,0,0,0,0,0,0,0,0,0,-1,692,1583,0,0
-525,-559,0,0,0,0,0,0,0,0,0,-1,699,1583,0,0
-518,-559,0,0,0,0,0,0,0,0,0,-1,706,1583,0,0
-511,-559,0,0,0,0,0,0,0,0,0,-1,713,1583,0,0
-504,-559,0,0,0,0,0,0,0,0,0,-1,720,1583,0,0
-497,-559,0,0,0,0,0,0,0,0,0,-1,727,1583,0,0
-490,-559,-0.271667,5.34692,0,0,0,0,0,0,0,-1,734,1583,-0.271666,-5.34695
-483,-559,0.113647,5.29382,0,0,0,0,0,0,0,-1,741,1583,0.113618,-5.29382
-476,-559,0.393494,4.96765,0,0,0,0,0,0,0,-1,748,1583,0.393495,-4.96764
-469,-559,0.441223,4.83228,0,0,0,0,0,0,0,-1,755,1583,0.441194,-4.83228
-462,-559,0.734985,4.53113,0,0,0,0,0,0,0,-1,762,1583,0.735014,-4.53109
-455,-559,1.56805,2.81201,0,0,0,0,0,0,0,-1,769,1583,1.56806,-2.81205
-448,-559,1.65784,3.22302,0.0116629,0.0130362,0.00305304,0.0154788,0.00922026,0.896007,0.00899108,0.0463873,776,1583,1.65786,-3.22306
-441,-559,1.52911,3.55115,0.0101895,0.0122445,0.00270395,0.0141096,0.00832445,0.96697,0.00819006,0.0418431,783,1583,1.5291,-3.55109
-434,-559,1.47382,3.89771,0.0086375,0.0108864,0.00228376,0.0123075,0.00721636,1.01416,0.00714097,0.0317358,790,1583,1.4738,-3.89775
-427,-559,1.36487,4.09131,0.00705322,0.00929554,0.00167472,0.0101897,0.00615902,1.08037,0.00592567,0.0190649,797,1583,1.36489,-4.09129
-420,-559,1.36676,4.18481,0.00550361,0.00768715,0.00106916,0.00812348,0.00506729,1.18333,0.00473776,0.0168493,804,1583,1.36673,-4.18477
-413,-559,1.37561,4.31519,0.00406442,0.00637658,0.000605737,0.00652566,0.00391534,1.32948,0.00379262,0.0114911,811,1583,1.37561,-4.31516
-406,-559,1.37036,4.43872,0.00265606,0.00491195,0.000186975,0.00492734,0.00264067,1.48866,0.00284725,0.0101041,818,1583,1.37035,-4.43872
-399,-559,1.3797,4.55713,0.00151422,0.0035222,-6.2379e-05,0.00352414,0.00151228,-1.53977,0.00204147,0.0125369,825,1583,1.37969,-4.55719
-392,-559,1.3631,4.66345,0.000837058,0.00249018,-0.000197294,0.0025134,0.000813838,-1.45364,0.00148084,0.0154463,832,1583,1.36307,-4.66343
-385,-559,1.35944,4.79211,0.000205164,0.00206742,-0.000170632,0.00208293,0.000189659,-1.48018,0.00132991,0.014962,839,1583,1.35947,-4.79213
-378,-559,1.37445,4.91455,1.72173e-06,0.00193258,-0.000137236,0.00194229,-7.98353e-06,-1.50019,0.00129753,0.0139569,846,1583,1.37444,-4.91449
-371,-559,1.36389,5.01025,0.000324157,0.00270355,6.78489e-05,0.00270548,0.000322224,1.54231,0.00170642,0.0213263,853,1583,1.36391,-5.01024
-364,-559,1.38666,5.125,0.000793701,0.00361054,0.000479833,0.00369003,0.000714207,1.40662,0.00225989,0.019549,860,1583,1.38664,-5.12495
-357,-559,1.38446,5.27112,0.00154113,0.00480092,0.000793365,0.00498375,0.0013583,1.3443,0.00297496,0.0121378,867,1583,1.38445,-5.27115
-350,-559,1.38953,5.3783,0.00252299,0.00616802,0.00106637,0.00645707,0.00223394,1.3061,0.0037865,0.0103644,874,1583,1.38951,-5.37834
-343,-559,1.38965,5.48889,0.00370614,0.00762522,0.00111553,0.00792049,0.00341086,1.31203,0.00458754,0.0109432,881,1583,1.38966,-5.48883
-336,-559,1.38354,5.5896,0.00510987,0.00866906,0.00133634,0.00911495,0.00466398,1.24875,0.005263,0.0113849,888,1583,1.38354,-5.58964
-329,-559,1.42773,5.74866,0.00632014,0.0102066,0.00107718,0.0104852,0.00604155,1.31772,0.00607701,0.0150706,895,1583,1.42775,-5.74869
-322,-559,1.49213,5.90063,0.00791574,0.0112325,0.000332699,0.0112656,0.0078827,1.4718,0.0066749,0.0344267,902,1583,1.4921,-5.90062
-315,-559,1.64105,5.96216,0.0093259,0.0117932,-0.000804038,0.0120321,0.00908701,-1.28199,0.00724215,0.0404626,909,1583,1.64105,-5.9621
-308,-559,1.54895,5.87646,0,0,0,0,0,0,0,-1,916,1583,1.54897,-5.87649
-301,-559,1.45624,5.70386,0,0,0,0,0,0,0,-1,923,1583,1.45623,-5.70383
-294,-559,0.832764,6.08838,0,0,0,0,0,0,0,-1,930,1583,0.832762,-6.08843
-287,-559,0.44873,5.91052,0,0,0,0,0,0,0,-1,937,1583,0.448738,-5.91051
-280,-559,0.139893,6.47412,0,0,0,0,0,0,0,-1,944,1583,0.139874,-6.47416
-273,-559,-0.135742,7.06506,0,0,0,0,0,0,0,-1,951,1583,-0.135746,-7.06508
-266,-559,-4.51648,0.00622559,0,0,0,0,0,0,0,-1,958,1583,-4.51648,-0.00624529
-259,-559,-4.3692,1.16553,0,0,0,0,0,0,0,-1,965,1583,-4.36923,-1.16551
-252,-559,-4.25519,2.36584,0,0,0,0,0,0,0,-1,972,1583,-4.25517,-2.36588
-245,-559,-4.11566,3.56042,0,0,0,0,0,0,0,-1,979,1583,-4.11564,-3.56039
-238,-559,-3.22314,2.91785,0,0,0,0,0,0,0,-1,986,1583,-3.22316,-2.91789
-231,-559,-2.42377,2.27722,0,0,0,0,0,0,0,-1,993,1583,-2.42378,-2.27726
-224,-559,-2.11206,2.69836,0,0,0,0,0,0,0,-1,1000,1583,-2.11204,-2.69831
-217,-559,0,0,0,0,0,0,0,0,0,-1,1007,1583,0,0
-210,-559,0,0,0,0,0,0,0,0,0,-1,1014,1583,0,0
-203,-559,0,0,0,0,0,0,0,0,0,-1,1021,1583,0,0
-196,-559,0,0,0,0,0,0,0,0,0,-1,1028,1583,0,0
-189,-559,0,0,0,0,0,0,0,0,0,-1,1035,1583,0,0
-182,-559,0,0,0,0,0,0,0,0,0,-1,1042,1583,0,0
-175,-559,0,0,0,0,0,0,0,0,0,-1,1049,1583,0,0
-168,-559,0,0,0,0,0,0,0,0,0,-1,1056,1583,0,0
-161,-559,0,0,0,0,0,0,0,0,0,-1,1063,1583,0,0
-154,-559,0,0,0,0,0,0,0,0,0,-1,1070,1583,0,0
-147,-559,0,0,0,0,0,0,0,0,0,-1,1077,1583,0,0
-140,-559,0,0,0,0,0,0,0,0,0,-1,1084,1583,0,0
-133,-559,0,0,0,0,0,0,0,0,0,-1,1091,1583,0,0
-126,-559,0,0,0,0,0,0,0,0,0,-1,1098,1583,0,0
-119,-559,0,0,0,0,0,0,0,0,0,-1,1105,1583,0,0
-112,-559,0,0,0,0,0,0,0,0,0,-1,1112,1583,0,0
-105,-559,0,0,0,0,0,0,0,0,0,-1,1119,1583,0,0
-98,-559,0,0,0,0,0,0,0,0,0,-1,1126,1583,0,0
-91,-559,0,0,0,0,0,0,0,0,0,-1,1133,1583,0,0
-84,-559,0,0,0,0,0,0,0,0,0,-1,1140,1583,0,0
-77,-559,0,0,0,0,0,0,0,0,0,-1,1147,1583,0,0
-70,-559,0,0,0,0,0,0,0,0,0,-1,1154,1583,0,0
-63,-559,0,0,0,0,0,0,0,0,0,-1,1161,1583,0,0
-56,-559,0,0,0,0,0,0,0,0,0,-1,1168,1583,0,0
-49,-559,0,0,0,0,0,0,0,0,0,-1,1175,1583,0,0
-42,-559,0,0,0,0,0,0,0,0,0,-1,1182,1583,0,0
-35,-559,0,0,0,0,0,0,0,0,0,-1,1189,1583,0,0
-28,-559,0,0,0,0,0,0,0,0,0,-1,1196,1583,0,0
-21,-559,0,0,0,0,0,0,0,0,0,-1,1203,1583,0,0
-14,-559,0,0,0,0,0,0,0,0,0,-1,1210,1583,0,0
-7,-559,0,0,0,0,0,0,0,0,0,-1,1217,1583,0,0
0,-559,0,0,0,0,0,0,0,0,0,-1,1224,1583,0,0
7,-559,0,0,0,0,0,0,0,0,0,-1,1231,1583,0,0
14,-559,0,0,0,0,0,0,0,0,0,-1,1238,1583,0,0
21,-559,0,0,0,0,0,0,0,0,0,-1,1245,1583,0,0
28,-559,0,0,0,0,0,0,0,0,0,-1,1252,1583,0,0
35,-559,0,0,0,0,0,0,0,0,0,-1,1259,1583,0,0
42,-559,0,0,0,0,0,0,0,0,0,-1,1266,1583,0,0
49,-559,0,0,0,0,0,0,0,0,0,-1,1273,1583,0,0
56,-559,0,0,0,0,0,0,0,0,0,-1,1280,1583,0,0
63,-559,0,0,0,0,0,0,0,0,0,-1,1287,1583,0,0
70,-559,0,0,0,0,0,0,0,0,0,-1,1294,1583,0,0
77,-559,0,0,0,0,0,0,0,0,0,-1,1301,1583,0,0
84,-559,0,0,0,0,0,0,0,0,0,-1,1308,1583,0,0
91,-559,0,0,0,0,0,0,0,0,0,-1,1315,1583,0,0
98,-559,0,0,0,0,0,0,0,0,0,-1,1322,1583,0,0
105,-559,0,0,0,0,0,0,0,0,0,-1,1329,1583,0,0
112,-559,0,0,0,0,0,0,0,0,0,-1,1336,1583,0,0
119,-559,0,0,0,0,0,0,0,0,0,-1,1343,1583,0,0
126,-559,0,0,0,0,0,0,0,0,0,-1,1350,1583,0,0
133,-559,0,0,0,0,0,0,0,0,0,-1,1357,1583,0,0
140,-559,0,0,0,0,0,0,0,0,0,-1,1364,1583,0,0
147,-559,0,0,0,0,0,0,0,0,0,-1,1371,1583,0,0
154,-559,0,0,0,0,0,0,0,0,0,-1,1378,1583,0,0
161,-559,0,0,0,0,0,0,0,0,0,-1,1385,1583,0,0
168,-559,0,0,0,0,0,0,0,0,0,-1,1392,1583,0,0
175,-559,0,0,0,0,0,0,0,0,0,-1,1399,1583,0,0
182,-559,0,0,0,0,0,0,0,0,0,-1,1406,1583,0,0
189,-559,0,0,0,0,0,0,0,0,0,-1,1413,1583,0,0
196,-559,0,0,0,0,0,0,0,0,0,-1,1420,1583,0,0
203,-559,0,0,0,0,0,0,0,0,0,-1,1427,1583,0,0
210,-559,0,0,0,0,0,0,0,0,0,-1,1434,1583,0,0
217,-559,0,0,0,0,0,0,0,0,0,-1,1441,1583,0,0
224,-559,0,0,0,0,0,0,0,0,0,-1,1448,1583,0,0
231,-559,0,0,0,0,0,0,0,0,0,-1,1455,1583,0,0
238,-559,0,0,0,0,0,0,0,0,0,-1,1462,1583,0,0
245,-559,0,0,0,0,0,0,0,0,0,-1,1469,1583,0,0
252,-559,0,0,0,0,0,0,0,0,0,-1,1476,1583,0,0
259,-559,0,0,0,0,0,0,0,0,0,-1,1483,1583,0,0
266,-559,0,0,0,0,0,0,0,0,0,-1,1490,1583,0,0
273,-559,0,0,0,0,0,0,0,0,0,-1,1497,1583,0,0
280,-559,0,0,0,0,0,0,0,0,0,-1,1504,1583,0,0
287,-559,0,0,0,0,0,0,0,0,0,-1,1511,1583,0,0
294,-559,0,0,0,0,0,0,0,0,0,-1,1518,1583,0,0
301,-559,0,0,0,0,0,0,0,0,0,-1,1525,1583,0,0
308,-559,0,0,0,0,0,0,0,0,0,-1,1532,1583,0,0
315,-559,0,0,0,0,0,0,0,0,0,-1,1539,1583,0,0
322,-559,0,0,0,0,0,0,0,0,0,-1,1546,1583,0,0
329,-559,0,0,0,0,0,0,0,0,0,-1,1553,1583,0,0
336,-559,5.84851,3.87512,0,0,0,0,0,0,0,-1,1560,1583,5.84849,-3.87516
343,-559,5.31299,3.53284,0,0,0,0,0,0,0,-1,1567,1583,5.31302,-3.53284
350,-559,4.92236,2.85144,0,0,0,0,0,0,0,-1,1574,1583,4.92232,-2.85148
357,-559,4.25781,3.47522,0,0,0,0,0,0,0,-1,1581,1583,4.25786,-3.47525
364,-559,5.00928,5.32605,0,0,0,0,0,0,0,-1,1588,1583,5.00928,-5.32607
371,-559,1.84436,2.52441,0,0,0,0,0,0,0,-1,1595,1583,1.84441,-2.52447
378,-559,6.34753,1.53137,0,0,0,0,0,0,0,-1,1602,1583,6.34752,-1.53139
385,-559,6.95911,1.48181,0,0,0,0,0,0,0,-1,1609,1583,6.95916,-1.48175
392,-559,7.03137,1.30005,0,0,0,0,0,0,0,-1,1616,1583,7.03137,-1.30009
399,-559,7.00757,1.10596,0,0,0,0,0,0,0,-1,1623,1583,7.00761,-1.10592
406,-559,4.74634,4.66797,0,0,0,0,0,0,0,-1,1630,1583,4.74635,-4.66794
413,-559,6.81458,8.30701,0,0,0,0,0,0,0,-1,1637,1583,6.81457,-8.30697
420,-559,6.11731,7.85461,0,0,0,0,0,0,0,-1,1644,1583,6.11729,-7.85464
427,-559,5.28931,7.60571,0,0,0,0,0,0,0,-1,1651,1583,5.28929,-7.60568
434,-559,4.4447,6.01599,0,0,0,0,0,0,0,-1,1658,1583,4.44469,-6.01596
441,-559,5.45703,6.6748,0,0,0,0,0,0,0,-1,1665,1583,5.45706,-6.67484
448,-559,5.47339,6.4043,-0.00144753,-0.0145151,0.00360806,-0.000517502,-0.0154451,0.252272,0.0101286,0.0433157,1672,1583,5.47344,-6.40435
455,-559,5.51453,6.30469,-0.00198824,-0.0127665,0.00530748,0.000186493,-0.0149413,0.388882,0.0100236,0.0391261,1679,1583,5.51449,-6.30472
462,-559,5.50964,6.29321,-0.00227296,-0.0109175,0.00621777,0.000977265,-0.0141677,0.481667,0.00978717,0.0319101,1686,1583,5.5097,-6.29325
469,-559,5.40747,6.26416,-0.00232508,-0.00906036,0.00651104,0.00163767,-0.0130231,0.546734,0.00927628,0.0160472,1693,1583,5.40742,-6.26414
476,-559,5.39197,6.16272,-0.00225717,-0.0072617,0.00631123,0.00202975,-0.0115486,0.596665,0.00845724,0.00948635,1700,1583,5.39192,-6.16272
483,-559,5.41309,6.06787,-0.00191055,-0.00526626,0.00625237,0.00288518,-0.010062,0.654309,0.00784853,0.0115814,1707,1583,5.41313,-6.06792
490,-559,5.4137,5.97644,-0.00154867,-0.00428861,0.00541906,0.00267091,-0.00850819,0.661589,0.00674117,0.0143861,1714,1583,5.41364,-5.97642
497,-559,5.43091,5.86499,-0.00119805,-0.00279706,0.00407208,0.00215227,-0.00614738,0.688462,0.00497341,0.0175746,1721,1583,5.43096,-5.86501
504,-559,5.45105,5.75378,-0.000492519,-0.00142027,0.00280033,0.00188209,-0.00379488,0.703318,0.00333904,0.0227678,1728,1583,5.45105,-5.75374
511,-559,5.42383,5.64551,0.000526131,-0.000276885,0.00129655,0.00148192,-0.00123268,0.635245,0.00156948,0.0204197,1735,1583,5.42379,-5.64555
518,-559,5.41614,5.53052,0.00162655,0.00120115,-0.000813729,0.00225492,0.000572781,-0.657562,0.00135338,0.0125167,1742,1583,5.41616,-5.53053
525,-559,5.40417,5.41919,0.00267607,0.00286977,-0.00323732,0.00601169,-0.000465847,-0.800353,0.00417175,0.0110889,1749,1583,5.40421,-5.41923
532,-559,5.40247,5.31226,0.00333274,0.0046319,-0.00616798,0.0101844,-0.00221977,-0.837862,0.00763782,0.0125736,1756,1583,5.40245,-5.31229
539,-559,5.42969,5.21533,0.00391286,0.00617256,-0.00922565,0.0143373,-0.00425187,-0.846329,0.0112467,0.0163891,1763,1583,5.42969,-5.21532
546,-559,5.40723,5.09827,0.00455644,0.00835482,-0.0129422,0.0195364,-0.00662513,-0.85825,0.0157055,0.0146124,1770,1583,5.40718,-5.09831
553,-559,5.47327,4.96143,0.00512117,0.0110063,-0.0174432,0.0257534,-0.00962589,-0.868959,0.0211218,0.0188572,1777,1583,5.47324,-4.9614
560,-559,5.39001,4.90735,0.00564844,0.0141488,-0.022625,0.0329194,-0.0131221,-0.878243,0.0273889,0.034352,1784,1583,5.39005,-4.90734
567,-559,5.5824,4.54993,0.00600771,0.0173669,-0.0283902,0.04064,-0.0172654,-0.884123,0.0343276,0.0432826,1791,1583,5.58239,-4.54988
574,-559,5.96838,4.2511,0,0,0,0,0,0,0,-1,1798,1583,5.96833,-4.25112
581,-559,6.08142,5.9071,0,0,0,0,0,0,0,-1,1805,1583,6.08147,-5.90715
588,-559,5.59033,5.8313,0,0,0,0,0,0,0,-1,1812,1583,5.59036,-5.83125
595,-559,5.7467,4.5813,0,0,0,0,0,0,0,-1,1819,1583,5.74675,-4.58131
602,-559,5.28284,3.00122,0,0,0,0,0,0,0,-1,1826,1583,5.28286,-3.00121
609,-559,5.72681,0.13562,0,0,0,0,0,0,0,-1,1833,1583,5.72678,-0.135584
616,-559,0,0,0,0,0,0,0,0,0,-1,1840,1583,0,0
623,-559,0,0,0,0,0,0,0,0,0,-1,1847,1583,0,0
630,-559,0,0,0,0,0,0,0,0,0,-1,1854,1583,0,0
637,-559,0,0,0,0,0,0,0,0,0,-1,1861,1583,0,0
644,-559,0,0,0,0,0,0,0,0,0,-1,1868,1583,0,0
651,-559,0,0,0,0,0,0,0,0,0,-1,1875,1583,0,0
658,-559,0,0,0,0,0,0,0,0,0,-1,1882,1583,0,0
665,-559,0,0,0,0,0,0,0,0,0,-1,1889,1583,0,0
672,-559,0,0,0,0,0,0,0,0,0,-1,1896,1583,0,0
679,-559,0,0,0,0,0,0,0,0,0,-1,1903,1583,0,0
686,-559,0,0,0,0,0,0,0,0,0,-1,1910,1583,0,0
693,-559,0,0,0,0,0,0,0,0,0,-1,1917,1583,0,0
700,-559,0,0,0,0,0,0,0,0,0,-1,1924,1583,0,0
707,-559,0,0,0,0,0,0,0,0,0,-1,1931,1583,0,0
714,-559,0,0,0,0,0,0,0,0,0,-1,1938,1583,0,0
721,-559,0,0,0,0,0,0,0,0,0,-1,1945,1583,0,0
728,-559,0,0,0,0,0,0,0,0,0,-1,1952,1583,0,0
735,-559,0,0,0,0,0,0,0,0,0,-1,1959,1583,0,0
742,-559,0,0,0,0,0,0,0,0,0,-1,1966,1583,0,0
749,-559,0,0,0,0,0,0,0,0,0,-1,1973,1583,0,0
756,-559,0,0,0,0,0,0,0,0,0,-1,1980,1583,0,0
763,-559,0,0,0,0,0,0,0,0,0,-1,1987,1583,0,0
770,-559,0,0,0,0,0,0,0,0,0,-1,1994,1583,0,0
777,-559,0,0,0,0,0,0,0,0,0,-1,2001,1583,0,0
784,-559,0,0,0,0,0,0,0,0,0,-1,2008,1583,0,0
791,-559,0,0,0,0,0,0,0,0,0,-1,2015,1583,0,0
798,-559,0,0,0,0,0,0,0,0,0,-1,2022,1583,0,0
805,-559,0,0,0,0,0,0,0,0,0,-1,2029,1583,0,0
812,-559,0,0,0,0,0,0,0,0,0,-1,2036,1583,0,0
-700,-566,0,0,0,0,0,0,0,0,0,-1,524,1590,0,0
-693,-566,0,0,0,0,0,0,0,0,0,-1,531,1590,0,0
-686,-566,0,0,0,0,0,0,0,0,0,-1,538,1590,0,0
-679,-566,0,0,0,0,0,0,0,0,0,-1,545,1590,0,0
-672,-566,0,0,0,0,0,0,0,0,0,-1,552,1590,0,0
-665,-566,0,0,0,0,0,0,0,0,0,-1,559,1590,0,0
-658,-566,0,0,0,0,0,0,0,0,0,-1,566,1590,0,0
-651,-566,0,0,0,0,0,0,0,0,0,-1,573,1590,0,0
-644,-566,0,0,0,0,0,0,0,0,0,-1,580,1590,0,0
-637,-566,0,0,0,0,0,0,0,0,0,-1,587,1590,0,0
-630,-566,0,0,0,0,0,0,0,0,0,-1,594,1590,0,0
-623,-566,0,0,0,0,0,0,0,0,0,-1,601,1590,0,0
-616,-566,0,0,0,0,0,0,0,0,0,-1,608,1590,0,0
-609,-566,0,0,0,0,0,0,0,0,0,-1,615,1590,0,0
-602,-566,0,0,0,0,0,0,0,0,0,-1,622,1590,0,0
-595,-566,0,0,0,0,0,0,0,0,0,-1,629,1590,0,0
-588,-566,0,0,0,0,0,0,0,0,0,-1,636,1590,0,0
-581,-566,0,0,0,0,0,0,0,0,0,-1,643,1590,0,0
-574,-566,0,0,0,0,0,0,0,0,0,-1,650,1590,0,0
-567,-566,0,0,0,0,0,0,0,0,0,-1,657,1590,0,0
-560,-566,0,0,0,0,0,0,0,0,0,-1,664,1590,0,0
-553,-566,0,0,0,0,0,0,0,0,0,-1,671,1590,0,0
-546,-566,0,0,0,0,0,0,0,0,0,-1,678,1590,0,0
-539,-566,0,0,0,0,0,0,0,0,0,-1,685,1590,0,0
-532,-566,0,0,0,0,0,0,0,0,0,-1,692,1590,0,0
-525,-566,0,0,0,0,0,0,0,0,0,-1,699,1590,0,0
-518,-566,0,0,0,0,0,0,0,0,0,-1,706,1590,0,0
-511,-566,0,0,0,0,0,0,0,0,0,-1,713,1590,0,0
-504,-566,0,0,0,0,0,0,0,0,0,-1,720,1590,0,0
-497,-566,0,0,0,0,0,0,0,0,0,-1,727,1590,0,0
-490,-566,0,0,0,0,0,0,0,0,0,-1,734,1590,0,0
-483,-566,0.348938,4.1803,0,0,0,0,0,0,0,-1,741,1590,0.348933,-4.18036
-476,-566,0.492493,4.07288,0,0,0,0,0,0,0,-1,748,1590,0.492482,-4.07291
-469,-566,0.431702,4.40515,0,0,0,0,0,0,0,-1,755,1590,0.431719,-4.40521
-462,-566,0.754211,4.45667,0,0,0,0,0,0,0,-1,762,1590,0.754218,-4.45669
-455,-566,1.15015,3.85718,0,0,0,0,0,0,0,-1,769,1590,1.15012,-3.85717
-448,-566,1.59607,2.80396,0,0,0,0,0,0,0,-1,776,1590,1.59609,-2.8039
-441,-566,1.6629,3.47876,0.019901,0.0174172,0.00261801,0.0215568,0.0157615,0.56393,0.0128815,0.0469646,783,1590,1.66293,-3.47881
-434,-566,1.56067,3.79944,0.0173728,0.015743,0.00188125,0.018608,0.0145077,0.581022,0.0112896,0.0453798,790,1590,1.5607,-3.79947
-427,-566,1.37305,4.0553,0.0147521,0.0136764,0.00109197,0.0154315,0.012997,0.556562,0.00957984,0.0370374,797,1590,1.37304,-4.05529
-420,-566,1.39209,4.24158,0.012088,0.0115332,0.000371984,0.0122746,0.0113466,0.465028,0.00789196,0.0248068,804,1590,1.3921,-4.24159
-413,-566,1.47437,4.3125,0.00954046,0.00962981,-0.000145575,0.00973741,0.00943286,-0.934269,0.00639251,0.0109294,811,1590,1.47438,-4.31251
-406,-566,1.48914,4.43262,0.00706655,0.00760461,-0.000553024,0.00795057,0.00672059,-1.01178,0.00494168,0.00807058,818,1590,1.48913,-4.4326
-399,-566,1.50641,4.54614,0.00490517,0.00568288,-0.000767941,0.0061548,0.00443324,-1.01976,0.00366664,0.00945596,825,1590,1.5064,-4.54613
-392,-566,1.49457,4.66321,0.00332816,0.00411486,-0.000855348,0.00466297,0.00278005,-1.00091,0.00270872,0.0117289,832,1590,1.49456,-4.66325
-385,-566,1.50946,4.79895,0.00185172,0.00304171,-0.000833885,0.00347111,0.00142232,-1.09527,0.00201489,0.0141085,839,1590,1.50946,-4.79894
-378,-566,1.50623,4.92896,0.000875919,0.00226412,-0.000762105,0.00260083,0.000539204,-1.15476,0.00158503,0.0146295,846,1590,1.50624,-4.9289
-371,-566,1.48383,5.01392,0.000628463,0.00243662,-0.000470986,0.00255195,0.000513137,-1.33066,0.00155867,0.0191456,853,1590,1.48381,-5.01391
-364,-566,1.50452,5.14807,0.000638666,0.00275785,4.25656e-06,0.00275786,0.000638657,1.56879,0.00166698,0.0192846,860,1590,1.50449,-5.14804
-357,-566,1.49121,5.2644,0.000933824,0.00328685,0.000347,0.00333695,0.000883719,1.42739,0.00199636,0.0165593,867,1590,1.49119,-5.26444
-350,-566,1.50531,5.36328,0.00165324,0.00403461,0.000637344,0.00419445,0.0014934,1.32506,0.0024549,0.0207541,874,1590,1.50533,-5.36334
-343,-566,1.52106,5.50024,0.00261242,0.004839,0.000727094,0.00505541,0.00239602,1.28152,0.00292006,0.0261257,881,1590,1.52109,-5.50018
-336,-566,1.49048,5.59021,0.00376385,0.00519777,0.000977792,0.00569329,0.00326833,1.10174,0.00329902,0.0227837,888,1590,1.4905,-5.59018
-329,-566,1.50836,5.69507,0.00463241,0.00604428,0.000758285,0.00637437,0.00430233,1.16023,0.00375458,0.013124,895,1590,1.50835,-5.69502
-322,-566,1.53326,5.83057,0.00574117,0.00640204,0.000161714,0.00643949,0.00570372,1.34323,0.00406997,0.0135553,902,1590,1.53326,-5.83053
-315,-566,1.52496,5.90503,0.00656991,0.00637194,-0.000727377,0.007205,0.00573684,-0.717771,0.00439644,0.0251147,909,1590,1.52497,-5.90501
-308,-566,1.58398,5.9021,0.00731483,0.00563435,-0.00228513,0.0089093,0.00403988,-0.609221,0.00515122,0.03612,916,1590,1.58401,-5.90206
-301,-566,1.58569,5.8595,0.00806175,0.00350416,-0.00474017,0.0110424,0.000523475,-0.561337,0.00719349,0.0468759,923,1590,1.58571,-5.85948
-294,-566,1.43042,6.06824,0.00884336,0.000836498,-0.0076747,0.013496,-0.00381619,-0.544993,0.0105031,0.0484454,930,1590,1.4304,-6.06824
-287,-566,2.80029,6.05054,0,0,0,0,0,0,0,-1,937,1590,2.80027,-6.05054
-280,-566,2.23138,6.74976,0,0,0,0,0,0,0,-1,944,1590,2.2314,-6.74975
-273,-566,2.2088,4.99023,0,0,0,0,0,0,0,-1,951,1590,2.20879,-4.9902
-266,-566,0.28949,7.02014,0,0,0,0,0,0,0,-1,958,1590,0.289461,-7.02015
-259,-566,-5.49957,0.498657,0,0,0,0,0,0,0,-1,965,1590,-5.49955,-0.498621
-252,-566,-5.41388,1.76697,0,0,0,0,0,0,0,-1,972,1590,-5.4139,-1.76701
-245,-566,-1.85248,3.42993,0,0,0,0,0,0,0,-1,979,1590,-1.85251,-3.42997
-238,-566,-2.49677,3.25525,0,0,0,0,0,0,0,-1,986,1590,-2.49675,-3.25523
-231,-566,-2.95654,3.09192,0,0,0,0,0,0,0,-1,993,1590,-2.95653,-3.09193
-224,-566,-0.554321,4.6925,0,0,0,0,0,0,0,-1,1000,1590,-0.554325,-4.69255
-217,-566,0.155884,4.03638,0,0,0,0,0,0,0,-1,1007,1590,0.155904,-4.0364
-210,-566,0.722107,3.68506,0,0,0,0,0,0,0,-1,1014,1590,0.722101,-3.68512
-203,-566,0,0,0,0,0,0,0,0,0,-1,1021,1590,0,0
-196,-566,0,0,0,0,0,0,0,0,0,-1,1028,1590,0,0
-189,-566,0,0,0,0,0,0,0,0,0,-1,1035,1590,0,0
-182,-566,0,0,0,0,0,0,0,0,0,-1,1042,1590,0,0
-175,-566,0,0,0,0,0,0,0,0,0,-1,1049,1590,0,0
-168,-566,0,0,0,0,0,0,0,0,0,-1,1056,1590,0,0
-161,-566,0,0,0,0,0,0,0,0,0,-1,1063,1590,0,0
-154,-566,0,0,0,0,0,0,0,0,0,-1,1070,1590,0,0
-147,-566,0,0,0,0,0,0,0,0,0,-1,1077,1590,0,0
-140,-566,0,0,0,0,0,0,0,0,0,-1,1084,1590,0,0
-133,-566,0,0,0,0,0,0,0,0,0,-1,1091,1590,0,0
-126,-566,0,0,0,0,0,0,0,0,0,-1,1098,1590,0,0
-119,-566,0,0,0,0,0,0,0,0,0,-1,1105,1590,0,0
-112,-566,0,0,0,0,0,0,0,0,0,-1,1112,1590,0,0
-105,-566,0,0,0,0,0,0,0,0,0,-1,1119,1590,0,0
-98,-566,0,0,0,0,0,0,0,0,0,-1,1126,1590,0,0
-91,-566,0,0,0,0,0,0,0,0,0,-1,1133,1590,0,0
-84,-566,0,0,0,0,0,0,0,0,0,-1,1140,1590,0,0
-77,-566,0,0,0,0,0,0,0,0,0,-1,1147,1590,0,0
-70,-566,0,0,0,0,0,0,0,0,0,-1,1154,1590,0,0
-63,-566,0,0,0,0,0,0,0,0,0,-1,1161,1590,0,0
-56,-566,0,0,0,0,0,0,0,0,0,-1,1168,1590,0,0
-49,-566,0,0,0,0,0,0,0,0,0,-1,1175,1590,0,0
-42,-566,0,0,0,0,0,0,0,0,0,-1,1182,1590,0,0
-35,-566,0,0,0,0,0,0,0,0,0,-1,1189,1590,0,0
-28,-566,0,0,0,0,0,0,0,0,0,-1,1196,1590,0,0
-21,-566,0,0,0,0,0,0,0,0,0,-1,1203,1590,0,0
-14,-566,0,0,0,0,0,0,0,0,0,-1,1210,1590,0,0
-7,-566,0,0,0,0,0,0,0,0,0,-1,1217,1590,0,0
0,-566,0,0,0,0,0,0,0,0,0,-1,1224,1590,0,0
7,-566,0,0,0,0,0,0,0,0,0,-1,1231,1590,0,0
14,-566,0,0,0,0,0,0,0,0,0,-1,1238,1590,0,0
21,-566,0,0,0,0,0,0,0,0,0,-1,1245,1590,0,0
28,-566,0,0,0,0,0,0,0,0,0,-1,1252,1590,0,0
35,-566,0,0,0,0,0,0,0,0,0,-1,1259,1590,0,0
42,-566,0,0,0,0,0,0,0,0,0,-1,1266,1590,0,0
49,-566,0,0,0,0,0,0,0,0,0,-1,1273,1590,0,0
56,-566,0,0,0,0,0,0,0,0,0,-1,1280,1590,0,0
63,-566,0,0,0,0,0,0,0,0,0,-1,1287,1590,0,0
70,-566,0,0,0,0,0,0,0,0,0,-1,1294,1590,0,0
77,-566,0,0,0,0,0,0,0,0,0,-1,1301,1590,0,0
84,-566,0,0,0,0,0,0,0,0,0,-1,1308,1590,0,0
91,-566,0,0,0,0,0,0,0,0,0,-1,1315,1590,0,0
98,-566,0,0,0,0,0,0,0,0,0,-1,1322,1590,0,0
105,-566,0,0,0,0,0,0,0,0,0,-1,1329,1590,0,0
112,-566,0,0,0,0,0,0,0,0,0,-1,1336,1590,0,0
119,-566,0,0,0,0,0,0,0,0,0,-1,1343,1590,0,0
126,-566,0,0,0,0,0,0,0,0,0,-1,1350,1590,0,0
133,-566,0,0,0,0,0,0,0,0,0,-1,1357,1590,0,0
140,-566,0,0,0,0,0,0,0,0,0,-1,1364,1590,0,0
147,-566,0,0,0,0,0,0,0,0,0,-1,1371,1590,0,0
154,-566,0,0,0,0,0,0,0,0,0,-1,1378,1590,0,0
161,-566,0,0,0,0,0,0,0,0,0,-1,1385,1590,0,0
168,-566,0,0,0,0,0,0,0,0,0,-1,1392,1590,0,0
175,-566,0,0,0,0,0,0,0,0,0,-1,1399,1590,0,0
182,-566,0,0,0,0,0,0,0,0,0,-1,1406,1590,0,0
189,-566,0,0,0,0,0,0,0,0,0,-1,1413,1590,0,0
196,-566,0,0,0,0,0,0,0,0,0,-1,1420,1590,0,0
203,-566,0,0,0,0,0,0,0,0,0,-1,1427,1590,0,0
210,-566,0,0,0,0,0,0,0,0,0,-1,1434,1590,0,0
217,-566,0,0,0,0,0,0,0,0,0,-1,1441,1590,0,0
224,-566,0,0,0,0,0,0,0,0,0,-1,1448,1590,0,0
231,-566,0,0,0,0,0,0,0,0,0,-1,1455,1590,0,0
238,-566,0,0,0,0,0,0,0,0,0,-1,1462,1590,0,0
245,-566,0,0,0,0,0,0,0,0,0,-1,1469,1590,0,0
252,-566,0,0,0,0,0,0,0,0,0,-1,1476,1590,0,0
259,-566,0,0,0,0,0,0,0,0,0,-1,1483,1590,0,0
266,-566,0,0,0,0,0,0,0,0,0,-1,1490,1590,0,0
273,-566,0,0,0,0,0,0,0,0,0,-1,1497,1590,0,0
280,-566,0,0,0,0,0,0,0,0,0,-1,1504,1590,0,0
287,-566,0,0,0,0,0,0,0,0,0,-1,1511,1590,0,0
294,-566,0,0,0,0,0,0,0,0,0,-1,1518,1590,0,0
301,-566,0,0,0,0,0,0,0,0,0,-1,1525,1590,0,0
308,-566,0,0,0,0,0,0,0,0,0,-1,1532,1590,0,0
315,-566,0,0,0,0,0,0,0,0,0,-1,1539,1590,0,0
322,-566,4.51013,3.82666,0,0,0,0,0,0,0,-1,1546,1590,4.51009,-3.82667
329,-566,4.00769,3.53735,0,0,0,0,0,0,0,-1,1553,1590,4.00772,-3.5373
336,-566,5.35486,3.97852,0,0,0,0,0,0,0,-1,1560,1590,5.35481,-3.97846
343,-566,2.61194,2.01282,0,0,0,0,0,0,0,-1,1567,1590,2.61195,-2.01279
350,-566,4.32666,2.5553,0,0,0,0,0,0,0,-1,1574,1590,4.32671,-2.55536
357,-566,6.34058,5.18579,0,0,0,0,0,0,0,-1,1581,1590,6.34059,-5.1858
364,-566,6.06262,4.20251,0,0,0,0,0,0,0,-1,1588,1590,6.06259,-4.20246
371,-566,5.78455,3.21912,0,0,0,0,0,0,0,-1,1595,1590,5.7846,-3.21912
378,-566,5.7439,0.695557,0,0,0,0,0,0,0,-1,1602,1590,5.74392,-0.695531
385,-566,5.67615,-0.573975,0,0,0,0,0,0,0,-1,1609,1590,5.67612,0.573956
392,-566,5.78638,1.82434,0,0,0,0,0,0,0,-1,1616,1590,5.78637,-1.82439
399,-566,5.36621,1.7373,0,0,0,0,0,0,0,-1,1623,1590,5.36627,-1.7373
406,-566,4.30359,5.26868,0,0,0,0,0,0,0,-1,1630,1590,4.30364,-5.26867
413,-566,4.27124,5.79492,0,0,0,0,0,0,0,-1,1637,1590,4.27123,-5.7949
420,-566,4.5896,4.60107,0,0,0,0,0,0,0,-1,1644,1590,4.58957,-4.60111
427,-566,4.55933,5.37695,0,0,0,0,0,0,0,-1,1651,1590,4.55934,-5.37693
434,-566,5.27161,6.69189,0,0,0,0,0,0,0,-1,1658,1590,5.27166,-6.69186
441,-566,5.3468,6.63538,0.000247733,-0.0141242,0.00164973,0.000434671,-0.0143111,0.112833,0.00968889,0.0408302,1665,1590,5.34676,-6.63537
448,-566,5.34973,6.47205,-0.000364888,-0.0124067,0.00306191,0.000368953,-0.0131405,0.235231,0.00888589,0.0307145,1672,1590,5.34976,-6.47202
455,-566,5.29016,6.4198,-0.00100852,-0.0107415,0.00403145,0.000444431,-0.0121945,0.345913,0.00828175,0.0216752,1679,1590,5.2902,-6.41974
462,-566,5.27576,6.354,-0.00136005,-0.00910364,0.00444328,0.000661674,-0.0111254,0.42701,0.00764701,0.014309,1686,1590,5.27576,-6.35399
469,-566,5.27222,6.2616,-0.00147305,-0.00752159,0.00448403,0.000911264,-0.0099059,0.488711,0.00692769,0.0120419,1693,1590,5.27218,-6.26161
476,-566,5.2915,6.16101,-0.00150013,-0.00604073,0.00422769,0.00102829,-0.00856914,0.538992,0.00608456,0.0102052,1700,1590,5.29151,-6.161
483,-566,5.29541,6.06042,-0.00125448,-0.00436763,0.00409868,0.00157325,-0.00719536,0.603923,0.00539829,0.0102873,1707,1590,5.29545,-6.06046
490,-566,5.28198,5.96338,-0.000844405,-0.00349314,0.00332887,0.00141387,-0.00575141,0.596075,0.00438226,0.0106374,1714,1590,5.28195,-5.96332
497,-566,5.30872,5.87927,-0.000347456,-0.00220261,0.00222249,0.00113326,-0.00368332,0.587708,0.00290786,0.0138884,1721,1590,5.30873,-5.87928
504,-566,5.35559,5.7843,0.000417775,-0.000956413,0.00120118,0.00111449,-0.00165313,0.525603,0.00160794,0.0192961,1728,1590,5.35562,-5.78432
511,-566,5.33142,5.66101,0.00155987,0.000326123,-0.000322587,0.00163913,0.000246868,-0.240915,0.00102046,0.0190667,1735,1590,5.33136,-5.66104
518,-566,5.32568,5.55078,0.00287807,0.00221367,-0.00273522,0.00530119,-0.00020945,-0.724967,0.00360597,0.011494,1742,1590,5.32573,-5.55072
525,-566,5.30188,5.41931,0.00414915,0.00436084,-0.00560481,0.0098608,-0.00135082,-0.79484,0.0070673,0.0110742,1749,1590,5.30186,-5.41935
532,-566,5.29333,5.29541,0.00498524,0.00692456,-0.00917902,0.015185,-0.00327519,-0.838022,0.0113734,0.0131799,1756,1590,5.29334,-5.29546
539,-566,5.31836,5.19714,0.00583887,0.00938416,-0.0132221,0.0209519,-0.0057289,-0.852034,0.0162184,0.0160975,1763,1590,5.3184,-5.19717
546,-566,5.33374,5.06494,0.0066746,0.0126909,-0.0182419,0.028171,-0.00880552,-0.867114,0.022303,0.0157026,1770,1590,5.33369,-5.06494
553,-566,5.33154,5.00586,0.00731317,0.0166096,-0.0243359,0.0367372,-0.0128144,-0.879763,0.0296992,0.0275593,1777,1590,5.33159,-5.00582
560,-566,5.28101,4.71497,0.00774792,0.0210952,-0.0313302,0.0464547,-0.0176116,-0.890334,0.0382178,0.0394023,1784,1590,5.28096,-4.71492
567,-566,5.33862,4.33984,0,0,0,0,0,0,0,-1,1791,1590,5.33864,-4.3398
574,-566,5.93738,3.40039,0,0,0,0,0,0,0,-1,1798,1590,5.93739,-3.40036
581,-566,2.54102,5.1311,0,0,0,0,0,0,0,-1,1805,1590,2.54099,-5.13111
588,-566,5.5542,6.77026,0,0,0,0,0,0,0,-1,1812,1590,5.55417,-6.77031
595,-566,4.9917,3.92407,0,0,0,0,0,0,0,-1,1819,1590,4.99173,-3.92401
602,-566,5.41614,0.198242,0,0,0,0,0,0,0,-1,1826,1590,5.41619,-0.198251
609,-566,0,0,0,0,0,0,0,0,0,-1,1833,1590,0,0
616,-566,0,0,0,0,0,0,0,0,0,-1,1840,1590,0,0
623,-566,0,0,0,0,0,0,0,0,0,-1,1847,1590,0,0
630,-566,0,0,0,0,0,0,0,0,0,-1,1854,1590,0,0
637,-566,0,0,0,0,0,0,0,0,0,-1,1861,1590,0,0
644,-566,0,0,0,0,0,0,0,0,0,-1,1868,1590,0,0
651,-566,0,0,0,0,0,0,0,0,0,-1,1875,1590,0,0
658,-566,0,0,0,0,0,0,0,0,0,-1,1882,1590,0,0
665,-566,0,0,0,0,0,0,0,0,0,-1,1889,1590,0,0
672,-566,0,0,0,0,0,0,0,0,0,-1,1896,1590,0,0
679,-566,0,0,0,0,0,0,0,0,0,-1,1903,1590,0,0
686,-566,0,0,0,0,0,0,0,0,0,-1,1910,1590,0,0
693,-566,0,0,0,0,0,0,0,0,0,-1,1917,1590,0,0
700,-566,0,0,0,0,0,0,0,0,0,-1,1924,1590,0,0
707,-566,0,0,0,0,0,0,0,0,0,-1,1931,1590,0,0
714,-566,0,0,0,0,0,0,0,0,0,-1,1938,1590,0,0
721,-566,0,0,0,0,0,0,0,0,0,-1,1945,1590,0,0
728,-566,0,0,0,0,0,0,0,0,0,-1,1952,1590,0,0
735,-566,0,0,0,0,0,0,0,0,0,-1,1959,1590,0,0
742,-566,0,0,0,0,0,0,0,0,0,-1,1966,1590,0,0
749,-566,0,0,0,0,0,0,0,0,0,-1,1973,1590,0,0
756,-566,0,0,0,0,0,0,0,0,0,-1,1980,1590,0,0
763,-566,0,0,0,0,0,0,0,0,0,-1,1987,1590,0,0
770,-566,0,0,0,0,0,0,0,0,0,-1,1994,1590,0,0
777,-566,0,0,0,0,0,0,0,0,0,-1,2001,1590,0,0
784,-566,0,0,0,0,0,0,0,0,0,-1,2008,1590,0,0
791,-566,0,0,0,0,0,0,0,0,0,-1,2015,1590,0,0
798,-566,0,0,0,0,0,0,0,0,0,-1,2022,1590,0,0
805,-566,0,0,0,0,0,0,0,0,0,-1,2029,1590,0,0
812,-566,0,0,0,0,0,0,0,0,0,-1,2036,1590,0,0
-700,-573,0,0,0,0,0,0,0,0,0,-1,524,1597,0,0
-693,-573,0,0,0,0,0,0,0,0,0,-1,531,1597,0,0
-686,-573,0,0,0,0,0,0,0,0,0,-1,538,1597,0,0
-679,-573,0,0,0,0,0,0,0,0,0,-1,545,1597,0,0
-672,-573,0,0,0,0,0,0,0,0,0,-1,552,1597,0,0
-665,-573,0,0,0,0,0,0,0,0,0,-1,559,1597,0,0
-658,-573,0,0,0,0,0,0,0,0,0,-1,566,1597,0,0
-651,-573,0,0,0,0,0,0,0,0,0,-1,573,1597,0,0
-644,-573,0,0,0,0,0,0,0,0,0,-1,580,1597,0,0
-637,-573,0,0,0,0,0,0,0,0,0,-1,587,1597,0,0
-630,-573,0,0,0,0,0,0,0,0,0,-1,594,1597,0,0
-623,-573,0,0,0,0,0,0,0,0,0,-1,601,1597,0,0
-616,-573,0,0,0,0,0,0,0,0,0,-1,608,1597,0,0
-609,-573,0,0,0,0,0,0,0,0,0,-1,615,1597,0,0
-602,-573,0,0,0,0,0,0,0,0,0,-1,622,1597,0,0
-595,-573,0,0,0,0,0,0,0,0,0,-1,629,1597,0,0
-588,-573,0,0,0,0,0,0,0,0,0,-1,636,1597,0,0
-581,-573,0,0,0,0,0,0,0,0,0,-1,643,1597,0,0
-574,-573,0,0,0,0,0,0,0,0,0,-1,650,1597,0,0
-567,-573,0,0,0,0,0,0,0,0,0,-1,657,1597,0,0
-560,-573,0,0,0,0,0,0,0,0,0,-1,664,1597,0,0
-553,-573,0,0,0,0,0,0,0,0,0,-1,671,1597,0,0
-546,-573,0,0,0,0,0,0,0,0,0,-1,678,1597,0,0
-539,-573,0,0,0,0,0,0,0,0,0,-1,685,1597,0,0
-532,-573,0,0,0,0,0,0,0,0,0,-1,692,1597,0,0
-525,-573,0,0,0,0,0,0,0,0,0,-1,699,1597,0,0
-518,-573,0,0,0,0,0,0,0,0,0,-1,706,1597,0,0
-511,-573,0,0,0,0,0,0,0,0,0,-1,713,1597,0,0
-504,-573,0,0,0,0,0,0,0,0,0,-1,720,1597,0,0
-497,-573,0,0,0,0,0,0,0,0,0,-1,727,1597,0,0
-490,-573,0,0,0,0,0,0,0,0,0,-1,734,1597,0,0
-483,-573,0,0,0,0,0,0,0,0,0,-1,741,1597,0,0
-476,-573,0.461731,3.43896,0,0,0,0,0,0,0,-1,748,1597,0.461741,-3.439
-469,-573,0.181641,4.23315,0,0,0,0,0,0,0,-1,755,1597,0.181635,-4.23321
-462,-573,0.712524,4.42102,0,0,0,0,0,0,0,-1,762,1597,0.712497,-4.42097
-455,-573,-0.950623,2.15942,0,0,0,0,0,0,0,-1,769,1597,-0.950652,-2.15948
-448,-573,0.269592,2.30188,0,0,0,0,0,0,0,-1,776,1597,0.269582,-2.30189
-441,-573,1.64301,3.34326,0,0,0,0,0,0,0,-1,783,1597,1.64303,-3.34323
-434,-573,1.61993,3.84998,0,0,0,0,0,0,0,-1,790,1597,1.61996,-3.84998
-427,-573,1.33514,4.0238,0.0242541,0.0193386,0.000190985,0.0242615,0.0193312,0.0387759,0.0148071,0.0472305,797,1597,1.33513,-4.02381
-420,-573,1.53137,4.23779,0.0204702,0.0165717,-0.000706417,0.0205943,0.0164476,-0.173838,0.0125773,0.0389253,804,1597,1.53137,-4.23777
-413,-573,1.63904,4.3114,0.0166986,0.013977,-0.00128417,0.0172089,0.0134667,-0.378216,0.010451,0.0271129,811,1597,1.63907,-4.31141
-406,-573,1.59589,4.41199,0.0129798,0.0112623,-0.0016558,0.0139863,0.0102558,-0.546181,0.0083628,0.0139717,818,1597,1.59591,-4.41196
-399,-573,1.59723,4.55444,0.00956075,0.00863343,-0.00177699,0.0109336,0.00726061,-0.657782,0.00642478,0.0104706,825,1597,1.59724,-4.55443
-392,-573,1.62012,4.67871,0.00679999,0.00635371,-0.00174316,0.00833424,0.00481947,-0.721741,0.00483139,0.0106829,832,1597,1.62009,-4.67868
-385,-573,1.60883,4.79126,0.00422538,0.00449186,-0.00164821,0.0060122,0.00270503,-0.825731,0.00347695,0.0130157,839,1597,1.60881,-4.79128
-378,-573,1.59918,4.8949,0.00222536,0.0029134,-0.00146511,0.00407433,0.00106443,-0.900713,0.00244007,0.0145012,846,1597,1.59919,-4.89493
-371,-573,1.61725,5.02356,0.00118389,0.00238404,-0.00101299,0.00296135,0.000606581,-1.0528,0.00180632,0.0144863,853,1597,1.61727,-5.02359
-364,-573,1.62445,5.14319,0.000543521,0.00205656,-0.000410346,0.00216069,0.000439399,-1.3223,0.00131862,0.0161159,860,1597,1.62442,-5.14324
-357,-573,1.60999,5.24316,0.000189719,0.00189887,2.92903e-05,0.00189937,0.000189217,1.55367,0.00120812,0.0193041,867,1597,1.60997,-5.24316
-350,-573,1.62177,5.37329,0.000550122,0.00208875,0.000386007,0.00218016,0.000458712,1.33827,0.00132723,0.0163638,874,1597,1.62174,-5.37329
-343,-573,1.65625,5.48889,0.00124719,0.00238521,0.000549557,0.00260726,0.00102513,1.18679,0.00151671,0.0207574,881,1597,1.65627,-5.48892
-336,-573,1.63251,5.59631,0.0022307,0.00232983,0.000825787,0.00310754,0.00145299,0.815373,0.00179539,0.0160012,888,1597,1.63252,-5.59628
-329,-573,1.63074,5.72168,0.00287756,0.0027936,0.000653855,0.00349078,0.00218038,0.75334,0.00203616,0.0169593,895,1597,1.63076,-5.72165
-322,-573,1.63342,5.84485,0.00366665,0.00282214,0.000191235,0.00370794,0.00278085,0.212627,0.00222817,0.0129552,902,1597,1.6334,-5.84489
-315,-573,1.65863,5.95886,0.00417604,0.00250978,-0.00049964,0.00431438,0.00237144,-0.270105,0.002495,0.0170221,909,1597,1.6586,-5.95888
-308,-573,1.68634,5.99402,0.00460162,0.00159485,-0.00178844,0.00543462,0.000761846,-0.435889,0.00339772,0.026071,916,1597,1.68631,-5.99406
-301,-573,1.72296,6.06213,0.00506133,-0.000516065,-0.00386618,0.00703962,-0.00249435,-0.472957,0.00570915,0.0308786,923,1597,1.72299,-6.06216
-294,-573,1.81122,6.16638,0.0056517,-0.00293954,-0.00621036,0.0089073,-0.00619514,-0.482836,0.00876614,0.0359306,930,1597,1.81124,-6.1664
-287,-573,2.32446,5.83386,0.00651948,-0.00632796,-0.00898262,0.0111389,-0.0109474,-0.474995,0.0127517,0.0448965,937,1597,2.32445,-5.83387
-280,-573,0.558777,7.28247,0,0,0,0,0,0,0,-1,944,1597,0.558765,-7.28253
-273,-573,1.0907,6.34839,0,0,0,0,0,0,0,-1,951,1597,1.0907,-6.34844
-266,-573,3.42639,5.96655,0,0,0,0,0,0,0,-1,958,1597,3.42639,-5.96654
-259,-573,0.0914307,3.70227,0,0,0,0,0,0,0,-1,965,1597,0.0914227,-3.70232
-252,-573,-0.425415,3.76782,0,0,0,0,0,0,0,-1,972,1597,-0.425417,-3.76787
-245,-573,-1.05585,3.71252,0,0,0,0,0,0,0,-1,979,1597,-1.05582,-3.71253
-238,-573,3.11401,5.78491,0,0,0,0,0,0,0,-1,986,1597,3.11401,-5.78491
-231,-573,-0.49054,5.40637,0,0,0,0,0,0,0,-1,993,1597,-0.490523,-5.40641
-224,-573,0.160522,4.73511,0,0,0,0,0,0,0,-1,1000,1597,0.160551,-4.7351
-217,-573,0.79126,4.07227,0,0,0,0,0,0,0,-1,1007,1597,0.791254,-4.07224
-210,-573,1.43866,3.4397,0,0,0,0,0,0,0,-1,1014,1597,1.43869,-3.43971
-203,-573,-0.649231,4.36084,0,0,0,0,0,0,0,-1,1021,1597,-0.649217,-4.36081
-196,-573,-1.89539,6.12012,0,0,0,0,0,0,0,-1,1028,1597,-1.89541,-6.12017
-189,-573,-2.11987,3.57178,0,0,0,0,0,0,0,-1,1035,1597,-2.11987,-3.57176
-182,-573,0,0,0,0,0,0,0,0,0,-1,1042,1597,0,0
-175,-573,0,0,0,0,0,0,0,0,0,-1,1049,1597,0,0
-168,-573,0,0,0,0,0,0,0,0,0,-1,1056,1597,0,0
-161,-573,0,0,0,0,0,0,0,0,0,-1,1063,1597,0,0
-154,-573,0,0,0,0,0,0,0,0,0,-1,1070,1597,0,0
-147,-573,0,0,0,0,0,0,0,0,0,-1,1077,1597,0,0
-140,-573,0,0,0,0,0,0,0,0,0,-1,1084,1597,0,0
-133,-573,0,0,0,0,0,0,0,0,0,-1,1091,1597,0,0
-126,-573,0,0,0,0,0,0,0,0,0,-1,1098,1597,0,0
-119,-573,0,0,0,0,0,0,0,0,0,-1,1105,1597,0,0
-112,-573,0,0,0,0,0,0,0,0,0,-1,1112,1597,0,0
-105,-573,0,0,0,0,0,0,0,0,0,-1,1119,1597,0,0
-98,-573,0,0,0,0,0,0,0,0,0,-1,1126,1597,0,0
-91,-573,0,0,0,0,0,0,0,0,0,-1,1133,1597,0,0
-84,-573,0,0,0,0,0,0,0,0,0,-1,1140,1597,0,0
-77,-573,0,0,0,0,0,0,0,0,0,-1,1147,1597,0,0
-70,-573,0,0,0,0,0,0,0,0,0,-1,1154,1597,0,0
-63,-573,0,0,0,0,0,0,0,0,0,-1,1161,1597,0,0
-56,-573,0,0,0,0,0,0,0,0,0,-1,1168,1597,0,0
-49,-573,0,0,0,0,0,0,0,0,0,-1,1175,1597,0,0
-42,-573,0,0,0,0,0,0,0,0,0,-1,1182,1597,0,0
-35,-573,0,0,0,0,0,0,0,0,0,-1,1189,1597,0,0
-28,-573,0,0,0,0,0,0,0,0,0,-1,1196,1597,0,0
-21,-573,0,0,0,0,0,0,0,0,0,-1,1203,1597,0,0
-14,-573,0,0,0,0,0,0,0,0,0,-1,1210,1597,0,0
-7,-573,0,0,0,0,0,0,0,0,0,-1,1217,1597,0,0
0,-573,0,0,0,0,0,0,0,0,0,-1,1224,1597,0,0
7,-573,0,0,0,0,0,0,0,0,0,-1,1231,1597,0,0
14,-573,0,0,0,0,0,0,0,0,0,-1,1238,1597,0,0
21,-573,0,0,0,0,0,0,0,0,0,-1,1245,1597,0,0
28,-573,0,0,0,0,0,0,0,0,0,-1,1252,1597,0,0
35,-573,0,0,0,0,0,0,0,0,0,-1,1259,1597,0,0
42,-573,0,0,0,0,0,0,0,0,0,-1,1266,1597,0,0
49,-573,0,0,0,0,0,0,0,0,0,-1,1273,1597,0,0
56,-573,0,0,0,0,0,0,0,0,0,-1,1280,1597,0,0
63,-573,0,0,0,0,0,0,0,0,0,-1,1287,1597,0,0
70,-573,0,0,0,0,0,0,0,0,0,-1,1294,1597,0,0
77,-573,0,0,0,0,0,0,0,0,0,-1,1301,1597,0,0
84,-573,0,0,0,0,0,0,0,0,0,-1,1308,1597,0,0
91,-573,0,0,0,0,0,0,0,0,0,-1,1315,1597,0,0
98,-573,0,0,0,0,0,0,0,0,0,-1,1322,1597,0,0
105,-573,0,0,0,0,0,0,0,0,0,-1,1329,1597,0,0
112,-573,0,0,0,0,0,0,0,0,0,-1,1336,1597,0,0
119,-573,0,0,0,0,0,0,0,0,0,-1,1343,1597,0,0
126,-573,0,0,0,0,0,0,0,0,0,-1,1350,1597,0,0
133,-573,0,0,0,0,0,0,0,0,0,-1,1357,1597,0,0
140,-573,0,0,0,0,0,0,0,0,0,-1,1364,1597,0,0
147,-573,0,0,0,0,0,0,0,0,0,-1,1371,1597,0,0
154,-573,0,0,0,0,0,0,0,0,0,-1,1378,1597,0,0
161,-573,0,0,0,0,0,0,0,0,0,-1,1385,1597,0,0
168,-573,0,0,0,0,0,0,0,0,0,-1,1392,1597,0,0
175,-573,0,0,0,0,0,0,0,0,0,-1,1399,1597,0,0
182,-573,0,0,0,0,0,0,0,0,0,-1,1406,1597,0,0
189,-573,0,0,0,0,0,0,0,0,0,-1,1413,1597,0,0
196,-573,0,0,0,0,0,0,0,0,0,-1,1420,1597,0,0
203,-573,0,0,0,0,0,0,0,0,0,-1,1427,1597,0,0
210,-573,0,0,0,0,0,0,0,0,0,-1,1434,1597,0,0
217,-573,0,0,0,0,0,0,0,0,0,-1,1441,1597,0,0
224,-573,0,0,0,0,0,0,0,0,0,-1,1448,1597,0,0
231,-573,0,0,0,0,0,0,0,0,0,-1,1455,1597,0,0
238,-573,0,0,0,0,0,0,0,0,0,-1,1462,1597,0,0
245,-573,0,0,0,0,0,0,0,0,0,-1,1469,1597,0,0
252,-573,0,0,0,0,0,0,0,0,0,-1,1476,1597,0,0
259,-573,0,0,0,0,0,0,0,0,0,-1,1483,1597,0,0
266,-573,0,0,0,0,0,0,0,0,0,-1,1490,1597,0,0
273,-573,0,0,0,0,0,0,0,0,0,-1,1497,1597,0,0
280,-573,0,0,0,0,0,0,0,0,0,-1,1504,1597,0,0
287,-573,0,0,0,0,0,0,0,0,0,-1,1511,1597,0,0
294,-573,0,0,0,0,0,0,0,0,0,-1,1518,1597,0,0
301,-573,0,0,0,0,0,0,0,0,0,-1,1525,1597,0,0
308,-573,9.99329,6.14063,0,0,0,0,0,0,0,-1,1532,1597,9.99331,-6.14065
315,-573,10.5015,6.63318,0,0,0,0,0,0,0,-1,1539,1597,10.5014,-6.63316
322,-573,10.688,8.34229,0,0,0,0,0,0,0,-1,1546,1597,10.688,-8.34231
329,-573,10.7147,9.13196,0,0,0,0,0,0,0,-1,1553,1597,10.7148,-9.13194
336,-573,3.48071,2.70703,0,0,0,0,0,0,0,-1,1560,1597,3.48069,-2.70698
343,-573,2.95447,1.73999,0,0,0,0,0,0,0,-1,1567,1597,2.95442,-1.73996
350,-573,2.53748,1.56433,0,0,0,0,0,0,0,-1,1574,1597,2.53753,-1.5643
357,-573,7.40247,4.03613,0,0,0,0,0,0,0,-1,1581,1597,7.40244,-4.03614
364,-573,7.14551,3.02087,0,0,0,0,0,0,0,-1,1588,1597,7.14556,-3.02084
371,-573,6.88867,2.00549,0,0,0,0,0,0,0,-1,1595,1597,6.88868,-2.00553
378,-573,6.63257,0.305176,0,0,0,0,0,0,0,-1,1602,1597,6.63258,-0.305231
385,-573,6.54346,-0.951904,0,0,0,0,0,0,0,-1,1609,1597,6.54349,0.951901
392,-573,6.41833,-2.18225,0,0,0,0,0,0,0,-1,1616,1597,6.41831,2.18228
399,-573,4.26282,4.73657,0,0,0,0,0,0,0,-1,1623,1597,4.26285,-4.73652
406,-573,5.6637,7.03528,0,0,0,0,0,0,0,-1,1630,1597,5.66369,-7.03525
413,-573,4.27136,4.59778,0,0,0,0,0,0,0,-1,1637,1597,4.27136,-4.59775
420,-573,4.57886,5.29871,0,0,0,0,0,0,0,-1,1644,1597,4.57881,-5.29873
427,-573,4.78381,5.91455,0.00235271,-0.0149479,-0.000668126,0.00237847,-0.0149737,-0.0385421,0.0108624,0.046597,1651,1597,4.78383,-5.91451
434,-573,4.88831,6.29834,0.0015962,-0.013596,0.000709497,0.00162926,-0.0136291,0.0465662,0.00967499,0.0369201,1658,1597,4.88834,-6.29828
441,-573,5.2074,6.61914,0.000921305,-0.0119639,0.00182572,0.001175,-0.0122175,0.138071,0.00856361,0.0246934,1665,1597,5.20737,-6.61914
448,-573,5.19446,6.56714,0.000340024,-0.0102373,0.00261041,0.00094917,-0.0108465,0.229251,0.00756725,0.0159047,1672,1597,5.19444,-6.56716
455,-573,5.1925,6.45837,-0.000287786,-0.0086349,0.00312152,0.00075042,-0.00967311,0.321087,0.00671288,0.0147162,1679,1597,5.19251,-6.45833
462,-573,5.20044,6.35046,-0.000617933,-0.00712762,0.00323315,0.000714955,-0.0084605,0.391028,0.00589313,0.0170196,1686,1597,5.20047,-6.35043
469,-573,5.19604,6.25659,-0.000723329,-0.00574243,0.00313626,0.000783831,-0.00724959,0.447975,0.0051144,0.0147526,1693,1597,5.19604,-6.25662
476,-573,5.2113,6.16577,-0.000772878,-0.00449711,0.00286968,0.000785901,-0.00605589,0.4976,0.0043231,0.014823,1700,1597,5.21126,-6.1658
483,-573,5.19043,6.06323,-0.000568529,-0.00309813,0.00270327,0.0011512,-0.00481786,0.566588,0.00365655,0.0114559,1707,1597,5.19048,-6.06323
490,-573,5.16638,5.95459,-5.35714e-05,-0.00227256,0.00198729,0.00111296,-0.0034391,0.530804,0.00274013,0.0101339,1714,1597,5.16636,-5.95463
497,-573,5.17456,5.84985,0.000659079,-0.00111277,0.0010407,0.00113988,-0.00159357,0.432782,0.00158538,0.0153064,1721,1597,5.17458,-5.8498
504,-573,5.20239,5.73767,0.00154199,1.16439e-05,0.000174757,0.00156169,-8.05879e-06,0.112269,0.00104383,0.0175923,1728,1597,5.20245,-5.73763
511,-573,5.21277,5.62354,0.00287722,0.0014695,-0.00156444,0.00388884,0.000457879,-0.574008,0.00245422,0.0188868,1735,1597,5.21281,-5.62355
518,-573,5.23389,5.53345,0.00447481,0.00384726,-0.00454446,0.00871632,-0.000394249,-0.75093,0.00594665,0.0141949,1742,1597,5.23383,-5.53347
525,-573,5.20203,5.42981,0.00602284,0.00656026,-0.00814156,0.0144375,-0.00185445,-0.801894,0.010299,0.0166131,1749,1597,5.20202,-5.42983
532,-573,5.20178,5.30835,0.00710266,0.0100949,-0.012648,0.021335,-0.00413744,-0.844269,0.0157843,0.014785,1756,1597,5.20173,-5.30833
539,-573,5.22986,5.21143,0.00831437,0.0136852,-0.0180013,0.0292003,-0.00720071,-0.859442,0.0222588,0.0160004,1763,1597,5.22982,-5.21143
546,-573,5.2522,5.10229,0.00942202,0.0183704,-0.0246905,0.0389888,-0.0111964,-0.875031,0.0304195,0.0250088,1770,1597,5.25223,-5.10226
553,-573,5.19495,4.82861,0.0101837,0.0238498,-0.0327302,0.0504527,-0.0164191,-0.888305,0.0402407,0.042255,1777,1597,5.19499,-4.82857
560,-573,5.24048,4.56104,0,0,0,0,0,0,0,-1,1784,1597,5.24043,-4.56104
567,-573,4.99597,2.77759,0,0,0,0,0,0,0,-1,1791,1597,4.99596,-2.7776
574,-573,0.83374,5.7041,0,0,0,0,0,0,0,-1,1798,1597,0.833718,-5.70405
581,-573,-0.297119,7.0365,0,0,0,0,0,0,0,-1,1805,1597,-0.297138,-7.03648
588,-573,-0.310303,7.10999,0,0,0,0,0,0,0,-1,1812,1597,-0.310332,-7.10993
595,-573,4.28149,4.16248,0,0,0,0,0,0,0,-1,1819,1597,4.28153,-4.16253
602,-573,0,0,0,0,0,0,0,0,0,-1,1826,1597,0,0
609,-573,0,0,0,0,0,0,0,0,0,-1,1833,1597,0,0
616,-573,0,0,0,0,0,0,0,0,0,-1,1840,1597,0,0
623,-573,0,0,0,0,0,0,0,0,0,-1,1847,1597,0,0
630,-573,0,0,0,0,0,0,0,0,0,-1,1854,1597,0,0
637,-573,0,0,0,0,0,0,0,0,0,-1,1861,1597,0,0
644,-573,0,0,0,0,0,0,0,0,0,-1,1868,1597,0,0
651,-573,0,0,0,0,0,0,0,0,0,-1,1875,1597,0,0
658,-573,0,0,0,0,0,0,0,0,0,-1,1882,1597,0,0
665,-573,0,0,0,0,0,0,0,0,0,-1,1889,1597,0,0
672,-573,0,0,0,0,0,0,0,0,0,-1,1896,1597,0,0
679,-573,0,0,0,0,0,0,0,0,0,-1,1903,1597,0,0
686,-573,0,0,0,0,0,0,0,0,0,-1,1910,1597,0,0
693,-573,0,0,0,0,0,0,0,0,0,-1,1917,1597,0,0
700,-573,0,0,0,0,0,0,0,0,0,-1,1924,1597,0,0
707,-573,0,0,0,0,0,0,0,0,0,-1,1931,1597,0,0
714,-573,0,0,0,0,0,0,0,0,0,-1,1938,1597,0,0
721,-573,0,0,0,0,0,0,0,0,0,-1,1945,1597,0,0
728,-573,0,0,0,0,0,0,0,0,0,-1,1952,1597,0,0
735,-573,0,0,0,0,0,0,0,0,0,-1,1959,1597,0,0
742,-573,0,0,0,0,0,0,0,0,0,-1,1966,1597,0,0
749,-573,0,0,0,0,0,0,0,0,0,-1,1973,1597,0,0
756,-573,0,0,0,0,0,0,0,0,0,-1,1980,1597,0,0
763,-573,0,0,0,0,0,0,0,0,0,-1,1987,1597,0,0
770,-573,0,0,0,0,0,0,0,0,0,-1,1994,1597,0,0
777,-573,0,0,0,0,0,0,0,0,0,-1,2001,1597,0,0
784,-573,0,0,0,0,0,0,0,0,0,-1,2008,1597,0,0
791,-573,0,0,0,0,0,0,0,0,0,-1,2015,1597,0,0
798,-573,0,0,0,0,0,0,0,0,0,-1,2022,1597,0,0
805,-573,0,0,0,0,0,0,0,0,0,-1,2029,1597,0,0
812,-573,0,0,0,0,0,0,0,0,0,-1,2036,1597,0,0
-700,-580,0,0,0,0,0,0,0,0,0,-1,524,1604,0,0
-693,-580,0,0,0,0,0,0,0,0,0,-1,531,1604,0,0
-686,-580,0,0,0,0,0,0,0,0,0,-1,538,1604,0,0
-679,-580,0,0,0,0,0,0,0,0,0,-1,545,1604,0,0
-672,-580,0,0,0,0,0,0,0,0,0,-1,552,1604,0,0
-665,-580,0,0,0,0,0,0,0,0,0,-1,559,1604,0,0
-658,-580,0,0,0,0,0,0,0,0,0,-1,566,1604,0,0
-651,-580,0,0,0,0,0,0,0,0,0,-1,573,1604,0,0
-644,-580,0,0,0,0,0,0,0,0,0,-1,580,1604,0,0
-637,-580,0,0,0,0,0,0,0,0,0,-1,587,1604,0,0
-630,-580,0,0,0,0,0,0,0,0,0,-1,594,1604,0,0
-623,-580,0,0,0,0,0,0,0,0,0,-1,601,1604,0,0
-616,-580,0,0,0,0,0,0,0,0,0,-1,608,1604,0,0
-609,-580,0,0,0,0,0,0,0,0,0,-1,615,1604,0,0
-602,-580,0,0,0,0,0,0,0,0,0,-1,622,1604,0,0
-595,-580,0,0,0,0,0,0,0,0,0,-1,629,1604,0,0
-588,-580,0,0,0,0,0,0,0,0,0,-1,636,1604,0,0
-581,-580,0,0,0,0,0,0,0,0,0,-1,643,1604,0,0
-574,-580,0,0,0,0,0,0,0,0,0,-1,650,1604,0,0
-567,-580,0,0,0,0,0,0,0,0,0,-1,657,1604,0,0
-560,-580,0,0,0,0,0,0,0,0,0,-1,664,1604,0,0
-553,-580,0,0,0,0,0,0,0,0,0,-1,671,1604,0,0
-546,-580,0,0,0,0,0,0,0,0,0,-1,678,1604,0,0
-539,-580,0,0,0,0,0,0,0,0,0,-1,685,1604,0,0
-532,-580,0,0,0,0,0,0,0,0,0,-1,692,1604,0,0
-525,-580,0,0,0,0,0,0,0,0,0,-1,699,1604,0,0
-518,-580,0,0,0,0,0,0,0,0,0,-1,706,1604,0,0
-511,-580,0,0,0,0,0,0,0,0,0,-1,713,1604,0,0
-504,-580,0,0,0,0,0,0,0,0,0,-1,720,1604,0,0
-497,-580,0,0,0,0,0,0,0,0,0,-1,727,1604,0,0
-490,-580,0,0,0,0,0,0,0,0,0,-1,734,1604,0,0
-483,-580,0,0,0,0,0,0,0,0,0,-1,741,1604,0,0
-476,-580,0,0,0,0,0,0,0,0,0,-1,748,1604,0,0
-469,-580,-0.0325317,4.03027,0,0,0,0,0,0,0,-1,755,1604,-0.0325154,-4.03031
-462,-580,0.812439,4.59277,0,0,0,0,0,0,0,-1,762,1604,0.812445,-4.59271
-455,-580,-0.526428,0.741821,0,0,0,0,0,0,0,-1,769,1604,-0.526408,-0.741874
-448,-580,0.763306,1.07886,0,0,0,0,0,0,0,-1,776,1604,0.763332,-1.07886
-441,-580,2.2038,1.57861,0,0,0,0,0,0,0,-1,783,1604,2.20383,-1.57861
-434,-580,3.5611,1.95508,0,0,0,0,0,0,0,-1,790,1604,3.56112,-1.95502
-427,-580,1.31604,3.97156,0,0,0,0,0,0,0,-1,797,1604,1.31602,-3.97159
-420,-580,1.85248,4.19812,0.0301675,0.0222926,-0.00204064,0.0306649,0.0217952,-0.239075,0.0182211,0.0453322,804,1604,1.85247,-4.19815
-413,-580,1.68085,4.22083,0.0251588,0.0189722,-0.00274352,0.0262002,0.0179309,-0.362771,0.0154657,0.0450265,811,1604,1.68084,-4.22078
-406,-580,1.83038,4.36035,0.0201326,0.0155193,-0.00310967,0.0216977,0.0139541,-0.46629,0.0126971,0.0380611,818,1604,1.83035,-4.3603
-399,-580,1.7085,4.56104,0.0153334,0.0120571,-0.00313273,0.0172304,0.01016,-0.544495,0.0100011,0.0159648,825,1604,1.70847,-4.561
-392,-580,1.7262,4.68811,0.0112311,0.00892142,-0.00295945,0.0132531,0.00689946,-0.599375,0.00765382,0.010818,832,1604,1.7262,-4.68815
-385,-580,1.73663,4.78186,0.00742919,0.00618865,-0.00275888,0.00963667,0.00398117,-0.674824,0.00559165,0.0116669,839,1604,1.73663,-4.78181
-378,-580,1.7132,4.89624,0.00433416,0.0037907,-0.00245772,0.00653513,0.00158974,-0.73034,0.00393537,0.0141978,846,1604,1.71321,-4.89619
-371,-580,1.73413,5.04419,0.00241669,0.00255497,-0.00181495,0.0043021,0.000669568,-0.804437,0.00267298,0.0128601,853,1604,1.73415,-5.04421
-364,-580,1.7373,5.15381,0.00109344,0.00163793,-0.0010606,0.00246067,0.000270702,-0.91103,0.00155807,0.0176561,860,1604,1.73733,-5.15384
-357,-580,1.73462,5.25647,0.000109188,0.000945656,-0.000501952,0.00118078,-0.000125935,-1.13273,0.000832346,0.0125476,867,1604,1.73465,-5.25647
-350,-580,1.76208,5.39917,9.33411e-05,0.000742681,-4.24871e-05,0.000745449,9.05729e-05,-1.50573,0.000469695,0.0101197,874,1604,1.76207,-5.39918
-343,-580,1.76971,5.50916,0.000560696,0.000780385,0.000218292,0.000914912,0.000426169,1.0185,0.000528637,0.0107703,881,1604,1.76969,-5.50916
-336,-580,1.74048,5.56433,0.00153416,0.000684809,0.000500982,0.00176624,0.000452724,0.433825,0.00105934,0.0184256,888,1604,1.74048,-5.56437
-329,-580,1.74475,5.74255,0.00212969,0.00112946,0.000370129,0.00225175,0.00100739,0.318564,0.00130245,0.017118,895,1604,1.74474,-5.74258
-322,-580,1.74738,5.89075,0.0027666,0.00120687,3.35218e-05,0.00276732,0.00120615,0.021479,0.00160209,0.0179829,902,1604,1.74736,-5.89072
-315,-580,1.74377,5.95923,0.00313277,0.000948172,-0.000514473,0.00324787,0.000833077,-0.22009,0.00194787,0.014402,909,1604,1.74377,-5.95922
-308,-580,1.76349,6.07593,0.00338093,0.00014645,-0.00160159,0.00403978,-0.000512395,-0.390268,0.00287922,0.0155664,916,1604,1.76346,-6.07594
-301,-580,1.7951,6.14587,0.00364866,-0.00166831,-0.00333822,0.00525764,-0.00327729,-0.449134,0.00497166,0.0146635,923,1604,1.79512,-6.14588
-294,-580,1.80023,6.2207,0.00415297,-0.00365228,-0.00516779,0.00672618,-0.0062255,-0.461993,0.00747952,0.0201628,930,1604,1.80024,-6.22067
-287,-580,1.90875,6.37524,0.00496717,-0.0062907,-0.00723079,0.00850171,-0.00982523,-0.454662,0.0105903,0.0402724,937,1604,1.90876,-6.37523
-280,-580,1.24927,6.88245,0.00559952,-0.00997431,-0.0102392,0.0106764,-0.0150512,-0.460304,0.0149252,0.0438425,944,1604,1.24929,-6.88243
-273,-580,1.54004,6.64429,0.00639717,-0.0137011,-0.0134182,0.013112,-0.020416,-0.463993,0.0195099,0.0489476,951,1604,1.54007,-6.64428
-266,-580,1.62054,6.76257,0,0,0,0,0,0,0,-1,958,1604,1.62057,-6.76253
-259,-580,1.3924,6.48401,0,0,0,0,0,0,0,-1,965,1604,1.3924,-6.48406
-252,-580,1.19153,5.53467,0,0,0,0,0,0,0,-1,972,1604,1.19154,-5.53462
-245,-580,2.79565,5.646,0,0,0,0,0,0,0,-1,979,1604,2.79563,-5.64601
-238,-580,3.15564,6.01782,0,0,0,0,0,0,0,-1,986,1604,3.15566,-6.01787
-231,-580,0.257324,5.49207,0,0,0,0,0,0,0,-1,993,1604,0.257308,-5.49207
-224,-580,0.918091,4.76208,0,0,0,0,0,0,0,-1,1000,1604,0.918103,-4.76213
-217,-580,1.55963,4.01013,0,0,0,0,0,0,0,-1,1007,1604,1.55966,-4.01013
-210,-580,2.24384,3.29724,0,0,0,0,0,0,0,-1,1014,1604,2.24386,-3.29723
-203,-580,-0.534668,4.14832,0,0,0,0,0,0,0,-1,1021,1604,-0.534685,-4.14826
-196,-580,-0.778687,4.67432,0,0,0,0,0,0,0,-1,1028,1604,-0.778679,-4.67434
-189,-580,-2.00122,4.41125,0,0,0,0,0,0,0,-1,1035,1604,-2.00127,-4.41123
-182,-580,-2.39868,4.69312,0,0,0,0,0,0,0,-1,1042,1604,-2.39869,-4.69314
-175,-580,-2.82861,4.91418,0,0,0,0,0,0,0,-1,1049,1604,-2.82856,-4.91413
-168,-580,0,0,0,0,0,0,0,0,0,-1,1056,1604,0,0
-161,-580,0,0,0,0,0,0,0,0,0,-1,1063,1604,0,0
-154,-580,0,0,0,0,0,0,0,0,0,-1,1070,1604,0,0
-147,-580,0,0,0,0,0,0,0,0,0,-1,1077,1604,0,0
-140,-580,0,0,0,0,0,0,0,0,0,-1,1084,1604,0,0
-133,-580,0,0,0,0,0,0,0,0,0,-1,1091,1604,0,0
-126,-580,0,0,0,0,0,0,0,0,0,-1,1098,1604,0,0
-119,-580,0,0,0,0,0,0,0,0,0,-1,1105,1604,0,0
-112,-580,0,0,0,0,0,0,0,0,0,-1,1112,1604,0,0
-105,-580,0,0,0,0,0,0,0,0,0,-1,1119,1604,0,0
-98,-580,0,0,0,0,0,0,0,0,0,-1,1126,1604,0,0
-91,-580,0,0,0,0,0,0,0,0,0,-1,1133,1604,0,0
-84,-580,0,0,0,0,0,0,0,0,0,-1,1140,1604,0,0
-77,-580,0,0,0,0,0,0,0,0,0,-1,1147,1604,0,0
-70,-580,0,0,0,0,0,0,0,0,0,-1,1154,1604,0,0
-63,-580,0,0,0,0,0,0,0,0,0,-1,1161,1604,0,0
-56,-580,0,0,0,0,0,0,0,0,0,-1,1168,1604,0,0
-49,-580,0,0,0,0,0,0,0,0,0,-1,1175,1604,0,0
-42,-580,0,0,0,0,0,0,0,0,0,-1,1182,1604,0,0
-35,-580,0,0,0,0,0,0,0,0,0,-1,1189,1604,0,0
-28,-580,0,0,0,0,0,0,0,0,0,-1,1196,1604,0,0
-21,-580,0,0,0,0,0,0,0,0,0,-1,1203,1604,0,0
-14,-580,0,0,0,0,0,0,0,0,0,-1,1210,1604,0,0
-7,-580,0,0,0,0,0,0,0,0,0,-1,1217,1604,0,0
0,-580,0,0,0,0,0,0,0,0,0,-1,1224,1604,0,0
7,-580,0,0,0,0,0,0,0,0,0,-1,1231,1604,0,0
14,-580,0,0,0,0,0,0,0,0,0,-1,1238,1604,0,0
21,-580,0,0,0,0,0,0,0,0,0,-1,1245,1604,0,0
28,-580,0,0,0,0,0,0,0,0,0,-1,1252,1604,0,0
35,-580,0,0,0,0,0,0,0,0,0,-1,1259,1604,0,0
42,-580,0,0,0,0,0,0,0,0,0,-1,1266,1604,0,0
49,-580,0,0,0,0,0,0,0,0,0,-1,1273,1604,0,0
56,-580,0,0,0,0,0,0,0,0,0,-1,1280,1604,0,0
63,-580,0,0,0,0,0,0,0,0,0,-1,1287,1604,0,0
70,-580,0,0,0,0,0,0,0,0,0,-1,1294,1604,0,0
77,-580,0,0,0,0,0,0,0,0,0,-1,1301,1604,0,0
84,-580,0,0,0,0,0,0,0,0,0,-1,1308,1604,0,0
91,-580,0,0,0,0,0,0,0,0,0,-1,1315,1604,0,0
98,-580,0,0,0,0,0,0,0,0,0,-1,1322,1604,0,0
105,-580,0,0,0,0,0,0,0,0,0,-1,1329,1604,0,0
112,-580,0,0,0,0,0,0,0,0,0,-1,1336,1604,0,0
119,-580,0,0,0,0,0,0,0,0,0,-1,1343,1604,0,0
126,-580,0,0,0,0,0,0,0,0,0,-1,1350,1604,0,0
133,-580,0,0,0,0,0,0,0,0,0,-1,1357,1604,0,0
140,-580,0,0,0,0,0,0,0,0,0,-1,1364,1604,0,0
147,-580,0,0,0,0,0,0,0,0,0,-1,1371,1604,0,0
154,-580,0,0,0,0,0,0,0,0,0,-1,1378,1604,0,0
161,-580,0,0,0,0,0,0,0,0,0,-1,1385,1604,0,0
168,-580,0,0,0,0,0,0,0,0,0,-1,1392,1604,0,0
175,-580,0,0,0,0,0,0,0,0,0,-1,1399,1604,0,0
182,-580,0,0,0,0,0,0,0,0,0,-1,1406,1604,0,0
189,-580,0,0,0,0,0,0,0,0,0,-1,1413,1604,0,0
196,-580,0,0,0,0,0,0,0,0,0,-1,1420,1604,0,0
203,-580,0,0,0,0,0,0,0,0,0,-1,1427,1604,0,0
210,-580,0,0,0,0,0,0,0,0,0,-1,1434,1604,0,0
217,-580,0,0,0,0,0,0,0,0,0,-1,1441,1604,0,0
224,-580,0,0,0,0,0,0,0,0,0,-1,1448,1604,0,0
231,-580,0,0,0,0,0,0,0,0,0,-1,1455,1604,0,0
238,-580,0,0,0,0,0,0,0,0,0,-1,1462,1604,0,0
245,-580,0,0,0,0,0,0,0,0,0,-1,1469,1604,0,0
252,-580,0,0,0,0,0,0,0,0,0,-1,1476,1604,0,0
259,-580,0,0,0,0,0,0,0,0,0,-1,1483,1604,0,0
266,-580,0,0,0,0,0,0,0,0,0,-1,1490,1604,0,0
273,-580,0,0,0,0,0,0,0,0,0,-1,1497,1604,0,0
280,-580,0,0,0,0,0,0,0,0,0,-1,1504,1604,0,0
287,-580,0,0,0,0,0,0,0,0,0,-1,1511,1604,0,0
294,-580,5.51282,1.73914,0,0,0,0,0,0,0,-1,1518,1604,5.51287,-1.73914
301,-580,5.53796,3.15222,0,0,0,0,0,0,0,-1,1525,1604,5.538,-3.15223
308,-580,5.5979,4.69128,0,0,0,0,0,0,0,-1,1532,1604,5.59784,-4.69123
315,-580,10.5341,6.62097,0,0,0,0,0,0,0,-1,1539,1604,10.5341,-6.62096
322,-580,10.5703,7.36243,0,0,0,0,0,0,0,-1,1546,1604,10.5703,-7.36238
329,-580,10.6008,8.1012,0,0,0,0,0,0,0,-1,1553,1604,10.6009,-8.10119
336,-580,10.6627,8.81592,0,0,0,0,0,0,0,-1,1560,1604,10.6627,-8.81597
343,-580,3.32227,1.39636,0,0,0,0,0,0,0,-1,1567,1604,3.32222,-1.39633
350,-580,8.71277,4.0564,0,0,0,0,0,0,0,-1,1574,1604,8.71271,-4.05638
357,-580,8.52332,3.08154,0,0,0,0,0,0,0,-1,1581,1604,8.52332,-3.08157
364,-580,8.25818,2.07605,0,0,0,0,0,0,0,-1,1588,1604,8.25812,-2.07608
371,-580,8.04749,1.17346,0,0,0,0,0,0,0,-1,1595,1604,8.04754,-1.17343
378,-580,4.5072,6.30688,0,0,0,0,0,0,0,-1,1602,1604,4.50724,-6.30684
385,-580,7.26587,-1.07275,0,0,0,0,0,0,0,-1,1609,1604,7.26586,1.0728
392,-580,6.5498,-2.15625,0,0,0,0,0,0,0,-1,1616,1604,6.54984,2.15626
399,-580,5.21069,6.81165,0,0,0,0,0,0,0,-1,1623,1604,5.21064,-6.81159
406,-580,5.20056,6.64099,0,0,0,0,0,0,0,-1,1630,1604,5.20054,-6.64104
413,-580,5.14465,6.76917,0,0,0,0,0,0,0,-1,1637,1604,5.14468,-6.7692
420,-580,4.56799,5.99634,0,0,0,0,0,0,0,-1,1644,1604,4.56805,-5.99636
427,-580,5.1532,6.62439,0.00268233,-0.0127545,0.000342487,0.00268993,-0.0127621,0.0221718,0.00953207,0.0323018,1651,1604,5.15324,-6.62434
434,-580,5.08948,6.63794,0.0018941,-0.0114177,0.00114563,0.00199197,-0.0115156,0.0852265,0.00841994,0.0235283,1658,1604,5.08948,-6.6379
441,-580,5.07935,6.61328,0.00127993,-0.0098305,0.00171925,0.00153989,-0.0100905,0.150067,0.00729465,0.0114846,1665,1604,5.07935,-6.61331
448,-580,5.09082,6.55273,0.000781303,-0.00821994,0.00208436,0.00124054,-0.00867918,0.216859,0.00624087,0.010884,1672,1604,5.09077,-6.55271
455,-580,5.11389,6.4801,0.000218921,-0.0067608,0.00230968,0.000914003,-0.00745588,0.292322,0.00530158,0.0182257,1679,1604,5.11383,-6.48011
462,-580,5.09412,6.37207,-5.01625e-05,-0.00542383,0.00224369,0.000763467,-0.00623746,0.347881,0.00443475,0.0210821,1686,1604,5.0941,-6.37209
469,-580,5.08862,6.25745,-0.000112225,-0.00424162,0.00207054,0.000747138,-0.00510098,0.393406,0.0036751,0.018519,1693,1604,5.0886,-6.25747
476,-580,5.09644,6.15649,-0.000146355,-0.00321521,0.00181058,0.00069254,-0.00405411,0.433884,0.00296071,0.0151215,1700,1604,5.09646,-6.15653
483,-580,5.0813,6.06091,5.06637e-05,-0.00208375,0.00163228,0.000933651,-0.00296674,0.495872,0.00235165,0.0122427,1707,1604,5.08124,-6.0609
490,-580,5.05627,5.95386,0.000692883,-0.001285,0.000968349,0.00108803,-0.00168015,0.387439,0.00161035,0.0134117,1714,1604,5.05623,-5.95381
497,-580,5.05505,5.83997,0.00165253,-0.000157338,0.000136744,0.0016628,-0.000167612,0.0749874,0.00116842,0.01077,1721,1604,5.05511,-5.83992
504,-580,5.06799,5.70593,0.00269995,0.000924581,-0.000617925,0.00289385,0.000730685,-0.304055,0.00173766,0.0154721,1728,1604,5.06796,-5.70588
511,-580,5.09204,5.62866,0.00430826,0.00267987,-0.00268879,0.00630342,0.000684701,-0.638381,0.00399366,0.0167768,1735,1604,5.09199,-5.62864
518,-580,5.12305,5.53979,0.00627303,0.00573421,-0.00641783,0.0124271,-0.000419864,-0.764421,0.00842818,0.0157721,1742,1604,5.12307,-5.53977
525,-580,5.09692,5.43066,0.0081928,0.00922771,-0.0109562,0.0196787,-0.00225814,-0.808995,0.0139329,0.0172459,1749,1604,5.09692,-5.43064
532,-580,5.08667,5.32666,0.00962578,0.0140015,-0.0166367,0.0285936,-0.00496625,-0.850778,0.0209153,0.0185914,1756,1604,5.08666,-5.32668
539,-580,5.12402,5.25464,0.0113246,0.0190537,-0.0235763,0.0390801,-0.00870178,-0.866635,0.0293866,0.0235272,1763,1604,5.12397,-5.25461
546,-580,5.37256,5.11011,0.0128372,0.025437,-0.0322258,0.0519729,-0.0136986,-0.881927,0.0400044,0.0401455,1770,1604,5.37259,-5.11013
553,-580,5.65845,4.92139,0,0,0,0,0,0,0,-1,1777,1604,5.65845,-4.92138
560,-580,4.38342,3.76013,0,0,0,0,0,0,0,-1,1784,1604,4.38346,-3.7601
567,-580,1.58447,5.59851,0,0,0,0,0,0,0,-1,1791,1604,1.58442,-5.59856
574,-580,1.96387,5.81006,0,0,0,0,0,0,0,-1,1798,1604,1.96388,-5.81011
581,-580,1.57104,6.73145,0.00783523,0.0630214,-0.0899855,0.129549,-0.0586927,-0.934167,0.111218,0.0451871,1805,1604,1.57099,-6.73144
588,-580,1.37585,7.54932,0,0,0,0,0,0,0,-1,1812,1604,1.37586,-7.5493
595,-580,0,0,0,0,0,0,0,0,0,-1,1819,1604,0,0
602,-580,0,0,0,0,0,0,0,0,0,-1,1826,1604,0,0
609,-580,0,0,0,0,0,0,0,0,0,-1,1833,1604,0,0
616,-580,0,0,0,0,0,0,0,0,0,-1,1840,1604,0,0
623,-580,0,0,0,0,0,0,0,0,0,-1,1847,1604,0,0
630,-580,0,0,0,0,0,0,0,0,0,-1,1854,1604,0,0
637,-580,0,0,0,0,0,0,0,0,0,-1,1861,1604,0,0
644,-580,0,0,0,0,0,0,0,0,0,-1,1868,1604,0,0
651,-580,0,0,0,0,0,0,0,0,0,-1,1875,1604,0,0
658,-580,0,0,0,0,0,0,0,0,0,-1,1882,1604,0,0
665,-580,0,0,0,0,0,0,0,0,0,-1,1889,1604,0,0
672,-580,0,0,0,0,0,0,0,0,0,-1,1896,1604,0,0
679,-580,0,0,0,0,0,0,0,0,0,-1,1903,1604,0,0
686,-580,0,0,0,0,0,0,0,0,0,-1,1910,1604,0,0
693,-580,0,0,0,0,0,0,0,0,0,-1,1917,1604,0,0
700,-580,0,0,0,0,0,0,0,0,0,-1,1924,1604,0,0
707,-580,0,0,0,0,0,0,0,0,0,-1,1931,1604,0,0
714,-580,0,0,0,0,0,0,0,0,0,-1,1938,1604,0,0
721,-580,0,0,0,0,0,0,0,0,0,-1,1945,1604,0,0
728,-580,0,0,0,0,0,0,0,0,0,-1,1952,1604,0,0
735,-580,0,0,0,0,0,0,0,0,0,-1,1959,1604,0,0
742,-580,0,0,0,0,0,0,0,0,0,-1,1966,1604,0,0
749,-580,0,0,0,0,0,0,0,0,0,-1,1973,1604,0,0
756,-580,0,0,0,0,0,0,0,0,0,-1,1980,1604,0,0
763,-580,0,0,0,0,0,0,0,0,0,-1,1987,1604,0,0
770,-580,0,0,0,0,0,0,0,0,0,-1,1994,1604,0,0
777,-580,0,0,0,0,0,0,0,0,0,-1,2001,1604,0,0
784,-580,0,0,0,0,0,0,0,0,0,-1,2008,1604,0,0
791,-580,0,0,0,0,0,0,0,0,0,-1,2015,1604,0,0
798,-580,0,0,0,0,0,0,0,0,0,-1,2022,1604,0,0
805,-580,0,0,0,0,0,0,0,0,0,-1,2029,1604,0,0
812,-580,0,0,0,0,0,0,0,0,0,-1,2036,1604,0,0
-700,-587,0,0,0,0,0,0,0,0,0,-1,524,1611,0,0
-693,-587,0,0,0,0,0,0,0,0,0,-1,531,1611,0,0
-686,-587,0,0,0,0,0,0,0,0,0,-1,538,1611,0,0
-679,-587,0,0,0,0,0,0,0,0,0,-1,545,1611,0,0
-672,-587,0,0,0,0,0,0,0,0,0,-1,552,1611,0,0
-665,-587,0,0,0,0,0,0,0,0,0,-1,559,1611,0,0
-658,-587,0,0,0,0,0,0,0,0,0,-1,566,1611,0,0
-651,-587,0,0,0,0,0,0,0,0,0,-1,573,1611,0,0
-644,-587,0,0,0,0,0,0,0,0,0,-1,580,1611,0,0
-637,-587,0,0,0,0,0,0,0,0,0,-1,587,1611,0,0
-630,-587,0,0,0,0,0,0,0,0,0,-1,594,1611,0,0
-623,-587,0,0,0,0,0,0,0,0,0,-1,601,1611,0,0
-616,-587,0,0,0,0,0,0,0,0,0,-1,608,1611,0,0
-609,-587,0,0,0,0,0,0,0,0,0,-1,615,1611,0,0
-602,-587,0,0,0,0,0,0,0,0,0,-1,622,1611,0,0
-595,-587,0,0,0,0,0,0,0,0,0,-1,629,1611,0,0
-588,-587,0,0,0,0,0,0,0,0,0,-1,636,1611,0,0
-581,-587,0,0,0,0,0,0,0,0,0,-1,643,1611,0,0
-574,-587,0,0,0,0,0,0,0,0,0,-1,650,1611,0,0
-567,-587,0,0,0,0,0,0,0,0,0,-1,657,1611,0,0
-560,-587,0,0,0,0,0,0,0,0,0,-1,664,1611,0,0
-553,-587,0,0,0,0,0,0,0,0,0,-1,671,1611,0,0
-546,-587,0,0,0,0,0,0,0,0,0,-1,678,1611,0,0
-539,-587,0,0,0,0,0,0,0,0,0,-1,685,1611,0,0
-532,-587,0,0,0,0,0,0,0,0,0,-1,692,1611,0,0
-525,-587,0,0,0,0,0,0,0,0,0,-1,699,1611,0,0
-518,-587,0,0,0,0,0,0,0,0,0,-1,706,1611,0,0
-511,-587,0,0,0,0,0,0,0,0,0,-1,713,1611,0,0
-504,-587,0,0,0,0,0,0,0,0,0,-1,720,1611,0,0
-497,-587,0,0,0,0,0,0,0,0,0,-1,727,1611,0,0
-490,-587,0,0,0,0,0,0,0,0,0,-1,734,1611,0,0
-483,-587,0,0,0,0,0,0,0,0,0,-1,741,1611,0,0
-476,-587,0,0,0,0,0,0,0,0,0,-1,748,1611,0,0
-469,-587,0,0,0,0,0,0,0,0,0,-1,755,1611,0,0
-462,-587,-2.24438,-1.07532,0,0,0,0,0,0,0,-1,762,1611,-2.24437,1.07528
-455,-587,-0.536316,-0.557861,0,0,0,0,0,0,0,-1,769,1611,-0.536344,0.55785
-448,-587,1.15387,-0.0140381,0,0,0,0,0,0,0,-1,776,1611,1.15389,0.0139865
-441,-587,-7.28076,4.5647,0,0,0,0,0,0,0,-1,783,1611,-7.28079,-4.56467
-434,-587,-6.26465,5.83875,0,0,0,0,0,0,0,-1,790,1611,-6.26464,-5.83877
-427,-587,-4.96295,7.52344,0,0,0,0,0,0,0,-1,797,1611,-4.96297,-7.52341
-420,-587,1.9364,3.91064,0,0,0,0,0,0,0,-1,804,1611,1.9364,-3.91061
-413,-587,1.82593,4.05798,0,0,0,0,0,0,0,-1,811,1611,1.82593,-4.05798
-406,-587,2.07263,4.40515,0,0,0,0,0,0,0,-1,818,1611,2.07261,-4.40518
-399,-587,1.97906,4.54749,0.0222913,0.0158889,-0.00473509,0.0248057,0.0133745,-0.488162,0.0143362,0.0327121,825,1611,1.97905,-4.54749
-392,-587,1.89081,4.6543,0.0166464,0.0117879,-0.00439476,0.0192386,0.00919571,-0.532921,0.011111,0.0229656,832,1611,1.89081,-4.65429
-385,-587,1.83258,4.78052,0.0114139,0.00809914,-0.00407468,0.0141554,0.00535767,-0.592241,0.00825267,0.0150175,839,1611,1.83258,-4.78052
-378,-587,1.82208,4.90808,0.00699511,0.00475731,-0.00365845,0.00970194,0.00205048,-0.636996,0.00590437,0.0124421,846,1611,1.82205,-4.90804
-371,-587,1.84314,5.07581,0.0039673,0.00266367,-0.00282467,0.00621438,0.000416582,-0.672005,0.00401128,0.0127639,853,1611,1.84314,-5.07578
-364,-587,1.84979,5.18054,0.00177508,0.00101784,-0.00193761,0.00337072,-0.000577794,-0.688911,0.00246245,0.0166605,860,1611,1.84978,-5.18059
-357,-587,1.84113,5.24231,-1.28151e-05,-0.000322026,-0.00127849,0.00112039,-0.00145523,-0.725226,0.00149122,0.0163119,867,1611,1.84115,-5.24235
-350,-587,1.8399,5.38794,-0.000494054,-0.00098227,-0.000738172,3.93252e-05,-0.00151565,-0.625712,0.00102379,0.00962836,874,1611,1.83988,-5.3879
-343,-587,1.82916,5.52344,-0.000328522,-0.00124125,-0.000393508,-0.000182293,-0.00138747,-0.355788,0.000870603,0.0121825,881,1611,1.82918,-5.52338
-336,-587,1.81219,5.62134,0.000598337,-0.00138033,-0.000109972,0.00060443,-0.00138643,-0.0553515,0.00117861,0.0118557,888,1611,1.8122,-5.62133
-329,-587,1.82977,5.73535,0.00112373,-0.0009552,-0.000176912,0.00113868,-0.000970147,-0.0842901,0.00121883,0.0136923,895,1611,1.82975,-5.73533
-322,-587,1.86945,5.84998,0.00162382,-0.00079471,-0.000356108,0.00167517,-0.000846054,-0.143193,0.00148163,0.0161209,902,1611,1.86942,-5.85
-315,-587,1.86023,5.92834,0.00190512,-0.00090769,-0.000719866,0.00207865,-0.00108122,-0.23654,0.0018544,0.0137316,909,1611,1.86024,-5.92837
-308,-587,1.86322,6.0531,0.00207213,-0.00148977,-0.00154904,0.00265154,-0.00206918,-0.357933,0.00273241,0.0143175,916,1611,1.8632,-6.05306
-301,-587,1.86304,6.14978,0.00227457,-0.00289919,-0.002916,0.00358576,-0.00421038,-0.422568,0.00450592,0.0123766,923,1611,1.86301,-6.14981
-294,-587,1.87531,6.26489,0.00276152,-0.00436406,-0.00426275,0.00475431,-0.00635686,-0.437303,0.00643724,0.0134031,930,1611,1.87532,-6.26492
-287,-587,1.89832,6.40771,0.00360006,-0.00626845,-0.00569601,0.00620181,-0.00887021,-0.428468,0.00874718,0.0236672,937,1611,1.89832,-6.40773
-280,-587,1.90381,6.54529,0.00431052,-0.0086719,-0.00775487,0.00793236,-0.0122937,-0.436934,0.0117677,0.0350415,944,1611,1.90379,-6.54533
-273,-587,1.87689,6.6134,0.00502978,-0.0116561,-0.0101248,0.00980616,-0.0164325,-0.440793,0.0153091,0.0407537,951,1611,1.87686,-6.61336
-266,-587,1.76843,6.51062,0.00585417,-0.0153702,-0.0127612,0.0118392,-0.0213552,-0.438541,0.0194255,0.0480488,958,1611,1.76845,-6.51056
-259,-587,1.58264,6.21667,0.00700214,-0.0195507,-0.0152493,0.0139446,-0.0264931,-0.427224,0.0237185,0.0468054,965,1611,1.58265,-6.21663
-252,-587,1.47638,5.69019,0.00869666,-0.0242601,-0.0174251,0.016201,-0.0317645,-0.406657,0.0281746,0.047688,972,1611,1.47639,-5.69024
-245,-587,1.28156,5.1958,0,0,0,0,0,0,0,-1,979,1611,1.28155,-5.19579
-238,-587,3.258,6.10657,0,0,0,0,0,0,0,-1,986,1611,3.25798,-6.10655
-231,-587,1.05121,5.25,0,0,0,0,0,0,0,-1,993,1611,1.05121,-5.25006
-224,-587,1.60474,4.80469,0,0,0,0,0,0,0,-1,1000,1611,1.60476,-4.80464
-217,-587,2.32025,4.1803,0,0,0,0,0,0,0,-1,1007,1611,2.32025,-4.18028
-210,-587,2.9873,3.55261,0,0,0,0,0,0,0,-1,1014,1611,2.98733,-3.55265
-203,-587,-0.471313,4.26697,0,0,0,0,0,0,0,-1,1021,1611,-0.47134,-4.26694
-196,-587,-1.38281,4.77917,0,0,0,0,0,0,0,-1,1028,1611,-1.38284,-4.77924
-189,-587,-1.9812,5.2428,0,0,0,0,0,0,0,-1,1035,1611,-1.98114,-5.24279
-182,-587,-2.27234,5.63135,0,0,0,0,0,0,0,-1,1042,1611,-2.27237,-5.6313
-175,-587,-0.408447,4.5929,0,0,0,0,0,0,0,-1,1049,1611,-0.408426,-4.59291
-168,-587,-0.47168,3.94788,0,0,0,0,0,0,0,-1,1056,1611,-0.471717,-3.9479
-161,-587,-0.561768,3.32373,0,0,0,0,0,0,0,-1,1063,1611,-0.5618,-3.32377
-154,-587,-0.568726,2.65649,0,0,0,0,0,0,0,-1,1070,1611,-0.568742,-2.65651
-147,-587,0,0,0,0,0,0,0,0,0,-1,1077,1611,0,0
-140,-587,0,0,0,0,0,0,0,0,0,-1,1084,1611,0,0
-133,-587,0,0,0,0,0,0,0,0,0,-1,1091,1611,0,0
-126,-587,0,0,0,0,0,0,0,0,0,-1,1098,1611,0,0
-119,-587,0,0,0,0,0,0,0,0,0,-1,1105,1611,0,0
-112,-587,0,0,0,0,0,0,0,0,0,-1,1112,1611,0,0
-105,-587,0,0,0,0,0,0,0,0,0,-1,1119,1611,0,0
-98,-587,0,0,0,0,0,0,0,0,0,-1,1126,1611,0,0
-91,-587,0,0,0,0,0,0,0,0,0,-1,1133,1611,0,0
-84,-587,0,0,0,0,0,0,0,0,0,-1,1140,1611,0,0
-77,-587,0,0,0,0,0,0,0,0,0,-1,1147,1611,0,0
-70,-587,0,0,0,0,0,0,0,0,0,-1,1154,1611,0,0
-63,-587,0,0,0,0,0,0,0,0,0,-1,1161,1611,0,0
-56,-587,0,0,0,0,0,0,0,0,0,-1,1168,1611,0,0
-49,-587,0,0,0,0,0,0,0,0,0,-1,1175,1611,0,0
-42,-587,0,0,0,0,0,0,0,0,0,-1,1182,1611,0,0
-35,-587,0,0,0,0,0,0,0,0,0,-1,1189,1611,0,0
-28,-587,0,0,0,0,0,0,0,0,0,-1,1196,1611,0,0
-21,-587,0,0,0,0,0,0,0,0,0,-1,1203,1611,0,0
-14,-587,0,0,0,0,0,0,0,0,0,-1,1210,1611,0,0
-7,-587,0,0,0,0,0,0,0,0,0,-1,1217,1611,0,0
0,-587,0,0,0,0,0,0,0,0,0,-1,1224,1611,0,0
7,-587,0,0,0,0,0,0,0,0,0,-1,1231,1611,0,0
14,-587,0,0,0,0,0,0,0,0,0,-1,1238,1611,0,0
21,-587,0,0,0,0,0,0,0,0,0,-1,1245,1611,0,0
28,-587,0,0,0,0,0,0,0,0,0,-1,1252,1611,0,0
35,-587,0,0,0,0,0,0,0,0,0,-1,1259,1611,0,0
42,-587,0,0,0,0,0,0,0,0,0,-1,1266,1611,0,0
49,-587,0,0,0,0,0,0,0,0,0,-1,1273,1611,0,0
56,-587,0,0,0,0,0,0,0,0,0,-1,1280,1611,0,0
63,-587,0,0,0,0,0,0,0,0,0,-1,1287,1611,0,0
70,-587,0,0,0,0,0,0,0,0,0,-1,1294,1611,0,0
77,-587,0,0,0,0,0,0,0,0,0,-1,1301,1611,0,0
84,-587,0,0,0,0,0,0,0,0,0,-1,1308,1611,0,0
91,-587,0,0,0,0,0,0,0,0,0,-1,1315,1611,0,0
98,-587,0,0,0,0,0,0,0,0,0,-1,1322,1611,0,0
105,-587,0,0,0,0,0,0,0,0,0,-1,1329,1611,0,0
112,-587,0,0,0,0,0,0,0,0,0,-1,1336,1611,0,0
119,-587,0,0,0,0,0,0,0,0,0,-1,1343,1611,0,0
126,-587,0,0,0,0,0,0,0,0,0,-1,1350,1611,0,0
133,-587,0,0,0,0,0,0,0,0,0,-1,1357,1611,0,0
140,-587,0,0,0,0,0,0,0,0,0,-1,1364,1611,0,0
147,-587,0,0,0,0,0,0,0,0,0,-1,1371,1611,0,0
154,-587,0,0,0,0,0,0,0,0,0,-1,1378,1611,0,0
161,-587,0,0,0,0,0,0,0,0,0,-1,1385,1611,0,0
168,-587,0,0,0,0,0,0,0,0,0,-1,1392,1611,0,0
175,-587,0,0,0,0,0,0,0,0,0,-1,1399,1611,0,0
182,-587,0,0,0,0,0,0,0,0,0,-1,1406,1611,0,0
189,-587,0,0,0,0,0,0,0,0,0,-1,1413,1611,0,0
196,-587,0,0,0,0,0,0,0,0,0,-1,1420,1611,0,0
203,-587,0,0,0,0,0,0,0,0,0,-1,1427,1611,0,0
210,-587,0,0,0,0,0,0,0,0,0,-1,1434,1611,0,0
217,-587,0,0,0,0,0,0,0,0,0,-1,1441,1611,0,0
224,-587,0,0,0,0,0,0,0,0,0,-1,1448,1611,0,0
231,-587,0,0,0,0,0,0,0,0,0,-1,1455,1611,0,0
238,-587,0,0,0,0,0,0,0,0,0,-1,1462,1611,0,0
245,-587,0,0,0,0,0,0,0,0,0,-1,1469,1611,0,0
252,-587,0,0,0,0,0,0,0,0,0,-1,1476,1611,0,0
259,-587,0,0,0,0,0,0,0,0,0,-1,1483,1611,0,0
266,-587,0,0,0,0,0,0,0,0,0,-1,1490,1611,0,0
273,-587,10.2936,6.35083,0,0,0,0,0,0,0,-1,1497,1611,10.2936,-6.35087
280,-587,2.09204,1.1217,0,0,0,0,0,0,0,-1,1504,1611,2.092,-1.12176
287,-587,3.27588,1.01624,0,0,0,0,0,0,0,-1,1511,1611,3.27588,-1.01626
294,-587,4.45972,0.910767,0,0,0,0,0,0,0,-1,1518,1611,4.45977,-0.910755
301,-587,5.69031,3.74695,0.0522312,-0.0466898,0.0730188,0.0909641,-0.0854227,0.487711,0.101854,0.0498865,1525,1611,5.69032,-3.74691
308,-587,5.50696,5.68311,0.0450464,-0.0282939,0.0707112,0.0880303,-0.0712779,0.546194,0.092146,0.0470723,1532,1611,5.50694,-5.68309
315,-587,4.76758,6.91736,0,0,0,0,0,0,0,-1,1539,1611,4.76758,-6.9174
322,-587,10.4526,6.38245,0,0,0,0,0,0,0,-1,1546,1611,10.4526,-6.38245
329,-587,10.4871,7.07043,0,0,0,0,0,0,0,-1,1553,1611,10.487,-7.07044
336,-587,7.5531,5.96619,0,0,0,0,0,0,0,-1,1560,1611,7.55311,-5.96617
343,-587,9.57495,4.38391,0,0,0,0,0,0,0,-1,1567,1611,9.57494,-4.38397
350,-587,9.50378,3.45093,0,0,0,0,0,0,0,-1,1574,1611,9.50376,-3.4509
357,-587,9.40027,2.50806,0,0,0,0,0,0,0,-1,1581,1611,9.40022,-2.50803
364,-587,9.26477,1.34131,0,0,0,0,0,0,0,-1,1588,1611,9.26479,-1.34126
371,-587,4.21655,7.17297,0,0,0,0,0,0,0,-1,1595,1611,4.21651,-7.17293
378,-587,4.76831,7.54675,0,0,0,0,0,0,0,-1,1602,1611,4.76834,-7.5467
385,-587,4.7113,6.05115,0,0,0,0,0,0,0,-1,1609,1611,4.7113,-6.05109
392,-587,4.98181,6.53918,0,0,0,0,0,0,0,-1,1616,1611,4.98178,-6.53913
399,-587,4.99976,6.83032,0,0,0,0,0,0,0,-1,1623,1611,4.99981,-6.83036
406,-587,5.02283,6.83203,0.00607462,-0.0117441,-0.0010711,0.00613877,-0.0118083,-0.0598238,0.0105327,0.0417937,1630,1611,5.02282,-6.83201
413,-587,5.01929,6.85608,0.00490939,-0.0112187,-0.000357533,0.00491731,-0.0112266,-0.0221538,0.00955504,0.0340328,1637,1611,5.01924,-6.8561
420,-587,4.88635,6.84155,0.00384925,-0.0105422,0.000333372,0.00385696,-0.0105499,0.023148,0.00861182,0.02782,1644,1611,4.88636,-6.84154
427,-587,5.01331,6.77405,0.00291454,-0.0098798,0.00101603,0.00299472,-0.00995998,0.0787548,0.00783147,0.0189637,1651,1611,5.01328,-6.77401
434,-587,4.98401,6.71765,0.00212739,-0.00875884,0.00139229,0.00230264,-0.00893408,0.12521,0.00685377,0.0133881,1658,1611,4.98404,-6.71762
441,-587,4.98523,6.64124,0.00153888,-0.00742382,0.00157596,0.00180791,-0.00769285,0.169081,0.00582548,0.0158935,1665,1611,4.98522,-6.64118
448,-587,4.9856,6.56104,0.00107503,-0.00607607,0.001632,0.00142987,-0.00643091,0.214095,0.0048349,0.0144029,1672,1611,4.98558,-6.561
455,-587,5.00293,6.48145,0.000540483,-0.00486419,0.00164017,0.000999284,-0.00532299,0.272756,0.0039244,0.0139801,1679,1611,5.00291,-6.48143
462,-587,4.9917,6.36206,0.000294714,-0.00376082,0.001438,0.000752842,-0.00421895,0.308421,0.00309426,0.0167395,1686,1611,4.9917,-6.36211
469,-587,4.99622,6.26257,0.000242407,-0.00281656,0.00120249,0.00065851,-0.00323266,0.333137,0.00240486,0.0145592,1693,1611,4.9962,-6.26258
476,-587,4.99524,6.1582,0.000205213,-0.00202854,0.00094537,0.0005516,-0.00237492,0.351213,0.00179562,0.0099977,1700,1611,4.9952,-6.15818
483,-587,4.96826,6.05994,0.000389637,-0.00119087,0.000767833,0.00070123,-0.00150247,0.385504,0.00130003,0.013047,1707,1611,4.96825,-6.05991
490,-587,4.94995,5.96423,0.00117171,-0.000423557,0.000148143,0.00118535,-0.000437197,0.0918178,0.000969403,0.0153015,1714,1611,4.94992,-5.96418
497,-587,4.94531,5.85315,0.0024372,0.000777173,-0.000577704,0.00261846,0.000595918,-0.304024,0.00158479,0.0112896,1721,1611,4.94528,-5.85313
504,-587,4.94482,5.74792,0.00373296,0.00191111,-0.00122905,0.00435185,0.00129222,-0.466488,0.00258069,0.010593,1728,1611,4.94477,-5.74791
511,-587,4.97717,5.65991,0.00575239,0.00412847,-0.00375295,0.00878021,0.00110065,-0.678863,0.00552326,0.0127701,1735,1611,4.97723,-5.65997
518,-587,5.0083,5.55444,0.00823387,0.00809716,-0.00843102,0.0165968,-0.000265779,-0.781345,0.0111542,0.0133833,1742,1611,5.00831,-5.55442
525,-587,5.01135,5.4425,0.0106784,0.0126072,-0.0141167,0.0257924,-0.00250684,-0.819504,0.0180886,0.0169481,1749,1611,5.01131,-5.44253
532,-587,5.09363,5.36572,0.0126495,0.0188753,-0.0211981,0.0371878,-0.00566305,-0.858301,0.0268791,0.0296513,1756,1611,5.09359,-5.36577
539,-587,5.64587,5.33655,0.014976,0.0256683,-0.0299042,0.0507005,-0.0100562,-0.873851,0.0376033,0.0398505,1763,1611,5.64587,-5.3365
546,-587,6.17944,5.31128,0,0,0,0,0,0,0,-1,1770,1611,6.17942,-5.31131
553,-587,6.48596,3.49683,0,0,0,0,0,0,0,-1,1777,1611,6.48599,-3.49688
560,-587,3.17859,5.41345,0,0,0,0,0,0,0,-1,1784,1611,3.17861,-5.41339
567,-587,3.55396,5.37952,0.0165164,0.0621127,-0.0813882,0.123836,-0.0452065,-0.921956,0.101055,0.0466285,1791,1611,3.5539,-5.37955
574,-587,3.67566,5.55481,0.0128536,0.0710278,-0.0958539,0.142111,-0.0582293,-0.932709,0.118998,0.044718,1798,1611,3.67563,-5.55486
581,-587,3.45691,6.20886,0.00665849,0.0785425,-0.109288,0.157647,-0.0724456,-0.944265,0.135846,0.0451172,1805,1611,3.45686,-6.20881
588,-587,0,0,0,0,0,0,0,0,0,-1,1812,1611,0,0
595,-587,0,0,0,0,0,0,0,0,0,-1,1819,1611,0,0
602,-587,0,0,0,0,0,0,0,0,0,-1,1826,1611,0,0
609,-587,0,0,0,0,0,0,0,0,0,-1,1833,1611,0,0
616,-587,0,0,0,0,0,0,0,0,0,-1,1840,1611,0,0
623,-587,0,0,0,0,0,0,0,0,0,-1,1847,1611,0,0
630,-587,0,0,0,0,0,0,0,0,0,-1,1854,1611,0,0
637,-587,0,0,0,0,0,0,0,0,0,-1,1861,1611,0,0
644,-587,0,0,0,0,0,0,0,0,0,-1,1868,1611,0,0
651,-587,0,0,0,0,0,0,0,0,0,-1,1875,1611,0,0
658,-587,0,0,0,0,0,0,0,0,0,-1,1882,1611,0,0
665,-587,0,0,0,0,0,0,0,0,0,-1,1889,1611,0,0
672,-587,0,0,0,0,0,0,0,0,0,-1,1896,1611,0,0
679,-587,0,0,0,0,0,0,0,0,0,-1,1903,1611,0,0
686,-587,0,0,0,0,0,0,0,0,0,-1,1910,1611,0,0
693,-587,0,0,0,0,0,0,0,0,0,-1,1917,1611,0,0
700,-587,0,0,0,0,0,0,0,0,0,-1,1924,1611,0,0
707,-587,0,0,0,0,0,0,0,0,0,-1,1931,1611,0,0
714,-587,0,0,0,0,0,0,0,0,0,-1,1938,1611,0,0
721,-587,0,0,0,0,0,0,0,0,0,-1,1945,1611,0,0
728,-587,0,0,0,0,0,0,0,0,0,-1,1952,1611,0,0
735,-587,0,0,0,0,0,0,0,0,0,-1,1959,1611,0,0
742,-587,0,0,0,0,0,0,0,0,0,-1,1966,1611,0,0
749,-587,0,0,0,0,0,0,0,0,0,-1,1973,1611,0,0
756,-587,0,0,0,0,0,0,0,0,0,-1,1980,1611,0,0
763,-587,0,0,0,0,0,0,0,0,0,-1,1987,1611,0,0
770,-587,0,0,0,0,0,0,0,0,0,-1,1994,1611,0,0
777,-587,0,0,0,0,0,0,0,0,0,-1,2001,1611,0,0
784,-587,0,0,0,0,0,0,0,0,0,-1,2008,1611,0,0
791,-587,0,0,0,0,0,0,0,0,0,-1,2015,1611,0,0
798,-587,0,0,0,0,0,0,0,0,0,-1,2022,1611,0,0
805,-587,0,0,0,0,0,0,0,0,0,-1,2029,1611,0,0
812,-587,0,0,0,0,0,0,0,0,0,-1,2036,1611,0,0
-700,-594,0,0,0,0,0,0,0,0,0,-1,524,1618,0,0
-693,-594,0,0,0,0,0,0,0,0,0,-1,531,1618,0,0
-686,-594,0,0,0,0,0,0,0,0,0,-1,538,1618,0,0
-679,-594,0,0,0,0,0,0,0,0,0,-1,545,1618,0,0
-672,-594,0,0,0,0,0,0,0,0,0,-1,552,1618,0,0
-665,-594,0,0,0,0,0,0,0,0,0,-1,559,1618,0,0
-658,-594,0,0,0,0,0,0,0,0,0,-1,566,1618,0,0
-651,-594,0,0,0,0,0,0,0,0,0,-1,573,1618,0,0
-644,-594,0,0,0,0,0,0,0,0,0,-1,580,1618,0,0
-637,-594,0,0,0,0,0,0,0,0,0,-1,587,1618,0,0
-630,-594,0,0,0,0,0,0,0,0,0,-1,594,1618,0,0
-623,-594,0,0,0,0,0,0,0,0,0,-1,601,1618,0,0
-616,-594,0,0,0,0,0,0,0,0,0,-1,608,1618,0,0
-609,-594,0,0,0,0,0,0,0,0,0,-1,615,1618,0,0
-602,-594,0,0,0,0,0,0,0,0,0,-1,622,1618,0,0
-595,-594,0,0,0,0,0,0,0,0,0,-1,629,1618,0,0
-588,-594,0,0,0,0,0,0,0,0,0,-1,636,1618,0,0
-581,-594,0,0,0,0,0,0,0,0,0,-1,643,1618,0,0
-574,-594,0,0,0,0,0,0,0,0,0,-1,650,1618,0,0
-567,-594,0,0,0,0,0,0,0,0,0,-1,657,1618,0,0
-560,-594,0,0,0,0,0,0,0,0,0,-1,664,1618,0,0
-553,-594,0,0,0,0,0,0,0,0,0,-1,671,1618,0,0
-546,-594,0,0,0,0,0,0,0,0,0,-1,678,1618,0,0
-539,-594,0,0,0,0,0,0,0,0,0,-1,685,1618,0,0
-532,-594,0,0,0,0,0,0,0,0,0,-1,692,1618,0,0
-525,-594,0,0,0,0,0,0,0,0,0,-1,699,1618,0,0
-518,-594,0,0,0,0,0,0,0,0,0,-1,706,1618,0,0
-511,-594,0,0,0,0,0,0,0,0,0,-1,713,1618,0,0
-504,-594,0,0,0,0,0,0,0,0,0,-1,720,1618,0,0
-497,-594,0,0,0,0,0,0,0,0,0,-1,727,1618,0,0
-490,-594,0,0,0,0,0,0,0,0,0,-1,734,1618,0,0
-483,-594,0,0,0,0,0,0,0,0,0,-1,741,1618,0,0
-476,-594,0,0,0,0,0,0,0,0,0,-1,748,1618,0,0
-469,-594,0,0,0,0,0,0,0,0,0,-1,755,1618,0,0
-462,-594,0,0,0,0,0,0,0,0,0,-1,762,1618,0,0
-455,-594,-0.213623,-1.19202,0,0,0,0,0,0,0,-1,769,1618,-0.213642,1.19196
-448,-594,-7.40283,3.61963,0,0,0,0,0,0,0,-1,776,1618,-7.40284,-3.61962
-441,-594,-6.85028,4.06396,0.0652513,0.0437987,0.00375607,0.0658899,0.0431601,0.168415,0.0386463,0.0480371,783,1618,-6.85031,-4.06394
-434,-594,-6.08527,4.81799,0.0636156,0.0416748,-0.000668211,0.0636359,0.0416545,-0.0304176,0.0373209,0.0487241,790,1618,-6.08529,-4.81798
-427,-594,-5.41193,5.64722,0,0,0,0,0,0,0,-1,797,1618,-5.41195,-5.64721
-420,-594,-5.30652,6.1012,0,0,0,0,0,0,0,-1,804,1618,-5.30649,-6.1012
-413,-594,-4.83911,5.93408,0,0,0,0,0,0,0,-1,811,1618,-4.8391,-5.93413
-406,-594,2.48645,4.3407,0,0,0,0,0,0,0,-1,818,1618,2.48646,-4.34068
-399,-594,2.38147,4.42236,0.0309127,0.0203804,-0.00675336,0.0342104,0.0170826,-0.454252,0.0197514,0.0492091,825,1618,2.3815,-4.42234
-392,-594,2.29004,4.51404,0.0235784,0.0152927,-0.00617245,0.0268694,0.0120017,-0.489837,0.0155425,0.0401501,832,1618,2.29006,-4.51399
-385,-594,1.95331,4.81763,0.0167704,0.0106652,-0.00563764,0.0201288,0.00730675,-0.537261,0.0117659,0.0272653,839,1618,1.95329,-4.81764
-378,-594,1.94421,4.92676,0.0107964,0.00633421,-0.00500616,0.0140461,0.00308449,-0.575774,0.00852404,0.0113727,846,1618,1.94424,-4.9268
-371,-594,1.97003,5.05225,0.00641603,0.00334685,-0.00387535,0.00904957,0.000713308,-0.596878,0.00580989,0.0112316,853,1618,1.97003,-5.05222
-364,-594,1.97009,5.15332,0.00316318,0.000951915,-0.00274457,0.00501644,-0.000901352,-0.593921,0.00368171,0.0109882,860,1618,1.97009,-5.15337
-357,-594,1.95856,5.2522,0.000404331,-0.00101519,-0.00187559,0.00169996,-0.00231082,-0.604514,0.00232456,0.0104961,867,1618,1.95857,-5.25215
-350,-594,1.95587,5.40283,-0.000610215,-0.00206829,-0.00115791,2.90463e-05,-0.00270755,-0.504441,0.0018148,0.0143457,874,1618,1.95588,-5.40279
-343,-594,1.94165,5.53906,-0.000735219,-0.00249643,-0.00067299,-0.000507501,-0.00272415,-0.326275,0.00167279,0.0157924,881,1618,1.94167,-5.53903
-336,-594,1.92328,5.62988,0.000286432,-0.00245695,-0.00039061,0.000340964,-0.00251149,-0.138711,0.00179878,0.0126882,888,1618,1.92328,-5.62985
-329,-594,1.94275,5.75098,0.000863168,-0.00187982,-0.000403804,0.000921378,-0.00193803,-0.143168,0.0016853,0.0125422,895,1618,1.94272,-5.75092
-322,-594,1.97668,5.87329,0.00131467,-0.00150344,-0.000463741,0.00138902,-0.00157779,-0.158974,0.00171405,0.0142327,902,1618,1.97667,-5.87328
-315,-594,1.9826,5.94482,0.00158454,-0.00136694,-0.000708995,0.00174602,-0.00152842,-0.223936,0.00189189,0.0154992,909,1618,1.98261,-5.94487
-308,-594,1.97839,6.04382,0.00171015,-0.00167851,-0.00135222,0.00218359,-0.00215195,-0.336786,0.00250315,0.0152462,916,1618,1.97837,-6.04383
-301,-594,1.96759,6.16016,0.00183791,-0.00269525,-0.00243778,0.00290002,-0.00375735,-0.410887,0.00385425,0.0121513,923,1618,1.9676,-6.1601
-294,-594,1.97705,6.27673,0.00222233,-0.00371432,-0.00344291,0.00379984,-0.00529183,-0.429644,0.00527258,0.0105577,930,1618,1.97704,-6.27671
-287,-594,2.00482,6.38867,0.00291086,-0.0050654,-0.00443573,0.0048877,-0.00704225,-0.419242,0.0069251,0.0111754,937,1618,2.00482,-6.38867
-280,-594,2.00183,6.47949,0.00344994,-0.00683695,-0.00590383,0.00613657,-0.00952359,-0.42706,0.00911162,0.0144941,944,1618,2.00183,-6.47945
-273,-594,2.01105,6.5293,0.00409213,-0.00927901,-0.00760073,0.0075292,-0.0127161,-0.424685,0.0118158,0.0249692,951,1618,2.01106,-6.52927
-266,-594,1.96265,6.46265,0.00489881,-0.0122239,-0.0093565,0.00901976,-0.0163448,-0.414874,0.0148464,0.0331103,958,1618,1.96265,-6.46261
-259,-594,1.92511,6.4104,0.00595369,-0.0155031,-0.0109161,0.0105308,-0.0200802,-0.397035,0.0179576,0.0371822,965,1618,1.92508,-6.41042
-252,-594,1.93103,6.22046,0.0074153,-0.0191701,-0.0122282,0.0121843,-0.0239391,-0.371855,0.0212207,0.0443176,972,1618,1.93104,-6.22042
-245,-594,2.07349,6.37256,0,0,0,0,0,0,0,-1,979,1618,2.07348,-6.37261
-238,-594,2.36987,6.79724,0,0,0,0,0,0,0,-1,986,1618,2.36988,-6.79722
-231,-594,1.69159,5.255,0,0,0,0,0,0,0,-1,993,1618,1.69158,-5.25497
-224,-594,2.24707,4.73914,0,0,0,0,0,0,0,-1,1000,1618,2.24705,-4.73911
-217,-594,2.91632,4.20276,0,0,0,0,0,0,0,-1,1007,1618,2.91633,-4.20272
-210,-594,3.51422,3.62439,0,0,0,0,0,0,0,-1,1014,1618,3.51419,-3.62436
-203,-594,-0.614807,3.93335,0,0,0,0,0,0,0,-1,1021,1618,-0.6148,-3.93337
-196,-594,1.87451,6.71582,0,0,0,0,0,0,0,-1,1028,1618,1.87451,-6.71579
-189,-594,1.79089,6.10193,0,0,0,0,0,0,0,-1,1035,1618,1.79089,-6.10199
-182,-594,0.44873,5.51929,0,0,0,0,0,0,0,-1,1042,1618,0.448786,-5.51926
-175,-594,0.128174,5.41431,0,0,0,0,0,0,0,-1,1049,1618,0.128128,-5.41426
-168,-594,-0.185669,5.26221,0,0,0,0,0,0,0,-1,1056,1618,-0.185683,-5.26217
-161,-594,-0.803711,4.78772,0,0,0,0,0,0,0,-1,1063,1618,-0.803751,-4.78775
-154,-594,-1.26416,4.26282,0,0,0,0,0,0,0,-1,1070,1618,-1.26416,-4.26276
-147,-594,-1.63599,3.71887,0,0,0,0,0,0,0,-1,1077,1618,-1.636,-3.71888
-140,-594,1.05969,7.83069,0,0,0,0,0,0,0,-1,1084,1618,1.05969,-7.83064
-133,-594,0,0,0,0,0,0,0,0,0,-1,1091,1618,0,0
-126,-594,0,0,0,0,0,0,0,0,0,-1,1098,1618,0,0
-119,-594,0,0,0,0,0,0,0,0,0,-1,1105,1618,0,0
-112,-594,0,0,0,0,0,0,0,0,0,-1,1112,1618,0,0
-105,-594,0,0,0,0,0,0,0,0,0,-1,1119,1618,0,0
-98,-594,0,0,0,0,0,0,0,0,0,-1,1126,1618,0,0
-91,-594,0,0,0,0,0,0,0,0,0,-1,1133,1618,0,0
-84,-594,0,0,0,0,0,0,0,0,0,-1,1140,1618,0,0
-77,-594,0,0,0,0,0,0,0,0,0,-1,1147,1618,0,0
-70,-594,0,0,0,0,0,0,0,0,0,-1,1154,1618,0,0
-63,-594,0,0,0,0,0,0,0,0,0,-1,1161,1618,0,0
-56,-594,0,0,0,0,0,0,0,0,0,-1,1168,1618,0,0
-49,-594,0,0,0,0,0,0,0,0,0,-1,1175,1618,0,0
-42,-594,0,0,0,0,0,0,0,0,0,-1,1182,1618,0,0
-35,-594,0,0,0,0,0,0,0,0,0,-1,1189,1618,0,0
-28,-594,0,0,0,0,0,0,0,0,0,-1,1196,1618,0,0
-21,-594,0,0,0,0,0,0,0,0,0,-1,1203,1618,0,0
-14,-594,0,0,0,0,0,0,0,0,0,-1,1210,1618,0,0
-7,-594,0,0,0,0,0,0,0,0,0,-1,1217,1618,0,0
0,-594,0,0,0,0,0,0,0,0,0,-1,1224,1618,0,0
7,-594,0,0,0,0,0,0,0,0,0,-1,1231,1618,0,0
14,-594,0,0,0,0,0,0,0,0,0,-1,1238,1618,0,0
21,-594,0,0,0,0,0,0,0,0,0,-1,1245,1618,0,0
28,-594,0,0,0,0,0,0,0,0,0,-1,1252,1618,0,0
35,-594,0,0,0,0,0,0,0,0,0,-1,1259,1618,0,0
42,-594,0,0,0,0,0,0,0,0,0,-1,1266,1618,0,0
49,-594,0,0,0,0,0,0,0,0,0,-1,1273,1618,0,0
56,-594,0,0,0,0,0,0,0,0,0,-1,1280,1618,0,0
63,-594,0,0,0,0,0,0,0,0,0,-1,1287,1618,0,0
70,-594,0,0,0,0,0,0,0,0,0,-1,1294,1618,0,0
77,-594,0,0,0,0,0,0,0,0,0,-1,1301,1618,0,0
84,-594,0,0,0,0,0,0,0,0,0,-1,1308,1618,0,0
91,-594,0,0,0,0,0,0,0,0,0,-1,1315,1618,0,0
98,-594,0,0,0,0,0,0,0,0,0,-1,1322,1618,0,0
105,-594,0,0,0,0,0,0,0,0,0,-1,1329,1618,0,0
112,-594,0,0,0,0,0,0,0,0,0,-1,1336,1618,0,0
119,-594,0,0,0,0,0,0,0,0,0,-1,1343,1618,0,0
126,-594,0,0,0,0,0,0,0,0,0,-1,1350,1618,0,0
133,-594,0,0,0,0,0,0,0,0,0,-1,1357,1618,0,0
140,-594,0,0,0,0,0,0,0,0,0,-1,1364,1618,0,0
147,-594,0,0,0,0,0,0,0,0,0,-1,1371,1618,0,0
154,-594,0,0,0,0,0,0,0,0,0,-1,1378,1618,0,0
161,-594,0,0,0,0,0,0,0,0,0,-1,1385,1618,0,0
168,-594,0,0,0,0,0,0,0,0,0,-1,1392,1618,0,0
175,-594,0,0,0,0,0,0,0,0,0,-1,1399,1618,0,0
182,-594,0,0,0,0,0,0,0,0,0,-1,1406,1618,0,0
189,-594,0,0,0,0,0,0,0,0,0,-1,1413,1618,0,0
196,-594,0,0,0,0,0,0,0,0,0,-1,1420,1618,0,0
203,-594,0,0,0,0,0,0,0,0,0,-1,1427,1618,0,0
210,-594,0,0,0,0,0,0,0,0,0,-1,1434,1618,0,0
217,-594,0,0,0,0,0,0,0,0,0,-1,1441,1618,0,0
224,-594,0,0,0,0,0,0,0,0,0,-1,1448,1618,0,0
231,-594,0,0,0,0,0,0,0,0,0,-1,1455,1618,0,0
238,-594,0,0,0,0,0,0,0,0,0,-1,1462,1618,0,0
245,-594,0,0,0,0,0,0,0,0,0,-1,1469,1618,0,0
252,-594,3.03674,1.20996,0,0,0,0,0,0,0,-1,1476,1618,3.0368,-1.20999
259,-594,4.79834,1.53113,0,0,0,0,0,0,0,-1,1483,1618,4.79837,-1.53118
266,-594,3.71606,2.68152,0,0,0,0,0,0,0,-1,1490,1618,3.71609,-2.68149
273,-594,9.7655,6.33557,0,0,0,0,0,0,0,-1,1497,1618,9.76555,-6.33554
280,-594,3.33911,1.44812,0,0,0,0,0,0,0,-1,1504,1618,3.33908,-1.44816
287,-594,4.24121,1.9563,0,0,0,0,0,0,0,-1,1511,1618,4.24127,-1.95634
294,-594,5.14343,2.46448,0,0,0,0,0,0,0,-1,1518,1618,5.14346,-2.46451
301,-594,5.87903,4.25464,0.0599037,-0.0618673,0.0493689,0.077404,-0.0793676,0.34066,0.0905145,0.0492005,1525,1618,5.87898,-4.2546
308,-594,6.0022,5.32227,0.054041,-0.0471673,0.0467229,0.0723122,-0.0654385,0.37277,0.0795634,0.0452596,1532,1618,6.00216,-5.32226
315,-594,6.38623,6.38452,0,0,0,0,0,0,0,-1,1539,1618,6.38629,-6.38455
322,-594,5.22778,7.07495,0,0,0,0,0,0,0,-1,1546,1618,5.22777,-7.07497
329,-594,9.43713,5.62012,0,0,0,0,0,0,0,-1,1553,1618,9.4371,-5.62006
336,-594,10.1353,4.66528,0,0,0,0,0,0,0,-1,1560,1618,10.1353,-4.66533
343,-594,10.5729,3.71228,0,0,0,0,0,0,0,-1,1567,1618,10.5729,-3.71232
350,-594,10.219,2.98792,0,0,0,0,0,0,0,-1,1574,1618,10.219,-2.98797
357,-594,9.83154,1.96326,0,0,0,0,0,0,0,-1,1581,1618,9.8315,-1.96321
364,-594,9.74939,0.700562,0,0,0,0,0,0,0,-1,1588,1618,9.74939,-0.700615
371,-594,4.65808,7.79785,0,0,0,0,0,0,0,-1,1595,1618,4.65804,-7.79783
378,-594,4.69739,7.50952,0,0,0,0,0,0,0,-1,1602,1618,4.69742,-7.50947
385,-594,4.73682,7.22107,0,0,0,0,0,0,0,-1,1609,1618,4.7368,-7.2211
392,-594,4.7019,6.77173,0,0,0,0,0,0,0,-1,1616,1618,4.70189,-6.77173
399,-594,4.49426,6.92468,0.00670728,-0.0103633,-0.000687173,0.0067349,-0.0103909,-0.0401683,0.00996238,0.0406931,1623,1618,4.49431,-6.92473
406,-594,4.88989,6.98352,0.00545342,-0.0099669,-0.000167226,0.00545523,-0.00996871,-0.0108428,0.00903121,0.0258156,1630,1618,4.88988,-6.98351
413,-594,4.89075,6.95532,0.00444645,-0.00941867,0.000286302,0.00445236,-0.00942458,0.0206373,0.00818149,0.0180405,1637,1618,4.89076,-6.95537
420,-594,4.88879,6.87927,0.00358082,-0.00869184,0.00062306,0.00361237,-0.00872339,0.0505948,0.00732299,0.0135881,1644,1618,4.88877,-6.87928
427,-594,4.87622,6.82556,0.00277913,-0.00804527,0.000956851,0.00286306,-0.00812921,0.0874935,0.00658468,0.0112098,1651,1618,4.87627,-6.8256
434,-594,4.87317,6.72888,0.00204665,-0.00704261,0.00112183,0.00218306,-0.00717902,0.121005,0.00565593,0.0157717,1658,1618,4.87316,-6.72887
441,-594,4.87646,6.64319,0.00149994,-0.00586575,0.00111799,0.00166589,-0.0060317,0.147363,0.00467641,0.0150578,1665,1618,4.87644,-6.64325
448,-594,4.89368,6.55481,0.00107631,-0.00468414,0.00102163,0.00125214,-0.00485997,0.17043,0.00372812,0.0157463,1672,1618,4.89369,-6.55484
455,-594,4.88281,6.45117,0.00057943,-0.00363083,0.000926561,0.000774319,-0.00382572,0.207314,0.00284394,0.012294,1679,1618,4.88285,-6.4512
462,-594,4.88013,6.35498,0.000359587,-0.00268008,0.000674841,0.000502674,-0.00282317,0.208936,0.00207011,0.0129804,1686,1618,4.88013,-6.35503
469,-594,4.89417,6.26636,0.000317375,-0.00190042,0.00043685,0.000400321,-0.00198337,0.18764,0.00147392,0.0110684,1693,1618,4.89411,-6.26636
476,-594,4.89746,6.15808,0.000285896,-0.00128866,0.000220526,0.000316198,-0.00131897,0.136556,0.00100149,0.0114093,1700,1618,4.89741,-6.15814
483,-594,4.88696,6.05933,0.000468777,-0.000714921,8.18768e-05,0.000474414,-0.000720557,0.0687341,0.000694779,0.0153267,1707,1618,4.88699,-6.05931
490,-594,4.86609,5.96045,0.00141131,0.000101741,-0.000450496,0.00155131,-3.82639e-05,-0.301316,0.0010472,0.0127067,1714,1618,4.86608,-5.96047
497,-594,4.86426,5.85571,0.00302932,0.00147661,-0.00108012,0.00358315,0.000922787,-0.473792,0.00214828,0.0092005,1721,1618,4.86431,-5.85573
504,-594,4.8761,5.74377,0.00465647,0.00278197,-0.00164575,0.00561314,0.0018253,-0.526552,0.00330612,0.00940756,1728,1618,4.87609,-5.74381
511,-594,4.90137,5.64526,0.00722751,0.00567591,-0.00473892,0.0112537,0.00164971,-0.704264,0.00701751,0.0111065,1735,1618,4.90137,-5.64531
518,-594,4.9093,5.54431,0.010379,0.0108732,-0.0105437,0.0211727,7.95517e-05,-0.797113,0.0140887,0.0142942,1742,1618,4.90926,-5.54429
525,-594,4.92224,5.45679,0.013521,0.0167142,-0.0175555,0.0327455,-0.00251035,-0.830747,0.0227134,0.0263432,1749,1618,4.9222,-5.45677
532,-594,4.95605,5.34583,0.0161621,0.0247222,-0.0261811,0.0469708,-0.0060865,-0.86642,0.0335273,0.0443621,1756,1618,4.95606,-5.34586
539,-594,4.98169,5.19751,0,0,0,0,0,0,0,-1,1763,1618,4.98169,-5.19746
546,-594,4.56067,4.66858,0,0,0,0,0,0,0,-1,1770,1618,4.56066,-4.6686
553,-594,4.89966,5.2157,0,0,0,0,0,0,0,-1,1777,1618,4.89963,-5.2157
560,-594,5.1731,5.16284,0.024126,0.0668064,-0.0805813,0.128825,-0.0378929,-0.914841,0.100915,0.0434189,1784,1618,5.17306,-5.16285
567,-594,5.51184,5.2002,0.0220633,0.0780595,-0.0977019,0.151696,-0.051573,-0.924942,0.122011,0.045626,1791,1618,5.5118,-5.20014
574,-594,5.51611,5.37903,0.0172594,0.0887262,-0.114898,0.17332,-0.067334,-0.936157,0.143363,0.0468356,1798,1618,5.51612,-5.37905
581,-594,0,0,0,0,0,0,0,0,0,-1,1805,1618,0,0
588,-594,0,0,0,0,0,0,0,0,0,-1,1812,1618,0,0
595,-594,0,0,0,0,0,0,0,0,0,-1,1819,1618,0,0
602,-594,0,0,0,0,0,0,0,0,0,-1,1826,1618,0,0
609,-594,0,0,0,0,0,0,0,0,0,-1,1833,1618,0,0
616,-594,0,0,0,0,0,0,0,0,0,-1,1840,1618,0,0
623,-594,0,0,0,0,0,0,0,0,0,-1,1847,1618,0,0
630,-594,0,0,0,0,0,0,0,0,0,-1,1854,1618,0,0
637,-594,0,0,0,0,0,0,0,0,0,-1,1861,1618,0,0
644,-594,0,0,0,0,0,0,0,0,0,-1,1868,1618,0,0
651,-594,0,0,0,0,0,0,0,0,0,-1,1875,1618,0,0
658,-594,0,0,0,0,0,0,0,0,0,-1,1882,1618,0,0
665,-594,0,0,0,0,0,0,0,0,0,-1,1889,1618,0,0
672,-594,0,0,0,0,0,0,0,0,0,-1,1896,1618,0,0
679,-594,0,0,0,0,0,0,0,0,0,-1,1903,1618,0,0
686,-594,0,0,0,0,0,0,0,0,0,-1,1910,1618,0,0
693,-594,0,0,0,0,0,0,0,0,0,-1,1917,1618,0,0
700,-594,0,0,0,0,0,0,0,0,0,-1,1924,1618,0,0
707,-594,0,0,0,0,0,0,0,0,0,-1,1931,1618,0,0
714,-594,0,0,0,0,0,0,0,0,0,-1,1938,1618,0,0
721,-594,0,0,0,0,0,0,0,0,0,-1,1945,1618,0,0
728,-594,0,0,0,0,0,0,0,0,0,-1,1952,1618,0,0
735,-594,0,0,0,0,0,0,0,0,0,-1,1959,1618,0,0
742,-594,0,0,0,0,0,0,0,0,0,-1,1966,1618,0,0
749,-594,0,0,0,0,0,0,0,0,0,-1,1973,1618,0,0
756,-594,0,0,0,0,0,0,0,0,0,-1,1980,1618,0,0
763,-594,0,0,0,0,0,0,0,0,0,-1,1987,1618,0,0
770,-594,0,0,0,0,0,0,0,0,0,-1,1994,1618,0,0
777,-594,0,0,0,0,0,0,0,0,0,-1,2001,1618,0,0
784,-594,0,0,0,0,0,0,0,0,0,-1,2008,1618,0,0
791,-594,0,0,0,0,0,0,0,0,0,-1,2015,1618,0,0
798,-594,0,0,0,0,0,0,0,0,0,-1,2022,1618,0,0
805,-594,0,0,0,0,0,0,0,0,0,-1,2029,1618,0,0
812,-594,0,0,0,0,0,0,0,0,0,-1,2036,1618,0,0
-700,-601,0,0,0,0,0,0,0,0,0,-1,524,1625,0,0
-693,-601,0,0,0,0,0,0,0,0,0,-1,531,1625,0,0
-686,-601,0,0,0,0,0,0,0,0,0,-1,538,1625,0,0
-679,-601,0,0,0,0,0,0,0,0,0,-1,545,1625,0,0
-672,-601,0,0,0,0,0,0,0,0,0,-1,552,1625,0,0
-665,-601,0,0,0,0,0,0,0,0,0,-1,559,1625,0,0
-658,-601,0,0,0,0,0,0,0,0,0,-1,566,1625,0,0
-651,-601,0,0,0,0,0,0,0,0,0,-1,573,1625,0,0
-644,-601,0,0,0,0,0,0,0,0,0,-1,580,1625,0,0
-637,-601,0,0,0,0,0,0,0,0,0,-1,587,1625,0,0
-630,-601,0,0,0,0,0,0,0,0,0,-1,594,1625,0,0
-623,-601,0,0,0,0,0,0,0,0,0,-1,601,1625,0,0
-616,-601,0,0,0,0,0,0,0,0,0,-1,608,1625,0,0
-609,-601,0,0,0,0,0,0,0,0,0,-1,615,1625,0,0
-602,-601,0,0,0,0,0,0,0,0,0,-1,622,1625,0,0
-595,-601,0,0,0,0,0,0,0,0,0,-1,629,1625,0,0
-588,-601,0,0,0,0,0,0,0,0,0,-1,636,1625,0,0
-581,-601,0,0,0,0,0,0,0,0,0,-1,643,1625,0,0
-574,-601,0,0,0,0,0,0,0,0,0,-1,650,1625,0,0
-567,-601,0,0,0,0,0,0,0,0,0,-1,657,1625,0,0
-560,-601,0,0,0,0,0,0,0,0,0,-1,664,1625,0,0
-553,-601,0,0,0,0,0,0,0,0,0,-1,671,1625,0,0
-546,-601,0,0,0,0,0,0,0,0,0,-1,678,1625,0,0
-539,-601,0,0,0,0,0,0,0,0,0,-1,685,1625,0,0
-532,-601,0,0,0,0,0,0,0,0,0,-1,692,1625,0,0
-525,-601,0,0,0,0,0,0,0,0,0,-1,699,1625,0,0
-518,-601,0,0,0,0,0,0,0,0,0,-1,706,1625,0,0
-511,-601,0,0,0,0,0,0,0,0,0,-1,713,1625,0,0
-504,-601,0,0,0,0,0,0,0,0,0,-1,720,1625,0,0
-497,-601,0,0,0,0,0,0,0,0,0,-1,727,1625,0,0
-490,-601,0,0,0,0,0,0,0,0,0,-1,734,1625,0,0
-483,-601,0,0,0,0,0,0,0,0,0,-1,741,1625,0,0
-476,-601,0,0,0,0,0,0,0,0,0,-1,748,1625,0,0
-469,-601,0,0,0,0,0,0,0,0,0,-1,755,1625,0,0
-462,-601,0,0,0,0,0,0,0,0,0,-1,762,1625,0,0
-455,-601,0,0,0,0,0,0,0,0,0,-1,769,1625,0,0
-448,-601,-7.08221,3.48279,0,0,0,0,0,0,0,-1,776,1625,-7.08224,-3.48275
-441,-601,-6.46198,3.56165,0.0787099,0.0480764,0.00227023,0.0788772,0.0479091,0.0735738,0.0458886,0.0457001,783,1625,-6.46198,-3.56169
-434,-601,-6.00623,4.03101,0.0779495,0.0472723,-0.00289243,0.0782199,0.047002,-0.0931915,0.0454657,0.0431318,790,1625,-6.00626,-4.03105
-427,-601,-5.67993,4.38684,0,0,0,0,0,0,0,-1,797,1625,-5.67996,-4.38689
-420,-601,-5.32159,5.00232,0.0679153,0.0415272,-0.00857432,0.0704566,0.0389859,-0.288139,0.0407552,0.0452849,804,1625,-5.32162,-5.00235
-413,-601,-4.59186,5.29614,0.0596363,0.0367926,-0.00958196,0.0631233,0.0333057,-0.349012,0.0364628,0.0480156,811,1625,-4.59186,-5.29615
-406,-601,-3.82013,5.55908,0,0,0,0,0,0,0,-1,818,1625,-3.82012,-5.55908
-399,-601,2.73376,4.30029,0,0,0,0,0,0,0,-1,825,1625,2.73375,-4.30032
-392,-601,2.71014,4.32434,0.0320979,0.0192449,-0.00834172,0.0362016,0.0151413,-0.457183,0.0209939,0.0489855,832,1625,2.71017,-4.3243
-385,-601,2.08691,4.93738,0.0236066,0.013647,-0.00754322,0.0276656,0.00958812,-0.493653,0.0162214,0.0437251,839,1625,2.08691,-4.93737
-378,-601,2.0849,5.00452,0.0158927,0.00828635,-0.00665766,0.0197569,0.00442214,-0.525894,0.0119726,0.031417,846,1625,2.08492,-5.00452
-371,-601,2.08588,5.04895,0.00982799,0.00429411,-0.00517447,0.0129289,0.00119325,-0.539877,0.0082503,0.0152496,853,1625,2.08589,-5.04894
-364,-601,2.06793,5.1554,0.00520023,0.00108544,-0.00373184,0.00740423,-0.00111856,-0.533474,0.00534814,0.0107731,860,1625,2.06792,-5.15536
-357,-601,2.06323,5.27771,0.00117356,-0.0015552,-0.00258544,0.00273254,-0.00311418,-0.542612,0.003378,0.0100326,867,1625,2.06321,-5.27776
-350,-601,2.08362,5.41479,-0.000608813,-0.00302701,-0.00161974,0.000203348,-0.00383917,-0.464777,0.00262985,0.0201162,874,1625,2.0836,-5.41486
-343,-601,2.06152,5.5481,-0.00115081,-0.00358236,-0.000949024,-0.000824266,-0.00390891,-0.331397,0.00237926,0.0197079,881,1625,2.06154,-5.54808
-336,-601,2.03992,5.62415,-2.94147e-05,-0.003246,-0.000644728,9.50014e-05,-0.00337042,-0.190631,0.00227927,0.0152652,888,1625,2.03995,-5.6242
-329,-601,2.05975,5.74536,0.000602881,-0.00245749,-0.000576222,0.00070778,-0.00256239,-0.180073,0.00198666,0.0127909,895,1625,2.05974,-5.74535
-322,-601,2.08325,5.87976,0.00102055,-0.00184545,-0.000506369,0.00110738,-0.00193228,-0.169834,0.00177636,0.0111659,902,1625,2.08325,-5.87973
-315,-601,2.07581,5.95325,0.00130155,-0.0014669,-0.000632903,0.00143938,-0.00160473,-0.214423,0.00175838,0.0113206,909,1625,2.07581,-5.95319
-308,-601,2.07074,6.052,0.00140922,-0.00155213,-0.00109693,0.00177128,-0.00191419,-0.318803,0.00212834,0.0106733,916,1625,2.07071,-6.05205
-301,-601,2.08185,6.16394,0.00148688,-0.00224202,-0.00192422,0.00230176,-0.0030569,-0.400587,0.00310405,0.00976291,923,1625,2.08186,-6.16392
-294,-601,2.07666,6.27588,0.0017801,-0.0029146,-0.00266148,0.00298149,-0.00411599,-0.424016,0.00411514,0.00995748,930,1625,2.07667,-6.27589
-287,-601,2.08026,6.36841,0.00234581,-0.00388249,-0.00332643,0.00378832,-0.00532499,-0.409173,0.00528645,0.00944189,937,1625,2.08025,-6.36843
-280,-601,2.078,6.46191,0.0027852,-0.00528513,-0.00435356,0.00468603,-0.00718595,-0.411667,0.00690476,0.00910262,944,1625,2.078,-6.46191
-273,-601,2.08112,6.55798,0.00333562,-0.00724437,-0.00554822,0.00571158,-0.00962032,-0.40461,0.00894725,0.00989235,951,1625,2.0811,-6.55801
-266,-601,2.09161,6.62817,0.0040753,-0.00954506,-0.00669541,0.00681536,-0.0122851,-0.38845,0.0111774,0.0120018,958,1625,2.09162,-6.62821
-259,-601,2.11041,6.67627,0.00498543,-0.0120565,-0.00763897,0.00790828,-0.0149793,-0.365437,0.0134227,0.0218681,965,1625,2.11039,-6.67632
-252,-601,2.15045,6.6355,0.00618441,-0.0148646,-0.00841071,0.00913229,-0.0178125,-0.337112,0.0158234,0.037662,972,1625,2.15043,-6.63545
-245,-601,2.34515,6.68408,0.00756313,-0.0177055,-0.00895326,0.0104139,-0.0205562,-0.308253,0.0181974,0.0440061,979,1625,2.34517,-6.68405
-238,-601,2.77545,6.91907,0.00874409,-0.0204496,-0.00919196,0.0113972,-0.0231027,-0.280994,0.0202971,0.048302,986,1625,2.77547,-6.91903
-231,-601,3.13892,7.03918,0,0,0,0,0,0,0,-1,993,1625,3.13892,-7.03916
-224,-601,2.7121,4.81335,0,0,0,0,0,0,0,-1,1000,1625,2.71207,-4.81331
-217,-601,3.3703,4.12646,0,0,0,0,0,0,0,-1,1007,1625,3.37027,-4.12651
-210,-601,0.641479,3.60742,0,0,0,0,0,0,0,-1,1014,1625,0.641457,-3.60745
-203,-601,2.36591,7.53955,0,0,0,0,0,0,0,-1,1021,1625,2.36591,-7.53961
-196,-601,1.91077,7.00842,0,0,0,0,0,0,0,-1,1028,1625,1.91078,-7.00846
-189,-601,1.74158,6.38281,0,0,0,0,0,0,0,-1,1035,1625,1.74164,-6.38276
-182,-601,0.380737,5.32532,0,0,0,0,0,0,0,-1,1042,1625,0.38071,-5.32529
-175,-601,0.664673,6.2356,0,0,0,0,0,0,0,-1,1049,1625,0.664683,-6.23562
-168,-601,0.179443,6.50488,0,0,0,0,0,0,0,-1,1056,1625,0.179399,-6.50494
-161,-601,-1.17554,6.5564,0,0,0,0,0,0,0,-1,1063,1625,-1.17557,-6.55645
-154,-601,-1.75269,6.05237,0,0,0,0,0,0,0,-1,1070,1625,-1.75271,-6.05234
-147,-601,1.01526,7.01147,0,0,0,0,0,0,0,-1,1077,1625,1.0153,-7.01151
-140,-601,1.13379,7.59949,0.00230911,-0.0354255,0.0274181,0.0167244,-0.0498407,0.48404,0.0399853,0.0492965,1084,1625,1.13384,-7.59952
-133,-601,1.15735,8.05737,0.00343179,-0.0311262,0.0301581,0.0209102,-0.0486046,0.525253,0.0411824,0.044004,1091,1625,1.15738,-8.05734
-126,-601,1.19653,8.58228,0,0,0,0,0,0,0,-1,1098,1625,1.19658,-8.58226
-119,-601,1.3407,9.56555,0,0,0,0,0,0,0,-1,1105,1625,1.34072,-9.56553
-112,-601,0,0,0,0,0,0,0,0,0,-1,1112,1625,0,0
-105,-601,0,0,0,0,0,0,0,0,0,-1,1119,1625,0,0
-98,-601,0,0,0,0,0,0,0,0,0,-1,1126,1625,0,0
-91,-601,0,0,0,0,0,0,0,0,0,-1,1133,1625,0,0
-84,-601,0,0,0,0,0,0,0,0,0,-1,1140,1625,0,0
-77,-601,0,0,0,0,0,0,0,0,0,-1,1147,1625,0,0
-70,-601,0,0,0,0,0,0,0,0,0,-1,1154,1625,0,0
-63,-601,0,0,0,0,0,0,0,0,0,-1,1161,1625,0,0
-56,-601,0,0,0,0,0,0,0,0,0,-1,1168,1625,0,0
-49,-601,0,0,0,0,0,0,0,0,0,-1,1175,1625,0,0
-42,-601,0,0,0,0,0,0,0,0,0,-1,1182,1625,0,0
-35,-601,0,0,0,0,0,0,0,0,0,-1,1189,1625,0,0
-28,-601,0,0,0,0,0,0,0,0,0,-1,1196,1625,0,0
-21,-601,0,0,0,0,0,0,0,0,0,-1,1203,1625,0,0
-14,-601,0,0,0,0,0,0,0,0,0,-1,1210,1625,0,0
-7,-601,0,0,0,0,0,0,0,0,0,-1,1217,1625,0,0
0,-601,0,0,0,0,0,0,0,0,0,-1,1224,1625,0,0
7,-601,0,0,0,0,0,0,0,0,0,-1,1231,1625,0,0
14,-601,0,0,0,0,0,0,0,0,0,-1,1238,1625,0,0
21,-601,0,0,0,0,0,0,0,0,0,-1,1245,1625,0,0
28,-601,0,0,0,0,0,0,0,0,0,-1,1252,1625,0,0
35,-601,0,0,0,0,0,0,0,0,0,-1,1259,1625,0,0
42,-601,0,0,0,0,0,0,0,0,0,-1,1266,1625,0,0
49,-601,0,0,0,0,0,0,0,0,0,-1,1273,1625,0,0
56,-601,0,0,0,0,0,0,0,0,0,-1,1280,1625,0,0
63,-601,0,0,0,0,0,0,0,0,0,-1,1287,1625,0,0
70,-601,0,0,0,0,0,0,0,0,0,-1,1294,1625,0,0
77,-601,0,0,0,0,0,0,0,0,0,-1,1301,1625,0,0
84,-601,0,0,0,0,0,0,0,0,0,-1,1308,1625,0,0
91,-601,0,0,0,0,0,0,0,0,0,-1,1315,1625,0,0
98,-601,0,0,0,0,0,0,0,0,0,-1,1322,1625,0,0
105,-601,0,0,0,0,0,0,0,0,0,-1,1329,1625,0,0
112,-601,0,0,0,0,0,0,0,0,0,-1,1336,1625,0,0
119,-601,0,0,0,0,0,0,0,0,0,-1,1343,1625,0,0
126,-601,0,0,0,0,0,0,0,0,0,-1,1350,1625,0,0
133,-601,0,0,0,0,0,0,0,0,0,-1,1357,1625,0,0
140,-601,0,0,0,0,0,0,0,0,0,-1,1364,1625,0,0
147,-601,0,0,0,0,0,0,0,0,0,-1,1371,1625,0,0
154,-601,0,0,0,0,0,0,0,0,0,-1,1378,1625,0,0
161,-601,0,0,0,0,0,0,0,0,0,-1,1385,1625,0,0
168,-601,0,0,0,0,0,0,0,0,0,-1,1392,1625,0,0
175,-601,0,0,0,0,0,0,0,0,0,-1,1399,1625,0,0
182,-601,0,0,0,0,0,0,0,0,0,-1,1406,1625,0,0
189,-601,0,0,0,0,0,0,0,0,0,-1,1413,1625,0,0
196,-601,0,0,0,0,0,0,0,0,0,-1,1420,1625,0,0
203,-601,0,0,0,0,0,0,0,0,0,-1,1427,1625,0,0
210,-601,0,0,0,0,0,0,0,0,0,-1,1434,1625,0,0
217,-601,0,0,0,0,0,0,0,0,0,-1,1441,1625,0,0
224,-601,0,0,0,0,0,0,0,0,0,-1,1448,1625,0,0
231,-601,-0.0371094,0.525879,0,0,0,0,0,0,0,-1,1455,1625,-0.0371518,-0.525824
238,-601,2.03369,-1.32861,0,0,0,0,0,0,0,-1,1462,1625,2.03364,1.32858
245,-601,2.71375,2.44983,0,0,0,0,0,0,0,-1,1469,1625,2.71371,-2.44979
252,-601,4.75793,2.36621,0,0,0,0,0,0,0,-1,1476,1625,4.75798,-2.36625
259,-601,5.41162,2.03979,0,0,0,0,0,0,0,-1,1483,1625,5.41166,-2.03978
266,-601,6.75317,1.68701,0,0,0,0,0,0,0,-1,1490,1625,6.75323,-1.687
273,-601,5.4314,2.92053,0,0,0,0,0,0,0,-1,1497,1625,5.43144,-2.92051
280,-601,4.53711,2.09058,0,0,0,0,0,0,0,-1,1504,1625,4.53706,-2.09056
287,-601,5.21082,2.94202,0.0733682,-0.093645,0.0375826,0.0814356,-0.101712,0.21145,0.105956,0.0440394,1511,1625,5.21086,-2.94207
294,-601,5.88416,3.81384,0.0662477,-0.0806908,0.0358358,0.0745215,-0.0889646,0.226906,0.0945115,0.0452452,1518,1625,5.88417,-3.81387
301,-601,6.11011,4.85205,0.0603625,-0.0677797,0.0331672,0.0684383,-0.0758555,0.238839,0.0833447,0.0484834,1525,1625,6.11005,-4.85201
308,-601,6.49023,5.79993,0,0,0,0,0,0,0,-1,1532,1625,6.49025,-5.79997
315,-601,7.77551,5.46216,0,0,0,0,0,0,0,-1,1539,1625,7.77548,-5.46222
322,-601,5.03577,7.39246,0,0,0,0,0,0,0,-1,1546,1625,5.03579,-7.39251
329,-601,5.005,7.34106,0,0,0,0,0,0,0,-1,1553,1625,5.00505,-7.34103
336,-601,12.0363,3.21594,0,0,0,0,0,0,0,-1,1560,1625,12.0363,-3.21591
343,-601,11.1404,3.14575,0,0,0,0,0,0,0,-1,1567,1625,11.1404,-3.1458
350,-601,10.9462,2.37769,0,0,0,0,0,0,0,-1,1574,1625,10.9461,-2.37764
357,-601,10.7518,1.6095,0,0,0,0,0,0,0,-1,1581,1625,10.7518,-1.60948
364,-601,4.50635,7.82922,0,0,0,0,0,0,0,-1,1588,1625,4.50637,-7.82926
371,-601,4.51074,7.67383,0.0139053,-0.0041728,-0.00789506,0.0168678,-0.00713527,-0.358973,0.0142328,0.0462516,1595,1625,4.51078,-7.67389
378,-601,4.63855,7.50354,0.010462,-0.00603205,-0.00381857,0.0113032,-0.0068732,-0.216816,0.0105975,0.0435525,1602,1625,4.6385,-7.50359
385,-601,4.73108,7.24756,0,0,0,0,0,0,0,-1,1609,1625,4.73107,-7.24758
392,-601,4.65063,7.02087,0.00689132,-0.008662,-0.000226329,0.00689461,-0.00866529,-0.0145477,0.00900288,0.0403247,1616,1625,4.65066,-7.02085
399,-601,4.6908,7.10596,0.005895,-0.00876796,0.000204652,0.00589786,-0.00877081,0.0139534,0.00852293,0.0198658,1623,1625,4.69076,-7.10592
406,-601,4.80237,7.05469,0.00496029,-0.00840646,0.000465327,0.00497647,-0.00842264,0.0347561,0.0078208,0.0126659,1630,1625,4.80238,-7.05474
413,-601,4.79858,6.98572,0.00409738,-0.00788211,0.000737503,0.00414261,-0.00792735,0.0612555,0.00708187,0.0105163,1637,1625,4.79863,-6.98575
420,-601,4.77258,6.92017,0.00331859,-0.00720798,0.000936137,0.00340119,-0.00729058,0.0880105,0.00630757,0.00927736,1644,1625,4.77255,-6.92021
427,-601,4.7749,6.84827,0.0025654,-0.0066227,0.00114906,0.00270692,-0.00676422,0.122546,0.00563293,0.014783,1651,1625,4.77493,-6.84822
434,-601,4.79431,6.74878,0.00184534,-0.00575636,0.00121686,0.00203538,-0.0059464,0.154921,0.00478913,0.0160106,1658,1625,4.79437,-6.74878
441,-601,4.80042,6.63452,0.00128183,-0.00475093,0.00113435,0.00148808,-0.00495718,0.179852,0.0038967,0.0168583,1665,1625,4.80038,-6.63448
448,-601,4.79895,6.54321,0.000840765,-0.00375173,0.000970536,0.00103745,-0.00394841,0.199944,0.00303773,0.0142384,1672,1625,4.79891,-6.54321
455,-601,4.79822,6.43616,0.000338794,-0.00287137,0.000825159,0.000538477,-0.00307105,0.237429,0.00224846,0.0123173,1679,1625,4.79817,-6.43618
462,-601,4.80127,6.34607,0.000112417,-0.00208276,0.000546057,0.000240748,-0.00221109,0.230825,0.00156051,0.0102911,1686,1625,4.80123,-6.34606
469,-601,4.79993,6.26648,6.26326e-05,-0.00146648,0.000284056,0.000113695,-0.00151754,0.177863,0.00105164,0.0100162,1693,1625,4.79997,-6.26646
476,-601,4.80066,6.15833,4.89019e-05,-0.00101105,4.17878e-05,5.05468e-05,-0.00101269,0.039343,0.000692592,0.0127455,1700,1625,4.80067,-6.15835
483,-601,4.78308,6.05615,0.000264899,-0.000672188,-0.000131761,0.000283073,-0.000690362,-0.137067,0.000578178,0.0167885,1707,1625,4.78313,-6.05611
490,-601,4.77356,5.96252,0.00142375,0.000208692,-0.00068609,0.00173263,-0.000100191,-0.423027,0.00118989,0.0123973,1714,1625,4.7736,-5.96252
497,-601,4.79102,5.8584,0.00348282,0.00191059,-0.00135507,0.00426329,0.00113012,-0.522559,0.00255036,0.00913501,1721,1625,4.79101,-5.85844
504,-601,4.80981,5.73535,0.0055542,0.00356809,-0.00202603,0.00681746,0.00230483,-0.55753,0.00400427,0.0113633,1728,1625,4.80987,-5.73537
511,-601,4.80383,5.62305,0.00880986,0.00741493,-0.00589071,0.0140442,0.00218054,-0.726472,0.00872727,0.0208813,1735,1625,4.8038,-5.623
518,-601,4.78723,5.53748,0.0127609,0.0141948,-0.0129738,0.0264714,0.000484292,-0.812999,0.0174884,0.0298771,1742,1625,4.78728,-5.53753
525,-601,4.77246,5.48242,0.0167622,0.021664,-0.0213463,0.0406997,-0.00227348,-0.842555,0.0279218,0.0392206,1749,1625,4.77244,-5.48244
532,-601,4.71375,5.42395,0.0202026,0.0316396,-0.0315366,0.057972,-0.00612981,-0.875088,0.0408449,0.0476323,1756,1625,4.71379,-5.42398
539,-601,4.77112,5.26929,0,0,0,0,0,0,0,-1,1763,1625,4.77109,-5.2693
546,-601,6.03955,4.18286,0.0278531,0.0552379,-0.0583738,0.101504,-0.0184127,-0.900598,0.0745683,0.0482626,1770,1625,6.03959,-4.1829
553,-601,6.48462,4.79956,0,0,0,0,0,0,0,-1,1777,1625,6.48458,-4.79952
560,-601,7.15332,4.92725,0.0319461,0.0825049,-0.0935602,0.154141,-0.0396896,-0.917345,0.118232,0.0449523,1784,1625,7.15336,-4.9272
567,-601,7.38892,4.58118,0.0301694,0.095692,-0.113272,0.180845,-0.0549835,-0.926171,0.142473,0.0461165,1791,1625,7.38888,-4.58114
574,-601,0,0,0,0,0,0,0,0,0,-1,1798,1625,0,0
581,-601,0,0,0,0,0,0,0,0,0,-1,1805,1625,0,0
588,-601,0,0,0,0,0,0,0,0,0,-1,1812,1625,0,0
595,-601,0,0,0,0,0,0,0,0,0,-1,1819,1625,0,0
602,-601,0,0,0,0,0,0,0,0,0,-1,1826,1625,0,0
609,-601,0,0,0,0,0,0,0,0,0,-1,1833,1625,0,0
616,-601,0,0,0,0,0,0,0,0,0,-1,1840,1625,0,0
623,-601,0,0,0,0,0,0,0,0,0,-1,1847,1625,0,0
630,-601,0,0,0,0,0,0,0,0,0,-1,1854,1625,0,0
637,-601,0,0,0,0,0,0,0,0,0,-1,1861,1625,0,0
644,-601,0,0,0,0,0,0,0,0,0,-1,1868,1625,0,0
651,-601,0,0,0,0,0,0,0,0,0,-1,1875,1625,0,0
658,-601,0,0,0,0,0,0,0,0,0,-1,1882,1625,0,0
665,-601,0,0,0,0,0,0,0,0,0,-1,1889,1625,0,0
672,-601,0,0,0,0,0,0,0,0,0,-1,1896,1625,0,0
679,-601,0,0,0,0,0,0,0,0,0,-1,1903,1625,0,0
686,-601,0,0,0,0,0,0,0,0,0,-1,1910,1625,0,0
693,-601,0,0,0,0,0,0,0,0,0,-1,1917,1625,0,0
700,-601,0,0,0,0,0,0,0,0,0,-1,1924,1625,0,0
707,-601,0,0,0,0,0,0,0,0,0,-1,1931,1625,0,0
714,-601,0,0,0,0,0,0,0,0,0,-1,1938,1625,0,0
721,-601,0,0,0,0,0,0,0,0,0,-1,1945,1625,0,0
728,-601,0,0,0,0,0,0,0,0,0,-1,1952,1625,0,0
735,-601,0,0,0,0,0,0,0,0,0,-1,1959,1625,0,0
742,-601,0,0,0,0,0,0,0,0,0,-1,1966,1625,0,0
749,-601,0,0,0,0,0,0,0,0,0,-1,1973,1625,0,0
756,-601,0,0,0,0,0,0,0,0,0,-1,1980,1625,0,0
763,-601,0,0,0,0,0,0,0,0,0,-1,1987,1625,0,0
770,-601,0,0,0,0,0,0,0,0,0,-1,1994,1625,0,0
777,-601,0,0,0,0,0,0,0,0,0,-1,2001,1625,0,0
784,-601,0,0,0,0,0,0,0,0,0,-1,2008,1625,0,0
791,-601,0,0,0,0,0,0,0,0,0,-1,2015,1625,0,0
798,-601,0,0,0,0,0,0,0,0,0,-1,2022,1625,0,0
805,-601,0,0,0,0,0,0,0,0,0,-1,2029,1625,0,0
812,-601,0,0,0,0,0,0,0,0,0,-1,2036,1625,0,0
-700,-608,0,0,0,0,0,0,0,0,0,-1,524,1632,0,0
-693,-608,0,0,0,0,0,0,0,0,0,-1,531,1632,0,0
-686,-608,0,0,0,0,0,0,0,0,0,-1,538,1632,0,0
-679,-608,0,0,0,0,0,0,0,0,0,-1,545,1632,0,0
-672,-608,0,0,0,0,0,0,0,0,0,-1,552,1632,0,0
-665,-608,0,0,0,0,0,0,0,0,0,-1,559,1632,0,0
-658,-608,0,0,0,0,0,0,0,0,0,-1,566,1632,0,0
-651,-608,0,0,0,0,0,0,0,0,0,-1,573,1632,0,0
-644,-608,0,0,0,0,0,0,0,0,0,-1,580,1632,0,0
-637,-608,0,0,0,0,0,0,0,0,0,-1,587,1632,0,0
-630,-608,0,0,0,0,0,0,0,0,0,-1,594,1632,0,0
-623,-608,0,0,0,0,0,0,0,0,0,-1,601,1632,0,0
-616,-608,0,0,0,0,0,0,0,0,0,-1,608,1632,0,0
-609,-608,0,0,0,0,0,0,0,0,0,-1,615,1632,0,0
-602,-608,0,0,0,0,0,0,0,0,0,-1,622,1632,0,0
-595,-608,0,0,0,0,0,0,0,0,0,-1,629,1632,0,0
-588,-608,0,0,0,0,0,0,0,0,0,-1,636,1632,0,0
-581,-608,0,0,0,0,0,0,0,0,0,-1,643,1632,0,0
-574,-608,0,0,0,0,0,0,0,0,0,-1,650,1632,0,0
-567,-608,0,0,0,0,0,0,0,0,0,-1,657,1632,0,0
-560,-608,0,0,0,0,0,0,0,0,0,-1,664,1632,0,0
-553,-608,0,0,0,0,0,0,0,0,0,-1,671,1632,0,0
-546,-608,0,0,0,0,0,0,0,0,0,-1,678,1632,0,0
-539,-608,0,0,0,0,0,0,0,0,0,-1,685,1632,0,0
-532,-608,0,0,0,0,0,0,0,0,0,-1,692,1632,0,0
-525,-608,0,0,0,0,0,0,0,0,0,-1,699,1632,0,0
-518,-608,0,0,0,0,0,0,0,0,0,-1,706,1632,0,0
-511,-608,0,0,0,0,0,0,0,0,0,-1,713,1632,0,0
-504,-608,0,0,0,0,0,0,0,0,0,-1,720,1632,0,0
-497,-608,0,0,0,0,0,0,0,0,0,-1,727,1632,0,0
-490,-608,0,0,0,0,0,0,0,0,0,-1,734,1632,0,0
-483,-608,0,0,0,0,0,0,0,0,0,-1,741,1632,0,0
-476,-608,0,0,0,0,0,0,0,0,0,-1,748,1632,0,0
-469,-608,0,0,0,0,0,0,0,0,0,-1,755,1632,0,0
-462,-608,0,0,0,0,0,0,0,0,0,-1,762,1632,0,0
-455,-608,0,0,0,0,0,0,0,0,0,-1,769,1632,0,0
-448,-608,0,0,0,0,0,0,0,0,0,-1,776,1632,0,0
-441,-608,-5.87891,3.42712,0.0931643,0.0519524,-0.00035028,0.0931673,0.0519494,-0.00849867,0.053909,0.0454983,783,1632,-5.8789,-3.42718
-434,-608,-5.47919,3.89453,0.0936658,0.0529708,-0.00613161,0.0945696,0.052067,-0.146345,0.0546928,0.0442496,790,1632,-5.47919,-3.89455
-427,-608,-5.11127,4.29431,0.090688,0.0523214,-0.0100541,0.0931631,0.0498463,-0.241374,0.0538318,0.0440417,797,1632,-5.11129,-4.29425
-420,-608,-4.7644,4.71411,0.0838723,0.0487788,-0.0123048,0.0877567,0.0448943,-0.305785,0.0506709,0.0436218,804,1632,-4.76443,-4.71413
-413,-608,-4.16553,4.87195,0.074545,0.04382,-0.0131564,0.0794086,0.0389564,-0.354099,0.0458493,0.0455539,811,1632,-4.16554,-4.87191
-406,-608,-3.41718,5.3385,0,0,0,0,0,0,0,-1,818,1632,-3.41716,-5.33846
-399,-608,-2.39368,5.50415,0,0,0,0,0,0,0,-1,825,1632,-2.39366,-5.50414
-392,-608,3.11353,4.17444,0,0,0,0,0,0,0,-1,832,1632,3.11355,-4.17445
-385,-608,2.25354,5.04346,0,0,0,0,0,0,0,-1,839,1632,2.25353,-5.04351
-378,-608,2.40839,5.23059,0.022473,0.0105107,-0.00862821,0.0269904,0.00599327,-0.482322,0.0163658,0.0497158,846,1632,2.40837,-5.23058
-371,-608,2.25897,5.08179,0.0144665,0.00540304,-0.00675308,0.0180675,0.00180207,-0.489879,0.0114915,0.038884,853,1632,2.25898,-5.08183
-364,-608,2.18884,5.12451,0.00817162,0.00125879,-0.00490935,0.0107192,-0.00128884,-0.478679,0.00761223,0.0153401,860,1632,2.18884,-5.1245
-357,-608,2.17889,5.26147,0.00256127,-0.0021725,-0.00341778,0.00435171,-0.00396294,-0.482554,0.00480222,0.0122874,867,1632,2.17888,-5.26145
-350,-608,2.15393,5.38843,-0.000300747,-0.00419148,-0.00213855,0.000644883,-0.00513711,-0.416333,0.0036587,0.0168869,874,1632,2.15393,-5.38837
-343,-608,2.15155,5.50513,-0.00144561,-0.00491045,-0.00124121,-0.00104686,-0.0053092,-0.310845,0.00324726,0.0206828,881,1632,2.15154,-5.50515
-336,-608,2.17554,5.62085,-0.00026383,-0.00421098,-0.000905935,-6.58352e-05,-0.00440898,-0.21517,0.00291762,0.0130961,888,1632,2.17553,-5.62089
-329,-608,2.17072,5.73315,0.000392458,-0.00318949,-0.000740375,0.000539458,-0.00333649,-0.195999,0.00242424,0.0120982,895,1632,2.17071,-5.73316
-322,-608,2.16504,5.84338,0.00076366,-0.00233928,-0.00054021,0.000855019,-0.00243064,-0.167532,0.00196834,0.0123645,902,1632,2.16502,-5.84341
-315,-608,2.17737,5.95825,0.00105012,-0.00171636,-0.000550756,0.00115573,-0.00182197,-0.189462,0.00173346,0.010144,909,1632,2.1774,-5.95824
-308,-608,2.17987,6.06433,0.00113598,-0.0015873,-0.000846075,0.00137744,-0.00182875,-0.27799,0.0018572,0.0105569,916,1632,2.17989,-6.06435
-301,-608,2.18939,6.15894,0.00116361,-0.00197056,-0.00144551,0.00172848,-0.00253544,-0.372533,0.00247643,0.00976501,923,1632,2.18939,-6.15897
-294,-608,2.18872,6.26013,0.00136743,-0.00232371,-0.00196969,0.00222108,-0.00317736,-0.40896,0.00313305,0.0101228,930,1632,2.18869,-6.26019
-287,-608,2.18225,6.36279,0.00181691,-0.00297549,-0.00239743,0.00281032,-0.0039689,-0.392827,0.00393299,0.0103328,937,1632,2.18225,-6.36276
-280,-608,2.18146,6.45581,0.00218002,-0.00405478,-0.00310054,0.00345938,-0.00533414,-0.391344,0.00511526,0.00818746,944,1632,2.18146,-6.45576
-273,-608,2.17664,6.55847,0.00267441,-0.00558125,-0.00393022,0.0042462,-0.00715303,-0.38044,0.0066523,0.00823113,951,1632,2.17662,-6.55846
-266,-608,2.1889,6.6604,0.00332783,-0.0072948,-0.0046428,0.005071,-0.00903796,-0.35917,0.00825244,0.00828859,958,1632,2.18891,-6.66036
-259,-608,2.20233,6.72852,0.00409097,-0.00917015,-0.0051886,0.00587979,-0.010959,-0.331998,0.00986818,0.0105124,965,1632,2.2023,-6.72849
-252,-608,2.20856,6.78711,0.0050448,-0.0112538,-0.00562431,0.00679722,-0.0130062,-0.302046,0.0116193,0.0211044,972,1632,2.20857,-6.7871
-245,-608,2.42914,6.99866,0.0060728,-0.0133303,-0.00587217,0.00771156,-0.014969,-0.272147,0.0133162,0.0341175,979,1632,2.42913,-6.99869
-238,-608,2.61627,7.12524,0.00693591,-0.0152566,-0.00589656,0.00840533,-0.016726,-0.244226,0.0147723,0.0407348,986,1632,2.61629,-7.12522
-231,-608,2.75299,7.17615,0,0,0,0,0,0,0,-1,993,1632,2.75298,-7.17616
-224,-608,2.09583,6.50952,0,0,0,0,0,0,0,-1,1000,1632,2.09582,-6.50956
-217,-608,2.26367,4.36401,0,0,0,0,0,0,0,-1,1007,1632,2.26368,-4.36404
-210,-608,0.202148,8.21472,0,0,0,0,0,0,0,-1,1014,1632,0.202135,-8.21469
-203,-608,1.99542,6.48315,0,0,0,0,0,0,0,-1,1021,1632,1.99542,-6.4831
-196,-608,2.05847,6.70032,0,0,0,0,0,0,0,-1,1028,1632,2.0585,-6.70032
-189,-608,1.70764,6.45618,0,0,0,0,0,0,0,-1,1035,1632,1.70762,-6.45619
-182,-608,0.535034,6.26172,0,0,0,0,0,0,0,-1,1042,1632,0.535033,-6.26166
-175,-608,0.838623,5.90906,0,0,0,0,0,0,0,-1,1049,1632,0.838658,-5.9091
-168,-608,0.614746,6.16357,0,0,0,0,0,0,0,-1,1056,1632,0.614708,-6.16353
-161,-608,2.16504,4.73071,0,0,0,0,0,0,0,-1,1063,1632,2.16505,-4.73071
-154,-608,-2.22656,7.52649,0,0,0,0,0,0,0,-1,1070,1632,-2.22654,-7.52652
-147,-608,1.19873,7.43811,0,0,0,0,0,0,0,-1,1077,1632,1.19868,-7.43809
-140,-608,1.16833,7.82373,0.00294088,-0.0319769,0.0182408,0.0107315,-0.0397675,0.403648,0.0307202,0.0497527,1084,1632,1.16839,-7.82377
-133,-608,1.13196,8.22876,0.00411984,-0.0273008,0.0209133,0.0145663,-0.0377473,0.46326,0.0311761,0.0463177,1091,1632,1.13202,-8.2288
-126,-608,1.1908,8.63635,0,0,0,0,0,0,0,-1,1098,1632,1.19076,-8.63632
-119,-608,1.2926,9.32837,0,0,0,0,0,0,0,-1,1105,1632,1.29261,-9.32834
-112,-608,1.42188,10.0712,0,0,0,0,0,0,0,-1,1112,1632,1.42185,-10.0712
-105,-608,-0.252319,1.42419,0,0,0,0,0,0,0,-1,1119,1632,-0.252331,-1.42418
-98,-608,-1.67896,0.994629,0,0,0,0,0,0,0,-1,1126,1632,-1.67895,-0.994599
-91,-608,-2.99451,0.744629,0,0,0,0,0,0,0,-1,1133,1632,-2.99453,-0.744605
-84,-608,0,0,0,0,0,0,0,0,0,-1,1140,1632,0,0
-77,-608,0,0,0,0,0,0,0,0,0,-1,1147,1632,0,0
-70,-608,0,0,0,0,0,0,0,0,0,-1,1154,1632,0,0
-63,-608,0,0,0,0,0,0,0,0,0,-1,1161,1632,0,0
-56,-608,0,0,0,0,0,0,0,0,0,-1,1168,1632,0,0
-49,-608,0,0,0,0,0,0,0,0,0,-1,1175,1632,0,0
-42,-608,0,0,0,0,0,0,0,0,0,-1,1182,1632,0,0
-35,-608,0,0,0,0,0,0,0,0,0,-1,1189,1632,0,0
-28,-608,0,0,0,0,0,0,0,0,0,-1,1196,1632,0,0
-21,-608,0,0,0,0,0,0,0,0,0,-1,1203,1632,0,0
-14,-608,0,0,0,0,0,0,0,0,0,-1,1210,1632,0,0
-7,-608,0,0,0,0,0,0,0,0,0,-1,1217,1632,0,0
0,-608,0,0,0,0,0,0,0,0,0,-1,1224,1632,0,0
7,-608,0,0,0,0,0,0,0,0,0,-1,1231,1632,0,0
14,-608,0,0,0,0,0,0,0,0,0,-1,1238,1632,0,0
21,-608,0,0,0,0,0,0,0,0,0,-1,1245,1632,0,0
28,-608,0,0,0,0,0,0,0,0,0,-1,1252,1632,0,0
35,-608,0,0,0,0,0,0,0,0,0,-1,1259,1632,0,0
42,-608,0,0,0,0,0,0,0,0,0,-1,1266,1632,0,0
49,-608,0,0,0,0,0,0,0,0,0,-1,1273,1632,0,0
56,-608,0,0,0,0,0,0,0,0,0,-1,1280,1632,0,0
63,-608,0,0,0,0,0,0,0,0,0,-1,1287,1632,0,0
70,-608,0,0,0,0,0,0,0,0,0,-1,1294,1632,0,0
77,-608,0,0,0,0,0,0,0,0,0,-1,1301,1632,0,0
84,-608,0,0,0,0,0,0,0,0,0,-1,1308,1632,0,0
91,-608,0,0,0,0,0,0,0,0,0,-1,1315,1632,0,0
98,-608,0,0,0,0,0,0,0,0,0,-1,1322,1632,0,0
105,-608,0,0,0,0,0,0,0,0,0,-1,1329,1632,0,0
112,-608,0,0,0,0,0,0,0,0,0,-1,1336,1632,0,0
119,-608,0,0,0,0,0,0,0,0,0,-1,1343,1632,0,0
126,-608,0,0,0,0,0,0,0,0,0,-1,1350,1632,0,0
133,-608,0,0,0,0,0,0,0,0,0,-1,1357,1632,0,0
140,-608,0,0,0,0,0,0,0,0,0,-1,1364,1632,0,0
147,-608,0,0,0,0,0,0,0,0,0,-1,1371,1632,0,0
154,-608,0,0,0,0,0,0,0,0,0,-1,1378,1632,0,0
161,-608,0,0,0,0,0,0,0,0,0,-1,1385,1632,0,0
168,-608,0,0,0,0,0,0,0,0,0,-1,1392,1632,0,0
175,-608,0,0,0,0,0,0,0,0,0,-1,1399,1632,0,0
182,-608,0,0,0,0,0,0,0,0,0,-1,1406,1632,0,0
189,-608,0,0,0,0,0,0,0,0,0,-1,1413,1632,0,0
196,-608,0,0,0,0,0,0,0,0,0,-1,1420,1632,0,0
203,-608,0,0,0,0,0,0,0,0,0,-1,1427,1632,0,0
210,-608,5.7157,-0.333008,0,0,0,0,0,0,0,-1,1434,1632,5.71566,0.333004
217,-608,4.49402,-0.831787,0,0,0,0,0,0,0,-1,1441,1632,4.49396,0.831738
224,-608,4.18018,-1.11792,0,0,0,0,0,0,0,-1,1448,1632,4.1802,1.11796
231,-608,0.361816,0.825195,0,0,0,0,0,0,0,-1,1455,1632,0.36185,-0.825226
238,-608,2.85388,-0.28833,0,0,0,0,0,0,0,-1,1462,1632,2.85391,0.288282
245,-608,3.46875,2.8866,0,0,0,0,0,0,0,-1,1469,1632,3.4688,-2.88657
252,-608,5.40015,2.66919,0,0,0,0,0,0,0,-1,1476,1632,5.40021,-2.66923
259,-608,7.33167,2.4519,0,0,0,0,0,0,0,-1,1483,1632,7.33161,-2.4519
266,-608,7.33411,2.43335,0,0,0,0,0,0,0,-1,1490,1632,7.33409,-2.43336
273,-608,5.25952,2.65784,0,0,0,0,0,0,0,-1,1497,1632,5.25958,-2.65785
280,-608,5.24402,2.68738,0,0,0,0,0,0,0,-1,1504,1632,5.24398,-2.6874
287,-608,5.74915,3.70764,0.0668979,-0.0865972,0.0265172,0.0713498,-0.091049,0.166335,0.0939906,0.046898,1511,1632,5.74914,-3.70758
294,-608,6.21948,4.65015,0.0608,-0.0762055,0.0249633,0.0652067,-0.0806123,0.174729,0.0843451,0.0444221,1518,1632,6.21952,-4.65009
301,-608,6.31677,5.4845,0,0,0,0,0,0,0,-1,1525,1632,6.31676,-5.48454
308,-608,7.01367,6.58228,0.0515692,-0.0561789,0.0196187,0.0550302,-0.0596399,0.174616,0.0662226,0.0465322,1532,1632,7.01371,-6.58225
315,-608,8.08704,6.16211,0,0,0,0,0,0,0,-1,1539,1632,8.08705,-6.16206
322,-608,2.81848,8.81836,0,0,0,0,0,0,0,-1,1546,1632,2.81845,-8.81841
329,-608,3.28662,8.61267,0,0,0,0,0,0,0,-1,1553,1632,3.28656,-8.61269
336,-608,3.73499,5.73047,0,0,0,0,0,0,0,-1,1560,1632,3.73502,-5.73043
343,-608,5.47192,5.61047,0,0,0,0,0,0,0,-1,1567,1632,5.47192,-5.61045
350,-608,11.6957,1.71387,0,0,0,0,0,0,0,-1,1574,1632,11.6957,-1.71388
357,-608,3.77002,5.10046,0,0,0,0,0,0,0,-1,1581,1632,3.77002,-5.10043
364,-608,4.57458,7.72571,0,0,0,0,0,0,0,-1,1588,1632,4.5746,-7.72569
371,-608,4.54834,7.58691,0.0104184,-0.00313534,-0.00608509,0.0127495,-0.0054664,-0.365832,0.0107935,0.0421233,1595,1632,4.54829,-7.5869
378,-608,4.60437,7.46716,0.00780798,-0.0042192,-0.0028792,0.00846171,-0.00487292,-0.223265,0.00779114,0.0349424,1602,1632,4.60438,-7.46714
385,-608,4.68921,7.32288,0.00586714,-0.00581609,-0.000751647,0.0059153,-0.00586424,-0.0639841,0.00680094,0.0318869,1609,1632,4.68922,-7.32284
392,-608,4.64697,7.21094,0.00502858,-0.0061057,-0.000155673,0.00503076,-0.00610788,-0.0139777,0.00644091,0.0201154,1616,1632,4.64696,-7.21098
399,-608,4.672,7.16882,0.00428219,-0.00605801,0.000100078,0.00428316,-0.00605898,0.00967737,0.0060003,0.0101155,1623,1632,4.67202,-7.16881
406,-608,4.69165,7.10474,0.00357823,-0.00576618,0.000264202,0.0035857,-0.00577364,0.0282437,0.00545261,0.00871901,1630,1632,4.69165,-7.10475
413,-608,4.68066,7.01196,0.00290817,-0.00539318,0.000453012,0.00293281,-0.00541783,0.0543558,0.00489189,0.00905416,1637,1632,4.68072,-7.01194
420,-608,4.63757,6.92432,0.00227368,-0.00488381,0.000608386,0.00232503,-0.00493516,0.084195,0.00428101,0.0167563,1644,1632,4.63754,-6.9243
427,-608,4.67957,6.82043,0.00164731,-0.00444961,0.000806713,0.00175224,-0.00455454,0.12935,0.00375913,0.0198752,1651,1632,4.67955,-6.82043
434,-608,4.70752,6.71802,0.00104411,-0.00382372,0.00088025,0.00119839,-0.00397801,0.173512,0.00312893,0.0155188,1658,1632,4.7075,-6.71803
441,-608,4.69702,6.6394,0.000575816,-0.00311615,0.000826677,0.000752467,-0.0032928,0.210522,0.0024843,0.0132914,1665,1632,4.69697,-6.63943
448,-608,4.70117,6.54346,0.00022318,-0.00243265,0.000686838,0.000390291,-0.00259976,0.238668,0.00187685,0.0147607,1672,1632,4.70118,-6.54341
455,-608,4.7207,6.42822,-0.000179009,-0.00185063,0.00056743,-4.59375e-06,-0.00202505,0.298211,0.0013485,0.0107938,1679,1632,4.72066,-6.42825
462,-608,4.71301,6.33557,-0.000327062,-0.00133882,0.000333191,-0.000227194,-0.00143869,0.291212,0.000893079,0.00966069,1686,1632,4.71307,-6.33557
469,-608,4.69446,6.2572,-0.000316926,-0.000988578,0.000104197,-0.000301132,-0.00100437,0.150426,0.000595163,0.00757509,1693,1632,4.69441,-6.25725
476,-608,4.69385,6.15588,-0.00025387,-0.000775369,-0.000128428,-0.000223958,-0.000805281,-0.228828,0.000479947,0.00829292,1700,1632,4.69389,-6.15589
483,-608,4.69507,6.05249,4.251e-05,-0.000747424,-0.00029837,0.000142541,-0.000847455,-0.323483,0.000617988,0.00853287,1707,1632,4.6951,-6.05254
490,-608,4.70227,5.95374,0.00143989,0.000165648,-0.000883978,0.00189242,-0.000286882,-0.473142,0.00136731,0.00879761,1714,1632,4.70231,-5.95376
497,-608,4.69458,5.85156,0.0039722,0.00231172,-0.00161028,0.00495367,0.00133025,-0.547378,0.00296039,0.0110929,1721,1632,4.69456,-5.85161
504,-608,4.64624,5.7019,0.00655484,0.00447794,-0.00240696,0.00813781,0.00289498,-0.581743,0.0047631,0.0222504,1728,1632,4.64624,-5.70192
511,-608,4.70483,5.53662,0.0105926,0.00949058,-0.00715295,0.0172157,0.00286744,-0.746958,0.0106508,0.0376905,1735,1632,4.70487,-5.53656
518,-608,4.75366,5.43506,0,0,0,0,0,0,0,-1,1742,1632,4.75361,-5.43507
525,-608,4.63538,5.44421,0,0,0,0,0,0,0,-1,1749,1632,4.63539,-5.44427
532,-608,4.64148,5.13135,0,0,0,0,0,0,0,-1,1756,1632,4.64146,-5.13137
539,-608,6.63428,2.59375,0.0295178,0.0526917,-0.0506951,0.0931071,-0.0108977,-0.897749,0.0660045,0.044737,1763,1632,6.63424,-2.59374
546,-608,7.11792,3.65906,0.0342818,0.0674007,-0.0665597,0.11943,-0.0177474,-0.907318,0.0861473,0.0427115,1770,1632,7.11788,-3.65903
553,-608,8.08191,4.31921,0,0,0,0,0,0,0,-1,1777,1632,8.08196,-4.31918
560,-608,9.23999,4.5636,0,0,0,0,0,0,0,-1,1784,1632,9.24,-4.56354
567,-608,0,0,0,0,0,0,0,0,0,-1,1791,1632,0,0
574,-608,0,0,0,0,0,0,0,0,0,-1,1798,1632,0,0
581,-608,0,0,0,0,0,0,0,0,0,-1,1805,1632,0,0
588,-608,0,0,0,0,0,0,0,0,0,-1,1812,1632,0,0
595,-608,0,0,0,0,0,0,0,0,0,-1,1819,1632,0,0
602,-608,0,0,0,0,0,0,0,0,0,-1,1826,1632,0,0
609,-608,0,0,0,0,0,0,0,0,0,-1,1833,1632,0,0
616,-608,0,0,0,0,0,0,0,0,0,-1,1840,1632,0,0
623,-608,0,0,0,0,0,0,0,0,0,-1,1847,1632,0,0
630,-608,0,0,0,0,0,0,0,0,0,-1,1854,1632,0,0
637,-608,0,0,0,0,0,0,0,0,0,-1,1861,1632,0,0
644,-608,0,0,0,0,0,0,0,0,0,-1,1868,1632,0,0
651,-608,0,0,0,0,0,0,0,0,0,-1,1875,1632,0,0
658,-608,0,0,0,0,0,0,0,0,0,-1,1882,1632,0,0
665,-608,0,0,0,0,0,0,0,0,0,-1,1889,1632,0,0
672,-608,0,0,0,0,0,0,0,0,0,-1,1896,1632,0,0
679,-608,0,0,0,0,0,0,0,0,0,-1,1903,1632,0,0
686,-608,0,0,0,0,0,0,0,0,0,-1,1910,1632,0,0
693,-608,0,0,0,0,0,0,0,0,0,-1,1917,1632,0,0
700,-608,0,0,0,0,0,0,0,0,0,-1,1924,1632,0,0
707,-608,0,0,0,0,0,0,0,0,0,-1,1931,1632,0,0
714,-608,0,0,0,0,0,0,0,0,0,-1,1938,1632,0,0
721,-608,0,0,0,0,0,0,0,0,0,-1,1945,1632,0,0
728,-608,0,0,0,0,0,0,0,0,0,-1,1952,1632,0,0
735,-608,0,0,0,0,0,0,0,0,0,-1,1959,1632,0,0
742,-608,0,0,0,0,0,0,0,0,0,-1,1966,1632,0,0
749,-608,0,0,0,0,0,0,0,0,0,-1,1973,1632,0,0
756,-608,0,0,0,0,0,0,0,0,0,-1,1980,1632,0,0
763,-608,0,0,0,0,0,0,0,0,0,-1,1987,1632,0,0
770,-608,0,0,0,0,0,0,0,0,0,-1,1994,1632,0,0
777,-608,0,0,0,0,0,0,0,0,0,-1,2001,1632,0,0
784,-608,0,0,0,0,0,0,0,0,0,-1,2008,1632,0,0
791,-608,0,0,0,0,0,0,0,0,0,-1,2015,1632,0,0
798,-608,0,0,0,0,0,0,0,0,0,-1,2022,1632,0,0
805,-608,0,0,0,0,0,0,0,0,0,-1,2029,1632,0,0
812,-608,0,0,0,0,0,0,0,0,0,-1,2036,1632,0,0
-700,-615,0,0,0,0,0,0,0,0,0,-1,524,1639,0,0
-693,-615,0,0,0,0,0,0,0,0,0,-1,531,1639,0,0
-686,-615,0,0,0,0,0,0,0,0,0,-1,538,1639,0,0
-679,-615,0,0,0,0,0,0,0,0,0,-1,545,1639,0,0
-672,-615,0,0,0,0,0,0,0,0,0,-1,552,1639,0,0
-665,-615,0,0,0,0,0,0,0,0,0,-1,559,1639,0,0
-658,-615,0,0,0,0,0,0,0,0,0,-1,566,1639,0,0
-651,-615,0,0,0,0,0,0,0,0,0,-1,573,1639,0,0
-644,-615,0,0,0,0,0,0,0,0,0,-1,580,1639,0,0
-637,-615,0,0,0,0,0,0,0,0,0,-1,587,1639,0,0
-630,-615,0,0,0,0,0,0,0,0,0,-1,594,1639,0,0
-623,-615,0,0,0,0,0,0,0,0,0,-1,601,1639,0,0
-616,-615,0,0,0,0,0,0,0,0,0,-1,608,1639,0,0
-609,-615,0,0,0,0,0,0,0,0,0,-1,615,1639,0,0
-602,-615,0,0,0,0,0,0,0,0,0,-1,622,1639,0,0
-595,-615,0,0,0,0,0,0,0,0,0,-1,629,1639,0,0
-588,-615,0,0,0,0,0,0,0,0,0,-1,636,1639,0,0
-581,-615,0,0,0,0,0,0,0,0,0,-1,643,1639,0,0
-574,-615,0,0,0,0,0,0,0,0,0,-1,650,1639,0,0
-567,-615,0,0,0,0,0,0,0,0,0,-1,657,1639,0,0
-560,-615,0,0,0,0,0,0,0,0,0,-1,664,1639,0,0
-553,-615,0,0,0,0,0,0,0,0,0,-1,671,1639,0,0
-546,-615,0,0,0,0,0,0,0,0,0,-1,678,1639,0,0
-539,-615,0,0,0,0,0,0,0,0,0,-1,685,1639,0,0
-532,-615,0,0,0,0,0,0,0,0,0,-1,692,1639,0,0
-525,-615,0,0,0,0,0,0,0,0,0,-1,699,1639,0,0
-518,-615,0,0,0,0,0,0,0,0,0,-1,706,1639,0,0
-511,-615,0,0,0,0,0,0,0,0,0,-1,713,1639,0,0
-504,-615,0,0,0,0,0,0,0,0,0,-1,720,1639,0,0
-497,-615,0,0,0,0,0,0,0,0,0,-1,727,1639,0,0
-490,-615,0,0,0,0,0,0,0,0,0,-1,734,1639,0,0
-483,-615,0,0,0,0,0,0,0,0,0,-1,741,1639,0,0
-476,-615,0,0,0,0,0,0,0,0,0,-1,748,1639,0,0
-469,-615,0,0,0,0,0,0,0,0,0,-1,755,1639,0,0
-462,-615,0,0,0,0,0,0,0,0,0,-1,762,1639,0,0
-455,-615,0,0,0,0,0,0,0,0,0,-1,769,1639,0,0
-448,-615,0,0,0,0,0,0,0,0,0,-1,776,1639,0,0
-441,-615,0,0,0,0,0,0,0,0,0,-1,783,1639,0,0
-434,-615,-4.9585,3.79993,0.111066,0.0592402,-0.0107818,0.11322,0.0570867,-0.197144,0.0653682,0.0458355,790,1639,-4.95849,-3.79989
-427,-615,-4.50018,4.18628,0.10916,0.0602725,-0.0149878,0.113389,0.0560434,-0.275017,0.0654668,0.0454293,797,1639,-4.5002,-4.18624
-420,-615,-4.99329,4.70837,0,0,0,0,0,0,0,-1,804,1639,-4.99329,-4.70836
-413,-615,-4.00134,4.70789,0.0912911,0.0515272,-0.0175261,0.097913,0.0449052,-0.361252,0.0565946,0.047518,811,1639,-4.00135,-4.70792
-406,-615,-2.94281,4.84912,0.079615,0.0451245,-0.0170869,0.0866465,0.038093,-0.390392,0.0501467,0.0453548,818,1639,-2.9428,-4.84915
-399,-615,-1.96851,4.95105,0.0668722,0.0366844,-0.0155979,0.0734836,0.030073,-0.40091,0.0426581,0.043518,825,1639,-1.96853,-4.9511
-392,-615,-1.05237,5.12061,0,0,0,0,0,0,0,-1,832,1639,-1.05239,-5.12066
-385,-615,0.141541,4.97034,0,0,0,0,0,0,0,-1,839,1639,0.141547,-4.97037
-378,-615,2.73212,5.41309,0,0,0,0,0,0,0,-1,846,1639,2.7321,-5.41311
-371,-615,2.58667,4.98889,0.0204751,0.00661348,-0.00863163,0.0246141,0.00247446,-0.447128,0.0156499,0.0467446,853,1639,2.58666,-4.98893
-364,-615,2.35956,5.1543,0.0122317,0.00145192,-0.00634247,0.0151652,-0.00148152,-0.433206,0.0106384,0.0310339,860,1639,2.35958,-5.15428
-357,-615,2.29028,5.33362,0.00469014,-0.00289458,-0.00444926,0.00674397,-0.00494841,-0.432468,0.00677708,0.0249329,867,1639,2.29031,-5.33367
-350,-615,2.24414,5.39563,0.000358613,-0.00562054,-0.0027836,0.00145388,-0.00671581,-0.374867,0.00503233,0.0222654,874,1639,2.24417,-5.39557
-343,-615,2.24866,5.51965,-0.00160543,-0.0065496,-0.00160853,-0.00112818,-0.00702684,-0.288425,0.00435746,0.0172961,881,1639,2.24869,-5.51966
-336,-615,2.28345,5.62488,-0.000388956,-0.00540136,-0.00122446,-0.000105829,-0.00568449,-0.227232,0.00375488,0.00938921,888,1639,2.28347,-5.6249
-329,-615,2.2757,5.73083,0.000265213,-0.00410639,-0.000938371,0.000458123,-0.0042993,-0.202755,0.00303047,0.00961934,895,1639,2.27572,-5.73089
-322,-615,2.27283,5.85266,0.000584775,-0.00300003,-0.000597589,0.000681769,-0.00309702,-0.160906,0.00232549,0.00970115,902,1639,2.27281,-5.85267
-315,-615,2.29327,5.98425,0.00087726,-0.00212067,-0.000484175,0.000953516,-0.00219693,-0.156214,0.00186554,0.010507,909,1639,2.29326,-5.9842
-308,-615,2.28491,6.06714,0.00094917,-0.00178249,-0.000606218,0.00107766,-0.00191098,-0.208862,0.00174771,0.0166389,916,1639,2.28491,-6.0672
-301,-615,2.29309,6.15381,0.000937681,-0.00187538,-0.00098977,0.00125103,-0.00218872,-0.306601,0.00201039,0.0125295,923,1639,2.29308,-6.15387
-294,-615,2.30127,6.25928,0.00106216,-0.00193839,-0.00133396,0.00156944,-0.00244567,-0.363393,0.00233646,0.0103288,930,1639,2.3013,-6.25924
-287,-615,2.28137,6.3656,0.00140989,-0.00232178,-0.0015823,0.00199049,-0.00290237,-0.351678,0.0028412,0.00835394,937,1639,2.28136,-6.36555
-280,-615,2.2876,6.45081,0.00171275,-0.0031318,-0.00204671,0.00246167,-0.00388071,-0.350779,0.0036922,0.00867074,944,1639,2.28762,-6.45087
-273,-615,2.28412,6.55945,0.00214775,-0.00428873,-0.00262123,0.00308016,-0.00522114,-0.341758,0.0048456,0.00909622,951,1639,2.28414,-6.55939
-266,-615,2.28571,6.66797,0.00270022,-0.00553898,-0.00306895,0.0037177,-0.00655646,-0.320135,0.00600679,0.00942072,958,1639,2.28569,-6.66795
-259,-615,2.29846,6.74646,0.00329842,-0.00688472,-0.00337462,0.00431521,-0.00790152,-0.292656,0.00715392,0.0105015,965,1639,2.29844,-6.74647
-252,-615,2.30634,6.82141,0.00400851,-0.00836145,-0.0036136,0.00498677,-0.00933972,-0.26438,0.00839771,0.0119326,972,1639,2.30636,-6.82138
-245,-615,2.29297,6.91479,0.00473284,-0.00982363,-0.00370621,0.00562214,-0.0107129,-0.235497,0.00958251,0.0179844,979,1639,2.29298,-6.91482
-238,-615,2.3819,6.95032,0.00534646,-0.0111363,-0.00364469,0.00611641,-0.0119062,-0.208193,0.0105828,0.0259902,986,1639,2.3819,-6.95038
-231,-615,2.37183,6.95166,0.00586804,-0.0116848,-0.0038612,0.00667986,-0.0124967,-0.207233,0.0112401,0.0347835,993,1639,2.37182,-6.9517
-224,-615,2.31104,6.84033,0.00602802,-0.0128302,-0.00386802,0.00679055,-0.0135928,-0.194643,0.0119848,0.0464124,1000,1639,2.31107,-6.84032
-217,-615,2.54126,7.08557,0,0,0,0,0,0,0,-1,1007,1639,2.54125,-7.08556
-210,-615,2.47369,7.40613,0,0,0,0,0,0,0,-1,1014,1639,2.47367,-7.40614
-203,-615,2.49121,6.43909,0,0,0,0,0,0,0,-1,1021,1639,2.49124,-6.43905
-196,-615,2.58008,7.58777,0,0,0,0,0,0,0,-1,1028,1639,2.58003,-7.58779
-189,-615,2.17603,6.63928,0,0,0,0,0,0,0,-1,1035,1639,2.17608,-6.63928
-182,-615,1.19434,6.39087,0,0,0,0,0,0,0,-1,1042,1639,1.19432,-6.39091
-175,-615,1.16138,6.41785,0,0,0,0,0,0,0,-1,1049,1639,1.16141,-6.41786
-168,-615,2.8761,7.4137,0,0,0,0,0,0,0,-1,1056,1639,2.87605,-7.41368
-161,-615,1.19141,6.42627,0,0,0,0,0,0,0,-1,1063,1639,1.19137,-6.42623
-154,-615,2.20728,4.66467,0,0,0,0,0,0,0,-1,1070,1639,2.20732,-4.66462
-147,-615,1.86023,4.82703,0,0,0,0,0,0,0,-1,1077,1639,1.86023,-4.82703
-140,-615,1.42114,7.73035,0,0,0,0,0,0,0,-1,1084,1639,1.42115,-7.73033
-133,-615,1.3938,8.47729,0,0,0,0,0,0,0,-1,1091,1639,1.3938,-8.47732
-126,-615,1.36646,9.22437,0,0,0,0,0,0,0,-1,1098,1639,1.36646,-9.22432
-119,-615,1.24451,9.09119,0,0,0,0,0,0,0,-1,1105,1639,1.2445,-9.09116
-112,-615,2.45886,2.97559,0,0,0,0,0,0,0,-1,1112,1639,2.45883,-2.97564
-105,-615,0.958496,2.45398,0,0,0,0,0,0,0,-1,1119,1639,0.958452,-2.45398
-98,-615,-0.647705,2.12109,0,0,0,0,0,0,0,-1,1126,1639,-0.647756,-2.12105
-91,-615,-1.48572,0.604492,0,0,0,0,0,0,0,-1,1133,1639,-1.48576,-0.604443
-84,-615,-2.46509,0.703247,0,0,0,0,0,0,0,-1,1140,1639,-2.46505,-0.703273
-77,-615,-3.17859,1.23755,0,0,0,0,0,0,0,-1,1147,1639,-3.17865,-1.23752
-70,-615,-4.03943,1.43335,0,0,0,0,0,0,0,-1,1154,1639,-4.03942,-1.43339
-63,-615,-4.8877,1.45544,0,0,0,0,0,0,0,-1,1161,1639,-4.88766,-1.45549
-56,-615,0,0,0,0,0,0,0,0,0,-1,1168,1639,0,0
-49,-615,0,0,0,0,0,0,0,0,0,-1,1175,1639,0,0
-42,-615,0,0,0,0,0,0,0,0,0,-1,1182,1639,0,0
-35,-615,0,0,0,0,0,0,0,0,0,-1,1189,1639,0,0
-28,-615,0,0,0,0,0,0,0,0,0,-1,1196,1639,0,0
-21,-615,0,0,0,0,0,0,0,0,0,-1,1203,1639,0,0
-14,-615,0,0,0,0,0,0,0,0,0,-1,1210,1639,0,0
-7,-615,0,0,0,0,0,0,0,0,0,-1,1217,1639,0,0
0,-615,0,0,0,0,0,0,0,0,0,-1,1224,1639,0,0
7,-615,0,0,0,0,0,0,0,0,0,-1,1231,1639,0,0
14,-615,0,0,0,0,0,0,0,0,0,-1,1238,1639,0,0
21,-615,0,0,0,0,0,0,0,0,0,-1,1245,1639,0,0
28,-615,0,0,0,0,0,0,0,0,0,-1,1252,1639,0,0
35,-615,0,0,0,0,0,0,0,0,0,-1,1259,1639,0,0
42,-615,0,0,0,0,0,0,0,0,0,-1,1266,1639,0,0
49,-615,0,0,0,0,0,0,0,0,0,-1,1273,1639,0,0
56,-615,0,0,0,0,0,0,0,0,0,-1,1280,1639,0,0
63,-615,0,0,0,0,0,0,0,0,0,-1,1287,1639,0,0
70,-615,0,0,0,0,0,0,0,0,0,-1,1294,1639,0,0
77,-615,0,0,0,0,0,0,0,0,0,-1,1301,1639,0,0
84,-615,0,0,0,0,0,0,0,0,0,-1,1308,1639,0,0
91,-615,0,0,0,0,0,0,0,0,0,-1,1315,1639,0,0
98,-615,0,0,0,0,0,0,0,0,0,-1,1322,1639,0,0
105,-615,0,0,0,0,0,0,0,0,0,-1,1329,1639,0,0
112,-615,0,0,0,0,0,0,0,0,0,-1,1336,1639,0,0
119,-615,0,0,0,0,0,0,0,0,0,-1,1343,1639,0,0
126,-615,0,0,0,0,0,0,0,0,0,-1,1350,1639,0,0
133,-615,0,0,0,0,0,0,0,0,0,-1,1357,1639,0,0
140,-615,0,0,0,0,0,0,0,0,0,-1,1364,1639,0,0
147,-615,0,0,0,0,0,0,0,0,0,-1,1371,1639,0,0
154,-615,0,0,0,0,0,0,0,0,0,-1,1378,1639,0,0
161,-615,0,0,0,0,0,0,0,0,0,-1,1385,1639,0,0
168,-615,0,0,0,0,0,0,0,0,0,-1,1392,1639,0,0
175,-615,5.39648,-2.00879,0,0,0,0,0,0,0,-1,1399,1639,5.3965,2.00881
182,-615,5.65393,-1.51025,0,0,0,0,0,0,0,-1,1406,1639,5.65388,1.51028
189,-615,5.58972,-1.35608,0,0,0,0,0,0,0,-1,1413,1639,5.58967,1.35607
196,-615,5.49915,-0.693604,0,0,0,0,0,0,0,-1,1420,1639,5.4991,0.693602
203,-615,5.33411,-0.226685,0,0,0,0,0,0,0,-1,1427,1639,5.33414,0.226689
210,-615,5.60278,0.108276,0,0,0,0,0,0,0,-1,1434,1639,5.60284,-0.10831
217,-615,6.26331,-0.307373,0,0,0,0,0,0,0,-1,1441,1639,6.26331,0.307372
224,-615,5.45422,-0.333984,0,0,0,0,0,0,0,-1,1448,1639,5.45422,0.333992
231,-615,4.92542,1.80298,0,0,0,0,0,0,0,-1,1455,1639,4.92537,-1.80297
238,-615,4.76355,1.96729,0,0,0,0,0,0,0,-1,1462,1639,4.76357,-1.96734
245,-615,4.08643,3.15906,0,0,0,0,0,0,0,-1,1469,1639,4.08638,-3.159
252,-615,6.02551,2.94275,0,0,0,0,0,0,0,-1,1476,1639,6.02556,-2.94281
259,-615,7.93738,2.71204,0,0,0,0,0,0,0,-1,1483,1639,7.93734,-2.71203
266,-615,4.49744,2.52905,0,0,0,0,0,0,0,-1,1490,1639,4.49748,-2.52906
273,-615,5.81738,3.3407,0,0,0,0,0,0,0,-1,1497,1639,5.81738,-3.34072
280,-615,6.48694,4.22827,0,0,0,0,0,0,0,-1,1504,1639,6.48695,-4.22824
287,-615,6.26807,4.58826,0,0,0,0,0,0,0,-1,1511,1639,6.26805,-4.58824
294,-615,6.68994,5.66199,0.0530692,-0.067946,0.0174152,0.0555256,-0.0704024,0.140122,0.0728735,0.0418687,1518,1639,6.6899,-5.66204
301,-615,7.05627,6.78674,0.0487983,-0.0596085,0.0150575,0.0508509,-0.061661,0.135482,0.0650586,0.0466549,1525,1639,7.05625,-6.7867
308,-615,7.56982,7.44385,0.0450373,-0.0515374,0.012411,0.0466067,-0.0531069,0.12579,0.0576104,0.0461629,1532,1639,7.56981,-7.44383
315,-615,2.71875,9.28064,0,0,0,0,0,0,0,-1,1539,1639,2.71876,-9.28069
322,-615,3.14624,8.82349,0.0372272,-0.0366317,0.00697354,0.0378799,-0.0372844,0.0933181,0.0433966,0.0455688,1546,1639,3.14621,-8.82349
329,-615,3.48914,8.49475,0.0326583,-0.0298147,0.0045379,0.0329862,-0.0301426,0.0721332,0.0364597,0.0473719,1553,1639,3.48918,-8.49478
336,-615,3.57813,8.04712,0,0,0,0,0,0,0,-1,1560,1639,3.57807,-8.04709
343,-615,2.40491,6.50134,0,0,0,0,0,0,0,-1,1567,1639,2.40489,-6.50137
350,-615,4.55029,7.42358,0,0,0,0,0,0,0,-1,1574,1639,4.55029,-7.42362
357,-615,4.5426,7.5658,0,0,0,0,0,0,0,-1,1581,1639,4.54262,-7.56576
364,-615,4.55957,7.46814,0,0,0,0,0,0,0,-1,1588,1639,4.55959,-7.46811
371,-615,4.57495,7.49109,0.00770141,-0.00232646,-0.0046003,0.00949206,-0.00411711,-0.371201,0.00805894,0.0369495,1595,1639,4.57494,-7.4911
378,-615,4.54944,7.43921,0.00573088,-0.00292606,-0.00213608,0.00622926,-0.00342444,-0.229216,0.00565144,0.0188703,1602,1639,4.54939,-7.43915
385,-615,4.56445,7.32959,0.00425126,-0.00407722,-0.000483944,0.00427929,-0.00410525,-0.0578476,0.00484116,0.0111506,1609,1639,4.56445,-7.3296
392,-615,4.58386,7.25403,0.00365729,-0.00423818,-7.40386e-05,0.00365798,-0.00423887,-0.00937625,0.00456336,0.00983938,1616,1639,4.58385,-7.25406
399,-615,4.58081,7.18835,0.00311531,-0.00409338,9.13948e-05,0.00311647,-0.00409454,0.0126757,0.00417602,0.0108451,1623,1639,4.58083,-7.18835
406,-615,4.57922,7.09949,0.0025744,-0.00384412,0.000184317,0.00257968,-0.00384941,0.028685,0.00373589,0.0107444,1630,1639,4.57918,-7.09951
413,-615,4.58435,7.01331,0.00201553,-0.00359463,0.00030172,0.00203171,-0.00361081,0.0535751,0.00329996,0.0113712,1637,1639,4.58429,-7.01325
420,-615,4.5813,6.91345,0.00144428,-0.00322959,0.000415278,0.00148089,-0.0032662,0.0879333,0.00280459,0.0128529,1644,1639,4.58125,-6.91342
427,-615,4.59937,6.81421,0.000879217,-0.00291182,0.000601601,0.000972395,-0.003005,0.153663,0.00239422,0.0145886,1651,1639,4.59935,-6.81417
434,-615,4.60693,6.73328,0.00032739,-0.00248452,0.000675431,0.000481216,-0.00263835,0.223925,0.00193931,0.0132063,1658,1639,4.60691,-6.73333
441,-615,4.60925,6.64648,-0.000116472,-0.00202329,0.000641882,7.94671e-05,-0.00221923,0.296273,0.00150667,0.0135288,1665,1639,4.60923,-6.64652
448,-615,4.60754,6.55139,-0.00044797,-0.00160629,0.000517898,-0.000250184,-0.00180407,0.364807,0.0011286,0.0145396,1672,1639,4.60753,-6.55139
455,-615,4.61462,6.44519,-0.000809074,-0.00127569,0.000412744,-0.000568262,-0.00151651,0.528154,0.000884669,0.0134256,1679,1639,4.61466,-6.44524
462,-615,4.59741,6.36572,-0.000933335,-0.000998526,0.000216874,-0.000746621,-0.00118524,0.710809,0.000691958,0.0137601,1686,1639,4.59743,-6.36576
469,-615,4.58411,6.27063,-0.000912777,-0.000865492,1.30052e-05,-0.000862151,-0.000916118,1.31935,0.000593575,0.0110182,1693,1639,4.58412,-6.27061
476,-615,4.58838,6.15552,-0.000801897,-0.000858974,-0.000222608,-0.000606005,-0.00105487,-0.721645,0.000611275,0.00979221,1700,1639,4.58834,-6.1555
483,-615,4.604,6.04114,-0.000437537,-0.00112226,-0.000398465,-0.000254556,-0.00130524,-0.430492,0.000798945,0.0138973,1707,1639,4.60398,-6.04108
490,-615,4.62268,5.95032,0.00121385,-0.000138918,-0.00102135,0.00176248,-0.000687547,-0.492931,0.0014592,0.0157619,1714,1639,4.62264,-5.95033
497,-615,4.58521,5.88135,0.00434006,0.00252893,-0.00180073,0.00545011,0.00141889,-0.552421,0.00326489,0.0216702,1721,1639,4.58519,-5.88131
504,-615,4.53076,5.71765,0.00752777,0.00533048,-0.00275938,0.00939918,0.00345908,-0.595944,0.00548927,0.0397252,1728,1639,4.53073,-5.7176
511,-615,4.59302,5.39551,0,0,0,0,0,0,0,-1,1735,1639,4.59297,-5.39554
518,-615,5.64929,4.71936,0,0,0,0,0,0,0,-1,1742,1639,5.64925,-4.71935
525,-615,4.37524,3.90491,0,0,0,0,0,0,0,-1,1749,1639,4.37518,-3.90495
532,-615,7.3645,0.848145,0,0,0,0,0,0,0,-1,1756,1639,7.36451,-0.848093
539,-615,7.97803,1.80054,0,0,0,0,0,0,0,-1,1763,1639,7.97798,-1.80053
546,-615,8.33813,2.94556,0,0,0,0,0,0,0,-1,1770,1639,8.33813,-2.9455
553,-615,5.82532,-2.04199,0,0,0,0,0,0,0,-1,1777,1639,5.82534,2.04195
560,-615,0,0,0,0,0,0,0,0,0,-1,1784,1639,0,0
567,-615,0,0,0,0,0,0,0,0,0,-1,1791,1639,0,0
574,-615,0,0,0,0,0,0,0,0,0,-1,1798,1639,0,0
581,-615,0,0,0,0,0,0,0,0,0,-1,1805,1639,0,0
588,-615,0,0,0,0,0,0,0,0,0,-1,1812,1639,0,0
595,-615,0,0,0,0,0,0,0,0,0,-1,1819,1639,0,0
602,-615,0,0,0,0,0,0,0,0,0,-1,1826,1639,0,0
609,-615,0,0,0,0,0,0,0,0,0,-1,1833,1639,0,0
616,-615,0,0,0,0,0,0,0,0,0,-1,1840,1639,0,0
623,-615,0,0,0,0,0,0,0,0,0,-1,1847,1639,0,0
630,-615,0,0,0,0,0,0,0,0,0,-1,1854,1639,0,0
637,-615,0,0,0,0,0,0,0,0,0,-1,1861,1639,0,0
644,-615,0,0,0,0,0,0,0,0,0,-1,1868,1639,0,0
651,-615,0,0,0,0,0,0,0,0,0,-1,1875,1639,0,0
658,-615,0,0,0,0,0,0,0,0,0,-1,1882,1639,0,0
665,-615,0,0,0,0,0,0,0,0,0,-1,1889,1639,0,0
672,-615,0,0,0,0,0,0,0,0,0,-1,1896,1639,0,0
679,-615,0,0,0,0,0,0,0,0,0,-1,1903,1639,0,0
686,-615,0,0,0,0,0,0,0,0,0,-1,1910,1639,0,0
693,-615,0,0,0,0,0,0,0,0,0,-1,1917,1639,0,0
700,-615,0,0,0,0,0,0,0,0,0,-1,1924,1639,0,0
707,-615,0,0,0,0,0,0,0,0,0,-1,1931,1639,0,0
714,-615,0,0,0,0,0,0,0,0,0,-1,1938,1639,0,0
721,-615,0,0,0,0,0,0,0,0,0,-1,1945,1639,0,0
728,-615,0,0,0,0,0,0,0,0,0,-1,1952,1639,0,0
735,-615,0,0,0,0,0,0,0,0,0,-1,1959,1639,0,0
742,-615,0,0,0,0,0,0,0,0,0,-1,1966,1639,0,0
749,-615,0,0,0,0,0,0,0,0,0,-1,1973,1639,0,0
756,-615,0,0,0,0,0,0,0,0,0,-1,1980,1639,0,0
763,-615,0,0,0,0,0,0,0,0,0,-1,1987,1639,0,0
770,-615,0,0,0,0,0,0,0,0,0,-1,1994,1639,0,0
777,-615,0,0,0,0,0,0,0,0,0,-1,2001,1639,0,0
784,-615,0,0,0,0,0,0,0,0,0,-1,2008,1639,0,0
791,-615,0,0,0,0,0,0,0,0,0,-1,2015,1639,0,0
798,-615,0,0,0,0,0,0,0,0,0,-1,2022,1639,0,0
805,-615,0,0,0,0,0,0,0,0,0,-1,2029,1639,0,0
812,-615,0,0,0,0,0,0,0,0,0,-1,2036,1639,0,0
-700,-622,0,0,0,0,0,0,0,0,0,-1,524,1646,0,0
-693,-622,0,0,0,0,0,0,0,0,0,-1,531,1646,0,0
-686,-622,0,0,0,0,0,0,0,0,0,-1,538,1646,0,0
-679,-622,0,0,0,0,0,0,0,0,0,-1,545,1646,0,0
-672,-622,0,0,0,0,0,0,0,0,0,-1,552,1646,0,0
-665,-622,0,0,0,0,0,0,0,0,0,-1,559,1646,0,0
-658,-622,0,0,0,0,0,0,0,0,0,-1,566,1646,0,0
-651,-622,0,0,0,0,0,0,0,0,0,-1,573,1646,0,0
-644,-622,0,0,0,0,0,0,0,0,0,-1,580,1646,0,0
-637,-622,0,0,0,0,0,0,0,0,0,-1,587,1646,0,0
-630,-622,0,0,0,0,0,0,0,0,0,-1,594,1646,0,0
-623,-622,0,0,0,0,0,0,0,0,0,-1,601,1646,0,0
-616,-622,0,0,0,0,0,0,0,0,0,-1,608,1646,0,0
-609,-622,0,0,0,0,0,0,0,0,0,-1,615,1646,0,0
-602,-622,0,0,0,0,0,0,0,0,0,-1,622,1646,0,0
-595,-622,0,0,0,0,0,0,0,0,0,-1,629,1646,0,0
-588,-622,0,0,0,0,0,0,0,0,0,-1,636,1646,0,0
-581,-622,0,0,0,0,0,0,0,0,0,-1,643,1646,0,0
-574,-622,0,0,0,0,0,0,0,0,0,-1,650,1646,0,0
-567,-622,0,0,0,0,0,0,0,0,0,-1,657,1646,0,0
-560,-622,0,0,0,0,0,0,0,0,0,-1,664,1646,0,0
-553,-622,0,0,0,0,0,0,0,0,0,-1,671,1646,0,0
-546,-622,0,0,0,0,0,0,0,0,0,-1,678,1646,0,0
-539,-622,0,0,0,0,0,0,0,0,0,-1,685,1646,0,0
-532,-622,0,0,0,0,0,0,0,0,0,-1,692,1646,0,0
-525,-622,0,0,0,0,0,0,0,0,0,-1,699,1646,0,0
-518,-622,0,0,0,0,0,0,0,0,0,-1,706,1646,0,0
-511,-622,0,0,0,0,0,0,0,0,0,-1,713,1646,0,0
-504,-622,0,0,0,0,0,0,0,0,0,-1,720,1646,0,0
-497,-622,0,0,0,0,0,0,0,0,0,-1,727,1646,0,0
-490,-622,0,0,0,0,0,0,0,0,0,-1,734,1646,0,0
-483,-622,0,0,0,0,0,0,0,0,0,-1,741,1646,0,0
-476,-622,0,0,0,0,0,0,0,0,0,-1,748,1646,0,0
-469,-622,0,0,0,0,0,0,0,0,0,-1,755,1646,0,0
-462,-622,0,0,0,0,0,0,0,0,0,-1,762,1646,0,0
-455,-622,0,0,0,0,0,0,0,0,0,-1,769,1646,0,0
-448,-622,0,0,0,0,0,0,0,0,0,-1,776,1646,0,0
-441,-622,0,0,0,0,0,0,0,0,0,-1,783,1646,0,0
-434,-622,0,0,0,0,0,0,0,0,0,-1,790,1646,0,0
-427,-622,-5.52783,3.90771,0,0,0,0,0,0,0,-1,797,1646,-5.52784,-3.90776
-420,-622,-4.43213,4.04236,0,0,0,0,0,0,0,-1,804,1646,-4.43215,-4.04234
-413,-622,-3.37732,4.17188,0.110159,0.0599396,-0.0226899,0.118892,0.0512067,-0.367407,0.0688619,0.0487636,811,1646,-3.37733,-4.17186
-406,-622,-2.349,4.33167,0.0969098,0.0527603,-0.0216662,0.105766,0.0439042,-0.38803,0.0613567,0.046833,818,1646,-2.34897,-4.3317
-399,-622,-1.48993,4.43921,0.0823267,0.042659,-0.0194412,0.0902659,0.0347198,-0.3877,0.0525754,0.0444067,825,1646,-1.48994,-4.43916
-392,-622,-0.653381,4.5719,0,0,0,0,0,0,0,-1,832,1646,-0.653404,-4.57186
-385,-622,0.285889,4.52197,0,0,0,0,0,0,0,-1,839,1646,0.285901,-4.52193
-378,-622,2.77972,4.69421,0,0,0,0,0,0,0,-1,846,1646,2.7797,-4.69416
-371,-622,2.64709,5.01526,0.0279537,0.00778853,-0.0108349,0.0326716,0.00307062,-0.410675,0.0208331,0.0491264,853,1646,2.64708,-5.01524
-364,-622,2.4649,5.21814,0.0175055,0.00160455,-0.00804257,0.020864,-0.00175396,-0.395579,0.0145293,0.0421287,860,1646,2.46489,-5.21816
-357,-622,2.45972,5.38892,0.00772332,-0.00376335,-0.00570645,0.0100762,-0.00611627,-0.391088,0.00944148,0.0406768,867,1646,2.45972,-5.3889
-350,-622,2.48621,5.48022,0.00151613,-0.00740797,-0.00357926,0.0027743,-0.00866615,-0.338027,0.00689094,0.0345103,874,1646,2.48622,-5.48025
-343,-622,2.33386,5.54041,-0.00152689,-0.00859735,-0.00207144,-0.000964721,-0.00915953,-0.265009,0.00581153,0.0231609,881,1646,2.33388,-5.54037
-336,-622,2.3786,5.61194,-0.000290642,-0.00682603,-0.00158647,7.41174e-05,-0.00719079,-0.225991,0.00481875,0.00903895,888,1646,2.37858,-5.61197
-329,-622,2.38379,5.72668,0.00035839,-0.00514986,-0.00112913,0.000580863,-0.00537233,-0.194539,0.00379004,0.00829719,895,1646,2.38377,-5.72668
-322,-622,2.38196,5.84302,0.000639317,-0.00371984,-0.000610031,0.000723077,-0.0038036,-0.136451,0.00280797,0.00949501,902,1646,2.38199,-5.84306
-315,-622,2.38177,5.97046,0.000944082,-0.00253624,-0.000346376,0.00097822,-0.00257038,-0.0982401,0.00211641,0.0127221,909,1646,2.3818,-5.97046
-308,-622,2.38129,6.06519,0.00100221,-0.00197203,-0.000289788,0.00103018,-0.002,-0.0962269,0.00177909,0.0140189,916,1646,2.38131,-6.06523
-301,-622,2.40015,6.14661,0.000946079,-0.00178793,-0.00047386,0.00102588,-0.00186773,-0.166839,0.00169403,0.0132284,923,1646,2.40013,-6.14659
-294,-622,2.39362,6.25378,0.000977741,-0.00159574,-0.000671901,0.0011426,-0.00176061,-0.240614,0.00168878,0.0103387,930,1646,2.39363,-6.25377
-287,-622,2.38501,6.35168,0.00121026,-0.00176532,-0.000795386,0.00140952,-0.00196459,-0.245475,0.00195681,0.00849327,937,1646,2.38502,-6.35171
-280,-622,2.38177,6.44958,0.00143781,-0.00237282,-0.00110039,0.00173274,-0.00266775,-0.261868,0.00255967,0.00842438,944,1646,2.38176,-6.44955
-273,-622,2.39655,6.55579,0.0017941,-0.0032427,-0.00151865,0.00221656,-0.00366516,-0.271319,0.00342997,0.0110859,951,1646,2.39657,-6.55576
-266,-622,2.38971,6.67249,0.00223059,-0.00415124,-0.0018237,0.00271497,-0.00463562,-0.259611,0.00429188,0.0113002,958,1646,2.38971,-6.67252
-259,-622,2.38879,6.78027,0.00266134,-0.00511657,-0.00203421,0.00316124,-0.00561646,-0.240968,0.00513347,0.011301,965,1646,2.38879,-6.78023
-252,-622,2.39935,6.8501,0.00316919,-0.0061401,-0.00218997,0.00365864,-0.00662955,-0.219882,0.00602187,0.0124626,972,1646,2.39934,-6.85014
-245,-622,2.40613,6.94373,0.00366607,-0.00712452,-0.00223009,0.0041088,-0.00756725,-0.195977,0.00683903,0.00951484,979,1646,2.40614,-6.94378
-238,-622,2.4046,7.03296,0.00405828,-0.00795908,-0.00218276,0.00444246,-0.00834326,-0.174223,0.00749548,0.0101531,986,1646,2.40463,-7.03297
-231,-622,2.41193,7.11438,0.00441164,-0.00827392,-0.00234121,0.00482994,-0.00869221,-0.1768,0.00791246,0.0138858,993,1646,2.41193,-7.11443
-224,-622,2.48468,7.18115,0.00442296,-0.00900761,-0.00242856,0.00484861,-0.00943326,-0.173506,0.00838606,0.0210465,1000,1646,2.4847,-7.18115
-217,-622,2.52991,7.21655,0.00406505,-0.00996441,-0.00257532,0.00452284,-0.0104222,-0.175926,0.00884977,0.0323461,1007,1646,2.52989,-7.21657
-210,-622,2.508,7.36096,0.00372305,-0.01016,-0.00258509,0.00418878,-0.0106258,-0.178249,0.00881821,0.0464067,1014,1646,2.50801,-7.36098
-203,-622,2.57086,7.47205,0,0,0,0,0,0,0,-1,1021,1646,2.57087,-7.47203
-196,-622,2.61279,7.55212,0,0,0,0,0,0,0,-1,1028,1646,2.61281,-7.55207
-189,-622,2.53809,7.76013,0,0,0,0,0,0,0,-1,1035,1646,2.53807,-7.76007
-182,-622,2.55554,7.84717,0,0,0,0,0,0,0,-1,1042,1646,2.55551,-7.84721
-175,-622,2.33618,6.6366,0,0,0,0,0,0,0,-1,1049,1646,2.33616,-6.63657
-168,-622,2.48962,7.35767,0,0,0,0,0,0,0,-1,1056,1646,2.48966,-7.3577
-161,-622,2.4231,7.61816,0,0,0,0,0,0,0,-1,1063,1646,2.42305,-7.61811
-154,-622,2.39014,5.44324,0,0,0,0,0,0,0,-1,1070,1646,2.39014,-5.44321
-147,-622,0.962524,8.32581,0,0,0,0,0,0,0,-1,1077,1646,0.962575,-8.32583
-140,-622,1.71863,8.31946,0,0,0,0,0,0,0,-1,1084,1646,1.71865,-8.31944
-133,-622,1.6814,8.64575,0.00405593,-0.0184319,0.00750892,0.00633272,-0.0207087,0.294401,0.0163312,0.0474773,1091,1646,1.68143,-8.64577
-126,-622,1.59497,9.42712,0.00445384,-0.0154879,0.0101299,0.0086968,-0.0197308,0.396655,0.0168198,0.0462248,1098,1646,1.59497,-9.42714
-119,-622,1.59766,10.2031,0,0,0,0,0,0,0,-1,1105,1646,1.59771,-10.2032
-112,-622,2.68347,8.35986,0,0,0,0,0,0,0,-1,1112,1646,2.6835,-8.35987
-105,-622,0.306519,4.38159,0,0,0,0,0,0,0,-1,1119,1646,0.306536,-4.38159
-98,-622,-0.510376,3.5033,0,0,0,0,0,0,0,-1,1126,1646,-0.510393,-3.50324
-91,-622,-1.146,0.975952,0,0,0,0,0,0,0,-1,1133,1646,-1.14599,-0.97597
-84,-622,-2.04895,1.31787,0,0,0,0,0,0,0,-1,1140,1646,-2.0489,-1.31781
-77,-622,-1.80627,0.332275,0,0,0,0,0,0,0,-1,1147,1646,-1.80622,-0.33223
-70,-622,-3.65588,2.28149,0,0,0,0,0,0,0,-1,1154,1646,-3.65589,-2.28155
-63,-622,-2.49683,1.27087,0,0,0,0,0,0,0,-1,1161,1646,-2.49679,-1.27093
-56,-622,-2.44238,-0.575562,0,0,0,0,0,0,0,-1,1168,1646,-2.44242,0.575508
-49,-622,-2.41089,1.38818,0,0,0,0,0,0,0,-1,1175,1646,-2.41088,-1.38815
-42,-622,-2.71497,2.85242,0,0,0,0,0,0,0,-1,1182,1646,-2.71491,-2.85247
-35,-622,-3.0177,4.25842,0,0,0,0,0,0,0,-1,1189,1646,-3.01773,-4.25838
-28,-622,-0.896606,0.678833,0,0,0,0,0,0,0,-1,1196,1646,-0.89661,-0.678835
-21,-622,-4.79333,5.4491,0,0,0,0,0,0,0,-1,1203,1646,-4.7933,-5.44906
-14,-622,-3.59619,4.95007,0,0,0,0,0,0,0,-1,1210,1646,-3.59615,-4.95002
-7,-622,-2.67957,4.60803,0,0,0,0,0,0,0,-1,1217,1646,-2.67958,-4.60805
0,-622,0,0,0,0,0,0,0,0,0,-1,1224,1646,0,0
7,-622,0,0,0,0,0,0,0,0,0,-1,1231,1646,0,0
14,-622,0,0,0,0,0,0,0,0,0,-1,1238,1646,0,0
21,-622,0,0,0,0,0,0,0,0,0,-1,1245,1646,0,0
28,-622,0,0,0,0,0,0,0,0,0,-1,1252,1646,0,0
35,-622,0,0,0,0,0,0,0,0,0,-1,1259,1646,0,0
42,-622,0,0,0,0,0,0,0,0,0,-1,1266,1646,0,0
49,-622,0,0,0,0,0,0,0,0,0,-1,1273,1646,0,0
56,-622,0,0,0,0,0,0,0,0,0,-1,1280,1646,0,0
63,-622,0,0,0,0,0,0,0,0,0,-1,1287,1646,0,0
70,-622,0,0,0,0,0,0,0,0,0,-1,1294,1646,0,0
77,-622,0,0,0,0,0,0,0,0,0,-1,1301,1646,0,0
84,-622,0,0,0,0,0,0,0,0,0,-1,1308,1646,0,0
91,-622,0,0,0,0,0,0,0,0,0,-1,1315,1646,0,0
98,-622,0,0,0,0,0,0,0,0,0,-1,1322,1646,0,0
105,-622,0,0,0,0,0,0,0,0,0,-1,1329,1646,0,0
112,-622,0,0,0,0,0,0,0,0,0,-1,1336,1646,0,0
119,-622,0,0,0,0,0,0,0,0,0,-1,1343,1646,0,0
126,-622,3.75793,-0.327637,0,0,0,0,0,0,0,-1,1350,1646,3.75793,0.327698
133,-622,6.05176,1.33154,0,0,0,0,0,0,0,-1,1357,1646,6.05182,-1.3315
140,-622,5.9823,1.07385,0,0,0,0,0,0,0,-1,1364,1646,5.98229,-1.07381
147,-622,5.91199,0.876099,0,0,0,0,0,0,0,-1,1371,1646,5.91196,-0.876111
154,-622,6.01514,0.752319,0,0,0,0,0,0,0,-1,1378,1646,6.01508,-0.752328
161,-622,8.93274,18.9496,0,0,0,0,0,0,0,-1,1385,1646,8.93269,-18.9496
168,-622,5.35522,-2.3717,0,0,0,0,0,0,0,-1,1392,1646,5.35517,2.37167
175,-622,5.64355,-1.77075,0,0,0,0,0,0,0,-1,1399,1646,5.64351,1.77077
182,-622,5.88586,-1.32251,0,0,0,0,0,0,0,-1,1406,1646,5.88587,1.32256
189,-622,5.97986,-1.18005,0,0,0,0,0,0,0,-1,1413,1646,5.97986,1.18003
196,-622,5.85022,-0.244507,0,0,0,0,0,0,0,-1,1420,1646,5.85026,0.244478
203,-622,5.25159,0.138794,0,0,0,0,0,0,0,-1,1427,1646,5.25162,-0.138822
210,-622,6.66833,0.0397949,0,0,0,0,0,0,0,-1,1434,1646,6.6684,-0.0398278
217,-622,6.12061,0.0506592,0,0,0,0,0,0,0,-1,1441,1646,6.12058,-0.0507181
224,-622,5.57275,0.0616455,0,0,0,0,0,0,0,-1,1448,1646,5.57276,-0.0616084
231,-622,5.31348,1.3949,0,0,0,0,0,0,0,-1,1455,1646,5.31342,-1.39495
238,-622,3.76477,2.90686,0,0,0,0,0,0,0,-1,1462,1646,3.7648,-2.90686
245,-622,5.13794,2.67993,0,0,0,0,0,0,0,-1,1469,1646,5.13796,-2.67992
252,-622,6.66528,2.53992,0,0,0,0,0,0,0,-1,1476,1646,6.66522,-2.53991
259,-622,8.24048,2.28357,0,0,0,0,0,0,0,-1,1483,1646,8.24053,-2.28358
266,-622,6.12292,3.23999,0,0,0,0,0,0,0,-1,1490,1646,6.12295,-3.23994
273,-622,6.71118,4.01074,0.0608421,-0.0725389,0.0105771,0.0616756,-0.0733725,0.0786452,0.0780675,0.0441195,1497,1646,6.71114,-4.01079
280,-622,7.22107,4.72827,0.054032,-0.070434,0.0138756,0.0555601,-0.0719621,0.109687,0.0738277,0.0448186,1504,1646,7.22107,-4.7283
287,-622,7.37122,5.46436,0,0,0,0,0,0,0,-1,1511,1646,7.37117,-5.4643
294,-622,7.2583,6.68811,0.0445362,-0.0580573,0.0119916,0.0459192,-0.0594403,0.114823,0.0609961,0.0459314,1518,1646,7.2583,-6.68813
301,-622,7.43689,7.55786,0.0408184,-0.0512062,0.00988247,0.0418677,-0.0522555,0.105782,0.0544523,0.0456375,1525,1646,7.43691,-7.55782
308,-622,7.72803,8.24878,0.0374379,-0.0443965,0.00755803,0.0381301,-0.0450887,0.0913283,0.0481023,0.0428548,1532,1646,7.72806,-8.24883
315,-622,3.36011,9.59363,0,0,0,0,0,0,0,-1,1539,1646,3.36011,-9.59357
322,-622,3.5293,9.00305,0.0303356,-0.0311991,0.00298501,0.0304801,-0.0313435,0.048358,0.035695,0.0454768,1546,1646,3.52933,-9.00303
329,-622,3.70557,8.44666,0.0261725,-0.0249526,0.00119764,0.0262006,-0.0249806,0.0234087,0.0295523,0.0433357,1553,1646,3.7056,-8.44667
336,-622,4.13757,8.07129,0,0,0,0,0,0,0,-1,1560,1646,4.13754,-8.07131
343,-622,4.47595,7.51953,0,0,0,0,0,0,0,-1,1567,1646,4.47593,-7.51956
350,-622,4.46899,7.52942,0.0136997,-0.00773995,-0.0033603,0.014214,-0.00825428,-0.151882,0.0131233,0.0468065,1574,1646,4.46896,-7.52947
357,-622,4.50549,7.59155,0.010588,-0.00336499,-0.00522266,0.0123263,-0.00510329,-0.321305,0.010347,0.0400797,1581,1646,4.50551,-7.5916
364,-622,4.50171,7.52637,0.00686519,-0.00137077,-0.00521776,0.00939422,-0.0038998,-0.451331,0.00789079,0.0328951,1588,1646,4.50165,-7.52639
371,-622,4.49023,7.49829,0.00565401,-0.00169919,-0.00341104,0.00699264,-0.00303782,-0.373974,0.00593924,0.0199553,1595,1646,4.49028,-7.49834
378,-622,4.4906,7.43701,0.00417263,-0.00199415,-0.00157636,0.00455221,-0.00237373,-0.236301,0.0040641,0.010982,1602,1646,4.49055,-7.43702
385,-622,4.48486,7.34741,0.00302914,-0.00279965,-0.000331113,0.00304789,-0.0028184,-0.0565639,0.00338777,0.00941222,1609,1646,4.48488,-7.34744
392,-622,4.48596,7.271,0.00256026,-0.00286399,-7.46266e-05,0.00256129,-0.00286501,-0.0137545,0.00313451,0.0110351,1616,1646,4.48597,-7.27106
399,-622,4.4856,7.18665,0.00213661,-0.00263129,2.93775e-05,0.00213679,-0.00263147,0.00616121,0.00275789,0.01107,1623,1646,4.48557,-7.18667
406,-622,4.48438,7.08582,0.0016927,-0.00238438,8.72559e-05,0.00169457,-0.00238624,0.0213885,0.00236731,0.0136544,1630,1646,4.48442,-7.08584
413,-622,4.48889,6.9928,0.00118517,-0.00220485,0.000167081,0.00119338,-0.00221307,0.0491275,0.00199587,0.0141179,1637,1646,4.4889,-6.9928
420,-622,4.49658,6.89331,0.000623893,-0.00193061,0.000259448,0.000649978,-0.00195669,0.100202,0.00156673,0.0133301,1644,1646,4.49661,-6.89336
427,-622,4.49744,6.82959,8.12331e-05,-0.00167856,0.000453678,0.000191307,-0.00178863,0.238026,0.00126104,0.0108169,1651,1646,4.49743,-6.82956
434,-622,4.50305,6.75378,-0.00044855,-0.00140335,0.00054966,-0.000197913,-0.00165399,0.427819,0.00104296,0.0116911,1658,1646,4.50302,-6.75377
441,-622,4.51086,6.66785,-0.00089535,-0.00115087,0.000557004,-0.00045164,-0.00159458,0.672665,0.000949029,0.0132708,1665,1646,4.51087,-6.6679
448,-622,4.49536,6.58179,-0.00123648,-0.000982084,0.000468737,-0.000623594,-0.00159497,0.917891,0.000928126,0.0126999,1672,1646,4.4954,-6.58173
455,-622,4.50122,6.45972,-0.00159155,-0.00089997,0.000392533,-0.000722642,-0.00176888,1.14649,0.00102694,0.0152056,1679,1646,4.50122,-6.45968
462,-622,4.50427,6.36877,-0.00173106,-0.000870037,0.000242483,-0.000806445,-0.00179465,1.31432,0.00103791,0.0173439,1686,1646,4.50422,-6.36877
469,-622,4.46997,6.25513,-0.00172686,-0.000982234,6.26995e-05,-0.000976992,-0.00173211,1.48738,0.00100276,0.0172496,1693,1646,4.46998,-6.25512
476,-622,4.495,6.15857,-0.0015719,-0.00122002,-0.000182958,-0.00114213,-0.00164979,-1.16832,0.000975703,0.0158762,1700,1646,4.49498,-6.15854
483,-622,4.55359,6.07043,-0.00115085,-0.00177192,-0.000391999,-0.000961285,-0.00196148,-0.45042,0.00113253,0.0225444,1707,1646,4.55363,-6.07044
490,-622,4.58826,5.99902,0.000755092,-0.000701777,-0.00107375,0.00132418,-0.00127086,-0.487357,0.00149835,0.0296538,1714,1646,4.58827,-5.99897
497,-622,4.67603,5.89197,0.00452923,0.00255337,-0.00192383,0.00570397,0.00137863,-0.548194,0.00343655,0.0387116,1721,1646,4.67607,-5.89192
504,-622,4.73767,5.75635,0,0,0,0,0,0,0,-1,1728,1646,4.73767,-5.75639
511,-622,5.29004,4.14587,0,0,0,0,0,0,0,-1,1735,1646,5.29008,-4.14589
518,-622,5.6001,1.55359,0,0,0,0,0,0,0,-1,1742,1646,5.60015,-1.5536
525,-622,5.68213,1.32361,0,0,0,0,0,0,0,-1,1749,1646,5.68209,-1.32361
532,-622,5.44202,0.57373,0,0,0,0,0,0,0,-1,1756,1646,5.44196,-0.573705
539,-622,9.32129,1.06116,0,0,0,0,0,0,0,-1,1763,1646,9.32131,-1.0612
546,-622,6.50977,-3.45618,0,0,0,0,0,0,0,-1,1770,1646,6.50981,3.4562
553,-622,0,0,0,0,0,0,0,0,0,-1,1777,1646,0,0
560,-622,0,0,0,0,0,0,0,0,0,-1,1784,1646,0,0
567,-622,0,0,0,0,0,0,0,0,0,-1,1791,1646,0,0
574,-622,0,0,0,0,0,0,0,0,0,-1,1798,1646,0,0
581,-622,0,0,0,0,0,0,0,0,0,-1,1805,1646,0,0
588,-622,0,0,0,0,0,0,0,0,0,-1,1812,1646,0,0
595,-622,0,0,0,0,0,0,0,0,0,-1,1819,1646,0,0
602,-622,0,0,0,0,0,0,0,0,0,-1,1826,1646,0,0
609,-622,0,0,0,0,0,0,0,0,0,-1,1833,1646,0,0
616,-622,0,0,0,0,0,0,0,0,0,-1,1840,1646,0,0
623,-622,0,0,0,0,0,0,0,0,0,-1,1847,1646,0,0
630,-622,0,0,0,0,0,0,0,0,0,-1,1854,1646,0,0
637,-622,0,0,0,0,0,0,0,0,0,-1,1861,1646,0,0
644,-622,0,0,0,0,0,0,0,0,0,-1,1868,1646,0,0
651,-622,0,0,0,0,0,0,0,0,0,-1,1875,1646,0,0
658,-622,0,0,0,0,0,0,0,0,0,-1,1882,1646,0,0
665,-622,0,0,0,0,0,0,0,0,0,-1,1889,1646,0,0
672,-622,0,0,0,0,0,0,0,0,0,-1,1896,1646,0,0
679,-622,0,0,0,0,0,0,0,0,0,-1,1903,1646,0,0
686,-622,0,0,0,0,0,0,0,0,0,-1,1910,1646,0,0
693,-622,0,0,0,0,0,0,0,0,0,-1,1917,1646,0,0
700,-622,0,0,0,0,0,0,0,0,0,-1,1924,1646,0,0
707,-622,0,0,0,0,0,0,0,0,0,-1,1931,1646,0,0
714,-622,0,0,0,0,0,0,0,0,0,-1,1938,1646,0,0
721,-622,0,0,0,0,0,0,0,0,0,-1,1945,1646,0,0
728,-622,0,0,0,0,0,0,0,0,0,-1,1952,1646,0,0
735,-622,0,0,0,0,0,0,0,0,0,-1,1959,1646,0,0
742,-622,0,0,0,0,0,0,0,0,0,-1,1966,1646,0,0
749,-622,0,0,0,0,0,0,0,0,0,-1,1973,1646,0,0
756,-622,0,0,0,0,0,0,0,0,0,-1,1980,1646,0,0
763,-622,0,0,0,0,0,0,0,0,0,-1,1987,1646,0,0
770,-622,0,0,0,0,0,0,0,0,0,-1,1994,1646,0,0
777,-622,0,0,0,0,0,0,0,0,0,-1,2001,1646,0,0
784,-622,0,0,0,0,0,0,0,0,0,-1,2008,1646,0,0
791,-622,0,0,0,0,0,0,0,0,0,-1,2015,1646,0,0
798,-622,0,0,0,0,0,0,0,0,0,-1,2022,1646,0,0
805,-622,0,0,0,0,0,0,0,0,0,-1,2029,1646,0,0
812,-622,0,0,0,0,0,0,0,0,0,-1,2036,1646,0,0
-700,-629,0,0,0,0,0,0,0,0,0,-1,524,1653,0,0
-693,-629,0,0,0,0,0,0,0,0,0,-1,531,1653,0,0
-686,-629,0,0,0,0,0,0,0,0,0,-1,538,1653,0,0
-679,-629,0,0,0,0,0,0,0,0,0,-1,545,1653,0,0
-672,-629,0,0,0,0,0,0,0,0,0,-1,552,1653,0,0
-665,-629,0,0,0,0,0,0,0,0,0,-1,559,1653,0,0
-658,-629,0,0,0,0,0,0,0,0,0,-1,566,1653,0,0
-651,-629,0,0,0,0,0,0,0,0,0,-1,573,1653,0,0
-644,-629,0,0,0,0,0,0,0,0,0,-1,580,1653,0,0
-637,-629,0,0,0,0,0,0,0,0,0,-1,587,1653,0,0
-630,-629,0,0,0,0,0,0,0,0,0,-1,594,1653,0,0
-623,-629,0,0,0,0,0,0,0,0,0,-1,601,1653,0,0
-616,-629,0,0,0,0,0,0,0,0,0,-1,608,1653,0,0
-609,-629,0,0,0,0,0,0,0,0,0,-1,615,1653,0,0
-602,-629,0,0,0,0,0,0,0,0,0,-1,622,1653,0,0
-595,-629,0,0,0,0,0,0,0,0,0,-1,629,1653,0,0
-588,-629,0,0,0,0,0,0,0,0,0,-1,636,1653,0,0
-581,-629,0,0,0,0,0,0,0,0,0,-1,643,1653,0,0
-574,-629,0,0,0,0,0,0,0,0,0,-1,650,1653,0,0
-567,-629,0,0,0,0,0,0,0,0,0,-1,657,1653,0,0
-560,-629,0,0,0,0,0,0,0,0,0,-1,664,1653,0,0
-553,-629,0,0,0,0,0,0,0,0,0,-1,671,1653,0,0
-546,-629,0,0,0,0,0,0,0,0,0,-1,678,1653,0,0
-539,-629,0,0,0,0,0,0,0,0,0,-1,685,1653,0,0
-532,-629,0,0,0,0,0,0,0,0,0,-1,692,1653,0,0
-525,-629,0,0,0,0,0,0,0,0,0,-1,699,1653,0,0
-518,-629,0,0,0,0,0,0,0,0,0,-1,706,1653,0,0
-511,-629,0,0,0,0,0,0,0,0,0,-1,713,1653,0,0
-504,-629,0,0,0,0,0,0,0,0,0,-1,720,1653,0,0
-497,-629,0,0,0,0,0,0,0,0,0,-1,727,1653,0,0
-490,-629,0,0,0,0,0,0,0,0,0,-1,734,1653,0,0
-483,-629,0,0,0,0,0,0,0,0,0,-1,741,1653,0,0
-476,-629,0,0,0,0,0,0,0,0,0,-1,748,1653,0,0
-469,-629,0,0,0,0,0,0,0,0,0,-1,755,1653,0,0
-462,-629,0,0,0,0,0,0,0,0,0,-1,762,1653,0,0
-455,-629,0,0,0,0,0,0,0,0,0,-1,769,1653,0,0
-448,-629,0,0,0,0,0,0,0,0,0,-1,776,1653,0,0
-441,-629,0,0,0,0,0,0,0,0,0,-1,783,1653,0,0
-434,-629,0,0,0,0,0,0,0,0,0,-1,790,1653,0,0
-427,-629,0,0,0,0,0,0,0,0,0,-1,797,1653,0,0
-420,-629,-3.87103,3.37634,0,0,0,0,0,0,0,-1,804,1653,-3.87101,-3.37633
-413,-629,-2.76538,3.521,0,0,0,0,0,0,0,-1,811,1653,-2.76541,-3.52098
-406,-629,-1.76288,3.67676,0.117614,0.0612303,-0.0271372,0.128552,0.0502914,-0.383171,0.0748031,0.0479727,818,1653,-1.76288,-3.6768
-399,-629,-0.951965,3.87769,0.100522,0.0487768,-0.0238453,0.109834,0.0394643,-0.372325,0.0642441,0.0446172,825,1653,-0.95199,-3.87771
-392,-629,-0.205688,3.54138,0,0,0,0,0,0,0,-1,832,1653,-0.205682,-3.5414
-385,-629,0.882813,4.60352,0,0,0,0,0,0,0,-1,839,1653,0.882841,-4.60348
-378,-629,2.3031,4.69678,0,0,0,0,0,0,0,-1,846,1653,2.30308,-4.69672
-371,-629,2.55902,5.54663,0.0370863,0.00877342,-0.0133708,0.0424025,0.00345721,-0.378434,0.0271893,0.0486599,853,1653,2.559,-5.54664
-364,-629,2.47748,5.29578,0.0242178,0.00167397,-0.0100013,0.0280152,-0.00212338,-0.362871,0.0194233,0.0482175,860,1653,2.4775,-5.29579
-357,-629,2.60016,5.4408,0,0,0,0,0,0,0,-1,867,1653,2.60015,-5.44082
-350,-629,2.34082,5.82446,0.00330804,-0.00961283,-0.00449735,0.00471928,-0.0110241,-0.304065,0.00932923,0.0434911,874,1653,2.34083,-5.82451
-343,-629,2.42688,5.70435,-0.00105482,-0.0111683,-0.00260997,-0.000420993,-0.0118021,-0.238238,0.00773155,0.0349023,881,1653,2.42689,-5.70429
-336,-629,2.49243,5.62866,0.000143997,-0.00870492,-0.00195643,0.000557249,-0.00911817,-0.208168,0.00627279,0.0181537,888,1653,2.49246,-5.62862
-329,-629,2.50012,5.73206,0.00063766,-0.00654528,-0.00128528,0.000860714,-0.00676833,-0.171834,0.00482478,0.0116955,895,1653,2.50014,-5.73207
-322,-629,2.49506,5.8302,0.000755185,-0.00473836,-0.000551583,0.000810019,-0.00479319,-0.0990878,0.00349688,0.0116011,902,1653,2.49506,-5.83026
-315,-629,2.479,5.94458,0.000983832,-0.00319406,-0.000114856,0.000986987,-0.00319721,-0.0274638,0.0025256,0.0149091,909,1653,2.47901,-5.94454
-308,-629,2.47235,6.06665,0.000935627,-0.00235381,0.000108673,0.000939213,-0.0023574,0.0329889,0.00196113,0.0128376,916,1653,2.47234,-6.06664
-301,-629,2.49811,6.17188,0.000746918,-0.00186867,9.59451e-05,0.000750433,-0.00187219,0.0366164,0.00155965,0.0107933,923,1653,2.49811,-6.17193
-294,-629,2.49493,6.25989,0.000627334,-0.00141191,3.68616e-06,0.000627341,-0.00141191,0.00180761,0.00120606,0.0118129,930,1653,2.49491,-6.25995
-287,-629,2.48462,6.34692,0.000724515,-0.00137047,-4.84939e-05,0.000725637,-0.0013716,-0.023131,0.00122983,0.00963739,937,1653,2.48464,-6.34688
-280,-629,2.48926,6.45544,0.000887501,-0.00178372,-0.000260415,0.000912651,-0.00180888,-0.0962809,0.00159942,0.00929582,944,1653,2.48926,-6.45538
-273,-629,2.49933,6.54382,0.00120023,-0.00239818,-0.000595919,0.00129635,-0.0024943,-0.15992,0.00222467,0.0115481,951,1653,2.49931,-6.54376
-266,-629,2.49048,6.64954,0.00158199,-0.0030292,-0.00083962,0.00173012,-0.00317732,-0.174619,0.00287409,0.0127499,958,1653,2.4905,-6.64959
-259,-629,2.47711,6.79126,0.00191815,-0.0037061,-0.00103817,0.00210366,-0.00389161,-0.176828,0.00351231,0.0142077,965,1653,2.47713,-6.79122
-252,-629,2.48572,6.8656,0.00230822,-0.0043909,-0.00117782,0.00250927,-0.00459195,-0.169065,0.00415825,0.011029,972,1653,2.48575,-6.86558
-245,-629,2.5094,6.94861,0.00268815,-0.00502732,-0.00122648,0.00287843,-0.00521759,-0.153911,0.00473883,0.00829084,979,1653,2.5094,-6.94856
-238,-629,2.50629,7.03699,0.00298505,-0.00554556,-0.00123281,0.00315964,-0.00572015,-0.140683,0.00519731,0.0099177,986,1653,2.50631,-7.03696
-231,-629,2.50165,7.13745,0.00324833,-0.00574837,-0.00135492,0.00344795,-0.00594799,-0.146281,0.00548838,0.00938842,993,1653,2.50164,-7.1374
-224,-629,2.52911,7.22888,0.0031579,-0.00621444,-0.0014945,0.00339044,-0.00644698,-0.15436,0.0057703,0.00932421,1000,1653,2.52914,-7.22885
-217,-629,2.54492,7.30188,0.0028238,-0.00694415,-0.00169493,0.00310954,-0.00722989,-0.167018,0.00612544,0.0127217,1007,1653,2.54489,-7.30187
-210,-629,2.51581,7.3855,0.00249402,-0.00709595,-0.00178318,0.00281485,-0.00741678,-0.178018,0.00610316,0.0273536,1014,1653,2.51582,-7.38549
-203,-629,2.49988,7.43213,0.00196999,-0.00682228,-0.00205588,0.00242696,-0.00727925,-0.218719,0.00583263,0.0430977,1021,1653,2.49986,-7.43214
-196,-629,2.56226,7.521,0.00162358,-0.00957252,-0.00380583,0.00279476,-0.0107437,-0.298537,0.00825332,0.0414863,1028,1653,2.56221,-7.52102
-189,-629,2.57202,7.64294,0.000723438,-0.0125175,-0.00459902,0.00216408,-0.0139582,-0.303569,0.0101044,0.0400892,1035,1653,2.57203,-7.64291
-182,-629,2.61755,7.75061,-2.4658e-05,-0.0138324,-0.00400366,0.00105224,-0.0149093,-0.26276,0.0103082,0.046953,1042,1653,2.61752,-7.75067
-175,-629,2.65173,7.4519,0.000407365,-0.0139607,-0.00328884,0.0011244,-0.0146777,-0.21466,0.0101807,0.048797,1049,1653,2.6517,-7.45189
-168,-629,2.29248,7.18787,0.000652152,-0.0153525,-0.00265592,0.00108138,-0.0157818,-0.160227,0.0108995,0.0459324,1056,1653,2.29246,-7.1879
-161,-629,2.53345,7.70471,0,0,0,0,0,0,0,-1,1063,1653,2.53347,-7.70469
-154,-629,2.79102,8.19812,0,0,0,0,0,0,0,-1,1070,1653,2.79104,-8.19808
-147,-629,1.6416,7.41309,0.0024155,-0.0177313,5.1494e-05,0.00241563,-0.0177314,0.00255592,0.012703,0.0471756,1077,1653,1.64164,-7.41308
-140,-629,1.9856,8.13049,0.0032217,-0.0166176,0.0016228,0.00335356,-0.0167495,0.0810791,0.0124358,0.0499751,1084,1653,1.98563,-8.13044
-133,-629,1.99316,8.677,0.00379571,-0.0153291,0.00339284,0.00437978,-0.0159132,0.170477,0.0123308,0.0489742,1091,1653,1.9932,-8.67695
-126,-629,2.01196,9.28662,0.00401772,-0.0141651,0.00535995,0.00548012,-0.0156275,0.266355,0.0126472,0.047785,1098,1653,2.01201,-9.28666
-119,-629,2.052,9.86462,0,0,0,0,0,0,0,-1,1105,1653,2.05196,-9.86466
-112,-629,0.0380859,6.21252,0,0,0,0,0,0,0,-1,1112,1653,0.0380893,-6.21252
-105,-629,2.15881,4.38342,0,0,0,0,0,0,0,-1,1119,1653,2.15878,-4.38347
-98,-629,0.825806,4.19385,0,0,0,0,0,0,0,-1,1126,1653,0.825779,-4.1939
-91,-629,-0.452271,3.64465,0,0,0,0,0,0,0,-1,1133,1653,-0.452278,-3.6446
-84,-629,-2.12976,-0.649902,0,0,0,0,0,0,0,-1,1140,1653,-2.12982,0.649886
-77,-629,-1.71143,0.768555,0,0,0,0,0,0,0,-1,1147,1653,-1.71137,-0.768609
-70,-629,-1.20886,2.52502,0,0,0,0,0,0,0,-1,1154,1653,-1.20886,-2.525
-63,-629,-0.960693,4.30212,0,0,0,0,0,0,0,-1,1161,1653,-0.960691,-4.30215
-56,-629,-1.31934,5.64343,0,0,0,0,0,0,0,-1,1168,1653,-1.31928,-5.6434
-49,-629,-2.15662,2.57458,0,0,0,0,0,0,0,-1,1175,1653,-2.15656,-2.57459
-42,-629,-2.46326,3.91467,0,0,0,0,0,0,0,-1,1182,1653,-2.4633,-3.91466
-35,-629,-2.67261,5.24292,0,0,0,0,0,0,0,-1,1189,1653,-2.67257,-5.24298
-28,-629,-0.402954,-0.866577,0,0,0,0,0,0,0,-1,1196,1653,-0.402943,0.866612
-21,-629,3.26831,3.30811,0,0,0,0,0,0,0,-1,1203,1653,3.26836,-3.3081
-14,-629,-3.54419,6.15686,0,0,0,0,0,0,0,-1,1210,1653,-3.54421,-6.15683
-7,-629,0.930786,10.2048,0,0,0,0,0,0,0,-1,1217,1653,0.93073,-10.2049
0,-629,1.32336,9.42883,0.069345,0.0637522,-0.0311618,0.0978356,0.0352616,-0.740649,0.0572144,0.0482848,1224,1653,1.32335,-9.42888
7,-629,1.61975,10.5502,0.085486,0.0625298,-0.0265866,0.102966,0.0450494,-0.581621,0.0596022,0.0497313,1231,1653,1.61971,-10.5502
14,-629,2.22144,10.2698,0.0918288,0.0601119,-0.0191742,0.100853,0.0510878,-0.439882,0.0582291,0.0462295,1238,1653,2.22146,-10.2698
21,-629,2.87634,9.771,0,0,0,0,0,0,0,-1,1245,1653,2.87635,-9.77103
28,-629,3.41187,9.38281,0,0,0,0,0,0,0,-1,1252,1653,3.41191,-9.38278
35,-629,1.25452,6.38196,0,0,0,0,0,0,0,-1,1259,1653,1.25451,-6.38198
42,-629,6.08508,7.77307,0,0,0,0,0,0,0,-1,1266,1653,6.08512,-7.7731
49,-629,7.19019,7.35547,0.0999159,0.03752,0.0194129,0.105463,0.0319733,0.278309,0.0624417,0.0479801,1273,1653,7.19019,-7.35551
56,-629,8.9104,7.59473,0.0991261,0.0340906,0.0236643,0.106825,0.0263914,0.314549,0.0642526,0.0482875,1280,1653,8.91039,-7.59473
63,-629,9.12268,7.45911,0.0946105,0.027032,0.0299457,0.105971,0.0156719,0.362583,0.0660458,0.0448146,1287,1653,9.12274,-7.45916
70,-629,9.18787,7.10144,0,0,0,0,0,0,0,-1,1294,1653,9.18788,-7.10144
77,-629,9.54639,6.95166,0.0742656,0.016391,0.0350522,0.0907818,-0.000125244,0.440335,0.060563,0.0474026,1301,1653,9.54639,-6.95163
84,-629,9.61157,6.62402,0.0613108,0.0131321,0.0305166,0.0761002,-0.00165734,0.451281,0.0512948,0.0426345,1308,1653,9.61154,-6.62404
91,-629,9.71643,6.28992,0.049494,0.00973737,0.0240502,0.0608176,-0.00158622,0.440042,0.041084,0.0422941,1315,1653,9.71638,-6.28997
98,-629,9.79248,6.44971,0.0385457,0.00590397,0.0155316,0.0447548,-0.00030514,0.380312,0.0299388,0.0471786,1322,1653,9.7925,-6.4497
105,-629,9.95264,6.40454,0,0,0,0,0,0,0,-1,1329,1653,9.95268,-6.40457
112,-629,3.64038,0.877197,0,0,0,0,0,0,0,-1,1336,1653,3.64044,-0.877213
119,-629,3.64722,0.917358,0,0,0,0,0,0,0,-1,1343,1653,3.64724,-0.917415
126,-629,3.69385,0.924438,0,0,0,0,0,0,0,-1,1350,1653,3.69388,-0.924427
133,-629,3.77368,0.931152,0,0,0,0,0,0,0,-1,1357,1653,3.77373,-0.931123
140,-629,4.86169,1.6604,0,0,0,0,0,0,0,-1,1364,1653,4.86166,-1.66036
147,-629,4.90198,1.59839,0,0,0,0,0,0,0,-1,1371,1653,4.90194,-1.59844
154,-629,4.3573,15.877,0,0,0,0,0,0,0,-1,1378,1653,4.35731,-15.8769
161,-629,7.10571,16.3647,0,0,0,0,0,0,0,-1,1385,1653,7.10571,-16.3648
168,-629,8.13794,16.2546,0,0,0,0,0,0,0,-1,1392,1653,8.1379,-16.2546
175,-629,5.84485,-1.78845,0,0,0,0,0,0,0,-1,1399,1653,5.84479,1.7884
182,-629,5.99036,-1.27783,0,0,0,0,0,0,0,-1,1406,1653,5.99041,1.27778
189,-629,5.97668,-0.748535,0,0,0,0,0,0,0,-1,1413,1653,5.97671,0.748544
196,-629,4.52869,9.24695,0,0,0,0,0,0,0,-1,1420,1653,4.52869,-9.2469
203,-629,3.75085,6.88037,0,0,0,0,0,0,0,-1,1427,1653,3.75087,-6.88032
210,-629,3.5907,6.52637,0,0,0,0,0,0,0,-1,1434,1653,3.59067,-6.52642
217,-629,2.4585,4.84448,0,0,0,0,0,0,0,-1,1441,1653,2.45855,-4.84448
224,-629,1.31982,3.68481,0,0,0,0,0,0,0,-1,1448,1653,1.31986,-3.68487
231,-629,3.63025,1.73499,0,0,0,0,0,0,0,-1,1455,1653,3.6303,-1.735
238,-629,4.26428,2.11255,0,0,0,0,0,0,0,-1,1462,1653,4.26429,-2.11253
245,-629,5.61816,1.95361,0,0,0,0,0,0,0,-1,1469,1653,5.61815,-1.95359
252,-629,7.27136,2.18982,0,0,0,0,0,0,0,-1,1476,1653,7.27131,-2.18985
259,-629,8.67334,2.18628,0,0,0,0,0,0,0,-1,1483,1653,8.6733,-2.18633
266,-629,6.86475,3.72058,0,0,0,0,0,0,0,-1,1490,1653,6.86479,-3.72063
273,-629,7.52856,4.50061,0.0486844,-0.0604851,0.00856884,0.0493529,-0.0611535,0.0778557,0.0639221,0.0463022,1497,1653,7.5286,-4.50062
280,-629,7.9502,5.23706,0.0439239,-0.0578371,0.00989133,0.0448764,-0.0587896,0.0960042,0.060031,0.0476457,1504,1653,7.95017,-5.23701
287,-629,7.89221,6.53735,0,0,0,0,0,0,0,-1,1511,1653,7.89223,-6.5374
294,-629,7.98096,7.63098,0,0,0,0,0,0,0,-1,1518,1653,7.98094,-7.63095
301,-629,7.68469,8.30762,0,0,0,0,0,0,0,-1,1525,1653,7.68473,-8.30764
308,-629,5.06555,8.2334,0,0,0,0,0,0,0,-1,1532,1653,5.06553,-8.23344
315,-629,3.95667,8.05469,0,0,0,0,0,0,0,-1,1539,1653,3.95667,-8.05471
322,-629,4.13342,7.98584,0,0,0,0,0,0,0,-1,1546,1653,4.1334,-7.9858
329,-629,4.02209,8.2074,0.0199593,-0.0196401,-0.00059798,0.0199683,-0.0196491,-0.0150962,0.0228734,0.0400952,1553,1653,4.02214,-8.20737
336,-629,4.2356,7.96033,0.016604,-0.0147859,-0.00161775,0.0166871,-0.0148691,-0.0513558,0.0182291,0.0407409,1560,1653,4.23556,-7.96032
343,-629,4.37585,7.66162,0.0130157,-0.0104121,-0.00245867,0.0132709,-0.0106673,-0.103445,0.013848,0.0384314,1567,1653,4.37589,-7.66165
350,-629,4.38257,7.61914,0.00994872,-0.00565587,-0.00329268,0.010615,-0.0063222,-0.19967,0.00988287,0.0265346,1574,1653,4.38252,-7.61912
357,-629,4.43909,7.6311,0.00753016,-0.00250498,-0.00409598,0.00898971,-0.00396452,-0.342309,0.00766441,0.0167278,1581,1653,4.43913,-7.6311
364,-629,4.42261,7.58057,0.0049605,-0.000990844,-0.00379626,0.00680834,-0.00283868,-0.452992,0.00572473,0.0137396,1588,1653,4.42261,-7.58053
371,-629,4.40674,7.49194,0.00408851,-0.00120192,-0.00250779,0.00508832,-0.00220173,-0.379367,0.00431749,0.0109833,1595,1653,4.40677,-7.49195
378,-629,4.40942,7.40637,0.0029623,-0.001229,-0.00118946,0.00327634,-0.00154303,-0.258122,0.00284181,0.0101572,1602,1653,4.40947,-7.40635
385,-629,4.41675,7.33801,0.00204581,-0.00169475,-0.000306971,0.00207084,-0.00171977,-0.0813403,0.00219164,0.0116612,1609,1653,4.41677,-7.33804
392,-629,4.40601,7.26941,0.00160745,-0.0016094,-0.000208154,0.00162086,-0.00162281,-0.0643497,0.00187273,0.0108611,1616,1653,4.40604,-7.26939
399,-629,4.39404,7.18933,0.00121129,-0.00123895,-0.000169495,0.00122296,-0.00125061,-0.0687388,0.00142815,0.0112416,1623,1653,4.39405,-7.18935
406,-629,4.40845,7.08704,0.000778215,-0.000930551,-0.000143084,0.000790114,-0.000942449,-0.0829656,0.00100158,0.0138347,1630,1653,4.40841,-7.08705
413,-629,4.39612,6.98071,0.000252214,-0.000753418,-9.48045e-05,0.000261074,-0.000762277,-0.0931797,0.000613999,0.0217673,1637,1653,4.39617,-6.98075
420,-629,4.38171,6.91895,-0.000354127,-0.000519229,-1.90557e-05,-0.000351956,-0.0005214,-0.113431,0.000307116,0.0195358,1644,1653,4.38166,-6.91899
427,-629,4.40417,6.85132,-0.000920573,-0.000310011,0.000194393,-0.000253373,-0.000977211,1.28729,0.000585582,0.0119692,1651,1653,4.4042,-6.85128
434,-629,4.41394,6.76758,-0.00146247,-0.000181062,0.000332509,-9.99184e-05,-0.00154361,1.33144,0.000997437,0.00994377,1658,1653,4.41395,-6.76752
441,-629,4.42993,6.68738,-0.00193238,-0.000156499,0.000408214,-6.71594e-05,-0.00202172,1.35534,0.00132599,0.0138779,1665,1653,4.4299,-6.68743
448,-629,4.40918,6.57739,-0.00229474,-0.000288273,0.00039576,-0.000213034,-0.00236998,1.38293,0.00151398,0.0139619,1672,1653,4.40923,-6.57744
455,-629,4.41516,6.46509,-0.00264321,-0.000536882,0.00039822,-0.000464109,-0.00271599,1.39005,0.00167749,0.0142694,1679,1653,4.41519,-6.46508
462,-629,4.42041,6.37561,-0.00278405,-0.000857443,0.000338207,-0.000799797,-0.00284169,1.40197,0.00169209,0.0168977,1686,1653,4.42036,-6.37556
469,-629,4.39417,6.23877,-0.00278007,-0.00136643,0.00021676,-0.00133394,-0.00281256,1.42201,0.00162455,0.0189294,1693,1653,4.39417,-6.23872
476,-629,4.43018,6.15381,-0.00257167,-0.00199325,-2.19323e-05,-0.00199242,-0.0025725,-1.53295,0.00155806,0.0251232,1700,1653,4.43013,-6.15383
483,-629,4.53589,6.11963,-0.00211155,-0.00283164,-0.000260315,-0.0020273,-0.00291589,-0.312998,0.00172575,0.038514,1707,1653,4.53592,-6.11966
490,-629,4.58435,6.04858,-1.65698e-05,-0.00159332,-0.00103857,0.00049896,-0.00210885,-0.46075,0.00159839,0.0447454,1714,1653,4.5843,-6.0486
497,-629,4.64026,5.95679,0.00440779,0.00228952,-0.00202201,0.00563126,0.00106605,-0.544144,0.0034541,0.0448956,1721,1653,4.64024,-5.95682
504,-629,4.72375,5.93762,0,0,0,0,0,0,0,-1,1728,1653,4.72379,-5.9376
511,-629,3.90918,3.66418,0,0,0,0,0,0,0,-1,1735,1653,3.90921,-3.66416
518,-629,5.84387,1.41858,0,0,0,0,0,0,0,-1,1742,1653,5.84391,-1.4186
525,-629,6.4729,1.02319,0,0,0,0,0,0,0,-1,1749,1653,6.47284,-1.02316
532,-629,6.86511,0.903687,0,0,0,0,0,0,0,-1,1756,1653,6.86514,-0.903691
539,-629,6.60803,0.746704,0,0,0,0,0,0,0,-1,1763,1653,6.60809,-0.746691
546,-629,0,0,0,0,0,0,0,0,0,-1,1770,1653,0,0
553,-629,0,0,0,0,0,0,0,0,0,-1,1777,1653,0,0
560,-629,0,0,0,0,0,0,0,0,0,-1,1784,1653,0,0
567,-629,0,0,0,0,0,0,0,0,0,-1,1791,1653,0,0
574,-629,0,0,0,0,0,0,0,0,0,-1,1798,1653,0,0
581,-629,0,0,0,0,0,0,0,0,0,-1,1805,1653,0,0
588,-629,0,0,0,0,0,0,0,0,0,-1,1812,1653,0,0
595,-629,0,0,0,0,0,0,0,0,0,-1,1819,1653,0,0
602,-629,0,0,0,0,0,0,0,0,0,-1,1826,1653,0,0
609,-629,0,0,0,0,0,0,0,0,0,-1,1833,1653,0,0
616,-629,0,0,0,0,0,0,0,0,0,-1,1840,1653,0,0
623,-629,0,0,0,0,0,0,0,0,0,-1,1847,1653,0,0
630,-629,0,0,0,0,0,0,0,0,0,-1,1854,1653,0,0
637,-629,0,0,0,0,0,0,0,0,0,-1,1861,1653,0,0
644,-629,0,0,0,0,0,0,0,0,0,-1,1868,1653,0,0
651,-629,0,0,0,0,0,0,0,0,0,-1,1875,1653,0,0
658,-629,0,0,0,0,0,0,0,0,0,-1,1882,1653,0,0
665,-629,0,0,0,0,0,0,0,0,0,-1,1889,1653,0,0
672,-629,0,0,0,0,0,0,0,0,0,-1,1896,1653,0,0
679,-629,0,0,0,0,0,0,0,0,0,-1,1903,1653,0,0
686,-629,0,0,0,0,0,0,0,0,0,-1,1910,1653,0,0
693,-629,0,0,0,0,0,0,0,0,0,-1,1917,1653,0,0
700,-629,0,0,0,0,0,0,0,0,0,-1,1924,1653,0,0
707,-629,0,0,0,0,0,0,0,0,0,-1,1931,1653,0,0
714,-629,0,0,0,0,0,0,0,0,0,-1,1938,1653,0,0
721,-629,0,0,0,0,0,0,0,0,0,-1,1945,1653,0,0
728,-629,0,0,0,0,0,0,0,0,0,-1,1952,1653,0,0
735,-629,0,0,0,0,0,0,0,0,0,-1,1959,1653,0,0
742,-629,0,0,0,0,0,0,0,0,0,-1,1966,1653,0,0
749,-629,0,0,0,0,0,0,0,0,0,-1,1973,1653,0,0
756,-629,0,0,0,0,0,0,0,0,0,-1,1980,1653,0,0
763,-629,0,0,0,0,0,0,0,0,0,-1,1987,1653,0,0
770,-629,0,0,0,0,0,0,0,0,0,-1,1994,1653,0,0
777,-629,0,0,0,0,0,0,0,0,0,-1,2001,1653,0,0
784,-629,0,0,0,0,0,0,0,0,0,-1,2008,1653,0,0
791,-629,0,0,0,0,0,0,0,0,0,-1,2015,1653,0,0
798,-629,0,0,0,0,0,0,0,0,0,-1,2022,1653,0,0
805,-629,0,0,0,0,0,0,0,0,0,-1,2029,1653,0,0
812,-629,0,0,0,0,0,0,0,0,0,-1,2036,1653,0,0
-700,-636,0,0,0,0,0,0,0,0,0,-1,524,1660,0,0
-693,-636,0,0,0,0,0,0,0,0,0,-1,531,1660,0,0
-686,-636,0,0,0,0,0,0,0,0,0,-1,538,1660,0,0
-679,-636,0,0,0,0,0,0,0,0,0,-1,545,1660,0,0
-672,-636,0,0,0,0,0,0,0,0,0,-1,552,1660,0,0
-665,-636,0,0,0,0,0,0,0,0,0,-1,559,1660,0,0
-658,-636,0,0,0,0,0,0,0,0,0,-1,566,1660,0,0
-651,-636,0,0,0,0,0,0,0,0,0,-1,573,1660,0,0
-644,-636,0,0,0,0,0,0,0,0,0,-1,580,1660,0,0
-637,-636,0,0,0,0,0,0,0,0,0,-1,587,1660,0,0
-630,-636,0,0,0,0,0,0,0,0,0,-1,594,1660,0,0
-623,-636,0,0,0,0,0,0,0,0,0,-1,601,1660,0,0
-616,-636,0,0,0,0,0,0,0,0,0,-1,608,1660,0,0
-609,-636,0,0,0,0,0,0,0,0,0,-1,615,1660,0,0
-602,-636,0,0,0,0,0,0,0,0,0,-1,622,1660,0,0
-595,-636,0,0,0,0,0,0,0,0,0,-1,629,1660,0,0
-588,-636,0,0,0,0,0,0,0,0,0,-1,636,1660,0,0
-581,-636,0,0,0,0,0,0,0,0,0,-1,643,1660,0,0
-574,-636,0,0,0,0,0,0,0,0,0,-1,650,1660,0,0
-567,-636,0,0,0,0,0,0,0,0,0,-1,657,1660,0,0
-560,-636,0,0,0,0,0,0,0,0,0,-1,664,1660,0,0
-553,-636,0,0,0,0,0,0,0,0,0,-1,671,1660,0,0
-546,-636,0,0,0,0,0,0,0,0,0,-1,678,1660,0,0
-539,-636,0,0,0,0,0,0,0,0,0,-1,685,1660,0,0
-532,-636,0,0,0,0,0,0,0,0,0,-1,692,1660,0,0
-525,-636,0,0,0,0,0,0,0,0,0,-1,699,1660,0,0
-518,-636,0,0,0,0,0,0,0,0,0,-1,706,1660,0,0
-511,-636,0,0,0,0,0,0,0,0,0,-1,713,1660,0,0
-504,-636,0,0,0,0,0,0,0,0,0,-1,720,1660,0,0
-497,-636,0,0,0,0,0,0,0,0,0,-1,727,1660,0,0
-490,-636,0,0,0,0,0,0,0,0,0,-1,734,1660,0,0
-483,-636,0,0,0,0,0,0,0,0,0,-1,741,1660,0,0
-476,-636,0,0,0,0,0,0,0,0,0,-1,748,1660,0,0
-469,-636,0,0,0,0,0,0,0,0,0,-1,755,1660,0,0
-462,-636,0,0,0,0,0,0,0,0,0,-1,762,1660,0,0
-455,-636,0,0,0,0,0,0,0,0,0,-1,769,1660,0,0
-448,-636,0,0,0,0,0,0,0,0,0,-1,776,1660,0,0
-441,-636,0,0,0,0,0,0,0,0,0,-1,783,1660,0,0
-434,-636,0,0,0,0,0,0,0,0,0,-1,790,1660,0,0
-427,-636,0,0,0,0,0,0,0,0,0,-1,797,1660,0,0
-420,-636,0,0,0,0,0,0,0,0,0,-1,804,1660,0,0
-413,-636,0,0,0,0,0,0,0,0,0,-1,811,1660,0,0
-406,-636,-1.13507,3.05334,0,0,0,0,0,0,0,-1,818,1660,-1.13508,-3.05331
-399,-636,-0.290527,3.34119,0,0,0,0,0,0,0,-1,825,1660,-0.29052,-3.34119
-392,-636,0.180115,4.55176,0,0,0,0,0,0,0,-1,832,1660,0.180108,-4.55175
-385,-636,0.866882,5.04993,0,0,0,0,0,0,0,-1,839,1660,0.866906,-5.04994
-378,-636,1.32104,5.32117,0,0,0,0,0,0,0,-1,846,1660,1.32106,-5.32121
-371,-636,2.5174,6.23254,0,0,0,0,0,0,0,-1,853,1660,2.5174,-6.23251
-364,-636,2.42017,5.49341,0,0,0,0,0,0,0,-1,860,1660,2.42019,-5.49345
-357,-636,1.82703,6.34937,0,0,0,0,0,0,0,-1,867,1660,1.82704,-6.34941
-350,-636,2.24988,6.10352,0.00582034,-0.0121104,-0.00541178,0.00732709,-0.0136171,-0.271543,0.0122726,0.0476307,874,1660,2.24986,-6.10347
-343,-636,2.4826,6.00977,-0.000265077,-0.0141768,-0.00303698,0.000369007,-0.0148108,-0.205831,0.00999917,0.0488309,881,1660,2.48259,-6.00979
-336,-636,2.6189,5.62573,0.000697469,-0.0109323,-0.0021447,0.00108038,-0.0113152,-0.176676,0.00792815,0.0340434,888,1660,2.61887,-5.62572
-329,-636,2.64087,5.73779,0.000781766,-0.00811368,-0.00130941,0.000970505,-0.00830242,-0.143156,0.00588518,0.0173251,895,1660,2.64086,-5.73782
-322,-636,2.60681,5.84387,0.000714607,-0.00594333,-0.000388218,0.000737168,-0.00596589,-0.0580468,0.00424438,0.0106686,902,1660,2.60683,-5.84389
-315,-636,2.58667,5.94641,0.000962197,-0.00403859,0.000207004,0.000970751,-0.00404715,0.0413001,0.00307322,0.0118133,909,1660,2.58668,-5.94642
-308,-636,2.58612,6.0658,0.000910883,-0.00292315,0.000553387,0.000989158,-0.00300142,0.140516,0.00239962,0.0113746,916,1660,2.58614,-6.06586
-301,-636,2.60492,6.17944,0.000657719,-0.00218857,0.000672459,0.000808595,-0.00233944,0.22071,0.0018878,0.0111944,923,1660,2.60493,-6.17943
-294,-636,2.60345,6.27954,0.000456997,-0.00151772,0.000650877,0.000652228,-0.00171295,0.291412,0.00141057,0.0136313,930,1660,2.60347,-6.27949
-287,-636,2.58563,6.36243,0.000488597,-0.00131192,0.000638156,0.000691836,-0.00151516,0.308323,0.00130343,0.0118118,937,1660,2.58561,-6.36248
-280,-636,2.59912,6.47302,0.000641401,-0.00156818,0.000484633,0.000743023,-0.00166981,0.206694,0.00142689,0.0114002,944,1660,2.59915,-6.47306
-273,-636,2.60925,6.53979,0.000940929,-0.00196299,0.000198749,0.000954468,-0.00197653,0.0680187,0.00172617,0.0119812,951,1660,2.60926,-6.53977
-266,-636,2.6084,6.63696,0.00128398,-0.00236391,-2.08997e-05,0.0012841,-0.00236403,-0.00572901,0.00213679,0.0132864,958,1660,2.60837,-6.6369
-259,-636,2.60291,6.7782,0.00153421,-0.00280842,-0.000241169,0.00154756,-0.00282177,-0.0553086,0.00255814,0.0138949,965,1660,2.60289,-6.77821
-252,-636,2.60535,6.87219,0.00181637,-0.00322373,-0.000394568,0.00184707,-0.00325443,-0.0776552,0.00298248,0.0107429,972,1660,2.60534,-6.87221
-245,-636,2.62372,6.96777,0.00208792,-0.00358966,-0.000479923,0.0021282,-0.00362994,-0.0837378,0.00336194,0.0104453,979,1660,2.62374,-6.96775
-238,-636,2.63165,7.05249,0.00226309,-0.00387794,-0.000539136,0.00231006,-0.00392491,-0.0869066,0.00363979,0.0108516,986,1660,2.63164,-7.05252
-231,-636,2.60614,7.14075,0.0023732,-0.00396685,-0.000656569,0.00244048,-0.00403413,-0.102115,0.00377568,0.00944862,993,1660,2.60613,-7.14069
-224,-636,2.6109,7.23657,0.00221791,-0.00420453,-0.000860396,0.00233118,-0.00431779,-0.130893,0.00389548,0.00853475,1000,1660,2.61089,-7.23659
-217,-636,2.61572,7.32007,0.00194521,-0.00475063,-0.00112718,0.00212986,-0.00493528,-0.16238,0.00418488,0.0101427,1007,1660,2.61571,-7.32003
-210,-636,2.61292,7.38,0.00166503,-0.00490161,-0.00125653,0.00189726,-0.00513383,-0.182753,0.00420032,0.0137533,1014,1660,2.61291,-7.38006
-203,-636,2.62354,7.46631,0.0012557,-0.00478064,-0.00158386,0.00164604,-0.00517098,-0.241635,0.00410745,0.018441,1021,1660,2.62354,-7.46626
-196,-636,2.66968,7.50354,0.000927789,-0.00698524,-0.00304848,0.00196599,-0.00802344,-0.328245,0.00611064,0.018407,1028,1660,2.66966,-7.50358
-189,-636,2.69421,7.57971,0.000311557,-0.00930897,-0.00395314,0.00172753,-0.0107249,-0.343951,0.00778991,0.0194085,1035,1660,2.69424,-7.57967
-182,-636,2.67114,7.52942,-0.000119738,-0.0104928,-0.00387085,0.00116548,-0.011778,-0.320573,0.00826794,0.0357282,1042,1660,2.67117,-7.52938
-175,-636,2.62537,7.40308,0.000280771,-0.010656,-0.00366774,0.00139688,-0.0117721,-0.2954,0.00835273,0.0437451,1049,1660,2.62538,-7.40307
-168,-636,2.5498,7.39294,0.000549112,-0.0118436,-0.00350734,0.00147288,-0.0127674,-0.257533,0.00904265,0.0430326,1056,1660,2.54978,-7.39289
-161,-636,2.79431,7.90137,0,0,0,0,0,0,0,-1,1063,1660,2.79425,-7.90141
-154,-636,2.87109,8.61743,0,0,0,0,0,0,0,-1,1070,1660,2.87114,-8.61742
-147,-636,2.76282,8.64001,0.00238451,-0.0135161,-0.00180091,0.00258593,-0.0137175,-0.111381,0.0101177,0.049795,1077,1660,2.76281,-8.64003
-140,-636,2.56335,8.57446,0.003057,-0.0128768,-0.00065824,0.00308415,-0.0129039,-0.0412173,0.0097939,0.0462853,1084,1660,2.56338,-8.57442
-133,-636,2.32422,8.61731,0.00344442,-0.0124905,0.00056867,0.00346469,-0.0125108,0.0356265,0.00970384,0.047054,1091,1660,2.32419,-8.6173
-126,-636,2.45337,8.90906,0.00355852,-0.0124143,0.00193225,0.00378894,-0.0126448,0.11869,0.0099366,0.0453155,1098,1660,2.45336,-8.90901
-119,-636,2.68469,9.104,0,0,0,0,0,0,0,-1,1105,1660,2.68474,-9.10398
-112,-636,-1.24963,9.7998,0,0,0,0,0,0,0,-1,1112,1660,-1.24968,-9.79978
-105,-636,3.51624,4.72791,0,0,0,0,0,0,0,-1,1119,1660,3.51618,-4.7279
-98,-636,1.54504,5.11914,0,0,0,0,0,0,0,-1,1126,1660,1.54503,-5.11912
-91,-636,-0.683716,1.89026,0,0,0,0,0,0,0,-1,1133,1660,-0.683726,-1.89031
-84,-636,-2.15723,-0.305298,0,0,0,0,0,0,0,-1,1140,1660,-2.15719,0.3053
-77,-636,-1.79346,1.20642,0,0,0,0,0,0,0,-1,1147,1660,-1.79348,-1.20643
-70,-636,-2.14758,4.36755,0,0,0,0,0,0,0,-1,1154,1660,-2.14755,-4.36757
-63,-636,-1.35437,6.06299,0,0,0,0,0,0,0,-1,1161,1660,-1.35433,-6.06297
-56,-636,-0.888794,7.48706,0,0,0,0,0,0,0,-1,1168,1660,-0.888794,-7.4871
-49,-636,-1.6272,7.40125,0,0,0,0,0,0,0,-1,1175,1660,-1.62721,-7.4013
-42,-636,-2.27771,4.90173,0,0,0,0,0,0,0,-1,1182,1660,-2.27775,-4.90173
-35,-636,-2.27698,5.89685,0,0,0,0,0,0,0,-1,1189,1660,-2.27695,-5.89686
-28,-636,-1.70654,4.83936,0,0,0,0,0,0,0,-1,1196,1660,-1.70656,-4.8393
-21,-636,-4.26123,6.73853,0,0,0,0,0,0,0,-1,1203,1660,-4.26126,-6.73858
-14,-636,1.05188,9.54468,0,0,0,0,0,0,0,-1,1210,1660,1.05183,-9.54464
-7,-636,1.49304,9.85901,0.0513362,0.0611035,-0.011007,0.0682616,0.0441781,-0.994192,0.039976,0.0469115,1217,1660,1.49305,-9.85905
0,-636,1.7583,9.4408,0.0590375,0.050417,-0.0278279,0.0828869,0.0265675,-0.708564,0.0488716,0.046892,1224,1660,1.75829,-9.4408
7,-636,2.17456,10.2714,0.0744373,0.0483491,-0.0238885,0.088611,0.0341754,-0.535499,0.0516034,0.0478985,1231,1660,2.1746,-10.2713
14,-636,2.75061,9.96936,0.0819303,0.0459414,-0.0166711,0.088466,0.0394058,-0.373621,0.0511771,0.0444335,1238,1660,2.75059,-9.96935
21,-636,3.3197,9.64441,0,0,0,0,0,0,0,-1,1245,1660,3.31964,-9.64438
28,-636,3.78674,10.0554,0,0,0,0,0,0,0,-1,1252,1660,3.78676,-10.0554
35,-636,2.25525,6.27319,0,0,0,0,0,0,0,-1,1259,1660,2.25525,-6.27317
42,-636,5.76135,7.73914,0,0,0,0,0,0,0,-1,1266,1660,5.76135,-7.73914
49,-636,6.90454,7.40955,0.0961736,0.0249667,0.0225174,0.102697,0.0184437,0.281969,0.0632198,0.0469559,1273,1660,6.90458,-7.40956
56,-636,8.08289,7.20129,0.0952395,0.021316,0.0279619,0.104625,0.0119308,0.323827,0.0661325,0.0474802,1280,1660,8.08286,-7.2013
63,-636,8.85974,7.33228,0.090566,0.0148782,0.0346465,0.10403,0.00141384,0.37066,0.0688872,0.044088,1287,1660,8.85972,-7.33222
70,-636,6.00452,8.02661,0,0,0,0,0,0,0,-1,1294,1660,6.00449,-8.02663
77,-636,9.4884,6.49915,0.0724008,0.00655054,0.0408066,0.0919089,-0.0129575,0.445944,0.066017,0.0463037,1301,1660,9.48843,-6.49919
84,-636,9.55566,6.41479,0.0606529,0.00468334,0.0370475,0.0790973,-0.013761,0.461932,0.0578665,0.0462268,1308,1660,9.55564,-6.41477
91,-636,9.55945,6.42932,0.0498801,0.00271838,0.0313269,0.0655093,-0.0129109,0.462773,0.0485521,0.0421387,1315,1660,9.55939,-6.42928
98,-636,9.63953,6.44836,0.0402326,0.00057075,0.0235302,0.051174,-0.0103706,0.435253,0.0380469,0.0456896,1322,1660,9.63952,-6.44834
105,-636,9.85901,6.44104,0.0324547,-0.00186268,0.0126262,0.0365995,-0.00600755,0.317192,0.0266291,0.0491309,1329,1660,9.85905,-6.44103
112,-636,10.0298,6.43738,0,0,0,0,0,0,0,-1,1336,1660,10.0298,-6.43739
119,-636,3.4585,2.22961,0,0,0,0,0,0,0,-1,1343,1660,3.45845,-2.22959
126,-636,3.39746,2.26379,0,0,0,0,0,0,0,-1,1350,1660,3.39743,-2.2638
133,-636,3.59021,2.21509,0,0,0,0,0,0,0,-1,1357,1660,3.59021,-2.21508
140,-636,3.67236,2.44397,0,0,0,0,0,0,0,-1,1364,1660,3.67239,-2.44393
147,-636,3.72412,2.68799,0,0,0,0,0,0,0,-1,1371,1660,3.7241,-2.688
154,-636,3.89929,3.06262,0,0,0,0,0,0,0,-1,1378,1660,3.89928,-3.06261
161,-636,5.46204,13.5659,0,0,0,0,0,0,0,-1,1385,1660,5.46208,-13.566
168,-636,6.68164,13.4104,0,0,0,0,0,0,0,-1,1392,1660,6.6817,-13.4104
175,-636,5.94592,-1.72888,0,0,0,0,0,0,0,-1,1399,1660,5.94598,1.72886
182,-636,5.93994,-1.11938,0,0,0,0,0,0,0,-1,1406,1660,5.93998,1.11936
189,-636,5.32544,11.9595,0,0,0,0,0,0,0,-1,1413,1660,5.32542,-11.9595
196,-636,5.3623,9.38025,0,0,0,0,0,0,0,-1,1420,1660,5.36225,-9.38027
203,-636,5.18542,9.02429,0,0,0,0,0,0,0,-1,1427,1660,5.18547,-9.0243
210,-636,4.09167,7.17041,0,0,0,0,0,0,0,-1,1434,1660,4.09173,-7.17041
217,-636,2.94897,5.28992,0,0,0,0,0,0,0,-1,1441,1660,2.94899,-5.28991
224,-636,1.49194,3.63916,0,0,0,0,0,0,0,-1,1448,1660,1.49197,-3.63918
231,-636,0.17749,2.24854,0,0,0,0,0,0,0,-1,1455,1660,0.177501,-2.24855
238,-636,-0.764648,1.00598,0,0,0,0,0,0,0,-1,1462,1660,-0.764704,-1.00595
245,-636,6.21204,1.18005,0,0,0,0,0,0,0,-1,1469,1660,6.21206,-1.18001
252,-636,7.70251,0.865723,0,0,0,0,0,0,0,-1,1476,1660,7.7025,-0.865692
259,-636,9.03601,0.787231,0,0,0,0,0,0,0,-1,1483,1660,9.03598,-0.787243
266,-636,10.1071,3.24109,0,0,0,0,0,0,0,-1,1490,1660,10.1071,-3.24103
273,-636,8.48535,5.02466,0,0,0,0,0,0,0,-1,1497,1660,8.48533,-5.02472
280,-636,8.81384,5.66992,0,0,0,0,0,0,0,-1,1504,1660,8.81381,-5.66998
287,-636,6.19543,8.95056,0,0,0,0,0,0,0,-1,1511,1660,6.19545,-8.95056
294,-636,4.25525,8.20239,0,0,0,0,0,0,0,-1,1518,1660,4.25526,-8.20243
301,-636,4.33057,8.09253,0,0,0,0,0,0,0,-1,1525,1660,4.33055,-8.09253
308,-636,4.62329,8.15906,0.0224507,-0.0281216,0.00217067,0.0225437,-0.0282146,0.0428172,0.0293662,0.0451833,1532,1660,4.62329,-8.15903
315,-636,4.078,8.06384,0.0199757,-0.023543,0.000741491,0.0199884,-0.0235557,0.0170318,0.0251683,0.0433532,1539,1660,4.07798,-8.0639
322,-636,4.16919,7.99976,0.0173343,-0.0189087,-0.000545498,0.0173426,-0.0189169,-0.0150466,0.020941,0.0360176,1546,1660,4.16922,-7.99978
329,-636,4.26489,7.94653,0.0144863,-0.0145978,-0.00137367,0.0145511,-0.0146625,-0.0470912,0.0168665,0.0261068,1553,1660,4.26492,-7.94658
336,-636,4.30408,7.83521,0.0118917,-0.0107468,-0.0019983,0.0120667,-0.0109218,-0.0873696,0.0132779,0.0211619,1560,1660,4.30408,-7.83517
343,-636,4.28625,7.79138,0.00924517,-0.00742405,-0.00244366,0.00959602,-0.0077749,-0.142601,0.0100475,0.0188922,1567,1660,4.2862,-7.79133
350,-636,4.3009,7.72192,0.00698998,-0.00395888,-0.00282498,0.0076759,-0.0046448,-0.238196,0.00718476,0.0120037,1574,1660,4.30086,-7.72191
357,-636,4.33545,7.6593,0.00524632,-0.00178691,-0.00310179,0.00641881,-0.00295939,-0.361401,0.00553594,0.0103099,1581,1660,4.33545,-7.65934
364,-636,4.3407,7.58606,0.00353602,-0.000683884,-0.00278866,0.004923,-0.00207087,-0.461537,0.00414832,0.0101099,1588,1660,4.34074,-7.58601
371,-636,4.33252,7.49854,0.00292996,-0.000778614,-0.00191272,0.00373966,-0.00158832,-0.400454,0.0031586,0.00917951,1595,1660,4.33257,-7.49852
378,-636,4.34229,7.40039,0.00212644,-0.000664473,-0.00101127,0.00245434,-0.000992374,-0.313551,0.00204876,0.00960414,1602,1660,4.34224,-7.40037
385,-636,4.36316,7.31946,0.00145708,-0.000886862,-0.000420641,0.00153028,-0.000960064,-0.172298,0.00145031,0.0143849,1609,1660,4.36314,-7.31942
392,-636,4.35083,7.25049,0.00109669,-0.000680176,-0.000435463,0.00119767,-0.000781158,-0.227868,0.00115088,0.0157411,1616,1660,4.35083,-7.25045
399,-636,4.33289,7.17883,0.000745742,-0.000197675,-0.00043966,0.000918867,-0.000370799,-0.375124,0.000766674,0.0117623,1623,1660,4.33285,-7.17881
406,-636,4.33655,7.10107,0.000325193,0.000172719,-0.00042808,0.000683772,-0.00018586,-0.697277,0.000528803,0.0133754,1630,1660,4.33655,-7.10111
413,-636,4.33643,6.97876,-0.000236342,0.000366745,-0.000398341,0.000564806,-0.000434402,-1.10938,0.000578528,0.0230353,1637,1660,4.33647,-6.97876
420,-636,4.30383,6.91687,-0.000933363,0.000589829,-0.000334851,0.00066019,-0.00100372,-1.36368,0.000967463,0.0231956,1644,1660,4.30384,-6.91689
427,-636,4.32141,6.84314,-0.00159975,0.000790151,-0.000102834,0.000794568,-0.00160417,-1.52787,0.00141096,0.0127842,1651,1660,4.32137,-6.84317
434,-636,4.33496,6.75293,-0.00225682,0.000827371,7.30823e-05,0.000829102,-0.00225855,1.54712,0.00184524,0.0110281,1658,1660,4.33498,-6.75297
441,-636,4.34949,6.65527,-0.00288127,0.000682785,0.000210419,0.000695165,-0.00289365,1.51203,0.00219778,0.0112255,1665,1660,4.34944,-6.65523
448,-636,4.36609,6.552,-0.0034252,0.000294532,0.000276138,0.00031492,-0.00344559,1.4971,0.0024089,0.0134145,1672,1660,4.36604,-6.55202
455,-636,4.36499,6.45178,-0.00394969,-0.00025543,0.000370349,-0.000218668,-0.00398645,1.47186,0.00258782,0.0147093,1679,1660,4.36498,-6.45181
462,-636,4.29663,6.33435,-0.00422116,-0.000932544,0.000383107,-0.000888504,-0.0042652,1.45634,0.00259844,0.018377,1686,1660,4.29657,-6.33434
469,-636,4.21814,6.18311,-0.00434914,-0.00186734,0.000310233,-0.00182915,-0.00438733,1.4483,0.00254466,0.0278316,1693,1660,4.21808,-6.18314
476,-636,4.11768,6.07483,-0.00421124,-0.00301882,0.000111394,-0.00300851,-0.00422156,1.47844,0.00250972,0.0439855,1700,1660,4.11768,-6.07485
483,-636,4.51501,6.15942,0,0,0,0,0,0,0,-1,1707,1660,4.51503,-6.15938
490,-636,4.55273,6.08057,0,0,0,0,0,0,0,-1,1714,1660,4.55272,-6.08061
497,-636,4.52966,5.92957,0,0,0,0,0,0,0,-1,1721,1660,4.5296,-5.92951
504,-636,4.41003,3.64124,0,0,0,0,0,0,0,-1,1728,1660,4.41001,-3.64124
511,-636,4.76794,2.83276,0,0,0,0,0,0,0,-1,1735,1660,4.7679,-2.83272
518,-636,6.72791,1.07605,0,0,0,0,0,0,0,-1,1742,1660,6.7279,-1.0761
525,-636,7.04309,0.93335,0,0,0,0,0,0,0,-1,1749,1660,7.04308,-0.933298
532,-636,0,0,0,0,0,0,0,0,0,-1,1756,1660,0,0
539,-636,0,0,0,0,0,0,0,0,0,-1,1763,1660,0,0
546,-636,0,0,0,0,0,0,0,0,0,-1,1770,1660,0,0
553,-636,0,0,0,0,0,0,0,0,0,-1,1777,1660,0,0
560,-636,0,0,0,0,0,0,0,0,0,-1,1784,1660,0,0
567,-636,0,0,0,0,0,0,0,0,0,-1,1791,1660,0,0
574,-636,0,0,0,0,0,0,0,0,0,-1,1798,1660,0,0
581,-636,0,0,0,0,0,0,0,0,0,-1,1805,1660,0,0
588,-636,0,0,0,0,0,0,0,0,0,-1,1812,1660,0,0
595,-636,0,0,0,0,0,0,0,0,0,-1,1819,1660,0,0
602,-636,0,0,0,0,0,0,0,0,0,-1,1826,1660,0,0
609,-636,0,0,0,0,0,0,0,0,0,-1,1833,1660,0,0
616,-636,0,0,0,0,0,0,0,0,0,-1,1840,1660,0,0
623,-636,0,0,0,0,0,0,0,0,0,-1,1847,1660,0,0
630,-636,0,0,0,0,0,0,0,0,0,-1,1854,1660,0,0
637,-636,0,0,0,0,0,0,0,0,0,-1,1861,1660,0,0
644,-636,0,0,0,0,0,0,0,0,0,-1,1868,1660,0,0
651,-636,0,0,0,0,0,0,0,0,0,-1,1875,1660,0,0
658,-636,0,0,0,0,0,0,0,0,0,-1,1882,1660,0,0
665,-636,0,0,0,0,0,0,0,0,0,-1,1889,1660,0,0
672,-636,0,0,0,0,0,0,0,0,0,-1,1896,1660,0,0
679,-636,0,0,0,0,0,0,0,0,0,-1,1903,1660,0,0
686,-636,0,0,0,0,0,0,0,0,0,-1,1910,1660,0,0
693,-636,0,0,0,0,0,0,0,0,0,-1,1917,1660,0,0
700,-636,0,0,0,0,0,0,0,0,0,-1,1924,1660,0,0
707,-636,0,0,0,0,0,0,0,0,0,-1,1931,1660,0,0
714,-636,0,0,0,0,0,0,0,0,0,-1,1938,1660,0,0
721,-636,0,0,0,0,0,0,0,0,0,-1,1945,1660,0,0
728,-636,0,0,0,0,0,0,0,0,0,-1,1952,1660,0,0
735,-636,0,0,0,0,0,0,0,0,0,-1,1959,1660,0,0
742,-636,0,0,0,0,0,0,0,0,0,-1,1966,1660,0,0
749,-636,0,0,0,0,0,0,0,0,0,-1,1973,1660,0,0
756,-636,0,0,0,0,0,0,0,0,0,-1,1980,1660,0,0
763,-636,0,0,0,0,0,0,0,0,0,-1,1987,1660,0,0
770,-636,0,0,0,0,0,0,0,0,0,-1,1994,1660,0,0
777,-636,0,0,0,0,0,0,0,0,0,-1,2001,1660,0,0
784,-636,0,0,0,0,0,0,0,0,0,-1,2008,1660,0,0
791,-636,0,0,0,0,0,0,0,0,0,-1,2015,1660,0,0
798,-636,0,0,0,0,0,0,0,0,0,-1,2022,1660,0,0
805,-636,0,0,0,0,0,0,0,0,0,-1,2029,1660,0,0
812,-636,0,0,0,0,0,0,0,0,0,-1,2036,1660,0,0
-700,-643,0,0,0,0,0,0,0,0,0,-1,524,1667,0,0
-693,-643,0,0,0,0,0,0,0,0,0,-1,531,1667,0,0
-686,-643,0,0,0,0,0,0,0,0,0,-1,538,1667,0,0
-679,-643,0,0,0,0,0,0,0,0,0,-1,545,1667,0,0
-672,-643,0,0,0,0,0,0,0,0,0,-1,552,1667,0,0
-665,-643,0,0,0,0,0,0,0,0,0,-1,559,1667,0,0
-658,-643,0,0,0,0,0,0,0,0,0,-1,566,1667,0,0
-651,-643,0,0,0,0,0,0,0,0,0,-1,573,1667,0,0
-644,-643,0,0,0,0,0,0,0,0,0,-1,580,1667,0,0
-637,-643,0,0,0,0,0,0,0,0,0,-1,587,1667,0,0
-630,-643,0,0,0,0,0,0,0,0,0,-1,594,1667,0,0
-623,-643,0,0,0,0,0,0,0,0,0,-1,601,1667,0,0
-616,-643,0,0,0,0,0,0,0,0,0,-1,608,1667,0,0
-609,-643,0,0,0,0,0,0,0,0,0,-1,615,1667,0,0
-602,-643,0,0,0,0,0,0,0,0,0,-1,622,1667,0,0
-595,-643,0,0,0,0,0,0,0,0,0,-1,629,1667,0,0
-588,-643,0,0,0,0,0,0,0,0,0,-1,636,1667,0,0
-581,-643,0,0,0,0,0,0,0,0,0,-1,643,1667,0,0
-574,-643,0,0,0,0,0,0,0,0,0,-1,650,1667,0,0
-567,-643,0,0,0,0,0,0,0,0,0,-1,657,1667,0,0
-560,-643,0,0,0,0,0,0,0,0,0,-1,664,1667,0,0
-553,-643,0,0,0,0,0,0,0,0,0,-1,671,1667,0,0
-546,-643,0,0,0,0,0,0,0,0,0,-1,678,1667,0,0
-539,-643,0,0,0,0,0,0,0,0,0,-1,685,1667,0,0
-532,-643,0,0,0,0,0,0,0,0,0,-1,692,1667,0,0
-525,-643,0,0,0,0,0,0,0,0,0,-1,699,1667,0,0
-518,-643,0,0,0,0,0,0,0,0,0,-1,706,1667,0,0
-511,-643,0,0,0,0,0,0,0,0,0,-1,713,1667,0,0
-504,-643,0,0,0,0,0,0,0,0,0,-1,720,1667,0,0
-497,-643,0,0,0,0,0,0,0,0,0,-1,727,1667,0,0
-490,-643,0,0,0,0,0,0,0,0,0,-1,734,1667,0,0
-483,-643,0,0,0,0,0,0,0,0,0,-1,741,1667,0,0
-476,-643,0,0,0,0,0,0,0,0,0,-1,748,1667,0,0
-469,-643,0,0,0,0,0,0,0,0,0,-1,755,1667,0,0
-462,-643,0,0,0,0,0,0,0,0,0,-1,762,1667,0,0
-455,-643,0,0,0,0,0,0,0,0,0,-1,769,1667,0,0
-448,-643,0,0,0,0,0,0,0,0,0,-1,776,1667,0,0
-441,-643,0,0,0,0,0,0,0,0,0,-1,783,1667,0,0
-434,-643,0,0,0,0,0,0,0,0,0,-1,790,1667,0,0
-427,-643,0,0,0,0,0,0,0,0,0,-1,797,1667,0,0
-420,-643,0,0,0,0,0,0,0,0,0,-1,804,1667,0,0
-413,-643,0,0,0,0,0,0,0,0,0,-1,811,1667,0,0
-406,-643,0,0,0,0,0,0,0,0,0,-1,818,1667,0,0
-399,-643,-0.431519,4.78394,0,0,0,0,0,0,0,-1,825,1667,-0.43154,-4.7839
-392,-643,0.163696,5.12842,0,0,0,0,0,0,0,-1,832,1667,0.163683,-5.12846
-385,-643,0.856445,5.52576,0,0,0,0,0,0,0,-1,839,1667,0.856452,-5.5258
-378,-643,1.09711,5.47205,0,0,0,0,0,0,0,-1,846,1667,1.0971,-5.47201
-371,-643,1.61432,5.90405,0,0,0,0,0,0,0,-1,853,1667,1.61434,-5.90405
-364,-643,1.69116,6.33752,0,0,0,0,0,0,0,-1,860,1667,1.69116,-6.33755
-357,-643,1.87329,6.70349,0,0,0,0,0,0,0,-1,867,1667,1.87329,-6.70347
-350,-643,2.31396,6.49268,0,0,0,0,0,0,0,-1,874,1667,2.31398,-6.49273
-343,-643,2.53259,6.24561,0,0,0,0,0,0,0,-1,881,1667,2.5326,-6.24555
-336,-643,2.76605,5.65063,0,0,0,0,0,0,0,-1,888,1667,2.76605,-5.65064
-329,-643,2.73706,5.76831,0.00112586,-0.00982504,-0.00119039,0.00125376,-0.00995294,-0.107037,0.00709026,0.0382504,895,1667,2.73704,-5.76831
-322,-643,2.70752,5.85962,0.000770969,-0.00727416,-8.00946e-05,0.000771766,-0.00727496,-0.00995435,0.00512663,0.0245975,902,1667,2.70753,-5.85961
-315,-643,2.68774,5.96594,0.000968535,-0.00499262,0.000632196,0.00103484,-0.00505893,0.104504,0.00376527,0.0161443,909,1667,2.68773,-5.96599
-308,-643,2.68494,6.06494,0.000831637,-0.0035673,0.0010673,0.00107692,-0.00381258,0.225891,0.00296658,0.0120533,916,1667,2.68491,-6.06494
-301,-643,2.70947,6.16528,0.000472308,-0.00261938,0.00128349,0.000935689,-0.00308276,0.346469,0.00242793,0.0136531,923,1667,2.70945,-6.16527
-294,-643,2.71411,6.25342,0.000181924,-0.00172018,0.00133035,0.000866209,-0.00240447,0.475074,0.0019567,0.0120094,930,1667,2.71413,-6.25345
-287,-643,2.70032,6.35669,0.000169299,-0.00131968,0.00136538,0.000979971,-0.00213036,0.535799,0.00183623,0.00987095,937,1667,2.70033,-6.35674
-280,-643,2.69928,6.46362,0.000334828,-0.00137583,0.00128123,0.00102,-0.002061,0.491079,0.00181235,0.0136394,944,1667,2.69929,-6.4636
-273,-643,2.70239,6.55054,0.000642566,-0.00151571,0.00105534,0.00107283,-0.00194598,0.387125,0.00176704,0.0124504,951,1667,2.70238,-6.55053
-266,-643,2.70764,6.64136,0.000979771,-0.0016729,0.000868541,0.00123885,-0.00193198,0.289886,0.0018452,0.0117487,958,1667,2.70765,-6.64133
-259,-643,2.70062,6.7688,0.00118832,-0.00189976,0.000628154,0.0013112,-0.00202264,0.193188,0.00193935,0.0109756,965,1667,2.70064,-6.76884
-252,-643,2.69672,6.87292,0.00142323,-0.00208449,0.000456146,0.00148157,-0.00214284,0.127222,0.00210413,0.0121423,972,1667,2.69673,-6.87293
-245,-643,2.71527,6.97241,0.00165716,-0.0022456,0.000319716,0.00168318,-0.00227162,0.081199,0.00229171,0.0116029,979,1667,2.71525,-6.97247
-238,-643,2.75098,7.047,0.001777,-0.00238744,0.000182562,0.00178499,-0.00239543,0.0437266,0.00242212,0.0132589,986,1667,2.75097,-7.04698
-231,-643,2.70538,7.13684,0.00183652,-0.00241644,9.30964e-06,0.00183654,-0.00241646,0.00218897,0.00246307,0.00924764,993,1667,2.70537,-7.13686
-224,-643,2.69916,7.2207,0.00172017,-0.0025782,-0.000252292,0.00173492,-0.00259296,-0.0584275,0.00251502,0.00892292,1000,1667,2.69914,-7.22071
-217,-643,2.70428,7.28442,0.00147461,-0.00301351,-0.000575025,0.00154711,-0.00308601,-0.125423,0.00272368,0.00860316,1007,1667,2.70429,-7.28448
-210,-643,2.70233,7.36841,0.00117841,-0.00318072,-0.000778619,0.00131331,-0.00331562,-0.171554,0.00275459,0.0101437,1014,1667,2.70233,-7.36842
-203,-643,2.71686,7.45886,0.000803259,-0.00322046,-0.00113693,0.00110228,-0.00351948,-0.257186,0.00278737,0.0111782,1021,1667,2.71685,-7.45892
-196,-643,2.71033,7.54761,0.000511919,-0.00500215,-0.00236001,0.00138406,-0.00587428,-0.353982,0.00444988,0.0114249,1028,1667,2.71036,-7.54759
-189,-643,2.72986,7.62109,9.0946e-05,-0.0067574,-0.00318534,0.00134346,-0.00800992,-0.37464,0.00583951,0.0108416,1035,1667,2.72982,-7.62106
-182,-643,2.75342,7.68457,-0.000147433,-0.00769749,-0.00335275,0.00112648,-0.0089714,-0.363112,0.00638961,0.0168425,1042,1667,2.75343,-7.68462
-175,-643,2.79749,7.68726,0.000216713,-0.00783504,-0.00344097,0.00148687,-0.0091052,-0.353612,0.00662164,0.0301725,1049,1667,2.79745,-7.68731
-168,-643,2.76941,7.63098,0.000493022,-0.00875201,-0.00354985,0.00169881,-0.0099578,-0.327444,0.00727126,0.0384612,1056,1667,2.76936,-7.63098
-161,-643,2.73962,7.90112,0.000978345,-0.00962818,-0.00350851,0.00203387,-0.0106837,-0.292235,0.00788832,0.0464651,1063,1667,2.73967,-7.90116
-154,-643,2.39502,8.10291,0,0,0,0,0,0,0,-1,1070,1667,2.39506,-8.10285
-147,-643,2.28601,8.19153,0,0,0,0,0,0,0,-1,1077,1667,2.28596,-8.19152
-140,-643,2.44385,8.24744,0,0,0,0,0,0,0,-1,1084,1667,2.44385,-8.24746
-133,-643,2.66077,8.63293,0.00304907,-0.00991568,-0.00115563,0.00315127,-0.0100179,-0.0882095,0.00794026,0.0484868,1091,1667,2.66079,-8.63291
-126,-643,2.69214,8.83081,0.00309259,-0.0105464,-0.000291442,0.00309881,-0.0105526,-0.0213553,0.00826401,0.0461858,1098,1667,2.69213,-8.83085
-119,-643,2.83716,8.71924,0,0,0,0,0,0,0,-1,1105,1667,2.83715,-8.71925
-112,-643,3.07996,8.87183,0,0,0,0,0,0,0,-1,1112,1667,3.08001,-8.87179
-105,-643,-2.23413,10.0996,0,0,0,0,0,0,0,-1,1119,1667,-2.23415,-10.0996
-98,-643,3.11035,4.68066,0,0,0,0,0,0,0,-1,1126,1667,3.11041,-4.68071
-91,-643,4.66943,3.81995,0,0,0,0,0,0,0,-1,1133,1667,4.66945,-3.81998
-84,-643,-1.1543,2.42542,0,0,0,0,0,0,0,-1,1140,1667,-1.1543,-2.42538
-77,-643,-3.79578,1.74158,0,0,0,0,0,0,0,-1,1147,1667,-3.79576,-1.7416
-70,-643,-3.06824,3.4071,0.0674995,0.134657,0.177096,0.281329,-0.0791727,0.87909,0.218773,0.04451,1154,1667,-3.06822,-3.40713
-63,-643,-2.33569,5.0769,0.065781,0.139609,0.178732,0.285199,-0.079809,0.887233,0.22158,0.0457151,1161,1667,-2.33566,-5.07693
-56,-643,-2.25403,6.35156,0.0602334,0.13024,0.153732,0.252904,-0.0624303,0.897335,0.192812,0.0477101,1168,1667,-2.25403,-6.3516
-49,-643,-2.23364,7.88611,0,0,0,0,0,0,0,-1,1175,1667,-2.2337,-7.88608
-42,-643,-2.03088,5.67688,0,0,0,0,0,0,0,-1,1182,1667,-2.03085,-5.67693
-35,-643,-1.92261,6.76428,0,0,0,0,0,0,0,-1,1189,1667,-1.92256,-6.76424
-28,-643,-1.38513,5.604,0,0,0,0,0,0,0,-1,1196,1667,-1.3851,-5.60403
-21,-643,1.87842,6.39856,0,0,0,0,0,0,0,-1,1203,1667,1.87842,-6.39853
-14,-643,1.75659,8.77405,0,0,0,0,0,0,0,-1,1210,1667,1.75656,-8.77399
-7,-643,2.01831,9.30933,0.0431791,0.0496388,-0.00886151,0.0558407,0.0369772,-0.960157,0.0328002,0.0472648,1217,1667,2.0183,-9.30938
0,-643,2.31104,9.3252,0.0502116,0.0387988,-0.0238265,0.0690055,0.0200049,-0.667863,0.040996,0.043409,1224,1667,2.31103,-9.32516
7,-643,2.56689,9.32935,0.0635114,0.0359648,-0.0204239,0.0743722,0.025104,-0.48874,0.0436878,0.0411009,1231,1667,2.56692,-9.32931
14,-643,3.15613,9.5127,0.0713175,0.0333253,-0.0136549,0.075716,0.0289267,-0.311624,0.0441183,0.0412959,1238,1667,3.15609,-9.51267
21,-643,3.66846,9.31921,0.0772054,0.0299551,-0.00625223,0.0780187,0.0291418,-0.129356,0.0455219,0.0448428,1245,1667,3.66844,-9.3192
28,-643,3.92639,9.09351,0,0,0,0,0,0,0,-1,1252,1667,3.92643,-9.09347
35,-643,4.2002,8.7749,0,0,0,0,0,0,0,-1,1259,1667,4.20017,-8.77492
42,-643,5.33643,7.59558,0,0,0,0,0,0,0,-1,1266,1667,5.33639,-7.59557
49,-643,6.51111,7.4696,0.0879385,0.0142074,0.0249325,0.095578,0.00656791,0.297324,0.0616461,0.0450144,1273,1667,6.51114,-7.46962
56,-643,7.75305,7.33789,0.086821,0.0110365,0.0308506,0.0977917,6.58073e-05,0.34166,0.0651725,0.0450487,1280,1667,7.75301,-7.33792
63,-643,8.44775,7.21045,0.082267,0.00612471,0.0373189,0.0975074,-0.00911561,0.38771,0.0682467,0.043499,1287,1667,8.44772,-7.21045
70,-643,5.48096,7.9436,0.0755984,0.00288448,0.0428442,0.0954327,-0.0169498,0.433562,0.0699596,0.0466812,1294,1667,5.48094,-7.94365
77,-643,5.17188,8.30994,0.0665061,0.000723383,0.043509,0.0881571,-0.0209277,0.461744,0.0668483,0.0464234,1301,1667,5.17192,-8.30995
84,-643,6.76904,7.21741,0.0563543,0.000127235,0.0404532,0.0775037,-0.0210221,0.481729,0.0599186,0.0485266,1308,1667,6.7691,-7.21736
91,-643,9.53125,6.89441,0.046995,-0.000582871,0.0356368,0.0660534,-0.0196413,0.491095,0.0518382,0.0432216,1315,1667,9.53126,-6.89442
98,-643,9.66833,6.47778,0.0388288,-0.00143727,0.0290009,0.054,-0.0166085,0.48198,0.0426287,0.0434844,1322,1667,9.66834,-6.47774
105,-643,9.93762,6.41748,0.0319457,-0.00255915,0.0202078,0.041264,-0.0118774,0.432065,0.032207,0.0450707,1329,1667,9.93765,-6.41747
112,-643,9.9679,6.48816,0.0260234,-0.00404997,0.00997482,0.0290311,-0.00705765,0.292857,0.0220858,0.0459418,1336,1667,9.96793,-6.48815
119,-643,9.73389,6.40198,0,0,0,0,0,0,0,-1,1343,1667,9.73394,-6.40198
126,-643,3.87817,3.43579,0,0,0,0,0,0,0,-1,1350,1667,3.87819,-3.43576
133,-643,2.77063,3.26624,0,0,0,0,0,0,0,-1,1357,1667,2.77064,-3.26619
140,-643,2.67798,3.30054,0,0,0,0,0,0,0,-1,1364,1667,2.67795,-3.30052
147,-643,2.60962,3.4801,0,0,0,0,0,0,0,-1,1371,1667,2.60958,-3.48006
154,-643,2.91772,3.8761,0,0,0,0,0,0,0,-1,1378,1667,2.91776,-3.87607
161,-643,3.26477,4.26392,0,0,0,0,0,0,0,-1,1385,1667,3.26481,-4.26396
168,-643,5.33911,12.7233,0,0,0,0,0,0,0,-1,1392,1667,5.3391,-12.7233
175,-643,5.88525,-1.1698,0,0,0,0,0,0,0,-1,1399,1667,5.88526,1.16977
182,-643,5.80945,-0.418701,0,0,0,0,0,0,0,-1,1406,1667,5.80949,0.418712
189,-643,5.42297,12.9208,0,0,0,0,0,0,0,-1,1413,1667,5.42298,-12.9208
196,-643,5.51953,11.2415,0,0,0,0,0,0,0,-1,1420,1667,5.51948,-11.2414
203,-643,5.60828,9.82153,0,0,0,0,0,0,0,-1,1427,1667,5.60833,-9.82148
210,-643,4.73218,7.58728,0,0,0,0,0,0,0,-1,1434,1667,4.73222,-7.58728
217,-643,3.8031,5.28955,0,0,0,0,0,0,0,-1,1441,1667,3.80305,-5.28955
224,-643,2.96436,2.97095,0,0,0,0,0,0,0,-1,1448,1667,2.96432,-2.97095
231,-643,2.13403,1.08472,0,0,0,0,0,0,0,-1,1455,1667,2.13403,-1.08467
238,-643,1.18152,-0.261963,0,0,0,0,0,0,0,-1,1462,1667,1.18152,0.26192
245,-643,-0.157471,-1.79016,0,0,0,0,0,0,0,-1,1469,1667,-0.157517,1.7901
252,-643,8.08789,0.0202637,0,0,0,0,0,0,0,-1,1476,1667,8.08791,-0.0203056
259,-643,9.02979,-0.46936,0,0,0,0,0,0,0,-1,1483,1667,9.02974,0.46933
266,-643,4.55066,5.17554,0,0,0,0,0,0,0,-1,1490,1667,4.55063,-5.17556
273,-643,4.34363,6.56836,0,0,0,0,0,0,0,-1,1497,1667,4.34363,-6.5684
280,-643,4.26672,8.35278,0,0,0,0,0,0,0,-1,1504,1667,4.26678,-8.35282
287,-643,4.14709,8.25452,0,0,0,0,0,0,0,-1,1511,1667,4.14707,-8.25452
294,-643,4.23157,8.16858,0.0209614,-0.0288291,0.00170586,0.0210198,-0.0288874,0.0342072,0.0289331,0.0477864,1518,1667,4.23159,-8.16852
301,-643,4.19458,8.05212,0.0186547,-0.0251034,0.000729904,0.0186668,-0.0251156,0.0166742,0.025369,0.038572,1525,1667,4.19458,-8.05207
308,-643,4.21924,8.05225,0.0165243,-0.0212972,-0.000264861,0.0165262,-0.0212991,-0.00700244,0.0218963,0.0299906,1532,1667,4.21922,-8.05229
315,-643,4.22266,8.05859,0.0144937,-0.0175942,-0.00119116,0.0145379,-0.0176384,-0.0370537,0.0186057,0.0218309,1539,1667,4.2226,-8.05855
322,-643,4.21228,8.0293,0.0124185,-0.0139321,-0.00193972,0.0125605,-0.0140742,-0.0730871,0.0153858,0.0136629,1546,1667,4.21232,-8.02934
329,-643,4.2207,7.94336,0.0102049,-0.0105542,-0.0022966,0.0104559,-0.0108052,-0.108877,0.0122757,0.0109567,1553,1667,4.22069,-7.94339
336,-643,4.21204,7.88782,0.00826764,-0.00758205,-0.00249367,0.00865072,-0.00796513,-0.152428,0.00959588,0.0104302,1560,1667,4.21199,-7.88778
343,-643,4.20874,7.82532,0.0063993,-0.00513247,-0.00254696,0.00693678,-0.00566996,-0.207978,0.00729074,0.0137926,1567,1667,4.20869,-7.82529
350,-643,4.22742,7.72729,0.00483902,-0.00268176,-0.00257516,0.00563626,-0.003479,-0.30023,0.0053116,0.0135723,1574,1667,4.22743,-7.72729
357,-643,4.2301,7.65283,0.00365729,-0.00124243,-0.0024405,0.00466544,-0.00225058,-0.391742,0.00407329,0.01083,1581,1667,4.23007,-7.65288
364,-643,4.24585,7.58765,0.00257198,-0.000395552,-0.00209791,0.0036578,-0.00148137,-0.477608,0.00305451,0.00866014,1588,1667,4.24585,-7.58763
371,-643,4.25122,7.51196,0.00213197,-0.000370276,-0.00155041,0.00287311,-0.00111141,-0.445912,0.00237423,0.00788744,1595,1667,4.25118,-7.51201
378,-643,4.25403,7.44678,0.00153779,-0.000156006,-0.00100382,0.00200425,-0.00062246,-0.434993,0.00158493,0.0095152,1602,1667,4.25403,-7.44681
385,-643,4.27246,7.34106,0.00102049,-0.00017953,-0.000673397,0.00132241,-0.000481448,-0.421482,0.00107852,0.0141937,1609,1667,4.27249,-7.34107
392,-643,4.26086,7.24805,0.000659082,0.000130804,-0.000786212,0.00122434,-0.000434454,-0.62334,0.000993238,0.0157001,1616,1667,4.26088,-7.24799
399,-643,4.24951,7.19556,0.000284004,0.00070907,-0.000820927,0.00134453,-0.000351455,-0.912064,0.00103362,0.0135824,1623,1667,4.24953,-7.1956
406,-643,4.26367,7.0968,-0.00018349,0.00113622,-0.000813678,0.00152397,-0.000571242,-1.12609,0.00125067,0.0124934,1630,1667,4.26368,-7.0968
413,-643,4.26343,6.99146,-0.000828759,0.00135113,-0.000791822,0.00160839,-0.00108602,-1.25666,0.00156534,0.0191952,1637,1667,4.2634,-6.99151
420,-643,4.22534,6.91345,-0.00166151,0.0015706,-0.000731334,0.00172838,-0.00181928,-1.35831,0.00204847,0.0180234,1644,1667,4.22534,-6.91348
427,-643,4.24487,6.83777,-0.00248431,0.0017749,-0.000467154,0.00182553,-0.00253494,-1.46283,0.0025286,0.0145156,1651,1667,4.24493,-6.83782
434,-643,4.2572,6.7627,-0.00331135,0.00174625,-0.000230022,0.00175669,-0.00332179,-1.52544,0.00297811,0.0150875,1658,1667,4.25723,-6.76264
441,-643,4.28101,6.66138,-0.00414424,0.0014616,-4.77706e-06,0.00146161,-0.00414424,-1.56994,0.0033578,0.0140055,1665,1667,4.28103,-6.66132
448,-643,4.33142,6.55566,-0.00492823,0.000837384,0.000167072,0.000842221,-0.00493306,1.54185,0.00360242,0.0190397,1672,1667,4.33145,-6.55568
455,-643,4.24475,6.51343,-0.00569648,-1.39169e-05,0.00038186,1.16287e-05,-0.00572203,1.504,0.00381857,0.0270295,1679,1667,4.24476,-6.51346
462,-643,4.0918,6.35901,-0.00616575,-0.00104508,0.000478534,-0.00100075,-0.00621008,1.47841,0.00385007,0.0361323,1686,1667,4.09179,-6.35898
469,-643,3.91333,6.14087,-0.00647612,-0.00246192,0.00045569,-0.00241084,-0.0065272,1.45917,0.00381112,0.0413491,1693,1667,3.91329,-6.14091
476,-643,3.69043,5.90417,0,0,0,0,0,0,0,-1,1700,1667,3.69046,-5.90422
483,-643,4.67798,5.7301,0,0,0,0,0,0,0,-1,1707,1667,4.678,-5.73005
490,-643,4.46704,5.23877,0,0,0,0,0,0,0,-1,1714,1667,4.46698,-5.23882
497,-643,4.41211,4.95007,0,0,0,0,0,0,0,-1,1721,1667,4.41212,-4.95004
504,-643,3.63037,3.12671,0,0,0,0,0,0,0,-1,1728,1667,3.63035,-3.12671
511,-643,3.60388,5.36316,0,0,0,0,0,0,0,-1,1735,1667,3.60393,-5.36321
518,-643,7.40564,0.922607,0,0,0,0,0,0,0,-1,1742,1667,7.4057,-0.922598
525,-643,0,0,0,0,0,0,0,0,0,-1,1749,1667,0,0
532,-643,0,0,0,0,0,0,0,0,0,-1,1756,1667,0,0
539,-643,0,0,0,0,0,0,0,0,0,-1,1763,1667,0,0
546,-643,0,0,0,0,0,0,0,0,0,-1,1770,1667,0,0
553,-643,0,0,0,0,0,0,0,0,0,-1,1777,1667,0,0
560,-643,0,0,0,0,0,0,0,0,0,-1,1784,1667,0,0
567,-643,0,0,0,0,0,0,0,0,0,-1,1791,1667,0,0
574,-643,0,0,0,0,0,0,0,0,0,-1,1798,1667,0,0
581,-643,0,0,0,0,0,0,0,0,0,-1,1805,1667,0,0
588,-643,0,0,0,0,0,0,0,0,0,-1,1812,1667,0,0
595,-643,0,0,0,0,0,0,0,0,0,-1,1819,1667,0,0
602,-643,0,0,0,0,0,0,0,0,0,-1,1826,1667,0,0
609,-643,0,0,0,0,0,0,0,0,0,-1,1833,1667,0,0
616,-643,0,0,0,0,0,0,0,0,0,-1,1840,1667,0,0
623,-643,0,0,0,0,0,0,0,0,0,-1,1847,1667,0,0
630,-643,0,0,0,0,0,0,0,0,0,-1,1854,1667,0,0
637,-643,0,0,0,0,0,0,0,0,0,-1,1861,1667,0,0
644,-643,0,0,0,0,0,0,0,0,0,-1,1868,1667,0,0
651,-643,0,0,0,0,0,0,0,0,0,-1,1875,1667,0,0
658,-643,0,0,0,0,0,0,0,0,0,-1,1882,1667,0,0
665,-643,0,0,0,0,0,0,0,0,0,-1,1889,1667,0,0
672,-643,0,0,0,0,0,0,0,0,0,-1,1896,1667,0,0
679,-643,0,0,0,0,0,0,0,0,0,-1,1903,1667,0,0
686,-643,0,0,0,0,0,0,0,0,0,-1,1910,1667,0,0
693,-643,0,0,0,0,0,0,0,0,0,-1,1917,1667,0,0
700,-643,0,0,0,0,0,0,0,0,0,-1,1924,1667,0,0
707,-643,0,0,0,0,0,0,0,0,0,-1,1931,1667,0,0
714,-643,0,0,0,0,0,0,0,0,0,-1,1938,1667,0,0
721,-643,0,0,0,0,0,0,0,0,0,-1,1945,1667,0,0
728,-643,0,0,0,0,0,0,0,0,0,-1,1952,1667,0,0
735,-643,0,0,0,0,0,0,0,0,0,-1,1959,1667,0,0
742,-643,0,0,0,0,0,0,0,0,0,-1,1966,1667,0,0
749,-643,0,0,0,0,0,0,0,0,0,-1,1973,1667,0,0
756,-643,0,0,0,0,0,0,0,0,0,-1,1980,1667,0,0
763,-643,0,0,0,0,0,0,0,0,0,-1,1987,1667,0,0
770,-643,0,0,0,0,0,0,0,0,0,-1,1994,1667,0,0
777,-643,0,0,0,0,0,0,0,0,0,-1,2001,1667,0,0
784,-643,0,0,0,0,0,0,0,0,0,-1,2008,1667,0,0
791,-643,0,0,0,0,0,0,0,0,0,-1,2015,1667,0,0
798,-643,0,0,0,0,0,0,0,0,0,-1,2022,1667,0,0
805,-643,0,0,0,0,0,0,0,0,0,-1,2029,1667,0,0
812,-643,0,0,0,0,0,0,0,0,0,-1,2036,1667,0,0
-700,-650,0,0,0,0,0,0,0,0,0,-1,524,1674,0,0
-693,-650,0,0,0,0,0,0,0,0,0,-1,531,1674,0,0
-686,-650,0,0,0,0,0,0,0,0,0,-1,538,1674,0,0
-679,-650,0,0,0,0,0,0,0,0,0,-1,545,1674,0,0
-672,-650,0,0,0,0,0,0,0,0,0,-1,552,1674,0,0
-665,-650,0,0,0,0,0,0,0,0,0,-1,559,1674,0,0
-658,-650,0,0,0,0,0,0,0,0,0,-1,566,1674,0,0
-651,-650,0,0,0,0,0,0,0,0,0,-1,573,1674,0,0
-644,-650,0,0,0,0,0,0,0,0,0,-1,580,1674,0,0
-637,-650,0,0,0,0,0,0,0,0,0,-1,587,1674,0,0
-630,-650,0,0,0,0,0,0,0,0,0,-1,594,1674,0,0
-623,-650,0,0,0,0,0,0,0,0,0,-1,601,1674,0,0
-616,-650,0,0,0,0,0,0,0,0,0,-1,608,1674,0,0
-609,-650,0,0,0,0,0,0,0,0,0,-1,615,1674,0,0
-602,-650,0,0,0,0,0,0,0,0,0,-1,622,1674,0,0
-595,-650,0,0,0,0,0,0,0,0,0,-1,629,1674,0,0
-588,-650,0,0,0,0,0,0,0,0,0,-1,636,1674,0,0
-581,-650,0,0,0,0,0,0,0,0,0,-1,643,1674,0,0
-574,-650,0,0,0,0,0,0,0,0,0,-1,650,1674,0,0
-567,-650,0,0,0,0,0,0,0,0,0,-1,657,1674,0,0
-560,-650,0,0,0,0,0,0,0,0,0,-1,664,1674,0,0
-553,-650,0,0,0,0,0,0,0,0,0,-1,671,1674,0,0
-546,-650,0,0,0,0,0,0,0,0,0,-1,678,1674,0,0
-539,-650,0,0,0,0,0,0,0,0,0,-1,685,1674,0,0
-532,-650,0,0,0,0,0,0,0,0,0,-1,692,1674,0,0
-525,-650,0,0,0,0,0,0,0,0,0,-1,699,1674,0,0
-518,-650,0,0,0,0,0,0,0,0,0,-1,706,1674,0,0
-511,-650,0,0,0,0,0,0,0,0,0,-1,713,1674,0,0
-504,-650,0,0,0,0,0,0,0,0,0,-1,720,1674,0,0
-497,-650,0,0,0,0,0,0,0,0,0,-1,727,1674,0,0
-490,-650,0,0,0,0,0,0,0,0,0,-1,734,1674,0,0
-483,-650,0,0,0,0,0,0,0,0,0,-1,741,1674,0,0
-476,-650,0,0,0,0,0,0,0,0,0,-1,748,1674,0,0
-469,-650,0,0,0,0,0,0,0,0,0,-1,755,1674,0,0
-462,-650,0,0,0,0,0,0,0,0,0,-1,762,1674,0,0
-455,-650,0,0,0,0,0,0,0,0,0,-1,769,1674,0,0
-448,-650,0,0,0,0,0,0,0,0,0,-1,776,1674,0,0
-441,-650,0,0,0,0,0,0,0,0,0,-1,783,1674,0,0
-434,-650,0,0,0,0,0,0,0,0,0,-1,790,1674,0,0
-427,-650,0,0,0,0,0,0,0,0,0,-1,797,1674,0,0
-420,-650,0,0,0,0,0,0,0,0,0,-1,804,1674,0,0
-413,-650,0,0,0,0,0,0,0,0,0,-1,811,1674,0,0
-406,-650,0,0,0,0,0,0,0,0,0,-1,818,1674,0,0
-399,-650,0,0,0,0,0,0,0,0,0,-1,825,1674,0,0
-392,-650,-0.0296021,5.58276,0,0,0,0,0,0,0,-1,832,1674,-0.0296316,-5.58275
-385,-650,0.707886,6.06665,0,0,0,0,0,0,0,-1,839,1674,0.70788,-6.0667
-378,-650,0.741028,5.36621,0,0,0,0,0,0,0,-1,846,1674,0.741015,-5.3662
-371,-650,0.71637,5.08704,0,0,0,0,0,0,0,-1,853,1674,0.716362,-5.08709
-364,-650,1.33069,6.25476,0,0,0,0,0,0,0,-1,860,1674,1.33071,-6.25472
-357,-650,1.84406,6.41174,0,0,0,0,0,0,0,-1,867,1674,1.84406,-6.41169
-350,-650,2.40662,6.9209,0,0,0,0,0,0,0,-1,874,1674,2.40662,-6.92087
-343,-650,2.9007,6.82898,0,0,0,0,0,0,0,-1,881,1674,2.90069,-6.82896
-336,-650,2.16669,3.91382,0,0,0,0,0,0,0,-1,888,1674,2.16667,-3.91385
-329,-650,2.89563,5.92285,0,0,0,0,0,0,0,-1,895,1674,2.89564,-5.92287
-322,-650,2.85559,5.89063,-0.00033035,-0.00791399,0.000720288,-0.000262544,-0.00798179,0.0938609,0.00523588,0.0433938,902,1674,2.85557,-5.89063
-315,-650,2.79779,5.90991,-0.000224865,-0.00518717,0.00152349,0.000205534,-0.00561757,0.275334,0.0038154,0.0376918,909,1674,2.79781,-5.90986
-308,-650,2.77625,6.05078,-0.000466104,-0.0034487,0.0019761,0.000518264,-0.00443307,0.462157,0.00314241,0.0215843,916,1674,2.77625,-6.05078
-301,-650,2.78406,6.16797,-0.000933463,-0.00233926,0.00219616,0.00066954,-0.00394226,0.63052,0.00287744,0.0117849,923,1674,2.78406,-6.16799
-294,-650,2.80035,6.24011,-0.001272,-0.00125511,0.00223021,0.000966672,-0.00349377,0.787291,0.00270951,0.00939847,930,1674,2.80035,-6.24006
-287,-650,2.79938,6.34326,-0.00124136,-0.000728477,0.00221796,0.00124782,-0.00321765,0.842953,0.00266044,0.012206,937,1674,2.79937,-6.34323
-280,-650,2.79077,6.43616,-0.000950728,-0.000659267,0.00209097,0.00129105,-0.00290104,0.820189,0.00247909,0.0134434,944,1674,2.79078,-6.43618
-273,-650,2.78687,6.54187,-0.000515526,-0.000654124,0.00180637,0.00122288,-0.00239253,0.766226,0.00212345,0.0132572,951,1674,2.78686,-6.54193
-266,-650,2.77881,6.66528,-5.69232e-05,-0.000693364,0.00154666,0.00120392,-0.0019542,0.683941,0.00184041,0.0111115,958,1674,2.77879,-6.66522
-259,-650,2.76569,6.75427,0.000247505,-0.000832603,0.00119946,0.00102288,-0.00160798,0.573868,0.0015314,0.0136237,965,1674,2.76571,-6.75423
-252,-650,2.77704,6.84497,0.000573688,-0.000926434,0.000936234,0.00102326,-0.00137601,0.447678,0.0013902,0.0123127,972,1674,2.77703,-6.84493
-245,-650,2.79651,6.94312,0.000893758,-0.00100916,0.00070231,0.00112489,-0.00124028,0.317934,0.00136607,0.0113875,979,1674,2.79649,-6.94308
-238,-650,2.79791,7.01465,0.00106369,-0.00111433,0.000468358,0.00116013,-0.00121078,0.203081,0.00136895,0.0119985,986,1674,2.79789,-7.01461
-231,-650,2.78754,7.11816,0.00115969,-0.00116932,0.000241914,0.00118455,-0.00119418,0.102413,0.00137337,0.0154256,993,1674,2.78754,-7.1182
-224,-650,2.78632,7.22986,0.00117791,-0.00135972,-4.25959e-05,0.00117863,-0.00136044,-0.0167794,0.00146718,0.0132492,1000,1674,2.78633,-7.2299
-217,-650,2.79858,7.30115,0.00101985,-0.00173279,-0.000375889,0.00107026,-0.0017832,-0.133305,0.00166449,0.00917512,1007,1674,2.79856,-7.3012
-210,-650,2.79932,7.37659,0.000736322,-0.00193203,-0.000577522,0.000855954,-0.00205166,-0.204258,0.00172538,0.00847455,1014,1674,2.79934,-7.37654
-203,-650,2.80035,7.46228,0.000435664,-0.00209961,-0.000866637,0.000703593,-0.00236754,-0.299839,0.00185785,0.0124765,1021,1674,2.80036,-7.46222
-196,-650,2.79602,7.54175,0.000231831,-0.00346879,-0.0017897,0.000955752,-0.00419271,-0.384374,0.00316224,0.0127913,1028,1674,2.79602,-7.54179
-189,-650,2.80103,7.61511,-4.1535e-05,-0.00475553,-0.00245846,0.00100727,-0.00580434,-0.403233,0.00424533,0.0103737,1035,1674,2.80097,-7.61507
-182,-650,2.81604,7.70569,-0.000154517,-0.00545077,-0.00271208,0.000987863,-0.00659315,-0.398664,0.00475902,0.00879953,1042,1674,2.81607,-7.70572
-175,-650,2.83618,7.78186,0.000178975,-0.00554371,-0.00293609,0.00141737,-0.00678211,-0.399145,0.00506047,0.0132767,1049,1674,2.83616,-7.78183
-168,-650,2.82703,7.86267,0.000457108,-0.00619608,-0.00316232,0.00172034,-0.00745931,-0.380043,0.00563455,0.0194531,1056,1674,2.82708,-7.8627
-161,-650,2.73511,7.95081,0.00093418,-0.00677759,-0.00322872,0.00210746,-0.00795087,-0.348552,0.00612514,0.0289522,1063,1674,2.73507,-7.95075
-154,-650,2.65955,8.05762,0.00156164,-0.00703122,-0.00311578,0.00257251,-0.00804209,-0.31372,0.0063938,0.0331079,1070,1674,2.65958,-8.05766
-147,-650,2.62146,8.12952,0.00211386,-0.00687801,-0.00278996,0.00290917,-0.00767333,-0.277697,0.00631282,0.0413791,1077,1674,2.62144,-8.12947
-140,-650,2.69226,8.19409,0.00252182,-0.00692808,-0.00236303,0.00307978,-0.00748604,-0.231871,0.0062745,0.0469153,1084,1674,2.69225,-8.19408
-133,-650,2.79468,8.37439,0.00264699,-0.00765012,-0.00197392,0.00301242,-0.00801554,-0.183055,0.00658178,0.0468091,1091,1674,2.79465,-8.37445
-126,-650,2.96191,8.56287,0.00265145,-0.00870076,-0.0014806,0.00284138,-0.00889069,-0.127581,0.00706728,0.0474147,1098,1674,2.96195,-8.56289
-119,-650,3.02112,8.74951,0,0,0,0,0,0,0,-1,1105,1674,3.02107,-8.74951
-112,-650,3.81055,7.34387,0,0,0,0,0,0,0,-1,1112,1674,3.81057,-7.34386
-105,-650,2.9541,7.02637,0,0,0,0,0,0,0,-1,1119,1674,2.95411,-7.02639
-98,-650,3.3761,6.78003,0,0,0,0,0,0,0,-1,1126,1674,3.37611,-6.78009
-91,-650,3.66809,7.04443,0,0,0,0,0,0,0,-1,1133,1674,3.66806,-7.04439
-84,-650,-4.96826,-0.0318604,0,0,0,0,0,0,0,-1,1140,1674,-4.96822,0.03191
-77,-650,-4.50671,1.20337,0,0,0,0,0,0,0,-1,1147,1674,-4.50669,-1.20342
-70,-650,-3.98755,2.51099,0.0505975,0.108195,0.14169,0.223983,-0.0651905,0.885659,0.175144,0.0474642,1154,1674,-3.98756,-2.51096
-63,-650,-3.33655,4.0907,0.0488269,0.109322,0.139662,0.221975,-0.0638258,0.892039,0.173223,0.0476377,1161,1674,-3.33659,-4.09071
-56,-650,-3.14148,5.75623,0.0446902,0.101117,0.119008,0.195211,-0.0494032,0.901785,0.149357,0.0453981,1168,1674,-3.14144,-5.75628
-49,-650,-3.04346,7.79248,0,0,0,0,0,0,0,-1,1175,1674,-3.04342,-7.79253
-42,-650,-2.50317,3.91138,0,0,0,0,0,0,0,-1,1182,1674,-2.50317,-3.91132
-35,-650,-1.72156,5.59375,0,0,0,0,0,0,0,-1,1189,1674,-1.72156,-5.5938
-28,-650,-1.0929,7.5481,0,0,0,0,0,0,0,-1,1196,1674,-1.0929,-7.54813
-21,-650,2.41675,8.57214,0,0,0,0,0,0,0,-1,1203,1674,2.41677,-8.57215
-14,-650,2.40796,8.73962,0.0369986,0.0513869,0.0116283,0.0578665,0.0305189,1.06242,0.033426,0.0498916,1210,1674,2.40795,-8.73958
-7,-650,2.4408,8.98401,0.0366146,0.0392847,-0.00776464,0.0458282,0.0300711,-0.870534,0.0268857,0.0483011,1217,1674,2.44086,-8.98401
0,-650,2.66907,9.13684,0.0430304,0.028943,-0.0198811,0.0570787,0.0148948,-0.615152,0.0341868,0.042238,1224,1674,2.66906,-9.1369
7,-650,3.08862,9.13831,0.053815,0.0254965,-0.0168915,0.0616968,0.0176147,-0.436583,0.036697,0.0415343,1231,1674,3.0886,-9.13825
14,-650,3.62598,9.04919,0.0611268,0.0226793,-0.0107663,0.0639363,0.0198697,-0.255263,0.0377846,0.0404754,1238,1674,3.62598,-9.04923
21,-650,4.10657,8.55859,0.06657,0.0195267,-0.00391651,0.0668938,0.0192029,-0.0824965,0.0397714,0.0405446,1245,1674,4.10658,-8.55856
28,-650,4.06616,8.13159,0,0,0,0,0,0,0,-1,1252,1674,4.0661,-8.13153
35,-650,3.91479,8.25122,0.0747475,0.0132674,0.0120378,0.0770205,0.0109944,0.186622,0.0481028,0.0448024,1259,1674,3.91483,-8.25118
42,-650,4.97852,7.94958,0,0,0,0,0,0,0,-1,1266,1674,4.97853,-7.94963
49,-650,6.0564,7.60986,0.0779424,0.00563827,0.0255515,0.0860605,-0.00247988,0.307631,0.0582179,0.0435107,1273,1674,6.05639,-7.60991
56,-650,7.16626,7.30566,0.0766713,0.00312069,0.0314019,0.0882541,-0.00846208,0.353373,0.06185,0.0466425,1280,1674,7.16629,-7.30568
63,-650,4.83105,7.36328,0.0723876,-0.000319373,0.0373149,0.0881299,-0.0160617,0.399224,0.0647744,0.0451151,1287,1674,4.83104,-7.36327
70,-650,4.78906,7.97766,0.0665155,-0.00225574,0.0422296,0.0865882,-0.0223285,0.443712,0.0664311,0.0468418,1294,1674,4.78903,-7.97766
77,-650,4.59497,8.62085,0.0589563,-0.00322941,0.0431379,0.081039,-0.0253122,0.473131,0.0641502,0.0463402,1301,1674,4.59493,-8.62087
84,-650,6.21106,7.48694,0.0504334,-0.00290514,0.0407351,0.072453,-0.0249247,0.495562,0.0584106,0.0491255,1308,1674,6.21109,-7.48692
91,-650,6.2373,8.03394,0,0,0,0,0,0,0,-1,1315,1674,6.23727,-8.03391
98,-650,6.29395,8.57227,0,0,0,0,0,0,0,-1,1322,1674,6.2939,-8.57226
105,-650,9.78967,6.31628,0.0297297,-0.00292286,0.0245375,0.0428761,-0.0160692,0.491849,0.0351856,0.0430899,1329,1674,9.78961,-6.31635
112,-650,9.50122,6.5675,0.0249759,-0.00375381,0.0167698,0.0326921,-0.01147,0.431244,0.0264602,0.0431613,1336,1674,9.50124,-6.56756
119,-650,9.2478,6.5293,0,0,0,0,0,0,0,-1,1343,1674,9.2478,-6.52928
126,-650,3.73157,4.83435,0,0,0,0,0,0,0,-1,1350,1674,3.73155,-4.83437
133,-650,3.94495,4.7865,0,0,0,0,0,0,0,-1,1357,1674,3.94499,-4.78646
140,-650,2.3042,7.83447,0,0,0,0,0,0,0,-1,1364,1674,2.30424,-7.83446
147,-650,1.33008,4.18188,0,0,0,0,0,0,0,-1,1371,1674,1.33009,-4.18184
154,-650,2.49377,4.81494,0,0,0,0,0,0,0,-1,1378,1674,2.4938,-4.81496
161,-650,3.78528,5.60352,0,0,0,0,0,0,0,-1,1385,1674,3.78524,-5.60355
168,-650,4.78601,7.62402,0,0,0,0,0,0,0,-1,1392,1674,4.78605,-7.62397
175,-650,5.62537,-0.230713,0,0,0,0,0,0,0,-1,1399,1674,5.62538,0.230745
182,-650,5.56006,0.421631,0,0,0,0,0,0,0,-1,1406,1674,5.56,-0.421652
189,-650,4.81543,11.0654,0,0,0,0,0,0,0,-1,1413,1674,4.81542,-11.0654
196,-650,5.39575,11.9077,0,0,0,0,0,0,0,-1,1420,1674,5.39575,-11.9078
203,-650,3.93628,11.8215,0,0,0,0,0,0,0,-1,1427,1674,3.93624,-11.8216
210,-650,5.40955,8.08594,0,0,0,0,0,0,0,-1,1434,1674,5.40958,-8.086
217,-650,5.12451,4.69739,0,0,0,0,0,0,0,-1,1441,1674,5.12451,-4.69738
224,-650,4.79041,1.45813,0,0,0,0,0,0,0,-1,1448,1674,4.79046,-1.45816
231,-650,4.04102,-0.642212,0,0,0,0,0,0,0,-1,1455,1674,4.04101,0.642209
238,-650,3.23022,-1.43396,0,0,0,0,0,0,0,-1,1462,1674,3.23023,1.43394
245,-650,1.65894,-2.55042,0,0,0,0,0,0,0,-1,1469,1674,1.65889,2.55036
252,-650,8.75342,0.355103,0,0,0,0,0,0,0,-1,1476,1674,8.75337,-0.355147
259,-650,5.61255,3.17566,0,0,0,0,0,0,0,-1,1483,1674,5.61257,-3.17572
266,-650,4.00403,6.10229,0,0,0,0,0,0,0,-1,1490,1674,4.00401,-6.10225
273,-650,4.1593,8.75452,0,0,0,0,0,0,0,-1,1497,1674,4.15927,-8.75451
280,-650,4.15674,8.34583,0.0183143,-0.0257855,0.00148539,0.0183643,-0.0258354,0.0336315,0.02564,0.0472511,1504,1674,4.1567,-8.34583
287,-650,4.11389,8.23462,0.0163156,-0.023288,0.00101825,0.0163417,-0.0233142,0.0256885,0.023013,0.0452072,1511,1674,4.11388,-8.2346
294,-650,4.20898,8.1897,0.0144188,-0.0206303,0.000432157,0.0144241,-0.0206356,0.0123275,0.0203474,0.0375691,1518,1674,4.209,-8.18974
301,-650,4.07568,8.078,0.0126915,-0.0178158,-0.00022758,0.0126932,-0.0178175,-0.00745929,0.017698,0.0276997,1525,1674,4.07563,-8.07801
308,-650,4.1012,8.06665,0.0111143,-0.0149501,-0.000872869,0.0111435,-0.0149793,-0.033439,0.0151361,0.0154807,1532,1674,4.10116,-8.06663
315,-650,4.12183,8.08118,0.00964103,-0.0121767,-0.00145903,0.00973817,-0.0122738,-0.0664792,0.0127367,0.00938609,1539,1674,4.12177,-8.08117
322,-650,4.13208,8.01611,0.00821059,-0.00951558,-0.00190906,0.00841386,-0.00971885,-0.106076,0.010478,0.00891585,1546,1674,4.13204,-8.0161
329,-650,4.14368,7.91382,0.00668936,-0.00709272,-0.00205653,0.00698968,-0.00739305,-0.145011,0.00830496,0.0145367,1553,1674,4.14362,-7.9138
336,-650,4.14319,7.87109,0.00540424,-0.00496985,-0.00210355,0.00581455,-0.00538015,-0.192636,0.00646489,0.0134672,1560,1674,4.14323,-7.87109
343,-650,4.14148,7.81287,0.00423494,-0.00329733,-0.00206123,0.0047621,-0.00382449,-0.250387,0.00496732,0.0140183,1567,1674,4.14145,-7.81289
350,-650,4.17004,7.7074,0.00325468,-0.00166852,-0.00202092,0.00397798,-0.00239182,-0.343701,0.00371541,0.0163719,1574,1674,4.17003,-7.70739
357,-650,4.16321,7.63232,0.00254204,-0.000781352,-0.00186575,0.0033788,-0.0016181,-0.42159,0.00294405,0.0130565,1581,1674,4.16319,-7.63229
364,-650,4.15222,7.57947,0.00190947,-0.000188712,-0.00167755,0.00283896,-0.0011182,-0.505965,0.00235557,0.00887094,1588,1674,4.15219,-7.57944
371,-650,4.16052,7.50659,0.00159315,-8.16507e-05,-0.00140011,0.00238717,-0.000875672,-0.515888,0.00195002,0.01098,1595,1674,4.16054,-7.50656
378,-650,4.15955,7.42712,0.0011699,0.000206659,-0.00114533,0.00193075,-0.000554192,-0.586368,0.00150627,0.011569,1602,1674,4.15955,-7.42709
385,-650,4.15613,7.33472,0.000770917,0.000346682,-0.0010417,0.00162187,-0.000504273,-0.684958,0.00128281,0.012216,1609,1674,4.15607,-7.33469
392,-650,4.15491,7.25818,0.000391502,0.000750115,-0.001248,0.00183162,-0.000690008,-0.856747,0.00150478,0.0164497,1616,1674,4.15494,-7.2582
399,-650,4.15698,7.20471,-2.58615e-05,0.00142715,-0.00131868,0.00220621,-0.000804918,-1.03718,0.00180013,0.015866,1623,1674,4.15703,-7.2047
406,-650,4.16296,7.11499,-0.000559629,0.00195057,-0.00132289,0.00251901,-0.00112808,-1.16495,0.00215609,0.0143458,1630,1674,4.16297,-7.11497
413,-650,4.16797,7.0144,-0.00130612,0.0022449,-0.0013115,0.00267675,-0.00173797,-1.25269,0.00256798,0.0144283,1637,1674,4.16799,-7.01435
420,-650,4.1427,6.91077,-0.00229752,0.00252802,-0.0012631,0.00283864,-0.00260814,-1.32966,0.00314564,0.0144293,1644,1674,4.1427,-6.91081
427,-650,4.14368,6.84338,-0.00333538,0.00280226,-0.0009733,0.00295291,-0.00348602,-1.41724,0.00372176,0.0143489,1651,1674,4.14364,-6.84333
434,-650,4.14587,6.75745,-0.00442959,0.00284829,-0.000687203,0.00291261,-0.00449391,-1.47747,0.00430852,0.017362,1658,1674,4.14585,-6.7574
441,-650,4.15686,6.60266,-0.00552414,0.00246086,-0.000384916,0.00247937,-0.00554265,-1.52274,0.00474274,0.0274627,1665,1674,4.15685,-6.6027
448,-650,3.94214,6.5343,-0.00663627,0.00161649,-0.000107764,0.00161789,-0.00663768,-1.55774,0.00505153,0.0386533,1672,1674,3.94217,-6.53425
455,-650,3.9541,6.64282,-0.00784872,0.000497287,0.000256323,0.000505152,-0.00785659,1.54012,0.00541397,0.0430339,1679,1674,3.95411,-6.64288
462,-650,3.96448,6.65723,-0.00867015,-0.000930154,0.000413758,-0.000908098,-0.0086922,1.51754,0.00551707,0.0493024,1686,1674,3.96444,-6.65719
469,-650,3.81348,6.27356,-0.00927581,-0.00296473,0.00042559,-0.00293616,-0.00930438,1.50377,0.00549236,0.0495636,1693,1674,3.81345,-6.27359
476,-650,3.2876,6.08167,0,0,0,0,0,0,0,-1,1700,1674,3.28754,-6.08167
483,-650,3.09717,5.36365,0,0,0,0,0,0,0,-1,1707,1674,3.09713,-5.36365
490,-650,2.79614,5.35547,0,0,0,0,0,0,0,-1,1714,1674,2.79609,-5.35545
497,-650,2.52136,5.66931,0,0,0,0,0,0,0,-1,1721,1674,2.52139,-5.66931
504,-650,3.92871,4.44788,0,0,0,0,0,0,0,-1,1728,1674,3.92872,-4.44782
511,-650,3.64209,4.65881,0,0,0,0,0,0,0,-1,1735,1674,3.64206,-4.65875
518,-650,0,0,0,0,0,0,0,0,0,-1,1742,1674,0,0
525,-650,0,0,0,0,0,0,0,0,0,-1,1749,1674,0,0
532,-650,0,0,0,0,0,0,0,0,0,-1,1756,1674,0,0
539,-650,0,0,0,0,0,0,0,0,0,-1,1763,1674,0,0
546,-650,0,0,0,0,0,0,0,0,0,-1,1770,1674,0,0
553,-650,0,0,0,0,0,0,0,0,0,-1,1777,1674,0,0
560,-650,0,0,0,0,0,0,0,0,0,-1,1784,1674,0,0
567,-650,0,0,0,0,0,0,0,0,0,-1,1791,1674,0,0
574,-650,0,0,0,0,0,0,0,0,0,-1,1798,1674,0,0
581,-650,0,0,0,0,0,0,0,0,0,-1,1805,1674,0,0
588,-650,0,0,0,0,0,0,0,0,0,-1,1812,1674,0,0
595,-650,0,0,0,0,0,0,0,0,0,-1,1819,1674,0,0
602,-650,0,0,0,0,0,0,0,0,0,-1,1826,1674,0,0
609,-650,0,0,0,0,0,0,0,0,0,-1,1833,1674,0,0
616,-650,0,0,0,0,0,0,0,0,0,-1,1840,1674,0,0
623,-650,0,0,0,0,0,0,0,0,0,-1,1847,1674,0,0
630,-650,0,0,0,0,0,0,0,0,0,-1,1854,1674,0,0
637,-650,0,0,0,0,0,0,0,0,0,-1,1861,1674,0,0
644,-650,0,0,0,0,0,0,0,0,0,-1,1868,1674,0,0
651,-650,0,0,0,0,0,0,0,0,0,-1,1875,1674,0,0
658,-650,0,0,0,0,0,0,0,0,0,-1,1882,1674,0,0
665,-650,0,0,0,0,0,0,0,0,0,-1,1889,1674,0,0
672,-650,0,0,0,0,0,0,0,0,0,-1,1896,1674,0,0
679,-650,0,0,0,0,0,0,0,0,0,-1,1903,1674,0,0
686,-650,0,0,0,0,0,0,0,0,0,-1,1910,1674,0,0
693,-650,0,0,0,0,0,0,0,0,0,-1,1917,1674,0,0
700,-650,0,0,0,0,0,0,0,0,0,-1,1924,1674,0,0
707,-650,0,0,0,0,0,0,0,0,0,-1,1931,1674,0,0
714,-650,0,0,0,0,0,0,0,0,0,-1,1938,1674,0,0
721,-650,0,0,0,0,0,0,0,0,0,-1,1945,1674,0,0
728,-650,0,0,0,0,0,0,0,0,0,-1,1952,1674,0,0
735,-650,0,0,0,0,0,0,0,0,0,-1,1959,1674,0,0
742,-650,0,0,0,0,0,0,0,0,0,-1,1966,1674,0,0
749,-650,0,0,0,0,0,0,0,0,0,-1,1973,1674,0,0
756,-650,0,0,0,0,0,0,0,0,0,-1,1980,1674,0,0
763,-650,0,0,0,0,0,0,0,0,0,-1,1987,1674,0,0
770,-650,0,0,0,0,0,0,0,0,0,-1,1994,1674,0,0
777,-650,0,0,0,0,0,0,0,0,0,-1,2001,1674,0,0
784,-650,0,0,0,0,0,0,0,0,0,-1,2008,1674,0,0
791,-650,0,0,0,0,0,0,0,0,0,-1,2015,1674,0,0
798,-650,0,0,0,0,0,0,0,0,0,-1,2022,1674,0,0
805,-650,0,0,0,0,0,0,0,0,0,-1,2029,1674,0,0
812,-650,0,0,0,0,0,0,0,0,0,-1,2036,1674,0,0
-700,-657,0,0,0,0,0,0,0,0,0,-1,524,1681,0,0
-693,-657,0,0,0,0,0,0,0,0,0,-1,531,1681,0,0
-686,-657,0,0,0,0,0,0,0,0,0,-1,538,1681,0,0
-679,-657,0,0,0,0,0,0,0,0,0,-1,545,1681,0,0
-672,-657,0,0,0,0,0,0,0,0,0,-1,552,1681,0,0
-665,-657,0,0,0,0,0,0,0,0,0,-1,559,1681,0,0
-658,-657,0,0,0,0,0,0,0,0,0,-1,566,1681,0,0
-651,-657,0,0,0,0,0,0,0,0,0,-1,573,1681,0,0
-644,-657,0,0,0,0,0,0,0,0,0,-1,580,1681,0,0
-637,-657,0,0,0,0,0,0,0,0,0,-1,587,1681,0,0
-630,-657,0,0,0,0,0,0,0,0,0,-1,594,1681,0,0
-623,-657,0,0,0,0,0,0,0,0,0,-1,601,1681,0,0
-616,-657,0,0,0,0,0,0,0,0,0,-1,608,1681,0,0
-609,-657,0,0,0,0,0,0,0,0,0,-1,615,1681,0,0
-602,-657,0,0,0,0,0,0,0,0,0,-1,622,1681,0,0
-595,-657,0,0,0,0,0,0,0,0,0,-1,629,1681,0,0
-588,-657,0,0,0,0,0,0,0,0,0,-1,636,1681,0,0
-581,-657,0,0,0,0,0,0,0,0,0,-1,643,1681,0,0
-574,-657,0,0,0,0,0,0,0,0,0,-1,650,1681,0,0
-567,-657,0,0,0,0,0,0,0,0,0,-1,657,1681,0,0
-560,-657,0,0,0,0,0,0,0,0,0,-1,664,1681,0,0
-553,-657,0,0,0,0,0,0,0,0,0,-1,671,1681,0,0
-546,-657,0,0,0,0,0,0,0,0,0,-1,678,1681,0,0
-539,-657,0,0,0,0,0,0,0,0,0,-1,685,1681,0,0
-532,-657,0,0,0,0,0,0,0,0,0,-1,692,1681,0,0
-525,-657,0,0,0,0,0,0,0,0,0,-1,699,1681,0,0
-518,-657,0,0,0,0,0,0,0,0,0,-1,706,1681,0,0
-511,-657,0,0,0,0,0,0,0,0,0,-1,713,1681,0,0
-504,-657,0,0,0,0,0,0,0,0,0,-1,720,1681,0,0
-497,-657,0,0,0,0,0,0,0,0,0,-1,727,1681,0,0
-490,-657,0,0,0,0,0,0,0,0,0,-1,734,1681,0,0
-483,-657,0,0,0,0,0,0,0,0,0,-1,741,1681,0,0
-476,-657,0,0,0,0,0,0,0,0,0,-1,748,1681,0,0
-469,-657,0,0,0,0,0,0,0,0,0,-1,755,1681,0,0
-462,-657,0,0,0,0,0,0,0,0,0,-1,762,1681,0,0
-455,-657,0,0,0,0,0,0,0,0,0,-1,769,1681,0,0
-448,-657,0,0,0,0,0,0,0,0,0,-1,776,1681,0,0
-441,-657,0,0,0,0,0,0,0,0,0,-1,783,1681,0,0
-434,-657,0,0,0,0,0,0,0,0,0,-1,790,1681,0,0
-427,-657,0,0,0,0,0,0,0,0,0,-1,797,1681,0,0
-420,-657,0,0,0,0,0,0,0,0,0,-1,804,1681,0,0
-413,-657,0,0,0,0,0,0,0,0,0,-1,811,1681,0,0
-406,-657,0,0,0,0,0,0,0,0,0,-1,818,1681,0,0
-399,-657,0,0,0,0,0,0,0,0,0,-1,825,1681,0,0
-392,-657,0,0,0,0,0,0,0,0,0,-1,832,1681,0,0
-385,-657,0.440186,6.66626,0,0,0,0,0,0,0,-1,839,1681,0.440158,-6.66625
-378,-657,0.395203,5.29333,0,0,0,0,0,0,0,-1,846,1681,0.395232,-5.29336
-371,-657,4.76624,10.0463,0,0,0,0,0,0,0,-1,853,1681,4.76624,-10.0462
-364,-657,4.00879,6.35474,0,0,0,0,0,0,0,-1,860,1681,4.00882,-6.35472
-357,-657,1.52936,7.50598,0,0,0,0,0,0,0,-1,867,1681,1.52934,-7.50597
-350,-657,2.23724,7.46863,0,0,0,0,0,0,0,-1,874,1681,2.23721,-7.46861
-343,-657,3.17194,7.54468,0,0,0,0,0,0,0,-1,881,1681,3.17196,-7.54473
-336,-657,4.36493,7.6062,0,0,0,0,0,0,0,-1,888,1681,4.36496,-7.60615
-329,-657,2.91205,4.5304,0,0,0,0,0,0,0,-1,895,1681,2.91203,-4.53034
-322,-657,3.00098,5.80005,0,0,0,0,0,0,0,-1,902,1681,3.00099,-5.79999
-315,-657,2.70404,5.74268,-0.00323365,-0.004277,0.00311398,-0.000597953,-0.0069127,0.702405,0.00442264,0.0395938,909,1681,2.70405,-5.74269
-308,-657,2.94543,6.0946,-0.00348237,-0.00230673,0.00353075,0.000684798,-0.00647389,0.867884,0.00456136,0.0377754,916,1681,2.94545,-6.09464
-301,-657,2.88971,6.18787,-0.00391849,-0.00116515,0.00369034,0.00139694,-0.00648058,0.963927,0.00485351,0.0283943,923,1681,2.88969,-6.18787
-294,-657,2.86084,6.2699,-0.00410737,-6.86079e-05,0.00363372,0.00206915,-0.00624513,1.03902,0.004998,0.0142726,930,1681,2.86083,-6.2699
-287,-657,2.85999,6.36682,-0.00382946,0.000453007,0.00349617,0.00241154,-0.00578799,1.06016,0.00486596,0.0100497,937,1681,2.86,-6.36686
-280,-657,2.85406,6.44055,-0.00326047,0.000542103,0.00320742,0.00236942,-0.00508778,1.05294,0.00439973,0.0121775,944,1681,2.85409,-6.44054
-273,-657,2.86041,6.55505,-0.00260243,0.000575312,0.00271878,0.00213545,-0.00416257,1.04984,0.00369842,0.0095718,951,1681,2.8604,-6.55511
-266,-657,2.82971,6.66711,-0.00193731,0.000542811,0.00226066,0.00188119,-0.00327569,1.03626,0.00301339,0.0136227,958,1681,2.82974,-6.66716
-259,-657,2.81268,6.76782,-0.00144865,0.000388859,0.00170411,0.00140611,-0.0024659,1.03263,0.00226324,0.0179008,965,1681,2.81271,-6.76784
-252,-657,2.85388,6.83081,-0.000951082,0.000283717,0.00125977,0.00106925,-0.00173661,1.01324,0.00163516,0.0122638,972,1681,2.8539,-6.83085
-245,-657,2.88239,6.92432,-0.000480689,0.000201642,0.000866652,0.000791862,-0.00107091,0.972912,0.00107949,0.0143583,979,1681,2.88237,-6.92436
-238,-657,2.90491,6.9823,-0.000198047,7.13921e-05,0.000502765,0.000457174,-0.000583829,0.916302,0.000602505,0.0192077,986,1681,2.90488,-6.98234
-231,-657,2.90216,7.09961,2.11989e-06,-5.41541e-05,0.000209958,0.000185817,-0.000237852,0.718789,0.00024522,0.0199743,993,1681,2.90218,-7.09956
-224,-657,2.87415,7.245,0.000270429,-0.000344826,-0.000108975,0.000289161,-0.000363558,-0.170226,0.000377662,0.0155191,1000,1681,2.87412,-7.24499
-217,-657,2.88525,7.32324,0.000301811,-0.00069786,-0.000445545,0.000471562,-0.000867611,-0.364017,0.000784361,0.00948876,1007,1681,2.88526,-7.3232
-210,-657,2.88464,7.40112,7.60162e-05,-0.000922367,-0.000602837,0.000359515,-0.00120587,-0.439586,0.000946782,0.0100503,1014,1681,2.88465,-7.40116
-203,-657,2.8855,7.47681,-0.000100844,-0.00118539,-0.000777882,0.000305123,-0.00159136,-0.481004,0.00117588,0.0118392,1021,1681,2.88549,-7.47678
-196,-657,2.89575,7.54822,-0.00015554,-0.00220816,-0.00140731,0.00055994,-0.00292364,-0.470347,0.00216007,0.0129765,1028,1681,2.8957,-7.54818
-189,-657,2.89771,7.6239,-0.000250365,-0.00316361,-0.00192777,0.000709221,-0.00412319,-0.461861,0.00301316,0.00983002,1035,1681,2.89769,-7.62391
-182,-657,2.89868,7.68555,-0.000222598,-0.00367087,-0.00220996,0.000856226,-0.00474969,-0.454134,0.00348709,0.00797614,1042,1681,2.8987,-7.68555
-175,-657,2.90955,7.76636,9.40923e-05,-0.00371085,-0.00250375,0.00133617,-0.00495293,-0.460511,0.00382592,0.0097156,1049,1681,2.90957,-7.76637
-168,-657,2.91028,7.85059,0.000384465,-0.00413163,-0.00279331,0.00171826,-0.00546543,-0.445484,0.00433151,0.0121629,1056,1681,2.91023,-7.85053
-161,-657,2.90576,7.91223,0.000843046,-0.00448013,-0.00295015,0.0021548,-0.00579189,-0.418387,0.0047455,0.0120356,1063,1681,2.90572,-7.91217
-154,-657,2.89258,7.99219,0.00141987,-0.00458572,-0.00298953,0.0026543,-0.00582015,-0.391593,0.00500524,0.011526,1070,1681,2.89252,-7.99221
-147,-657,2.90308,8.052,0.00189023,-0.0044509,-0.00289033,0.00300995,-0.00557062,-0.369597,0.00502699,0.0155126,1077,1681,2.90306,-8.05206
-140,-657,2.8562,8.12061,0.00219415,-0.00466022,-0.00273321,0.00315058,-0.00561665,-0.33661,0.00512807,0.0247892,1084,1681,2.85622,-8.12059
-133,-657,2.85364,8.22839,0.0022441,-0.00558946,-0.00262932,0.00304478,-0.00639014,-0.2956,0.00556022,0.032738,1091,1681,2.85367,-8.22837
-126,-657,2.89526,8.31592,0,0,0,0,0,0,0,-1,1098,1681,2.89528,-8.31591
-119,-657,3.17236,8.39917,0,0,0,0,0,0,0,-1,1105,1681,3.17236,-8.39912
-112,-657,3.526,8.32458,0,0,0,0,0,0,0,-1,1112,1681,3.52597,-8.32457
-105,-657,3.79919,7.46179,0,0,0,0,0,0,0,-1,1119,1681,3.79914,-7.46179
-98,-657,3.78662,8.16785,0,0,0,0,0,0,0,-1,1126,1681,3.78663,-8.16786
-91,-657,3.5271,7.28357,0,0,0,0,0,0,0,-1,1133,1681,3.52715,-7.28351
-84,-657,3.21021,6.7821,0,0,0,0,0,0,0,-1,1140,1681,3.21022,-6.78209
-77,-657,-5.29846,0.396606,0,0,0,0,0,0,0,-1,1147,1681,-5.29842,-0.396573
-70,-657,-4.14893,2.14575,0,0,0,0,0,0,0,-1,1154,1681,-4.14893,-2.1458
-63,-657,-4.1239,3.177,0.036342,0.0845484,0.107975,0.171078,-0.0501875,0.895212,0.133953,0.0485226,1161,1681,-4.12391,-3.17698
-56,-657,-4.21326,4.18494,0.0335136,0.0786665,0.0922996,0.151111,-0.0389306,0.905343,0.115917,0.0453858,1168,1681,-4.21323,-4.18498
-49,-657,-4.25415,5.24683,0,0,0,0,0,0,0,-1,1175,1681,-4.25417,-5.24684
-42,-657,-2.63586,4.18591,0,0,0,0,0,0,0,-1,1182,1681,-2.63585,-4.18592
-35,-657,-0.999756,8.82471,0,0,0,0,0,0,0,-1,1189,1681,-0.999716,-8.82473
-28,-657,-1.3446,8.92847,0,0,0,0,0,0,0,-1,1196,1681,-1.34459,-8.92848
-21,-657,2.81177,8.74158,0,0,0,0,0,0,0,-1,1203,1681,2.81174,-8.74155
-14,-657,2.72632,8.84192,0.0305097,0.0407989,0.00865484,0.0457227,0.0255858,1.05355,0.0264604,0.0453473,1210,1681,2.72631,-8.84197
-7,-657,2.62317,8.99121,0.0308548,0.0301002,-0.0068577,0.0373456,0.0236094,-0.757915,0.0218112,0.0483695,1217,1681,2.62312,-8.99116
0,-657,2.71875,9.09326,0.0366601,0.0206624,-0.0161753,0.0467062,0.0106163,-0.555776,0.0282712,0.0484891,1224,1681,2.71873,-9.0932
7,-657,2.85083,9.22583,0,0,0,0,0,0,0,-1,1231,1681,2.85088,-9.22589
14,-657,4.11877,8.60925,0,0,0,0,0,0,0,-1,1238,1681,4.11877,-8.60919
21,-657,4.02527,7.91833,0,0,0,0,0,0,0,-1,1245,1681,4.02527,-7.91834
28,-657,4.30566,7.68921,0,0,0,0,0,0,0,-1,1252,1681,4.30562,-7.6892
35,-657,3.51855,8.43127,0,0,0,0,0,0,0,-1,1259,1681,3.51856,-8.43132
42,-657,4.77185,8.14917,0,0,0,0,0,0,0,-1,1266,1681,4.77187,-8.14919
49,-657,5.78186,7.83887,0.0672334,-0.000786164,0.0249534,0.0754059,-0.00895857,0.316498,0.0535073,0.0460996,1273,1681,5.78186,-7.83891
56,-657,6.81042,7.52209,0.0658556,-0.00260488,0.0304062,0.0774102,-0.0141594,0.363152,0.0569167,0.0497771,1280,1681,6.81039,-7.52211
63,-657,4.81055,7.19678,0,0,0,0,0,0,0,-1,1287,1681,4.81051,-7.19673
70,-657,4.38135,7.81543,0.0569025,-0.0056191,0.0398537,0.076293,-0.0250096,0.452824,0.0609341,0.0460876,1294,1681,4.38131,-7.81539
77,-657,5.57227,7.16455,0.0507192,-0.00570279,0.040858,0.0721593,-0.0271429,0.483249,0.0592633,0.0452664,1301,1681,5.57227,-7.16461
84,-657,5.5835,7.83777,0.0437243,-0.00475544,0.0390168,0.0654179,-0.026449,0.507443,0.0546068,0.0477111,1308,1681,5.58347,-7.83782
91,-657,5.63196,8.34973,0.0371949,-0.00398324,0.0359415,0.0580269,-0.0248152,0.52529,0.0490934,0.0479597,1315,1681,5.63197,-8.34972
98,-657,5.67273,8.88794,0,0,0,0,0,0,0,-1,1322,1681,5.6727,-8.888
105,-657,5.69104,9.37988,0,0,0,0,0,0,0,-1,1329,1681,5.69103,-9.37986
112,-657,9.38037,6.34668,0,0,0,0,0,0,0,-1,1336,1681,9.38039,-6.34665
119,-657,9.13403,6.30627,0,0,0,0,0,0,0,-1,1343,1681,9.13407,-6.30628
126,-657,3.82666,6.23718,0,0,0,0,0,0,0,-1,1350,1681,3.82672,-6.23723
133,-657,4.07739,6.14343,0,0,0,0,0,0,0,-1,1357,1681,4.07745,-6.14349
140,-657,2.4812,7.66663,0,0,0,0,0,0,0,-1,1364,1681,2.48118,-7.66668
147,-657,2.58142,6.92395,0,0,0,0,0,0,0,-1,1371,1681,2.58146,-6.92401
154,-657,2.01453,5.57336,0,0,0,0,0,0,0,-1,1378,1681,2.01453,-5.57337
161,-657,4.72742,7.57043,0,0,0,0,0,0,0,-1,1385,1681,4.72744,-7.57041
168,-657,5.21643,0.70105,0,0,0,0,0,0,0,-1,1392,1681,5.21648,-0.7011
175,-657,5.52771,0.649048,0,0,0,0,0,0,0,-1,1399,1681,5.52774,-0.649019
182,-657,5.73999,1.02612,0,0,0,0,0,0,0,-1,1406,1681,5.73995,-1.02611
189,-657,5.92126,1.44116,0,0,0,0,0,0,0,-1,1413,1681,5.92126,-1.44115
196,-657,4.92834,9.59021,0,0,0,0,0,0,0,-1,1420,1681,4.9284,-9.59018
203,-657,6.26343,5.16492,0,0,0,0,0,0,0,-1,1427,1681,6.26345,-5.16488
210,-657,3.9856,5.28088,0,0,0,0,0,0,0,-1,1434,1681,3.98555,-5.28084
217,-657,3.95178,5.2843,0,0,0,0,0,0,0,-1,1441,1681,3.95174,-5.28431
224,-657,6.66736,-0.250244,0,0,0,0,0,0,0,-1,1448,1681,6.66737,0.250229
231,-657,6.85498,-1.70752,0,0,0,0,0,0,0,-1,1455,1681,6.855,1.70758
238,-657,5.34143,-2.89819,0,0,0,0,0,0,0,-1,1462,1681,5.34143,2.89813
245,-657,8.66003,-0.102783,0,0,0,0,0,0,0,-1,1469,1681,8.66,0.102824
252,-657,4.78955,0.623779,0,0,0,0,0,0,0,-1,1476,1681,4.7895,-0.623826
259,-657,2.61523,4.31909,0,0,0,0,0,0,0,-1,1483,1681,2.61523,-4.31908
266,-657,4.02698,8.98096,0,0,0,0,0,0,0,-1,1490,1681,4.02693,-8.98098
273,-657,4.12695,8.61182,0.0115678,-0.0181254,0.000880663,0.0115939,-0.0181515,0.0296241,0.0173121,0.0483953,1497,1681,4.12696,-8.61182
280,-657,4.08337,8.2804,0.0106929,-0.0160633,0.000420131,0.0106995,-0.0160699,0.015697,0.0155586,0.0388222,1504,1681,4.08334,-8.28035
287,-657,4.05798,8.24805,0.00952082,-0.0143683,8.0813e-05,0.0095211,-0.0143686,0.00338279,0.013887,0.0304099,1511,1681,4.05804,-8.24804
294,-657,4.09106,8.24731,0.00837928,-0.0126303,-0.000279251,0.008383,-0.0126341,-0.0132884,0.0122167,0.0232197,1518,1681,4.09102,-8.24726
301,-657,4.05054,8.20166,0.00735661,-0.0108092,-0.000665351,0.00738095,-0.0108335,-0.0365612,0.0105789,0.0154214,1525,1681,4.05059,-8.20168
308,-657,4.04736,8.1239,0.00644693,-0.00896336,-0.00103049,0.00651553,-0.00903196,-0.0664758,0.00901546,0.0115948,1532,1681,4.04733,-8.12388
315,-657,4.05139,8.06934,0.00561599,-0.00718288,-0.0013631,0.00575955,-0.00732644,-0.104933,0.00757323,0.0101387,1539,1681,4.05143,-8.06931
322,-657,4.06482,7.98083,0.00485064,-0.00555615,-0.00160755,0.0050933,-0.00579881,-0.14982,0.00629296,0.0122805,1546,1681,4.06478,-7.98084
329,-657,4.07483,7.92639,0.0039967,-0.00411165,-0.00162946,0.00431191,-0.00442686,-0.191081,0.00504547,0.018074,1553,1681,4.07482,-7.92634
336,-657,4.07837,7.87024,0.00329036,-0.00281352,-0.00160413,0.00368626,-0.00320942,-0.241963,0.00398439,0.0157773,1560,1681,4.07838,-7.87024
343,-657,4.0907,7.79724,0.00272933,-0.00187755,-0.00153657,0.0031948,-0.00234302,-0.294144,0.00320985,0.0126153,1567,1681,4.09074,-7.79726
350,-657,4.10291,7.71765,0.00225986,-0.000976495,-0.00149413,0.00284416,-0.0015608,-0.372781,0.00257893,0.0140602,1574,1681,4.10287,-7.71763
357,-657,4.09961,7.64624,0.00191723,-0.000520682,-0.00139976,0.00255439,-0.00115784,-0.427165,0.00219323,0.0132257,1581,1681,4.09965,-7.64628
364,-657,4.08545,7.59314,0.00158899,-0.000179607,-0.00136927,0.00233468,-0.000925304,-0.498684,0.0019399,0.0100919,1588,1681,4.08542,-7.5931
371,-657,4.09009,7.50415,0.00137386,-1.89372e-05,-0.00129405,0.00214699,-0.000792073,-0.538546,0.00175595,0.0142936,1595,1681,4.09009,-7.50417
378,-657,4.06689,7.41467,0.00109722,0.000333875,-0.00126909,0.00204078,-0.000609689,-0.639328,0.00160288,0.0139711,1602,1681,4.06696,-7.41468
385,-657,4.04919,7.32446,0.000806285,0.000617516,-0.00136459,0.00207975,-0.000655951,-0.75087,0.00164922,0.012198,1609,1681,4.04916,-7.32452
392,-657,4.05566,7.2489,0.000408301,0.00113554,-0.00168089,0.00249169,-0.000947853,-0.891919,0.00205142,0.0124316,1616,1681,4.05566,-7.24895
399,-657,4.07983,7.19275,-6.80874e-05,0.00194882,-0.00182876,0.00302875,-0.00114802,-1.03737,0.00249162,0.0118018,1623,1681,4.07984,-7.19276
406,-657,4.08936,7.11633,-0.000708622,0.00262113,-0.00188559,0.00347165,-0.00155915,-1.14706,0.00297367,0.0127437,1630,1681,4.08931,-7.11639
413,-657,4.10754,7.00464,-0.00161856,0.00307474,-0.0019159,0.00375752,-0.00230134,-1.22845,0.0035316,0.01276,1637,1681,4.10753,-7.00469
420,-657,4.09656,6.86658,-0.00284354,0.00352537,-0.00191901,0.00405889,-0.00337706,-1.29963,0.00429916,0.0132428,1644,1681,4.09652,-6.86656
427,-657,4.05505,6.77954,-0.00420998,0.00399413,-0.00165595,0.00431576,-0.00453161,-1.37895,0.00510854,0.0167053,1651,1681,4.05504,-6.77949
434,-657,4.02136,6.67273,-0.00570864,0.0042901,-0.00138103,0.00447734,-0.00589588,-1.43604,0.00600762,0.025784,1658,1681,4.02132,-6.67275
441,-657,3.82214,6.30835,0,0,0,0,0,0,0,-1,1665,1681,3.82211,-6.30836
448,-657,3.20605,6.19531,0,0,0,0,0,0,0,-1,1672,1681,3.2061,-6.19535
455,-657,2.63135,5.87268,0,0,0,0,0,0,0,-1,1679,1681,2.63137,-5.87266
462,-657,3.62537,6.75122,0,0,0,0,0,0,0,-1,1686,1681,3.62542,-6.75126
469,-657,3.89258,6.32629,0,0,0,0,0,0,0,-1,1693,1681,3.89253,-6.32628
476,-657,1.92224,5.15405,0,0,0,0,0,0,0,-1,1700,1681,1.92223,-5.15409
483,-657,1.5321,4.81165,0,0,0,0,0,0,0,-1,1707,1681,1.53212,-4.81162
490,-657,1.20313,4.72388,0,0,0,0,0,0,0,-1,1714,1681,1.20308,-4.72389
497,-657,0.892456,4.73718,0,0,0,0,0,0,0,-1,1721,1681,0.892417,-4.73723
504,-657,0,0,0,0,0,0,0,0,0,-1,1728,1681,0,0
511,-657,0,0,0,0,0,0,0,0,0,-1,1735,1681,0,0
518,-657,0,0,0,0,0,0,0,0,0,-1,1742,1681,0,0
525,-657,0,0,0,0,0,0,0,0,0,-1,1749,1681,0,0
532,-657,0,0,0,0,0,0,0,0,0,-1,1756,1681,0,0
539,-657,0,0,0,0,0,0,0,0,0,-1,1763,1681,0,0
546,-657,0,0,0,0,0,0,0,0,0,-1,1770,1681,0,0
553,-657,0,0,0,0,0,0,0,0,0,-1,1777,1681,0,0
560,-657,0,0,0,0,0,0,0,0,0,-1,1784,1681,0,0
567,-657,0,0,0,0,0,0,0,0,0,-1,1791,1681,0,0
574,-657,0,0,0,0,0,0,0,0,0,-1,1798,1681,0,0
581,-657,0,0,0,0,0,0,0,0,0,-1,1805,1681,0,0
588,-657,0,0,0,0,0,0,0,0,0,-1,1812,1681,0,0
595,-657,0,0,0,0,0,0,0,0,0,-1,1819,1681,0,0
602,-657,0,0,0,0,0,0,0,0,0,-1,1826,1681,0,0
609,-657,0,0,0,0,0,0,0,0,0,-1,1833,1681,0,0
616,-657,0,0,0,0,0,0,0,0,0,-1,1840,1681,0,0
623,-657,0,0,0,0,0,0,0,0,0,-1,1847,1681,0,0
630,-657,0,0,0,0,0,0,0,0,0,-1,1854,1681,0,0
637,-657,0,0,0,0,0,0,0,0,0,-1,1861,1681,0,0
644,-657,0,0,0,0,0,0,0,0,0,-1,1868,1681,0,0
651,-657,0,0,0,0,0,0,0,0,0,-1,1875,1681,0,0
658,-657,0,0,0,0,0,0,0,0,0,-1,1882,1681,0,0
665,-657,0,0,0,0,0,0,0,0,0,-1,1889,1681,0,0
672,-657,0,0,0,0,0,0,0,0,0,-1,1896,1681,0,0
679,-657,0,0,0,0,0,0,0,0,0,-1,1903,1681,0,0
686,-657,0,0,0,0,0,0,0,0,0,-1,1910,1681,0,0
693,-657,0,0,0,0,0,0,0,0,0,-1,1917,1681,0,0
700,-657,0,0,0,0,0,0,0,0,0,-1,1924,1681,0,0
707,-657,0,0,0,0,0,0,0,0,0,-1,1931,1681,0,0
714,-657,0,0,0,0,0,0,0,0,0,-1,1938,1681,0,0
721,-657,0,0,0,0,0,0,0,0,0,-1,1945,1681,0,0
728,-657,0,0,0,0,0,0,0,0,0,-1,1952,1681,0,0
735,-657,0,0,0,0,0,0,0,0,0,-1,1959,1681,0,0
742,-657,0,0,0,0,0,0,0,0,0,-1,1966,1681,0,0
749,-657,0,0,0,0,0,0,0,0,0,-1,1973,1681,0,0
756,-657,0,0,0,0,0,0,0,0,0,-1,1980,1681,0,0
763,-657,0,0,0,0,0,0,0,0,0,-1,1987,1681,0,0
770,-657,0,0,0,0,0,0,0,0,0,-1,1994,1681,0,0
777,-657,0,0,0,0,0,0,0,0,0,-1,2001,1681,0,0
784,-657,0,0,0,0,0,0,0,0,0,-1,2008,1681,0,0
791,-657,0,0,0,0,0,0,0,0,0,-1,2015,1681,0,0
798,-657,0,0,0,0,0,0,0,0,0,-1,2022,1681,0,0
805,-657,0,0,0,0,0,0,0,0,0,-1,2029,1681,0,0
812,-657,0,0,0,0,0,0,0,0,0,-1,2036,1681,0,0
-700,-664,0,0,0,0,0,0,0,0,0,-1,524,1688,0,0
-693,-664,0,0,0,0,0,0,0,0,0,-1,531,1688,0,0
-686,-664,0,0,0,0,0,0,0,0,0,-1,538,1688,0,0
-679,-664,0,0,0,0,0,0,0,0,0,-1,545,1688,0,0
-672,-664,0,0,0,0,0,0,0,0,0,-1,552,1688,0,0
-665,-664,0,0,0,0,0,0,0,0,0,-1,559,1688,0,0
-658,-664,0,0,0,0,0,0,0,0,0,-1,566,1688,0,0
-651,-664,0,0,0,0,0,0,0,0,0,-1,573,1688,0,0
-644,-664,0,0,0,0,0,0,0,0,0,-1,580,1688,0,0
-637,-664,0,0,0,0,0,0,0,0,0,-1,587,1688,0,0
-630,-664,0,0,0,0,0,0,0,0,0,-1,594,1688,0,0
-623,-664,0,0,0,0,0,0,0,0,0,-1,601,1688,0,0
-616,-664,0,0,0,0,0,0,0,0,0,-1,608,1688,0,0
-609,-664,0,0,0,0,0,0,0,0,0,-1,615,1688,0,0
-602,-664,0,0,0,0,0,0,0,0,0,-1,622,1688,0,0
-595,-664,0,0,0,0,0,0,0,0,0,-1,629,1688,0,0
-588,-664,0,0,0,0,0,0,0,0,0,-1,636,1688,0,0
-581,-664,0,0,0,0,0,0,0,0,0,-1,643,1688,0,0
-574,-664,0,0,0,0,0,0,0,0,0,-1,650,1688,0,0
-567,-664,0,0,0,0,0,0,0,0,0,-1,657,1688,0,0
-560,-664,0,0,0,0,0,0,0,0,0,-1,664,1688,0,0
-553,-664,0,0,0,0,0,0,0,0,0,-1,671,1688,0,0
-546,-664,0,0,0,0,0,0,0,0,0,-1,678,1688,0,0
-539,-664,0,0,0,0,0,0,0,0,0,-1,685,1688,0,0
-532,-664,0,0,0,0,0,0,0,0,0,-1,692,1688,0,0
-525,-664,0,0,0,0,0,0,0,0,0,-1,699,1688,0,0
-518,-664,0,0,0,0,0,0,0,0,0,-1,706,1688,0,0
-511,-664,0,0,0,0,0,0,0,0,0,-1,713,1688,0,0
-504,-664,0,0,0,0,0,0,0,0,0,-1,720,1688,0,0
-497,-664,0,0,0,0,0,0,0,0,0,-1,727,1688,0,0
-490,-664,0,0,0,0,0,0,0,0,0,-1,734,1688,0,0
-483,-664,0,0,0,0,0,0,0,0,0,-1,741,1688,0,0
-476,-664,0,0,0,0,0,0,0,0,0,-1,748,1688,0,0
-469,-664,0,0,0,0,0,0,0,0,0,-1,755,1688,0,0
-462,-664,0,0,0,0,0,0,0,0,0,-1,762,1688,0,0
-455,-664,0,0,0,0,0,0,0,0,0,-1,769,1688,0,0
-448,-664,0,0,0,0,0,0,0,0,0,-1,776,1688,0,0
-441,-664,0,0,0,0,0,0,0,0,0,-1,783,1688,0,0
-434,-664,0,0,0,0,0,0,0,0,0,-1,790,1688,0,0
-427,-664,0,0,0,0,0,0,0,0,0,-1,797,1688,0,0
-420,-664,0,0,0,0,0,0,0,0,0,-1,804,1688,0,0
-413,-664,0,0,0,0,0,0,0,0,0,-1,811,1688,0,0
-406,-664,0,0,0,0,0,0,0,0,0,-1,818,1688,0,0
-399,-664,0,0,0,0,0,0,0,0,0,-1,825,1688,0,0
-392,-664,0,0,0,0,0,0,0,0,0,-1,832,1688,0,0
-385,-664,0,0,0,0,0,0,0,0,0,-1,839,1688,0,0
-378,-664,0,0,0,0,0,0,0,0,0,-1,846,1688,0,0
-371,-664,6.41205,7.70459,0,0,0,0,0,0,0,-1,853,1688,6.41203,-7.70458
-364,-664,5.88458,6.32813,0,0,0,0,0,0,0,-1,860,1688,5.88455,-6.32807
-357,-664,5.40656,4.92908,0,0,0,0,0,0,0,-1,867,1688,5.40655,-4.92904
-350,-664,2.07159,8.02539,0,0,0,0,0,0,0,-1,874,1688,2.07162,-8.02534
-343,-664,3.01666,7.97009,0,0,0,0,0,0,0,-1,881,1688,3.01669,-7.97014
-336,-664,4.4436,3.66113,0,0,0,0,0,0,0,-1,888,1688,4.44363,-3.66114
-329,-664,4.09003,4.35693,0,0,0,0,0,0,0,-1,895,1688,4.09004,-4.3569
-322,-664,2.33405,5.38916,0,0,0,0,0,0,0,-1,902,1688,2.33403,-5.38919
-315,-664,2.77563,5.86719,0,0,0,0,0,0,0,-1,909,1688,2.77561,-5.86717
-308,-664,3.10645,6.14209,0,0,0,0,0,0,0,-1,916,1688,3.10645,-6.14206
-301,-664,2.87994,6.31665,-0.00815564,0.00104802,0.00547716,0.00359994,-0.0107076,1.13478,0.00859348,0.043643,923,1688,2.87994,-6.31668
-294,-664,2.71692,6.38477,-0.00801707,0.00200596,0.00531431,0.00429905,-0.0103101,1.16344,0.00866935,0.0380554,930,1688,2.7169,-6.3847
-287,-664,2.93048,6.40405,-0.00731429,0.00237865,0.00502611,0.0045143,-0.00944994,1.169,0.00822841,0.0262757,937,1688,2.9305,-6.40405
-280,-664,2.91614,6.48718,-0.00628669,0.00233394,0.00452698,0.00427442,-0.00822716,1.16584,0.00733706,0.0168846,944,1688,2.91615,-6.48724
-273,-664,2.93994,6.56262,-0.00531419,0.00222537,0.00376186,0.00378127,-0.00687009,1.17862,0.00623516,0.0137622,951,1688,2.93992,-6.56266
-266,-664,2.91669,6.6637,-0.00435222,0.00203431,0.00305942,0.00326338,-0.00558128,1.1888,0.00516459,0.0193155,958,1688,2.91669,-6.66367
-259,-664,2.90985,6.75537,-0.00357494,0.00171575,0.00225802,0.00254841,-0.0044076,1.21751,0.00406359,0.0184169,965,1688,2.90988,-6.75533
-252,-664,2.96454,6.83582,-0.0028266,0.00145878,0.00159396,0.00198664,-0.00335446,1.251,0.00311721,0.0151786,972,1688,2.96454,-6.83581
-245,-664,2.95807,6.94849,-0.0021495,0.00128048,0.00101697,0.00155934,-0.00242835,1.30317,0.00232044,0.018742,979,1688,2.95804,-6.94853
-238,-664,2.98712,7.02563,-0.00170216,0.0010528,0.000519376,0.00114746,-0.00179682,1.39051,0.00171361,0.0220265,986,1688,2.98714,-7.02558
-231,-664,2.99628,7.10608,-0.00135767,0.000833761,0.000156309,0.000844854,-0.00136876,1.49995,0.00128991,0.0195338,993,1688,2.99626,-7.10608
-224,-664,2.96851,7.23132,-0.000810975,0.00043322,-0.000207798,0.000467008,-0.000844763,-1.40961,0.000767748,0.0140042,1000,1688,2.96853,-7.23131
-217,-664,2.9613,7.30664,-0.000547207,8.73442e-05,-0.000568049,0.000420717,-0.00088058,-1.04008,0.000766782,0.010152,1007,1688,2.96129,-7.30662
-210,-664,2.94434,7.38513,-0.000690169,-0.000129845,-0.000686009,0.000331005,-0.00115102,-0.979259,0.000898246,0.0110836,1014,1688,2.94432,-7.38514
-203,-664,2.95465,7.47815,-0.000743798,-0.00042914,-0.00075025,0.0001801,-0.00135304,-0.888752,0.000967661,0.0128526,1021,1688,2.95464,-7.47817
-196,-664,2.97522,7.54822,-0.000640578,-0.00115019,-0.00113355,0.000266454,-0.00205722,-0.674844,0.00146838,0.0135377,1028,1688,2.97527,-7.54818
-189,-664,2.97156,7.62317,-0.000566236,-0.00183818,-0.00148179,0.000410289,-0.00281471,-0.58269,0.00202712,0.00986143,1035,1688,2.97151,-7.62312
-182,-664,2.97327,7.68066,-0.000420198,-0.00219444,-0.00170792,0.000617256,-0.00323189,-0.545869,0.0023871,0.00923894,1042,1688,2.97323,-7.68069
-175,-664,2.99121,7.74951,-7.27164e-05,-0.00222157,-0.00197894,0.00110466,-0.00339895,-0.536699,0.00271029,0.0125401,1049,1688,2.99115,-7.74948
-168,-664,2.99902,7.83325,0.000288963,-0.00249057,-0.0022193,0.00151773,-0.00371934,-0.50566,0.00311141,0.0145759,1056,1688,2.99898,-7.83325
-161,-664,3.00073,7.89795,0.000748941,-0.00269555,-0.00237067,0.00195691,-0.00390353,-0.471259,0.00344518,0.0104825,1063,1688,3.00077,-7.89796
-154,-664,2.98462,7.98267,0.00127459,-0.00272353,-0.00245399,0.00244071,-0.00388964,-0.443603,0.0036866,0.00907672,1070,1688,2.98464,-7.9827
-147,-664,2.97498,8.04932,0.00167553,-0.00262494,-0.00245722,0.00279048,-0.00373989,-0.425963,0.00378357,0.00947762,1077,1688,2.97503,-8.04935
-140,-664,2.98145,8.10437,0.00190501,-0.00292867,-0.00243837,0.00292136,-0.00394501,-0.394917,0.00397896,0.00981605,1084,1688,2.98147,-8.10441
-133,-664,2.99573,8.17603,0.00191953,-0.00392053,-0.0024724,0.00282564,-0.00482664,-0.351288,0.00446811,0.0107991,1091,1688,2.99577,-8.17603
-126,-664,3.06079,8.25061,0.00191343,-0.00514034,-0.00239888,0.00265193,-0.00587884,-0.298647,0.00504133,0.0193949,1098,1688,3.06077,-8.25065
-119,-664,3.1593,8.24658,0.00390737,-0.00370717,0.00119423,0.00409027,-0.00389007,0.151975,0.00460794,0.0340232,1105,1688,3.15926,-8.24662
-112,-664,3.34131,8.30322,0.00615282,0.0010347,0.00803655,0.0120279,-0.00484039,0.63126,0.0100293,0.0435805,1112,1688,3.34131,-8.30327
-105,-664,3.4834,8.39136,0,0,0,0,0,0,0,-1,1119,1688,3.48337,-8.39137
-98,-664,3.4856,8.32141,0.0111007,0.0159701,0.0275463,0.041189,-0.0141183,0.829476,0.0331822,0.0487012,1126,1688,3.48561,-8.3214
-91,-664,3.29431,7.8335,0.0144506,0.026226,0.0399964,0.0607657,-0.0200891,0.858476,0.0486108,0.0431737,1133,1688,3.29427,-7.83351
-84,-664,3.01367,7.4812,0.0184359,0.0375735,0.0537134,0.0825637,-0.0265544,0.873546,0.0657075,0.0433978,1140,1688,3.01362,-7.48124
-77,-664,2.87219,7.36414,0,0,0,0,0,0,0,-1,1147,1688,2.87215,-7.3641
-70,-664,4.20374,8.24524,0,0,0,0,0,0,0,-1,1154,1688,4.20379,-8.24519
-63,-664,-4.677,2.40503,0,0,0,0,0,0,0,-1,1161,1688,-4.67702,-2.40498
-56,-664,-4.66504,3.32727,0,0,0,0,0,0,0,-1,1168,1688,-4.6651,-3.32724
-49,-664,-2.54297,3.31848,0,0,0,0,0,0,0,-1,1175,1688,-2.54297,-3.31852
-42,-664,-0.359253,4.38684,0,0,0,0,0,0,0,-1,1182,1688,-0.359261,-4.38685
-35,-664,-0.705566,3.55017,0,0,0,0,0,0,0,-1,1189,1688,-0.705567,-3.55023
-28,-664,-1.54236,10.2538,0,0,0,0,0,0,0,-1,1196,1688,-1.54236,-10.2538
-21,-664,2.89783,8.78357,0,0,0,0,0,0,0,-1,1203,1688,2.89778,-8.78353
-14,-664,2.87097,8.89099,0.0247858,0.0312979,0.00595514,0.034829,0.0212547,1.03558,0.0202709,0.0453063,1210,1688,2.871,-8.89096
-7,-664,2.81506,9.02075,0.0256179,0.0220631,-0.00594143,0.0300421,0.0176389,-0.640056,0.0174324,0.0483468,1217,1688,2.81501,-9.02073
0,-664,2.79651,9.14526,0,0,0,0,0,0,0,-1,1224,1688,2.79656,-9.14526
7,-664,3.59241,7.87317,0,0,0,0,0,0,0,-1,1231,1688,3.59243,-7.87313
14,-664,3.55444,8.11523,0.042802,0.00718185,-0.00578711,0.0437186,0.00626522,-0.157087,0.027298,0.043409,1238,1688,3.55446,-8.11518
21,-664,3.78833,8.17761,0.0468499,0.0046064,-0.000315041,0.0468522,0.00460405,-0.00745719,0.0298188,0.0459056,1245,1688,3.78837,-8.17764
28,-664,3.98035,8.30334,0,0,0,0,0,0,0,-1,1252,1688,3.98038,-8.30334
35,-664,3.95313,8.62866,0,0,0,0,0,0,0,-1,1259,1688,3.95309,-8.62862
42,-664,4.42041,8.14294,0.0557453,-0.00299019,0.0177718,0.0607039,-0.00794883,0.272097,0.0433624,0.0415035,1266,1688,4.42045,-8.14298
49,-664,5.49365,7.94812,0.0564091,-0.00531058,0.0234775,0.0643246,-0.013226,0.325182,0.0479042,0.0446173,1273,1688,5.49365,-7.94818
56,-664,6.33423,7.79602,0.0549975,-0.0064423,0.0283316,0.0660675,-0.0175123,0.372488,0.0508968,0.0496254,1280,1688,6.33426,-7.79599
63,-664,6.99487,8.10535,0,0,0,0,0,0,0,-1,1287,1688,6.99487,-8.10534
70,-664,4.22192,7.81653,0.0473235,-0.00756025,0.0363294,0.0654105,-0.0256473,0.461936,0.0542174,0.043497,1294,1688,4.22193,-7.81656
77,-664,3.81641,8.4668,0.0423492,-0.00701898,0.0373256,0.0624144,-0.0270842,0.493253,0.0529971,0.0409214,1301,1688,3.81641,-8.46685
84,-664,4.99854,8.13391,0.0367213,-0.00569567,0.0359395,0.0572435,-0.0262178,0.518838,0.0492837,0.0481348,1308,1688,4.99853,-8.13386
91,-664,5.03345,8.62744,0.0314018,-0.00457384,0.0335774,0.0515061,-0.024678,0.539494,0.0448848,0.0450689,1315,1688,5.03348,-8.62741
98,-664,5.01379,9.13672,0,0,0,0,0,0,0,-1,1322,1688,5.01382,-9.13668
105,-664,4.47229,9.12366,0,0,0,0,0,0,0,-1,1329,1688,4.47233,-9.12367
112,-664,4.46704,9.66418,0,0,0,0,0,0,0,-1,1336,1688,4.46708,-9.66419
119,-664,2.72852,9.96863,0,0,0,0,0,0,0,-1,1343,1688,2.72848,-9.96865
126,-664,2.62097,9.23132,0,0,0,0,0,0,0,-1,1350,1688,2.62093,-9.23137
133,-664,2.33948,8.74255,0,0,0,0,0,0,0,-1,1357,1688,2.33951,-8.74256
140,-664,2.55176,7.67944,0,0,0,0,0,0,0,-1,1364,1688,2.5518,-7.67944
147,-664,5.34595,9.53003,0,0,0,0,0,0,0,-1,1371,1688,5.34591,-9.53003
154,-664,4.09668,5.15845,0,0,0,0,0,0,0,-1,1378,1688,4.09668,-5.15847
161,-664,4.60132,1.56238,0,0,0,0,0,0,0,-1,1385,1688,4.60134,-1.56233
168,-664,5.172,1.25488,0,0,0,0,0,0,0,-1,1392,1688,5.17203,-1.25484
175,-664,5.58313,1.16467,0,0,0,0,0,0,0,-1,1399,1688,5.58317,-1.16466
182,-664,5.74268,1.41113,0,0,0,0,0,0,0,-1,1406,1688,5.74263,-1.41115
189,-664,5.87744,1.87061,0,0,0,0,0,0,0,-1,1413,1688,5.87745,-1.87065
196,-664,6.7594,5.97473,0,0,0,0,0,0,0,-1,1420,1688,6.75943,-5.97478
203,-664,5.38452,5.22034,0,0,0,0,0,0,0,-1,1427,1688,5.38453,-5.2203
210,-664,5.25549,6.45715,0,0,0,0,0,0,0,-1,1434,1688,5.25549,-6.45721
217,-664,5.72009,6.73975,0,0,0,0,0,0,0,-1,1441,1688,5.72014,-6.73972
224,-664,5.05725,7.42908,0,0,0,0,0,0,0,-1,1448,1688,5.05723,-7.42912
231,-664,5.13318,7.60864,0,0,0,0,0,0,0,-1,1455,1688,5.13313,-7.60862
238,-664,4.23193,6.45471,0,0,0,0,0,0,0,-1,1462,1688,4.23197,-6.45476
245,-664,4.42004,6.80896,0,0,0,0,0,0,0,-1,1469,1688,4.4201,-6.80901
252,-664,3.67346,6.85461,0,0,0,0,0,0,0,-1,1476,1688,3.6734,-6.85462
259,-664,4.17407,8.4801,0,0,0,0,0,0,0,-1,1483,1688,4.17405,-8.48014
266,-664,4.14111,8.55334,0.0048654,-0.0109235,0.00145156,0.00499774,-0.0110558,0.0909201,0.00948595,0.0497171,1490,1688,4.14107,-8.55334
273,-664,4.07239,8.47925,0.00512222,-0.00997693,0.000816875,0.00516629,-0.010021,0.0538911,0.00891646,0.0343286,1497,1688,4.07244,-8.47928
280,-664,3.95874,8.37439,0.00488503,-0.00861463,0.000406269,0.00489724,-0.00862684,0.0300585,0.00790649,0.0217588,1504,1688,3.95871,-8.37438
287,-664,3.9248,8.28235,0.00433758,-0.00759429,0.000137927,0.00433917,-0.00759589,0.0115575,0.0069757,0.0173831,1511,1688,3.92487,-8.2824
294,-664,3.97766,8.2395,0.00377839,-0.00661509,-9.0597e-05,0.00377918,-0.00661588,-0.00871584,0.00607562,0.0128308,1518,1688,3.97761,-8.23948
301,-664,3.99573,8.19922,0.00332149,-0.00561535,-0.000335952,0.0033341,-0.00562796,-0.0375212,0.00523044,0.00983283,1525,1688,3.99569,-8.19928
308,-664,3.99487,8.12634,0.00295431,-0.00459148,-0.000579839,0.0029986,-0.00463578,-0.0762462,0.00444137,0.0103362,1532,1688,3.99485,-8.12636
315,-664,3.99414,8.04749,0.00264356,-0.00359544,-0.000817833,0.00274898,-0.00370086,-0.128199,0.00373731,0.0105643,1539,1688,3.99419,-8.04747
322,-664,4.01208,7.99194,0.00240301,-0.0027423,-0.00100783,0.00259337,-0.00293266,-0.186685,0.00319246,0.0134859,1546,1688,4.01208,-7.99189
329,-664,4.02075,7.95898,0.00208922,-0.00204357,-0.00102232,0.00232828,-0.00228263,-0.229713,0.00266215,0.0162975,1553,1688,4.02074,-7.95902
336,-664,4.02087,7.88269,0.00185207,-0.00136929,-0.00102891,0.00215266,-0.00166988,-0.284233,0.0022128,0.0136611,1560,1688,4.02092,-7.88264
343,-664,4.01953,7.80774,0.00174704,-0.000963338,-0.00101662,0.00208597,-0.00130227,-0.321805,0.00197357,0.010755,1567,1688,4.01949,-7.80779
350,-664,4.01392,7.7417,0.00169718,-0.000585611,-0.00105391,0.00210933,-0.000997766,-0.372785,0.00183175,0.0120186,1574,1688,4.01394,-7.74166
357,-664,4.00989,7.65552,0.00166202,-0.00043096,-0.00107422,0.00211522,-0.000884167,-0.399237,0.00177965,0.0115864,1581,1688,4.00985,-7.65549
364,-664,4.0094,7.57983,0.00162197,-0.000321116,-0.00117818,0.00217752,-0.000876661,-0.440612,0.00181586,0.0102729,1588,1688,4.0094,-7.57977
371,-664,4.02258,7.50452,0.00148288,-0.000139723,-0.00125145,0.002163,-0.000819844,-0.497813,0.00177939,0.0133034,1595,1688,4.0226,-7.50446
378,-664,4.00977,7.42188,0.00131466,0.000287621,-0.00141015,0.00230189,-0.000699604,-0.610782,0.00181335,0.0125719,1602,1688,4.00981,-7.42191
385,-664,3.99414,7.32739,0.00110827,0.00072282,-0.00168605,0.00261257,-0.000781481,-0.728492,0.00205241,0.0130431,1609,1688,3.9941,-7.32738
392,-664,3.97534,7.25391,0.000674657,0.00140665,-0.00212803,0.00319993,-0.00111862,-0.870559,0.00258804,0.0157255,1616,1688,3.97536,-7.25385
399,-664,3.99109,7.17078,8.14815e-05,0.00242587,-0.00237369,0.00390102,-0.00139367,-1.01475,0.00316909,0.0123023,1623,1688,3.99107,-7.17072
406,-664,4.01123,7.09412,-0.000750406,0.00330015,-0.00249249,0.00448646,-0.00193671,-1.12657,0.00380456,0.010661,1630,1688,4.01126,-7.09418
413,-664,4.0509,6.9884,-0.00186725,0.00402642,-0.00261253,0.00501776,-0.00285859,-1.20813,0.00460401,0.010807,1637,1688,4.05091,-6.98836
420,-664,4.05725,6.85022,-0.00338536,0.00476801,-0.00271688,0.00559038,-0.00420774,-1.27687,0.00567569,0.0237395,1644,1688,4.0572,-6.8502
427,-664,4.01904,6.70898,-0.00515412,0.00559506,-0.00256719,0.0061767,-0.00573577,-1.34799,0.00687923,0.0427033,1651,1688,4.01909,-6.70896
434,-664,3.96106,6.63464,-0.00717302,0.00633493,-0.00242753,0.00675794,-0.00759603,-1.39827,0.00829197,0.0462693,1658,1688,3.96106,-6.6347
441,-664,3.78552,6.4574,-0.00915802,0.00594928,-0.00201454,0.0062133,-0.00942204,-1.44048,0.00909022,0.047162,1665,1688,3.78557,-6.45742
448,-664,3.47302,6.33069,0,0,0,0,0,0,0,-1,1672,1688,3.47304,-6.33074
455,-664,3.2572,6.32776,0,0,0,0,0,0,0,-1,1679,1688,3.25718,-6.32771
462,-664,4.3147,4.25439,0,0,0,0,0,0,0,-1,1686,1688,4.31467,-4.25435
469,-664,2.29016,3.27161,0,0,0,0,0,0,0,-1,1693,1688,2.29013,-3.27159
476,-664,0.80249,4.90442,0,0,0,0,0,0,0,-1,1700,1688,0.802477,-4.90442
483,-664,-0.0241699,4.23975,0,0,0,0,0,0,0,-1,1707,1688,-0.0241172,-4.23977
490,-664,-0.404663,4.16504,0,0,0,0,0,0,0,-1,1714,1688,-0.404698,-4.1651
497,-664,0,0,0,0,0,0,0,0,0,-1,1721,1688,0,0
504,-664,0,0,0,0,0,0,0,0,0,-1,1728,1688,0,0
511,-664,0,0,0,0,0,0,0,0,0,-1,1735,1688,0,0
518,-664,0,0,0,0,0,0,0,0,0,-1,1742,1688,0,0
525,-664,0,0,0,0,0,0,0,0,0,-1,1749,1688,0,0
532,-664,0,0,0,0,0,0,0,0,0,-1,1756,1688,0,0
539,-664,0,0,0,0,0,0,0,0,0,-1,1763,1688,0,0
546,-664,0,0,0,0,0,0,0,0,0,-1,1770,1688,0,0
553,-664,0,0,0,0,0,0,0,0,0,-1,1777,1688,0,0
560,-664,0,0,0,0,0,0,0,0,0,-1,1784,1688,0,0
567,-664,0,0,0,0,0,0,0,0,0,-1,1791,1688,0,0
574,-664,0,0,0,0,0,0,0,0,0,-1,1798,1688,0,0
581,-664,0,0,0,0,0,0,0,0,0,-1,1805,1688,0,0
588,-664,0,0,0,0,0,0,0,0,0,-1,1812,1688,0,0
595,-664,0,0,0,0,0,0,0,0,0,-1,1819,1688,0,0
602,-664,0,0,0,0,0,0,0,0,0,-1,1826,1688,0,0
609,-664,0,0,0,0,0,0,0,0,0,-1,1833,1688,0,0
616,-664,0,0,0,0,0,0,0,0,0,-1,1840,1688,0,0
623,-664,0,0,0,0,0,0,0,0,0,-1,1847,1688,0,0
630,-664,0,0,0,0,0,0,0,0,0,-1,1854,1688,0,0
637,-664,0,0,0,0,0,0,0,0,0,-1,1861,1688,0,0
644,-664,0,0,0,0,0,0,0,0,0,-1,1868,1688,0,0
651,-664,0,0,0,0,0,0,0,0,0,-1,1875,1688,0,0
658,-664,0,0,0,0,0,0,0,0,0,-1,1882,1688,0,0
665,-664,0,0,0,0,0,0,0,0,0,-1,1889,1688,0,0
672,-664,0,0,0,0,0,0,0,0,0,-1,1896,1688,0,0
679,-664,0,0,0,0,0,0,0,0,0,-1,1903,1688,0,0
686,-664,0,0,0,0,0,0,0,0,0,-1,1910,1688,0,0
693,-664,0,0,0,0,0,0,0,0,0,-1,1917,1688,0,0
700,-664,0,0,0,0,0,0,0,0,0,-1,1924,1688,0,0
707,-664,0,0,0,0,0,0,0,0,0,-1,1931,1688,0,0
714,-664,0,0,0,0,0,0,0,0,0,-1,1938,1688,0,0
721,-664,0,0,0,0,0,0,0,0,0,-1,1945,1688,0,0
728,-664,0,0,0,0,0,0,0,0,0,-1,1952,1688,0,0
735,-664,0,0,0,0,0,0,0,0,0,-1,1959,1688,0,0
742,-664,0,0,0,0,0,0,0,0,0,-1,1966,1688,0,0
749,-664,0,0,0,0,0,0,0,0,0,-1,1973,1688,0,0
756,-664,0,0,0,0,0,0,0,0,0,-1,1980,1688,0,0
763,-664,0,0,0,0,0,0,0,0,0,-1,1987,1688,0,0
770,-664,0,0,0,0,0,0,0,0,0,-1,1994,1688,0,0
777,-664,0,0,0,0,0,0,0,0,0,-1,2001,1688,0,0
784,-664,0,0,0,0,0,0,0,0,0,-1,2008,1688,0,0
791,-664,0,0,0,0,0,0,0,0,0,-1,2015,1688,0,0
798,-664,0,0,0,0,0,0,0,0,0,-1,2022,1688,0,0
805,-664,0,0,0,0,0,0,0,0,0,-1,2029,1688,0,0
812,-664,0,0,0,0,0,0,0,0,0,-1,2036,1688,0,0
-700,-671,0,0,0,0,0,0,0,0,0,-1,524,1695,0,0
-693,-671,0,0,0,0,0,0,0,0,0,-1,531,1695,0,0
-686,-671,0,0,0,0,0,0,0,0,0,-1,538,1695,0,0
-679,-671,0,0,0,0,0,0,0,0,0,-1,545,1695,0,0
-672,-671,0,0,0,0,0,0,0,0,0,-1,552,1695,0,0
-665,-671,0,0,0,0,0,0,0,0,0,-1,559,1695,0,0
-658,-671,0,0,0,0,0,0,0,0,0,-1,566,1695,0,0
-651,-671,0,0,0,0,0,0,0,0,0,-1,573,1695,0,0
-644,-671,0,0,0,0,0,0,0,0,0,-1,580,1695,0,0
-637,-671,0,0,0,0,0,0,0,0,0,-1,587,1695,0,0
-630,-671,0,0,0,0,0,0,0,0,0,-1,594,1695,0,0
-623,-671,0,0,0,0,0,0,0,0,0,-1,601,1695,0,0
-616,-671,0,0,0,0,0,0,0,0,0,-1,608,1695,0,0
-609,-671,0,0,0,0,0,0,0,0,0,-1,615,1695,0,0
-602,-671,0,0,0,0,0,0,0,0,0,-1,622,1695,0,0
-595,-671,0,0,0,0,0,0,0,0,0,-1,629,1695,0,0
-588,-671,0,0,0,0,0,0,0,0,0,-1,636,1695,0,0
-581,-671,0,0,0,0,0,0,0,0,0,-1,643,1695,0,0
-574,-671,0,0,0,0,0,0,0,0,0,-1,650,1695,0,0
-567,-671,0,0,0,0,0,0,0,0,0,-1,657,1695,0,0
-560,-671,0,0,0,0,0,0,0,0,0,-1,664,1695,0,0
-553,-671,0,0,0,0,0,0,0,0,0,-1,671,1695,0,0
-546,-671,0,0,0,0,0,0,0,0,0,-1,678,1695,0,0
-539,-671,0,0,0,0,0,0,0,0,0,-1,685,1695,0,0
-532,-671,0,0,0,0,0,0,0,0,0,-1,692,1695,0,0
-525,-671,0,0,0,0,0,0,0,0,0,-1,699,1695,0,0
-518,-671,0,0,0,0,0,0,0,0,0,-1,706,1695,0,0
-511,-671,0,0,0,0,0,0,0,0,0,-1,713,1695,0,0
-504,-671,0,0,0,0,0,0,0,0,0,-1,720,1695,0,0
-497,-671,0,0,0,0,0,0,0,0,0,-1,727,1695,0,0
-490,-671,0,0,0,0,0,0,0,0,0,-1,734,1695,0,0
-483,-671,0,0,0,0,0,0,0,0,0,-1,741,1695,0,0
-476,-671,0,0,0,0,0,0,0,0,0,-1,748,1695,0,0
-469,-671,0,0,0,0,0,0,0,0,0,-1,755,1695,0,0
-462,-671,0,0,0,0,0,0,0,0,0,-1,762,1695,0,0
-455,-671,0,0,0,0,0,0,0,0,0,-1,769,1695,0,0
-448,-671,0,0,0,0,0,0,0,0,0,-1,776,1695,0,0
-441,-671,0,0,0,0,0,0,0,0,0,-1,783,1695,0,0
-434,-671,0,0,0,0,0,0,0,0,0,-1,790,1695,0,0
-427,-671,0,0,0,0,0,0,0,0,0,-1,797,1695,0,0
-420,-671,0,0,0,0,0,0,0,0,0,-1,804,1695,0,0
-413,-671,0,0,0,0,0,0,0,0,0,-1,811,1695,0,0
-406,-671,0,0,0,0,0,0,0,0,0,-1,818,1695,0,0
-399,-671,0,0,0,0,0,0,0,0,0,-1,825,1695,0,0
-392,-671,0,0,0,0,0,0,0,0,0,-1,832,1695,0,0
-385,-671,0,0,0,0,0,0,0,0,0,-1,839,1695,0,0
-378,-671,0,0,0,0,0,0,0,0,0,-1,846,1695,0,0
-371,-671,0,0,0,0,0,0,0,0,0,-1,853,1695,0,0
-364,-671,5.97925,6.88098,0,0,0,0,0,0,0,-1,860,1695,5.97924,-6.88101
-357,-671,5.50122,5.63721,0,0,0,0,0,0,0,-1,867,1695,5.50125,-5.63726
-350,-671,5.65448,5.68799,0,0,0,0,0,0,0,-1,874,1695,5.65446,-5.68805
-343,-671,5.28693,6.01563,0,0,0,0,0,0,0,-1,881,1695,5.28695,-6.01559
-336,-671,5.57129,3.57288,0,0,0,0,0,0,0,-1,888,1695,5.57129,-3.57288
-329,-671,4.89545,5.94934,0,0,0,0,0,0,0,-1,895,1695,4.89547,-5.94931
-322,-671,4.36981,5.28491,0,0,0,0,0,0,0,-1,902,1695,4.36983,-5.28493
-315,-671,2.85901,5.97937,0,0,0,0,0,0,0,-1,909,1695,2.85901,-5.97933
-308,-671,3.03339,6.48462,0,0,0,0,0,0,0,-1,916,1695,3.03338,-6.48457
-301,-671,2.62292,6.57861,0,0,0,0,0,0,0,-1,923,1695,2.62292,-6.57861
-294,-671,2.99359,6.37817,0,0,0,0,0,0,0,-1,930,1695,2.9936,-6.37812
-287,-671,2.99359,6.44141,-0.0130944,0.00550745,0.00661479,0.00761979,-0.0152067,1.2617,0.0134193,0.0425085,937,1695,2.99361,-6.44141
-280,-671,2.99591,6.50256,-0.0113078,0.00513787,0.00587705,0.0070222,-0.0131921,1.26053,0.0118506,0.0342986,944,1695,2.99593,-6.50252
-273,-671,3.01361,6.57068,-0.00968188,0.00468224,0.00481474,0.00614678,-0.0111464,1.27551,0.0101224,0.0310503,951,1695,3.01361,-6.57063
-266,-671,3.05139,6.70508,-0.00805233,0.00414535,0.00386054,0.00526452,-0.0091715,1.28863,0.00843577,0.0221316,958,1695,3.05137,-6.70511
-259,-671,3.02209,6.77893,-0.00664591,0.00349612,0.00282688,0.00423083,-0.00738062,1.31652,0.00678559,0.021666,965,1695,3.02212,-6.77891
-252,-671,3.05713,6.85046,-0.00534814,0.00290652,0.00197307,0.00335389,-0.00579551,1.34783,0.00534474,0.0169935,972,1695,3.05713,-6.85041
-245,-671,3.03931,6.9635,-0.00421776,0.00249396,0.00123993,0.0027157,-0.0044395,1.39383,0.00417083,0.0199149,979,1695,3.03934,-6.96348
-238,-671,3.05133,7.0603,-0.0033914,0.00206948,0.000641889,0.00214391,-0.00346583,1.45535,0.00326862,0.0205277,986,1695,3.05135,-7.06028
-231,-671,3.06586,7.13391,-0.00273973,0.00171888,0.000237252,0.00173147,-0.00275232,1.51778,0.00261099,0.0157026,993,1695,3.06587,-7.13385
-224,-671,3.04785,7.20374,-0.00178436,0.00115998,-0.000161684,0.00116883,-0.00179321,-1.5161,0.00172275,0.0122398,1000,1695,3.04785,-7.20373
-217,-671,3.03302,7.27307,-0.00122819,0.00079723,-0.00055197,0.000937886,-0.00136885,-1.32128,0.00133952,0.0109993,1007,1695,3.03304,-7.27303
-210,-671,3.03003,7.36902,-0.00124025,0.0005986,-0.000622739,0.000789646,-0.0014313,-1.27313,0.00129998,0.0109571,1014,1695,3.03004,-7.36897
-203,-671,3.05029,7.45776,-0.00121606,0.000302704,-0.0006056,0.000514617,-0.00142797,-1.23419,0.00116214,0.0183473,1021,1695,3.05025,-7.45771
-196,-671,3.05188,7.54749,-0.00100258,-0.000157865,-0.00081591,0.000338523,-0.00149897,-1.02423,0.0011292,0.0158741,1028,1695,3.05184,-7.54747
-189,-671,3.05933,7.65601,-0.000822392,-0.0006342,-0.00101685,0.000292894,-0.00174949,-0.831535,0.00127522,0.0126171,1035,1695,3.05927,-7.65595
-182,-671,3.04187,7.69702,-0.000597501,-0.000897629,-0.0011683,0.00043033,-0.00192546,-0.721525,0.00144855,0.00989208,1042,1695,3.04189,-7.69703
-175,-671,3.05554,7.74805,-0.000232652,-0.000951975,-0.00138159,0.000835322,-0.00201995,-0.658062,0.00169513,0.012319,1049,1695,3.05552,-7.74802
-168,-671,3.05652,7.81458,0.000176728,-0.00116559,-0.00153459,0.00118051,-0.00216937,-0.579254,0.00196194,0.0145272,1056,1695,3.05651,-7.81453
-161,-671,3.05347,7.90283,0.000611695,-0.0013201,-0.00163297,0.00154305,-0.00225145,-0.518327,0.00220345,0.00981948,1063,1695,3.05349,-7.90286
-154,-671,3.04138,7.96716,0.00105744,-0.00136841,-0.00168904,0.00192394,-0.00223492,-0.474008,0.00240336,0.00813631,1070,1695,3.04135,-7.9671
-147,-671,3.04016,8.04077,0.00137939,-0.00137236,-0.00170112,0.0021914,-0.00218437,-0.445355,0.00252635,0.00923841,1077,1695,3.04012,-8.04082
-140,-671,3.05786,8.12341,0.00154436,-0.00179602,-0.00171587,0.0022687,-0.00252035,-0.399444,0.00276623,0.0108675,1084,1695,3.05782,-8.12347
-133,-671,3.07678,8.19995,0.00154071,-0.00281185,-0.0017861,0.00217981,-0.00345095,-0.343622,0.00327841,0.0129865,1091,1695,3.07678,-8.19999
-126,-671,3.08252,8.2478,0.00153998,-0.00399571,-0.00176007,0.0020522,-0.00450792,-0.2832,0.00387494,0.0149719,1098,1695,3.08256,-8.2478
-119,-671,3.17932,8.27832,0.00283854,-0.0034056,0.000607864,0.00289716,-0.00346423,0.0961466,0.00367761,0.0255316,1105,1695,3.17936,-8.27828
-112,-671,3.21045,8.34363,0.00426106,-0.000556794,0.00522146,0.00760249,-0.00389822,0.569271,0.00675377,0.0322932,1112,1695,3.21043,-8.34362
-105,-671,3.29285,8.41052,0.00573609,0.004616,0.0121019,0.0172909,-0.00693884,0.762276,0.0144084,0.0346879,1119,1695,3.29282,-8.41049
-98,-671,3.31384,8.41211,0.00743737,0.00942763,0.0189374,0.0273961,-0.0105311,0.811648,0.0226073,0.0322346,1126,1695,3.31381,-8.41209
-91,-671,3.11011,8.32629,0.00965959,0.0165329,0.0278475,0.0411551,-0.0149625,0.846793,0.0335553,0.0343669,1133,1695,3.11014,-8.32628
-84,-671,3.02844,8.13391,0.0123998,0.0248949,0.0379235,0.057082,-0.0197872,0.867035,0.0460887,0.0412169,1140,1695,3.0284,-8.13393
-77,-671,3.01819,8.13147,0.0155658,0.0342643,0.0486774,0.0744821,-0.024652,0.880275,0.0595966,0.0447688,1147,1695,3.01821,-8.13141
-70,-671,3.17871,8.21375,0,0,0,0,0,0,0,-1,1154,1695,3.17869,-8.21373
-63,-671,2.94592,6.90198,0,0,0,0,0,0,0,-1,1161,1695,2.94594,-6.90198
-56,-671,-3.07678,2.87976,0,0,0,0,0,0,0,-1,1168,1695,-3.07675,-2.87979
-49,-671,-1.05957,4.76917,0,0,0,0,0,0,0,-1,1175,1695,-1.05958,-4.76921
-42,-671,0.539307,3.7865,0,0,0,0,0,0,0,-1,1182,1695,0.539266,-3.78648
-35,-671,-0.272461,0.347534,0,0,0,0,0,0,0,-1,1189,1695,-0.272434,-0.347569
-28,-671,-0.662964,5.40405,0,0,0,0,0,0,0,-1,1196,1695,-0.662966,-5.40405
-21,-671,0.821289,6.78247,0,0,0,0,0,0,0,-1,1203,1695,0.821232,-6.78249
-14,-671,2.92737,8.98706,0,0,0,0,0,0,0,-1,1210,1695,2.92732,-8.98706
-7,-671,2.93506,8.97009,0,0,0,0,0,0,0,-1,1217,1695,2.93501,-8.97005
0,-671,3.03821,8.92737,0,0,0,0,0,0,0,-1,1224,1695,3.03817,-8.92734
7,-671,3.14294,8.79077,0,0,0,0,0,0,0,-1,1231,1695,3.14293,-8.79083
14,-671,3.73352,8.56567,0.0346981,0.00190644,-0.00380537,0.0351339,0.00147063,-0.114028,0.0229481,0.0450919,1238,1695,3.73351,-8.56566
21,-671,3.72034,8.44031,0.0379651,-0.000270411,0.000918911,0.0379872,-0.000292482,0.0240144,0.0254229,0.0455998,1245,1695,3.72034,-8.44029
28,-671,3.61279,8.31604,0,0,0,0,0,0,0,-1,1252,1695,3.61277,-8.31609
35,-671,3.64478,8.39758,0.0435256,-0.00444069,0.0113887,0.0460923,-0.00700736,0.221667,0.0333106,0.0454205,1259,1695,3.64472,-8.39762
42,-671,4.2854,8.59485,0.0454159,-0.00651652,0.0163907,0.0501563,-0.011257,0.281534,0.0377535,0.0447339,1266,1695,4.2854,-8.5949
49,-671,4.98572,8.44775,0.0459094,-0.00814075,0.0213236,0.0533089,-0.0155403,0.334008,0.0416961,0.0438599,1273,1695,4.98568,-8.4478
56,-671,5.65259,8.42615,0.0445514,-0.00865646,0.0254737,0.0547806,-0.0188857,0.38185,0.0441822,0.045644,1280,1695,5.65259,-8.4262
63,-671,6.29468,8.50708,0.0416167,-0.0088442,0.0290986,0.0548999,-0.0221274,0.428238,0.0457938,0.0475603,1287,1695,6.2947,-8.50707
70,-671,6.96533,8.57104,0,0,0,0,0,0,0,-1,1294,1695,6.96529,-8.57102
77,-671,3.83972,8.35193,0.0342348,-0.00743672,0.0329565,0.0523895,-0.0255915,0.503511,0.0459,0.0456427,1301,1695,3.8397,-8.35193
84,-671,3.83606,9.16174,0.0297928,-0.00593561,0.0319156,0.0485036,-0.0246465,0.530256,0.0429754,0.0475199,1308,1695,3.83611,-9.16177
91,-671,4.42529,8.96729,0.0255093,-0.00464277,0.0301209,0.0441165,-0.0232499,0.553368,0.039511,0.0453084,1315,1695,4.42535,-8.96733
98,-671,4.46301,9.48279,0.0217713,-0.00346632,0.0275651,0.0394687,-0.0211637,0.570745,0.0355339,0.045835,1322,1695,4.46298,-9.48276
105,-671,4.23425,9.89954,0.0178102,-0.00260389,0.0246016,0.0342382,-0.0190319,0.588759,0.0311704,0.0468876,1329,1695,4.23421,-9.89951
112,-671,4.0481,10.1167,0.0150734,-0.00224761,0.0212451,0.0293555,-0.0165296,0.591857,0.0268345,0.045935,1336,1695,4.04807,-10.1167
119,-671,3.91858,10.3569,0,0,0,0,0,0,0,-1,1343,1695,3.91853,-10.3569
126,-671,3.48962,9.0863,0,0,0,0,0,0,0,-1,1350,1695,3.48967,-9.08636
133,-671,3.15723,8.93774,0,0,0,0,0,0,0,-1,1357,1695,3.15722,-8.9377
140,-671,4.90894,9.23669,0,0,0,0,0,0,0,-1,1364,1695,4.90897,-9.23674
147,-671,4.66052,9.08215,0,0,0,0,0,0,0,-1,1371,1695,4.66056,-9.08214
154,-671,4.41211,8.92749,0,0,0,0,0,0,0,-1,1378,1695,4.41216,-8.92753
161,-671,4.49292,4.91272,0,0,0,0,0,0,0,-1,1385,1695,4.49297,-4.91273
168,-671,5.17639,6.1416,0,0,0,0,0,0,0,-1,1392,1695,5.1764,-6.14164
175,-671,5.6731,1.64685,0,0,0,0,0,0,0,-1,1399,1695,5.67313,-1.64691
182,-671,5.56812,1.71692,0,0,0,0,0,0,0,-1,1406,1695,5.56809,-1.71686
189,-671,6.98315,6.36169,0,0,0,0,0,0,0,-1,1413,1695,6.98312,-6.36175
196,-671,5.38123,5.69775,0,0,0,0,0,0,0,-1,1420,1695,5.38125,-5.69769
203,-671,5.95117,8.11658,0,0,0,0,0,0,0,-1,1427,1695,5.9512,-8.11662
210,-671,4.73596,8.39624,0,0,0,0,0,0,0,-1,1434,1695,4.736,-8.39618
217,-671,4.6427,8.6344,0,0,0,0,0,0,0,-1,1441,1695,4.64275,-8.63434
224,-671,4.21594,8.32996,0,0,0,0,0,0,0,-1,1448,1695,4.21591,-8.33
231,-671,4.07593,8.33728,0,0,0,0,0,0,0,-1,1455,1695,4.0759,-8.33732
238,-671,3.80969,7.24585,0,0,0,0,0,0,0,-1,1462,1695,3.80971,-7.24586
245,-671,3.94507,7.24756,0,0,0,0,0,0,0,-1,1469,1695,3.94502,-7.24751
252,-671,3.89014,8.3949,0,0,0,0,0,0,0,-1,1476,1695,3.89017,-8.39494
259,-671,4.00769,8.4967,0.00107976,-0.00561569,0.00149776,0.00139953,-0.00593546,0.210343,0.00449667,0.037098,1483,1695,4.00764,-8.49672
266,-671,3.94141,8.46924,0.00119085,-0.00531651,0.00115276,0.00138902,-0.00551469,0.170248,0.00421643,0.0162449,1490,1695,3.94143,-8.46922
273,-671,3.90625,8.43567,0.00161009,-0.00473368,0.000591389,0.00166475,-0.00478834,0.0921654,0.00386845,0.00939223,1497,1695,3.90621,-8.43565
280,-671,3.88806,8.38477,0.00163244,-0.00386459,0.000254424,0.00164419,-0.00387634,0.0461524,0.00327298,0.00908459,1504,1695,3.88804,-8.38479
287,-671,3.88684,8.29578,0.0014149,-0.00325873,2.58746e-05,0.00141504,-0.00325887,0.00553608,0.00276759,0.0103959,1511,1695,3.88682,-8.29576
294,-671,3.89392,8.21973,0.00118019,-0.00271334,-0.000127999,0.00118439,-0.00271754,-0.0328276,0.00231002,0.0102874,1518,1695,3.8939,-8.21973
301,-671,3.90137,8.18555,0.0010283,-0.00215674,-0.000285881,0.00105376,-0.00218219,-0.0888115,0.00190577,0.0101883,1525,1695,3.90143,-8.18555
308,-671,3.91125,8.13818,0.000931209,-0.00158759,-0.000432902,0.00100353,-0.00165991,-0.165543,0.00155323,0.0119845,1532,1695,3.9112,-8.1382
315,-671,3.92944,8.0614,0.00088152,-0.00104518,-0.000576415,0.0010408,-0.00120446,-0.269601,0.00129745,0.0126649,1539,1695,3.92945,-8.06137
322,-671,3.93958,8.00146,0.00089421,-0.000641058,-0.000697793,0.00116397,-0.000910813,-0.368888,0.00120084,0.0139137,1546,1695,3.93958,-8.00145
329,-671,3.92786,7.96716,0.000867832,-0.00041441,-0.000669573,0.00115373,-0.000700308,-0.403551,0.00108105,0.0136445,1553,1695,3.92789,-7.96711
336,-671,3.94458,7.88049,0.000885998,-0.000151584,-0.000672451,0.00121652,-0.000482107,-0.456841,0.0010108,0.0106039,1560,1695,3.94455,-7.88052
343,-671,3.96118,7.78687,0.00100736,-6.76705e-05,-0.000694915,0.00134838,-0.000408694,-0.456213,0.0010617,0.00962775,1567,1695,3.96117,-7.7868
350,-671,3.95605,7.72791,0.00122092,-6.3074e-05,-0.000796891,0.00160225,-0.000444403,-0.446317,0.00124307,0.0092402,1574,1695,3.95602,-7.72789
357,-671,3.9342,7.64136,0.00140303,-0.000172013,-0.00090108,0.00181222,-0.000581211,-0.426274,0.00144149,0.00923111,1581,1695,3.93425,-7.64133
364,-671,3.92883,7.56775,0.00148156,-0.000211435,-0.00107585,0.00200401,-0.000733884,-0.452073,0.00163644,0.0126345,1588,1695,3.92878,-7.5677
371,-671,3.92834,7.5105,0.00139005,-6.72147e-05,-0.00127493,0.00212988,-0.000807036,-0.525795,0.00175202,0.0148156,1595,1695,3.92833,-7.51055
378,-671,3.94434,7.41858,0.00131223,0.00043495,-0.00160976,0.00254204,-0.000794863,-0.652384,0.00201267,0.0121731,1602,1695,3.94431,-7.41858
385,-671,3.92773,7.32214,0.00114104,0.00102295,-0.00202965,0.0031125,-0.000948508,-0.770856,0.00245308,0.0142399,1609,1695,3.92776,-7.32216
392,-671,3.91174,7.25208,0.000653286,0.00188518,-0.00258413,0.00392575,-0.00138729,-0.902393,0.00318205,0.0196368,1616,1695,3.91179,-7.25207
399,-671,3.92004,7.16663,-5.30508e-05,0.00313176,-0.0029404,0.00488326,-0.00180455,-1.03357,0.00399526,0.0147919,1623,1695,3.9201,-7.16667
406,-671,3.95251,7.08289,-0.00106116,0.00426915,-0.00315196,0.0057317,-0.00252371,-1.13635,0.00488474,0.018577,1630,1695,3.95256,-7.08283
413,-671,3.98389,7.03381,-0.00238108,0.00534895,-0.00338646,0.00662265,-0.00365479,-1.21105,0.00601559,0.0283005,1637,1695,3.98384,-7.03376
420,-671,3.84009,6.75891,-0.00418919,0.00649212,-0.00363061,0.00760932,-0.00530639,-1.27227,0.0074963,0.0434166,1644,1695,3.84007,-6.75889
427,-671,3.79297,6.52026,0,0,0,0,0,0,0,-1,1651,1695,3.79295,-6.52024
434,-671,3.93884,6.63306,0,0,0,0,0,0,0,-1,1658,1695,3.93885,-6.63303
441,-671,3.78088,6.50073,0,0,0,0,0,0,0,-1,1665,1695,3.78084,-6.50069
448,-671,3.90894,6.36206,0,0,0,0,0,0,0,-1,1672,1695,3.90893,-6.36202
455,-671,3.8064,4.61646,0,0,0,0,0,0,0,-1,1679,1695,3.80638,-4.61644
462,-671,5.86255,4.47961,0,0,0,0,0,0,0,-1,1686,1695,5.8625,-4.4796
469,-671,3.71301,3.76978,0,0,0,0,0,0,0,-1,1693,1695,3.71297,-3.76974
476,-671,3.75574,3.18848,0,0,0,0,0,0,0,-1,1700,1695,3.7558,-3.18847
483,-671,3.56714,2.76868,0,0,0,0,0,0,0,-1,1707,1695,3.56713,-2.7687
490,-671,0,0,0,0,0,0,0,0,0,-1,1714,1695,0,0
497,-671,0,0,0,0,0,0,0,0,0,-1,1721,1695,0,0
504,-671,0,0,0,0,0,0,0,0,0,-1,1728,1695,0,0
511,-671,0,0,0,0,0,0,0,0,0,-1,1735,1695,0,0
518,-671,0,0,0,0,0,0,0,0,0,-1,1742,1695,0,0
525,-671,0,0,0,0,0,0,0,0,0,-1,1749,1695,0,0
532,-671,0,0,0,0,0,0,0,0,0,-1,1756,1695,0,0
539,-671,0,0,0,0,0,0,0,0,0,-1,1763,1695,0,0
546,-671,0,0,0,0,0,0,0,0,0,-1,1770,1695,0,0
553,-671,0,0,0,0,0,0,0,0,0,-1,1777,1695,0,0
560,-671,0,0,0,0,0,0,0,0,0,-1,1784,1695,0,0
567,-671,0,0,0,0,0,0,0,0,0,-1,1791,1695,0,0
574,-671,0,0,0,0,0,0,0,0,0,-1,1798,1695,0,0
581,-671,0,0,0,0,0,0,0,0,0,-1,1805,1695,0,0
588,-671,0,0,0,0,0,0,0,0,0,-1,1812,1695,0,0
595,-671,0,0,0,0,0,0,0,0,0,-1,1819,1695,0,0
602,-671,0,0,0,0,0,0,0,0,0,-1,1826,1695,0,0
609,-671,0,0,0,0,0,0,0,0,0,-1,1833,1695,0,0
616,-671,0,0,0,0,0,0,0,0,0,-1,1840,1695,0,0
623,-671,0,0,0,0,0,0,0,0,0,-1,1847,1695,0,0
630,-671,0,0,0,0,0,0,0,0,0,-1,1854,1695,0,0
637,-671,0,0,0,0,0,0,0,0,0,-1,1861,1695,0,0
644,-671,0,0,0,0,0,0,0,0,0,-1,1868,1695,0,0
651,-671,0,0,0,0,0,0,0,0,0,-1,1875,1695,0,0
658,-671,0,0,0,0,0,0,0,0,0,-1,1882,1695,0,0
665,-671,0,0,0,0,0,0,0,0,0,-1,1889,1695,0,0
672,-671,0,0,0,0,0,0,0,0,0,-1,1896,1695,0,0
679,-671,0,0,0,0,0,0,0,0,0,-1,1903,1695,0,0
686,-671,0,0,0,0,0,0,0,0,0,-1,1910,1695,0,0
693,-671,0,0,0,0,0,0,0,0,0,-1,1917,1695,0,0
700,-671,0,0,0,0,0,0,0,0,0,-1,1924,1695,0,0
707,-671,0,0,0,0,0,0,0,0,0,-1,1931,1695,0,0
714,-671,0,0,0,0,0,0,0,0,0,-1,1938,1695,0,0
721,-671,0,0,0,0,0,0,0,0,0,-1,1945,1695,0,0
728,-671,0,0,0,0,0,0,0,0,0,-1,1952,1695,0,0
735,-671,0,0,0,0,0,0,0,0,0,-1,1959,1695,0,0
742,-671,0,0,0,0,0,0,0,0,0,-1,1966,1695,0,0
749,-671,0,0,0,0,0,0,0,0,0,-1,1973,1695,0,0
756,-671,0,0,0,0,0,0,0,0,0,-1,1980,1695,0,0
763,-671,0,0,0,0,0,0,0,0,0,-1,1987,1695,0,0
770,-671,0,0,0,0,0,0,0,0,0,-1,1994,1695,0,0
777,-671,0,0,0,0,0,0,0,0,0,-1,2001,1695,0,0
784,-671,0,0,0,0,0,0,0,0,0,-1,2008,1695,0,0
791,-671,0,0,0,0,0,0,0,0,0,-1,2015,1695,0,0
798,-671,0,0,0,0,0,0,0,0,0,-1,2022,1695,0,0
805,-671,0,0,0,0,0,0,0,0,0,-1,2029,1695,0,0
812,-671,0,0,0,0,0,0,0,0,0,-1,2036,1695,0,0
-700,-678,0,0,0,0,0,0,0,0,0,-1,524,1702,0,0
-693,-678,0,0,0,0,0,0,0,0,0,-1,531,1702,0,0
-686,-678,0,0,0,0,0,0,0,0,0,-1,538,1702,0,0
-679,-678,0,0,0,0,0,0,0,0,0,-1,545,1702,0,0
-672,-678,0,0,0,0,0,0,0,0,0,-1,552,1702,0,0
-665,-678,0,0,0,0,0,0,0,0,0,-1,559,1702,0,0
-658,-678,0,0,0,0,0,0,0,0,0,-1,566,1702,0,0
-651,-678,0,0,0,0,0,0,0,0,0,-1,573,1702,0,0
-644,-678,0,0,0,0,0,0,0,0,0,-1,580,1702,0,0
-637,-678,0,0,0,0,0,0,0,0,0,-1,587,1702,0,0
-630,-678,0,0,0,0,0,0,0,0,0,-1,594,1702,0,0
-623,-678,0,0,0,0,0,0,0,0,0,-1,601,1702,0,0
-616,-678,0,0,0,0,0,0,0,0,0,-1,608,1702,0,0
-609,-678,0,0,0,0,0,0,0,0,0,-1,615,1702,0,0
-602,-678,0,0,0,0,0,0,0,0,0,-1,622,1702,0,0
-595,-678,0,0,0,0,0,0,0,0,0,-1,629,1702,0,0
-588,-678,0,0,0,0,0,0,0,0,0,-1,636,1702,0,0
-581,-678,0,0,0,0,0,0,0,0,0,-1,643,1702,0,0
-574,-678,0,0,0,0,0,0,0,0,0,-1,650,1702,0,0
-567,-678,0,0,0,0,0,0,0,0,0,-1,657,1702,0,0
-560,-678,0,0,0,0,0,0,0,0,0,-1,664,1702,0,0
-553,-678,0,0,0,0,0,0,0,0,0,-1,671,1702,0,0
-546,-678,0,0,0,0,0,0,0,0,0,-1,678,1702,0,0
-539,-678,0,0,0,0,0,0,0,0,0,-1,685,1702,0,0
-532,-678,0,0,0,0,0,0,0,0,0,-1,692,1702,0,0
-525,-678,0,0,0,0,0,0,0,0,0,-1,699,1702,0,0
-518,-678,0,0,0,0,0,0,0,0,0,-1,706,1702,0,0
-511,-678,0,0,0,0,0,0,0,0,0,-1,713,1702,0,0
-504,-678,0,0,0,0,0,0,0,0,0,-1,720,1702,0,0
-497,-678,0,0,0,0,0,0,0,0,0,-1,727,1702,0,0
-490,-678,0,0,0,0,0,0,0,0,0,-1,734,1702,0,0
-483,-678,0,0,0,0,0,0,0,0,0,-1,741,1702,0,0
-476,-678,0,0,0,0,0,0,0,0,0,-1,748,1702,0,0
-469,-678,0,0,0,0,0,0,0,0,0,-1,755,1702,0,0
-462,-678,0,0,0,0,0,0,0,0,0,-1,762,1702,0,0
-455,-678,0,0,0,0,0,0,0,0,0,-1,769,1702,0,0
-448,-678,0,0,0,0,0,0,0,0,0,-1,776,1702,0,0
-441,-678,0,0,0,0,0,0,0,0,0,-1,783,1702,0,0
-434,-678,0,0,0,0,0,0,0,0,0,-1,790,1702,0,0
-427,-678,0,0,0,0,0,0,0,0,0,-1,797,1702,0,0
-420,-678,0,0,0,0,0,0,0,0,0,-1,804,1702,0,0
-413,-678,0,0,0,0,0,0,0,0,0,-1,811,1702,0,0
-406,-678,0,0,0,0,0,0,0,0,0,-1,818,1702,0,0
-399,-678,0,0,0,0,0,0,0,0,0,-1,825,1702,0,0
-392,-678,0,0,0,0,0,0,0,0,0,-1,832,1702,0,0
-385,-678,0,0,0,0,0,0,0,0,0,-1,839,1702,0,0
-378,-678,0,0,0,0,0,0,0,0,0,-1,846,1702,0,0
-371,-678,0,0,0,0,0,0,0,0,0,-1,853,1702,0,0
-364,-678,0,0,0,0,0,0,0,0,0,-1,860,1702,0,0
-357,-678,0,0,0,0,0,0,0,0,0,-1,867,1702,0,0
-350,-678,7.26245,6.28833,0,0,0,0,0,0,0,-1,874,1702,7.26245,-6.28831
-343,-678,6.58563,6.49084,0,0,0,0,0,0,0,-1,881,1702,6.58566,-6.49085
-336,-678,5.96704,6.45715,0,0,0,0,0,0,0,-1,888,1702,5.96704,-6.4571
-329,-678,5.77039,6.448,0,0,0,0,0,0,0,-1,895,1702,5.7704,-6.44798
-322,-678,5.52441,6.5752,0,0,0,0,0,0,0,-1,902,1702,5.5244,-6.57518
-315,-678,5.28656,6.73193,0,0,0,0,0,0,0,-1,909,1702,5.28654,-6.73196
-308,-678,3.07391,6.94287,0,0,0,0,0,0,0,-1,916,1702,3.07393,-6.94288
-301,-678,2.22479,6.65186,0,0,0,0,0,0,0,-1,923,1702,2.22482,-6.65185
-294,-678,3.1568,6.28186,0,0,0,0,0,0,0,-1,930,1702,3.15679,-6.28188
-287,-678,3.10089,6.43372,-0.0208731,0.0101458,0.00875477,0.0124462,-0.0231735,1.31385,0.0208736,0.0449302,937,1702,3.10091,-6.43374
-280,-678,2.98474,6.64917,-0.0180256,0.0092739,0.00771832,0.011305,-0.0200567,1.31348,0.0183402,0.0443059,944,1702,2.98474,-6.64913
-273,-678,2.80103,6.7428,-0.015513,0.00826287,0.00626758,0.00981389,-0.0170641,1.3282,0.015705,0.0418219,951,1702,2.80102,-6.74281
-266,-678,2.87402,6.76538,-0.0130267,0.00716066,0.00497099,0.00831834,-0.0141844,1.34199,0.0131383,0.0351428,958,1702,2.87402,-6.76535
-259,-678,3.10858,6.79407,-0.010808,0.00593418,0.00366463,0.00670118,-0.011575,1.36448,0.0106761,0.0223215,965,1702,3.10858,-6.79404
-252,-678,3.11688,6.83777,-0.00876223,0.00471763,0.00257755,0.00519368,-0.00923829,1.38816,0.00844067,0.0174839,972,1702,3.11691,-6.83774
-245,-678,3.151,6.94263,-0.00704361,0.00387689,0.00163539,0.00411654,-0.00728326,1.42529,0.00666579,0.0189678,979,1702,3.15098,-6.94263
-238,-678,3.14606,7.03992,-0.00572383,0.00309541,0.000899488,0.00318622,-0.00581464,1.47019,0.00526999,0.0161688,986,1702,3.14604,-7.0399
-231,-678,3.12323,7.12769,-0.00467651,0.0024918,0.000418776,0.00251618,-0.0047009,1.51264,0.00422994,0.0130968,993,1702,3.12322,-7.12769
-224,-678,3.11469,7.18762,-0.00322955,0.00165986,-5.26098e-05,0.00166043,-0.00323012,-1.56004,0.00287163,0.0126114,1000,1702,3.11468,-7.18761
-217,-678,3.12439,7.27502,-0.00231397,0.00120306,-0.000499935,0.00127275,-0.00238366,-1.4323,0.00214326,0.012591,1007,1702,3.12442,-7.27503
-210,-678,3.12744,7.39819,-0.00217773,0.00102848,-0.000534782,0.00111532,-0.00226457,-1.4098,0.00198863,0.0131606,1014,1702,3.12745,-7.39823
-203,-678,3.10107,7.45239,-0.00203322,0.000767632,-0.000447443,0.000837375,-0.00210297,-1.41617,0.00174924,0.0174002,1021,1702,3.10111,-7.45245
-196,-678,3.10168,7.52856,-0.00166135,0.00054999,-0.000524253,0.000667982,-0.00177934,-1.34942,0.00146072,0.0183063,1028,1702,3.10169,-7.52862
-189,-678,3.11377,7.63892,-0.00133774,0.00026544,-0.000611151,0.000471843,-0.00154415,-1.24509,0.00121758,0.0107545,1035,1702,3.11376,-7.63891
-182,-678,3.11816,7.70972,-0.000994123,9.89411e-05,-0.000722451,0.000458297,-0.00135348,-1.10922,0.00108776,0.00997021,1042,1702,3.11821,-7.7097
-175,-678,3.11646,7.77026,-0.000568185,4.95925e-05,-0.00090632,0.000698215,-0.00121681,-0.949633,0.00111907,0.0107595,1049,1702,3.1164,-7.77022
-168,-678,3.11646,7.85352,-6.68887e-05,-0.000101671,-0.000997394,0.000913266,-0.00108183,-0.776681,0.00115324,0.0106053,1056,1702,3.11647,-7.85348
-161,-678,3.11743,7.91992,0.000372515,-0.000237524,-0.00109208,0.00120137,-0.00106638,-0.649218,0.00131006,0.00898276,1063,1702,3.1174,-7.91991
-154,-678,3.11145,7.97571,0.00077842,-0.000324941,-0.00117428,0.00152415,-0.00107067,-0.565798,0.00150573,0.0078904,1070,1702,3.11144,-7.97573
-147,-678,3.10498,8.03577,0.00106159,-0.000417164,-0.00123435,0.00176107,-0.00111664,-0.515557,0.00167528,0.00962817,1077,1702,3.10499,-8.03573
-140,-678,3.12207,8.12427,0.00121212,-0.000944068,-0.00130124,0.00182385,-0.0015558,-0.439455,0.00195329,0.0119998,1084,1702,3.12204,-8.12428
-133,-678,3.14185,8.18945,0.00122985,-0.00195204,-0.00141857,0.00177044,-0.00249263,-0.364091,0.00247303,0.0124215,1091,1702,3.1418,-8.18944
-126,-678,3.14551,8.24939,0.00125618,-0.00308454,-0.00144757,0.00169464,-0.00352299,-0.294108,0.00307344,0.0090802,1098,1702,3.14555,-8.24939
-119,-678,3.15649,8.32104,0.00209325,-0.00301942,7.2323e-05,0.00209428,-0.00302045,0.014142,0.00296908,0.0165609,1105,1702,3.15651,-8.32103
-112,-678,3.17175,8.37561,0.00296196,-0.00144048,0.00310886,0.00456998,-0.00304851,0.477345,0.00442768,0.0224664,1112,1702,3.17177,-8.37561
-105,-678,3.20251,8.42896,0.00385898,0.0017832,0.00777471,0.0106648,-0.00502259,0.719042,0.00925031,0.0228617,1119,1702,3.20254,-8.42895
-98,-678,3.18506,8.42749,0.00485968,0.00491901,0.0124189,0.0173083,-0.00752964,0.786593,0.014706,0.0161793,1126,1702,3.18502,-8.42749
-91,-678,3.19629,8.47986,0.00621342,0.00960839,0.0184921,0.0264807,-0.0106589,0.831167,0.0220816,0.0158462,1133,1702,3.19627,-8.4799
-84,-678,3.17786,8.46716,0.00795279,0.0154319,0.0254859,0.0374511,-0.0140664,0.858243,0.0307481,0.0253583,1140,1702,3.17783,-8.46713
-77,-678,3.19568,8.51233,0.0100158,0.0221201,0.0329024,0.0495223,-0.0173865,0.876352,0.0400875,0.0351406,1147,1702,3.19567,-8.51229
-70,-678,3.24658,8.66187,0.0121045,0.0288881,0.0397653,0.0611374,-0.0201448,0.889389,0.0488772,0.0404845,1154,1702,3.24663,-8.66183
-63,-678,3.24561,8.86487,0,0,0,0,0,0,0,-1,1161,1702,3.24556,-8.8649
-56,-678,1.72388,6.13159,0,0,0,0,0,0,0,-1,1168,1702,1.72388,-6.13157
-49,-678,-0.241699,5.29895,0,0,0,0,0,0,0,-1,1175,1702,-0.241682,-5.29897
-42,-678,0.297119,3.90649,0,0,0,0,0,0,0,-1,1182,1702,0.297139,-3.90655
-35,-678,0.498413,3.64038,0,0,0,0,0,0,0,-1,1189,1702,0.498471,-3.64038
-28,-678,0.132446,3.55994,0,0,0,0,0,0,0,-1,1196,1702,0.132432,-3.55993
-21,-678,3.12976,8.86426,0,0,0,0,0,0,0,-1,1203,1702,3.12978,-8.86427
-14,-678,3.15576,8.93604,0.015115,0.01576,0.00207175,0.0175342,0.0133408,0.862614,0.0105726,0.0376878,1210,1702,3.15581,-8.93607
-7,-678,3.17969,8.87769,0.016385,0.00944838,-0.00396736,0.0181863,0.00764705,-0.426207,0.010544,0.0422717,1217,1702,3.17967,-8.87768
0,-678,3.4375,8.745,0.0200483,0.00362718,-0.00705616,0.0226637,0.00101171,-0.354963,0.0147835,0.0452446,1224,1702,3.43749,-8.74499
7,-678,3.38293,8.73694,0.023901,0.000417698,-0.00545767,0.0251074,-0.000788718,-0.217551,0.0170073,0.0442154,1231,1702,3.38294,-8.73691
14,-678,3.14722,8.93677,0,0,0,0,0,0,0,-1,1238,1702,3.1472,-8.93676
21,-678,3.53906,8.72412,0.0298666,-0.00357385,0.00173951,0.0299569,-0.00366409,0.0518316,0.0212979,0.0421252,1245,1702,3.53907,-8.72407
28,-678,3.49133,8.62012,0.0318815,-0.00515504,0.00593837,0.0328104,-0.00608389,0.155158,0.0241583,0.0422725,1252,1702,3.49129,-8.62016
35,-678,3.56653,8.48328,0.034254,-0.00689734,0.0103088,0.036692,-0.00933537,0.232232,0.028095,0.0416204,1259,1702,3.56652,-8.48331
42,-678,4.26746,9.0343,0.0357901,-0.00847521,0.0145546,0.0401469,-0.012832,0.290853,0.0319138,0.0439262,1266,1702,4.26749,-9.03431
49,-678,4.55774,8.75256,0.0361131,-0.00950317,0.0186662,0.0427777,-0.0161677,0.342931,0.0351691,0.0425433,1273,1702,4.55768,-8.75258
56,-678,3.18774,8.88562,0,0,0,0,0,0,0,-1,1280,1702,3.18775,-8.88557
63,-678,5.6123,8.90503,0.0324934,-0.00912113,0.0249759,0.0441936,-0.0208214,0.4381,0.0383364,0.0472659,1287,1702,5.61232,-8.90508
70,-678,6.29346,8.98376,0.0297603,-0.00832634,0.027322,0.0440207,-0.0225868,0.481045,0.0391139,0.0465954,1294,1702,6.29342,-8.98378
77,-678,3.7218,8.70178,0.0266962,-0.00718721,0.0280928,0.0425604,-0.0230514,0.514064,0.0384351,0.0480221,1301,1702,3.72182,-8.70173
84,-678,3.86975,9.08423,0.0232589,-0.00565462,0.0272985,0.0396924,-0.0220881,0.541882,0.0361484,0.0477838,1308,1702,3.86971,-9.0842
91,-678,3.80579,9.34912,0.0198546,-0.00431368,0.0259269,0.0363752,-0.0208343,0.567323,0.0334337,0.0422548,1315,1702,3.80581,-9.34909
98,-678,3.82983,9.83899,0.0167808,-0.00306434,0.0239527,0.0327848,-0.0190684,0.58903,0.0302846,0.0409458,1322,1702,3.82982,-9.839
105,-678,3.80505,10.3363,0.0134884,-0.00207677,0.0216517,0.0287137,-0.0173021,0.612867,0.0268382,0.0424559,1329,1702,3.8051,-10.3363
112,-678,3.79846,10.78,0.0112666,-0.00148413,0.0190302,0.0249609,-0.0151785,0.623768,0.0234028,0.044591,1336,1702,3.79845,-10.7801
119,-678,3.65979,8.78833,0,0,0,0,0,0,0,-1,1343,1702,3.65977,-8.78828
126,-678,3.34534,9.08496,0.00947197,-0.00153846,0.0136396,0.0186754,-0.0107419,0.593586,0.0171888,0.0467195,1350,1702,3.34534,-9.08495
133,-678,3.20862,8.96155,0.00729473,-0.00187166,0.0113297,0.0149331,-0.00951006,0.593195,0.0142276,0.0496847,1357,1702,3.20856,-8.96149
140,-678,3.62854,8.84167,0,0,0,0,0,0,0,-1,1364,1702,3.62855,-8.8417
147,-678,4.14612,8.9187,0,0,0,0,0,0,0,-1,1371,1702,4.14614,-8.91872
154,-678,3.99536,8.84241,0,0,0,0,0,0,0,-1,1378,1702,3.99532,-8.84246
161,-678,3.44202,4.53992,0,0,0,0,0,0,0,-1,1385,1702,3.442,-4.53996
168,-678,4.21863,5.25781,0,0,0,0,0,0,0,-1,1392,1702,4.21865,-5.25781
175,-678,5.21899,5.9635,0,0,0,0,0,0,0,-1,1399,1702,5.21894,-5.96346
182,-678,7.31262,6.75122,0,0,0,0,0,0,0,-1,1406,1702,7.3126,-6.75123
189,-678,5.96021,6.36853,0,0,0,0,0,0,0,-1,1413,1702,5.96018,-6.36851
196,-678,5.01599,8.15771,0,0,0,0,0,0,0,-1,1420,1702,5.01596,-8.15767
203,-678,3.99597,9.10938,0,0,0,0,0,0,0,-1,1427,1702,3.99591,-9.1094
210,-678,3.92871,8.93579,0,0,0,0,0,0,0,-1,1434,1702,3.92875,-8.9358
217,-678,4.21033,8.67688,-0.00588091,-0.00310074,0.00544762,0.00113135,-0.010113,0.910319,0.00714902,0.0440135,1441,1702,4.21028,-8.67689
224,-678,3.88062,8.52478,-0.00516014,-0.00283821,0.00422896,0.000386253,-0.0083846,0.919362,0.00572283,0.036259,1448,1702,3.88065,-8.52478
231,-678,3.83167,8.62268,-0.00402144,-0.00259838,0.00342928,0.000192404,-0.00681223,0.88769,0.00460696,0.0294142,1455,1702,3.83164,-8.62274
238,-678,3.83765,8.62158,0,0,0,0,0,0,0,-1,1462,1702,3.83765,-8.62161
245,-678,3.83569,8.64185,0,0,0,0,0,0,0,-1,1469,1702,3.83573,-8.64186
252,-678,3.85071,8.58167,-0.00175657,-0.00161768,0.00179514,0.000109362,-0.00348361,0.804732,0.0023597,0.0166618,1476,1702,3.85076,-8.58168
259,-678,3.82935,8.54175,-0.00151685,-0.00149147,0.00150392,-1.84751e-07,-0.00300814,0.789617,0.00200537,0.012048,1483,1702,3.8293,-8.54177
266,-678,3.85156,8.47656,-0.00119776,-0.00139701,0.00110471,-0.000188192,-0.00240658,0.740428,0.00154548,0.00995856,1490,1702,3.85161,-8.47662
273,-678,3.85974,8.42395,-0.000631398,-0.00107952,0.000613215,-0.00020259,-0.00150832,0.610242,0.000945284,0.0103548,1497,1702,3.85976,-8.4239
280,-678,3.84204,8.37976,-0.000358967,-0.000612772,0.000323054,-0.000138784,-0.000832955,0.598246,0.00051531,0.0113944,1504,1702,3.84204,-8.37973
287,-678,3.85254,8.3092,-0.000265992,-0.00036564,0.000100813,-0.000203363,-0.000428269,0.555891,0.000247365,0.0115391,1511,1702,3.8525,-8.30915
294,-678,3.85889,8.22778,-0.000188707,-0.000182517,-3.38029e-05,-0.000151668,-0.000219556,-0.831047,0.000129801,0.0116686,1518,1702,3.85887,-8.22772
301,-678,3.85217,8.18311,-6.59039e-05,4.48424e-05,-0.000178499,0.00017636,-0.000197421,-0.935799,0.000215917,0.0113616,1525,1702,3.85215,-8.18315
308,-678,3.86035,8.14001,4.95482e-05,0.000291604,-0.000301144,0.000495131,-0.000153978,-0.976467,0.000391636,0.013746,1532,1702,3.86036,-8.14001
315,-678,3.87268,8.06799,0.000178735,0.000526941,-0.000413808,0.00080178,-9.61048e-05,-0.984524,0.000569266,0.0146045,1539,1702,3.87267,-8.06799
322,-678,3.86218,8.00781,0.000328017,0.000659814,-0.000514105,0.00103412,-4.62946e-05,-0.94147,0.000705355,0.016767,1546,1702,3.86222,-8.00784
329,-678,3.85376,7.95618,0.000489327,0.000557689,-0.000470968,0.000995715,5.13012e-05,-0.821623,0.000647387,0.0150915,1553,1702,3.8538,-7.95619
336,-678,3.86792,7.87952,0.000646838,0.00054072,-0.000488255,0.00108491,0.00010265,-0.731275,0.0006916,0.0123263,1560,1702,3.8679,-7.87952
343,-678,3.86572,7.7959,0.000866032,0.000420642,-0.000539666,0.00122715,5.95286e-05,-0.589715,0.000798994,0.0105828,1567,1702,3.86577,-7.79592
350,-678,3.86853,7.73389,0.00121989,0.00017802,-0.000709806,0.0015794,-0.000181499,-0.468837,0.00111836,0.00982288,1574,1702,3.86858,-7.73391
357,-678,3.88281,7.6554,0.00151633,-0.000132163,-0.00088057,0.00189823,-0.000514061,-0.409212,0.00146717,0.00874584,1581,1702,3.88281,-7.65538
364,-678,3.87683,7.58142,0.00165748,-0.000295424,-0.00109633,0.00214915,-0.000787102,-0.421585,0.00175499,0.0124542,1588,1702,3.87679,-7.58144
371,-678,3.85229,7.50256,0.00161174,-0.00021174,-0.00138051,0.00235442,-0.000954413,-0.493559,0.00196653,0.0131144,1595,1702,3.85225,-7.5026
378,-678,3.85681,7.40442,0.00159311,0.000355289,-0.00181911,0.00289571,-0.00094731,-0.621427,0.00231187,0.0130511,1602,1702,3.8568,-7.40442
385,-678,3.86877,7.33496,0.00144649,0.00106209,-0.00233279,0.00359499,-0.00108641,-0.744297,0.0028292,0.0137148,1609,1702,3.86873,-7.33498
392,-678,3.91357,7.2981,0.0009087,0.00212574,-0.00300434,0.00458257,-0.00154813,-0.88532,0.00368124,0.024582,1616,1702,3.91355,-7.29807
399,-678,3.97107,7.23706,5.93626e-05,0.00365733,-0.00349238,0.00578684,-0.00207015,-1.02323,0.00470237,0.0371459,1623,1702,3.97108,-7.23702
406,-678,3.94226,7.12927,-0.00118816,0.00513493,-0.00382125,0.00693296,-0.00298618,-1.131,0.00587599,0.0408595,1630,1702,3.94229,-7.12933
413,-678,3.81348,6.83008,-0.00276004,0.00669524,-0.00420837,0.00829698,-0.00436177,-1.20712,0.00742531,0.0434279,1637,1702,3.81344,-6.83003
420,-678,3.64478,6.52319,-0.00490198,0.00842559,-0.00464263,0.00988338,-0.00635978,-1.26654,0.00945126,0.0443139,1644,1702,3.64482,-6.52321
427,-678,3.59534,6.34167,-0.00732718,0.0105315,-0.00502104,0.0118464,-0.00864206,-1.31467,0.0118771,0.0454215,1651,1702,3.59537,-6.34165
434,-678,3.63684,6.20178,0,0,0,0,0,0,0,-1,1658,1702,3.63678,-6.20181
441,-678,3.79553,6.42493,0,0,0,0,0,0,0,-1,1665,1702,3.79558,-6.42489
448,-678,3.95471,5.38159,0,0,0,0,0,0,0,-1,1672,1702,3.95466,-5.38165
455,-678,5.44678,5.54297,0,0,0,0,0,0,0,-1,1679,1702,5.44676,-5.54294
462,-678,3.86792,2.87402,0,0,0,0,0,0,0,-1,1686,1702,3.86796,-2.87406
469,-678,2.26587,1.98755,0,0,0,0,0,0,0,-1,1693,1702,2.26592,-1.98755
476,-678,0,0,0,0,0,0,0,0,0,-1,1700,1702,0,0
483,-678,0,0,0,0,0,0,0,0,0,-1,1707,1702,0,0
490,-678,0,0,0,0,0,0,0,0,0,-1,1714,1702,0,0
497,-678,0,0,0,0,0,0,0,0,0,-1,1721,1702,0,0
504,-678,0,0,0,0,0,0,0,0,0,-1,1728,1702,0,0
511,-678,0,0,0,0,0,0,0,0,0,-1,1735,1702,0,0
518,-678,0,0,0,0,0,0,0,0,0,-1,1742,1702,0,0
525,-678,0,0,0,0,0,0,0,0,0,-1,1749,1702,0,0
532,-678,0,0,0,0,0,0,0,0,0,-1,1756,1702,0,0
539,-678,0,0,0,0,0,0,0,0,0,-1,1763,1702,0,0
546,-678,0,0,0,0,0,0,0,0,0,-1,1770,1702,0,0
553,-678,0,0,0,0,0,0,0,0,0,-1,1777,1702,0,0
560,-678,0,0,0,0,0,0,0,0,0,-1,1784,1702,0,0
567,-678,0,0,0,0,0,0,0,0,0,-1,1791,1702,0,0
574,-678,0,0,0,0,0,0,0,0,0,-1,1798,1702,0,0
581,-678,0,0,0,0,0,0,0,0,0,-1,1805,1702,0,0
588,-678,0,0,0,0,0,0,0,0,0,-1,1812,1702,0,0
595,-678,0,0,0,0,0,0,0,0,0,-1,1819,1702,0,0
602,-678,0,0,0,0,0,0,0,0,0,-1,1826,1702,0,0
609,-678,0,0,0,0,0,0,0,0,0,-1,1833,1702,0,0
616,-678,0,0,0,0,0,0,0,0,0,-1,1840,1702,0,0
623,-678,0,0,0,0,0,0,0,0,0,-1,1847,1702,0,0
630,-678,0,0,0,0,0,0,0,0,0,-1,1854,1702,0,0
637,-678,0,0,0,0,0,0,0,0,0,-1,1861,1702,0,0
644,-678,0,0,0,0,0,0,0,0,0,-1,1868,1702,0,0
651,-678,0,0,0,0,0,0,0,0,0,-1,1875,1702,0,0
658,-678,0,0,0,0,0,0,0,0,0,-1,1882,1702,0,0
665,-678,0,0,0,0,0,0,0,0,0,-1,1889,1702,0,0
672,-678,0,0,0,0,0,0,0,0,0,-1,1896,1702,0,0
679,-678,0,0,0,0,0,0,0,0,0,-1,1903,1702,0,0
686,-678,0,0,0,0,0,0,0,0,0,-1,1910,1702,0,0
693,-678,0,0,0,0,0,0,0,0,0,-1,1917,1702,0,0
700,-678,0,0,0,0,0,0,0,0,0,-1,1924,1702,0,0
707,-678,0,0,0,0,0,0,0,0,0,-1,1931,1702,0,0
714,-678,0,0,0,0,0,0,0,0,0,-1,1938,1702,0,0
721,-678,0,0,0,0,0,0,0,0,0,-1,1945,1702,0,0
728,-678,0,0,0,0,0,0,0,0,0,-1,1952,1702,0,0
735,-678,0,0,0,0,0,0,0,0,0,-1,1959,1702,0,0
742,-678,0,0,0,0,0,0,0,0,0,-1,1966,1702,0,0
749,-678,0,0,0,0,0,0,0,0,0,-1,1973,1702,0,0
756,-678,0,0,0,0,0,0,0,0,0,-1,1980,1702,0,0
763,-678,0,0,0,0,0,0,0,0,0,-1,1987,1702,0,0
770,-678,0,0,0,0,0,0,0,0,0,-1,1994,1702,0,0
777,-678,0,0,0,0,0,0,0,0,0,-1,2001,1702,0,0
784,-678,0,0,0,0,0,0,0,0,0,-1,2008,1702,0,0
791,-678,0,0,0,0,0,0,0,0,0,-1,2015,1702,0,0
798,-678,0,0,0,0,0,0,0,0,0,-1,2022,1702,0,0
805,-678,0,0,0,0,0,0,0,0,0,-1,2029,1702,0,0
812,-678,0,0,0,0,0,0,0,0,0,-1,2036,1702,0,0
-700,-685,0,0,0,0,0,0,0,0,0,-1,524,1709,0,0
-693,-685,0,0,0,0,0,0,0,0,0,-1,531,1709,0,0
-686,-685,0,0,0,0,0,0,0,0,0,-1,538,1709,0,0
-679,-685,0,0,0,0,0,0,0,0,0,-1,545,1709,0,0
-672,-685,0,0,0,0,0,0,0,0,0,-1,552,1709,0,0
-665,-685,0,0,0,0,0,0,0,0,0,-1,559,1709,0,0
-658,-685,0,0,0,0,0,0,0,0,0,-1,566,1709,0,0
-651,-685,0,0,0,0,0,0,0,0,0,-1,573,1709,0,0
-644,-685,0,0,0,0,0,0,0,0,0,-1,580,1709,0,0
-637,-685,0,0,0,0,0,0,0,0,0,-1,587,1709,0,0
-630,-685,0,0,0,0,0,0,0,0,0,-1,594,1709,0,0
-623,-685,0,0,0,0,0,0,0,0,0,-1,601,1709,0,0
-616,-685,0,0,0,0,0,0,0,0,0,-1,608,1709,0,0
-609,-685,0,0,0,0,0,0,0,0,0,-1,615,1709,0,0
-602,-685,0,0,0,0,0,0,0,0,0,-1,622,1709,0,0
-595,-685,0,0,0,0,0,0,0,0,0,-1,629,1709,0,0
-588,-685,0,0,0,0,0,0,0,0,0,-1,636,1709,0,0
-581,-685,0,0,0,0,0,0,0,0,0,-1,643,1709,0,0
-574,-685,0,0,0,0,0,0,0,0,0,-1,650,1709,0,0
-567,-685,0,0,0,0,0,0,0,0,0,-1,657,1709,0,0
-560,-685,0,0,0,0,0,0,0,0,0,-1,664,1709,0,0
-553,-685,0,0,0,0,0,0,0,0,0,-1,671,1709,0,0
-546,-685,0,0,0,0,0,0,0,0,0,-1,678,1709,0,0
-539,-685,0,0,0,0,0,0,0,0,0,-1,685,1709,0,0
-532,-685,0,0,0,0,0,0,0,0,0,-1,692,1709,0,0
-525,-685,0,0,0,0,0,0,0,0,0,-1,699,1709,0,0
-518,-685,0,0,0,0,0,0,0,0,0,-1,706,1709,0,0
-511,-685,0,0,0,0,0,0,0,0,0,-1,713,1709,0,0
-504,-685,0,0,0,0,0,0,0,0,0,-1,720,1709,0,0
-497,-685,0,0,0,0,0,0,0,0,0,-1,727,1709,0,0
-490,-685,0,0,0,0,0,0,0,0,0,-1,734,1709,0,0
-483,-685,0,0,0,0,0,0,0,0,0,-1,741,1709,0,0
-476,-685,0,0,0,0,0,0,0,0,0,-1,748,1709,0,0
-469,-685,0,0,0,0,0,0,0,0,0,-1,755,1709,0,0
-462,-685,0,0,0,0,0,0,0,0,0,-1,762,1709,0,0
-455,-685,0,0,0,0,0,0,0,0,0,-1,769,1709,0,0
-448,-685,0,0,0,0,0,0,0,0,0,-1,776,1709,0,0
-441,-685,0,0,0,0,0,0,0,0,0,-1,783,1709,0,0
-434,-685,0,0,0,0,0,0,0,0,0,-1,790,1709,0,0
-427,-685,0,0,0,0,0,0,0,0,0,-1,797,1709,0,0
-420,-685,0,0,0,0,0,0,0,0,0,-1,804,1709,0,0
-413,-685,0,0,0,0,0,0,0,0,0,-1,811,1709,0,0
-406,-685,0,0,0,0,0,0,0,0,0,-1,818,1709,0,0
-399,-685,0,0,0,0,0,0,0,0,0,-1,825,1709,0,0
-392,-685,0,0,0,0,0,0,0,0,0,-1,832,1709,0,0
-385,-685,0,0,0,0,0,0,0,0,0,-1,839,1709,0,0
-378,-685,0,0,0,0,0,0,0,0,0,-1,846,1709,0,0
-371,-685,0,0,0,0,0,0,0,0,0,-1,853,1709,0,0
-364,-685,0,0,0,0,0,0,0,0,0,-1,860,1709,0,0
-357,-685,0,0,0,0,0,0,0,0,0,-1,867,1709,0,0
-350,-685,0,0,0,0,0,0,0,0,0,-1,874,1709,0,0
-343,-685,7.8501,6.66699,0,0,0,0,0,0,0,-1,881,1709,7.85012,-6.667
-336,-685,7.25037,6.66833,0,0,0,0,0,0,0,-1,888,1709,7.2504,-6.6684
-329,-685,6.96698,6.80896,0,0,0,0,0,0,0,-1,895,1709,6.96697,-6.80895
-322,-685,6.73004,6.89124,0,0,0,0,0,0,0,-1,902,1709,6.73005,-6.89125
-315,-685,4.32922,3.88074,0,0,0,0,0,0,0,-1,909,1709,4.32925,-3.88075
-308,-685,2.49115,7.49548,0,0,0,0,0,0,0,-1,916,1709,2.49114,-7.49543
-301,-685,1.99048,6.979,0,0,0,0,0,0,0,-1,923,1709,1.9905,-6.97903
-294,-685,1.33508,6.5686,0,0,0,0,0,0,0,-1,930,1709,1.33511,-6.56855
-287,-685,3.18225,6.43201,0,0,0,0,0,0,0,-1,937,1709,3.18223,-6.43198
-280,-685,3.1355,6.62683,-0.027123,0.015134,0.00980956,0.0173001,-0.0292891,1.35346,0.0271936,0.0476471,944,1709,3.13548,-6.62687
-273,-685,2.55908,6.89392,-0.0235164,0.0133774,0.00791763,0.0150048,-0.0251437,1.36808,0.0234248,0.0480687,951,1709,2.55908,-6.89387
-266,-685,2.65161,6.81677,-0.0199471,0.0114419,0.00622268,0.0126305,-0.0211357,1.38206,0.0197,0.0448116,958,1709,2.65163,-6.81675
-259,-685,3.36835,6.6991,-0.0166363,0.00936187,0.00459406,0.0101498,-0.0174242,1.40094,0.0161035,0.0385545,965,1709,3.36837,-6.69916
-252,-685,3.28778,6.85181,-0.0135728,0.00724863,0.00322206,0.00773583,-0.01406,1.42072,0.0127592,0.0329271,972,1709,3.28777,-6.85186
-245,-685,3.27557,6.8905,-0.011017,0.00575451,0.00202592,0.00599576,-0.0112582,1.45227,0.0101149,0.0332071,979,1709,3.27557,-6.89056
-238,-685,3.28888,6.98438,-0.00895124,0.00442926,0.00112513,0.00452321,-0.00904519,1.48749,0.00797742,0.0261884,986,1709,3.28886,-6.98435
-231,-685,3.2334,7.11365,-0.00728295,0.00345,0.000546067,0.00347772,-0.00731066,1.52009,0.00635836,0.0171468,993,1709,3.23339,-7.11359
-224,-685,3.21906,7.20215,-0.00514173,0.00221873,-2.56615e-05,0.00221882,-0.00514182,-1.56731,0.00435993,0.01519,1000,1709,3.21907,-7.20216
-217,-685,3.21277,7.29333,-0.00370313,0.00157782,-0.000543411,0.00163316,-0.00375847,-1.46931,0.00319245,0.0116096,1007,1709,3.21278,-7.29338
-210,-685,3.1922,7.38257,-0.00329395,0.00139301,-0.000509724,0.0014478,-0.00334874,-1.46371,0.00284086,0.0140359,1014,1709,3.19219,-7.38256
-203,-685,3.19189,7.47217,-0.00296586,0.00116893,-0.000331287,0.00119531,-0.00299223,-1.49135,0.00249077,0.0142189,1021,1709,3.19186,-7.47223
-196,-685,3.18372,7.54004,-0.00239732,0.0011761,-0.000266697,0.0011959,-0.00241712,-1.49671,0.00212532,0.0134318,1028,1709,3.18367,-7.54
-189,-685,3.19641,7.59973,-0.00188091,0.00104452,-0.00024148,0.00106432,-0.0019007,-1.48899,0.00173441,0.00916379,1035,1709,3.19636,-7.59973
-182,-685,3.18652,7.6814,-0.00139908,0.00096499,-0.000306812,0.00100416,-0.00143825,-1.44382,0.00141753,0.013302,1042,1709,3.18648,-7.68137
-175,-685,3.18188,7.75659,-0.000925097,0.000957539,-0.000444302,0.00105713,-0.00102468,-1.3503,0.00120198,0.0133358,1049,1709,3.18191,-7.75653
-168,-685,3.17981,7.85339,-0.00034525,0.000889578,-0.000450931,0.00103672,-0.000492388,-1.25539,0.000901281,0.0100977,1056,1709,3.17977,-7.85333
-161,-685,3.18628,7.92883,7.99394e-05,0.000799045,-0.000530963,0.00108074,-0.000201757,-1.08302,0.000796312,0.0105147,1063,1709,3.18624,-7.92884
-154,-685,3.19934,7.995,0.000412058,0.00072013,-0.000621746,0.00120664,-7.4449e-05,-0.906827,0.000830354,0.00976774,1070,1709,3.19935,-7.99505
-147,-685,3.19604,8.0509,0.000623697,0.000619697,-0.000695719,0.00131742,-7.40247e-05,-0.783961,0.000903965,0.00904274,1077,1709,3.19599,-8.0509
-140,-685,3.18823,8.12158,0.000729136,8.78815e-05,-0.000771582,0.00124406,-0.000427039,-0.588481,0.00100251,0.011579,1084,1709,3.18819,-8.12162
-133,-685,3.1969,8.18286,0.00073769,-0.000817273,-0.000893649,0.00114473,-0.00122431,-0.4274,0.00136802,0.0109036,1091,1709,3.19694,-8.18283
-126,-685,3.21643,8.2428,0.0007558,-0.00182382,-0.000936233,0.00105977,-0.00212779,-0.313939,0.00187446,0.00861114,1098,1709,3.21648,-8.24285
-119,-685,3.22607,8.27991,0.00124745,-0.00207643,-2.07215e-06,0.00124745,-0.00207643,-0.000623411,0.00193884,0.0117155,1105,1709,3.22612,-8.27996
-112,-685,3.2207,8.35022,0.00175288,-0.00139051,0.00191053,0.00265512,-0.00229275,0.441198,0.0028592,0.011803,1112,1709,3.22067,-8.35021
-105,-685,3.19995,8.40466,0.00229083,0.000389358,0.0049152,0.0063464,-0.00366621,0.689864,0.00584941,0.0100192,1119,1709,3.19996,-8.40463
-98,-685,3.25256,8.4502,0.00285233,0.00228978,0.00790441,0.0104805,-0.00533835,0.767613,0.00929245,0.0132757,1126,1709,3.25256,-8.4502
-91,-685,3.26038,8.50806,0.00366039,0.00506686,0.0117411,0.0161257,-0.0073985,0.81531,0.0138898,0.0161216,1133,1709,3.26043,-8.50811
-84,-685,3.24756,8.53625,0.00471651,0.00883438,0.0162471,0.0231525,-0.00960162,0.848425,0.0194426,0.013353,1140,1709,3.24762,-8.53623
-77,-685,3.24536,8.63171,0.00601366,0.0133548,0.0210121,0.0310145,-0.0116461,0.87187,0.0254622,0.0130575,1147,1709,3.24536,-8.63172
-70,-685,3.28931,8.6897,0.00738973,0.0180083,0.0253617,0.0386105,-0.0132125,0.88858,0.0310947,0.01759,1154,1709,3.28925,-8.6897
-63,-685,3.23694,8.7832,0.00778079,0.0201986,0.0261295,0.0408467,-0.0128673,0.902045,0.0323839,0.0366615,1161,1709,3.23696,-8.78317
-56,-685,3.38013,9.08057,0,0,0,0,0,0,0,-1,1168,1709,3.38012,-9.08051
-49,-685,3.07471,9.86011,0,0,0,0,0,0,0,-1,1175,1709,3.07467,-9.86009
-42,-685,2.70618,7.54504,0,0,0,0,0,0,0,-1,1182,1709,2.7062,-7.54504
-35,-685,2.95264,7.91516,0,0,0,0,0,0,0,-1,1189,1709,2.95262,-7.91517
-28,-685,3.10718,8.94165,0,0,0,0,0,0,0,-1,1196,1709,3.10723,-8.94171
-21,-685,3.2373,8.89417,0.0106463,0.0146204,0.00590895,0.0188674,0.00639924,0.947597,0.0110794,0.0374119,1203,1709,3.23733,-8.89415
-14,-685,3.38855,8.84949,0.0107716,0.0100403,0.000908265,0.0113851,0.00942684,0.594027,0.00702882,0.0243187,1210,1709,3.38852,-8.84948
-7,-685,3.34302,8.82849,0.0120648,0.00497596,-0.00310813,0.0132345,0.00380621,-0.359956,0.00786742,0.0383403,1217,1709,3.34306,-8.82844
0,-685,3.37341,8.72412,0.0149031,0.000284602,-0.00503822,0.0164713,-0.00128358,-0.301752,0.0114328,0.0416076,1224,1709,3.37336,-8.72406
7,-685,3.36584,8.77856,0.0177269,-0.00258573,-0.00378738,0.0184101,-0.00326893,-0.178468,0.0134957,0.0370454,1231,1709,3.36582,-8.77851
14,-685,3.35889,8.94775,0.0203923,-0.0045226,-0.00117062,0.0204471,-0.00457748,-0.0468472,0.0153859,0.0369784,1238,1709,3.35885,-8.94771
21,-685,3.43762,8.94495,0.0222171,-0.00585793,0.0021415,0.0223795,-0.00602034,0.0756941,0.0172796,0.0343416,1245,1709,3.43759,-8.94493
28,-685,3.39111,8.88,0.0237525,-0.00718694,0.00556366,0.0247226,-0.00815701,0.172622,0.0197698,0.0372344,1252,1709,3.39108,-8.87997
35,-685,3.44775,8.8595,0.0256693,-0.00854063,0.00917739,0.0279758,-0.0108471,0.246223,0.0231302,0.037499,1259,1709,3.4478,-8.85951
42,-685,3.69202,8.94336,0.0269764,-0.00975297,0.0127947,0.030994,-0.0137706,0.304255,0.0264748,0.0393898,1266,1709,3.69201,-8.94339
49,-685,3.99451,8.9082,0.0272857,-0.0103856,0.0162595,0.0333328,-0.0164327,0.356063,0.0292792,0.0427153,1273,1709,3.99456,-8.90817
56,-685,3.31128,8.95166,0.0263074,-0.0100833,0.0191059,0.0344958,-0.0182717,0.404902,0.0309416,0.0480346,1280,1709,3.31134,-8.9517
63,-685,3.14136,9.01123,0,0,0,0,0,0,0,-1,1287,1709,3.14136,-9.01121
70,-685,3.58594,8.94653,0.0224858,-0.00832613,0.0232948,0.0350081,-0.0208484,0.493242,0.0325924,0.0474307,1294,1709,3.58591,-8.94651
77,-685,3.5835,8.99536,0.0202303,-0.00712761,0.0239946,0.0341712,-0.0210685,0.526332,0.0321903,0.0468768,1301,1709,3.58344,-8.99535
84,-685,3.49243,9.01392,0.0176854,-0.00561918,0.0233914,0.0321661,-0.0200999,0.554317,0.0304427,0.0452766,1308,1709,3.49238,-9.01396
91,-685,3.34973,9.0686,0,0,0,0,0,0,0,-1,1315,1709,3.34975,-9.06858
98,-685,3.51733,9.42712,0.0125421,-0.00297878,0.0207507,0.026936,-0.0173727,0.606459,0.0257795,0.0369016,1322,1709,3.51737,-9.42712
105,-685,3.59753,9.12903,0.00995132,-0.00188498,0.0188565,0.0237966,-0.0157302,0.63334,0.0229787,0.0400834,1329,1709,3.59755,-9.12903
112,-685,3.61804,9.02417,0.0082153,-0.00104547,0.0166879,0.0209033,-0.0137334,0.650067,0.0201398,0.044817,1336,1709,3.61805,-9.02417
119,-685,3.6228,8.90796,0.00732026,-0.000833466,0.0139266,0.0177545,-0.0112677,0.643007,0.0168949,0.0419826,1343,1709,3.62282,-8.90795
126,-685,3.50684,8.99866,0.00673359,-0.000844861,0.0115258,0.0150771,-0.00918837,0.626584,0.0141465,0.0438099,1350,1709,3.50684,-8.99868
133,-685,3.41931,8.99365,0.00517459,-0.000652582,0.00933343,0.0120386,-0.00751662,0.634107,0.0113904,0.0459836,1357,1709,3.41935,-8.99364
140,-685,3.64233,8.94849,0.00192294,0.000522694,0.00711498,0.00837216,-0.00592652,0.736355,0.0082955,0.0444301,1364,1709,3.64235,-8.94847
147,-685,3.71069,9.08813,0.000701723,0.00202831,0.00531131,0.00671759,-0.00398755,0.847518,0.00624725,0.0427723,1371,1709,3.71067,-9.08814
154,-685,3.67737,9.05981,0,0,0,0,0,0,0,-1,1378,1709,3.67736,-9.05976
161,-685,3.953,9.11279,0,0,0,0,0,0,0,-1,1385,1709,3.95295,-9.11283
168,-685,4.2926,9.04968,0,0,0,0,0,0,0,-1,1392,1709,4.29262,-9.04967
175,-685,3.97522,8.94324,0,0,0,0,0,0,0,-1,1399,1709,3.97519,-8.94328
182,-685,3.98218,9.19739,0,0,0,0,0,0,0,-1,1406,1709,3.98221,-9.1974
189,-685,3.57166,8.86084,0,0,0,0,0,0,0,-1,1413,1709,3.57166,-8.86083
196,-685,3.96887,9.13123,0,0,0,0,0,0,0,-1,1420,1709,3.96888,-9.13124
203,-685,3.78198,8.9707,-0.00248227,-0.00116857,0.00427879,0.0025035,-0.00615433,0.86156,0.0051446,0.032671,1427,1709,3.78199,-8.97075
210,-685,3.81934,8.88562,-0.00325804,-0.00192768,0.00422789,0.00168704,-0.00687276,0.863424,0.00523559,0.0233232,1434,1709,3.81939,-8.88567
217,-685,3.78333,8.77808,-0.00382542,-0.00204034,0.00388206,0.00105046,-0.00691622,0.898392,0.0049979,0.022089,1441,1709,3.78338,-8.77809
224,-685,3.73413,8.73022,-0.00402072,-0.00163814,0.00320842,0.000593013,-0.00625187,0.96316,0.00437899,0.0161678,1448,1709,3.7341,-8.73028
231,-685,3.74524,8.66943,-0.0037642,-0.0012192,0.00277196,0.000558389,-0.00554178,1.00058,0.00389402,0.0158167,1455,1709,3.74521,-8.66946
238,-685,3.76917,8.61414,-0.00329454,-0.000860857,0.00238492,0.000599715,-0.00475511,1.02129,0.00338772,0.0173151,1462,1709,3.76913,-8.61413
245,-685,3.78137,8.59558,-0.00278139,-0.000589346,0.00196046,0.000560667,-0.0039314,1.04029,0.00282642,0.0178739,1469,1709,3.78131,-8.59555
252,-685,3.79053,8.58215,-0.00233836,-0.000444519,0.00156708,0.000439517,-0.00322239,1.05717,0.00230876,0.0134154,1476,1709,3.79051,-8.58219
259,-685,3.77869,8.55103,-0.00203332,-0.000420437,0.00128127,0.000287059,-0.00274081,1.06628,0.00193002,0.00956584,1483,1709,3.77865,-8.55103
266,-685,3.80444,8.47949,-0.00162748,-0.000386865,0.000904845,8.98816e-05,-0.00210422,1.08588,0.00143372,0.0103797,1490,1709,3.80445,-8.47951
273,-685,3.79846,8.39648,-0.00103956,-0.000198958,0.000467244,9.20729e-06,-0.00124773,1.15168,0.000834904,0.0129103,1497,1709,3.79844,-8.39646
280,-685,3.78564,8.35571,-0.000699238,6.96885e-05,0.000226457,0.000131426,-0.000760976,1.30464,0.000556324,0.0148522,1504,1709,3.78566,-8.35567
287,-685,3.79932,8.32886,-0.000509475,0.000170298,5.14215e-05,0.000174166,-0.000513343,1.49572,0.000412721,0.0118278,1511,1709,3.79928,-8.32891
294,-685,3.8075,8.26685,-0.000324577,0.000256549,-6.136e-05,0.000262958,-0.000330986,-1.46674,0.000343662,0.0101523,1518,1709,3.8075,-8.2668
301,-685,3.80054,8.19189,-0.000110763,0.000452693,-0.000211346,0.000523155,-0.000181225,-1.24899,0.000422344,0.0126467,1525,1709,3.80051,-8.19183
308,-685,3.79138,8.12537,3.2941e-05,0.000682653,-0.000338951,0.000827285,-0.000111691,-1.16748,0.000592275,0.0136949,1532,1709,3.79137,-8.12534
315,-685,3.82446,8.07495,0.00017225,0.000905534,-0.000437347,0.00110959,-3.18082e-05,-1.13424,0.000750556,0.0119376,1539,1709,3.82449,-8.07499
322,-685,3.81836,7.9978,0.00030215,0.00104453,-0.000529064,0.00131963,2.705e-05,-1.0913,0.000870876,0.0188545,1546,1709,3.8184,-7.99786
329,-685,3.80237,7.93848,0.00047559,0.000879235,-0.000450714,0.00117125,0.000183575,-0.995903,0.000727404,0.0181796,1553,1709,3.80243,-7.93843
336,-685,3.8114,7.86987,0.000667688,0.000788044,-0.00046785,0.00119957,0.000256162,-0.84936,0.000729476,0.0133434,1560,1709,3.81135,-7.86984
343,-685,3.7876,7.79187,0.000919454,0.000602803,-0.000518854,0.0013036,0.000218656,-0.637313,0.000806128,0.0111307,1567,1709,3.78755,-7.79188
350,-685,3.78687,7.70728,0.00134392,0.000258626,-0.000713685,0.00169783,-9.52824e-05,-0.460354,0.00116495,0.0108987,1574,1709,3.78682,-7.70733
357,-685,3.80518,7.64661,0.00170406,-0.000174156,-0.000906673,0.00207032,-0.000540413,-0.383913,0.00159124,0.010046,1581,1709,3.8052,-7.64658
364,-685,3.78577,7.56909,0.00187997,-0.000442346,-0.00111383,0.00232782,-0.000890194,-0.382298,0.00191873,0.00996532,1588,1709,3.78572,-7.56914
371,-685,3.79224,7.47791,0.00186764,-0.000467329,-0.00142541,0.00254266,-0.00114235,-0.442274,0.00217814,0.0157123,1595,1709,3.79227,-7.47787
378,-685,3.79907,7.43555,0.00188741,0.000153544,-0.00193208,0.00313814,-0.00109719,-0.574511,0.00253815,0.020804,1602,1709,3.79909,-7.43551
385,-685,3.80444,7.3833,0.00172173,0.000957655,-0.00249013,0.00385896,-0.00117958,-0.709281,0.00304302,0.0320275,1609,1709,3.80445,-7.38326
392,-685,3.98193,7.28027,0.00108694,0.00223778,-0.00324113,0.00495417,-0.00162945,-0.873251,0.00395932,0.0384924,1616,1709,3.98192,-7.28032
399,-685,4.23584,7.2478,4.44401e-05,0.0041337,-0.00385217,0.00645023,-0.00227209,-1.02938,0.00522487,0.0487713,1623,1709,4.23582,-7.24775
406,-685,3.94336,7.21057,0,0,0,0,0,0,0,-1,1630,1709,3.94333,-7.2106
413,-685,3.70618,6.76416,0,0,0,0,0,0,0,-1,1637,1709,3.70622,-6.76419
420,-685,3.49585,6.401,-0.00580689,0.0106647,-0.00557375,0.0123735,-0.00751569,-1.27331,0.0115967,0.0477978,1644,1709,3.49581,-6.40099
427,-685,3.44324,6.12231,-0.00844225,0.0138618,-0.00647352,0.0156045,-0.010185,-1.30782,0.0149987,0.0475623,1651,1709,3.44321,-6.12233
434,-685,3.60889,5.90613,0,0,0,0,0,0,0,-1,1658,1709,3.60887,-5.90616
441,-685,3.28723,6.52991,0,0,0,0,0,0,0,-1,1665,1709,3.28721,-6.52991
448,-685,4.87,4.62231,0,0,0,0,0,0,0,-1,1672,1709,4.87,-4.62238
455,-685,2.31958,4.09802,0,0,0,0,0,0,0,-1,1679,1709,2.31957,-4.09803
462,-685,0,0,0,0,0,0,0,0,0,-1,1686,1709,0,0
469,-685,0,0,0,0,0,0,0,0,0,-1,1693,1709,0,0
476,-685,0,0,0,0,0,0,0,0,0,-1,1700,1709,0,0
483,-685,0,0,0,0,0,0,0,0,0,-1,1707,1709,0,0
490,-685,0,0,0,0,0,0,0,0,0,-1,1714,1709,0,0
497,-685,0,0,0,0,0,0,0,0,0,-1,1721,1709,0,0
504,-685,0,0,0,0,0,0,0,0,0,-1,1728,1709,0,0
511,-685,0,0,0,0,0,0,0,0,0,-1,1735,1709,0,0
518,-685,0,0,0,0,0,0,0,0,0,-1,1742,1709,0,0
525,-685,0,0,0,0,0,0,0,0,0,-1,1749,1709,0,0
532,-685,0,0,0,0,0,0,0,0,0,-1,1756,1709,0,0
539,-685,0,0,0,0,0,0,0,0,0,-1,1763,1709,0,0
546,-685,0,0,0,0,0,0,0,0,0,-1,1770,1709,0,0
553,-685,0,0,0,0,0,0,0,0,0,-1,1777,1709,0,0
560,-685,0,0,0,0,0,0,0,0,0,-1,1784,1709,0,0
567,-685,0,0,0,0,0,0,0,0,0,-1,1791,1709,0,0
574,-685,0,0,0,0,0,0,0,0,0,-1,1798,1709,0,0
581,-685,0,0,0,0,0,0,0,0,0,-1,1805,1709,0,0
588,-685,0,0,0,0,0,0,0,0,0,-1,1812,1709,0,0
595,-685,0,0,0,0,0,0,0,0,0,-1,1819,1709,0,0
602,-685,0,0,0,0,0,0,0,0,0,-1,1826,1709,0,0
609,-685,0,0,0,0,0,0,0,0,0,-1,1833,1709,0,0
616,-685,0,0,0,0,0,0,0,0,0,-1,1840,1709,0,0
623,-685,0,0,0,0,0,0,0,0,0,-1,1847,1709,0,0
630,-685,0,0,0,0,0,0,0,0,0,-1,1854,1709,0,0
637,-685,0,0,0,0,0,0,0,0,0,-1,1861,1709,0,0
644,-685,0,0,0,0,0,0,0,0,0,-1,1868,1709,0,0
651,-685,0,0,0,0,0,0,0,0,0,-1,1875,1709,0,0
658,-685,0,0,0,0,0,0,0,0,0,-1,1882,1709,0,0
665,-685,0,0,0,0,0,0,0,0,0,-1,1889,1709,0,0
672,-685,0,0,0,0,0,0,0,0,0,-1,1896,1709,0,0
679,-685,0,0,0,0,0,0,0,0,0,-1,1903,1709,0,0
686,-685,0,0,0,0,0,0,0,0,0,-1,1910,1709,0,0
693,-685,0,0,0,0,0,0,0,0,0,-1,1917,1709,0,0
700,-685,0,0,0,0,0,0,0,0,0,-1,1924,1709,0,0
707,-685,0,0,0,0,0,0,0,0,0,-1,1931,1709,0,0
714,-685,0,0,0,0,0,0,0,0,0,-1,1938,1709,0,0
721,-685,0,0,0,0,0,0,0,0,0,-1,1945,1709,0,0
728,-685,0,0,0,0,0,0,0,0,0,-1,1952,1709,0,0
735,-685,0,0,0,0,0,0,0,0,0,-1,1959,1709,0,0
742,-685,0,0,0,0,0,0,0,0,0,-1,1966,1709,0,0
749,-685,0,0,0,0,0,0,0,0,0,-1,1973,1709,0,0
756,-685,0,0,0,0,0,0,0,0,0,-1,1980,1709,0,0
763,-685,0,0,0,0,0,0,0,0,0,-1,1987,1709,0,0
770,-685,0,0,0,0,0,0,0,0,0,-1,1994,1709,0,0
777,-685,0,0,0,0,0,0,0,0,0,-1,2001,1709,0,0
784,-685,0,0,0,0,0,0,0,0,0,-1,2008,1709,0,0
791,-685,0,0,0,0,0,0,0,0,0,-1,2015,1709,0,0
798,-685,0,0,0,0,0,0,0,0,0,-1,2022,1709,0,0
805,-685,0,0,0,0,0,0,0,0,0,-1,2029,1709,0,0
812,-685,0,0,0,0,0,0,0,0,0,-1,2036,1709,0,0
-700,-692,0,0,0,0,0,0,0,0,0,-1,524,1716,0,0
-693,-692,0,0,0,0,0,0,0,0,0,-1,531,1716,0,0
-686,-692,0,0,0,0,0,0,0,0,0,-1,538,1716,0,0
-679,-692,0,0,0,0,0,0,0,0,0,-1,545,1716,0,0
-672,-692,0,0,0,0,0,0,0,0,0,-1,552,1716,0,0
-665,-692,0,0,0,0,0,0,0,0,0,-1,559,1716,0,0
-658,-692,0,0,0,0,0,0,0,0,0,-1,566,1716,0,0
-651,-692,0,0,0,0,0,0,0,0,0,-1,573,1716,0,0
-644,-692,0,0,0,0,0,0,0,0,0,-1,580,1716,0,0
-637,-692,0,0,0,0,0,0,0,0,0,-1,587,1716,0,0
-630,-692,0,0,0,0,0,0,0,0,0,-1,594,1716,0,0
-623,-692,0,0,0,0,0,0,0,0,0,-1,601,1716,0,0
-616,-692,0,0,0,0,0,0,0,0,0,-1,608,1716,0,0
-609,-692,0,0,0,0,0,0,0,0,0,-1,615,1716,0,0
-602,-692,0,0,0,0,0,0,0,0,0,-1,622,1716,0,0
-595,-692,0,0,0,0,0,0,0,0,0,-1,629,1716,0,0
-588,-692,0,0,0,0,0,0,0,0,0,-1,636,1716,0,0
-581,-692,0,0,0,0,0,0,0,0,0,-1,643,1716,0,0
-574,-692,0,0,0,0,0,0,0,0,0,-1,650,1716,0,0
-567,-692,0,0,0,0,0,0,0,0,0,-1,657,1716,0,0
-560,-692,0,0,0,0,0,0,0,0,0,-1,664,1716,0,0
-553,-692,0,0,0,0,0,0,0,0,0,-1,671,1716,0,0
-546,-692,0,0,0,0,0,0,0,0,0,-1,678,1716,0,0
-539,-692,0,0,0,0,0,0,0,0,0,-1,685,1716,0,0
-532,-692,0,0,0,0,0,0,0,0,0,-1,692,1716,0,0
-525,-692,0,0,0,0,0,0,0,0,0,-1,699,1716,0,0
-518,-692,0,0,0,0,0,0,0,0,0,-1,706,1716,0,0
-511,-692,0,0,0,0,0,0,0,0,0,-1,713,1716,0,0
-504,-692,0,0,0,0,0,0,0,0,0,-1,720,1716,0,0
-497,-692,0,0,0,0,0,0,0,0,0,-1,727,1716,0,0
-490,-692,0,0,0,0,0,0,0,0,0,-1,734,1716,0,0
-483,-692,0,0,0,0,0,0,0,0,0,-1,741,1716,0,0
-476,-692,0,0,0,0,0,0,0,0,0,-1,748,1716,0,0
-469,-692,0,0,0,0,0,0,0,0,0,-1,755,1716,0,0
-462,-692,0,0,0,0,0,0,0,0,0,-1,762,1716,0,0
-455,-692,0,0,0,0,0,0,0,0,0,-1,769,1716,0,0
-448,-692,0,0,0,0,0,0,0,0,0,-1,776,1716,0,0
-441,-692,0,0,0,0,0,0,0,0,0,-1,783,1716,0,0
-434,-692,0,0,0,0,0,0,0,0,0,-1,790,1716,0,0
-427,-692,0,0,0,0,0,0,0,0,0,-1,797,1716,0,0
-420,-692,0,0,0,0,0,0,0,0,0,-1,804,1716,0,0
-413,-692,0,0,0,0,0,0,0,0,0,-1,811,1716,0,0
-406,-692,0,0,0,0,0,0,0,0,0,-1,818,1716,0,0
-399,-692,0,0,0,0,0,0,0,0,0,-1,825,1716,0,0
-392,-692,0,0,0,0,0,0,0,0,0,-1,832,1716,0,0
-385,-692,0,0,0,0,0,0,0,0,0,-1,839,1716,0,0
-378,-692,0,0,0,0,0,0,0,0,0,-1,846,1716,0,0
-371,-692,0,0,0,0,0,0,0,0,0,-1,853,1716,0,0
-364,-692,0,0,0,0,0,0,0,0,0,-1,860,1716,0,0
-357,-692,0,0,0,0,0,0,0,0,0,-1,867,1716,0,0
-350,-692,0,0,0,0,0,0,0,0,0,-1,874,1716,0,0
-343,-692,0,0,0,0,0,0,0,0,0,-1,881,1716,0,0
-336,-692,0,0,0,0,0,0,0,0,0,-1,888,1716,0,0
-329,-692,3.12396,3.50745,0,0,0,0,0,0,0,-1,895,1716,3.12398,-3.50748
-322,-692,3.23596,4.03162,0,0,0,0,0,0,0,-1,902,1716,3.23596,-4.03162
-315,-692,3.14917,4.474,0,0,0,0,0,0,0,-1,909,1716,3.14919,-4.47401
-308,-692,2.92108,4.76416,0,0,0,0,0,0,0,-1,916,1716,2.92107,-4.76417
-301,-692,1.73114,7.30591,0,0,0,0,0,0,0,-1,923,1716,1.73112,-7.30593
-294,-692,2.9436,5.2478,0,0,0,0,0,0,0,-1,930,1716,2.94363,-5.24777
-287,-692,4.03625,5.96777,0,0,0,0,0,0,0,-1,937,1716,4.03623,-5.96778
-280,-692,3.38861,6.37927,0,0,0,0,0,0,0,-1,944,1716,3.38861,-6.37931
-273,-692,2.33148,7.04065,0,0,0,0,0,0,0,-1,951,1716,2.3315,-7.04063
-266,-692,2.5351,6.88635,0,0,0,0,0,0,0,-1,958,1716,2.53512,-6.88636
-259,-692,3.6015,6.42224,-0.0243978,0.0138806,0.00557262,0.0146753,-0.0251926,1.42913,0.0232832,0.0442671,965,1716,3.60151,-6.42226
-252,-692,3.44958,6.88501,-0.0200502,0.0105506,0.00392846,0.0110469,-0.0205464,1.44513,0.0185132,0.0449546,972,1716,3.44961,-6.88503
-245,-692,3.37292,6.87793,-0.016414,0.00816436,0.00246958,0.00841004,-0.0166597,1.47164,0.0147329,0.0462983,979,1716,3.37291,-6.87789
-238,-692,3.3963,6.91833,-0.0133383,0.00609225,0.00140411,0.00619319,-0.0134393,1.49903,0.0115893,0.0427636,986,1716,3.39629,-6.91833
-231,-692,3.37506,7.06494,-0.0108035,0.00459642,0.000718843,0.0046299,-0.0108369,1.52425,0.00916634,0.0321065,993,1716,3.37506,-7.06491
-224,-692,3.29681,7.203,-0.00774841,0.00281691,2.13974e-05,0.00281695,-0.00774845,1.56877,0.00631755,0.0171789,1000,1716,3.29682,-7.20301
-217,-692,3.26147,7.30273,-0.00560316,0.00188133,-0.000592913,0.001928,-0.00564984,-1.49223,0.00454757,0.0127764,1007,1716,3.2615,-7.30269
-210,-692,3.26318,7.3717,-0.00476004,0.00168582,-0.000470286,0.00171995,-0.00479417,-1.49835,0.00389804,0.0123772,1014,1716,3.26317,-7.37165
-203,-692,3.28125,7.45142,-0.004167,0.00156804,-0.000197888,0.00157486,-0.00417382,-1.53635,0.0034302,0.0139342,1021,1716,3.28127,-7.45147
-196,-692,3.28528,7.54529,-0.00331644,0.00177787,-2.04846e-05,0.00177796,-0.00331652,-1.56678,0.00298567,0.0173053,1028,1716,3.28523,-7.54531
-189,-692,3.26318,7.5885,-0.00253191,0.00179407,0.000106427,0.00179669,-0.00253453,1.54621,0.00251269,0.00907824,1035,1716,3.26322,-7.58856
-182,-692,3.25537,7.66772,-0.00184126,0.00180158,9.52821e-05,0.00180407,-0.00184375,1.54466,0.00210612,0.0130874,1042,1716,3.25534,-7.66767
-175,-692,3.24597,7.75415,-0.00125098,0.001836,1.90317e-05,0.00183611,-0.0012511,1.56463,0.00179304,0.0143847,1049,1716,3.24593,-7.75411
-168,-692,3.27051,7.85474,-0.000511245,0.00181211,0.000110728,0.00181738,-0.00051651,1.52328,0.00141552,0.0110572,1056,1716,3.27046,-7.85476
-161,-692,3.28345,7.93799,-2.99791e-05,0.00172587,5.91349e-05,0.00172785,-3.19685e-05,1.53717,0.00116271,0.0128469,1063,1716,3.28348,-7.938
-154,-692,3.26978,8.00171,0.000308652,0.0016079,-1.87772e-05,0.00160817,0.000308381,-1.55635,0.000985538,0.0138274,1070,1716,3.26983,-8.00168
-147,-692,3.2511,8.04932,0.000520945,0.00147396,-8.01382e-05,0.00148065,0.000514253,-1.48749,0.000868037,0.0124782,1077,1716,3.25113,-8.04926
-140,-692,3.25403,8.1095,0.000643009,0.000907963,-0.000136185,0.000965476,0.000585495,-1.1712,0.000561612,0.00972125,1084,1716,3.25403,-8.10946
-133,-692,3.2616,8.17773,0.000667461,9.50342e-05,-0.000250513,0.00076161,8.85862e-07,-0.359491,0.000507445,0.00961463,1091,1716,3.26158,-8.17776
-126,-692,3.28015,8.24573,0.000674463,-0.000804342,-0.000300396,0.000733154,-0.000863033,-0.192949,0.000922576,0.00742059,1098,1716,3.28012,-8.24573
-119,-692,3.27356,8.29138,0.00091331,-0.00123588,0.000204768,0.000932645,-0.00125522,0.0941478,0.00126773,0.0104062,1105,1716,3.2736,-8.29137
-112,-692,3.26123,8.35083,0.00114585,-0.00110002,0.0012922,0.00173487,-0.00168903,0.427685,0.00197685,0.010664,1112,1716,3.26127,-8.35082
-105,-692,3.30676,8.40308,0.00140896,-0.000282622,0.0030786,0.00375584,-0.0026295,0.651339,0.00370565,0.0151319,1119,1716,3.3068,-8.40302
-98,-692,3.35535,8.46362,0.0016498,0.000830838,0.00489166,0.00614909,-0.00366845,0.74364,0.00572815,0.0174407,1126,1716,3.35534,-8.46361
-91,-692,3.32776,8.48914,0.00202376,0.00241835,0.00716677,0.00939054,-0.00494844,0.799159,0.00840999,0.0202785,1133,1716,3.3277,-8.4891
-84,-692,3.29871,8.51208,0.00256997,0.00478248,0.00988582,0.0136237,-0.0062713,0.841118,0.011745,0.019902,1140,1716,3.29869,-8.51209
-77,-692,3.29797,8.61548,0.00334278,0.00770259,0.0127499,0.0184576,-0.00741224,0.870066,0.0153831,0.0128012,1147,1716,3.29792,-8.61551
-70,-692,3.30225,8.67688,0.00424077,0.0107268,0.0153168,0.0231401,-0.00817253,0.889722,0.0187542,0.01346,1154,1716,3.30231,-8.67693
-63,-692,3.3031,8.68762,0.00462951,0.0125145,0.0159867,0.0250376,-0.00789367,0.906291,0.0198532,0.0162755,1161,1716,3.30311,-8.68763
-56,-692,3.29309,8.84998,0.00494188,0.0134633,0.0152592,0.0250455,-0.00664029,0.921542,0.0192951,0.0263187,1168,1716,3.29303,-8.84992
-49,-692,3.26306,9.41345,0.00531931,0.0134256,0.0139047,0.0238559,-0.00511098,0.927216,0.0178531,0.0463212,1175,1716,3.26306,-9.41341
-42,-692,3.22302,9.91956,0,0,0,0,0,0,0,-1,1182,1716,3.22299,-9.91953
-35,-692,3.34937,8.90698,0,0,0,0,0,0,0,-1,1189,1716,3.34935,-8.90696
-28,-692,3.24866,8.91943,0.00690631,0.0109797,0.00696078,0.0161956,0.00169037,0.927723,0.0102801,0.0340896,1196,1716,3.24861,-8.91946
-21,-692,3.36023,8.91028,0.0068741,0.00867368,0.00410104,0.0119725,0.0035753,0.89339,0.00709672,0.0215888,1203,1716,3.36023,-8.91023
-14,-692,3.4071,8.90576,0.00715693,0.00507073,0.000875095,0.00747539,0.00475227,0.349019,0.0043686,0.0138921,1210,1716,3.40705,-8.90573
-7,-692,3.39014,8.94922,0.00834832,0.00113566,-0.00163217,0.00870048,0.000783511,-0.2125,0.00555759,0.015059,1217,1716,3.39014,-8.94917
0,-692,3.3772,8.99744,0.0104933,-0.002471,-0.00277363,0.0110618,-0.00303948,-0.202156,0.00856931,0.0176938,1224,1716,3.37714,-8.99747
7,-692,3.36841,9.02612,0.012513,-0.00483006,-0.00190841,0.0127206,-0.00503757,-0.108312,0.0105677,0.0211007,1231,1716,3.36838,-9.02609
14,-692,3.41101,9.04187,0.0144554,-0.00633116,8.62388e-06,0.0144554,-0.00633116,0.000414878,0.0123029,0.0226651,1238,1716,3.41097,-9.0419
21,-692,3.47131,9.00269,0.0157156,-0.00718193,0.00258492,0.0160038,-0.00747011,0.111029,0.013848,0.0239773,1245,1716,3.47127,-9.00267
28,-692,3.45288,8.979,0.0167972,-0.00811206,0.00505695,0.0177847,-0.00909955,0.192847,0.0157893,0.0236429,1252,1716,3.45282,-8.97901
35,-692,3.42493,9.03833,0.0182361,-0.00899097,0.00771725,0.0202713,-0.0110262,0.257856,0.0183305,0.0218181,1259,1716,3.42498,-9.03832
42,-692,3.50159,9.12878,0.0192498,-0.00977497,0.0105086,0.022655,-0.0131802,0.313363,0.0209291,0.0207541,1266,1716,3.5016,-9.12878
49,-692,3.53369,9.13672,0.0194529,-0.00995925,0.0131095,0.0244478,-0.0149542,0.364032,0.0229678,0.0253323,1273,1716,3.5337,-9.13673
56,-692,3.45813,9.06531,0.0187299,-0.00940911,0.0152733,0.0254263,-0.0161055,0.413199,0.0241789,0.0286852,1280,1716,3.45814,-9.06535
63,-692,3.48706,9.06482,0.0174254,-0.00835596,0.0169925,0.0258635,-0.016794,0.460904,0.0248132,0.0267309,1287,1716,3.48703,-9.0648
70,-692,3.54285,9.07568,0.0159835,-0.00733953,0.0183581,0.0260708,-0.0174269,0.50244,0.0252781,0.0240958,1294,1716,3.54281,-9.07568
77,-692,3.55481,9.1311,0.0143467,-0.00616769,0.0188924,0.0255868,-0.0174078,0.5367,0.0249722,0.0277156,1301,1716,3.55484,-9.13104
84,-692,3.4436,9.12903,0.0125206,-0.00477736,0.0184186,0.0242199,-0.0164766,0.565891,0.0236375,0.034027,1308,1716,3.44359,-9.129
91,-692,3.47241,9.14722,0.0105336,-0.00351602,0.0175909,0.0224505,-0.0154329,0.595427,0.0219967,0.0326501,1315,1716,3.47242,-9.14718
98,-692,3.58862,9.15198,0.00856567,-0.00229545,0.0163472,0.0203607,-0.0140905,0.625032,0.0199999,0.0255977,1322,1716,3.58868,-9.15193
105,-692,3.60413,9.14221,0.00662703,-0.00121618,0.0147814,0.0179982,-0.0125873,0.655732,0.0177504,0.0314824,1329,1716,3.60411,-9.14221
112,-692,3.60425,9.10376,0.00539733,-0.000334578,0.0130338,0.0158766,-0.0108138,0.677178,0.0155019,0.0369104,1336,1716,3.60425,-9.10372
119,-692,3.59241,9.02954,0.0046807,2.37755e-05,0.0107618,0.0133631,-0.00865861,0.678859,0.0128106,0.0299413,1343,1716,3.5924,-9.02959
126,-692,3.57593,9.03442,0.00434293,-1.4493e-05,0.00858708,0.0110234,-0.00669494,0.66116,0.0103309,0.0281302,1350,1716,3.5759,-9.03437
133,-692,3.60522,9.04614,0.00338395,0.000329925,0.00693948,0.00896244,-0.00524856,0.6771,0.00829759,0.0226308,1357,1716,3.60528,-9.0462
140,-692,3.66492,9.06689,0.00132756,0.00117319,0.00523519,0.00648613,-0.00398538,0.778027,0.00610293,0.0258378,1364,1716,3.66496,-9.06689
147,-692,3.64294,9.09985,0.000732547,0.00201182,0.00370291,0.00512993,-0.00238556,0.870924,0.00443446,0.0275753,1371,1716,3.64291,-9.09989
154,-692,3.58936,9.10693,0.00117071,0.0020662,0.00283215,0.00448578,-0.00124887,0.863796,0.00348228,0.0258771,1378,1716,3.58933,-9.10688
161,-692,3.79114,9.07458,0.00196179,0.00158695,0.00202014,0.00380318,-0.000254442,0.739142,0.00262439,0.0380663,1385,1716,3.79115,-9.07457
168,-692,3.90222,9.08618,0.00198682,0.000420405,0.00155955,0.00294878,-0.000541555,0.552695,0.00216903,0.0458758,1392,1716,3.90228,-9.08613
175,-692,3.78699,9.11548,0,0,0,0,0,0,0,-1,1399,1716,3.78697,-9.11553
182,-692,3.70081,8.93372,0,0,0,0,0,0,0,-1,1406,1716,3.70076,-8.93371
189,-692,3.698,8.94397,0,0,0,0,0,0,0,-1,1413,1716,3.69805,-8.944
196,-692,3.68555,8.91174,-0.000536529,-4.8628e-05,0.00335187,0.00306816,-0.00365331,0.821724,0.00388554,0.0168049,1420,1716,3.68557,-8.91176
203,-692,3.70264,8.87024,-0.00125013,-0.000520337,0.00303939,0.00217598,-0.00394645,0.84514,0.00358371,0.0137858,1427,1716,3.7026,-8.87021
210,-692,3.72852,8.84375,-0.00185019,-0.00104013,0.00297879,0.00156104,-0.00445136,0.852969,0.00360248,0.016181,1434,1716,3.72854,-8.84372
217,-692,3.71753,8.80444,-0.00232722,-0.00119402,0.00270611,0.00100418,-0.00452541,0.888597,0.00340144,0.017144,1441,1716,3.71749,-8.8044
224,-692,3.70886,8.77661,-0.00255675,-0.00106829,0.00222993,0.000538329,-0.00416337,0.94646,0.00297132,0.013232,1448,1716,3.70885,-8.77662
231,-692,3.69324,8.70068,-0.00244634,-0.00090115,0.00194007,0.000414499,-0.00376199,0.974889,0.00265696,0.0112864,1455,1716,3.6932,-8.70071
238,-692,3.70764,8.59338,-0.00213543,-0.000759426,0.00164555,0.000336158,-0.00323101,0.983403,0.00227436,0.0169917,1462,1716,3.70768,-8.59336
245,-692,3.72375,8.55896,-0.00177589,-0.000656163,0.00131025,0.000208823,-0.00264088,0.987305,0.00183416,0.0188685,1469,1716,3.72371,-8.559
252,-692,3.73242,8.55066,-0.00145202,-0.000630448,0.00100364,4.32219e-05,-0.00212569,0.979646,0.00143175,0.0173128,1476,1716,3.73245,-8.55066
259,-692,3.73169,8.54065,-0.00109466,-0.000680236,0.000713787,-0.000144193,-0.0016307,0.926665,0.0010424,0.00969184,1483,1716,3.73168,-8.54064
266,-692,3.73254,8.48096,-0.000703625,-0.000578877,0.000373483,-0.000262596,-0.00101991,0.868138,0.000611498,0.00957015,1490,1716,3.73258,-8.48093
273,-692,3.73193,8.39771,-0.000269157,-0.000357497,3.29085e-05,-0.000258246,-0.000368409,0.320159,0.000218353,0.0137592,1497,1716,3.73198,-8.39768
280,-692,3.73682,8.35364,-2.36972e-05,-6.3339e-05,-0.000152964,0.000110725,-0.000197761,-0.720968,0.000180452,0.0134862,1504,1716,3.73677,-8.35358
287,-692,3.73645,8.33618,0.00010408,0.000123813,-0.000264073,0.000378203,-0.00015031,-0.80407,0.000314451,0.0107569,1511,1716,3.73648,-8.33621
294,-692,3.73914,8.27637,0.000247106,0.000301124,-0.000332892,0.000608101,-5.98713e-05,-0.825876,0.00042676,0.0101929,1518,1716,3.73917,-8.2764
301,-692,3.74255,8.21436,0.000424954,0.000637416,-0.000472097,0.00101509,4.7283e-05,-0.896065,0.000661527,0.0141199,1525,1716,3.74256,-8.21438
308,-692,3.71899,8.1604,0.000488373,0.000992843,-0.000593815,0.00138577,9.54422e-05,-0.986236,0.000893736,0.0167133,1532,1716,3.71903,-8.16034
315,-692,3.73865,8.08142,0.000547711,0.0013088,-0.000671181,0.00169981,0.000156698,-1.04329,0.00108475,0.0145333,1539,1716,3.73867,-8.08143
322,-692,3.7334,7.98425,0.00058141,0.0015062,-0.000741261,0.00191746,0.000170149,-1.06426,0.00122554,0.0190777,1546,1716,3.73345,-7.9843
329,-692,3.72937,7.91028,0.000674261,0.00133872,-0.000589978,0.00168358,0.0003294,-1.04183,0.00103029,0.0167765,1553,1716,3.72939,-7.91033
336,-692,3.72583,7.85327,0.000821924,0.00120013,-0.000577544,0.00161874,0.000403313,-0.943611,0.000972997,0.0117465,1560,1716,3.72581,-7.85324
343,-692,3.73267,7.78235,0.00104631,0.000920323,-0.000585324,0.00157202,0.000394614,-0.731792,0.000944371,0.0122547,1567,1716,3.73271,-7.7824
350,-692,3.74438,7.69324,0.00147963,0.000426946,-0.000750204,0.00186972,3.68594e-05,-0.479499,0.00123438,0.0118412,1574,1716,3.74432,-7.69329
357,-692,3.73816,7.63086,0.00183289,-0.000178781,-0.000905759,0.00218061,-0.000526497,-0.366546,0.00165735,0.01662,1581,1716,3.73821,-7.63085
364,-692,3.6842,7.55713,0.00200886,-0.000620386,-0.0010401,0.00237055,-0.000982081,-0.334669,0.00199021,0.0226836,1588,1716,3.68415,-7.55708
371,-692,3.72461,7.4397,0.00199635,-0.000827599,-0.00129312,0.00249901,-0.00133026,-0.370745,0.0022449,0.0320143,1595,1716,3.72465,-7.43975
378,-692,4.30811,7.25281,0,0,0,0,0,0,0,-1,1602,1716,4.30815,-7.25276
385,-692,3.72791,7.38513,0,0,0,0,0,0,0,-1,1609,1716,3.7279,-7.38509
392,-692,3.75208,7.29614,0,0,0,0,0,0,0,-1,1616,1716,3.75207,-7.2962
399,-692,4.33911,7.17017,0,0,0,0,0,0,0,-1,1623,1716,4.33906,-7.17017
406,-692,3.86536,6.43921,0,0,0,0,0,0,0,-1,1630,1716,3.86537,-6.43925
413,-692,3.68616,4.28503,0,0,0,0,0,0,0,-1,1637,1716,3.68621,-4.28505
420,-692,3.36609,6.28992,0,0,0,0,0,0,0,-1,1644,1716,3.36612,-6.2899
427,-692,3.16284,5.85974,0,0,0,0,0,0,0,-1,1651,1716,3.16286,-5.85978
434,-692,4.21936,6.57458,0,0,0,0,0,0,0,-1,1658,1716,4.21933,-6.57457
441,-692,3.61743,6.92822,0,0,0,0,0,0,0,-1,1665,1716,3.61737,-6.92819
448,-692,3.03613,7.34314,0,0,0,0,0,0,0,-1,1672,1716,3.03614,-7.34308
455,-692,0,0,0,0,0,0,0,0,0,-1,1679,1716,0,0
462,-692,0,0,0,0,0,0,0,0,0,-1,1686,1716,0,0
469,-692,0,0,0,0,0,0,0,0,0,-1,1693,1716,0,0
476,-692,0,0,0,0,0,0,0,0,0,-1,1700,1716,0,0
483,-692,0,0,0,0,0,0,0,0,0,-1,1707,1716,0,0
490,-692,0,0,0,0,0,0,0,0,0,-1,1714,1716,0,0
497,-692,0,0,0,0,0,0,0,0,0,-1,1721,1716,0,0
504,-692,0,0,0,0,0,0,0,0,0,-1,1728,1716,0,0
511,-692,0,0,0,0,0,0,0,0,0,-1,1735,1716,0,0
518,-692,0,0,0,0,0,0,0,0,0,-1,1742,1716,0,0
525,-692,0,0,0,0,0,0,0,0,0,-1,1749,1716,0,0
532,-692,0,0,0,0,0,0,0,0,0,-1,1756,1716,0,0
539,-692,0,0,0,0,0,0,0,0,0,-1,1763,1716,0,0
546,-692,0,0,0,0,0,0,0,0,0,-1,1770,1716,0,0
553,-692,0,0,0,0,0,0,0,0,0,-1,1777,1716,0,0
560,-692,0,0,0,0,0,0,0,0,0,-1,1784,1716,0,0
567,-692,0,0,0,0,0,0,0,0,0,-1,1791,1716,0,0
574,-692,0,0,0,0,0,0,0,0,0,-1,1798,1716,0,0
581,-692,0,0,0,0,0,0,0,0,0,-1,1805,1716,0,0
588,-692,0,0,0,0,0,0,0,0,0,-1,1812,1716,0,0
595,-692,0,0,0,0,0,0,0,0,0,-1,1819,1716,0,0
602,-692,0,0,0,0,0,0,0,0,0,-1,1826,1716,0,0
609,-692,0,0,0,0,0,0,0,0,0,-1,1833,1716,0,0
616,-692,0,0,0,0,0,0,0,0,0,-1,1840,1716,0,0
623,-692,0,0,0,0,0,0,0,0,0,-1,1847,1716,0,0
630,-692,0,0,0,0,0,0,0,0,0,-1,1854,1716,0,0
637,-692,0,0,0,0,0,0,0,0,0,-1,1861,1716,0,0
644,-692,0,0,0,0,0,0,0,0,0,-1,1868,1716,0,0
651,-692,0,0,0,0,0,0,0,0,0,-1,1875,1716,0,0
658,-692,0,0,0,0,0,0,0,0,0,-1,1882,1716,0,0
665,-692,0,0,0,0,0,0,0,0,0,-1,1889,1716,0,0
672,-692,0,0,0,0,0,0,0,0,0,-1,1896,1716,0,0
679,-692,0,0,0,0,0,0,0,0,0,-1,1903,1716,0,0
686,-692,0,0,0,0,0,0,0,0,0,-1,1910,1716,0,0
693,-692,0,0,0,0,0,0,0,0,0,-1,1917,1716,0,0
700,-692,0,0,0,0,0,0,0,0,0,-1,1924,1716,0,0
707,-692,0,0,0,0,0,0,0,0,0,-1,1931,1716,0,0
714,-692,0,0,0,0,0,0,0,0,0,-1,1938,1716,0,0
721,-692,0,0,0,0,0,0,0,0,0,-1,1945,1716,0,0
728,-692,0,0,0,0,0,0,0,0,0,-1,1952,1716,0,0
735,-692,0,0,0,0,0,0,0,0,0,-1,1959,1716,0,0
742,-692,0,0,0,0,0,0,0,0,0,-1,1966,1716,0,0
749,-692,0,0,0,0,0,0,0,0,0,-1,1973,1716,0,0
756,-692,0,0,0,0,0,0,0,0,0,-1,1980,1716,0,0
763,-692,0,0,0,0,0,0,0,0,0,-1,1987,1716,0,0
770,-692,0,0,0,0,0,0,0,0,0,-1,1994,1716,0,0
777,-692,0,0,0,0,0,0,0,0,0,-1,2001,1716,0,0
784,-692,0,0,0,0,0,0,0,0,0,-1,2008,1716,0,0
791,-692,0,0,0,0,0,0,0,0,0,-1,2015,1716,0,0
798,-692,0,0,0,0,0,0,0,0,0,-1,2022,1716,0,0
805,-692,0,0,0,0,0,0,0,0,0,-1,2029,1716,0,0
812,-692,0,0,0,0,0,0,0,0,0,-1,2036,1716,0,0
-700,-699,0,0,0,0,0,0,0,0,0,-1,524,1723,0,0
-693,-699,0,0,0,0,0,0,0,0,0,-1,531,1723,0,0
-686,-699,0,0,0,0,0,0,0,0,0,-1,538,1723,0,0
-679,-699,0,0,0,0,0,0,0,0,0,-1,545,1723,0,0
-672,-699,0,0,0,0,0,0,0,0,0,-1,552,1723,0,0
-665,-699,0,0,0,0,0,0,0,0,0,-1,559,1723,0,0
-658,-699,0,0,0,0,0,0,0,0,0,-1,566,1723,0,0
-651,-699,0,0,0,0,0,0,0,0,0,-1,573,1723,0,0
-644,-699,0,0,0,0,0,0,0,0,0,-1,580,1723,0,0
-637,-699,0,0,0,0,0,0,0,0,0,-1,587,1723,0,0
-630,-699,0,0,0,0,0,0,0,0,0,-1,594,1723,0,0
-623,-699,0,0,0,0,0,0,0,0,0,-1,601,1723,0,0
-616,-699,0,0,0,0,0,0,0,0,0,-1,608,1723,0,0
-609,-699,0,0,0,0,0,0,0,0,0,-1,615,1723,0,0
-602,-699,0,0,0,0,0,0,0,0,0,-1,622,1723,0,0
-595,-699,0,0,0,0,0,0,0,0,0,-1,629,1723,0,0
-588,-699,0,0,0,0,0,0,0,0,0,-1,636,1723,0,0
-581,-699,0,0,0,0,0,0,0,0,0,-1,643,1723,0,0
-574,-699,0,0,0,0,0,0,0,0,0,-1,650,1723,0,0
-567,-699,0,0,0,0,0,0,0,0,0,-1,657,1723,0,0
-560,-699,0,0,0,0,0,0,0,0,0,-1,664,1723,0,0
-553,-699,0,0,0,0,0,0,0,0,0,-1,671,1723,0,0
-546,-699,0,0,0,0,0,0,0,0,0,-1,678,1723,0,0
-539,-699,0,0,0,0,0,0,0,0,0,-1,685,1723,0,0
-532,-699,0,0,0,0,0,0,0,0,0,-1,692,1723,0,0
-525,-699,0,0,0,0,0,0,0,0,0,-1,699,1723,0,0
-518,-699,0,0,0,0,0,0,0,0,0,-1,706,1723,0,0
-511,-699,0,0,0,0,0,0,0,0,0,-1,713,1723,0,0
-504,-699,0,0,0,0,0,0,0,0,0,-1,720,1723,0,0
-497,-699,0,0,0,0,0,0,0,0,0,-1,727,1723,0,0
-490,-699,0,0,0,0,0,0,0,0,0,-1,734,1723,0,0
-483,-699,0,0,0,0,0,0,0,0,0,-1,741,1723,0,0
-476,-699,0,0,0,0,0,0,0,0,0,-1,748,1723,0,0
-469,-699,0,0,0,0,0,0,0,0,0,-1,755,1723,0,0
-462,-699,0,0,0,0,0,0,0,0,0,-1,762,1723,0,0
-455,-699,0,0,0,0,0,0,0,0,0,-1,769,1723,0,0
-448,-699,0,0,0,0,0,0,0,0,0,-1,776,1723,0,0
-441,-699,0,0,0,0,0,0,0,0,0,-1,783,1723,0,0
-434,-699,0,0,0,0,0,0,0,0,0,-1,790,1723,0,0
-427,-699,0,0,0,0,0,0,0,0,0,-1,797,1723,0,0
-420,-699,0,0,0,0,0,0,0,0,0,-1,804,1723,0,0
-413,-699,0,0,0,0,0,0,0,0,0,-1,811,1723,0,0
-406,-699,0,0,0,0,0,0,0,0,0,-1,818,1723,0,0
-399,-699,0,0,0,0,0,0,0,0,0,-1,825,1723,0,0
-392,-699,0,0,0,0,0,0,0,0,0,-1,832,1723,0,0
-385,-699,0,0,0,0,0,0,0,0,0,-1,839,1723,0,0
-378,-699,0,0,0,0,0,0,0,0,0,-1,846,1723,0,0
-371,-699,0,0,0,0,0,0,0,0,0,-1,853,1723,0,0
-364,-699,0,0,0,0,0,0,0,0,0,-1,860,1723,0,0
-357,-699,0,0,0,0,0,0,0,0,0,-1,867,1723,0,0
-350,-699,0,0,0,0,0,0,0,0,0,-1,874,1723,0,0
-343,-699,0,0,0,0,0,0,0,0,0,-1,881,1723,0,0
-336,-699,0,0,0,0,0,0,0,0,0,-1,888,1723,0,0
-329,-699,0,0,0,0,0,0,0,0,0,-1,895,1723,0,0
-322,-699,0,0,0,0,0,0,0,0,0,-1,902,1723,0,0
-315,-699,1.47852,5.25037,0,0,0,0,0,0,0,-1,909,1723,1.47853,-5.25039
-308,-699,2.01111,5.2334,0,0,0,0,0,0,0,-1,916,1723,2.01109,-5.23345
-301,-699,2.41266,5.38928,0,0,0,0,0,0,0,-1,923,1723,2.41267,-5.38929
-294,-699,2.47131,5.65894,0,0,0,0,0,0,0,-1,930,1723,2.47131,-5.6589
-287,-699,4.57672,5.54932,0,0,0,0,0,0,0,-1,937,1723,4.57669,-5.54933
-280,-699,3.82037,6.12646,-0.0523327,0.031858,0.0142962,0.0342193,-0.0546941,1.4071,0.0517859,0.047548,944,1723,3.82037,-6.12651
-273,-699,3.14557,6.83411,-0.0463857,0.0283087,0.011344,0.0299936,-0.0480705,1.42335,0.0454713,0.0444809,951,1723,3.14556,-6.83415
-266,-699,2.68549,7.59436,0,0,0,0,0,0,0,-1,958,1723,2.6855,-7.59437
-259,-699,3.79803,6.27429,0,0,0,0,0,0,0,-1,965,1723,3.79801,-6.27426
-252,-699,3.61945,6.94116,0,0,0,0,0,0,0,-1,972,1723,3.61946,-6.94112
-245,-699,3.47455,6.85645,0,0,0,0,0,0,0,-1,979,1723,3.47453,-6.85642
-238,-699,3.53076,6.83887,0,0,0,0,0,0,0,-1,986,1723,3.53078,-6.83893
-231,-699,3.4729,7.02563,-0.015389,0.00589703,0.00100771,0.00594463,-0.0154366,1.5236,0.0127435,0.0389876,993,1723,3.4729,-7.02558
-224,-699,3.47516,7.16699,-0.0111741,0.00338184,0.000161862,0.00338364,-0.0111759,1.55968,0.00879814,0.0342664,1000,1723,3.47519,-7.16693
-217,-699,3.38239,7.2738,-0.00810873,0.00200022,-0.000569006,0.00203215,-0.00814066,-1.51474,0.00621622,0.023742,1007,1723,3.38241,-7.27375
-210,-699,3.35712,7.37231,-0.00662674,0.00176719,-0.000330575,0.00178019,-0.00663973,-1.53149,0.00512402,0.0164278,1014,1723,3.35714,-7.37233
-203,-699,3.38916,7.4375,-0.00566552,0.00183572,2.16388e-05,0.00183578,-0.00566559,1.56791,0.00451515,0.0200164,1021,1723,3.38921,-7.43749
-196,-699,3.37244,7.52136,-0.0044796,0.00225734,0.000257533,0.00226717,-0.00448943,1.53264,0.00397063,0.0170409,1028,1723,3.37244,-7.52141
-189,-699,3.34985,7.61414,-0.00339133,0.00238254,0.000410342,0.00241155,-0.00342034,1.5002,0.0033838,0.00878395,1035,1723,3.34987,-7.61411
-182,-699,3.33923,7.69287,-0.00247728,0.00243787,0.000361744,0.00246435,-0.00250377,1.49772,0.00286837,0.0115281,1042,1723,3.33922,-7.69282
-175,-699,3.34131,7.76965,-0.00177181,0.00248143,0.000257814,0.00249701,-0.00178738,1.51047,0.00248488,0.0141793,1049,1723,3.3413,-7.76971
-168,-699,3.36853,7.85413,-0.000873133,0.00243494,0.000368945,0.00247559,-0.000913781,1.46106,0.00202492,0.015171,1056,1723,3.36858,-7.85411
-161,-699,3.35559,7.93433,-0.000346931,0.00228658,0.000261203,0.00231223,-0.000372589,1.47288,0.00167952,0.0133296,1063,1723,3.3556,-7.93428
-154,-699,3.32776,7.9895,-3.85448e-06,0.00206071,0.000117432,0.00206737,-1.05125e-05,1.51416,0.00138176,0.013442,1070,1723,3.3278,-7.98949
-147,-699,3.32178,8.04565,0.000205471,0.00185149,1.32355e-05,0.0018516,0.000205364,1.56276,0.00117196,0.0137111,1077,1723,3.32173,-8.0456
-140,-699,3.32239,8.09351,0.000345448,0.00119874,-4.54873e-05,0.00120116,0.00034303,-1.51769,0.00071443,0.00949224,1084,1723,3.32243,-8.09353
-133,-699,3.33594,8.17419,0.000401563,0.000460614,-0.000148364,0.000582362,0.000279815,-0.883618,0.000336312,0.00899491,1091,1723,3.33598,-8.17423
-126,-699,3.34741,8.24182,0.00042098,-0.000331022,-0.000179082,0.000461448,-0.000371491,-0.222246,0.000481832,0.0109683,1098,1723,3.34738,-8.24185
-119,-699,3.33801,8.29724,0.000456793,-0.000869258,-1.57634e-05,0.000456981,-0.000869445,-0.0118852,0.000778056,0.0155591,1105,1723,3.33798,-8.29724
-112,-699,3.32166,8.35266,0.000473213,-0.00112431,0.000417611,0.000575794,-0.00122689,0.240869,0.00106317,0.011229,1112,1723,3.32163,-8.3526
-105,-699,3.34753,8.42102,0.00050271,-0.00102799,0.00120227,0.00116257,-0.00168785,0.501954,0.00165498,0.0122401,1119,1723,3.34752,-8.42101
-98,-699,3.37915,8.47522,0.000457081,-0.000524255,0.00202552,0.00205051,-0.00211769,0.666566,0.00240662,0.0149192,1126,1723,3.37911,-8.47525
-91,-699,3.38513,8.50732,0.000459152,0.000229415,0.00304883,0.00339528,-0.00270671,0.766569,0.00353045,0.0202455,1133,1723,3.38515,-8.50735
-84,-699,3.36316,8.5719,0.000547473,0.00146657,0.0042693,0.00530098,-0.00328694,0.839012,0.00500349,0.022313,1140,1723,3.36319,-8.5719
-77,-699,3.34265,8.62415,0.000827033,0.00305698,0.00554147,0.00759453,-0.00371051,0.884675,0.00665414,0.0153263,1147,1723,3.34268,-8.62409
-70,-699,3.34229,8.68945,0.00126941,0.0047491,0.00666465,0.00989726,-0.00387875,0.913077,0.0082027,0.0164271,1154,1723,3.34225,-8.68942
-63,-699,3.35999,8.724,0.00155659,0.00600301,0.00700897,0.0111329,-0.00357332,0.938976,0.00885668,0.0138757,1161,1723,3.35994,-8.72396
-56,-699,3.34546,8.7323,0.0018608,0.00682818,0.00677524,0.0115606,-0.00287165,0.961084,0.0088215,0.0101849,1168,1723,3.3455,-8.73233
-49,-699,3.3457,8.83044,0.00225521,0.00706224,0.00626236,0.0113665,-0.00204903,0.968631,0.00834494,0.0204715,1175,1723,3.34575,-8.83049
-42,-699,3.34814,8.90173,0.00265897,0.00693075,0.00549674,0.010692,-0.00110228,0.970707,0.00752239,0.0220503,1182,1723,3.34813,-8.90177
-35,-699,3.36841,8.89722,0.00323628,0.00630494,0.00428633,0.00932328,0.00021794,0.957272,0.00614416,0.021024,1189,1723,3.36841,-8.89724
-28,-699,3.40918,8.89429,0.00366396,0.0054254,0.0030367,0.00770652,0.00138285,0.926538,0.00474439,0.0155461,1196,1723,3.40923,-8.89432
-21,-699,3.41101,8.9115,0.00374973,0.00376372,0.00161077,0.00536751,0.00214594,0.787569,0.0031196,0.0109536,1203,1723,3.411,-8.91154
-14,-699,3.40247,8.94373,0.00427481,0.00128102,0.000181976,0.00428583,0.00127,0.0604875,0.00254194,0.0106744,1210,1723,3.4025,-8.94369
-7,-699,3.40576,8.9801,0.00535269,-0.00145946,-0.000882715,0.00546522,-0.00157198,-0.12679,0.00426515,0.00863009,1217,1723,3.40582,-8.98015
0,-699,3.41296,9.00793,0.00683504,-0.00405449,-0.00126055,0.00697906,-0.0041985,-0.113754,0.00651958,0.010234,1224,1723,3.41301,-9.00789
7,-699,3.41772,9.02197,0.00817704,-0.00596745,-0.000665263,0.00820826,-0.00599867,-0.0468953,0.00823538,0.0161661,1231,1723,3.41772,-9.02199
14,-699,3.42883,9.0542,0.00969226,-0.00715117,0.000621751,0.00971518,-0.00717409,0.0368467,0.00978774,0.0177858,1238,1723,3.42882,-9.05422
21,-699,3.43225,9.07031,0.01075,-0.00766617,0.00250377,0.0110843,-0.0080005,0.132746,0.0110665,0.0173516,1245,1723,3.43228,-9.07033
28,-699,3.45825,9.07239,0.0115231,-0.00824824,0.00416987,0.0123665,-0.00909171,0.199583,0.0124369,0.0153438,1252,1723,3.45827,-9.07233
35,-699,3.48047,9.09216,0.0124156,-0.00871938,0.00598487,0.0139927,-0.0102965,0.257653,0.0140774,0.0122046,1259,1723,3.48048,-9.0922
42,-699,3.47998,9.09204,0.0130159,-0.00912126,0.00799398,0.0156008,-0.0117061,0.312742,0.015819,0.0119576,1266,1723,3.47999,-9.09208
49,-699,3.50134,9.11072,0.013056,-0.00895731,0.0098285,0.0168056,-0.0127069,0.364456,0.0170937,0.0144157,1273,1723,3.50128,-9.11072
56,-699,3.52014,9.12866,0.0124148,-0.00822549,0.0113485,0.0174339,-0.0132447,0.416412,0.0177673,0.0137461,1280,1723,3.52009,-9.12868
63,-699,3.53052,9.12939,0.0113717,-0.00704048,0.0125558,0.0177347,-0.0134036,0.469062,0.0180356,0.011355,1287,1723,3.53049,-9.12943
70,-699,3.53027,9.13232,0.0101633,-0.00599969,0.0134989,0.0178149,-0.0136513,0.515673,0.0182199,0.00997043,1294,1723,3.53025,-9.13232
77,-699,3.5177,9.12939,0.00878753,-0.00481563,0.0138318,0.0173995,-0.0134276,0.556891,0.0178473,0.0102502,1301,1723,3.51766,-9.12934
84,-699,3.505,9.11743,0.00733525,-0.00358236,0.0134934,0.0164322,-0.0126793,0.593186,0.0168541,0.0132218,1308,1723,3.50506,-9.11744
91,-699,3.53809,9.13184,0.0057398,-0.00245454,0.012884,0.0151624,-0.0118771,0.631452,0.0156496,0.0128113,1315,1723,3.53811,-9.13189
98,-699,3.56433,9.15491,0.00417284,-0.0013796,0.0119454,0.0136603,-0.0108671,0.67122,0.0141915,0.0106915,1322,1723,3.56432,-9.15497
105,-699,3.56567,9.16089,0.00281345,-0.00041672,0.0107016,0.0120212,-0.00962443,0.710503,0.0125226,0.0146513,1329,1723,3.56573,-9.16087
112,-699,3.57495,9.13684,0.00208536,0.000354828,0.00935462,0.0106146,-0.00817446,0.739281,0.0108783,0.0209263,1336,1723,3.57498,-9.13679
119,-699,3.56641,9.10986,0.00155586,0.000744342,0.00767492,0.00883574,-0.00653554,0.758989,0.00890767,0.0159989,1343,1723,3.56645,-9.10987
126,-699,3.58691,9.10718,0.00146799,0.000649603,0.00588053,0.00695355,-0.00483596,0.750662,0.00684318,0.0179826,1350,1723,3.58691,-9.10713
133,-699,3.60498,9.09607,0.00129488,0.000909601,0.00472027,0.00582644,-0.00362196,0.765004,0.0055043,0.0161496,1357,1723,3.60499,-9.09604
140,-699,3.61951,9.08508,0.000660005,0.00137703,0.00350972,0.0045465,-0.00250947,0.836296,0.00412997,0.0163623,1364,1723,3.61948,-9.08503
147,-699,3.60522,9.0835,0.000757335,0.00177437,0.00232777,0.00364852,-0.00111681,0.892938,0.00287778,0.0129347,1371,1723,3.60521,-9.08348
154,-699,3.5896,9.07178,0.00110182,0.00168824,0.00168819,0.00310849,-0.00031844,0.871382,0.00218622,0.0133375,1378,1723,3.58961,-9.07176
161,-699,3.63428,9.02344,0.00161285,0.00131776,0.00123581,0.00270989,0.000220718,0.725983,0.0017377,0.0103965,1385,1723,3.63423,-9.02342
168,-699,3.64111,9.01367,0.00155352,0.000519371,0.00115385,0.00230085,-0.000227967,0.57475,0.00161526,0.0114055,1392,1723,3.64112,-9.0137
175,-699,3.65234,9.0011,0.00114186,0.000550217,0.00147497,0.00235038,-0.000658309,0.686431,0.00182634,0.0116929,1399,1723,3.65231,-9.00106
182,-699,3.65588,8.96118,0.000908503,0.000387908,0.00190976,0.00257562,-0.00127921,0.717666,0.00226716,0.0120404,1406,1723,3.65587,-8.9612
189,-699,3.65332,8.94128,0.000395901,0.000383121,0.00230925,0.00269877,-0.00191975,0.784015,0.00267911,0.0157401,1413,1723,3.65337,-8.9413
196,-699,3.65161,8.90576,-0.000316861,0.000312529,0.00220924,0.00222938,-0.00223371,0.856145,0.00257676,0.0163247,1420,1723,3.65164,-8.90573
203,-699,3.65015,8.86584,-0.000779914,-1.5272e-05,0.001973,0.00161211,-0.0024073,0.8811,0.0023357,0.0130779,1427,1723,3.65019,-8.86587
210,-699,3.65112,8.83838,-0.0011605,-0.000380923,0.00190259,0.00117139,-0.00271281,0.886436,0.00230066,0.0126644,1434,1723,3.65109,-8.83843
217,-699,3.6626,8.8136,-0.00145926,-0.00056321,0.0016885,0.000735694,-0.00275816,0.915079,0.00212685,0.0136779,1441,1723,3.66263,-8.81359
224,-699,3.67896,8.7666,-0.00160341,-0.000628769,0.00133888,0.000308724,-0.0025409,0.959932,0.00180566,0.0147142,1448,1723,3.67892,-8.76662
231,-699,3.69116,8.70642,-0.00151871,-0.000658062,0.0011368,0.000127131,-0.0023039,0.966334,0.00158002,0.0112812,1455,1723,3.69112,-8.70647
238,-699,3.66602,8.65076,-0.00125425,-0.000704141,0.00089834,-3.96902e-05,-0.0019187,0.933956,0.00126611,0.0100205,1462,1723,3.66603,-8.6507
245,-699,3.67065,8.61523,-0.000965589,-0.000755321,0.00063314,-0.000218646,-0.00150226,0.867674,0.000937168,0.011562,1469,1723,3.67061,-8.61518
252,-699,3.68286,8.58875,-0.000705789,-0.000845612,0.000396494,-0.000373089,-0.00117831,0.698133,0.000695381,0.0102997,1476,1723,3.68283,-8.58876
259,-699,3.67834,8.53247,-0.00037681,-0.000942602,0.000117188,-0.000353498,-0.000965914,0.196362,0.00056431,0.0108743,1483,1723,3.67837,-8.53244
266,-699,3.6698,8.47168,-4.14165e-05,-0.000759814,-0.000216847,1.89634e-05,-0.000820194,-0.271566,0.000553225,0.0130762,1490,1723,3.66977,-8.47167
273,-699,3.672,8.40527,0.00024591,-0.00049808,-0.000470219,0.000473487,-0.000725657,-0.45075,0.00069741,0.0122341,1497,1723,3.672,-8.40529
280,-699,3.67273,8.35339,0.000411085,-0.000155156,-0.000619173,0.000808796,-0.000552867,-0.570962,0.000790772,0.0123121,1504,1723,3.67267,-8.35341
287,-699,3.67725,8.31824,0.000498187,0.000130797,-0.00068009,0.00101895,-0.00038997,-0.653494,0.000840028,0.0104551,1511,1723,3.67728,-8.31822
294,-699,3.68762,8.24084,0.000621589,0.000411393,-0.00069495,0.00121934,-0.000186361,-0.710352,0.000881606,0.0106542,1518,1723,3.6876,-8.2409
301,-699,3.69629,8.19971,0.000799307,0.000911562,-0.000823012,0.00168036,3.05107e-05,-0.819444,0.00111021,0.01274,1525,1723,3.69625,-8.19966
308,-699,3.68445,8.16504,0.000814636,0.00142247,-0.000939267,0.00210576,0.00013134,-0.941866,0.00136217,0.0169647,1532,1723,3.68446,-8.16509
315,-699,3.6897,8.0719,0.000833026,0.00186047,-0.000988671,0.00246092,0.000232576,-1.025,0.00156885,0.0186168,1539,1723,3.68966,-8.07193
322,-699,3.68396,7.99036,0.000780674,0.0021286,-0.0010264,0.00268253,0.00022674,-1.07591,0.00171777,0.0191534,1546,1723,3.68392,-7.99036
329,-699,3.66272,7.91223,0.000788756,0.0019881,-0.000762549,0.00235852,0.000418331,-1.1186,0.00145312,0.0150028,1553,1723,3.66278,-7.91224
336,-699,3.66345,7.84656,0.000906876,0.00179175,-0.000689933,0.00216893,0.000529706,-1.07051,0.0013057,0.0130456,1560,1723,3.66351,-7.84659
343,-699,3.67163,7.78162,0.00108803,0.00139158,-0.000607936,0.0018664,0.000613211,-0.907727,0.00109848,0.0167362,1567,1723,3.67168,-7.78163
350,-699,3.69202,7.71704,0.00150263,0.000704069,-0.000683307,0.00189476,0.000311937,-0.520988,0.0011731,0.0254144,1574,1723,3.69207,-7.71706
357,-699,3.6582,7.66492,0.00179553,-0.000110203,-0.000743243,0.00205112,-0.000365792,-0.331215,0.00150424,0.0359807,1581,1723,3.65819,-7.66494
364,-699,3.61865,7.51953,0.00187183,-0.000775855,-0.000733708,0.00206156,-0.00096558,-0.253041,0.00178549,0.0395054,1588,1723,3.61868,-7.51959
371,-699,3.63391,7.36987,0.00177702,-0.00123021,-0.000843758,0.00199758,-0.00145077,-0.255683,0.00199923,0.0427725,1595,1723,3.63393,-7.36983
378,-699,3.91565,7.11072,0.00167246,-0.000564114,-0.0012875,0.00225952,-0.00115118,-0.427809,0.00200353,0.047261,1602,1723,3.91571,-7.11076
385,-699,3.84961,6.81079,0,0,0,0,0,0,0,-1,1609,1723,3.84961,-6.81077
392,-699,3.9198,9.32349,0,0,0,0,0,0,0,-1,1616,1723,3.91985,-9.32348
399,-699,3.91516,9.81726,0,0,0,0,0,0,0,-1,1623,1723,3.9152,-9.81721
406,-699,3.91016,10.458,0,0,0,0,0,0,0,-1,1630,1723,3.91015,-10.458
413,-699,4.92773,3.5918,0,0,0,0,0,0,0,-1,1637,1723,4.92777,-3.59182
420,-699,5.40759,4.48889,0,0,0,0,0,0,0,-1,1644,1723,5.4076,-4.48894
427,-699,5.4209,5.68958,0,0,0,0,0,0,0,-1,1651,1723,5.42089,-5.68959
434,-699,5.68835,6.66284,0,0,0,0,0,0,0,-1,1658,1723,5.68835,-6.66282
441,-699,0,0,0,0,0,0,0,0,0,-1,1665,1723,0,0
448,-699,0,0,0,0,0,0,0,0,0,-1,1672,1723,0,0
455,-699,0,0,0,0,0,0,0,0,0,-1,1679,1723,0,0
462,-699,0,0,0,0,0,0,0,0,0,-1,1686,1723,0,0
469,-699,0,0,0,0,0,0,0,0,0,-1,1693,1723,0,0
476,-699,0,0,0,0,0,0,0,0,0,-1,1700,1723,0,0
483,-699,0,0,0,0,0,0,0,0,0,-1,1707,1723,0,0
490,-699,0,0,0,0,0,0,0,0,0,-1,1714,1723,0,0
497,-699,0,0,0,0,0,0,0,0,0,-1,1721,1723,0,0
504,-699,0,0,0,0,0,0,0,0,0,-1,1728,1723,0,0
511,-699,0,0,0,0,0,0,0,0,0,-1,1735,1723,0,0
518,-699,0,0,0,0,0,0,0,0,0,-1,1742,1723,0,0
525,-699,0,0,0,0,0,0,0,0,0,-1,1749,1723,0,0
532,-699,0,0,0,0,0,0,0,0,0,-1,1756,1723,0,0
539,-699,0,0,0,0,0,0,0,0,0,-1,1763,1723,0,0
546,-699,0,0,0,0,0,0,0,0,0,-1,1770,1723,0,0
553,-699,0,0,0,0,0,0,0,0,0,-1,1777,1723,0,0
560,-699,0,0,0,0,0,0,0,0,0,-1,1784,1723,0,0
567,-699,0,0,0,0,0,0,0,0,0,-1,1791,1723,0,0
574,-699,0,0,0,0,0,0,0,0,0,-1,1798,1723,0,0
581,-699,0,0,0,0,0,0,0,0,0,-1,1805,1723,0,0
588,-699,0,0,0,0,0,0,0,0,0,-1,1812,1723,0,0
595,-699,0,0,0,0,0,0,0,0,0,-1,1819,1723,0,0
602,-699,0,0,0,0,0,0,0,0,0,-1,1826,1723,0,0
609,-699,0,0,0,0,0,0,0,0,0,-1,1833,1723,0,0
616,-699,0,0,0,0,0,0,0,0,0,-1,1840,1723,0,0
623,-699,0,0,0,0,0,0,0,0,0,-1,1847,1723,0,0
630,-699,0,0,0,0,0,0,0,0,0,-1,1854,1723,0,0
637,-699,0,0,0,0,0,0,0,0,0,-1,1861,1723,0,0
644,-699,0,0,0,0,0,0,0,0,0,-1,1868,1723,0,0
651,-699,0,0,0,0,0,0,0,0,0,-1,1875,1723,0,0
658,-699,0,0,0,0,0,0,0,0,0,-1,1882,1723,0,0
665,-699,0,0,0,0,0,0,0,0,0,-1,1889,1723,0,0
672,-699,0,0,0,0,0,0,0,0,0,-1,1896,1723,0,0
679,-699,0,0,0,0,0,0,0,0,0,-1,1903,1723,0,0
686,-699,0,0,0,0,0,0,0,0,0,-1,1910,1723,0,0
693,-699,0,0,0,0,0,0,0,0,0,-1,1917,1723,0,0
700,-699,0,0,0,0,0,0,0,0,0,-1,1924,1723,0,0
707,-699,0,0,0,0,0,0,0,0,0,-1,1931,1723,0,0
714,-699,0,0,0,0,0,0,0,0,0,-1,1938,1723,0,0
721,-699,0,0,0,0,0,0,0,0,0,-1,1945,1723,0,0
728,-699,0,0,0,0,0,0,0,0,0,-1,1952,1723,0,0
735,-699,0,0,0,0,0,0,0,0,0,-1,1959,1723,0,0
742,-699,0,0,0,0,0,0,0,0,0,-1,1966,1723,0,0
749,-699,0,0,0,0,0,0,0,0,0,-1,1973,1723,0,0
756,-699,0,0,0,0,0,0,0,0,0,-1,1980,1723,0,0
763,-699,0,0,0,0,0,0,0,0,0,-1,1987,1723,0,0
770,-699,0,0,0,0,0,0,0,0,0,-1,1994,1723,0,0
777,-699,0,0,0,0,0,0,0,0,0,-1,2001,1723,0,0
784,-699,0,0,0,0,0,0,0,0,0,-1,2008,1723,0,0
791,-699,0,0,0,0,0,0,0,0,0,-1,2015,1723,0,0
798,-699,0,0,0,0,0,0,0,0,0,-1,2022,1723,0,0
805,-699,0,0,0,0,0,0,0,0,0,-1,2029,1723,0,0
812,-699,0,0,0,0,0,0,0,0,0,-1,2036,1723,0,0
-700,-706,0,0,0,0,0,0,0,0,0,-1,524,1730,0,0
-693,-706,0,0,0,0,0,0,0,0,0,-1,531,1730,0,0
-686,-706,0,0,0,0,0,0,0,0,0,-1,538,1730,0,0
-679,-706,0,0,0,0,0,0,0,0,0,-1,545,1730,0,0
-672,-706,0,0,0,0,0,0,0,0,0,-1,552,1730,0,0
-665,-706,0,0,0,0,0,0,0,0,0,-1,559,1730,0,0
-658,-706,0,0,0,0,0,0,0,0,0,-1,566,1730,0,0
-651,-706,0,0,0,0,0,0,0,0,0,-1,573,1730,0,0
-644,-706,0,0,0,0,0,0,0,0,0,-1,580,1730,0,0
-637,-706,0,0,0,0,0,0,0,0,0,-1,587,1730,0,0
-630,-706,0,0,0,0,0,0,0,0,0,-1,594,1730,0,0
-623,-706,0,0,0,0,0,0,0,0,0,-1,601,1730,0,0
-616,-706,0,0,0,0,0,0,0,0,0,-1,608,1730,0,0
-609,-706,0,0,0,0,0,0,0,0,0,-1,615,1730,0,0
-602,-706,0,0,0,0,0,0,0,0,0,-1,622,1730,0,0
-595,-706,0,0,0,0,0,0,0,0,0,-1,629,1730,0,0
-588,-706,0,0,0,0,0,0,0,0,0,-1,636,1730,0,0
-581,-706,0,0,0,0,0,0,0,0,0,-1,643,1730,0,0
-574,-706,0,0,0,0,0,0,0,0,0,-1,650,1730,0,0
-567,-706,0,0,0,0,0,0,0,0,0,-1,657,1730,0,0
-560,-706,0,0,0,0,0,0,0,0,0,-1,664,1730,0,0
-553,-706,0,0,0,0,0,0,0,0,0,-1,671,1730,0,0
-546,-706,0,0,0,0,0,0,0,0,0,-1,678,1730,0,0
-539,-706,0,0,0,0,0,0,0,0,0,-1,685,1730,0,0
-532,-706,0,0,0,0,0,0,0,0,0,-1,692,1730,0,0
-525,-706,0,0,0,0,0,0,0,0,0,-1,699,1730,0,0
-518,-706,0,0,0,0,0,0,0,0,0,-1,706,1730,0,0
-511,-706,0,0,0,0,0,0,0,0,0,-1,713,1730,0,0
-504,-706,0,0,0,0,0,0,0,0,0,-1,720,1730,0,0
-497,-706,0,0,0,0,0,0,0,0,0,-1,727,1730,0,0
-490,-706,0,0,0,0,0,0,0,0,0,-1,734,1730,0,0
-483,-706,0,0,0,0,0,0,0,0,0,-1,741,1730,0,0
-476,-706,0,0,0,0,0,0,0,0,0,-1,748,1730,0,0
-469,-706,0,0,0,0,0,0,0,0,0,-1,755,1730,0,0
-462,-706,0,0,0,0,0,0,0,0,0,-1,762,1730,0,0
-455,-706,0,0,0,0,0,0,0,0,0,-1,769,1730,0,0
-448,-706,0,0,0,0,0,0,0,0,0,-1,776,1730,0,0
-441,-706,0,0,0,0,0,0,0,0,0,-1,783,1730,0,0
-434,-706,0,0,0,0,0,0,0,0,0,-1,790,1730,0,0
-427,-706,0,0,0,0,0,0,0,0,0,-1,797,1730,0,0
-420,-706,0,0,0,0,0,0,0,0,0,-1,804,1730,0,0
-413,-706,0,0,0,0,0,0,0,0,0,-1,811,1730,0,0
-406,-706,0,0,0,0,0,0,0,0,0,-1,818,1730,0,0
-399,-706,0,0,0,0,0,0,0,0,0,-1,825,1730,0,0
-392,-706,0,0,0,0,0,0,0,0,0,-1,832,1730,0,0
-385,-706,0,0,0,0,0,0,0,0,0,-1,839,1730,0,0
-378,-706,0,0,0,0,0,0,0,0,0,-1,846,1730,0,0
-371,-706,0,0,0,0,0,0,0,0,0,-1,853,1730,0,0
-364,-706,0,0,0,0,0,0,0,0,0,-1,860,1730,0,0
-357,-706,0,0,0,0,0,0,0,0,0,-1,867,1730,0,0
-350,-706,0,0,0,0,0,0,0,0,0,-1,874,1730,0,0
-343,-706,0,0,0,0,0,0,0,0,0,-1,881,1730,0,0
-336,-706,0,0,0,0,0,0,0,0,0,-1,888,1730,0,0
-329,-706,0,0,0,0,0,0,0,0,0,-1,895,1730,0,0
-322,-706,0,0,0,0,0,0,0,0,0,-1,902,1730,0,0
-315,-706,0,0,0,0,0,0,0,0,0,-1,909,1730,0,0
-308,-706,1.51831,5.71399,0,0,0,0,0,0,0,-1,916,1730,1.51833,-5.71397
-301,-706,1.76807,5.80627,0,0,0,0,0,0,0,-1,923,1730,1.76804,-5.80621
-294,-706,5.86334,4.67932,0,0,0,0,0,0,0,-1,930,1730,5.86336,-4.67935
-287,-706,4.92523,5.10754,0,0,0,0,0,0,0,-1,937,1730,4.92526,-5.10756
-280,-706,4.30377,5.63904,-0.0678372,0.0422293,0.0163435,0.0446048,-0.0702127,1.42646,0.0668373,0.0475291,944,1730,4.30379,-5.63906
-273,-706,3.57416,6.43469,-0.0609357,0.0377713,0.0127333,0.0393875,-0.0625518,1.44455,0.059359,0.0450198,951,1730,3.57414,-6.4347
-266,-706,2.99451,7.05591,0,0,0,0,0,0,0,-1,958,1730,2.99453,-7.05597
-259,-706,4.49927,4.80469,0,0,0,0,0,0,0,-1,965,1730,4.49926,-4.80475
-252,-706,2.99689,6.31372,0,0,0,0,0,0,0,-1,972,1730,2.99687,-6.31371
-245,-706,3.43475,6.22034,0,0,0,0,0,0,0,-1,979,1730,3.43478,-6.22028
-238,-706,3.61188,6.16357,0,0,0,0,0,0,0,-1,986,1730,3.61187,-6.16362
-231,-706,4.29767,7.09875,0,0,0,0,0,0,0,-1,993,1730,4.29766,-7.0987
-224,-706,3.90161,7.27478,-0.015527,0.00387328,0.000512954,0.00388683,-0.0155406,1.54438,0.01187,0.0403392,1000,1730,3.9016,-7.27477
-217,-706,3.55334,7.29517,-0.0113258,0.00190353,-0.000332557,0.00191188,-0.0113341,-1.54568,0.00826739,0.0351007,1007,1730,3.55335,-7.29517
-210,-706,3.47394,7.375,-0.00895752,0.0015964,5.07305e-05,0.00159664,-0.00895776,1.56599,0.00656905,0.0353907,1014,1730,3.47395,-7.37495
-203,-706,3.49438,7.46008,-0.00750762,0.00195085,0.000468364,0.00197399,-0.00753075,1.52144,0.00579174,0.0299621,1021,1730,3.49442,-7.46006
-196,-706,3.50208,7.50159,-0.00590058,0.00265523,0.000737349,0.00271831,-0.00596366,1.48545,0.00512794,0.0211302,1028,1730,3.50208,-7.50157
-189,-706,3.4364,7.6084,-0.00441458,0.0029084,0.000884921,0.00301382,-0.00452,1.45223,0.00437853,0.0161087,1035,1730,3.43643,-7.60843
-182,-706,3.41699,7.71216,-0.00320799,0.003041,0.000750202,0.0031298,-0.00329679,1.45297,0.00371081,0.0126094,1042,1730,3.41698,-7.7121
-175,-706,3.4187,7.76379,-0.00234644,0.00314018,0.000573145,0.00319942,-0.00240568,1.46782,0.0032469,0.0145504,1049,1730,3.41869,-7.76377
-168,-706,3.42346,7.83252,-0.00124965,0.00308971,0.00067732,0.00319297,-0.00135291,1.4195,0.00269529,0.0161273,1056,1730,3.42348,-7.8325
-161,-706,3.41614,7.91577,-0.000649615,0.00289955,0.000484876,0.0029646,-0.000714665,1.43743,0.00225273,0.0134645,1063,1730,3.41614,-7.91577
-154,-706,3.40186,7.9812,-0.000245026,0.00258074,0.000258256,0.00260415,-0.000268435,1.4804,0.00183214,0.0136362,1070,1730,3.40185,-7.9812
-147,-706,3.3949,8.03638,3.20778e-07,0.00230659,9.79691e-05,0.00231074,-3.83332e-06,1.52842,0.00154177,0.0120929,1077,1730,3.39488,-8.03636
-140,-706,3.41077,8.10999,0.000171715,0.00154135,3.13724e-05,0.00154206,0.000170997,1.54791,0.00097605,0.010262,1084,1730,3.41072,-8.10997
-133,-706,3.39124,8.17932,0.000259794,0.000840833,-6.95397e-05,0.00084904,0.000251588,-1.45332,0.000503568,0.00824133,1091,1730,3.39122,-8.1793
-126,-706,3.39539,8.23889,0.00028748,0.000118952,-8.70757e-05,0.000324388,8.20442e-05,-0.400903,0.000194759,0.0128006,1098,1730,3.39536,-8.23885
-119,-706,3.3916,8.26685,0.000260601,-0.000390585,-4.27844e-05,0.0002634,-0.000393384,-0.065328,0.000381662,0.0190247,1105,1730,3.39166,-8.2668
-112,-706,3.37061,8.35754,0.000212327,-0.000755768,9.3862e-05,0.000221344,-0.000764784,0.0957669,0.000597464,0.0132541,1112,1730,3.37066,-8.35754
-105,-706,3.3844,8.43323,0.000152047,-0.00104157,0.000326939,0.000235731,-0.00112525,0.250582,0.000839846,0.0092917,1119,1730,3.38441,-8.4332
-98,-706,3.41211,8.47522,-2.36751e-05,-0.000872074,0.000585627,0.000275247,-0.001171,0.471957,0.000886768,0.011269,1126,1730,3.41209,-8.47521
-91,-706,3.42102,8.52783,-0.000201178,-0.000565984,0.00088878,0.000523724,-0.00129089,0.684189,0.00107842,0.0141081,1133,1730,3.42107,-8.52785
-84,-706,3.39819,8.58447,-0.000355832,1.07629e-05,0.00122314,0.00106427,-0.00140934,0.859774,0.00143276,0.015986,1140,1730,3.39818,-8.5845
-77,-706,3.39282,8.63477,-0.000347557,0.000744983,0.00156567,0.00185695,-0.00145952,0.953248,0.00191934,0.0152615,1147,1730,3.39281,-8.63482
-70,-706,3.3877,8.70215,-0.000182047,0.00151327,0.0018181,0.00267161,-0.00134039,1.00353,0.00235845,0.0175868,1154,1730,3.38764,-8.7022
-63,-706,3.39758,8.71704,-3.60978e-05,0.00223376,0.00184775,0.0032673,-0.00106964,1.0608,0.00260889,0.013077,1161,1730,3.39764,-8.7171
-56,-706,3.39233,8.7467,0.000182464,0.00278304,0.00169505,0.00361909,-0.000653587,1.11258,0.00265752,0.0127949,1168,1730,3.3923,-8.74669
-49,-706,3.3772,8.79126,0.000474197,0.00303829,0.00151238,0.0037389,-0.000226417,1.13698,0.0025714,0.0133938,1175,1730,3.37723,-8.79122
-42,-706,3.40161,8.87048,0.000770475,0.0030752,0.00129647,0.00365742,0.000188254,1.14871,0.00237802,0.0168427,1182,1730,3.40162,-8.87051
-35,-706,3.40894,8.8949,0.0012242,0.00276169,0.000932381,0.00320137,0.000784511,1.13015,0.00192674,0.016204,1189,1730,3.40892,-8.89494
-28,-706,3.43665,8.88525,0.0015767,0.00219797,0.000583423,0.0025483,0.00122637,1.03003,0.00147161,0.0101632,1196,1730,3.43664,-8.88521
-21,-706,3.45325,8.92761,0.00172224,0.00114547,8.90137e-05,0.00173566,0.00113204,0.149693,0.00101745,0.0102201,1203,1730,3.45325,-8.92761
-14,-706,3.45154,8.94666,0.00215551,-0.000397865,-0.000251758,0.0021801,-0.000422451,-0.0973488,0.00161277,0.0104686,1210,1730,3.4515,-8.9467
-7,-706,3.43884,8.97119,0.00298032,-0.00220042,-0.000458371,0.00302056,-0.00224067,-0.0875696,0.00304867,0.00913016,1217,1730,3.43879,-8.97115
0,-706,3.46411,8.9834,0.00388275,-0.00396539,-0.000361506,0.00389937,-0.003982,-0.045933,0.00455039,0.0123778,1224,1730,3.46412,-8.98338
7,-706,3.4729,8.99939,0.00475181,-0.00554924,5.26405e-05,0.00475208,-0.00554951,0.00511003,0.00595356,0.0141549,1231,1730,3.47289,-8.99936
14,-706,3.45398,9.02686,0.00588299,-0.0065685,0.000821662,0.00593698,-0.00662249,0.0656098,0.00725481,0.0143802,1238,1730,3.45394,-9.02687
21,-706,3.44348,9.04871,0.00664503,-0.00695311,0.00212651,0.00696982,-0.0072779,0.151563,0.00822657,0.0124517,1245,1730,3.44346,-9.04876
28,-706,3.46619,9.07825,0.00716717,-0.00745993,0.00328706,0.0078719,-0.00816465,0.211197,0.00925922,0.0121808,1252,1730,3.4662,-9.07823
35,-706,3.4967,9.104,0.00773023,-0.00776301,0.00454922,0.00896724,-0.00900001,0.265497,0.0103734,0.0132045,1259,1730,3.49671,-9.104
42,-706,3.49072,9.11328,0.00815963,-0.00801048,0.00592256,0.0100968,-0.00994765,0.316114,0.0115728,0.0116085,1266,1730,3.49069,-9.11327
49,-706,3.48621,9.11597,0.00818339,-0.00775646,0.0071624,0.0109289,-0.0105019,0.366042,0.0123739,0.0133812,1273,1730,3.48624,-9.116
56,-706,3.5155,9.13147,0.00779306,-0.00707322,0.00818875,0.0114192,-0.0106993,0.416865,0.0127724,0.0122717,1280,1730,3.51552,-9.13152
63,-706,3.53735,9.14758,0.00713963,-0.0060188,0.0089873,0.0116985,-0.0105777,0.469439,0.0128666,0.0107753,1287,1730,3.53741,-9.14758
70,-706,3.52051,9.1355,0.00630895,-0.00510868,0.00958031,0.0117524,-0.0105521,0.516702,0.0128837,0.0116796,1294,1730,3.52053,-9.13548
77,-706,3.50586,9.1333,0.00534978,-0.00406361,0.00974005,0.0114607,-0.0101746,0.560327,0.0124985,0.0101978,1301,1730,3.5059,-9.13326
84,-706,3.51746,9.13721,0.00435804,-0.00305536,0.00947172,0.0108225,-0.00951986,0.598887,0.0117527,0.00890329,1308,1730,3.51744,-9.1372
91,-706,3.54944,9.15466,0.00332746,-0.00211932,0.00898688,0.00999454,-0.0087864,0.638276,0.0108507,0.0104235,1315,1730,3.54946,-9.15469
98,-706,3.57129,9.177,0.00226782,-0.00124898,0.00826526,0.00895965,-0.00794081,0.680588,0.0097634,0.0139024,1322,1730,3.57123,-9.17698
105,-706,3.57507,9.17542,0.00150991,-0.000465872,0.00727354,0.00786234,-0.0068183,0.717901,0.00848301,0.0152359,1329,1730,3.57513,-9.17541
112,-706,3.55103,9.15466,0.00111894,0.000158548,0.00625885,0.00691599,-0.0056385,0.747112,0.00726084,0.0148122,1336,1730,3.551,-9.15471
119,-706,3.57117,9.16296,0.000788602,0.000561058,0.00514235,0.00581844,-0.00446878,0.774338,0.00595634,0.0127947,1343,1730,3.57111,-9.16297
126,-706,3.58704,9.14746,0.000943606,0.000496084,0.00378032,0.00450678,-0.00306709,0.755837,0.00439903,0.0145665,1350,1730,3.58709,-9.14742
133,-706,3.59094,9.10315,0.00110054,0.000781471,0.00289091,0.00383632,-0.0019543,0.757833,0.00340157,0.0125909,1357,1730,3.59095,-9.10315
140,-706,3.59656,9.0708,0.000984129,0.00101512,0.00204916,0.00304884,-0.00104959,0.789178,0.00245828,0.0114443,1364,1730,3.59658,-9.07084
147,-706,3.6416,9.06348,0.000979582,0.00128482,0.00131454,0.00245557,-0.000191167,0.84319,0.00170435,0.0183494,1371,1730,3.64163,-9.06344
154,-706,3.65991,9.06702,0.00109265,0.00123196,0.000941031,0.00210591,0.0002187,0.82234,0.00133702,0.0192349,1378,1730,3.65991,-9.06702
161,-706,3.59766,9.02966,0.00126577,0.00103746,0.000746184,0.00190648,0.000396751,0.709496,0.00116155,0.0110875,1385,1730,3.5977,-9.02965
168,-706,3.60352,9.01282,0.00112747,0.00059332,0.000781267,0.00168605,3.47382e-05,0.620702,0.00111263,0.0106021,1392,1730,3.6035,-9.01281
175,-706,3.61243,8.99719,0.000866598,0.000691007,0.000947382,0.00173024,-0.000172639,0.739194,0.00121514,0.0100034,1399,1730,3.61242,-8.99721
182,-706,3.61047,8.94971,0.00068018,0.000613571,0.00117834,0.00182569,-0.000531939,0.77127,0.00142786,0.0106615,1406,1730,3.61046,-8.94969
189,-706,3.61157,8.91602,0.000317931,0.000615595,0.0013739,0.0018487,-0.000915175,0.839352,0.00162578,0.0137485,1413,1730,3.61163,-8.91605
196,-706,3.6228,8.87976,-0.00015348,0.000583288,0.00125933,0.00152701,-0.0010972,0.92769,0.00152185,0.0117515,1420,1730,3.62275,-8.87976
203,-706,3.61938,8.86401,-0.000449695,0.000384145,0.00106891,0.00111456,-0.00118011,0.971345,0.00132501,0.0130734,1427,1730,3.61941,-8.86397
210,-706,3.61255,8.82532,-0.000688345,0.000137328,0.000983989,0.000791576,-0.00134259,0.984023,0.00124578,0.0130352,1434,1730,3.6126,-8.82538
217,-706,3.61438,8.8103,-0.000860601,-6.26883e-05,0.000806102,0.000437781,-0.00136107,1.01519,0.00108321,0.0133236,1441,1730,3.61443,-8.81029
224,-706,3.62659,8.78613,-0.00092926,-0.000270705,0.000531118,2.49257e-05,-0.00122489,1.06289,0.000825028,0.0169583,1448,1730,3.62653,-8.78608
231,-706,3.65125,8.70398,-0.000843615,-0.000475496,0.000379184,-0.00023806,-0.00108105,1.01135,0.000655909,0.0126741,1455,1730,3.65122,-8.70394
238,-706,3.62415,8.65857,-0.000579012,-0.000703607,0.000171422,-0.000458919,-0.0008237,0.611109,0.000476598,0.0085346,1462,1730,3.62418,-8.65852
245,-706,3.61133,8.62378,-0.000308205,-0.000916728,-5.79849e-05,-0.000302729,-0.000922204,-0.0941588,0.000542802,0.0110483,1469,1730,3.61136,-8.62372
252,-706,3.63391,8.57483,-5.1622e-05,-0.00114199,-0.000237971,-1.94798e-06,-0.00119166,-0.205784,0.000793794,0.0111467,1476,1730,3.63394,-8.57485
259,-706,3.63782,8.50806,0.000305172,-0.00129132,-0.0005016,0.000449688,-0.00143584,-0.280512,0.00113715,0.0129349,1483,1730,3.63784,-8.50809
266,-706,3.62573,8.47815,0.000632483,-0.00102454,-0.000843495,0.000986306,-0.00137836,-0.39718,0.00137148,0.0136547,1490,1730,3.6257,-8.47813
273,-706,3.62427,8.42712,0.00081211,-0.000716057,-0.00101782,0.00132073,-0.00122468,-0.463422,0.00146995,0.0120736,1497,1730,3.62431,-8.42713
280,-706,3.61646,8.37756,0.000919424,-0.000311358,-0.00113582,0.00159585,-0.000987784,-0.537134,0.00150537,0.0101307,1504,1730,3.61645,-8.37753
287,-706,3.61194,8.30664,0.000975066,9.23236e-05,-0.00114749,0.00176314,-0.000695753,-0.6018,0.00146355,0.0108807,1511,1730,3.61195,-8.30661
294,-706,3.64514,8.25598,0.00109214,0.000493056,-0.00110864,0.00194099,-0.000355795,-0.653455,0.00142745,0.0109636,1518,1730,3.64511,-8.25595
301,-706,3.64294,8.19348,0.00128924,0.00118995,-0.00122661,0.0024672,1.19839e-05,-0.765172,0.00164082,0.010126,1525,1730,3.64296,-8.19343
308,-706,3.63684,8.13525,0.00126154,0.00190594,-0.00133502,0.00295709,0.000210388,-0.903808,0.00190514,0.0111566,1532,1730,3.63684,-8.13528
315,-706,3.65149,8.06848,0.0012413,0.00251986,-0.00134679,0.00337139,0.000389763,-1.00699,0.0021296,0.0172636,1539,1730,3.65146,-8.06847
322,-706,3.66235,7.99329,0.00106139,0.00289283,-0.00133997,0.00360009,0.000354135,-1.08514,0.00229115,0.0184729,1546,1730,3.66234,-7.99327
329,-706,3.62854,7.91956,0.000917266,0.00285192,-0.00091335,0.00321498,0.000554206,-1.19244,0.00198455,0.016699,1553,1730,3.62851,-7.9196
336,-706,3.60168,7.83765,0.000966039,0.0026098,-0.000746553,0.00289825,0.000677592,-1.20209,0.00175057,0.0234661,1560,1730,3.60171,-7.8376
343,-706,3.62415,7.68323,0.00101609,0.00209646,-0.000523019,0.00230817,0.000804378,-1.18617,0.00135286,0.0307042,1567,1730,3.62413,-7.6832
350,-706,3.65784,7.66577,0.0013171,0.00119202,-0.000451026,0.0017099,0.000799217,-0.716507,0.00098791,0.0368521,1574,1730,3.65787,-7.66576
357,-706,3.71167,7.51807,0.00143599,0.000163236,-0.000349087,0.00152545,7.37775e-05,-0.250866,0.000993287,0.0450197,1581,1730,3.71163,-7.51812
364,-706,3.78491,7.40552,0,0,0,0,0,0,0,-1,1588,1730,3.78488,-7.40547
371,-706,3.75586,7.28845,0.000961278,-0.00152752,3.20719e-05,0.000961692,-0.00152793,0.0128837,0.00144972,0.0489832,1595,1730,3.75584,-7.28842
378,-706,3.78821,7.49438,0.000641392,-0.000865151,-0.000255458,0.00068353,-0.000907289,-0.16348,0.000921483,0.0484294,1602,1730,3.78826,-7.49441
385,-706,3.62842,7.97229,0,0,0,0,0,0,0,-1,1609,1730,3.62846,-7.97235
392,-706,3.33167,8.65002,0,0,0,0,0,0,0,-1,1616,1730,3.33172,-8.64998
399,-706,2.84668,8.81799,0,0,0,0,0,0,0,-1,1623,1730,2.84668,-8.81796
406,-706,2.85352,9.40063,0,0,0,0,0,0,0,-1,1630,1730,2.85346,-9.40059
413,-706,2.87476,10.0918,0,0,0,0,0,0,0,-1,1637,1730,2.87471,-10.0919
420,-706,5.7926,4.15125,0,0,0,0,0,0,0,-1,1644,1730,5.79255,-4.15128
427,-706,0,0,0,0,0,0,0,0,0,-1,1651,1730,0,0
434,-706,0,0,0,0,0,0,0,0,0,-1,1658,1730,0,0
441,-706,0,0,0,0,0,0,0,0,0,-1,1665,1730,0,0
448,-706,0,0,0,0,0,0,0,0,0,-1,1672,1730,0,0
455,-706,0,0,0,0,0,0,0,0,0,-1,1679,1730,0,0
462,-706,0,0,0,0,0,0,0,0,0,-1,1686,1730,0,0
469,-706,0,0,0,0,0,0,0,0,0,-1,1693,1730,0,0
476,-706,0,0,0,0,0,0,0,0,0,-1,1700,1730,0,0
483,-706,0,0,0,0,0,0,0,0,0,-1,1707,1730,0,0
490,-706,0,0,0,0,0,0,0,0,0,-1,1714,1730,0,0
497,-706,0,0,0,0,0,0,0,0,0,-1,1721,1730,0,0
504,-706,0,0,0,0,0,0,0,0,0,-1,1728,1730,0,0
511,-706,0,0,0,0,0,0,0,0,0,-1,1735,1730,0,0
518,-706,0,0,0,0,0,0,0,0,0,-1,1742,1730,0,0
525,-706,0,0,0,0,0,0,0,0,0,-1,1749,1730,0,0
532,-706,0,0,0,0,0,0,0,0,0,-1,1756,1730,0,0
539,-706,0,0,0,0,0,0,0,0,0,-1,1763,1730,0,0
546,-706,0,0,0,0,0,0,0,0,0,-1,1770,1730,0,0
553,-706,0,0,0,0,0,0,0,0,0,-1,1777,1730,0,0
560,-706,0,0,0,0,0,0,0,0,0,-1,1784,1730,0,0
567,-706,0,0,0,0,0,0,0,0,0,-1,1791,1730,0,0
574,-706,0,0,0,0,0,0,0,0,0,-1,1798,1730,0,0
581,-706,0,0,0,0,0,0,0,0,0,-1,1805,1730,0,0
588,-706,0,0,0,0,0,0,0,0,0,-1,1812,1730,0,0
595,-706,0,0,0,0,0,0,0,0,0,-1,1819,1730,0,0
602,-706,0,0,0,0,0,0,0,0,0,-1,1826,1730,0,0
609,-706,0,0,0,0,0,0,0,0,0,-1,1833,1730,0,0
616,-706,0,0,0,0,0,0,0,0,0,-1,1840,1730,0,0
623,-706,0,0,0,0,0,0,0,0,0,-1,1847,1730,0,0
630,-706,0,0,0,0,0,0,0,0,0,-1,1854,1730,0,0
637,-706,0,0,0,0,0,0,0,0,0,-1,1861,1730,0,0
644,-706,0,0,0,0,0,0,0,0,0,-1,1868,1730,0,0
651,-706,0,0,0,0,0,0,0,0,0,-1,1875,1730,0,0
658,-706,0,0,0,0,0,0,0,0,0,-1,1882,1730,0,0
665,-706,0,0,0,0,0,0,0,0,0,-1,1889,1730,0,0
672,-706,0,0,0,0,0,0,0,0,0,-1,1896,1730,0,0
679,-706,0,0,0,0,0,0,0,0,0,-1,1903,1730,0,0
686,-706,0,0,0,0,0,0,0,0,0,-1,1910,1730,0,0
693,-706,0,0,0,0,0,0,0,0,0,-1,1917,1730,0,0
700,-706,0,0,0,0,0,0,0,0,0,-1,1924,1730,0,0
707,-706,0,0,0,0,0,0,0,0,0,-1,1931,1730,0,0
714,-706,0,0,0,0,0,0,0,0,0,-1,1938,1730,0,0
721,-706,0,0,0,0,0,0,0,0,0,-1,1945,1730,0,0
728,-706,0,0,0,0,0,0,0,0,0,-1,1952,1730,0,0
735,-706,0,0,0,0,0,0,0,0,0,-1,1959,1730,0,0
742,-706,0,0,0,0,0,0,0,0,0,-1,1966,1730,0,0
749,-706,0,0,0,0,0,0,0,0,0,-1,1973,1730,0,0
756,-706,0,0,0,0,0,0,0,0,0,-1,1980,1730,0,0
763,-706,0,0,0,0,0,0,0,0,0,-1,1987,1730,0,0
770,-706,0,0,0,0,0,0,0,0,0,-1,1994,1730,0,0
777,-706,0,0,0,0,0,0,0,0,0,-1,2001,1730,0,0
784,-706,0,0,0,0,0,0,0,0,0,-1,2008,1730,0,0
791,-706,0,0,0,0,0,0,0,0,0,-1,2015,1730,0,0
798,-706,0,0,0,0,0,0,0,0,0,-1,2022,1730,0,0
805,-706,0,0,0,0,0,0,0,0,0,-1,2029,1730,0,0
812,-706,0,0,0,0,0,0,0,0,0,-1,2036,1730,0,0
-700,-713,0,0,0,0,0,0,0,0,0,-1,524,1737,0,0
-693,-713,0,0,0,0,0,0,0,0,0,-1,531,1737,0,0
-686,-713,0,0,0,0,0,0,0,0,0,-1,538,1737,0,0
-679,-713,0,0,0,0,0,0,0,0,0,-1,545,1737,0,0
-672,-713,0,0,0,0,0,0,0,0,0,-1,552,1737,0,0
-665,-713,0,0,0,0,0,0,0,0,0,-1,559,1737,0,0
-658,-713,0,0,0,0,0,0,0,0,0,-1,566,1737,0,0
-651,-713,0,0,0,0,0,0,0,0,0,-1,573,1737,0,0
-644,-713,0,0,0,0,0,0,0,0,0,-1,580,1737,0,0
-637,-713,0,0,0,0,0,0,0,0,0,-1,587,1737,0,0
-630,-713,0,0,0,0,0,0,0,0,0,-1,594,1737,0,0
-623,-713,0,0,0,0,0,0,0,0,0,-1,601,1737,0,0
-616,-713,0,0,0,0,0,0,0,0,0,-1,608,1737,0,0
-609,-713,0,0,0,0,0,0,0,0,0,-1,615,1737,0,0
-602,-713,0,0,0,0,0,0,0,0,0,-1,622,1737,0,0
-595,-713,0,0,0,0,0,0,0,0,0,-1,629,1737,0,0
-588,-713,0,0,0,0,0,0,0,0,0,-1,636,1737,0,0
-581,-713,0,0,0,0,0,0,0,0,0,-1,643,1737,0,0
-574,-713,0,0,0,0,0,0,0,0,0,-1,650,1737,0,0
-567,-713,0,0,0,0,0,0,0,0,0,-1,657,1737,0,0
-560,-713,0,0,0,0,0,0,0,0,0,-1,664,1737,0,0
-553,-713,0,0,0,0,0,0,0,0,0,-1,671,1737,0,0
-546,-713,0,0,0,0,0,0,0,0,0,-1,678,1737,0,0
-539,-713,0,0,0,0,0,0,0,0,0,-1,685,1737,0,0
-532,-713,0,0,0,0,0,0,0,0,0,-1,692,1737,0,0
-525,-713,0,0,0,0,0,0,0,0,0,-1,699,1737,0,0
-518,-713,0,0,0,0,0,0,0,0,0,-1,706,1737,0,0
-511,-713,0,0,0,0,0,0,0,0,0,-1,713,1737,0,0
-504,-713,0,0,0,0,0,0,0,0,0,-1,720,1737,0,0
-497,-713,0,0,0,0,0,0,0,0,0,-1,727,1737,0,0
-490,-713,0,0,0,0,0,0,0,0,0,-1,734,1737,0,0
-483,-713,0,0,0,0,0,0,0,0,0,-1,741,1737,0,0
-476,-713,0,0,0,0,0,0,0,0,0,-1,748,1737,0,0
-469,-713,0,0,0,0,0,0,0,0,0,-1,755,1737,0,0
-462,-713,0,0,0,0,0,0,0,0,0,-1,762,1737,0,0
-455,-713,0,0,0,0,0,0,0,0,0,-1,769,1737,0,0
-448,-713,0,0,0,0,0,0,0,0,0,-1,776,1737,0,0
-441,-713,0,0,0,0,0,0,0,0,0,-1,783,1737,0,0
-434,-713,0,0,0,0,0,0,0,0,0,-1,790,1737,0,0
-427,-713,0,0,0,0,0,0,0,0,0,-1,797,1737,0,0
-420,-713,0,0,0,0,0,0,0,0,0,-1,804,1737,0,0
-413,-713,0,0,0,0,0,0,0,0,0,-1,811,1737,0,0
-406,-713,0,0,0,0,0,0,0,0,0,-1,818,1737,0,0
-399,-713,0,0,0,0,0,0,0,0,0,-1,825,1737,0,0
-392,-713,0,0,0,0,0,0,0,0,0,-1,832,1737,0,0
-385,-713,0,0,0,0,0,0,0,0,0,-1,839,1737,0,0
-378,-713,0,0,0,0,0,0,0,0,0,-1,846,1737,0,0
-371,-713,0,0,0,0,0,0,0,0,0,-1,853,1737,0,0
-364,-713,0,0,0,0,0,0,0,0,0,-1,860,1737,0,0
-357,-713,0,0,0,0,0,0,0,0,0,-1,867,1737,0,0
-350,-713,0,0,0,0,0,0,0,0,0,-1,874,1737,0,0
-343,-713,0,0,0,0,0,0,0,0,0,-1,881,1737,0,0
-336,-713,0,0,0,0,0,0,0,0,0,-1,888,1737,0,0
-329,-713,0,0,0,0,0,0,0,0,0,-1,895,1737,0,0
-322,-713,0,0,0,0,0,0,0,0,0,-1,902,1737,0,0
-315,-713,0,0,0,0,0,0,0,0,0,-1,909,1737,0,0
-308,-713,0,0,0,0,0,0,0,0,0,-1,916,1737,0,0
-301,-713,0,0,0,0,0,0,0,0,0,-1,923,1737,0,0
-294,-713,1.52808,6.30286,0,0,0,0,0,0,0,-1,930,1737,1.5281,-6.30288
-287,-713,5.19086,4.81018,0,0,0,0,0,0,0,-1,937,1737,5.19084,-4.81015
-280,-713,4.76923,5.19604,0,0,0,0,0,0,0,-1,944,1737,4.76923,-5.19606
-273,-713,3.99414,6.18164,-0.077106,0.0477721,0.0132669,0.049166,-0.0784999,1.46611,0.0743537,0.0453753,951,1737,3.99414,-6.1816
-266,-713,3.66541,6.7323,-0.0688035,0.0406371,0.0100411,0.0415507,-0.0697172,1.48006,0.064923,0.0460332,958,1737,3.6654,-6.7323
-259,-713,3.41931,7.31775,0,0,0,0,0,0,0,-1,965,1737,3.4193,-7.31777
-252,-713,2.56006,5.51782,0,0,0,0,0,0,0,-1,972,1737,2.56004,-5.51778
-245,-713,2.79401,5.43445,0,0,0,0,0,0,0,-1,979,1737,2.79403,-5.43439
-238,-713,5.33051,5.95398,0,0,0,0,0,0,0,-1,986,1737,5.33052,-5.954
-231,-713,5.16791,7.04822,0,0,0,0,0,0,0,-1,993,1737,5.16789,-7.04826
-224,-713,4.31165,7.26453,-0.020847,0.00414015,0.00120212,0.00419785,-0.0209047,1.52283,0.0155261,0.0450727,1000,1737,4.31166,-7.26459
-217,-713,3.69049,7.30359,-0.0152967,0.00148271,0.000257171,0.00148665,-0.0153007,1.55547,0.0107304,0.0438571,1007,1737,3.69047,-7.30359
-210,-713,3.62512,7.40247,-0.0117351,0.00108662,0.000813161,0.00113798,-0.0117865,1.50771,0.00826313,0.0457929,1014,1737,3.62512,-7.40249
-203,-713,3.61609,7.43054,-0.00965674,0.00189447,0.00127091,0.00203265,-0.00979492,1.4625,0.00730241,0.0416605,1021,1737,3.61615,-7.4306
-196,-713,3.53906,7.27771,-0.00756204,0.00301203,0.0015283,0.00322849,-0.0077785,1.4301,0.00653336,0.0387897,1028,1737,3.53905,-7.27771
-189,-713,3.49158,7.47522,-0.00559842,0.00345015,0.00160367,0.00372596,-0.00587423,1.40048,0.00558874,0.0346674,1035,1737,3.49155,-7.47526
-182,-713,3.47925,7.70068,-0.00404602,0.00372461,0.00129043,0.0039333,-0.00425471,1.41046,0.00472856,0.0226343,1042,1737,3.47925,-7.70068
-175,-713,3.49329,7.802,-0.003002,0.00394526,0.000967708,0.00407754,-0.00313428,1.43495,0.0041756,0.0198673,1049,1737,3.49327,-7.80202
-168,-713,3.50513,7.85291,-0.00167149,0.00392575,0.00101745,0.00410496,-0.0018507,1.39645,0.00351965,0.0223321,1056,1737,3.50518,-7.85285
-161,-713,3.50452,7.91016,-0.000967101,0.0037207,0.000697923,0.0038224,-0.0010688,1.4261,0.00296936,0.0120331,1063,1737,3.50451,-7.91016
-154,-713,3.46948,7.9585,-0.000446338,0.00332456,0.000353205,0.00335736,-0.000479136,1.4782,0.00241386,0.0117216,1070,1737,3.4695,-7.95851
-147,-713,3.46887,8.06543,-0.000130645,0.00301356,0.000112122,0.00301755,-0.000134638,1.5352,0.00205805,0.0187437,1077,1737,3.46883,-8.06538
-140,-713,3.47852,8.15881,0.000101175,0.00211674,3.28418e-05,0.00211728,0.00010064,1.55451,0.00137919,0.0164023,1084,1737,3.47846,-8.15886
-133,-713,3.4491,8.18689,0.000234705,0.0014249,-7.03946e-05,0.00142905,0.000230556,-1.51192,0.000885905,0.0103212,1091,1737,3.4491,-8.18694
-126,-713,3.45227,8.23547,0.00027832,0.000739406,-7.34058e-05,0.00075081,0.000266916,-1.41667,0.000439473,0.0163427,1098,1737,3.45222,-8.23549
-119,-713,3.44714,8.24292,0.000277201,0.000335253,-3.24699e-06,0.000335434,0.00027702,-1.51509,0.000206918,0.0286876,1105,1737,3.44714,-8.24292
-112,-713,3.4519,8.37659,0.000287238,4.31321e-05,0.000111555,0.000330538,-1.67653e-07,0.370246,0.000220415,0.014358,1112,1737,3.45194,-8.37664
-105,-713,3.45789,8.43201,0.000297513,-0.000337351,0.000210383,0.000360901,-0.000400739,0.292648,0.000439934,0.0105425,1119,1737,3.45784,-8.43197
-98,-713,3.47119,8.46936,0.000160433,-0.000298339,0.000301932,0.000310231,-0.000448138,0.46055,0.000440251,0.0100454,1126,1737,3.47123,-8.46933
-91,-713,3.45911,8.51453,2.48161e-05,-0.000127246,0.000416911,0.000372572,-0.000475002,0.695206,0.000490537,0.00967939,1133,1737,3.45909,-8.5145
-84,-713,3.44495,8.56067,-0.000116755,0.000203059,0.000497728,0.000565936,-0.000479632,0.940827,0.000604344,0.00846866,1140,1737,3.44491,-8.56069
-77,-713,3.46289,8.63025,-0.000104531,0.000533781,0.000592039,0.00088721,-0.00045796,1.03261,0.000789705,0.0108273,1147,1737,3.46289,-8.63023
-70,-713,3.45752,8.67993,3.21275e-05,0.000787004,0.000592607,0.00111216,-0.000293031,1.06896,0.000856004,0.0132922,1154,1737,3.45752,-8.67996
-63,-713,3.4563,8.7063,0.000150394,0.00108107,0.000484604,0.00128758,-5.6116e-05,1.16796,0.000877692,0.0121961,1161,1737,3.45625,-8.70634
-56,-713,3.45007,8.74573,0.000318935,0.00129909,0.000346327,0.00140911,0.000208914,1.2632,0.000878092,0.0126568,1168,1737,3.45003,-8.74573
-49,-713,3.4093,8.77161,0.000494028,0.00139364,0.000222268,0.00144556,0.000442109,1.34132,0.00085531,0.0149427,1175,1737,3.40926,-8.77164
-42,-713,3.42041,8.84497,0.000692556,0.00141335,0.00012041,0.00143293,0.000672973,1.40957,0.000827811,0.0163763,1182,1737,3.42046,-8.845
-35,-713,3.45386,8.85608,0.00102795,0.001236,-1.535e-05,0.00123713,0.00102683,-1.49754,0.000764357,0.0136267,1189,1737,3.4538,-8.85611
-28,-713,3.47217,8.89294,0.001306,0.000942787,-0.000143229,0.00135568,0.000893102,-0.333901,0.000795751,0.0124187,1196,1737,3.4722,-8.89294
-21,-713,3.47449,8.94177,0.00143786,0.000337614,-0.000361015,0.00154574,0.000229735,-0.290376,0.000963092,0.00909716,1203,1737,3.47448,-8.94181
-14,-713,3.46973,8.94775,0.00172008,-0.000621144,-0.000469505,0.00181072,-0.000711789,-0.190717,0.00150173,0.0106817,1210,1737,3.46971,-8.94772
-7,-713,3.47375,8.97107,0.00221554,-0.00170018,-0.000410828,0.00225818,-0.00174282,-0.103417,0.00231635,0.00986708,1217,1737,3.47381,-8.97104
0,-713,3.50195,8.96729,0.0026644,-0.00278431,-0.000202785,0.00267194,-0.00279185,-0.0371485,0.00315477,0.0147046,1224,1737,3.50199,-8.96734
7,-713,3.52332,8.96838,0.00305509,-0.00403249,4.65099e-05,0.0030554,-0.0040328,0.0065618,0.00410532,0.0175981,1231,1737,3.52332,-8.96832
14,-713,3.52173,9.01123,0.00365732,-0.00482967,0.000562197,0.0036944,-0.00486675,0.0658587,0.00495821,0.0125972,1238,1737,3.52167,-9.01129
21,-713,3.49915,9.05127,0.00391492,-0.0051513,0.00151795,0.00416231,-0.0053987,0.161561,0.00553541,0.0106742,1245,1737,3.49909,-9.05128
28,-713,3.47656,9.07312,0.00403426,-0.00557542,0.00235376,0.00457981,-0.00612097,0.227757,0.00619942,0.0111014,1252,1737,3.47661,-9.07313
35,-713,3.48499,9.10632,0.00424044,-0.00578207,0.00322255,0.00518716,-0.00672879,0.285742,0.00689884,0.0109116,1259,1737,3.48498,-9.10632
42,-713,3.50574,9.12866,0.00435481,-0.00592167,0.00414858,0.00582052,-0.00738739,0.339617,0.00764346,0.0106225,1266,1737,3.50577,-9.1287
49,-713,3.50366,9.1095,0.00421465,-0.0056602,0.00497625,0.0062873,-0.00773285,0.394657,0.00810887,0.0107861,1273,1737,3.50369,-9.10949
56,-713,3.5116,9.12952,0.00387253,-0.00507047,0.00564365,0.00660139,-0.00779932,0.450382,0.00832384,0.0108126,1280,1737,3.5116,-9.12948
63,-713,3.52783,9.15063,0.00342327,-0.00420672,0.00613124,0.00682951,-0.00761296,0.507098,0.00834245,0.0111863,1287,1737,3.52781,-9.15062
70,-713,3.52112,9.14429,0.00289459,-0.00351541,0.00641707,0.00686251,-0.00748333,0.553795,0.00828516,0.0114384,1294,1737,3.52115,-9.14427
77,-713,3.51489,9.14026,0.00231076,-0.00273017,0.00637948,0.00664963,-0.00706904,0.597265,0.00792171,0.0114719,1301,1737,3.51492,-9.14023
84,-713,3.53076,9.15344,0.00174833,-0.00201161,0.00606228,0.00621545,-0.00647873,0.635045,0.00732951,0.0116601,1308,1737,3.5307,-9.15349
91,-713,3.54358,9.1615,0.00119328,-0.00135352,0.00564256,0.00570435,-0.00586458,0.674418,0.00667954,0.0120862,1315,1737,3.54362,-9.16147
98,-713,3.54114,9.16235,0.000657934,-0.000808408,0.00509838,0.00507559,-0.00522606,0.713985,0.00594787,0.0120566,1322,1737,3.54108,-9.16232
105,-713,3.552,9.15015,0.000390564,-0.00032007,0.00435212,0.00440185,-0.00433136,0.744667,0.00504217,0.0132063,1329,1737,3.55206,-9.15015
112,-713,3.55518,9.14514,0.000348351,2.87783e-05,0.00366843,0.00386047,-0.00348334,0.763633,0.00424182,0.0134892,1336,1737,3.55514,-9.14516
119,-713,3.57922,9.16162,0.000225978,0.000241752,0.00295234,0.00318622,-0.00271849,0.786734,0.00341264,0.0140918,1343,1737,3.57922,-9.16162
126,-713,3.57739,9.16345,0.000538977,0.000152472,0.00204619,0.00240102,-0.00170957,0.738315,0.00238441,0.0135111,1350,1737,3.57743,-9.16347
133,-713,3.55103,9.11621,0.000767634,0.000329916,0.0015454,0.0021096,-0.00101205,0.715056,0.00183904,0.0123415,1357,1737,3.55102,-9.11625
140,-713,3.57153,9.08679,0.000750394,0.000416172,0.00112961,0.00172519,-0.000558624,0.711963,0.0013747,0.012596,1364,1737,3.57148,-9.08676
147,-713,3.61047,9.05188,0.000757261,0.000599647,0.0007599,0.00144243,-8.55217e-05,0.733729,0.000991358,0.0132154,1371,1737,3.6105,-9.0519
154,-713,3.59546,9.06335,0.000781057,0.000636457,0.000547155,0.00126067,0.000156846,0.71971,0.000793349,0.0137771,1378,1737,3.59546,-9.06335
161,-713,3.56689,9.03308,0.000846393,0.000623043,0.000450097,0.00119846,0.000270974,0.663797,0.000725714,0.0105984,1385,1737,3.56686,-9.03304
168,-713,3.573,9.01514,0.000764816,0.000468307,0.00045672,0.00109674,0.000136382,0.62846,0.000690206,0.0103023,1392,1737,3.57303,-9.01516
175,-713,3.59204,8.99048,0.000610582,0.000652698,0.000500155,0.00113224,0.000131042,0.806437,0.000715158,0.0131611,1399,1737,3.59199,-8.99048
182,-713,3.57935,8.94604,0.000464091,0.00068119,0.00058319,0.00116585,-2.05654e-05,0.87741,0.000784176,0.0121491,1406,1737,3.57938,-8.94601
189,-713,3.57886,8.89929,0.000234717,0.000739882,0.000610075,0.00114759,-0.000172995,0.981664,0.000828768,0.0114443,1413,1737,3.57889,-8.89925
196,-713,3.60156,8.88049,-7.12292e-05,0.000765431,0.000438658,0.000953253,-0.000259051,1.16624,0.000737184,0.0115886,1420,1737,3.60153,-8.88047
203,-713,3.60559,8.87988,-0.000220992,0.000716724,0.000307297,0.000808454,-0.000312723,1.28071,0.00066807,0.016035,1427,1737,3.60562,-8.87991
210,-713,3.58765,8.8269,-0.00025021,0.000556613,0.000321859,0.000669277,-0.000362874,1.23408,0.000604602,0.0140048,1434,1737,3.58768,-8.82693
217,-713,3.5957,8.78821,-0.000211298,0.000328118,0.00028339,0.000449629,-0.00033281,1.16573,0.000453416,0.0111126,1441,1737,3.59576,-8.78823
224,-713,3.60181,8.75916,-6.88163e-05,-2.64357e-05,0.000219264,0.00017266,-0.000267912,0.83357,0.000256338,0.0114555,1448,1737,3.60178,-8.75919
231,-713,3.59949,8.70703,0.000206246,-0.000395375,0.000292249,0.000324835,-0.000513965,0.385481,0.000488367,0.0105797,1455,1737,3.59949,-8.707
238,-713,3.58142,8.66321,0.000696253,-0.000813864,0.000312229,0.000758262,-0.000875873,0.196052,0.000944283,0.00799653,1462,1737,3.58143,-8.66326
245,-713,3.57568,8.62683,0.00118778,-0.00120777,0.00033383,0.00123343,-0.00125342,0.135905,0.0014358,0.0106933,1469,1737,3.57567,-8.62678
252,-713,3.58984,8.57361,0.00165037,-0.00159361,0.000391242,0.00169688,-0.00164012,0.118345,0.00192672,0.0117066,1476,1737,3.58986,-8.57361
259,-713,3.60425,8.50586,0.00219876,-0.00181979,0.000273241,0.00221725,-0.00183829,0.0675803,0.00234487,0.0121456,1483,1737,3.60424,-8.50582
266,-713,3.58313,8.49182,0.00263569,-0.00149585,-8.53994e-07,0.00263569,-0.00149585,-0.000206701,0.00241541,0.0112215,1490,1737,3.5831,-8.49177
273,-713,3.58594,8.45447,0.00275396,-0.00114544,-0.000111851,0.00275717,-0.00114864,-0.0286528,0.00231789,0.00892679,1497,1737,3.58596,-8.45446
280,-713,3.57642,8.38049,0.00277919,-0.000673704,-0.000285869,0.0028027,-0.000697211,-0.0820468,0.00213908,0.00949732,1504,1737,3.57636,-8.38043
287,-713,3.58521,8.3075,0.00271287,-0.000129389,-0.000407012,0.00277,-0.000186525,-0.139467,0.00191188,0.010741,1511,1737,3.58517,-8.30749
294,-713,3.60535,8.25244,0.00268632,0.000422651,-0.00050502,0.00279388,0.000315092,-0.209843,0.00176694,0.0148524,1518,1737,3.60534,-8.25238
301,-713,3.56616,8.17773,0.00275219,0.0013622,-0.000823348,0.00313465,0.000979736,-0.434868,0.0018517,0.0149539,1525,1737,3.56612,-8.1777
308,-713,3.54346,8.10181,0.00226236,0.00237248,-0.00140967,0.00372816,0.000906679,-0.804917,0.00224509,0.0170858,1532,1737,3.54349,-8.10177
315,-713,3.57593,8.04578,0.00183329,0.00329802,-0.00180879,0.00451709,0.000614219,-0.977756,0.00282897,0.0250818,1539,1737,3.57591,-8.04576
322,-713,3.57153,7.94312,0.00145879,0.00381661,-0.00173942,0.00473899,0.000536414,-1.08322,0.00299657,0.0317721,1546,1737,3.5715,-7.94312
329,-713,3.57678,7.92651,0.00105187,0.00396231,-0.00105513,0.00430458,0.000709603,-1.25712,0.00266486,0.0388768,1553,1737,3.57683,-7.92657
336,-713,3.36169,8.05908,0.000953119,0.00371974,-0.000744982,0.00390759,0.000765269,-1.32379,0.00239114,0.0428229,1560,1737,3.36173,-8.05908
343,-713,3.36377,7.95605,0.000730543,0.00312257,-0.000321065,0.00316492,0.000688199,-1.43967,0.00192206,0.048475,1567,1737,3.36377,-7.95608
350,-713,3.64221,7.53088,0.000758211,0.00197782,-3.45109e-05,0.0019788,0.000757236,-1.54253,0.0011529,0.0480704,1574,1737,3.64217,-7.53094
357,-713,3.84778,7.44165,0,0,0,0,0,0,0,-1,1581,1737,3.84781,-7.44169
364,-713,3.91394,7.30408,0,0,0,0,0,0,0,-1,1588,1737,3.91399,-7.30405
371,-713,3.85022,7.56653,-0.000821562,-0.00167304,0.00145228,0.000266092,-0.0027607,0.642816,0.00193527,0.047642,1595,1737,3.85028,-7.56647
378,-713,3.80505,7.79773,-0.00152106,-0.0010244,0.00141918,0.000168011,-0.00271347,0.872011,0.00186751,0.0489142,1602,1737,3.8051,-7.79779
385,-713,3.72339,8.0459,0,0,0,0,0,0,0,-1,1609,1737,3.72335,-8.04586
392,-713,2.21008,7.82727,0,0,0,0,0,0,0,-1,1616,1737,2.21005,-7.8273
399,-713,1.69727,7.73633,0,0,0,0,0,0,0,-1,1623,1737,1.69724,-7.73633
406,-713,1.65259,8.20483,0,0,0,0,0,0,0,-1,1630,1737,1.65258,-8.20488
413,-713,1.80371,8.875,0,0,0,0,0,0,0,-1,1637,1737,1.80372,-8.87503
420,-713,0,0,0,0,0,0,0,0,0,-1,1644,1737,0,0
427,-713,0,0,0,0,0,0,0,0,0,-1,1651,1737,0,0
434,-713,0,0,0,0,0,0,0,0,0,-1,1658,1737,0,0
441,-713,0,0,0,0,0,0,0,0,0,-1,1665,1737,0,0
448,-713,0,0,0,0,0,0,0,0,0,-1,1672,1737,0,0
455,-713,0,0,0,0,0,0,0,0,0,-1,1679,1737,0,0
462,-713,0,0,0,0,0,0,0,0,0,-1,1686,1737,0,0
469,-713,0,0,0,0,0,0,0,0,0,-1,1693,1737,0,0
476,-713,0,0,0,0,0,0,0,0,0,-1,1700,1737,0,0
483,-713,0,0,0,0,0,0,0,0,0,-1,1707,1737,0,0
490,-713,0,0,0,0,0,0,0,0,0,-1,1714,1737,0,0
497,-713,0,0,0,0,0,0,0,0,0,-1,1721,1737,0,0
504,-713,0,0,0,0,0,0,0,0,0,-1,1728,1737,0,0
511,-713,0,0,0,0,0,0,0,0,0,-1,1735,1737,0,0
518,-713,0,0,0,0,0,0,0,0,0,-1,1742,1737,0,0
525,-713,0,0,0,0,0,0,0,0,0,-1,1749,1737,0,0
532,-713,0,0,0,0,0,0,0,0,0,-1,1756,1737,0,0
539,-713,0,0,0,0,0,0,0,0,0,-1,1763,1737,0,0
546,-713,0,0,0,0,0,0,0,0,0,-1,1770,1737,0,0
553,-713,0,0,0,0,0,0,0,0,0,-1,1777,1737,0,0
560,-713,0,0,0,0,0,0,0,0,0,-1,1784,1737,0,0
567,-713,0,0,0,0,0,0,0,0,0,-1,1791,1737,0,0
574,-713,0,0,0,0,0,0,0,0,0,-1,1798,1737,0,0
581,-713,0,0,0,0,0,0,0,0,0,-1,1805,1737,0,0
588,-713,0,0,0,0,0,0,0,0,0,-1,1812,1737,0,0
595,-713,0,0,0,0,0,0,0,0,0,-1,1819,1737,0,0
602,-713,0,0,0,0,0,0,0,0,0,-1,1826,1737,0,0
609,-713,0,0,0,0,0,0,0,0,0,-1,1833,1737,0,0
616,-713,0,0,0,0,0,0,0,0,0,-1,1840,1737,0,0
623,-713,0,0,0,0,0,0,0,0,0,-1,1847,1737,0,0
630,-713,0,0,0,0,0,0,0,0,0,-1,1854,1737,0,0
637,-713,0,0,0,0,0,0,0,0,0,-1,1861,1737,0,0
644,-713,0,0,0,0,0,0,0,0,0,-1,1868,1737,0,0
651,-713,0,0,0,0,0,0,0,0,0,-1,1875,1737,0,0
658,-713,0,0,0,0,0,0,0,0,0,-1,1882,1737,0,0
665,-713,0,0,0,0,0,0,0,0,0,-1,1889,1737,0,0
672,-713,0,0,0,0,0,0,0,0,0,-1,1896,1737,0,0
679,-713,0,0,0,0,0,0,0,0,0,-1,1903,1737,0,0
686,-713,0,0,0,0,0,0,0,0,0,-1,1910,1737,0,0
693,-713,0,0,0,0,0,0,0,0,0,-1,1917,1737,0,0
700,-713,0,0,0,0,0,0,0,0,0,-1,1924,1737,0,0
707,-713,0,0,0,0,0,0,0,0,0,-1,1931,1737,0,0
714,-713,0,0,0,0,0,0,0,0,0,-1,1938,1737,0,0
721,-713,0,0,0,0,0,0,0,0,0,-1,1945,1737,0,0
728,-713,0,0,0,0,0,0,0,0,0,-1,1952,1737,0,0
735,-713,0,0,0,0,0,0,0,0,0,-1,1959,1737,0,0
742,-713,0,0,0,0,0,0,0,0,0,-1,1966,1737,0,0
749,-713,0,0,0,0,0,0,0,0,0,-1,1973,1737,0,0
756,-713,0,0,0,0,0,0,0,0,0,-1,1980,1737,0,0
763,-713,0,0,0,0,0,0,0,0,0,-1,1987,1737,0,0
770,-713,0,0,0,0,0,0,0,0,0,-1,1994,1737,0,0
777,-713,0,0,0,0,0,0,0,0,0,-1,2001,1737,0,0
784,-713,0,0,0,0,0,0,0,0,0,-1,2008,1737,0,0
791,-713,0,0,0,0,0,0,0,0,0,-1,2015,1737,0,0
798,-713,0,0,0,0,0,0,0,0,0,-1,2022,1737,0,0
805,-713,0,0,0,0,0,0,0,0,0,-1,2029,1737,0,0
812,-713,0,0,0,0,0,0,0,0,0,-1,2036,1737,0,0
-700,-720,0,0,0,0,0,0,0,0,0,-1,524,1744,0,0
-693,-720,0,0,0,0,0,0,0,0,0,-1,531,1744,0,0
-686,-720,0,0,0,0,0,0,0,0,0,-1,538,1744,0,0
-679,-720,0,0,0,0,0,0,0,0,0,-1,545,1744,0,0
-672,-720,0,0,0,0,0,0,0,0,0,-1,552,1744,0,0
-665,-720,0,0,0,0,0,0,0,0,0,-1,559,1744,0,0
-658,-720,0,0,0,0,0,0,0,0,0,-1,566,1744,0,0
-651,-720,0,0,0,0,0,0,0,0,0,-1,573,1744,0,0
-644,-720,0,0,0,0,0,0,0,0,0,-1,580,1744,0,0
-637,-720,0,0,0,0,0,0,0,0,0,-1,587,1744,0,0
-630,-720,0,0,0,0,0,0,0,0,0,-1,594,1744,0,0
-623,-720,0,0,0,0,0,0,0,0,0,-1,601,1744,0,0
-616,-720,0,0,0,0,0,0,0,0,0,-1,608,1744,0,0
-609,-720,0,0,0,0,0,0,0,0,0,-1,615,1744,0,0
-602,-720,0,0,0,0,0,0,0,0,0,-1,622,1744,0,0
-595,-720,0,0,0,0,0,0,0,0,0,-1,629,1744,0,0
-588,-720,0,0,0,0,0,0,0,0,0,-1,636,1744,0,0
-581,-720,0,0,0,0,0,0,0,0,0,-1,643,1744,0,0
-574,-720,0,0,0,0,0,0,0,0,0,-1,650,1744,0,0
-567,-720,0,0,0,0,0,0,0,0,0,-1,657,1744,0,0
-560,-720,0,0,0,0,0,0,0,0,0,-1,664,1744,0,0
-553,-720,0,0,0,0,0,0,0,0,0,-1,671,1744,0,0
-546,-720,0,0,0,0,0,0,0,0,0,-1,678,1744,0,0
-539,-720,0,0,0,0,0,0,0,0,0,-1,685,1744,0,0
-532,-720,0,0,0,0,0,0,0,0,0,-1,692,1744,0,0
-525,-720,0,0,0,0,0,0,0,0,0,-1,699,1744,0,0
-518,-720,0,0,0,0,0,0,0,0,0,-1,706,1744,0,0
-511,-720,0,0,0,0,0,0,0,0,0,-1,713,1744,0,0
-504,-720,0,0,0,0,0,0,0,0,0,-1,720,1744,0,0
-497,-720,0,0,0,0,0,0,0,0,0,-1,727,1744,0,0
-490,-720,0,0,0,0,0,0,0,0,0,-1,734,1744,0,0
-483,-720,0,0,0,0,0,0,0,0,0,-1,741,1744,0,0
-476,-720,0,0,0,0,0,0,0,0,0,-1,748,1744,0,0
-469,-720,0,0,0,0,0,0,0,0,0,-1,755,1744,0,0
-462,-720,0,0,0,0,0,0,0,0,0,-1,762,1744,0,0
-455,-720,0,0,0,0,0,0,0,0,0,-1,769,1744,0,0
-448,-720,0,0,0,0,0,0,0,0,0,-1,776,1744,0,0
-441,-720,0,0,0,0,0,0,0,0,0,-1,783,1744,0,0
-434,-720,0,0,0,0,0,0,0,0,0,-1,790,1744,0,0
-427,-720,0,0,0,0,0,0,0,0,0,-1,797,1744,0,0
-420,-720,0,0,0,0,0,0,0,0,0,-1,804,1744,0,0
-413,-720,0,0,0,0,0,0,0,0,0,-1,811,1744,0,0
-406,-720,0,0,0,0,0,0,0,0,0,-1,818,1744,0,0
-399,-720,0,0,0,0,0,0,0,0,0,-1,825,1744,0,0
-392,-720,0,0,0,0,0,0,0,0,0,-1,832,1744,0,0
-385,-720,0,0,0,0,0,0,0,0,0,-1,839,1744,0,0
-378,-720,0,0,0,0,0,0,0,0,0,-1,846,1744,0,0
-371,-720,0,0,0,0,0,0,0,0,0,-1,853,1744,0,0
-364,-720,0,0,0,0,0,0,0,0,0,-1,860,1744,0,0
-357,-720,0,0,0,0,0,0,0,0,0,-1,867,1744,0,0
-350,-720,0,0,0,0,0,0,0,0,0,-1,874,1744,0,0
-343,-720,0,0,0,0,0,0,0,0,0,-1,881,1744,0,0
-336,-720,0,0,0,0,0,0,0,0,0,-1,888,1744,0,0
-329,-720,0,0,0,0,0,0,0,0,0,-1,895,1744,0,0
-322,-720,0,0,0,0,0,0,0,0,0,-1,902,1744,0,0
-315,-720,0,0,0,0,0,0,0,0,0,-1,909,1744,0,0
-308,-720,0,0,0,0,0,0,0,0,0,-1,916,1744,0,0
-301,-720,0,0,0,0,0,0,0,0,0,-1,923,1744,0,0
-294,-720,0,0,0,0,0,0,0,0,0,-1,930,1744,0,0
-287,-720,0,0,0,0,0,0,0,0,0,-1,937,1744,0,0
-280,-720,2.31964,5.77417,0,0,0,0,0,0,0,-1,944,1744,2.31963,-5.77417
-273,-720,4.77942,5.90662,0,0,0,0,0,0,0,-1,951,1744,4.77944,-5.90659
-266,-720,4.10077,6.51721,-0.0851013,0.0483487,0.0090433,0.0489587,-0.0857113,1.50344,0.078711,0.0443699,958,1744,4.10079,-6.51725
-259,-720,3.36005,6.5918,0,0,0,0,0,0,0,-1,965,1744,3.36006,-6.5918
-252,-720,2.74573,6.62939,0,0,0,0,0,0,0,-1,972,1744,2.74572,-6.62934
-245,-720,6.98865,6.1853,0,0,0,0,0,0,0,-1,979,1744,6.98863,-6.18534
-238,-720,6.17188,6.18542,0,0,0,0,0,0,0,-1,986,1744,6.17186,-6.18548
-231,-720,5.15729,6.29736,0,0,0,0,0,0,0,-1,993,1744,5.15727,-6.29739
-224,-720,4.73383,7.34143,0,0,0,0,0,0,0,-1,1000,1744,4.73381,-7.34149
-217,-720,3.69879,7.33459,-0.0200197,0.000500629,0.00144824,0.000602335,-0.0201214,1.50068,0.0136195,0.048658,1007,1744,3.69879,-7.33457
-210,-720,3.73981,7.42163,-0.0149326,-1.45958e-05,0.00222857,0.00031121,-0.0152584,1.42563,0.0102776,0.0464984,1014,1744,3.73982,-7.42157
-203,-720,3.66309,7.45752,-0.0120848,0.00148319,0.00269135,0.00199755,-0.0125992,1.38196,0.00913835,0.0429807,1021,1744,3.66311,-7.45757
-196,-720,3.57874,7.07056,0,0,0,0,0,0,0,-1,1028,1744,3.57871,-7.0706
-189,-720,3.44458,7.36682,-0.00689328,0.00387522,0.00276614,0.00454421,-0.00756227,1.3335,0.0070617,0.0445022,1035,1744,3.44461,-7.36686
-182,-720,3.45471,7.40295,-0.00492805,0.00435604,0.00212513,0.00481936,-0.00539137,1.35614,0.00589825,0.0387506,1042,1744,3.45466,-7.40299
-175,-720,3.57031,7.69019,-0.0036705,0.00477904,0.00155153,0.00505493,-0.00394639,1.39482,0.00521004,0.0399294,1049,1744,3.57036,-7.69012
-168,-720,3.68372,7.84424,-0.0020436,0.00482231,0.00147725,0.00512666,-0.00234794,1.36762,0.00441375,0.0340046,1056,1744,3.68367,-7.84419
-161,-720,3.59949,7.89075,-0.00116358,0.00462347,0.000986063,0.00478688,-0.00132698,1.40658,0.00371347,0.0234196,1063,1744,3.59943,-7.89079
-154,-720,3.55969,7.97742,-0.000435976,0.00414823,0.000480824,0.00419812,-0.000485865,1.46741,0.00297396,0.0166639,1070,1744,3.55973,-7.97747
-147,-720,3.55554,8.0968,-4.41225e-05,0.00380059,0.000102904,0.00380334,-4.68746e-05,1.54406,0.00255133,0.0181202,1077,1744,3.55553,-8.09684
-140,-720,3.54211,8.1615,0.000209523,0.00266849,-1.29543e-05,0.00266856,0.000209455,-1.56553,0.00171349,0.0149654,1084,1744,3.54206,-8.1615
-133,-720,3.51709,8.1842,0.000333306,0.00187473,-0.000140871,0.0018875,0.000320537,-1.4804,0.00116626,0.0112072,1091,1744,3.51709,-8.18425
-126,-720,3.51453,8.25024,0.000361866,0.00117458,-0.000125548,0.00119353,0.000342913,-1.42097,0.000709563,0.011965,1098,1744,3.5145,-8.25021
-119,-720,3.51648,8.31177,0.000365637,0.000842873,-1.88091e-05,0.000843613,0.000364897,-1.53146,0.000488536,0.0152895,1105,1744,3.51648,-8.31178
-112,-720,3.51428,8.3678,0.000417502,0.000680505,0.000157099,0.000753876,0.000344131,1.13386,0.0004358,0.0140812,1112,1744,3.51428,-8.36785
-105,-720,3.52063,8.4325,0.000485722,0.000404024,0.000285796,0.000733573,0.000156173,0.714414,0.000446196,0.0128067,1119,1744,3.52064,-8.43247
-98,-720,3.50854,8.47327,0.00037337,0.000475935,0.00036204,0.000790307,5.89981e-05,0.855755,0.000508347,0.0101559,1126,1744,3.50849,-8.47324
-91,-720,3.49756,8.51697,0.000267135,0.000764794,0.000499716,0.0010742,-4.22758e-05,1.0164,0.000730636,0.00933617,1133,1744,3.49762,-8.51694
-84,-720,3.49243,8.57373,0.000116665,0.00116971,0.000579005,0.0014258,-0.000139419,1.15438,0.00100025,0.00957949,1140,1744,3.4924,-8.57372
-77,-720,3.50464,8.64734,0.000114148,0.0014549,0.000699042,0.00175306,-0.000184014,1.16763,0.00123462,0.0110904,1147,1744,3.50465,-8.64736
-70,-720,3.50732,8.68347,0.000217798,0.00155672,0.000701518,0.00185695,-8.24357e-05,1.16641,0.00126634,0.0108385,1154,1744,3.5073,-8.68343
-63,-720,3.49182,8.698,0.000281408,0.00167883,0.000605254,0.00190453,5.57121e-05,1.21387,0.00125153,0.0112214,1161,1744,3.49179,-8.69805
-56,-720,3.49231,8.74927,0.000389337,0.00172249,0.000558443,0.0019255,0.000186325,1.22212,0.00122628,0.0129574,1168,1744,3.49226,-8.74932
-49,-720,3.46814,8.79041,0.000455839,0.00169618,0.000498323,0.00187158,0.000280435,1.23235,0.00116554,0.0176221,1175,1744,3.46808,-8.79042
-42,-720,3.46069,8.81226,0.000554278,0.00167416,0.000450382,0.00183281,0.000395624,1.23211,0.00111367,0.0191981,1182,1744,3.46069,-8.81226
-35,-720,3.48499,8.85364,0.00079414,0.00142261,0.00039154,0.00161042,0.000606333,1.12355,0.000939182,0.0175224,1189,1744,3.48497,-8.85364
-28,-720,3.49451,8.89636,0.00101303,0.00111032,0.000257012,0.00132325,0.0008001,0.878922,0.000769535,0.0114062,1196,1744,3.49445,-8.89641
-21,-720,3.48401,8.94287,0.00113554,0.000640204,4.42666e-05,0.00113946,0.00063628,0.0884337,0.000659362,0.00923324,1203,1744,3.48401,-8.94292
-14,-720,3.48242,8.95886,0.00128483,-7.94934e-05,-9.97822e-05,0.00129208,-8.67525e-05,-0.072622,0.000891715,0.0108893,1210,1744,3.48237,-8.95885
-7,-720,3.49634,8.98962,0.00147213,-0.000892281,-0.000133703,0.00147967,-0.000899818,-0.0563089,0.00138733,0.0113861,1217,1744,3.49639,-8.98964
0,-720,3.52966,8.99402,0.00160647,-0.00171941,-6.389e-05,0.0016077,-0.00172063,-0.0192005,0.00192198,0.0122825,1224,1744,3.52964,-8.99397
7,-720,3.53711,8.9906,0.001671,-0.00266371,3.97729e-05,0.00167137,-0.00266407,0.00917442,0.00252484,0.0154152,1231,1744,3.53711,-8.99058
14,-720,3.53809,9.01892,0.0018779,-0.00327647,0.000351066,0.00190171,-0.00330027,0.0676937,0.00303933,0.0143593,1238,1744,3.53805,-9.0189
21,-720,3.52014,9.05798,0.00190533,-0.00350231,0.000959457,0.00207052,-0.0036675,0.170495,0.00335534,0.0110007,1245,1744,3.52009,-9.05803
28,-720,3.50525,9.08862,0.00180568,-0.00373774,0.001493,0.00218221,-0.00411428,0.247047,0.00369188,0.0103128,1252,1744,3.50519,-9.08857
35,-720,3.50256,9.11011,0.00177125,-0.00378734,0.00204117,0.00244026,-0.00445636,0.316728,0.00403808,0.0102871,1259,1744,3.50261,-9.11007
42,-720,3.49841,9.11365,0.00173604,-0.00382117,0.00260771,0.00276805,-0.00485319,0.376841,0.00445468,0.0107882,1266,1744,3.49843,-9.11364
49,-720,3.50049,9.1012,0.00157732,-0.00353844,0.00312238,0.00305577,-0.0050169,0.442225,0.00470638,0.0115597,1273,1744,3.50047,-9.10122
56,-720,3.50928,9.13062,0.00134796,-0.00303819,0.00354375,0.00332235,-0.00501258,0.508313,0.00484504,0.0104187,1280,1744,3.50923,-9.13058
63,-720,3.52563,9.146,0.00109514,-0.00236814,0.00385108,0.00358599,-0.00485899,0.574117,0.00489414,0.0116204,1287,1744,3.52559,-9.146
70,-720,3.53162,9.151,0.000818415,-0.00187677,0.00396788,0.00366129,-0.00471965,0.621696,0.00485158,0.0122327,1294,1744,3.53165,-9.151
77,-720,3.52295,9.1521,0.000512381,-0.00134331,0.00386892,0.00356316,-0.00439409,0.667711,0.00460246,0.0141874,1301,1744,3.52289,-9.15209
84,-720,3.5437,9.14429,0.000223085,-0.000918198,0.00361086,0.00330812,-0.00400323,0.707029,0.00422756,0.0136574,1308,1744,3.54371,-9.1443
91,-720,3.54211,9.14258,-3.29494e-05,-0.000565218,0.00331571,0.00302729,-0.00362546,0.745352,0.00384614,0.0126219,1315,1744,3.54214,-9.14256
98,-720,3.52002,9.14685,-0.00019111,-0.000387529,0.00294721,0.00265953,-0.00323816,0.768743,0.00341049,0.0117275,1322,1744,3.52005,-9.14684
105,-720,3.52869,9.14087,-0.00020297,-0.000237178,0.00244031,0.00222029,-0.00266044,0.781894,0.00282171,0.0113318,1329,1744,3.52863,-9.14084
112,-720,3.53992,9.13586,-0.00010646,-0.000202964,0.00202014,0.001866,-0.00217543,0.773458,0.0023356,0.0112036,1336,1744,3.53994,-9.13581
119,-720,3.55566,9.14575,-0.000119169,-0.000223955,0.00157838,0.00140769,-0.00175081,0.768807,0.00182715,0.0111587,1343,1744,3.55569,-9.1457
126,-720,3.56201,9.13928,0.000139436,-0.000409713,0.00105113,0.00095126,-0.00122154,0.657644,0.0012577,0.0109519,1350,1744,3.56201,-9.13923
133,-720,3.54749,9.12061,0.000375154,-0.000424233,0.000787398,0.000858495,-0.000907574,0.550538,0.00101977,0.0124452,1357,1744,3.54744,-9.12062
140,-720,3.56543,9.11328,0.000458261,-0.000434138,0.000589878,0.00075169,-0.000727567,0.461598,0.000854087,0.0182124,1364,1744,3.56545,-9.11333
147,-720,3.56763,9.08691,0.000460996,-0.000237749,0.000401113,0.000643556,-0.00042031,0.427116,0.000618715,0.0194201,1371,1744,3.56765,-9.08693
154,-720,3.56311,9.05396,0.00041818,-9.91657e-05,0.000278243,0.000539416,-0.000220402,0.410916,0.000451386,0.0134357,1378,1744,3.5631,-9.054
161,-720,3.56226,9.03052,0.000424004,6.86237e-05,0.000227055,0.000534632,-4.20049e-05,0.453382,0.000371216,0.00971636,1385,1744,3.56221,-9.03055
168,-720,3.55811,9.01306,0.000415445,0.000181928,0.000182994,0.000515756,8.16168e-05,0.501436,0.000320119,0.00959794,1392,1744,3.55815,-9.01308
175,-720,3.57605,8.98767,0.000364409,0.000489481,0.000134063,0.000574877,0.000279014,1.00363,0.000331953,0.0150976,1399,1744,3.57601,-8.9877
182,-720,3.57568,8.95801,0.00027152,0.000647138,0.000111523,0.000677754,0.000240904,1.30287,0.000396715,0.015398,1406,1744,3.57572,-8.95804
189,-720,3.55798,8.92432,0.000167618,0.00079969,-1.39291e-05,0.000799997,0.000167311,-1.54877,0.000487232,0.0129482,1413,1744,3.55801,-8.92437
196,-720,3.56396,8.88379,-3.52826e-05,0.000894112,-0.000284838,0.000974462,-0.000115632,-1.29585,0.000691416,0.0134676,1420,1744,3.56401,-8.8838
203,-720,3.53357,8.84351,0.000116559,0.000990971,-0.000139606,0.00101272,9.48107e-05,-1.41626,0.000645866,0.0160083,1427,1744,3.53352,-8.84354
210,-720,3.54102,8.82129,0.000526782,0.000859229,0.000290147,0.00102739,0.000358618,1.04552,0.000602108,0.0139085,1434,1744,3.54096,-8.82134
217,-720,3.56238,8.7804,0.000901815,0.000580618,0.000559607,0.00132341,0.000159021,0.645661,0.000834334,0.0125854,1441,1744,3.56234,-8.78035
224,-720,3.56726,8.74048,0.00140091,9.72107e-05,0.000858686,0.00182714,-0.000329017,0.460741,0.00134128,0.00940101,1448,1744,3.56727,-8.74049
231,-720,3.55481,8.70325,0.00203286,-0.000433082,0.00133526,0.00261734,-0.00101756,0.412602,0.0021653,0.00935373,1455,1744,3.55482,-8.70324
238,-720,3.54114,8.6499,0.00291536,-0.00104167,0.00176837,0.00359046,-0.00171677,0.364686,0.00312713,0.0084866,1462,1744,3.54118,-8.64994
245,-720,3.54736,8.61609,0.00379772,-0.00162442,0.00222645,0.00459478,-0.00242148,0.34378,0.00411511,0.0117091,1469,1744,3.5473,-8.61604
252,-720,3.55591,8.57104,0.00461162,-0.00218467,0.00266973,0.00553491,-0.00310797,0.332962,0.00505512,0.0119929,1476,1744,3.55592,-8.57104
259,-720,3.55383,8.51709,0.00545785,-0.00250602,0.00281254,0.00635098,-0.00339914,0.307479,0.00571458,0.00981211,1483,1744,3.55382,-8.51708
266,-720,3.53418,8.48828,0.00609308,-0.00215452,0.00269995,0.00689832,-0.00295976,0.289844,0.00584102,0.0080365,1490,1744,3.53421,-8.48827
273,-720,3.52954,8.43945,0.00621188,-0.00176843,0.00268678,0.00703214,-0.00258869,0.296308,0.00574868,0.0121952,1497,1744,3.5295,-8.43942
280,-720,3.51404,8.36255,0.0061746,-0.00122536,0.00244198,0.0069078,-0.00195856,0.291686,0.00537827,0.0148302,1504,1744,3.51407,-8.36251
287,-720,3.54602,8.29102,0.00595758,-0.000520969,0.00212163,0.00659055,-0.00115393,0.289931,0.00482456,0.0227208,1511,1744,3.54604,-8.29103
294,-720,3.58752,8.24365,0.00570748,0.000210691,0.00174217,0.00621313,-0.00029496,0.282481,0.00424383,0.0267633,1518,1744,3.58749,-8.24359
301,-720,3.46362,8.20081,0.00553888,0.00143396,0.00102424,0.00578025,0.00119259,0.231436,0.00352389,0.0276049,1525,1744,3.46367,-8.20086
308,-720,3.45178,8.05811,0.00408246,0.00283866,-0.000761889,0.00444404,0.00247708,-0.443111,0.0025714,0.032244,1532,1744,3.45179,-8.05815
315,-720,3.70093,7.52979,0.00267823,0.00428377,-0.00228361,0.0059016,0.00106039,-0.954419,0.00363289,0.0392638,1539,1744,3.70097,-7.52977
322,-720,3.54089,7.81555,0.00202915,0.00497636,-0.00215313,0.00611186,0.00089364,-1.08549,0.00381178,0.0499436,1546,1744,3.54083,-7.81561
329,-720,3.51721,7.93665,0,0,0,0,0,0,0,-1,1553,1744,3.51725,-7.9367
336,-720,3.19275,8.30664,0,0,0,0,0,0,0,-1,1560,1744,3.19279,-8.30666
343,-720,3.11438,8.28784,0,0,0,0,0,0,0,-1,1567,1744,3.11441,-8.28782
350,-720,3.54114,7.50732,0,0,0,0,0,0,0,-1,1574,1744,3.5411,-7.50735
357,-720,4.25928,6.12109,0,0,0,0,0,0,0,-1,1581,1744,4.25931,-6.12113
364,-720,3.88489,7.60303,0,0,0,0,0,0,0,-1,1588,1744,3.8849,-7.60301
371,-720,3.87891,7.53162,-0.00409375,-0.00130905,0.00358646,0.00114585,-0.00654865,0.970555,0.00479359,0.045441,1595,1744,3.87892,-7.53159
378,-720,3.62097,7.51172,-0.00537319,-0.000645795,0.0038945,0.00154618,-0.00756517,1.05815,0.00563006,0.0455591,1602,1744,3.62095,-7.51168
385,-720,3.27393,7.77502,0,0,0,0,0,0,0,-1,1609,1744,3.27387,-7.77508
392,-720,1.20667,7.06409,0,0,0,0,0,0,0,-1,1616,1744,1.20663,-7.06408
399,-720,0.650024,6.58789,0,0,0,0,0,0,0,-1,1623,1744,0.650031,-6.58787
406,-720,0,0,0,0,0,0,0,0,0,-1,1630,1744,0,0
413,-720,0,0,0,0,0,0,0,0,0,-1,1637,1744,0,0
420,-720,0,0,0,0,0,0,0,0,0,-1,1644,1744,0,0
427,-720,0,0,0,0,0,0,0,0,0,-1,1651,1744,0,0
434,-720,0,0,0,0,0,0,0,0,0,-1,1658,1744,0,0
441,-720,0,0,0,0,0,0,0,0,0,-1,1665,1744,0,0
448,-720,0,0,0,0,0,0,0,0,0,-1,1672,1744,0,0
455,-720,0,0,0,0,0,0,0,0,0,-1,1679,1744,0,0
462,-720,0,0,0,0,0,0,0,0,0,-1,1686,1744,0,0
469,-720,0,0,0,0,0,0,0,0,0,-1,1693,1744,0,0
476,-720,0,0,0,0,0,0,0,0,0,-1,1700,1744,0,0
483,-720,0,0,0,0,0,0,0,0,0,-1,1707,1744,0,0
490,-720,0,0,0,0,0,0,0,0,0,-1,1714,1744,0,0
497,-720,0,0,0,0,0,0,0,0,0,-1,1721,1744,0,0
504,-720,0,0,0,0,0,0,0,0,0,-1,1728,1744,0,0
511,-720,0,0,0,0,0,0,0,0,0,-1,1735,1744,0,0
518,-720,0,0,0,0,0,0,0,0,0,-1,1742,1744,0,0
525,-720,0,0,0,0,0,0,0,0,0,-1,1749,1744,0,0
532,-720,0,0,0,0,0,0,0,0,0,-1,1756,1744,0,0
539,-720,0,0,0,0,0,0,0,0,0,-1,1763,1744,0,0
546,-720,0,0,0,0,0,0,0,0,0,-1,1770,1744,0,0
553,-720,0,0,0,0,0,0,0,0,0,-1,1777,1744,0,0
560,-720,0,0,0,0,0,0,0,0,0,-1,1784,1744,0,0
567,-720,0,0,0,0,0,0,0,0,0,-1,1791,1744,0,0
574,-720,0,0,0,0,0,0,0,0,0,-1,1798,1744,0,0
581,-720,0,0,0,0,0,0,0,0,0,-1,1805,1744,0,0
588,-720,0,0,0,0,0,0,0,0,0,-1,1812,1744,0,0
595,-720,0,0,0,0,0,0,0,0,0,-1,1819,1744,0,0
602,-720,0,0,0,0,0,0,0,0,0,-1,1826,1744,0,0
609,-720,0,0,0,0,0,0,0,0,0,-1,1833,1744,0,0
616,-720,0,0,0,0,0,0,0,0,0,-1,1840,1744,0,0
623,-720,0,0,0,0,0,0,0,0,0,-1,1847,1744,0,0
630,-720,0,0,0,0,0,0,0,0,0,-1,1854,1744,0,0
637,-720,0,0,0,0,0,0,0,0,0,-1,1861,1744,0,0
644,-720,0,0,0,0,0,0,0,0,0,-1,1868,1744,0,0
651,-720,0,0,0,0,0,0,0,0,0,-1,1875,1744,0,0
658,-720,0,0,0,0,0,0,0,0,0,-1,1882,1744,0,0
665,-720,0,0,0,0,0,0,0,0,0,-1,1889,1744,0,0
672,-720,0,0,0,0,0,0,0,0,0,-1,1896,1744,0,0
679,-720,0,0,0,0,0,0,0,0,0,-1,1903,1744,0,0
686,-720,0,0,0,0,0,0,0,0,0,-1,1910,1744,0,0
693,-720,0,0,0,0,0,0,0,0,0,-1,1917,1744,0,0
700,-720,0,0,0,0,0,0,0,0,0,-1,1924,1744,0,0
707,-720,0,0,0,0,0,0,0,0,0,-1,1931,1744,0,0
714,-720,0,0,0,0,0,0,0,0,0,-1,1938,1744,0,0
721,-720,0,0,0,0,0,0,0,0,0,-1,1945,1744,0,0
728,-720,0,0,0,0,0,0,0,0,0,-1,1952,1744,0,0
735,-720,0,0,0,0,0,0,0,0,0,-1,1959,1744,0,0
742,-720,0,0,0,0,0,0,0,0,0,-1,1966,1744,0,0
749,-720,0,0,0,0,0,0,0,0,0,-1,1973,1744,0,0
756,-720,0,0,0,0,0,0,0,0,0,-1,1980,1744,0,0
763,-720,0,0,0,0,0,0,0,0,0,-1,1987,1744,0,0
770,-720,0,0,0,0,0,0,0,0,0,-1,1994,1744,0,0
777,-720,0,0,0,0,0,0,0,0,0,-1,2001,1744,0,0
784,-720,0,0,0,0,0,0,0,0,0,-1,2008,1744,0,0
791,-720,0,0,0,0,0,0,0,0,0,-1,2015,1744,0,0
798,-720,0,0,0,0,0,0,0,0,0,-1,2022,1744,0,0
805,-720,0,0,0,0,0,0,0,0,0,-1,2029,1744,0,0
812,-720,0,0,0,0,0,0,0,0,0,-1,2036,1744,0,0
-700,-727,0,0,0,0,0,0,0,0,0,-1,524,1751,0,0
-693,-727,0,0,0,0,0,0,0,0,0,-1,531,1751,0,0
-686,-727,0,0,0,0,0,0,0,0,0,-1,538,1751,0,0
-679,-727,0,0,0,0,0,0,0,0,0,-1,545,1751,0,0
-672,-727,0,0,0,0,0,0,0,0,0,-1,552,1751,0,0
-665,-727,0,0,0,0,0,0,0,0,0,-1,559,1751,0,0
-658,-727,0,0,0,0,0,0,0,0,0,-1,566,1751,0,0
-651,-727,0,0,0,0,0,0,0,0,0,-1,573,1751,0,0
-644,-727,0,0,0,0,0,0,0,0,0,-1,580,1751,0,0
-637,-727,0,0,0,0,0,0,0,0,0,-1,587,1751,0,0
-630,-727,0,0,0,0,0,0,0,0,0,-1,594,1751,0,0
-623,-727,0,0,0,0,0,0,0,0,0,-1,601,1751,0,0
-616,-727,0,0,0,0,0,0,0,0,0,-1,608,1751,0,0
-609,-727,0,0,0,0,0,0,0,0,0,-1,615,1751,0,0
-602,-727,0,0,0,0,0,0,0,0,0,-1,622,1751,0,0
-595,-727,0,0,0,0,0,0,0,0,0,-1,629,1751,0,0
-588,-727,0,0,0,0,0,0,0,0,0,-1,636,1751,0,0
-581,-727,0,0,0,0,0,0,0,0,0,-1,643,1751,0,0
-574,-727,0,0,0,0,0,0,0,0,0,-1,650,1751,0,0
-567,-727,0,0,0,0,0,0,0,0,0,-1,657,1751,0,0
-560,-727,0,0,0,0,0,0,0,0,0,-1,664,1751,0,0
-553,-727,0,0,0,0,0,0,0,0,0,-1,671,1751,0,0
-546,-727,0,0,0,0,0,0,0,0,0,-1,678,1751,0,0
-539,-727,0,0,0,0,0,0,0,0,0,-1,685,1751,0,0
-532,-727,0,0,0,0,0,0,0,0,0,-1,692,1751,0,0
-525,-727,0,0,0,0,0,0,0,0,0,-1,699,1751,0,0
-518,-727,0,0,0,0,0,0,0,0,0,-1,706,1751,0,0
-511,-727,0,0,0,0,0,0,0,0,0,-1,713,1751,0,0
-504,-727,0,0,0,0,0,0,0,0,0,-1,720,1751,0,0
-497,-727,0,0,0,0,0,0,0,0,0,-1,727,1751,0,0
-490,-727,0,0,0,0,0,0,0,0,0,-1,734,1751,0,0
-483,-727,0,0,0,0,0,0,0,0,0,-1,741,1751,0,0
-476,-727,0,0,0,0,0,0,0,0,0,-1,748,1751,0,0
-469,-727,0,0,0,0,0,0,0,0,0,-1,755,1751,0,0
-462,-727,0,0,0,0,0,0,0,0,0,-1,762,1751,0,0
-455,-727,0,0,0,0,0,0,0,0,0,-1,769,1751,0,0
-448,-727,0,0,0,0,0,0,0,0,0,-1,776,1751,0,0
-441,-727,0,0,0,0,0,0,0,0,0,-1,783,1751,0,0
-434,-727,0,0,0,0,0,0,0,0,0,-1,790,1751,0,0
-427,-727,0,0,0,0,0,0,0,0,0,-1,797,1751,0,0
-420,-727,0,0,0,0,0,0,0,0,0,-1,804,1751,0,0
-413,-727,0,0,0,0,0,0,0,0,0,-1,811,1751,0,0
-406,-727,0,0,0,0,0,0,0,0,0,-1,818,1751,0,0
-399,-727,0,0,0,0,0,0,0,0,0,-1,825,1751,0,0
-392,-727,0,0,0,0,0,0,0,0,0,-1,832,1751,0,0
-385,-727,0,0,0,0,0,0,0,0,0,-1,839,1751,0,0
-378,-727,0,0,0,0,0,0,0,0,0,-1,846,1751,0,0
-371,-727,0,0,0,0,0,0,0,0,0,-1,853,1751,0,0
-364,-727,0,0,0,0,0,0,0,0,0,-1,860,1751,0,0
-357,-727,0,0,0,0,0,0,0,0,0,-1,867,1751,0,0
-350,-727,0,0,0,0,0,0,0,0,0,-1,874,1751,0,0
-343,-727,0,0,0,0,0,0,0,0,0,-1,881,1751,0,0
-336,-727,0,0,0,0,0,0,0,0,0,-1,888,1751,0,0
-329,-727,0,0,0,0,0,0,0,0,0,-1,895,1751,0,0
-322,-727,0,0,0,0,0,0,0,0,0,-1,902,1751,0,0
-315,-727,0,0,0,0,0,0,0,0,0,-1,909,1751,0,0
-308,-727,0,0,0,0,0,0,0,0,0,-1,916,1751,0,0
-301,-727,0,0,0,0,0,0,0,0,0,-1,923,1751,0,0
-294,-727,0,0,0,0,0,0,0,0,0,-1,930,1751,0,0
-287,-727,0,0,0,0,0,0,0,0,0,-1,937,1751,0,0
-280,-727,0,0,0,0,0,0,0,0,0,-1,944,1751,0,0
-273,-727,0,0,0,0,0,0,0,0,0,-1,951,1751,0,0
-266,-727,4.61987,6.59753,0,0,0,0,0,0,0,-1,958,1751,4.61985,-6.59759
-259,-727,3.435,6.01929,0,0,0,0,0,0,0,-1,965,1751,3.435,-6.01925
-252,-727,-0.0088501,4.47266,0,0,0,0,0,0,0,-1,972,1751,-0.00886852,-4.47265
-245,-727,-0.343384,4.54761,0,0,0,0,0,0,0,-1,979,1751,-0.34338,-4.54757
-238,-727,6.70496,6.04553,0,0,0,0,0,0,0,-1,986,1751,6.70498,-6.04556
-231,-727,5.46509,6.49463,0,0,0,0,0,0,0,-1,993,1751,5.46506,-6.49466
-224,-727,5.12781,6.52576,0,0,0,0,0,0,0,-1,1000,1751,5.12783,-6.52574
-217,-727,3.77448,7.19922,0,0,0,0,0,0,0,-1,1007,1751,3.77449,-7.19927
-210,-727,3.71143,7.45837,-0.0184674,-0.00211349,0.00469973,-0.000859108,-0.0197218,1.30997,0.012871,0.0438551,1014,1751,3.7114,-7.45834
-203,-727,3.45667,7.80164,-0.0147179,0.00040322,0.00509405,0.0019592,-0.0162739,1.27435,0.0115578,0.0425634,1021,1751,3.45663,-7.80168
-196,-727,3.64417,7.75024,0,0,0,0,0,0,0,-1,1028,1751,3.64419,-7.75024
-189,-727,3.43677,7.18396,0,0,0,0,0,0,0,-1,1035,1751,3.43681,-7.18393
-182,-727,3.4447,7.12134,0,0,0,0,0,0,0,-1,1042,1751,3.44466,-7.1213
-175,-727,3.6167,7.53979,0,0,0,0,0,0,0,-1,1049,1751,3.6167,-7.53981
-168,-727,3.85352,7.81384,0,0,0,0,0,0,0,-1,1056,1751,3.85346,-7.81382
-161,-727,3.7533,7.68005,-0.00127465,0.00542447,0.00143317,0.00571819,-0.00156838,1.36865,0.00442848,0.0456825,1063,1751,3.75331,-7.68005
-154,-727,3.65173,7.82166,-0.000200136,0.00489665,0.000742905,0.00500273,-0.000306213,1.42897,0.00344177,0.0395843,1070,1751,3.65169,-7.82168
-147,-727,3.69116,8.01868,0.000313019,0.00454275,0.000217607,0.00455391,0.000301854,1.51953,0.00294049,0.0337336,1077,1751,3.69112,-8.0187
-140,-727,3.57837,8.04407,0.000582518,0.00307438,5.07053e-05,0.00307541,0.000581487,1.55046,0.00188655,0.0217819,1084,1751,3.57831,-8.04406
-133,-727,3.60303,8.11243,0.00068921,0.00205148,-0.000125081,0.00206287,0.00067782,-1.47999,0.0012141,0.0158879,1091,1751,3.60298,-8.11246
-126,-727,3.55066,8.2052,0.000678518,0.00121196,-0.000122688,0.00123883,0.000651654,-1.35523,0.000715559,0.0123148,1098,1751,3.55072,-8.2052
-119,-727,3.52734,8.31653,0.000658478,0.00088856,-3.61902e-08,0.00088856,0.000658478,-1.57064,0.000532514,0.01151,1105,1751,3.52737,-8.31657
-112,-727,3.54993,8.36853,0.000711497,0.000797533,0.000211189,0.00097004,0.00053899,0.885871,0.000561208,0.0136107,1112,1751,3.54996,-8.3685
-105,-727,3.55713,8.42883,0.00078623,0.00056362,0.000339268,0.00103198,0.000317865,0.626893,0.000610281,0.012934,1119,1751,3.55709,-8.42887
-98,-727,3.54773,8.45959,0.000636321,0.000603158,0.000371105,0.000991215,0.000248264,0.763073,0.000595561,0.0107186,1126,1751,3.54776,-8.45964
-91,-727,3.55115,8.50513,0.00050006,0.000962618,0.00051395,0.00129493,0.000167748,0.996826,0.000813159,0.010409,1133,1751,3.55119,-8.50515
-84,-727,3.5376,8.56079,0.000287708,0.0013996,0.000580573,0.00164748,3.98246e-05,1.16726,0.00108529,0.0110257,1140,1751,3.53762,-8.56085
-77,-727,3.54187,8.62244,0.000238342,0.00162111,0.000719857,0.00192782,-6.83755e-05,1.16801,0.0013086,0.011764,1147,1751,3.54193,-8.62245
-70,-727,3.53662,8.67249,0.000294864,0.0015846,0.000718889,0.00190547,-2.6009e-05,1.15099,0.00127907,0.0128142,1154,1751,3.53663,-8.67243
-63,-727,3.52783,8.70715,0.000288517,0.00159794,0.000626647,0.0018495,3.69532e-05,1.18905,0.00122087,0.0110355,1161,1751,3.52782,-8.70715
-56,-727,3.52686,8.76001,0.000341599,0.00157393,0.000672749,0.00187004,4.54861e-05,1.15616,0.00123181,0.0109414,1168,1751,3.52687,-8.75998
-49,-727,3.51025,8.80518,0.000315932,0.00156715,0.000687168,0.00187083,1.22473e-05,1.15467,0.00124316,0.0129211,1175,1751,3.51024,-8.80521
-42,-727,3.495,8.82312,0.000343396,0.00166433,0.000735246,0.0019922,1.55293e-05,1.15133,0.00132299,0.0158292,1182,1751,3.49503,-8.82309
-35,-727,3.48242,8.85193,0.00056787,0.00139809,0.000777464,0.00186433,0.000101638,1.03061,0.00121043,0.0148788,1189,1751,3.48248,-8.8519
-28,-727,3.50684,8.89258,0.000809813,0.00111934,0.000678616,0.00166062,0.000268538,0.897511,0.00102931,0.00947005,1196,1751,3.5068,-8.89257
-21,-727,3.5094,8.93225,0.000921511,0.000734329,0.000447008,0.00128462,0.000371219,0.682203,0.000763378,0.0100958,1203,1751,3.50945,-8.93231
-14,-727,3.51855,8.96985,0.000964347,0.000199007,0.000258001,0.0010432,0.000120157,0.296604,0.000659074,0.0112558,1210,1751,3.51856,-8.96988
-7,-727,3.54065,9.00244,0.000989578,-0.000427583,0.000129466,0.00100131,-0.000439313,0.0903592,0.000852579,0.014374,1217,1751,3.54068,-9.00248
0,-727,3.5625,9.02173,0.000956268,-0.00104056,6.87209e-05,0.00095863,-0.00104292,0.0343608,0.00115594,0.0139882,1224,1751,3.56247,-9.0217
7,-727,3.5498,9.01331,0.000817888,-0.0017208,3.95279e-05,0.000818504,-0.00172142,0.0155652,0.00149699,0.0133285,1231,1751,3.54986,-9.01331
14,-727,3.52283,9.02051,0.000741701,-0.0021306,0.000166561,0.000751327,-0.00214022,0.0577309,0.00173244,0.0133035,1238,1751,3.52284,-9.02054
21,-727,3.52502,9.05762,0.000594534,-0.00218409,0.000464627,0.000670167,-0.00225972,0.161368,0.00177262,0.0114964,1245,1751,3.52498,-9.05762
28,-727,3.53809,9.09326,0.000311672,-0.00217498,0.000771665,0.000531674,-0.00239498,0.277731,0.00180024,0.0103996,1252,1751,3.53808,-9.09325
35,-727,3.56201,9.09619,8.60013e-05,-0.00202975,0.0011087,0.000560545,-0.00250429,0.404425,0.00188438,0.0113896,1259,1751,3.56202,-9.09618
42,-727,3.5293,9.0968,-8.96631e-05,-0.00191925,0.00143566,0.000697884,-0.0027068,0.501738,0.00207662,0.0121451,1266,1751,3.52934,-9.09684
49,-727,3.49451,9.10425,-0.000275045,-0.00156344,0.00172412,0.000921293,-0.00275978,0.606609,0.00221186,0.0111043,1273,1751,3.49456,-9.10423
56,-727,3.50024,9.13269,-0.000441642,-0.00106959,0.00200192,0.00127077,-0.00278201,0.707613,0.00239349,0.00972086,1280,1751,3.50025,-9.13272
63,-727,3.53284,9.14294,-0.0004783,-0.000484324,0.00225125,0.00176994,-0.00273256,0.784729,0.00261925,0.0114456,1287,1751,3.53285,-9.14295
70,-727,3.54138,9.15442,-0.000433592,-0.000146301,0.0023063,0.00202082,-0.00260071,0.8165,0.00267524,0.0128052,1294,1751,3.54137,-9.15436
77,-727,3.54199,9.1748,-0.00039856,0.000127206,0.00221406,0.00209394,-0.00236529,0.844488,0.00257613,0.0146537,1301,1751,3.54197,-9.17482
84,-727,3.54517,9.14954,-0.000351213,0.000270299,0.00204916,0.00203213,-0.00211305,0.86065,0.00239337,0.0152305,1308,1751,3.54513,-9.14948
91,-727,3.5448,9.1189,-0.000212272,0.000304988,0.00189188,0.00195584,-0.00186312,0.85333,0.00220509,0.0157724,1315,1751,3.54476,-9.1189
98,-727,3.53137,9.1366,8.63576e-06,9.70648e-05,0.001691,0.00174442,-0.00163872,0.798469,0.00195358,0.0132039,1322,1751,3.53134,-9.13662
105,-727,3.54651,9.14282,0.000285029,-0.000134464,0.00137172,0.00146294,-0.00131238,0.709532,0.00160312,0.012774,1329,1751,3.54651,-9.14286
112,-727,3.54797,9.14014,0.000587569,-0.000465375,0.00113849,0.00131542,-0.00119322,0.568826,0.00144894,0.0118225,1336,1751,3.548,-9.14008
119,-727,3.5459,9.1377,0.000720104,-0.000828057,0.000865385,0.0011071,-0.00121505,0.420516,0.00134118,0.00928728,1343,1751,3.5459,-9.13774
126,-727,3.5592,9.11804,0.000943463,-0.00123388,0.000595434,0.00109566,-0.00138608,0.250244,0.0014361,0.010051,1350,1751,3.5592,-9.11805
133,-727,3.56311,9.12415,0.00113786,-0.00149393,0.000444592,0.00121093,-0.001567,0.162911,0.00160823,0.0145615,1357,1751,3.5631,-9.12413
140,-727,3.55505,9.11292,0.00115727,-0.00160697,0.000335933,0.00119751,-0.00164721,0.119216,0.00164923,0.0206037,1364,1751,3.55506,-9.11296
147,-727,3.547,9.08215,0.00101455,-0.00136748,0.00023429,0.00103738,-0.00139031,0.0971172,0.00140655,0.0175492,1371,1751,3.54694,-9.0821
154,-727,3.54236,9.04956,0.000775503,-0.0011317,0.000160527,0.00078892,-0.00114512,0.0833867,0.00112291,0.0115246,1378,1751,3.54237,-9.04952
161,-727,3.54468,9.03528,0.000631819,-0.000773547,9.05049e-05,0.000637624,-0.000779351,0.0640469,0.000819454,0.00906846,1385,1751,3.54473,-9.03531
168,-727,3.5177,9.01892,0.000482923,-0.00038141,-7.82923e-05,0.000489957,-0.000388444,-0.0896094,0.000508273,0.0110267,1392,1751,3.51775,-9.01897
175,-727,3.54333,8.98462,0.000283827,0.000121154,-0.000177326,0.00039758,7.40068e-06,-0.570373,0.000262621,0.0159722,1399,1751,3.54333,-8.98456
182,-727,3.57837,8.96252,0.000145198,0.000520517,-0.000236933,0.000635104,3.0611e-05,-1.12033,0.000413577,0.0182402,1406,1751,3.57841,-8.96251
189,-727,3.52991,8.92249,0.000165083,0.000800985,-0.000500693,0.00107615,-0.000110082,-1.06828,0.0007568,0.0118889,1413,1751,3.52993,-8.92244
196,-727,3.51819,8.88306,1.15033e-05,0.000970173,-0.000919005,0.00152734,-0.000545662,-1.02578,0.00124077,0.0138561,1420,1751,3.51816,-8.88307
203,-727,3.49597,8.84326,0.000533457,0.0012274,-0.000389555,0.0014021,0.000358757,-1.14922,0.000841054,0.0170438,1427,1751,3.49598,-8.84331
210,-727,3.50513,8.823,0.00149232,0.00108735,0.000623198,0.0019451,0.000634565,0.628321,0.00114539,0.0159,1434,1751,3.50517,-8.82296
217,-727,3.5094,8.78101,0.0022432,0.000760054,0.00126372,0.00296687,3.63882e-05,0.520063,0.0019659,0.0116501,1441,1751,3.50942,-8.78096
224,-727,3.51636,8.72522,0.00314559,0.000161889,0.00198496,0.00413682,-0.000829342,0.463143,0.00307188,0.012024,1448,1751,3.51632,-8.72523
231,-727,3.51636,8.68628,0.00418513,-0.000523178,0.00291259,0.005576,-0.00191405,0.445517,0.00449336,0.00958326,1455,1751,3.51633,-8.68623
238,-727,3.51941,8.63062,0.00551771,-0.00132021,0.00380629,0.00721511,-0.00301761,0.419477,0.00607129,0.0101798,1462,1751,3.51939,-8.63063
245,-727,3.52112,8.59326,0.00686099,-0.00210064,0.00474879,0.00890924,-0.00414889,0.407212,0.00770429,0.0108217,1469,1751,3.52108,-8.59323
252,-727,3.51147,8.55225,0.00811121,-0.00285455,0.00563654,0.0104917,-0.00523504,0.399608,0.00924736,0.0114678,1476,1751,3.51148,-8.55221
259,-727,3.5177,8.50537,0.00934815,-0.00330053,0.00611416,0.0118204,-0.00577279,0.384251,0.0103555,0.0136982,1483,1751,3.51768,-8.50535
266,-727,3.55164,8.53796,0.0102928,-0.0029651,0.00625379,0.0127772,-0.00544947,0.378142,0.0108029,0.0186057,1490,1751,3.55163,-8.538
273,-727,3.62122,8.56165,0.0105454,-0.00257224,0.00644628,0.0131829,-0.00520977,0.388373,0.0109465,0.0294819,1497,1751,3.62122,-8.56162
280,-727,3.51843,8.56055,0.010589,-0.00197498,0.00623716,0.0131594,-0.00454542,0.390909,0.0106175,0.0427226,1504,1751,3.51848,-8.56051
287,-727,3.63379,8.46545,0.0103619,-0.00110307,0.00579434,0.0127802,-0.00352141,0.395383,0.00990484,0.0483313,1511,1751,3.63374,-8.46548
294,-727,3.76953,8.31714,0,0,0,0,0,0,0,-1,1518,1751,3.76952,-8.31717
301,-727,3.29102,8.12256,0.00966589,0.00137554,0.00406197,0.0113243,-0.000282915,0.38763,0.00764561,0.0446743,1525,1751,3.29101,-8.12254
308,-727,3.36084,7.95581,0.00692965,0.00327042,0.000597985,0.0070249,0.00317518,0.157946,0.00406205,0.0460277,1532,1751,3.36079,-7.9558
315,-727,3.45032,7.84607,0,0,0,0,0,0,0,-1,1539,1751,3.4503,-7.84605
322,-727,3.42261,7.62207,0,0,0,0,0,0,0,-1,1546,1751,3.42263,-7.62208
329,-727,3.49524,7.44324,0,0,0,0,0,0,0,-1,1553,1751,3.49526,-7.44328
336,-727,3.34875,7.61792,0,0,0,0,0,0,0,-1,1560,1751,3.34872,-7.61791
343,-727,1.92529,8.22937,0,0,0,0,0,0,0,-1,1567,1751,1.92533,-8.22939
350,-727,3.70764,6.35205,0,0,0,0,0,0,0,-1,1574,1751,3.70764,-6.35203
357,-727,5.48999,4.47461,0,0,0,0,0,0,0,-1,1581,1751,5.48996,-4.47467
364,-727,2.16528,4.43542,0,0,0,0,0,0,0,-1,1588,1751,2.16534,-4.4354
371,-727,3.72571,7.22925,0,0,0,0,0,0,0,-1,1595,1751,3.72574,-7.22928
378,-727,3.56641,7.54834,0,0,0,0,0,0,0,-1,1602,1751,3.56635,-7.54839
385,-727,0.23938,5.49817,0,0,0,0,0,0,0,-1,1609,1751,0.239438,-5.49811
392,-727,0,0,0,0,0,0,0,0,0,-1,1616,1751,0,0
399,-727,0,0,0,0,0,0,0,0,0,-1,1623,1751,0,0
406,-727,0,0,0,0,0,0,0,0,0,-1,1630,1751,0,0
413,-727,0,0,0,0,0,0,0,0,0,-1,1637,1751,0,0
420,-727,0,0,0,0,0,0,0,0,0,-1,1644,1751,0,0
427,-727,0,0,0,0,0,0,0,0,0,-1,1651,1751,0,0
434,-727,0,0,0,0,0,0,0,0,0,-1,1658,1751,0,0
441,-727,0,0,0,0,0,0,0,0,0,-1,1665,1751,0,0
448,-727,0,0,0,0,0,0,0,0,0,-1,1672,1751,0,0
455,-727,0,0,0,0,0,0,0,0,0,-1,1679,1751,0,0
462,-727,0,0,0,0,0,0,0,0,0,-1,1686,1751,0,0
469,-727,0,0,0,0,0,0,0,0,0,-1,1693,1751,0,0
476,-727,0,0,0,0,0,0,0,0,0,-1,1700,1751,0,0
483,-727,0,0,0,0,0,0,0,0,0,-1,1707,1751,0,0
490,-727,0,0,0,0,0,0,0,0,0,-1,1714,1751,0,0
497,-727,0,0,0,0,0,0,0,0,0,-1,1721,1751,0,0
504,-727,0,0,0,0,0,0,0,0,0,-1,1728,1751,0,0
511,-727,0,0,0,0,0,0,0,0,0,-1,1735,1751,0,0
518,-727,0,0,0,0,0,0,0,0,0,-1,1742,1751,0,0
525,-727,0,0,0,0,0,0,0,0,0,-1,1749,1751,0,0
532,-727,0,0,0,0,0,0,0,0,0,-1,1756,1751,0,0
539,-727,0,0,0,0,0,0,0,0,0,-1,1763,1751,0,0
546,-727,0,0,0,0,0,0,0,0,0,-1,1770,1751,0,0
553,-727,0,0,0,0,0,0,0,0,0,-1,1777,1751,0,0
560,-727,0,0,0,0,0,0,0,0,0,-1,1784,1751,0,0
567,-727,0,0,0,0,0,0,0,0,0,-1,1791,1751,0,0
574,-727,0,0,0,0,0,0,0,0,0,-1,1798,1751,0,0
581,-727,0,0,0,0,0,0,0,0,0,-1,1805,1751,0,0
588,-727,0,0,0,0,0,0,0,0,0,-1,1812,1751,0,0
595,-727,0,0,0,0,0,0,0,0,0,-1,1819,1751,0,0
602,-727,0,0,0,0,0,0,0,0,0,-1,1826,1751,0,0
609,-727,0,0,0,0,0,0,0,0,0,-1,1833,1751,0,0
616,-727,0,0,0,0,0,0,0,0,0,-1,1840,1751,0,0
623,-727,0,0,0,0,0,0,0,0,0,-1,1847,1751,0,0
630,-727,0,0,0,0,0,0,0,0,0,-1,1854,1751,0,0
637,-727,0,0,0,0,0,0,0,0,0,-1,1861,1751,0,0
644,-727,0,0,0,0,0,0,0,0,0,-1,1868,1751,0,0
651,-727,0,0,0,0,0,0,0,0,0,-1,1875,1751,0,0
658,-727,0,0,0,0,0,0,0,0,0,-1,1882,1751,0,0
665,-727,0,0,0,0,0,0,0,0,0,-1,1889,1751,0,0
672,-727,0,0,0,0,0,0,0,0,0,-1,1896,1751,0,0
679,-727,0,0,0,0,0,0,0,0,0,-1,1903,1751,0,0
686,-727,0,0,0,0,0,0,0,0,0,-1,1910,1751,0,0
693,-727,0,0,0,0,0,0,0,0,0,-1,1917,1751,0,0
700,-727,0,0,0,0,0,0,0,0,0,-1,1924,1751,0,0
707,-727,0,0,0,0,0,0,0,0,0,-1,1931,1751,0,0
714,-727,0,0,0,0,0,0,0,0,0,-1,1938,1751,0,0
721,-727,0,0,0,0,0,0,0,0,0,-1,1945,1751,0,0
728,-727,0,0,0,0,0,0,0,0,0,-1,1952,1751,0,0
735,-727,0,0,0,0,0,0,0,0,0,-1,1959,1751,0,0
742,-727,0,0,0,0,0,0,0,0,0,-1,1966,1751,0,0
749,-727,0,0,0,0,0,0,0,0,0,-1,1973,1751,0,0
756,-727,0,0,0,0,0,0,0,0,0,-1,1980,1751,0,0
763,-727,0,0,0,0,0,0,0,0,0,-1,1987,1751,0,0
770,-727,0,0,0,0,0,0,0,0,0,-1,1994,1751,0,0
777,-727,0,0,0,0,0,0,0,0,0,-1,2001,1751,0,0
784,-727,0,0,0,0,0,0,0,0,0,-1,2008,1751,0,0
791,-727,0,0,0,0,0,0,0,0,0,-1,2015,1751,0,0
798,-727,0,0,0,0,0,0,0,0,0,-1,2022,1751,0,0
805,-727,0,0,0,0,0,0,0,0,0,-1,2029,1751,0,0
812,-727,0,0,0,0,0,0,0,0,0,-1,2036,1751,0,0
-700,-734,0,0,0,0,0,0,0,0,0,-1,524,1758,0,0
-693,-734,0,0,0,0,0,0,0,0,0,-1,531,1758,0,0
-686,-734,0,0,0,0,0,0,0,0,0,-1,538,1758,0,0
-679,-734,0,0,0,0,0,0,0,0,0,-1,545,1758,0,0
-672,-734,0,0,0,0,0,0,0,0,0,-1,552,1758,0,0
-665,-734,0,0,0,0,0,0,0,0,0,-1,559,1758,0,0
-658,-734,0,0,0,0,0,0,0,0,0,-1,566,1758,0,0
-651,-734,0,0,0,0,0,0,0,0,0,-1,573,1758,0,0
-644,-734,0,0,0,0,0,0,0,0,0,-1,580,1758,0,0
-637,-734,0,0,0,0,0,0,0,0,0,-1,587,1758,0,0
-630,-734,0,0,0,0,0,0,0,0,0,-1,594,1758,0,0
-623,-734,0,0,0,0,0,0,0,0,0,-1,601,1758,0,0
-616,-734,0,0,0,0,0,0,0,0,0,-1,608,1758,0,0
-609,-734,0,0,0,0,0,0,0,0,0,-1,615,1758,0,0
-602,-734,0,0,0,0,0,0,0,0,0,-1,622,1758,0,0
-595,-734,0,0,0,0,0,0,0,0,0,-1,629,1758,0,0
-588,-734,0,0,0,0,0,0,0,0,0,-1,636,1758,0,0
-581,-734,0,0,0,0,0,0,0,0,0,-1,643,1758,0,0
-574,-734,0,0,0,0,0,0,0,0,0,-1,650,1758,0,0
-567,-734,0,0,0,0,0,0,0,0,0,-1,657,1758,0,0
-560,-734,0,0,0,0,0,0,0,0,0,-1,664,1758,0,0
-553,-734,0,0,0,0,0,0,0,0,0,-1,671,1758,0,0
-546,-734,0,0,0,0,0,0,0,0,0,-1,678,1758,0,0
-539,-734,0,0,0,0,0,0,0,0,0,-1,685,1758,0,0
-532,-734,0,0,0,0,0,0,0,0,0,-1,692,1758,0,0
-525,-734,0,0,0,0,0,0,0,0,0,-1,699,1758,0,0
-518,-734,0,0,0,0,0,0,0,0,0,-1,706,1758,0,0
-511,-734,0,0,0,0,0,0,0,0,0,-1,713,1758,0,0
-504,-734,0,0,0,0,0,0,0,0,0,-1,720,1758,0,0
-497,-734,0,0,0,0,0,0,0,0,0,-1,727,1758,0,0
-490,-734,0,0,0,0,0,0,0,0,0,-1,734,1758,0,0
-483,-734,0,0,0,0,0,0,0,0,0,-1,741,1758,0,0
-476,-734,0,0,0,0,0,0,0,0,0,-1,748,1758,0,0
-469,-734,0,0,0,0,0,0,0,0,0,-1,755,1758,0,0
-462,-734,0,0,0,0,0,0,0,0,0,-1,762,1758,0,0
-455,-734,0,0,0,0,0,0,0,0,0,-1,769,1758,0,0
-448,-734,0,0,0,0,0,0,0,0,0,-1,776,1758,0,0
-441,-734,0,0,0,0,0,0,0,0,0,-1,783,1758,0,0
-434,-734,0,0,0,0,0,0,0,0,0,-1,790,1758,0,0
-427,-734,0,0,0,0,0,0,0,0,0,-1,797,1758,0,0
-420,-734,0,0,0,0,0,0,0,0,0,-1,804,1758,0,0
-413,-734,0,0,0,0,0,0,0,0,0,-1,811,1758,0,0
-406,-734,0,0,0,0,0,0,0,0,0,-1,818,1758,0,0
-399,-734,0,0,0,0,0,0,0,0,0,-1,825,1758,0,0
-392,-734,0,0,0,0,0,0,0,0,0,-1,832,1758,0,0
-385,-734,0,0,0,0,0,0,0,0,0,-1,839,1758,0,0
-378,-734,0,0,0,0,0,0,0,0,0,-1,846,1758,0,0
-371,-734,0,0,0,0,0,0,0,0,0,-1,853,1758,0,0
-364,-734,0,0,0,0,0,0,0,0,0,-1,860,1758,0,0
-357,-734,0,0,0,0,0,0,0,0,0,-1,867,1758,0,0
-350,-734,0,0,0,0,0,0,0,0,0,-1,874,1758,0,0
-343,-734,0,0,0,0,0,0,0,0,0,-1,881,1758,0,0
-336,-734,0,0,0,0,0,0,0,0,0,-1,888,1758,0,0
-329,-734,0,0,0,0,0,0,0,0,0,-1,895,1758,0,0
-322,-734,0,0,0,0,0,0,0,0,0,-1,902,1758,0,0
-315,-734,0,0,0,0,0,0,0,0,0,-1,909,1758,0,0
-308,-734,0,0,0,0,0,0,0,0,0,-1,916,1758,0,0
-301,-734,0,0,0,0,0,0,0,0,0,-1,923,1758,0,0
-294,-734,0,0,0,0,0,0,0,0,0,-1,930,1758,0,0
-287,-734,0,0,0,0,0,0,0,0,0,-1,937,1758,0,0
-280,-734,0,0,0,0,0,0,0,0,0,-1,944,1758,0,0
-273,-734,0,0,0,0,0,0,0,0,0,-1,951,1758,0,0
-266,-734,0,0,0,0,0,0,0,0,0,-1,958,1758,0,0
-259,-734,0,0,0,0,0,0,0,0,0,-1,965,1758,0,0
-252,-734,-0.82782,4.55457,0,0,0,0,0,0,0,-1,972,1758,-0.827821,-4.55455
-245,-734,-1.14117,4.76892,0,0,0,0,0,0,0,-1,979,1758,-1.1412,-4.76889
-238,-734,4.79346,4.72571,0,0,0,0,0,0,0,-1,986,1758,4.79348,-4.72568
-231,-734,5.12213,7.11047,0,0,0,0,0,0,0,-1,993,1758,5.12212,-7.11052
-224,-734,5.00403,6.91467,0,0,0,0,0,0,0,-1,1000,1758,5.00405,-6.91463
-217,-734,4.90198,6.73267,0,0,0,0,0,0,0,-1,1007,1758,4.90199,-6.73261
-210,-734,3.46661,7.79517,0,0,0,0,0,0,0,-1,1014,1758,3.46664,-7.79517
-203,-734,3.35303,8.28113,0,0,0,0,0,0,0,-1,1021,1758,3.35297,-8.28113
-196,-734,3.79651,8.18701,0,0,0,0,0,0,0,-1,1028,1758,3.79647,-8.18701
-189,-734,0.786743,7.21643,0,0,0,0,0,0,0,-1,1035,1758,0.786732,-7.21646
-182,-734,2.52344,7.4469,0,0,0,0,0,0,0,-1,1042,1758,2.52349,-7.44693
-175,-734,3.60986,7.09631,0,0,0,0,0,0,0,-1,1049,1758,3.60988,-7.09631
-168,-734,3.96729,7.22888,0,0,0,0,0,0,0,-1,1056,1758,3.96735,-7.22889
-161,-734,3.96033,7.47693,0,0,0,0,0,0,0,-1,1063,1758,3.96027,-7.47699
-154,-734,3.95325,7.7251,0,0,0,0,0,0,0,-1,1070,1758,3.9532,-7.72508
-147,-734,3.91431,8.05835,0,0,0,0,0,0,0,-1,1077,1758,3.91425,-8.05833
-140,-734,3.51978,8.32153,0.00132535,0.0033644,0.000165512,0.00337775,0.001312,1.49033,0.00196626,0.0396947,1084,1758,3.51979,-8.32151
-133,-734,3.76086,8.20996,0.00141356,0.0020483,-5.45066e-05,0.00205294,0.00140891,-1.48575,0.00121238,0.0335335,1091,1758,3.76091,-8.20993
-126,-734,3.66138,8.10742,0.00136265,0.000978953,-4.68158e-05,0.00136828,0.000973324,-0.119674,0.00081316,0.0303787,1098,1758,3.66132,-8.10741
-119,-734,3.48926,8.26062,0.00131701,0.000610046,0.000115877,0.00133552,0.000591538,0.158389,0.000772736,0.0331709,1105,1758,3.48924,-8.26058
-112,-734,3.52222,8.34265,0.00134506,0.000545206,0.000366945,0.00148789,0.000402371,0.371208,0.000888706,0.0268504,1112,1758,3.5222,-8.34266
-105,-734,3.59314,8.3905,0.00139152,0.000312647,0.000488611,0.00157991,0.000124257,0.367999,0.0010144,0.0200265,1119,1758,3.59313,-8.39048
-98,-734,3.58447,8.4563,0.00115955,0.000276683,0.000465403,0.00135957,7.66622e-05,0.405913,0.000881937,0.0152183,1126,1758,3.58448,-8.45635
-91,-734,3.59192,8.50073,0.000954331,0.00068197,0.000608342,0.00144155,0.000194752,0.675286,0.000903142,0.0150782,1133,1758,3.59189,-8.50078
-84,-734,3.57678,8.54871,0.000649195,0.00112654,0.000657934,0.00158776,0.000187982,0.959398,0.00100174,0.0126673,1140,1758,3.57679,-8.54868
-77,-734,3.58044,8.59155,0.00053482,0.0012861,0.000808228,0.00180171,1.92026e-05,1.00293,0.00119479,0.0127562,1147,1758,3.58039,-8.59155
-70,-734,3.55029,8.62341,0.000526959,0.00113702,0.000798793,0.00168704,-2.30631e-05,0.967785,0.00113246,0.0116652,1154,1758,3.55028,-8.62341
-63,-734,3.5542,8.69995,0.000428229,0.00110915,0.0006816,0.00153059,6.79021e-06,1.01702,0.00101814,0.0112969,1161,1758,3.55426,-8.6999
-56,-734,3.56018,8.75635,0.000441823,0.00110615,0.00079721,0.00163763,-8.96535e-05,0.982791,0.00112283,0.0114298,1168,1758,3.56021,-8.75635
-49,-734,3.54285,8.78979,0.000322476,0.00122588,0.000847148,0.00173423,-0.000185871,1.03033,0.00122283,0.0119724,1175,1758,3.54288,-8.78976
-42,-734,3.52893,8.82581,0.000257981,0.00156512,0.000975605,0.00208584,-0.000262741,1.08052,0.0014859,0.0132521,1182,1758,3.52892,-8.82575
-35,-734,3.5271,8.84668,0.0005238,0.00139522,0.0011591,0.0021978,-0.000278781,0.965179,0.00156642,0.0138781,1189,1758,3.52715,-8.84674
-28,-734,3.55408,8.88538,0.000785932,0.00128481,0.00120048,0.00226149,-0.000190746,0.887832,0.00157509,0.0100437,1196,1758,3.55412,-8.88534
-21,-734,3.59607,8.93115,0.00083625,0.00095655,0.0010469,0.00194503,-0.000152226,0.814094,0.00135029,0.0141019,1203,1758,3.59612,-8.9312
-14,-734,3.56335,8.98572,0.00082092,0.000518019,0.000877935,0.00156037,-0.000221433,0.699985,0.00112137,0.0146621,1210,1758,3.56339,-8.98571
-7,-734,3.56958,9.00842,0.000773681,-1.08654e-05,0.00072221,0.00120327,-0.00044046,0.536611,0.000982484,0.0171388,1217,1758,3.5696,-9.00843
0,-734,3.5752,9.04443,0.000666168,-0.000493821,0.000595458,0.000917415,-0.000745069,0.399276,0.000961553,0.0168477,1224,1758,3.57515,-9.0444
7,-734,3.55542,9.04321,0.000441974,-0.00102725,0.000497156,0.00059439,-0.00117966,0.29748,0.00104266,0.0128179,1231,1758,3.55545,-9.04327
14,-734,3.5376,9.03796,0.000510567,-0.00127921,0.000536143,0.000658882,-0.00142753,0.269885,0.00123154,0.0131106,1238,1758,3.53763,-9.03797
21,-734,3.53357,9.05273,0.00070215,-0.00118252,0.000514383,0.0008334,-0.00131377,0.24983,0.00124997,0.0112437,1245,1758,3.53351,-9.05279
28,-734,3.547,9.07617,0.000658612,-0.000985161,0.000612627,0.000861815,-0.00118836,0.320272,0.00118867,0.0104682,1252,1758,3.54704,-9.07618
35,-734,3.56482,9.08838,0.000713394,-0.000699414,0.000766835,0.0010496,-0.00103562,0.413197,0.00120392,0.0138807,1259,1758,3.56477,-9.08843
42,-734,3.56482,9.09839,0.000877002,-0.000468661,0.000862247,0.00129787,-0.000889526,0.454084,0.00127021,0.0125011,1266,1758,3.56482,-9.09843
49,-734,3.51746,9.12012,0.00104171,-6.77804e-05,0.000931662,0.00157128,-0.00059735,0.51687,0.00129346,0.0101707,1273,1758,3.51751,-9.12008
56,-734,3.51526,9.14172,0.00120431,0.000367608,0.00106041,0.00192591,-0.000353992,0.597512,0.00141676,0.00909845,1280,1758,3.51525,-9.14172
63,-734,3.54126,9.14465,0.00146273,0.000769395,0.00122536,0.00238951,-0.000157388,0.647545,0.00164798,0.0116314,1287,1758,3.54124,-9.14465
70,-734,3.52148,9.15955,0.0017514,0.00088309,0.00121664,0.00260903,2.54592e-05,0.614017,0.00173093,0.0118582,1294,1758,3.52147,-9.15958
77,-734,3.54114,9.20105,0.00193264,0.000772186,0.00111924,0.00261311,9.17143e-05,0.546264,0.00171232,0.0158776,1301,1758,3.54114,-9.20101
84,-734,3.53406,9.16333,0.00204164,0.000547714,0.00104284,0.00257744,1.19171e-05,0.474615,0.00171433,0.0161536,1308,1758,3.53403,-9.1633
91,-734,3.54187,9.13745,0.00212639,0.00019967,0.001048,0.00258654,-0.000260476,0.413728,0.00181742,0.0176563,1315,1758,3.54191,-9.13745
98,-734,3.54712,9.13696,0.00225588,-0.000424651,0.00103906,0.00261148,-0.000780252,0.329738,0.00205115,0.0135689,1322,1758,3.54711,-9.13701
105,-734,3.56006,9.13611,0.00236597,-0.00105824,0.000900352,0.00258828,-0.00128055,0.242066,0.0022758,0.0150285,1329,1758,3.56003,-9.13607
112,-734,3.5675,9.13782,0.00247751,-0.00172125,0.000825658,0.00263403,-0.00187778,0.187353,0.00261706,0.0133303,1336,1758,3.56752,-9.13779
119,-734,3.53967,9.11511,0.0022717,-0.00242771,0.000677172,0.00236733,-0.00252334,0.140296,0.00282411,0.0138344,1343,1758,3.53965,-9.11516
126,-734,3.53796,9.09424,0.00216494,-0.00304918,0.000684425,0.00225328,-0.00313753,0.128367,0.00312631,0.0163856,1350,1758,3.53799,-9.09427
133,-734,3.54199,9.09631,0.00236891,-0.00343714,0.000575852,0.00242547,-0.00349371,0.0979103,0.00343594,0.0147691,1357,1758,3.54203,-9.09631
140,-734,3.54114,9.08691,0.00236116,-0.00354717,0.000454755,0.00239596,-0.00358196,0.0763691,0.00347392,0.0188049,1364,1758,3.54113,-9.08688
147,-734,3.52905,9.05884,0.00210004,-0.0031467,0.000347491,0.00212295,-0.00316961,0.0658466,0.00307552,0.0136306,1371,1758,3.529,-9.05878
154,-734,3.52051,9.06287,0.00171057,-0.00270116,0.000237495,0.00172332,-0.00271391,0.0536261,0.00258303,0.0100767,1378,1758,3.52046,-9.06286
161,-734,3.51343,9.04858,0.0014384,-0.00209911,8.42591e-05,0.00144041,-0.00210112,0.0238007,0.00205653,0.00908065,1385,1758,3.5134,-9.04858
168,-734,3.47864,9.00659,0.00113017,-0.00142191,-0.000251506,0.00115472,-0.00144646,-0.097302,0.00150494,0.0136645,1392,1758,3.47866,-9.00658
175,-734,3.51294,8.97144,0.000646306,-0.000602777,-0.000371883,0.00074864,-0.000705111,-0.268534,0.000839449,0.0161636,1399,1758,3.5129,-8.97146
182,-734,3.54236,8.93433,0.000267905,0.000182076,-0.000408821,0.000636058,-0.000186077,-0.733104,0.000497795,0.0137892,1406,1758,3.54233,-8.93439
189,-734,3.4967,8.90771,0.000186541,0.000679359,-0.000797072,0.00126724,-0.000401341,-0.93531,0.00100567,0.0105204,1413,1758,3.49675,-8.90772
196,-734,3.48816,8.87781,-9.02114e-06,0.000903418,-0.00141016,0.00192932,-0.00103492,-0.941846,0.00173718,0.0112503,1420,1758,3.48811,-8.87781
203,-734,3.50891,8.85864,0.00102915,0.00133619,-0.00025236,0.00147806,0.000887286,-1.05866,0.000859064,0.011762,1427,1758,3.50897,-8.85863
210,-734,3.50354,8.83582,0.00280038,0.0011342,0.00170199,0.00386223,7.23491e-05,0.5578,0.00255105,0.0124637,1434,1758,3.50356,-8.83578
217,-734,3.46582,8.79309,0.00410022,0.00074587,0.00290689,0.00577908,-0.000932987,0.523743,0.00419841,0.0105365,1441,1758,3.46579,-8.79315
224,-734,3.48096,8.74744,0.0056089,3.65526e-05,0.00427629,0.00792659,-0.00228113,0.496669,0.00618658,0.0118112,1448,1758,3.48093,-8.74748
231,-734,3.47485,8.71155,0.00728548,-0.000805194,0.00591143,0.0104032,-0.00392294,0.485334,0.00854863,0.0130058,1455,1758,3.4748,-8.71156
238,-734,3.49353,8.63904,0.0093064,-0.0018046,0.00755256,0.0131267,-0.00562485,0.468295,0.0111112,0.0155386,1462,1758,3.49358,-8.63905
245,-734,3.48193,8.54883,0.0113745,-0.00281683,0.00928949,0.0159683,-0.00741061,0.459249,0.0137959,0.0213105,1469,1758,3.48187,-8.54877
252,-734,3.44263,8.48254,0.0133415,-0.00380393,0.0109302,0.0186597,-0.00912222,0.452846,0.016352,0.027861,1476,1758,3.44266,-8.48251
259,-734,3.56616,8.54492,0.0152404,-0.00442055,0.0120355,0.02095,-0.0101301,0.442951,0.018303,0.0355465,1483,1758,3.56622,-8.54487
266,-734,3.61096,8.66663,0.0167767,-0.00415861,0.0127014,0.022768,-0.0101499,0.440756,0.0194651,0.0412452,1490,1758,3.61094,-8.66668
273,-734,3.78882,8.78491,0.0174628,-0.00375785,0.013256,0.0238319,-0.010127,0.447901,0.0201313,0.0478691,1497,1758,3.78877,-8.78493
280,-734,3.86292,8.85352,0,0,0,0,0,0,0,-1,1504,1758,3.86286,-8.8535
287,-734,3.72107,8.70239,0,0,0,0,0,0,0,-1,1511,1758,3.72106,-8.70235
294,-734,3.43213,7.43237,0,0,0,0,0,0,0,-1,1518,1758,3.43217,-7.43234
301,-734,3.13,8.02393,0,0,0,0,0,0,0,-1,1525,1758,3.12998,-8.02395
308,-734,3.2981,7.86267,0,0,0,0,0,0,0,-1,1532,1758,3.29804,-7.86261
315,-734,4.23853,8.1001,0,0,0,0,0,0,0,-1,1539,1758,4.23858,-8.10005
322,-734,4.44897,8.60303,0,0,0,0,0,0,0,-1,1546,1758,4.44897,-8.60307
329,-734,4.50171,9.42297,0,0,0,0,0,0,0,-1,1553,1758,4.50173,-9.42299
336,-734,4.58252,10.3401,0,0,0,0,0,0,0,-1,1560,1758,4.58252,-10.3401
343,-734,5.54968,5.14221,0,0,0,0,0,0,0,-1,1567,1758,5.54973,-5.14225
350,-734,4.52661,5.84155,0,0,0,0,0,0,0,-1,1574,1758,4.52666,-5.84152
357,-734,5.31921,6.21692,0,0,0,0,0,0,0,-1,1581,1758,5.31925,-6.21698
364,-734,3.85803,5.07251,0,0,0,0,0,0,0,-1,1588,1758,3.85797,-5.07248
371,-734,3.4458,5.63818,0,0,0,0,0,0,0,-1,1595,1758,3.44577,-5.63817
378,-734,0,0,0,0,0,0,0,0,0,-1,1602,1758,0,0
385,-734,0,0,0,0,0,0,0,0,0,-1,1609,1758,0,0
392,-734,0,0,0,0,0,0,0,0,0,-1,1616,1758,0,0
399,-734,0,0,0,0,0,0,0,0,0,-1,1623,1758,0,0
406,-734,0,0,0,0,0,0,0,0,0,-1,1630,1758,0,0
413,-734,0,0,0,0,0,0,0,0,0,-1,1637,1758,0,0
420,-734,0,0,0,0,0,0,0,0,0,-1,1644,1758,0,0
427,-734,0,0,0,0,0,0,0,0,0,-1,1651,1758,0,0
434,-734,0,0,0,0,0,0,0,0,0,-1,1658,1758,0,0
441,-734,0,0,0,0,0,0,0,0,0,-1,1665,1758,0,0
448,-734,0,0,0,0,0,0,0,0,0,-1,1672,1758,0,0
455,-734,0,0,0,0,0,0,0,0,0,-1,1679,1758,0,0
462,-734,0,0,0,0,0,0,0,0,0,-1,1686,1758,0,0
469,-734,0,0,0,0,0,0,0,0,0,-1,1693,1758,0,0
476,-734,0,0,0,0,0,0,0,0,0,-1,1700,1758,0,0
483,-734,0,0,0,0,0,0,0,0,0,-1,1707,1758,0,0
490,-734,0,0,0,0,0,0,0,0,0,-1,1714,1758,0,0
497,-734,0,0,0,0,0,0,0,0,0,-1,1721,1758,0,0
504,-734,0,0,0,0,0,0,0,0,0,-1,1728,1758,0,0
511,-734,0,0,0,0,0,0,0,0,0,-1,1735,1758,0,0
518,-734,0,0,0,0,0,0,0,0,0,-1,1742,1758,0,0
525,-734,0,0,0,0,0,0,0,0,0,-1,1749,1758,0,0
532,-734,0,0,0,0,0,0,0,0,0,-1,1756,1758,0,0
539,-734,0,0,0,0,0,0,0,0,0,-1,1763,1758,0,0
546,-734,0,0,0,0,0,0,0,0,0,-1,1770,1758,0,0
553,-734,0,0,0,0,0,0,0,0,0,-1,1777,1758,0,0
560,-734,0,0,0,0,0,0,0,0,0,-1,1784,1758,0,0
567,-734,0,0,0,0,0,0,0,0,0,-1,1791,1758,0,0
574,-734,0,0,0,0,0,0,0,0,0,-1,1798,1758,0,0
581,-734,0,0,0,0,0,0,0,0,0,-1,1805,1758,0,0
588,-734,0,0,0,0,0,0,0,0,0,-1,1812,1758,0,0
595,-734,0,0,0,0,0,0,0,0,0,-1,1819,1758,0,0
602,-734,0,0,0,0,0,0,0,0,0,-1,1826,1758,0,0
609,-734,0,0,0,0,0,0,0,0,0,-1,1833,1758,0,0
616,-734,0,0,0,0,0,0,0,0,0,-1,1840,1758,0,0
623,-734,0,0,0,0,0,0,0,0,0,-1,1847,1758,0,0
630,-734,0,0,0,0,0,0,0,0,0,-1,1854,1758,0,0
637,-734,0,0,0,0,0,0,0,0,0,-1,1861,1758,0,0
644,-734,0,0,0,0,0,0,0,0,0,-1,1868,1758,0,0
651,-734,0,0,0,0,0,0,0,0,0,-1,1875,1758,0,0
658,-734,0,0,0,0,0,0,0,0,0,-1,1882,1758,0,0
665,-734,0,0,0,0,0,0,0,0,0,-1,1889,1758,0,0
672,-734,0,0,0,0,0,0,0,0,0,-1,1896,1758,0,0
679,-734,0,0,0,0,0,0,0,0,0,-1,1903,1758,0,0
686,-734,0,0,0,0,0,0,0,0,0,-1,1910,1758,0,0
693,-734,0,0,0,0,0,0,0,0,0,-1,1917,1758,0,0
700,-734,0,0,0,0,0,0,0,0,0,-1,1924,1758,0,0
707,-734,0,0,0,0,0,0,0,0,0,-1,1931,1758,0,0
714,-734,0,0,0,0,0,0,0,0,0,-1,1938,1758,0,0
721,-734,0,0,0,0,0,0,0,0,0,-1,1945,1758,0,0
728,-734,0,0,0,0,0,0,0,0,0,-1,1952,1758,0,0
735,-734,0,0,0,0,0,0,0,0,0,-1,1959,1758,0,0
742,-734,0,0,0,0,0,0,0,0,0,-1,1966,1758,0,0
749,-734,0,0,0,0,0,0,0,0,0,-1,1973,1758,0,0
756,-734,0,0,0,0,0,0,0,0,0,-1,1980,1758,0,0
763,-734,0,0,0,0,0,0,0,0,0,-1,1987,1758,0,0
770,-734,0,0,0,0,0,0,0,0,0,-1,1994,1758,0,0
777,-734,0,0,0,0,0,0,0,0,0,-1,2001,1758,0,0
784,-734,0,0,0,0,0,0,0,0,0,-1,2008,1758,0,0
791,-734,0,0,0,0,0,0,0,0,0,-1,2015,1758,0,0
798,-734,0,0,0,0,0,0,0,0,0,-1,2022,1758,0,0
805,-734,0,0,0,0,0,0,0,0,0,-1,2029,1758,0,0
812,-734,0,0,0,0,0,0,0,0,0,-1,2036,1758,0,0
-700,-741,0,0,0,0,0,0,0,0,0,-1,524,1765,0,0
-693,-741,0,0,0,0,0,0,0,0,0,-1,531,1765,0,0
-686,-741,0,0,0,0,0,0,0,0,0,-1,538,1765,0,0
-679,-741,0,0,0,0,0,0,0,0,0,-1,545,1765,0,0
-672,-741,0,0,0,0,0,0,0,0,0,-1,552,1765,0,0
-665,-741,0,0,0,0,0,0,0,0,0,-1,559,1765,0,0
-658,-741,0,0,0,0,0,0,0,0,0,-1,566,1765,0,0
-651,-741,0,0,0,0,0,0,0,0,0,-1,573,1765,0,0
-644,-741,0,0,0,0,0,0,0,0,0,-1,580,1765,0,0
-637,-741,0,0,0,0,0,0,0,0,0,-1,587,1765,0,0
-630,-741,0,0,0,0,0,0,0,0,0,-1,594,1765,0,0
-623,-741,0,0,0,0,0,0,0,0,0,-1,601,1765,0,0
-616,-741,0,0,0,0,0,0,0,0,0,-1,608,1765,0,0
-609,-741,0,0,0,0,0,0,0,0,0,-1,615,1765,0,0
-602,-741,0,0,0,0,0,0,0,0,0,-1,622,1765,0,0
-595,-741,0,0,0,0,0,0,0,0,0,-1,629,1765,0,0
-588,-741,0,0,0,0,0,0,0,0,0,-1,636,1765,0,0
-581,-741,0,0,0,0,0,0,0,0,0,-1,643,1765,0,0
-574,-741,0,0,0,0,0,0,0,0,0,-1,650,1765,0,0
-567,-741,0,0,0,0,0,0,0,0,0,-1,657,1765,0,0
-560,-741,0,0,0,0,0,0,0,0,0,-1,664,1765,0,0
-553,-741,0,0,0,0,0,0,0,0,0,-1,671,1765,0,0
-546,-741,0,0,0,0,0,0,0,0,0,-1,678,1765,0,0
-539,-741,0,0,0,0,0,0,0,0,0,-1,685,1765,0,0
-532,-741,0,0,0,0,0,0,0,0,0,-1,692,1765,0,0
-525,-741,0,0,0,0,0,0,0,0,0,-1,699,1765,0,0
-518,-741,0,0,0,0,0,0,0,0,0,-1,706,1765,0,0
-511,-741,0,0,0,0,0,0,0,0,0,-1,713,1765,0,0
-504,-741,0,0,0,0,0,0,0,0,0,-1,720,1765,0,0
-497,-741,0,0,0,0,0,0,0,0,0,-1,727,1765,0,0
-490,-741,0,0,0,0,0,0,0,0,0,-1,734,1765,0,0
-483,-741,0,0,0,0,0,0,0,0,0,-1,741,1765,0,0
-476,-741,0,0,0,0,0,0,0,0,0,-1,748,1765,0,0
-469,-741,0,0,0,0,0,0,0,0,0,-1,755,1765,0,0
-462,-741,0,0,0,0,0,0,0,0,0,-1,762,1765,0,0
-455,-741,0,0,0,0,0,0,0,0,0,-1,769,1765,0,0
-448,-741,0,0,0,0,0,0,0,0,0,-1,776,1765,0,0
-441,-741,0,0,0,0,0,0,0,0,0,-1,783,1765,0,0
-434,-741,0,0,0,0,0,0,0,0,0,-1,790,1765,0,0
-427,-741,0,0,0,0,0,0,0,0,0,-1,797,1765,0,0
-420,-741,0,0,0,0,0,0,0,0,0,-1,804,1765,0,0
-413,-741,0,0,0,0,0,0,0,0,0,-1,811,1765,0,0
-406,-741,0,0,0,0,0,0,0,0,0,-1,818,1765,0,0
-399,-741,0,0,0,0,0,0,0,0,0,-1,825,1765,0,0
-392,-741,0,0,0,0,0,0,0,0,0,-1,832,1765,0,0
-385,-741,0,0,0,0,0,0,0,0,0,-1,839,1765,0,0
-378,-741,0,0,0,0,0,0,0,0,0,-1,846,1765,0,0
-371,-741,0,0,0,0,0,0,0,0,0,-1,853,1765,0,0
-364,-741,0,0,0,0,0,0,0,0,0,-1,860,1765,0,0
-357,-741,0,0,0,0,0,0,0,0,0,-1,867,1765,0,0
-350,-741,0,0,0,0,0,0,0,0,0,-1,874,1765,0,0
-343,-741,0,0,0,0,0,0,0,0,0,-1,881,1765,0,0
-336,-741,0,0,0,0,0,0,0,0,0,-1,888,1765,0,0
-329,-741,0,0,0,0,0,0,0,0,0,-1,895,1765,0,0
-322,-741,0,0,0,0,0,0,0,0,0,-1,902,1765,0,0
-315,-741,0,0,0,0,0,0,0,0,0,-1,909,1765,0,0
-308,-741,0,0,0,0,0,0,0,0,0,-1,916,1765,0,0
-301,-741,0,0,0,0,0,0,0,0,0,-1,923,1765,0,0
-294,-741,0,0,0,0,0,0,0,0,0,-1,930,1765,0,0
-287,-741,0,0,0,0,0,0,0,0,0,-1,937,1765,0,0
-280,-741,0,0,0,0,0,0,0,0,0,-1,944,1765,0,0
-273,-741,0,0,0,0,0,0,0,0,0,-1,951,1765,0,0
-266,-741,0,0,0,0,0,0,0,0,0,-1,958,1765,0,0
-259,-741,0,0,0,0,0,0,0,0,0,-1,965,1765,0,0
-252,-741,0,0,0,0,0,0,0,0,0,-1,972,1765,0,0
-245,-741,0,0,0,0,0,0,0,0,0,-1,979,1765,0,0
-238,-741,7.11444,6.14148,0,0,0,0,0,0,0,-1,986,1765,7.11442,-6.14149
-231,-741,6.23181,6.54321,0,0,0,0,0,0,0,-1,993,1765,6.23182,-6.54317
-224,-741,5.25403,6.75842,0,0,0,0,0,0,0,-1,1000,1765,5.25405,-6.75836
-217,-741,5.25006,6.82104,0,0,0,0,0,0,0,-1,1007,1765,5.25008,-6.82109
-210,-741,5.18677,6.5,0,0,0,0,0,0,0,-1,1014,1765,5.18678,-6.5
-203,-741,4.12805,7.49829,0,0,0,0,0,0,0,-1,1021,1765,4.12803,-7.49834
-196,-741,-0.212891,7.1947,0,0,0,0,0,0,0,-1,1028,1765,-0.212948,-7.19467
-189,-741,0.273315,7.1532,0,0,0,0,0,0,0,-1,1035,1765,0.273352,-7.15323
-182,-741,0.74646,7.08362,0,0,0,0,0,0,0,-1,1042,1765,0.746458,-7.08358
-175,-741,2.8418,7.08838,0,0,0,0,0,0,0,-1,1049,1765,2.84181,-7.08839
-168,-741,3.69958,7.13757,0,0,0,0,0,0,0,-1,1056,1765,3.69962,-7.13759
-161,-741,4.08875,7.15747,0,0,0,0,0,0,0,-1,1063,1765,4.08871,-7.15743
-154,-741,1.03101,3.35901,0,0,0,0,0,0,0,-1,1070,1765,1.03105,-3.35897
-147,-741,2.96655,7.12366,0,0,0,0,0,0,0,-1,1077,1765,2.9665,-7.12371
-140,-741,3.41785,8.60339,0,0,0,0,0,0,0,-1,1084,1765,3.41788,-8.60335
-133,-741,4.09375,8.35706,0,0,0,0,0,0,0,-1,1091,1765,4.09381,-8.35701
-126,-741,3.54736,8.08252,0,0,0,0,0,0,0,-1,1098,1765,3.5474,-8.0825
-119,-741,3.3717,8.19629,0,0,0,0,0,0,0,-1,1105,1765,3.37172,-8.19625
-112,-741,3.19604,8.31006,0,0,0,0,0,0,0,-1,1112,1765,3.19605,-8.31001
-105,-741,3.64136,8.38501,0.00237713,-0.000103111,0.000726206,0.00257412,-0.000300096,0.264879,0.00182436,0.0332026,1119,1765,3.6413,-8.38503
-98,-741,3.6925,8.43188,0.00201044,-0.000198132,0.000652474,0.00218879,-0.000376488,0.266835,0.00159953,0.0316213,1126,1765,3.69249,-8.43191
-91,-741,3.77429,8.4032,0.0016905,0.000284476,0.000804062,0.00205555,-8.05662e-05,0.426174,0.00139799,0.0392664,1133,1765,3.7743,-8.40321
-84,-741,3.74414,8.53308,0.00125285,0.000753523,0.000845331,0.00188461,0.000121757,0.641809,0.00121785,0.040682,1140,1765,3.74415,-8.53313
-77,-741,3.56702,8.60388,0.00103198,0.0008921,0.00100217,0.00196664,-4.25677e-05,0.750561,0.00132551,0.0399943,1147,1765,3.56696,-8.60387
-70,-741,3.56775,8.62866,0.000941468,0.000667447,0.000970469,0.00178455,-0.000175635,0.715272,0.00125236,0.0391098,1154,1765,3.56772,-8.62866
-63,-741,3.55811,8.64722,0.000732886,0.000633676,0.000806566,0.00149137,-0.000124809,0.754686,0.00103835,0.0367025,1161,1765,3.55815,-8.64725
-56,-741,3.50476,8.67615,0,0,0,0,0,0,0,-1,1168,1765,3.50481,-8.67615
-49,-741,3.58911,8.77954,0,0,0,0,0,0,0,-1,1175,1765,3.58916,-8.77952
-42,-741,3.49756,8.69788,0.000343679,0.00145676,0.00122747,0.00224797,-0.00044753,0.998238,0.00166796,0.0368103,1182,1765,3.49752,-8.6979
-35,-741,3.59021,8.87463,0.000577418,0.0014213,0.00154435,0.00260031,-0.000601595,0.918752,0.00196501,0.0138482,1189,1765,3.59022,-8.87462
-28,-741,3.60168,8.90051,0.000787856,0.00164041,0.00175292,0.00301814,-0.000589878,0.904673,0.00223482,0.0133688,1196,1765,3.60174,-8.90053
-21,-741,3.61768,8.94165,0.000741805,0.00138248,0.00164265,0.00273574,-0.000611446,0.881697,0.00205814,0.0162909,1203,1765,3.61766,-8.94164
-14,-741,3.58655,8.9801,0.000645821,0.00102654,0.00147838,0.00232676,-0.000654405,0.849427,0.0018092,0.0162014,1210,1765,3.58654,-8.98006
-7,-741,3.58972,8.98645,0.000542287,0.000587867,0.00130877,0.00187404,-0.000743889,0.794104,0.0015577,0.0149735,1217,1765,3.58977,-8.98643
0,-741,3.58203,9.02136,0.000370389,0.000195513,0.0011247,0.00141105,-0.000845144,0.746605,0.0013162,0.0152369,1224,1765,3.58198,-9.02135
7,-741,3.55945,9.02222,7.49998e-05,-0.000238946,0.000947665,0.000878605,-0.00104255,0.703322,0.00111053,0.0176469,1231,1765,3.55941,-9.02219
14,-741,3.56726,9.05457,0.000298618,-0.000417985,0.000923582,0.000930965,-0.00105033,0.600362,0.00114459,0.0167178,1238,1765,3.56725,-9.05456
21,-741,3.56506,9.05798,0.000828471,-0.000132863,0.000667201,0.00117012,-0.000474509,0.473247,0.000977425,0.0115016,1245,1765,3.5651,-9.05803
28,-741,3.55615,9.0719,0.00105281,0.000294283,0.000594485,0.00137871,-3.16154e-05,0.501462,0.000929856,0.0116047,1252,1765,3.5561,-9.07189
35,-741,3.56812,9.07971,0.00139131,0.000754159,0.00063368,0.00178199,0.000363482,0.552479,0.00108728,0.0141388,1259,1765,3.56811,-9.07969
42,-741,3.57996,9.10596,0.00186272,0.00110257,0.00061478,0.00220542,0.000759861,0.50854,0.00129365,0.0146172,1266,1765,3.57995,-9.10601
49,-741,3.55237,9.13159,0.00231571,0.00158964,0.000597226,0.00265159,0.00125377,0.512303,0.00153165,0.0093875,1273,1765,3.55234,-9.13155
56,-741,3.52429,9.14917,0.00272614,0.00203558,0.000714139,0.00317409,0.00158763,0.560223,0.00183256,0.00958504,1280,1765,3.52428,-9.14918
63,-741,3.5199,9.15601,0.0032269,0.00232834,0.000942702,0.00382191,0.00173333,0.563026,0.00220976,0.0139617,1287,1765,3.51987,-9.15597
70,-741,3.50745,9.1792,0.00374601,0.00227967,0.000975582,0.00423321,0.00179247,0.463162,0.00245358,0.0158502,1294,1765,3.5074,-9.17925
77,-741,3.51489,9.20044,0.00405164,0.00182288,0.000925594,0.0043859,0.00148862,0.346559,0.00257537,0.0138694,1301,1765,3.51491,-9.20049
84,-741,3.51221,9.18652,0.00417115,0.00125752,0.000961078,0.00445961,0.000969063,0.291587,0.00270847,0.0165516,1308,1765,3.51224,-9.18648
91,-741,3.50232,9.17517,0.00419081,0.000523842,0.00111123,0.00450127,0.000213385,0.272437,0.00293231,0.0133551,1315,1765,3.50226,-9.17514
98,-741,3.5083,9.151,0.00426128,-0.00054012,0.00123891,0.00456211,-0.00084095,0.238208,0.00335702,0.0106464,1322,1765,3.50824,-9.15103
105,-741,3.53357,9.13,0.00427513,-0.00160516,0.00119947,0.00451039,-0.00184041,0.193676,0.00377311,0.0110772,1329,1765,3.53354,-9.13006
112,-741,3.5531,9.13159,0.00429535,-0.00266379,0.00117476,0.0044883,-0.00285674,0.1628,0.0042754,0.0111001,1336,1765,3.55312,-9.13157
119,-741,3.51868,9.12402,0.00388246,-0.00374125,0.00100159,0.00401185,-0.00387064,0.128473,0.0045512,0.014211,1343,1765,3.51873,-9.12402
126,-741,3.50879,9.09717,0.00355066,-0.00475558,0.0011332,0.00370249,-0.00490741,0.133186,0.00498713,0.0196912,1350,1765,3.5088,-9.09717
133,-741,3.50757,9.09497,0.00380358,-0.00539976,0.000974507,0.00390564,-0.00550182,0.104345,0.00545739,0.0154148,1357,1765,3.50757,-9.09501
140,-741,3.51428,9.07727,0.00385965,-0.00552455,0.000720781,0.00391469,-0.00557959,0.0762122,0.00550954,0.0116108,1364,1765,3.51424,-9.07725
147,-741,3.51477,9.07312,0.00354762,-0.00497074,0.000544221,0.00358225,-0.00500537,0.0635436,0.00498071,0.0108682,1371,1765,3.51478,-9.07318
154,-741,3.50952,9.07642,0.00303629,-0.00439331,0.00038641,0.00305633,-0.00441336,0.0518231,0.00433629,0.00955983,1378,1765,3.50955,-9.07644
161,-741,3.50623,9.05371,0.00267413,-0.0036517,0.000156456,0.002678,-0.00365557,0.0247127,0.00367117,0.0108536,1385,1765,3.50617,-9.05371
168,-741,3.48901,9.01294,0.00215025,-0.00281893,-0.000355696,0.00217558,-0.00284426,-0.0710974,0.00290677,0.0196191,1392,1765,3.48899,-9.01288
175,-741,3.52063,8.94727,0.00128341,-0.00161916,-0.000448486,0.00135112,-0.00168687,-0.149859,0.00175756,0.0365885,1399,1765,3.52062,-8.94729
182,-741,3.5,8.89844,0,0,0,0,0,0,0,-1,1406,1765,3.50001,-8.89847
189,-741,3.45703,8.88513,0,0,0,0,0,0,0,-1,1413,1765,3.45706,-8.88508
196,-741,3.67224,8.73206,0.000212402,0.000771972,-0.00178629,0.00230025,-0.00131588,-0.863082,0.0021134,0.047943,1420,1765,3.67224,-8.73206
203,-741,3.53918,8.81348,0.00208532,0.00145036,0.000390881,0.00227141,0.00126427,0.444325,0.0013142,0.0253759,1427,1765,3.53919,-8.81349
210,-741,3.4176,8.82117,0.00510781,0.0011079,0.00387857,0.0074717,-0.00125598,0.547356,0.00544827,0.0199768,1434,1765,3.41766,-8.82122
217,-741,3.45935,8.79382,0.00720957,0.000622396,0.00597644,0.0107399,-0.00290792,0.533557,0.00830078,0.0190616,1441,1765,3.45933,-8.79387
224,-741,3.53345,8.75269,0.00959522,-0.000216591,0.00835891,0.0143815,-0.00500291,0.52003,0.0116201,0.0246672,1448,1765,3.53346,-8.75274
231,-741,3.54456,8.72778,0.0122222,-0.00122955,0.0110748,0.0184535,-0.00746087,0.512509,0.0154038,0.0326077,1455,1765,3.54455,-8.72773
238,-741,3.44568,8.66345,0.0152744,-0.00244379,0.0138618,0.0228662,-0.0100356,0.501061,0.0194714,0.0367411,1462,1765,3.44566,-8.66344
245,-741,3.43384,8.4928,0.0184558,-0.00370926,0.016803,0.027502,-0.0127554,0.493866,0.0237567,0.042631,1469,1765,3.43384,-8.49277
252,-741,3.45618,8.37549,0,0,0,0,0,0,0,-1,1476,1765,3.45614,-8.37551
259,-741,3.93213,8.3866,0,0,0,0,0,0,0,-1,1483,1765,3.93216,-8.38655
266,-741,3.89124,8.87366,0,0,0,0,0,0,0,-1,1490,1765,3.89126,-8.8737
273,-741,3.86292,8.97595,0,0,0,0,0,0,0,-1,1497,1765,3.86286,-8.97598
280,-741,3.35974,3.5481,0,0,0,0,0,0,0,-1,1504,1765,3.35976,-3.5481
287,-741,4.28894,5.50073,0,0,0,0,0,0,0,-1,1511,1765,4.28894,-5.50068
294,-741,3.85913,6.09302,0,0,0,0,0,0,0,-1,1518,1765,3.85912,-6.09308
301,-741,3.87952,7.46252,0,0,0,0,0,0,0,-1,1525,1765,3.87948,-7.46251
308,-741,3.73376,7.98938,0,0,0,0,0,0,0,-1,1532,1765,3.7338,-7.98938
315,-741,4.06604,8.55969,0,0,0,0,0,0,0,-1,1539,1765,4.06601,-8.55974
322,-741,4.2959,9.59692,0,0,0,0,0,0,0,-1,1546,1765,4.29588,-9.59689
329,-741,4.39771,10.4552,0,0,0,0,0,0,0,-1,1553,1765,4.39773,-10.4552
336,-741,4.57361,10.9913,0,0,0,0,0,0,0,-1,1560,1765,4.57358,-10.9914
343,-741,5.42297,5.93701,0,0,0,0,0,0,0,-1,1567,1765,5.42296,-5.937
350,-741,4.90369,5.44666,0,0,0,0,0,0,0,-1,1574,1765,4.90368,-5.44664
357,-741,4.02063,5.16626,0,0,0,0,0,0,0,-1,1581,1765,4.02058,-5.1662
364,-741,0,0,0,0,0,0,0,0,0,-1,1588,1765,0,0
371,-741,0,0,0,0,0,0,0,0,0,-1,1595,1765,0,0
378,-741,0,0,0,0,0,0,0,0,0,-1,1602,1765,0,0
385,-741,0,0,0,0,0,0,0,0,0,-1,1609,1765,0,0
392,-741,0,0,0,0,0,0,0,0,0,-1,1616,1765,0,0
399,-741,0,0,0,0,0,0,0,0,0,-1,1623,1765,0,0
406,-741,0,0,0,0,0,0,0,0,0,-1,1630,1765,0,0
413,-741,0,0,0,0,0,0,0,0,0,-1,1637,1765,0,0
420,-741,0,0,0,0,0,0,0,0,0,-1,1644,1765,0,0
427,-741,0,0,0,0,0,0,0,0,0,-1,1651,1765,0,0
434,-741,0,0,0,0,0,0,0,0,0,-1,1658,1765,0,0
441,-741,0,0,0,0,0,0,0,0,0,-1,1665,1765,0,0
448,-741,0,0,0,0,0,0,0,0,0,-1,1672,1765,0,0
455,-741,0,0,0,0,0,0,0,0,0,-1,1679,1765,0,0
462,-741,0,0,0,0,0,0,0,0,0,-1,1686,1765,0,0
469,-741,0,0,0,0,0,0,0,0,0,-1,1693,1765,0,0
476,-741,0,0,0,0,0,0,0,0,0,-1,1700,1765,0,0
483,-741,0,0,0,0,0,0,0,0,0,-1,1707,1765,0,0
490,-741,0,0,0,0,0,0,0,0,0,-1,1714,1765,0,0
497,-741,0,0,0,0,0,0,0,0,0,-1,1721,1765,0,0
504,-741,0,0,0,0,0,0,0,0,0,-1,1728,1765,0,0
511,-741,0,0,0,0,0,0,0,0,0,-1,1735,1765,0,0
518,-741,0,0,0,0,0,0,0,0,0,-1,1742,1765,0,0
525,-741,0,0,0,0,0,0,0,0,0,-1,1749,1765,0,0
532,-741,0,0,0,0,0,0,0,0,0,-1,1756,1765,0,0
539,-741,0,0,0,0,0,0,0,0,0,-1,1763,1765,0,0
546,-741,0,0,0,0,0,0,0,0,0,-1,1770,1765,0,0
553,-741,0,0,0,0,0,0,0,0,0,-1,1777,1765,0,0
560,-741,0,0,0,0,0,0,0,0,0,-1,1784,1765,0,0
567,-741,0,0,0,0,0,0,0,0,0,-1,1791,1765,0,0
574,-741,0,0,0,0,0,0,0,0,0,-1,1798,1765,0,0
581,-741,0,0,0,0,0,0,0,0,0,-1,1805,1765,0,0
588,-741,0,0,0,0,0,0,0,0,0,-1,1812,1765,0,0
595,-741,0,0,0,0,0,0,0,0,0,-1,1819,1765,0,0
602,-741,0,0,0,0,0,0,0,0,0,-1,1826,1765,0,0
609,-741,0,0,0,0,0,0,0,0,0,-1,1833,1765,0,0
616,-741,0,0,0,0,0,0,0,0,0,-1,1840,1765,0,0
623,-741,0,0,0,0,0,0,0,0,0,-1,1847,1765,0,0
630,-741,0,0,0,0,0,0,0,0,0,-1,1854,1765,0,0
637,-741,0,0,0,0,0,0,0,0,0,-1,1861,1765,0,0
644,-741,0,0,0,0,0,0,0,0,0,-1,1868,1765,0,0
651,-741,0,0,0,0,0,0,0,0,0,-1,1875,1765,0,0
658,-741,0,0,0,0,0,0,0,0,0,-1,1882,1765,0,0
665,-741,0,0,0,0,0,0,0,0,0,-1,1889,1765,0,0
672,-741,0,0,0,0,0,0,0,0,0,-1,1896,1765,0,0
679,-741,0,0,0,0,0,0,0,0,0,-1,1903,1765,0,0
686,-741,0,0,0,0,0,0,0,0,0,-1,1910,1765,0,0
693,-741,0,0,0,0,0,0,0,0,0,-1,1917,1765,0,0
700,-741,0,0,0,0,0,0,0,0,0,-1,1924,1765,0,0
707,-741,0,0,0,0,0,0,0,0,0,-1,1931,1765,0,0
714,-741,0,0,0,0,0,0,0,0,0,-1,1938,1765,0,0
721,-741,0,0,0,0,0,0,0,0,0,-1,1945,1765,0,0
728,-741,0,0,0,0,0,0,0,0,0,-1,1952,1765,0,0
735,-741,0,0,0,0,0,0,0,0,0,-1,1959,1765,0,0
742,-741,0,0,0,0,0,0,0,0,0,-1,1966,1765,0,0
749,-741,0,0,0,0,0,0,0,0,0,-1,1973,1765,0,0
756,-741,0,0,0,0,0,0,0,0,0,-1,1980,1765,0,0
763,-741,0,0,0,0,0,0,0,0,0,-1,1987,1765,0,0
770,-741,0,0,0,0,0,0,0,0,0,-1,1994,1765,0,0
777,-741,0,0,0,0,0,0,0,0,0,-1,2001,1765,0,0
784,-741,0,0,0,0,0,0,0,0,0,-1,2008,1765,0,0
791,-741,0,0,0,0,0,0,0,0,0,-1,2015,1765,0,0
798,-741,0,0,0,0,0,0,0,0,0,-1,2022,1765,0,0
805,-741,0,0,0,0,0,0,0,0,0,-1,2029,1765,0,0
812,-741,0,0,0,0,0,0,0,0,0,-1,2036,1765,0,0
-700,-748,0,0,0,0,0,0,0,0,0,-1,524,1772,0,0
-693,-748,0,0,0,0,0,0,0,0,0,-1,531,1772,0,0
-686,-748,0,0,0,0,0,0,0,0,0,-1,538,1772,0,0
-679,-748,0,0,0,0,0,0,0,0,0,-1,545,1772,0,0
-672,-748,0,0,0,0,0,0,0,0,0,-1,552,1772,0,0
-665,-748,0,0,0,0,0,0,0,0,0,-1,559,1772,0,0
-658,-748,0,0,0,0,0,0,0,0,0,-1,566,1772,0,0
-651,-748,0,0,0,0,0,0,0,0,0,-1,573,1772,0,0
-644,-748,0,0,0,0,0,0,0,0,0,-1,580,1772,0,0
-637,-748,0,0,0,0,0,0,0,0,0,-1,587,1772,0,0
-630,-748,0,0,0,0,0,0,0,0,0,-1,594,1772,0,0
-623,-748,0,0,0,0,0,0,0,0,0,-1,601,1772,0,0
-616,-748,0,0,0,0,0,0,0,0,0,-1,608,1772,0,0
-609,-748,0,0,0,0,0,0,0,0,0,-1,615,1772,0,0
-602,-748,0,0,0,0,0,0,0,0,0,-1,622,1772,0,0
-595,-748,0,0,0,0,0,0,0,0,0,-1,629,1772,0,0
-588,-748,0,0,0,0,0,0,0,0,0,-1,636,1772,0,0
-581,-748,0,0,0,0,0,0,0,0,0,-1,643,1772,0,0
-574,-748,0,0,0,0,0,0,0,0,0,-1,650,1772,0,0
-567,-748,0,0,0,0,0,0,0,0,0,-1,657,1772,0,0
-560,-748,0,0,0,0,0,0,0,0,0,-1,664,1772,0,0
-553,-748,0,0,0,0,0,0,0,0,0,-1,671,1772,0,0
-546,-748,0,0,0,0,0,0,0,0,0,-1,678,1772,0,0
-539,-748,0,0,0,0,0,0,0,0,0,-1,685,1772,0,0
-532,-748,0,0,0,0,0,0,0,0,0,-1,692,1772,0,0
-525,-748,0,0,0,0,0,0,0,0,0,-1,699,1772,0,0
-518,-748,0,0,0,0,0,0,0,0,0,-1,706,1772,0,0
-511,-748,0,0,0,0,0,0,0,0,0,-1,713,1772,0,0
-504,-748,0,0,0,0,0,0,0,0,0,-1,720,1772,0,0
-497,-748,0,0,0,0,0,0,0,0,0,-1,727,1772,0,0
-490,-748,0,0,0,0,0,0,0,0,0,-1,734,1772,0,0
-483,-748,0,0,0,0,0,0,0,0,0,-1,741,1772,0,0
-476,-748,0,0,0,0,0,0,0,0,0,-1,748,1772,0,0
-469,-748,0,0,0,0,0,0,0,0,0,-1,755,1772,0,0
-462,-748,0,0,0,0,0,0,0,0,0,-1,762,1772,0,0
-455,-748,0,0,0,0,0,0,0,0,0,-1,769,1772,0,0
-448,-748,0,0,0,0,0,0,0,0,0,-1,776,1772,0,0
-441,-748,0,0,0,0,0,0,0,0,0,-1,783,1772,0,0
-434,-748,0,0,0,0,0,0,0,0,0,-1,790,1772,0,0
-427,-748,0,0,0,0,0,0,0,0,0,-1,797,1772,0,0
-420,-748,0,0,0,0,0,0,0,0,0,-1,804,1772,0,0
-413,-748,0,0,0,0,0,0,0,0,0,-1,811,1772,0,0
-406,-748,0,0,0,0,0,0,0,0,0,-1,818,1772,0,0
-399,-748,0,0,0,0,0,0,0,0,0,-1,825,1772,0,0
-392,-748,0,0,0,0,0,0,0,0,0,-1,832,1772,0,0
-385,-748,0,0,0,0,0,0,0,0,0,-1,839,1772,0,0
-378,-748,0,0,0,0,0,0,0,0,0,-1,846,1772,0,0
-371,-748,0,0,0,0,0,0,0,0,0,-1,853,1772,0,0
-364,-748,0,0,0,0,0,0,0,0,0,-1,860,1772,0,0
-357,-748,0,0,0,0,0,0,0,0,0,-1,867,1772,0,0
-350,-748,0,0,0,0,0,0,0,0,0,-1,874,1772,0,0
-343,-748,0,0,0,0,0,0,0,0,0,-1,881,1772,0,0
-336,-748,0,0,0,0,0,0,0,0,0,-1,888,1772,0,0
-329,-748,0,0,0,0,0,0,0,0,0,-1,895,1772,0,0
-322,-748,0,0,0,0,0,0,0,0,0,-1,902,1772,0,0
-315,-748,0,0,0,0,0,0,0,0,0,-1,909,1772,0,0
-308,-748,0,0,0,0,0,0,0,0,0,-1,916,1772,0,0
-301,-748,0,0,0,0,0,0,0,0,0,-1,923,1772,0,0
-294,-748,0,0,0,0,0,0,0,0,0,-1,930,1772,0,0
-287,-748,0,0,0,0,0,0,0,0,0,-1,937,1772,0,0
-280,-748,0,0,0,0,0,0,0,0,0,-1,944,1772,0,0
-273,-748,0,0,0,0,0,0,0,0,0,-1,951,1772,0,0
-266,-748,0,0,0,0,0,0,0,0,0,-1,958,1772,0,0
-259,-748,0,0,0,0,0,0,0,0,0,-1,965,1772,0,0
-252,-748,0,0,0,0,0,0,0,0,0,-1,972,1772,0,0
-245,-748,0,0,0,0,0,0,0,0,0,-1,979,1772,0,0
-238,-748,0,0,0,0,0,0,0,0,0,-1,986,1772,0,0
-231,-748,0,0,0,0,0,0,0,0,0,-1,993,1772,0,0
-224,-748,0,0,0,0,0,0,0,0,0,-1,1000,1772,0,0
-217,-748,-1.61462,7.0321,0,0,0,0,0,0,0,-1,1007,1772,-1.6146,-7.03208
-210,-748,5.77686,6.50037,0,0,0,0,0,0,0,-1,1014,1772,5.77684,-6.50038
-203,-748,0.00524902,6.63794,0,0,0,0,0,0,0,-1,1021,1772,0.00526096,-6.63799
-196,-748,-0.71582,7.0614,0,0,0,0,0,0,0,-1,1028,1772,-0.715836,-7.06136
-189,-748,-0.23999,7.08997,0,0,0,0,0,0,0,-1,1035,1772,-0.240028,-7.09
-182,-748,0.484375,6.4989,0,0,0,0,0,0,0,-1,1042,1772,0.484331,-6.49892
-175,-748,0.508667,6.34583,0,0,0,0,0,0,0,-1,1049,1772,0.508709,-6.3458
-168,-748,0.523438,5.92261,0,0,0,0,0,0,0,-1,1056,1772,0.523467,-5.92261
-161,-748,-0.00854492,4.32715,0,0,0,0,0,0,0,-1,1063,1772,-0.00849544,-4.32713
-154,-748,-0.446655,3.8877,0,0,0,0,0,0,0,-1,1070,1772,-0.446595,-3.88769
-147,-748,2.06494,4.80322,0,0,0,0,0,0,0,-1,1077,1772,2.06489,-4.80324
-140,-748,3.51233,6.42175,0,0,0,0,0,0,0,-1,1084,1772,3.51232,-6.42171
-133,-748,4.38,8.2804,0,0,0,0,0,0,0,-1,1091,1772,4.37998,-8.28039
-126,-748,4.50488,7.07581,0,0,0,0,0,0,0,-1,1098,1772,4.50491,-7.07578
-119,-748,3.28845,8.10132,0,0,0,0,0,0,0,-1,1105,1772,3.28847,-8.10132
-112,-748,3.8064,8.26697,0,0,0,0,0,0,0,-1,1112,1772,3.80643,-8.26693
-105,-748,3.69202,8.39539,0.00394839,-0.000909699,0.00117642,0.00421827,-0.00117958,0.22551,0.00327692,0.045512,1119,1772,3.69206,-8.39539
-98,-748,3.73816,8.47888,0.00338706,-0.00075429,0.00117769,0.00369853,-0.00106577,0.258561,0.00288727,0.0454629,1126,1772,3.7382,-8.47888
-91,-748,3.79858,8.30225,0,0,0,0,0,0,0,-1,1133,1772,3.79852,-8.30229
-84,-748,3.98889,8.39246,0,0,0,0,0,0,0,-1,1140,1772,3.98891,-8.39241
-77,-748,3.53442,8.60107,0,0,0,0,0,0,0,-1,1147,1772,3.53444,-8.60103
-70,-748,3.59326,8.69617,0,0,0,0,0,0,0,-1,1154,1772,3.59332,-8.69614
-63,-748,3.59143,8.69568,0,0,0,0,0,0,0,-1,1161,1772,3.59139,-8.6957
-56,-748,3.05762,7.87817,0,0,0,0,0,0,0,-1,1168,1772,3.05768,-7.87822
-49,-748,3.04102,7.82471,0,0,0,0,0,0,0,-1,1175,1772,3.04096,-7.82468
-42,-748,3.44434,8.53076,0,0,0,0,0,0,0,-1,1182,1772,3.4443,-8.53077
-35,-748,3.63342,8.83276,0,0,0,0,0,0,0,-1,1189,1772,3.63346,-8.8328
-28,-748,3.63489,8.91064,0,0,0,0,0,0,0,-1,1196,1772,3.63493,-8.91062
-21,-748,3.62292,8.95984,0.000867063,0.00181409,0.00244292,0.00382896,-0.00114781,0.881126,0.00300912,0.0230633,1203,1772,3.62293,-8.95989
-14,-748,3.61646,8.94617,0.000660881,0.00144094,0.00223595,0.00332062,-0.0012188,0.871747,0.00271286,0.0157628,1210,1772,3.61648,-8.94618
-7,-748,3.60596,8.96582,0.000496885,0.00102414,0.00204177,0.00281924,-0.00129821,0.849602,0.00243067,0.0151864,1217,1772,3.6059,-8.96588
0,-748,3.59106,8.98926,0.000731698,0.000763871,0.00182731,0.00257517,-0.0010796,0.7898,0.00216817,0.014768,1224,1772,3.59107,-8.9893
7,-748,3.58167,9.00415,0.000898105,0.000450395,0.00158772,0.00227767,-0.000929174,0.715364,0.00190526,0.014298,1231,1772,3.58172,-9.00413
14,-748,3.58289,9.03076,0.00195399,0.000408025,0.00150043,0.00286885,-0.000506832,0.547542,0.00210198,0.0149751,1238,1772,3.58291,-9.03082
21,-748,3.59338,9.06018,0.00342203,0.000985424,0.00106255,0.00382029,0.000587168,0.358607,0.00237545,0.0104186,1245,1772,3.59342,-9.06021
28,-748,3.5614,9.09924,0.00440876,0.00175318,0.000854236,0.00465982,0.00150212,0.285843,0.00274636,0.0106167,1252,1772,3.5614,-9.09924
35,-748,3.57581,9.09521,0.00548897,0.00260278,0.000779135,0.00568587,0.00240588,0.24753,0.00329564,0.0120071,1259,1772,3.57586,-9.09516
42,-748,3.58521,9.11072,0.00664155,0.00322531,0.000673242,0.00676944,0.00309742,0.187723,0.00391303,0.0129413,1266,1772,3.58523,-9.11076
49,-748,3.573,9.12134,0.00767974,0.00399673,0.000570462,0.00776608,0.00391039,0.150202,0.00448378,0.0100531,1273,1772,3.57294,-9.12136
56,-748,3.53442,9.13196,0.00850409,0.00469572,0.000653045,0.00861296,0.00458685,0.165191,0.00497621,0.0103471,1280,1772,3.53448,-9.13196
63,-748,3.51843,9.12488,0.0092604,0.00515827,0.00090739,0.00945215,0.00496652,0.208258,0.00545955,0.0124515,1287,1772,3.51846,-9.12483
70,-748,3.52698,9.15015,0.00987462,0.00512536,0.000935154,0.0100521,0.00494786,0.187579,0.00580383,0.0136909,1294,1772,3.52695,-9.1502
77,-748,3.53479,9.1748,0.0100251,0.00445722,0.00087936,0.0101607,0.00432164,0.152975,0.00588805,0.0130971,1301,1772,3.53477,-9.17478
84,-748,3.50867,9.1814,0.00982313,0.00360764,0.000957204,0.00996721,0.00346357,0.149393,0.00584311,0.0145701,1308,1772,3.50872,-9.18144
91,-748,3.49048,9.17322,0.00938441,0.00246552,0.00119375,0.00958458,0.00226534,0.166138,0.00578441,0.0113641,1315,1772,3.49053,-9.17316
98,-748,3.48682,9.15466,0.00900853,0.000854033,0.00141519,0.00924715,0.000615413,0.167042,0.00597021,0.010491,1322,1772,3.48681,-9.15472
105,-748,3.50977,9.13086,0.00837813,-0.000856574,0.00144084,0.00859772,-0.00107616,0.151237,0.00612214,0.0121714,1329,1772,3.50981,-9.13083
112,-748,3.52966,9.13464,0.00782649,-0.00259489,0.00147292,0.00803067,-0.00279907,0.137743,0.00649119,0.014853,1336,1772,3.52969,-9.13463
119,-748,3.50159,9.13342,0.00675483,-0.00444705,0.00129809,0.00690329,-0.00459551,0.113871,0.00668325,0.013,1343,1772,3.50154,-9.13339
126,-748,3.49622,9.12463,0.00598297,-0.00628472,0.00156541,0.00617958,-0.00648132,0.124937,0.00731046,0.0151428,1350,1772,3.49624,-9.12463
133,-748,3.47534,9.10327,0.00630573,-0.0075989,0.00141005,0.00644728,-0.00774045,0.100051,0.00820263,0.0095588,1357,1772,3.47536,-9.1033
140,-748,3.49695,9.09521,0.00644272,-0.00822028,0.00113881,0.00653064,-0.00830819,0.0770495,0.00858767,0.012282,1364,1772,3.49695,-9.09516
147,-748,3.53015,9.09436,0.00611135,-0.0076455,0.000926313,0.00617345,-0.00770759,0.066932,0.00803052,0.013107,1371,1772,3.53012,-9.09434
154,-748,3.50171,9.0741,0.0055098,-0.0069842,0.000765945,0.00555658,-0.00703098,0.0610005,0.00728403,0.0116494,1378,1772,3.50175,-9.07411
161,-748,3.50208,9.06238,0.00510704,-0.00600663,0.000495116,0.00512906,-0.00602865,0.0444328,0.00644888,0.0184283,1385,1772,3.5021,-9.06235
168,-748,3.52136,9.0603,0,0,0,0,0,0,0,-1,1392,1772,3.52132,-9.0603
175,-748,3.53247,8.91138,0,0,0,0,0,0,0,-1,1399,1772,3.53253,-8.91138
182,-748,4.04333,7.34631,0,0,0,0,0,0,0,-1,1406,1772,4.04333,-7.34631
189,-748,6.15857,6.95898,0,0,0,0,0,0,0,-1,1413,1772,6.15862,-6.95896
196,-748,3.9425,8.46021,0,0,0,0,0,0,0,-1,1420,1772,3.9425,-8.46026
203,-748,3.61255,8.66064,0,0,0,0,0,0,0,-1,1427,1772,3.61256,-8.6606
210,-748,3.35144,8.79492,0.00914155,0.00100512,0.00782206,0.0138901,-0.00374341,0.545601,0.0107278,0.0440796,1434,1772,3.35145,-8.79496
217,-748,3.49585,8.77954,0.0123336,0.000373223,0.0112205,0.0190681,-0.00636128,0.540562,0.0152804,0.0376181,1441,1772,3.49584,-8.77958
224,-748,3.69202,8.72278,0.0158947,-0.000619526,0.0150435,0.0247982,-0.00952299,0.534405,0.0204591,0.040945,1448,1772,3.69199,-8.72284
231,-748,3.50867,8.98584,0.0198158,-0.00182041,0.0192922,0.0311161,-0.0131207,0.529869,0.026235,0.0432352,1455,1772,3.50865,-8.98589
238,-748,3.38818,8.70117,0.0242337,-0.00325786,0.023683,0.0378709,-0.0168951,0.522454,0.032383,0.0498227,1462,1772,3.38817,-8.70122
245,-748,3.36609,8.49963,0.0288732,-0.00479578,0.0282619,0.0449345,-0.0208571,0.516787,0.0388235,0.0486495,1469,1772,3.36609,-8.49965
252,-748,3.53833,8.28479,0,0,0,0,0,0,0,-1,1476,1772,3.53829,-8.28482
259,-748,4.29004,8.10437,0,0,0,0,0,0,0,-1,1483,1772,4.29003,-8.10437
266,-748,4.41602,9.18872,0,0,0,0,0,0,0,-1,1490,1772,4.41608,-9.18877
273,-748,13.7605,5.31213,0,0,0,0,0,0,0,-1,1497,1772,13.7606,-5.31218
280,-748,12.8395,5.65588,0,0,0,0,0,0,0,-1,1504,1772,12.8394,-5.65583
287,-748,11.6401,6.0033,0,0,0,0,0,0,0,-1,1511,1772,11.6402,-6.00334
294,-748,10.4482,7.11133,0,0,0,0,0,0,0,-1,1518,1772,10.4482,-7.11139
301,-748,8.95642,7.54529,0,0,0,0,0,0,0,-1,1525,1772,8.95648,-7.54535
308,-748,7.4115,7.69897,0,0,0,0,0,0,0,-1,1532,1772,7.41155,-7.69895
315,-748,5.97766,7.90857,0,0,0,0,0,0,0,-1,1539,1772,5.97761,-7.90861
322,-748,4.04858,10.8451,0,0,0,0,0,0,0,-1,1546,1772,4.04864,-10.8451
329,-748,4.02124,11.4072,0,0,0,0,0,0,0,-1,1553,1772,4.02123,-11.4072
336,-748,4.12537,11.9,0,0,0,0,0,0,0,-1,1560,1772,4.12538,-11.9
343,-748,0,0,0,0,0,0,0,0,0,-1,1567,1772,0,0
350,-748,0,0,0,0,0,0,0,0,0,-1,1574,1772,0,0
357,-748,0,0,0,0,0,0,0,0,0,-1,1581,1772,0,0
364,-748,0,0,0,0,0,0,0,0,0,-1,1588,1772,0,0
371,-748,0,0,0,0,0,0,0,0,0,-1,1595,1772,0,0
378,-748,0,0,0,0,0,0,0,0,0,-1,1602,1772,0,0
385,-748,0,0,0,0,0,0,0,0,0,-1,1609,1772,0,0
392,-748,0,0,0,0,0,0,0,0,0,-1,1616,1772,0,0
399,-748,0,0,0,0,0,0,0,0,0,-1,1623,1772,0,0
406,-748,0,0,0,0,0,0,0,0,0,-1,1630,1772,0,0
413,-748,0,0,0,0,0,0,0,0,0,-1,1637,1772,0,0
420,-748,0,0,0,0,0,0,0,0,0,-1,1644,1772,0,0
427,-748,0,0,0,0,0,0,0,0,0,-1,1651,1772,0,0
434,-748,0,0,0,0,0,0,0,0,0,-1,1658,1772,0,0
441,-748,0,0,0,0,0,0,0,0,0,-1,1665,1772,0,0
448,-748,0,0,0,0,0,0,0,0,0,-1,1672,1772,0,0
455,-748,0,0,0,0,0,0,0,0,0,-1,1679,1772,0,0
462,-748,0,0,0,0,0,0,0,0,0,-1,1686,1772,0,0
469,-748,0,0,0,0,0,0,0,0,0,-1,1693,1772,0,0
476,-748,0,0,0,0,0,0,0,0,0,-1,1700,1772,0,0
483,-748,0,0,0,0,0,0,0,0,0,-1,1707,1772,0,0
490,-748,0,0,0,0,0,0,0,0,0,-1,1714,1772,0,0
497,-748,0,0,0,0,0,0,0,0,0,-1,1721,1772,0,0
504,-748,0,0,0,0,0,0,0,0,0,-1,1728,1772,0,0
511,-748,0,0,0,0,0,0,0,0,0,-1,1735,1772,0,0
518,-748,0,0,0,0,0,0,0,0,0,-1,1742,1772,0,0
525,-748,0,0,0,0,0,0,0,0,0,-1,1749,1772,0,0
532,-748,0,0,0,0,0,0,0,0,0,-1,1756,1772,0,0
539,-748,0,0,0,0,0,0,0,0,0,-1,1763,1772,0,0
546,-748,0,0,0,0,0,0,0,0,0,-1,1770,1772,0,0
553,-748,0,0,0,0,0,0,0,0,0,-1,1777,1772,0,0
560,-748,0,0,0,0,0,0,0,0,0,-1,1784,1772,0,0
567,-748,0,0,0,0,0,0,0,0,0,-1,1791,1772,0,0
574,-748,0,0,0,0,0,0,0,0,0,-1,1798,1772,0,0
581,-748,0,0,0,0,0,0,0,0,0,-1,1805,1772,0,0
588,-748,0,0,0,0,0,0,0,0,0,-1,1812,1772,0,0
595,-748,0,0,0,0,0,0,0,0,0,-1,1819,1772,0,0
602,-748,0,0,0,0,0,0,0,0,0,-1,1826,1772,0,0
609,-748,0,0,0,0,0,0,0,0,0,-1,1833,1772,0,0
616,-748,0,0,0,0,0,0,0,0,0,-1,1840,1772,0,0
623,-748,0,0,0,0,0,0,0,0,0,-1,1847,1772,0,0
630,-748,0,0,0,0,0,0,0,0,0,-1,1854,1772,0,0
637,-748,0,0,0,0,0,0,0,0,0,-1,1861,1772,0,0
644,-748,0,0,0,0,0,0,0,0,0,-1,1868,1772,0,0
651,-748,0,0,0,0,0,0,0,0,0,-1,1875,1772,0,0
658,-748,0,0,0,0,0,0,0,0,0,-1,1882,1772,0,0
665,-748,0,0,0,0,0,0,0,0,0,-1,1889,1772,0,0
672,-748,0,0,0,0,0,0,0,0,0,-1,1896,1772,0,0
679,-748,0,0,0,0,0,0,0,0,0,-1,1903,1772,0,0
686,-748,0,0,0,0,0,0,0,0,0,-1,1910,1772,0,0
693,-748,0,0,0,0,0,0,0,0,0,-1,1917,1772,0,0
700,-748,0,0,0,0,0,0,0,0,0,-1,1924,1772,0,0
707,-748,0,0,0,0,0,0,0,0,0,-1,1931,1772,0,0
714,-748,0,0,0,0,0,0,0,0,0,-1,1938,1772,0,0
721,-748,0,0,0,0,0,0,0,0,0,-1,1945,1772,0,0
728,-748,0,0,0,0,0,0,0,0,0,-1,1952,1772,0,0
735,-748,0,0,0,0,0,0,0,0,0,-1,1959,1772,0,0
742,-748,0,0,0,0,0,0,0,0,0,-1,1966,1772,0,0
749,-748,0,0,0,0,0,0,0,0,0,-1,1973,1772,0,0
756,-748,0,0,0,0,0,0,0,0,0,-1,1980,1772,0,0
763,-748,0,0,0,0,0,0,0,0,0,-1,1987,1772,0,0
770,-748,0,0,0,0,0,0,0,0,0,-1,1994,1772,0,0
777,-748,0,0,0,0,0,0,0,0,0,-1,2001,1772,0,0
784,-748,0,0,0,0,0,0,0,0,0,-1,2008,1772,0,0
791,-748,0,0,0,0,0,0,0,0,0,-1,2015,1772,0,0
798,-748,0,0,0,0,0,0,0,0,0,-1,2022,1772,0,0
805,-748,0,0,0,0,0,0,0,0,0,-1,2029,1772,0,0
812,-748,0,0,0,0,0,0,0,0,0,-1,2036,1772,0,0
-700,-755,0,0,0,0,0,0,0,0,0,-1,524,1779,0,0
-693,-755,0,0,0,0,0,0,0,0,0,-1,531,1779,0,0
-686,-755,0,0,0,0,0,0,0,0,0,-1,538,1779,0,0
-679,-755,0,0,0,0,0,0,0,0,0,-1,545,1779,0,0
-672,-755,0,0,0,0,0,0,0,0,0,-1,552,1779,0,0
-665,-755,0,0,0,0,0,0,0,0,0,-1,559,1779,0,0
-658,-755,0,0,0,0,0,0,0,0,0,-1,566,1779,0,0
-651,-755,0,0,0,0,0,0,0,0,0,-1,573,1779,0,0
-644,-755,0,0,0,0,0,0,0,0,0,-1,580,1779,0,0
-637,-755,0,0,0,0,0,0,0,0,0,-1,587,1779,0,0
-630,-755,0,0,0,0,0,0,0,0,0,-1,594,1779,0,0
-623,-755,0,0,0,0,0,0,0,0,0,-1,601,1779,0,0
-616,-755,0,0,0,0,0,0,0,0,0,-1,608,1779,0,0
-609,-755,0,0,0,0,0,0,0,0,0,-1,615,1779,0,0
-602,-755,0,0,0,0,0,0,0,0,0,-1,622,1779,0,0
-595,-755,0,0,0,0,0,0,0,0,0,-1,629,1779,0,0
-588,-755,0,0,0,0,0,0,0,0,0,-1,636,1779,0,0
-581,-755,0,0,0,0,0,0,0,0,0,-1,643,1779,0,0
-574,-755,0,0,0,0,0,0,0,0,0,-1,650,1779,0,0
-567,-755,0,0,0,0,0,0,0,0,0,-1,657,1779,0,0
-560,-755,0,0,0,0,0,0,0,0,0,-1,664,1779,0,0
-553,-755,0,0,0,0,0,0,0,0,0,-1,671,1779,0,0
-546,-755,0,0,0,0,0,0,0,0,0,-1,678,1779,0,0
-539,-755,0,0,0,0,0,0,0,0,0,-1,685,1779,0,0
-532,-755,0,0,0,0,0,0,0,0,0,-1,692,1779,0,0
-525,-755,0,0,0,0,0,0,0,0,0,-1,699,1779,0,0
-518,-755,0,0,0,0,0,0,0,0,0,-1,706,1779,0,0
-511,-755,0,0,0,0,0,0,0,0,0,-1,713,1779,0,0
-504,-755,0,0,0,0,0,0,0,0,0,-1,720,1779,0,0
-497,-755,0,0,0,0,0,0,0,0,0,-1,727,1779,0,0
-490,-755,0,0,0,0,0,0,0,0,0,-1,734,1779,0,0
-483,-755,0,0,0,0,0,0,0,0,0,-1,741,1779,0,0
-476,-755,0,0,0,0,0,0,0,0,0,-1,748,1779,0,0
-469,-755,0,0,0,0,0,0,0,0,0,-1,755,1779,0,0
-462,-755,0,0,0,0,0,0,0,0,0,-1,762,1779,0,0
-455,-755,0,0,0,0,0,0,0,0,0,-1,769,1779,0,0
-448,-755,0,0,0,0,0,0,0,0,0,-1,776,1779,0,0
-441,-755,0,0,0,0,0,0,0,0,0,-1,783,1779,0,0
-434,-755,0,0,0,0,0,0,0,0,0,-1,790,1779,0,0
-427,-755,0,0,0,0,0,0,0,0,0,-1,797,1779,0,0
-420,-755,0,0,0,0,0,0,0,0,0,-1,804,1779,0,0
-413,-755,0,0,0,0,0,0,0,0,0,-1,811,1779,0,0
-406,-755,0,0,0,0,0,0,0,0,0,-1,818,1779,0,0
-399,-755,0,0,0,0,0,0,0,0,0,-1,825,1779,0,0
-392,-755,0,0,0,0,0,0,0,0,0,-1,832,1779,0,0
-385,-755,0,0,0,0,0,0,0,0,0,-1,839,1779,0,0
-378,-755,0,0,0,0,0,0,0,0,0,-1,846,1779,0,0
-371,-755,0,0,0,0,0,0,0,0,0,-1,853,1779,0,0
-364,-755,0,0,0,0,0,0,0,0,0,-1,860,1779,0,0
-357,-755,0,0,0,0,0,0,0,0,0,-1,867,1779,0,0
-350,-755,0,0,0,0,0,0,0,0,0,-1,874,1779,0,0
-343,-755,0,0,0,0,0,0,0,0,0,-1,881,1779,0,0
-336,-755,0,0,0,0,0,0,0,0,0,-1,888,1779,0,0
-329,-755,0,0,0,0,0,0,0,0,0,-1,895,1779,0,0
-322,-755,0,0,0,0,0,0,0,0,0,-1,902,1779,0,0
-315,-755,0,0,0,0,0,0,0,0,0,-1,909,1779,0,0
-308,-755,0,0,0,0,0,0,0,0,0,-1,916,1779,0,0
-301,-755,0,0,0,0,0,0,0,0,0,-1,923,1779,0,0
-294,-755,0,0,0,0,0,0,0,0,0,-1,930,1779,0,0
-287,-755,0,0,0,0,0,0,0,0,0,-1,937,1779,0,0
-280,-755,0,0,0,0,0,0,0,0,0,-1,944,1779,0,0
-273,-755,0,0,0,0,0,0,0,0,0,-1,951,1779,0,0
-266,-755,0,0,0,0,0,0,0,0,0,-1,958,1779,0,0
-259,-755,0,0,0,0,0,0,0,0,0,-1,965,1779,0,0
-252,-755,0,0,0,0,0,0,0,0,0,-1,972,1779,0,0
-245,-755,0,0,0,0,0,0,0,0,0,-1,979,1779,0,0
-238,-755,0,0,0,0,0,0,0,0,0,-1,986,1779,0,0
-231,-755,0,0,0,0,0,0,0,0,0,-1,993,1779,0,0
-224,-755,0,0,0,0,0,0,0,0,0,-1,1000,1779,0,0
-217,-755,0,0,0,0,0,0,0,0,0,-1,1007,1779,0,0
-210,-755,0,0,0,0,0,0,0,0,0,-1,1014,1779,0,0
-203,-755,-0.00384521,6.79468,0,0,0,0,0,0,0,-1,1021,1779,-0.00383115,-6.79471
-196,-755,0.200439,6.59558,0,0,0,0,0,0,0,-1,1028,1779,0.200491,-6.59555
-189,-755,0.543335,6.27173,0,0,0,0,0,0,0,-1,1035,1779,0.543395,-6.27173
-182,-755,0.288696,6.61926,0,0,0,0,0,0,0,-1,1042,1779,0.288659,-6.6193
-175,-755,0.21167,6.24048,0,0,0,0,0,0,0,-1,1049,1779,0.21166,-6.24045
-168,-755,0.258057,5.31042,0,0,0,0,0,0,0,-1,1056,1779,0.258013,-5.31048
-161,-755,-0.243896,4.86108,0,0,0,0,0,0,0,-1,1063,1779,-0.243862,-4.86114
-154,-755,-0.617554,4.43677,0,0,0,0,0,0,0,-1,1070,1779,-0.617534,-4.43676
-147,-755,-0.89917,3.97949,0,0,0,0,0,0,0,-1,1077,1779,-0.899109,-3.97954
-140,-755,4.19324,6.31934,0,0,0,0,0,0,0,-1,1084,1779,4.19325,-6.31939
-133,-755,4.32886,6.51428,0,0,0,0,0,0,0,-1,1091,1779,4.32892,-6.51431
-126,-755,3.70825,6.38074,0,0,0,0,0,0,0,-1,1098,1779,3.70824,-6.38071
-119,-755,2.59326,8.16394,0,0,0,0,0,0,0,-1,1105,1779,2.59323,-8.16399
-112,-755,3.08997,8.44714,0,0,0,0,0,0,0,-1,1112,1779,3.08997,-8.44714
-105,-755,3.67078,8.46643,0.00633441,-0.00257669,0.00192052,0.0067307,-0.00297298,0.203488,0.00574073,0.0470267,1119,1779,3.67076,-8.46637
-98,-755,3.76477,8.57202,0.00550703,-0.00204162,0.0019172,0.00596605,-0.00250064,0.234997,0.00502288,0.0468294,1126,1779,3.76474,-8.57197
-91,-755,3.73474,8.62561,0,0,0,0,0,0,0,-1,1133,1779,3.73469,-8.62562
-84,-755,0.915283,4.71985,0,0,0,0,0,0,0,-1,1140,1779,0.915256,-4.71984
-77,-755,2.42908,7.3092,0,0,0,0,0,0,0,-1,1147,1779,2.42913,-7.30916
-70,-755,4.16577,7.73206,0,0,0,0,0,0,0,-1,1154,1779,4.16579,-7.732
-63,-755,-1.36316,7.3147,0,0,0,0,0,0,0,-1,1161,1779,-1.36312,-7.31473
-56,-755,0.0483398,5.06079,0,0,0,0,0,0,0,-1,1168,1779,0.0483138,-5.06084
-49,-755,-1.32263,5.33716,0,0,0,0,0,0,0,-1,1175,1779,-1.32264,-5.33718
-42,-755,-2.03613,4.01672,0,0,0,0,0,0,0,-1,1182,1779,-2.0361,-4.01671
-35,-755,-2.72498,2.37476,0,0,0,0,0,0,0,-1,1189,1779,-2.72502,-2.37473
-28,-755,2.90063,7.53906,0,0,0,0,0,0,0,-1,1196,1779,2.90058,-7.53902
-21,-755,3.55859,9.0481,0,0,0,0,0,0,0,-1,1203,1779,3.55864,-9.04813
-14,-755,3.62524,8.92334,0.000676276,0.00259492,0.00335243,0.00512259,-0.00185139,0.924753,0.00417146,0.0324573,1210,1779,3.62519,-8.92336
-7,-755,3.61938,8.94617,0.000446308,0.00208384,0.00311178,0.00448276,-0.00195262,0.914041,0.00380999,0.022152,1217,1779,3.6194,-8.94614
0,-755,3.60486,8.98621,0.00174427,0.00190253,0.00286123,0.00468573,-0.00103892,0.799223,0.00352158,0.0130523,1224,1779,3.60491,-8.98619
7,-755,3.60095,9.00879,0.00307695,0.00158547,0.00252105,0.00496024,-0.00029782,0.641595,0.00341044,0.0124264,1231,1779,3.60098,-9.00881
14,-755,3.61194,9.04163,0.00564093,0.00166534,0.00232771,0.00671411,0.000592161,0.432,0.00429232,0.011082,1238,1779,3.61191,-9.04158
21,-755,3.57715,9.08289,0.00858162,0.00251929,0.00169408,0.0090229,0.00207801,0.25482,0.00545613,0.014426,1245,1779,3.57714,-9.08292
28,-755,3.55798,9.08936,0.0108265,0.00363886,0.00130451,0.011056,0.00340942,0.174097,0.00653756,0.0167875,1252,1779,3.55802,-9.08934
35,-755,3.56958,9.12097,0.0130948,0.00494207,0.000999926,0.0132156,0.00482122,0.120275,0.00772244,0.0180369,1259,1779,3.56962,-9.12099
42,-755,3.58838,9.11218,0.015247,0.00589095,0.00074051,0.0153052,0.0058327,0.0784964,0.00891939,0.0142702,1266,1779,3.58841,-9.11217
49,-755,3.58875,9.1095,0.017119,0.0070187,0.000478845,0.0171417,0.00699605,0.0472676,0.00995228,0.00980802,1273,1779,3.58873,-9.10946
56,-755,3.54993,9.12659,0.018509,0.0080482,0.00044761,0.0185281,0.00802908,0.0426854,0.0107288,0.00931012,1280,1779,3.54993,-9.12655
63,-755,3.54114,9.12915,0.0195679,0.00875386,0.000650442,0.0196069,0.00871488,0.0598604,0.0113433,0.00990808,1287,1779,3.54108,-9.12921
70,-755,3.55371,9.13965,0.0202526,0.00878945,0.000612824,0.0202852,0.00875678,0.0532582,0.0117481,0.011601,1294,1779,3.55376,-9.1397
77,-755,3.547,9.15613,0.0201255,0.00792658,0.000501515,0.0201461,0.007906,0.0410193,0.0117207,0.0104026,1301,1779,3.54705,-9.15616
84,-755,3.56335,9.14758,0.019418,0.00678571,0.000583393,0.0194449,0.00675883,0.0460519,0.0113991,0.0109211,1308,1779,3.56335,-9.14753
91,-755,3.53723,9.12659,0.0182818,0.0051887,0.000886943,0.0183416,0.00512889,0.0673315,0.010927,0.0108375,1315,1779,3.53726,-9.12659
98,-755,3.51257,9.11877,0.0172112,0.00295387,0.00120762,0.0173127,0.00285231,0.0839052,0.0107183,0.0118103,1322,1779,3.51254,-9.11872
105,-755,3.53943,9.14307,0.0155553,0.000480144,0.00130418,0.0156672,0.000368149,0.0856638,0.0103243,0.0161095,1329,1779,3.53948,-9.14307
112,-755,3.55286,9.13208,0.0139704,-0.00210756,0.00146153,0.0141022,-0.00223934,0.0899206,0.0102299,0.0208864,1336,1779,3.55285,-9.13209
119,-755,3.52588,9.12366,0.0118257,-0.00499119,0.00139478,0.0119406,-0.00510609,0.0821905,0.0101022,0.0196967,1343,1779,3.5259,-9.12362
126,-755,3.4718,9.15308,0.010348,-0.007956,0.00188344,0.0105398,-0.00814779,0.101481,0.0108187,0.0231568,1350,1779,3.47178,-9.15307
133,-755,3.36841,9.09973,0.0105397,-0.0103006,0.0018608,0.0107045,-0.0104654,0.0883572,0.0122227,0.0237668,1357,1779,3.3684,-9.09968
140,-755,3.34473,9.10095,0.0105248,-0.0118574,0.00180802,0.0106699,-0.0120025,0.0800873,0.0130974,0.0280604,1364,1779,3.34476,-9.10096
147,-755,3.48889,9.18066,0.0102242,-0.0113189,0.00156767,0.0103377,-0.0114324,0.072262,0.0125742,0.0279627,1371,1779,3.48893,-9.18067
154,-755,3.58154,9.10083,0.00955821,-0.0105614,0.00141468,0.0096572,-0.0106604,0.0698553,0.0117351,0.0306752,1378,1779,3.58159,-9.10086
161,-755,3.53296,9.07288,0,0,0,0,0,0,0,-1,1385,1779,3.53293,-9.07287
168,-755,3.98181,7.35901,0,0,0,0,0,0,0,-1,1392,1779,3.98184,-7.35904
175,-755,8.17065,1.34363,0,0,0,0,0,0,0,-1,1399,1779,8.1706,-1.34368
182,-755,8.09216,2.96924,0,0,0,0,0,0,0,-1,1406,1779,8.09213,-2.9693
189,-755,8.04419,4.68042,0,0,0,0,0,0,0,-1,1413,1779,8.04419,-4.68046
196,-755,7.74841,7.4541,0,0,0,0,0,0,0,-1,1420,1779,7.74842,-7.45405
203,-755,4.80554,6.88696,0,0,0,0,0,0,0,-1,1427,1779,4.80554,-6.88697
210,-755,3.28918,8.74207,0,0,0,0,0,0,0,-1,1434,1779,3.28913,-8.74204
217,-755,3.5575,8.79797,0,0,0,0,0,0,0,-1,1441,1779,3.55755,-8.79793
224,-755,3.08484,9.73584,0,0,0,0,0,0,0,-1,1448,1779,3.08485,-9.73581
231,-755,3.35254,8.71594,0,0,0,0,0,0,0,-1,1455,1779,3.35248,-8.71593
238,-755,3.37878,8.68396,0,0,0,0,0,0,0,-1,1462,1779,3.37879,-8.6839
245,-755,3.25671,8.19202,0,0,0,0,0,0,0,-1,1469,1779,3.25675,-8.19202
252,-755,3.17957,6.49109,0,0,0,0,0,0,0,-1,1476,1779,3.17951,-6.49107
259,-755,4.63794,7.53149,0,0,0,0,0,0,0,-1,1483,1779,4.63794,-7.53145
266,-755,3.75989,6.85742,0,0,0,0,0,0,0,-1,1490,1779,3.75985,-6.85745
273,-755,13.1906,5.96313,0,0,0,0,0,0,0,-1,1497,1779,13.1905,-5.9631
280,-755,12.3418,6.27014,0,0,0,0,0,0,0,-1,1504,1779,12.3418,-6.27013
287,-755,11.1982,6.51062,0,0,0,0,0,0,0,-1,1511,1779,11.1982,-6.5106
294,-755,10.0045,6.88745,0,0,0,0,0,0,0,-1,1518,1779,10.0046,-6.88743
301,-755,8.78479,7.66235,0,0,0,0,0,0,0,-1,1525,1779,8.78476,-7.66232
308,-755,6.96912,8.09277,0,0,0,0,0,0,0,-1,1532,1779,6.96916,-8.09279
315,-755,5.29932,8.15173,0,0,0,0,0,0,0,-1,1539,1779,5.29937,-8.15173
322,-755,0,0,0,0,0,0,0,0,0,-1,1546,1779,0,0
329,-755,0,0,0,0,0,0,0,0,0,-1,1553,1779,0,0
336,-755,0,0,0,0,0,0,0,0,0,-1,1560,1779,0,0
343,-755,0,0,0,0,0,0,0,0,0,-1,1567,1779,0,0
350,-755,0,0,0,0,0,0,0,0,0,-1,1574,1779,0,0
357,-755,0,0,0,0,0,0,0,0,0,-1,1581,1779,0,0
364,-755,0,0,0,0,0,0,0,0,0,-1,1588,1779,0,0
371,-755,0,0,0,0,0,0,0,0,0,-1,1595,1779,0,0
378,-755,0,0,0,0,0,0,0,0,0,-1,1602,1779,0,0
385,-755,0,0,0,0,0,0,0,0,0,-1,1609,1779,0,0
392,-755,0,0,0,0,0,0,0,0,0,-1,1616,1779,0,0
399,-755,0,0,0,0,0,0,0,0,0,-1,1623,1779,0,0
406,-755,0,0,0,0,0,0,0,0,0,-1,1630,1779,0,0
413,-755,0,0,0,0,0,0,0,0,0,-1,1637,1779,0,0
420,-755,0,0,0,0,0,0,0,0,0,-1,1644,1779,0,0
427,-755,0,0,0,0,0,0,0,0,0,-1,1651,1779,0,0
434,-755,0,0,0,0,0,0,0,0,0,-1,1658,1779,0,0
441,-755,0,0,0,0,0,0,0,0,0,-1,1665,1779,0,0
448,-755,0,0,0,0,0,0,0,0,0,-1,1672,1779,0,0
455,-755,0,0,0,0,0,0,0,0,0,-1,1679,1779,0,0
462,-755,0,0,0,0,0,0,0,0,0,-1,1686,1779,0,0
469,-755,0,0,0,0,0,0,0,0,0,-1,1693,1779,0,0
476,-755,0,0,0,0,0,0,0,0,0,-1,1700,1779,0,0
483,-755,0,0,0,0,0,0,0,0,0,-1,1707,1779,0,0
490,-755,0,0,0,0,0,0,0,0,0,-1,1714,1779,0,0
497,-755,0,0,0,0,0,0,0,0,0,-1,1721,1779,0,0
504,-755,0,0,0,0,0,0,0,0,0,-1,1728,1779,0,0
511,-755,0,0,0,0,0,0,0,0,0,-1,1735,1779,0,0
518,-755,0,0,0,0,0,0,0,0,0,-1,1742,1779,0,0
525,-755,0,0,0,0,0,0,0,0,0,-1,1749,1779,0,0
532,-755,0,0,0,0,0,0,0,0,0,-1,1756,1779,0,0
539,-755,0,0,0,0,0,0,0,0,0,-1,1763,1779,0,0
546,-755,0,0,0,0,0,0,0,0,0,-1,1770,1779,0,0
553,-755,0,0,0,0,0,0,0,0,0,-1,1777,1779,0,0
560,-755,0,0,0,0,0,0,0,0,0,-1,1784,1779,0,0
567,-755,0,0,0,0,0,0,0,0,0,-1,1791,1779,0,0
574,-755,0,0,0,0,0,0,0,0,0,-1,1798,1779,0,0
581,-755,0,0,0,0,0,0,0,0,0,-1,1805,1779,0,0
588,-755,0,0,0,0,0,0,0,0,0,-1,1812,1779,0,0
595,-755,0,0,0,0,0,0,0,0,0,-1,1819,1779,0,0
602,-755,0,0,0,0,0,0,0,0,0,-1,1826,1779,0,0
609,-755,0,0,0,0,0,0,0,0,0,-1,1833,1779,0,0
616,-755,0,0,0,0,0,0,0,0,0,-1,1840,1779,0,0
623,-755,0,0,0,0,0,0,0,0,0,-1,1847,1779,0,0
630,-755,0,0,0,0,0,0,0,0,0,-1,1854,1779,0,0
637,-755,0,0,0,0,0,0,0,0,0,-1,1861,1779,0,0
644,-755,0,0,0,0,0,0,0,0,0,-1,1868,1779,0,0
651,-755,0,0,0,0,0,0,0,0,0,-1,1875,1779,0,0
658,-755,0,0,0,0,0,0,0,0,0,-1,1882,1779,0,0
665,-755,0,0,0,0,0,0,0,0,0,-1,1889,1779,0,0
672,-755,0,0,0,0,0,0,0,0,0,-1,1896,1779,0,0
679,-755,0,0,0,0,0,0,0,0,0,-1,1903,1779,0,0
686,-755,0,0,0,0,0,0,0,0,0,-1,1910,1779,0,0
693,-755,0,0,0,0,0,0,0,0,0,-1,1917,1779,0,0
700,-755,0,0,0,0,0,0,0,0,0,-1,1924,1779,0,0
707,-755,0,0,0,0,0,0,0,0,0,-1,1931,1779,0,0
714,-755,0,0,0,0,0,0,0,0,0,-1,1938,1779,0,0
721,-755,0,0,0,0,0,0,0,0,0,-1,1945,1779,0,0
728,-755,0,0,0,0,0,0,0,0,0,-1,1952,1779,0,0
735,-755,0,0,0,0,0,0,0,0,0,-1,1959,1779,0,0
742,-755,0,0,0,0,0,0,0,0,0,-1,1966,1779,0,0
749,-755,0,0,0,0,0,0,0,0,0,-1,1973,1779,0,0
756,-755,0,0,0,0,0,0,0,0,0,-1,1980,1779,0,0
763,-755,0,0,0,0,0,0,0,0,0,-1,1987,1779,0,0
770,-755,0,0,0,0,0,0,0,0,0,-1,1994,1779,0,0
777,-755,0,0,0,0,0,0,0,0,0,-1,2001,1779,0,0
784,-755,0,0,0,0,0,0,0,0,0,-1,2008,1779,0,0
791,-755,0,0,0,0,0,0,0,0,0,-1,2015,1779,0,0
798,-755,0,0,0,0,0,0,0,0,0,-1,2022,1779,0,0
805,-755,0,0,0,0,0,0,0,0,0,-1,2029,1779,0,0
812,-755,0,0,0,0,0,0,0,0,0,-1,2036,1779,0,0
-700,-762,0,0,0,0,0,0,0,0,0,-1,524,1786,0,0
-693,-762,0,0,0,0,0,0,0,0,0,-1,531,1786,0,0
-686,-762,0,0,0,0,0,0,0,0,0,-1,538,1786,0,0
-679,-762,0,0,0,0,0,0,0,0,0,-1,545,1786,0,0
-672,-762,0,0,0,0,0,0,0,0,0,-1,552,1786,0,0
-665,-762,0,0,0,0,0,0,0,0,0,-1,559,1786,0,0
-658,-762,0,0,0,0,0,0,0,0,0,-1,566,1786,0,0
-651,-762,0,0,0,0,0,0,0,0,0,-1,573,1786,0,0
-644,-762,0,0,0,0,0,0,0,0,0,-1,580,1786,0,0
-637,-762,0,0,0,0,0,0,0,0,0,-1,587,1786,0,0
-630,-762,0,0,0,0,0,0,0,0,0,-1,594,1786,0,0
-623,-762,0,0,0,0,0,0,0,0,0,-1,601,1786,0,0
-616,-762,0,0,0,0,0,0,0,0,0,-1,608,1786,0,0
-609,-762,0,0,0,0,0,0,0,0,0,-1,615,1786,0,0
-602,-762,0,0,0,0,0,0,0,0,0,-1,622,1786,0,0
-595,-762,0,0,0,0,0,0,0,0,0,-1,629,1786,0,0
-588,-762,0,0,0,0,0,0,0,0,0,-1,636,1786,0,0
-581,-762,0,0,0,0,0,0,0,0,0,-1,643,1786,0,0
-574,-762,0,0,0,0,0,0,0,0,0,-1,650,1786,0,0
-567,-762,0,0,0,0,0,0,0,0,0,-1,657,1786,0,0
-560,-762,0,0,0,0,0,0,0,0,0,-1,664,1786,0,0
-553,-762,0,0,0,0,0,0,0,0,0,-1,671,1786,0,0
-546,-762,0,0,0,0,0,0,0,0,0,-1,678,1786,0,0
-539,-762,0,0,0,0,0,0,0,0,0,-1,685,1786,0,0
-532,-762,0,0,0,0,0,0,0,0,0,-1,692,1786,0,0
-525,-762,0,0,0,0,0,0,0,0,0,-1,699,1786,0,0
-518,-762,0,0,0,0,0,0,0,0,0,-1,706,1786,0,0
-511,-762,0,0,0,0,0,0,0,0,0,-1,713,1786,0,0
-504,-762,0,0,0,0,0,0,0,0,0,-1,720,1786,0,0
-497,-762,0,0,0,0,0,0,0,0,0,-1,727,1786,0,0
-490,-762,0,0,0,0,0,0,0,0,0,-1,734,1786,0,0
-483,-762,0,0,0,0,0,0,0,0,0,-1,741,1786,0,0
-476,-762,0,0,0,0,0,0,0,0,0,-1,748,1786,0,0
-469,-762,0,0,0,0,0,0,0,0,0,-1,755,1786,0,0
-462,-762,0,0,0,0,0,0,0,0,0,-1,762,1786,0,0
-455,-762,0,0,0,0,0,0,0,0,0,-1,769,1786,0,0
-448,-762,0,0,0,0,0,0,0,0,0,-1,776,1786,0,0
-441,-762,0,0,0,0,0,0,0,0,0,-1,783,1786,0,0
-434,-762,0,0,0,0,0,0,0,0,0,-1,790,1786,0,0
-427,-762,0,0,0,0,0,0,0,0,0,-1,797,1786,0,0
-420,-762,0,0,0,0,0,0,0,0,0,-1,804,1786,0,0
-413,-762,0,0,0,0,0,0,0,0,0,-1,811,1786,0,0
-406,-762,0,0,0,0,0,0,0,0,0,-1,818,1786,0,0
-399,-762,0,0,0,0,0,0,0,0,0,-1,825,1786,0,0
-392,-762,0,0,0,0,0,0,0,0,0,-1,832,1786,0,0
-385,-762,0,0,0,0,0,0,0,0,0,-1,839,1786,0,0
-378,-762,0,0,0,0,0,0,0,0,0,-1,846,1786,0,0
-371,-762,0,0,0,0,0,0,0,0,0,-1,853,1786,0,0
-364,-762,0,0,0,0,0,0,0,0,0,-1,860,1786,0,0
-357,-762,0,0,0,0,0,0,0,0,0,-1,867,1786,0,0
-350,-762,0,0,0,0,0,0,0,0,0,-1,874,1786,0,0
-343,-762,0,0,0,0,0,0,0,0,0,-1,881,1786,0,0
-336,-762,0,0,0,0,0,0,0,0,0,-1,888,1786,0,0
-329,-762,0,0,0,0,0,0,0,0,0,-1,895,1786,0,0
-322,-762,0,0,0,0,0,0,0,0,0,-1,902,1786,0,0
-315,-762,0,0,0,0,0,0,0,0,0,-1,909,1786,0,0
-308,-762,0,0,0,0,0,0,0,0,0,-1,916,1786,0,0
-301,-762,0,0,0,0,0,0,0,0,0,-1,923,1786,0,0
-294,-762,0,0,0,0,0,0,0,0,0,-1,930,1786,0,0
-287,-762,0,0,0,0,0,0,0,0,0,-1,937,1786,0,0
-280,-762,0,0,0,0,0,0,0,0,0,-1,944,1786,0,0
-273,-762,0,0,0,0,0,0,0,0,0,-1,951,1786,0,0
-266,-762,0,0,0,0,0,0,0,0,0,-1,958,1786,0,0
-259,-762,0,0,0,0,0,0,0,0,0,-1,965,1786,0,0
-252,-762,0,0,0,0,0,0,0,0,0,-1,972,1786,0,0
-245,-762,0,0,0,0,0,0,0,0,0,-1,979,1786,0,0
-238,-762,0,0,0,0,0,0,0,0,0,-1,986,1786,0,0
-231,-762,0,0,0,0,0,0,0,0,0,-1,993,1786,0,0
-224,-762,0,0,0,0,0,0,0,0,0,-1,1000,1786,0,0
-217,-762,0,0,0,0,0,0,0,0,0,-1,1007,1786,0,0
-210,-762,0,0,0,0,0,0,0,0,0,-1,1014,1786,0,0
-203,-762,0,0,0,0,0,0,0,0,0,-1,1021,1786,0,0
-196,-762,0,0,0,0,0,0,0,0,0,-1,1028,1786,0,0
-189,-762,0,0,0,0,0,0,0,0,0,-1,1035,1786,0,0
-182,-762,0.137695,6.81421,0,0,0,0,0,0,0,-1,1042,1786,0.137744,-6.8142
-175,-762,-0.06604,6.44214,0,0,0,0,0,0,0,-1,1049,1786,-0.0660878,-6.44209
-168,-762,0.158569,5.4408,0,0,0,0,0,0,0,-1,1056,1786,0.158592,-5.44083
-161,-762,-0.503296,5.44116,0,0,0,0,0,0,0,-1,1063,1786,-0.503241,-5.44112
-154,-762,-0.835449,4.99878,0,0,0,0,0,0,0,-1,1070,1786,-0.835489,-4.99884
-147,-762,-1.09119,4.58313,0,0,0,0,0,0,0,-1,1077,1786,-1.09124,-4.58313
-140,-762,5.07104,4.94971,0,0,0,0,0,0,0,-1,1084,1786,5.07106,-4.9497
-133,-762,3.86194,6.01416,0,0,0,0,0,0,0,-1,1091,1786,3.86191,-6.01415
-126,-762,3.71021,6.48877,0,0,0,0,0,0,0,-1,1098,1786,3.71016,-6.48882
-119,-762,3.43958,7.02002,0,0,0,0,0,0,0,-1,1105,1786,3.43954,-7.02002
-112,-762,3.54907,8.26746,0,0,0,0,0,0,0,-1,1112,1786,3.5491,-8.26748
-105,-762,3.65405,8.42969,0,0,0,0,0,0,0,-1,1119,1786,3.65399,-8.4297
-98,-762,3.75891,8.59192,0,0,0,0,0,0,0,-1,1126,1786,3.75888,-8.59193
-91,-762,3.23914,7.19287,0,0,0,0,0,0,0,-1,1133,1786,3.23912,-7.19293
-84,-762,3.35828,6.16516,0,0,0,0,0,0,0,-1,1140,1786,3.35825,-6.16516
-77,-762,-4.04419,5.80151,0,0,0,0,0,0,0,-1,1147,1786,-4.04414,-5.80157
-70,-762,-0.98877,7.82434,0,0,0,0,0,0,0,-1,1154,1786,-0.988791,-7.82432
-63,-762,0.350098,6.29749,0,0,0,0,0,0,0,-1,1161,1786,0.350114,-6.29743
-56,-762,-0.578979,5.10254,0,0,0,0,0,0,0,-1,1168,1786,-0.578951,-5.10249
-49,-762,-2.04541,3.66321,0,0,0,0,0,0,0,-1,1175,1786,-2.0454,-3.66319
-42,-762,-2.23462,3.474,0,0,0,0,0,0,0,-1,1182,1786,-2.23459,-3.47399
-35,-762,-3.28992,1.68164,0,0,0,0,0,0,0,-1,1189,1786,-3.28998,-1.68164
-28,-762,-3.75378,1.37769,0,0,0,0,0,0,0,-1,1196,1786,-3.75373,-1.37767
-21,-762,3.25549,8.10278,0,0,0,0,0,0,0,-1,1203,1786,3.2555,-8.10276
-14,-762,3.58374,8.91541,0,0,0,0,0,0,0,-1,1210,1786,3.5837,-8.9154
-7,-762,3.48706,8.95288,0.000273663,0.00416127,0.004573,0.00718644,-0.0027515,0.98636,0.00592506,0.0493354,1217,1786,3.48703,-8.95292
0,-762,3.62195,8.98206,0.00280421,0.00394189,0.00426113,0.00767198,-0.000925879,0.851753,0.00544956,0.0351214,1224,1786,3.62193,-8.98201
7,-762,3.64246,9.03369,0.0054412,0.00347595,0.00379915,0.00838274,0.000534407,0.65885,0.00541915,0.020707,1231,1786,3.64248,-9.0337
14,-762,3.64331,9.13623,0.00968953,0.00359013,0.00346711,0.0112573,0.00202231,0.424681,0.00692986,0.0337014,1238,1786,3.64336,-9.1362
21,-762,3.68347,9.18982,0.0143168,0.00467535,0.00258092,0.0149642,0.00402794,0.245774,0.00894124,0.0388632,1245,1786,3.68344,-9.18976
28,-762,3.63196,9.15991,0.0179848,0.00612238,0.00194508,0.0182956,0.00581159,0.158444,0.0107946,0.0373945,1252,1786,3.6319,-9.15989
35,-762,3.53796,9.16931,0.0215105,0.00786342,0.00136888,0.0216464,0.00772747,0.0989916,0.0126668,0.0420293,1259,1786,3.53791,-9.16927
42,-762,3.56995,9.13721,0.0247487,0.00915791,0.000912157,0.0248019,0.00910473,0.0582412,0.014487,0.041723,1266,1786,3.56989,-9.13722
49,-762,3.56824,9.13916,0.0275014,0.0106668,0.000456814,0.0275138,0.0106544,0.0271088,0.0160192,0.0317546,1273,1786,3.56825,-9.13921
56,-762,3.59778,9.13,0.0294643,0.0120537,0.000292173,0.0294692,0.0120488,0.0167751,0.017108,0.0219167,1280,1786,3.59777,-9.13
63,-762,3.55994,9.15283,0.0308273,0.0130189,0.000446082,0.0308384,0.0130077,0.0250281,0.017877,0.0210252,1287,1786,3.55993,-9.15288
70,-762,3.54993,9.16602,0.0316126,0.0131002,0.000351146,0.0316192,0.0130936,0.0189591,0.0183449,0.0193448,1294,1786,3.54998,-9.16599
77,-762,3.55945,9.16345,0.0312301,0.0119554,0.000193369,0.0312321,0.0119534,0.0100309,0.0181964,0.0245487,1301,1786,3.55951,-9.16344
84,-762,3.52869,9.12671,0,0,0,0,0,0,0,-1,1308,1786,3.52864,-9.12672
91,-762,3.3905,8.78699,0,0,0,0,0,0,0,-1,1315,1786,3.39044,-8.78694
98,-762,3.44006,8.63928,0,0,0,0,0,0,0,-1,1322,1786,3.4401,-8.6393
105,-762,3.47815,8.64893,0,0,0,0,0,0,0,-1,1329,1786,3.47814,-8.64894
112,-762,3.47449,8.57214,0,0,0,0,0,0,0,-1,1336,1786,3.4745,-8.57208
119,-762,3.85205,9.38867,0.0184086,-0.00585712,0.0016513,0.0185204,-0.00596898,0.0676354,0.014745,0.0434326,1343,1786,3.85203,-9.38869
126,-762,3.84863,9.38904,0.0163012,-0.0101924,0.00239819,0.0165166,-0.0104077,0.0895497,0.0156775,0.0446969,1350,1786,3.84867,-9.38904
133,-762,3.45984,9.33899,0.0165448,-0.0137994,0.00253361,0.0167548,-0.0140095,0.0827326,0.0177854,0.045265,1357,1786,3.45989,-9.33899
140,-762,3.08704,9.0791,0.0165876,-0.0165278,0.00272753,0.0168107,-0.0167509,0.0816315,0.0193768,0.0458126,1364,1786,3.08707,-9.07906
147,-762,3.29822,9.37036,0.0164436,-0.0161421,0.00245591,0.0166276,-0.0163261,0.0748046,0.0190261,0.0420373,1371,1786,3.29818,-9.37039
154,-762,3.67419,9.13928,0,0,0,0,0,0,0,-1,1378,1786,3.67418,-9.13922
161,-762,7.93408,-0.126221,0,0,0,0,0,0,0,-1,1385,1786,7.93402,0.126232
168,-762,8.19287,0.880615,0,0,0,0,0,0,0,-1,1392,1786,8.19291,-0.880603
175,-762,8.33997,1.95947,0,0,0,0,0,0,0,-1,1399,1786,8.33997,-1.95942
182,-762,8.28418,3.56482,0,0,0,0,0,0,0,-1,1406,1786,8.28415,-3.56485
189,-762,8.21179,5.23389,0,0,0,0,0,0,0,-1,1413,1786,8.21183,-5.23383
196,-762,8.05969,6.95483,0,0,0,0,0,0,0,-1,1420,1786,8.05972,-6.9548
203,-762,7.88794,8.74133,0,0,0,0,0,0,0,-1,1427,1786,7.88797,-8.74137
210,-762,5.69043,6.71973,0,0,0,0,0,0,0,-1,1434,1786,5.69042,-6.71972
217,-762,3.60938,7.87866,0,0,0,0,0,0,0,-1,1441,1786,3.60933,-7.87862
224,-762,3.01831,9.70093,0,0,0,0,0,0,0,-1,1448,1786,3.01829,-9.70094
231,-762,3.24939,8.31531,0,0,0,0,0,0,0,-1,1455,1786,3.2494,-8.31529
238,-762,3.55371,6.89661,0,0,0,0,0,0,0,-1,1462,1786,3.55372,-6.89661
245,-762,4.16809,5.62842,0,0,0,0,0,0,0,-1,1469,1786,4.16808,-5.62841
252,-762,2.13416,6.62622,0.0693729,-0.0094046,0.0740065,0.11382,-0.0538516,0.540848,0.0988475,0.0441081,1476,1786,2.13414,-6.62621
259,-762,2.8894,7.15979,0.0764622,-0.0110036,0.08104,0.124816,-0.0593579,0.537969,0.108549,0.0466458,1483,1786,2.88937,-7.15984
266,-762,2.73901,7.76062,0,0,0,0,0,0,0,-1,1490,1786,2.73902,-7.76066
273,-762,12.5118,6.61011,0,0,0,0,0,0,0,-1,1497,1786,12.5118,-6.6101
280,-762,11.8442,6.8844,0,0,0,0,0,0,0,-1,1504,1786,11.8442,-6.88443
287,-762,10.739,7.04712,0,0,0,0,0,0,0,-1,1511,1786,10.739,-7.04717
294,-762,9.58179,7.32849,0,0,0,0,0,0,0,-1,1518,1786,9.58176,-7.32843
301,-762,8.4801,8.08313,0,0,0,0,0,0,0,-1,1525,1786,8.48013,-8.08309
308,-762,0,0,0,0,0,0,0,0,0,-1,1532,1786,0,0
315,-762,0,0,0,0,0,0,0,0,0,-1,1539,1786,0,0
322,-762,0,0,0,0,0,0,0,0,0,-1,1546,1786,0,0
329,-762,0,0,0,0,0,0,0,0,0,-1,1553,1786,0,0
336,-762,0,0,0,0,0,0,0,0,0,-1,1560,1786,0,0
343,-762,0,0,0,0,0,0,0,0,0,-1,1567,1786,0,0
350,-762,0,0,0,0,0,0,0,0,0,-1,1574,1786,0,0
357,-762,0,0,0,0,0,0,0,0,0,-1,1581,1786,0,0
364,-762,0,0,0,0,0,0,0,0,0,-1,1588,1786,0,0
371,-762,0,0,0,0,0,0,0,0,0,-1,1595,1786,0,0
378,-762,0,0,0,0,0,0,0,0,0,-1,1602,1786,0,0
385,-762,0,0,0,0,0,0,0,0,0,-1,1609,1786,0,0
392,-762,0,0,0,0,0,0,0,0,0,-1,1616,1786,0,0
399,-762,0,0,0,0,0,0,0,0,0,-1,1623,1786,0,0
406,-762,0,0,0,0,0,0,0,0,0,-1,1630,1786,0,0
413,-762,0,0,0,0,0,0,0,0,0,-1,1637,1786,0,0
420,-762,0,0,0,0,0,0,0,0,0,-1,1644,1786,0,0
427,-762,0,0,0,0,0,0,0,0,0,-1,1651,1786,0,0
434,-762,0,0,0,0,0,0,0,0,0,-1,1658,1786,0,0
441,-762,0,0,0,0,0,0,0,0,0,-1,1665,1786,0,0
448,-762,0,0,0,0,0,0,0,0,0,-1,1672,1786,0,0
455,-762,0,0,0,0,0,0,0,0,0,-1,1679,1786,0,0
462,-762,0,0,0,0,0,0,0,0,0,-1,1686,1786,0,0
469,-762,0,0,0,0,0,0,0,0,0,-1,1693,1786,0,0
476,-762,0,0,0,0,0,0,0,0,0,-1,1700,1786,0,0
483,-762,0,0,0,0,0,0,0,0,0,-1,1707,1786,0,0
490,-762,0,0,0,0,0,0,0,0,0,-1,1714,1786,0,0
497,-762,0,0,0,0,0,0,0,0,0,-1,1721,1786,0,0
504,-762,0,0,0,0,0,0,0,0,0,-1,1728,1786,0,0
511,-762,0,0,0,0,0,0,0,0,0,-1,1735,1786,0,0
518,-762,0,0,0,0,0,0,0,0,0,-1,1742,1786,0,0
525,-762,0,0,0,0,0,0,0,0,0,-1,1749,1786,0,0
532,-762,0,0,0,0,0,0,0,0,0,-1,1756,1786,0,0
539,-762,0,0,0,0,0,0,0,0,0,-1,1763,1786,0,0
546,-762,0,0,0,0,0,0,0,0,0,-1,1770,1786,0,0
553,-762,0,0,0,0,0,0,0,0,0,-1,1777,1786,0,0
560,-762,0,0,0,0,0,0,0,0,0,-1,1784,1786,0,0
567,-762,0,0,0,0,0,0,0,0,0,-1,1791,1786,0,0
574,-762,0,0,0,0,0,0,0,0,0,-1,1798,1786,0,0
581,-762,0,0,0,0,0,0,0,0,0,-1,1805,1786,0,0
588,-762,0,0,0,0,0,0,0,0,0,-1,1812,1786,0,0
595,-762,0,0,0,0,0,0,0,0,0,-1,1819,1786,0,0
602,-762,0,0,0,0,0,0,0,0,0,-1,1826,1786,0,0
609,-762,0,0,0,0,0,0,0,0,0,-1,1833,1786,0,0
616,-762,0,0,0,0,0,0,0,0,0,-1,1840,1786,0,0
623,-762,0,0,0,0,0,0,0,0,0,-1,1847,1786,0,0
630,-762,0,0,0,0,0,0,0,0,0,-1,1854,1786,0,0
637,-762,0,0,0,0,0,0,0,0,0,-1,1861,1786,0,0
644,-762,0,0,0,0,0,0,0,0,0,-1,1868,1786,0,0
651,-762,0,0,0,0,0,0,0,0,0,-1,1875,1786,0,0
658,-762,0,0,0,0,0,0,0,0,0,-1,1882,1786,0,0
665,-762,0,0,0,0,0,0,0,0,0,-1,1889,1786,0,0
672,-762,0,0,0,0,0,0,0,0,0,-1,1896,1786,0,0
679,-762,0,0,0,0,0,0,0,0,0,-1,1903,1786,0,0
686,-762,0,0,0,0,0,0,0,0,0,-1,1910,1786,0,0
693,-762,0,0,0,0,0,0,0,0,0,-1,1917,1786,0,0
700,-762,0,0,0,0,0,0,0,0,0,-1,1924,1786,0,0
707,-762,0,0,0,0,0,0,0,0,0,-1,1931,1786,0,0
714,-762,0,0,0,0,0,0,0,0,0,-1,1938,1786,0,0
721,-762,0,0,0,0,0,0,0,0,0,-1,1945,1786,0,0
728,-762,0,0,0,0,0,0,0,0,0,-1,1952,1786,0,0
735,-762,0,0,0,0,0,0,0,0,0,-1,1959,1786,0,0
742,-762,0,0,0,0,0,0,0,0,0,-1,1966,1786,0,0
749,-762,0,0,0,0,0,0,0,0,0,-1,1973,1786,0,0
756,-762,0,0,0,0,0,0,0,0,0,-1,1980,1786,0,0
763,-762,0,0,0,0,0,0,0,0,0,-1,1987,1786,0,0
770,-762,0,0,0,0,0,0,0,0,0,-1,1994,1786,0,0
777,-762,0,0,0,0,0,0,0,0,0,-1,2001,1786,0,0
784,-762,0,0,0,0,0,0,0,0,0,-1,2008,1786,0,0
791,-762,0,0,0,0,0,0,0,0,0,-1,2015,1786,0,0
798,-762,0,0,0,0,0,0,0,0,0,-1,2022,1786,0,0
805,-762,0,0,0,0,0,0,0,0,0,-1,2029,1786,0,0
812,-762,0,0,0,0,0,0,0,0,0,-1,2036,1786,0,0
-700,-769,0,0,0,0,0,0,0,0,0,-1,524,1793,0,0
-693,-769,0,0,0,0,0,0,0,0,0,-1,531,1793,0,0
-686,-769,0,0,0,0,0,0,0,0,0,-1,538,1793,0,0
-679,-769,0,0,0,0,0,0,0,0,0,-1,545,1793,0,0
-672,-769,0,0,0,0,0,0,0,0,0,-1,552,1793,0,0
-665,-769,0,0,0,0,0,0,0,0,0,-1,559,1793,0,0
-658,-769,0,0,0,0,0,0,0,0,0,-1,566,1793,0,0
-651,-769,0,0,0,0,0,0,0,0,0,-1,573,1793,0,0
-644,-769,0,0,0,0,0,0,0,0,0,-1,580,1793,0,0
-637,-769,0,0,0,0,0,0,0,0,0,-1,587,1793,0,0
-630,-769,0,0,0,0,0,0,0,0,0,-1,594,1793,0,0
-623,-769,0,0,0,0,0,0,0,0,0,-1,601,1793,0,0
-616,-769,0,0,0,0,0,0,0,0,0,-1,608,1793,0,0
-609,-769,0,0,0,0,0,0,0,0,0,-1,615,1793,0,0
-602,-769,0,0,0,0,0,0,0,0,0,-1,622,1793,0,0
-595,-769,0,0,0,0,0,0,0,0,0,-1,629,1793,0,0
-588,-769,0,0,0,0,0,0,0,0,0,-1,636,1793,0,0
-581,-769,0,0,0,0,0,0,0,0,0,-1,643,1793,0,0
-574,-769,0,0,0,0,0,0,0,0,0,-1,650,1793,0,0
-567,-769,0,0,0,0,0,0,0,0,0,-1,657,1793,0,0
-560,-769,0,0,0,0,0,0,0,0,0,-1,664,1793,0,0
-553,-769,0,0,0,0,0,0,0,0,0,-1,671,1793,0,0
-546,-769,0,0,0,0,0,0,0,0,0,-1,678,1793,0,0
-539,-769,0,0,0,0,0,0,0,0,0,-1,685,1793,0,0
-532,-769,0,0,0,0,0,0,0,0,0,-1,692,1793,0,0
-525,-769,0,0,0,0,0,0,0,0,0,-1,699,1793,0,0
-518,-769,0,0,0,0,0,0,0,0,0,-1,706,1793,0,0
-511,-769,0,0,0,0,0,0,0,0,0,-1,713,1793,0,0
-504,-769,0,0,0,0,0,0,0,0,0,-1,720,1793,0,0
-497,-769,0,0,0,0,0,0,0,0,0,-1,727,1793,0,0
-490,-769,0,0,0,0,0,0,0,0,0,-1,734,1793,0,0
-483,-769,0,0,0,0,0,0,0,0,0,-1,741,1793,0,0
-476,-769,0,0,0,0,0,0,0,0,0,-1,748,1793,0,0
-469,-769,0,0,0,0,0,0,0,0,0,-1,755,1793,0,0
-462,-769,0,0,0,0,0,0,0,0,0,-1,762,1793,0,0
-455,-769,0,0,0,0,0,0,0,0,0,-1,769,1793,0,0
-448,-769,0,0,0,0,0,0,0,0,0,-1,776,1793,0,0
-441,-769,0,0,0,0,0,0,0,0,0,-1,783,1793,0,0
-434,-769,0,0,0,0,0,0,0,0,0,-1,790,1793,0,0
-427,-769,0,0,0,0,0,0,0,0,0,-1,797,1793,0,0
-420,-769,0,0,0,0,0,0,0,0,0,-1,804,1793,0,0
-413,-769,0,0,0,0,0,0,0,0,0,-1,811,1793,0,0
-406,-769,0,0,0,0,0,0,0,0,0,-1,818,1793,0,0
-399,-769,0,0,0,0,0,0,0,0,0,-1,825,1793,0,0
-392,-769,0,0,0,0,0,0,0,0,0,-1,832,1793,0,0
-385,-769,0,0,0,0,0,0,0,0,0,-1,839,1793,0,0
-378,-769,0,0,0,0,0,0,0,0,0,-1,846,1793,0,0
-371,-769,0,0,0,0,0,0,0,0,0,-1,853,1793,0,0
-364,-769,0,0,0,0,0,0,0,0,0,-1,860,1793,0,0
-357,-769,0,0,0,0,0,0,0,0,0,-1,867,1793,0,0
-350,-769,0,0,0,0,0,0,0,0,0,-1,874,1793,0,0
-343,-769,0,0,0,0,0,0,0,0,0,-1,881,1793,0,0
-336,-769,0,0,0,0,0,0,0,0,0,-1,888,1793,0,0
-329,-769,0,0,0,0,0,0,0,0,0,-1,895,1793,0,0
-322,-769,0,0,0,0,0,0,0,0,0,-1,902,1793,0,0
-315,-769,0,0,0,0,0,0,0,0,0,-1,909,1793,0,0
-308,-769,0,0,0,0,0,0,0,0,0,-1,916,1793,0,0
-301,-769,0,0,0,0,0,0,0,0,0,-1,923,1793,0,0
-294,-769,0,0,0,0,0,0,0,0,0,-1,930,1793,0,0
-287,-769,0,0,0,0,0,0,0,0,0,-1,937,1793,0,0
-280,-769,0,0,0,0,0,0,0,0,0,-1,944,1793,0,0
-273,-769,0,0,0,0,0,0,0,0,0,-1,951,1793,0,0
-266,-769,0,0,0,0,0,0,0,0,0,-1,958,1793,0,0
-259,-769,0,0,0,0,0,0,0,0,0,-1,965,1793,0,0
-252,-769,0,0,0,0,0,0,0,0,0,-1,972,1793,0,0
-245,-769,0,0,0,0,0,0,0,0,0,-1,979,1793,0,0
-238,-769,0,0,0,0,0,0,0,0,0,-1,986,1793,0,0
-231,-769,0,0,0,0,0,0,0,0,0,-1,993,1793,0,0
-224,-769,0,0,0,0,0,0,0,0,0,-1,1000,1793,0,0
-217,-769,0,0,0,0,0,0,0,0,0,-1,1007,1793,0,0
-210,-769,0,0,0,0,0,0,0,0,0,-1,1014,1793,0,0
-203,-769,0,0,0,0,0,0,0,0,0,-1,1021,1793,0,0
-196,-769,0,0,0,0,0,0,0,0,0,-1,1028,1793,0,0
-189,-769,0,0,0,0,0,0,0,0,0,-1,1035,1793,0,0
-182,-769,0,0,0,0,0,0,0,0,0,-1,1042,1793,0,0
-175,-769,0,0,0,0,0,0,0,0,0,-1,1049,1793,0,0
-168,-769,0,0,0,0,0,0,0,0,0,-1,1056,1793,0,0
-161,-769,-0.568726,5.94287,0,0,0,0,0,0,0,-1,1063,1793,-0.568755,-5.94281
-154,-769,-0.813232,5.32874,0,0,0,0,0,0,0,-1,1070,1793,-0.813269,-5.32872
-147,-769,4.26587,4.7002,0,0,0,0,0,0,0,-1,1077,1793,4.26593,-4.70022
-140,-769,4.10376,5.28589,0,0,0,0,0,0,0,-1,1084,1793,4.10371,-5.28584
-133,-769,4.00745,5.73364,0,0,0,0,0,0,0,-1,1091,1793,4.00745,-5.73365
-126,-769,3.71204,6.59692,0,0,0,0,0,0,0,-1,1098,1793,3.71209,-6.59693
-119,-769,3.50562,7.11865,0,0,0,0,0,0,0,-1,1105,1793,3.50557,-7.11864
-112,-769,5.18738,7.50049,0,0,0,0,0,0,0,-1,1112,1793,5.18735,-7.50051
-105,-769,3.63208,8.43469,0,0,0,0,0,0,0,-1,1119,1793,3.63203,-8.43468
-98,-769,4.04797,8.21375,0,0,0,0,0,0,0,-1,1126,1793,4.04798,-8.21377
-91,-769,3.42407,8.28455,0,0,0,0,0,0,0,-1,1133,1793,3.42406,-8.28459
-84,-769,2.88855,8.06079,0,0,0,0,0,0,0,-1,1140,1793,2.8886,-8.06083
-77,-769,-3.09265,5.87769,0,0,0,0,0,0,0,-1,1147,1793,-3.09267,-5.87767
-70,-769,0.99707,7.63843,0,0,0,0,0,0,0,-1,1154,1793,0.997071,-7.63837
-63,-769,-0.0517578,6.57178,0,0,0,0,0,0,0,-1,1161,1793,-0.0517467,-6.5718
-56,-769,-1.22949,5.21887,0,0,0,0,0,0,0,-1,1168,1793,-1.22948,-5.21891
-49,-769,-2.41443,3.95471,0,0,0,0,0,0,0,-1,1175,1793,-2.41446,-3.95471
-42,-769,-3.1991,2.64941,0,0,0,0,0,0,0,-1,1182,1793,-3.19914,-2.64944
-35,-769,-3.50183,1.73389,0,0,0,0,0,0,0,-1,1189,1793,-3.50189,-1.7339
-28,-769,-3.96985,1.14075,0,0,0,0,0,0,0,-1,1196,1793,-3.96985,-1.14078
-21,-769,3.37231,8.59448,0,0,0,0,0,0,0,-1,1203,1793,3.37234,-8.59448
-14,-769,8.09924,8.30945,0,0,0,0,0,0,0,-1,1210,1793,8.0993,-8.30943
-7,-769,3.37427,8.96509,0,0,0,0,0,0,0,-1,1217,1793,3.37429,-8.96512
0,-769,3.63159,8.99707,0.00449138,0.00726156,0.00619323,0.0122227,-0.000469755,0.895411,0.00830948,0.0497592,1224,1793,3.63163,-8.99711
7,-769,3.70044,9.06067,0.00933074,0.00655635,0.00556259,0.0136765,0.00221059,0.663201,0.00847742,0.0451321,1231,1793,3.70042,-9.06062
14,-769,3.69397,9.22144,0.0160678,0.00665837,0.00498583,0.0182182,0.00450795,0.4072,0.0109564,0.044075,1238,1793,3.69403,-9.22138
21,-769,3.70142,9.3429,0.0230421,0.00792289,0.00380914,0.0239475,0.00701743,0.233374,0.0142155,0.0450726,1245,1793,3.70137,-9.34284
28,-769,3.65564,9.34705,0.0287456,0.00966963,0.00282132,0.0291541,0.00926111,0.143799,0.0172012,0.0426015,1252,1793,3.65564,-9.34699
35,-769,3.56104,9.19922,0.033977,0.0118824,0.00181586,0.0341252,0.0117342,0.0814572,0.0200199,0.0450223,1259,1793,3.56098,-9.19917
42,-769,3.60364,9.17908,0.0386486,0.0135741,0.00106412,0.0386936,0.013529,0.0423369,0.022674,0.0458982,1266,1793,3.60363,-9.17905
49,-769,3.63757,9.18262,0.042501,0.0155117,0.000320922,0.0425048,0.0155078,0.0118884,0.0248372,0.0450218,1273,1793,3.63757,-9.18264
56,-769,3.63867,9.12463,0.0451268,0.017317,-7.47592e-05,0.045127,0.0173168,-0.00268821,0.0262878,0.0445162,1280,1793,3.63862,-9.12467
63,-769,3.55774,9.13953,0.0467533,0.0186089,-5.90976e-05,0.0467534,0.0186088,-0.00209979,0.0271796,0.0430821,1287,1793,3.55769,-9.13948
70,-769,3.59204,9.09851,0.0475331,0.0187849,-0.000267386,0.0475356,0.0187824,-0.0092999,0.0276452,0.0424554,1294,1793,3.59206,-9.09846
77,-769,3.41809,9.06702,0.0466923,0.0173506,-0.000509352,0.0467012,0.0173418,-0.0173524,0.0272589,0.0456966,1301,1793,3.41808,-9.06696
84,-769,3.15967,9.07837,0.0447101,0.0153857,-0.000389971,0.0447153,0.0153805,-0.0132954,0.0262321,0.0468878,1308,1793,3.15973,-9.07835
91,-769,3.02454,8.96948,0.0419559,0.0125167,8.67042e-05,0.0419561,0.0125164,0.00294516,0.0248716,0.046548,1315,1793,3.02454,-8.96948
98,-769,3.11353,8.66772,0.0394152,0.00861327,0.000649402,0.0394289,0.00859959,0.0210707,0.0239399,0.0472219,1322,1793,3.11358,-8.66777
105,-769,3.12158,8.68945,0.0357357,0.00415401,0.000919916,0.0357625,0.00412723,0.0290952,0.0225919,0.04789,1329,1793,3.12153,-8.68946
112,-769,3.09668,8.66528,0.0320306,-0.000702229,0.00138138,0.0320888,-0.000760421,0.042102,0.0216505,0.0499925,1336,1793,3.0967,-8.66526
119,-769,3.07324,8.6543,0,0,0,0,0,0,0,-1,1343,1793,3.07322,-8.65432
126,-769,4.32178,9.57788,0,0,0,0,0,0,0,-1,1350,1793,4.32182,-9.57793
133,-769,3.58618,9.57092,0,0,0,0,0,0,0,-1,1357,1793,3.58615,-9.57094
140,-769,2.88733,9.14331,0,0,0,0,0,0,0,-1,1364,1793,2.88734,-9.14328
147,-769,3.22217,9.66882,0,0,0,0,0,0,0,-1,1371,1793,3.22212,-9.66879
154,-769,6.37561,1.00024,0,0,0,0,0,0,0,-1,1378,1793,6.37566,-1.00028
161,-769,6.57019,1.53223,0,0,0,0,0,0,0,-1,1385,1793,6.57019,-1.53226
168,-769,8.27637,0.756958,0,0,0,0,0,0,0,-1,1392,1793,8.27639,-0.756944
175,-769,8.47144,2.41174,0,0,0,0,0,0,0,-1,1399,1793,8.47147,-2.4118
182,-769,8.41479,4.05994,0,0,0,0,0,0,0,-1,1406,1793,8.41479,-4.05997
189,-769,8.25049,5.68433,0,0,0,0,0,0,0,-1,1413,1793,8.25054,-5.68428
196,-769,7.97729,7.42847,0,0,0,0,0,0,0,-1,1420,1793,7.9773,-7.42848
203,-769,7.96704,9.02502,0,0,0,0,0,0,0,-1,1427,1793,7.96709,-9.02499
210,-769,1.82837,7.81482,0,0,0,0,0,0,0,-1,1434,1793,1.82842,-7.81485
217,-769,2.32971,7.37048,0,0,0,0,0,0,0,-1,1441,1793,2.32975,-7.37043
224,-769,2.79663,7.89624,0,0,0,0,0,0,0,-1,1448,1793,2.79663,-7.89618
231,-769,3.04199,8.08289,0,0,0,0,0,0,0,-1,1455,1793,3.04203,-8.08294
238,-769,3.17371,6.71191,0,0,0,0,0,0,0,-1,1462,1793,3.17371,-6.71186
245,-769,0.439331,6.07764,0,0,0,0,0,0,0,-1,1469,1793,0.439376,-6.07762
252,-769,1.08972,6.7511,0.0933038,-0.0106507,0.102601,0.156342,-0.073689,0.550943,0.135636,0.0446171,1476,1793,1.08974,-6.75115
259,-769,1.76099,7.37598,0.10154,-0.0125987,0.111092,0.169364,-0.0804225,0.548119,0.14723,0.0434701,1483,1793,1.76101,-7.37595
266,-769,2.3844,8.43884,0,0,0,0,0,0,0,-1,1490,1793,2.38435,-8.4388
273,-769,3.10999,9.1925,0,0,0,0,0,0,0,-1,1497,1793,3.10995,-9.19251
280,-769,11.1288,8.04041,0,0,0,0,0,0,0,-1,1504,1793,11.1288,-8.04046
287,-769,0,0,0,0,0,0,0,0,0,-1,1511,1793,0,0
294,-769,0,0,0,0,0,0,0,0,0,-1,1518,1793,0,0
301,-769,0,0,0,0,0,0,0,0,0,-1,1525,1793,0,0
308,-769,0,0,0,0,0,0,0,0,0,-1,1532,1793,0,0
315,-769,0,0,0,0,0,0,0,0,0,-1,1539,1793,0,0
322,-769,0,0,0,0,0,0,0,0,0,-1,1546,1793,0,0
329,-769,0,0,0,0,0,0,0,0,0,-1,1553,1793,0,0
336,-769,0,0,0,0,0,0,0,0,0,-1,1560,1793,0,0
343,-769,0,0,0,0,0,0,0,0,0,-1,1567,1793,0,0
350,-769,0,0,0,0,0,0,0,0,0,-1,1574,1793,0,0
357,-769,0,0,0,0,0,0,0,0,0,-1,1581,1793,0,0
364,-769,0,0,0,0,0,0,0,0,0,-1,1588,1793,0,0
371,-769,0,0,0,0,0,0,0,0,0,-1,1595,1793,0,0
378,-769,0,0,0,0,0,0,0,0,0,-1,1602,1793,0,0
385,-769,0,0,0,0,0,0,0,0,0,-1,1609,1793,0,0
392,-769,0,0,0,0,0,0,0,0,0,-1,1616,1793,0,0
399,-769,0,0,0,0,0,0,0,0,0,-1,1623,1793,0,0
406,-769,0,0,0,0,0,0,0,0,0,-1,1630,1793,0,0
413,-769,0,0,0,0,0,0,0,0,0,-1,1637,1793,0,0
420,-769,0,0,0,0,0,0,0,0,0,-1,1644,1793,0,0
427,-769,0,0,0,0,0,0,0,0,0,-1,1651,1793,0,0
434,-769,0,0,0,0,0,0,0,0,0,-1,1658,1793,0,0
441,-769,0,0,0,0,0,0,0,0,0,-1,1665,1793,0,0
448,-769,0,0,0,0,0,0,0,0,0,-1,1672,1793,0,0
455,-769,0,0,0,0,0,0,0,0,0,-1,1679,1793,0,0
462,-769,0,0,0,0,0,0,0,0,0,-1,1686,1793,0,0
469,-769,0,0,0,0,0,0,0,0,0,-1,1693,1793,0,0
476,-769,0,0,0,0,0,0,0,0,0,-1,1700,1793,0,0
483,-769,0,0,0,0,0,0,0,0,0,-1,1707,1793,0,0
490,-769,0,0,0,0,0,0,0,0,0,-1,1714,1793,0,0
497,-769,0,0,0,0,0,0,0,0,0,-1,1721,1793,0,0
504,-769,0,0,0,0,0,0,0,0,0,-1,1728,1793,0,0
511,-769,0,0,0,0,0,0,0,0,0,-1,1735,1793,0,0
518,-769,0,0,0,0,0,0,0,0,0,-1,1742,1793,0,0
525,-769,0,0,0,0,0,0,0,0,0,-1,1749,1793,0,0
532,-769,0,0,0,0,0,0,0,0,0,-1,1756,1793,0,0
539,-769,0,0,0,0,0,0,0,0,0,-1,1763,1793,0,0
546,-769,0,0,0,0,0,0,0,0,0,-1,1770,1793,0,0
553,-769,0,0,0,0,0,0,0,0,0,-1,1777,1793,0,0
560,-769,0,0,0,0,0,0,0,0,0,-1,1784,1793,0,0
567,-769,0,0,0,0,0,0,0,0,0,-1,1791,1793,0,0
574,-769,0,0,0,0,0,0,0,0,0,-1,1798,1793,0,0
581,-769,0,0,0,0,0,0,0,0,0,-1,1805,1793,0,0
588,-769,0,0,0,0,0,0,0,0,0,-1,1812,1793,0,0
595,-769,0,0,0,0,0,0,0,0,0,-1,1819,1793,0,0
602,-769,0,0,0,0,0,0,0,0,0,-1,1826,1793,0,0
609,-769,0,0,0,0,0,0,0,0,0,-1,1833,1793,0,0
616,-769,0,0,0,0,0,0,0,0,0,-1,1840,1793,0,0
623,-769,0,0,0,0,0,0,0,0,0,-1,1847,1793,0,0
630,-769,0,0,0,0,0,0,0,0,0,-1,1854,1793,0,0
637,-769,0,0,0,0,0,0,0,0,0,-1,1861,1793,0,0
644,-769,0,0,0,0,0,0,0,0,0,-1,1868,1793,0,0
651,-769,0,0,0,0,0,0,0,0,0,-1,1875,1793,0,0
658,-769,0,0,0,0,0,0,0,0,0,-1,1882,1793,0,0
665,-769,0,0,0,0,0,0,0,0,0,-1,1889,1793,0,0
672,-769,0,0,0,0,0,0,0,0,0,-1,1896,1793,0,0
679,-769,0,0,0,0,0,0,0,0,0,-1,1903,1793,0,0
686,-769,0,0,0,0,0,0,0,0,0,-1,1910,1793,0,0
693,-769,0,0,0,0,0,0,0,0,0,-1,1917,1793,0,0
700,-769,0,0,0,0,0,0,0,0,0,-1,1924,1793,0,0
707,-769,0,0,0,0,0,0,0,0,0,-1,1931,1793,0,0
714,-769,0,0,0,0,0,0,0,0,0,-1,1938,1793,0,0
721,-769,0,0,0,0,0,0,0,0,0,-1,1945,1793,0,0
728,-769,0,0,0,0,0,0,0,0,0,-1,1952,1793,0,0
735,-769,0,0,0,0,0,0,0,0,0,-1,1959,1793,0,0
742,-769,0,0,0,0,0,0,0,0,0,-1,1966,1793,0,0
749,-769,0,0,0,0,0,0,0,0,0,-1,1973,1793,0,0
756,-769,0,0,0,0,0,0,0,0,0,-1,1980,1793,0,0
763,-769,0,0,0,0,0,0,0,0,0,-1,1987,1793,0,0
770,-769,0,0,0,0,0,0,0,0,0,-1,1994,1793,0,0
777,-769,0,0,0,0,0,0,0,0,0,-1,2001,1793,0,0
784,-769,0,0,0,0,0,0,0,0,0,-1,2008,1793,0,0
791,-769,0,0,0,0,0,0,0,0,0,-1,2015,1793,0,0
798,-769,0,0,0,0,0,0,0,0,0,-1,2022,1793,0,0
805,-769,0,0,0,0,0,0,0,0,0,-1,2029,1793,0,0
812,-769,0,0,0,0,0,0,0,0,0,-1,2036,1793,0,0
-700,-776,0,0,0,0,0,0,0,0,0,-1,524,1800,0,0
-693,-776,0,0,0,0,0,0,0,0,0,-1,531,1800,0,0
-686,-776,0,0,0,0,0,0,0,0,0,-1,538,1800,0,0
-679,-776,0,0,0,0,0,0,0,0,0,-1,545,1800,0,0
-672,-776,0,0,0,0,0,0,0,0,0,-1,552,1800,0,0
-665,-776,0,0,0,0,0,0,0,0,0,-1,559,1800,0,0
-658,-776,0,0,0,0,0,0,0,0,0,-1,566,1800,0,0
-651,-776,0,0,0,0,0,0,0,0,0,-1,573,1800,0,0
-644,-776,0,0,0,0,0,0,0,0,0,-1,580,1800,0,0
-637,-776,0,0,0,0,0,0,0,0,0,-1,587,1800,0,0
-630,-776,0,0,0,0,0,0,0,0,0,-1,594,1800,0,0
-623,-776,0,0,0,0,0,0,0,0,0,-1,601,1800,0,0
-616,-776,0,0,0,0,0,0,0,0,0,-1,608,1800,0,0
-609,-776,0,0,0,0,0,0,0,0,0,-1,615,1800,0,0
-602,-776,0,0,0,0,0,0,0,0,0,-1,622,1800,0,0
-595,-776,0,0,0,0,0,0,0,0,0,-1,629,1800,0,0
-588,-776,0,0,0,0,0,0,0,0,0,-1,636,1800,0,0
-581,-776,0,0,0,0,0,0,0,0,0,-1,643,1800,0,0
-574,-776,0,0,0,0,0,0,0,0,0,-1,650,1800,0,0
-567,-776,0,0,0,0,0,0,0,0,0,-1,657,1800,0,0
-560,-776,0,0,0,0,0,0,0,0,0,-1,664,1800,0,0
-553,-776,0,0,0,0,0,0,0,0,0,-1,671,1800,0,0
-546,-776,0,0,0,0,0,0,0,0,0,-1,678,1800,0,0
-539,-776,0,0,0,0,0,0,0,0,0,-1,685,1800,0,0
-532,-776,0,0,0,0,0,0,0,0,0,-1,692,1800,0,0
-525,-776,0,0,0,0,0,0,0,0,0,-1,699,1800,0,0
-518,-776,0,0,0,0,0,0,0,0,0,-1,706,1800,0,0
-511,-776,0,0,0,0,0,0,0,0,0,-1,713,1800,0,0
-504,-776,0,0,0,0,0,0,0,0,0,-1,720,1800,0,0
-497,-776,0,0,0,0,0,0,0,0,0,-1,727,1800,0,0
-490,-776,0,0,0,0,0,0,0,0,0,-1,734,1800,0,0
-483,-776,0,0,0,0,0,0,0,0,0,-1,741,1800,0,0
-476,-776,0,0,0,0,0,0,0,0,0,-1,748,1800,0,0
-469,-776,0,0,0,0,0,0,0,0,0,-1,755,1800,0,0
-462,-776,0,0,0,0,0,0,0,0,0,-1,762,1800,0,0
-455,-776,0,0,0,0,0,0,0,0,0,-1,769,1800,0,0
-448,-776,0,0,0,0,0,0,0,0,0,-1,776,1800,0,0
-441,-776,0,0,0,0,0,0,0,0,0,-1,783,1800,0,0
-434,-776,0,0,0,0,0,0,0,0,0,-1,790,1800,0,0
-427,-776,0,0,0,0,0,0,0,0,0,-1,797,1800,0,0
-420,-776,0,0,0,0,0,0,0,0,0,-1,804,1800,0,0
-413,-776,0,0,0,0,0,0,0,0,0,-1,811,1800,0,0
-406,-776,0,0,0,0,0,0,0,0,0,-1,818,1800,0,0
-399,-776,0,0,0,0,0,0,0,0,0,-1,825,1800,0,0
-392,-776,0,0,0,0,0,0,0,0,0,-1,832,1800,0,0
-385,-776,0,0,0,0,0,0,0,0,0,-1,839,1800,0,0
-378,-776,0,0,0,0,0,0,0,0,0,-1,846,1800,0,0
-371,-776,0,0,0,0,0,0,0,0,0,-1,853,1800,0,0
-364,-776,0,0,0,0,0,0,0,0,0,-1,860,1800,0,0
-357,-776,0,0,0,0,0,0,0,0,0,-1,867,1800,0,0
-350,-776,0,0,0,0,0,0,0,0,0,-1,874,1800,0,0
-343,-776,0,0,0,0,0,0,0,0,0,-1,881,1800,0,0
-336,-776,0,0,0,0,0,0,0,0,0,-1,888,1800,0,0
-329,-776,0,0,0,0,0,0,0,0,0,-1,895,1800,0,0
-322,-776,0,0,0,0,0,0,0,0,0,-1,902,1800,0,0
-315,-776,0,0,0,0,0,0,0,0,0,-1,909,1800,0,0
-308,-776,0,0,0,0,0,0,0,0,0,-1,916,1800,0,0
-301,-776,0,0,0,0,0,0,0,0,0,-1,923,1800,0,0
-294,-776,0,0,0,0,0,0,0,0,0,-1,930,1800,0,0
-287,-776,0,0,0,0,0,0,0,0,0,-1,937,1800,0,0
-280,-776,0,0,0,0,0,0,0,0,0,-1,944,1800,0,0
-273,-776,0,0,0,0,0,0,0,0,0,-1,951,1800,0,0
-266,-776,0,0,0,0,0,0,0,0,0,-1,958,1800,0,0
-259,-776,0,0,0,0,0,0,0,0,0,-1,965,1800,0,0
-252,-776,0,0,0,0,0,0,0,0,0,-1,972,1800,0,0
-245,-776,0,0,0,0,0,0,0,0,0,-1,979,1800,0,0
-238,-776,0,0,0,0,0,0,0,0,0,-1,986,1800,0,0
-231,-776,0,0,0,0,0,0,0,0,0,-1,993,1800,0,0
-224,-776,0,0,0,0,0,0,0,0,0,-1,1000,1800,0,0
-217,-776,0,0,0,0,0,0,0,0,0,-1,1007,1800,0,0
-210,-776,0,0,0,0,0,0,0,0,0,-1,1014,1800,0,0
-203,-776,0,0,0,0,0,0,0,0,0,-1,1021,1800,0,0
-196,-776,0,0,0,0,0,0,0,0,0,-1,1028,1800,0,0
-189,-776,0,0,0,0,0,0,0,0,0,-1,1035,1800,0,0
-182,-776,0,0,0,0,0,0,0,0,0,-1,1042,1800,0,0
-175,-776,0,0,0,0,0,0,0,0,0,-1,1049,1800,0,0
-168,-776,0,0,0,0,0,0,0,0,0,-1,1056,1800,0,0
-161,-776,0,0,0,0,0,0,0,0,0,-1,1063,1800,0,0
-154,-776,0,0,0,0,0,0,0,0,0,-1,1070,1800,0,0
-147,-776,0,0,0,0,0,0,0,0,0,-1,1077,1800,0,0
-140,-776,2.98499,5.20911,0,0,0,0,0,0,0,-1,1084,1800,2.98493,-5.2091
-133,-776,2.52649,5.69983,0,0,0,0,0,0,0,-1,1091,1800,2.52649,-5.69988
-126,-776,2.56274,6.96533,0,0,0,0,0,0,0,-1,1098,1800,2.56271,-6.96529
-119,-776,5.73389,8.3667,0,0,0,0,0,0,0,-1,1105,1800,5.7339,-8.36664
-112,-776,5.57251,8.19214,0,0,0,0,0,0,0,-1,1112,1800,5.57248,-8.19211
-105,-776,5.37036,8.29077,0,0,0,0,0,0,0,-1,1119,1800,5.37031,-8.29076
-98,-776,4.73755,8.99182,0,0,0,0,0,0,0,-1,1126,1800,4.73752,-8.99178
-91,-776,3.33606,9.37305,0,0,0,0,0,0,0,-1,1133,1800,3.33609,-9.37306
-84,-776,3.14453,9.13306,0,0,0,0,0,0,0,-1,1140,1800,3.14457,-9.13304
-77,-776,3.14795,6.0448,0,0,0,0,0,0,0,-1,1147,1800,3.14796,-6.04475
-70,-776,-2.7771,5.02222,0,0,0,0,0,0,0,-1,1154,1800,-2.77711,-5.02221
-63,-776,-0.453613,6.84619,0,0,0,0,0,0,0,-1,1161,1800,-0.453608,-6.84617
-56,-776,-2.18103,5.79761,0,0,0,0,0,0,0,-1,1168,1800,-2.18102,-5.79764
-49,-776,-2.81018,4.39587,0,0,0,0,0,0,0,-1,1175,1800,-2.8102,-4.39592
-42,-776,-3.41272,3.0249,0,0,0,0,0,0,0,-1,1182,1800,-3.41269,-3.02488
-35,-776,-3.71753,1.63635,0,0,0,0,0,0,0,-1,1189,1800,-3.71755,-1.63631
-28,-776,-4.03979,0.716064,0,0,0,0,0,0,0,-1,1196,1800,-4.03977,-0.716055
-21,-776,7.58069,7.16321,0,0,0,0,0,0,0,-1,1203,1800,7.58065,-7.16318
-14,-776,7.71118,7.54565,0,0,0,0,0,0,0,-1,1210,1800,7.71118,-7.54562
-7,-776,7.64148,8.11633,0,0,0,0,0,0,0,-1,1217,1800,7.64148,-8.11632
0,-776,3.33179,9.09448,0,0,0,0,0,0,0,-1,1224,1800,3.33174,-9.09454
7,-776,3.74927,8.83228,0,0,0,0,0,0,0,-1,1231,1800,3.74925,-8.83232
14,-776,3.74829,9.2644,0,0,0,0,0,0,0,-1,1238,1800,3.74828,-9.26436
21,-776,3.7345,9.36182,0,0,0,0,0,0,0,-1,1245,1800,3.73452,-9.36183
28,-776,3.64941,9.35474,0.0442567,0.0144537,0.0039858,0.0447805,0.0139298,0.130679,0.0264622,0.0441463,1252,1800,3.6494,-9.35469
35,-776,3.54749,9.22156,0.0516781,0.0171297,0.00234067,0.0518359,0.0169718,0.0673404,0.030516,0.0448333,1259,1800,3.54746,-9.22159
42,-776,3.57251,9.1864,0.0581464,0.019265,0.00116551,0.0581813,0.0192301,0.0299402,0.0342282,0.0449085,1266,1800,3.57255,-9.18646
49,-776,3.67444,9.13672,0.0632799,0.0216701,1.17143e-05,0.0632799,0.0216701,0.000281529,0.0371343,0.0457931,1273,1800,3.67443,-9.13666
56,-776,3.67285,9.10522,0.0666028,0.0239605,-0.000749747,0.0666159,0.0239473,-0.017575,0.0389637,0.0471108,1280,1800,3.67285,-9.10522
63,-776,3.052,9.08325,0.0683707,0.0256728,-0.00100739,0.0683945,0.025649,-0.023576,0.0398967,0.0433944,1287,1800,3.05195,-9.08322
70,-776,3.98328,8.70093,0.0689536,0.026038,-0.00141537,0.0690002,0.0259914,-0.0329326,0.0402391,0.0478957,1294,1800,3.98326,-8.70098
77,-776,3.19446,8.58569,0.0673666,0.0243647,-0.00180337,0.0674421,0.0242892,-0.0418391,0.0394421,0.049104,1301,1800,3.19447,-8.58565
84,-776,2.73169,9.00256,0.0642221,0.0219333,-0.00171627,0.0642917,0.0218638,-0.0404957,0.0377464,0.0465709,1308,1800,2.73168,-9.00256
91,-776,2.60181,9.47534,0.0601803,0.0182988,-0.00119994,0.0602146,0.0182645,-0.0286195,0.0356502,0.0451107,1315,1800,2.60186,-9.47537
98,-776,2.78186,8.73401,0.0564987,0.0133685,-0.000528156,0.0565051,0.013362,-0.0122432,0.0341002,0.0472827,1322,1800,2.78187,-8.73403
105,-776,2.78076,8.76416,0.0513492,0.00768177,-0.00017844,0.0513499,0.00768104,-0.00408626,0.0319819,0.0470402,1329,1800,2.78081,-8.76416
112,-776,2.7467,8.78967,0.0460237,0.00136881,0.000483313,0.0460289,0.00136358,0.0108216,0.0302417,0.0476489,1336,1800,2.74668,-8.78972
119,-776,4.23389,9.66223,0.0401278,-0.00611413,0.00112842,0.0401553,-0.00614165,0.0243832,0.0290348,0.0450598,1343,1800,4.23386,-9.66226
126,-776,4.6543,9.73242,0.0364992,-0.0142911,0.00253144,0.036625,-0.014417,0.0496769,0.0303847,0.0470619,1350,1800,4.65426,-9.73245
133,-776,5.08044,9.87939,0,0,0,0,0,0,0,-1,1357,1800,5.08042,-9.87943
140,-776,2.36768,7.80115,0,0,0,0,0,0,0,-1,1364,1800,2.36763,-7.8011
147,-776,6.46301,-0.617188,0,0,0,0,0,0,0,-1,1371,1800,6.46305,0.61724
154,-776,6.43774,0.344116,0,0,0,0,0,0,0,-1,1378,1800,6.43776,-0.344162
161,-776,6.50293,1.1731,0,0,0,0,0,0,0,-1,1385,1800,6.5029,-1.17313
168,-776,8.44971,1.22913,0,0,0,0,0,0,0,-1,1392,1800,8.44974,-1.22915
175,-776,8.61523,2.87061,0,0,0,0,0,0,0,-1,1399,1800,8.6152,-2.87063
182,-776,8.54065,4.60645,0,0,0,0,0,0,0,-1,1406,1800,8.5407,-4.60643
189,-776,8.35303,6.28223,0,0,0,0,0,0,0,-1,1413,1800,8.35297,-6.28225
196,-776,8.0387,8.21704,0,0,0,0,0,0,0,-1,1420,1800,8.03865,-8.217
203,-776,7.91736,9.79919,0,0,0,0,0,0,0,-1,1427,1800,7.91735,-9.79922
210,-776,7.35693,11.3057,0,0,0,0,0,0,0,-1,1434,1800,7.35692,-11.3057
217,-776,1.48315,8.46082,0,0,0,0,0,0,0,-1,1441,1800,1.48314,-8.46081
224,-776,2.80859,6.75769,0,0,0,0,0,0,0,-1,1448,1800,2.80859,-6.75763
231,-776,4.45911,6.34839,0,0,0,0,0,0,0,-1,1455,1800,4.45909,-6.34838
238,-776,1.44543,4.88574,0,0,0,0,0,0,0,-1,1462,1800,1.4454,-4.88572
245,-776,-0.578613,6.22168,0,0,0,0,0,0,0,-1,1469,1800,-0.578634,-6.22162
252,-776,0.0723877,6.86108,0,0,0,0,0,0,0,-1,1476,1800,0.0724335,-6.86106
259,-776,1.33936,7.49463,0,0,0,0,0,0,0,-1,1483,1800,1.3393,-7.49465
266,-776,0,0,0,0,0,0,0,0,0,-1,1490,1800,0,0
273,-776,0,0,0,0,0,0,0,0,0,-1,1497,1800,0,0
280,-776,0,0,0,0,0,0,0,0,0,-1,1504,1800,0,0
287,-776,0,0,0,0,0,0,0,0,0,-1,1511,1800,0,0
294,-776,0,0,0,0,0,0,0,0,0,-1,1518,1800,0,0
301,-776,0,0,0,0,0,0,0,0,0,-1,1525,1800,0,0
308,-776,0,0,0,0,0,0,0,0,0,-1,1532,1800,0,0
315,-776,0,0,0,0,0,0,0,0,0,-1,1539,1800,0,0
322,-776,0,0,0,0,0,0,0,0,0,-1,1546,1800,0,0
329,-776,0,0,0,0,0,0,0,0,0,-1,1553,1800,0,0
336,-776,0,0,0,0,0,0,0,0,0,-1,1560,1800,0,0
343,-776,0,0,0,0,0,0,0,0,0,-1,1567,1800,0,0
350,-776,0,0,0,0,0,0,0,0,0,-1,1574,1800,0,0
357,-776,0,0,0,0,0,0,0,0,0,-1,1581,1800,0,0
364,-776,0,0,0,0,0,0,0,0,0,-1,1588,1800,0,0
371,-776,0,0,0,0,0,0,0,0,0,-1,1595,1800,0,0
378,-776,0,0,0,0,0,0,0,0,0,-1,1602,1800,0,0
385,-776,0,0,0,0,0,0,0,0,0,-1,1609,1800,0,0
392,-776,0,0,0,0,0,0,0,0,0,-1,1616,1800,0,0
399,-776,0,0,0,0,0,0,0,0,0,-1,1623,1800,0,0
406,-776,0,0,0,0,0,0,0,0,0,-1,1630,1800,0,0
413,-776,0,0,0,0,0,0,0,0,0,-1,1637,1800,0,0
420,-776,0,0,0,0,0,0,0,0,0,-1,1644,1800,0,0
427,-776,0,0,0,0,0,0,0,0,0,-1,1651,1800,0,0
434,-776,0,0,0,0,0,0,0,0,0,-1,1658,1800,0,0
441,-776,0,0,0,0,0,0,0,0,0,-1,1665,1800,0,0
448,-776,0,0,0,0,0,0,0,0,0,-1,1672,1800,0,0
455,-776,0,0,0,0,0,0,0,0,0,-1,1679,1800,0,0
462,-776,0,0,0,0,0,0,0,0,0,-1,1686,1800,0,0
469,-776,0,0,0,0,0,0,0,0,0,-1,1693,1800,0,0
476,-776,0,0,0,0,0,0,0,0,0,-1,1700,1800,0,0
483,-776,0,0,0,0,0,0,0,0,0,-1,1707,1800,0,0
490,-776,0,0,0,0,0,0,0,0,0,-1,1714,1800,0,0
497,-776,0,0,0,0,0,0,0,0,0,-1,1721,1800,0,0
504,-776,0,0,0,0,0,0,0,0,0,-1,1728,1800,0,0
511,-776,0,0,0,0,0,0,0,0,0,-1,1735,1800,0,0
518,-776,0,0,0,0,0,0,0,0,0,-1,1742,1800,0,0
525,-776,0,0,0,0,0,0,0,0,0,-1,1749,1800,0,0
532,-776,0,0,0,0,0,0,0,0,0,-1,1756,1800,0,0
539,-776,0,0,0,0,0,0,0,0,0,-1,1763,1800,0,0
546,-776,0,0,0,0,0,0,0,0,0,-1,1770,1800,0,0
553,-776,0,0,0,0,0,0,0,0,0,-1,1777,1800,0,0
560,-776,0,0,0,0,0,0,0,0,0,-1,1784,1800,0,0
567,-776,0,0,0,0,0,0,0,0,0,-1,1791,1800,0,0
574,-776,0,0,0,0,0,0,0,0,0,-1,1798,1800,0,0
581,-776,0,0,0,0,0,0,0,0,0,-1,1805,1800,0,0
588,-776,0,0,0,0,0,0,0,0,0,-1,1812,1800,0,0
595,-776,0,0,0,0,0,0,0,0,0,-1,1819,1800,0,0
602,-776,0,0,0,0,0,0,0,0,0,-1,1826,1800,0,0
609,-776,0,0,0,0,0,0,0,0,0,-1,1833,1800,0,0
616,-776,0,0,0,0,0,0,0,0,0,-1,1840,1800,0,0
623,-776,0,0,0,0,0,0,0,0,0,-1,1847,1800,0,0
630,-776,0,0,0,0,0,0,0,0,0,-1,1854,1800,0,0
637,-776,0,0,0,0,0,0,0,0,0,-1,1861,1800,0,0
644,-776,0,0,0,0,0,0,0,0,0,-1,1868,1800,0,0
651,-776,0,0,0,0,0,0,0,0,0,-1,1875,1800,0,0
658,-776,0,0,0,0,0,0,0,0,0,-1,1882,1800,0,0
665,-776,0,0,0,0,0,0,0,0,0,-1,1889,1800,0,0
672,-776,0,0,0,0,0,0,0,0,0,-1,1896,1800,0,0
679,-776,0,0,0,0,0,0,0,0,0,-1,1903,1800,0,0
686,-776,0,0,0,0,0,0,0,0,0,-1,1910,1800,0,0
693,-776,0,0,0,0,0,0,0,0,0,-1,1917,1800,0,0
700,-776,0,0,0,0,0,0,0,0,0,-1,1924,1800,0,0
707,-776,0,0,0,0,0,0,0,0,0,-1,1931,1800,0,0
714,-776,0,0,0,0,0,0,0,0,0,-1,1938,1800,0,0
721,-776,0,0,0,0,0,0,0,0,0,-1,1945,1800,0,0
728,-776,0,0,0,0,0,0,0,0,0,-1,1952,1800,0,0
735,-776,0,0,0,0,0,0,0,0,0,-1,1959,1800,0,0
742,-776,0,0,0,0,0,0,0,0,0,-1,1966,1800,0,0
749,-776,0,0,0,0,0,0,0,0,0,-1,1973,1800,0,0
756,-776,0,0,0,0,0,0,0,0,0,-1,1980,1800,0,0
763,-776,0,0,0,0,0,0,0,0,0,-1,1987,1800,0,0
770,-776,0,0,0,0,0,0,0,0,0,-1,1994,1800,0,0
777,-776,0,0,0,0,0,0,0,0,0,-1,2001,1800,0,0
784,-776,0,0,0,0,0,0,0,0,0,-1,2008,1800,0,0
791,-776,0,0,0,0,0,0,0,0,0,-1,2015,1800,0,0
798,-776,0,0,0,0,0,0,0,0,0,-1,2022,1800,0,0
805,-776,0,0,0,0,0,0,0,0,0,-1,2029,1800,0,0
812,-776,0,0,0,0,0,0,0,0,0,-1,2036,1800,0,0
-700,-783,0,0,0,0,0,0,0,0,0,-1,524,1807,0,0
-693,-783,0,0,0,0,0,0,0,0,0,-1,531,1807,0,0
-686,-783,0,0,0,0,0,0,0,0,0,-1,538,1807,0,0
-679,-783,0,0,0,0,0,0,0,0,0,-1,545,1807,0,0
-672,-783,0,0,0,0,0,0,0,0,0,-1,552,1807,0,0
-665,-783,0,0,0,0,0,0,0,0,0,-1,559,1807,0,0
-658,-783,0,0,0,0,0,0,0,0,0,-1,566,1807,0,0
-651,-783,0,0,0,0,0,0,0,0,0,-1,573,1807,0,0
-644,-783,0,0,0,0,0,0,0,0,0,-1,580,1807,0,0
-637,-783,0,0,0,0,0,0,0,0,0,-1,587,1807,0,0
-630,-783,0,0,0,0,0,0,0,0,0,-1,594,1807,0,0
-623,-783,0,0,0,0,0,0,0,0,0,-1,601,1807,0,0
-616,-783,0,0,0,0,0,0,0,0,0,-1,608,1807,0,0
-609,-783,0,0,0,0,0,0,0,0,0,-1,615,1807,0,0
-602,-783,0,0,0,0,0,0,0,0,0,-1,622,1807,0,0
-595,-783,0,0,0,0,0,0,0,0,0,-1,629,1807,0,0
-588,-783,0,0,0,0,0,0,0,0,0,-1,636,1807,0,0
-581,-783,0,0,0,0,0,0,0,0,0,-1,643,1807,0,0
-574,-783,0,0,0,0,0,0,0,0,0,-1,650,1807,0,0
-567,-783,0,0,0,0,0,0,0,0,0,-1,657,1807,0,0
-560,-783,0,0,0,0,0,0,0,0,0,-1,664,1807,0,0
-553,-783,0,0,0,0,0,0,0,0,0,-1,671,1807,0,0
-546,-783,0,0,0,0,0,0,0,0,0,-1,678,1807,0,0
-539,-783,0,0,0,0,0,0,0,0,0,-1,685,1807,0,0
-532,-783,0,0,0,0,0,0,0,0,0,-1,692,1807,0,0
-525,-783,0,0,0,0,0,0,0,0,0,-1,699,1807,0,0
-518,-783,0,0,0,0,0,0,0,0,0,-1,706,1807,0,0
-511,-783,0,0,0,0,0,0,0,0,0,-1,713,1807,0,0
-504,-783,0,0,0,0,0,0,0,0,0,-1,720,1807,0,0
-497,-783,0,0,0,0,0,0,0,0,0,-1,727,1807,0,0
-490,-783,0,0,0,0,0,0,0,0,0,-1,734,1807,0,0
-483,-783,0,0,0,0,0,0,0,0,0,-1,741,1807,0,0
-476,-783,0,0,0,0,0,0,0,0,0,-1,748,1807,0,0
-469,-783,0,0,0,0,0,0,0,0,0,-1,755,1807,0,0
-462,-783,0,0,0,0,0,0,0,0,0,-1,762,1807,0,0
-455,-783,0,0,0,0,0,0,0,0,0,-1,769,1807,0,0
-448,-783,0,0,0,0,0,0,0,0,0,-1,776,1807,0,0
-441,-783,0,0,0,0,0,0,0,0,0,-1,783,1807,0,0
-434,-783,0,0,0,0,0,0,0,0,0,-1,790,1807,0,0
-427,-783,0,0,0,0,0,0,0,0,0,-1,797,1807,0,0
-420,-783,0,0,0,0,0,0,0,0,0,-1,804,1807,0,0
-413,-783,0,0,0,0,0,0,0,0,0,-1,811,1807,0,0
-406,-783,0,0,0,0,0,0,0,0,0,-1,818,1807,0,0
-399,-783,0,0,0,0,0,0,0,0,0,-1,825,1807,0,0
-392,-783,0,0,0,0,0,0,0,0,0,-1,832,1807,0,0
-385,-783,0,0,0,0,0,0,0,0,0,-1,839,1807,0,0
-378,-783,0,0,0,0,0,0,0,0,0,-1,846,1807,0,0
-371,-783,0,0,0,0,0,0,0,0,0,-1,853,1807,0,0
-364,-783,0,0,0,0,0,0,0,0,0,-1,860,1807,0,0
-357,-783,0,0,0,0,0,0,0,0,0,-1,867,1807,0,0
-350,-783,0,0,0,0,0,0,0,0,0,-1,874,1807,0,0
-343,-783,0,0,0,0,0,0,0,0,0,-1,881,1807,0,0
-336,-783,0,0,0,0,0,0,0,0,0,-1,888,1807,0,0
-329,-783,0,0,0,0,0,0,0,0,0,-1,895,1807,0,0
-322,-783,0,0,0,0,0,0,0,0,0,-1,902,1807,0,0
-315,-783,0,0,0,0,0,0,0,0,0,-1,909,1807,0,0
-308,-783,0,0,0,0,0,0,0,0,0,-1,916,1807,0,0
-301,-783,0,0,0,0,0,0,0,0,0,-1,923,1807,0,0
-294,-783,0,0,0,0,0,0,0,0,0,-1,930,1807,0,0
-287,-783,0,0,0,0,0,0,0,0,0,-1,937,1807,0,0
-280,-783,0,0,0,0,0,0,0,0,0,-1,944,1807,0,0
-273,-783,0,0,0,0,0,0,0,0,0,-1,951,1807,0,0
-266,-783,0,0,0,0,0,0,0,0,0,-1,958,1807,0,0
-259,-783,0,0,0,0,0,0,0,0,0,-1,965,1807,0,0
-252,-783,0,0,0,0,0,0,0,0,0,-1,972,1807,0,0
-245,-783,0,0,0,0,0,0,0,0,0,-1,979,1807,0,0
-238,-783,0,0,0,0,0,0,0,0,0,-1,986,1807,0,0
-231,-783,0,0,0,0,0,0,0,0,0,-1,993,1807,0,0
-224,-783,0,0,0,0,0,0,0,0,0,-1,1000,1807,0,0
-217,-783,0,0,0,0,0,0,0,0,0,-1,1007,1807,0,0
-210,-783,0,0,0,0,0,0,0,0,0,-1,1014,1807,0,0
-203,-783,0,0,0,0,0,0,0,0,0,-1,1021,1807,0,0
-196,-783,0,0,0,0,0,0,0,0,0,-1,1028,1807,0,0
-189,-783,0,0,0,0,0,0,0,0,0,-1,1035,1807,0,0
-182,-783,0,0,0,0,0,0,0,0,0,-1,1042,1807,0,0
-175,-783,0,0,0,0,0,0,0,0,0,-1,1049,1807,0,0
-168,-783,0,0,0,0,0,0,0,0,0,-1,1056,1807,0,0
-161,-783,0,0,0,0,0,0,0,0,0,-1,1063,1807,0,0
-154,-783,0,0,0,0,0,0,0,0,0,-1,1070,1807,0,0
-147,-783,0,0,0,0,0,0,0,0,0,-1,1077,1807,0,0
-140,-783,0,0,0,0,0,0,0,0,0,-1,1084,1807,0,0
-133,-783,0,0,0,0,0,0,0,0,0,-1,1091,1807,0,0
-126,-783,0,0,0,0,0,0,0,0,0,-1,1098,1807,0,0
-119,-783,0,0,0,0,0,0,0,0,0,-1,1105,1807,0,0
-112,-783,5.89819,9.30164,0,0,0,0,0,0,0,-1,1112,1807,5.89817,-9.30162
-105,-783,2.69995,11.1136,0,0,0,0,0,0,0,-1,1119,1807,2.69993,-11.1136
-98,-783,2.79358,10.5928,0,0,0,0,0,0,0,-1,1126,1807,2.79361,-10.5928
-91,-783,2.92358,10.0829,0,0,0,0,0,0,0,-1,1133,1807,2.92362,-10.0829
-84,-783,3.11621,9.53247,0,0,0,0,0,0,0,-1,1140,1807,3.11621,-9.53241
-77,-783,3.19397,9.08472,0,0,0,0,0,0,0,-1,1147,1807,3.19394,-9.08469
-70,-783,-1.93176,5.12817,0,0,0,0,0,0,0,-1,1154,1807,-1.93171,-5.12813
-63,-783,-2.46729,4.38416,0,0,0,0,0,0,0,-1,1161,1807,-2.46723,-4.38411
-56,-783,-2.11902,6.73853,0,0,0,0,0,0,0,-1,1168,1807,-2.11904,-6.73854
-49,-783,-3.17688,4.59705,0,0,0,0,0,0,0,-1,1175,1807,-3.17685,-4.5971
-42,-783,-3.72876,3.1405,0,0,0,0,0,0,0,-1,1182,1807,-3.72874,-3.14055
-35,-783,-3.97046,1.59399,0,0,0,0,0,0,0,-1,1189,1807,-3.97041,-1.59401
-28,-783,-4.12195,0.270386,0,0,0,0,0,0,0,-1,1196,1807,-4.12197,-0.270408
-21,-783,7.25256,6.63062,0,0,0,0,0,0,0,-1,1203,1807,7.25256,-6.63066
-14,-783,7.25757,6.98218,0,0,0,0,0,0,0,-1,1210,1807,7.25752,-6.98219
-7,-783,7.22766,7.39722,0,0,0,0,0,0,0,-1,1217,1807,7.2277,-7.39717
0,-783,7.31458,7.60608,0,0,0,0,0,0,0,-1,1224,1807,7.3146,-7.60605
7,-783,3.55542,8.87939,0,0,0,0,0,0,0,-1,1231,1807,3.55547,-8.87937
14,-783,3.81482,8.33081,0.0397869,0.0176477,0.00933272,0.0431961,0.0142385,0.350235,0.0254173,0.0453205,1238,1807,3.81484,-8.33078
21,-783,3.89771,8.77563,0.0537971,0.0186867,0.00759227,0.0553685,0.0171153,0.204095,0.0327343,0.0475856,1245,1807,3.89768,-8.77564
28,-783,3.67969,9.42578,0.0657843,0.0205825,0.00548813,0.0664411,0.0199257,0.119109,0.0393704,0.0481859,1252,1807,3.67971,-9.42578
35,-783,3.39636,9.15833,0,0,0,0,0,0,0,-1,1259,1807,3.39637,-9.1583
42,-783,3.45764,9.11121,0.084514,0.0262531,0.00118464,0.0845381,0.026229,0.0203222,0.0499658,0.048592,1266,1807,3.45765,-9.11125
49,-783,3.52527,9.04529,0.0910377,0.0291506,-0.000531779,0.0910423,0.0291461,-0.00859188,0.053685,0.0492737,1273,1807,3.52533,-9.04532
56,-783,3.69019,9.12207,0,0,0,0,0,0,0,-1,1280,1807,3.69024,-9.1221
63,-783,2.19397,8.69934,0.0966812,0.0342564,-0.00255837,0.0967858,0.0341517,-0.0408918,0.0566801,0.0457156,1287,1807,2.19393,-8.69936
70,-783,4.30176,8.17969,0.0967627,0.0349593,-0.00329415,0.0969377,0.0347842,-0.0530999,0.0567057,0.0473364,1294,1807,4.30176,-8.17964
77,-783,4.89636,8.03027,0,0,0,0,0,0,0,-1,1301,1807,4.89632,-8.03024
84,-783,2.62939,8.82971,0.0892492,0.0302897,-0.00395501,0.0895134,0.0300256,-0.066682,0.0526054,0.0459925,1308,1807,2.62936,-8.82969
91,-783,2.86926,9.32324,0.0835467,0.0258641,-0.00349333,0.0837575,0.0256533,-0.0602676,0.0495524,0.0454651,1315,1807,2.86924,-9.32323
98,-783,2.40869,8.80396,0,0,0,0,0,0,0,-1,1322,1807,2.4087,-8.80394
105,-783,2.36194,8.80627,0,0,0,0,0,0,0,-1,1329,1807,2.36197,-8.80626
112,-783,4.33301,9.67957,0,0,0,0,0,0,0,-1,1336,1807,4.33301,-9.67952
119,-783,4.73962,9.82056,0.056604,-0.00472364,-0.000387884,0.0566064,-0.00472609,-0.00632444,0.0394076,0.0480347,1343,1807,4.73963,-9.82058
126,-783,4.93567,10.163,0.0522714,-0.0153172,0.00126819,0.0522952,-0.015341,0.0187545,0.0409466,0.0462044,1350,1807,4.93562,-10.163
133,-783,5.38306,10.5601,0.0522396,-0.0258095,0.00311449,0.0523637,-0.0259336,0.0398198,0.0460554,0.0469779,1357,1807,5.38308,-10.56
140,-783,5.83191,11.0774,0,0,0,0,0,0,0,-1,1364,1807,5.83187,-11.0774
147,-783,6.45825,-1.2334,0,0,0,0,0,0,0,-1,1371,1807,6.45822,1.23339
154,-783,6.37024,-0.145874,0,0,0,0,0,0,0,-1,1378,1807,6.37018,0.145866
161,-783,6.57568,1.16174,0,0,0,0,0,0,0,-1,1385,1807,6.57562,-1.1617
168,-783,8.62561,1.79944,0,0,0,0,0,0,0,-1,1392,1807,8.62561,-1.79946
175,-783,8.78699,3.40857,0,0,0,0,0,0,0,-1,1399,1807,8.78697,-3.40854
182,-783,8.70984,5.14661,0,0,0,0,0,0,0,-1,1406,1807,8.70989,-5.14666
189,-783,8.55762,6.79871,0,0,0,0,0,0,0,-1,1413,1807,8.55766,-6.79872
196,-783,8.25488,8.66626,0,0,0,0,0,0,0,-1,1420,1807,8.25492,-8.66628
203,-783,7.86755,10.5735,0,0,0,0,0,0,0,-1,1427,1807,7.8676,-10.5734
210,-783,5.6969,8.99231,0,0,0,0,0,0,0,-1,1434,1807,5.69693,-8.99234
217,-783,5.28503,3.80872,0,0,0,0,0,0,0,-1,1441,1807,5.285,-3.80868
224,-783,3.22571,6.62903,0,0,0,0,0,0,0,-1,1448,1807,3.2257,-6.62907
231,-783,4.27942,4.56262,0,0,0,0,0,0,0,-1,1455,1807,4.27948,-4.56267
238,-783,0,0,0,0,0,0,0,0,0,-1,1462,1807,0,0
245,-783,0,0,0,0,0,0,0,0,0,-1,1469,1807,0,0
252,-783,0,0,0,0,0,0,0,0,0,-1,1476,1807,0,0
259,-783,0,0,0,0,0,0,0,0,0,-1,1483,1807,0,0
266,-783,0,0,0,0,0,0,0,0,0,-1,1490,1807,0,0
273,-783,0,0,0,0,0,0,0,0,0,-1,1497,1807,0,0
280,-783,0,0,0,0,0,0,0,0,0,-1,1504,1807,0,0
287,-783,0,0,0,0,0,0,0,0,0,-1,1511,1807,0,0
294,-783,0,0,0,0,0,0,0,0,0,-1,1518,1807,0,0
301,-783,0,0,0,0,0,0,0,0,0,-1,1525,1807,0,0
308,-783,0,0,0,0,0,0,0,0,0,-1,1532,1807,0,0
315,-783,0,0,0,0,0,0,0,0,0,-1,1539,1807,0,0
322,-783,0,0,0,0,0,0,0,0,0,-1,1546,1807,0,0
329,-783,0,0,0,0,0,0,0,0,0,-1,1553,1807,0,0
336,-783,0,0,0,0,0,0,0,0,0,-1,1560,1807,0,0
343,-783,0,0,0,0,0,0,0,0,0,-1,1567,1807,0,0
350,-783,0,0,0,0,0,0,0,0,0,-1,1574,1807,0,0
357,-783,0,0,0,0,0,0,0,0,0,-1,1581,1807,0,0
364,-783,0,0,0,0,0,0,0,0,0,-1,1588,1807,0,0
371,-783,0,0,0,0,0,0,0,0,0,-1,1595,1807,0,0
378,-783,0,0,0,0,0,0,0,0,0,-1,1602,1807,0,0
385,-783,0,0,0,0,0,0,0,0,0,-1,1609,1807,0,0
392,-783,0,0,0,0,0,0,0,0,0,-1,1616,1807,0,0
399,-783,0,0,0,0,0,0,0,0,0,-1,1623,1807,0,0
406,-783,0,0,0,0,0,0,0,0,0,-1,1630,1807,0,0
413,-783,0,0,0,0,0,0,0,0,0,-1,1637,1807,0,0
420,-783,0,0,0,0,0,0,0,0,0,-1,1644,1807,0,0
427,-783,0,0,0,0,0,0,0,0,0,-1,1651,1807,0,0
434,-783,0,0,0,0,0,0,0,0,0,-1,1658,1807,0,0
441,-783,0,0,0,0,0,0,0,0,0,-1,1665,1807,0,0
448,-783,0,0,0,0,0,0,0,0,0,-1,1672,1807,0,0
455,-783,0,0,0,0,0,0,0,0,0,-1,1679,1807,0,0
462,-783,0,0,0,0,0,0,0,0,0,-1,1686,1807,0,0
469,-783,0,0,0,0,0,0,0,0,0,-1,1693,1807,0,0
476,-783,0,0,0,0,0,0,0,0,0,-1,1700,1807,0,0
483,-783,0,0,0,0,0,0,0,0,0,-1,1707,1807,0,0
490,-783,0,0,0,0,0,0,0,0,0,-1,1714,1807,0,0
497,-783,0,0,0,0,0,0,0,0,0,-1,1721,1807,0,0
504,-783,0,0,0,0,0,0,0,0,0,-1,1728,1807,0,0
511,-783,0,0,0,0,0,0,0,0,0,-1,1735,1807,0,0
518,-783,0,0,0,0,0,0,0,0,0,-1,1742,1807,0,0
525,-783,0,0,0,0,0,0,0,0,0,-1,1749,1807,0,0
532,-783,0,0,0,0,0,0,0,0,0,-1,1756,1807,0,0
539,-783,0,0,0,0,0,0,0,0,0,-1,1763,1807,0,0
546,-783,0,0,0,0,0,0,0,0,0,-1,1770,1807,0,0
553,-783,0,0,0,0,0,0,0,0,0,-1,1777,1807,0,0
560,-783,0,0,0,0,0,0,0,0,0,-1,1784,1807,0,0
567,-783,0,0,0,0,0,0,0,0,0,-1,1791,1807,0,0
574,-783,0,0,0,0,0,0,0,0,0,-1,1798,1807,0,0
581,-783,0,0,0,0,0,0,0,0,0,-1,1805,1807,0,0
588,-783,0,0,0,0,0,0,0,0,0,-1,1812,1807,0,0
595,-783,0,0,0,0,0,0,0,0,0,-1,1819,1807,0,0
602,-783,0,0,0,0,0,0,0,0,0,-1,1826,1807,0,0
609,-783,0,0,0,0,0,0,0,0,0,-1,1833,1807,0,0
616,-783,0,0,0,0,0,0,0,0,0,-1,1840,1807,0,0
623,-783,0,0,0,0,0,0,0,0,0,-1,1847,1807,0,0
630,-783,0,0,0,0,0,0,0,0,0,-1,1854,1807,0,0
637,-783,0,0,0,0,0,0,0,0,0,-1,1861,1807,0,0
644,-783,0,0,0,0,0,0,0,0,0,-1,1868,1807,0,0
651,-783,0,0,0,0,0,0,0,0,0,-1,1875,1807,0,0
658,-783,0,0,0,0,0,0,0,0,0,-1,1882,1807,0,0
665,-783,0,0,0,0,0,0,0,0,0,-1,1889,1807,0,0
672,-783,0,0,0,0,0,0,0,0,0,-1,1896,1807,0,0
679,-783,0,0,0,0,0,0,0,0,0,-1,1903,1807,0,0
686,-783,0,0,0,0,0,0,0,0,0,-1,1910,1807,0,0
693,-783,0,0,0,0,0,0,0,0,0,-1,1917,1807,0,0
700,-783,0,0,0,0,0,0,0,0,0,-1,1924,1807,0,0
707,-783,0,0,0,0,0,0,0,0,0,-1,1931,1807,0,0
714,-783,0,0,0,0,0,0,0,0,0,-1,1938,1807,0,0
721,-783,0,0,0,0,0,0,0,0,0,-1,1945,1807,0,0
728,-783,0,0,0,0,0,0,0,0,0,-1,1952,1807,0,0
735,-783,0,0,0,0,0,0,0,0,0,-1,1959,1807,0,0
742,-783,0,0,0,0,0,0,0,0,0,-1,1966,1807,0,0
749,-783,0,0,0,0,0,0,0,0,0,-1,1973,1807,0,0
756,-783,0,0,0,0,0,0,0,0,0,-1,1980,1807,0,0
763,-783,0,0,0,0,0,0,0,0,0,-1,1987,1807,0,0
770,-783,0,0,0,0,0,0,0,0,0,-1,1994,1807,0,0
777,-783,0,0,0,0,0,0,0,0,0,-1,2001,1807,0,0
784,-783,0,0,0,0,0,0,0,0,0,-1,2008,1807,0,0
791,-783,0,0,0,0,0,0,0,0,0,-1,2015,1807,0,0
798,-783,0,0,0,0,0,0,0,0,0,-1,2022,1807,0,0
805,-783,0,0,0,0,0,0,0,0,0,-1,2029,1807,0,0
812,-783,0,0,0,0,0,0,0,0,0,-1,2036,1807,0,0
-700,-790,0,0,0,0,0,0,0,0,0,-1,524,1814,0,0
-693,-790,0,0,0,0,0,0,0,0,0,-1,531,1814,0,0
-686,-790,0,0,0,0,0,0,0,0,0,-1,538,1814,0,0
-679,-790,0,0,0,0,0,0,0,0,0,-1,545,1814,0,0
-672,-790,0,0,0,0,0,0,0,0,0,-1,552,1814,0,0
-665,-790,0,0,0,0,0,0,0,0,0,-1,559,1814,0,0
-658,-790,0,0,0,0,0,0,0,0,0,-1,566,1814,0,0
-651,-790,0,0,0,0,0,0,0,0,0,-1,573,1814,0,0
-644,-790,0,0,0,0,0,0,0,0,0,-1,580,1814,0,0
-637,-790,0,0,0,0,0,0,0,0,0,-1,587,1814,0,0
-630,-790,0,0,0,0,0,0,0,0,0,-1,594,1814,0,0
-623,-790,0,0,0,0,0,0,0,0,0,-1,601,1814,0,0
-616,-790,0,0,0,0,0,0,0,0,0,-1,608,1814,0,0
-609,-790,0,0,0,0,0,0,0,0,0,-1,615,1814,0,0
-602,-790,0,0,0,0,0,0,0,0,0,-1,622,1814,0,0
-595,-790,0,0,0,0,0,0,0,0,0,-1,629,1814,0,0
-588,-790,0,0,0,0,0,0,0,0,0,-1,636,1814,0,0
-581,-790,0,0,0,0,0,0,0,0,0,-1,643,1814,0,0
-574,-790,0,0,0,0,0,0,0,0,0,-1,650,1814,0,0
-567,-790,0,0,0,0,0,0,0,0,0,-1,657,1814,0,0
-560,-790,0,0,0,0,0,0,0,0,0,-1,664,1814,0,0
-553,-790,0,0,0,0,0,0,0,0,0,-1,671,1814,0,0
-546,-790,0,0,0,0,0,0,0,0,0,-1,678,1814,0,0
-539,-790,0,0,0,0,0,0,0,0,0,-1,685,1814,0,0
-532,-790,0,0,0,0,0,0,0,0,0,-1,692,1814,0,0
-525,-790,0,0,0,0,0,0,0,0,0,-1,699,1814,0,0
-518,-790,0,0,0,0,0,0,0,0,0,-1,706,1814,0,0
-511,-790,0,0,0,0,0,0,0,0,0,-1,713,1814,0,0
-504,-790,0,0,0,0,0,0,0,0,0,-1,720,1814,0,0
-497,-790,0,0,0,0,0,0,0,0,0,-1,727,1814,0,0
-490,-790,0,0,0,0,0,0,0,0,0,-1,734,1814,0,0
-483,-790,0,0,0,0,0,0,0,0,0,-1,741,1814,0,0
-476,-790,0,0,0,0,0,0,0,0,0,-1,748,1814,0,0
-469,-790,0,0,0,0,0,0,0,0,0,-1,755,1814,0,0
-462,-790,0,0,0,0,0,0,0,0,0,-1,762,1814,0,0
-455,-790,0,0,0,0,0,0,0,0,0,-1,769,1814,0,0
-448,-790,0,0,0,0,0,0,0,0,0,-1,776,1814,0,0
-441,-790,0,0,0,0,0,0,0,0,0,-1,783,1814,0,0
-434,-790,0,0,0,0,0,0,0,0,0,-1,790,1814,0,0
-427,-790,0,0,0,0,0,0,0,0,0,-1,797,1814,0,0
-420,-790,0,0,0,0,0,0,0,0,0,-1,804,1814,0,0
-413,-790,0,0,0,0,0,0,0,0,0,-1,811,1814,0,0
-406,-790,0,0,0,0,0,0,0,0,0,-1,818,1814,0,0
-399,-790,0,0,0,0,0,0,0,0,0,-1,825,1814,0,0
-392,-790,0,0,0,0,0,0,0,0,0,-1,832,1814,0,0
-385,-790,0,0,0,0,0,0,0,0,0,-1,839,1814,0,0
-378,-790,0,0,0,0,0,0,0,0,0,-1,846,1814,0,0
-371,-790,0,0,0,0,0,0,0,0,0,-1,853,1814,0,0
-364,-790,0,0,0,0,0,0,0,0,0,-1,860,1814,0,0
-357,-790,0,0,0,0,0,0,0,0,0,-1,867,1814,0,0
-350,-790,0,0,0,0,0,0,0,0,0,-1,874,1814,0,0
-343,-790,0,0,0,0,0,0,0,0,0,-1,881,1814,0,0
-336,-790,0,0,0,0,0,0,0,0,0,-1,888,1814,0,0
-329,-790,0,0,0,0,0,0,0,0,0,-1,895,1814,0,0
-322,-790,0,0,0,0,0,0,0,0,0,-1,902,1814,0,0
-315,-790,0,0,0,0,0,0,0,0,0,-1,909,1814,0,0
-308,-790,0,0,0,0,0,0,0,0,0,-1,916,1814,0,0
-301,-790,0,0,0,0,0,0,0,0,0,-1,923,1814,0,0
-294,-790,0,0,0,0,0,0,0,0,0,-1,930,1814,0,0
-287,-790,0,0,0,0,0,0,0,0,0,-1,937,1814,0,0
-280,-790,0,0,0,0,0,0,0,0,0,-1,944,1814,0,0
-273,-790,0,0,0,0,0,0,0,0,0,-1,951,1814,0,0
-266,-790,0,0,0,0,0,0,0,0,0,-1,958,1814,0,0
-259,-790,0,0,0,0,0,0,0,0,0,-1,965,1814,0,0
-252,-790,0,0,0,0,0,0,0,0,0,-1,972,1814,0,0
-245,-790,0,0,0,0,0,0,0,0,0,-1,979,1814,0,0
-238,-790,0,0,0,0,0,0,0,0,0,-1,986,1814,0,0
-231,-790,0,0,0,0,0,0,0,0,0,-1,993,1814,0,0
-224,-790,0,0,0,0,0,0,0,0,0,-1,1000,1814,0,0
-217,-790,0,0,0,0,0,0,0,0,0,-1,1007,1814,0,0
-210,-790,0,0,0,0,0,0,0,0,0,-1,1014,1814,0,0
-203,-790,0,0,0,0,0,0,0,0,0,-1,1021,1814,0,0
-196,-790,0,0,0,0,0,0,0,0,0,-1,1028,1814,0,0
-189,-790,0,0,0,0,0,0,0,0,0,-1,1035,1814,0,0
-182,-790,0,0,0,0,0,0,0,0,0,-1,1042,1814,0,0
-175,-790,0,0,0,0,0,0,0,0,0,-1,1049,1814,0,0
-168,-790,0,0,0,0,0,0,0,0,0,-1,1056,1814,0,0
-161,-790,0,0,0,0,0,0,0,0,0,-1,1063,1814,0,0
-154,-790,0,0,0,0,0,0,0,0,0,-1,1070,1814,0,0
-147,-790,0,0,0,0,0,0,0,0,0,-1,1077,1814,0,0
-140,-790,0,0,0,0,0,0,0,0,0,-1,1084,1814,0,0
-133,-790,0,0,0,0,0,0,0,0,0,-1,1091,1814,0,0
-126,-790,0,0,0,0,0,0,0,0,0,-1,1098,1814,0,0
-119,-790,0,0,0,0,0,0,0,0,0,-1,1105,1814,0,0
-112,-790,0,0,0,0,0,0,0,0,0,-1,1112,1814,0,0
-105,-790,0,0,0,0,0,0,0,0,0,-1,1119,1814,0,0
-98,-790,0,0,0,0,0,0,0,0,0,-1,1126,1814,0,0
-91,-790,0,0,0,0,0,0,0,0,0,-1,1133,1814,0,0
-84,-790,0,0,0,0,0,0,0,0,0,-1,1140,1814,0,0
-77,-790,-0.969238,5.30847,0,0,0,0,0,0,0,-1,1147,1814,-0.969277,-5.3085
-70,-790,-1.23169,4.98914,0,0,0,0,0,0,0,-1,1154,1814,-1.23163,-4.98916
-63,-790,-1.69128,4.32263,0,0,0,0,0,0,0,-1,1161,1814,-1.69128,-4.32258
-56,-790,-2.24756,3.75305,0,0,0,0,0,0,0,-1,1168,1814,-2.24758,-3.75302
-49,-790,-3.11011,3.35779,0,0,0,0,0,0,0,-1,1175,1814,-3.11006,-3.35781
-42,-790,0.593262,1.19165,0,0,0,0,0,0,0,-1,1182,1814,0.593225,-1.19165
-35,-790,0.307129,-0.20105,0,0,0,0,0,0,0,-1,1189,1814,0.307178,0.201006
-28,-790,-2.78467,0.785156,0,0,0,0,0,0,0,-1,1196,1814,-2.78471,-0.785183
-21,-790,6.58533,5.74109,0,0,0,0,0,0,0,-1,1203,1814,6.58537,-5.74103
-14,-790,6.77478,6.12146,0,0,0,0,0,0,0,-1,1210,1814,6.77483,-6.1215
-7,-790,7.46899,7.79565,0,0,0,0,0,0,0,-1,1217,1814,7.46897,-7.7957
0,-790,7.53577,7.50525,0,0,0,0,0,0,0,-1,1224,1814,7.53571,-7.50523
7,-790,4.01282,7.65503,0,0,0,0,0,0,0,-1,1231,1814,4.01286,-7.65498
14,-790,4.0603,8.14111,0.0595532,0.0263414,0.0121472,0.0635218,0.0223728,0.315777,0.0372046,0.0470091,1238,1814,4.06033,-8.14107
21,-790,3.88794,8.35071,0.078348,0.0266016,0.0102785,0.0803149,0.0246347,0.189073,0.0475105,0.043145,1245,1814,3.88799,-8.35075
28,-790,3.7135,9.45032,0,0,0,0,0,0,0,-1,1252,1814,3.71347,-9.45028
35,-790,4.46008,7.81274,0,0,0,0,0,0,0,-1,1259,1814,4.46012,-7.81279
42,-790,3.36279,9.11902,0,0,0,0,0,0,0,-1,1266,1814,3.36278,-9.11904
49,-790,3.37927,9.06201,0,0,0,0,0,0,0,-1,1273,1814,3.37922,-9.06206
56,-790,1.78772,6.92468,0,0,0,0,0,0,0,-1,1280,1814,1.78774,-6.92474
63,-790,1.65479,8.23828,0,0,0,0,0,0,0,-1,1287,1814,1.65483,-8.23829
70,-790,4.63013,7.70325,0.131793,0.0455436,-0.00609642,0.132222,0.0451148,-0.0702179,0.0776112,0.0440098,1294,1814,4.63014,-7.70323
77,-790,5.30713,7.50916,0.127402,0.0438681,-0.00712439,0.128005,0.0432648,-0.0844746,0.0751858,0.0456975,1301,1814,5.30708,-7.50912
84,-790,5.92297,7.29724,0,0,0,0,0,0,0,-1,1308,1814,5.92293,-7.29729
91,-790,2.9325,9.26282,0,0,0,0,0,0,0,-1,1315,1814,2.93254,-9.26283
98,-790,8.21008,8.59436,0,0,0,0,0,0,0,-1,1322,1814,8.21011,-8.59437
105,-790,2.04285,8.8064,0,0,0,0,0,0,0,-1,1329,1814,2.04289,-8.80637
112,-790,4.65869,10.0115,0,0,0,0,0,0,0,-1,1336,1814,4.65864,-10.0115
119,-790,4.97766,10.2599,0,0,0,0,0,0,0,-1,1343,1814,4.97761,-10.2598
126,-790,5.20166,10.5787,0,0,0,0,0,0,0,-1,1350,1814,5.20165,-10.5788
133,-790,5.62939,10.7443,0,0,0,0,0,0,0,-1,1357,1814,5.62934,-10.7442
140,-790,6.18506,11.1714,0,0,0,0,0,0,0,-1,1364,1814,6.18507,-11.1713
147,-790,6.44666,-1.87561,0,0,0,0,0,0,0,-1,1371,1814,6.4466,1.87567
154,-790,6.34485,-0.540405,0,0,0,0,0,0,0,-1,1378,1814,6.34482,0.540409
161,-790,6.62683,1.1134,0,0,0,0,0,0,0,-1,1385,1814,6.62682,-1.11344
168,-790,7.04077,2.23279,0,0,0,0,0,0,0,-1,1392,1814,7.04082,-2.23275
175,-790,9.03918,3.98535,0,0,0,0,0,0,0,-1,1399,1814,9.0392,-3.98535
182,-790,8.96997,5.67896,0,0,0,0,0,0,0,-1,1406,1814,8.97001,-5.6789
189,-790,8.59729,6.86975,0,0,0,0,0,0,0,-1,1413,1814,8.59728,-6.86972
196,-790,8.21924,9.29053,0,0,0,0,0,0,0,-1,1420,1814,8.21924,-9.29048
203,-790,0,0,0,0,0,0,0,0,0,-1,1427,1814,0,0
210,-790,0,0,0,0,0,0,0,0,0,-1,1434,1814,0,0
217,-790,0,0,0,0,0,0,0,0,0,-1,1441,1814,0,0
224,-790,0,0,0,0,0,0,0,0,0,-1,1448,1814,0,0
231,-790,0,0,0,0,0,0,0,0,0,-1,1455,1814,0,0
238,-790,0,0,0,0,0,0,0,0,0,-1,1462,1814,0,0
245,-790,0,0,0,0,0,0,0,0,0,-1,1469,1814,0,0
252,-790,0,0,0,0,0,0,0,0,0,-1,1476,1814,0,0
259,-790,0,0,0,0,0,0,0,0,0,-1,1483,1814,0,0
266,-790,0,0,0,0,0,0,0,0,0,-1,1490,1814,0,0
273,-790,0,0,0,0,0,0,0,0,0,-1,1497,1814,0,0
280,-790,0,0,0,0,0,0,0,0,0,-1,1504,1814,0,0
287,-790,0,0,0,0,0,0,0,0,0,-1,1511,1814,0,0
294,-790,0,0,0,0,0,0,0,0,0,-1,1518,1814,0,0
301,-790,0,0,0,0,0,0,0,0,0,-1,1525,1814,0,0
308,-790,0,0,0,0,0,0,0,0,0,-1,1532,1814,0,0
315,-790,0,0,0,0,0,0,0,0,0,-1,1539,1814,0,0
322,-790,0,0,0,0,0,0,0,0,0,-1,1546,1814,0,0
329,-790,0,0,0,0,0,0,0,0,0,-1,1553,1814,0,0
336,-790,0,0,0,0,0,0,0,0,0,-1,1560,1814,0,0
343,-790,0,0,0,0,0,0,0,0,0,-1,1567,1814,0,0
350,-790,0,0,0,0,0,0,0,0,0,-1,1574,1814,0,0
357,-790,0,0,0,0,0,0,0,0,0,-1,1581,1814,0,0
364,-790,0,0,0,0,0,0,0,0,0,-1,1588,1814,0,0
371,-790,0,0,0,0,0,0,0,0,0,-1,1595,1814,0,0
378,-790,0,0,0,0,0,0,0,0,0,-1,1602,1814,0,0
385,-790,0,0,0,0,0,0,0,0,0,-1,1609,1814,0,0
392,-790,0,0,0,0,0,0,0,0,0,-1,1616,1814,0,0
399,-790,0,0,0,0,0,0,0,0,0,-1,1623,1814,0,0
406,-790,0,0,0,0,0,0,0,0,0,-1,1630,1814,0,0
413,-790,0,0,0,0,0,0,0,0,0,-1,1637,1814,0,0
420,-790,0,0,0,0,0,0,0,0,0,-1,1644,1814,0,0
427,-790,0,0,0,0,0,0,0,0,0,-1,1651,1814,0,0
434,-790,0,0,0,0,0,0,0,0,0,-1,1658,1814,0,0
441,-790,0,0,0,0,0,0,0,0,0,-1,1665,1814,0,0
448,-790,0,0,0,0,0,0,0,0,0,-1,1672,1814,0,0
455,-790,0,0,0,0,0,0,0,0,0,-1,1679,1814,0,0
462,-790,0,0,0,0,0,0,0,0,0,-1,1686,1814,0,0
469,-790,0,0,0,0,0,0,0,0,0,-1,1693,1814,0,0
476,-790,0,0,0,0,0,0,0,0,0,-1,1700,1814,0,0
483,-790,0,0,0,0,0,0,0,0,0,-1,1707,1814,0,0
490,-790,0,0,0,0,0,0,0,0,0,-1,1714,1814,0,0
497,-790,0,0,0,0,0,0,0,0,0,-1,1721,1814,0,0
504,-790,0,0,0,0,0,0,0,0,0,-1,1728,1814,0,0
511,-790,0,0,0,0,0,0,0,0,0,-1,1735,1814,0,0
518,-790,0,0,0,0,0,0,0,0,0,-1,1742,1814,0,0
525,-790,0,0,0,0,0,0,0,0,0,-1,1749,1814,0,0
532,-790,0,0,0,0,0,0,0,0,0,-1,1756,1814,0,0
539,-790,0,0,0,0,0,0,0,0,0,-1,1763,1814,0,0
546,-790,0,0,0,0,0,0,0,0,0,-1,1770,1814,0,0
553,-790,0,0,0,0,0,0,0,0,0,-1,1777,1814,0,0
560,-790,0,0,0,0,0,0,0,0,0,-1,1784,1814,0,0
567,-790,0,0,0,0,0,0,0,0,0,-1,1791,1814,0,0
574,-790,0,0,0,0,0,0,0,0,0,-1,1798,1814,0,0
581,-790,0,0,0,0,0,0,0,0,0,-1,1805,1814,0,0
588,-790,0,0,0,0,0,0,0,0,0,-1,1812,1814,0,0
595,-790,0,0,0,0,0,0,0,0,0,-1,1819,1814,0,0
602,-790,0,0,0,0,0,0,0,0,0,-1,1826,1814,0,0
609,-790,0,0,0,0,0,0,0,0,0,-1,1833,1814,0,0
616,-790,0,0,0,0,0,0,0,0,0,-1,1840,1814,0,0
623,-790,0,0,0,0,0,0,0,0,0,-1,1847,1814,0,0
630,-790,0,0,0,0,0,0,0,0,0,-1,1854,1814,0,0
637,-790,0,0,0,0,0,0,0,0,0,-1,1861,1814,0,0
644,-790,0,0,0,0,0,0,0,0,0,-1,1868,1814,0,0
651,-790,0,0,0,0,0,0,0,0,0,-1,1875,1814,0,0
658,-790,0,0,0,0,0,0,0,0,0,-1,1882,1814,0,0
665,-790,0,0,0,0,0,0,0,0,0,-1,1889,1814,0,0
672,-790,0,0,0,0,0,0,0,0,0,-1,1896,1814,0,0
679,-790,0,0,0,0,0,0,0,0,0,-1,1903,1814,0,0
686,-790,0,0,0,0,0,0,0,0,0,-1,1910,1814,0,0
693,-790,0,0,0,0,0,0,0,0,0,-1,1917,1814,0,0
700,-790,0,0,0,0,0,0,0,0,0,-1,1924,1814,0,0
707,-790,0,0,0,0,0,0,0,0,0,-1,1931,1814,0,0
714,-790,0,0,0,0,0,0,0,0,0,-1,1938,1814,0,0
721,-790,0,0,0,0,0,0,0,0,0,-1,1945,1814,0,0
728,-790,0,0,0,0,0,0,0,0,0,-1,1952,1814,0,0
735,-790,0,0,0,0,0,0,0,0,0,-1,1959,1814,0,0
742,-790,0,0,0,0,0,0,0,0,0,-1,1966,1814,0,0
749,-790,0,0,0,0,0,0,0,0,0,-1,1973,1814,0,0
756,-790,0,0,0,0,0,0,0,0,0,-1,1980,1814,0,0
763,-790,0,0,0,0,0,0,0,0,0,-1,1987,1814,0,0
770,-790,0,0,0,0,0,0,0,0,0,-1,1994,1814,0,0
777,-790,0,0,0,0,0,0,0,0,0,-1,2001,1814,0,0
784,-790,0,0,0,0,0,0,0,0,0,-1,2008,1814,0,0
791,-790,0,0,0,0,0,0,0,0,0,-1,2015,1814,0,0
798,-790,0,0,0,0,0,0,0,0,0,-1,2022,1814,0,0
805,-790,0,0,0,0,0,0,0,0,0,-1,2029,1814,0,0
812,-790,0,0,0,0,0,0,0,0,0,-1,2036,1814,0,0
-700,-797,0,0,0,0,0,0,0,0,0,-1,524,1821,0,0
-693,-797,0,0,0,0,0,0,0,0,0,-1,531,1821,0,0
-686,-797,0,0,0,0,0,0,0,0,0,-1,538,1821,0,0
-679,-797,0,0,0,0,0,0,0,0,0,-1,545,1821,0,0
-672,-797,0,0,0,0,0,0,0,0,0,-1,552,1821,0,0
-665,-797,0,0,0,0,0,0,0,0,0,-1,559,1821,0,0
-658,-797,0,0,0,0,0,0,0,0,0,-1,566,1821,0,0
-651,-797,0,0,0,0,0,0,0,0,0,-1,573,1821,0,0
-644,-797,0,0,0,0,0,0,0,0,0,-1,580,1821,0,0
-637,-797,0,0,0,0,0,0,0,0,0,-1,587,1821,0,0
-630,-797,0,0,0,0,0,0,0,0,0,-1,594,1821,0,0
-623,-797,0,0,0,0,0,0,0,0,0,-1,601,1821,0,0
-616,-797,0,0,0,0,0,0,0,0,0,-1,608,1821,0,0
-609,-797,0,0,0,0,0,0,0,0,0,-1,615,1821,0,0
-602,-797,0,0,0,0,0,0,0,0,0,-1,622,1821,0,0
-595,-797,0,0,0,0,0,0,0,0,0,-1,629,1821,0,0
-588,-797,0,0,0,0,0,0,0,0,0,-1,636,1821,0,0
-581,-797,0,0,0,0,0,0,0,0,0,-1,643,1821,0,0
-574,-797,0,0,0,0,0,0,0,0,0,-1,650,1821,0,0
-567,-797,0,0,0,0,0,0,0,0,0,-1,657,1821,0,0
-560,-797,0,0,0,0,0,0,0,0,0,-1,664,1821,0,0
-553,-797,0,0,0,0,0,0,0,0,0,-1,671,1821,0,0
-546,-797,0,0,0,0,0,0,0,0,0,-1,678,1821,0,0
-539,-797,0,0,0,0,0,0,0,0,0,-1,685,1821,0,0
-532,-797,0,0,0,0,0,0,0,0,0,-1,692,1821,0,0
-525,-797,0,0,0,0,0,0,0,0,0,-1,699,1821,0,0
-518,-797,0,0,0,0,0,0,0,0,0,-1,706,1821,0,0
-511,-797,0,0,0,0,0,0,0,0,0,-1,713,1821,0,0
-504,-797,0,0,0,0,0,0,0,0,0,-1,720,1821,0,0
-497,-797,0,0,0,0,0,0,0,0,0,-1,727,1821,0,0
-490,-797,0,0,0,0,0,0,0,0,0,-1,734,1821,0,0
-483,-797,0,0,0,0,0,0,0,0,0,-1,741,1821,0,0
-476,-797,0,0,0,0,0,0,0,0,0,-1,748,1821,0,0
-469,-797,0,0,0,0,0,0,0,0,0,-1,755,1821,0,0
-462,-797,0,0,0,0,0,0,0,0,0,-1,762,1821,0,0
-455,-797,0,0,0,0,0,0,0,0,0,-1,769,1821,0,0
-448,-797,0,0,0,0,0,0,0,0,0,-1,776,1821,0,0
-441,-797,0,0,0,0,0,0,0,0,0,-1,783,1821,0,0
-434,-797,0,0,0,0,0,0,0,0,0,-1,790,1821,0,0
-427,-797,0,0,0,0,0,0,0,0,0,-1,797,1821,0,0
-420,-797,0,0,0,0,0,0,0,0,0,-1,804,1821,0,0
-413,-797,0,0,0,0,0,0,0,0,0,-1,811,1821,0,0
-406,-797,0,0,0,0,0,0,0,0,0,-1,818,1821,0,0
-399,-797,0,0,0,0,0,0,0,0,0,-1,825,1821,0,0
-392,-797,0,0,0,0,0,0,0,0,0,-1,832,1821,0,0
-385,-797,0,0,0,0,0,0,0,0,0,-1,839,1821,0,0
-378,-797,0,0,0,0,0,0,0,0,0,-1,846,1821,0,0
-371,-797,0,0,0,0,0,0,0,0,0,-1,853,1821,0,0
-364,-797,0,0,0,0,0,0,0,0,0,-1,860,1821,0,0
-357,-797,0,0,0,0,0,0,0,0,0,-1,867,1821,0,0
-350,-797,0,0,0,0,0,0,0,0,0,-1,874,1821,0,0
-343,-797,0,0,0,0,0,0,0,0,0,-1,881,1821,0,0
-336,-797,0,0,0,0,0,0,0,0,0,-1,888,1821,0,0
-329,-797,0,0,0,0,0,0,0,0,0,-1,895,1821,0,0
-322,-797,0,0,0,0,0,0,0,0,0,-1,902,1821,0,0
-315,-797,0,0,0,0,0,0,0,0,0,-1,909,1821,0,0
-308,-797,0,0,0,0,0,0,0,0,0,-1,916,1821,0,0
-301,-797,0,0,0,0,0,0,0,0,0,-1,923,1821,0,0
-294,-797,0,0,0,0,0,0,0,0,0,-1,930,1821,0,0
-287,-797,0,0,0,0,0,0,0,0,0,-1,937,1821,0,0
-280,-797,0,0,0,0,0,0,0,0,0,-1,944,1821,0,0
-273,-797,0,0,0,0,0,0,0,0,0,-1,951,1821,0,0
-266,-797,0,0,0,0,0,0,0,0,0,-1,958,1821,0,0
-259,-797,0,0,0,0,0,0,0,0,0,-1,965,1821,0,0
-252,-797,0,0,0,0,0,0,0,0,0,-1,972,1821,0,0
-245,-797,0,0,0,0,0,0,0,0,0,-1,979,1821,0,0
-238,-797,0,0,0,0,0,0,0,0,0,-1,986,1821,0,0
-231,-797,0,0,0,0,0,0,0,0,0,-1,993,1821,0,0
-224,-797,0,0,0,0,0,0,0,0,0,-1,1000,1821,0,0
-217,-797,0,0,0,0,0,0,0,0,0,-1,1007,1821,0,0
-210,-797,0,0,0,0,0,0,0,0,0,-1,1014,1821,0,0
-203,-797,0,0,0,0,0,0,0,0,0,-1,1021,1821,0,0
-196,-797,0,0,0,0,0,0,0,0,0,-1,1028,1821,0,0
-189,-797,0,0,0,0,0,0,0,0,0,-1,1035,1821,0,0
-182,-797,0,0,0,0,0,0,0,0,0,-1,1042,1821,0,0
-175,-797,0,0,0,0,0,0,0,0,0,-1,1049,1821,0,0
-168,-797,0,0,0,0,0,0,0,0,0,-1,1056,1821,0,0
-161,-797,0,0,0,0,0,0,0,0,0,-1,1063,1821,0,0
-154,-797,0,0,0,0,0,0,0,0,0,-1,1070,1821,0,0
-147,-797,0,0,0,0,0,0,0,0,0,-1,1077,1821,0,0
-140,-797,0,0,0,0,0,0,0,0,0,-1,1084,1821,0,0
-133,-797,0,0,0,0,0,0,0,0,0,-1,1091,1821,0,0
-126,-797,0,0,0,0,0,0,0,0,0,-1,1098,1821,0,0
-119,-797,0,0,0,0,0,0,0,0,0,-1,1105,1821,0,0
-112,-797,0,0,0,0,0,0,0,0,0,-1,1112,1821,0,0
-105,-797,0,0,0,0,0,0,0,0,0,-1,1119,1821,0,0
-98,-797,0,0,0,0,0,0,0,0,0,-1,1126,1821,0,0
-91,-797,0,0,0,0,0,0,0,0,0,-1,1133,1821,0,0
-84,-797,0,0,0,0,0,0,0,0,0,-1,1140,1821,0,0
-77,-797,0,0,0,0,0,0,0,0,0,-1,1147,1821,0,0
-70,-797,0,0,0,0,0,0,0,0,0,-1,1154,1821,0,0
-63,-797,0,0,0,0,0,0,0,0,0,-1,1161,1821,0,0
-56,-797,0,0,0,0,0,0,0,0,0,-1,1168,1821,0,0
-49,-797,0,0,0,0,0,0,0,0,0,-1,1175,1821,0,0
-42,-797,0.579834,0.692871,0,0,0,0,0,0,0,-1,1182,1821,0.579856,-0.692816
-35,-797,-0.185425,5.55396,0,0,0,0,0,0,0,-1,1189,1821,-0.18542,-5.55396
-28,-797,-0.310181,4.71509,0,0,0,0,0,0,0,-1,1196,1821,-0.310228,-4.71503
-21,-797,5.60254,4.99927,0,0,0,0,0,0,0,-1,1203,1821,5.60253,-4.99924
-14,-797,5.94214,5.56677,0,0,0,0,0,0,0,-1,1210,1821,5.94209,-5.56681
-7,-797,6.25647,6.13977,0,0,0,0,0,0,0,-1,1217,1821,6.25647,-6.13979
0,-797,7.86401,7.62939,0,0,0,0,0,0,0,-1,1224,1821,7.864,-7.62939
7,-797,7.63013,7.23254,0,0,0,0,0,0,0,-1,1231,1821,7.63013,-7.2326
14,-797,4.32629,7.97302,0,0,0,0,0,0,0,-1,1238,1821,4.32631,-7.97308
21,-797,3.9281,8.23584,0,0,0,0,0,0,0,-1,1245,1821,3.92815,-8.23584
28,-797,3.57813,7.08252,0,0,0,0,0,0,0,-1,1252,1821,3.57812,-7.0825
35,-797,3.72461,7.52332,0,0,0,0,0,0,0,-1,1259,1821,3.72463,-7.5233
42,-797,-2.2627,8.05493,0,0,0,0,0,0,0,-1,1266,1821,-2.26266,-8.05493
49,-797,-0.791992,7.64441,0.172534,0.0475497,-0.00243318,0.172581,0.0475024,-0.0194581,0.102941,0.0440264,1273,1821,-0.791938,-7.64439
56,-797,1.00256,7.15491,0.177169,0.0517625,-0.0055463,0.177413,0.0515176,-0.0441119,0.105387,0.0449783,1280,1821,1.00258,-7.15485
63,-797,3.07947,6.94202,0.177364,0.0556404,-0.00804029,0.177893,0.0551116,-0.0656735,0.105154,0.0413465,1287,1821,3.07947,-6.94205
70,-797,4.79077,6.98279,0.174859,0.0577728,-0.0100511,0.175716,0.0569163,-0.0850147,0.103525,0.042886,1294,1821,4.79072,-6.98284
77,-797,5.51306,6.91309,0.168068,0.0565882,-0.0117036,0.169283,0.0553728,-0.103481,0.0996644,0.0426228,1301,1821,5.51304,-6.91315
84,-797,5.86938,6.61597,0.15813,0.0532163,-0.0124989,0.159598,0.0517478,-0.116955,0.0940227,0.0461015,1308,1821,5.86943,-6.61599
91,-797,6.33203,6.40125,0,0,0,0,0,0,0,-1,1315,1821,6.33204,-6.4012
98,-797,8.07874,9.0874,0,0,0,0,0,0,0,-1,1322,1821,8.07868,-9.08735
105,-797,7.15051,9.48608,0,0,0,0,0,0,0,-1,1329,1821,7.15052,-9.48609
112,-797,6.31921,10.0856,0,0,0,0,0,0,0,-1,1336,1821,6.31924,-10.0856
119,-797,5.52161,10.9266,0,0,0,0,0,0,0,-1,1343,1821,5.52157,-10.9267
126,-797,5.32507,10.5756,0,0,0,0,0,0,0,-1,1350,1821,5.32502,-10.5756
133,-797,5.89587,10.8414,0,0,0,0,0,0,0,-1,1357,1821,5.89586,-10.8414
140,-797,6.36987,11.2758,0,0,0,0,0,0,0,-1,1364,1821,6.3699,-11.2758
147,-797,6.81812,11.7599,0,0,0,0,0,0,0,-1,1371,1821,6.81814,-11.7599
154,-797,6.33545,-1.19055,0,0,0,0,0,0,0,-1,1378,1821,6.33548,1.19052
161,-797,6.79199,1.12952,0,0,0,0,0,0,0,-1,1385,1821,6.79203,-1.12957
168,-797,0,0,0,0,0,0,0,0,0,-1,1392,1821,0,0
175,-797,0,0,0,0,0,0,0,0,0,-1,1399,1821,0,0
182,-797,0,0,0,0,0,0,0,0,0,-1,1406,1821,0,0
189,-797,0,0,0,0,0,0,0,0,0,-1,1413,1821,0,0
196,-797,0,0,0,0,0,0,0,0,0,-1,1420,1821,0,0
203,-797,0,0,0,0,0,0,0,0,0,-1,1427,1821,0,0
210,-797,0,0,0,0,0,0,0,0,0,-1,1434,1821,0,0
217,-797,0,0,0,0,0,0,0,0,0,-1,1441,1821,0,0
224,-797,0,0,0,0,0,0,0,0,0,-1,1448,1821,0,0
231,-797,0,0,0,0,0,0,0,0,0,-1,1455,1821,0,0
238,-797,0,0,0,0,0,0,0,0,0,-1,1462,1821,0,0
245,-797,0,0,0,0,0,0,0,0,0,-1,1469,1821,0,0
252,-797,0,0,0,0,0,0,0,0,0,-1,1476,1821,0,0
259,-797,0,0,0,0,0,0,0,0,0,-1,1483,1821,0,0
266,-797,0,0,0,0,0,0,0,0,0,-1,1490,1821,0,0
273,-797,0,0,0,0,0,0,0,0,0,-1,1497,1821,0,0
280,-797,0,0,0,0,0,0,0,0,0,-1,1504,1821,0,0
287,-797,0,0,0,0,0,0,0,0,0,-1,1511,1821,0,0
294,-797,0,0,0,0,0,0,0,0,0,-1,1518,1821,0,0
301,-797,0,0,0,0,0,0,0,0,0,-1,1525,1821,0,0
308,-797,0,0,0,0,0,0,0,0,0,-1,1532,1821,0,0
315,-797,0,0,0,0,0,0,0,0,0,-1,1539,1821,0,0
322,-797,0,0,0,0,0,0,0,0,0,-1,1546,1821,0,0
329,-797,0,0,0,0,0,0,0,0,0,-1,1553,1821,0,0
336,-797,0,0,0,0,0,0,0,0,0,-1,1560,1821,0,0
343,-797,0,0,0,0,0,0,0,0,0,-1,1567,1821,0,0
350,-797,0,0,0,0,0,0,0,0,0,-1,1574,1821,0,0
357,-797,0,0,0,0,0,0,0,0,0,-1,1581,1821,0,0
364,-797,0,0,0,0,0,0,0,0,0,-1,1588,1821,0,0
371,-797,0,0,0,0,0,0,0,0,0,-1,1595,1821,0,0
378,-797,0,0,0,0,0,0,0,0,0,-1,1602,1821,0,0
385,-797,0,0,0,0,0,0,0,0,0,-1,1609,1821,0,0
392,-797,0,0,0,0,0,0,0,0,0,-1,1616,1821,0,0
399,-797,0,0,0,0,0,0,0,0,0,-1,1623,1821,0,0
406,-797,0,0,0,0,0,0,0,0,0,-1,1630,1821,0,0
413,-797,0,0,0,0,0,0,0,0,0,-1,1637,1821,0,0
420,-797,0,0,0,0,0,0,0,0,0,-1,1644,1821,0,0
427,-797,0,0,0,0,0,0,0,0,0,-1,1651,1821,0,0
434,-797,0,0,0,0,0,0,0,0,0,-1,1658,1821,0,0
441,-797,0,0,0,0,0,0,0,0,0,-1,1665,1821,0,0
448,-797,0,0,0,0,0,0,0,0,0,-1,1672,1821,0,0
455,-797,0,0,0,0,0,0,0,0,0,-1,1679,1821,0,0
462,-797,0,0,0,0,0,0,0,0,0,-1,1686,1821,0,0
469,-797,0,0,0,0,0,0,0,0,0,-1,1693,1821,0,0
476,-797,0,0,0,0,0,0,0,0,0,-1,1700,1821,0,0
483,-797,0,0,0,0,0,0,0,0,0,-1,1707,1821,0,0
490,-797,0,0,0,0,0,0,0,0,0,-1,1714,1821,0,0
497,-797,0,0,0,0,0,0,0,0,0,-1,1721,1821,0,0
504,-797,0,0,0,0,0,0,0,0,0,-1,1728,1821,0,0
511,-797,0,0,0,0,0,0,0,0,0,-1,1735,1821,0,0
518,-797,0,0,0,0,0,0,0,0,0,-1,1742,1821,0,0
525,-797,0,0,0,0,0,0,0,0,0,-1,1749,1821,0,0
532,-797,0,0,0,0,0,0,0,0,0,-1,1756,1821,0,0
539,-797,0,0,0,0,0,0,0,0,0,-1,1763,1821,0,0
546,-797,0,0,0,0,0,0,0,0,0,-1,1770,1821,0,0
553,-797,0,0,0,0,0,0,0,0,0,-1,1777,1821,0,0
560,-797,0,0,0,0,0,0,0,0,0,-1,1784,1821,0,0
567,-797,0,0,0,0,0,0,0,0,0,-1,1791,1821,0,0
574,-797,0,0,0,0,0,0,0,0,0,-1,1798,1821,0,0
581,-797,0,0,0,0,0,0,0,0,0,-1,1805,1821,0,0
588,-797,0,0,0,0,0,0,0,0,0,-1,1812,1821,0,0
595,-797,0,0,0,0,0,0,0,0,0,-1,1819,1821,0,0
602,-797,0,0,0,0,0,0,0,0,0,-1,1826,1821,0,0
609,-797,0,0,0,0,0,0,0,0,0,-1,1833,1821,0,0
616,-797,0,0,0,0,0,0,0,0,0,-1,1840,1821,0,0
623,-797,0,0,0,0,0,0,0,0,0,-1,1847,1821,0,0
630,-797,0,0,0,0,0,0,0,0,0,-1,1854,1821,0,0
637,-797,0,0,0,0,0,0,0,0,0,-1,1861,1821,0,0
644,-797,0,0,0,0,0,0,0,0,0,-1,1868,1821,0,0
651,-797,0,0,0,0,0,0,0,0,0,-1,1875,1821,0,0
658,-797,0,0,0,0,0,0,0,0,0,-1,1882,1821,0,0
665,-797,0,0,0,0,0,0,0,0,0,-1,1889,1821,0,0
672,-797,0,0,0,0,0,0,0,0,0,-1,1896,1821,0,0
679,-797,0,0,0,0,0,0,0,0,0,-1,1903,1821,0,0
686,-797,0,0,0,0,0,0,0,0,0,-1,1910,1821,0,0
693,-797,0,0,0,0,0,0,0,0,0,-1,1917,1821,0,0
700,-797,0,0,0,0,0,0,0,0,0,-1,1924,1821,0,0
707,-797,0,0,0,0,0,0,0,0,0,-1,1931,1821,0,0
714,-797,0,0,0,0,0,0,0,0,0,-1,1938,1821,0,0
721,-797,0,0,0,0,0,0,0,0,0,-1,1945,1821,0,0
728,-797,0,0,0,0,0,0,0,0,0,-1,1952,1821,0,0
735,-797,0,0,0,0,0,0,0,0,0,-1,1959,1821,0,0
742,-797,0,0,0,0,0,0,0,0,0,-1,1966,1821,0,0
749,-797,0,0,0,0,0,0,0,0,0,-1,1973,1821,0,0
756,-797,0,0,0,0,0,0,0,0,0,-1,1980,1821,0,0
763,-797,0,0,0,0,0,0,0,0,0,-1,1987,1821,0,0
770,-797,0,0,0,0,0,0,0,0,0,-1,1994,1821,0,0
777,-797,0,0,0,0,0,0,0,0,0,-1,2001,1821,0,0
784,-797,0,0,0,0,0,0,0,0,0,-1,2008,1821,0,0
791,-797,0,0,0,0,0,0,0,0,0,-1,2015,1821,0,0
798,-797,0,0,0,0,0,0,0,0,0,-1,2022,1821,0,0
805,-797,0,0,0,0,0,0,0,0,0,-1,2029,1821,0,0
812,-797,0,0,0,0,0,0,0,0,0,-1,2036,1821,0,0
-700,-804,0,0,0,0,0,0,0,0,0,-1,524,1828,0,0
-693,-804,0,0,0,0,0,0,0,0,0,-1,531,1828,0,0
-686,-804,0,0,0,0,0,0,0,0,0,-1,538,1828,0,0
-679,-804,0,0,0,0,0,0,0,0,0,-1,545,1828,0,0
-672,-804,0,0,0,0,0,0,0,0,0,-1,552,1828,0,0
-665,-804,0,0,0,0,0,0,0,0,0,-1,559,1828,0,0
-658,-804,0,0,0,0,0,0,0,0,0,-1,566,1828,0,0
-651,-804,0,0,0,0,0,0,0,0,0,-1,573,1828,0,0
-644,-804,0,0,0,0,0,0,0,0,0,-1,580,1828,0,0
-637,-804,0,0,0,0,0,0,0,0,0,-1,587,1828,0,0
-630,-804,0,0,0,0,0,0,0,0,0,-1,594,1828,0,0
-623,-804,0,0,0,0,0,0,0,0,0,-1,601,1828,0,0
-616,-804,0,0,0,0,0,0,0,0,0,-1,608,1828,0,0
-609,-804,0,0,0,0,0,0,0,0,0,-1,615,1828,0,0
-602,-804,0,0,0,0,0,0,0,0,0,-1,622,1828,0,0
-595,-804,0,0,0,0,0,0,0,0,0,-1,629,1828,0,0
-588,-804,0,0,0,0,0,0,0,0,0,-1,636,1828,0,0
-581,-804,0,0,0,0,0,0,0,0,0,-1,643,1828,0,0
-574,-804,0,0,0,0,0,0,0,0,0,-1,650,1828,0,0
-567,-804,0,0,0,0,0,0,0,0,0,-1,657,1828,0,0
-560,-804,0,0,0,0,0,0,0,0,0,-1,664,1828,0,0
-553,-804,0,0,0,0,0,0,0,0,0,-1,671,1828,0,0
-546,-804,0,0,0,0,0,0,0,0,0,-1,678,1828,0,0
-539,-804,0,0,0,0,0,0,0,0,0,-1,685,1828,0,0
-532,-804,0,0,0,0,0,0,0,0,0,-1,692,1828,0,0
-525,-804,0,0,0,0,0,0,0,0,0,-1,699,1828,0,0
-518,-804,0,0,0,0,0,0,0,0,0,-1,706,1828,0,0
-511,-804,0,0,0,0,0,0,0,0,0,-1,713,1828,0,0
-504,-804,0,0,0,0,0,0,0,0,0,-1,720,1828,0,0
-497,-804,0,0,0,0,0,0,0,0,0,-1,727,1828,0,0
-490,-804,0,0,0,0,0,0,0,0,0,-1,734,1828,0,0
-483,-804,0,0,0,0,0,0,0,0,0,-1,741,1828,0,0
-476,-804,0,0,0,0,0,0,0,0,0,-1,748,1828,0,0
-469,-804,0,0,0,0,0,0,0,0,0,-1,755,1828,0,0
-462,-804,0,0,0,0,0,0,0,0,0,-1,762,1828,0,0
-455,-804,0,0,0,0,0,0,0,0,0,-1,769,1828,0,0
-448,-804,0,0,0,0,0,0,0,0,0,-1,776,1828,0,0
-441,-804,0,0,0,0,0,0,0,0,0,-1,783,1828,0,0
-434,-804,0,0,0,0,0,0,0,0,0,-1,790,1828,0,0
-427,-804,0,0,0,0,0,0,0,0,0,-1,797,1828,0,0
-420,-804,0,0,0,0,0,0,0,0,0,-1,804,1828,0,0
-413,-804,0,0,0,0,0,0,0,0,0,-1,811,1828,0,0
-406,-804,0,0,0,0,0,0,0,0,0,-1,818,1828,0,0
-399,-804,0,0,0,0,0,0,0,0,0,-1,825,1828,0,0
-392,-804,0,0,0,0,0,0,0,0,0,-1,832,1828,0,0
-385,-804,0,0,0,0,0,0,0,0,0,-1,839,1828,0,0
-378,-804,0,0,0,0,0,0,0,0,0,-1,846,1828,0,0
-371,-804,0,0,0,0,0,0,0,0,0,-1,853,1828,0,0
-364,-804,0,0,0,0,0,0,0,0,0,-1,860,1828,0,0
-357,-804,0,0,0,0,0,0,0,0,0,-1,867,1828,0,0
-350,-804,0,0,0,0,0,0,0,0,0,-1,874,1828,0,0
-343,-804,0,0,0,0,0,0,0,0,0,-1,881,1828,0,0
-336,-804,0,0,0,0,0,0,0,0,0,-1,888,1828,0,0
-329,-804,0,0,0,0,0,0,0,0,0,-1,895,1828,0,0
-322,-804,0,0,0,0,0,0,0,0,0,-1,902,1828,0,0
-315,-804,0,0,0,0,0,0,0,0,0,-1,909,1828,0,0
-308,-804,0,0,0,0,0,0,0,0,0,-1,916,1828,0,0
-301,-804,0,0,0,0,0,0,0,0,0,-1,923,1828,0,0
-294,-804,0,0,0,0,0,0,0,0,0,-1,930,1828,0,0
-287,-804,0,0,0,0,0,0,0,0,0,-1,937,1828,0,0
-280,-804,0,0,0,0,0,0,0,0,0,-1,944,1828,0,0
-273,-804,0,0,0,0,0,0,0,0,0,-1,951,1828,0,0
-266,-804,0,0,0,0,0,0,0,0,0,-1,958,1828,0,0
-259,-804,0,0,0,0,0,0,0,0,0,-1,965,1828,0,0
-252,-804,0,0,0,0,0,0,0,0,0,-1,972,1828,0,0
-245,-804,0,0,0,0,0,0,0,0,0,-1,979,1828,0,0
-238,-804,0,0,0,0,0,0,0,0,0,-1,986,1828,0,0
-231,-804,0,0,0,0,0,0,0,0,0,-1,993,1828,0,0
-224,-804,0,0,0,0,0,0,0,0,0,-1,1000,1828,0,0
-217,-804,0,0,0,0,0,0,0,0,0,-1,1007,1828,0,0
-210,-804,0,0,0,0,0,0,0,0,0,-1,1014,1828,0,0
-203,-804,0,0,0,0,0,0,0,0,0,-1,1021,1828,0,0
-196,-804,0,0,0,0,0,0,0,0,0,-1,1028,1828,0,0
-189,-804,0,0,0,0,0,0,0,0,0,-1,1035,1828,0,0
-182,-804,0,0,0,0,0,0,0,0,0,-1,1042,1828,0,0
-175,-804,0,0,0,0,0,0,0,0,0,-1,1049,1828,0,0
-168,-804,0,0,0,0,0,0,0,0,0,-1,1056,1828,0,0
-161,-804,0,0,0,0,0,0,0,0,0,-1,1063,1828,0,0
-154,-804,0,0,0,0,0,0,0,0,0,-1,1070,1828,0,0
-147,-804,0,0,0,0,0,0,0,0,0,-1,1077,1828,0,0
-140,-804,0,0,0,0,0,0,0,0,0,-1,1084,1828,0,0
-133,-804,0,0,0,0,0,0,0,0,0,-1,1091,1828,0,0
-126,-804,0,0,0,0,0,0,0,0,0,-1,1098,1828,0,0
-119,-804,0,0,0,0,0,0,0,0,0,-1,1105,1828,0,0
-112,-804,0,0,0,0,0,0,0,0,0,-1,1112,1828,0,0
-105,-804,0,0,0,0,0,0,0,0,0,-1,1119,1828,0,0
-98,-804,0,0,0,0,0,0,0,0,0,-1,1126,1828,0,0
-91,-804,0,0,0,0,0,0,0,0,0,-1,1133,1828,0,0
-84,-804,0,0,0,0,0,0,0,0,0,-1,1140,1828,0,0
-77,-804,0,0,0,0,0,0,0,0,0,-1,1147,1828,0,0
-70,-804,0,0,0,0,0,0,0,0,0,-1,1154,1828,0,0
-63,-804,0,0,0,0,0,0,0,0,0,-1,1161,1828,0,0
-56,-804,0,0,0,0,0,0,0,0,0,-1,1168,1828,0,0
-49,-804,0,0,0,0,0,0,0,0,0,-1,1175,1828,0,0
-42,-804,0,0,0,0,0,0,0,0,0,-1,1182,1828,0,0
-35,-804,0,0,0,0,0,0,0,0,0,-1,1189,1828,0,0
-28,-804,0,0,0,0,0,0,0,0,0,-1,1196,1828,0,0
-21,-804,0,0,0,0,0,0,0,0,0,-1,1203,1828,0,0
-14,-804,0,0,0,0,0,0,0,0,0,-1,1210,1828,0,0
-7,-804,0,0,0,0,0,0,0,0,0,-1,1217,1828,0,0
0,-804,0,0,0,0,0,0,0,0,0,-1,1224,1828,0,0
7,-804,0,0,0,0,0,0,0,0,0,-1,1231,1828,0,0
14,-804,0,0,0,0,0,0,0,0,0,-1,1238,1828,0,0
21,-804,0,0,0,0,0,0,0,0,0,-1,1245,1828,0,0
28,-804,0,0,0,0,0,0,0,0,0,-1,1252,1828,0,0
35,-804,-5.27026,7.9126,0,0,0,0,0,0,0,-1,1259,1828,-5.27027,-7.91256
42,-804,-3.41003,7.60132,0,0,0,0,0,0,0,-1,1266,1828,-3.41,-7.60126
49,-804,-1.271,7.33118,0.229274,0.0579516,-0.00392745,0.229364,0.0578616,-0.0229083,0.137734,0.0472653,1273,1828,-1.27096,-7.33123
56,-804,0.708008,7.03101,0.233651,0.0630108,-0.00843455,0.234066,0.0625949,-0.0492689,0.139927,0.0477183,1280,1828,0.707956,-7.03105
63,-804,3.17358,6.57471,0.23206,0.0680914,-0.012427,0.232997,0.067155,-0.075216,0.138484,0.0435937,1287,1828,3.1736,-6.57473
70,-804,4.59033,6.67249,0.226934,0.0715733,-0.0155833,0.228481,0.0700256,-0.0989904,0.135167,0.0454002,1294,1828,4.59037,-6.67245
77,-804,5.35059,6.47571,0.216662,0.0714927,-0.0182452,0.21892,0.0692347,-0.123131,0.129207,0.0438579,1301,1828,5.35057,-6.47574
84,-804,6.39819,5.78918,0.202891,0.0684263,-0.0200114,0.205806,0.0655113,-0.144648,0.121409,0.0442774,1308,1828,6.39815,-5.78916
91,-804,0,0,0,0,0,0,0,0,0,-1,1315,1828,0,0
98,-804,0,0,0,0,0,0,0,0,0,-1,1322,1828,0,0
105,-804,0,0,0,0,0,0,0,0,0,-1,1329,1828,0,0
112,-804,0,0,0,0,0,0,0,0,0,-1,1336,1828,0,0
119,-804,0,0,0,0,0,0,0,0,0,-1,1343,1828,0,0
126,-804,0,0,0,0,0,0,0,0,0,-1,1350,1828,0,0
133,-804,0,0,0,0,0,0,0,0,0,-1,1357,1828,0,0
140,-804,0,0,0,0,0,0,0,0,0,-1,1364,1828,0,0
147,-804,0,0,0,0,0,0,0,0,0,-1,1371,1828,0,0
154,-804,0,0,0,0,0,0,0,0,0,-1,1378,1828,0,0
161,-804,0,0,0,0,0,0,0,0,0,-1,1385,1828,0,0
168,-804,0,0,0,0,0,0,0,0,0,-1,1392,1828,0,0
175,-804,0,0,0,0,0,0,0,0,0,-1,1399,1828,0,0
182,-804,0,0,0,0,0,0,0,0,0,-1,1406,1828,0,0
189,-804,0,0,0,0,0,0,0,0,0,-1,1413,1828,0,0
196,-804,0,0,0,0,0,0,0,0,0,-1,1420,1828,0,0
203,-804,0,0,0,0,0,0,0,0,0,-1,1427,1828,0,0
210,-804,0,0,0,0,0,0,0,0,0,-1,1434,1828,0,0
217,-804,0,0,0,0,0,0,0,0,0,-1,1441,1828,0,0
224,-804,0,0,0,0,0,0,0,0,0,-1,1448,1828,0,0
231,-804,0,0,0,0,0,0,0,0,0,-1,1455,1828,0,0
238,-804,0,0,0,0,0,0,0,0,0,-1,1462,1828,0,0
245,-804,0,0,0,0,0,0,0,0,0,-1,1469,1828,0,0
252,-804,0,0,0,0,0,0,0,0,0,-1,1476,1828,0,0
259,-804,0,0,0,0,0,0,0,0,0,-1,1483,1828,0,0
266,-804,0,0,0,0,0,0,0,0,0,-1,1490,1828,0,0
273,-804,0,0,0,0,0,0,0,0,0,-1,1497,1828,0,0
280,-804,0,0,0,0,0,0,0,0,0,-1,1504,1828,0,0
287,-804,0,0,0,0,0,0,0,0,0,-1,1511,1828,0,0
294,-804,0,0,0,0,0,0,0,0,0,-1,1518,1828,0,0
301,-804,0,0,0,0,0,0,0,0,0,-1,1525,1828,0,0
308,-804,0,0,0,0,0,0,0,0,0,-1,1532,1828,0,0
315,-804,0,0,0,0,0,0,0,0,0,-1,1539,1828,0,0
322,-804,0,0,0,0,0,0,0,0,0,-1,1546,1828,0,0
329,-804,0,0,0,0,0,0,0,0,0,-1,1553,1828,0,0
336,-804,0,0,0,0,0,0,0,0,0,-1,1560,1828,0,0
343,-804,0,0,0,0,0,0,0,0,0,-1,1567,1828,0,0
350,-804,0,0,0,0,0,0,0,0,0,-1,1574,1828,0,0
357,-804,0,0,0,0,0,0,0,0,0,-1,1581,1828,0,0
364,-804,0,0,0,0,0,0,0,0,0,-1,1588,1828,0,0
371,-804,0,0,0,0,0,0,0,0,0,-1,1595,1828,0,0
378,-804,0,0,0,0,0,0,0,0,0,-1,1602,1828,0,0
385,-804,0,0,0,0,0,0,0,0,0,-1,1609,1828,0,0
392,-804,0,0,0,0,0,0,0,0,0,-1,1616,1828,0,0
399,-804,0,0,0,0,0,0,0,0,0,-1,1623,1828,0,0
406,-804,0,0,0,0,0,0,0,0,0,-1,1630,1828,0,0
413,-804,0,0,0,0,0,0,0,0,0,-1,1637,1828,0,0
420,-804,0,0,0,0,0,0,0,0,0,-1,1644,1828,0,0
427,-804,0,0,0,0,0,0,0,0,0,-1,1651,1828,0,0
434,-804,0,0,0,0,0,0,0,0,0,-1,1658,1828,0,0
441,-804,0,0,0,0,0,0,0,0,0,-1,1665,1828,0,0
448,-804,0,0,0,0,0,0,0,0,0,-1,1672,1828,0,0
455,-804,0,0,0,0,0,0,0,0,0,-1,1679,1828,0,0
462,-804,0,0,0,0,0,0,0,0,0,-1,1686,1828,0,0
469,-804,0,0,0,0,0,0,0,0,0,-1,1693,1828,0,0
476,-804,0,0,0,0,0,0,0,0,0,-1,1700,1828,0,0
483,-804,0,0,0,0,0,0,0,0,0,-1,1707,1828,0,0
490,-804,0,0,0,0,0,0,0,0,0,-1,1714,1828,0,0
497,-804,0,0,0,0,0,0,0,0,0,-1,1721,1828,0,0
504,-804,0,0,0,0,0,0,0,0,0,-1,1728,1828,0,0
511,-804,0,0,0,0,0,0,0,0,0,-1,1735,1828,0,0
518,-804,0,0,0,0,0,0,0,0,0,-1,1742,1828,0,0
525,-804,0,0,0,0,0,0,0,0,0,-1,1749,1828,0,0
532,-804,0,0,0,0,0,0,0,0,0,-1,1756,1828,0,0
539,-804,0,0,0,0,0,0,0,0,0,-1,1763,1828,0,0
546,-804,0,0,0,0,0,0,0,0,0,-1,1770,1828,0,0
553,-804,0,0,0,0,0,0,0,0,0,-1,1777,1828,0,0
560,-804,0,0,0,0,0,0,0,0,0,-1,1784,1828,0,0
567,-804,0,0,0,0,0,0,0,0,0,-1,1791,1828,0,0
574,-804,0,0,0,0,0,0,0,0,0,-1,1798,1828,0,0
581,-804,0,0,0,0,0,0,0,0,0,-1,1805,1828,0,0
588,-804,0,0,0,0,0,0,0,0,0,-1,1812,1828,0,0
595,-804,0,0,0,0,0,0,0,0,0,-1,1819,1828,0,0
602,-804,0,0,0,0,0,0,0,0,0,-1,1826,1828,0,0
609,-804,0,0,0,0,0,0,0,0,0,-1,1833,1828,0,0
616,-804,0,0,0,0,0,0,0,0,0,-1,1840,1828,0,0
623,-804,0,0,0,0,0,0,0,0,0,-1,1847,1828,0,0
630,-804,0,0,0,0,0,0,0,0,0,-1,1854,1828,0,0
637,-804,0,0,0,0,0,0,0,0,0,-1,1861,1828,0,0
644,-804,0,0,0,0,0,0,0,0,0,-1,1868,1828,0,0
651,-804,0,0,0,0,0,0,0,0,0,-1,1875,1828,0,0
658,-804,0,0,0,0,0,0,0,0,0,-1,1882,1828,0,0
665,-804,0,0,0,0,0,0,0,0,0,-1,1889,1828,0,0
672,-804,0,0,0,0,0,0,0,0,0,-1,1896,1828,0,0
679,-804,0,0,0,0,0,0,0,0,0,-1,1903,1828,0,0
686,-804,0,0,0,0,0,0,0,0,0,-1,1910,1828,0,0
693,-804,0,0,0,0,0,0,0,0,0,-1,1917,1828,0,0
700,-804,0,0,0,0,0,0,0,0,0,-1,1924,1828,0,0
707,-804,0,0,0,0,0,0,0,0,0,-1,1931,1828,0,0
714,-804,0,0,0,0,0,0,0,0,0,-1,1938,1828,0,0
721,-804,0,0,0,0,0,0,0,0,0,-1,1945,1828,0,0
728,-804,0,0,0,0,0,0,0,0,0,-1,1952,1828,0,0
735,-804,0,0,0,0,0,0,0,0,0,-1,1959,1828,0,0
742,-804,0,0,0,0,0,0,0,0,0,-1,1966,1828,0,0
749,-804,0,0,0,0,0,0,0,0,0,-1,1973,1828,0,0
756,-804,0,0,0,0,0,0,0,0,0,-1,1980,1828,0,0
763,-804,0,0,0,0,0,0,0,0,0,-1,1987,1828,0,0
770,-804,0,0,0,0,0,0,0,0,0,-1,1994,1828,0,0
777,-804,0,0,0,0,0,0,0,0,0,-1,2001,1828,0,0
784,-804,0,0,0,0,0,0,0,0,0,-1,2008,1828,0,0
791,-804,0,0,0,0,0,0,0,0,0,-1,2015,1828,0,0
798,-804,0,0,0,0,0,0,0,0,0,-1,2022,1828,0,0
805,-804,0,0,0,0,0,0,0,0,0,-1,2029,1828,0,0
812,-804,0,0,0,0,0,0,0,0,0,-1,2036,1828,0,0

