 "x_c",  "y_c",  "u_c",  "v_c",  "exx",  "eyy",  "exy",  "e1",  "e2",  "gamma",  "e_vonmises",  "sigma",  "x",  "y",  "u",  "v"
-700,715,0,0,0,0,0,0,0,0,0,-1,524,309,0,0
-693,715,0,0,0,0,0,0,0,0,0,-1,531,309,0,0
-686,715,0,0,0,0,0,0,0,0,0,-1,538,309,0,0
-679,715,0,0,0,0,0,0,0,0,0,-1,545,309,0,0
-672,715,0,0,0,0,0,0,0,0,0,-1,552,309,0,0
-665,715,0,0,0,0,0,0,0,0,0,-1,559,309,0,0
-658,715,0,0,0,0,0,0,0,0,0,-1,566,309,0,0
-651,715,0,0,0,0,0,0,0,0,0,-1,573,309,0,0
-644,715,0,0,0,0,0,0,0,0,0,-1,580,309,0,0
-637,715,0,0,0,0,0,0,0,0,0,-1,587,309,0,0
-630,715,0,0,0,0,0,0,0,0,0,-1,594,309,0,0
-623,715,0,0,0,0,0,0,0,0,0,-1,601,309,0,0
-616,715,0,0,0,0,0,0,0,0,0,-1,608,309,0,0
-609,715,0,0,0,0,0,0,0,0,0,-1,615,309,0,0
-602,715,0,0,0,0,0,0,0,0,0,-1,622,309,0,0
-595,715,0,0,0,0,0,0,0,0,0,-1,629,309,0,0
-588,715,0,0,0,0,0,0,0,0,0,-1,636,309,0,0
-581,715,0,0,0,0,0,0,0,0,0,-1,643,309,0,0
-574,715,0,0,0,0,0,0,0,0,0,-1,650,309,0,0
-567,715,0,0,0,0,0,0,0,0,0,-1,657,309,0,0
-560,715,0,0,0,0,0,0,0,0,0,-1,664,309,0,0
-553,715,0,0,0,0,0,0,0,0,0,-1,671,309,0,0
-546,715,0,0,0,0,0,0,0,0,0,-1,678,309,0,0
-539,715,0,0,0,0,0,0,0,0,0,-1,685,309,0,0
-532,715,0,0,0,0,0,0,0,0,0,-1,692,309,0,0
-525,715,0,0,0,0,0,0,0,0,0,-1,699,309,0,0
-518,715,0,0,0,0,0,0,0,0,0,-1,706,309,0,0
-511,715,0,0,0,0,0,0,0,0,0,-1,713,309,0,0
-504,715,0,0,0,0,0,0,0,0,0,-1,720,309,0,0
-497,715,0,0,0,0,0,0,0,0,0,-1,727,309,0,0
-490,715,0,0,0,0,0,0,0,0,0,-1,734,309,0,0
-483,715,0,0,0,0,0,0,0,0,0,-1,741,309,0,0
-476,715,0,0,0,0,0,0,0,0,0,-1,748,309,0,0
-469,715,0,0,0,0,0,0,0,0,0,-1,755,309,0,0
-462,715,0,0,0,0,0,0,0,0,0,-1,762,309,0,0
-455,715,0,0,0,0,0,0,0,0,0,-1,769,309,0,0
-448,715,0,0,0,0,0,0,0,0,0,-1,776,309,0,0
-441,715,0,0,0,0,0,0,0,0,0,-1,783,309,0,0
-434,715,0,0,0,0,0,0,0,0,0,-1,790,309,0,0
-427,715,0,0,0,0,0,0,0,0,0,-1,797,309,0,0
-420,715,0,0,0,0,0,0,0,0,0,-1,804,309,0,0
-413,715,0,0,0,0,0,0,0,0,0,-1,811,309,0,0
-406,715,0,0,0,0,0,0,0,0,0,-1,818,309,0,0
-399,715,0,0,0,0,0,0,0,0,0,-1,825,309,0,0
-392,715,0,0,0,0,0,0,0,0,0,-1,832,309,0,0
-385,715,0,0,0,0,0,0,0,0,0,-1,839,309,0,0
-378,715,0,0,0,0,0,0,0,0,0,-1,846,309,0,0
-371,715,0,0,0,0,0,0,0,0,0,-1,853,309,0,0
-364,715,0,0,0,0,0,0,0,0,0,-1,860,309,0,0
-357,715,0,0,0,0,0,0,0,0,0,-1,867,309,0,0
-350,715,0,0,0,0,0,0,0,0,0,-1,874,309,0,0
-343,715,0,0,0,0,0,0,0,0,0,-1,881,309,0,0
-336,715,0,0,0,0,0,0,0,0,0,-1,888,309,0,0
-329,715,0,0,0,0,0,0,0,0,0,-1,895,309,0,0
-322,715,0,0,0,0,0,0,0,0,0,-1,902,309,0,0
-315,715,0,0,0,0,0,0,0,0,0,-1,909,309,0,0
-308,715,0,0,0,0,0,0,0,0,0,-1,916,309,0,0
-301,715,0,0,0,0,0,0,0,0,0,-1,923,309,0,0
-294,715,0,0,0,0,0,0,0,0,0,-1,930,309,0,0
-287,715,0,0,0,0,0,0,0,0,0,-1,937,309,0,0
-280,715,0,0,0,0,0,0,0,0,0,-1,944,309,0,0
-273,715,0,0,0,0,0,0,0,0,0,-1,951,309,0,0
-266,715,0,0,0,0,0,0,0,0,0,-1,958,309,0,0
-259,715,0,0,0,0,0,0,0,0,0,-1,965,309,0,0
-252,715,0,0,0,0,0,0,0,0,0,-1,972,309,0,0
-245,715,0,0,0,0,0,0,0,0,0,-1,979,309,0,0
-238,715,0,0,0,0,0,0,0,0,0,-1,986,309,0,0
-231,715,0,0,0,0,0,0,0,0,0,-1,993,309,0,0
-224,715,0,0,0,0,0,0,0,0,0,-1,1000,309,0,0
-217,715,0,0,0,0,0,0,0,0,0,-1,1007,309,0,0
-210,715,0,0,0,0,0,0,0,0,0,-1,1014,309,0,0
-203,715,0,0,0,0,0,0,0,0,0,-1,1021,309,0,0
-196,715,0,0,0,0,0,0,0,0,0,-1,1028,309,0,0
-189,715,0,0,0,0,0,0,0,0,0,-1,1035,309,0,0
-182,715,0,0,0,0,0,0,0,0,0,-1,1042,309,0,0
-175,715,0,0,0,0,0,0,0,0,0,-1,1049,309,0,0
-168,715,0,0,0,0,0,0,0,0,0,-1,1056,309,0,0
-161,715,0,0,0,0,0,0,0,0,0,-1,1063,309,0,0
-154,715,0,0,0,0,0,0,0,0,0,-1,1070,309,0,0
-147,715,0,0,0,0,0,0,0,0,0,-1,1077,309,0,0
-140,715,0,0,0,0,0,0,0,0,0,-1,1084,309,0,0
-133,715,0,0,0,0,0,0,0,0,0,-1,1091,309,0,0
-126,715,0,0,0,0,0,0,0,0,0,-1,1098,309,0,0
-119,715,0,0,0,0,0,0,0,0,0,-1,1105,309,0,0
-112,715,0,0,0,0,0,0,0,0,0,-1,1112,309,0,0
-105,715,0,0,0,0,0,0,0,0,0,-1,1119,309,0,0
-98,715,0,0,0,0,0,0,0,0,0,-1,1126,309,0,0
-91,715,0,0,0,0,0,0,0,0,0,-1,1133,309,0,0
-84,715,0,0,0,0,0,0,0,0,0,-1,1140,309,0,0
-77,715,0,0,0,0,0,0,0,0,0,-1,1147,309,0,0
-70,715,0,0,0,0,0,0,0,0,0,-1,1154,309,0,0
-63,715,0,0,0,0,0,0,0,0,0,-1,1161,309,0,0
-56,715,0,0,0,0,0,0,0,0,0,-1,1168,309,0,0
-49,715,0,0,0,0,0,0,0,0,0,-1,1175,309,0,0
-42,715,0,0,0,0,0,0,0,0,0,-1,1182,309,0,0
-35,715,0,0,0,0,0,0,0,0,0,-1,1189,309,0,0
-28,715,0,0,0,0,0,0,0,0,0,-1,1196,309,0,0
-21,715,0,0,0,0,0,0,0,0,0,-1,1203,309,0,0
-14,715,0,0,0,0,0,0,0,0,0,-1,1210,309,0,0
-7,715,0,0,0,0,0,0,0,0,0,-1,1217,309,0,0
0,715,0,0,0,0,0,0,0,0,0,-1,1224,309,0,0
7,715,0,0,0,0,0,0,0,0,0,-1,1231,309,0,0
14,715,0,0,0,0,0,0,0,0,0,-1,1238,309,0,0
21,715,0,0,0,0,0,0,0,0,0,-1,1245,309,0,0
28,715,0,0,0,0,0,0,0,0,0,-1,1252,309,0,0
35,715,0,0,0,0,0,0,0,0,0,-1,1259,309,0,0
42,715,0,0,0,0,0,0,0,0,0,-1,1266,309,0,0
49,715,0,0,0,0,0,0,0,0,0,-1,1273,309,0,0
56,715,0,0,0,0,0,0,0,0,0,-1,1280,309,0,0
63,715,8.36829,-62.3275,0,0,0,0,0,0,0,-1,1287,309,8.36832,62.3275
70,715,7.46631,-63.4633,0,0,0,0,0,0,0,-1,1294,309,7.46628,63.4633
77,715,0,0,0,0,0,0,0,0,0,-1,1301,309,0,0
84,715,0,0,0,0,0,0,0,0,0,-1,1308,309,0,0
91,715,0,0,0,0,0,0,0,0,0,-1,1315,309,0,0
98,715,0,0,0,0,0,0,0,0,0,-1,1322,309,0,0
105,715,0,0,0,0,0,0,0,0,0,-1,1329,309,0,0
112,715,0,0,0,0,0,0,0,0,0,-1,1336,309,0,0
119,715,0,0,0,0,0,0,0,0,0,-1,1343,309,0,0
126,715,0,0,0,0,0,0,0,0,0,-1,1350,309,0,0
133,715,0,0,0,0,0,0,0,0,0,-1,1357,309,0,0
140,715,0,0,0,0,0,0,0,0,0,-1,1364,309,0,0
147,715,0,0,0,0,0,0,0,0,0,-1,1371,309,0,0
154,715,0,0,0,0,0,0,0,0,0,-1,1378,309,0,0
161,715,0,0,0,0,0,0,0,0,0,-1,1385,309,0,0
168,715,0,0,0,0,0,0,0,0,0,-1,1392,309,0,0
175,715,0,0,0,0,0,0,0,0,0,-1,1399,309,0,0
182,715,0,0,0,0,0,0,0,0,0,-1,1406,309,0,0
189,715,0,0,0,0,0,0,0,0,0,-1,1413,309,0,0
196,715,0,0,0,0,0,0,0,0,0,-1,1420,309,0,0
203,715,0,0,0,0,0,0,0,0,0,-1,1427,309,0,0
210,715,0,0,0,0,0,0,0,0,0,-1,1434,309,0,0
217,715,0,0,0,0,0,0,0,0,0,-1,1441,309,0,0
224,715,0,0,0,0,0,0,0,0,0,-1,1448,309,0,0
231,715,0,0,0,0,0,0,0,0,0,-1,1455,309,0,0
238,715,0,0,0,0,0,0,0,0,0,-1,1462,309,0,0
245,715,0,0,0,0,0,0,0,0,0,-1,1469,309,0,0
252,715,0,0,0,0,0,0,0,0,0,-1,1476,309,0,0
259,715,0,0,0,0,0,0,0,0,0,-1,1483,309,0,0
266,715,0,0,0,0,0,0,0,0,0,-1,1490,309,0,0
273,715,0,0,0,0,0,0,0,0,0,-1,1497,309,0,0
280,715,0,0,0,0,0,0,0,0,0,-1,1504,309,0,0
287,715,0,0,0,0,0,0,0,0,0,-1,1511,309,0,0
294,715,0,0,0,0,0,0,0,0,0,-1,1518,309,0,0
301,715,0,0,0,0,0,0,0,0,0,-1,1525,309,0,0
308,715,0,0,0,0,0,0,0,0,0,-1,1532,309,0,0
315,715,0,0,0,0,0,0,0,0,0,-1,1539,309,0,0
322,715,0,0,0,0,0,0,0,0,0,-1,1546,309,0,0
329,715,0,0,0,0,0,0,0,0,0,-1,1553,309,0,0
336,715,0,0,0,0,0,0,0,0,0,-1,1560,309,0,0
343,715,0,0,0,0,0,0,0,0,0,-1,1567,309,0,0
350,715,0,0,0,0,0,0,0,0,0,-1,1574,309,0,0
357,715,0,0,0,0,0,0,0,0,0,-1,1581,309,0,0
364,715,0,0,0,0,0,0,0,0,0,-1,1588,309,0,0
371,715,0,0,0,0,0,0,0,0,0,-1,1595,309,0,0
378,715,0,0,0,0,0,0,0,0,0,-1,1602,309,0,0
385,715,0,0,0,0,0,0,0,0,0,-1,1609,309,0,0
392,715,0,0,0,0,0,0,0,0,0,-1,1616,309,0,0
399,715,0,0,0,0,0,0,0,0,0,-1,1623,309,0,0
406,715,0,0,0,0,0,0,0,0,0,-1,1630,309,0,0
413,715,0,0,0,0,0,0,0,0,0,-1,1637,309,0,0
420,715,0,0,0,0,0,0,0,0,0,-1,1644,309,0,0
427,715,0,0,0,0,0,0,0,0,0,-1,1651,309,0,0
434,715,0,0,0,0,0,0,0,0,0,-1,1658,309,0,0
441,715,0,0,0,0,0,0,0,0,0,-1,1665,309,0,0
448,715,0,0,0,0,0,0,0,0,0,-1,1672,309,0,0
455,715,0,0,0,0,0,0,0,0,0,-1,1679,309,0,0
462,715,0,0,0,0,0,0,0,0,0,-1,1686,309,0,0
469,715,0,0,0,0,0,0,0,0,0,-1,1693,309,0,0
476,715,0,0,0,0,0,0,0,0,0,-1,1700,309,0,0
483,715,0,0,0,0,0,0,0,0,0,-1,1707,309,0,0
490,715,0,0,0,0,0,0,0,0,0,-1,1714,309,0,0
497,715,0,0,0,0,0,0,0,0,0,-1,1721,309,0,0
504,715,0,0,0,0,0,0,0,0,0,-1,1728,309,0,0
511,715,0,0,0,0,0,0,0,0,0,-1,1735,309,0,0
518,715,0,0,0,0,0,0,0,0,0,-1,1742,309,0,0
525,715,0,0,0,0,0,0,0,0,0,-1,1749,309,0,0
532,715,0,0,0,0,0,0,0,0,0,-1,1756,309,0,0
539,715,0,0,0,0,0,0,0,0,0,-1,1763,309,0,0
546,715,0,0,0,0,0,0,0,0,0,-1,1770,309,0,0
553,715,0,0,0,0,0,0,0,0,0,-1,1777,309,0,0
560,715,0,0,0,0,0,0,0,0,0,-1,1784,309,0,0
567,715,0,0,0,0,0,0,0,0,0,-1,1791,309,0,0
574,715,0,0,0,0,0,0,0,0,0,-1,1798,309,0,0
581,715,0,0,0,0,0,0,0,0,0,-1,1805,309,0,0
588,715,0,0,0,0,0,0,0,0,0,-1,1812,309,0,0
595,715,0,0,0,0,0,0,0,0,0,-1,1819,309,0,0
602,715,0,0,0,0,0,0,0,0,0,-1,1826,309,0,0
609,715,0,0,0,0,0,0,0,0,0,-1,1833,309,0,0
616,715,0,0,0,0,0,0,0,0,0,-1,1840,309,0,0
623,715,0,0,0,0,0,0,0,0,0,-1,1847,309,0,0
630,715,0,0,0,0,0,0,0,0,0,-1,1854,309,0,0
637,715,0,0,0,0,0,0,0,0,0,-1,1861,309,0,0
644,715,0,0,0,0,0,0,0,0,0,-1,1868,309,0,0
651,715,0,0,0,0,0,0,0,0,0,-1,1875,309,0,0
658,715,0,0,0,0,0,0,0,0,0,-1,1882,309,0,0
665,715,0,0,0,0,0,0,0,0,0,-1,1889,309,0,0
672,715,0,0,0,0,0,0,0,0,0,-1,1896,309,0,0
679,715,0,0,0,0,0,0,0,0,0,-1,1903,309,0,0
686,715,0,0,0,0,0,0,0,0,0,-1,1910,309,0,0
693,715,0,0,0,0,0,0,0,0,0,-1,1917,309,0,0
700,715,0,0,0,0,0,0,0,0,0,-1,1924,309,0,0
707,715,0,0,0,0,0,0,0,0,0,-1,1931,309,0,0
714,715,0,0,0,0,0,0,0,0,0,-1,1938,309,0,0
721,715,0,0,0,0,0,0,0,0,0,-1,1945,309,0,0
728,715,0,0,0,0,0,0,0,0,0,-1,1952,309,0,0
735,715,0,0,0,0,0,0,0,0,0,-1,1959,309,0,0
742,715,0,0,0,0,0,0,0,0,0,-1,1966,309,0,0
749,715,0,0,0,0,0,0,0,0,0,-1,1973,309,0,0
756,715,0,0,0,0,0,0,0,0,0,-1,1980,309,0,0
763,715,0,0,0,0,0,0,0,0,0,-1,1987,309,0,0
770,715,0,0,0,0,0,0,0,0,0,-1,1994,309,0,0
777,715,0,0,0,0,0,0,0,0,0,-1,2001,309,0,0
784,715,0,0,0,0,0,0,0,0,0,-1,2008,309,0,0
791,715,0,0,0,0,0,0,0,0,0,-1,2015,309,0,0
798,715,0,0,0,0,0,0,0,0,0,-1,2022,309,0,0
805,715,0,0,0,0,0,0,0,0,0,-1,2029,309,0,0
812,715,0,0,0,0,0,0,0,0,0,-1,2036,309,0,0
-700,708,0,0,0,0,0,0,0,0,0,-1,524,316,0,0
-693,708,0,0,0,0,0,0,0,0,0,-1,531,316,0,0
-686,708,0,0,0,0,0,0,0,0,0,-1,538,316,0,0
-679,708,0,0,0,0,0,0,0,0,0,-1,545,316,0,0
-672,708,0,0,0,0,0,0,0,0,0,-1,552,316,0,0
-665,708,0,0,0,0,0,0,0,0,0,-1,559,316,0,0
-658,708,0,0,0,0,0,0,0,0,0,-1,566,316,0,0
-651,708,0,0,0,0,0,0,0,0,0,-1,573,316,0,0
-644,708,0,0,0,0,0,0,0,0,0,-1,580,316,0,0
-637,708,0,0,0,0,0,0,0,0,0,-1,587,316,0,0
-630,708,0,0,0,0,0,0,0,0,0,-1,594,316,0,0
-623,708,0,0,0,0,0,0,0,0,0,-1,601,316,0,0
-616,708,0,0,0,0,0,0,0,0,0,-1,608,316,0,0
-609,708,0,0,0,0,0,0,0,0,0,-1,615,316,0,0
-602,708,0,0,0,0,0,0,0,0,0,-1,622,316,0,0
-595,708,0,0,0,0,0,0,0,0,0,-1,629,316,0,0
-588,708,0,0,0,0,0,0,0,0,0,-1,636,316,0,0
-581,708,0,0,0,0,0,0,0,0,0,-1,643,316,0,0
-574,708,0,0,0,0,0,0,0,0,0,-1,650,316,0,0
-567,708,0,0,0,0,0,0,0,0,0,-1,657,316,0,0
-560,708,0,0,0,0,0,0,0,0,0,-1,664,316,0,0
-553,708,0,0,0,0,0,0,0,0,0,-1,671,316,0,0
-546,708,0,0,0,0,0,0,0,0,0,-1,678,316,0,0
-539,708,0,0,0,0,0,0,0,0,0,-1,685,316,0,0
-532,708,0,0,0,0,0,0,0,0,0,-1,692,316,0,0
-525,708,0,0,0,0,0,0,0,0,0,-1,699,316,0,0
-518,708,0,0,0,0,0,0,0,0,0,-1,706,316,0,0
-511,708,0,0,0,0,0,0,0,0,0,-1,713,316,0,0
-504,708,0,0,0,0,0,0,0,0,0,-1,720,316,0,0
-497,708,0,0,0,0,0,0,0,0,0,-1,727,316,0,0
-490,708,0,0,0,0,0,0,0,0,0,-1,734,316,0,0
-483,708,0,0,0,0,0,0,0,0,0,-1,741,316,0,0
-476,708,0,0,0,0,0,0,0,0,0,-1,748,316,0,0
-469,708,0,0,0,0,0,0,0,0,0,-1,755,316,0,0
-462,708,0,0,0,0,0,0,0,0,0,-1,762,316,0,0
-455,708,0,0,0,0,0,0,0,0,0,-1,769,316,0,0
-448,708,0,0,0,0,0,0,0,0,0,-1,776,316,0,0
-441,708,0,0,0,0,0,0,0,0,0,-1,783,316,0,0
-434,708,0,0,0,0,0,0,0,0,0,-1,790,316,0,0
-427,708,0,0,0,0,0,0,0,0,0,-1,797,316,0,0
-420,708,0,0,0,0,0,0,0,0,0,-1,804,316,0,0
-413,708,0,0,0,0,0,0,0,0,0,-1,811,316,0,0
-406,708,0,0,0,0,0,0,0,0,0,-1,818,316,0,0
-399,708,0,0,0,0,0,0,0,0,0,-1,825,316,0,0
-392,708,0,0,0,0,0,0,0,0,0,-1,832,316,0,0
-385,708,0,0,0,0,0,0,0,0,0,-1,839,316,0,0
-378,708,0,0,0,0,0,0,0,0,0,-1,846,316,0,0
-371,708,0,0,0,0,0,0,0,0,0,-1,853,316,0,0
-364,708,0,0,0,0,0,0,0,0,0,-1,860,316,0,0
-357,708,0,0,0,0,0,0,0,0,0,-1,867,316,0,0
-350,708,0,0,0,0,0,0,0,0,0,-1,874,316,0,0
-343,708,0,0,0,0,0,0,0,0,0,-1,881,316,0,0
-336,708,0,0,0,0,0,0,0,0,0,-1,888,316,0,0
-329,708,0,0,0,0,0,0,0,0,0,-1,895,316,0,0
-322,708,0,0,0,0,0,0,0,0,0,-1,902,316,0,0
-315,708,0,0,0,0,0,0,0,0,0,-1,909,316,0,0
-308,708,0,0,0,0,0,0,0,0,0,-1,916,316,0,0
-301,708,0,0,0,0,0,0,0,0,0,-1,923,316,0,0
-294,708,0,0,0,0,0,0,0,0,0,-1,930,316,0,0
-287,708,0,0,0,0,0,0,0,0,0,-1,937,316,0,0
-280,708,0,0,0,0,0,0,0,0,0,-1,944,316,0,0
-273,708,0,0,0,0,0,0,0,0,0,-1,951,316,0,0
-266,708,0,0,0,0,0,0,0,0,0,-1,958,316,0,0
-259,708,0,0,0,0,0,0,0,0,0,-1,965,316,0,0
-252,708,0,0,0,0,0,0,0,0,0,-1,972,316,0,0
-245,708,0,0,0,0,0,0,0,0,0,-1,979,316,0,0
-238,708,0,0,0,0,0,0,0,0,0,-1,986,316,0,0
-231,708,0,0,0,0,0,0,0,0,0,-1,993,316,0,0
-224,708,0,0,0,0,0,0,0,0,0,-1,1000,316,0,0
-217,708,0,0,0,0,0,0,0,0,0,-1,1007,316,0,0
-210,708,0,0,0,0,0,0,0,0,0,-1,1014,316,0,0
-203,708,0,0,0,0,0,0,0,0,0,-1,1021,316,0,0
-196,708,0,0,0,0,0,0,0,0,0,-1,1028,316,0,0
-189,708,0,0,0,0,0,0,0,0,0,-1,1035,316,0,0
-182,708,0,0,0,0,0,0,0,0,0,-1,1042,316,0,0
-175,708,0,0,0,0,0,0,0,0,0,-1,1049,316,0,0
-168,708,0,0,0,0,0,0,0,0,0,-1,1056,316,0,0
-161,708,0,0,0,0,0,0,0,0,0,-1,1063,316,0,0
-154,708,0,0,0,0,0,0,0,0,0,-1,1070,316,0,0
-147,708,0,0,0,0,0,0,0,0,0,-1,1077,316,0,0
-140,708,0,0,0,0,0,0,0,0,0,-1,1084,316,0,0
-133,708,0,0,0,0,0,0,0,0,0,-1,1091,316,0,0
-126,708,0,0,0,0,0,0,0,0,0,-1,1098,316,0,0
-119,708,0,0,0,0,0,0,0,0,0,-1,1105,316,0,0
-112,708,0,0,0,0,0,0,0,0,0,-1,1112,316,0,0
-105,708,0,0,0,0,0,0,0,0,0,-1,1119,316,0,0
-98,708,0,0,0,0,0,0,0,0,0,-1,1126,316,0,0
-91,708,0,0,0,0,0,0,0,0,0,-1,1133,316,0,0
-84,708,0,0,0,0,0,0,0,0,0,-1,1140,316,0,0
-77,708,0,0,0,0,0,0,0,0,0,-1,1147,316,0,0
-70,708,0,0,0,0,0,0,0,0,0,-1,1154,316,0,0
-63,708,0,0,0,0,0,0,0,0,0,-1,1161,316,0,0
-56,708,0,0,0,0,0,0,0,0,0,-1,1168,316,0,0
-49,708,0,0,0,0,0,0,0,0,0,-1,1175,316,0,0
-42,708,0,0,0,0,0,0,0,0,0,-1,1182,316,0,0
-35,708,-2.71204,-6.31558,0,0,0,0,0,0,0,-1,1189,316,-2.712,6.3156
-28,708,-2.92371,-5.53253,0,0,0,0,0,0,0,-1,1196,316,-2.92375,5.53254
-21,708,-0.417969,-24.5911,0,0,0,0,0,0,0,-1,1203,316,-0.418022,24.5911
-14,708,7.50244,-59.7425,0,0,0,0,0,0,0,-1,1210,316,7.50238,59.7425
-7,708,7.92114,-60.0092,0,0,0,0,0,0,0,-1,1217,316,7.92113,60.0092
0,708,12.3481,-63.3593,0,0,0,0,0,0,0,-1,1224,316,12.3481,63.3593
7,708,7.93933,-60.5717,0,0,0,0,0,0,0,-1,1231,316,7.93933,60.5717
14,708,8.87012,-68.0363,0,0,0,0,0,0,0,-1,1238,316,8.87017,68.0363
21,708,8.88672,-67.9854,0.0435217,0.00105908,-0.0481903,0.0749504,-0.0303696,-0.577905,0.062596,0.0417495,1245,316,8.8867,67.9854
28,708,8.98865,-67.9036,0.0358255,0.00115346,-0.0357648,0.0582344,-0.0212554,-0.559722,0.04752,0.0420354,1252,316,8.98859,67.9036
35,708,9.05017,-67.6397,0.0281943,0.0083698,-0.0241776,0.0444127,-0.00784862,-0.59086,0.0325417,0.0455364,1259,316,9.05013,67.6397
42,708,8.90796,-68.0286,0.0200481,0.0216201,-0.0150504,0.035905,0.00576314,-0.811488,0.0222657,0.0429152,1266,316,8.90801,68.0286
49,708,8.44507,-68.6066,0,0,0,0,0,0,0,-1,1273,316,8.44511,68.6066
56,708,8.35657,-62.3997,-0.0030112,0.0526552,-0.00348207,0.0528722,-0.00322817,-1.50857,0.036372,0.0444824,1280,316,8.35654,62.3997
63,708,8.56299,-63.0288,-0.0180665,0.0669624,-0.0016278,0.0669935,-0.0180976,-1.55166,0.0517605,0.0416473,1287,316,8.56298,63.0288
70,708,7.80615,-64.4822,0,0,0,0,0,0,0,-1,1294,316,7.80616,64.4822
77,708,7.08484,-64.4343,0,0,0,0,0,0,0,-1,1301,316,7.08485,64.4343
84,708,6.7041,-64.3532,0,0,0,0,0,0,0,-1,1308,316,6.70408,64.3532
91,708,5.7417,-64.1351,0,0,0,0,0,0,0,-1,1315,316,5.74166,64.1351
98,708,5.02209,-63.714,0,0,0,0,0,0,0,-1,1322,316,5.02215,63.714
105,708,3.48267,-63.3012,-0.104493,0.134085,-0.0221657,0.136127,-0.106535,-1.47894,0.140448,0.0432021,1329,316,3.48269,63.3012
112,708,2.39746,-62.8442,-0.11471,0.133185,-0.0283303,0.136381,-0.117906,-1.45844,0.146942,0.0411075,1336,316,2.39746,62.8442
119,708,1.2688,-62.2513,-0.115556,0.136554,-0.0317364,0.140488,-0.11949,-1.44748,0.150261,0.0397268,1343,316,1.26875,62.2514
126,708,0.647583,-61.9315,-0.110957,0.143276,-0.0368204,0.148501,-0.116182,-1.42982,0.153194,0.0449771,1350,316,0.647635,61.9315
133,708,-0.019043,-61.8421,0,0,0,0,0,0,0,-1,1357,316,-0.0190587,61.8421
140,708,0.726196,-59.6042,0,0,0,0,0,0,0,-1,1364,316,0.726168,59.6042
147,708,-0.532593,-60.0074,0,0,0,0,0,0,0,-1,1371,316,-0.532633,60.0074
154,708,0,0,0,0,0,0,0,0,0,-1,1378,316,0,0
161,708,0,0,0,0,0,0,0,0,0,-1,1385,316,0,0
168,708,0,0,0,0,0,0,0,0,0,-1,1392,316,0,0
175,708,0,0,0,0,0,0,0,0,0,-1,1399,316,0,0
182,708,0,0,0,0,0,0,0,0,0,-1,1406,316,0,0
189,708,0,0,0,0,0,0,0,0,0,-1,1413,316,0,0
196,708,0,0,0,0,0,0,0,0,0,-1,1420,316,0,0
203,708,0,0,0,0,0,0,0,0,0,-1,1427,316,0,0
210,708,0,0,0,0,0,0,0,0,0,-1,1434,316,0,0
217,708,0,0,0,0,0,0,0,0,0,-1,1441,316,0,0
224,708,0,0,0,0,0,0,0,0,0,-1,1448,316,0,0
231,708,0,0,0,0,0,0,0,0,0,-1,1455,316,0,0
238,708,0,0,0,0,0,0,0,0,0,-1,1462,316,0,0
245,708,0,0,0,0,0,0,0,0,0,-1,1469,316,0,0
252,708,0,0,0,0,0,0,0,0,0,-1,1476,316,0,0
259,708,0,0,0,0,0,0,0,0,0,-1,1483,316,0,0
266,708,0,0,0,0,0,0,0,0,0,-1,1490,316,0,0
273,708,0,0,0,0,0,0,0,0,0,-1,1497,316,0,0
280,708,0,0,0,0,0,0,0,0,0,-1,1504,316,0,0
287,708,0,0,0,0,0,0,0,0,0,-1,1511,316,0,0
294,708,0,0,0,0,0,0,0,0,0,-1,1518,316,0,0
301,708,0,0,0,0,0,0,0,0,0,-1,1525,316,0,0
308,708,0,0,0,0,0,0,0,0,0,-1,1532,316,0,0
315,708,0,0,0,0,0,0,0,0,0,-1,1539,316,0,0
322,708,0,0,0,0,0,0,0,0,0,-1,1546,316,0,0
329,708,0,0,0,0,0,0,0,0,0,-1,1553,316,0,0
336,708,0,0,0,0,0,0,0,0,0,-1,1560,316,0,0
343,708,0,0,0,0,0,0,0,0,0,-1,1567,316,0,0
350,708,0,0,0,0,0,0,0,0,0,-1,1574,316,0,0
357,708,0,0,0,0,0,0,0,0,0,-1,1581,316,0,0
364,708,0,0,0,0,0,0,0,0,0,-1,1588,316,0,0
371,708,0,0,0,0,0,0,0,0,0,-1,1595,316,0,0
378,708,0,0,0,0,0,0,0,0,0,-1,1602,316,0,0
385,708,0,0,0,0,0,0,0,0,0,-1,1609,316,0,0
392,708,0,0,0,0,0,0,0,0,0,-1,1616,316,0,0
399,708,0,0,0,0,0,0,0,0,0,-1,1623,316,0,0
406,708,0,0,0,0,0,0,0,0,0,-1,1630,316,0,0
413,708,0,0,0,0,0,0,0,0,0,-1,1637,316,0,0
420,708,0,0,0,0,0,0,0,0,0,-1,1644,316,0,0
427,708,0,0,0,0,0,0,0,0,0,-1,1651,316,0,0
434,708,0,0,0,0,0,0,0,0,0,-1,1658,316,0,0
441,708,0,0,0,0,0,0,0,0,0,-1,1665,316,0,0
448,708,0,0,0,0,0,0,0,0,0,-1,1672,316,0,0
455,708,0,0,0,0,0,0,0,0,0,-1,1679,316,0,0
462,708,0,0,0,0,0,0,0,0,0,-1,1686,316,0,0
469,708,0,0,0,0,0,0,0,0,0,-1,1693,316,0,0
476,708,0,0,0,0,0,0,0,0,0,-1,1700,316,0,0
483,708,0,0,0,0,0,0,0,0,0,-1,1707,316,0,0
490,708,0,0,0,0,0,0,0,0,0,-1,1714,316,0,0
497,708,0,0,0,0,0,0,0,0,0,-1,1721,316,0,0
504,708,0,0,0,0,0,0,0,0,0,-1,1728,316,0,0
511,708,0,0,0,0,0,0,0,0,0,-1,1735,316,0,0
518,708,0,0,0,0,0,0,0,0,0,-1,1742,316,0,0
525,708,0,0,0,0,0,0,0,0,0,-1,1749,316,0,0
532,708,0,0,0,0,0,0,0,0,0,-1,1756,316,0,0
539,708,0,0,0,0,0,0,0,0,0,-1,1763,316,0,0
546,708,0,0,0,0,0,0,0,0,0,-1,1770,316,0,0
553,708,0,0,0,0,0,0,0,0,0,-1,1777,316,0,0
560,708,0,0,0,0,0,0,0,0,0,-1,1784,316,0,0
567,708,0,0,0,0,0,0,0,0,0,-1,1791,316,0,0
574,708,0,0,0,0,0,0,0,0,0,-1,1798,316,0,0
581,708,0,0,0,0,0,0,0,0,0,-1,1805,316,0,0
588,708,0,0,0,0,0,0,0,0,0,-1,1812,316,0,0
595,708,0,0,0,0,0,0,0,0,0,-1,1819,316,0,0
602,708,0,0,0,0,0,0,0,0,0,-1,1826,316,0,0
609,708,0,0,0,0,0,0,0,0,0,-1,1833,316,0,0
616,708,0,0,0,0,0,0,0,0,0,-1,1840,316,0,0
623,708,0,0,0,0,0,0,0,0,0,-1,1847,316,0,0
630,708,0,0,0,0,0,0,0,0,0,-1,1854,316,0,0
637,708,0,0,0,0,0,0,0,0,0,-1,1861,316,0,0
644,708,0,0,0,0,0,0,0,0,0,-1,1868,316,0,0
651,708,0,0,0,0,0,0,0,0,0,-1,1875,316,0,0
658,708,0,0,0,0,0,0,0,0,0,-1,1882,316,0,0
665,708,0,0,0,0,0,0,0,0,0,-1,1889,316,0,0
672,708,0,0,0,0,0,0,0,0,0,-1,1896,316,0,0
679,708,0,0,0,0,0,0,0,0,0,-1,1903,316,0,0
686,708,0,0,0,0,0,0,0,0,0,-1,1910,316,0,0
693,708,0,0,0,0,0,0,0,0,0,-1,1917,316,0,0
700,708,0,0,0,0,0,0,0,0,0,-1,1924,316,0,0
707,708,0,0,0,0,0,0,0,0,0,-1,1931,316,0,0
714,708,0,0,0,0,0,0,0,0,0,-1,1938,316,0,0
721,708,0,0,0,0,0,0,0,0,0,-1,1945,316,0,0
728,708,0,0,0,0,0,0,0,0,0,-1,1952,316,0,0
735,708,0,0,0,0,0,0,0,0,0,-1,1959,316,0,0
742,708,0,0,0,0,0,0,0,0,0,-1,1966,316,0,0
749,708,0,0,0,0,0,0,0,0,0,-1,1973,316,0,0
756,708,0,0,0,0,0,0,0,0,0,-1,1980,316,0,0
763,708,0,0,0,0,0,0,0,0,0,-1,1987,316,0,0
770,708,0,0,0,0,0,0,0,0,0,-1,1994,316,0,0
777,708,0,0,0,0,0,0,0,0,0,-1,2001,316,0,0
784,708,0,0,0,0,0,0,0,0,0,-1,2008,316,0,0
791,708,0,0,0,0,0,0,0,0,0,-1,2015,316,0,0
798,708,0,0,0,0,0,0,0,0,0,-1,2022,316,0,0
805,708,0,0,0,0,0,0,0,0,0,-1,2029,316,0,0
812,708,0,0,0,0,0,0,0,0,0,-1,2036,316,0,0
-700,701,0,0,0,0,0,0,0,0,0,-1,524,323,0,0
-693,701,0,0,0,0,0,0,0,0,0,-1,531,323,0,0
-686,701,0,0,0,0,0,0,0,0,0,-1,538,323,0,0
-679,701,0,0,0,0,0,0,0,0,0,-1,545,323,0,0
-672,701,0,0,0,0,0,0,0,0,0,-1,552,323,0,0
-665,701,0,0,0,0,0,0,0,0,0,-1,559,323,0,0
-658,701,0,0,0,0,0,0,0,0,0,-1,566,323,0,0
-651,701,0,0,0,0,0,0,0,0,0,-1,573,323,0,0
-644,701,0,0,0,0,0,0,0,0,0,-1,580,323,0,0
-637,701,0,0,0,0,0,0,0,0,0,-1,587,323,0,0
-630,701,0,0,0,0,0,0,0,0,0,-1,594,323,0,0
-623,701,0,0,0,0,0,0,0,0,0,-1,601,323,0,0
-616,701,0,0,0,0,0,0,0,0,0,-1,608,323,0,0
-609,701,0,0,0,0,0,0,0,0,0,-1,615,323,0,0
-602,701,0,0,0,0,0,0,0,0,0,-1,622,323,0,0
-595,701,0,0,0,0,0,0,0,0,0,-1,629,323,0,0
-588,701,0,0,0,0,0,0,0,0,0,-1,636,323,0,0
-581,701,0,0,0,0,0,0,0,0,0,-1,643,323,0,0
-574,701,0,0,0,0,0,0,0,0,0,-1,650,323,0,0
-567,701,0,0,0,0,0,0,0,0,0,-1,657,323,0,0
-560,701,0,0,0,0,0,0,0,0,0,-1,664,323,0,0
-553,701,0,0,0,0,0,0,0,0,0,-1,671,323,0,0
-546,701,0,0,0,0,0,0,0,0,0,-1,678,323,0,0
-539,701,0,0,0,0,0,0,0,0,0,-1,685,323,0,0
-532,701,0,0,0,0,0,0,0,0,0,-1,692,323,0,0
-525,701,0,0,0,0,0,0,0,0,0,-1,699,323,0,0
-518,701,0,0,0,0,0,0,0,0,0,-1,706,323,0,0
-511,701,0,0,0,0,0,0,0,0,0,-1,713,323,0,0
-504,701,0,0,0,0,0,0,0,0,0,-1,720,323,0,0
-497,701,0,0,0,0,0,0,0,0,0,-1,727,323,0,0
-490,701,0,0,0,0,0,0,0,0,0,-1,734,323,0,0
-483,701,0,0,0,0,0,0,0,0,0,-1,741,323,0,0
-476,701,0,0,0,0,0,0,0,0,0,-1,748,323,0,0
-469,701,0,0,0,0,0,0,0,0,0,-1,755,323,0,0
-462,701,0,0,0,0,0,0,0,0,0,-1,762,323,0,0
-455,701,0,0,0,0,0,0,0,0,0,-1,769,323,0,0
-448,701,0,0,0,0,0,0,0,0,0,-1,776,323,0,0
-441,701,0,0,0,0,0,0,0,0,0,-1,783,323,0,0
-434,701,0,0,0,0,0,0,0,0,0,-1,790,323,0,0
-427,701,0,0,0,0,0,0,0,0,0,-1,797,323,0,0
-420,701,0,0,0,0,0,0,0,0,0,-1,804,323,0,0
-413,701,0,0,0,0,0,0,0,0,0,-1,811,323,0,0
-406,701,0,0,0,0,0,0,0,0,0,-1,818,323,0,0
-399,701,0,0,0,0,0,0,0,0,0,-1,825,323,0,0
-392,701,0,0,0,0,0,0,0,0,0,-1,832,323,0,0
-385,701,0,0,0,0,0,0,0,0,0,-1,839,323,0,0
-378,701,0,0,0,0,0,0,0,0,0,-1,846,323,0,0
-371,701,0,0,0,0,0,0,0,0,0,-1,853,323,0,0
-364,701,0,0,0,0,0,0,0,0,0,-1,860,323,0,0
-357,701,0,0,0,0,0,0,0,0,0,-1,867,323,0,0
-350,701,0,0,0,0,0,0,0,0,0,-1,874,323,0,0
-343,701,0,0,0,0,0,0,0,0,0,-1,881,323,0,0
-336,701,0,0,0,0,0,0,0,0,0,-1,888,323,0,0
-329,701,0,0,0,0,0,0,0,0,0,-1,895,323,0,0
-322,701,0,0,0,0,0,0,0,0,0,-1,902,323,0,0
-315,701,0,0,0,0,0,0,0,0,0,-1,909,323,0,0
-308,701,0,0,0,0,0,0,0,0,0,-1,916,323,0,0
-301,701,0,0,0,0,0,0,0,0,0,-1,923,323,0,0
-294,701,0,0,0,0,0,0,0,0,0,-1,930,323,0,0
-287,701,0,0,0,0,0,0,0,0,0,-1,937,323,0,0
-280,701,0,0,0,0,0,0,0,0,0,-1,944,323,0,0
-273,701,0,0,0,0,0,0,0,0,0,-1,951,323,0,0
-266,701,0,0,0,0,0,0,0,0,0,-1,958,323,0,0
-259,701,0,0,0,0,0,0,0,0,0,-1,965,323,0,0
-252,701,0,0,0,0,0,0,0,0,0,-1,972,323,0,0
-245,701,0,0,0,0,0,0,0,0,0,-1,979,323,0,0
-238,701,0,0,0,0,0,0,0,0,0,-1,986,323,0,0
-231,701,0,0,0,0,0,0,0,0,0,-1,993,323,0,0
-224,701,0,0,0,0,0,0,0,0,0,-1,1000,323,0,0
-217,701,0,0,0,0,0,0,0,0,0,-1,1007,323,0,0
-210,701,0,0,0,0,0,0,0,0,0,-1,1014,323,0,0
-203,701,0,0,0,0,0,0,0,0,0,-1,1021,323,0,0
-196,701,0,0,0,0,0,0,0,0,0,-1,1028,323,0,0
-189,701,0,0,0,0,0,0,0,0,0,-1,1035,323,0,0
-182,701,0,0,0,0,0,0,0,0,0,-1,1042,323,0,0
-175,701,0,0,0,0,0,0,0,0,0,-1,1049,323,0,0
-168,701,0,0,0,0,0,0,0,0,0,-1,1056,323,0,0
-161,701,0,0,0,0,0,0,0,0,0,-1,1063,323,0,0
-154,701,0,0,0,0,0,0,0,0,0,-1,1070,323,0,0
-147,701,0,0,0,0,0,0,0,0,0,-1,1077,323,0,0
-140,701,0,0,0,0,0,0,0,0,0,-1,1084,323,0,0
-133,701,0,0,0,0,0,0,0,0,0,-1,1091,323,0,0
-126,701,0,0,0,0,0,0,0,0,0,-1,1098,323,0,0
-119,701,0,0,0,0,0,0,0,0,0,-1,1105,323,0,0
-112,701,0,0,0,0,0,0,0,0,0,-1,1112,323,0,0
-105,701,0,0,0,0,0,0,0,0,0,-1,1119,323,0,0
-98,701,0,0,0,0,0,0,0,0,0,-1,1126,323,0,0
-91,701,0,0,0,0,0,0,0,0,0,-1,1133,323,0,0
-84,701,0,0,0,0,0,0,0,0,0,-1,1140,323,0,0
-77,701,0,0,0,0,0,0,0,0,0,-1,1147,323,0,0
-70,701,-12.7566,-30.413,0,0,0,0,0,0,0,-1,1154,323,-12.7566,30.413
-63,701,-18.3169,-21.2322,0,0,0,0,0,0,0,-1,1161,323,-18.3169,21.2322
-56,701,-0.420166,-0.101776,0,0,0,0,0,0,0,-1,1168,323,-0.420119,0.101777
-49,701,-1.09021,-0.155762,0,0,0,0,0,0,0,-1,1175,323,-1.09024,0.155768
-42,701,-0.210327,-0.299133,0,0,0,0,0,0,0,-1,1182,323,-0.210379,0.29914
-35,701,-2.9635,-7.98676,0,0,0,0,0,0,0,-1,1189,323,-2.9635,7.98676
-28,701,-6.64417,-5.4917,0,0,0,0,0,0,0,-1,1196,323,-6.64411,5.4917
-21,701,6.90942,-60.6949,0,0,0,0,0,0,0,-1,1203,323,6.90938,60.6949
-14,701,7.38416,-60.9832,0,0,0,0,0,0,0,-1,1210,323,7.38418,60.9833
-7,701,7.69922,-61.2989,0,0,0,0,0,0,0,-1,1217,323,7.69925,61.2989
0,701,7.57288,-61.0247,0,0,0,0,0,0,0,-1,1224,323,7.57288,61.0247
7,701,8.10229,-62.0869,0,0,0,0,0,0,0,-1,1231,323,8.10226,62.0869
14,701,8.97632,-63.5918,0,0,0,0,0,0,0,-1,1238,323,8.9763,63.5918
21,701,9.5835,-64.3181,0.0362229,0.0258753,-0.0385704,0.0699649,-0.00786669,-0.718727,0.0494744,0.0468853,1245,323,9.5835,64.3181
28,701,9.2583,-67.3872,0.0293462,0.024718,-0.0284708,0.0555968,-0.00153264,-0.744848,0.0375858,0.0477366,1252,323,9.25832,67.3872
35,701,9.01038,-67.6766,0.022195,0.0290155,-0.0193479,0.0452514,0.00595917,-0.872632,0.0283904,0.0440537,1259,323,9.01043,67.6766
42,701,8.73511,-68.0946,0.0146888,0.0382875,-0.0118056,0.0431793,0.00979694,-1.17796,0.0261399,0.0441157,1266,323,8.73505,68.0946
49,701,8.21313,-68.6525,0.0057615,0.0490289,-0.00541479,0.0496963,0.00509415,-1.44817,0.0315701,0.0447383,1273,323,8.21309,68.6525
56,701,8.97595,-63.5551,-0.00584026,0.0613704,-0.00142304,0.0614005,-0.00587038,-1.54964,0.0430242,0.0430159,1280,323,8.97596,63.5551
63,701,8.77246,-63.5922,-0.018935,0.0727586,0.000618924,0.0727628,-0.0189391,1.56405,0.0559014,0.0420006,1287,323,8.77243,63.5922
70,701,8.51257,-63.3064,0,0,0,0,0,0,0,-1,1294,323,8.51253,63.3064
77,701,7.51965,-65.0835,0,0,0,0,0,0,0,-1,1301,323,7.51969,65.0835
84,701,6.78247,-65.0257,-0.0572955,0.107746,-0.0017171,0.107764,-0.0573133,-1.56039,0.0967795,0.0458608,1308,323,6.78251,65.0257
91,701,5.99377,-64.9498,-0.0689584,0.114684,-0.00606804,0.114884,-0.0691587,-1.5378,0.107345,0.0451485,1315,323,5.99371,64.9498
98,701,5.2251,-64.5838,-0.0796541,0.118932,-0.0103434,0.11947,-0.0801914,-1.5189,0.116016,0.0445223,1322,323,5.22515,64.5838
105,701,4.18701,-64.0161,-0.0903387,0.11945,-0.0172825,0.120864,-0.0917529,-1.48915,0.123137,0.0430074,1329,323,4.18706,64.0161
112,701,3.37158,-63.657,-0.0976175,0.117775,-0.0220941,0.120018,-0.0998604,-1.46962,0.127125,0.0420742,1336,323,3.3716,63.657
119,701,2.49158,-63.2626,-0.0982716,0.118969,-0.0246387,0.121729,-0.101031,-1.45927,0.128795,0.0430222,1343,323,2.49154,63.2626
126,701,1.73267,-62.9568,-0.0951186,0.122853,-0.0280354,0.126401,-0.0986667,-1.44491,0.130271,0.0482446,1350,323,1.73265,62.9569
133,701,1.02588,-62.9041,0,0,0,0,0,0,0,-1,1357,323,1.02582,62.9041
140,701,0.728149,-63.762,0,0,0,0,0,0,0,-1,1364,323,0.728115,63.762
147,701,0.243652,-63.9399,0,0,0,0,0,0,0,-1,1371,323,0.243662,63.9399
154,701,-2.79211,-61.3131,0,0,0,0,0,0,0,-1,1378,323,-2.79217,61.3131
161,701,-4.83057,-59.3711,0,0,0,0,0,0,0,-1,1385,323,-4.83061,59.3711
168,701,30.7272,1.76184,0,0,0,0,0,0,0,-1,1392,323,30.7272,-1.76184
175,701,31.5035,2.25711,0,0,0,0,0,0,0,-1,1399,323,31.5036,-2.25712
182,701,8.80652,5.42807,0,0,0,0,0,0,0,-1,1406,323,8.8065,-5.42808
189,701,8.58081,4.24493,0,0,0,0,0,0,0,-1,1413,323,8.58082,-4.24494
196,701,0,0,0,0,0,0,0,0,0,-1,1420,323,0,0
203,701,0,0,0,0,0,0,0,0,0,-1,1427,323,0,0
210,701,0,0,0,0,0,0,0,0,0,-1,1434,323,0,0
217,701,0,0,0,0,0,0,0,0,0,-1,1441,323,0,0
224,701,0,0,0,0,0,0,0,0,0,-1,1448,323,0,0
231,701,0,0,0,0,0,0,0,0,0,-1,1455,323,0,0
238,701,0,0,0,0,0,0,0,0,0,-1,1462,323,0,0
245,701,0,0,0,0,0,0,0,0,0,-1,1469,323,0,0
252,701,0,0,0,0,0,0,0,0,0,-1,1476,323,0,0
259,701,0,0,0,0,0,0,0,0,0,-1,1483,323,0,0
266,701,0,0,0,0,0,0,0,0,0,-1,1490,323,0,0
273,701,0,0,0,0,0,0,0,0,0,-1,1497,323,0,0
280,701,0,0,0,0,0,0,0,0,0,-1,1504,323,0,0
287,701,0,0,0,0,0,0,0,0,0,-1,1511,323,0,0
294,701,0,0,0,0,0,0,0,0,0,-1,1518,323,0,0
301,701,0,0,0,0,0,0,0,0,0,-1,1525,323,0,0
308,701,0,0,0,0,0,0,0,0,0,-1,1532,323,0,0
315,701,0,0,0,0,0,0,0,0,0,-1,1539,323,0,0
322,701,0,0,0,0,0,0,0,0,0,-1,1546,323,0,0
329,701,0,0,0,0,0,0,0,0,0,-1,1553,323,0,0
336,701,0,0,0,0,0,0,0,0,0,-1,1560,323,0,0
343,701,0,0,0,0,0,0,0,0,0,-1,1567,323,0,0
350,701,0,0,0,0,0,0,0,0,0,-1,1574,323,0,0
357,701,0,0,0,0,0,0,0,0,0,-1,1581,323,0,0
364,701,0,0,0,0,0,0,0,0,0,-1,1588,323,0,0
371,701,0,0,0,0,0,0,0,0,0,-1,1595,323,0,0
378,701,0,0,0,0,0,0,0,0,0,-1,1602,323,0,0
385,701,0,0,0,0,0,0,0,0,0,-1,1609,323,0,0
392,701,0,0,0,0,0,0,0,0,0,-1,1616,323,0,0
399,701,0,0,0,0,0,0,0,0,0,-1,1623,323,0,0
406,701,0,0,0,0,0,0,0,0,0,-1,1630,323,0,0
413,701,0,0,0,0,0,0,0,0,0,-1,1637,323,0,0
420,701,0,0,0,0,0,0,0,0,0,-1,1644,323,0,0
427,701,0,0,0,0,0,0,0,0,0,-1,1651,323,0,0
434,701,0,0,0,0,0,0,0,0,0,-1,1658,323,0,0
441,701,0,0,0,0,0,0,0,0,0,-1,1665,323,0,0
448,701,0,0,0,0,0,0,0,0,0,-1,1672,323,0,0
455,701,0,0,0,0,0,0,0,0,0,-1,1679,323,0,0
462,701,0,0,0,0,0,0,0,0,0,-1,1686,323,0,0
469,701,0,0,0,0,0,0,0,0,0,-1,1693,323,0,0
476,701,0,0,0,0,0,0,0,0,0,-1,1700,323,0,0
483,701,0,0,0,0,0,0,0,0,0,-1,1707,323,0,0
490,701,0,0,0,0,0,0,0,0,0,-1,1714,323,0,0
497,701,0,0,0,0,0,0,0,0,0,-1,1721,323,0,0
504,701,0,0,0,0,0,0,0,0,0,-1,1728,323,0,0
511,701,0,0,0,0,0,0,0,0,0,-1,1735,323,0,0
518,701,0,0,0,0,0,0,0,0,0,-1,1742,323,0,0
525,701,0,0,0,0,0,0,0,0,0,-1,1749,323,0,0
532,701,0,0,0,0,0,0,0,0,0,-1,1756,323,0,0
539,701,0,0,0,0,0,0,0,0,0,-1,1763,323,0,0
546,701,0,0,0,0,0,0,0,0,0,-1,1770,323,0,0
553,701,0,0,0,0,0,0,0,0,0,-1,1777,323,0,0
560,701,0,0,0,0,0,0,0,0,0,-1,1784,323,0,0
567,701,0,0,0,0,0,0,0,0,0,-1,1791,323,0,0
574,701,0,0,0,0,0,0,0,0,0,-1,1798,323,0,0
581,701,0,0,0,0,0,0,0,0,0,-1,1805,323,0,0
588,701,0,0,0,0,0,0,0,0,0,-1,1812,323,0,0
595,701,0,0,0,0,0,0,0,0,0,-1,1819,323,0,0
602,701,0,0,0,0,0,0,0,0,0,-1,1826,323,0,0
609,701,0,0,0,0,0,0,0,0,0,-1,1833,323,0,0
616,701,0,0,0,0,0,0,0,0,0,-1,1840,323,0,0
623,701,0,0,0,0,0,0,0,0,0,-1,1847,323,0,0
630,701,0,0,0,0,0,0,0,0,0,-1,1854,323,0,0
637,701,0,0,0,0,0,0,0,0,0,-1,1861,323,0,0
644,701,0,0,0,0,0,0,0,0,0,-1,1868,323,0,0
651,701,0,0,0,0,0,0,0,0,0,-1,1875,323,0,0
658,701,0,0,0,0,0,0,0,0,0,-1,1882,323,0,0
665,701,0,0,0,0,0,0,0,0,0,-1,1889,323,0,0
672,701,0,0,0,0,0,0,0,0,0,-1,1896,323,0,0
679,701,0,0,0,0,0,0,0,0,0,-1,1903,323,0,0
686,701,0,0,0,0,0,0,0,0,0,-1,1910,323,0,0
693,701,0,0,0,0,0,0,0,0,0,-1,1917,323,0,0
700,701,0,0,0,0,0,0,0,0,0,-1,1924,323,0,0
707,701,0,0,0,0,0,0,0,0,0,-1,1931,323,0,0
714,701,0,0,0,0,0,0,0,0,0,-1,1938,323,0,0
721,701,0,0,0,0,0,0,0,0,0,-1,1945,323,0,0
728,701,0,0,0,0,0,0,0,0,0,-1,1952,323,0,0
735,701,0,0,0,0,0,0,0,0,0,-1,1959,323,0,0
742,701,0,0,0,0,0,0,0,0,0,-1,1966,323,0,0
749,701,0,0,0,0,0,0,0,0,0,-1,1973,323,0,0
756,701,0,0,0,0,0,0,0,0,0,-1,1980,323,0,0
763,701,0,0,0,0,0,0,0,0,0,-1,1987,323,0,0
770,701,0,0,0,0,0,0,0,0,0,-1,1994,323,0,0
777,701,0,0,0,0,0,0,0,0,0,-1,2001,323,0,0
784,701,0,0,0,0,0,0,0,0,0,-1,2008,323,0,0
791,701,0,0,0,0,0,0,0,0,0,-1,2015,323,0,0
798,701,0,0,0,0,0,0,0,0,0,-1,2022,323,0,0
805,701,0,0,0,0,0,0,0,0,0,-1,2029,323,0,0
812,701,0,0,0,0,0,0,0,0,0,-1,2036,323,0,0
-700,694,0,0,0,0,0,0,0,0,0,-1,524,330,0,0
-693,694,0,0,0,0,0,0,0,0,0,-1,531,330,0,0
-686,694,0,0,0,0,0,0,0,0,0,-1,538,330,0,0
-679,694,0,0,0,0,0,0,0,0,0,-1,545,330,0,0
-672,694,0,0,0,0,0,0,0,0,0,-1,552,330,0,0
-665,694,0,0,0,0,0,0,0,0,0,-1,559,330,0,0
-658,694,0,0,0,0,0,0,0,0,0,-1,566,330,0,0
-651,694,0,0,0,0,0,0,0,0,0,-1,573,330,0,0
-644,694,0,0,0,0,0,0,0,0,0,-1,580,330,0,0
-637,694,0,0,0,0,0,0,0,0,0,-1,587,330,0,0
-630,694,0,0,0,0,0,0,0,0,0,-1,594,330,0,0
-623,694,0,0,0,0,0,0,0,0,0,-1,601,330,0,0
-616,694,0,0,0,0,0,0,0,0,0,-1,608,330,0,0
-609,694,0,0,0,0,0,0,0,0,0,-1,615,330,0,0
-602,694,0,0,0,0,0,0,0,0,0,-1,622,330,0,0
-595,694,0,0,0,0,0,0,0,0,0,-1,629,330,0,0
-588,694,0,0,0,0,0,0,0,0,0,-1,636,330,0,0
-581,694,0,0,0,0,0,0,0,0,0,-1,643,330,0,0
-574,694,0,0,0,0,0,0,0,0,0,-1,650,330,0,0
-567,694,0,0,0,0,0,0,0,0,0,-1,657,330,0,0
-560,694,0,0,0,0,0,0,0,0,0,-1,664,330,0,0
-553,694,0,0,0,0,0,0,0,0,0,-1,671,330,0,0
-546,694,0,0,0,0,0,0,0,0,0,-1,678,330,0,0
-539,694,0,0,0,0,0,0,0,0,0,-1,685,330,0,0
-532,694,0,0,0,0,0,0,0,0,0,-1,692,330,0,0
-525,694,0,0,0,0,0,0,0,0,0,-1,699,330,0,0
-518,694,0,0,0,0,0,0,0,0,0,-1,706,330,0,0
-511,694,0,0,0,0,0,0,0,0,0,-1,713,330,0,0
-504,694,0,0,0,0,0,0,0,0,0,-1,720,330,0,0
-497,694,0,0,0,0,0,0,0,0,0,-1,727,330,0,0
-490,694,0,0,0,0,0,0,0,0,0,-1,734,330,0,0
-483,694,0,0,0,0,0,0,0,0,0,-1,741,330,0,0
-476,694,0,0,0,0,0,0,0,0,0,-1,748,330,0,0
-469,694,0,0,0,0,0,0,0,0,0,-1,755,330,0,0
-462,694,0,0,0,0,0,0,0,0,0,-1,762,330,0,0
-455,694,0,0,0,0,0,0,0,0,0,-1,769,330,0,0
-448,694,0,0,0,0,0,0,0,0,0,-1,776,330,0,0
-441,694,0,0,0,0,0,0,0,0,0,-1,783,330,0,0
-434,694,0,0,0,0,0,0,0,0,0,-1,790,330,0,0
-427,694,0,0,0,0,0,0,0,0,0,-1,797,330,0,0
-420,694,0,0,0,0,0,0,0,0,0,-1,804,330,0,0
-413,694,0,0,0,0,0,0,0,0,0,-1,811,330,0,0
-406,694,0,0,0,0,0,0,0,0,0,-1,818,330,0,0
-399,694,0,0,0,0,0,0,0,0,0,-1,825,330,0,0
-392,694,0,0,0,0,0,0,0,0,0,-1,832,330,0,0
-385,694,0,0,0,0,0,0,0,0,0,-1,839,330,0,0
-378,694,0,0,0,0,0,0,0,0,0,-1,846,330,0,0
-371,694,0,0,0,0,0,0,0,0,0,-1,853,330,0,0
-364,694,0,0,0,0,0,0,0,0,0,-1,860,330,0,0
-357,694,0,0,0,0,0,0,0,0,0,-1,867,330,0,0
-350,694,0,0,0,0,0,0,0,0,0,-1,874,330,0,0
-343,694,0,0,0,0,0,0,0,0,0,-1,881,330,0,0
-336,694,0,0,0,0,0,0,0,0,0,-1,888,330,0,0
-329,694,0,0,0,0,0,0,0,0,0,-1,895,330,0,0
-322,694,0,0,0,0,0,0,0,0,0,-1,902,330,0,0
-315,694,0,0,0,0,0,0,0,0,0,-1,909,330,0,0
-308,694,0,0,0,0,0,0,0,0,0,-1,916,330,0,0
-301,694,0,0,0,0,0,0,0,0,0,-1,923,330,0,0
-294,694,0,0,0,0,0,0,0,0,0,-1,930,330,0,0
-287,694,0,0,0,0,0,0,0,0,0,-1,937,330,0,0
-280,694,0,0,0,0,0,0,0,0,0,-1,944,330,0,0
-273,694,0,0,0,0,0,0,0,0,0,-1,951,330,0,0
-266,694,0,0,0,0,0,0,0,0,0,-1,958,330,0,0
-259,694,0,0,0,0,0,0,0,0,0,-1,965,330,0,0
-252,694,0,0,0,0,0,0,0,0,0,-1,972,330,0,0
-245,694,0,0,0,0,0,0,0,0,0,-1,979,330,0,0
-238,694,0,0,0,0,0,0,0,0,0,-1,986,330,0,0
-231,694,0,0,0,0,0,0,0,0,0,-1,993,330,0,0
-224,694,0,0,0,0,0,0,0,0,0,-1,1000,330,0,0
-217,694,0,0,0,0,0,0,0,0,0,-1,1007,330,0,0
-210,694,0,0,0,0,0,0,0,0,0,-1,1014,330,0,0
-203,694,0,0,0,0,0,0,0,0,0,-1,1021,330,0,0
-196,694,0,0,0,0,0,0,0,0,0,-1,1028,330,0,0
-189,694,0,0,0,0,0,0,0,0,0,-1,1035,330,0,0
-182,694,0,0,0,0,0,0,0,0,0,-1,1042,330,0,0
-175,694,0,0,0,0,0,0,0,0,0,-1,1049,330,0,0
-168,694,0,0,0,0,0,0,0,0,0,-1,1056,330,0,0
-161,694,0,0,0,0,0,0,0,0,0,-1,1063,330,0,0
-154,694,0,0,0,0,0,0,0,0,0,-1,1070,330,0,0
-147,694,0,0,0,0,0,0,0,0,0,-1,1077,330,0,0
-140,694,0,0,0,0,0,0,0,0,0,-1,1084,330,0,0
-133,694,0,0,0,0,0,0,0,0,0,-1,1091,330,0,0
-126,694,0,0,0,0,0,0,0,0,0,-1,1098,330,0,0
-119,694,0,0,0,0,0,0,0,0,0,-1,1105,330,0,0
-112,694,0,0,0,0,0,0,0,0,0,-1,1112,330,0,0
-105,694,2.5188,-19.3963,0,0,0,0,0,0,0,-1,1119,330,2.51882,19.3963
-98,694,1.34875,-10.1051,0,0,0,0,0,0,0,-1,1126,330,1.34874,10.1051
-91,694,6.62366,-46.8039,0,0,0,0,0,0,0,-1,1133,330,6.62363,46.8039
-84,694,0.0577393,-40.8823,0,0,0,0,0,0,0,-1,1140,330,0.0577026,40.8823
-77,694,-5.51379,-31.2714,0,0,0,0,0,0,0,-1,1147,330,-5.51383,31.2714
-70,694,-11.9945,-25.5143,0,0,0,0,0,0,0,-1,1154,330,-11.9945,25.5143
-63,694,-18.4752,-19.7572,0,0,0,0,0,0,0,-1,1161,330,-18.4752,19.7572
-56,694,-6.50623,-0.649139,0,0,0,0,0,0,0,-1,1168,330,-6.5062,0.649126
-49,694,-1.11426,0.0341797,0,0,0,0,0,0,0,-1,1175,330,-1.11424,-0.0341846
-42,694,-0.346313,-0.709595,0,0,0,0,0,0,0,-1,1182,330,-0.346298,0.709581
-35,694,-0.459106,-1.24713,0,0,0,0,0,0,0,-1,1189,330,-0.459142,1.24714
-28,694,-6.48413,-3.95972,0,0,0,0,0,0,0,-1,1196,330,-6.48414,3.9597
-21,694,9.71411,-53.743,0,0,0,0,0,0,0,-1,1203,330,9.71411,53.743
-14,694,7.11597,-61.9279,0,0,0,0,0,0,0,-1,1210,330,7.11598,61.9279
-7,694,7.35706,-62.442,0.0580143,0.0754251,-0.050346,0.117813,0.0156266,-0.871007,0.0738859,0.0446013,1217,330,7.35704,62.442
0,694,7.83362,-62.9648,0.0499424,0.0632828,-0.0481358,0.105208,0.00801683,-0.854245,0.0676252,0.0445438,1224,330,7.83361,62.9648
7,694,8.25769,-63.4215,0.0425875,0.0528709,-0.0434932,0.0915252,0.00393312,-0.844234,0.0597489,0.0473777,1231,330,8.25765,63.4215
14,694,8.93665,-64.4716,0.034947,0.0438198,-0.0377787,0.0774217,0.00134506,-0.843847,0.051172,0.0441176,1238,330,8.93669,64.4715
21,694,9.23804,-65.1506,0.028431,0.038447,-0.0304864,0.064334,0.002544,-0.866806,0.042067,0.0469973,1245,330,9.23803,65.1506
28,694,9.45581,-65.9181,0.0226111,0.0371414,-0.0224586,0.0534807,0.00627183,-0.941831,0.0337579,0.0476043,1252,330,9.45577,65.9181
35,694,8.95422,-67.7798,0.0163104,0.0398223,-0.0154014,0.0474417,0.00869093,-1.11138,0.0291657,0.0439441,1259,330,8.95424,67.7799
42,694,8.47803,-68.239,0.00974261,0.0463767,-0.00930438,0.0486043,0.00751493,-1.3358,0.0302111,0.0453184,1266,330,8.47798,68.239
49,694,8.01013,-68.5913,0.00198037,0.0542408,-0.00394687,0.0545372,0.00168397,-1.49584,0.03581,0.0458658,1273,330,8.01018,68.5913
56,694,8.83704,-64.3963,-0.0078471,0.0635158,-0.000390353,0.063518,-0.00784924,-1.56533,0.0451895,0.0429344,1280,330,8.83707,64.3963
63,694,8.59595,-64.4599,-0.0188714,0.0724437,0.00160094,0.0724717,-0.0188994,1.55327,0.0556937,0.0414755,1287,330,8.59601,64.4599
70,694,8.34778,-64.3698,-0.0300361,0.0810545,0.00167027,0.0810797,-0.0300613,1.55577,0.0663825,0.0445431,1294,330,8.34776,64.3697
77,694,8.16992,-64.2113,0,0,0,0,0,0,0,-1,1301,330,8.16991,64.2113
84,694,6.52966,-65.2604,-0.0511893,0.0982118,-0.000787689,0.098216,-0.0511935,-1.56552,0.0876741,0.0457192,1308,330,6.52963,65.2604
91,694,6.25732,-65.7404,-0.0607069,0.102582,-0.0045946,0.102711,-0.0608361,-1.54269,0.0954501,0.0452887,1315,330,6.25734,65.7404
98,694,5.50806,-65.1203,-0.0688583,0.104813,-0.00793681,0.105175,-0.0692203,-1.52522,0.101398,0.0429693,1322,330,5.50807,65.1203
105,694,4.80542,-64.7122,-0.0766689,0.104471,-0.0130908,0.105412,-0.0776101,-1.49902,0.106074,0.0421471,1329,330,4.80546,64.7122
112,694,4.09607,-64.3647,-0.0821185,0.102569,-0.016789,0.104083,-0.0836323,-1.48087,0.108591,0.0450677,1336,330,4.09607,64.3647
119,694,3.4104,-63.9746,0,0,0,0,0,0,0,-1,1343,330,3.41042,63.9747
126,694,2.91455,-64.1261,-0.0805721,0.104533,-0.0208932,0.106862,-0.0829011,-1.45978,0.10985,0.0427986,1350,330,2.91452,64.1261
133,694,2.55139,-64.4082,0,0,0,0,0,0,0,-1,1357,330,2.55137,64.4082
140,694,2.18506,-64.6894,-0.0737942,0.117666,-0.0279084,0.121651,-0.0777793,-1.42896,0.116066,0.0499783,1364,330,2.18508,64.6894
147,694,1.76538,-64.9051,0,0,0,0,0,0,0,-1,1371,330,1.76536,64.9051
154,694,1.36658,-65.2345,0,0,0,0,0,0,0,-1,1378,330,1.36655,65.2345
161,694,0.0187988,-38.6779,0,0,0,0,0,0,0,-1,1385,330,0.0187579,38.6779
168,694,30.451,0.196686,0,0,0,0,0,0,0,-1,1392,330,30.4511,-0.196674
175,694,31.0701,0.869873,0,0,0,0,0,0,0,-1,1399,330,31.07,-0.869874
182,694,8.29028,5.75238,0,0,0,0,0,0,0,-1,1406,330,8.29034,-5.75237
189,694,7.9801,4.46118,0,0,0,0,0,0,0,-1,1413,330,7.9801,-4.46118
196,694,7.39331,3.32632,0,0,0,0,0,0,0,-1,1420,330,7.39329,-3.32633
203,694,7.04492,2.20529,0,0,0,0,0,0,0,-1,1427,330,7.04496,-2.20529
210,694,6.44714,0.646912,0,0,0,0,0,0,0,-1,1434,330,6.44717,-0.646903
217,694,7.12061,-0.644958,0,0,0,0,0,0,0,-1,1441,330,7.12059,0.644961
224,694,6.74011,-1.70544,0,0,0,0,0,0,0,-1,1448,330,6.74013,1.70546
231,694,0,0,0,0,0,0,0,0,0,-1,1455,330,0,0
238,694,0,0,0,0,0,0,0,0,0,-1,1462,330,0,0
245,694,0,0,0,0,0,0,0,0,0,-1,1469,330,0,0
252,694,0,0,0,0,0,0,0,0,0,-1,1476,330,0,0
259,694,0,0,0,0,0,0,0,0,0,-1,1483,330,0,0
266,694,0,0,0,0,0,0,0,0,0,-1,1490,330,0,0
273,694,0,0,0,0,0,0,0,0,0,-1,1497,330,0,0
280,694,0,0,0,0,0,0,0,0,0,-1,1504,330,0,0
287,694,0,0,0,0,0,0,0,0,0,-1,1511,330,0,0
294,694,0,0,0,0,0,0,0,0,0,-1,1518,330,0,0
301,694,0,0,0,0,0,0,0,0,0,-1,1525,330,0,0
308,694,0,0,0,0,0,0,0,0,0,-1,1532,330,0,0
315,694,0,0,0,0,0,0,0,0,0,-1,1539,330,0,0
322,694,0,0,0,0,0,0,0,0,0,-1,1546,330,0,0
329,694,0,0,0,0,0,0,0,0,0,-1,1553,330,0,0
336,694,0,0,0,0,0,0,0,0,0,-1,1560,330,0,0
343,694,0,0,0,0,0,0,0,0,0,-1,1567,330,0,0
350,694,0,0,0,0,0,0,0,0,0,-1,1574,330,0,0
357,694,0,0,0,0,0,0,0,0,0,-1,1581,330,0,0
364,694,0,0,0,0,0,0,0,0,0,-1,1588,330,0,0
371,694,0,0,0,0,0,0,0,0,0,-1,1595,330,0,0
378,694,0,0,0,0,0,0,0,0,0,-1,1602,330,0,0
385,694,0,0,0,0,0,0,0,0,0,-1,1609,330,0,0
392,694,0,0,0,0,0,0,0,0,0,-1,1616,330,0,0
399,694,0,0,0,0,0,0,0,0,0,-1,1623,330,0,0
406,694,0,0,0,0,0,0,0,0,0,-1,1630,330,0,0
413,694,0,0,0,0,0,0,0,0,0,-1,1637,330,0,0
420,694,0,0,0,0,0,0,0,0,0,-1,1644,330,0,0
427,694,0,0,0,0,0,0,0,0,0,-1,1651,330,0,0
434,694,0,0,0,0,0,0,0,0,0,-1,1658,330,0,0
441,694,0,0,0,0,0,0,0,0,0,-1,1665,330,0,0
448,694,0,0,0,0,0,0,0,0,0,-1,1672,330,0,0
455,694,0,0,0,0,0,0,0,0,0,-1,1679,330,0,0
462,694,0,0,0,0,0,0,0,0,0,-1,1686,330,0,0
469,694,0,0,0,0,0,0,0,0,0,-1,1693,330,0,0
476,694,0,0,0,0,0,0,0,0,0,-1,1700,330,0,0
483,694,0,0,0,0,0,0,0,0,0,-1,1707,330,0,0
490,694,0,0,0,0,0,0,0,0,0,-1,1714,330,0,0
497,694,0,0,0,0,0,0,0,0,0,-1,1721,330,0,0
504,694,0,0,0,0,0,0,0,0,0,-1,1728,330,0,0
511,694,0,0,0,0,0,0,0,0,0,-1,1735,330,0,0
518,694,0,0,0,0,0,0,0,0,0,-1,1742,330,0,0
525,694,0,0,0,0,0,0,0,0,0,-1,1749,330,0,0
532,694,0,0,0,0,0,0,0,0,0,-1,1756,330,0,0
539,694,0,0,0,0,0,0,0,0,0,-1,1763,330,0,0
546,694,0,0,0,0,0,0,0,0,0,-1,1770,330,0,0
553,694,0,0,0,0,0,0,0,0,0,-1,1777,330,0,0
560,694,0,0,0,0,0,0,0,0,0,-1,1784,330,0,0
567,694,0,0,0,0,0,0,0,0,0,-1,1791,330,0,0
574,694,0,0,0,0,0,0,0,0,0,-1,1798,330,0,0
581,694,0,0,0,0,0,0,0,0,0,-1,1805,330,0,0
588,694,0,0,0,0,0,0,0,0,0,-1,1812,330,0,0
595,694,0,0,0,0,0,0,0,0,0,-1,1819,330,0,0
602,694,0,0,0,0,0,0,0,0,0,-1,1826,330,0,0
609,694,0,0,0,0,0,0,0,0,0,-1,1833,330,0,0
616,694,0,0,0,0,0,0,0,0,0,-1,1840,330,0,0
623,694,0,0,0,0,0,0,0,0,0,-1,1847,330,0,0
630,694,0,0,0,0,0,0,0,0,0,-1,1854,330,0,0
637,694,0,0,0,0,0,0,0,0,0,-1,1861,330,0,0
644,694,0,0,0,0,0,0,0,0,0,-1,1868,330,0,0
651,694,0,0,0,0,0,0,0,0,0,-1,1875,330,0,0
658,694,0,0,0,0,0,0,0,0,0,-1,1882,330,0,0
665,694,0,0,0,0,0,0,0,0,0,-1,1889,330,0,0
672,694,0,0,0,0,0,0,0,0,0,-1,1896,330,0,0
679,694,0,0,0,0,0,0,0,0,0,-1,1903,330,0,0
686,694,0,0,0,0,0,0,0,0,0,-1,1910,330,0,0
693,694,0,0,0,0,0,0,0,0,0,-1,1917,330,0,0
700,694,0,0,0,0,0,0,0,0,0,-1,1924,330,0,0
707,694,0,0,0,0,0,0,0,0,0,-1,1931,330,0,0
714,694,0,0,0,0,0,0,0,0,0,-1,1938,330,0,0
721,694,0,0,0,0,0,0,0,0,0,-1,1945,330,0,0
728,694,0,0,0,0,0,0,0,0,0,-1,1952,330,0,0
735,694,0,0,0,0,0,0,0,0,0,-1,1959,330,0,0
742,694,0,0,0,0,0,0,0,0,0,-1,1966,330,0,0
749,694,0,0,0,0,0,0,0,0,0,-1,1973,330,0,0
756,694,0,0,0,0,0,0,0,0,0,-1,1980,330,0,0
763,694,0,0,0,0,0,0,0,0,0,-1,1987,330,0,0
770,694,0,0,0,0,0,0,0,0,0,-1,1994,330,0,0
777,694,0,0,0,0,0,0,0,0,0,-1,2001,330,0,0
784,694,0,0,0,0,0,0,0,0,0,-1,2008,330,0,0
791,694,0,0,0,0,0,0,0,0,0,-1,2015,330,0,0
798,694,0,0,0,0,0,0,0,0,0,-1,2022,330,0,0
805,694,0,0,0,0,0,0,0,0,0,-1,2029,330,0,0
812,694,0,0,0,0,0,0,0,0,0,-1,2036,330,0,0
-700,687,0,0,0,0,0,0,0,0,0,-1,524,337,0,0
-693,687,0,0,0,0,0,0,0,0,0,-1,531,337,0,0
-686,687,0,0,0,0,0,0,0,0,0,-1,538,337,0,0
-679,687,0,0,0,0,0,0,0,0,0,-1,545,337,0,0
-672,687,0,0,0,0,0,0,0,0,0,-1,552,337,0,0
-665,687,0,0,0,0,0,0,0,0,0,-1,559,337,0,0
-658,687,0,0,0,0,0,0,0,0,0,-1,566,337,0,0
-651,687,0,0,0,0,0,0,0,0,0,-1,573,337,0,0
-644,687,0,0,0,0,0,0,0,0,0,-1,580,337,0,0
-637,687,0,0,0,0,0,0,0,0,0,-1,587,337,0,0
-630,687,0,0,0,0,0,0,0,0,0,-1,594,337,0,0
-623,687,0,0,0,0,0,0,0,0,0,-1,601,337,0,0
-616,687,0,0,0,0,0,0,0,0,0,-1,608,337,0,0
-609,687,0,0,0,0,0,0,0,0,0,-1,615,337,0,0
-602,687,0,0,0,0,0,0,0,0,0,-1,622,337,0,0
-595,687,0,0,0,0,0,0,0,0,0,-1,629,337,0,0
-588,687,0,0,0,0,0,0,0,0,0,-1,636,337,0,0
-581,687,0,0,0,0,0,0,0,0,0,-1,643,337,0,0
-574,687,0,0,0,0,0,0,0,0,0,-1,650,337,0,0
-567,687,0,0,0,0,0,0,0,0,0,-1,657,337,0,0
-560,687,0,0,0,0,0,0,0,0,0,-1,664,337,0,0
-553,687,0,0,0,0,0,0,0,0,0,-1,671,337,0,0
-546,687,0,0,0,0,0,0,0,0,0,-1,678,337,0,0
-539,687,0,0,0,0,0,0,0,0,0,-1,685,337,0,0
-532,687,0,0,0,0,0,0,0,0,0,-1,692,337,0,0
-525,687,0,0,0,0,0,0,0,0,0,-1,699,337,0,0
-518,687,0,0,0,0,0,0,0,0,0,-1,706,337,0,0
-511,687,0,0,0,0,0,0,0,0,0,-1,713,337,0,0
-504,687,0,0,0,0,0,0,0,0,0,-1,720,337,0,0
-497,687,0,0,0,0,0,0,0,0,0,-1,727,337,0,0
-490,687,0,0,0,0,0,0,0,0,0,-1,734,337,0,0
-483,687,0,0,0,0,0,0,0,0,0,-1,741,337,0,0
-476,687,0,0,0,0,0,0,0,0,0,-1,748,337,0,0
-469,687,0,0,0,0,0,0,0,0,0,-1,755,337,0,0
-462,687,0,0,0,0,0,0,0,0,0,-1,762,337,0,0
-455,687,0,0,0,0,0,0,0,0,0,-1,769,337,0,0
-448,687,0,0,0,0,0,0,0,0,0,-1,776,337,0,0
-441,687,0,0,0,0,0,0,0,0,0,-1,783,337,0,0
-434,687,0,0,0,0,0,0,0,0,0,-1,790,337,0,0
-427,687,0,0,0,0,0,0,0,0,0,-1,797,337,0,0
-420,687,0,0,0,0,0,0,0,0,0,-1,804,337,0,0
-413,687,0,0,0,0,0,0,0,0,0,-1,811,337,0,0
-406,687,0,0,0,0,0,0,0,0,0,-1,818,337,0,0
-399,687,0,0,0,0,0,0,0,0,0,-1,825,337,0,0
-392,687,0,0,0,0,0,0,0,0,0,-1,832,337,0,0
-385,687,0,0,0,0,0,0,0,0,0,-1,839,337,0,0
-378,687,0,0,0,0,0,0,0,0,0,-1,846,337,0,0
-371,687,0,0,0,0,0,0,0,0,0,-1,853,337,0,0
-364,687,0,0,0,0,0,0,0,0,0,-1,860,337,0,0
-357,687,0,0,0,0,0,0,0,0,0,-1,867,337,0,0
-350,687,0,0,0,0,0,0,0,0,0,-1,874,337,0,0
-343,687,0,0,0,0,0,0,0,0,0,-1,881,337,0,0
-336,687,0,0,0,0,0,0,0,0,0,-1,888,337,0,0
-329,687,0,0,0,0,0,0,0,0,0,-1,895,337,0,0
-322,687,0,0,0,0,0,0,0,0,0,-1,902,337,0,0
-315,687,0,0,0,0,0,0,0,0,0,-1,909,337,0,0
-308,687,0,0,0,0,0,0,0,0,0,-1,916,337,0,0
-301,687,0,0,0,0,0,0,0,0,0,-1,923,337,0,0
-294,687,0,0,0,0,0,0,0,0,0,-1,930,337,0,0
-287,687,0,0,0,0,0,0,0,0,0,-1,937,337,0,0
-280,687,0,0,0,0,0,0,0,0,0,-1,944,337,0,0
-273,687,0,0,0,0,0,0,0,0,0,-1,951,337,0,0
-266,687,0,0,0,0,0,0,0,0,0,-1,958,337,0,0
-259,687,0,0,0,0,0,0,0,0,0,-1,965,337,0,0
-252,687,0,0,0,0,0,0,0,0,0,-1,972,337,0,0
-245,687,0,0,0,0,0,0,0,0,0,-1,979,337,0,0
-238,687,0,0,0,0,0,0,0,0,0,-1,986,337,0,0
-231,687,0,0,0,0,0,0,0,0,0,-1,993,337,0,0
-224,687,0,0,0,0,0,0,0,0,0,-1,1000,337,0,0
-217,687,0,0,0,0,0,0,0,0,0,-1,1007,337,0,0
-210,687,0,0,0,0,0,0,0,0,0,-1,1014,337,0,0
-203,687,0,0,0,0,0,0,0,0,0,-1,1021,337,0,0
-196,687,0,0,0,0,0,0,0,0,0,-1,1028,337,0,0
-189,687,0,0,0,0,0,0,0,0,0,-1,1035,337,0,0
-182,687,0,0,0,0,0,0,0,0,0,-1,1042,337,0,0
-175,687,0,0,0,0,0,0,0,0,0,-1,1049,337,0,0
-168,687,0,0,0,0,0,0,0,0,0,-1,1056,337,0,0
-161,687,0,0,0,0,0,0,0,0,0,-1,1063,337,0,0
-154,687,0,0,0,0,0,0,0,0,0,-1,1070,337,0,0
-147,687,0,0,0,0,0,0,0,0,0,-1,1077,337,0,0
-140,687,0,0,0,0,0,0,0,0,0,-1,1084,337,0,0
-133,687,7.93958,-37.548,0,0,0,0,0,0,0,-1,1091,337,7.93957,37.548
-126,687,0.688477,-38.7298,0,0,0,0,0,0,0,-1,1098,337,0.688509,38.7298
-119,687,7.70825,-33.9236,0,0,0,0,0,0,0,-1,1105,337,7.70826,33.9236
-112,687,7.99866,-32.2983,0,0,0,0,0,0,0,-1,1112,337,7.99866,32.2983
-105,687,1.3208,-29.8313,0,0,0,0,0,0,0,-1,1119,337,1.3208,29.8313
-98,687,13.7111,-47.5645,0,0,0,0,0,0,0,-1,1126,337,13.711,47.5645
-91,687,7.22083,-41.1667,0,0,0,0,0,0,0,-1,1133,337,7.22079,41.1666
-84,687,0.745117,-35.0345,0,0,0,0,0,0,0,-1,1140,337,0.745155,35.0345
-77,687,-5.74353,-28.9553,0,0,0,0,0,0,0,-1,1147,337,-5.74357,28.9553
-70,687,-11.6842,-19.8473,0,0,0,0,0,0,0,-1,1154,337,-11.6842,19.8473
-63,687,-17.6757,-14.8966,0,0,0,0,0,0,0,-1,1161,337,-17.6756,14.8966
-56,687,-18.104,7.81931,0,0,0,0,0,0,0,-1,1168,337,-18.104,-7.81931
-49,687,-15.6449,-9.94391,0,0,0,0,0,0,0,-1,1175,337,-15.6449,9.94392
-42,687,-4.2019,-0.405609,0,0,0,0,0,0,0,-1,1182,337,-4.20192,0.405614
-35,687,-4.42273,-0.688171,0,0,0,0,0,0,0,-1,1189,337,-4.42276,0.688178
-28,687,-1.14038,-1.39072,0,0,0,0,0,0,0,-1,1196,337,-1.14035,1.3907
-21,687,7.92114,-61.5529,0,0,0,0,0,0,0,-1,1203,337,7.92111,61.5529
-14,687,9.3623,-65.1593,0,0,0,0,0,0,0,-1,1210,337,9.36227,65.1593
-7,687,7.01245,-63.1873,0.041345,0.0701985,-0.0401792,0.0984625,0.013081,-0.95776,0.0617449,0.0470814,1217,337,7.01243,63.1873
0,687,7.70703,-63.8141,0.0363658,0.0614665,-0.0379112,0.0888507,0.00898155,-0.945243,0.0564785,0.0456884,1224,337,7.70707,63.814
7,687,8.39612,-64.4555,0.0317056,0.0539996,-0.0339756,0.0786101,0.00709512,-0.943909,0.0502091,0.0450734,1231,337,8.39607,64.4556
14,687,8.91992,-65.3692,0.0261105,0.0475006,-0.0294567,0.0681437,0.00546737,-0.959537,0.0437208,0.0435514,1238,337,8.91988,65.3692
21,687,9.03174,-65.943,0.0211625,0.0435206,-0.0237058,0.058551,0.00613206,-1.00572,0.037159,0.0464031,1245,337,9.03168,65.943
28,687,8.58984,-66.5017,0.0164286,0.0425056,-0.0174534,0.051253,0.00768119,-1.1062,0.0319178,0.0460026,1252,337,8.58979,66.5017
35,687,8.39709,-67.272,0.0111118,0.0442629,-0.0121014,0.0482103,0.00716439,-1.25548,0.0300382,0.0464227,1259,337,8.39709,67.272
42,687,8.24451,-68.0369,0.00558568,0.0488992,-0.00727771,0.0500893,0.00439555,-1.4087,0.0320284,0.046675,1266,337,8.24447,68.0369
49,687,7.84265,-67.6937,0,0,0,0,0,0,0,-1,1273,337,7.84269,67.6937
56,687,7.6355,-67.2189,0,0,0,0,0,0,0,-1,1280,337,7.63546,67.2189
63,687,8.4353,-65.3873,-0.0180324,0.0684015,0.00192589,0.0684444,-0.0180753,1.54853,0.0526983,0.0425701,1287,337,8.43532,65.3873
70,687,8.25208,-65.4195,-0.0271191,0.0749584,0.00210344,0.0750017,-0.0271624,1.5502,0.0611021,0.0418733,1294,337,8.25203,65.4195
77,687,8.09766,-64.795,-0.035696,0.0820039,0.00144826,0.0820217,-0.0357139,1.55849,0.0697053,0.0459699,1301,337,8.09768,64.7949
84,687,6.84558,-65.9589,-0.044416,0.0869439,-0.000167043,0.0869441,-0.0444162,-1.56952,0.0771544,0.0427518,1308,337,6.84554,65.9589
91,687,6.48621,-66.4105,-0.051999,0.0895324,-0.00328995,0.0896089,-0.0520755,-1.54757,0.0827527,0.0466273,1315,337,6.48615,66.4105
98,687,5.88049,-66.7038,0,0,0,0,0,0,0,-1,1322,337,5.88052,66.7038
105,687,5.21045,-65.4418,0,0,0,0,0,0,0,-1,1329,337,5.2105,65.4418
112,687,4.44604,-64.916,-0.0680744,0.0879805,-0.0123547,0.0889525,-0.0690465,-1.49228,0.0914618,0.0453613,1336,337,4.44607,64.916
119,687,3.97278,-64.4479,-0.0686761,0.0871735,-0.0136249,0.0883556,-0.0698583,-1.48425,0.0915527,0.0440428,1343,337,3.97282,64.4479
126,687,3.53955,-64.0012,-0.0671449,0.0878657,-0.0151265,0.089328,-0.0686072,-1.47442,0.0914452,0.0429125,1350,337,3.5395,64.0012
133,687,3.07141,-63.5977,0,0,0,0,0,0,0,-1,1357,337,3.07138,63.5977
140,687,3.72974,-65.5889,0,0,0,0,0,0,0,-1,1364,337,3.72975,65.5889
147,687,3.28711,-65.8702,0,0,0,0,0,0,0,-1,1371,337,3.28706,65.8702
154,687,5.93311,-62.8271,0,0,0,0,0,0,0,-1,1378,337,5.93314,62.8272
161,687,29.3895,-1.90628,0,0,0,0,0,0,0,-1,1385,337,29.3895,1.90628
168,687,29.8564,-1.19434,0,0,0,0,0,0,0,-1,1392,337,29.8564,1.19434
175,687,30.3419,-0.453583,0,0,0,0,0,0,0,-1,1399,337,30.3419,0.45357
182,687,6.67249,0.289917,0,0,0,0,0,0,0,-1,1406,337,6.67247,-0.289916
189,687,7.76062,4.53635,0,0,0,0,0,0,0,-1,1413,337,7.76064,-4.53636
196,687,6.99048,3.2966,0,0,0,0,0,0,0,-1,1420,337,6.99046,-3.2966
203,687,6.36499,2.1445,0,0,0,0,0,0,0,-1,1427,337,6.36499,-2.14451
210,687,6.68066,0.674652,0,0,0,0,0,0,0,-1,1434,337,6.68062,-0.674655
217,687,5.99683,-0.630493,0,0,0,0,0,0,0,-1,1441,337,5.99684,0.630497
224,687,5.52917,0.524902,0,0,0,0,0,0,0,-1,1448,337,5.5292,-0.524915
231,687,5.85583,-1.73651,0,0,0,0,0,0,0,-1,1455,337,5.85577,1.73651
238,687,5.96582,-2.96774,0,0,0,0,0,0,0,-1,1462,337,5.96577,2.96773
245,687,1.28259,2.32211,0,0,0,0,0,0,0,-1,1469,337,1.28258,-2.32211
252,687,1.97278,3.88422,0,0,0,0,0,0,0,-1,1476,337,1.97281,-3.88421
259,687,0,0,0,0,0,0,0,0,0,-1,1483,337,0,0
266,687,0,0,0,0,0,0,0,0,0,-1,1490,337,0,0
273,687,0,0,0,0,0,0,0,0,0,-1,1497,337,0,0
280,687,0,0,0,0,0,0,0,0,0,-1,1504,337,0,0
287,687,0,0,0,0,0,0,0,0,0,-1,1511,337,0,0
294,687,0,0,0,0,0,0,0,0,0,-1,1518,337,0,0
301,687,0,0,0,0,0,0,0,0,0,-1,1525,337,0,0
308,687,0,0,0,0,0,0,0,0,0,-1,1532,337,0,0
315,687,0,0,0,0,0,0,0,0,0,-1,1539,337,0,0
322,687,0,0,0,0,0,0,0,0,0,-1,1546,337,0,0
329,687,0,0,0,0,0,0,0,0,0,-1,1553,337,0,0
336,687,0,0,0,0,0,0,0,0,0,-1,1560,337,0,0
343,687,0,0,0,0,0,0,0,0,0,-1,1567,337,0,0
350,687,0,0,0,0,0,0,0,0,0,-1,1574,337,0,0
357,687,0,0,0,0,0,0,0,0,0,-1,1581,337,0,0
364,687,0,0,0,0,0,0,0,0,0,-1,1588,337,0,0
371,687,0,0,0,0,0,0,0,0,0,-1,1595,337,0,0
378,687,0,0,0,0,0,0,0,0,0,-1,1602,337,0,0
385,687,0,0,0,0,0,0,0,0,0,-1,1609,337,0,0
392,687,0,0,0,0,0,0,0,0,0,-1,1616,337,0,0
399,687,0,0,0,0,0,0,0,0,0,-1,1623,337,0,0
406,687,0,0,0,0,0,0,0,0,0,-1,1630,337,0,0
413,687,0,0,0,0,0,0,0,0,0,-1,1637,337,0,0
420,687,0,0,0,0,0,0,0,0,0,-1,1644,337,0,0
427,687,0,0,0,0,0,0,0,0,0,-1,1651,337,0,0
434,687,0,0,0,0,0,0,0,0,0,-1,1658,337,0,0
441,687,0,0,0,0,0,0,0,0,0,-1,1665,337,0,0
448,687,0,0,0,0,0,0,0,0,0,-1,1672,337,0,0
455,687,0,0,0,0,0,0,0,0,0,-1,1679,337,0,0
462,687,0,0,0,0,0,0,0,0,0,-1,1686,337,0,0
469,687,0,0,0,0,0,0,0,0,0,-1,1693,337,0,0
476,687,0,0,0,0,0,0,0,0,0,-1,1700,337,0,0
483,687,0,0,0,0,0,0,0,0,0,-1,1707,337,0,0
490,687,0,0,0,0,0,0,0,0,0,-1,1714,337,0,0
497,687,0,0,0,0,0,0,0,0,0,-1,1721,337,0,0
504,687,0,0,0,0,0,0,0,0,0,-1,1728,337,0,0
511,687,0,0,0,0,0,0,0,0,0,-1,1735,337,0,0
518,687,0,0,0,0,0,0,0,0,0,-1,1742,337,0,0
525,687,0,0,0,0,0,0,0,0,0,-1,1749,337,0,0
532,687,0,0,0,0,0,0,0,0,0,-1,1756,337,0,0
539,687,0,0,0,0,0,0,0,0,0,-1,1763,337,0,0
546,687,0,0,0,0,0,0,0,0,0,-1,1770,337,0,0
553,687,0,0,0,0,0,0,0,0,0,-1,1777,337,0,0
560,687,0,0,0,0,0,0,0,0,0,-1,1784,337,0,0
567,687,0,0,0,0,0,0,0,0,0,-1,1791,337,0,0
574,687,0,0,0,0,0,0,0,0,0,-1,1798,337,0,0
581,687,0,0,0,0,0,0,0,0,0,-1,1805,337,0,0
588,687,0,0,0,0,0,0,0,0,0,-1,1812,337,0,0
595,687,0,0,0,0,0,0,0,0,0,-1,1819,337,0,0
602,687,0,0,0,0,0,0,0,0,0,-1,1826,337,0,0
609,687,0,0,0,0,0,0,0,0,0,-1,1833,337,0,0
616,687,0,0,0,0,0,0,0,0,0,-1,1840,337,0,0
623,687,0,0,0,0,0,0,0,0,0,-1,1847,337,0,0
630,687,0,0,0,0,0,0,0,0,0,-1,1854,337,0,0
637,687,0,0,0,0,0,0,0,0,0,-1,1861,337,0,0
644,687,0,0,0,0,0,0,0,0,0,-1,1868,337,0,0
651,687,0,0,0,0,0,0,0,0,0,-1,1875,337,0,0
658,687,0,0,0,0,0,0,0,0,0,-1,1882,337,0,0
665,687,0,0,0,0,0,0,0,0,0,-1,1889,337,0,0
672,687,0,0,0,0,0,0,0,0,0,-1,1896,337,0,0
679,687,0,0,0,0,0,0,0,0,0,-1,1903,337,0,0
686,687,0,0,0,0,0,0,0,0,0,-1,1910,337,0,0
693,687,0,0,0,0,0,0,0,0,0,-1,1917,337,0,0
700,687,0,0,0,0,0,0,0,0,0,-1,1924,337,0,0
707,687,0,0,0,0,0,0,0,0,0,-1,1931,337,0,0
714,687,0,0,0,0,0,0,0,0,0,-1,1938,337,0,0
721,687,0,0,0,0,0,0,0,0,0,-1,1945,337,0,0
728,687,0,0,0,0,0,0,0,0,0,-1,1952,337,0,0
735,687,0,0,0,0,0,0,0,0,0,-1,1959,337,0,0
742,687,0,0,0,0,0,0,0,0,0,-1,1966,337,0,0
749,687,0,0,0,0,0,0,0,0,0,-1,1973,337,0,0
756,687,0,0,0,0,0,0,0,0,0,-1,1980,337,0,0
763,687,0,0,0,0,0,0,0,0,0,-1,1987,337,0,0
770,687,0,0,0,0,0,0,0,0,0,-1,1994,337,0,0
777,687,0,0,0,0,0,0,0,0,0,-1,2001,337,0,0
784,687,0,0,0,0,0,0,0,0,0,-1,2008,337,0,0
791,687,0,0,0,0,0,0,0,0,0,-1,2015,337,0,0
798,687,0,0,0,0,0,0,0,0,0,-1,2022,337,0,0
805,687,0,0,0,0,0,0,0,0,0,-1,2029,337,0,0
812,687,0,0,0,0,0,0,0,0,0,-1,2036,337,0,0
-700,680,0,0,0,0,0,0,0,0,0,-1,524,344,0,0
-693,680,0,0,0,0,0,0,0,0,0,-1,531,344,0,0
-686,680,0,0,0,0,0,0,0,0,0,-1,538,344,0,0
-679,680,0,0,0,0,0,0,0,0,0,-1,545,344,0,0
-672,680,0,0,0,0,0,0,0,0,0,-1,552,344,0,0
-665,680,0,0,0,0,0,0,0,0,0,-1,559,344,0,0
-658,680,0,0,0,0,0,0,0,0,0,-1,566,344,0,0
-651,680,0,0,0,0,0,0,0,0,0,-1,573,344,0,0
-644,680,0,0,0,0,0,0,0,0,0,-1,580,344,0,0
-637,680,0,0,0,0,0,0,0,0,0,-1,587,344,0,0
-630,680,0,0,0,0,0,0,0,0,0,-1,594,344,0,0
-623,680,0,0,0,0,0,0,0,0,0,-1,601,344,0,0
-616,680,0,0,0,0,0,0,0,0,0,-1,608,344,0,0
-609,680,0,0,0,0,0,0,0,0,0,-1,615,344,0,0
-602,680,0,0,0,0,0,0,0,0,0,-1,622,344,0,0
-595,680,0,0,0,0,0,0,0,0,0,-1,629,344,0,0
-588,680,0,0,0,0,0,0,0,0,0,-1,636,344,0,0
-581,680,0,0,0,0,0,0,0,0,0,-1,643,344,0,0
-574,680,0,0,0,0,0,0,0,0,0,-1,650,344,0,0
-567,680,0,0,0,0,0,0,0,0,0,-1,657,344,0,0
-560,680,0,0,0,0,0,0,0,0,0,-1,664,344,0,0
-553,680,0,0,0,0,0,0,0,0,0,-1,671,344,0,0
-546,680,0,0,0,0,0,0,0,0,0,-1,678,344,0,0
-539,680,0,0,0,0,0,0,0,0,0,-1,685,344,0,0
-532,680,0,0,0,0,0,0,0,0,0,-1,692,344,0,0
-525,680,0,0,0,0,0,0,0,0,0,-1,699,344,0,0
-518,680,0,0,0,0,0,0,0,0,0,-1,706,344,0,0
-511,680,0,0,0,0,0,0,0,0,0,-1,713,344,0,0
-504,680,0,0,0,0,0,0,0,0,0,-1,720,344,0,0
-497,680,0,0,0,0,0,0,0,0,0,-1,727,344,0,0
-490,680,0,0,0,0,0,0,0,0,0,-1,734,344,0,0
-483,680,0,0,0,0,0,0,0,0,0,-1,741,344,0,0
-476,680,0,0,0,0,0,0,0,0,0,-1,748,344,0,0
-469,680,0,0,0,0,0,0,0,0,0,-1,755,344,0,0
-462,680,0,0,0,0,0,0,0,0,0,-1,762,344,0,0
-455,680,0,0,0,0,0,0,0,0,0,-1,769,344,0,0
-448,680,0,0,0,0,0,0,0,0,0,-1,776,344,0,0
-441,680,0,0,0,0,0,0,0,0,0,-1,783,344,0,0
-434,680,0,0,0,0,0,0,0,0,0,-1,790,344,0,0
-427,680,0,0,0,0,0,0,0,0,0,-1,797,344,0,0
-420,680,0,0,0,0,0,0,0,0,0,-1,804,344,0,0
-413,680,0,0,0,0,0,0,0,0,0,-1,811,344,0,0
-406,680,0,0,0,0,0,0,0,0,0,-1,818,344,0,0
-399,680,0,0,0,0,0,0,0,0,0,-1,825,344,0,0
-392,680,0,0,0,0,0,0,0,0,0,-1,832,344,0,0
-385,680,0,0,0,0,0,0,0,0,0,-1,839,344,0,0
-378,680,0,0,0,0,0,0,0,0,0,-1,846,344,0,0
-371,680,0,0,0,0,0,0,0,0,0,-1,853,344,0,0
-364,680,0,0,0,0,0,0,0,0,0,-1,860,344,0,0
-357,680,0,0,0,0,0,0,0,0,0,-1,867,344,0,0
-350,680,0,0,0,0,0,0,0,0,0,-1,874,344,0,0
-343,680,0,0,0,0,0,0,0,0,0,-1,881,344,0,0
-336,680,0,0,0,0,0,0,0,0,0,-1,888,344,0,0
-329,680,0,0,0,0,0,0,0,0,0,-1,895,344,0,0
-322,680,0,0,0,0,0,0,0,0,0,-1,902,344,0,0
-315,680,0,0,0,0,0,0,0,0,0,-1,909,344,0,0
-308,680,0,0,0,0,0,0,0,0,0,-1,916,344,0,0
-301,680,0,0,0,0,0,0,0,0,0,-1,923,344,0,0
-294,680,0,0,0,0,0,0,0,0,0,-1,930,344,0,0
-287,680,0,0,0,0,0,0,0,0,0,-1,937,344,0,0
-280,680,0,0,0,0,0,0,0,0,0,-1,944,344,0,0
-273,680,0,0,0,0,0,0,0,0,0,-1,951,344,0,0
-266,680,0,0,0,0,0,0,0,0,0,-1,958,344,0,0
-259,680,0,0,0,0,0,0,0,0,0,-1,965,344,0,0
-252,680,0,0,0,0,0,0,0,0,0,-1,972,344,0,0
-245,680,0,0,0,0,0,0,0,0,0,-1,979,344,0,0
-238,680,0,0,0,0,0,0,0,0,0,-1,986,344,0,0
-231,680,0,0,0,0,0,0,0,0,0,-1,993,344,0,0
-224,680,0,0,0,0,0,0,0,0,0,-1,1000,344,0,0
-217,680,0,0,0,0,0,0,0,0,0,-1,1007,344,0,0
-210,680,0,0,0,0,0,0,0,0,0,-1,1014,344,0,0
-203,680,0,0,0,0,0,0,0,0,0,-1,1021,344,0,0
-196,680,0,0,0,0,0,0,0,0,0,-1,1028,344,0,0
-189,680,0,0,0,0,0,0,0,0,0,-1,1035,344,0,0
-182,680,0,0,0,0,0,0,0,0,0,-1,1042,344,0,0
-175,680,0,0,0,0,0,0,0,0,0,-1,1049,344,0,0
-168,680,0,0,0,0,0,0,0,0,0,-1,1056,344,0,0
-161,680,0,0,0,0,0,0,0,0,0,-1,1063,344,0,0
-154,680,2.25244,-29.1442,0,0,0,0,0,0,0,-1,1070,344,2.25241,29.1442
-147,680,9.29614,-33.0369,0,0,0,0,0,0,0,-1,1077,344,9.29612,33.0369
-140,680,6.98022,-36.6899,0,0,0,0,0,0,0,-1,1084,344,6.98023,36.6899
-133,680,1.85693,-39.7233,0,0,0,0,0,0,0,-1,1091,344,1.85699,39.7233
-126,680,2.30017,-38.3751,0,0,0,0,0,0,0,-1,1098,344,2.30011,38.3751
-119,680,2.74329,-37.0269,0,0,0,0,0,0,0,-1,1105,344,2.74323,37.0269
-112,680,7.7467,-32.4407,0,0,0,0,0,0,0,-1,1112,344,7.74668,32.4407
-105,680,20.6371,-48.461,0,0,0,0,0,0,0,-1,1119,344,20.6371,48.461
-98,680,14.2684,-41.9997,0,0,0,0,0,0,0,-1,1126,344,14.2685,41.9997
-91,680,7.89648,-35.5147,0,0,0,0,0,0,0,-1,1133,344,7.8965,35.5147
-84,680,1.47168,-29.471,0,0,0,0,0,0,0,-1,1140,344,1.47163,29.471
-77,680,-4.95337,-23.3355,0,0,0,0,0,0,0,-1,1147,344,-4.9534,23.3356
-70,680,-11.5099,-17.4337,0,0,0,0,0,0,0,-1,1154,344,-11.5098,17.4338
-63,680,-17.2391,-1.43134,0,0,0,0,0,0,0,-1,1161,344,-17.2392,1.43133
-56,680,-6.96912,-8.83356,0,0,0,0,0,0,0,-1,1168,344,-6.96907,8.83354
-49,680,-6.7677,-2.24063,0,0,0,0,0,0,0,-1,1175,344,-6.76772,2.24063
-42,680,-1.02368,0.618805,0,0,0,0,0,0,0,-1,1182,344,-1.0237,-0.618797
-35,680,-0.947876,-0.942719,0,0,0,0,0,0,0,-1,1189,344,-0.947842,0.942731
-28,680,-1.46118,-1.10574,0,0,0,0,0,0,0,-1,1196,344,-1.4612,1.10575
-21,680,9.25452,-65.3055,0,0,0,0,0,0,0,-1,1203,344,9.25446,65.3054
-14,680,9.22302,-65.6323,0,0,0,0,0,0,0,-1,1210,344,9.22305,65.6323
-7,680,9.19165,-65.9591,0,0,0,0,0,0,0,-1,1217,344,9.19164,65.9591
0,680,7.82263,-65.0525,0.025184,0.0561245,-0.0292162,0.0737135,0.00759495,-1.02889,0.0468165,0.0459073,1224,344,7.8226,65.0525
7,680,8.5022,-65.5486,0.0224193,0.050918,-0.0260446,0.0663565,0.0069809,-1.03571,0.042104,0.0444986,1231,344,8.5022,65.5486
14,680,8.76062,-66.0804,0.0184866,0.0464742,-0.022537,0.0590085,0.00595229,-1.06323,0.0375127,0.0451764,1238,344,8.76059,66.0803
21,680,8.87842,-66.5203,0.0148669,0.043747,-0.0180841,0.0524488,0.00616502,-1.12231,0.0331028,0.0484554,1245,344,8.8784,66.5203
28,680,9.06409,-66.983,0,0,0,0,0,0,0,-1,1252,344,9.06411,66.983
35,680,8.66418,-67.787,0,0,0,0,0,0,0,-1,1259,344,8.66419,67.787
42,680,8.36011,-67.8593,0.00236933,0.0476524,-0.00559841,0.0483342,0.00168746,-1.4496,0.0316753,0.0456087,1266,344,8.36013,67.8593
49,680,8.04358,-67.7535,-0.00292035,0.0518307,-0.0021314,0.0519135,-0.0030032,-1.53195,0.0356523,0.0405044,1273,344,8.04358,67.7535
56,680,7.8512,-67.4988,-0.00939399,0.056874,0.00034295,0.0568758,-0.00939577,1.56562,0.041406,0.0407826,1280,344,7.85124,67.4988
63,680,8.22668,-66.5793,-0.0165438,0.0620279,0.0019118,0.0620744,-0.0165903,1.54648,0.0478808,0.0397819,1287,344,8.22669,66.5793
70,680,8.19177,-66.4378,-0.0237119,0.0668877,0.00216187,0.0669393,-0.0237635,1.54695,0.0543089,0.0377407,1294,344,8.19176,66.4378
77,680,8.23328,-66.0221,-0.030592,0.0717657,0.00161112,0.071791,-0.0306173,1.55506,0.0606975,0.0424322,1301,344,8.2333,66.0221
84,680,7.22009,-66.6636,-0.0374268,0.075036,0.000291607,0.0750368,-0.0374275,1.5682,0.0661305,0.0469789,1308,344,7.22011,66.6636
91,680,6.68652,-66.9952,-0.0433287,0.0764386,-0.00213523,0.0764766,-0.0433668,-1.55298,0.0700663,0.0472353,1315,344,6.68652,66.9952
98,680,5.97253,-66.9332,0,0,0,0,0,0,0,-1,1322,344,5.97249,66.9332
105,680,5.32874,-66.6886,0,0,0,0,0,0,0,-1,1329,344,5.32876,66.6886
112,680,4.65649,-65.1729,-0.0553393,0.0741965,-0.00868472,0.0747761,-0.055919,-1.50415,0.0757182,0.0442837,1336,344,4.65646,65.1728
119,680,4.22583,-64.4962,-0.0558676,0.0729169,-0.00953289,0.0736187,-0.0565694,-1.49731,0.0753787,0.0426238,1343,344,4.22578,64.4962
126,680,3.82239,-64.024,-0.0547718,0.0727111,-0.0104937,0.0735691,-0.0556298,-1.48921,0.0748323,0.0415172,1350,344,3.82238,64.024
133,680,5.72498,-66.1919,0,0,0,0,0,0,0,-1,1357,344,5.72496,66.1919
140,680,5.34216,-66.5835,0,0,0,0,0,0,0,-1,1364,344,5.34216,66.5835
147,680,5.66431,-64.8499,0,0,0,0,0,0,0,-1,1371,344,5.6643,64.8499
154,680,5.53223,-64.3261,0,0,0,0,0,0,0,-1,1378,344,5.5322,64.3261
161,680,5.30676,-60.3476,0,0,0,0,0,0,0,-1,1385,344,5.30681,60.3476
168,680,29.4142,-2.51651,0,0,0,0,0,0,0,-1,1392,344,29.4142,2.51652
175,680,6.66541,0.942078,0,0,0,0,0,0,0,-1,1399,344,6.66538,-0.942088
182,680,6.52917,0.532379,0,0,0,0,0,0,0,-1,1406,344,6.52922,-0.532385
189,680,7.55884,4.77695,0,0,0,0,0,0,0,-1,1413,344,7.55886,-4.77694
196,680,6.55627,3.35254,0,0,0,0,0,0,0,-1,1420,344,6.55622,-3.35255
203,680,5.7334,1.90753,0,0,0,0,0,0,0,-1,1427,344,5.73341,-1.90754
210,680,5.27515,0.493622,0,0,0,0,0,0,0,-1,1434,344,5.27514,-0.493632
217,680,6.56384,-0.374176,0,0,0,0,0,0,0,-1,1441,344,6.56379,0.374176
224,680,3.9491,-0.640228,0,0,0,0,0,0,0,-1,1448,344,3.94908,0.64024
231,680,4.24866,-1.96881,0,0,0,0,0,0,0,-1,1455,344,4.2486,1.96882
238,680,4.29333,-3.23984,0,0,0,0,0,0,0,-1,1462,344,4.29332,3.23984
245,680,2.44397,0.985382,0,0,0,0,0,0,0,-1,1469,344,2.44402,-0.985394
252,680,3.07349,2.18951,0,0,0,0,0,0,0,-1,1476,344,3.0735,-2.18952
259,680,2.82971,1.30682,0,0,0,0,0,0,0,-1,1483,344,2.82972,-1.30684
266,680,2.67554,1.44067,0,0,0,0,0,0,0,-1,1490,344,2.67551,-1.44066
273,680,2.46411,1.54666,0,0,0,0,0,0,0,-1,1497,344,2.46407,-1.54666
280,680,0,0,0,0,0,0,0,0,0,-1,1504,344,0,0
287,680,0,0,0,0,0,0,0,0,0,-1,1511,344,0,0
294,680,0,0,0,0,0,0,0,0,0,-1,1518,344,0,0
301,680,0,0,0,0,0,0,0,0,0,-1,1525,344,0,0
308,680,0,0,0,0,0,0,0,0,0,-1,1532,344,0,0
315,680,0,0,0,0,0,0,0,0,0,-1,1539,344,0,0
322,680,0,0,0,0,0,0,0,0,0,-1,1546,344,0,0
329,680,0,0,0,0,0,0,0,0,0,-1,1553,344,0,0
336,680,0,0,0,0,0,0,0,0,0,-1,1560,344,0,0
343,680,0,0,0,0,0,0,0,0,0,-1,1567,344,0,0
350,680,0,0,0,0,0,0,0,0,0,-1,1574,344,0,0
357,680,0,0,0,0,0,0,0,0,0,-1,1581,344,0,0
364,680,0,0,0,0,0,0,0,0,0,-1,1588,344,0,0
371,680,0,0,0,0,0,0,0,0,0,-1,1595,344,0,0
378,680,0,0,0,0,0,0,0,0,0,-1,1602,344,0,0
385,680,0,0,0,0,0,0,0,0,0,-1,1609,344,0,0
392,680,0,0,0,0,0,0,0,0,0,-1,1616,344,0,0
399,680,0,0,0,0,0,0,0,0,0,-1,1623,344,0,0
406,680,0,0,0,0,0,0,0,0,0,-1,1630,344,0,0
413,680,0,0,0,0,0,0,0,0,0,-1,1637,344,0,0
420,680,0,0,0,0,0,0,0,0,0,-1,1644,344,0,0
427,680,0,0,0,0,0,0,0,0,0,-1,1651,344,0,0
434,680,0,0,0,0,0,0,0,0,0,-1,1658,344,0,0
441,680,0,0,0,0,0,0,0,0,0,-1,1665,344,0,0
448,680,0,0,0,0,0,0,0,0,0,-1,1672,344,0,0
455,680,0,0,0,0,0,0,0,0,0,-1,1679,344,0,0
462,680,0,0,0,0,0,0,0,0,0,-1,1686,344,0,0
469,680,0,0,0,0,0,0,0,0,0,-1,1693,344,0,0
476,680,0,0,0,0,0,0,0,0,0,-1,1700,344,0,0
483,680,0,0,0,0,0,0,0,0,0,-1,1707,344,0,0
490,680,0,0,0,0,0,0,0,0,0,-1,1714,344,0,0
497,680,0,0,0,0,0,0,0,0,0,-1,1721,344,0,0
504,680,0,0,0,0,0,0,0,0,0,-1,1728,344,0,0
511,680,0,0,0,0,0,0,0,0,0,-1,1735,344,0,0
518,680,0,0,0,0,0,0,0,0,0,-1,1742,344,0,0
525,680,0,0,0,0,0,0,0,0,0,-1,1749,344,0,0
532,680,0,0,0,0,0,0,0,0,0,-1,1756,344,0,0
539,680,0,0,0,0,0,0,0,0,0,-1,1763,344,0,0
546,680,0,0,0,0,0,0,0,0,0,-1,1770,344,0,0
553,680,0,0,0,0,0,0,0,0,0,-1,1777,344,0,0
560,680,0,0,0,0,0,0,0,0,0,-1,1784,344,0,0
567,680,0,0,0,0,0,0,0,0,0,-1,1791,344,0,0
574,680,0,0,0,0,0,0,0,0,0,-1,1798,344,0,0
581,680,0,0,0,0,0,0,0,0,0,-1,1805,344,0,0
588,680,0,0,0,0,0,0,0,0,0,-1,1812,344,0,0
595,680,0,0,0,0,0,0,0,0,0,-1,1819,344,0,0
602,680,0,0,0,0,0,0,0,0,0,-1,1826,344,0,0
609,680,0,0,0,0,0,0,0,0,0,-1,1833,344,0,0
616,680,0,0,0,0,0,0,0,0,0,-1,1840,344,0,0
623,680,0,0,0,0,0,0,0,0,0,-1,1847,344,0,0
630,680,0,0,0,0,0,0,0,0,0,-1,1854,344,0,0
637,680,0,0,0,0,0,0,0,0,0,-1,1861,344,0,0
644,680,0,0,0,0,0,0,0,0,0,-1,1868,344,0,0
651,680,0,0,0,0,0,0,0,0,0,-1,1875,344,0,0
658,680,0,0,0,0,0,0,0,0,0,-1,1882,344,0,0
665,680,0,0,0,0,0,0,0,0,0,-1,1889,344,0,0
672,680,0,0,0,0,0,0,0,0,0,-1,1896,344,0,0
679,680,0,0,0,0,0,0,0,0,0,-1,1903,344,0,0
686,680,0,0,0,0,0,0,0,0,0,-1,1910,344,0,0
693,680,0,0,0,0,0,0,0,0,0,-1,1917,344,0,0
700,680,0,0,0,0,0,0,0,0,0,-1,1924,344,0,0
707,680,0,0,0,0,0,0,0,0,0,-1,1931,344,0,0
714,680,0,0,0,0,0,0,0,0,0,-1,1938,344,0,0
721,680,0,0,0,0,0,0,0,0,0,-1,1945,344,0,0
728,680,0,0,0,0,0,0,0,0,0,-1,1952,344,0,0
735,680,0,0,0,0,0,0,0,0,0,-1,1959,344,0,0
742,680,0,0,0,0,0,0,0,0,0,-1,1966,344,0,0
749,680,0,0,0,0,0,0,0,0,0,-1,1973,344,0,0
756,680,0,0,0,0,0,0,0,0,0,-1,1980,344,0,0
763,680,0,0,0,0,0,0,0,0,0,-1,1987,344,0,0
770,680,0,0,0,0,0,0,0,0,0,-1,1994,344,0,0
777,680,0,0,0,0,0,0,0,0,0,-1,2001,344,0,0
784,680,0,0,0,0,0,0,0,0,0,-1,2008,344,0,0
791,680,0,0,0,0,0,0,0,0,0,-1,2015,344,0,0
798,680,0,0,0,0,0,0,0,0,0,-1,2022,344,0,0
805,680,0,0,0,0,0,0,0,0,0,-1,2029,344,0,0
812,680,0,0,0,0,0,0,0,0,0,-1,2036,344,0,0
-700,673,0,0,0,0,0,0,0,0,0,-1,524,351,0,0
-693,673,0,0,0,0,0,0,0,0,0,-1,531,351,0,0
-686,673,0,0,0,0,0,0,0,0,0,-1,538,351,0,0
-679,673,0,0,0,0,0,0,0,0,0,-1,545,351,0,0
-672,673,0,0,0,0,0,0,0,0,0,-1,552,351,0,0
-665,673,0,0,0,0,0,0,0,0,0,-1,559,351,0,0
-658,673,0,0,0,0,0,0,0,0,0,-1,566,351,0,0
-651,673,0,0,0,0,0,0,0,0,0,-1,573,351,0,0
-644,673,0,0,0,0,0,0,0,0,0,-1,580,351,0,0
-637,673,0,0,0,0,0,0,0,0,0,-1,587,351,0,0
-630,673,0,0,0,0,0,0,0,0,0,-1,594,351,0,0
-623,673,0,0,0,0,0,0,0,0,0,-1,601,351,0,0
-616,673,0,0,0,0,0,0,0,0,0,-1,608,351,0,0
-609,673,0,0,0,0,0,0,0,0,0,-1,615,351,0,0
-602,673,0,0,0,0,0,0,0,0,0,-1,622,351,0,0
-595,673,0,0,0,0,0,0,0,0,0,-1,629,351,0,0
-588,673,0,0,0,0,0,0,0,0,0,-1,636,351,0,0
-581,673,0,0,0,0,0,0,0,0,0,-1,643,351,0,0
-574,673,0,0,0,0,0,0,0,0,0,-1,650,351,0,0
-567,673,0,0,0,0,0,0,0,0,0,-1,657,351,0,0
-560,673,0,0,0,0,0,0,0,0,0,-1,664,351,0,0
-553,673,0,0,0,0,0,0,0,0,0,-1,671,351,0,0
-546,673,0,0,0,0,0,0,0,0,0,-1,678,351,0,0
-539,673,0,0,0,0,0,0,0,0,0,-1,685,351,0,0
-532,673,0,0,0,0,0,0,0,0,0,-1,692,351,0,0
-525,673,0,0,0,0,0,0,0,0,0,-1,699,351,0,0
-518,673,0,0,0,0,0,0,0,0,0,-1,706,351,0,0
-511,673,0,0,0,0,0,0,0,0,0,-1,713,351,0,0
-504,673,0,0,0,0,0,0,0,0,0,-1,720,351,0,0
-497,673,0,0,0,0,0,0,0,0,0,-1,727,351,0,0
-490,673,0,0,0,0,0,0,0,0,0,-1,734,351,0,0
-483,673,0,0,0,0,0,0,0,0,0,-1,741,351,0,0
-476,673,0,0,0,0,0,0,0,0,0,-1,748,351,0,0
-469,673,0,0,0,0,0,0,0,0,0,-1,755,351,0,0
-462,673,0,0,0,0,0,0,0,0,0,-1,762,351,0,0
-455,673,0,0,0,0,0,0,0,0,0,-1,769,351,0,0
-448,673,0,0,0,0,0,0,0,0,0,-1,776,351,0,0
-441,673,0,0,0,0,0,0,0,0,0,-1,783,351,0,0
-434,673,0,0,0,0,0,0,0,0,0,-1,790,351,0,0
-427,673,0,0,0,0,0,0,0,0,0,-1,797,351,0,0
-420,673,0,0,0,0,0,0,0,0,0,-1,804,351,0,0
-413,673,0,0,0,0,0,0,0,0,0,-1,811,351,0,0
-406,673,0,0,0,0,0,0,0,0,0,-1,818,351,0,0
-399,673,0,0,0,0,0,0,0,0,0,-1,825,351,0,0
-392,673,0,0,0,0,0,0,0,0,0,-1,832,351,0,0
-385,673,0,0,0,0,0,0,0,0,0,-1,839,351,0,0
-378,673,0,0,0,0,0,0,0,0,0,-1,846,351,0,0
-371,673,0,0,0,0,0,0,0,0,0,-1,853,351,0,0
-364,673,0,0,0,0,0,0,0,0,0,-1,860,351,0,0
-357,673,0,0,0,0,0,0,0,0,0,-1,867,351,0,0
-350,673,0,0,0,0,0,0,0,0,0,-1,874,351,0,0
-343,673,0,0,0,0,0,0,0,0,0,-1,881,351,0,0
-336,673,0,0,0,0,0,0,0,0,0,-1,888,351,0,0
-329,673,0,0,0,0,0,0,0,0,0,-1,895,351,0,0
-322,673,0,0,0,0,0,0,0,0,0,-1,902,351,0,0
-315,673,0,0,0,0,0,0,0,0,0,-1,909,351,0,0
-308,673,0,0,0,0,0,0,0,0,0,-1,916,351,0,0
-301,673,0,0,0,0,0,0,0,0,0,-1,923,351,0,0
-294,673,0,0,0,0,0,0,0,0,0,-1,930,351,0,0
-287,673,0,0,0,0,0,0,0,0,0,-1,937,351,0,0
-280,673,0,0,0,0,0,0,0,0,0,-1,944,351,0,0
-273,673,0,0,0,0,0,0,0,0,0,-1,951,351,0,0
-266,673,0,0,0,0,0,0,0,0,0,-1,958,351,0,0
-259,673,0,0,0,0,0,0,0,0,0,-1,965,351,0,0
-252,673,0,0,0,0,0,0,0,0,0,-1,972,351,0,0
-245,673,0,0,0,0,0,0,0,0,0,-1,979,351,0,0
-238,673,0,0,0,0,0,0,0,0,0,-1,986,351,0,0
-231,673,0,0,0,0,0,0,0,0,0,-1,993,351,0,0
-224,673,0,0,0,0,0,0,0,0,0,-1,1000,351,0,0
-217,673,0,0,0,0,0,0,0,0,0,-1,1007,351,0,0
-210,673,0,0,0,0,0,0,0,0,0,-1,1014,351,0,0
-203,673,0,0,0,0,0,0,0,0,0,-1,1021,351,0,0
-196,673,0,0,0,0,0,0,0,0,0,-1,1028,351,0,0
-189,673,0,0,0,0,0,0,0,0,0,-1,1035,351,0,0
-182,673,0,0,0,0,0,0,0,0,0,-1,1042,351,0,0
-175,673,7.10449,-31.8279,0,0,0,0,0,0,0,-1,1049,351,7.10448,31.8279
-168,673,7.33081,-32.7122,0,0,0,0,0,0,0,-1,1056,351,7.33085,32.7122
-161,673,7.8938,-33.5352,0,0,0,0,0,0,0,-1,1063,351,7.89385,33.5352
-154,673,8.80566,-35.3518,0,0,0,0,0,0,0,-1,1070,351,8.80563,35.3518
-147,673,2.89221,-37.7351,0,0,0,0,0,0,0,-1,1077,351,2.89224,37.7351
-140,673,3.35046,-37.7151,0,0,0,0,0,0,0,-1,1084,351,3.35046,37.715
-133,673,3.35339,-39.0288,0,0,0,0,0,0,0,-1,1091,351,3.35342,39.0288
-126,673,3.7533,-38.0453,0,0,0,0,0,0,0,-1,1098,351,3.7533,38.0453
-119,673,4.1532,-37.0618,0,0,0,0,0,0,0,-1,1105,351,4.15318,37.0618
-112,673,7.27234,-32.5801,0,0,0,0,0,0,0,-1,1112,351,7.27231,32.5801
-105,673,21.1144,-43.3143,0,0,0,0,0,0,0,-1,1119,351,21.1143,43.3143
-98,673,14.8014,-36.7519,0,0,0,0,0,0,0,-1,1126,351,14.8014,36.7519
-91,673,8.54944,-29.9639,0,0,0,0,0,0,0,-1,1133,351,8.54949,29.9639
-84,673,2.17102,-24.3204,0,0,0,0,0,0,0,-1,1140,351,2.17107,24.3204
-77,673,-4.25378,-18.8346,0,0,0,0,0,0,0,-1,1147,351,-4.25381,18.8346
-70,673,-10.7933,-13.6681,0,0,0,0,0,0,0,-1,1154,351,-10.7934,13.6681
-63,673,-17.3896,-8.24469,0,0,0,0,0,0,0,-1,1161,351,-17.3896,8.2447
-56,673,-18.0282,2.79053,0,0,0,0,0,0,0,-1,1168,351,-18.0283,-2.79052
-49,673,-0.926758,-0.115448,0,0,0,0,0,0,0,-1,1175,351,-0.926732,0.115444
-42,673,-1.15015,0.289917,0,0,0,0,0,0,0,-1,1182,351,-1.15017,-0.289932
-35,673,-0.919556,-1.00711,0,0,0,0,0,0,0,-1,1189,351,-0.919514,1.00711
-28,673,5.28918,-39.2331,0,0,0,0,0,0,0,-1,1196,351,5.28924,39.2331
-21,673,9.2655,-65.7657,0,0,0,0,0,0,0,-1,1203,351,9.26551,65.7657
-14,673,9.18848,-66.086,0.0200404,0.0564312,-0.0235287,0.0679793,0.00849235,-1.11453,0.0427707,0.048721,1210,351,9.18848,66.086
-7,673,9.05005,-66.5635,0.01793,0.0530326,-0.0235228,0.0648304,0.00613221,-1.10591,0.0413281,0.0472806,1217,351,9.0501,66.5635
0,673,9.05798,-66.8098,0,0,0,0,0,0,0,-1,1224,351,9.05798,66.8098
7,673,8.82654,-66.8338,0,0,0,0,0,0,0,-1,1231,351,8.82653,66.8338
14,673,8.76892,-66.9329,0,0,0,0,0,0,0,-1,1238,351,8.76887,66.9329
21,673,8.77209,-67.2318,0.00978881,0.0408232,-0.0134925,0.0458688,0.00474314,-1.21294,0.0291272,0.0360194,1245,351,8.77206,67.2318
28,673,8.75244,-67.4167,0.00701291,0.0406294,-0.00992231,0.0433396,0.00430272,-1.30416,0.027571,0.0348752,1252,351,8.75245,67.4167
35,673,8.63965,-67.4142,0,0,0,0,0,0,0,-1,1259,351,8.63962,67.4142
42,673,8.26904,-67.5415,0.000151407,0.043878,-0.0042107,0.0442798,-0.000250375,-1.47567,0.0296037,0.0407449,1266,351,8.26909,67.5415
49,673,8.12,-67.7126,-0.00400614,0.0468963,-0.00153391,0.0469425,-0.00405232,-1.5407,0.0327295,0.0238725,1273,351,8.12004,67.7126
56,673,8.08911,-67.7407,-0.00903216,0.0505147,0.000415897,0.0505176,-0.00903507,1.56381,0.0370591,0.019138,1280,351,8.08916,67.7407
63,673,8.12463,-67.487,-0.0145226,0.054277,0.00172067,0.05432,-0.0145656,1.54581,0.0419206,0.0244872,1287,351,8.12462,67.487
70,673,8.07532,-67.3917,-0.0199954,0.0577658,0.00201041,0.0578177,-0.0200473,1.54497,0.0466851,0.0376778,1294,351,8.07527,67.3917
77,673,8.01782,-67.0286,-0.0253355,0.0610487,0.00161223,0.0610788,-0.0253656,1.55214,0.0513088,0.0421043,1301,351,8.01778,67.0286
84,673,7.58398,-67.2727,-0.0305221,0.0631247,0.000614242,0.0631287,-0.0305262,1.56424,0.055153,0.0459086,1308,351,7.58399,67.2727
91,673,7.00574,-67.5883,0,0,0,0,0,0,0,-1,1315,351,7.00574,67.5884
98,673,7.40771,-67.8185,0,0,0,0,0,0,0,-1,1322,351,7.40774,67.8185
105,673,6.99988,-67.5049,0,0,0,0,0,0,0,-1,1329,351,6.99982,67.5049
112,673,4.9967,-65.7799,0,0,0,0,0,0,0,-1,1336,351,4.99666,65.7799
119,673,4.49585,-64.6132,0,0,0,0,0,0,0,-1,1343,351,4.49582,64.6132
126,673,4.10474,-64.692,0,0,0,0,0,0,0,-1,1350,351,4.10478,64.692
133,673,6.34265,-66.7009,0,0,0,0,0,0,0,-1,1357,351,6.34262,66.7009
140,673,6.50085,-66.2092,0,0,0,0,0,0,0,-1,1364,351,6.50082,66.2092
147,673,6.13513,-65.5553,-0.0367282,0.0626005,-0.00681112,0.0630654,-0.0371931,-1.50265,0.0585232,0.049038,1371,351,6.13517,65.5553
154,673,6.02502,-64.9688,-0.0339665,0.0643705,-0.00716107,0.0648892,-0.0344852,-1.49848,0.0582621,0.048577,1378,351,6.02499,64.9688
161,673,5.95447,-64.3607,0,0,0,0,0,0,0,-1,1385,351,5.95448,64.3606
168,673,6.87061,1.83954,0,0,0,0,0,0,0,-1,1392,351,6.87063,-1.83953
175,673,6.6228,1.1459,0,0,0,0,0,0,0,-1,1399,351,6.62276,-1.14591
182,673,6.37244,0.796112,0,0,0,0,0,0,0,-1,1406,351,6.3724,-0.796102
189,673,6.12097,0.265472,0,0,0,0,0,0,0,-1,1413,351,6.121,-0.265482
196,673,6.02173,3.12717,0,0,0,0,0,0,0,-1,1420,351,6.02176,-3.12717
203,673,5.04456,1.6351,0,0,0,0,0,0,0,-1,1427,351,5.04455,-1.63509
210,673,4.79224,0.447479,0,0,0,0,0,0,0,-1,1434,351,4.79229,-0.447469
217,673,2.01648,0.972687,0,0,0,0,0,0,0,-1,1441,351,2.01644,-0.972691
224,673,2.3689,-1.80539,0,0,0,0,0,0,0,-1,1448,351,2.36896,1.80539
231,673,2.65857,-2.18497,0,0,0,0,0,0,0,-1,1455,351,2.65852,2.18496
238,673,3.77844,-2.06088,0,0,0,0,0,0,0,-1,1462,351,3.77839,2.06088
245,673,3.5376,-0.190399,0,0,0,0,0,0,0,-1,1469,351,3.53759,0.1904
252,673,3.80518,0.55603,0,0,0,0,0,0,0,-1,1476,351,3.80519,-0.556022
259,673,3.88562,1.29617,0,0,0,0,0,0,0,-1,1483,351,3.88562,-1.29618
266,673,4.22424,2.04834,0,0,0,0,0,0,0,-1,1490,351,4.22429,-2.04834
273,673,6.07886,0.385895,0,0,0,0,0,0,0,-1,1497,351,6.0789,-0.385906
280,673,6.97534,-0.0820007,0,0,0,0,0,0,0,-1,1504,351,6.97536,0.0820122
287,673,7.66968,-0.348541,0,0,0,0,0,0,0,-1,1511,351,7.66969,0.348534
294,673,8.20996,0.28537,0,0,0,0,0,0,0,-1,1518,351,8.20993,-0.28536
301,673,0,0,0,0,0,0,0,0,0,-1,1525,351,0,0
308,673,0,0,0,0,0,0,0,0,0,-1,1532,351,0,0
315,673,0,0,0,0,0,0,0,0,0,-1,1539,351,0,0
322,673,0,0,0,0,0,0,0,0,0,-1,1546,351,0,0
329,673,0,0,0,0,0,0,0,0,0,-1,1553,351,0,0
336,673,0,0,0,0,0,0,0,0,0,-1,1560,351,0,0
343,673,0,0,0,0,0,0,0,0,0,-1,1567,351,0,0
350,673,0,0,0,0,0,0,0,0,0,-1,1574,351,0,0
357,673,0,0,0,0,0,0,0,0,0,-1,1581,351,0,0
364,673,0,0,0,0,0,0,0,0,0,-1,1588,351,0,0
371,673,0,0,0,0,0,0,0,0,0,-1,1595,351,0,0
378,673,0,0,0,0,0,0,0,0,0,-1,1602,351,0,0
385,673,0,0,0,0,0,0,0,0,0,-1,1609,351,0,0
392,673,0,0,0,0,0,0,0,0,0,-1,1616,351,0,0
399,673,0,0,0,0,0,0,0,0,0,-1,1623,351,0,0
406,673,0,0,0,0,0,0,0,0,0,-1,1630,351,0,0
413,673,0,0,0,0,0,0,0,0,0,-1,1637,351,0,0
420,673,0,0,0,0,0,0,0,0,0,-1,1644,351,0,0
427,673,0,0,0,0,0,0,0,0,0,-1,1651,351,0,0
434,673,0,0,0,0,0,0,0,0,0,-1,1658,351,0,0
441,673,0,0,0,0,0,0,0,0,0,-1,1665,351,0,0
448,673,0,0,0,0,0,0,0,0,0,-1,1672,351,0,0
455,673,0,0,0,0,0,0,0,0,0,-1,1679,351,0,0
462,673,0,0,0,0,0,0,0,0,0,-1,1686,351,0,0
469,673,0,0,0,0,0,0,0,0,0,-1,1693,351,0,0
476,673,0,0,0,0,0,0,0,0,0,-1,1700,351,0,0
483,673,0,0,0,0,0,0,0,0,0,-1,1707,351,0,0
490,673,0,0,0,0,0,0,0,0,0,-1,1714,351,0,0
497,673,0,0,0,0,0,0,0,0,0,-1,1721,351,0,0
504,673,0,0,0,0,0,0,0,0,0,-1,1728,351,0,0
511,673,0,0,0,0,0,0,0,0,0,-1,1735,351,0,0
518,673,0,0,0,0,0,0,0,0,0,-1,1742,351,0,0
525,673,0,0,0,0,0,0,0,0,0,-1,1749,351,0,0
532,673,0,0,0,0,0,0,0,0,0,-1,1756,351,0,0
539,673,0,0,0,0,0,0,0,0,0,-1,1763,351,0,0
546,673,0,0,0,0,0,0,0,0,0,-1,1770,351,0,0
553,673,0,0,0,0,0,0,0,0,0,-1,1777,351,0,0
560,673,0,0,0,0,0,0,0,0,0,-1,1784,351,0,0
567,673,0,0,0,0,0,0,0,0,0,-1,1791,351,0,0
574,673,0,0,0,0,0,0,0,0,0,-1,1798,351,0,0
581,673,0,0,0,0,0,0,0,0,0,-1,1805,351,0,0
588,673,0,0,0,0,0,0,0,0,0,-1,1812,351,0,0
595,673,0,0,0,0,0,0,0,0,0,-1,1819,351,0,0
602,673,0,0,0,0,0,0,0,0,0,-1,1826,351,0,0
609,673,0,0,0,0,0,0,0,0,0,-1,1833,351,0,0
616,673,0,0,0,0,0,0,0,0,0,-1,1840,351,0,0
623,673,0,0,0,0,0,0,0,0,0,-1,1847,351,0,0
630,673,0,0,0,0,0,0,0,0,0,-1,1854,351,0,0
637,673,0,0,0,0,0,0,0,0,0,-1,1861,351,0,0
644,673,0,0,0,0,0,0,0,0,0,-1,1868,351,0,0
651,673,0,0,0,0,0,0,0,0,0,-1,1875,351,0,0
658,673,0,0,0,0,0,0,0,0,0,-1,1882,351,0,0
665,673,0,0,0,0,0,0,0,0,0,-1,1889,351,0,0
672,673,0,0,0,0,0,0,0,0,0,-1,1896,351,0,0
679,673,0,0,0,0,0,0,0,0,0,-1,1903,351,0,0
686,673,0,0,0,0,0,0,0,0,0,-1,1910,351,0,0
693,673,0,0,0,0,0,0,0,0,0,-1,1917,351,0,0
700,673,0,0,0,0,0,0,0,0,0,-1,1924,351,0,0
707,673,0,0,0,0,0,0,0,0,0,-1,1931,351,0,0
714,673,0,0,0,0,0,0,0,0,0,-1,1938,351,0,0
721,673,0,0,0,0,0,0,0,0,0,-1,1945,351,0,0
728,673,0,0,0,0,0,0,0,0,0,-1,1952,351,0,0
735,673,0,0,0,0,0,0,0,0,0,-1,1959,351,0,0
742,673,0,0,0,0,0,0,0,0,0,-1,1966,351,0,0
749,673,0,0,0,0,0,0,0,0,0,-1,1973,351,0,0
756,673,0,0,0,0,0,0,0,0,0,-1,1980,351,0,0
763,673,0,0,0,0,0,0,0,0,0,-1,1987,351,0,0
770,673,0,0,0,0,0,0,0,0,0,-1,1994,351,0,0
777,673,0,0,0,0,0,0,0,0,0,-1,2001,351,0,0
784,673,0,0,0,0,0,0,0,0,0,-1,2008,351,0,0
791,673,0,0,0,0,0,0,0,0,0,-1,2015,351,0,0
798,673,0,0,0,0,0,0,0,0,0,-1,2022,351,0,0
805,673,0,0,0,0,0,0,0,0,0,-1,2029,351,0,0
812,673,0,0,0,0,0,0,0,0,0,-1,2036,351,0,0
-700,666,0,0,0,0,0,0,0,0,0,-1,524,358,0,0
-693,666,0,0,0,0,0,0,0,0,0,-1,531,358,0,0
-686,666,0,0,0,0,0,0,0,0,0,-1,538,358,0,0
-679,666,0,0,0,0,0,0,0,0,0,-1,545,358,0,0
-672,666,0,0,0,0,0,0,0,0,0,-1,552,358,0,0
-665,666,0,0,0,0,0,0,0,0,0,-1,559,358,0,0
-658,666,0,0,0,0,0,0,0,0,0,-1,566,358,0,0
-651,666,0,0,0,0,0,0,0,0,0,-1,573,358,0,0
-644,666,0,0,0,0,0,0,0,0,0,-1,580,358,0,0
-637,666,0,0,0,0,0,0,0,0,0,-1,587,358,0,0
-630,666,0,0,0,0,0,0,0,0,0,-1,594,358,0,0
-623,666,0,0,0,0,0,0,0,0,0,-1,601,358,0,0
-616,666,0,0,0,0,0,0,0,0,0,-1,608,358,0,0
-609,666,0,0,0,0,0,0,0,0,0,-1,615,358,0,0
-602,666,0,0,0,0,0,0,0,0,0,-1,622,358,0,0
-595,666,0,0,0,0,0,0,0,0,0,-1,629,358,0,0
-588,666,0,0,0,0,0,0,0,0,0,-1,636,358,0,0
-581,666,0,0,0,0,0,0,0,0,0,-1,643,358,0,0
-574,666,0,0,0,0,0,0,0,0,0,-1,650,358,0,0
-567,666,0,0,0,0,0,0,0,0,0,-1,657,358,0,0
-560,666,0,0,0,0,0,0,0,0,0,-1,664,358,0,0
-553,666,0,0,0,0,0,0,0,0,0,-1,671,358,0,0
-546,666,0,0,0,0,0,0,0,0,0,-1,678,358,0,0
-539,666,0,0,0,0,0,0,0,0,0,-1,685,358,0,0
-532,666,0,0,0,0,0,0,0,0,0,-1,692,358,0,0
-525,666,0,0,0,0,0,0,0,0,0,-1,699,358,0,0
-518,666,0,0,0,0,0,0,0,0,0,-1,706,358,0,0
-511,666,0,0,0,0,0,0,0,0,0,-1,713,358,0,0
-504,666,0,0,0,0,0,0,0,0,0,-1,720,358,0,0
-497,666,0,0,0,0,0,0,0,0,0,-1,727,358,0,0
-490,666,0,0,0,0,0,0,0,0,0,-1,734,358,0,0
-483,666,0,0,0,0,0,0,0,0,0,-1,741,358,0,0
-476,666,0,0,0,0,0,0,0,0,0,-1,748,358,0,0
-469,666,0,0,0,0,0,0,0,0,0,-1,755,358,0,0
-462,666,0,0,0,0,0,0,0,0,0,-1,762,358,0,0
-455,666,0,0,0,0,0,0,0,0,0,-1,769,358,0,0
-448,666,0,0,0,0,0,0,0,0,0,-1,776,358,0,0
-441,666,0,0,0,0,0,0,0,0,0,-1,783,358,0,0
-434,666,0,0,0,0,0,0,0,0,0,-1,790,358,0,0
-427,666,0,0,0,0,0,0,0,0,0,-1,797,358,0,0
-420,666,0,0,0,0,0,0,0,0,0,-1,804,358,0,0
-413,666,0,0,0,0,0,0,0,0,0,-1,811,358,0,0
-406,666,0,0,0,0,0,0,0,0,0,-1,818,358,0,0
-399,666,0,0,0,0,0,0,0,0,0,-1,825,358,0,0
-392,666,0,0,0,0,0,0,0,0,0,-1,832,358,0,0
-385,666,0,0,0,0,0,0,0,0,0,-1,839,358,0,0
-378,666,0,0,0,0,0,0,0,0,0,-1,846,358,0,0
-371,666,0,0,0,0,0,0,0,0,0,-1,853,358,0,0
-364,666,0,0,0,0,0,0,0,0,0,-1,860,358,0,0
-357,666,0,0,0,0,0,0,0,0,0,-1,867,358,0,0
-350,666,0,0,0,0,0,0,0,0,0,-1,874,358,0,0
-343,666,0,0,0,0,0,0,0,0,0,-1,881,358,0,0
-336,666,0,0,0,0,0,0,0,0,0,-1,888,358,0,0
-329,666,0,0,0,0,0,0,0,0,0,-1,895,358,0,0
-322,666,0,0,0,0,0,0,0,0,0,-1,902,358,0,0
-315,666,0,0,0,0,0,0,0,0,0,-1,909,358,0,0
-308,666,0,0,0,0,0,0,0,0,0,-1,916,358,0,0
-301,666,0,0,0,0,0,0,0,0,0,-1,923,358,0,0
-294,666,0,0,0,0,0,0,0,0,0,-1,930,358,0,0
-287,666,0,0,0,0,0,0,0,0,0,-1,937,358,0,0
-280,666,0,0,0,0,0,0,0,0,0,-1,944,358,0,0
-273,666,0,0,0,0,0,0,0,0,0,-1,951,358,0,0
-266,666,0,0,0,0,0,0,0,0,0,-1,958,358,0,0
-259,666,0,0,0,0,0,0,0,0,0,-1,965,358,0,0
-252,666,0,0,0,0,0,0,0,0,0,-1,972,358,0,0
-245,666,0,0,0,0,0,0,0,0,0,-1,979,358,0,0
-238,666,0,0,0,0,0,0,0,0,0,-1,986,358,0,0
-231,666,0,0,0,0,0,0,0,0,0,-1,993,358,0,0
-224,666,0,0,0,0,0,0,0,0,0,-1,1000,358,0,0
-217,666,0,0,0,0,0,0,0,0,0,-1,1007,358,0,0
-210,666,0,0,0,0,0,0,0,0,0,-1,1014,358,0,0
-203,666,0,0,0,0,0,0,0,0,0,-1,1021,358,0,0
-196,666,4.03418,-28.8724,0,0,0,0,0,0,0,-1,1028,358,4.03422,28.8724
-189,666,5.00366,-29.597,0,0,0,0,0,0,0,-1,1035,358,5.00363,29.597
-182,666,6.83252,-30.9843,0,0,0,0,0,0,0,-1,1042,358,6.83247,30.9844
-175,666,7.01611,-31.8763,0,0,0,0,0,0,0,-1,1049,358,7.01617,31.8762
-168,666,7.21545,-32.7414,0,0,0,0,0,0,0,-1,1056,358,7.2154,32.7414
-161,666,7.69116,-33.6269,0,0,0,0,0,0,0,-1,1063,358,7.69121,33.6269
-154,666,3.79041,-37.9204,0,0,0,0,0,0,0,-1,1070,358,3.79034,37.9204
-147,666,4.17908,-37.7466,0,0,0,0,0,0,0,-1,1077,358,4.17912,37.7466
-140,666,4.54309,-37.735,0,0,0,0,0,0,0,-1,1084,358,4.54304,37.735
-133,666,4.65723,-39.0643,0,0,0,0,0,0,0,-1,1091,358,4.65727,39.0643
-126,666,5.02368,-38.0699,0,0,0,0,0,0,0,-1,1098,358,5.02363,38.0698
-119,666,5.39001,-37.0754,0,0,0,0,0,0,0,-1,1105,358,5.38999,37.0754
-112,666,6.77014,-32.8165,0,0,0,0,0,0,0,-1,1112,358,6.77013,32.8165
-105,666,6.30908,-29.0855,0,0,0,0,0,0,0,-1,1119,358,6.30905,29.0855
-98,666,15.4427,-31.5168,0,0,0,0,0,0,0,-1,1126,358,15.4428,31.5168
-91,666,9.5127,-25.1347,0,0,0,0,0,0,0,-1,1133,358,9.51269,25.1347
-84,666,2.91589,-19.4071,0,0,0,0,0,0,0,-1,1140,358,2.91592,19.4071
-77,666,-3.48083,-14.0782,0,0,0,0,0,0,0,-1,1147,358,-3.48081,14.0782
-70,666,-9.99438,-8.90146,0,0,0,0,0,0,0,-1,1154,358,-9.99433,8.90146
-63,666,-11.7778,-0.975189,0,0,0,0,0,0,0,-1,1161,358,-11.7778,0.97519
-56,666,0.424683,-2.04132,0,0,0,0,0,0,0,-1,1168,358,0.424665,2.04132
-49,666,0.754395,-2.23169,0,0,0,0,0,0,0,-1,1175,358,0.754383,2.23169
-42,666,1.34473,-3.53897,0,0,0,0,0,0,0,-1,1182,358,1.34476,3.53896
-35,666,9.21423,-65.9704,0,0,0,0,0,0,0,-1,1189,358,9.21418,65.9704
-28,666,9.44983,-65.8258,0,0,0,0,0,0,0,-1,1196,358,9.44983,65.8258
-21,666,9.27881,-66.2053,0.0118159,0.0468847,-0.0165474,0.0534599,0.00524074,-1.19257,0.0340278,0.0408668,1203,358,9.2788,66.2052
-14,666,9.01343,-66.5288,0.0116623,0.0455791,-0.0170355,0.0526581,0.00458332,-1.17696,0.0336817,0.0397599,1210,358,9.01342,66.5288
-7,666,8.91809,-66.8209,0.0105868,0.0434526,-0.0171273,0.0507554,0.003284,-1.16775,0.0327971,0.025075,1217,358,8.91814,66.8209
0,666,8.8717,-67.1305,0.00998047,0.0407734,-0.0159955,0.0475784,0.00317542,-1.16856,0.0307152,0.0163451,1224,358,8.87169,67.1305
7,666,8.73206,-67.2517,0.00936104,0.0385768,-0.0142591,0.0443824,0.0035554,-1.18414,0.0284772,0.0232869,1231,358,8.73205,67.2517
14,666,8.63074,-67.352,0.00773046,0.0368816,-0.0123175,0.0413892,0.00322282,-1.21998,0.0265838,0.0220521,1238,358,8.63078,67.352
21,666,8.52612,-67.6725,0.00605135,0.0359494,-0.00981989,0.0388862,0.00311452,-1.28019,0.0249508,0.0177871,1245,358,8.52616,67.6726
28,666,8.45398,-67.8774,0.00407442,0.0360547,-0.00720916,0.0376047,0.00252442,-1.35902,0.0242721,0.0237905,1252,358,8.45395,67.8774
35,666,8.43359,-67.8711,0.00158752,0.0367973,-0.00516424,0.0375391,0.000845704,-1.42813,0.024749,0.0218723,1259,358,8.43364,67.8711
42,666,8.28186,-67.9829,-0.00105496,0.0384296,-0.00307191,0.0386672,-0.00129252,-1.49361,0.0262196,0.0170114,1266,358,8.2819,67.9829
49,666,8.14966,-68.081,-0.00421065,0.040588,-0.00106299,0.0406132,-0.00423586,-1.54709,0.0285922,0.0167602,1273,358,8.14961,68.081
56,666,8.09534,-68.1435,-0.00798758,0.0431286,0.000418169,0.043132,-0.007991,1.56262,0.0317553,0.0183062,1280,358,8.09539,68.1435
63,666,8.01013,-68.2606,-0.0120589,0.0457902,0.00145968,0.045827,-0.0120957,1.54559,0.0352813,0.0213862,1287,358,8.01018,68.2606
70,666,7.95032,-68.2088,-0.0160952,0.0482084,0.00175497,0.0482563,-0.0161431,1.54353,0.0386912,0.0201263,1294,358,7.95032,68.2088
77,666,7.91748,-67.9669,-0.0200971,0.0503439,0.0015038,0.0503759,-0.0201292,1.54946,0.0419362,0.0230116,1301,358,7.91749,67.967
84,666,7.85181,-67.976,-0.0238994,0.0515965,0.000792762,0.0516048,-0.0239077,1.5603,0.044564,0.0311415,1308,358,7.85182,67.976
91,666,7.68616,-68.0711,-0.0272029,0.0517751,-0.000462928,0.0517778,-0.0272057,-1.56494,0.0463309,0.0284129,1315,358,7.68617,68.0711
98,666,7.4978,-67.9711,-0.0296487,0.0515286,-0.00123532,0.0515474,-0.0296675,-1.55558,0.0474533,0.0238402,1322,358,7.49781,67.9711
105,666,7.28833,-67.7492,-0.0318454,0.0507381,-0.00250217,0.0508138,-0.0319212,-1.54053,0.0481804,0.0287879,1329,358,7.28829,67.7492
112,666,7.17249,-67.569,0,0,0,0,0,0,0,-1,1336,358,7.17251,67.569
119,666,7.13477,-67.306,0,0,0,0,0,0,0,-1,1343,358,7.13479,67.306
126,666,7.04126,-67.0294,0,0,0,0,0,0,0,-1,1350,358,7.0413,67.0294
133,666,6.93274,-66.7067,0,0,0,0,0,0,0,-1,1357,358,6.93273,66.7066
140,666,6.79163,-66.5285,-0.029608,0.0472195,-0.00313314,0.047347,-0.0297356,-1.5301,0.0448892,0.0450459,1364,358,6.79159,66.5285
147,666,6.57788,-66.1824,-0.0275388,0.0480821,-0.00284428,0.0481889,-0.0276456,-1.53325,0.0443154,0.0324782,1371,358,6.5779,66.1824
154,666,6.56543,-65.5526,-0.0252842,0.0490995,-0.00277914,0.0492032,-0.0253879,-1.5335,0.0437907,0.0286081,1378,358,6.56543,65.5527
161,666,6.55566,-65.1374,-0.0226887,0.0494273,-0.00213242,0.0494903,-0.0227517,-1.54126,0.0426506,0.038274,1385,358,6.5557,65.1374
168,666,6.49951,-64.6926,0,0,0,0,0,0,0,-1,1392,358,6.49955,64.6926
175,666,6.55029,-64.8397,0,0,0,0,0,0,0,-1,1399,358,6.5503,64.8397
182,666,2.60876,-5.17068,0,0,0,0,0,0,0,-1,1406,358,2.6088,5.17068
189,666,2.46973,-5.49979,0,0,0,0,0,0,0,-1,1413,358,2.46975,5.49979
196,666,2.32458,-5.23651,0,0,0,0,0,0,0,-1,1420,358,2.32461,5.23653
203,666,2.28064,-3.88004,0,0,0,0,0,0,0,-1,1427,358,2.28059,3.88003
210,666,3.02576,-5.83548,0,0,0,0,0,0,0,-1,1434,358,3.02581,5.83547
217,666,2.30444,-5.36011,0,0,0,0,0,0,0,-1,1441,358,2.30447,5.3601
224,666,1.82324,-6.03101,0,0,0,0,0,0,0,-1,1448,358,1.82322,6.031
231,666,2.29797,-10.1093,0,0,0,0,0,0,0,-1,1455,358,2.29801,10.1093
238,666,2.52429,-6.10568,0,0,0,0,0,0,0,-1,1462,358,2.52423,6.10567
245,666,4.53345,-1.38205,0,0,0,0,0,0,0,-1,1469,358,4.53349,1.38204
252,666,4.77405,-0.246979,0,0,0,0,0,0,0,-1,1476,358,4.77405,0.246993
259,666,4.83655,1.14087,0,0,0,0,0,0,0,-1,1483,358,4.83652,-1.14087
266,666,6.14148,0.749512,0,0,0,0,0,0,0,-1,1490,358,6.14144,-0.749519
273,666,3.17737,-33.7881,0,0,0,0,0,0,0,-1,1497,358,3.17735,33.7881
280,666,3.37268,-35.2123,0,0,0,0,0,0,0,-1,1504,358,3.37266,35.2123
287,666,-7.06934,-20.3464,0,0,0,0,0,0,0,-1,1511,358,-7.06933,20.3464
294,666,-2.11157,-23.2753,0,0,0,0,0,0,0,-1,1518,358,-2.11162,23.2753
301,666,-3.16162,-22.2271,0,0,0,0,0,0,0,-1,1525,358,-3.16161,22.2271
308,666,-4.24951,-20.9112,0,0,0,0,0,0,0,-1,1532,358,-4.24948,20.9112
315,666,-5.64954,-19.5784,0,0,0,0,0,0,0,-1,1539,358,-5.64959,19.5784
322,666,0,0,0,0,0,0,0,0,0,-1,1546,358,0,0
329,666,0,0,0,0,0,0,0,0,0,-1,1553,358,0,0
336,666,0,0,0,0,0,0,0,0,0,-1,1560,358,0,0
343,666,0,0,0,0,0,0,0,0,0,-1,1567,358,0,0
350,666,0,0,0,0,0,0,0,0,0,-1,1574,358,0,0
357,666,0,0,0,0,0,0,0,0,0,-1,1581,358,0,0
364,666,0,0,0,0,0,0,0,0,0,-1,1588,358,0,0
371,666,0,0,0,0,0,0,0,0,0,-1,1595,358,0,0
378,666,0,0,0,0,0,0,0,0,0,-1,1602,358,0,0
385,666,0,0,0,0,0,0,0,0,0,-1,1609,358,0,0
392,666,0,0,0,0,0,0,0,0,0,-1,1616,358,0,0
399,666,0,0,0,0,0,0,0,0,0,-1,1623,358,0,0
406,666,0,0,0,0,0,0,0,0,0,-1,1630,358,0,0
413,666,0,0,0,0,0,0,0,0,0,-1,1637,358,0,0
420,666,0,0,0,0,0,0,0,0,0,-1,1644,358,0,0
427,666,0,0,0,0,0,0,0,0,0,-1,1651,358,0,0
434,666,0,0,0,0,0,0,0,0,0,-1,1658,358,0,0
441,666,0,0,0,0,0,0,0,0,0,-1,1665,358,0,0
448,666,0,0,0,0,0,0,0,0,0,-1,1672,358,0,0
455,666,0,0,0,0,0,0,0,0,0,-1,1679,358,0,0
462,666,0,0,0,0,0,0,0,0,0,-1,1686,358,0,0
469,666,0,0,0,0,0,0,0,0,0,-1,1693,358,0,0
476,666,0,0,0,0,0,0,0,0,0,-1,1700,358,0,0
483,666,0,0,0,0,0,0,0,0,0,-1,1707,358,0,0
490,666,0,0,0,0,0,0,0,0,0,-1,1714,358,0,0
497,666,0,0,0,0,0,0,0,0,0,-1,1721,358,0,0
504,666,0,0,0,0,0,0,0,0,0,-1,1728,358,0,0
511,666,0,0,0,0,0,0,0,0,0,-1,1735,358,0,0
518,666,0,0,0,0,0,0,0,0,0,-1,1742,358,0,0
525,666,0,0,0,0,0,0,0,0,0,-1,1749,358,0,0
532,666,0,0,0,0,0,0,0,0,0,-1,1756,358,0,0
539,666,0,0,0,0,0,0,0,0,0,-1,1763,358,0,0
546,666,0,0,0,0,0,0,0,0,0,-1,1770,358,0,0
553,666,0,0,0,0,0,0,0,0,0,-1,1777,358,0,0
560,666,0,0,0,0,0,0,0,0,0,-1,1784,358,0,0
567,666,0,0,0,0,0,0,0,0,0,-1,1791,358,0,0
574,666,0,0,0,0,0,0,0,0,0,-1,1798,358,0,0
581,666,0,0,0,0,0,0,0,0,0,-1,1805,358,0,0
588,666,0,0,0,0,0,0,0,0,0,-1,1812,358,0,0
595,666,0,0,0,0,0,0,0,0,0,-1,1819,358,0,0
602,666,0,0,0,0,0,0,0,0,0,-1,1826,358,0,0
609,666,0,0,0,0,0,0,0,0,0,-1,1833,358,0,0
616,666,0,0,0,0,0,0,0,0,0,-1,1840,358,0,0
623,666,0,0,0,0,0,0,0,0,0,-1,1847,358,0,0
630,666,0,0,0,0,0,0,0,0,0,-1,1854,358,0,0
637,666,0,0,0,0,0,0,0,0,0,-1,1861,358,0,0
644,666,0,0,0,0,0,0,0,0,0,-1,1868,358,0,0
651,666,0,0,0,0,0,0,0,0,0,-1,1875,358,0,0
658,666,0,0,0,0,0,0,0,0,0,-1,1882,358,0,0
665,666,0,0,0,0,0,0,0,0,0,-1,1889,358,0,0
672,666,0,0,0,0,0,0,0,0,0,-1,1896,358,0,0
679,666,0,0,0,0,0,0,0,0,0,-1,1903,358,0,0
686,666,0,0,0,0,0,0,0,0,0,-1,1910,358,0,0
693,666,0,0,0,0,0,0,0,0,0,-1,1917,358,0,0
700,666,0,0,0,0,0,0,0,0,0,-1,1924,358,0,0
707,666,0,0,0,0,0,0,0,0,0,-1,1931,358,0,0
714,666,0,0,0,0,0,0,0,0,0,-1,1938,358,0,0
721,666,0,0,0,0,0,0,0,0,0,-1,1945,358,0,0
728,666,0,0,0,0,0,0,0,0,0,-1,1952,358,0,0
735,666,0,0,0,0,0,0,0,0,0,-1,1959,358,0,0
742,666,0,0,0,0,0,0,0,0,0,-1,1966,358,0,0
749,666,0,0,0,0,0,0,0,0,0,-1,1973,358,0,0
756,666,0,0,0,0,0,0,0,0,0,-1,1980,358,0,0
763,666,0,0,0,0,0,0,0,0,0,-1,1987,358,0,0
770,666,0,0,0,0,0,0,0,0,0,-1,1994,358,0,0
777,666,0,0,0,0,0,0,0,0,0,-1,2001,358,0,0
784,666,0,0,0,0,0,0,0,0,0,-1,2008,358,0,0
791,666,0,0,0,0,0,0,0,0,0,-1,2015,358,0,0
798,666,0,0,0,0,0,0,0,0,0,-1,2022,358,0,0
805,666,0,0,0,0,0,0,0,0,0,-1,2029,358,0,0
812,666,0,0,0,0,0,0,0,0,0,-1,2036,358,0,0
-700,659,0,0,0,0,0,0,0,0,0,-1,524,365,0,0
-693,659,0,0,0,0,0,0,0,0,0,-1,531,365,0,0
-686,659,0,0,0,0,0,0,0,0,0,-1,538,365,0,0
-679,659,0,0,0,0,0,0,0,0,0,-1,545,365,0,0
-672,659,0,0,0,0,0,0,0,0,0,-1,552,365,0,0
-665,659,0,0,0,0,0,0,0,0,0,-1,559,365,0,0
-658,659,0,0,0,0,0,0,0,0,0,-1,566,365,0,0
-651,659,0,0,0,0,0,0,0,0,0,-1,573,365,0,0
-644,659,0,0,0,0,0,0,0,0,0,-1,580,365,0,0
-637,659,0,0,0,0,0,0,0,0,0,-1,587,365,0,0
-630,659,0,0,0,0,0,0,0,0,0,-1,594,365,0,0
-623,659,0,0,0,0,0,0,0,0,0,-1,601,365,0,0
-616,659,0,0,0,0,0,0,0,0,0,-1,608,365,0,0
-609,659,0,0,0,0,0,0,0,0,0,-1,615,365,0,0
-602,659,0,0,0,0,0,0,0,0,0,-1,622,365,0,0
-595,659,0,0,0,0,0,0,0,0,0,-1,629,365,0,0
-588,659,0,0,0,0,0,0,0,0,0,-1,636,365,0,0
-581,659,0,0,0,0,0,0,0,0,0,-1,643,365,0,0
-574,659,0,0,0,0,0,0,0,0,0,-1,650,365,0,0
-567,659,0,0,0,0,0,0,0,0,0,-1,657,365,0,0
-560,659,0,0,0,0,0,0,0,0,0,-1,664,365,0,0
-553,659,0,0,0,0,0,0,0,0,0,-1,671,365,0,0
-546,659,0,0,0,0,0,0,0,0,0,-1,678,365,0,0
-539,659,0,0,0,0,0,0,0,0,0,-1,685,365,0,0
-532,659,0,0,0,0,0,0,0,0,0,-1,692,365,0,0
-525,659,0,0,0,0,0,0,0,0,0,-1,699,365,0,0
-518,659,0,0,0,0,0,0,0,0,0,-1,706,365,0,0
-511,659,0,0,0,0,0,0,0,0,0,-1,713,365,0,0
-504,659,0,0,0,0,0,0,0,0,0,-1,720,365,0,0
-497,659,0,0,0,0,0,0,0,0,0,-1,727,365,0,0
-490,659,0,0,0,0,0,0,0,0,0,-1,734,365,0,0
-483,659,0,0,0,0,0,0,0,0,0,-1,741,365,0,0
-476,659,0,0,0,0,0,0,0,0,0,-1,748,365,0,0
-469,659,0,0,0,0,0,0,0,0,0,-1,755,365,0,0
-462,659,0,0,0,0,0,0,0,0,0,-1,762,365,0,0
-455,659,0,0,0,0,0,0,0,0,0,-1,769,365,0,0
-448,659,0,0,0,0,0,0,0,0,0,-1,776,365,0,0
-441,659,0,0,0,0,0,0,0,0,0,-1,783,365,0,0
-434,659,0,0,0,0,0,0,0,0,0,-1,790,365,0,0
-427,659,0,0,0,0,0,0,0,0,0,-1,797,365,0,0
-420,659,0,0,0,0,0,0,0,0,0,-1,804,365,0,0
-413,659,0,0,0,0,0,0,0,0,0,-1,811,365,0,0
-406,659,0,0,0,0,0,0,0,0,0,-1,818,365,0,0
-399,659,0,0,0,0,0,0,0,0,0,-1,825,365,0,0
-392,659,0,0,0,0,0,0,0,0,0,-1,832,365,0,0
-385,659,0,0,0,0,0,0,0,0,0,-1,839,365,0,0
-378,659,0,0,0,0,0,0,0,0,0,-1,846,365,0,0
-371,659,0,0,0,0,0,0,0,0,0,-1,853,365,0,0
-364,659,0,0,0,0,0,0,0,0,0,-1,860,365,0,0
-357,659,0,0,0,0,0,0,0,0,0,-1,867,365,0,0
-350,659,0,0,0,0,0,0,0,0,0,-1,874,365,0,0
-343,659,0,0,0,0,0,0,0,0,0,-1,881,365,0,0
-336,659,0,0,0,0,0,0,0,0,0,-1,888,365,0,0
-329,659,0,0,0,0,0,0,0,0,0,-1,895,365,0,0
-322,659,0,0,0,0,0,0,0,0,0,-1,902,365,0,0
-315,659,0,0,0,0,0,0,0,0,0,-1,909,365,0,0
-308,659,0,0,0,0,0,0,0,0,0,-1,916,365,0,0
-301,659,0,0,0,0,0,0,0,0,0,-1,923,365,0,0
-294,659,0,0,0,0,0,0,0,0,0,-1,930,365,0,0
-287,659,0,0,0,0,0,0,0,0,0,-1,937,365,0,0
-280,659,0,0,0,0,0,0,0,0,0,-1,944,365,0,0
-273,659,0,0,0,0,0,0,0,0,0,-1,951,365,0,0
-266,659,0,0,0,0,0,0,0,0,0,-1,958,365,0,0
-259,659,0,0,0,0,0,0,0,0,0,-1,965,365,0,0
-252,659,0,0,0,0,0,0,0,0,0,-1,972,365,0,0
-245,659,0,0,0,0,0,0,0,0,0,-1,979,365,0,0
-238,659,0,0,0,0,0,0,0,0,0,-1,986,365,0,0
-231,659,0,0,0,0,0,0,0,0,0,-1,993,365,0,0
-224,659,0,0,0,0,0,0,0,0,0,-1,1000,365,0,0
-217,659,10.1305,-25.2622,0,0,0,0,0,0,0,-1,1007,365,10.1305,25.2622
-210,659,9.65643,-25.515,0,0,0,0,0,0,0,-1,1014,365,9.65642,25.515
-203,659,8.58911,-25.7432,0,0,0,0,0,0,0,-1,1021,365,8.58916,25.7432
-196,659,2.68323,-27.8121,0,0,0,0,0,0,0,-1,1028,365,2.6832,27.8121
-189,659,6.88049,-28.9412,0,0,0,0,0,0,0,-1,1035,365,6.88045,28.9412
-182,659,6.94189,-30.6316,0,0,0,0,0,0,0,-1,1042,365,6.94189,30.6316
-175,659,6.948,-32.0092,0,0,0,0,0,0,0,-1,1049,365,6.94798,32.0093
-168,659,7.1416,-32.7405,0,0,0,0,0,0,0,-1,1056,365,7.14157,32.7405
-161,659,7.57361,-33.7099,0,0,0,0,0,0,0,-1,1063,365,7.57355,33.7099
-154,659,7.71448,-34.8995,0,0,0,0,0,0,0,-1,1070,365,7.7145,34.8995
-147,659,5.46606,-37.758,0,0,0,0,0,0,0,-1,1077,365,5.46601,37.758
-140,659,5.7356,-37.755,0,0,0,0,0,0,0,-1,1084,365,5.73562,37.755
-133,659,5.91455,-37.9017,0,0,0,0,0,0,0,-1,1091,365,5.9146,37.9017
-126,659,6.31226,-37.9904,0,0,0,0,0,0,0,-1,1098,365,6.3122,37.9904
-119,659,6.26941,-35.0837,0,0,0,0,0,0,0,-1,1105,365,6.26943,35.0837
-112,659,6.24353,-35.0562,0,0,0,0,0,0,0,-1,1112,365,6.24349,35.0562
-105,659,5.38696,-30.5854,0,0,0,0,0,0,0,-1,1119,365,5.387,30.5854
-98,659,4.68042,-26.2438,0,0,0,0,0,0,0,-1,1126,365,4.68041,26.2438
-91,659,4.20776,-20.8654,0,0,0,0,0,0,0,-1,1133,365,4.20777,20.8654
-84,659,2.8584,-17.8303,0,0,0,0,0,0,0,-1,1140,365,2.85836,17.8303
-77,659,2.80139,-15.3457,0,0,0,0,0,0,0,-1,1147,365,2.80139,15.3457
-70,659,2.9353,-12.7028,0,0,0,0,0,0,0,-1,1154,365,2.93533,12.7028
-63,659,2.11267,-9.7796,0,0,0,0,0,0,0,-1,1161,365,2.11266,9.7796
-56,659,2.11182,-9.91541,0,0,0,0,0,0,0,-1,1168,365,2.11178,9.91541
-49,659,9.22815,-65.0856,0,0,0,0,0,0,0,-1,1175,365,9.22812,65.0856
-42,659,9.18689,-65.4765,0,0,0,0,0,0,0,-1,1182,365,9.18688,65.4765
-35,659,9.06824,-65.8868,0.00275277,0.0355411,-0.00936886,0.0380293,0.00026455,-1.31121,0.0252651,0.0430314,1189,365,9.06818,65.8868
-28,659,9.03955,-66.1628,0.00455521,0.0357783,-0.0106934,0.0390895,0.00124403,-1.27051,0.0256551,0.017399,1196,365,9.03951,66.1628
-21,659,8.94592,-66.5407,0.00566479,0.0357956,-0.0114635,0.0396611,0.00179933,-1.24557,0.0258618,0.0148255,1203,365,8.94591,66.5407
-14,659,8.80786,-66.8573,0.00609822,0.0353617,-0.0118756,0.0395746,0.0018854,-1.2299,0.0257776,0.0126835,1210,365,8.80786,66.8573
-7,659,8.71838,-67.1164,0.00576818,0.03418,-0.0120122,0.0385779,0.00137031,-1.21984,0.0252742,0.0121133,1217,365,8.71839,67.1164
0,659,8.66968,-67.3539,0.00572539,0.0325491,-0.0112649,0.0366522,0.0016222,-1.22149,0.0239124,0.0105069,1224,365,8.66963,67.3539
7,659,8.6156,-67.5491,0.00562707,0.031201,-0.0100916,0.0347035,0.00212456,-1.23673,0.022461,0.0111269,1231,365,8.61562,67.5491
14,659,8.50525,-67.6847,0.00471063,0.0302289,-0.00872174,0.032925,0.00201453,-1.27099,0.0213103,0.0135654,1238,365,8.50522,67.6847
21,659,8.42444,-67.8703,0.00367636,0.0297528,-0.00692538,0.0314779,0.00195125,-1.32666,0.020366,0.0137528,1245,365,8.4244,67.8703
28,659,8.3324,-68.0467,0.0023376,0.029989,-0.00505342,0.0308835,0.00144301,-1.39558,0.0201253,0.0132652,1252,365,8.33243,68.0467
35,659,8.28882,-68.161,0.000575411,0.0305611,-0.00364251,0.0309972,0.000139279,-1.45163,0.0206185,0.0134575,1259,365,8.2888,68.161
42,659,8.22925,-68.2561,-0.00133634,0.0316972,-0.00213795,0.031835,-0.00147413,-1.50643,0.0217314,0.0143963,1266,365,8.22924,68.2561
49,659,8.12585,-68.3424,-0.00364326,0.0332339,-0.000685016,0.0332466,-0.00365598,-1.55223,0.0234782,0.0158302,1273,365,8.12589,68.3424
56,659,8.05139,-68.3995,-0.00637817,0.0350031,0.000385738,0.0350067,-0.00638176,1.56148,0.0257302,0.0199953,1280,365,8.05139,68.3995
63,659,7.99365,-68.4503,-0.00927779,0.0368413,0.00116522,0.0368708,-0.00930721,1.54555,0.0281996,0.0189205,1287,365,7.99365,68.4503
70,659,7.87927,-68.3984,-0.0121293,0.0384915,0.00142671,0.0385317,-0.0121695,1.54264,0.0305628,0.018045,1294,365,7.87923,68.3984
77,659,7.80151,-68.3642,-0.0149942,0.0398614,0.00128188,0.0398913,-0.0150242,1.54745,0.0327711,0.0199939,1301,365,7.80154,68.3642
84,659,7.78821,-68.3303,-0.0176693,0.0406084,0.00078941,0.0406191,-0.01768,1.55725,0.0345166,0.0140538,1308,365,7.78815,68.3303
91,659,7.70203,-68.2578,-0.0200257,0.0405468,-5.87802e-05,0.0405468,-0.0200257,-1.56983,0.0356343,0.0113822,1315,365,7.702,68.2578
98,659,7.5896,-68.0991,-0.0217593,0.0402235,-0.00052263,0.0402279,-0.0217637,-1.56237,0.0363162,0.0084416,1322,365,7.58963,68.0991
105,659,7.51038,-67.9247,-0.023291,0.0395214,-0.00131949,0.0395491,-0.0233187,-1.5498,0.0366977,0.0110302,1329,365,7.51042,67.9247
112,659,7.43726,-67.7516,-0.0244706,0.0383607,-0.00188149,0.038417,-0.0245269,-1.54089,0.0366344,0.0161697,1336,365,7.43722,67.7516
119,659,7.33228,-67.5121,-0.0246218,0.0368656,-0.00197701,0.0369291,-0.0246853,-1.53869,0.0358064,0.01807,1343,365,7.33231,67.5121
126,659,7.24634,-67.2427,-0.0241317,0.035799,-0.00205802,0.0358696,-0.0242023,-1.53651,0.0348999,0.0184647,1350,365,7.24634,67.2427
133,659,7.14514,-66.9926,-0.022933,0.0351911,-0.00172745,0.0352424,-0.0229843,-1.54111,0.0338646,0.0186792,1357,365,7.14512,66.9926
140,659,7.03931,-66.7762,-0.0212697,0.0355314,-0.000857609,0.0355443,-0.0212826,-1.5557,0.0331517,0.0136665,1364,365,7.03933,66.7762
147,659,6.97766,-66.4813,-0.0196298,0.0360686,-0.000382613,0.0360712,-0.0196325,-1.56393,0.032624,0.0111062,1371,365,6.97768,66.4813
154,659,6.88171,-66.1053,-0.017958,0.0367596,-0.000112048,0.0367598,-0.0179583,-1.56875,0.0322071,0.0128681,1378,365,6.88169,66.1053
161,659,6.82092,-65.7076,-0.016148,0.036947,0.000617212,0.0369542,-0.0161552,1.55917,0.0314367,0.0150498,1385,365,6.82096,65.7076
168,659,6.76233,-65.2809,-0.0141335,0.0365193,0.00125289,0.0365503,-0.0141644,1.54608,0.030216,0.0215454,1392,365,6.76231,65.281
175,659,6.69446,-64.8876,-0.0124867,0.0358132,0.00233031,0.0359253,-0.0125989,1.5227,0.0290745,0.0438346,1399,365,6.69445,64.8876
182,659,6.50391,-64.4749,0,0,0,0,0,0,0,-1,1406,365,6.50387,64.4749
189,659,6.48755,-63.9387,0,0,0,0,0,0,0,-1,1413,365,6.48753,63.9387
196,659,2.41248,-13.4371,0,0,0,0,0,0,0,-1,1420,365,2.41243,13.4371
203,659,2.38623,-12.2163,0,0,0,0,0,0,0,-1,1427,365,2.38617,12.2163
210,659,2.20789,-13.9792,0,0,0,0,0,0,0,-1,1434,365,2.20794,13.9792
217,659,2.24121,-13.487,0,0,0,0,0,0,0,-1,1441,365,2.24116,13.487
224,659,2.3479,-15.2926,0,0,0,0,0,0,0,-1,1448,365,2.34793,15.2926
231,659,2.47974,-17.8629,0,0,0,0,0,0,0,-1,1455,365,2.47976,17.8628
238,659,3.57886,-21.1258,0,0,0,0,0,0,0,-1,1462,365,3.57889,21.1258
245,659,3.29883,-25.0283,0,0,0,0,0,0,0,-1,1469,365,3.29889,25.0283
252,659,2.81909,-24.1604,0,0,0,0,0,0,0,-1,1476,365,2.81905,24.1604
259,659,2.33069,-3.36703,0,0,0,0,0,0,0,-1,1483,365,2.33073,3.36702
266,659,3.40918,-35.2544,0,0,0,0,0,0,0,-1,1490,365,3.40913,35.2544
273,659,4.45557,-42.3683,0,0,0,0,0,0,0,-1,1497,365,4.45554,42.3683
280,659,4.87903,-41.4995,0,0,0,0,0,0,0,-1,1504,365,4.87898,41.4995
287,659,1.09851,-23.7787,0,0,0,0,0,0,0,-1,1511,365,1.09847,23.7787
294,659,0.115601,-24.0352,0,0,0,0,0,0,0,-1,1518,365,0.115612,24.0352
301,659,-1.21362,-22.6162,0,0,0,0,0,0,0,-1,1525,365,-1.21358,22.6162
308,659,-2.32605,-21.2737,0,0,0,0,0,0,0,-1,1532,365,-2.32606,21.2737
315,659,-3.69629,-19.8803,0,0,0,0,0,0,0,-1,1539,365,-3.69631,19.8803
322,659,-4.9646,-18.5258,0,0,0,0,0,0,0,-1,1546,365,-4.96464,18.5257
329,659,-7.67749,-23.0449,0,0,0,0,0,0,0,-1,1553,365,-7.67745,23.0449
336,659,-7.71436,-22.4188,0,0,0,0,0,0,0,-1,1560,365,-7.71432,22.4188
343,659,0,0,0,0,0,0,0,0,0,-1,1567,365,0,0
350,659,0,0,0,0,0,0,0,0,0,-1,1574,365,0,0
357,659,0,0,0,0,0,0,0,0,0,-1,1581,365,0,0
364,659,0,0,0,0,0,0,0,0,0,-1,1588,365,0,0
371,659,0,0,0,0,0,0,0,0,0,-1,1595,365,0,0
378,659,0,0,0,0,0,0,0,0,0,-1,1602,365,0,0
385,659,0,0,0,0,0,0,0,0,0,-1,1609,365,0,0
392,659,0,0,0,0,0,0,0,0,0,-1,1616,365,0,0
399,659,0,0,0,0,0,0,0,0,0,-1,1623,365,0,0
406,659,0,0,0,0,0,0,0,0,0,-1,1630,365,0,0
413,659,0,0,0,0,0,0,0,0,0,-1,1637,365,0,0
420,659,0,0,0,0,0,0,0,0,0,-1,1644,365,0,0
427,659,0,0,0,0,0,0,0,0,0,-1,1651,365,0,0
434,659,0,0,0,0,0,0,0,0,0,-1,1658,365,0,0
441,659,0,0,0,0,0,0,0,0,0,-1,1665,365,0,0
448,659,0,0,0,0,0,0,0,0,0,-1,1672,365,0,0
455,659,0,0,0,0,0,0,0,0,0,-1,1679,365,0,0
462,659,0,0,0,0,0,0,0,0,0,-1,1686,365,0,0
469,659,0,0,0,0,0,0,0,0,0,-1,1693,365,0,0
476,659,0,0,0,0,0,0,0,0,0,-1,1700,365,0,0
483,659,0,0,0,0,0,0,0,0,0,-1,1707,365,0,0
490,659,0,0,0,0,0,0,0,0,0,-1,1714,365,0,0
497,659,0,0,0,0,0,0,0,0,0,-1,1721,365,0,0
504,659,0,0,0,0,0,0,0,0,0,-1,1728,365,0,0
511,659,0,0,0,0,0,0,0,0,0,-1,1735,365,0,0
518,659,0,0,0,0,0,0,0,0,0,-1,1742,365,0,0
525,659,0,0,0,0,0,0,0,0,0,-1,1749,365,0,0
532,659,0,0,0,0,0,0,0,0,0,-1,1756,365,0,0
539,659,0,0,0,0,0,0,0,0,0,-1,1763,365,0,0
546,659,0,0,0,0,0,0,0,0,0,-1,1770,365,0,0
553,659,0,0,0,0,0,0,0,0,0,-1,1777,365,0,0
560,659,0,0,0,0,0,0,0,0,0,-1,1784,365,0,0
567,659,0,0,0,0,0,0,0,0,0,-1,1791,365,0,0
574,659,0,0,0,0,0,0,0,0,0,-1,1798,365,0,0
581,659,0,0,0,0,0,0,0,0,0,-1,1805,365,0,0
588,659,0,0,0,0,0,0,0,0,0,-1,1812,365,0,0
595,659,0,0,0,0,0,0,0,0,0,-1,1819,365,0,0
602,659,0,0,0,0,0,0,0,0,0,-1,1826,365,0,0
609,659,0,0,0,0,0,0,0,0,0,-1,1833,365,0,0
616,659,0,0,0,0,0,0,0,0,0,-1,1840,365,0,0
623,659,0,0,0,0,0,0,0,0,0,-1,1847,365,0,0
630,659,0,0,0,0,0,0,0,0,0,-1,1854,365,0,0
637,659,0,0,0,0,0,0,0,0,0,-1,1861,365,0,0
644,659,0,0,0,0,0,0,0,0,0,-1,1868,365,0,0
651,659,0,0,0,0,0,0,0,0,0,-1,1875,365,0,0
658,659,0,0,0,0,0,0,0,0,0,-1,1882,365,0,0
665,659,0,0,0,0,0,0,0,0,0,-1,1889,365,0,0
672,659,0,0,0,0,0,0,0,0,0,-1,1896,365,0,0
679,659,0,0,0,0,0,0,0,0,0,-1,1903,365,0,0
686,659,0,0,0,0,0,0,0,0,0,-1,1910,365,0,0
693,659,0,0,0,0,0,0,0,0,0,-1,1917,365,0,0
700,659,0,0,0,0,0,0,0,0,0,-1,1924,365,0,0
707,659,0,0,0,0,0,0,0,0,0,-1,1931,365,0,0
714,659,0,0,0,0,0,0,0,0,0,-1,1938,365,0,0
721,659,0,0,0,0,0,0,0,0,0,-1,1945,365,0,0
728,659,0,0,0,0,0,0,0,0,0,-1,1952,365,0,0
735,659,0,0,0,0,0,0,0,0,0,-1,1959,365,0,0
742,659,0,0,0,0,0,0,0,0,0,-1,1966,365,0,0
749,659,0,0,0,0,0,0,0,0,0,-1,1973,365,0,0
756,659,0,0,0,0,0,0,0,0,0,-1,1980,365,0,0
763,659,0,0,0,0,0,0,0,0,0,-1,1987,365,0,0
770,659,0,0,0,0,0,0,0,0,0,-1,1994,365,0,0
777,659,0,0,0,0,0,0,0,0,0,-1,2001,365,0,0
784,659,0,0,0,0,0,0,0,0,0,-1,2008,365,0,0
791,659,0,0,0,0,0,0,0,0,0,-1,2015,365,0,0
798,659,0,0,0,0,0,0,0,0,0,-1,2022,365,0,0
805,659,0,0,0,0,0,0,0,0,0,-1,2029,365,0,0
812,659,0,0,0,0,0,0,0,0,0,-1,2036,365,0,0
-700,652,0,0,0,0,0,0,0,0,0,-1,524,372,0,0
-693,652,0,0,0,0,0,0,0,0,0,-1,531,372,0,0
-686,652,0,0,0,0,0,0,0,0,0,-1,538,372,0,0
-679,652,0,0,0,0,0,0,0,0,0,-1,545,372,0,0
-672,652,0,0,0,0,0,0,0,0,0,-1,552,372,0,0
-665,652,0,0,0,0,0,0,0,0,0,-1,559,372,0,0
-658,652,0,0,0,0,0,0,0,0,0,-1,566,372,0,0
-651,652,0,0,0,0,0,0,0,0,0,-1,573,372,0,0
-644,652,0,0,0,0,0,0,0,0,0,-1,580,372,0,0
-637,652,0,0,0,0,0,0,0,0,0,-1,587,372,0,0
-630,652,0,0,0,0,0,0,0,0,0,-1,594,372,0,0
-623,652,0,0,0,0,0,0,0,0,0,-1,601,372,0,0
-616,652,0,0,0,0,0,0,0,0,0,-1,608,372,0,0
-609,652,0,0,0,0,0,0,0,0,0,-1,615,372,0,0
-602,652,0,0,0,0,0,0,0,0,0,-1,622,372,0,0
-595,652,0,0,0,0,0,0,0,0,0,-1,629,372,0,0
-588,652,0,0,0,0,0,0,0,0,0,-1,636,372,0,0
-581,652,0,0,0,0,0,0,0,0,0,-1,643,372,0,0
-574,652,0,0,0,0,0,0,0,0,0,-1,650,372,0,0
-567,652,0,0,0,0,0,0,0,0,0,-1,657,372,0,0
-560,652,0,0,0,0,0,0,0,0,0,-1,664,372,0,0
-553,652,0,0,0,0,0,0,0,0,0,-1,671,372,0,0
-546,652,0,0,0,0,0,0,0,0,0,-1,678,372,0,0
-539,652,0,0,0,0,0,0,0,0,0,-1,685,372,0,0
-532,652,0,0,0,0,0,0,0,0,0,-1,692,372,0,0
-525,652,0,0,0,0,0,0,0,0,0,-1,699,372,0,0
-518,652,0,0,0,0,0,0,0,0,0,-1,706,372,0,0
-511,652,0,0,0,0,0,0,0,0,0,-1,713,372,0,0
-504,652,0,0,0,0,0,0,0,0,0,-1,720,372,0,0
-497,652,0,0,0,0,0,0,0,0,0,-1,727,372,0,0
-490,652,0,0,0,0,0,0,0,0,0,-1,734,372,0,0
-483,652,0,0,0,0,0,0,0,0,0,-1,741,372,0,0
-476,652,0,0,0,0,0,0,0,0,0,-1,748,372,0,0
-469,652,0,0,0,0,0,0,0,0,0,-1,755,372,0,0
-462,652,0,0,0,0,0,0,0,0,0,-1,762,372,0,0
-455,652,0,0,0,0,0,0,0,0,0,-1,769,372,0,0
-448,652,0,0,0,0,0,0,0,0,0,-1,776,372,0,0
-441,652,0,0,0,0,0,0,0,0,0,-1,783,372,0,0
-434,652,0,0,0,0,0,0,0,0,0,-1,790,372,0,0
-427,652,0,0,0,0,0,0,0,0,0,-1,797,372,0,0
-420,652,0,0,0,0,0,0,0,0,0,-1,804,372,0,0
-413,652,0,0,0,0,0,0,0,0,0,-1,811,372,0,0
-406,652,0,0,0,0,0,0,0,0,0,-1,818,372,0,0
-399,652,0,0,0,0,0,0,0,0,0,-1,825,372,0,0
-392,652,0,0,0,0,0,0,0,0,0,-1,832,372,0,0
-385,652,0,0,0,0,0,0,0,0,0,-1,839,372,0,0
-378,652,0,0,0,0,0,0,0,0,0,-1,846,372,0,0
-371,652,0,0,0,0,0,0,0,0,0,-1,853,372,0,0
-364,652,0,0,0,0,0,0,0,0,0,-1,860,372,0,0
-357,652,0,0,0,0,0,0,0,0,0,-1,867,372,0,0
-350,652,0,0,0,0,0,0,0,0,0,-1,874,372,0,0
-343,652,0,0,0,0,0,0,0,0,0,-1,881,372,0,0
-336,652,0,0,0,0,0,0,0,0,0,-1,888,372,0,0
-329,652,0,0,0,0,0,0,0,0,0,-1,895,372,0,0
-322,652,0,0,0,0,0,0,0,0,0,-1,902,372,0,0
-315,652,0,0,0,0,0,0,0,0,0,-1,909,372,0,0
-308,652,0,0,0,0,0,0,0,0,0,-1,916,372,0,0
-301,652,0,0,0,0,0,0,0,0,0,-1,923,372,0,0
-294,652,0,0,0,0,0,0,0,0,0,-1,930,372,0,0
-287,652,0,0,0,0,0,0,0,0,0,-1,937,372,0,0
-280,652,0,0,0,0,0,0,0,0,0,-1,944,372,0,0
-273,652,0,0,0,0,0,0,0,0,0,-1,951,372,0,0
-266,652,0,0,0,0,0,0,0,0,0,-1,958,372,0,0
-259,652,0,0,0,0,0,0,0,0,0,-1,965,372,0,0
-252,652,0,0,0,0,0,0,0,0,0,-1,972,372,0,0
-245,652,0,0,0,0,0,0,0,0,0,-1,979,372,0,0
-238,652,0,0,0,0,0,0,0,0,0,-1,986,372,0,0
-231,652,8.79358,-27.1656,0,0,0,0,0,0,0,-1,993,372,8.79357,27.1656
-224,652,8.84552,-27.675,0,0,0,0,0,0,0,-1,1000,372,8.84555,27.675
-217,652,9.03113,-27.7474,0,0,0,0,0,0,0,-1,1007,372,9.0311,27.7474
-210,652,9.72803,-30.4624,0,0,0,0,0,0,0,-1,1014,372,9.72805,30.4624
-203,652,7.2677,-26.0732,0,0,0,0,0,0,0,-1,1021,372,7.26775,26.0732
-196,652,5.90686,-26.957,0,0,0,0,0,0,0,-1,1028,372,5.9068,26.957
-189,652,6.21326,-28.3035,0,0,0,0,0,0,0,-1,1035,372,6.21331,28.3035
-182,652,6.45068,-29.9377,0,0,0,0,0,0,0,-1,1042,372,6.45074,29.9377
-175,652,6.72559,-31.6948,0,0,0,0,0,0,0,-1,1049,372,6.72563,31.6948
-168,652,7.08533,-32.8669,0,0,0,0,0,0,0,-1,1056,372,7.08532,32.8669
-161,652,7.85291,-37.3545,0,0,0,0,0,0,0,-1,1063,372,7.85294,37.3545
-154,652,7.54639,-37.9586,0,0,0,0,0,0,0,-1,1070,372,7.54642,37.9586
-147,652,7.85571,-42.3712,0,0,0,0,0,0,0,-1,1077,372,7.8557,42.3712
-140,652,5.6842,-33.9781,0,0,0,0,0,0,0,-1,1084,372,5.68421,33.9781
-133,652,6.3009,-35.2887,0,0,0,0,0,0,0,-1,1091,372,6.30093,35.2887
-126,652,5.86841,-37.0981,0,0,0,0,0,0,0,-1,1098,372,5.86845,37.0981
-119,652,8.18018,-49.52,0,0,0,0,0,0,0,-1,1105,372,8.18015,49.52
-112,652,7.81982,-48.4793,0,0,0,0,0,0,0,-1,1112,372,7.81981,48.4793
-105,652,6.63855,-39.9965,0,0,0,0,0,0,0,-1,1119,372,6.63852,39.9965
-98,652,5.84302,-35.2455,0,0,0,0,0,0,0,-1,1126,372,5.84307,35.2455
-91,652,5.66296,-32.9003,0,0,0,0,0,0,0,-1,1133,372,5.66297,32.9003
-84,652,5.46057,-34.9186,0,0,0,0,0,0,0,-1,1140,372,5.46057,34.9186
-77,652,9.25439,-63.0369,0,0,0,0,0,0,0,-1,1147,372,9.25444,63.0369
-70,652,9.17932,-63.7061,0,0,0,0,0,0,0,-1,1154,372,9.17926,63.7061
-63,652,9.11731,-64.1606,0,0,0,0,0,0,0,-1,1161,372,9.11729,64.1606
-56,652,8.97864,-64.6673,0,0,0,0,0,0,0,-1,1168,372,8.97865,64.6673
-49,652,8.93811,-65.14,-0.00518888,0.0189317,-0.00468355,0.0198091,-0.00606637,-1.38559,0.0156258,0.0385541,1175,372,8.93805,65.1401
-42,652,8.83691,-65.4914,-0.00239688,0.0222984,-0.00571009,0.0235548,-0.00365326,-1.35422,0.0170519,0.0138084,1182,372,8.83692,65.4914
-35,652,8.77747,-65.8625,-0.000367762,0.0246903,-0.00635596,0.0262103,-0.00188774,-1.33606,0.0181356,0.0113927,1189,372,8.77747,65.8625
-28,652,8.71582,-66.2204,0.00117552,0.0262239,-0.00709445,0.0280937,-0.000694258,-1.3131,0.0189648,0.0088023,1196,372,8.71588,66.2204
-21,652,8.63477,-66.5782,0.00230031,0.0269913,-0.00759278,0.0291393,0.000152309,-1.2951,0.0193756,0.00861157,1203,372,8.63481,66.5782
-14,652,8.57104,-66.8802,0.0029826,0.0272906,-0.00792173,0.0296443,0.000628898,-1.28198,0.0195566,0.0107664,1210,372,8.571,66.8802
-7,652,8.50476,-67.1739,0.00308646,0.0269123,-0.00805972,0.0293826,0.000616175,-1.27339,0.0193863,0.0138442,1217,372,8.50479,67.1739
0,652,8.45081,-67.4044,0.00329829,0.0260486,-0.0075749,0.02834,0.00100695,-1.27706,0.0185668,0.0146481,1224,372,8.45078,67.4044
7,652,8.40649,-67.5623,0.00340549,0.0252198,-0.00674414,0.0271365,0.00148886,-1.29391,0.0176157,0.015575,1231,372,8.40652,67.5623
14,652,8.34436,-67.7725,0.00290159,0.0246391,-0.00571513,0.0260501,0.00149059,-1.32875,0.0168918,0.0120904,1238,372,8.34431,67.7725
21,652,8.27271,-67.981,0.00225269,0.0243338,-0.00439519,0.0251765,0.00141,-1.38137,0.0163347,0.0110337,1245,372,8.27273,67.981
28,652,8.22852,-68.1736,0.0013515,0.0244609,-0.00303397,0.0248526,0.000959815,-1.44241,0.0162579,0.0108974,1252,372,8.22855,68.1736
35,652,8.1792,-68.2814,0.000124516,0.0246796,-0.00205832,0.0248509,-4.6826e-05,-1.48774,0.0165829,0.0114629,1259,372,8.17915,68.2814
42,652,8.12451,-68.353,-0.00122185,0.0252149,-0.000978394,0.0252511,-0.00125801,-1.53385,0.0172687,0.0115786,1266,372,8.12456,68.353
49,652,8.10791,-68.4151,-0.00284397,0.0260539,6.11831e-05,0.026054,-0.0028441,1.56868,0.0183908,0.0141531,1273,372,8.10796,68.4151
56,652,8.07568,-68.453,-0.00467148,0.027024,0.000817474,0.0270451,-0.00469255,1.54503,0.0197807,0.0168823,1280,372,8.0757,68.453
63,652,7.99597,-68.5162,-0.0065314,0.02805,0.00137758,0.0281048,-0.00658619,1.53104,0.0212745,0.0213828,1287,372,7.99596,68.5162
70,652,7.90112,-68.4369,-0.00831017,0.0289475,0.00159329,0.0290155,-0.00837818,1.52814,0.0226587,0.0181319,1294,372,7.90111,68.4369
77,652,7.83813,-68.4308,-0.0100888,0.0294606,0.00150352,0.0295176,-0.0101458,1.53285,0.0237927,0.0164489,1301,372,7.8382,68.4309
84,652,7.82825,-68.4196,-0.0116762,0.0297325,0.00116464,0.0297652,-0.011709,1.5427,0.02469,0.0135284,1308,372,7.82831,68.4195
91,652,7.75537,-68.3734,-0.0131125,0.0294408,0.00059541,0.0294492,-0.0131208,1.55681,0.0251732,0.0159322,1315,372,7.7554,68.3734
98,652,7.7124,-68.2031,-0.0141627,0.0290469,0.000322986,0.0290493,-0.0141651,1.56332,0.0254384,0.0130132,1322,372,7.71245,68.2031
105,652,7.65491,-68.0197,-0.0151085,0.0284615,-0.000161132,0.0284621,-0.0151091,-1.5671,0.0255466,0.0120374,1329,372,7.65493,68.0198
112,652,7.59143,-67.8573,-0.0158071,0.0275247,-0.000527524,0.0275311,-0.0158135,-1.55862,0.025328,0.0101314,1336,372,7.59142,67.8573
119,652,7.5365,-67.6432,-0.0158473,0.02616,-0.000571265,0.0261677,-0.0158551,-1.5572,0.0245042,0.0103385,1343,372,7.53645,67.6432
126,652,7.46362,-67.3835,-0.0155139,0.0251699,-0.000545776,0.0251772,-0.0155212,-1.55738,0.0237167,0.013055,1350,372,7.46367,67.3835
133,652,7.38281,-67.1296,-0.0146838,0.0245401,-0.000179039,0.0245409,-0.0146846,-1.56623,0.0228839,0.0136521,1357,372,7.38278,67.1296
140,652,7.32068,-66.8601,-0.0134544,0.0247334,0.000689906,0.0247458,-0.0134669,1.55274,0.0223802,0.00995138,1364,372,7.32073,66.8601
147,652,7.27991,-66.5534,-0.0123203,0.0252413,0.00118299,0.0252785,-0.0123575,1.53934,0.0221519,0.00953814,1371,372,7.27996,66.5534
154,652,7.22363,-66.2043,-0.0112903,0.0259351,0.00148094,0.0259939,-0.0113491,1.5311,0.0221057,0.0094483,1378,372,7.2236,66.2042
161,652,7.14734,-65.8257,-0.0103656,0.02633,0.00211932,0.026452,-0.0104876,1.5133,0.0219809,0.0115449,1385,372,7.14732,65.8258
168,652,7.06458,-65.4126,-0.00941833,0.0262733,0.00266405,0.026471,-0.00961609,1.4967,0.0215791,0.0136861,1392,372,7.06463,65.4126
175,652,6.99121,-64.98,-0.00878461,0.026139,0.00339601,0.0264661,-0.00911178,1.47475,0.0213399,0.0139404,1399,372,6.99118,64.98
182,652,6.90918,-64.575,-0.00816026,0.0256089,0.00461431,0.0262281,-0.00877942,1.43741,0.0210318,0.0201663,1406,372,6.90915,64.5749
189,652,6.86963,-64.1281,-0.00826775,0.0246482,0.0052396,0.0254621,-0.00908167,1.41669,0.0206778,0.0324068,1413,372,6.86965,64.1282
196,652,6.76941,-63.6536,0,0,0,0,0,0,0,-1,1420,372,6.76941,63.6536
203,652,6.70728,-63.1274,0,0,0,0,0,0,0,-1,1427,372,6.70726,63.1274
210,652,6.72388,-62.4525,0,0,0,0,0,0,0,-1,1434,372,6.72387,62.4525
217,652,6.58093,-61.7512,0,0,0,0,0,0,0,-1,1441,372,6.58095,61.7512
224,652,3.63794,-31.2791,0,0,0,0,0,0,0,-1,1448,372,3.63799,31.2791
231,652,3.83936,-30.4812,0,0,0,0,0,0,0,-1,1455,372,3.8393,30.4812
238,652,4.42358,-36.4103,0,0,0,0,0,0,0,-1,1462,372,4.4236,36.4103
245,652,4.53296,-41.8512,0,0,0,0,0,0,0,-1,1469,372,4.5329,41.8512
252,652,5.00793,-47.7065,0,0,0,0,0,0,0,-1,1476,372,5.00791,47.7064
259,652,3.44922,-31.2655,0,0,0,0,0,0,0,-1,1483,372,3.44921,31.2655
266,652,5.5387,-50.3915,0,0,0,0,0,0,0,-1,1490,372,5.53875,50.3915
273,652,5.62329,-56.847,0,0,0,0,0,0,0,-1,1497,372,5.62332,56.847
280,652,4.05066,-24.6993,0,0,0,0,0,0,0,-1,1504,372,4.05066,24.6993
287,652,3.0979,-23.6951,0,0,0,0,0,0,0,-1,1511,372,3.09796,23.6951
294,652,2.06946,-24.1711,0,0,0,0,0,0,0,-1,1518,372,2.0694,24.1711
301,652,0.770264,-23.0697,0,0,0,0,0,0,0,-1,1525,372,0.770217,23.0697
308,652,-0.706299,-22.1083,0,0,0,0,0,0,0,-1,1532,372,-0.706291,22.1083
315,652,-1.65198,-21.8662,0,0,0,0,0,0,0,-1,1539,372,-1.65204,21.8662
322,652,-2.66101,-21.728,0,0,0,0,0,0,0,-1,1546,372,-2.66097,21.728
329,652,-7.12329,-21.7065,0,0,0,0,0,0,0,-1,1553,372,-7.12334,21.7065
336,652,-3.56519,-22.3688,0,0,0,0,0,0,0,-1,1560,372,-3.56517,22.3688
343,652,-3.58069,-21.9185,0,0,0,0,0,0,0,-1,1567,372,-3.58069,21.9185
350,652,5.28394,-25.6715,0,0,0,0,0,0,0,-1,1574,372,5.28393,25.6715
357,652,0,0,0,0,0,0,0,0,0,-1,1581,372,0,0
364,652,0,0,0,0,0,0,0,0,0,-1,1588,372,0,0
371,652,0,0,0,0,0,0,0,0,0,-1,1595,372,0,0
378,652,0,0,0,0,0,0,0,0,0,-1,1602,372,0,0
385,652,0,0,0,0,0,0,0,0,0,-1,1609,372,0,0
392,652,0,0,0,0,0,0,0,0,0,-1,1616,372,0,0
399,652,0,0,0,0,0,0,0,0,0,-1,1623,372,0,0
406,652,0,0,0,0,0,0,0,0,0,-1,1630,372,0,0
413,652,0,0,0,0,0,0,0,0,0,-1,1637,372,0,0
420,652,0,0,0,0,0,0,0,0,0,-1,1644,372,0,0
427,652,0,0,0,0,0,0,0,0,0,-1,1651,372,0,0
434,652,0,0,0,0,0,0,0,0,0,-1,1658,372,0,0
441,652,0,0,0,0,0,0,0,0,0,-1,1665,372,0,0
448,652,0,0,0,0,0,0,0,0,0,-1,1672,372,0,0
455,652,0,0,0,0,0,0,0,0,0,-1,1679,372,0,0
462,652,0,0,0,0,0,0,0,0,0,-1,1686,372,0,0
469,652,0,0,0,0,0,0,0,0,0,-1,1693,372,0,0
476,652,0,0,0,0,0,0,0,0,0,-1,1700,372,0,0
483,652,0,0,0,0,0,0,0,0,0,-1,1707,372,0,0
490,652,0,0,0,0,0,0,0,0,0,-1,1714,372,0,0
497,652,0,0,0,0,0,0,0,0,0,-1,1721,372,0,0
504,652,0,0,0,0,0,0,0,0,0,-1,1728,372,0,0
511,652,0,0,0,0,0,0,0,0,0,-1,1735,372,0,0
518,652,0,0,0,0,0,0,0,0,0,-1,1742,372,0,0
525,652,0,0,0,0,0,0,0,0,0,-1,1749,372,0,0
532,652,0,0,0,0,0,0,0,0,0,-1,1756,372,0,0
539,652,0,0,0,0,0,0,0,0,0,-1,1763,372,0,0
546,652,0,0,0,0,0,0,0,0,0,-1,1770,372,0,0
553,652,0,0,0,0,0,0,0,0,0,-1,1777,372,0,0
560,652,0,0,0,0,0,0,0,0,0,-1,1784,372,0,0
567,652,0,0,0,0,0,0,0,0,0,-1,1791,372,0,0
574,652,0,0,0,0,0,0,0,0,0,-1,1798,372,0,0
581,652,0,0,0,0,0,0,0,0,0,-1,1805,372,0,0
588,652,0,0,0,0,0,0,0,0,0,-1,1812,372,0,0
595,652,0,0,0,0,0,0,0,0,0,-1,1819,372,0,0
602,652,0,0,0,0,0,0,0,0,0,-1,1826,372,0,0
609,652,0,0,0,0,0,0,0,0,0,-1,1833,372,0,0
616,652,0,0,0,0,0,0,0,0,0,-1,1840,372,0,0
623,652,0,0,0,0,0,0,0,0,0,-1,1847,372,0,0
630,652,0,0,0,0,0,0,0,0,0,-1,1854,372,0,0
637,652,0,0,0,0,0,0,0,0,0,-1,1861,372,0,0
644,652,0,0,0,0,0,0,0,0,0,-1,1868,372,0,0
651,652,0,0,0,0,0,0,0,0,0,-1,1875,372,0,0
658,652,0,0,0,0,0,0,0,0,0,-1,1882,372,0,0
665,652,0,0,0,0,0,0,0,0,0,-1,1889,372,0,0
672,652,0,0,0,0,0,0,0,0,0,-1,1896,372,0,0
679,652,0,0,0,0,0,0,0,0,0,-1,1903,372,0,0
686,652,0,0,0,0,0,0,0,0,0,-1,1910,372,0,0
693,652,0,0,0,0,0,0,0,0,0,-1,1917,372,0,0
700,652,0,0,0,0,0,0,0,0,0,-1,1924,372,0,0
707,652,0,0,0,0,0,0,0,0,0,-1,1931,372,0,0
714,652,0,0,0,0,0,0,0,0,0,-1,1938,372,0,0
721,652,0,0,0,0,0,0,0,0,0,-1,1945,372,0,0
728,652,0,0,0,0,0,0,0,0,0,-1,1952,372,0,0
735,652,0,0,0,0,0,0,0,0,0,-1,1959,372,0,0
742,652,0,0,0,0,0,0,0,0,0,-1,1966,372,0,0
749,652,0,0,0,0,0,0,0,0,0,-1,1973,372,0,0
756,652,0,0,0,0,0,0,0,0,0,-1,1980,372,0,0
763,652,0,0,0,0,0,0,0,0,0,-1,1987,372,0,0
770,652,0,0,0,0,0,0,0,0,0,-1,1994,372,0,0
777,652,0,0,0,0,0,0,0,0,0,-1,2001,372,0,0
784,652,0,0,0,0,0,0,0,0,0,-1,2008,372,0,0
791,652,0,0,0,0,0,0,0,0,0,-1,2015,372,0,0
798,652,0,0,0,0,0,0,0,0,0,-1,2022,372,0,0
805,652,0,0,0,0,0,0,0,0,0,-1,2029,372,0,0
812,652,0,0,0,0,0,0,0,0,0,-1,2036,372,0,0
-700,645,0,0,0,0,0,0,0,0,0,-1,524,379,0,0
-693,645,0,0,0,0,0,0,0,0,0,-1,531,379,0,0
-686,645,0,0,0,0,0,0,0,0,0,-1,538,379,0,0
-679,645,0,0,0,0,0,0,0,0,0,-1,545,379,0,0
-672,645,0,0,0,0,0,0,0,0,0,-1,552,379,0,0
-665,645,0,0,0,0,0,0,0,0,0,-1,559,379,0,0
-658,645,0,0,0,0,0,0,0,0,0,-1,566,379,0,0
-651,645,0,0,0,0,0,0,0,0,0,-1,573,379,0,0
-644,645,0,0,0,0,0,0,0,0,0,-1,580,379,0,0
-637,645,0,0,0,0,0,0,0,0,0,-1,587,379,0,0
-630,645,0,0,0,0,0,0,0,0,0,-1,594,379,0,0
-623,645,0,0,0,0,0,0,0,0,0,-1,601,379,0,0
-616,645,0,0,0,0,0,0,0,0,0,-1,608,379,0,0
-609,645,0,0,0,0,0,0,0,0,0,-1,615,379,0,0
-602,645,0,0,0,0,0,0,0,0,0,-1,622,379,0,0
-595,645,0,0,0,0,0,0,0,0,0,-1,629,379,0,0
-588,645,0,0,0,0,0,0,0,0,0,-1,636,379,0,0
-581,645,0,0,0,0,0,0,0,0,0,-1,643,379,0,0
-574,645,0,0,0,0,0,0,0,0,0,-1,650,379,0,0
-567,645,0,0,0,0,0,0,0,0,0,-1,657,379,0,0
-560,645,0,0,0,0,0,0,0,0,0,-1,664,379,0,0
-553,645,0,0,0,0,0,0,0,0,0,-1,671,379,0,0
-546,645,0,0,0,0,0,0,0,0,0,-1,678,379,0,0
-539,645,0,0,0,0,0,0,0,0,0,-1,685,379,0,0
-532,645,0,0,0,0,0,0,0,0,0,-1,692,379,0,0
-525,645,0,0,0,0,0,0,0,0,0,-1,699,379,0,0
-518,645,0,0,0,0,0,0,0,0,0,-1,706,379,0,0
-511,645,0,0,0,0,0,0,0,0,0,-1,713,379,0,0
-504,645,0,0,0,0,0,0,0,0,0,-1,720,379,0,0
-497,645,0,0,0,0,0,0,0,0,0,-1,727,379,0,0
-490,645,0,0,0,0,0,0,0,0,0,-1,734,379,0,0
-483,645,0,0,0,0,0,0,0,0,0,-1,741,379,0,0
-476,645,0,0,0,0,0,0,0,0,0,-1,748,379,0,0
-469,645,0,0,0,0,0,0,0,0,0,-1,755,379,0,0
-462,645,0,0,0,0,0,0,0,0,0,-1,762,379,0,0
-455,645,0,0,0,0,0,0,0,0,0,-1,769,379,0,0
-448,645,0,0,0,0,0,0,0,0,0,-1,776,379,0,0
-441,645,0,0,0,0,0,0,0,0,0,-1,783,379,0,0
-434,645,0,0,0,0,0,0,0,0,0,-1,790,379,0,0
-427,645,0,0,0,0,0,0,0,0,0,-1,797,379,0,0
-420,645,0,0,0,0,0,0,0,0,0,-1,804,379,0,0
-413,645,0,0,0,0,0,0,0,0,0,-1,811,379,0,0
-406,645,0,0,0,0,0,0,0,0,0,-1,818,379,0,0
-399,645,0,0,0,0,0,0,0,0,0,-1,825,379,0,0
-392,645,0,0,0,0,0,0,0,0,0,-1,832,379,0,0
-385,645,0,0,0,0,0,0,0,0,0,-1,839,379,0,0
-378,645,0,0,0,0,0,0,0,0,0,-1,846,379,0,0
-371,645,0,0,0,0,0,0,0,0,0,-1,853,379,0,0
-364,645,0,0,0,0,0,0,0,0,0,-1,860,379,0,0
-357,645,0,0,0,0,0,0,0,0,0,-1,867,379,0,0
-350,645,0,0,0,0,0,0,0,0,0,-1,874,379,0,0
-343,645,0,0,0,0,0,0,0,0,0,-1,881,379,0,0
-336,645,0,0,0,0,0,0,0,0,0,-1,888,379,0,0
-329,645,0,0,0,0,0,0,0,0,0,-1,895,379,0,0
-322,645,0,0,0,0,0,0,0,0,0,-1,902,379,0,0
-315,645,0,0,0,0,0,0,0,0,0,-1,909,379,0,0
-308,645,0,0,0,0,0,0,0,0,0,-1,916,379,0,0
-301,645,0,0,0,0,0,0,0,0,0,-1,923,379,0,0
-294,645,0,0,0,0,0,0,0,0,0,-1,930,379,0,0
-287,645,0,0,0,0,0,0,0,0,0,-1,937,379,0,0
-280,645,0,0,0,0,0,0,0,0,0,-1,944,379,0,0
-273,645,0,0,0,0,0,0,0,0,0,-1,951,379,0,0
-266,645,0,0,0,0,0,0,0,0,0,-1,958,379,0,0
-259,645,0,0,0,0,0,0,0,0,0,-1,965,379,0,0
-252,645,2.95691,-26.9133,0,0,0,0,0,0,0,-1,972,379,2.9569,26.9133
-245,645,2.73169,-27.0215,0,0,0,0,0,0,0,-1,979,379,2.73172,27.0215
-238,645,2.6665,-26.9464,0,0,0,0,0,0,0,-1,986,379,2.66649,26.9464
-231,645,7.26807,-29.1054,0,0,0,0,0,0,0,-1,993,379,7.26806,29.1054
-224,645,7.69073,-29.5737,0,0,0,0,0,0,0,-1,1000,379,7.69071,29.5737
-217,645,8.65485,-33.4136,0,0,0,0,0,0,0,-1,1007,379,8.65487,33.4136
-210,645,9.21594,-32.5157,0,0,0,0,0,0,0,-1,1014,379,9.21591,32.5156
-203,645,9.77698,-31.6176,0,0,0,0,0,0,0,-1,1021,379,9.77696,31.6177
-196,645,10.2664,-29.7741,0,0,0,0,0,0,0,-1,1028,379,10.2664,29.7741
-189,645,5.88062,-28.2191,0,0,0,0,0,0,0,-1,1035,379,5.88062,28.2191
-182,645,6.34167,-29.2525,0,0,0,0,0,0,0,-1,1042,379,6.3417,29.2525
-175,645,6.36462,-35.5586,0,0,0,0,0,0,0,-1,1049,379,6.3646,35.5586
-168,645,7.19116,-39.5785,0,0,0,0,0,0,0,-1,1056,379,7.19115,39.5785
-161,645,7.22083,-37.6093,0,0,0,0,0,0,0,-1,1063,379,7.22085,37.6094
-154,645,7.42102,-41.6806,0,0,0,0,0,0,0,-1,1070,379,7.42105,41.6806
-147,645,8.89526,-50.6488,0,0,0,0,0,0,0,-1,1077,379,8.89521,50.6488
-140,645,9.32813,-57.4444,0,0,0,0,0,0,0,-1,1084,379,9.3281,57.4444
-133,645,9.41028,-58.3951,0,0,0,0,0,0,0,-1,1091,379,9.41029,58.3951
-126,645,9.47058,-58.9143,0,0,0,0,0,0,0,-1,1098,379,9.47059,58.9143
-119,645,9.30542,-59.4696,0,0,0,0,0,0,0,-1,1105,379,9.30545,59.4696
-112,645,9.0946,-60.4197,0,0,0,0,0,0,0,-1,1112,379,9.09466,60.4197
-105,645,9.05078,-61.0974,0,0,0,0,0,0,0,-1,1119,379,9.05076,61.0974
-98,645,8.96692,-61.6941,0,0,0,0,0,0,0,-1,1126,379,8.96687,61.6941
-91,645,8.84949,-62.2805,0,0,0,0,0,0,0,-1,1133,379,8.84949,62.2804
-84,645,8.7915,-62.8343,0,0,0,0,0,0,0,-1,1140,379,8.79149,62.8343
-77,645,8.8291,-63.2924,-0.00807939,0.00651546,-0.00291589,0.00707646,-0.00864039,-1.38073,0.00908909,0.0446884,1147,379,8.82905,63.2924
-70,645,8.71277,-63.7742,-0.00813657,0.00715849,-0.00258417,0.0075833,-0.00856138,-1.40786,0.00932684,0.0152835,1154,379,8.71282,63.7742
-63,645,8.66748,-64.2168,-0.00800624,0.00852764,-0.00258988,0.00892383,-0.00840243,-1.419,0.0100048,0.0116934,1161,379,8.66746,64.2168
-56,645,8.58862,-64.6517,-0.00646612,0.0104162,-0.00282892,0.0108776,-0.00692754,-1.40911,0.0103638,0.0140592,1168,379,8.58866,64.6517
-49,645,8.54077,-65.1067,-0.00437198,0.0127587,-0.00324488,0.0133528,-0.00496602,-1.38973,0.0109396,0.0116025,1175,379,8.54073,65.1067
-42,645,8.47192,-65.5077,-0.0025721,0.0146947,-0.00373009,0.015466,-0.00334344,-1.36688,0.0115871,0.0113504,1182,379,8.4719,65.5077
-35,645,8.42627,-65.9211,-0.00117306,0.0161394,-0.00402218,0.0170282,-0.0020619,-1.35331,0.0120981,0.0118533,1189,379,8.42621,65.9211
-28,645,8.37366,-66.3038,-7.54905e-05,0.0173859,-0.00419052,0.0183395,-0.00102909,-1.34705,0.0125834,0.00936339,1196,379,8.37364,66.3038
-21,645,8.31995,-66.6221,0.000822552,0.0181695,-0.00430736,0.0191802,-0.000188109,-1.34033,0.01285,0.0106067,1203,379,8.31992,66.6221
-14,645,8.2804,-66.9482,0.00147556,0.0185955,-0.00441497,0.019667,0.000404068,-1.3327,0.0129788,0.0106876,1210,379,8.28039,66.9482
-7,645,8.2594,-67.2427,0.00177785,0.0184977,-0.00443379,0.0196007,0.000674848,-1.32698,0.0128481,0.0146702,1217,379,8.25944,67.2427
0,645,8.24329,-67.4283,0.00196049,0.0180513,-0.0041977,0.0190805,0.000931242,-1.33035,0.0124216,0.0276648,1224,379,8.24327,67.4282
7,645,8.1825,-67.6428,0.00195954,0.017556,-0.00381338,0.0184385,0.00107709,-1.34339,0.0119495,0.0185349,1231,379,8.18247,67.6428
14,645,8.13159,-67.8342,0.00161502,0.0171998,-0.00322823,0.017842,0.00097279,-1.37442,0.011584,0.0158257,1238,379,8.13163,67.8342
21,645,8.08569,-68.0426,0.00106986,0.0170671,-0.00241795,0.0174245,0.000712377,-1.42401,0.0113863,0.010546,1245,379,8.08575,68.0426
28,645,8.08203,-68.213,0.000294576,0.0172548,-0.00158754,0.0174021,0.000147254,-1.47826,0.0115526,0.00985675,1252,379,8.08202,68.213
35,645,8.05994,-68.3385,-0.000705663,0.0175561,-0.00104513,0.0176157,-0.000765282,-1.51381,0.0120071,0.00995379,1259,379,8.05988,68.3385
42,645,8.04639,-68.4331,-0.00175499,0.0179447,-0.00038997,0.0179524,-0.00176271,-1.55101,0.012597,0.00923643,1266,379,8.04641,68.4331
49,645,8.06848,-68.4801,-0.00295579,0.0186155,0.000243182,0.0186182,-0.00295853,1.55952,0.0135068,0.0128414,1273,379,8.06848,68.4801
56,645,8.05396,-68.5098,-0.00420725,0.0193693,0.000712573,0.0193908,-0.00422877,1.54061,0.0145432,0.0134999,1280,379,8.05398,68.5098
63,645,7.99316,-68.5649,-0.00534488,0.0201423,0.00109133,0.0201889,-0.00539153,1.52808,0.0155708,0.0131744,1287,379,7.99321,68.5649
70,645,7.92615,-68.5542,-0.00629086,0.0207767,0.00127778,0.0208369,-0.00635104,1.52373,0.0164228,0.0168388,1294,379,7.92613,68.5542
77,645,7.92993,-68.5213,-0.00710309,0.0209873,0.00121334,0.0210396,-0.0071554,1.52771,0.0169235,0.0192341,1301,379,7.92998,68.5213
84,645,7.91003,-68.4488,-0.00766599,0.020938,0.000976606,0.0209713,-0.00769929,1.53671,0.017134,0.0141641,1308,379,7.91004,68.4488
91,645,7.83923,-68.4113,-0.00815176,0.0204207,0.000635746,0.0204348,-0.0081659,1.54856,0.0170115,0.0166537,1315,379,7.83921,68.4113
98,645,7.82227,-68.2545,-0.00841867,0.0198607,0.000510276,0.0198699,-0.00842788,1.55276,0.016777,0.0147607,1322,379,7.82232,68.2545
105,645,7.7948,-68.0683,-0.00851468,0.0191903,0.00033797,0.0191944,-0.0085188,1.5586,0.0163912,0.0107473,1329,379,7.79486,68.0683
112,645,7.75391,-67.9039,-0.0085433,0.0182915,0.000243819,0.0182937,-0.00854552,1.56171,0.0158327,0.00935581,1336,379,7.75385,67.9039
119,645,7.73669,-67.6985,-0.00839187,0.0170197,0.000241291,0.017022,-0.00839416,1.5613,0.0149532,0.009219,1343,379,7.73672,67.6985
126,645,7.69336,-67.4478,-0.00809017,0.0160633,0.000261782,0.0160661,-0.00809301,1.55996,0.0141992,0.0122617,1350,379,7.69339,67.4478
133,645,7.66431,-67.1716,-0.00757844,0.0154407,0.000562467,0.0154544,-0.00759218,1.54638,0.0135616,0.0133597,1357,379,7.66435,67.1716
140,645,7.62415,-66.9071,-0.00688589,0.0155374,0.0012823,0.0156105,-0.00695898,1.51386,0.0133458,0.0122681,1364,379,7.62412,66.9071
147,645,7.57849,-66.5948,-0.00637654,0.0161269,0.00166514,0.0162494,-0.00649908,1.49733,0.01353,0.0141186,1371,379,7.57845,66.5948
154,645,7.56079,-66.2557,-0.00603067,0.01687,0.00189387,0.0170255,-0.00618623,1.48884,0.0138798,0.0132138,1378,379,7.56082,66.2557
161,645,7.49866,-65.8909,-0.00578818,0.0175106,0.00233112,0.0177415,-0.00601912,1.47205,0.0142639,0.0151171,1385,379,7.49863,65.8909
168,645,7.43909,-65.4961,-0.00556097,0.0178433,0.00268743,0.018148,-0.00586559,1.45793,0.0144561,0.0182124,1392,379,7.43906,65.4961
175,645,7.42651,-65.0722,-0.0055337,0.0181742,0.00312173,0.0185784,-0.00593786,1.44205,0.0147683,0.0156675,1399,379,7.42653,65.0722
182,645,7.3501,-64.6341,-0.00554231,0.0182804,0.0038222,0.0188786,-0.00614053,1.41554,0.0150559,0.0115931,1406,379,7.35012,64.6341
189,645,7.29236,-64.1424,-0.00577356,0.0179048,0.00432994,0.0186718,-0.00654051,1.39549,0.0151076,0.0121547,1413,379,7.29235,64.1424
196,645,7.21509,-63.6862,-0.00574542,0.0171184,0.00520701,0.0182484,-0.00687541,1.3571,0.0149924,0.0116822,1420,379,7.21504,63.6862
203,645,7.13318,-63.1657,-0.00608397,0.0159778,0.00553397,0.0172882,-0.00739429,1.3383,0.0146271,0.0117258,1427,379,7.13324,63.1657
210,645,7.10547,-62.5141,-0.00629956,0.0145752,0.00588401,0.0161195,-0.00784386,1.31413,0.0141076,0.0221005,1434,379,7.10548,62.5141
217,645,7.0896,-61.8734,0,0,0,0,0,0,0,-1,1441,379,7.08963,61.8734
224,645,6.94531,-61.5388,0,0,0,0,0,0,0,-1,1448,379,6.94533,61.5388
231,645,6.81018,-60.8929,0,0,0,0,0,0,0,-1,1455,379,6.81019,60.8929
238,645,6.703,-60.2398,0,0,0,0,0,0,0,-1,1462,379,6.70295,60.2398
245,645,6.71667,-59.395,0,0,0,0,0,0,0,-1,1469,379,6.71662,59.395
252,645,6.27942,-52.6305,0,0,0,0,0,0,0,-1,1476,379,6.27947,52.6305
259,645,6.5321,-54.0518,0,0,0,0,0,0,0,-1,1483,379,6.53211,54.0518
266,645,6.20532,-57.4207,0,0,0,0,0,0,0,-1,1490,379,6.20534,57.4207
273,645,6.30908,-56.9989,0,0,0,0,0,0,0,-1,1497,379,6.30912,56.9989
280,645,6.41284,-56.5771,0,0,0,0,0,0,0,-1,1504,379,6.4129,56.5771
287,645,6.59729,-55.0779,0,0,0,0,0,0,0,-1,1511,379,6.59723,55.0779
294,645,3.76428,-22.9539,0,0,0,0,0,0,0,-1,1518,379,3.7643,22.9539
301,645,2.74219,-23.503,0,0,0,0,0,0,0,-1,1525,379,2.74222,23.503
308,645,1.82227,-23.9479,0,0,0,0,0,0,0,-1,1532,379,1.82227,23.9479
315,645,0.990356,-24.8735,0,0,0,0,0,0,0,-1,1539,379,0.990376,24.8735
322,645,-0.256714,-24.7577,0,0,0,0,0,0,0,-1,1546,379,-0.256653,24.7577
329,645,-4.45581,-22.707,0,0,0,0,0,0,0,-1,1553,379,-4.45579,22.707
336,645,-5.83154,-22.8404,0,0,0,0,0,0,0,-1,1560,379,-5.83149,22.8404
343,645,4.03186,-38.0623,0,0,0,0,0,0,0,-1,1567,379,4.03187,38.0623
350,645,4.76404,-22.1987,0,0,0,0,0,0,0,-1,1574,379,4.76399,22.1987
357,645,4.61316,-21.967,0,0,0,0,0,0,0,-1,1581,379,4.61316,21.967
364,645,-0.0794678,-3.22021,0,0,0,0,0,0,0,-1,1588,379,-0.0794987,3.22021
371,645,0,0,0,0,0,0,0,0,0,-1,1595,379,0,0
378,645,0,0,0,0,0,0,0,0,0,-1,1602,379,0,0
385,645,0,0,0,0,0,0,0,0,0,-1,1609,379,0,0
392,645,0,0,0,0,0,0,0,0,0,-1,1616,379,0,0
399,645,0,0,0,0,0,0,0,0,0,-1,1623,379,0,0
406,645,0,0,0,0,0,0,0,0,0,-1,1630,379,0,0
413,645,0,0,0,0,0,0,0,0,0,-1,1637,379,0,0
420,645,0,0,0,0,0,0,0,0,0,-1,1644,379,0,0
427,645,0,0,0,0,0,0,0,0,0,-1,1651,379,0,0
434,645,0,0,0,0,0,0,0,0,0,-1,1658,379,0,0
441,645,0,0,0,0,0,0,0,0,0,-1,1665,379,0,0
448,645,0,0,0,0,0,0,0,0,0,-1,1672,379,0,0
455,645,0,0,0,0,0,0,0,0,0,-1,1679,379,0,0
462,645,0,0,0,0,0,0,0,0,0,-1,1686,379,0,0
469,645,0,0,0,0,0,0,0,0,0,-1,1693,379,0,0
476,645,0,0,0,0,0,0,0,0,0,-1,1700,379,0,0
483,645,0,0,0,0,0,0,0,0,0,-1,1707,379,0,0
490,645,0,0,0,0,0,0,0,0,0,-1,1714,379,0,0
497,645,0,0,0,0,0,0,0,0,0,-1,1721,379,0,0
504,645,0,0,0,0,0,0,0,0,0,-1,1728,379,0,0
511,645,0,0,0,0,0,0,0,0,0,-1,1735,379,0,0
518,645,0,0,0,0,0,0,0,0,0,-1,1742,379,0,0
525,645,0,0,0,0,0,0,0,0,0,-1,1749,379,0,0
532,645,0,0,0,0,0,0,0,0,0,-1,1756,379,0,0
539,645,0,0,0,0,0,0,0,0,0,-1,1763,379,0,0
546,645,0,0,0,0,0,0,0,0,0,-1,1770,379,0,0
553,645,0,0,0,0,0,0,0,0,0,-1,1777,379,0,0
560,645,0,0,0,0,0,0,0,0,0,-1,1784,379,0,0
567,645,0,0,0,0,0,0,0,0,0,-1,1791,379,0,0
574,645,0,0,0,0,0,0,0,0,0,-1,1798,379,0,0
581,645,0,0,0,0,0,0,0,0,0,-1,1805,379,0,0
588,645,0,0,0,0,0,0,0,0,0,-1,1812,379,0,0
595,645,0,0,0,0,0,0,0,0,0,-1,1819,379,0,0
602,645,0,0,0,0,0,0,0,0,0,-1,1826,379,0,0
609,645,0,0,0,0,0,0,0,0,0,-1,1833,379,0,0
616,645,0,0,0,0,0,0,0,0,0,-1,1840,379,0,0
623,645,0,0,0,0,0,0,0,0,0,-1,1847,379,0,0
630,645,0,0,0,0,0,0,0,0,0,-1,1854,379,0,0
637,645,0,0,0,0,0,0,0,0,0,-1,1861,379,0,0
644,645,0,0,0,0,0,0,0,0,0,-1,1868,379,0,0
651,645,0,0,0,0,0,0,0,0,0,-1,1875,379,0,0
658,645,0,0,0,0,0,0,0,0,0,-1,1882,379,0,0
665,645,0,0,0,0,0,0,0,0,0,-1,1889,379,0,0
672,645,0,0,0,0,0,0,0,0,0,-1,1896,379,0,0
679,645,0,0,0,0,0,0,0,0,0,-1,1903,379,0,0
686,645,0,0,0,0,0,0,0,0,0,-1,1910,379,0,0
693,645,0,0,0,0,0,0,0,0,0,-1,1917,379,0,0
700,645,0,0,0,0,0,0,0,0,0,-1,1924,379,0,0
707,645,0,0,0,0,0,0,0,0,0,-1,1931,379,0,0
714,645,0,0,0,0,0,0,0,0,0,-1,1938,379,0,0
721,645,0,0,0,0,0,0,0,0,0,-1,1945,379,0,0
728,645,0,0,0,0,0,0,0,0,0,-1,1952,379,0,0
735,645,0,0,0,0,0,0,0,0,0,-1,1959,379,0,0
742,645,0,0,0,0,0,0,0,0,0,-1,1966,379,0,0
749,645,0,0,0,0,0,0,0,0,0,-1,1973,379,0,0
756,645,0,0,0,0,0,0,0,0,0,-1,1980,379,0,0
763,645,0,0,0,0,0,0,0,0,0,-1,1987,379,0,0
770,645,0,0,0,0,0,0,0,0,0,-1,1994,379,0,0
777,645,0,0,0,0,0,0,0,0,0,-1,2001,379,0,0
784,645,0,0,0,0,0,0,0,0,0,-1,2008,379,0,0
791,645,0,0,0,0,0,0,0,0,0,-1,2015,379,0,0
798,645,0,0,0,0,0,0,0,0,0,-1,2022,379,0,0
805,645,0,0,0,0,0,0,0,0,0,-1,2029,379,0,0
812,645,0,0,0,0,0,0,0,0,0,-1,2036,379,0,0
-700,638,0,0,0,0,0,0,0,0,0,-1,524,386,0,0
-693,638,0,0,0,0,0,0,0,0,0,-1,531,386,0,0
-686,638,0,0,0,0,0,0,0,0,0,-1,538,386,0,0
-679,638,0,0,0,0,0,0,0,0,0,-1,545,386,0,0
-672,638,0,0,0,0,0,0,0,0,0,-1,552,386,0,0
-665,638,0,0,0,0,0,0,0,0,0,-1,559,386,0,0
-658,638,0,0,0,0,0,0,0,0,0,-1,566,386,0,0
-651,638,0,0,0,0,0,0,0,0,0,-1,573,386,0,0
-644,638,0,0,0,0,0,0,0,0,0,-1,580,386,0,0
-637,638,0,0,0,0,0,0,0,0,0,-1,587,386,0,0
-630,638,0,0,0,0,0,0,0,0,0,-1,594,386,0,0
-623,638,0,0,0,0,0,0,0,0,0,-1,601,386,0,0
-616,638,0,0,0,0,0,0,0,0,0,-1,608,386,0,0
-609,638,0,0,0,0,0,0,0,0,0,-1,615,386,0,0
-602,638,0,0,0,0,0,0,0,0,0,-1,622,386,0,0
-595,638,0,0,0,0,0,0,0,0,0,-1,629,386,0,0
-588,638,0,0,0,0,0,0,0,0,0,-1,636,386,0,0
-581,638,0,0,0,0,0,0,0,0,0,-1,643,386,0,0
-574,638,0,0,0,0,0,0,0,0,0,-1,650,386,0,0
-567,638,0,0,0,0,0,0,0,0,0,-1,657,386,0,0
-560,638,0,0,0,0,0,0,0,0,0,-1,664,386,0,0
-553,638,0,0,0,0,0,0,0,0,0,-1,671,386,0,0
-546,638,0,0,0,0,0,0,0,0,0,-1,678,386,0,0
-539,638,0,0,0,0,0,0,0,0,0,-1,685,386,0,0
-532,638,0,0,0,0,0,0,0,0,0,-1,692,386,0,0
-525,638,0,0,0,0,0,0,0,0,0,-1,699,386,0,0
-518,638,0,0,0,0,0,0,0,0,0,-1,706,386,0,0
-511,638,0,0,0,0,0,0,0,0,0,-1,713,386,0,0
-504,638,0,0,0,0,0,0,0,0,0,-1,720,386,0,0
-497,638,0,0,0,0,0,0,0,0,0,-1,727,386,0,0
-490,638,0,0,0,0,0,0,0,0,0,-1,734,386,0,0
-483,638,0,0,0,0,0,0,0,0,0,-1,741,386,0,0
-476,638,0,0,0,0,0,0,0,0,0,-1,748,386,0,0
-469,638,0,0,0,0,0,0,0,0,0,-1,755,386,0,0
-462,638,0,0,0,0,0,0,0,0,0,-1,762,386,0,0
-455,638,0,0,0,0,0,0,0,0,0,-1,769,386,0,0
-448,638,0,0,0,0,0,0,0,0,0,-1,776,386,0,0
-441,638,0,0,0,0,0,0,0,0,0,-1,783,386,0,0
-434,638,0,0,0,0,0,0,0,0,0,-1,790,386,0,0
-427,638,0,0,0,0,0,0,0,0,0,-1,797,386,0,0
-420,638,0,0,0,0,0,0,0,0,0,-1,804,386,0,0
-413,638,0,0,0,0,0,0,0,0,0,-1,811,386,0,0
-406,638,0,0,0,0,0,0,0,0,0,-1,818,386,0,0
-399,638,0,0,0,0,0,0,0,0,0,-1,825,386,0,0
-392,638,0,0,0,0,0,0,0,0,0,-1,832,386,0,0
-385,638,0,0,0,0,0,0,0,0,0,-1,839,386,0,0
-378,638,0,0,0,0,0,0,0,0,0,-1,846,386,0,0
-371,638,0,0,0,0,0,0,0,0,0,-1,853,386,0,0
-364,638,0,0,0,0,0,0,0,0,0,-1,860,386,0,0
-357,638,0,0,0,0,0,0,0,0,0,-1,867,386,0,0
-350,638,0,0,0,0,0,0,0,0,0,-1,874,386,0,0
-343,638,0,0,0,0,0,0,0,0,0,-1,881,386,0,0
-336,638,0,0,0,0,0,0,0,0,0,-1,888,386,0,0
-329,638,0,0,0,0,0,0,0,0,0,-1,895,386,0,0
-322,638,0,0,0,0,0,0,0,0,0,-1,902,386,0,0
-315,638,0,0,0,0,0,0,0,0,0,-1,909,386,0,0
-308,638,0,0,0,0,0,0,0,0,0,-1,916,386,0,0
-301,638,0,0,0,0,0,0,0,0,0,-1,923,386,0,0
-294,638,0,0,0,0,0,0,0,0,0,-1,930,386,0,0
-287,638,0,0,0,0,0,0,0,0,0,-1,937,386,0,0
-280,638,0,0,0,0,0,0,0,0,0,-1,944,386,0,0
-273,638,0,0,0,0,0,0,0,0,0,-1,951,386,0,0
-266,638,10.1613,-36.3326,0,0,0,0,0,0,0,-1,958,386,10.1612,36.3326
-259,638,9.95282,-34.6103,0,0,0,0,0,0,0,-1,965,386,9.9528,34.6103
-252,638,9.95746,-33.6964,0,0,0,0,0,0,0,-1,972,386,9.95744,33.6965
-245,638,9.84143,-32.9009,0,0,0,0,0,0,0,-1,979,386,9.84145,32.9009
-238,638,2.93518,-26.3649,0,0,0,0,0,0,0,-1,986,386,2.93516,26.3649
-231,638,2.36829,-26.0088,0,0,0,0,0,0,0,-1,993,386,2.3683,26.0088
-224,638,6.3465,-30.9124,0,0,0,0,0,0,0,-1,1000,386,6.34648,30.9124
-217,638,7.41205,-32.7263,0,0,0,0,0,0,0,-1,1007,386,7.41204,32.7262
-210,638,8.7038,-34.5688,0,0,0,0,0,0,0,-1,1014,386,8.70378,34.5689
-203,638,4.32593,-27.5803,0,0,0,0,0,0,0,-1,1021,386,4.32594,27.5803
-196,638,6.0614,-28.4651,0,0,0,0,0,0,0,-1,1028,386,6.06143,28.4651
-189,638,11.4561,-30.1556,0,0,0,0,0,0,0,-1,1035,386,11.456,30.1556
-182,638,6.45471,-33.4271,0,0,0,0,0,0,0,-1,1042,386,6.45473,33.427
-175,638,8.39648,-48.7238,0,0,0,0,0,0,0,-1,1049,386,8.39643,48.7238
-168,638,9.20044,-55.4257,0,0,0,0,0,0,0,-1,1056,386,9.20038,55.4257
-161,638,9.18958,-56.1665,0,0,0,0,0,0,0,-1,1063,386,9.18962,56.1665
-154,638,9.05273,-56.7388,0,0,0,0,0,0,0,-1,1070,386,9.05268,56.7388
-147,638,9.0127,-57.3704,0,0,0,0,0,0,0,-1,1077,386,9.01265,57.3704
-140,638,8.91382,-57.6815,-0.00531552,0.0159629,-0.00929004,0.0194481,-0.00880068,-1.21189,0.0166911,0.0439977,1084,386,8.91376,57.6815
-133,638,8.83447,-58.6144,-0.00536247,0.0144379,-0.00838605,0.0175123,-0.00843685,-1.2194,0.0152841,0.0391134,1091,386,8.83448,58.6144
-126,638,8.73584,-59.2038,-0.00553381,0.0128759,-0.00737544,0.0154662,-0.00812414,-1.23304,0.0138381,0.0349438,1098,386,8.73588,59.2038
-119,638,8.64038,-59.8558,-0.00572428,0.0111146,-0.00635174,0.0132418,-0.00785148,-1.24764,0.01231,0.0355926,1105,386,8.64043,59.8558
-112,638,8.59973,-60.5566,-0.00573392,0.00969251,-0.00549586,0.0114502,-0.00749162,-1.26125,0.0110154,0.0256717,1112,386,8.5997,60.5566
-105,638,8.56445,-61.1455,-0.00566326,0.00854679,-0.00481802,0.0100263,-0.0071428,-1.27285,0.00995909,0.019942,1119,386,8.56442,61.1455
-98,638,8.48547,-61.7048,-0.00565229,0.00748617,-0.00411257,0.00866729,-0.00683342,-1.29112,0.00897019,0.0173759,1126,386,8.48543,61.7048
-91,638,8.3938,-62.2605,-0.00556816,0.00661683,-0.00350872,0.00755495,-0.00650628,-1.30954,0.00812578,0.0126263,1133,386,8.39386,62.2605
-84,638,8.34119,-62.8002,-0.00539542,0.00525992,-0.00279054,0.0059465,-0.006082,-1.32955,0.0069448,0.0150188,1140,386,8.34113,62.8002
-77,638,8.27771,-63.3206,-0.00516041,0.00504454,-0.00239206,0.00557741,-0.00569329,-1.35161,0.00650726,0.0144585,1147,386,8.27774,63.3205
-70,638,8.23071,-63.813,-0.00505066,0.00528091,-0.00209325,0.0056889,-0.00545866,-1.3783,0.00643651,0.0146759,1154,386,8.23069,63.813
-63,638,8.20764,-64.2769,-0.00479536,0.00591076,-0.00196278,0.00625926,-0.00514385,-1.39507,0.00659408,0.0137661,1161,386,8.20767,64.2769
-56,638,8.17603,-64.7236,-0.00405042,0.00656213,-0.00193865,0.00690518,-0.00439347,-1.39565,0.00657679,0.0156936,1168,386,8.17601,64.7236
-49,638,8.1311,-65.156,-0.00295006,0.00742271,-0.00198457,0.00778944,-0.00331679,-1.38807,0.00658323,0.0128493,1175,386,8.13115,65.156
-42,638,8.10681,-65.5234,-0.00196392,0.00811084,-0.00203234,0.00850536,-0.00235845,-1.37906,0.00659842,0.0123722,1182,386,8.10676,65.5234
-35,638,8.08337,-65.9442,-0.00113201,0.00866355,-0.0020127,0.00906098,-0.00152943,-1.37585,0.00660971,0.0118962,1189,386,8.08336,65.9442
-28,638,8.04651,-66.3244,-0.000397559,0.0091674,-0.00198433,0.00956272,-0.000792886,-1.37415,0.00665521,0.0117142,1196,386,8.04646,66.3244
-21,638,7.99353,-66.6533,0.000263795,0.00953015,-0.00194178,0.0099206,-0.000126656,-1.37236,0.00665635,0.012159,1203,386,7.9935,66.6533
-14,638,7.97095,-67.0029,0.000772852,0.00975583,-0.00191062,0.0101453,0.000383363,-1.3697,0.00663945,0.0118361,1210,386,7.97092,67.0029
-7,638,7.98242,-67.3026,0.00106667,0.00958078,-0.00186213,0.00997024,0.000677211,-1.36462,0.00643298,0.0185345,1217,386,7.98247,67.3026
0,638,8.05774,-67.4169,0.0011419,0.00916165,-0.00174471,0.00952477,0.000778774,-1.3656,0.00610683,0.0349248,1224,386,8.05769,67.4169
7,638,7.96375,-67.6429,0.0010077,0.00875741,-0.00159757,0.00907382,0.000691284,-1.37527,0.00583246,0.0264964,1231,386,7.96369,67.643
14,638,7.927,-67.9109,0.000730041,0.00842537,-0.00128839,0.00863535,0.000520064,-1.40924,0.00559161,0.0134726,1238,386,7.92697,67.9109
21,638,7.92493,-68.1068,0.000176091,0.00837957,-0.000763407,0.00845001,0.000105653,-1.47879,0.00559845,0.0116106,1245,386,7.92497,68.1068
28,638,7.93652,-68.2434,-0.000591193,0.00864482,-0.000191243,0.00864878,-0.000595151,-1.5501,0.00597413,0.0098964,1252,386,7.93651,68.2434
35,638,7.94287,-68.3548,-0.00156977,0.00905933,0.00021704,0.00906376,-0.0015742,1.55039,0.00662983,0.0118011,1259,386,7.9429,68.3548
42,638,7.96887,-68.4709,-0.00257919,0.00962337,0.000669271,0.00965996,-0.00261579,1.51617,0.00746624,0.011101,1266,386,7.96887,68.4709
49,638,8.00439,-68.5312,-0.00369065,0.0104351,0.00104688,0.0105123,-0.00376781,1.49722,0.00854562,0.00952721,1273,386,8.00445,68.5312
56,638,7.98645,-68.562,-0.00482301,0.0114355,0.00133484,0.0115443,-0.00493188,1.48942,0.00976456,0.0126002,1280,386,7.98647,68.562
63,638,7.95813,-68.5888,-0.00578827,0.0125977,0.00153642,0.0127252,-0.00591577,1.488,0.0109991,0.0155307,1287,386,7.95817,68.5888
70,638,7.93384,-68.6052,-0.00657794,0.0138415,0.00161014,0.0139677,-0.00670413,1.49259,0.012178,0.0200265,1294,386,7.93382,68.6052
77,638,7.96338,-68.5377,-0.00710061,0.0145742,0.00154105,0.0146832,-0.00720963,1.50017,0.012883,0.0199453,1301,386,7.96337,68.5377
84,638,7.99561,-68.4549,-0.00726131,0.0149201,0.00126712,0.0149923,-0.00733346,1.51392,0.0131402,0.0148651,1308,386,7.99562,68.4549
91,638,7.98682,-68.3628,-0.00722911,0.0147135,0.000956556,0.0147551,-0.00727073,1.52731,0.012959,0.0168439,1315,386,7.98679,68.3628
98,638,7.96057,-68.2486,-0.0069903,0.0144087,0.000790419,0.0144378,-0.00701946,1.53393,0.0126327,0.014234,1322,386,7.96057,68.2486
105,638,7.94861,-68.1111,-0.00647282,0.0139121,0.000688691,0.0139353,-0.00649606,1.53706,0.0120539,0.0103503,1329,386,7.9486,68.1111
112,638,7.95044,-67.9283,-0.00581963,0.0130623,0.000666825,0.0130858,-0.00584315,1.53554,0.0111921,0.0102981,1336,386,7.95039,67.9283
119,638,7.9585,-67.7142,-0.00515466,0.0118138,0.000652006,0.0118388,-0.00517967,1.53245,0.0100732,0.012994,1343,386,7.95856,67.7142
126,638,7.9458,-67.46,-0.00438954,0.0107312,0.00059691,0.0107547,-0.00441306,1.5314,0.00900863,0.0167065,1350,386,7.94585,67.46
133,638,7.90625,-67.202,-0.00360852,0.00978114,0.000779417,0.00982635,-0.00365373,1.51285,0.00805012,0.0169705,1357,386,7.90622,67.202
140,638,7.88818,-66.9592,-0.0028428,0.00939741,0.00125649,0.00952506,-0.00297045,1.46955,0.00753787,0.0170209,1364,386,7.88814,66.9592
147,638,7.8728,-66.6408,-0.00239755,0.00946796,0.00157106,0.00967246,-0.00260205,1.44136,0.00746831,0.0192424,1371,386,7.87286,66.6408
154,638,7.88074,-66.2982,-0.00219615,0.00979019,0.00178688,0.0100509,-0.00245686,1.42592,0.00765217,0.0175433,1378,386,7.88076,66.2982
161,638,7.85083,-65.9239,-0.00217848,0.0102444,0.00209051,0.0105868,-0.00252084,1.40847,0.0080311,0.021237,1385,386,7.85079,65.9239
168,638,7.83667,-65.5016,-0.00229081,0.0106474,0.00234865,0.0110606,-0.00270396,1.39667,0.00842101,0.0268153,1392,386,7.83668,65.5016
175,638,7.84521,-65.0983,-0.00252361,0.0111836,0.00265037,0.0116782,-0.00301822,1.3863,0.00896259,0.0210125,1399,386,7.84518,65.0983
182,638,7.77258,-64.6532,-0.00282734,0.0116465,0.00301173,0.0122482,-0.00342901,1.37362,0.00951664,0.0138961,1406,386,7.77262,64.6532
189,638,7.73657,-64.1647,-0.00320361,0.0118367,0.00340121,0.0125701,-0.003937,1.35842,0.00995534,0.0125116,1413,386,7.73655,64.1647
196,638,7.6803,-63.683,-0.00344549,0.0119682,0.00379255,0.0128508,-0.00432811,1.34214,0.0103171,0.0153441,1420,386,7.68026,63.683
203,638,7.61902,-63.2138,-0.00383057,0.0115976,0.00413588,0.0126364,-0.00486935,1.32472,0.0104333,0.0213278,1427,386,7.61902,63.2138
210,638,7.55505,-62.7194,-0.004125,0.0110363,0.00448513,0.0122638,-0.00535245,1.30367,0.0104284,0.0170427,1434,386,7.55509,62.7194
217,638,7.50464,-62.1627,-0.00412855,0.010736,0.00457899,0.0120333,-0.00542587,1.29471,0.0103179,0.0133303,1441,386,7.5046,62.1627
224,638,7.45557,-61.565,-0.00392381,0.011075,0.00465995,0.0124049,-0.00525369,1.2928,0.0104701,0.0118678,1448,386,7.45553,61.565
231,638,7.34949,-60.9537,-0.00347871,0.0114483,0.00502871,0.0129844,-0.00501475,1.27434,0.010726,0.0120771,1455,386,7.34946,60.9537
238,638,7.2782,-60.3333,-0.00285771,0.0128281,0.00609155,0.0149159,-0.00494548,1.24061,0.0119389,0.015682,1462,386,7.27819,60.3333
245,638,7.26648,-59.6691,-0.00253517,0.0140115,0.00679981,0.0164473,-0.00497096,1.22682,0.012944,0.035634,1469,386,7.26654,59.6691
252,638,7.28296,-58.8225,0,0,0,0,0,0,0,-1,1476,386,7.28297,58.8225
259,638,7.09106,-58.4731,0,0,0,0,0,0,0,-1,1483,386,7.09104,58.4731
266,638,6.9519,-57.7738,8.16122e-05,0.0199849,0.0106061,0.0245771,-0.00451061,1.16219,0.0180769,0.0319541,1490,386,6.95187,57.7738
273,638,6.92834,-57.0981,0.000915248,0.022603,0.0122992,0.0281561,-0.00463782,1.1467,0.0204924,0.0150641,1497,386,6.92833,57.098
280,638,6.97473,-56.3449,0.00187168,0.0254729,0.0141585,0.0321037,-0.00475917,1.1328,0.0231525,0.0240064,1504,386,6.97476,56.3449
287,638,7.05432,-55.2938,0.00294232,0.0289327,0.0163351,0.0368112,-0.00493613,1.12141,0.0263408,0.0462314,1511,386,7.05437,55.2938
294,638,6.71155,-54.6398,0,0,0,0,0,0,0,-1,1518,386,6.71157,54.6398
301,638,6.4071,-53.8616,0,0,0,0,0,0,0,-1,1525,386,6.40705,53.8616
308,638,6.69739,-52.3195,0,0,0,0,0,0,0,-1,1532,386,6.69744,52.3195
315,638,3.3927,-28.2032,0,0,0,0,0,0,0,-1,1539,386,3.39269,28.2032
322,638,6.1698,-44.6835,0,0,0,0,0,0,0,-1,1546,386,6.16984,44.6835
329,638,6.06885,-44.2856,0,0,0,0,0,0,0,-1,1553,386,6.06881,44.2855
336,638,5.15234,-38.1966,0,0,0,0,0,0,0,-1,1560,386,5.15238,38.1966
343,638,4.8208,-37.2159,0,0,0,0,0,0,0,-1,1567,386,4.82078,37.2159
350,638,4.35254,-37.1565,0,0,0,0,0,0,0,-1,1574,386,4.35259,37.1565
357,638,0.387329,-3.01077,0,0,0,0,0,0,0,-1,1581,386,0.387332,3.01077
364,638,3.78149,-6.45215,0,0,0,0,0,0,0,-1,1588,386,3.78155,6.45216
371,638,4.18604,-6.71164,0,0,0,0,0,0,0,-1,1595,386,4.18598,6.71164
378,638,4.59045,-6.97113,0,0,0,0,0,0,0,-1,1602,386,4.5904,6.97112
385,638,0,0,0,0,0,0,0,0,0,-1,1609,386,0,0
392,638,0,0,0,0,0,0,0,0,0,-1,1616,386,0,0
399,638,0,0,0,0,0,0,0,0,0,-1,1623,386,0,0
406,638,0,0,0,0,0,0,0,0,0,-1,1630,386,0,0
413,638,0,0,0,0,0,0,0,0,0,-1,1637,386,0,0
420,638,0,0,0,0,0,0,0,0,0,-1,1644,386,0,0
427,638,0,0,0,0,0,0,0,0,0,-1,1651,386,0,0
434,638,0,0,0,0,0,0,0,0,0,-1,1658,386,0,0
441,638,0,0,0,0,0,0,0,0,0,-1,1665,386,0,0
448,638,0,0,0,0,0,0,0,0,0,-1,1672,386,0,0
455,638,0,0,0,0,0,0,0,0,0,-1,1679,386,0,0
462,638,0,0,0,0,0,0,0,0,0,-1,1686,386,0,0
469,638,0,0,0,0,0,0,0,0,0,-1,1693,386,0,0
476,638,0,0,0,0,0,0,0,0,0,-1,1700,386,0,0
483,638,0,0,0,0,0,0,0,0,0,-1,1707,386,0,0
490,638,0,0,0,0,0,0,0,0,0,-1,1714,386,0,0
497,638,0,0,0,0,0,0,0,0,0,-1,1721,386,0,0
504,638,0,0,0,0,0,0,0,0,0,-1,1728,386,0,0
511,638,0,0,0,0,0,0,0,0,0,-1,1735,386,0,0
518,638,0,0,0,0,0,0,0,0,0,-1,1742,386,0,0
525,638,0,0,0,0,0,0,0,0,0,-1,1749,386,0,0
532,638,0,0,0,0,0,0,0,0,0,-1,1756,386,0,0
539,638,0,0,0,0,0,0,0,0,0,-1,1763,386,0,0
546,638,0,0,0,0,0,0,0,0,0,-1,1770,386,0,0
553,638,0,0,0,0,0,0,0,0,0,-1,1777,386,0,0
560,638,0,0,0,0,0,0,0,0,0,-1,1784,386,0,0
567,638,0,0,0,0,0,0,0,0,0,-1,1791,386,0,0
574,638,0,0,0,0,0,0,0,0,0,-1,1798,386,0,0
581,638,0,0,0,0,0,0,0,0,0,-1,1805,386,0,0
588,638,0,0,0,0,0,0,0,0,0,-1,1812,386,0,0
595,638,0,0,0,0,0,0,0,0,0,-1,1819,386,0,0
602,638,0,0,0,0,0,0,0,0,0,-1,1826,386,0,0
609,638,0,0,0,0,0,0,0,0,0,-1,1833,386,0,0
616,638,0,0,0,0,0,0,0,0,0,-1,1840,386,0,0
623,638,0,0,0,0,0,0,0,0,0,-1,1847,386,0,0
630,638,0,0,0,0,0,0,0,0,0,-1,1854,386,0,0
637,638,0,0,0,0,0,0,0,0,0,-1,1861,386,0,0
644,638,0,0,0,0,0,0,0,0,0,-1,1868,386,0,0
651,638,0,0,0,0,0,0,0,0,0,-1,1875,386,0,0
658,638,0,0,0,0,0,0,0,0,0,-1,1882,386,0,0
665,638,0,0,0,0,0,0,0,0,0,-1,1889,386,0,0
672,638,0,0,0,0,0,0,0,0,0,-1,1896,386,0,0
679,638,0,0,0,0,0,0,0,0,0,-1,1903,386,0,0
686,638,0,0,0,0,0,0,0,0,0,-1,1910,386,0,0
693,638,0,0,0,0,0,0,0,0,0,-1,1917,386,0,0
700,638,0,0,0,0,0,0,0,0,0,-1,1924,386,0,0
707,638,0,0,0,0,0,0,0,0,0,-1,1931,386,0,0
714,638,0,0,0,0,0,0,0,0,0,-1,1938,386,0,0
721,638,0,0,0,0,0,0,0,0,0,-1,1945,386,0,0
728,638,0,0,0,0,0,0,0,0,0,-1,1952,386,0,0
735,638,0,0,0,0,0,0,0,0,0,-1,1959,386,0,0
742,638,0,0,0,0,0,0,0,0,0,-1,1966,386,0,0
749,638,0,0,0,0,0,0,0,0,0,-1,1973,386,0,0
756,638,0,0,0,0,0,0,0,0,0,-1,1980,386,0,0
763,638,0,0,0,0,0,0,0,0,0,-1,1987,386,0,0
770,638,0,0,0,0,0,0,0,0,0,-1,1994,386,0,0
777,638,0,0,0,0,0,0,0,0,0,-1,2001,386,0,0
784,638,0,0,0,0,0,0,0,0,0,-1,2008,386,0,0
791,638,0,0,0,0,0,0,0,0,0,-1,2015,386,0,0
798,638,0,0,0,0,0,0,0,0,0,-1,2022,386,0,0
805,638,0,0,0,0,0,0,0,0,0,-1,2029,386,0,0
812,638,0,0,0,0,0,0,0,0,0,-1,2036,386,0,0
-700,631,0,0,0,0,0,0,0,0,0,-1,524,393,0,0
-693,631,0,0,0,0,0,0,0,0,0,-1,531,393,0,0
-686,631,0,0,0,0,0,0,0,0,0,-1,538,393,0,0
-679,631,0,0,0,0,0,0,0,0,0,-1,545,393,0,0
-672,631,0,0,0,0,0,0,0,0,0,-1,552,393,0,0
-665,631,0,0,0,0,0,0,0,0,0,-1,559,393,0,0
-658,631,0,0,0,0,0,0,0,0,0,-1,566,393,0,0
-651,631,0,0,0,0,0,0,0,0,0,-1,573,393,0,0
-644,631,0,0,0,0,0,0,0,0,0,-1,580,393,0,0
-637,631,0,0,0,0,0,0,0,0,0,-1,587,393,0,0
-630,631,0,0,0,0,0,0,0,0,0,-1,594,393,0,0
-623,631,0,0,0,0,0,0,0,0,0,-1,601,393,0,0
-616,631,0,0,0,0,0,0,0,0,0,-1,608,393,0,0
-609,631,0,0,0,0,0,0,0,0,0,-1,615,393,0,0
-602,631,0,0,0,0,0,0,0,0,0,-1,622,393,0,0
-595,631,0,0,0,0,0,0,0,0,0,-1,629,393,0,0
-588,631,0,0,0,0,0,0,0,0,0,-1,636,393,0,0
-581,631,0,0,0,0,0,0,0,0,0,-1,643,393,0,0
-574,631,0,0,0,0,0,0,0,0,0,-1,650,393,0,0
-567,631,0,0,0,0,0,0,0,0,0,-1,657,393,0,0
-560,631,0,0,0,0,0,0,0,0,0,-1,664,393,0,0
-553,631,0,0,0,0,0,0,0,0,0,-1,671,393,0,0
-546,631,0,0,0,0,0,0,0,0,0,-1,678,393,0,0
-539,631,0,0,0,0,0,0,0,0,0,-1,685,393,0,0
-532,631,0,0,0,0,0,0,0,0,0,-1,692,393,0,0
-525,631,0,0,0,0,0,0,0,0,0,-1,699,393,0,0
-518,631,0,0,0,0,0,0,0,0,0,-1,706,393,0,0
-511,631,0,0,0,0,0,0,0,0,0,-1,713,393,0,0
-504,631,0,0,0,0,0,0,0,0,0,-1,720,393,0,0
-497,631,0,0,0,0,0,0,0,0,0,-1,727,393,0,0
-490,631,0,0,0,0,0,0,0,0,0,-1,734,393,0,0
-483,631,0,0,0,0,0,0,0,0,0,-1,741,393,0,0
-476,631,0,0,0,0,0,0,0,0,0,-1,748,393,0,0
-469,631,0,0,0,0,0,0,0,0,0,-1,755,393,0,0
-462,631,0,0,0,0,0,0,0,0,0,-1,762,393,0,0
-455,631,0,0,0,0,0,0,0,0,0,-1,769,393,0,0
-448,631,0,0,0,0,0,0,0,0,0,-1,776,393,0,0
-441,631,0,0,0,0,0,0,0,0,0,-1,783,393,0,0
-434,631,0,0,0,0,0,0,0,0,0,-1,790,393,0,0
-427,631,0,0,0,0,0,0,0,0,0,-1,797,393,0,0
-420,631,0,0,0,0,0,0,0,0,0,-1,804,393,0,0
-413,631,0,0,0,0,0,0,0,0,0,-1,811,393,0,0
-406,631,0,0,0,0,0,0,0,0,0,-1,818,393,0,0
-399,631,0,0,0,0,0,0,0,0,0,-1,825,393,0,0
-392,631,0,0,0,0,0,0,0,0,0,-1,832,393,0,0
-385,631,0,0,0,0,0,0,0,0,0,-1,839,393,0,0
-378,631,0,0,0,0,0,0,0,0,0,-1,846,393,0,0
-371,631,0,0,0,0,0,0,0,0,0,-1,853,393,0,0
-364,631,0,0,0,0,0,0,0,0,0,-1,860,393,0,0
-357,631,0,0,0,0,0,0,0,0,0,-1,867,393,0,0
-350,631,0,0,0,0,0,0,0,0,0,-1,874,393,0,0
-343,631,0,0,0,0,0,0,0,0,0,-1,881,393,0,0
-336,631,0,0,0,0,0,0,0,0,0,-1,888,393,0,0
-329,631,0,0,0,0,0,0,0,0,0,-1,895,393,0,0
-322,631,0,0,0,0,0,0,0,0,0,-1,902,393,0,0
-315,631,0,0,0,0,0,0,0,0,0,-1,909,393,0,0
-308,631,0,0,0,0,0,0,0,0,0,-1,916,393,0,0
-301,631,0,0,0,0,0,0,0,0,0,-1,923,393,0,0
-294,631,0,0,0,0,0,0,0,0,0,-1,930,393,0,0
-287,631,0,0,0,0,0,0,0,0,0,-1,937,393,0,0
-280,631,7.71283,-34.969,0,0,0,0,0,0,0,-1,944,393,7.71282,34.969
-273,631,8.04437,-34.934,0,0,0,0,0,0,0,-1,951,393,8.04436,34.9339
-266,631,8.40277,-34.7584,0,0,0,0,0,0,0,-1,958,393,8.40275,34.7584
-259,631,8.56659,-34.037,0,0,0,0,0,0,0,-1,965,393,8.56662,34.037
-252,631,8.44446,-33.2643,0,0,0,0,0,0,0,-1,972,393,8.44445,33.2644
-245,631,8.34705,-32.527,0,0,0,0,0,0,0,-1,979,393,8.34704,32.527
-238,631,8.41888,-31.8855,0,0,0,0,0,0,0,-1,986,393,8.41887,31.8855
-231,631,2.14966,-25.2306,0,0,0,0,0,0,0,-1,993,393,2.14968,25.2306
-224,631,6.83575,-19.7909,0,0,0,0,0,0,0,-1,1000,393,6.83575,19.7909
-217,631,5.05188,-18.3867,0,0,0,0,0,0,0,-1,1007,393,5.0519,18.3866
-210,631,3.37842,-26.3769,0,0,0,0,0,0,0,-1,1014,393,3.37839,26.3769
-203,631,8.59509,-47.1953,0,0,0,0,0,0,0,-1,1021,393,8.5951,47.1954
-196,631,8.51001,-47.9163,0,0,0,0,0,0,0,-1,1028,393,8.50997,47.9163
-189,631,6.57983,-42.4494,0,0,0,0,0,0,0,-1,1035,393,6.57983,42.4494
-182,631,8.0531,-47.8031,0,0,0,0,0,0,0,-1,1042,393,8.05311,47.8031
-175,631,8.72876,-54.3741,0,0,0,0,0,0,0,-1,1049,393,8.72881,54.3741
-168,631,8.58069,-55.1289,-0.00378449,0.0170913,-0.010377,0.0213718,-0.00806498,-1.17956,0.0175646,0.0449668,1056,393,8.58065,55.1289
-161,631,8.51416,-55.9495,-0.00391304,0.0158386,-0.00959522,0.0197324,-0.00780675,-1.1853,0.0163891,0.0240685,1063,393,8.51411,55.9495
-154,631,8.43433,-56.7167,-0.00398968,0.0146667,-0.0088369,0.0181878,-0.00751085,-1.19162,0.015258,0.0215129,1070,393,8.43438,56.7167
-147,631,8.37842,-57.3656,-0.00408776,0.0134315,-0.0080622,0.0165769,-0.00723318,-1.19882,0.0140952,0.0178989,1077,393,8.37846,57.3656
-140,631,8.31995,-58.0374,-0.00403694,0.0121205,-0.00731122,0.0149376,-0.00685408,-1.20301,0.0128667,0.0122649,1084,393,8.31993,58.0374
-133,631,8.22302,-58.6952,-0.00392532,0.0109424,-0.00655986,0.0134229,-0.00640579,-1.20929,0.0116846,0.00935594,1091,393,8.22299,58.6952
-126,631,8.17566,-59.3317,-0.00389206,0.00976484,-0.00574856,0.0118624,-0.00598963,-1.22092,0.0104911,0.0132359,1098,393,8.17565,59.3317
-119,631,8.11035,-59.946,-0.00387807,0.00839542,-0.00488795,0.0101042,-0.00558681,-1.23449,0.00918347,0.0163637,1105,393,8.1104,59.946
-112,631,8.03796,-60.5768,-0.00371253,0.00728795,-0.00418437,0.00869869,-0.00512326,-1.24562,0.00806861,0.015952,1112,393,8.03797,60.5768
-105,631,8.07007,-61.1578,-0.00348324,0.0063846,-0.00365069,0.00758836,-0.004687,-1.25229,0.00715286,0.021272,1119,393,8.07005,61.1578
-98,631,8,-61.7056,-0.00328096,0.0055647,-0.00312537,0.00655753,-0.00427379,-1.26321,0.00629963,0.0176443,1126,393,7.99999,61.7056
-91,631,7.93359,-62.2406,-0.00302756,0.00488317,-0.00265675,0.0056926,-0.00383699,-1.27506,0.00553657,0.0178812,1133,393,7.93365,62.2406
-84,631,7.88171,-62.7996,-0.00270999,0.00387045,-0.00210046,0.00448375,-0.00332329,-1.28671,0.00452397,0.0176475,1140,393,7.88176,62.7996
-77,631,7.80554,-63.3453,-0.00235313,0.00355791,-0.00176184,0.0040432,-0.00283842,-1.30202,0.00399335,0.0139949,1147,393,7.80556,63.3453
-70,631,7.78003,-63.8199,-0.00204929,0.00344584,-0.00148391,0.00382095,-0.0024244,-1.3232,0.00363568,0.0166436,1154,393,7.78,63.8199
-63,631,7.76892,-64.3,-0.00163943,0.0034575,-0.00126622,0.00375473,-0.00193666,-1.34023,0.00334134,0.0162006,1161,393,7.76896,64.3001
-56,631,7.73169,-64.7871,-0.00117194,0.00333157,-0.00106652,0.00357138,-0.00141174,-1.34963,0.0029657,0.0159874,1168,393,7.73172,64.7871
-49,631,7.72522,-65.1823,-0.000573751,0.00321374,-0.000881689,0.00340893,-0.00076894,-1.35293,0.0025676,0.0118943,1175,393,7.72517,65.1823
-42,631,7.74146,-65.5629,-5.13408e-05,0.00311323,-0.000705234,0.00326328,-0.00020139,-1.36116,0.00224566,0.0104757,1182,393,7.74142,65.5629
-35,631,7.74475,-65.9426,0.000364567,0.00312768,-0.000539631,0.00322932,0.000262917,-1.38461,0.00207082,0.0113913,1189,393,7.74476,65.9426
-28,631,7.72754,-66.3084,0.000656974,0.00323588,-0.000373583,0.00328891,0.000603947,-1.4298,0.00202159,0.0152533,1196,393,7.72753,66.3084
-21,631,7.68494,-66.6557,0.000816482,0.00337814,-0.000220874,0.00339704,0.000797578,-1.48541,0.00205119,0.0130828,1203,393,7.68489,66.6557
-14,631,7.677,-66.9841,0.000707864,0.00354709,-8.36226e-05,0.00354955,0.000705404,-1.54138,0.00216979,0.0144433,1210,393,7.67703,66.9841
-7,631,7.71729,-67.2836,0.000422539,0.00339033,7.00614e-05,0.00339199,0.000420886,1.54721,0.0021349,0.0233093,1217,393,7.71733,67.2836
0,631,7.73584,-67.5255,-9.76527e-05,0.00298683,0.000271602,0.00301057,-0.000121386,1.48364,0.0020487,0.0272919,1224,393,7.73584,67.5254
7,631,7.73779,-67.7201,-0.000714325,0.00266961,0.000463216,0.00273187,-0.000776588,1.43718,0.00212788,0.0208561,1231,393,7.73775,67.7201
14,631,7.76111,-67.9482,-0.00130951,0.00227601,0.000738345,0.00242211,-0.0014556,1.37546,0.00226186,0.0116936,1238,393,7.76112,67.9482
21,631,7.77795,-68.1178,-0.00230503,0.00217403,0.00133964,0.00254412,-0.00267513,1.30126,0.00301365,0.0152993,1245,393,7.77801,68.1178
28,631,7.79504,-68.2154,-0.00342212,0.0022887,0.00207779,0.00296466,-0.00409808,1.25627,0.00409514,0.0172823,1252,393,7.79505,68.2154
35,631,7.84753,-68.332,-0.00446193,0.00255068,0.00264085,0.00343394,-0.00534519,1.24803,0.00510852,0.01606,1259,393,7.84754,68.332
42,631,7.91528,-68.4481,-0.00535314,0.00314406,0.00306168,0.0041323,-0.00634138,1.25858,0.00609165,0.0134372,1266,393,7.91532,68.4481
49,631,7.93323,-68.546,-0.00641575,0.00396987,0.00337983,0.00497291,-0.00741879,1.2823,0.00720065,0.0118933,1273,393,7.93321,68.546
56,631,7.96375,-68.6183,-0.0074977,0.00519662,0.00351723,0.006106,-0.00840708,1.31779,0.00841416,0.0148539,1280,393,7.96376,68.6183
63,631,7.95129,-68.6671,-0.00827695,0.00670892,0.00345477,0.00746702,-0.00903505,1.35479,0.0095418,0.0178422,1287,393,7.95127,68.6671
70,631,7.95361,-68.6165,-0.00890175,0.00869529,0.00314218,0.00923953,-0.00944599,1.39929,0.0107883,0.0181316,1294,393,7.95366,68.6165
77,631,7.99316,-68.5556,-0.00928426,0.0102092,0.00250291,0.0105254,-0.0096005,1.44511,0.0116238,0.0177827,1301,393,7.99317,68.5556
84,631,8.03833,-68.4913,-0.00920873,0.0113135,0.00172454,0.0114574,-0.00935263,1.48754,0.0120351,0.0151889,1308,393,8.03828,68.4913
91,631,8.05249,-68.3814,-0.00907255,0.0119393,0.000760241,0.0119668,-0.00910003,1.53468,0.0122004,0.0183993,1315,393,8.05244,68.3814
98,631,8.09595,-68.2636,-0.00879506,0.0123512,-0.000123867,0.0123519,-0.00879579,-1.56494,0.0122671,0.0146578,1322,393,8.09595,68.2636
105,631,8.09961,-68.1179,-0.00808909,0.0124324,-0.00082437,0.0124655,-0.00812216,-1.53071,0.0119741,0.0117785,1329,393,8.09959,68.1179
112,631,8.13159,-67.9364,-0.00717593,0.0118173,-0.00135775,0.0119139,-0.0072725,-1.49979,0.0111848,0.0132714,1336,393,8.13161,67.9364
119,631,8.15491,-67.7534,-0.0061976,0.010708,-0.00175125,0.0108875,-0.00637711,-1.46865,0.0100805,0.0139744,1343,393,8.15495,67.7533
126,631,8.15686,-67.5062,-0.00496652,0.00953591,-0.0022282,0.00987054,-0.00530115,-1.42173,0.00889081,0.0182217,1350,393,8.15689,67.5062
133,631,8.14221,-67.2413,-0.00374098,0.00825303,-0.00235425,0.00869858,-0.00418654,-1.38375,0.00758974,0.0198962,1357,393,8.14222,67.2413
140,631,8.18152,-66.9875,-0.00270235,0.00723781,-0.0020434,0.00764148,-0.00310602,-1.37576,0.00638659,0.020244,1364,393,8.18148,66.9875
147,631,8.18945,-66.6432,-0.00189966,0.00635094,-0.00151414,0.00662004,-0.00216876,-1.39491,0.0052867,0.0223061,1371,393,8.18945,66.6432
154,631,8.20825,-66.2678,-0.00109879,0.00583761,-0.000980646,0.00597359,-0.00123476,-1.43302,0.00445143,0.0219852,1378,393,8.20822,66.2678
161,631,8.23096,-65.933,-0.000526905,0.00555104,-0.000343456,0.00557039,-0.000546252,-1.51453,0.00390842,0.0260873,1385,393,8.23092,65.933
168,631,8.21228,-65.5092,-0.000254651,0.00541052,0.000286233,0.00542494,-0.000269076,1.52044,0.00370957,0.031051,1392,393,8.21226,65.5092
175,631,8.19495,-65.1281,-0.000196164,0.0055054,0.00087414,0.00563641,-0.000327174,1.42203,0.00387128,0.0232237,1399,393,8.19496,65.1281
182,631,8.17322,-64.6924,-0.000397734,0.00609381,0.00143018,0.00639493,-0.000698854,1.36328,0.00451431,0.0124432,1406,393,8.17325,64.6923
189,631,8.14685,-64.1941,-0.000739042,0.00669253,0.00192006,0.00715929,-0.0012058,1.33233,0.00522141,0.0121588,1413,393,8.14683,64.1941
196,631,8.11475,-63.7177,-0.0010365,0.00729462,0.00238061,0.0079269,-0.00166877,1.3112,0.00591979,0.0136453,1420,393,8.11477,63.7177
203,631,8.12158,-63.2438,-0.00150371,0.00757948,0.00272323,0.00833336,-0.00225759,1.30073,0.00644135,0.0153483,1427,393,8.12154,63.2438
210,631,8.05298,-62.7234,-0.00190794,0.00766419,0.00308254,0.00857097,-0.00281472,1.2847,0.00684784,0.016672,1434,393,8.053,62.7234
217,631,7.99792,-62.2005,-0.00208784,0.00782139,0.0032782,0.00880772,-0.00307417,1.27854,0.00712126,0.0175372,1441,393,7.99796,62.2005
224,631,7.97107,-61.6398,-0.00209395,0.0082687,0.00345055,0.00931252,-0.00313777,1.27704,0.00747705,0.0135401,1448,393,7.97108,61.6398
231,631,7.91138,-61.0346,-0.00192271,0.00869256,0.00382055,0.00992462,-0.00315477,1.25884,0.00788136,0.0106804,1455,393,7.91143,61.0346
238,631,7.87061,-60.3996,-0.00161349,0.00979117,0.00464811,0.0114456,-0.00326789,1.22885,0.00892146,0.016533,1462,393,7.87062,60.3996
245,631,7.83459,-59.791,-0.00150894,0.0107442,0.00523526,0.0126764,-0.00344107,1.21724,0.00980139,0.0185965,1469,393,7.83464,59.791
252,631,7.7749,-59.1613,-0.00115821,0.0119469,0.00600708,0.0142837,-0.00349503,1.1998,0.0108763,0.018581,1476,393,7.77493,59.1613
259,631,7.71582,-58.5072,-0.000502863,0.0140248,0.00724638,0.0170213,-0.00349931,1.1787,0.012676,0.0134512,1483,393,7.71578,58.5072
266,631,7.64856,-57.8425,-7.04702e-05,0.015568,0.0083101,0.0191592,-0.00366168,1.16289,0.0141522,0.0132774,1490,393,7.64852,57.8425
273,631,7.60352,-57.1566,0.000378732,0.0176013,0.00961452,0.0218972,-0.00391708,1.1506,0.0160638,0.0163694,1497,393,7.60357,57.1566
280,631,7.56189,-56.4017,0.00092022,0.0197931,0.0110382,0.0248786,-0.0041653,1.13906,0.0181343,0.0153422,1504,393,7.56187,56.4017
287,631,7.474,-55.6646,0.00157988,0.0224141,0.0126896,0.0284147,-0.00442073,1.12908,0.0205756,0.0171816,1511,393,7.47398,55.6646
294,631,7.36194,-54.8578,0.00212133,0.0249766,0.0142769,0.0318362,-0.00473819,1.1229,0.022967,0.0215705,1518,393,7.36196,54.8578
301,631,7.19519,-53.9959,0.0027244,0.0274925,0.0158774,0.0352444,-0.0050275,1.11661,0.0253389,0.0350148,1525,393,7.1952,53.9959
308,631,7.37244,-52.8135,0.00357244,0.0305487,0.017582,0.0392204,-0.0050992,1.11259,0.0280019,0.048068,1532,393,7.37242,52.8135
315,631,7.42847,-51.9137,0,0,0,0,0,0,0,-1,1539,393,7.42843,51.9137
322,631,7.34985,-51.9997,0,0,0,0,0,0,0,-1,1546,393,7.34986,51.9997
329,631,5.70972,-38.2651,0,0,0,0,0,0,0,-1,1553,393,5.70967,38.2651
336,631,5.38281,-39.6306,0,0,0,0,0,0,0,-1,1560,393,5.38277,39.6306
343,631,6.21558,-38.7278,0,0,0,0,0,0,0,-1,1567,393,6.21558,38.7278
350,631,5.18359,-35.9677,0,0,0,0,0,0,0,-1,1574,393,5.18355,35.9677
357,631,2.6449,-9.60303,0,0,0,0,0,0,0,-1,1581,393,2.64491,9.60304
364,631,3.39136,-5.7594,0,0,0,0,0,0,0,-1,1588,393,3.39137,5.75939
371,631,3.72839,-6.0574,0,0,0,0,0,0,0,-1,1595,393,3.72845,6.05742
378,631,4.06555,-6.35544,0,0,0,0,0,0,0,-1,1602,393,4.06553,6.35544
385,631,3.90442,-3.58298,0,0,0,0,0,0,0,-1,1609,393,3.90437,3.58299
392,631,0.352295,-2.21301,0,0,0,0,0,0,0,-1,1616,393,0.352345,2.213
399,631,0,0,0,0,0,0,0,0,0,-1,1623,393,0,0
406,631,0,0,0,0,0,0,0,0,0,-1,1630,393,0,0
413,631,0,0,0,0,0,0,0,0,0,-1,1637,393,0,0
420,631,0,0,0,0,0,0,0,0,0,-1,1644,393,0,0
427,631,0,0,0,0,0,0,0,0,0,-1,1651,393,0,0
434,631,0,0,0,0,0,0,0,0,0,-1,1658,393,0,0
441,631,0,0,0,0,0,0,0,0,0,-1,1665,393,0,0
448,631,0,0,0,0,0,0,0,0,0,-1,1672,393,0,0
455,631,0,0,0,0,0,0,0,0,0,-1,1679,393,0,0
462,631,0,0,0,0,0,0,0,0,0,-1,1686,393,0,0
469,631,0,0,0,0,0,0,0,0,0,-1,1693,393,0,0
476,631,0,0,0,0,0,0,0,0,0,-1,1700,393,0,0
483,631,0,0,0,0,0,0,0,0,0,-1,1707,393,0,0
490,631,0,0,0,0,0,0,0,0,0,-1,1714,393,0,0
497,631,0,0,0,0,0,0,0,0,0,-1,1721,393,0,0
504,631,0,0,0,0,0,0,0,0,0,-1,1728,393,0,0
511,631,0,0,0,0,0,0,0,0,0,-1,1735,393,0,0
518,631,0,0,0,0,0,0,0,0,0,-1,1742,393,0,0
525,631,0,0,0,0,0,0,0,0,0,-1,1749,393,0,0
532,631,0,0,0,0,0,0,0,0,0,-1,1756,393,0,0
539,631,0,0,0,0,0,0,0,0,0,-1,1763,393,0,0
546,631,0,0,0,0,0,0,0,0,0,-1,1770,393,0,0
553,631,0,0,0,0,0,0,0,0,0,-1,1777,393,0,0
560,631,0,0,0,0,0,0,0,0,0,-1,1784,393,0,0
567,631,0,0,0,0,0,0,0,0,0,-1,1791,393,0,0
574,631,0,0,0,0,0,0,0,0,0,-1,1798,393,0,0
581,631,0,0,0,0,0,0,0,0,0,-1,1805,393,0,0
588,631,0,0,0,0,0,0,0,0,0,-1,1812,393,0,0
595,631,0,0,0,0,0,0,0,0,0,-1,1819,393,0,0
602,631,0,0,0,0,0,0,0,0,0,-1,1826,393,0,0
609,631,0,0,0,0,0,0,0,0,0,-1,1833,393,0,0
616,631,0,0,0,0,0,0,0,0,0,-1,1840,393,0,0
623,631,0,0,0,0,0,0,0,0,0,-1,1847,393,0,0
630,631,0,0,0,0,0,0,0,0,0,-1,1854,393,0,0
637,631,0,0,0,0,0,0,0,0,0,-1,1861,393,0,0
644,631,0,0,0,0,0,0,0,0,0,-1,1868,393,0,0
651,631,0,0,0,0,0,0,0,0,0,-1,1875,393,0,0
658,631,0,0,0,0,0,0,0,0,0,-1,1882,393,0,0
665,631,0,0,0,0,0,0,0,0,0,-1,1889,393,0,0
672,631,0,0,0,0,0,0,0,0,0,-1,1896,393,0,0
679,631,0,0,0,0,0,0,0,0,0,-1,1903,393,0,0
686,631,0,0,0,0,0,0,0,0,0,-1,1910,393,0,0
693,631,0,0,0,0,0,0,0,0,0,-1,1917,393,0,0
700,631,0,0,0,0,0,0,0,0,0,-1,1924,393,0,0
707,631,0,0,0,0,0,0,0,0,0,-1,1931,393,0,0
714,631,0,0,0,0,0,0,0,0,0,-1,1938,393,0,0
721,631,0,0,0,0,0,0,0,0,0,-1,1945,393,0,0
728,631,0,0,0,0,0,0,0,0,0,-1,1952,393,0,0
735,631,0,0,0,0,0,0,0,0,0,-1,1959,393,0,0
742,631,0,0,0,0,0,0,0,0,0,-1,1966,393,0,0
749,631,0,0,0,0,0,0,0,0,0,-1,1973,393,0,0
756,631,0,0,0,0,0,0,0,0,0,-1,1980,393,0,0
763,631,0,0,0,0,0,0,0,0,0,-1,1987,393,0,0
770,631,0,0,0,0,0,0,0,0,0,-1,1994,393,0,0
777,631,0,0,0,0,0,0,0,0,0,-1,2001,393,0,0
784,631,0,0,0,0,0,0,0,0,0,-1,2008,393,0,0
791,631,0,0,0,0,0,0,0,0,0,-1,2015,393,0,0
798,631,0,0,0,0,0,0,0,0,0,-1,2022,393,0,0
805,631,0,0,0,0,0,0,0,0,0,-1,2029,393,0,0
812,631,0,0,0,0,0,0,0,0,0,-1,2036,393,0,0
-700,624,0,0,0,0,0,0,0,0,0,-1,524,400,0,0
-693,624,0,0,0,0,0,0,0,0,0,-1,531,400,0,0
-686,624,0,0,0,0,0,0,0,0,0,-1,538,400,0,0
-679,624,0,0,0,0,0,0,0,0,0,-1,545,400,0,0
-672,624,0,0,0,0,0,0,0,0,0,-1,552,400,0,0
-665,624,0,0,0,0,0,0,0,0,0,-1,559,400,0,0
-658,624,0,0,0,0,0,0,0,0,0,-1,566,400,0,0
-651,624,0,0,0,0,0,0,0,0,0,-1,573,400,0,0
-644,624,0,0,0,0,0,0,0,0,0,-1,580,400,0,0
-637,624,0,0,0,0,0,0,0,0,0,-1,587,400,0,0
-630,624,0,0,0,0,0,0,0,0,0,-1,594,400,0,0
-623,624,0,0,0,0,0,0,0,0,0,-1,601,400,0,0
-616,624,0,0,0,0,0,0,0,0,0,-1,608,400,0,0
-609,624,0,0,0,0,0,0,0,0,0,-1,615,400,0,0
-602,624,0,0,0,0,0,0,0,0,0,-1,622,400,0,0
-595,624,0,0,0,0,0,0,0,0,0,-1,629,400,0,0
-588,624,0,0,0,0,0,0,0,0,0,-1,636,400,0,0
-581,624,0,0,0,0,0,0,0,0,0,-1,643,400,0,0
-574,624,0,0,0,0,0,0,0,0,0,-1,650,400,0,0
-567,624,0,0,0,0,0,0,0,0,0,-1,657,400,0,0
-560,624,0,0,0,0,0,0,0,0,0,-1,664,400,0,0
-553,624,0,0,0,0,0,0,0,0,0,-1,671,400,0,0
-546,624,0,0,0,0,0,0,0,0,0,-1,678,400,0,0
-539,624,0,0,0,0,0,0,0,0,0,-1,685,400,0,0
-532,624,0,0,0,0,0,0,0,0,0,-1,692,400,0,0
-525,624,0,0,0,0,0,0,0,0,0,-1,699,400,0,0
-518,624,0,0,0,0,0,0,0,0,0,-1,706,400,0,0
-511,624,0,0,0,0,0,0,0,0,0,-1,713,400,0,0
-504,624,0,0,0,0,0,0,0,0,0,-1,720,400,0,0
-497,624,0,0,0,0,0,0,0,0,0,-1,727,400,0,0
-490,624,0,0,0,0,0,0,0,0,0,-1,734,400,0,0
-483,624,0,0,0,0,0,0,0,0,0,-1,741,400,0,0
-476,624,0,0,0,0,0,0,0,0,0,-1,748,400,0,0
-469,624,0,0,0,0,0,0,0,0,0,-1,755,400,0,0
-462,624,0,0,0,0,0,0,0,0,0,-1,762,400,0,0
-455,624,0,0,0,0,0,0,0,0,0,-1,769,400,0,0
-448,624,0,0,0,0,0,0,0,0,0,-1,776,400,0,0
-441,624,0,0,0,0,0,0,0,0,0,-1,783,400,0,0
-434,624,0,0,0,0,0,0,0,0,0,-1,790,400,0,0
-427,624,0,0,0,0,0,0,0,0,0,-1,797,400,0,0
-420,624,0,0,0,0,0,0,0,0,0,-1,804,400,0,0
-413,624,0,0,0,0,0,0,0,0,0,-1,811,400,0,0
-406,624,0,0,0,0,0,0,0,0,0,-1,818,400,0,0
-399,624,0,0,0,0,0,0,0,0,0,-1,825,400,0,0
-392,624,0,0,0,0,0,0,0,0,0,-1,832,400,0,0
-385,624,0,0,0,0,0,0,0,0,0,-1,839,400,0,0
-378,624,0,0,0,0,0,0,0,0,0,-1,846,400,0,0
-371,624,0,0,0,0,0,0,0,0,0,-1,853,400,0,0
-364,624,0,0,0,0,0,0,0,0,0,-1,860,400,0,0
-357,624,0,0,0,0,0,0,0,0,0,-1,867,400,0,0
-350,624,0,0,0,0,0,0,0,0,0,-1,874,400,0,0
-343,624,0,0,0,0,0,0,0,0,0,-1,881,400,0,0
-336,624,0,0,0,0,0,0,0,0,0,-1,888,400,0,0
-329,624,0,0,0,0,0,0,0,0,0,-1,895,400,0,0
-322,624,0,0,0,0,0,0,0,0,0,-1,902,400,0,0
-315,624,0,0,0,0,0,0,0,0,0,-1,909,400,0,0
-308,624,0,0,0,0,0,0,0,0,0,-1,916,400,0,0
-301,624,0,0,0,0,0,0,0,0,0,-1,923,400,0,0
-294,624,5.08527,-28.5311,0,0,0,0,0,0,0,-1,930,400,5.08525,28.5311
-287,624,6.70825,-33.8,0,0,0,0,0,0,0,-1,937,400,6.70827,33.8
-280,624,6.92474,-33.8738,0,0,0,0,0,0,0,-1,944,400,6.92477,33.8739
-273,624,8.617,-37.3463,0,0,0,0,0,0,0,-1,951,400,8.61697,37.3463
-266,624,7.71747,-37.0599,0,0,0,0,0,0,0,-1,958,400,7.7175,37.0599
-259,624,7.33569,-33.1199,0,0,0,0,0,0,0,-1,965,400,7.33567,33.1199
-252,624,7.5528,-32.8158,0,0,0,0,0,0,0,-1,972,400,7.5528,32.8158
-245,624,6.8396,-32.02,0,0,0,0,0,0,0,-1,979,400,6.83963,32.02
-238,624,6.99402,-31.5278,0,0,0,0,0,0,0,-1,986,400,6.99404,31.5278
-231,624,3.86121,-29.6032,0,0,0,0,0,0,0,-1,993,400,3.86122,29.6032
-224,624,4.59351,-27.4048,0,0,0,0,0,0,0,-1,1000,400,4.59353,27.4048
-217,624,5.90167,-32.048,0,0,0,0,0,0,0,-1,1007,400,5.90167,32.048
-210,624,8.47937,-50.5262,0,0,0,0,0,0,0,-1,1014,400,8.47938,50.5263
-203,624,8.38953,-51.3052,0,0,0,0,0,0,0,-1,1021,400,8.38951,51.3052
-196,624,8.3717,-52.0199,0,0,0,0,0,0,0,-1,1028,400,8.37173,52.0199
-189,624,8.20862,-52.9525,0,0,0,0,0,0,0,-1,1035,400,8.20859,52.9525
-182,624,8.04309,-53.7967,0,0,0,0,0,0,0,-1,1042,400,8.04312,53.7967
-175,624,7.87659,-54.3018,-0.00266837,0.0142754,-0.00860374,0.0178782,-0.00627112,-1.17424,0.0144695,0.034849,1049,400,7.87663,54.3018
-168,624,7.97302,-55.2299,-0.00294071,0.0129079,-0.00792478,0.0161906,-0.00622341,-1.17808,0.0133604,0.0240327,1056,400,7.973,55.2299
-161,624,7.85498,-56.0118,-0.0029686,0.0118287,-0.00729675,0.0148215,-0.00596142,-1.18156,0.0123571,0.0120852,1063,400,7.85503,56.0118
-154,624,7.81079,-56.7018,-0.00292859,0.0108324,-0.00666364,0.0135303,-0.00562647,-1.1861,0.0113696,0.0105552,1070,400,7.81085,56.7018
-147,624,7.76331,-57.3811,-0.00287421,0.0098149,-0.00601902,0.0122157,-0.00527505,-1.19126,0.0103599,0.0118125,1077,400,7.76333,57.3811
-140,624,7.68958,-58.0551,-0.00270029,0.00871795,-0.00539329,0.0108626,-0.00484493,-1.19232,0.00928793,0.0103773,1084,400,7.68961,58.0551
-133,624,7.60059,-58.703,-0.00248114,0.00776472,-0.00476742,0.00963984,-0.00435625,-1.19606,0.00827035,0.0118418,1091,400,7.6006,58.703
-126,624,7.55994,-59.3,-0.00230125,0.00684771,-0.00412012,0.00842962,-0.00388317,-1.2042,0.00726854,0.0141424,1098,400,7.55992,59.3001
-119,624,7.49487,-59.9326,-0.00211654,0.00579432,-0.00341287,0.00706317,-0.00338539,-1.21485,0.00615579,0.0160051,1105,400,7.49485,59.9327
-112,624,7.4635,-60.5421,-0.00180131,0.004956,-0.00284796,0.00599619,-0.0028415,-1.22061,0.00520967,0.0181074,1112,400,7.46349,60.5421
-105,624,7.49658,-61.1528,-0.00143034,0.00427928,-0.00244634,0.00518407,-0.00233512,-1.21655,0.00444386,0.0140569,1119,400,7.49655,61.1528
-98,624,7.45386,-61.6974,-0.00105718,0.00367592,-0.00207657,0.00445782,-0.00183907,-1.21068,0.00373884,0.014976,1126,400,7.4539,61.6974
-91,624,7.42383,-62.2325,-0.000636428,0.00317574,-0.00173661,0.00384822,-0.0013089,-1.20134,0.00309544,0.0216129,1133,400,7.4238,62.2325
-84,624,7.41357,-62.8038,-0.000141819,0.00246228,-0.00132703,0.00301936,-0.000698896,-1.17335,0.00228183,0.019512,1140,400,7.41356,62.8038
-77,624,7.36975,-63.3475,0.000380088,0.00205582,-0.00103575,0.00255017,-0.00011426,-1.12548,0.00173945,0.0152338,1147,400,7.3698,63.3475
-70,624,7.36353,-63.7949,0.000893978,0.00164364,-0.000769036,0.00212433,0.000413288,-1.01216,0.00130053,0.0178886,1154,400,7.36348,63.7949
-63,624,7.36279,-64.273,0.00147032,0.00112198,-0.000490194,0.00181637,0.000775936,-0.614702,0.00105238,0.0197586,1161,400,7.36279,64.273
-56,624,7.31189,-64.7552,0.00203233,0.000505471,-0.000193501,0.00205647,0.00048133,-0.124117,0.00124203,0.0159133,1168,400,7.31183,64.7552
-49,624,7.33154,-65.2033,0.00254041,-0.000164018,7.44338e-05,0.00254246,-0.000166065,0.0274952,0.00175295,0.0117667,1175,400,7.33151,65.2033
-42,624,7.34021,-65.5771,0.0026058,-0.000363449,0.000262876,0.00262889,-0.000386543,0.0876248,0.00189463,0.0104867,1182,400,7.34016,65.577
-35,624,7.35852,-65.9379,0.00239841,-0.000304534,0.000424236,0.00246343,-0.000369555,0.152083,0.00177832,0.0158594,1189,400,7.35851,65.9379
-28,624,7.37646,-66.3264,0.00184834,-8.42177e-06,0.000748674,0.0021126,-0.000272687,0.339325,0.00150754,0.0218713,1196,400,7.37646,66.3264
-21,624,7.37451,-66.6501,0.00104963,0.000405109,0.00113179,0.00190414,-0.000449402,0.646701,0.00144275,0.0158872,1203,400,7.3745,66.6501
-14,624,7.40967,-66.9413,-1.08327e-05,0.000654394,0.00141934,0.00177957,-0.00113601,0.900493,0.00169693,0.0162076,1210,400,7.40962,66.9413
-7,624,7.45618,-67.1989,-0.00127571,0.000496187,0.00172883,0.00155286,-0.00233238,1.02218,0.00225814,0.0217618,1217,400,7.45619,67.1989
0,624,7.51245,-67.455,-0.00271727,-1.34112e-05,0.00208131,0.00111651,-0.00384718,1.07343,0.00300687,0.0221216,1224,400,7.5125,67.4551
7,624,7.52576,-67.6963,-0.00406785,-0.000403029,0.0023927,0.000778319,-0.0052492,1.11218,0.00378567,0.0156225,1231,400,7.52577,67.6963
14,624,7.59583,-67.9447,-0.00519543,-0.00101193,0.00272206,0.000329253,-0.00653662,1.113,0.00447154,0.0135424,1238,400,7.59577,67.9447
21,624,7.62683,-68.1007,-0.00683113,-0.00140574,0.00352374,0.000328525,-0.00856539,1.11344,0.00582286,0.0169722,1245,400,7.62686,68.1007
28,624,7.63452,-68.2362,-0.00849479,-0.00154836,0.00449704,0.000660548,-0.0107037,1.11422,0.00736586,0.0160116,1252,400,7.63456,68.2362
35,624,7.68298,-68.3425,-0.00985224,-0.00149383,0.00530153,0.00107766,-0.0124237,1.11918,0.00866408,0.018143,1259,400,7.68296,68.3425
42,624,7.77124,-68.4498,-0.0108081,-0.00102864,0.00577759,0.00165065,-0.0134874,1.13658,0.00958926,0.0192624,1266,400,7.77119,68.4498
49,624,7.90308,-68.5038,-0.0119765,-0.000311829,0.0061187,0.00230892,-0.0145972,1.16612,0.0105854,0.0205841,1273,400,7.90305,68.5038
56,624,7.94592,-68.6118,-0.0131172,0.00105814,0.00622195,0.00340169,-0.0154607,1.21057,0.0116084,0.0218654,1280,400,7.94588,68.6118
63,624,7.9729,-68.6486,-0.0138318,0.00287467,0.00591155,0.00475486,-0.015712,1.26286,0.0123681,0.0170028,1287,400,7.97287,68.6486
70,624,7.97229,-68.6574,-0.0143397,0.00558907,0.0051519,0.00684214,-0.0155927,1.33221,0.0132771,0.0152106,1294,400,7.97225,68.6574
77,624,8.03247,-68.581,-0.0145686,0.00783093,0.003788,0.00845418,-0.0151919,1.40773,0.0138356,0.0165087,1301,400,8.03246,68.581
84,624,8.11255,-68.488,-0.0142731,0.00971167,0.00234503,0.0099388,-0.0145003,1.47424,0.0141916,0.0142777,1308,400,8.11254,68.488
91,624,8.15161,-68.3767,-0.014096,0.011233,0.000509733,0.0112432,-0.0141063,1.55068,0.0146666,0.0144193,1315,400,8.15166,68.3767
98,624,8.21423,-68.2677,-0.0138539,0.0123871,-0.00148301,0.0124706,-0.0139374,-1.51452,0.0152545,0.0135785,1322,400,8.21427,68.2677
105,624,8.25781,-68.1266,-0.013002,0.0130958,-0.00315251,0.0134712,-0.0133774,-1.45227,0.0155011,0.0149096,1329,400,8.25785,68.1266
112,624,8.30383,-67.9529,-0.0118388,0.0126772,-0.00458997,0.0135083,-0.01267,-1.39165,0.0151166,0.0159755,1336,400,8.30388,67.9529
119,624,8.37012,-67.8124,-0.0105855,0.0115806,-0.00573922,0.0129784,-0.0119833,-1.33189,0.0144155,0.015818,1343,400,8.37008,67.8124
126,624,8.3728,-67.5503,-0.00892408,0.010267,-0.00705735,0.0125828,-0.0112399,-1.25372,0.0137613,0.0186192,1350,400,8.37284,67.5503
133,624,8.43738,-67.2298,-0.00721846,0.00848721,-0.00778666,0.0116933,-0.0104245,-1.18021,0.0127767,0.0196132,1357,400,8.43737,67.2298
140,624,8.47412,-66.9589,-0.00578665,0.00673876,-0.00782466,0.0104984,-0.00954626,-1.12288,0.0115771,0.0190663,1364,400,8.47412,66.9588
147,624,8.46851,-66.5937,-0.00459516,0.00488106,-0.00704832,0.0086358,-0.0083499,-1.08132,0.00980716,0.0225168,1371,400,8.46846,66.5937
154,624,8.54138,-66.2572,-0.0030705,0.00352932,-0.00611864,0.00718118,-0.00672236,-1.0327,0.00802867,0.0258147,1378,400,8.54142,66.2572
161,624,8.60144,-65.9397,-0.0016842,0.00240842,-0.00498073,0.00574682,-0.0050226,-0.980309,0.00622241,0.0247431,1385,400,8.60141,65.9397
168,624,8.61499,-65.5519,-0.000579745,0.00143925,-0.00369706,0.00426216,-0.00340265,-0.918677,0.00443454,0.0241521,1392,400,8.61497,65.5519
175,624,8.61768,-65.17,0.000270684,0.000717964,-0.00244691,0.00295143,-0.00196278,-0.83097,0.0028563,0.0184967,1399,400,8.61771,65.17
182,624,8.60852,-64.7329,0.000705785,0.00129358,-0.00121481,0.00224953,-0.000250171,-0.904082,0.00158966,0.011597,1406,400,8.60849,64.7329
189,624,8.59888,-64.226,0.000679881,0.00219911,-0.000391641,0.00229412,0.000584862,-1.33278,0.00137652,0.0120396,1413,400,8.59884,64.226
196,624,8.58081,-63.7355,0.000935322,0.0030732,0.000532259,0.00319838,0.000810137,1.3398,0.00192005,0.013291,1420,400,8.58075,63.7355
203,624,8.60388,-63.2339,0.00087485,0.00381913,0.0012872,0.00430251,0.000391464,1.21156,0.00274717,0.0157055,1427,400,8.60391,63.2339
210,624,8.57324,-62.7069,0.000341505,0.00440442,0.00167081,0.00500325,-0.000257326,1.22665,0.0034245,0.0190554,1434,400,8.5732,62.7069
217,624,8.50818,-62.1579,-3.88421e-05,0.0049532,0.00197674,0.00564114,-0.000726785,1.23589,0.00402496,0.0213369,1441,400,8.50815,62.1579
224,624,8.48755,-61.6298,-0.000259134,0.00556118,0.00225576,0.00633306,-0.00103102,1.2411,0.00460436,0.0163498,1448,400,8.48753,61.6298
231,624,8.48621,-61.0563,-0.000340548,0.00609115,0.0026585,0.00704775,-0.00129714,1.2254,0.00518525,0.0124217,1455,400,8.48621,61.0563
238,624,8.4541,-60.4453,-0.000284839,0.00701092,0.00331349,0.00829115,-0.00156507,1.2021,0.00611624,0.0189787,1462,400,8.45412,60.4453
245,624,8.43323,-59.8512,-0.000338592,0.00784238,0.00381613,0.00934608,-0.00184229,1.19544,0.00692697,0.0196374,1469,400,8.43329,59.8512
252,624,8.38684,-59.1868,-0.000250409,0.00886301,0.00445961,0.0106822,-0.00206957,1.18348,0.00790216,0.013998,1476,400,8.38687,59.1868
259,624,8.32861,-58.5295,4.7608e-05,0.0105102,0.00544301,0.0128283,-0.00227045,1.16818,0.00940085,0.00957661,1483,400,8.32862,58.5295
266,624,8.29785,-57.8435,0.000214431,0.0117786,0.00629819,0.0145464,-0.00255332,1.15675,0.0106512,0.0141148,1490,400,8.29791,57.8435
273,624,8.24927,-57.1642,0.000393531,0.0133986,0.00732011,0.0166872,-0.0028951,1.14856,0.0122048,0.0172,1497,400,8.24931,57.1642
280,624,8.16748,-56.4918,0.000641166,0.0151313,0.00843573,0.0190062,-0.00323368,1.1402,0.0138749,0.0154864,1504,400,8.16743,56.4918
287,624,8.10083,-55.8049,0.00101249,0.017182,0.00971782,0.0217384,-0.00354393,1.13236,0.0158066,0.0123619,1511,400,8.10089,55.8049
294,624,8.04041,-55.0521,0.00128569,0.0191174,0.0109218,0.0243004,-0.00389731,1.12771,0.0176434,0.0112582,1518,400,8.04041,55.0521
301,624,7.97473,-54.2549,0.00160027,0.0210054,0.0121414,0.0268448,-0.00423917,1.1225,0.0194641,0.0133348,1525,400,7.97469,54.2549
308,624,7.95288,-53.4068,0.00211568,0.023356,0.0134477,0.0298714,-0.00439976,1.11962,0.0215312,0.0204311,1532,400,7.95294,53.4068
315,624,7.93359,-52.6489,0.00281301,0.0261149,0.0148746,0.0333583,-0.00443041,1.11763,0.0238532,0.0272742,1539,400,7.93361,52.6489
322,624,7.89563,-51.9249,0.0034581,0.0287054,0.0163546,0.0367416,-0.00457809,1.11407,0.0261543,0.049885,1546,400,7.89565,51.9249
329,624,7.87439,-51.1881,0,0,0,0,0,0,0,-1,1553,400,7.87445,51.1881
336,624,7.69702,-49.8192,0,0,0,0,0,0,0,-1,1560,400,7.69706,49.8192
343,624,6.53369,-39.5615,0,0,0,0,0,0,0,-1,1567,400,6.53364,39.5615
350,624,1.99194,-7.29742,0,0,0,0,0,0,0,-1,1574,400,1.99198,7.29741
357,624,2.64075,-3.13092,0,0,0,0,0,0,0,-1,1581,400,2.64076,3.13091
364,624,3.16565,-4.9458,0,0,0,0,0,0,0,-1,1588,400,3.16564,4.94579
371,624,3.37561,-5.23529,0,0,0,0,0,0,0,-1,1595,400,3.37563,5.23529
378,624,1.50439,-5.22165,0,0,0,0,0,0,0,-1,1602,400,1.50438,5.22164
385,624,1.2301,-10.5866,0,0,0,0,0,0,0,-1,1609,400,1.2301,10.5866
392,624,4.26819,-5.14236,0,0,0,0,0,0,0,-1,1616,400,4.26818,5.14236
399,624,2.22168,-9.19293,0,0,0,0,0,0,0,-1,1623,400,2.22173,9.19294
406,624,2.68213,-9.91171,0,0,0,0,0,0,0,-1,1630,400,2.68213,9.91171
413,624,0,0,0,0,0,0,0,0,0,-1,1637,400,0,0
420,624,0,0,0,0,0,0,0,0,0,-1,1644,400,0,0
427,624,0,0,0,0,0,0,0,0,0,-1,1651,400,0,0
434,624,0,0,0,0,0,0,0,0,0,-1,1658,400,0,0
441,624,0,0,0,0,0,0,0,0,0,-1,1665,400,0,0
448,624,0,0,0,0,0,0,0,0,0,-1,1672,400,0,0
455,624,0,0,0,0,0,0,0,0,0,-1,1679,400,0,0
462,624,0,0,0,0,0,0,0,0,0,-1,1686,400,0,0
469,624,0,0,0,0,0,0,0,0,0,-1,1693,400,0,0
476,624,0,0,0,0,0,0,0,0,0,-1,1700,400,0,0
483,624,0,0,0,0,0,0,0,0,0,-1,1707,400,0,0
490,624,0,0,0,0,0,0,0,0,0,-1,1714,400,0,0
497,624,0,0,0,0,0,0,0,0,0,-1,1721,400,0,0
504,624,0,0,0,0,0,0,0,0,0,-1,1728,400,0,0
511,624,0,0,0,0,0,0,0,0,0,-1,1735,400,0,0
518,624,0,0,0,0,0,0,0,0,0,-1,1742,400,0,0
525,624,0,0,0,0,0,0,0,0,0,-1,1749,400,0,0
532,624,0,0,0,0,0,0,0,0,0,-1,1756,400,0,0
539,624,0,0,0,0,0,0,0,0,0,-1,1763,400,0,0
546,624,0,0,0,0,0,0,0,0,0,-1,1770,400,0,0
553,624,0,0,0,0,0,0,0,0,0,-1,1777,400,0,0
560,624,0,0,0,0,0,0,0,0,0,-1,1784,400,0,0
567,624,0,0,0,0,0,0,0,0,0,-1,1791,400,0,0
574,624,0,0,0,0,0,0,0,0,0,-1,1798,400,0,0
581,624,0,0,0,0,0,0,0,0,0,-1,1805,400,0,0
588,624,0,0,0,0,0,0,0,0,0,-1,1812,400,0,0
595,624,0,0,0,0,0,0,0,0,0,-1,1819,400,0,0
602,624,0,0,0,0,0,0,0,0,0,-1,1826,400,0,0
609,624,0,0,0,0,0,0,0,0,0,-1,1833,400,0,0
616,624,0,0,0,0,0,0,0,0,0,-1,1840,400,0,0
623,624,0,0,0,0,0,0,0,0,0,-1,1847,400,0,0
630,624,0,0,0,0,0,0,0,0,0,-1,1854,400,0,0
637,624,0,0,0,0,0,0,0,0,0,-1,1861,400,0,0
644,624,0,0,0,0,0,0,0,0,0,-1,1868,400,0,0
651,624,0,0,0,0,0,0,0,0,0,-1,1875,400,0,0
658,624,0,0,0,0,0,0,0,0,0,-1,1882,400,0,0
665,624,0,0,0,0,0,0,0,0,0,-1,1889,400,0,0
672,624,0,0,0,0,0,0,0,0,0,-1,1896,400,0,0
679,624,0,0,0,0,0,0,0,0,0,-1,1903,400,0,0
686,624,0,0,0,0,0,0,0,0,0,-1,1910,400,0,0
693,624,0,0,0,0,0,0,0,0,0,-1,1917,400,0,0
700,624,0,0,0,0,0,0,0,0,0,-1,1924,400,0,0
707,624,0,0,0,0,0,0,0,0,0,-1,1931,400,0,0
714,624,0,0,0,0,0,0,0,0,0,-1,1938,400,0,0
721,624,0,0,0,0,0,0,0,0,0,-1,1945,400,0,0
728,624,0,0,0,0,0,0,0,0,0,-1,1952,400,0,0
735,624,0,0,0,0,0,0,0,0,0,-1,1959,400,0,0
742,624,0,0,0,0,0,0,0,0,0,-1,1966,400,0,0
749,624,0,0,0,0,0,0,0,0,0,-1,1973,400,0,0
756,624,0,0,0,0,0,0,0,0,0,-1,1980,400,0,0
763,624,0,0,0,0,0,0,0,0,0,-1,1987,400,0,0
770,624,0,0,0,0,0,0,0,0,0,-1,1994,400,0,0
777,624,0,0,0,0,0,0,0,0,0,-1,2001,400,0,0
784,624,0,0,0,0,0,0,0,0,0,-1,2008,400,0,0
791,624,0,0,0,0,0,0,0,0,0,-1,2015,400,0,0
798,624,0,0,0,0,0,0,0,0,0,-1,2022,400,0,0
805,624,0,0,0,0,0,0,0,0,0,-1,2029,400,0,0
812,624,0,0,0,0,0,0,0,0,0,-1,2036,400,0,0
-700,617,0,0,0,0,0,0,0,0,0,-1,524,407,0,0
-693,617,0,0,0,0,0,0,0,0,0,-1,531,407,0,0
-686,617,0,0,0,0,0,0,0,0,0,-1,538,407,0,0
-679,617,0,0,0,0,0,0,0,0,0,-1,545,407,0,0
-672,617,0,0,0,0,0,0,0,0,0,-1,552,407,0,0
-665,617,0,0,0,0,0,0,0,0,0,-1,559,407,0,0
-658,617,0,0,0,0,0,0,0,0,0,-1,566,407,0,0
-651,617,0,0,0,0,0,0,0,0,0,-1,573,407,0,0
-644,617,0,0,0,0,0,0,0,0,0,-1,580,407,0,0
-637,617,0,0,0,0,0,0,0,0,0,-1,587,407,0,0
-630,617,0,0,0,0,0,0,0,0,0,-1,594,407,0,0
-623,617,0,0,0,0,0,0,0,0,0,-1,601,407,0,0
-616,617,0,0,0,0,0,0,0,0,0,-1,608,407,0,0
-609,617,0,0,0,0,0,0,0,0,0,-1,615,407,0,0
-602,617,0,0,0,0,0,0,0,0,0,-1,622,407,0,0
-595,617,0,0,0,0,0,0,0,0,0,-1,629,407,0,0
-588,617,0,0,0,0,0,0,0,0,0,-1,636,407,0,0
-581,617,0,0,0,0,0,0,0,0,0,-1,643,407,0,0
-574,617,0,0,0,0,0,0,0,0,0,-1,650,407,0,0
-567,617,0,0,0,0,0,0,0,0,0,-1,657,407,0,0
-560,617,0,0,0,0,0,0,0,0,0,-1,664,407,0,0
-553,617,0,0,0,0,0,0,0,0,0,-1,671,407,0,0
-546,617,0,0,0,0,0,0,0,0,0,-1,678,407,0,0
-539,617,0,0,0,0,0,0,0,0,0,-1,685,407,0,0
-532,617,0,0,0,0,0,0,0,0,0,-1,692,407,0,0
-525,617,0,0,0,0,0,0,0,0,0,-1,699,407,0,0
-518,617,0,0,0,0,0,0,0,0,0,-1,706,407,0,0
-511,617,0,0,0,0,0,0,0,0,0,-1,713,407,0,0
-504,617,0,0,0,0,0,0,0,0,0,-1,720,407,0,0
-497,617,0,0,0,0,0,0,0,0,0,-1,727,407,0,0
-490,617,0,0,0,0,0,0,0,0,0,-1,734,407,0,0
-483,617,0,0,0,0,0,0,0,0,0,-1,741,407,0,0
-476,617,0,0,0,0,0,0,0,0,0,-1,748,407,0,0
-469,617,0,0,0,0,0,0,0,0,0,-1,755,407,0,0
-462,617,0,0,0,0,0,0,0,0,0,-1,762,407,0,0
-455,617,0,0,0,0,0,0,0,0,0,-1,769,407,0,0
-448,617,0,0,0,0,0,0,0,0,0,-1,776,407,0,0
-441,617,0,0,0,0,0,0,0,0,0,-1,783,407,0,0
-434,617,0,0,0,0,0,0,0,0,0,-1,790,407,0,0
-427,617,0,0,0,0,0,0,0,0,0,-1,797,407,0,0
-420,617,0,0,0,0,0,0,0,0,0,-1,804,407,0,0
-413,617,0,0,0,0,0,0,0,0,0,-1,811,407,0,0
-406,617,0,0,0,0,0,0,0,0,0,-1,818,407,0,0
-399,617,0,0,0,0,0,0,0,0,0,-1,825,407,0,0
-392,617,0,0,0,0,0,0,0,0,0,-1,832,407,0,0
-385,617,0,0,0,0,0,0,0,0,0,-1,839,407,0,0
-378,617,0,0,0,0,0,0,0,0,0,-1,846,407,0,0
-371,617,0,0,0,0,0,0,0,0,0,-1,853,407,0,0
-364,617,0,0,0,0,0,0,0,0,0,-1,860,407,0,0
-357,617,0,0,0,0,0,0,0,0,0,-1,867,407,0,0
-350,617,0,0,0,0,0,0,0,0,0,-1,874,407,0,0
-343,617,0,0,0,0,0,0,0,0,0,-1,881,407,0,0
-336,617,0,0,0,0,0,0,0,0,0,-1,888,407,0,0
-329,617,0,0,0,0,0,0,0,0,0,-1,895,407,0,0
-322,617,0,0,0,0,0,0,0,0,0,-1,902,407,0,0
-315,617,0,0,0,0,0,0,0,0,0,-1,909,407,0,0
-308,617,0,0,0,0,0,0,0,0,0,-1,916,407,0,0
-301,617,6.81897,-24.525,0,0,0,0,0,0,0,-1,923,407,6.81899,24.525
-294,617,6.19263,-26.917,0,0,0,0,0,0,0,-1,930,407,6.19261,26.917
-287,617,7.00409,-31.9773,0,0,0,0,0,0,0,-1,937,407,7.00406,31.9773
-280,617,9.1106,-36.5021,0,0,0,0,0,0,0,-1,944,407,9.11059,36.5021
-273,617,8.35004,-36.2751,0,0,0,0,0,0,0,-1,951,407,8.35003,36.2751
-266,617,7.61749,-36.1671,0,0,0,0,0,0,0,-1,958,407,7.61746,36.1671
-259,617,6.83643,-36.3605,0,0,0,0,0,0,0,-1,965,407,6.83643,36.3605
-252,617,6.02264,-36.5001,0,0,0,0,0,0,0,-1,972,407,6.02265,36.5001
-245,617,6.72626,-34.4465,0,0,0,0,0,0,0,-1,979,407,6.72627,34.4465
-238,617,5.6474,-34.6842,0,0,0,0,0,0,0,-1,986,407,5.64741,34.6842
-231,617,7.5722,-47.4753,0,0,0,0,0,0,0,-1,993,407,7.57218,47.4753
-224,617,7.58929,-48.5844,0,0,0,0,0,0,0,-1,1000,407,7.58931,48.5844
-217,617,7.75146,-49.6448,0,0,0,0,0,0,0,-1,1007,407,7.75149,49.6448
-210,617,7.6944,-50.6525,-0.000582947,0.0219993,-0.0108423,0.0263621,-0.00494575,-1.18823,0.0194342,0.0356096,1014,407,7.69443,50.6525
-203,617,7.6377,-51.4678,-0.00100126,0.0188039,-0.00957757,0.0226778,-0.00487514,-1.18644,0.0169785,0.0276586,1021,407,7.63763,51.4678
-196,617,7.59949,-52.1611,-0.0012878,0.0159469,-0.00849291,0.0194287,-0.00476955,-1.18173,0.0148007,0.0205837,1028,407,7.59944,52.1611
-189,617,7.46118,-53.0226,-0.00144932,0.0141044,-0.00787931,0.0173984,-0.00474328,-1.17483,0.0134615,0.0183015,1035,407,7.46114,53.0226
-182,617,7.37048,-53.7919,-0.0015798,0.0123769,-0.00717926,0.0154105,-0.00461341,-1.171,0.0121081,0.0199126,1042,407,7.37042,53.7919
-175,617,7.34473,-54.521,-0.00181691,0.010614,-0.0063474,0.0132823,-0.00448522,-1.17285,0.010669,0.017665,1049,407,7.34471,54.521
-168,617,7.26819,-55.2751,-0.00194266,0.00937871,-0.00578202,0.0118097,-0.00437365,-1.1728,0.00966665,0.0132149,1056,407,7.26818,55.2751
-161,617,7.18311,-56.0286,-0.00189093,0.00840093,-0.00526957,0.0106204,-0.00411039,-1.17216,0.00877729,0.011575,1063,407,7.1831,56.0286
-154,617,7.13843,-56.7059,-0.00176753,0.00751715,-0.00473659,0.00950705,-0.00375743,-1.17307,0.00789442,0.0119029,1070,407,7.13841,56.7059
-147,617,7.06274,-57.3696,-0.00160291,0.00665998,-0.00419755,0.00841821,-0.00336115,-1.17413,0.00700661,0.0169691,1077,407,7.0627,57.3696
-140,617,7.00781,-58.0778,-0.0013446,0.00573505,-0.00367448,0.0072974,-0.00290695,-1.16877,0.00607053,0.0129899,1084,407,7.00777,58.0778
-133,617,6.98474,-58.7118,-0.00105113,0.00495571,-0.00315596,0.00630897,-0.00240438,-1.16572,0.00519629,0.0153532,1091,407,6.9847,58.7118
-126,617,6.94763,-59.3014,-0.000763341,0.0042379,-0.00264319,0.0053759,-0.00190134,-1.16424,0.00435823,0.015651,1098,407,6.94758,59.3014
-119,617,6.88159,-59.9502,-0.000435518,0.00345773,-0.00207304,0.00435484,-0.00133263,-1.16238,0.00343472,0.0158155,1105,407,6.88162,59.9502
-112,617,6.86536,-60.5484,7.58244e-06,0.00286341,-0.00162192,0.00359642,-0.000725424,-1.14633,0.00267244,0.016875,1112,407,6.86532,60.5484
-105,617,6.83496,-61.129,0.00049874,0.00239925,-0.00131825,0.00307404,-0.000176049,-1.09769,0.00211049,0.0172632,1119,407,6.83499,61.129
-98,617,6.86414,-61.6845,0.00101414,0.0019486,-0.00104786,0.00262868,0.000334063,-0.995111,0.00165239,0.0147666,1126,407,6.86414,61.6845
-91,617,6.87561,-62.2354,0.0016352,0.00156749,-0.000799632,0.0024017,0.000800998,-0.764241,0.00141201,0.0208608,1133,407,6.87564,62.2353
-84,617,6.89673,-62.8074,0.00231972,0.00108953,-0.000501923,0.00249852,0.000910729,-0.342213,0.00146007,0.0197398,1140,407,6.89677,62.8074
-77,617,6.87427,-63.3202,0.00303392,0.000565247,-0.000230422,0.00305525,0.000543924,-0.092276,0.00188191,0.0155862,1147,407,6.87431,63.3202
-70,617,6.88867,-63.8073,0.00377535,-0.000123719,4.42547e-05,0.00377585,-0.000124221,0.0113481,0.00255965,0.0182333,1154,407,6.88866,63.8073
-63,617,6.9469,-64.2881,0.00453965,-0.00110074,0.000360508,0.0045626,-0.00112369,0.0635706,0.00347735,0.0219978,1161,407,6.94693,64.2881
-56,617,6.90271,-64.7345,0.00520759,-0.00214741,0.000712029,0.00527589,-0.00221571,0.0956256,0.00444393,0.0169639,1168,407,6.90268,64.7345
-49,617,6.93347,-65.1979,0.00576273,-0.00315454,0.000986756,0.00587061,-0.00326243,0.108901,0.00534416,0.0126701,1175,407,6.93347,65.1979
-42,617,6.96667,-65.6041,0.00471734,-0.00269519,0.00110684,0.00487909,-0.00285694,0.145105,0.00451697,0.0116596,1182,407,6.9667,65.6041
-35,617,7.00757,-65.9568,0.00300808,-0.00201094,0.00123549,0.00329572,-0.00229859,0.228744,0.00324693,0.017026,1189,407,7.00757,65.9568
-28,617,7.02515,-66.2939,0.000625394,-0.0011869,0.00149514,0.00146754,-0.00202905,0.512966,0.00202742,0.0206049,1196,407,7.02511,66.2939
-21,617,7.0824,-66.6021,-0.0015658,-0.000245751,0.00206203,0.00125931,-0.00307086,0.940288,0.00257192,0.014865,1203,407,7.08234,66.6021
-14,617,7.12048,-66.8938,-0.00400924,9.06202e-05,0.00249345,0.00126862,-0.00518724,1.12944,0.00394954,0.0163326,1210,407,7.12048,66.8938
-7,617,7.16406,-67.1238,-0.00645043,-0.000159703,0.00293702,0.000998349,-0.00760848,1.19522,0.00543575,0.0201768,1217,407,7.16401,67.1238
0,617,7.24658,-67.3764,-0.00884627,-0.000953476,0.00344567,0.000339084,-0.0101388,1.21192,0.00687504,0.0173435,1224,407,7.24663,67.3764
7,617,7.34119,-67.7039,-0.0109301,-0.00173384,0.00391785,-0.000291071,-0.0123728,1.21795,0.00815326,0.0132017,1231,407,7.34117,67.7039
14,617,7.41931,-67.959,-0.0125388,-0.00280185,0.00437932,-0.001122,-0.0142186,1.20452,0.00912811,0.0163144,1238,407,7.41936,67.959
21,617,7.49817,-68.0889,-0.0145218,-0.00373787,0.00544488,-0.00146694,-0.0167927,1.17565,0.0107396,0.0159302,1245,407,7.4982,68.0889
28,617,7.54663,-68.2542,-0.0163928,-0.00444899,0.00673945,-0.00141624,-0.0194256,1.14794,0.0125051,0.0140005,1252,407,7.54663,68.2542
35,617,7.52368,-68.4154,-0.0179362,-0.00485109,0.00791298,-0.0011262,-0.0216611,1.13084,0.0140803,0.0164633,1259,407,7.52367,68.4154
42,617,7.68884,-68.4509,-0.0190302,-0.00465074,0.00863251,-0.000606041,-0.0230749,1.13263,0.0151853,0.0238354,1266,407,7.68883,68.4509
49,617,7.83569,-68.5143,-0.0204941,-0.00417561,0.00919163,-4.42294e-05,-0.0246255,1.14838,0.0164022,0.0238844,1273,407,7.83571,68.5143
56,617,7.90637,-68.5892,-0.0218871,-0.00273432,0.00942521,0.00112588,-0.0257473,1.18208,0.0175522,0.0173801,1280,407,7.90643,68.5892
63,617,7.93311,-68.6142,-0.0227733,-0.000496923,0.00934297,0.00290278,-0.026173,1.22181,0.0184924,0.0130607,1287,407,7.93305,68.6142
70,617,7.99231,-68.6393,-0.0234062,0.00308161,0.00831654,0.00547631,-0.0258009,1.29044,0.019287,0.0191233,1294,407,7.99236,68.6393
77,617,8.12061,-68.5515,-0.0237484,0.00630006,0.00647122,0.00763444,-0.0250828,1.36744,0.0197644,0.0175736,1301,407,8.12064,68.5515
84,617,8.21606,-68.4534,-0.0236625,0.00926177,0.00448006,0.00986049,-0.0242612,1.43794,0.0202766,0.0131222,1308,407,8.21606,68.4534
91,617,8.2876,-68.3828,-0.0236106,0.0119172,0.0018544,0.0120137,-0.0237072,1.51879,0.0209886,0.0112401,1315,407,8.28755,68.3828
98,617,8.36011,-68.2783,-0.0233727,0.013953,-0.00140391,0.0140057,-0.0234254,-1.53325,0.0218378,0.0113757,1322,407,8.36007,68.2783
105,617,8.43408,-68.1143,-0.022271,0.0154068,-0.00430686,0.0158929,-0.022757,-1.45842,0.0224315,0.0130413,1329,407,8.43403,68.1143
112,617,8.51672,-67.9583,-0.0206444,0.0153543,-0.0069955,0.0166659,-0.0219561,-1.38545,0.022368,0.0168798,1336,407,8.51673,67.9584
119,617,8.58716,-67.7565,-0.0187853,0.0141853,-0.0093177,0.0166364,-0.0212363,-1.31357,0.0219195,0.019691,1343,407,8.58722,67.7565
126,617,8.63171,-67.4962,-0.0164298,0.0126712,-0.0118521,0.0168874,-0.020646,-1.22902,0.0217061,0.0218247,1350,407,8.63167,67.4962
133,617,8.70288,-67.2064,-0.0139468,0.0104116,-0.0136551,0.0165298,-0.020065,-1.14956,0.0211608,0.0197301,1357,407,8.70286,67.2064
140,617,8.79773,-66.916,-0.0116525,0.00802698,-0.0146352,0.0158227,-0.0194482,-1.08136,0.0203995,0.0173477,1364,407,8.79778,66.916
147,617,8.79456,-66.5835,-0.00962517,0.00525392,-0.0142526,0.0138918,-0.0182631,-1.02594,0.0186217,0.0208869,1371,407,8.79452,66.5835
154,617,8.85681,-66.2808,-0.00707658,0.00316064,-0.0134644,0.0124466,-0.0163625,-0.967041,0.0166841,0.0239649,1378,407,8.85683,66.2807
161,617,8.97302,-65.9696,-0.00485192,0.00112888,-0.0120423,0.0105466,-0.0142696,-0.907099,0.0143813,0.0246879,1385,407,8.97303,65.9696
168,617,9.04712,-65.6086,-0.00282574,-0.00100621,-0.0105893,0.00871237,-0.0125443,-0.82825,0.0123388,0.0222726,1392,407,9.04715,65.6086
175,617,9.04468,-65.1904,-0.00100024,-0.00287824,-0.00840775,0.00652079,-0.0103993,-0.729787,0.00985397,0.0184823,1399,407,9.04463,65.1904
182,617,9.06006,-64.7258,0.000378774,-0.00257434,-0.006,0.00508123,-0.0072768,-0.664749,0.00717235,0.0122877,1406,407,9.06012,64.7258
189,617,9.05505,-64.235,0.000863668,-0.0015232,-0.00446257,0.00428963,-0.00494917,-0.65474,0.00533855,0.0121902,1413,407,9.05506,64.235
196,617,9.03381,-63.7493,0.00212804,-0.000603369,-0.00260121,0.00370027,-0.00217559,-0.543664,0.00343029,0.0164459,1420,407,9.03385,63.7493
203,617,9.0575,-63.2674,0.00310145,0.000345599,-0.00044598,0.00317182,0.000275224,-0.15651,0.00202904,0.0161875,1427,407,9.05751,63.2674
210,617,9.08289,-62.7143,0.00260099,0.00122427,0.000244887,0.00264325,0.001182,0.170896,0.00152892,0.0153158,1434,407,9.08287,62.7143
217,617,9.05505,-62.166,0.00199993,0.0021249,0.000669428,0.00273476,0.00139008,0.831933,0.00157898,0.0197747,1441,407,9.05504,62.166
224,617,9.07019,-61.6619,0.00155888,0.00293925,0.00106646,0.00351938,0.000978753,1.07259,0.00209755,0.0195507,1448,407,9.07015,61.6619
231,617,9.08569,-61.0774,0.0012327,0.00359762,0.00151936,0.00434044,0.000489887,1.11607,0.00274494,0.0150537,1455,407,9.08564,61.0774
238,617,9.04443,-60.4634,0.00107814,0.00435155,0.00203433,0.00532585,0.000103845,1.12415,0.00351646,0.0175572,1462,407,9.04444,60.4635
245,617,9.03467,-59.8711,0.000905217,0.00508386,0.00245975,0.00622187,-0.000232788,1.13747,0.00422765,0.0152872,1469,407,9.03467,59.8711
252,617,9.00562,-59.2,0.000781734,0.0059532,0.0029915,0.00732159,-0.000586653,1.14178,0.0050879,0.0154034,1476,407,9.00564,59.2
259,617,8.95239,-58.5318,0.000788809,0.00721371,0.00375324,0.00894157,-0.000939046,1.13936,0.00629744,0.0118653,1483,407,8.95234,58.5318
266,617,8.92139,-57.8482,0.000756945,0.00826032,0.00444385,0.0103244,-0.00130712,1.13597,0.00735744,0.0144586,1490,407,8.92135,57.8482
273,617,8.9054,-57.1378,0.000736886,0.00959262,0.00526029,0.0120406,-0.00171105,1.13524,0.00865396,0.0152256,1497,407,8.90539,57.1378
280,617,8.83789,-56.4685,0.000767365,0.0110346,0.00616215,0.0139213,-0.00211938,1.13269,0.010062,0.0137531,1504,407,8.83784,56.4685
287,617,8.77344,-55.7553,0.000929217,0.0127242,0.00718963,0.0161257,-0.00247228,1.12889,0.0116622,0.0128034,1511,407,8.77345,55.7553
294,617,8.72009,-55.0277,0.00101834,0.014312,0.00814967,0.0181817,-0.00285137,1.12749,0.0131748,0.00996435,1518,407,8.72015,55.0277
301,617,8.66907,-54.2974,0.00113376,0.0158771,0.00913209,0.0202416,-0.00323069,1.12496,0.0146902,0.00808868,1525,407,8.66901,54.2974
308,617,8.59314,-53.5428,0.00141581,0.0178402,0.0101921,0.0227169,-0.00346087,1.12451,0.0164202,0.00906009,1532,407,8.59312,53.5428
315,617,8.51367,-52.7899,0.0018466,0.0201098,0.0113481,0.0255441,-0.00358768,1.12419,0.0183426,0.0112066,1539,407,8.51363,52.7899
322,617,8.45544,-52.0191,0.00219303,0.0221415,0.0124883,0.0281499,-0.00381533,1.12237,0.0201591,0.0173614,1546,407,8.45543,52.0191
329,617,8.43176,-51.2158,0.00259796,0.0240818,0.0136203,0.0306864,-0.00400664,1.11929,0.0219156,0.0228227,1553,407,8.43176,51.2158
336,617,8.48401,-50.2025,0.00311248,0.0265548,0.0148241,0.0337317,-0.00406451,1.11991,0.0239579,0.0448941,1560,407,8.48404,50.2025
343,617,8.52002,-49.3851,0,0,0,0,0,0,0,-1,1567,407,8.52003,49.3851
350,617,8.16797,-48.6562,0,0,0,0,0,0,0,-1,1574,407,8.16801,48.6562
357,617,8.21655,-47.1865,0,0,0,0,0,0,0,-1,1581,407,8.21661,47.1865
364,617,8.24878,-46.2353,0,0,0,0,0,0,0,-1,1588,407,8.24874,46.2353
371,617,2.60266,-6.20667,0,0,0,0,0,0,0,-1,1595,407,2.60261,6.20668
378,617,1.56921,-10.3601,0,0,0,0,0,0,0,-1,1602,407,1.56918,10.3601
385,617,1.74146,-10.3561,0,0,0,0,0,0,0,-1,1609,407,1.7414,10.3561
392,617,1.96936,-5.10449,0,0,0,0,0,0,0,-1,1616,407,1.96931,5.10451
399,617,2.48889,-5.81256,0,0,0,0,0,0,0,-1,1623,407,2.48888,5.81255
406,617,3.01465,-6.51642,0,0,0,0,0,0,0,-1,1630,407,3.01461,6.51643
413,617,3.6427,-7.2074,0,0,0,0,0,0,0,-1,1637,407,3.64274,7.20739
420,617,3.42737,-4.47391,0,0,0,0,0,0,0,-1,1644,407,3.42737,4.47391
427,617,0,0,0,0,0,0,0,0,0,-1,1651,407,0,0
434,617,0,0,0,0,0,0,0,0,0,-1,1658,407,0,0
441,617,0,0,0,0,0,0,0,0,0,-1,1665,407,0,0
448,617,0,0,0,0,0,0,0,0,0,-1,1672,407,0,0
455,617,0,0,0,0,0,0,0,0,0,-1,1679,407,0,0
462,617,0,0,0,0,0,0,0,0,0,-1,1686,407,0,0
469,617,0,0,0,0,0,0,0,0,0,-1,1693,407,0,0
476,617,0,0,0,0,0,0,0,0,0,-1,1700,407,0,0
483,617,0,0,0,0,0,0,0,0,0,-1,1707,407,0,0
490,617,0,0,0,0,0,0,0,0,0,-1,1714,407,0,0
497,617,0,0,0,0,0,0,0,0,0,-1,1721,407,0,0
504,617,0,0,0,0,0,0,0,0,0,-1,1728,407,0,0
511,617,0,0,0,0,0,0,0,0,0,-1,1735,407,0,0
518,617,0,0,0,0,0,0,0,0,0,-1,1742,407,0,0
525,617,0,0,0,0,0,0,0,0,0,-1,1749,407,0,0
532,617,0,0,0,0,0,0,0,0,0,-1,1756,407,0,0
539,617,0,0,0,0,0,0,0,0,0,-1,1763,407,0,0
546,617,0,0,0,0,0,0,0,0,0,-1,1770,407,0,0
553,617,0,0,0,0,0,0,0,0,0,-1,1777,407,0,0
560,617,0,0,0,0,0,0,0,0,0,-1,1784,407,0,0
567,617,0,0,0,0,0,0,0,0,0,-1,1791,407,0,0
574,617,0,0,0,0,0,0,0,0,0,-1,1798,407,0,0
581,617,0,0,0,0,0,0,0,0,0,-1,1805,407,0,0
588,617,0,0,0,0,0,0,0,0,0,-1,1812,407,0,0
595,617,0,0,0,0,0,0,0,0,0,-1,1819,407,0,0
602,617,0,0,0,0,0,0,0,0,0,-1,1826,407,0,0
609,617,0,0,0,0,0,0,0,0,0,-1,1833,407,0,0
616,617,0,0,0,0,0,0,0,0,0,-1,1840,407,0,0
623,617,0,0,0,0,0,0,0,0,0,-1,1847,407,0,0
630,617,0,0,0,0,0,0,0,0,0,-1,1854,407,0,0
637,617,0,0,0,0,0,0,0,0,0,-1,1861,407,0,0
644,617,0,0,0,0,0,0,0,0,0,-1,1868,407,0,0
651,617,0,0,0,0,0,0,0,0,0,-1,1875,407,0,0
658,617,0,0,0,0,0,0,0,0,0,-1,1882,407,0,0
665,617,0,0,0,0,0,0,0,0,0,-1,1889,407,0,0
672,617,0,0,0,0,0,0,0,0,0,-1,1896,407,0,0
679,617,0,0,0,0,0,0,0,0,0,-1,1903,407,0,0
686,617,0,0,0,0,0,0,0,0,0,-1,1910,407,0,0
693,617,0,0,0,0,0,0,0,0,0,-1,1917,407,0,0
700,617,0,0,0,0,0,0,0,0,0,-1,1924,407,0,0
707,617,0,0,0,0,0,0,0,0,0,-1,1931,407,0,0
714,617,0,0,0,0,0,0,0,0,0,-1,1938,407,0,0
721,617,0,0,0,0,0,0,0,0,0,-1,1945,407,0,0
728,617,0,0,0,0,0,0,0,0,0,-1,1952,407,0,0
735,617,0,0,0,0,0,0,0,0,0,-1,1959,407,0,0
742,617,0,0,0,0,0,0,0,0,0,-1,1966,407,0,0
749,617,0,0,0,0,0,0,0,0,0,-1,1973,407,0,0
756,617,0,0,0,0,0,0,0,0,0,-1,1980,407,0,0
763,617,0,0,0,0,0,0,0,0,0,-1,1987,407,0,0
770,617,0,0,0,0,0,0,0,0,0,-1,1994,407,0,0
777,617,0,0,0,0,0,0,0,0,0,-1,2001,407,0,0
784,617,0,0,0,0,0,0,0,0,0,-1,2008,407,0,0
791,617,0,0,0,0,0,0,0,0,0,-1,2015,407,0,0
798,617,0,0,0,0,0,0,0,0,0,-1,2022,407,0,0
805,617,0,0,0,0,0,0,0,0,0,-1,2029,407,0,0
812,617,0,0,0,0,0,0,0,0,0,-1,2036,407,0,0
-700,610,0,0,0,0,0,0,0,0,0,-1,524,414,0,0
-693,610,0,0,0,0,0,0,0,0,0,-1,531,414,0,0
-686,610,0,0,0,0,0,0,0,0,0,-1,538,414,0,0
-679,610,0,0,0,0,0,0,0,0,0,-1,545,414,0,0
-672,610,0,0,0,0,0,0,0,0,0,-1,552,414,0,0
-665,610,0,0,0,0,0,0,0,0,0,-1,559,414,0,0
-658,610,0,0,0,0,0,0,0,0,0,-1,566,414,0,0
-651,610,0,0,0,0,0,0,0,0,0,-1,573,414,0,0
-644,610,0,0,0,0,0,0,0,0,0,-1,580,414,0,0
-637,610,0,0,0,0,0,0,0,0,0,-1,587,414,0,0
-630,610,0,0,0,0,0,0,0,0,0,-1,594,414,0,0
-623,610,0,0,0,0,0,0,0,0,0,-1,601,414,0,0
-616,610,0,0,0,0,0,0,0,0,0,-1,608,414,0,0
-609,610,0,0,0,0,0,0,0,0,0,-1,615,414,0,0
-602,610,0,0,0,0,0,0,0,0,0,-1,622,414,0,0
-595,610,0,0,0,0,0,0,0,0,0,-1,629,414,0,0
-588,610,0,0,0,0,0,0,0,0,0,-1,636,414,0,0
-581,610,0,0,0,0,0,0,0,0,0,-1,643,414,0,0
-574,610,0,0,0,0,0,0,0,0,0,-1,650,414,0,0
-567,610,0,0,0,0,0,0,0,0,0,-1,657,414,0,0
-560,610,0,0,0,0,0,0,0,0,0,-1,664,414,0,0
-553,610,0,0,0,0,0,0,0,0,0,-1,671,414,0,0
-546,610,0,0,0,0,0,0,0,0,0,-1,678,414,0,0
-539,610,0,0,0,0,0,0,0,0,0,-1,685,414,0,0
-532,610,0,0,0,0,0,0,0,0,0,-1,692,414,0,0
-525,610,0,0,0,0,0,0,0,0,0,-1,699,414,0,0
-518,610,0,0,0,0,0,0,0,0,0,-1,706,414,0,0
-511,610,0,0,0,0,0,0,0,0,0,-1,713,414,0,0
-504,610,0,0,0,0,0,0,0,0,0,-1,720,414,0,0
-497,610,0,0,0,0,0,0,0,0,0,-1,727,414,0,0
-490,610,0,0,0,0,0,0,0,0,0,-1,734,414,0,0
-483,610,0,0,0,0,0,0,0,0,0,-1,741,414,0,0
-476,610,0,0,0,0,0,0,0,0,0,-1,748,414,0,0
-469,610,0,0,0,0,0,0,0,0,0,-1,755,414,0,0
-462,610,0,0,0,0,0,0,0,0,0,-1,762,414,0,0
-455,610,0,0,0,0,0,0,0,0,0,-1,769,414,0,0
-448,610,0,0,0,0,0,0,0,0,0,-1,776,414,0,0
-441,610,0,0,0,0,0,0,0,0,0,-1,783,414,0,0
-434,610,0,0,0,0,0,0,0,0,0,-1,790,414,0,0
-427,610,0,0,0,0,0,0,0,0,0,-1,797,414,0,0
-420,610,0,0,0,0,0,0,0,0,0,-1,804,414,0,0
-413,610,0,0,0,0,0,0,0,0,0,-1,811,414,0,0
-406,610,0,0,0,0,0,0,0,0,0,-1,818,414,0,0
-399,610,0,0,0,0,0,0,0,0,0,-1,825,414,0,0
-392,610,0,0,0,0,0,0,0,0,0,-1,832,414,0,0
-385,610,0,0,0,0,0,0,0,0,0,-1,839,414,0,0
-378,610,0,0,0,0,0,0,0,0,0,-1,846,414,0,0
-371,610,0,0,0,0,0,0,0,0,0,-1,853,414,0,0
-364,610,0,0,0,0,0,0,0,0,0,-1,860,414,0,0
-357,610,0,0,0,0,0,0,0,0,0,-1,867,414,0,0
-350,610,0,0,0,0,0,0,0,0,0,-1,874,414,0,0
-343,610,0,0,0,0,0,0,0,0,0,-1,881,414,0,0
-336,610,0,0,0,0,0,0,0,0,0,-1,888,414,0,0
-329,610,0,0,0,0,0,0,0,0,0,-1,895,414,0,0
-322,610,0,0,0,0,0,0,0,0,0,-1,902,414,0,0
-315,610,7.68475,-21.5402,0,0,0,0,0,0,0,-1,909,414,7.68475,21.5402
-308,610,3.97211,-23.4133,0,0,0,0,0,0,0,-1,916,414,3.9721,23.4133
-301,610,7.38513,-22.4166,0,0,0,0,0,0,0,-1,923,414,7.38516,22.4166
-294,610,6.77832,-24.1945,0,0,0,0,0,0,0,-1,930,414,6.77829,24.1946
-287,610,3.39276,-28.5804,0,0,0,0,0,0,0,-1,937,414,3.39276,28.5803
-280,610,8.8728,-35.4336,0,0,0,0,0,0,0,-1,944,414,8.87283,35.4336
-273,610,8.14722,-35.5264,0,0,0,0,0,0,0,-1,951,414,8.14723,35.5264
-266,610,7.38361,-35.6366,0,0,0,0,0,0,0,-1,958,414,7.38359,35.6366
-259,610,6.47375,-35.762,0,0,0,0,0,0,0,-1,965,414,6.47373,35.762
-252,610,5.65308,-35.8931,0,0,0,0,0,0,0,-1,972,414,5.65305,35.8931
-245,610,7.51703,-46.2933,0,0,0,0,0,0,0,-1,979,414,7.51705,46.2933
-238,610,7.13782,-47.2505,0,0,0,0,0,0,0,-1,986,414,7.1378,47.2506
-231,610,6.94373,-47.8385,-0.000243543,0.0251706,-0.0121575,0.0300497,-0.0051227,-1.18915,0.021941,0.0479933,993,414,6.94372,47.8385
-224,610,6.97394,-48.8551,-0.000161104,0.0223806,-0.0108325,0.0267422,-0.00452278,-1.18801,0.0195113,0.0303403,1000,414,6.97395,48.8551
-217,610,6.98798,-49.8137,-0.000264557,0.0196456,-0.00964391,0.0235508,-0.00416981,-1.18603,0.0172592,0.0212793,1007,414,6.98799,49.8137
-210,610,6.93304,-50.7259,-0.00043912,0.0171182,-0.00853649,0.0205844,-0.00390531,-1.18509,0.015193,0.0154183,1014,414,6.93306,50.7259
-203,610,6.89734,-51.5344,-0.000632377,0.0146051,-0.00747303,0.0176584,-0.00368563,-1.18292,0.0131738,0.0169221,1021,414,6.89738,51.5344
-196,610,6.81445,-52.2986,-0.000756207,0.0122923,-0.00655084,0.0150136,-0.00347746,-1.17708,0.0113472,0.016059,1028,414,6.81442,52.2986
-189,610,6.74573,-53.0638,-0.000787454,0.0105937,-0.00597138,0.0131518,-0.00334551,-1.16606,0.01007,0.0136404,1035,414,6.74578,53.0639
-182,610,6.69946,-53.7774,-0.000795025,0.00903441,-0.00534687,0.0113822,-0.00314278,-1.15705,0.00882427,0.0150783,1042,414,6.69944,53.7774
-175,610,6.65295,-54.4958,-0.000888332,0.00743331,-0.004623,0.00949218,-0.0029472,-1.15181,0.00750594,0.0159451,1049,414,6.65301,54.4958
-168,610,6.5658,-55.2671,-0.00091749,0.00628751,-0.00411359,0.00815307,-0.00278305,-1.14503,0.0065628,0.0137268,1056,414,6.56585,55.2671
-161,610,6.51599,-56.0339,-0.000818199,0.00537413,-0.00365422,0.00706749,-0.00251156,-1.13686,0.00573519,0.0119704,1063,414,6.51603,56.0339
-154,610,6.47327,-56.7099,-0.000640445,0.00456902,-0.00316499,0.00606329,-0.00213471,-1.1297,0.00491093,0.0155538,1070,414,6.47327,56.7099
-147,610,6.43579,-57.334,-0.000391585,0.00383839,-0.0026738,0.00513257,-0.00168576,-1.12001,0.0041008,0.0183839,1077,414,6.4358,57.334
-140,610,6.40173,-58.0218,-6.76785e-05,0.003063,-0.00220305,0.0042002,-0.00120488,-1.09428,0.00327646,0.0144309,1084,414,6.40179,58.0218
-133,610,6.36633,-58.6739,0.000284166,0.00243099,-0.00174796,0.00340881,-0.000693661,-1.06076,0.00253559,0.0151906,1091,414,6.36635,58.6739
-126,610,6.33203,-59.2898,0.000669267,0.00188588,-0.00132127,0.00273215,-0.000177,-1.00113,0.00188321,0.0126966,1098,414,6.33203,59.2898
-119,610,6.31628,-59.9143,0.00114401,0.00135842,-0.000859686,0.00211756,0.000384872,-0.84743,0.00130251,0.0112814,1105,414,6.31624,59.9143
-112,610,6.29724,-60.5102,0.00170594,0.000982772,-0.00049248,0.00195532,0.00073339,-0.468738,0.00114059,0.0206731,1112,414,6.29724,60.5102
-105,610,6.24304,-61.0781,0.00230586,0.000712859,-0.000251304,0.00234456,0.000674155,-0.152813,0.00139377,0.0214564,1119,414,6.24306,61.0781
-98,610,6.29834,-61.6458,0.00294486,0.000361643,-3.15105e-05,0.00294524,0.000361258,-0.0121957,0.00185484,0.0151849,1126,414,6.2983,61.6457
-91,610,6.33374,-62.2312,0.0037846,5.15386e-05,0.000153715,0.00379091,4.52199e-05,0.041084,0.00251234,0.0164251,1133,414,6.3337,62.2312
-84,610,6.34766,-62.7697,0.00466429,-0.000249239,0.000369382,0.00469191,-0.000276852,0.0746175,0.00322419,0.0160098,1140,414,6.34762,62.7697
-77,610,6.3457,-63.3229,0.00559185,-0.00090613,0.000647068,0.00565566,-0.000969939,0.0982937,0.00413188,0.0133225,1147,414,6.34572,63.3229
-70,610,6.3844,-63.8205,0.00655971,-0.00180175,0.000951878,0.0066667,-0.00190874,0.111933,0.00519886,0.0168519,1154,414,6.38434,63.8205
-63,610,6.43188,-64.2607,0.00751261,-0.00311492,0.00129476,0.00766807,-0.00327038,0.119502,0.00648322,0.0172364,1161,414,6.43191,64.2607
-56,610,6.47009,-64.695,0.00828397,-0.00448513,0.00168381,0.00850227,-0.00470343,0.12893,0.00772876,0.0159038,1168,414,6.47013,64.695
-49,610,6.50269,-65.129,0.00887237,-0.00573983,0.00196041,0.00913082,-0.00599827,0.131075,0.00879697,0.0149603,1175,414,6.50267,65.129
-42,610,6.54785,-65.5368,0.00609013,-0.00403785,0.00195136,0.00645309,-0.00440081,0.183903,0.00630374,0.0154478,1182,414,6.54785,65.5368
-35,610,6.61804,-65.918,0.00391831,-0.00208894,0.00304816,0.00519406,-0.00336469,0.396379,0.00497888,0.016717,1189,414,6.61805,65.918
-28,610,6.69202,-66.2566,0.000193188,-0.000982621,0.00331275,0.0029698,-0.00375923,0.697579,0.00389391,0.0150538,1196,414,6.692,66.2566
-21,610,6.76624,-66.5496,-0.00333435,0.000264433,0.00430439,0.0031304,-0.00620032,0.983377,0.00548342,0.0123785,1203,414,6.76623,66.5496
-14,610,6.81274,-66.8409,-0.00669338,0.000354867,0.00499867,0.0029468,-0.00928531,1.09244,0.00737149,0.0138265,1210,414,6.81276,66.8408
-7,610,6.89355,-67.0932,-0.00979329,-0.000277002,0.00565725,0.00235704,-0.0124273,1.13504,0.00917209,0.0163882,1217,414,6.8935,67.0932
0,610,6.9751,-67.3874,-0.0126802,-0.0015629,0.006351,0.00131846,-0.0155615,1.14488,0.0108406,0.0127089,1224,414,6.97514,67.3874
7,610,7.08521,-67.7017,-0.015096,-0.00297651,0.00700655,0.000227224,-0.0182998,1.14193,0.0122763,0.0167222,1231,414,7.08525,67.7017
14,610,7.3175,-67.844,-0.0170504,-0.00464851,0.00755987,-0.00107176,-0.0206272,1.12888,0.0134085,0.0249407,1238,414,7.31745,67.844
21,610,7.39465,-67.9433,-0.0194623,-0.00618945,0.00874674,-0.00184646,-0.0238053,1.10993,0.0152919,0.0240842,1245,414,7.39462,67.9433
28,610,7.3656,-68.1385,-0.0223718,-0.00754944,0.0101175,-0.0024191,-0.0275021,1.1015,0.0175839,0.0208552,1252,414,7.36564,68.1385
35,610,7.54456,-68.2861,-0.0250169,-0.00830661,0.0113346,-0.00258053,-0.030743,1.10301,0.0196916,0.0232363,1259,414,7.54457,68.2861
42,610,7.57996,-68.3265,-0.0272058,-0.00810557,0.0118978,-0.00239912,-0.0329122,1.12358,0.0211871,0.0224139,1266,414,7.58001,68.3266
49,610,7.63721,-68.4559,-0.0299967,-0.00729216,0.0121328,-0.00202881,-0.03526,1.16149,0.0228605,0.0232066,1273,414,7.6372,68.4559
56,610,7.74475,-68.4724,-0.0328715,-0.00429851,0.0114822,-0.000256222,-0.0369138,1.2323,0.0245242,0.0226849,1280,414,7.74475,68.4724
63,610,7.83069,-68.4927,-0.0334493,-0.000546659,0.0118186,0.00325848,-0.0372545,1.25931,0.0259907,0.031028,1287,414,7.83075,68.4927
70,610,7.97253,-68.4995,-0.0316048,0.00472175,0.009389,0.00700494,-0.033888,1.33225,0.0252529,0.0450431,1294,414,7.97249,68.4994
77,610,8.18677,-68.544,0,0,0,0,0,0,0,-1,1301,414,8.18671,68.544
84,610,8.33984,-68.3281,-0.028211,0.0149441,0.00391059,0.0152956,-0.0285625,1.48115,0.0257047,0.0461786,1308,414,8.33985,68.3281
91,610,8.45386,-68.4011,-0.0256201,0.0194677,0.000291854,0.0194696,-0.0256219,1.56432,0.0261143,0.0317221,1315,414,8.45388,68.4011
98,610,8.62952,-68.3154,-0.0226915,0.0228586,-0.00426568,0.0232546,-0.0230876,-1.47822,0.0267557,0.0246534,1322,414,8.62952,68.3154
105,610,8.69409,-68.1073,-0.0186681,0.0253382,-0.00846798,0.0269114,-0.0202413,-1.38711,0.0273143,0.0197857,1329,414,8.69404,68.1073
112,610,8.74426,-67.9051,-0.014394,0.0256614,-0.0123999,0.0291893,-0.0179219,-1.29361,0.0274577,0.0147919,1336,414,8.74432,67.9051
119,610,8.83923,-67.6936,-0.0105649,0.0240385,-0.0157832,0.0301559,-0.0166824,-1.20103,0.0274125,0.0214864,1343,414,8.83929,67.6936
126,610,8.98621,-67.4341,-0.00680459,0.0219218,-0.019394,0.0316921,-0.016575,-1.10413,0.0283189,0.0287672,1350,414,8.98615,67.4341
133,610,9.02234,-67.1989,-0.00344432,0.0188081,-0.0221872,0.0325026,-0.0171388,-1.01781,0.0291144,0.0217016,1357,414,9.0223,67.1989
140,610,9.14258,-66.9243,-0.00123909,0.0152305,-0.0240132,0.0323816,-0.0183902,-0.950579,0.0296818,0.02009,1364,414,9.14256,66.9243
147,610,9.17041,-66.5605,-0.000478814,0.0108149,-0.023986,0.0298098,-0.0194737,-0.901005,0.0286617,0.0214872,1371,414,9.17045,66.5605
154,610,9.18848,-66.2248,0.000652621,0.00715401,-0.0233124,0.0274412,-0.0196346,-0.854672,0.0273035,0.0249117,1378,414,9.18845,66.2248
161,610,9.32471,-65.8887,0.00128951,0.00261607,-0.0212134,0.0231766,-0.019271,-0.801027,0.0245416,0.0288315,1385,414,9.3247,65.8887
168,610,9.39282,-65.5262,-0.000154442,-0.00103601,-0.0213182,0.0207275,-0.0219179,-0.775061,0.0246245,0.0274192,1392,414,9.39285,65.5262
175,610,9.45728,-65.1269,-0.003903,-0.00424949,-0.0169138,0.0128384,-0.0209909,-0.780277,0.0197195,0.0232951,1399,414,9.45722,65.1269
182,610,9.4978,-64.6789,-0.00147838,-0.00441318,-0.0131976,0.0103331,-0.0162247,-0.730032,0.0154584,0.0169542,1406,414,9.49778,64.6788
189,610,9.50159,-64.1912,-0.000280487,-0.00354114,-0.0106537,0.00886688,-0.0126885,-0.709472,0.01251,0.0148563,1413,414,9.50156,64.1912
196,610,9.53967,-63.732,0.00243241,-0.00297252,-0.00746806,0.00767194,-0.00821205,-0.611793,0.00917239,0.0151348,1420,414,9.53968,63.732
203,610,9.5625,-63.2555,0.00507737,-0.00245547,-0.00289817,0.00606335,-0.00344145,-0.327925,0.00555676,0.0146845,1427,414,9.56248,63.2555
210,610,9.5719,-62.7344,0.0048569,-0.00184849,-0.00119423,0.00506324,-0.00205483,-0.171094,0.0042302,0.0105589,1434,414,9.57191,62.7344
217,610,9.61267,-62.1652,0.00401231,-0.000658104,-0.000643997,0.00409948,-0.000745277,-0.134544,0.00301231,0.0172081,1441,414,9.61262,62.1652
224,610,9.65979,-61.6267,0.00334679,0.000406852,-0.00011934,0.00335162,0.000402015,-0.0405039,0.00211319,0.021347,1448,414,9.65982,61.6267
231,610,9.6814,-61.0604,0.00276089,0.00116664,0.000416968,0.00286336,0.00106417,0.240974,0.00167122,0.0165057,1455,414,9.68144,61.0604
238,610,9.63452,-60.4411,0.00241119,0.00163172,0.000803644,0.00291461,0.00112829,0.559626,0.00169699,0.0125146,1462,414,9.63449,60.4411
245,610,9.63574,-59.8156,0.0021171,0.00214522,0.00112043,0.00325167,0.00101064,0.791673,0.00192163,0.0142877,1469,414,9.63579,59.8156
252,610,9.60571,-59.1711,0.00180358,0.00279312,0.00153196,0.00390823,0.00068848,0.941593,0.00240901,0.0152568,1476,414,9.60569,59.1711
259,610,9.59863,-58.5085,0.00157294,0.00364245,0.00208454,0.00493493,0.00028046,1.01578,0.00320057,0.0119009,1483,414,9.5986,58.5085
266,610,9.57483,-57.8418,0.00139181,0.00446042,0.00262783,0.00596907,-0.000116836,1.04963,0.00401889,0.0121662,1490,414,9.57486,57.8418
273,610,9.55469,-57.1582,0.00122622,0.0055508,0.00327928,0.00731651,-0.000539487,1.07687,0.00506708,0.0106953,1497,414,9.55473,57.1582
280,610,9.52271,-56.444,0.00110553,0.00678945,0.00402123,0.00887162,-0.000976635,1.09302,0.00626538,0.010359,1504,414,9.52267,56.444
287,610,9.45093,-55.7213,0.00112808,0.00824042,0.00486117,0.0107073,-0.00133882,1.10119,0.00762377,0.0130515,1511,414,9.4509,55.7213
294,610,9.41345,-55.0116,0.00111116,0.00965875,0.00566287,0.0124796,-0.00170965,1.10865,0.00894422,0.0106338,1518,414,9.41342,55.0116
301,610,9.40137,-54.3088,0.00111315,0.0110977,0.00650071,0.0143019,-0.00209104,1.11285,0.0103026,0.00979618,1525,414,9.40136,54.3088
308,610,9.31995,-53.5412,0.00125388,0.0128815,0.00741638,0.0164912,-0.00235586,1.11782,0.0118577,0.0124834,1532,414,9.31994,53.5412
315,610,9.23376,-52.8022,0.00151214,0.0148994,0.00841474,0.0189581,-0.00254655,1.12138,0.0135675,0.0151477,1539,414,9.23378,52.8022
322,610,9.18726,-52.0432,0.00167206,0.0166693,0.00936929,0.0211712,-0.00282986,1.12287,0.0151458,0.0143113,1546,414,9.18731,52.0432
329,610,9.13013,-51.2608,0.00187641,0.0182924,0.010315,0.0232666,-0.00309779,1.12147,0.0166401,0.0120822,1553,414,9.13018,51.2608
336,610,9.08972,-50.4599,0.0021822,0.0203032,0.0113523,0.0257674,-0.00328201,1.1222,0.0183703,0.0132084,1560,414,9.08972,50.4599
343,610,9.01941,-49.6533,0.00251852,0.0220566,0.0122811,0.0279802,-0.00340508,1.12138,0.0198859,0.0206913,1567,414,9.01943,49.6533
350,610,8.91943,-48.7222,0.00304285,0.02449,0.0135743,0.0310655,-0.00353259,1.1197,0.0219826,0.0304618,1574,414,8.91946,48.7222
357,610,8.91052,-47.5471,0.00338389,0.027022,0.0149218,0.0342385,-0.00383257,1.12034,0.0242045,0.0359429,1581,414,8.91051,47.5471
364,610,9.00464,-46.581,0.00355427,0.0291936,0.0160309,0.0369004,-0.0041525,1.12267,0.0260948,0.0420232,1588,414,9.00462,46.581
371,610,9.23157,-45.4072,0,0,0,0,0,0,0,-1,1595,414,9.2316,45.4072
378,610,8.90527,-45.4095,0,0,0,0,0,0,0,-1,1602,414,8.90525,45.4095
385,610,2.57104,-10.3878,0,0,0,0,0,0,0,-1,1609,414,2.57109,10.3878
392,610,1.99744,-1.83582,0,0,0,0,0,0,0,-1,1616,414,1.99741,1.8358
399,610,2.77136,-2.60333,0,0,0,0,0,0,0,-1,1623,414,2.77133,2.60332
406,610,3.54529,-3.37085,0,0,0,0,0,0,0,-1,1630,414,3.54525,3.37084
413,610,3.01929,-3.20306,0,0,0,0,0,0,0,-1,1637,414,3.01929,3.20306
420,610,4.78149,-3.64041,0,0,0,0,0,0,0,-1,1644,414,4.78152,3.64042
427,610,8.85168,-23.3853,0,0,0,0,0,0,0,-1,1651,414,8.85174,23.3853
434,610,8.73706,-22.6227,0,0,0,0,0,0,0,-1,1658,414,8.73703,22.6227
441,610,0,0,0,0,0,0,0,0,0,-1,1665,414,0,0
448,610,0,0,0,0,0,0,0,0,0,-1,1672,414,0,0
455,610,0,0,0,0,0,0,0,0,0,-1,1679,414,0,0
462,610,0,0,0,0,0,0,0,0,0,-1,1686,414,0,0
469,610,0,0,0,0,0,0,0,0,0,-1,1693,414,0,0
476,610,0,0,0,0,0,0,0,0,0,-1,1700,414,0,0
483,610,0,0,0,0,0,0,0,0,0,-1,1707,414,0,0
490,610,0,0,0,0,0,0,0,0,0,-1,1714,414,0,0
497,610,0,0,0,0,0,0,0,0,0,-1,1721,414,0,0
504,610,0,0,0,0,0,0,0,0,0,-1,1728,414,0,0
511,610,0,0,0,0,0,0,0,0,0,-1,1735,414,0,0
518,610,0,0,0,0,0,0,0,0,0,-1,1742,414,0,0
525,610,0,0,0,0,0,0,0,0,0,-1,1749,414,0,0
532,610,0,0,0,0,0,0,0,0,0,-1,1756,414,0,0
539,610,0,0,0,0,0,0,0,0,0,-1,1763,414,0,0
546,610,0,0,0,0,0,0,0,0,0,-1,1770,414,0,0
553,610,0,0,0,0,0,0,0,0,0,-1,1777,414,0,0
560,610,0,0,0,0,0,0,0,0,0,-1,1784,414,0,0
567,610,0,0,0,0,0,0,0,0,0,-1,1791,414,0,0
574,610,0,0,0,0,0,0,0,0,0,-1,1798,414,0,0
581,610,0,0,0,0,0,0,0,0,0,-1,1805,414,0,0
588,610,0,0,0,0,0,0,0,0,0,-1,1812,414,0,0
595,610,0,0,0,0,0,0,0,0,0,-1,1819,414,0,0
602,610,0,0,0,0,0,0,0,0,0,-1,1826,414,0,0
609,610,0,0,0,0,0,0,0,0,0,-1,1833,414,0,0
616,610,0,0,0,0,0,0,0,0,0,-1,1840,414,0,0
623,610,0,0,0,0,0,0,0,0,0,-1,1847,414,0,0
630,610,0,0,0,0,0,0,0,0,0,-1,1854,414,0,0
637,610,0,0,0,0,0,0,0,0,0,-1,1861,414,0,0
644,610,0,0,0,0,0,0,0,0,0,-1,1868,414,0,0
651,610,0,0,0,0,0,0,0,0,0,-1,1875,414,0,0
658,610,0,0,0,0,0,0,0,0,0,-1,1882,414,0,0
665,610,0,0,0,0,0,0,0,0,0,-1,1889,414,0,0
672,610,0,0,0,0,0,0,0,0,0,-1,1896,414,0,0
679,610,0,0,0,0,0,0,0,0,0,-1,1903,414,0,0
686,610,0,0,0,0,0,0,0,0,0,-1,1910,414,0,0
693,610,0,0,0,0,0,0,0,0,0,-1,1917,414,0,0
700,610,0,0,0,0,0,0,0,0,0,-1,1924,414,0,0
707,610,0,0,0,0,0,0,0,0,0,-1,1931,414,0,0
714,610,0,0,0,0,0,0,0,0,0,-1,1938,414,0,0
721,610,0,0,0,0,0,0,0,0,0,-1,1945,414,0,0
728,610,0,0,0,0,0,0,0,0,0,-1,1952,414,0,0
735,610,0,0,0,0,0,0,0,0,0,-1,1959,414,0,0
742,610,0,0,0,0,0,0,0,0,0,-1,1966,414,0,0
749,610,0,0,0,0,0,0,0,0,0,-1,1973,414,0,0
756,610,0,0,0,0,0,0,0,0,0,-1,1980,414,0,0
763,610,0,0,0,0,0,0,0,0,0,-1,1987,414,0,0
770,610,0,0,0,0,0,0,0,0,0,-1,1994,414,0,0
777,610,0,0,0,0,0,0,0,0,0,-1,2001,414,0,0
784,610,0,0,0,0,0,0,0,0,0,-1,2008,414,0,0
791,610,0,0,0,0,0,0,0,0,0,-1,2015,414,0,0
798,610,0,0,0,0,0,0,0,0,0,-1,2022,414,0,0
805,610,0,0,0,0,0,0,0,0,0,-1,2029,414,0,0
812,610,0,0,0,0,0,0,0,0,0,-1,2036,414,0,0
-700,603,0,0,0,0,0,0,0,0,0,-1,524,421,0,0
-693,603,0,0,0,0,0,0,0,0,0,-1,531,421,0,0
-686,603,0,0,0,0,0,0,0,0,0,-1,538,421,0,0
-679,603,0,0,0,0,0,0,0,0,0,-1,545,421,0,0
-672,603,0,0,0,0,0,0,0,0,0,-1,552,421,0,0
-665,603,0,0,0,0,0,0,0,0,0,-1,559,421,0,0
-658,603,0,0,0,0,0,0,0,0,0,-1,566,421,0,0
-651,603,0,0,0,0,0,0,0,0,0,-1,573,421,0,0
-644,603,0,0,0,0,0,0,0,0,0,-1,580,421,0,0
-637,603,0,0,0,0,0,0,0,0,0,-1,587,421,0,0
-630,603,0,0,0,0,0,0,0,0,0,-1,594,421,0,0
-623,603,0,0,0,0,0,0,0,0,0,-1,601,421,0,0
-616,603,0,0,0,0,0,0,0,0,0,-1,608,421,0,0
-609,603,0,0,0,0,0,0,0,0,0,-1,615,421,0,0
-602,603,0,0,0,0,0,0,0,0,0,-1,622,421,0,0
-595,603,0,0,0,0,0,0,0,0,0,-1,629,421,0,0
-588,603,0,0,0,0,0,0,0,0,0,-1,636,421,0,0
-581,603,0,0,0,0,0,0,0,0,0,-1,643,421,0,0
-574,603,0,0,0,0,0,0,0,0,0,-1,650,421,0,0
-567,603,0,0,0,0,0,0,0,0,0,-1,657,421,0,0
-560,603,0,0,0,0,0,0,0,0,0,-1,664,421,0,0
-553,603,0,0,0,0,0,0,0,0,0,-1,671,421,0,0
-546,603,0,0,0,0,0,0,0,0,0,-1,678,421,0,0
-539,603,0,0,0,0,0,0,0,0,0,-1,685,421,0,0
-532,603,0,0,0,0,0,0,0,0,0,-1,692,421,0,0
-525,603,0,0,0,0,0,0,0,0,0,-1,699,421,0,0
-518,603,0,0,0,0,0,0,0,0,0,-1,706,421,0,0
-511,603,0,0,0,0,0,0,0,0,0,-1,713,421,0,0
-504,603,0,0,0,0,0,0,0,0,0,-1,720,421,0,0
-497,603,0,0,0,0,0,0,0,0,0,-1,727,421,0,0
-490,603,0,0,0,0,0,0,0,0,0,-1,734,421,0,0
-483,603,0,0,0,0,0,0,0,0,0,-1,741,421,0,0
-476,603,0,0,0,0,0,0,0,0,0,-1,748,421,0,0
-469,603,0,0,0,0,0,0,0,0,0,-1,755,421,0,0
-462,603,0,0,0,0,0,0,0,0,0,-1,762,421,0,0
-455,603,0,0,0,0,0,0,0,0,0,-1,769,421,0,0
-448,603,0,0,0,0,0,0,0,0,0,-1,776,421,0,0
-441,603,0,0,0,0,0,0,0,0,0,-1,783,421,0,0
-434,603,0,0,0,0,0,0,0,0,0,-1,790,421,0,0
-427,603,0,0,0,0,0,0,0,0,0,-1,797,421,0,0
-420,603,0,0,0,0,0,0,0,0,0,-1,804,421,0,0
-413,603,0,0,0,0,0,0,0,0,0,-1,811,421,0,0
-406,603,0,0,0,0,0,0,0,0,0,-1,818,421,0,0
-399,603,0,0,0,0,0,0,0,0,0,-1,825,421,0,0
-392,603,0,0,0,0,0,0,0,0,0,-1,832,421,0,0
-385,603,0,0,0,0,0,0,0,0,0,-1,839,421,0,0
-378,603,0,0,0,0,0,0,0,0,0,-1,846,421,0,0
-371,603,0,0,0,0,0,0,0,0,0,-1,853,421,0,0
-364,603,0,0,0,0,0,0,0,0,0,-1,860,421,0,0
-357,603,0,0,0,0,0,0,0,0,0,-1,867,421,0,0
-350,603,0,0,0,0,0,0,0,0,0,-1,874,421,0,0
-343,603,0,0,0,0,0,0,0,0,0,-1,881,421,0,0
-336,603,0,0,0,0,0,0,0,0,0,-1,888,421,0,0
-329,603,4.09686,-17.9702,0,0,0,0,0,0,0,-1,895,421,4.09687,17.9702
-322,603,8.83179,-28.7376,0,0,0,0,0,0,0,-1,902,421,8.83179,28.7376
-315,603,5.99744,-20.4501,0,0,0,0,0,0,0,-1,909,421,5.99745,20.4501
-308,603,5.92249,-20.778,0,0,0,0,0,0,0,-1,916,421,5.92248,20.778
-301,603,2.72424,-20.9059,0,0,0,0,0,0,0,-1,923,421,2.72424,20.9059
-294,603,2.41553,-20.6767,0,0,0,0,0,0,0,-1,930,421,2.41554,20.6767
-287,603,1.91766,-21.2242,0,0,0,0,0,0,0,-1,937,421,1.91767,21.2242
-280,603,2.36121,-27.3314,0,0,0,0,0,0,0,-1,944,421,2.36119,27.3314
-273,603,7.96613,-34.8225,0,0,0,0,0,0,0,-1,951,421,7.96613,34.8225
-266,603,7.18787,-34.9736,0,0,0,0,0,0,0,-1,958,421,7.18788,34.9736
-259,603,5.44666,-36.8901,0,0,0,0,0,0,0,-1,965,421,5.44664,36.8901
-252,603,6.62537,-45.6177,0,0,0,0,0,0,0,-1,972,421,6.62538,45.6177
-245,603,6.5799,-46.4033,-7.60837e-05,0.024356,-0.0126414,0.0297194,-0.00543952,-1.16954,0.0218529,0.0395794,979,421,6.57992,46.4033
-238,603,6.43378,-47.3422,-0.000202654,0.0217865,-0.0111965,0.0264841,-0.00490021,-1.17355,0.0194958,0.0229388,986,421,6.4338,47.3422
-231,603,6.3244,-48.2319,-0.000306895,0.0192953,-0.00971323,0.0232931,-0.00430464,-1.18035,0.0171447,0.0151767,993,421,6.3244,48.2319
-224,603,6.27924,-49.0918,-0.00016723,0.0170749,-0.00858606,0.0206211,-0.00371347,-1.17911,0.0151378,0.0152134,1000,421,6.27922,49.0918
-217,603,6.25342,-49.8955,-0.000146999,0.0148555,-0.00756131,0.0180052,-0.00329667,-1.1761,0.0132399,0.0142609,1007,421,6.25343,49.8955
-210,603,6.20715,-50.7179,-0.000167862,0.0127382,-0.00659757,0.0155139,-0.00294357,-1.17256,0.0114506,0.0121228,1014,421,6.20718,50.7179
-203,603,6.15649,-51.5605,-0.000185172,0.0106515,-0.00566486,0.0130721,-0.00260578,-1.16698,0.00970068,0.0175969,1021,421,6.15649,51.5605
-196,603,6.10974,-52.3623,-0.000181871,0.00870239,-0.00484502,0.0108334,-0.00231292,-1.15642,0.00810404,0.0203882,1028,421,6.1098,52.3623
-189,603,6.0824,-53.0663,-0.000103738,0.00712037,-0.0042749,0.00910489,-0.00208827,-1.13617,0.0068726,0.0177844,1035,421,6.08238,53.0663
-182,603,6.00708,-53.7717,-1.42452e-06,0.00568308,-0.0036906,0.00749903,-0.00181738,-1.11353,0.00570251,0.0132808,1042,421,6.00703,53.7717
-175,603,5.93738,-54.4861,4.0858e-05,0.00423909,-0.00304633,0.00583948,-0.00155954,-1.08707,0.00450376,0.0131393,1049,421,5.93732,54.4861
-168,603,5.87695,-55.2484,0.000111121,0.00320244,-0.00257759,0.00466228,-0.00134872,-1.05548,0.00364198,0.0151253,1056,421,5.87691,55.2484
-161,603,5.83813,-55.9945,0.000266088,0.00238216,-0.00215931,0.00372872,-0.00108047,-1.0132,0.00291353,0.01472,1063,421,5.83809,55.9945
-154,603,5.8064,-56.658,0.000498216,0.00169351,-0.00171143,0.00290865,-0.000716919,-0.953384,0.00221705,0.014478,1070,421,5.80644,56.658
-147,603,5.78113,-57.303,0.000820385,0.00113455,-0.00126637,0.00225354,-0.000298611,-0.847103,0.00161115,0.0168666,1077,421,5.78115,57.303
-140,603,5.81128,-57.959,0.00119021,0.00054123,-0.00084272,0.00176876,-3.73128e-05,-0.601621,0.0011918,0.0152762,1084,421,5.81127,57.959
-133,603,5.75378,-58.6275,0.00157453,8.37163e-05,-0.000448454,0.00169904,-4.07861e-05,-0.270806,0.00114653,0.0142392,1091,421,5.75376,58.6275
-126,603,5.72925,-59.2534,0.0020309,-0.000253202,-0.000104157,0.00203564,-0.000257942,-0.045475,0.00145074,0.0115157,1098,421,5.72919,59.2533
-119,603,5.75,-59.8705,0.00263679,-0.000539242,0.000260671,0.00265804,-0.000560494,0.081349,0.00198541,0.0112167,1105,421,5.74997,59.8705
-112,603,5.72437,-60.4833,0.00329979,-0.000708115,0.000558501,0.00337616,-0.000784487,0.135901,0.00255277,0.0163554,1112,421,5.72441,60.4833
-105,603,5.71179,-61.0648,0.00398868,-0.00079112,0.000761558,0.00410709,-0.000909525,0.154242,0.00308624,0.0171556,1119,421,5.71173,61.0648
-98,603,5.73486,-61.6076,0.0047218,-0.00108986,0.000975911,0.0048813,-0.00124936,0.162005,0.00374086,0.0150423,1126,421,5.73484,61.6076
-91,603,5.76367,-62.1713,0.00580959,-0.00138413,0.00112737,0.00598213,-0.00155667,0.151866,0.00459572,0.0114396,1133,421,5.7637,62.1713
-84,603,5.80518,-62.743,0.00688636,-0.00157448,0.00129156,0.00707913,-0.00176725,0.148157,0.00540567,0.0124625,1140,421,5.80519,62.743
-77,603,5.87488,-63.3023,0.00804894,-0.0023733,0.00160905,0.0082917,-0.00261606,0.149742,0.00657563,0.0182553,1147,421,5.87493,63.3023
-70,603,5.93848,-63.8609,0,0,0,0,0,0,0,-1,1154,421,5.93852,63.8609
-63,603,5.88489,-64.1245,0,0,0,0,0,0,0,-1,1161,421,5.88486,64.1245
-56,603,5.97815,-64.6066,0,0,0,0,0,0,0,-1,1168,421,5.97818,64.6066
-49,603,6.06165,-65.0609,0,0,0,0,0,0,0,-1,1175,421,6.06162,65.0609
-42,603,6.12097,-65.4497,0,0,0,0,0,0,0,-1,1182,421,6.12102,65.4497
-35,603,6.16541,-65.7852,0.0063719,-0.000170256,0.00706846,0.0108895,-0.00468783,0.568686,0.00922808,0.0448116,1189,421,6.16538,65.7852
-28,603,6.26038,-66.0656,0.00207101,0.00095187,0.007876,0.00940729,-0.00638441,0.749934,0.00917286,0.0336152,1196,421,6.26036,66.0656
-21,603,6.35657,-66.4092,-0.00258595,0.00217569,0.00934469,0.00943808,-0.00984834,0.910134,0.0111359,0.0280527,1203,421,6.35655,66.4092
-14,603,6.47473,-66.7195,-0.00641481,0.00185171,0.0101497,0.0086775,-0.0132406,0.978759,0.0127455,0.0244698,1210,421,6.47474,66.7195
-7,603,6.55737,-66.9934,-0.00993276,0.000818666,0.0108737,0.00757291,-0.016687,1.01497,0.0143322,0.0289397,1217,421,6.55743,66.9934
0,603,6.62354,-67.2997,-0.0132523,-0.000863517,0.0115546,0.00605237,-0.0201682,1.03145,0.0158528,0.036707,1224,421,6.62351,67.2997
7,603,6.77917,-67.5317,0,0,0,0,0,0,0,-1,1231,421,6.77924,67.5317
14,603,7.06177,-67.3749,0,0,0,0,0,0,0,-1,1238,421,7.06171,67.3749
21,603,7.20703,-67.5496,0,0,0,0,0,0,0,-1,1245,421,7.20704,67.5496
28,603,7.32178,-67.5586,0,0,0,0,0,0,0,-1,1252,421,7.32178,67.5586
35,603,7.55713,-67.7169,0,0,0,0,0,0,0,-1,1259,421,7.55709,67.7169
42,603,7.49744,-67.6341,-0.0330556,-0.0103119,0.0153912,-0.00254718,-0.0408203,1.10356,0.0264054,0.0468102,1266,421,7.49746,67.6341
49,603,7.42029,-67.8089,-0.0370776,-0.00857762,0.0143139,-0.00262986,-0.0430253,1.17698,0.0278484,0.0260224,1273,421,7.42028,67.8089
56,603,7.34399,-68.0215,0,0,0,0,0,0,0,-1,1280,421,7.34402,68.0215
63,603,7.67603,-68.3047,0,0,0,0,0,0,0,-1,1287,421,7.67601,68.3047
70,603,7.85791,-68.2841,0,0,0,0,0,0,0,-1,1294,421,7.8579,68.2841
77,603,5.43115,-66.8581,0,0,0,0,0,0,0,-1,1301,421,5.43116,66.8581
84,603,8.44788,-68.2659,0,0,0,0,0,0,0,-1,1308,421,8.4479,68.2659
91,603,8.59851,-68.4519,0,0,0,0,0,0,0,-1,1315,421,8.59856,68.4519
98,603,8.93994,-68.5053,0,0,0,0,0,0,0,-1,1322,421,8.93993,68.5053
105,603,8.99548,-68.1961,0,0,0,0,0,0,0,-1,1329,421,8.99553,68.1961
112,603,9.14392,-67.5825,0,0,0,0,0,0,0,-1,1336,421,9.14388,67.5825
119,603,9.13135,-67.471,0,0,0,0,0,0,0,-1,1343,421,9.13132,67.471
126,603,9.41016,-67.3144,0,0,0,0,0,0,0,-1,1350,421,9.41019,67.3144
133,603,9.43481,-66.8645,-0.00228481,0.0262121,-0.0341593,0.0489755,-0.0250482,-0.982986,0.0434755,0.0456601,1357,421,9.43486,66.8645
140,603,9.67786,-66.4663,0.000425839,0.0214107,-0.0358821,0.048303,-0.0264664,-0.92764,0.0437775,0.0437885,1364,421,9.6778,66.4663
147,603,9.57239,-66.2347,0.00139613,0.0154591,-0.0355599,0.044676,-0.0278208,-0.883007,0.0422314,0.035697,1371,421,9.57236,66.2347
154,603,9.47778,-66.118,0.00263967,0.0101746,-0.0345066,0.0411188,-0.0283045,-0.839773,0.0403085,0.0397076,1378,421,9.47778,66.118
161,603,9.70068,-65.7678,0.00326167,0.00414168,-0.0321311,0.0358358,-0.0284325,-0.792245,0.0371873,0.035271,1385,421,9.70064,65.7678
168,603,9.84729,-65.3615,0.000881467,-2.30911e-05,-0.0331725,0.0336048,-0.0327464,-0.778582,0.0383089,0.0371939,1392,421,9.84728,65.3615
175,603,10.0814,-65.0043,-0.00517926,-0.0038497,-0.027965,0.0234585,-0.0324874,-0.797282,0.0324403,0.0424299,1399,421,10.0814,65.0043
182,603,10.1392,-64.5596,-0.00212608,-0.0045515,-0.0234173,0.0201099,-0.0267875,-0.759528,0.0271676,0.048684,1406,421,10.1392,64.5596
189,603,10.0803,-64.0553,-0.000464138,-0.00415624,-0.0198397,0.0176152,-0.0222356,-0.739008,0.0230594,0.040788,1413,421,10.0803,64.0553
196,603,10.0396,-63.5602,0.00348992,-0.00439613,-0.0152616,0.0153096,-0.0162158,-0.658982,0.0182038,0.0293676,1420,421,10.0395,63.5602
203,603,10.0785,-63.175,0.00790737,-0.00485134,-0.00730903,0.0112295,-0.00817343,-0.426605,0.0112485,0.0175965,1427,421,10.0785,63.175
210,603,10.1202,-62.7704,0.00768614,-0.00500886,-0.00326772,0.00847788,-0.0058006,-0.23771,0.00829185,0.013621,1434,421,10.1202,62.7704
217,603,10.1434,-62.1822,0.0059825,-0.00337806,-0.00195645,0.00637496,-0.00377053,-0.197972,0.00592149,0.014345,1441,421,10.1434,62.1822
224,603,10.2245,-61.6029,0.00508969,-0.0020285,-0.00130249,0.00532053,-0.00225934,-0.175411,0.00449363,0.0183065,1448,421,10.2245,61.6029
231,603,10.2614,-61.0273,0.00425412,-0.0011784,-0.000672474,0.00433613,-0.00126041,-0.121347,0.00338991,0.0160979,1455,421,10.2613,61.0273
238,603,10.2443,-60.4172,0.00374854,-0.00105128,-0.000397454,0.00378123,-0.00108396,-0.0820612,0.0029493,0.0123543,1462,421,10.2443,60.4172
245,603,10.2465,-59.7898,0.00335153,-0.000806547,-0.000196626,0.00336081,-0.000815824,-0.0471474,0.00255625,0.012929,1469,421,10.2464,59.7898
252,603,10.2433,-59.134,0.00286701,-0.000411977,9.9303e-05,0.00287001,-0.000414981,0.0302477,0.00206561,0.011246,1476,421,10.2433,59.134
259,603,10.2367,-58.485,0.00242997,1.537e-05,0.000461862,0.0025153,-6.9959e-05,0.18269,0.00170066,0.0108335,1483,421,10.2367,58.485
266,603,10.2179,-57.8207,0.00211634,0.000585125,0.00087254,0.00251154,0.000189923,0.425291,0.00161478,0.0119406,1490,421,10.2179,57.8207
273,603,10.219,-57.1482,0.00180546,0.00140365,0.00136511,0.00298437,0.000224741,0.712337,0.00191906,0.0110055,1497,421,10.219,57.1482
280,603,10.2072,-56.4624,0.00153866,0.00243727,0.0019635,0.00400222,-2.62852e-05,0.897877,0.00267695,0.0126982,1504,421,10.2072,56.4624
287,603,10.1688,-55.7291,0.00142699,0.00367014,0.002642,0.00541877,-0.000321639,0.986129,0.00372436,0.01207,1511,421,10.1688,55.7291
294,603,10.1119,-55.0028,0.00131008,0.00496173,0.00332018,0.006925,-0.000653188,1.03679,0.00484908,0.00980665,1518,421,10.112,55.0028
301,603,10.0743,-54.2693,0.00121263,0.00631953,0.00405164,0.00855522,-0.00102306,1.06657,0.0060733,0.0113736,1525,421,10.0743,54.2694
308,603,10.0155,-53.5204,0.00123888,0.00798272,0.00486749,0.0105321,-0.00131054,1.08832,0.00749656,0.016836,1532,421,10.0155,53.5203
315,603,9.95642,-52.7798,0.00137234,0.00984644,0.00576696,0.0127655,-0.00154676,1.10222,0.00907002,0.0165786,1539,421,9.9564,52.7798
322,603,9.92175,-52.0271,0.00142298,0.0115007,0.00662806,0.0147878,-0.0018641,1.11041,0.010535,0.0159104,1546,421,9.92181,52.0271
329,603,9.86523,-51.2347,0.0015197,0.0130067,0.00749457,0.0167055,-0.00217907,1.11234,0.0119299,0.0109905,1553,421,9.86528,51.2347
336,603,9.8175,-50.4486,0.00171154,0.0148083,0.00844573,0.0189469,-0.00242708,1.11516,0.0135131,0.00947128,1560,421,9.81751,50.4486
343,603,9.7677,-49.6576,0.00191654,0.0164712,0.00933984,0.0210342,-0.0026464,1.11635,0.014983,0.0113695,1567,421,9.76774,49.6576
350,603,9.71484,-48.8356,0.00223068,0.0185889,0.0104761,0.0237006,-0.00288104,1.11684,0.0168431,0.0129617,1574,421,9.7148,48.8356
357,603,9.64282,-47.9685,0.00242941,0.0206899,0.0116264,0.0263426,-0.00322329,1.11825,0.0187288,0.0150238,1581,421,9.64281,47.9685
364,603,9.63159,-47.0482,0.0025293,0.0225407,0.0126243,0.0286437,-0.00357361,1.1205,0.0203916,0.0178467,1588,421,9.63154,47.0482
371,603,9.57813,-46.1981,0.00283178,0.0252578,0.0139366,0.0319322,-0.00384268,1.12416,0.0226778,0.024349,1595,421,9.57817,46.1981
378,603,9.51636,-45.4551,0.00300761,0.0279363,0.0151576,0.0350963,-0.00415231,1.1295,0.0248973,0.0402977,1602,421,9.51634,45.4551
385,603,9.43115,-44.3662,0,0,0,0,0,0,0,-1,1609,421,9.4311,44.3662
392,603,9.40063,-43.5713,0,0,0,0,0,0,0,-1,1616,421,9.40063,43.5713
399,603,9.25488,-42.4683,0,0,0,0,0,0,0,-1,1623,421,9.25487,42.4683
406,603,9.25085,-41.88,0,0,0,0,0,0,0,-1,1630,421,9.25086,41.88
413,603,2.38928,-2.41275,0,0,0,0,0,0,0,-1,1637,421,2.38926,2.41274
420,603,8.22217,-23.7068,0,0,0,0,0,0,0,-1,1644,421,8.22215,23.7068
427,603,8.20386,-23.1278,0,0,0,0,0,0,0,-1,1651,421,8.2039,23.1278
434,603,8.01489,-22.5655,0,0,0,0,0,0,0,-1,1658,421,8.01493,22.5655
441,603,8.00122,-22.3072,0,0,0,0,0,0,0,-1,1665,421,8.00116,22.3071
448,603,1.14355,-4.59842,0,0,0,0,0,0,0,-1,1672,421,1.14355,4.59841
455,603,0,0,0,0,0,0,0,0,0,-1,1679,421,0,0
462,603,0,0,0,0,0,0,0,0,0,-1,1686,421,0,0
469,603,0,0,0,0,0,0,0,0,0,-1,1693,421,0,0
476,603,0,0,0,0,0,0,0,0,0,-1,1700,421,0,0
483,603,0,0,0,0,0,0,0,0,0,-1,1707,421,0,0
490,603,0,0,0,0,0,0,0,0,0,-1,1714,421,0,0
497,603,0,0,0,0,0,0,0,0,0,-1,1721,421,0,0
504,603,0,0,0,0,0,0,0,0,0,-1,1728,421,0,0
511,603,0,0,0,0,0,0,0,0,0,-1,1735,421,0,0
518,603,0,0,0,0,0,0,0,0,0,-1,1742,421,0,0
525,603,0,0,0,0,0,0,0,0,0,-1,1749,421,0,0
532,603,0,0,0,0,0,0,0,0,0,-1,1756,421,0,0
539,603,0,0,0,0,0,0,0,0,0,-1,1763,421,0,0
546,603,0,0,0,0,0,0,0,0,0,-1,1770,421,0,0
553,603,0,0,0,0,0,0,0,0,0,-1,1777,421,0,0
560,603,0,0,0,0,0,0,0,0,0,-1,1784,421,0,0
567,603,0,0,0,0,0,0,0,0,0,-1,1791,421,0,0
574,603,0,0,0,0,0,0,0,0,0,-1,1798,421,0,0
581,603,0,0,0,0,0,0,0,0,0,-1,1805,421,0,0
588,603,0,0,0,0,0,0,0,0,0,-1,1812,421,0,0
595,603,0,0,0,0,0,0,0,0,0,-1,1819,421,0,0
602,603,0,0,0,0,0,0,0,0,0,-1,1826,421,0,0
609,603,0,0,0,0,0,0,0,0,0,-1,1833,421,0,0
616,603,0,0,0,0,0,0,0,0,0,-1,1840,421,0,0
623,603,0,0,0,0,0,0,0,0,0,-1,1847,421,0,0
630,603,0,0,0,0,0,0,0,0,0,-1,1854,421,0,0
637,603,0,0,0,0,0,0,0,0,0,-1,1861,421,0,0
644,603,0,0,0,0,0,0,0,0,0,-1,1868,421,0,0
651,603,0,0,0,0,0,0,0,0,0,-1,1875,421,0,0
658,603,0,0,0,0,0,0,0,0,0,-1,1882,421,0,0
665,603,0,0,0,0,0,0,0,0,0,-1,1889,421,0,0
672,603,0,0,0,0,0,0,0,0,0,-1,1896,421,0,0
679,603,0,0,0,0,0,0,0,0,0,-1,1903,421,0,0
686,603,0,0,0,0,0,0,0,0,0,-1,1910,421,0,0
693,603,0,0,0,0,0,0,0,0,0,-1,1917,421,0,0
700,603,0,0,0,0,0,0,0,0,0,-1,1924,421,0,0
707,603,0,0,0,0,0,0,0,0,0,-1,1931,421,0,0
714,603,0,0,0,0,0,0,0,0,0,-1,1938,421,0,0
721,603,0,0,0,0,0,0,0,0,0,-1,1945,421,0,0
728,603,0,0,0,0,0,0,0,0,0,-1,1952,421,0,0
735,603,0,0,0,0,0,0,0,0,0,-1,1959,421,0,0
742,603,0,0,0,0,0,0,0,0,0,-1,1966,421,0,0
749,603,0,0,0,0,0,0,0,0,0,-1,1973,421,0,0
756,603,0,0,0,0,0,0,0,0,0,-1,1980,421,0,0
763,603,0,0,0,0,0,0,0,0,0,-1,1987,421,0,0
770,603,0,0,0,0,0,0,0,0,0,-1,1994,421,0,0
777,603,0,0,0,0,0,0,0,0,0,-1,2001,421,0,0
784,603,0,0,0,0,0,0,0,0,0,-1,2008,421,0,0
791,603,0,0,0,0,0,0,0,0,0,-1,2015,421,0,0
798,603,0,0,0,0,0,0,0,0,0,-1,2022,421,0,0
805,603,0,0,0,0,0,0,0,0,0,-1,2029,421,0,0
812,603,0,0,0,0,0,0,0,0,0,-1,2036,421,0,0
-700,596,0,0,0,0,0,0,0,0,0,-1,524,428,0,0
-693,596,0,0,0,0,0,0,0,0,0,-1,531,428,0,0
-686,596,0,0,0,0,0,0,0,0,0,-1,538,428,0,0
-679,596,0,0,0,0,0,0,0,0,0,-1,545,428,0,0
-672,596,0,0,0,0,0,0,0,0,0,-1,552,428,0,0
-665,596,0,0,0,0,0,0,0,0,0,-1,559,428,0,0
-658,596,0,0,0,0,0,0,0,0,0,-1,566,428,0,0
-651,596,0,0,0,0,0,0,0,0,0,-1,573,428,0,0
-644,596,0,0,0,0,0,0,0,0,0,-1,580,428,0,0
-637,596,0,0,0,0,0,0,0,0,0,-1,587,428,0,0
-630,596,0,0,0,0,0,0,0,0,0,-1,594,428,0,0
-623,596,0,0,0,0,0,0,0,0,0,-1,601,428,0,0
-616,596,0,0,0,0,0,0,0,0,0,-1,608,428,0,0
-609,596,0,0,0,0,0,0,0,0,0,-1,615,428,0,0
-602,596,0,0,0,0,0,0,0,0,0,-1,622,428,0,0
-595,596,0,0,0,0,0,0,0,0,0,-1,629,428,0,0
-588,596,0,0,0,0,0,0,0,0,0,-1,636,428,0,0
-581,596,0,0,0,0,0,0,0,0,0,-1,643,428,0,0
-574,596,0,0,0,0,0,0,0,0,0,-1,650,428,0,0
-567,596,0,0,0,0,0,0,0,0,0,-1,657,428,0,0
-560,596,0,0,0,0,0,0,0,0,0,-1,664,428,0,0
-553,596,0,0,0,0,0,0,0,0,0,-1,671,428,0,0
-546,596,0,0,0,0,0,0,0,0,0,-1,678,428,0,0
-539,596,0,0,0,0,0,0,0,0,0,-1,685,428,0,0
-532,596,0,0,0,0,0,0,0,0,0,-1,692,428,0,0
-525,596,0,0,0,0,0,0,0,0,0,-1,699,428,0,0
-518,596,0,0,0,0,0,0,0,0,0,-1,706,428,0,0
-511,596,0,0,0,0,0,0,0,0,0,-1,713,428,0,0
-504,596,0,0,0,0,0,0,0,0,0,-1,720,428,0,0
-497,596,0,0,0,0,0,0,0,0,0,-1,727,428,0,0
-490,596,0,0,0,0,0,0,0,0,0,-1,734,428,0,0
-483,596,0,0,0,0,0,0,0,0,0,-1,741,428,0,0
-476,596,0,0,0,0,0,0,0,0,0,-1,748,428,0,0
-469,596,0,0,0,0,0,0,0,0,0,-1,755,428,0,0
-462,596,0,0,0,0,0,0,0,0,0,-1,762,428,0,0
-455,596,0,0,0,0,0,0,0,0,0,-1,769,428,0,0
-448,596,0,0,0,0,0,0,0,0,0,-1,776,428,0,0
-441,596,0,0,0,0,0,0,0,0,0,-1,783,428,0,0
-434,596,0,0,0,0,0,0,0,0,0,-1,790,428,0,0
-427,596,0,0,0,0,0,0,0,0,0,-1,797,428,0,0
-420,596,0,0,0,0,0,0,0,0,0,-1,804,428,0,0
-413,596,0,0,0,0,0,0,0,0,0,-1,811,428,0,0
-406,596,0,0,0,0,0,0,0,0,0,-1,818,428,0,0
-399,596,0,0,0,0,0,0,0,0,0,-1,825,428,0,0
-392,596,0,0,0,0,0,0,0,0,0,-1,832,428,0,0
-385,596,0,0,0,0,0,0,0,0,0,-1,839,428,0,0
-378,596,0,0,0,0,0,0,0,0,0,-1,846,428,0,0
-371,596,0,0,0,0,0,0,0,0,0,-1,853,428,0,0
-364,596,0,0,0,0,0,0,0,0,0,-1,860,428,0,0
-357,596,0,0,0,0,0,0,0,0,0,-1,867,428,0,0
-350,596,0,0,0,0,0,0,0,0,0,-1,874,428,0,0
-343,596,0,0,0,0,0,0,0,0,0,-1,881,428,0,0
-336,596,6.81445,-30.5258,0,0,0,0,0,0,0,-1,888,428,6.81446,30.5258
-329,596,6.84772,-28.9253,0,0,0,0,0,0,0,-1,895,428,6.84773,28.9253
-322,596,6.97449,-27.9047,0,0,0,0,0,0,0,-1,902,428,6.97451,27.9047
-315,596,7.10132,-26.8841,0,0,0,0,0,0,0,-1,909,428,7.10129,26.8841
-308,596,0.254761,-20.841,0,0,0,0,0,0,0,-1,916,428,0.254731,20.841
-301,596,3.43213,-26.756,0,0,0,0,0,0,0,-1,923,428,3.43214,26.756
-294,596,4.1767,-27.6454,0,0,0,0,0,0,0,-1,930,428,4.17667,27.6454
-287,596,4.36041,-27.6119,0,0,0,0,0,0,0,-1,937,428,4.3604,27.6119
-280,596,5.96619,-42.5634,0,0,0,0,0,0,0,-1,944,428,5.96616,42.5634
-273,596,5.8468,-43.0123,0,0,0,0,0,0,0,-1,951,428,5.84682,43.0123
-266,596,5.76105,-43.8396,0,0,0,0,0,0,0,-1,958,428,5.76104,43.8396
-259,596,5.78912,-44.6961,0,0,0,0,0,0,0,-1,965,428,5.78911,44.6961
-252,596,5.71704,-45.6639,-0.000256302,0.0203195,-0.0111971,0.0252375,-0.00517421,-1.15695,0.0187887,0.0230383,972,428,5.71702,45.6639
-245,596,5.71045,-46.6014,-0.000127733,0.0184918,-0.0100552,0.0228852,-0.00452118,-1.15886,0.0169659,0.0148487,979,428,5.71046,46.6014
-238,596,5.65747,-47.4598,-9.38958e-05,0.0163825,-0.00885648,0.0202399,-0.00395137,-1.16002,0.0149851,0.0128896,986,428,5.65745,47.4598
-231,596,5.55414,-48.3141,-6.9628e-05,0.0142902,-0.00758619,0.0175555,-0.00333487,-1.16434,0.0129591,0.014387,993,428,5.55412,48.3141
-224,596,5.50763,-49.1397,0.000110008,0.012357,-0.00656207,0.0152089,-0.0027419,-1.16082,0.011166,0.014504,1000,428,5.50764,49.1397
-217,596,5.4657,-49.9305,0.000214593,0.0103948,-0.00561691,0.0128848,-0.00227546,-1.15352,0.00944024,0.0147059,1007,428,5.46571,49.9305
-210,596,5.4549,-50.7249,0.000298822,0.00847909,-0.0047269,0.0106398,-0.00186187,-1.14205,0.00778835,0.0126199,1014,428,5.45486,50.7249
-203,596,5.41577,-51.5129,0.000408445,0.0066428,-0.00387743,0.00850068,-0.00144944,-1.12396,0.00620694,0.0159864,1021,428,5.41578,51.5129
-196,596,5.37207,-52.2695,0.000497826,0.00494778,-0.00313135,0.00656414,-0.00111854,-1.09428,0.00479265,0.0175089,1028,428,5.37212,52.2695
-189,596,5.32544,-53.0014,0.000654924,0.00348691,-0.00257477,0.00500936,-0.000867527,-1.0368,0.00366316,0.0145215,1035,428,5.32539,53.0014
-182,596,5.27246,-53.7274,0.000839688,0.00218114,-0.00203933,0.00365721,-0.000636388,-0.944273,0.00267562,0.013056,1042,428,5.27242,53.7275
-175,596,5.22534,-54.4687,0.000993626,0.00093387,-0.00149211,0.00245616,-0.000528666,-0.775388,0.00183917,0.0157024,1049,428,5.22532,54.4687
-168,596,5.19592,-55.2192,0.00114939,6.24204e-05,-0.00109159,0.00182531,-0.000613496,-0.554421,0.00146484,0.0184137,1056,428,5.19593,55.2192
-161,596,5.16235,-55.9381,0.0013553,-0.000599114,-0.00074191,0.00160502,-0.00084884,-0.324687,0.00143899,0.0165356,1063,428,5.16238,55.9381
-154,596,5.13074,-56.6179,0.00163368,-0.00109929,-0.000367798,0.00168231,-0.00114792,-0.131463,0.00164371,0.0140239,1070,428,5.13079,56.6179
-147,596,5.16907,-57.2563,0.00201268,-0.00141819,1.09646e-06,0.00201268,-0.00141819,0.000319587,0.0019907,0.0146198,1077,428,5.16902,57.2563
-140,596,5.17615,-57.9183,0.00240624,-0.0018077,0.000382313,0.00244065,-0.00184211,0.0897492,0.00248069,0.0174016,1084,428,5.17621,57.9183
-133,596,5.13635,-58.6074,0.00279967,-0.00207747,0.000727687,0.00290592,-0.00218373,0.144997,0.00294836,0.0177826,1091,428,5.13636,58.6074
-126,596,5.13,-59.2276,0.00330689,-0.00219811,0.00100821,0.00348573,-0.00237695,0.175555,0.00340494,0.0128735,1098,428,5.13003,59.2276
-119,596,5.15271,-59.8719,0.00403137,-0.00224488,0.00128786,0.00428536,-0.00249887,0.194716,0.00396189,0.0151745,1105,428,5.15271,59.8719
-112,596,5.10767,-60.4802,0.00477694,-0.00221417,0.00152912,0.00509676,-0.00253399,0.206183,0.00448767,0.0164968,1112,428,5.10769,60.4802
-105,596,5.07617,-61.0728,0.00553245,-0.00211278,0.00171934,0.00590131,-0.00248165,0.211336,0.00497233,0.0247746,1119,428,5.07614,61.0728
-98,596,5.11475,-61.6638,0.00631686,-0.00241792,0.00198478,0.00674671,-0.00284776,0.213276,0.00568979,0.0342756,1126,428,5.11478,61.6638
-91,596,5.16162,-62.1805,0,0,0,0,0,0,0,-1,1133,428,5.16167,62.1805
-84,596,5.26953,-62.7272,0,0,0,0,0,0,0,-1,1140,428,5.2695,62.7272
-77,596,5.38269,-63.3055,0,0,0,0,0,0,0,-1,1147,428,5.38268,63.3055
-70,596,3.50696,-32.137,0,0,0,0,0,0,0,-1,1154,428,3.50696,32.137
-63,596,1.95569,-12.2758,0,0,0,0,0,0,0,-1,1161,428,1.95563,12.2759
-56,596,1.60107,-10.5827,0,0,0,0,0,0,0,-1,1168,428,1.60108,10.5827
-49,596,1.59473,-10.0393,0,0,0,0,0,0,0,-1,1175,428,1.59472,10.0393
-42,596,1.99585,-6.6246,0,0,0,0,0,0,0,-1,1182,428,1.99586,6.62459
-35,596,5.58154,-65.4513,0,0,0,0,0,0,0,-1,1189,428,5.58156,65.4513
-28,596,5.86658,-65.8236,0,0,0,0,0,0,0,-1,1196,428,5.86662,65.8236
-21,596,5.92163,-66.2075,0,0,0,0,0,0,0,-1,1203,428,5.92168,66.2075
-14,596,6.11255,-66.5607,0,0,0,0,0,0,0,-1,1210,428,6.1126,66.5607
-7,596,6.18921,-66.8032,0,0,0,0,0,0,0,-1,1217,428,6.18925,66.8032
0,596,6.25256,-67.1379,0,0,0,0,0,0,0,-1,1224,428,6.25251,67.1379
7,596,1.87036,-62.6725,0,0,0,0,0,0,0,-1,1231,428,1.87031,62.6725
14,596,2.79126,-62.859,0,0,0,0,0,0,0,-1,1238,428,2.79121,62.859
21,596,7.02454,-65.9564,0,0,0,0,0,0,0,-1,1245,428,7.02453,65.9564
28,596,7.24683,-66.7755,0,0,0,0,0,0,0,-1,1252,428,7.24679,66.7755
35,596,9.51978,-66.8792,0,0,0,0,0,0,0,-1,1259,428,9.51974,66.8791
42,596,7.31311,-66.9855,0,0,0,0,0,0,0,-1,1266,428,7.31314,66.9855
49,596,7.1875,-67.201,-0.0471152,-0.00980712,0.0174062,-0.00294746,-0.0539748,1.19539,0.0350421,0.0459927,1273,428,7.18754,67.201
56,596,6.58154,-67.2608,-0.0524713,-0.00381293,0.0140513,-4.6758e-05,-0.0562375,1.30892,0.0374761,0.0434072,1280,428,6.58149,67.2608
63,596,5.90125,-67.4763,0,0,0,0,0,0,0,-1,1287,428,5.90122,67.4763
70,596,5.24182,-67.438,-0.0506451,0.0111458,0.00714992,0.0119624,-0.0514617,1.45709,0.038913,0.0466481,1294,428,5.24187,67.438
77,596,4.47241,-67.4543,-0.0485759,0.0197431,0.00165685,0.0197833,-0.0486161,1.54656,0.0406431,0.0454841,1301,428,4.47236,67.4543
84,596,3.63428,-67.6982,-0.0437937,0.0283569,-0.00416729,0.0285968,-0.0440336,-1.51329,0.0422477,0.0474692,1308,428,3.63432,67.6982
91,596,2.84436,-67.7514,0,0,0,0,0,0,0,-1,1315,428,2.84439,67.7514
98,596,1.51648,-69.3363,0,0,0,0,0,0,0,-1,1322,428,1.51645,69.3363
105,596,0.545044,-70.104,0,0,0,0,0,0,0,-1,1329,428,0.545072,70.104
112,596,9.54407,-67.2286,0,0,0,0,0,0,0,-1,1336,428,9.54408,67.2286
119,596,-0.85144,-70.9682,0,0,0,0,0,0,0,-1,1343,428,-0.85148,70.9682
126,596,8.70459,-70.6673,0,0,0,0,0,0,0,-1,1350,428,8.70459,70.6673
133,596,9.90002,-66.4206,0,0,0,0,0,0,0,-1,1357,428,9.90008,66.4206
140,596,10.2992,-65.6813,0,0,0,0,0,0,0,-1,1364,428,10.2992,65.6813
147,596,9.95972,-65.4302,0,0,0,0,0,0,0,-1,1371,428,9.95967,65.4302
154,596,9.64709,-65.8907,0,0,0,0,0,0,0,-1,1378,428,9.6471,65.8907
161,596,10.1951,-65.4759,0,0,0,0,0,0,0,-1,1385,428,10.195,65.4759
168,596,10.4585,-64.9296,0,0,0,0,0,0,0,-1,1392,428,10.4585,64.9296
175,596,10.6206,-64.5761,0,0,0,0,0,0,0,-1,1399,428,10.6206,64.5761
182,596,10.7739,-64.3712,0,0,0,0,0,0,0,-1,1406,428,10.7739,64.3712
189,596,10.6929,-63.8896,0,0,0,0,0,0,0,-1,1413,428,10.6929,63.8896
196,596,10.6407,-63.2305,0,0,0,0,0,0,0,-1,1420,428,10.6407,63.2305
203,596,10.603,-63.0185,0,0,0,0,0,0,0,-1,1427,428,10.603,63.0185
210,596,10.6481,-62.7717,0,0,0,0,0,0,0,-1,1434,428,10.6481,62.7717
217,596,10.6946,-62.1689,0,0,0,0,0,0,0,-1,1441,428,10.6945,62.1689
224,596,10.7888,-61.5727,0,0,0,0,0,0,0,-1,1448,428,10.7889,61.5727
231,596,10.8939,-61.0231,0.00568023,-0.00349184,-0.00175797,0.00600563,-0.00381724,-0.183027,0.00571796,0.0284163,1455,428,10.8939,61.0231
238,596,10.8622,-60.3795,0.00504595,-0.00383426,-0.00158788,0.00532133,-0.00410965,-0.171724,0.00545994,0.0175332,1462,428,10.8622,60.3795
245,596,10.8719,-59.7592,0.00455069,-0.00394497,-0.00152443,0.00481595,-0.00421023,-0.172279,0.00521518,0.0140475,1469,428,10.872,59.7592
252,596,10.8876,-59.1098,0.00391145,-0.00383481,-0.00134219,0.00413742,-0.00406078,-0.166795,0.0047333,0.011092,1476,428,10.8876,59.1098
259,596,10.886,-58.4518,0.00330518,-0.00381617,-0.00114861,0.00348586,-0.00399685,-0.156022,0.0043235,0.00968635,1483,428,10.8859,58.4517
266,596,10.8732,-57.7867,0.00288083,-0.00348496,-0.000855002,0.00299367,-0.0035978,-0.131214,0.00381091,0.0107125,1490,428,10.8731,57.7867
273,596,10.8934,-57.1203,0.00244409,-0.00290903,-0.000501319,0.00249063,-0.00295557,-0.0925772,0.00314819,0.0124657,1497,428,10.8934,57.1203
280,596,10.884,-56.4464,0.00205318,-0.00203742,-2.48549e-05,0.00205333,-0.00203757,-0.00607582,0.00236189,0.0140964,1504,428,10.8841,56.4464
287,596,10.8574,-55.7319,0.00182408,-0.000965698,0.000516904,0.00191678,-0.00105839,0.17744,0.00174138,0.0130921,1511,428,10.8574,55.7319
294,596,10.813,-54.9933,0.00161585,0.000295736,0.00110011,0.00223873,-0.000327144,0.515192,0.00161264,0.00982353,1518,428,10.813,54.9933
301,596,10.7631,-54.2453,0.00142747,0.0016704,0.00175311,0.00330626,-0.000208378,0.819986,0.00227681,0.0111372,1525,428,10.7631,54.2453
308,596,10.7493,-53.4994,0.00134726,0.00329695,0.00249297,0.0049989,-0.000354683,0.971777,0.0034569,0.0171344,1532,428,10.7492,53.4994
315,596,10.6914,-52.7492,0.00136475,0.00509407,0.00331824,0.00703568,-0.000576856,1.04138,0.00489408,0.0171019,1539,428,10.6914,52.7492
322,596,10.6718,-51.9837,0.00132174,0.00672624,0.00411864,0.00894998,-0.000901997,1.07572,0.00628892,0.0140385,1546,428,10.6718,51.9837
329,596,10.6099,-51.2048,0.00132817,0.00822101,0.00493623,0.0107949,-0.00124572,1.09015,0.00764575,0.0104839,1553,428,10.6099,51.2048
336,596,10.5397,-50.4337,0.00142628,0.0099313,0.00582281,0.0128891,-0.00153155,1.10079,0.00914611,0.00923526,1560,428,10.5397,50.4337
343,596,10.5161,-49.6472,0.00153393,0.0115917,0.00668987,0.0149321,-0.00180642,1.1077,0.0106082,0.0112904,1567,428,10.5161,49.6472
350,596,10.4886,-48.8186,0.00171577,0.0135254,0.00772462,0.0173435,-0.00210242,1.11173,0.0123231,0.0118429,1574,428,10.4886,48.8186
357,596,10.4152,-47.9901,0.00183518,0.0153525,0.00874357,0.0196451,-0.00245738,1.11442,0.013988,0.0102501,1581,428,10.4152,47.9901
364,596,10.3416,-47.1405,0.00189295,0.0169729,0.00965124,0.0216803,-0.00281442,1.117,0.0154772,0.01079,1588,428,10.3416,47.1405
371,596,10.2762,-46.3072,0.00203156,0.0190796,0.0107198,0.0242513,-0.00314014,1.12129,0.0173095,0.011708,1595,428,10.2762,46.3072
378,596,10.2029,-45.446,0.00205704,0.0211104,0.011661,0.0266415,-0.00347403,1.1279,0.019025,0.0165963,1602,428,10.2028,45.446
385,596,10.2245,-44.3584,0.00194915,0.0229364,0.0123127,0.0286205,-0.00373498,1.1383,0.0204394,0.0367315,1609,428,10.2245,44.3584
392,596,10.174,-43.3785,0.00197285,0.0244776,0.0130084,0.0304251,-0.0039746,1.14197,0.0217297,0.0458388,1616,428,10.1739,43.3785
399,596,10.0825,-42.6911,0,0,0,0,0,0,0,-1,1623,428,10.0825,42.6911
406,596,10.1494,-41.822,0,0,0,0,0,0,0,-1,1630,428,10.1494,41.822
413,596,10.1504,-41.2297,0,0,0,0,0,0,0,-1,1637,428,10.1504,41.2297
420,596,2.6344,-3.06308,0,0,0,0,0,0,0,-1,1644,428,2.63439,3.06308
427,596,7.61975,-22.7222,0,0,0,0,0,0,0,-1,1651,428,7.61974,22.7222
434,596,5.09753,-22.5213,0,0,0,0,0,0,0,-1,1658,428,5.09755,22.5213
441,596,7.19043,-22.087,0,0,0,0,0,0,0,-1,1665,428,7.19046,22.087
448,596,1.0769,0.0083313,0,0,0,0,0,0,0,-1,1672,428,1.07684,-0.00832231
455,596,2.00769,-1.43329,0,0,0,0,0,0,0,-1,1679,428,2.00765,1.4333
462,596,0,0,0,0,0,0,0,0,0,-1,1686,428,0,0
469,596,0,0,0,0,0,0,0,0,0,-1,1693,428,0,0
476,596,0,0,0,0,0,0,0,0,0,-1,1700,428,0,0
483,596,0,0,0,0,0,0,0,0,0,-1,1707,428,0,0
490,596,0,0,0,0,0,0,0,0,0,-1,1714,428,0,0
497,596,0,0,0,0,0,0,0,0,0,-1,1721,428,0,0
504,596,0,0,0,0,0,0,0,0,0,-1,1728,428,0,0
511,596,0,0,0,0,0,0,0,0,0,-1,1735,428,0,0
518,596,0,0,0,0,0,0,0,0,0,-1,1742,428,0,0
525,596,0,0,0,0,0,0,0,0,0,-1,1749,428,0,0
532,596,0,0,0,0,0,0,0,0,0,-1,1756,428,0,0
539,596,0,0,0,0,0,0,0,0,0,-1,1763,428,0,0
546,596,0,0,0,0,0,0,0,0,0,-1,1770,428,0,0
553,596,0,0,0,0,0,0,0,0,0,-1,1777,428,0,0
560,596,0,0,0,0,0,0,0,0,0,-1,1784,428,0,0
567,596,0,0,0,0,0,0,0,0,0,-1,1791,428,0,0
574,596,0,0,0,0,0,0,0,0,0,-1,1798,428,0,0
581,596,0,0,0,0,0,0,0,0,0,-1,1805,428,0,0
588,596,0,0,0,0,0,0,0,0,0,-1,1812,428,0,0
595,596,0,0,0,0,0,0,0,0,0,-1,1819,428,0,0
602,596,0,0,0,0,0,0,0,0,0,-1,1826,428,0,0
609,596,0,0,0,0,0,0,0,0,0,-1,1833,428,0,0
616,596,0,0,0,0,0,0,0,0,0,-1,1840,428,0,0
623,596,0,0,0,0,0,0,0,0,0,-1,1847,428,0,0
630,596,0,0,0,0,0,0,0,0,0,-1,1854,428,0,0
637,596,0,0,0,0,0,0,0,0,0,-1,1861,428,0,0
644,596,0,0,0,0,0,0,0,0,0,-1,1868,428,0,0
651,596,0,0,0,0,0,0,0,0,0,-1,1875,428,0,0
658,596,0,0,0,0,0,0,0,0,0,-1,1882,428,0,0
665,596,0,0,0,0,0,0,0,0,0,-1,1889,428,0,0
672,596,0,0,0,0,0,0,0,0,0,-1,1896,428,0,0
679,596,0,0,0,0,0,0,0,0,0,-1,1903,428,0,0
686,596,0,0,0,0,0,0,0,0,0,-1,1910,428,0,0
693,596,0,0,0,0,0,0,0,0,0,-1,1917,428,0,0
700,596,0,0,0,0,0,0,0,0,0,-1,1924,428,0,0
707,596,0,0,0,0,0,0,0,0,0,-1,1931,428,0,0
714,596,0,0,0,0,0,0,0,0,0,-1,1938,428,0,0
721,596,0,0,0,0,0,0,0,0,0,-1,1945,428,0,0
728,596,0,0,0,0,0,0,0,0,0,-1,1952,428,0,0
735,596,0,0,0,0,0,0,0,0,0,-1,1959,428,0,0
742,596,0,0,0,0,0,0,0,0,0,-1,1966,428,0,0
749,596,0,0,0,0,0,0,0,0,0,-1,1973,428,0,0
756,596,0,0,0,0,0,0,0,0,0,-1,1980,428,0,0
763,596,0,0,0,0,0,0,0,0,0,-1,1987,428,0,0
770,596,0,0,0,0,0,0,0,0,0,-1,1994,428,0,0
777,596,0,0,0,0,0,0,0,0,0,-1,2001,428,0,0
784,596,0,0,0,0,0,0,0,0,0,-1,2008,428,0,0
791,596,0,0,0,0,0,0,0,0,0,-1,2015,428,0,0
798,596,0,0,0,0,0,0,0,0,0,-1,2022,428,0,0
805,596,0,0,0,0,0,0,0,0,0,-1,2029,428,0,0
812,596,0,0,0,0,0,0,0,0,0,-1,2036,428,0,0
-700,589,0,0,0,0,0,0,0,0,0,-1,524,435,0,0
-693,589,0,0,0,0,0,0,0,0,0,-1,531,435,0,0
-686,589,0,0,0,0,0,0,0,0,0,-1,538,435,0,0
-679,589,0,0,0,0,0,0,0,0,0,-1,545,435,0,0
-672,589,0,0,0,0,0,0,0,0,0,-1,552,435,0,0
-665,589,0,0,0,0,0,0,0,0,0,-1,559,435,0,0
-658,589,0,0,0,0,0,0,0,0,0,-1,566,435,0,0
-651,589,0,0,0,0,0,0,0,0,0,-1,573,435,0,0
-644,589,0,0,0,0,0,0,0,0,0,-1,580,435,0,0
-637,589,0,0,0,0,0,0,0,0,0,-1,587,435,0,0
-630,589,0,0,0,0,0,0,0,0,0,-1,594,435,0,0
-623,589,0,0,0,0,0,0,0,0,0,-1,601,435,0,0
-616,589,0,0,0,0,0,0,0,0,0,-1,608,435,0,0
-609,589,0,0,0,0,0,0,0,0,0,-1,615,435,0,0
-602,589,0,0,0,0,0,0,0,0,0,-1,622,435,0,0
-595,589,0,0,0,0,0,0,0,0,0,-1,629,435,0,0
-588,589,0,0,0,0,0,0,0,0,0,-1,636,435,0,0
-581,589,0,0,0,0,0,0,0,0,0,-1,643,435,0,0
-574,589,0,0,0,0,0,0,0,0,0,-1,650,435,0,0
-567,589,0,0,0,0,0,0,0,0,0,-1,657,435,0,0
-560,589,0,0,0,0,0,0,0,0,0,-1,664,435,0,0
-553,589,0,0,0,0,0,0,0,0,0,-1,671,435,0,0
-546,589,0,0,0,0,0,0,0,0,0,-1,678,435,0,0
-539,589,0,0,0,0,0,0,0,0,0,-1,685,435,0,0
-532,589,0,0,0,0,0,0,0,0,0,-1,692,435,0,0
-525,589,0,0,0,0,0,0,0,0,0,-1,699,435,0,0
-518,589,0,0,0,0,0,0,0,0,0,-1,706,435,0,0
-511,589,0,0,0,0,0,0,0,0,0,-1,713,435,0,0
-504,589,0,0,0,0,0,0,0,0,0,-1,720,435,0,0
-497,589,0,0,0,0,0,0,0,0,0,-1,727,435,0,0
-490,589,0,0,0,0,0,0,0,0,0,-1,734,435,0,0
-483,589,0,0,0,0,0,0,0,0,0,-1,741,435,0,0
-476,589,0,0,0,0,0,0,0,0,0,-1,748,435,0,0
-469,589,0,0,0,0,0,0,0,0,0,-1,755,435,0,0
-462,589,0,0,0,0,0,0,0,0,0,-1,762,435,0,0
-455,589,0,0,0,0,0,0,0,0,0,-1,769,435,0,0
-448,589,0,0,0,0,0,0,0,0,0,-1,776,435,0,0
-441,589,0,0,0,0,0,0,0,0,0,-1,783,435,0,0
-434,589,0,0,0,0,0,0,0,0,0,-1,790,435,0,0
-427,589,0,0,0,0,0,0,0,0,0,-1,797,435,0,0
-420,589,0,0,0,0,0,0,0,0,0,-1,804,435,0,0
-413,589,0,0,0,0,0,0,0,0,0,-1,811,435,0,0
-406,589,0,0,0,0,0,0,0,0,0,-1,818,435,0,0
-399,589,0,0,0,0,0,0,0,0,0,-1,825,435,0,0
-392,589,0,0,0,0,0,0,0,0,0,-1,832,435,0,0
-385,589,0,0,0,0,0,0,0,0,0,-1,839,435,0,0
-378,589,0,0,0,0,0,0,0,0,0,-1,846,435,0,0
-371,589,0,0,0,0,0,0,0,0,0,-1,853,435,0,0
-364,589,0,0,0,0,0,0,0,0,0,-1,860,435,0,0
-357,589,0,0,0,0,0,0,0,0,0,-1,867,435,0,0
-350,589,-0.799927,-20.664,0,0,0,0,0,0,0,-1,874,435,-0.799952,20.664
-343,589,5.15289,-30.4847,0,0,0,0,0,0,0,-1,881,435,5.15291,30.4847
-336,589,5.07684,-29.2368,0,0,0,0,0,0,0,-1,888,435,5.07687,29.2368
-329,589,4.9624,-28.1366,0,0,0,0,0,0,0,-1,895,435,4.96242,28.1366
-322,589,5.10156,-27.065,0,0,0,0,0,0,0,-1,902,435,5.10155,27.065
-315,589,4.22705,-27.9655,0,0,0,0,0,0,0,-1,909,435,4.22705,27.9655
-308,589,4.46698,-29.037,0,0,0,0,0,0,0,-1,916,435,4.46696,29.037
-301,589,4.94867,-33.7458,0,0,0,0,0,0,0,-1,923,435,4.94869,33.7458
-294,589,4.1037,-31.2976,0,0,0,0,0,0,0,-1,930,435,4.10371,31.2976
-287,589,5.31219,-41.0487,0,0,0,0,0,0,0,-1,937,435,5.31223,41.0487
-280,589,5.17505,-41.9667,0,0,0,0,0,0,0,-1,944,435,5.17508,41.9667
-273,589,5.14056,-42.9822,-0.000743823,0.0206796,-0.0115718,0.0257365,-0.00580064,-1.15881,0.0193827,0.0309987,951,435,5.14054,42.9822
-266,589,5.09479,-43.9327,-0.00057315,0.0189463,-0.01067,0.0236469,-0.00527375,-1.15583,0.0177851,0.0278297,958,435,5.0948,43.9328
-259,589,5.01172,-44.8607,-0.000391263,0.0171756,-0.00970917,0.0214848,-0.00470045,-1.15309,0.0161201,0.0223001,965,435,5.01172,44.8608
-252,589,4.97711,-45.7998,-0.000177517,0.0153477,-0.00871351,0.0192548,-0.00408467,-1.14927,0.0143926,0.0117936,972,435,4.97709,45.7998
-245,589,4.94855,-46.6592,3.03063e-05,0.0136966,-0.00774846,0.0171945,-0.00346759,-1.14675,0.0127767,0.0111794,979,435,4.94852,46.6592
-238,589,4.87036,-47.4785,0.000168575,0.01175,-0.00668702,0.0148051,-0.00288654,-1.14224,0.0109597,0.0150567,986,435,4.87034,47.4784
-231,589,4.8075,-48.2767,0.000274927,0.00977449,-0.00553516,0.0123184,-0.00226902,-1.13999,0.0090638,0.0155048,993,435,4.80749,48.2767
-224,589,4.75568,-49.0721,0.00047137,0.0079025,-0.00455463,0.0100649,-0.001691,-1.12754,0.00733881,0.0152737,1000,435,4.75565,49.0721
-217,589,4.69922,-49.8882,0.000624968,0.00599857,-0.00364017,0.00783612,-0.00121258,-1.10332,0.00567164,0.0165152,1007,435,4.69923,49.8881
-210,589,4.6615,-50.6902,0.000775993,0.00412768,-0.00278646,0.00570342,-0.000799749,-1.05613,0.00409498,0.0157928,1014,435,4.66148,50.6902
-203,589,4.63013,-51.4576,0.000978798,0.00241396,-0.00199917,0.00382043,-0.000427674,-0.957706,0.00270082,0.0115456,1021,435,4.63017,51.4576
-196,589,4.58521,-52.2019,0.00112834,0.000895438,-0.00132128,0.00233829,-0.000314512,-0.741444,0.00167358,0.0146091,1028,435,4.58525,52.2019
-189,589,4.53223,-52.9898,0.00135164,-0.000446356,-0.000793762,0.00165191,-0.000746631,-0.361655,0.0014173,0.0181759,1035,435,4.53226,52.9898
-182,589,4.53271,-53.6765,0.00161011,-0.00160594,-0.00032423,0.00164247,-0.0016383,-0.0994824,0.00189416,0.0136852,1042,435,4.53272,53.6765
-175,589,4.51306,-54.4263,0.00186826,-0.0026086,0.000103955,0.00187068,-0.00261101,0.0232038,0.00259925,0.0182106,1049,435,4.51304,54.4263
-168,589,4.50793,-55.206,0.00211236,-0.00324601,0.000397457,0.00214168,-0.00327533,0.0736379,0.00315026,0.0155353,1056,435,4.50795,55.206
-161,589,4.46204,-55.8941,0.00238151,-0.00367065,0.000635371,0.00244749,-0.00373664,0.103479,0.00359618,0.0136391,1063,435,4.462,55.8941
-154,589,4.42761,-56.5635,0.00272394,-0.00389504,0.000896625,0.00284325,-0.00401435,0.132287,0.00397843,0.013453,1070,435,4.42759,56.5635
-147,589,4.48438,-57.2202,0.0031776,-0.00389932,0.00114681,0.0033588,-0.00408051,0.156708,0.00430182,0.0139045,1077,435,4.4844,57.2202
-140,589,4.50757,-57.8664,0.00357099,-0.00405307,0.00148401,0.00384967,-0.00433175,0.185623,0.00472627,0.0159091,1084,435,4.50758,57.8664
-133,589,4.4884,-58.5405,0.00394496,-0.00410244,0.00178461,0.00432297,-0.00448044,0.208728,0.00508292,0.0166265,1091,435,4.48838,58.5405
-126,589,4.51038,-59.1808,0.00447837,-0.00396257,0.00200918,0.00493221,-0.00441642,0.222155,0.00540017,0.0137031,1098,435,4.51039,59.1808
-119,589,4.43481,-59.8331,0.00530483,-0.00376485,0.00221935,0.00581878,-0.0042788,0.227565,0.0058524,0.032959,1105,435,4.43476,59.8331
-112,589,4.37561,-60.5087,0,0,0,0,0,0,0,-1,1112,435,4.37558,60.5087
-105,589,4.47388,-61.0821,0,0,0,0,0,0,0,-1,1119,435,4.47383,61.0821
-98,589,4.50696,-61.7807,0,0,0,0,0,0,0,-1,1126,435,4.50697,61.7807
-91,589,3.39563,-37.8231,0,0,0,0,0,0,0,-1,1133,435,3.39565,37.8231
-84,589,2.76538,-22.6013,0,0,0,0,0,0,0,-1,1140,435,2.76539,22.6014
-77,589,2.18152,-14.8023,0,0,0,0,0,0,0,-1,1147,435,2.18155,14.8023
-70,589,1.48267,-9.90961,0,0,0,0,0,0,0,-1,1154,435,1.48264,9.9096
-63,589,0.880127,-5.50586,0,0,0,0,0,0,0,-1,1161,435,0.880186,5.50587
-56,589,-2.78052,-7.28082,0,0,0,0,0,0,0,-1,1168,435,-2.78053,7.28082
-49,589,-0.525757,-2.76703,0,0,0,0,0,0,0,-1,1175,435,-0.525771,2.76702
-42,589,-2.7738,-2.87921,0,0,0,0,0,0,0,-1,1182,435,-2.77383,2.87922
-35,589,-2.55225,-3.27551,0,0,0,0,0,0,0,-1,1189,435,-2.55223,3.27552
-28,589,-0.0632324,-3.42938,0,0,0,0,0,0,0,-1,1196,435,-0.063241,3.42938
-21,589,9.229,-63.723,0,0,0,0,0,0,0,-1,1203,435,9.22906,63.723
-14,589,13.8501,-61.8203,0,0,0,0,0,0,0,-1,1210,435,13.8501,61.8203
-7,589,13.469,-63.2012,0,0,0,0,0,0,0,-1,1217,435,13.469,63.2012
0,589,10.5306,-63.2372,0,0,0,0,0,0,0,-1,1224,435,10.5306,63.2372
7,589,12.1263,-62.5087,0,0,0,0,0,0,0,-1,1231,435,12.1263,62.5087
14,589,11.3923,-63.5725,0,0,0,0,0,0,0,-1,1238,435,11.3923,63.5725
21,589,10.9738,-64.5006,0,0,0,0,0,0,0,-1,1245,435,10.9738,64.5006
28,589,9.19543,-66.1164,0,0,0,0,0,0,0,-1,1252,435,9.19544,66.1164
35,589,8.66992,-66.332,-0.0445746,-0.0139142,0.0243927,-0.000434332,-0.0580544,1.06595,0.038559,0.0458593,1259,435,8.66992,66.332
42,589,8.07825,-66.5249,-0.0506049,-0.0136544,0.0231402,-0.0025188,-0.0617406,1.12228,0.040347,0.046813,1266,435,8.07827,66.5249
49,589,6.90015,-66.6522,0,0,0,0,0,0,0,-1,1273,435,6.90019,66.6522
56,589,6.26648,-66.8357,0,0,0,0,0,0,0,-1,1280,435,6.26644,66.8357
63,589,5.63904,-66.7563,0,0,0,0,0,0,0,-1,1287,435,5.63906,66.7563
70,589,4.10645,-67.6952,-0.0614719,0.015096,0.0062507,0.0156029,-0.0619788,1.48987,0.0473844,0.0441702,1294,435,4.10641,67.6952
77,589,3.51904,-68.0574,-0.0586297,0.025445,-0.000563106,0.0254488,-0.0586335,-1.5641,0.0497892,0.0424821,1301,435,3.51905,68.0574
84,589,2.75696,-68.7068,-0.0521167,0.0360825,-0.00786822,0.0367789,-0.0528131,-1.48252,0.0520014,0.0388595,1308,435,2.75694,68.7068
91,589,1.80811,-69.2069,-0.0450231,0.0451902,-0.0154809,0.0477729,-0.0476057,-1.40549,0.0550669,0.0407125,1315,435,1.80807,69.2069
98,589,0.896851,-69.7468,-0.0373595,0.0511769,-0.0240523,0.0572892,-0.0434717,-1.32194,0.0583564,0.0462779,1322,435,0.896882,69.7468
105,589,-0.30542,-70.5914,-0.0277031,0.0548662,-0.0319046,0.0657574,-0.0385944,-1.24183,0.0609241,0.0477514,1329,435,-0.305409,70.5914
112,589,-1.21851,-71.5938,-0.0173741,0.0542116,-0.038973,0.071334,-0.0344965,-1.15684,0.0623229,0.042251,1336,435,-1.2185,71.5938
119,589,-1.97461,-72.5181,-0.00844627,0.0493111,-0.0446217,0.0735838,-0.0327191,-1.0726,0.0628675,0.0437331,1343,435,-1.97461,72.5181
126,589,-2.75085,-73.4282,0,0,0,0,0,0,0,-1,1350,435,-2.75084,73.4281
133,589,-4.98535,-78.3274,0,0,0,0,0,0,0,-1,1357,435,-4.9853,78.3274
140,589,-6.44958,-80.1381,0,0,0,0,0,0,0,-1,1364,435,-6.44963,80.1381
147,589,-7.98096,-81.8212,0,0,0,0,0,0,0,-1,1371,435,-7.98102,81.8212
154,589,-9.36316,-83.563,0,0,0,0,0,0,0,-1,1378,435,-9.36311,83.5631
161,589,-5.66907,-75.1069,0,0,0,0,0,0,0,-1,1385,435,-5.66909,75.1069
168,589,20.0441,-47.9614,0,0,0,0,0,0,0,-1,1392,435,20.044,47.9613
175,589,8.66992,-7.65527,0,0,0,0,0,0,0,-1,1399,435,8.66994,7.65528
182,589,3.8136,-2.45389,0,0,0,0,0,0,0,-1,1406,435,3.81363,2.4539
189,589,3.69983,-3.68149,0,0,0,0,0,0,0,-1,1413,435,3.69987,3.68147
196,589,3.31055,-5.31677,0,0,0,0,0,0,0,-1,1420,435,3.31059,5.31678
203,589,2.72559,-8.84338,0,0,0,0,0,0,0,-1,1427,435,2.72558,8.84338
210,589,3.62378,-14.4032,0,0,0,0,0,0,0,-1,1434,435,3.62378,14.4032
217,589,4.65601,-22.3745,0,0,0,0,0,0,0,-1,1441,435,4.65607,22.3745
224,589,6.79028,-33.9412,0,0,0,0,0,0,0,-1,1448,435,6.79028,33.9412
231,589,11.5417,-61.0621,0,0,0,0,0,0,0,-1,1455,435,11.5417,61.0621
238,589,11.4703,-60.3564,0,0,0,0,0,0,0,-1,1462,435,11.4704,60.3564
245,589,11.4924,-59.7108,0,0,0,0,0,0,0,-1,1469,435,11.4924,59.7108
252,589,11.5352,-59.022,0.00488945,-0.00761603,-0.00282037,0.0054961,-0.00822268,-0.211868,0.00797252,0.0372306,1476,435,11.5351,59.022
259,589,11.5381,-58.4312,0.00414816,-0.0079953,-0.00277891,0.00475387,-0.00860101,-0.214611,0.00781636,0.013798,1483,435,11.5381,58.4312
266,589,11.5444,-57.7541,0.00363084,-0.00789145,-0.00258884,0.00418578,-0.00844639,-0.211162,0.00743018,0.0102469,1490,435,11.5445,57.7541
273,589,11.5671,-57.1036,0.003079,-0.00754604,-0.00236732,0.00358258,-0.00804962,-0.209599,0.00687894,0.0126395,1497,435,11.5671,57.1036
280,589,11.549,-56.4037,0.00258025,-0.00680164,-0.00200126,0.00298931,-0.0072107,-0.201622,0.00605475,0.0148602,1504,435,11.549,56.4037
287,589,11.5453,-55.7045,0.00224755,-0.00583066,-0.00157709,0.00254452,-0.00612764,-0.186126,0.00514736,0.0130617,1511,435,11.5453,55.7045
294,589,11.5408,-54.9615,0.00196046,-0.00452253,-0.00106683,0.0021315,-0.00469358,-0.158976,0.00403195,0.0113938,1518,435,11.5407,54.9615
301,589,11.5214,-54.2119,0.00169709,-0.00304953,-0.000469775,0.00174314,-0.00309557,-0.0977074,0.00282977,0.0120069,1525,435,11.5214,54.2119
308,589,11.4951,-53.4702,0.00150948,-0.00137417,0.000213452,0.0015252,-0.00138988,0.0734878,0.00168362,0.0114255,1532,435,11.4952,53.4702
315,589,11.4669,-52.7219,0.00141689,0.000459533,0.00098776,0.00203585,-0.000159424,0.559768,0.00141337,0.0108898,1539,435,11.4669,52.7219
322,589,11.442,-51.9634,0.00129773,0.00218649,0.00176885,0.00356593,-8.17078e-05,0.908464,0.00240498,0.0119461,1546,435,11.442,51.9634
329,589,11.3856,-51.1786,0.00123201,0.00379816,0.00258053,0.005397,-0.000366824,1.01611,0.0037263,0.0115263,1553,435,11.3857,51.1786
336,589,11.3317,-50.4113,0.00125423,0.00555462,0.00344276,0.00746348,-0.000654628,1.06454,0.00520759,0.0105629,1560,435,11.3317,50.4113
343,589,11.2993,-49.6341,0.00128947,0.00733852,0.0043223,0.00958941,-0.000961425,1.09068,0.00673633,0.0108595,1567,435,11.2993,49.6341
350,589,11.2568,-48.8155,0.00139112,0.0092324,0.00532461,0.0119241,-0.00130057,1.10274,0.00841647,0.0162833,1574,435,11.2569,48.8155
357,589,11.2113,-47.9738,0.00147535,0.0109393,0.00628908,0.0140778,-0.00166314,1.10792,0.00998585,0.0136163,1581,435,11.2114,47.9737
364,589,11.1555,-47.1431,0.0015198,0.0124434,0.0071647,0.0159907,-0.00202752,1.11107,0.0113966,0.0112864,1588,435,11.1555,47.1431
371,589,11.0902,-46.3109,0.00158244,0.0141864,0.00810672,0.0181525,-0.00238368,1.1158,0.0129695,0.0121242,1595,435,11.0902,46.3109
378,589,11.0188,-45.4581,0.00155035,0.0158526,0.00891271,0.0201284,-0.00272547,1.12348,0.0144136,0.0131659,1602,435,11.0188,45.4581
385,589,10.9647,-44.5737,0.00142177,0.0172754,0.00943598,0.0216722,-0.00297507,1.13475,0.0155351,0.02182,1609,435,10.9647,44.5737
392,589,10.9135,-43.5604,0.00140571,0.0184332,0.0100198,0.0230678,-0.00322891,1.13756,0.0165601,0.0303421,1616,435,10.9134,43.5604
399,589,10.9165,-42.5136,0.00156369,0.0204281,0.0109776,0.0254692,-0.00347735,1.14031,0.0182493,0.0382328,1623,435,10.9165,42.5136
406,589,10.9329,-41.5554,0,0,0,0,0,0,0,-1,1630,435,10.9329,41.5554
413,589,5.61377,-19.0606,0,0,0,0,0,0,0,-1,1637,435,5.61372,19.0606
420,589,2.79724,-5.79956,0,0,0,0,0,0,0,-1,1644,435,2.7973,5.79955
427,589,10.0743,-39.2433,0,0,0,0,0,0,0,-1,1651,435,10.0743,39.2434
434,589,9.14709,-34.4435,0,0,0,0,0,0,0,-1,1658,435,9.1471,34.4435
441,589,7.85901,-29.8665,0,0,0,0,0,0,0,-1,1665,435,7.85898,29.8666
448,589,0.453735,-3.2868,0,0,0,0,0,0,0,-1,1672,435,0.453701,3.28681
455,589,0.664307,-3.46848,0,0,0,0,0,0,0,-1,1679,435,0.66425,3.46846
462,589,3.46716,-4.41891,0,0,0,0,0,0,0,-1,1686,435,3.4672,4.41891
469,589,0.0238037,-3.81497,0,0,0,0,0,0,0,-1,1693,435,0.0237965,3.81498
476,589,0,0,0,0,0,0,0,0,0,-1,1700,435,0,0
483,589,0,0,0,0,0,0,0,0,0,-1,1707,435,0,0
490,589,0,0,0,0,0,0,0,0,0,-1,1714,435,0,0
497,589,0,0,0,0,0,0,0,0,0,-1,1721,435,0,0
504,589,0,0,0,0,0,0,0,0,0,-1,1728,435,0,0
511,589,0,0,0,0,0,0,0,0,0,-1,1735,435,0,0
518,589,0,0,0,0,0,0,0,0,0,-1,1742,435,0,0
525,589,0,0,0,0,0,0,0,0,0,-1,1749,435,0,0
532,589,0,0,0,0,0,0,0,0,0,-1,1756,435,0,0
539,589,0,0,0,0,0,0,0,0,0,-1,1763,435,0,0
546,589,0,0,0,0,0,0,0,0,0,-1,1770,435,0,0
553,589,0,0,0,0,0,0,0,0,0,-1,1777,435,0,0
560,589,0,0,0,0,0,0,0,0,0,-1,1784,435,0,0
567,589,0,0,0,0,0,0,0,0,0,-1,1791,435,0,0
574,589,0,0,0,0,0,0,0,0,0,-1,1798,435,0,0
581,589,0,0,0,0,0,0,0,0,0,-1,1805,435,0,0
588,589,0,0,0,0,0,0,0,0,0,-1,1812,435,0,0
595,589,0,0,0,0,0,0,0,0,0,-1,1819,435,0,0
602,589,0,0,0,0,0,0,0,0,0,-1,1826,435,0,0
609,589,0,0,0,0,0,0,0,0,0,-1,1833,435,0,0
616,589,0,0,0,0,0,0,0,0,0,-1,1840,435,0,0
623,589,0,0,0,0,0,0,0,0,0,-1,1847,435,0,0
630,589,0,0,0,0,0,0,0,0,0,-1,1854,435,0,0
637,589,0,0,0,0,0,0,0,0,0,-1,1861,435,0,0
644,589,0,0,0,0,0,0,0,0,0,-1,1868,435,0,0
651,589,0,0,0,0,0,0,0,0,0,-1,1875,435,0,0
658,589,0,0,0,0,0,0,0,0,0,-1,1882,435,0,0
665,589,0,0,0,0,0,0,0,0,0,-1,1889,435,0,0
672,589,0,0,0,0,0,0,0,0,0,-1,1896,435,0,0
679,589,0,0,0,0,0,0,0,0,0,-1,1903,435,0,0
686,589,0,0,0,0,0,0,0,0,0,-1,1910,435,0,0
693,589,0,0,0,0,0,0,0,0,0,-1,1917,435,0,0
700,589,0,0,0,0,0,0,0,0,0,-1,1924,435,0,0
707,589,0,0,0,0,0,0,0,0,0,-1,1931,435,0,0
714,589,0,0,0,0,0,0,0,0,0,-1,1938,435,0,0
721,589,0,0,0,0,0,0,0,0,0,-1,1945,435,0,0
728,589,0,0,0,0,0,0,0,0,0,-1,1952,435,0,0
735,589,0,0,0,0,0,0,0,0,0,-1,1959,435,0,0
742,589,0,0,0,0,0,0,0,0,0,-1,1966,435,0,0
749,589,0,0,0,0,0,0,0,0,0,-1,1973,435,0,0
756,589,0,0,0,0,0,0,0,0,0,-1,1980,435,0,0
763,589,0,0,0,0,0,0,0,0,0,-1,1987,435,0,0
770,589,0,0,0,0,0,0,0,0,0,-1,1994,435,0,0
777,589,0,0,0,0,0,0,0,0,0,-1,2001,435,0,0
784,589,0,0,0,0,0,0,0,0,0,-1,2008,435,0,0
791,589,0,0,0,0,0,0,0,0,0,-1,2015,435,0,0
798,589,0,0,0,0,0,0,0,0,0,-1,2022,435,0,0
805,589,0,0,0,0,0,0,0,0,0,-1,2029,435,0,0
812,589,0,0,0,0,0,0,0,0,0,-1,2036,435,0,0
-700,582,0,0,0,0,0,0,0,0,0,-1,524,442,0,0
-693,582,0,0,0,0,0,0,0,0,0,-1,531,442,0,0
-686,582,0,0,0,0,0,0,0,0,0,-1,538,442,0,0
-679,582,0,0,0,0,0,0,0,0,0,-1,545,442,0,0
-672,582,0,0,0,0,0,0,0,0,0,-1,552,442,0,0
-665,582,0,0,0,0,0,0,0,0,0,-1,559,442,0,0
-658,582,0,0,0,0,0,0,0,0,0,-1,566,442,0,0
-651,582,0,0,0,0,0,0,0,0,0,-1,573,442,0,0
-644,582,0,0,0,0,0,0,0,0,0,-1,580,442,0,0
-637,582,0,0,0,0,0,0,0,0,0,-1,587,442,0,0
-630,582,0,0,0,0,0,0,0,0,0,-1,594,442,0,0
-623,582,0,0,0,0,0,0,0,0,0,-1,601,442,0,0
-616,582,0,0,0,0,0,0,0,0,0,-1,608,442,0,0
-609,582,0,0,0,0,0,0,0,0,0,-1,615,442,0,0
-602,582,0,0,0,0,0,0,0,0,0,-1,622,442,0,0
-595,582,0,0,0,0,0,0,0,0,0,-1,629,442,0,0
-588,582,0,0,0,0,0,0,0,0,0,-1,636,442,0,0
-581,582,0,0,0,0,0,0,0,0,0,-1,643,442,0,0
-574,582,0,0,0,0,0,0,0,0,0,-1,650,442,0,0
-567,582,0,0,0,0,0,0,0,0,0,-1,657,442,0,0
-560,582,0,0,0,0,0,0,0,0,0,-1,664,442,0,0
-553,582,0,0,0,0,0,0,0,0,0,-1,671,442,0,0
-546,582,0,0,0,0,0,0,0,0,0,-1,678,442,0,0
-539,582,0,0,0,0,0,0,0,0,0,-1,685,442,0,0
-532,582,0,0,0,0,0,0,0,0,0,-1,692,442,0,0
-525,582,0,0,0,0,0,0,0,0,0,-1,699,442,0,0
-518,582,0,0,0,0,0,0,0,0,0,-1,706,442,0,0
-511,582,0,0,0,0,0,0,0,0,0,-1,713,442,0,0
-504,582,0,0,0,0,0,0,0,0,0,-1,720,442,0,0
-497,582,0,0,0,0,0,0,0,0,0,-1,727,442,0,0
-490,582,0,0,0,0,0,0,0,0,0,-1,734,442,0,0
-483,582,0,0,0,0,0,0,0,0,0,-1,741,442,0,0
-476,582,0,0,0,0,0,0,0,0,0,-1,748,442,0,0
-469,582,0,0,0,0,0,0,0,0,0,-1,755,442,0,0
-462,582,0,0,0,0,0,0,0,0,0,-1,762,442,0,0
-455,582,0,0,0,0,0,0,0,0,0,-1,769,442,0,0
-448,582,0,0,0,0,0,0,0,0,0,-1,776,442,0,0
-441,582,0,0,0,0,0,0,0,0,0,-1,783,442,0,0
-434,582,0,0,0,0,0,0,0,0,0,-1,790,442,0,0
-427,582,0,0,0,0,0,0,0,0,0,-1,797,442,0,0
-420,582,0,0,0,0,0,0,0,0,0,-1,804,442,0,0
-413,582,0,0,0,0,0,0,0,0,0,-1,811,442,0,0
-406,582,0,0,0,0,0,0,0,0,0,-1,818,442,0,0
-399,582,0,0,0,0,0,0,0,0,0,-1,825,442,0,0
-392,582,0,0,0,0,0,0,0,0,0,-1,832,442,0,0
-385,582,0,0,0,0,0,0,0,0,0,-1,839,442,0,0
-378,582,0,0,0,0,0,0,0,0,0,-1,846,442,0,0
-371,582,0,0,0,0,0,0,0,0,0,-1,853,442,0,0
-364,582,0,0,0,0,0,0,0,0,0,-1,860,442,0,0
-357,582,-1.4903,-21.5295,0,0,0,0,0,0,0,-1,867,442,-1.49031,21.5295
-350,582,-0.880859,-19.7966,0,0,0,0,0,0,0,-1,874,442,-0.880885,19.7966
-343,582,0.939941,-19.1705,0,0,0,0,0,0,0,-1,881,442,0.939935,19.1705
-336,582,3.33929,-27.9479,0,0,0,0,0,0,0,-1,888,442,3.33928,27.9479
-329,582,3.63544,-26.4736,0,0,0,0,0,0,0,-1,895,442,3.63546,26.4736
-322,582,3.67145,-27.1796,0,0,0,0,0,0,0,-1,902,442,3.67143,27.1796
-315,582,3.90686,-27.6446,0,0,0,0,0,0,0,-1,909,442,3.90689,27.6446
-308,582,4.07587,-33.1895,0,0,0,0,0,0,0,-1,916,442,4.07588,33.1895
-301,582,4.68561,-39.5144,0,0,0,0,0,0,0,-1,923,442,4.68558,39.5144
-294,582,4.46387,-40.0794,0,0,0,0,0,0,0,-1,930,442,4.46386,40.0794
-287,582,4.46277,-41.1241,-0.00186951,0.0178073,-0.0101037,0.0220713,-0.00613353,-1.17145,0.0171288,0.0408813,937,442,4.46276,41.1242
-280,582,4.43256,-42.118,-0.00121589,0.0171314,-0.0096469,0.0212701,-0.00535458,-1.16553,0.0162615,0.0202884,944,442,4.43253,42.118
-273,582,4.41095,-43.1222,-0.000798295,0.0159314,-0.00902263,0.0198701,-0.00473705,-1.15919,0.0150759,0.0136632,951,442,4.41095,43.1222
-266,582,4.33136,-44.0212,-0.000544602,0.014462,-0.00824923,0.0181099,-0.0041925,-1.15444,0.0136865,0.0113719,958,442,4.33137,44.0212
-259,582,4.25415,-44.9064,-0.000288831,0.0127955,-0.00740023,0.0161308,-0.00362408,-1.14736,0.0121435,0.00882695,965,442,4.25414,44.9064
-252,582,4.20099,-45.7872,-4.36695e-05,0.0109611,-0.00647867,0.0139586,-0.00304125,-1.13744,0.0104678,0.00820914,972,442,4.20101,45.7872
-245,582,4.15765,-46.6142,0.000209071,0.00928092,-0.00558274,0.0119382,-0.00244817,-1.12655,0.00888794,0.0122518,979,442,4.15764,46.6142
-238,582,4.08563,-47.408,0.000416195,0.00729613,-0.00457527,0.00958037,-0.00186804,-1.10774,0.00709208,0.016818,986,442,4.08562,47.4079
-231,582,4.03693,-48.2068,0.000584342,0.00525309,-0.00347615,0.00710595,-0.00126852,-1.08108,0.00521185,0.0133974,993,442,4.03691,48.2068
-224,582,3.9826,-49.029,0.000799429,0.00329769,-0.00250387,0.00484672,-0.000749602,-1.01677,0.00350782,0.0111705,1000,442,3.98258,49.029
-217,582,3.92719,-49.8216,0.000997978,0.0013317,-0.00159502,0.00276856,-0.000438882,-0.837516,0.00200806,0.0135842,1007,442,3.92716,49.8216
-210,582,3.89044,-50.6154,0.00121153,-0.000580189,-0.000762919,0.00149236,-0.000861024,-0.352713,0.00137493,0.0141445,1014,442,3.89046,50.6154
-203,582,3.88074,-51.4069,0.00150678,-0.00223346,-3.30949e-05,0.00150707,-0.00223376,-0.00884741,0.00217331,0.0106563,1021,442,3.88078,51.4069
-196,582,3.82556,-52.1929,0.00172048,-0.00360443,0.000570745,0.00178097,-0.00366492,0.105586,0.00320628,0.0164183,1028,442,3.82556,52.1929
-189,582,3.78748,-52.9487,0.00201826,-0.00482234,0.00105361,0.00217687,-0.00498095,0.149411,0.00423695,0.0237205,1035,442,3.7875,52.9487
-182,582,3.79468,-53.6761,0.00235464,-0.0057919,0.00143425,0.00259978,-0.00603704,0.169278,0.0051164,0.0165979,1042,442,3.79469,53.6761
-175,582,3.78174,-54.3716,0.00272856,-0.00643567,0.00171934,0.00304051,-0.00674763,0.179486,0.00578471,0.0146829,1049,442,3.78177,54.3716
-168,582,3.76526,-55.1402,0.00307045,-0.00673907,0.00186772,0.00341403,-0.00708265,0.181922,0.00618241,0.012145,1056,442,3.76524,55.1402
-161,582,3.72632,-55.8475,0.00339829,-0.00682332,0.00195012,0.0037577,-0.00718274,0.182258,0.00641881,0.0134657,1063,442,3.72634,55.8475
-154,582,3.71301,-56.5219,0.0037922,-0.0066893,0.00204921,0.00417859,-0.0070757,0.186368,0.00656903,0.0134114,1070,442,3.71306,56.5218
-147,582,3.76746,-57.1925,0.00429587,-0.00625373,0.00211255,0.00470318,-0.00666104,0.190468,0.00659351,0.0133222,1077,442,3.76745,57.1925
-140,582,3.76746,-57.825,0.00465296,-0.00603622,0.00234309,0.00514401,-0.00652727,0.206585,0.00675418,0.0151142,1084,442,3.76747,57.825
-133,582,3.83691,-58.4594,0.00495237,-0.00569332,0.00252211,0.00551966,-0.00626061,0.221245,0.00680583,0.0203905,1091,442,3.83696,58.4594
-126,582,3.84045,-59.0263,0.00544712,-0.00506668,0.00259875,0.00605439,-0.00567395,0.229558,0.00677255,0.0251626,1098,442,3.84048,59.0263
-119,582,3.8009,-59.7881,0,0,0,0,0,0,0,-1,1105,442,3.80094,59.788
-112,582,3.47888,-53.7394,0,0,0,0,0,0,0,-1,1112,442,3.47883,53.7394
-105,582,2.87219,-43.073,0,0,0,0,0,0,0,-1,1119,442,2.87217,43.073
-98,582,2.61938,-32.8673,0,0,0,0,0,0,0,-1,1126,442,2.61944,32.8673
-91,582,2.16492,-24.1119,0,0,0,0,0,0,0,-1,1133,442,2.16496,24.1119
-84,582,2.10278,-16.7533,0,0,0,0,0,0,0,-1,1140,442,2.10279,16.7533
-77,582,2.30212,-11.4907,0,0,0,0,0,0,0,-1,1147,442,2.30207,11.4907
-70,582,1.49255,-6.36548,0,0,0,0,0,0,0,-1,1154,442,1.49251,6.36549
-63,582,-4.62915,-4.0347,0,0,0,0,0,0,0,-1,1161,442,-4.6292,4.03471
-56,582,-5.81714,-5.24149,0,0,0,0,0,0,0,-1,1168,442,-5.81718,5.24149
-49,582,-3.88672,-10.1064,0,0,0,0,0,0,0,-1,1175,442,-3.88678,10.1064
-42,582,-0.948975,1.13968,0,0,0,0,0,0,0,-1,1182,442,-0.949003,-1.13969
-35,582,-2.58435,-3.86911,0,0,0,0,0,0,0,-1,1189,442,-2.58437,3.86912
-28,582,-0.825317,-3.45941,0,0,0,0,0,0,0,-1,1196,442,-0.825377,3.45942
-21,582,12.7615,-59.3565,0,0,0,0,0,0,0,-1,1203,442,12.7615,59.3565
-14,582,12.3313,-60.7493,0,0,0,0,0,0,0,-1,1210,442,12.3313,60.7493
-7,582,11.943,-62.1296,0,0,0,0,0,0,0,-1,1217,442,11.943,62.1296
0,582,11.5754,-61.6962,0,0,0,0,0,0,0,-1,1224,442,11.5755,61.6962
7,582,10.8513,-62.6786,-0.0214013,0.0049297,0.0285632,0.0232156,-0.0396871,1.00135,0.0367296,0.0474239,1231,442,10.8513,62.6786
14,582,10.1018,-63.7116,-0.0278748,-0.000361853,0.028035,0.0171098,-0.0453465,1.01348,0.0372674,0.0464457,1238,442,10.1018,63.7116
21,582,9.39404,-64.7451,-0.0344102,-0.00623489,0.028141,0.0111478,-0.0517928,1.01747,0.0387823,0.0461901,1245,442,9.39403,64.7451
28,582,8.62732,-65.3656,-0.0424155,-0.0120122,0.0292006,0.00570671,-0.0601344,1.02539,0.0421209,0.0452867,1252,442,8.62737,65.3656
35,582,7.8031,-65.7547,-0.0508845,-0.0154385,0.02919,0.000987571,-0.0673106,1.05823,0.0452065,0.0465607,1259,442,7.80306,65.7547
42,582,7.31018,-66.0965,-0.0589371,-0.0152242,0.0270768,-0.00228333,-0.071878,1.12496,0.047176,0.0476811,1266,442,7.3102,66.0965
49,582,6.70032,-66.5211,-0.0679175,-0.0112567,0.022732,-0.00326416,-0.07591,1.2327,0.0495545,0.0487169,1273,442,6.70033,66.5211
56,582,5.83179,-66.4268,0,0,0,0,0,0,0,-1,1280,442,5.83178,66.4268
63,582,4.98682,-66.2651,0,0,0,0,0,0,0,-1,1287,442,4.98685,66.2651
70,582,2.97888,-67.6475,-0.0721036,0.0200195,0.00383355,0.0201787,-0.0722628,1.52928,0.0561239,0.0412544,1294,442,2.97891,67.6475
77,582,1.72546,-67.0162,-0.0684147,0.0321402,-0.00438511,0.0323311,-0.0686056,-1.5273,0.059517,0.0387281,1301,442,1.72546,67.0162
84,582,0.706665,-66.1733,-0.0598855,0.0448629,-0.0132497,0.0465129,-0.0615355,-1.44691,0.0625824,0.0419754,1308,442,0.706656,66.1733
91,582,1.1322,-69.8787,-0.0505657,0.0557363,-0.0221816,0.0601792,-0.0550086,-1.37312,0.066526,0.0439927,1315,442,1.1322,69.8787
98,582,0.830078,-69.7204,-0.0406395,0.0627136,-0.03201,0.0718244,-0.0497504,-1.2935,0.0705759,0.0474771,1322,442,0.830063,69.7204
105,582,-1.2262,-71.1498,-0.0283978,0.0668105,-0.0410068,0.0820371,-0.0436245,-1.21526,0.073672,0.0452007,1329,442,-1.22624,71.1498
112,582,-2.21362,-72.7545,-0.0153077,0.0656887,-0.0490532,0.0888012,-0.0384202,-1.13048,0.0753467,0.0415075,1336,442,-2.21367,72.7545
119,582,-3.1532,-74.1899,-0.0040604,0.0591856,-0.0554203,0.0913703,-0.0362451,-1.04466,0.0759355,0.0437057,1343,442,-3.15322,74.1899
126,582,-3.91846,-76.6036,0.00448054,0.0513376,-0.0614007,0.0936277,-0.0378096,-0.967656,0.0781331,0.0441452,1350,442,-3.91842,76.6036
133,582,-5.53748,-78.7218,0,0,0,0,0,0,0,-1,1357,442,-5.5375,78.7218
140,582,-7.0072,-80.4088,0.0138324,0.0317042,-0.0686383,0.0919858,-0.0464491,-0.850128,0.081354,0.0433458,1364,442,-7.00716,80.4088
147,582,-8.46484,-82.1745,0.013879,0.0204945,-0.0688643,0.0861305,-0.0517569,-0.809396,0.0804297,0.0496191,1371,442,-8.46479,82.1745
154,582,-9.73962,-84.244,0,0,0,0,0,0,0,-1,1378,442,-9.73963,84.244
161,582,-10.9921,-86.2264,0,0,0,0,0,0,0,-1,1385,442,-10.9921,86.2264
168,582,0.081665,-40.4535,0,0,0,0,0,0,0,-1,1392,442,0.0816215,40.4535
175,582,6.50549,-2.00424,0,0,0,0,0,0,0,-1,1399,442,6.50546,2.00425
182,582,5.18958,-2.18652,0,0,0,0,0,0,0,-1,1406,442,5.1896,2.18652
189,582,6.19751,-0.880951,0,0,0,0,0,0,0,-1,1413,442,6.19754,0.88096
196,582,4.87354,-2.22327,0,0,0,0,0,0,0,-1,1420,442,4.87348,2.22325
203,582,3.11401,-4.48257,0,0,0,0,0,0,0,-1,1427,442,3.11404,4.48259
210,582,2.93115,-11.0731,0,0,0,0,0,0,0,-1,1434,442,2.93113,11.0731
217,582,4.94092,-16.5476,0,0,0,0,0,0,0,-1,1441,442,4.94087,16.5476
224,582,5.21008,-20.9908,0,0,0,0,0,0,0,-1,1448,442,5.21006,20.9908
231,582,5.70032,-25.622,0,0,0,0,0,0,0,-1,1455,442,5.70026,25.6221
238,582,6.44189,-30.7028,0,0,0,0,0,0,0,-1,1462,442,6.44195,30.7028
245,582,10.0378,-45.1569,0,0,0,0,0,0,0,-1,1469,442,10.0379,45.1568
252,582,12.2522,-59.1571,0,0,0,0,0,0,0,-1,1476,442,12.2523,59.1571
259,582,12.1956,-58.4208,0,0,0,0,0,0,0,-1,1483,442,12.1956,58.4208
266,582,12.2218,-57.7501,0.00456711,-0.0128032,-0.00420935,0.0055334,-0.0137695,-0.22565,0.0114777,0.0187578,1490,442,12.2218,57.7501
273,582,12.2673,-57.0444,0.00381735,-0.0126755,-0.00416188,0.00480806,-0.0136662,-0.233696,0.0110673,0.0121863,1497,442,12.2673,57.0444
280,582,12.2639,-56.3917,0.00315255,-0.0120164,-0.0039398,0.00411479,-0.0129786,-0.239545,0.0103017,0.0123646,1504,442,12.2639,56.3917
287,582,12.2643,-55.6664,0.00267631,-0.0110761,-0.00365172,0.00358582,-0.0119856,-0.244095,0.00941607,0.0116243,1511,442,12.2643,55.6664
294,582,12.2808,-54.9164,0.00228758,-0.00962473,-0.00322062,0.00310255,-0.0104397,-0.247846,0.00819222,0.00971591,1518,442,12.2808,54.9164
301,582,12.2714,-54.1905,0.00194685,-0.00795098,-0.002673,0.00262259,-0.00862672,-0.247612,0.00679616,0.0106362,1525,442,12.2714,54.1905
308,582,12.2495,-53.4449,0.00166391,-0.00612497,-0.00203153,0.00216194,-0.006623,-0.240408,0.00528548,0.0133856,1532,442,12.2495,53.4449
315,582,12.2245,-52.6896,0.00148033,-0.0041487,-0.00128374,0.00175928,-0.00442764,-0.213964,0.0036811,0.0130663,1539,442,12.2244,52.6896
322,582,12.1984,-51.9123,0.00130614,-0.00222867,-0.000494255,0.00137395,-0.00229648,-0.136342,0.00214132,0.0107497,1546,442,12.1983,51.9123
329,582,12.1538,-51.1464,0.00118842,-0.000407803,0.000339043,0.00125745,-0.000476831,0.200853,0.00103454,0.0117446,1553,442,12.1538,51.1464
336,582,12.1056,-50.3716,0.00115126,0.00148754,0.0012074,0.00253845,0.000100346,0.854582,0.00165986,0.0122903,1560,442,12.1056,50.3716
343,582,12.0762,-49.563,0.0011321,0.00349115,0.00213597,0.00475163,-0.000128386,1.03767,0.00321141,0.0139546,1567,442,12.0761,49.563
350,582,12.0485,-48.7635,0.00117218,0.00541906,0.00313803,0.00708458,-0.000493346,1.08285,0.0048958,0.0174723,1574,442,12.0484,48.7635
357,582,12.014,-47.9313,0.00122674,0.00707234,0.00407773,0.00916658,-0.000867499,1.09635,0.00641979,0.0143849,1581,442,12.0141,47.9313
364,582,11.9554,-47.1036,0.001251,0.00850525,0.00493865,0.0110056,-0.00124938,1.10213,0.00778703,0.0113378,1588,442,11.9555,47.1036
371,582,11.9059,-46.2874,0.001267,0.0100172,0.00580834,0.0129138,-0.00162965,1.10818,0.00920066,0.0173109,1595,442,11.9059,46.2874
378,582,11.8435,-45.4484,0.00121393,0.0114843,0.00655145,0.0146733,-0.00197505,1.1178,0.0105026,0.0180937,1602,442,11.8435,45.4484
385,582,11.7645,-44.5992,0.00109161,0.0126799,0.00702331,0.0159907,-0.00221913,1.13029,0.0114719,0.0125762,1609,442,11.7645,44.5992
392,582,11.7083,-43.7367,0.00107036,0.0136217,0.00755512,0.0171676,-0.00247558,1.13197,0.0123532,0.0114964,1616,442,11.7083,43.7367
399,582,11.6304,-42.8787,0.00116727,0.0152283,0.00838287,0.0191386,-0.00274299,1.13434,0.0137648,0.0190527,1623,442,11.6303,42.8787
406,582,11.577,-41.8572,0.000900426,0.0164503,0.00888492,0.0204818,-0.00313105,1.14483,0.014809,0.0330407,1630,442,11.577,41.8572
413,582,11.551,-40.8067,0,0,0,0,0,0,0,-1,1637,442,11.551,40.8067
420,582,11.3885,-40.1381,0,0,0,0,0,0,0,-1,1644,442,11.3886,40.1381
427,582,11.1382,-39.1549,0,0,0,0,0,0,0,-1,1651,442,11.1382,39.1549
434,582,10.9628,-38.1871,0,0,0,0,0,0,0,-1,1658,442,10.9627,38.1871
441,582,10.8484,-36.2891,0,0,0,0,0,0,0,-1,1665,442,10.8484,36.2891
448,582,11.2651,-32.8669,0,0,0,0,0,0,0,-1,1672,442,11.2651,32.8668
455,582,6.4585,-19.4734,0,0,0,0,0,0,0,-1,1679,442,6.45854,19.4734
462,582,5.35022,-19.2616,0,0,0,0,0,0,0,-1,1686,442,5.35025,19.2616
469,582,6.28601,-21.5695,0,0,0,0,0,0,0,-1,1693,442,6.28597,21.5695
476,582,1.93579,-8.53891,0,0,0,0,0,0,0,-1,1700,442,1.93579,8.53892
483,582,0,0,0,0,0,0,0,0,0,-1,1707,442,0,0
490,582,0,0,0,0,0,0,0,0,0,-1,1714,442,0,0
497,582,0,0,0,0,0,0,0,0,0,-1,1721,442,0,0
504,582,0,0,0,0,0,0,0,0,0,-1,1728,442,0,0
511,582,0,0,0,0,0,0,0,0,0,-1,1735,442,0,0
518,582,0,0,0,0,0,0,0,0,0,-1,1742,442,0,0
525,582,0,0,0,0,0,0,0,0,0,-1,1749,442,0,0
532,582,0,0,0,0,0,0,0,0,0,-1,1756,442,0,0
539,582,0,0,0,0,0,0,0,0,0,-1,1763,442,0,0
546,582,0,0,0,0,0,0,0,0,0,-1,1770,442,0,0
553,582,0,0,0,0,0,0,0,0,0,-1,1777,442,0,0
560,582,0,0,0,0,0,0,0,0,0,-1,1784,442,0,0
567,582,0,0,0,0,0,0,0,0,0,-1,1791,442,0,0
574,582,0,0,0,0,0,0,0,0,0,-1,1798,442,0,0
581,582,0,0,0,0,0,0,0,0,0,-1,1805,442,0,0
588,582,0,0,0,0,0,0,0,0,0,-1,1812,442,0,0
595,582,0,0,0,0,0,0,0,0,0,-1,1819,442,0,0
602,582,0,0,0,0,0,0,0,0,0,-1,1826,442,0,0
609,582,0,0,0,0,0,0,0,0,0,-1,1833,442,0,0
616,582,0,0,0,0,0,0,0,0,0,-1,1840,442,0,0
623,582,0,0,0,0,0,0,0,0,0,-1,1847,442,0,0
630,582,0,0,0,0,0,0,0,0,0,-1,1854,442,0,0
637,582,0,0,0,0,0,0,0,0,0,-1,1861,442,0,0
644,582,0,0,0,0,0,0,0,0,0,-1,1868,442,0,0
651,582,0,0,0,0,0,0,0,0,0,-1,1875,442,0,0
658,582,0,0,0,0,0,0,0,0,0,-1,1882,442,0,0
665,582,0,0,0,0,0,0,0,0,0,-1,1889,442,0,0
672,582,0,0,0,0,0,0,0,0,0,-1,1896,442,0,0
679,582,0,0,0,0,0,0,0,0,0,-1,1903,442,0,0
686,582,0,0,0,0,0,0,0,0,0,-1,1910,442,0,0
693,582,0,0,0,0,0,0,0,0,0,-1,1917,442,0,0
700,582,0,0,0,0,0,0,0,0,0,-1,1924,442,0,0
707,582,0,0,0,0,0,0,0,0,0,-1,1931,442,0,0
714,582,0,0,0,0,0,0,0,0,0,-1,1938,442,0,0
721,582,0,0,0,0,0,0,0,0,0,-1,1945,442,0,0
728,582,0,0,0,0,0,0,0,0,0,-1,1952,442,0,0
735,582,0,0,0,0,0,0,0,0,0,-1,1959,442,0,0
742,582,0,0,0,0,0,0,0,0,0,-1,1966,442,0,0
749,582,0,0,0,0,0,0,0,0,0,-1,1973,442,0,0
756,582,0,0,0,0,0,0,0,0,0,-1,1980,442,0,0
763,582,0,0,0,0,0,0,0,0,0,-1,1987,442,0,0
770,582,0,0,0,0,0,0,0,0,0,-1,1994,442,0,0
777,582,0,0,0,0,0,0,0,0,0,-1,2001,442,0,0
784,582,0,0,0,0,0,0,0,0,0,-1,2008,442,0,0
791,582,0,0,0,0,0,0,0,0,0,-1,2015,442,0,0
798,582,0,0,0,0,0,0,0,0,0,-1,2022,442,0,0
805,582,0,0,0,0,0,0,0,0,0,-1,2029,442,0,0
812,582,0,0,0,0,0,0,0,0,0,-1,2036,442,0,0
-700,575,0,0,0,0,0,0,0,0,0,-1,524,449,0,0
-693,575,0,0,0,0,0,0,0,0,0,-1,531,449,0,0
-686,575,0,0,0,0,0,0,0,0,0,-1,538,449,0,0
-679,575,0,0,0,0,0,0,0,0,0,-1,545,449,0,0
-672,575,0,0,0,0,0,0,0,0,0,-1,552,449,0,0
-665,575,0,0,0,0,0,0,0,0,0,-1,559,449,0,0
-658,575,0,0,0,0,0,0,0,0,0,-1,566,449,0,0
-651,575,0,0,0,0,0,0,0,0,0,-1,573,449,0,0
-644,575,0,0,0,0,0,0,0,0,0,-1,580,449,0,0
-637,575,0,0,0,0,0,0,0,0,0,-1,587,449,0,0
-630,575,0,0,0,0,0,0,0,0,0,-1,594,449,0,0
-623,575,0,0,0,0,0,0,0,0,0,-1,601,449,0,0
-616,575,0,0,0,0,0,0,0,0,0,-1,608,449,0,0
-609,575,0,0,0,0,0,0,0,0,0,-1,615,449,0,0
-602,575,0,0,0,0,0,0,0,0,0,-1,622,449,0,0
-595,575,0,0,0,0,0,0,0,0,0,-1,629,449,0,0
-588,575,0,0,0,0,0,0,0,0,0,-1,636,449,0,0
-581,575,0,0,0,0,0,0,0,0,0,-1,643,449,0,0
-574,575,0,0,0,0,0,0,0,0,0,-1,650,449,0,0
-567,575,0,0,0,0,0,0,0,0,0,-1,657,449,0,0
-560,575,0,0,0,0,0,0,0,0,0,-1,664,449,0,0
-553,575,0,0,0,0,0,0,0,0,0,-1,671,449,0,0
-546,575,0,0,0,0,0,0,0,0,0,-1,678,449,0,0
-539,575,0,0,0,0,0,0,0,0,0,-1,685,449,0,0
-532,575,0,0,0,0,0,0,0,0,0,-1,692,449,0,0
-525,575,0,0,0,0,0,0,0,0,0,-1,699,449,0,0
-518,575,0,0,0,0,0,0,0,0,0,-1,706,449,0,0
-511,575,0,0,0,0,0,0,0,0,0,-1,713,449,0,0
-504,575,0,0,0,0,0,0,0,0,0,-1,720,449,0,0
-497,575,0,0,0,0,0,0,0,0,0,-1,727,449,0,0
-490,575,0,0,0,0,0,0,0,0,0,-1,734,449,0,0
-483,575,0,0,0,0,0,0,0,0,0,-1,741,449,0,0
-476,575,0,0,0,0,0,0,0,0,0,-1,748,449,0,0
-469,575,0,0,0,0,0,0,0,0,0,-1,755,449,0,0
-462,575,0,0,0,0,0,0,0,0,0,-1,762,449,0,0
-455,575,0,0,0,0,0,0,0,0,0,-1,769,449,0,0
-448,575,0,0,0,0,0,0,0,0,0,-1,776,449,0,0
-441,575,0,0,0,0,0,0,0,0,0,-1,783,449,0,0
-434,575,0,0,0,0,0,0,0,0,0,-1,790,449,0,0
-427,575,0,0,0,0,0,0,0,0,0,-1,797,449,0,0
-420,575,0,0,0,0,0,0,0,0,0,-1,804,449,0,0
-413,575,0,0,0,0,0,0,0,0,0,-1,811,449,0,0
-406,575,0,0,0,0,0,0,0,0,0,-1,818,449,0,0
-399,575,0,0,0,0,0,0,0,0,0,-1,825,449,0,0
-392,575,0,0,0,0,0,0,0,0,0,-1,832,449,0,0
-385,575,0,0,0,0,0,0,0,0,0,-1,839,449,0,0
-378,575,0,0,0,0,0,0,0,0,0,-1,846,449,0,0
-371,575,0.56897,-3.52304,0,0,0,0,0,0,0,-1,853,449,0.568955,3.52306
-364,575,1.49805,-4.67191,0,0,0,0,0,0,0,-1,860,449,1.49803,4.6719
-357,575,3.15521,-8.29892,0,0,0,0,0,0,0,-1,867,449,3.15521,8.29891
-350,575,-0.825928,-18.5347,0,0,0,0,0,0,0,-1,874,449,-0.825948,18.5347
-343,575,0.465393,-16.3569,0,0,0,0,0,0,0,-1,881,449,0.465397,16.3569
-336,575,3.1994,-17.5725,0,0,0,0,0,0,0,-1,888,449,3.19941,17.5725
-329,575,2.81946,-29.1576,0,0,0,0,0,0,0,-1,895,449,2.81945,29.1576
-322,575,4.28943,-27.9487,0,0,0,0,0,0,0,-1,902,449,4.28944,27.9487
-315,575,6.13507,-35.9424,0,0,0,0,0,0,0,-1,909,449,6.13508,35.9424
-308,575,3.79156,-38.7084,0,0,0,0,0,0,0,-1,916,449,3.79158,38.7084
-301,575,3.87823,-39.5431,-0.00299156,0.0161168,-0.00921774,0.0198385,-0.00671326,-1.18706,0.0159418,0.0443188,923,449,3.87824,39.5431
-294,575,3.78143,-40.2792,-0.00229632,0.0146675,-0.00846713,0.0181704,-0.00579919,-1.17853,0.0144402,0.0265358,930,449,3.78145,40.2792
-287,575,3.70636,-41.2826,-0.00183156,0.0134252,-0.00779435,0.0167029,-0.00510933,-1.17272,0.0131729,0.0171086,937,449,3.70636,41.2826
-280,575,3.65802,-42.2483,-0.00118001,0.0127823,-0.00737419,0.0159557,-0.00435343,-1.16441,0.0123468,0.013659,944,449,3.65803,42.2483
-273,575,3.59821,-43.1373,-0.000729945,0.0116792,-0.00681181,0.0146886,-0.00373935,-1.15479,0.011248,0.0129465,951,449,3.59818,43.1373
-266,575,3.5368,-44.006,-0.000409714,0.0102819,-0.00610026,0.0130473,-0.00317506,-1.14519,0.00992726,0.0144571,958,449,3.53681,44.006
-259,575,3.45416,-44.8737,-0.000105701,0.0086248,-0.00530305,0.0111282,-0.00260906,-1.12975,0.00842422,0.0135817,965,449,3.45414,44.8738
-252,575,3.36383,-45.7266,0.000159897,0.00672152,-0.00440345,0.00893198,-0.00205057,-1.10556,0.00674292,0.0119347,972,449,3.36384,45.7266
-245,575,3.29962,-46.5582,0.000443387,0.00495644,-0.00352838,0.00688815,-0.00148833,-1.06989,0.00516026,0.0158187,979,449,3.29962,46.5582
-238,575,3.28308,-47.3583,0.000701368,0.00289195,-0.00253411,0.00455734,-0.000964028,-0.989382,0.00340536,0.0159,986,449,3.28306,47.3583
-231,575,3.23438,-48.1734,0.000920192,0.000735036,-0.00144954,0.0022801,-0.000624876,-0.753508,0.00176561,0.0135615,993,449,3.23436,48.1734
-224,575,3.16473,-48.9924,0.00114912,-0.00134349,-0.00045596,0.00122991,-0.00142428,-0.175362,0.00153376,0.0133831,1000,449,3.16473,48.9924
-217,575,3.13702,-49.7906,0.00138423,-0.00342094,0.000484361,0.00143257,-0.00346927,0.0994667,0.00291037,0.0113514,1007,449,3.137,49.7906
-210,575,3.15594,-50.5746,0.00164869,-0.0054249,0.0013263,0.00188919,-0.0056654,0.179385,0.00453965,0.00947756,1014,449,3.15597,50.5746
-203,575,3.14331,-51.3581,0.00202091,-0.00707069,0.00202404,0.00245116,-0.00750094,0.209451,0.00598733,0.0124073,1021,449,3.14334,51.3581
-196,575,3.09961,-52.1469,0.00228784,-0.00832519,0.00256081,0.00287342,-0.00891078,0.224806,0.007095,0.0179368,1028,449,3.09958,52.1469
-189,575,3.06189,-52.8984,0.00265581,-0.009421,0.00298376,0.00335277,-0.010118,0.22947,0.00809767,0.0195173,1035,449,3.06189,52.8984
-182,575,3.026,-53.6147,0.00305988,-0.0102219,0.00326283,0.00381815,-0.0109802,0.228341,0.00887108,0.016467,1042,449,3.02604,53.6147
-175,575,3.02466,-54.3381,0.00352632,-0.0105335,0.00339037,0.00430117,-0.0113083,0.224685,0.00930989,0.012529,1049,449,3.02465,54.3381
-168,575,3.00366,-55.0661,0.00395125,-0.0105078,0.00335895,0.00469346,-0.0112501,0.21747,0.00946089,0.0109691,1056,449,3.00369,55.0661
-161,575,2.99011,-55.7717,0.0043344,-0.0102287,0.00323867,0.00502217,-0.0109164,0.209252,0.00940957,0.0156427,1063,449,2.99006,55.7717
-154,575,3.00903,-56.4633,0.00478038,-0.00966662,0.00311401,0.00542301,-0.0103093,0.203511,0.0092279,0.0174349,1070,449,3.00901,56.4633
-147,575,3.04968,-57.0894,0.00532944,-0.00868437,0.00291315,0.00591089,-0.00926582,0.197007,0.00883336,0.0158156,1077,449,3.04968,57.0894
-140,575,2.79517,-57.7338,0,0,0,0,0,0,0,-1,1084,449,2.79517,57.7338
-133,575,3.09753,-58.1821,0,0,0,0,0,0,0,-1,1091,449,3.0975,58.1821
-126,575,3.30249,-58.6678,0,0,0,0,0,0,0,-1,1098,449,3.3025,58.6678
-119,575,3.00208,-52.3971,0,0,0,0,0,0,0,-1,1105,449,3.00204,52.3971
-112,575,2.70337,-43.3701,0,0,0,0,0,0,0,-1,1112,449,2.70333,43.3701
-105,575,2.18347,-36.5414,0,0,0,0,0,0,0,-1,1119,449,2.18351,36.5414
-98,575,1.521,-25.6961,0,0,0,0,0,0,0,-1,1126,449,1.52105,25.6961
-91,575,1.60803,-16.4247,0,0,0,0,0,0,0,-1,1133,449,1.60802,16.4247
-84,575,1.16553,-11.9056,0,0,0,0,0,0,0,-1,1140,449,1.16558,11.9056
-77,575,0.205078,-11.2584,0,0,0,0,0,0,0,-1,1147,449,0.205117,11.2584
-70,575,-4.2467,-1.78738,0,0,0,0,0,0,0,-1,1154,449,-4.24674,1.78739
-63,575,-4.52209,-3.48798,0,0,0,0,0,0,0,-1,1161,449,-4.5221,3.48796
-56,575,-5.5968,-5.4928,0,0,0,0,0,0,0,-1,1168,449,-5.59683,5.49281
-49,575,-5.96863,-7.17612,0,0,0,0,0,0,0,-1,1175,449,-5.96868,7.1761
-42,575,-0.830322,0.773499,0,0,0,0,0,0,0,-1,1182,449,-0.83038,-0.77351
-35,575,-0.62085,0.205139,0,0,0,0,0,0,0,-1,1189,449,-0.620855,-0.205126
-28,575,0.49292,-3.87988,0,0,0,0,0,0,0,-1,1196,449,0.492941,3.87989
-21,575,7.19922,-59.2677,0,0,0,0,0,0,0,-1,1203,449,7.19919,59.2677
-14,575,10.8058,-59.8022,0,0,0,0,0,0,0,-1,1210,449,10.8058,59.8021
-7,575,10.4497,-60.9514,0,0,0,0,0,0,0,-1,1217,449,10.4497,60.9514
0,575,10.219,-62.0583,0,0,0,0,0,0,0,-1,1224,449,10.219,62.0583
7,575,9.72437,-63.1069,-0.0144956,0.00982684,0.0366524,0.0362829,-0.0409516,0.945582,0.0446185,0.0474438,1231,449,9.72437,63.1069
14,575,9.00098,-64.1174,-0.0243145,0.00308481,0.0352353,0.02719,-0.0484197,0.970807,0.0442232,0.0471527,1238,449,9.00102,64.1174
21,575,7.61426,-64.9789,-0.0335264,-0.00490703,0.0343775,0.0180201,-0.0564535,0.982617,0.0448653,0.0428246,1245,449,7.61422,64.9789
28,575,6.82056,-65.5106,-0.0440556,-0.0126366,0.0349571,0.00997861,-0.0666708,0.996573,0.0481195,0.0444145,1252,449,6.82055,65.5106
35,575,7.15857,-65.4766,0,0,0,0,0,0,0,-1,1259,449,7.15858,65.4766
42,575,6.60962,-65.7853,-0.0659667,-0.0169263,0.0308095,-0.00207058,-0.0808224,1.12151,0.0532048,0.0468281,1266,449,6.60957,65.7853
49,575,6.09241,-66.1533,-0.0774247,-0.011485,0.0242475,-0.00352863,-0.085381,1.25374,0.0557817,0.0477286,1273,449,6.09244,66.1533
56,575,5.36487,-66.0449,0,0,0,0,0,0,0,-1,1280,449,5.36492,66.0449
63,575,3.00269,-67.4868,0,0,0,0,0,0,0,-1,1287,449,3.00264,67.4868
70,575,1.86267,-67.4062,-0.081661,0.0261289,-0.000924497,0.0261369,-0.0816689,-1.56222,0.0649359,0.0441769,1294,449,1.86265,67.4062
77,575,0.735352,-67.2979,-0.0770702,0.0399866,-0.0106248,0.0409432,-0.0780267,-1.48101,0.0697907,0.0455313,1301,449,0.735337,67.2978
84,575,-0.432983,-67.0839,-0.0663023,0.0547147,-0.0210407,0.0582686,-0.0698562,-1.40347,0.0740737,0.0456836,1308,449,-0.432923,67.0838
91,575,-1.76843,-67.0587,0,0,0,0,0,0,0,-1,1315,449,-1.76847,67.0586
98,575,-0.312744,-70.2052,0,0,0,0,0,0,0,-1,1322,449,-0.312733,70.2052
105,575,-1.86511,-71.5994,0,0,0,0,0,0,0,-1,1329,449,-1.86513,71.5994
112,575,-2.69983,-73.1996,-0.0108329,0.0779452,-0.0604565,0.108559,-0.0414464,-1.10206,0.0894481,0.0443301,1336,449,-2.69987,73.1996
119,575,-3.40649,-74.8948,0.00289551,0.0694362,-0.0670925,0.111055,-0.0387229,-1.01557,0.0897724,0.0431699,1343,449,-3.40646,74.8948
126,575,-4.19019,-76.8642,0.0126271,0.059179,-0.0732323,0.112745,-0.0409392,-0.939268,0.0919015,0.0449721,1350,449,-4.19013,76.8642
133,575,-5.05127,-78.8333,0,0,0,0,0,0,0,-1,1357,449,-5.05124,78.8333
140,575,-7.36304,-80.5805,0.0214132,0.0337693,-0.0804431,0.108271,-0.0530888,-0.823723,0.0949598,0.043992,1364,449,-7.36309,80.5805
147,575,-8.83972,-82.2612,0.0199949,0.0196256,-0.080694,0.100504,-0.0608839,-0.784254,0.094109,0.0480125,1371,449,-8.83978,82.2611
154,575,-10.343,-84.0163,0,0,0,0,0,0,0,-1,1378,449,-10.3431,84.0163
161,575,1.82922,-78.3181,0,0,0,0,0,0,0,-1,1385,449,1.82924,78.3181
168,575,-4.97888,-77.9566,0,0,0,0,0,0,0,-1,1392,449,-4.97891,77.9566
175,575,4.32617,1.93634,0,0,0,0,0,0,0,-1,1399,449,4.32612,-1.93634
182,575,6.3147,-2.88345,0,0,0,0,0,0,0,-1,1406,449,6.31466,2.88346
189,575,6.10449,-1.30817,0,0,0,0,0,0,0,-1,1413,449,6.10455,1.30817
196,575,5.79895,0.818359,0,0,0,0,0,0,0,-1,1420,449,5.79895,-0.81837
203,575,3.29724,-1.46378,0,0,0,0,0,0,0,-1,1427,449,3.29722,1.46377
210,575,2.32739,-7.74503,0,0,0,0,0,0,0,-1,1434,449,2.32741,7.74502
217,575,3.33618,-11.5521,0,0,0,0,0,0,0,-1,1441,449,3.3362,11.5521
224,575,5.51709,-16.3903,0,0,0,0,0,0,0,-1,1448,449,5.51713,16.3903
231,575,5.48572,-20.4595,0,0,0,0,0,0,0,-1,1455,449,5.48571,20.4595
238,575,5.33484,-22.3575,0,0,0,0,0,0,0,-1,1462,449,5.33478,22.3575
245,575,5.59741,-23.513,0,0,0,0,0,0,0,-1,1469,449,5.5974,23.513
252,575,10.5602,-44.9309,0,0,0,0,0,0,0,-1,1476,449,10.5602,44.9309
259,575,12.6493,-57.551,0,0,0,0,0,0,0,-1,1483,449,12.6493,57.551
266,575,12.9106,-57.7887,0,0,0,0,0,0,0,-1,1490,449,12.9107,57.7887
273,575,12.9998,-56.9822,0.00440557,-0.0182503,-0.00590387,0.00585174,-0.0196965,-0.240223,0.0154553,0.0212931,1497,449,12.9998,56.9822
280,575,13.0142,-56.2887,0.00366306,-0.0176523,-0.00582727,0.00515212,-0.0191414,-0.250179,0.0147807,0.01558,1504,449,13.0142,56.2887
287,575,12.9943,-55.6174,0.00309627,-0.0166908,-0.00567242,0.00460705,-0.0182016,-0.260295,0.0139265,0.0145414,1511,449,12.9943,55.6174
294,575,13.0253,-54.8841,0.00263181,-0.0150001,-0.00531265,0.00410882,-0.0164771,-0.271171,0.0125801,0.0116045,1518,449,13.0253,54.8841
301,575,13.0342,-54.1698,0.00222767,-0.0130293,-0.00480621,0.00361548,-0.0144171,-0.281106,0.0110161,0.00986442,1525,449,13.0342,54.1698
308,575,13.0137,-53.4281,0.00184745,-0.0109686,-0.00420315,0.00310292,-0.0122241,-0.290263,0.00935678,0.0104121,1532,449,13.0137,53.4281
315,575,12.9814,-52.6633,0.00157115,-0.00876098,-0.0034732,0.00263014,-0.00981997,-0.29595,0.00757708,0.0107911,1539,449,12.9814,52.6633
322,575,12.964,-51.8902,0.00134557,-0.00656687,-0.00265559,0.00215421,-0.00737551,-0.295582,0.00577069,0.0102003,1546,449,12.964,51.8902
329,575,12.9257,-51.1212,0.00117668,-0.00446423,-0.00178634,0.00169479,-0.00498233,-0.28229,0.00400777,0.0113836,1553,449,12.9257,51.1212
336,575,12.8881,-50.3355,0.00107581,-0.00236765,-0.000912921,0.00130287,-0.00259471,-0.243771,0.0022911,0.0135427,1560,449,12.888,50.3355
343,575,12.8873,-49.4954,0.000999237,-0.000104824,5.63428e-05,0.00100211,-0.000107692,0.0508562,0.000706708,0.0146949,1567,449,12.8873,49.4954
350,575,12.8536,-48.6926,0.00101068,0.00193418,0.00110049,0.00266587,0.000278999,0.984036,0.00169193,0.013859,1574,449,12.8536,48.6926
357,575,12.8024,-47.8774,0.0010667,0.00361058,0.00205397,0.00475455,-7.72688e-05,1.06263,0.00319576,0.0123404,1581,449,12.8024,47.8774
364,575,12.7485,-47.0654,0.00110061,0.00505375,0.00293835,0.00661847,-0.000464108,1.08148,0.00457487,0.0123809,1588,449,12.7486,47.0654
371,575,12.7347,-46.2463,0.00109735,0.00642367,0.00377376,0.00837936,-0.000858328,1.09267,0.00589322,0.0227795,1595,449,12.7347,46.2463
378,575,12.6744,-45.4018,0.00104852,0.00780351,0.00450198,0.0100541,-0.00120206,1.10722,0.00713724,0.0203453,1602,449,12.6745,45.4018
385,575,12.59,-44.5567,0.000939554,0.00888545,0.00497255,0.0112773,-0.00145229,1.12246,0.0080461,0.0127072,1609,449,12.59,44.5567
392,575,12.5487,-43.718,0.000907215,0.00971646,0.00548516,0.0123466,-0.00172291,1.12368,0.00886137,0.0109058,1616,449,12.5487,43.718
399,575,12.4618,-42.8903,0.000949071,0.0110593,0.00622573,0.0140238,-0.00201541,1.1264,0.0100883,0.0117159,1623,449,12.4618,42.8903
406,575,12.4114,-41.9721,0.000675932,0.0120886,0.0066839,0.0151707,-0.00240618,1.13873,0.0110039,0.0129298,1630,449,12.4114,41.9721
413,575,12.3606,-41.0805,2.0986e-05,0.0126566,0.00678918,0.0156129,-0.00293523,1.16012,0.0115124,0.0142554,1637,449,12.3606,41.0805
420,575,12.2675,-40.1601,-0.000836847,0.0129878,0.00677602,0.0157551,-0.00360412,1.18308,0.0118883,0.0147306,1644,449,12.2675,40.1601
427,575,12.1439,-39.2032,-0.00168851,0.0132835,0.00674549,0.0158743,-0.00427931,1.20409,0.0122608,0.0197565,1651,449,12.1439,39.2033
434,575,12.0166,-38.3873,-0.0026138,0.0139869,0.00670581,0.0163573,-0.00498414,1.23103,0.0128915,0.0347498,1658,449,12.0166,38.3873
441,575,11.9711,-37.7005,0,0,0,0,0,0,0,-1,1665,449,11.9711,37.7005
448,575,12.225,-35.8002,0,0,0,0,0,0,0,-1,1672,449,12.225,35.8002
455,575,11.7931,-31.6917,0,0,0,0,0,0,0,-1,1679,449,11.793,31.6917
462,575,7.12781,-21.7179,0,0,0,0,0,0,0,-1,1686,449,7.12778,21.7178
469,575,11.337,-33.8613,0,0,0,0,0,0,0,-1,1693,449,11.3371,33.8613
476,575,10.3063,-31.0265,0,0,0,0,0,0,0,-1,1700,449,10.3063,31.0265
483,575,8.44177,-29.4231,0,0,0,0,0,0,0,-1,1707,449,8.44173,29.4231
490,575,7.42871,-25.5027,0,0,0,0,0,0,0,-1,1714,449,7.42869,25.5027
497,575,0,0,0,0,0,0,0,0,0,-1,1721,449,0,0
504,575,0,0,0,0,0,0,0,0,0,-1,1728,449,0,0
511,575,0,0,0,0,0,0,0,0,0,-1,1735,449,0,0
518,575,0,0,0,0,0,0,0,0,0,-1,1742,449,0,0
525,575,0,0,0,0,0,0,0,0,0,-1,1749,449,0,0
532,575,0,0,0,0,0,0,0,0,0,-1,1756,449,0,0
539,575,0,0,0,0,0,0,0,0,0,-1,1763,449,0,0
546,575,0,0,0,0,0,0,0,0,0,-1,1770,449,0,0
553,575,0,0,0,0,0,0,0,0,0,-1,1777,449,0,0
560,575,0,0,0,0,0,0,0,0,0,-1,1784,449,0,0
567,575,0,0,0,0,0,0,0,0,0,-1,1791,449,0,0
574,575,0,0,0,0,0,0,0,0,0,-1,1798,449,0,0
581,575,0,0,0,0,0,0,0,0,0,-1,1805,449,0,0
588,575,0,0,0,0,0,0,0,0,0,-1,1812,449,0,0
595,575,0,0,0,0,0,0,0,0,0,-1,1819,449,0,0
602,575,0,0,0,0,0,0,0,0,0,-1,1826,449,0,0
609,575,0,0,0,0,0,0,0,0,0,-1,1833,449,0,0
616,575,0,0,0,0,0,0,0,0,0,-1,1840,449,0,0
623,575,0,0,0,0,0,0,0,0,0,-1,1847,449,0,0
630,575,0,0,0,0,0,0,0,0,0,-1,1854,449,0,0
637,575,0,0,0,0,0,0,0,0,0,-1,1861,449,0,0
644,575,0,0,0,0,0,0,0,0,0,-1,1868,449,0,0
651,575,0,0,0,0,0,0,0,0,0,-1,1875,449,0,0
658,575,0,0,0,0,0,0,0,0,0,-1,1882,449,0,0
665,575,0,0,0,0,0,0,0,0,0,-1,1889,449,0,0
672,575,0,0,0,0,0,0,0,0,0,-1,1896,449,0,0
679,575,0,0,0,0,0,0,0,0,0,-1,1903,449,0,0
686,575,0,0,0,0,0,0,0,0,0,-1,1910,449,0,0
693,575,0,0,0,0,0,0,0,0,0,-1,1917,449,0,0
700,575,0,0,0,0,0,0,0,0,0,-1,1924,449,0,0
707,575,0,0,0,0,0,0,0,0,0,-1,1931,449,0,0
714,575,0,0,0,0,0,0,0,0,0,-1,1938,449,0,0
721,575,0,0,0,0,0,0,0,0,0,-1,1945,449,0,0
728,575,0,0,0,0,0,0,0,0,0,-1,1952,449,0,0
735,575,0,0,0,0,0,0,0,0,0,-1,1959,449,0,0
742,575,0,0,0,0,0,0,0,0,0,-1,1966,449,0,0
749,575,0,0,0,0,0,0,0,0,0,-1,1973,449,0,0
756,575,0,0,0,0,0,0,0,0,0,-1,1980,449,0,0
763,575,0,0,0,0,0,0,0,0,0,-1,1987,449,0,0
770,575,0,0,0,0,0,0,0,0,0,-1,1994,449,0,0
777,575,0,0,0,0,0,0,0,0,0,-1,2001,449,0,0
784,575,0,0,0,0,0,0,0,0,0,-1,2008,449,0,0
791,575,0,0,0,0,0,0,0,0,0,-1,2015,449,0,0
798,575,0,0,0,0,0,0,0,0,0,-1,2022,449,0,0
805,575,0,0,0,0,0,0,0,0,0,-1,2029,449,0,0
812,575,0,0,0,0,0,0,0,0,0,-1,2036,449,0,0
-700,568,0,0,0,0,0,0,0,0,0,-1,524,456,0,0
-693,568,0,0,0,0,0,0,0,0,0,-1,531,456,0,0
-686,568,0,0,0,0,0,0,0,0,0,-1,538,456,0,0
-679,568,0,0,0,0,0,0,0,0,0,-1,545,456,0,0
-672,568,0,0,0,0,0,0,0,0,0,-1,552,456,0,0
-665,568,0,0,0,0,0,0,0,0,0,-1,559,456,0,0
-658,568,0,0,0,0,0,0,0,0,0,-1,566,456,0,0
-651,568,0,0,0,0,0,0,0,0,0,-1,573,456,0,0
-644,568,0,0,0,0,0,0,0,0,0,-1,580,456,0,0
-637,568,0,0,0,0,0,0,0,0,0,-1,587,456,0,0
-630,568,0,0,0,0,0,0,0,0,0,-1,594,456,0,0
-623,568,0,0,0,0,0,0,0,0,0,-1,601,456,0,0
-616,568,0,0,0,0,0,0,0,0,0,-1,608,456,0,0
-609,568,0,0,0,0,0,0,0,0,0,-1,615,456,0,0
-602,568,0,0,0,0,0,0,0,0,0,-1,622,456,0,0
-595,568,0,0,0,0,0,0,0,0,0,-1,629,456,0,0
-588,568,0,0,0,0,0,0,0,0,0,-1,636,456,0,0
-581,568,0,0,0,0,0,0,0,0,0,-1,643,456,0,0
-574,568,0,0,0,0,0,0,0,0,0,-1,650,456,0,0
-567,568,0,0,0,0,0,0,0,0,0,-1,657,456,0,0
-560,568,0,0,0,0,0,0,0,0,0,-1,664,456,0,0
-553,568,0,0,0,0,0,0,0,0,0,-1,671,456,0,0
-546,568,0,0,0,0,0,0,0,0,0,-1,678,456,0,0
-539,568,0,0,0,0,0,0,0,0,0,-1,685,456,0,0
-532,568,0,0,0,0,0,0,0,0,0,-1,692,456,0,0
-525,568,0,0,0,0,0,0,0,0,0,-1,699,456,0,0
-518,568,0,0,0,0,0,0,0,0,0,-1,706,456,0,0
-511,568,0,0,0,0,0,0,0,0,0,-1,713,456,0,0
-504,568,0,0,0,0,0,0,0,0,0,-1,720,456,0,0
-497,568,0,0,0,0,0,0,0,0,0,-1,727,456,0,0
-490,568,0,0,0,0,0,0,0,0,0,-1,734,456,0,0
-483,568,0,0,0,0,0,0,0,0,0,-1,741,456,0,0
-476,568,0,0,0,0,0,0,0,0,0,-1,748,456,0,0
-469,568,0,0,0,0,0,0,0,0,0,-1,755,456,0,0
-462,568,0,0,0,0,0,0,0,0,0,-1,762,456,0,0
-455,568,0,0,0,0,0,0,0,0,0,-1,769,456,0,0
-448,568,0,0,0,0,0,0,0,0,0,-1,776,456,0,0
-441,568,0,0,0,0,0,0,0,0,0,-1,783,456,0,0
-434,568,0,0,0,0,0,0,0,0,0,-1,790,456,0,0
-427,568,0,0,0,0,0,0,0,0,0,-1,797,456,0,0
-420,568,0,0,0,0,0,0,0,0,0,-1,804,456,0,0
-413,568,0,0,0,0,0,0,0,0,0,-1,811,456,0,0
-406,568,0,0,0,0,0,0,0,0,0,-1,818,456,0,0
-399,568,0,0,0,0,0,0,0,0,0,-1,825,456,0,0
-392,568,0,0,0,0,0,0,0,0,0,-1,832,456,0,0
-385,568,0,0,0,0,0,0,0,0,0,-1,839,456,0,0
-378,568,0.321777,-7.29929,0,0,0,0,0,0,0,-1,846,456,0.321806,7.29927
-371,568,1.09595,-7.46707,0,0,0,0,0,0,0,-1,853,456,1.09597,7.46707
-364,568,2.70746,-23.4782,0,0,0,0,0,0,0,-1,860,456,2.70746,23.4782
-357,568,2.14166,-7.67645,0,0,0,0,0,0,0,-1,867,456,2.14167,7.67646
-350,568,2.7467,-11.2507,0,0,0,0,0,0,0,-1,874,456,2.7467,11.2507
-343,568,2.16516,-11.3762,0,0,0,0,0,0,0,-1,881,456,2.16514,11.3762
-336,568,1.14984,-29.3232,0,0,0,0,0,0,0,-1,888,456,1.14984,29.3231
-329,568,2.80359,-32.459,0,0,0,0,0,0,0,-1,895,456,2.80357,32.4591
-322,568,4.67688,-35.653,0,0,0,0,0,0,0,-1,902,456,4.67686,35.653
-315,568,4.29413,-36.7416,0,0,0,0,0,0,0,-1,909,456,4.29415,36.7416
-308,568,3.03796,-38.6313,0,0,0,0,0,0,0,-1,916,456,3.03795,38.6313
-301,568,3.05957,-39.5454,-0.0026003,0.0122939,-0.00722749,0.0152245,-0.00553086,-1.18558,0.0124111,0.025231,923,456,3.05955,39.5454
-294,568,2.95496,-40.4176,-0.00196542,0.0110075,-0.00651911,0.0137174,-0.00467532,-1.17684,0.0110385,0.0147048,930,456,2.95498,40.4176
-287,568,2.88464,-41.3437,-0.00149724,0.00995832,-0.00589507,0.01245,-0.00398891,-1.1709,0.00990119,0.0120439,937,456,2.88464,41.3437
-280,568,2.83911,-42.2784,-0.000900023,0.00926772,-0.00547595,0.0116559,-0.00328822,-1.15954,0.00906764,0.0118401,944,456,2.83909,42.2784
-273,568,2.77472,-43.1524,-0.000471021,0.0081415,-0.00492235,0.0103754,-0.0027049,-1.14477,0.00797299,0.0133552,951,456,2.7747,43.1524
-266,568,2.69617,-43.9937,-0.000133175,0.00668162,-0.00421569,0.00869477,-0.00214633,-1.12528,0.00662881,0.0130145,958,456,2.69616,43.9937
-259,568,2.62695,-44.8405,0.000176216,0.00490022,-0.00341032,0.00668664,-0.0016102,-1.08827,0.00508027,0.0139108,965,456,2.62695,44.8405
-252,568,2.547,-45.6716,0.000429182,0.00280143,-0.00247382,0.00435879,-0.00112818,-1.00894,0.00334593,0.0139888,972,456,2.547,45.6716
-245,568,2.49396,-46.4809,0.000714493,0.000823801,-0.00156683,0.00233693,-0.000798633,-0.802832,0.00188153,0.0161765,979,456,2.49393,46.4809
-238,568,2.48053,-47.3102,0.000995899,-0.00144398,-0.000536591,0.00110869,-0.00155678,-0.207191,0.00154614,0.0144945,986,456,2.48051,47.3102
-231,568,2.42798,-48.1266,0.00124662,-0.00383861,0.000582271,0.00131244,-0.00390443,0.112562,0.00313343,0.0128068,993,456,2.42798,48.1266
-224,568,2.35718,-48.9355,0.00146909,-0.00616406,0.00164993,0.00181046,-0.00650543,0.204022,0.0050498,0.0145244,1000,456,2.35719,48.9355
-217,568,2.35889,-49.7248,0.00171982,-0.00844973,0.00265992,0.00237352,-0.00910343,0.240984,0.00699566,0.0121698,1007,456,2.35886,49.7248
-210,568,2.36627,-50.5199,0.00201789,-0.0106324,0.00354645,0.00294428,-0.0115588,0.255507,0.00885205,0.0121668,1014,456,2.36627,50.5199
-203,568,2.33929,-51.3198,0.0024511,-0.012359,0.00423932,0.00357873,-0.0134866,0.259974,0.0103915,0.0114171,1021,456,2.33929,51.3197
-196,568,2.33984,-52.0793,0.00276327,-0.0135698,0.00472485,0.00403159,-0.0148381,0.262254,0.0114745,0.0165461,1028,456,2.3399,52.0794
-189,568,2.30798,-52.7993,0.00320744,-0.0145823,0.00508681,0.00455925,-0.0159341,0.259744,0.0124245,0.0165787,1035,456,2.30804,52.7993
-182,568,2.28271,-53.5549,0.00369427,-0.0152265,0.00524865,0.00505272,-0.0165849,0.253262,0.0130705,0.0158647,1042,456,2.28274,53.5549
-175,568,2.2749,-54.2738,0.00428054,-0.0151644,0.00518967,0.00557892,-0.0164627,0.245153,0.0132328,0.0155273,1049,456,2.27493,54.2738
-168,568,2.29944,-54.8846,0.00483036,-0.0147531,0.00491677,0.00599548,-0.0159182,0.232677,0.0130771,0.0215918,1056,456,2.29944,54.8846
-161,568,2.28931,-55.5668,0.00531744,-0.0140268,0.00450677,0.00631588,-0.0150252,0.218021,0.0126587,0.0328066,1063,456,2.2893,55.5668
-154,568,2.41248,-56.4879,0.00587364,-0.0129218,0.00405011,0.00670922,-0.0137574,0.203457,0.0120477,0.0378446,1070,456,2.41245,56.4879
-147,568,2.50403,-57.1641,0.00651484,-0.011229,0.00343467,0.00715649,-0.0118706,0.184685,0.0110971,0.0423138,1077,456,2.50403,57.1641
-140,568,1.979,-57.6858,0,0,0,0,0,0,0,-1,1084,456,1.97906,57.6858
-133,568,1.52307,-58.3279,0,0,0,0,0,0,0,-1,1091,456,1.52303,58.3279
-126,568,2.47339,-55.9059,0,0,0,0,0,0,0,-1,1098,456,2.47343,55.9059
-119,568,1.89978,-50.8443,0,0,0,0,0,0,0,-1,1105,456,1.89978,50.8443
-112,568,1.98242,-35.0942,0,0,0,0,0,0,0,-1,1112,456,1.98247,35.0942
-105,568,2.02454,-25.038,0,0,0,0,0,0,0,-1,1119,456,2.02459,25.038
-98,568,1.58618,-14.7874,0,0,0,0,0,0,0,-1,1126,456,1.58617,14.7874
-91,568,1.11621,-11.1853,0,0,0,0,0,0,0,-1,1133,456,1.11626,11.1853
-84,568,0.461792,-9.7959,0,0,0,0,0,0,0,-1,1140,456,0.461793,9.7959
-77,568,-1.13806,-8.57822,0,0,0,0,0,0,0,-1,1147,456,-1.13807,8.57821
-70,568,-4.09766,-1.42911,0,0,0,0,0,0,0,-1,1154,456,-4.09767,1.4291
-63,568,-5.92273,-3.70752,0,0,0,0,0,0,0,-1,1161,456,-5.92272,3.70751
-56,568,-5.24158,-6.01385,0,0,0,0,0,0,0,-1,1168,456,-5.24161,6.01386
-49,568,-5.24365,-8.33557,0,0,0,0,0,0,0,-1,1175,456,-5.24371,8.33557
-42,568,-0.664795,0.521973,0,0,0,0,0,0,0,-1,1182,456,-0.664829,-0.521984
-35,568,-0.153076,-1.67731,0,0,0,0,0,0,0,-1,1189,456,-0.153068,1.67731
-28,568,1.25439,-4.48798,0,0,0,0,0,0,0,-1,1196,456,1.2544,4.48797
-21,568,6.30847,-57.2932,0,0,0,0,0,0,0,-1,1203,456,6.3085,57.2931
-14,568,6.80603,-57.8585,0,0,0,0,0,0,0,-1,1210,456,6.80597,57.8585
-7,568,8.92053,-60.1776,0,0,0,0,0,0,0,-1,1217,456,8.92053,60.1775
0,568,8.953,-62.1344,0,0,0,0,0,0,0,-1,1224,456,8.95303,62.1344
7,568,8.65625,-63.6077,0.00208509,0.0159523,0.0471129,0.0566391,-0.0386017,0.858459,0.055315,0.0466853,1231,456,8.65623,63.6077
14,568,7.71155,-64.2949,-0.0130932,0.00735358,0.0442573,0.0425529,-0.0482926,0.898907,0.0524845,0.0440572,1238,456,7.71157,64.2949
21,568,5.68054,-65.4841,-0.0267911,-0.00354458,0.0417689,0.0281882,-0.0585238,0.921102,0.0510742,0.0389521,1245,456,5.68055,65.4841
28,568,6.96167,-65.2365,0,0,0,0,0,0,0,-1,1252,456,6.96168,65.2365
35,568,6.44897,-65.4482,-0.0559847,-0.0196665,0.0395267,0.00567286,-0.0813241,1.00073,0.0562025,0.0443866,1259,456,6.44899,65.4482
42,568,5.96753,-65.6732,-0.0700976,-0.0190111,0.0339064,-0.00210311,-0.0870055,1.10822,0.0573155,0.045876,1266,456,5.96755,65.6732
49,568,5.49561,-65.7948,-0.0845749,-0.0112983,0.024011,-0.00413143,-0.0917417,1.28073,0.0598316,0.0474617,1273,456,5.49557,65.7948
56,568,4.99561,-65.7885,-0.0980351,0.00496325,0.0106741,0.00605781,-0.0991297,1.46861,0.0681955,0.0460582,1280,456,4.9956,65.7885
63,568,4.60815,-65.69,0,0,0,0,0,0,0,-1,1287,456,4.6081,65.69
70,568,0.719604,-66.8701,0,0,0,0,0,0,0,-1,1294,456,0.719646,66.8701
77,568,-0.441895,-67.1827,0,0,0,0,0,0,0,-1,1301,456,-0.441843,67.1827
84,568,-1.83289,-66.8807,-0.0700047,0.065699,-0.032511,0.0730857,-0.0773914,-1.34738,0.0868898,0.0461476,1308,456,-1.83284,66.8807
91,568,-3.82251,-66.8472,-0.0555309,0.0797832,-0.043476,0.0925478,-0.0682954,-1.28522,0.0932141,0.0408936,1315,456,-3.82248,66.8472
98,568,-5.69727,-67.092,-0.0401376,0.0887524,-0.0548013,0.108903,-0.0602878,-1.21845,0.0990172,0.0433667,1322,456,-5.6973,67.092
105,568,-7.69922,-67.0732,0,0,0,0,0,0,0,-1,1329,456,-7.69921,67.0732
112,568,-3.15735,-73.4657,-0.00307948,0.0908256,-0.0734187,0.131022,-0.0432754,-1.06988,0.104795,0.0472001,1336,456,-3.15738,73.4657
119,568,-3.81006,-75.2231,0.0131502,0.0799047,-0.0795386,0.132785,-0.0397305,-0.984057,0.10432,0.042785,1343,456,-3.81007,75.2231
126,568,-4.50049,-77.034,0.0238548,0.0667884,-0.0852189,0.133203,-0.0425595,-0.908782,0.105879,0.0442593,1350,456,-4.50051,77.034
133,568,-5.22388,-78.7783,0,0,0,0,0,0,0,-1,1357,456,-5.22387,78.7783
140,568,-7.67883,-80.9045,0,0,0,0,0,0,0,-1,1364,456,-7.67886,80.9045
147,568,-4.97192,-80.6765,0.0270468,0.016708,-0.0919651,0.113988,-0.0702328,-0.757322,0.107355,0.0442715,1371,456,-4.97189,80.6765
154,568,-5.60693,-82.6252,0.0210517,0.00179547,-0.0912894,0.103219,-0.0803722,-0.732858,0.10627,0.0417858,1378,456,-5.60699,82.6252
161,568,-6.58704,-84.6441,0,0,0,0,0,0,0,-1,1385,456,-6.587,84.6441
168,568,-11.53,-55.4321,0,0,0,0,0,0,0,-1,1392,456,-11.53,55.4321
175,568,10.5151,0.747498,0,0,0,0,0,0,0,-1,1399,456,10.5152,-0.747501
182,568,6.35095,-3.63361,0,0,0,0,0,0,0,-1,1406,456,6.35093,3.63359
189,568,6.17493,-1.70911,0,0,0,0,0,0,0,-1,1413,456,6.17497,1.70911
196,568,6.04724,0.200836,0,0,0,0,0,0,0,-1,1420,456,6.04724,-0.200835
203,568,5.9281,2.08649,0,0,0,0,0,0,0,-1,1427,456,5.92812,-2.08648
210,568,1.46216,-2.50446,0,0,0,0,0,0,0,-1,1434,456,1.46219,2.50446
217,568,2.62366,-7.86703,0,0,0,0,0,0,0,-1,1441,456,2.62365,7.86704
224,568,3.43494,-12.1555,0,0,0,0,0,0,0,-1,1448,456,3.43492,12.1555
231,568,4.38245,-9.3205,0,0,0,0,0,0,0,-1,1455,456,4.38244,9.32048
238,568,5.88879,-20.7448,0,0,0,0,0,0,0,-1,1462,456,5.88876,20.7449
245,568,3.34387,-10.6774,0,0,0,0,0,0,0,-1,1469,456,3.34389,10.6774
252,568,3.56946,-9.28928,0,0,0,0,0,0,0,-1,1476,456,3.56948,9.28928
259,568,3.38843,-8.73068,0,0,0,0,0,0,0,-1,1483,456,3.38842,8.73068
266,568,13.6127,-56.6047,0,0,0,0,0,0,0,-1,1490,456,13.6127,56.6047
273,568,13.6957,-56.9415,0,0,0,0,0,0,0,-1,1497,456,13.6957,56.9414
280,568,13.7662,-56.1822,0.00373643,-0.0247331,-0.0081261,0.00589258,-0.0268893,-0.25936,0.0201792,0.035083,1504,456,13.7663,56.1822
287,568,13.7585,-55.3297,0.00314474,-0.0234593,-0.00802982,0.00538047,-0.0256951,-0.271551,0.0191768,0.0269604,1511,456,13.7585,55.3297
294,568,13.8334,-54.7014,0.00267298,-0.0211824,-0.00765032,0.00491558,-0.023425,-0.28515,0.017487,0.0234117,1518,456,13.8334,54.7014
301,568,13.8091,-54.0557,0.00228207,-0.0185959,-0.0070931,0.00446388,-0.0207777,-0.298411,0.0155548,0.0191971,1525,456,13.8091,54.0557
308,568,13.7706,-53.3396,0.00186067,-0.0160412,-0.00644946,0.00394218,-0.0181227,-0.312188,0.0135878,0.012847,1532,456,13.7706,53.3396
315,568,13.7484,-52.6245,0.00154833,-0.0133858,-0.00566447,0.00345374,-0.0152912,-0.32449,0.0115193,0.00818241,1539,456,13.7484,52.6245
322,568,13.7385,-51.8495,0.00132925,-0.0107529,-0.0047518,0.00297414,-0.0123978,-0.333253,0.00941451,0.0102581,1546,456,13.7385,51.8494
329,568,13.7174,-51.0483,0.00115418,-0.00825509,-0.00380119,0.0024979,-0.00959882,-0.33979,0.00737424,0.0113019,1553,456,13.7174,51.0483
336,568,13.6915,-50.2503,0.00102244,-0.00588818,-0.00289657,0.00207593,-0.00694168,-0.34883,0.00545311,0.0122611,1560,456,13.6916,50.2503
343,568,13.7014,-49.4377,0.00091776,-0.00332501,-0.00186714,0.00162241,-0.00402966,-0.36087,0.00336043,0.0135882,1567,456,13.7014,49.4377
350,568,13.6686,-48.6686,0.000927064,-0.00114996,-0.000765912,0.00117895,-0.00140184,-0.31773,0.00149187,0.0118688,1574,456,13.6686,48.6686
357,568,13.6205,-47.8685,0.00100723,0.000582156,0.000218885,0.00109979,0.000489599,0.400056,0.000636233,0.0102756,1581,456,13.6205,47.8685
364,568,13.599,-47.0348,0.00104418,0.00204039,0.00112085,0.00276883,0.000315737,0.994493,0.00175016,0.0132274,1588,456,13.599,47.0348
371,568,13.5255,-46.1702,0.00105224,0.00335415,0.00196029,0.00447639,-6.99991e-05,1.05085,0.00300786,0.0229458,1595,456,13.5255,46.1702
378,568,13.4539,-45.3214,0.00103711,0.00473318,0.00271922,0.00617291,-0.000402623,1.08386,0.00425584,0.0192685,1602,456,13.4538,45.3214
385,568,13.4175,-44.5082,0.000958366,0.0057794,0.00323585,0.00740389,-0.000666125,1.10553,0.00517229,0.010319,1609,456,13.4175,44.5082
392,568,13.3505,-43.6886,0.000925265,0.00656411,0.0037632,0.00844691,-0.00095753,1.1069,0.00597607,0.0121457,1616,456,13.3505,43.6886
399,568,13.2899,-42.8892,0.000932654,0.00770741,0.00445549,0.00991698,-0.00127691,1.11042,0.00707547,0.0201659,1623,456,13.2899,42.8892
406,568,13.2656,-41.9851,0.000672808,0.00861131,0.00491379,0.0109587,-0.00167461,1.12513,0.00792323,0.016811,1630,456,13.2656,41.9851
413,568,13.2264,-41.0322,0.000104863,0.00919874,0.00508812,0.0114756,-0.00217195,1.15004,0.00846772,0.0123147,1637,456,13.2264,41.0322
420,568,13.1532,-40.1538,-0.000644479,0.00957993,0.00515263,0.0117261,-0.00279067,1.17613,0.00889478,0.0119766,1644,456,13.1532,40.1538
427,568,13.0732,-39.2477,-0.00143086,0.00983297,0.00515982,0.0118393,-0.00343715,1.19996,0.00925384,0.0157083,1651,456,13.0733,39.2477
434,568,13.0261,-38.3257,-0.00224726,0.0103461,0.00518601,0.0122068,-0.00410795,1.22631,0.00979858,0.0241381,1658,456,13.0262,38.3257
441,568,13.0149,-37.4608,-0.00343325,0.0104237,0.00498094,0.0120283,-0.00503786,1.25914,0.0101249,0.0314553,1665,456,13.0149,37.4608
448,568,13.0331,-36.0811,-0.00489285,0.010226,0.00460225,0.0115167,-0.00618361,1.29736,0.0103728,0.0421462,1672,456,13.0331,36.0811
455,568,12.9677,-34.8863,0,0,0,0,0,0,0,-1,1679,456,12.9677,34.8863
462,568,12.4073,-34.5107,0,0,0,0,0,0,0,-1,1686,456,12.4073,34.5107
469,568,12.3287,-33.8363,0,0,0,0,0,0,0,-1,1693,456,12.3287,33.8363
476,568,12.3124,-32.9895,0,0,0,0,0,0,0,-1,1700,456,12.3124,32.9895
483,568,10.9017,-29.747,0,0,0,0,0,0,0,-1,1707,456,10.9018,29.747
490,568,9.21021,-25.4427,0,0,0,0,0,0,0,-1,1714,456,9.21025,25.4427
497,568,9.19275,-22.8114,0,0,0,0,0,0,0,-1,1721,456,9.19273,22.8114
504,568,0,0,0,0,0,0,0,0,0,-1,1728,456,0,0
511,568,0,0,0,0,0,0,0,0,0,-1,1735,456,0,0
518,568,0,0,0,0,0,0,0,0,0,-1,1742,456,0,0
525,568,0,0,0,0,0,0,0,0,0,-1,1749,456,0,0
532,568,0,0,0,0,0,0,0,0,0,-1,1756,456,0,0
539,568,0,0,0,0,0,0,0,0,0,-1,1763,456,0,0
546,568,0,0,0,0,0,0,0,0,0,-1,1770,456,0,0
553,568,0,0,0,0,0,0,0,0,0,-1,1777,456,0,0
560,568,0,0,0,0,0,0,0,0,0,-1,1784,456,0,0
567,568,0,0,0,0,0,0,0,0,0,-1,1791,456,0,0
574,568,0,0,0,0,0,0,0,0,0,-1,1798,456,0,0
581,568,0,0,0,0,0,0,0,0,0,-1,1805,456,0,0
588,568,0,0,0,0,0,0,0,0,0,-1,1812,456,0,0
595,568,0,0,0,0,0,0,0,0,0,-1,1819,456,0,0
602,568,0,0,0,0,0,0,0,0,0,-1,1826,456,0,0
609,568,0,0,0,0,0,0,0,0,0,-1,1833,456,0,0
616,568,0,0,0,0,0,0,0,0,0,-1,1840,456,0,0
623,568,0,0,0,0,0,0,0,0,0,-1,1847,456,0,0
630,568,0,0,0,0,0,0,0,0,0,-1,1854,456,0,0
637,568,0,0,0,0,0,0,0,0,0,-1,1861,456,0,0
644,568,0,0,0,0,0,0,0,0,0,-1,1868,456,0,0
651,568,0,0,0,0,0,0,0,0,0,-1,1875,456,0,0
658,568,0,0,0,0,0,0,0,0,0,-1,1882,456,0,0
665,568,0,0,0,0,0,0,0,0,0,-1,1889,456,0,0
672,568,0,0,0,0,0,0,0,0,0,-1,1896,456,0,0
679,568,0,0,0,0,0,0,0,0,0,-1,1903,456,0,0
686,568,0,0,0,0,0,0,0,0,0,-1,1910,456,0,0
693,568,0,0,0,0,0,0,0,0,0,-1,1917,456,0,0
700,568,0,0,0,0,0,0,0,0,0,-1,1924,456,0,0
707,568,0,0,0,0,0,0,0,0,0,-1,1931,456,0,0
714,568,0,0,0,0,0,0,0,0,0,-1,1938,456,0,0
721,568,0,0,0,0,0,0,0,0,0,-1,1945,456,0,0
728,568,0,0,0,0,0,0,0,0,0,-1,1952,456,0,0
735,568,0,0,0,0,0,0,0,0,0,-1,1959,456,0,0
742,568,0,0,0,0,0,0,0,0,0,-1,1966,456,0,0
749,568,0,0,0,0,0,0,0,0,0,-1,1973,456,0,0
756,568,0,0,0,0,0,0,0,0,0,-1,1980,456,0,0
763,568,0,0,0,0,0,0,0,0,0,-1,1987,456,0,0
770,568,0,0,0,0,0,0,0,0,0,-1,1994,456,0,0
777,568,0,0,0,0,0,0,0,0,0,-1,2001,456,0,0
784,568,0,0,0,0,0,0,0,0,0,-1,2008,456,0,0
791,568,0,0,0,0,0,0,0,0,0,-1,2015,456,0,0
798,568,0,0,0,0,0,0,0,0,0,-1,2022,456,0,0
805,568,0,0,0,0,0,0,0,0,0,-1,2029,456,0,0
812,568,0,0,0,0,0,0,0,0,0,-1,2036,456,0,0
-700,561,0,0,0,0,0,0,0,0,0,-1,524,463,0,0
-693,561,0,0,0,0,0,0,0,0,0,-1,531,463,0,0
-686,561,0,0,0,0,0,0,0,0,0,-1,538,463,0,0
-679,561,0,0,0,0,0,0,0,0,0,-1,545,463,0,0
-672,561,0,0,0,0,0,0,0,0,0,-1,552,463,0,0
-665,561,0,0,0,0,0,0,0,0,0,-1,559,463,0,0
-658,561,0,0,0,0,0,0,0,0,0,-1,566,463,0,0
-651,561,0,0,0,0,0,0,0,0,0,-1,573,463,0,0
-644,561,0,0,0,0,0,0,0,0,0,-1,580,463,0,0
-637,561,0,0,0,0,0,0,0,0,0,-1,587,463,0,0
-630,561,0,0,0,0,0,0,0,0,0,-1,594,463,0,0
-623,561,0,0,0,0,0,0,0,0,0,-1,601,463,0,0
-616,561,0,0,0,0,0,0,0,0,0,-1,608,463,0,0
-609,561,0,0,0,0,0,0,0,0,0,-1,615,463,0,0
-602,561,0,0,0,0,0,0,0,0,0,-1,622,463,0,0
-595,561,0,0,0,0,0,0,0,0,0,-1,629,463,0,0
-588,561,0,0,0,0,0,0,0,0,0,-1,636,463,0,0
-581,561,0,0,0,0,0,0,0,0,0,-1,643,463,0,0
-574,561,0,0,0,0,0,0,0,0,0,-1,650,463,0,0
-567,561,0,0,0,0,0,0,0,0,0,-1,657,463,0,0
-560,561,0,0,0,0,0,0,0,0,0,-1,664,463,0,0
-553,561,0,0,0,0,0,0,0,0,0,-1,671,463,0,0
-546,561,0,0,0,0,0,0,0,0,0,-1,678,463,0,0
-539,561,0,0,0,0,0,0,0,0,0,-1,685,463,0,0
-532,561,0,0,0,0,0,0,0,0,0,-1,692,463,0,0
-525,561,0,0,0,0,0,0,0,0,0,-1,699,463,0,0
-518,561,0,0,0,0,0,0,0,0,0,-1,706,463,0,0
-511,561,0,0,0,0,0,0,0,0,0,-1,713,463,0,0
-504,561,0,0,0,0,0,0,0,0,0,-1,720,463,0,0
-497,561,0,0,0,0,0,0,0,0,0,-1,727,463,0,0
-490,561,0,0,0,0,0,0,0,0,0,-1,734,463,0,0
-483,561,0,0,0,0,0,0,0,0,0,-1,741,463,0,0
-476,561,0,0,0,0,0,0,0,0,0,-1,748,463,0,0
-469,561,0,0,0,0,0,0,0,0,0,-1,755,463,0,0
-462,561,0,0,0,0,0,0,0,0,0,-1,762,463,0,0
-455,561,0,0,0,0,0,0,0,0,0,-1,769,463,0,0
-448,561,0,0,0,0,0,0,0,0,0,-1,776,463,0,0
-441,561,0,0,0,0,0,0,0,0,0,-1,783,463,0,0
-434,561,0,0,0,0,0,0,0,0,0,-1,790,463,0,0
-427,561,0,0,0,0,0,0,0,0,0,-1,797,463,0,0
-420,561,0,0,0,0,0,0,0,0,0,-1,804,463,0,0
-413,561,0,0,0,0,0,0,0,0,0,-1,811,463,0,0
-406,561,0,0,0,0,0,0,0,0,0,-1,818,463,0,0
-399,561,0,0,0,0,0,0,0,0,0,-1,825,463,0,0
-392,561,4.92407,-2.54578,0,0,0,0,0,0,0,-1,832,463,4.92408,2.54576
-385,561,5.55634,-1.02338,0,0,0,0,0,0,0,-1,839,463,5.55634,1.02338
-378,561,0.160522,-4.51785,0,0,0,0,0,0,0,-1,846,463,0.160542,4.51785
-371,561,2.62524,-27.795,0,0,0,0,0,0,0,-1,853,463,2.62525,27.7949
-364,561,3.24945,-29.4465,0,0,0,0,0,0,0,-1,860,463,3.24946,29.4465
-357,561,2.16742,-23.5582,0,0,0,0,0,0,0,-1,867,463,2.1674,23.5582
-350,561,1.33124,-11.9406,0,0,0,0,0,0,0,-1,874,463,1.33127,11.9406
-343,561,1.13214,-14.1837,0,0,0,0,0,0,0,-1,881,463,1.13217,14.1837
-336,561,2.716,-35.0138,0,0,0,0,0,0,0,-1,888,463,2.716,35.0138
-329,561,2.36847,-36.0345,0,0,0,0,0,0,0,-1,895,463,2.36846,36.0345
-322,561,2.76392,-36.3611,0,0,0,0,0,0,0,-1,902,463,2.76394,36.3611
-315,561,2.47931,-37.3417,0,0,0,0,0,0,0,-1,909,463,2.47934,37.3417
-308,561,2.28503,-38.4294,-0.00270993,0.0102833,-0.00617414,0.0127491,-0.0051758,-1.19082,0.0106524,0.0315607,916,463,2.28505,38.4294
-301,561,2.18524,-39.5511,-0.00211687,0.00922914,-0.00555207,0.0114939,-0.00438165,-1.18348,0.0094674,0.0179911,923,463,2.18526,39.5511
-294,561,2.10059,-40.4445,-0.00153324,0.00805234,-0.00486588,0.0100895,-0.00357036,-1.17431,0.0081804,0.0124871,930,463,2.10061,40.4445
-287,561,2.0426,-41.3286,-0.00106637,0.00710331,-0.00426235,0.00892215,-0.00288522,-1.16747,0.0071078,0.0107876,937,463,2.04262,41.3285
-280,561,1.96478,-42.2092,-0.00052622,0.00629264,-0.00382291,0.0080056,-0.00223918,-1.14954,0.00621931,0.0134306,944,463,1.9648,42.2092
-273,561,1.88507,-43.0596,-0.000123953,0.00505862,-0.00324752,0.00662199,-0.00168732,-1.12214,0.00507154,0.0156781,951,463,1.88507,43.0596
-266,561,1.84296,-43.8956,0.000224054,0.00344573,-0.00251137,0.00481848,-0.0011487,-1.07056,0.00365588,0.0100978,958,463,1.84295,43.8956
-259,561,1.78979,-44.7789,0.000525547,0.00145054,-0.00166308,0.00271424,-0.000738145,-0.92102,0.00209925,0.0111352,965,463,1.78981,44.7789
-252,561,1.74036,-45.6109,0.000751935,-0.000932434,-0.000653475,0.000975726,-0.00115622,-0.329945,0.00123235,0.0165408,972,463,1.74034,45.6109
-245,561,1.69354,-46.4262,0.00102183,-0.00323338,0.000323861,0.00104634,-0.00325789,0.0755295,0.00259208,0.0184151,979,463,1.69356,46.4262
-238,561,1.66876,-47.2602,0.00130319,-0.00581781,0.00143294,0.00158072,-0.00609535,0.191311,0.00468031,0.0139933,986,463,1.66873,47.2602
-231,561,1.61523,-48.0899,0.00156731,-0.00855112,0.00262959,0.00220988,-0.00919369,0.239666,0.0069833,0.0120853,993,463,1.61523,48.0899
-224,561,1.58771,-48.8834,0.00178242,-0.0112163,0.00380003,0.0028118,-0.0122457,0.264538,0.00924472,0.0122064,1000,463,1.58771,48.8834
-217,561,1.58093,-49.6694,0.00203749,-0.0138203,0.00492353,0.00344179,-0.0152246,0.277844,0.0114705,0.0129628,1007,463,1.5809,49.6694
-210,561,1.58093,-50.4637,0.0023459,-0.0162946,0.00590921,0.00406132,-0.01801,0.282529,0.0135647,0.0146873,1014,463,1.58092,50.4637
-203,561,1.56592,-51.2337,0.00280787,-0.0182318,0.0066616,0.0047397,-0.0201636,0.282252,0.0152695,0.0162471,1021,463,1.56595,51.2337
-196,561,1.47314,-51.9463,0.00312929,-0.0195226,0.00715714,0.00520117,-0.0215944,0.281782,0.0164072,0.0181586,1028,463,1.47313,51.9463
-189,561,1.54675,-52.6574,0.00360371,-0.0205732,0.00751864,0.00575115,-0.0227207,0.278208,0.0173842,0.0234128,1035,463,1.5467,52.6574
-182,561,1.63049,-53.3495,0.004109,-0.0211484,0.00761628,0.00622791,-0.0232673,0.271345,0.0179513,0.0263801,1042,463,1.63053,53.3495
-175,561,1.52393,-54.0481,0.00474068,-0.0207093,0.00740957,0.00674073,-0.0227094,0.263646,0.0178167,0.0423239,1049,463,1.52394,54.0481
-168,561,1.53564,-54.6118,0,0,0,0,0,0,0,-1,1056,463,1.53565,54.6118
-161,561,1.61243,-55.3708,0,0,0,0,0,0,0,-1,1063,463,1.61241,55.3708
-154,561,1.92664,-56.6481,0,0,0,0,0,0,0,-1,1070,463,1.92669,56.6481
-147,561,1.97046,-57.3041,0,0,0,0,0,0,0,-1,1077,463,1.9704,57.3041
-140,561,1.16296,-57.6378,0,0,0,0,0,0,0,-1,1084,463,1.16296,57.6377
-133,561,1.37939,-55.0099,0,0,0,0,0,0,0,-1,1091,463,1.37945,55.01
-126,561,1.77014,-49.4318,0,0,0,0,0,0,0,-1,1098,463,1.7702,49.4318
-119,561,-0.336304,-35.422,0,0,0,0,0,0,0,-1,1105,463,-0.336245,35.422
-112,561,1.24365,-29.1982,0,0,0,0,0,0,0,-1,1112,463,1.2437,29.1981
-105,561,0.530518,-13.5379,0,0,0,0,0,0,0,-1,1119,463,0.530477,13.5379
-98,561,1.5387,-7.54352,0,0,0,0,0,0,0,-1,1126,463,1.53871,7.54351
-91,561,1.29553,-6.57968,0,0,0,0,0,0,0,-1,1133,463,1.29549,6.5797
-84,561,1.23364,-5.84555,0,0,0,0,0,0,0,-1,1140,463,1.23363,5.84556
-77,561,-2.36023,1.00204,0,0,0,0,0,0,0,-1,1147,463,-2.3602,-1.00205
-70,561,-3.90015,-1.41541,0,0,0,0,0,0,0,-1,1154,463,-3.90009,1.4154
-63,561,-6.95691,-4.02756,0,0,0,0,0,0,0,-1,1161,463,-6.95696,4.02756
-56,561,-5.37988,-6.66855,0,0,0,0,0,0,0,-1,1168,463,-5.37988,6.66854
-49,561,-5.7439,-9.11029,0,0,0,0,0,0,0,-1,1175,463,-5.74387,9.1103
-42,561,-1.72644,-5.63065,0,0,0,0,0,0,0,-1,1182,463,-1.72648,5.63064
-35,561,-1.65674,-4.87994,0,0,0,0,0,0,0,-1,1189,463,-1.6567,4.87993
-28,561,-1.91418,-3.86896,0,0,0,0,0,0,0,-1,1196,463,-1.91414,3.86895
-21,561,4.92969,-55.735,0,0,0,0,0,0,0,-1,1203,463,4.92974,55.735
-14,561,5.95605,-56.0825,0,0,0,0,0,0,0,-1,1210,463,5.956,56.0825
-7,561,7.26904,-56.6369,0,0,0,0,0,0,0,-1,1217,463,7.26907,56.6369
0,561,8.15955,-59.4438,0,0,0,0,0,0,0,-1,1224,463,8.15958,59.4438
7,561,6.84778,-63.4116,0,0,0,0,0,0,0,-1,1231,463,6.84774,63.4116
14,561,6.05481,-64.3568,0.0122887,0.0114517,0.0561673,0.0680391,-0.0442987,0.781673,0.0653392,0.0392639,1238,463,6.05478,64.3568
21,561,8.0625,-63.3549,-0.0089597,-0.00332219,0.0509068,0.0448439,-0.0571258,0.813055,0.0590144,0.0409994,1245,463,8.06253,63.3549
28,561,6.51245,-64.308,-0.028579,-0.0166228,0.0489876,0.0267502,-0.0719519,0.846115,0.0589439,0.0429893,1252,463,6.51246,64.308
35,561,5.50659,-65.1135,-0.0489372,-0.0237844,0.0446484,0.0100251,-0.0827467,0.92268,0.0587917,0.0424545,1259,463,5.50664,65.1135
42,561,5.18628,-65.3,-0.0676161,-0.0220562,0.0353802,-0.00275669,-0.0869156,1.07142,0.0570471,0.0465744,1266,463,5.18622,65.3
49,561,4.66882,-65.2904,-0.0858593,-0.0106658,0.0202883,-0.00554098,-0.0909841,1.32337,0.058896,0.0445415,1273,463,4.6688,65.2904
56,561,4.45154,-65.0349,-0.102235,0.0101488,0.00205503,0.0101864,-0.102273,1.55252,0.0718183,0.0453957,1280,463,4.4515,65.0349
63,561,4.23535,-64.7914,0,0,0,0,0,0,0,-1,1287,463,4.23538,64.7915
70,561,-0.06604,-66.439,0,0,0,0,0,0,0,-1,1294,463,-0.0660602,66.439
77,561,3.85181,-66.5834,-0.0834317,0.0602816,-0.0373181,0.0693942,-0.0925443,-1.3313,0.0938131,0.0449153,1301,463,3.85185,66.5834
84,561,-3.27124,-66.9493,-0.0682621,0.0775089,-0.0500063,0.0930142,-0.0837673,-1.27013,0.102111,0.0454689,1308,463,-3.27121,66.9494
91,561,-5.24866,-66.5668,-0.0513701,0.092436,-0.0610952,0.114887,-0.073821,-1.21864,0.109807,0.0406141,1315,463,-5.24863,66.5668
98,561,-7.12695,-66.4413,-0.0329678,0.102269,-0.0719432,0.133383,-0.0640818,-1.16261,0.116323,0.0432919,1322,463,-7.12693,66.4414
105,561,-9.3241,-66.4934,-0.0121686,0.106772,-0.0812944,0.148026,-0.0534232,-1.10119,0.120506,0.0464449,1329,463,-9.32411,66.4934
112,561,-11.7164,-66.4319,0.00950148,0.103628,-0.0884435,0.156751,-0.043621,-1.02991,0.121676,0.0430388,1336,463,-11.7165,66.4319
119,561,-4.30823,-75.6309,0.0280802,0.0900038,-0.092686,0.156763,-0.0386787,-0.946596,0.119506,0.0453377,1343,463,-4.30822,75.6309
126,561,-4.93945,-77.2419,0,0,0,0,0,0,0,-1,1350,463,-4.9395,77.2419
133,561,-5.45972,-78.3759,0,0,0,0,0,0,0,-1,1357,463,-5.45977,78.3759
140,561,-5.21399,-78.9001,0,0,0,0,0,0,0,-1,1364,463,-5.21397,78.9002
147,561,-5.55774,-80.7796,0.0359255,0.0119352,-0.10187,0.126504,-0.0786436,-0.726793,0.119512,0.0440093,1371,463,-5.55779,80.7796
154,561,-5.91577,-82.682,0.024386,-0.00689965,-0.101831,0.111769,-0.0942828,-0.709187,0.119107,0.0450379,1378,463,-5.91577,82.682
161,561,-5.58093,-84.7906,0,0,0,0,0,0,0,-1,1385,463,-5.58095,84.7907
168,561,-10.8822,-56.4584,0,0,0,0,0,0,0,-1,1392,463,-10.8822,56.4584
175,561,10.4185,0.276398,0,0,0,0,0,0,0,-1,1399,463,10.4185,-0.276394
182,561,6.45703,-4.02127,0,0,0,0,0,0,0,-1,1406,463,6.45704,4.02127
189,561,6.50854,-2.08685,0,0,0,0,0,0,0,-1,1413,463,6.50851,2.08686
196,561,6.44775,-0.27182,0,0,0,0,0,0,0,-1,1420,463,6.44773,0.271814
203,561,6.18591,1.1301,0,0,0,0,0,0,0,-1,1427,463,6.18592,-1.13009
210,561,5.68713,2.68427,0,0,0,0,0,0,0,-1,1434,463,5.6871,-2.68425
217,561,3.61743,-7.33582,0,0,0,0,0,0,0,-1,1441,463,3.61738,7.33581
224,561,4.27466,-8.59171,0,0,0,0,0,0,0,-1,1448,463,4.27466,8.59171
231,561,4.93188,-9.8476,0,0,0,0,0,0,0,-1,1455,463,4.93193,9.84761
238,561,2.18018,-5.18359,0,0,0,0,0,0,0,-1,1462,463,2.18023,5.18359
245,561,3.07568,-3.50238,0,0,0,0,0,0,0,-1,1469,463,3.0757,3.50238
252,561,3.47412,-3.71109,0,0,0,0,0,0,0,-1,1476,463,3.47413,3.71109
259,561,3.42212,-3.2334,0,0,0,0,0,0,0,-1,1483,463,3.42214,3.2334
266,561,4.44373,-5.90027,0,0,0,0,0,0,0,-1,1490,463,4.44372,5.90026
273,561,15.1185,-57.0087,0,0,0,0,0,0,0,-1,1497,463,15.1186,57.0087
280,561,14.8859,-55.8828,0.00317277,-0.0345757,-0.0109472,0.00611772,-0.0375206,-0.262794,0.0272826,0.0486743,1504,463,14.8859,55.8828
287,561,14.7804,-54.6923,0.00271284,-0.0324855,-0.0107755,0.00574962,-0.0355223,-0.274698,0.0258124,0.0466105,1511,463,14.7803,54.6923
294,561,14.6749,-54.1108,0.00231626,-0.0290678,-0.0102991,0.00539419,-0.0321458,-0.290405,0.0234364,0.0381973,1518,463,14.675,54.1108
301,561,14.5088,-53.7104,0.0020293,-0.0253541,-0.00960248,0.00506095,-0.0283857,-0.305811,0.0208169,0.0350384,1525,463,14.5088,53.7104
308,561,14.5327,-53.1505,0.00162316,-0.021885,-0.00884141,0.0045772,-0.0248391,-0.322453,0.0182772,0.0276615,1532,463,14.5327,53.1504
315,561,14.5449,-52.5337,0.00133322,-0.0184292,-0.0079257,0.0041191,-0.0212151,-0.338009,0.0156976,0.0169092,1539,463,14.5449,52.5337
322,561,14.5215,-51.814,0.00118333,-0.0150798,-0.00684609,0.0036815,-0.017578,-0.349891,0.0131191,0.017393,1546,463,14.5215,51.814
329,561,14.5117,-51.0068,0.00105046,-0.0119881,-0.00576498,0.00323382,-0.0141715,-0.362036,0.0106899,0.0133037,1553,463,14.5118,51.0068
336,561,14.5079,-50.1992,0.000919074,-0.00922615,-0.00480114,0.0028309,-0.011138,-0.378956,0.00852705,0.0123165,1560,463,14.5079,50.1991
343,561,14.4915,-49.4289,0.000809716,-0.00627795,-0.0036883,0.00238079,-0.00784903,-0.402686,0.00618106,0.0112383,1567,463,14.4914,49.4289
350,561,14.4589,-48.6381,0.000843572,-0.0039186,-0.00251064,0.00192267,-0.0049977,-0.405939,0.00412486,0.010508,1574,463,14.4588,48.6381
357,561,14.4391,-47.817,0.000963194,-0.00210436,-0.00148271,0.0015627,-0.00270387,-0.384235,0.0024925,0.0103729,1581,463,14.439,47.8169
364,561,14.423,-47.0047,0.00101621,-0.000617948,-0.00055148,0.00118491,-0.000786641,-0.296854,0.00114599,0.0096415,1588,463,14.423,47.0047
371,561,14.3502,-46.1561,0.00105408,0.00071275,0.000322011,0.00124786,0.000518973,0.541719,0.000723841,0.0172434,1595,463,14.3502,46.1561
378,561,14.2944,-45.3177,0.00109299,0.0021812,0.00115244,0.00291152,0.000362669,1.00595,0.00183213,0.0132266,1602,463,14.2944,45.3177
385,561,14.2343,-44.4546,0.00106142,0.00326679,0.00175596,0.00423758,9.06296e-05,1.06576,0.00279534,0.0113114,1609,463,14.2343,44.4546
392,561,14.1853,-43.5971,0.00104646,0.00408413,0.00232852,0.00534538,-0.00021479,1.07438,0.0036373,0.0152804,1616,463,14.1853,43.5971
399,561,14.1774,-42.7627,0.00104116,0.00509552,0.00299209,0.00668248,-0.000545805,1.08313,0.00464762,0.021723,1623,463,14.1773,42.7627
406,561,14.1292,-41.8995,0.000823601,0.00594285,0.0034701,0.00769522,-0.000928769,1.10316,0.0054661,0.0188899,1630,463,14.1291,41.8995
413,561,14.0903,-40.9985,0.000368439,0.00658627,0.00372696,0.00833076,-0.00137606,1.13301,0.00606479,0.0168128,1637,463,14.0903,40.9985
420,561,14.0234,-40.1311,-0.000264642,0.00702201,0.00386572,0.00869071,-0.00193334,1.16329,0.0065343,0.0138219,1644,463,14.0235,40.1311
427,561,13.967,-39.218,-0.000962829,0.00728256,0.00392196,0.00885007,-0.00253034,1.19057,0.00689992,0.0110723,1651,463,13.9671,39.218
434,561,13.9092,-38.2871,-0.00165983,0.00768746,0.00400884,0.00917123,-0.0031436,1.21631,0.00738841,0.0142448,1658,463,13.9092,38.2871
441,561,13.8821,-37.388,-0.00262729,0.00785041,0.0039546,0.00917543,-0.00395231,1.24749,0.0077767,0.0157225,1665,463,13.8821,37.388
448,561,13.8591,-36.4167,-0.00380849,0.00777468,0.00374426,0.00887961,-0.00491342,1.28384,0.00807241,0.0201142,1672,463,13.8591,36.4167
455,561,13.7538,-35.4325,-0.00515411,0.00739384,0.00337937,0.00824608,-0.00600635,1.32376,0.00826244,0.0381881,1679,463,13.7538,35.4325
462,561,13.4572,-34.6631,-0.00646992,0.00701568,0.00292886,0.00762432,-0.00707855,1.36591,0.00849065,0.036409,1686,463,13.4571,34.6631
469,561,13.3149,-33.8483,-0.00766121,0.00639797,0.00230053,0.00676484,-0.00802808,1.41266,0.00855107,0.0256859,1693,463,13.315,33.8483
476,561,13.1329,-33.0281,-0.00885248,0.00522749,0.00143241,0.00537173,-0.00899673,1.47043,0.00838317,0.0437891,1700,463,13.133,33.0281
483,561,12.9268,-32.1893,0,0,0,0,0,0,0,-1,1707,463,12.9268,32.1893
490,561,10.2549,-20.4551,0,0,0,0,0,0,0,-1,1714,463,10.2548,20.4551
497,561,11.7618,-20.3894,0,0,0,0,0,0,0,-1,1721,463,11.7618,20.3894
504,561,12.9351,-20.1285,0,0,0,0,0,0,0,-1,1728,463,12.935,20.1285
511,561,0,0,0,0,0,0,0,0,0,-1,1735,463,0,0
518,561,0,0,0,0,0,0,0,0,0,-1,1742,463,0,0
525,561,0,0,0,0,0,0,0,0,0,-1,1749,463,0,0
532,561,0,0,0,0,0,0,0,0,0,-1,1756,463,0,0
539,561,0,0,0,0,0,0,0,0,0,-1,1763,463,0,0
546,561,0,0,0,0,0,0,0,0,0,-1,1770,463,0,0
553,561,0,0,0,0,0,0,0,0,0,-1,1777,463,0,0
560,561,0,0,0,0,0,0,0,0,0,-1,1784,463,0,0
567,561,0,0,0,0,0,0,0,0,0,-1,1791,463,0,0
574,561,0,0,0,0,0,0,0,0,0,-1,1798,463,0,0
581,561,0,0,0,0,0,0,0,0,0,-1,1805,463,0,0
588,561,0,0,0,0,0,0,0,0,0,-1,1812,463,0,0
595,561,0,0,0,0,0,0,0,0,0,-1,1819,463,0,0
602,561,0,0,0,0,0,0,0,0,0,-1,1826,463,0,0
609,561,0,0,0,0,0,0,0,0,0,-1,1833,463,0,0
616,561,0,0,0,0,0,0,0,0,0,-1,1840,463,0,0
623,561,0,0,0,0,0,0,0,0,0,-1,1847,463,0,0
630,561,0,0,0,0,0,0,0,0,0,-1,1854,463,0,0
637,561,0,0,0,0,0,0,0,0,0,-1,1861,463,0,0
644,561,0,0,0,0,0,0,0,0,0,-1,1868,463,0,0
651,561,0,0,0,0,0,0,0,0,0,-1,1875,463,0,0
658,561,0,0,0,0,0,0,0,0,0,-1,1882,463,0,0
665,561,0,0,0,0,0,0,0,0,0,-1,1889,463,0,0
672,561,0,0,0,0,0,0,0,0,0,-1,1896,463,0,0
679,561,0,0,0,0,0,0,0,0,0,-1,1903,463,0,0
686,561,0,0,0,0,0,0,0,0,0,-1,1910,463,0,0
693,561,0,0,0,0,0,0,0,0,0,-1,1917,463,0,0
700,561,0,0,0,0,0,0,0,0,0,-1,1924,463,0,0
707,561,0,0,0,0,0,0,0,0,0,-1,1931,463,0,0
714,561,0,0,0,0,0,0,0,0,0,-1,1938,463,0,0
721,561,0,0,0,0,0,0,0,0,0,-1,1945,463,0,0
728,561,0,0,0,0,0,0,0,0,0,-1,1952,463,0,0
735,561,0,0,0,0,0,0,0,0,0,-1,1959,463,0,0
742,561,0,0,0,0,0,0,0,0,0,-1,1966,463,0,0
749,561,0,0,0,0,0,0,0,0,0,-1,1973,463,0,0
756,561,0,0,0,0,0,0,0,0,0,-1,1980,463,0,0
763,561,0,0,0,0,0,0,0,0,0,-1,1987,463,0,0
770,561,0,0,0,0,0,0,0,0,0,-1,1994,463,0,0
777,561,0,0,0,0,0,0,0,0,0,-1,2001,463,0,0
784,561,0,0,0,0,0,0,0,0,0,-1,2008,463,0,0
791,561,0,0,0,0,0,0,0,0,0,-1,2015,463,0,0
798,561,0,0,0,0,0,0,0,0,0,-1,2022,463,0,0
805,561,0,0,0,0,0,0,0,0,0,-1,2029,463,0,0
812,561,0,0,0,0,0,0,0,0,0,-1,2036,463,0,0
-700,554,0,0,0,0,0,0,0,0,0,-1,524,470,0,0
-693,554,0,0,0,0,0,0,0,0,0,-1,531,470,0,0
-686,554,0,0,0,0,0,0,0,0,0,-1,538,470,0,0
-679,554,0,0,0,0,0,0,0,0,0,-1,545,470,0,0
-672,554,0,0,0,0,0,0,0,0,0,-1,552,470,0,0
-665,554,0,0,0,0,0,0,0,0,0,-1,559,470,0,0
-658,554,0,0,0,0,0,0,0,0,0,-1,566,470,0,0
-651,554,0,0,0,0,0,0,0,0,0,-1,573,470,0,0
-644,554,0,0,0,0,0,0,0,0,0,-1,580,470,0,0
-637,554,0,0,0,0,0,0,0,0,0,-1,587,470,0,0
-630,554,0,0,0,0,0,0,0,0,0,-1,594,470,0,0
-623,554,0,0,0,0,0,0,0,0,0,-1,601,470,0,0
-616,554,0,0,0,0,0,0,0,0,0,-1,608,470,0,0
-609,554,0,0,0,0,0,0,0,0,0,-1,615,470,0,0
-602,554,0,0,0,0,0,0,0,0,0,-1,622,470,0,0
-595,554,0,0,0,0,0,0,0,0,0,-1,629,470,0,0
-588,554,0,0,0,0,0,0,0,0,0,-1,636,470,0,0
-581,554,0,0,0,0,0,0,0,0,0,-1,643,470,0,0
-574,554,0,0,0,0,0,0,0,0,0,-1,650,470,0,0
-567,554,0,0,0,0,0,0,0,0,0,-1,657,470,0,0
-560,554,0,0,0,0,0,0,0,0,0,-1,664,470,0,0
-553,554,0,0,0,0,0,0,0,0,0,-1,671,470,0,0
-546,554,0,0,0,0,0,0,0,0,0,-1,678,470,0,0
-539,554,0,0,0,0,0,0,0,0,0,-1,685,470,0,0
-532,554,0,0,0,0,0,0,0,0,0,-1,692,470,0,0
-525,554,0,0,0,0,0,0,0,0,0,-1,699,470,0,0
-518,554,0,0,0,0,0,0,0,0,0,-1,706,470,0,0
-511,554,0,0,0,0,0,0,0,0,0,-1,713,470,0,0
-504,554,0,0,0,0,0,0,0,0,0,-1,720,470,0,0
-497,554,0,0,0,0,0,0,0,0,0,-1,727,470,0,0
-490,554,0,0,0,0,0,0,0,0,0,-1,734,470,0,0
-483,554,0,0,0,0,0,0,0,0,0,-1,741,470,0,0
-476,554,0,0,0,0,0,0,0,0,0,-1,748,470,0,0
-469,554,0,0,0,0,0,0,0,0,0,-1,755,470,0,0
-462,554,0,0,0,0,0,0,0,0,0,-1,762,470,0,0
-455,554,0,0,0,0,0,0,0,0,0,-1,769,470,0,0
-448,554,0,0,0,0,0,0,0,0,0,-1,776,470,0,0
-441,554,0,0,0,0,0,0,0,0,0,-1,783,470,0,0
-434,554,0,0,0,0,0,0,0,0,0,-1,790,470,0,0
-427,554,0,0,0,0,0,0,0,0,0,-1,797,470,0,0
-420,554,0,0,0,0,0,0,0,0,0,-1,804,470,0,0
-413,554,0,0,0,0,0,0,0,0,0,-1,811,470,0,0
-406,554,0,0,0,0,0,0,0,0,0,-1,818,470,0,0
-399,554,-1.32275,-3.95142,0,0,0,0,0,0,0,-1,825,470,-1.32275,3.95141
-392,554,-1.35632,-3.7406,0,0,0,0,0,0,0,-1,832,470,-1.35632,3.7406
-385,554,1.54614,-28.7236,0,0,0,0,0,0,0,-1,839,470,1.54616,28.7236
-378,554,1.92175,-29.1808,0,0,0,0,0,0,0,-1,846,470,1.92174,29.1808
-371,554,1.91498,-29.786,0,0,0,0,0,0,0,-1,853,470,1.91496,29.786
-364,554,2.3067,-30.0105,0,0,0,0,0,0,0,-1,860,470,2.30673,30.0105
-357,554,2.83905,-30.0713,0,0,0,0,0,0,0,-1,867,470,2.83903,30.0712
-350,554,1.17157,-18.1341,0,0,0,0,0,0,0,-1,874,470,1.17156,18.1341
-343,554,1.80469,-33.7764,0,0,0,0,0,0,0,-1,881,470,1.80467,33.7764
-336,554,1.77496,-35.0049,-0.00155414,0.0155861,-0.0107226,0.0207426,-0.00671066,-1.12254,0.0165259,0.0463999,888,470,1.77494,35.005
-329,554,1.54877,-35.9146,-0.00193845,0.0130223,-0.00875673,0.0170587,-0.00597485,-1.13888,0.0138021,0.0243875,895,470,1.54878,35.9146
-322,554,1.43054,-36.8214,-0.00216013,0.0107843,-0.00706135,0.0138909,-0.00526665,-1.15635,0.0114281,0.0179796,902,470,1.43057,36.8215
-315,554,1.18726,-37.9887,0,0,0,0,0,0,0,-1,909,470,1.18727,37.9887
-308,554,1.34601,-38.6098,-0.00201736,0.00770937,-0.00472072,0.00962373,-0.00393172,-1.18554,0.00805295,0.0153326,916,470,1.34603,38.6098
-301,554,1.30359,-39.5401,-0.00153581,0.0067356,-0.00410133,0.00842441,-0.00322462,-1.18018,0.00694532,0.0155034,923,470,1.30356,39.5401
-294,554,1.22931,-40.4232,-0.000999504,0.00564611,-0.00344184,0.00710737,-0.00246076,-1.1693,0.0057372,0.0137653,930,470,1.2293,40.4232
-287,554,1.16516,-41.2964,-0.000539875,0.00473976,-0.00285243,0.00598645,-0.00178657,-1.15875,0.00470105,0.0130831,937,470,1.16516,41.2965
-280,554,1.09692,-42.1599,-7.52057e-05,0.00371571,-0.00236762,0.00485314,-0.00121263,-1.12294,0.00370636,0.0128637,944,470,1.09691,42.1599
-273,554,1.02563,-43.0203,0.000281571,0.00228391,-0.00173817,0.00328863,-0.000723148,-1.04669,0.00246902,0.0167797,951,470,1.02563,43.0203
-266,554,0.981018,-43.8815,0.000627214,0.000431677,-0.000937103,0.00147164,-0.000412744,-0.733421,0.00114377,0.0136261,958,470,0.981004,43.8815
-259,554,0.935791,-44.672,0.000908221,-0.00184802,-9.08469e-06,0.000908251,-0.00184805,-0.003296,0.00162189,0.013384,965,470,0.9358,44.672
-252,554,0.896179,-45.4969,0.00109459,-0.00458422,0.00111192,0.00130454,-0.00479418,0.186624,0.00370826,0.0158688,972,470,0.896178,45.497
-245,554,0.849182,-46.3521,0.00132781,-0.00730174,0.00220283,0.00185759,-0.00783152,0.236019,0.00593787,0.0166797,979,470,0.84919,46.3521
-238,554,0.827332,-47.2161,0.00158561,-0.0102957,0.003423,0.00250122,-0.0112113,0.261368,0.0084325,0.0121872,986,470,0.827318,47.2161
-231,554,0.802002,-48.05,0.00184642,-0.0134854,0.00473668,0.00319174,-0.0148307,0.276735,0.011105,0.0106942,993,470,0.802029,48.05
-224,554,0.794556,-48.8236,0.00204201,-0.0166225,0.00605093,0.00383202,-0.0184125,0.287621,0.0137318,0.0109096,1000,470,0.79453,48.8236
-217,554,0.784729,-49.5936,0.00228765,-0.0196848,0.00733615,0.00451188,-0.0219091,0.294379,0.0163192,0.0117252,1007,470,0.784718,49.5936
-210,554,0.766235,-50.3647,0.00259407,-0.0225947,0.00847085,0.00517775,-0.0251784,0.296046,0.0187513,0.0165699,1014,470,0.766262,50.3647
-203,554,0.72583,-51.0692,0.00306867,-0.0248993,0.00933547,0.00589846,-0.0277291,0.294318,0.0207338,0.0257991,1021,470,0.72581,51.0691
-196,554,0.706055,-51.7438,0.00339278,-0.0264077,0.00987655,0.00636888,-0.0293838,0.292676,0.0220213,0.0347647,1028,470,0.706014,51.7438
-189,554,0.76355,-52.4037,0.00389529,-0.0276269,0.0102627,0.00694206,-0.0306736,0.288589,0.0231133,0.0398538,1035,470,0.763503,52.4037
-182,554,0.837524,-52.9655,0.00440182,-0.0282368,0.0103125,0.00738713,-0.0312221,0.281781,0.0236646,0.0452071,1042,470,0.837486,52.9655
-175,554,0.749878,-53.494,0,0,0,0,0,0,0,-1,1049,470,0.749931,53.4939
-168,554,1.8866,-48.7592,0,0,0,0,0,0,0,-1,1056,470,1.88665,48.7591
-161,554,1.09583,-42.015,0,0,0,0,0,0,0,-1,1063,470,1.09577,42.015
-154,554,1.03186,-42.7216,0,0,0,0,0,0,0,-1,1070,470,1.03187,42.7216
-147,554,1.4552,-41.5187,0,0,0,0,0,0,0,-1,1077,470,1.45525,41.5187
-140,554,0.428101,-38.9893,0,0,0,0,0,0,0,-1,1084,470,0.428152,38.9893
-133,554,2.67163,-32.8187,0,0,0,0,0,0,0,-1,1091,470,2.67161,32.8187
-126,554,0.851929,-33.5393,0,0,0,0,0,0,0,-1,1098,470,0.851942,33.5393
-119,554,-1.03479,-32.1628,0,0,0,0,0,0,0,-1,1105,470,-1.03476,32.1628
-112,554,1.03162,-24.5784,0,0,0,0,0,0,0,-1,1112,470,1.03156,24.5784
-105,554,0.608765,-21.0475,0,0,0,0,0,0,0,-1,1119,470,0.608728,21.0475
-98,554,1.51929,-7.3624,0,0,0,0,0,0,0,-1,1126,470,1.51928,7.36241
-91,554,1.41089,-6.5864,0,0,0,0,0,0,0,-1,1133,470,1.41093,6.58638
-84,554,1.62305,-5.87186,0,0,0,0,0,0,0,-1,1140,470,1.62299,5.87186
-77,554,-2.56958,1.33258,0,0,0,0,0,0,0,-1,1147,470,-2.56959,-1.33257
-70,554,-3.68164,-1.18332,0,0,0,0,0,0,0,-1,1154,470,-3.68158,1.18331
-63,554,-4.86853,-3.88708,0,0,0,0,0,0,0,-1,1161,470,-4.86853,3.88708
-56,554,-5.69958,-6.45422,0,0,0,0,0,0,0,-1,1168,470,-5.69955,6.45422
-49,554,-6.23645,-8.8569,0,0,0,0,0,0,0,-1,1175,470,-6.23643,8.85689
-42,554,-6.62524,-11.5382,0,0,0,0,0,0,0,-1,1182,470,-6.62522,11.5382
-35,554,-2.40173,-4.59482,0,0,0,0,0,0,0,-1,1189,470,-2.40169,4.59481
-28,554,-0.760132,-1.65555,0,0,0,0,0,0,0,-1,1196,470,-0.760095,1.65556
-21,554,6.35388,-60.5687,0,0,0,0,0,0,0,-1,1203,470,6.35392,60.5687
-14,554,4.86304,-54.3079,0,0,0,0,0,0,0,-1,1210,470,4.863,54.3078
-7,554,6.8269,-54.9443,0,0,0,0,0,0,0,-1,1217,470,6.82689,54.9444
0,554,8.65833,-58.9097,0,0,0,0,0,0,0,-1,1224,470,8.65838,58.9097
7,554,5.13513,-63.4848,0,0,0,0,0,0,0,-1,1231,470,5.13516,63.4848
14,554,4.33337,-64.4321,0.0699778,0.0091669,0.0733347,0.11896,-0.0398157,0.588878,0.0953901,0.0442619,1238,470,4.33333,64.4321
21,554,7.19409,-62.7685,0.0353343,-0.0102186,0.0629522,0.0795037,-0.0543879,0.611822,0.0777544,0.0407436,1245,470,7.19405,62.7685
28,554,5.62183,-63.7593,0.00529849,-0.0269579,0.0578952,0.04927,-0.0709294,0.649554,0.0697717,0.0421081,1252,470,5.62188,63.7593
35,554,5.07336,-65.0235,-0.0237892,-0.0343229,0.0484382,0.0196676,-0.0777797,0.731244,0.0595026,0.0413293,1259,470,5.07339,65.0235
42,554,4.47632,-64.9177,-0.0494509,-0.0295036,0.0325364,-0.00544653,-0.0735079,0.93412,0.0472944,0.0491866,1266,470,4.47634,64.9176
49,554,3.91187,-64.9849,-0.0731035,-0.0113449,0.00888686,-0.0100916,-0.0743569,1.43069,0.0465733,0.0458986,1273,470,3.91189,64.9849
56,554,3.24707,-64.4208,-0.093482,0.0157959,-0.015691,0.0180043,-0.0956904,-1.43097,0.0705648,0.0442697,1280,470,3.24708,64.4208
63,554,2.40161,-64.6911,0,0,0,0,0,0,0,-1,1287,470,2.40156,64.6911
70,554,1.99304,-65.2372,0,0,0,0,0,0,0,-1,1294,470,1.99307,65.2373
77,554,1.88867,-65.6528,-0.0722068,0.0717989,-0.0650388,0.0968242,-0.097232,-1.20348,0.112038,0.0416276,1301,470,1.88865,65.6528
84,554,1.50525,-65.7592,-0.0562328,0.0879485,-0.0773901,0.121623,-0.0899074,-1.16038,0.122584,0.0404547,1308,470,1.50531,65.7591
91,554,0.953735,-65.9477,-0.0381778,0.102243,-0.0871692,0.143961,-0.0798958,-1.12443,0.130996,0.0401881,1315,470,0.953734,65.9477
98,554,0.525879,-66.1545,-0.0170563,0.112744,-0.0957821,0.163543,-0.067855,-1.08316,0.137352,0.0445615,1322,470,0.525901,66.1545
105,554,-0.0802002,-66.3163,0.00595287,0.116953,-0.102611,0.178112,-0.0552057,-1.03331,0.140798,0.0464307,1329,470,-0.0801905,66.3163
112,554,-0.602905,-66.5806,0,0,0,0,0,0,0,-1,1336,470,-0.602856,66.5806
119,554,-4.65637,-75.79,0.050203,0.0974178,-0.106277,0.182678,-0.0350568,-0.894689,0.134997,0.0443471,1343,470,-4.6564,75.79
126,554,-4.99817,-77.3214,0.0621904,0.0778198,-0.106741,0.177032,-0.0370216,-0.821939,0.132102,0.0444115,1350,470,-4.99813,77.3214
133,554,-5.46643,-78.7859,0.0679005,0.0577239,-0.108583,0.171514,-0.0458896,-0.761985,0.132319,0.0432909,1357,470,-5.46641,78.7859
140,554,-5.73291,-79.9391,0.0632932,0.0318132,-0.10745,0.15615,-0.0610431,-0.712672,0.129342,0.0449593,1364,470,-5.73293,79.9392
147,554,-5.77869,-81.1402,0.0500655,0.00495002,-0.107827,0.137669,-0.0826538,-0.682284,0.128519,0.0446399,1371,470,-5.77868,81.1402
154,554,-5.78955,-83.1592,0.0296375,-0.0188,-0.109505,0.11757,-0.106732,-0.676567,0.129551,0.0441571,1378,470,-5.7895,83.1592
161,554,-5.23901,-84.4846,0.00781044,-0.0264125,-0.112987,0.104974,-0.123576,-0.710246,0.132099,0.0479415,1385,470,-5.23901,84.4846
168,554,-4.64307,-85.7873,0,0,0,0,0,0,0,-1,1392,470,-4.64312,85.7873
175,554,10.663,0.286957,0,0,0,0,0,0,0,-1,1399,470,10.663,-0.286966
182,554,6.71106,-4.50217,0,0,0,0,0,0,0,-1,1406,470,6.71107,4.50215
189,554,6.90479,-2.50348,0,0,0,0,0,0,0,-1,1413,470,6.90477,2.50348
196,554,6.96216,-0.740906,0,0,0,0,0,0,0,-1,1420,470,6.96214,0.740912
203,554,6.43518,0.414154,0,0,0,0,0,0,0,-1,1427,470,6.43523,-0.414141
210,554,6.21167,1.96707,0,0,0,0,0,0,0,-1,1434,470,6.21165,-1.96706
217,554,5.64551,3.4989,0,0,0,0,0,0,0,-1,1441,470,5.64555,-3.49891
224,554,4.85144,-8.85172,0,0,0,0,0,0,0,-1,1448,470,4.85146,8.85173
231,554,3.25073,-5.29642,0,0,0,0,0,0,0,-1,1455,470,3.25078,5.29642
238,554,4.28625,-3.25253,0,0,0,0,0,0,0,-1,1462,470,4.28622,3.25252
245,554,4.0752,-2.90033,0,0,0,0,0,0,0,-1,1469,470,4.07515,2.90032
252,554,3.52112,-0.934998,0,0,0,0,0,0,0,-1,1476,470,3.52113,0.934996
259,554,3.96448,-2.16425,0,0,0,0,0,0,0,-1,1483,470,3.96446,2.16424
266,554,3.0592,-2.71716,0,0,0,0,0,0,0,-1,1490,470,3.05923,2.71718
273,554,2.58521,-3.06876,0,0,0,0,0,0,0,-1,1497,470,2.58524,3.06874
280,554,15.907,-55.3694,0,0,0,0,0,0,0,-1,1504,470,15.907,55.3694
287,554,15.931,-53.996,0,0,0,0,0,0,0,-1,1511,470,15.931,53.996
294,554,15.6199,-53.3464,0,0,0,0,0,0,0,-1,1518,470,15.6198,53.3464
301,554,15.1176,-53.2093,0,0,0,0,0,0,0,-1,1525,470,15.1175,53.2093
308,554,15.3241,-52.9969,0,0,0,0,0,0,0,-1,1532,470,15.3241,52.9969
315,554,15.3502,-52.4359,0,0,0,0,0,0,0,-1,1539,470,15.3502,52.4359
322,554,15.4492,-51.3245,0.000744881,-0.0195788,-0.00903618,0.0041814,-0.0230154,-0.363415,0.0169106,0.0448195,1546,470,15.4492,51.3245
329,554,15.339,-50.756,0.000775594,-0.015553,-0.00770054,0.00383421,-0.0186117,-0.378087,0.0138637,0.0309938,1553,470,15.339,50.756
336,554,15.2926,-50.1314,0.000737982,-0.012172,-0.00659085,0.0035083,-0.0149423,-0.397907,0.0113137,0.0192169,1560,470,15.2926,50.1314
343,554,15.278,-49.3969,0.000694717,-0.00870099,-0.00532809,0.00310027,-0.0111065,-0.424088,0.00862555,0.0137965,1567,470,15.278,49.3969
350,554,15.278,-48.5642,0.000812021,-0.00611996,-0.00403422,0.00266468,-0.00797262,-0.430508,0.00639123,0.0107636,1574,470,15.278,48.5642
357,554,15.27,-47.7509,0.0010136,-0.0042326,-0.00294856,0.00233698,-0.00555598,-0.421873,0.00468162,0.0111902,1581,470,15.2701,47.7509
364,554,15.2318,-46.95,0.00109724,-0.0027463,-0.00199067,0.00194241,-0.00359147,-0.401503,0.00324193,0.00893621,1588,470,15.2318,46.95
371,554,15.1969,-46.1259,0.00116464,-0.00143947,-0.00109369,0.00156303,-0.00183786,-0.349322,0.00196564,0.00944418,1595,470,15.1969,46.1259
378,554,15.1478,-45.2637,0.00125072,0.00014275,-0.000168405,0.00127575,0.000117719,-0.147556,0.000814103,0.0113667,1602,470,15.1478,45.2637
385,554,15.0963,-44.3981,0.0012522,0.00127688,0.000545767,0.00181044,0.000718631,0.796702,0.00105264,0.0104256,1609,470,15.0963,44.3981
392,554,15.0511,-43.5289,0.0012318,0.00213518,0.00115998,0.00292832,0.000438666,0.971063,0.00182366,0.0137716,1616,470,15.0511,43.5289
399,554,15.0123,-42.6581,0.00120755,0.00304573,0.00180485,0.00415203,0.000101247,1.0209,0.0027349,0.0192377,1623,470,15.0123,42.6582
406,554,14.951,-41.7949,0.00103409,0.00388281,0.00231704,0.00517828,-0.000261388,1.06099,0.00354253,0.0173819,1630,470,14.9511,41.7949
413,554,14.9398,-40.9409,0.000696662,0.00463666,0.00266902,0.00598397,-0.000650652,1.10332,0.00422294,0.0151032,1637,470,14.9398,40.9409
420,554,14.8921,-40.0965,0.000172746,0.00516512,0.00287876,0.00647921,-0.00114134,1.14257,0.00474589,0.0160436,1644,470,14.8921,40.0965
427,554,14.843,-39.1836,-0.000452709,0.00545185,0.0029708,0.00668784,-0.0016887,1.17653,0.00511524,0.0121213,1651,470,14.8431,39.1836
434,554,14.7651,-38.2978,-0.0010548,0.00578491,0.00309087,0.00697471,-0.0022446,1.20334,0.00555138,0.0110999,1658,470,14.7651,38.2978
441,554,14.7222,-37.3963,-0.00184381,0.0059852,0.00312633,0.00708041,-0.00293903,1.23384,0.00594716,0.0121231,1665,470,14.7222,37.3963
448,554,14.668,-36.4404,-0.00279566,0.00595426,0.0030173,0.00689385,-0.00373525,1.26891,0.00622638,0.0152643,1672,470,14.668,36.4404
455,554,14.5665,-35.5164,-0.00383548,0.00571879,0.00279744,0.0064776,-0.00459429,1.30592,0.00642311,0.0171194,1679,470,14.5665,35.5164
462,554,14.4244,-34.6591,-0.00475266,0.00544718,0.00250652,0.00602985,-0.00533534,1.34239,0.00656578,0.0194241,1686,470,14.4245,34.6591
469,554,14.2225,-33.8187,-0.0053585,0.00507295,0.00210713,0.00548251,-0.00576805,1.37882,0.00649621,0.0253964,1693,470,14.2225,33.8187
476,554,14.1033,-32.8195,-0.0058626,0.00437592,0.00157666,0.00461321,-0.0060999,1.42141,0.00620503,0.0448708,1700,470,14.1033,32.8195
483,554,14.0203,-31.7895,0,0,0,0,0,0,0,-1,1707,470,14.0203,31.7895
490,554,12.5504,-17.9805,0,0,0,0,0,0,0,-1,1714,470,12.5505,17.9805
497,554,14.3204,-17.9055,0,0,0,0,0,0,0,-1,1721,470,14.3204,17.9055
504,554,2.13257,-3.81628,0,0,0,0,0,0,0,-1,1728,470,2.1326,3.8163
511,554,1.31396,-4.02713,0,0,0,0,0,0,0,-1,1735,470,1.31398,4.02712
518,554,5.04236,-5.9472,0,0,0,0,0,0,0,-1,1742,470,5.04231,5.94721
525,554,0,0,0,0,0,0,0,0,0,-1,1749,470,0,0
532,554,0,0,0,0,0,0,0,0,0,-1,1756,470,0,0
539,554,0,0,0,0,0,0,0,0,0,-1,1763,470,0,0
546,554,0,0,0,0,0,0,0,0,0,-1,1770,470,0,0
553,554,0,0,0,0,0,0,0,0,0,-1,1777,470,0,0
560,554,0,0,0,0,0,0,0,0,0,-1,1784,470,0,0
567,554,0,0,0,0,0,0,0,0,0,-1,1791,470,0,0
574,554,0,0,0,0,0,0,0,0,0,-1,1798,470,0,0
581,554,0,0,0,0,0,0,0,0,0,-1,1805,470,0,0
588,554,0,0,0,0,0,0,0,0,0,-1,1812,470,0,0
595,554,0,0,0,0,0,0,0,0,0,-1,1819,470,0,0
602,554,0,0,0,0,0,0,0,0,0,-1,1826,470,0,0
609,554,0,0,0,0,0,0,0,0,0,-1,1833,470,0,0
616,554,0,0,0,0,0,0,0,0,0,-1,1840,470,0,0
623,554,0,0,0,0,0,0,0,0,0,-1,1847,470,0,0
630,554,0,0,0,0,0,0,0,0,0,-1,1854,470,0,0
637,554,0,0,0,0,0,0,0,0,0,-1,1861,470,0,0
644,554,0,0,0,0,0,0,0,0,0,-1,1868,470,0,0
651,554,0,0,0,0,0,0,0,0,0,-1,1875,470,0,0
658,554,0,0,0,0,0,0,0,0,0,-1,1882,470,0,0
665,554,0,0,0,0,0,0,0,0,0,-1,1889,470,0,0
672,554,0,0,0,0,0,0,0,0,0,-1,1896,470,0,0
679,554,0,0,0,0,0,0,0,0,0,-1,1903,470,0,0
686,554,0,0,0,0,0,0,0,0,0,-1,1910,470,0,0
693,554,0,0,0,0,0,0,0,0,0,-1,1917,470,0,0
700,554,0,0,0,0,0,0,0,0,0,-1,1924,470,0,0
707,554,0,0,0,0,0,0,0,0,0,-1,1931,470,0,0
714,554,0,0,0,0,0,0,0,0,0,-1,1938,470,0,0
721,554,0,0,0,0,0,0,0,0,0,-1,1945,470,0,0
728,554,0,0,0,0,0,0,0,0,0,-1,1952,470,0,0
735,554,0,0,0,0,0,0,0,0,0,-1,1959,470,0,0
742,554,0,0,0,0,0,0,0,0,0,-1,1966,470,0,0
749,554,0,0,0,0,0,0,0,0,0,-1,1973,470,0,0
756,554,0,0,0,0,0,0,0,0,0,-1,1980,470,0,0
763,554,0,0,0,0,0,0,0,0,0,-1,1987,470,0,0
770,554,0,0,0,0,0,0,0,0,0,-1,1994,470,0,0
777,554,0,0,0,0,0,0,0,0,0,-1,2001,470,0,0
784,554,0,0,0,0,0,0,0,0,0,-1,2008,470,0,0
791,554,0,0,0,0,0,0,0,0,0,-1,2015,470,0,0
798,554,0,0,0,0,0,0,0,0,0,-1,2022,470,0,0
805,554,0,0,0,0,0,0,0,0,0,-1,2029,470,0,0
812,554,0,0,0,0,0,0,0,0,0,-1,2036,470,0,0
-700,547,0,0,0,0,0,0,0,0,0,-1,524,477,0,0
-693,547,0,0,0,0,0,0,0,0,0,-1,531,477,0,0
-686,547,0,0,0,0,0,0,0,0,0,-1,538,477,0,0
-679,547,0,0,0,0,0,0,0,0,0,-1,545,477,0,0
-672,547,0,0,0,0,0,0,0,0,0,-1,552,477,0,0
-665,547,0,0,0,0,0,0,0,0,0,-1,559,477,0,0
-658,547,0,0,0,0,0,0,0,0,0,-1,566,477,0,0
-651,547,0,0,0,0,0,0,0,0,0,-1,573,477,0,0
-644,547,0,0,0,0,0,0,0,0,0,-1,580,477,0,0
-637,547,0,0,0,0,0,0,0,0,0,-1,587,477,0,0
-630,547,0,0,0,0,0,0,0,0,0,-1,594,477,0,0
-623,547,0,0,0,0,0,0,0,0,0,-1,601,477,0,0
-616,547,0,0,0,0,0,0,0,0,0,-1,608,477,0,0
-609,547,0,0,0,0,0,0,0,0,0,-1,615,477,0,0
-602,547,0,0,0,0,0,0,0,0,0,-1,622,477,0,0
-595,547,0,0,0,0,0,0,0,0,0,-1,629,477,0,0
-588,547,0,0,0,0,0,0,0,0,0,-1,636,477,0,0
-581,547,0,0,0,0,0,0,0,0,0,-1,643,477,0,0
-574,547,0,0,0,0,0,0,0,0,0,-1,650,477,0,0
-567,547,0,0,0,0,0,0,0,0,0,-1,657,477,0,0
-560,547,0,0,0,0,0,0,0,0,0,-1,664,477,0,0
-553,547,0,0,0,0,0,0,0,0,0,-1,671,477,0,0
-546,547,0,0,0,0,0,0,0,0,0,-1,678,477,0,0
-539,547,0,0,0,0,0,0,0,0,0,-1,685,477,0,0
-532,547,0,0,0,0,0,0,0,0,0,-1,692,477,0,0
-525,547,0,0,0,0,0,0,0,0,0,-1,699,477,0,0
-518,547,0,0,0,0,0,0,0,0,0,-1,706,477,0,0
-511,547,0,0,0,0,0,0,0,0,0,-1,713,477,0,0
-504,547,0,0,0,0,0,0,0,0,0,-1,720,477,0,0
-497,547,0,0,0,0,0,0,0,0,0,-1,727,477,0,0
-490,547,0,0,0,0,0,0,0,0,0,-1,734,477,0,0
-483,547,0,0,0,0,0,0,0,0,0,-1,741,477,0,0
-476,547,0,0,0,0,0,0,0,0,0,-1,748,477,0,0
-469,547,0,0,0,0,0,0,0,0,0,-1,755,477,0,0
-462,547,0,0,0,0,0,0,0,0,0,-1,762,477,0,0
-455,547,0,0,0,0,0,0,0,0,0,-1,769,477,0,0
-448,547,0,0,0,0,0,0,0,0,0,-1,776,477,0,0
-441,547,0,0,0,0,0,0,0,0,0,-1,783,477,0,0
-434,547,0,0,0,0,0,0,0,0,0,-1,790,477,0,0
-427,547,0,0,0,0,0,0,0,0,0,-1,797,477,0,0
-420,547,0,0,0,0,0,0,0,0,0,-1,804,477,0,0
-413,547,0,0,0,0,0,0,0,0,0,-1,811,477,0,0
-406,547,0.144592,-11.0292,0,0,0,0,0,0,0,-1,818,477,0.144583,11.0292
-399,547,0.775513,-10.0294,0,0,0,0,0,0,0,-1,825,477,0.775482,10.0295
-392,547,0.219055,-28.7913,0,0,0,0,0,0,0,-1,832,477,0.219056,28.7913
-385,547,0.564331,-29.2501,0,0,0,0,0,0,0,-1,839,477,0.564342,29.2501
-378,547,0.934631,-29.7303,0,0,0,0,0,0,0,-1,846,477,0.934644,29.7303
-371,547,1.07477,-30.2805,0,0,0,0,0,0,0,-1,853,477,1.07479,30.2805
-364,547,1.39392,-30.5376,0,0,0,0,0,0,0,-1,860,477,1.39392,30.5376
-357,547,1.60736,-30.6579,0,0,0,0,0,0,0,-1,867,477,1.60734,30.6579
-350,547,0.977417,-32.6881,0,0,0,0,0,0,0,-1,874,477,0.977416,32.6881
-343,547,0.864258,-33.7874,0.000729697,0.0166444,-0.0117565,0.0228834,-0.00550926,-1.08291,0.0173854,0.0457943,881,477,0.864251,33.7874
-336,547,0.81012,-34.9103,-0.000272448,0.0134266,-0.0093968,0.0182053,-0.00505117,-1.10033,0.0141249,0.020073,888,477,0.810131,34.9104
-329,547,0.659973,-35.8382,-0.000839881,0.0108789,-0.00749171,0.0145305,-0.00449144,-1.11727,0.0114808,0.0119939,895,477,0.65997,35.8382
-322,547,0.603638,-36.7636,-0.00125071,0.00859045,-0.0057903,0.0112685,-0.00392879,-1.13759,0.0091089,0.0118802,902,477,0.603612,36.7636
-315,547,0.541626,-37.7076,-0.00138421,0.00684141,-0.00444752,0.00878629,-0.0033291,-1.15856,0.00722749,0.0104082,909,477,0.541605,37.7077
-308,547,0.477417,-38.5924,-0.00130247,0.00560982,-0.00347824,0.00705705,-0.0027497,-1.1765,0.00584114,0.0120737,916,477,0.477421,38.5924
-301,547,0.423096,-39.4883,-0.000907522,0.00469321,-0.00285861,0.00589456,-0.00210887,-1.17295,0.00478999,0.0125432,923,477,0.423082,39.4884
-294,547,0.35498,-40.3693,-0.000410645,0.003671,-0.00221492,0.00464196,-0.0013816,-1.15765,0.00364356,0.0109683,930,477,0.354986,40.3693
-287,547,0.290161,-41.2309,4.42519e-05,0.0027635,-0.00162211,0.00352044,-0.000712684,-1.13419,0.00261707,0.012161,937,477,0.290164,41.2309
-280,547,0.256531,-42.1003,0.00044968,0.00150948,-0.0011007,0.00220119,-0.000242031,-1.00974,0.00155443,0.0139411,944,477,0.256505,42.1003
-273,547,0.198425,-42.9767,0.000773983,-0.000153127,-0.000416207,0.000933414,-0.000312558,-0.365815,0.000748539,0.0136565,951,477,0.198436,42.9767
-266,547,0.123291,-43.8209,0.00112741,-0.00228922,0.00046019,0.00118831,-0.00235012,0.131568,0.0020793,0.0137668,958,477,0.123284,43.8209
-259,547,0.0725098,-44.6147,0.00138779,-0.00488663,0.00148143,0.00171997,-0.00521882,0.220585,0.00417243,0.0123119,965,477,0.0725199,44.6147
-252,547,0.0713501,-45.4562,0.00152266,-0.00802614,0.00273747,0.00225177,-0.00875525,0.260302,0.00671448,0.0116162,972,477,0.0713707,45.4562
-245,547,0.0452271,-46.3096,0.00168736,-0.0112555,0.00397469,0.00281051,-0.0123786,0.275394,0.00933141,0.0125513,979,477,0.0452041,46.3096
-238,547,0.00921631,-47.1638,0.00186949,-0.0148062,0.00536005,0.00344375,-0.0163804,0.285669,0.0122309,0.00882577,986,477,0.00919883,47.1638
-231,547,-0.027832,-47.986,0.00207174,-0.0186402,0.00686726,0.00414177,-0.0207102,0.292772,0.0153745,0.00832707,993,477,-0.0278482,47.986
-224,547,-0.0553589,-48.7416,0.00218204,-0.0224946,0.00842689,0.00478516,-0.0250977,0.299607,0.0185339,0.0106564,1000,477,-0.0553784,48.7416
-217,547,-0.0678711,-49.4661,0.00233967,-0.0262807,0.00999489,0.00548455,-0.0294256,0.304841,0.0216778,0.0158089,1007,477,-0.0678607,49.4661
-210,547,-0.105347,-50.089,0.00255765,-0.0299091,0.0114163,0.00617004,-0.0335215,0.306456,0.024663,0.0256516,1014,477,-0.105321,50.089
-203,547,-0.0932007,-50.5681,0.0029554,-0.032881,0.0125398,0.00690747,-0.0368331,0.305308,0.0271524,0.0405882,1021,477,-0.0932097,50.5681
-196,547,-0.0323486,-51.3942,0,0,0,0,0,0,0,-1,1028,477,-0.0323837,51.3942
-189,547,-0.13147,-51.9601,0,0,0,0,0,0,0,-1,1035,477,-0.13149,51.9602
-182,547,0.00292969,-52.4415,0,0,0,0,0,0,0,-1,1042,477,0.00292027,52.4415
-175,547,1.37634,-47.526,0,0,0,0,0,0,0,-1,1049,477,1.3763,47.526
-168,547,0.761719,-32.9387,0,0,0,0,0,0,0,-1,1056,477,0.761738,32.9387
-161,547,0.0430908,-34.6016,0,0,0,0,0,0,0,-1,1063,477,0.0431231,34.6016
-154,547,-0.284424,-31.1176,0,0,0,0,0,0,0,-1,1070,477,-0.284395,31.1176
-147,547,3.69434,-26.413,0,0,0,0,0,0,0,-1,1077,477,3.69437,26.413
-140,547,1.55676,-22.5229,0,0,0,0,0,0,0,-1,1084,477,1.5568,22.5229
-133,547,2.31665,-17.9421,0,0,0,0,0,0,0,-1,1091,477,2.31667,17.9421
-126,547,-1.15271,-30.6984,0,0,0,0,0,0,0,-1,1098,477,-1.15267,30.6984
-119,547,0.967651,-24.9351,0,0,0,0,0,0,0,-1,1105,477,0.967657,24.9351
-112,547,1.15674,-22.2276,0,0,0,0,0,0,0,-1,1112,477,1.15677,22.2276
-105,547,0.966797,-20.5777,0,0,0,0,0,0,0,-1,1119,477,0.966804,20.5777
-98,547,0.70166,-18.9755,0,0,0,0,0,0,0,-1,1126,477,0.701713,18.9755
-91,547,1.37805,-7.12024,0,0,0,0,0,0,0,-1,1133,477,1.37804,7.12025
-84,547,1.94202,-6.66241,0,0,0,0,0,0,0,-1,1140,477,1.94201,6.66241
-77,547,-2.28357,1.8588,0,0,0,0,0,0,0,-1,1147,477,-2.28356,-1.85879
-70,547,-3.70178,-0.874908,0,0,0,0,0,0,0,-1,1154,477,-3.70182,0.874918
-63,547,-5.12012,-3.60861,0,0,0,0,0,0,0,-1,1161,477,-5.12009,3.60862
-56,547,-6.01917,-6.2399,0,0,0,0,0,0,0,-1,1168,477,-6.01921,6.23991
-49,547,-6.729,-8.60349,0,0,0,0,0,0,0,-1,1175,477,-6.72899,8.60348
-42,547,-2.41736,-5.53012,0,0,0,0,0,0,0,-1,1182,477,-2.41734,5.53011
-35,547,-2.96838,-4.45734,0,0,0,0,0,0,0,-1,1189,477,-2.96839,4.45734
-28,547,-0.869141,-1.29901,0,0,0,0,0,0,0,-1,1196,477,-0.869135,1.29901
-21,547,6.88403,-58.9171,0,0,0,0,0,0,0,-1,1203,477,6.88409,58.9171
-14,547,6.85352,-59.0939,0,0,0,0,0,0,0,-1,1210,477,6.85348,59.0939
-7,547,6.10217,-53.0975,0,0,0,0,0,0,0,-1,1217,477,6.10212,53.0975
0,547,6.46191,-59.4719,0,0,0,0,0,0,0,-1,1224,477,6.4619,59.4719
7,547,7.52454,-59.2044,0,0,0,0,0,0,0,-1,1231,477,7.5246,59.2044
14,547,0,0,0,0,0,0,0,0,0,-1,1238,477,0,0
21,547,0,0,0,0,0,0,0,0,0,-1,1245,477,0,0
28,547,0,0,0,0,0,0,0,0,0,-1,1252,477,0,0
35,547,0,0,0,0,0,0,0,0,0,-1,1259,477,0,0
42,547,0,0,0,0,0,0,0,0,0,-1,1266,477,0,0
49,547,0,0,0,0,0,0,0,0,0,-1,1273,477,0,0
56,547,0,0,0,0,0,0,0,0,0,-1,1280,477,0,0
63,547,0,0,0,0,0,0,0,0,0,-1,1287,477,0,0
70,547,0,0,0,0,0,0,0,0,0,-1,1294,477,0,0
77,547,0,0,0,0,0,0,0,0,0,-1,1301,477,0,0
84,547,0,0,0,0,0,0,0,0,0,-1,1308,477,0,0
91,547,0,0,0,0,0,0,0,0,0,-1,1315,477,0,0
98,547,0,0,0,0,0,0,0,0,0,-1,1322,477,0,0
105,547,-1.57922,-65.5082,0.0162174,0.124224,-0.123707,0.205201,-0.0647596,-0.991202,0.16274,0.0446429,1329,477,-1.57918,65.5082
112,547,-2.57654,-65.645,0,0,0,0,0,0,0,-1,1336,477,-2.57653,65.645
119,547,-3.4209,-65.8774,0,0,0,0,0,0,0,-1,1343,477,-3.42091,65.8774
126,547,-5.34509,-77.3874,0.0854962,0.0798902,-0.112708,0.195436,-0.0300498,-0.772966,0.141376,0.0447182,1350,477,-5.34503,77.3874
133,547,-5.71069,-78.7491,0.0969428,0.0593378,-0.110312,0.190043,-0.0337623,-0.700985,0.13932,0.0452295,1357,477,-5.71074,78.7491
140,547,-6.15369,-80.1199,0.095848,0.0309572,-0.103669,0.17203,-0.0452247,-0.633741,0.132362,0.0426739,1364,477,-6.15368,80.1199
147,547,-6.05115,-81.315,0.081202,-1.58366e-05,-0.101747,0.150145,-0.0689588,-0.595527,0.129362,0.0438846,1371,477,-6.05116,81.315
154,547,-5.54907,-82.8379,0.0499226,-0.0301379,-0.106252,0.123435,-0.10365,-0.605247,0.131274,0.0437686,1378,477,-5.54906,82.8379
161,547,-5.20825,-84.0917,0.000265037,-0.0398022,-0.123021,0.104873,-0.14441,-0.704683,0.144526,0.0483818,1385,477,-5.20821,84.0918
168,547,-4.8114,-85.34,0,0,0,0,0,0,0,-1,1392,477,-4.81144,85.3399
175,547,3.35034,-0.26532,0,0,0,0,0,0,0,-1,1399,477,3.3503,0.265306
182,547,4.26038,3.72672,0,0,0,0,0,0,0,-1,1406,477,4.26039,-3.7267
189,547,3.40454,1.28671,0,0,0,0,0,0,0,-1,1413,477,3.40457,-1.28673
196,547,3.53931,1.87793,0,0,0,0,0,0,0,-1,1420,477,3.53928,-1.87794
203,547,6.49414,-0.425842,0,0,0,0,0,0,0,-1,1427,477,6.4941,0.425844
210,547,4.82092,0.53595,0,0,0,0,0,0,0,-1,1434,477,4.82096,-0.535942
217,547,4.68579,0.480072,0,0,0,0,0,0,0,-1,1441,477,4.68577,-0.480069
224,547,4.55615,0.739807,0,0,0,0,0,0,0,-1,1448,477,4.55613,-0.73981
231,547,5.90869,-3.57721,0,0,0,0,0,0,0,-1,1455,477,5.90871,3.57722
238,547,5.50049,-3.15356,0,0,0,0,0,0,0,-1,1462,477,5.50045,3.15356
245,547,5.13708,-2.65213,0,0,0,0,0,0,0,-1,1469,477,5.13708,2.65212
252,547,3.73511,-0.645233,0,0,0,0,0,0,0,-1,1476,477,3.73515,0.645237
259,547,5.86816,-3.20816,0,0,0,0,0,0,0,-1,1483,477,5.86815,3.20816
266,547,5.40222,-2.45731,0,0,0,0,0,0,0,-1,1490,477,5.40221,2.45732
273,547,3.05737,0.495789,0,0,0,0,0,0,0,-1,1497,477,3.05742,-0.49578
280,547,2.0885,1.47797,0,0,0,0,0,0,0,-1,1504,477,2.08848,-1.47795
287,547,16.7034,-52.6257,0,0,0,0,0,0,0,-1,1511,477,16.7033,52.6258
294,547,16.8954,-51.6904,0,0,0,0,0,0,0,-1,1518,477,16.8954,51.6904
301,547,16.5122,-48.5859,0,0,0,0,0,0,0,-1,1525,477,16.5122,48.5859
308,547,14.5352,-46.2472,0,0,0,0,0,0,0,-1,1532,477,14.5351,46.2472
315,547,16.3188,-48.3778,0,0,0,0,0,0,0,-1,1539,477,16.3188,48.3778
322,547,16.3907,-50.8887,0,0,0,0,0,0,0,-1,1546,477,16.3908,50.8887
329,547,16.1351,-50.5443,0,0,0,0,0,0,0,-1,1553,477,16.1351,50.5443
336,547,16.1036,-50.1972,0,0,0,0,0,0,0,-1,1560,477,16.1036,50.1972
343,547,16.2003,-49.3859,0.000221434,-0.0110874,-0.0071347,0.00367067,-0.0145366,-0.450316,0.0111185,0.0486133,1567,477,16.2003,49.3859
350,547,16.1376,-48.5657,0.00054252,-0.00811533,-0.00561026,0.00329982,-0.0108726,-0.456804,0.00856299,0.0295913,1574,477,16.1376,48.5657
357,547,16.0955,-47.7419,0.000949216,-0.00601499,-0.00436672,0.0030522,-0.00811798,-0.448816,0.00666651,0.015439,1581,477,16.0955,47.7419
364,547,16.0406,-46.9043,0.00115437,-0.0044157,-0.00330319,0.00268992,-0.00595126,-0.435151,0.00510605,0.0105479,1588,477,16.0407,46.9043
371,547,16.0249,-46.0444,0.00132214,-0.00303109,-0.00231461,0.0023228,-0.00403175,-0.408057,0.00371277,0.0101991,1595,477,16.0249,46.0444
378,547,15.9993,-45.207,0.00150572,-0.0012792,-0.00124877,0.00198366,-0.00175714,-0.365525,0.00216107,0.0114967,1602,477,15.9993,45.207
385,547,15.9548,-44.3551,0.00161181,-5.85094e-05,-0.000364607,0.00168793,-0.000134629,-0.205816,0.00117274,0.0114724,1609,477,15.9548,44.3551
392,547,15.9066,-43.4915,0.00162464,0.000821294,0.00030482,0.0017272,0.000718728,0.32458,0.00100187,0.0124517,1616,477,15.9066,43.4915
399,547,15.8307,-42.6238,0.00159123,0.00162681,0.000931576,0.00254077,0.000677275,0.794947,0.00151927,0.0148678,1623,477,15.8307,42.6239
406,547,15.7949,-41.7642,0.00145578,0.00243326,0.00146745,0.00349122,0.000397818,0.946147,0.00220686,0.014085,1630,477,15.7949,41.7641
413,547,15.8069,-40.9124,0.00121448,0.00324564,0.0019001,0.00438455,7.55817e-05,1.03083,0.00289817,0.0137286,1637,477,15.8069,40.9124
420,547,15.7883,-40.0575,0.000757638,0.00381291,0.00216864,0.00493795,-0.000367394,1.09224,0.00342101,0.0164202,1644,477,15.7883,40.0575
427,547,15.7549,-39.1476,0.000178405,0.00414728,0.00230638,0.00520543,-0.000879749,1.14065,0.00379766,0.0179101,1651,477,15.7549,39.1476
434,547,15.6401,-38.2761,-0.000375465,0.00444154,0.00245804,0.00547438,-0.0014083,1.17301,0.00419851,0.0120949,1658,477,15.6402,38.2761
441,547,15.5538,-37.4055,-0.0010483,0.00467174,0.00256064,0.00565055,-0.00202711,1.20568,0.0045943,0.0116608,1665,477,15.5538,37.4055
448,547,15.4944,-36.462,-0.00184745,0.00467412,0.00252659,0.00553842,-0.00271175,1.24119,0.00485554,0.0118334,1672,477,15.4943,36.462
455,547,15.444,-35.5397,-0.00268741,0.00454548,0.00241292,0.00527655,-0.00341848,1.27661,0.00505814,0.0122227,1679,477,15.4439,35.5397
462,547,15.3639,-34.628,-0.00333856,0.0043828,0.00224967,0.00499044,-0.0039462,1.30699,0.0051713,0.0126333,1686,477,15.364,34.628
469,547,15.188,-33.748,-0.00360423,0.00420185,0.00204599,0.0047056,-0.00410798,1.32938,0.00509242,0.0212629,1693,477,15.1879,33.748
476,547,15.0375,-32.7643,-0.00383281,0.0038538,0.00176976,0.00424169,-0.00422071,1.35503,0.00488578,0.037028,1700,477,15.0374,32.7643
483,547,14.9607,-31.6973,0,0,0,0,0,0,0,-1,1707,477,14.9607,31.6973
490,547,3.65271,-3.71707,0,0,0,0,0,0,0,-1,1714,477,3.65277,3.71708
497,547,2.55481,-3.81421,0,0,0,0,0,0,0,-1,1721,477,2.55476,3.8142
504,547,4.01953,-2.22714,0,0,0,0,0,0,0,-1,1728,477,4.0195,2.22713
511,547,5.2146,-6.9552,0,0,0,0,0,0,0,-1,1735,477,5.21464,6.95521
518,547,5.24243,-6.56122,0,0,0,0,0,0,0,-1,1742,477,5.24241,6.56121
525,547,5.89368,-5.49866,0,0,0,0,0,0,0,-1,1749,477,5.89372,5.49866
532,547,0,0,0,0,0,0,0,0,0,-1,1756,477,0,0
539,547,0,0,0,0,0,0,0,0,0,-1,1763,477,0,0
546,547,0,0,0,0,0,0,0,0,0,-1,1770,477,0,0
553,547,0,0,0,0,0,0,0,0,0,-1,1777,477,0,0
560,547,0,0,0,0,0,0,0,0,0,-1,1784,477,0,0
567,547,0,0,0,0,0,0,0,0,0,-1,1791,477,0,0
574,547,0,0,0,0,0,0,0,0,0,-1,1798,477,0,0
581,547,0,0,0,0,0,0,0,0,0,-1,1805,477,0,0
588,547,0,0,0,0,0,0,0,0,0,-1,1812,477,0,0
595,547,0,0,0,0,0,0,0,0,0,-1,1819,477,0,0
602,547,0,0,0,0,0,0,0,0,0,-1,1826,477,0,0
609,547,0,0,0,0,0,0,0,0,0,-1,1833,477,0,0
616,547,0,0,0,0,0,0,0,0,0,-1,1840,477,0,0
623,547,0,0,0,0,0,0,0,0,0,-1,1847,477,0,0
630,547,0,0,0,0,0,0,0,0,0,-1,1854,477,0,0
637,547,0,0,0,0,0,0,0,0,0,-1,1861,477,0,0
644,547,0,0,0,0,0,0,0,0,0,-1,1868,477,0,0
651,547,0,0,0,0,0,0,0,0,0,-1,1875,477,0,0
658,547,0,0,0,0,0,0,0,0,0,-1,1882,477,0,0
665,547,0,0,0,0,0,0,0,0,0,-1,1889,477,0,0
672,547,0,0,0,0,0,0,0,0,0,-1,1896,477,0,0
679,547,0,0,0,0,0,0,0,0,0,-1,1903,477,0,0
686,547,0,0,0,0,0,0,0,0,0,-1,1910,477,0,0
693,547,0,0,0,0,0,0,0,0,0,-1,1917,477,0,0
700,547,0,0,0,0,0,0,0,0,0,-1,1924,477,0,0
707,547,0,0,0,0,0,0,0,0,0,-1,1931,477,0,0
714,547,0,0,0,0,0,0,0,0,0,-1,1938,477,0,0
721,547,0,0,0,0,0,0,0,0,0,-1,1945,477,0,0
728,547,0,0,0,0,0,0,0,0,0,-1,1952,477,0,0
735,547,0,0,0,0,0,0,0,0,0,-1,1959,477,0,0
742,547,0,0,0,0,0,0,0,0,0,-1,1966,477,0,0
749,547,0,0,0,0,0,0,0,0,0,-1,1973,477,0,0
756,547,0,0,0,0,0,0,0,0,0,-1,1980,477,0,0
763,547,0,0,0,0,0,0,0,0,0,-1,1987,477,0,0
770,547,0,0,0,0,0,0,0,0,0,-1,1994,477,0,0
777,547,0,0,0,0,0,0,0,0,0,-1,2001,477,0,0
784,547,0,0,0,0,0,0,0,0,0,-1,2008,477,0,0
791,547,0,0,0,0,0,0,0,0,0,-1,2015,477,0,0
798,547,0,0,0,0,0,0,0,0,0,-1,2022,477,0,0
805,547,0,0,0,0,0,0,0,0,0,-1,2029,477,0,0
812,547,0,0,0,0,0,0,0,0,0,-1,2036,477,0,0
-700,540,0,0,0,0,0,0,0,0,0,-1,524,484,0,0
-693,540,0,0,0,0,0,0,0,0,0,-1,531,484,0,0
-686,540,0,0,0,0,0,0,0,0,0,-1,538,484,0,0
-679,540,0,0,0,0,0,0,0,0,0,-1,545,484,0,0
-672,540,0,0,0,0,0,0,0,0,0,-1,552,484,0,0
-665,540,0,0,0,0,0,0,0,0,0,-1,559,484,0,0
-658,540,0,0,0,0,0,0,0,0,0,-1,566,484,0,0
-651,540,0,0,0,0,0,0,0,0,0,-1,573,484,0,0
-644,540,0,0,0,0,0,0,0,0,0,-1,580,484,0,0
-637,540,0,0,0,0,0,0,0,0,0,-1,587,484,0,0
-630,540,0,0,0,0,0,0,0,0,0,-1,594,484,0,0
-623,540,0,0,0,0,0,0,0,0,0,-1,601,484,0,0
-616,540,0,0,0,0,0,0,0,0,0,-1,608,484,0,0
-609,540,0,0,0,0,0,0,0,0,0,-1,615,484,0,0
-602,540,0,0,0,0,0,0,0,0,0,-1,622,484,0,0
-595,540,0,0,0,0,0,0,0,0,0,-1,629,484,0,0
-588,540,0,0,0,0,0,0,0,0,0,-1,636,484,0,0
-581,540,0,0,0,0,0,0,0,0,0,-1,643,484,0,0
-574,540,0,0,0,0,0,0,0,0,0,-1,650,484,0,0
-567,540,0,0,0,0,0,0,0,0,0,-1,657,484,0,0
-560,540,0,0,0,0,0,0,0,0,0,-1,664,484,0,0
-553,540,0,0,0,0,0,0,0,0,0,-1,671,484,0,0
-546,540,0,0,0,0,0,0,0,0,0,-1,678,484,0,0
-539,540,0,0,0,0,0,0,0,0,0,-1,685,484,0,0
-532,540,0,0,0,0,0,0,0,0,0,-1,692,484,0,0
-525,540,0,0,0,0,0,0,0,0,0,-1,699,484,0,0
-518,540,0,0,0,0,0,0,0,0,0,-1,706,484,0,0
-511,540,0,0,0,0,0,0,0,0,0,-1,713,484,0,0
-504,540,0,0,0,0,0,0,0,0,0,-1,720,484,0,0
-497,540,0,0,0,0,0,0,0,0,0,-1,727,484,0,0
-490,540,0,0,0,0,0,0,0,0,0,-1,734,484,0,0
-483,540,0,0,0,0,0,0,0,0,0,-1,741,484,0,0
-476,540,0,0,0,0,0,0,0,0,0,-1,748,484,0,0
-469,540,0,0,0,0,0,0,0,0,0,-1,755,484,0,0
-462,540,0,0,0,0,0,0,0,0,0,-1,762,484,0,0
-455,540,0,0,0,0,0,0,0,0,0,-1,769,484,0,0
-448,540,0,0,0,0,0,0,0,0,0,-1,776,484,0,0
-441,540,0,0,0,0,0,0,0,0,0,-1,783,484,0,0
-434,540,0,0,0,0,0,0,0,0,0,-1,790,484,0,0
-427,540,0,0,0,0,0,0,0,0,0,-1,797,484,0,0
-420,540,0.227051,-10.0402,0,0,0,0,0,0,0,-1,804,484,0.227063,10.0402
-413,540,-0.0393677,-10.3862,0,0,0,0,0,0,0,-1,811,484,-0.0393683,10.3862
-406,540,-0.518372,-11.5288,0,0,0,0,0,0,0,-1,818,484,-0.518402,11.5288
-399,540,0.0863037,-11.3801,0,0,0,0,0,0,0,-1,825,484,0.0863201,11.3801
-392,540,-0.517395,-10.6735,0,0,0,0,0,0,0,-1,832,484,-0.517377,10.6735
-385,540,-0.41748,-29.7767,0,0,0,0,0,0,0,-1,839,484,-0.417475,29.7767
-378,540,-0.0524292,-30.2798,0,0,0,0,0,0,0,-1,846,484,-0.0524504,30.2798
-371,540,0.192383,-30.805,0,0,0,0,0,0,0,-1,853,484,0.192363,30.805
-364,540,0.133728,-30.5247,0,0,0,0,0,0,0,-1,860,484,0.1337,30.5247
-357,540,0.16449,-31.5469,0,0,0,0,0,0,0,-1,867,484,0.164496,31.5469
-350,540,0.00976563,-32.6266,0.00328895,0.0186252,-0.0131684,0.0261954,-0.00428129,-1.04905,0.0190518,0.0351832,874,484,0.00976861,32.6266
-343,540,-0.081604,-33.8425,0.00164882,0.0145446,-0.0102822,0.0202333,-0.00403993,-1.06545,0.0150178,0.0179107,881,484,-0.0816331,33.8425
-336,540,-0.185059,-34.9413,0.00062981,0.0114248,-0.00806516,0.015732,-0.00367731,-1.08029,0.0119046,0.0138096,888,484,-0.185033,34.9413
-329,540,-0.260498,-35.8251,-1.6616e-05,0.00895127,-0.00625483,0.0121633,-0.00322869,-1.09638,0.00937237,0.0116009,895,484,-0.260523,35.8251
-322,540,-0.2901,-36.7259,-0.000527211,0.00667307,-0.00459117,0.0089073,-0.00276144,-1.1179,0.00704154,0.0152099,902,484,-0.290115,36.7259
-315,540,-0.355713,-37.6437,-0.000728726,0.00498022,-0.00328718,0.00647932,-0.00222782,-1.14293,0.005223,0.0139318,909,484,-0.355741,37.6437
-308,540,-0.385559,-38.5419,-0.000667052,0.00382076,-0.00235842,0.0048322,-0.00167849,-1.16566,0.00390318,0.0129508,916,484,-0.385565,38.5419
-301,540,-0.466064,-39.4037,-0.000329186,0.00295436,-0.00174164,0.00370607,-0.00108089,-1.16334,0.00289897,0.01287,923,484,-0.466047,39.4037
-294,540,-0.517517,-40.2786,0.00012961,0.00203724,-0.00111812,0.0025531,-0.000386251,-1.13853,0.00184435,0.0118002,930,484,-0.517499,40.2786
-287,540,-0.545593,-41.1604,0.000584999,0.00113842,-0.000524671,0.00145488,0.000268541,-1.02806,0.000893951,0.00889598,937,484,-0.545587,41.1604
-280,540,-0.602417,-42.0255,0.000940082,-0.00034813,3.09732e-05,0.000940826,-0.000348875,0.024025,0.00077031,0.0105477,944,484,-0.602394,42.0255
-273,540,-0.648499,-42.8943,0.00124072,-0.00226953,0.000777086,0.00140506,-0.00243387,0.208405,0.00224278,0.0127994,951,484,-0.648498,42.8944
-266,540,-0.689758,-43.7549,0.00162433,-0.00473958,0.00174379,0.00207083,-0.00518607,0.250663,0.00431654,0.0136796,958,484,-0.689775,43.755
-259,540,-0.743408,-44.6059,0.0018968,-0.00769878,0.00287035,0.00268987,-0.00849185,0.269571,0.00673923,0.0127972,965,484,-0.74338,44.6059
-252,540,-0.759155,-45.4202,0.00198787,-0.0113172,0.00428571,0.00324884,-0.0125782,0.286151,0.00965239,0.01249,972,484,-0.759162,45.4202
-245,540,-0.779114,-46.2413,0.00207563,-0.0152359,0.00571898,0.0037943,-0.0169546,0.291935,0.0127573,0.0131969,979,484,-0.779128,46.2413
-238,540,-0.842102,-47.0479,0.00215391,-0.019583,0.00733922,0.00439985,-0.021829,0.29697,0.0162194,0.0111444,986,484,-0.842096,47.0479
-231,540,-0.861633,-47.8378,0.00226587,-0.0243587,0.00913823,0.00510054,-0.0271933,0.300788,0.0200465,0.0140248,993,484,-0.861648,47.8378
-224,540,-0.889343,-48.5873,0.00225162,-0.0293095,0.0110736,0.0057493,-0.0328072,0.305941,0.0240184,0.0189789,1000,484,-0.889341,48.5874
-217,540,-0.889282,-49.1337,0.00226773,-0.0342251,0.0130809,0.00647216,-0.0384295,0.310989,0.0280273,0.0289803,1007,484,-0.889309,49.1338
-210,540,-0.90387,-49.6325,0.00232939,-0.0390068,0.0149782,0.00718609,-0.0438635,0.313556,0.0319086,0.0393349,1014,484,-0.903848,49.6325
-203,540,-1.01898,-50.1789,0.00256865,-0.0431045,0.0165801,0.00795279,-0.0484886,0.313992,0.0352768,0.0450495,1021,484,-1.01901,50.1789
-196,540,-1.09546,-50.6412,0,0,0,0,0,0,0,-1,1028,484,-1.09543,50.6412
-189,540,-1.2511,-49.0358,0,0,0,0,0,0,0,-1,1035,484,-1.25113,49.0358
-182,540,-0.826782,-43.3494,0,0,0,0,0,0,0,-1,1042,484,-0.826777,43.3494
-175,540,1.73413,-10.728,0,0,0,0,0,0,0,-1,1049,484,1.73414,10.728
-168,540,1.18164,-7.65347,0,0,0,0,0,0,0,-1,1056,484,1.18163,7.65347
-161,540,-0.405884,-9.86481,0,0,0,0,0,0,0,-1,1063,484,-0.405886,9.8648
-154,540,1.96863,-22.0727,0,0,0,0,0,0,0,-1,1070,484,1.96859,22.0727
-147,540,1.32764,-21.9952,0,0,0,0,0,0,0,-1,1077,484,1.32762,21.9952
-140,540,1.40735,-15.6289,0,0,0,0,0,0,0,-1,1084,484,1.4073,15.6289
-133,540,2.28345,-17.6413,0,0,0,0,0,0,0,-1,1091,484,2.2835,17.6413
-126,540,1.25293,-23.9108,0,0,0,0,0,0,0,-1,1098,484,1.25288,23.9108
-119,540,1.55969,-23.0125,0,0,0,0,0,0,0,-1,1105,484,1.55968,23.0125
-112,540,1.4801,-21.6515,0,0,0,0,0,0,0,-1,1112,484,1.4801,21.6515
-105,540,1.30078,-19.8938,0,0,0,0,0,0,0,-1,1119,484,1.30077,19.8938
-98,540,1.08105,-18.1304,0,0,0,0,0,0,0,-1,1126,484,1.08101,18.1304
-91,540,1.56519,-7.48666,0,0,0,0,0,0,0,-1,1133,484,1.56514,7.48667
-84,540,-0.945923,4.43073,0,0,0,0,0,0,0,-1,1140,484,-0.945891,-4.43074
-77,540,-2.28894,2.14368,0,0,0,0,0,0,0,-1,1147,484,-2.28894,-2.14368
-70,540,-3.75244,-0.452576,0,0,0,0,0,0,0,-1,1154,484,-3.75244,0.452576
-63,540,-5.26257,-3.04767,0,0,0,0,0,0,0,-1,1161,484,-5.26262,3.04766
-56,540,-5.19055,-6.12595,0,0,0,0,0,0,0,-1,1168,484,-5.19057,6.12595
-49,540,-5.63867,-8.52298,0,0,0,0,0,0,0,-1,1175,484,-5.63871,8.52298
-42,540,0,0,0,0,0,0,0,0,0,-1,1182,484,0,0
-35,540,0,0,0,0,0,0,0,0,0,-1,1189,484,0,0
-28,540,0,0,0,0,0,0,0,0,0,-1,1196,484,0,0
-21,540,0,0,0,0,0,0,0,0,0,-1,1203,484,0,0
-14,540,0,0,0,0,0,0,0,0,0,-1,1210,484,0,0
-7,540,0,0,0,0,0,0,0,0,0,-1,1217,484,0,0
0,540,0,0,0,0,0,0,0,0,0,-1,1224,484,0,0
7,540,0,0,0,0,0,0,0,0,0,-1,1231,484,0,0
14,540,0,0,0,0,0,0,0,0,0,-1,1238,484,0,0
21,540,0,0,0,0,0,0,0,0,0,-1,1245,484,0,0
28,540,0,0,0,0,0,0,0,0,0,-1,1252,484,0,0
35,540,0,0,0,0,0,0,0,0,0,-1,1259,484,0,0
42,540,0,0,0,0,0,0,0,0,0,-1,1266,484,0,0
49,540,0,0,0,0,0,0,0,0,0,-1,1273,484,0,0
56,540,0,0,0,0,0,0,0,0,0,-1,1280,484,0,0
63,540,0,0,0,0,0,0,0,0,0,-1,1287,484,0,0
70,540,0,0,0,0,0,0,0,0,0,-1,1294,484,0,0
77,540,0,0,0,0,0,0,0,0,0,-1,1301,484,0,0
84,540,0,0,0,0,0,0,0,0,0,-1,1308,484,0,0
91,540,0,0,0,0,0,0,0,0,0,-1,1315,484,0,0
98,540,0,0,0,0,0,0,0,0,0,-1,1322,484,0,0
105,540,0,0,0,0,0,0,0,0,0,-1,1329,484,0,0
112,540,0,0,0,0,0,0,0,0,0,-1,1336,484,0,0
119,540,0,0,0,0,0,0,0,0,0,-1,1343,484,0,0
126,540,0,0,0,0,0,0,0,0,0,-1,1350,484,0,0
133,540,0,0,0,0,0,0,0,0,0,-1,1357,484,0,0
140,540,0,0,0,0,0,0,0,0,0,-1,1364,484,0,0
147,540,0,0,0,0,0,0,0,0,0,-1,1371,484,0,0
154,540,0,0,0,0,0,0,0,0,0,-1,1378,484,0,0
161,540,0,0,0,0,0,0,0,0,0,-1,1385,484,0,0
168,540,3.05078,-0.0010376,0,0,0,0,0,0,0,-1,1392,484,3.05084,0.00102554
175,540,3.37708,0.617035,0,0,0,0,0,0,0,-1,1399,484,3.37707,-0.617046
182,540,3.32678,1.23267,0,0,0,0,0,0,0,-1,1406,484,3.32678,-1.23266
189,540,3.5813,2.15619,0,0,0,0,0,0,0,-1,1413,484,3.58129,-2.1562
196,540,1.84448,-0.801483,0,0,0,0,0,0,0,-1,1420,484,1.84446,0.80148
203,540,4.14648,0.702087,0,0,0,0,0,0,0,-1,1427,484,4.14645,-0.702089
210,540,4.50671,-0.56076,0,0,0,0,0,0,0,-1,1434,484,4.50667,0.560771
217,540,5.00452,-0.278717,0,0,0,0,0,0,0,-1,1441,484,5.00452,0.278709
224,540,6.44458,-2.83527,0,0,0,0,0,0,0,-1,1448,484,6.44457,2.83525
231,540,6.9231,-3.10504,0,0,0,0,0,0,0,-1,1455,484,6.92307,3.10505
238,540,6.4823,-2.58365,0,0,0,0,0,0,0,-1,1462,484,6.48225,2.58363
245,540,6.02087,-1.97916,0,0,0,0,0,0,0,-1,1469,484,6.02088,1.97915
252,540,6.50647,-3.56006,0,0,0,0,0,0,0,-1,1476,484,6.50649,3.56006
259,540,6.01941,-2.798,0,0,0,0,0,0,0,-1,1483,484,6.01941,2.79801
266,540,5.5332,-2.02853,0,0,0,0,0,0,0,-1,1490,484,5.53323,2.02855
273,540,5.06787,-1.28137,0,0,0,0,0,0,0,-1,1497,484,5.06786,1.28136
280,540,1.62903,-2.14609,0,0,0,0,0,0,0,-1,1504,484,1.62906,2.1461
287,540,1.97156,-2.45053,0,0,0,0,0,0,0,-1,1511,484,1.97159,2.45053
294,540,2.44165,-2.6185,0,0,0,0,0,0,0,-1,1518,484,2.44167,2.6185
301,540,4.36169,-2.54272,0,0,0,0,0,0,0,-1,1525,484,4.36165,2.54272
308,540,4.2019,-4.30469,0,0,0,0,0,0,0,-1,1532,484,4.20193,4.3047
315,540,4.45923,-5.32101,0,0,0,0,0,0,0,-1,1539,484,4.45923,5.32103
322,540,4.71655,-6.33737,0,0,0,0,0,0,0,-1,1546,484,4.71653,6.33736
329,540,15.0289,-44.3801,0,0,0,0,0,0,0,-1,1553,484,15.0289,44.3801
336,540,17.1764,-48.0145,0,0,0,0,0,0,0,-1,1560,484,17.1764,48.0145
343,540,17.1394,-49.5037,0,0,0,0,0,0,0,-1,1567,484,17.1394,49.5037
350,540,17.1398,-48.279,0,0,0,0,0,0,0,-1,1574,484,17.1398,48.279
357,540,17.0039,-47.4991,0.000833302,-0.00757778,-0.00557696,0.00361268,-0.0103571,-0.462341,0.00837294,0.0340575,1581,484,17.0039,47.4991
364,540,16.8448,-46.7935,0.00124131,-0.00569476,-0.00433837,0.00332744,-0.00778089,-0.448215,0.00658295,0.0197874,1588,484,16.8448,46.7935
371,540,16.8295,-45.9769,0.00155439,-0.00408824,-0.00322015,0.00301433,-0.00554818,-0.425659,0.0050152,0.0159016,1595,484,16.8295,45.9769
378,540,16.834,-45.1461,0.00185598,-0.00205472,-0.00198595,0.00268764,-0.00288637,-0.396581,0.00321884,0.013551,1602,484,16.834,45.1461
385,540,16.8077,-44.3094,0.00206063,-0.000745661,-0.000946884,0.00235024,-0.00103527,-0.296816,0.00200317,0.0148192,1609,484,16.8078,44.3094
392,540,16.7473,-43.4478,0.00206835,3.75115e-05,-0.000321648,0.00211808,-1.22143e-05,-0.153382,0.00141614,0.0135553,1616,484,16.7474,43.4478
399,540,16.6854,-42.6125,0.00199636,0.000674353,0.000214062,0.00203015,0.000640555,0.156593,0.00119841,0.0183219,1623,484,16.6855,42.6125
406,540,16.6775,-41.7413,0.00188672,0.00137796,0.000726549,0.00240214,0.000862549,0.617006,0.00140512,0.0192435,1630,484,16.6775,41.7413
413,540,16.6733,-40.8684,0.0017357,0.00217469,0.00120322,0.00317828,0.000732116,0.875617,0.00192187,0.0162091,1637,484,16.6733,40.8684
420,540,16.6533,-39.962,0.00134392,0.00272003,0.00150878,0.00369024,0.000373718,0.999328,0.00234553,0.0156152,1644,484,16.6534,39.962
427,540,16.5927,-39.087,0.000816072,0.00307351,0.00169388,0.00398028,-9.0702e-05,1.07929,0.00268427,0.0169832,1651,484,16.5927,39.0869
434,540,16.4857,-38.2296,0.000316587,0.00334449,0.00189239,0.004254,-0.000592932,1.12277,0.0030529,0.0196639,1658,484,16.4857,38.2296
441,540,16.4482,-37.3185,-0.000241482,0.00360499,0.00207261,0.00450921,-0.00114571,1.15941,0.00345201,0.0210944,1665,484,16.4482,37.3186
448,540,16.3802,-36.4175,-0.00089536,0.00364672,0.00212985,0.00448917,-0.00173782,1.19413,0.00371029,0.012654,1672,484,16.3803,36.4175
455,540,16.3248,-35.4917,-0.00156409,0.00360421,0.00212634,0.00436657,-0.00232646,1.22654,0.0039236,0.0115195,1679,484,16.3249,35.4917
462,540,16.2489,-34.58,-0.00200671,0.00355421,0.00209832,0.00425712,-0.00270963,1.24756,0.0040552,0.0120023,1686,484,16.2489,34.58
469,540,16.1539,-33.6685,-0.00201962,0.00355788,0.00208266,0.00424974,-0.00271147,1.25007,0.00405164,0.0163687,1693,484,16.1539,33.6685
476,540,16.0784,-32.7871,-0.00202364,0.00349006,0.00203172,0.00415784,-0.00269142,1.25324,0.00398452,0.0233605,1700,484,16.0783,32.7871
483,540,16.0807,-31.8091,-0.00166685,0.00355791,0.00207377,0.00428096,-0.00238989,1.23531,0.00390266,0.0381706,1707,484,16.0807,31.8091
490,540,16.2177,-30.7283,0,0,0,0,0,0,0,-1,1714,484,16.2177,30.7283
497,540,10.3452,-16.9359,0,0,0,0,0,0,0,-1,1721,484,10.3453,16.9359
504,540,12.519,-18.0764,0,0,0,0,0,0,0,-1,1728,484,12.519,18.0765
511,540,5.82471,-6.83521,0,0,0,0,0,0,0,-1,1735,484,5.82465,6.83522
518,540,9.98181,-12.4608,0,0,0,0,0,0,0,-1,1742,484,9.98187,12.4608
525,540,12.4843,-16.3481,0,0,0,0,0,0,0,-1,1749,484,12.4842,16.3481
532,540,2.84265,-1.07925,0,0,0,0,0,0,0,-1,1756,484,2.84269,1.07927
539,540,0,0,0,0,0,0,0,0,0,-1,1763,484,0,0
546,540,0,0,0,0,0,0,0,0,0,-1,1770,484,0,0
553,540,0,0,0,0,0,0,0,0,0,-1,1777,484,0,0
560,540,0,0,0,0,0,0,0,0,0,-1,1784,484,0,0
567,540,0,0,0,0,0,0,0,0,0,-1,1791,484,0,0
574,540,0,0,0,0,0,0,0,0,0,-1,1798,484,0,0
581,540,0,0,0,0,0,0,0,0,0,-1,1805,484,0,0
588,540,0,0,0,0,0,0,0,0,0,-1,1812,484,0,0
595,540,0,0,0,0,0,0,0,0,0,-1,1819,484,0,0
602,540,0,0,0,0,0,0,0,0,0,-1,1826,484,0,0
609,540,0,0,0,0,0,0,0,0,0,-1,1833,484,0,0
616,540,0,0,0,0,0,0,0,0,0,-1,1840,484,0,0
623,540,0,0,0,0,0,0,0,0,0,-1,1847,484,0,0
630,540,0,0,0,0,0,0,0,0,0,-1,1854,484,0,0
637,540,0,0,0,0,0,0,0,0,0,-1,1861,484,0,0
644,540,0,0,0,0,0,0,0,0,0,-1,1868,484,0,0
651,540,0,0,0,0,0,0,0,0,0,-1,1875,484,0,0
658,540,0,0,0,0,0,0,0,0,0,-1,1882,484,0,0
665,540,0,0,0,0,0,0,0,0,0,-1,1889,484,0,0
672,540,0,0,0,0,0,0,0,0,0,-1,1896,484,0,0
679,540,0,0,0,0,0,0,0,0,0,-1,1903,484,0,0
686,540,0,0,0,0,0,0,0,0,0,-1,1910,484,0,0
693,540,0,0,0,0,0,0,0,0,0,-1,1917,484,0,0
700,540,0,0,0,0,0,0,0,0,0,-1,1924,484,0,0
707,540,0,0,0,0,0,0,0,0,0,-1,1931,484,0,0
714,540,0,0,0,0,0,0,0,0,0,-1,1938,484,0,0
721,540,0,0,0,0,0,0,0,0,0,-1,1945,484,0,0
728,540,0,0,0,0,0,0,0,0,0,-1,1952,484,0,0
735,540,0,0,0,0,0,0,0,0,0,-1,1959,484,0,0
742,540,0,0,0,0,0,0,0,0,0,-1,1966,484,0,0
749,540,0,0,0,0,0,0,0,0,0,-1,1973,484,0,0
756,540,0,0,0,0,0,0,0,0,0,-1,1980,484,0,0
763,540,0,0,0,0,0,0,0,0,0,-1,1987,484,0,0
770,540,0,0,0,0,0,0,0,0,0,-1,1994,484,0,0
777,540,0,0,0,0,0,0,0,0,0,-1,2001,484,0,0
784,540,0,0,0,0,0,0,0,0,0,-1,2008,484,0,0
791,540,0,0,0,0,0,0,0,0,0,-1,2015,484,0,0
798,540,0,0,0,0,0,0,0,0,0,-1,2022,484,0,0
805,540,0,0,0,0,0,0,0,0,0,-1,2029,484,0,0
812,540,0,0,0,0,0,0,0,0,0,-1,2036,484,0,0
-700,533,0,0,0,0,0,0,0,0,0,-1,524,491,0,0
-693,533,0,0,0,0,0,0,0,0,0,-1,531,491,0,0
-686,533,0,0,0,0,0,0,0,0,0,-1,538,491,0,0
-679,533,0,0,0,0,0,0,0,0,0,-1,545,491,0,0
-672,533,0,0,0,0,0,0,0,0,0,-1,552,491,0,0
-665,533,0,0,0,0,0,0,0,0,0,-1,559,491,0,0
-658,533,0,0,0,0,0,0,0,0,0,-1,566,491,0,0
-651,533,0,0,0,0,0,0,0,0,0,-1,573,491,0,0
-644,533,0,0,0,0,0,0,0,0,0,-1,580,491,0,0
-637,533,0,0,0,0,0,0,0,0,0,-1,587,491,0,0
-630,533,0,0,0,0,0,0,0,0,0,-1,594,491,0,0
-623,533,0,0,0,0,0,0,0,0,0,-1,601,491,0,0
-616,533,0,0,0,0,0,0,0,0,0,-1,608,491,0,0
-609,533,0,0,0,0,0,0,0,0,0,-1,615,491,0,0
-602,533,0,0,0,0,0,0,0,0,0,-1,622,491,0,0
-595,533,0,0,0,0,0,0,0,0,0,-1,629,491,0,0
-588,533,0,0,0,0,0,0,0,0,0,-1,636,491,0,0
-581,533,0,0,0,0,0,0,0,0,0,-1,643,491,0,0
-574,533,0,0,0,0,0,0,0,0,0,-1,650,491,0,0
-567,533,0,0,0,0,0,0,0,0,0,-1,657,491,0,0
-560,533,0,0,0,0,0,0,0,0,0,-1,664,491,0,0
-553,533,0,0,0,0,0,0,0,0,0,-1,671,491,0,0
-546,533,0,0,0,0,0,0,0,0,0,-1,678,491,0,0
-539,533,0,0,0,0,0,0,0,0,0,-1,685,491,0,0
-532,533,0,0,0,0,0,0,0,0,0,-1,692,491,0,0
-525,533,0,0,0,0,0,0,0,0,0,-1,699,491,0,0
-518,533,0,0,0,0,0,0,0,0,0,-1,706,491,0,0
-511,533,0,0,0,0,0,0,0,0,0,-1,713,491,0,0
-504,533,0,0,0,0,0,0,0,0,0,-1,720,491,0,0
-497,533,0,0,0,0,0,0,0,0,0,-1,727,491,0,0
-490,533,0,0,0,0,0,0,0,0,0,-1,734,491,0,0
-483,533,0,0,0,0,0,0,0,0,0,-1,741,491,0,0
-476,533,0,0,0,0,0,0,0,0,0,-1,748,491,0,0
-469,533,0,0,0,0,0,0,0,0,0,-1,755,491,0,0
-462,533,0,0,0,0,0,0,0,0,0,-1,762,491,0,0
-455,533,0,0,0,0,0,0,0,0,0,-1,769,491,0,0
-448,533,0,0,0,0,0,0,0,0,0,-1,776,491,0,0
-441,533,0,0,0,0,0,0,0,0,0,-1,783,491,0,0
-434,533,0,0,0,0,0,0,0,0,0,-1,790,491,0,0
-427,533,0.559814,-4.40222,0,0,0,0,0,0,0,-1,797,491,0.559816,4.40222
-420,533,-1.11127,-10.9054,0,0,0,0,0,0,0,-1,804,491,-1.11124,10.9054
-413,533,-0.704773,-11.0942,0,0,0,0,0,0,0,-1,811,491,-0.704742,11.0942
-406,533,-0.670898,-12.0899,0,0,0,0,0,0,0,-1,818,491,-0.670908,12.0899
-399,533,-0.455017,-12.4423,0,0,0,0,0,0,0,-1,825,491,-0.455032,12.4423
-392,533,-1.89661,-10.3905,0,0,0,0,0,0,0,-1,832,491,-1.89661,10.3905
-385,533,0.797729,-17.0485,0,0,0,0,0,0,0,-1,839,491,0.797746,17.0485
-378,533,-1.89435,-19.6771,0,0,0,0,0,0,0,-1,846,491,-1.89433,19.6771
-371,533,-0.857605,-29.2228,0,0,0,0,0,0,0,-1,853,491,-0.857577,29.2228
-364,533,-0.876709,-30.7194,0.00739418,0.0253482,-0.017699,0.0362166,-0.00347429,-1.02009,0.0253819,0.0493494,860,491,-0.876699,30.7194
-357,533,-0.785034,-31.9042,0.00523674,0.0203024,-0.0142536,0.0288912,-0.00335208,-1.02849,0.0204699,0.023923,867,491,-0.785055,31.9042
-350,533,-0.884277,-32.925,0.00339116,0.0158349,-0.0112037,0.0224285,-0.00320236,-1.03887,0.0161261,0.0126508,874,491,-0.884248,32.925
-343,533,-0.975464,-33.9227,0.00202529,0.0121848,-0.00867225,0.0171555,-0.00294543,-1.05033,0.0125347,0.0117451,881,491,-0.97544,33.9227
-336,533,-1.06427,-34.8896,0.0010983,0.00930571,-0.00664602,0.0130129,-0.00260889,-1.06198,0.00966301,0.0163753,888,491,-1.06429,34.8897
-329,533,-1.11224,-35.7844,0.000479038,0.00700976,-0.00497009,0.0096912,-0.00220239,-1.07604,0.00730642,0.0158842,895,491,-1.11223,35.7844
-322,533,-1.17871,-36.6663,-3.04407e-05,0.0048426,-0.00339177,0.00658229,-0.00177013,-1.09687,0.00508206,0.0131903,902,491,-1.17871,36.6662
-315,533,-1.24847,-37.5693,-0.000217608,0.00327771,-0.00216781,0.0043146,-0.0012545,-1.12465,0.00337324,0.0143063,909,491,-1.2485,37.5693
-308,533,-1.28192,-38.4899,-0.000110884,0.00223288,-0.00130818,0.00281732,-0.000695316,-1.15065,0.00214783,0.012518,916,491,-1.28192,38.4899
-301,533,-1.35779,-39.3596,0.000227497,0.00145794,-0.000718645,0.00178873,-0.000103299,-1.13941,0.00122837,0.0129897,923,491,-1.35781,39.3595
-294,533,-1.38324,-40.2192,0.00068268,0.000698659,-0.000136072,0.000826976,0.000554363,-0.814722,0.000486604,0.0120498,930,491,-1.38326,40.2192
-287,533,-1.4079,-41.0989,0.00115959,-0.000158685,0.000439239,0.00129253,-0.000291629,0.293904,0.000973567,0.00933431,937,491,-1.40789,41.099
-280,533,-1.47034,-41.9877,0.00148134,-0.00187981,0.00101663,0.00176491,-0.00216338,0.272018,0.00227189,0.00936183,944,491,-1.47031,41.9876
-273,533,-1.5141,-42.8381,0.00176766,-0.00408581,0.00180918,0.0022817,-0.00459984,0.276832,0.0040475,0.0135152,951,491,-1.51408,42.8381
-266,533,-1.54187,-43.6939,0.00219286,-0.00696551,0.00286526,0.0030154,-0.00778805,0.279556,0.00643706,0.0131068,958,491,-1.5419,43.6939
-259,533,-1.56592,-44.5604,0.002489,-0.0103835,0.00410316,0.00368565,-0.0115802,0.283771,0.00919819,0.0134067,965,491,-1.56592,44.5604
-252,533,-1.59485,-45.3874,0.00253313,-0.0146351,0.00570619,0.00425666,-0.0163587,0.293333,0.0125673,0.0178461,972,491,-1.59482,45.3874
-245,533,-1.65778,-46.1758,0.00250193,-0.0195462,0.00740392,0.00475748,-0.0218018,0.29571,0.0163527,0.0254477,979,491,-1.65779,46.1758
-238,533,-1.60956,-46.8207,0.00240456,-0.0250778,0.00935472,0.00528658,-0.0279598,0.298855,0.0206291,0.0281618,986,491,-1.60958,46.8207
-231,533,-1.6015,-47.3439,0.00235078,-0.0312531,0.0115792,0.0059543,-0.0348566,0.301706,0.0254557,0.0363168,993,491,-1.60152,47.3439
-224,533,-1.76801,-47.9831,0.00211943,-0.0378541,0.0140619,0.00657048,-0.0423052,0.306555,0.0306294,0.042505,1000,491,-1.76798,47.9831
-217,533,-1.75336,-48.6542,0.00187301,-0.0443906,0.0167026,0.00727287,-0.0497904,0.31269,0.0358646,0.0476946,1007,491,-1.75334,48.6542
-210,533,-1.78625,-49.1545,0,0,0,0,0,0,0,-1,1014,491,-1.78628,49.1545
-203,533,-1.89172,-49.8587,0,0,0,0,0,0,0,-1,1021,491,-1.89173,49.8587
-196,533,-2.22546,-48.6072,0,0,0,0,0,0,0,-1,1028,491,-2.22546,48.6072
-189,533,-1.75317,-43.4744,0,0,0,0,0,0,0,-1,1035,491,-1.75312,43.4744
-182,533,1.26123,-11.4969,0,0,0,0,0,0,0,-1,1042,491,1.26128,11.4969
-175,533,0.937744,-7.36966,0,0,0,0,0,0,0,-1,1049,491,0.937769,7.36965
-168,533,2.64807,-2.7543,0,0,0,0,0,0,0,-1,1056,491,2.64812,2.7543
-161,533,1.91833,-1.76553,0,0,0,0,0,0,0,-1,1063,491,1.91836,1.76554
-154,533,0.376709,-11.0633,0,0,0,0,0,0,0,-1,1070,491,0.376715,11.0632
-147,533,0.383789,-12.1586,0,0,0,0,0,0,0,-1,1077,491,0.383829,12.1586
-140,533,1.14001,-15.4608,0,0,0,0,0,0,0,-1,1084,491,1.14005,15.4608
-133,533,0.189941,-16.0795,0,0,0,0,0,0,0,-1,1091,491,0.18994,16.0795
-126,533,2.89612,-2.59003,0,0,0,0,0,0,0,-1,1098,491,2.89608,2.59003
-119,533,1.78284,-22.5394,0,0,0,0,0,0,0,-1,1105,491,1.78279,22.5394
-112,533,1.83862,-21.2401,0,0,0,0,0,0,0,-1,1112,491,1.83859,21.24
-105,533,1.67554,-19.4018,0,0,0,0,0,0,0,-1,1119,491,1.6755,19.4018
-98,533,-1.39392,-5.16367,0,0,0,0,0,0,0,-1,1126,491,-1.39394,5.16367
-91,533,0.367432,4.49753,0,0,0,0,0,0,0,-1,1133,491,0.367468,-4.49754
-84,533,-0.88623,3.03604,0,0,0,0,0,0,0,-1,1140,491,-0.886288,-3.03605
-77,533,0,0,0,0,0,0,0,0,0,-1,1147,491,0,0
-70,533,0,0,0,0,0,0,0,0,0,-1,1154,491,0,0
-63,533,0,0,0,0,0,0,0,0,0,-1,1161,491,0,0
-56,533,0,0,0,0,0,0,0,0,0,-1,1168,491,0,0
-49,533,0,0,0,0,0,0,0,0,0,-1,1175,491,0,0
-42,533,0,0,0,0,0,0,0,0,0,-1,1182,491,0,0
-35,533,0,0,0,0,0,0,0,0,0,-1,1189,491,0,0
-28,533,0,0,0,0,0,0,0,0,0,-1,1196,491,0,0
-21,533,0,0,0,0,0,0,0,0,0,-1,1203,491,0,0
-14,533,0,0,0,0,0,0,0,0,0,-1,1210,491,0,0
-7,533,0,0,0,0,0,0,0,0,0,-1,1217,491,0,0
0,533,0,0,0,0,0,0,0,0,0,-1,1224,491,0,0
7,533,0,0,0,0,0,0,0,0,0,-1,1231,491,0,0
14,533,0,0,0,0,0,0,0,0,0,-1,1238,491,0,0
21,533,0,0,0,0,0,0,0,0,0,-1,1245,491,0,0
28,533,0,0,0,0,0,0,0,0,0,-1,1252,491,0,0
35,533,0,0,0,0,0,0,0,0,0,-1,1259,491,0,0
42,533,0,0,0,0,0,0,0,0,0,-1,1266,491,0,0
49,533,0,0,0,0,0,0,0,0,0,-1,1273,491,0,0
56,533,0,0,0,0,0,0,0,0,0,-1,1280,491,0,0
63,533,0,0,0,0,0,0,0,0,0,-1,1287,491,0,0
70,533,0,0,0,0,0,0,0,0,0,-1,1294,491,0,0
77,533,0,0,0,0,0,0,0,0,0,-1,1301,491,0,0
84,533,0,0,0,0,0,0,0,0,0,-1,1308,491,0,0
91,533,0,0,0,0,0,0,0,0,0,-1,1315,491,0,0
98,533,0,0,0,0,0,0,0,0,0,-1,1322,491,0,0
105,533,0,0,0,0,0,0,0,0,0,-1,1329,491,0,0
112,533,0,0,0,0,0,0,0,0,0,-1,1336,491,0,0
119,533,0,0,0,0,0,0,0,0,0,-1,1343,491,0,0
126,533,0,0,0,0,0,0,0,0,0,-1,1350,491,0,0
133,533,0,0,0,0,0,0,0,0,0,-1,1357,491,0,0
140,533,0,0,0,0,0,0,0,0,0,-1,1364,491,0,0
147,533,0,0,0,0,0,0,0,0,0,-1,1371,491,0,0
154,533,0,0,0,0,0,0,0,0,0,-1,1378,491,0,0
161,533,0,0,0,0,0,0,0,0,0,-1,1385,491,0,0
168,533,0,0,0,0,0,0,0,0,0,-1,1392,491,0,0
175,533,0,0,0,0,0,0,0,0,0,-1,1399,491,0,0
182,533,0,0,0,0,0,0,0,0,0,-1,1406,491,0,0
189,533,0,0,0,0,0,0,0,0,0,-1,1413,491,0,0
196,533,0,0,0,0,0,0,0,0,0,-1,1420,491,0,0
203,533,3.7887,1.16193,0,0,0,0,0,0,0,-1,1427,491,3.78872,-1.16193
210,533,5.09558,-0.216034,0,0,0,0,0,0,0,-1,1434,491,5.09559,0.216028
217,533,6.91614,-2.46814,0,0,0,0,0,0,0,-1,1441,491,6.91618,2.46814
224,533,7.23621,-2.1857,0,0,0,0,0,0,0,-1,1448,491,7.23621,2.1857
231,533,7.23474,-1.92282,0,0,0,0,0,0,0,-1,1455,491,7.2347,1.92282
238,533,7.23535,-1.67258,0,0,0,0,0,0,0,-1,1462,491,7.23539,1.67258
245,533,6.86682,-1.2301,0,0,0,0,0,0,0,-1,1469,491,6.86686,1.23011
252,533,6.63354,-3.07825,0,0,0,0,0,0,0,-1,1476,491,6.6335,3.07824
259,533,6.16431,-2.35037,0,0,0,0,0,0,0,-1,1483,491,6.1643,2.35037
266,533,5.68884,-1.6214,0,0,0,0,0,0,0,-1,1490,491,5.68885,1.6214
273,533,5.21399,-0.864227,0,0,0,0,0,0,0,-1,1497,491,5.21403,0.864227
280,533,1.41089,-1.97946,0,0,0,0,0,0,0,-1,1504,491,1.41087,1.97946
287,533,1.6814,-2.44443,0,0,0,0,0,0,0,-1,1511,491,1.6814,2.44444
294,533,2.2384,-2.57626,0,0,0,0,0,0,0,-1,1518,491,2.23839,2.57625
301,533,3.39941,-4.0817,0,0,0,0,0,0,0,-1,1525,491,3.3994,4.08171
308,533,4.13733,-4.14752,0,0,0,0,0,0,0,-1,1532,491,4.13727,4.14752
315,533,4.80762,-5.29349,0,0,0,0,0,0,0,-1,1539,491,4.80762,5.29347
322,533,5.47803,-6.43942,0,0,0,0,0,0,0,-1,1546,491,5.47798,6.43943
329,533,3.88477,-3.86301,0,0,0,0,0,0,0,-1,1553,491,3.88475,3.86299
336,533,14.5214,-40.908,0,0,0,0,0,0,0,-1,1560,491,14.5214,40.908
343,533,16.3387,-44.9998,0,0,0,0,0,0,0,-1,1567,491,16.3387,44.9998
350,533,17.363,-46.9244,0,0,0,0,0,0,0,-1,1574,491,17.363,46.9244
357,533,17.903,-47.233,0,0,0,0,0,0,0,-1,1581,491,17.903,47.2331
364,533,17.8781,-46.6044,0,0,0,0,0,0,0,-1,1588,491,17.878,46.6044
371,533,17.6365,-45.928,0,0,0,0,0,0,0,-1,1595,491,17.6364,45.928
378,533,17.6769,-45.0591,0,0,0,0,0,0,0,-1,1602,491,17.6768,45.0591
385,533,17.6879,-44.2366,0.00268335,-0.000514354,-0.00109106,0.00302015,-0.000851151,-0.299408,0.00234912,0.0412976,1609,491,17.6879,44.2366
392,533,17.6245,-43.4094,0.00267988,5.00966e-05,-0.000549522,0.00279009,-6.01134e-05,-0.19793,0.00188042,0.0172583,1616,491,17.6245,43.4094
399,533,17.5988,-42.5874,0.00254958,0.000397553,-0.000154262,0.00256058,0.000386552,-0.0711974,0.0015939,0.0141032,1623,491,17.5987,42.5874
406,533,17.5643,-41.7113,0.00245058,0.000890602,0.000290462,0.00250291,0.000838274,0.178241,0.00147107,0.0165743,1630,491,17.5643,41.7113
413,533,17.5277,-40.8015,0.00237212,0.00157644,0.00076234,0.00283419,0.00111438,0.544905,0.00164872,0.0149961,1637,491,17.5277,40.8015
420,533,17.4738,-39.9132,0.00201759,0.00201768,0.00105948,0.00307712,0.000958155,0.785419,0.00181822,0.0153847,1644,491,17.4738,39.9132
427,533,17.4374,-39.0162,0.00150667,0.00231822,0.00124812,0.00322486,0.000600021,0.942563,0.00198043,0.0156931,1651,491,17.4373,39.0162
434,533,17.3674,-38.1664,0.00101777,0.00252494,0.00144109,0.00339759,0.000145119,1.02631,0.00221827,0.0137143,1658,491,17.3674,38.1664
441,533,17.3363,-37.2759,0.00052529,0.00275083,0.00164052,0.00362037,-0.000344248,1.08341,0.00253613,0.0160924,1665,491,17.3363,37.276
448,533,17.2834,-36.3769,-3.01926e-05,0.0027904,0.0017426,0.00362189,-0.000861676,1.12559,0.00274724,0.0165689,1672,491,17.2834,36.3769
455,533,17.1943,-35.4514,-0.0005831,0.00281064,0.00180935,0.00359432,-0.00136678,1.16206,0.00295897,0.0157692,1679,491,17.1944,35.4514
462,533,17.123,-34.511,-0.000903404,0.00282523,0.00185429,0.00359038,-0.00166855,1.17945,0.00310309,0.0159262,1686,491,17.123,34.5111
469,533,17.0691,-33.6292,-0.000781195,0.00293622,0.00194364,0.00376685,-0.00161182,1.16693,0.00318738,0.0109155,1693,491,17.0691,33.6292
476,533,17.032,-32.6885,-0.000680717,0.00302404,0.00202116,0.00391327,-0.00156994,1.15632,0.00326067,0.012241,1700,491,17.032,32.6885
483,533,17.0242,-31.708,-0.000236853,0.00324563,0.00221152,0.00431913,-0.00131035,1.11889,0.0034014,0.0220221,1707,491,17.0242,31.708
490,533,17.084,-30.5913,0,0,0,0,0,0,0,-1,1714,491,17.0839,30.5913
497,533,16.6541,-29.2406,0,0,0,0,0,0,0,-1,1721,491,16.654,29.2406
504,533,14.6896,-22.6455,0,0,0,0,0,0,0,-1,1728,491,14.6895,22.6455
511,533,13.6221,-19.2798,0,0,0,0,0,0,0,-1,1735,491,13.6221,19.2798
518,533,14.1954,-19.4995,0,0,0,0,0,0,0,-1,1742,491,14.1955,19.4995
525,533,13.7935,-19.6901,0,0,0,0,0,0,0,-1,1749,491,13.7934,19.6901
532,533,15.4377,-17.9016,0,0,0,0,0,0,0,-1,1756,491,15.4377,17.9015
539,533,12.8733,-18.2556,0,0,0,0,0,0,0,-1,1763,491,12.8733,18.2556
546,533,3.59607,1.65799,0,0,0,0,0,0,0,-1,1770,491,3.59605,-1.658
553,533,0,0,0,0,0,0,0,0,0,-1,1777,491,0,0
560,533,0,0,0,0,0,0,0,0,0,-1,1784,491,0,0
567,533,0,0,0,0,0,0,0,0,0,-1,1791,491,0,0
574,533,0,0,0,0,0,0,0,0,0,-1,1798,491,0,0
581,533,0,0,0,0,0,0,0,0,0,-1,1805,491,0,0
588,533,0,0,0,0,0,0,0,0,0,-1,1812,491,0,0
595,533,0,0,0,0,0,0,0,0,0,-1,1819,491,0,0
602,533,0,0,0,0,0,0,0,0,0,-1,1826,491,0,0
609,533,0,0,0,0,0,0,0,0,0,-1,1833,491,0,0
616,533,0,0,0,0,0,0,0,0,0,-1,1840,491,0,0
623,533,0,0,0,0,0,0,0,0,0,-1,1847,491,0,0
630,533,0,0,0,0,0,0,0,0,0,-1,1854,491,0,0
637,533,0,0,0,0,0,0,0,0,0,-1,1861,491,0,0
644,533,0,0,0,0,0,0,0,0,0,-1,1868,491,0,0
651,533,0,0,0,0,0,0,0,0,0,-1,1875,491,0,0
658,533,0,0,0,0,0,0,0,0,0,-1,1882,491,0,0
665,533,0,0,0,0,0,0,0,0,0,-1,1889,491,0,0
672,533,0,0,0,0,0,0,0,0,0,-1,1896,491,0,0
679,533,0,0,0,0,0,0,0,0,0,-1,1903,491,0,0
686,533,0,0,0,0,0,0,0,0,0,-1,1910,491,0,0
693,533,0,0,0,0,0,0,0,0,0,-1,1917,491,0,0
700,533,0,0,0,0,0,0,0,0,0,-1,1924,491,0,0
707,533,0,0,0,0,0,0,0,0,0,-1,1931,491,0,0
714,533,0,0,0,0,0,0,0,0,0,-1,1938,491,0,0
721,533,0,0,0,0,0,0,0,0,0,-1,1945,491,0,0
728,533,0,0,0,0,0,0,0,0,0,-1,1952,491,0,0
735,533,0,0,0,0,0,0,0,0,0,-1,1959,491,0,0
742,533,0,0,0,0,0,0,0,0,0,-1,1966,491,0,0
749,533,0,0,0,0,0,0,0,0,0,-1,1973,491,0,0
756,533,0,0,0,0,0,0,0,0,0,-1,1980,491,0,0
763,533,0,0,0,0,0,0,0,0,0,-1,1987,491,0,0
770,533,0,0,0,0,0,0,0,0,0,-1,1994,491,0,0
777,533,0,0,0,0,0,0,0,0,0,-1,2001,491,0,0
784,533,0,0,0,0,0,0,0,0,0,-1,2008,491,0,0
791,533,0,0,0,0,0,0,0,0,0,-1,2015,491,0,0
798,533,0,0,0,0,0,0,0,0,0,-1,2022,491,0,0
805,533,0,0,0,0,0,0,0,0,0,-1,2029,491,0,0
812,533,0,0,0,0,0,0,0,0,0,-1,2036,491,0,0
-700,526,0,0,0,0,0,0,0,0,0,-1,524,498,0,0
-693,526,0,0,0,0,0,0,0,0,0,-1,531,498,0,0
-686,526,0,0,0,0,0,0,0,0,0,-1,538,498,0,0
-679,526,0,0,0,0,0,0,0,0,0,-1,545,498,0,0
-672,526,0,0,0,0,0,0,0,0,0,-1,552,498,0,0
-665,526,0,0,0,0,0,0,0,0,0,-1,559,498,0,0
-658,526,0,0,0,0,0,0,0,0,0,-1,566,498,0,0
-651,526,0,0,0,0,0,0,0,0,0,-1,573,498,0,0
-644,526,0,0,0,0,0,0,0,0,0,-1,580,498,0,0
-637,526,0,0,0,0,0,0,0,0,0,-1,587,498,0,0
-630,526,0,0,0,0,0,0,0,0,0,-1,594,498,0,0
-623,526,0,0,0,0,0,0,0,0,0,-1,601,498,0,0
-616,526,0,0,0,0,0,0,0,0,0,-1,608,498,0,0
-609,526,0,0,0,0,0,0,0,0,0,-1,615,498,0,0
-602,526,0,0,0,0,0,0,0,0,0,-1,622,498,0,0
-595,526,0,0,0,0,0,0,0,0,0,-1,629,498,0,0
-588,526,0,0,0,0,0,0,0,0,0,-1,636,498,0,0
-581,526,0,0,0,0,0,0,0,0,0,-1,643,498,0,0
-574,526,0,0,0,0,0,0,0,0,0,-1,650,498,0,0
-567,526,0,0,0,0,0,0,0,0,0,-1,657,498,0,0
-560,526,0,0,0,0,0,0,0,0,0,-1,664,498,0,0
-553,526,0,0,0,0,0,0,0,0,0,-1,671,498,0,0
-546,526,0,0,0,0,0,0,0,0,0,-1,678,498,0,0
-539,526,0,0,0,0,0,0,0,0,0,-1,685,498,0,0
-532,526,0,0,0,0,0,0,0,0,0,-1,692,498,0,0
-525,526,0,0,0,0,0,0,0,0,0,-1,699,498,0,0
-518,526,0,0,0,0,0,0,0,0,0,-1,706,498,0,0
-511,526,0,0,0,0,0,0,0,0,0,-1,713,498,0,0
-504,526,0,0,0,0,0,0,0,0,0,-1,720,498,0,0
-497,526,0,0,0,0,0,0,0,0,0,-1,727,498,0,0
-490,526,0,0,0,0,0,0,0,0,0,-1,734,498,0,0
-483,526,0,0,0,0,0,0,0,0,0,-1,741,498,0,0
-476,526,0,0,0,0,0,0,0,0,0,-1,748,498,0,0
-469,526,0,0,0,0,0,0,0,0,0,-1,755,498,0,0
-462,526,0,0,0,0,0,0,0,0,0,-1,762,498,0,0
-455,526,0,0,0,0,0,0,0,0,0,-1,769,498,0,0
-448,526,0,0,0,0,0,0,0,0,0,-1,776,498,0,0
-441,526,0,0,0,0,0,0,0,0,0,-1,783,498,0,0
-434,526,-0.153564,-5.96649,0,0,0,0,0,0,0,-1,790,498,-0.153589,5.9665
-427,526,1.23206,-4.59808,0,0,0,0,0,0,0,-1,797,498,1.23208,4.59809
-420,526,-1.76373,-11.6241,0,0,0,0,0,0,0,-1,804,498,-1.76373,11.6241
-413,526,-1.38965,-11.7916,0,0,0,0,0,0,0,-1,811,498,-1.38963,11.7916
-406,526,-1.35187,-12.5182,0,0,0,0,0,0,0,-1,818,498,-1.35185,12.5181
-399,526,-1.32715,-13.2116,0,0,0,0,0,0,0,-1,825,498,-1.32713,13.2116
-392,526,0.197571,-15.303,0,0,0,0,0,0,0,-1,832,498,0.197598,15.303
-385,526,-2.69397,-19.6176,0,0,0,0,0,0,0,-1,839,498,-2.69399,19.6176
-378,526,-1.70471,-28.0359,0,0,0,0,0,0,0,-1,846,498,-1.70468,28.0359
-371,526,-1.73627,-29.4479,0.00780204,0.025374,-0.017539,0.0362046,-0.00302853,-1.0176,0.0252066,0.0442637,853,498,-1.73629,29.4479
-364,526,-1.72894,-30.9108,0.0061213,0.0205876,-0.0144483,0.0295121,-0.00280323,-1.01747,0.0206726,0.0210058,860,498,-1.72892,30.9108
-357,526,-1.7428,-31.9708,0.00455086,0.0165045,-0.01167,0.0236392,-0.00258376,-1.02206,0.0166875,0.0133867,867,498,-1.74282,31.9708
-350,526,-1.78192,-32.934,0.00316095,0.0128256,-0.00915081,0.0183417,-0.00235508,-1.02833,0.0130836,0.012893,874,498,-1.78194,32.934
-343,526,-1.89154,-33.8566,0.00210443,0.0096797,-0.00698917,0.0138416,-0.00205744,-1.03371,0.00998444,0.0168546,881,498,-1.89156,33.8566
-336,526,-1.95349,-34.7969,0.00132812,0.00711709,-0.00518757,0.0101631,-0.00171785,-1.03987,0.00741461,0.017357,888,498,-1.95351,34.797
-329,526,-1.98773,-35.7258,0.000786904,0.00505644,-0.00367086,0.00716814,-0.00132479,-1.04877,0.00527609,0.0175974,895,498,-1.98771,35.7257
-322,526,-2.04492,-36.589,0.000347653,0.00311051,-0.00223791,0.00435902,-0.000900856,-1.06191,0.00324821,0.0116657,902,498,-2.04495,36.589
-315,526,-2.11707,-37.5172,0.000225535,0.00175078,-0.00114201,0.00236139,-0.000385078,-1.07979,0.00171707,0.0100677,909,498,-2.11705,37.5172
-308,526,-2.16931,-38.4587,0.000413998,0.000868221,-0.000388002,0.00109069,0.000191526,-1.05018,0.000672441,0.00879846,916,498,-2.1693,38.4587
-301,526,-2.24048,-39.3175,0.00078378,0.000230762,0.00014832,0.000821048,0.000193494,0.246172,0.000495622,0.00979714,923,498,-2.24049,39.3175
-294,526,-2.26398,-40.1616,0.00124925,-0.000312643,0.000660915,0.00149138,-0.000554773,0.351172,0.0012219,0.0096594,930,498,-2.26397,40.1615
-287,526,-2.30988,-41.0284,0.00175522,-0.00107842,0.00119451,0.00219157,-0.00151476,0.350234,0.00215171,0.009784,937,498,-2.30989,41.0284
-280,526,-2.36029,-41.9197,0.0020551,-0.00303112,0.00178628,0.00261976,-0.00359578,0.306167,0.00360326,0.0132287,944,498,-2.3603,41.9197
-273,526,-2.38062,-42.7915,0.00234969,-0.00556126,0.00260686,0.00313146,-0.00634303,0.291356,0.00557387,0.0117987,951,498,-2.38062,42.7915
-266,526,-2.42706,-43.649,0.00284533,-0.00896772,0.00376714,0.0039444,-0.0100668,0.283873,0.00834282,0.0186399,958,498,-2.42705,43.649
-259,526,-2.38708,-44.4951,0.00320167,-0.0129811,0.00514593,0.0046994,-0.0144788,0.283227,0.0115424,0.047481,965,498,-2.38712,44.4951
-252,526,-2.42078,-45.397,0,0,0,0,0,0,0,-1,972,498,-2.42078,45.397
-245,526,-2.46765,-46.1545,0,0,0,0,0,0,0,-1,979,498,-2.46765,46.1546
-238,526,-1.9259,-45.632,0,0,0,0,0,0,0,-1,986,498,-1.92588,45.6319
-231,526,-2.25348,-46.2308,0,0,0,0,0,0,0,-1,993,498,-2.25345,46.2309
-224,526,-2.55469,-47.4211,0,0,0,0,0,0,0,-1,1000,498,-2.55469,47.4211
-217,526,-2.48804,-48.3214,0,0,0,0,0,0,0,-1,1007,498,-2.48806,48.3213
-210,526,-1.77289,-44.7313,0,0,0,0,0,0,0,-1,1014,498,-1.77289,44.7313
-203,526,-0.659302,-18.8818,0,0,0,0,0,0,0,-1,1021,498,-0.659273,18.8818
-196,526,-0.328247,-12.179,0,0,0,0,0,0,0,-1,1028,498,-0.328238,12.179
-189,526,0.401245,-5.96826,0,0,0,0,0,0,0,-1,1035,498,0.401197,5.96826
-182,526,1.7323,-2.99405,0,0,0,0,0,0,0,-1,1042,498,1.73226,2.99404
-175,526,2.27637,-2.07983,0,0,0,0,0,0,0,-1,1049,498,2.27639,2.07984
-168,526,2.12036,-1.66049,0,0,0,0,0,0,0,-1,1056,498,2.12035,1.66048
-161,526,2.09082,-1.20572,0,0,0,0,0,0,0,-1,1063,498,2.09086,1.2057
-154,526,-1.3446,-5.37799,0,0,0,0,0,0,0,-1,1070,498,-1.34457,5.37799
-147,526,-0.472656,-6.64996,0,0,0,0,0,0,0,-1,1077,498,-0.472659,6.64997
-140,526,0.422852,-8.03339,0,0,0,0,0,0,0,-1,1084,498,0.422844,8.0334
-133,526,1.09583,-9.2215,0,0,0,0,0,0,0,-1,1091,498,1.09581,9.2215
-126,526,3.42529,-2.36053,0,0,0,0,0,0,0,-1,1098,498,3.42523,2.36052
-119,526,2.7771,-0.764099,0,0,0,0,0,0,0,-1,1105,498,2.7771,0.764107
-112,526,2.57715,-1.1893,0,0,0,0,0,0,0,-1,1112,498,2.57718,1.1893
-105,526,0,0,0,0,0,0,0,0,0,-1,1119,498,0,0
-98,526,0,0,0,0,0,0,0,0,0,-1,1126,498,0,0
-91,526,0,0,0,0,0,0,0,0,0,-1,1133,498,0,0
-84,526,0,0,0,0,0,0,0,0,0,-1,1140,498,0,0
-77,526,0,0,0,0,0,0,0,0,0,-1,1147,498,0,0
-70,526,0,0,0,0,0,0,0,0,0,-1,1154,498,0,0
-63,526,0,0,0,0,0,0,0,0,0,-1,1161,498,0,0
-56,526,0,0,0,0,0,0,0,0,0,-1,1168,498,0,0
-49,526,0,0,0,0,0,0,0,0,0,-1,1175,498,0,0
-42,526,0,0,0,0,0,0,0,0,0,-1,1182,498,0,0
-35,526,0,0,0,0,0,0,0,0,0,-1,1189,498,0,0
-28,526,0,0,0,0,0,0,0,0,0,-1,1196,498,0,0
-21,526,0,0,0,0,0,0,0,0,0,-1,1203,498,0,0
-14,526,0,0,0,0,0,0,0,0,0,-1,1210,498,0,0
-7,526,0,0,0,0,0,0,0,0,0,-1,1217,498,0,0
0,526,0,0,0,0,0,0,0,0,0,-1,1224,498,0,0
7,526,0,0,0,0,0,0,0,0,0,-1,1231,498,0,0
14,526,0,0,0,0,0,0,0,0,0,-1,1238,498,0,0
21,526,0,0,0,0,0,0,0,0,0,-1,1245,498,0,0
28,526,0,0,0,0,0,0,0,0,0,-1,1252,498,0,0
35,526,0,0,0,0,0,0,0,0,0,-1,1259,498,0,0
42,526,0,0,0,0,0,0,0,0,0,-1,1266,498,0,0
49,526,0,0,0,0,0,0,0,0,0,-1,1273,498,0,0
56,526,0,0,0,0,0,0,0,0,0,-1,1280,498,0,0
63,526,0,0,0,0,0,0,0,0,0,-1,1287,498,0,0
70,526,0,0,0,0,0,0,0,0,0,-1,1294,498,0,0
77,526,0,0,0,0,0,0,0,0,0,-1,1301,498,0,0
84,526,0,0,0,0,0,0,0,0,0,-1,1308,498,0,0
91,526,0,0,0,0,0,0,0,0,0,-1,1315,498,0,0
98,526,0,0,0,0,0,0,0,0,0,-1,1322,498,0,0
105,526,0,0,0,0,0,0,0,0,0,-1,1329,498,0,0
112,526,0,0,0,0,0,0,0,0,0,-1,1336,498,0,0
119,526,0,0,0,0,0,0,0,0,0,-1,1343,498,0,0
126,526,0,0,0,0,0,0,0,0,0,-1,1350,498,0,0
133,526,0,0,0,0,0,0,0,0,0,-1,1357,498,0,0
140,526,0,0,0,0,0,0,0,0,0,-1,1364,498,0,0
147,526,0,0,0,0,0,0,0,0,0,-1,1371,498,0,0
154,526,0,0,0,0,0,0,0,0,0,-1,1378,498,0,0
161,526,0,0,0,0,0,0,0,0,0,-1,1385,498,0,0
168,526,0,0,0,0,0,0,0,0,0,-1,1392,498,0,0
175,526,0,0,0,0,0,0,0,0,0,-1,1399,498,0,0
182,526,0,0,0,0,0,0,0,0,0,-1,1406,498,0,0
189,526,0,0,0,0,0,0,0,0,0,-1,1413,498,0,0
196,526,0,0,0,0,0,0,0,0,0,-1,1420,498,0,0
203,526,0,0,0,0,0,0,0,0,0,-1,1427,498,0,0
210,526,0,0,0,0,0,0,0,0,0,-1,1434,498,0,0
217,526,0,0,0,0,0,0,0,0,0,-1,1441,498,0,0
224,526,0,0,0,0,0,0,0,0,0,-1,1448,498,0,0
231,526,7.93237,-1.30618,0,0,0,0,0,0,0,-1,1455,498,7.93238,1.30618
238,526,7.97717,-1.08197,0,0,0,0,0,0,0,-1,1462,498,7.97723,1.08196
245,526,7.2793,-0.792938,0,0,0,0,0,0,0,-1,1469,498,7.27931,0.792926
252,526,6.73523,-2.23608,0,0,0,0,0,0,0,-1,1476,498,6.73525,2.23608
259,526,6.22949,-1.84967,0,0,0,0,0,0,0,-1,1483,498,6.22953,1.84968
266,526,5.72375,-1.46329,0,0,0,0,0,0,0,-1,1490,498,5.72381,1.46328
273,526,4.33984,0.49173,0,0,0,0,0,0,0,-1,1497,498,4.33979,-0.491727
280,526,1.4585,-1.59897,0,0,0,0,0,0,0,-1,1504,498,1.45846,1.59895
287,526,1.46411,-2.40134,0,0,0,0,0,0,0,-1,1511,498,1.46406,2.40133
294,526,5.57471,-4.59085,0,0,0,0,0,0,0,-1,1518,498,5.57466,4.59084
301,526,4.42786,-3.99677,0,0,0,0,0,0,0,-1,1525,498,4.42788,3.99676
308,526,5.79529,-4.19366,0,0,0,0,0,0,0,-1,1532,498,5.79528,4.19368
315,526,5.09851,-5.20068,0,0,0,0,0,0,0,-1,1539,498,5.09851,5.20068
322,526,5.50708,-4.72348,0,0,0,0,0,0,0,-1,1546,498,5.50713,4.72347
329,526,3.88672,-4.345,0,0,0,0,0,0,0,-1,1553,498,3.88674,4.34501
336,526,4.97876,-2.23828,0,0,0,0,0,0,0,-1,1560,498,4.97877,2.23828
343,526,3.31665,-2.69696,0,0,0,0,0,0,0,-1,1567,498,3.31667,2.69696
350,526,6.06287,-6.12015,0,0,0,0,0,0,0,-1,1574,498,6.06286,6.12014
357,526,18.325,-47.38,0,0,0,0,0,0,0,-1,1581,498,18.325,47.38
364,526,18.9138,-46.6509,0,0,0,0,0,0,0,-1,1588,498,18.9138,46.6509
371,526,12.4481,-29.0131,0,0,0,0,0,0,0,-1,1595,498,12.4481,29.0131
378,526,17.6067,-44.3647,0,0,0,0,0,0,0,-1,1602,498,17.6067,44.3647
385,526,18.4316,-44.4166,0,0,0,0,0,0,0,-1,1609,498,18.4316,44.4166
392,526,18.4127,-43.4924,0,0,0,0,0,0,0,-1,1616,498,18.4128,43.4924
399,526,18.4143,-42.5338,0.00316983,0.000613048,-0.000308159,0.00320645,0.000576432,-0.11827,0.00197375,0.0316853,1623,498,18.4143,42.5338
406,526,18.4351,-41.6249,0.00310714,0.000857692,6.79719e-05,0.0031092,0.00085564,0.0301804,0.00185459,0.0139194,1630,498,18.4351,41.6249
413,526,18.4028,-40.7573,0.00310957,0.00138986,0.000524093,0.0032567,0.00124273,0.273693,0.00189775,0.0128685,1637,498,18.4029,40.7573
420,526,18.3392,-39.8741,0.00278211,0.00167941,0.000795211,0.00319841,0.00126311,0.482278,0.00186015,0.0148229,1644,498,18.3393,39.8741
427,526,18.3099,-38.9831,0.00226291,0.00188004,0.000959406,0.0030498,0.00109316,0.686924,0.00178417,0.0151571,1651,498,18.3099,38.9831
434,526,18.2623,-38.1028,0.00174783,0.00198662,0.00111256,0.00298617,0.000748274,0.838852,0.00179415,0.0124081,1658,498,18.2624,38.1029
441,526,18.1942,-37.2026,0.00127741,0.00212857,0.00128835,0.00305981,0.000346171,0.94492,0.00193483,0.0114839,1665,498,18.1942,37.2026
448,526,18.166,-36.3285,0.000773222,0.00213673,0.00139764,0.00301003,-0.000100071,1.01232,0.00204086,0.0106193,1672,498,18.166,36.3285
455,526,18.1036,-35.4218,0.000280314,0.00217544,0.00149004,0.00299369,-0.000537935,1.06861,0.00219716,0.0135191,1679,498,18.1036,35.4217
462,526,18.0399,-34.4892,2.23398e-05,0.00224668,0.00157945,0.00306624,-0.00079722,1.09215,0.00235531,0.0110932,1686,498,18.0399,34.4892
469,526,17.9957,-33.6031,0.000190523,0.00242697,0.00173144,0.00336989,-0.000752394,1.07212,0.00253489,0.00839768,1693,498,17.9958,33.6032
476,526,17.9425,-32.6741,0.000309406,0.00260483,0.00187971,0.00365951,-0.000745274,1.05948,0.00272232,0.00962693,1700,498,17.9425,32.6741
483,526,17.907,-31.6773,0.000748365,0.00288291,0.00213984,0.00420687,-0.000575594,1.01673,0.00301481,0.0135939,1707,498,17.9069,31.6773
490,526,17.9385,-30.6177,0.00153628,0.00325226,0.00253997,0.00507524,-0.000286699,0.948278,0.00348299,0.0372248,1714,498,17.9385,30.6177
497,526,18.118,-29.7473,0,0,0,0,0,0,0,-1,1721,498,18.118,29.7473
504,526,17.8074,-28.809,0,0,0,0,0,0,0,-1,1728,498,17.8073,28.809
511,526,16.8915,-24.8813,0,0,0,0,0,0,0,-1,1735,498,16.8914,24.8813
518,526,14.7889,-20.4046,0,0,0,0,0,0,0,-1,1742,498,14.7889,20.4046
525,526,14.7009,-19.7487,0,0,0,0,0,0,0,-1,1749,498,14.7009,19.7486
532,526,15.7457,-17.9624,0,0,0,0,0,0,0,-1,1756,498,15.7458,17.9624
539,526,16.1064,-16.42,0,0,0,0,0,0,0,-1,1763,498,16.1065,16.42
546,526,12.4675,-17.1617,0,0,0,0,0,0,0,-1,1770,498,12.4675,17.1617
553,526,3.40796,1.37137,0,0,0,0,0,0,0,-1,1777,498,3.40792,-1.37138
560,526,0,0,0,0,0,0,0,0,0,-1,1784,498,0,0
567,526,0,0,0,0,0,0,0,0,0,-1,1791,498,0,0
574,526,0,0,0,0,0,0,0,0,0,-1,1798,498,0,0
581,526,0,0,0,0,0,0,0,0,0,-1,1805,498,0,0
588,526,0,0,0,0,0,0,0,0,0,-1,1812,498,0,0
595,526,0,0,0,0,0,0,0,0,0,-1,1819,498,0,0
602,526,0,0,0,0,0,0,0,0,0,-1,1826,498,0,0
609,526,0,0,0,0,0,0,0,0,0,-1,1833,498,0,0
616,526,0,0,0,0,0,0,0,0,0,-1,1840,498,0,0
623,526,0,0,0,0,0,0,0,0,0,-1,1847,498,0,0
630,526,0,0,0,0,0,0,0,0,0,-1,1854,498,0,0
637,526,0,0,0,0,0,0,0,0,0,-1,1861,498,0,0
644,526,0,0,0,0,0,0,0,0,0,-1,1868,498,0,0
651,526,0,0,0,0,0,0,0,0,0,-1,1875,498,0,0
658,526,0,0,0,0,0,0,0,0,0,-1,1882,498,0,0
665,526,0,0,0,0,0,0,0,0,0,-1,1889,498,0,0
672,526,0,0,0,0,0,0,0,0,0,-1,1896,498,0,0
679,526,0,0,0,0,0,0,0,0,0,-1,1903,498,0,0
686,526,0,0,0,0,0,0,0,0,0,-1,1910,498,0,0
693,526,0,0,0,0,0,0,0,0,0,-1,1917,498,0,0
700,526,0,0,0,0,0,0,0,0,0,-1,1924,498,0,0
707,526,0,0,0,0,0,0,0,0,0,-1,1931,498,0,0
714,526,0,0,0,0,0,0,0,0,0,-1,1938,498,0,0
721,526,0,0,0,0,0,0,0,0,0,-1,1945,498,0,0
728,526,0,0,0,0,0,0,0,0,0,-1,1952,498,0,0
735,526,0,0,0,0,0,0,0,0,0,-1,1959,498,0,0
742,526,0,0,0,0,0,0,0,0,0,-1,1966,498,0,0
749,526,0,0,0,0,0,0,0,0,0,-1,1973,498,0,0
756,526,0,0,0,0,0,0,0,0,0,-1,1980,498,0,0
763,526,0,0,0,0,0,0,0,0,0,-1,1987,498,0,0
770,526,0,0,0,0,0,0,0,0,0,-1,1994,498,0,0
777,526,0,0,0,0,0,0,0,0,0,-1,2001,498,0,0
784,526,0,0,0,0,0,0,0,0,0,-1,2008,498,0,0
791,526,0,0,0,0,0,0,0,0,0,-1,2015,498,0,0
798,526,0,0,0,0,0,0,0,0,0,-1,2022,498,0,0
805,526,0,0,0,0,0,0,0,0,0,-1,2029,498,0,0
812,526,0,0,0,0,0,0,0,0,0,-1,2036,498,0,0
-700,519,0,0,0,0,0,0,0,0,0,-1,524,505,0,0
-693,519,0,0,0,0,0,0,0,0,0,-1,531,505,0,0
-686,519,0,0,0,0,0,0,0,0,0,-1,538,505,0,0
-679,519,0,0,0,0,0,0,0,0,0,-1,545,505,0,0
-672,519,0,0,0,0,0,0,0,0,0,-1,552,505,0,0
-665,519,0,0,0,0,0,0,0,0,0,-1,559,505,0,0
-658,519,0,0,0,0,0,0,0,0,0,-1,566,505,0,0
-651,519,0,0,0,0,0,0,0,0,0,-1,573,505,0,0
-644,519,0,0,0,0,0,0,0,0,0,-1,580,505,0,0
-637,519,0,0,0,0,0,0,0,0,0,-1,587,505,0,0
-630,519,0,0,0,0,0,0,0,0,0,-1,594,505,0,0
-623,519,0,0,0,0,0,0,0,0,0,-1,601,505,0,0
-616,519,0,0,0,0,0,0,0,0,0,-1,608,505,0,0
-609,519,0,0,0,0,0,0,0,0,0,-1,615,505,0,0
-602,519,0,0,0,0,0,0,0,0,0,-1,622,505,0,0
-595,519,0,0,0,0,0,0,0,0,0,-1,629,505,0,0
-588,519,0,0,0,0,0,0,0,0,0,-1,636,505,0,0
-581,519,0,0,0,0,0,0,0,0,0,-1,643,505,0,0
-574,519,0,0,0,0,0,0,0,0,0,-1,650,505,0,0
-567,519,0,0,0,0,0,0,0,0,0,-1,657,505,0,0
-560,519,0,0,0,0,0,0,0,0,0,-1,664,505,0,0
-553,519,0,0,0,0,0,0,0,0,0,-1,671,505,0,0
-546,519,0,0,0,0,0,0,0,0,0,-1,678,505,0,0
-539,519,0,0,0,0,0,0,0,0,0,-1,685,505,0,0
-532,519,0,0,0,0,0,0,0,0,0,-1,692,505,0,0
-525,519,0,0,0,0,0,0,0,0,0,-1,699,505,0,0
-518,519,0,0,0,0,0,0,0,0,0,-1,706,505,0,0
-511,519,0,0,0,0,0,0,0,0,0,-1,713,505,0,0
-504,519,0,0,0,0,0,0,0,0,0,-1,720,505,0,0
-497,519,0,0,0,0,0,0,0,0,0,-1,727,505,0,0
-490,519,0,0,0,0,0,0,0,0,0,-1,734,505,0,0
-483,519,0,0,0,0,0,0,0,0,0,-1,741,505,0,0
-476,519,0,0,0,0,0,0,0,0,0,-1,748,505,0,0
-469,519,0,0,0,0,0,0,0,0,0,-1,755,505,0,0
-462,519,0,0,0,0,0,0,0,0,0,-1,762,505,0,0
-455,519,0,0,0,0,0,0,0,0,0,-1,769,505,0,0
-448,519,0,0,0,0,0,0,0,0,0,-1,776,505,0,0
-441,519,1.34839,-5.29346,0,0,0,0,0,0,0,-1,783,505,1.3484,5.29347
-434,519,0.949585,-5.77313,0,0,0,0,0,0,0,-1,790,505,0.949598,5.77315
-427,519,-0.0523682,-9.31567,0,0,0,0,0,0,0,-1,797,505,-0.0523854,9.31568
-420,519,-2.38867,-12.1938,0,0,0,0,0,0,0,-1,804,505,-2.38867,12.1938
-413,519,-2.2298,-12.4998,0,0,0,0,0,0,0,-1,811,505,-2.22979,12.4998
-406,519,-1.44373,-12.3475,0,0,0,0,0,0,0,-1,818,505,-1.44376,12.3475
-399,519,-1.60516,-15.0849,0,0,0,0,0,0,0,-1,825,505,-1.60518,15.0849
-392,519,-1.94183,-24.8959,0,0,0,0,0,0,0,-1,832,505,-1.94183,24.8958
-385,519,-3.14404,-27.0889,0,0,0,0,0,0,0,-1,839,505,-3.14405,27.0889
-378,519,-2.81464,-28.4186,0.00735895,0.0241682,-0.0164443,0.0342312,-0.00270398,-1.02164,0.0237734,0.0420747,846,505,-2.81461,28.4186
-371,519,-2.59747,-29.8302,0.00620874,0.0200988,-0.013999,0.0287809,-0.00247334,-1.01566,0.0200626,0.0200414,853,505,-2.59745,29.8302
-364,519,-2.61169,-30.9481,0.00504011,0.0162598,-0.0115679,0.0235063,-0.0022064,-1.01117,0.0164557,0.0115877,860,505,-2.61169,30.9481
-357,519,-2.63409,-31.963,0.00389379,0.0129322,-0.00930368,0.0187562,-0.0019302,-1.01149,0.0131947,0.011174,867,505,-2.63409,31.963
-350,519,-2.68988,-32.8996,0.00285931,0.00990935,-0.0072214,0.0144201,-0.00165148,-1.01245,0.0102086,0.0141318,874,505,-2.68987,32.8996
-343,519,-2.80658,-33.7845,0.0020535,0.00720613,-0.00537407,0.0105895,-0.00132988,-1.00891,0.00754215,0.0173081,881,505,-2.8066,33.7846
-336,519,-2.90204,-34.702,0.00142288,0.00496502,-0.00378866,0.00737613,-0.000988228,-1.00404,0.00527776,0.0174887,888,505,-2.90204,34.7019
-329,519,-2.90192,-35.641,0.000970276,0.00315168,-0.00243359,0.00472781,-0.000605854,-0.996071,0.00337202,0.0157779,895,505,-2.90192,35.641
-322,519,-2.93335,-36.542,0.000624657,0.00147994,-0.00116999,0.00229799,-0.000193397,-0.96061,0.00160036,0.012511,902,505,-2.93335,36.542
-315,519,-2.99756,-37.4654,0.000583836,0.000367805,-0.000219158,0.000720152,0.00023149,-0.556436,0.000424525,0.00977561,909,505,-2.99758,37.4654
-308,519,-3.06128,-38.4065,0.00086419,-0.000319039,0.000422562,0.000999601,-0.000454451,0.310114,0.000858939,0.0081171,916,505,-3.06128,38.4065
-301,519,-3.14819,-39.2727,0.00126808,-0.000782701,0.000916544,0.001618,-0.00113262,0.364703,0.00159629,0.0125305,923,505,-3.14819,39.2727
-294,519,-3.16949,-40.0911,0.0017262,-0.0010569,0.00137836,0.00229329,-0.00162399,0.390318,0.00227262,0.0157152,930,505,-3.1695,40.0911
-287,519,-3.22693,-40.963,0.00223754,-0.00166456,0.00188342,0.00299829,-0.00242531,0.383881,0.00313713,0.0116182,937,505,-3.22696,40.963
-280,519,-3.2774,-41.8724,0.00249442,-0.00383179,0.00251304,0.00337119,-0.00470856,0.335685,0.0046861,0.0262831,944,505,-3.27743,41.8724
-273,519,-3.27325,-42.7733,0,0,0,0,0,0,0,-1,951,505,-3.27326,42.7733
-266,519,-3.31165,-43.6533,0,0,0,0,0,0,0,-1,958,505,-3.31162,43.6533
-259,519,-3.14862,-44.7134,0,0,0,0,0,0,0,-1,965,505,-3.14863,44.7134
-252,519,-1.84009,-26.8372,0,0,0,0,0,0,0,-1,972,505,-1.8401,26.8372
-245,519,-1.23254,-23.2696,0,0,0,0,0,0,0,-1,979,505,-1.23256,23.2696
-238,519,-1.46698,-43.2344,0,0,0,0,0,0,0,-1,986,505,-1.46695,43.2344
-231,519,-2.79163,-45.2006,0,0,0,0,0,0,0,-1,993,505,-2.79163,45.2006
-224,519,-3.33752,-42.7635,0,0,0,0,0,0,0,-1,1000,505,-3.33753,42.7635
-217,519,-2.87396,-38.149,0,0,0,0,0,0,0,-1,1007,505,-2.87394,38.149
-210,519,-0.883362,-34.799,0,0,0,0,0,0,0,-1,1014,505,-0.883379,34.799
-203,519,-0.513611,-5.39017,0,0,0,0,0,0,0,-1,1021,505,-0.513585,5.39017
-196,519,-0.374023,-5.41635,0,0,0,0,0,0,0,-1,1028,505,-0.374047,5.41635
-189,519,-0.234497,-5.44254,0,0,0,0,0,0,0,-1,1035,505,-0.234508,5.44253
-182,519,2.76697,-1.19659,0,0,0,0,0,0,0,-1,1042,505,2.76696,1.19661
-175,519,2.31323,-0.960938,0,0,0,0,0,0,0,-1,1049,505,2.31319,0.960941
-168,519,2.01074,-0.721405,0,0,0,0,0,0,0,-1,1056,505,2.01072,0.721407
-161,519,2.32056,-0.522339,0,0,0,0,0,0,0,-1,1063,505,2.32057,0.522328
-154,519,2.55566,0.116669,0,0,0,0,0,0,0,-1,1070,505,2.55563,-0.116661
-147,519,-0.55127,-6.14001,0,0,0,0,0,0,0,-1,1077,505,-0.551252,6.14001
-140,519,0.240601,-7.53503,0,0,0,0,0,0,0,-1,1084,505,0.240653,7.53501
-133,519,2.70911,-4.4516,0,0,0,0,0,0,0,-1,1091,505,2.70915,4.45161
-126,519,0,0,0,0,0,0,0,0,0,-1,1098,505,0,0
-119,519,0,0,0,0,0,0,0,0,0,-1,1105,505,0,0
-112,519,0,0,0,0,0,0,0,0,0,-1,1112,505,0,0
-105,519,0,0,0,0,0,0,0,0,0,-1,1119,505,0,0
-98,519,0,0,0,0,0,0,0,0,0,-1,1126,505,0,0
-91,519,0,0,0,0,0,0,0,0,0,-1,1133,505,0,0
-84,519,0,0,0,0,0,0,0,0,0,-1,1140,505,0,0
-77,519,0,0,0,0,0,0,0,0,0,-1,1147,505,0,0
-70,519,0,0,0,0,0,0,0,0,0,-1,1154,505,0,0
-63,519,0,0,0,0,0,0,0,0,0,-1,1161,505,0,0
-56,519,0,0,0,0,0,0,0,0,0,-1,1168,505,0,0
-49,519,0,0,0,0,0,0,0,0,0,-1,1175,505,0,0
-42,519,0,0,0,0,0,0,0,0,0,-1,1182,505,0,0
-35,519,0,0,0,0,0,0,0,0,0,-1,1189,505,0,0
-28,519,0,0,0,0,0,0,0,0,0,-1,1196,505,0,0
-21,519,0,0,0,0,0,0,0,0,0,-1,1203,505,0,0
-14,519,0,0,0,0,0,0,0,0,0,-1,1210,505,0,0
-7,519,0,0,0,0,0,0,0,0,0,-1,1217,505,0,0
0,519,0,0,0,0,0,0,0,0,0,-1,1224,505,0,0
7,519,0,0,0,0,0,0,0,0,0,-1,1231,505,0,0
14,519,0,0,0,0,0,0,0,0,0,-1,1238,505,0,0
21,519,0,0,0,0,0,0,0,0,0,-1,1245,505,0,0
28,519,0,0,0,0,0,0,0,0,0,-1,1252,505,0,0
35,519,0,0,0,0,0,0,0,0,0,-1,1259,505,0,0
42,519,0,0,0,0,0,0,0,0,0,-1,1266,505,0,0
49,519,0,0,0,0,0,0,0,0,0,-1,1273,505,0,0
56,519,0,0,0,0,0,0,0,0,0,-1,1280,505,0,0
63,519,0,0,0,0,0,0,0,0,0,-1,1287,505,0,0
70,519,0,0,0,0,0,0,0,0,0,-1,1294,505,0,0
77,519,0,0,0,0,0,0,0,0,0,-1,1301,505,0,0
84,519,0,0,0,0,0,0,0,0,0,-1,1308,505,0,0
91,519,0,0,0,0,0,0,0,0,0,-1,1315,505,0,0
98,519,0,0,0,0,0,0,0,0,0,-1,1322,505,0,0
105,519,0,0,0,0,0,0,0,0,0,-1,1329,505,0,0
112,519,0,0,0,0,0,0,0,0,0,-1,1336,505,0,0
119,519,0,0,0,0,0,0,0,0,0,-1,1343,505,0,0
126,519,0,0,0,0,0,0,0,0,0,-1,1350,505,0,0
133,519,0,0,0,0,0,0,0,0,0,-1,1357,505,0,0
140,519,0,0,0,0,0,0,0,0,0,-1,1364,505,0,0
147,519,0,0,0,0,0,0,0,0,0,-1,1371,505,0,0
154,519,0,0,0,0,0,0,0,0,0,-1,1378,505,0,0
161,519,0,0,0,0,0,0,0,0,0,-1,1385,505,0,0
168,519,0,0,0,0,0,0,0,0,0,-1,1392,505,0,0
175,519,0,0,0,0,0,0,0,0,0,-1,1399,505,0,0
182,519,0,0,0,0,0,0,0,0,0,-1,1406,505,0,0
189,519,0,0,0,0,0,0,0,0,0,-1,1413,505,0,0
196,519,0,0,0,0,0,0,0,0,0,-1,1420,505,0,0
203,519,0,0,0,0,0,0,0,0,0,-1,1427,505,0,0
210,519,0,0,0,0,0,0,0,0,0,-1,1434,505,0,0
217,519,0,0,0,0,0,0,0,0,0,-1,1441,505,0,0
224,519,0,0,0,0,0,0,0,0,0,-1,1448,505,0,0
231,519,0,0,0,0,0,0,0,0,0,-1,1455,505,0,0
238,519,0,0,0,0,0,0,0,0,0,-1,1462,505,0,0
245,519,0,0,0,0,0,0,0,0,0,-1,1469,505,0,0
252,519,5.26208,0.0938416,0,0,0,0,0,0,0,-1,1476,505,5.26207,-0.0938493
259,519,6.14246,-1.36441,0,0,0,0,0,0,0,-1,1483,505,6.14241,1.36441
266,519,5.31909,-0.400787,0,0,0,0,0,0,0,-1,1490,505,5.31912,0.400773
273,519,4.02393,0.325531,0,0,0,0,0,0,0,-1,1497,505,4.0239,-0.325522
280,519,4.68848,0.53006,0,0,0,0,0,0,0,-1,1504,505,4.68842,-0.530073
287,519,7.9519,-3.80801,0,0,0,0,0,0,0,-1,1511,505,7.95193,3.808
294,519,6.92273,-3.38889,0,0,0,0,0,0,0,-1,1518,505,6.92268,3.38888
301,519,5.35669,-2.92661,0,0,0,0,0,0,0,-1,1525,505,5.35675,2.9266
308,519,7.37549,-5.64529,0,0,0,0,0,0,0,-1,1532,505,7.3755,5.64529
315,519,6.30029,-4.53754,0,0,0,0,0,0,0,-1,1539,505,6.30024,4.53753
322,519,5.84302,-5.45117,0,0,0,0,0,0,0,-1,1546,505,5.84303,5.45116
329,519,4.92407,0.62384,0,0,0,0,0,0,0,-1,1553,505,4.92403,-0.623832
336,519,3.10095,-0.329285,0,0,0,0,0,0,0,-1,1560,505,3.1009,0.329283
343,519,2.49146,-2.31119,0,0,0,0,0,0,0,-1,1567,505,2.49145,2.31119
350,519,3.47729,-2.22516,0,0,0,0,0,0,0,-1,1574,505,3.47726,2.22515
357,519,13.271,-29.6344,0,0,0,0,0,0,0,-1,1581,505,13.271,29.6344
364,519,12.8292,-28.3627,0,0,0,0,0,0,0,-1,1588,505,12.8292,28.3627
371,519,12.3875,-27.0911,0,0,0,0,0,0,0,-1,1595,505,12.3874,27.091
378,519,6.36597,-10.0967,0,0,0,0,0,0,0,-1,1602,505,6.36597,10.0967
385,519,6.24756,-9.72186,0,0,0,0,0,0,0,-1,1609,505,6.24752,9.72183
392,519,16.8391,-37.6736,0,0,0,0,0,0,0,-1,1616,505,16.8391,37.6737
399,519,19.1234,-42.5553,0,0,0,0,0,0,0,-1,1623,505,19.1234,42.5553
406,519,19.2698,-41.6215,0.00370772,0.00108525,-0.000169549,0.00371863,0.00107433,-0.0642958,0.00220981,0.0466027,1630,505,19.2697,41.6215
413,519,19.3352,-40.7341,0.00383114,0.00146541,0.000304444,0.00386969,0.00142686,0.125956,0.00225969,0.0181867,1637,505,19.3352,40.7341
420,519,19.2489,-39.8201,0.00354765,0.0015848,0.000576018,0.0037042,0.00142825,0.265374,0.00215721,0.0165022,1644,505,19.249,39.8201
427,519,19.2164,-38.9509,0.0030196,0.00164478,0.000727942,0.00333341,0.00133097,0.407013,0.00193751,0.0159217,1651,505,19.2165,38.9509
434,519,19.1448,-38.0544,0.00245907,0.00162705,0.000838657,0.00297923,0.0011069,0.55516,0.00173888,0.0138248,1658,505,19.1447,38.0544
441,519,19.0559,-37.1384,0.00198658,0.00166491,0.000978075,0.00281696,0.000834537,0.703908,0.00167078,0.0121297,1665,505,19.0559,37.1384
448,519,19.0417,-36.2587,0.00150755,0.00162988,0.00108213,0.00265257,0.00048486,0.81363,0.00163096,0.00967838,1672,505,19.0418,36.2587
455,519,19.0037,-35.3734,0.00103832,0.00166199,0.00117228,0.0025632,0.000137109,0.915392,0.00166498,0.0111034,1679,505,19.0037,35.3733
462,519,18.9558,-34.4587,0.000785705,0.00176242,0.00127364,0.00263813,-8.99968e-05,0.968471,0.0017895,0.01074,1686,505,18.9558,34.4587
469,519,18.9189,-33.539,0.000932336,0.00197661,0.00145824,0.00300337,-9.44264e-05,0.957316,0.00203445,0.0111763,1693,505,18.9189,33.539
476,519,18.8666,-32.5944,0.00102284,0.00220415,0.00164854,0.00336465,-0.000137658,0.957419,0.00229037,0.0133677,1700,505,18.8666,32.5943
483,519,18.8201,-31.6443,0.00139944,0.00249547,0.00193328,0.0039569,-6.19951e-05,0.923506,0.00265884,0.0146997,1707,505,18.8201,31.6443
490,519,18.7531,-30.6655,0.00204933,0.00288969,0.00232542,0.00483259,0.000106435,0.874779,0.00318684,0.0133941,1714,505,18.753,30.6655
497,519,18.6844,-29.8647,0.00295249,0.0031051,0.00253761,0.00556755,0.000490039,0.800429,0.00355961,0.0418822,1721,505,18.6844,29.8647
504,519,18.6328,-28.6967,0,0,0,0,0,0,0,-1,1728,505,18.6329,28.6966
511,519,18.8152,-27.5058,0,0,0,0,0,0,0,-1,1735,505,18.8152,27.5058
518,519,18.8707,-26.5208,0,0,0,0,0,0,0,-1,1742,505,18.8707,26.5208
525,519,15.9647,-20.5714,0,0,0,0,0,0,0,-1,1749,505,15.9648,20.5714
532,519,15.825,-19.0025,0,0,0,0,0,0,0,-1,1756,505,15.8249,19.0025
539,519,16.5902,-16.8075,0,0,0,0,0,0,0,-1,1763,505,16.5903,16.8075
546,519,12.4001,-16.5616,0,0,0,0,0,0,0,-1,1770,505,12.4002,16.5616
553,519,4.14136,0.0667419,0,0,0,0,0,0,0,-1,1777,505,4.14141,-0.0667503
560,519,3.77856,0.279724,0,0,0,0,0,0,0,-1,1784,505,3.77861,-0.279731
567,519,0,0,0,0,0,0,0,0,0,-1,1791,505,0,0
574,519,0,0,0,0,0,0,0,0,0,-1,1798,505,0,0
581,519,0,0,0,0,0,0,0,0,0,-1,1805,505,0,0
588,519,0,0,0,0,0,0,0,0,0,-1,1812,505,0,0
595,519,0,0,0,0,0,0,0,0,0,-1,1819,505,0,0
602,519,0,0,0,0,0,0,0,0,0,-1,1826,505,0,0
609,519,0,0,0,0,0,0,0,0,0,-1,1833,505,0,0
616,519,0,0,0,0,0,0,0,0,0,-1,1840,505,0,0
623,519,0,0,0,0,0,0,0,0,0,-1,1847,505,0,0
630,519,0,0,0,0,0,0,0,0,0,-1,1854,505,0,0
637,519,0,0,0,0,0,0,0,0,0,-1,1861,505,0,0
644,519,0,0,0,0,0,0,0,0,0,-1,1868,505,0,0
651,519,0,0,0,0,0,0,0,0,0,-1,1875,505,0,0
658,519,0,0,0,0,0,0,0,0,0,-1,1882,505,0,0
665,519,0,0,0,0,0,0,0,0,0,-1,1889,505,0,0
672,519,0,0,0,0,0,0,0,0,0,-1,1896,505,0,0
679,519,0,0,0,0,0,0,0,0,0,-1,1903,505,0,0
686,519,0,0,0,0,0,0,0,0,0,-1,1910,505,0,0
693,519,0,0,0,0,0,0,0,0,0,-1,1917,505,0,0
700,519,0,0,0,0,0,0,0,0,0,-1,1924,505,0,0
707,519,0,0,0,0,0,0,0,0,0,-1,1931,505,0,0
714,519,0,0,0,0,0,0,0,0,0,-1,1938,505,0,0
721,519,0,0,0,0,0,0,0,0,0,-1,1945,505,0,0
728,519,0,0,0,0,0,0,0,0,0,-1,1952,505,0,0
735,519,0,0,0,0,0,0,0,0,0,-1,1959,505,0,0
742,519,0,0,0,0,0,0,0,0,0,-1,1966,505,0,0
749,519,0,0,0,0,0,0,0,0,0,-1,1973,505,0,0
756,519,0,0,0,0,0,0,0,0,0,-1,1980,505,0,0
763,519,0,0,0,0,0,0,0,0,0,-1,1987,505,0,0
770,519,0,0,0,0,0,0,0,0,0,-1,1994,505,0,0
777,519,0,0,0,0,0,0,0,0,0,-1,2001,505,0,0
784,519,0,0,0,0,0,0,0,0,0,-1,2008,505,0,0
791,519,0,0,0,0,0,0,0,0,0,-1,2015,505,0,0
798,519,0,0,0,0,0,0,0,0,0,-1,2022,505,0,0
805,519,0,0,0,0,0,0,0,0,0,-1,2029,505,0,0
812,519,0,0,0,0,0,0,0,0,0,-1,2036,505,0,0
-700,512,0,0,0,0,0,0,0,0,0,-1,524,512,0,0
-693,512,0,0,0,0,0,0,0,0,0,-1,531,512,0,0
-686,512,0,0,0,0,0,0,0,0,0,-1,538,512,0,0
-679,512,0,0,0,0,0,0,0,0,0,-1,545,512,0,0
-672,512,0,0,0,0,0,0,0,0,0,-1,552,512,0,0
-665,512,0,0,0,0,0,0,0,0,0,-1,559,512,0,0
-658,512,0,0,0,0,0,0,0,0,0,-1,566,512,0,0
-651,512,0,0,0,0,0,0,0,0,0,-1,573,512,0,0
-644,512,0,0,0,0,0,0,0,0,0,-1,580,512,0,0
-637,512,0,0,0,0,0,0,0,0,0,-1,587,512,0,0
-630,512,0,0,0,0,0,0,0,0,0,-1,594,512,0,0
-623,512,0,0,0,0,0,0,0,0,0,-1,601,512,0,0
-616,512,0,0,0,0,0,0,0,0,0,-1,608,512,0,0
-609,512,0,0,0,0,0,0,0,0,0,-1,615,512,0,0
-602,512,0,0,0,0,0,0,0,0,0,-1,622,512,0,0
-595,512,0,0,0,0,0,0,0,0,0,-1,629,512,0,0
-588,512,0,0,0,0,0,0,0,0,0,-1,636,512,0,0
-581,512,0,0,0,0,0,0,0,0,0,-1,643,512,0,0
-574,512,0,0,0,0,0,0,0,0,0,-1,650,512,0,0
-567,512,0,0,0,0,0,0,0,0,0,-1,657,512,0,0
-560,512,0,0,0,0,0,0,0,0,0,-1,664,512,0,0
-553,512,0,0,0,0,0,0,0,0,0,-1,671,512,0,0
-546,512,0,0,0,0,0,0,0,0,0,-1,678,512,0,0
-539,512,0,0,0,0,0,0,0,0,0,-1,685,512,0,0
-532,512,0,0,0,0,0,0,0,0,0,-1,692,512,0,0
-525,512,0,0,0,0,0,0,0,0,0,-1,699,512,0,0
-518,512,0,0,0,0,0,0,0,0,0,-1,706,512,0,0
-511,512,0,0,0,0,0,0,0,0,0,-1,713,512,0,0
-504,512,0,0,0,0,0,0,0,0,0,-1,720,512,0,0
-497,512,0,0,0,0,0,0,0,0,0,-1,727,512,0,0
-490,512,0,0,0,0,0,0,0,0,0,-1,734,512,0,0
-483,512,0,0,0,0,0,0,0,0,0,-1,741,512,0,0
-476,512,0,0,0,0,0,0,0,0,0,-1,748,512,0,0
-469,512,0,0,0,0,0,0,0,0,0,-1,755,512,0,0
-462,512,0,0,0,0,0,0,0,0,0,-1,762,512,0,0
-455,512,0,0,0,0,0,0,0,0,0,-1,769,512,0,0
-448,512,1.96283,-4.15674,0,0,0,0,0,0,0,-1,776,512,1.96285,4.15677
-441,512,1.78198,-4.88824,0,0,0,0,0,0,0,-1,783,512,1.78201,4.88826
-434,512,0.0726929,-9.85822,0,0,0,0,0,0,0,-1,790,512,0.0727008,9.85819
-427,512,-0.384583,-9.94824,0,0,0,0,0,0,0,-1,797,512,-0.384552,9.94823
-420,512,-2.93219,-12.4855,0,0,0,0,0,0,0,-1,804,512,-2.93219,12.4855
-413,512,-2.22711,-11.4485,0,0,0,0,0,0,0,-1,811,512,-2.22712,11.4485
-406,512,-2.38037,-13.5743,0,0,0,0,0,0,0,-1,818,512,-2.38034,13.5743
-399,512,-3.13367,-23.934,0,0,0,0,0,0,0,-1,825,512,-3.13368,23.934
-392,512,-3.25415,-27.1008,0,0,0,0,0,0,0,-1,832,512,-3.25417,27.1008
-385,512,-3.37646,-28.0352,0.00610668,0.0217858,-0.0145374,0.0304627,-0.00257022,-1.03268,0.0212172,0.0249049,839,512,-3.37646,28.0352
-378,512,-3.43958,-28.9575,0.00542176,0.0185399,-0.0126712,0.026249,-0.00228734,-1.02423,0.0183095,0.0199122,846,512,-3.43957,28.9575
-371,512,-3.47186,-29.9518,0.00473855,0.0153635,-0.0108254,0.0221097,-0.00200766,-1.0135,0.0154526,0.0147836,853,512,-3.47185,29.9518
-364,512,-3.50482,-30.997,0.00398829,0.0122793,-0.00892207,0.0179719,-0.00170432,-1.00288,0.0125879,0.0102202,860,512,-3.50483,30.997
-357,512,-3.56543,-31.9213,0.00321262,0.00957498,-0.00709298,0.0141675,-0.00137989,-0.9962,0.00993694,0.0112806,867,512,-3.56542,31.9213
-350,512,-3.63495,-32.8393,0.00249354,0.00709602,-0.00537721,0.0106437,-0.00105416,-0.987586,0.00747203,0.0124033,874,512,-3.63494,32.8393
-343,512,-3.73755,-33.75,0.0019179,0.00480644,-0.00381136,0.007438,-0.000713659,-0.966508,0.00521286,0.014436,881,512,-3.73757,33.75
-336,512,-3.81219,-34.6888,0.00143213,0.00287659,-0.00243327,0.00469255,-0.000383829,-0.929664,0.00326384,0.0158409,888,512,-3.81222,34.6888
-329,512,-3.79089,-35.6063,0.00107045,0.00130684,-0.00123424,0.00242853,-5.1236e-05,-0.833134,0.00163637,0.0180293,895,512,-3.79088,35.6063
-322,512,-3.84564,-36.4955,0.000834032,-5.34692e-05,-0.000158366,0.000861444,-8.08815e-05,-0.171396,0.000603067,0.0146356,902,512,-3.84562,36.4955
-315,512,-3.91016,-37.4294,0.000884496,-0.00089206,0.000626546,0.00108323,-0.00109079,0.307153,0.00125518,0.0120457,909,512,-3.91015,37.4294
-308,512,-3.97845,-38.3334,0.0012563,-0.00137935,0.00114145,0.00168191,-0.00180496,0.356901,0.00201356,0.0114936,916,512,-3.97845,38.3334
-301,512,-4.04626,-39.2106,0.0016782,-0.00167794,0.00159801,0.00231736,-0.0023171,0.380483,0.0026757,0.0155735,923,512,-4.04626,39.2105
-294,512,-4.05811,-40.056,0.00207004,-0.00170694,0.00204101,0.00296221,-0.00259912,0.412096,0.00321312,0.0170387,930,512,-4.05813,40.056
-287,512,-4.10236,-40.9005,0,0,0,0,0,0,0,-1,937,512,-4.10233,40.9005
-280,512,-4.18292,-41.8308,0,0,0,0,0,0,0,-1,944,512,-4.18295,41.8308
-273,512,-2.90118,-34.7153,0,0,0,0,0,0,0,-1,951,512,-2.90121,34.7153
-266,512,-2.33594,-25.9839,0,0,0,0,0,0,0,-1,958,512,-2.33592,25.9839
-259,512,-0.525452,-14.0815,0,0,0,0,0,0,0,-1,965,512,-0.525475,14.0815
-252,512,1.45941,-3.43475,0,0,0,0,0,0,0,-1,972,512,1.45938,3.43475
-245,512,-1.6731,-22.8959,0,0,0,0,0,0,0,-1,979,512,-1.67312,22.8959
-238,512,0.227051,-8.92969,0,0,0,0,0,0,0,-1,986,512,0.227073,8.92968
-231,512,-1.90576,-38.0918,0,0,0,0,0,0,0,-1,993,512,-1.90575,38.0918
-224,512,-1.29974,-33.6304,0,0,0,0,0,0,0,-1,1000,512,-1.29974,33.6304
-217,512,-0.963196,-34.1697,0,0,0,0,0,0,0,-1,1007,512,-0.963226,34.1697
-210,512,-3.76642,-1.94702,0,0,0,0,0,0,0,-1,1014,512,-3.76641,1.94702
-203,512,-2.48328,-5.19061,0,0,0,0,0,0,0,-1,1021,512,-2.48328,5.19059
-196,512,-1.14929,-4.63202,0,0,0,0,0,0,0,-1,1028,512,-1.14934,4.632
-189,512,0.197998,4.55505,0,0,0,0,0,0,0,-1,1035,512,0.197996,-4.55506
-182,512,2.73938,0.0778503,0,0,0,0,0,0,0,-1,1042,512,2.73944,-0.077852
-175,512,2.29565,0.209808,0,0,0,0,0,0,0,-1,1049,512,2.29565,-0.209813
-168,512,2.09399,-0.302856,0,0,0,0,0,0,0,-1,1056,512,2.09403,0.302826
-161,512,2.76636,0.0921021,0,0,0,0,0,0,0,-1,1063,512,2.76633,-0.0921104
-154,512,3.41382,0.466187,0,0,0,0,0,0,0,-1,1070,512,3.41382,-0.466178
-147,512,0,0,0,0,0,0,0,0,0,-1,1077,512,0,0
-140,512,0,0,0,0,0,0,0,0,0,-1,1084,512,0,0
-133,512,0,0,0,0,0,0,0,0,0,-1,1091,512,0,0
-126,512,0,0,0,0,0,0,0,0,0,-1,1098,512,0,0
-119,512,0,0,0,0,0,0,0,0,0,-1,1105,512,0,0
-112,512,0,0,0,0,0,0,0,0,0,-1,1112,512,0,0
-105,512,0,0,0,0,0,0,0,0,0,-1,1119,512,0,0
-98,512,0,0,0,0,0,0,0,0,0,-1,1126,512,0,0
-91,512,0,0,0,0,0,0,0,0,0,-1,1133,512,0,0
-84,512,0,0,0,0,0,0,0,0,0,-1,1140,512,0,0
-77,512,0,0,0,0,0,0,0,0,0,-1,1147,512,0,0
-70,512,0,0,0,0,0,0,0,0,0,-1,1154,512,0,0
-63,512,0,0,0,0,0,0,0,0,0,-1,1161,512,0,0
-56,512,0,0,0,0,0,0,0,0,0,-1,1168,512,0,0
-49,512,0,0,0,0,0,0,0,0,0,-1,1175,512,0,0
-42,512,0,0,0,0,0,0,0,0,0,-1,1182,512,0,0
-35,512,0,0,0,0,0,0,0,0,0,-1,1189,512,0,0
-28,512,0,0,0,0,0,0,0,0,0,-1,1196,512,0,0
-21,512,0,0,0,0,0,0,0,0,0,-1,1203,512,0,0
-14,512,0,0,0,0,0,0,0,0,0,-1,1210,512,0,0
-7,512,0,0,0,0,0,0,0,0,0,-1,1217,512,0,0
0,512,0,0,0,0,0,0,0,0,0,-1,1224,512,0,0
7,512,0,0,0,0,0,0,0,0,0,-1,1231,512,0,0
14,512,0,0,0,0,0,0,0,0,0,-1,1238,512,0,0
21,512,0,0,0,0,0,0,0,0,0,-1,1245,512,0,0
28,512,0,0,0,0,0,0,0,0,0,-1,1252,512,0,0
35,512,0,0,0,0,0,0,0,0,0,-1,1259,512,0,0
42,512,0,0,0,0,0,0,0,0,0,-1,1266,512,0,0
49,512,0,0,0,0,0,0,0,0,0,-1,1273,512,0,0
56,512,0,0,0,0,0,0,0,0,0,-1,1280,512,0,0
63,512,0,0,0,0,0,0,0,0,0,-1,1287,512,0,0
70,512,0,0,0,0,0,0,0,0,0,-1,1294,512,0,0
77,512,0,0,0,0,0,0,0,0,0,-1,1301,512,0,0
84,512,0,0,0,0,0,0,0,0,0,-1,1308,512,0,0
91,512,0,0,0,0,0,0,0,0,0,-1,1315,512,0,0
98,512,0,0,0,0,0,0,0,0,0,-1,1322,512,0,0
105,512,0,0,0,0,0,0,0,0,0,-1,1329,512,0,0
112,512,0,0,0,0,0,0,0,0,0,-1,1336,512,0,0
119,512,0,0,0,0,0,0,0,0,0,-1,1343,512,0,0
126,512,0,0,0,0,0,0,0,0,0,-1,1350,512,0,0
133,512,0,0,0,0,0,0,0,0,0,-1,1357,512,0,0
140,512,0,0,0,0,0,0,0,0,0,-1,1364,512,0,0
147,512,0,0,0,0,0,0,0,0,0,-1,1371,512,0,0
154,512,0,0,0,0,0,0,0,0,0,-1,1378,512,0,0
161,512,0,0,0,0,0,0,0,0,0,-1,1385,512,0,0
168,512,0,0,0,0,0,0,0,0,0,-1,1392,512,0,0
175,512,0,0,0,0,0,0,0,0,0,-1,1399,512,0,0
182,512,0,0,0,0,0,0,0,0,0,-1,1406,512,0,0
189,512,0,0,0,0,0,0,0,0,0,-1,1413,512,0,0
196,512,0,0,0,0,0,0,0,0,0,-1,1420,512,0,0
203,512,0,0,0,0,0,0,0,0,0,-1,1427,512,0,0
210,512,0,0,0,0,0,0,0,0,0,-1,1434,512,0,0
217,512,0,0,0,0,0,0,0,0,0,-1,1441,512,0,0
224,512,0,0,0,0,0,0,0,0,0,-1,1448,512,0,0
231,512,0,0,0,0,0,0,0,0,0,-1,1455,512,0,0
238,512,0,0,0,0,0,0,0,0,0,-1,1462,512,0,0
245,512,0,0,0,0,0,0,0,0,0,-1,1469,512,0,0
252,512,0,0,0,0,0,0,0,0,0,-1,1476,512,0,0
259,512,0,0,0,0,0,0,0,0,0,-1,1483,512,0,0
266,512,0,0,0,0,0,0,0,0,0,-1,1490,512,0,0
273,512,4.00745,0.618622,0,0,0,0,0,0,0,-1,1497,512,4.00747,-0.618611
280,512,4.49609,0.649841,0,0,0,0,0,0,0,-1,1504,512,4.49612,-0.649834
287,512,4.77234,0.458069,0,0,0,0,0,0,0,-1,1511,512,4.77233,-0.458083
294,512,8.54956,-2.36273,0,0,0,0,0,0,0,-1,1518,512,8.54952,2.36274
301,512,6.302,-1.69092,0,0,0,0,0,0,0,-1,1525,512,6.30196,1.69093
308,512,8.2439,-6.22754,0,0,0,0,0,0,0,-1,1532,512,8.24394,6.22757
315,512,7.53687,-6.04211,0,0,0,0,0,0,0,-1,1539,512,7.53691,6.04211
322,512,6.82983,-5.85663,0,0,0,0,0,0,0,-1,1546,512,6.82988,5.85666
329,512,4.38147,-0.329651,0,0,0,0,0,0,0,-1,1553,512,4.38144,0.329662
336,512,4.41467,-0.741455,0,0,0,0,0,0,0,-1,1560,512,4.41467,0.741442
343,512,4.44727,-1.21667,0,0,0,0,0,0,0,-1,1567,512,4.44732,1.21666
350,512,4.55469,-1.65082,0,0,0,0,0,0,0,-1,1574,512,4.5547,1.65083
357,512,5.79993,-2.67456,0,0,0,0,0,0,0,-1,1581,512,5.79991,2.67454
364,512,13.118,-28.5485,0,0,0,0,0,0,0,-1,1588,512,13.1181,28.5485
371,512,5.28467,-7.69269,0,0,0,0,0,0,0,-1,1595,512,5.28464,7.69269
378,512,6.29407,-9.88055,0,0,0,0,0,0,0,-1,1602,512,6.29412,9.88057
385,512,6.45569,-9.32233,0,0,0,0,0,0,0,-1,1609,512,6.45565,9.3223
392,512,6.35522,-8.98425,0,0,0,0,0,0,0,-1,1616,512,6.35526,8.98422
399,512,16.9089,-33.7311,0,0,0,0,0,0,0,-1,1623,512,16.9089,33.7311
406,512,20.2123,-41.7484,0,0,0,0,0,0,0,-1,1630,512,20.2123,41.7484
413,512,20.2687,-40.7719,0,0,0,0,0,0,0,-1,1637,512,20.2687,40.7719
420,512,20.1912,-39.8593,0.00467302,0.00178764,0.000689823,0.00482945,0.0016312,0.223008,0.00283679,0.0318352,1644,512,20.1912,39.8593
427,512,20.1318,-38.9161,0.00397498,0.00164902,0.000717462,0.00417848,0.00144552,0.276384,0.00245032,0.0174658,1651,512,20.1318,38.9161
434,512,20.0516,-38.0126,0.00323858,0.00145315,0.000676652,0.00346604,0.00122569,0.324291,0.0020295,0.0126857,1658,512,20.0516,38.0126
441,512,19.969,-37.0984,0.002653,0.00135433,0.000698412,0.0029573,0.00105003,0.410897,0.00173114,0.0133228,1665,512,19.9689,37.0984
448,512,19.9344,-36.2272,0.00211977,0.00124832,0.000738808,0.00254177,0.000826322,0.518969,0.00149712,0.00976026,1672,512,19.9344,36.2272
455,512,19.8837,-35.3148,0.00161791,0.00123704,0.000776401,0.00222689,0.000628058,0.665131,0.00132579,0.0093189,1679,512,19.8837,35.3147
462,512,19.8574,-34.3719,0.00131286,0.00131976,0.000852223,0.00216854,0.000464079,0.787421,0.00131851,0.00963022,1686,512,19.8574,34.3719
469,512,19.8007,-33.4587,0.00137184,0.00152528,0.00104019,0.00249157,0.000405548,0.82221,0.00154373,0.0123028,1693,512,19.8007,33.4587
476,512,19.7404,-32.5419,0.00140859,0.001758,0.00124938,0.00284483,0.000321764,0.854863,0.00179891,0.0162356,1700,512,19.7404,32.5419
483,512,19.707,-31.5845,0.00170398,0.00201981,0.0015365,0.00340648,0.000317303,0.836607,0.00217296,0.0147755,1707,512,19.707,31.5845
490,512,19.663,-30.6307,0.00219594,0.00240672,0.00189907,0.00420332,0.000399339,0.813118,0.00267904,0.0114301,1714,512,19.663,30.6307
497,512,19.5773,-29.6873,0.00289837,0.0026792,0.00217327,0.00496481,0.000612757,0.760207,0.00312571,0.0123285,1721,512,19.5773,29.6873
504,512,19.4796,-28.7332,0.00385423,0.00303118,0.00247907,0.0059557,0.00092971,0.703148,0.00369971,0.0194089,1728,512,19.4797,28.7331
511,512,19.428,-27.719,0.0050364,0.00343315,0.00285575,0.0072009,0.00126865,0.648567,0.00443857,0.0309289,1735,512,19.4279,27.719
518,512,19.6312,-26.7615,0.00649187,0.00403245,0.00324304,0.00873052,0.0017938,0.604181,0.00532411,0.0420375,1742,512,19.6313,26.7615
525,512,20.0214,-25.7928,0,0,0,0,0,0,0,-1,1749,512,20.0214,25.7928
532,512,16.6807,-19.0635,0,0,0,0,0,0,0,-1,1756,512,16.6807,19.0635
539,512,12.6367,-16.4022,0,0,0,0,0,0,0,-1,1763,512,12.6367,16.4021
546,512,2.77551,-0.66449,0,0,0,0,0,0,0,-1,1770,512,2.77548,0.664503
553,512,3.927,-0.448853,0,0,0,0,0,0,0,-1,1777,512,3.92704,0.448843
560,512,3.55762,-0.201233,0,0,0,0,0,0,0,-1,1784,512,3.55768,0.201259
567,512,3.09045,0.191193,0,0,0,0,0,0,0,-1,1791,512,3.09045,-0.191203
574,512,0,0,0,0,0,0,0,0,0,-1,1798,512,0,0
581,512,0,0,0,0,0,0,0,0,0,-1,1805,512,0,0
588,512,0,0,0,0,0,0,0,0,0,-1,1812,512,0,0
595,512,0,0,0,0,0,0,0,0,0,-1,1819,512,0,0
602,512,0,0,0,0,0,0,0,0,0,-1,1826,512,0,0
609,512,0,0,0,0,0,0,0,0,0,-1,1833,512,0,0
616,512,0,0,0,0,0,0,0,0,0,-1,1840,512,0,0
623,512,0,0,0,0,0,0,0,0,0,-1,1847,512,0,0
630,512,0,0,0,0,0,0,0,0,0,-1,1854,512,0,0
637,512,0,0,0,0,0,0,0,0,0,-1,1861,512,0,0
644,512,0,0,0,0,0,0,0,0,0,-1,1868,512,0,0
651,512,0,0,0,0,0,0,0,0,0,-1,1875,512,0,0
658,512,0,0,0,0,0,0,0,0,0,-1,1882,512,0,0
665,512,0,0,0,0,0,0,0,0,0,-1,1889,512,0,0
672,512,0,0,0,0,0,0,0,0,0,-1,1896,512,0,0
679,512,0,0,0,0,0,0,0,0,0,-1,1903,512,0,0
686,512,0,0,0,0,0,0,0,0,0,-1,1910,512,0,0
693,512,0,0,0,0,0,0,0,0,0,-1,1917,512,0,0
700,512,0,0,0,0,0,0,0,0,0,-1,1924,512,0,0
707,512,0,0,0,0,0,0,0,0,0,-1,1931,512,0,0
714,512,0,0,0,0,0,0,0,0,0,-1,1938,512,0,0
721,512,0,0,0,0,0,0,0,0,0,-1,1945,512,0,0
728,512,0,0,0,0,0,0,0,0,0,-1,1952,512,0,0
735,512,0,0,0,0,0,0,0,0,0,-1,1959,512,0,0
742,512,0,0,0,0,0,0,0,0,0,-1,1966,512,0,0
749,512,0,0,0,0,0,0,0,0,0,-1,1973,512,0,0
756,512,0,0,0,0,0,0,0,0,0,-1,1980,512,0,0
763,512,0,0,0,0,0,0,0,0,0,-1,1987,512,0,0
770,512,0,0,0,0,0,0,0,0,0,-1,1994,512,0,0
777,512,0,0,0,0,0,0,0,0,0,-1,2001,512,0,0
784,512,0,0,0,0,0,0,0,0,0,-1,2008,512,0,0
791,512,0,0,0,0,0,0,0,0,0,-1,2015,512,0,0
798,512,0,0,0,0,0,0,0,0,0,-1,2022,512,0,0
805,512,0,0,0,0,0,0,0,0,0,-1,2029,512,0,0
812,512,0,0,0,0,0,0,0,0,0,-1,2036,512,0,0
-700,505,0,0,0,0,0,0,0,0,0,-1,524,519,0,0
-693,505,0,0,0,0,0,0,0,0,0,-1,531,519,0,0
-686,505,0,0,0,0,0,0,0,0,0,-1,538,519,0,0
-679,505,0,0,0,0,0,0,0,0,0,-1,545,519,0,0
-672,505,0,0,0,0,0,0,0,0,0,-1,552,519,0,0
-665,505,0,0,0,0,0,0,0,0,0,-1,559,519,0,0
-658,505,0,0,0,0,0,0,0,0,0,-1,566,519,0,0
-651,505,0,0,0,0,0,0,0,0,0,-1,573,519,0,0
-644,505,0,0,0,0,0,0,0,0,0,-1,580,519,0,0
-637,505,0,0,0,0,0,0,0,0,0,-1,587,519,0,0
-630,505,0,0,0,0,0,0,0,0,0,-1,594,519,0,0
-623,505,0,0,0,0,0,0,0,0,0,-1,601,519,0,0
-616,505,0,0,0,0,0,0,0,0,0,-1,608,519,0,0
-609,505,0,0,0,0,0,0,0,0,0,-1,615,519,0,0
-602,505,0,0,0,0,0,0,0,0,0,-1,622,519,0,0
-595,505,0,0,0,0,0,0,0,0,0,-1,629,519,0,0
-588,505,0,0,0,0,0,0,0,0,0,-1,636,519,0,0
-581,505,0,0,0,0,0,0,0,0,0,-1,643,519,0,0
-574,505,0,0,0,0,0,0,0,0,0,-1,650,519,0,0
-567,505,0,0,0,0,0,0,0,0,0,-1,657,519,0,0
-560,505,0,0,0,0,0,0,0,0,0,-1,664,519,0,0
-553,505,0,0,0,0,0,0,0,0,0,-1,671,519,0,0
-546,505,0,0,0,0,0,0,0,0,0,-1,678,519,0,0
-539,505,0,0,0,0,0,0,0,0,0,-1,685,519,0,0
-532,505,0,0,0,0,0,0,0,0,0,-1,692,519,0,0
-525,505,0,0,0,0,0,0,0,0,0,-1,699,519,0,0
-518,505,0,0,0,0,0,0,0,0,0,-1,706,519,0,0
-511,505,0,0,0,0,0,0,0,0,0,-1,713,519,0,0
-504,505,0,0,0,0,0,0,0,0,0,-1,720,519,0,0
-497,505,0,0,0,0,0,0,0,0,0,-1,727,519,0,0
-490,505,0,0,0,0,0,0,0,0,0,-1,734,519,0,0
-483,505,0,0,0,0,0,0,0,0,0,-1,741,519,0,0
-476,505,0,0,0,0,0,0,0,0,0,-1,748,519,0,0
-469,505,0,0,0,0,0,0,0,0,0,-1,755,519,0,0
-462,505,0,0,0,0,0,0,0,0,0,-1,762,519,0,0
-455,505,2.72137,-3.26379,0,0,0,0,0,0,0,-1,769,519,2.72135,3.26377
-448,505,2.51111,-3.94989,0,0,0,0,0,0,0,-1,776,519,2.51112,3.94986
-441,505,2.80212,-6.8902,0,0,0,0,0,0,0,-1,783,519,2.80209,6.89019
-434,505,-0.155212,-10.6374,0,0,0,0,0,0,0,-1,790,519,-0.155194,10.6374
-427,505,-0.474426,-10.4702,0,0,0,0,0,0,0,-1,797,519,-0.474433,10.4702
-420,505,-0.922546,-10.1928,0,0,0,0,0,0,0,-1,804,519,-0.92257,10.1928
-413,505,-3.33948,-13.6183,0,0,0,0,0,0,0,-1,811,519,-3.33949,13.6184
-406,505,-3.2439,-18.3408,0,0,0,0,0,0,0,-1,818,519,-3.24389,18.3408
-399,505,-4.1922,-25.9641,0,0,0,0,0,0,0,-1,825,519,-4.19218,25.964
-392,505,-4.17365,-26.9983,0.00463225,0.0192404,-0.0125184,0.0264297,-0.00255711,-1.04949,0.0185311,0.0287272,832,519,-4.17363,26.9983
-385,505,-4.26123,-27.991,0.00430474,0.0164611,-0.0110335,0.0229798,-0.00221404,-1.03716,0.0161087,0.01182,839,519,-4.26123,27.991
-378,505,-4.3429,-28.9839,0.00398534,0.0138716,-0.00958685,0.0197146,-0.00185775,-1.02343,0.0138041,0.0119787,846,519,-4.34287,28.9839
-371,505,-4.37482,-29.9982,0.00360229,0.0113048,-0.00814061,0.0164592,-0.00155212,-1.00634,0.011525,0.0147755,853,519,-4.37483,29.9982
-364,505,-4.42706,-30.9644,0.00313419,0.00875084,-0.00660165,0.0131167,-0.00123164,-0.986502,0.00918256,0.0163077,860,519,-4.42708,30.9644
-357,505,-4.49048,-31.8963,0.00263164,0.00649507,-0.00508982,0.0100074,-0.000880697,-0.966764,0.00698371,0.0134792,867,519,-4.49046,31.8963
-350,505,-4.57422,-32.7996,0.00214921,0.00442594,-0.0036542,0.00711498,-0.000539832,-0.936396,0.00493312,0.0124066,874,519,-4.57422,32.7996
-343,505,-4.64716,-33.7258,0.00174869,0.00248402,-0.00231957,0.00446489,-0.000232169,-0.863997,0.00305692,0.0117884,881,519,-4.64716,33.7258
-336,505,-4.69141,-34.6614,0.00137996,0.000822011,-0.00112008,0.00225529,-5.33168e-05,-0.663348,0.00152161,0.0150889,888,519,-4.69142,34.6614
-329,505,-4.69543,-35.5433,0.00109702,-0.000530668,-6.20904e-05,0.00109938,-0.000533033,-0.0380727,0.000961197,0.0200789,895,519,-4.69543,35.5433
-322,505,-4.75537,-36.4505,0.000973365,-0.00155369,0.000811165,0.00121133,-0.00179166,0.285359,0.00174454,0.0230903,902,519,-4.75535,36.4505
-315,505,-4.83459,-37.3735,0.00111371,-0.00209088,0.00140554,0.00164282,-0.00261999,0.360038,0.0024826,0.0173045,909,519,-4.8346,37.3735
-308,505,-4.90082,-38.25,0.0015611,-0.00234834,0.00176443,0.00223965,-0.00302689,0.367139,0.00305195,0.0130654,916,519,-4.90084,38.25
-301,505,-4.91437,-39.1627,0.00199228,-0.00244404,0.00216164,0.00287137,-0.00332312,0.386248,0.00357956,0.0213529,923,519,-4.91435,39.1626
-294,505,-4.94495,-40.0083,0,0,0,0,0,0,0,-1,930,519,-4.94492,40.0083
-287,505,-4.92371,-40.9045,0,0,0,0,0,0,0,-1,937,519,-4.92371,40.9045
-280,505,-2.79846,-27.7252,0,0,0,0,0,0,0,-1,944,519,-2.79845,27.7252
-273,505,-0.0680542,-9.44867,0,0,0,0,0,0,0,-1,951,519,-0.0680462,9.44866
-266,505,-0.036377,-9.07922,0,0,0,0,0,0,0,-1,958,519,-0.0364055,9.0792
-259,505,0.10321,-6.69824,0,0,0,0,0,0,0,-1,965,519,0.103235,6.69826
-252,505,6.82312,-15.6972,0,0,0,0,0,0,0,-1,972,519,6.82314,15.6972
-245,505,4.26727,-12.9861,0,0,0,0,0,0,0,-1,979,519,4.2673,12.9861
-238,505,1.67432,-11.2307,0,0,0,0,0,0,0,-1,986,519,1.67429,11.2307
-231,505,-0.958435,-8.3075,0,0,0,0,0,0,0,-1,993,519,-0.958421,8.30751
-224,505,-1.46399,-33.4399,0,0,0,0,0,0,0,-1,1000,519,-1.46397,33.4399
-217,505,-6.34302,-1.65533,0,0,0,0,0,0,0,-1,1007,519,-6.34299,1.65535
-210,505,-3.06128,-0.396301,0,0,0,0,0,0,0,-1,1014,519,-3.06129,0.396294
-203,505,-4.26465,2.03607,0,0,0,0,0,0,0,-1,1021,519,-4.26462,-2.03606
-196,505,-5.47595,4.27295,0,0,0,0,0,0,0,-1,1028,519,-5.47597,-4.27292
-189,505,1.51526,5.56207,0,0,0,0,0,0,0,-1,1035,519,1.51523,-5.56209
-182,505,2.97815,7.5097,0,0,0,0,0,0,0,-1,1042,519,2.97812,-7.5097
-175,505,-2.38416,-2.17548,0,0,0,0,0,0,0,-1,1049,519,-2.38411,2.1755
-168,505,0,0,0,0,0,0,0,0,0,-1,1056,519,0,0
-161,505,0,0,0,0,0,0,0,0,0,-1,1063,519,0,0
-154,505,0,0,0,0,0,0,0,0,0,-1,1070,519,0,0
-147,505,0,0,0,0,0,0,0,0,0,-1,1077,519,0,0
-140,505,0,0,0,0,0,0,0,0,0,-1,1084,519,0,0
-133,505,0,0,0,0,0,0,0,0,0,-1,1091,519,0,0
-126,505,0,0,0,0,0,0,0,0,0,-1,1098,519,0,0
-119,505,0,0,0,0,0,0,0,0,0,-1,1105,519,0,0
-112,505,0,0,0,0,0,0,0,0,0,-1,1112,519,0,0
-105,505,0,0,0,0,0,0,0,0,0,-1,1119,519,0,0
-98,505,0,0,0,0,0,0,0,0,0,-1,1126,519,0,0
-91,505,0,0,0,0,0,0,0,0,0,-1,1133,519,0,0
-84,505,0,0,0,0,0,0,0,0,0,-1,1140,519,0,0
-77,505,0,0,0,0,0,0,0,0,0,-1,1147,519,0,0
-70,505,0,0,0,0,0,0,0,0,0,-1,1154,519,0,0
-63,505,0,0,0,0,0,0,0,0,0,-1,1161,519,0,0
-56,505,0,0,0,0,0,0,0,0,0,-1,1168,519,0,0
-49,505,0,0,0,0,0,0,0,0,0,-1,1175,519,0,0
-42,505,0,0,0,0,0,0,0,0,0,-1,1182,519,0,0
-35,505,0,0,0,0,0,0,0,0,0,-1,1189,519,0,0
-28,505,0,0,0,0,0,0,0,0,0,-1,1196,519,0,0
-21,505,0,0,0,0,0,0,0,0,0,-1,1203,519,0,0
-14,505,0,0,0,0,0,0,0,0,0,-1,1210,519,0,0
-7,505,0,0,0,0,0,0,0,0,0,-1,1217,519,0,0
0,505,0,0,0,0,0,0,0,0,0,-1,1224,519,0,0
7,505,0,0,0,0,0,0,0,0,0,-1,1231,519,0,0
14,505,0,0,0,0,0,0,0,0,0,-1,1238,519,0,0
21,505,0,0,0,0,0,0,0,0,0,-1,1245,519,0,0
28,505,0,0,0,0,0,0,0,0,0,-1,1252,519,0,0
35,505,0,0,0,0,0,0,0,0,0,-1,1259,519,0,0
42,505,0,0,0,0,0,0,0,0,0,-1,1266,519,0,0
49,505,0,0,0,0,0,0,0,0,0,-1,1273,519,0,0
56,505,0,0,0,0,0,0,0,0,0,-1,1280,519,0,0
63,505,0,0,0,0,0,0,0,0,0,-1,1287,519,0,0
70,505,0,0,0,0,0,0,0,0,0,-1,1294,519,0,0
77,505,0,0,0,0,0,0,0,0,0,-1,1301,519,0,0
84,505,0,0,0,0,0,0,0,0,0,-1,1308,519,0,0
91,505,0,0,0,0,0,0,0,0,0,-1,1315,519,0,0
98,505,0,0,0,0,0,0,0,0,0,-1,1322,519,0,0
105,505,0,0,0,0,0,0,0,0,0,-1,1329,519,0,0
112,505,0,0,0,0,0,0,0,0,0,-1,1336,519,0,0
119,505,0,0,0,0,0,0,0,0,0,-1,1343,519,0,0
126,505,0,0,0,0,0,0,0,0,0,-1,1350,519,0,0
133,505,0,0,0,0,0,0,0,0,0,-1,1357,519,0,0
140,505,0,0,0,0,0,0,0,0,0,-1,1364,519,0,0
147,505,0,0,0,0,0,0,0,0,0,-1,1371,519,0,0
154,505,0,0,0,0,0,0,0,0,0,-1,1378,519,0,0
161,505,0,0,0,0,0,0,0,0,0,-1,1385,519,0,0
168,505,0,0,0,0,0,0,0,0,0,-1,1392,519,0,0
175,505,0,0,0,0,0,0,0,0,0,-1,1399,519,0,0
182,505,0,0,0,0,0,0,0,0,0,-1,1406,519,0,0
189,505,0,0,0,0,0,0,0,0,0,-1,1413,519,0,0
196,505,0,0,0,0,0,0,0,0,0,-1,1420,519,0,0
203,505,0,0,0,0,0,0,0,0,0,-1,1427,519,0,0
210,505,0,0,0,0,0,0,0,0,0,-1,1434,519,0,0
217,505,0,0,0,0,0,0,0,0,0,-1,1441,519,0,0
224,505,0,0,0,0,0,0,0,0,0,-1,1448,519,0,0
231,505,0,0,0,0,0,0,0,0,0,-1,1455,519,0,0
238,505,0,0,0,0,0,0,0,0,0,-1,1462,519,0,0
245,505,0,0,0,0,0,0,0,0,0,-1,1469,519,0,0
252,505,0,0,0,0,0,0,0,0,0,-1,1476,519,0,0
259,505,0,0,0,0,0,0,0,0,0,-1,1483,519,0,0
266,505,0,0,0,0,0,0,0,0,0,-1,1490,519,0,0
273,505,0,0,0,0,0,0,0,0,0,-1,1497,519,0,0
280,505,0,0,0,0,0,0,0,0,0,-1,1504,519,0,0
287,505,4.39478,0.499512,0,0,0,0,0,0,0,-1,1511,519,4.39476,-0.499506
294,505,4.88867,0.0822754,0,0,0,0,0,0,0,-1,1518,519,4.88871,-0.0822748
301,505,4.82153,-0.0704346,0,0,0,0,0,0,0,-1,1525,519,4.82156,0.0704312
308,505,4.67761,-0.29187,0,0,0,0,0,0,0,-1,1532,519,4.67762,0.291845
315,505,8.44055,-6.54352,0,0,0,0,0,0,0,-1,1539,519,8.44059,6.54349
322,505,4.78955,-0.594116,0,0,0,0,0,0,0,-1,1546,519,4.78957,0.594096
329,505,5.16321,0.434631,0,0,0,0,0,0,0,-1,1553,519,5.16316,-0.434614
336,505,4.94495,-0.920471,0,0,0,0,0,0,0,-1,1560,519,4.945,0.920495
343,505,5.01855,-1.4823,0,0,0,0,0,0,0,-1,1567,519,5.01851,1.48227
350,505,5.33154,-1.77838,0,0,0,0,0,0,0,-1,1574,519,5.33152,1.77838
357,505,5.56567,-1.9425,0,0,0,0,0,0,0,-1,1581,519,5.56562,1.94248
364,505,5.85205,-2.6579,0,0,0,0,0,0,0,-1,1588,519,5.85211,2.65788
371,505,5.88477,-7.00922,0,0,0,0,0,0,0,-1,1595,519,5.88473,7.00924
378,505,5.44104,-7.10162,0,0,0,0,0,0,0,-1,1602,519,5.44099,7.10162
385,505,6.64661,-8.65015,0,0,0,0,0,0,0,-1,1609,519,6.64662,8.65014
392,505,6.34558,-8.3429,0,0,0,0,0,0,0,-1,1616,519,6.34554,8.34288
399,505,7.45898,-9.70386,0,0,0,0,0,0,0,-1,1623,519,7.45899,9.70388
406,505,7.08679,-9.4928,0,0,0,0,0,0,0,-1,1630,519,7.08678,9.49278
413,505,8.4032,-14.0308,0,0,0,0,0,0,0,-1,1637,519,8.4032,14.0308
420,505,21.0497,-40.0555,0,0,0,0,0,0,0,-1,1644,519,21.0497,40.0555
427,505,21.0118,-39.0547,0.00468246,0.00174673,0.000589389,0.00479637,0.00163282,0.190911,0.0028158,0.0370638,1651,519,21.0118,39.0548
434,505,20.9487,-37.9946,0.00377397,0.00137064,0.000398126,0.00383821,0.0013064,0.159965,0.00225332,0.0144656,1658,519,20.9488,37.9946
441,505,20.9253,-37.0243,0.00311242,0.00112468,0.000319269,0.00316245,0.00107466,0.155413,0.00185681,0.0115928,1665,519,20.9254,37.0243
448,505,20.8445,-36.1472,0.00258944,0.000971954,0.000337369,0.00265698,0.000904408,0.197603,0.00155985,0.0117863,1672,519,20.8445,36.1472
455,505,20.7888,-35.2378,0.00213169,0.000927468,0.000368702,0.0022356,0.000823549,0.274726,0.00130555,0.0125227,1679,519,20.7888,35.2378
462,505,20.7441,-34.2982,0.00182172,0.00099048,0.000460366,0.00202632,0.000785876,0.418217,0.00117967,0.0117392,1686,519,20.7442,34.2981
469,505,20.6998,-33.3959,0.00181525,0.00118382,0.000685145,0.00225392,0.000745146,0.569499,0.00132596,0.0120873,1693,519,20.6998,33.3959
476,505,20.6392,-32.4937,0.00184193,0.00141982,0.000943976,0.00259816,0.000663596,0.675417,0.00155873,0.0127409,1700,519,20.6391,32.4937
483,505,20.6088,-31.5546,0.00208167,0.00165679,0.00125821,0.00314525,0.000593217,0.701765,0.00192973,0.0131215,1707,519,20.6088,31.5546
490,505,20.5717,-30.5941,0.00242479,0.00205257,0.00161593,0.00386529,0.000612063,0.728065,0.00239901,0.0116918,1714,519,20.5717,30.594
497,505,20.4911,-29.6506,0.00292344,0.00240112,0.00194534,0.00462508,0.000699492,0.718673,0.00287869,0.0111943,1721,519,20.4911,29.6506
504,505,20.3901,-28.7001,0.00361622,0.00274867,0.00228864,0.00551183,0.000853057,0.691742,0.00342579,0.0131011,1728,519,20.3902,28.7001
511,505,20.3215,-27.7465,0.00436858,0.00315159,0.00264136,0.00647063,0.00104953,0.672188,0.00400996,0.0157236,1735,519,20.3215,27.7465
518,505,20.5222,-26.8878,0.00516762,0.00370039,0.00291578,0.00744066,0.00142735,0.662155,0.00455974,0.0487065,1742,519,20.5222,26.8878
525,505,20.7596,-25.8734,0,0,0,0,0,0,0,-1,1749,519,20.7596,25.8734
532,505,20.189,-24.8809,0,0,0,0,0,0,0,-1,1756,519,20.189,24.8808
539,505,13.9879,-13.9018,0,0,0,0,0,0,0,-1,1763,519,13.988,13.9018
546,505,7.94946,-6.64539,0,0,0,0,0,0,0,-1,1770,519,7.94947,6.64539
553,505,2.82837,0.162659,0,0,0,0,0,0,0,-1,1777,519,2.82841,-0.162672
560,505,3.66223,-0.479797,0,0,0,0,0,0,0,-1,1784,519,3.66219,0.47982
567,505,4.65271,-0.950256,0,0,0,0,0,0,0,-1,1791,519,4.65274,0.95028
574,505,5.54443,-1.19977,0,0,0,0,0,0,0,-1,1798,519,5.54443,1.19974
581,505,0,0,0,0,0,0,0,0,0,-1,1805,519,0,0
588,505,0,0,0,0,0,0,0,0,0,-1,1812,519,0,0
595,505,0,0,0,0,0,0,0,0,0,-1,1819,519,0,0
602,505,0,0,0,0,0,0,0,0,0,-1,1826,519,0,0
609,505,0,0,0,0,0,0,0,0,0,-1,1833,519,0,0
616,505,0,0,0,0,0,0,0,0,0,-1,1840,519,0,0
623,505,0,0,0,0,0,0,0,0,0,-1,1847,519,0,0
630,505,0,0,0,0,0,0,0,0,0,-1,1854,519,0,0
637,505,0,0,0,0,0,0,0,0,0,-1,1861,519,0,0
644,505,0,0,0,0,0,0,0,0,0,-1,1868,519,0,0
651,505,0,0,0,0,0,0,0,0,0,-1,1875,519,0,0
658,505,0,0,0,0,0,0,0,0,0,-1,1882,519,0,0
665,505,0,0,0,0,0,0,0,0,0,-1,1889,519,0,0
672,505,0,0,0,0,0,0,0,0,0,-1,1896,519,0,0
679,505,0,0,0,0,0,0,0,0,0,-1,1903,519,0,0
686,505,0,0,0,0,0,0,0,0,0,-1,1910,519,0,0
693,505,0,0,0,0,0,0,0,0,0,-1,1917,519,0,0
700,505,0,0,0,0,0,0,0,0,0,-1,1924,519,0,0
707,505,0,0,0,0,0,0,0,0,0,-1,1931,519,0,0
714,505,0,0,0,0,0,0,0,0,0,-1,1938,519,0,0
721,505,0,0,0,0,0,0,0,0,0,-1,1945,519,0,0
728,505,0,0,0,0,0,0,0,0,0,-1,1952,519,0,0
735,505,0,0,0,0,0,0,0,0,0,-1,1959,519,0,0
742,505,0,0,0,0,0,0,0,0,0,-1,1966,519,0,0
749,505,0,0,0,0,0,0,0,0,0,-1,1973,519,0,0
756,505,0,0,0,0,0,0,0,0,0,-1,1980,519,0,0
763,505,0,0,0,0,0,0,0,0,0,-1,1987,519,0,0
770,505,0,0,0,0,0,0,0,0,0,-1,1994,519,0,0
777,505,0,0,0,0,0,0,0,0,0,-1,2001,519,0,0
784,505,0,0,0,0,0,0,0,0,0,-1,2008,519,0,0
791,505,0,0,0,0,0,0,0,0,0,-1,2015,519,0,0
798,505,0,0,0,0,0,0,0,0,0,-1,2022,519,0,0
805,505,0,0,0,0,0,0,0,0,0,-1,2029,519,0,0
812,505,0,0,0,0,0,0,0,0,0,-1,2036,519,0,0
-700,498,0,0,0,0,0,0,0,0,0,-1,524,526,0,0
-693,498,0,0,0,0,0,0,0,0,0,-1,531,526,0,0
-686,498,0,0,0,0,0,0,0,0,0,-1,538,526,0,0
-679,498,0,0,0,0,0,0,0,0,0,-1,545,526,0,0
-672,498,0,0,0,0,0,0,0,0,0,-1,552,526,0,0
-665,498,0,0,0,0,0,0,0,0,0,-1,559,526,0,0
-658,498,0,0,0,0,0,0,0,0,0,-1,566,526,0,0
-651,498,0,0,0,0,0,0,0,0,0,-1,573,526,0,0
-644,498,0,0,0,0,0,0,0,0,0,-1,580,526,0,0
-637,498,0,0,0,0,0,0,0,0,0,-1,587,526,0,0
-630,498,0,0,0,0,0,0,0,0,0,-1,594,526,0,0
-623,498,0,0,0,0,0,0,0,0,0,-1,601,526,0,0
-616,498,0,0,0,0,0,0,0,0,0,-1,608,526,0,0
-609,498,0,0,0,0,0,0,0,0,0,-1,615,526,0,0
-602,498,0,0,0,0,0,0,0,0,0,-1,622,526,0,0
-595,498,0,0,0,0,0,0,0,0,0,-1,629,526,0,0
-588,498,0,0,0,0,0,0,0,0,0,-1,636,526,0,0
-581,498,0,0,0,0,0,0,0,0,0,-1,643,526,0,0
-574,498,0,0,0,0,0,0,0,0,0,-1,650,526,0,0
-567,498,0,0,0,0,0,0,0,0,0,-1,657,526,0,0
-560,498,0,0,0,0,0,0,0,0,0,-1,664,526,0,0
-553,498,0,0,0,0,0,0,0,0,0,-1,671,526,0,0
-546,498,0,0,0,0,0,0,0,0,0,-1,678,526,0,0
-539,498,0,0,0,0,0,0,0,0,0,-1,685,526,0,0
-532,498,0,0,0,0,0,0,0,0,0,-1,692,526,0,0
-525,498,0,0,0,0,0,0,0,0,0,-1,699,526,0,0
-518,498,0,0,0,0,0,0,0,0,0,-1,706,526,0,0
-511,498,0,0,0,0,0,0,0,0,0,-1,713,526,0,0
-504,498,0,0,0,0,0,0,0,0,0,-1,720,526,0,0
-497,498,0,0,0,0,0,0,0,0,0,-1,727,526,0,0
-490,498,0,0,0,0,0,0,0,0,0,-1,734,526,0,0
-483,498,0,0,0,0,0,0,0,0,0,-1,741,526,0,0
-476,498,0,0,0,0,0,0,0,0,0,-1,748,526,0,0
-469,498,0,0,0,0,0,0,0,0,0,-1,755,526,0,0
-462,498,6.81024,1.15515,0,0,0,0,0,0,0,-1,762,526,6.81026,-1.15514
-455,498,3.25757,-3.0592,0,0,0,0,0,0,0,-1,769,526,3.25754,3.05921
-448,498,3.05939,-3.74298,0,0,0,0,0,0,0,-1,776,526,3.05939,3.74296
-441,498,2.77191,-6.08209,0,0,0,0,0,0,0,-1,783,526,2.77189,6.08207
-434,498,2.10681,-6.95929,0,0,0,0,0,0,0,-1,790,526,2.10682,6.9593
-427,498,-0.368042,-10.7726,0,0,0,0,0,0,0,-1,797,526,-0.36807,10.7726
-420,498,-1.05035,-10.5142,0,0,0,0,0,0,0,-1,804,526,-1.05034,10.5142
-413,498,-4.52112,-18.8354,0,0,0,0,0,0,0,-1,811,526,-4.52111,18.8354
-406,498,-4.96161,-24.7797,0,0,0,0,0,0,0,-1,818,526,-4.96161,24.7797
-399,498,-5.00574,-25.9244,0.00313877,0.016455,-0.0102545,0.0220233,-0.00242952,-1.07334,0.0155554,0.0342685,825,526,-5.00576,25.9245
-392,498,-5.13043,-26.98,0.00309061,0.0142656,-0.00925878,0.0194922,-0.00213602,-1.05689,0.0137622,0.0189792,832,526,-5.13044,26.98
-385,498,-5.19037,-27.9573,0.00306687,0.0121066,-0.0081747,0.0169278,-0.00175429,-1.03793,0.0119131,0.0105137,839,526,-5.19035,27.9574
-378,498,-5.23999,-28.9485,0.00300216,0.0100123,-0.00704304,0.0143743,-0.00135978,-1.01629,0.0100668,0.0109794,846,526,-5.23997,28.9485
-371,498,-5.26715,-29.9304,0.00283228,0.00791368,-0.00589757,0.0117945,-0.00104858,-0.988787,0.00823484,0.0169033,853,526,-5.26713,29.9303
-364,498,-5.3385,-30.8945,0.00256328,0.00576362,-0.0046336,0.00906556,-0.000738668,-0.951657,0.00630437,0.0172386,860,526,-5.33852,30.8945
-357,498,-5.40204,-31.8276,0.00225702,0.00385936,-0.00337576,0.00652772,-0.000411339,-0.901908,0.0044952,0.0126165,867,526,-5.40204,31.8276
-350,498,-5.47241,-32.7217,0.00194177,0.00209278,-0.00216756,0.00418615,-0.000151595,-0.802808,0.00284264,0.0129038,874,526,-5.4724,32.7217
-343,498,-5.54034,-33.7173,0.00164638,0.000413113,-0.00101754,0.00221954,-0.000160054,-0.512987,0.00153583,0.0164357,881,526,-5.54036,33.7174
-336,498,-5.56,-34.6734,0.00132551,-0.00107021,4.74396e-05,0.00132645,-0.00107115,0.0197914,0.00138687,0.0214535,888,526,-5.55998,34.6734
-329,498,-5.58813,-35.4847,0.00104988,-0.0023093,0.00101218,0.00133129,-0.00259071,0.271178,0.00230296,0.0270223,895,526,-5.58812,35.4847
-322,498,-5.66174,-36.3924,0.000973601,-0.0030739,0.00171952,0.00160547,-0.00370577,0.352151,0.00314535,0.0272595,902,526,-5.66173,36.3924
-315,498,-5.75653,-37.2977,0.00113144,-0.00339826,0.00216188,0.0019976,-0.00426443,0.38107,0.0036935,0.020146,909,526,-5.75653,37.2977
-308,498,-5.81177,-38.1736,0.00158014,-0.00352546,0.00240352,0.00253358,-0.0044789,0.377645,0.00410025,0.0233625,916,526,-5.81176,38.1736
-301,498,-5.82239,-39.1511,0,0,0,0,0,0,0,-1,923,526,-5.82236,39.1511
-294,498,-5.49982,-39.5652,0,0,0,0,0,0,0,-1,930,526,-5.49979,39.5653
-287,498,-0.91394,-13.4327,0,0,0,0,0,0,0,-1,937,526,-0.913935,13.4327
-280,498,-0.341614,-8.66608,0,0,0,0,0,0,0,-1,944,526,-0.341589,8.66606
-273,498,-0.988892,-8.62921,0,0,0,0,0,0,0,-1,951,526,-0.988906,8.62922
-266,498,0.362488,-6.33545,0,0,0,0,0,0,0,-1,958,526,0.362478,6.33547
-259,498,10.9454,-17.3615,0,0,0,0,0,0,0,-1,965,526,10.9454,17.3614
-252,498,8.56586,-14.6886,0,0,0,0,0,0,0,-1,972,526,8.56584,14.6886
-245,498,5.97382,-11.928,0,0,0,0,0,0,0,-1,979,526,5.97381,11.928
-238,498,2.24841,-13.8145,0,0,0,0,0,0,0,-1,986,526,2.24838,13.8145
-231,498,0.665894,-10.4898,0,0,0,0,0,0,0,-1,993,526,0.665863,10.4898
-224,498,-2.11243,-4.76312,0,0,0,0,0,0,0,-1,1000,526,-2.11245,4.76314
-217,498,-3.82239,-1.42841,0,0,0,0,0,0,0,-1,1007,526,-3.82241,1.42843
-210,498,-1.80591,-0.358215,0,0,0,0,0,0,0,-1,1014,526,-1.8059,0.3582
-203,498,-3.17316,1.06641,0,0,0,0,0,0,0,-1,1021,526,-3.17313,-1.0664
-196,498,-0.103271,5.40527,0,0,0,0,0,0,0,-1,1028,526,-0.103285,-5.40528
-189,498,3.00256,6.47137,0,0,0,0,0,0,0,-1,1035,526,3.00256,-6.47139
-182,498,0,0,0,0,0,0,0,0,0,-1,1042,526,0,0
-175,498,0,0,0,0,0,0,0,0,0,-1,1049,526,0,0
-168,498,0,0,0,0,0,0,0,0,0,-1,1056,526,0,0
-161,498,0,0,0,0,0,0,0,0,0,-1,1063,526,0,0
-154,498,0,0,0,0,0,0,0,0,0,-1,1070,526,0,0
-147,498,0,0,0,0,0,0,0,0,0,-1,1077,526,0,0
-140,498,0,0,0,0,0,0,0,0,0,-1,1084,526,0,0
-133,498,0,0,0,0,0,0,0,0,0,-1,1091,526,0,0
-126,498,0,0,0,0,0,0,0,0,0,-1,1098,526,0,0
-119,498,0,0,0,0,0,0,0,0,0,-1,1105,526,0,0
-112,498,0,0,0,0,0,0,0,0,0,-1,1112,526,0,0
-105,498,0,0,0,0,0,0,0,0,0,-1,1119,526,0,0
-98,498,0,0,0,0,0,0,0,0,0,-1,1126,526,0,0
-91,498,0,0,0,0,0,0,0,0,0,-1,1133,526,0,0
-84,498,0,0,0,0,0,0,0,0,0,-1,1140,526,0,0
-77,498,0,0,0,0,0,0,0,0,0,-1,1147,526,0,0
-70,498,0,0,0,0,0,0,0,0,0,-1,1154,526,0,0
-63,498,0,0,0,0,0,0,0,0,0,-1,1161,526,0,0
-56,498,0,0,0,0,0,0,0,0,0,-1,1168,526,0,0
-49,498,0,0,0,0,0,0,0,0,0,-1,1175,526,0,0
-42,498,0,0,0,0,0,0,0,0,0,-1,1182,526,0,0
-35,498,0,0,0,0,0,0,0,0,0,-1,1189,526,0,0
-28,498,0,0,0,0,0,0,0,0,0,-1,1196,526,0,0
-21,498,0,0,0,0,0,0,0,0,0,-1,1203,526,0,0
-14,498,0,0,0,0,0,0,0,0,0,-1,1210,526,0,0
-7,498,0,0,0,0,0,0,0,0,0,-1,1217,526,0,0
0,498,0,0,0,0,0,0,0,0,0,-1,1224,526,0,0
7,498,0,0,0,0,0,0,0,0,0,-1,1231,526,0,0
14,498,0,0,0,0,0,0,0,0,0,-1,1238,526,0,0
21,498,0,0,0,0,0,0,0,0,0,-1,1245,526,0,0
28,498,0,0,0,0,0,0,0,0,0,-1,1252,526,0,0
35,498,0,0,0,0,0,0,0,0,0,-1,1259,526,0,0
42,498,0,0,0,0,0,0,0,0,0,-1,1266,526,0,0
49,498,0,0,0,0,0,0,0,0,0,-1,1273,526,0,0
56,498,0,0,0,0,0,0,0,0,0,-1,1280,526,0,0
63,498,0,0,0,0,0,0,0,0,0,-1,1287,526,0,0
70,498,0,0,0,0,0,0,0,0,0,-1,1294,526,0,0
77,498,0,0,0,0,0,0,0,0,0,-1,1301,526,0,0
84,498,0,0,0,0,0,0,0,0,0,-1,1308,526,0,0
91,498,0,0,0,0,0,0,0,0,0,-1,1315,526,0,0
98,498,0,0,0,0,0,0,0,0,0,-1,1322,526,0,0
105,498,0,0,0,0,0,0,0,0,0,-1,1329,526,0,0
112,498,0,0,0,0,0,0,0,0,0,-1,1336,526,0,0
119,498,0,0,0,0,0,0,0,0,0,-1,1343,526,0,0
126,498,0,0,0,0,0,0,0,0,0,-1,1350,526,0,0
133,498,0,0,0,0,0,0,0,0,0,-1,1357,526,0,0
140,498,0,0,0,0,0,0,0,0,0,-1,1364,526,0,0
147,498,0,0,0,0,0,0,0,0,0,-1,1371,526,0,0
154,498,0,0,0,0,0,0,0,0,0,-1,1378,526,0,0
161,498,0,0,0,0,0,0,0,0,0,-1,1385,526,0,0
168,498,0,0,0,0,0,0,0,0,0,-1,1392,526,0,0
175,498,0,0,0,0,0,0,0,0,0,-1,1399,526,0,0
182,498,0,0,0,0,0,0,0,0,0,-1,1406,526,0,0
189,498,0,0,0,0,0,0,0,0,0,-1,1413,526,0,0
196,498,0,0,0,0,0,0,0,0,0,-1,1420,526,0,0
203,498,0,0,0,0,0,0,0,0,0,-1,1427,526,0,0
210,498,0,0,0,0,0,0,0,0,0,-1,1434,526,0,0
217,498,0,0,0,0,0,0,0,0,0,-1,1441,526,0,0
224,498,0,0,0,0,0,0,0,0,0,-1,1448,526,0,0
231,498,0,0,0,0,0,0,0,0,0,-1,1455,526,0,0
238,498,0,0,0,0,0,0,0,0,0,-1,1462,526,0,0
245,498,0,0,0,0,0,0,0,0,0,-1,1469,526,0,0
252,498,0,0,0,0,0,0,0,0,0,-1,1476,526,0,0
259,498,0,0,0,0,0,0,0,0,0,-1,1483,526,0,0
266,498,0,0,0,0,0,0,0,0,0,-1,1490,526,0,0
273,498,0,0,0,0,0,0,0,0,0,-1,1497,526,0,0
280,498,0,0,0,0,0,0,0,0,0,-1,1504,526,0,0
287,498,0,0,0,0,0,0,0,0,0,-1,1511,526,0,0
294,498,0,0,0,0,0,0,0,0,0,-1,1518,526,0,0
301,498,0,0,0,0,0,0,0,0,0,-1,1525,526,0,0
308,498,4.77942,-0.293884,0,0,0,0,0,0,0,-1,1532,526,4.77939,0.293899
315,498,4.56091,-0.564148,0,0,0,0,0,0,0,-1,1539,526,4.56097,0.564142
322,498,4.52344,-0.447266,0,0,0,0,0,0,0,-1,1546,526,4.52341,0.447295
329,498,4.63232,-0.156982,0,0,0,0,0,0,0,-1,1553,526,4.63238,0.156991
336,498,5.22644,0.0925903,0,0,0,0,0,0,0,-1,1560,526,5.22648,-0.0926188
343,498,6.22607,-1.67615,0,0,0,0,0,0,0,-1,1567,526,6.22605,1.67617
350,498,6.19373,-1.59906,0,0,0,0,0,0,0,-1,1574,526,6.19367,1.59906
357,498,6.21472,-1.58929,0,0,0,0,0,0,0,-1,1581,526,6.21476,1.58927
364,498,5.73547,-1.2019,0,0,0,0,0,0,0,-1,1588,526,5.73547,1.20192
371,498,3.27087,-4.55334,0,0,0,0,0,0,0,-1,1595,526,3.27089,4.55332
378,498,8.42944,-4.70624,0,0,0,0,0,0,0,-1,1602,526,8.42942,4.70624
385,498,4.7793,-5.15314,0,0,0,0,0,0,0,-1,1609,526,4.77935,5.15311
392,498,9.12439,-8.57953,0,0,0,0,0,0,0,-1,1616,526,9.12443,8.57955
399,498,7.98938,-9.46021,0,0,0,0,0,0,0,-1,1623,526,7.98936,9.4602
406,498,7.58081,-9.26819,0,0,0,0,0,0,0,-1,1630,526,7.58085,9.26817
413,498,7.17236,-9.07611,0,0,0,0,0,0,0,-1,1637,526,7.17234,9.07614
420,498,11.4314,-16.1147,0,0,0,0,0,0,0,-1,1644,526,11.4313,16.1147
427,498,21.6998,-39.1567,0,0,0,0,0,0,0,-1,1651,526,21.6998,39.1567
434,498,21.7073,-37.9913,0.00421243,0.00122819,8.93297e-05,0.0042151,0.00122552,0.0298982,0.00250362,0.0451742,1658,526,21.7072,37.9913
441,498,21.8191,-37.0118,0.00341419,0.0008776,-0.000119483,0.00341981,0.000871984,-0.0469651,0.00205193,0.0152729,1665,526,21.8191,37.0118
448,498,21.7904,-36.0737,0.00286322,0.000738091,-0.000137556,0.00287209,0.000729225,-0.0643702,0.00172385,0.0122271,1672,526,21.7904,36.0737
455,498,21.6848,-35.1682,0.00241837,0.000691043,-0.000134775,0.00242883,0.000680591,-0.0774007,0.00144674,0.0157801,1679,526,21.6848,35.1682
462,498,21.6567,-34.2639,0.00205109,0.000736307,-4.39392e-05,0.00205256,0.00073484,-0.0333696,0.00120087,0.0165937,1686,526,21.6567,34.2638
469,498,21.6229,-33.3574,0.00191,0.000893825,0.000191557,0.00194491,0.000858914,0.180268,0.00112544,0.0137191,1693,526,21.623,33.3574
476,498,21.5792,-32.4358,0.0018997,0.00110867,0.000478516,0.00212499,0.000883371,0.44004,0.00123266,0.010211,1700,526,21.5792,32.4358
483,498,21.5156,-31.505,0.00205274,0.00130368,0.000794888,0.00255691,0.000799505,0.565239,0.00151037,0.00861304,1707,526,21.5156,31.505
490,498,21.4523,-30.569,0.00223498,0.00168023,0.00113046,0.0031216,0.000793618,0.665092,0.00187342,0.0107542,1714,526,21.4523,30.569
497,498,21.3956,-29.6055,0.00255223,0.00208416,0.00150524,0.00384152,0.000794873,0.708276,0.00234147,0.0123262,1721,526,21.3956,29.6055
504,498,21.3278,-28.6519,0.00303646,0.00236806,0.00186437,0.00459635,0.000808174,0.696712,0.00283352,0.0149761,1728,526,21.3278,28.6519
511,498,21.2561,-27.7077,0.00349926,0.00272362,0.0021955,0.00534093,0.000881952,0.697979,0.00330608,0.0167712,1735,526,21.2561,27.7077
518,498,21.3511,-26.7272,0.00389219,0.00317764,0.00242788,0.00598895,0.00108089,0.712345,0.00368555,0.0266273,1742,526,21.3511,26.7272
525,498,21.1188,-25.8017,0.0042958,0.00365801,0.00265906,0.00665501,0.00129879,0.725719,0.00407336,0.0494041,1749,526,21.1187,25.8017
532,498,21.0574,-24.7726,0,0,0,0,0,0,0,-1,1756,526,21.0573,24.7726
539,498,20.0029,-23.3469,0,0,0,0,0,0,0,-1,1763,526,20.003,23.3469
546,498,10.2014,-8.47589,0,0,0,0,0,0,0,-1,1770,526,10.2014,8.47589
553,498,5.93958,-1.71448,0,0,0,0,0,0,0,-1,1777,526,5.93956,1.71447
560,498,3.69385,-0.615112,0,0,0,0,0,0,0,-1,1784,526,3.69381,0.615118
567,498,5.12695,-0.581604,0,0,0,0,0,0,0,-1,1791,526,5.12699,0.58159
574,498,3.88,0.0286255,0,0,0,0,0,0,0,-1,1798,526,3.87999,-0.0286535
581,498,10.8722,2.58551,0,0,0,0,0,0,0,-1,1805,526,10.8723,-2.58551
588,498,0,0,0,0,0,0,0,0,0,-1,1812,526,0,0
595,498,0,0,0,0,0,0,0,0,0,-1,1819,526,0,0
602,498,0,0,0,0,0,0,0,0,0,-1,1826,526,0,0
609,498,0,0,0,0,0,0,0,0,0,-1,1833,526,0,0
616,498,0,0,0,0,0,0,0,0,0,-1,1840,526,0,0
623,498,0,0,0,0,0,0,0,0,0,-1,1847,526,0,0
630,498,0,0,0,0,0,0,0,0,0,-1,1854,526,0,0
637,498,0,0,0,0,0,0,0,0,0,-1,1861,526,0,0
644,498,0,0,0,0,0,0,0,0,0,-1,1868,526,0,0
651,498,0,0,0,0,0,0,0,0,0,-1,1875,526,0,0
658,498,0,0,0,0,0,0,0,0,0,-1,1882,526,0,0
665,498,0,0,0,0,0,0,0,0,0,-1,1889,526,0,0
672,498,0,0,0,0,0,0,0,0,0,-1,1896,526,0,0
679,498,0,0,0,0,0,0,0,0,0,-1,1903,526,0,0
686,498,0,0,0,0,0,0,0,0,0,-1,1910,526,0,0
693,498,0,0,0,0,0,0,0,0,0,-1,1917,526,0,0
700,498,0,0,0,0,0,0,0,0,0,-1,1924,526,0,0
707,498,0,0,0,0,0,0,0,0,0,-1,1931,526,0,0
714,498,0,0,0,0,0,0,0,0,0,-1,1938,526,0,0
721,498,0,0,0,0,0,0,0,0,0,-1,1945,526,0,0
728,498,0,0,0,0,0,0,0,0,0,-1,1952,526,0,0
735,498,0,0,0,0,0,0,0,0,0,-1,1959,526,0,0
742,498,0,0,0,0,0,0,0,0,0,-1,1966,526,0,0
749,498,0,0,0,0,0,0,0,0,0,-1,1973,526,0,0
756,498,0,0,0,0,0,0,0,0,0,-1,1980,526,0,0
763,498,0,0,0,0,0,0,0,0,0,-1,1987,526,0,0
770,498,0,0,0,0,0,0,0,0,0,-1,1994,526,0,0
777,498,0,0,0,0,0,0,0,0,0,-1,2001,526,0,0
784,498,0,0,0,0,0,0,0,0,0,-1,2008,526,0,0
791,498,0,0,0,0,0,0,0,0,0,-1,2015,526,0,0
798,498,0,0,0,0,0,0,0,0,0,-1,2022,526,0,0
805,498,0,0,0,0,0,0,0,0,0,-1,2029,526,0,0
812,498,0,0,0,0,0,0,0,0,0,-1,2036,526,0,0
-700,491,0,0,0,0,0,0,0,0,0,-1,524,533,0,0
-693,491,0,0,0,0,0,0,0,0,0,-1,531,533,0,0
-686,491,0,0,0,0,0,0,0,0,0,-1,538,533,0,0
-679,491,0,0,0,0,0,0,0,0,0,-1,545,533,0,0
-672,491,0,0,0,0,0,0,0,0,0,-1,552,533,0,0
-665,491,0,0,0,0,0,0,0,0,0,-1,559,533,0,0
-658,491,0,0,0,0,0,0,0,0,0,-1,566,533,0,0
-651,491,0,0,0,0,0,0,0,0,0,-1,573,533,0,0
-644,491,0,0,0,0,0,0,0,0,0,-1,580,533,0,0
-637,491,0,0,0,0,0,0,0,0,0,-1,587,533,0,0
-630,491,0,0,0,0,0,0,0,0,0,-1,594,533,0,0
-623,491,0,0,0,0,0,0,0,0,0,-1,601,533,0,0
-616,491,0,0,0,0,0,0,0,0,0,-1,608,533,0,0
-609,491,0,0,0,0,0,0,0,0,0,-1,615,533,0,0
-602,491,0,0,0,0,0,0,0,0,0,-1,622,533,0,0
-595,491,0,0,0,0,0,0,0,0,0,-1,629,533,0,0
-588,491,0,0,0,0,0,0,0,0,0,-1,636,533,0,0
-581,491,0,0,0,0,0,0,0,0,0,-1,643,533,0,0
-574,491,0,0,0,0,0,0,0,0,0,-1,650,533,0,0
-567,491,0,0,0,0,0,0,0,0,0,-1,657,533,0,0
-560,491,0,0,0,0,0,0,0,0,0,-1,664,533,0,0
-553,491,0,0,0,0,0,0,0,0,0,-1,671,533,0,0
-546,491,0,0,0,0,0,0,0,0,0,-1,678,533,0,0
-539,491,0,0,0,0,0,0,0,0,0,-1,685,533,0,0
-532,491,0,0,0,0,0,0,0,0,0,-1,692,533,0,0
-525,491,0,0,0,0,0,0,0,0,0,-1,699,533,0,0
-518,491,0,0,0,0,0,0,0,0,0,-1,706,533,0,0
-511,491,0,0,0,0,0,0,0,0,0,-1,713,533,0,0
-504,491,0,0,0,0,0,0,0,0,0,-1,720,533,0,0
-497,491,0,0,0,0,0,0,0,0,0,-1,727,533,0,0
-490,491,0,0,0,0,0,0,0,0,0,-1,734,533,0,0
-483,491,0,0,0,0,0,0,0,0,0,-1,741,533,0,0
-476,491,0,0,0,0,0,0,0,0,0,-1,748,533,0,0
-469,491,-5.85913,4.55011,0,0,0,0,0,0,0,-1,755,533,-5.8591,-4.55009
-462,491,-9.93713,4.90381,0,0,0,0,0,0,0,-1,762,533,-9.93716,-4.9038
-455,491,1.9494,-0.27887,0,0,0,0,0,0,0,-1,769,533,1.94941,0.27885
-448,491,2.68909,-1.8999,0,0,0,0,0,0,0,-1,776,533,2.6891,1.89988
-441,491,3.46069,-3.51855,0,0,0,0,0,0,0,-1,783,533,3.46071,3.51854
-434,491,2.67145,-7.44061,0,0,0,0,0,0,0,-1,790,533,2.67146,7.44061
-427,491,2.27136,-8.34546,0,0,0,0,0,0,0,-1,797,533,2.27136,8.34546
-420,491,-6.32684,-22.1337,0,0,0,0,0,0,0,-1,804,533,-6.32687,22.1337
-413,491,-5.86237,-23.8154,0,0,0,0,0,0,0,-1,811,533,-5.86239,23.8154
-406,491,-5.86255,-25.0251,0.00208766,0.0140892,-0.0082212,0.0182667,-0.00208984,-1.10066,0.0129308,0.0314182,818,533,-5.86253,25.0251
-399,491,-5.92743,-26.0809,0.00204405,0.0121317,-0.00747412,0.0161046,-0.00192894,-1.08222,0.0114338,0.0160197,825,533,-5.92742,26.0809
-392,491,-6.07196,-27.0356,0.0020839,0.0103152,-0.00669006,0.0140542,-0.00165511,-1.06115,0.00996706,0.0129088,832,533,-6.07196,27.0356
-385,491,-6.12677,-27.9473,0.00219576,0.00855522,-0.00584408,0.0120286,-0.00127763,-1.03455,0.0084771,0.00985489,839,533,-6.12679,27.9473
-378,491,-6.15118,-28.8926,0.00226582,0.00679492,-0.00491743,0.00994418,-0.000883435,-1.00118,0.00694269,0.0143143,846,533,-6.15118,28.8926
-371,491,-6.19482,-29.8465,0.00222658,0.00502423,-0.00398105,0.00784506,-0.00059425,-0.954345,0.00543896,0.0158405,853,533,-6.19482,29.8465
-364,491,-6.25598,-30.8094,0.00209551,0.00318201,-0.00292581,0.00561457,-0.000337055,-0.877191,0.00386031,0.0142142,860,533,-6.25596,30.8094
-357,491,-6.31793,-31.7224,0.00193685,0.00154555,-0.00186722,0.00361864,-0.000136239,-0.733197,0.0024591,0.0129482,867,533,-6.31793,31.7224
-350,491,-6.38446,-32.6138,0.00175843,4.12837e-06,-0.000847639,0.00210107,-0.000338509,-0.384144,0.00152612,0.0165453,874,533,-6.38447,32.6138
-343,491,-6.4201,-33.6287,0.00155425,-0.00146195,0.000141889,0.00156091,-0.00146861,0.0469045,0.00174936,0.0276162,881,533,-6.4201,33.6286
-336,491,-6.48712,-34.5916,0.00128861,-0.00281163,0.00108785,0.00155936,-0.00308238,0.243924,0.00272757,0.0283533,888,533,-6.4871,34.5916
-329,491,-6.5202,-35.4024,0.00104682,-0.00398844,0.00197125,0.00172673,-0.00466836,0.332137,0.00382019,0.0275359,895,533,-6.52017,35.4024
-322,491,-6.58936,-36.302,0.00107391,-0.00452386,0.00250475,0.00203103,-0.00548097,0.364997,0.00448693,0.0231753,902,533,-6.58938,36.302
-315,491,-6.70667,-37.1464,0.00131785,-0.00466413,0.00276718,0.00240157,-0.00574785,0.373274,0.00483548,0.022694,909,533,-6.70664,37.1464
-308,491,-6.7049,-38.2323,0,0,0,0,0,0,0,-1,916,533,-6.70491,38.2323
-301,491,-6.54926,-39.0012,0,0,0,0,0,0,0,-1,923,533,-6.54927,39.0012
-294,491,-0.777283,-8.60913,0,0,0,0,0,0,0,-1,930,533,-0.777288,8.6091
-287,491,-0.26123,-8.69055,0,0,0,0,0,0,0,-1,937,533,-0.261204,8.69053
-280,491,0.2948,-5.99219,0,0,0,0,0,0,0,-1,944,533,0.294811,5.99221
-273,491,0.369995,-5.33691,0,0,0,0,0,0,0,-1,951,533,0.369985,5.33693
-266,491,1.1167,-5.0321,0,0,0,0,0,0,0,-1,958,533,1.11668,5.0321
-259,491,12.0862,-16.9615,0,0,0,0,0,0,0,-1,965,533,12.0862,16.9615
-252,491,9.72443,-13.8417,0,0,0,0,0,0,0,-1,972,533,9.72444,13.8418
-245,491,5.27258,-14.3619,0,0,0,0,0,0,0,-1,979,533,5.27255,14.3619
-238,491,3.65381,-11.1472,0,0,0,0,0,0,0,-1,986,533,3.6538,11.1472
-231,491,2.17719,-7.86835,0,0,0,0,0,0,0,-1,993,533,2.17719,7.86832
-224,491,0.554626,-4.61725,0,0,0,0,0,0,0,-1,1000,533,0.554608,4.61727
-217,491,-2.92743,-1.0766,0,0,0,0,0,0,0,-1,1007,533,-2.92743,1.07659
-210,491,-0.92395,0.374512,0,0,0,0,0,0,0,-1,1014,533,-0.923959,-0.374531
-203,491,0.417419,4.77161,0,0,0,0,0,0,0,-1,1021,533,0.417446,-4.77162
-196,491,0,0,0,0,0,0,0,0,0,-1,1028,533,0,0
-189,491,0,0,0,0,0,0,0,0,0,-1,1035,533,0,0
-182,491,0,0,0,0,0,0,0,0,0,-1,1042,533,0,0
-175,491,0,0,0,0,0,0,0,0,0,-1,1049,533,0,0
-168,491,0,0,0,0,0,0,0,0,0,-1,1056,533,0,0
-161,491,0,0,0,0,0,0,0,0,0,-1,1063,533,0,0
-154,491,0,0,0,0,0,0,0,0,0,-1,1070,533,0,0
-147,491,0,0,0,0,0,0,0,0,0,-1,1077,533,0,0
-140,491,0,0,0,0,0,0,0,0,0,-1,1084,533,0,0
-133,491,0,0,0,0,0,0,0,0,0,-1,1091,533,0,0
-126,491,0,0,0,0,0,0,0,0,0,-1,1098,533,0,0
-119,491,0,0,0,0,0,0,0,0,0,-1,1105,533,0,0
-112,491,0,0,0,0,0,0,0,0,0,-1,1112,533,0,0
-105,491,0,0,0,0,0,0,0,0,0,-1,1119,533,0,0
-98,491,0,0,0,0,0,0,0,0,0,-1,1126,533,0,0
-91,491,0,0,0,0,0,0,0,0,0,-1,1133,533,0,0
-84,491,0,0,0,0,0,0,0,0,0,-1,1140,533,0,0
-77,491,0,0,0,0,0,0,0,0,0,-1,1147,533,0,0
-70,491,0,0,0,0,0,0,0,0,0,-1,1154,533,0,0
-63,491,0,0,0,0,0,0,0,0,0,-1,1161,533,0,0
-56,491,0,0,0,0,0,0,0,0,0,-1,1168,533,0,0
-49,491,0,0,0,0,0,0,0,0,0,-1,1175,533,0,0
-42,491,0,0,0,0,0,0,0,0,0,-1,1182,533,0,0
-35,491,0,0,0,0,0,0,0,0,0,-1,1189,533,0,0
-28,491,0,0,0,0,0,0,0,0,0,-1,1196,533,0,0
-21,491,0,0,0,0,0,0,0,0,0,-1,1203,533,0,0
-14,491,0,0,0,0,0,0,0,0,0,-1,1210,533,0,0
-7,491,0,0,0,0,0,0,0,0,0,-1,1217,533,0,0
0,491,0,0,0,0,0,0,0,0,0,-1,1224,533,0,0
7,491,0,0,0,0,0,0,0,0,0,-1,1231,533,0,0
14,491,0,0,0,0,0,0,0,0,0,-1,1238,533,0,0
21,491,0,0,0,0,0,0,0,0,0,-1,1245,533,0,0
28,491,0,0,0,0,0,0,0,0,0,-1,1252,533,0,0
35,491,0,0,0,0,0,0,0,0,0,-1,1259,533,0,0
42,491,0,0,0,0,0,0,0,0,0,-1,1266,533,0,0
49,491,0,0,0,0,0,0,0,0,0,-1,1273,533,0,0
56,491,0,0,0,0,0,0,0,0,0,-1,1280,533,0,0
63,491,0,0,0,0,0,0,0,0,0,-1,1287,533,0,0
70,491,0,0,0,0,0,0,0,0,0,-1,1294,533,0,0
77,491,0,0,0,0,0,0,0,0,0,-1,1301,533,0,0
84,491,0,0,0,0,0,0,0,0,0,-1,1308,533,0,0
91,491,0,0,0,0,0,0,0,0,0,-1,1315,533,0,0
98,491,0,0,0,0,0,0,0,0,0,-1,1322,533,0,0
105,491,0,0,0,0,0,0,0,0,0,-1,1329,533,0,0
112,491,0,0,0,0,0,0,0,0,0,-1,1336,533,0,0
119,491,0,0,0,0,0,0,0,0,0,-1,1343,533,0,0
126,491,0,0,0,0,0,0,0,0,0,-1,1350,533,0,0
133,491,0,0,0,0,0,0,0,0,0,-1,1357,533,0,0
140,491,0,0,0,0,0,0,0,0,0,-1,1364,533,0,0
147,491,0,0,0,0,0,0,0,0,0,-1,1371,533,0,0
154,491,0,0,0,0,0,0,0,0,0,-1,1378,533,0,0
161,491,0,0,0,0,0,0,0,0,0,-1,1385,533,0,0
168,491,0,0,0,0,0,0,0,0,0,-1,1392,533,0,0
175,491,0,0,0,0,0,0,0,0,0,-1,1399,533,0,0
182,491,0,0,0,0,0,0,0,0,0,-1,1406,533,0,0
189,491,0,0,0,0,0,0,0,0,0,-1,1413,533,0,0
196,491,0,0,0,0,0,0,0,0,0,-1,1420,533,0,0
203,491,0,0,0,0,0,0,0,0,0,-1,1427,533,0,0
210,491,0,0,0,0,0,0,0,0,0,-1,1434,533,0,0
217,491,0,0,0,0,0,0,0,0,0,-1,1441,533,0,0
224,491,0,0,0,0,0,0,0,0,0,-1,1448,533,0,0
231,491,0,0,0,0,0,0,0,0,0,-1,1455,533,0,0
238,491,0,0,0,0,0,0,0,0,0,-1,1462,533,0,0
245,491,0,0,0,0,0,0,0,0,0,-1,1469,533,0,0
252,491,0,0,0,0,0,0,0,0,0,-1,1476,533,0,0
259,491,0,0,0,0,0,0,0,0,0,-1,1483,533,0,0
266,491,0,0,0,0,0,0,0,0,0,-1,1490,533,0,0
273,491,0,0,0,0,0,0,0,0,0,-1,1497,533,0,0
280,491,0,0,0,0,0,0,0,0,0,-1,1504,533,0,0
287,491,0,0,0,0,0,0,0,0,0,-1,1511,533,0,0
294,491,0,0,0,0,0,0,0,0,0,-1,1518,533,0,0
301,491,0,0,0,0,0,0,0,0,0,-1,1525,533,0,0
308,491,0,0,0,0,0,0,0,0,0,-1,1532,533,0,0
315,491,0,0,0,0,0,0,0,0,0,-1,1539,533,0,0
322,491,4.26331,-0.734314,0,0,0,0,0,0,0,-1,1546,533,4.26326,0.734324
329,491,4.25354,-0.783752,0,0,0,0,0,0,0,-1,1553,533,4.25359,0.783734
336,491,4.81604,-0.722107,0,0,0,0,0,0,0,-1,1560,533,4.81605,0.722115
343,491,6.14478,-1.44281,0,0,0,0,0,0,0,-1,1567,533,6.14474,1.44281
350,491,6.36353,-1.30792,0,0,0,0,0,0,0,-1,1574,533,6.36352,1.3079
357,491,6.69482,-1.06018,0,0,0,0,0,0,0,-1,1581,533,6.69489,1.06018
364,491,8.01086,-1.69604,0,0,0,0,0,0,0,-1,1588,533,8.01087,1.69607
371,491,8.2135,-0.539307,0,0,0,0,0,0,0,-1,1595,533,8.21348,0.53929
378,491,13.3589,2.17267,0,0,0,0,0,0,0,-1,1602,533,13.3589,-2.17264
385,491,8.08228,-4.95471,0,0,0,0,0,0,0,-1,1609,533,8.08227,4.95474
392,491,2.88721,-4.30988,0,0,0,0,0,0,0,-1,1616,533,2.88716,4.30986
399,491,8.95862,-8.55518,0,0,0,0,0,0,0,-1,1623,533,8.95864,8.55516
406,491,8.16541,-9.00806,0,0,0,0,0,0,0,-1,1630,533,8.16535,9.00807
413,491,5.31848,-3.7124,0,0,0,0,0,0,0,-1,1637,533,5.31849,3.7124
420,491,4.86389,-3.95892,0,0,0,0,0,0,0,-1,1644,533,4.86387,3.95893
427,491,11.5096,-15.2742,0,0,0,0,0,0,0,-1,1651,533,11.5096,15.2742
434,491,22.5491,-37.9932,0,0,0,0,0,0,0,-1,1658,533,22.549,37.9932
441,491,22.7258,-36.6865,0.00349208,0.000498046,-0.000734063,0.00366237,0.000327757,-0.227949,0.00233999,0.0413073,1665,533,22.7259,36.6865
448,491,22.6863,-36.0456,0.0029078,0.000483313,-0.000759206,0.00312592,0.000265197,-0.27976,0.00200141,0.0252945,1672,533,22.6863,36.0456
455,491,22.6158,-35.0959,0.00249868,0.000495491,-0.00075851,0.00275348,0.000240691,-0.324079,0.00176092,0.0160218,1679,533,22.6158,35.0959
462,491,22.5946,-34.1979,0.00207055,0.000540422,-0.00064029,0.00230313,0.000307841,-0.348423,0.00144379,0.0159589,1686,533,22.5946,34.1979
469,491,22.5396,-33.3007,0.00176412,0.000637027,-0.000372551,0.00187613,0.000525015,-0.292063,0.00111764,0.0154425,1693,533,22.5395,33.3007
476,491,22.5024,-32.3898,0.00174164,0.000811936,-3.68588e-05,0.0017431,0.000810477,-0.039563,0.0010072,0.011037,1700,533,22.5024,32.3898
483,491,22.4399,-31.4547,0.00183017,0.000955157,0.000294161,0.00191986,0.000865461,0.295967,0.00111022,0.0123639,1707,533,22.4399,31.4547
490,491,22.3774,-30.5264,0.00188847,0.0012859,0.000620502,0.00227697,0.000897406,0.559385,0.0013244,0.0111845,1714,533,22.3774,30.5264
497,491,22.3285,-29.5619,0.00207597,0.00172129,0.00105061,0.0029641,0.000833161,0.701787,0.00176515,0.0120258,1721,533,22.3285,29.5619
504,491,22.2893,-28.5933,0.00241138,0.00192993,0.00142824,0.00361904,0.000722277,0.701909,0.0022116,0.0133329,1728,533,22.2893,28.5933
511,491,22.2067,-27.6481,0.00268034,0.00222921,0.00175861,0.0042278,0.000681762,0.721615,0.002621,0.0132243,1735,533,22.2066,27.6481
518,491,22.14,-26.7297,0.00282229,0.00260983,0.00199614,0.00471503,0.000717092,0.758815,0.00293368,0.0113869,1742,533,22.14,26.7297
525,491,22.1068,-25.7621,0.00297777,0.00301321,0.00223494,0.0052305,0.000760476,0.789362,0.00326318,0.0126255,1749,533,22.1068,25.7621
532,491,22.058,-24.8113,0.00304949,0.00359079,0.00249,0.0058248,0.000815472,0.839533,0.00364194,0.0310712,1756,533,22.058,24.8113
539,491,22.025,-23.7891,0,0,0,0,0,0,0,-1,1763,533,22.025,23.7891
546,491,20.9723,-22.4818,0,0,0,0,0,0,0,-1,1770,533,20.9723,22.4818
553,491,10.5021,-7.77869,0,0,0,0,0,0,0,-1,1777,533,10.502,7.77871
560,491,6.28455,-1.43585,0,0,0,0,0,0,0,-1,1784,533,6.28458,1.43586
567,491,5.67651,-1.3562,0,0,0,0,0,0,0,-1,1791,533,5.67649,1.3562
574,491,8.0719,1.58325,0,0,0,0,0,0,0,-1,1798,533,8.07195,-1.58326
581,491,9.44812,1.60931,0,0,0,0,0,0,0,-1,1805,533,9.44808,-1.60933
588,491,11.0497,1.54962,0,0,0,0,0,0,0,-1,1812,533,11.0496,-1.54963
595,491,0,0,0,0,0,0,0,0,0,-1,1819,533,0,0
602,491,0,0,0,0,0,0,0,0,0,-1,1826,533,0,0
609,491,0,0,0,0,0,0,0,0,0,-1,1833,533,0,0
616,491,0,0,0,0,0,0,0,0,0,-1,1840,533,0,0
623,491,0,0,0,0,0,0,0,0,0,-1,1847,533,0,0
630,491,0,0,0,0,0,0,0,0,0,-1,1854,533,0,0
637,491,0,0,0,0,0,0,0,0,0,-1,1861,533,0,0
644,491,0,0,0,0,0,0,0,0,0,-1,1868,533,0,0
651,491,0,0,0,0,0,0,0,0,0,-1,1875,533,0,0
658,491,0,0,0,0,0,0,0,0,0,-1,1882,533,0,0
665,491,0,0,0,0,0,0,0,0,0,-1,1889,533,0,0
672,491,0,0,0,0,0,0,0,0,0,-1,1896,533,0,0
679,491,0,0,0,0,0,0,0,0,0,-1,1903,533,0,0
686,491,0,0,0,0,0,0,0,0,0,-1,1910,533,0,0
693,491,0,0,0,0,0,0,0,0,0,-1,1917,533,0,0
700,491,0,0,0,0,0,0,0,0,0,-1,1924,533,0,0
707,491,0,0,0,0,0,0,0,0,0,-1,1931,533,0,0
714,491,0,0,0,0,0,0,0,0,0,-1,1938,533,0,0
721,491,0,0,0,0,0,0,0,0,0,-1,1945,533,0,0
728,491,0,0,0,0,0,0,0,0,0,-1,1952,533,0,0
735,491,0,0,0,0,0,0,0,0,0,-1,1959,533,0,0
742,491,0,0,0,0,0,0,0,0,0,-1,1966,533,0,0
749,491,0,0,0,0,0,0,0,0,0,-1,1973,533,0,0
756,491,0,0,0,0,0,0,0,0,0,-1,1980,533,0,0
763,491,0,0,0,0,0,0,0,0,0,-1,1987,533,0,0
770,491,0,0,0,0,0,0,0,0,0,-1,1994,533,0,0
777,491,0,0,0,0,0,0,0,0,0,-1,2001,533,0,0
784,491,0,0,0,0,0,0,0,0,0,-1,2008,533,0,0
791,491,0,0,0,0,0,0,0,0,0,-1,2015,533,0,0
798,491,0,0,0,0,0,0,0,0,0,-1,2022,533,0,0
805,491,0,0,0,0,0,0,0,0,0,-1,2029,533,0,0
812,491,0,0,0,0,0,0,0,0,0,-1,2036,533,0,0
-700,484,0,0,0,0,0,0,0,0,0,-1,524,540,0,0
-693,484,0,0,0,0,0,0,0,0,0,-1,531,540,0,0
-686,484,0,0,0,0,0,0,0,0,0,-1,538,540,0,0
-679,484,0,0,0,0,0,0,0,0,0,-1,545,540,0,0
-672,484,0,0,0,0,0,0,0,0,0,-1,552,540,0,0
-665,484,0,0,0,0,0,0,0,0,0,-1,559,540,0,0
-658,484,0,0,0,0,0,0,0,0,0,-1,566,540,0,0
-651,484,0,0,0,0,0,0,0,0,0,-1,573,540,0,0
-644,484,0,0,0,0,0,0,0,0,0,-1,580,540,0,0
-637,484,0,0,0,0,0,0,0,0,0,-1,587,540,0,0
-630,484,0,0,0,0,0,0,0,0,0,-1,594,540,0,0
-623,484,0,0,0,0,0,0,0,0,0,-1,601,540,0,0
-616,484,0,0,0,0,0,0,0,0,0,-1,608,540,0,0
-609,484,0,0,0,0,0,0,0,0,0,-1,615,540,0,0
-602,484,0,0,0,0,0,0,0,0,0,-1,622,540,0,0
-595,484,0,0,0,0,0,0,0,0,0,-1,629,540,0,0
-588,484,0,0,0,0,0,0,0,0,0,-1,636,540,0,0
-581,484,0,0,0,0,0,0,0,0,0,-1,643,540,0,0
-574,484,0,0,0,0,0,0,0,0,0,-1,650,540,0,0
-567,484,0,0,0,0,0,0,0,0,0,-1,657,540,0,0
-560,484,0,0,0,0,0,0,0,0,0,-1,664,540,0,0
-553,484,0,0,0,0,0,0,0,0,0,-1,671,540,0,0
-546,484,0,0,0,0,0,0,0,0,0,-1,678,540,0,0
-539,484,0,0,0,0,0,0,0,0,0,-1,685,540,0,0
-532,484,0,0,0,0,0,0,0,0,0,-1,692,540,0,0
-525,484,0,0,0,0,0,0,0,0,0,-1,699,540,0,0
-518,484,0,0,0,0,0,0,0,0,0,-1,706,540,0,0
-511,484,0,0,0,0,0,0,0,0,0,-1,713,540,0,0
-504,484,0,0,0,0,0,0,0,0,0,-1,720,540,0,0
-497,484,0,0,0,0,0,0,0,0,0,-1,727,540,0,0
-490,484,0,0,0,0,0,0,0,0,0,-1,734,540,0,0
-483,484,0,0,0,0,0,0,0,0,0,-1,741,540,0,0
-476,484,-8.46552,1.44702,0,0,0,0,0,0,0,-1,748,540,-8.46554,-1.44702
-469,484,-7.82343,1.70355,0,0,0,0,0,0,0,-1,755,540,-7.82345,-1.70355
-462,484,-8.36987,3.08612,0,0,0,0,0,0,0,-1,762,540,-8.36988,-3.0861
-455,484,-6.77197,2.07092,0,0,0,0,0,0,0,-1,769,540,-6.77197,-2.07094
-448,484,3.54895,-1.40106,0,0,0,0,0,0,0,-1,776,540,3.54897,1.40106
-441,484,4.28906,-3.05884,0,0,0,0,0,0,0,-1,783,540,4.28905,3.05883
-434,484,-2.17548,-5.07245,0,0,0,0,0,0,0,-1,790,540,-2.17546,5.07243
-427,484,-6.77087,-21.513,0,0,0,0,0,0,0,-1,797,540,-6.77088,21.513
-420,484,-6.62006,-22.2971,0,0,0,0,0,0,0,-1,804,540,-6.62007,22.2971
-413,484,-6.64197,-23.889,0.00144288,0.0121203,-0.00641399,0.0151267,-0.00156353,-1.13248,0.010644,0.0363891,811,540,-6.64198,23.889
-406,484,-6.763,-24.9895,0.00142993,0.0103984,-0.00595462,0.0133685,-0.00154008,-1.10813,0.00946751,0.0203576,818,540,-6.76303,24.9895
-399,484,-6.90155,-25.9956,0.00138965,0.00871505,-0.00530616,0.0114999,-0.00139518,-1.08748,0.00817145,0.0173341,825,540,-6.90153,25.9956
-392,484,-6.97644,-26.9419,0.00147788,0.00716123,-0.00465168,0.00977054,-0.00113142,-1.05959,0.00692173,0.0198106,832,540,-6.97643,26.9419
-385,484,-7.0542,-27.9031,0.00166916,0.00567464,-0.00396205,0.00811136,-0.000767561,-1.01941,0.00568074,0.0137186,839,540,-7.05421,27.9031
-378,484,-7.10266,-28.8501,0.00182053,0.0041488,-0.00317472,0.0063661,-0.000396765,-0.96113,0.00438231,0.0162636,846,540,-7.10265,28.8501
-371,484,-7.14282,-29.7703,0.00187737,0.00262425,-0.00238723,0.00466707,-0.000165454,-0.862986,0.00316797,0.0190253,853,540,-7.14285,29.7702
-364,484,-7.1972,-30.6932,0.00185006,0.00103959,-0.0014974,0.00299609,-0.000106439,-0.653251,0.0020338,0.0128804,860,540,-7.1972,30.6932
-357,484,-7.258,-31.6265,0.00180422,-0.000370357,-0.000613982,0.0019656,-0.000531736,-0.257026,0.00151899,0.0133595,867,540,-7.25799,31.6265
-350,484,-7.33765,-32.5392,0.00173311,-0.00171247,0.000225299,0.00174778,-0.00172714,0.0650187,0.00200626,0.0154875,874,540,-7.33764,32.5392
-343,484,-7.35657,-33.4973,0.00159474,-0.0029599,0.00104994,0.00182512,-0.00319028,0.216,0.00293118,0.022808,881,540,-7.3566,33.4973
-336,484,-7.40558,-34.4193,0.00136708,-0.00416987,0.00186555,0.00193697,-0.00473977,0.296481,0.00396642,0.0252097,888,540,-7.40559,34.4192
-329,484,-7.44299,-35.2672,0.00115591,-0.00526822,0.00263981,0.00210148,-0.0062138,0.34396,0.00499269,0.0369634,895,540,-7.44297,35.2671
-322,484,-7.48773,-36.2065,0,0,0,0,0,0,0,-1,902,540,-7.48772,36.2065
-315,484,-7.42981,-37.1652,0,0,0,0,0,0,0,-1,909,540,-7.4298,37.1652
-308,484,-1.32623,-8.9317,0,0,0,0,0,0,0,-1,916,540,-1.32626,8.93173
-301,484,-1.33453,-6.52667,0,0,0,0,0,0,0,-1,923,540,-1.33454,6.5267
-294,484,-1.61224,-8.17059,0,0,0,0,0,0,0,-1,930,540,-1.61227,8.17058
-287,484,-0.715759,-5.62103,0,0,0,0,0,0,0,-1,937,540,-0.715772,5.62105
-280,484,2.66742,-1.6795,0,0,0,0,0,0,0,-1,944,540,2.6674,1.67949
-273,484,2.53125,-2.22296,0,0,0,0,0,0,0,-1,951,540,2.53128,2.22295
-266,484,2.6778,-2.72058,0,0,0,0,0,0,0,-1,958,540,2.6778,2.72061
-259,484,2.41718,-2.59894,0,0,0,0,0,0,0,-1,965,540,2.41717,2.59892
-252,484,10.6069,-11.696,0,0,0,0,0,0,0,-1,972,540,10.6069,11.696
-245,484,6.34106,-11.6107,0,0,0,0,0,0,0,-1,979,540,6.34104,11.6107
-238,484,4.89319,-8.54059,0,0,0,0,0,0,0,-1,986,540,4.89321,8.5406
-231,484,3.47675,-5.22064,0,0,0,0,0,0,0,-1,993,540,3.47676,5.22067
-224,484,1.71344,-2.03473,0,0,0,0,0,0,0,-1,1000,540,1.71342,2.03472
-217,484,-0.745056,1.17358,0,0,0,0,0,0,0,-1,1007,540,-0.745043,-1.17359
-210,484,0,0,0,0,0,0,0,0,0,-1,1014,540,0,0
-203,484,0,0,0,0,0,0,0,0,0,-1,1021,540,0,0
-196,484,0,0,0,0,0,0,0,0,0,-1,1028,540,0,0
-189,484,0,0,0,0,0,0,0,0,0,-1,1035,540,0,0
-182,484,0,0,0,0,0,0,0,0,0,-1,1042,540,0,0
-175,484,0,0,0,0,0,0,0,0,0,-1,1049,540,0,0
-168,484,0,0,0,0,0,0,0,0,0,-1,1056,540,0,0
-161,484,0,0,0,0,0,0,0,0,0,-1,1063,540,0,0
-154,484,0,0,0,0,0,0,0,0,0,-1,1070,540,0,0
-147,484,0,0,0,0,0,0,0,0,0,-1,1077,540,0,0
-140,484,0,0,0,0,0,0,0,0,0,-1,1084,540,0,0
-133,484,0,0,0,0,0,0,0,0,0,-1,1091,540,0,0
-126,484,0,0,0,0,0,0,0,0,0,-1,1098,540,0,0
-119,484,0,0,0,0,0,0,0,0,0,-1,1105,540,0,0
-112,484,0,0,0,0,0,0,0,0,0,-1,1112,540,0,0
-105,484,0,0,0,0,0,0,0,0,0,-1,1119,540,0,0
-98,484,0,0,0,0,0,0,0,0,0,-1,1126,540,0,0
-91,484,0,0,0,0,0,0,0,0,0,-1,1133,540,0,0
-84,484,0,0,0,0,0,0,0,0,0,-1,1140,540,0,0
-77,484,0,0,0,0,0,0,0,0,0,-1,1147,540,0,0
-70,484,0,0,0,0,0,0,0,0,0,-1,1154,540,0,0
-63,484,0,0,0,0,0,0,0,0,0,-1,1161,540,0,0
-56,484,0,0,0,0,0,0,0,0,0,-1,1168,540,0,0
-49,484,0,0,0,0,0,0,0,0,0,-1,1175,540,0,0
-42,484,0,0,0,0,0,0,0,0,0,-1,1182,540,0,0
-35,484,0,0,0,0,0,0,0,0,0,-1,1189,540,0,0
-28,484,0,0,0,0,0,0,0,0,0,-1,1196,540,0,0
-21,484,0,0,0,0,0,0,0,0,0,-1,1203,540,0,0
-14,484,0,0,0,0,0,0,0,0,0,-1,1210,540,0,0
-7,484,0,0,0,0,0,0,0,0,0,-1,1217,540,0,0
0,484,0,0,0,0,0,0,0,0,0,-1,1224,540,0,0
7,484,0,0,0,0,0,0,0,0,0,-1,1231,540,0,0
14,484,0,0,0,0,0,0,0,0,0,-1,1238,540,0,0
21,484,0,0,0,0,0,0,0,0,0,-1,1245,540,0,0
28,484,0,0,0,0,0,0,0,0,0,-1,1252,540,0,0
35,484,0,0,0,0,0,0,0,0,0,-1,1259,540,0,0
42,484,0,0,0,0,0,0,0,0,0,-1,1266,540,0,0
49,484,0,0,0,0,0,0,0,0,0,-1,1273,540,0,0
56,484,0,0,0,0,0,0,0,0,0,-1,1280,540,0,0
63,484,0,0,0,0,0,0,0,0,0,-1,1287,540,0,0
70,484,0,0,0,0,0,0,0,0,0,-1,1294,540,0,0
77,484,0,0,0,0,0,0,0,0,0,-1,1301,540,0,0
84,484,0,0,0,0,0,0,0,0,0,-1,1308,540,0,0
91,484,0,0,0,0,0,0,0,0,0,-1,1315,540,0,0
98,484,0,0,0,0,0,0,0,0,0,-1,1322,540,0,0
105,484,0,0,0,0,0,0,0,0,0,-1,1329,540,0,0
112,484,0,0,0,0,0,0,0,0,0,-1,1336,540,0,0
119,484,0,0,0,0,0,0,0,0,0,-1,1343,540,0,0
126,484,0,0,0,0,0,0,0,0,0,-1,1350,540,0,0
133,484,0,0,0,0,0,0,0,0,0,-1,1357,540,0,0
140,484,0,0,0,0,0,0,0,0,0,-1,1364,540,0,0
147,484,0,0,0,0,0,0,0,0,0,-1,1371,540,0,0
154,484,0,0,0,0,0,0,0,0,0,-1,1378,540,0,0
161,484,0,0,0,0,0,0,0,0,0,-1,1385,540,0,0
168,484,0,0,0,0,0,0,0,0,0,-1,1392,540,0,0
175,484,0,0,0,0,0,0,0,0,0,-1,1399,540,0,0
182,484,0,0,0,0,0,0,0,0,0,-1,1406,540,0,0
189,484,0,0,0,0,0,0,0,0,0,-1,1413,540,0,0
196,484,0,0,0,0,0,0,0,0,0,-1,1420,540,0,0
203,484,0,0,0,0,0,0,0,0,0,-1,1427,540,0,0
210,484,0,0,0,0,0,0,0,0,0,-1,1434,540,0,0
217,484,0,0,0,0,0,0,0,0,0,-1,1441,540,0,0
224,484,0,0,0,0,0,0,0,0,0,-1,1448,540,0,0
231,484,0,0,0,0,0,0,0,0,0,-1,1455,540,0,0
238,484,0,0,0,0,0,0,0,0,0,-1,1462,540,0,0
245,484,0,0,0,0,0,0,0,0,0,-1,1469,540,0,0
252,484,0,0,0,0,0,0,0,0,0,-1,1476,540,0,0
259,484,0,0,0,0,0,0,0,0,0,-1,1483,540,0,0
266,484,0,0,0,0,0,0,0,0,0,-1,1490,540,0,0
273,484,0,0,0,0,0,0,0,0,0,-1,1497,540,0,0
280,484,0,0,0,0,0,0,0,0,0,-1,1504,540,0,0
287,484,0,0,0,0,0,0,0,0,0,-1,1511,540,0,0
294,484,0,0,0,0,0,0,0,0,0,-1,1518,540,0,0
301,484,0,0,0,0,0,0,0,0,0,-1,1525,540,0,0
308,484,0,0,0,0,0,0,0,0,0,-1,1532,540,0,0
315,484,0,0,0,0,0,0,0,0,0,-1,1539,540,0,0
322,484,0,0,0,0,0,0,0,0,0,-1,1546,540,0,0
329,484,0,0,0,0,0,0,0,0,0,-1,1553,540,0,0
336,484,4.38708,-1.64136,0,0,0,0,0,0,0,-1,1560,540,4.38704,1.64138
343,484,7.57996,-1.05457,0,0,0,0,0,0,0,-1,1567,540,7.57995,1.05454
350,484,8.10425,-1.18878,0,0,0,0,0,0,0,-1,1574,540,8.1043,1.18877
357,484,7.74902,-3.80286,0,0,0,0,0,0,0,-1,1581,540,7.74901,3.80287
364,484,6.31262,-3.87213,0,0,0,0,0,0,0,-1,1588,540,6.31263,3.87215
371,484,7.21008,0.973511,0,0,0,0,0,0,0,-1,1595,540,7.21014,-0.973541
378,484,11.0563,1.5014,0,0,0,0,0,0,0,-1,1602,540,11.0563,-1.5014
385,484,14.3469,2.5545,0,0,0,0,0,0,0,-1,1609,540,14.3469,-2.55453
392,484,7.39453,-4.95026,0,0,0,0,0,0,0,-1,1616,540,7.39448,4.95023
399,484,7.14417,-2.5639,0,0,0,0,0,0,0,-1,1623,540,7.14417,2.56391
406,484,7.88953,-2.47321,0,0,0,0,0,0,0,-1,1630,540,7.88954,2.47323
413,484,4.4895,-1.08673,0,0,0,0,0,0,0,-1,1637,540,4.48952,1.08674
420,484,4.50012,-2.11255,0,0,0,0,0,0,0,-1,1644,540,4.50012,2.11256
427,484,5.28601,-3.54053,0,0,0,0,0,0,0,-1,1651,540,5.28599,3.54051
434,484,11.1488,-13.5359,0,0,0,0,0,0,0,-1,1658,540,11.1489,13.5359
441,484,23.5383,-36.2725,0,0,0,0,0,0,0,-1,1665,540,23.5383,36.2725
448,484,23.5546,-36.098,0,0,0,0,0,0,0,-1,1672,540,23.5546,36.0979
455,484,23.5643,-35.0644,0,0,0,0,0,0,0,-1,1679,540,23.5644,35.0644
462,484,23.5496,-34.1363,0.00215192,0.000265835,-0.00137313,0.00287466,-0.000456904,-0.484499,0.00208549,0.031501,1686,540,23.5496,34.1363
469,484,23.5131,-33.2355,0.00160507,0.000333409,-0.00102024,0.00217139,-0.000232912,-0.50674,0.00153115,0.0198284,1693,540,23.513,33.2355
476,484,23.4231,-32.2842,0.00157304,0.000499349,-0.000581273,0.00182745,0.000244941,-0.412556,0.00114541,0.0186691,1700,540,23.4231,32.2842
483,484,23.3623,-31.3731,0.00159224,0.000623999,-0.000198188,0.00163124,0.000585002,-0.194282,0.000954261,0.0148385,1707,540,23.3623,31.3731
490,484,23.3191,-30.4688,0.00154372,0.000922329,0.000148572,0.00157741,0.000888633,0.223026,0.000913152,0.0138926,1714,540,23.3191,30.4688
497,484,23.2695,-29.5125,0.00163289,0.00139103,0.000649673,0.00217279,0.000851128,0.693379,0.00126423,0.0139788,1721,540,23.2696,29.5125
504,484,23.2267,-28.548,0.00184717,0.00153121,0.00104537,0.00274643,0.000631956,0.710403,0.00166087,0.0153496,1728,540,23.2267,28.5479
511,484,23.1852,-27.6048,0.00197474,0.0017694,0.00137912,0.00325501,0.000489131,0.748243,0.00202673,0.019788,1735,540,23.1852,27.6048
518,484,23.11,-26.686,0.00195804,0.00207836,0.00162876,0.00364807,0.000388327,0.803858,0.00231349,0.0178561,1742,540,23.1099,26.6861
525,484,23.0157,-25.7289,0.00195835,0.00242078,0.00186739,0.00407122,0.000307911,0.846993,0.00261755,0.0155179,1749,540,23.0157,25.7289
532,484,22.968,-24.7214,0.00189962,0.00294671,0.00211799,0.0046049,0.00024143,0.906564,0.00299271,0.0171119,1756,540,22.968,24.7214
539,484,22.8702,-23.7077,0.00174503,0.00359194,0.00227895,0.00512743,0.000209545,0.977893,0.00335062,0.0451311,1763,540,22.8702,23.7077
546,484,22.7839,-22.5787,0,0,0,0,0,0,0,-1,1770,540,22.7839,22.5787
553,484,12.4246,-8.96423,0,0,0,0,0,0,0,-1,1777,540,12.4246,8.96422
560,484,10.0549,-5.47931,0,0,0,0,0,0,0,-1,1784,540,10.055,5.47928
567,484,7.78223,-1.38312,0,0,0,0,0,0,0,-1,1791,540,7.78224,1.38311
574,484,5.74463,1.50922,0,0,0,0,0,0,0,-1,1798,540,5.74463,-1.50924
581,484,10.34,2.9491,0,0,0,0,0,0,0,-1,1805,540,10.34,-2.94912
588,484,10.6669,2.88568,0,0,0,0,0,0,0,-1,1812,540,10.6669,-2.88567
595,484,10.7233,1.04767,0,0,0,0,0,0,0,-1,1819,540,10.7233,-1.04766
602,484,0,0,0,0,0,0,0,0,0,-1,1826,540,0,0
609,484,0,0,0,0,0,0,0,0,0,-1,1833,540,0,0
616,484,0,0,0,0,0,0,0,0,0,-1,1840,540,0,0
623,484,0,0,0,0,0,0,0,0,0,-1,1847,540,0,0
630,484,0,0,0,0,0,0,0,0,0,-1,1854,540,0,0
637,484,0,0,0,0,0,0,0,0,0,-1,1861,540,0,0
644,484,0,0,0,0,0,0,0,0,0,-1,1868,540,0,0
651,484,0,0,0,0,0,0,0,0,0,-1,1875,540,0,0
658,484,0,0,0,0,0,0,0,0,0,-1,1882,540,0,0
665,484,0,0,0,0,0,0,0,0,0,-1,1889,540,0,0
672,484,0,0,0,0,0,0,0,0,0,-1,1896,540,0,0
679,484,0,0,0,0,0,0,0,0,0,-1,1903,540,0,0
686,484,0,0,0,0,0,0,0,0,0,-1,1910,540,0,0
693,484,0,0,0,0,0,0,0,0,0,-1,1917,540,0,0
700,484,0,0,0,0,0,0,0,0,0,-1,1924,540,0,0
707,484,0,0,0,0,0,0,0,0,0,-1,1931,540,0,0
714,484,0,0,0,0,0,0,0,0,0,-1,1938,540,0,0
721,484,0,0,0,0,0,0,0,0,0,-1,1945,540,0,0
728,484,0,0,0,0,0,0,0,0,0,-1,1952,540,0,0
735,484,0,0,0,0,0,0,0,0,0,-1,1959,540,0,0
742,484,0,0,0,0,0,0,0,0,0,-1,1966,540,0,0
749,484,0,0,0,0,0,0,0,0,0,-1,1973,540,0,0
756,484,0,0,0,0,0,0,0,0,0,-1,1980,540,0,0
763,484,0,0,0,0,0,0,0,0,0,-1,1987,540,0,0
770,484,0,0,0,0,0,0,0,0,0,-1,1994,540,0,0
777,484,0,0,0,0,0,0,0,0,0,-1,2001,540,0,0
784,484,0,0,0,0,0,0,0,0,0,-1,2008,540,0,0
791,484,0,0,0,0,0,0,0,0,0,-1,2015,540,0,0
798,484,0,0,0,0,0,0,0,0,0,-1,2022,540,0,0
805,484,0,0,0,0,0,0,0,0,0,-1,2029,540,0,0
812,484,0,0,0,0,0,0,0,0,0,-1,2036,540,0,0
-700,477,0,0,0,0,0,0,0,0,0,-1,524,547,0,0
-693,477,0,0,0,0,0,0,0,0,0,-1,531,547,0,0
-686,477,0,0,0,0,0,0,0,0,0,-1,538,547,0,0
-679,477,0,0,0,0,0,0,0,0,0,-1,545,547,0,0
-672,477,0,0,0,0,0,0,0,0,0,-1,552,547,0,0
-665,477,0,0,0,0,0,0,0,0,0,-1,559,547,0,0
-658,477,0,0,0,0,0,0,0,0,0,-1,566,547,0,0
-651,477,0,0,0,0,0,0,0,0,0,-1,573,547,0,0
-644,477,0,0,0,0,0,0,0,0,0,-1,580,547,0,0
-637,477,0,0,0,0,0,0,0,0,0,-1,587,547,0,0
-630,477,0,0,0,0,0,0,0,0,0,-1,594,547,0,0
-623,477,0,0,0,0,0,0,0,0,0,-1,601,547,0,0
-616,477,0,0,0,0,0,0,0,0,0,-1,608,547,0,0
-609,477,0,0,0,0,0,0,0,0,0,-1,615,547,0,0
-602,477,0,0,0,0,0,0,0,0,0,-1,622,547,0,0
-595,477,0,0,0,0,0,0,0,0,0,-1,629,547,0,0
-588,477,0,0,0,0,0,0,0,0,0,-1,636,547,0,0
-581,477,0,0,0,0,0,0,0,0,0,-1,643,547,0,0
-574,477,0,0,0,0,0,0,0,0,0,-1,650,547,0,0
-567,477,0,0,0,0,0,0,0,0,0,-1,657,547,0,0
-560,477,0,0,0,0,0,0,0,0,0,-1,664,547,0,0
-553,477,0,0,0,0,0,0,0,0,0,-1,671,547,0,0
-546,477,0,0,0,0,0,0,0,0,0,-1,678,547,0,0
-539,477,0,0,0,0,0,0,0,0,0,-1,685,547,0,0
-532,477,0,0,0,0,0,0,0,0,0,-1,692,547,0,0
-525,477,0,0,0,0,0,0,0,0,0,-1,699,547,0,0
-518,477,0,0,0,0,0,0,0,0,0,-1,706,547,0,0
-511,477,0,0,0,0,0,0,0,0,0,-1,713,547,0,0
-504,477,0,0,0,0,0,0,0,0,0,-1,720,547,0,0
-497,477,0,0,0,0,0,0,0,0,0,-1,727,547,0,0
-490,477,0,0,0,0,0,0,0,0,0,-1,734,547,0,0
-483,477,-7.73151,-0.224182,0,0,0,0,0,0,0,-1,741,547,-7.73152,0.224176
-476,477,-6.25806,-0.310547,0,0,0,0,0,0,0,-1,748,547,-6.25804,0.310549
-469,477,-7.26617,0.525085,0,0,0,0,0,0,0,-1,755,547,-7.2662,-0.525111
-462,477,-6.65143,1.06042,0,0,0,0,0,0,0,-1,762,547,-6.65143,-1.06043
-455,477,-5.31757,0.429016,0,0,0,0,0,0,0,-1,769,547,-5.31756,-0.42902
-448,477,-4.0697,0.273376,0,0,0,0,0,0,0,-1,776,547,-4.06971,-0.273363
-441,477,-2.47504,-4.76971,0,0,0,0,0,0,0,-1,783,547,-2.47505,4.76973
-434,477,-7.37439,-21.2174,0,0,0,0,0,0,0,-1,790,547,-7.37441,21.2174
-427,477,-7.60608,-21.8088,0.00117126,0.011909,-0.0046493,0.0136423,-0.000562035,-1.21395,0.00928786,0.049101,797,547,-7.60608,21.8088
-420,477,-7.63269,-22.6249,0.0010222,0.0104754,-0.00471295,0.0124236,-0.000925974,-1.17882,0.00860768,0.0391761,804,547,-7.6327,22.625
-413,477,-7.64514,-23.8752,0.000991395,0.00897953,-0.00458071,0.0110629,-0.001092,-1.14394,0.00776491,0.0217904,811,547,-7.64514,23.8752
-406,477,-7.75745,-24.9603,0.000979502,0.0074802,-0.00417177,0.00951837,-0.00105867,-1.11634,0.0067263,0.0116376,818,547,-7.75747,24.9602
-399,477,-7.83209,-25.9054,0.000980756,0.00605414,-0.00363305,0.00794846,-0.00091356,-1.09017,0.00562826,0.0193383,825,547,-7.8321,25.9054
-392,477,-7.92316,-26.878,0.00111806,0.00472655,-0.00310368,0.00651231,-0.000667705,-1.04869,0.00458036,0.0182823,832,547,-7.92314,26.878
-385,477,-7.97913,-27.8264,0.0013739,0.00346817,-0.00254821,0.005176,-0.000333938,-0.980345,0.0035672,0.0155661,839,547,-7.97912,27.8264
-378,477,-8.03442,-28.7757,0.00160196,0.00214288,-0.00188202,0.00377377,-2.89296e-05,-0.856764,0.00252555,0.0150533,846,547,-8.0344,28.7757
-371,477,-8.09778,-29.6819,0.00176624,0.000839164,-0.00121912,0.00260697,-1.57184e-06,-0.603728,0.00173851,0.0154779,853,547,-8.0978,29.6819
-364,477,-8.13898,-30.6018,0.00186048,-0.000494862,-0.000474788,0.00195259,-0.000586968,-0.191613,0.00153525,0.0149143,860,547,-8.13901,30.6018
-357,477,-8.21069,-31.5446,0.00194609,-0.001704,0.000253879,0.00196367,-0.00172157,0.0691106,0.0021292,0.0118094,867,547,-8.21071,31.5446
-350,477,-8.27203,-32.4706,0.00200183,-0.00288841,0.000936383,0.00217499,-0.00306158,0.182866,0.00303774,0.0111195,874,547,-8.27202,32.4706
-343,477,-8.24048,-33.4473,0.00194421,-0.00395459,0.00163187,0.00236556,-0.00437594,0.252682,0.00394947,0.0209117,881,547,-8.2405,33.4473
-336,477,-8.22095,-34.3932,0.00176878,-0.00511107,0.0023745,0.00250873,-0.00585102,0.302085,0.00495342,0.0409916,888,547,-8.22093,34.3933
-329,477,-8.22479,-35.2922,0,0,0,0,0,0,0,-1,895,547,-8.2248,35.2922
-322,477,-5.91638,-27.4468,0,0,0,0,0,0,0,-1,902,547,-5.91639,27.4468
-315,477,-1.67358,-9.15253,0,0,0,0,0,0,0,-1,909,547,-1.67356,9.15253
-308,477,-1.30127,-6.55188,0,0,0,0,0,0,0,-1,916,547,-1.30128,6.55185
-301,477,-1.21185,-6.28351,0,0,0,0,0,0,0,-1,923,547,-1.21184,6.28352
-294,477,-0.352905,3.27142,0,0,0,0,0,0,0,-1,930,547,-0.35292,-3.27144
-287,477,3.54364,2.15399,0,0,0,0,0,0,0,-1,937,547,3.54362,-2.15396
-280,477,1.97308,-0.954163,0,0,0,0,0,0,0,-1,944,547,1.9731,0.954178
-273,477,2.11621,-3.76709,0,0,0,0,0,0,0,-1,951,547,2.11619,3.76706
-266,477,2.04669,-3.42389,0,0,0,0,0,0,0,-1,958,547,2.04671,3.42391
-259,477,-1.33478,-3.41205,0,0,0,0,0,0,0,-1,965,547,-1.3348,3.41206
-252,477,0.597168,-5.32922,0,0,0,0,0,0,0,-1,972,547,0.597144,5.32924
-245,477,8.2309,-8.48492,0,0,0,0,0,0,0,-1,979,547,8.23091,8.48494
-238,477,6.60938,-5.64063,0,0,0,0,0,0,0,-1,986,547,6.60938,5.64063
-231,477,4.71716,-2.52484,0,0,0,0,0,0,0,-1,993,547,4.71716,2.52483
-224,477,0,0,0,0,0,0,0,0,0,-1,1000,547,0,0
-217,477,0,0,0,0,0,0,0,0,0,-1,1007,547,0,0
-210,477,0,0,0,0,0,0,0,0,0,-1,1014,547,0,0
-203,477,0,0,0,0,0,0,0,0,0,-1,1021,547,0,0
-196,477,0,0,0,0,0,0,0,0,0,-1,1028,547,0,0
-189,477,0,0,0,0,0,0,0,0,0,-1,1035,547,0,0
-182,477,0,0,0,0,0,0,0,0,0,-1,1042,547,0,0
-175,477,0,0,0,0,0,0,0,0,0,-1,1049,547,0,0
-168,477,0,0,0,0,0,0,0,0,0,-1,1056,547,0,0
-161,477,0,0,0,0,0,0,0,0,0,-1,1063,547,0,0
-154,477,0,0,0,0,0,0,0,0,0,-1,1070,547,0,0
-147,477,0,0,0,0,0,0,0,0,0,-1,1077,547,0,0
-140,477,0,0,0,0,0,0,0,0,0,-1,1084,547,0,0
-133,477,0,0,0,0,0,0,0,0,0,-1,1091,547,0,0
-126,477,0,0,0,0,0,0,0,0,0,-1,1098,547,0,0
-119,477,0,0,0,0,0,0,0,0,0,-1,1105,547,0,0
-112,477,0,0,0,0,0,0,0,0,0,-1,1112,547,0,0
-105,477,0,0,0,0,0,0,0,0,0,-1,1119,547,0,0
-98,477,0,0,0,0,0,0,0,0,0,-1,1126,547,0,0
-91,477,0,0,0,0,0,0,0,0,0,-1,1133,547,0,0
-84,477,0,0,0,0,0,0,0,0,0,-1,1140,547,0,0
-77,477,0,0,0,0,0,0,0,0,0,-1,1147,547,0,0
-70,477,0,0,0,0,0,0,0,0,0,-1,1154,547,0,0
-63,477,0,0,0,0,0,0,0,0,0,-1,1161,547,0,0
-56,477,0,0,0,0,0,0,0,0,0,-1,1168,547,0,0
-49,477,0,0,0,0,0,0,0,0,0,-1,1175,547,0,0
-42,477,0,0,0,0,0,0,0,0,0,-1,1182,547,0,0
-35,477,0,0,0,0,0,0,0,0,0,-1,1189,547,0,0
-28,477,0,0,0,0,0,0,0,0,0,-1,1196,547,0,0
-21,477,0,0,0,0,0,0,0,0,0,-1,1203,547,0,0
-14,477,0,0,0,0,0,0,0,0,0,-1,1210,547,0,0
-7,477,0,0,0,0,0,0,0,0,0,-1,1217,547,0,0
0,477,0,0,0,0,0,0,0,0,0,-1,1224,547,0,0
7,477,0,0,0,0,0,0,0,0,0,-1,1231,547,0,0
14,477,0,0,0,0,0,0,0,0,0,-1,1238,547,0,0
21,477,0,0,0,0,0,0,0,0,0,-1,1245,547,0,0
28,477,0,0,0,0,0,0,0,0,0,-1,1252,547,0,0
35,477,0,0,0,0,0,0,0,0,0,-1,1259,547,0,0
42,477,0,0,0,0,0,0,0,0,0,-1,1266,547,0,0
49,477,0,0,0,0,0,0,0,0,0,-1,1273,547,0,0
56,477,0,0,0,0,0,0,0,0,0,-1,1280,547,0,0
63,477,0,0,0,0,0,0,0,0,0,-1,1287,547,0,0
70,477,0,0,0,0,0,0,0,0,0,-1,1294,547,0,0
77,477,0,0,0,0,0,0,0,0,0,-1,1301,547,0,0
84,477,0,0,0,0,0,0,0,0,0,-1,1308,547,0,0
91,477,0,0,0,0,0,0,0,0,0,-1,1315,547,0,0
98,477,0,0,0,0,0,0,0,0,0,-1,1322,547,0,0
105,477,0,0,0,0,0,0,0,0,0,-1,1329,547,0,0
112,477,0,0,0,0,0,0,0,0,0,-1,1336,547,0,0
119,477,0,0,0,0,0,0,0,0,0,-1,1343,547,0,0
126,477,0,0,0,0,0,0,0,0,0,-1,1350,547,0,0
133,477,0,0,0,0,0,0,0,0,0,-1,1357,547,0,0
140,477,0,0,0,0,0,0,0,0,0,-1,1364,547,0,0
147,477,0,0,0,0,0,0,0,0,0,-1,1371,547,0,0
154,477,0,0,0,0,0,0,0,0,0,-1,1378,547,0,0
161,477,0,0,0,0,0,0,0,0,0,-1,1385,547,0,0
168,477,0,0,0,0,0,0,0,0,0,-1,1392,547,0,0
175,477,0,0,0,0,0,0,0,0,0,-1,1399,547,0,0
182,477,0,0,0,0,0,0,0,0,0,-1,1406,547,0,0
189,477,0,0,0,0,0,0,0,0,0,-1,1413,547,0,0
196,477,0,0,0,0,0,0,0,0,0,-1,1420,547,0,0
203,477,0,0,0,0,0,0,0,0,0,-1,1427,547,0,0
210,477,0,0,0,0,0,0,0,0,0,-1,1434,547,0,0
217,477,0,0,0,0,0,0,0,0,0,-1,1441,547,0,0
224,477,0,0,0,0,0,0,0,0,0,-1,1448,547,0,0
231,477,0,0,0,0,0,0,0,0,0,-1,1455,547,0,0
238,477,0,0,0,0,0,0,0,0,0,-1,1462,547,0,0
245,477,0,0,0,0,0,0,0,0,0,-1,1469,547,0,0
252,477,0,0,0,0,0,0,0,0,0,-1,1476,547,0,0
259,477,0,0,0,0,0,0,0,0,0,-1,1483,547,0,0
266,477,0,0,0,0,0,0,0,0,0,-1,1490,547,0,0
273,477,0,0,0,0,0,0,0,0,0,-1,1497,547,0,0
280,477,0,0,0,0,0,0,0,0,0,-1,1504,547,0,0
287,477,0,0,0,0,0,0,0,0,0,-1,1511,547,0,0
294,477,0,0,0,0,0,0,0,0,0,-1,1518,547,0,0
301,477,0,0,0,0,0,0,0,0,0,-1,1525,547,0,0
308,477,0,0,0,0,0,0,0,0,0,-1,1532,547,0,0
315,477,0,0,0,0,0,0,0,0,0,-1,1539,547,0,0
322,477,0,0,0,0,0,0,0,0,0,-1,1546,547,0,0
329,477,0,0,0,0,0,0,0,0,0,-1,1553,547,0,0
336,477,0,0,0,0,0,0,0,0,0,-1,1560,547,0,0
343,477,0,0,0,0,0,0,0,0,0,-1,1567,547,0,0
350,477,1.7699,-3.32275,0,0,0,0,0,0,0,-1,1574,547,1.7699,3.32272
357,477,3.073,-4.83313,0,0,0,0,0,0,0,-1,1581,547,3.07303,4.83316
364,477,4.30127,-4.22864,0,0,0,0,0,0,0,-1,1588,547,4.30125,4.22865
371,477,4.57703,0.283264,0,0,0,0,0,0,0,-1,1595,547,4.57706,-0.283262
378,477,8.57947,1.05969,0,0,0,0,0,0,0,-1,1602,547,8.5795,-1.05972
385,477,12.3726,2.02356,0,0,0,0,0,0,0,-1,1609,547,12.3725,-2.02355
392,477,16.4678,2.76843,0,0,0,0,0,0,0,-1,1616,547,16.4678,-2.76845
399,477,8.00037,-2.29523,0,0,0,0,0,0,0,-1,1623,547,8.00031,2.2952
406,477,4.82495,2.7475,0,0,0,0,0,0,0,-1,1630,547,4.825,-2.74752
413,477,4.88171,-0.336426,0,0,0,0,0,0,0,-1,1637,547,4.88169,0.336398
420,477,3.34875,0.102722,0,0,0,0,0,0,0,-1,1644,547,3.34871,-0.1027
427,477,1.66772,-0.373108,0,0,0,0,0,0,0,-1,1651,547,1.66768,0.373104
434,477,3.76978,-2.30798,0,0,0,0,0,0,0,-1,1658,547,3.76974,2.30801
441,477,4.05444,-2.80402,0,0,0,0,0,0,0,-1,1665,547,4.05444,2.804
448,477,10.4247,-11.7421,0,0,0,0,0,0,0,-1,1672,547,10.4247,11.7421
455,477,13.3054,-16.8109,0,0,0,0,0,0,0,-1,1679,547,13.3054,16.8109
462,477,24.448,-34.2972,0,0,0,0,0,0,0,-1,1686,547,24.448,34.2973
469,477,24.4623,-33.1682,0,0,0,0,0,0,0,-1,1693,547,24.4623,33.1682
476,477,24.371,-32.2853,0.00148771,0.000162413,-0.00105579,0.00207157,-0.000421452,-0.505153,0.00154087,0.0313007,1700,547,24.3709,32.2853
483,477,24.3187,-31.3257,0.00147606,0.000267483,-0.000614301,0.00173347,1.00688e-05,-0.396808,0.00115231,0.0161825,1707,547,24.3187,31.3258
490,477,24.2651,-30.4115,0.00136493,0.000532451,-0.000250276,0.00143438,0.000463002,-0.270678,0.000845302,0.0144542,1714,547,24.2651,30.4115
497,477,24.2092,-29.4518,0.00139246,0.00103028,0.000314306,0.00157411,0.000848623,0.524046,0.000909738,0.0131568,1721,547,24.2092,29.4518
504,477,24.1661,-28.508,0.00150965,0.00110834,0.000713675,0.00205034,0.000567649,0.648355,0.00122243,0.0180847,1728,547,24.1661,28.508
511,477,24.1451,-27.6116,0.00154108,0.00128449,0.00104285,0.00246349,0.000362076,0.724193,0.00153593,0.0242047,1735,547,24.1451,27.6116
518,477,24.0829,-26.6705,0.00143546,0.00153179,0.00130219,0.0027867,0.000180546,0.803883,0.00180064,0.0215074,1742,547,24.0829,26.6706
525,477,23.9506,-25.6779,0.00134687,0.00183732,0.00153929,0.00315079,3.33943e-05,0.864389,0.00208949,0.0176545,1749,547,23.9506,25.6779
532,477,23.8536,-24.6882,0.00122184,0.00231891,0.00178742,0.00364007,-9.93218e-05,0.93428,0.00246049,0.0193416,1756,547,23.8537,24.6882
539,477,23.8138,-23.6422,0.00103775,0.00294652,0.00197348,0.00418428,-0.000200008,1.01062,0.00285852,0.0184419,1763,547,23.8138,23.6422
546,477,23.6858,-22.7572,0.000864512,0.0039298,0.00219029,0.00507043,-0.000276111,1.09068,0.00347598,0.0448386,1770,547,23.6858,22.7572
553,477,23.7271,-21.6457,0,0,0,0,0,0,0,-1,1777,547,23.727,21.6457
560,477,19.4597,-16.1135,0,0,0,0,0,0,0,-1,1784,547,19.4597,16.1135
567,477,13.9529,-8.70972,0,0,0,0,0,0,0,-1,1791,547,13.9529,8.7097
574,477,6.82593,-0.916992,0,0,0,0,0,0,0,-1,1798,547,6.82598,0.916977
581,477,9.29321,-0.557007,0,0,0,0,0,0,0,-1,1805,547,9.29324,0.55703
588,477,9.75195,0.422729,0,0,0,0,0,0,0,-1,1812,547,9.75198,-0.42273
595,477,9.89172,1.21326,0,0,0,0,0,0,0,-1,1819,547,9.89174,-1.21328
602,477,6.5271,-0.964417,0,0,0,0,0,0,0,-1,1826,547,6.52706,0.964427
609,477,0,0,0,0,0,0,0,0,0,-1,1833,547,0,0
616,477,0,0,0,0,0,0,0,0,0,-1,1840,547,0,0
623,477,0,0,0,0,0,0,0,0,0,-1,1847,547,0,0
630,477,0,0,0,0,0,0,0,0,0,-1,1854,547,0,0
637,477,0,0,0,0,0,0,0,0,0,-1,1861,547,0,0
644,477,0,0,0,0,0,0,0,0,0,-1,1868,547,0,0
651,477,0,0,0,0,0,0,0,0,0,-1,1875,547,0,0
658,477,0,0,0,0,0,0,0,0,0,-1,1882,547,0,0
665,477,0,0,0,0,0,0,0,0,0,-1,1889,547,0,0
672,477,0,0,0,0,0,0,0,0,0,-1,1896,547,0,0
679,477,0,0,0,0,0,0,0,0,0,-1,1903,547,0,0
686,477,0,0,0,0,0,0,0,0,0,-1,1910,547,0,0
693,477,0,0,0,0,0,0,0,0,0,-1,1917,547,0,0
700,477,0,0,0,0,0,0,0,0,0,-1,1924,547,0,0
707,477,0,0,0,0,0,0,0,0,0,-1,1931,547,0,0
714,477,0,0,0,0,0,0,0,0,0,-1,1938,547,0,0
721,477,0,0,0,0,0,0,0,0,0,-1,1945,547,0,0
728,477,0,0,0,0,0,0,0,0,0,-1,1952,547,0,0
735,477,0,0,0,0,0,0,0,0,0,-1,1959,547,0,0
742,477,0,0,0,0,0,0,0,0,0,-1,1966,547,0,0
749,477,0,0,0,0,0,0,0,0,0,-1,1973,547,0,0
756,477,0,0,0,0,0,0,0,0,0,-1,1980,547,0,0
763,477,0,0,0,0,0,0,0,0,0,-1,1987,547,0,0
770,477,0,0,0,0,0,0,0,0,0,-1,1994,547,0,0
777,477,0,0,0,0,0,0,0,0,0,-1,2001,547,0,0
784,477,0,0,0,0,0,0,0,0,0,-1,2008,547,0,0
791,477,0,0,0,0,0,0,0,0,0,-1,2015,547,0,0
798,477,0,0,0,0,0,0,0,0,0,-1,2022,547,0,0
805,477,0,0,0,0,0,0,0,0,0,-1,2029,547,0,0
812,477,0,0,0,0,0,0,0,0,0,-1,2036,547,0,0
-700,470,0,0,0,0,0,0,0,0,0,-1,524,554,0,0
-693,470,0,0,0,0,0,0,0,0,0,-1,531,554,0,0
-686,470,0,0,0,0,0,0,0,0,0,-1,538,554,0,0
-679,470,0,0,0,0,0,0,0,0,0,-1,545,554,0,0
-672,470,0,0,0,0,0,0,0,0,0,-1,552,554,0,0
-665,470,0,0,0,0,0,0,0,0,0,-1,559,554,0,0
-658,470,0,0,0,0,0,0,0,0,0,-1,566,554,0,0
-651,470,0,0,0,0,0,0,0,0,0,-1,573,554,0,0
-644,470,0,0,0,0,0,0,0,0,0,-1,580,554,0,0
-637,470,0,0,0,0,0,0,0,0,0,-1,587,554,0,0
-630,470,0,0,0,0,0,0,0,0,0,-1,594,554,0,0
-623,470,0,0,0,0,0,0,0,0,0,-1,601,554,0,0
-616,470,0,0,0,0,0,0,0,0,0,-1,608,554,0,0
-609,470,0,0,0,0,0,0,0,0,0,-1,615,554,0,0
-602,470,0,0,0,0,0,0,0,0,0,-1,622,554,0,0
-595,470,0,0,0,0,0,0,0,0,0,-1,629,554,0,0
-588,470,0,0,0,0,0,0,0,0,0,-1,636,554,0,0
-581,470,0,0,0,0,0,0,0,0,0,-1,643,554,0,0
-574,470,0,0,0,0,0,0,0,0,0,-1,650,554,0,0
-567,470,0,0,0,0,0,0,0,0,0,-1,657,554,0,0
-560,470,0,0,0,0,0,0,0,0,0,-1,664,554,0,0
-553,470,0,0,0,0,0,0,0,0,0,-1,671,554,0,0
-546,470,0,0,0,0,0,0,0,0,0,-1,678,554,0,0
-539,470,0,0,0,0,0,0,0,0,0,-1,685,554,0,0
-532,470,0,0,0,0,0,0,0,0,0,-1,692,554,0,0
-525,470,0,0,0,0,0,0,0,0,0,-1,699,554,0,0
-518,470,0,0,0,0,0,0,0,0,0,-1,706,554,0,0
-511,470,0,0,0,0,0,0,0,0,0,-1,713,554,0,0
-504,470,0,0,0,0,0,0,0,0,0,-1,720,554,0,0
-497,470,0,0,0,0,0,0,0,0,0,-1,727,554,0,0
-490,470,-9.13263,-1.03125,0,0,0,0,0,0,0,-1,734,554,-9.1326,1.03127
-483,470,-7.68677,-1.03955,0,0,0,0,0,0,0,-1,741,554,-7.68678,1.03958
-476,470,-6.17969,-1.03394,0,0,0,0,0,0,0,-1,748,554,-6.17971,1.03395
-469,470,-6.23016,-0.651855,0,0,0,0,0,0,0,-1,755,554,-6.23014,0.651829
-462,470,-4.87915,-1.03705,0,0,0,0,0,0,0,-1,762,554,-4.87914,1.03702
-455,470,-4.14777,-1.37079,0,0,0,0,0,0,0,-1,769,554,-4.14779,1.37078
-448,470,-2.9314,-5.74518,0,0,0,0,0,0,0,-1,776,554,-2.93137,5.74518
-441,470,-8.03943,-19.0135,0,0,0,0,0,0,0,-1,783,554,-8.03942,19.0135
-434,470,-8.50085,-20.8806,0,0,0,0,0,0,0,-1,790,554,-8.50085,20.8806
-427,470,-8.55261,-21.881,0.000796975,0.00895848,-0.00337266,0.0101718,-0.000416361,-1.22546,0.00692417,0.0277701,797,554,-8.55262,21.881
-420,470,-8.56958,-22.8848,0.000813769,0.00774081,-0.00338218,0.00911827,-0.000563691,-1.18404,0.00627519,0.0181059,804,554,-8.5696,22.8848
-413,470,-8.64398,-23.8947,0.000808353,0.00648548,-0.00320468,0.00792797,-0.000634133,-1.14784,0.00550887,0.0142683,811,554,-8.64401,23.8946
-406,470,-8.69855,-24.89,0.000774859,0.0051826,-0.00278908,0.00653345,-0.000575991,-1.11976,0.00455977,0.0129348,818,554,-8.69853,24.89
-399,470,-8.77368,-25.8643,0.000801302,0.0039898,-0.00231084,0.00520298,-0.00041187,-1.08736,0.00361377,0.0167518,825,554,-8.77368,25.8643
-392,470,-8.85028,-26.8159,0.000975461,0.00286644,-0.00186145,0.00400876,-0.000166859,-1.02038,0.00272983,0.0148965,832,554,-8.85029,26.8159
-385,470,-8.92645,-27.7386,0.00128345,0.0018147,-0.00141225,0.00298608,0.000112067,-0.878356,0.00195444,0.0111343,839,554,-8.92643,27.7386
-378,470,-8.98102,-28.7004,0.00158891,0.000694583,-0.000870109,0.00212003,0.000163459,-0.548039,0.00136214,0.0168456,846,554,-8.98099,28.7004
-371,470,-9.03015,-29.6395,0.00187706,-0.000370914,-0.000351126,0.00193062,-0.000424482,-0.151394,0.00144945,0.0154097,853,554,-9.03016,29.6394
-364,470,-9.07825,-30.564,0.00211893,-0.00141205,0.00020242,0.00213049,-0.00142362,0.0570776,0.00206545,0.0159155,860,554,-9.07826,30.5639
-357,470,-9.15186,-31.4973,0.00236598,-0.00240187,0.00071526,0.00247097,-0.00250686,0.145744,0.00287397,0.0157585,867,554,-9.15184,31.4973
-350,470,-9.198,-32.4439,0.00258751,-0.00345554,0.00117824,0.00280911,-0.00367714,0.185906,0.003756,0.0137073,874,554,-9.19799,32.4439
-343,470,-9.13049,-33.4268,0,0,0,0,0,0,0,-1,881,554,-9.13052,33.4268
-336,470,-8.96204,-34.4294,0,0,0,0,0,0,0,-1,888,554,-8.96202,34.4294
-329,470,-2.78516,-12.3594,0,0,0,0,0,0,0,-1,895,554,-2.78517,12.3594
-322,470,-2.30829,-11.4527,0,0,0,0,0,0,0,-1,902,554,-2.30827,11.4527
-315,470,-1.04797,-8.29529,0,0,0,0,0,0,0,-1,909,554,-1.04797,8.29526
-308,470,-1.39368,-6.68152,0,0,0,0,0,0,0,-1,916,554,-1.39369,6.68149
-301,470,-0.0340576,3.34888,0,0,0,0,0,0,0,-1,923,554,-0.0340496,-3.3489
-294,470,-1.18378,3.22266,0,0,0,0,0,0,0,-1,930,554,-1.18376,-3.22268
-287,470,-2.15454,3.2204,0,0,0,0,0,0,0,-1,937,554,-2.15452,-3.22037
-280,470,-3.00537,3.099,0,0,0,0,0,0,0,-1,944,554,-3.00536,-3.09898
-273,470,-12.3932,3.65009,0,0,0,0,0,0,0,-1,951,554,-12.3932,-3.65011
-266,470,-11.5706,1.16028,0,0,0,0,0,0,0,-1,958,554,-11.5706,-1.16031
-259,470,-7.50415,-2.77167,0,0,0,0,0,0,0,-1,965,554,-7.50413,2.7717
-252,470,-0.371155,-5.87823,0,0,0,0,0,0,0,-1,972,554,-0.37114,5.87821
-245,470,1.33221,-6.81122,0,0,0,0,0,0,0,-1,979,554,1.33223,6.8112
-238,470,0,0,0,0,0,0,0,0,0,-1,986,554,0,0
-231,470,0,0,0,0,0,0,0,0,0,-1,993,554,0,0
-224,470,0,0,0,0,0,0,0,0,0,-1,1000,554,0,0
-217,470,0,0,0,0,0,0,0,0,0,-1,1007,554,0,0
-210,470,0,0,0,0,0,0,0,0,0,-1,1014,554,0,0
-203,470,0,0,0,0,0,0,0,0,0,-1,1021,554,0,0
-196,470,0,0,0,0,0,0,0,0,0,-1,1028,554,0,0
-189,470,0,0,0,0,0,0,0,0,0,-1,1035,554,0,0
-182,470,0,0,0,0,0,0,0,0,0,-1,1042,554,0,0
-175,470,0,0,0,0,0,0,0,0,0,-1,1049,554,0,0
-168,470,0,0,0,0,0,0,0,0,0,-1,1056,554,0,0
-161,470,0,0,0,0,0,0,0,0,0,-1,1063,554,0,0
-154,470,0,0,0,0,0,0,0,0,0,-1,1070,554,0,0
-147,470,0,0,0,0,0,0,0,0,0,-1,1077,554,0,0
-140,470,0,0,0,0,0,0,0,0,0,-1,1084,554,0,0
-133,470,0,0,0,0,0,0,0,0,0,-1,1091,554,0,0
-126,470,0,0,0,0,0,0,0,0,0,-1,1098,554,0,0
-119,470,0,0,0,0,0,0,0,0,0,-1,1105,554,0,0
-112,470,0,0,0,0,0,0,0,0,0,-1,1112,554,0,0
-105,470,0,0,0,0,0,0,0,0,0,-1,1119,554,0,0
-98,470,0,0,0,0,0,0,0,0,0,-1,1126,554,0,0
-91,470,0,0,0,0,0,0,0,0,0,-1,1133,554,0,0
-84,470,0,0,0,0,0,0,0,0,0,-1,1140,554,0,0
-77,470,0,0,0,0,0,0,0,0,0,-1,1147,554,0,0
-70,470,0,0,0,0,0,0,0,0,0,-1,1154,554,0,0
-63,470,0,0,0,0,0,0,0,0,0,-1,1161,554,0,0
-56,470,0,0,0,0,0,0,0,0,0,-1,1168,554,0,0
-49,470,0,0,0,0,0,0,0,0,0,-1,1175,554,0,0
-42,470,0,0,0,0,0,0,0,0,0,-1,1182,554,0,0
-35,470,0,0,0,0,0,0,0,0,0,-1,1189,554,0,0
-28,470,0,0,0,0,0,0,0,0,0,-1,1196,554,0,0
-21,470,0,0,0,0,0,0,0,0,0,-1,1203,554,0,0
-14,470,0,0,0,0,0,0,0,0,0,-1,1210,554,0,0
-7,470,0,0,0,0,0,0,0,0,0,-1,1217,554,0,0
0,470,0,0,0,0,0,0,0,0,0,-1,1224,554,0,0
7,470,0,0,0,0,0,0,0,0,0,-1,1231,554,0,0
14,470,0,0,0,0,0,0,0,0,0,-1,1238,554,0,0
21,470,0,0,0,0,0,0,0,0,0,-1,1245,554,0,0
28,470,0,0,0,0,0,0,0,0,0,-1,1252,554,0,0
35,470,0,0,0,0,0,0,0,0,0,-1,1259,554,0,0
42,470,0,0,0,0,0,0,0,0,0,-1,1266,554,0,0
49,470,0,0,0,0,0,0,0,0,0,-1,1273,554,0,0
56,470,0,0,0,0,0,0,0,0,0,-1,1280,554,0,0
63,470,0,0,0,0,0,0,0,0,0,-1,1287,554,0,0
70,470,0,0,0,0,0,0,0,0,0,-1,1294,554,0,0
77,470,0,0,0,0,0,0,0,0,0,-1,1301,554,0,0
84,470,0,0,0,0,0,0,0,0,0,-1,1308,554,0,0
91,470,0,0,0,0,0,0,0,0,0,-1,1315,554,0,0
98,470,0,0,0,0,0,0,0,0,0,-1,1322,554,0,0
105,470,0,0,0,0,0,0,0,0,0,-1,1329,554,0,0
112,470,0,0,0,0,0,0,0,0,0,-1,1336,554,0,0
119,470,0,0,0,0,0,0,0,0,0,-1,1343,554,0,0
126,470,0,0,0,0,0,0,0,0,0,-1,1350,554,0,0
133,470,0,0,0,0,0,0,0,0,0,-1,1357,554,0,0
140,470,0,0,0,0,0,0,0,0,0,-1,1364,554,0,0
147,470,0,0,0,0,0,0,0,0,0,-1,1371,554,0,0
154,470,0,0,0,0,0,0,0,0,0,-1,1378,554,0,0
161,470,0,0,0,0,0,0,0,0,0,-1,1385,554,0,0
168,470,0,0,0,0,0,0,0,0,0,-1,1392,554,0,0
175,470,0,0,0,0,0,0,0,0,0,-1,1399,554,0,0
182,470,0,0,0,0,0,0,0,0,0,-1,1406,554,0,0
189,470,0,0,0,0,0,0,0,0,0,-1,1413,554,0,0
196,470,0,0,0,0,0,0,0,0,0,-1,1420,554,0,0
203,470,0,0,0,0,0,0,0,0,0,-1,1427,554,0,0
210,470,0,0,0,0,0,0,0,0,0,-1,1434,554,0,0
217,470,0,0,0,0,0,0,0,0,0,-1,1441,554,0,0
224,470,0,0,0,0,0,0,0,0,0,-1,1448,554,0,0
231,470,0,0,0,0,0,0,0,0,0,-1,1455,554,0,0
238,470,0,0,0,0,0,0,0,0,0,-1,1462,554,0,0
245,470,0,0,0,0,0,0,0,0,0,-1,1469,554,0,0
252,470,0,0,0,0,0,0,0,0,0,-1,1476,554,0,0
259,470,0,0,0,0,0,0,0,0,0,-1,1483,554,0,0
266,470,0,0,0,0,0,0,0,0,0,-1,1490,554,0,0
273,470,0,0,0,0,0,0,0,0,0,-1,1497,554,0,0
280,470,0,0,0,0,0,0,0,0,0,-1,1504,554,0,0
287,470,0,0,0,0,0,0,0,0,0,-1,1511,554,0,0
294,470,0,0,0,0,0,0,0,0,0,-1,1518,554,0,0
301,470,0,0,0,0,0,0,0,0,0,-1,1525,554,0,0
308,470,0,0,0,0,0,0,0,0,0,-1,1532,554,0,0
315,470,0,0,0,0,0,0,0,0,0,-1,1539,554,0,0
322,470,0,0,0,0,0,0,0,0,0,-1,1546,554,0,0
329,470,0,0,0,0,0,0,0,0,0,-1,1553,554,0,0
336,470,0,0,0,0,0,0,0,0,0,-1,1560,554,0,0
343,470,0,0,0,0,0,0,0,0,0,-1,1567,554,0,0
350,470,0,0,0,0,0,0,0,0,0,-1,1574,554,0,0
357,470,0,0,0,0,0,0,0,0,0,-1,1581,554,0,0
364,470,1.33423,0.293335,0,0,0,0,0,0,0,-1,1588,554,1.33422,-0.293348
371,470,2.22498,-0.0305176,0,0,0,0,0,0,0,-1,1595,554,2.22494,0.0305046
378,470,6.27051,0.710083,0,0,0,0,0,0,0,-1,1602,554,6.27054,-0.710093
385,470,10.3657,1.47296,0,0,0,0,0,0,0,-1,1609,554,10.3657,-1.47299
392,470,15.3881,3.01935,0,0,0,0,0,0,0,-1,1616,554,15.388,-3.01937
399,470,18.4479,2.93793,0,0,0,0,0,0,0,-1,1623,554,18.4479,-2.93792
406,470,15.1896,1.36676,0,0,0,0,0,0,0,-1,1630,554,15.1896,-1.36679
413,470,6.55383,1.99207,0,0,0,0,0,0,0,-1,1637,554,6.5538,-1.99208
420,470,4.47095,0.845703,0,0,0,0,0,0,0,-1,1644,554,4.47098,-0.845718
427,470,3.51038,1.19684,0,0,0,0,0,0,0,-1,1651,554,3.51039,-1.19684
434,470,3.31775,-1.37427,0,0,0,0,0,0,0,-1,1658,554,3.31781,1.37426
441,470,2.55457,-2.05902,0,0,0,0,0,0,0,-1,1665,554,2.55461,2.05904
448,470,3.27258,-2.64032,0,0,0,0,0,0,0,-1,1672,554,3.27257,2.64029
455,470,10.3658,-9.82233,0,0,0,0,0,0,0,-1,1679,554,10.3659,9.82233
462,470,11.0651,-11.9958,0,0,0,0,0,0,0,-1,1686,554,11.0651,11.9958
469,470,15.4242,-19.0521,0,0,0,0,0,0,0,-1,1693,554,15.4242,19.0521
476,470,25.3253,-32.2756,0,0,0,0,0,0,0,-1,1700,554,25.3254,32.2756
483,470,25.2839,-31.2768,0.00159463,2.69105e-06,-0.000795999,0.00192435,-0.000327031,-0.392709,0.00140466,0.0214333,1707,554,25.2839,31.2768
490,470,25.2189,-30.3346,0.00141432,0.0002125,-0.000473147,0.00157824,4.85829e-05,-0.3335,0.00103635,0.0131438,1714,554,25.2189,30.3346
497,470,25.1735,-29.3921,0.00137831,0.000720142,0.000107066,0.00139529,0.000703163,0.157272,0.000805577,0.012664,1721,554,25.1735,29.3921
504,470,25.1294,-28.4933,0.00138567,0.000734354,0.000460556,0.00162407,0.000495951,0.477661,0.000961047,0.0196808,1728,554,25.1294,28.4933
511,470,25.0922,-27.5813,0.00133471,0.000838754,0.000750972,0.00187759,0.000295875,0.625931,0.00116568,0.028411,1735,554,25.0922,27.5813
518,470,25.066,-26.6263,0.00117881,0.0010181,0.00100547,0.00210713,8.97842e-05,0.745523,0.0013758,0.0269617,1742,554,25.0661,26.6263
525,470,24.9604,-25.6276,0.00103866,0.00128369,0.00123433,0.00240158,-7.92238e-05,0.834864,0.0016281,0.0159276,1749,554,24.9605,25.6276
532,470,24.8323,-24.5863,0.000890064,0.00171851,0.0014772,0.00283846,-0.000229893,0.922092,0.00197341,0.0140681,1756,554,24.8322,24.5863
539,470,24.7563,-23.6025,0.000729957,0.00231797,0.00168148,0.00338348,-0.000335556,1.00598,0.00237542,0.0170463,1763,554,24.7563,23.6025
546,470,24.7,-22.6609,0.000627901,0.00323646,0.0019184,0.00425196,-0.000387606,1.08394,0.00297228,0.016172,1770,554,24.6999,22.661
553,470,24.7153,-21.6645,0.00060361,0.00439325,0.00222422,0.00542033,-0.000423469,1.1382,0.00376266,0.0273506,1777,554,24.7154,21.6645
560,470,24.7455,-20.4221,0,0,0,0,0,0,0,-1,1784,554,24.7455,20.4221
567,470,24.6205,-19.3339,0,0,0,0,0,0,0,-1,1791,554,24.6205,19.3339
574,470,14.2793,-8.07147,0,0,0,0,0,0,0,-1,1798,554,14.2793,8.07147
581,470,8.24646,-4.06317,0,0,0,0,0,0,0,-1,1805,554,8.24648,4.06318
588,470,11.1803,1.74927,0,0,0,0,0,0,0,-1,1812,554,11.1803,-1.74926
595,470,4.72192,3.44116,0,0,0,0,0,0,0,-1,1819,554,4.72191,-3.44116
602,470,14.4307,2.76141,0,0,0,0,0,0,0,-1,1826,554,14.4306,-2.76139
609,470,20.9181,4.41058,0,0,0,0,0,0,0,-1,1833,554,20.9181,-4.4106
616,470,0,0,0,0,0,0,0,0,0,-1,1840,554,0,0
623,470,0,0,0,0,0,0,0,0,0,-1,1847,554,0,0
630,470,0,0,0,0,0,0,0,0,0,-1,1854,554,0,0
637,470,0,0,0,0,0,0,0,0,0,-1,1861,554,0,0
644,470,0,0,0,0,0,0,0,0,0,-1,1868,554,0,0
651,470,0,0,0,0,0,0,0,0,0,-1,1875,554,0,0
658,470,0,0,0,0,0,0,0,0,0,-1,1882,554,0,0
665,470,0,0,0,0,0,0,0,0,0,-1,1889,554,0,0
672,470,0,0,0,0,0,0,0,0,0,-1,1896,554,0,0
679,470,0,0,0,0,0,0,0,0,0,-1,1903,554,0,0
686,470,0,0,0,0,0,0,0,0,0,-1,1910,554,0,0
693,470,0,0,0,0,0,0,0,0,0,-1,1917,554,0,0
700,470,0,0,0,0,0,0,0,0,0,-1,1924,554,0,0
707,470,0,0,0,0,0,0,0,0,0,-1,1931,554,0,0
714,470,0,0,0,0,0,0,0,0,0,-1,1938,554,0,0
721,470,0,0,0,0,0,0,0,0,0,-1,1945,554,0,0
728,470,0,0,0,0,0,0,0,0,0,-1,1952,554,0,0
735,470,0,0,0,0,0,0,0,0,0,-1,1959,554,0,0
742,470,0,0,0,0,0,0,0,0,0,-1,1966,554,0,0
749,470,0,0,0,0,0,0,0,0,0,-1,1973,554,0,0
756,470,0,0,0,0,0,0,0,0,0,-1,1980,554,0,0
763,470,0,0,0,0,0,0,0,0,0,-1,1987,554,0,0
770,470,0,0,0,0,0,0,0,0,0,-1,1994,554,0,0
777,470,0,0,0,0,0,0,0,0,0,-1,2001,554,0,0
784,470,0,0,0,0,0,0,0,0,0,-1,2008,554,0,0
791,470,0,0,0,0,0,0,0,0,0,-1,2015,554,0,0
798,470,0,0,0,0,0,0,0,0,0,-1,2022,554,0,0
805,470,0,0,0,0,0,0,0,0,0,-1,2029,554,0,0
812,470,0,0,0,0,0,0,0,0,0,-1,2036,554,0,0
-700,463,0,0,0,0,0,0,0,0,0,-1,524,561,0,0
-693,463,0,0,0,0,0,0,0,0,0,-1,531,561,0,0
-686,463,0,0,0,0,0,0,0,0,0,-1,538,561,0,0
-679,463,0,0,0,0,0,0,0,0,0,-1,545,561,0,0
-672,463,0,0,0,0,0,0,0,0,0,-1,552,561,0,0
-665,463,0,0,0,0,0,0,0,0,0,-1,559,561,0,0
-658,463,0,0,0,0,0,0,0,0,0,-1,566,561,0,0
-651,463,0,0,0,0,0,0,0,0,0,-1,573,561,0,0
-644,463,0,0,0,0,0,0,0,0,0,-1,580,561,0,0
-637,463,0,0,0,0,0,0,0,0,0,-1,587,561,0,0
-630,463,0,0,0,0,0,0,0,0,0,-1,594,561,0,0
-623,463,0,0,0,0,0,0,0,0,0,-1,601,561,0,0
-616,463,0,0,0,0,0,0,0,0,0,-1,608,561,0,0
-609,463,0,0,0,0,0,0,0,0,0,-1,615,561,0,0
-602,463,0,0,0,0,0,0,0,0,0,-1,622,561,0,0
-595,463,0,0,0,0,0,0,0,0,0,-1,629,561,0,0
-588,463,0,0,0,0,0,0,0,0,0,-1,636,561,0,0
-581,463,0,0,0,0,0,0,0,0,0,-1,643,561,0,0
-574,463,0,0,0,0,0,0,0,0,0,-1,650,561,0,0
-567,463,0,0,0,0,0,0,0,0,0,-1,657,561,0,0
-560,463,0,0,0,0,0,0,0,0,0,-1,664,561,0,0
-553,463,0,0,0,0,0,0,0,0,0,-1,671,561,0,0
-546,463,0,0,0,0,0,0,0,0,0,-1,678,561,0,0
-539,463,0,0,0,0,0,0,0,0,0,-1,685,561,0,0
-532,463,0,0,0,0,0,0,0,0,0,-1,692,561,0,0
-525,463,0,0,0,0,0,0,0,0,0,-1,699,561,0,0
-518,463,0,0,0,0,0,0,0,0,0,-1,706,561,0,0
-511,463,0,0,0,0,0,0,0,0,0,-1,713,561,0,0
-504,463,0,0,0,0,0,0,0,0,0,-1,720,561,0,0
-497,463,-9.81451,-1.67126,0,0,0,0,0,0,0,-1,727,561,-9.81452,1.67127
-490,463,-8.57043,-1.58942,0,0,0,0,0,0,0,-1,734,561,-8.57045,1.58944
-483,463,-7.29224,-1.7226,0,0,0,0,0,0,0,-1,741,561,-7.29226,1.72261
-476,463,-5.77704,-1.7312,0,0,0,0,0,0,0,-1,748,561,-5.77703,1.73121
-469,463,-5.14545,-2.138,0,0,0,0,0,0,0,-1,755,561,-5.14546,2.13799
-462,463,-3.13672,-3.07977,0,0,0,0,0,0,0,-1,762,561,-3.13672,3.07974
-455,463,-2.91406,-5.61798,0,0,0,0,0,0,0,-1,769,561,-2.91406,5.61801
-448,463,-4.00177,-8.54681,0,0,0,0,0,0,0,-1,776,561,-4.00175,8.54683
-441,463,-9.60516,-19.5165,0,0,0,0,0,0,0,-1,783,561,-9.60518,19.5166
-434,463,-9.45264,-20.8626,0.00029278,0.00726567,-0.00205271,0.00782507,-0.000266627,-1.30474,0.00530782,0.0432058,790,561,-9.45262,20.8626
-427,463,-9.48151,-21.8863,0.000448557,0.00634581,-0.00219635,0.00707391,-0.000279551,-1.25069,0.00481183,0.0121792,797,561,-9.4815,21.8863
-420,463,-9.53418,-22.8676,0.000571526,0.00542287,-0.00224844,0.00630467,-0.000310271,-1.19705,0.00431026,0.0099844,804,561,-9.5342,22.8676
-413,463,-9.60828,-23.8423,0.000634161,0.00443914,-0.00211851,0.00538403,-0.000310726,-1.15126,0.00369728,0.0103048,811,561,-9.6083,23.8423
-406,463,-9.66937,-24.8094,0.000642403,0.00338368,-0.00177017,0.00425182,-0.000225746,-1.11483,0.00291272,0.0113206,818,561,-9.66937,24.8095
-399,463,-9.73718,-25.7646,0.000742849,0.00245277,-0.001403,0.00324079,-4.51684e-05,-1.05904,0.00217574,0.0128506,825,561,-9.7372,25.7646
-392,463,-9.8172,-26.7187,0.000998965,0.0015696,-0.00107098,0.00239262,0.000175945,-0.915578,0.00153978,0.0123419,832,561,-9.81717,26.7187
-385,463,-9.89142,-27.6797,0.00141141,0.000761435,-0.000759998,0.00191299,0.000259854,-0.583357,0.00119814,0.0118775,839,561,-9.89141,27.6797
-378,463,-9.94476,-28.6313,0.00186501,-9.33237e-05,-0.000379698,0.00193605,-0.000164366,-0.184963,0.00134883,0.0130631,846,561,-9.94477,28.6313
-371,463,-9.98358,-29.6061,0.00236844,-0.000841462,-4.19146e-05,0.00236899,-0.00084201,-0.0130549,0.00192247,0.013323,853,561,-9.98359,29.6062
-364,463,-10.0215,-30.5078,0.0028656,-0.00147489,0.000273444,0.00288276,-0.00149205,0.0626681,0.00256799,0.0159148,860,561,-10.0216,30.5078
-357,463,-10.1054,-31.3983,0.00338058,-0.00213503,0.000528129,0.00343069,-0.00218514,0.0946064,0.00326878,0.022469,867,561,-10.1054,31.3983
-350,463,-10.084,-32.4,0.00386598,-0.00302555,0.000764514,0.00394977,-0.00310934,0.109167,0.0040852,0.0458292,874,561,-10.084,32.4
-343,463,-9.76129,-33.4552,0,0,0,0,0,0,0,-1,881,561,-9.76129,33.4552
-336,463,-2.94928,-12.2127,0,0,0,0,0,0,0,-1,888,561,-2.94925,12.2127
-329,463,-2.64307,-12.7037,0,0,0,0,0,0,0,-1,895,561,-2.64307,12.7038
-322,463,-1.82898,-9.11957,0,0,0,0,0,0,0,-1,902,561,-1.829,9.11957
-315,463,-0.944763,-5.96234,0,0,0,0,0,0,0,-1,909,561,-0.94479,5.96237
-308,463,-1.1535,-3.17889,0,0,0,0,0,0,0,-1,916,561,-1.15352,3.17889
-301,463,-1.50366,-3.15338,0,0,0,0,0,0,0,-1,923,561,-1.50364,3.15341
-294,463,-2.35889,-3.93463,0,0,0,0,0,0,0,-1,930,561,-2.35886,3.93465
-287,463,-2.80322,2.73999,0,0,0,0,0,0,0,-1,937,561,-2.80322,-2.74
-280,463,-12.864,5.25146,0,0,0,0,0,0,0,-1,944,561,-12.864,-5.25149
-273,463,-12.4598,3.39178,0,0,0,0,0,0,0,-1,951,561,-12.4598,-3.3918
-266,463,-8.78101,-3.7356,0,0,0,0,0,0,0,-1,958,561,-8.78098,3.73562
-259,463,-6.23285,-5.68842,0,0,0,0,0,0,0,-1,965,561,-6.23288,5.68843
-252,463,0,0,0,0,0,0,0,0,0,-1,972,561,0,0
-245,463,0,0,0,0,0,0,0,0,0,-1,979,561,0,0
-238,463,0,0,0,0,0,0,0,0,0,-1,986,561,0,0
-231,463,0,0,0,0,0,0,0,0,0,-1,993,561,0,0
-224,463,0,0,0,0,0,0,0,0,0,-1,1000,561,0,0
-217,463,0,0,0,0,0,0,0,0,0,-1,1007,561,0,0
-210,463,0,0,0,0,0,0,0,0,0,-1,1014,561,0,0
-203,463,0,0,0,0,0,0,0,0,0,-1,1021,561,0,0
-196,463,0,0,0,0,0,0,0,0,0,-1,1028,561,0,0
-189,463,0,0,0,0,0,0,0,0,0,-1,1035,561,0,0
-182,463,0,0,0,0,0,0,0,0,0,-1,1042,561,0,0
-175,463,0,0,0,0,0,0,0,0,0,-1,1049,561,0,0
-168,463,0,0,0,0,0,0,0,0,0,-1,1056,561,0,0
-161,463,0,0,0,0,0,0,0,0,0,-1,1063,561,0,0
-154,463,0,0,0,0,0,0,0,0,0,-1,1070,561,0,0
-147,463,0,0,0,0,0,0,0,0,0,-1,1077,561,0,0
-140,463,0,0,0,0,0,0,0,0,0,-1,1084,561,0,0
-133,463,0,0,0,0,0,0,0,0,0,-1,1091,561,0,0
-126,463,0,0,0,0,0,0,0,0,0,-1,1098,561,0,0
-119,463,0,0,0,0,0,0,0,0,0,-1,1105,561,0,0
-112,463,0,0,0,0,0,0,0,0,0,-1,1112,561,0,0
-105,463,0,0,0,0,0,0,0,0,0,-1,1119,561,0,0
-98,463,0,0,0,0,0,0,0,0,0,-1,1126,561,0,0
-91,463,0,0,0,0,0,0,0,0,0,-1,1133,561,0,0
-84,463,0,0,0,0,0,0,0,0,0,-1,1140,561,0,0
-77,463,0,0,0,0,0,0,0,0,0,-1,1147,561,0,0
-70,463,0,0,0,0,0,0,0,0,0,-1,1154,561,0,0
-63,463,0,0,0,0,0,0,0,0,0,-1,1161,561,0,0
-56,463,0,0,0,0,0,0,0,0,0,-1,1168,561,0,0
-49,463,0,0,0,0,0,0,0,0,0,-1,1175,561,0,0
-42,463,0,0,0,0,0,0,0,0,0,-1,1182,561,0,0
-35,463,0,0,0,0,0,0,0,0,0,-1,1189,561,0,0
-28,463,0,0,0,0,0,0,0,0,0,-1,1196,561,0,0
-21,463,0,0,0,0,0,0,0,0,0,-1,1203,561,0,0
-14,463,0,0,0,0,0,0,0,0,0,-1,1210,561,0,0
-7,463,0,0,0,0,0,0,0,0,0,-1,1217,561,0,0
0,463,0,0,0,0,0,0,0,0,0,-1,1224,561,0,0
7,463,0,0,0,0,0,0,0,0,0,-1,1231,561,0,0
14,463,0,0,0,0,0,0,0,0,0,-1,1238,561,0,0
21,463,0,0,0,0,0,0,0,0,0,-1,1245,561,0,0
28,463,0,0,0,0,0,0,0,0,0,-1,1252,561,0,0
35,463,0,0,0,0,0,0,0,0,0,-1,1259,561,0,0
42,463,0,0,0,0,0,0,0,0,0,-1,1266,561,0,0
49,463,0,0,0,0,0,0,0,0,0,-1,1273,561,0,0
56,463,0,0,0,0,0,0,0,0,0,-1,1280,561,0,0
63,463,0,0,0,0,0,0,0,0,0,-1,1287,561,0,0
70,463,0,0,0,0,0,0,0,0,0,-1,1294,561,0,0
77,463,0,0,0,0,0,0,0,0,0,-1,1301,561,0,0
84,463,0,0,0,0,0,0,0,0,0,-1,1308,561,0,0
91,463,0,0,0,0,0,0,0,0,0,-1,1315,561,0,0
98,463,0,0,0,0,0,0,0,0,0,-1,1322,561,0,0
105,463,0,0,0,0,0,0,0,0,0,-1,1329,561,0,0
112,463,0,0,0,0,0,0,0,0,0,-1,1336,561,0,0
119,463,0,0,0,0,0,0,0,0,0,-1,1343,561,0,0
126,463,0,0,0,0,0,0,0,0,0,-1,1350,561,0,0
133,463,0,0,0,0,0,0,0,0,0,-1,1357,561,0,0
140,463,0,0,0,0,0,0,0,0,0,-1,1364,561,0,0
147,463,0,0,0,0,0,0,0,0,0,-1,1371,561,0,0
154,463,0,0,0,0,0,0,0,0,0,-1,1378,561,0,0
161,463,0,0,0,0,0,0,0,0,0,-1,1385,561,0,0
168,463,0,0,0,0,0,0,0,0,0,-1,1392,561,0,0
175,463,0,0,0,0,0,0,0,0,0,-1,1399,561,0,0
182,463,0,0,0,0,0,0,0,0,0,-1,1406,561,0,0
189,463,0,0,0,0,0,0,0,0,0,-1,1413,561,0,0
196,463,0,0,0,0,0,0,0,0,0,-1,1420,561,0,0
203,463,0,0,0,0,0,0,0,0,0,-1,1427,561,0,0
210,463,0,0,0,0,0,0,0,0,0,-1,1434,561,0,0
217,463,0,0,0,0,0,0,0,0,0,-1,1441,561,0,0
224,463,0,0,0,0,0,0,0,0,0,-1,1448,561,0,0
231,463,0,0,0,0,0,0,0,0,0,-1,1455,561,0,0
238,463,0,0,0,0,0,0,0,0,0,-1,1462,561,0,0
245,463,0,0,0,0,0,0,0,0,0,-1,1469,561,0,0
252,463,0,0,0,0,0,0,0,0,0,-1,1476,561,0,0
259,463,0,0,0,0,0,0,0,0,0,-1,1483,561,0,0
266,463,0,0,0,0,0,0,0,0,0,-1,1490,561,0,0
273,463,0,0,0,0,0,0,0,0,0,-1,1497,561,0,0
280,463,0,0,0,0,0,0,0,0,0,-1,1504,561,0,0
287,463,0,0,0,0,0,0,0,0,0,-1,1511,561,0,0
294,463,0,0,0,0,0,0,0,0,0,-1,1518,561,0,0
301,463,0,0,0,0,0,0,0,0,0,-1,1525,561,0,0
308,463,0,0,0,0,0,0,0,0,0,-1,1532,561,0,0
315,463,0,0,0,0,0,0,0,0,0,-1,1539,561,0,0
322,463,0,0,0,0,0,0,0,0,0,-1,1546,561,0,0
329,463,0,0,0,0,0,0,0,0,0,-1,1553,561,0,0
336,463,0,0,0,0,0,0,0,0,0,-1,1560,561,0,0
343,463,0,0,0,0,0,0,0,0,0,-1,1567,561,0,0
350,463,0,0,0,0,0,0,0,0,0,-1,1574,561,0,0
357,463,0,0,0,0,0,0,0,0,0,-1,1581,561,0,0
364,463,0,0,0,0,0,0,0,0,0,-1,1588,561,0,0
371,463,1.75842,0.152588,0,0,0,0,0,0,0,-1,1595,561,1.75844,-0.152558
378,463,4.58813,-0.0444336,0,0,0,0,0,0,0,-1,1602,561,4.58809,0.0444505
385,463,8.88574,1.65057,0,0,0,0,0,0,0,-1,1609,561,8.88575,-1.65055
392,463,14.0912,2.50513,0,0,0,0,0,0,0,-1,1616,561,14.0912,-2.5051
399,463,21.4769,2.7002,0,0,0,0,0,0,0,-1,1623,561,21.477,-2.70017
406,463,26.2987,4.32318,0,0,0,0,0,0,0,-1,1630,561,26.2987,-4.3232
413,463,26.5011,2.65222,0,0,0,0,0,0,0,-1,1637,561,26.5011,-2.65224
420,463,8.849,2.26611,0,0,0,0,0,0,0,-1,1644,561,8.84899,-2.26613
427,463,5.12207,1.69183,0,0,0,0,0,0,0,-1,1651,561,5.12206,-1.69184
434,463,4.59814,1.81995,0,0,0,0,0,0,0,-1,1658,561,4.59812,-1.81994
441,463,1.76392,-5.99225,0,0,0,0,0,0,0,-1,1665,561,1.7639,5.99225
448,463,2.49939,-4.30536,0,0,0,0,0,0,0,-1,1672,561,2.49941,4.30536
455,463,4.40295,-3.02557,0,0,0,0,0,0,0,-1,1679,561,4.40299,3.02558
462,463,5.38293,-4.06445,0,0,0,0,0,0,0,-1,1686,561,5.38289,4.06444
469,463,5.94373,-4.50647,0,0,0,0,0,0,0,-1,1693,561,5.94368,4.50646
476,463,15.2559,-17.3189,0,0,0,0,0,0,0,-1,1700,561,15.2558,17.3189
483,463,26.1882,-31.436,0,0,0,0,0,0,0,-1,1707,561,26.1882,31.436
490,463,26.1978,-30.3641,0.00155235,-0.000264336,-0.000666903,0.00177089,-0.000482867,-0.316655,0.00137021,0.0345738,1714,561,26.1977,30.3641
497,463,26.1157,-29.3203,0.00155491,0.000363571,-2.87707e-05,0.00155561,0.000362877,-0.0241311,0.000939764,0.0159931,1721,561,26.1157,29.3203
504,463,26.0867,-28.4025,0.00150029,0.000402589,0.000299482,0.00157668,0.000326199,0.24975,0.000961021,0.016945,1728,561,26.0867,28.4025
511,463,26.0693,-27.477,0.00140687,0.000476255,0.000563296,0.00167219,0.000210937,0.440188,0.00105156,0.0250304,1735,561,26.0694,27.477
518,463,26.045,-26.5179,0.00123237,0.000611191,0.0008225,0.00180097,4.25936e-05,0.604866,0.0011867,0.025987,1742,561,26.045,26.5179
525,463,25.9087,-25.5521,0.00104533,0.000856838,0.0010335,0.00198887,-8.66981e-05,0.739927,0.00135574,0.0203152,1749,561,25.9086,25.5521
532,463,25.8748,-24.5251,0.00086393,0.00125145,0.00124685,0.0023195,-0.000204123,0.862481,0.00161867,0.0185002,1756,561,25.8747,24.5251
539,463,25.7577,-23.5113,0.000692907,0.00181184,0.00143824,0.0027956,-0.000290847,0.97089,0.00196786,0.0217295,1763,561,25.7577,23.5113
546,463,25.6615,-22.6294,0.000586807,0.00263054,0.00165016,0.00354961,-0.000332261,1.06263,0.00248458,0.0173591,1770,561,25.6615,22.6294
553,463,25.636,-21.6312,0.000542034,0.00362303,0.00191221,0.00453807,-0.000373011,1.12447,0.00315707,0.0120697,1777,561,25.636,21.6312
560,463,25.6241,-20.5145,0.000662309,0.00485419,0.00225077,0.00583378,-0.000317285,1.1603,0.00399915,0.0251687,1784,561,25.6241,20.5145
567,463,25.4219,-19.552,0.000765724,0.00630578,0.00270789,0.00740948,-0.000337971,1.18377,0.00505607,0.041289,1791,561,25.4218,19.552
574,463,25.522,-18.5428,0,0,0,0,0,0,0,-1,1798,561,25.522,18.5428
581,463,9.4939,-3.88245,0,0,0,0,0,0,0,-1,1805,561,9.49392,3.88245
588,463,1.97424,2.16016,0,0,0,0,0,0,0,-1,1812,561,1.97422,-2.16013
595,463,9.98657,2.99854,0,0,0,0,0,0,0,-1,1819,561,9.98662,-2.99856
602,463,17.2202,4.91302,0,0,0,0,0,0,0,-1,1826,561,17.2202,-4.91305
609,463,17.96,4.03131,0,0,0,0,0,0,0,-1,1833,561,17.96,-4.03132
616,463,20.8352,3.15131,0,0,0,0,0,0,0,-1,1840,561,20.8352,-3.1513
623,463,0,0,0,0,0,0,0,0,0,-1,1847,561,0,0
630,463,0,0,0,0,0,0,0,0,0,-1,1854,561,0,0
637,463,0,0,0,0,0,0,0,0,0,-1,1861,561,0,0
644,463,0,0,0,0,0,0,0,0,0,-1,1868,561,0,0
651,463,0,0,0,0,0,0,0,0,0,-1,1875,561,0,0
658,463,0,0,0,0,0,0,0,0,0,-1,1882,561,0,0
665,463,0,0,0,0,0,0,0,0,0,-1,1889,561,0,0
672,463,0,0,0,0,0,0,0,0,0,-1,1896,561,0,0
679,463,0,0,0,0,0,0,0,0,0,-1,1903,561,0,0
686,463,0,0,0,0,0,0,0,0,0,-1,1910,561,0,0
693,463,0,0,0,0,0,0,0,0,0,-1,1917,561,0,0
700,463,0,0,0,0,0,0,0,0,0,-1,1924,561,0,0
707,463,0,0,0,0,0,0,0,0,0,-1,1931,561,0,0
714,463,0,0,0,0,0,0,0,0,0,-1,1938,561,0,0
721,463,0,0,0,0,0,0,0,0,0,-1,1945,561,0,0
728,463,0,0,0,0,0,0,0,0,0,-1,1952,561,0,0
735,463,0,0,0,0,0,0,0,0,0,-1,1959,561,0,0
742,463,0,0,0,0,0,0,0,0,0,-1,1966,561,0,0
749,463,0,0,0,0,0,0,0,0,0,-1,1973,561,0,0
756,463,0,0,0,0,0,0,0,0,0,-1,1980,561,0,0
763,463,0,0,0,0,0,0,0,0,0,-1,1987,561,0,0
770,463,0,0,0,0,0,0,0,0,0,-1,1994,561,0,0
777,463,0,0,0,0,0,0,0,0,0,-1,2001,561,0,0
784,463,0,0,0,0,0,0,0,0,0,-1,2008,561,0,0
791,463,0,0,0,0,0,0,0,0,0,-1,2015,561,0,0
798,463,0,0,0,0,0,0,0,0,0,-1,2022,561,0,0
805,463,0,0,0,0,0,0,0,0,0,-1,2029,561,0,0
812,463,0,0,0,0,0,0,0,0,0,-1,2036,561,0,0
-700,456,0,0,0,0,0,0,0,0,0,-1,524,568,0,0
-693,456,0,0,0,0,0,0,0,0,0,-1,531,568,0,0
-686,456,0,0,0,0,0,0,0,0,0,-1,538,568,0,0
-679,456,0,0,0,0,0,0,0,0,0,-1,545,568,0,0
-672,456,0,0,0,0,0,0,0,0,0,-1,552,568,0,0
-665,456,0,0,0,0,0,0,0,0,0,-1,559,568,0,0
-658,456,0,0,0,0,0,0,0,0,0,-1,566,568,0,0
-651,456,0,0,0,0,0,0,0,0,0,-1,573,568,0,0
-644,456,0,0,0,0,0,0,0,0,0,-1,580,568,0,0
-637,456,0,0,0,0,0,0,0,0,0,-1,587,568,0,0
-630,456,0,0,0,0,0,0,0,0,0,-1,594,568,0,0
-623,456,0,0,0,0,0,0,0,0,0,-1,601,568,0,0
-616,456,0,0,0,0,0,0,0,0,0,-1,608,568,0,0
-609,456,0,0,0,0,0,0,0,0,0,-1,615,568,0,0
-602,456,0,0,0,0,0,0,0,0,0,-1,622,568,0,0
-595,456,0,0,0,0,0,0,0,0,0,-1,629,568,0,0
-588,456,0,0,0,0,0,0,0,0,0,-1,636,568,0,0
-581,456,0,0,0,0,0,0,0,0,0,-1,643,568,0,0
-574,456,0,0,0,0,0,0,0,0,0,-1,650,568,0,0
-567,456,0,0,0,0,0,0,0,0,0,-1,657,568,0,0
-560,456,0,0,0,0,0,0,0,0,0,-1,664,568,0,0
-553,456,0,0,0,0,0,0,0,0,0,-1,671,568,0,0
-546,456,0,0,0,0,0,0,0,0,0,-1,678,568,0,0
-539,456,0,0,0,0,0,0,0,0,0,-1,685,568,0,0
-532,456,0,0,0,0,0,0,0,0,0,-1,692,568,0,0
-525,456,0,0,0,0,0,0,0,0,0,-1,699,568,0,0
-518,456,0,0,0,0,0,0,0,0,0,-1,706,568,0,0
-511,456,0,0,0,0,0,0,0,0,0,-1,713,568,0,0
-504,456,-10.3994,-2.34839,0,0,0,0,0,0,0,-1,720,568,-10.3994,2.3484
-497,456,-9.21375,-2.38068,0,0,0,0,0,0,0,-1,727,568,-9.21372,2.38069
-490,456,-8.09058,-2.31824,0,0,0,0,0,0,0,-1,734,568,-8.09057,2.31821
-483,456,-6.66119,-2.24329,0,0,0,0,0,0,0,-1,741,568,-6.66121,2.24331
-476,456,-5.1499,-2.21185,0,0,0,0,0,0,0,-1,748,568,-5.14992,2.21184
-469,456,-2.81238,-3.51501,0,0,0,0,0,0,0,-1,755,568,-2.81237,3.51501
-462,456,-4.2431,-5.27478,0,0,0,0,0,0,0,-1,762,568,-4.24312,5.27476
-455,456,-5.98364,-8.72119,0,0,0,0,0,0,0,-1,769,568,-5.98364,8.72122
-448,456,-10.1896,-18.6771,0,0,0,0,0,0,0,-1,776,568,-10.1896,18.6771
-441,456,-10.4916,-19.7193,0,0,0,0,0,0,0,-1,783,568,-10.4916,19.7193
-434,456,-10.4025,-20.8432,4.24583e-05,0.00529898,-0.00139191,0.0056448,-0.000303362,-1.32728,0.00386829,0.0252702,790,568,-10.4026,20.8432
-427,456,-10.4413,-21.8286,0.000366935,0.0045538,-0.00154902,0.00506457,-0.000143843,-1.25228,0.00342534,0.010204,797,568,-10.4413,21.8286
-420,456,-10.5068,-22.802,0.000628511,0.00384538,-0.00163367,0.00452953,-5.56386e-05,-1.17421,0.0030384,0.00988729,804,568,-10.5068,22.802
-413,456,-10.5776,-23.7742,0.000779533,0.00306637,-0.00154138,0.00384213,3.76883e-06,-1.10452,0.00256017,0.0100044,811,568,-10.5776,23.7743
-406,456,-10.6578,-24.7272,0.000849781,0.00221107,-0.0012512,0.00295478,0.000106073,-1.03451,0.00193547,0.0106229,818,568,-10.6578,24.7272
-399,456,-10.7203,-25.6792,0.00101583,0.00149486,-0.000968779,0.00225329,0.000257398,-0.906585,0.00142417,0.0125483,825,568,-10.7204,25.6792
-392,456,-10.7774,-26.6416,0.00132129,0.00080786,-0.000715136,0.0018244,0.000304759,-0.613074,0.00112848,0.0122166,832,568,-10.7774,26.6416
-385,456,-10.8348,-27.5902,0.00178208,0.000185183,-0.00048207,0.00191632,5.09416e-05,-0.271589,0.00126091,0.0110948,839,568,-10.8348,27.5902
-378,456,-10.903,-28.5518,0.00231337,-0.000455483,-0.000190826,0.00232646,-0.000468573,-0.0684873,0.00172846,0.0123088,846,568,-10.903,28.5518
-371,456,-10.9525,-29.5162,0.00294098,-0.000929,5.96852e-05,0.0029419,-0.000929921,0.0154177,0.00233383,0.0131011,853,568,-10.9524,29.5162
-364,456,-10.972,-30.4169,0.0035824,-0.00117201,0.000241263,0.00359462,-0.00118422,0.0505719,0.00287367,0.0227606,860,568,-10.972,30.417
-357,456,-11.0074,-31.3411,0,0,0,0,0,0,0,-1,867,568,-11.0074,31.3411
-350,456,-10.8916,-32.5823,0,0,0,0,0,0,0,-1,874,568,-10.8916,32.5823
-343,456,-3.39081,-12.0217,0,0,0,0,0,0,0,-1,881,568,-3.39078,12.0217
-336,456,-3.04517,-12.4623,0,0,0,0,0,0,0,-1,888,568,-3.04519,12.4624
-329,456,-1.06183,-10.7184,0,0,0,0,0,0,0,-1,895,568,-1.06184,10.7184
-322,456,-0.662537,-7.66632,0,0,0,0,0,0,0,-1,902,568,-0.662564,7.66633
-315,456,-0.675476,-3.38397,0,0,0,0,0,0,0,-1,909,568,-0.675473,3.38399
-308,456,-1.1618,-3.15314,0,0,0,0,0,0,0,-1,916,568,-1.16178,3.15314
-301,456,-1.83551,-3.26447,0,0,0,0,0,0,0,-1,923,568,-1.8355,3.26449
-294,456,-2.93414,-3.35449,0,0,0,0,0,0,0,-1,930,568,-2.93413,3.35451
-287,456,-3.7569,-3.53101,0,0,0,0,0,0,0,-1,937,568,-3.75692,3.53101
-280,456,-13.072,4.52856,0,0,0,0,0,0,0,-1,944,568,-13.072,-4.52855
-273,456,-8.26538,-6.66748,0,0,0,0,0,0,0,-1,951,568,-8.26536,6.66745
-266,456,-5.71527,-9.36884,0,0,0,0,0,0,0,-1,958,568,-5.71529,9.36885
-259,456,0,0,0,0,0,0,0,0,0,-1,965,568,0,0
-252,456,0,0,0,0,0,0,0,0,0,-1,972,568,0,0
-245,456,0,0,0,0,0,0,0,0,0,-1,979,568,0,0
-238,456,0,0,0,0,0,0,0,0,0,-1,986,568,0,0
-231,456,0,0,0,0,0,0,0,0,0,-1,993,568,0,0
-224,456,0,0,0,0,0,0,0,0,0,-1,1000,568,0,0
-217,456,0,0,0,0,0,0,0,0,0,-1,1007,568,0,0
-210,456,0,0,0,0,0,0,0,0,0,-1,1014,568,0,0
-203,456,0,0,0,0,0,0,0,0,0,-1,1021,568,0,0
-196,456,0,0,0,0,0,0,0,0,0,-1,1028,568,0,0
-189,456,0,0,0,0,0,0,0,0,0,-1,1035,568,0,0
-182,456,0,0,0,0,0,0,0,0,0,-1,1042,568,0,0
-175,456,0,0,0,0,0,0,0,0,0,-1,1049,568,0,0
-168,456,0,0,0,0,0,0,0,0,0,-1,1056,568,0,0
-161,456,0,0,0,0,0,0,0,0,0,-1,1063,568,0,0
-154,456,0,0,0,0,0,0,0,0,0,-1,1070,568,0,0
-147,456,0,0,0,0,0,0,0,0,0,-1,1077,568,0,0
-140,456,0,0,0,0,0,0,0,0,0,-1,1084,568,0,0
-133,456,0,0,0,0,0,0,0,0,0,-1,1091,568,0,0
-126,456,0,0,0,0,0,0,0,0,0,-1,1098,568,0,0
-119,456,0,0,0,0,0,0,0,0,0,-1,1105,568,0,0
-112,456,0,0,0,0,0,0,0,0,0,-1,1112,568,0,0
-105,456,0,0,0,0,0,0,0,0,0,-1,1119,568,0,0
-98,456,0,0,0,0,0,0,0,0,0,-1,1126,568,0,0
-91,456,0,0,0,0,0,0,0,0,0,-1,1133,568,0,0
-84,456,0,0,0,0,0,0,0,0,0,-1,1140,568,0,0
-77,456,0,0,0,0,0,0,0,0,0,-1,1147,568,0,0
-70,456,0,0,0,0,0,0,0,0,0,-1,1154,568,0,0
-63,456,0,0,0,0,0,0,0,0,0,-1,1161,568,0,0
-56,456,0,0,0,0,0,0,0,0,0,-1,1168,568,0,0
-49,456,0,0,0,0,0,0,0,0,0,-1,1175,568,0,0
-42,456,0,0,0,0,0,0,0,0,0,-1,1182,568,0,0
-35,456,0,0,0,0,0,0,0,0,0,-1,1189,568,0,0
-28,456,0,0,0,0,0,0,0,0,0,-1,1196,568,0,0
-21,456,0,0,0,0,0,0,0,0,0,-1,1203,568,0,0
-14,456,0,0,0,0,0,0,0,0,0,-1,1210,568,0,0
-7,456,0,0,0,0,0,0,0,0,0,-1,1217,568,0,0
0,456,0,0,0,0,0,0,0,0,0,-1,1224,568,0,0
7,456,0,0,0,0,0,0,0,0,0,-1,1231,568,0,0
14,456,0,0,0,0,0,0,0,0,0,-1,1238,568,0,0
21,456,0,0,0,0,0,0,0,0,0,-1,1245,568,0,0
28,456,0,0,0,0,0,0,0,0,0,-1,1252,568,0,0
35,456,0,0,0,0,0,0,0,0,0,-1,1259,568,0,0
42,456,0,0,0,0,0,0,0,0,0,-1,1266,568,0,0
49,456,0,0,0,0,0,0,0,0,0,-1,1273,568,0,0
56,456,0,0,0,0,0,0,0,0,0,-1,1280,568,0,0
63,456,0,0,0,0,0,0,0,0,0,-1,1287,568,0,0
70,456,0,0,0,0,0,0,0,0,0,-1,1294,568,0,0
77,456,0,0,0,0,0,0,0,0,0,-1,1301,568,0,0
84,456,0,0,0,0,0,0,0,0,0,-1,1308,568,0,0
91,456,0,0,0,0,0,0,0,0,0,-1,1315,568,0,0
98,456,0,0,0,0,0,0,0,0,0,-1,1322,568,0,0
105,456,0,0,0,0,0,0,0,0,0,-1,1329,568,0,0
112,456,0,0,0,0,0,0,0,0,0,-1,1336,568,0,0
119,456,0,0,0,0,0,0,0,0,0,-1,1343,568,0,0
126,456,0,0,0,0,0,0,0,0,0,-1,1350,568,0,0
133,456,0,0,0,0,0,0,0,0,0,-1,1357,568,0,0
140,456,0,0,0,0,0,0,0,0,0,-1,1364,568,0,0
147,456,0,0,0,0,0,0,0,0,0,-1,1371,568,0,0
154,456,0,0,0,0,0,0,0,0,0,-1,1378,568,0,0
161,456,0,0,0,0,0,0,0,0,0,-1,1385,568,0,0
168,456,0,0,0,0,0,0,0,0,0,-1,1392,568,0,0
175,456,0,0,0,0,0,0,0,0,0,-1,1399,568,0,0
182,456,0,0,0,0,0,0,0,0,0,-1,1406,568,0,0
189,456,0,0,0,0,0,0,0,0,0,-1,1413,568,0,0
196,456,0,0,0,0,0,0,0,0,0,-1,1420,568,0,0
203,456,0,0,0,0,0,0,0,0,0,-1,1427,568,0,0
210,456,0,0,0,0,0,0,0,0,0,-1,1434,568,0,0
217,456,0,0,0,0,0,0,0,0,0,-1,1441,568,0,0
224,456,0,0,0,0,0,0,0,0,0,-1,1448,568,0,0
231,456,0,0,0,0,0,0,0,0,0,-1,1455,568,0,0
238,456,0,0,0,0,0,0,0,0,0,-1,1462,568,0,0
245,456,0,0,0,0,0,0,0,0,0,-1,1469,568,0,0
252,456,0,0,0,0,0,0,0,0,0,-1,1476,568,0,0
259,456,0,0,0,0,0,0,0,0,0,-1,1483,568,0,0
266,456,0,0,0,0,0,0,0,0,0,-1,1490,568,0,0
273,456,0,0,0,0,0,0,0,0,0,-1,1497,568,0,0
280,456,0,0,0,0,0,0,0,0,0,-1,1504,568,0,0
287,456,0,0,0,0,0,0,0,0,0,-1,1511,568,0,0
294,456,0,0,0,0,0,0,0,0,0,-1,1518,568,0,0
301,456,0,0,0,0,0,0,0,0,0,-1,1525,568,0,0
308,456,0,0,0,0,0,0,0,0,0,-1,1532,568,0,0
315,456,0,0,0,0,0,0,0,0,0,-1,1539,568,0,0
322,456,0,0,0,0,0,0,0,0,0,-1,1546,568,0,0
329,456,0,0,0,0,0,0,0,0,0,-1,1553,568,0,0
336,456,0,0,0,0,0,0,0,0,0,-1,1560,568,0,0
343,456,0,0,0,0,0,0,0,0,0,-1,1567,568,0,0
350,456,0,0,0,0,0,0,0,0,0,-1,1574,568,0,0
357,456,0,0,0,0,0,0,0,0,0,-1,1581,568,0,0
364,456,0,0,0,0,0,0,0,0,0,-1,1588,568,0,0
371,456,0,0,0,0,0,0,0,0,0,-1,1595,568,0,0
378,456,0,0,0,0,0,0,0,0,0,-1,1602,568,0,0
385,456,5.66284,0.660645,0,0,0,0,0,0,0,-1,1609,568,5.66285,-0.660615
392,456,17.5027,4.32971,0,0,0,0,0,0,0,-1,1616,568,17.5026,-4.32971
399,456,24.1917,5.99652,0,0,0,0,0,0,0,-1,1623,568,24.1916,-5.99651
406,456,24.446,4.53003,0,0,0,0,0,0,0,-1,1630,568,24.446,-4.53005
413,456,24.9418,2.90521,0,0,0,0,0,0,0,-1,1637,568,24.9418,-2.90524
420,456,25.3048,1.04712,0,0,0,0,0,0,0,-1,1644,568,25.3048,-1.04713
427,456,6.21375,2.02905,0,0,0,0,0,0,0,-1,1651,568,6.21372,-2.02904
434,456,3.0719,-4.86285,0,0,0,0,0,0,0,-1,1658,568,3.07184,4.86287
441,456,2.90344,-4.70459,0,0,0,0,0,0,0,-1,1665,568,2.90346,4.7046
448,456,3.06995,-4.93689,0,0,0,0,0,0,0,-1,1672,568,3.06991,4.93687
455,456,3.46582,-3.43701,0,0,0,0,0,0,0,-1,1679,568,3.46585,3.43698
462,456,4.68445,-4.45831,0,0,0,0,0,0,0,-1,1686,568,4.68439,4.45833
469,456,4.93201,-2.289,0,0,0,0,0,0,0,-1,1693,568,4.93197,2.28903
476,456,4.8363,-2.79364,0,0,0,0,0,0,0,-1,1700,568,4.83636,2.79363
483,456,12.8522,-13.692,0,0,0,0,0,0,0,-1,1707,568,12.8522,13.6919
490,456,26.9803,-30.6704,0,0,0,0,0,0,0,-1,1714,568,26.9804,30.6704
497,456,27.0367,-29.2674,0,0,0,0,0,0,0,-1,1721,568,27.0367,29.2674
504,456,26.9902,-28.335,0.00211737,0.000349076,0.000283731,0.00216178,0.000304665,0.155264,0.00135113,0.0177387,1728,568,26.9902,28.335
511,456,27.0062,-27.3802,0.00182765,0.000287024,0.000458861,0.00195397,0.000160713,0.268618,0.00125251,0.0157736,1735,568,27.0062,27.3802
518,456,26.963,-26.4273,0.00151007,0.000294254,0.000684905,0.00181794,-1.3615e-05,0.422443,0.00121652,0.0190348,1742,568,26.963,26.4273
525,456,26.8551,-25.4606,0.00117298,0.000463269,0.000847684,0.00173709,-0.000100837,0.587172,0.00119309,0.017938,1749,568,26.8551,25.4606
532,456,26.827,-24.4332,0.000885837,0.000775405,0.00100891,0.00184104,-0.0001798,0.758061,0.00129147,0.0182687,1756,568,26.827,24.4332
539,456,26.7305,-23.4117,0.000665399,0.00126106,0.00117237,0.00217284,-0.000246376,0.909788,0.00153728,0.027763,1763,568,26.7305,23.4118
546,456,26.5791,-22.4766,0.000548761,0.00195861,0.00135011,0.00277675,-0.000269372,1.02599,0.00194717,0.0310997,1770,568,26.5791,22.4766
553,456,26.5123,-21.4948,0.000497915,0.00282475,0.00158253,0.0036255,-0.000302835,1.10237,0.00252401,0.0153729,1777,568,26.5123,21.4948
560,456,26.5165,-20.5662,0.000606445,0.00388946,0.00191346,0.00476904,-0.000273132,1.13992,0.0032742,0.0103985,1784,568,26.5164,20.5662
567,456,26.469,-19.5926,0.000855879,0.00521325,0.00242575,0.00629507,-0.000225944,1.15129,0.00427402,0.0231622,1791,568,26.469,19.5926
574,456,26.425,-18.6259,0,0,0,0,0,0,0,-1,1798,568,26.4251,18.6259
581,456,16.2228,-9.08563,0,0,0,0,0,0,0,-1,1805,568,16.2228,9.08562
588,456,5.23901,-0.0901489,0,0,0,0,0,0,0,-1,1812,568,5.23906,0.0901656
595,456,6.90063,3.14886,0,0,0,0,0,0,0,-1,1819,568,6.90066,-3.14887
602,456,16.894,4.10938,0,0,0,0,0,0,0,-1,1826,568,16.8941,-4.1094
609,456,14.9966,3.5708,0,0,0,0,0,0,0,-1,1833,568,14.9966,-3.57083
616,456,17.7407,2.6579,0,0,0,0,0,0,0,-1,1840,568,17.7408,-2.6579
623,456,20.6838,1.7121,0,0,0,0,0,0,0,-1,1847,568,20.6838,-1.71208
630,456,0,0,0,0,0,0,0,0,0,-1,1854,568,0,0
637,456,0,0,0,0,0,0,0,0,0,-1,1861,568,0,0
644,456,0,0,0,0,0,0,0,0,0,-1,1868,568,0,0
651,456,0,0,0,0,0,0,0,0,0,-1,1875,568,0,0
658,456,0,0,0,0,0,0,0,0,0,-1,1882,568,0,0
665,456,0,0,0,0,0,0,0,0,0,-1,1889,568,0,0
672,456,0,0,0,0,0,0,0,0,0,-1,1896,568,0,0
679,456,0,0,0,0,0,0,0,0,0,-1,1903,568,0,0
686,456,0,0,0,0,0,0,0,0,0,-1,1910,568,0,0
693,456,0,0,0,0,0,0,0,0,0,-1,1917,568,0,0
700,456,0,0,0,0,0,0,0,0,0,-1,1924,568,0,0
707,456,0,0,0,0,0,0,0,0,0,-1,1931,568,0,0
714,456,0,0,0,0,0,0,0,0,0,-1,1938,568,0,0
721,456,0,0,0,0,0,0,0,0,0,-1,1945,568,0,0
728,456,0,0,0,0,0,0,0,0,0,-1,1952,568,0,0
735,456,0,0,0,0,0,0,0,0,0,-1,1959,568,0,0
742,456,0,0,0,0,0,0,0,0,0,-1,1966,568,0,0
749,456,0,0,0,0,0,0,0,0,0,-1,1973,568,0,0
756,456,0,0,0,0,0,0,0,0,0,-1,1980,568,0,0
763,456,0,0,0,0,0,0,0,0,0,-1,1987,568,0,0
770,456,0,0,0,0,0,0,0,0,0,-1,1994,568,0,0
777,456,0,0,0,0,0,0,0,0,0,-1,2001,568,0,0
784,456,0,0,0,0,0,0,0,0,0,-1,2008,568,0,0
791,456,0,0,0,0,0,0,0,0,0,-1,2015,568,0,0
798,456,0,0,0,0,0,0,0,0,0,-1,2022,568,0,0
805,456,0,0,0,0,0,0,0,0,0,-1,2029,568,0,0
812,456,0,0,0,0,0,0,0,0,0,-1,2036,568,0,0
-700,449,0,0,0,0,0,0,0,0,0,-1,524,575,0,0
-693,449,0,0,0,0,0,0,0,0,0,-1,531,575,0,0
-686,449,0,0,0,0,0,0,0,0,0,-1,538,575,0,0
-679,449,0,0,0,0,0,0,0,0,0,-1,545,575,0,0
-672,449,0,0,0,0,0,0,0,0,0,-1,552,575,0,0
-665,449,0,0,0,0,0,0,0,0,0,-1,559,575,0,0
-658,449,0,0,0,0,0,0,0,0,0,-1,566,575,0,0
-651,449,0,0,0,0,0,0,0,0,0,-1,573,575,0,0
-644,449,0,0,0,0,0,0,0,0,0,-1,580,575,0,0
-637,449,0,0,0,0,0,0,0,0,0,-1,587,575,0,0
-630,449,0,0,0,0,0,0,0,0,0,-1,594,575,0,0
-623,449,0,0,0,0,0,0,0,0,0,-1,601,575,0,0
-616,449,0,0,0,0,0,0,0,0,0,-1,608,575,0,0
-609,449,0,0,0,0,0,0,0,0,0,-1,615,575,0,0
-602,449,0,0,0,0,0,0,0,0,0,-1,622,575,0,0
-595,449,0,0,0,0,0,0,0,0,0,-1,629,575,0,0
-588,449,0,0,0,0,0,0,0,0,0,-1,636,575,0,0
-581,449,0,0,0,0,0,0,0,0,0,-1,643,575,0,0
-574,449,0,0,0,0,0,0,0,0,0,-1,650,575,0,0
-567,449,0,0,0,0,0,0,0,0,0,-1,657,575,0,0
-560,449,0,0,0,0,0,0,0,0,0,-1,664,575,0,0
-553,449,0,0,0,0,0,0,0,0,0,-1,671,575,0,0
-546,449,0,0,0,0,0,0,0,0,0,-1,678,575,0,0
-539,449,0,0,0,0,0,0,0,0,0,-1,685,575,0,0
-532,449,0,0,0,0,0,0,0,0,0,-1,692,575,0,0
-525,449,0,0,0,0,0,0,0,0,0,-1,699,575,0,0
-518,449,0,0,0,0,0,0,0,0,0,-1,706,575,0,0
-511,449,-0.941345,-4.4519,0,0,0,0,0,0,0,-1,713,575,-0.941356,4.45191
-504,449,-14.1078,0.318237,0,0,0,0,0,0,0,-1,720,575,-14.1078,-0.318231
-497,449,-8.61292,-3.09009,0,0,0,0,0,0,0,-1,727,575,-8.61291,3.09011
-490,449,-7.50995,-2.96252,0,0,0,0,0,0,0,-1,734,575,-7.50995,2.96251
-483,449,-5.77789,-2.50061,0,0,0,0,0,0,0,-1,741,575,-5.77792,2.50059
-476,449,-4.1723,-2.07739,0,0,0,0,0,0,0,-1,748,575,-4.17228,2.0774
-469,449,-5.0976,-5.78448,0,0,0,0,0,0,0,-1,755,575,-5.09758,5.78451
-462,449,-6.54181,-9.54535,0,0,0,0,0,0,0,-1,762,575,-6.54178,9.54536
-455,449,-8.67291,-13.2226,0,0,0,0,0,0,0,-1,769,575,-8.67289,13.2226
-448,449,-11.2417,-18.7065,0,0,0,0,0,0,0,-1,776,575,-11.2417,18.7065
-441,449,-11.2585,-19.8846,-0.000721588,0.00438597,-0.000569313,0.00444865,-0.000784277,-1.46112,0.00325881,0.028002,783,575,-11.2586,19.8846
-434,449,-11.3754,-20.801,-6.21913e-05,0.00379194,-0.000920461,0.00400048,-0.000270736,-1.34799,0.00276166,0.0156122,790,575,-11.3753,20.801
-427,449,-11.4033,-21.7419,0.000387195,0.00324345,-0.00110829,0.00362305,7.59924e-06,-1.24081,0.00241283,0.0149914,797,575,-11.4033,21.7419
-420,449,-11.4539,-22.7166,0.000773663,0.00273196,-0.00124133,0.00333384,0.000171791,-1.11933,0.00216756,0.0141702,804,575,-11.4538,22.7166
-413,449,-11.5126,-23.6961,0.0010164,0.00214806,-0.00119848,0.00290757,0.000256889,-1.00595,0.00185868,0.0126441,811,575,-11.5125,23.6961
-406,449,-11.6092,-24.6685,0.00115986,0.00149247,-0.000981556,0.00232171,0.000330623,-0.869316,0.00145022,0.0122214,818,575,-11.6092,24.6684
-399,449,-11.6938,-25.6248,0.00139939,0.000974998,-0.000792604,0.00200771,0.000366678,-0.654605,0.00123454,0.0104837,825,575,-11.6938,25.6248
-392,449,-11.7432,-26.5792,0.0017562,0.000463333,-0.000623286,0.00200774,0.00021179,-0.383585,0.00127378,0.0110099,832,575,-11.7432,26.5792
-385,449,-11.7871,-27.5276,0.00225873,-2.02873e-05,-0.000467972,0.00235108,-0.000112638,-0.19484,0.00160625,0.0113207,839,575,-11.7871,27.5276
-378,449,-11.8619,-28.4629,0.00287341,-0.000490221,-0.000272694,0.00289538,-0.000512185,-0.0803717,0.00212169,0.0103579,846,575,-11.8619,28.4629
-371,449,-11.903,-29.4349,0.00362728,-0.000742575,-0.000108304,0.00362996,-0.000745257,-0.024764,0.00270286,0.0181342,853,575,-11.903,29.4349
-364,449,-11.9136,-30.3729,0,0,0,0,0,0,0,-1,860,575,-11.9135,30.3729
-357,449,-5.88049,-15.8704,0,0,0,0,0,0,0,-1,867,575,-5.88051,15.8704
-350,449,-2.8764,-9.90204,0,0,0,0,0,0,0,-1,874,575,-2.87638,9.90203
-343,449,-2.98492,-9.2254,0,0,0,0,0,0,0,-1,881,575,-2.98491,9.22541
-336,449,-1.29523,-9.54626,0,0,0,0,0,0,0,-1,888,575,-1.29525,9.54626
-329,449,-0.733398,-7.78937,0,0,0,0,0,0,0,-1,895,575,-0.733398,7.78937
-322,449,-0.628845,-3.16669,0,0,0,0,0,0,0,-1,902,575,-0.628861,3.16667
-315,449,-0.540344,-3.21918,0,0,0,0,0,0,0,-1,909,575,-0.540336,3.21917
-308,449,-1.04413,-2.99341,0,0,0,0,0,0,0,-1,916,575,-1.04415,2.99338
-301,449,-1.58691,-2.80725,0,0,0,0,0,0,0,-1,923,575,-1.58692,2.80728
-294,449,-3.71118,-2.76086,0,0,0,0,0,0,0,-1,930,575,-3.71119,2.76087
-287,449,-4.4082,-2.69525,0,0,0,0,0,0,0,-1,937,575,-4.40822,2.69526
-280,449,0.723999,-14.2697,0,0,0,0,0,0,0,-1,944,575,0.723977,14.2696
-273,449,0,0,0,0,0,0,0,0,0,-1,951,575,0,0
-266,449,0,0,0,0,0,0,0,0,0,-1,958,575,0,0
-259,449,0,0,0,0,0,0,0,0,0,-1,965,575,0,0
-252,449,0,0,0,0,0,0,0,0,0,-1,972,575,0,0
-245,449,0,0,0,0,0,0,0,0,0,-1,979,575,0,0
-238,449,0,0,0,0,0,0,0,0,0,-1,986,575,0,0
-231,449,0,0,0,0,0,0,0,0,0,-1,993,575,0,0
-224,449,0,0,0,0,0,0,0,0,0,-1,1000,575,0,0
-217,449,0,0,0,0,0,0,0,0,0,-1,1007,575,0,0
-210,449,0,0,0,0,0,0,0,0,0,-1,1014,575,0,0
-203,449,0,0,0,0,0,0,0,0,0,-1,1021,575,0,0
-196,449,0,0,0,0,0,0,0,0,0,-1,1028,575,0,0
-189,449,0,0,0,0,0,0,0,0,0,-1,1035,575,0,0
-182,449,0,0,0,0,0,0,0,0,0,-1,1042,575,0,0
-175,449,0,0,0,0,0,0,0,0,0,-1,1049,575,0,0
-168,449,0,0,0,0,0,0,0,0,0,-1,1056,575,0,0
-161,449,0,0,0,0,0,0,0,0,0,-1,1063,575,0,0
-154,449,0,0,0,0,0,0,0,0,0,-1,1070,575,0,0
-147,449,0,0,0,0,0,0,0,0,0,-1,1077,575,0,0
-140,449,0,0,0,0,0,0,0,0,0,-1,1084,575,0,0
-133,449,0,0,0,0,0,0,0,0,0,-1,1091,575,0,0
-126,449,0,0,0,0,0,0,0,0,0,-1,1098,575,0,0
-119,449,0,0,0,0,0,0,0,0,0,-1,1105,575,0,0
-112,449,0,0,0,0,0,0,0,0,0,-1,1112,575,0,0
-105,449,0,0,0,0,0,0,0,0,0,-1,1119,575,0,0
-98,449,0,0,0,0,0,0,0,0,0,-1,1126,575,0,0
-91,449,0,0,0,0,0,0,0,0,0,-1,1133,575,0,0
-84,449,0,0,0,0,0,0,0,0,0,-1,1140,575,0,0
-77,449,0,0,0,0,0,0,0,0,0,-1,1147,575,0,0
-70,449,0,0,0,0,0,0,0,0,0,-1,1154,575,0,0
-63,449,0,0,0,0,0,0,0,0,0,-1,1161,575,0,0
-56,449,0,0,0,0,0,0,0,0,0,-1,1168,575,0,0
-49,449,0,0,0,0,0,0,0,0,0,-1,1175,575,0,0
-42,449,0,0,0,0,0,0,0,0,0,-1,1182,575,0,0
-35,449,0,0,0,0,0,0,0,0,0,-1,1189,575,0,0
-28,449,0,0,0,0,0,0,0,0,0,-1,1196,575,0,0
-21,449,0,0,0,0,0,0,0,0,0,-1,1203,575,0,0
-14,449,0,0,0,0,0,0,0,0,0,-1,1210,575,0,0
-7,449,0,0,0,0,0,0,0,0,0,-1,1217,575,0,0
0,449,0,0,0,0,0,0,0,0,0,-1,1224,575,0,0
7,449,0,0,0,0,0,0,0,0,0,-1,1231,575,0,0
14,449,0,0,0,0,0,0,0,0,0,-1,1238,575,0,0
21,449,0,0,0,0,0,0,0,0,0,-1,1245,575,0,0
28,449,0,0,0,0,0,0,0,0,0,-1,1252,575,0,0
35,449,0,0,0,0,0,0,0,0,0,-1,1259,575,0,0
42,449,0,0,0,0,0,0,0,0,0,-1,1266,575,0,0
49,449,0,0,0,0,0,0,0,0,0,-1,1273,575,0,0
56,449,0,0,0,0,0,0,0,0,0,-1,1280,575,0,0
63,449,0,0,0,0,0,0,0,0,0,-1,1287,575,0,0
70,449,0,0,0,0,0,0,0,0,0,-1,1294,575,0,0
77,449,0,0,0,0,0,0,0,0,0,-1,1301,575,0,0
84,449,0,0,0,0,0,0,0,0,0,-1,1308,575,0,0
91,449,0,0,0,0,0,0,0,0,0,-1,1315,575,0,0
98,449,0,0,0,0,0,0,0,0,0,-1,1322,575,0,0
105,449,0,0,0,0,0,0,0,0,0,-1,1329,575,0,0
112,449,0,0,0,0,0,0,0,0,0,-1,1336,575,0,0
119,449,0,0,0,0,0,0,0,0,0,-1,1343,575,0,0
126,449,0,0,0,0,0,0,0,0,0,-1,1350,575,0,0
133,449,0,0,0,0,0,0,0,0,0,-1,1357,575,0,0
140,449,0,0,0,0,0,0,0,0,0,-1,1364,575,0,0
147,449,0,0,0,0,0,0,0,0,0,-1,1371,575,0,0
154,449,0,0,0,0,0,0,0,0,0,-1,1378,575,0,0
161,449,0,0,0,0,0,0,0,0,0,-1,1385,575,0,0
168,449,0,0,0,0,0,0,0,0,0,-1,1392,575,0,0
175,449,0,0,0,0,0,0,0,0,0,-1,1399,575,0,0
182,449,0,0,0,0,0,0,0,0,0,-1,1406,575,0,0
189,449,0,0,0,0,0,0,0,0,0,-1,1413,575,0,0
196,449,0,0,0,0,0,0,0,0,0,-1,1420,575,0,0
203,449,0,0,0,0,0,0,0,0,0,-1,1427,575,0,0
210,449,0,0,0,0,0,0,0,0,0,-1,1434,575,0,0
217,449,0,0,0,0,0,0,0,0,0,-1,1441,575,0,0
224,449,0,0,0,0,0,0,0,0,0,-1,1448,575,0,0
231,449,0,0,0,0,0,0,0,0,0,-1,1455,575,0,0
238,449,0,0,0,0,0,0,0,0,0,-1,1462,575,0,0
245,449,0,0,0,0,0,0,0,0,0,-1,1469,575,0,0
252,449,0,0,0,0,0,0,0,0,0,-1,1476,575,0,0
259,449,0,0,0,0,0,0,0,0,0,-1,1483,575,0,0
266,449,0,0,0,0,0,0,0,0,0,-1,1490,575,0,0
273,449,0,0,0,0,0,0,0,0,0,-1,1497,575,0,0
280,449,0,0,0,0,0,0,0,0,0,-1,1504,575,0,0
287,449,0,0,0,0,0,0,0,0,0,-1,1511,575,0,0
294,449,0,0,0,0,0,0,0,0,0,-1,1518,575,0,0
301,449,0,0,0,0,0,0,0,0,0,-1,1525,575,0,0
308,449,0,0,0,0,0,0,0,0,0,-1,1532,575,0,0
315,449,0,0,0,0,0,0,0,0,0,-1,1539,575,0,0
322,449,0,0,0,0,0,0,0,0,0,-1,1546,575,0,0
329,449,0,0,0,0,0,0,0,0,0,-1,1553,575,0,0
336,449,0,0,0,0,0,0,0,0,0,-1,1560,575,0,0
343,449,0,0,0,0,0,0,0,0,0,-1,1567,575,0,0
350,449,0,0,0,0,0,0,0,0,0,-1,1574,575,0,0
357,449,0,0,0,0,0,0,0,0,0,-1,1581,575,0,0
364,449,0,0,0,0,0,0,0,0,0,-1,1588,575,0,0
371,449,0,0,0,0,0,0,0,0,0,-1,1595,575,0,0
378,449,0,0,0,0,0,0,0,0,0,-1,1602,575,0,0
385,449,0,0,0,0,0,0,0,0,0,-1,1609,575,0,0
392,449,7.95471,3.66217,0,0,0,0,0,0,0,-1,1616,575,7.95471,-3.66218
399,449,19.9791,5.565,0,0,0,0,0,0,0,-1,1623,575,19.9791,-5.56499
406,449,24.9847,4.55969,0,0,0,0,0,0,0,-1,1630,575,24.9848,-4.55968
413,449,30.4159,3.15027,0,0,0,0,0,0,0,-1,1637,575,30.4159,-3.15028
420,449,23.9675,1.29718,0,0,0,0,0,0,0,-1,1644,575,23.9675,-1.29721
427,449,24.4276,-0.596558,0,0,0,0,0,0,0,-1,1651,575,24.4277,0.596569
434,449,25.61,-2.96594,0,0,0,0,0,0,0,-1,1658,575,25.61,2.96595
441,449,3.89856,-6.06458,0,0,0,0,0,0,0,-1,1665,575,3.89855,6.06459
448,449,4.03198,-5.18207,0,0,0,0,0,0,0,-1,1672,575,4.03197,5.18207
455,449,4.21948,-4.09467,0,0,0,0,0,0,0,-1,1679,575,4.21952,4.09465
462,449,4.23181,-2.96924,0,0,0,0,0,0,0,-1,1686,575,4.23185,2.96926
469,449,4.51672,-2.95135,0,0,0,0,0,0,0,-1,1693,575,4.51672,2.95135
476,449,4.71838,-1.86688,0,0,0,0,0,0,0,-1,1700,575,4.71842,1.86689
483,449,4.87878,-1.73126,0,0,0,0,0,0,0,-1,1707,575,4.87875,1.73128
490,449,5.73279,-2.74573,0,0,0,0,0,0,0,-1,1714,575,5.73282,2.74575
497,449,17.2095,-16.4381,0,0,0,0,0,0,0,-1,1721,575,17.2094,16.4381
504,449,27.8682,-28.3428,0,0,0,0,0,0,0,-1,1728,575,27.8681,28.3428
511,449,27.9291,-27.3149,0.00265528,0.000121131,0.000423419,0.00272416,5.2256e-05,0.161252,0.00179894,0.018352,1735,575,27.929,27.3149
518,449,27.8899,-26.3591,0.00217748,3.25227e-05,0.000649025,0.00235857,-0.000148571,0.272104,0.00162417,0.015554,1742,575,27.8899,26.3591
525,449,27.8044,-25.3815,0.00167287,0.000165006,0.000774003,0.00199944,-0.00016157,0.399267,0.00138995,0.0145322,1749,575,27.8045,25.3815
532,449,27.7316,-24.3967,0.0012584,0.000426026,0.000879501,0.00181522,-0.000130788,0.564405,0.00125601,0.0124672,1756,575,27.7315,24.3967
539,449,27.6257,-23.421,0.000959533,0.00086249,0.00100801,0.00192019,-9.81658e-05,0.761349,0.00131407,0.0193107,1763,575,27.6257,23.421
546,449,27.5448,-22.3892,0.000783766,0.00146293,0.00113335,0.00230648,-5.9787e-05,0.930955,0.00155797,0.034152,1770,575,27.5447,22.3892
553,449,27.4675,-21.4396,0.000658846,0.00223449,0.0013046,0.00297069,-7.7354e-05,1.05703,0.00200674,0.0221918,1777,575,27.4675,21.4396
560,449,27.4722,-20.5047,0.000653182,0.00315592,0.00156338,0.00390707,-9.79651e-05,1.1229,0.00263798,0.0134177,1784,575,27.4722,20.5047
567,449,27.4146,-19.5508,0.000825893,0.00433937,0.00199632,0.00524185,-7.65866e-05,1.14622,0.00352037,0.00970824,1791,575,27.4146,19.5509
574,449,27.3739,-18.5303,0.000987128,0.005614,0.00249124,0.00670031,-9.91798e-05,1.1596,0.0045003,0.0293526,1798,575,27.3739,18.5303
581,449,27.3428,-17.3946,0,0,0,0,0,0,0,-1,1805,575,27.3428,17.3946
588,449,12.3274,-4.5672,0,0,0,0,0,0,0,-1,1812,575,12.3274,4.5672
595,449,15.9352,-5.65479,0,0,0,0,0,0,0,-1,1819,575,15.9352,5.65478
602,449,9.46167,4.17444,0,0,0,0,0,0,0,-1,1826,575,9.46164,-4.17442
609,449,12.2028,3.18652,0,0,0,0,0,0,0,-1,1833,575,12.2027,-3.18655
616,449,14.9438,2.19867,0,0,0,0,0,0,0,-1,1840,575,14.9438,-2.19867
623,449,9.83789,-0.0820313,0,0,0,0,0,0,0,-1,1847,575,9.83794,0.0820443
630,449,8.90686,4.99329,0,0,0,0,0,0,0,-1,1854,575,8.90685,-4.99327
637,449,0,0,0,0,0,0,0,0,0,-1,1861,575,0,0
644,449,0,0,0,0,0,0,0,0,0,-1,1868,575,0,0
651,449,0,0,0,0,0,0,0,0,0,-1,1875,575,0,0
658,449,0,0,0,0,0,0,0,0,0,-1,1882,575,0,0
665,449,0,0,0,0,0,0,0,0,0,-1,1889,575,0,0
672,449,0,0,0,0,0,0,0,0,0,-1,1896,575,0,0
679,449,0,0,0,0,0,0,0,0,0,-1,1903,575,0,0
686,449,0,0,0,0,0,0,0,0,0,-1,1910,575,0,0
693,449,0,0,0,0,0,0,0,0,0,-1,1917,575,0,0
700,449,0,0,0,0,0,0,0,0,0,-1,1924,575,0,0
707,449,0,0,0,0,0,0,0,0,0,-1,1931,575,0,0
714,449,0,0,0,0,0,0,0,0,0,-1,1938,575,0,0
721,449,0,0,0,0,0,0,0,0,0,-1,1945,575,0,0
728,449,0,0,0,0,0,0,0,0,0,-1,1952,575,0,0
735,449,0,0,0,0,0,0,0,0,0,-1,1959,575,0,0
742,449,0,0,0,0,0,0,0,0,0,-1,1966,575,0,0
749,449,0,0,0,0,0,0,0,0,0,-1,1973,575,0,0
756,449,0,0,0,0,0,0,0,0,0,-1,1980,575,0,0
763,449,0,0,0,0,0,0,0,0,0,-1,1987,575,0,0
770,449,0,0,0,0,0,0,0,0,0,-1,1994,575,0,0
777,449,0,0,0,0,0,0,0,0,0,-1,2001,575,0,0
784,449,0,0,0,0,0,0,0,0,0,-1,2008,575,0,0
791,449,0,0,0,0,0,0,0,0,0,-1,2015,575,0,0
798,449,0,0,0,0,0,0,0,0,0,-1,2022,575,0,0
805,449,0,0,0,0,0,0,0,0,0,-1,2029,575,0,0
812,449,0,0,0,0,0,0,0,0,0,-1,2036,575,0,0
-700,442,0,0,0,0,0,0,0,0,0,-1,524,582,0,0
-693,442,0,0,0,0,0,0,0,0,0,-1,531,582,0,0
-686,442,0,0,0,0,0,0,0,0,0,-1,538,582,0,0
-679,442,0,0,0,0,0,0,0,0,0,-1,545,582,0,0
-672,442,0,0,0,0,0,0,0,0,0,-1,552,582,0,0
-665,442,0,0,0,0,0,0,0,0,0,-1,559,582,0,0
-658,442,0,0,0,0,0,0,0,0,0,-1,566,582,0,0
-651,442,0,0,0,0,0,0,0,0,0,-1,573,582,0,0
-644,442,0,0,0,0,0,0,0,0,0,-1,580,582,0,0
-637,442,0,0,0,0,0,0,0,0,0,-1,587,582,0,0
-630,442,0,0,0,0,0,0,0,0,0,-1,594,582,0,0
-623,442,0,0,0,0,0,0,0,0,0,-1,601,582,0,0
-616,442,0,0,0,0,0,0,0,0,0,-1,608,582,0,0
-609,442,0,0,0,0,0,0,0,0,0,-1,615,582,0,0
-602,442,0,0,0,0,0,0,0,0,0,-1,622,582,0,0
-595,442,0,0,0,0,0,0,0,0,0,-1,629,582,0,0
-588,442,0,0,0,0,0,0,0,0,0,-1,636,582,0,0
-581,442,0,0,0,0,0,0,0,0,0,-1,643,582,0,0
-574,442,0,0,0,0,0,0,0,0,0,-1,650,582,0,0
-567,442,0,0,0,0,0,0,0,0,0,-1,657,582,0,0
-560,442,0,0,0,0,0,0,0,0,0,-1,664,582,0,0
-553,442,0,0,0,0,0,0,0,0,0,-1,671,582,0,0
-546,442,0,0,0,0,0,0,0,0,0,-1,678,582,0,0
-539,442,0,0,0,0,0,0,0,0,0,-1,685,582,0,0
-532,442,0,0,0,0,0,0,0,0,0,-1,692,582,0,0
-525,442,0,0,0,0,0,0,0,0,0,-1,699,582,0,0
-518,442,-0.493774,-5.72943,0,0,0,0,0,0,0,-1,706,582,-0.493791,5.72946
-511,442,-1.33008,-6.18512,0,0,0,0,0,0,0,-1,713,582,-1.33006,6.18511
-504,442,-3.20807,-6.34082,0,0,0,0,0,0,0,-1,720,582,-3.2081,6.34083
-497,442,-13.6886,-0.250122,0,0,0,0,0,0,0,-1,727,582,-13.6886,0.250143
-490,442,-9.09039,-3.64862,0,0,0,0,0,0,0,-1,734,582,-9.09037,3.64861
-483,442,-7.36499,-1.01892,0,0,0,0,0,0,0,-1,741,582,-7.365,1.01895
-476,442,-4.84784,-4.44141,0,0,0,0,0,0,0,-1,748,582,-4.84787,4.44138
-469,442,-12.2401,-14.8098,0,0,0,0,0,0,0,-1,755,582,-12.24,14.8098
-462,442,-10.2018,-14.6873,0,0,0,0,0,0,0,-1,762,582,-10.2019,14.6873
-455,442,-12.1891,-17.6381,0,0,0,0,0,0,0,-1,769,582,-12.1891,17.6381
-448,442,-12.1685,-18.7459,-0.00163007,0.00363976,0.000141756,0.00364357,-0.00163388,1.54392,0.00311971,0.024325,776,582,-12.1685,18.7459
-441,442,-12.2531,-19.7461,-0.000654481,0.0030873,-0.000314301,0.00311352,-0.000680698,-1.48758,0.00233588,0.014642,783,582,-12.253,19.7461
-434,442,-12.3231,-20.735,3.63645e-05,0.00262227,-0.000627412,0.00276646,-0.000107823,-1.34491,0.00188128,0.0150197,790,582,-12.3231,20.735
-427,442,-12.3849,-21.6844,0.000560211,0.0022408,-0.000838856,0.00258784,0.000213166,-1.17853,0.00165874,0.0146398,797,582,-12.3849,21.6845
-420,442,-12.4322,-22.6464,0.00102815,0.0019059,-0.00101491,0.00257276,0.000361289,-0.98947,0.00160833,0.0149005,804,582,-12.4322,22.6464
-413,442,-12.4776,-23.6331,0.00133419,0.00151565,-0.00102452,0.00245345,0.000396393,-0.829563,0.00152082,0.0131179,811,582,-12.4776,23.633
-406,442,-12.5651,-24.6126,0.00153913,0.00109007,-0.000902405,0.00224452,0.000384682,-0.663469,0.00138603,0.011414,818,582,-12.5651,24.6126
-399,442,-12.658,-25.5586,0.00184832,0.000800653,-0.000834952,0.00231016,0.000338816,-0.505243,0.00144051,0.00900186,825,582,-12.658,25.5586
-392,442,-12.7147,-26.4979,0.00225606,0.000513804,-0.000782117,0.00255565,0.000214218,-0.365805,0.00163704,0.0105983,832,582,-12.7147,26.4979
-385,442,-12.7663,-27.442,0.0027996,0.000219728,-0.00074621,0.00299989,1.94416e-05,-0.262225,0.00199348,0.0130117,839,582,-12.7663,27.442
-378,442,-12.8087,-28.4263,0.0035111,-6.07723e-06,-0.00070426,0.00364688,-0.000141853,-0.190455,0.00247989,0.0191622,846,582,-12.8087,28.4263
-371,442,-12.8143,-29.4856,0,0,0,0,0,0,0,-1,853,582,-12.8142,29.4856
-364,442,-6.89764,-17.5333,0,0,0,0,0,0,0,-1,860,582,-6.89765,17.5333
-357,442,-4.9115,-11.2649,0,0,0,0,0,0,0,-1,867,582,-4.91147,11.2649
-350,442,-1.75372,-6.27618,0,0,0,0,0,0,0,-1,874,582,-1.75371,6.27618
-343,442,-1.4599,-4.63605,0,0,0,0,0,0,0,-1,881,582,-1.4599,4.63607
-336,442,-1.4054,-2.64313,0,0,0,0,0,0,0,-1,888,582,-1.40539,2.64315
-329,442,-0.952576,-2.76923,0,0,0,0,0,0,0,-1,895,582,-0.952571,2.7692
-322,442,-0.972534,-2.63208,0,0,0,0,0,0,0,-1,902,582,-0.972512,2.6321
-315,442,-0.445557,-2.89764,0,0,0,0,0,0,0,-1,909,582,-0.445582,2.89765
-308,442,-0.654175,-3.07831,0,0,0,0,0,0,0,-1,916,582,-0.654145,3.07832
-301,442,-1.37427,-2.41455,0,0,0,0,0,0,0,-1,923,582,-1.37425,2.41453
-294,442,-2.99963,-2.07855,0,0,0,0,0,0,0,-1,930,582,-2.99964,2.07857
-287,442,3.91034,-10.1913,0,0,0,0,0,0,0,-1,937,582,3.91034,10.1913
-280,442,0,0,0,0,0,0,0,0,0,-1,944,582,0,0
-273,442,0,0,0,0,0,0,0,0,0,-1,951,582,0,0
-266,442,0,0,0,0,0,0,0,0,0,-1,958,582,0,0
-259,442,0,0,0,0,0,0,0,0,0,-1,965,582,0,0
-252,442,0,0,0,0,0,0,0,0,0,-1,972,582,0,0
-245,442,0,0,0,0,0,0,0,0,0,-1,979,582,0,0
-238,442,0,0,0,0,0,0,0,0,0,-1,986,582,0,0
-231,442,0,0,0,0,0,0,0,0,0,-1,993,582,0,0
-224,442,0,0,0,0,0,0,0,0,0,-1,1000,582,0,0
-217,442,0,0,0,0,0,0,0,0,0,-1,1007,582,0,0
-210,442,0,0,0,0,0,0,0,0,0,-1,1014,582,0,0
-203,442,0,0,0,0,0,0,0,0,0,-1,1021,582,0,0
-196,442,0,0,0,0,0,0,0,0,0,-1,1028,582,0,0
-189,442,0,0,0,0,0,0,0,0,0,-1,1035,582,0,0
-182,442,0,0,0,0,0,0,0,0,0,-1,1042,582,0,0
-175,442,0,0,0,0,0,0,0,0,0,-1,1049,582,0,0
-168,442,0,0,0,0,0,0,0,0,0,-1,1056,582,0,0
-161,442,0,0,0,0,0,0,0,0,0,-1,1063,582,0,0
-154,442,0,0,0,0,0,0,0,0,0,-1,1070,582,0,0
-147,442,0,0,0,0,0,0,0,0,0,-1,1077,582,0,0
-140,442,0,0,0,0,0,0,0,0,0,-1,1084,582,0,0
-133,442,0,0,0,0,0,0,0,0,0,-1,1091,582,0,0
-126,442,0,0,0,0,0,0,0,0,0,-1,1098,582,0,0
-119,442,0,0,0,0,0,0,0,0,0,-1,1105,582,0,0
-112,442,0,0,0,0,0,0,0,0,0,-1,1112,582,0,0
-105,442,0,0,0,0,0,0,0,0,0,-1,1119,582,0,0
-98,442,0,0,0,0,0,0,0,0,0,-1,1126,582,0,0
-91,442,0,0,0,0,0,0,0,0,0,-1,1133,582,0,0
-84,442,0,0,0,0,0,0,0,0,0,-1,1140,582,0,0
-77,442,0,0,0,0,0,0,0,0,0,-1,1147,582,0,0
-70,442,0,0,0,0,0,0,0,0,0,-1,1154,582,0,0
-63,442,0,0,0,0,0,0,0,0,0,-1,1161,582,0,0
-56,442,0,0,0,0,0,0,0,0,0,-1,1168,582,0,0
-49,442,0,0,0,0,0,0,0,0,0,-1,1175,582,0,0
-42,442,0,0,0,0,0,0,0,0,0,-1,1182,582,0,0
-35,442,0,0,0,0,0,0,0,0,0,-1,1189,582,0,0
-28,442,0,0,0,0,0,0,0,0,0,-1,1196,582,0,0
-21,442,0,0,0,0,0,0,0,0,0,-1,1203,582,0,0
-14,442,0,0,0,0,0,0,0,0,0,-1,1210,582,0,0
-7,442,0,0,0,0,0,0,0,0,0,-1,1217,582,0,0
0,442,0,0,0,0,0,0,0,0,0,-1,1224,582,0,0
7,442,0,0,0,0,0,0,0,0,0,-1,1231,582,0,0
14,442,0,0,0,0,0,0,0,0,0,-1,1238,582,0,0
21,442,0,0,0,0,0,0,0,0,0,-1,1245,582,0,0
28,442,0,0,0,0,0,0,0,0,0,-1,1252,582,0,0
35,442,0,0,0,0,0,0,0,0,0,-1,1259,582,0,0
42,442,0,0,0,0,0,0,0,0,0,-1,1266,582,0,0
49,442,0,0,0,0,0,0,0,0,0,-1,1273,582,0,0
56,442,0,0,0,0,0,0,0,0,0,-1,1280,582,0,0
63,442,0,0,0,0,0,0,0,0,0,-1,1287,582,0,0
70,442,0,0,0,0,0,0,0,0,0,-1,1294,582,0,0
77,442,0,0,0,0,0,0,0,0,0,-1,1301,582,0,0
84,442,0,0,0,0,0,0,0,0,0,-1,1308,582,0,0
91,442,0,0,0,0,0,0,0,0,0,-1,1315,582,0,0
98,442,0,0,0,0,0,0,0,0,0,-1,1322,582,0,0
105,442,0,0,0,0,0,0,0,0,0,-1,1329,582,0,0
112,442,0,0,0,0,0,0,0,0,0,-1,1336,582,0,0
119,442,0,0,0,0,0,0,0,0,0,-1,1343,582,0,0
126,442,0,0,0,0,0,0,0,0,0,-1,1350,582,0,0
133,442,0,0,0,0,0,0,0,0,0,-1,1357,582,0,0
140,442,0,0,0,0,0,0,0,0,0,-1,1364,582,0,0
147,442,0,0,0,0,0,0,0,0,0,-1,1371,582,0,0
154,442,0,0,0,0,0,0,0,0,0,-1,1378,582,0,0
161,442,0,0,0,0,0,0,0,0,0,-1,1385,582,0,0
168,442,0,0,0,0,0,0,0,0,0,-1,1392,582,0,0
175,442,0,0,0,0,0,0,0,0,0,-1,1399,582,0,0
182,442,0,0,0,0,0,0,0,0,0,-1,1406,582,0,0
189,442,0,0,0,0,0,0,0,0,0,-1,1413,582,0,0
196,442,0,0,0,0,0,0,0,0,0,-1,1420,582,0,0
203,442,0,0,0,0,0,0,0,0,0,-1,1427,582,0,0
210,442,0,0,0,0,0,0,0,0,0,-1,1434,582,0,0
217,442,0,0,0,0,0,0,0,0,0,-1,1441,582,0,0
224,442,0,0,0,0,0,0,0,0,0,-1,1448,582,0,0
231,442,0,0,0,0,0,0,0,0,0,-1,1455,582,0,0
238,442,0,0,0,0,0,0,0,0,0,-1,1462,582,0,0
245,442,0,0,0,0,0,0,0,0,0,-1,1469,582,0,0
252,442,0,0,0,0,0,0,0,0,0,-1,1476,582,0,0
259,442,0,0,0,0,0,0,0,0,0,-1,1483,582,0,0
266,442,0,0,0,0,0,0,0,0,0,-1,1490,582,0,0
273,442,0,0,0,0,0,0,0,0,0,-1,1497,582,0,0
280,442,0,0,0,0,0,0,0,0,0,-1,1504,582,0,0
287,442,0,0,0,0,0,0,0,0,0,-1,1511,582,0,0
294,442,0,0,0,0,0,0,0,0,0,-1,1518,582,0,0
301,442,0,0,0,0,0,0,0,0,0,-1,1525,582,0,0
308,442,0,0,0,0,0,0,0,0,0,-1,1532,582,0,0
315,442,0,0,0,0,0,0,0,0,0,-1,1539,582,0,0
322,442,0,0,0,0,0,0,0,0,0,-1,1546,582,0,0
329,442,0,0,0,0,0,0,0,0,0,-1,1553,582,0,0
336,442,0,0,0,0,0,0,0,0,0,-1,1560,582,0,0
343,442,0,0,0,0,0,0,0,0,0,-1,1567,582,0,0
350,442,0,0,0,0,0,0,0,0,0,-1,1574,582,0,0
357,442,0,0,0,0,0,0,0,0,0,-1,1581,582,0,0
364,442,0,0,0,0,0,0,0,0,0,-1,1588,582,0,0
371,442,0,0,0,0,0,0,0,0,0,-1,1595,582,0,0
378,442,0,0,0,0,0,0,0,0,0,-1,1602,582,0,0
385,442,0,0,0,0,0,0,0,0,0,-1,1609,582,0,0
392,442,0,0,0,0,0,0,0,0,0,-1,1616,582,0,0
399,442,0,0,0,0,0,0,0,0,0,-1,1623,582,0,0
406,442,17.6321,4.08295,0,0,0,0,0,0,0,-1,1630,582,17.6321,-4.08293
413,442,25.4768,2.74445,0,0,0,0,0,0,0,-1,1637,582,25.4768,-2.74444
420,442,22.7478,1.55011,0,0,0,0,0,0,0,-1,1644,582,22.7478,-1.55009
427,442,23.2969,-0.456787,0,0,0,0,0,0,0,-1,1651,582,23.2968,0.456769
434,442,23.9512,-2.49365,0,0,0,0,0,0,0,-1,1658,582,23.9512,2.49366
441,442,24.8251,-4.43958,0,0,0,0,0,0,0,-1,1665,582,24.8251,4.43956
448,442,4.7749,-5.88562,0,0,0,0,0,0,0,-1,1672,582,4.7749,5.8856
455,442,4.87024,-4.60687,0,0,0,0,0,0,0,-1,1679,582,4.87019,4.60686
462,442,5.02307,-3.72821,0,0,0,0,0,0,0,-1,1686,582,5.02311,3.7282
469,442,5.12976,-2.98834,0,0,0,0,0,0,0,-1,1693,582,5.12971,2.98834
476,442,5.4624,1.76947,0,0,0,0,0,0,0,-1,1700,582,5.46234,-1.76944
483,442,5.98486,1.87042,0,0,0,0,0,0,0,-1,1707,582,5.98492,-1.87045
490,442,5.04407,-2.35834,0,0,0,0,0,0,0,-1,1714,582,5.04411,2.35837
497,442,6.20984,-3.07831,0,0,0,0,0,0,0,-1,1721,582,6.2098,3.07833
504,442,20.9276,-19.7709,0,0,0,0,0,0,0,-1,1728,582,20.9276,19.771
511,442,28.8486,-27.2603,0,0,0,0,0,0,0,-1,1735,582,28.8487,27.2602
518,442,28.8296,-26.245,0.00270322,-0.00018194,0.000700637,0.00286436,-0.000343084,0.226065,0.00203361,0.0179948,1742,582,28.8296,26.245
525,442,28.7423,-25.2986,0.00215916,-5.78259e-05,0.000766108,0.00239814,-0.000296804,0.302372,0.00170632,0.0119776,1749,582,28.7423,25.2986
532,442,28.6947,-24.3475,0.00171469,0.000164786,0.000797347,0.00205163,-0.000172158,0.399821,0.0014286,0.0129286,1756,582,28.6947,24.3475
539,442,28.6254,-23.3598,0.00140807,0.000567815,0.000882826,0.00196564,1.0247e-05,0.563311,0.00130702,0.0163488,1763,582,28.6253,23.3598
546,442,28.5938,-22.3519,0.00121568,0.00108446,0.000956951,0.00210927,0.000190873,0.751171,0.00134707,0.0218404,1770,582,28.5937,22.3519
553,442,28.4825,-21.3962,0.00105134,0.00176532,0.00107406,0.00254016,0.000276497,0.945843,0.00160921,0.0216987,1777,582,28.4826,21.3963
560,442,28.4465,-20.4528,0.000964887,0.00254964,0.00126376,0.00324889,0.000265636,1.06542,0.00208304,0.0149786,1784,582,28.4465,20.4528
567,442,28.3831,-19.4932,0.00107348,0.00356476,0.00162166,0.00436397,0.000274272,1.1129,0.00282234,0.0101366,1791,582,28.3831,19.4932
574,442,28.3416,-18.524,0.00122137,0.00465849,0.00205527,0.00561902,0.000260831,1.1336,0.00366217,0.0125565,1798,582,28.3416,18.524
581,442,28.3363,-17.4207,0.00146174,0.00598329,0.00264477,0.00720187,0.000243155,1.13904,0.00472228,0.0324316,1805,582,28.3363,17.4207
588,442,28.3909,-16.2701,0,0,0,0,0,0,0,-1,1812,582,28.3909,16.2701
595,442,16.27,-6.47083,0,0,0,0,0,0,0,-1,1819,582,16.27,6.47082
602,442,16.2213,-4.49225,0,0,0,0,0,0,0,-1,1826,582,16.2213,4.49223
609,442,12.761,2.97223,0,0,0,0,0,0,0,-1,1833,582,12.761,-2.97221
616,442,9.78345,-0.103394,0,0,0,0,0,0,0,-1,1840,582,9.78341,0.103424
623,442,9.23828,0.326721,0,0,0,0,0,0,0,-1,1847,582,9.23829,-0.326727
630,442,7.74304,2.3924,0,0,0,0,0,0,0,-1,1854,582,7.7431,-2.39238
637,442,5.87805,1.84027,0,0,0,0,0,0,0,-1,1861,582,5.87807,-1.84025
644,442,0,0,0,0,0,0,0,0,0,-1,1868,582,0,0
651,442,0,0,0,0,0,0,0,0,0,-1,1875,582,0,0
658,442,0,0,0,0,0,0,0,0,0,-1,1882,582,0,0
665,442,0,0,0,0,0,0,0,0,0,-1,1889,582,0,0
672,442,0,0,0,0,0,0,0,0,0,-1,1896,582,0,0
679,442,0,0,0,0,0,0,0,0,0,-1,1903,582,0,0
686,442,0,0,0,0,0,0,0,0,0,-1,1910,582,0,0
693,442,0,0,0,0,0,0,0,0,0,-1,1917,582,0,0
700,442,0,0,0,0,0,0,0,0,0,-1,1924,582,0,0
707,442,0,0,0,0,0,0,0,0,0,-1,1931,582,0,0
714,442,0,0,0,0,0,0,0,0,0,-1,1938,582,0,0
721,442,0,0,0,0,0,0,0,0,0,-1,1945,582,0,0
728,442,0,0,0,0,0,0,0,0,0,-1,1952,582,0,0
735,442,0,0,0,0,0,0,0,0,0,-1,1959,582,0,0
742,442,0,0,0,0,0,0,0,0,0,-1,1966,582,0,0
749,442,0,0,0,0,0,0,0,0,0,-1,1973,582,0,0
756,442,0,0,0,0,0,0,0,0,0,-1,1980,582,0,0
763,442,0,0,0,0,0,0,0,0,0,-1,1987,582,0,0
770,442,0,0,0,0,0,0,0,0,0,-1,1994,582,0,0
777,442,0,0,0,0,0,0,0,0,0,-1,2001,582,0,0
784,442,0,0,0,0,0,0,0,0,0,-1,2008,582,0,0
791,442,0,0,0,0,0,0,0,0,0,-1,2015,582,0,0
798,442,0,0,0,0,0,0,0,0,0,-1,2022,582,0,0
805,442,0,0,0,0,0,0,0,0,0,-1,2029,582,0,0
812,442,0,0,0,0,0,0,0,0,0,-1,2036,582,0,0
-700,435,0,0,0,0,0,0,0,0,0,-1,524,589,0,0
-693,435,0,0,0,0,0,0,0,0,0,-1,531,589,0,0
-686,435,0,0,0,0,0,0,0,0,0,-1,538,589,0,0
-679,435,0,0,0,0,0,0,0,0,0,-1,545,589,0,0
-672,435,0,0,0,0,0,0,0,0,0,-1,552,589,0,0
-665,435,0,0,0,0,0,0,0,0,0,-1,559,589,0,0
-658,435,0,0,0,0,0,0,0,0,0,-1,566,589,0,0
-651,435,0,0,0,0,0,0,0,0,0,-1,573,589,0,0
-644,435,0,0,0,0,0,0,0,0,0,-1,580,589,0,0
-637,435,0,0,0,0,0,0,0,0,0,-1,587,589,0,0
-630,435,0,0,0,0,0,0,0,0,0,-1,594,589,0,0
-623,435,0,0,0,0,0,0,0,0,0,-1,601,589,0,0
-616,435,0,0,0,0,0,0,0,0,0,-1,608,589,0,0
-609,435,0,0,0,0,0,0,0,0,0,-1,615,589,0,0
-602,435,0,0,0,0,0,0,0,0,0,-1,622,589,0,0
-595,435,0,0,0,0,0,0,0,0,0,-1,629,589,0,0
-588,435,0,0,0,0,0,0,0,0,0,-1,636,589,0,0
-581,435,0,0,0,0,0,0,0,0,0,-1,643,589,0,0
-574,435,0,0,0,0,0,0,0,0,0,-1,650,589,0,0
-567,435,0,0,0,0,0,0,0,0,0,-1,657,589,0,0
-560,435,0,0,0,0,0,0,0,0,0,-1,664,589,0,0
-553,435,0,0,0,0,0,0,0,0,0,-1,671,589,0,0
-546,435,0,0,0,0,0,0,0,0,0,-1,678,589,0,0
-539,435,0,0,0,0,0,0,0,0,0,-1,685,589,0,0
-532,435,0,0,0,0,0,0,0,0,0,-1,692,589,0,0
-525,435,-10.0776,10.0547,0,0,0,0,0,0,0,-1,699,589,-10.0776,-10.0547
-518,435,-1.83093,-5.82367,0,0,0,0,0,0,0,-1,706,589,-1.83093,5.8237
-511,435,-2.45154,-5.33118,0,0,0,0,0,0,0,-1,713,589,-2.45151,5.33115
-504,435,-3.07208,-4.83862,0,0,0,0,0,0,0,-1,720,589,-3.0721,4.8386
-497,435,-6.31012,-5.84698,0,0,0,0,0,0,0,-1,727,589,-6.31012,5.84697
-490,435,-5.81903,-0.458679,0,0,0,0,0,0,0,-1,734,589,-5.81902,0.458684
-483,435,-6.96503,-3.01624,0,0,0,0,0,0,0,-1,741,589,-6.96505,3.01623
-476,435,-13.4006,-13.9816,0,0,0,0,0,0,0,-1,748,589,-13.4006,13.9816
-469,435,-13.0166,-15.2446,0,0,0,0,0,0,0,-1,755,589,-13.0166,15.2445
-462,435,-13.0422,-16.3176,0,0,0,0,0,0,0,-1,762,589,-13.0422,16.3176
-455,435,-13.1323,-17.6099,-0.00260296,0.00304704,0.00084047,0.00316942,-0.00272534,1.42621,0.00340656,0.0318079,769,589,-13.1323,17.6099
-448,435,-13.1508,-18.6912,-0.00137468,0.00263305,0.000225925,0.00264574,-0.00138738,1.51466,0.002366,0.0145039,776,589,-13.1508,18.6911
-441,435,-13.2231,-19.6719,-0.000419778,0.00222085,-0.000210665,0.00223755,-0.000436479,-1.49168,0.00165647,0.0122729,783,589,-13.2231,19.6719
-434,435,-13.2925,-20.6428,0.000283636,0.00186568,-0.000515296,0.00201872,0.0001306,-1.28211,0.00130446,0.0136468,790,589,-13.2926,20.6428
-427,435,-13.3589,-21.64,0.000858887,0.00162632,-0.000768422,0.0021015,0.000383703,-1.01696,0.00129223,0.0110417,797,589,-13.3589,21.6399
-420,435,-13.4169,-22.6,0.00138081,0.00144332,-0.000994995,0.00240755,0.000416581,-0.8011,0.00148577,0.0111599,804,589,-13.4169,22.6
-413,435,-13.4697,-23.5765,0.00173453,0.00123263,-0.00106878,0.00258143,0.000385734,-0.670086,0.00160787,0.0118264,811,589,-13.4697,23.5765
-406,435,-13.5259,-24.5429,0.00200196,0.00104001,-0.00106701,0.0026914,0.000350579,-0.573651,0.00168957,0.0118853,818,589,-13.526,24.5429
-399,435,-13.611,-25.4923,0.00239138,0.000965309,-0.00114927,0.00303084,0.000325846,-0.507748,0.00192118,0.0094734,825,589,-13.611,25.4923
-392,435,-13.6923,-26.4438,0.0028734,0.000897385,-0.00123848,0.00346969,0.000301094,-0.448713,0.00221958,0.0103167,832,589,-13.6923,26.4438
-385,435,-13.7261,-27.3969,0.00347309,0.000785684,-0.00133769,0.00402542,0.000233355,-0.391577,0.00260931,0.023814,839,589,-13.7262,27.3969
-378,435,-13.7147,-28.4759,0,0,0,0,0,0,0,-1,846,589,-13.7147,28.4759
-371,435,-10.247,-21.7153,0,0,0,0,0,0,0,-1,853,589,-10.247,21.7153
-364,435,-5.62848,-11.5937,0,0,0,0,0,0,0,-1,860,589,-5.62847,11.5937
-357,435,-5.57343,-10.9666,0,0,0,0,0,0,0,-1,867,589,-5.57342,10.9666
-350,435,-0.86676,-3.69836,0,0,0,0,0,0,0,-1,874,589,-0.866784,3.69834
-343,435,-1.60706,-2.36835,0,0,0,0,0,0,0,-1,881,589,-1.60706,2.36838
-336,435,-2.07263,-1.94012,0,0,0,0,0,0,0,-1,888,589,-2.07265,1.94014
-329,435,-2.55963,-1.5517,0,0,0,0,0,0,0,-1,895,589,-2.5596,1.55168
-322,435,-3.08545,-1.55255,0,0,0,0,0,0,0,-1,902,589,-3.08544,1.55254
-315,435,-0.404297,-2.63763,0,0,0,0,0,0,0,-1,909,589,-0.404276,2.63761
-308,435,-1.70056,-1.90369,0,0,0,0,0,0,0,-1,916,589,-1.70056,1.90367
-301,435,-1.19391,-2.41632,0,0,0,0,0,0,0,-1,923,589,-1.1939,2.41635
-294,435,3.78278,-10.3275,0,0,0,0,0,0,0,-1,930,589,3.78281,10.3275
-287,435,0,0,0,0,0,0,0,0,0,-1,937,589,0,0
-280,435,0,0,0,0,0,0,0,0,0,-1,944,589,0,0
-273,435,0,0,0,0,0,0,0,0,0,-1,951,589,0,0
-266,435,0,0,0,0,0,0,0,0,0,-1,958,589,0,0
-259,435,0,0,0,0,0,0,0,0,0,-1,965,589,0,0
-252,435,0,0,0,0,0,0,0,0,0,-1,972,589,0,0
-245,435,0,0,0,0,0,0,0,0,0,-1,979,589,0,0
-238,435,0,0,0,0,0,0,0,0,0,-1,986,589,0,0
-231,435,0,0,0,0,0,0,0,0,0,-1,993,589,0,0
-224,435,0,0,0,0,0,0,0,0,0,-1,1000,589,0,0
-217,435,0,0,0,0,0,0,0,0,0,-1,1007,589,0,0
-210,435,0,0,0,0,0,0,0,0,0,-1,1014,589,0,0
-203,435,0,0,0,0,0,0,0,0,0,-1,1021,589,0,0
-196,435,0,0,0,0,0,0,0,0,0,-1,1028,589,0,0
-189,435,0,0,0,0,0,0,0,0,0,-1,1035,589,0,0
-182,435,0,0,0,0,0,0,0,0,0,-1,1042,589,0,0
-175,435,0,0,0,0,0,0,0,0,0,-1,1049,589,0,0
-168,435,0,0,0,0,0,0,0,0,0,-1,1056,589,0,0
-161,435,0,0,0,0,0,0,0,0,0,-1,1063,589,0,0
-154,435,0,0,0,0,0,0,0,0,0,-1,1070,589,0,0
-147,435,0,0,0,0,0,0,0,0,0,-1,1077,589,0,0
-140,435,0,0,0,0,0,0,0,0,0,-1,1084,589,0,0
-133,435,0,0,0,0,0,0,0,0,0,-1,1091,589,0,0
-126,435,0,0,0,0,0,0,0,0,0,-1,1098,589,0,0
-119,435,0,0,0,0,0,0,0,0,0,-1,1105,589,0,0
-112,435,0,0,0,0,0,0,0,0,0,-1,1112,589,0,0
-105,435,0,0,0,0,0,0,0,0,0,-1,1119,589,0,0
-98,435,0,0,0,0,0,0,0,0,0,-1,1126,589,0,0
-91,435,0,0,0,0,0,0,0,0,0,-1,1133,589,0,0
-84,435,0,0,0,0,0,0,0,0,0,-1,1140,589,0,0
-77,435,0,0,0,0,0,0,0,0,0,-1,1147,589,0,0
-70,435,0,0,0,0,0,0,0,0,0,-1,1154,589,0,0
-63,435,0,0,0,0,0,0,0,0,0,-1,1161,589,0,0
-56,435,0,0,0,0,0,0,0,0,0,-1,1168,589,0,0
-49,435,0,0,0,0,0,0,0,0,0,-1,1175,589,0,0
-42,435,0,0,0,0,0,0,0,0,0,-1,1182,589,0,0
-35,435,0,0,0,0,0,0,0,0,0,-1,1189,589,0,0
-28,435,0,0,0,0,0,0,0,0,0,-1,1196,589,0,0
-21,435,0,0,0,0,0,0,0,0,0,-1,1203,589,0,0
-14,435,0,0,0,0,0,0,0,0,0,-1,1210,589,0,0
-7,435,0,0,0,0,0,0,0,0,0,-1,1217,589,0,0
0,435,0,0,0,0,0,0,0,0,0,-1,1224,589,0,0
7,435,0,0,0,0,0,0,0,0,0,-1,1231,589,0,0
14,435,0,0,0,0,0,0,0,0,0,-1,1238,589,0,0
21,435,0,0,0,0,0,0,0,0,0,-1,1245,589,0,0
28,435,0,0,0,0,0,0,0,0,0,-1,1252,589,0,0
35,435,0,0,0,0,0,0,0,0,0,-1,1259,589,0,0
42,435,0,0,0,0,0,0,0,0,0,-1,1266,589,0,0
49,435,0,0,0,0,0,0,0,0,0,-1,1273,589,0,0
56,435,0,0,0,0,0,0,0,0,0,-1,1280,589,0,0
63,435,0,0,0,0,0,0,0,0,0,-1,1287,589,0,0
70,435,0,0,0,0,0,0,0,0,0,-1,1294,589,0,0
77,435,0,0,0,0,0,0,0,0,0,-1,1301,589,0,0
84,435,0,0,0,0,0,0,0,0,0,-1,1308,589,0,0
91,435,0,0,0,0,0,0,0,0,0,-1,1315,589,0,0
98,435,0,0,0,0,0,0,0,0,0,-1,1322,589,0,0
105,435,0,0,0,0,0,0,0,0,0,-1,1329,589,0,0
112,435,0,0,0,0,0,0,0,0,0,-1,1336,589,0,0
119,435,0,0,0,0,0,0,0,0,0,-1,1343,589,0,0
126,435,0,0,0,0,0,0,0,0,0,-1,1350,589,0,0
133,435,0,0,0,0,0,0,0,0,0,-1,1357,589,0,0
140,435,0,0,0,0,0,0,0,0,0,-1,1364,589,0,0
147,435,0,0,0,0,0,0,0,0,0,-1,1371,589,0,0
154,435,0,0,0,0,0,0,0,0,0,-1,1378,589,0,0
161,435,0,0,0,0,0,0,0,0,0,-1,1385,589,0,0
168,435,0,0,0,0,0,0,0,0,0,-1,1392,589,0,0
175,435,0,0,0,0,0,0,0,0,0,-1,1399,589,0,0
182,435,0,0,0,0,0,0,0,0,0,-1,1406,589,0,0
189,435,0,0,0,0,0,0,0,0,0,-1,1413,589,0,0
196,435,0,0,0,0,0,0,0,0,0,-1,1420,589,0,0
203,435,0,0,0,0,0,0,0,0,0,-1,1427,589,0,0
210,435,0,0,0,0,0,0,0,0,0,-1,1434,589,0,0
217,435,0,0,0,0,0,0,0,0,0,-1,1441,589,0,0
224,435,0,0,0,0,0,0,0,0,0,-1,1448,589,0,0
231,435,0,0,0,0,0,0,0,0,0,-1,1455,589,0,0
238,435,0,0,0,0,0,0,0,0,0,-1,1462,589,0,0
245,435,0,0,0,0,0,0,0,0,0,-1,1469,589,0,0
252,435,0,0,0,0,0,0,0,0,0,-1,1476,589,0,0
259,435,0,0,0,0,0,0,0,0,0,-1,1483,589,0,0
266,435,0,0,0,0,0,0,0,0,0,-1,1490,589,0,0
273,435,0,0,0,0,0,0,0,0,0,-1,1497,589,0,0
280,435,0,0,0,0,0,0,0,0,0,-1,1504,589,0,0
287,435,0,0,0,0,0,0,0,0,0,-1,1511,589,0,0
294,435,0,0,0,0,0,0,0,0,0,-1,1518,589,0,0
301,435,0,0,0,0,0,0,0,0,0,-1,1525,589,0,0
308,435,0,0,0,0,0,0,0,0,0,-1,1532,589,0,0
315,435,0,0,0,0,0,0,0,0,0,-1,1539,589,0,0
322,435,0,0,0,0,0,0,0,0,0,-1,1546,589,0,0
329,435,0,0,0,0,0,0,0,0,0,-1,1553,589,0,0
336,435,0,0,0,0,0,0,0,0,0,-1,1560,589,0,0
343,435,0,0,0,0,0,0,0,0,0,-1,1567,589,0,0
350,435,0,0,0,0,0,0,0,0,0,-1,1574,589,0,0
357,435,0,0,0,0,0,0,0,0,0,-1,1581,589,0,0
364,435,0,0,0,0,0,0,0,0,0,-1,1588,589,0,0
371,435,0,0,0,0,0,0,0,0,0,-1,1595,589,0,0
378,435,0,0,0,0,0,0,0,0,0,-1,1602,589,0,0
385,435,0,0,0,0,0,0,0,0,0,-1,1609,589,0,0
392,435,0,0,0,0,0,0,0,0,0,-1,1616,589,0,0
399,435,0,0,0,0,0,0,0,0,0,-1,1623,589,0,0
406,435,0,0,0,0,0,0,0,0,0,-1,1630,589,0,0
413,435,20.4565,3.49835,0,0,0,0,0,0,0,-1,1637,589,20.4565,-3.49836
420,435,21.4015,1.49609,0,0,0,0,0,0,0,-1,1644,589,21.4015,-1.49609
427,435,22.0464,-0.373962,0,0,0,0,0,0,0,-1,1651,589,22.0464,0.373972
434,435,22.1863,-1.54407,0,0,0,0,0,0,0,-1,1658,589,22.1862,1.54405
441,435,22.3992,-2.38287,0,0,0,0,0,0,0,-1,1665,589,22.3992,2.38289
448,435,7.4585,-0.00292969,0,0,0,0,0,0,0,-1,1672,589,7.45848,0.00294131
455,435,5.49915,-5.047,0,0,0,0,0,0,0,-1,1679,589,5.49914,5.04703
462,435,5.60669,-4.71466,0,0,0,0,0,0,0,-1,1686,589,5.60675,4.71469
469,435,5.87708,1.22351,0,0,0,0,0,0,0,-1,1693,589,5.87703,-1.22351
476,435,6.14136,1.37714,0,0,0,0,0,0,0,-1,1700,589,6.14138,-1.37712
483,435,6.49243,1.36169,0,0,0,0,0,0,0,-1,1707,589,6.49242,-1.36171
490,435,4.38391,-1.36218,0,0,0,0,0,0,0,-1,1714,589,4.38389,1.3622
497,435,7.23499,-3.64551,0,0,0,0,0,0,0,-1,1721,589,7.23495,3.64551
504,435,7.31189,-3.75909,0,0,0,0,0,0,0,-1,1728,589,7.31184,3.75911
511,435,28.9622,-27.0995,0,0,0,0,0,0,0,-1,1735,589,28.9621,27.0995
518,435,29.7751,-26.2141,0,0,0,0,0,0,0,-1,1742,589,29.7752,26.214
525,435,29.6846,-25.2408,0.00273905,-0.000224203,0.000819015,0.00295036,-0.000435503,0.252488,0.00212699,0.0162342,1749,589,29.6846,25.2409
532,435,29.6641,-24.2685,0.00218992,-5.14661e-05,0.000755941,0.00242104,-0.000282587,0.296713,0.001716,0.0176719,1756,589,29.664,24.2685
539,435,29.6084,-23.2731,0.00182113,0.000323166,0.000794798,0.00216425,-1.99496e-05,0.407533,0.00144953,0.0180341,1763,589,29.6084,23.2731
546,435,29.5507,-22.3245,0.00156639,0.000763356,0.000820426,0.00207828,0.000251464,0.557832,0.00130977,0.0174093,1770,589,29.5507,22.3244
553,435,29.4869,-21.39,0.00134906,0.00136652,0.000891724,0.00224956,0.000466023,0.790293,0.00137102,0.0122117,1777,589,29.4869,21.39
560,435,29.4098,-20.432,0.00119152,0.00203611,0.00103016,0.00272717,0.000500461,0.979919,0.00167638,0.00985464,1784,589,29.4098,20.432
567,435,29.3578,-19.4307,0.00122907,0.00291019,0.00133469,0.00364695,0.000492315,1.06641,0.00228494,0.00900706,1791,589,29.3578,19.4307
574,435,29.2922,-18.4576,0.00136575,0.00386239,0.00172231,0.00474119,0.000486952,1.09899,0.00301163,0.0103996,1798,589,29.2923,18.4576
581,435,29.202,-17.4889,0.00164278,0.00498058,0.00226495,0.00612509,0.000498279,1.10291,0.00392785,0.0179292,1805,589,29.202,17.4889
588,435,29.105,-16.4797,0,0,0,0,0,0,0,-1,1812,589,29.105,16.4797
595,435,29.001,-15.1673,0,0,0,0,0,0,0,-1,1819,589,29.0009,15.1673
602,435,16.8671,-6.39026,0,0,0,0,0,0,0,-1,1826,589,16.867,6.39024
609,435,15.2611,-3.42242,0,0,0,0,0,0,0,-1,1833,589,15.2611,3.42242
616,435,5.05151,-2.75269,0,0,0,0,0,0,0,-1,1840,589,5.05157,2.7527
623,435,11.7588,3.9704,0,0,0,0,0,0,0,-1,1847,589,11.7587,-3.97043
630,435,4.72742,-0.87561,0,0,0,0,0,0,0,-1,1854,589,4.7274,0.875636
637,435,5.05286,1.48792,0,0,0,0,0,0,0,-1,1861,589,5.05291,-1.48792
644,435,0,0,0,0,0,0,0,0,0,-1,1868,589,0,0
651,435,0,0,0,0,0,0,0,0,0,-1,1875,589,0,0
658,435,0,0,0,0,0,0,0,0,0,-1,1882,589,0,0
665,435,0,0,0,0,0,0,0,0,0,-1,1889,589,0,0
672,435,0,0,0,0,0,0,0,0,0,-1,1896,589,0,0
679,435,0,0,0,0,0,0,0,0,0,-1,1903,589,0,0
686,435,0,0,0,0,0,0,0,0,0,-1,1910,589,0,0
693,435,0,0,0,0,0,0,0,0,0,-1,1917,589,0,0
700,435,0,0,0,0,0,0,0,0,0,-1,1924,589,0,0
707,435,0,0,0,0,0,0,0,0,0,-1,1931,589,0,0
714,435,0,0,0,0,0,0,0,0,0,-1,1938,589,0,0
721,435,0,0,0,0,0,0,0,0,0,-1,1945,589,0,0
728,435,0,0,0,0,0,0,0,0,0,-1,1952,589,0,0
735,435,0,0,0,0,0,0,0,0,0,-1,1959,589,0,0
742,435,0,0,0,0,0,0,0,0,0,-1,1966,589,0,0
749,435,0,0,0,0,0,0,0,0,0,-1,1973,589,0,0
756,435,0,0,0,0,0,0,0,0,0,-1,1980,589,0,0
763,435,0,0,0,0,0,0,0,0,0,-1,1987,589,0,0
770,435,0,0,0,0,0,0,0,0,0,-1,1994,589,0,0
777,435,0,0,0,0,0,0,0,0,0,-1,2001,589,0,0
784,435,0,0,0,0,0,0,0,0,0,-1,2008,589,0,0
791,435,0,0,0,0,0,0,0,0,0,-1,2015,589,0,0
798,435,0,0,0,0,0,0,0,0,0,-1,2022,589,0,0
805,435,0,0,0,0,0,0,0,0,0,-1,2029,589,0,0
812,435,0,0,0,0,0,0,0,0,0,-1,2036,589,0,0
-700,428,0,0,0,0,0,0,0,0,0,-1,524,596,0,0
-693,428,0,0,0,0,0,0,0,0,0,-1,531,596,0,0
-686,428,0,0,0,0,0,0,0,0,0,-1,538,596,0,0
-679,428,0,0,0,0,0,0,0,0,0,-1,545,596,0,0
-672,428,0,0,0,0,0,0,0,0,0,-1,552,596,0,0
-665,428,0,0,0,0,0,0,0,0,0,-1,559,596,0,0
-658,428,0,0,0,0,0,0,0,0,0,-1,566,596,0,0
-651,428,0,0,0,0,0,0,0,0,0,-1,573,596,0,0
-644,428,0,0,0,0,0,0,0,0,0,-1,580,596,0,0
-637,428,0,0,0,0,0,0,0,0,0,-1,587,596,0,0
-630,428,0,0,0,0,0,0,0,0,0,-1,594,596,0,0
-623,428,0,0,0,0,0,0,0,0,0,-1,601,596,0,0
-616,428,0,0,0,0,0,0,0,0,0,-1,608,596,0,0
-609,428,0,0,0,0,0,0,0,0,0,-1,615,596,0,0
-602,428,0,0,0,0,0,0,0,0,0,-1,622,596,0,0
-595,428,0,0,0,0,0,0,0,0,0,-1,629,596,0,0
-588,428,0,0,0,0,0,0,0,0,0,-1,636,596,0,0
-581,428,0,0,0,0,0,0,0,0,0,-1,643,596,0,0
-574,428,0,0,0,0,0,0,0,0,0,-1,650,596,0,0
-567,428,0,0,0,0,0,0,0,0,0,-1,657,596,0,0
-560,428,0,0,0,0,0,0,0,0,0,-1,664,596,0,0
-553,428,0,0,0,0,0,0,0,0,0,-1,671,596,0,0
-546,428,0,0,0,0,0,0,0,0,0,-1,678,596,0,0
-539,428,0,0,0,0,0,0,0,0,0,-1,685,596,0,0
-532,428,0,0,0,0,0,0,0,0,0,-1,692,596,0,0
-525,428,-9.59918,7.58618,0,0,0,0,0,0,0,-1,699,596,-9.59918,-7.5862
-518,428,-2.92285,-4.81854,0,0,0,0,0,0,0,-1,706,596,-2.92285,4.81856
-511,428,-3.68811,-4.79474,0,0,0,0,0,0,0,-1,713,596,-3.68811,4.79474
-504,428,-4.45337,-4.77094,0,0,0,0,0,0,0,-1,720,596,-4.45337,4.77092
-497,428,-2.98108,-3.77502,0,0,0,0,0,0,0,-1,727,596,-2.98106,3.77505
-490,428,-6.39044,-2.80481,0,0,0,0,0,0,0,-1,734,596,-6.39047,2.80483
-483,428,-10.8474,-9.11322,0,0,0,0,0,0,0,-1,741,596,-10.8473,9.11321
-476,428,-13.7783,-14.5725,0,0,0,0,0,0,0,-1,748,596,-13.7783,14.5725
-469,428,-13.7427,-15.577,-0.00495773,0.00325815,0.00229238,0.00385449,-0.00555406,1.3163,0.00546149,0.0380735,755,596,-13.7428,15.577
-462,428,-13.9589,-16.4608,-0.00336153,0.00288052,0.00134783,0.00315912,-0.00364013,1.36697,0.00392882,0.040036,762,596,-13.9589,16.4608
-455,428,-14.1051,-17.5605,-0.00203256,0.00225665,0.00072179,0.00237485,-0.00215076,1.40847,0.00261393,0.0185376,769,596,-14.1051,17.5605
-448,428,-14.1473,-18.5784,-0.000912802,0.00191194,0.0001782,0.00192313,-0.000923999,1.50804,0.00167719,0.0129013,776,596,-14.1473,18.5784
-441,428,-14.2044,-19.5696,6.96374e-06,0.00160856,-0.000240455,0.00164388,-2.83579e-05,-1.42494,0.00110549,0.0151622,783,596,-14.2044,19.5696
-434,428,-14.2647,-20.6028,0.000715887,0.00135202,-0.000548198,0.00166774,0.000400165,-1.04826,0.00100534,0.0113773,790,596,-14.2647,20.6029
-427,428,-14.3152,-21.6029,0.00132811,0.00123874,-0.000852315,0.00213691,0.000429942,-0.759209,0.00130512,0.0117264,797,596,-14.3153,21.6029
-420,428,-14.3743,-22.5369,0.00187615,0.0011932,-0.00113455,0.0027195,0.000349845,-0.639222,0.00170837,0.0117677,804,596,-14.3743,22.5369
-413,428,-14.4291,-23.4774,0.00225557,0.00116234,-0.00128694,0.00310717,0.00031074,-0.584574,0.00197603,0.015085,811,596,-14.4291,23.4773
-406,428,-14.4806,-24.441,0.00257243,0.00122403,-0.00144054,0.00348873,0.000307732,-0.566529,0.00223033,0.0179074,818,596,-14.4806,24.441
-399,428,-14.5308,-25.4327,0.00303079,0.00136871,-0.0017243,0.00411386,0.000285639,-0.560843,0.00265249,0.0170151,825,596,-14.5308,25.4327
-392,428,-14.5563,-26.4749,0.00357181,0.00150989,-0.00201813,0.00480706,0.000274637,-0.549253,0.0031172,0.0393463,832,596,-14.5563,26.4749
-385,428,-14.6525,-27.3961,0,0,0,0,0,0,0,-1,839,596,-14.6525,27.3961
-378,428,-10.8172,-20.952,0,0,0,0,0,0,0,-1,846,596,-10.8172,20.952
-371,428,-5.96155,-11.0703,0,0,0,0,0,0,0,-1,853,596,-5.96154,11.0702
-364,428,-6.33643,-10.7223,0,0,0,0,0,0,0,-1,860,596,-6.33645,10.7223
-357,428,-3.20996,-4.70966,0,0,0,0,0,0,0,-1,867,596,-3.20997,4.70965
-350,428,-1.62793,-3.94055,0,0,0,0,0,0,0,-1,874,596,-1.62794,3.94055
-343,428,-0.0567017,-4.80994,0,0,0,0,0,0,0,-1,881,596,-0.0567096,4.80996
-336,428,-3.29175,-1.39569,0,0,0,0,0,0,0,-1,888,596,-3.29172,1.39568
-329,428,-3.71564,-0.791321,0,0,0,0,0,0,0,-1,895,596,-3.71564,0.791299
-322,428,-5.52863,-3.59827,0,0,0,0,0,0,0,-1,902,596,-5.52865,3.59829
-315,428,-4.57172,-1.22052,0,0,0,0,0,0,0,-1,909,596,-4.57171,1.22052
-308,428,-5.60742,-3.40961,0,0,0,0,0,0,0,-1,916,596,-5.60744,3.40959
-301,428,0,0,0,0,0,0,0,0,0,-1,923,596,0,0
-294,428,0,0,0,0,0,0,0,0,0,-1,930,596,0,0
-287,428,0,0,0,0,0,0,0,0,0,-1,937,596,0,0
-280,428,0,0,0,0,0,0,0,0,0,-1,944,596,0,0
-273,428,0,0,0,0,0,0,0,0,0,-1,951,596,0,0
-266,428,0,0,0,0,0,0,0,0,0,-1,958,596,0,0
-259,428,0,0,0,0,0,0,0,0,0,-1,965,596,0,0
-252,428,0,0,0,0,0,0,0,0,0,-1,972,596,0,0
-245,428,0,0,0,0,0,0,0,0,0,-1,979,596,0,0
-238,428,0,0,0,0,0,0,0,0,0,-1,986,596,0,0
-231,428,0,0,0,0,0,0,0,0,0,-1,993,596,0,0
-224,428,0,0,0,0,0,0,0,0,0,-1,1000,596,0,0
-217,428,0,0,0,0,0,0,0,0,0,-1,1007,596,0,0
-210,428,0,0,0,0,0,0,0,0,0,-1,1014,596,0,0
-203,428,0,0,0,0,0,0,0,0,0,-1,1021,596,0,0
-196,428,0,0,0,0,0,0,0,0,0,-1,1028,596,0,0
-189,428,0,0,0,0,0,0,0,0,0,-1,1035,596,0,0
-182,428,0,0,0,0,0,0,0,0,0,-1,1042,596,0,0
-175,428,0,0,0,0,0,0,0,0,0,-1,1049,596,0,0
-168,428,0,0,0,0,0,0,0,0,0,-1,1056,596,0,0
-161,428,0,0,0,0,0,0,0,0,0,-1,1063,596,0,0
-154,428,0,0,0,0,0,0,0,0,0,-1,1070,596,0,0
-147,428,0,0,0,0,0,0,0,0,0,-1,1077,596,0,0
-140,428,0,0,0,0,0,0,0,0,0,-1,1084,596,0,0
-133,428,0,0,0,0,0,0,0,0,0,-1,1091,596,0,0
-126,428,0,0,0,0,0,0,0,0,0,-1,1098,596,0,0
-119,428,0,0,0,0,0,0,0,0,0,-1,1105,596,0,0
-112,428,0,0,0,0,0,0,0,0,0,-1,1112,596,0,0
-105,428,0,0,0,0,0,0,0,0,0,-1,1119,596,0,0
-98,428,0,0,0,0,0,0,0,0,0,-1,1126,596,0,0
-91,428,0,0,0,0,0,0,0,0,0,-1,1133,596,0,0
-84,428,0,0,0,0,0,0,0,0,0,-1,1140,596,0,0
-77,428,0,0,0,0,0,0,0,0,0,-1,1147,596,0,0
-70,428,0,0,0,0,0,0,0,0,0,-1,1154,596,0,0
-63,428,0,0,0,0,0,0,0,0,0,-1,1161,596,0,0
-56,428,0,0,0,0,0,0,0,0,0,-1,1168,596,0,0
-49,428,0,0,0,0,0,0,0,0,0,-1,1175,596,0,0
-42,428,0,0,0,0,0,0,0,0,0,-1,1182,596,0,0
-35,428,0,0,0,0,0,0,0,0,0,-1,1189,596,0,0
-28,428,0,0,0,0,0,0,0,0,0,-1,1196,596,0,0
-21,428,0,0,0,0,0,0,0,0,0,-1,1203,596,0,0
-14,428,0,0,0,0,0,0,0,0,0,-1,1210,596,0,0
-7,428,0,0,0,0,0,0,0,0,0,-1,1217,596,0,0
0,428,0,0,0,0,0,0,0,0,0,-1,1224,596,0,0
7,428,0,0,0,0,0,0,0,0,0,-1,1231,596,0,0
14,428,0,0,0,0,0,0,0,0,0,-1,1238,596,0,0
21,428,0,0,0,0,0,0,0,0,0,-1,1245,596,0,0
28,428,0,0,0,0,0,0,0,0,0,-1,1252,596,0,0
35,428,0,0,0,0,0,0,0,0,0,-1,1259,596,0,0
42,428,0,0,0,0,0,0,0,0,0,-1,1266,596,0,0
49,428,0,0,0,0,0,0,0,0,0,-1,1273,596,0,0
56,428,0,0,0,0,0,0,0,0,0,-1,1280,596,0,0
63,428,0,0,0,0,0,0,0,0,0,-1,1287,596,0,0
70,428,0,0,0,0,0,0,0,0,0,-1,1294,596,0,0
77,428,0,0,0,0,0,0,0,0,0,-1,1301,596,0,0
84,428,0,0,0,0,0,0,0,0,0,-1,1308,596,0,0
91,428,0,0,0,0,0,0,0,0,0,-1,1315,596,0,0
98,428,0,0,0,0,0,0,0,0,0,-1,1322,596,0,0
105,428,0,0,0,0,0,0,0,0,0,-1,1329,596,0,0
112,428,0,0,0,0,0,0,0,0,0,-1,1336,596,0,0
119,428,0,0,0,0,0,0,0,0,0,-1,1343,596,0,0
126,428,0,0,0,0,0,0,0,0,0,-1,1350,596,0,0
133,428,0,0,0,0,0,0,0,0,0,-1,1357,596,0,0
140,428,0,0,0,0,0,0,0,0,0,-1,1364,596,0,0
147,428,0,0,0,0,0,0,0,0,0,-1,1371,596,0,0
154,428,0,0,0,0,0,0,0,0,0,-1,1378,596,0,0
161,428,0,0,0,0,0,0,0,0,0,-1,1385,596,0,0
168,428,0,0,0,0,0,0,0,0,0,-1,1392,596,0,0
175,428,0,0,0,0,0,0,0,0,0,-1,1399,596,0,0
182,428,0,0,0,0,0,0,0,0,0,-1,1406,596,0,0
189,428,0,0,0,0,0,0,0,0,0,-1,1413,596,0,0
196,428,0,0,0,0,0,0,0,0,0,-1,1420,596,0,0
203,428,0,0,0,0,0,0,0,0,0,-1,1427,596,0,0
210,428,0,0,0,0,0,0,0,0,0,-1,1434,596,0,0
217,428,0,0,0,0,0,0,0,0,0,-1,1441,596,0,0
224,428,0,0,0,0,0,0,0,0,0,-1,1448,596,0,0
231,428,0,0,0,0,0,0,0,0,0,-1,1455,596,0,0
238,428,0,0,0,0,0,0,0,0,0,-1,1462,596,0,0
245,428,0,0,0,0,0,0,0,0,0,-1,1469,596,0,0
252,428,0,0,0,0,0,0,0,0,0,-1,1476,596,0,0
259,428,0,0,0,0,0,0,0,0,0,-1,1483,596,0,0
266,428,0,0,0,0,0,0,0,0,0,-1,1490,596,0,0
273,428,0,0,0,0,0,0,0,0,0,-1,1497,596,0,0
280,428,0,0,0,0,0,0,0,0,0,-1,1504,596,0,0
287,428,0,0,0,0,0,0,0,0,0,-1,1511,596,0,0
294,428,0,0,0,0,0,0,0,0,0,-1,1518,596,0,0
301,428,0,0,0,0,0,0,0,0,0,-1,1525,596,0,0
308,428,0,0,0,0,0,0,0,0,0,-1,1532,596,0,0
315,428,0,0,0,0,0,0,0,0,0,-1,1539,596,0,0
322,428,0,0,0,0,0,0,0,0,0,-1,1546,596,0,0
329,428,0,0,0,0,0,0,0,0,0,-1,1553,596,0,0
336,428,0,0,0,0,0,0,0,0,0,-1,1560,596,0,0
343,428,0,0,0,0,0,0,0,0,0,-1,1567,596,0,0
350,428,0,0,0,0,0,0,0,0,0,-1,1574,596,0,0
357,428,0,0,0,0,0,0,0,0,0,-1,1581,596,0,0
364,428,0,0,0,0,0,0,0,0,0,-1,1588,596,0,0
371,428,0,0,0,0,0,0,0,0,0,-1,1595,596,0,0
378,428,0,0,0,0,0,0,0,0,0,-1,1602,596,0,0
385,428,0,0,0,0,0,0,0,0,0,-1,1609,596,0,0
392,428,0,0,0,0,0,0,0,0,0,-1,1616,596,0,0
399,428,0,0,0,0,0,0,0,0,0,-1,1623,596,0,0
406,428,0,0,0,0,0,0,0,0,0,-1,1630,596,0,0
413,428,0,0,0,0,0,0,0,0,0,-1,1637,596,0,0
420,428,19.8469,1.3399,0,0,0,0,0,0,0,-1,1644,596,19.8469,-1.33992
427,428,20.7299,-0.225281,0,0,0,0,0,0,0,-1,1651,596,20.7299,0.225262
434,428,19.8915,-0.583069,0,0,0,0,0,0,0,-1,1658,596,19.8915,0.583075
441,428,8.17993,0.607483,0,0,0,0,0,0,0,-1,1665,596,8.17997,-0.607513
448,428,7.84338,-0.385986,0,0,0,0,0,0,0,-1,1672,596,7.84336,0.385978
455,428,6.64038,2.1123,0,0,0,0,0,0,0,-1,1679,596,6.64037,-2.11229
462,428,4.84106,4.12341,0,0,0,0,0,0,0,-1,1686,596,4.84107,-4.12339
469,428,7.83789,3.10083,0,0,0,0,0,0,0,-1,1693,596,7.83785,-3.10086
476,428,7.61255,1.73956,0,0,0,0,0,0,0,-1,1700,596,7.61252,-1.73958
483,428,7.22766,1.05121,0,0,0,0,0,0,0,-1,1707,596,7.2277,-1.05121
490,428,5.4071,-3.2793,0,0,0,0,0,0,0,-1,1714,596,5.40707,3.27929
497,428,7.84106,-3.65491,0,0,0,0,0,0,0,-1,1721,596,7.84107,3.65491
504,428,6.92139,-2.83356,0,0,0,0,0,0,0,-1,1728,596,6.92137,2.83353
511,428,7.88501,-3.78723,0,0,0,0,0,0,0,-1,1735,596,7.88502,3.78722
518,428,29.993,-26.0385,0,0,0,0,0,0,0,-1,1742,596,29.993,26.0384
525,428,30.6188,-25.187,0,0,0,0,0,0,0,-1,1749,596,30.6188,25.187
532,428,30.582,-24.1823,0.00268932,-0.000217213,0.000835344,0.0029123,-0.000440187,0.260843,0.00210367,0.0251311,1756,596,30.5821,24.1823
539,428,30.5719,-23.1789,0.00226732,0.000120298,0.000793893,0.00252899,-0.000141366,0.318383,0.00173503,0.0237383,1763,596,30.5719,23.1789
546,428,30.5029,-22.2463,0.00194707,0.000475965,0.000747437,0.00226018,0.000162851,0.396706,0.00145554,0.0172816,1770,596,30.5029,22.2463
553,428,30.4312,-21.3207,0.00168032,0.00100596,0.000755815,0.00217075,0.000515525,0.575591,0.0013096,0.0121511,1777,596,30.4311,21.3207
560,428,30.384,-20.3508,0.00144973,0.0015707,0.000833925,0.00234633,0.000674098,0.821598,0.00139491,0.012723,1784,596,30.384,20.3508
567,428,30.3344,-19.361,0.00140419,0.00231628,0.00107993,0.00303251,0.000687954,0.985185,0.00183584,0.0117636,1791,596,30.3343,19.361
574,428,30.2734,-18.402,0.00148978,0.00314661,0.00142183,0.00396375,0.000672635,1.04918,0.00244927,0.0138889,1798,596,30.2734,18.402
581,428,30.1815,-17.4284,0.00172233,0.00410491,0.00193073,0.0051823,0.000644942,1.06182,0.00326121,0.0124697,1805,596,30.1815,17.4284
588,428,30.1047,-16.4111,0.0021317,0.0053129,0.00265036,0.00681332,0.000631273,1.05566,0.0043471,0.018889,1812,596,30.1048,16.4112
595,428,30.043,-15.363,0.00276924,0.00682944,0.00359332,0.00892647,0.000672208,1.04253,0.00574005,0.032091,1819,596,30.043,15.363
602,428,30.1311,-14.2731,0,0,0,0,0,0,0,-1,1826,596,30.1311,14.2731
609,428,17.2073,-4.82446,0,0,0,0,0,0,0,-1,1833,596,17.2073,4.82447
616,428,15.7817,-3.09558,0,0,0,0,0,0,0,-1,1840,596,15.7817,3.09556
623,428,9.53577,1.12518,0,0,0,0,0,0,0,-1,1847,596,9.5358,-1.1252
630,428,7.07996,6.88562,0,0,0,0,0,0,0,-1,1854,596,7.0799,-6.88565
637,428,3.95435,1.90857,0,0,0,0,0,0,0,-1,1861,596,3.95439,-1.90858
644,428,5.75476,0.888977,0,0,0,0,0,0,0,-1,1868,596,5.75472,-0.888955
651,428,0,0,0,0,0,0,0,0,0,-1,1875,596,0,0
658,428,0,0,0,0,0,0,0,0,0,-1,1882,596,0,0
665,428,0,0,0,0,0,0,0,0,0,-1,1889,596,0,0
672,428,0,0,0,0,0,0,0,0,0,-1,1896,596,0,0
679,428,0,0,0,0,0,0,0,0,0,-1,1903,596,0,0
686,428,0,0,0,0,0,0,0,0,0,-1,1910,596,0,0
693,428,0,0,0,0,0,0,0,0,0,-1,1917,596,0,0
700,428,0,0,0,0,0,0,0,0,0,-1,1924,596,0,0
707,428,0,0,0,0,0,0,0,0,0,-1,1931,596,0,0
714,428,0,0,0,0,0,0,0,0,0,-1,1938,596,0,0
721,428,0,0,0,0,0,0,0,0,0,-1,1945,596,0,0
728,428,0,0,0,0,0,0,0,0,0,-1,1952,596,0,0
735,428,0,0,0,0,0,0,0,0,0,-1,1959,596,0,0
742,428,0,0,0,0,0,0,0,0,0,-1,1966,596,0,0
749,428,0,0,0,0,0,0,0,0,0,-1,1973,596,0,0
756,428,0,0,0,0,0,0,0,0,0,-1,1980,596,0,0
763,428,0,0,0,0,0,0,0,0,0,-1,1987,596,0,0
770,428,0,0,0,0,0,0,0,0,0,-1,1994,596,0,0
777,428,0,0,0,0,0,0,0,0,0,-1,2001,596,0,0
784,428,0,0,0,0,0,0,0,0,0,-1,2008,596,0,0
791,428,0,0,0,0,0,0,0,0,0,-1,2015,596,0,0
798,428,0,0,0,0,0,0,0,0,0,-1,2022,596,0,0
805,428,0,0,0,0,0,0,0,0,0,-1,2029,596,0,0
812,428,0,0,0,0,0,0,0,0,0,-1,2036,596,0,0
-700,421,0,0,0,0,0,0,0,0,0,-1,524,603,0,0
-693,421,0,0,0,0,0,0,0,0,0,-1,531,603,0,0
-686,421,0,0,0,0,0,0,0,0,0,-1,538,603,0,0
-679,421,0,0,0,0,0,0,0,0,0,-1,545,603,0,0
-672,421,0,0,0,0,0,0,0,0,0,-1,552,603,0,0
-665,421,0,0,0,0,0,0,0,0,0,-1,559,603,0,0
-658,421,0,0,0,0,0,0,0,0,0,-1,566,603,0,0
-651,421,0,0,0,0,0,0,0,0,0,-1,573,603,0,0
-644,421,0,0,0,0,0,0,0,0,0,-1,580,603,0,0
-637,421,0,0,0,0,0,0,0,0,0,-1,587,603,0,0
-630,421,0,0,0,0,0,0,0,0,0,-1,594,603,0,0
-623,421,0,0,0,0,0,0,0,0,0,-1,601,603,0,0
-616,421,0,0,0,0,0,0,0,0,0,-1,608,603,0,0
-609,421,0,0,0,0,0,0,0,0,0,-1,615,603,0,0
-602,421,0,0,0,0,0,0,0,0,0,-1,622,603,0,0
-595,421,0,0,0,0,0,0,0,0,0,-1,629,603,0,0
-588,421,0,0,0,0,0,0,0,0,0,-1,636,603,0,0
-581,421,0,0,0,0,0,0,0,0,0,-1,643,603,0,0
-574,421,0,0,0,0,0,0,0,0,0,-1,650,603,0,0
-567,421,0,0,0,0,0,0,0,0,0,-1,657,603,0,0
-560,421,0,0,0,0,0,0,0,0,0,-1,664,603,0,0
-553,421,0,0,0,0,0,0,0,0,0,-1,671,603,0,0
-546,421,0,0,0,0,0,0,0,0,0,-1,678,603,0,0
-539,421,0,0,0,0,0,0,0,0,0,-1,685,603,0,0
-532,421,-8.97382,6.95636,0,0,0,0,0,0,0,-1,692,603,-8.97384,-6.95634
-525,421,-2.11481,-8.04272,0,0,0,0,0,0,0,-1,699,603,-2.11483,8.0427
-518,421,-3.05908,-5.07233,0,0,0,0,0,0,0,-1,706,603,-3.0591,5.07235
-511,421,-4.63525,-4.08447,0,0,0,0,0,0,0,-1,713,603,-4.63524,4.08449
-504,421,-5.17029,-4.94458,0,0,0,0,0,0,0,-1,720,603,-5.17029,4.9446
-497,421,-6.63141,-2.32501,0,0,0,0,0,0,0,-1,727,603,-6.6314,2.32498
-490,421,-6.7616,-4.14783,0,0,0,0,0,0,0,-1,734,603,-6.76159,4.1478
-483,421,-14.46,-13.7863,0,0,0,0,0,0,0,-1,741,603,-14.46,13.7863
-476,421,-14.6622,-14.6601,-0.0050214,0.00271135,0.00260891,0.00350923,-0.00581928,1.274,0.00544058,0.0478786,748,603,-14.6622,14.6601
-469,421,-14.9352,-15.4589,-0.00377329,0.0023721,0.00171882,0.00282017,-0.00422137,1.31579,0.00409218,0.0389216,755,603,-14.9352,15.4589
-462,421,-14.9767,-16.572,-0.00252696,0.00197084,0.00101919,0.002191,-0.00274713,1.35804,0.00285705,0.0244728,762,603,-14.9767,16.572
-455,421,-15.0444,-17.5594,-0.00141564,0.00148754,0.000491,0.00156834,-0.00149643,1.40771,0.0017696,0.0220069,769,603,-15.0444,17.5595
-448,421,-15.1121,-18.5163,-0.000417086,0.00119743,1.86614e-05,0.00119764,-0.000417302,1.55924,0.000967991,0.021286,776,603,-15.1121,18.5163
-441,421,-15.1721,-19.5211,0.000463628,0.00100051,-0.000380295,0.00119756,0.000266574,-1.09273,0.000726017,0.016398,783,603,-15.1721,19.5211
-434,421,-15.249,-20.5487,0.00119311,0.000875466,-0.000698003,0.00175013,0.000318445,-0.673534,0.00107642,0.0117242,790,603,-15.249,20.5487
-427,421,-15.2974,-21.5264,0.00186714,0.000940627,-0.00105634,0.00255733,0.000250428,-0.578753,0.00162785,0.0105108,797,603,-15.2974,21.5264
-420,421,-15.3529,-22.4599,0.00246845,0.0011082,-0.00139468,0.00334,0.000236652,-0.558536,0.00215213,0.011462,804,603,-15.3529,22.4599
-413,421,-15.4039,-23.4041,0.0029206,0.00137848,-0.0016433,0.00396475,0.000334335,-0.566039,0.00253907,0.0158207,811,603,-15.4039,23.4041
-406,421,-15.4877,-24.3978,0.00336236,0.00187873,-0.00200226,0.00475581,0.00048528,-0.607994,0.0030218,0.0248199,818,603,-15.4876,24.3978
-399,421,-15.4463,-25.3331,0,0,0,0,0,0,0,-1,825,603,-15.4463,25.3331
-392,421,-15.2836,-26.5849,0,0,0,0,0,0,0,-1,832,603,-15.2836,26.5849
-385,421,-11.5825,-18.8583,0,0,0,0,0,0,0,-1,839,603,-11.5825,18.8583
-378,421,-4.94733,-8.87909,0,0,0,0,0,0,0,-1,846,603,-4.94731,8.87906
-371,421,-5.65082,-7.01849,0,0,0,0,0,0,0,-1,853,603,-5.65082,7.0185
-364,421,-5.94189,-7.09875,0,0,0,0,0,0,0,-1,860,603,-5.94192,7.09878
-357,421,-7.62531,-8.26337,0,0,0,0,0,0,0,-1,867,603,-7.62532,8.26337
-350,421,-5.38019,-3.75024,0,0,0,0,0,0,0,-1,874,603,-5.38017,3.75026
-343,421,-6.22797,-2.57123,0,0,0,0,0,0,0,-1,881,603,-6.22798,2.57121
-336,421,-6.22882,-2.59369,0,0,0,0,0,0,0,-1,888,603,-6.22883,2.5937
-329,421,-4.50134,-1.49469,0,0,0,0,0,0,0,-1,895,603,-4.50137,1.49468
-322,421,-7.55817,1.13263,0,0,0,0,0,0,0,-1,902,603,-7.55818,-1.13263
-315,421,-4.16144,-1.96649,0,0,0,0,0,0,0,-1,909,603,-4.16146,1.9665
-308,421,0,0,0,0,0,0,0,0,0,-1,916,603,0,0
-301,421,0,0,0,0,0,0,0,0,0,-1,923,603,0,0
-294,421,0,0,0,0,0,0,0,0,0,-1,930,603,0,0
-287,421,0,0,0,0,0,0,0,0,0,-1,937,603,0,0
-280,421,0,0,0,0,0,0,0,0,0,-1,944,603,0,0
-273,421,0,0,0,0,0,0,0,0,0,-1,951,603,0,0
-266,421,0,0,0,0,0,0,0,0,0,-1,958,603,0,0
-259,421,0,0,0,0,0,0,0,0,0,-1,965,603,0,0
-252,421,0,0,0,0,0,0,0,0,0,-1,972,603,0,0
-245,421,0,0,0,0,0,0,0,0,0,-1,979,603,0,0
-238,421,0,0,0,0,0,0,0,0,0,-1,986,603,0,0
-231,421,0,0,0,0,0,0,0,0,0,-1,993,603,0,0
-224,421,0,0,0,0,0,0,0,0,0,-1,1000,603,0,0
-217,421,0,0,0,0,0,0,0,0,0,-1,1007,603,0,0
-210,421,0,0,0,0,0,0,0,0,0,-1,1014,603,0,0
-203,421,0,0,0,0,0,0,0,0,0,-1,1021,603,0,0
-196,421,0,0,0,0,0,0,0,0,0,-1,1028,603,0,0
-189,421,0,0,0,0,0,0,0,0,0,-1,1035,603,0,0
-182,421,0,0,0,0,0,0,0,0,0,-1,1042,603,0,0
-175,421,0,0,0,0,0,0,0,0,0,-1,1049,603,0,0
-168,421,0,0,0,0,0,0,0,0,0,-1,1056,603,0,0
-161,421,0,0,0,0,0,0,0,0,0,-1,1063,603,0,0
-154,421,0,0,0,0,0,0,0,0,0,-1,1070,603,0,0
-147,421,0,0,0,0,0,0,0,0,0,-1,1077,603,0,0
-140,421,0,0,0,0,0,0,0,0,0,-1,1084,603,0,0
-133,421,0,0,0,0,0,0,0,0,0,-1,1091,603,0,0
-126,421,0,0,0,0,0,0,0,0,0,-1,1098,603,0,0
-119,421,0,0,0,0,0,0,0,0,0,-1,1105,603,0,0
-112,421,0,0,0,0,0,0,0,0,0,-1,1112,603,0,0
-105,421,0,0,0,0,0,0,0,0,0,-1,1119,603,0,0
-98,421,0,0,0,0,0,0,0,0,0,-1,1126,603,0,0
-91,421,0,0,0,0,0,0,0,0,0,-1,1133,603,0,0
-84,421,0,0,0,0,0,0,0,0,0,-1,1140,603,0,0
-77,421,0,0,0,0,0,0,0,0,0,-1,1147,603,0,0
-70,421,0,0,0,0,0,0,0,0,0,-1,1154,603,0,0
-63,421,0,0,0,0,0,0,0,0,0,-1,1161,603,0,0
-56,421,0,0,0,0,0,0,0,0,0,-1,1168,603,0,0
-49,421,0,0,0,0,0,0,0,0,0,-1,1175,603,0,0
-42,421,0,0,0,0,0,0,0,0,0,-1,1182,603,0,0
-35,421,0,0,0,0,0,0,0,0,0,-1,1189,603,0,0
-28,421,0,0,0,0,0,0,0,0,0,-1,1196,603,0,0
-21,421,0,0,0,0,0,0,0,0,0,-1,1203,603,0,0
-14,421,0,0,0,0,0,0,0,0,0,-1,1210,603,0,0
-7,421,0,0,0,0,0,0,0,0,0,-1,1217,603,0,0
0,421,0,0,0,0,0,0,0,0,0,-1,1224,603,0,0
7,421,0,0,0,0,0,0,0,0,0,-1,1231,603,0,0
14,421,0,0,0,0,0,0,0,0,0,-1,1238,603,0,0
21,421,0,0,0,0,0,0,0,0,0,-1,1245,603,0,0
28,421,0,0,0,0,0,0,0,0,0,-1,1252,603,0,0
35,421,0,0,0,0,0,0,0,0,0,-1,1259,603,0,0
42,421,0,0,0,0,0,0,0,0,0,-1,1266,603,0,0
49,421,0,0,0,0,0,0,0,0,0,-1,1273,603,0,0
56,421,0,0,0,0,0,0,0,0,0,-1,1280,603,0,0
63,421,0,0,0,0,0,0,0,0,0,-1,1287,603,0,0
70,421,0,0,0,0,0,0,0,0,0,-1,1294,603,0,0
77,421,0,0,0,0,0,0,0,0,0,-1,1301,603,0,0
84,421,0,0,0,0,0,0,0,0,0,-1,1308,603,0,0
91,421,0,0,0,0,0,0,0,0,0,-1,1315,603,0,0
98,421,0,0,0,0,0,0,0,0,0,-1,1322,603,0,0
105,421,0,0,0,0,0,0,0,0,0,-1,1329,603,0,0
112,421,0,0,0,0,0,0,0,0,0,-1,1336,603,0,0
119,421,0,0,0,0,0,0,0,0,0,-1,1343,603,0,0
126,421,0,0,0,0,0,0,0,0,0,-1,1350,603,0,0
133,421,0,0,0,0,0,0,0,0,0,-1,1357,603,0,0
140,421,0,0,0,0,0,0,0,0,0,-1,1364,603,0,0
147,421,0,0,0,0,0,0,0,0,0,-1,1371,603,0,0
154,421,0,0,0,0,0,0,0,0,0,-1,1378,603,0,0
161,421,0,0,0,0,0,0,0,0,0,-1,1385,603,0,0
168,421,0,0,0,0,0,0,0,0,0,-1,1392,603,0,0
175,421,0,0,0,0,0,0,0,0,0,-1,1399,603,0,0
182,421,0,0,0,0,0,0,0,0,0,-1,1406,603,0,0
189,421,0,0,0,0,0,0,0,0,0,-1,1413,603,0,0
196,421,0,0,0,0,0,0,0,0,0,-1,1420,603,0,0
203,421,0,0,0,0,0,0,0,0,0,-1,1427,603,0,0
210,421,0,0,0,0,0,0,0,0,0,-1,1434,603,0,0
217,421,0,0,0,0,0,0,0,0,0,-1,1441,603,0,0
224,421,0,0,0,0,0,0,0,0,0,-1,1448,603,0,0
231,421,0,0,0,0,0,0,0,0,0,-1,1455,603,0,0
238,421,0,0,0,0,0,0,0,0,0,-1,1462,603,0,0
245,421,0,0,0,0,0,0,0,0,0,-1,1469,603,0,0
252,421,0,0,0,0,0,0,0,0,0,-1,1476,603,0,0
259,421,0,0,0,0,0,0,0,0,0,-1,1483,603,0,0
266,421,0,0,0,0,0,0,0,0,0,-1,1490,603,0,0
273,421,0,0,0,0,0,0,0,0,0,-1,1497,603,0,0
280,421,0,0,0,0,0,0,0,0,0,-1,1504,603,0,0
287,421,0,0,0,0,0,0,0,0,0,-1,1511,603,0,0
294,421,0,0,0,0,0,0,0,0,0,-1,1518,603,0,0
301,421,0,0,0,0,0,0,0,0,0,-1,1525,603,0,0
308,421,0,0,0,0,0,0,0,0,0,-1,1532,603,0,0
315,421,0,0,0,0,0,0,0,0,0,-1,1539,603,0,0
322,421,0,0,0,0,0,0,0,0,0,-1,1546,603,0,0
329,421,0,0,0,0,0,0,0,0,0,-1,1553,603,0,0
336,421,0,0,0,0,0,0,0,0,0,-1,1560,603,0,0
343,421,0,0,0,0,0,0,0,0,0,-1,1567,603,0,0
350,421,0,0,0,0,0,0,0,0,0,-1,1574,603,0,0
357,421,0,0,0,0,0,0,0,0,0,-1,1581,603,0,0
364,421,0,0,0,0,0,0,0,0,0,-1,1588,603,0,0
371,421,0,0,0,0,0,0,0,0,0,-1,1595,603,0,0
378,421,0,0,0,0,0,0,0,0,0,-1,1602,603,0,0
385,421,0,0,0,0,0,0,0,0,0,-1,1609,603,0,0
392,421,0,0,0,0,0,0,0,0,0,-1,1616,603,0,0
399,421,0,0,0,0,0,0,0,0,0,-1,1623,603,0,0
406,421,0,0,0,0,0,0,0,0,0,-1,1630,603,0,0
413,421,0,0,0,0,0,0,0,0,0,-1,1637,603,0,0
420,421,0,0,0,0,0,0,0,0,0,-1,1644,603,0,0
427,421,0,0,0,0,0,0,0,0,0,-1,1651,603,0,0
434,421,3.68176,-0.0327759,0,0,0,0,0,0,0,-1,1658,603,3.6818,0.0328037
441,421,8.06689,0.527832,0,0,0,0,0,0,0,-1,1665,603,8.06693,-0.527851
448,421,6.93921,0.802246,0,0,0,0,0,0,0,-1,1672,603,6.93923,-0.802251
455,421,7.29456,2.14825,0,0,0,0,0,0,0,-1,1679,603,7.29461,-2.14827
462,421,7.86902,3.53174,0,0,0,0,0,0,0,-1,1686,603,7.869,-3.53173
469,421,8.06604,2.81213,0,0,0,0,0,0,0,-1,1693,603,8.06606,-2.81212
476,421,8.26306,2.09253,0,0,0,0,0,0,0,-1,1700,603,8.26312,-2.09251
483,421,8.05322,0.798096,0,0,0,0,0,0,0,-1,1707,603,8.05323,-0.7981
490,421,7.51233,0.213074,0,0,0,0,0,0,0,-1,1714,603,7.51235,-0.213043
497,421,7.49634,-2.86688,0,0,0,0,0,0,0,-1,1721,603,7.4963,2.86688
504,421,6.90491,-2.18671,0,0,0,0,0,0,0,-1,1728,603,6.90491,2.18669
511,421,6.31348,-1.50653,0,0,0,0,0,0,0,-1,1735,603,6.31353,1.5065
518,421,6.27588,-2.49878,0,0,0,0,0,0,0,-1,1742,603,6.2759,2.4988
525,421,30.6759,-25.1779,0,0,0,0,0,0,0,-1,1749,603,30.6759,25.1779
532,421,31.6318,-24.125,0,0,0,0,0,0,0,-1,1756,603,31.6318,24.125
539,421,31.5441,-23.1367,0.00265386,-5.30763e-05,0.000771128,0.00285812,-0.000257335,0.258937,0.00199673,0.0267446,1763,603,31.544,23.1367
546,421,31.4758,-22.1969,0.00227264,0.000225996,0.000674465,0.00247491,2.37189e-05,0.291371,0.00164209,0.0146955,1770,603,31.4758,22.1969
553,421,31.4094,-21.218,0.00197619,0.000694703,0.00063949,0.00224071,0.000430184,0.392209,0.00137306,0.0135354,1777,603,31.4094,21.218
560,421,31.3569,-20.2418,0.00168428,0.00115807,0.000674028,0.00214473,0.000697613,0.599318,0.00126321,0.0155487,1784,603,31.357,20.2418
567,421,31.309,-19.2863,0.00155816,0.00176477,0.00087096,0.00253853,0.000784401,0.844426,0.00150084,0.0176684,1791,603,31.309,19.2863
574,421,31.2576,-18.3269,0.00159577,0.00248127,0.0011901,0.00330831,0.000768727,0.963479,0.00199918,0.0213674,1798,603,31.2575,18.3269
581,421,31.1887,-17.317,0.00179221,0.00330263,0.00167649,0.00438616,0.000708675,0.997021,0.00271885,0.0227432,1805,603,31.1888,17.317
588,421,31.1212,-16.3942,0.0021804,0.00437846,0.00235023,0.00587393,0.000684924,1.00411,0.00370879,0.0146566,1812,603,31.1212,16.3942
595,421,31.1063,-15.4089,0.00280679,0.00570233,0.00325062,0.00781301,0.000696108,0.994902,0.00499284,0.0209636,1819,603,31.1064,15.4089
602,421,31.0774,-14.366,0,0,0,0,0,0,0,-1,1826,603,31.0774,14.366
609,421,22.8762,-8.37524,0,0,0,0,0,0,0,-1,1833,603,22.8762,8.37525
616,421,17.7633,-4.72491,0,0,0,0,0,0,0,-1,1840,603,17.7633,4.7249
623,421,6.19885,0.376648,0,0,0,0,0,0,0,-1,1847,603,6.19881,-0.376624
630,421,6.54993,0.778748,0,0,0,0,0,0,0,-1,1854,603,6.54991,-0.778744
637,421,3.74512,1.65405,0,0,0,0,0,0,0,-1,1861,603,3.74517,-1.65407
644,421,3.58081,0.354675,0,0,0,0,0,0,0,-1,1868,603,3.58082,-0.354704
651,421,3.28687,3.66351,0,0,0,0,0,0,0,-1,1875,603,3.28688,-3.66353
658,421,0,0,0,0,0,0,0,0,0,-1,1882,603,0,0
665,421,0,0,0,0,0,0,0,0,0,-1,1889,603,0,0
672,421,0,0,0,0,0,0,0,0,0,-1,1896,603,0,0
679,421,0,0,0,0,0,0,0,0,0,-1,1903,603,0,0
686,421,0,0,0,0,0,0,0,0,0,-1,1910,603,0,0
693,421,0,0,0,0,0,0,0,0,0,-1,1917,603,0,0
700,421,0,0,0,0,0,0,0,0,0,-1,1924,603,0,0
707,421,0,0,0,0,0,0,0,0,0,-1,1931,603,0,0
714,421,0,0,0,0,0,0,0,0,0,-1,1938,603,0,0
721,421,0,0,0,0,0,0,0,0,0,-1,1945,603,0,0
728,421,0,0,0,0,0,0,0,0,0,-1,1952,603,0,0
735,421,0,0,0,0,0,0,0,0,0,-1,1959,603,0,0
742,421,0,0,0,0,0,0,0,0,0,-1,1966,603,0,0
749,421,0,0,0,0,0,0,0,0,0,-1,1973,603,0,0
756,421,0,0,0,0,0,0,0,0,0,-1,1980,603,0,0
763,421,0,0,0,0,0,0,0,0,0,-1,1987,603,0,0
770,421,0,0,0,0,0,0,0,0,0,-1,1994,603,0,0
777,421,0,0,0,0,0,0,0,0,0,-1,2001,603,0,0
784,421,0,0,0,0,0,0,0,0,0,-1,2008,603,0,0
791,421,0,0,0,0,0,0,0,0,0,-1,2015,603,0,0
798,421,0,0,0,0,0,0,0,0,0,-1,2022,603,0,0
805,421,0,0,0,0,0,0,0,0,0,-1,2029,603,0,0
812,421,0,0,0,0,0,0,0,0,0,-1,2036,603,0,0
-700,414,0,0,0,0,0,0,0,0,0,-1,524,610,0,0
-693,414,0,0,0,0,0,0,0,0,0,-1,531,610,0,0
-686,414,0,0,0,0,0,0,0,0,0,-1,538,610,0,0
-679,414,0,0,0,0,0,0,0,0,0,-1,545,610,0,0
-672,414,0,0,0,0,0,0,0,0,0,-1,552,610,0,0
-665,414,0,0,0,0,0,0,0,0,0,-1,559,610,0,0
-658,414,0,0,0,0,0,0,0,0,0,-1,566,610,0,0
-651,414,0,0,0,0,0,0,0,0,0,-1,573,610,0,0
-644,414,0,0,0,0,0,0,0,0,0,-1,580,610,0,0
-637,414,0,0,0,0,0,0,0,0,0,-1,587,610,0,0
-630,414,0,0,0,0,0,0,0,0,0,-1,594,610,0,0
-623,414,0,0,0,0,0,0,0,0,0,-1,601,610,0,0
-616,414,0,0,0,0,0,0,0,0,0,-1,608,610,0,0
-609,414,0,0,0,0,0,0,0,0,0,-1,615,610,0,0
-602,414,0,0,0,0,0,0,0,0,0,-1,622,610,0,0
-595,414,0,0,0,0,0,0,0,0,0,-1,629,610,0,0
-588,414,0,0,0,0,0,0,0,0,0,-1,636,610,0,0
-581,414,0,0,0,0,0,0,0,0,0,-1,643,610,0,0
-574,414,0,0,0,0,0,0,0,0,0,-1,650,610,0,0
-567,414,0,0,0,0,0,0,0,0,0,-1,657,610,0,0
-560,414,0,0,0,0,0,0,0,0,0,-1,664,610,0,0
-553,414,0,0,0,0,0,0,0,0,0,-1,671,610,0,0
-546,414,0,0,0,0,0,0,0,0,0,-1,678,610,0,0
-539,414,-7.50146,5.65619,0,0,0,0,0,0,0,-1,685,610,-7.50149,-5.65617
-532,414,-8.15204,4.01605,0,0,0,0,0,0,0,-1,692,610,-8.15206,-4.01606
-525,414,-3.47137,-3.27924,0,0,0,0,0,0,0,-1,699,610,-3.47136,3.27922
-518,414,-4.12909,-4.36908,0,0,0,0,0,0,0,-1,706,610,-4.12909,4.36909
-511,414,-3.92542,-4.97021,0,0,0,0,0,0,0,-1,713,610,-3.92542,4.97023
-504,414,-9.35394,-5.49896,0,0,0,0,0,0,0,-1,720,610,-9.35394,5.49898
-497,414,-9.67627,-6.54761,0,0,0,0,0,0,0,-1,727,610,-9.6763,6.5476
-490,414,-15.2787,-11.9947,0,0,0,0,0,0,0,-1,734,610,-15.2787,11.9947
-483,414,-15.6403,-13.582,0,0,0,0,0,0,0,-1,741,610,-15.6403,13.5821
-476,414,-15.8364,-14.536,-0.00347891,0.00212063,0.00181619,0.00265811,-0.00401639,1.28307,0.00388003,0.0268091,748,610,-15.8364,14.536
-469,414,-15.9227,-15.4881,-0.00259259,0.001756,0.00120216,0.0020662,-0.0029028,1.31826,0.00288238,0.0161858,755,610,-15.9227,15.4881
-462,414,-15.9464,-16.5161,-0.00162495,0.00136852,0.00067861,0.00151517,-0.0017716,1.35796,0.00189954,0.0256429,762,610,-15.9464,16.5161
-455,414,-16.0275,-17.5131,-0.000704587,0.00101865,0.000227716,0.00104824,-0.000734171,1.44161,0.00103438,0.0284291,769,610,-16.0275,17.5131
-448,414,-16.0804,-18.4938,0.000189092,0.000786497,-0.000192543,0.000843176,0.000132413,-1.28451,0.000523591,0.0281772,776,610,-16.0804,18.4938
-441,414,-16.1218,-19.4985,0.00104017,0.000683574,-0.000590341,0.00147855,0.000245194,-0.63874,0.000914988,0.0197025,783,610,-16.1218,19.4985
-434,414,-16.2288,-20.4736,0.00180572,0.00067484,-0.000944038,0.00234071,0.000139858,-0.515571,0.001516,0.0108451,790,610,-16.2288,20.4736
-427,414,-16.2879,-21.444,0.00255007,0.000885758,-0.00137448,0.00332468,0.000111153,-0.513196,0.00218034,0.0116501,797,610,-16.2879,21.444
-420,414,-16.3364,-22.3954,0.00320309,0.00122334,-0.00177566,0.00424616,0.000180281,-0.531119,0.00277263,0.010836,804,610,-16.3364,22.3954
-413,414,-16.3982,-23.3709,0.00375032,0.00176546,-0.00214381,0.00512027,0.000395512,-0.568622,0.00328961,0.0124671,811,610,-16.3982,23.3709
-406,414,-16.4045,-24.545,0.00435898,0.00271486,-0.00275793,0.00641476,0.000659081,-0.640555,0.00407462,0.0478328,818,610,-16.4046,24.545
-399,414,-16.2657,-25.7175,0,0,0,0,0,0,0,-1,825,610,-16.2657,25.7175
-392,414,-9.43781,-14.5624,0,0,0,0,0,0,0,-1,832,610,-9.43779,14.5624
-385,414,-8.14691,-13.0653,0,0,0,0,0,0,0,-1,839,610,-8.14692,13.0653
-378,414,-8.04907,-11.3331,0,0,0,0,0,0,0,-1,846,610,-8.04905,11.3331
-371,414,-5.20886,-8.05151,0,0,0,0,0,0,0,-1,853,610,-5.20887,8.05153
-364,414,-6.76282,-6.58759,0,0,0,0,0,0,0,-1,860,610,-6.7628,6.58756
-357,414,-9.08685,-8.86188,0,0,0,0,0,0,0,-1,867,610,-9.08688,8.86187
-350,414,-6.4502,-2.41821,0,0,0,0,0,0,0,-1,874,610,-6.45021,2.41822
-343,414,-6.80249,-2.32117,0,0,0,0,0,0,0,-1,881,610,-6.80252,2.32116
-336,414,-7.11017,-2.52026,0,0,0,0,0,0,0,-1,888,610,-7.11016,2.52026
-329,414,-7.59747,-2.70313,0,0,0,0,0,0,0,-1,895,610,-7.59747,2.70315
-322,414,-4.42236,-1.29163,0,0,0,0,0,0,0,-1,902,610,-4.42238,1.2916
-315,414,0,0,0,0,0,0,0,0,0,-1,909,610,0,0
-308,414,0,0,0,0,0,0,0,0,0,-1,916,610,0,0
-301,414,0,0,0,0,0,0,0,0,0,-1,923,610,0,0
-294,414,0,0,0,0,0,0,0,0,0,-1,930,610,0,0
-287,414,0,0,0,0,0,0,0,0,0,-1,937,610,0,0
-280,414,0,0,0,0,0,0,0,0,0,-1,944,610,0,0
-273,414,0,0,0,0,0,0,0,0,0,-1,951,610,0,0
-266,414,0,0,0,0,0,0,0,0,0,-1,958,610,0,0
-259,414,0,0,0,0,0,0,0,0,0,-1,965,610,0,0
-252,414,0,0,0,0,0,0,0,0,0,-1,972,610,0,0
-245,414,0,0,0,0,0,0,0,0,0,-1,979,610,0,0
-238,414,0,0,0,0,0,0,0,0,0,-1,986,610,0,0
-231,414,0,0,0,0,0,0,0,0,0,-1,993,610,0,0
-224,414,0,0,0,0,0,0,0,0,0,-1,1000,610,0,0
-217,414,0,0,0,0,0,0,0,0,0,-1,1007,610,0,0
-210,414,0,0,0,0,0,0,0,0,0,-1,1014,610,0,0
-203,414,0,0,0,0,0,0,0,0,0,-1,1021,610,0,0
-196,414,0,0,0,0,0,0,0,0,0,-1,1028,610,0,0
-189,414,0,0,0,0,0,0,0,0,0,-1,1035,610,0,0
-182,414,0,0,0,0,0,0,0,0,0,-1,1042,610,0,0
-175,414,0,0,0,0,0,0,0,0,0,-1,1049,610,0,0
-168,414,0,0,0,0,0,0,0,0,0,-1,1056,610,0,0
-161,414,0,0,0,0,0,0,0,0,0,-1,1063,610,0,0
-154,414,0,0,0,0,0,0,0,0,0,-1,1070,610,0,0
-147,414,0,0,0,0,0,0,0,0,0,-1,1077,610,0,0
-140,414,0,0,0,0,0,0,0,0,0,-1,1084,610,0,0
-133,414,0,0,0,0,0,0,0,0,0,-1,1091,610,0,0
-126,414,0,0,0,0,0,0,0,0,0,-1,1098,610,0,0
-119,414,0,0,0,0,0,0,0,0,0,-1,1105,610,0,0
-112,414,0,0,0,0,0,0,0,0,0,-1,1112,610,0,0
-105,414,0,0,0,0,0,0,0,0,0,-1,1119,610,0,0
-98,414,0,0,0,0,0,0,0,0,0,-1,1126,610,0,0
-91,414,0,0,0,0,0,0,0,0,0,-1,1133,610,0,0
-84,414,0,0,0,0,0,0,0,0,0,-1,1140,610,0,0
-77,414,0,0,0,0,0,0,0,0,0,-1,1147,610,0,0
-70,414,0,0,0,0,0,0,0,0,0,-1,1154,610,0,0
-63,414,0,0,0,0,0,0,0,0,0,-1,1161,610,0,0
-56,414,0,0,0,0,0,0,0,0,0,-1,1168,610,0,0
-49,414,0,0,0,0,0,0,0,0,0,-1,1175,610,0,0
-42,414,0,0,0,0,0,0,0,0,0,-1,1182,610,0,0
-35,414,0,0,0,0,0,0,0,0,0,-1,1189,610,0,0
-28,414,0,0,0,0,0,0,0,0,0,-1,1196,610,0,0
-21,414,0,0,0,0,0,0,0,0,0,-1,1203,610,0,0
-14,414,0,0,0,0,0,0,0,0,0,-1,1210,610,0,0
-7,414,0,0,0,0,0,0,0,0,0,-1,1217,610,0,0
0,414,0,0,0,0,0,0,0,0,0,-1,1224,610,0,0
7,414,0,0,0,0,0,0,0,0,0,-1,1231,610,0,0
14,414,0,0,0,0,0,0,0,0,0,-1,1238,610,0,0
21,414,0,0,0,0,0,0,0,0,0,-1,1245,610,0,0
28,414,0,0,0,0,0,0,0,0,0,-1,1252,610,0,0
35,414,0,0,0,0,0,0,0,0,0,-1,1259,610,0,0
42,414,0,0,0,0,0,0,0,0,0,-1,1266,610,0,0
49,414,0,0,0,0,0,0,0,0,0,-1,1273,610,0,0
56,414,0,0,0,0,0,0,0,0,0,-1,1280,610,0,0
63,414,0,0,0,0,0,0,0,0,0,-1,1287,610,0,0
70,414,0,0,0,0,0,0,0,0,0,-1,1294,610,0,0
77,414,0,0,0,0,0,0,0,0,0,-1,1301,610,0,0
84,414,0,0,0,0,0,0,0,0,0,-1,1308,610,0,0
91,414,0,0,0,0,0,0,0,0,0,-1,1315,610,0,0
98,414,0,0,0,0,0,0,0,0,0,-1,1322,610,0,0
105,414,0,0,0,0,0,0,0,0,0,-1,1329,610,0,0
112,414,0,0,0,0,0,0,0,0,0,-1,1336,610,0,0
119,414,0,0,0,0,0,0,0,0,0,-1,1343,610,0,0
126,414,0,0,0,0,0,0,0,0,0,-1,1350,610,0,0
133,414,0,0,0,0,0,0,0,0,0,-1,1357,610,0,0
140,414,0,0,0,0,0,0,0,0,0,-1,1364,610,0,0
147,414,0,0,0,0,0,0,0,0,0,-1,1371,610,0,0
154,414,0,0,0,0,0,0,0,0,0,-1,1378,610,0,0
161,414,0,0,0,0,0,0,0,0,0,-1,1385,610,0,0
168,414,0,0,0,0,0,0,0,0,0,-1,1392,610,0,0
175,414,0,0,0,0,0,0,0,0,0,-1,1399,610,0,0
182,414,0,0,0,0,0,0,0,0,0,-1,1406,610,0,0
189,414,0,0,0,0,0,0,0,0,0,-1,1413,610,0,0
196,414,0,0,0,0,0,0,0,0,0,-1,1420,610,0,0
203,414,0,0,0,0,0,0,0,0,0,-1,1427,610,0,0
210,414,0,0,0,0,0,0,0,0,0,-1,1434,610,0,0
217,414,0,0,0,0,0,0,0,0,0,-1,1441,610,0,0
224,414,0,0,0,0,0,0,0,0,0,-1,1448,610,0,0
231,414,0,0,0,0,0,0,0,0,0,-1,1455,610,0,0
238,414,0,0,0,0,0,0,0,0,0,-1,1462,610,0,0
245,414,0,0,0,0,0,0,0,0,0,-1,1469,610,0,0
252,414,0,0,0,0,0,0,0,0,0,-1,1476,610,0,0
259,414,0,0,0,0,0,0,0,0,0,-1,1483,610,0,0
266,414,0,0,0,0,0,0,0,0,0,-1,1490,610,0,0
273,414,0,0,0,0,0,0,0,0,0,-1,1497,610,0,0
280,414,0,0,0,0,0,0,0,0,0,-1,1504,610,0,0
287,414,0,0,0,0,0,0,0,0,0,-1,1511,610,0,0
294,414,0,0,0,0,0,0,0,0,0,-1,1518,610,0,0
301,414,0,0,0,0,0,0,0,0,0,-1,1525,610,0,0
308,414,0,0,0,0,0,0,0,0,0,-1,1532,610,0,0
315,414,0,0,0,0,0,0,0,0,0,-1,1539,610,0,0
322,414,0,0,0,0,0,0,0,0,0,-1,1546,610,0,0
329,414,0,0,0,0,0,0,0,0,0,-1,1553,610,0,0
336,414,0,0,0,0,0,0,0,0,0,-1,1560,610,0,0
343,414,0,0,0,0,0,0,0,0,0,-1,1567,610,0,0
350,414,0,0,0,0,0,0,0,0,0,-1,1574,610,0,0
357,414,0,0,0,0,0,0,0,0,0,-1,1581,610,0,0
364,414,0,0,0,0,0,0,0,0,0,-1,1588,610,0,0
371,414,0,0,0,0,0,0,0,0,0,-1,1595,610,0,0
378,414,0,0,0,0,0,0,0,0,0,-1,1602,610,0,0
385,414,0,0,0,0,0,0,0,0,0,-1,1609,610,0,0
392,414,0,0,0,0,0,0,0,0,0,-1,1616,610,0,0
399,414,0,0,0,0,0,0,0,0,0,-1,1623,610,0,0
406,414,0,0,0,0,0,0,0,0,0,-1,1630,610,0,0
413,414,0,0,0,0,0,0,0,0,0,-1,1637,610,0,0
420,414,0,0,0,0,0,0,0,0,0,-1,1644,610,0,0
427,414,0,0,0,0,0,0,0,0,0,-1,1651,610,0,0
434,414,0,0,0,0,0,0,0,0,0,-1,1658,610,0,0
441,414,7.84375,0.584412,0,0,0,0,0,0,0,-1,1665,610,7.84379,-0.584394
448,414,7.40808,1.25446,0,0,0,0,0,0,0,-1,1672,610,7.40807,-1.25446
455,414,6.3512,1.73846,0,0,0,0,0,0,0,-1,1679,610,6.3512,-1.73847
462,414,8.18103,3.22113,0,0,0,0,0,0,0,-1,1686,610,8.18108,-3.22112
469,414,8.38513,2.49579,0,0,0,0,0,0,0,-1,1693,610,8.38516,-2.49576
476,414,8.64099,1.71161,0,0,0,0,0,0,0,-1,1700,610,8.64097,-1.71164
483,414,8.62744,0.687622,0,0,0,0,0,0,0,-1,1707,610,8.62749,-0.687615
490,414,8.38831,-0.0302734,0,0,0,0,0,0,0,-1,1714,610,8.38835,0.0302913
497,414,4.71094,-0.110046,0,0,0,0,0,0,0,-1,1721,610,4.71089,0.110024
504,414,7.19568,-1.43835,0,0,0,0,0,0,0,-1,1728,610,7.19563,1.43836
511,414,5.94153,-1.28772,0,0,0,0,0,0,0,-1,1735,610,5.94151,1.28769
518,414,4.53381,-0.0996704,0,0,0,0,0,0,0,-1,1742,610,4.53378,0.0996819
525,414,6.18811,-1.64056,0,0,0,0,0,0,0,-1,1749,610,6.18814,1.64055
532,414,32.4541,-24.196,0,0,0,0,0,0,0,-1,1756,610,32.4541,24.196
539,414,32.5266,-23.1365,0,0,0,0,0,0,0,-1,1763,610,32.5266,23.1365
546,414,32.4452,-22.1566,0.00273674,0.000175852,0.000775034,0.00295303,-4.04385e-05,0.272148,0.00198231,0.0184765,1770,610,32.4453,22.1565
553,414,32.4116,-21.1809,0.00233732,0.000539748,0.000667874,0.0025583,0.000318771,0.31953,0.00160983,0.0141997,1777,610,32.4116,21.1809
560,414,32.3627,-20.2059,0.00192754,0.000856018,0.000627388,0.0022168,0.000566762,0.432004,0.00132983,0.0165053,1784,610,32.3627,20.2059
567,414,32.2992,-19.205,0.00166747,0.0012735,0.000730085,0.00222668,0.000714295,0.653631,0.00131281,0.0257781,1791,610,32.2992,19.205
574,414,32.2285,-18.2398,0.00161562,0.00185266,0.000985055,0.0027263,0.00074198,0.845268,0.00162759,0.0257134,1798,610,32.2285,18.2398
581,414,32.1825,-17.267,0.00173707,0.00254164,0.0014055,0.0036013,0.000677411,0.924782,0.00220994,0.02218,1805,610,32.1825,17.267
588,414,32.1305,-16.3546,0.00205928,0.00349048,0.00199189,0.00489141,0.000658349,0.957848,0.00306515,0.0196316,1812,610,32.1305,16.3546
595,414,32.0486,-15.3162,0.0026302,0.00465279,0.0027909,0.00660997,0.000673024,0.959218,0.00420031,0.0210633,1819,610,32.0486,15.3162
602,414,31.958,-14.313,0.00350447,0.00621444,0.00382785,0.00892005,0.000798867,0.955506,0.00569911,0.0293453,1826,610,31.958,14.3131
609,414,31.9032,-13.2906,0,0,0,0,0,0,0,-1,1833,610,31.9032,13.2907
616,414,32.2426,-11.9026,0,0,0,0,0,0,0,-1,1840,610,32.2425,11.9026
623,414,9.6969,0.0378418,0,0,0,0,0,0,0,-1,1847,610,9.69685,-0.0378644
630,414,5.47144,0.499329,0,0,0,0,0,0,0,-1,1854,610,5.47142,-0.499303
637,414,8.36707,4.16278,0,0,0,0,0,0,0,-1,1861,610,8.36709,-4.16278
644,414,5.87073,1.51422,0,0,0,0,0,0,0,-1,1868,610,5.87076,-1.51424
651,414,3.6377,0.820557,0,0,0,0,0,0,0,-1,1875,610,3.6377,-0.820543
658,414,2.29761,3.87323,0,0,0,0,0,0,0,-1,1882,610,2.29758,-3.87325
665,414,0,0,0,0,0,0,0,0,0,-1,1889,610,0,0
672,414,0,0,0,0,0,0,0,0,0,-1,1896,610,0,0
679,414,0,0,0,0,0,0,0,0,0,-1,1903,610,0,0
686,414,0,0,0,0,0,0,0,0,0,-1,1910,610,0,0
693,414,0,0,0,0,0,0,0,0,0,-1,1917,610,0,0
700,414,0,0,0,0,0,0,0,0,0,-1,1924,610,0,0
707,414,0,0,0,0,0,0,0,0,0,-1,1931,610,0,0
714,414,0,0,0,0,0,0,0,0,0,-1,1938,610,0,0
721,414,0,0,0,0,0,0,0,0,0,-1,1945,610,0,0
728,414,0,0,0,0,0,0,0,0,0,-1,1952,610,0,0
735,414,0,0,0,0,0,0,0,0,0,-1,1959,610,0,0
742,414,0,0,0,0,0,0,0,0,0,-1,1966,610,0,0
749,414,0,0,0,0,0,0,0,0,0,-1,1973,610,0,0
756,414,0,0,0,0,0,0,0,0,0,-1,1980,610,0,0
763,414,0,0,0,0,0,0,0,0,0,-1,1987,610,0,0
770,414,0,0,0,0,0,0,0,0,0,-1,1994,610,0,0
777,414,0,0,0,0,0,0,0,0,0,-1,2001,610,0,0
784,414,0,0,0,0,0,0,0,0,0,-1,2008,610,0,0
791,414,0,0,0,0,0,0,0,0,0,-1,2015,610,0,0
798,414,0,0,0,0,0,0,0,0,0,-1,2022,610,0,0
805,414,0,0,0,0,0,0,0,0,0,-1,2029,610,0,0
812,414,0,0,0,0,0,0,0,0,0,-1,2036,610,0,0
-700,407,0,0,0,0,0,0,0,0,0,-1,524,617,0,0
-693,407,0,0,0,0,0,0,0,0,0,-1,531,617,0,0
-686,407,0,0,0,0,0,0,0,0,0,-1,538,617,0,0
-679,407,0,0,0,0,0,0,0,0,0,-1,545,617,0,0
-672,407,0,0,0,0,0,0,0,0,0,-1,552,617,0,0
-665,407,0,0,0,0,0,0,0,0,0,-1,559,617,0,0
-658,407,0,0,0,0,0,0,0,0,0,-1,566,617,0,0
-651,407,0,0,0,0,0,0,0,0,0,-1,573,617,0,0
-644,407,0,0,0,0,0,0,0,0,0,-1,580,617,0,0
-637,407,0,0,0,0,0,0,0,0,0,-1,587,617,0,0
-630,407,0,0,0,0,0,0,0,0,0,-1,594,617,0,0
-623,407,0,0,0,0,0,0,0,0,0,-1,601,617,0,0
-616,407,0,0,0,0,0,0,0,0,0,-1,608,617,0,0
-609,407,0,0,0,0,0,0,0,0,0,-1,615,617,0,0
-602,407,0,0,0,0,0,0,0,0,0,-1,622,617,0,0
-595,407,0,0,0,0,0,0,0,0,0,-1,629,617,0,0
-588,407,0,0,0,0,0,0,0,0,0,-1,636,617,0,0
-581,407,0,0,0,0,0,0,0,0,0,-1,643,617,0,0
-574,407,0,0,0,0,0,0,0,0,0,-1,650,617,0,0
-567,407,0,0,0,0,0,0,0,0,0,-1,657,617,0,0
-560,407,0,0,0,0,0,0,0,0,0,-1,664,617,0,0
-553,407,0,0,0,0,0,0,0,0,0,-1,671,617,0,0
-546,407,-8.54517,-0.658142,0,0,0,0,0,0,0,-1,678,617,-8.54515,0.658112
-539,407,-6.09442,-1.01154,0,0,0,0,0,0,0,-1,685,617,-6.09441,1.01155
-532,407,-7.75665,1.62152,0,0,0,0,0,0,0,-1,692,617,-7.75667,-1.62154
-525,407,-3.78247,-2.67639,0,0,0,0,0,0,0,-1,699,617,-3.78246,2.67638
-518,407,-5.013,-5.87323,0,0,0,0,0,0,0,-1,706,617,-5.013,5.87324
-511,407,-9.42743,-4.94189,0,0,0,0,0,0,0,-1,713,617,-9.42745,4.94191
-504,407,-10.8291,-8.05927,0,0,0,0,0,0,0,-1,720,617,-10.8291,8.05927
-497,407,-9.84467,-6.81641,0,0,0,0,0,0,0,-1,727,617,-9.84468,6.8164
-490,407,-16.7878,-12.1302,0,0,0,0,0,0,0,-1,734,617,-16.7878,12.1303
-483,407,-16.6906,-13.4379,-0.00267251,0.0017829,0.00165534,0.00233059,-0.0032202,1.25127,0.00321844,0.0332582,741,617,-16.6906,13.4379
-476,407,-16.7922,-14.4083,-0.00220456,0.00153451,0.00118914,0.00188065,-0.0025507,1.28754,0.00256817,0.0171288,748,617,-16.7922,14.4083
-469,407,-16.8758,-15.3798,-0.00156189,0.00121551,0.000760377,0.00141005,-0.00175643,1.32032,0.00183181,0.0139153,755,617,-16.8758,15.3798
-462,407,-16.9623,-16.3831,-0.000797964,0.000878095,0.000361533,0.000952754,-0.000872623,1.36715,0.00105422,0.0222308,762,617,-16.9623,16.3831
-455,407,-17.0583,-17.4166,-1.342e-05,0.000657633,-3.89139e-05,0.000659882,-1.5669e-05,-1.51306,0.000445236,0.0246485,769,617,-17.0583,17.4165
-448,407,-17.0569,-18.4159,0.00080598,0.000498538,-0.000429687,0.00110862,0.000195902,-0.613616,0.000683204,0.0222333,776,617,-17.0569,18.4159
-441,407,-17.1132,-19.3774,0.00164753,0.000486308,-0.000840464,0.00208843,4.54051e-05,-0.483129,0.0013774,0.016346,783,617,-17.1131,19.3775
-434,407,-17.2216,-20.3402,0.00248038,0.000594497,-0.0012529,0.00310552,-3.06456e-05,-0.462814,0.00208064,0.0116164,790,617,-17.2216,20.3402
-427,407,-17.2711,-21.3254,0.00332422,0.000927229,-0.00176837,0.00426197,-1.05205e-05,-0.487584,0.00284483,0.0125199,797,617,-17.2711,21.3254
-420,407,-17.2982,-22.3019,0.004052,0.00139545,-0.00224372,0.00533114,0.000116315,-0.518142,0.00351596,0.0119946,804,617,-17.2982,22.3019
-413,407,-17.3375,-23.2783,0.00474609,0.00218587,-0.00276646,0.00651426,0.0004177,-0.568705,0.00421052,0.0206204,811,617,-17.3375,23.2782
-406,407,-17.3332,-24.2817,0,0,0,0,0,0,0,-1,818,617,-17.3332,24.2817
-399,407,-16.5686,-23.1791,0,0,0,0,0,0,0,-1,825,617,-16.5686,23.1791
-392,407,-8.33612,-12.195,0,0,0,0,0,0,0,-1,832,617,-8.33611,12.195
-385,407,-7.65765,-10.7744,0,0,0,0,0,0,0,-1,839,617,-7.65767,10.7744
-378,407,-6.08655,-7.42291,0,0,0,0,0,0,0,-1,846,617,-6.08652,7.42292
-371,407,-7.4007,-5.79449,0,0,0,0,0,0,0,-1,853,617,-7.40072,5.79447
-364,407,-10.0638,-6.6228,0,0,0,0,0,0,0,-1,860,617,-10.0639,6.62279
-357,407,-6.64447,-1.83337,0,0,0,0,0,0,0,-1,867,617,-6.64446,1.8334
-350,407,-7.03351,-1.77551,0,0,0,0,0,0,0,-1,874,617,-7.03349,1.77551
-343,407,-7.40967,-1.95026,0,0,0,0,0,0,0,-1,881,617,-7.40969,1.95026
-336,407,-8.10229,-2.40662,0,0,0,0,0,0,0,-1,888,617,-8.10229,2.40664
-329,407,-8.81232,-2.76331,0,0,0,0,0,0,0,-1,895,617,-8.81235,2.76331
-322,407,0,0,0,0,0,0,0,0,0,-1,902,617,0,0
-315,407,0,0,0,0,0,0,0,0,0,-1,909,617,0,0
-308,407,0,0,0,0,0,0,0,0,0,-1,916,617,0,0
-301,407,0,0,0,0,0,0,0,0,0,-1,923,617,0,0
-294,407,0,0,0,0,0,0,0,0,0,-1,930,617,0,0
-287,407,0,0,0,0,0,0,0,0,0,-1,937,617,0,0
-280,407,0,0,0,0,0,0,0,0,0,-1,944,617,0,0
-273,407,0,0,0,0,0,0,0,0,0,-1,951,617,0,0
-266,407,0,0,0,0,0,0,0,0,0,-1,958,617,0,0
-259,407,0,0,0,0,0,0,0,0,0,-1,965,617,0,0
-252,407,0,0,0,0,0,0,0,0,0,-1,972,617,0,0
-245,407,0,0,0,0,0,0,0,0,0,-1,979,617,0,0
-238,407,0,0,0,0,0,0,0,0,0,-1,986,617,0,0
-231,407,0,0,0,0,0,0,0,0,0,-1,993,617,0,0
-224,407,0,0,0,0,0,0,0,0,0,-1,1000,617,0,0
-217,407,0,0,0,0,0,0,0,0,0,-1,1007,617,0,0
-210,407,0,0,0,0,0,0,0,0,0,-1,1014,617,0,0
-203,407,0,0,0,0,0,0,0,0,0,-1,1021,617,0,0
-196,407,0,0,0,0,0,0,0,0,0,-1,1028,617,0,0
-189,407,0,0,0,0,0,0,0,0,0,-1,1035,617,0,0
-182,407,0,0,0,0,0,0,0,0,0,-1,1042,617,0,0
-175,407,0,0,0,0,0,0,0,0,0,-1,1049,617,0,0
-168,407,0,0,0,0,0,0,0,0,0,-1,1056,617,0,0
-161,407,0,0,0,0,0,0,0,0,0,-1,1063,617,0,0
-154,407,0,0,0,0,0,0,0,0,0,-1,1070,617,0,0
-147,407,0,0,0,0,0,0,0,0,0,-1,1077,617,0,0
-140,407,0,0,0,0,0,0,0,0,0,-1,1084,617,0,0
-133,407,0,0,0,0,0,0,0,0,0,-1,1091,617,0,0
-126,407,0,0,0,0,0,0,0,0,0,-1,1098,617,0,0
-119,407,0,0,0,0,0,0,0,0,0,-1,1105,617,0,0
-112,407,0,0,0,0,0,0,0,0,0,-1,1112,617,0,0
-105,407,0,0,0,0,0,0,0,0,0,-1,1119,617,0,0
-98,407,0,0,0,0,0,0,0,0,0,-1,1126,617,0,0
-91,407,0,0,0,0,0,0,0,0,0,-1,1133,617,0,0
-84,407,0,0,0,0,0,0,0,0,0,-1,1140,617,0,0
-77,407,0,0,0,0,0,0,0,0,0,-1,1147,617,0,0
-70,407,0,0,0,0,0,0,0,0,0,-1,1154,617,0,0
-63,407,0,0,0,0,0,0,0,0,0,-1,1161,617,0,0
-56,407,0,0,0,0,0,0,0,0,0,-1,1168,617,0,0
-49,407,0,0,0,0,0,0,0,0,0,-1,1175,617,0,0
-42,407,0,0,0,0,0,0,0,0,0,-1,1182,617,0,0
-35,407,0,0,0,0,0,0,0,0,0,-1,1189,617,0,0
-28,407,0,0,0,0,0,0,0,0,0,-1,1196,617,0,0
-21,407,0,0,0,0,0,0,0,0,0,-1,1203,617,0,0
-14,407,0,0,0,0,0,0,0,0,0,-1,1210,617,0,0
-7,407,0,0,0,0,0,0,0,0,0,-1,1217,617,0,0
0,407,0,0,0,0,0,0,0,0,0,-1,1224,617,0,0
7,407,0,0,0,0,0,0,0,0,0,-1,1231,617,0,0
14,407,0,0,0,0,0,0,0,0,0,-1,1238,617,0,0
21,407,0,0,0,0,0,0,0,0,0,-1,1245,617,0,0
28,407,0,0,0,0,0,0,0,0,0,-1,1252,617,0,0
35,407,0,0,0,0,0,0,0,0,0,-1,1259,617,0,0
42,407,0,0,0,0,0,0,0,0,0,-1,1266,617,0,0
49,407,0,0,0,0,0,0,0,0,0,-1,1273,617,0,0
56,407,0,0,0,0,0,0,0,0,0,-1,1280,617,0,0
63,407,0,0,0,0,0,0,0,0,0,-1,1287,617,0,0
70,407,0,0,0,0,0,0,0,0,0,-1,1294,617,0,0
77,407,0,0,0,0,0,0,0,0,0,-1,1301,617,0,0
84,407,0,0,0,0,0,0,0,0,0,-1,1308,617,0,0
91,407,0,0,0,0,0,0,0,0,0,-1,1315,617,0,0
98,407,0,0,0,0,0,0,0,0,0,-1,1322,617,0,0
105,407,0,0,0,0,0,0,0,0,0,-1,1329,617,0,0
112,407,0,0,0,0,0,0,0,0,0,-1,1336,617,0,0
119,407,0,0,0,0,0,0,0,0,0,-1,1343,617,0,0
126,407,0,0,0,0,0,0,0,0,0,-1,1350,617,0,0
133,407,0,0,0,0,0,0,0,0,0,-1,1357,617,0,0
140,407,0,0,0,0,0,0,0,0,0,-1,1364,617,0,0
147,407,0,0,0,0,0,0,0,0,0,-1,1371,617,0,0
154,407,0,0,0,0,0,0,0,0,0,-1,1378,617,0,0
161,407,0,0,0,0,0,0,0,0,0,-1,1385,617,0,0
168,407,0,0,0,0,0,0,0,0,0,-1,1392,617,0,0
175,407,0,0,0,0,0,0,0,0,0,-1,1399,617,0,0
182,407,0,0,0,0,0,0,0,0,0,-1,1406,617,0,0
189,407,0,0,0,0,0,0,0,0,0,-1,1413,617,0,0
196,407,0,0,0,0,0,0,0,0,0,-1,1420,617,0,0
203,407,0,0,0,0,0,0,0,0,0,-1,1427,617,0,0
210,407,0,0,0,0,0,0,0,0,0,-1,1434,617,0,0
217,407,0,0,0,0,0,0,0,0,0,-1,1441,617,0,0
224,407,0,0,0,0,0,0,0,0,0,-1,1448,617,0,0
231,407,0,0,0,0,0,0,0,0,0,-1,1455,617,0,0
238,407,0,0,0,0,0,0,0,0,0,-1,1462,617,0,0
245,407,0,0,0,0,0,0,0,0,0,-1,1469,617,0,0
252,407,0,0,0,0,0,0,0,0,0,-1,1476,617,0,0
259,407,0,0,0,0,0,0,0,0,0,-1,1483,617,0,0
266,407,0,0,0,0,0,0,0,0,0,-1,1490,617,0,0
273,407,0,0,0,0,0,0,0,0,0,-1,1497,617,0,0
280,407,0,0,0,0,0,0,0,0,0,-1,1504,617,0,0
287,407,0,0,0,0,0,0,0,0,0,-1,1511,617,0,0
294,407,0,0,0,0,0,0,0,0,0,-1,1518,617,0,0
301,407,0,0,0,0,0,0,0,0,0,-1,1525,617,0,0
308,407,0,0,0,0,0,0,0,0,0,-1,1532,617,0,0
315,407,0,0,0,0,0,0,0,0,0,-1,1539,617,0,0
322,407,0,0,0,0,0,0,0,0,0,-1,1546,617,0,0
329,407,0,0,0,0,0,0,0,0,0,-1,1553,617,0,0
336,407,0,0,0,0,0,0,0,0,0,-1,1560,617,0,0
343,407,0,0,0,0,0,0,0,0,0,-1,1567,617,0,0
350,407,0,0,0,0,0,0,0,0,0,-1,1574,617,0,0
357,407,0,0,0,0,0,0,0,0,0,-1,1581,617,0,0
364,407,0,0,0,0,0,0,0,0,0,-1,1588,617,0,0
371,407,0,0,0,0,0,0,0,0,0,-1,1595,617,0,0
378,407,0,0,0,0,0,0,0,0,0,-1,1602,617,0,0
385,407,0,0,0,0,0,0,0,0,0,-1,1609,617,0,0
392,407,0,0,0,0,0,0,0,0,0,-1,1616,617,0,0
399,407,0,0,0,0,0,0,0,0,0,-1,1623,617,0,0
406,407,0,0,0,0,0,0,0,0,0,-1,1630,617,0,0
413,407,0,0,0,0,0,0,0,0,0,-1,1637,617,0,0
420,407,0,0,0,0,0,0,0,0,0,-1,1644,617,0,0
427,407,0,0,0,0,0,0,0,0,0,-1,1651,617,0,0
434,407,0,0,0,0,0,0,0,0,0,-1,1658,617,0,0
441,407,0,0,0,0,0,0,0,0,0,-1,1665,617,0,0
448,407,7.02893,2.13843,0,0,0,0,0,0,0,-1,1672,617,7.02899,-2.13844
455,407,7.55237,2.29242,0,0,0,0,0,0,0,-1,1679,617,7.55236,-2.29244
462,407,8.2926,2.46173,0,0,0,0,0,0,0,-1,1686,617,8.29261,-2.46174
469,407,8.71509,2.22681,0,0,0,0,0,0,0,-1,1693,617,8.71511,-2.22681
476,407,8.89917,1.47766,0,0,0,0,0,0,0,-1,1700,617,8.89914,-1.47768
483,407,9.02612,0.682983,0,0,0,0,0,0,0,-1,1707,617,9.02608,-0.683004
490,407,9.12659,0.000671387,0,0,0,0,0,0,0,-1,1714,617,9.12653,-0.000675931
497,407,7.76819,0.855835,0,0,0,0,0,0,0,-1,1721,617,7.7682,-0.855865
504,407,4.69336,0.160706,0,0,0,0,0,0,0,-1,1728,617,4.69337,-0.1607
511,407,4.07104,-0.00140381,0,0,0,0,0,0,0,-1,1735,617,4.07109,0.00141425
518,407,6.09534,1.9411,0,0,0,0,0,0,0,-1,1742,617,6.09532,-1.94113
525,407,5.72534,-1.35986,0,0,0,0,0,0,0,-1,1749,617,5.72529,1.35988
532,407,18.5767,-10.6388,0,0,0,0,0,0,0,-1,1756,617,18.5766,10.6388
539,407,33.3691,-23.222,0,0,0,0,0,0,0,-1,1763,617,33.3692,23.222
546,407,33.4438,-22.1255,0.00298396,0.000394894,0.00100296,0.00332703,5.18243e-05,0.329582,0.00220095,0.0301652,1770,617,33.4439,22.1256
553,407,33.3682,-21.1508,0.00255564,0.000584244,0.000786591,0.00283103,0.000308861,0.336761,0.00179328,0.0177683,1777,617,33.3682,21.1508
560,407,33.3556,-20.1586,0.00209493,0.000698107,0.00062727,0.00233527,0.000457772,0.365892,0.00142891,0.0195148,1784,617,33.3556,20.1586
567,407,33.2616,-19.1894,0.00174127,0.000877094,0.000593201,0.00204307,0.000575297,0.470631,0.0012165,0.0332632,1791,617,33.2616,19.1894
574,407,33.2052,-18.2148,0.00163364,0.0013047,0.000767646,0.00225424,0.000684102,0.679868,0.00133457,0.0289437,1798,617,33.2052,18.2148
581,407,33.1414,-17.1747,0.00171243,0.00186761,0.00111819,0.00291091,0.000669139,0.820037,0.00176047,0.0198714,1805,617,33.1414,17.1747
588,407,33.0623,-16.254,0.00200744,0.00269151,0.00162907,0.00401406,0.000684891,0.888873,0.00247948,0.0154164,1812,617,33.0623,16.2539
595,407,33.0496,-15.2867,0.00255917,0.00369517,0.00234472,0.0055397,0.000714635,0.904232,0.00347947,0.0303777,1819,617,33.0495,15.2867
602,407,32.9839,-14.1962,0.003402,0.00501684,0.00327275,0.00758029,0.000838546,0.906338,0.0047985,0.0235884,1826,617,32.9839,14.1962
609,407,32.829,-13.1862,0.00470948,0.00668325,0.00451261,0.0103156,0.00107711,0.89305,0.00654765,0.0226331,1833,617,32.829,13.1862
616,407,32.8779,-12.0127,0.00646828,0.00873357,0.00602538,0.0137318,0.00147001,0.878304,0.00870602,0.0421386,1840,617,32.8779,12.0127
623,407,33.1943,-10.6796,0,0,0,0,0,0,0,-1,1847,617,33.1944,10.6796
630,407,7.06177,0.814575,0,0,0,0,0,0,0,-1,1854,617,7.06178,-0.814579
637,407,11.1063,0.391846,0,0,0,0,0,0,0,-1,1861,617,11.1063,-0.391862
644,407,5.09766,2.27747,0,0,0,0,0,0,0,-1,1868,617,5.09764,-2.27746
651,407,7.37524,0.0513916,0,0,0,0,0,0,0,-1,1875,617,7.3752,-0.0513923
658,407,3.76685,0.594177,0,0,0,0,0,0,0,-1,1882,617,3.76683,-0.594184
665,407,5.76123,0.375061,0,0,0,0,0,0,0,-1,1889,617,5.76118,-0.37509
672,407,0,0,0,0,0,0,0,0,0,-1,1896,617,0,0
679,407,0,0,0,0,0,0,0,0,0,-1,1903,617,0,0
686,407,0,0,0,0,0,0,0,0,0,-1,1910,617,0,0
693,407,0,0,0,0,0,0,0,0,0,-1,1917,617,0,0
700,407,0,0,0,0,0,0,0,0,0,-1,1924,617,0,0
707,407,0,0,0,0,0,0,0,0,0,-1,1931,617,0,0
714,407,0,0,0,0,0,0,0,0,0,-1,1938,617,0,0
721,407,0,0,0,0,0,0,0,0,0,-1,1945,617,0,0
728,407,0,0,0,0,0,0,0,0,0,-1,1952,617,0,0
735,407,0,0,0,0,0,0,0,0,0,-1,1959,617,0,0
742,407,0,0,0,0,0,0,0,0,0,-1,1966,617,0,0
749,407,0,0,0,0,0,0,0,0,0,-1,1973,617,0,0
756,407,0,0,0,0,0,0,0,0,0,-1,1980,617,0,0
763,407,0,0,0,0,0,0,0,0,0,-1,1987,617,0,0
770,407,0,0,0,0,0,0,0,0,0,-1,1994,617,0,0
777,407,0,0,0,0,0,0,0,0,0,-1,2001,617,0,0
784,407,0,0,0,0,0,0,0,0,0,-1,2008,617,0,0
791,407,0,0,0,0,0,0,0,0,0,-1,2015,617,0,0
798,407,0,0,0,0,0,0,0,0,0,-1,2022,617,0,0
805,407,0,0,0,0,0,0,0,0,0,-1,2029,617,0,0
812,407,0,0,0,0,0,0,0,0,0,-1,2036,617,0,0
-700,400,0,0,0,0,0,0,0,0,0,-1,524,624,0,0
-693,400,0,0,0,0,0,0,0,0,0,-1,531,624,0,0
-686,400,0,0,0,0,0,0,0,0,0,-1,538,624,0,0
-679,400,0,0,0,0,0,0,0,0,0,-1,545,624,0,0
-672,400,0,0,0,0,0,0,0,0,0,-1,552,624,0,0
-665,400,0,0,0,0,0,0,0,0,0,-1,559,624,0,0
-658,400,0,0,0,0,0,0,0,0,0,-1,566,624,0,0
-651,400,0,0,0,0,0,0,0,0,0,-1,573,624,0,0
-644,400,0,0,0,0,0,0,0,0,0,-1,580,624,0,0
-637,400,0,0,0,0,0,0,0,0,0,-1,587,624,0,0
-630,400,0,0,0,0,0,0,0,0,0,-1,594,624,0,0
-623,400,0,0,0,0,0,0,0,0,0,-1,601,624,0,0
-616,400,0,0,0,0,0,0,0,0,0,-1,608,624,0,0
-609,400,0,0,0,0,0,0,0,0,0,-1,615,624,0,0
-602,400,0,0,0,0,0,0,0,0,0,-1,622,624,0,0
-595,400,0,0,0,0,0,0,0,0,0,-1,629,624,0,0
-588,400,0,0,0,0,0,0,0,0,0,-1,636,624,0,0
-581,400,0,0,0,0,0,0,0,0,0,-1,643,624,0,0
-574,400,0,0,0,0,0,0,0,0,0,-1,650,624,0,0
-567,400,0,0,0,0,0,0,0,0,0,-1,657,624,0,0
-560,400,0,0,0,0,0,0,0,0,0,-1,664,624,0,0
-553,400,0,0,0,0,0,0,0,0,0,-1,671,624,0,0
-546,400,-8.41174,-1.4599,0,0,0,0,0,0,0,-1,678,624,-8.41173,1.45989
-539,400,-5.69104,-1.7337,0,0,0,0,0,0,0,-1,685,624,-5.69103,1.7337
-532,400,-3.03632,-2.03912,0,0,0,0,0,0,0,-1,692,624,-3.03632,2.03909
-525,400,-6.20813,-7.04071,0,0,0,0,0,0,0,-1,699,624,-6.20814,7.04071
-518,400,-5.26544,-1.58661,0,0,0,0,0,0,0,-1,706,624,-5.26544,1.58658
-511,400,-10.6307,-6.7121,0,0,0,0,0,0,0,-1,713,624,-10.6307,6.71209
-504,400,-10.2663,-6.55109,0,0,0,0,0,0,0,-1,720,624,-10.2663,6.55106
-497,400,-17.9114,-11.0878,0,0,0,0,0,0,0,-1,727,624,-17.9113,11.0877
-490,400,-17.6804,-12.2371,-0.00169746,0.00143329,0.00133888,0.00192777,-0.00219194,1.21701,0.00238014,0.0454476,734,624,-17.6804,12.2371
-483,400,-17.7208,-13.34,-0.00149214,0.00118575,0.00101775,0.00152865,-0.00183504,1.24583,0.00194471,0.0181633,741,624,-17.7207,13.34
-476,400,-17.7866,-14.3128,-0.00117926,0.000992259,0.000698643,0.00119761,-0.00138461,1.28491,0.00149215,0.0156777,748,624,-17.7866,14.3128
-469,400,-17.8508,-15.3217,-0.000676702,0.00074517,0.000378081,0.000839452,-0.000770983,1.32641,0.000930065,0.0155904,755,624,-17.8508,15.3217
-462,400,-17.9224,-16.3596,-4.59516e-05,0.000473417,5.72332e-05,0.000479649,-5.21838e-05,1.46233,0.000338504,0.0206965,762,624,-17.9224,16.3596
-455,400,-17.9723,-17.3375,0.000659559,0.000366862,-0.000318019,0.000863287,0.000163134,-0.569751,0.000529589,0.0223078,769,624,-17.9723,17.3375
-448,400,-18.0313,-18.3217,0.00144074,0.000274907,-0.000695145,0.00176502,-4.93807e-05,-0.436493,0.00119348,0.0172668,776,624,-18.0313,18.3217
-441,400,-18.1116,-19.267,0.0022906,0.000336896,-0.00112532,0.00280391,-0.000176411,-0.427953,0.00193076,0.0155758,783,624,-18.1117,19.267
-434,400,-18.1965,-20.2307,0.00321321,0.000558818,-0.00160935,0.00397202,-0.000199998,-0.440593,0.00271714,0.0127614,790,624,-18.1965,20.2307
-427,400,-18.2625,-21.2042,0.00417815,0.000993781,-0.00220563,0.00530623,-0.0001343,-0.47277,0.00358309,0.0113269,797,624,-18.2624,21.2042
-420,400,-18.2177,-22.2457,0.00499401,0.00156809,-0.00275323,0.00652366,3.8438e-05,-0.50712,0.00433635,0.0256793,804,624,-18.2176,22.2457
-413,400,-18.2051,-23.1678,0,0,0,0,0,0,0,-1,811,624,-18.2051,23.1678
-406,400,-18.7042,-23.7028,0,0,0,0,0,0,0,-1,818,624,-18.7042,23.7028
-399,400,-11.0176,-13.2944,0,0,0,0,0,0,0,-1,825,624,-11.0176,13.2944
-392,400,-4.92285,-6.63354,0,0,0,0,0,0,0,-1,832,624,-4.92285,6.63354
-385,400,-3.68738,-5.04205,0,0,0,0,0,0,0,-1,839,624,-3.68736,5.04207
-378,400,-6.84064,-1.28662,0,0,0,0,0,0,0,-1,846,624,-6.84062,1.28662
-371,400,-6.98865,-1.2572,0,0,0,0,0,0,0,-1,853,624,-6.98865,1.25721
-364,400,-6.97247,-1.24133,0,0,0,0,0,0,0,-1,860,624,-6.97249,1.24135
-357,400,-7.18329,-1.23218,0,0,0,0,0,0,0,-1,867,624,-7.18327,1.2322
-350,400,-7.40186,-1.19409,0,0,0,0,0,0,0,-1,874,624,-7.40187,1.19407
-343,400,-8.09357,-1.51147,0,0,0,0,0,0,0,-1,881,624,-8.09355,1.51148
-336,400,0,0,0,0,0,0,0,0,0,-1,888,624,0,0
-329,400,0,0,0,0,0,0,0,0,0,-1,895,624,0,0
-322,400,0,0,0,0,0,0,0,0,0,-1,902,624,0,0
-315,400,0,0,0,0,0,0,0,0,0,-1,909,624,0,0
-308,400,0,0,0,0,0,0,0,0,0,-1,916,624,0,0
-301,400,0,0,0,0,0,0,0,0,0,-1,923,624,0,0
-294,400,0,0,0,0,0,0,0,0,0,-1,930,624,0,0
-287,400,0,0,0,0,0,0,0,0,0,-1,937,624,0,0
-280,400,0,0,0,0,0,0,0,0,0,-1,944,624,0,0
-273,400,0,0,0,0,0,0,0,0,0,-1,951,624,0,0
-266,400,0,0,0,0,0,0,0,0,0,-1,958,624,0,0
-259,400,0,0,0,0,0,0,0,0,0,-1,965,624,0,0
-252,400,0,0,0,0,0,0,0,0,0,-1,972,624,0,0
-245,400,0,0,0,0,0,0,0,0,0,-1,979,624,0,0
-238,400,0,0,0,0,0,0,0,0,0,-1,986,624,0,0
-231,400,0,0,0,0,0,0,0,0,0,-1,993,624,0,0
-224,400,0,0,0,0,0,0,0,0,0,-1,1000,624,0,0
-217,400,0,0,0,0,0,0,0,0,0,-1,1007,624,0,0
-210,400,0,0,0,0,0,0,0,0,0,-1,1014,624,0,0
-203,400,0,0,0,0,0,0,0,0,0,-1,1021,624,0,0
-196,400,0,0,0,0,0,0,0,0,0,-1,1028,624,0,0
-189,400,0,0,0,0,0,0,0,0,0,-1,1035,624,0,0
-182,400,0,0,0,0,0,0,0,0,0,-1,1042,624,0,0
-175,400,0,0,0,0,0,0,0,0,0,-1,1049,624,0,0
-168,400,0,0,0,0,0,0,0,0,0,-1,1056,624,0,0
-161,400,0,0,0,0,0,0,0,0,0,-1,1063,624,0,0
-154,400,0,0,0,0,0,0,0,0,0,-1,1070,624,0,0
-147,400,0,0,0,0,0,0,0,0,0,-1,1077,624,0,0
-140,400,0,0,0,0,0,0,0,0,0,-1,1084,624,0,0
-133,400,0,0,0,0,0,0,0,0,0,-1,1091,624,0,0
-126,400,0,0,0,0,0,0,0,0,0,-1,1098,624,0,0
-119,400,0,0,0,0,0,0,0,0,0,-1,1105,624,0,0
-112,400,0,0,0,0,0,0,0,0,0,-1,1112,624,0,0
-105,400,0,0,0,0,0,0,0,0,0,-1,1119,624,0,0
-98,400,0,0,0,0,0,0,0,0,0,-1,1126,624,0,0
-91,400,0,0,0,0,0,0,0,0,0,-1,1133,624,0,0
-84,400,0,0,0,0,0,0,0,0,0,-1,1140,624,0,0
-77,400,0,0,0,0,0,0,0,0,0,-1,1147,624,0,0
-70,400,0,0,0,0,0,0,0,0,0,-1,1154,624,0,0
-63,400,0,0,0,0,0,0,0,0,0,-1,1161,624,0,0
-56,400,0,0,0,0,0,0,0,0,0,-1,1168,624,0,0
-49,400,0,0,0,0,0,0,0,0,0,-1,1175,624,0,0
-42,400,0,0,0,0,0,0,0,0,0,-1,1182,624,0,0
-35,400,0,0,0,0,0,0,0,0,0,-1,1189,624,0,0
-28,400,0,0,0,0,0,0,0,0,0,-1,1196,624,0,0
-21,400,0,0,0,0,0,0,0,0,0,-1,1203,624,0,0
-14,400,0,0,0,0,0,0,0,0,0,-1,1210,624,0,0
-7,400,0,0,0,0,0,0,0,0,0,-1,1217,624,0,0
0,400,0,0,0,0,0,0,0,0,0,-1,1224,624,0,0
7,400,0,0,0,0,0,0,0,0,0,-1,1231,624,0,0
14,400,0,0,0,0,0,0,0,0,0,-1,1238,624,0,0
21,400,0,0,0,0,0,0,0,0,0,-1,1245,624,0,0
28,400,0,0,0,0,0,0,0,0,0,-1,1252,624,0,0
35,400,0,0,0,0,0,0,0,0,0,-1,1259,624,0,0
42,400,0,0,0,0,0,0,0,0,0,-1,1266,624,0,0
49,400,0,0,0,0,0,0,0,0,0,-1,1273,624,0,0
56,400,0,0,0,0,0,0,0,0,0,-1,1280,624,0,0
63,400,0,0,0,0,0,0,0,0,0,-1,1287,624,0,0
70,400,0,0,0,0,0,0,0,0,0,-1,1294,624,0,0
77,400,0,0,0,0,0,0,0,0,0,-1,1301,624,0,0
84,400,0,0,0,0,0,0,0,0,0,-1,1308,624,0,0
91,400,0,0,0,0,0,0,0,0,0,-1,1315,624,0,0
98,400,0,0,0,0,0,0,0,0,0,-1,1322,624,0,0
105,400,0,0,0,0,0,0,0,0,0,-1,1329,624,0,0
112,400,0,0,0,0,0,0,0,0,0,-1,1336,624,0,0
119,400,0,0,0,0,0,0,0,0,0,-1,1343,624,0,0
126,400,0,0,0,0,0,0,0,0,0,-1,1350,624,0,0
133,400,0,0,0,0,0,0,0,0,0,-1,1357,624,0,0
140,400,0,0,0,0,0,0,0,0,0,-1,1364,624,0,0
147,400,0,0,0,0,0,0,0,0,0,-1,1371,624,0,0
154,400,0,0,0,0,0,0,0,0,0,-1,1378,624,0,0
161,400,0,0,0,0,0,0,0,0,0,-1,1385,624,0,0
168,400,0,0,0,0,0,0,0,0,0,-1,1392,624,0,0
175,400,0,0,0,0,0,0,0,0,0,-1,1399,624,0,0
182,400,0,0,0,0,0,0,0,0,0,-1,1406,624,0,0
189,400,0,0,0,0,0,0,0,0,0,-1,1413,624,0,0
196,400,0,0,0,0,0,0,0,0,0,-1,1420,624,0,0
203,400,0,0,0,0,0,0,0,0,0,-1,1427,624,0,0
210,400,0,0,0,0,0,0,0,0,0,-1,1434,624,0,0
217,400,0,0,0,0,0,0,0,0,0,-1,1441,624,0,0
224,400,0,0,0,0,0,0,0,0,0,-1,1448,624,0,0
231,400,0,0,0,0,0,0,0,0,0,-1,1455,624,0,0
238,400,0,0,0,0,0,0,0,0,0,-1,1462,624,0,0
245,400,0,0,0,0,0,0,0,0,0,-1,1469,624,0,0
252,400,0,0,0,0,0,0,0,0,0,-1,1476,624,0,0
259,400,0,0,0,0,0,0,0,0,0,-1,1483,624,0,0
266,400,0,0,0,0,0,0,0,0,0,-1,1490,624,0,0
273,400,0,0,0,0,0,0,0,0,0,-1,1497,624,0,0
280,400,0,0,0,0,0,0,0,0,0,-1,1504,624,0,0
287,400,0,0,0,0,0,0,0,0,0,-1,1511,624,0,0
294,400,0,0,0,0,0,0,0,0,0,-1,1518,624,0,0
301,400,0,0,0,0,0,0,0,0,0,-1,1525,624,0,0
308,400,0,0,0,0,0,0,0,0,0,-1,1532,624,0,0
315,400,0,0,0,0,0,0,0,0,0,-1,1539,624,0,0
322,400,0,0,0,0,0,0,0,0,0,-1,1546,624,0,0
329,400,0,0,0,0,0,0,0,0,0,-1,1553,624,0,0
336,400,0,0,0,0,0,0,0,0,0,-1,1560,624,0,0
343,400,0,0,0,0,0,0,0,0,0,-1,1567,624,0,0
350,400,0,0,0,0,0,0,0,0,0,-1,1574,624,0,0
357,400,0,0,0,0,0,0,0,0,0,-1,1581,624,0,0
364,400,0,0,0,0,0,0,0,0,0,-1,1588,624,0,0
371,400,0,0,0,0,0,0,0,0,0,-1,1595,624,0,0
378,400,0,0,0,0,0,0,0,0,0,-1,1602,624,0,0
385,400,0,0,0,0,0,0,0,0,0,-1,1609,624,0,0
392,400,0,0,0,0,0,0,0,0,0,-1,1616,624,0,0
399,400,0,0,0,0,0,0,0,0,0,-1,1623,624,0,0
406,400,0,0,0,0,0,0,0,0,0,-1,1630,624,0,0
413,400,0,0,0,0,0,0,0,0,0,-1,1637,624,0,0
420,400,0,0,0,0,0,0,0,0,0,-1,1644,624,0,0
427,400,0,0,0,0,0,0,0,0,0,-1,1651,624,0,0
434,400,0,0,0,0,0,0,0,0,0,-1,1658,624,0,0
441,400,0,0,0,0,0,0,0,0,0,-1,1665,624,0,0
448,400,0,0,0,0,0,0,0,0,0,-1,1672,624,0,0
455,400,8.91309,2.75885,0,0,0,0,0,0,0,-1,1679,624,8.91312,-2.75885
462,400,8.90356,2.37878,0,0,0,0,0,0,0,-1,1686,624,8.90353,-2.37878
469,400,9.14429,1.76849,0,0,0,0,0,0,0,-1,1693,624,9.14432,-1.76847
476,400,9.23254,1.25995,0,0,0,0,0,0,0,-1,1700,624,9.23252,-1.25994
483,400,9.59766,0.562439,0,0,0,0,0,0,0,-1,1707,624,9.59771,-0.56242
490,400,9.92578,-0.213745,0,0,0,0,0,0,0,-1,1714,624,9.92579,0.21376
497,400,9.19141,0.175232,0,0,0,0,0,0,0,-1,1721,624,9.19138,-0.175209
504,400,9.23438,0.00823975,0,0,0,0,0,0,0,-1,1728,624,9.23436,-0.00823766
511,400,6.16687,3.3501,0,0,0,0,0,0,0,-1,1735,624,6.16682,-3.35007
518,400,6.55237,1.74994,0,0,0,0,0,0,0,-1,1742,624,6.55236,-1.74993
525,400,6.99731,1.08783,0,0,0,0,0,0,0,-1,1749,624,6.99736,-1.08785
532,400,6.96582,-1.74982,0,0,0,0,0,0,0,-1,1756,624,6.96585,1.74983
539,400,21.2305,-10.5841,0,0,0,0,0,0,0,-1,1763,624,21.2304,10.5841
546,400,34.0796,-22.3718,0,0,0,0,0,0,0,-1,1770,624,34.0796,22.3718
553,400,34.2538,-21.1194,0.00290133,0.000669981,0.000849058,0.00318766,0.000383647,0.32526,0.00200947,0.0457475,1777,624,34.2538,21.1194
560,400,34.3142,-20.0883,0.00233937,0.000624362,0.00059159,0.00252364,0.000440092,0.301957,0.0015566,0.0178778,1784,624,34.3142,20.0883
567,400,34.2683,-19.1021,0.00180153,0.000586847,0.000422139,0.00193383,0.00045455,0.303702,0.00116758,0.0197193,1791,624,34.2684,19.1021
574,400,34.1959,-18.0989,0.00156168,0.000891372,0.000526265,0.00185045,0.000602601,0.501859,0.00108979,0.0211672,1798,624,34.1959,18.0989
581,400,34.0968,-17.1219,0.00153999,0.00134987,0.000816286,0.00226673,0.000623128,0.727432,0.00135218,0.0231519,1805,624,34.0968,17.122
588,400,33.9856,-16.0907,0.0017657,0.00204737,0.00126947,0.00318379,0.000629275,0.840641,0.00194697,0.0217776,1812,624,33.9856,16.0907
595,400,33.9894,-15.1237,0.00225527,0.00289465,0.00191752,0.00451895,0.000630967,0.867999,0.00282589,0.0205445,1819,624,33.9894,15.1237
602,400,33.9521,-14.155,0.00301004,0.00398561,0.00275351,0.00629421,0.000701443,0.873064,0.00398297,0.0183761,1826,624,33.9522,14.155
609,400,33.7827,-13.1637,0.00410531,0.00533128,0.00380593,0.00857327,0.000863322,0.865243,0.00545058,0.0170449,1833,624,33.7827,13.1637
616,400,33.7386,-12.1633,0.00558641,0.00697117,0.005085,0.0114107,0.00114687,0.853063,0.00725513,0.0203304,1840,624,33.7386,12.1633
623,400,33.8969,-10.8145,0,0,0,0,0,0,0,-1,1847,624,33.8968,10.8145
630,400,11.9432,0.09021,0,0,0,0,0,0,0,-1,1854,624,11.9432,-0.0902007
637,400,6.92896,1.01917,0,0,0,0,0,0,0,-1,1861,624,6.92899,-1.01918
644,400,8.65381,1.4599,0,0,0,0,0,0,0,-1,1868,624,8.65379,-1.45991
651,400,7.90601,0.424072,0,0,0,0,0,0,0,-1,1875,624,7.90598,-0.424097
658,400,8.69031,1.0484,0,0,0,0,0,0,0,-1,1882,624,8.6903,-1.0484
665,400,5.98438,0.522522,0,0,0,0,0,0,0,-1,1889,624,5.98442,-0.522552
672,400,0,0,0,0,0,0,0,0,0,-1,1896,624,0,0
679,400,0,0,0,0,0,0,0,0,0,-1,1903,624,0,0
686,400,0,0,0,0,0,0,0,0,0,-1,1910,624,0,0
693,400,0,0,0,0,0,0,0,0,0,-1,1917,624,0,0
700,400,0,0,0,0,0,0,0,0,0,-1,1924,624,0,0
707,400,0,0,0,0,0,0,0,0,0,-1,1931,624,0,0
714,400,0,0,0,0,0,0,0,0,0,-1,1938,624,0,0
721,400,0,0,0,0,0,0,0,0,0,-1,1945,624,0,0
728,400,0,0,0,0,0,0,0,0,0,-1,1952,624,0,0
735,400,0,0,0,0,0,0,0,0,0,-1,1959,624,0,0
742,400,0,0,0,0,0,0,0,0,0,-1,1966,624,0,0
749,400,0,0,0,0,0,0,0,0,0,-1,1973,624,0,0
756,400,0,0,0,0,0,0,0,0,0,-1,1980,624,0,0
763,400,0,0,0,0,0,0,0,0,0,-1,1987,624,0,0
770,400,0,0,0,0,0,0,0,0,0,-1,1994,624,0,0
777,400,0,0,0,0,0,0,0,0,0,-1,2001,624,0,0
784,400,0,0,0,0,0,0,0,0,0,-1,2008,624,0,0
791,400,0,0,0,0,0,0,0,0,0,-1,2015,624,0,0
798,400,0,0,0,0,0,0,0,0,0,-1,2022,624,0,0
805,400,0,0,0,0,0,0,0,0,0,-1,2029,624,0,0
812,400,0,0,0,0,0,0,0,0,0,-1,2036,624,0,0
-700,393,0,0,0,0,0,0,0,0,0,-1,524,631,0,0
-693,393,0,0,0,0,0,0,0,0,0,-1,531,631,0,0
-686,393,0,0,0,0,0,0,0,0,0,-1,538,631,0,0
-679,393,0,0,0,0,0,0,0,0,0,-1,545,631,0,0
-672,393,0,0,0,0,0,0,0,0,0,-1,552,631,0,0
-665,393,0,0,0,0,0,0,0,0,0,-1,559,631,0,0
-658,393,0,0,0,0,0,0,0,0,0,-1,566,631,0,0
-651,393,0,0,0,0,0,0,0,0,0,-1,573,631,0,0
-644,393,0,0,0,0,0,0,0,0,0,-1,580,631,0,0
-637,393,0,0,0,0,0,0,0,0,0,-1,587,631,0,0
-630,393,0,0,0,0,0,0,0,0,0,-1,594,631,0,0
-623,393,0,0,0,0,0,0,0,0,0,-1,601,631,0,0
-616,393,0,0,0,0,0,0,0,0,0,-1,608,631,0,0
-609,393,0,0,0,0,0,0,0,0,0,-1,615,631,0,0
-602,393,0,0,0,0,0,0,0,0,0,-1,622,631,0,0
-595,393,0,0,0,0,0,0,0,0,0,-1,629,631,0,0
-588,393,0,0,0,0,0,0,0,0,0,-1,636,631,0,0
-581,393,0,0,0,0,0,0,0,0,0,-1,643,631,0,0
-574,393,0,0,0,0,0,0,0,0,0,-1,650,631,0,0
-567,393,0,0,0,0,0,0,0,0,0,-1,657,631,0,0
-560,393,0,0,0,0,0,0,0,0,0,-1,664,631,0,0
-553,393,-2.35107,3.92633,0,0,0,0,0,0,0,-1,671,631,-2.35108,-3.92634
-546,393,-1.78778,2.4856,0,0,0,0,0,0,0,-1,678,631,-1.78778,-2.48557
-539,393,-5.2113,-2.20245,0,0,0,0,0,0,0,-1,685,631,-5.21128,2.20247
-532,393,-2.83643,-2.01624,0,0,0,0,0,0,0,-1,692,631,-2.83642,2.01626
-525,393,-5.9505,-0.952698,0,0,0,0,0,0,0,-1,699,631,-5.95053,0.95268
-518,393,-5.80219,-1.57739,0,0,0,0,0,0,0,-1,706,631,-5.80219,1.57738
-511,393,-6.15527,-2.09906,0,0,0,0,0,0,0,-1,713,631,-6.15526,2.09903
-504,393,-13.6063,-6.95947,0,0,0,0,0,0,0,-1,720,631,-13.6063,6.95946
-497,393,-18.7563,-11.1467,0,0,0,0,0,0,0,-1,727,631,-18.7564,11.1467
-490,393,-18.6872,-12.2323,-0.000722498,0.000838334,0.000791087,0.00116916,-0.00105333,1.1747,0.00128374,0.0276328,734,631,-18.6872,12.2323
-483,393,-18.7094,-13.2781,-0.000600466,0.000712491,0.000561411,0.00091981,-0.000807785,1.21705,0.000998127,0.0215726,741,631,-18.7094,13.2781
-476,393,-18.7741,-14.2542,-0.000355523,0.000595866,0.00031515,0.000690789,-0.000450446,1.27824,0.000663745,0.0190111,748,631,-18.7741,14.2542
-469,393,-18.8324,-15.262,6.82299e-05,0.000426157,5.05225e-05,0.000433152,6.12352e-05,1.43322,0.000270675,0.0141586,755,631,-18.8324,15.2619
-462,393,-18.8947,-16.3256,0.00061477,0.000217599,-0.000225544,0.000716694,0.000115675,-0.424437,0.000444286,0.0163256,762,631,-18.8946,16.3256
-455,393,-18.965,-17.3262,0.0012679,0.000191017,-0.000585005,0.00152453,-6.56208e-05,-0.413411,0.00103892,0.0152355,769,631,-18.965,17.3262
-448,393,-19.0412,-18.2846,0.00202052,0.000139177,-0.000951402,0.00241777,-0.00025807,-0.395534,0.0017044,0.014434,776,631,-19.0412,18.2846
-441,393,-19.1141,-19.2206,0.00287774,0.000242595,-0.00139804,0.00348124,-0.000360906,-0.407511,0.00245,0.0136256,783,631,-19.1141,19.2207
-434,393,-19.1884,-20.1626,0.00390022,0.000556812,-0.00195979,0.00480444,-0.000347407,-0.432282,0.00332481,0.0135337,790,631,-19.1883,20.1626
-427,393,-19.1701,-21.1715,0.00499996,0.00105098,-0.00263005,0.0063142,-0.000263271,-0.463411,0.00429991,0.027635,797,631,-19.1701,21.1715
-420,393,-19.0778,-22.2871,0,0,0,0,0,0,0,-1,804,631,-19.0778,22.2871
-413,393,-15.0913,-18.3777,0,0,0,0,0,0,0,-1,811,631,-15.0913,18.3777
-406,393,-11.826,-12.7987,0,0,0,0,0,0,0,-1,818,631,-11.8261,12.7987
-399,393,-5.07343,-5.92365,0,0,0,0,0,0,0,-1,825,631,-5.07344,5.92364
-392,393,-2.08063,-3.02386,0,0,0,0,0,0,0,-1,832,631,-2.08063,3.02384
-385,393,-3.16931,-0.624756,0,0,0,0,0,0,0,-1,839,631,-3.16928,0.624764
-378,393,-7.33081,-0.872314,0,0,0,0,0,0,0,-1,846,631,-7.33081,0.872325
-371,393,-7.47858,-0.811096,0,0,0,0,0,0,0,-1,853,631,-7.47859,0.811075
-364,393,-7.64917,-0.662415,0,0,0,0,0,0,0,-1,860,631,-7.64917,0.662406
-357,393,-8.09686,-0.726013,0,0,0,0,0,0,0,-1,867,631,-8.09689,0.726029
-350,393,-8.38788,-0.511841,0,0,0,0,0,0,0,-1,874,631,-8.38785,0.511811
-343,393,0,0,0,0,0,0,0,0,0,-1,881,631,0,0
-336,393,0,0,0,0,0,0,0,0,0,-1,888,631,0,0
-329,393,0,0,0,0,0,0,0,0,0,-1,895,631,0,0
-322,393,0,0,0,0,0,0,0,0,0,-1,902,631,0,0
-315,393,0,0,0,0,0,0,0,0,0,-1,909,631,0,0
-308,393,0,0,0,0,0,0,0,0,0,-1,916,631,0,0
-301,393,0,0,0,0,0,0,0,0,0,-1,923,631,0,0
-294,393,0,0,0,0,0,0,0,0,0,-1,930,631,0,0
-287,393,0,0,0,0,0,0,0,0,0,-1,937,631,0,0
-280,393,0,0,0,0,0,0,0,0,0,-1,944,631,0,0
-273,393,0,0,0,0,0,0,0,0,0,-1,951,631,0,0
-266,393,0,0,0,0,0,0,0,0,0,-1,958,631,0,0
-259,393,0,0,0,0,0,0,0,0,0,-1,965,631,0,0
-252,393,0,0,0,0,0,0,0,0,0,-1,972,631,0,0
-245,393,0,0,0,0,0,0,0,0,0,-1,979,631,0,0
-238,393,0,0,0,0,0,0,0,0,0,-1,986,631,0,0
-231,393,0,0,0,0,0,0,0,0,0,-1,993,631,0,0
-224,393,0,0,0,0,0,0,0,0,0,-1,1000,631,0,0
-217,393,0,0,0,0,0,0,0,0,0,-1,1007,631,0,0
-210,393,0,0,0,0,0,0,0,0,0,-1,1014,631,0,0
-203,393,0,0,0,0,0,0,0,0,0,-1,1021,631,0,0
-196,393,0,0,0,0,0,0,0,0,0,-1,1028,631,0,0
-189,393,0,0,0,0,0,0,0,0,0,-1,1035,631,0,0
-182,393,0,0,0,0,0,0,0,0,0,-1,1042,631,0,0
-175,393,0,0,0,0,0,0,0,0,0,-1,1049,631,0,0
-168,393,0,0,0,0,0,0,0,0,0,-1,1056,631,0,0
-161,393,0,0,0,0,0,0,0,0,0,-1,1063,631,0,0
-154,393,0,0,0,0,0,0,0,0,0,-1,1070,631,0,0
-147,393,0,0,0,0,0,0,0,0,0,-1,1077,631,0,0
-140,393,0,0,0,0,0,0,0,0,0,-1,1084,631,0,0
-133,393,0,0,0,0,0,0,0,0,0,-1,1091,631,0,0
-126,393,0,0,0,0,0,0,0,0,0,-1,1098,631,0,0
-119,393,0,0,0,0,0,0,0,0,0,-1,1105,631,0,0
-112,393,0,0,0,0,0,0,0,0,0,-1,1112,631,0,0
-105,393,0,0,0,0,0,0,0,0,0,-1,1119,631,0,0
-98,393,0,0,0,0,0,0,0,0,0,-1,1126,631,0,0
-91,393,0,0,0,0,0,0,0,0,0,-1,1133,631,0,0
-84,393,0,0,0,0,0,0,0,0,0,-1,1140,631,0,0
-77,393,0,0,0,0,0,0,0,0,0,-1,1147,631,0,0
-70,393,0,0,0,0,0,0,0,0,0,-1,1154,631,0,0
-63,393,0,0,0,0,0,0,0,0,0,-1,1161,631,0,0
-56,393,0,0,0,0,0,0,0,0,0,-1,1168,631,0,0
-49,393,0,0,0,0,0,0,0,0,0,-1,1175,631,0,0
-42,393,0,0,0,0,0,0,0,0,0,-1,1182,631,0,0
-35,393,0,0,0,0,0,0,0,0,0,-1,1189,631,0,0
-28,393,0,0,0,0,0,0,0,0,0,-1,1196,631,0,0
-21,393,0,0,0,0,0,0,0,0,0,-1,1203,631,0,0
-14,393,0,0,0,0,0,0,0,0,0,-1,1210,631,0,0
-7,393,0,0,0,0,0,0,0,0,0,-1,1217,631,0,0
0,393,0,0,0,0,0,0,0,0,0,-1,1224,631,0,0
7,393,0,0,0,0,0,0,0,0,0,-1,1231,631,0,0
14,393,0,0,0,0,0,0,0,0,0,-1,1238,631,0,0
21,393,0,0,0,0,0,0,0,0,0,-1,1245,631,0,0
28,393,0,0,0,0,0,0,0,0,0,-1,1252,631,0,0
35,393,0,0,0,0,0,0,0,0,0,-1,1259,631,0,0
42,393,0,0,0,0,0,0,0,0,0,-1,1266,631,0,0
49,393,0,0,0,0,0,0,0,0,0,-1,1273,631,0,0
56,393,0,0,0,0,0,0,0,0,0,-1,1280,631,0,0
63,393,0,0,0,0,0,0,0,0,0,-1,1287,631,0,0
70,393,0,0,0,0,0,0,0,0,0,-1,1294,631,0,0
77,393,0,0,0,0,0,0,0,0,0,-1,1301,631,0,0
84,393,0,0,0,0,0,0,0,0,0,-1,1308,631,0,0
91,393,0,0,0,0,0,0,0,0,0,-1,1315,631,0,0
98,393,0,0,0,0,0,0,0,0,0,-1,1322,631,0,0
105,393,0,0,0,0,0,0,0,0,0,-1,1329,631,0,0
112,393,0,0,0,0,0,0,0,0,0,-1,1336,631,0,0
119,393,0,0,0,0,0,0,0,0,0,-1,1343,631,0,0
126,393,0,0,0,0,0,0,0,0,0,-1,1350,631,0,0
133,393,0,0,0,0,0,0,0,0,0,-1,1357,631,0,0
140,393,0,0,0,0,0,0,0,0,0,-1,1364,631,0,0
147,393,0,0,0,0,0,0,0,0,0,-1,1371,631,0,0
154,393,0,0,0,0,0,0,0,0,0,-1,1378,631,0,0
161,393,0,0,0,0,0,0,0,0,0,-1,1385,631,0,0
168,393,0,0,0,0,0,0,0,0,0,-1,1392,631,0,0
175,393,0,0,0,0,0,0,0,0,0,-1,1399,631,0,0
182,393,0,0,0,0,0,0,0,0,0,-1,1406,631,0,0
189,393,0,0,0,0,0,0,0,0,0,-1,1413,631,0,0
196,393,0,0,0,0,0,0,0,0,0,-1,1420,631,0,0
203,393,0,0,0,0,0,0,0,0,0,-1,1427,631,0,0
210,393,0,0,0,0,0,0,0,0,0,-1,1434,631,0,0
217,393,0,0,0,0,0,0,0,0,0,-1,1441,631,0,0
224,393,0,0,0,0,0,0,0,0,0,-1,1448,631,0,0
231,393,0,0,0,0,0,0,0,0,0,-1,1455,631,0,0
238,393,0,0,0,0,0,0,0,0,0,-1,1462,631,0,0
245,393,0,0,0,0,0,0,0,0,0,-1,1469,631,0,0
252,393,0,0,0,0,0,0,0,0,0,-1,1476,631,0,0
259,393,0,0,0,0,0,0,0,0,0,-1,1483,631,0,0
266,393,0,0,0,0,0,0,0,0,0,-1,1490,631,0,0
273,393,0,0,0,0,0,0,0,0,0,-1,1497,631,0,0
280,393,0,0,0,0,0,0,0,0,0,-1,1504,631,0,0
287,393,0,0,0,0,0,0,0,0,0,-1,1511,631,0,0
294,393,0,0,0,0,0,0,0,0,0,-1,1518,631,0,0
301,393,0,0,0,0,0,0,0,0,0,-1,1525,631,0,0
308,393,0,0,0,0,0,0,0,0,0,-1,1532,631,0,0
315,393,0,0,0,0,0,0,0,0,0,-1,1539,631,0,0
322,393,0,0,0,0,0,0,0,0,0,-1,1546,631,0,0
329,393,0,0,0,0,0,0,0,0,0,-1,1553,631,0,0
336,393,0,0,0,0,0,0,0,0,0,-1,1560,631,0,0
343,393,0,0,0,0,0,0,0,0,0,-1,1567,631,0,0
350,393,0,0,0,0,0,0,0,0,0,-1,1574,631,0,0
357,393,0,0,0,0,0,0,0,0,0,-1,1581,631,0,0
364,393,0,0,0,0,0,0,0,0,0,-1,1588,631,0,0
371,393,0,0,0,0,0,0,0,0,0,-1,1595,631,0,0
378,393,0,0,0,0,0,0,0,0,0,-1,1602,631,0,0
385,393,0,0,0,0,0,0,0,0,0,-1,1609,631,0,0
392,393,0,0,0,0,0,0,0,0,0,-1,1616,631,0,0
399,393,0,0,0,0,0,0,0,0,0,-1,1623,631,0,0
406,393,0,0,0,0,0,0,0,0,0,-1,1630,631,0,0
413,393,0,0,0,0,0,0,0,0,0,-1,1637,631,0,0
420,393,0,0,0,0,0,0,0,0,0,-1,1644,631,0,0
427,393,0,0,0,0,0,0,0,0,0,-1,1651,631,0,0
434,393,0,0,0,0,0,0,0,0,0,-1,1658,631,0,0
441,393,0,0,0,0,0,0,0,0,0,-1,1665,631,0,0
448,393,0,0,0,0,0,0,0,0,0,-1,1672,631,0,0
455,393,0,0,0,0,0,0,0,0,0,-1,1679,631,0,0
462,393,8.51099,1.89502,0,0,0,0,0,0,0,-1,1686,631,8.51103,-1.89504
469,393,9.39465,1.51703,0,0,0,0,0,0,0,-1,1693,631,9.39465,-1.51703
476,393,9.95569,1.185,0,0,0,0,0,0,0,-1,1700,631,9.95575,-1.18497
483,393,10.5267,0.887329,0,0,0,0,0,0,0,-1,1707,631,10.5267,-0.887321
490,393,10.9303,0.761414,0,0,0,0,0,0,0,-1,1714,631,10.9303,-0.761386
497,393,8.32153,1.88104,0,0,0,0,0,0,0,-1,1721,631,8.32148,-1.88103
504,393,9.46985,1.78711,0,0,0,0,0,0,0,-1,1728,631,9.46986,-1.78713
511,393,9.66565,-0.375977,0,0,0,0,0,0,0,-1,1735,631,9.66571,0.375949
518,393,7.01599,1.62482,0,0,0,0,0,0,0,-1,1742,631,7.01597,-1.62483
525,393,7.88245,-1.13422,0,0,0,0,0,0,0,-1,1749,631,7.88246,1.13423
532,393,7.06335,-1.18103,0,0,0,0,0,0,0,-1,1756,631,7.06332,1.18101
539,393,9.91626,-2.46301,0,0,0,0,0,0,0,-1,1763,631,9.91625,2.46302
546,393,16.4094,-8.04651,0,0,0,0,0,0,0,-1,1770,631,16.4094,8.04649
553,393,34.9611,-21.3212,0,0,0,0,0,0,0,-1,1777,631,34.9611,21.3212
560,393,35.2566,-20.0649,0.00252137,0.000504992,0.000546156,0.0026598,0.000366564,0.248232,0.00166452,0.0439172,1784,631,35.2566,20.0649
567,393,35.2179,-19.0329,0.0017267,0.000223288,0.00022175,0.00175873,0.000191262,0.14343,0.00111422,0.0175656,1791,631,35.2179,19.0329
574,393,35.173,-18.0392,0.00132138,0.000403383,0.000246022,0.00138316,0.000341607,0.246014,0.000831951,0.0167048,1798,631,35.173,18.0392
581,393,35.0554,-17.0294,0.0011925,0.000775984,0.000469349,0.00149772,0.000470762,0.576591,0.00088436,0.0194778,1805,631,35.0554,17.0293
588,393,34.9814,-15.9899,0.00136702,0.00136985,0.000864712,0.00223315,0.000503721,0.786216,0.0013525,0.0238441,1812,631,34.9815,15.9898
595,393,34.9819,-15.0649,0.00183033,0.00211066,0.00144258,0.00341987,0.000521119,0.833827,0.00212759,0.0205344,1819,631,34.9819,15.0649
602,393,34.917,-14.1174,0.00255336,0.00305324,0.00218619,0.00500373,0.000602873,0.842314,0.00315413,0.0211057,1826,631,34.917,14.1173
609,393,34.795,-13.1229,0.00352777,0.0042118,0.00307394,0.00696269,0.000776881,0.840802,0.00440572,0.0178365,1833,631,34.795,13.1229
616,393,34.7339,-12.1307,0.00477552,0.00561632,0.00409866,0.00931608,0.00107575,0.836504,0.005885,0.0166117,1840,631,34.7339,12.1307
623,393,34.7465,-11.0263,0.00622793,0.00714922,0.00523535,0.0119442,0.001433,0.829279,0.00753069,0.0364492,1847,631,34.7465,11.0263
630,393,34.8,-9.8205,0,0,0,0,0,0,0,-1,1854,631,34.8,9.82049
637,393,11.4626,0.608887,0,0,0,0,0,0,0,-1,1861,631,11.4627,-0.608904
644,393,8.97583,1.30585,0,0,0,0,0,0,0,-1,1868,631,8.97586,-1.30584
651,393,11.348,0.53302,0,0,0,0,0,0,0,-1,1875,631,11.348,-0.53305
658,393,9.21338,1.50836,0,0,0,0,0,0,0,-1,1882,631,9.21338,-1.50834
665,393,6.1001,2.32129,0,0,0,0,0,0,0,-1,1889,631,6.10012,-2.3213
672,393,7.14575,2.43225,0,0,0,0,0,0,0,-1,1896,631,7.14572,-2.43222
679,393,0,0,0,0,0,0,0,0,0,-1,1903,631,0,0
686,393,0,0,0,0,0,0,0,0,0,-1,1910,631,0,0
693,393,0,0,0,0,0,0,0,0,0,-1,1917,631,0,0
700,393,0,0,0,0,0,0,0,0,0,-1,1924,631,0,0
707,393,0,0,0,0,0,0,0,0,0,-1,1931,631,0,0
714,393,0,0,0,0,0,0,0,0,0,-1,1938,631,0,0
721,393,0,0,0,0,0,0,0,0,0,-1,1945,631,0,0
728,393,0,0,0,0,0,0,0,0,0,-1,1952,631,0,0
735,393,0,0,0,0,0,0,0,0,0,-1,1959,631,0,0
742,393,0,0,0,0,0,0,0,0,0,-1,1966,631,0,0
749,393,0,0,0,0,0,0,0,0,0,-1,1973,631,0,0
756,393,0,0,0,0,0,0,0,0,0,-1,1980,631,0,0
763,393,0,0,0,0,0,0,0,0,0,-1,1987,631,0,0
770,393,0,0,0,0,0,0,0,0,0,-1,1994,631,0,0
777,393,0,0,0,0,0,0,0,0,0,-1,2001,631,0,0
784,393,0,0,0,0,0,0,0,0,0,-1,2008,631,0,0
791,393,0,0,0,0,0,0,0,0,0,-1,2015,631,0,0
798,393,0,0,0,0,0,0,0,0,0,-1,2022,631,0,0
805,393,0,0,0,0,0,0,0,0,0,-1,2029,631,0,0
812,393,0,0,0,0,0,0,0,0,0,-1,2036,631,0,0
-700,386,0,0,0,0,0,0,0,0,0,-1,524,638,0,0
-693,386,0,0,0,0,0,0,0,0,0,-1,531,638,0,0
-686,386,0,0,0,0,0,0,0,0,0,-1,538,638,0,0
-679,386,0,0,0,0,0,0,0,0,0,-1,545,638,0,0
-672,386,0,0,0,0,0,0,0,0,0,-1,552,638,0,0
-665,386,0,0,0,0,0,0,0,0,0,-1,559,638,0,0
-658,386,0,0,0,0,0,0,0,0,0,-1,566,638,0,0
-651,386,0,0,0,0,0,0,0,0,0,-1,573,638,0,0
-644,386,0,0,0,0,0,0,0,0,0,-1,580,638,0,0
-637,386,0,0,0,0,0,0,0,0,0,-1,587,638,0,0
-630,386,0,0,0,0,0,0,0,0,0,-1,594,638,0,0
-623,386,0,0,0,0,0,0,0,0,0,-1,601,638,0,0
-616,386,0,0,0,0,0,0,0,0,0,-1,608,638,0,0
-609,386,0,0,0,0,0,0,0,0,0,-1,615,638,0,0
-602,386,0,0,0,0,0,0,0,0,0,-1,622,638,0,0
-595,386,0,0,0,0,0,0,0,0,0,-1,629,638,0,0
-588,386,0,0,0,0,0,0,0,0,0,-1,636,638,0,0
-581,386,0,0,0,0,0,0,0,0,0,-1,643,638,0,0
-574,386,0,0,0,0,0,0,0,0,0,-1,650,638,0,0
-567,386,0,0,0,0,0,0,0,0,0,-1,657,638,0,0
-560,386,-3.97229,-5.13898,0,0,0,0,0,0,0,-1,664,638,-3.97232,5.13897
-553,386,-4.94244,-5.54309,0,0,0,0,0,0,0,-1,671,638,-4.94242,5.5431
-546,386,-1.78668,1.72827,0,0,0,0,0,0,0,-1,678,638,-1.78668,-1.72829
-539,386,-0.879456,-2.90009,0,0,0,0,0,0,0,-1,685,638,-0.879442,2.90008
-532,386,-5.4884,1.73328,0,0,0,0,0,0,0,-1,692,638,-5.4884,-1.73325
-525,386,-6.64148,-1.50604,0,0,0,0,0,0,0,-1,699,638,-6.64149,1.50603
-518,386,-11.1217,-4.10382,0,0,0,0,0,0,0,-1,706,638,-11.1217,4.1038
-511,386,-13.0612,-5.05151,0,0,0,0,0,0,0,-1,713,638,-13.0612,5.05149
-504,386,-19.6279,-10.0652,0,0,0,0,0,0,0,-1,720,638,-19.6279,10.0652
-497,386,-19.5642,-11.2631,0,0,0,0,0,0,0,-1,727,638,-19.5642,11.2631
-490,386,-19.6304,-12.2641,4.80225e-05,0.000433533,0.000405442,0.000689707,-0.000208152,1.00729,0.000542663,0.0145161,734,638,-19.6304,12.2641
-483,386,-19.683,-13.2625,9.90964e-05,0.000379681,0.000244353,0.000521152,-4.23746e-05,1.04599,0.000362386,0.018801,741,638,-19.6831,13.2624
-476,386,-19.7486,-14.237,0.000290148,0.000308608,4.80553e-05,0.000348311,0.000250444,0.880277,0.000207429,0.0175717,748,638,-19.7486,14.237
-469,386,-19.824,-15.2083,0.000642027,0.000185701,-0.000178331,0.000703451,0.000124277,-0.331709,0.000433521,0.0126155,755,638,-19.824,15.2082
-462,386,-19.8862,-16.2528,0.00112465,3.01586e-05,-0.000434046,0.00127589,-0.000121075,-0.335274,0.000893687,0.0122582,762,638,-19.8862,16.2528
-455,386,-19.9551,-17.264,0.00175022,5.8867e-05,-0.000792939,0.00206382,-0.000254732,-0.376612,0.00146818,0.0141412,769,638,-19.9551,17.264
-448,386,-20.0252,-18.2076,0.00249698,3.90426e-05,-0.00116997,0.00296483,-0.000428807,-0.380405,0.0021339,0.0138448,776,638,-20.0252,18.2076
-441,386,-20.1152,-19.1597,0.00338506,0.000185999,-0.00166741,0.0040961,-0.000525046,-0.403087,0.00292152,0.0145611,783,638,-20.1152,19.1597
-434,386,-20.1259,-20.187,0.0045523,0.000621154,-0.00235789,0.00565643,-0.000482981,-0.437946,0.00394182,0.0337739,790,638,-20.1259,20.187
-427,386,-20.0566,-21.1933,0,0,0,0,0,0,0,-1,797,638,-20.0566,21.1933
-420,386,-14.5338,-16.0451,0,0,0,0,0,0,0,-1,804,638,-14.5338,16.0451
-413,386,-5.45691,-5.35785,0,0,0,0,0,0,0,-1,811,638,-5.45691,5.35783
-406,386,-4.51135,-4.10999,0,0,0,0,0,0,0,-1,818,638,-4.51135,4.10996
-399,386,-3.57117,-3.42126,0,0,0,0,0,0,0,-1,825,638,-3.57116,3.42129
-392,386,-4.00977,0.403625,0,0,0,0,0,0,0,-1,832,638,-4.0098,-0.403616
-385,386,-3.2406,-0.118469,0,0,0,0,0,0,0,-1,839,638,-3.24058,0.118485
-378,386,-2.55243,-1.22748,0,0,0,0,0,0,0,-1,846,638,-2.55243,1.22748
-371,386,-7.95807,-0.330261,0,0,0,0,0,0,0,-1,853,638,-7.95806,0.330284
-364,386,-8.90637,-0.665955,0,0,0,0,0,0,0,-1,860,638,-8.90635,0.665951
-357,386,-9.10364,-0.388733,0,0,0,0,0,0,0,-1,867,638,-9.10364,0.388744
-350,386,0,0,0,0,0,0,0,0,0,-1,874,638,0,0
-343,386,0,0,0,0,0,0,0,0,0,-1,881,638,0,0
-336,386,0,0,0,0,0,0,0,0,0,-1,888,638,0,0
-329,386,0,0,0,0,0,0,0,0,0,-1,895,638,0,0
-322,386,0,0,0,0,0,0,0,0,0,-1,902,638,0,0
-315,386,0,0,0,0,0,0,0,0,0,-1,909,638,0,0
-308,386,0,0,0,0,0,0,0,0,0,-1,916,638,0,0
-301,386,0,0,0,0,0,0,0,0,0,-1,923,638,0,0
-294,386,0,0,0,0,0,0,0,0,0,-1,930,638,0,0
-287,386,0,0,0,0,0,0,0,0,0,-1,937,638,0,0
-280,386,0,0,0,0,0,0,0,0,0,-1,944,638,0,0
-273,386,0,0,0,0,0,0,0,0,0,-1,951,638,0,0
-266,386,0,0,0,0,0,0,0,0,0,-1,958,638,0,0
-259,386,0,0,0,0,0,0,0,0,0,-1,965,638,0,0
-252,386,0,0,0,0,0,0,0,0,0,-1,972,638,0,0
-245,386,0,0,0,0,0,0,0,0,0,-1,979,638,0,0
-238,386,0,0,0,0,0,0,0,0,0,-1,986,638,0,0
-231,386,0,0,0,0,0,0,0,0,0,-1,993,638,0,0
-224,386,0,0,0,0,0,0,0,0,0,-1,1000,638,0,0
-217,386,0,0,0,0,0,0,0,0,0,-1,1007,638,0,0
-210,386,0,0,0,0,0,0,0,0,0,-1,1014,638,0,0
-203,386,0,0,0,0,0,0,0,0,0,-1,1021,638,0,0
-196,386,0,0,0,0,0,0,0,0,0,-1,1028,638,0,0
-189,386,0,0,0,0,0,0,0,0,0,-1,1035,638,0,0
-182,386,0,0,0,0,0,0,0,0,0,-1,1042,638,0,0
-175,386,0,0,0,0,0,0,0,0,0,-1,1049,638,0,0
-168,386,0,0,0,0,0,0,0,0,0,-1,1056,638,0,0
-161,386,0,0,0,0,0,0,0,0,0,-1,1063,638,0,0
-154,386,0,0,0,0,0,0,0,0,0,-1,1070,638,0,0
-147,386,0,0,0,0,0,0,0,0,0,-1,1077,638,0,0
-140,386,0,0,0,0,0,0,0,0,0,-1,1084,638,0,0
-133,386,0,0,0,0,0,0,0,0,0,-1,1091,638,0,0
-126,386,0,0,0,0,0,0,0,0,0,-1,1098,638,0,0
-119,386,0,0,0,0,0,0,0,0,0,-1,1105,638,0,0
-112,386,0,0,0,0,0,0,0,0,0,-1,1112,638,0,0
-105,386,0,0,0,0,0,0,0,0,0,-1,1119,638,0,0
-98,386,0,0,0,0,0,0,0,0,0,-1,1126,638,0,0
-91,386,0,0,0,0,0,0,0,0,0,-1,1133,638,0,0
-84,386,0,0,0,0,0,0,0,0,0,-1,1140,638,0,0
-77,386,0,0,0,0,0,0,0,0,0,-1,1147,638,0,0
-70,386,0,0,0,0,0,0,0,0,0,-1,1154,638,0,0
-63,386,0,0,0,0,0,0,0,0,0,-1,1161,638,0,0
-56,386,0,0,0,0,0,0,0,0,0,-1,1168,638,0,0
-49,386,0,0,0,0,0,0,0,0,0,-1,1175,638,0,0
-42,386,0,0,0,0,0,0,0,0,0,-1,1182,638,0,0
-35,386,0,0,0,0,0,0,0,0,0,-1,1189,638,0,0
-28,386,0,0,0,0,0,0,0,0,0,-1,1196,638,0,0
-21,386,0,0,0,0,0,0,0,0,0,-1,1203,638,0,0
-14,386,0,0,0,0,0,0,0,0,0,-1,1210,638,0,0
-7,386,0,0,0,0,0,0,0,0,0,-1,1217,638,0,0
0,386,0,0,0,0,0,0,0,0,0,-1,1224,638,0,0
7,386,0,0,0,0,0,0,0,0,0,-1,1231,638,0,0
14,386,0,0,0,0,0,0,0,0,0,-1,1238,638,0,0
21,386,0,0,0,0,0,0,0,0,0,-1,1245,638,0,0
28,386,0,0,0,0,0,0,0,0,0,-1,1252,638,0,0
35,386,0,0,0,0,0,0,0,0,0,-1,1259,638,0,0
42,386,0,0,0,0,0,0,0,0,0,-1,1266,638,0,0
49,386,0,0,0,0,0,0,0,0,0,-1,1273,638,0,0
56,386,0,0,0,0,0,0,0,0,0,-1,1280,638,0,0
63,386,0,0,0,0,0,0,0,0,0,-1,1287,638,0,0
70,386,0,0,0,0,0,0,0,0,0,-1,1294,638,0,0
77,386,0,0,0,0,0,0,0,0,0,-1,1301,638,0,0
84,386,0,0,0,0,0,0,0,0,0,-1,1308,638,0,0
91,386,0,0,0,0,0,0,0,0,0,-1,1315,638,0,0
98,386,0,0,0,0,0,0,0,0,0,-1,1322,638,0,0
105,386,0,0,0,0,0,0,0,0,0,-1,1329,638,0,0
112,386,0,0,0,0,0,0,0,0,0,-1,1336,638,0,0
119,386,0,0,0,0,0,0,0,0,0,-1,1343,638,0,0
126,386,0,0,0,0,0,0,0,0,0,-1,1350,638,0,0
133,386,0,0,0,0,0,0,0,0,0,-1,1357,638,0,0
140,386,0,0,0,0,0,0,0,0,0,-1,1364,638,0,0
147,386,0,0,0,0,0,0,0,0,0,-1,1371,638,0,0
154,386,0,0,0,0,0,0,0,0,0,-1,1378,638,0,0
161,386,0,0,0,0,0,0,0,0,0,-1,1385,638,0,0
168,386,0,0,0,0,0,0,0,0,0,-1,1392,638,0,0
175,386,0,0,0,0,0,0,0,0,0,-1,1399,638,0,0
182,386,0,0,0,0,0,0,0,0,0,-1,1406,638,0,0
189,386,0,0,0,0,0,0,0,0,0,-1,1413,638,0,0
196,386,0,0,0,0,0,0,0,0,0,-1,1420,638,0,0
203,386,0,0,0,0,0,0,0,0,0,-1,1427,638,0,0
210,386,0,0,0,0,0,0,0,0,0,-1,1434,638,0,0
217,386,0,0,0,0,0,0,0,0,0,-1,1441,638,0,0
224,386,0,0,0,0,0,0,0,0,0,-1,1448,638,0,0
231,386,0,0,0,0,0,0,0,0,0,-1,1455,638,0,0
238,386,0,0,0,0,0,0,0,0,0,-1,1462,638,0,0
245,386,0,0,0,0,0,0,0,0,0,-1,1469,638,0,0
252,386,0,0,0,0,0,0,0,0,0,-1,1476,638,0,0
259,386,0,0,0,0,0,0,0,0,0,-1,1483,638,0,0
266,386,0,0,0,0,0,0,0,0,0,-1,1490,638,0,0
273,386,0,0,0,0,0,0,0,0,0,-1,1497,638,0,0
280,386,0,0,0,0,0,0,0,0,0,-1,1504,638,0,0
287,386,0,0,0,0,0,0,0,0,0,-1,1511,638,0,0
294,386,0,0,0,0,0,0,0,0,0,-1,1518,638,0,0
301,386,0,0,0,0,0,0,0,0,0,-1,1525,638,0,0
308,386,0,0,0,0,0,0,0,0,0,-1,1532,638,0,0
315,386,0,0,0,0,0,0,0,0,0,-1,1539,638,0,0
322,386,0,0,0,0,0,0,0,0,0,-1,1546,638,0,0
329,386,0,0,0,0,0,0,0,0,0,-1,1553,638,0,0
336,386,0,0,0,0,0,0,0,0,0,-1,1560,638,0,0
343,386,0,0,0,0,0,0,0,0,0,-1,1567,638,0,0
350,386,0,0,0,0,0,0,0,0,0,-1,1574,638,0,0
357,386,0,0,0,0,0,0,0,0,0,-1,1581,638,0,0
364,386,0,0,0,0,0,0,0,0,0,-1,1588,638,0,0
371,386,0,0,0,0,0,0,0,0,0,-1,1595,638,0,0
378,386,0,0,0,0,0,0,0,0,0,-1,1602,638,0,0
385,386,0,0,0,0,0,0,0,0,0,-1,1609,638,0,0
392,386,0,0,0,0,0,0,0,0,0,-1,1616,638,0,0
399,386,0,0,0,0,0,0,0,0,0,-1,1623,638,0,0
406,386,0,0,0,0,0,0,0,0,0,-1,1630,638,0,0
413,386,0,0,0,0,0,0,0,0,0,-1,1637,638,0,0
420,386,0,0,0,0,0,0,0,0,0,-1,1644,638,0,0
427,386,0,0,0,0,0,0,0,0,0,-1,1651,638,0,0
434,386,0,0,0,0,0,0,0,0,0,-1,1658,638,0,0
441,386,0,0,0,0,0,0,0,0,0,-1,1665,638,0,0
448,386,0,0,0,0,0,0,0,0,0,-1,1672,638,0,0
455,386,0,0,0,0,0,0,0,0,0,-1,1679,638,0,0
462,386,0,0,0,0,0,0,0,0,0,-1,1686,638,0,0
469,386,9.84692,1.55804,0,0,0,0,0,0,0,-1,1693,638,9.84691,-1.55807
476,386,10.6145,0.986511,0,0,0,0,0,0,0,-1,1700,638,10.6145,-0.986529
483,386,11.4113,0.732971,0,0,0,0,0,0,0,-1,1707,638,11.4112,-0.732958
490,386,7.79785,1.79572,0,0,0,0,0,0,0,-1,1714,638,7.79788,-1.7957
497,386,8.96362,1.77081,0,0,0,0,0,0,0,-1,1721,638,8.96357,-1.77081
504,386,10.0555,1.69427,0,0,0,0,0,0,0,-1,1728,638,10.0555,-1.69426
511,386,11.2172,1.534,0,0,0,0,0,0,0,-1,1735,638,11.2172,-1.53398
518,386,7.41553,1.75238,0,0,0,0,0,0,0,-1,1742,638,7.41547,-1.75238
525,386,8.82422,-1.1449,0,0,0,0,0,0,0,-1,1749,638,8.82426,1.14492
532,386,10.6432,0.617371,0,0,0,0,0,0,0,-1,1756,638,10.6432,-0.617359
539,386,9.62061,-0.393616,0,0,0,0,0,0,0,-1,1763,638,9.62059,0.393634
546,386,10.7963,-2.854,0,0,0,0,0,0,0,-1,1770,638,10.7962,2.854
553,386,16.9939,-7.27942,0,0,0,0,0,0,0,-1,1777,638,16.9939,7.27944
560,386,36.1418,-20.1598,0,0,0,0,0,0,0,-1,1784,638,36.1419,20.1598
567,386,36.2255,-18.9379,0,0,0,0,0,0,0,-1,1791,638,36.2255,18.9378
574,386,36.1344,-17.9772,0.00105606,-4.14064e-05,4.21176e-05,0.00105767,-4.30204e-05,0.038302,0.000719885,0.0157359,1798,638,36.1344,17.9772
581,386,36.0352,-17.0076,0.00079661,0.00023673,0.000158053,0.000838146,0.000195194,0.25699,0.000506399,0.0160162,1805,638,36.0352,17.0076
588,386,36.0186,-16.0214,0.000904939,0.000711173,0.000467101,0.0012851,0.000331013,0.683141,0.000770473,0.015026,1812,638,36.0186,16.0214
595,386,35.9542,-15.0475,0.00132168,0.00134952,0.000948987,0.00228469,0.000386512,0.79273,0.00141203,0.0174223,1819,638,35.9542,15.0475
602,386,35.8617,-14.0845,0.00198571,0.00215709,0.00157571,0.00364944,0.00049336,0.812563,0.00228632,0.0181899,1826,638,35.8618,14.0845
609,386,35.8103,-13.0884,0.0028386,0.00314682,0.00229475,0.00529263,0.000692793,0.818927,0.00332166,0.0155868,1833,638,35.8103,13.0884
616,386,35.7461,-12.0673,0.00390949,0.00433005,0.00309492,0.00722182,0.00101771,0.819318,0.00451372,0.0126602,1840,638,35.7461,12.0673
623,386,35.6696,-11.0681,0.00515209,0.00562321,0.00398584,0.00938045,0.00139485,0.814914,0.00584443,0.0106206,1847,638,35.6695,11.068
630,386,35.7479,-10.0338,0.00643863,0.0069534,0.00484014,0.011543,0.00184903,0.811961,0.00715903,0.0381002,1854,638,35.7479,10.0338
637,386,35.7795,-9.02612,0,0,0,0,0,0,0,-1,1861,638,35.7795,9.02614
644,386,11.6521,0.723328,0,0,0,0,0,0,0,-1,1868,638,11.6521,-0.723355
651,386,9.3866,1.31097,0,0,0,0,0,0,0,-1,1875,638,9.3866,-1.31095
658,386,12.0731,-0.00415039,0,0,0,0,0,0,0,-1,1882,638,12.0731,0.00412803
665,386,6.33167,1.78601,0,0,0,0,0,0,0,-1,1889,638,6.33171,-1.78601
672,386,7.23352,2.14435,0,0,0,0,0,0,0,-1,1896,638,7.23353,-2.14433
679,386,8.07764,2.57104,0,0,0,0,0,0,0,-1,1903,638,8.07758,-2.57103
686,386,0,0,0,0,0,0,0,0,0,-1,1910,638,0,0
693,386,0,0,0,0,0,0,0,0,0,-1,1917,638,0,0
700,386,0,0,0,0,0,0,0,0,0,-1,1924,638,0,0
707,386,0,0,0,0,0,0,0,0,0,-1,1931,638,0,0
714,386,0,0,0,0,0,0,0,0,0,-1,1938,638,0,0
721,386,0,0,0,0,0,0,0,0,0,-1,1945,638,0,0
728,386,0,0,0,0,0,0,0,0,0,-1,1952,638,0,0
735,386,0,0,0,0,0,0,0,0,0,-1,1959,638,0,0
742,386,0,0,0,0,0,0,0,0,0,-1,1966,638,0,0
749,386,0,0,0,0,0,0,0,0,0,-1,1973,638,0,0
756,386,0,0,0,0,0,0,0,0,0,-1,1980,638,0,0
763,386,0,0,0,0,0,0,0,0,0,-1,1987,638,0,0
770,386,0,0,0,0,0,0,0,0,0,-1,1994,638,0,0
777,386,0,0,0,0,0,0,0,0,0,-1,2001,638,0,0
784,386,0,0,0,0,0,0,0,0,0,-1,2008,638,0,0
791,386,0,0,0,0,0,0,0,0,0,-1,2015,638,0,0
798,386,0,0,0,0,0,0,0,0,0,-1,2022,638,0,0
805,386,0,0,0,0,0,0,0,0,0,-1,2029,638,0,0
812,386,0,0,0,0,0,0,0,0,0,-1,2036,638,0,0
-700,379,0,0,0,0,0,0,0,0,0,-1,524,645,0,0
-693,379,0,0,0,0,0,0,0,0,0,-1,531,645,0,0
-686,379,0,0,0,0,0,0,0,0,0,-1,538,645,0,0
-679,379,0,0,0,0,0,0,0,0,0,-1,545,645,0,0
-672,379,0,0,0,0,0,0,0,0,0,-1,552,645,0,0
-665,379,0,0,0,0,0,0,0,0,0,-1,559,645,0,0
-658,379,0,0,0,0,0,0,0,0,0,-1,566,645,0,0
-651,379,0,0,0,0,0,0,0,0,0,-1,573,645,0,0
-644,379,0,0,0,0,0,0,0,0,0,-1,580,645,0,0
-637,379,0,0,0,0,0,0,0,0,0,-1,587,645,0,0
-630,379,0,0,0,0,0,0,0,0,0,-1,594,645,0,0
-623,379,0,0,0,0,0,0,0,0,0,-1,601,645,0,0
-616,379,0,0,0,0,0,0,0,0,0,-1,608,645,0,0
-609,379,0,0,0,0,0,0,0,0,0,-1,615,645,0,0
-602,379,0,0,0,0,0,0,0,0,0,-1,622,645,0,0
-595,379,0,0,0,0,0,0,0,0,0,-1,629,645,0,0
-588,379,0,0,0,0,0,0,0,0,0,-1,636,645,0,0
-581,379,0,0,0,0,0,0,0,0,0,-1,643,645,0,0
-574,379,0,0,0,0,0,0,0,0,0,-1,650,645,0,0
-567,379,-8.78058,0.59668,0,0,0,0,0,0,0,-1,657,645,-8.7806,-0.596692
-560,379,-9.53485,-0.211304,0,0,0,0,0,0,0,-1,664,645,-9.53487,0.211282
-553,379,-5.17108,-4.53119,0,0,0,0,0,0,0,-1,671,645,-5.17106,4.53117
-546,379,-6.23053,-4.92102,0,0,0,0,0,0,0,-1,678,645,-6.23054,4.92105
-539,379,-0.71698,-2.19427,0,0,0,0,0,0,0,-1,685,645,-0.716959,2.19427
-532,379,-7.69611,0.217224,0,0,0,0,0,0,0,-1,692,645,-7.69614,-0.217204
-525,379,-7.09833,-1.13043,0,0,0,0,0,0,0,-1,699,645,-7.0983,1.13041
-518,379,-13.126,-5.33893,0,0,0,0,0,0,0,-1,706,645,-13.126,5.33895
-511,379,-20.4736,-9.12958,0,0,0,0,0,0,0,-1,713,645,-20.4736,9.1296
-504,379,-20.4484,-10.236,0.000881007,4.87855e-06,0.000233553,0.000939377,-5.34915e-05,0.244906,0.000644822,0.0379488,720,645,-20.4484,10.236
-497,379,-20.5634,-11.1929,0.000686056,0.000151035,0.000189103,0.000746146,9.09455e-05,0.307671,0.000470057,0.016119,727,645,-20.5634,11.1929
-490,379,-20.6238,-12.2043,0.000599709,0.000169339,0.000147219,0.000645249,0.000123798,0.300005,0.000395414,0.0117231,734,645,-20.6238,12.2044
-483,379,-20.6842,-13.2026,0.000604697,0.000147614,4.25608e-05,0.000608626,0.000143685,0.0920594,0.000367345,0.0137503,741,645,-20.6842,13.2026
-476,379,-20.7155,-14.1455,0.000751707,9.76778e-05,-0.000109407,0.000769524,7.98615e-05,-0.161428,0.000488576,0.0139876,748,645,-20.7155,14.1455
-469,379,-20.7974,-15.114,0.00106662,1.29801e-05,-0.000325735,0.00115919,-7.95886e-05,-0.276885,0.000800642,0.0128195,755,645,-20.7974,15.114
-462,379,-20.8884,-16.1368,0.00152251,-9.13847e-05,-0.000591272,0.00171594,-0.000284821,-0.316178,0.00124977,0.0102285,762,645,-20.8885,16.1368
-455,379,-20.9655,-17.1387,0.00215439,-2.03536e-05,-0.0009723,0.00252569,-0.000391662,-0.364794,0.00182839,0.0107248,769,645,-20.9655,17.1387
-448,379,-21.0007,-18.104,0.0029368,-5.90589e-06,-0.00138701,0.00348749,-0.000556599,-0.377949,0.00253101,0.0129297,776,645,-21.0007,18.104
-441,379,-21.0399,-19.1231,0.00390275,0.000186001,-0.00196943,0.00475217,-0.000663428,-0.407201,0.00341083,0.025009,783,645,-21.0399,19.1231
-434,379,-21.0133,-20.3126,0,0,0,0,0,0,0,-1,790,645,-21.0133,20.3126
-427,379,-4.16113,-4.13452,0,0,0,0,0,0,0,-1,797,645,-4.16116,4.1345
-420,379,-4.63953,-3.46869,0,0,0,0,0,0,0,-1,804,645,-4.63953,3.46872
-413,379,-4.62543,-3.7912,0,0,0,0,0,0,0,-1,811,645,-4.62541,3.79123
-406,379,-4.64063,-4.38489,0,0,0,0,0,0,0,-1,818,645,-4.64065,4.3849
-399,379,-2.93536,-1.40118,0,0,0,0,0,0,0,-1,825,645,-2.93534,1.40119
-392,379,-4.16711,-0.466003,0,0,0,0,0,0,0,-1,832,645,-4.16714,0.465992
-385,379,-3.51862,0.441101,0,0,0,0,0,0,0,-1,839,645,-3.51859,-0.441072
-378,379,-5.3504,0.212219,0,0,0,0,0,0,0,-1,846,645,-5.35038,-0.212241
-371,379,-4.32092,-0.186707,0,0,0,0,0,0,0,-1,853,645,-4.3209,0.186707
-364,379,-3.40887,-0.549805,0,0,0,0,0,0,0,-1,860,645,-3.4089,0.549802
-357,379,0,0,0,0,0,0,0,0,0,-1,867,645,0,0
-350,379,0,0,0,0,0,0,0,0,0,-1,874,645,0,0
-343,379,0,0,0,0,0,0,0,0,0,-1,881,645,0,0
-336,379,0,0,0,0,0,0,0,0,0,-1,888,645,0,0
-329,379,0,0,0,0,0,0,0,0,0,-1,895,645,0,0
-322,379,0,0,0,0,0,0,0,0,0,-1,902,645,0,0
-315,379,0,0,0,0,0,0,0,0,0,-1,909,645,0,0
-308,379,0,0,0,0,0,0,0,0,0,-1,916,645,0,0
-301,379,0,0,0,0,0,0,0,0,0,-1,923,645,0,0
-294,379,0,0,0,0,0,0,0,0,0,-1,930,645,0,0
-287,379,0,0,0,0,0,0,0,0,0,-1,937,645,0,0
-280,379,0,0,0,0,0,0,0,0,0,-1,944,645,0,0
-273,379,0,0,0,0,0,0,0,0,0,-1,951,645,0,0
-266,379,0,0,0,0,0,0,0,0,0,-1,958,645,0,0
-259,379,0,0,0,0,0,0,0,0,0,-1,965,645,0,0
-252,379,0,0,0,0,0,0,0,0,0,-1,972,645,0,0
-245,379,0,0,0,0,0,0,0,0,0,-1,979,645,0,0
-238,379,0,0,0,0,0,0,0,0,0,-1,986,645,0,0
-231,379,0,0,0,0,0,0,0,0,0,-1,993,645,0,0
-224,379,0,0,0,0,0,0,0,0,0,-1,1000,645,0,0
-217,379,0,0,0,0,0,0,0,0,0,-1,1007,645,0,0
-210,379,0,0,0,0,0,0,0,0,0,-1,1014,645,0,0
-203,379,0,0,0,0,0,0,0,0,0,-1,1021,645,0,0
-196,379,0,0,0,0,0,0,0,0,0,-1,1028,645,0,0
-189,379,0,0,0,0,0,0,0,0,0,-1,1035,645,0,0
-182,379,0,0,0,0,0,0,0,0,0,-1,1042,645,0,0
-175,379,0,0,0,0,0,0,0,0,0,-1,1049,645,0,0
-168,379,0,0,0,0,0,0,0,0,0,-1,1056,645,0,0
-161,379,0,0,0,0,0,0,0,0,0,-1,1063,645,0,0
-154,379,0,0,0,0,0,0,0,0,0,-1,1070,645,0,0
-147,379,0,0,0,0,0,0,0,0,0,-1,1077,645,0,0
-140,379,0,0,0,0,0,0,0,0,0,-1,1084,645,0,0
-133,379,0,0,0,0,0,0,0,0,0,-1,1091,645,0,0
-126,379,0,0,0,0,0,0,0,0,0,-1,1098,645,0,0
-119,379,0,0,0,0,0,0,0,0,0,-1,1105,645,0,0
-112,379,0,0,0,0,0,0,0,0,0,-1,1112,645,0,0
-105,379,0,0,0,0,0,0,0,0,0,-1,1119,645,0,0
-98,379,0,0,0,0,0,0,0,0,0,-1,1126,645,0,0
-91,379,0,0,0,0,0,0,0,0,0,-1,1133,645,0,0
-84,379,0,0,0,0,0,0,0,0,0,-1,1140,645,0,0
-77,379,0,0,0,0,0,0,0,0,0,-1,1147,645,0,0
-70,379,0,0,0,0,0,0,0,0,0,-1,1154,645,0,0
-63,379,0,0,0,0,0,0,0,0,0,-1,1161,645,0,0
-56,379,0,0,0,0,0,0,0,0,0,-1,1168,645,0,0
-49,379,0,0,0,0,0,0,0,0,0,-1,1175,645,0,0
-42,379,0,0,0,0,0,0,0,0,0,-1,1182,645,0,0
-35,379,0,0,0,0,0,0,0,0,0,-1,1189,645,0,0
-28,379,0,0,0,0,0,0,0,0,0,-1,1196,645,0,0
-21,379,0,0,0,0,0,0,0,0,0,-1,1203,645,0,0
-14,379,0,0,0,0,0,0,0,0,0,-1,1210,645,0,0
-7,379,0,0,0,0,0,0,0,0,0,-1,1217,645,0,0
0,379,0,0,0,0,0,0,0,0,0,-1,1224,645,0,0
7,379,0,0,0,0,0,0,0,0,0,-1,1231,645,0,0
14,379,0,0,0,0,0,0,0,0,0,-1,1238,645,0,0
21,379,0,0,0,0,0,0,0,0,0,-1,1245,645,0,0
28,379,0,0,0,0,0,0,0,0,0,-1,1252,645,0,0
35,379,0,0,0,0,0,0,0,0,0,-1,1259,645,0,0
42,379,0,0,0,0,0,0,0,0,0,-1,1266,645,0,0
49,379,0,0,0,0,0,0,0,0,0,-1,1273,645,0,0
56,379,0,0,0,0,0,0,0,0,0,-1,1280,645,0,0
63,379,0,0,0,0,0,0,0,0,0,-1,1287,645,0,0
70,379,0,0,0,0,0,0,0,0,0,-1,1294,645,0,0
77,379,0,0,0,0,0,0,0,0,0,-1,1301,645,0,0
84,379,0,0,0,0,0,0,0,0,0,-1,1308,645,0,0
91,379,0,0,0,0,0,0,0,0,0,-1,1315,645,0,0
98,379,0,0,0,0,0,0,0,0,0,-1,1322,645,0,0
105,379,0,0,0,0,0,0,0,0,0,-1,1329,645,0,0
112,379,0,0,0,0,0,0,0,0,0,-1,1336,645,0,0
119,379,0,0,0,0,0,0,0,0,0,-1,1343,645,0,0
126,379,0,0,0,0,0,0,0,0,0,-1,1350,645,0,0
133,379,0,0,0,0,0,0,0,0,0,-1,1357,645,0,0
140,379,0,0,0,0,0,0,0,0,0,-1,1364,645,0,0
147,379,0,0,0,0,0,0,0,0,0,-1,1371,645,0,0
154,379,0,0,0,0,0,0,0,0,0,-1,1378,645,0,0
161,379,0,0,0,0,0,0,0,0,0,-1,1385,645,0,0
168,379,0,0,0,0,0,0,0,0,0,-1,1392,645,0,0
175,379,0,0,0,0,0,0,0,0,0,-1,1399,645,0,0
182,379,0,0,0,0,0,0,0,0,0,-1,1406,645,0,0
189,379,0,0,0,0,0,0,0,0,0,-1,1413,645,0,0
196,379,0,0,0,0,0,0,0,0,0,-1,1420,645,0,0
203,379,0,0,0,0,0,0,0,0,0,-1,1427,645,0,0
210,379,0,0,0,0,0,0,0,0,0,-1,1434,645,0,0
217,379,0,0,0,0,0,0,0,0,0,-1,1441,645,0,0
224,379,0,0,0,0,0,0,0,0,0,-1,1448,645,0,0
231,379,0,0,0,0,0,0,0,0,0,-1,1455,645,0,0
238,379,0,0,0,0,0,0,0,0,0,-1,1462,645,0,0
245,379,0,0,0,0,0,0,0,0,0,-1,1469,645,0,0
252,379,0,0,0,0,0,0,0,0,0,-1,1476,645,0,0
259,379,0,0,0,0,0,0,0,0,0,-1,1483,645,0,0
266,379,0,0,0,0,0,0,0,0,0,-1,1490,645,0,0
273,379,0,0,0,0,0,0,0,0,0,-1,1497,645,0,0
280,379,0,0,0,0,0,0,0,0,0,-1,1504,645,0,0
287,379,0,0,0,0,0,0,0,0,0,-1,1511,645,0,0
294,379,0,0,0,0,0,0,0,0,0,-1,1518,645,0,0
301,379,0,0,0,0,0,0,0,0,0,-1,1525,645,0,0
308,379,0,0,0,0,0,0,0,0,0,-1,1532,645,0,0
315,379,0,0,0,0,0,0,0,0,0,-1,1539,645,0,0
322,379,0,0,0,0,0,0,0,0,0,-1,1546,645,0,0
329,379,0,0,0,0,0,0,0,0,0,-1,1553,645,0,0
336,379,0,0,0,0,0,0,0,0,0,-1,1560,645,0,0
343,379,0,0,0,0,0,0,0,0,0,-1,1567,645,0,0
350,379,0,0,0,0,0,0,0,0,0,-1,1574,645,0,0
357,379,0,0,0,0,0,0,0,0,0,-1,1581,645,0,0
364,379,0,0,0,0,0,0,0,0,0,-1,1588,645,0,0
371,379,0,0,0,0,0,0,0,0,0,-1,1595,645,0,0
378,379,0,0,0,0,0,0,0,0,0,-1,1602,645,0,0
385,379,0,0,0,0,0,0,0,0,0,-1,1609,645,0,0
392,379,0,0,0,0,0,0,0,0,0,-1,1616,645,0,0
399,379,0,0,0,0,0,0,0,0,0,-1,1623,645,0,0
406,379,0,0,0,0,0,0,0,0,0,-1,1630,645,0,0
413,379,0,0,0,0,0,0,0,0,0,-1,1637,645,0,0
420,379,0,0,0,0,0,0,0,0,0,-1,1644,645,0,0
427,379,0,0,0,0,0,0,0,0,0,-1,1651,645,0,0
434,379,0,0,0,0,0,0,0,0,0,-1,1658,645,0,0
441,379,0,0,0,0,0,0,0,0,0,-1,1665,645,0,0
448,379,0,0,0,0,0,0,0,0,0,-1,1672,645,0,0
455,379,0,0,0,0,0,0,0,0,0,-1,1679,645,0,0
462,379,0,0,0,0,0,0,0,0,0,-1,1686,645,0,0
469,379,0,0,0,0,0,0,0,0,0,-1,1693,645,0,0
476,379,11.1787,0.830383,0,0,0,0,0,0,0,-1,1700,645,11.1787,-0.830365
483,379,7.4231,1.54321,0,0,0,0,0,0,0,-1,1707,645,7.42314,-1.54324
490,379,8.52881,1.56677,0,0,0,0,0,0,0,-1,1714,645,8.52878,-1.56677
497,379,9.63599,1.49573,0,0,0,0,0,0,0,-1,1721,645,9.63604,-1.4957
504,379,10.0833,1.35229,0,0,0,0,0,0,0,-1,1728,645,10.0832,-1.35227
511,379,8.14343,1.59912,0,0,0,0,0,0,0,-1,1735,645,8.14347,-1.59912
518,379,12.7955,-0.324097,0,0,0,0,0,0,0,-1,1742,645,12.7955,0.324101
525,379,6.03711,1.10352,0,0,0,0,0,0,0,-1,1749,645,6.03711,-1.10351
532,379,8.70947,0.887817,0,0,0,0,0,0,0,-1,1756,645,8.70953,-0.887808
539,379,9.87097,0.111389,0,0,0,0,0,0,0,-1,1763,645,9.87095,-0.111395
546,379,8.42383,-0.730652,0,0,0,0,0,0,0,-1,1770,645,8.42378,0.730638
553,379,19.2905,-7.67834,0,0,0,0,0,0,0,-1,1777,645,19.2905,7.67837
560,379,22.5734,-10.4749,0,0,0,0,0,0,0,-1,1784,645,22.5734,10.4749
567,379,37.1565,-18.9797,0,0,0,0,0,0,0,-1,1791,645,37.1565,18.9798
574,379,37.1067,-17.9001,0.000691414,-0.000430381,-0.000251296,0.000745135,-0.000484102,-0.210605,0.000715014,0.0183612,1798,645,37.1067,17.9001
581,379,37.0464,-16.9238,0.000372601,-0.000203566,-0.000183084,0.000425856,-0.000256821,-0.283066,0.000398151,0.0166233,1805,645,37.0464,16.9238
588,379,36.9856,-15.9499,0.000452816,0.000165862,8.93971e-05,0.000478387,0.00014029,0.278607,0.000283958,0.01805,1812,645,36.9855,15.9499
595,379,36.926,-14.996,0.000842798,0.00072608,0.000511107,0.00129887,0.000270011,0.728553,0.000791413,0.0154993,1819,645,36.9261,14.996
602,379,36.8588,-14.0336,0.0014568,0.0014151,0.00104993,0.00248608,0.000385816,0.775471,0.00154493,0.0177835,1826,645,36.8587,14.0336
609,379,36.7887,-13.0761,0.0021948,0.0022442,0.00164195,0.00386163,0.000577363,0.792919,0.00240518,0.0199007,1833,645,36.7887,13.0761
616,379,36.6965,-12.0455,0.00309662,0.00321371,0.00227988,0.0054358,0.000874534,0.798235,0.00337039,0.0155942,1840,645,36.6965,12.0455
623,379,36.6604,-10.9863,0.00415759,0.0042485,0.00299644,0.00719983,0.00120626,0.792983,0.0044526,0.0120374,1847,645,36.6603,10.9863
630,379,36.6027,-10.0167,0.00518793,0.0053014,0.00365621,0.00890131,0.00158802,0.793156,0.00548208,0.014611,1854,645,36.6027,10.0167
637,379,36.5845,-8.92615,0.00610618,0.00650854,0.00425911,0.0105712,0.00204349,0.808998,0.00647472,0.0453771,1861,645,36.5844,8.92613
644,379,36.7581,-7.70917,0,0,0,0,0,0,0,-1,1868,645,36.758,7.7092
651,379,12.9515,0.220825,0,0,0,0,0,0,0,-1,1875,645,12.9515,-0.220814
658,379,13.7498,0.37439,0,0,0,0,0,0,0,-1,1882,645,13.7498,-0.374371
665,379,11.9719,0.353333,0,0,0,0,0,0,0,-1,1889,645,11.9719,-0.353321
672,379,7.57605,2.15326,0,0,0,0,0,0,0,-1,1896,645,7.57599,-2.15326
679,379,8.55078,2.50409,0,0,0,0,0,0,0,-1,1903,645,8.55073,-2.50406
686,379,0,0,0,0,0,0,0,0,0,-1,1910,645,0,0
693,379,0,0,0,0,0,0,0,0,0,-1,1917,645,0,0
700,379,0,0,0,0,0,0,0,0,0,-1,1924,645,0,0
707,379,0,0,0,0,0,0,0,0,0,-1,1931,645,0,0
714,379,0,0,0,0,0,0,0,0,0,-1,1938,645,0,0
721,379,0,0,0,0,0,0,0,0,0,-1,1945,645,0,0
728,379,0,0,0,0,0,0,0,0,0,-1,1952,645,0,0
735,379,0,0,0,0,0,0,0,0,0,-1,1959,645,0,0
742,379,0,0,0,0,0,0,0,0,0,-1,1966,645,0,0
749,379,0,0,0,0,0,0,0,0,0,-1,1973,645,0,0
756,379,0,0,0,0,0,0,0,0,0,-1,1980,645,0,0
763,379,0,0,0,0,0,0,0,0,0,-1,1987,645,0,0
770,379,0,0,0,0,0,0,0,0,0,-1,1994,645,0,0
777,379,0,0,0,0,0,0,0,0,0,-1,2001,645,0,0
784,379,0,0,0,0,0,0,0,0,0,-1,2008,645,0,0
791,379,0,0,0,0,0,0,0,0,0,-1,2015,645,0,0
798,379,0,0,0,0,0,0,0,0,0,-1,2022,645,0,0
805,379,0,0,0,0,0,0,0,0,0,-1,2029,645,0,0
812,379,0,0,0,0,0,0,0,0,0,-1,2036,645,0,0
-700,372,0,0,0,0,0,0,0,0,0,-1,524,652,0,0
-693,372,0,0,0,0,0,0,0,0,0,-1,531,652,0,0
-686,372,0,0,0,0,0,0,0,0,0,-1,538,652,0,0
-679,372,0,0,0,0,0,0,0,0,0,-1,545,652,0,0
-672,372,0,0,0,0,0,0,0,0,0,-1,552,652,0,0
-665,372,0,0,0,0,0,0,0,0,0,-1,559,652,0,0
-658,372,0,0,0,0,0,0,0,0,0,-1,566,652,0,0
-651,372,0,0,0,0,0,0,0,0,0,-1,573,652,0,0
-644,372,0,0,0,0,0,0,0,0,0,-1,580,652,0,0
-637,372,0,0,0,0,0,0,0,0,0,-1,587,652,0,0
-630,372,0,0,0,0,0,0,0,0,0,-1,594,652,0,0
-623,372,0,0,0,0,0,0,0,0,0,-1,601,652,0,0
-616,372,0,0,0,0,0,0,0,0,0,-1,608,652,0,0
-609,372,0,0,0,0,0,0,0,0,0,-1,615,652,0,0
-602,372,0,0,0,0,0,0,0,0,0,-1,622,652,0,0
-595,372,0,0,0,0,0,0,0,0,0,-1,629,652,0,0
-588,372,0,0,0,0,0,0,0,0,0,-1,636,652,0,0
-581,372,0,0,0,0,0,0,0,0,0,-1,643,652,0,0
-574,372,0,0,0,0,0,0,0,0,0,-1,650,652,0,0
-567,372,-7.93744,0.73407,0,0,0,0,0,0,0,-1,657,652,-7.93741,-0.734076
-560,372,-8.78552,-0.158203,0,0,0,0,0,0,0,-1,664,652,-8.78552,0.158216
-553,372,-7.95551,1.61694,0,0,0,0,0,0,0,-1,671,652,-7.95552,-1.61697
-546,372,-4.2403,-3.75372,0,0,0,0,0,0,0,-1,678,652,-4.24028,3.75369
-539,372,-7.92285,-0.0650024,0,0,0,0,0,0,0,-1,685,652,-7.92287,0.0649772
-532,372,-8.59589,-0.419556,0,0,0,0,0,0,0,-1,692,652,-8.59591,0.419539
-525,372,-8.03674,-1.36804,0,0,0,0,0,0,0,-1,699,652,-8.03676,1.36806
-518,372,-21.395,-8.02948,0,0,0,0,0,0,0,-1,706,652,-21.395,8.02951
-511,372,-21.416,-9.15369,0.00145118,-0.000253954,-0.000420496,0.00154923,-0.000352012,-0.229102,0.00116798,0.0407283,713,652,-21.4159,9.15368
-504,372,-21.4932,-10.0934,0.00127176,-9.07877e-05,-0.000206407,0.00130234,-0.000121369,-0.14709,0.000911384,0.0192429,720,652,-21.4932,10.0934
-497,372,-21.5175,-11.1255,0.00114336,-5.15161e-05,-0.00012808,0.00115694,-6.50908e-05,-0.105592,0.000793879,0.0127313,727,652,-21.5175,11.1256
-490,372,-21.6072,-12.1084,0.00107845,-5.59924e-05,-0.000100156,0.00108722,-6.4767e-05,-0.0873862,0.000747341,0.0135539,734,652,-21.6072,12.1084
-483,372,-21.6823,-13.1031,0.00109099,-6.20827e-05,-0.000149624,0.00111009,-8.11817e-05,-0.12696,0.000768553,0.0135493,741,652,-21.6822,13.1032
-476,372,-21.7297,-14.0536,0.00120692,-6.70636e-05,-0.000260993,0.00125832,-0.000118458,-0.194431,0.000881023,0.0146493,748,652,-21.7297,14.0536
-469,372,-21.8112,-15.0109,0.00145791,-7.58627e-05,-0.00045917,0.00158487,-0.000202817,-0.269748,0.00113027,0.0117566,755,652,-21.8112,15.0109
-462,372,-21.8724,-16.0212,0.00183335,-8.00905e-05,-0.000720457,0.00207429,-0.000321022,-0.322724,0.00150135,0.0104928,762,652,-21.8724,16.0212
-455,372,-21.9568,-17.0248,0.00239291,7.72033e-05,-0.00110149,0.00283315,-0.000363041,-0.380229,0.00202068,0.0113331,769,652,-21.9569,17.0248
-448,372,-22.0066,-18.0269,0.00310419,0.000195527,-0.00152319,0.00375584,-0.000456132,-0.404261,0.00266896,0.0171147,776,652,-22.0066,18.0269
-441,372,-21.9853,-19.1478,0,0,0,0,0,0,0,-1,783,652,-21.9853,19.1478
-434,372,-9.86865,-9.68494,0,0,0,0,0,0,0,-1,790,652,-9.86863,9.68492
-427,372,-4.54248,-3.56268,0,0,0,0,0,0,0,-1,797,652,-4.54247,3.56266
-420,372,-4.66168,-2.93597,0,0,0,0,0,0,0,-1,804,652,-4.66166,2.93599
-413,372,-4.74762,-3.29541,0,0,0,0,0,0,0,-1,811,652,-4.74763,3.29542
-406,372,-0.885437,-0.583923,0,0,0,0,0,0,0,-1,818,652,-0.885437,0.5839
-399,372,-3.97357,-0.825012,0,0,0,0,0,0,0,-1,825,652,-3.97359,0.825037
-392,372,-7.64337,0.173035,0,0,0,0,0,0,0,-1,832,652,-7.64337,-0.173019
-385,372,-6.48871,-0.0271606,0,0,0,0,0,0,0,-1,839,652,-6.48874,0.0271353
-378,372,-5.33044,-0.242432,0,0,0,0,0,0,0,-1,846,652,-5.33042,0.242457
-371,372,-4.40802,-0.495667,0,0,0,0,0,0,0,-1,853,652,-4.40802,0.495661
-364,372,0,0,0,0,0,0,0,0,0,-1,860,652,0,0
-357,372,0,0,0,0,0,0,0,0,0,-1,867,652,0,0
-350,372,0,0,0,0,0,0,0,0,0,-1,874,652,0,0
-343,372,0,0,0,0,0,0,0,0,0,-1,881,652,0,0
-336,372,0,0,0,0,0,0,0,0,0,-1,888,652,0,0
-329,372,0,0,0,0,0,0,0,0,0,-1,895,652,0,0
-322,372,0,0,0,0,0,0,0,0,0,-1,902,652,0,0
-315,372,0,0,0,0,0,0,0,0,0,-1,909,652,0,0
-308,372,0,0,0,0,0,0,0,0,0,-1,916,652,0,0
-301,372,0,0,0,0,0,0,0,0,0,-1,923,652,0,0
-294,372,0,0,0,0,0,0,0,0,0,-1,930,652,0,0
-287,372,0,0,0,0,0,0,0,0,0,-1,937,652,0,0
-280,372,0,0,0,0,0,0,0,0,0,-1,944,652,0,0
-273,372,0,0,0,0,0,0,0,0,0,-1,951,652,0,0
-266,372,0,0,0,0,0,0,0,0,0,-1,958,652,0,0
-259,372,0,0,0,0,0,0,0,0,0,-1,965,652,0,0
-252,372,0,0,0,0,0,0,0,0,0,-1,972,652,0,0
-245,372,0,0,0,0,0,0,0,0,0,-1,979,652,0,0
-238,372,0,0,0,0,0,0,0,0,0,-1,986,652,0,0
-231,372,0,0,0,0,0,0,0,0,0,-1,993,652,0,0
-224,372,0,0,0,0,0,0,0,0,0,-1,1000,652,0,0
-217,372,0,0,0,0,0,0,0,0,0,-1,1007,652,0,0
-210,372,0,0,0,0,0,0,0,0,0,-1,1014,652,0,0
-203,372,0,0,0,0,0,0,0,0,0,-1,1021,652,0,0
-196,372,0,0,0,0,0,0,0,0,0,-1,1028,652,0,0
-189,372,0,0,0,0,0,0,0,0,0,-1,1035,652,0,0
-182,372,0,0,0,0,0,0,0,0,0,-1,1042,652,0,0
-175,372,0,0,0,0,0,0,0,0,0,-1,1049,652,0,0
-168,372,0,0,0,0,0,0,0,0,0,-1,1056,652,0,0
-161,372,0,0,0,0,0,0,0,0,0,-1,1063,652,0,0
-154,372,0,0,0,0,0,0,0,0,0,-1,1070,652,0,0
-147,372,0,0,0,0,0,0,0,0,0,-1,1077,652,0,0
-140,372,0,0,0,0,0,0,0,0,0,-1,1084,652,0,0
-133,372,0,0,0,0,0,0,0,0,0,-1,1091,652,0,0
-126,372,0,0,0,0,0,0,0,0,0,-1,1098,652,0,0
-119,372,0,0,0,0,0,0,0,0,0,-1,1105,652,0,0
-112,372,0,0,0,0,0,0,0,0,0,-1,1112,652,0,0
-105,372,0,0,0,0,0,0,0,0,0,-1,1119,652,0,0
-98,372,0,0,0,0,0,0,0,0,0,-1,1126,652,0,0
-91,372,0,0,0,0,0,0,0,0,0,-1,1133,652,0,0
-84,372,0,0,0,0,0,0,0,0,0,-1,1140,652,0,0
-77,372,0,0,0,0,0,0,0,0,0,-1,1147,652,0,0
-70,372,0,0,0,0,0,0,0,0,0,-1,1154,652,0,0
-63,372,0,0,0,0,0,0,0,0,0,-1,1161,652,0,0
-56,372,0,0,0,0,0,0,0,0,0,-1,1168,652,0,0
-49,372,0,0,0,0,0,0,0,0,0,-1,1175,652,0,0
-42,372,0,0,0,0,0,0,0,0,0,-1,1182,652,0,0
-35,372,0,0,0,0,0,0,0,0,0,-1,1189,652,0,0
-28,372,0,0,0,0,0,0,0,0,0,-1,1196,652,0,0
-21,372,0,0,0,0,0,0,0,0,0,-1,1203,652,0,0
-14,372,0,0,0,0,0,0,0,0,0,-1,1210,652,0,0
-7,372,0,0,0,0,0,0,0,0,0,-1,1217,652,0,0
0,372,0,0,0,0,0,0,0,0,0,-1,1224,652,0,0
7,372,0,0,0,0,0,0,0,0,0,-1,1231,652,0,0
14,372,0,0,0,0,0,0,0,0,0,-1,1238,652,0,0
21,372,0,0,0,0,0,0,0,0,0,-1,1245,652,0,0
28,372,0,0,0,0,0,0,0,0,0,-1,1252,652,0,0
35,372,0,0,0,0,0,0,0,0,0,-1,1259,652,0,0
42,372,0,0,0,0,0,0,0,0,0,-1,1266,652,0,0
49,372,0,0,0,0,0,0,0,0,0,-1,1273,652,0,0
56,372,0,0,0,0,0,0,0,0,0,-1,1280,652,0,0
63,372,0,0,0,0,0,0,0,0,0,-1,1287,652,0,0
70,372,0,0,0,0,0,0,0,0,0,-1,1294,652,0,0
77,372,0,0,0,0,0,0,0,0,0,-1,1301,652,0,0
84,372,0,0,0,0,0,0,0,0,0,-1,1308,652,0,0
91,372,0,0,0,0,0,0,0,0,0,-1,1315,652,0,0
98,372,0,0,0,0,0,0,0,0,0,-1,1322,652,0,0
105,372,0,0,0,0,0,0,0,0,0,-1,1329,652,0,0
112,372,0,0,0,0,0,0,0,0,0,-1,1336,652,0,0
119,372,0,0,0,0,0,0,0,0,0,-1,1343,652,0,0
126,372,0,0,0,0,0,0,0,0,0,-1,1350,652,0,0
133,372,0,0,0,0,0,0,0,0,0,-1,1357,652,0,0
140,372,0,0,0,0,0,0,0,0,0,-1,1364,652,0,0
147,372,0,0,0,0,0,0,0,0,0,-1,1371,652,0,0
154,372,0,0,0,0,0,0,0,0,0,-1,1378,652,0,0
161,372,0,0,0,0,0,0,0,0,0,-1,1385,652,0,0
168,372,0,0,0,0,0,0,0,0,0,-1,1392,652,0,0
175,372,0,0,0,0,0,0,0,0,0,-1,1399,652,0,0
182,372,0,0,0,0,0,0,0,0,0,-1,1406,652,0,0
189,372,0,0,0,0,0,0,0,0,0,-1,1413,652,0,0
196,372,0,0,0,0,0,0,0,0,0,-1,1420,652,0,0
203,372,0,0,0,0,0,0,0,0,0,-1,1427,652,0,0
210,372,0,0,0,0,0,0,0,0,0,-1,1434,652,0,0
217,372,0,0,0,0,0,0,0,0,0,-1,1441,652,0,0
224,372,0,0,0,0,0,0,0,0,0,-1,1448,652,0,0
231,372,0,0,0,0,0,0,0,0,0,-1,1455,652,0,0
238,372,0,0,0,0,0,0,0,0,0,-1,1462,652,0,0
245,372,0,0,0,0,0,0,0,0,0,-1,1469,652,0,0
252,372,0,0,0,0,0,0,0,0,0,-1,1476,652,0,0
259,372,0,0,0,0,0,0,0,0,0,-1,1483,652,0,0
266,372,0,0,0,0,0,0,0,0,0,-1,1490,652,0,0
273,372,0,0,0,0,0,0,0,0,0,-1,1497,652,0,0
280,372,0,0,0,0,0,0,0,0,0,-1,1504,652,0,0
287,372,0,0,0,0,0,0,0,0,0,-1,1511,652,0,0
294,372,0,0,0,0,0,0,0,0,0,-1,1518,652,0,0
301,372,0,0,0,0,0,0,0,0,0,-1,1525,652,0,0
308,372,0,0,0,0,0,0,0,0,0,-1,1532,652,0,0
315,372,0,0,0,0,0,0,0,0,0,-1,1539,652,0,0
322,372,0,0,0,0,0,0,0,0,0,-1,1546,652,0,0
329,372,0,0,0,0,0,0,0,0,0,-1,1553,652,0,0
336,372,0,0,0,0,0,0,0,0,0,-1,1560,652,0,0
343,372,0,0,0,0,0,0,0,0,0,-1,1567,652,0,0
350,372,0,0,0,0,0,0,0,0,0,-1,1574,652,0,0
357,372,0,0,0,0,0,0,0,0,0,-1,1581,652,0,0
364,372,0,0,0,0,0,0,0,0,0,-1,1588,652,0,0
371,372,0,0,0,0,0,0,0,0,0,-1,1595,652,0,0
378,372,0,0,0,0,0,0,0,0,0,-1,1602,652,0,0
385,372,0,0,0,0,0,0,0,0,0,-1,1609,652,0,0
392,372,0,0,0,0,0,0,0,0,0,-1,1616,652,0,0
399,372,0,0,0,0,0,0,0,0,0,-1,1623,652,0,0
406,372,0,0,0,0,0,0,0,0,0,-1,1630,652,0,0
413,372,0,0,0,0,0,0,0,0,0,-1,1637,652,0,0
420,372,0,0,0,0,0,0,0,0,0,-1,1644,652,0,0
427,372,0,0,0,0,0,0,0,0,0,-1,1651,652,0,0
434,372,0,0,0,0,0,0,0,0,0,-1,1658,652,0,0
441,372,0,0,0,0,0,0,0,0,0,-1,1665,652,0,0
448,372,0,0,0,0,0,0,0,0,0,-1,1672,652,0,0
455,372,0,0,0,0,0,0,0,0,0,-1,1679,652,0,0
462,372,0,0,0,0,0,0,0,0,0,-1,1686,652,0,0
469,372,0,0,0,0,0,0,0,0,0,-1,1693,652,0,0
476,372,0,0,0,0,0,0,0,0,0,-1,1700,652,0,0
483,372,8.74182,1.53125,0,0,0,0,0,0,0,-1,1707,652,8.74186,-1.53126
490,372,9.78455,1.67096,0,0,0,0,0,0,0,-1,1714,652,9.7846,-1.67093
497,372,9.97644,1.46069,0,0,0,0,0,0,0,-1,1721,652,9.97647,-1.46071
504,372,10.1216,1.28375,0,0,0,0,0,0,0,-1,1728,652,10.1216,-1.28376
511,372,11.7367,-0.0272217,0,0,0,0,0,0,0,-1,1735,652,11.7367,0.0272326
518,372,12.0657,-0.0995483,0,0,0,0,0,0,0,-1,1742,652,12.0657,0.0995285
525,372,12.3947,-0.171814,0,0,0,0,0,0,0,-1,1749,652,12.3946,0.171824
532,372,9.36597,1.72034,0,0,0,0,0,0,0,-1,1756,652,9.36597,-1.72036
539,372,7.82886,-0.0865479,0,0,0,0,0,0,0,-1,1763,652,7.82882,0.0865771
546,372,10.953,-0.187195,0,0,0,0,0,0,0,-1,1770,652,10.953,0.187181
553,372,14.1201,-4.83234,0,0,0,0,0,0,0,-1,1777,652,14.1201,4.83235
560,372,20.1057,-8.06934,0,0,0,0,0,0,0,-1,1784,652,20.1058,8.06936
567,372,38.2025,-19.0353,0,0,0,0,0,0,0,-1,1791,652,38.2025,19.0353
574,372,38.1199,-17.745,0.000360838,-0.000700965,-0.000561073,0.000602374,-0.0009425,-0.406511,0.00089911,0.0445808,1798,652,38.1199,17.745
581,372,38.0499,-16.8541,-1.7958e-05,-0.00053752,-0.00050042,0.000286093,-0.00084157,-0.545983,0.000676874,0.0238408,1805,652,38.05,16.8541
588,372,37.9713,-15.8981,4.95545e-05,-0.000293441,-0.000230496,0.000165355,-0.000409241,-0.465562,0.000341559,0.0174555,1812,652,37.9713,15.8981
595,372,37.8959,-14.9347,0.000422502,0.000191989,0.000148316,0.000495079,0.000119412,0.455088,0.000298325,0.0147357,1819,652,37.8958,14.9347
602,372,37.8883,-13.9843,0.00098995,0.000764283,0.000614216,0.00150161,0.000252623,0.69456,0.000928395,0.0192578,1826,652,37.8883,13.9842
609,372,37.744,-13.0209,0.00162575,0.00144422,0.00110584,0.00264454,0.000425423,0.744451,0.00163972,0.021071,1833,652,37.744,13.0209
616,372,37.6605,-11.9731,0.002367,0.00222888,0.00161256,0.00391198,0.000683903,0.763999,0.00241255,0.0189863,1840,652,37.6605,11.9731
623,372,37.6406,-10.9206,0.00323947,0.00306252,0.00218547,0.00533825,0.000963739,0.765167,0.00328505,0.0132276,1847,652,37.6406,10.9206
630,372,37.6014,-9.93884,0.00402636,0.00391694,0.00269758,0.00666978,0.00127352,0.775259,0.00408867,0.0180571,1854,652,37.6015,9.93882
637,372,37.6079,-8.98523,0.00468405,0.00484572,0.00314908,0.007915,0.00161476,0.79823,0.00482925,0.0286877,1861,652,37.6079,8.98522
644,372,37.741,-7.98907,0,0,0,0,0,0,0,-1,1868,652,37.741,7.98906
651,372,21.3998,-0.888,0,0,0,0,0,0,0,-1,1875,652,21.3998,0.887992
658,372,14.157,0.280273,0,0,0,0,0,0,0,-1,1882,652,14.157,-0.280264
665,372,15.2286,0.463867,0,0,0,0,0,0,0,-1,1889,652,15.2287,-0.463854
672,372,9.34106,1.48444,0,0,0,0,0,0,0,-1,1896,652,9.34109,-1.48444
679,372,10.7308,2.32391,0,0,0,0,0,0,0,-1,1903,652,10.7309,-2.3239
686,372,11.6295,2.52997,0,0,0,0,0,0,0,-1,1910,652,11.6296,-2.52996
693,372,0,0,0,0,0,0,0,0,0,-1,1917,652,0,0
700,372,0,0,0,0,0,0,0,0,0,-1,1924,652,0,0
707,372,0,0,0,0,0,0,0,0,0,-1,1931,652,0,0
714,372,0,0,0,0,0,0,0,0,0,-1,1938,652,0,0
721,372,0,0,0,0,0,0,0,0,0,-1,1945,652,0,0
728,372,0,0,0,0,0,0,0,0,0,-1,1952,652,0,0
735,372,0,0,0,0,0,0,0,0,0,-1,1959,652,0,0
742,372,0,0,0,0,0,0,0,0,0,-1,1966,652,0,0
749,372,0,0,0,0,0,0,0,0,0,-1,1973,652,0,0
756,372,0,0,0,0,0,0,0,0,0,-1,1980,652,0,0
763,372,0,0,0,0,0,0,0,0,0,-1,1987,652,0,0
770,372,0,0,0,0,0,0,0,0,0,-1,1994,652,0,0
777,372,0,0,0,0,0,0,0,0,0,-1,2001,652,0,0
784,372,0,0,0,0,0,0,0,0,0,-1,2008,652,0,0
791,372,0,0,0,0,0,0,0,0,0,-1,2015,652,0,0
798,372,0,0,0,0,0,0,0,0,0,-1,2022,652,0,0
805,372,0,0,0,0,0,0,0,0,0,-1,2029,652,0,0
812,372,0,0,0,0,0,0,0,0,0,-1,2036,652,0,0
-700,365,0,0,0,0,0,0,0,0,0,-1,524,659,0,0
-693,365,0,0,0,0,0,0,0,0,0,-1,531,659,0,0
-686,365,0,0,0,0,0,0,0,0,0,-1,538,659,0,0
-679,365,0,0,0,0,0,0,0,0,0,-1,545,659,0,0
-672,365,0,0,0,0,0,0,0,0,0,-1,552,659,0,0
-665,365,0,0,0,0,0,0,0,0,0,-1,559,659,0,0
-658,365,0,0,0,0,0,0,0,0,0,-1,566,659,0,0
-651,365,0,0,0,0,0,0,0,0,0,-1,573,659,0,0
-644,365,0,0,0,0,0,0,0,0,0,-1,580,659,0,0
-637,365,0,0,0,0,0,0,0,0,0,-1,587,659,0,0
-630,365,0,0,0,0,0,0,0,0,0,-1,594,659,0,0
-623,365,0,0,0,0,0,0,0,0,0,-1,601,659,0,0
-616,365,0,0,0,0,0,0,0,0,0,-1,608,659,0,0
-609,365,0,0,0,0,0,0,0,0,0,-1,615,659,0,0
-602,365,0,0,0,0,0,0,0,0,0,-1,622,659,0,0
-595,365,0,0,0,0,0,0,0,0,0,-1,629,659,0,0
-588,365,0,0,0,0,0,0,0,0,0,-1,636,659,0,0
-581,365,0,0,0,0,0,0,0,0,0,-1,643,659,0,0
-574,365,-7.69281,1.59015,0,0,0,0,0,0,0,-1,650,659,-7.69282,-1.59018
-567,365,-8.2583,1.72638,0,0,0,0,0,0,0,-1,657,659,-8.25827,-1.72637
-560,365,-7.17767,0.275757,0,0,0,0,0,0,0,-1,664,659,-7.17768,-0.27577
-553,365,-10.0349,-0.169617,0,0,0,0,0,0,0,-1,671,659,-10.0349,0.169593
-546,365,-10.6303,-1.51642,0,0,0,0,0,0,0,-1,678,659,-10.6303,1.5164
-539,365,-8.38599,1.52936,0,0,0,0,0,0,0,-1,685,659,-8.38598,-1.52935
-532,365,-8.52863,0.166504,0,0,0,0,0,0,0,-1,692,659,-8.52863,-0.166501
-525,365,-9.28229,-2.62726,0,0,0,0,0,0,0,-1,699,659,-9.28227,2.62724
-518,365,-22.3651,-7.9491,0,0,0,0,0,0,0,-1,706,659,-22.365,7.94908
-511,365,-22.4285,-9.03369,0.0018098,-5.34291e-05,-0.000785027,0.00209645,-0.00034008,-0.350106,0.0015237,0.0375274,713,659,-22.4285,9.03369
-504,365,-22.4511,-10.0309,0.00163948,-6.88971e-05,-0.000509793,0.00178004,-0.000209458,-0.269037,0.00126232,0.0130857,720,659,-22.4511,10.0309
-497,365,-22.5004,-11.0483,0.00150981,-0.000111261,-0.000361569,0.0015868,-0.000188249,-0.209797,0.00112588,0.0138617,727,659,-22.5004,11.0483
-490,365,-22.5903,-12.0455,0.001424,-0.000134732,-0.000287416,0.00147531,-0.00018604,-0.176654,0.00105105,0.0158117,734,659,-22.5903,12.0455
-483,365,-22.6934,-13.0254,0.00140868,-0.000122885,-0.000295673,0.00146378,-0.000177983,-0.184235,0.00104027,0.0145089,741,659,-22.6934,13.0254
-476,365,-22.6874,-14.002,0.00147007,-8.00367e-05,-0.000371965,0.00155471,-0.000164673,-0.223728,0.0010955,0.019358,748,659,-22.6874,14.0019
-469,365,-22.7477,-14.9705,0.00164575,-1.0655e-05,-0.000545907,0.00180948,-0.000174387,-0.29139,0.00126845,0.0192672,755,659,-22.7477,14.9705
-462,365,-22.8543,-15.9368,0.00193889,8.99523e-05,-0.00079443,0.00223334,-0.000204497,-0.354945,0.00156153,0.0157227,762,659,-22.8543,15.9367
-455,365,-22.9252,-16.9241,0.00243161,0.000303422,-0.00115181,0.00293562,-0.000200588,-0.41248,0.00202726,0.0195906,769,659,-22.9251,16.9241
-448,365,-23.0206,-17.9677,0,0,0,0,0,0,0,-1,776,659,-23.0205,17.9677
-441,365,-16.9571,-15.1896,0,0,0,0,0,0,0,-1,783,659,-16.9571,15.1896
-434,365,-5.45056,-3.98041,0,0,0,0,0,0,0,-1,790,659,-5.45055,3.98042
-427,365,-5.05377,-4.74689,0,0,0,0,0,0,0,-1,797,659,-5.05376,4.7469
-420,365,-4.58813,-3.16376,0,0,0,0,0,0,0,-1,804,659,-4.58816,3.16374
-413,365,0.141357,0.672729,0,0,0,0,0,0,0,-1,811,659,0.141365,-0.672714
-406,365,-1.75067,-0.934448,0,0,0,0,0,0,0,-1,818,659,-1.7507,0.934424
-399,365,-4.10242,-1.25439,0,0,0,0,0,0,0,-1,825,659,-4.10244,1.25438
-392,365,-7.46545,-0.779724,0,0,0,0,0,0,0,-1,832,659,-7.46543,0.779744
-385,365,-6.27875,-0.887573,0,0,0,0,0,0,0,-1,839,659,-6.27874,0.887545
-378,365,-5.34503,-0.263306,0,0,0,0,0,0,0,-1,846,659,-5.34504,0.263275
-371,365,0,0,0,0,0,0,0,0,0,-1,853,659,0,0
-364,365,0,0,0,0,0,0,0,0,0,-1,860,659,0,0
-357,365,0,0,0,0,0,0,0,0,0,-1,867,659,0,0
-350,365,0,0,0,0,0,0,0,0,0,-1,874,659,0,0
-343,365,0,0,0,0,0,0,0,0,0,-1,881,659,0,0
-336,365,0,0,0,0,0,0,0,0,0,-1,888,659,0,0
-329,365,0,0,0,0,0,0,0,0,0,-1,895,659,0,0
-322,365,0,0,0,0,0,0,0,0,0,-1,902,659,0,0
-315,365,0,0,0,0,0,0,0,0,0,-1,909,659,0,0
-308,365,0,0,0,0,0,0,0,0,0,-1,916,659,0,0
-301,365,0,0,0,0,0,0,0,0,0,-1,923,659,0,0
-294,365,0,0,0,0,0,0,0,0,0,-1,930,659,0,0
-287,365,0,0,0,0,0,0,0,0,0,-1,937,659,0,0
-280,365,0,0,0,0,0,0,0,0,0,-1,944,659,0,0
-273,365,0,0,0,0,0,0,0,0,0,-1,951,659,0,0
-266,365,0,0,0,0,0,0,0,0,0,-1,958,659,0,0
-259,365,0,0,0,0,0,0,0,0,0,-1,965,659,0,0
-252,365,0,0,0,0,0,0,0,0,0,-1,972,659,0,0
-245,365,0,0,0,0,0,0,0,0,0,-1,979,659,0,0
-238,365,0,0,0,0,0,0,0,0,0,-1,986,659,0,0
-231,365,0,0,0,0,0,0,0,0,0,-1,993,659,0,0
-224,365,0,0,0,0,0,0,0,0,0,-1,1000,659,0,0
-217,365,0,0,0,0,0,0,0,0,0,-1,1007,659,0,0
-210,365,0,0,0,0,0,0,0,0,0,-1,1014,659,0,0
-203,365,0,0,0,0,0,0,0,0,0,-1,1021,659,0,0
-196,365,0,0,0,0,0,0,0,0,0,-1,1028,659,0,0
-189,365,0,0,0,0,0,0,0,0,0,-1,1035,659,0,0
-182,365,0,0,0,0,0,0,0,0,0,-1,1042,659,0,0
-175,365,0,0,0,0,0,0,0,0,0,-1,1049,659,0,0
-168,365,0,0,0,0,0,0,0,0,0,-1,1056,659,0,0
-161,365,0,0,0,0,0,0,0,0,0,-1,1063,659,0,0
-154,365,0,0,0,0,0,0,0,0,0,-1,1070,659,0,0
-147,365,0,0,0,0,0,0,0,0,0,-1,1077,659,0,0
-140,365,0,0,0,0,0,0,0,0,0,-1,1084,659,0,0
-133,365,0,0,0,0,0,0,0,0,0,-1,1091,659,0,0
-126,365,0,0,0,0,0,0,0,0,0,-1,1098,659,0,0
-119,365,0,0,0,0,0,0,0,0,0,-1,1105,659,0,0
-112,365,0,0,0,0,0,0,0,0,0,-1,1112,659,0,0
-105,365,0,0,0,0,0,0,0,0,0,-1,1119,659,0,0
-98,365,0,0,0,0,0,0,0,0,0,-1,1126,659,0,0
-91,365,0,0,0,0,0,0,0,0,0,-1,1133,659,0,0
-84,365,0,0,0,0,0,0,0,0,0,-1,1140,659,0,0
-77,365,0,0,0,0,0,0,0,0,0,-1,1147,659,0,0
-70,365,0,0,0,0,0,0,0,0,0,-1,1154,659,0,0
-63,365,0,0,0,0,0,0,0,0,0,-1,1161,659,0,0
-56,365,0,0,0,0,0,0,0,0,0,-1,1168,659,0,0
-49,365,0,0,0,0,0,0,0,0,0,-1,1175,659,0,0
-42,365,0,0,0,0,0,0,0,0,0,-1,1182,659,0,0
-35,365,0,0,0,0,0,0,0,0,0,-1,1189,659,0,0
-28,365,0,0,0,0,0,0,0,0,0,-1,1196,659,0,0
-21,365,0,0,0,0,0,0,0,0,0,-1,1203,659,0,0
-14,365,0,0,0,0,0,0,0,0,0,-1,1210,659,0,0
-7,365,0,0,0,0,0,0,0,0,0,-1,1217,659,0,0
0,365,0,0,0,0,0,0,0,0,0,-1,1224,659,0,0
7,365,0,0,0,0,0,0,0,0,0,-1,1231,659,0,0
14,365,0,0,0,0,0,0,0,0,0,-1,1238,659,0,0
21,365,0,0,0,0,0,0,0,0,0,-1,1245,659,0,0
28,365,0,0,0,0,0,0,0,0,0,-1,1252,659,0,0
35,365,0,0,0,0,0,0,0,0,0,-1,1259,659,0,0
42,365,0,0,0,0,0,0,0,0,0,-1,1266,659,0,0
49,365,0,0,0,0,0,0,0,0,0,-1,1273,659,0,0
56,365,0,0,0,0,0,0,0,0,0,-1,1280,659,0,0
63,365,0,0,0,0,0,0,0,0,0,-1,1287,659,0,0
70,365,0,0,0,0,0,0,0,0,0,-1,1294,659,0,0
77,365,0,0,0,0,0,0,0,0,0,-1,1301,659,0,0
84,365,0,0,0,0,0,0,0,0,0,-1,1308,659,0,0
91,365,0,0,0,0,0,0,0,0,0,-1,1315,659,0,0
98,365,0,0,0,0,0,0,0,0,0,-1,1322,659,0,0
105,365,0,0,0,0,0,0,0,0,0,-1,1329,659,0,0
112,365,0,0,0,0,0,0,0,0,0,-1,1336,659,0,0
119,365,0,0,0,0,0,0,0,0,0,-1,1343,659,0,0
126,365,0,0,0,0,0,0,0,0,0,-1,1350,659,0,0
133,365,0,0,0,0,0,0,0,0,0,-1,1357,659,0,0
140,365,0,0,0,0,0,0,0,0,0,-1,1364,659,0,0
147,365,0,0,0,0,0,0,0,0,0,-1,1371,659,0,0
154,365,0,0,0,0,0,0,0,0,0,-1,1378,659,0,0
161,365,0,0,0,0,0,0,0,0,0,-1,1385,659,0,0
168,365,0,0,0,0,0,0,0,0,0,-1,1392,659,0,0
175,365,0,0,0,0,0,0,0,0,0,-1,1399,659,0,0
182,365,0,0,0,0,0,0,0,0,0,-1,1406,659,0,0
189,365,0,0,0,0,0,0,0,0,0,-1,1413,659,0,0
196,365,0,0,0,0,0,0,0,0,0,-1,1420,659,0,0
203,365,0,0,0,0,0,0,0,0,0,-1,1427,659,0,0
210,365,0,0,0,0,0,0,0,0,0,-1,1434,659,0,0
217,365,0,0,0,0,0,0,0,0,0,-1,1441,659,0,0
224,365,0,0,0,0,0,0,0,0,0,-1,1448,659,0,0
231,365,0,0,0,0,0,0,0,0,0,-1,1455,659,0,0
238,365,0,0,0,0,0,0,0,0,0,-1,1462,659,0,0
245,365,0,0,0,0,0,0,0,0,0,-1,1469,659,0,0
252,365,0,0,0,0,0,0,0,0,0,-1,1476,659,0,0
259,365,0,0,0,0,0,0,0,0,0,-1,1483,659,0,0
266,365,0,0,0,0,0,0,0,0,0,-1,1490,659,0,0
273,365,0,0,0,0,0,0,0,0,0,-1,1497,659,0,0
280,365,0,0,0,0,0,0,0,0,0,-1,1504,659,0,0
287,365,0,0,0,0,0,0,0,0,0,-1,1511,659,0,0
294,365,0,0,0,0,0,0,0,0,0,-1,1518,659,0,0
301,365,0,0,0,0,0,0,0,0,0,-1,1525,659,0,0
308,365,0,0,0,0,0,0,0,0,0,-1,1532,659,0,0
315,365,0,0,0,0,0,0,0,0,0,-1,1539,659,0,0
322,365,0,0,0,0,0,0,0,0,0,-1,1546,659,0,0
329,365,0,0,0,0,0,0,0,0,0,-1,1553,659,0,0
336,365,0,0,0,0,0,0,0,0,0,-1,1560,659,0,0
343,365,0,0,0,0,0,0,0,0,0,-1,1567,659,0,0
350,365,0,0,0,0,0,0,0,0,0,-1,1574,659,0,0
357,365,0,0,0,0,0,0,0,0,0,-1,1581,659,0,0
364,365,0,0,0,0,0,0,0,0,0,-1,1588,659,0,0
371,365,0,0,0,0,0,0,0,0,0,-1,1595,659,0,0
378,365,0,0,0,0,0,0,0,0,0,-1,1602,659,0,0
385,365,0,0,0,0,0,0,0,0,0,-1,1609,659,0,0
392,365,0,0,0,0,0,0,0,0,0,-1,1616,659,0,0
399,365,0,0,0,0,0,0,0,0,0,-1,1623,659,0,0
406,365,0,0,0,0,0,0,0,0,0,-1,1630,659,0,0
413,365,0,0,0,0,0,0,0,0,0,-1,1637,659,0,0
420,365,0,0,0,0,0,0,0,0,0,-1,1644,659,0,0
427,365,0,0,0,0,0,0,0,0,0,-1,1651,659,0,0
434,365,0,0,0,0,0,0,0,0,0,-1,1658,659,0,0
441,365,0,0,0,0,0,0,0,0,0,-1,1665,659,0,0
448,365,0,0,0,0,0,0,0,0,0,-1,1672,659,0,0
455,365,0,0,0,0,0,0,0,0,0,-1,1679,659,0,0
462,365,0,0,0,0,0,0,0,0,0,-1,1686,659,0,0
469,365,0,0,0,0,0,0,0,0,0,-1,1693,659,0,0
476,365,0,0,0,0,0,0,0,0,0,-1,1700,659,0,0
483,365,0,0,0,0,0,0,0,0,0,-1,1707,659,0,0
490,365,8.39551,0.471252,0,0,0,0,0,0,0,-1,1714,659,8.39551,-0.471241
497,365,9.89233,1.35394,0,0,0,0,0,0,0,-1,1721,659,9.89237,-1.35396
504,365,10.1414,1.18005,0,0,0,0,0,0,0,-1,1728,659,10.1413,-1.18004
511,365,10.5151,0.993896,0,0,0,0,0,0,0,-1,1735,659,10.5152,-0.993894
518,365,11.2029,0.398132,0,0,0,0,0,0,0,-1,1742,659,11.2029,-0.398136
525,365,15.5748,3.85303,0,0,0,0,0,0,0,-1,1749,659,15.5748,-3.85303
532,365,11.2446,1.00629,0,0,0,0,0,0,0,-1,1756,659,11.2446,-1.00631
539,365,12.6301,1.03204,0,0,0,0,0,0,0,-1,1763,659,12.6302,-1.03204
546,365,11.647,0.84198,0,0,0,0,0,0,0,-1,1770,659,11.6469,-0.841955
553,365,12.028,-0.558899,0,0,0,0,0,0,0,-1,1777,659,12.028,0.558873
560,365,14.5372,-4.55548,0,0,0,0,0,0,0,-1,1784,659,14.5373,4.55547
567,365,20.5676,-7.53888,0,0,0,0,0,0,0,-1,1791,659,20.5676,7.53887
574,365,39.3845,-17.6066,0,0,0,0,0,0,0,-1,1798,659,39.3846,17.6066
581,365,39.0409,-16.7382,0,0,0,0,0,0,0,-1,1805,659,39.0409,16.7382
588,365,38.9324,-15.8925,-0.000450163,-0.000737384,-0.00051494,-5.91823e-05,-0.00112836,-0.64941,0.000733312,0.0229736,1812,659,38.9323,15.8925
595,365,38.8959,-14.8523,-9.34984e-05,-0.000267714,-0.000163037,4.24188e-06,-0.000365454,-0.54005,0.000245063,0.0140669,1819,659,38.8959,14.8523
602,365,38.8224,-13.8493,0.000455037,0.000226351,0.000249565,0.000615207,6.61819e-05,0.570585,0.000389954,0.019335,1826,659,38.8223,13.8493
609,365,38.6758,-12.8586,0.00104582,0.000797606,0.000672102,0.00160518,0.00023825,0.694098,0.00100021,0.0214176,1833,659,38.6758,12.8586
616,365,38.6299,-11.8408,0.00169636,0.00144283,0.00108262,0.00265961,0.000479581,0.727119,0.0016368,0.0209854,1840,659,38.6298,11.8408
623,365,38.6285,-10.8506,0.00245558,0.00212642,0.00153888,0.00383866,0.000743348,0.732127,0.00235083,0.0126887,1847,659,38.6285,10.8507
630,365,38.572,-9.8844,0.00310614,0.00283741,0.00194259,0.004919,0.00102455,0.750869,0.00299678,0.0168469,1854,659,38.572,9.88438
637,365,38.5126,-8.94562,0.0036285,0.00357561,0.00227594,0.00587815,0.00132596,0.779589,0.00356007,0.0218808,1861,659,38.5125,8.94565
644,365,38.4598,-7.94189,0.00401932,0.00444838,0.00257923,0.00682199,0.00164572,0.826891,0.00411074,0.0267933,1868,659,38.4598,7.9419
651,365,38.5847,-6.76978,0,0,0,0,0,0,0,-1,1875,659,38.5847,6.76977
658,365,24.745,-2.13275,0,0,0,0,0,0,0,-1,1882,659,24.745,2.13277
665,365,14.0961,0.769043,0,0,0,0,0,0,0,-1,1889,659,14.0961,-0.769063
672,365,10.0579,2.15088,0,0,0,0,0,0,0,-1,1896,659,10.0579,-2.15088
679,365,10.9718,2.19208,0,0,0,0,0,0,0,-1,1903,659,10.9718,-2.19211
686,365,12.2134,2.17108,0,0,0,0,0,0,0,-1,1910,659,12.2134,-2.17109
693,365,13.7141,1.98279,0,0,0,0,0,0,0,-1,1917,659,13.7141,-1.98278
700,365,0,0,0,0,0,0,0,0,0,-1,1924,659,0,0
707,365,0,0,0,0,0,0,0,0,0,-1,1931,659,0,0
714,365,0,0,0,0,0,0,0,0,0,-1,1938,659,0,0
721,365,0,0,0,0,0,0,0,0,0,-1,1945,659,0,0
728,365,0,0,0,0,0,0,0,0,0,-1,1952,659,0,0
735,365,0,0,0,0,0,0,0,0,0,-1,1959,659,0,0
742,365,0,0,0,0,0,0,0,0,0,-1,1966,659,0,0
749,365,0,0,0,0,0,0,0,0,0,-1,1973,659,0,0
756,365,0,0,0,0,0,0,0,0,0,-1,1980,659,0,0
763,365,0,0,0,0,0,0,0,0,0,-1,1987,659,0,0
770,365,0,0,0,0,0,0,0,0,0,-1,1994,659,0,0
777,365,0,0,0,0,0,0,0,0,0,-1,2001,659,0,0
784,365,0,0,0,0,0,0,0,0,0,-1,2008,659,0,0
791,365,0,0,0,0,0,0,0,0,0,-1,2015,659,0,0
798,365,0,0,0,0,0,0,0,0,0,-1,2022,659,0,0
805,365,0,0,0,0,0,0,0,0,0,-1,2029,659,0,0
812,365,0,0,0,0,0,0,0,0,0,-1,2036,659,0,0
-700,358,0,0,0,0,0,0,0,0,0,-1,524,666,0,0
-693,358,0,0,0,0,0,0,0,0,0,-1,531,666,0,0
-686,358,0,0,0,0,0,0,0,0,0,-1,538,666,0,0
-679,358,0,0,0,0,0,0,0,0,0,-1,545,666,0,0
-672,358,0,0,0,0,0,0,0,0,0,-1,552,666,0,0
-665,358,0,0,0,0,0,0,0,0,0,-1,559,666,0,0
-658,358,0,0,0,0,0,0,0,0,0,-1,566,666,0,0
-651,358,0,0,0,0,0,0,0,0,0,-1,573,666,0,0
-644,358,0,0,0,0,0,0,0,0,0,-1,580,666,0,0
-637,358,0,0,0,0,0,0,0,0,0,-1,587,666,0,0
-630,358,0,0,0,0,0,0,0,0,0,-1,594,666,0,0
-623,358,0,0,0,0,0,0,0,0,0,-1,601,666,0,0
-616,358,0,0,0,0,0,0,0,0,0,-1,608,666,0,0
-609,358,0,0,0,0,0,0,0,0,0,-1,615,666,0,0
-602,358,0,0,0,0,0,0,0,0,0,-1,622,666,0,0
-595,358,0,0,0,0,0,0,0,0,0,-1,629,666,0,0
-588,358,0,0,0,0,0,0,0,0,0,-1,636,666,0,0
-581,358,-8.31616,1.61993,0,0,0,0,0,0,0,-1,643,666,-8.31614,-1.61993
-574,358,-8.22406,1.75385,0,0,0,0,0,0,0,-1,650,666,-8.22408,-1.75383
-567,358,-8.14215,1.91577,0,0,0,0,0,0,0,-1,657,666,-8.14214,-1.91579
-560,358,-10.6086,2.18872,0,0,0,0,0,0,0,-1,664,666,-10.6086,-2.18873
-553,358,-13.4767,1.09552,0,0,0,0,0,0,0,-1,671,666,-13.4767,-1.09551
-546,358,-13.3743,-0.185059,0,0,0,0,0,0,0,-1,678,666,-13.3743,0.185037
-539,358,-9.43884,-2.04785,0,0,0,0,0,0,0,-1,685,666,-9.43884,2.04785
-532,358,-12.4141,-2.36572,0,0,0,0,0,0,0,-1,692,666,-12.4141,2.3657
-525,358,-12.731,-3.88031,0,0,0,0,0,0,0,-1,699,666,-12.731,3.88029
-518,358,-23.3318,-7.9649,0,0,0,0,0,0,0,-1,706,666,-23.3318,7.96491
-511,358,-23.3892,-8.95673,0.00209273,0.000200341,-0.000994697,0.00251938,-0.00022631,-0.405191,0.00175988,0.0182337,713,666,-23.3892,8.95671
-504,358,-23.4512,-9.94971,0.00181926,7.3041e-05,-0.000628255,0.0020218,-0.000129501,-0.311867,0.00139304,0.0130163,720,666,-23.4511,9.94971
-497,358,-23.4994,-10.9728,0.00164105,-1.67446e-05,-0.000406943,0.00173555,-0.00011125,-0.228189,0.00119584,0.0126295,727,666,-23.4994,10.9727
-490,358,-23.566,-11.9625,0.00152126,-4.61037e-05,-0.00029035,0.00157332,-9.81612e-05,-0.177408,0.00108308,0.0123972,734,666,-23.566,11.9625
-483,358,-23.6563,-12.9262,0.00152068,-2.09768e-06,-0.000296069,0.00157622,-5.76359e-05,-0.185431,0.00107054,0.0113163,741,666,-23.6563,12.9262
-476,358,-23.6492,-13.8956,0.00160955,8.99436e-05,-0.000392001,0.00170471,-5.21832e-06,-0.238153,0.00113822,0.0151968,748,666,-23.6492,13.8956
-469,358,-23.7272,-14.8724,0.00181577,0.00022499,-0.000600727,0.00201714,2.36259e-05,-0.32343,0.00133695,0.019248,755,666,-23.7272,14.8724
-462,358,-23.8396,-15.8659,0.00212892,0.000411663,-0.000891706,0.00250818,3.23973e-05,-0.402147,0.00166143,0.0190631,762,666,-23.8396,15.8659
-455,358,-23.8829,-16.8896,0,0,0,0,0,0,0,-1,769,666,-23.8829,16.8896
-448,358,-17.7847,-14.434,0,0,0,0,0,0,0,-1,776,666,-17.7847,14.434
-441,358,-5.56293,-3.98041,0,0,0,0,0,0,0,-1,783,666,-5.56291,3.98043
-434,358,-5.21558,-4.43127,0,0,0,0,0,0,0,-1,790,666,-5.21559,4.43125
-427,358,-3.56189,-3.15729,0,0,0,0,0,0,0,-1,797,666,-3.56192,3.15729
-420,358,0.200195,1.08234,0,0,0,0,0,0,0,-1,804,666,0.200174,-1.08231
-413,358,0.0325317,0.161072,0,0,0,0,0,0,0,-1,811,666,0.0325501,-0.161098
-406,358,-3.85846,0.753113,0,0,0,0,0,0,0,-1,818,666,-3.85846,-0.753129
-399,358,-1.31213,0.190735,0,0,0,0,0,0,0,-1,825,666,-1.31215,-0.190763
-392,358,-3.73914,-0.832214,0,0,0,0,0,0,0,-1,832,666,-3.73915,0.832202
-385,358,-5.95178,-1.69141,0,0,0,0,0,0,0,-1,839,666,-5.9518,1.69143
-378,358,0,0,0,0,0,0,0,0,0,-1,846,666,0,0
-371,358,0,0,0,0,0,0,0,0,0,-1,853,666,0,0
-364,358,0,0,0,0,0,0,0,0,0,-1,860,666,0,0
-357,358,0,0,0,0,0,0,0,0,0,-1,867,666,0,0
-350,358,0,0,0,0,0,0,0,0,0,-1,874,666,0,0
-343,358,0,0,0,0,0,0,0,0,0,-1,881,666,0,0
-336,358,0,0,0,0,0,0,0,0,0,-1,888,666,0,0
-329,358,0,0,0,0,0,0,0,0,0,-1,895,666,0,0
-322,358,0,0,0,0,0,0,0,0,0,-1,902,666,0,0
-315,358,0,0,0,0,0,0,0,0,0,-1,909,666,0,0
-308,358,0,0,0,0,0,0,0,0,0,-1,916,666,0,0
-301,358,0,0,0,0,0,0,0,0,0,-1,923,666,0,0
-294,358,0,0,0,0,0,0,0,0,0,-1,930,666,0,0
-287,358,0,0,0,0,0,0,0,0,0,-1,937,666,0,0
-280,358,0,0,0,0,0,0,0,0,0,-1,944,666,0,0
-273,358,0,0,0,0,0,0,0,0,0,-1,951,666,0,0
-266,358,0,0,0,0,0,0,0,0,0,-1,958,666,0,0
-259,358,0,0,0,0,0,0,0,0,0,-1,965,666,0,0
-252,358,0,0,0,0,0,0,0,0,0,-1,972,666,0,0
-245,358,0,0,0,0,0,0,0,0,0,-1,979,666,0,0
-238,358,0,0,0,0,0,0,0,0,0,-1,986,666,0,0
-231,358,0,0,0,0,0,0,0,0,0,-1,993,666,0,0
-224,358,0,0,0,0,0,0,0,0,0,-1,1000,666,0,0
-217,358,0,0,0,0,0,0,0,0,0,-1,1007,666,0,0
-210,358,0,0,0,0,0,0,0,0,0,-1,1014,666,0,0
-203,358,0,0,0,0,0,0,0,0,0,-1,1021,666,0,0
-196,358,0,0,0,0,0,0,0,0,0,-1,1028,666,0,0
-189,358,0,0,0,0,0,0,0,0,0,-1,1035,666,0,0
-182,358,0,0,0,0,0,0,0,0,0,-1,1042,666,0,0
-175,358,0,0,0,0,0,0,0,0,0,-1,1049,666,0,0
-168,358,0,0,0,0,0,0,0,0,0,-1,1056,666,0,0
-161,358,0,0,0,0,0,0,0,0,0,-1,1063,666,0,0
-154,358,0,0,0,0,0,0,0,0,0,-1,1070,666,0,0
-147,358,0,0,0,0,0,0,0,0,0,-1,1077,666,0,0
-140,358,0,0,0,0,0,0,0,0,0,-1,1084,666,0,0
-133,358,0,0,0,0,0,0,0,0,0,-1,1091,666,0,0
-126,358,0,0,0,0,0,0,0,0,0,-1,1098,666,0,0
-119,358,0,0,0,0,0,0,0,0,0,-1,1105,666,0,0
-112,358,0,0,0,0,0,0,0,0,0,-1,1112,666,0,0
-105,358,0,0,0,0,0,0,0,0,0,-1,1119,666,0,0
-98,358,0,0,0,0,0,0,0,0,0,-1,1126,666,0,0
-91,358,0,0,0,0,0,0,0,0,0,-1,1133,666,0,0
-84,358,0,0,0,0,0,0,0,0,0,-1,1140,666,0,0
-77,358,0,0,0,0,0,0,0,0,0,-1,1147,666,0,0
-70,358,0,0,0,0,0,0,0,0,0,-1,1154,666,0,0
-63,358,0,0,0,0,0,0,0,0,0,-1,1161,666,0,0
-56,358,0,0,0,0,0,0,0,0,0,-1,1168,666,0,0
-49,358,0,0,0,0,0,0,0,0,0,-1,1175,666,0,0
-42,358,0,0,0,0,0,0,0,0,0,-1,1182,666,0,0
-35,358,0,0,0,0,0,0,0,0,0,-1,1189,666,0,0
-28,358,0,0,0,0,0,0,0,0,0,-1,1196,666,0,0
-21,358,0,0,0,0,0,0,0,0,0,-1,1203,666,0,0
-14,358,0,0,0,0,0,0,0,0,0,-1,1210,666,0,0
-7,358,0,0,0,0,0,0,0,0,0,-1,1217,666,0,0
0,358,0,0,0,0,0,0,0,0,0,-1,1224,666,0,0
7,358,0,0,0,0,0,0,0,0,0,-1,1231,666,0,0
14,358,0,0,0,0,0,0,0,0,0,-1,1238,666,0,0
21,358,0,0,0,0,0,0,0,0,0,-1,1245,666,0,0
28,358,0,0,0,0,0,0,0,0,0,-1,1252,666,0,0
35,358,0,0,0,0,0,0,0,0,0,-1,1259,666,0,0
42,358,0,0,0,0,0,0,0,0,0,-1,1266,666,0,0
49,358,0,0,0,0,0,0,0,0,0,-1,1273,666,0,0
56,358,0,0,0,0,0,0,0,0,0,-1,1280,666,0,0
63,358,0,0,0,0,0,0,0,0,0,-1,1287,666,0,0
70,358,0,0,0,0,0,0,0,0,0,-1,1294,666,0,0
77,358,0,0,0,0,0,0,0,0,0,-1,1301,666,0,0
84,358,0,0,0,0,0,0,0,0,0,-1,1308,666,0,0
91,358,0,0,0,0,0,0,0,0,0,-1,1315,666,0,0
98,358,0,0,0,0,0,0,0,0,0,-1,1322,666,0,0
105,358,0,0,0,0,0,0,0,0,0,-1,1329,666,0,0
112,358,0,0,0,0,0,0,0,0,0,-1,1336,666,0,0
119,358,0,0,0,0,0,0,0,0,0,-1,1343,666,0,0
126,358,0,0,0,0,0,0,0,0,0,-1,1350,666,0,0
133,358,0,0,0,0,0,0,0,0,0,-1,1357,666,0,0
140,358,0,0,0,0,0,0,0,0,0,-1,1364,666,0,0
147,358,0,0,0,0,0,0,0,0,0,-1,1371,666,0,0
154,358,0,0,0,0,0,0,0,0,0,-1,1378,666,0,0
161,358,0,0,0,0,0,0,0,0,0,-1,1385,666,0,0
168,358,0,0,0,0,0,0,0,0,0,-1,1392,666,0,0
175,358,0,0,0,0,0,0,0,0,0,-1,1399,666,0,0
182,358,0,0,0,0,0,0,0,0,0,-1,1406,666,0,0
189,358,0,0,0,0,0,0,0,0,0,-1,1413,666,0,0
196,358,0,0,0,0,0,0,0,0,0,-1,1420,666,0,0
203,358,0,0,0,0,0,0,0,0,0,-1,1427,666,0,0
210,358,0,0,0,0,0,0,0,0,0,-1,1434,666,0,0
217,358,0,0,0,0,0,0,0,0,0,-1,1441,666,0,0
224,358,0,0,0,0,0,0,0,0,0,-1,1448,666,0,0
231,358,0,0,0,0,0,0,0,0,0,-1,1455,666,0,0
238,358,0,0,0,0,0,0,0,0,0,-1,1462,666,0,0
245,358,0,0,0,0,0,0,0,0,0,-1,1469,666,0,0
252,358,0,0,0,0,0,0,0,0,0,-1,1476,666,0,0
259,358,0,0,0,0,0,0,0,0,0,-1,1483,666,0,0
266,358,0,0,0,0,0,0,0,0,0,-1,1490,666,0,0
273,358,0,0,0,0,0,0,0,0,0,-1,1497,666,0,0
280,358,0,0,0,0,0,0,0,0,0,-1,1504,666,0,0
287,358,0,0,0,0,0,0,0,0,0,-1,1511,666,0,0
294,358,0,0,0,0,0,0,0,0,0,-1,1518,666,0,0
301,358,0,0,0,0,0,0,0,0,0,-1,1525,666,0,0
308,358,0,0,0,0,0,0,0,0,0,-1,1532,666,0,0
315,358,0,0,0,0,0,0,0,0,0,-1,1539,666,0,0
322,358,0,0,0,0,0,0,0,0,0,-1,1546,666,0,0
329,358,0,0,0,0,0,0,0,0,0,-1,1553,666,0,0
336,358,0,0,0,0,0,0,0,0,0,-1,1560,666,0,0
343,358,0,0,0,0,0,0,0,0,0,-1,1567,666,0,0
350,358,0,0,0,0,0,0,0,0,0,-1,1574,666,0,0
357,358,0,0,0,0,0,0,0,0,0,-1,1581,666,0,0
364,358,0,0,0,0,0,0,0,0,0,-1,1588,666,0,0
371,358,0,0,0,0,0,0,0,0,0,-1,1595,666,0,0
378,358,0,0,0,0,0,0,0,0,0,-1,1602,666,0,0
385,358,0,0,0,0,0,0,0,0,0,-1,1609,666,0,0
392,358,0,0,0,0,0,0,0,0,0,-1,1616,666,0,0
399,358,0,0,0,0,0,0,0,0,0,-1,1623,666,0,0
406,358,0,0,0,0,0,0,0,0,0,-1,1630,666,0,0
413,358,0,0,0,0,0,0,0,0,0,-1,1637,666,0,0
420,358,0,0,0,0,0,0,0,0,0,-1,1644,666,0,0
427,358,0,0,0,0,0,0,0,0,0,-1,1651,666,0,0
434,358,0,0,0,0,0,0,0,0,0,-1,1658,666,0,0
441,358,0,0,0,0,0,0,0,0,0,-1,1665,666,0,0
448,358,0,0,0,0,0,0,0,0,0,-1,1672,666,0,0
455,358,0,0,0,0,0,0,0,0,0,-1,1679,666,0,0
462,358,0,0,0,0,0,0,0,0,0,-1,1686,666,0,0
469,358,0,0,0,0,0,0,0,0,0,-1,1693,666,0,0
476,358,0,0,0,0,0,0,0,0,0,-1,1700,666,0,0
483,358,0,0,0,0,0,0,0,0,0,-1,1707,666,0,0
490,358,0,0,0,0,0,0,0,0,0,-1,1714,666,0,0
497,358,8.57239,1.1322,0,0,0,0,0,0,0,-1,1721,666,8.57234,-1.13219
504,358,10.5972,0.832947,0,0,0,0,0,0,0,-1,1728,666,10.5972,-0.832968
511,358,10.6873,0.868469,0,0,0,0,0,0,0,-1,1735,666,10.6872,-0.868484
518,358,16.5884,2.34894,0,0,0,0,0,0,0,-1,1742,666,16.5884,-2.34894
525,358,15.7626,3.65344,0,0,0,0,0,0,0,-1,1749,666,15.7626,-3.65342
532,358,14.9368,4.95789,0,0,0,0,0,0,0,-1,1756,666,14.9367,-4.9579
539,358,15.1597,3.42694,0,0,0,0,0,0,0,-1,1763,666,15.1597,-3.42692
546,358,12.3792,1.53558,0,0,0,0,0,0,0,-1,1770,666,12.3792,-1.5356
553,358,11.6584,1.26172,0,0,0,0,0,0,0,-1,1777,666,11.6585,-1.26175
560,358,10.8234,1.43042,0,0,0,0,0,0,0,-1,1784,666,10.8233,-1.43041
567,358,10.1333,-0.955139,0,0,0,0,0,0,0,-1,1791,666,10.1333,0.955132
574,358,14.7886,-2.69293,0,0,0,0,0,0,0,-1,1798,666,14.7885,2.6929
581,358,20.1738,-6.76135,0,0,0,0,0,0,0,-1,1805,666,20.1738,6.76137
588,358,39.8671,-15.8913,0,0,0,0,0,0,0,-1,1812,666,39.8671,15.8913
595,358,39.8883,-14.7468,-0.000640152,-0.000699811,-0.000366546,-0.000302224,-0.00103774,-0.744798,0.000616301,0.0162219,1819,666,39.8883,14.7468
602,358,39.7633,-13.7075,-4.48739e-05,-0.000232096,-1.48624e-05,-4.37014e-05,-0.000233268,-0.0787267,0.000143186,0.0151278,1826,666,39.7633,13.7075
609,358,39.6337,-12.7367,0.000565397,0.000279017,0.000346134,0.000796789,4.7625e-05,0.589275,0.000516051,0.0197003,1833,666,39.6337,12.7367
616,358,39.6,-11.7651,0.00117318,0.000829437,0.000681744,0.00170438,0.000298232,0.661919,0.00105104,0.0174667,1840,666,39.6,11.7652
623,358,39.6238,-10.7994,0.00184711,0.00140556,0.00104423,0.00269365,0.000559016,0.68122,0.00164147,0.0146734,1847,666,39.6238,10.7994
630,358,39.5408,-9.86652,0.00241855,0.00202802,0.0013799,0.00361693,0.000829632,0.715111,0.00218782,0.0181095,1854,666,39.5407,9.86653
637,358,39.4342,-8.91766,0.00287091,0.00264401,0.00164408,0.00440545,0.00110947,0.750949,0.00264585,0.0254482,1861,666,39.4342,8.91769
644,358,39.4207,-7.89612,0.00320655,0.00335027,0.00187633,0.00515611,0.0014007,0.804537,0.00307862,0.0207144,1868,666,39.4207,7.89614
651,358,39.4624,-6.83154,0,0,0,0,0,0,0,-1,1875,666,39.4624,6.83155
658,358,39.1776,-5.53735,0,0,0,0,0,0,0,-1,1882,666,39.1776,5.53735
665,358,28.0272,-2.07764,0,0,0,0,0,0,0,-1,1889,666,28.0272,2.07764
672,358,12.4299,1.47272,0,0,0,0,0,0,0,-1,1896,666,12.4299,-1.4727
679,358,12.1294,2.19702,0,0,0,0,0,0,0,-1,1903,666,12.1294,-2.19703
686,358,11.9557,2.2002,0,0,0,0,0,0,0,-1,1910,666,11.9557,-2.20021
693,358,13.188,2.52203,0,0,0,0,0,0,0,-1,1917,666,13.188,-2.52202
700,358,0,0,0,0,0,0,0,0,0,-1,1924,666,0,0
707,358,0,0,0,0,0,0,0,0,0,-1,1931,666,0,0
714,358,0,0,0,0,0,0,0,0,0,-1,1938,666,0,0
721,358,0,0,0,0,0,0,0,0,0,-1,1945,666,0,0
728,358,0,0,0,0,0,0,0,0,0,-1,1952,666,0,0
735,358,0,0,0,0,0,0,0,0,0,-1,1959,666,0,0
742,358,0,0,0,0,0,0,0,0,0,-1,1966,666,0,0
749,358,0,0,0,0,0,0,0,0,0,-1,1973,666,0,0
756,358,0,0,0,0,0,0,0,0,0,-1,1980,666,0,0
763,358,0,0,0,0,0,0,0,0,0,-1,1987,666,0,0
770,358,0,0,0,0,0,0,0,0,0,-1,1994,666,0,0
777,358,0,0,0,0,0,0,0,0,0,-1,2001,666,0,0
784,358,0,0,0,0,0,0,0,0,0,-1,2008,666,0,0
791,358,0,0,0,0,0,0,0,0,0,-1,2015,666,0,0
798,358,0,0,0,0,0,0,0,0,0,-1,2022,666,0,0
805,358,0,0,0,0,0,0,0,0,0,-1,2029,666,0,0
812,358,0,0,0,0,0,0,0,0,0,-1,2036,666,0,0
-700,351,0,0,0,0,0,0,0,0,0,-1,524,673,0,0
-693,351,0,0,0,0,0,0,0,0,0,-1,531,673,0,0
-686,351,0,0,0,0,0,0,0,0,0,-1,538,673,0,0
-679,351,0,0,0,0,0,0,0,0,0,-1,545,673,0,0
-672,351,0,0,0,0,0,0,0,0,0,-1,552,673,0,0
-665,351,0,0,0,0,0,0,0,0,0,-1,559,673,0,0
-658,351,0,0,0,0,0,0,0,0,0,-1,566,673,0,0
-651,351,0,0,0,0,0,0,0,0,0,-1,573,673,0,0
-644,351,0,0,0,0,0,0,0,0,0,-1,580,673,0,0
-637,351,0,0,0,0,0,0,0,0,0,-1,587,673,0,0
-630,351,0,0,0,0,0,0,0,0,0,-1,594,673,0,0
-623,351,0,0,0,0,0,0,0,0,0,-1,601,673,0,0
-616,351,0,0,0,0,0,0,0,0,0,-1,608,673,0,0
-609,351,0,0,0,0,0,0,0,0,0,-1,615,673,0,0
-602,351,0,0,0,0,0,0,0,0,0,-1,622,673,0,0
-595,351,0,0,0,0,0,0,0,0,0,-1,629,673,0,0
-588,351,0,0,0,0,0,0,0,0,0,-1,636,673,0,0
-581,351,-9.0647,1.71906,0,0,0,0,0,0,0,-1,643,673,-9.06472,-1.71908
-574,351,-8.23584,2.64764,0,0,0,0,0,0,0,-1,650,673,-8.23584,-2.64764
-567,351,-10.8027,4.56836,0,0,0,0,0,0,0,-1,657,673,-10.8027,-4.56839
-560,351,-14.2001,2.17084,0,0,0,0,0,0,0,-1,664,673,-14.2002,-2.17086
-553,351,-13.4979,0.779541,0,0,0,0,0,0,0,-1,671,673,-13.4978,-0.779519
-546,351,-14.0065,0.73645,0,0,0,0,0,0,0,-1,678,673,-14.0065,-0.736473
-539,351,-12.8123,-1.46393,0,0,0,0,0,0,0,-1,685,673,-12.8123,1.46395
-532,351,-16.0198,-4.03937,0,0,0,0,0,0,0,-1,692,673,-16.0198,4.03936
-525,351,-24.3714,-6.90271,0,0,0,0,0,0,0,-1,699,673,-24.3714,6.90269
-518,351,-24.3338,-7.85107,0.00279818,0.000968685,-0.00184947,0.00394675,-0.000179891,-0.55574,0.00269314,0.0225682,706,673,-24.3338,7.85105
-511,351,-24.3647,-8.87531,0.00229583,0.000494622,-0.00111693,0.00283001,-3.95618e-05,-0.446106,0.0019,0.0126469,713,673,-24.3647,8.8753
-504,351,-24.4469,-9.87115,0.00194716,0.000237308,-0.000674629,0.00218129,3.1878e-06,-0.334032,0.00145313,0.0123056,720,673,-24.4469,9.87118
-497,351,-24.5099,-10.8776,0.00171529,6.96092e-05,-0.000383416,0.00180024,-1.53357e-05,-0.218026,0.0012053,0.012125,727,673,-24.51,10.8776
-490,351,-24.5744,-11.8457,0.00157583,3.31219e-05,-0.000243023,0.0016132,-4.25603e-06,-0.152608,0.00107689,0.0114549,734,673,-24.5744,11.8457
-483,351,-24.6318,-12.8195,0.00157271,0.000109863,-0.000255143,0.00161593,6.66391e-05,-0.167816,0.00105578,0.0136831,741,673,-24.6318,12.8195
-476,351,-24.7077,-13.8234,0.0016614,0.00026063,-0.000390034,0.00176268,0.000159351,-0.254057,0.00112577,0.0125461,748,673,-24.7077,13.8234
-469,351,-24.7417,-14.7849,0.00187422,0.000478918,-0.000653977,0.00213282,0.000220326,-0.376548,0.00135442,0.0134758,755,673,-24.7417,14.7849
-462,351,-24.7805,-15.8292,0.00218568,0.000791223,-0.00103868,0.00273944,0.000237461,-0.489808,0.00175251,0.0415789,762,673,-24.7805,15.8292
-455,351,-24.7682,-16.9303,0,0,0,0,0,0,0,-1,769,673,-24.7682,16.9303
-448,351,-6.61456,-4.38654,0,0,0,0,0,0,0,-1,776,673,-6.61456,4.38654
-441,351,-4.31567,-2.3009,0,0,0,0,0,0,0,-1,783,673,-4.31565,2.30089
-434,351,-3.81708,-2.28003,0,0,0,0,0,0,0,-1,790,673,-3.81706,2.28006
-427,351,-2.05157,-2.7785,0,0,0,0,0,0,0,-1,797,673,-2.05157,2.77848
-420,351,-1.06989,-2.43665,0,0,0,0,0,0,0,-1,804,673,-1.06991,2.43663
-413,351,-0.392334,-2.06671,0,0,0,0,0,0,0,-1,811,673,-0.392363,2.06672
-406,351,-1.86316,-2.58105,0,0,0,0,0,0,0,-1,818,673,-1.86313,2.58106
-399,351,1.00952,-1.53455,0,0,0,0,0,0,0,-1,825,673,1.00954,1.53457
-392,351,-1.02197,0.877136,0,0,0,0,0,0,0,-1,832,673,-1.02195,-0.877143
-385,351,-1.47205,1.04437,0,0,0,0,0,0,0,-1,839,673,-1.47207,-1.04435
-378,351,0,0,0,0,0,0,0,0,0,-1,846,673,0,0
-371,351,0,0,0,0,0,0,0,0,0,-1,853,673,0,0
-364,351,0,0,0,0,0,0,0,0,0,-1,860,673,0,0
-357,351,0,0,0,0,0,0,0,0,0,-1,867,673,0,0
-350,351,0,0,0,0,0,0,0,0,0,-1,874,673,0,0
-343,351,0,0,0,0,0,0,0,0,0,-1,881,673,0,0
-336,351,0,0,0,0,0,0,0,0,0,-1,888,673,0,0
-329,351,0,0,0,0,0,0,0,0,0,-1,895,673,0,0
-322,351,0,0,0,0,0,0,0,0,0,-1,902,673,0,0
-315,351,0,0,0,0,0,0,0,0,0,-1,909,673,0,0
-308,351,0,0,0,0,0,0,0,0,0,-1,916,673,0,0
-301,351,0,0,0,0,0,0,0,0,0,-1,923,673,0,0
-294,351,0,0,0,0,0,0,0,0,0,-1,930,673,0,0
-287,351,0,0,0,0,0,0,0,0,0,-1,937,673,0,0
-280,351,0,0,0,0,0,0,0,0,0,-1,944,673,0,0
-273,351,0,0,0,0,0,0,0,0,0,-1,951,673,0,0
-266,351,0,0,0,0,0,0,0,0,0,-1,958,673,0,0
-259,351,0,0,0,0,0,0,0,0,0,-1,965,673,0,0
-252,351,0,0,0,0,0,0,0,0,0,-1,972,673,0,0
-245,351,0,0,0,0,0,0,0,0,0,-1,979,673,0,0
-238,351,0,0,0,0,0,0,0,0,0,-1,986,673,0,0
-231,351,0,0,0,0,0,0,0,0,0,-1,993,673,0,0
-224,351,0,0,0,0,0,0,0,0,0,-1,1000,673,0,0
-217,351,0,0,0,0,0,0,0,0,0,-1,1007,673,0,0
-210,351,0,0,0,0,0,0,0,0,0,-1,1014,673,0,0
-203,351,0,0,0,0,0,0,0,0,0,-1,1021,673,0,0
-196,351,0,0,0,0,0,0,0,0,0,-1,1028,673,0,0
-189,351,0,0,0,0,0,0,0,0,0,-1,1035,673,0,0
-182,351,0,0,0,0,0,0,0,0,0,-1,1042,673,0,0
-175,351,0,0,0,0,0,0,0,0,0,-1,1049,673,0,0
-168,351,0,0,0,0,0,0,0,0,0,-1,1056,673,0,0
-161,351,0,0,0,0,0,0,0,0,0,-1,1063,673,0,0
-154,351,0,0,0,0,0,0,0,0,0,-1,1070,673,0,0
-147,351,0,0,0,0,0,0,0,0,0,-1,1077,673,0,0
-140,351,0,0,0,0,0,0,0,0,0,-1,1084,673,0,0
-133,351,0,0,0,0,0,0,0,0,0,-1,1091,673,0,0
-126,351,0,0,0,0,0,0,0,0,0,-1,1098,673,0,0
-119,351,0,0,0,0,0,0,0,0,0,-1,1105,673,0,0
-112,351,0,0,0,0,0,0,0,0,0,-1,1112,673,0,0
-105,351,0,0,0,0,0,0,0,0,0,-1,1119,673,0,0
-98,351,0,0,0,0,0,0,0,0,0,-1,1126,673,0,0
-91,351,0,0,0,0,0,0,0,0,0,-1,1133,673,0,0
-84,351,0,0,0,0,0,0,0,0,0,-1,1140,673,0,0
-77,351,0,0,0,0,0,0,0,0,0,-1,1147,673,0,0
-70,351,0,0,0,0,0,0,0,0,0,-1,1154,673,0,0
-63,351,0,0,0,0,0,0,0,0,0,-1,1161,673,0,0
-56,351,0,0,0,0,0,0,0,0,0,-1,1168,673,0,0
-49,351,0,0,0,0,0,0,0,0,0,-1,1175,673,0,0
-42,351,0,0,0,0,0,0,0,0,0,-1,1182,673,0,0
-35,351,0,0,0,0,0,0,0,0,0,-1,1189,673,0,0
-28,351,0,0,0,0,0,0,0,0,0,-1,1196,673,0,0
-21,351,0,0,0,0,0,0,0,0,0,-1,1203,673,0,0
-14,351,0,0,0,0,0,0,0,0,0,-1,1210,673,0,0
-7,351,0,0,0,0,0,0,0,0,0,-1,1217,673,0,0
0,351,0,0,0,0,0,0,0,0,0,-1,1224,673,0,0
7,351,0,0,0,0,0,0,0,0,0,-1,1231,673,0,0
14,351,0,0,0,0,0,0,0,0,0,-1,1238,673,0,0
21,351,0,0,0,0,0,0,0,0,0,-1,1245,673,0,0
28,351,0,0,0,0,0,0,0,0,0,-1,1252,673,0,0
35,351,0,0,0,0,0,0,0,0,0,-1,1259,673,0,0
42,351,0,0,0,0,0,0,0,0,0,-1,1266,673,0,0
49,351,0,0,0,0,0,0,0,0,0,-1,1273,673,0,0
56,351,0,0,0,0,0,0,0,0,0,-1,1280,673,0,0
63,351,0,0,0,0,0,0,0,0,0,-1,1287,673,0,0
70,351,0,0,0,0,0,0,0,0,0,-1,1294,673,0,0
77,351,0,0,0,0,0,0,0,0,0,-1,1301,673,0,0
84,351,0,0,0,0,0,0,0,0,0,-1,1308,673,0,0
91,351,0,0,0,0,0,0,0,0,0,-1,1315,673,0,0
98,351,0,0,0,0,0,0,0,0,0,-1,1322,673,0,0
105,351,0,0,0,0,0,0,0,0,0,-1,1329,673,0,0
112,351,0,0,0,0,0,0,0,0,0,-1,1336,673,0,0
119,351,0,0,0,0,0,0,0,0,0,-1,1343,673,0,0
126,351,0,0,0,0,0,0,0,0,0,-1,1350,673,0,0
133,351,0,0,0,0,0,0,0,0,0,-1,1357,673,0,0
140,351,0,0,0,0,0,0,0,0,0,-1,1364,673,0,0
147,351,0,0,0,0,0,0,0,0,0,-1,1371,673,0,0
154,351,0,0,0,0,0,0,0,0,0,-1,1378,673,0,0
161,351,0,0,0,0,0,0,0,0,0,-1,1385,673,0,0
168,351,0,0,0,0,0,0,0,0,0,-1,1392,673,0,0
175,351,0,0,0,0,0,0,0,0,0,-1,1399,673,0,0
182,351,0,0,0,0,0,0,0,0,0,-1,1406,673,0,0
189,351,0,0,0,0,0,0,0,0,0,-1,1413,673,0,0
196,351,0,0,0,0,0,0,0,0,0,-1,1420,673,0,0
203,351,0,0,0,0,0,0,0,0,0,-1,1427,673,0,0
210,351,0,0,0,0,0,0,0,0,0,-1,1434,673,0,0
217,351,0,0,0,0,0,0,0,0,0,-1,1441,673,0,0
224,351,0,0,0,0,0,0,0,0,0,-1,1448,673,0,0
231,351,0,0,0,0,0,0,0,0,0,-1,1455,673,0,0
238,351,0,0,0,0,0,0,0,0,0,-1,1462,673,0,0
245,351,0,0,0,0,0,0,0,0,0,-1,1469,673,0,0
252,351,0,0,0,0,0,0,0,0,0,-1,1476,673,0,0
259,351,0,0,0,0,0,0,0,0,0,-1,1483,673,0,0
266,351,0,0,0,0,0,0,0,0,0,-1,1490,673,0,0
273,351,0,0,0,0,0,0,0,0,0,-1,1497,673,0,0
280,351,0,0,0,0,0,0,0,0,0,-1,1504,673,0,0
287,351,0,0,0,0,0,0,0,0,0,-1,1511,673,0,0
294,351,0,0,0,0,0,0,0,0,0,-1,1518,673,0,0
301,351,0,0,0,0,0,0,0,0,0,-1,1525,673,0,0
308,351,0,0,0,0,0,0,0,0,0,-1,1532,673,0,0
315,351,0,0,0,0,0,0,0,0,0,-1,1539,673,0,0
322,351,0,0,0,0,0,0,0,0,0,-1,1546,673,0,0
329,351,0,0,0,0,0,0,0,0,0,-1,1553,673,0,0
336,351,0,0,0,0,0,0,0,0,0,-1,1560,673,0,0
343,351,0,0,0,0,0,0,0,0,0,-1,1567,673,0,0
350,351,0,0,0,0,0,0,0,0,0,-1,1574,673,0,0
357,351,0,0,0,0,0,0,0,0,0,-1,1581,673,0,0
364,351,0,0,0,0,0,0,0,0,0,-1,1588,673,0,0
371,351,0,0,0,0,0,0,0,0,0,-1,1595,673,0,0
378,351,0,0,0,0,0,0,0,0,0,-1,1602,673,0,0
385,351,0,0,0,0,0,0,0,0,0,-1,1609,673,0,0
392,351,0,0,0,0,0,0,0,0,0,-1,1616,673,0,0
399,351,0,0,0,0,0,0,0,0,0,-1,1623,673,0,0
406,351,0,0,0,0,0,0,0,0,0,-1,1630,673,0,0
413,351,0,0,0,0,0,0,0,0,0,-1,1637,673,0,0
420,351,0,0,0,0,0,0,0,0,0,-1,1644,673,0,0
427,351,0,0,0,0,0,0,0,0,0,-1,1651,673,0,0
434,351,0,0,0,0,0,0,0,0,0,-1,1658,673,0,0
441,351,0,0,0,0,0,0,0,0,0,-1,1665,673,0,0
448,351,0,0,0,0,0,0,0,0,0,-1,1672,673,0,0
455,351,0,0,0,0,0,0,0,0,0,-1,1679,673,0,0
462,351,0,0,0,0,0,0,0,0,0,-1,1686,673,0,0
469,351,0,0,0,0,0,0,0,0,0,-1,1693,673,0,0
476,351,0,0,0,0,0,0,0,0,0,-1,1700,673,0,0
483,351,0,0,0,0,0,0,0,0,0,-1,1707,673,0,0
490,351,0,0,0,0,0,0,0,0,0,-1,1714,673,0,0
497,351,0,0,0,0,0,0,0,0,0,-1,1721,673,0,0
504,351,10.8842,1.61615,0,0,0,0,0,0,0,-1,1728,673,10.8842,-1.61618
511,351,15.4548,0.0236816,0,0,0,0,0,0,0,-1,1735,673,15.4549,-0.0236664
518,351,16.7448,2.49268,0,0,0,0,0,0,0,-1,1742,673,16.7448,-2.49269
525,351,16.0701,3.43225,0,0,0,0,0,0,0,-1,1749,673,16.07,-3.43227
532,351,32.3822,3.03021,0,0,0,0,0,0,0,-1,1756,673,32.3822,-3.03019
539,351,15.3387,3.54486,0,0,0,0,0,0,0,-1,1763,673,15.3387,-3.54485
546,351,13.9387,4.59357,0,0,0,0,0,0,0,-1,1770,673,13.9388,-4.59359
553,351,12.0682,2.02832,0,0,0,0,0,0,0,-1,1777,673,12.0683,-2.02831
560,351,12.0173,0.55304,0,0,0,0,0,0,0,-1,1784,673,12.0174,-0.553028
567,351,10.7827,0.130188,0,0,0,0,0,0,0,-1,1791,673,10.7827,-0.130183
574,351,13.405,-1.09204,0,0,0,0,0,0,0,-1,1798,673,13.405,1.09207
581,351,15.2351,-3.06049,0,0,0,0,0,0,0,-1,1805,673,15.2351,3.06046
588,351,40.7876,-15.7712,0,0,0,0,0,0,0,-1,1812,673,40.7876,15.7712
595,351,40.8398,-14.7083,-0.001013,-0.000929413,-0.00034202,-0.000626641,-0.00131577,-0.846192,0.000759945,0.040599,1819,673,40.8398,14.7083
602,351,40.772,-13.7012,-0.000408969,-0.000551786,-0.000136228,-0.000326569,-0.000634186,-0.543993,0.000366202,0.0196834,1826,673,40.772,13.7012
609,351,40.7413,-12.7571,0.000208025,-0.00015563,0.000113288,0.000240429,-0.000188035,0.278598,0.00024799,0.0192352,1833,673,40.7414,12.7572
616,351,40.6499,-11.7526,0.000754046,0.00026671,0.000350881,0.000937569,8.31877e-05,0.481904,0.000599244,0.015573,1840,673,40.6499,11.7526
623,351,40.6095,-10.7831,0.00131896,0.000732628,0.000604744,0.00169785,0.000353737,0.5597,0.00103435,0.0154862,1847,673,40.6095,10.7831
630,351,40.5154,-9.83307,0.00180704,0.0012707,0.000871555,0.00245075,0.000626991,0.63615,0.0014701,0.0254491,1854,673,40.5154,9.83306
637,351,40.4608,-8.80676,0.00220291,0.00182123,0.00109602,0.00312458,0.000899562,0.699201,0.0018573,0.030465,1861,673,40.4608,8.80679
644,351,40.4126,-7.77277,0.00250713,0.00244023,0.00130172,0.00377583,0.00117153,0.772554,0.00223168,0.022088,1868,673,40.4125,7.77279
651,351,40.3826,-6.72717,0.00273987,0.00315362,0.00151987,0.00448063,0.00141286,0.853039,0.00264506,0.0180872,1875,673,40.3825,6.72715
658,351,40.2426,-5.70703,0.00278885,0.00391448,0.00168681,0.00512989,0.00157345,0.946419,0.00303461,0.0470076,1882,673,40.2426,5.70701
665,351,39.8243,-4.59882,0,0,0,0,0,0,0,-1,1889,673,39.8244,4.59881
672,351,34.9646,-3.1748,0,0,0,0,0,0,0,-1,1896,673,34.9646,3.17482
679,351,14.1252,1.85681,0,0,0,0,0,0,0,-1,1903,673,14.1253,-1.85682
686,351,13.0294,2.1189,0,0,0,0,0,0,0,-1,1910,673,13.0294,-2.11892
693,351,13.5187,2.34595,0,0,0,0,0,0,0,-1,1917,673,13.5187,-2.34596
700,351,14.5629,-2.40173,0,0,0,0,0,0,0,-1,1924,673,14.5629,2.40172
707,351,0,0,0,0,0,0,0,0,0,-1,1931,673,0,0
714,351,0,0,0,0,0,0,0,0,0,-1,1938,673,0,0
721,351,0,0,0,0,0,0,0,0,0,-1,1945,673,0,0
728,351,0,0,0,0,0,0,0,0,0,-1,1952,673,0,0
735,351,0,0,0,0,0,0,0,0,0,-1,1959,673,0,0
742,351,0,0,0,0,0,0,0,0,0,-1,1966,673,0,0
749,351,0,0,0,0,0,0,0,0,0,-1,1973,673,0,0
756,351,0,0,0,0,0,0,0,0,0,-1,1980,673,0,0
763,351,0,0,0,0,0,0,0,0,0,-1,1987,673,0,0
770,351,0,0,0,0,0,0,0,0,0,-1,1994,673,0,0
777,351,0,0,0,0,0,0,0,0,0,-1,2001,673,0,0
784,351,0,0,0,0,0,0,0,0,0,-1,2008,673,0,0
791,351,0,0,0,0,0,0,0,0,0,-1,2015,673,0,0
798,351,0,0,0,0,0,0,0,0,0,-1,2022,673,0,0
805,351,0,0,0,0,0,0,0,0,0,-1,2029,673,0,0
812,351,0,0,0,0,0,0,0,0,0,-1,2036,673,0,0
-700,344,0,0,0,0,0,0,0,0,0,-1,524,680,0,0
-693,344,0,0,0,0,0,0,0,0,0,-1,531,680,0,0
-686,344,0,0,0,0,0,0,0,0,0,-1,538,680,0,0
-679,344,0,0,0,0,0,0,0,0,0,-1,545,680,0,0
-672,344,0,0,0,0,0,0,0,0,0,-1,552,680,0,0
-665,344,0,0,0,0,0,0,0,0,0,-1,559,680,0,0
-658,344,0,0,0,0,0,0,0,0,0,-1,566,680,0,0
-651,344,0,0,0,0,0,0,0,0,0,-1,573,680,0,0
-644,344,0,0,0,0,0,0,0,0,0,-1,580,680,0,0
-637,344,0,0,0,0,0,0,0,0,0,-1,587,680,0,0
-630,344,0,0,0,0,0,0,0,0,0,-1,594,680,0,0
-623,344,0,0,0,0,0,0,0,0,0,-1,601,680,0,0
-616,344,0,0,0,0,0,0,0,0,0,-1,608,680,0,0
-609,344,0,0,0,0,0,0,0,0,0,-1,615,680,0,0
-602,344,0,0,0,0,0,0,0,0,0,-1,622,680,0,0
-595,344,0,0,0,0,0,0,0,0,0,-1,629,680,0,0
-588,344,-9.27826,1.47302,0,0,0,0,0,0,0,-1,636,680,-9.27829,-1.473
-581,344,-10.0098,1.71753,0,0,0,0,0,0,0,-1,643,680,-10.0098,-1.7175
-574,344,-10.2208,3.04871,0,0,0,0,0,0,0,-1,650,680,-10.2208,-3.04869
-567,344,-14.3779,2.29016,0,0,0,0,0,0,0,-1,657,680,-14.3779,-2.29014
-560,344,-14.1238,1.8374,0,0,0,0,0,0,0,-1,664,680,-14.1238,-1.83743
-553,344,-14.7884,2.00116,0,0,0,0,0,0,0,-1,671,680,-14.7884,-2.00115
-546,344,-17.4192,0.157654,0,0,0,0,0,0,0,-1,678,680,-17.4192,-0.157635
-539,344,-17.2671,-2.75714,0,0,0,0,0,0,0,-1,685,680,-17.2671,2.75712
-532,344,-18.4417,-4.38605,0,0,0,0,0,0,0,-1,692,680,-18.4417,4.38603
-525,344,-25.2664,-6.82361,0,0,0,0,0,0,0,-1,699,680,-25.2664,6.8236
-518,344,-25.3075,-7.80652,0.00278413,0.00132144,-0.00179688,0.00399279,0.000112775,-0.592132,0.00262508,0.0207987,706,680,-25.3075,7.80651
-511,344,-25.3918,-8.82135,0.00224722,0.000648277,-0.00106589,0.00278014,0.000115352,-0.463632,0.0018162,0.017591,713,680,-25.3918,8.82137
-504,344,-25.468,-9.82672,0.00187473,0.000203754,-0.00057859,0.00205551,2.29711e-05,-0.302843,0.00136275,0.0188575,720,680,-25.4679,9.82669
-497,344,-25.5059,-10.8259,0.00162418,-6.85773e-05,-0.000247324,0.00165957,-0.000103973,-0.14215,0.00114262,0.0176582,727,680,-25.5059,10.8259
-490,344,-25.5715,-11.8011,0.00148787,-0.000145547,-0.000104147,0.00149449,-0.000152161,-0.0634175,0.00105072,0.0161026,734,680,-25.5715,11.8011
-483,344,-25.6005,-12.7631,0.00149964,-5.0453e-05,-0.000141204,0.0015124,-6.32107e-05,-0.0901052,0.00102998,0.0161057,741,680,-25.6005,12.763
-476,344,-25.6727,-13.7618,0.00162232,0.000166547,-0.000350463,0.0017023,8.65704e-05,-0.224361,0.00110714,0.0157688,748,680,-25.6727,13.7619
-469,344,-25.7087,-14.795,0.00187181,0.000517243,-0.000703443,0.00217102,0.000218031,-0.402171,0.00138042,0.0236138,755,680,-25.7087,14.7951
-462,344,-25.7427,-15.8176,0,0,0,0,0,0,0,-1,762,680,-25.7427,15.8176
-455,344,-12.1653,-7.99176,0,0,0,0,0,0,0,-1,769,680,-12.1653,7.99174
-448,344,-5.67657,-2.72864,0,0,0,0,0,0,0,-1,776,680,-5.6766,2.72863
-441,344,-5.09229,-2.34167,0,0,0,0,0,0,0,-1,783,680,-5.09229,2.34168
-434,344,-4.28778,-2.08807,0,0,0,0,0,0,0,-1,790,680,-4.28778,2.08809
-427,344,-3.06506,-1.45404,0,0,0,0,0,0,0,-1,797,680,-3.06505,1.45402
-420,344,-1.96582,-1.57574,0,0,0,0,0,0,0,-1,804,680,-1.96579,1.57574
-413,344,-0.817993,-1.4751,0,0,0,0,0,0,0,-1,811,680,-0.818017,1.47511
-406,344,-0.00714111,-1.25189,0,0,0,0,0,0,0,-1,818,680,-0.00714956,1.25191
-399,344,0.240051,-1.75769,0,0,0,0,0,0,0,-1,825,680,0.240079,1.75767
-392,344,1.11353,-2.05615,0,0,0,0,0,0,0,-1,832,680,1.11351,2.05616
-385,344,0,0,0,0,0,0,0,0,0,-1,839,680,0,0
-378,344,0,0,0,0,0,0,0,0,0,-1,846,680,0,0
-371,344,0,0,0,0,0,0,0,0,0,-1,853,680,0,0
-364,344,0,0,0,0,0,0,0,0,0,-1,860,680,0,0
-357,344,0,0,0,0,0,0,0,0,0,-1,867,680,0,0
-350,344,0,0,0,0,0,0,0,0,0,-1,874,680,0,0
-343,344,0,0,0,0,0,0,0,0,0,-1,881,680,0,0
-336,344,0,0,0,0,0,0,0,0,0,-1,888,680,0,0
-329,344,0,0,0,0,0,0,0,0,0,-1,895,680,0,0
-322,344,0,0,0,0,0,0,0,0,0,-1,902,680,0,0
-315,344,0,0,0,0,0,0,0,0,0,-1,909,680,0,0
-308,344,0,0,0,0,0,0,0,0,0,-1,916,680,0,0
-301,344,0,0,0,0,0,0,0,0,0,-1,923,680,0,0
-294,344,0,0,0,0,0,0,0,0,0,-1,930,680,0,0
-287,344,0,0,0,0,0,0,0,0,0,-1,937,680,0,0
-280,344,0,0,0,0,0,0,0,0,0,-1,944,680,0,0
-273,344,0,0,0,0,0,0,0,0,0,-1,951,680,0,0
-266,344,0,0,0,0,0,0,0,0,0,-1,958,680,0,0
-259,344,0,0,0,0,0,0,0,0,0,-1,965,680,0,0
-252,344,0,0,0,0,0,0,0,0,0,-1,972,680,0,0
-245,344,0,0,0,0,0,0,0,0,0,-1,979,680,0,0
-238,344,0,0,0,0,0,0,0,0,0,-1,986,680,0,0
-231,344,0,0,0,0,0,0,0,0,0,-1,993,680,0,0
-224,344,0,0,0,0,0,0,0,0,0,-1,1000,680,0,0
-217,344,0,0,0,0,0,0,0,0,0,-1,1007,680,0,0
-210,344,0,0,0,0,0,0,0,0,0,-1,1014,680,0,0
-203,344,0,0,0,0,0,0,0,0,0,-1,1021,680,0,0
-196,344,0,0,0,0,0,0,0,0,0,-1,1028,680,0,0
-189,344,0,0,0,0,0,0,0,0,0,-1,1035,680,0,0
-182,344,0,0,0,0,0,0,0,0,0,-1,1042,680,0,0
-175,344,0,0,0,0,0,0,0,0,0,-1,1049,680,0,0
-168,344,0,0,0,0,0,0,0,0,0,-1,1056,680,0,0
-161,344,0,0,0,0,0,0,0,0,0,-1,1063,680,0,0
-154,344,0,0,0,0,0,0,0,0,0,-1,1070,680,0,0
-147,344,0,0,0,0,0,0,0,0,0,-1,1077,680,0,0
-140,344,0,0,0,0,0,0,0,0,0,-1,1084,680,0,0
-133,344,0,0,0,0,0,0,0,0,0,-1,1091,680,0,0
-126,344,0,0,0,0,0,0,0,0,0,-1,1098,680,0,0
-119,344,0,0,0,0,0,0,0,0,0,-1,1105,680,0,0
-112,344,0,0,0,0,0,0,0,0,0,-1,1112,680,0,0
-105,344,0,0,0,0,0,0,0,0,0,-1,1119,680,0,0
-98,344,0,0,0,0,0,0,0,0,0,-1,1126,680,0,0
-91,344,0,0,0,0,0,0,0,0,0,-1,1133,680,0,0
-84,344,0,0,0,0,0,0,0,0,0,-1,1140,680,0,0
-77,344,0,0,0,0,0,0,0,0,0,-1,1147,680,0,0
-70,344,0,0,0,0,0,0,0,0,0,-1,1154,680,0,0
-63,344,0,0,0,0,0,0,0,0,0,-1,1161,680,0,0
-56,344,0,0,0,0,0,0,0,0,0,-1,1168,680,0,0
-49,344,0,0,0,0,0,0,0,0,0,-1,1175,680,0,0
-42,344,0,0,0,0,0,0,0,0,0,-1,1182,680,0,0
-35,344,0,0,0,0,0,0,0,0,0,-1,1189,680,0,0
-28,344,0,0,0,0,0,0,0,0,0,-1,1196,680,0,0
-21,344,0,0,0,0,0,0,0,0,0,-1,1203,680,0,0
-14,344,0,0,0,0,0,0,0,0,0,-1,1210,680,0,0
-7,344,0,0,0,0,0,0,0,0,0,-1,1217,680,0,0
0,344,0,0,0,0,0,0,0,0,0,-1,1224,680,0,0
7,344,0,0,0,0,0,0,0,0,0,-1,1231,680,0,0
14,344,0,0,0,0,0,0,0,0,0,-1,1238,680,0,0
21,344,0,0,0,0,0,0,0,0,0,-1,1245,680,0,0
28,344,0,0,0,0,0,0,0,0,0,-1,1252,680,0,0
35,344,0,0,0,0,0,0,0,0,0,-1,1259,680,0,0
42,344,0,0,0,0,0,0,0,0,0,-1,1266,680,0,0
49,344,0,0,0,0,0,0,0,0,0,-1,1273,680,0,0
56,344,0,0,0,0,0,0,0,0,0,-1,1280,680,0,0
63,344,0,0,0,0,0,0,0,0,0,-1,1287,680,0,0
70,344,0,0,0,0,0,0,0,0,0,-1,1294,680,0,0
77,344,0,0,0,0,0,0,0,0,0,-1,1301,680,0,0
84,344,0,0,0,0,0,0,0,0,0,-1,1308,680,0,0
91,344,0,0,0,0,0,0,0,0,0,-1,1315,680,0,0
98,344,0,0,0,0,0,0,0,0,0,-1,1322,680,0,0
105,344,0,0,0,0,0,0,0,0,0,-1,1329,680,0,0
112,344,0,0,0,0,0,0,0,0,0,-1,1336,680,0,0
119,344,0,0,0,0,0,0,0,0,0,-1,1343,680,0,0
126,344,0,0,0,0,0,0,0,0,0,-1,1350,680,0,0
133,344,0,0,0,0,0,0,0,0,0,-1,1357,680,0,0
140,344,0,0,0,0,0,0,0,0,0,-1,1364,680,0,0
147,344,0,0,0,0,0,0,0,0,0,-1,1371,680,0,0
154,344,0,0,0,0,0,0,0,0,0,-1,1378,680,0,0
161,344,0,0,0,0,0,0,0,0,0,-1,1385,680,0,0
168,344,0,0,0,0,0,0,0,0,0,-1,1392,680,0,0
175,344,0,0,0,0,0,0,0,0,0,-1,1399,680,0,0
182,344,0,0,0,0,0,0,0,0,0,-1,1406,680,0,0
189,344,0,0,0,0,0,0,0,0,0,-1,1413,680,0,0
196,344,0,0,0,0,0,0,0,0,0,-1,1420,680,0,0
203,344,0,0,0,0,0,0,0,0,0,-1,1427,680,0,0
210,344,0,0,0,0,0,0,0,0,0,-1,1434,680,0,0
217,344,0,0,0,0,0,0,0,0,0,-1,1441,680,0,0
224,344,0,0,0,0,0,0,0,0,0,-1,1448,680,0,0
231,344,0,0,0,0,0,0,0,0,0,-1,1455,680,0,0
238,344,0,0,0,0,0,0,0,0,0,-1,1462,680,0,0
245,344,0,0,0,0,0,0,0,0,0,-1,1469,680,0,0
252,344,0,0,0,0,0,0,0,0,0,-1,1476,680,0,0
259,344,0,0,0,0,0,0,0,0,0,-1,1483,680,0,0
266,344,0,0,0,0,0,0,0,0,0,-1,1490,680,0,0
273,344,0,0,0,0,0,0,0,0,0,-1,1497,680,0,0
280,344,0,0,0,0,0,0,0,0,0,-1,1504,680,0,0
287,344,0,0,0,0,0,0,0,0,0,-1,1511,680,0,0
294,344,0,0,0,0,0,0,0,0,0,-1,1518,680,0,0
301,344,0,0,0,0,0,0,0,0,0,-1,1525,680,0,0
308,344,0,0,0,0,0,0,0,0,0,-1,1532,680,0,0
315,344,0,0,0,0,0,0,0,0,0,-1,1539,680,0,0
322,344,0,0,0,0,0,0,0,0,0,-1,1546,680,0,0
329,344,0,0,0,0,0,0,0,0,0,-1,1553,680,0,0
336,344,0,0,0,0,0,0,0,0,0,-1,1560,680,0,0
343,344,0,0,0,0,0,0,0,0,0,-1,1567,680,0,0
350,344,0,0,0,0,0,0,0,0,0,-1,1574,680,0,0
357,344,0,0,0,0,0,0,0,0,0,-1,1581,680,0,0
364,344,0,0,0,0,0,0,0,0,0,-1,1588,680,0,0
371,344,0,0,0,0,0,0,0,0,0,-1,1595,680,0,0
378,344,0,0,0,0,0,0,0,0,0,-1,1602,680,0,0
385,344,0,0,0,0,0,0,0,0,0,-1,1609,680,0,0
392,344,0,0,0,0,0,0,0,0,0,-1,1616,680,0,0
399,344,0,0,0,0,0,0,0,0,0,-1,1623,680,0,0
406,344,0,0,0,0,0,0,0,0,0,-1,1630,680,0,0
413,344,0,0,0,0,0,0,0,0,0,-1,1637,680,0,0
420,344,0,0,0,0,0,0,0,0,0,-1,1644,680,0,0
427,344,0,0,0,0,0,0,0,0,0,-1,1651,680,0,0
434,344,0,0,0,0,0,0,0,0,0,-1,1658,680,0,0
441,344,0,0,0,0,0,0,0,0,0,-1,1665,680,0,0
448,344,0,0,0,0,0,0,0,0,0,-1,1672,680,0,0
455,344,0,0,0,0,0,0,0,0,0,-1,1679,680,0,0
462,344,0,0,0,0,0,0,0,0,0,-1,1686,680,0,0
469,344,0,0,0,0,0,0,0,0,0,-1,1693,680,0,0
476,344,0,0,0,0,0,0,0,0,0,-1,1700,680,0,0
483,344,0,0,0,0,0,0,0,0,0,-1,1707,680,0,0
490,344,0,0,0,0,0,0,0,0,0,-1,1714,680,0,0
497,344,0,0,0,0,0,0,0,0,0,-1,1721,680,0,0
504,344,0,0,0,0,0,0,0,0,0,-1,1728,680,0,0
511,344,15.4819,0.452637,0,0,0,0,0,0,0,-1,1735,680,15.4819,-0.452656
518,344,17.1357,2.31207,0,0,0,0,0,0,0,-1,1742,680,17.1358,-2.31207
525,344,31.5201,2.6217,0,0,0,0,0,0,0,-1,1749,680,31.5201,-2.62168
532,344,31.9766,2.61047,0,0,0,0,0,0,0,-1,1756,680,31.9765,-2.6105
539,344,32.4379,2.65314,0,0,0,0,0,0,0,-1,1763,680,32.4378,-2.65316
546,344,14.6722,4.30243,0,0,0,0,0,0,0,-1,1770,680,14.6722,-4.30241
553,344,14.8136,4.35681,0,0,0,0,0,0,0,-1,1777,680,14.8136,-4.35679
560,344,11.9363,2.14185,0,0,0,0,0,0,0,-1,1784,680,11.9362,-2.14182
567,344,11.397,0.925842,0,0,0,0,0,0,0,-1,1791,680,11.397,-0.92583
574,344,10.0004,0.504639,0,0,0,0,0,0,0,-1,1798,680,10.0004,-0.504645
581,344,13.6709,-0.969604,0,0,0,0,0,0,0,-1,1805,680,13.6709,0.969629
588,344,16.1447,-3.15948,0,0,0,0,0,0,0,-1,1812,680,16.1447,3.15946
595,344,41.7206,-14.7097,0,0,0,0,0,0,0,-1,1819,680,41.7206,14.7097
602,344,41.9045,-13.6172,-0.000720047,-0.000765261,-0.000222891,-0.000518619,-0.000966688,-0.734857,0.000558613,0.0344156,1826,680,41.9046,13.6172
609,344,41.7383,-12.6649,3.04192e-05,-0.000478034,2.53315e-06,3.04319e-05,-0.000478047,0.00498191,0.000329311,0.0183063,1833,680,41.7383,12.6649
616,344,41.66,-11.6434,0.000566791,-0.000164011,0.000209471,0.000622574,-0.000219794,0.260264,0.000504533,0.0237631,1840,680,41.6601,11.6434
623,344,41.5804,-10.6972,0.00103768,0.00021932,0.00039673,0.00119843,5.85674e-05,0.384975,0.000780167,0.020521,1847,680,41.5805,10.6972
630,344,41.5145,-9.74182,0.00145828,0.000690249,0.000620557,0.00180403,0.000344499,0.508325,0.00110589,0.0252012,1854,680,41.5145,9.74183
637,344,41.4934,-8.7168,0.00180903,0.00119593,0.000822591,0.00238033,0.000624626,0.60704,0.00142507,0.0250228,1861,680,41.4934,8.71681
644,344,41.4384,-7.6969,0.00209318,0.00175907,0.00101318,0.00295298,0.00089927,0.703691,0.0017478,0.0177008,1868,680,41.4383,7.6969
651,344,41.3464,-6.71503,0.00235936,0.00243579,0.00122877,0.00362693,0.00116821,0.800942,0.00213774,0.0120481,1875,680,41.3465,6.71504
658,344,41.2936,-5.63788,0.00255111,0.00319641,0.00144969,0.00435892,0.0013886,0.894896,0.00257126,0.0280519,1882,680,41.2935,5.63787
665,344,41.084,-4.68445,0.00300063,0.00414385,0.00173878,0.00540256,0.00174192,0.944205,0.00318407,0.0478583,1889,680,41.084,4.68447
672,344,41.068,-3.78589,0,0,0,0,0,0,0,-1,1896,680,41.0681,3.78588
679,344,36.7468,-2.59857,0,0,0,0,0,0,0,-1,1903,680,36.7468,2.59857
686,344,15.024,1.82709,0,0,0,0,0,0,0,-1,1910,680,15.024,-1.82706
693,344,12.4362,-1.42346,0,0,0,0,0,0,0,-1,1917,680,12.4361,1.42348
700,344,17.5396,2.61206,0,0,0,0,0,0,0,-1,1924,680,17.5396,-2.61204
707,344,18.5829,3.29352,0,0,0,0,0,0,0,-1,1931,680,18.5828,-3.2935
714,344,0,0,0,0,0,0,0,0,0,-1,1938,680,0,0
721,344,0,0,0,0,0,0,0,0,0,-1,1945,680,0,0
728,344,0,0,0,0,0,0,0,0,0,-1,1952,680,0,0
735,344,0,0,0,0,0,0,0,0,0,-1,1959,680,0,0
742,344,0,0,0,0,0,0,0,0,0,-1,1966,680,0,0
749,344,0,0,0,0,0,0,0,0,0,-1,1973,680,0,0
756,344,0,0,0,0,0,0,0,0,0,-1,1980,680,0,0
763,344,0,0,0,0,0,0,0,0,0,-1,1987,680,0,0
770,344,0,0,0,0,0,0,0,0,0,-1,1994,680,0,0
777,344,0,0,0,0,0,0,0,0,0,-1,2001,680,0,0
784,344,0,0,0,0,0,0,0,0,0,-1,2008,680,0,0
791,344,0,0,0,0,0,0,0,0,0,-1,2015,680,0,0
798,344,0,0,0,0,0,0,0,0,0,-1,2022,680,0,0
805,344,0,0,0,0,0,0,0,0,0,-1,2029,680,0,0
812,344,0,0,0,0,0,0,0,0,0,-1,2036,680,0,0
-700,337,0,0,0,0,0,0,0,0,0,-1,524,687,0,0
-693,337,0,0,0,0,0,0,0,0,0,-1,531,687,0,0
-686,337,0,0,0,0,0,0,0,0,0,-1,538,687,0,0
-679,337,0,0,0,0,0,0,0,0,0,-1,545,687,0,0
-672,337,0,0,0,0,0,0,0,0,0,-1,552,687,0,0
-665,337,0,0,0,0,0,0,0,0,0,-1,559,687,0,0
-658,337,0,0,0,0,0,0,0,0,0,-1,566,687,0,0
-651,337,0,0,0,0,0,0,0,0,0,-1,573,687,0,0
-644,337,0,0,0,0,0,0,0,0,0,-1,580,687,0,0
-637,337,0,0,0,0,0,0,0,0,0,-1,587,687,0,0
-630,337,0,0,0,0,0,0,0,0,0,-1,594,687,0,0
-623,337,0,0,0,0,0,0,0,0,0,-1,601,687,0,0
-616,337,0,0,0,0,0,0,0,0,0,-1,608,687,0,0
-609,337,0,0,0,0,0,0,0,0,0,-1,615,687,0,0
-602,337,0,0,0,0,0,0,0,0,0,-1,622,687,0,0
-595,337,0,0,0,0,0,0,0,0,0,-1,629,687,0,0
-588,337,-10.8413,1.27863,0,0,0,0,0,0,0,-1,636,687,-10.8413,-1.27861
-581,337,-11.2157,1.31567,0,0,0,0,0,0,0,-1,643,687,-11.2157,-1.3157
-574,337,-6.03339,2.0321,0,0,0,0,0,0,0,-1,650,687,-6.03337,-2.03213
-567,337,-13.8102,1.56787,0,0,0,0,0,0,0,-1,657,687,-13.8102,-1.56789
-560,337,-15.5435,2.34247,0,0,0,0,0,0,0,-1,664,687,-15.5435,-2.34247
-553,337,-18.0128,1.12927,0,0,0,0,0,0,0,-1,671,687,-18.0128,-1.12926
-546,337,-18.0244,-2.03845,0,0,0,0,0,0,0,-1,678,687,-18.0244,2.03846
-539,337,-19.2426,-3.53815,0,0,0,0,0,0,0,-1,685,687,-19.2426,3.53813
-532,337,-26.3029,-5.71088,0,0,0,0,0,0,0,-1,692,687,-26.3029,5.71087
-525,337,-26.3107,-6.73688,0.00310089,0.0025274,-0.00265685,0.00548642,0.000141863,-0.731643,0.00361126,0.0221472,699,687,-26.3107,6.73688
-518,337,-26.2909,-7.75775,0.00250205,0.00138882,-0.00168718,0.00372207,0.00016881,-0.626066,0.00242707,0.0238005,706,687,-26.2909,7.75776
-511,337,-26.3849,-8.76697,0.0020793,0.000569524,-0.000931115,0.00252309,0.000125732,-0.444772,0.00164175,0.024303,713,687,-26.3849,8.76699
-504,337,-26.4769,-9.7735,0.00173069,-3.19947e-05,-0.000351695,0.00179827,-9.9575e-05,-0.189842,0.00123338,0.0245829,720,687,-26.4769,9.77347
-497,337,-26.5118,-10.77,0.00148753,-0.000421291,6.49738e-05,0.00148974,-0.0004235,0.0339863,0.00116038,0.0184728,727,687,-26.5119,10.77
-490,337,-26.5604,-11.7531,0.00138784,-0.000578256,0.000263738,0.00142261,-0.00061302,0.131057,0.00120585,0.0165576,734,687,-26.5604,11.7531
-483,337,-26.6066,-12.7327,0.00142158,-0.000513124,0.000255769,0.00145482,-0.000546366,0.129244,0.00119441,0.0168413,741,687,-26.6066,12.7326
-476,337,-26.6593,-13.7554,0.00158511,-0.000286098,-1.5889e-06,0.00158511,-0.000286099,-0.00084913,0.00116389,0.0194631,748,687,-26.6593,13.7554
-469,337,-26.7186,-14.7936,0,0,0,0,0,0,0,-1,755,687,-26.7185,14.7936
-462,337,-14.186,-8.89264,0,0,0,0,0,0,0,-1,762,687,-14.186,8.89266
-455,337,-6.00574,-3.12933,0,0,0,0,0,0,0,-1,769,687,-6.00576,3.12934
-448,337,-5.30627,-2.07202,0,0,0,0,0,0,0,-1,776,687,-5.30628,2.07205
-441,337,-4.24762,-1.49597,0,0,0,0,0,0,0,-1,783,687,-4.24762,1.49598
-434,337,-6.86908,1.37531,0,0,0,0,0,0,0,-1,790,687,-6.86908,-1.3753
-427,337,-9.92004,2.487,0,0,0,0,0,0,0,-1,797,687,-9.92002,-2.48701
-420,337,-2.95996,-1.76697,0,0,0,0,0,0,0,-1,804,687,-2.95998,1.76696
-413,337,-1.29169,-1.99487,0,0,0,0,0,0,0,-1,811,687,-1.29171,1.9949
-406,337,-1.02356,-1.89563,0,0,0,0,0,0,0,-1,818,687,-1.02357,1.89564
-399,337,-0.472839,-2.21338,0,0,0,0,0,0,0,-1,825,687,-0.472837,2.2134
-392,337,0,0,0,0,0,0,0,0,0,-1,832,687,0,0
-385,337,0,0,0,0,0,0,0,0,0,-1,839,687,0,0
-378,337,0,0,0,0,0,0,0,0,0,-1,846,687,0,0
-371,337,0,0,0,0,0,0,0,0,0,-1,853,687,0,0
-364,337,0,0,0,0,0,0,0,0,0,-1,860,687,0,0
-357,337,0,0,0,0,0,0,0,0,0,-1,867,687,0,0
-350,337,0,0,0,0,0,0,0,0,0,-1,874,687,0,0
-343,337,0,0,0,0,0,0,0,0,0,-1,881,687,0,0
-336,337,0,0,0,0,0,0,0,0,0,-1,888,687,0,0
-329,337,0,0,0,0,0,0,0,0,0,-1,895,687,0,0
-322,337,0,0,0,0,0,0,0,0,0,-1,902,687,0,0
-315,337,0,0,0,0,0,0,0,0,0,-1,909,687,0,0
-308,337,0,0,0,0,0,0,0,0,0,-1,916,687,0,0
-301,337,0,0,0,0,0,0,0,0,0,-1,923,687,0,0
-294,337,0,0,0,0,0,0,0,0,0,-1,930,687,0,0
-287,337,0,0,0,0,0,0,0,0,0,-1,937,687,0,0
-280,337,0,0,0,0,0,0,0,0,0,-1,944,687,0,0
-273,337,0,0,0,0,0,0,0,0,0,-1,951,687,0,0
-266,337,0,0,0,0,0,0,0,0,0,-1,958,687,0,0
-259,337,0,0,0,0,0,0,0,0,0,-1,965,687,0,0
-252,337,0,0,0,0,0,0,0,0,0,-1,972,687,0,0
-245,337,0,0,0,0,0,0,0,0,0,-1,979,687,0,0
-238,337,0,0,0,0,0,0,0,0,0,-1,986,687,0,0
-231,337,0,0,0,0,0,0,0,0,0,-1,993,687,0,0
-224,337,0,0,0,0,0,0,0,0,0,-1,1000,687,0,0
-217,337,0,0,0,0,0,0,0,0,0,-1,1007,687,0,0
-210,337,0,0,0,0,0,0,0,0,0,-1,1014,687,0,0
-203,337,0,0,0,0,0,0,0,0,0,-1,1021,687,0,0
-196,337,0,0,0,0,0,0,0,0,0,-1,1028,687,0,0
-189,337,0,0,0,0,0,0,0,0,0,-1,1035,687,0,0
-182,337,0,0,0,0,0,0,0,0,0,-1,1042,687,0,0
-175,337,0,0,0,0,0,0,0,0,0,-1,1049,687,0,0
-168,337,0,0,0,0,0,0,0,0,0,-1,1056,687,0,0
-161,337,0,0,0,0,0,0,0,0,0,-1,1063,687,0,0
-154,337,0,0,0,0,0,0,0,0,0,-1,1070,687,0,0
-147,337,0,0,0,0,0,0,0,0,0,-1,1077,687,0,0
-140,337,0,0,0,0,0,0,0,0,0,-1,1084,687,0,0
-133,337,0,0,0,0,0,0,0,0,0,-1,1091,687,0,0
-126,337,0,0,0,0,0,0,0,0,0,-1,1098,687,0,0
-119,337,0,0,0,0,0,0,0,0,0,-1,1105,687,0,0
-112,337,0,0,0,0,0,0,0,0,0,-1,1112,687,0,0
-105,337,0,0,0,0,0,0,0,0,0,-1,1119,687,0,0
-98,337,0,0,0,0,0,0,0,0,0,-1,1126,687,0,0
-91,337,0,0,0,0,0,0,0,0,0,-1,1133,687,0,0
-84,337,0,0,0,0,0,0,0,0,0,-1,1140,687,0,0
-77,337,0,0,0,0,0,0,0,0,0,-1,1147,687,0,0
-70,337,0,0,0,0,0,0,0,0,0,-1,1154,687,0,0
-63,337,0,0,0,0,0,0,0,0,0,-1,1161,687,0,0
-56,337,0,0,0,0,0,0,0,0,0,-1,1168,687,0,0
-49,337,0,0,0,0,0,0,0,0,0,-1,1175,687,0,0
-42,337,0,0,0,0,0,0,0,0,0,-1,1182,687,0,0
-35,337,0,0,0,0,0,0,0,0,0,-1,1189,687,0,0
-28,337,0,0,0,0,0,0,0,0,0,-1,1196,687,0,0
-21,337,0,0,0,0,0,0,0,0,0,-1,1203,687,0,0
-14,337,0,0,0,0,0,0,0,0,0,-1,1210,687,0,0
-7,337,0,0,0,0,0,0,0,0,0,-1,1217,687,0,0
0,337,0,0,0,0,0,0,0,0,0,-1,1224,687,0,0
7,337,0,0,0,0,0,0,0,0,0,-1,1231,687,0,0
14,337,0,0,0,0,0,0,0,0,0,-1,1238,687,0,0
21,337,0,0,0,0,0,0,0,0,0,-1,1245,687,0,0
28,337,0,0,0,0,0,0,0,0,0,-1,1252,687,0,0
35,337,0,0,0,0,0,0,0,0,0,-1,1259,687,0,0
42,337,0,0,0,0,0,0,0,0,0,-1,1266,687,0,0
49,337,0,0,0,0,0,0,0,0,0,-1,1273,687,0,0
56,337,0,0,0,0,0,0,0,0,0,-1,1280,687,0,0
63,337,0,0,0,0,0,0,0,0,0,-1,1287,687,0,0
70,337,0,0,0,0,0,0,0,0,0,-1,1294,687,0,0
77,337,0,0,0,0,0,0,0,0,0,-1,1301,687,0,0
84,337,0,0,0,0,0,0,0,0,0,-1,1308,687,0,0
91,337,0,0,0,0,0,0,0,0,0,-1,1315,687,0,0
98,337,0,0,0,0,0,0,0,0,0,-1,1322,687,0,0
105,337,0,0,0,0,0,0,0,0,0,-1,1329,687,0,0
112,337,0,0,0,0,0,0,0,0,0,-1,1336,687,0,0
119,337,0,0,0,0,0,0,0,0,0,-1,1343,687,0,0
126,337,0,0,0,0,0,0,0,0,0,-1,1350,687,0,0
133,337,0,0,0,0,0,0,0,0,0,-1,1357,687,0,0
140,337,0,0,0,0,0,0,0,0,0,-1,1364,687,0,0
147,337,0,0,0,0,0,0,0,0,0,-1,1371,687,0,0
154,337,0,0,0,0,0,0,0,0,0,-1,1378,687,0,0
161,337,0,0,0,0,0,0,0,0,0,-1,1385,687,0,0
168,337,0,0,0,0,0,0,0,0,0,-1,1392,687,0,0
175,337,0,0,0,0,0,0,0,0,0,-1,1399,687,0,0
182,337,0,0,0,0,0,0,0,0,0,-1,1406,687,0,0
189,337,0,0,0,0,0,0,0,0,0,-1,1413,687,0,0
196,337,0,0,0,0,0,0,0,0,0,-1,1420,687,0,0
203,337,0,0,0,0,0,0,0,0,0,-1,1427,687,0,0
210,337,0,0,0,0,0,0,0,0,0,-1,1434,687,0,0
217,337,0,0,0,0,0,0,0,0,0,-1,1441,687,0,0
224,337,0,0,0,0,0,0,0,0,0,-1,1448,687,0,0
231,337,0,0,0,0,0,0,0,0,0,-1,1455,687,0,0
238,337,0,0,0,0,0,0,0,0,0,-1,1462,687,0,0
245,337,0,0,0,0,0,0,0,0,0,-1,1469,687,0,0
252,337,0,0,0,0,0,0,0,0,0,-1,1476,687,0,0
259,337,0,0,0,0,0,0,0,0,0,-1,1483,687,0,0
266,337,0,0,0,0,0,0,0,0,0,-1,1490,687,0,0
273,337,0,0,0,0,0,0,0,0,0,-1,1497,687,0,0
280,337,0,0,0,0,0,0,0,0,0,-1,1504,687,0,0
287,337,0,0,0,0,0,0,0,0,0,-1,1511,687,0,0
294,337,0,0,0,0,0,0,0,0,0,-1,1518,687,0,0
301,337,0,0,0,0,0,0,0,0,0,-1,1525,687,0,0
308,337,0,0,0,0,0,0,0,0,0,-1,1532,687,0,0
315,337,0,0,0,0,0,0,0,0,0,-1,1539,687,0,0
322,337,0,0,0,0,0,0,0,0,0,-1,1546,687,0,0
329,337,0,0,0,0,0,0,0,0,0,-1,1553,687,0,0
336,337,0,0,0,0,0,0,0,0,0,-1,1560,687,0,0
343,337,0,0,0,0,0,0,0,0,0,-1,1567,687,0,0
350,337,0,0,0,0,0,0,0,0,0,-1,1574,687,0,0
357,337,0,0,0,0,0,0,0,0,0,-1,1581,687,0,0
364,337,0,0,0,0,0,0,0,0,0,-1,1588,687,0,0
371,337,0,0,0,0,0,0,0,0,0,-1,1595,687,0,0
378,337,0,0,0,0,0,0,0,0,0,-1,1602,687,0,0
385,337,0,0,0,0,0,0,0,0,0,-1,1609,687,0,0
392,337,0,0,0,0,0,0,0,0,0,-1,1616,687,0,0
399,337,0,0,0,0,0,0,0,0,0,-1,1623,687,0,0
406,337,0,0,0,0,0,0,0,0,0,-1,1630,687,0,0
413,337,0,0,0,0,0,0,0,0,0,-1,1637,687,0,0
420,337,0,0,0,0,0,0,0,0,0,-1,1644,687,0,0
427,337,0,0,0,0,0,0,0,0,0,-1,1651,687,0,0
434,337,0,0,0,0,0,0,0,0,0,-1,1658,687,0,0
441,337,0,0,0,0,0,0,0,0,0,-1,1665,687,0,0
448,337,0,0,0,0,0,0,0,0,0,-1,1672,687,0,0
455,337,0,0,0,0,0,0,0,0,0,-1,1679,687,0,0
462,337,0,0,0,0,0,0,0,0,0,-1,1686,687,0,0
469,337,0,0,0,0,0,0,0,0,0,-1,1693,687,0,0
476,337,0,0,0,0,0,0,0,0,0,-1,1700,687,0,0
483,337,0,0,0,0,0,0,0,0,0,-1,1707,687,0,0
490,337,0,0,0,0,0,0,0,0,0,-1,1714,687,0,0
497,337,0,0,0,0,0,0,0,0,0,-1,1721,687,0,0
504,337,0,0,0,0,0,0,0,0,0,-1,1728,687,0,0
511,337,0,0,0,0,0,0,0,0,0,-1,1735,687,0,0
518,337,18.0369,1.64581,0,0,0,0,0,0,0,-1,1742,687,18.0368,-1.64581
525,337,31.0717,2.13745,0,0,0,0,0,0,0,-1,1749,687,31.0717,-2.13747
532,337,31.5126,2.13904,0,0,0,0,0,0,0,-1,1756,687,31.5125,-2.13905
539,337,31.9684,2.15594,0,0,0,0,0,0,0,-1,1763,687,31.9684,-2.15596
546,337,32.3584,1.43719,0,0,0,0,0,0,0,-1,1770,687,32.3585,-1.43722
553,337,32.1809,1.36395,0,0,0,0,0,0,0,-1,1777,687,32.181,-1.36396
560,337,18.4053,3.62793,0,0,0,0,0,0,0,-1,1784,687,18.4052,-3.6279
567,337,11.9288,1.38776,0,0,0,0,0,0,0,-1,1791,687,11.9288,-1.38777
574,337,10.704,1.19476,0,0,0,0,0,0,0,-1,1798,687,10.704,-1.19478
581,337,8.50427,0.561768,0,0,0,0,0,0,0,-1,1805,687,8.5043,-0.561754
588,337,8.5885,-0.0536499,0,0,0,0,0,0,0,-1,1812,687,8.58844,0.0536788
595,337,42.641,-14.7175,0,0,0,0,0,0,0,-1,1819,687,42.6409,14.7175
602,337,42.803,-13.5306,-0.000684152,-0.00102283,-0.000184267,-0.000603231,-0.00110375,-0.413796,0.000638169,0.0447462,1826,687,42.803,13.5306
609,337,42.7162,-12.5419,0.00010946,-0.000826479,-9.9056e-06,0.000109565,-0.000826584,-0.010582,0.000590973,0.0235053,1833,687,42.7161,12.5419
616,337,42.6406,-11.5571,0.000587018,-0.000580836,0.000172713,0.000612025,-0.000605843,0.14379,0.00070314,0.0184546,1840,687,42.6407,11.557
623,337,42.5836,-10.5986,0.000920837,-0.000243192,0.000286154,0.000987378,-0.000309734,0.228477,0.000782212,0.0162115,1847,687,42.5836,10.5986
630,337,42.509,-9.61035,0.00124452,0.000186665,0.000457465,0.0014149,1.62795e-05,0.356539,0.000937889,0.0201646,1854,687,42.509,9.61035
637,337,42.4941,-8.61859,0.00152543,0.000671848,0.000633643,0.00186261,0.000334667,0.489021,0.00114658,0.0183577,1861,687,42.4941,8.61857
644,337,42.4213,-7.60284,0.00177976,0.0012352,0.000825783,0.00237699,0.000637965,0.62615,0.00142059,0.0122418,1868,687,42.4212,7.60285
651,337,42.3124,-6.6366,0.00205361,0.00190963,0.00105601,0.00304008,0.000923156,0.751366,0.00179973,0.0106614,1875,687,42.3124,6.63661
658,337,42.2798,-5.66071,0.00234108,0.00269216,0.00134503,0.00387306,0.00116018,0.850286,0.00229523,0.0124658,1882,687,42.2798,5.66068
665,337,42.2579,-4.67065,0.0028867,0.00366244,0.00174415,0.00506133,0.00148781,0.894808,0.00300373,0.0176898,1889,687,42.2579,4.67066
672,337,42.25,-3.66992,0,0,0,0,0,0,0,-1,1896,687,42.2499,3.6699
679,337,41.4054,-2.90735,0,0,0,0,0,0,0,-1,1903,687,41.4054,2.90735
686,337,18.5614,1.68597,0,0,0,0,0,0,0,-1,1910,687,18.5614,-1.68598
693,337,16.5415,2.21411,0,0,0,0,0,0,0,-1,1917,687,16.5415,-2.2141
700,337,17.2661,2.44379,0,0,0,0,0,0,0,-1,1924,687,17.2661,-2.44378
707,337,17.3544,5.61853,0,0,0,0,0,0,0,-1,1931,687,17.3543,-5.61851
714,337,0,0,0,0,0,0,0,0,0,-1,1938,687,0,0
721,337,0,0,0,0,0,0,0,0,0,-1,1945,687,0,0
728,337,0,0,0,0,0,0,0,0,0,-1,1952,687,0,0
735,337,0,0,0,0,0,0,0,0,0,-1,1959,687,0,0
742,337,0,0,0,0,0,0,0,0,0,-1,1966,687,0,0
749,337,0,0,0,0,0,0,0,0,0,-1,1973,687,0,0
756,337,0,0,0,0,0,0,0,0,0,-1,1980,687,0,0
763,337,0,0,0,0,0,0,0,0,0,-1,1987,687,0,0
770,337,0,0,0,0,0,0,0,0,0,-1,1994,687,0,0
777,337,0,0,0,0,0,0,0,0,0,-1,2001,687,0,0
784,337,0,0,0,0,0,0,0,0,0,-1,2008,687,0,0
791,337,0,0,0,0,0,0,0,0,0,-1,2015,687,0,0
798,337,0,0,0,0,0,0,0,0,0,-1,2022,687,0,0
805,337,0,0,0,0,0,0,0,0,0,-1,2029,687,0,0
812,337,0,0,0,0,0,0,0,0,0,-1,2036,687,0,0
-700,330,0,0,0,0,0,0,0,0,0,-1,524,694,0,0
-693,330,0,0,0,0,0,0,0,0,0,-1,531,694,0,0
-686,330,0,0,0,0,0,0,0,0,0,-1,538,694,0,0
-679,330,0,0,0,0,0,0,0,0,0,-1,545,694,0,0
-672,330,0,0,0,0,0,0,0,0,0,-1,552,694,0,0
-665,330,0,0,0,0,0,0,0,0,0,-1,559,694,0,0
-658,330,0,0,0,0,0,0,0,0,0,-1,566,694,0,0
-651,330,0,0,0,0,0,0,0,0,0,-1,573,694,0,0
-644,330,0,0,0,0,0,0,0,0,0,-1,580,694,0,0
-637,330,0,0,0,0,0,0,0,0,0,-1,587,694,0,0
-630,330,0,0,0,0,0,0,0,0,0,-1,594,694,0,0
-623,330,0,0,0,0,0,0,0,0,0,-1,601,694,0,0
-616,330,0,0,0,0,0,0,0,0,0,-1,608,694,0,0
-609,330,0,0,0,0,0,0,0,0,0,-1,615,694,0,0
-602,330,0,0,0,0,0,0,0,0,0,-1,622,694,0,0
-595,330,-4.67883,1.65515,0,0,0,0,0,0,0,-1,629,694,-4.67881,-1.65515
-588,330,-8.5047,2.67346,0,0,0,0,0,0,0,-1,636,694,-8.50469,-2.67348
-581,330,-12.4227,0.947083,0,0,0,0,0,0,0,-1,643,694,-12.4227,-0.947109
-574,330,-9.02118,1.87952,0,0,0,0,0,0,0,-1,650,694,-9.02115,-1.87953
-567,330,-8.35577,0.909973,0,0,0,0,0,0,0,-1,657,694,-8.35575,-0.909945
-560,330,-13.1036,-0.584656,0,0,0,0,0,0,0,-1,664,694,-13.1035,0.584658
-553,330,-17.5484,-1.21545,0,0,0,0,0,0,0,-1,671,694,-17.5484,1.21547
-546,330,-26.8857,-3.36847,0,0,0,0,0,0,0,-1,678,694,-26.8857,3.36849
-539,330,-27.1077,-4.47662,0,0,0,0,0,0,0,-1,685,694,-27.1077,4.4766
-532,330,-27.282,-5.64325,0.00328541,0.00355076,-0.0032489,0.00666969,0.000166486,-0.805805,0.00439202,0.0297567,692,694,-27.282,5.64323
-525,330,-27.2516,-6.73358,0.00275672,0.00221408,-0.00225433,0.004756,0.000214801,-0.725508,0.00310155,0.0111613,699,694,-27.2517,6.7336
-518,330,-27.29,-7.69696,0.00226686,0.00114779,-0.0013693,0.00318654,0.000228119,-0.591437,0.00205255,0.0148064,706,694,-27.29,7.69694
-511,330,-27.3873,-8.69446,0.00185671,0.000341354,-0.000653753,0.00209976,9.8297e-05,-0.355951,0.00136825,0.0201758,713,694,-27.3873,8.69448
-504,330,-27.4666,-9.70447,0.00147429,-0.000271946,-4.57853e-05,0.00147549,-0.000273146,-0.0261954,0.00108622,0.0190848,720,694,-27.4666,9.70447
-497,330,-27.5262,-10.6752,0.00120151,-0.000672717,0.000407619,0.00128632,-0.000757531,0.205144,0.00119311,0.0146988,727,694,-27.5263,10.6752
-490,330,-27.5493,-11.6713,0.00110601,-0.000840567,0.000640912,0.00129808,-0.00103264,0.291164,0.00134855,0.0157481,734,694,-27.5492,11.6713
-483,330,-27.595,-12.6797,0.00111222,-0.000767497,0.000681815,0.00133348,-0.000988761,0.3138,0.00134566,0.0160698,741,694,-27.595,12.6797
-476,330,-27.6356,-13.7466,0,0,0,0,0,0,0,-1,748,694,-27.6356,13.7466
-469,330,-16.1478,-9.23303,0,0,0,0,0,0,0,-1,755,694,-16.1478,9.23301
-462,330,-7.26733,-3.84833,0,0,0,0,0,0,0,-1,762,694,-7.26731,3.84832
-455,330,-5.04254,-1.79303,0,0,0,0,0,0,0,-1,769,694,-5.04252,1.79305
-448,330,-4.89886,-1.66156,0,0,0,0,0,0,0,-1,776,694,-4.89886,1.66157
-441,330,-5.30676,-2.34045,0,0,0,0,0,0,0,-1,783,694,-5.30679,2.34048
-434,330,-7.20428,1.00024,0,0,0,0,0,0,0,-1,790,694,-7.20431,-1.00027
-427,330,-16.0428,2.89258,0,0,0,0,0,0,0,-1,797,694,-16.0428,-2.89259
-420,330,-29.0331,0.271606,0,0,0,0,0,0,0,-1,804,694,-29.0331,-0.27158
-413,330,-29.0896,0.56366,0,0,0,0,0,0,0,-1,811,694,-29.0896,-0.563671
-406,330,-1.65375,-1.74371,0,0,0,0,0,0,0,-1,818,694,-1.65375,1.74371
-399,330,0,0,0,0,0,0,0,0,0,-1,825,694,0,0
-392,330,0,0,0,0,0,0,0,0,0,-1,832,694,0,0
-385,330,0,0,0,0,0,0,0,0,0,-1,839,694,0,0
-378,330,0,0,0,0,0,0,0,0,0,-1,846,694,0,0
-371,330,0,0,0,0,0,0,0,0,0,-1,853,694,0,0
-364,330,0,0,0,0,0,0,0,0,0,-1,860,694,0,0
-357,330,0,0,0,0,0,0,0,0,0,-1,867,694,0,0
-350,330,0,0,0,0,0,0,0,0,0,-1,874,694,0,0
-343,330,0,0,0,0,0,0,0,0,0,-1,881,694,0,0
-336,330,0,0,0,0,0,0,0,0,0,-1,888,694,0,0
-329,330,0,0,0,0,0,0,0,0,0,-1,895,694,0,0
-322,330,0,0,0,0,0,0,0,0,0,-1,902,694,0,0
-315,330,0,0,0,0,0,0,0,0,0,-1,909,694,0,0
-308,330,0,0,0,0,0,0,0,0,0,-1,916,694,0,0
-301,330,0,0,0,0,0,0,0,0,0,-1,923,694,0,0
-294,330,0,0,0,0,0,0,0,0,0,-1,930,694,0,0
-287,330,0,0,0,0,0,0,0,0,0,-1,937,694,0,0
-280,330,0,0,0,0,0,0,0,0,0,-1,944,694,0,0
-273,330,0,0,0,0,0,0,0,0,0,-1,951,694,0,0
-266,330,0,0,0,0,0,0,0,0,0,-1,958,694,0,0
-259,330,0,0,0,0,0,0,0,0,0,-1,965,694,0,0
-252,330,0,0,0,0,0,0,0,0,0,-1,972,694,0,0
-245,330,0,0,0,0,0,0,0,0,0,-1,979,694,0,0
-238,330,0,0,0,0,0,0,0,0,0,-1,986,694,0,0
-231,330,0,0,0,0,0,0,0,0,0,-1,993,694,0,0
-224,330,0,0,0,0,0,0,0,0,0,-1,1000,694,0,0
-217,330,0,0,0,0,0,0,0,0,0,-1,1007,694,0,0
-210,330,0,0,0,0,0,0,0,0,0,-1,1014,694,0,0
-203,330,0,0,0,0,0,0,0,0,0,-1,1021,694,0,0
-196,330,0,0,0,0,0,0,0,0,0,-1,1028,694,0,0
-189,330,0,0,0,0,0,0,0,0,0,-1,1035,694,0,0
-182,330,0,0,0,0,0,0,0,0,0,-1,1042,694,0,0
-175,330,0,0,0,0,0,0,0,0,0,-1,1049,694,0,0
-168,330,0,0,0,0,0,0,0,0,0,-1,1056,694,0,0
-161,330,0,0,0,0,0,0,0,0,0,-1,1063,694,0,0
-154,330,0,0,0,0,0,0,0,0,0,-1,1070,694,0,0
-147,330,0,0,0,0,0,0,0,0,0,-1,1077,694,0,0
-140,330,0,0,0,0,0,0,0,0,0,-1,1084,694,0,0
-133,330,0,0,0,0,0,0,0,0,0,-1,1091,694,0,0
-126,330,0,0,0,0,0,0,0,0,0,-1,1098,694,0,0
-119,330,0,0,0,0,0,0,0,0,0,-1,1105,694,0,0
-112,330,0,0,0,0,0,0,0,0,0,-1,1112,694,0,0
-105,330,0,0,0,0,0,0,0,0,0,-1,1119,694,0,0
-98,330,0,0,0,0,0,0,0,0,0,-1,1126,694,0,0
-91,330,0,0,0,0,0,0,0,0,0,-1,1133,694,0,0
-84,330,0,0,0,0,0,0,0,0,0,-1,1140,694,0,0
-77,330,0,0,0,0,0,0,0,0,0,-1,1147,694,0,0
-70,330,0,0,0,0,0,0,0,0,0,-1,1154,694,0,0
-63,330,0,0,0,0,0,0,0,0,0,-1,1161,694,0,0
-56,330,0,0,0,0,0,0,0,0,0,-1,1168,694,0,0
-49,330,0,0,0,0,0,0,0,0,0,-1,1175,694,0,0
-42,330,0,0,0,0,0,0,0,0,0,-1,1182,694,0,0
-35,330,0,0,0,0,0,0,0,0,0,-1,1189,694,0,0
-28,330,0,0,0,0,0,0,0,0,0,-1,1196,694,0,0
-21,330,0,0,0,0,0,0,0,0,0,-1,1203,694,0,0
-14,330,0,0,0,0,0,0,0,0,0,-1,1210,694,0,0
-7,330,0,0,0,0,0,0,0,0,0,-1,1217,694,0,0
0,330,0,0,0,0,0,0,0,0,0,-1,1224,694,0,0
7,330,0,0,0,0,0,0,0,0,0,-1,1231,694,0,0
14,330,0,0,0,0,0,0,0,0,0,-1,1238,694,0,0
21,330,0,0,0,0,0,0,0,0,0,-1,1245,694,0,0
28,330,0,0,0,0,0,0,0,0,0,-1,1252,694,0,0
35,330,0,0,0,0,0,0,0,0,0,-1,1259,694,0,0
42,330,0,0,0,0,0,0,0,0,0,-1,1266,694,0,0
49,330,0,0,0,0,0,0,0,0,0,-1,1273,694,0,0
56,330,0,0,0,0,0,0,0,0,0,-1,1280,694,0,0
63,330,0,0,0,0,0,0,0,0,0,-1,1287,694,0,0
70,330,0,0,0,0,0,0,0,0,0,-1,1294,694,0,0
77,330,0,0,0,0,0,0,0,0,0,-1,1301,694,0,0
84,330,0,0,0,0,0,0,0,0,0,-1,1308,694,0,0
91,330,0,0,0,0,0,0,0,0,0,-1,1315,694,0,0
98,330,0,0,0,0,0,0,0,0,0,-1,1322,694,0,0
105,330,0,0,0,0,0,0,0,0,0,-1,1329,694,0,0
112,330,0,0,0,0,0,0,0,0,0,-1,1336,694,0,0
119,330,0,0,0,0,0,0,0,0,0,-1,1343,694,0,0
126,330,0,0,0,0,0,0,0,0,0,-1,1350,694,0,0
133,330,0,0,0,0,0,0,0,0,0,-1,1357,694,0,0
140,330,0,0,0,0,0,0,0,0,0,-1,1364,694,0,0
147,330,0,0,0,0,0,0,0,0,0,-1,1371,694,0,0
154,330,0,0,0,0,0,0,0,0,0,-1,1378,694,0,0
161,330,0,0,0,0,0,0,0,0,0,-1,1385,694,0,0
168,330,0,0,0,0,0,0,0,0,0,-1,1392,694,0,0
175,330,0,0,0,0,0,0,0,0,0,-1,1399,694,0,0
182,330,0,0,0,0,0,0,0,0,0,-1,1406,694,0,0
189,330,0,0,0,0,0,0,0,0,0,-1,1413,694,0,0
196,330,0,0,0,0,0,0,0,0,0,-1,1420,694,0,0
203,330,0,0,0,0,0,0,0,0,0,-1,1427,694,0,0
210,330,0,0,0,0,0,0,0,0,0,-1,1434,694,0,0
217,330,0,0,0,0,0,0,0,0,0,-1,1441,694,0,0
224,330,0,0,0,0,0,0,0,0,0,-1,1448,694,0,0
231,330,0,0,0,0,0,0,0,0,0,-1,1455,694,0,0
238,330,0,0,0,0,0,0,0,0,0,-1,1462,694,0,0
245,330,0,0,0,0,0,0,0,0,0,-1,1469,694,0,0
252,330,0,0,0,0,0,0,0,0,0,-1,1476,694,0,0
259,330,0,0,0,0,0,0,0,0,0,-1,1483,694,0,0
266,330,0,0,0,0,0,0,0,0,0,-1,1490,694,0,0
273,330,0,0,0,0,0,0,0,0,0,-1,1497,694,0,0
280,330,0,0,0,0,0,0,0,0,0,-1,1504,694,0,0
287,330,0,0,0,0,0,0,0,0,0,-1,1511,694,0,0
294,330,0,0,0,0,0,0,0,0,0,-1,1518,694,0,0
301,330,0,0,0,0,0,0,0,0,0,-1,1525,694,0,0
308,330,0,0,0,0,0,0,0,0,0,-1,1532,694,0,0
315,330,0,0,0,0,0,0,0,0,0,-1,1539,694,0,0
322,330,0,0,0,0,0,0,0,0,0,-1,1546,694,0,0
329,330,0,0,0,0,0,0,0,0,0,-1,1553,694,0,0
336,330,0,0,0,0,0,0,0,0,0,-1,1560,694,0,0
343,330,0,0,0,0,0,0,0,0,0,-1,1567,694,0,0
350,330,0,0,0,0,0,0,0,0,0,-1,1574,694,0,0
357,330,0,0,0,0,0,0,0,0,0,-1,1581,694,0,0
364,330,0,0,0,0,0,0,0,0,0,-1,1588,694,0,0
371,330,0,0,0,0,0,0,0,0,0,-1,1595,694,0,0
378,330,0,0,0,0,0,0,0,0,0,-1,1602,694,0,0
385,330,0,0,0,0,0,0,0,0,0,-1,1609,694,0,0
392,330,0,0,0,0,0,0,0,0,0,-1,1616,694,0,0
399,330,0,0,0,0,0,0,0,0,0,-1,1623,694,0,0
406,330,0,0,0,0,0,0,0,0,0,-1,1630,694,0,0
413,330,0,0,0,0,0,0,0,0,0,-1,1637,694,0,0
420,330,0,0,0,0,0,0,0,0,0,-1,1644,694,0,0
427,330,0,0,0,0,0,0,0,0,0,-1,1651,694,0,0
434,330,0,0,0,0,0,0,0,0,0,-1,1658,694,0,0
441,330,0,0,0,0,0,0,0,0,0,-1,1665,694,0,0
448,330,0,0,0,0,0,0,0,0,0,-1,1672,694,0,0
455,330,0,0,0,0,0,0,0,0,0,-1,1679,694,0,0
462,330,0,0,0,0,0,0,0,0,0,-1,1686,694,0,0
469,330,0,0,0,0,0,0,0,0,0,-1,1693,694,0,0
476,330,0,0,0,0,0,0,0,0,0,-1,1700,694,0,0
483,330,0,0,0,0,0,0,0,0,0,-1,1707,694,0,0
490,330,0,0,0,0,0,0,0,0,0,-1,1714,694,0,0
497,330,0,0,0,0,0,0,0,0,0,-1,1721,694,0,0
504,330,0,0,0,0,0,0,0,0,0,-1,1728,694,0,0
511,330,0,0,0,0,0,0,0,0,0,-1,1735,694,0,0
518,330,0,0,0,0,0,0,0,0,0,-1,1742,694,0,0
525,330,30.6694,0.69519,0,0,0,0,0,0,0,-1,1749,694,30.6694,-0.695206
532,330,30.9469,1.32501,0,0,0,0,0,0,0,-1,1756,694,30.9469,-1.32501
539,330,31.5155,1.62506,0,0,0,0,0,0,0,-1,1763,694,31.5155,-1.62507
546,330,31.4187,1.85651,0,0,0,0,0,0,0,-1,1770,694,31.4187,-1.85651
553,330,31.8452,1.81476,0,0,0,0,0,0,0,-1,1777,694,31.8452,-1.81475
560,330,32.2401,2.43225,0,0,0,0,0,0,0,-1,1784,694,32.2401,-2.43227
567,330,18.0321,3.98578,0,0,0,0,0,0,0,-1,1791,694,18.0321,-3.98576
574,330,12.0454,2.1662,0,0,0,0,0,0,0,-1,1798,694,12.0455,-2.16618
581,330,11.4215,4.50836,0,0,0,0,0,0,0,-1,1805,694,11.4215,-4.50837
588,330,6.45667,-0.0630493,0,0,0,0,0,0,0,-1,1812,694,6.45661,0.0630695
595,330,8.23193,-0.258484,0,0,0,0,0,0,0,-1,1819,694,8.23188,0.258459
602,330,43.6171,-13.5952,0,0,0,0,0,0,0,-1,1826,694,43.6171,13.5952
609,330,43.6648,-12.5205,0.000477324,-0.00106227,0.000142112,0.000490332,-0.00107528,0.0912775,0.000924694,0.0272045,1833,694,43.6648,12.5205
616,330,43.65,-11.5235,0.000835037,-0.000880142,0.000267541,0.0008758,-0.000920905,0.1512,0.00103744,0.0117522,1840,694,43.65,11.5235
623,330,43.5776,-10.5407,0.000989436,-0.00057019,0.000290432,0.00104176,-0.000622518,0.178261,0.000970983,0.0135586,1847,694,43.5776,10.5407
630,330,43.522,-9.54022,0.0011961,-0.000178696,0.000398837,0.00130342,-0.000286022,0.262872,0.000978328,0.0151716,1854,694,43.5219,9.54019
637,330,43.4683,-8.54474,0.00138848,0.000285543,0.000534914,0.00160529,6.87337e-05,0.38508,0.00104803,0.0146772,1861,694,43.4683,8.54471
644,330,43.3811,-7.55969,0.00158256,0.000838045,0.000711913,0.00201367,0.000406938,0.544499,0.00122946,0.00924975,1868,694,43.3811,7.5597
651,330,43.3212,-6.55658,0.00181988,0.00147891,0.000940101,0.00260483,0.000693957,0.6957,0.00155764,0.0126127,1875,694,43.3211,6.55659
658,330,43.2438,-5.58881,0.00212568,0.00223321,0.00125029,0.00343089,0.000928002,0.806885,0.00204921,0.0133424,1882,694,43.2438,5.58878
665,330,43.1636,-4.60535,0.00265819,0.00314554,0.00168518,0.00460457,0.00119915,0.857199,0.0027583,0.0117051,1889,694,43.1636,4.60536
672,330,43.2292,-3.57104,0.00339534,0.00428891,0.0022021,0.00608909,0.00159516,0.885485,0.00364591,0.0399268,1896,694,43.2293,3.57102
679,330,43.4237,-2.46118,0,0,0,0,0,0,0,-1,1903,694,43.4236,2.46117
686,330,30.6691,0.582825,0,0,0,0,0,0,0,-1,1910,694,30.6691,-0.582798
693,330,17.3999,2.5976,0,0,0,0,0,0,0,-1,1917,694,17.4,-2.59759
700,330,17.1072,4.13,0,0,0,0,0,0,0,-1,1924,694,17.1071,-4.13002
707,330,16.663,4.88672,0,0,0,0,0,0,0,-1,1931,694,16.6629,-4.88673
714,330,16.5454,5.80896,0,0,0,0,0,0,0,-1,1938,694,16.5454,-5.80899
721,330,0,0,0,0,0,0,0,0,0,-1,1945,694,0,0
728,330,0,0,0,0,0,0,0,0,0,-1,1952,694,0,0
735,330,0,0,0,0,0,0,0,0,0,-1,1959,694,0,0
742,330,0,0,0,0,0,0,0,0,0,-1,1966,694,0,0
749,330,0,0,0,0,0,0,0,0,0,-1,1973,694,0,0
756,330,0,0,0,0,0,0,0,0,0,-1,1980,694,0,0
763,330,0,0,0,0,0,0,0,0,0,-1,1987,694,0,0
770,330,0,0,0,0,0,0,0,0,0,-1,1994,694,0,0
777,330,0,0,0,0,0,0,0,0,0,-1,2001,694,0,0
784,330,0,0,0,0,0,0,0,0,0,-1,2008,694,0,0
791,330,0,0,0,0,0,0,0,0,0,-1,2015,694,0,0
798,330,0,0,0,0,0,0,0,0,0,-1,2022,694,0,0
805,330,0,0,0,0,0,0,0,0,0,-1,2029,694,0,0
812,330,0,0,0,0,0,0,0,0,0,-1,2036,694,0,0
-700,323,0,0,0,0,0,0,0,0,0,-1,524,701,0,0
-693,323,0,0,0,0,0,0,0,0,0,-1,531,701,0,0
-686,323,0,0,0,0,0,0,0,0,0,-1,538,701,0,0
-679,323,0,0,0,0,0,0,0,0,0,-1,545,701,0,0
-672,323,0,0,0,0,0,0,0,0,0,-1,552,701,0,0
-665,323,0,0,0,0,0,0,0,0,0,-1,559,701,0,0
-658,323,0,0,0,0,0,0,0,0,0,-1,566,701,0,0
-651,323,0,0,0,0,0,0,0,0,0,-1,573,701,0,0
-644,323,0,0,0,0,0,0,0,0,0,-1,580,701,0,0
-637,323,0,0,0,0,0,0,0,0,0,-1,587,701,0,0
-630,323,0,0,0,0,0,0,0,0,0,-1,594,701,0,0
-623,323,0,0,0,0,0,0,0,0,0,-1,601,701,0,0
-616,323,0,0,0,0,0,0,0,0,0,-1,608,701,0,0
-609,323,0,0,0,0,0,0,0,0,0,-1,615,701,0,0
-602,323,-4.15833,2.12256,0,0,0,0,0,0,0,-1,622,701,-4.1583,-2.12257
-595,323,-4.052,1.79156,0,0,0,0,0,0,0,-1,629,701,-4.05198,-1.79158
-588,323,-4.07019,1.94543,0,0,0,0,0,0,0,-1,636,701,-4.07019,-1.94542
-581,323,-6.63727,0.562805,0,0,0,0,0,0,0,-1,643,701,-6.63728,-0.56279
-574,323,-6.15887,0.426697,0,0,0,0,0,0,0,-1,650,701,-6.15887,-0.426727
-567,323,-10.0015,0.0371094,0,0,0,0,0,0,0,-1,657,701,-10.0015,-0.037126
-560,323,-16.3503,-1.16956,0,0,0,0,0,0,0,-1,664,701,-16.3503,1.16957
-553,323,-28.1252,-2.85254,0,0,0,0,0,0,0,-1,671,701,-28.1252,2.85253
-546,323,-28.069,-3.66956,0,0,0,0,0,0,0,-1,678,701,-28.069,3.66958
-539,323,-28.0524,-4.54382,0.00298481,0.00413105,-0.00338447,0.00699058,0.000125274,-0.869271,0.0046192,0.0328844,685,701,-28.0524,4.54381
-532,323,-28.1737,-5.61694,0.00273934,0.00286443,-0.00257074,0.00537338,0.000230386,-0.797561,0.00350798,0.0135846,692,701,-28.1737,5.61694
-525,323,-28.259,-6.65607,0.00235856,0.00178996,-0.00177301,0.00386992,0.0002786,-0.7059,0.00249227,0.00902345,699,701,-28.259,6.65605
-518,323,-28.3156,-7.62579,0.00196155,0.000901122,-0.00102911,0.002589,0.000273673,-0.547524,0.00164239,0.0104374,706,701,-28.3156,7.62581
-511,323,-28.3959,-8.61597,0.00151922,0.000181523,-0.000386654,0.00162294,7.7805e-05,-0.262077,0.00105698,0.0139779,713,701,-28.3959,8.61598
-504,323,-28.4795,-9.58911,0.00104073,-0.000395285,0.000213881,0.00107191,-0.000426464,0.144756,0.000891437,0.0156443,720,701,-28.4795,9.58909
-497,323,-28.528,-10.5735,0.000665071,-0.000782772,0.000687898,0.000939781,-0.00105748,0.379944,0.00115379,0.0135022,727,701,-28.5279,10.5735
-490,323,-28.5734,-11.5833,0.000503181,-0.000972298,0.000968905,0.000983241,-0.00145236,0.460015,0.00141486,0.0156495,734,701,-28.5734,11.5833
-483,323,-28.6129,-12.5983,0.000420876,-0.000880837,0.0010879,0.00103775,-0.00149771,0.515826,0.00147186,0.0347391,741,701,-28.6129,12.5982
-476,323,-28.6892,-13.5999,0,0,0,0,0,0,0,-1,748,701,-28.6892,13.5999
-469,323,-8.33301,-3.64001,0,0,0,0,0,0,0,-1,755,701,-8.33298,3.64
-462,323,-5.29431,-1.45697,0,0,0,0,0,0,0,-1,762,701,-5.29431,1.45699
-455,323,-5.0658,-1.36639,0,0,0,0,0,0,0,-1,769,701,-5.06578,1.3664
-448,323,-4.91608,-1.59601,0,0,0,0,0,0,0,-1,776,701,-4.91606,1.59604
-441,323,-14.4006,0.535217,0,0,0,0,0,0,0,-1,783,701,-14.4006,-0.535203
-434,323,-15.3158,2.479,0,0,0,0,0,0,0,-1,790,701,-15.3158,-2.47898
-427,323,-28.3923,1.16797,0,0,0,0,0,0,0,-1,797,701,-28.3923,-1.16796
-420,323,-28.7292,1.09302,0,0,0,0,0,0,0,-1,804,701,-28.7292,-1.09304
-413,323,-28.7955,1.22418,0,0,0,0,0,0,0,-1,811,701,-28.7956,-1.22419
-406,323,0,0,0,0,0,0,0,0,0,-1,818,701,0,0
-399,323,0,0,0,0,0,0,0,0,0,-1,825,701,0,0
-392,323,0,0,0,0,0,0,0,0,0,-1,832,701,0,0
-385,323,0,0,0,0,0,0,0,0,0,-1,839,701,0,0
-378,323,0,0,0,0,0,0,0,0,0,-1,846,701,0,0
-371,323,0,0,0,0,0,0,0,0,0,-1,853,701,0,0
-364,323,0,0,0,0,0,0,0,0,0,-1,860,701,0,0
-357,323,0,0,0,0,0,0,0,0,0,-1,867,701,0,0
-350,323,0,0,0,0,0,0,0,0,0,-1,874,701,0,0
-343,323,0,0,0,0,0,0,0,0,0,-1,881,701,0,0
-336,323,0,0,0,0,0,0,0,0,0,-1,888,701,0,0
-329,323,0,0,0,0,0,0,0,0,0,-1,895,701,0,0
-322,323,0,0,0,0,0,0,0,0,0,-1,902,701,0,0
-315,323,0,0,0,0,0,0,0,0,0,-1,909,701,0,0
-308,323,0,0,0,0,0,0,0,0,0,-1,916,701,0,0
-301,323,0,0,0,0,0,0,0,0,0,-1,923,701,0,0
-294,323,0,0,0,0,0,0,0,0,0,-1,930,701,0,0
-287,323,0,0,0,0,0,0,0,0,0,-1,937,701,0,0
-280,323,0,0,0,0,0,0,0,0,0,-1,944,701,0,0
-273,323,0,0,0,0,0,0,0,0,0,-1,951,701,0,0
-266,323,0,0,0,0,0,0,0,0,0,-1,958,701,0,0
-259,323,0,0,0,0,0,0,0,0,0,-1,965,701,0,0
-252,323,0,0,0,0,0,0,0,0,0,-1,972,701,0,0
-245,323,0,0,0,0,0,0,0,0,0,-1,979,701,0,0
-238,323,0,0,0,0,0,0,0,0,0,-1,986,701,0,0
-231,323,0,0,0,0,0,0,0,0,0,-1,993,701,0,0
-224,323,0,0,0,0,0,0,0,0,0,-1,1000,701,0,0
-217,323,0,0,0,0,0,0,0,0,0,-1,1007,701,0,0
-210,323,0,0,0,0,0,0,0,0,0,-1,1014,701,0,0
-203,323,0,0,0,0,0,0,0,0,0,-1,1021,701,0,0
-196,323,0,0,0,0,0,0,0,0,0,-1,1028,701,0,0
-189,323,0,0,0,0,0,0,0,0,0,-1,1035,701,0,0
-182,323,0,0,0,0,0,0,0,0,0,-1,1042,701,0,0
-175,323,0,0,0,0,0,0,0,0,0,-1,1049,701,0,0
-168,323,0,0,0,0,0,0,0,0,0,-1,1056,701,0,0
-161,323,0,0,0,0,0,0,0,0,0,-1,1063,701,0,0
-154,323,0,0,0,0,0,0,0,0,0,-1,1070,701,0,0
-147,323,0,0,0,0,0,0,0,0,0,-1,1077,701,0,0
-140,323,0,0,0,0,0,0,0,0,0,-1,1084,701,0,0
-133,323,0,0,0,0,0,0,0,0,0,-1,1091,701,0,0
-126,323,0,0,0,0,0,0,0,0,0,-1,1098,701,0,0
-119,323,0,0,0,0,0,0,0,0,0,-1,1105,701,0,0
-112,323,0,0,0,0,0,0,0,0,0,-1,1112,701,0,0
-105,323,0,0,0,0,0,0,0,0,0,-1,1119,701,0,0
-98,323,0,0,0,0,0,0,0,0,0,-1,1126,701,0,0
-91,323,0,0,0,0,0,0,0,0,0,-1,1133,701,0,0
-84,323,0,0,0,0,0,0,0,0,0,-1,1140,701,0,0
-77,323,0,0,0,0,0,0,0,0,0,-1,1147,701,0,0
-70,323,0,0,0,0,0,0,0,0,0,-1,1154,701,0,0
-63,323,0,0,0,0,0,0,0,0,0,-1,1161,701,0,0
-56,323,0,0,0,0,0,0,0,0,0,-1,1168,701,0,0
-49,323,0,0,0,0,0,0,0,0,0,-1,1175,701,0,0
-42,323,0,0,0,0,0,0,0,0,0,-1,1182,701,0,0
-35,323,0,0,0,0,0,0,0,0,0,-1,1189,701,0,0
-28,323,0,0,0,0,0,0,0,0,0,-1,1196,701,0,0
-21,323,0,0,0,0,0,0,0,0,0,-1,1203,701,0,0
-14,323,0,0,0,0,0,0,0,0,0,-1,1210,701,0,0
-7,323,0,0,0,0,0,0,0,0,0,-1,1217,701,0,0
0,323,0,0,0,0,0,0,0,0,0,-1,1224,701,0,0
7,323,0,0,0,0,0,0,0,0,0,-1,1231,701,0,0
14,323,0,0,0,0,0,0,0,0,0,-1,1238,701,0,0
21,323,0,0,0,0,0,0,0,0,0,-1,1245,701,0,0
28,323,0,0,0,0,0,0,0,0,0,-1,1252,701,0,0
35,323,0,0,0,0,0,0,0,0,0,-1,1259,701,0,0
42,323,0,0,0,0,0,0,0,0,0,-1,1266,701,0,0
49,323,0,0,0,0,0,0,0,0,0,-1,1273,701,0,0
56,323,0,0,0,0,0,0,0,0,0,-1,1280,701,0,0
63,323,0,0,0,0,0,0,0,0,0,-1,1287,701,0,0
70,323,0,0,0,0,0,0,0,0,0,-1,1294,701,0,0
77,323,0,0,0,0,0,0,0,0,0,-1,1301,701,0,0
84,323,0,0,0,0,0,0,0,0,0,-1,1308,701,0,0
91,323,0,0,0,0,0,0,0,0,0,-1,1315,701,0,0
98,323,0,0,0,0,0,0,0,0,0,-1,1322,701,0,0
105,323,0,0,0,0,0,0,0,0,0,-1,1329,701,0,0
112,323,0,0,0,0,0,0,0,0,0,-1,1336,701,0,0
119,323,0,0,0,0,0,0,0,0,0,-1,1343,701,0,0
126,323,0,0,0,0,0,0,0,0,0,-1,1350,701,0,0
133,323,0,0,0,0,0,0,0,0,0,-1,1357,701,0,0
140,323,0,0,0,0,0,0,0,0,0,-1,1364,701,0,0
147,323,0,0,0,0,0,0,0,0,0,-1,1371,701,0,0
154,323,0,0,0,0,0,0,0,0,0,-1,1378,701,0,0
161,323,0,0,0,0,0,0,0,0,0,-1,1385,701,0,0
168,323,0,0,0,0,0,0,0,0,0,-1,1392,701,0,0
175,323,0,0,0,0,0,0,0,0,0,-1,1399,701,0,0
182,323,0,0,0,0,0,0,0,0,0,-1,1406,701,0,0
189,323,0,0,0,0,0,0,0,0,0,-1,1413,701,0,0
196,323,0,0,0,0,0,0,0,0,0,-1,1420,701,0,0
203,323,0,0,0,0,0,0,0,0,0,-1,1427,701,0,0
210,323,0,0,0,0,0,0,0,0,0,-1,1434,701,0,0
217,323,0,0,0,0,0,0,0,0,0,-1,1441,701,0,0
224,323,0,0,0,0,0,0,0,0,0,-1,1448,701,0,0
231,323,0,0,0,0,0,0,0,0,0,-1,1455,701,0,0
238,323,0,0,0,0,0,0,0,0,0,-1,1462,701,0,0
245,323,0,0,0,0,0,0,0,0,0,-1,1469,701,0,0
252,323,0,0,0,0,0,0,0,0,0,-1,1476,701,0,0
259,323,0,0,0,0,0,0,0,0,0,-1,1483,701,0,0
266,323,0,0,0,0,0,0,0,0,0,-1,1490,701,0,0
273,323,0,0,0,0,0,0,0,0,0,-1,1497,701,0,0
280,323,0,0,0,0,0,0,0,0,0,-1,1504,701,0,0
287,323,0,0,0,0,0,0,0,0,0,-1,1511,701,0,0
294,323,0,0,0,0,0,0,0,0,0,-1,1518,701,0,0
301,323,0,0,0,0,0,0,0,0,0,-1,1525,701,0,0
308,323,0,0,0,0,0,0,0,0,0,-1,1532,701,0,0
315,323,0,0,0,0,0,0,0,0,0,-1,1539,701,0,0
322,323,0,0,0,0,0,0,0,0,0,-1,1546,701,0,0
329,323,0,0,0,0,0,0,0,0,0,-1,1553,701,0,0
336,323,0,0,0,0,0,0,0,0,0,-1,1560,701,0,0
343,323,0,0,0,0,0,0,0,0,0,-1,1567,701,0,0
350,323,0,0,0,0,0,0,0,0,0,-1,1574,701,0,0
357,323,0,0,0,0,0,0,0,0,0,-1,1581,701,0,0
364,323,0,0,0,0,0,0,0,0,0,-1,1588,701,0,0
371,323,0,0,0,0,0,0,0,0,0,-1,1595,701,0,0
378,323,0,0,0,0,0,0,0,0,0,-1,1602,701,0,0
385,323,0,0,0,0,0,0,0,0,0,-1,1609,701,0,0
392,323,0,0,0,0,0,0,0,0,0,-1,1616,701,0,0
399,323,0,0,0,0,0,0,0,0,0,-1,1623,701,0,0
406,323,0,0,0,0,0,0,0,0,0,-1,1630,701,0,0
413,323,0,0,0,0,0,0,0,0,0,-1,1637,701,0,0
420,323,0,0,0,0,0,0,0,0,0,-1,1644,701,0,0
427,323,0,0,0,0,0,0,0,0,0,-1,1651,701,0,0
434,323,0,0,0,0,0,0,0,0,0,-1,1658,701,0,0
441,323,0,0,0,0,0,0,0,0,0,-1,1665,701,0,0
448,323,0,0,0,0,0,0,0,0,0,-1,1672,701,0,0
455,323,0,0,0,0,0,0,0,0,0,-1,1679,701,0,0
462,323,0,0,0,0,0,0,0,0,0,-1,1686,701,0,0
469,323,0,0,0,0,0,0,0,0,0,-1,1693,701,0,0
476,323,0,0,0,0,0,0,0,0,0,-1,1700,701,0,0
483,323,0,0,0,0,0,0,0,0,0,-1,1707,701,0,0
490,323,0,0,0,0,0,0,0,0,0,-1,1714,701,0,0
497,323,0,0,0,0,0,0,0,0,0,-1,1721,701,0,0
504,323,0,0,0,0,0,0,0,0,0,-1,1728,701,0,0
511,323,0,0,0,0,0,0,0,0,0,-1,1735,701,0,0
518,323,0,0,0,0,0,0,0,0,0,-1,1742,701,0,0
525,323,0,0,0,0,0,0,0,0,0,-1,1749,701,0,0
532,323,33.6193,1.69446,0,0,0,0,0,0,0,-1,1756,701,33.6193,-1.69444
539,323,32.2698,2.44037,0,0,0,0,0,0,0,-1,1763,701,32.2697,-2.44036
546,323,31.1644,3.9444,0,0,0,0,0,0,0,-1,1770,701,31.1644,-3.94438
553,323,30.2488,5.8775,0,0,0,0,0,0,0,-1,1777,701,30.2487,-5.87752
560,323,40.6711,1.25153,0,0,0,0,0,0,0,-1,1784,701,40.6711,-1.25154
567,323,42.1637,2.01208,0,0,0,0,0,0,0,-1,1791,701,42.1637,-2.01207
574,323,12.514,5.89685,0,0,0,0,0,0,0,-1,1798,701,12.5141,-5.89683
581,323,11.821,5.3476,0,0,0,0,0,0,0,-1,1805,701,11.821,-5.34762
588,323,11.7933,7.00818,0,0,0,0,0,0,0,-1,1812,701,11.7933,-7.00819
595,323,6.67847,0.06604,0,0,0,0,0,0,0,-1,1819,701,6.67841,-0.0660418
602,323,44.4564,-13.489,0,0,0,0,0,0,0,-1,1826,701,44.4565,13.4889
609,323,44.6038,-12.4558,0.00108241,-0.000978399,0.000481854,0.00118951,-0.0010855,0.218712,0.00131393,0.0400328,1833,701,44.6038,12.4558
616,323,44.6317,-11.4556,0.00135032,-0.000911277,0.000540199,0.00147272,-0.00103368,0.22283,0.00145446,0.0135619,1840,701,44.6317,11.4556
623,323,44.5621,-10.4672,0.00132919,-0.000666733,0.00045636,0.00142858,-0.000766128,0.214451,0.00128621,0.0134046,1847,701,44.5621,10.4672
630,323,44.4978,-9.46777,0.00142764,-0.00035781,0.000483712,0.00155026,-0.000480435,0.248278,0.00122546,0.015683,1854,701,44.4977,9.4678
637,323,44.4534,-8.48041,0.00151781,4.59995e-05,0.000559911,0.00170659,-0.000142788,0.325204,0.00118819,0.0131748,1861,701,44.4534,8.48042
644,323,44.3822,-7.50494,0.00162448,0.000547104,0.000696349,0.00196618,0.000205402,0.456185,0.00124797,0.00961284,1868,701,44.3822,7.50495
651,323,44.3468,-6.49286,0.00178677,0.00113026,0.000892799,0.00240975,0.000507286,0.609234,0.00146694,0.0139089,1875,701,44.3468,6.49284
658,323,44.2133,-5.4884,0.00204139,0.00182756,0.00117865,0.00311796,0.000750992,0.740167,0.00187902,0.0238699,1882,701,44.2133,5.48838
665,323,44.0909,-4.52081,0.00247912,0.00266059,0.00159149,0.00416393,0.000975787,0.813873,0.00251461,0.0187631,1889,701,44.091,4.52081
672,323,44.1285,-3.47064,0.00310182,0.00368564,0.00211761,0.00553137,0.00125609,0.85389,0.00334836,0.0230508,1896,701,44.1285,3.47065
679,323,44.2111,-2.31024,0,0,0,0,0,0,0,-1,1903,701,44.2111,2.31023
686,323,30.4916,0.378235,0,0,0,0,0,0,0,-1,1910,701,30.4916,-0.37825
693,323,23.8806,1.08844,0,0,0,0,0,0,0,-1,1917,701,23.8806,-1.08845
700,323,10.7705,0.828613,0,0,0,0,0,0,0,-1,1924,701,10.7705,-0.828591
707,323,16.9005,4.79193,0,0,0,0,0,0,0,-1,1931,701,16.9005,-4.7919
714,323,16.2346,6.25958,0,0,0,0,0,0,0,-1,1938,701,16.2346,-6.25956
721,323,0,0,0,0,0,0,0,0,0,-1,1945,701,0,0
728,323,0,0,0,0,0,0,0,0,0,-1,1952,701,0,0
735,323,0,0,0,0,0,0,0,0,0,-1,1959,701,0,0
742,323,0,0,0,0,0,0,0,0,0,-1,1966,701,0,0
749,323,0,0,0,0,0,0,0,0,0,-1,1973,701,0,0
756,323,0,0,0,0,0,0,0,0,0,-1,1980,701,0,0
763,323,0,0,0,0,0,0,0,0,0,-1,1987,701,0,0
770,323,0,0,0,0,0,0,0,0,0,-1,1994,701,0,0
777,323,0,0,0,0,0,0,0,0,0,-1,2001,701,0,0
784,323,0,0,0,0,0,0,0,0,0,-1,2008,701,0,0
791,323,0,0,0,0,0,0,0,0,0,-1,2015,701,0,0
798,323,0,0,0,0,0,0,0,0,0,-1,2022,701,0,0
805,323,0,0,0,0,0,0,0,0,0,-1,2029,701,0,0
812,323,0,0,0,0,0,0,0,0,0,-1,2036,701,0,0
-700,316,0,0,0,0,0,0,0,0,0,-1,524,708,0,0
-693,316,0,0,0,0,0,0,0,0,0,-1,531,708,0,0
-686,316,0,0,0,0,0,0,0,0,0,-1,538,708,0,0
-679,316,0,0,0,0,0,0,0,0,0,-1,545,708,0,0
-672,316,0,0,0,0,0,0,0,0,0,-1,552,708,0,0
-665,316,0,0,0,0,0,0,0,0,0,-1,559,708,0,0
-658,316,0,0,0,0,0,0,0,0,0,-1,566,708,0,0
-651,316,0,0,0,0,0,0,0,0,0,-1,573,708,0,0
-644,316,0,0,0,0,0,0,0,0,0,-1,580,708,0,0
-637,316,0,0,0,0,0,0,0,0,0,-1,587,708,0,0
-630,316,0,0,0,0,0,0,0,0,0,-1,594,708,0,0
-623,316,0,0,0,0,0,0,0,0,0,-1,601,708,0,0
-616,316,0,0,0,0,0,0,0,0,0,-1,608,708,0,0
-609,316,0,0,0,0,0,0,0,0,0,-1,615,708,0,0
-602,316,-0.451782,-0.0494995,0,0,0,0,0,0,0,-1,622,708,-0.451768,0.0495022
-595,316,-3.3761,2.17188,0,0,0,0,0,0,0,-1,629,708,-3.37609,-2.17189
-588,316,-5.00177,2.60675,0,0,0,0,0,0,0,-1,636,708,-5.00175,-2.60676
-581,316,-3.94653,0.393433,0,0,0,0,0,0,0,-1,643,708,-3.94655,-0.39342
-574,316,-9.67395,1.06067,0,0,0,0,0,0,0,-1,650,708,-9.67396,-1.06065
-567,316,-10.1962,0.448425,0,0,0,0,0,0,0,-1,657,708,-10.1962,-0.448411
-560,316,-18.9941,-1.75067,0,0,0,0,0,0,0,-1,664,708,-18.9941,1.75068
-553,316,-25.6896,-2.78827,0,0,0,0,0,0,0,-1,671,708,-25.6896,2.78827
-546,316,-29.3875,-3.46436,0,0,0,0,0,0,0,-1,678,708,-29.3875,3.46437
-539,316,-29.0633,-4.55298,0.00214055,0.00357313,-0.00262486,0.00557768,0.000135995,-0.918598,0.00367396,0.0160258,685,708,-29.0633,4.55298
-532,316,-29.1524,-5.55151,0.00209355,0.00241405,-0.00199802,0.00425824,0.000249361,-0.825414,0.00275946,0.0125164,692,708,-29.1524,5.55149
-525,316,-29.2285,-6.5282,0.00183821,0.00137417,-0.0013439,0.00296997,0.000242412,-0.699916,0.00190433,0.0109941,699,708,-29.2285,6.52821
-518,316,-29.2732,-7.52661,0.00153394,0.000568455,-0.000688372,0.00189197,0.000210426,-0.479606,0.00119735,0.011222,706,708,-29.2732,7.52662
-511,316,-29.3577,-8.54053,0.00110755,-0.000128023,-7.5152e-05,0.0011121,-0.000132578,-0.0605262,0.000789316,0.0120655,713,708,-29.3577,8.5405
-504,316,-29.4346,-9.53485,0.000588023,-0.00072403,0.000549981,0.000788063,-0.00092407,0.348846,0.000989539,0.0152958,720,708,-29.4346,9.53485
-497,316,-29.4902,-10.4906,0.000163579,-0.00114833,0.00107382,0.000765941,-0.00175069,0.511214,0.00148959,0.014089,727,708,-29.4902,10.4906
-490,316,-29.5754,-11.4868,3.38777e-06,-0.00140286,0.00141634,0.000881535,-0.002281,0.555003,0.00188454,0.0202254,734,708,-29.5754,11.4868
-483,316,-29.585,-12.5333,0,0,0,0,0,0,0,-1,741,708,-29.585,12.5333
-476,316,-8.90894,-3.31207,0,0,0,0,0,0,0,-1,748,708,-8.90896,3.31206
-469,316,-6.24194,-1.42725,0,0,0,0,0,0,0,-1,755,708,-6.24192,1.42725
-462,316,-5.74237,-1.40039,0,0,0,0,0,0,0,-1,762,708,-5.74238,1.40039
-455,316,-5.44745,-1.21899,0,0,0,0,0,0,0,-1,769,708,-5.44746,1.21898
-448,316,-14.8945,0.655396,0,0,0,0,0,0,0,-1,776,708,-14.8946,-0.655396
-441,316,-14.9626,0.576111,0,0,0,0,0,0,0,-1,783,708,-14.9626,-0.576115
-434,316,-27.7723,1.15576,0,0,0,0,0,0,0,-1,790,708,-27.7723,-1.15579
-427,316,-28.0504,1.31427,0,0,0,0,0,0,0,-1,797,708,-28.0504,-1.31427
-420,316,-28.198,1.62891,0,0,0,0,0,0,0,-1,804,708,-28.198,-1.62889
-413,316,0,0,0,0,0,0,0,0,0,-1,811,708,0,0
-406,316,0,0,0,0,0,0,0,0,0,-1,818,708,0,0
-399,316,0,0,0,0,0,0,0,0,0,-1,825,708,0,0
-392,316,0,0,0,0,0,0,0,0,0,-1,832,708,0,0
-385,316,0,0,0,0,0,0,0,0,0,-1,839,708,0,0
-378,316,0,0,0,0,0,0,0,0,0,-1,846,708,0,0
-371,316,0,0,0,0,0,0,0,0,0,-1,853,708,0,0
-364,316,0,0,0,0,0,0,0,0,0,-1,860,708,0,0
-357,316,0,0,0,0,0,0,0,0,0,-1,867,708,0,0
-350,316,0,0,0,0,0,0,0,0,0,-1,874,708,0,0
-343,316,0,0,0,0,0,0,0,0,0,-1,881,708,0,0
-336,316,0,0,0,0,0,0,0,0,0,-1,888,708,0,0
-329,316,0,0,0,0,0,0,0,0,0,-1,895,708,0,0
-322,316,0,0,0,0,0,0,0,0,0,-1,902,708,0,0
-315,316,0,0,0,0,0,0,0,0,0,-1,909,708,0,0
-308,316,0,0,0,0,0,0,0,0,0,-1,916,708,0,0
-301,316,0,0,0,0,0,0,0,0,0,-1,923,708,0,0
-294,316,0,0,0,0,0,0,0,0,0,-1,930,708,0,0
-287,316,0,0,0,0,0,0,0,0,0,-1,937,708,0,0
-280,316,0,0,0,0,0,0,0,0,0,-1,944,708,0,0
-273,316,0,0,0,0,0,0,0,0,0,-1,951,708,0,0
-266,316,0,0,0,0,0,0,0,0,0,-1,958,708,0,0
-259,316,0,0,0,0,0,0,0,0,0,-1,965,708,0,0
-252,316,0,0,0,0,0,0,0,0,0,-1,972,708,0,0
-245,316,0,0,0,0,0,0,0,0,0,-1,979,708,0,0
-238,316,0,0,0,0,0,0,0,0,0,-1,986,708,0,0
-231,316,0,0,0,0,0,0,0,0,0,-1,993,708,0,0
-224,316,0,0,0,0,0,0,0,0,0,-1,1000,708,0,0
-217,316,0,0,0,0,0,0,0,0,0,-1,1007,708,0,0
-210,316,0,0,0,0,0,0,0,0,0,-1,1014,708,0,0
-203,316,0,0,0,0,0,0,0,0,0,-1,1021,708,0,0
-196,316,0,0,0,0,0,0,0,0,0,-1,1028,708,0,0
-189,316,0,0,0,0,0,0,0,0,0,-1,1035,708,0,0
-182,316,0,0,0,0,0,0,0,0,0,-1,1042,708,0,0
-175,316,0,0,0,0,0,0,0,0,0,-1,1049,708,0,0
-168,316,0,0,0,0,0,0,0,0,0,-1,1056,708,0,0
-161,316,0,0,0,0,0,0,0,0,0,-1,1063,708,0,0
-154,316,0,0,0,0,0,0,0,0,0,-1,1070,708,0,0
-147,316,0,0,0,0,0,0,0,0,0,-1,1077,708,0,0
-140,316,0,0,0,0,0,0,0,0,0,-1,1084,708,0,0
-133,316,0,0,0,0,0,0,0,0,0,-1,1091,708,0,0
-126,316,0,0,0,0,0,0,0,0,0,-1,1098,708,0,0
-119,316,0,0,0,0,0,0,0,0,0,-1,1105,708,0,0
-112,316,0,0,0,0,0,0,0,0,0,-1,1112,708,0,0
-105,316,0,0,0,0,0,0,0,0,0,-1,1119,708,0,0
-98,316,0,0,0,0,0,0,0,0,0,-1,1126,708,0,0
-91,316,0,0,0,0,0,0,0,0,0,-1,1133,708,0,0
-84,316,0,0,0,0,0,0,0,0,0,-1,1140,708,0,0
-77,316,0,0,0,0,0,0,0,0,0,-1,1147,708,0,0
-70,316,0,0,0,0,0,0,0,0,0,-1,1154,708,0,0
-63,316,0,0,0,0,0,0,0,0,0,-1,1161,708,0,0
-56,316,0,0,0,0,0,0,0,0,0,-1,1168,708,0,0
-49,316,0,0,0,0,0,0,0,0,0,-1,1175,708,0,0
-42,316,0,0,0,0,0,0,0,0,0,-1,1182,708,0,0
-35,316,0,0,0,0,0,0,0,0,0,-1,1189,708,0,0
-28,316,0,0,0,0,0,0,0,0,0,-1,1196,708,0,0
-21,316,0,0,0,0,0,0,0,0,0,-1,1203,708,0,0
-14,316,0,0,0,0,0,0,0,0,0,-1,1210,708,0,0
-7,316,0,0,0,0,0,0,0,0,0,-1,1217,708,0,0
0,316,0,0,0,0,0,0,0,0,0,-1,1224,708,0,0
7,316,0,0,0,0,0,0,0,0,0,-1,1231,708,0,0
14,316,0,0,0,0,0,0,0,0,0,-1,1238,708,0,0
21,316,0,0,0,0,0,0,0,0,0,-1,1245,708,0,0
28,316,0,0,0,0,0,0,0,0,0,-1,1252,708,0,0
35,316,0,0,0,0,0,0,0,0,0,-1,1259,708,0,0
42,316,0,0,0,0,0,0,0,0,0,-1,1266,708,0,0
49,316,0,0,0,0,0,0,0,0,0,-1,1273,708,0,0
56,316,0,0,0,0,0,0,0,0,0,-1,1280,708,0,0
63,316,0,0,0,0,0,0,0,0,0,-1,1287,708,0,0
70,316,0,0,0,0,0,0,0,0,0,-1,1294,708,0,0
77,316,0,0,0,0,0,0,0,0,0,-1,1301,708,0,0
84,316,0,0,0,0,0,0,0,0,0,-1,1308,708,0,0
91,316,0,0,0,0,0,0,0,0,0,-1,1315,708,0,0
98,316,0,0,0,0,0,0,0,0,0,-1,1322,708,0,0
105,316,0,0,0,0,0,0,0,0,0,-1,1329,708,0,0
112,316,0,0,0,0,0,0,0,0,0,-1,1336,708,0,0
119,316,0,0,0,0,0,0,0,0,0,-1,1343,708,0,0
126,316,0,0,0,0,0,0,0,0,0,-1,1350,708,0,0
133,316,0,0,0,0,0,0,0,0,0,-1,1357,708,0,0
140,316,0,0,0,0,0,0,0,0,0,-1,1364,708,0,0
147,316,0,0,0,0,0,0,0,0,0,-1,1371,708,0,0
154,316,0,0,0,0,0,0,0,0,0,-1,1378,708,0,0
161,316,0,0,0,0,0,0,0,0,0,-1,1385,708,0,0
168,316,0,0,0,0,0,0,0,0,0,-1,1392,708,0,0
175,316,0,0,0,0,0,0,0,0,0,-1,1399,708,0,0
182,316,0,0,0,0,0,0,0,0,0,-1,1406,708,0,0
189,316,0,0,0,0,0,0,0,0,0,-1,1413,708,0,0
196,316,0,0,0,0,0,0,0,0,0,-1,1420,708,0,0
203,316,0,0,0,0,0,0,0,0,0,-1,1427,708,0,0
210,316,0,0,0,0,0,0,0,0,0,-1,1434,708,0,0
217,316,0,0,0,0,0,0,0,0,0,-1,1441,708,0,0
224,316,0,0,0,0,0,0,0,0,0,-1,1448,708,0,0
231,316,0,0,0,0,0,0,0,0,0,-1,1455,708,0,0
238,316,0,0,0,0,0,0,0,0,0,-1,1462,708,0,0
245,316,0,0,0,0,0,0,0,0,0,-1,1469,708,0,0
252,316,0,0,0,0,0,0,0,0,0,-1,1476,708,0,0
259,316,0,0,0,0,0,0,0,0,0,-1,1483,708,0,0
266,316,0,0,0,0,0,0,0,0,0,-1,1490,708,0,0
273,316,0,0,0,0,0,0,0,0,0,-1,1497,708,0,0
280,316,0,0,0,0,0,0,0,0,0,-1,1504,708,0,0
287,316,0,0,0,0,0,0,0,0,0,-1,1511,708,0,0
294,316,0,0,0,0,0,0,0,0,0,-1,1518,708,0,0
301,316,0,0,0,0,0,0,0,0,0,-1,1525,708,0,0
308,316,0,0,0,0,0,0,0,0,0,-1,1532,708,0,0
315,316,0,0,0,0,0,0,0,0,0,-1,1539,708,0,0
322,316,0,0,0,0,0,0,0,0,0,-1,1546,708,0,0
329,316,0,0,0,0,0,0,0,0,0,-1,1553,708,0,0
336,316,0,0,0,0,0,0,0,0,0,-1,1560,708,0,0
343,316,0,0,0,0,0,0,0,0,0,-1,1567,708,0,0
350,316,0,0,0,0,0,0,0,0,0,-1,1574,708,0,0
357,316,0,0,0,0,0,0,0,0,0,-1,1581,708,0,0
364,316,0,0,0,0,0,0,0,0,0,-1,1588,708,0,0
371,316,0,0,0,0,0,0,0,0,0,-1,1595,708,0,0
378,316,0,0,0,0,0,0,0,0,0,-1,1602,708,0,0
385,316,0,0,0,0,0,0,0,0,0,-1,1609,708,0,0
392,316,0,0,0,0,0,0,0,0,0,-1,1616,708,0,0
399,316,0,0,0,0,0,0,0,0,0,-1,1623,708,0,0
406,316,0,0,0,0,0,0,0,0,0,-1,1630,708,0,0
413,316,0,0,0,0,0,0,0,0,0,-1,1637,708,0,0
420,316,0,0,0,0,0,0,0,0,0,-1,1644,708,0,0
427,316,0,0,0,0,0,0,0,0,0,-1,1651,708,0,0
434,316,0,0,0,0,0,0,0,0,0,-1,1658,708,0,0
441,316,0,0,0,0,0,0,0,0,0,-1,1665,708,0,0
448,316,0,0,0,0,0,0,0,0,0,-1,1672,708,0,0
455,316,0,0,0,0,0,0,0,0,0,-1,1679,708,0,0
462,316,0,0,0,0,0,0,0,0,0,-1,1686,708,0,0
469,316,0,0,0,0,0,0,0,0,0,-1,1693,708,0,0
476,316,0,0,0,0,0,0,0,0,0,-1,1700,708,0,0
483,316,0,0,0,0,0,0,0,0,0,-1,1707,708,0,0
490,316,0,0,0,0,0,0,0,0,0,-1,1714,708,0,0
497,316,0,0,0,0,0,0,0,0,0,-1,1721,708,0,0
504,316,0,0,0,0,0,0,0,0,0,-1,1728,708,0,0
511,316,0,0,0,0,0,0,0,0,0,-1,1735,708,0,0
518,316,0,0,0,0,0,0,0,0,0,-1,1742,708,0,0
525,316,0,0,0,0,0,0,0,0,0,-1,1749,708,0,0
532,316,33.8604,0.531128,0,0,0,0,0,0,0,-1,1756,708,33.8604,-0.531151
539,316,44.4543,2.73468,0,0,0,0,0,0,0,-1,1763,708,44.4543,-2.7347
546,316,44.713,3.35498,0,0,0,0,0,0,0,-1,1770,708,44.7131,-3.35501
553,316,39.9031,6.57275,0,0,0,0,0,0,0,-1,1777,708,39.9031,-6.57274
560,316,39.1196,1.10046,0,0,0,0,0,0,0,-1,1784,708,39.1197,-1.10048
567,316,47.3683,6.04919,0,0,0,0,0,0,0,-1,1791,708,47.3683,-6.04918
574,316,45.9872,6.7655,0,0,0,0,0,0,0,-1,1798,708,45.9871,-6.76552
581,316,24.6815,7.77496,0,0,0,0,0,0,0,-1,1805,708,24.6815,-7.77499
588,316,19.7659,2.90198,0,0,0,0,0,0,0,-1,1812,708,19.7659,-2.902
595,316,12.5363,1.50702,0,0,0,0,0,0,0,-1,1819,708,12.5363,-1.50701
602,316,7.79919,0.0422363,0,0,0,0,0,0,0,-1,1826,708,7.79923,-0.0422066
609,316,45.549,-12.3513,0,0,0,0,0,0,0,-1,1833,708,45.549,12.3513
616,316,45.6234,-11.3685,0.00200552,-0.00088655,0.000851407,0.00223755,-0.00111858,0.266067,0.00197324,0.0166063,1840,708,45.6234,11.3685
623,316,45.5365,-10.3951,0.0017773,-0.000677108,0.000660636,0.00194382,-0.00084363,0.246918,0.00165059,0.0116793,1847,708,45.5365,10.3951
630,316,45.4656,-9.43964,0.00175708,-0.000434896,0.000605692,0.00191331,-0.000591127,0.252435,0.00151162,0.0142004,1854,708,45.4656,9.43964
637,316,45.418,-8.40247,0.00173897,-7.26782e-05,0.000633396,0.00193845,-0.000272163,0.305111,0.00139192,0.0142533,1861,708,45.418,8.40249
644,316,45.3846,-7.41028,0.00175413,0.000397361,0.000739225,0.00207907,7.24206e-05,0.414146,0.00136255,0.0134266,1868,708,45.3847,7.41027
651,316,45.3052,-6.42206,0.00183987,0.000943951,0.000913061,0.00240894,0.000374881,0.557344,0.00149673,0.0193367,1875,708,45.3052,6.42203
658,316,45.1776,-5.38983,0.00203551,0.00159732,0.00118104,0.0030176,0.000615221,0.693686,0.00184125,0.0405688,1882,708,45.1776,5.38985
665,316,45.04,-4.41931,0.00237548,0.00237167,0.001574,0.00394758,0.000799565,0.784793,0.00240982,0.0275076,1889,708,45.0401,4.41932
672,316,45.0768,-3.45459,0.00289852,0.00331409,0.00209989,0.00521645,0.000996152,0.834713,0.00319773,0.0146119,1896,708,45.0767,3.45462
679,316,45.101,-2.45703,0,0,0,0,0,0,0,-1,1903,708,45.1009,2.45702
686,316,34.0828,0.223206,0,0,0,0,0,0,0,-1,1910,708,34.0828,-0.223183
693,316,26.4315,1.80652,0,0,0,0,0,0,0,-1,1917,708,26.4315,-1.80651
700,316,12.8749,2.89136,0,0,0,0,0,0,0,-1,1924,708,12.8748,-2.89137
707,316,15.7089,5.41486,0,0,0,0,0,0,0,-1,1931,708,15.7088,-5.41487
714,316,16.1727,5.52045,0,0,0,0,0,0,0,-1,1938,708,16.1728,-5.52042
721,316,16.7094,6.53351,0,0,0,0,0,0,0,-1,1945,708,16.7094,-6.5335
728,316,0,0,0,0,0,0,0,0,0,-1,1952,708,0,0
735,316,0,0,0,0,0,0,0,0,0,-1,1959,708,0,0
742,316,0,0,0,0,0,0,0,0,0,-1,1966,708,0,0
749,316,0,0,0,0,0,0,0,0,0,-1,1973,708,0,0
756,316,0,0,0,0,0,0,0,0,0,-1,1980,708,0,0
763,316,0,0,0,0,0,0,0,0,0,-1,1987,708,0,0
770,316,0,0,0,0,0,0,0,0,0,-1,1994,708,0,0
777,316,0,0,0,0,0,0,0,0,0,-1,2001,708,0,0
784,316,0,0,0,0,0,0,0,0,0,-1,2008,708,0,0
791,316,0,0,0,0,0,0,0,0,0,-1,2015,708,0,0
798,316,0,0,0,0,0,0,0,0,0,-1,2022,708,0,0
805,316,0,0,0,0,0,0,0,0,0,-1,2029,708,0,0
812,316,0,0,0,0,0,0,0,0,0,-1,2036,708,0,0
-700,309,0,0,0,0,0,0,0,0,0,-1,524,715,0,0
-693,309,0,0,0,0,0,0,0,0,0,-1,531,715,0,0
-686,309,0,0,0,0,0,0,0,0,0,-1,538,715,0,0
-679,309,0,0,0,0,0,0,0,0,0,-1,545,715,0,0
-672,309,0,0,0,0,0,0,0,0,0,-1,552,715,0,0
-665,309,0,0,0,0,0,0,0,0,0,-1,559,715,0,0
-658,309,0,0,0,0,0,0,0,0,0,-1,566,715,0,0
-651,309,0,0,0,0,0,0,0,0,0,-1,573,715,0,0
-644,309,0,0,0,0,0,0,0,0,0,-1,580,715,0,0
-637,309,0,0,0,0,0,0,0,0,0,-1,587,715,0,0
-630,309,0,0,0,0,0,0,0,0,0,-1,594,715,0,0
-623,309,0,0,0,0,0,0,0,0,0,-1,601,715,0,0
-616,309,0,0,0,0,0,0,0,0,0,-1,608,715,0,0
-609,309,-5.95392,-3.93689,0,0,0,0,0,0,0,-1,615,715,-5.95392,3.93686
-602,309,-4.99786,-3.31287,0,0,0,0,0,0,0,-1,622,715,-4.99786,3.31284
-595,309,-6.80847,2.4046,0,0,0,0,0,0,0,-1,629,715,-6.80845,-2.40458
-588,309,-6.08795,2.19324,0,0,0,0,0,0,0,-1,636,715,-6.08793,-2.19325
-581,309,-5.97552,1.3277,0,0,0,0,0,0,0,-1,643,715,-5.97552,-1.32769
-574,309,-8.73602,0.208435,0,0,0,0,0,0,0,-1,650,715,-8.73604,-0.208437
-567,309,-10.3909,0.85968,0,0,0,0,0,0,0,-1,657,715,-10.3909,-0.859696
-560,309,-18.6088,-1.73389,0,0,0,0,0,0,0,-1,664,715,-18.6088,1.73389
-553,309,-30.342,-2.43066,0,0,0,0,0,0,0,-1,671,715,-30.342,2.43066
-546,309,-30.1801,-3.44757,0.00130905,0.00428504,-0.00227866,0.00551852,7.5571e-05,-1.07464,0.00365408,0.0433996,678,715,-30.1801,3.4476
-539,309,-30.0745,-4.49585,0.00158399,0.00302159,-0.00187004,0.00430622,0.00029936,-0.96888,0.00277641,0.0169086,685,715,-30.0745,4.49585
-532,309,-30.1278,-5.48511,0.00153823,0.00193095,-0.00138335,0.0031318,0.000337377,-0.8559,0.00198499,0.0134765,692,715,-30.1278,5.48508
-525,309,-30.2081,-6.49213,0.00124149,0.000926177,-0.000847673,0.00194604,0.000221625,-0.693454,0.00123016,0.0164622,699,715,-30.2081,6.49211
-518,309,-30.26,-7.47528,0.000897697,0.000169008,-0.000265159,0.00098397,8.27351e-05,-0.314561,0.000630215,0.0178634,706,715,-30.26,7.47529
-511,309,-30.3501,-8.45538,0.00038735,-0.00056971,0.000307839,0.000477815,-0.000660175,0.285826,0.000659825,0.0129561,713,715,-30.3501,8.45536
-504,309,-30.4175,-9.45398,-0.000232829,-0.00138335,0.000856642,0.000223784,-0.00183996,0.489718,0.00130763,0.0101086,720,715,-30.4175,9.454
-497,309,-30.4787,-10.3942,-0.000743382,-0.00215123,0.00128461,1.7525e-05,-0.00291214,0.534757,0.0019473,0.0144858,727,715,-30.4787,10.3941
-490,309,-30.5521,-11.3965,0,0,0,0,0,0,0,-1,734,715,-30.5522,11.3965
-483,309,-17.7261,-7.75836,0,0,0,0,0,0,0,-1,741,715,-17.7261,7.75839
-476,309,-5.29486,-1.2262,0,0,0,0,0,0,0,-1,748,715,-5.29484,1.22622
-469,309,-4.22717,-0.592896,0,0,0,0,0,0,0,-1,755,715,-4.2272,0.592905
-462,309,-10.428,2.46948,0,0,0,0,0,0,0,-1,762,715,-10.428,-2.46947
-455,309,-15.8216,0.00915527,0,0,0,0,0,0,0,-1,769,715,-15.8216,-0.00913359
-448,309,-37.3543,-1.02441,0,0,0,0,0,0,0,-1,776,715,-37.3543,1.02444
-441,309,-19.8181,1.4425,0,0,0,0,0,0,0,-1,783,715,-19.8181,-1.44249
-434,309,-46.7953,1.72064,0,0,0,0,0,0,0,-1,790,715,-46.7953,-1.72067
-427,309,-27.8553,1.40332,0,0,0,0,0,0,0,-1,797,715,-27.8553,-1.40334
-420,309,-27.3148,1.90747,0,0,0,0,0,0,0,-1,804,715,-27.3148,-1.90745
-413,309,0,0,0,0,0,0,0,0,0,-1,811,715,0,0
-406,309,0,0,0,0,0,0,0,0,0,-1,818,715,0,0
-399,309,0,0,0,0,0,0,0,0,0,-1,825,715,0,0
-392,309,0,0,0,0,0,0,0,0,0,-1,832,715,0,0
-385,309,0,0,0,0,0,0,0,0,0,-1,839,715,0,0
-378,309,0,0,0,0,0,0,0,0,0,-1,846,715,0,0
-371,309,0,0,0,0,0,0,0,0,0,-1,853,715,0,0
-364,309,0,0,0,0,0,0,0,0,0,-1,860,715,0,0
-357,309,0,0,0,0,0,0,0,0,0,-1,867,715,0,0
-350,309,0,0,0,0,0,0,0,0,0,-1,874,715,0,0
-343,309,0,0,0,0,0,0,0,0,0,-1,881,715,0,0
-336,309,0,0,0,0,0,0,0,0,0,-1,888,715,0,0
-329,309,0,0,0,0,0,0,0,0,0,-1,895,715,0,0
-322,309,0,0,0,0,0,0,0,0,0,-1,902,715,0,0
-315,309,0,0,0,0,0,0,0,0,0,-1,909,715,0,0
-308,309,0,0,0,0,0,0,0,0,0,-1,916,715,0,0
-301,309,0,0,0,0,0,0,0,0,0,-1,923,715,0,0
-294,309,0,0,0,0,0,0,0,0,0,-1,930,715,0,0
-287,309,0,0,0,0,0,0,0,0,0,-1,937,715,0,0
-280,309,0,0,0,0,0,0,0,0,0,-1,944,715,0,0
-273,309,0,0,0,0,0,0,0,0,0,-1,951,715,0,0
-266,309,0,0,0,0,0,0,0,0,0,-1,958,715,0,0
-259,309,0,0,0,0,0,0,0,0,0,-1,965,715,0,0
-252,309,0,0,0,0,0,0,0,0,0,-1,972,715,0,0
-245,309,0,0,0,0,0,0,0,0,0,-1,979,715,0,0
-238,309,0,0,0,0,0,0,0,0,0,-1,986,715,0,0
-231,309,0,0,0,0,0,0,0,0,0,-1,993,715,0,0
-224,309,0,0,0,0,0,0,0,0,0,-1,1000,715,0,0
-217,309,0,0,0,0,0,0,0,0,0,-1,1007,715,0,0
-210,309,0,0,0,0,0,0,0,0,0,-1,1014,715,0,0
-203,309,0,0,0,0,0,0,0,0,0,-1,1021,715,0,0
-196,309,0,0,0,0,0,0,0,0,0,-1,1028,715,0,0
-189,309,0,0,0,0,0,0,0,0,0,-1,1035,715,0,0
-182,309,0,0,0,0,0,0,0,0,0,-1,1042,715,0,0
-175,309,0,0,0,0,0,0,0,0,0,-1,1049,715,0,0
-168,309,0,0,0,0,0,0,0,0,0,-1,1056,715,0,0
-161,309,0,0,0,0,0,0,0,0,0,-1,1063,715,0,0
-154,309,0,0,0,0,0,0,0,0,0,-1,1070,715,0,0
-147,309,0,0,0,0,0,0,0,0,0,-1,1077,715,0,0
-140,309,0,0,0,0,0,0,0,0,0,-1,1084,715,0,0
-133,309,0,0,0,0,0,0,0,0,0,-1,1091,715,0,0
-126,309,0,0,0,0,0,0,0,0,0,-1,1098,715,0,0
-119,309,0,0,0,0,0,0,0,0,0,-1,1105,715,0,0
-112,309,0,0,0,0,0,0,0,0,0,-1,1112,715,0,0
-105,309,0,0,0,0,0,0,0,0,0,-1,1119,715,0,0
-98,309,0,0,0,0,0,0,0,0,0,-1,1126,715,0,0
-91,309,0,0,0,0,0,0,0,0,0,-1,1133,715,0,0
-84,309,0,0,0,0,0,0,0,0,0,-1,1140,715,0,0
-77,309,0,0,0,0,0,0,0,0,0,-1,1147,715,0,0
-70,309,0,0,0,0,0,0,0,0,0,-1,1154,715,0,0
-63,309,0,0,0,0,0,0,0,0,0,-1,1161,715,0,0
-56,309,0,0,0,0,0,0,0,0,0,-1,1168,715,0,0
-49,309,0,0,0,0,0,0,0,0,0,-1,1175,715,0,0
-42,309,0,0,0,0,0,0,0,0,0,-1,1182,715,0,0
-35,309,0,0,0,0,0,0,0,0,0,-1,1189,715,0,0
-28,309,0,0,0,0,0,0,0,0,0,-1,1196,715,0,0
-21,309,0,0,0,0,0,0,0,0,0,-1,1203,715,0,0
-14,309,0,0,0,0,0,0,0,0,0,-1,1210,715,0,0
-7,309,0,0,0,0,0,0,0,0,0,-1,1217,715,0,0
0,309,0,0,0,0,0,0,0,0,0,-1,1224,715,0,0
7,309,0,0,0,0,0,0,0,0,0,-1,1231,715,0,0
14,309,0,0,0,0,0,0,0,0,0,-1,1238,715,0,0
21,309,0,0,0,0,0,0,0,0,0,-1,1245,715,0,0
28,309,0,0,0,0,0,0,0,0,0,-1,1252,715,0,0
35,309,0,0,0,0,0,0,0,0,0,-1,1259,715,0,0
42,309,0,0,0,0,0,0,0,0,0,-1,1266,715,0,0
49,309,0,0,0,0,0,0,0,0,0,-1,1273,715,0,0
56,309,0,0,0,0,0,0,0,0,0,-1,1280,715,0,0
63,309,0,0,0,0,0,0,0,0,0,-1,1287,715,0,0
70,309,0,0,0,0,0,0,0,0,0,-1,1294,715,0,0
77,309,0,0,0,0,0,0,0,0,0,-1,1301,715,0,0
84,309,0,0,0,0,0,0,0,0,0,-1,1308,715,0,0
91,309,0,0,0,0,0,0,0,0,0,-1,1315,715,0,0
98,309,0,0,0,0,0,0,0,0,0,-1,1322,715,0,0
105,309,0,0,0,0,0,0,0,0,0,-1,1329,715,0,0
112,309,0,0,0,0,0,0,0,0,0,-1,1336,715,0,0
119,309,0,0,0,0,0,0,0,0,0,-1,1343,715,0,0
126,309,0,0,0,0,0,0,0,0,0,-1,1350,715,0,0
133,309,0,0,0,0,0,0,0,0,0,-1,1357,715,0,0
140,309,0,0,0,0,0,0,0,0,0,-1,1364,715,0,0
147,309,0,0,0,0,0,0,0,0,0,-1,1371,715,0,0
154,309,0,0,0,0,0,0,0,0,0,-1,1378,715,0,0
161,309,0,0,0,0,0,0,0,0,0,-1,1385,715,0,0
168,309,0,0,0,0,0,0,0,0,0,-1,1392,715,0,0
175,309,0,0,0,0,0,0,0,0,0,-1,1399,715,0,0
182,309,0,0,0,0,0,0,0,0,0,-1,1406,715,0,0
189,309,0,0,0,0,0,0,0,0,0,-1,1413,715,0,0
196,309,0,0,0,0,0,0,0,0,0,-1,1420,715,0,0
203,309,0,0,0,0,0,0,0,0,0,-1,1427,715,0,0
210,309,0,0,0,0,0,0,0,0,0,-1,1434,715,0,0
217,309,0,0,0,0,0,0,0,0,0,-1,1441,715,0,0
224,309,0,0,0,0,0,0,0,0,0,-1,1448,715,0,0
231,309,0,0,0,0,0,0,0,0,0,-1,1455,715,0,0
238,309,0,0,0,0,0,0,0,0,0,-1,1462,715,0,0
245,309,0,0,0,0,0,0,0,0,0,-1,1469,715,0,0
252,309,0,0,0,0,0,0,0,0,0,-1,1476,715,0,0
259,309,0,0,0,0,0,0,0,0,0,-1,1483,715,0,0
266,309,0,0,0,0,0,0,0,0,0,-1,1490,715,0,0
273,309,0,0,0,0,0,0,0,0,0,-1,1497,715,0,0
280,309,0,0,0,0,0,0,0,0,0,-1,1504,715,0,0
287,309,0,0,0,0,0,0,0,0,0,-1,1511,715,0,0
294,309,0,0,0,0,0,0,0,0,0,-1,1518,715,0,0
301,309,0,0,0,0,0,0,0,0,0,-1,1525,715,0,0
308,309,0,0,0,0,0,0,0,0,0,-1,1532,715,0,0
315,309,0,0,0,0,0,0,0,0,0,-1,1539,715,0,0
322,309,0,0,0,0,0,0,0,0,0,-1,1546,715,0,0
329,309,0,0,0,0,0,0,0,0,0,-1,1553,715,0,0
336,309,0,0,0,0,0,0,0,0,0,-1,1560,715,0,0
343,309,0,0,0,0,0,0,0,0,0,-1,1567,715,0,0
350,309,0,0,0,0,0,0,0,0,0,-1,1574,715,0,0
357,309,0,0,0,0,0,0,0,0,0,-1,1581,715,0,0
364,309,0,0,0,0,0,0,0,0,0,-1,1588,715,0,0
371,309,0,0,0,0,0,0,0,0,0,-1,1595,715,0,0
378,309,0,0,0,0,0,0,0,0,0,-1,1602,715,0,0
385,309,0,0,0,0,0,0,0,0,0,-1,1609,715,0,0
392,309,0,0,0,0,0,0,0,0,0,-1,1616,715,0,0
399,309,0,0,0,0,0,0,0,0,0,-1,1623,715,0,0
406,309,0,0,0,0,0,0,0,0,0,-1,1630,715,0,0
413,309,0,0,0,0,0,0,0,0,0,-1,1637,715,0,0
420,309,0,0,0,0,0,0,0,0,0,-1,1644,715,0,0
427,309,0,0,0,0,0,0,0,0,0,-1,1651,715,0,0
434,309,0,0,0,0,0,0,0,0,0,-1,1658,715,0,0
441,309,0,0,0,0,0,0,0,0,0,-1,1665,715,0,0
448,309,0,0,0,0,0,0,0,0,0,-1,1672,715,0,0
455,309,0,0,0,0,0,0,0,0,0,-1,1679,715,0,0
462,309,0,0,0,0,0,0,0,0,0,-1,1686,715,0,0
469,309,0,0,0,0,0,0,0,0,0,-1,1693,715,0,0
476,309,0,0,0,0,0,0,0,0,0,-1,1700,715,0,0
483,309,0,0,0,0,0,0,0,0,0,-1,1707,715,0,0
490,309,0,0,0,0,0,0,0,0,0,-1,1714,715,0,0
497,309,0,0,0,0,0,0,0,0,0,-1,1721,715,0,0
504,309,0,0,0,0,0,0,0,0,0,-1,1728,715,0,0
511,309,0,0,0,0,0,0,0,0,0,-1,1735,715,0,0
518,309,0,0,0,0,0,0,0,0,0,-1,1742,715,0,0
525,309,0,0,0,0,0,0,0,0,0,-1,1749,715,0,0
532,309,0,0,0,0,0,0,0,0,0,-1,1756,715,0,0
539,309,44.2073,2.66235,0,0,0,0,0,0,0,-1,1763,715,44.2073,-2.66238
546,309,44.4976,3.25531,0,0,0,0,0,0,0,-1,1770,715,44.4976,-3.25533
553,309,47.9611,4.06433,0,0,0,0,0,0,0,-1,1777,715,47.9611,-4.06434
560,309,47.9784,4.64801,0,0,0,0,0,0,0,-1,1784,715,47.9784,-4.64799
567,309,47.0073,5.43121,0,0,0,0,0,0,0,-1,1791,715,47.0073,-5.43121
574,309,45.8746,6.53271,0,0,0,0,0,0,0,-1,1798,715,45.8747,-6.53269
581,309,45.0629,7.73468,0,0,0,0,0,0,0,-1,1805,715,45.0629,-7.73471
588,309,26.2064,7.76422,0,0,0,0,0,0,0,-1,1812,715,26.2064,-7.7642
595,309,19.585,3.71558,0,0,0,0,0,0,0,-1,1819,715,19.5849,-3.71555
602,309,11.0811,3.47772,0,0,0,0,0,0,0,-1,1826,715,11.0811,-3.47772
609,309,46.7244,-12.3077,0,0,0,0,0,0,0,-1,1833,715,46.7244,12.3077
616,309,46.6342,-11.2973,0.0025265,-0.000842104,0.000971295,0.0027865,-0.0011021,0.261546,0.00231422,0.0368231,1840,715,46.6342,11.2973
623,309,46.5336,-10.3077,0.00208691,-0.000657389,0.000718964,0.00226386,-0.000834337,0.241319,0.00185112,0.0118707,1847,715,46.5336,10.3077
630,309,46.4362,-9.35266,0.00194838,-0.000473772,0.000611942,0.00209421,-0.000619596,0.233934,0.00164211,0.0110938,1854,715,46.4361,9.35264
637,309,46.3663,-8.35156,0.00182372,-0.000166903,0.000603066,0.00199217,-0.000335349,0.272375,0.00145285,0.0145364,1861,715,46.3663,8.35157
644,309,46.2976,-7.34247,0.00176025,0.000267392,0.000686601,0.00202801,-3.66708e-07,0.371836,0.00135213,0.0152836,1868,715,46.2976,7.34249
651,309,46.2463,-6.34906,0.00179304,0.000774564,0.000850742,0.00227531,0.000292295,0.515711,0.00142944,0.0163818,1875,715,46.2464,6.34906
658,309,46.1558,-5.3454,0.00195713,0.00138379,0.00111438,0.00282112,0.000519799,0.659506,0.00173366,0.0248134,1882,715,46.1558,5.34541
665,309,46.1349,-4.3681,0.00224248,0.00209588,0.00148341,0.00365441,0.000683959,0.760711,0.00224331,0.0197661,1889,715,46.1349,4.36812
672,309,46.0645,-3.401,0.00273531,0.00295784,0.00199929,0.00484896,0.000844192,0.813196,0.00299122,0.015798,1896,715,46.0645,3.40099
679,309,46.0425,-2.32391,0.00342924,0.00393014,0.00268701,0.00637834,0.00098103,0.831868,0.00396587,0.0323019,1903,715,46.0425,2.32391
686,309,46.0576,-1.13916,0,0,0,0,0,0,0,-1,1910,715,46.0577,1.13918
693,309,32.7026,1.51727,0,0,0,0,0,0,0,-1,1917,715,32.7026,-1.51727
700,309,23.0179,3.08337,0,0,0,0,0,0,0,-1,1924,715,23.018,-3.08336
707,309,15.6318,4.58655,0,0,0,0,0,0,0,-1,1931,715,15.6318,-4.58657
714,309,16.7573,6.68286,0,0,0,0,0,0,0,-1,1938,715,16.7574,-6.68284
721,309,16.8337,5.4458,0,0,0,0,0,0,0,-1,1945,715,16.8338,-5.44582
728,309,0,0,0,0,0,0,0,0,0,-1,1952,715,0,0
735,309,0,0,0,0,0,0,0,0,0,-1,1959,715,0,0
742,309,0,0,0,0,0,0,0,0,0,-1,1966,715,0,0
749,309,0,0,0,0,0,0,0,0,0,-1,1973,715,0,0
756,309,0,0,0,0,0,0,0,0,0,-1,1980,715,0,0
763,309,0,0,0,0,0,0,0,0,0,-1,1987,715,0,0
770,309,0,0,0,0,0,0,0,0,0,-1,1994,715,0,0
777,309,0,0,0,0,0,0,0,0,0,-1,2001,715,0,0
784,309,0,0,0,0,0,0,0,0,0,-1,2008,715,0,0
791,309,0,0,0,0,0,0,0,0,0,-1,2015,715,0,0
798,309,0,0,0,0,0,0,0,0,0,-1,2022,715,0,0
805,309,0,0,0,0,0,0,0,0,0,-1,2029,715,0,0
812,309,0,0,0,0,0,0,0,0,0,-1,2036,715,0,0
-700,302,0,0,0,0,0,0,0,0,0,-1,524,722,0,0
-693,302,0,0,0,0,0,0,0,0,0,-1,531,722,0,0
-686,302,0,0,0,0,0,0,0,0,0,-1,538,722,0,0
-679,302,0,0,0,0,0,0,0,0,0,-1,545,722,0,0
-672,302,0,0,0,0,0,0,0,0,0,-1,552,722,0,0
-665,302,0,0,0,0,0,0,0,0,0,-1,559,722,0,0
-658,302,0,0,0,0,0,0,0,0,0,-1,566,722,0,0
-651,302,0,0,0,0,0,0,0,0,0,-1,573,722,0,0
-644,302,0,0,0,0,0,0,0,0,0,-1,580,722,0,0
-637,302,0,0,0,0,0,0,0,0,0,-1,587,722,0,0
-630,302,0,0,0,0,0,0,0,0,0,-1,594,722,0,0
-623,302,0,0,0,0,0,0,0,0,0,-1,601,722,0,0
-616,302,0,0,0,0,0,0,0,0,0,-1,608,722,0,0
-609,302,-7.79266,-3.71649,0,0,0,0,0,0,0,-1,615,722,-7.79267,3.7165
-602,302,0.92865,-1.99158,0,0,0,0,0,0,0,-1,622,722,0.928637,1.99157
-595,302,-7.89941,2.13641,0,0,0,0,0,0,0,-1,629,722,-7.89939,-2.13639
-588,302,-7.10895,1.79163,0,0,0,0,0,0,0,-1,636,722,-7.10896,-1.79163
-581,302,-9.17566,1.09448,0,0,0,0,0,0,0,-1,643,722,-9.17569,-1.09445
-574,302,-11.5183,-0.344543,0,0,0,0,0,0,0,-1,650,722,-11.5183,0.344557
-567,302,-12.1534,-0.672241,0,0,0,0,0,0,0,-1,657,722,-12.1535,0.672246
-560,302,-30.8804,-1.26123,0,0,0,0,0,0,0,-1,664,722,-30.8804,1.2612
-553,302,-31.0405,-2.36908,0.000297953,0.00432049,-0.00167898,0.00492918,-0.000310734,-1.223,0.00339444,0.0460983,671,722,-31.0405,2.3691
-546,302,-31.0346,-3.43402,0.000884762,0.00335306,-0.00156751,0.00411395,0.000123866,-1.11888,0.00270229,0.0204298,678,722,-31.0346,3.43402
-539,302,-31.0936,-4.39233,0.00106755,0.00229904,-0.00125357,0.00307992,0.000286665,-1.01369,0.00196471,0.0163067,685,722,-31.0935,4.39231
-532,302,-31.1578,-5.39294,0.000926988,0.00142244,-0.000847611,0.00205778,0.000291643,-0.927569,0.00128571,0.015809,692,722,-31.1578,5.39292
-525,302,-31.1796,-6.46545,0.000573923,0.000537219,-0.000426904,0.000982869,0.000128273,-0.763918,0.000616949,0.0212714,699,722,-31.1796,6.46545
-518,302,-31.2311,-7.43097,0.000174211,-0.000152579,8.91867e-05,0.000196967,-0.000175335,0.24982,0.000215069,0.0230759,706,722,-31.2311,7.43096
-511,302,-31.3324,-8.38416,-0.000411948,-0.000972525,0.000646905,1.27797e-05,-0.00139725,0.580968,0.000935791,0.011599,713,722,-31.3324,8.38418
-504,302,-31.4009,-9.38312,-0.00104129,-0.00213659,0.00113896,-0.000325156,-0.00285272,0.561298,0.00180323,0.00994118,720,722,-31.4009,9.38309
-497,302,-31.5037,-10.3389,-0.00152237,-0.00338662,0.00158567,-0.000615144,-0.00429384,0.519681,0.00268114,0.0161306,727,722,-31.5037,10.3389
-490,302,-31.6145,-11.293,0,0,0,0,0,0,0,-1,734,722,-31.6145,11.2929
-483,302,-9.53412,-3.1673,0,0,0,0,0,0,0,-1,741,722,-9.53411,3.1673
-476,302,-4.29749,-0.203491,0,0,0,0,0,0,0,-1,748,722,-4.29751,0.203464
-469,302,-12.369,1.42859,0,0,0,0,0,0,0,-1,755,722,-12.3689,-1.42857
-462,302,-17.4766,0.310791,0,0,0,0,0,0,0,-1,762,722,-17.4766,-0.310788
-455,302,-36.7368,-2.97418,0,0,0,0,0,0,0,-1,769,722,-36.7368,2.97416
-448,302,-42.1174,-1.44232,0,0,0,0,0,0,0,-1,776,722,-42.1174,1.44229
-441,302,-46.7637,0.580078,0,0,0,0,0,0,0,-1,783,722,-46.7636,-0.58007
-434,302,-46.574,1.30511,0,0,0,0,0,0,0,-1,790,722,-46.574,-1.30509
-427,302,-46.7514,1.51532,0,0,0,0,0,0,0,-1,797,722,-46.7514,-1.51532
-420,302,0,0,0,0,0,0,0,0,0,-1,804,722,0,0
-413,302,0,0,0,0,0,0,0,0,0,-1,811,722,0,0
-406,302,0,0,0,0,0,0,0,0,0,-1,818,722,0,0
-399,302,0,0,0,0,0,0,0,0,0,-1,825,722,0,0
-392,302,0,0,0,0,0,0,0,0,0,-1,832,722,0,0
-385,302,0,0,0,0,0,0,0,0,0,-1,839,722,0,0
-378,302,0,0,0,0,0,0,0,0,0,-1,846,722,0,0
-371,302,0,0,0,0,0,0,0,0,0,-1,853,722,0,0
-364,302,0,0,0,0,0,0,0,0,0,-1,860,722,0,0
-357,302,0,0,0,0,0,0,0,0,0,-1,867,722,0,0
-350,302,0,0,0,0,0,0,0,0,0,-1,874,722,0,0
-343,302,0,0,0,0,0,0,0,0,0,-1,881,722,0,0
-336,302,0,0,0,0,0,0,0,0,0,-1,888,722,0,0
-329,302,0,0,0,0,0,0,0,0,0,-1,895,722,0,0
-322,302,0,0,0,0,0,0,0,0,0,-1,902,722,0,0
-315,302,0,0,0,0,0,0,0,0,0,-1,909,722,0,0
-308,302,0,0,0,0,0,0,0,0,0,-1,916,722,0,0
-301,302,0,0,0,0,0,0,0,0,0,-1,923,722,0,0
-294,302,0,0,0,0,0,0,0,0,0,-1,930,722,0,0
-287,302,0,0,0,0,0,0,0,0,0,-1,937,722,0,0
-280,302,0,0,0,0,0,0,0,0,0,-1,944,722,0,0
-273,302,0,0,0,0,0,0,0,0,0,-1,951,722,0,0
-266,302,0,0,0,0,0,0,0,0,0,-1,958,722,0,0
-259,302,0,0,0,0,0,0,0,0,0,-1,965,722,0,0
-252,302,0,0,0,0,0,0,0,0,0,-1,972,722,0,0
-245,302,0,0,0,0,0,0,0,0,0,-1,979,722,0,0
-238,302,0,0,0,0,0,0,0,0,0,-1,986,722,0,0
-231,302,0,0,0,0,0,0,0,0,0,-1,993,722,0,0
-224,302,0,0,0,0,0,0,0,0,0,-1,1000,722,0,0
-217,302,0,0,0,0,0,0,0,0,0,-1,1007,722,0,0
-210,302,0,0,0,0,0,0,0,0,0,-1,1014,722,0,0
-203,302,0,0,0,0,0,0,0,0,0,-1,1021,722,0,0
-196,302,0,0,0,0,0,0,0,0,0,-1,1028,722,0,0
-189,302,0,0,0,0,0,0,0,0,0,-1,1035,722,0,0
-182,302,0,0,0,0,0,0,0,0,0,-1,1042,722,0,0
-175,302,0,0,0,0,0,0,0,0,0,-1,1049,722,0,0
-168,302,0,0,0,0,0,0,0,0,0,-1,1056,722,0,0
-161,302,0,0,0,0,0,0,0,0,0,-1,1063,722,0,0
-154,302,0,0,0,0,0,0,0,0,0,-1,1070,722,0,0
-147,302,0,0,0,0,0,0,0,0,0,-1,1077,722,0,0
-140,302,0,0,0,0,0,0,0,0,0,-1,1084,722,0,0
-133,302,0,0,0,0,0,0,0,0,0,-1,1091,722,0,0
-126,302,0,0,0,0,0,0,0,0,0,-1,1098,722,0,0
-119,302,0,0,0,0,0,0,0,0,0,-1,1105,722,0,0
-112,302,0,0,0,0,0,0,0,0,0,-1,1112,722,0,0
-105,302,0,0,0,0,0,0,0,0,0,-1,1119,722,0,0
-98,302,0,0,0,0,0,0,0,0,0,-1,1126,722,0,0
-91,302,0,0,0,0,0,0,0,0,0,-1,1133,722,0,0
-84,302,0,0,0,0,0,0,0,0,0,-1,1140,722,0,0
-77,302,0,0,0,0,0,0,0,0,0,-1,1147,722,0,0
-70,302,0,0,0,0,0,0,0,0,0,-1,1154,722,0,0
-63,302,0,0,0,0,0,0,0,0,0,-1,1161,722,0,0
-56,302,0,0,0,0,0,0,0,0,0,-1,1168,722,0,0
-49,302,0,0,0,0,0,0,0,0,0,-1,1175,722,0,0
-42,302,0,0,0,0,0,0,0,0,0,-1,1182,722,0,0
-35,302,0,0,0,0,0,0,0,0,0,-1,1189,722,0,0
-28,302,0,0,0,0,0,0,0,0,0,-1,1196,722,0,0
-21,302,0,0,0,0,0,0,0,0,0,-1,1203,722,0,0
-14,302,0,0,0,0,0,0,0,0,0,-1,1210,722,0,0
-7,302,0,0,0,0,0,0,0,0,0,-1,1217,722,0,0
0,302,0,0,0,0,0,0,0,0,0,-1,1224,722,0,0
7,302,0,0,0,0,0,0,0,0,0,-1,1231,722,0,0
14,302,0,0,0,0,0,0,0,0,0,-1,1238,722,0,0
21,302,0,0,0,0,0,0,0,0,0,-1,1245,722,0,0
28,302,0,0,0,0,0,0,0,0,0,-1,1252,722,0,0
35,302,0,0,0,0,0,0,0,0,0,-1,1259,722,0,0
42,302,0,0,0,0,0,0,0,0,0,-1,1266,722,0,0
49,302,0,0,0,0,0,0,0,0,0,-1,1273,722,0,0
56,302,0,0,0,0,0,0,0,0,0,-1,1280,722,0,0
63,302,0,0,0,0,0,0,0,0,0,-1,1287,722,0,0
70,302,0,0,0,0,0,0,0,0,0,-1,1294,722,0,0
77,302,0,0,0,0,0,0,0,0,0,-1,1301,722,0,0
84,302,0,0,0,0,0,0,0,0,0,-1,1308,722,0,0
91,302,0,0,0,0,0,0,0,0,0,-1,1315,722,0,0
98,302,0,0,0,0,0,0,0,0,0,-1,1322,722,0,0
105,302,0,0,0,0,0,0,0,0,0,-1,1329,722,0,0
112,302,0,0,0,0,0,0,0,0,0,-1,1336,722,0,0
119,302,0,0,0,0,0,0,0,0,0,-1,1343,722,0,0
126,302,0,0,0,0,0,0,0,0,0,-1,1350,722,0,0
133,302,0,0,0,0,0,0,0,0,0,-1,1357,722,0,0
140,302,0,0,0,0,0,0,0,0,0,-1,1364,722,0,0
147,302,0,0,0,0,0,0,0,0,0,-1,1371,722,0,0
154,302,0,0,0,0,0,0,0,0,0,-1,1378,722,0,0
161,302,0,0,0,0,0,0,0,0,0,-1,1385,722,0,0
168,302,0,0,0,0,0,0,0,0,0,-1,1392,722,0,0
175,302,0,0,0,0,0,0,0,0,0,-1,1399,722,0,0
182,302,0,0,0,0,0,0,0,0,0,-1,1406,722,0,0
189,302,0,0,0,0,0,0,0,0,0,-1,1413,722,0,0
196,302,0,0,0,0,0,0,0,0,0,-1,1420,722,0,0
203,302,0,0,0,0,0,0,0,0,0,-1,1427,722,0,0
210,302,0,0,0,0,0,0,0,0,0,-1,1434,722,0,0
217,302,0,0,0,0,0,0,0,0,0,-1,1441,722,0,0
224,302,0,0,0,0,0,0,0,0,0,-1,1448,722,0,0
231,302,0,0,0,0,0,0,0,0,0,-1,1455,722,0,0
238,302,0,0,0,0,0,0,0,0,0,-1,1462,722,0,0
245,302,0,0,0,0,0,0,0,0,0,-1,1469,722,0,0
252,302,0,0,0,0,0,0,0,0,0,-1,1476,722,0,0
259,302,0,0,0,0,0,0,0,0,0,-1,1483,722,0,0
266,302,0,0,0,0,0,0,0,0,0,-1,1490,722,0,0
273,302,0,0,0,0,0,0,0,0,0,-1,1497,722,0,0
280,302,0,0,0,0,0,0,0,0,0,-1,1504,722,0,0
287,302,0,0,0,0,0,0,0,0,0,-1,1511,722,0,0
294,302,0,0,0,0,0,0,0,0,0,-1,1518,722,0,0
301,302,0,0,0,0,0,0,0,0,0,-1,1525,722,0,0
308,302,0,0,0,0,0,0,0,0,0,-1,1532,722,0,0
315,302,0,0,0,0,0,0,0,0,0,-1,1539,722,0,0
322,302,0,0,0,0,0,0,0,0,0,-1,1546,722,0,0
329,302,0,0,0,0,0,0,0,0,0,-1,1553,722,0,0
336,302,0,0,0,0,0,0,0,0,0,-1,1560,722,0,0
343,302,0,0,0,0,0,0,0,0,0,-1,1567,722,0,0
350,302,0,0,0,0,0,0,0,0,0,-1,1574,722,0,0
357,302,0,0,0,0,0,0,0,0,0,-1,1581,722,0,0
364,302,0,0,0,0,0,0,0,0,0,-1,1588,722,0,0
371,302,0,0,0,0,0,0,0,0,0,-1,1595,722,0,0
378,302,0,0,0,0,0,0,0,0,0,-1,1602,722,0,0
385,302,0,0,0,0,0,0,0,0,0,-1,1609,722,0,0
392,302,0,0,0,0,0,0,0,0,0,-1,1616,722,0,0
399,302,0,0,0,0,0,0,0,0,0,-1,1623,722,0,0
406,302,0,0,0,0,0,0,0,0,0,-1,1630,722,0,0
413,302,0,0,0,0,0,0,0,0,0,-1,1637,722,0,0
420,302,0,0,0,0,0,0,0,0,0,-1,1644,722,0,0
427,302,0,0,0,0,0,0,0,0,0,-1,1651,722,0,0
434,302,0,0,0,0,0,0,0,0,0,-1,1658,722,0,0
441,302,0,0,0,0,0,0,0,0,0,-1,1665,722,0,0
448,302,0,0,0,0,0,0,0,0,0,-1,1672,722,0,0
455,302,0,0,0,0,0,0,0,0,0,-1,1679,722,0,0
462,302,0,0,0,0,0,0,0,0,0,-1,1686,722,0,0
469,302,0,0,0,0,0,0,0,0,0,-1,1693,722,0,0
476,302,0,0,0,0,0,0,0,0,0,-1,1700,722,0,0
483,302,0,0,0,0,0,0,0,0,0,-1,1707,722,0,0
490,302,0,0,0,0,0,0,0,0,0,-1,1714,722,0,0
497,302,0,0,0,0,0,0,0,0,0,-1,1721,722,0,0
504,302,0,0,0,0,0,0,0,0,0,-1,1728,722,0,0
511,302,0,0,0,0,0,0,0,0,0,-1,1735,722,0,0
518,302,0,0,0,0,0,0,0,0,0,-1,1742,722,0,0
525,302,0,0,0,0,0,0,0,0,0,-1,1749,722,0,0
532,302,0,0,0,0,0,0,0,0,0,-1,1756,722,0,0
539,302,0,0,0,0,0,0,0,0,0,-1,1763,722,0,0
546,302,48.9873,1.50562,0,0,0,0,0,0,0,-1,1770,722,48.9873,-1.50562
553,302,56.7844,3.46533,0,0,0,0,0,0,0,-1,1777,722,56.7844,-3.4653
560,302,56.7115,3.84808,0,0,0,0,0,0,0,-1,1784,722,56.7116,-3.84806
567,302,55.9475,4.24542,0,0,0,0,0,0,0,-1,1791,722,55.9475,-4.24542
574,302,45.9537,6.00867,0,0,0,0,0,0,0,-1,1798,722,45.9537,-6.00864
581,302,45.137,7.38043,0,0,0,0,0,0,0,-1,1805,722,45.1369,-7.38044
588,302,26.9731,7.19983,0,0,0,0,0,0,0,-1,1812,722,26.9732,-7.19981
595,302,27.3826,8.13104,0,0,0,0,0,0,0,-1,1819,722,27.3825,-8.13102
602,302,14.7349,5.21246,0,0,0,0,0,0,0,-1,1826,722,14.7349,-5.21247
609,302,31.1039,-6.34253,0,0,0,0,0,0,0,-1,1833,722,31.1039,6.34254
616,302,47.5577,-11.1748,0,0,0,0,0,0,0,-1,1840,722,47.5577,11.1748
623,302,47.4832,-10.2115,0.00262202,-0.000675719,0.000877582,0.00284102,-0.000894714,0.24455,0.00225229,0.0185213,1847,722,47.4831,10.2116
630,302,47.401,-9.24628,0.00228959,-0.000538452,0.000690719,0.00244928,-0.000698136,0.227194,0.00190861,0.0112917,1854,722,47.401,9.24626
637,302,47.3247,-8.26105,0.00199117,-0.000272407,0.000615768,0.00214783,-0.000429074,0.249138,0.00159428,0.0156997,1861,722,47.3247,8.26108
644,302,47.2791,-7.26685,0.00178991,0.000129986,0.000636898,0.00200612,-8.62232e-05,0.327266,0.00136706,0.0167903,1868,722,47.279,7.26684
651,302,47.2401,-6.26984,0.00171775,0.000616581,0.000760114,0.00210573,0.000228593,0.47196,0.00133417,0.0165915,1875,722,47.2401,6.26981
658,302,47.2098,-5.32202,0.0018067,0.00119294,0.000985169,0.00253168,0.000467961,0.634411,0.00155544,0.0178952,1882,722,47.2099,5.32204
665,302,47.1305,-4.34747,0.0020155,0.00184366,0.00129959,0.003232,0.000627154,0.752388,0.00197902,0.0169687,1889,722,47.1305,4.34746
672,302,47.0353,-3.35876,0.0024415,0.00258075,0.00175757,0.00427007,0.000752183,0.805195,0.00263206,0.0124102,1896,722,47.0353,3.35876
679,302,46.9725,-2.34521,0.00307444,0.00341425,0.00236009,0.00561054,0.000878146,0.821332,0.00348472,0.010192,1903,722,46.9726,2.34524
686,302,46.9534,-1.29083,0.00409527,0.0042526,0.00314815,0.00732307,0.0010248,0.79789,0.00457883,0.0276286,1910,722,46.9534,1.29082
693,302,46.8778,-0.248657,0,0,0,0,0,0,0,-1,1917,722,46.8778,0.248636
700,302,25.4069,1.97308,0,0,0,0,0,0,0,-1,1924,722,25.4068,-1.97311
707,302,16.7321,4.76685,0,0,0,0,0,0,0,-1,1931,722,16.7321,-4.76687
714,302,17.2,5.77594,0,0,0,0,0,0,0,-1,1938,722,17.2,-5.77595
721,302,17.7914,6.60394,0,0,0,0,0,0,0,-1,1945,722,17.7914,-6.60395
728,302,17.2798,4.81702,0,0,0,0,0,0,0,-1,1952,722,17.2798,-4.81703
735,302,0,0,0,0,0,0,0,0,0,-1,1959,722,0,0
742,302,0,0,0,0,0,0,0,0,0,-1,1966,722,0,0
749,302,0,0,0,0,0,0,0,0,0,-1,1973,722,0,0
756,302,0,0,0,0,0,0,0,0,0,-1,1980,722,0,0
763,302,0,0,0,0,0,0,0,0,0,-1,1987,722,0,0
770,302,0,0,0,0,0,0,0,0,0,-1,1994,722,0,0
777,302,0,0,0,0,0,0,0,0,0,-1,2001,722,0,0
784,302,0,0,0,0,0,0,0,0,0,-1,2008,722,0,0
791,302,0,0,0,0,0,0,0,0,0,-1,2015,722,0,0
798,302,0,0,0,0,0,0,0,0,0,-1,2022,722,0,0
805,302,0,0,0,0,0,0,0,0,0,-1,2029,722,0,0
812,302,0,0,0,0,0,0,0,0,0,-1,2036,722,0,0
-700,295,0,0,0,0,0,0,0,0,0,-1,524,729,0,0
-693,295,0,0,0,0,0,0,0,0,0,-1,531,729,0,0
-686,295,0,0,0,0,0,0,0,0,0,-1,538,729,0,0
-679,295,0,0,0,0,0,0,0,0,0,-1,545,729,0,0
-672,295,0,0,0,0,0,0,0,0,0,-1,552,729,0,0
-665,295,0,0,0,0,0,0,0,0,0,-1,559,729,0,0
-658,295,0,0,0,0,0,0,0,0,0,-1,566,729,0,0
-651,295,0,0,0,0,0,0,0,0,0,-1,573,729,0,0
-644,295,0,0,0,0,0,0,0,0,0,-1,580,729,0,0
-637,295,0,0,0,0,0,0,0,0,0,-1,587,729,0,0
-630,295,0,0,0,0,0,0,0,0,0,-1,594,729,0,0
-623,295,0,0,0,0,0,0,0,0,0,-1,601,729,0,0
-616,295,-13.4911,1.31738,0,0,0,0,0,0,0,-1,608,729,-13.4911,-1.3174
-609,295,-10.2864,0.832031,0,0,0,0,0,0,0,-1,615,729,-10.2863,-0.832034
-602,295,-8.19006,3.01587,0,0,0,0,0,0,0,-1,622,729,-8.19005,-3.01588
-595,295,-0.615479,-1.95447,0,0,0,0,0,0,0,-1,629,729,-0.615481,1.95445
-588,295,-7.98999,1.56903,0,0,0,0,0,0,0,-1,636,729,-7.98997,-1.56905
-581,295,-12.0404,0.150574,0,0,0,0,0,0,0,-1,643,729,-12.0404,-0.150604
-574,295,-12.1605,-0.0739746,0,0,0,0,0,0,0,-1,650,729,-12.1605,0.0739856
-567,295,-31.5102,-0.224487,0,0,0,0,0,0,0,-1,657,729,-31.5102,0.224489
-560,295,-31.8528,-1.40216,-0.00056376,0.00493843,-0.00165719,0.005399,-0.00102433,-1.29972,0.0039849,0.042054,664,729,-31.8528,1.40214
-553,295,-31.9538,-2.42834,0.000191553,0.00345757,-0.00139969,0.00397534,-0.00032622,-1.21649,0.00276539,0.0226066,671,729,-31.9538,2.42832
-546,295,-32.0484,-3.38068,0.000506755,0.00258254,-0.00116232,0.00310292,-1.36211e-05,-1.14985,0.00207317,0.0213612,678,729,-32.0484,3.38066
-539,295,-32.1133,-4.32788,0.000479803,0.00168949,-0.000786906,0.00207715,9.21461e-05,-1.11306,0.00135509,0.0198586,685,729,-32.1133,4.32788
-532,295,-32.1602,-5.30115,0.000270015,0.000970398,-0.000420464,0.0011674,7.30102e-05,-1.13263,0.000755109,0.0173494,692,729,-32.1602,5.30116
-525,295,-32.1866,-6.35114,-0.000111256,0.000200585,-8.0128e-05,0.000219969,-0.00013064,-1.33344,0.000204603,0.0162669,699,729,-32.1866,6.35116
-518,295,-32.2265,-7.33734,-0.00055872,-0.000464704,0.000416827,-9.22426e-05,-0.000931181,0.841549,0.000592438,0.0116914,706,729,-32.2265,7.33735
-511,295,-32.3086,-8.2951,-0.00117308,-0.00141199,0.00100504,-0.000280414,-0.00230465,0.726247,0.00145202,0.00989351,713,729,-32.3086,8.29513
-504,295,-32.3813,-9.26709,-0.00176363,-0.00291034,0.00149071,-0.00073981,-0.00393416,0.60181,0.00241425,0.0123955,720,729,-32.3814,9.2671
-497,295,-32.4963,-10.1778,-0.00216563,-0.00455644,0.00202751,-0.00100736,-0.00571471,0.519031,0.00352237,0.0272273,727,729,-32.4963,10.1778
-490,295,-32.6287,-11.056,0,0,0,0,0,0,0,-1,734,729,-32.6287,11.056
-483,295,-6.84503,-0.454651,0,0,0,0,0,0,0,-1,741,729,-6.84505,0.454639
-476,295,-13.1738,-0.836243,0,0,0,0,0,0,0,-1,748,729,-13.1738,0.836223
-469,295,-26.5608,-0.466187,0,0,0,0,0,0,0,-1,755,729,-26.5608,0.466162
-462,295,-29.7701,-0.792664,0,0,0,0,0,0,0,-1,762,729,-29.7701,0.792642
-455,295,-45.11,-2.79272,0,0,0,0,0,0,0,-1,769,729,-45.11,2.79272
-448,295,-48.0288,1.41229,0,0,0,0,0,0,0,-1,776,729,-48.0288,-1.41227
-441,295,-47.1089,1.03058,0,0,0,0,0,0,0,-1,783,729,-47.109,-1.0306
-434,295,-46.2319,1.10614,0,0,0,0,0,0,0,-1,790,729,-46.2319,-1.10612
-427,295,0,0,0,0,0,0,0,0,0,-1,797,729,0,0
-420,295,0,0,0,0,0,0,0,0,0,-1,804,729,0,0
-413,295,0,0,0,0,0,0,0,0,0,-1,811,729,0,0
-406,295,0,0,0,0,0,0,0,0,0,-1,818,729,0,0
-399,295,0,0,0,0,0,0,0,0,0,-1,825,729,0,0
-392,295,0,0,0,0,0,0,0,0,0,-1,832,729,0,0
-385,295,0,0,0,0,0,0,0,0,0,-1,839,729,0,0
-378,295,0,0,0,0,0,0,0,0,0,-1,846,729,0,0
-371,295,0,0,0,0,0,0,0,0,0,-1,853,729,0,0
-364,295,0,0,0,0,0,0,0,0,0,-1,860,729,0,0
-357,295,0,0,0,0,0,0,0,0,0,-1,867,729,0,0
-350,295,0,0,0,0,0,0,0,0,0,-1,874,729,0,0
-343,295,0,0,0,0,0,0,0,0,0,-1,881,729,0,0
-336,295,0,0,0,0,0,0,0,0,0,-1,888,729,0,0
-329,295,0,0,0,0,0,0,0,0,0,-1,895,729,0,0
-322,295,0,0,0,0,0,0,0,0,0,-1,902,729,0,0
-315,295,0,0,0,0,0,0,0,0,0,-1,909,729,0,0
-308,295,0,0,0,0,0,0,0,0,0,-1,916,729,0,0
-301,295,0,0,0,0,0,0,0,0,0,-1,923,729,0,0
-294,295,0,0,0,0,0,0,0,0,0,-1,930,729,0,0
-287,295,0,0,0,0,0,0,0,0,0,-1,937,729,0,0
-280,295,0,0,0,0,0,0,0,0,0,-1,944,729,0,0
-273,295,0,0,0,0,0,0,0,0,0,-1,951,729,0,0
-266,295,0,0,0,0,0,0,0,0,0,-1,958,729,0,0
-259,295,0,0,0,0,0,0,0,0,0,-1,965,729,0,0
-252,295,0,0,0,0,0,0,0,0,0,-1,972,729,0,0
-245,295,0,0,0,0,0,0,0,0,0,-1,979,729,0,0
-238,295,0,0,0,0,0,0,0,0,0,-1,986,729,0,0
-231,295,0,0,0,0,0,0,0,0,0,-1,993,729,0,0
-224,295,0,0,0,0,0,0,0,0,0,-1,1000,729,0,0
-217,295,0,0,0,0,0,0,0,0,0,-1,1007,729,0,0
-210,295,0,0,0,0,0,0,0,0,0,-1,1014,729,0,0
-203,295,0,0,0,0,0,0,0,0,0,-1,1021,729,0,0
-196,295,0,0,0,0,0,0,0,0,0,-1,1028,729,0,0
-189,295,0,0,0,0,0,0,0,0,0,-1,1035,729,0,0
-182,295,0,0,0,0,0,0,0,0,0,-1,1042,729,0,0
-175,295,0,0,0,0,0,0,0,0,0,-1,1049,729,0,0
-168,295,0,0,0,0,0,0,0,0,0,-1,1056,729,0,0
-161,295,0,0,0,0,0,0,0,0,0,-1,1063,729,0,0
-154,295,0,0,0,0,0,0,0,0,0,-1,1070,729,0,0
-147,295,0,0,0,0,0,0,0,0,0,-1,1077,729,0,0
-140,295,0,0,0,0,0,0,0,0,0,-1,1084,729,0,0
-133,295,0,0,0,0,0,0,0,0,0,-1,1091,729,0,0
-126,295,0,0,0,0,0,0,0,0,0,-1,1098,729,0,0
-119,295,0,0,0,0,0,0,0,0,0,-1,1105,729,0,0
-112,295,0,0,0,0,0,0,0,0,0,-1,1112,729,0,0
-105,295,0,0,0,0,0,0,0,0,0,-1,1119,729,0,0
-98,295,0,0,0,0,0,0,0,0,0,-1,1126,729,0,0
-91,295,0,0,0,0,0,0,0,0,0,-1,1133,729,0,0
-84,295,0,0,0,0,0,0,0,0,0,-1,1140,729,0,0
-77,295,0,0,0,0,0,0,0,0,0,-1,1147,729,0,0
-70,295,0,0,0,0,0,0,0,0,0,-1,1154,729,0,0
-63,295,0,0,0,0,0,0,0,0,0,-1,1161,729,0,0
-56,295,0,0,0,0,0,0,0,0,0,-1,1168,729,0,0
-49,295,0,0,0,0,0,0,0,0,0,-1,1175,729,0,0
-42,295,0,0,0,0,0,0,0,0,0,-1,1182,729,0,0
-35,295,0,0,0,0,0,0,0,0,0,-1,1189,729,0,0
-28,295,0,0,0,0,0,0,0,0,0,-1,1196,729,0,0
-21,295,0,0,0,0,0,0,0,0,0,-1,1203,729,0,0
-14,295,0,0,0,0,0,0,0,0,0,-1,1210,729,0,0
-7,295,0,0,0,0,0,0,0,0,0,-1,1217,729,0,0
0,295,0,0,0,0,0,0,0,0,0,-1,1224,729,0,0
7,295,0,0,0,0,0,0,0,0,0,-1,1231,729,0,0
14,295,0,0,0,0,0,0,0,0,0,-1,1238,729,0,0
21,295,0,0,0,0,0,0,0,0,0,-1,1245,729,0,0
28,295,0,0,0,0,0,0,0,0,0,-1,1252,729,0,0
35,295,0,0,0,0,0,0,0,0,0,-1,1259,729,0,0
42,295,0,0,0,0,0,0,0,0,0,-1,1266,729,0,0
49,295,0,0,0,0,0,0,0,0,0,-1,1273,729,0,0
56,295,0,0,0,0,0,0,0,0,0,-1,1280,729,0,0
63,295,0,0,0,0,0,0,0,0,0,-1,1287,729,0,0
70,295,0,0,0,0,0,0,0,0,0,-1,1294,729,0,0
77,295,0,0,0,0,0,0,0,0,0,-1,1301,729,0,0
84,295,0,0,0,0,0,0,0,0,0,-1,1308,729,0,0
91,295,0,0,0,0,0,0,0,0,0,-1,1315,729,0,0
98,295,0,0,0,0,0,0,0,0,0,-1,1322,729,0,0
105,295,0,0,0,0,0,0,0,0,0,-1,1329,729,0,0
112,295,0,0,0,0,0,0,0,0,0,-1,1336,729,0,0
119,295,0,0,0,0,0,0,0,0,0,-1,1343,729,0,0
126,295,0,0,0,0,0,0,0,0,0,-1,1350,729,0,0
133,295,0,0,0,0,0,0,0,0,0,-1,1357,729,0,0
140,295,0,0,0,0,0,0,0,0,0,-1,1364,729,0,0
147,295,0,0,0,0,0,0,0,0,0,-1,1371,729,0,0
154,295,0,0,0,0,0,0,0,0,0,-1,1378,729,0,0
161,295,0,0,0,0,0,0,0,0,0,-1,1385,729,0,0
168,295,0,0,0,0,0,0,0,0,0,-1,1392,729,0,0
175,295,0,0,0,0,0,0,0,0,0,-1,1399,729,0,0
182,295,0,0,0,0,0,0,0,0,0,-1,1406,729,0,0
189,295,0,0,0,0,0,0,0,0,0,-1,1413,729,0,0
196,295,0,0,0,0,0,0,0,0,0,-1,1420,729,0,0
203,295,0,0,0,0,0,0,0,0,0,-1,1427,729,0,0
210,295,0,0,0,0,0,0,0,0,0,-1,1434,729,0,0
217,295,0,0,0,0,0,0,0,0,0,-1,1441,729,0,0
224,295,0,0,0,0,0,0,0,0,0,-1,1448,729,0,0
231,295,0,0,0,0,0,0,0,0,0,-1,1455,729,0,0
238,295,0,0,0,0,0,0,0,0,0,-1,1462,729,0,0
245,295,0,0,0,0,0,0,0,0,0,-1,1469,729,0,0
252,295,0,0,0,0,0,0,0,0,0,-1,1476,729,0,0
259,295,0,0,0,0,0,0,0,0,0,-1,1483,729,0,0
266,295,0,0,0,0,0,0,0,0,0,-1,1490,729,0,0
273,295,0,0,0,0,0,0,0,0,0,-1,1497,729,0,0
280,295,0,0,0,0,0,0,0,0,0,-1,1504,729,0,0
287,295,0,0,0,0,0,0,0,0,0,-1,1511,729,0,0
294,295,0,0,0,0,0,0,0,0,0,-1,1518,729,0,0
301,295,0,0,0,0,0,0,0,0,0,-1,1525,729,0,0
308,295,0,0,0,0,0,0,0,0,0,-1,1532,729,0,0
315,295,0,0,0,0,0,0,0,0,0,-1,1539,729,0,0
322,295,0,0,0,0,0,0,0,0,0,-1,1546,729,0,0
329,295,0,0,0,0,0,0,0,0,0,-1,1553,729,0,0
336,295,0,0,0,0,0,0,0,0,0,-1,1560,729,0,0
343,295,0,0,0,0,0,0,0,0,0,-1,1567,729,0,0
350,295,0,0,0,0,0,0,0,0,0,-1,1574,729,0,0
357,295,0,0,0,0,0,0,0,0,0,-1,1581,729,0,0
364,295,0,0,0,0,0,0,0,0,0,-1,1588,729,0,0
371,295,0,0,0,0,0,0,0,0,0,-1,1595,729,0,0
378,295,0,0,0,0,0,0,0,0,0,-1,1602,729,0,0
385,295,0,0,0,0,0,0,0,0,0,-1,1609,729,0,0
392,295,0,0,0,0,0,0,0,0,0,-1,1616,729,0,0
399,295,0,0,0,0,0,0,0,0,0,-1,1623,729,0,0
406,295,0,0,0,0,0,0,0,0,0,-1,1630,729,0,0
413,295,0,0,0,0,0,0,0,0,0,-1,1637,729,0,0
420,295,0,0,0,0,0,0,0,0,0,-1,1644,729,0,0
427,295,0,0,0,0,0,0,0,0,0,-1,1651,729,0,0
434,295,0,0,0,0,0,0,0,0,0,-1,1658,729,0,0
441,295,0,0,0,0,0,0,0,0,0,-1,1665,729,0,0
448,295,0,0,0,0,0,0,0,0,0,-1,1672,729,0,0
455,295,0,0,0,0,0,0,0,0,0,-1,1679,729,0,0
462,295,0,0,0,0,0,0,0,0,0,-1,1686,729,0,0
469,295,0,0,0,0,0,0,0,0,0,-1,1693,729,0,0
476,295,0,0,0,0,0,0,0,0,0,-1,1700,729,0,0
483,295,0,0,0,0,0,0,0,0,0,-1,1707,729,0,0
490,295,0,0,0,0,0,0,0,0,0,-1,1714,729,0,0
497,295,0,0,0,0,0,0,0,0,0,-1,1721,729,0,0
504,295,0,0,0,0,0,0,0,0,0,-1,1728,729,0,0
511,295,0,0,0,0,0,0,0,0,0,-1,1735,729,0,0
518,295,0,0,0,0,0,0,0,0,0,-1,1742,729,0,0
525,295,0,0,0,0,0,0,0,0,0,-1,1749,729,0,0
532,295,0,0,0,0,0,0,0,0,0,-1,1756,729,0,0
539,295,0,0,0,0,0,0,0,0,0,-1,1763,729,0,0
546,295,57.4674,2.36884,0,0,0,0,0,0,0,-1,1770,729,57.4674,-2.36883
553,295,57.1969,2.73846,0,0,0,0,0,0,0,-1,1777,729,57.197,-2.73843
560,295,57.0291,3.27454,0,0,0,0,0,0,0,-1,1784,729,57.029,-3.27454
567,295,56.6243,3.88239,0,0,0,0,0,0,0,-1,1791,729,56.6242,-3.8824
574,295,56.5275,4.755,0,0,0,0,0,0,0,-1,1798,729,56.5274,-4.75501
581,295,37.8191,2.19592,0,0,0,0,0,0,0,-1,1805,729,37.8191,-2.19594
588,295,39.0542,2.45679,0,0,0,0,0,0,0,-1,1812,729,39.0542,-2.45676
595,295,27.2102,6.99121,0,0,0,0,0,0,0,-1,1819,729,27.2103,-6.99121
602,295,26.9065,7.82141,0,0,0,0,0,0,0,-1,1826,729,26.9064,-7.8214
609,295,11.7737,2.19989,0,0,0,0,0,0,0,-1,1833,729,11.7736,-2.19988
616,295,45.2537,-10.4867,0,0,0,0,0,0,0,-1,1840,729,45.2537,10.4867
623,295,48.3884,-10.1376,0,0,0,0,0,0,0,-1,1847,729,48.3884,10.1376
630,295,48.3649,-9.15082,0.00328023,-0.000588599,0.00107868,0.00356066,-0.000869025,0.25434,0.00271029,0.0144247,1854,729,48.3649,9.15083
637,295,48.3296,-8.17218,0.00260387,-0.000269243,0.000793232,0.00280833,-0.000473696,0.252256,0.00204845,0.014609,1861,729,48.3296,8.17215
644,295,48.2875,-7.18427,0.00204395,8.10966e-05,0.000649835,0.00223959,-0.000114542,0.292428,0.00153267,0.0136592,1868,729,48.2875,7.18426
651,295,48.234,-6.19196,0.00171969,0.000479461,0.000660643,0.00200566,0.00019349,0.408516,0.0012775,0.0150031,1875,729,48.2339,6.19195
658,295,48.1761,-5.24268,0.0017175,0.000989723,0.000829651,0.00225955,0.000447667,0.57873,0.00138154,0.0149417,1882,729,48.1761,5.24266
665,295,48.0957,-4.29712,0.00182659,0.00155527,0.00108638,0.00278574,0.000596113,0.723283,0.00169379,0.0132166,1889,729,48.0958,4.29712
672,295,48.0134,-3.33545,0.00216567,0.00216773,0.0015039,0.0036706,0.000662796,0.78574,0.00225879,0.0151637,1896,729,48.0134,3.33547
679,295,47.9482,-2.33215,0.00269452,0.00287702,0.00204312,0.00483092,0.000740617,0.807715,0.00300433,0.0119398,1903,729,47.9482,2.33214
686,295,47.9335,-1.32825,0.00351589,0.00357955,0.00273227,0.00628017,0.000815267,0.791222,0.00394322,0.0128631,1910,729,47.9335,1.32827
693,295,47.938,-0.323975,0,0,0,0,0,0,0,-1,1917,729,47.938,0.323946
700,295,31.3757,2.06982,0,0,0,0,0,0,0,-1,1924,729,31.3758,-2.0698
707,295,22.2661,3.05206,0,0,0,0,0,0,0,-1,1931,729,22.2662,-3.05207
714,295,17.4906,4.63068,0,0,0,0,0,0,0,-1,1938,729,17.4906,-4.63066
721,295,18.3792,5.32281,0,0,0,0,0,0,0,-1,1945,729,18.3791,-5.32283
728,295,17.379,3.74866,0,0,0,0,0,0,0,-1,1952,729,17.379,-3.74863
735,295,0,0,0,0,0,0,0,0,0,-1,1959,729,0,0
742,295,0,0,0,0,0,0,0,0,0,-1,1966,729,0,0
749,295,0,0,0,0,0,0,0,0,0,-1,1973,729,0,0
756,295,0,0,0,0,0,0,0,0,0,-1,1980,729,0,0
763,295,0,0,0,0,0,0,0,0,0,-1,1987,729,0,0
770,295,0,0,0,0,0,0,0,0,0,-1,1994,729,0,0
777,295,0,0,0,0,0,0,0,0,0,-1,2001,729,0,0
784,295,0,0,0,0,0,0,0,0,0,-1,2008,729,0,0
791,295,0,0,0,0,0,0,0,0,0,-1,2015,729,0,0
798,295,0,0,0,0,0,0,0,0,0,-1,2022,729,0,0
805,295,0,0,0,0,0,0,0,0,0,-1,2029,729,0,0
812,295,0,0,0,0,0,0,0,0,0,-1,2036,729,0,0
-700,288,0,0,0,0,0,0,0,0,0,-1,524,736,0,0
-693,288,0,0,0,0,0,0,0,0,0,-1,531,736,0,0
-686,288,0,0,0,0,0,0,0,0,0,-1,538,736,0,0
-679,288,0,0,0,0,0,0,0,0,0,-1,545,736,0,0
-672,288,0,0,0,0,0,0,0,0,0,-1,552,736,0,0
-665,288,0,0,0,0,0,0,0,0,0,-1,559,736,0,0
-658,288,0,0,0,0,0,0,0,0,0,-1,566,736,0,0
-651,288,0,0,0,0,0,0,0,0,0,-1,573,736,0,0
-644,288,0,0,0,0,0,0,0,0,0,-1,580,736,0,0
-637,288,0,0,0,0,0,0,0,0,0,-1,587,736,0,0
-630,288,0,0,0,0,0,0,0,0,0,-1,594,736,0,0
-623,288,0,0,0,0,0,0,0,0,0,-1,601,736,0,0
-616,288,-11.7584,2.4425,0,0,0,0,0,0,0,-1,608,736,-11.7584,-2.44251
-609,288,-10.3007,2.32178,0,0,0,0,0,0,0,-1,615,736,-10.3007,-2.32178
-602,288,-10.1458,-1.85559,0,0,0,0,0,0,0,-1,622,736,-10.1458,1.85556
-595,288,-7.63208,1.81769,0,0,0,0,0,0,0,-1,629,736,-7.63205,-1.81766
-588,288,-8.19269,1.50598,0,0,0,0,0,0,0,-1,636,736,-8.19268,-1.50601
-581,288,-13.1915,0.659241,0,0,0,0,0,0,0,-1,643,736,-13.1915,-0.659228
-574,288,-32.3884,0.648987,0,0,0,0,0,0,0,-1,650,736,-32.3885,-0.649003
-567,288,-32.5806,-0.371826,-0.000817784,0.00533779,-0.00236924,0.00614408,-0.00162408,-1.24277,0.00473126,0.0374425,657,736,-32.5806,0.371823
-560,288,-32.874,-1.42719,-0.000409879,0.00395353,-0.00158919,0.00447096,-0.000927317,-1.25602,0.00333303,0.0181554,664,736,-32.874,1.42719
-553,288,-32.917,-2.36621,-2.27414e-05,0.00276904,-0.0011633,0.00319023,-0.000443932,-1.22341,0.00228919,0.0191871,671,736,-32.917,2.36624
-546,288,-33.0078,-3.31726,8.25353e-05,0.00196234,-0.000828801,0.00227557,-0.000230689,-1.20946,0.0015995,0.0208903,678,736,-33.0078,3.31725
-539,288,-33.085,-4.28406,-9.70821e-05,0.00120727,-0.000409024,0.00132492,-0.000214733,-1.29072,0.000962874,0.0185359,685,736,-33.085,4.28409
-532,288,-33.0634,-5.26007,-0.000409089,0.000607266,-8.61919e-05,0.000614523,-0.000416347,-1.48679,0.000598828,0.0157121,692,736,-33.0634,5.26008
-525,288,-33.1365,-6.26434,-0.000841609,-4.13472e-05,0.000169184,-7.04959e-06,-0.000875907,1.37078,0.000581602,0.0138191,699,736,-33.1365,6.26434
-518,288,-33.2313,-7.24847,-0.00129907,-0.000708608,0.000655204,-0.000285191,-0.00172249,0.997072,0.00106605,0.0115846,706,736,-33.2313,7.24848
-511,288,-33.3239,-8.19708,-0.00179463,-0.0018071,0.0012491,-0.000551747,-0.00304998,0.782901,0.00187664,0.00921116,713,736,-33.3239,8.1971
-504,288,-33.3986,-9.17303,-0.00218512,-0.00360573,0.00168471,-0.0010671,-0.00472376,0.585897,0.0028606,0.0127287,720,736,-33.3985,9.17301
-497,288,-33.4033,-9.89642,-0.00233943,-0.0055262,0.00225611,-0.00117076,-0.00669486,0.477943,0.00412869,0.0400912,727,736,-33.4033,9.8964
-490,288,-33.2323,-10.528,0,0,0,0,0,0,0,-1,734,736,-33.2323,10.528
-483,288,-17.3287,0.564758,0,0,0,0,0,0,0,-1,741,736,-17.3287,-0.56477
-476,288,-26.136,0.452148,0,0,0,0,0,0,0,-1,748,736,-26.136,-0.452177
-469,288,-27.7904,0.649841,0,0,0,0,0,0,0,-1,755,736,-27.7904,-0.649854
-462,288,-44.999,-2.65112,0,0,0,0,0,0,0,-1,762,736,-44.999,2.65111
-455,288,-49.1631,1.86432,0,0,0,0,0,0,0,-1,769,736,-49.1632,-1.8643
-448,288,-55.5283,0.0455933,0,0,0,0,0,0,0,-1,776,736,-55.5284,-0.0456
-441,288,-55.0096,0.39325,0,0,0,0,0,0,0,-1,783,736,-55.0096,-0.393269
-434,288,-46.7119,1.66388,0,0,0,0,0,0,0,-1,790,736,-46.7119,-1.66385
-427,288,0,0,0,0,0,0,0,0,0,-1,797,736,0,0
-420,288,0,0,0,0,0,0,0,0,0,-1,804,736,0,0
-413,288,0,0,0,0,0,0,0,0,0,-1,811,736,0,0
-406,288,0,0,0,0,0,0,0,0,0,-1,818,736,0,0
-399,288,0,0,0,0,0,0,0,0,0,-1,825,736,0,0
-392,288,0,0,0,0,0,0,0,0,0,-1,832,736,0,0
-385,288,0,0,0,0,0,0,0,0,0,-1,839,736,0,0
-378,288,0,0,0,0,0,0,0,0,0,-1,846,736,0,0
-371,288,0,0,0,0,0,0,0,0,0,-1,853,736,0,0
-364,288,0,0,0,0,0,0,0,0,0,-1,860,736,0,0
-357,288,0,0,0,0,0,0,0,0,0,-1,867,736,0,0
-350,288,0,0,0,0,0,0,0,0,0,-1,874,736,0,0
-343,288,0,0,0,0,0,0,0,0,0,-1,881,736,0,0
-336,288,0,0,0,0,0,0,0,0,0,-1,888,736,0,0
-329,288,0,0,0,0,0,0,0,0,0,-1,895,736,0,0
-322,288,0,0,0,0,0,0,0,0,0,-1,902,736,0,0
-315,288,0,0,0,0,0,0,0,0,0,-1,909,736,0,0
-308,288,0,0,0,0,0,0,0,0,0,-1,916,736,0,0
-301,288,0,0,0,0,0,0,0,0,0,-1,923,736,0,0
-294,288,0,0,0,0,0,0,0,0,0,-1,930,736,0,0
-287,288,0,0,0,0,0,0,0,0,0,-1,937,736,0,0
-280,288,0,0,0,0,0,0,0,0,0,-1,944,736,0,0
-273,288,0,0,0,0,0,0,0,0,0,-1,951,736,0,0
-266,288,0,0,0,0,0,0,0,0,0,-1,958,736,0,0
-259,288,0,0,0,0,0,0,0,0,0,-1,965,736,0,0
-252,288,0,0,0,0,0,0,0,0,0,-1,972,736,0,0
-245,288,0,0,0,0,0,0,0,0,0,-1,979,736,0,0
-238,288,0,0,0,0,0,0,0,0,0,-1,986,736,0,0
-231,288,0,0,0,0,0,0,0,0,0,-1,993,736,0,0
-224,288,0,0,0,0,0,0,0,0,0,-1,1000,736,0,0
-217,288,0,0,0,0,0,0,0,0,0,-1,1007,736,0,0
-210,288,0,0,0,0,0,0,0,0,0,-1,1014,736,0,0
-203,288,0,0,0,0,0,0,0,0,0,-1,1021,736,0,0
-196,288,0,0,0,0,0,0,0,0,0,-1,1028,736,0,0
-189,288,0,0,0,0,0,0,0,0,0,-1,1035,736,0,0
-182,288,0,0,0,0,0,0,0,0,0,-1,1042,736,0,0
-175,288,0,0,0,0,0,0,0,0,0,-1,1049,736,0,0
-168,288,0,0,0,0,0,0,0,0,0,-1,1056,736,0,0
-161,288,0,0,0,0,0,0,0,0,0,-1,1063,736,0,0
-154,288,0,0,0,0,0,0,0,0,0,-1,1070,736,0,0
-147,288,0,0,0,0,0,0,0,0,0,-1,1077,736,0,0
-140,288,0,0,0,0,0,0,0,0,0,-1,1084,736,0,0
-133,288,0,0,0,0,0,0,0,0,0,-1,1091,736,0,0
-126,288,0,0,0,0,0,0,0,0,0,-1,1098,736,0,0
-119,288,0,0,0,0,0,0,0,0,0,-1,1105,736,0,0
-112,288,0,0,0,0,0,0,0,0,0,-1,1112,736,0,0
-105,288,0,0,0,0,0,0,0,0,0,-1,1119,736,0,0
-98,288,0,0,0,0,0,0,0,0,0,-1,1126,736,0,0
-91,288,0,0,0,0,0,0,0,0,0,-1,1133,736,0,0
-84,288,0,0,0,0,0,0,0,0,0,-1,1140,736,0,0
-77,288,0,0,0,0,0,0,0,0,0,-1,1147,736,0,0
-70,288,0,0,0,0,0,0,0,0,0,-1,1154,736,0,0
-63,288,0,0,0,0,0,0,0,0,0,-1,1161,736,0,0
-56,288,0,0,0,0,0,0,0,0,0,-1,1168,736,0,0
-49,288,0,0,0,0,0,0,0,0,0,-1,1175,736,0,0
-42,288,0,0,0,0,0,0,0,0,0,-1,1182,736,0,0
-35,288,0,0,0,0,0,0,0,0,0,-1,1189,736,0,0
-28,288,0,0,0,0,0,0,0,0,0,-1,1196,736,0,0
-21,288,0,0,0,0,0,0,0,0,0,-1,1203,736,0,0
-14,288,0,0,0,0,0,0,0,0,0,-1,1210,736,0,0
-7,288,0,0,0,0,0,0,0,0,0,-1,1217,736,0,0
0,288,0,0,0,0,0,0,0,0,0,-1,1224,736,0,0
7,288,0,0,0,0,0,0,0,0,0,-1,1231,736,0,0
14,288,0,0,0,0,0,0,0,0,0,-1,1238,736,0,0
21,288,0,0,0,0,0,0,0,0,0,-1,1245,736,0,0
28,288,0,0,0,0,0,0,0,0,0,-1,1252,736,0,0
35,288,0,0,0,0,0,0,0,0,0,-1,1259,736,0,0
42,288,0,0,0,0,0,0,0,0,0,-1,1266,736,0,0
49,288,0,0,0,0,0,0,0,0,0,-1,1273,736,0,0
56,288,0,0,0,0,0,0,0,0,0,-1,1280,736,0,0
63,288,0,0,0,0,0,0,0,0,0,-1,1287,736,0,0
70,288,0,0,0,0,0,0,0,0,0,-1,1294,736,0,0
77,288,0,0,0,0,0,0,0,0,0,-1,1301,736,0,0
84,288,0,0,0,0,0,0,0,0,0,-1,1308,736,0,0
91,288,0,0,0,0,0,0,0,0,0,-1,1315,736,0,0
98,288,0,0,0,0,0,0,0,0,0,-1,1322,736,0,0
105,288,0,0,0,0,0,0,0,0,0,-1,1329,736,0,0
112,288,0,0,0,0,0,0,0,0,0,-1,1336,736,0,0
119,288,0,0,0,0,0,0,0,0,0,-1,1343,736,0,0
126,288,0,0,0,0,0,0,0,0,0,-1,1350,736,0,0
133,288,0,0,0,0,0,0,0,0,0,-1,1357,736,0,0
140,288,0,0,0,0,0,0,0,0,0,-1,1364,736,0,0
147,288,0,0,0,0,0,0,0,0,0,-1,1371,736,0,0
154,288,0,0,0,0,0,0,0,0,0,-1,1378,736,0,0
161,288,0,0,0,0,0,0,0,0,0,-1,1385,736,0,0
168,288,0,0,0,0,0,0,0,0,0,-1,1392,736,0,0
175,288,0,0,0,0,0,0,0,0,0,-1,1399,736,0,0
182,288,0,0,0,0,0,0,0,0,0,-1,1406,736,0,0
189,288,0,0,0,0,0,0,0,0,0,-1,1413,736,0,0
196,288,0,0,0,0,0,0,0,0,0,-1,1420,736,0,0
203,288,0,0,0,0,0,0,0,0,0,-1,1427,736,0,0
210,288,0,0,0,0,0,0,0,0,0,-1,1434,736,0,0
217,288,0,0,0,0,0,0,0,0,0,-1,1441,736,0,0
224,288,0,0,0,0,0,0,0,0,0,-1,1448,736,0,0
231,288,0,0,0,0,0,0,0,0,0,-1,1455,736,0,0
238,288,0,0,0,0,0,0,0,0,0,-1,1462,736,0,0
245,288,0,0,0,0,0,0,0,0,0,-1,1469,736,0,0
252,288,0,0,0,0,0,0,0,0,0,-1,1476,736,0,0
259,288,0,0,0,0,0,0,0,0,0,-1,1483,736,0,0
266,288,0,0,0,0,0,0,0,0,0,-1,1490,736,0,0
273,288,0,0,0,0,0,0,0,0,0,-1,1497,736,0,0
280,288,0,0,0,0,0,0,0,0,0,-1,1504,736,0,0
287,288,0,0,0,0,0,0,0,0,0,-1,1511,736,0,0
294,288,0,0,0,0,0,0,0,0,0,-1,1518,736,0,0
301,288,0,0,0,0,0,0,0,0,0,-1,1525,736,0,0
308,288,0,0,0,0,0,0,0,0,0,-1,1532,736,0,0
315,288,0,0,0,0,0,0,0,0,0,-1,1539,736,0,0
322,288,0,0,0,0,0,0,0,0,0,-1,1546,736,0,0
329,288,0,0,0,0,0,0,0,0,0,-1,1553,736,0,0
336,288,0,0,0,0,0,0,0,0,0,-1,1560,736,0,0
343,288,0,0,0,0,0,0,0,0,0,-1,1567,736,0,0
350,288,0,0,0,0,0,0,0,0,0,-1,1574,736,0,0
357,288,0,0,0,0,0,0,0,0,0,-1,1581,736,0,0
364,288,0,0,0,0,0,0,0,0,0,-1,1588,736,0,0
371,288,0,0,0,0,0,0,0,0,0,-1,1595,736,0,0
378,288,0,0,0,0,0,0,0,0,0,-1,1602,736,0,0
385,288,0,0,0,0,0,0,0,0,0,-1,1609,736,0,0
392,288,0,0,0,0,0,0,0,0,0,-1,1616,736,0,0
399,288,0,0,0,0,0,0,0,0,0,-1,1623,736,0,0
406,288,0,0,0,0,0,0,0,0,0,-1,1630,736,0,0
413,288,0,0,0,0,0,0,0,0,0,-1,1637,736,0,0
420,288,0,0,0,0,0,0,0,0,0,-1,1644,736,0,0
427,288,0,0,0,0,0,0,0,0,0,-1,1651,736,0,0
434,288,0,0,0,0,0,0,0,0,0,-1,1658,736,0,0
441,288,0,0,0,0,0,0,0,0,0,-1,1665,736,0,0
448,288,0,0,0,0,0,0,0,0,0,-1,1672,736,0,0
455,288,0,0,0,0,0,0,0,0,0,-1,1679,736,0,0
462,288,0,0,0,0,0,0,0,0,0,-1,1686,736,0,0
469,288,0,0,0,0,0,0,0,0,0,-1,1693,736,0,0
476,288,0,0,0,0,0,0,0,0,0,-1,1700,736,0,0
483,288,0,0,0,0,0,0,0,0,0,-1,1707,736,0,0
490,288,0,0,0,0,0,0,0,0,0,-1,1714,736,0,0
497,288,0,0,0,0,0,0,0,0,0,-1,1721,736,0,0
504,288,0,0,0,0,0,0,0,0,0,-1,1728,736,0,0
511,288,0,0,0,0,0,0,0,0,0,-1,1735,736,0,0
518,288,0,0,0,0,0,0,0,0,0,-1,1742,736,0,0
525,288,0,0,0,0,0,0,0,0,0,-1,1749,736,0,0
532,288,0,0,0,0,0,0,0,0,0,-1,1756,736,0,0
539,288,0,0,0,0,0,0,0,0,0,-1,1763,736,0,0
546,288,0,0,0,0,0,0,0,0,0,-1,1770,736,0,0
553,288,57.4934,2.28064,0,0,0,0,0,0,0,-1,1777,736,57.4934,-2.28064
560,288,57.3807,3.02881,0,0,0,0,0,0,0,-1,1784,736,57.3808,-3.0288
567,288,57.2081,3.74274,0,0,0,0,0,0,0,-1,1791,736,57.2081,-3.74273
574,288,56.9817,4.36981,0,0,0,0,0,0,0,-1,1798,736,56.9816,-4.36984
581,288,53.4904,5.33215,0,0,0,0,0,0,0,-1,1805,736,53.4904,-5.33218
588,288,54.9313,3.29852,0,0,0,0,0,0,0,-1,1812,736,54.9313,-3.29849
595,288,47.035,3.35156,0,0,0,0,0,0,0,-1,1819,736,47.035,-3.35157
602,288,26.7634,7.61279,0,0,0,0,0,0,0,-1,1826,736,26.7635,-7.61279
609,288,17.5223,4.86414,0,0,0,0,0,0,0,-1,1833,736,17.5223,-4.86412
616,288,13.4886,0.801331,0,0,0,0,0,0,0,-1,1840,736,13.4886,-0.80132
623,288,49.256,-9.97736,0,0,0,0,0,0,0,-1,1847,736,49.256,9.97734
630,288,49.2927,-9.04181,0.00394268,0.000137553,0.00137866,0.00438968,-0.000309449,0.313534,0.00303487,0.0392944,1854,736,49.2927,9.04183
637,288,49.3147,-8.10443,0.00319238,0.000296001,0.000983011,0.00349449,-6.1132e-06,0.298173,0.0023317,0.0120478,1861,736,49.3148,8.10444
644,288,49.2721,-7.11884,0.00233525,0.000337292,0.000719651,0.00256748,0.00010507,0.312138,0.00167772,0.00971024,1868,736,49.2721,7.11886
651,288,49.2157,-6.13556,0.00173587,0.000440428,0.00059694,0.00196899,0.000207308,0.372312,0.0012493,0.0119496,1875,736,49.2157,6.13555
658,288,49.1685,-5.16821,0.00162855,0.000743866,0.000702223,0.00201614,0.000356278,0.504335,0.00124248,0.0177979,1882,736,49.1684,5.16823
665,288,49.0924,-4.22064,0.00166221,0.0012009,0.00091655,0.00237668,0.000486429,0.662129,0.00144977,0.0181216,1889,736,49.0924,4.22064
672,288,49.0042,-3.26636,0.00192278,0.00170124,0.00127639,0.0030932,0.00053082,0.742114,0.00190994,0.0183632,1896,736,49.0042,3.26636
679,288,48.9315,-2.2583,0.00235388,0.00231046,0.00172967,0.00406198,0.000602358,0.779122,0.0025312,0.0156464,1903,736,48.9315,2.25831
686,288,48.8641,-1.29407,0.00299298,0.00293124,0.00228468,0.005247,0.000677218,0.778642,0.00329554,0.0124452,1910,736,48.8641,1.29406
693,288,48.8555,-0.223511,0.00405874,0.0037493,0.00305757,0.0069655,0.000842539,0.760118,0.00438986,0.0289215,1917,736,48.8555,0.223535
700,288,48.8411,0.917664,0,0,0,0,0,0,0,-1,1924,736,48.841,-0.917636
707,288,30.9496,3.07977,0,0,0,0,0,0,0,-1,1931,736,30.9496,-3.07975
714,288,23.0149,3.82544,0,0,0,0,0,0,0,-1,1938,736,23.0149,-3.82541
721,288,18.0732,3.69385,0,0,0,0,0,0,0,-1,1945,736,18.0732,-3.69387
728,288,19.3208,3.91455,0,0,0,0,0,0,0,-1,1952,736,19.3209,-3.91455
735,288,18.7712,3.51312,0,0,0,0,0,0,0,-1,1959,736,18.7713,-3.51309
742,288,0,0,0,0,0,0,0,0,0,-1,1966,736,0,0
749,288,0,0,0,0,0,0,0,0,0,-1,1973,736,0,0
756,288,0,0,0,0,0,0,0,0,0,-1,1980,736,0,0
763,288,0,0,0,0,0,0,0,0,0,-1,1987,736,0,0
770,288,0,0,0,0,0,0,0,0,0,-1,1994,736,0,0
777,288,0,0,0,0,0,0,0,0,0,-1,2001,736,0,0
784,288,0,0,0,0,0,0,0,0,0,-1,2008,736,0,0
791,288,0,0,0,0,0,0,0,0,0,-1,2015,736,0,0
798,288,0,0,0,0,0,0,0,0,0,-1,2022,736,0,0
805,288,0,0,0,0,0,0,0,0,0,-1,2029,736,0,0
812,288,0,0,0,0,0,0,0,0,0,-1,2036,736,0,0
-700,281,0,0,0,0,0,0,0,0,0,-1,524,743,0,0
-693,281,0,0,0,0,0,0,0,0,0,-1,531,743,0,0
-686,281,0,0,0,0,0,0,0,0,0,-1,538,743,0,0
-679,281,0,0,0,0,0,0,0,0,0,-1,545,743,0,0
-672,281,0,0,0,0,0,0,0,0,0,-1,552,743,0,0
-665,281,0,0,0,0,0,0,0,0,0,-1,559,743,0,0
-658,281,0,0,0,0,0,0,0,0,0,-1,566,743,0,0
-651,281,0,0,0,0,0,0,0,0,0,-1,573,743,0,0
-644,281,0,0,0,0,0,0,0,0,0,-1,580,743,0,0
-637,281,0,0,0,0,0,0,0,0,0,-1,587,743,0,0
-630,281,0,0,0,0,0,0,0,0,0,-1,594,743,0,0
-623,281,-19.1697,5.67017,0,0,0,0,0,0,0,-1,601,743,-19.1697,-5.67019
-616,281,-11.5906,2.6853,0,0,0,0,0,0,0,-1,608,743,-11.5906,-2.68529
-609,281,-16.1972,4.14838,0,0,0,0,0,0,0,-1,615,743,-16.1972,-4.14837
-602,281,-21.9772,6.77417,0,0,0,0,0,0,0,-1,622,743,-21.9771,-6.77415
-595,281,-10.4797,-1.07404,0,0,0,0,0,0,0,-1,629,743,-10.4798,1.07402
-588,281,-13.277,1.49817,0,0,0,0,0,0,0,-1,636,743,-13.2771,-1.49817
-581,281,-33.7628,1.63306,0,0,0,0,0,0,0,-1,643,743,-33.7628,-1.63307
-574,281,-33.5807,0.62561,-0.00044385,0.0060743,-0.00429613,0.00820765,-0.00257721,-1.10989,0.00650335,0.0473608,650,743,-33.5807,-0.625629
-567,281,-33.7591,-0.319946,-0.000290183,0.00452603,-0.00267839,0.0057197,-0.00148385,-1.15155,0.00439211,0.0228858,657,743,-33.7591,0.319965
-560,281,-33.8716,-1.3136,-0.000289666,0.00327813,-0.00165708,0.00392902,-0.000940557,-1.19652,0.00298272,0.00919157,664,743,-33.8716,1.3136
-553,281,-33.8987,-2.30072,-0.000221204,0.00226099,-0.00104792,0.00264423,-0.000604443,-1.22019,0.00199506,0.0151516,671,743,-33.8988,2.30075
-546,281,-33.9749,-3.23114,-0.00030849,0.00147937,-0.000601823,0.00166308,-0.000492198,-1.27453,0.00130412,0.0169903,678,743,-33.9749,3.23112
-539,281,-34.0446,-4.21814,-0.000636469,0.0008001,-0.0001197,0.000810006,-0.000646375,-1.48823,0.000842609,0.0151556,685,743,-34.0446,4.21815
-532,281,-34.0654,-5.14642,-0.001031,0.000313298,0.000152196,0.000330314,-0.00104802,1.45946,0.000830963,0.015642,692,743,-34.0654,5.1464
-525,281,-34.1662,-6.16919,-0.00145504,-0.00019171,0.000279906,-0.000132471,-0.00151428,1.36224,0.000968389,0.0180501,699,743,-34.1662,6.1692
-518,281,-34.2458,-7.17523,-0.00184498,-0.000823056,0.00068459,-0.000479767,-0.00218827,1.10599,0.00132813,0.0142224,706,743,-34.2458,7.17524
-511,281,-34.3084,-8.14465,-0.00218222,-0.00201757,0.00119756,-0.000899511,-0.00330028,0.819715,0.00197003,0.0147087,713,743,-34.3084,8.14467
-504,281,-34.4328,-9.12976,-0.00238219,-0.00397399,0.00149128,-0.00148772,-0.00486847,0.540275,0.00288077,0.0199849,720,743,-34.4328,9.12979
-497,281,-34.558,-10.094,0,0,0,0,0,0,0,-1,727,743,-34.5581,10.094
-490,281,-27.6985,-9.63165,0,0,0,0,0,0,0,-1,734,743,-27.6986,9.63165
-483,281,-22.1078,-2.34973,0,0,0,0,0,0,0,-1,741,743,-22.1078,2.3497
-476,281,-28.0016,2.17786,0,0,0,0,0,0,0,-1,748,743,-28.0016,-2.17786
-469,281,-34.6448,0.171692,0,0,0,0,0,0,0,-1,755,743,-34.6448,-0.171685
-462,281,-46.6214,0.0193481,0,0,0,0,0,0,0,-1,762,743,-46.6214,-0.0193665
-455,281,-56.0239,-0.1521,0,0,0,0,0,0,0,-1,769,743,-56.024,0.152123
-448,281,-55.8145,0.304321,0,0,0,0,0,0,0,-1,776,743,-55.8145,-0.304294
-441,281,-55.4486,0.766052,0,0,0,0,0,0,0,-1,783,743,-55.4486,-0.766078
-434,281,0,0,0,0,0,0,0,0,0,-1,790,743,0,0
-427,281,0,0,0,0,0,0,0,0,0,-1,797,743,0,0
-420,281,0,0,0,0,0,0,0,0,0,-1,804,743,0,0
-413,281,0,0,0,0,0,0,0,0,0,-1,811,743,0,0
-406,281,0,0,0,0,0,0,0,0,0,-1,818,743,0,0
-399,281,0,0,0,0,0,0,0,0,0,-1,825,743,0,0
-392,281,0,0,0,0,0,0,0,0,0,-1,832,743,0,0
-385,281,0,0,0,0,0,0,0,0,0,-1,839,743,0,0
-378,281,0,0,0,0,0,0,0,0,0,-1,846,743,0,0
-371,281,0,0,0,0,0,0,0,0,0,-1,853,743,0,0
-364,281,0,0,0,0,0,0,0,0,0,-1,860,743,0,0
-357,281,0,0,0,0,0,0,0,0,0,-1,867,743,0,0
-350,281,0,0,0,0,0,0,0,0,0,-1,874,743,0,0
-343,281,0,0,0,0,0,0,0,0,0,-1,881,743,0,0
-336,281,0,0,0,0,0,0,0,0,0,-1,888,743,0,0
-329,281,0,0,0,0,0,0,0,0,0,-1,895,743,0,0
-322,281,0,0,0,0,0,0,0,0,0,-1,902,743,0,0
-315,281,0,0,0,0,0,0,0,0,0,-1,909,743,0,0
-308,281,0,0,0,0,0,0,0,0,0,-1,916,743,0,0
-301,281,0,0,0,0,0,0,0,0,0,-1,923,743,0,0
-294,281,0,0,0,0,0,0,0,0,0,-1,930,743,0,0
-287,281,0,0,0,0,0,0,0,0,0,-1,937,743,0,0
-280,281,0,0,0,0,0,0,0,0,0,-1,944,743,0,0
-273,281,0,0,0,0,0,0,0,0,0,-1,951,743,0,0
-266,281,0,0,0,0,0,0,0,0,0,-1,958,743,0,0
-259,281,0,0,0,0,0,0,0,0,0,-1,965,743,0,0
-252,281,0,0,0,0,0,0,0,0,0,-1,972,743,0,0
-245,281,0,0,0,0,0,0,0,0,0,-1,979,743,0,0
-238,281,0,0,0,0,0,0,0,0,0,-1,986,743,0,0
-231,281,0,0,0,0,0,0,0,0,0,-1,993,743,0,0
-224,281,0,0,0,0,0,0,0,0,0,-1,1000,743,0,0
-217,281,0,0,0,0,0,0,0,0,0,-1,1007,743,0,0
-210,281,0,0,0,0,0,0,0,0,0,-1,1014,743,0,0
-203,281,0,0,0,0,0,0,0,0,0,-1,1021,743,0,0
-196,281,0,0,0,0,0,0,0,0,0,-1,1028,743,0,0
-189,281,0,0,0,0,0,0,0,0,0,-1,1035,743,0,0
-182,281,0,0,0,0,0,0,0,0,0,-1,1042,743,0,0
-175,281,0,0,0,0,0,0,0,0,0,-1,1049,743,0,0
-168,281,0,0,0,0,0,0,0,0,0,-1,1056,743,0,0
-161,281,0,0,0,0,0,0,0,0,0,-1,1063,743,0,0
-154,281,0,0,0,0,0,0,0,0,0,-1,1070,743,0,0
-147,281,0,0,0,0,0,0,0,0,0,-1,1077,743,0,0
-140,281,0,0,0,0,0,0,0,0,0,-1,1084,743,0,0
-133,281,0,0,0,0,0,0,0,0,0,-1,1091,743,0,0
-126,281,0,0,0,0,0,0,0,0,0,-1,1098,743,0,0
-119,281,0,0,0,0,0,0,0,0,0,-1,1105,743,0,0
-112,281,0,0,0,0,0,0,0,0,0,-1,1112,743,0,0
-105,281,0,0,0,0,0,0,0,0,0,-1,1119,743,0,0
-98,281,0,0,0,0,0,0,0,0,0,-1,1126,743,0,0
-91,281,0,0,0,0,0,0,0,0,0,-1,1133,743,0,0
-84,281,0,0,0,0,0,0,0,0,0,-1,1140,743,0,0
-77,281,0,0,0,0,0,0,0,0,0,-1,1147,743,0,0
-70,281,0,0,0,0,0,0,0,0,0,-1,1154,743,0,0
-63,281,0,0,0,0,0,0,0,0,0,-1,1161,743,0,0
-56,281,0,0,0,0,0,0,0,0,0,-1,1168,743,0,0
-49,281,0,0,0,0,0,0,0,0,0,-1,1175,743,0,0
-42,281,0,0,0,0,0,0,0,0,0,-1,1182,743,0,0
-35,281,0,0,0,0,0,0,0,0,0,-1,1189,743,0,0
-28,281,0,0,0,0,0,0,0,0,0,-1,1196,743,0,0
-21,281,0,0,0,0,0,0,0,0,0,-1,1203,743,0,0
-14,281,0,0,0,0,0,0,0,0,0,-1,1210,743,0,0
-7,281,0,0,0,0,0,0,0,0,0,-1,1217,743,0,0
0,281,0,0,0,0,0,0,0,0,0,-1,1224,743,0,0
7,281,0,0,0,0,0,0,0,0,0,-1,1231,743,0,0
14,281,0,0,0,0,0,0,0,0,0,-1,1238,743,0,0
21,281,0,0,0,0,0,0,0,0,0,-1,1245,743,0,0
28,281,0,0,0,0,0,0,0,0,0,-1,1252,743,0,0
35,281,0,0,0,0,0,0,0,0,0,-1,1259,743,0,0
42,281,0,0,0,0,0,0,0,0,0,-1,1266,743,0,0
49,281,0,0,0,0,0,0,0,0,0,-1,1273,743,0,0
56,281,0,0,0,0,0,0,0,0,0,-1,1280,743,0,0
63,281,0,0,0,0,0,0,0,0,0,-1,1287,743,0,0
70,281,0,0,0,0,0,0,0,0,0,-1,1294,743,0,0
77,281,0,0,0,0,0,0,0,0,0,-1,1301,743,0,0
84,281,0,0,0,0,0,0,0,0,0,-1,1308,743,0,0
91,281,0,0,0,0,0,0,0,0,0,-1,1315,743,0,0
98,281,0,0,0,0,0,0,0,0,0,-1,1322,743,0,0
105,281,0,0,0,0,0,0,0,0,0,-1,1329,743,0,0
112,281,0,0,0,0,0,0,0,0,0,-1,1336,743,0,0
119,281,0,0,0,0,0,0,0,0,0,-1,1343,743,0,0
126,281,0,0,0,0,0,0,0,0,0,-1,1350,743,0,0
133,281,0,0,0,0,0,0,0,0,0,-1,1357,743,0,0
140,281,0,0,0,0,0,0,0,0,0,-1,1364,743,0,0
147,281,0,0,0,0,0,0,0,0,0,-1,1371,743,0,0
154,281,0,0,0,0,0,0,0,0,0,-1,1378,743,0,0
161,281,0,0,0,0,0,0,0,0,0,-1,1385,743,0,0
168,281,0,0,0,0,0,0,0,0,0,-1,1392,743,0,0
175,281,0,0,0,0,0,0,0,0,0,-1,1399,743,0,0
182,281,0,0,0,0,0,0,0,0,0,-1,1406,743,0,0
189,281,0,0,0,0,0,0,0,0,0,-1,1413,743,0,0
196,281,0,0,0,0,0,0,0,0,0,-1,1420,743,0,0
203,281,0,0,0,0,0,0,0,0,0,-1,1427,743,0,0
210,281,0,0,0,0,0,0,0,0,0,-1,1434,743,0,0
217,281,0,0,0,0,0,0,0,0,0,-1,1441,743,0,0
224,281,0,0,0,0,0,0,0,0,0,-1,1448,743,0,0
231,281,0,0,0,0,0,0,0,0,0,-1,1455,743,0,0
238,281,0,0,0,0,0,0,0,0,0,-1,1462,743,0,0
245,281,0,0,0,0,0,0,0,0,0,-1,1469,743,0,0
252,281,0,0,0,0,0,0,0,0,0,-1,1476,743,0,0
259,281,0,0,0,0,0,0,0,0,0,-1,1483,743,0,0
266,281,0,0,0,0,0,0,0,0,0,-1,1490,743,0,0
273,281,0,0,0,0,0,0,0,0,0,-1,1497,743,0,0
280,281,0,0,0,0,0,0,0,0,0,-1,1504,743,0,0
287,281,0,0,0,0,0,0,0,0,0,-1,1511,743,0,0
294,281,0,0,0,0,0,0,0,0,0,-1,1518,743,0,0
301,281,0,0,0,0,0,0,0,0,0,-1,1525,743,0,0
308,281,0,0,0,0,0,0,0,0,0,-1,1532,743,0,0
315,281,0,0,0,0,0,0,0,0,0,-1,1539,743,0,0
322,281,0,0,0,0,0,0,0,0,0,-1,1546,743,0,0
329,281,0,0,0,0,0,0,0,0,0,-1,1553,743,0,0
336,281,0,0,0,0,0,0,0,0,0,-1,1560,743,0,0
343,281,0,0,0,0,0,0,0,0,0,-1,1567,743,0,0
350,281,0,0,0,0,0,0,0,0,0,-1,1574,743,0,0
357,281,0,0,0,0,0,0,0,0,0,-1,1581,743,0,0
364,281,0,0,0,0,0,0,0,0,0,-1,1588,743,0,0
371,281,0,0,0,0,0,0,0,0,0,-1,1595,743,0,0
378,281,0,0,0,0,0,0,0,0,0,-1,1602,743,0,0
385,281,0,0,0,0,0,0,0,0,0,-1,1609,743,0,0
392,281,0,0,0,0,0,0,0,0,0,-1,1616,743,0,0
399,281,0,0,0,0,0,0,0,0,0,-1,1623,743,0,0
406,281,0,0,0,0,0,0,0,0,0,-1,1630,743,0,0
413,281,0,0,0,0,0,0,0,0,0,-1,1637,743,0,0
420,281,0,0,0,0,0,0,0,0,0,-1,1644,743,0,0
427,281,0,0,0,0,0,0,0,0,0,-1,1651,743,0,0
434,281,0,0,0,0,0,0,0,0,0,-1,1658,743,0,0
441,281,0,0,0,0,0,0,0,0,0,-1,1665,743,0,0
448,281,0,0,0,0,0,0,0,0,0,-1,1672,743,0,0
455,281,0,0,0,0,0,0,0,0,0,-1,1679,743,0,0
462,281,0,0,0,0,0,0,0,0,0,-1,1686,743,0,0
469,281,0,0,0,0,0,0,0,0,0,-1,1693,743,0,0
476,281,0,0,0,0,0,0,0,0,0,-1,1700,743,0,0
483,281,0,0,0,0,0,0,0,0,0,-1,1707,743,0,0
490,281,0,0,0,0,0,0,0,0,0,-1,1714,743,0,0
497,281,0,0,0,0,0,0,0,0,0,-1,1721,743,0,0
504,281,0,0,0,0,0,0,0,0,0,-1,1728,743,0,0
511,281,0,0,0,0,0,0,0,0,0,-1,1735,743,0,0
518,281,0,0,0,0,0,0,0,0,0,-1,1742,743,0,0
525,281,0,0,0,0,0,0,0,0,0,-1,1749,743,0,0
532,281,0,0,0,0,0,0,0,0,0,-1,1756,743,0,0
539,281,0,0,0,0,0,0,0,0,0,-1,1763,743,0,0
546,281,0,0,0,0,0,0,0,0,0,-1,1770,743,0,0
553,281,0,0,0,0,0,0,0,0,0,-1,1777,743,0,0
560,281,57.8354,3.06482,0,0,0,0,0,0,0,-1,1784,743,57.8354,-3.06479
567,281,57.6156,3.64508,0,0,0,0,0,0,0,-1,1791,743,57.6156,-3.64511
574,281,57.3431,4.17767,0,0,0,0,0,0,0,-1,1798,743,57.3431,-4.17769
581,281,57.0648,4.53906,0,0,0,0,0,0,0,-1,1805,743,57.0648,-4.53908
588,281,53.5422,6.00092,0,0,0,0,0,0,0,-1,1812,743,53.5422,-6.00092
595,281,54.8569,3.32269,0,0,0,0,0,0,0,-1,1819,743,54.857,-3.32269
602,281,45.9985,3.98254,0,0,0,0,0,0,0,-1,1826,743,45.9985,-3.98254
609,281,32.7925,1.28723,0,0,0,0,0,0,0,-1,1833,743,32.7925,-1.28722
616,281,21.3191,-0.253906,0,0,0,0,0,0,0,-1,1840,743,21.3191,0.253931
623,281,31.8741,-4.74182,0,0,0,0,0,0,0,-1,1847,743,31.8741,4.74184
630,281,50.1848,-9.00348,0,0,0,0,0,0,0,-1,1854,743,50.1848,9.00348
637,281,50.1935,-8.03094,0.0031244,0.00113476,0.00103784,0.00356721,0.00069195,0.403281,0.00218434,0.0258312,1861,743,50.1934,8.03092
644,281,50.2141,-7.05646,0.00219146,0.00088826,0.000782893,0.00255844,0.000521282,0.438334,0.00156115,0.0105777,1868,743,50.2141,7.05643
651,281,50.1936,-6.08191,0.00142145,0.000620035,0.000524334,0.00168067,0.000360825,0.459126,0.00102163,0.01183,1875,743,50.1936,6.08191
658,281,50.1648,-5.11578,0.00131065,0.000611269,0.000515211,0.00158364,0.000338284,0.487242,0.000963012,0.0207997,1882,743,50.1648,5.11576
665,281,50.0685,-4.18396,0.00131231,0.000906523,0.000664421,0.00180412,0.000414706,0.637212,0.00109111,0.0221022,1889,743,50.0685,4.18397
672,281,49.9713,-3.16876,0.00146888,0.00131149,0.000955363,0.00234878,0.000431585,0.744306,0.00144366,0.0153536,1896,743,49.9713,3.16877
679,281,49.9022,-2.20166,0.0017905,0.00182086,0.00132049,0.00312625,0.000485104,0.791147,0.00194276,0.0239932,1903,743,49.9023,2.20165
686,281,49.7797,-1.26495,0.00227039,0.00234731,0.00175617,0.00406544,0.000552251,0.796347,0.00254625,0.0186932,1910,743,49.7796,1.26494
693,281,49.7478,-0.286255,0.00305651,0.00298529,0.00233112,0.00535229,0.00068951,0.777761,0.00336201,0.0140571,1917,743,49.7478,0.286244
700,281,49.6953,0.77002,0.00407947,0.00371388,0.00307211,0.00697421,0.000819137,0.755682,0.00440191,0.0495352,1924,743,49.6953,-0.770025
707,281,49.8069,1.81653,0,0,0,0,0,0,0,-1,1931,743,49.8069,-1.81655
714,281,25.0125,2.5105,0,0,0,0,0,0,0,-1,1938,743,25.0124,-2.51053
721,281,16.9656,3.22174,0,0,0,0,0,0,0,-1,1945,743,16.9656,-3.22172
728,281,19.0251,3.63934,0,0,0,0,0,0,0,-1,1952,743,19.0252,-3.63932
735,281,19.0869,2.50311,0,0,0,0,0,0,0,-1,1959,743,19.0869,-2.5031
742,281,0,0,0,0,0,0,0,0,0,-1,1966,743,0,0
749,281,0,0,0,0,0,0,0,0,0,-1,1973,743,0,0
756,281,0,0,0,0,0,0,0,0,0,-1,1980,743,0,0
763,281,0,0,0,0,0,0,0,0,0,-1,1987,743,0,0
770,281,0,0,0,0,0,0,0,0,0,-1,1994,743,0,0
777,281,0,0,0,0,0,0,0,0,0,-1,2001,743,0,0
784,281,0,0,0,0,0,0,0,0,0,-1,2008,743,0,0
791,281,0,0,0,0,0,0,0,0,0,-1,2015,743,0,0
798,281,0,0,0,0,0,0,0,0,0,-1,2022,743,0,0
805,281,0,0,0,0,0,0,0,0,0,-1,2029,743,0,0
812,281,0,0,0,0,0,0,0,0,0,-1,2036,743,0,0
-700,274,0,0,0,0,0,0,0,0,0,-1,524,750,0,0
-693,274,0,0,0,0,0,0,0,0,0,-1,531,750,0,0
-686,274,0,0,0,0,0,0,0,0,0,-1,538,750,0,0
-679,274,0,0,0,0,0,0,0,0,0,-1,545,750,0,0
-672,274,0,0,0,0,0,0,0,0,0,-1,552,750,0,0
-665,274,0,0,0,0,0,0,0,0,0,-1,559,750,0,0
-658,274,0,0,0,0,0,0,0,0,0,-1,566,750,0,0
-651,274,0,0,0,0,0,0,0,0,0,-1,573,750,0,0
-644,274,0,0,0,0,0,0,0,0,0,-1,580,750,0,0
-637,274,0,0,0,0,0,0,0,0,0,-1,587,750,0,0
-630,274,0,0,0,0,0,0,0,0,0,-1,594,750,0,0
-623,274,-19.6909,5.12701,0,0,0,0,0,0,0,-1,601,750,-19.6908,-5.12703
-616,274,-17.9133,3.9024,0,0,0,0,0,0,0,-1,608,750,-17.9133,-3.90239
-609,274,-26.0861,5.57306,0,0,0,0,0,0,0,-1,615,750,-26.0861,-5.57307
-602,274,-25.7372,3.73846,0,0,0,0,0,0,0,-1,622,750,-25.7372,-3.73849
-595,274,-25.258,2.53473,0,0,0,0,0,0,0,-1,629,750,-25.258,-2.53474
-588,274,-24.9805,2.2334,0,0,0,0,0,0,0,-1,636,750,-24.9805,-2.23341
-581,274,-34.6525,1.51355,0,0,0,0,0,0,0,-1,643,750,-34.6524,-1.51355
-574,274,-34.4874,0.603516,0.000712066,0.00514129,-0.00469019,0.00811343,-0.00226007,-1.00597,0.00629895,0.032428,650,750,-34.4873,-0.60349
-567,274,-34.7717,-0.291382,0.000285539,0.00379284,-0.00281653,0.00535704,-0.00127866,-1.06384,0.00406517,0.0314548,657,750,-34.7717,0.291392
-560,274,-34.8315,-1.20691,-8.19447e-05,0.00271957,-0.00163742,0.00347364,-0.000836013,-1.13923,0.00263895,0.0153634,664,750,-34.8315,1.2069
-553,274,-34.8956,-2.21295,-0.000315202,0.00189826,-0.000905094,0.00222123,-0.000638173,-1.22804,0.00173316,0.0104089,671,750,-34.8956,2.21297
-546,274,-34.9722,-3.18494,-0.000598358,0.00120113,-0.000388611,0.00128146,-0.000678695,-1.36694,0.0011494,0.012027,678,750,-34.9723,3.18493
-539,274,-35.0346,-4.15839,-0.00107794,0.000595636,0.00011439,0.000603418,-0.00108572,1.50287,0.000988389,0.0125214,685,750,-35.0346,4.15837
-532,274,-35.091,-5.11639,-0.00154814,0.000203258,0.000316229,0.000258607,-0.00160349,1.39753,0.00116481,0.0142387,692,750,-35.091,5.11638
-525,274,-35.161,-6.08527,-0.00192979,-0.000213011,0.000317628,-0.00015613,-0.00198667,1.39359,0.00127559,0.0151729,699,750,-35.161,6.08529
-518,274,-35.2186,-7.10602,-0.00217986,-0.000870919,0.000625245,-0.000620258,-0.00243052,1.18951,0.00145825,0.0160387,706,750,-35.2187,7.10602
-511,274,-35.2726,-8.13281,-0.00234453,-0.00217174,0.00106529,-0.00118935,-0.00332692,0.825859,0.00194663,0.025521,713,750,-35.2726,8.13278
-504,274,-35.4891,-9.23346,-0.00239679,-0.00418215,0.00124517,-0.00175737,-0.00482157,0.474404,0.00281761,0.0456829,720,750,-35.4891,9.23344
-497,274,-35.8159,-10.3746,0,0,0,0,0,0,0,-1,727,750,-35.8159,10.3746
-490,274,-13.6545,-3.58826,0,0,0,0,0,0,0,-1,734,750,-13.6546,3.58825
-483,274,-27.8608,1.30981,0,0,0,0,0,0,0,-1,741,750,-27.8608,-1.30979
-476,274,-33.7561,-0.508606,0,0,0,0,0,0,0,-1,748,750,-33.7561,0.508636
-469,274,-41.1387,0.907715,0,0,0,0,0,0,0,-1,755,750,-41.1387,-0.907744
-462,274,-56.4362,0.240723,0,0,0,0,0,0,0,-1,762,750,-56.4362,-0.240732
-455,274,-63.8356,0.142822,0,0,0,0,0,0,0,-1,769,750,-63.8357,-0.142803
-448,274,-56.1052,0.421143,0,0,0,0,0,0,0,-1,776,750,-56.1052,-0.421134
-441,274,0,0,0,0,0,0,0,0,0,-1,783,750,0,0
-434,274,0,0,0,0,0,0,0,0,0,-1,790,750,0,0
-427,274,0,0,0,0,0,0,0,0,0,-1,797,750,0,0
-420,274,0,0,0,0,0,0,0,0,0,-1,804,750,0,0
-413,274,0,0,0,0,0,0,0,0,0,-1,811,750,0,0
-406,274,0,0,0,0,0,0,0,0,0,-1,818,750,0,0
-399,274,0,0,0,0,0,0,0,0,0,-1,825,750,0,0
-392,274,0,0,0,0,0,0,0,0,0,-1,832,750,0,0
-385,274,0,0,0,0,0,0,0,0,0,-1,839,750,0,0
-378,274,0,0,0,0,0,0,0,0,0,-1,846,750,0,0
-371,274,0,0,0,0,0,0,0,0,0,-1,853,750,0,0
-364,274,0,0,0,0,0,0,0,0,0,-1,860,750,0,0
-357,274,0,0,0,0,0,0,0,0,0,-1,867,750,0,0
-350,274,0,0,0,0,0,0,0,0,0,-1,874,750,0,0
-343,274,0,0,0,0,0,0,0,0,0,-1,881,750,0,0
-336,274,0,0,0,0,0,0,0,0,0,-1,888,750,0,0
-329,274,0,0,0,0,0,0,0,0,0,-1,895,750,0,0
-322,274,0,0,0,0,0,0,0,0,0,-1,902,750,0,0
-315,274,0,0,0,0,0,0,0,0,0,-1,909,750,0,0
-308,274,0,0,0,0,0,0,0,0,0,-1,916,750,0,0
-301,274,0,0,0,0,0,0,0,0,0,-1,923,750,0,0
-294,274,0,0,0,0,0,0,0,0,0,-1,930,750,0,0
-287,274,0,0,0,0,0,0,0,0,0,-1,937,750,0,0
-280,274,0,0,0,0,0,0,0,0,0,-1,944,750,0,0
-273,274,0,0,0,0,0,0,0,0,0,-1,951,750,0,0
-266,274,0,0,0,0,0,0,0,0,0,-1,958,750,0,0
-259,274,0,0,0,0,0,0,0,0,0,-1,965,750,0,0
-252,274,0,0,0,0,0,0,0,0,0,-1,972,750,0,0
-245,274,0,0,0,0,0,0,0,0,0,-1,979,750,0,0
-238,274,0,0,0,0,0,0,0,0,0,-1,986,750,0,0
-231,274,0,0,0,0,0,0,0,0,0,-1,993,750,0,0
-224,274,0,0,0,0,0,0,0,0,0,-1,1000,750,0,0
-217,274,0,0,0,0,0,0,0,0,0,-1,1007,750,0,0
-210,274,0,0,0,0,0,0,0,0,0,-1,1014,750,0,0
-203,274,0,0,0,0,0,0,0,0,0,-1,1021,750,0,0
-196,274,0,0,0,0,0,0,0,0,0,-1,1028,750,0,0
-189,274,0,0,0,0,0,0,0,0,0,-1,1035,750,0,0
-182,274,0,0,0,0,0,0,0,0,0,-1,1042,750,0,0
-175,274,0,0,0,0,0,0,0,0,0,-1,1049,750,0,0
-168,274,0,0,0,0,0,0,0,0,0,-1,1056,750,0,0
-161,274,0,0,0,0,0,0,0,0,0,-1,1063,750,0,0
-154,274,0,0,0,0,0,0,0,0,0,-1,1070,750,0,0
-147,274,0,0,0,0,0,0,0,0,0,-1,1077,750,0,0
-140,274,0,0,0,0,0,0,0,0,0,-1,1084,750,0,0
-133,274,0,0,0,0,0,0,0,0,0,-1,1091,750,0,0
-126,274,0,0,0,0,0,0,0,0,0,-1,1098,750,0,0
-119,274,0,0,0,0,0,0,0,0,0,-1,1105,750,0,0
-112,274,0,0,0,0,0,0,0,0,0,-1,1112,750,0,0
-105,274,0,0,0,0,0,0,0,0,0,-1,1119,750,0,0
-98,274,0,0,0,0,0,0,0,0,0,-1,1126,750,0,0
-91,274,0,0,0,0,0,0,0,0,0,-1,1133,750,0,0
-84,274,0,0,0,0,0,0,0,0,0,-1,1140,750,0,0
-77,274,0,0,0,0,0,0,0,0,0,-1,1147,750,0,0
-70,274,0,0,0,0,0,0,0,0,0,-1,1154,750,0,0
-63,274,0,0,0,0,0,0,0,0,0,-1,1161,750,0,0
-56,274,0,0,0,0,0,0,0,0,0,-1,1168,750,0,0
-49,274,0,0,0,0,0,0,0,0,0,-1,1175,750,0,0
-42,274,0,0,0,0,0,0,0,0,0,-1,1182,750,0,0
-35,274,0,0,0,0,0,0,0,0,0,-1,1189,750,0,0
-28,274,0,0,0,0,0,0,0,0,0,-1,1196,750,0,0
-21,274,0,0,0,0,0,0,0,0,0,-1,1203,750,0,0
-14,274,0,0,0,0,0,0,0,0,0,-1,1210,750,0,0
-7,274,0,0,0,0,0,0,0,0,0,-1,1217,750,0,0
0,274,0,0,0,0,0,0,0,0,0,-1,1224,750,0,0
7,274,0,0,0,0,0,0,0,0,0,-1,1231,750,0,0
14,274,0,0,0,0,0,0,0,0,0,-1,1238,750,0,0
21,274,0,0,0,0,0,0,0,0,0,-1,1245,750,0,0
28,274,0,0,0,0,0,0,0,0,0,-1,1252,750,0,0
35,274,0,0,0,0,0,0,0,0,0,-1,1259,750,0,0
42,274,0,0,0,0,0,0,0,0,0,-1,1266,750,0,0
49,274,0,0,0,0,0,0,0,0,0,-1,1273,750,0,0
56,274,0,0,0,0,0,0,0,0,0,-1,1280,750,0,0
63,274,0,0,0,0,0,0,0,0,0,-1,1287,750,0,0
70,274,0,0,0,0,0,0,0,0,0,-1,1294,750,0,0
77,274,0,0,0,0,0,0,0,0,0,-1,1301,750,0,0
84,274,0,0,0,0,0,0,0,0,0,-1,1308,750,0,0
91,274,0,0,0,0,0,0,0,0,0,-1,1315,750,0,0
98,274,0,0,0,0,0,0,0,0,0,-1,1322,750,0,0
105,274,0,0,0,0,0,0,0,0,0,-1,1329,750,0,0
112,274,0,0,0,0,0,0,0,0,0,-1,1336,750,0,0
119,274,0,0,0,0,0,0,0,0,0,-1,1343,750,0,0
126,274,0,0,0,0,0,0,0,0,0,-1,1350,750,0,0
133,274,0,0,0,0,0,0,0,0,0,-1,1357,750,0,0
140,274,0,0,0,0,0,0,0,0,0,-1,1364,750,0,0
147,274,0,0,0,0,0,0,0,0,0,-1,1371,750,0,0
154,274,0,0,0,0,0,0,0,0,0,-1,1378,750,0,0
161,274,0,0,0,0,0,0,0,0,0,-1,1385,750,0,0
168,274,0,0,0,0,0,0,0,0,0,-1,1392,750,0,0
175,274,0,0,0,0,0,0,0,0,0,-1,1399,750,0,0
182,274,0,0,0,0,0,0,0,0,0,-1,1406,750,0,0
189,274,0,0,0,0,0,0,0,0,0,-1,1413,750,0,0
196,274,0,0,0,0,0,0,0,0,0,-1,1420,750,0,0
203,274,0,0,0,0,0,0,0,0,0,-1,1427,750,0,0
210,274,0,0,0,0,0,0,0,0,0,-1,1434,750,0,0
217,274,0,0,0,0,0,0,0,0,0,-1,1441,750,0,0
224,274,0,0,0,0,0,0,0,0,0,-1,1448,750,0,0
231,274,0,0,0,0,0,0,0,0,0,-1,1455,750,0,0
238,274,0,0,0,0,0,0,0,0,0,-1,1462,750,0,0
245,274,0,0,0,0,0,0,0,0,0,-1,1469,750,0,0
252,274,0,0,0,0,0,0,0,0,0,-1,1476,750,0,0
259,274,0,0,0,0,0,0,0,0,0,-1,1483,750,0,0
266,274,0,0,0,0,0,0,0,0,0,-1,1490,750,0,0
273,274,0,0,0,0,0,0,0,0,0,-1,1497,750,0,0
280,274,0,0,0,0,0,0,0,0,0,-1,1504,750,0,0
287,274,0,0,0,0,0,0,0,0,0,-1,1511,750,0,0
294,274,0,0,0,0,0,0,0,0,0,-1,1518,750,0,0
301,274,0,0,0,0,0,0,0,0,0,-1,1525,750,0,0
308,274,0,0,0,0,0,0,0,0,0,-1,1532,750,0,0
315,274,0,0,0,0,0,0,0,0,0,-1,1539,750,0,0
322,274,0,0,0,0,0,0,0,0,0,-1,1546,750,0,0
329,274,0,0,0,0,0,0,0,0,0,-1,1553,750,0,0
336,274,0,0,0,0,0,0,0,0,0,-1,1560,750,0,0
343,274,0,0,0,0,0,0,0,0,0,-1,1567,750,0,0
350,274,0,0,0,0,0,0,0,0,0,-1,1574,750,0,0
357,274,0,0,0,0,0,0,0,0,0,-1,1581,750,0,0
364,274,0,0,0,0,0,0,0,0,0,-1,1588,750,0,0
371,274,0,0,0,0,0,0,0,0,0,-1,1595,750,0,0
378,274,0,0,0,0,0,0,0,0,0,-1,1602,750,0,0
385,274,0,0,0,0,0,0,0,0,0,-1,1609,750,0,0
392,274,0,0,0,0,0,0,0,0,0,-1,1616,750,0,0
399,274,0,0,0,0,0,0,0,0,0,-1,1623,750,0,0
406,274,0,0,0,0,0,0,0,0,0,-1,1630,750,0,0
413,274,0,0,0,0,0,0,0,0,0,-1,1637,750,0,0
420,274,0,0,0,0,0,0,0,0,0,-1,1644,750,0,0
427,274,0,0,0,0,0,0,0,0,0,-1,1651,750,0,0
434,274,0,0,0,0,0,0,0,0,0,-1,1658,750,0,0
441,274,0,0,0,0,0,0,0,0,0,-1,1665,750,0,0
448,274,0,0,0,0,0,0,0,0,0,-1,1672,750,0,0
455,274,0,0,0,0,0,0,0,0,0,-1,1679,750,0,0
462,274,0,0,0,0,0,0,0,0,0,-1,1686,750,0,0
469,274,0,0,0,0,0,0,0,0,0,-1,1693,750,0,0
476,274,0,0,0,0,0,0,0,0,0,-1,1700,750,0,0
483,274,0,0,0,0,0,0,0,0,0,-1,1707,750,0,0
490,274,0,0,0,0,0,0,0,0,0,-1,1714,750,0,0
497,274,0,0,0,0,0,0,0,0,0,-1,1721,750,0,0
504,274,0,0,0,0,0,0,0,0,0,-1,1728,750,0,0
511,274,0,0,0,0,0,0,0,0,0,-1,1735,750,0,0
518,274,0,0,0,0,0,0,0,0,0,-1,1742,750,0,0
525,274,0,0,0,0,0,0,0,0,0,-1,1749,750,0,0
532,274,0,0,0,0,0,0,0,0,0,-1,1756,750,0,0
539,274,0,0,0,0,0,0,0,0,0,-1,1763,750,0,0
546,274,0,0,0,0,0,0,0,0,0,-1,1770,750,0,0
553,274,0,0,0,0,0,0,0,0,0,-1,1777,750,0,0
560,274,57.9182,3.24518,0,0,0,0,0,0,0,-1,1784,750,57.9182,-3.24516
567,274,57.8315,3.4137,0,0,0,0,0,0,0,-1,1791,750,57.8315,-3.41368
574,274,58.2571,3.11115,0,0,0,0,0,0,0,-1,1798,750,58.2571,-3.11114
581,274,54.4941,4.68127,0,0,0,0,0,0,0,-1,1805,750,54.4941,-4.68125
588,274,53.9908,5.6676,0,0,0,0,0,0,0,-1,1812,750,53.9908,-5.66763
595,274,66.2316,2.66986,0,0,0,0,0,0,0,-1,1819,750,66.2315,-2.66988
602,274,55.6321,2.56519,0,0,0,0,0,0,0,-1,1826,750,55.6321,-2.56521
609,274,44.6676,3.10461,0,0,0,0,0,0,0,-1,1833,750,44.6676,-3.1046
616,274,32.7869,1.78436,0,0,0,0,0,0,0,-1,1840,750,32.7868,-1.78437
623,274,24.8231,-1.80353,0,0,0,0,0,0,0,-1,1847,750,24.8232,1.80351
630,274,51.2185,-9.02631,0,0,0,0,0,0,0,-1,1854,750,51.2185,9.02629
637,274,51.106,-8.07703,0.00275197,0.00147367,0.0010223,0.00331848,0.000907162,0.506024,0.00198045,0.0341351,1861,750,51.106,8.07702
644,274,51.1498,-7.02344,0.00183957,0.0012703,0.000885903,0.00248544,0.000624428,0.62996,0.001493,0.0158373,1868,750,51.1497,7.02343
651,274,51.1281,-6.01947,0.000977946,0.000802334,0.000534822,0.00143212,0.000348158,0.704035,0.000862447,0.0143319,1875,750,51.128,6.01947
658,274,51.0807,-5.04688,0.000943414,0.000513586,0.000363571,0.00115084,0.000306159,0.518466,0.000688259,0.0172009,1882,750,51.0807,5.04688
665,274,51.0098,-4.07739,0.00100681,0.00064011,0.000407017,0.00126987,0.000377052,0.573775,0.000753045,0.0173135,1889,750,51.0098,4.07741
672,274,50.9568,-3.11005,0.00109871,0.000981273,0.000597703,0.00164057,0.000439411,0.736435,0.000980629,0.0152598,1896,750,50.9568,3.11006
679,274,50.8745,-2.12769,0.00130464,0.00141584,0.000872057,0.00223407,0.000486415,0.817234,0.00135663,0.016971,1903,750,50.8745,2.12769
686,274,50.7788,-1.16284,0.00163076,0.00186511,0.00119835,0.002952,0.000543869,0.834134,0.00181409,0.0190126,1910,750,50.7788,1.16282
693,274,50.7086,-0.183105,0.00216658,0.00234622,0.00160675,0.00386566,0.000647139,0.813319,0.00239077,0.0138345,1917,750,50.7086,0.1831
700,274,50.6682,0.867798,0.00288035,0.00286895,0.00213162,0.00500628,0.000743028,0.784061,0.00311948,0.020755,1924,750,50.6682,-0.867809
707,274,50.6788,1.92279,0,0,0,0,0,0,0,-1,1931,750,50.6789,-1.92278
714,274,49.125,2.56622,0,0,0,0,0,0,0,-1,1938,750,49.1251,-2.5662
721,274,25.6215,3.91144,0,0,0,0,0,0,0,-1,1945,750,25.6214,-3.91141
728,274,19.2209,3.95154,0,0,0,0,0,0,0,-1,1952,750,19.221,-3.95151
735,274,20.6608,4.10931,0,0,0,0,0,0,0,-1,1959,750,20.6607,-4.10932
742,274,11.7815,-0.740234,0,0,0,0,0,0,0,-1,1966,750,11.7815,0.740253
749,274,0,0,0,0,0,0,0,0,0,-1,1973,750,0,0
756,274,0,0,0,0,0,0,0,0,0,-1,1980,750,0,0
763,274,0,0,0,0,0,0,0,0,0,-1,1987,750,0,0
770,274,0,0,0,0,0,0,0,0,0,-1,1994,750,0,0
777,274,0,0,0,0,0,0,0,0,0,-1,2001,750,0,0
784,274,0,0,0,0,0,0,0,0,0,-1,2008,750,0,0
791,274,0,0,0,0,0,0,0,0,0,-1,2015,750,0,0
798,274,0,0,0,0,0,0,0,0,0,-1,2022,750,0,0
805,274,0,0,0,0,0,0,0,0,0,-1,2029,750,0,0
812,274,0,0,0,0,0,0,0,0,0,-1,2036,750,0,0
-700,267,0,0,0,0,0,0,0,0,0,-1,524,757,0,0
-693,267,0,0,0,0,0,0,0,0,0,-1,531,757,0,0
-686,267,0,0,0,0,0,0,0,0,0,-1,538,757,0,0
-679,267,0,0,0,0,0,0,0,0,0,-1,545,757,0,0
-672,267,0,0,0,0,0,0,0,0,0,-1,552,757,0,0
-665,267,0,0,0,0,0,0,0,0,0,-1,559,757,0,0
-658,267,0,0,0,0,0,0,0,0,0,-1,566,757,0,0
-651,267,0,0,0,0,0,0,0,0,0,-1,573,757,0,0
-644,267,0,0,0,0,0,0,0,0,0,-1,580,757,0,0
-637,267,0,0,0,0,0,0,0,0,0,-1,587,757,0,0
-630,267,-21.3979,5.17529,0,0,0,0,0,0,0,-1,594,757,-21.3979,-5.17529
-623,267,-20.043,4.43115,0,0,0,0,0,0,0,-1,601,757,-20.043,-4.43116
-616,267,-27.1628,5.9325,0,0,0,0,0,0,0,-1,608,757,-27.1629,-5.93249
-609,267,-26.9868,4.99658,0,0,0,0,0,0,0,-1,615,757,-26.9868,-4.99656
-602,267,-26.6637,3.74072,0,0,0,0,0,0,0,-1,622,757,-26.6637,-3.74075
-595,267,-32.7299,2.1203,0,0,0,0,0,0,0,-1,629,757,-32.7299,-2.12028
-588,267,-35.4524,3.17004,0,0,0,0,0,0,0,-1,636,757,-35.4524,-3.17005
-581,267,-35.4774,1.97522,0.00299275,0.00519267,-0.00762939,0.011801,-0.00361557,-0.856992,0.00930956,0.0493983,643,757,-35.4774,-1.97523
-574,267,-35.5211,0.820923,0.00167669,0.00417233,-0.00483811,0.00792094,-0.00207193,-0.911605,0.00608991,0.0292952,650,757,-35.5211,-0.820893
-567,267,-35.7304,-0.118896,0.000853634,0.00311609,-0.00288323,0.00508207,-0.00111235,-0.972344,0.0038133,0.0318607,657,757,-35.7304,0.118873
-560,267,-35.8311,-1.07501,0.000187711,0.00228007,-0.00162846,0.00316944,-0.000701663,-1.07092,0.00238156,0.02336,664,757,-35.8311,1.07499
-553,267,-35.8989,-2.09485,-0.000341726,0.00168657,-0.000818732,0.00197581,-0.000630966,-1.2312,0.00157036,0.0190501,671,757,-35.8989,2.09483
-546,267,-35.9417,-3.11603,-0.0008502,0.00112974,-0.000259362,0.00116315,-0.000883611,-1.44268,0.00118536,0.0126393,678,757,-35.9417,3.11603
-539,267,-35.9752,-4.10925,-0.00153649,0.000598722,0.000238509,0.00062504,-0.0015628,1.4609,0.00130126,0.0125222,685,757,-35.9752,4.10922
-532,267,-36.0037,-5.0957,-0.00214195,0.000241214,0.000356091,0.000293283,-0.00219402,1.4256,0.0015696,0.0142292,692,757,-36.0037,5.09569
-525,267,-36.1083,-6.04504,-0.0025198,-0.000158358,0.00025046,-0.000132085,-0.00254607,1.46628,0.00165511,0.0135446,699,757,-36.1083,6.04507
-518,267,-36.2105,-7.0481,-0.00268406,-0.000932123,0.000528648,-0.000784964,-0.00283122,1.2993,0.00168781,0.0182374,706,757,-36.2105,7.04809
-511,267,-36.2259,-8.10321,-0.00271782,-0.00234377,0.000940619,-0.00157176,-0.00348983,0.883536,0.00201816,0.0403057,713,757,-36.2259,8.1032
-504,267,-36.4851,-9.24176,0,0,0,0,0,0,0,-1,720,757,-36.4851,9.24174
-497,267,-31.5913,-8.72119,0,0,0,0,0,0,0,-1,727,757,-31.5913,8.72117
-490,267,-23.4949,-0.494995,0,0,0,0,0,0,0,-1,734,757,-23.4949,0.494981
-483,267,-33.2785,-0.448425,0,0,0,0,0,0,0,-1,741,757,-33.2785,0.448407
-476,267,-40.2954,0.52002,0,0,0,0,0,0,0,-1,748,757,-40.2954,-0.520037
-469,267,-52.9857,0.187744,0,0,0,0,0,0,0,-1,755,757,-52.9857,-0.187726
-462,267,-63.3651,0.111694,0,0,0,0,0,0,0,-1,762,757,-63.3651,-0.111682
-455,267,-63.6348,0.206177,0,0,0,0,0,0,0,-1,769,757,-63.6348,-0.206181
-448,267,-63.1012,0.806885,0,0,0,0,0,0,0,-1,776,757,-63.1012,-0.806906
-441,267,0,0,0,0,0,0,0,0,0,-1,783,757,0,0
-434,267,0,0,0,0,0,0,0,0,0,-1,790,757,0,0
-427,267,0,0,0,0,0,0,0,0,0,-1,797,757,0,0
-420,267,0,0,0,0,0,0,0,0,0,-1,804,757,0,0
-413,267,0,0,0,0,0,0,0,0,0,-1,811,757,0,0
-406,267,0,0,0,0,0,0,0,0,0,-1,818,757,0,0
-399,267,0,0,0,0,0,0,0,0,0,-1,825,757,0,0
-392,267,0,0,0,0,0,0,0,0,0,-1,832,757,0,0
-385,267,0,0,0,0,0,0,0,0,0,-1,839,757,0,0
-378,267,0,0,0,0,0,0,0,0,0,-1,846,757,0,0
-371,267,0,0,0,0,0,0,0,0,0,-1,853,757,0,0
-364,267,0,0,0,0,0,0,0,0,0,-1,860,757,0,0
-357,267,0,0,0,0,0,0,0,0,0,-1,867,757,0,0
-350,267,0,0,0,0,0,0,0,0,0,-1,874,757,0,0
-343,267,0,0,0,0,0,0,0,0,0,-1,881,757,0,0
-336,267,0,0,0,0,0,0,0,0,0,-1,888,757,0,0
-329,267,0,0,0,0,0,0,0,0,0,-1,895,757,0,0
-322,267,0,0,0,0,0,0,0,0,0,-1,902,757,0,0
-315,267,0,0,0,0,0,0,0,0,0,-1,909,757,0,0
-308,267,0,0,0,0,0,0,0,0,0,-1,916,757,0,0
-301,267,0,0,0,0,0,0,0,0,0,-1,923,757,0,0
-294,267,0,0,0,0,0,0,0,0,0,-1,930,757,0,0
-287,267,0,0,0,0,0,0,0,0,0,-1,937,757,0,0
-280,267,0,0,0,0,0,0,0,0,0,-1,944,757,0,0
-273,267,0,0,0,0,0,0,0,0,0,-1,951,757,0,0
-266,267,0,0,0,0,0,0,0,0,0,-1,958,757,0,0
-259,267,0,0,0,0,0,0,0,0,0,-1,965,757,0,0
-252,267,0,0,0,0,0,0,0,0,0,-1,972,757,0,0
-245,267,0,0,0,0,0,0,0,0,0,-1,979,757,0,0
-238,267,0,0,0,0,0,0,0,0,0,-1,986,757,0,0
-231,267,0,0,0,0,0,0,0,0,0,-1,993,757,0,0
-224,267,0,0,0,0,0,0,0,0,0,-1,1000,757,0,0
-217,267,0,0,0,0,0,0,0,0,0,-1,1007,757,0,0
-210,267,0,0,0,0,0,0,0,0,0,-1,1014,757,0,0
-203,267,0,0,0,0,0,0,0,0,0,-1,1021,757,0,0
-196,267,0,0,0,0,0,0,0,0,0,-1,1028,757,0,0
-189,267,0,0,0,0,0,0,0,0,0,-1,1035,757,0,0
-182,267,0,0,0,0,0,0,0,0,0,-1,1042,757,0,0
-175,267,0,0,0,0,0,0,0,0,0,-1,1049,757,0,0
-168,267,0,0,0,0,0,0,0,0,0,-1,1056,757,0,0
-161,267,0,0,0,0,0,0,0,0,0,-1,1063,757,0,0
-154,267,0,0,0,0,0,0,0,0,0,-1,1070,757,0,0
-147,267,0,0,0,0,0,0,0,0,0,-1,1077,757,0,0
-140,267,0,0,0,0,0,0,0,0,0,-1,1084,757,0,0
-133,267,0,0,0,0,0,0,0,0,0,-1,1091,757,0,0
-126,267,0,0,0,0,0,0,0,0,0,-1,1098,757,0,0
-119,267,0,0,0,0,0,0,0,0,0,-1,1105,757,0,0
-112,267,0,0,0,0,0,0,0,0,0,-1,1112,757,0,0
-105,267,0,0,0,0,0,0,0,0,0,-1,1119,757,0,0
-98,267,0,0,0,0,0,0,0,0,0,-1,1126,757,0,0
-91,267,0,0,0,0,0,0,0,0,0,-1,1133,757,0,0
-84,267,0,0,0,0,0,0,0,0,0,-1,1140,757,0,0
-77,267,0,0,0,0,0,0,0,0,0,-1,1147,757,0,0
-70,267,0,0,0,0,0,0,0,0,0,-1,1154,757,0,0
-63,267,0,0,0,0,0,0,0,0,0,-1,1161,757,0,0
-56,267,0,0,0,0,0,0,0,0,0,-1,1168,757,0,0
-49,267,0,0,0,0,0,0,0,0,0,-1,1175,757,0,0
-42,267,0,0,0,0,0,0,0,0,0,-1,1182,757,0,0
-35,267,0,0,0,0,0,0,0,0,0,-1,1189,757,0,0
-28,267,0,0,0,0,0,0,0,0,0,-1,1196,757,0,0
-21,267,0,0,0,0,0,0,0,0,0,-1,1203,757,0,0
-14,267,0,0,0,0,0,0,0,0,0,-1,1210,757,0,0
-7,267,0,0,0,0,0,0,0,0,0,-1,1217,757,0,0
0,267,0,0,0,0,0,0,0,0,0,-1,1224,757,0,0
7,267,0,0,0,0,0,0,0,0,0,-1,1231,757,0,0
14,267,0,0,0,0,0,0,0,0,0,-1,1238,757,0,0
21,267,0,0,0,0,0,0,0,0,0,-1,1245,757,0,0
28,267,0,0,0,0,0,0,0,0,0,-1,1252,757,0,0
35,267,0,0,0,0,0,0,0,0,0,-1,1259,757,0,0
42,267,0,0,0,0,0,0,0,0,0,-1,1266,757,0,0
49,267,0,0,0,0,0,0,0,0,0,-1,1273,757,0,0
56,267,0,0,0,0,0,0,0,0,0,-1,1280,757,0,0
63,267,0,0,0,0,0,0,0,0,0,-1,1287,757,0,0
70,267,0,0,0,0,0,0,0,0,0,-1,1294,757,0,0
77,267,0,0,0,0,0,0,0,0,0,-1,1301,757,0,0
84,267,0,0,0,0,0,0,0,0,0,-1,1308,757,0,0
91,267,0,0,0,0,0,0,0,0,0,-1,1315,757,0,0
98,267,0,0,0,0,0,0,0,0,0,-1,1322,757,0,0
105,267,0,0,0,0,0,0,0,0,0,-1,1329,757,0,0
112,267,0,0,0,0,0,0,0,0,0,-1,1336,757,0,0
119,267,0,0,0,0,0,0,0,0,0,-1,1343,757,0,0
126,267,0,0,0,0,0,0,0,0,0,-1,1350,757,0,0
133,267,0,0,0,0,0,0,0,0,0,-1,1357,757,0,0
140,267,0,0,0,0,0,0,0,0,0,-1,1364,757,0,0
147,267,0,0,0,0,0,0,0,0,0,-1,1371,757,0,0
154,267,0,0,0,0,0,0,0,0,0,-1,1378,757,0,0
161,267,0,0,0,0,0,0,0,0,0,-1,1385,757,0,0
168,267,0,0,0,0,0,0,0,0,0,-1,1392,757,0,0
175,267,0,0,0,0,0,0,0,0,0,-1,1399,757,0,0
182,267,0,0,0,0,0,0,0,0,0,-1,1406,757,0,0
189,267,0,0,0,0,0,0,0,0,0,-1,1413,757,0,0
196,267,0,0,0,0,0,0,0,0,0,-1,1420,757,0,0
203,267,0,0,0,0,0,0,0,0,0,-1,1427,757,0,0
210,267,0,0,0,0,0,0,0,0,0,-1,1434,757,0,0
217,267,0,0,0,0,0,0,0,0,0,-1,1441,757,0,0
224,267,0,0,0,0,0,0,0,0,0,-1,1448,757,0,0
231,267,0,0,0,0,0,0,0,0,0,-1,1455,757,0,0
238,267,0,0,0,0,0,0,0,0,0,-1,1462,757,0,0
245,267,0,0,0,0,0,0,0,0,0,-1,1469,757,0,0
252,267,0,0,0,0,0,0,0,0,0,-1,1476,757,0,0
259,267,0,0,0,0,0,0,0,0,0,-1,1483,757,0,0
266,267,0,0,0,0,0,0,0,0,0,-1,1490,757,0,0
273,267,0,0,0,0,0,0,0,0,0,-1,1497,757,0,0
280,267,0,0,0,0,0,0,0,0,0,-1,1504,757,0,0
287,267,0,0,0,0,0,0,0,0,0,-1,1511,757,0,0
294,267,0,0,0,0,0,0,0,0,0,-1,1518,757,0,0
301,267,0,0,0,0,0,0,0,0,0,-1,1525,757,0,0
308,267,0,0,0,0,0,0,0,0,0,-1,1532,757,0,0
315,267,0,0,0,0,0,0,0,0,0,-1,1539,757,0,0
322,267,0,0,0,0,0,0,0,0,0,-1,1546,757,0,0
329,267,0,0,0,0,0,0,0,0,0,-1,1553,757,0,0
336,267,0,0,0,0,0,0,0,0,0,-1,1560,757,0,0
343,267,0,0,0,0,0,0,0,0,0,-1,1567,757,0,0
350,267,0,0,0,0,0,0,0,0,0,-1,1574,757,0,0
357,267,0,0,0,0,0,0,0,0,0,-1,1581,757,0,0
364,267,0,0,0,0,0,0,0,0,0,-1,1588,757,0,0
371,267,0,0,0,0,0,0,0,0,0,-1,1595,757,0,0
378,267,0,0,0,0,0,0,0,0,0,-1,1602,757,0,0
385,267,0,0,0,0,0,0,0,0,0,-1,1609,757,0,0
392,267,0,0,0,0,0,0,0,0,0,-1,1616,757,0,0
399,267,0,0,0,0,0,0,0,0,0,-1,1623,757,0,0
406,267,0,0,0,0,0,0,0,0,0,-1,1630,757,0,0
413,267,0,0,0,0,0,0,0,0,0,-1,1637,757,0,0
420,267,0,0,0,0,0,0,0,0,0,-1,1644,757,0,0
427,267,0,0,0,0,0,0,0,0,0,-1,1651,757,0,0
434,267,0,0,0,0,0,0,0,0,0,-1,1658,757,0,0
441,267,0,0,0,0,0,0,0,0,0,-1,1665,757,0,0
448,267,0,0,0,0,0,0,0,0,0,-1,1672,757,0,0
455,267,0,0,0,0,0,0,0,0,0,-1,1679,757,0,0
462,267,0,0,0,0,0,0,0,0,0,-1,1686,757,0,0
469,267,0,0,0,0,0,0,0,0,0,-1,1693,757,0,0
476,267,0,0,0,0,0,0,0,0,0,-1,1700,757,0,0
483,267,0,0,0,0,0,0,0,0,0,-1,1707,757,0,0
490,267,0,0,0,0,0,0,0,0,0,-1,1714,757,0,0
497,267,0,0,0,0,0,0,0,0,0,-1,1721,757,0,0
504,267,0,0,0,0,0,0,0,0,0,-1,1728,757,0,0
511,267,0,0,0,0,0,0,0,0,0,-1,1735,757,0,0
518,267,0,0,0,0,0,0,0,0,0,-1,1742,757,0,0
525,267,0,0,0,0,0,0,0,0,0,-1,1749,757,0,0
532,267,0,0,0,0,0,0,0,0,0,-1,1756,757,0,0
539,267,0,0,0,0,0,0,0,0,0,-1,1763,757,0,0
546,267,0,0,0,0,0,0,0,0,0,-1,1770,757,0,0
553,267,0,0,0,0,0,0,0,0,0,-1,1777,757,0,0
560,267,0,0,0,0,0,0,0,0,0,-1,1784,757,0,0
567,267,58.0104,3.24304,0,0,0,0,0,0,0,-1,1791,757,58.0104,-3.24306
574,267,64.5414,2.91858,0,0,0,0,0,0,0,-1,1798,757,64.5414,-2.91855
581,267,58.374,2.95636,0,0,0,0,0,0,0,-1,1805,757,58.3741,-2.95639
588,267,65.9681,2.6438,0,0,0,0,0,0,0,-1,1812,757,65.9682,-2.64382
595,267,66.191,2.60791,0,0,0,0,0,0,0,-1,1819,757,66.191,-2.60792
602,267,66.4139,2.57202,0,0,0,0,0,0,0,-1,1826,757,66.4139,-2.57203
609,267,54.5498,3.24054,0,0,0,0,0,0,0,-1,1833,757,54.5498,-3.24052
616,267,44.2543,3.28918,0,0,0,0,0,0,0,-1,1840,757,44.2542,-3.28918
623,267,24.1475,-1.1391,0,0,0,0,0,0,0,-1,1847,757,24.1475,1.13913
630,267,40.7198,-5.42108,0,0,0,0,0,0,0,-1,1854,757,40.7198,5.4211
637,267,52.0806,-8.10645,0,0,0,0,0,0,0,-1,1861,757,52.0806,8.10643
644,267,52.1045,-7.04352,0.00139809,0.00167341,0.000939318,0.0024851,0.000586397,0.858156,0.00149997,0.0272905,1868,757,52.1045,7.04352
651,267,52.053,-5.92725,0.000503278,0.00109795,0.000577818,0.00145045,0.000150782,1.02302,0.00092083,0.0190467,1875,757,52.053,5.92727
658,267,52.0422,-4.98016,0.000584654,0.000517955,0.00025369,0.000807177,0.000295432,0.720043,0.000471569,0.0158453,1882,757,52.0423,4.98019
665,267,51.9822,-4.0144,0.00080017,0.000431694,0.00016963,0.000866367,0.000365497,0.37207,0.000502229,0.016757,1889,757,51.9822,4.01443
672,267,51.9309,-3.05341,0.000869648,0.00067441,0.000271607,0.00106065,0.000483412,0.61288,0.000613162,0.0151597,1896,757,51.9309,3.05344
679,267,51.8728,-2.07202,0.000988337,0.00102502,0.000479721,0.00148675,0.000526605,0.804504,0.000870454,0.0140648,1903,757,51.8728,2.07204
686,267,51.7858,-1.07892,0.00120297,0.00140214,0.00072247,0.00203186,0.000573255,0.853885,0.00120964,0.0193448,1910,757,51.7858,1.07892
693,267,51.6805,-0.142151,0.00154945,0.00175922,0.00101013,0.00266989,0.000638773,0.837128,0.00160982,0.0186444,1917,757,51.6806,0.142167
700,267,51.6359,0.836609,0.00203167,0.00213477,0.00138574,0.00346992,0.00069652,0.80399,0.00211961,0.0155175,1924,757,51.6358,-0.836612
707,267,51.6385,1.82349,0.0023568,0.00234266,0.00156025,0.00390999,0.00078946,0.783132,0.00238742,0.025557,1931,757,51.6385,-1.82348
714,267,51.4989,2.69373,0,0,0,0,0,0,0,-1,1938,757,51.4989,-2.69375
721,267,47.0829,3.73804,0,0,0,0,0,0,0,-1,1945,757,47.0828,-3.73803
728,267,26.7886,3.90027,0,0,0,0,0,0,0,-1,1952,757,26.7886,-3.90028
735,267,24.6713,2.82483,0,0,0,0,0,0,0,-1,1959,757,24.6713,-2.82483
742,267,18.1177,3.56561,0,0,0,0,0,0,0,-1,1966,757,18.1176,-3.56564
749,267,0,0,0,0,0,0,0,0,0,-1,1973,757,0,0
756,267,0,0,0,0,0,0,0,0,0,-1,1980,757,0,0
763,267,0,0,0,0,0,0,0,0,0,-1,1987,757,0,0
770,267,0,0,0,0,0,0,0,0,0,-1,1994,757,0,0
777,267,0,0,0,0,0,0,0,0,0,-1,2001,757,0,0
784,267,0,0,0,0,0,0,0,0,0,-1,2008,757,0,0
791,267,0,0,0,0,0,0,0,0,0,-1,2015,757,0,0
798,267,0,0,0,0,0,0,0,0,0,-1,2022,757,0,0
805,267,0,0,0,0,0,0,0,0,0,-1,2029,757,0,0
812,267,0,0,0,0,0,0,0,0,0,-1,2036,757,0,0
-700,260,0,0,0,0,0,0,0,0,0,-1,524,764,0,0
-693,260,0,0,0,0,0,0,0,0,0,-1,531,764,0,0
-686,260,0,0,0,0,0,0,0,0,0,-1,538,764,0,0
-679,260,0,0,0,0,0,0,0,0,0,-1,545,764,0,0
-672,260,0,0,0,0,0,0,0,0,0,-1,552,764,0,0
-665,260,0,0,0,0,0,0,0,0,0,-1,559,764,0,0
-658,260,0,0,0,0,0,0,0,0,0,-1,566,764,0,0
-651,260,0,0,0,0,0,0,0,0,0,-1,573,764,0,0
-644,260,0,0,0,0,0,0,0,0,0,-1,580,764,0,0
-637,260,0,0,0,0,0,0,0,0,0,-1,587,764,0,0
-630,260,-21.8905,4.49341,0,0,0,0,0,0,0,-1,594,764,-21.8905,-4.49342
-623,260,-20.3127,3.53546,0,0,0,0,0,0,0,-1,601,764,-20.3127,-3.53544
-616,260,-23.4346,3.65009,0,0,0,0,0,0,0,-1,608,764,-23.4345,-3.65008
-609,260,-27.8874,4.42004,0,0,0,0,0,0,0,-1,615,764,-27.8874,-4.42005
-602,260,-32.8671,3.61243,0,0,0,0,0,0,0,-1,622,764,-32.867,-3.61241
-595,260,-37.9227,3.77118,0,0,0,0,0,0,0,-1,629,764,-37.9227,-3.77116
-588,260,-37.0031,2.73993,0,0,0,0,0,0,0,-1,636,764,-37.0031,-2.7399
-581,260,-36.694,1.74292,0.003288,0.00448586,-0.00762216,0.0115326,-0.00375873,-0.824606,0.00920088,0.0342762,643,764,-36.694,-1.74294
-574,260,-36.6325,0.834167,0.00198936,0.00361164,-0.00491219,0.00777921,-0.00217822,-0.867224,0.00604448,0.0224424,650,764,-36.6325,-0.83418
-567,260,-36.7152,-0.0361328,0.00103909,0.00271311,-0.00292461,0.00491812,-0.00116593,-0.92477,0.00372866,0.0189642,657,764,-36.7152,0.0361027
-560,260,-36.8012,-1.03748,0.000254407,0.00198628,-0.00158035,0.00292238,-0.000681695,-1.03603,0.0022108,0.0213277,664,764,-36.8012,1.03745
-553,260,-36.8731,-2.02448,-0.000414863,0.00150715,-0.000666646,0.00171574,-0.00062345,-1.26756,0.00139875,0.018935,671,764,-36.8731,2.02445
-546,260,-36.905,-3.03693,-0.00104582,0.0010362,1.08071e-06,0.0010362,-0.00104582,1.57028,0.00120206,0.0126231,678,764,-36.9051,3.03691
-539,260,-36.9348,-4.02936,-0.00180496,0.000557122,0.000536054,0.000673082,-0.00192092,1.35776,0.00155434,0.0146599,685,764,-36.9348,4.02933
-532,260,-36.9581,-4.96008,-0.00238116,0.000299001,0.00058983,0.000423063,-0.00250522,1.36348,0.00182757,0.0200814,692,764,-36.958,4.9601
-525,260,-37.0688,-5.89471,-0.00260338,5.24887e-05,0.000344167,9.63636e-05,-0.00264726,1.444,0.00179782,0.021299,699,764,-37.0689,5.89469
-518,260,-37.3369,-6.91016,-0.00263959,-0.000641526,0.000530311,-0.000509499,-0.00277162,1.3268,0.0017035,0.0310965,706,764,-37.3369,6.91016
-511,260,-37.1984,-7.99652,0,0,0,0,0,0,0,-1,713,764,-37.1983,7.9965
-504,260,-34.7117,-8.67163,0,0,0,0,0,0,0,-1,720,764,-34.7117,8.6716
-497,260,-16.6542,-3.67334,0,0,0,0,0,0,0,-1,727,764,-16.6542,3.67331
-490,260,-29.4557,0.921387,0,0,0,0,0,0,0,-1,734,764,-29.4557,-0.921369
-483,260,-40.8972,1.04193,0,0,0,0,0,0,0,-1,741,764,-40.8972,-1.04193
-476,260,-53.8282,0.00378418,0,0,0,0,0,0,0,-1,748,764,-53.8283,-0.00378825
-469,260,-63.0975,0.131165,0,0,0,0,0,0,0,-1,755,764,-63.0975,-0.131151
-462,260,-63.2155,0.328491,-0.00318973,-0.0275409,0.00454489,-0.00236912,-0.0283615,0.178631,0.0181695,0.0459178,762,764,-63.2155,-0.328471
-455,260,-63.2788,0.390991,-0.00362265,-0.0339801,0.00433848,-0.0030148,-0.0345879,0.139202,0.0221223,0.0473081,769,764,-63.2788,-0.390971
-448,260,0,0,0,0,0,0,0,0,0,-1,776,764,0,0
-441,260,0,0,0,0,0,0,0,0,0,-1,783,764,0,0
-434,260,0,0,0,0,0,0,0,0,0,-1,790,764,0,0
-427,260,0,0,0,0,0,0,0,0,0,-1,797,764,0,0
-420,260,0,0,0,0,0,0,0,0,0,-1,804,764,0,0
-413,260,0,0,0,0,0,0,0,0,0,-1,811,764,0,0
-406,260,0,0,0,0,0,0,0,0,0,-1,818,764,0,0
-399,260,0,0,0,0,0,0,0,0,0,-1,825,764,0,0
-392,260,0,0,0,0,0,0,0,0,0,-1,832,764,0,0
-385,260,0,0,0,0,0,0,0,0,0,-1,839,764,0,0
-378,260,0,0,0,0,0,0,0,0,0,-1,846,764,0,0
-371,260,0,0,0,0,0,0,0,0,0,-1,853,764,0,0
-364,260,0,0,0,0,0,0,0,0,0,-1,860,764,0,0
-357,260,0,0,0,0,0,0,0,0,0,-1,867,764,0,0
-350,260,0,0,0,0,0,0,0,0,0,-1,874,764,0,0
-343,260,0,0,0,0,0,0,0,0,0,-1,881,764,0,0
-336,260,0,0,0,0,0,0,0,0,0,-1,888,764,0,0
-329,260,0,0,0,0,0,0,0,0,0,-1,895,764,0,0
-322,260,0,0,0,0,0,0,0,0,0,-1,902,764,0,0
-315,260,0,0,0,0,0,0,0,0,0,-1,909,764,0,0
-308,260,0,0,0,0,0,0,0,0,0,-1,916,764,0,0
-301,260,0,0,0,0,0,0,0,0,0,-1,923,764,0,0
-294,260,0,0,0,0,0,0,0,0,0,-1,930,764,0,0
-287,260,0,0,0,0,0,0,0,0,0,-1,937,764,0,0
-280,260,0,0,0,0,0,0,0,0,0,-1,944,764,0,0
-273,260,0,0,0,0,0,0,0,0,0,-1,951,764,0,0
-266,260,0,0,0,0,0,0,0,0,0,-1,958,764,0,0
-259,260,0,0,0,0,0,0,0,0,0,-1,965,764,0,0
-252,260,0,0,0,0,0,0,0,0,0,-1,972,764,0,0
-245,260,0,0,0,0,0,0,0,0,0,-1,979,764,0,0
-238,260,0,0,0,0,0,0,0,0,0,-1,986,764,0,0
-231,260,0,0,0,0,0,0,0,0,0,-1,993,764,0,0
-224,260,0,0,0,0,0,0,0,0,0,-1,1000,764,0,0
-217,260,0,0,0,0,0,0,0,0,0,-1,1007,764,0,0
-210,260,0,0,0,0,0,0,0,0,0,-1,1014,764,0,0
-203,260,0,0,0,0,0,0,0,0,0,-1,1021,764,0,0
-196,260,0,0,0,0,0,0,0,0,0,-1,1028,764,0,0
-189,260,0,0,0,0,0,0,0,0,0,-1,1035,764,0,0
-182,260,0,0,0,0,0,0,0,0,0,-1,1042,764,0,0
-175,260,0,0,0,0,0,0,0,0,0,-1,1049,764,0,0
-168,260,0,0,0,0,0,0,0,0,0,-1,1056,764,0,0
-161,260,0,0,0,0,0,0,0,0,0,-1,1063,764,0,0
-154,260,0,0,0,0,0,0,0,0,0,-1,1070,764,0,0
-147,260,0,0,0,0,0,0,0,0,0,-1,1077,764,0,0
-140,260,0,0,0,0,0,0,0,0,0,-1,1084,764,0,0
-133,260,0,0,0,0,0,0,0,0,0,-1,1091,764,0,0
-126,260,0,0,0,0,0,0,0,0,0,-1,1098,764,0,0
-119,260,0,0,0,0,0,0,0,0,0,-1,1105,764,0,0
-112,260,0,0,0,0,0,0,0,0,0,-1,1112,764,0,0
-105,260,0,0,0,0,0,0,0,0,0,-1,1119,764,0,0
-98,260,0,0,0,0,0,0,0,0,0,-1,1126,764,0,0
-91,260,0,0,0,0,0,0,0,0,0,-1,1133,764,0,0
-84,260,0,0,0,0,0,0,0,0,0,-1,1140,764,0,0
-77,260,0,0,0,0,0,0,0,0,0,-1,1147,764,0,0
-70,260,0,0,0,0,0,0,0,0,0,-1,1154,764,0,0
-63,260,0,0,0,0,0,0,0,0,0,-1,1161,764,0,0
-56,260,0,0,0,0,0,0,0,0,0,-1,1168,764,0,0
-49,260,0,0,0,0,0,0,0,0,0,-1,1175,764,0,0
-42,260,0,0,0,0,0,0,0,0,0,-1,1182,764,0,0
-35,260,0,0,0,0,0,0,0,0,0,-1,1189,764,0,0
-28,260,0,0,0,0,0,0,0,0,0,-1,1196,764,0,0
-21,260,0,0,0,0,0,0,0,0,0,-1,1203,764,0,0
-14,260,0,0,0,0,0,0,0,0,0,-1,1210,764,0,0
-7,260,0,0,0,0,0,0,0,0,0,-1,1217,764,0,0
0,260,0,0,0,0,0,0,0,0,0,-1,1224,764,0,0
7,260,0,0,0,0,0,0,0,0,0,-1,1231,764,0,0
14,260,0,0,0,0,0,0,0,0,0,-1,1238,764,0,0
21,260,0,0,0,0,0,0,0,0,0,-1,1245,764,0,0
28,260,0,0,0,0,0,0,0,0,0,-1,1252,764,0,0
35,260,0,0,0,0,0,0,0,0,0,-1,1259,764,0,0
42,260,0,0,0,0,0,0,0,0,0,-1,1266,764,0,0
49,260,0,0,0,0,0,0,0,0,0,-1,1273,764,0,0
56,260,0,0,0,0,0,0,0,0,0,-1,1280,764,0,0
63,260,0,0,0,0,0,0,0,0,0,-1,1287,764,0,0
70,260,0,0,0,0,0,0,0,0,0,-1,1294,764,0,0
77,260,0,0,0,0,0,0,0,0,0,-1,1301,764,0,0
84,260,0,0,0,0,0,0,0,0,0,-1,1308,764,0,0
91,260,0,0,0,0,0,0,0,0,0,-1,1315,764,0,0
98,260,0,0,0,0,0,0,0,0,0,-1,1322,764,0,0
105,260,0,0,0,0,0,0,0,0,0,-1,1329,764,0,0
112,260,0,0,0,0,0,0,0,0,0,-1,1336,764,0,0
119,260,0,0,0,0,0,0,0,0,0,-1,1343,764,0,0
126,260,0,0,0,0,0,0,0,0,0,-1,1350,764,0,0
133,260,0,0,0,0,0,0,0,0,0,-1,1357,764,0,0
140,260,0,0,0,0,0,0,0,0,0,-1,1364,764,0,0
147,260,0,0,0,0,0,0,0,0,0,-1,1371,764,0,0
154,260,0,0,0,0,0,0,0,0,0,-1,1378,764,0,0
161,260,0,0,0,0,0,0,0,0,0,-1,1385,764,0,0
168,260,0,0,0,0,0,0,0,0,0,-1,1392,764,0,0
175,260,0,0,0,0,0,0,0,0,0,-1,1399,764,0,0
182,260,0,0,0,0,0,0,0,0,0,-1,1406,764,0,0
189,260,0,0,0,0,0,0,0,0,0,-1,1413,764,0,0
196,260,0,0,0,0,0,0,0,0,0,-1,1420,764,0,0
203,260,0,0,0,0,0,0,0,0,0,-1,1427,764,0,0
210,260,0,0,0,0,0,0,0,0,0,-1,1434,764,0,0
217,260,0,0,0,0,0,0,0,0,0,-1,1441,764,0,0
224,260,0,0,0,0,0,0,0,0,0,-1,1448,764,0,0
231,260,0,0,0,0,0,0,0,0,0,-1,1455,764,0,0
238,260,0,0,0,0,0,0,0,0,0,-1,1462,764,0,0
245,260,0,0,0,0,0,0,0,0,0,-1,1469,764,0,0
252,260,0,0,0,0,0,0,0,0,0,-1,1476,764,0,0
259,260,0,0,0,0,0,0,0,0,0,-1,1483,764,0,0
266,260,0,0,0,0,0,0,0,0,0,-1,1490,764,0,0
273,260,0,0,0,0,0,0,0,0,0,-1,1497,764,0,0
280,260,0,0,0,0,0,0,0,0,0,-1,1504,764,0,0
287,260,0,0,0,0,0,0,0,0,0,-1,1511,764,0,0
294,260,0,0,0,0,0,0,0,0,0,-1,1518,764,0,0
301,260,0,0,0,0,0,0,0,0,0,-1,1525,764,0,0
308,260,0,0,0,0,0,0,0,0,0,-1,1532,764,0,0
315,260,0,0,0,0,0,0,0,0,0,-1,1539,764,0,0
322,260,0,0,0,0,0,0,0,0,0,-1,1546,764,0,0
329,260,0,0,0,0,0,0,0,0,0,-1,1553,764,0,0
336,260,0,0,0,0,0,0,0,0,0,-1,1560,764,0,0
343,260,0,0,0,0,0,0,0,0,0,-1,1567,764,0,0
350,260,0,0,0,0,0,0,0,0,0,-1,1574,764,0,0
357,260,0,0,0,0,0,0,0,0,0,-1,1581,764,0,0
364,260,0,0,0,0,0,0,0,0,0,-1,1588,764,0,0
371,260,0,0,0,0,0,0,0,0,0,-1,1595,764,0,0
378,260,0,0,0,0,0,0,0,0,0,-1,1602,764,0,0
385,260,0,0,0,0,0,0,0,0,0,-1,1609,764,0,0
392,260,0,0,0,0,0,0,0,0,0,-1,1616,764,0,0
399,260,0,0,0,0,0,0,0,0,0,-1,1623,764,0,0
406,260,0,0,0,0,0,0,0,0,0,-1,1630,764,0,0
413,260,0,0,0,0,0,0,0,0,0,-1,1637,764,0,0
420,260,0,0,0,0,0,0,0,0,0,-1,1644,764,0,0
427,260,0,0,0,0,0,0,0,0,0,-1,1651,764,0,0
434,260,0,0,0,0,0,0,0,0,0,-1,1658,764,0,0
441,260,0,0,0,0,0,0,0,0,0,-1,1665,764,0,0
448,260,0,0,0,0,0,0,0,0,0,-1,1672,764,0,0
455,260,0,0,0,0,0,0,0,0,0,-1,1679,764,0,0
462,260,0,0,0,0,0,0,0,0,0,-1,1686,764,0,0
469,260,0,0,0,0,0,0,0,0,0,-1,1693,764,0,0
476,260,0,0,0,0,0,0,0,0,0,-1,1700,764,0,0
483,260,0,0,0,0,0,0,0,0,0,-1,1707,764,0,0
490,260,0,0,0,0,0,0,0,0,0,-1,1714,764,0,0
497,260,0,0,0,0,0,0,0,0,0,-1,1721,764,0,0
504,260,0,0,0,0,0,0,0,0,0,-1,1728,764,0,0
511,260,0,0,0,0,0,0,0,0,0,-1,1735,764,0,0
518,260,0,0,0,0,0,0,0,0,0,-1,1742,764,0,0
525,260,0,0,0,0,0,0,0,0,0,-1,1749,764,0,0
532,260,0,0,0,0,0,0,0,0,0,-1,1756,764,0,0
539,260,0,0,0,0,0,0,0,0,0,-1,1763,764,0,0
546,260,0,0,0,0,0,0,0,0,0,-1,1770,764,0,0
553,260,0,0,0,0,0,0,0,0,0,-1,1777,764,0,0
560,260,0,0,0,0,0,0,0,0,0,-1,1784,764,0,0
567,260,0,0,0,0,0,0,0,0,0,-1,1791,764,0,0
574,260,78.9807,2.50146,0,0,0,0,0,0,0,-1,1798,764,78.9807,-2.50146
581,260,79.0018,2.59796,0,0,0,0,0,0,0,-1,1805,764,79.0018,-2.59795
588,260,78.047,2.81091,0,0,0,0,0,0,0,-1,1812,764,78.047,-2.81091
595,260,66.1678,2.56989,0,0,0,0,0,0,0,-1,1819,764,66.1678,-2.56989
602,260,65.9274,2.69824,0,0,0,0,0,0,0,-1,1826,764,65.9274,-2.69825
609,260,65.4674,3.08105,0,0,0,0,0,0,0,-1,1833,764,65.4673,-3.08107
616,260,46.0709,2.74542,0,0,0,0,0,0,0,-1,1840,764,46.0709,-2.74545
623,260,32.2268,3.25836,0,0,0,0,0,0,0,-1,1847,764,32.2268,-3.25833
630,260,24.3739,-0.536316,0,0,0,0,0,0,0,-1,1854,764,24.3739,0.536343
637,260,42.7155,-5.35486,0,0,0,0,0,0,0,-1,1861,764,42.7154,5.35488
644,260,53.1173,-7.14752,0,0,0,0,0,0,0,-1,1868,764,53.1173,7.14753
651,260,53.3048,-5.83948,0.000213064,0.001571,0.000658954,0.00183819,-5.41274e-05,1.18558,0.0012439,0.0308506,1875,764,53.3048,5.83947
658,260,53.0626,-4.8454,0.000369986,0.000779472,0.000251612,0.000899118,0.000250341,1.12693,0.000535827,0.0205739,1882,764,53.0626,4.8454
665,260,52.9298,-3.92065,0.000697564,0.000414233,3.89036e-05,0.000702808,0.000408988,0.134005,0.000407579,0.0185765,1889,764,52.9298,3.92067
672,260,52.8904,-2.96588,0.000734958,0.000484457,5.49815e-05,0.000746495,0.00047292,0.206823,0.000436081,0.0155391,1896,764,52.8904,2.96586
679,260,52.8129,-1.99237,0.000783368,0.000719352,0.000206951,0.000960771,0.000541948,0.708673,0.000556218,0.0138819,1903,764,52.8129,1.99236
686,260,52.7273,-1.00409,0.000955143,0.00102229,0.000398895,0.00138902,0.000588411,0.827382,0.000805066,0.024918,1910,764,52.7273,1.0041
693,260,52.6066,-0.0917358,0.00121151,0.00127893,0.000609908,0.00185606,0.000634378,0.813006,0.00108933,0.0243213,1917,764,52.6066,0.0917403
700,260,52.5359,0.863708,0.00159363,0.00154699,0.000888746,0.00245936,0.000681255,0.772282,0.00146623,0.0164234,1924,764,52.5359,-0.86369
707,260,52.5669,1.86218,0.00189154,0.00170271,0.00105527,0.00285661,0.00073764,0.740781,0.00171233,0.0179729,1931,764,52.5669,-1.86218
714,260,52.473,2.75201,0.0018925,0.00148414,0.00115114,0.00285743,0.000519205,0.697625,0.00175764,0.0408842,1938,764,52.473,-2.75201
721,260,52.496,3.60571,0,0,0,0,0,0,0,-1,1945,764,52.496,-3.60569
728,260,33.4344,5.75409,0,0,0,0,0,0,0,-1,1952,764,33.4345,-5.75408
735,260,26.9788,4.85681,0,0,0,0,0,0,0,-1,1959,764,26.9787,-4.85678
742,260,32.1443,1.73688,0,0,0,0,0,0,0,-1,1966,764,32.1442,-1.73688
749,260,33.6013,2.94733,0,0,0,0,0,0,0,-1,1973,764,33.6013,-2.9473
756,260,0,0,0,0,0,0,0,0,0,-1,1980,764,0,0
763,260,0,0,0,0,0,0,0,0,0,-1,1987,764,0,0
770,260,0,0,0,0,0,0,0,0,0,-1,1994,764,0,0
777,260,0,0,0,0,0,0,0,0,0,-1,2001,764,0,0
784,260,0,0,0,0,0,0,0,0,0,-1,2008,764,0,0
791,260,0,0,0,0,0,0,0,0,0,-1,2015,764,0,0
798,260,0,0,0,0,0,0,0,0,0,-1,2022,764,0,0
805,260,0,0,0,0,0,0,0,0,0,-1,2029,764,0,0
812,260,0,0,0,0,0,0,0,0,0,-1,2036,764,0,0
-700,253,0,0,0,0,0,0,0,0,0,-1,524,771,0,0
-693,253,0,0,0,0,0,0,0,0,0,-1,531,771,0,0
-686,253,0,0,0,0,0,0,0,0,0,-1,538,771,0,0
-679,253,0,0,0,0,0,0,0,0,0,-1,545,771,0,0
-672,253,0,0,0,0,0,0,0,0,0,-1,552,771,0,0
-665,253,0,0,0,0,0,0,0,0,0,-1,559,771,0,0
-658,253,0,0,0,0,0,0,0,0,0,-1,566,771,0,0
-651,253,0,0,0,0,0,0,0,0,0,-1,573,771,0,0
-644,253,0,0,0,0,0,0,0,0,0,-1,580,771,0,0
-637,253,-24.7979,-0.491394,0,0,0,0,0,0,0,-1,587,771,-24.7978,0.491371
-630,253,-25.156,0.540405,0,0,0,0,0,0,0,-1,594,771,-25.156,-0.540421
-623,253,-20.808,2.84314,0,0,0,0,0,0,0,-1,601,771,-20.8081,-2.84312
-616,253,-25.0877,2.96875,0,0,0,0,0,0,0,-1,608,771,-25.0877,-2.96876
-609,253,-24.28,2.08228,0,0,0,0,0,0,0,-1,615,771,-24.2801,-2.08227
-602,253,-37.3711,4.76227,0,0,0,0,0,0,0,-1,622,771,-37.3711,-4.76228
-595,253,-37.8815,3.89246,0,0,0,0,0,0,0,-1,629,771,-37.8815,-3.89243
-588,253,-37.7438,2.83533,0.00455729,0.00486984,-0.0105092,0.0152239,-0.00579678,-0.792833,0.0125365,0.0432925,636,771,-37.7438,-2.83531
-581,253,-37.5679,1.80981,0.00302372,0.00400015,-0.00728254,0.0108108,-0.00378696,-0.818868,0.00874719,0.0312874,643,771,-37.568,-1.80982
-574,253,-37.6019,0.858215,0.00194537,0.00320912,-0.00473062,0.00734987,-0.00219539,-0.851791,0.00577259,0.0249707,650,771,-37.6019,-0.858237
-567,253,-37.6838,-0.138123,0.00105147,0.00242307,-0.002807,0.00462684,-0.0011523,-0.90521,0.00353188,0.0187415,657,771,-37.6838,0.138112
-560,253,-37.7227,-1.00732,0.000281551,0.00178213,-0.00145599,0.00266978,-0.000606094,-1.02331,0.00201254,0.0149191,664,771,-37.7227,1.00735
-553,253,-37.8063,-1.95764,-0.000419596,0.00139494,-0.000509739,0.00152833,-0.000552986,-1.31485,0.00124485,0.0133242,671,771,-37.8062,1.95765
-546,253,-37.8827,-2.93341,-0.00107717,0.00107766,0.000207867,0.00109753,-0.00109703,1.4755,0.00126703,0.0115231,678,771,-37.8827,2.9334
-539,253,-37.9823,-3.9353,-0.00179402,0.000714146,0.000706359,0.000899391,-0.00197927,1.31432,0.00170053,0.0138461,685,771,-37.9823,3.93527
-532,253,-38.0197,-4.89087,-0.00224175,0.000567828,0.000669248,0.0007191,-0.00239303,1.3485,0.00188143,0.0200826,692,771,-38.0197,4.89087
-525,253,-38.0965,-5.78845,-0.00235192,0.000411531,0.00036411,0.000458701,-0.00239909,1.44197,0.00177219,0.0319343,699,771,-38.0965,5.78847
-518,253,-38.3306,-6.91235,-0.00232166,-0.000220528,0.000509495,-0.000103501,-0.00243869,1.34502,0.00159242,0.0482084,706,771,-38.3306,6.91236
-511,253,-38.8332,-7.974,0,0,0,0,0,0,0,-1,713,771,-38.8332,7.97402
-504,253,-19.317,-4.1723,0,0,0,0,0,0,0,-1,720,771,-19.317,4.1723
-497,253,-21.7737,-1.76837,0,0,0,0,0,0,0,-1,727,771,-21.7738,1.7684
-490,253,-29.7674,0.438354,0,0,0,0,0,0,0,-1,734,771,-29.7674,-0.438339
-483,253,-45.4489,1.59302,0,0,0,0,0,0,0,-1,741,771,-45.4489,-1.59303
-476,253,-63.0652,0.0799561,0,0,0,0,0,0,0,-1,748,771,-63.0652,-0.079975
-469,253,-63.0565,0.296692,-0.00193698,-0.0189976,0.00322779,-0.00134673,-0.0195879,0.18087,0.0126336,0.0480666,755,771,-63.0565,-0.29667
-462,253,-63.1091,0.576904,-0.0024921,-0.0246234,0.00369016,-0.00189302,-0.0252225,0.160941,0.0162209,0.0462151,762,771,-63.109,-0.576921
-455,253,-63.1134,0.681152,-0.00260079,-0.0302358,0.0034174,-0.00218446,-0.0306521,0.121229,0.0197469,0.034903,769,771,-63.1134,-0.681148
-448,253,0,0,0,0,0,0,0,0,0,-1,776,771,0,0
-441,253,0,0,0,0,0,0,0,0,0,-1,783,771,0,0
-434,253,0,0,0,0,0,0,0,0,0,-1,790,771,0,0
-427,253,0,0,0,0,0,0,0,0,0,-1,797,771,0,0
-420,253,0,0,0,0,0,0,0,0,0,-1,804,771,0,0
-413,253,0,0,0,0,0,0,0,0,0,-1,811,771,0,0
-406,253,0,0,0,0,0,0,0,0,0,-1,818,771,0,0
-399,253,0,0,0,0,0,0,0,0,0,-1,825,771,0,0
-392,253,0,0,0,0,0,0,0,0,0,-1,832,771,0,0
-385,253,0,0,0,0,0,0,0,0,0,-1,839,771,0,0
-378,253,0,0,0,0,0,0,0,0,0,-1,846,771,0,0
-371,253,0,0,0,0,0,0,0,0,0,-1,853,771,0,0
-364,253,0,0,0,0,0,0,0,0,0,-1,860,771,0,0
-357,253,0,0,0,0,0,0,0,0,0,-1,867,771,0,0
-350,253,0,0,0,0,0,0,0,0,0,-1,874,771,0,0
-343,253,0,0,0,0,0,0,0,0,0,-1,881,771,0,0
-336,253,0,0,0,0,0,0,0,0,0,-1,888,771,0,0
-329,253,0,0,0,0,0,0,0,0,0,-1,895,771,0,0
-322,253,0,0,0,0,0,0,0,0,0,-1,902,771,0,0
-315,253,0,0,0,0,0,0,0,0,0,-1,909,771,0,0
-308,253,0,0,0,0,0,0,0,0,0,-1,916,771,0,0
-301,253,0,0,0,0,0,0,0,0,0,-1,923,771,0,0
-294,253,0,0,0,0,0,0,0,0,0,-1,930,771,0,0
-287,253,0,0,0,0,0,0,0,0,0,-1,937,771,0,0
-280,253,0,0,0,0,0,0,0,0,0,-1,944,771,0,0
-273,253,0,0,0,0,0,0,0,0,0,-1,951,771,0,0
-266,253,0,0,0,0,0,0,0,0,0,-1,958,771,0,0
-259,253,0,0,0,0,0,0,0,0,0,-1,965,771,0,0
-252,253,0,0,0,0,0,0,0,0,0,-1,972,771,0,0
-245,253,0,0,0,0,0,0,0,0,0,-1,979,771,0,0
-238,253,0,0,0,0,0,0,0,0,0,-1,986,771,0,0
-231,253,0,0,0,0,0,0,0,0,0,-1,993,771,0,0
-224,253,0,0,0,0,0,0,0,0,0,-1,1000,771,0,0
-217,253,0,0,0,0,0,0,0,0,0,-1,1007,771,0,0
-210,253,0,0,0,0,0,0,0,0,0,-1,1014,771,0,0
-203,253,0,0,0,0,0,0,0,0,0,-1,1021,771,0,0
-196,253,0,0,0,0,0,0,0,0,0,-1,1028,771,0,0
-189,253,0,0,0,0,0,0,0,0,0,-1,1035,771,0,0
-182,253,0,0,0,0,0,0,0,0,0,-1,1042,771,0,0
-175,253,0,0,0,0,0,0,0,0,0,-1,1049,771,0,0
-168,253,0,0,0,0,0,0,0,0,0,-1,1056,771,0,0
-161,253,0,0,0,0,0,0,0,0,0,-1,1063,771,0,0
-154,253,0,0,0,0,0,0,0,0,0,-1,1070,771,0,0
-147,253,0,0,0,0,0,0,0,0,0,-1,1077,771,0,0
-140,253,0,0,0,0,0,0,0,0,0,-1,1084,771,0,0
-133,253,0,0,0,0,0,0,0,0,0,-1,1091,771,0,0
-126,253,0,0,0,0,0,0,0,0,0,-1,1098,771,0,0
-119,253,0,0,0,0,0,0,0,0,0,-1,1105,771,0,0
-112,253,0,0,0,0,0,0,0,0,0,-1,1112,771,0,0
-105,253,0,0,0,0,0,0,0,0,0,-1,1119,771,0,0
-98,253,0,0,0,0,0,0,0,0,0,-1,1126,771,0,0
-91,253,0,0,0,0,0,0,0,0,0,-1,1133,771,0,0
-84,253,0,0,0,0,0,0,0,0,0,-1,1140,771,0,0
-77,253,0,0,0,0,0,0,0,0,0,-1,1147,771,0,0
-70,253,0,0,0,0,0,0,0,0,0,-1,1154,771,0,0
-63,253,0,0,0,0,0,0,0,0,0,-1,1161,771,0,0
-56,253,0,0,0,0,0,0,0,0,0,-1,1168,771,0,0
-49,253,0,0,0,0,0,0,0,0,0,-1,1175,771,0,0
-42,253,0,0,0,0,0,0,0,0,0,-1,1182,771,0,0
-35,253,0,0,0,0,0,0,0,0,0,-1,1189,771,0,0
-28,253,0,0,0,0,0,0,0,0,0,-1,1196,771,0,0
-21,253,0,0,0,0,0,0,0,0,0,-1,1203,771,0,0
-14,253,0,0,0,0,0,0,0,0,0,-1,1210,771,0,0
-7,253,0,0,0,0,0,0,0,0,0,-1,1217,771,0,0
0,253,0,0,0,0,0,0,0,0,0,-1,1224,771,0,0
7,253,0,0,0,0,0,0,0,0,0,-1,1231,771,0,0
14,253,0,0,0,0,0,0,0,0,0,-1,1238,771,0,0
21,253,0,0,0,0,0,0,0,0,0,-1,1245,771,0,0
28,253,0,0,0,0,0,0,0,0,0,-1,1252,771,0,0
35,253,0,0,0,0,0,0,0,0,0,-1,1259,771,0,0
42,253,0,0,0,0,0,0,0,0,0,-1,1266,771,0,0
49,253,0,0,0,0,0,0,0,0,0,-1,1273,771,0,0
56,253,0,0,0,0,0,0,0,0,0,-1,1280,771,0,0
63,253,0,0,0,0,0,0,0,0,0,-1,1287,771,0,0
70,253,0,0,0,0,0,0,0,0,0,-1,1294,771,0,0
77,253,0,0,0,0,0,0,0,0,0,-1,1301,771,0,0
84,253,0,0,0,0,0,0,0,0,0,-1,1308,771,0,0
91,253,0,0,0,0,0,0,0,0,0,-1,1315,771,0,0
98,253,0,0,0,0,0,0,0,0,0,-1,1322,771,0,0
105,253,0,0,0,0,0,0,0,0,0,-1,1329,771,0,0
112,253,0,0,0,0,0,0,0,0,0,-1,1336,771,0,0
119,253,0,0,0,0,0,0,0,0,0,-1,1343,771,0,0
126,253,0,0,0,0,0,0,0,0,0,-1,1350,771,0,0
133,253,0,0,0,0,0,0,0,0,0,-1,1357,771,0,0
140,253,0,0,0,0,0,0,0,0,0,-1,1364,771,0,0
147,253,0,0,0,0,0,0,0,0,0,-1,1371,771,0,0
154,253,0,0,0,0,0,0,0,0,0,-1,1378,771,0,0
161,253,0,0,0,0,0,0,0,0,0,-1,1385,771,0,0
168,253,0,0,0,0,0,0,0,0,0,-1,1392,771,0,0
175,253,0,0,0,0,0,0,0,0,0,-1,1399,771,0,0
182,253,0,0,0,0,0,0,0,0,0,-1,1406,771,0,0
189,253,0,0,0,0,0,0,0,0,0,-1,1413,771,0,0
196,253,0,0,0,0,0,0,0,0,0,-1,1420,771,0,0
203,253,0,0,0,0,0,0,0,0,0,-1,1427,771,0,0
210,253,0,0,0,0,0,0,0,0,0,-1,1434,771,0,0
217,253,0,0,0,0,0,0,0,0,0,-1,1441,771,0,0
224,253,0,0,0,0,0,0,0,0,0,-1,1448,771,0,0
231,253,0,0,0,0,0,0,0,0,0,-1,1455,771,0,0
238,253,0,0,0,0,0,0,0,0,0,-1,1462,771,0,0
245,253,0,0,0,0,0,0,0,0,0,-1,1469,771,0,0
252,253,0,0,0,0,0,0,0,0,0,-1,1476,771,0,0
259,253,0,0,0,0,0,0,0,0,0,-1,1483,771,0,0
266,253,0,0,0,0,0,0,0,0,0,-1,1490,771,0,0
273,253,0,0,0,0,0,0,0,0,0,-1,1497,771,0,0
280,253,0,0,0,0,0,0,0,0,0,-1,1504,771,0,0
287,253,0,0,0,0,0,0,0,0,0,-1,1511,771,0,0
294,253,0,0,0,0,0,0,0,0,0,-1,1518,771,0,0
301,253,0,0,0,0,0,0,0,0,0,-1,1525,771,0,0
308,253,0,0,0,0,0,0,0,0,0,-1,1532,771,0,0
315,253,0,0,0,0,0,0,0,0,0,-1,1539,771,0,0
322,253,0,0,0,0,0,0,0,0,0,-1,1546,771,0,0
329,253,0,0,0,0,0,0,0,0,0,-1,1553,771,0,0
336,253,0,0,0,0,0,0,0,0,0,-1,1560,771,0,0
343,253,0,0,0,0,0,0,0,0,0,-1,1567,771,0,0
350,253,0,0,0,0,0,0,0,0,0,-1,1574,771,0,0
357,253,0,0,0,0,0,0,0,0,0,-1,1581,771,0,0
364,253,0,0,0,0,0,0,0,0,0,-1,1588,771,0,0
371,253,0,0,0,0,0,0,0,0,0,-1,1595,771,0,0
378,253,0,0,0,0,0,0,0,0,0,-1,1602,771,0,0
385,253,0,0,0,0,0,0,0,0,0,-1,1609,771,0,0
392,253,0,0,0,0,0,0,0,0,0,-1,1616,771,0,0
399,253,0,0,0,0,0,0,0,0,0,-1,1623,771,0,0
406,253,0,0,0,0,0,0,0,0,0,-1,1630,771,0,0
413,253,0,0,0,0,0,0,0,0,0,-1,1637,771,0,0
420,253,0,0,0,0,0,0,0,0,0,-1,1644,771,0,0
427,253,0,0,0,0,0,0,0,0,0,-1,1651,771,0,0
434,253,0,0,0,0,0,0,0,0,0,-1,1658,771,0,0
441,253,0,0,0,0,0,0,0,0,0,-1,1665,771,0,0
448,253,0,0,0,0,0,0,0,0,0,-1,1672,771,0,0
455,253,0,0,0,0,0,0,0,0,0,-1,1679,771,0,0
462,253,0,0,0,0,0,0,0,0,0,-1,1686,771,0,0
469,253,0,0,0,0,0,0,0,0,0,-1,1693,771,0,0
476,253,0,0,0,0,0,0,0,0,0,-1,1700,771,0,0
483,253,0,0,0,0,0,0,0,0,0,-1,1707,771,0,0
490,253,0,0,0,0,0,0,0,0,0,-1,1714,771,0,0
497,253,0,0,0,0,0,0,0,0,0,-1,1721,771,0,0
504,253,0,0,0,0,0,0,0,0,0,-1,1728,771,0,0
511,253,0,0,0,0,0,0,0,0,0,-1,1735,771,0,0
518,253,0,0,0,0,0,0,0,0,0,-1,1742,771,0,0
525,253,0,0,0,0,0,0,0,0,0,-1,1749,771,0,0
532,253,0,0,0,0,0,0,0,0,0,-1,1756,771,0,0
539,253,0,0,0,0,0,0,0,0,0,-1,1763,771,0,0
546,253,0,0,0,0,0,0,0,0,0,-1,1770,771,0,0
553,253,0,0,0,0,0,0,0,0,0,-1,1777,771,0,0
560,253,0,0,0,0,0,0,0,0,0,-1,1784,771,0,0
567,253,0,0,0,0,0,0,0,0,0,-1,1791,771,0,0
574,253,78.9934,2.36633,0,0,0,0,0,0,0,-1,1798,771,78.9934,-2.36634
581,253,78.9943,2.49091,0,0,0,0,0,0,0,-1,1805,771,78.9943,-2.49092
588,253,79.0275,2.57727,0,0,0,0,0,0,0,-1,1812,771,79.0275,-2.57727
595,253,79.5471,2.52985,0,0,0,0,0,0,0,-1,1819,771,79.5471,-2.52985
602,253,66.4502,2.6098,0,0,0,0,0,0,0,-1,1826,771,66.4502,-2.60979
609,253,65.2542,3.18195,0,0,0,0,0,0,0,-1,1833,771,65.2541,-3.18193
616,253,58.416,2.69031,0,0,0,0,0,0,0,-1,1840,771,58.4161,-2.69031
623,253,48.8328,3.01001,0,0,0,0,0,0,0,-1,1847,771,48.8328,-3.01002
630,253,33.561,2.96838,0,0,0,0,0,0,0,-1,1854,771,33.561,-2.96836
637,253,22.3192,-0.604004,0,0,0,0,0,0,0,-1,1861,771,22.3192,0.603986
644,253,48.2843,-5.22784,0,0,0,0,0,0,0,-1,1868,771,48.2843,5.22783
651,253,54.6687,-5.76508,0,0,0,0,0,0,0,-1,1875,771,54.6687,5.76508
658,253,54.0513,-4.71875,0.000116264,0.00118094,0.000277314,0.00124884,4.83625e-05,1.33067,0.000816918,0.0313086,1882,771,54.0512,4.71873
665,253,53.8632,-3.85571,0.000569128,0.000622298,-3.8942e-05,0.000642864,0.000548562,-1.0849,0.000400857,0.0247867,1889,771,53.8632,3.85569
672,253,53.8182,-2.94208,0.000613076,0.000473226,-0.000138293,0.000698117,0.000388185,-0.551329,0.000403901,0.0181996,1896,771,53.8183,2.94207
679,253,53.7917,-1.92731,0.000595321,0.000516314,-6.88667e-05,0.00063521,0.000476425,-0.524998,0.000381717,0.0143513,1903,771,53.7918,1.92729
686,253,53.6729,-0.923157,0.000716658,0.000709059,7.15543e-05,0.000784514,0.000641204,0.758874,0.000482388,0.0284464,1910,771,53.6729,0.923136
693,253,53.5804,-0.0134888,0.000913032,0.000875408,0.00023057,0.00112556,0.000662884,0.744693,0.000653258,0.0268475,1917,771,53.5805,0.0134763
700,253,53.5446,0.919983,0.00122575,0.00108697,0.000447587,0.00160929,0.000703425,0.708492,0.000931574,0.0171152,1924,771,53.5446,-0.919977
707,253,53.5275,1.89502,0.00149942,0.0012387,0.000615456,0.00199817,0.000739948,0.681034,0.00116651,0.0160314,1931,771,53.5274,-1.89505
714,253,53.4681,2.81696,0.00155524,0.00112866,0.000724856,0.00209754,0.000586366,0.642311,0.00124963,0.0273394,1938,771,53.4681,-2.81697
721,253,53.39,3.71313,0.00179334,0.00103045,0.000973444,0.0024574,0.000366385,0.598669,0.00153083,0.0461779,1945,771,53.3901,-3.71314
728,253,53.3539,4.69025,0,0,0,0,0,0,0,-1,1952,771,53.3539,-4.69025
735,253,34.5735,6.15118,0,0,0,0,0,0,0,-1,1959,771,34.5734,-6.1512
742,253,31.0571,5.7337,0,0,0,0,0,0,0,-1,1966,771,31.0571,-5.73373
749,253,33.7754,3.21533,0,0,0,0,0,0,0,-1,1973,771,33.7754,-3.21533
756,253,0,0,0,0,0,0,0,0,0,-1,1980,771,0,0
763,253,0,0,0,0,0,0,0,0,0,-1,1987,771,0,0
770,253,0,0,0,0,0,0,0,0,0,-1,1994,771,0,0
777,253,0,0,0,0,0,0,0,0,0,-1,2001,771,0,0
784,253,0,0,0,0,0,0,0,0,0,-1,2008,771,0,0
791,253,0,0,0,0,0,0,0,0,0,-1,2015,771,0,0
798,253,0,0,0,0,0,0,0,0,0,-1,2022,771,0,0
805,253,0,0,0,0,0,0,0,0,0,-1,2029,771,0,0
812,253,0,0,0,0,0,0,0,0,0,-1,2036,771,0,0
-700,246,0,0,0,0,0,0,0,0,0,-1,524,778,0,0
-693,246,0,0,0,0,0,0,0,0,0,-1,531,778,0,0
-686,246,0,0,0,0,0,0,0,0,0,-1,538,778,0,0
-679,246,0,0,0,0,0,0,0,0,0,-1,545,778,0,0
-672,246,0,0,0,0,0,0,0,0,0,-1,552,778,0,0
-665,246,0,0,0,0,0,0,0,0,0,-1,559,778,0,0
-658,246,0,0,0,0,0,0,0,0,0,-1,566,778,0,0
-651,246,0,0,0,0,0,0,0,0,0,-1,573,778,0,0
-644,246,0,0,0,0,0,0,0,0,0,-1,580,778,0,0
-637,246,-24.1234,0.130432,0,0,0,0,0,0,0,-1,587,778,-24.1234,-0.130438
-630,246,-24.0781,1.38916,0,0,0,0,0,0,0,-1,594,778,-24.0781,-1.38913
-623,246,-23.9183,2.49573,0,0,0,0,0,0,0,-1,601,778,-23.9183,-2.49575
-616,246,-26.8182,2.0705,0,0,0,0,0,0,0,-1,608,778,-26.8182,-2.07052
-609,246,-26.0615,1.16388,0,0,0,0,0,0,0,-1,615,778,-26.0615,-1.16388
-602,246,-39.0479,5.59875,0,0,0,0,0,0,0,-1,622,778,-39.0478,-5.59876
-595,246,-38.6907,4.49219,0.00455707,0.00517643,-0.0133912,0.0182615,-0.00852799,-0.796959,0.0158035,0.0468324,629,778,-38.6907,-4.49221
-588,246,-38.3483,3.12732,0.00362462,0.00449701,-0.00970804,0.0137787,-0.00565702,-0.807849,0.0115431,0.0328624,636,778,-38.3483,-3.12734
-581,246,-38.5469,1.97406,0.00263025,0.00369934,-0.00677519,0.00996104,-0.00363144,-0.824765,0.0081263,0.0206305,643,778,-38.547,-1.97404
-574,246,-38.5432,0.904236,0.00182029,0.0029548,-0.00438316,0.00680725,-0.00203217,-0.849749,0.0053459,0.0203556,650,778,-38.5431,-0.904259
-567,246,-38.616,-0.0693359,0.00104112,0.00225705,-0.00253413,0.00425513,-0.000956954,-0.903128,0.00320374,0.0276801,657,778,-38.616,0.06932
-560,246,-38.7379,-0.965271,0.000325063,0.00169194,-0.0011789,0.00237118,-0.000354175,-1.04809,0.00171111,0.0215389,664,778,-38.7379,0.965253
-553,246,-38.7773,-1.87494,-0.000401013,0.00140624,-0.000195776,0.0014272,-0.000421978,-1.46412,0.00111897,0.0137545,671,778,-38.7773,1.87491
-546,246,-38.838,-2.83594,-0.00106991,0.00130624,0.000580567,0.0014405,-0.00120417,1.34353,0.00152893,0.0112662,678,778,-38.838,2.83596
-539,246,-38.9412,-3.86279,-0.0016343,0.00100355,0.00105399,0.00137295,-0.00200371,1.23369,0.00196082,0.0136757,685,778,-38.9412,3.86282
-532,246,-39.0363,-4.83209,-0.00180659,0.000798076,0.000988531,0.00113076,-0.00213926,1.24616,0.00191764,0.0316728,692,778,-39.0362,4.83207
-525,246,-39.2092,-5.75696,0,0,0,0,0,0,0,-1,699,778,-39.2091,5.75695
-518,246,-39.3732,-7.1925,0,0,0,0,0,0,0,-1,706,778,-39.3732,7.19249
-511,246,-28.5886,-5.38635,0,0,0,0,0,0,0,-1,713,778,-28.5886,5.38633
-504,246,-20.0047,-2.88214,0,0,0,0,0,0,0,-1,720,778,-20.0047,2.88216
-497,246,-29.4669,1.82684,0,0,0,0,0,0,0,-1,727,778,-29.4669,-1.82687
-490,246,-40.4299,1.04309,0,0,0,0,0,0,0,-1,734,778,-40.4299,-1.04308
-483,246,-55.5514,-0.0795898,0,0,0,0,0,0,0,-1,741,778,-55.5514,0.0795595
-476,246,-63.2255,0.505493,0,0,0,0,0,0,0,-1,748,778,-63.2255,-0.505497
-469,246,-63.0847,0.47876,-0.00114168,-0.0163697,0.00234467,-0.000788839,-0.0167225,0.149364,0.0108949,0.0428049,755,778,-63.0847,-0.478774
-462,246,-63.0904,0.653198,-0.0014328,-0.0211743,0.00256228,-0.00110566,-0.0215014,0.126989,0.0139803,0.0477235,762,778,-63.0904,-0.653218
-455,246,0,0,0,0,0,0,0,0,0,-1,769,778,0,0
-448,246,0,0,0,0,0,0,0,0,0,-1,776,778,0,0
-441,246,0,0,0,0,0,0,0,0,0,-1,783,778,0,0
-434,246,0,0,0,0,0,0,0,0,0,-1,790,778,0,0
-427,246,0,0,0,0,0,0,0,0,0,-1,797,778,0,0
-420,246,0,0,0,0,0,0,0,0,0,-1,804,778,0,0
-413,246,0,0,0,0,0,0,0,0,0,-1,811,778,0,0
-406,246,0,0,0,0,0,0,0,0,0,-1,818,778,0,0
-399,246,0,0,0,0,0,0,0,0,0,-1,825,778,0,0
-392,246,0,0,0,0,0,0,0,0,0,-1,832,778,0,0
-385,246,0,0,0,0,0,0,0,0,0,-1,839,778,0,0
-378,246,0,0,0,0,0,0,0,0,0,-1,846,778,0,0
-371,246,0,0,0,0,0,0,0,0,0,-1,853,778,0,0
-364,246,0,0,0,0,0,0,0,0,0,-1,860,778,0,0
-357,246,0,0,0,0,0,0,0,0,0,-1,867,778,0,0
-350,246,0,0,0,0,0,0,0,0,0,-1,874,778,0,0
-343,246,0,0,0,0,0,0,0,0,0,-1,881,778,0,0
-336,246,0,0,0,0,0,0,0,0,0,-1,888,778,0,0
-329,246,0,0,0,0,0,0,0,0,0,-1,895,778,0,0
-322,246,0,0,0,0,0,0,0,0,0,-1,902,778,0,0
-315,246,0,0,0,0,0,0,0,0,0,-1,909,778,0,0
-308,246,0,0,0,0,0,0,0,0,0,-1,916,778,0,0
-301,246,0,0,0,0,0,0,0,0,0,-1,923,778,0,0
-294,246,0,0,0,0,0,0,0,0,0,-1,930,778,0,0
-287,246,0,0,0,0,0,0,0,0,0,-1,937,778,0,0
-280,246,0,0,0,0,0,0,0,0,0,-1,944,778,0,0
-273,246,0,0,0,0,0,0,0,0,0,-1,951,778,0,0
-266,246,0,0,0,0,0,0,0,0,0,-1,958,778,0,0
-259,246,0,0,0,0,0,0,0,0,0,-1,965,778,0,0
-252,246,0,0,0,0,0,0,0,0,0,-1,972,778,0,0
-245,246,0,0,0,0,0,0,0,0,0,-1,979,778,0,0
-238,246,0,0,0,0,0,0,0,0,0,-1,986,778,0,0
-231,246,0,0,0,0,0,0,0,0,0,-1,993,778,0,0
-224,246,0,0,0,0,0,0,0,0,0,-1,1000,778,0,0
-217,246,0,0,0,0,0,0,0,0,0,-1,1007,778,0,0
-210,246,0,0,0,0,0,0,0,0,0,-1,1014,778,0,0
-203,246,0,0,0,0,0,0,0,0,0,-1,1021,778,0,0
-196,246,0,0,0,0,0,0,0,0,0,-1,1028,778,0,0
-189,246,0,0,0,0,0,0,0,0,0,-1,1035,778,0,0
-182,246,0,0,0,0,0,0,0,0,0,-1,1042,778,0,0
-175,246,0,0,0,0,0,0,0,0,0,-1,1049,778,0,0
-168,246,0,0,0,0,0,0,0,0,0,-1,1056,778,0,0
-161,246,0,0,0,0,0,0,0,0,0,-1,1063,778,0,0
-154,246,0,0,0,0,0,0,0,0,0,-1,1070,778,0,0
-147,246,0,0,0,0,0,0,0,0,0,-1,1077,778,0,0
-140,246,0,0,0,0,0,0,0,0,0,-1,1084,778,0,0
-133,246,0,0,0,0,0,0,0,0,0,-1,1091,778,0,0
-126,246,0,0,0,0,0,0,0,0,0,-1,1098,778,0,0
-119,246,0,0,0,0,0,0,0,0,0,-1,1105,778,0,0
-112,246,0,0,0,0,0,0,0,0,0,-1,1112,778,0,0
-105,246,0,0,0,0,0,0,0,0,0,-1,1119,778,0,0
-98,246,0,0,0,0,0,0,0,0,0,-1,1126,778,0,0
-91,246,0,0,0,0,0,0,0,0,0,-1,1133,778,0,0
-84,246,0,0,0,0,0,0,0,0,0,-1,1140,778,0,0
-77,246,0,0,0,0,0,0,0,0,0,-1,1147,778,0,0
-70,246,0,0,0,0,0,0,0,0,0,-1,1154,778,0,0
-63,246,0,0,0,0,0,0,0,0,0,-1,1161,778,0,0
-56,246,0,0,0,0,0,0,0,0,0,-1,1168,778,0,0
-49,246,0,0,0,0,0,0,0,0,0,-1,1175,778,0,0
-42,246,0,0,0,0,0,0,0,0,0,-1,1182,778,0,0
-35,246,0,0,0,0,0,0,0,0,0,-1,1189,778,0,0
-28,246,0,0,0,0,0,0,0,0,0,-1,1196,778,0,0
-21,246,0,0,0,0,0,0,0,0,0,-1,1203,778,0,0
-14,246,0,0,0,0,0,0,0,0,0,-1,1210,778,0,0
-7,246,0,0,0,0,0,0,0,0,0,-1,1217,778,0,0
0,246,0,0,0,0,0,0,0,0,0,-1,1224,778,0,0
7,246,0,0,0,0,0,0,0,0,0,-1,1231,778,0,0
14,246,0,0,0,0,0,0,0,0,0,-1,1238,778,0,0
21,246,0,0,0,0,0,0,0,0,0,-1,1245,778,0,0
28,246,0,0,0,0,0,0,0,0,0,-1,1252,778,0,0
35,246,0,0,0,0,0,0,0,0,0,-1,1259,778,0,0
42,246,0,0,0,0,0,0,0,0,0,-1,1266,778,0,0
49,246,0,0,0,0,0,0,0,0,0,-1,1273,778,0,0
56,246,0,0,0,0,0,0,0,0,0,-1,1280,778,0,0
63,246,0,0,0,0,0,0,0,0,0,-1,1287,778,0,0
70,246,0,0,0,0,0,0,0,0,0,-1,1294,778,0,0
77,246,0,0,0,0,0,0,0,0,0,-1,1301,778,0,0
84,246,0,0,0,0,0,0,0,0,0,-1,1308,778,0,0
91,246,0,0,0,0,0,0,0,0,0,-1,1315,778,0,0
98,246,0,0,0,0,0,0,0,0,0,-1,1322,778,0,0
105,246,0,0,0,0,0,0,0,0,0,-1,1329,778,0,0
112,246,0,0,0,0,0,0,0,0,0,-1,1336,778,0,0
119,246,0,0,0,0,0,0,0,0,0,-1,1343,778,0,0
126,246,0,0,0,0,0,0,0,0,0,-1,1350,778,0,0
133,246,0,0,0,0,0,0,0,0,0,-1,1357,778,0,0
140,246,0,0,0,0,0,0,0,0,0,-1,1364,778,0,0
147,246,0,0,0,0,0,0,0,0,0,-1,1371,778,0,0
154,246,0,0,0,0,0,0,0,0,0,-1,1378,778,0,0
161,246,0,0,0,0,0,0,0,0,0,-1,1385,778,0,0
168,246,0,0,0,0,0,0,0,0,0,-1,1392,778,0,0
175,246,0,0,0,0,0,0,0,0,0,-1,1399,778,0,0
182,246,0,0,0,0,0,0,0,0,0,-1,1406,778,0,0
189,246,0,0,0,0,0,0,0,0,0,-1,1413,778,0,0
196,246,0,0,0,0,0,0,0,0,0,-1,1420,778,0,0
203,246,0,0,0,0,0,0,0,0,0,-1,1427,778,0,0
210,246,0,0,0,0,0,0,0,0,0,-1,1434,778,0,0
217,246,0,0,0,0,0,0,0,0,0,-1,1441,778,0,0
224,246,0,0,0,0,0,0,0,0,0,-1,1448,778,0,0
231,246,0,0,0,0,0,0,0,0,0,-1,1455,778,0,0
238,246,0,0,0,0,0,0,0,0,0,-1,1462,778,0,0
245,246,0,0,0,0,0,0,0,0,0,-1,1469,778,0,0
252,246,0,0,0,0,0,0,0,0,0,-1,1476,778,0,0
259,246,0,0,0,0,0,0,0,0,0,-1,1483,778,0,0
266,246,0,0,0,0,0,0,0,0,0,-1,1490,778,0,0
273,246,0,0,0,0,0,0,0,0,0,-1,1497,778,0,0
280,246,0,0,0,0,0,0,0,0,0,-1,1504,778,0,0
287,246,0,0,0,0,0,0,0,0,0,-1,1511,778,0,0
294,246,0,0,0,0,0,0,0,0,0,-1,1518,778,0,0
301,246,0,0,0,0,0,0,0,0,0,-1,1525,778,0,0
308,246,0,0,0,0,0,0,0,0,0,-1,1532,778,0,0
315,246,0,0,0,0,0,0,0,0,0,-1,1539,778,0,0
322,246,0,0,0,0,0,0,0,0,0,-1,1546,778,0,0
329,246,0,0,0,0,0,0,0,0,0,-1,1553,778,0,0
336,246,0,0,0,0,0,0,0,0,0,-1,1560,778,0,0
343,246,0,0,0,0,0,0,0,0,0,-1,1567,778,0,0
350,246,0,0,0,0,0,0,0,0,0,-1,1574,778,0,0
357,246,0,0,0,0,0,0,0,0,0,-1,1581,778,0,0
364,246,0,0,0,0,0,0,0,0,0,-1,1588,778,0,0
371,246,0,0,0,0,0,0,0,0,0,-1,1595,778,0,0
378,246,0,0,0,0,0,0,0,0,0,-1,1602,778,0,0
385,246,0,0,0,0,0,0,0,0,0,-1,1609,778,0,0
392,246,0,0,0,0,0,0,0,0,0,-1,1616,778,0,0
399,246,0,0,0,0,0,0,0,0,0,-1,1623,778,0,0
406,246,0,0,0,0,0,0,0,0,0,-1,1630,778,0,0
413,246,0,0,0,0,0,0,0,0,0,-1,1637,778,0,0
420,246,0,0,0,0,0,0,0,0,0,-1,1644,778,0,0
427,246,0,0,0,0,0,0,0,0,0,-1,1651,778,0,0
434,246,0,0,0,0,0,0,0,0,0,-1,1658,778,0,0
441,246,0,0,0,0,0,0,0,0,0,-1,1665,778,0,0
448,246,0,0,0,0,0,0,0,0,0,-1,1672,778,0,0
455,246,0,0,0,0,0,0,0,0,0,-1,1679,778,0,0
462,246,0,0,0,0,0,0,0,0,0,-1,1686,778,0,0
469,246,0,0,0,0,0,0,0,0,0,-1,1693,778,0,0
476,246,0,0,0,0,0,0,0,0,0,-1,1700,778,0,0
483,246,0,0,0,0,0,0,0,0,0,-1,1707,778,0,0
490,246,0,0,0,0,0,0,0,0,0,-1,1714,778,0,0
497,246,0,0,0,0,0,0,0,0,0,-1,1721,778,0,0
504,246,0,0,0,0,0,0,0,0,0,-1,1728,778,0,0
511,246,0,0,0,0,0,0,0,0,0,-1,1735,778,0,0
518,246,0,0,0,0,0,0,0,0,0,-1,1742,778,0,0
525,246,0,0,0,0,0,0,0,0,0,-1,1749,778,0,0
532,246,0,0,0,0,0,0,0,0,0,-1,1756,778,0,0
539,246,0,0,0,0,0,0,0,0,0,-1,1763,778,0,0
546,246,0,0,0,0,0,0,0,0,0,-1,1770,778,0,0
553,246,0,0,0,0,0,0,0,0,0,-1,1777,778,0,0
560,246,0,0,0,0,0,0,0,0,0,-1,1784,778,0,0
567,246,0,0,0,0,0,0,0,0,0,-1,1791,778,0,0
574,246,0,0,0,0,0,0,0,0,0,-1,1798,778,0,0
581,246,78.9982,2.40692,0.0101907,-0.00434148,-0.000283604,0.0101962,-0.00434701,-0.0195057,0.00861992,0.0372041,1805,778,78.9982,-2.40692
588,246,78.9727,2.47217,0.00886103,-0.00113514,0.000883901,0.00893859,-0.0012127,0.087519,0.0064017,0.0441495,1812,778,78.9726,-2.47216
595,246,79.2736,2.45972,0.00761302,0.00067552,0.00141549,0.00789071,0.000397827,0.193722,0.00513301,0.0489241,1819,778,79.2735,-2.45973
602,246,79.1555,2.71625,0,0,0,0,0,0,0,-1,1826,778,79.1556,-2.71626
609,246,65.04,3.03278,0,0,0,0,0,0,0,-1,1833,778,65.04,-3.03277
616,246,60.4568,3.98492,0,0,0,0,0,0,0,-1,1840,778,60.4568,-3.98491
623,246,55.8947,3.95953,0,0,0,0,0,0,0,-1,1847,778,55.8947,-3.95952
630,246,49.5938,1.99902,0,0,0,0,0,0,0,-1,1854,778,49.5937,-1.999
637,246,29.5785,0.837585,0,0,0,0,0,0,0,-1,1861,778,29.5785,-0.837606
644,246,28.1232,-1.43188,0,0,0,0,0,0,0,-1,1868,778,28.1232,1.43188
651,246,48.5865,-4.32922,0,0,0,0,0,0,0,-1,1875,778,48.5865,4.32921
658,246,54.7974,-4.78265,0,0,0,0,0,0,0,-1,1882,778,54.7974,4.78268
665,246,54.8561,-3.86163,0.000470897,0.000357,-0.000152596,0.000576825,0.000251073,-0.606804,0.000333959,0.0323132,1889,778,54.8561,3.86161
672,246,54.8193,-2.87939,0.000535677,0.000266525,-0.000295712,0.000725996,7.62068e-05,-0.571859,0.000460701,0.0223666,1896,778,54.8194,2.87942
679,246,54.7698,-1.87329,0.000439011,0.000286855,-0.000279506,0.000652608,7.32585e-05,-0.652524,0.000412825,0.022557,1903,778,54.7698,1.87326
686,246,54.6919,-0.867004,0.000490695,0.000464097,-0.000194456,0.000672306,0.000282485,-0.751256,0.000389802,0.0257311,1910,778,54.6919,0.867013
693,246,54.6401,0.0494385,0.000665077,0.000575807,-8.3082e-05,0.000714754,0.000526129,-0.538901,0.000427724,0.0202834,1917,778,54.6401,-0.0494387
700,246,54.6002,0.972351,0.000987705,0.000678317,9.53373e-05,0.00101472,0.000651299,0.276158,0.000593657,0.0153678,1924,778,54.6003,-0.972329
707,246,54.5125,1.95282,0.00131271,0.000772922,0.000281952,0.00143313,0.000652509,0.403621,0.000828517,0.0139988,1931,778,54.5125,-1.95284
714,246,54.4198,2.94318,0.0015133,0.000630915,0.000440946,0.00169588,0.000448342,0.392558,0.00101471,0.0151449,1938,778,54.4198,-2.94317
721,246,54.2975,3.85645,0.00189323,0.000353976,0.000728805,0.00218355,6.36593e-05,0.37908,0.00143495,0.0205211,1945,778,54.2975,-3.85645
728,246,54.3386,5.21161,0,0,0,0,0,0,0,-1,1952,778,54.3386,-5.21162
735,246,54.5455,6.6792,0,0,0,0,0,0,0,-1,1959,778,54.5456,-6.67918
742,246,31.7356,6.70013,0,0,0,0,0,0,0,-1,1966,778,31.7356,-6.70011
749,246,32.3883,7.69324,0,0,0,0,0,0,0,-1,1973,778,32.3883,-7.69322
756,246,33.6919,3.45264,0,0,0,0,0,0,0,-1,1980,778,33.6919,-3.45262
763,246,0,0,0,0,0,0,0,0,0,-1,1987,778,0,0
770,246,0,0,0,0,0,0,0,0,0,-1,1994,778,0,0
777,246,0,0,0,0,0,0,0,0,0,-1,2001,778,0,0
784,246,0,0,0,0,0,0,0,0,0,-1,2008,778,0,0
791,246,0,0,0,0,0,0,0,0,0,-1,2015,778,0,0
798,246,0,0,0,0,0,0,0,0,0,-1,2022,778,0,0
805,246,0,0,0,0,0,0,0,0,0,-1,2029,778,0,0
812,246,0,0,0,0,0,0,0,0,0,-1,2036,778,0,0
-700,239,0,0,0,0,0,0,0,0,0,-1,524,785,0,0
-693,239,0,0,0,0,0,0,0,0,0,-1,531,785,0,0
-686,239,0,0,0,0,0,0,0,0,0,-1,538,785,0,0
-679,239,0,0,0,0,0,0,0,0,0,-1,545,785,0,0
-672,239,0,0,0,0,0,0,0,0,0,-1,552,785,0,0
-665,239,0,0,0,0,0,0,0,0,0,-1,559,785,0,0
-658,239,0,0,0,0,0,0,0,0,0,-1,566,785,0,0
-651,239,0,0,0,0,0,0,0,0,0,-1,573,785,0,0
-644,239,0,0,0,0,0,0,0,0,0,-1,580,785,0,0
-637,239,-23.2709,0.465088,0,0,0,0,0,0,0,-1,587,785,-23.271,-0.465116
-630,239,-23.4006,0.956299,0,0,0,0,0,0,0,-1,594,785,-23.4005,-0.956285
-623,239,-30.6328,2.52185,0,0,0,0,0,0,0,-1,601,785,-30.6328,-2.52183
-616,239,-29.1425,1.42139,0,0,0,0,0,0,0,-1,608,785,-29.1425,-1.42139
-609,239,-27.8569,0.322937,0,0,0,0,0,0,0,-1,615,785,-27.857,-0.322963
-602,239,-39.0919,5.85016,0,0,0,0,0,0,0,-1,622,785,-39.0919,-5.85017
-595,239,-39.2216,4.49237,0.00310516,0.00475204,-0.0113951,0.0153534,-0.00749625,-0.821467,0.0134497,0.0436122,629,785,-39.2216,-4.49238
-588,239,-39.3622,3.13635,0.00285099,0.00417737,-0.00845203,0.0119922,-0.00496383,-0.82455,0.010066,0.0214452,636,785,-39.3622,-3.13637
-581,239,-39.5336,2.01379,0.00235062,0.00348055,-0.00596768,0.00890995,-0.00307877,-0.832593,0.00718943,0.0111975,643,785,-39.5336,-2.0138
-574,239,-39.5602,0.97345,0.00184753,0.0028135,-0.00386192,0.00622251,-0.00156149,-0.847607,0.00475508,0.0122423,650,785,-39.5602,-0.973437
-567,239,-39.6195,0.0230103,0.00124437,0.00221836,-0.00217841,0.00396355,-0.000500811,-0.895368,0.00282414,0.0201471,657,785,-39.6195,-0.0230166
-560,239,-39.723,-0.888245,0.000565465,0.0017129,-0.000906142,0.00221168,6.66885e-05,-1.06762,0.00145273,0.0206733,664,785,-39.723,0.88823
-553,239,-39.762,-1.83075,-0.00024976,0.00146019,4.28432e-05,0.00146126,-0.000250833,1.54576,0.00106765,0.0145218,671,785,-39.762,1.83073
-546,239,-39.7855,-2.78687,-0.000942198,0.00144425,0.000846695,0.00171413,-0.00121208,1.26223,0.00169772,0.0175845,678,785,-39.7855,2.78689
-539,239,-40.003,-3.79102,-0.00135319,0.00100896,0.00129427,0.00158004,-0.00192428,1.15525,0.00202647,0.0387969,685,785,-40.003,3.791
-532,239,-40.4769,-4.94934,0,0,0,0,0,0,0,-1,692,785,-40.4769,4.94936
-525,239,-39.7443,-5.63049,0,0,0,0,0,0,0,-1,699,785,-39.7443,5.6305
-518,239,-39.6514,-6.21271,0,0,0,0,0,0,0,-1,706,785,-39.6514,6.21269
-511,239,-20.9849,-2.09235,0,0,0,0,0,0,0,-1,713,785,-20.9848,2.09234
-504,239,-25.5015,2.00421,0,0,0,0,0,0,0,-1,720,785,-25.5015,-2.00422
-497,239,-40.2453,1.4447,0,0,0,0,0,0,0,-1,727,785,-40.2453,-1.4447
-490,239,-55.7633,-0.30426,0,0,0,0,0,0,0,-1,734,785,-55.7633,0.304271
-483,239,-63.181,0.540833,0,0,0,0,0,0,0,-1,741,785,-63.181,-0.540846
-476,239,-63.1815,0.556641,-0.000175175,-0.0101863,0.00132591,-2.54298e-06,-0.0103589,0.12947,0.00690512,0.0433672,748,785,-63.1814,-0.556613
-469,239,-63.134,0.579102,0.000205714,-0.0138014,0.00161777,0.000390132,-0.0139858,0.113505,0.00945659,0.0430052,755,785,-63.134,-0.579118
-462,239,-63.1118,0.732422,0.00045272,-0.0178605,0.00143865,0.000565048,-0.0179728,0.0779211,0.0121746,0.0462299,762,785,-63.1118,-0.732443
-455,239,0,0,0,0,0,0,0,0,0,-1,769,785,0,0
-448,239,0,0,0,0,0,0,0,0,0,-1,776,785,0,0
-441,239,0,0,0,0,0,0,0,0,0,-1,783,785,0,0
-434,239,0,0,0,0,0,0,0,0,0,-1,790,785,0,0
-427,239,0,0,0,0,0,0,0,0,0,-1,797,785,0,0
-420,239,0,0,0,0,0,0,0,0,0,-1,804,785,0,0
-413,239,0,0,0,0,0,0,0,0,0,-1,811,785,0,0
-406,239,0,0,0,0,0,0,0,0,0,-1,818,785,0,0
-399,239,0,0,0,0,0,0,0,0,0,-1,825,785,0,0
-392,239,0,0,0,0,0,0,0,0,0,-1,832,785,0,0
-385,239,0,0,0,0,0,0,0,0,0,-1,839,785,0,0
-378,239,0,0,0,0,0,0,0,0,0,-1,846,785,0,0
-371,239,0,0,0,0,0,0,0,0,0,-1,853,785,0,0
-364,239,0,0,0,0,0,0,0,0,0,-1,860,785,0,0
-357,239,0,0,0,0,0,0,0,0,0,-1,867,785,0,0
-350,239,0,0,0,0,0,0,0,0,0,-1,874,785,0,0
-343,239,0,0,0,0,0,0,0,0,0,-1,881,785,0,0
-336,239,0,0,0,0,0,0,0,0,0,-1,888,785,0,0
-329,239,0,0,0,0,0,0,0,0,0,-1,895,785,0,0
-322,239,0,0,0,0,0,0,0,0,0,-1,902,785,0,0
-315,239,0,0,0,0,0,0,0,0,0,-1,909,785,0,0
-308,239,0,0,0,0,0,0,0,0,0,-1,916,785,0,0
-301,239,0,0,0,0,0,0,0,0,0,-1,923,785,0,0
-294,239,0,0,0,0,0,0,0,0,0,-1,930,785,0,0
-287,239,0,0,0,0,0,0,0,0,0,-1,937,785,0,0
-280,239,0,0,0,0,0,0,0,0,0,-1,944,785,0,0
-273,239,0,0,0,0,0,0,0,0,0,-1,951,785,0,0
-266,239,0,0,0,0,0,0,0,0,0,-1,958,785,0,0
-259,239,0,0,0,0,0,0,0,0,0,-1,965,785,0,0
-252,239,0,0,0,0,0,0,0,0,0,-1,972,785,0,0
-245,239,0,0,0,0,0,0,0,0,0,-1,979,785,0,0
-238,239,0,0,0,0,0,0,0,0,0,-1,986,785,0,0
-231,239,0,0,0,0,0,0,0,0,0,-1,993,785,0,0
-224,239,0,0,0,0,0,0,0,0,0,-1,1000,785,0,0
-217,239,0,0,0,0,0,0,0,0,0,-1,1007,785,0,0
-210,239,0,0,0,0,0,0,0,0,0,-1,1014,785,0,0
-203,239,0,0,0,0,0,0,0,0,0,-1,1021,785,0,0
-196,239,0,0,0,0,0,0,0,0,0,-1,1028,785,0,0
-189,239,0,0,0,0,0,0,0,0,0,-1,1035,785,0,0
-182,239,0,0,0,0,0,0,0,0,0,-1,1042,785,0,0
-175,239,0,0,0,0,0,0,0,0,0,-1,1049,785,0,0
-168,239,0,0,0,0,0,0,0,0,0,-1,1056,785,0,0
-161,239,0,0,0,0,0,0,0,0,0,-1,1063,785,0,0
-154,239,0,0,0,0,0,0,0,0,0,-1,1070,785,0,0
-147,239,0,0,0,0,0,0,0,0,0,-1,1077,785,0,0
-140,239,0,0,0,0,0,0,0,0,0,-1,1084,785,0,0
-133,239,0,0,0,0,0,0,0,0,0,-1,1091,785,0,0
-126,239,0,0,0,0,0,0,0,0,0,-1,1098,785,0,0
-119,239,0,0,0,0,0,0,0,0,0,-1,1105,785,0,0
-112,239,0,0,0,0,0,0,0,0,0,-1,1112,785,0,0
-105,239,0,0,0,0,0,0,0,0,0,-1,1119,785,0,0
-98,239,0,0,0,0,0,0,0,0,0,-1,1126,785,0,0
-91,239,0,0,0,0,0,0,0,0,0,-1,1133,785,0,0
-84,239,0,0,0,0,0,0,0,0,0,-1,1140,785,0,0
-77,239,0,0,0,0,0,0,0,0,0,-1,1147,785,0,0
-70,239,0,0,0,0,0,0,0,0,0,-1,1154,785,0,0
-63,239,0,0,0,0,0,0,0,0,0,-1,1161,785,0,0
-56,239,0,0,0,0,0,0,0,0,0,-1,1168,785,0,0
-49,239,0,0,0,0,0,0,0,0,0,-1,1175,785,0,0
-42,239,0,0,0,0,0,0,0,0,0,-1,1182,785,0,0
-35,239,0,0,0,0,0,0,0,0,0,-1,1189,785,0,0
-28,239,0,0,0,0,0,0,0,0,0,-1,1196,785,0,0
-21,239,0,0,0,0,0,0,0,0,0,-1,1203,785,0,0
-14,239,0,0,0,0,0,0,0,0,0,-1,1210,785,0,0
-7,239,0,0,0,0,0,0,0,0,0,-1,1217,785,0,0
0,239,0,0,0,0,0,0,0,0,0,-1,1224,785,0,0
7,239,0,0,0,0,0,0,0,0,0,-1,1231,785,0,0
14,239,0,0,0,0,0,0,0,0,0,-1,1238,785,0,0
21,239,0,0,0,0,0,0,0,0,0,-1,1245,785,0,0
28,239,0,0,0,0,0,0,0,0,0,-1,1252,785,0,0
35,239,0,0,0,0,0,0,0,0,0,-1,1259,785,0,0
42,239,0,0,0,0,0,0,0,0,0,-1,1266,785,0,0
49,239,0,0,0,0,0,0,0,0,0,-1,1273,785,0,0
56,239,0,0,0,0,0,0,0,0,0,-1,1280,785,0,0
63,239,0,0,0,0,0,0,0,0,0,-1,1287,785,0,0
70,239,0,0,0,0,0,0,0,0,0,-1,1294,785,0,0
77,239,0,0,0,0,0,0,0,0,0,-1,1301,785,0,0
84,239,0,0,0,0,0,0,0,0,0,-1,1308,785,0,0
91,239,0,0,0,0,0,0,0,0,0,-1,1315,785,0,0
98,239,0,0,0,0,0,0,0,0,0,-1,1322,785,0,0
105,239,0,0,0,0,0,0,0,0,0,-1,1329,785,0,0
112,239,0,0,0,0,0,0,0,0,0,-1,1336,785,0,0
119,239,0,0,0,0,0,0,0,0,0,-1,1343,785,0,0
126,239,0,0,0,0,0,0,0,0,0,-1,1350,785,0,0
133,239,0,0,0,0,0,0,0,0,0,-1,1357,785,0,0
140,239,0,0,0,0,0,0,0,0,0,-1,1364,785,0,0
147,239,0,0,0,0,0,0,0,0,0,-1,1371,785,0,0
154,239,0,0,0,0,0,0,0,0,0,-1,1378,785,0,0
161,239,0,0,0,0,0,0,0,0,0,-1,1385,785,0,0
168,239,0,0,0,0,0,0,0,0,0,-1,1392,785,0,0
175,239,0,0,0,0,0,0,0,0,0,-1,1399,785,0,0
182,239,0,0,0,0,0,0,0,0,0,-1,1406,785,0,0
189,239,0,0,0,0,0,0,0,0,0,-1,1413,785,0,0
196,239,0,0,0,0,0,0,0,0,0,-1,1420,785,0,0
203,239,0,0,0,0,0,0,0,0,0,-1,1427,785,0,0
210,239,0,0,0,0,0,0,0,0,0,-1,1434,785,0,0
217,239,0,0,0,0,0,0,0,0,0,-1,1441,785,0,0
224,239,0,0,0,0,0,0,0,0,0,-1,1448,785,0,0
231,239,0,0,0,0,0,0,0,0,0,-1,1455,785,0,0
238,239,0,0,0,0,0,0,0,0,0,-1,1462,785,0,0
245,239,0,0,0,0,0,0,0,0,0,-1,1469,785,0,0
252,239,0,0,0,0,0,0,0,0,0,-1,1476,785,0,0
259,239,0,0,0,0,0,0,0,0,0,-1,1483,785,0,0
266,239,0,0,0,0,0,0,0,0,0,-1,1490,785,0,0
273,239,0,0,0,0,0,0,0,0,0,-1,1497,785,0,0
280,239,0,0,0,0,0,0,0,0,0,-1,1504,785,0,0
287,239,0,0,0,0,0,0,0,0,0,-1,1511,785,0,0
294,239,0,0,0,0,0,0,0,0,0,-1,1518,785,0,0
301,239,0,0,0,0,0,0,0,0,0,-1,1525,785,0,0
308,239,0,0,0,0,0,0,0,0,0,-1,1532,785,0,0
315,239,0,0,0,0,0,0,0,0,0,-1,1539,785,0,0
322,239,0,0,0,0,0,0,0,0,0,-1,1546,785,0,0
329,239,0,0,0,0,0,0,0,0,0,-1,1553,785,0,0
336,239,0,0,0,0,0,0,0,0,0,-1,1560,785,0,0
343,239,0,0,0,0,0,0,0,0,0,-1,1567,785,0,0
350,239,0,0,0,0,0,0,0,0,0,-1,1574,785,0,0
357,239,0,0,0,0,0,0,0,0,0,-1,1581,785,0,0
364,239,0,0,0,0,0,0,0,0,0,-1,1588,785,0,0
371,239,0,0,0,0,0,0,0,0,0,-1,1595,785,0,0
378,239,0,0,0,0,0,0,0,0,0,-1,1602,785,0,0
385,239,0,0,0,0,0,0,0,0,0,-1,1609,785,0,0
392,239,0,0,0,0,0,0,0,0,0,-1,1616,785,0,0
399,239,0,0,0,0,0,0,0,0,0,-1,1623,785,0,0
406,239,0,0,0,0,0,0,0,0,0,-1,1630,785,0,0
413,239,0,0,0,0,0,0,0,0,0,-1,1637,785,0,0
420,239,0,0,0,0,0,0,0,0,0,-1,1644,785,0,0
427,239,0,0,0,0,0,0,0,0,0,-1,1651,785,0,0
434,239,0,0,0,0,0,0,0,0,0,-1,1658,785,0,0
441,239,0,0,0,0,0,0,0,0,0,-1,1665,785,0,0
448,239,0,0,0,0,0,0,0,0,0,-1,1672,785,0,0
455,239,0,0,0,0,0,0,0,0,0,-1,1679,785,0,0
462,239,0,0,0,0,0,0,0,0,0,-1,1686,785,0,0
469,239,0,0,0,0,0,0,0,0,0,-1,1693,785,0,0
476,239,0,0,0,0,0,0,0,0,0,-1,1700,785,0,0
483,239,0,0,0,0,0,0,0,0,0,-1,1707,785,0,0
490,239,0,0,0,0,0,0,0,0,0,-1,1714,785,0,0
497,239,0,0,0,0,0,0,0,0,0,-1,1721,785,0,0
504,239,0,0,0,0,0,0,0,0,0,-1,1728,785,0,0
511,239,0,0,0,0,0,0,0,0,0,-1,1735,785,0,0
518,239,0,0,0,0,0,0,0,0,0,-1,1742,785,0,0
525,239,0,0,0,0,0,0,0,0,0,-1,1749,785,0,0
532,239,0,0,0,0,0,0,0,0,0,-1,1756,785,0,0
539,239,0,0,0,0,0,0,0,0,0,-1,1763,785,0,0
546,239,0,0,0,0,0,0,0,0,0,-1,1770,785,0,0
553,239,0,0,0,0,0,0,0,0,0,-1,1777,785,0,0
560,239,0,0,0,0,0,0,0,0,0,-1,1784,785,0,0
567,239,0,0,0,0,0,0,0,0,0,-1,1791,785,0,0
574,239,0,0,0,0,0,0,0,0,0,-1,1798,785,0,0
581,239,78.9988,2.51923,0.00779681,-0.00518142,-0.0017576,0.00803063,-0.00541523,-0.132253,0.00781177,0.0354412,1805,785,78.9988,-2.51924
588,239,78.927,2.55548,0.00642107,-0.000516292,0.00020223,0.00642696,-0.000522182,0.0291178,0.00446888,0.0392984,1812,785,78.927,-2.55548
595,239,79.0868,2.41193,0.00554934,0.00169106,0.00115003,0.00586612,0.00137428,0.268787,0.00354265,0.0356635,1819,785,79.0868,-2.41194
602,239,79.1149,2.49475,0.00444124,0.0025331,0.00141449,0.00519335,0.001781,0.488697,0.00304729,0.0449457,1826,785,79.1149,-2.49477
609,239,78.6552,3.04083,0,0,0,0,0,0,0,-1,1833,785,78.6552,-3.04085
616,239,55.8469,3.72443,0,0,0,0,0,0,0,-1,1840,785,55.8469,-3.72445
623,239,65.0618,2.66516,0,0,0,0,0,0,0,-1,1847,785,65.0617,-2.66519
630,239,54.5767,3.64667,0,0,0,0,0,0,0,-1,1854,785,54.5766,-3.64667
637,239,39.5542,2.54114,0,0,0,0,0,0,0,-1,1861,785,39.5543,-2.54114
644,239,18.3466,0.735413,0,0,0,0,0,0,0,-1,1868,785,18.3465,-0.735414
651,239,34.2471,-2.15778,0,0,0,0,0,0,0,-1,1875,785,34.2471,2.1578
658,239,55.6287,-4.95477,0,0,0,0,0,0,0,-1,1882,785,55.6286,4.95475
665,239,55.8065,-3.80847,0.000206479,-7.70929e-05,-0.000334444,0.00042795,-0.000298564,-0.58491,0.000421665,0.0440144,1889,785,55.8065,3.80849
672,239,55.812,-2.76202,0.00032127,-3.56901e-05,-0.000485953,0.000660483,-0.000374903,-0.609406,0.000605312,0.0240802,1896,785,55.812,2.76205
679,239,55.7163,-1.74921,0.000171413,8.76399e-05,-0.000480969,0.000612315,-0.000353263,-0.741964,0.000564125,0.0241199,1903,785,55.7163,1.74923
686,239,55.625,-0.743347,0.000199261,0.000329647,-0.000401664,0.000671374,-0.000142466,-0.86585,0.000501858,0.0263408,1910,785,55.625,0.743335
693,239,55.5988,0.137268,0.000399663,0.000438251,-0.000289857,0.000709456,0.000128458,-0.81863,0.000436498,0.0180418,1917,785,55.5987,-0.137285
700,239,55.5374,1.05804,0.000726914,0.000516418,-9.99906e-05,0.000766839,0.000476493,-0.379894,0.000447062,0.0127047,1924,785,55.5374,-1.05805
707,239,55.4691,2.02905,0.00106771,0.000621091,0.000148677,0.00111268,0.000576124,0.293698,0.000642539,0.0112233,1931,785,55.4691,-2.02907
714,239,55.3954,2.97504,0.00132933,0.000537509,0.000418975,0.00150986,0.000356977,0.406848,0.000911195,0.0105693,1938,785,55.3954,-2.97504
721,239,55.3055,3.93994,0.00170728,0.000279389,0.000847881,0.00210176,-0.000115098,0.435473,0.00144107,0.021479,1945,785,55.3055,-3.93992
728,239,55.186,4.9209,0,0,0,0,0,0,0,-1,1952,785,55.186,-4.92091
735,239,54.9216,5.49615,0,0,0,0,0,0,0,-1,1959,785,54.9217,-5.49614
742,239,32.4141,7.6665,0,0,0,0,0,0,0,-1,1966,785,32.4141,-7.6665
749,239,32.1489,3.4411,0,0,0,0,0,0,0,-1,1973,785,32.149,-3.44109
756,239,32.9064,3.6687,0,0,0,0,0,0,0,-1,1980,785,32.9063,-3.66873
763,239,0,0,0,0,0,0,0,0,0,-1,1987,785,0,0
770,239,0,0,0,0,0,0,0,0,0,-1,1994,785,0,0
777,239,0,0,0,0,0,0,0,0,0,-1,2001,785,0,0
784,239,0,0,0,0,0,0,0,0,0,-1,2008,785,0,0
791,239,0,0,0,0,0,0,0,0,0,-1,2015,785,0,0
798,239,0,0,0,0,0,0,0,0,0,-1,2022,785,0,0
805,239,0,0,0,0,0,0,0,0,0,-1,2029,785,0,0
812,239,0,0,0,0,0,0,0,0,0,-1,2036,785,0,0
-700,232,0,0,0,0,0,0,0,0,0,-1,524,792,0,0
-693,232,0,0,0,0,0,0,0,0,0,-1,531,792,0,0
-686,232,0,0,0,0,0,0,0,0,0,-1,538,792,0,0
-679,232,0,0,0,0,0,0,0,0,0,-1,545,792,0,0
-672,232,0,0,0,0,0,0,0,0,0,-1,552,792,0,0
-665,232,0,0,0,0,0,0,0,0,0,-1,559,792,0,0
-658,232,0,0,0,0,0,0,0,0,0,-1,566,792,0,0
-651,232,0,0,0,0,0,0,0,0,0,-1,573,792,0,0
-644,232,-41.2348,4.28168,0,0,0,0,0,0,0,-1,580,792,-41.2348,-4.28166
-637,232,-42.1427,3.51453,0,0,0,0,0,0,0,-1,587,792,-42.1427,-3.51452
-630,232,-32.2345,1.80212,0,0,0,0,0,0,0,-1,594,792,-32.2345,-1.80211
-623,232,-31.5665,1.05115,0,0,0,0,0,0,0,-1,601,792,-31.5664,-1.05112
-616,232,-30.6812,0.432861,0,0,0,0,0,0,0,-1,608,792,-30.6812,-0.432881
-609,232,-29.7142,-0.478943,0,0,0,0,0,0,0,-1,615,792,-29.7142,0.478965
-602,232,-40.1376,6.18384,0,0,0,0,0,0,0,-1,622,792,-40.1376,-6.18384
-595,232,-40.2459,4.64233,0.00217796,0.00450766,-0.00893494,0.0123534,-0.00566774,-0.850218,0.0106405,0.0387204,629,792,-40.2459,-4.64232
-588,232,-40.4033,3.11444,0.00233407,0.00397519,-0.006826,0.0100298,-0.00372051,-0.845217,0.00821258,0.0144499,636,792,-40.4033,-3.11447
-581,232,-40.4666,2.04559,0.00218858,0.00333824,-0.00486647,0.00766371,-0.00213689,-0.844186,0.00595074,0.00877074,643,792,-40.4665,-2.0456
-574,232,-40.5252,1.08514,0.00193232,0.00271746,-0.00310257,0.00545219,-0.000802413,-0.848329,0.00392967,0.00863317,650,792,-40.5252,-1.08515
-567,232,-40.6078,0.12323,0.00147428,0.00218451,-0.00164452,0.00351183,0.000146966,-0.891735,0.0022938,0.0117705,657,792,-40.6078,-0.123232
-560,232,-40.6953,-0.826721,0.000750037,0.00167633,-0.000499175,0.00189412,0.000532242,-1.15939,0.001128,0.0168683,664,792,-40.6952,0.826711
-553,232,-40.7805,-1.78552,-0.000278618,0.00135622,0.000358172,0.00143125,-0.000353646,1.36431,0.00109132,0.0157201,671,792,-40.7805,1.78554
-546,232,-40.7774,-2.69073,-0.000999046,0.00137372,0.0010863,0.00179593,-0.00142125,1.2001,0.00186163,0.038296,678,792,-40.7774,2.69072
-539,232,-41.055,-3.70502,0,0,0,0,0,0,0,-1,685,792,-41.055,3.70504
-532,232,-41.1772,-4.64709,0,0,0,0,0,0,0,-1,692,792,-41.1772,4.64712
-525,232,-40.9337,-5.87244,0,0,0,0,0,0,0,-1,699,792,-40.9337,5.87245
-518,232,-20.8098,-3.08154,0,0,0,0,0,0,0,-1,706,792,-20.8098,3.08155
-511,232,-21.6708,-0.962708,0,0,0,0,0,0,0,-1,713,792,-21.6708,0.962731
-504,232,-34.2155,0.346985,0,0,0,0,0,0,0,-1,720,792,-34.2155,-0.346955
-497,232,-52.7195,0.518677,0,0,0,0,0,0,0,-1,727,792,-52.7195,-0.518678
-490,232,-63.0235,0.337097,0,0,0,0,0,0,0,-1,734,792,-63.0235,-0.337072
-483,232,-63.1649,0.605957,0.000339278,-0.00605939,0.000716709,0.000418573,-0.00613869,0.11019,0.00423888,0.0418208,741,792,-63.1648,-0.605975
-476,232,-63.1116,0.594849,0.00107354,-0.00860188,0.000838675,0.0011457,-0.00867404,0.0858279,0.00619998,0.0346807,748,792,-63.1116,-0.594853
-469,232,-63.1359,0.597534,0.00223822,-0.0117923,0.000991906,0.002308,-0.0118621,0.0702308,0.00877909,0.0342241,755,792,-63.1359,-0.597516
-462,232,0,0,0,0,0,0,0,0,0,-1,762,792,0,0
-455,232,0,0,0,0,0,0,0,0,0,-1,769,792,0,0
-448,232,0,0,0,0,0,0,0,0,0,-1,776,792,0,0
-441,232,0,0,0,0,0,0,0,0,0,-1,783,792,0,0
-434,232,0,0,0,0,0,0,0,0,0,-1,790,792,0,0
-427,232,0,0,0,0,0,0,0,0,0,-1,797,792,0,0
-420,232,0,0,0,0,0,0,0,0,0,-1,804,792,0,0
-413,232,0,0,0,0,0,0,0,0,0,-1,811,792,0,0
-406,232,0,0,0,0,0,0,0,0,0,-1,818,792,0,0
-399,232,0,0,0,0,0,0,0,0,0,-1,825,792,0,0
-392,232,0,0,0,0,0,0,0,0,0,-1,832,792,0,0
-385,232,0,0,0,0,0,0,0,0,0,-1,839,792,0,0
-378,232,0,0,0,0,0,0,0,0,0,-1,846,792,0,0
-371,232,0,0,0,0,0,0,0,0,0,-1,853,792,0,0
-364,232,0,0,0,0,0,0,0,0,0,-1,860,792,0,0
-357,232,0,0,0,0,0,0,0,0,0,-1,867,792,0,0
-350,232,0,0,0,0,0,0,0,0,0,-1,874,792,0,0
-343,232,0,0,0,0,0,0,0,0,0,-1,881,792,0,0
-336,232,0,0,0,0,0,0,0,0,0,-1,888,792,0,0
-329,232,0,0,0,0,0,0,0,0,0,-1,895,792,0,0
-322,232,0,0,0,0,0,0,0,0,0,-1,902,792,0,0
-315,232,0,0,0,0,0,0,0,0,0,-1,909,792,0,0
-308,232,0,0,0,0,0,0,0,0,0,-1,916,792,0,0
-301,232,0,0,0,0,0,0,0,0,0,-1,923,792,0,0
-294,232,0,0,0,0,0,0,0,0,0,-1,930,792,0,0
-287,232,0,0,0,0,0,0,0,0,0,-1,937,792,0,0
-280,232,0,0,0,0,0,0,0,0,0,-1,944,792,0,0
-273,232,0,0,0,0,0,0,0,0,0,-1,951,792,0,0
-266,232,0,0,0,0,0,0,0,0,0,-1,958,792,0,0
-259,232,0,0,0,0,0,0,0,0,0,-1,965,792,0,0
-252,232,0,0,0,0,0,0,0,0,0,-1,972,792,0,0
-245,232,0,0,0,0,0,0,0,0,0,-1,979,792,0,0
-238,232,0,0,0,0,0,0,0,0,0,-1,986,792,0,0
-231,232,0,0,0,0,0,0,0,0,0,-1,993,792,0,0
-224,232,0,0,0,0,0,0,0,0,0,-1,1000,792,0,0
-217,232,0,0,0,0,0,0,0,0,0,-1,1007,792,0,0
-210,232,0,0,0,0,0,0,0,0,0,-1,1014,792,0,0
-203,232,0,0,0,0,0,0,0,0,0,-1,1021,792,0,0
-196,232,0,0,0,0,0,0,0,0,0,-1,1028,792,0,0
-189,232,0,0,0,0,0,0,0,0,0,-1,1035,792,0,0
-182,232,0,0,0,0,0,0,0,0,0,-1,1042,792,0,0
-175,232,0,0,0,0,0,0,0,0,0,-1,1049,792,0,0
-168,232,0,0,0,0,0,0,0,0,0,-1,1056,792,0,0
-161,232,0,0,0,0,0,0,0,0,0,-1,1063,792,0,0
-154,232,0,0,0,0,0,0,0,0,0,-1,1070,792,0,0
-147,232,0,0,0,0,0,0,0,0,0,-1,1077,792,0,0
-140,232,0,0,0,0,0,0,0,0,0,-1,1084,792,0,0
-133,232,0,0,0,0,0,0,0,0,0,-1,1091,792,0,0
-126,232,0,0,0,0,0,0,0,0,0,-1,1098,792,0,0
-119,232,0,0,0,0,0,0,0,0,0,-1,1105,792,0,0
-112,232,0,0,0,0,0,0,0,0,0,-1,1112,792,0,0
-105,232,0,0,0,0,0,0,0,0,0,-1,1119,792,0,0
-98,232,0,0,0,0,0,0,0,0,0,-1,1126,792,0,0
-91,232,0,0,0,0,0,0,0,0,0,-1,1133,792,0,0
-84,232,0,0,0,0,0,0,0,0,0,-1,1140,792,0,0
-77,232,0,0,0,0,0,0,0,0,0,-1,1147,792,0,0
-70,232,0,0,0,0,0,0,0,0,0,-1,1154,792,0,0
-63,232,0,0,0,0,0,0,0,0,0,-1,1161,792,0,0
-56,232,0,0,0,0,0,0,0,0,0,-1,1168,792,0,0
-49,232,0,0,0,0,0,0,0,0,0,-1,1175,792,0,0
-42,232,0,0,0,0,0,0,0,0,0,-1,1182,792,0,0
-35,232,0,0,0,0,0,0,0,0,0,-1,1189,792,0,0
-28,232,0,0,0,0,0,0,0,0,0,-1,1196,792,0,0
-21,232,0,0,0,0,0,0,0,0,0,-1,1203,792,0,0
-14,232,0,0,0,0,0,0,0,0,0,-1,1210,792,0,0
-7,232,0,0,0,0,0,0,0,0,0,-1,1217,792,0,0
0,232,0,0,0,0,0,0,0,0,0,-1,1224,792,0,0
7,232,0,0,0,0,0,0,0,0,0,-1,1231,792,0,0
14,232,0,0,0,0,0,0,0,0,0,-1,1238,792,0,0
21,232,0,0,0,0,0,0,0,0,0,-1,1245,792,0,0
28,232,0,0,0,0,0,0,0,0,0,-1,1252,792,0,0
35,232,0,0,0,0,0,0,0,0,0,-1,1259,792,0,0
42,232,0,0,0,0,0,0,0,0,0,-1,1266,792,0,0
49,232,0,0,0,0,0,0,0,0,0,-1,1273,792,0,0
56,232,0,0,0,0,0,0,0,0,0,-1,1280,792,0,0
63,232,0,0,0,0,0,0,0,0,0,-1,1287,792,0,0
70,232,0,0,0,0,0,0,0,0,0,-1,1294,792,0,0
77,232,0,0,0,0,0,0,0,0,0,-1,1301,792,0,0
84,232,0,0,0,0,0,0,0,0,0,-1,1308,792,0,0
91,232,0,0,0,0,0,0,0,0,0,-1,1315,792,0,0
98,232,0,0,0,0,0,0,0,0,0,-1,1322,792,0,0
105,232,0,0,0,0,0,0,0,0,0,-1,1329,792,0,0
112,232,0,0,0,0,0,0,0,0,0,-1,1336,792,0,0
119,232,0,0,0,0,0,0,0,0,0,-1,1343,792,0,0
126,232,0,0,0,0,0,0,0,0,0,-1,1350,792,0,0
133,232,0,0,0,0,0,0,0,0,0,-1,1357,792,0,0
140,232,0,0,0,0,0,0,0,0,0,-1,1364,792,0,0
147,232,0,0,0,0,0,0,0,0,0,-1,1371,792,0,0
154,232,0,0,0,0,0,0,0,0,0,-1,1378,792,0,0
161,232,0,0,0,0,0,0,0,0,0,-1,1385,792,0,0
168,232,0,0,0,0,0,0,0,0,0,-1,1392,792,0,0
175,232,0,0,0,0,0,0,0,0,0,-1,1399,792,0,0
182,232,0,0,0,0,0,0,0,0,0,-1,1406,792,0,0
189,232,0,0,0,0,0,0,0,0,0,-1,1413,792,0,0
196,232,0,0,0,0,0,0,0,0,0,-1,1420,792,0,0
203,232,0,0,0,0,0,0,0,0,0,-1,1427,792,0,0
210,232,0,0,0,0,0,0,0,0,0,-1,1434,792,0,0
217,232,0,0,0,0,0,0,0,0,0,-1,1441,792,0,0
224,232,0,0,0,0,0,0,0,0,0,-1,1448,792,0,0
231,232,0,0,0,0,0,0,0,0,0,-1,1455,792,0,0
238,232,0,0,0,0,0,0,0,0,0,-1,1462,792,0,0
245,232,0,0,0,0,0,0,0,0,0,-1,1469,792,0,0
252,232,0,0,0,0,0,0,0,0,0,-1,1476,792,0,0
259,232,0,0,0,0,0,0,0,0,0,-1,1483,792,0,0
266,232,0,0,0,0,0,0,0,0,0,-1,1490,792,0,0
273,232,0,0,0,0,0,0,0,0,0,-1,1497,792,0,0
280,232,0,0,0,0,0,0,0,0,0,-1,1504,792,0,0
287,232,0,0,0,0,0,0,0,0,0,-1,1511,792,0,0
294,232,0,0,0,0,0,0,0,0,0,-1,1518,792,0,0
301,232,0,0,0,0,0,0,0,0,0,-1,1525,792,0,0
308,232,0,0,0,0,0,0,0,0,0,-1,1532,792,0,0
315,232,0,0,0,0,0,0,0,0,0,-1,1539,792,0,0
322,232,0,0,0,0,0,0,0,0,0,-1,1546,792,0,0
329,232,0,0,0,0,0,0,0,0,0,-1,1553,792,0,0
336,232,0,0,0,0,0,0,0,0,0,-1,1560,792,0,0
343,232,0,0,0,0,0,0,0,0,0,-1,1567,792,0,0
350,232,0,0,0,0,0,0,0,0,0,-1,1574,792,0,0
357,232,0,0,0,0,0,0,0,0,0,-1,1581,792,0,0
364,232,0,0,0,0,0,0,0,0,0,-1,1588,792,0,0
371,232,0,0,0,0,0,0,0,0,0,-1,1595,792,0,0
378,232,0,0,0,0,0,0,0,0,0,-1,1602,792,0,0
385,232,0,0,0,0,0,0,0,0,0,-1,1609,792,0,0
392,232,0,0,0,0,0,0,0,0,0,-1,1616,792,0,0
399,232,0,0,0,0,0,0,0,0,0,-1,1623,792,0,0
406,232,0,0,0,0,0,0,0,0,0,-1,1630,792,0,0
413,232,0,0,0,0,0,0,0,0,0,-1,1637,792,0,0
420,232,0,0,0,0,0,0,0,0,0,-1,1644,792,0,0
427,232,0,0,0,0,0,0,0,0,0,-1,1651,792,0,0
434,232,0,0,0,0,0,0,0,0,0,-1,1658,792,0,0
441,232,0,0,0,0,0,0,0,0,0,-1,1665,792,0,0
448,232,0,0,0,0,0,0,0,0,0,-1,1672,792,0,0
455,232,0,0,0,0,0,0,0,0,0,-1,1679,792,0,0
462,232,0,0,0,0,0,0,0,0,0,-1,1686,792,0,0
469,232,0,0,0,0,0,0,0,0,0,-1,1693,792,0,0
476,232,0,0,0,0,0,0,0,0,0,-1,1700,792,0,0
483,232,0,0,0,0,0,0,0,0,0,-1,1707,792,0,0
490,232,0,0,0,0,0,0,0,0,0,-1,1714,792,0,0
497,232,0,0,0,0,0,0,0,0,0,-1,1721,792,0,0
504,232,0,0,0,0,0,0,0,0,0,-1,1728,792,0,0
511,232,0,0,0,0,0,0,0,0,0,-1,1735,792,0,0
518,232,0,0,0,0,0,0,0,0,0,-1,1742,792,0,0
525,232,0,0,0,0,0,0,0,0,0,-1,1749,792,0,0
532,232,0,0,0,0,0,0,0,0,0,-1,1756,792,0,0
539,232,0,0,0,0,0,0,0,0,0,-1,1763,792,0,0
546,232,0,0,0,0,0,0,0,0,0,-1,1770,792,0,0
553,232,0,0,0,0,0,0,0,0,0,-1,1777,792,0,0
560,232,0,0,0,0,0,0,0,0,0,-1,1784,792,0,0
567,232,0,0,0,0,0,0,0,0,0,-1,1791,792,0,0
574,232,0,0,0,0,0,0,0,0,0,-1,1798,792,0,0
581,232,0,0,0,0,0,0,0,0,0,-1,1805,792,0,0
588,232,78.9852,2.47162,0.00506245,-0.00251223,-0.000470233,0.00509153,-0.00254131,-0.0617635,0.00448806,0.0389812,1812,792,78.9853,-2.47162
595,232,79.0757,2.32422,0.00397519,0.000781811,0.000762203,0.00414779,0.000609215,0.222688,0.00258615,0.0364909,1819,792,79.0757,-2.32424
602,232,79.1049,2.31378,0.00297862,0.00225764,0.00125068,0.00391973,0.00131654,0.645083,0.00230334,0.0360355,1826,792,79.1048,-2.31375
609,232,78.9001,2.55145,0.00187588,0.00239362,0.0012449,0.00340627,0.000863219,0.88791,0.00204478,0.044734,1833,792,78.9001,-2.55147
616,232,79.0151,2.47943,0,0,0,0,0,0,0,-1,1840,792,79.0152,-2.47945
623,232,74.9668,2.53278,0,0,0,0,0,0,0,-1,1847,792,74.9667,-2.5328
630,232,64.9034,2.97992,0,0,0,0,0,0,0,-1,1854,792,64.9035,-2.9799
637,232,47.0471,4.04309,0,0,0,0,0,0,0,-1,1861,792,47.0471,-4.04309
644,232,30.7756,4.24139,0,0,0,0,0,0,0,-1,1868,792,30.7757,-4.24141
651,232,31.6797,-0.564087,0,0,0,0,0,0,0,-1,1875,792,31.6797,0.564059
658,232,46.7423,-3.10736,0,0,0,0,0,0,0,-1,1882,792,46.7423,3.10735
665,232,56.5565,-3.73083,0,0,0,0,0,0,0,-1,1889,792,56.5566,3.73086
672,232,56.7294,-2.63806,0,0,0,0,0,0,0,-1,1896,792,56.7294,2.63804
679,232,56.6382,-1.66534,-6.57055e-05,-3.29699e-05,-0.0006224,0.000573277,-0.000671953,-0.798544,0.000719686,0.022599,1903,792,56.6381,1.66535
686,232,56.5757,-0.677124,-4.32035e-05,0.000188055,-0.000594833,0.000678393,-0.000533541,-0.881396,0.000701375,0.0213779,1910,792,56.5757,0.677114
693,232,56.5352,0.194458,0.00021279,0.000283691,-0.000506204,0.000755685,-0.000259203,-0.820357,0.000608869,0.0125878,1917,792,56.5351,-0.194469
700,232,56.4854,1.13336,0.000593283,0.000389193,-0.000343959,0.000850015,0.000132462,-0.641195,0.00052809,0.0136631,1924,792,56.4853,-1.13339
707,232,56.4325,2.08368,0.000990114,0.000543084,-5.19648e-05,0.000996075,0.000537123,-0.114216,0.000575674,0.013034,1931,792,56.4325,-2.08368
714,232,56.3663,3.01038,0.00137193,0.000567841,0.000300538,0.00147184,0.000467926,0.320957,0.000868349,0.0137662,1938,792,56.3663,-3.01036
721,232,56.2998,3.98315,0.00185867,0.000425989,0.000808325,0.00222239,6.2268e-05,0.422828,0.00146128,0.0202569,1945,792,56.2998,-3.98318
728,232,56.1792,4.9068,0,0,0,0,0,0,0,-1,1952,792,56.1792,-4.9068
735,232,56.2681,6.11591,0,0,0,0,0,0,0,-1,1959,792,56.268,-6.11593
742,232,25.6461,6.00684,0,0,0,0,0,0,0,-1,1966,792,25.6461,-6.00684
749,232,31.2874,3.74713,0,0,0,0,0,0,0,-1,1973,792,31.2874,-3.74713
756,232,34.9586,15.3984,0,0,0,0,0,0,0,-1,1980,792,34.9586,-15.3984
763,232,35.741,16.6099,0,0,0,0,0,0,0,-1,1987,792,35.741,-16.6099
770,232,0,0,0,0,0,0,0,0,0,-1,1994,792,0,0
777,232,0,0,0,0,0,0,0,0,0,-1,2001,792,0,0
784,232,0,0,0,0,0,0,0,0,0,-1,2008,792,0,0
791,232,0,0,0,0,0,0,0,0,0,-1,2015,792,0,0
798,232,0,0,0,0,0,0,0,0,0,-1,2022,792,0,0
805,232,0,0,0,0,0,0,0,0,0,-1,2029,792,0,0
812,232,0,0,0,0,0,0,0,0,0,-1,2036,792,0,0
-700,225,0,0,0,0,0,0,0,0,0,-1,524,799,0,0
-693,225,0,0,0,0,0,0,0,0,0,-1,531,799,0,0
-686,225,0,0,0,0,0,0,0,0,0,-1,538,799,0,0
-679,225,0,0,0,0,0,0,0,0,0,-1,545,799,0,0
-672,225,0,0,0,0,0,0,0,0,0,-1,552,799,0,0
-665,225,0,0,0,0,0,0,0,0,0,-1,559,799,0,0
-658,225,0,0,0,0,0,0,0,0,0,-1,566,799,0,0
-651,225,0,0,0,0,0,0,0,0,0,-1,573,799,0,0
-644,225,-40.8898,4.14661,0,0,0,0,0,0,0,-1,580,799,-40.8898,-4.14661
-637,225,-41.61,3.36749,0,0,0,0,0,0,0,-1,587,799,-41.61,-3.36751
-630,225,-30.244,4.82196,0,0,0,0,0,0,0,-1,594,799,-30.244,-4.82193
-623,225,-32.8276,-0.00836182,0,0,0,0,0,0,0,-1,601,799,-32.8276,0.00837668
-616,225,-32.0569,-0.549255,0,0,0,0,0,0,0,-1,608,799,-32.0569,0.549265
-609,225,-40.5062,5.94061,0,0,0,0,0,0,0,-1,615,799,-40.5063,-5.94062
-602,225,-41.3109,5.1875,0,0,0,0,0,0,0,-1,622,799,-41.3109,-5.18751
-595,225,-41.3486,4.11621,0.00143963,0.00408334,-0.00655366,0.00944712,-0.00392415,-0.884912,0.00793639,0.0321583,629,799,-41.3486,-4.11621
-588,225,-41.3841,3.05524,0.00182718,0.00363932,-0.00513205,0.00794467,-0.00247817,-0.872773,0.00628746,0.0137628,636,799,-41.3841,-3.05526
-581,225,-41.4332,2.10681,0.00194705,0.00308341,-0.00364315,0.00620242,-0.00117196,-0.862754,0.0045759,0.0116213,643,799,-41.4331,-2.10683
-574,225,-41.5031,1.16492,0.00191759,0.00252084,-0.00220676,0.00444649,-8.06223e-06,-0.853318,0.00296702,0.0093764,650,799,-41.5031,-1.16489
-567,225,-41.5824,0.198364,0.00163272,0.0020429,-0.000981577,0.00284058,0.000835033,-0.888386,0.00168578,0.0128046,657,799,-41.5824,-0.198389
-560,225,-41.6466,-0.735535,0.000879577,0.00145431,-2.59933e-05,0.00145549,0.000878404,-1.52569,0.000846307,0.0146455,664,799,-41.6466,0.735528
-553,225,-41.7249,-1.70337,-0.000297357,0.00100625,0.000650221,0.00127512,-0.000566224,1.17871,0.00108905,0.0131726,671,799,-41.7248,1.70336
-546,225,-41.7209,-2.56,-0.000850749,0.00105577,0.00118733,0.00162516,-0.00142013,1.12364,0.00175953,0.040857,678,799,-41.7209,2.55998
-539,225,-41.6444,-3.20135,0,0,0,0,0,0,0,-1,685,799,-41.6444,3.20134
-532,225,-42.5333,-4.47021,0,0,0,0,0,0,0,-1,692,799,-42.5333,4.47022
-525,225,-29.1705,-3.88239,0,0,0,0,0,0,0,-1,699,799,-29.1705,3.88237
-518,225,-21.963,0.171326,0,0,0,0,0,0,0,-1,706,799,-21.9629,-0.171319
-511,225,-33.0002,0.660217,0,0,0,0,0,0,0,-1,713,799,-33.0002,-0.660239
-504,225,-50.4542,0.524109,0,0,0,0,0,0,0,-1,720,799,-50.4542,-0.524105
-497,225,-62.9724,0.429138,0,0,0,0,0,0,0,-1,727,799,-62.9724,-0.429149
-490,225,-63.0008,0.483887,0.000541071,-0.00392403,0.000700865,0.000648498,-0.00403145,0.152094,0.00292784,0.0397692,734,799,-63.0008,-0.483896
-483,225,-63.0248,0.639282,0.00155552,-0.00530761,0.000501229,0.00159193,-0.00534403,0.0725194,0.00419524,0.0334632,741,799,-63.0248,-0.639269
-476,225,-63.064,0.613342,0.00310574,-0.00733167,0.000417959,0.00312245,-0.00734838,0.039959,0.00620729,0.0309008,748,799,-63.064,-0.613321
-469,225,-62.9959,0.528564,0.00558411,-0.00979286,7.23178e-05,0.00558445,-0.0097932,0.00470285,0.00898845,0.0358457,755,799,-62.9959,-0.528555
-462,225,0,0,0,0,0,0,0,0,0,-1,762,799,0,0
-455,225,0,0,0,0,0,0,0,0,0,-1,769,799,0,0
-448,225,0,0,0,0,0,0,0,0,0,-1,776,799,0,0
-441,225,0,0,0,0,0,0,0,0,0,-1,783,799,0,0
-434,225,0,0,0,0,0,0,0,0,0,-1,790,799,0,0
-427,225,0,0,0,0,0,0,0,0,0,-1,797,799,0,0
-420,225,0,0,0,0,0,0,0,0,0,-1,804,799,0,0
-413,225,0,0,0,0,0,0,0,0,0,-1,811,799,0,0
-406,225,0,0,0,0,0,0,0,0,0,-1,818,799,0,0
-399,225,0,0,0,0,0,0,0,0,0,-1,825,799,0,0
-392,225,0,0,0,0,0,0,0,0,0,-1,832,799,0,0
-385,225,0,0,0,0,0,0,0,0,0,-1,839,799,0,0
-378,225,0,0,0,0,0,0,0,0,0,-1,846,799,0,0
-371,225,0,0,0,0,0,0,0,0,0,-1,853,799,0,0
-364,225,0,0,0,0,0,0,0,0,0,-1,860,799,0,0
-357,225,0,0,0,0,0,0,0,0,0,-1,867,799,0,0
-350,225,0,0,0,0,0,0,0,0,0,-1,874,799,0,0
-343,225,0,0,0,0,0,0,0,0,0,-1,881,799,0,0
-336,225,0,0,0,0,0,0,0,0,0,-1,888,799,0,0
-329,225,0,0,0,0,0,0,0,0,0,-1,895,799,0,0
-322,225,0,0,0,0,0,0,0,0,0,-1,902,799,0,0
-315,225,0,0,0,0,0,0,0,0,0,-1,909,799,0,0
-308,225,0,0,0,0,0,0,0,0,0,-1,916,799,0,0
-301,225,0,0,0,0,0,0,0,0,0,-1,923,799,0,0
-294,225,0,0,0,0,0,0,0,0,0,-1,930,799,0,0
-287,225,0,0,0,0,0,0,0,0,0,-1,937,799,0,0
-280,225,0,0,0,0,0,0,0,0,0,-1,944,799,0,0
-273,225,0,0,0,0,0,0,0,0,0,-1,951,799,0,0
-266,225,0,0,0,0,0,0,0,0,0,-1,958,799,0,0
-259,225,0,0,0,0,0,0,0,0,0,-1,965,799,0,0
-252,225,0,0,0,0,0,0,0,0,0,-1,972,799,0,0
-245,225,0,0,0,0,0,0,0,0,0,-1,979,799,0,0
-238,225,0,0,0,0,0,0,0,0,0,-1,986,799,0,0
-231,225,0,0,0,0,0,0,0,0,0,-1,993,799,0,0
-224,225,0,0,0,0,0,0,0,0,0,-1,1000,799,0,0
-217,225,0,0,0,0,0,0,0,0,0,-1,1007,799,0,0
-210,225,0,0,0,0,0,0,0,0,0,-1,1014,799,0,0
-203,225,0,0,0,0,0,0,0,0,0,-1,1021,799,0,0
-196,225,0,0,0,0,0,0,0,0,0,-1,1028,799,0,0
-189,225,0,0,0,0,0,0,0,0,0,-1,1035,799,0,0
-182,225,0,0,0,0,0,0,0,0,0,-1,1042,799,0,0
-175,225,0,0,0,0,0,0,0,0,0,-1,1049,799,0,0
-168,225,0,0,0,0,0,0,0,0,0,-1,1056,799,0,0
-161,225,0,0,0,0,0,0,0,0,0,-1,1063,799,0,0
-154,225,0,0,0,0,0,0,0,0,0,-1,1070,799,0,0
-147,225,0,0,0,0,0,0,0,0,0,-1,1077,799,0,0
-140,225,0,0,0,0,0,0,0,0,0,-1,1084,799,0,0
-133,225,0,0,0,0,0,0,0,0,0,-1,1091,799,0,0
-126,225,0,0,0,0,0,0,0,0,0,-1,1098,799,0,0
-119,225,0,0,0,0,0,0,0,0,0,-1,1105,799,0,0
-112,225,0,0,0,0,0,0,0,0,0,-1,1112,799,0,0
-105,225,0,0,0,0,0,0,0,0,0,-1,1119,799,0,0
-98,225,0,0,0,0,0,0,0,0,0,-1,1126,799,0,0
-91,225,0,0,0,0,0,0,0,0,0,-1,1133,799,0,0
-84,225,0,0,0,0,0,0,0,0,0,-1,1140,799,0,0
-77,225,0,0,0,0,0,0,0,0,0,-1,1147,799,0,0
-70,225,0,0,0,0,0,0,0,0,0,-1,1154,799,0,0
-63,225,0,0,0,0,0,0,0,0,0,-1,1161,799,0,0
-56,225,0,0,0,0,0,0,0,0,0,-1,1168,799,0,0
-49,225,0,0,0,0,0,0,0,0,0,-1,1175,799,0,0
-42,225,0,0,0,0,0,0,0,0,0,-1,1182,799,0,0
-35,225,0,0,0,0,0,0,0,0,0,-1,1189,799,0,0
-28,225,0,0,0,0,0,0,0,0,0,-1,1196,799,0,0
-21,225,0,0,0,0,0,0,0,0,0,-1,1203,799,0,0
-14,225,0,0,0,0,0,0,0,0,0,-1,1210,799,0,0
-7,225,0,0,0,0,0,0,0,0,0,-1,1217,799,0,0
0,225,0,0,0,0,0,0,0,0,0,-1,1224,799,0,0
7,225,0,0,0,0,0,0,0,0,0,-1,1231,799,0,0
14,225,0,0,0,0,0,0,0,0,0,-1,1238,799,0,0
21,225,0,0,0,0,0,0,0,0,0,-1,1245,799,0,0
28,225,0,0,0,0,0,0,0,0,0,-1,1252,799,0,0
35,225,0,0,0,0,0,0,0,0,0,-1,1259,799,0,0
42,225,0,0,0,0,0,0,0,0,0,-1,1266,799,0,0
49,225,0,0,0,0,0,0,0,0,0,-1,1273,799,0,0
56,225,0,0,0,0,0,0,0,0,0,-1,1280,799,0,0
63,225,0,0,0,0,0,0,0,0,0,-1,1287,799,0,0
70,225,0,0,0,0,0,0,0,0,0,-1,1294,799,0,0
77,225,0,0,0,0,0,0,0,0,0,-1,1301,799,0,0
84,225,0,0,0,0,0,0,0,0,0,-1,1308,799,0,0
91,225,0,0,0,0,0,0,0,0,0,-1,1315,799,0,0
98,225,0,0,0,0,0,0,0,0,0,-1,1322,799,0,0
105,225,0,0,0,0,0,0,0,0,0,-1,1329,799,0,0
112,225,0,0,0,0,0,0,0,0,0,-1,1336,799,0,0
119,225,0,0,0,0,0,0,0,0,0,-1,1343,799,0,0
126,225,0,0,0,0,0,0,0,0,0,-1,1350,799,0,0
133,225,0,0,0,0,0,0,0,0,0,-1,1357,799,0,0
140,225,0,0,0,0,0,0,0,0,0,-1,1364,799,0,0
147,225,0,0,0,0,0,0,0,0,0,-1,1371,799,0,0
154,225,0,0,0,0,0,0,0,0,0,-1,1378,799,0,0
161,225,0,0,0,0,0,0,0,0,0,-1,1385,799,0,0
168,225,0,0,0,0,0,0,0,0,0,-1,1392,799,0,0
175,225,0,0,0,0,0,0,0,0,0,-1,1399,799,0,0
182,225,0,0,0,0,0,0,0,0,0,-1,1406,799,0,0
189,225,0,0,0,0,0,0,0,0,0,-1,1413,799,0,0
196,225,0,0,0,0,0,0,0,0,0,-1,1420,799,0,0
203,225,0,0,0,0,0,0,0,0,0,-1,1427,799,0,0
210,225,0,0,0,0,0,0,0,0,0,-1,1434,799,0,0
217,225,0,0,0,0,0,0,0,0,0,-1,1441,799,0,0
224,225,0,0,0,0,0,0,0,0,0,-1,1448,799,0,0
231,225,0,0,0,0,0,0,0,0,0,-1,1455,799,0,0
238,225,0,0,0,0,0,0,0,0,0,-1,1462,799,0,0
245,225,0,0,0,0,0,0,0,0,0,-1,1469,799,0,0
252,225,0,0,0,0,0,0,0,0,0,-1,1476,799,0,0
259,225,0,0,0,0,0,0,0,0,0,-1,1483,799,0,0
266,225,0,0,0,0,0,0,0,0,0,-1,1490,799,0,0
273,225,0,0,0,0,0,0,0,0,0,-1,1497,799,0,0
280,225,0,0,0,0,0,0,0,0,0,-1,1504,799,0,0
287,225,0,0,0,0,0,0,0,0,0,-1,1511,799,0,0
294,225,0,0,0,0,0,0,0,0,0,-1,1518,799,0,0
301,225,0,0,0,0,0,0,0,0,0,-1,1525,799,0,0
308,225,0,0,0,0,0,0,0,0,0,-1,1532,799,0,0
315,225,0,0,0,0,0,0,0,0,0,-1,1539,799,0,0
322,225,0,0,0,0,0,0,0,0,0,-1,1546,799,0,0
329,225,0,0,0,0,0,0,0,0,0,-1,1553,799,0,0
336,225,0,0,0,0,0,0,0,0,0,-1,1560,799,0,0
343,225,0,0,0,0,0,0,0,0,0,-1,1567,799,0,0
350,225,0,0,0,0,0,0,0,0,0,-1,1574,799,0,0
357,225,0,0,0,0,0,0,0,0,0,-1,1581,799,0,0
364,225,0,0,0,0,0,0,0,0,0,-1,1588,799,0,0
371,225,0,0,0,0,0,0,0,0,0,-1,1595,799,0,0
378,225,0,0,0,0,0,0,0,0,0,-1,1602,799,0,0
385,225,0,0,0,0,0,0,0,0,0,-1,1609,799,0,0
392,225,0,0,0,0,0,0,0,0,0,-1,1616,799,0,0
399,225,0,0,0,0,0,0,0,0,0,-1,1623,799,0,0
406,225,0,0,0,0,0,0,0,0,0,-1,1630,799,0,0
413,225,0,0,0,0,0,0,0,0,0,-1,1637,799,0,0
420,225,0,0,0,0,0,0,0,0,0,-1,1644,799,0,0
427,225,0,0,0,0,0,0,0,0,0,-1,1651,799,0,0
434,225,0,0,0,0,0,0,0,0,0,-1,1658,799,0,0
441,225,0,0,0,0,0,0,0,0,0,-1,1665,799,0,0
448,225,0,0,0,0,0,0,0,0,0,-1,1672,799,0,0
455,225,0,0,0,0,0,0,0,0,0,-1,1679,799,0,0
462,225,0,0,0,0,0,0,0,0,0,-1,1686,799,0,0
469,225,0,0,0,0,0,0,0,0,0,-1,1693,799,0,0
476,225,0,0,0,0,0,0,0,0,0,-1,1700,799,0,0
483,225,0,0,0,0,0,0,0,0,0,-1,1707,799,0,0
490,225,0,0,0,0,0,0,0,0,0,-1,1714,799,0,0
497,225,0,0,0,0,0,0,0,0,0,-1,1721,799,0,0
504,225,0,0,0,0,0,0,0,0,0,-1,1728,799,0,0
511,225,0,0,0,0,0,0,0,0,0,-1,1735,799,0,0
518,225,0,0,0,0,0,0,0,0,0,-1,1742,799,0,0
525,225,0,0,0,0,0,0,0,0,0,-1,1749,799,0,0
532,225,0,0,0,0,0,0,0,0,0,-1,1756,799,0,0
539,225,0,0,0,0,0,0,0,0,0,-1,1763,799,0,0
546,225,0,0,0,0,0,0,0,0,0,-1,1770,799,0,0
553,225,0,0,0,0,0,0,0,0,0,-1,1777,799,0,0
560,225,0,0,0,0,0,0,0,0,0,-1,1784,799,0,0
567,225,0,0,0,0,0,0,0,0,0,-1,1791,799,0,0
574,225,0,0,0,0,0,0,0,0,0,-1,1798,799,0,0
581,225,0,0,0,0,0,0,0,0,0,-1,1805,799,0,0
588,225,79.0264,2.53937,0.00520726,-0.00411338,-0.00115911,0.00534924,-0.00425536,-0.121886,0.0055572,0.0357931,1812,799,79.0264,-2.53937
595,225,79.1027,2.37799,0.00353763,-0.000814439,0.000134204,0.00354176,-0.000818574,0.0307979,0.00267609,0.0332608,1819,799,79.1027,-2.37801
602,225,79.1272,2.31543,0.00220844,0.0011775,0.000905537,0.00273494,0.000650999,0.52665,0.00164968,0.0310744,1826,799,79.1272,-2.3154
609,225,79.1088,2.39844,0.00104356,0.00179613,0.00102403,0.00251082,0.000328876,0.961468,0.00157574,0.0312313,1833,799,79.1087,-2.39846
616,225,78.9855,2.49933,0.000515261,0.00180172,0.000929917,0.00228919,2.77866e-05,1.08797,0.00151695,0.0407172,1840,799,78.9854,-2.49932
623,225,78.9551,2.51471,0,0,0,0,0,0,0,-1,1847,799,78.955,-2.5147
630,225,75.2485,2.28778,0,0,0,0,0,0,0,-1,1854,799,75.2485,-2.28778
637,225,55.6359,2.8064,0,0,0,0,0,0,0,-1,1861,799,55.6359,-2.80637
644,225,42.0298,2.46411,0,0,0,0,0,0,0,-1,1868,799,42.0298,-2.4641
651,225,27.9657,0.579529,0,0,0,0,0,0,0,-1,1875,799,27.9657,-0.579541
658,225,47.9047,-1.92926,0,0,0,0,0,0,0,-1,1882,799,47.9047,1.92927
665,225,47.541,-2.27985,0,0,0,0,0,0,0,-1,1889,799,47.5411,2.27983
672,225,57.6431,-2.93817,0,0,0,0,0,0,0,-1,1896,799,57.6431,2.93817
679,225,57.5206,-1.60742,-0.00040444,-0.000276289,-0.000832707,0.000494804,-0.00117553,-0.823797,0.000990705,0.0480517,1903,799,57.5206,1.60745
686,225,57.5277,-0.689331,-0.00039761,-9.58026e-05,-0.000855142,0.000621649,-0.00111506,-0.872732,0.00101609,0.0141633,1910,799,57.5277,0.689313
693,225,57.4807,0.243164,-4.86694e-05,2.30221e-05,-0.000769451,0.000757462,-0.00078311,-0.808674,0.000889491,0.0112216,1917,799,57.4807,-0.24316
700,225,57.4205,1.18884,0.000450906,0.000237028,-0.000610274,0.000963539,-0.000275605,-0.698663,0.000751272,0.0118718,1924,799,57.4206,-1.18884
707,225,57.3512,2.13525,0.000968146,0.000498057,-0.000254754,0.00107972,0.000386481,-0.412808,0.000631708,0.0119956,1931,799,57.3512,-2.13528
714,225,57.3055,3.08881,0.00155876,0.000679717,0.000217846,0.00160978,0.000628692,0.230079,0.000936803,0.0136707,1938,799,57.3055,-3.08879
721,225,57.2914,4.05054,0.00228099,0.000706606,0.000847247,0.0026503,0.000337296,0.411062,0.00166586,0.0171545,1945,799,57.2914,-4.05052
728,225,57.2789,5.03162,0,0,0,0,0,0,0,-1,1952,799,57.2789,-5.03164
735,225,56.1567,5.39532,0,0,0,0,0,0,0,-1,1959,799,56.1567,-5.39535
742,225,55.3708,6.5321,0,0,0,0,0,0,0,-1,1966,799,55.3709,-6.53213
749,225,29.9529,4.45538,0,0,0,0,0,0,0,-1,1973,799,29.9529,-4.45537
756,225,42.6417,11.3672,0,0,0,0,0,0,0,-1,1980,799,42.6417,-11.3672
763,225,40.6626,12.6185,0,0,0,0,0,0,0,-1,1987,799,40.6625,-12.6184
770,225,0,0,0,0,0,0,0,0,0,-1,1994,799,0,0
777,225,0,0,0,0,0,0,0,0,0,-1,2001,799,0,0
784,225,0,0,0,0,0,0,0,0,0,-1,2008,799,0,0
791,225,0,0,0,0,0,0,0,0,0,-1,2015,799,0,0
798,225,0,0,0,0,0,0,0,0,0,-1,2022,799,0,0
805,225,0,0,0,0,0,0,0,0,0,-1,2029,799,0,0
812,225,0,0,0,0,0,0,0,0,0,-1,2036,799,0,0
-700,218,0,0,0,0,0,0,0,0,0,-1,524,806,0,0
-693,218,0,0,0,0,0,0,0,0,0,-1,531,806,0,0
-686,218,0,0,0,0,0,0,0,0,0,-1,538,806,0,0
-679,218,0,0,0,0,0,0,0,0,0,-1,545,806,0,0
-672,218,0,0,0,0,0,0,0,0,0,-1,552,806,0,0
-665,218,0,0,0,0,0,0,0,0,0,-1,559,806,0,0
-658,218,0,0,0,0,0,0,0,0,0,-1,566,806,0,0
-651,218,-40.3778,5.1792,0,0,0,0,0,0,0,-1,573,806,-40.3778,-5.1792
-644,218,-40.7704,4.19714,0,0,0,0,0,0,0,-1,580,806,-40.7704,-4.19714
-637,218,-41.541,3.36328,0,0,0,0,0,0,0,-1,587,806,-41.541,-3.36326
-630,218,-42.1423,2.85565,0,0,0,0,0,0,0,-1,594,806,-42.1423,-2.85567
-623,218,-42.7292,2.59015,0,0,0,0,0,0,0,-1,601,806,-42.7292,-2.59015
-616,218,-20.0258,1.87585,0,0,0,0,0,0,0,-1,608,806,-20.0258,-1.87585
-609,218,-41.8627,5.89941,0,0,0,0,0,0,0,-1,615,806,-41.8626,-5.8994
-602,218,-42.0837,4.96021,0.000797281,0.00493488,-0.00429226,0.00763089,-0.00189873,-1.00996,0.00582427,0.0433888,622,806,-42.0837,-4.96023
-595,218,-42.309,4.08386,0.00118512,0.00414953,-0.0041835,0.00710563,-0.00177098,-0.955647,0.00542465,0.018752,629,806,-42.309,-4.08385
-588,218,-42.3725,3.11145,0.00156479,0.00344075,-0.00348758,0.00611428,-0.00110874,-0.916764,0.00449162,0.0127666,636,806,-42.3725,-3.11144
-581,218,-42.4178,2.17682,0.00186975,0.00284941,-0.00247216,0.00487979,-0.000160639,-0.883201,0.00330804,0.0117508,643,806,-42.4178,-2.17683
-574,218,-42.484,1.24707,0.00207039,0.00232769,-0.00131542,0.00352074,0.000877349,-0.834145,0.00211622,0.010768,650,806,-42.484,-1.2471
-567,218,-42.516,0.255554,0.00196609,0.00184701,-0.000296374,0.00220885,0.00160426,-0.686267,0.00131809,0.0185299,657,806,-42.516,-0.255554
-560,218,-42.5715,-0.669434,0.0011483,0.00110781,0.000408584,0.00153714,0.00071897,0.760645,0.000888085,0.0182117,664,806,-42.5714,0.669441
-553,218,-42.5096,-1.81067,-7.03677e-05,0.000600771,0.000810957,0.00114285,-0.000612442,0.981569,0.00102872,0.0211712,671,806,-42.5096,1.81064
-546,218,-42.7424,-2.8504,-0.000354851,0.000770922,0.00110838,0.00145116,-0.00103508,1.02035,0.00144212,0.0323394,678,806,-42.7425,2.85043
-539,218,-42.9189,-3.60315,5.26878e-05,0.000258365,0.0013307,0.00149019,-0.00117914,0.823962,0.00154462,0.0349343,685,806,-42.9189,3.60315
-532,218,-42.8694,-4.26947,0,0,0,0,0,0,0,-1,692,806,-42.8694,4.26948
-525,218,-29.3521,-3.64417,0,0,0,0,0,0,0,-1,699,806,-29.3521,3.64414
-518,218,-23.61,2.54181,0,0,0,0,0,0,0,-1,706,806,-23.61,-2.54183
-511,218,-41.0953,1.06879,0,0,0,0,0,0,0,-1,713,806,-41.0953,-1.06876
-504,218,-59.1388,0.682068,0,0,0,0,0,0,0,-1,720,806,-59.1388,-0.682072
-497,218,-62.873,0.708679,0,0,0,0,0,0,0,-1,727,806,-62.873,-0.70869
-490,218,-62.9581,0.650635,0.00154703,-0.00357339,0.000676798,0.00163498,-0.00366133,0.12922,0.00313154,0.0348921,734,806,-62.958,-0.650631
-483,218,-63.0419,0.65918,0.00325464,-0.00452103,0.000209165,0.00326026,-0.00452665,0.0268741,0.00451555,0.0326691,741,806,-63.0418,-0.659151
-476,218,-63.0776,0.706177,0.006325,-0.00570875,-0.000491159,0.00634502,-0.00572876,-0.0407248,0.00697382,0.0358097,748,806,-63.0776,-0.706167
-469,218,0,0,0,0,0,0,0,0,0,-1,755,806,0,0
-462,218,0,0,0,0,0,0,0,0,0,-1,762,806,0,0
-455,218,0,0,0,0,0,0,0,0,0,-1,769,806,0,0
-448,218,0,0,0,0,0,0,0,0,0,-1,776,806,0,0
-441,218,0,0,0,0,0,0,0,0,0,-1,783,806,0,0
-434,218,0,0,0,0,0,0,0,0,0,-1,790,806,0,0
-427,218,0,0,0,0,0,0,0,0,0,-1,797,806,0,0
-420,218,0,0,0,0,0,0,0,0,0,-1,804,806,0,0
-413,218,0,0,0,0,0,0,0,0,0,-1,811,806,0,0
-406,218,0,0,0,0,0,0,0,0,0,-1,818,806,0,0
-399,218,0,0,0,0,0,0,0,0,0,-1,825,806,0,0
-392,218,0,0,0,0,0,0,0,0,0,-1,832,806,0,0
-385,218,0,0,0,0,0,0,0,0,0,-1,839,806,0,0
-378,218,0,0,0,0,0,0,0,0,0,-1,846,806,0,0
-371,218,0,0,0,0,0,0,0,0,0,-1,853,806,0,0
-364,218,0,0,0,0,0,0,0,0,0,-1,860,806,0,0
-357,218,0,0,0,0,0,0,0,0,0,-1,867,806,0,0
-350,218,0,0,0,0,0,0,0,0,0,-1,874,806,0,0
-343,218,0,0,0,0,0,0,0,0,0,-1,881,806,0,0
-336,218,0,0,0,0,0,0,0,0,0,-1,888,806,0,0
-329,218,0,0,0,0,0,0,0,0,0,-1,895,806,0,0
-322,218,0,0,0,0,0,0,0,0,0,-1,902,806,0,0
-315,218,0,0,0,0,0,0,0,0,0,-1,909,806,0,0
-308,218,0,0,0,0,0,0,0,0,0,-1,916,806,0,0
-301,218,0,0,0,0,0,0,0,0,0,-1,923,806,0,0
-294,218,0,0,0,0,0,0,0,0,0,-1,930,806,0,0
-287,218,0,0,0,0,0,0,0,0,0,-1,937,806,0,0
-280,218,0,0,0,0,0,0,0,0,0,-1,944,806,0,0
-273,218,0,0,0,0,0,0,0,0,0,-1,951,806,0,0
-266,218,0,0,0,0,0,0,0,0,0,-1,958,806,0,0
-259,218,0,0,0,0,0,0,0,0,0,-1,965,806,0,0
-252,218,0,0,0,0,0,0,0,0,0,-1,972,806,0,0
-245,218,0,0,0,0,0,0,0,0,0,-1,979,806,0,0
-238,218,0,0,0,0,0,0,0,0,0,-1,986,806,0,0
-231,218,0,0,0,0,0,0,0,0,0,-1,993,806,0,0
-224,218,0,0,0,0,0,0,0,0,0,-1,1000,806,0,0
-217,218,0,0,0,0,0,0,0,0,0,-1,1007,806,0,0
-210,218,0,0,0,0,0,0,0,0,0,-1,1014,806,0,0
-203,218,0,0,0,0,0,0,0,0,0,-1,1021,806,0,0
-196,218,0,0,0,0,0,0,0,0,0,-1,1028,806,0,0
-189,218,0,0,0,0,0,0,0,0,0,-1,1035,806,0,0
-182,218,0,0,0,0,0,0,0,0,0,-1,1042,806,0,0
-175,218,0,0,0,0,0,0,0,0,0,-1,1049,806,0,0
-168,218,0,0,0,0,0,0,0,0,0,-1,1056,806,0,0
-161,218,0,0,0,0,0,0,0,0,0,-1,1063,806,0,0
-154,218,0,0,0,0,0,0,0,0,0,-1,1070,806,0,0
-147,218,0,0,0,0,0,0,0,0,0,-1,1077,806,0,0
-140,218,0,0,0,0,0,0,0,0,0,-1,1084,806,0,0
-133,218,0,0,0,0,0,0,0,0,0,-1,1091,806,0,0
-126,218,0,0,0,0,0,0,0,0,0,-1,1098,806,0,0
-119,218,0,0,0,0,0,0,0,0,0,-1,1105,806,0,0
-112,218,0,0,0,0,0,0,0,0,0,-1,1112,806,0,0
-105,218,0,0,0,0,0,0,0,0,0,-1,1119,806,0,0
-98,218,0,0,0,0,0,0,0,0,0,-1,1126,806,0,0
-91,218,0,0,0,0,0,0,0,0,0,-1,1133,806,0,0
-84,218,0,0,0,0,0,0,0,0,0,-1,1140,806,0,0
-77,218,0,0,0,0,0,0,0,0,0,-1,1147,806,0,0
-70,218,0,0,0,0,0,0,0,0,0,-1,1154,806,0,0
-63,218,0,0,0,0,0,0,0,0,0,-1,1161,806,0,0
-56,218,0,0,0,0,0,0,0,0,0,-1,1168,806,0,0
-49,218,0,0,0,0,0,0,0,0,0,-1,1175,806,0,0
-42,218,0,0,0,0,0,0,0,0,0,-1,1182,806,0,0
-35,218,0,0,0,0,0,0,0,0,0,-1,1189,806,0,0
-28,218,0,0,0,0,0,0,0,0,0,-1,1196,806,0,0
-21,218,0,0,0,0,0,0,0,0,0,-1,1203,806,0,0
-14,218,0,0,0,0,0,0,0,0,0,-1,1210,806,0,0
-7,218,0,0,0,0,0,0,0,0,0,-1,1217,806,0,0
0,218,0,0,0,0,0,0,0,0,0,-1,1224,806,0,0
7,218,0,0,0,0,0,0,0,0,0,-1,1231,806,0,0
14,218,0,0,0,0,0,0,0,0,0,-1,1238,806,0,0
21,218,0,0,0,0,0,0,0,0,0,-1,1245,806,0,0
28,218,0,0,0,0,0,0,0,0,0,-1,1252,806,0,0
35,218,0,0,0,0,0,0,0,0,0,-1,1259,806,0,0
42,218,0,0,0,0,0,0,0,0,0,-1,1266,806,0,0
49,218,0,0,0,0,0,0,0,0,0,-1,1273,806,0,0
56,218,0,0,0,0,0,0,0,0,0,-1,1280,806,0,0
63,218,0,0,0,0,0,0,0,0,0,-1,1287,806,0,0
70,218,0,0,0,0,0,0,0,0,0,-1,1294,806,0,0
77,218,0,0,0,0,0,0,0,0,0,-1,1301,806,0,0
84,218,0,0,0,0,0,0,0,0,0,-1,1308,806,0,0
91,218,0,0,0,0,0,0,0,0,0,-1,1315,806,0,0
98,218,0,0,0,0,0,0,0,0,0,-1,1322,806,0,0
105,218,0,0,0,0,0,0,0,0,0,-1,1329,806,0,0
112,218,0,0,0,0,0,0,0,0,0,-1,1336,806,0,0
119,218,0,0,0,0,0,0,0,0,0,-1,1343,806,0,0
126,218,0,0,0,0,0,0,0,0,0,-1,1350,806,0,0
133,218,0,0,0,0,0,0,0,0,0,-1,1357,806,0,0
140,218,0,0,0,0,0,0,0,0,0,-1,1364,806,0,0
147,218,0,0,0,0,0,0,0,0,0,-1,1371,806,0,0
154,218,0,0,0,0,0,0,0,0,0,-1,1378,806,0,0
161,218,0,0,0,0,0,0,0,0,0,-1,1385,806,0,0
168,218,0,0,0,0,0,0,0,0,0,-1,1392,806,0,0
175,218,0,0,0,0,0,0,0,0,0,-1,1399,806,0,0
182,218,0,0,0,0,0,0,0,0,0,-1,1406,806,0,0
189,218,0,0,0,0,0,0,0,0,0,-1,1413,806,0,0
196,218,0,0,0,0,0,0,0,0,0,-1,1420,806,0,0
203,218,0,0,0,0,0,0,0,0,0,-1,1427,806,0,0
210,218,0,0,0,0,0,0,0,0,0,-1,1434,806,0,0
217,218,0,0,0,0,0,0,0,0,0,-1,1441,806,0,0
224,218,0,0,0,0,0,0,0,0,0,-1,1448,806,0,0
231,218,0,0,0,0,0,0,0,0,0,-1,1455,806,0,0
238,218,0,0,0,0,0,0,0,0,0,-1,1462,806,0,0
245,218,0,0,0,0,0,0,0,0,0,-1,1469,806,0,0
252,218,0,0,0,0,0,0,0,0,0,-1,1476,806,0,0
259,218,0,0,0,0,0,0,0,0,0,-1,1483,806,0,0
266,218,0,0,0,0,0,0,0,0,0,-1,1490,806,0,0
273,218,0,0,0,0,0,0,0,0,0,-1,1497,806,0,0
280,218,0,0,0,0,0,0,0,0,0,-1,1504,806,0,0
287,218,0,0,0,0,0,0,0,0,0,-1,1511,806,0,0
294,218,0,0,0,0,0,0,0,0,0,-1,1518,806,0,0
301,218,0,0,0,0,0,0,0,0,0,-1,1525,806,0,0
308,218,0,0,0,0,0,0,0,0,0,-1,1532,806,0,0
315,218,0,0,0,0,0,0,0,0,0,-1,1539,806,0,0
322,218,0,0,0,0,0,0,0,0,0,-1,1546,806,0,0
329,218,0,0,0,0,0,0,0,0,0,-1,1553,806,0,0
336,218,0,0,0,0,0,0,0,0,0,-1,1560,806,0,0
343,218,0,0,0,0,0,0,0,0,0,-1,1567,806,0,0
350,218,0,0,0,0,0,0,0,0,0,-1,1574,806,0,0
357,218,0,0,0,0,0,0,0,0,0,-1,1581,806,0,0
364,218,0,0,0,0,0,0,0,0,0,-1,1588,806,0,0
371,218,0,0,0,0,0,0,0,0,0,-1,1595,806,0,0
378,218,0,0,0,0,0,0,0,0,0,-1,1602,806,0,0
385,218,0,0,0,0,0,0,0,0,0,-1,1609,806,0,0
392,218,0,0,0,0,0,0,0,0,0,-1,1616,806,0,0
399,218,0,0,0,0,0,0,0,0,0,-1,1623,806,0,0
406,218,0,0,0,0,0,0,0,0,0,-1,1630,806,0,0
413,218,0,0,0,0,0,0,0,0,0,-1,1637,806,0,0
420,218,0,0,0,0,0,0,0,0,0,-1,1644,806,0,0
427,218,0,0,0,0,0,0,0,0,0,-1,1651,806,0,0
434,218,0,0,0,0,0,0,0,0,0,-1,1658,806,0,0
441,218,0,0,0,0,0,0,0,0,0,-1,1665,806,0,0
448,218,0,0,0,0,0,0,0,0,0,-1,1672,806,0,0
455,218,0,0,0,0,0,0,0,0,0,-1,1679,806,0,0
462,218,0,0,0,0,0,0,0,0,0,-1,1686,806,0,0
469,218,0,0,0,0,0,0,0,0,0,-1,1693,806,0,0
476,218,0,0,0,0,0,0,0,0,0,-1,1700,806,0,0
483,218,0,0,0,0,0,0,0,0,0,-1,1707,806,0,0
490,218,0,0,0,0,0,0,0,0,0,-1,1714,806,0,0
497,218,0,0,0,0,0,0,0,0,0,-1,1721,806,0,0
504,218,0,0,0,0,0,0,0,0,0,-1,1728,806,0,0
511,218,0,0,0,0,0,0,0,0,0,-1,1735,806,0,0
518,218,0,0,0,0,0,0,0,0,0,-1,1742,806,0,0
525,218,0,0,0,0,0,0,0,0,0,-1,1749,806,0,0
532,218,0,0,0,0,0,0,0,0,0,-1,1756,806,0,0
539,218,0,0,0,0,0,0,0,0,0,-1,1763,806,0,0
546,218,0,0,0,0,0,0,0,0,0,-1,1770,806,0,0
553,218,0,0,0,0,0,0,0,0,0,-1,1777,806,0,0
560,218,0,0,0,0,0,0,0,0,0,-1,1784,806,0,0
567,218,0,0,0,0,0,0,0,0,0,-1,1791,806,0,0
574,218,0,0,0,0,0,0,0,0,0,-1,1798,806,0,0
581,218,0,0,0,0,0,0,0,0,0,-1,1805,806,0,0
588,218,0,0,0,0,0,0,0,0,0,-1,1812,806,0,0
595,218,79.0874,2.40411,0.00420491,-0.00216377,-0.000146353,0.00420827,-0.00216713,-0.022964,0.00374319,0.0342562,1819,806,79.0874,-2.4041
602,218,79.1039,2.32751,0.00233286,-1.40168e-05,0.000620331,0.00248674,-0.000167895,0.24315,0.00171653,0.0311129,1826,806,79.1038,-2.32748
609,218,79.049,2.42853,0.000747692,0.00101726,0.00078658,0.00168052,8.44302e-05,0.87025,0.00109329,0.0291473,1833,806,79.049,-2.42851
616,218,78.9944,2.51355,-5.37902e-05,0.00126604,0.000712715,0.00157744,-0.000365189,1.15887,0.00119215,0.0328262,1840,806,78.9944,-2.51358
623,218,79.0199,2.46405,-0.000349054,0.00105602,0.000560321,0.00125211,-0.000545137,1.23417,0.00106406,0.0380541,1847,806,79.0199,-2.46405
630,218,79.0779,2.36292,0,0,0,0,0,0,0,-1,1854,806,79.0778,-2.36292
637,218,75.0532,2.44513,0,0,0,0,0,0,0,-1,1861,806,75.0532,-2.44515
644,218,52.4042,2.47949,0,0,0,0,0,0,0,-1,1868,806,52.4041,-2.47949
651,218,41.7338,1.99164,0,0,0,0,0,0,0,-1,1875,806,41.7338,-1.99162
658,218,28.41,0.514954,0,0,0,0,0,0,0,-1,1882,806,28.41,-0.514983
665,218,52.1176,-2.84406,0,0,0,0,0,0,0,-1,1889,806,52.1176,2.84404
672,218,52.8506,-2.1853,0,0,0,0,0,0,0,-1,1896,806,52.8506,2.18533
679,218,58.4987,-1.88776,0,0,0,0,0,0,0,-1,1903,806,58.4987,1.88777
686,218,58.4493,-0.635742,-0.000837003,-0.000338085,-0.00113885,0.000578304,-0.00175339,-0.893218,0.00140203,0.0296476,1910,806,58.4494,0.635755
693,218,58.4518,0.310364,-0.000429721,-0.000260153,-0.00109234,0.00075069,-0.00144056,-0.824129,0.00128585,0.0120924,1917,806,58.4518,-0.310364
700,218,58.382,1.24231,0.000114902,1.30616e-05,-0.000953664,0.001019,-0.000891041,-0.758726,0.00110359,0.0099433,1924,806,58.382,-1.24228
707,218,58.3031,2.19501,0.000686692,0.000353446,-0.000549165,0.00109396,-5.38173e-05,-0.638107,0.000747889,0.00843743,1931,806,58.3031,-2.19499
714,218,58.2474,3.1521,0.00140751,0.000666302,3.51592e-05,0.00140918,0.000664638,0.0472931,0.000814025,0.0107976,1938,806,58.2475,-3.15211
721,218,58.2091,4.08679,0.00226312,0.000831526,0.000765124,0.00259507,0.000499573,0.409347,0.00158991,0.0146671,1945,806,58.2091,-4.08681
728,218,58.1409,5.08447,0.00333112,0.000769285,0.0016709,0.00415559,-5.51851e-05,0.458377,0.00278897,0.0298449,1952,806,58.1409,-5.08446
735,218,58.5233,6.07251,0,0,0,0,0,0,0,-1,1959,806,58.5234,-6.07249
742,218,47.8733,6.84155,0,0,0,0,0,0,0,-1,1966,806,47.8733,-6.84158
749,218,42.0249,6.64703,0,0,0,0,0,0,0,-1,1973,806,42.0249,-6.64703
756,218,58.4941,6.8728,0,0,0,0,0,0,0,-1,1980,806,58.4942,-6.87278
763,218,45.4928,8.73566,0,0,0,0,0,0,0,-1,1987,806,45.4928,-8.73564
770,218,0,0,0,0,0,0,0,0,0,-1,1994,806,0,0
777,218,0,0,0,0,0,0,0,0,0,-1,2001,806,0,0
784,218,0,0,0,0,0,0,0,0,0,-1,2008,806,0,0
791,218,0,0,0,0,0,0,0,0,0,-1,2015,806,0,0
798,218,0,0,0,0,0,0,0,0,0,-1,2022,806,0,0
805,218,0,0,0,0,0,0,0,0,0,-1,2029,806,0,0
812,218,0,0,0,0,0,0,0,0,0,-1,2036,806,0,0
-700,211,0,0,0,0,0,0,0,0,0,-1,524,813,0,0
-693,211,0,0,0,0,0,0,0,0,0,-1,531,813,0,0
-686,211,0,0,0,0,0,0,0,0,0,-1,538,813,0,0
-679,211,0,0,0,0,0,0,0,0,0,-1,545,813,0,0
-672,211,0,0,0,0,0,0,0,0,0,-1,552,813,0,0
-665,211,0,0,0,0,0,0,0,0,0,-1,559,813,0,0
-658,211,0,0,0,0,0,0,0,0,0,-1,566,813,0,0
-651,211,-40.2495,5.20386,0,0,0,0,0,0,0,-1,573,813,-40.2494,-5.20384
-644,211,-40.6288,4.32092,0,0,0,0,0,0,0,-1,580,813,-40.6288,-4.3209
-637,211,-41.3664,3.51849,0,0,0,0,0,0,0,-1,587,813,-41.3664,-3.51847
-630,211,-41.9262,2.94977,0,0,0,0,0,0,0,-1,594,813,-41.9262,-2.94975
-623,211,-42.5012,2.62903,0,0,0,0,0,0,0,-1,601,813,-42.5011,-2.629
-616,211,-42.7981,6.9151,0,0,0,0,0,0,0,-1,608,813,-42.7981,-6.91512
-609,211,-42.8909,5.93372,0.00107738,0.00689242,-0.000541754,0.00694246,0.00102733,-1.47869,0.00432671,0.0438704,615,813,-42.891,-5.9337
-602,211,-43.1083,5.02942,0.000709493,0.00509341,-0.00154703,0.00558436,0.000218547,-1.2635,0.00365224,0.0236903,622,813,-43.1083,-5.02945
-595,211,-43.2634,4.13611,0.00093092,0.00398724,-0.00208812,0.00504665,-0.000128493,-1.10128,0.00340807,0.0113275,629,813,-43.2634,-4.13612
-588,211,-43.3371,3.18475,0.00123945,0.00302216,-0.00197959,0.00430182,-4.02036e-05,-0.996939,0.00288137,0.0118203,636,813,-43.3371,-3.18476
-581,211,-43.3839,2.23199,0.00167146,0.00243123,-0.00135556,0.00345913,0.000643557,-0.922015,0.00212431,0.0121749,643,813,-43.3839,-2.23199
-574,211,-43.4377,1.26563,0.00206112,0.00199994,-0.000461172,0.00249271,0.00156834,-0.75228,0.00145509,0.0139925,650,813,-43.4377,-1.26563
-567,211,-43.5154,0.324707,0.00216066,0.00151357,0.000327127,0.00229721,0.00137701,0.395453,0.00133501,0.0219601,657,813,-43.5154,-0.324716
-560,211,-43.5538,-0.704956,0.00128992,0.0007009,0.000671099,0.00172828,0.000262531,0.578629,0.00107541,0.0418684,664,813,-43.5537,0.704965
-553,211,-43.6552,-1.90784,0,0,0,0,0,0,0,-1,671,813,-43.6552,1.90784
-546,211,-43.8186,-2.72125,6.43291e-05,0.000560091,0.000819791,0.00116866,-0.000544237,0.932214,0.00101061,0.0467997,678,813,-43.8186,2.72125
-539,211,-43.8273,-3.49475,0.000619196,8.33272e-05,0.00106861,0.00145295,-0.000750428,0.662565,0.0012935,0.0290645,685,813,-43.8273,3.49475
-532,211,-43.7858,-4.24261,0,0,0,0,0,0,0,-1,692,813,-43.7858,4.24264
-525,211,-14.3009,2.3233,0,0,0,0,0,0,0,-1,699,813,-14.3009,-2.3233
-518,211,-34.952,1.93011,0,0,0,0,0,0,0,-1,706,813,-34.952,-1.9301
-511,211,-53.0876,0.677734,0,0,0,0,0,0,0,-1,713,813,-53.0876,-0.677737
-504,211,-62.9111,0.702087,0,0,0,0,0,0,0,-1,720,813,-62.9111,-0.702113
-497,211,-62.9353,0.726501,0.00128729,-0.00237153,0.00110499,0.00159511,-0.00267935,0.271684,0.00249418,0.048708,727,813,-62.9353,-0.726524
-490,211,-62.942,0.759949,0.00265851,-0.00293806,0.000394312,0.00268615,-0.0029657,0.0699952,0.00326443,0.0359664,734,813,-62.942,-0.759939
-483,211,-62.9682,0.726074,0.0058517,-0.00340763,-0.000551563,0.00588444,-0.00344037,-0.0592889,0.00544498,0.0336563,741,813,-62.9682,-0.726057
-476,211,-62.9099,0.636536,0.0116968,-0.00368308,-0.00221327,0.0120089,-0.00399525,-0.14012,0.00961839,0.0365354,748,813,-62.9099,-0.636528
-469,211,0,0,0,0,0,0,0,0,0,-1,755,813,0,0
-462,211,0,0,0,0,0,0,0,0,0,-1,762,813,0,0
-455,211,0,0,0,0,0,0,0,0,0,-1,769,813,0,0
-448,211,0,0,0,0,0,0,0,0,0,-1,776,813,0,0
-441,211,0,0,0,0,0,0,0,0,0,-1,783,813,0,0
-434,211,0,0,0,0,0,0,0,0,0,-1,790,813,0,0
-427,211,0,0,0,0,0,0,0,0,0,-1,797,813,0,0
-420,211,0,0,0,0,0,0,0,0,0,-1,804,813,0,0
-413,211,0,0,0,0,0,0,0,0,0,-1,811,813,0,0
-406,211,0,0,0,0,0,0,0,0,0,-1,818,813,0,0
-399,211,0,0,0,0,0,0,0,0,0,-1,825,813,0,0
-392,211,0,0,0,0,0,0,0,0,0,-1,832,813,0,0
-385,211,0,0,0,0,0,0,0,0,0,-1,839,813,0,0
-378,211,0,0,0,0,0,0,0,0,0,-1,846,813,0,0
-371,211,0,0,0,0,0,0,0,0,0,-1,853,813,0,0
-364,211,0,0,0,0,0,0,0,0,0,-1,860,813,0,0
-357,211,0,0,0,0,0,0,0,0,0,-1,867,813,0,0
-350,211,0,0,0,0,0,0,0,0,0,-1,874,813,0,0
-343,211,0,0,0,0,0,0,0,0,0,-1,881,813,0,0
-336,211,0,0,0,0,0,0,0,0,0,-1,888,813,0,0
-329,211,0,0,0,0,0,0,0,0,0,-1,895,813,0,0
-322,211,0,0,0,0,0,0,0,0,0,-1,902,813,0,0
-315,211,0,0,0,0,0,0,0,0,0,-1,909,813,0,0
-308,211,0,0,0,0,0,0,0,0,0,-1,916,813,0,0
-301,211,0,0,0,0,0,0,0,0,0,-1,923,813,0,0
-294,211,0,0,0,0,0,0,0,0,0,-1,930,813,0,0
-287,211,0,0,0,0,0,0,0,0,0,-1,937,813,0,0
-280,211,0,0,0,0,0,0,0,0,0,-1,944,813,0,0
-273,211,0,0,0,0,0,0,0,0,0,-1,951,813,0,0
-266,211,0,0,0,0,0,0,0,0,0,-1,958,813,0,0
-259,211,0,0,0,0,0,0,0,0,0,-1,965,813,0,0
-252,211,0,0,0,0,0,0,0,0,0,-1,972,813,0,0
-245,211,0,0,0,0,0,0,0,0,0,-1,979,813,0,0
-238,211,0,0,0,0,0,0,0,0,0,-1,986,813,0,0
-231,211,0,0,0,0,0,0,0,0,0,-1,993,813,0,0
-224,211,0,0,0,0,0,0,0,0,0,-1,1000,813,0,0
-217,211,0,0,0,0,0,0,0,0,0,-1,1007,813,0,0
-210,211,0,0,0,0,0,0,0,0,0,-1,1014,813,0,0
-203,211,0,0,0,0,0,0,0,0,0,-1,1021,813,0,0
-196,211,0,0,0,0,0,0,0,0,0,-1,1028,813,0,0
-189,211,0,0,0,0,0,0,0,0,0,-1,1035,813,0,0
-182,211,0,0,0,0,0,0,0,0,0,-1,1042,813,0,0
-175,211,0,0,0,0,0,0,0,0,0,-1,1049,813,0,0
-168,211,0,0,0,0,0,0,0,0,0,-1,1056,813,0,0
-161,211,0,0,0,0,0,0,0,0,0,-1,1063,813,0,0
-154,211,0,0,0,0,0,0,0,0,0,-1,1070,813,0,0
-147,211,0,0,0,0,0,0,0,0,0,-1,1077,813,0,0
-140,211,0,0,0,0,0,0,0,0,0,-1,1084,813,0,0
-133,211,0,0,0,0,0,0,0,0,0,-1,1091,813,0,0
-126,211,0,0,0,0,0,0,0,0,0,-1,1098,813,0,0
-119,211,0,0,0,0,0,0,0,0,0,-1,1105,813,0,0
-112,211,0,0,0,0,0,0,0,0,0,-1,1112,813,0,0
-105,211,0,0,0,0,0,0,0,0,0,-1,1119,813,0,0
-98,211,0,0,0,0,0,0,0,0,0,-1,1126,813,0,0
-91,211,0,0,0,0,0,0,0,0,0,-1,1133,813,0,0
-84,211,0,0,0,0,0,0,0,0,0,-1,1140,813,0,0
-77,211,0,0,0,0,0,0,0,0,0,-1,1147,813,0,0
-70,211,0,0,0,0,0,0,0,0,0,-1,1154,813,0,0
-63,211,0,0,0,0,0,0,0,0,0,-1,1161,813,0,0
-56,211,0,0,0,0,0,0,0,0,0,-1,1168,813,0,0
-49,211,0,0,0,0,0,0,0,0,0,-1,1175,813,0,0
-42,211,0,0,0,0,0,0,0,0,0,-1,1182,813,0,0
-35,211,0,0,0,0,0,0,0,0,0,-1,1189,813,0,0
-28,211,0,0,0,0,0,0,0,0,0,-1,1196,813,0,0
-21,211,0,0,0,0,0,0,0,0,0,-1,1203,813,0,0
-14,211,0,0,0,0,0,0,0,0,0,-1,1210,813,0,0
-7,211,0,0,0,0,0,0,0,0,0,-1,1217,813,0,0
0,211,0,0,0,0,0,0,0,0,0,-1,1224,813,0,0
7,211,0,0,0,0,0,0,0,0,0,-1,1231,813,0,0
14,211,0,0,0,0,0,0,0,0,0,-1,1238,813,0,0
21,211,0,0,0,0,0,0,0,0,0,-1,1245,813,0,0
28,211,0,0,0,0,0,0,0,0,0,-1,1252,813,0,0
35,211,0,0,0,0,0,0,0,0,0,-1,1259,813,0,0
42,211,0,0,0,0,0,0,0,0,0,-1,1266,813,0,0
49,211,0,0,0,0,0,0,0,0,0,-1,1273,813,0,0
56,211,0,0,0,0,0,0,0,0,0,-1,1280,813,0,0
63,211,0,0,0,0,0,0,0,0,0,-1,1287,813,0,0
70,211,0,0,0,0,0,0,0,0,0,-1,1294,813,0,0
77,211,0,0,0,0,0,0,0,0,0,-1,1301,813,0,0
84,211,0,0,0,0,0,0,0,0,0,-1,1308,813,0,0
91,211,0,0,0,0,0,0,0,0,0,-1,1315,813,0,0
98,211,0,0,0,0,0,0,0,0,0,-1,1322,813,0,0
105,211,0,0,0,0,0,0,0,0,0,-1,1329,813,0,0
112,211,0,0,0,0,0,0,0,0,0,-1,1336,813,0,0
119,211,0,0,0,0,0,0,0,0,0,-1,1343,813,0,0
126,211,0,0,0,0,0,0,0,0,0,-1,1350,813,0,0
133,211,0,0,0,0,0,0,0,0,0,-1,1357,813,0,0
140,211,0,0,0,0,0,0,0,0,0,-1,1364,813,0,0
147,211,0,0,0,0,0,0,0,0,0,-1,1371,813,0,0
154,211,0,0,0,0,0,0,0,0,0,-1,1378,813,0,0
161,211,0,0,0,0,0,0,0,0,0,-1,1385,813,0,0
168,211,0,0,0,0,0,0,0,0,0,-1,1392,813,0,0
175,211,0,0,0,0,0,0,0,0,0,-1,1399,813,0,0
182,211,0,0,0,0,0,0,0,0,0,-1,1406,813,0,0
189,211,0,0,0,0,0,0,0,0,0,-1,1413,813,0,0
196,211,0,0,0,0,0,0,0,0,0,-1,1420,813,0,0
203,211,0,0,0,0,0,0,0,0,0,-1,1427,813,0,0
210,211,0,0,0,0,0,0,0,0,0,-1,1434,813,0,0
217,211,0,0,0,0,0,0,0,0,0,-1,1441,813,0,0
224,211,0,0,0,0,0,0,0,0,0,-1,1448,813,0,0
231,211,0,0,0,0,0,0,0,0,0,-1,1455,813,0,0
238,211,0,0,0,0,0,0,0,0,0,-1,1462,813,0,0
245,211,0,0,0,0,0,0,0,0,0,-1,1469,813,0,0
252,211,0,0,0,0,0,0,0,0,0,-1,1476,813,0,0
259,211,0,0,0,0,0,0,0,0,0,-1,1483,813,0,0
266,211,0,0,0,0,0,0,0,0,0,-1,1490,813,0,0
273,211,0,0,0,0,0,0,0,0,0,-1,1497,813,0,0
280,211,0,0,0,0,0,0,0,0,0,-1,1504,813,0,0
287,211,0,0,0,0,0,0,0,0,0,-1,1511,813,0,0
294,211,0,0,0,0,0,0,0,0,0,-1,1518,813,0,0
301,211,0,0,0,0,0,0,0,0,0,-1,1525,813,0,0
308,211,0,0,0,0,0,0,0,0,0,-1,1532,813,0,0
315,211,0,0,0,0,0,0,0,0,0,-1,1539,813,0,0
322,211,0,0,0,0,0,0,0,0,0,-1,1546,813,0,0
329,211,0,0,0,0,0,0,0,0,0,-1,1553,813,0,0
336,211,0,0,0,0,0,0,0,0,0,-1,1560,813,0,0
343,211,0,0,0,0,0,0,0,0,0,-1,1567,813,0,0
350,211,0,0,0,0,0,0,0,0,0,-1,1574,813,0,0
357,211,0,0,0,0,0,0,0,0,0,-1,1581,813,0,0
364,211,0,0,0,0,0,0,0,0,0,-1,1588,813,0,0
371,211,0,0,0,0,0,0,0,0,0,-1,1595,813,0,0
378,211,0,0,0,0,0,0,0,0,0,-1,1602,813,0,0
385,211,0,0,0,0,0,0,0,0,0,-1,1609,813,0,0
392,211,0,0,0,0,0,0,0,0,0,-1,1616,813,0,0
399,211,0,0,0,0,0,0,0,0,0,-1,1623,813,0,0
406,211,0,0,0,0,0,0,0,0,0,-1,1630,813,0,0
413,211,0,0,0,0,0,0,0,0,0,-1,1637,813,0,0
420,211,0,0,0,0,0,0,0,0,0,-1,1644,813,0,0
427,211,0,0,0,0,0,0,0,0,0,-1,1651,813,0,0
434,211,0,0,0,0,0,0,0,0,0,-1,1658,813,0,0
441,211,0,0,0,0,0,0,0,0,0,-1,1665,813,0,0
448,211,0,0,0,0,0,0,0,0,0,-1,1672,813,0,0
455,211,0,0,0,0,0,0,0,0,0,-1,1679,813,0,0
462,211,0,0,0,0,0,0,0,0,0,-1,1686,813,0,0
469,211,0,0,0,0,0,0,0,0,0,-1,1693,813,0,0
476,211,0,0,0,0,0,0,0,0,0,-1,1700,813,0,0
483,211,0,0,0,0,0,0,0,0,0,-1,1707,813,0,0
490,211,0,0,0,0,0,0,0,0,0,-1,1714,813,0,0
497,211,0,0,0,0,0,0,0,0,0,-1,1721,813,0,0
504,211,0,0,0,0,0,0,0,0,0,-1,1728,813,0,0
511,211,0,0,0,0,0,0,0,0,0,-1,1735,813,0,0
518,211,0,0,0,0,0,0,0,0,0,-1,1742,813,0,0
525,211,0,0,0,0,0,0,0,0,0,-1,1749,813,0,0
532,211,0,0,0,0,0,0,0,0,0,-1,1756,813,0,0
539,211,0,0,0,0,0,0,0,0,0,-1,1763,813,0,0
546,211,0,0,0,0,0,0,0,0,0,-1,1770,813,0,0
553,211,0,0,0,0,0,0,0,0,0,-1,1777,813,0,0
560,211,0,0,0,0,0,0,0,0,0,-1,1784,813,0,0
567,211,0,0,0,0,0,0,0,0,0,-1,1791,813,0,0
574,211,0,0,0,0,0,0,0,0,0,-1,1798,813,0,0
581,211,0,0,0,0,0,0,0,0,0,-1,1805,813,0,0
588,211,0,0,0,0,0,0,0,0,0,-1,1812,813,0,0
595,211,79.0819,2.34149,0.00550348,-0.00332409,-0.00017385,0.0055069,-0.00332752,-0.0196838,0.00515203,0.0379332,1819,813,79.0819,-2.34151
602,211,79.0234,2.23651,0.00335803,-0.0012773,0.000475975,0.0034064,-0.00132567,0.101276,0.00281873,0.0346922,1826,813,79.0235,-2.23653
609,211,78.9701,2.44476,0.00140607,0.000106399,0.000714698,0.00172219,-0.000209727,0.416449,0.00122404,0.0363459,1833,813,78.9701,-2.44478
616,211,79.0071,2.48248,7.9376e-05,0.000698706,0.000660904,0.0011189,-0.000340813,1.00448,0.000881769,0.0332575,1840,813,79.0071,-2.48251
623,211,79.0544,2.44623,-0.00050711,0.000720349,0.000510311,0.000904793,-0.000691554,1.22397,0.000924388,0.0337719,1847,813,79.0544,-2.44622
630,211,79.0808,2.43597,-0.000398943,0.000589328,0.000441974,0.000758149,-0.000567764,1.20593,0.000768142,0.0379464,1854,813,79.0808,-2.43598
637,211,79.1632,2.39563,0,0,0,0,0,0,0,-1,1861,813,79.1632,-2.39561
644,211,66.401,2.3595,0,0,0,0,0,0,0,-1,1868,813,66.401,-2.35952
651,211,48.5043,2.95557,0,0,0,0,0,0,0,-1,1875,813,48.5043,-2.95558
658,211,27.7909,1.52234,0,0,0,0,0,0,0,-1,1882,813,27.7909,-1.52234
665,211,42.2053,-0.745605,0,0,0,0,0,0,0,-1,1889,813,42.2054,0.745605
672,211,53.189,-1.99603,0,0,0,0,0,0,0,-1,1896,813,53.189,1.99603
679,211,59.4,-1.427,0,0,0,0,0,0,0,-1,1903,813,59.4,1.427
686,211,59.4669,-0.620972,-0.00124643,-0.000413622,-0.00139461,0.000625424,-0.00228548,-0.930475,0.00176936,0.0344339,1910,813,59.4669,0.62095
693,211,59.3849,0.326233,-0.000928828,-0.000451181,-0.00142781,0.00075764,-0.00213765,-0.868264,0.00173374,0.0157546,1917,813,59.3849,-0.326252
700,211,59.286,1.26849,-0.000438708,-0.000217604,-0.00136061,0.00103693,-0.00169325,-0.825935,0.00159138,0.0148627,1924,813,59.286,-1.2685
707,211,59.2743,2.26697,0.000151636,0.000131433,-0.00095887,0.00110046,-0.000817389,-0.780131,0.00111128,0.0227996,1931,813,59.2743,-2.26696
714,211,59.2346,3.22455,0.00101311,0.000526552,-0.000287859,0.00114673,0.00039294,-0.434566,0.0006729,0.0228162,1938,813,59.2346,-3.22457
721,211,59.1593,4.11292,0.00202615,0.000778339,0.000520335,0.00221465,0.000589837,0.347565,0.00132436,0.0181003,1945,813,59.1593,-4.11292
728,211,59.0906,5.06891,0.00326144,0.000831557,0.00149524,0.00397311,0.000119887,0.444228,0.0026097,0.0202808,1952,813,59.0906,-5.06891
735,211,59.1779,6.02521,0.00489162,0.000682159,0.00271619,0.0062231,-0.000649325,0.45578,0.00438124,0.0391118,1959,813,59.1779,-6.02519
742,211,59.4202,6.93799,0,0,0,0,0,0,0,-1,1966,813,59.4202,-6.93801
749,211,58.2174,7.58356,0,0,0,0,0,0,0,-1,1973,813,58.2174,-7.58358
756,211,58.7476,7.14038,0,0,0,0,0,0,0,-1,1980,813,58.7476,-7.14036
763,211,58.3169,7.26605,0,0,0,0,0,0,0,-1,1987,813,58.3169,-7.26605
770,211,46.2148,12.9099,0,0,0,0,0,0,0,-1,1994,813,46.2148,-12.9099
777,211,0,0,0,0,0,0,0,0,0,-1,2001,813,0,0
784,211,0,0,0,0,0,0,0,0,0,-1,2008,813,0,0
791,211,0,0,0,0,0,0,0,0,0,-1,2015,813,0,0
798,211,0,0,0,0,0,0,0,0,0,-1,2022,813,0,0
805,211,0,0,0,0,0,0,0,0,0,-1,2029,813,0,0
812,211,0,0,0,0,0,0,0,0,0,-1,2036,813,0,0
-700,204,0,0,0,0,0,0,0,0,0,-1,524,820,0,0
-693,204,0,0,0,0,0,0,0,0,0,-1,531,820,0,0
-686,204,0,0,0,0,0,0,0,0,0,-1,538,820,0,0
-679,204,0,0,0,0,0,0,0,0,0,-1,545,820,0,0
-672,204,0,0,0,0,0,0,0,0,0,-1,552,820,0,0
-665,204,0,0,0,0,0,0,0,0,0,-1,559,820,0,0
-658,204,0,0,0,0,0,0,0,0,0,-1,566,820,0,0
-651,204,-40.064,5.25806,0,0,0,0,0,0,0,-1,573,820,-40.064,-5.25806
-644,204,-40.4117,4.54321,0,0,0,0,0,0,0,-1,580,820,-40.4117,-4.54323
-637,204,-40.8671,3.93817,0,0,0,0,0,0,0,-1,587,820,-40.8671,-3.93819
-630,204,-41.7101,3.04382,0,0,0,0,0,0,0,-1,594,820,-41.7101,-3.04383
-623,204,-41.8597,2.11951,0,0,0,0,0,0,0,-1,601,820,-41.8597,-2.11951
-616,204,-43.8583,7.25323,0,0,0,0,0,0,0,-1,608,820,-43.8584,-7.25323
-609,204,-43.9309,6.18561,0.00104748,0.00674203,0.00184945,0.00728996,0.000499551,1.28277,0.00470231,0.0392932,615,820,-43.9309,-6.18563
-602,204,-44.1288,5.14294,0.000593986,0.0048169,0.000333352,0.00484305,0.000567833,1.4925,0.00305705,0.0197192,622,820,-44.1288,-5.14295
-595,204,-44.2367,4.18457,0.0007764,0.0036217,-0.000537502,0.00371985,0.000678248,-1.39018,0.00228759,0.0162839,629,820,-44.2367,-4.18456
-588,204,-44.3043,3.22217,0.00112686,0.00258137,-0.000753091,0.00290103,0.000807189,-1.16937,0.00172895,0.0150479,636,820,-44.3043,-3.22215
-581,204,-44.3558,2.25879,0.00175024,0.0020354,-0.0003851,0.00230347,0.00148217,-0.962691,0.00134803,0.0146864,643,820,-44.3558,-2.2588
-574,204,-44.3815,1.30951,0.00234939,0.00161987,0.000271951,0.00243961,0.00152965,0.320328,0.00142358,0.0151554,650,820,-44.3815,-1.30949
-567,204,-44.4429,0.414124,0.00264714,0.00101638,0.000819103,0.00298751,0.000676005,0.393839,0.00180895,0.0158671,657,820,-44.4429,-0.414122
-560,204,-44.2457,-0.629517,0.00162921,6.86601e-05,0.000795751,0.00196341,-0.000265537,0.397608,0.00140584,0.0399189,664,820,-44.2457,0.629491
-553,204,-44.6212,-1.64807,0,0,0,0,0,0,0,-1,671,820,-44.6212,1.64808
-546,204,-44.9785,-2.34564,0,0,0,0,0,0,0,-1,678,820,-44.9785,2.34567
-539,204,-44.752,-3.22766,0,0,0,0,0,0,0,-1,685,820,-44.752,3.22768
-532,204,-30.0565,-3.29065,0,0,0,0,0,0,0,-1,692,820,-30.0565,3.29063
-525,204,-25.7137,1.52496,0,0,0,0,0,0,0,-1,699,820,-25.7137,-1.52496
-518,204,-43.4591,0.383972,0,0,0,0,0,0,0,-1,706,820,-43.4591,-0.383942
-511,204,-61.3691,1.49664,0,0,0,0,0,0,0,-1,713,820,-61.3691,-1.49666
-504,204,-63.0381,0.567749,0,0,0,0,0,0,0,-1,720,820,-63.0381,-0.567774
-497,204,-63.0527,0.557007,0.00230686,-0.00235021,0.000877419,0.00246669,-0.00251003,0.180179,0.00287334,0.0398015,727,820,-63.0527,-0.557001
-490,204,-63.0065,0.547791,0.00466405,-0.00247123,-0.000124629,0.00466622,-0.00247341,-0.0174595,0.00418637,0.034125,734,820,-63.0065,-0.547765
-483,204,-62.9287,0.519409,0.0101031,-0.0023199,-0.00178988,0.0103559,-0.00257264,-0.140277,0.00790231,0.0405281,741,820,-62.9287,-0.519423
-476,204,0,0,0,0,0,0,0,0,0,-1,748,820,0,0
-469,204,0,0,0,0,0,0,0,0,0,-1,755,820,0,0
-462,204,0,0,0,0,0,0,0,0,0,-1,762,820,0,0
-455,204,0,0,0,0,0,0,0,0,0,-1,769,820,0,0
-448,204,0,0,0,0,0,0,0,0,0,-1,776,820,0,0
-441,204,0,0,0,0,0,0,0,0,0,-1,783,820,0,0
-434,204,0,0,0,0,0,0,0,0,0,-1,790,820,0,0
-427,204,0,0,0,0,0,0,0,0,0,-1,797,820,0,0
-420,204,0,0,0,0,0,0,0,0,0,-1,804,820,0,0
-413,204,0,0,0,0,0,0,0,0,0,-1,811,820,0,0
-406,204,0,0,0,0,0,0,0,0,0,-1,818,820,0,0
-399,204,0,0,0,0,0,0,0,0,0,-1,825,820,0,0
-392,204,0,0,0,0,0,0,0,0,0,-1,832,820,0,0
-385,204,0,0,0,0,0,0,0,0,0,-1,839,820,0,0
-378,204,0,0,0,0,0,0,0,0,0,-1,846,820,0,0
-371,204,0,0,0,0,0,0,0,0,0,-1,853,820,0,0
-364,204,0,0,0,0,0,0,0,0,0,-1,860,820,0,0
-357,204,0,0,0,0,0,0,0,0,0,-1,867,820,0,0
-350,204,0,0,0,0,0,0,0,0,0,-1,874,820,0,0
-343,204,0,0,0,0,0,0,0,0,0,-1,881,820,0,0
-336,204,0,0,0,0,0,0,0,0,0,-1,888,820,0,0
-329,204,0,0,0,0,0,0,0,0,0,-1,895,820,0,0
-322,204,0,0,0,0,0,0,0,0,0,-1,902,820,0,0
-315,204,0,0,0,0,0,0,0,0,0,-1,909,820,0,0
-308,204,0,0,0,0,0,0,0,0,0,-1,916,820,0,0
-301,204,0,0,0,0,0,0,0,0,0,-1,923,820,0,0
-294,204,0,0,0,0,0,0,0,0,0,-1,930,820,0,0
-287,204,0,0,0,0,0,0,0,0,0,-1,937,820,0,0
-280,204,0,0,0,0,0,0,0,0,0,-1,944,820,0,0
-273,204,0,0,0,0,0,0,0,0,0,-1,951,820,0,0
-266,204,0,0,0,0,0,0,0,0,0,-1,958,820,0,0
-259,204,0,0,0,0,0,0,0,0,0,-1,965,820,0,0
-252,204,0,0,0,0,0,0,0,0,0,-1,972,820,0,0
-245,204,0,0,0,0,0,0,0,0,0,-1,979,820,0,0
-238,204,0,0,0,0,0,0,0,0,0,-1,986,820,0,0
-231,204,0,0,0,0,0,0,0,0,0,-1,993,820,0,0
-224,204,0,0,0,0,0,0,0,0,0,-1,1000,820,0,0
-217,204,0,0,0,0,0,0,0,0,0,-1,1007,820,0,0
-210,204,0,0,0,0,0,0,0,0,0,-1,1014,820,0,0
-203,204,0,0,0,0,0,0,0,0,0,-1,1021,820,0,0
-196,204,0,0,0,0,0,0,0,0,0,-1,1028,820,0,0
-189,204,0,0,0,0,0,0,0,0,0,-1,1035,820,0,0
-182,204,0,0,0,0,0,0,0,0,0,-1,1042,820,0,0
-175,204,0,0,0,0,0,0,0,0,0,-1,1049,820,0,0
-168,204,0,0,0,0,0,0,0,0,0,-1,1056,820,0,0
-161,204,0,0,0,0,0,0,0,0,0,-1,1063,820,0,0
-154,204,0,0,0,0,0,0,0,0,0,-1,1070,820,0,0
-147,204,0,0,0,0,0,0,0,0,0,-1,1077,820,0,0
-140,204,0,0,0,0,0,0,0,0,0,-1,1084,820,0,0
-133,204,0,0,0,0,0,0,0,0,0,-1,1091,820,0,0
-126,204,0,0,0,0,0,0,0,0,0,-1,1098,820,0,0
-119,204,0,0,0,0,0,0,0,0,0,-1,1105,820,0,0
-112,204,0,0,0,0,0,0,0,0,0,-1,1112,820,0,0
-105,204,0,0,0,0,0,0,0,0,0,-1,1119,820,0,0
-98,204,0,0,0,0,0,0,0,0,0,-1,1126,820,0,0
-91,204,0,0,0,0,0,0,0,0,0,-1,1133,820,0,0
-84,204,0,0,0,0,0,0,0,0,0,-1,1140,820,0,0
-77,204,0,0,0,0,0,0,0,0,0,-1,1147,820,0,0
-70,204,0,0,0,0,0,0,0,0,0,-1,1154,820,0,0
-63,204,0,0,0,0,0,0,0,0,0,-1,1161,820,0,0
-56,204,0,0,0,0,0,0,0,0,0,-1,1168,820,0,0
-49,204,0,0,0,0,0,0,0,0,0,-1,1175,820,0,0
-42,204,0,0,0,0,0,0,0,0,0,-1,1182,820,0,0
-35,204,0,0,0,0,0,0,0,0,0,-1,1189,820,0,0
-28,204,0,0,0,0,0,0,0,0,0,-1,1196,820,0,0
-21,204,0,0,0,0,0,0,0,0,0,-1,1203,820,0,0
-14,204,0,0,0,0,0,0,0,0,0,-1,1210,820,0,0
-7,204,0,0,0,0,0,0,0,0,0,-1,1217,820,0,0
0,204,0,0,0,0,0,0,0,0,0,-1,1224,820,0,0
7,204,0,0,0,0,0,0,0,0,0,-1,1231,820,0,0
14,204,0,0,0,0,0,0,0,0,0,-1,1238,820,0,0
21,204,0,0,0,0,0,0,0,0,0,-1,1245,820,0,0
28,204,0,0,0,0,0,0,0,0,0,-1,1252,820,0,0
35,204,0,0,0,0,0,0,0,0,0,-1,1259,820,0,0
42,204,0,0,0,0,0,0,0,0,0,-1,1266,820,0,0
49,204,0,0,0,0,0,0,0,0,0,-1,1273,820,0,0
56,204,0,0,0,0,0,0,0,0,0,-1,1280,820,0,0
63,204,0,0,0,0,0,0,0,0,0,-1,1287,820,0,0
70,204,0,0,0,0,0,0,0,0,0,-1,1294,820,0,0
77,204,0,0,0,0,0,0,0,0,0,-1,1301,820,0,0
84,204,0,0,0,0,0,0,0,0,0,-1,1308,820,0,0
91,204,0,0,0,0,0,0,0,0,0,-1,1315,820,0,0
98,204,0,0,0,0,0,0,0,0,0,-1,1322,820,0,0
105,204,0,0,0,0,0,0,0,0,0,-1,1329,820,0,0
112,204,0,0,0,0,0,0,0,0,0,-1,1336,820,0,0
119,204,0,0,0,0,0,0,0,0,0,-1,1343,820,0,0
126,204,0,0,0,0,0,0,0,0,0,-1,1350,820,0,0
133,204,0,0,0,0,0,0,0,0,0,-1,1357,820,0,0
140,204,0,0,0,0,0,0,0,0,0,-1,1364,820,0,0
147,204,0,0,0,0,0,0,0,0,0,-1,1371,820,0,0
154,204,0,0,0,0,0,0,0,0,0,-1,1378,820,0,0
161,204,0,0,0,0,0,0,0,0,0,-1,1385,820,0,0
168,204,0,0,0,0,0,0,0,0,0,-1,1392,820,0,0
175,204,0,0,0,0,0,0,0,0,0,-1,1399,820,0,0
182,204,0,0,0,0,0,0,0,0,0,-1,1406,820,0,0
189,204,0,0,0,0,0,0,0,0,0,-1,1413,820,0,0
196,204,0,0,0,0,0,0,0,0,0,-1,1420,820,0,0
203,204,0,0,0,0,0,0,0,0,0,-1,1427,820,0,0
210,204,0,0,0,0,0,0,0,0,0,-1,1434,820,0,0
217,204,0,0,0,0,0,0,0,0,0,-1,1441,820,0,0
224,204,0,0,0,0,0,0,0,0,0,-1,1448,820,0,0
231,204,0,0,0,0,0,0,0,0,0,-1,1455,820,0,0
238,204,0,0,0,0,0,0,0,0,0,-1,1462,820,0,0
245,204,0,0,0,0,0,0,0,0,0,-1,1469,820,0,0
252,204,0,0,0,0,0,0,0,0,0,-1,1476,820,0,0
259,204,0,0,0,0,0,0,0,0,0,-1,1483,820,0,0
266,204,0,0,0,0,0,0,0,0,0,-1,1490,820,0,0
273,204,0,0,0,0,0,0,0,0,0,-1,1497,820,0,0
280,204,0,0,0,0,0,0,0,0,0,-1,1504,820,0,0
287,204,0,0,0,0,0,0,0,0,0,-1,1511,820,0,0
294,204,0,0,0,0,0,0,0,0,0,-1,1518,820,0,0
301,204,0,0,0,0,0,0,0,0,0,-1,1525,820,0,0
308,204,0,0,0,0,0,0,0,0,0,-1,1532,820,0,0
315,204,0,0,0,0,0,0,0,0,0,-1,1539,820,0,0
322,204,0,0,0,0,0,0,0,0,0,-1,1546,820,0,0
329,204,0,0,0,0,0,0,0,0,0,-1,1553,820,0,0
336,204,0,0,0,0,0,0,0,0,0,-1,1560,820,0,0
343,204,0,0,0,0,0,0,0,0,0,-1,1567,820,0,0
350,204,0,0,0,0,0,0,0,0,0,-1,1574,820,0,0
357,204,0,0,0,0,0,0,0,0,0,-1,1581,820,0,0
364,204,0,0,0,0,0,0,0,0,0,-1,1588,820,0,0
371,204,0,0,0,0,0,0,0,0,0,-1,1595,820,0,0
378,204,0,0,0,0,0,0,0,0,0,-1,1602,820,0,0
385,204,0,0,0,0,0,0,0,0,0,-1,1609,820,0,0
392,204,0,0,0,0,0,0,0,0,0,-1,1616,820,0,0
399,204,0,0,0,0,0,0,0,0,0,-1,1623,820,0,0
406,204,0,0,0,0,0,0,0,0,0,-1,1630,820,0,0
413,204,0,0,0,0,0,0,0,0,0,-1,1637,820,0,0
420,204,0,0,0,0,0,0,0,0,0,-1,1644,820,0,0
427,204,0,0,0,0,0,0,0,0,0,-1,1651,820,0,0
434,204,0,0,0,0,0,0,0,0,0,-1,1658,820,0,0
441,204,0,0,0,0,0,0,0,0,0,-1,1665,820,0,0
448,204,0,0,0,0,0,0,0,0,0,-1,1672,820,0,0
455,204,0,0,0,0,0,0,0,0,0,-1,1679,820,0,0
462,204,0,0,0,0,0,0,0,0,0,-1,1686,820,0,0
469,204,0,0,0,0,0,0,0,0,0,-1,1693,820,0,0
476,204,0,0,0,0,0,0,0,0,0,-1,1700,820,0,0
483,204,0,0,0,0,0,0,0,0,0,-1,1707,820,0,0
490,204,0,0,0,0,0,0,0,0,0,-1,1714,820,0,0
497,204,0,0,0,0,0,0,0,0,0,-1,1721,820,0,0
504,204,0,0,0,0,0,0,0,0,0,-1,1728,820,0,0
511,204,0,0,0,0,0,0,0,0,0,-1,1735,820,0,0
518,204,0,0,0,0,0,0,0,0,0,-1,1742,820,0,0
525,204,0,0,0,0,0,0,0,0,0,-1,1749,820,0,0
532,204,0,0,0,0,0,0,0,0,0,-1,1756,820,0,0
539,204,0,0,0,0,0,0,0,0,0,-1,1763,820,0,0
546,204,0,0,0,0,0,0,0,0,0,-1,1770,820,0,0
553,204,0,0,0,0,0,0,0,0,0,-1,1777,820,0,0
560,204,0,0,0,0,0,0,0,0,0,-1,1784,820,0,0
567,204,0,0,0,0,0,0,0,0,0,-1,1791,820,0,0
574,204,0,0,0,0,0,0,0,0,0,-1,1798,820,0,0
581,204,0,0,0,0,0,0,0,0,0,-1,1805,820,0,0
588,204,0,0,0,0,0,0,0,0,0,-1,1812,820,0,0
595,204,0,0,0,0,0,0,0,0,0,-1,1819,820,0,0
602,204,79.155,2.26636,0.00391279,-0.00249619,0.000180131,0.00391785,-0.00250125,0.0280764,0.00373603,0.0376439,1826,820,79.155,-2.26633
609,204,79.0621,2.31879,0.0021553,-0.000978579,0.000532782,0.0022434,-0.00106668,0.163876,0.00195091,0.0415835,1833,820,79.0621,-2.31877
616,204,79.0408,2.31293,0.000720405,-1.64589e-05,0.000638609,0.00108924,-0.000385295,0.523757,0.00088307,0.0403496,1840,820,79.0407,-2.31293
623,204,79.0126,2.39258,-6.05059e-05,0.000377392,0.000613437,0.000809783,-0.000492897,0.956812,0.000759484,0.0292506,1847,820,79.0126,-2.39256
630,204,79.0217,2.44916,-7.122e-05,0.000435632,0.000528324,0.000768167,-0.000403755,1.00903,0.000687427,0.028112,1854,820,79.0217,-2.44915
637,204,79.053,2.45166,-0.00015662,0.000235107,0.000246533,0.00035411,-0.000275623,1.12108,0.000364517,0.0447108,1861,820,79.0529,-2.45167
644,204,79.0656,2.44153,0,0,0,0,0,0,0,-1,1868,820,79.0655,-2.4415
651,204,53.7611,2.32251,0,0,0,0,0,0,0,-1,1875,820,53.7611,-2.32249
658,204,34.9631,1.64844,0,0,0,0,0,0,0,-1,1882,820,34.9631,-1.64842
665,204,21.8292,1.51099,0,0,0,0,0,0,0,-1,1889,820,21.8292,-1.51099
672,204,60.5872,-2.21326,0,0,0,0,0,0,0,-1,1896,820,60.5871,2.21325
679,204,60.5829,-1.37463,-0.00117993,-0.000533156,-0.00121965,0.000405249,-0.00211833,-0.91499,0.00156489,0.0458852,1903,820,60.5829,1.37465
686,204,60.561,-0.552002,-0.0013364,-0.00057953,-0.00149363,0.000582858,-0.00249878,-0.90947,0.00189034,0.0291741,1910,820,60.5611,0.552026
693,204,60.1707,0.345459,-0.00112708,-0.000714579,-0.00160705,0.000699398,-0.00254106,-0.84922,0.00196902,0.0319094,1917,820,60.1707,-0.345483
700,204,60.2396,1.32355,-0.000778917,-0.000550594,-0.00168313,0.00102224,-0.00235176,-0.81926,0.00199776,0.0189424,1924,820,60.2396,-1.32354
707,204,60.209,2.3222,-0.000285138,-0.000194757,-0.00137566,0.00113645,-0.00161635,-0.801817,0.00159736,0.0165912,1931,820,60.2089,-2.32218
714,204,60.1648,3.29865,0.00063638,0.000326137,-0.000656128,0.00115547,-0.000192957,-0.66932,0.000842037,0.0267877,1938,820,60.1648,-3.29864
721,204,60.1096,4.18634,0.00174559,0.0007089,0.000225345,0.00179245,0.000662036,0.205045,0.00104658,0.024435,1945,820,60.1097,-4.18636
728,204,60.0083,5.08197,0.00306652,0.000913012,0.00126434,0.00365048,0.000329057,0.432677,0.00233172,0.0154357,1952,820,60.0083,-5.08195
735,204,59.9108,6.02338,0.00472742,0.000937442,0.0025081,0.00597592,-0.000311064,0.461877,0.00409158,0.0193364,1959,820,59.9108,-6.02339
742,204,59.8654,6.81903,0.00668967,0.000355417,0.00412294,0.00872152,-0.00167643,0.457883,0.00644624,0.0362296,1966,820,59.8654,-6.81904
749,204,59.8555,7.60016,0,0,0,0,0,0,0,-1,1973,820,59.8555,-7.60017
756,204,58.6871,8.49182,0,0,0,0,0,0,0,-1,1980,820,58.6872,-8.49182
763,204,58.373,9.49487,0,0,0,0,0,0,0,-1,1987,820,58.373,-9.49487
770,204,54.0085,7.94019,0,0,0,0,0,0,0,-1,1994,820,54.0084,-7.94017
777,204,0,0,0,0,0,0,0,0,0,-1,2001,820,0,0
784,204,0,0,0,0,0,0,0,0,0,-1,2008,820,0,0
791,204,0,0,0,0,0,0,0,0,0,-1,2015,820,0,0
798,204,0,0,0,0,0,0,0,0,0,-1,2022,820,0,0
805,204,0,0,0,0,0,0,0,0,0,-1,2029,820,0,0
812,204,0,0,0,0,0,0,0,0,0,-1,2036,820,0,0
-700,197,0,0,0,0,0,0,0,0,0,-1,524,827,0,0
-693,197,0,0,0,0,0,0,0,0,0,-1,531,827,0,0
-686,197,0,0,0,0,0,0,0,0,0,-1,538,827,0,0
-679,197,0,0,0,0,0,0,0,0,0,-1,545,827,0,0
-672,197,0,0,0,0,0,0,0,0,0,-1,552,827,0,0
-665,197,0,0,0,0,0,0,0,0,0,-1,559,827,0,0
-658,197,-39.9774,5.66638,0,0,0,0,0,0,0,-1,566,827,-39.9774,-5.66637
-651,197,-39.9665,5.23578,0,0,0,0,0,0,0,-1,573,827,-39.9665,-5.23575
-644,197,-38.9225,4.75665,0,0,0,0,0,0,0,-1,580,827,-38.9225,-4.75665
-637,197,-45.2572,7.41498,0,0,0,0,0,0,0,-1,587,827,-45.2572,-7.415
-630,197,-40.4908,2.45648,0,0,0,0,0,0,0,-1,594,827,-40.4908,-2.45649
-623,197,-43.6929,7.67633,0,0,0,0,0,0,0,-1,601,827,-43.6929,-7.67635
-616,197,-44.8394,7.4389,0,0,0,0,0,0,0,-1,608,827,-44.8394,-7.43893
-609,197,-44.8927,6.24371,0.00106641,0.00701178,0.00383827,0.00889391,-0.000815708,1.11489,0.00621903,0.036247,615,827,-44.8927,-6.24369
-602,197,-45.0493,5.14606,0.000505773,0.00494394,0.00191807,0.00565799,-0.000208285,1.21441,0.00384331,0.0213882,622,827,-45.0493,-5.14608
-595,197,-45.2031,4.22394,0.000639727,0.00361175,0.000777209,0.00380272,0.000448751,1.32985,0.00239959,0.0193024,629,827,-45.2031,-4.22395
-588,197,-45.2527,3.27295,0.00104391,0.00244564,0.000281038,0.00249989,0.000989665,1.38012,0.0014537,0.0231236,636,827,-45.2528,-3.27293
-581,197,-45.3202,2.32007,0.00185263,0.00183149,0.00039324,0.00223544,0.00144868,0.771959,0.00130936,0.0142913,643,827,-45.3202,-2.32007
-574,197,-45.3488,1.37817,0.00258087,0.00127723,0.000806624,0.00296612,0.00089198,0.445572,0.00175724,0.0157452,650,827,-45.3488,-1.37819
-567,197,-45.2873,0.496155,0.00293273,0.000486211,0.0011863,0.00341349,5.4522e-06,0.385031,0.00227384,0.0234082,657,827,-45.2873,-0.496141
-560,197,-45.1637,-0.572144,0,0,0,0,0,0,0,-1,664,827,-45.1637,0.572147
-553,197,-33.1771,-1.4881,0,0,0,0,0,0,0,-1,671,827,-33.1771,1.4881
-546,197,-46.0597,-2.12701,0,0,0,0,0,0,0,-1,678,827,-46.0597,2.12702
-539,197,-32.8993,-2.61737,0,0,0,0,0,0,0,-1,685,827,-32.8993,2.61737
-532,197,-16.0519,0.0410156,0,0,0,0,0,0,0,-1,692,827,-16.0519,-0.0410415
-525,197,-35.3785,2.11829,0,0,0,0,0,0,0,-1,699,827,-35.3785,-2.11826
-518,197,-57.6698,0.308533,0,0,0,0,0,0,0,-1,706,827,-57.6698,-0.308561
-511,197,-62.9378,0.616211,0,0,0,0,0,0,0,-1,713,827,-62.9378,-0.616183
-504,197,-63.1458,0.520081,0.0015338,-0.00234008,0.00120577,0.00187844,-0.00268472,0.278404,0.00264822,0.0396758,720,827,-63.1458,-0.520093
-497,197,-63.2399,0.42511,0.0033581,-0.00240359,0.00051377,0.00340355,-0.00244905,0.0882423,0.00339395,0.0395419,727,827,-63.2399,-0.42512
-490,197,-63.0989,0.503662,0.00730232,-0.00187427,-0.00112693,0.00743869,-0.00201064,-0.120421,0.00574778,0.0376131,734,827,-63.0989,-0.503641
-483,197,-62.8362,0.68866,0.016219,-0.000736221,-0.00414311,0.0171772,-0.00169446,-0.227289,0.0120561,0.0413382,741,827,-62.8362,-0.68866
-476,197,0,0,0,0,0,0,0,0,0,-1,748,827,0,0
-469,197,0,0,0,0,0,0,0,0,0,-1,755,827,0,0
-462,197,0,0,0,0,0,0,0,0,0,-1,762,827,0,0
-455,197,0,0,0,0,0,0,0,0,0,-1,769,827,0,0
-448,197,0,0,0,0,0,0,0,0,0,-1,776,827,0,0
-441,197,0,0,0,0,0,0,0,0,0,-1,783,827,0,0
-434,197,0,0,0,0,0,0,0,0,0,-1,790,827,0,0
-427,197,0,0,0,0,0,0,0,0,0,-1,797,827,0,0
-420,197,0,0,0,0,0,0,0,0,0,-1,804,827,0,0
-413,197,0,0,0,0,0,0,0,0,0,-1,811,827,0,0
-406,197,0,0,0,0,0,0,0,0,0,-1,818,827,0,0
-399,197,0,0,0,0,0,0,0,0,0,-1,825,827,0,0
-392,197,0,0,0,0,0,0,0,0,0,-1,832,827,0,0
-385,197,0,0,0,0,0,0,0,0,0,-1,839,827,0,0
-378,197,0,0,0,0,0,0,0,0,0,-1,846,827,0,0
-371,197,0,0,0,0,0,0,0,0,0,-1,853,827,0,0
-364,197,0,0,0,0,0,0,0,0,0,-1,860,827,0,0
-357,197,0,0,0,0,0,0,0,0,0,-1,867,827,0,0
-350,197,0,0,0,0,0,0,0,0,0,-1,874,827,0,0
-343,197,0,0,0,0,0,0,0,0,0,-1,881,827,0,0
-336,197,0,0,0,0,0,0,0,0,0,-1,888,827,0,0
-329,197,0,0,0,0,0,0,0,0,0,-1,895,827,0,0
-322,197,0,0,0,0,0,0,0,0,0,-1,902,827,0,0
-315,197,0,0,0,0,0,0,0,0,0,-1,909,827,0,0
-308,197,0,0,0,0,0,0,0,0,0,-1,916,827,0,0
-301,197,0,0,0,0,0,0,0,0,0,-1,923,827,0,0
-294,197,0,0,0,0,0,0,0,0,0,-1,930,827,0,0
-287,197,0,0,0,0,0,0,0,0,0,-1,937,827,0,0
-280,197,0,0,0,0,0,0,0,0,0,-1,944,827,0,0
-273,197,0,0,0,0,0,0,0,0,0,-1,951,827,0,0
-266,197,0,0,0,0,0,0,0,0,0,-1,958,827,0,0
-259,197,0,0,0,0,0,0,0,0,0,-1,965,827,0,0
-252,197,0,0,0,0,0,0,0,0,0,-1,972,827,0,0
-245,197,0,0,0,0,0,0,0,0,0,-1,979,827,0,0
-238,197,0,0,0,0,0,0,0,0,0,-1,986,827,0,0
-231,197,0,0,0,0,0,0,0,0,0,-1,993,827,0,0
-224,197,0,0,0,0,0,0,0,0,0,-1,1000,827,0,0
-217,197,0,0,0,0,0,0,0,0,0,-1,1007,827,0,0
-210,197,0,0,0,0,0,0,0,0,0,-1,1014,827,0,0
-203,197,0,0,0,0,0,0,0,0,0,-1,1021,827,0,0
-196,197,0,0,0,0,0,0,0,0,0,-1,1028,827,0,0
-189,197,0,0,0,0,0,0,0,0,0,-1,1035,827,0,0
-182,197,0,0,0,0,0,0,0,0,0,-1,1042,827,0,0
-175,197,0,0,0,0,0,0,0,0,0,-1,1049,827,0,0
-168,197,0,0,0,0,0,0,0,0,0,-1,1056,827,0,0
-161,197,0,0,0,0,0,0,0,0,0,-1,1063,827,0,0
-154,197,0,0,0,0,0,0,0,0,0,-1,1070,827,0,0
-147,197,0,0,0,0,0,0,0,0,0,-1,1077,827,0,0
-140,197,0,0,0,0,0,0,0,0,0,-1,1084,827,0,0
-133,197,0,0,0,0,0,0,0,0,0,-1,1091,827,0,0
-126,197,0,0,0,0,0,0,0,0,0,-1,1098,827,0,0
-119,197,0,0,0,0,0,0,0,0,0,-1,1105,827,0,0
-112,197,0,0,0,0,0,0,0,0,0,-1,1112,827,0,0
-105,197,0,0,0,0,0,0,0,0,0,-1,1119,827,0,0
-98,197,0,0,0,0,0,0,0,0,0,-1,1126,827,0,0
-91,197,0,0,0,0,0,0,0,0,0,-1,1133,827,0,0
-84,197,0,0,0,0,0,0,0,0,0,-1,1140,827,0,0
-77,197,0,0,0,0,0,0,0,0,0,-1,1147,827,0,0
-70,197,0,0,0,0,0,0,0,0,0,-1,1154,827,0,0
-63,197,0,0,0,0,0,0,0,0,0,-1,1161,827,0,0
-56,197,0,0,0,0,0,0,0,0,0,-1,1168,827,0,0
-49,197,0,0,0,0,0,0,0,0,0,-1,1175,827,0,0
-42,197,0,0,0,0,0,0,0,0,0,-1,1182,827,0,0
-35,197,0,0,0,0,0,0,0,0,0,-1,1189,827,0,0
-28,197,0,0,0,0,0,0,0,0,0,-1,1196,827,0,0
-21,197,0,0,0,0,0,0,0,0,0,-1,1203,827,0,0
-14,197,0,0,0,0,0,0,0,0,0,-1,1210,827,0,0
-7,197,0,0,0,0,0,0,0,0,0,-1,1217,827,0,0
0,197,0,0,0,0,0,0,0,0,0,-1,1224,827,0,0
7,197,0,0,0,0,0,0,0,0,0,-1,1231,827,0,0
14,197,0,0,0,0,0,0,0,0,0,-1,1238,827,0,0
21,197,0,0,0,0,0,0,0,0,0,-1,1245,827,0,0
28,197,0,0,0,0,0,0,0,0,0,-1,1252,827,0,0
35,197,0,0,0,0,0,0,0,0,0,-1,1259,827,0,0
42,197,0,0,0,0,0,0,0,0,0,-1,1266,827,0,0
49,197,0,0,0,0,0,0,0,0,0,-1,1273,827,0,0
56,197,0,0,0,0,0,0,0,0,0,-1,1280,827,0,0
63,197,0,0,0,0,0,0,0,0,0,-1,1287,827,0,0
70,197,0,0,0,0,0,0,0,0,0,-1,1294,827,0,0
77,197,0,0,0,0,0,0,0,0,0,-1,1301,827,0,0
84,197,0,0,0,0,0,0,0,0,0,-1,1308,827,0,0
91,197,0,0,0,0,0,0,0,0,0,-1,1315,827,0,0
98,197,0,0,0,0,0,0,0,0,0,-1,1322,827,0,0
105,197,0,0,0,0,0,0,0,0,0,-1,1329,827,0,0
112,197,0,0,0,0,0,0,0,0,0,-1,1336,827,0,0
119,197,0,0,0,0,0,0,0,0,0,-1,1343,827,0,0
126,197,0,0,0,0,0,0,0,0,0,-1,1350,827,0,0
133,197,0,0,0,0,0,0,0,0,0,-1,1357,827,0,0
140,197,0,0,0,0,0,0,0,0,0,-1,1364,827,0,0
147,197,0,0,0,0,0,0,0,0,0,-1,1371,827,0,0
154,197,0,0,0,0,0,0,0,0,0,-1,1378,827,0,0
161,197,0,0,0,0,0,0,0,0,0,-1,1385,827,0,0
168,197,0,0,0,0,0,0,0,0,0,-1,1392,827,0,0
175,197,0,0,0,0,0,0,0,0,0,-1,1399,827,0,0
182,197,0,0,0,0,0,0,0,0,0,-1,1406,827,0,0
189,197,0,0,0,0,0,0,0,0,0,-1,1413,827,0,0
196,197,0,0,0,0,0,0,0,0,0,-1,1420,827,0,0
203,197,0,0,0,0,0,0,0,0,0,-1,1427,827,0,0
210,197,0,0,0,0,0,0,0,0,0,-1,1434,827,0,0
217,197,0,0,0,0,0,0,0,0,0,-1,1441,827,0,0
224,197,0,0,0,0,0,0,0,0,0,-1,1448,827,0,0
231,197,0,0,0,0,0,0,0,0,0,-1,1455,827,0,0
238,197,0,0,0,0,0,0,0,0,0,-1,1462,827,0,0
245,197,0,0,0,0,0,0,0,0,0,-1,1469,827,0,0
252,197,0,0,0,0,0,0,0,0,0,-1,1476,827,0,0
259,197,0,0,0,0,0,0,0,0,0,-1,1483,827,0,0
266,197,0,0,0,0,0,0,0,0,0,-1,1490,827,0,0
273,197,0,0,0,0,0,0,0,0,0,-1,1497,827,0,0
280,197,0,0,0,0,0,0,0,0,0,-1,1504,827,0,0
287,197,0,0,0,0,0,0,0,0,0,-1,1511,827,0,0
294,197,0,0,0,0,0,0,0,0,0,-1,1518,827,0,0
301,197,0,0,0,0,0,0,0,0,0,-1,1525,827,0,0
308,197,0,0,0,0,0,0,0,0,0,-1,1532,827,0,0
315,197,0,0,0,0,0,0,0,0,0,-1,1539,827,0,0
322,197,0,0,0,0,0,0,0,0,0,-1,1546,827,0,0
329,197,0,0,0,0,0,0,0,0,0,-1,1553,827,0,0
336,197,0,0,0,0,0,0,0,0,0,-1,1560,827,0,0
343,197,0,0,0,0,0,0,0,0,0,-1,1567,827,0,0
350,197,0,0,0,0,0,0,0,0,0,-1,1574,827,0,0
357,197,0,0,0,0,0,0,0,0,0,-1,1581,827,0,0
364,197,0,0,0,0,0,0,0,0,0,-1,1588,827,0,0
371,197,0,0,0,0,0,0,0,0,0,-1,1595,827,0,0
378,197,0,0,0,0,0,0,0,0,0,-1,1602,827,0,0
385,197,0,0,0,0,0,0,0,0,0,-1,1609,827,0,0
392,197,0,0,0,0,0,0,0,0,0,-1,1616,827,0,0
399,197,0,0,0,0,0,0,0,0,0,-1,1623,827,0,0
406,197,0,0,0,0,0,0,0,0,0,-1,1630,827,0,0
413,197,0,0,0,0,0,0,0,0,0,-1,1637,827,0,0
420,197,0,0,0,0,0,0,0,0,0,-1,1644,827,0,0
427,197,0,0,0,0,0,0,0,0,0,-1,1651,827,0,0
434,197,0,0,0,0,0,0,0,0,0,-1,1658,827,0,0
441,197,0,0,0,0,0,0,0,0,0,-1,1665,827,0,0
448,197,0,0,0,0,0,0,0,0,0,-1,1672,827,0,0
455,197,0,0,0,0,0,0,0,0,0,-1,1679,827,0,0
462,197,0,0,0,0,0,0,0,0,0,-1,1686,827,0,0
469,197,0,0,0,0,0,0,0,0,0,-1,1693,827,0,0
476,197,0,0,0,0,0,0,0,0,0,-1,1700,827,0,0
483,197,0,0,0,0,0,0,0,0,0,-1,1707,827,0,0
490,197,0,0,0,0,0,0,0,0,0,-1,1714,827,0,0
497,197,0,0,0,0,0,0,0,0,0,-1,1721,827,0,0
504,197,0,0,0,0,0,0,0,0,0,-1,1728,827,0,0
511,197,0,0,0,0,0,0,0,0,0,-1,1735,827,0,0
518,197,0,0,0,0,0,0,0,0,0,-1,1742,827,0,0
525,197,0,0,0,0,0,0,0,0,0,-1,1749,827,0,0
532,197,0,0,0,0,0,0,0,0,0,-1,1756,827,0,0
539,197,0,0,0,0,0,0,0,0,0,-1,1763,827,0,0
546,197,0,0,0,0,0,0,0,0,0,-1,1770,827,0,0
553,197,0,0,0,0,0,0,0,0,0,-1,1777,827,0,0
560,197,0,0,0,0,0,0,0,0,0,-1,1784,827,0,0
567,197,0,0,0,0,0,0,0,0,0,-1,1791,827,0,0
574,197,0,0,0,0,0,0,0,0,0,-1,1798,827,0,0
581,197,0,0,0,0,0,0,0,0,0,-1,1805,827,0,0
588,197,0,0,0,0,0,0,0,0,0,-1,1812,827,0,0
595,197,0,0,0,0,0,0,0,0,0,-1,1819,827,0,0
602,197,78.9818,2.42621,0.00452061,-0.00327338,-0.000205142,0.004526,-0.00327877,-0.0262964,0.00452523,0.0411643,1826,827,78.9818,-2.42619
609,197,79.0562,2.44989,0.00276689,-0.00185657,0.000116278,0.00276981,-0.00185949,0.0251283,0.0026899,0.0426986,1833,827,79.0562,-2.44987
616,197,79.0396,2.39716,0.00122173,-0.000730388,0.000329844,0.00127596,-0.000784614,0.162943,0.00120089,0.039867,1840,827,79.0395,-2.39714
623,197,78.929,2.35535,0.000193884,-2.38812e-05,0.000487788,0.000584794,-0.000414792,0.67559,0.000579886,0.0365046,1847,827,78.929,-2.35537
630,197,79.0116,2.37311,-6.81155e-05,0.000301926,0.000480577,0.000631869,-0.000398058,0.969151,0.000599714,0.0321562,1854,827,79.0117,-2.37308
637,197,79.0753,2.36353,-0.000252298,0.000137137,0.000228554,0.000242673,-0.000357834,1.13821,0.000348821,0.0302666,1861,827,79.0753,-2.3635
644,197,79.0565,2.41742,0,0,0,0,0,0,0,-1,1868,827,79.0565,-2.41743
651,197,73.8147,2.2644,0,0,0,0,0,0,0,-1,1875,827,73.8147,-2.26442
658,197,40.4694,3.05927,0,0,0,0,0,0,0,-1,1882,827,40.4694,-3.05926
665,197,14.0618,1.80304,0,0,0,0,0,0,0,-1,1889,827,14.0617,-1.80303
672,197,61.7128,-2.6109,0,0,0,0,0,0,0,-1,1896,827,61.7128,2.61093
679,197,61.5728,-1.36224,-0.00159641,-0.000577968,-0.00123515,0.000248818,-0.00242319,-0.980919,0.00170447,0.0383608,1903,827,61.5727,1.36226
686,197,61.4924,-0.357422,-0.00177878,-0.000658654,-0.00148154,0.000365151,-0.00280259,-0.966109,0.00200124,0.0295198,1910,827,61.4924,0.357413
693,197,61.2118,0.629395,-0.00167409,-0.000892453,-0.00160772,0.000371271,-0.00293781,-0.90463,0.0020933,0.0415714,1917,827,61.2118,-0.629424
700,197,61.173,1.36908,-0.00150278,-0.000863946,-0.00180639,0.000651051,-0.00301778,-0.872907,0.00226034,0.0366907,1924,827,61.1729,-1.36905
707,197,61.1489,2.39661,-0.00112833,-0.000554305,-0.00166328,0.000846545,-0.00252918,-0.870836,0.00202807,0.0101846,1931,827,61.1489,-2.39659
714,197,61.1245,3.30774,-0.000127666,0.000128369,-0.00101014,0.00101857,-0.00101786,-0.848429,0.00117573,0.0132523,1938,827,61.1245,-3.30772
721,197,61.0433,4.22253,0.00115285,0.000754252,-0.000144761,0.00119987,0.000707226,-0.314099,0.00069643,0.0138729,1945,827,61.0433,-4.22254
728,197,60.9418,5.14099,0.00266966,0.00124035,0.000879499,0.00308826,0.000821755,0.444217,0.0018469,0.0122907,1952,827,60.9417,-5.141
735,197,60.8542,6.06146,0.00449134,0.00160828,0.00205048,0.0055563,0.000543325,0.479023,0.00353703,0.0131047,1959,827,60.8542,-6.06146
742,197,60.7974,6.96881,0.00664191,0.00159972,0.00351047,0.00844278,-0.000201144,0.473992,0.00569675,0.0235661,1966,827,60.7973,-6.96882
749,197,60.834,7.84692,0.00926925,0.000952963,0.00525703,0.0118138,-0.00159162,0.450794,0.0084565,0.04845,1973,827,60.834,-7.84693
756,197,60.8317,8.72504,0,0,0,0,0,0,0,-1,1980,827,60.8317,-8.72502
763,197,59.4764,9.61688,0,0,0,0,0,0,0,-1,1987,827,59.4765,-9.61686
770,197,59.1899,10.6091,0,0,0,0,0,0,0,-1,1994,827,59.1899,-10.6091
777,197,0,0,0,0,0,0,0,0,0,-1,2001,827,0,0
784,197,0,0,0,0,0,0,0,0,0,-1,2008,827,0,0
791,197,0,0,0,0,0,0,0,0,0,-1,2015,827,0,0
798,197,0,0,0,0,0,0,0,0,0,-1,2022,827,0,0
805,197,0,0,0,0,0,0,0,0,0,-1,2029,827,0,0
812,197,0,0,0,0,0,0,0,0,0,-1,2036,827,0,0
-700,190,0,0,0,0,0,0,0,0,0,-1,524,834,0,0
-693,190,0,0,0,0,0,0,0,0,0,-1,531,834,0,0
-686,190,0,0,0,0,0,0,0,0,0,-1,538,834,0,0
-679,190,0,0,0,0,0,0,0,0,0,-1,545,834,0,0
-672,190,0,0,0,0,0,0,0,0,0,-1,552,834,0,0
-665,190,0,0,0,0,0,0,0,0,0,-1,559,834,0,0
-658,190,-41.9736,5.50092,0,0,0,0,0,0,0,-1,566,834,-41.9736,-5.50089
-651,190,-40.1895,4.99677,0,0,0,0,0,0,0,-1,573,834,-40.1894,-4.99677
-644,190,-43.4772,11.1134,0,0,0,0,0,0,0,-1,580,834,-43.4771,-11.1134
-637,190,-43.1797,9.53918,0,0,0,0,0,0,0,-1,587,834,-43.1797,-9.53917
-630,190,-43.3638,9.78387,0,0,0,0,0,0,0,-1,594,834,-43.3638,-9.78386
-623,190,-46.1541,8.05786,0,0,0,0,0,0,0,-1,601,834,-46.1541,-8.05787
-616,190,-46.0677,7.10144,0.00295665,0.0102709,0.00864985,0.016005,-0.00277741,0.9854,0.0117061,0.048194,608,834,-46.0677,-7.10145
-609,190,-45.921,6.12421,0.00100209,0.00704853,0.00547549,0.01028,-0.00222936,1.03764,0.00770471,0.027237,615,834,-45.921,-6.12424
-602,190,-46.0281,5.20514,0.000194853,0.00486118,0.00322821,0.0065111,-0.00145507,1.09831,0.00489834,0.019127,622,834,-46.0281,-5.20514
-595,190,-46.1394,4.25629,0.000142054,0.00343026,0.00182585,0.00424315,-0.000670834,1.15193,0.00307685,0.020013,629,834,-46.1394,-4.25629
-588,190,-46.2032,3.33044,0.00046903,0.00222984,0.00106936,0.00273458,-3.57124e-05,1.12979,0.00183508,0.0209695,636,834,-46.2032,-3.33042
-581,190,-46.2531,2.39478,0.00129021,0.00163777,0.000952474,0.00243219,0.000495794,0.87563,0.00148406,0.016002,643,834,-46.2531,-2.39475
-574,190,-46.2719,1.46539,0.00197809,0.00103277,0.00121777,0.00281171,0.000199145,0.60028,0.00181174,0.0157957,650,834,-46.2719,-1.46537
-567,190,-46.1274,0.386292,0.00230533,0.000219606,0.0015387,0.00312127,-0.00059634,0.487579,0.00230548,0.0343942,657,834,-46.1274,-0.386294
-560,190,-45.8931,-0.732178,0,0,0,0,0,0,0,-1,664,834,-45.8931,0.732153
-553,190,-33.9625,-1.6355,0,0,0,0,0,0,0,-1,671,834,-33.9625,1.63552
-546,190,-33.7621,-2.04889,0,0,0,0,0,0,0,-1,678,834,-33.7621,2.04886
-539,190,-16.4624,-0.542542,0,0,0,0,0,0,0,-1,685,834,-16.4624,0.542527
-532,190,-21.6292,2.06122,0,0,0,0,0,0,0,-1,692,834,-21.6292,-2.06123
-525,190,-38.9377,1.03369,0,0,0,0,0,0,0,-1,699,834,-38.9377,-1.0337
-518,190,-62.7776,0.753174,0,0,0,0,0,0,0,-1,706,834,-62.7776,-0.753201
-511,190,-63.1041,0.47937,0.00117363,-0.0027499,0.00115456,0.00148816,-0.00306443,0.265973,0.00268044,0.0436675,713,834,-63.1041,-0.479393
-504,190,-63.3425,0.422241,0.00190794,-0.00266231,0.00103938,0.00213321,-0.00288758,0.213438,0.00290965,0.0413621,720,834,-63.3425,-0.422258
-497,190,-63.3012,0.522522,0.00470902,-0.00232169,-0.000172912,0.00471327,-0.00232594,-0.024574,0.00414127,0.0429381,727,834,-63.3012,-0.522544
-490,190,-63.102,0.682983,0.0105039,-0.00108376,-0.00233657,0.0109573,-0.00153717,-0.191668,0.00786747,0.0435774,734,834,-63.102,-0.682978
-483,190,0,0,0,0,0,0,0,0,0,-1,741,834,0,0
-476,190,0,0,0,0,0,0,0,0,0,-1,748,834,0,0
-469,190,0,0,0,0,0,0,0,0,0,-1,755,834,0,0
-462,190,0,0,0,0,0,0,0,0,0,-1,762,834,0,0
-455,190,0,0,0,0,0,0,0,0,0,-1,769,834,0,0
-448,190,0,0,0,0,0,0,0,0,0,-1,776,834,0,0
-441,190,0,0,0,0,0,0,0,0,0,-1,783,834,0,0
-434,190,0,0,0,0,0,0,0,0,0,-1,790,834,0,0
-427,190,0,0,0,0,0,0,0,0,0,-1,797,834,0,0
-420,190,0,0,0,0,0,0,0,0,0,-1,804,834,0,0
-413,190,0,0,0,0,0,0,0,0,0,-1,811,834,0,0
-406,190,0,0,0,0,0,0,0,0,0,-1,818,834,0,0
-399,190,0,0,0,0,0,0,0,0,0,-1,825,834,0,0
-392,190,0,0,0,0,0,0,0,0,0,-1,832,834,0,0
-385,190,0,0,0,0,0,0,0,0,0,-1,839,834,0,0
-378,190,0,0,0,0,0,0,0,0,0,-1,846,834,0,0
-371,190,0,0,0,0,0,0,0,0,0,-1,853,834,0,0
-364,190,0,0,0,0,0,0,0,0,0,-1,860,834,0,0
-357,190,0,0,0,0,0,0,0,0,0,-1,867,834,0,0
-350,190,0,0,0,0,0,0,0,0,0,-1,874,834,0,0
-343,190,0,0,0,0,0,0,0,0,0,-1,881,834,0,0
-336,190,0,0,0,0,0,0,0,0,0,-1,888,834,0,0
-329,190,0,0,0,0,0,0,0,0,0,-1,895,834,0,0
-322,190,0,0,0,0,0,0,0,0,0,-1,902,834,0,0
-315,190,0,0,0,0,0,0,0,0,0,-1,909,834,0,0
-308,190,0,0,0,0,0,0,0,0,0,-1,916,834,0,0
-301,190,0,0,0,0,0,0,0,0,0,-1,923,834,0,0
-294,190,0,0,0,0,0,0,0,0,0,-1,930,834,0,0
-287,190,0,0,0,0,0,0,0,0,0,-1,937,834,0,0
-280,190,0,0,0,0,0,0,0,0,0,-1,944,834,0,0
-273,190,0,0,0,0,0,0,0,0,0,-1,951,834,0,0
-266,190,0,0,0,0,0,0,0,0,0,-1,958,834,0,0
-259,190,0,0,0,0,0,0,0,0,0,-1,965,834,0,0
-252,190,0,0,0,0,0,0,0,0,0,-1,972,834,0,0
-245,190,0,0,0,0,0,0,0,0,0,-1,979,834,0,0
-238,190,0,0,0,0,0,0,0,0,0,-1,986,834,0,0
-231,190,0,0,0,0,0,0,0,0,0,-1,993,834,0,0
-224,190,0,0,0,0,0,0,0,0,0,-1,1000,834,0,0
-217,190,0,0,0,0,0,0,0,0,0,-1,1007,834,0,0
-210,190,0,0,0,0,0,0,0,0,0,-1,1014,834,0,0
-203,190,0,0,0,0,0,0,0,0,0,-1,1021,834,0,0
-196,190,0,0,0,0,0,0,0,0,0,-1,1028,834,0,0
-189,190,0,0,0,0,0,0,0,0,0,-1,1035,834,0,0
-182,190,0,0,0,0,0,0,0,0,0,-1,1042,834,0,0
-175,190,0,0,0,0,0,0,0,0,0,-1,1049,834,0,0
-168,190,0,0,0,0,0,0,0,0,0,-1,1056,834,0,0
-161,190,0,0,0,0,0,0,0,0,0,-1,1063,834,0,0
-154,190,0,0,0,0,0,0,0,0,0,-1,1070,834,0,0
-147,190,0,0,0,0,0,0,0,0,0,-1,1077,834,0,0
-140,190,0,0,0,0,0,0,0,0,0,-1,1084,834,0,0
-133,190,0,0,0,0,0,0,0,0,0,-1,1091,834,0,0
-126,190,0,0,0,0,0,0,0,0,0,-1,1098,834,0,0
-119,190,0,0,0,0,0,0,0,0,0,-1,1105,834,0,0
-112,190,0,0,0,0,0,0,0,0,0,-1,1112,834,0,0
-105,190,0,0,0,0,0,0,0,0,0,-1,1119,834,0,0
-98,190,0,0,0,0,0,0,0,0,0,-1,1126,834,0,0
-91,190,0,0,0,0,0,0,0,0,0,-1,1133,834,0,0
-84,190,0,0,0,0,0,0,0,0,0,-1,1140,834,0,0
-77,190,0,0,0,0,0,0,0,0,0,-1,1147,834,0,0
-70,190,0,0,0,0,0,0,0,0,0,-1,1154,834,0,0
-63,190,0,0,0,0,0,0,0,0,0,-1,1161,834,0,0
-56,190,0,0,0,0,0,0,0,0,0,-1,1168,834,0,0
-49,190,0,0,0,0,0,0,0,0,0,-1,1175,834,0,0
-42,190,0,0,0,0,0,0,0,0,0,-1,1182,834,0,0
-35,190,0,0,0,0,0,0,0,0,0,-1,1189,834,0,0
-28,190,0,0,0,0,0,0,0,0,0,-1,1196,834,0,0
-21,190,0,0,0,0,0,0,0,0,0,-1,1203,834,0,0
-14,190,0,0,0,0,0,0,0,0,0,-1,1210,834,0,0
-7,190,0,0,0,0,0,0,0,0,0,-1,1217,834,0,0
0,190,0,0,0,0,0,0,0,0,0,-1,1224,834,0,0
7,190,0,0,0,0,0,0,0,0,0,-1,1231,834,0,0
14,190,0,0,0,0,0,0,0,0,0,-1,1238,834,0,0
21,190,0,0,0,0,0,0,0,0,0,-1,1245,834,0,0
28,190,0,0,0,0,0,0,0,0,0,-1,1252,834,0,0
35,190,0,0,0,0,0,0,0,0,0,-1,1259,834,0,0
42,190,0,0,0,0,0,0,0,0,0,-1,1266,834,0,0
49,190,0,0,0,0,0,0,0,0,0,-1,1273,834,0,0
56,190,0,0,0,0,0,0,0,0,0,-1,1280,834,0,0
63,190,0,0,0,0,0,0,0,0,0,-1,1287,834,0,0
70,190,0,0,0,0,0,0,0,0,0,-1,1294,834,0,0
77,190,0,0,0,0,0,0,0,0,0,-1,1301,834,0,0
84,190,0,0,0,0,0,0,0,0,0,-1,1308,834,0,0
91,190,0,0,0,0,0,0,0,0,0,-1,1315,834,0,0
98,190,0,0,0,0,0,0,0,0,0,-1,1322,834,0,0
105,190,0,0,0,0,0,0,0,0,0,-1,1329,834,0,0
112,190,0,0,0,0,0,0,0,0,0,-1,1336,834,0,0
119,190,0,0,0,0,0,0,0,0,0,-1,1343,834,0,0
126,190,0,0,0,0,0,0,0,0,0,-1,1350,834,0,0
133,190,0,0,0,0,0,0,0,0,0,-1,1357,834,0,0
140,190,0,0,0,0,0,0,0,0,0,-1,1364,834,0,0
147,190,0,0,0,0,0,0,0,0,0,-1,1371,834,0,0
154,190,0,0,0,0,0,0,0,0,0,-1,1378,834,0,0
161,190,0,0,0,0,0,0,0,0,0,-1,1385,834,0,0
168,190,0,0,0,0,0,0,0,0,0,-1,1392,834,0,0
175,190,0,0,0,0,0,0,0,0,0,-1,1399,834,0,0
182,190,0,0,0,0,0,0,0,0,0,-1,1406,834,0,0
189,190,0,0,0,0,0,0,0,0,0,-1,1413,834,0,0
196,190,0,0,0,0,0,0,0,0,0,-1,1420,834,0,0
203,190,0,0,0,0,0,0,0,0,0,-1,1427,834,0,0
210,190,0,0,0,0,0,0,0,0,0,-1,1434,834,0,0
217,190,0,0,0,0,0,0,0,0,0,-1,1441,834,0,0
224,190,0,0,0,0,0,0,0,0,0,-1,1448,834,0,0
231,190,0,0,0,0,0,0,0,0,0,-1,1455,834,0,0
238,190,0,0,0,0,0,0,0,0,0,-1,1462,834,0,0
245,190,0,0,0,0,0,0,0,0,0,-1,1469,834,0,0
252,190,0,0,0,0,0,0,0,0,0,-1,1476,834,0,0
259,190,0,0,0,0,0,0,0,0,0,-1,1483,834,0,0
266,190,0,0,0,0,0,0,0,0,0,-1,1490,834,0,0
273,190,0,0,0,0,0,0,0,0,0,-1,1497,834,0,0
280,190,0,0,0,0,0,0,0,0,0,-1,1504,834,0,0
287,190,0,0,0,0,0,0,0,0,0,-1,1511,834,0,0
294,190,0,0,0,0,0,0,0,0,0,-1,1518,834,0,0
301,190,0,0,0,0,0,0,0,0,0,-1,1525,834,0,0
308,190,0,0,0,0,0,0,0,0,0,-1,1532,834,0,0
315,190,0,0,0,0,0,0,0,0,0,-1,1539,834,0,0
322,190,0,0,0,0,0,0,0,0,0,-1,1546,834,0,0
329,190,0,0,0,0,0,0,0,0,0,-1,1553,834,0,0
336,190,0,0,0,0,0,0,0,0,0,-1,1560,834,0,0
343,190,0,0,0,0,0,0,0,0,0,-1,1567,834,0,0
350,190,0,0,0,0,0,0,0,0,0,-1,1574,834,0,0
357,190,0,0,0,0,0,0,0,0,0,-1,1581,834,0,0
364,190,0,0,0,0,0,0,0,0,0,-1,1588,834,0,0
371,190,0,0,0,0,0,0,0,0,0,-1,1595,834,0,0
378,190,0,0,0,0,0,0,0,0,0,-1,1602,834,0,0
385,190,0,0,0,0,0,0,0,0,0,-1,1609,834,0,0
392,190,0,0,0,0,0,0,0,0,0,-1,1616,834,0,0
399,190,0,0,0,0,0,0,0,0,0,-1,1623,834,0,0
406,190,0,0,0,0,0,0,0,0,0,-1,1630,834,0,0
413,190,0,0,0,0,0,0,0,0,0,-1,1637,834,0,0
420,190,0,0,0,0,0,0,0,0,0,-1,1644,834,0,0
427,190,0,0,0,0,0,0,0,0,0,-1,1651,834,0,0
434,190,0,0,0,0,0,0,0,0,0,-1,1658,834,0,0
441,190,0,0,0,0,0,0,0,0,0,-1,1665,834,0,0
448,190,0,0,0,0,0,0,0,0,0,-1,1672,834,0,0
455,190,0,0,0,0,0,0,0,0,0,-1,1679,834,0,0
462,190,0,0,0,0,0,0,0,0,0,-1,1686,834,0,0
469,190,0,0,0,0,0,0,0,0,0,-1,1693,834,0,0
476,190,0,0,0,0,0,0,0,0,0,-1,1700,834,0,0
483,190,0,0,0,0,0,0,0,0,0,-1,1707,834,0,0
490,190,0,0,0,0,0,0,0,0,0,-1,1714,834,0,0
497,190,0,0,0,0,0,0,0,0,0,-1,1721,834,0,0
504,190,0,0,0,0,0,0,0,0,0,-1,1728,834,0,0
511,190,0,0,0,0,0,0,0,0,0,-1,1735,834,0,0
518,190,0,0,0,0,0,0,0,0,0,-1,1742,834,0,0
525,190,0,0,0,0,0,0,0,0,0,-1,1749,834,0,0
532,190,0,0,0,0,0,0,0,0,0,-1,1756,834,0,0
539,190,0,0,0,0,0,0,0,0,0,-1,1763,834,0,0
546,190,0,0,0,0,0,0,0,0,0,-1,1770,834,0,0
553,190,0,0,0,0,0,0,0,0,0,-1,1777,834,0,0
560,190,0,0,0,0,0,0,0,0,0,-1,1784,834,0,0
567,190,0,0,0,0,0,0,0,0,0,-1,1791,834,0,0
574,190,0,0,0,0,0,0,0,0,0,-1,1798,834,0,0
581,190,0,0,0,0,0,0,0,0,0,-1,1805,834,0,0
588,190,0,0,0,0,0,0,0,0,0,-1,1812,834,0,0
595,190,0,0,0,0,0,0,0,0,0,-1,1819,834,0,0
602,190,78.8866,2.5177,0.0045157,-0.00369368,-0.000700579,0.00457505,-0.00375304,-0.0845244,0.00481603,0.0438255,1826,834,78.8866,-2.51771
609,190,79.0999,2.69952,0.0028139,-0.00239409,-0.000367772,0.00283974,-0.00241993,-0.0701529,0.00303989,0.0422435,1833,834,79.0998,-2.69951
616,190,79.0049,2.59485,0.00131484,-0.00128452,-0.000120501,0.00132042,-0.0012901,-0.0462258,0.00150722,0.0393893,1840,834,79.0048,-2.59485
623,190,79.0215,2.61139,0.000164795,-0.000439608,0.000147197,0.000198737,-0.00047355,0.226631,0.000398808,0.0385237,1847,834,79.0215,-2.61137
630,190,79.1866,2.76263,-0.00038564,0.000157559,0.000264483,0.000265061,-0.000493142,1.18473,0.000444301,0.0429394,1854,834,79.1866,-2.76266
637,190,79.1211,2.4718,-0.000710756,0.000138723,0.000113059,0.000153512,-0.000725546,1.44072,0.000542161,0.0364524,1861,834,79.1211,-2.47182
644,190,79.0127,2.44202,-0.00108578,-0.000115158,-0.000129263,-9.82383e-05,-0.0011027,-1.44064,0.000704673,0.0309465,1868,834,79.0127,-2.44203
651,190,78.9739,2.6615,0,0,0,0,0,0,0,-1,1875,834,78.9738,-2.66149
658,190,54.0599,3.0943,0,0,0,0,0,0,0,-1,1882,834,54.0599,-3.09428
665,190,25.9916,3.05157,0,0,0,0,0,0,0,-1,1889,834,25.9916,-3.05156
672,190,27.2662,1.70862,0,0,0,0,0,0,0,-1,1896,834,27.2662,-1.70861
679,190,62.3977,-1.19141,0,0,0,0,0,0,0,-1,1903,834,62.3977,1.19139
686,190,62.4193,-0.264587,-0.00218801,-0.000422766,-0.00158066,0.000504999,-0.00311577,-1.04003,0.00226436,0.029758,1910,834,62.4194,0.264585
693,190,62.3978,0.682617,-0.00204402,-0.000611441,-0.00170674,0.000523224,-0.00317868,-0.984077,0.00231334,0.0383025,1917,834,62.3978,-0.682615
700,190,62.0933,1.53381,-0.00195697,-0.000644614,-0.00198806,0.000792756,-0.00339434,-0.944799,0.00256826,0.0277456,1924,834,62.0933,-1.5338
707,190,62.0627,2.4624,-0.00171608,-0.000439772,-0.0020183,0.00103885,-0.00319471,-0.938518,0.0025477,0.0146302,1931,834,62.0627,-2.4624
714,190,62.0531,3.34998,-0.000755138,0.000198276,-0.00151657,0.0013113,-0.00186816,-0.937675,0.00184502,0.0133602,1938,834,62.0531,-3.34999
721,190,61.9928,4.25793,0.000526294,0.00088186,-0.000756149,0.00148084,-7.26901e-05,-0.900859,0.00101233,0.0123838,1945,834,61.9927,-4.25794
728,190,61.9133,5.17426,0.0020725,0.0014948,0.000205832,0.00213834,0.00142897,0.309565,0.00125765,0.0144708,1952,834,61.9134,-5.17426
735,190,61.8409,6.06952,0.00389752,0.00205837,0.00128355,0.00455691,0.00139898,0.474564,0.00269547,0.0136885,1959,834,61.8409,-6.06955
742,190,61.7478,6.99811,0.00600159,0.00238932,0.00256226,0.00733031,0.0010606,0.478395,0.00457451,0.0206582,1966,834,61.7478,-6.9981
749,190,61.5668,8.30261,0.00854156,0.00232149,0.00403812,0.0105285,0.000334587,0.457256,0.00691014,0.0450245,1973,834,61.5668,-8.30264
756,190,61.364,9.58698,0,0,0,0,0,0,0,-1,1980,834,61.364,-9.58695
763,190,60.58,9.73883,0,0,0,0,0,0,0,-1,1987,834,60.5799,-9.73885
770,190,54.7947,10.1494,0,0,0,0,0,0,0,-1,1994,834,54.7947,-10.1494
777,190,51.4365,10.3331,0,0,0,0,0,0,0,-1,2001,834,51.4366,-10.3331
784,190,0,0,0,0,0,0,0,0,0,-1,2008,834,0,0
791,190,0,0,0,0,0,0,0,0,0,-1,2015,834,0,0
798,190,0,0,0,0,0,0,0,0,0,-1,2022,834,0,0
805,190,0,0,0,0,0,0,0,0,0,-1,2029,834,0,0
812,190,0,0,0,0,0,0,0,0,0,-1,2036,834,0,0
-700,183,0,0,0,0,0,0,0,0,0,-1,524,841,0,0
-693,183,0,0,0,0,0,0,0,0,0,-1,531,841,0,0
-686,183,0,0,0,0,0,0,0,0,0,-1,538,841,0,0
-679,183,0,0,0,0,0,0,0,0,0,-1,545,841,0,0
-672,183,0,0,0,0,0,0,0,0,0,-1,552,841,0,0
-665,183,0,0,0,0,0,0,0,0,0,-1,559,841,0,0
-658,183,-56.7401,1.32843,0,0,0,0,0,0,0,-1,566,841,-56.7401,-1.32844
-651,183,-44.3059,12.2423,0,0,0,0,0,0,0,-1,573,841,-44.3059,-12.2423
-644,183,-46.8565,10.944,0,0,0,0,0,0,0,-1,580,841,-46.8565,-10.944
-637,183,-44.9379,10.8293,0,0,0,0,0,0,0,-1,587,841,-44.9379,-10.8293
-630,183,-47.1355,8.12384,0,0,0,0,0,0,0,-1,594,841,-47.1355,-8.12386
-623,183,-47.0573,7.50726,0.00632242,0.0155723,0.013958,0.0256517,-0.00375691,0.945379,0.0184811,0.0441163,601,841,-47.0573,-7.50729
-616,183,-46.9167,7.10822,0.00301344,0.0104187,0.0094387,0.016855,-0.00342289,0.972315,0.0125344,0.0393929,608,841,-46.9167,-7.10819
-609,183,-46.9496,6.21954,0.00108892,0.00699772,0.00617741,0.0108909,-0.00280422,1.00845,0.00835371,0.0195999,615,841,-46.9496,-6.21956
-602,183,-47.0103,5.24646,0.000169283,0.00465945,0.00382116,0.00684627,-0.00201753,1.051,0.00536467,0.0121455,622,841,-47.0103,-5.24648
-595,183,-47.0577,4.28333,-2.20087e-05,0.00312839,0.00233222,0.00436753,-0.00126115,1.08241,0.0034107,0.0121964,629,841,-47.0577,-4.28334
-588,183,-47.1025,3.36786,0.000229408,0.00196973,0.00152298,0.00285361,-0.000654473,1.04494,0.00215397,0.0155547,636,841,-47.1025,-3.36783
-581,183,-47.1942,2.44989,0.00094388,0.00146068,0.00135999,0.0025866,-0.000182043,0.87928,0.00178818,0.0170496,643,841,-47.1941,-2.4499
-574,183,-47.2128,1.52594,0.00151048,0.000835455,0.00158986,0.00279825,-0.000452318,0.680805,0.00203312,0.0242472,650,841,-47.2128,-1.52593
-567,183,-47.1246,0.637085,0,0,0,0,0,0,0,-1,657,841,-47.1246,-0.6371
-560,183,-34.0303,-1.05511,0,0,0,0,0,0,0,-1,664,841,-34.0303,1.05511
-553,183,-32.2224,-1.71942,0,0,0,0,0,0,0,-1,671,841,-32.2224,1.71944
-546,183,-27.8053,-1.91199,0,0,0,0,0,0,0,-1,678,841,-27.8053,1.91201
-539,183,-16.8032,-0.417297,0,0,0,0,0,0,0,-1,685,841,-16.8032,0.41732
-532,183,-29.9686,0.953613,0,0,0,0,0,0,0,-1,692,841,-29.9686,-0.953627
-525,183,-55.6847,0.842468,0,0,0,0,0,0,0,-1,699,841,-55.6847,-0.842446
-518,183,-63.0671,0.420898,0,0,0,0,0,0,0,-1,706,841,-63.0671,-0.420895
-511,183,-63.0501,0.594971,0.00115581,-0.00309963,0.00120191,0.00147182,-0.00341563,0.257098,0.0028952,0.0415275,713,841,-63.0501,-0.594988
-504,183,-63.3064,0.625244,0.00252253,-0.00278919,0.000712887,0.00261654,-0.0028832,0.13112,0.00317652,0.0404756,720,841,-63.3064,-0.625258
-497,183,-63.3311,0.722839,0.00623135,-0.00186434,-0.000986385,0.0063498,-0.00198279,-0.119512,0.00502623,0.0403878,727,841,-63.3311,-0.722857
-490,183,-63.0778,0.737366,0.0131506,0.000187197,-0.00338979,0.0139834,-0.000645685,-0.240931,0.00954481,0.0430078,734,841,-63.0778,-0.737338
-483,183,0,0,0,0,0,0,0,0,0,-1,741,841,0,0
-476,183,0,0,0,0,0,0,0,0,0,-1,748,841,0,0
-469,183,0,0,0,0,0,0,0,0,0,-1,755,841,0,0
-462,183,0,0,0,0,0,0,0,0,0,-1,762,841,0,0
-455,183,0,0,0,0,0,0,0,0,0,-1,769,841,0,0
-448,183,0,0,0,0,0,0,0,0,0,-1,776,841,0,0
-441,183,0,0,0,0,0,0,0,0,0,-1,783,841,0,0
-434,183,0,0,0,0,0,0,0,0,0,-1,790,841,0,0
-427,183,0,0,0,0,0,0,0,0,0,-1,797,841,0,0
-420,183,0,0,0,0,0,0,0,0,0,-1,804,841,0,0
-413,183,0,0,0,0,0,0,0,0,0,-1,811,841,0,0
-406,183,0,0,0,0,0,0,0,0,0,-1,818,841,0,0
-399,183,0,0,0,0,0,0,0,0,0,-1,825,841,0,0
-392,183,0,0,0,0,0,0,0,0,0,-1,832,841,0,0
-385,183,0,0,0,0,0,0,0,0,0,-1,839,841,0,0
-378,183,0,0,0,0,0,0,0,0,0,-1,846,841,0,0
-371,183,0,0,0,0,0,0,0,0,0,-1,853,841,0,0
-364,183,0,0,0,0,0,0,0,0,0,-1,860,841,0,0
-357,183,0,0,0,0,0,0,0,0,0,-1,867,841,0,0
-350,183,0,0,0,0,0,0,0,0,0,-1,874,841,0,0
-343,183,0,0,0,0,0,0,0,0,0,-1,881,841,0,0
-336,183,0,0,0,0,0,0,0,0,0,-1,888,841,0,0
-329,183,0,0,0,0,0,0,0,0,0,-1,895,841,0,0
-322,183,0,0,0,0,0,0,0,0,0,-1,902,841,0,0
-315,183,0,0,0,0,0,0,0,0,0,-1,909,841,0,0
-308,183,0,0,0,0,0,0,0,0,0,-1,916,841,0,0
-301,183,0,0,0,0,0,0,0,0,0,-1,923,841,0,0
-294,183,0,0,0,0,0,0,0,0,0,-1,930,841,0,0
-287,183,0,0,0,0,0,0,0,0,0,-1,937,841,0,0
-280,183,0,0,0,0,0,0,0,0,0,-1,944,841,0,0
-273,183,0,0,0,0,0,0,0,0,0,-1,951,841,0,0
-266,183,0,0,0,0,0,0,0,0,0,-1,958,841,0,0
-259,183,0,0,0,0,0,0,0,0,0,-1,965,841,0,0
-252,183,0,0,0,0,0,0,0,0,0,-1,972,841,0,0
-245,183,0,0,0,0,0,0,0,0,0,-1,979,841,0,0
-238,183,0,0,0,0,0,0,0,0,0,-1,986,841,0,0
-231,183,0,0,0,0,0,0,0,0,0,-1,993,841,0,0
-224,183,0,0,0,0,0,0,0,0,0,-1,1000,841,0,0
-217,183,0,0,0,0,0,0,0,0,0,-1,1007,841,0,0
-210,183,0,0,0,0,0,0,0,0,0,-1,1014,841,0,0
-203,183,0,0,0,0,0,0,0,0,0,-1,1021,841,0,0
-196,183,0,0,0,0,0,0,0,0,0,-1,1028,841,0,0
-189,183,0,0,0,0,0,0,0,0,0,-1,1035,841,0,0
-182,183,0,0,0,0,0,0,0,0,0,-1,1042,841,0,0
-175,183,0,0,0,0,0,0,0,0,0,-1,1049,841,0,0
-168,183,0,0,0,0,0,0,0,0,0,-1,1056,841,0,0
-161,183,0,0,0,0,0,0,0,0,0,-1,1063,841,0,0
-154,183,0,0,0,0,0,0,0,0,0,-1,1070,841,0,0
-147,183,0,0,0,0,0,0,0,0,0,-1,1077,841,0,0
-140,183,0,0,0,0,0,0,0,0,0,-1,1084,841,0,0
-133,183,0,0,0,0,0,0,0,0,0,-1,1091,841,0,0
-126,183,0,0,0,0,0,0,0,0,0,-1,1098,841,0,0
-119,183,0,0,0,0,0,0,0,0,0,-1,1105,841,0,0
-112,183,0,0,0,0,0,0,0,0,0,-1,1112,841,0,0
-105,183,0,0,0,0,0,0,0,0,0,-1,1119,841,0,0
-98,183,0,0,0,0,0,0,0,0,0,-1,1126,841,0,0
-91,183,0,0,0,0,0,0,0,0,0,-1,1133,841,0,0
-84,183,0,0,0,0,0,0,0,0,0,-1,1140,841,0,0
-77,183,0,0,0,0,0,0,0,0,0,-1,1147,841,0,0
-70,183,0,0,0,0,0,0,0,0,0,-1,1154,841,0,0
-63,183,0,0,0,0,0,0,0,0,0,-1,1161,841,0,0
-56,183,0,0,0,0,0,0,0,0,0,-1,1168,841,0,0
-49,183,0,0,0,0,0,0,0,0,0,-1,1175,841,0,0
-42,183,0,0,0,0,0,0,0,0,0,-1,1182,841,0,0
-35,183,0,0,0,0,0,0,0,0,0,-1,1189,841,0,0
-28,183,0,0,0,0,0,0,0,0,0,-1,1196,841,0,0
-21,183,0,0,0,0,0,0,0,0,0,-1,1203,841,0,0
-14,183,0,0,0,0,0,0,0,0,0,-1,1210,841,0,0
-7,183,0,0,0,0,0,0,0,0,0,-1,1217,841,0,0
0,183,0,0,0,0,0,0,0,0,0,-1,1224,841,0,0
7,183,0,0,0,0,0,0,0,0,0,-1,1231,841,0,0
14,183,0,0,0,0,0,0,0,0,0,-1,1238,841,0,0
21,183,0,0,0,0,0,0,0,0,0,-1,1245,841,0,0
28,183,0,0,0,0,0,0,0,0,0,-1,1252,841,0,0
35,183,0,0,0,0,0,0,0,0,0,-1,1259,841,0,0
42,183,0,0,0,0,0,0,0,0,0,-1,1266,841,0,0
49,183,0,0,0,0,0,0,0,0,0,-1,1273,841,0,0
56,183,0,0,0,0,0,0,0,0,0,-1,1280,841,0,0
63,183,0,0,0,0,0,0,0,0,0,-1,1287,841,0,0
70,183,0,0,0,0,0,0,0,0,0,-1,1294,841,0,0
77,183,0,0,0,0,0,0,0,0,0,-1,1301,841,0,0
84,183,0,0,0,0,0,0,0,0,0,-1,1308,841,0,0
91,183,0,0,0,0,0,0,0,0,0,-1,1315,841,0,0
98,183,0,0,0,0,0,0,0,0,0,-1,1322,841,0,0
105,183,0,0,0,0,0,0,0,0,0,-1,1329,841,0,0
112,183,0,0,0,0,0,0,0,0,0,-1,1336,841,0,0
119,183,0,0,0,0,0,0,0,0,0,-1,1343,841,0,0
126,183,0,0,0,0,0,0,0,0,0,-1,1350,841,0,0
133,183,0,0,0,0,0,0,0,0,0,-1,1357,841,0,0
140,183,0,0,0,0,0,0,0,0,0,-1,1364,841,0,0
147,183,0,0,0,0,0,0,0,0,0,-1,1371,841,0,0
154,183,0,0,0,0,0,0,0,0,0,-1,1378,841,0,0
161,183,0,0,0,0,0,0,0,0,0,-1,1385,841,0,0
168,183,0,0,0,0,0,0,0,0,0,-1,1392,841,0,0
175,183,0,0,0,0,0,0,0,0,0,-1,1399,841,0,0
182,183,0,0,0,0,0,0,0,0,0,-1,1406,841,0,0
189,183,0,0,0,0,0,0,0,0,0,-1,1413,841,0,0
196,183,0,0,0,0,0,0,0,0,0,-1,1420,841,0,0
203,183,0,0,0,0,0,0,0,0,0,-1,1427,841,0,0
210,183,0,0,0,0,0,0,0,0,0,-1,1434,841,0,0
217,183,0,0,0,0,0,0,0,0,0,-1,1441,841,0,0
224,183,0,0,0,0,0,0,0,0,0,-1,1448,841,0,0
231,183,0,0,0,0,0,0,0,0,0,-1,1455,841,0,0
238,183,0,0,0,0,0,0,0,0,0,-1,1462,841,0,0
245,183,0,0,0,0,0,0,0,0,0,-1,1469,841,0,0
252,183,0,0,0,0,0,0,0,0,0,-1,1476,841,0,0
259,183,0,0,0,0,0,0,0,0,0,-1,1483,841,0,0
266,183,0,0,0,0,0,0,0,0,0,-1,1490,841,0,0
273,183,0,0,0,0,0,0,0,0,0,-1,1497,841,0,0
280,183,0,0,0,0,0,0,0,0,0,-1,1504,841,0,0
287,183,0,0,0,0,0,0,0,0,0,-1,1511,841,0,0
294,183,0,0,0,0,0,0,0,0,0,-1,1518,841,0,0
301,183,0,0,0,0,0,0,0,0,0,-1,1525,841,0,0
308,183,0,0,0,0,0,0,0,0,0,-1,1532,841,0,0
315,183,0,0,0,0,0,0,0,0,0,-1,1539,841,0,0
322,183,0,0,0,0,0,0,0,0,0,-1,1546,841,0,0
329,183,0,0,0,0,0,0,0,0,0,-1,1553,841,0,0
336,183,0,0,0,0,0,0,0,0,0,-1,1560,841,0,0
343,183,0,0,0,0,0,0,0,0,0,-1,1567,841,0,0
350,183,0,0,0,0,0,0,0,0,0,-1,1574,841,0,0
357,183,0,0,0,0,0,0,0,0,0,-1,1581,841,0,0
364,183,0,0,0,0,0,0,0,0,0,-1,1588,841,0,0
371,183,0,0,0,0,0,0,0,0,0,-1,1595,841,0,0
378,183,0,0,0,0,0,0,0,0,0,-1,1602,841,0,0
385,183,0,0,0,0,0,0,0,0,0,-1,1609,841,0,0
392,183,0,0,0,0,0,0,0,0,0,-1,1616,841,0,0
399,183,0,0,0,0,0,0,0,0,0,-1,1623,841,0,0
406,183,0,0,0,0,0,0,0,0,0,-1,1630,841,0,0
413,183,0,0,0,0,0,0,0,0,0,-1,1637,841,0,0
420,183,0,0,0,0,0,0,0,0,0,-1,1644,841,0,0
427,183,0,0,0,0,0,0,0,0,0,-1,1651,841,0,0
434,183,0,0,0,0,0,0,0,0,0,-1,1658,841,0,0
441,183,0,0,0,0,0,0,0,0,0,-1,1665,841,0,0
448,183,0,0,0,0,0,0,0,0,0,-1,1672,841,0,0
455,183,0,0,0,0,0,0,0,0,0,-1,1679,841,0,0
462,183,0,0,0,0,0,0,0,0,0,-1,1686,841,0,0
469,183,0,0,0,0,0,0,0,0,0,-1,1693,841,0,0
476,183,0,0,0,0,0,0,0,0,0,-1,1700,841,0,0
483,183,0,0,0,0,0,0,0,0,0,-1,1707,841,0,0
490,183,0,0,0,0,0,0,0,0,0,-1,1714,841,0,0
497,183,0,0,0,0,0,0,0,0,0,-1,1721,841,0,0
504,183,0,0,0,0,0,0,0,0,0,-1,1728,841,0,0
511,183,0,0,0,0,0,0,0,0,0,-1,1735,841,0,0
518,183,0,0,0,0,0,0,0,0,0,-1,1742,841,0,0
525,183,0,0,0,0,0,0,0,0,0,-1,1749,841,0,0
532,183,0,0,0,0,0,0,0,0,0,-1,1756,841,0,0
539,183,0,0,0,0,0,0,0,0,0,-1,1763,841,0,0
546,183,0,0,0,0,0,0,0,0,0,-1,1770,841,0,0
553,183,0,0,0,0,0,0,0,0,0,-1,1777,841,0,0
560,183,0,0,0,0,0,0,0,0,0,-1,1784,841,0,0
567,183,0,0,0,0,0,0,0,0,0,-1,1791,841,0,0
574,183,0,0,0,0,0,0,0,0,0,-1,1798,841,0,0
581,183,0,0,0,0,0,0,0,0,0,-1,1805,841,0,0
588,183,0,0,0,0,0,0,0,0,0,-1,1812,841,0,0
595,183,0,0,0,0,0,0,0,0,0,-1,1819,841,0,0
602,183,0,0,0,0,0,0,0,0,0,-1,1826,841,0,0
609,183,78.8777,2.7901,0.00360069,-0.00310166,-0.00111986,0.00378285,-0.00328382,-0.161251,0.00408333,0.0417299,1833,841,78.8777,-2.79012
616,183,78.8882,2.64771,0.00200507,-0.00203615,-0.000779896,0.00215036,-0.00218143,-0.184177,0.00250098,0.039051,1840,841,78.8882,-2.64771
623,183,79.1136,2.68073,0.000594175,-0.00114674,-0.000360677,0.000665941,-0.0012185,-0.196409,0.00110346,0.0413549,1847,841,79.1136,-2.68073
630,183,79.2081,2.66595,-0.000379199,-0.000326488,-4.57301e-05,-0.000300062,-0.000405624,-1.04681,0.000242996,0.0424798,1854,841,79.2082,-2.66598
637,183,79.0974,2.51318,-0.000940777,-9.87523e-05,-5.01489e-05,-9.57761e-05,-0.000943753,-1.51152,0.000599798,0.0369073,1861,841,79.0974,-2.51319
644,183,78.9376,2.42175,-0.00136927,-0.000271168,-0.000260598,-0.000212462,-0.00142798,-1.34922,0.000889662,0.0296749,1868,841,78.9376,-2.42178
651,183,78.9802,2.54309,-0.00149319,-0.000533435,-0.000566598,-0.000270807,-0.00175582,-1.13676,0.00109153,0.0419905,1875,841,78.9802,-2.5431
658,183,79.0737,2.55035,0,0,0,0,0,0,0,-1,1882,841,79.0737,-2.55032
665,183,38.4337,2.66992,0,0,0,0,0,0,0,-1,1889,841,38.4337,-2.6699
672,183,29.168,1.54572,0,0,0,0,0,0,0,-1,1896,841,29.168,-1.54574
679,183,63.2917,-1.06506,0,0,0,0,0,0,0,-1,1903,841,63.2917,1.06507
686,183,63.2838,-0.174927,-0.00241595,-0.000454622,-0.00170997,0.00053593,-0.0034065,-1.04575,0.00246911,0.0386423,1910,841,63.2839,0.174949
693,183,63.2136,0.65332,-0.0022384,-0.000498695,-0.00183565,0.000662771,-0.00339987,-1.00666,0.00251676,0.0346682,1917,841,63.2136,-0.653341
700,183,62.9719,1.60638,0,0,0,0,0,0,0,-1,1924,841,62.9719,-1.60636
707,183,62.9722,2.52692,-0.00202114,-0.000233077,-0.0023245,0.0013634,-0.00361761,-0.968983,0.00297233,0.0153337,1931,841,62.9722,-2.52693
714,183,63.0002,3.39471,-0.00118632,0.000385593,-0.00196993,0.00172057,-0.0025213,-0.97521,0.00246354,0.0169292,1938,841,63.0002,-3.39469
721,183,62.9368,4.31055,-3.33116e-05,0.00108415,-0.00132103,0.00195975,-0.000908909,-0.985465,0.00169286,0.0151392,1945,841,62.9368,-4.31057
728,183,62.8394,5.21857,0.00139671,0.00176719,-0.000407155,0.00202926,0.00113464,-0.998889,0.00117432,0.0138301,1952,841,62.8393,-5.21858
735,183,62.7917,6.10345,0.00309507,0.0024863,0.000607846,0.00347048,0.00211089,0.553272,0.00201927,0.0140872,1959,841,62.7918,-6.10346
742,183,62.7256,7.00903,0.00500437,0.00312329,0.00174525,0.00604638,0.00208128,0.538252,0.00354691,0.0150926,1966,841,62.7256,-7.00902
749,183,62.7653,8.21228,0.00723842,0.00357025,0.00299909,0.00891979,0.00188888,0.510965,0.00542759,0.0388267,1973,841,62.7653,-8.21225
756,183,62.9352,9.51666,0,0,0,0,0,0,0,-1,1980,841,62.9351,-9.51664
763,183,63.0659,10.5314,0,0,0,0,0,0,0,-1,1987,841,63.066,-10.5314
770,183,51.5659,9.50665,0,0,0,0,0,0,0,-1,1994,841,51.5659,-9.50663
777,183,42.1948,7.22906,0,0,0,0,0,0,0,-1,2001,841,42.1948,-7.22905
784,183,0,0,0,0,0,0,0,0,0,-1,2008,841,0,0
791,183,0,0,0,0,0,0,0,0,0,-1,2015,841,0,0
798,183,0,0,0,0,0,0,0,0,0,-1,2022,841,0,0
805,183,0,0,0,0,0,0,0,0,0,-1,2029,841,0,0
812,183,0,0,0,0,0,0,0,0,0,-1,2036,841,0,0
-700,176,0,0,0,0,0,0,0,0,0,-1,524,848,0,0
-693,176,0,0,0,0,0,0,0,0,0,-1,531,848,0,0
-686,176,0,0,0,0,0,0,0,0,0,-1,538,848,0,0
-679,176,0,0,0,0,0,0,0,0,0,-1,545,848,0,0
-672,176,0,0,0,0,0,0,0,0,0,-1,552,848,0,0
-665,176,-59.6962,8.75854,0,0,0,0,0,0,0,-1,559,848,-59.6962,-8.75853
-658,176,-59.6349,7.95142,0,0,0,0,0,0,0,-1,566,848,-59.6349,-7.95144
-651,176,-48.0698,11.1422,0,0,0,0,0,0,0,-1,573,848,-48.0697,-11.1421
-644,176,-47.7737,10.6096,0,0,0,0,0,0,0,-1,580,848,-47.7738,-10.6096
-637,176,-47.4944,10.3132,0,0,0,0,0,0,0,-1,587,848,-47.4944,-10.3133
-630,176,-47.9471,8.1073,0,0,0,0,0,0,0,-1,594,848,-47.9472,-8.10732
-623,176,-47.9294,7.52032,0.00545759,0.0156216,0.0139029,0.0253422,-0.00426303,0.960622,0.0184804,0.0415288,601,848,-47.9295,-7.5203
-616,176,-47.8068,7.13306,0.00249921,0.0103566,0.00957907,0.0167813,-0.0039255,0.980004,0.0126999,0.0292542,608,848,-47.8067,-7.13304
-609,176,-47.8984,6.21796,0.000715657,0.0067792,0.00640554,0.0108342,-0.00333936,1.00643,0.00855598,0.013591,615,848,-47.8984,-6.21796
-602,176,-47.9468,5.27496,-0.000203258,0.00433518,0.00410004,0.00675207,-0.00262015,1.03815,0.0055836,0.0133156,622,848,-47.9468,-5.27496
-595,176,-48.0079,4.3327,-0.000440384,0.00278634,0.00264883,0.00427446,-0.00192851,1.05893,0.00366567,0.0125784,629,848,-48.0079,-4.33273
-588,176,-48.0349,3.43634,-0.000201673,0.00176824,0.00193049,0.00295052,-0.00138396,1.02129,0.00255641,0.0151986,636,848,-48.0349,-3.43634
-581,176,-48.1382,2.56934,0.000401643,0.0013336,0.00182,0.00274633,-0.00101108,0.910722,0.00224513,0.0155623,643,848,-48.1383,-2.56934
-574,176,-48.2739,1.6723,0.000880388,0.000620322,0.00204399,0.00279848,-0.00129777,0.753632,0.0024173,0.0331683,650,848,-48.2738,-1.67233
-567,176,-48.2864,0.638672,0,0,0,0,0,0,0,-1,657,848,-48.2864,-0.638691
-560,176,-31.6935,-0.0994873,0,0,0,0,0,0,0,-1,664,848,-31.6936,0.0994584
-553,176,-29.4605,-1.50214,0,0,0,0,0,0,0,-1,671,848,-29.4605,1.50211
-546,176,-16.657,-0.403198,0,0,0,0,0,0,0,-1,678,848,-16.657,0.403182
-539,176,-22.7061,1.48657,0,0,0,0,0,0,0,-1,685,848,-22.7061,-1.48657
-532,176,-38.8326,1.29749,0,0,0,0,0,0,0,-1,692,848,-38.8326,-1.29747
-525,176,-63.0724,0.325867,0,0,0,0,0,0,0,-1,699,848,-63.0724,-0.325894
-518,176,-63.033,0.51532,0.00119744,-0.00324851,0.00117284,0.00148786,-0.00353893,0.242741,0.00298166,0.0408578,706,848,-63.033,-0.51529
-511,176,-63.02,0.61908,0.00124744,-0.00350871,0.0011612,0.0015158,-0.00377707,0.22712,0.00314743,0.037339,713,848,-63.02,-0.619073
-504,176,-63.1645,0.65918,0.00349854,-0.00286831,0.000270146,0.00350999,-0.00287975,0.0423287,0.00369509,0.041475,720,848,-63.1645,-0.659207
-497,176,-63.2003,0.697021,0.00798762,-0.00145693,-0.00169714,0.00828333,-0.00175264,-0.172508,0.0061897,0.0429257,727,848,-63.2002,-0.696993
-490,176,-62.9662,0.688477,0.0152248,0.00100249,-0.00405604,0.0163003,-7.29263e-05,-0.259176,0.0108912,0.039846,734,848,-62.9662,-0.688487
-483,176,0,0,0,0,0,0,0,0,0,-1,741,848,0,0
-476,176,0,0,0,0,0,0,0,0,0,-1,748,848,0,0
-469,176,0,0,0,0,0,0,0,0,0,-1,755,848,0,0
-462,176,0,0,0,0,0,0,0,0,0,-1,762,848,0,0
-455,176,0,0,0,0,0,0,0,0,0,-1,769,848,0,0
-448,176,0,0,0,0,0,0,0,0,0,-1,776,848,0,0
-441,176,0,0,0,0,0,0,0,0,0,-1,783,848,0,0
-434,176,0,0,0,0,0,0,0,0,0,-1,790,848,0,0
-427,176,0,0,0,0,0,0,0,0,0,-1,797,848,0,0
-420,176,0,0,0,0,0,0,0,0,0,-1,804,848,0,0
-413,176,0,0,0,0,0,0,0,0,0,-1,811,848,0,0
-406,176,0,0,0,0,0,0,0,0,0,-1,818,848,0,0
-399,176,0,0,0,0,0,0,0,0,0,-1,825,848,0,0
-392,176,0,0,0,0,0,0,0,0,0,-1,832,848,0,0
-385,176,0,0,0,0,0,0,0,0,0,-1,839,848,0,0
-378,176,0,0,0,0,0,0,0,0,0,-1,846,848,0,0
-371,176,0,0,0,0,0,0,0,0,0,-1,853,848,0,0
-364,176,0,0,0,0,0,0,0,0,0,-1,860,848,0,0
-357,176,0,0,0,0,0,0,0,0,0,-1,867,848,0,0
-350,176,0,0,0,0,0,0,0,0,0,-1,874,848,0,0
-343,176,0,0,0,0,0,0,0,0,0,-1,881,848,0,0
-336,176,0,0,0,0,0,0,0,0,0,-1,888,848,0,0
-329,176,0,0,0,0,0,0,0,0,0,-1,895,848,0,0
-322,176,0,0,0,0,0,0,0,0,0,-1,902,848,0,0
-315,176,0,0,0,0,0,0,0,0,0,-1,909,848,0,0
-308,176,0,0,0,0,0,0,0,0,0,-1,916,848,0,0
-301,176,0,0,0,0,0,0,0,0,0,-1,923,848,0,0
-294,176,0,0,0,0,0,0,0,0,0,-1,930,848,0,0
-287,176,0,0,0,0,0,0,0,0,0,-1,937,848,0,0
-280,176,0,0,0,0,0,0,0,0,0,-1,944,848,0,0
-273,176,0,0,0,0,0,0,0,0,0,-1,951,848,0,0
-266,176,0,0,0,0,0,0,0,0,0,-1,958,848,0,0
-259,176,0,0,0,0,0,0,0,0,0,-1,965,848,0,0
-252,176,0,0,0,0,0,0,0,0,0,-1,972,848,0,0
-245,176,0,0,0,0,0,0,0,0,0,-1,979,848,0,0
-238,176,0,0,0,0,0,0,0,0,0,-1,986,848,0,0
-231,176,0,0,0,0,0,0,0,0,0,-1,993,848,0,0
-224,176,0,0,0,0,0,0,0,0,0,-1,1000,848,0,0
-217,176,0,0,0,0,0,0,0,0,0,-1,1007,848,0,0
-210,176,0,0,0,0,0,0,0,0,0,-1,1014,848,0,0
-203,176,0,0,0,0,0,0,0,0,0,-1,1021,848,0,0
-196,176,0,0,0,0,0,0,0,0,0,-1,1028,848,0,0
-189,176,0,0,0,0,0,0,0,0,0,-1,1035,848,0,0
-182,176,0,0,0,0,0,0,0,0,0,-1,1042,848,0,0
-175,176,0,0,0,0,0,0,0,0,0,-1,1049,848,0,0
-168,176,0,0,0,0,0,0,0,0,0,-1,1056,848,0,0
-161,176,0,0,0,0,0,0,0,0,0,-1,1063,848,0,0
-154,176,0,0,0,0,0,0,0,0,0,-1,1070,848,0,0
-147,176,0,0,0,0,0,0,0,0,0,-1,1077,848,0,0
-140,176,0,0,0,0,0,0,0,0,0,-1,1084,848,0,0
-133,176,0,0,0,0,0,0,0,0,0,-1,1091,848,0,0
-126,176,0,0,0,0,0,0,0,0,0,-1,1098,848,0,0
-119,176,0,0,0,0,0,0,0,0,0,-1,1105,848,0,0
-112,176,0,0,0,0,0,0,0,0,0,-1,1112,848,0,0
-105,176,0,0,0,0,0,0,0,0,0,-1,1119,848,0,0
-98,176,0,0,0,0,0,0,0,0,0,-1,1126,848,0,0
-91,176,0,0,0,0,0,0,0,0,0,-1,1133,848,0,0
-84,176,0,0,0,0,0,0,0,0,0,-1,1140,848,0,0
-77,176,0,0,0,0,0,0,0,0,0,-1,1147,848,0,0
-70,176,0,0,0,0,0,0,0,0,0,-1,1154,848,0,0
-63,176,0,0,0,0,0,0,0,0,0,-1,1161,848,0,0
-56,176,0,0,0,0,0,0,0,0,0,-1,1168,848,0,0
-49,176,0,0,0,0,0,0,0,0,0,-1,1175,848,0,0
-42,176,0,0,0,0,0,0,0,0,0,-1,1182,848,0,0
-35,176,0,0,0,0,0,0,0,0,0,-1,1189,848,0,0
-28,176,0,0,0,0,0,0,0,0,0,-1,1196,848,0,0
-21,176,0,0,0,0,0,0,0,0,0,-1,1203,848,0,0
-14,176,0,0,0,0,0,0,0,0,0,-1,1210,848,0,0
-7,176,0,0,0,0,0,0,0,0,0,-1,1217,848,0,0
0,176,0,0,0,0,0,0,0,0,0,-1,1224,848,0,0
7,176,0,0,0,0,0,0,0,0,0,-1,1231,848,0,0
14,176,0,0,0,0,0,0,0,0,0,-1,1238,848,0,0
21,176,0,0,0,0,0,0,0,0,0,-1,1245,848,0,0
28,176,0,0,0,0,0,0,0,0,0,-1,1252,848,0,0
35,176,0,0,0,0,0,0,0,0,0,-1,1259,848,0,0
42,176,0,0,0,0,0,0,0,0,0,-1,1266,848,0,0
49,176,0,0,0,0,0,0,0,0,0,-1,1273,848,0,0
56,176,0,0,0,0,0,0,0,0,0,-1,1280,848,0,0
63,176,0,0,0,0,0,0,0,0,0,-1,1287,848,0,0
70,176,0,0,0,0,0,0,0,0,0,-1,1294,848,0,0
77,176,0,0,0,0,0,0,0,0,0,-1,1301,848,0,0
84,176,0,0,0,0,0,0,0,0,0,-1,1308,848,0,0
91,176,0,0,0,0,0,0,0,0,0,-1,1315,848,0,0
98,176,0,0,0,0,0,0,0,0,0,-1,1322,848,0,0
105,176,0,0,0,0,0,0,0,0,0,-1,1329,848,0,0
112,176,0,0,0,0,0,0,0,0,0,-1,1336,848,0,0
119,176,0,0,0,0,0,0,0,0,0,-1,1343,848,0,0
126,176,0,0,0,0,0,0,0,0,0,-1,1350,848,0,0
133,176,0,0,0,0,0,0,0,0,0,-1,1357,848,0,0
140,176,0,0,0,0,0,0,0,0,0,-1,1364,848,0,0
147,176,0,0,0,0,0,0,0,0,0,-1,1371,848,0,0
154,176,0,0,0,0,0,0,0,0,0,-1,1378,848,0,0
161,176,0,0,0,0,0,0,0,0,0,-1,1385,848,0,0
168,176,0,0,0,0,0,0,0,0,0,-1,1392,848,0,0
175,176,0,0,0,0,0,0,0,0,0,-1,1399,848,0,0
182,176,0,0,0,0,0,0,0,0,0,-1,1406,848,0,0
189,176,0,0,0,0,0,0,0,0,0,-1,1413,848,0,0
196,176,0,0,0,0,0,0,0,0,0,-1,1420,848,0,0
203,176,0,0,0,0,0,0,0,0,0,-1,1427,848,0,0
210,176,0,0,0,0,0,0,0,0,0,-1,1434,848,0,0
217,176,0,0,0,0,0,0,0,0,0,-1,1441,848,0,0
224,176,0,0,0,0,0,0,0,0,0,-1,1448,848,0,0
231,176,0,0,0,0,0,0,0,0,0,-1,1455,848,0,0
238,176,0,0,0,0,0,0,0,0,0,-1,1462,848,0,0
245,176,0,0,0,0,0,0,0,0,0,-1,1469,848,0,0
252,176,0,0,0,0,0,0,0,0,0,-1,1476,848,0,0
259,176,0,0,0,0,0,0,0,0,0,-1,1483,848,0,0
266,176,0,0,0,0,0,0,0,0,0,-1,1490,848,0,0
273,176,0,0,0,0,0,0,0,0,0,-1,1497,848,0,0
280,176,0,0,0,0,0,0,0,0,0,-1,1504,848,0,0
287,176,0,0,0,0,0,0,0,0,0,-1,1511,848,0,0
294,176,0,0,0,0,0,0,0,0,0,-1,1518,848,0,0
301,176,0,0,0,0,0,0,0,0,0,-1,1525,848,0,0
308,176,0,0,0,0,0,0,0,0,0,-1,1532,848,0,0
315,176,0,0,0,0,0,0,0,0,0,-1,1539,848,0,0
322,176,0,0,0,0,0,0,0,0,0,-1,1546,848,0,0
329,176,0,0,0,0,0,0,0,0,0,-1,1553,848,0,0
336,176,0,0,0,0,0,0,0,0,0,-1,1560,848,0,0
343,176,0,0,0,0,0,0,0,0,0,-1,1567,848,0,0
350,176,0,0,0,0,0,0,0,0,0,-1,1574,848,0,0
357,176,0,0,0,0,0,0,0,0,0,-1,1581,848,0,0
364,176,0,0,0,0,0,0,0,0,0,-1,1588,848,0,0
371,176,0,0,0,0,0,0,0,0,0,-1,1595,848,0,0
378,176,0,0,0,0,0,0,0,0,0,-1,1602,848,0,0
385,176,0,0,0,0,0,0,0,0,0,-1,1609,848,0,0
392,176,0,0,0,0,0,0,0,0,0,-1,1616,848,0,0
399,176,0,0,0,0,0,0,0,0,0,-1,1623,848,0,0
406,176,0,0,0,0,0,0,0,0,0,-1,1630,848,0,0
413,176,0,0,0,0,0,0,0,0,0,-1,1637,848,0,0
420,176,0,0,0,0,0,0,0,0,0,-1,1644,848,0,0
427,176,0,0,0,0,0,0,0,0,0,-1,1651,848,0,0
434,176,0,0,0,0,0,0,0,0,0,-1,1658,848,0,0
441,176,0,0,0,0,0,0,0,0,0,-1,1665,848,0,0
448,176,0,0,0,0,0,0,0,0,0,-1,1672,848,0,0
455,176,0,0,0,0,0,0,0,0,0,-1,1679,848,0,0
462,176,0,0,0,0,0,0,0,0,0,-1,1686,848,0,0
469,176,0,0,0,0,0,0,0,0,0,-1,1693,848,0,0
476,176,0,0,0,0,0,0,0,0,0,-1,1700,848,0,0
483,176,0,0,0,0,0,0,0,0,0,-1,1707,848,0,0
490,176,0,0,0,0,0,0,0,0,0,-1,1714,848,0,0
497,176,0,0,0,0,0,0,0,0,0,-1,1721,848,0,0
504,176,0,0,0,0,0,0,0,0,0,-1,1728,848,0,0
511,176,0,0,0,0,0,0,0,0,0,-1,1735,848,0,0
518,176,0,0,0,0,0,0,0,0,0,-1,1742,848,0,0
525,176,0,0,0,0,0,0,0,0,0,-1,1749,848,0,0
532,176,0,0,0,0,0,0,0,0,0,-1,1756,848,0,0
539,176,0,0,0,0,0,0,0,0,0,-1,1763,848,0,0
546,176,0,0,0,0,0,0,0,0,0,-1,1770,848,0,0
553,176,0,0,0,0,0,0,0,0,0,-1,1777,848,0,0
560,176,0,0,0,0,0,0,0,0,0,-1,1784,848,0,0
567,176,0,0,0,0,0,0,0,0,0,-1,1791,848,0,0
574,176,0,0,0,0,0,0,0,0,0,-1,1798,848,0,0
581,176,0,0,0,0,0,0,0,0,0,-1,1805,848,0,0
588,176,0,0,0,0,0,0,0,0,0,-1,1812,848,0,0
595,176,0,0,0,0,0,0,0,0,0,-1,1819,848,0,0
602,176,0,0,0,0,0,0,0,0,0,-1,1826,848,0,0
609,176,78.8851,2.63208,0.0040106,-0.0039032,-0.00173556,0.00437449,-0.00426709,-0.206674,0.00498934,0.0393735,1833,848,78.8852,-2.63211
616,176,78.9446,2.36426,0.00243098,-0.00280868,-0.00137211,0.00276855,-0.00314625,-0.241229,0.00341723,0.0412399,1840,848,78.9446,-2.36427
623,176,79.1799,2.49097,0.000990375,-0.00194487,-0.000864905,0.00122627,-0.00218077,-0.266266,0.00199262,0.0445865,1847,848,79.1799,-2.49099
630,176,79.1696,2.62646,-0.000145868,-0.00107782,-0.000391917,-2.96626e-06,-0.00122072,-0.349641,0.00081283,0.041079,1854,848,79.1695,-2.62648
637,176,79.046,2.48511,-0.000894881,-0.000623221,-0.000210372,-0.000508639,-0.00100946,-1.07206,0.000582819,0.0332883,1861,848,79.046,-2.48512
644,176,78.9287,2.4505,-0.00140707,-0.000669942,-0.000326694,-0.000545994,-0.00153102,-1.20817,0.000895966,0.0320051,1868,848,78.9287,-2.45049
651,176,78.9514,2.52057,-0.0016155,-0.0009048,-0.000640088,-0.000528038,-0.00199226,-1.03879,0.00119181,0.0338791,1875,848,78.9514,-2.52059
658,176,79.0043,2.4765,0,0,0,0,0,0,0,-1,1882,848,79.0042,-2.4765
665,176,54.3333,2.34277,0,0,0,0,0,0,0,-1,1889,848,54.3333,-2.34279
672,176,16.9304,2.80719,0,0,0,0,0,0,0,-1,1896,848,16.9305,-2.80719
679,176,50.9341,0.315979,0,0,0,0,0,0,0,-1,1903,848,50.9341,-0.315984
686,176,64.3702,-0.0169067,0,0,0,0,0,0,0,-1,1910,848,64.3702,0.0169253
693,176,64.1576,0.814148,-0.00234032,-0.000710652,-0.00194688,0.000585034,-0.00363601,-0.983589,0.00264071,0.0352804,1917,848,64.1576,-0.814166
700,176,64.0704,1.84552,-0.00229021,-0.000553359,-0.00228958,0.00102696,-0.00387052,-0.966663,0.0029822,0.042583,1924,848,64.0704,-1.84551
707,176,64.0297,2.68396,-0.00222,-0.000294489,-0.00252997,0.00144971,-0.0039642,-0.967208,0.00323615,0.0346961,1931,848,64.0297,-2.68399
714,176,63.8698,3.47021,-0.00157348,0.000370501,-0.00233773,0.00193026,-0.00313324,-0.982417,0.00295079,0.0151138,1938,848,63.8697,-3.47024
721,176,63.838,4.35266,-0.000643517,0.00114931,-0.00185882,0.00231657,-0.00181078,-1.01007,0.00238888,0.0138314,1945,848,63.838,-4.35263
728,176,63.7457,5.26727,0.000603791,0.00196146,-0.00105047,0.00253335,3.19093e-05,-1.07226,0.00167836,0.0175557,1952,848,63.7457,-5.26724
735,176,63.6808,6.17188,0.00216571,0.00292601,-0.000146328,0.0029532,0.00213852,-1.38708,0.00176121,0.0160614,1959,848,63.6808,-6.1719
742,176,63.6371,7.0755,0.0039068,0.0039668,0.000812289,0.00474964,0.00312395,0.803856,0.00278731,0.0250411,1966,848,63.6371,-7.07548
749,176,63.9335,8.15637,0.00588267,0.00501863,0.00180429,0.00730594,0.00359537,0.66789,0.00421826,0.0371374,1973,848,63.9335,-8.15638
756,176,64.3129,9.57477,0,0,0,0,0,0,0,-1,1980,848,64.3129,-9.57474
763,176,44.4343,7.70581,0,0,0,0,0,0,0,-1,1987,848,44.4343,-7.70578
770,176,36.4186,4.25641,0,0,0,0,0,0,0,-1,1994,848,36.4186,-4.25639
777,176,43.8328,7.50177,0,0,0,0,0,0,0,-1,2001,848,43.8328,-7.50178
784,176,0,0,0,0,0,0,0,0,0,-1,2008,848,0,0
791,176,0,0,0,0,0,0,0,0,0,-1,2015,848,0,0
798,176,0,0,0,0,0,0,0,0,0,-1,2022,848,0,0
805,176,0,0,0,0,0,0,0,0,0,-1,2029,848,0,0
812,176,0,0,0,0,0,0,0,0,0,-1,2036,848,0,0
-700,169,0,0,0,0,0,0,0,0,0,-1,524,855,0,0
-693,169,0,0,0,0,0,0,0,0,0,-1,531,855,0,0
-686,169,0,0,0,0,0,0,0,0,0,-1,538,855,0,0
-679,169,0,0,0,0,0,0,0,0,0,-1,545,855,0,0
-672,169,0,0,0,0,0,0,0,0,0,-1,552,855,0,0
-665,169,-50.4697,8.3269,0,0,0,0,0,0,0,-1,559,855,-50.4697,-8.32688
-658,169,-58.8608,8.22839,0,0,0,0,0,0,0,-1,566,855,-58.8608,-8.2284
-651,169,-49.0147,10.8365,0,0,0,0,0,0,0,-1,573,855,-49.0147,-10.8366
-644,169,-48.7132,10.2992,0.0166979,0.0475334,0.0378764,0.0730098,-0.00877848,0.978685,0.0518477,0.0490773,580,855,-48.7132,-10.2992
-637,169,-48.4872,9.95605,0.0111579,0.0330252,0.0268176,0.0510524,-0.00686927,0.978963,0.0365405,0.04876,587,855,-48.4872,-9.95605
-630,169,-48.621,9.01819,0,0,0,0,0,0,0,-1,594,855,-48.621,-9.01818
-623,169,-48.6802,8.04156,0.00386454,0.0156604,0.0131816,0.0242034,-0.0046784,0.995759,0.0179,0.0417417,601,855,-48.6802,-8.04156
-616,169,-48.7359,7.09698,0.00139491,0.010316,0.00912139,0.0160091,-0.00429818,1.01281,0.0123572,0.0250051,608,855,-48.7359,-7.09698
-609,169,-48.8246,6.24695,-8.66771e-05,0.00660481,0.00615037,0.0102606,-0.00374243,1.03451,0.0083715,0.0154584,615,855,-48.8246,-6.24692
-602,169,-48.8896,5.33246,-0.000839325,0.00404136,0.00403693,0.00631822,-0.00311619,1.05726,0.00555055,0.014628,622,855,-48.8896,-5.33248
-595,169,-48.9421,4.39917,-0.000962754,0.0024404,0.00277257,0.0039919,-0.00251425,1.06062,0.00378848,0.0130884,629,855,-48.9421,-4.39918
-588,169,-48.9647,3.51276,-0.000647274,0.00153346,0.00226967,0.00296109,-0.00207491,1.00932,0.0029225,0.0118978,636,855,-48.9647,-3.51275
-581,169,-49.0573,2.65765,-0.000153432,0.00109924,0.00225456,0.00281285,-0.00186704,0.920886,0.00272027,0.0287134,643,855,-49.0572,-2.65767
-574,169,-49.3799,1.83563,0,0,0,0,0,0,0,-1,650,855,-49.3799,-1.83561
-567,169,-48.8085,0.466858,0,0,0,0,0,0,0,-1,657,855,-48.8085,-0.466881
-560,169,-48.8331,-0.335938,0,0,0,0,0,0,0,-1,664,855,-48.8331,0.335908
-553,169,-32.1944,-0.787964,0,0,0,0,0,0,0,-1,671,855,-32.1944,0.787959
-546,169,-19.0852,-1.05609,0,0,0,0,0,0,0,-1,678,855,-19.0852,1.05612
-539,169,-33.2307,1.10706,0,0,0,0,0,0,0,-1,685,855,-33.2307,-1.10708
-532,169,-62.9194,0.415527,0,0,0,0,0,0,0,-1,692,855,-62.9193,-0.415543
-525,169,-63.0053,0.492249,0.0011711,-0.00353242,0.00162317,0.00167687,-0.00403818,0.302057,0.00339217,0.0487909,699,855,-63.0053,-0.492251
-518,169,-63.0255,0.589722,0.000925725,-0.00369313,0.00143334,0.00133437,-0.00410177,0.277731,0.00327131,0.0394357,706,855,-63.0255,-0.589697
-511,169,-62.9918,0.742676,0.00152904,-0.00361029,0.00123618,0.00181092,-0.00389217,0.224193,0.00336497,0.0396284,713,855,-62.9917,-0.742659
-504,169,-62.9729,0.708496,0.00464808,-0.00240797,0.000128155,0.00465041,-0.0024103,0.0181544,0.00414433,0.0425546,720,855,-62.9729,-0.708473
-497,169,-62.8404,0.58197,0.00948503,-0.000572193,-0.00164614,0.00974761,-0.000834773,-0.15818,0.00679378,0.0438144,727,855,-62.8404,-0.581948
-490,169,0,0,0,0,0,0,0,0,0,-1,734,855,0,0
-483,169,0,0,0,0,0,0,0,0,0,-1,741,855,0,0
-476,169,0,0,0,0,0,0,0,0,0,-1,748,855,0,0
-469,169,0,0,0,0,0,0,0,0,0,-1,755,855,0,0
-462,169,0,0,0,0,0,0,0,0,0,-1,762,855,0,0
-455,169,0,0,0,0,0,0,0,0,0,-1,769,855,0,0
-448,169,0,0,0,0,0,0,0,0,0,-1,776,855,0,0
-441,169,0,0,0,0,0,0,0,0,0,-1,783,855,0,0
-434,169,0,0,0,0,0,0,0,0,0,-1,790,855,0,0
-427,169,0,0,0,0,0,0,0,0,0,-1,797,855,0,0
-420,169,0,0,0,0,0,0,0,0,0,-1,804,855,0,0
-413,169,0,0,0,0,0,0,0,0,0,-1,811,855,0,0
-406,169,0,0,0,0,0,0,0,0,0,-1,818,855,0,0
-399,169,0,0,0,0,0,0,0,0,0,-1,825,855,0,0
-392,169,0,0,0,0,0,0,0,0,0,-1,832,855,0,0
-385,169,0,0,0,0,0,0,0,0,0,-1,839,855,0,0
-378,169,0,0,0,0,0,0,0,0,0,-1,846,855,0,0
-371,169,0,0,0,0,0,0,0,0,0,-1,853,855,0,0
-364,169,0,0,0,0,0,0,0,0,0,-1,860,855,0,0
-357,169,0,0,0,0,0,0,0,0,0,-1,867,855,0,0
-350,169,0,0,0,0,0,0,0,0,0,-1,874,855,0,0
-343,169,0,0,0,0,0,0,0,0,0,-1,881,855,0,0
-336,169,0,0,0,0,0,0,0,0,0,-1,888,855,0,0
-329,169,0,0,0,0,0,0,0,0,0,-1,895,855,0,0
-322,169,0,0,0,0,0,0,0,0,0,-1,902,855,0,0
-315,169,0,0,0,0,0,0,0,0,0,-1,909,855,0,0
-308,169,0,0,0,0,0,0,0,0,0,-1,916,855,0,0
-301,169,0,0,0,0,0,0,0,0,0,-1,923,855,0,0
-294,169,0,0,0,0,0,0,0,0,0,-1,930,855,0,0
-287,169,0,0,0,0,0,0,0,0,0,-1,937,855,0,0
-280,169,0,0,0,0,0,0,0,0,0,-1,944,855,0,0
-273,169,0,0,0,0,0,0,0,0,0,-1,951,855,0,0
-266,169,0,0,0,0,0,0,0,0,0,-1,958,855,0,0
-259,169,0,0,0,0,0,0,0,0,0,-1,965,855,0,0
-252,169,0,0,0,0,0,0,0,0,0,-1,972,855,0,0
-245,169,0,0,0,0,0,0,0,0,0,-1,979,855,0,0
-238,169,0,0,0,0,0,0,0,0,0,-1,986,855,0,0
-231,169,0,0,0,0,0,0,0,0,0,-1,993,855,0,0
-224,169,0,0,0,0,0,0,0,0,0,-1,1000,855,0,0
-217,169,0,0,0,0,0,0,0,0,0,-1,1007,855,0,0
-210,169,0,0,0,0,0,0,0,0,0,-1,1014,855,0,0
-203,169,0,0,0,0,0,0,0,0,0,-1,1021,855,0,0
-196,169,0,0,0,0,0,0,0,0,0,-1,1028,855,0,0
-189,169,0,0,0,0,0,0,0,0,0,-1,1035,855,0,0
-182,169,0,0,0,0,0,0,0,0,0,-1,1042,855,0,0
-175,169,0,0,0,0,0,0,0,0,0,-1,1049,855,0,0
-168,169,0,0,0,0,0,0,0,0,0,-1,1056,855,0,0
-161,169,0,0,0,0,0,0,0,0,0,-1,1063,855,0,0
-154,169,0,0,0,0,0,0,0,0,0,-1,1070,855,0,0
-147,169,0,0,0,0,0,0,0,0,0,-1,1077,855,0,0
-140,169,0,0,0,0,0,0,0,0,0,-1,1084,855,0,0
-133,169,0,0,0,0,0,0,0,0,0,-1,1091,855,0,0
-126,169,0,0,0,0,0,0,0,0,0,-1,1098,855,0,0
-119,169,0,0,0,0,0,0,0,0,0,-1,1105,855,0,0
-112,169,0,0,0,0,0,0,0,0,0,-1,1112,855,0,0
-105,169,0,0,0,0,0,0,0,0,0,-1,1119,855,0,0
-98,169,0,0,0,0,0,0,0,0,0,-1,1126,855,0,0
-91,169,0,0,0,0,0,0,0,0,0,-1,1133,855,0,0
-84,169,0,0,0,0,0,0,0,0,0,-1,1140,855,0,0
-77,169,0,0,0,0,0,0,0,0,0,-1,1147,855,0,0
-70,169,0,0,0,0,0,0,0,0,0,-1,1154,855,0,0
-63,169,0,0,0,0,0,0,0,0,0,-1,1161,855,0,0
-56,169,0,0,0,0,0,0,0,0,0,-1,1168,855,0,0
-49,169,0,0,0,0,0,0,0,0,0,-1,1175,855,0,0
-42,169,0,0,0,0,0,0,0,0,0,-1,1182,855,0,0
-35,169,0,0,0,0,0,0,0,0,0,-1,1189,855,0,0
-28,169,0,0,0,0,0,0,0,0,0,-1,1196,855,0,0
-21,169,0,0,0,0,0,0,0,0,0,-1,1203,855,0,0
-14,169,0,0,0,0,0,0,0,0,0,-1,1210,855,0,0
-7,169,0,0,0,0,0,0,0,0,0,-1,1217,855,0,0
0,169,0,0,0,0,0,0,0,0,0,-1,1224,855,0,0
7,169,0,0,0,0,0,0,0,0,0,-1,1231,855,0,0
14,169,0,0,0,0,0,0,0,0,0,-1,1238,855,0,0
21,169,0,0,0,0,0,0,0,0,0,-1,1245,855,0,0
28,169,0,0,0,0,0,0,0,0,0,-1,1252,855,0,0
35,169,0,0,0,0,0,0,0,0,0,-1,1259,855,0,0
42,169,0,0,0,0,0,0,0,0,0,-1,1266,855,0,0
49,169,0,0,0,0,0,0,0,0,0,-1,1273,855,0,0
56,169,0,0,0,0,0,0,0,0,0,-1,1280,855,0,0
63,169,0,0,0,0,0,0,0,0,0,-1,1287,855,0,0
70,169,0,0,0,0,0,0,0,0,0,-1,1294,855,0,0
77,169,0,0,0,0,0,0,0,0,0,-1,1301,855,0,0
84,169,0,0,0,0,0,0,0,0,0,-1,1308,855,0,0
91,169,0,0,0,0,0,0,0,0,0,-1,1315,855,0,0
98,169,0,0,0,0,0,0,0,0,0,-1,1322,855,0,0
105,169,0,0,0,0,0,0,0,0,0,-1,1329,855,0,0
112,169,0,0,0,0,0,0,0,0,0,-1,1336,855,0,0
119,169,0,0,0,0,0,0,0,0,0,-1,1343,855,0,0
126,169,0,0,0,0,0,0,0,0,0,-1,1350,855,0,0
133,169,0,0,0,0,0,0,0,0,0,-1,1357,855,0,0
140,169,0,0,0,0,0,0,0,0,0,-1,1364,855,0,0
147,169,0,0,0,0,0,0,0,0,0,-1,1371,855,0,0
154,169,0,0,0,0,0,0,0,0,0,-1,1378,855,0,0
161,169,0,0,0,0,0,0,0,0,0,-1,1385,855,0,0
168,169,0,0,0,0,0,0,0,0,0,-1,1392,855,0,0
175,169,0,0,0,0,0,0,0,0,0,-1,1399,855,0,0
182,169,0,0,0,0,0,0,0,0,0,-1,1406,855,0,0
189,169,0,0,0,0,0,0,0,0,0,-1,1413,855,0,0
196,169,0,0,0,0,0,0,0,0,0,-1,1420,855,0,0
203,169,0,0,0,0,0,0,0,0,0,-1,1427,855,0,0
210,169,0,0,0,0,0,0,0,0,0,-1,1434,855,0,0
217,169,0,0,0,0,0,0,0,0,0,-1,1441,855,0,0
224,169,0,0,0,0,0,0,0,0,0,-1,1448,855,0,0
231,169,0,0,0,0,0,0,0,0,0,-1,1455,855,0,0
238,169,0,0,0,0,0,0,0,0,0,-1,1462,855,0,0
245,169,0,0,0,0,0,0,0,0,0,-1,1469,855,0,0
252,169,0,0,0,0,0,0,0,0,0,-1,1476,855,0,0
259,169,0,0,0,0,0,0,0,0,0,-1,1483,855,0,0
266,169,0,0,0,0,0,0,0,0,0,-1,1490,855,0,0
273,169,0,0,0,0,0,0,0,0,0,-1,1497,855,0,0
280,169,0,0,0,0,0,0,0,0,0,-1,1504,855,0,0
287,169,0,0,0,0,0,0,0,0,0,-1,1511,855,0,0
294,169,0,0,0,0,0,0,0,0,0,-1,1518,855,0,0
301,169,0,0,0,0,0,0,0,0,0,-1,1525,855,0,0
308,169,0,0,0,0,0,0,0,0,0,-1,1532,855,0,0
315,169,0,0,0,0,0,0,0,0,0,-1,1539,855,0,0
322,169,0,0,0,0,0,0,0,0,0,-1,1546,855,0,0
329,169,0,0,0,0,0,0,0,0,0,-1,1553,855,0,0
336,169,0,0,0,0,0,0,0,0,0,-1,1560,855,0,0
343,169,0,0,0,0,0,0,0,0,0,-1,1567,855,0,0
350,169,0,0,0,0,0,0,0,0,0,-1,1574,855,0,0
357,169,0,0,0,0,0,0,0,0,0,-1,1581,855,0,0
364,169,0,0,0,0,0,0,0,0,0,-1,1588,855,0,0
371,169,0,0,0,0,0,0,0,0,0,-1,1595,855,0,0
378,169,0,0,0,0,0,0,0,0,0,-1,1602,855,0,0
385,169,0,0,0,0,0,0,0,0,0,-1,1609,855,0,0
392,169,0,0,0,0,0,0,0,0,0,-1,1616,855,0,0
399,169,0,0,0,0,0,0,0,0,0,-1,1623,855,0,0
406,169,0,0,0,0,0,0,0,0,0,-1,1630,855,0,0
413,169,0,0,0,0,0,0,0,0,0,-1,1637,855,0,0
420,169,0,0,0,0,0,0,0,0,0,-1,1644,855,0,0
427,169,0,0,0,0,0,0,0,0,0,-1,1651,855,0,0
434,169,0,0,0,0,0,0,0,0,0,-1,1658,855,0,0
441,169,0,0,0,0,0,0,0,0,0,-1,1665,855,0,0
448,169,0,0,0,0,0,0,0,0,0,-1,1672,855,0,0
455,169,0,0,0,0,0,0,0,0,0,-1,1679,855,0,0
462,169,0,0,0,0,0,0,0,0,0,-1,1686,855,0,0
469,169,0,0,0,0,0,0,0,0,0,-1,1693,855,0,0
476,169,0,0,0,0,0,0,0,0,0,-1,1700,855,0,0
483,169,0,0,0,0,0,0,0,0,0,-1,1707,855,0,0
490,169,0,0,0,0,0,0,0,0,0,-1,1714,855,0,0
497,169,0,0,0,0,0,0,0,0,0,-1,1721,855,0,0
504,169,0,0,0,0,0,0,0,0,0,-1,1728,855,0,0
511,169,0,0,0,0,0,0,0,0,0,-1,1735,855,0,0
518,169,0,0,0,0,0,0,0,0,0,-1,1742,855,0,0
525,169,0,0,0,0,0,0,0,0,0,-1,1749,855,0,0
532,169,0,0,0,0,0,0,0,0,0,-1,1756,855,0,0
539,169,0,0,0,0,0,0,0,0,0,-1,1763,855,0,0
546,169,0,0,0,0,0,0,0,0,0,-1,1770,855,0,0
553,169,0,0,0,0,0,0,0,0,0,-1,1777,855,0,0
560,169,0,0,0,0,0,0,0,0,0,-1,1784,855,0,0
567,169,0,0,0,0,0,0,0,0,0,-1,1791,855,0,0
574,169,0,0,0,0,0,0,0,0,0,-1,1798,855,0,0
581,169,0,0,0,0,0,0,0,0,0,-1,1805,855,0,0
588,169,0,0,0,0,0,0,0,0,0,-1,1812,855,0,0
595,169,0,0,0,0,0,0,0,0,0,-1,1819,855,0,0
602,169,0,0,0,0,0,0,0,0,0,-1,1826,855,0,0
609,169,0,0,0,0,0,0,0,0,0,-1,1833,855,0,0
616,169,79.038,2.052,0,0,0,0,0,0,0,-1,1840,855,79.0379,-2.05203
623,169,79.2278,2.23468,0.00110698,-0.00255173,-0.00135468,0.00155396,-0.00299871,-0.318705,0.00267224,0.0457886,1847,855,79.2277,-2.23471
630,169,79.1697,2.42755,-8.97343e-05,-0.00169431,-0.000798156,0.000239667,-0.00202371,-0.391409,0.00143571,0.0411319,1854,855,79.1697,-2.42755
637,169,79.002,2.4942,-0.00094587,-0.00104617,-0.000469716,-0.000523634,-0.0014684,-0.732217,0.000859327,0.0363999,1861,855,79.002,-2.49422
644,169,78.9786,2.54553,-0.00152508,-0.000937971,-0.000468005,-0.000679074,-0.00178398,-1.0655,0.00103971,0.0351487,1868,855,78.9786,-2.54553
651,169,78.9613,2.57184,-0.00180601,-0.0011053,-0.000748661,-0.000629068,-0.00228224,-1.00425,0.00136115,0.0358028,1875,855,78.9613,-2.57186
658,169,78.958,2.51141,0,0,0,0,0,0,0,-1,1882,855,78.958,-2.51141
665,169,74.1068,1.9809,0,0,0,0,0,0,0,-1,1889,855,74.1069,-1.98093
672,169,31.2465,2.96387,0,0,0,0,0,0,0,-1,1896,855,31.2464,-2.9639
679,169,38.4297,1.08197,0,0,0,0,0,0,0,-1,1903,855,38.4296,-1.08194
686,169,65.0216,0.00183105,0,0,0,0,0,0,0,-1,1910,855,65.0216,-0.0018126
693,169,65.1973,0.9823,-0.00256096,-0.000733614,-0.00209793,0.00064097,-0.00393554,-0.990768,0.00286138,0.0424959,1917,855,65.1972,-0.982284
700,169,65.2117,1.98602,-0.00251361,-0.000517532,-0.00243629,0.00111722,-0.00414836,-0.979799,0.00320359,0.0359224,1924,855,65.2117,-1.98603
707,169,65.0936,2.84613,-0.00245307,-0.000225093,-0.00269532,0.00157737,-0.00425553,-0.98136,0.00348395,0.0414632,1931,855,65.0936,-2.8461
714,169,64.7169,3.49585,-0.00196548,0.000403645,-0.00261595,0.00209074,-0.00365257,-0.997997,0.00335652,0.0233803,1938,855,64.7169,-3.49587
721,169,64.7389,4.39838,-0.0013085,0.00118529,-0.00232933,0.00258047,-0.00270367,-1.03114,0.00305107,0.0204795,1945,855,64.7389,-4.39837
728,169,64.6603,5.33063,-0.000329485,0.00205718,-0.00168755,0.00293069,-0.001203,-1.09315,0.00245509,0.0170451,1952,855,64.6603,-5.3306
735,169,64.5883,6.23425,0.00103305,0.00319073,-0.000951178,0.00355016,0.000673617,-1.2095,0.00217725,0.021844,1959,855,64.5883,-6.23423
742,169,64.5751,7.13428,0.00258741,0.00453929,-0.000167504,0.00455356,0.00257314,-1.48581,0.00263641,0.0198653,1966,855,64.5751,-7.13429
749,169,64.5396,7.88495,0.00428272,0.00600781,0.00058215,0.00618588,0.00410465,1.27395,0.00363455,0.030475,1973,855,64.5396,-7.88496
756,169,64.2006,8.43512,0,0,0,0,0,0,0,-1,1980,855,64.2005,-8.43512
763,169,61.2976,7.40009,0,0,0,0,0,0,0,-1,1987,855,61.2975,-7.40007
770,169,37.2059,3.97021,0,0,0,0,0,0,0,-1,1994,855,37.2059,-3.97022
777,169,41.7505,8.7085,0,0,0,0,0,0,0,-1,2001,855,41.7505,-8.70852
784,169,40.7385,9.24359,0,0,0,0,0,0,0,-1,2008,855,40.7384,-9.24361
791,169,0,0,0,0,0,0,0,0,0,-1,2015,855,0,0
798,169,0,0,0,0,0,0,0,0,0,-1,2022,855,0,0
805,169,0,0,0,0,0,0,0,0,0,-1,2029,855,0,0
812,169,0,0,0,0,0,0,0,0,0,-1,2036,855,0,0
-700,162,0,0,0,0,0,0,0,0,0,-1,524,862,0,0
-693,162,0,0,0,0,0,0,0,0,0,-1,531,862,0,0
-686,162,0,0,0,0,0,0,0,0,0,-1,538,862,0,0
-679,162,0,0,0,0,0,0,0,0,0,-1,545,862,0,0
-672,162,0,0,0,0,0,0,0,0,0,-1,552,862,0,0
-665,162,-50.6751,7.18884,0,0,0,0,0,0,0,-1,559,862,-50.6751,-7.18885
-658,162,-50.7888,6.02673,0,0,0,0,0,0,0,-1,566,862,-50.7888,-6.02673
-651,162,-49.8585,10.1666,0,0,0,0,0,0,0,-1,573,862,-49.8584,-10.1666
-644,162,-49.6448,9.85602,0.0120566,0.0466358,0.0350538,0.068432,-0.00973959,1.01451,0.0491903,0.0484775,580,862,-49.6448,-9.856
-637,162,-49.5371,9.62573,0.00779533,0.0325987,0.0247566,0.0478862,-0.00749218,1.0176,0.0346922,0.04895,587,862,-49.5371,-9.62575
-630,162,-49.5708,9.03717,0,0,0,0,0,0,0,-1,594,862,-49.5708,-9.0372
-623,162,-49.5437,8.09839,0.00213158,0.0156907,0.0122389,0.0229024,-0.00508005,1.03833,0.0172133,0.0355242,601,862,-49.5437,-8.09841
-616,162,-49.6317,7.17017,0.000214482,0.0103785,0.00852139,0.0152182,-0.00462525,1.05428,0.0119884,0.0216523,608,862,-49.6317,-7.17018
-609,162,-49.7612,6.27661,-0.000909289,0.006593,0.00584268,0.00978506,-0.00410134,1.07077,0.00823813,0.0139852,615,862,-49.7611,-6.2766
-602,162,-49.8473,5.3844,-0.00144944,0.00392549,0.00404259,0.0060924,-0.00361636,1.07875,0.00566579,0.0118965,622,862,-49.8473,-5.38441
-595,162,-49.881,4.47571,-0.00139429,0.00231696,0.00307121,0.00404961,-0.00312694,1.05715,0.00415478,0.0118099,629,862,-49.881,-4.47572
-588,162,-49.8577,3.5874,-0.000950065,0.00155885,0.00275139,0.00332827,-0.00271948,0.999288,0.00349756,0.0193912,636,862,-49.8577,-3.58742
-581,162,-50.1705,2.68402,-0.000541407,0.00117976,0.00272929,0.00318093,-0.00254258,0.938121,0.00331131,0.0499726,643,862,-50.1705,-2.68401
-574,162,-50.3497,1.78809,0,0,0,0,0,0,0,-1,650,862,-50.3497,-1.78808
-567,162,-50.2118,0.366821,0,0,0,0,0,0,0,-1,657,862,-50.2118,-0.366815
-560,162,-36.5075,-0.831665,0,0,0,0,0,0,0,-1,664,862,-36.5075,0.831657
-553,162,-35.9823,-1.60956,0,0,0,0,0,0,0,-1,671,862,-35.9823,1.60954
-546,162,-22.8181,-1.51154,0,0,0,0,0,0,0,-1,678,862,-22.8181,1.51155
-539,162,-53.0229,0.9328,0,0,0,0,0,0,0,-1,685,862,-53.0229,-0.932798
-532,162,-62.9767,0.418945,0,0,0,0,0,0,0,-1,692,862,-62.9767,-0.418945
-525,162,-63.0085,0.54541,0.00098458,-0.00361061,0.00195063,0.00170093,-0.00432696,0.351953,0.0035886,0.0394686,699,862,-63.0085,-0.545433
-518,162,-62.9762,0.64386,0.000865032,-0.00362518,0.00171795,0.00144691,-0.00420706,0.326578,0.0033915,0.0409933,706,862,-62.9762,-0.643883
-511,162,-62.9072,0.754578,0.00188309,-0.00273646,0.00140577,0.00227725,-0.00313061,0.273366,0.00313516,0.0452477,713,862,-62.9071,-0.754598
-504,162,-62.8748,0.424866,0.00520857,-0.000556074,0.000295439,0.00522367,-0.000571175,0.0510718,0.00368761,0.0460488,720,862,-62.8748,-0.424879
-497,162,-62.8552,0.374207,0.00971938,0.0018551,-0.00105921,0.00985955,0.00171494,-0.131563,0.00608251,0.0447228,727,862,-62.8552,-0.374224
-490,162,0,0,0,0,0,0,0,0,0,-1,734,862,0,0
-483,162,0,0,0,0,0,0,0,0,0,-1,741,862,0,0
-476,162,0,0,0,0,0,0,0,0,0,-1,748,862,0,0
-469,162,0,0,0,0,0,0,0,0,0,-1,755,862,0,0
-462,162,0,0,0,0,0,0,0,0,0,-1,762,862,0,0
-455,162,0,0,0,0,0,0,0,0,0,-1,769,862,0,0
-448,162,0,0,0,0,0,0,0,0,0,-1,776,862,0,0
-441,162,0,0,0,0,0,0,0,0,0,-1,783,862,0,0
-434,162,0,0,0,0,0,0,0,0,0,-1,790,862,0,0
-427,162,0,0,0,0,0,0,0,0,0,-1,797,862,0,0
-420,162,0,0,0,0,0,0,0,0,0,-1,804,862,0,0
-413,162,0,0,0,0,0,0,0,0,0,-1,811,862,0,0
-406,162,0,0,0,0,0,0,0,0,0,-1,818,862,0,0
-399,162,0,0,0,0,0,0,0,0,0,-1,825,862,0,0
-392,162,0,0,0,0,0,0,0,0,0,-1,832,862,0,0
-385,162,0,0,0,0,0,0,0,0,0,-1,839,862,0,0
-378,162,0,0,0,0,0,0,0,0,0,-1,846,862,0,0
-371,162,0,0,0,0,0,0,0,0,0,-1,853,862,0,0
-364,162,0,0,0,0,0,0,0,0,0,-1,860,862,0,0
-357,162,0,0,0,0,0,0,0,0,0,-1,867,862,0,0
-350,162,0,0,0,0,0,0,0,0,0,-1,874,862,0,0
-343,162,0,0,0,0,0,0,0,0,0,-1,881,862,0,0
-336,162,0,0,0,0,0,0,0,0,0,-1,888,862,0,0
-329,162,0,0,0,0,0,0,0,0,0,-1,895,862,0,0
-322,162,0,0,0,0,0,0,0,0,0,-1,902,862,0,0
-315,162,0,0,0,0,0,0,0,0,0,-1,909,862,0,0
-308,162,0,0,0,0,0,0,0,0,0,-1,916,862,0,0
-301,162,0,0,0,0,0,0,0,0,0,-1,923,862,0,0
-294,162,0,0,0,0,0,0,0,0,0,-1,930,862,0,0
-287,162,0,0,0,0,0,0,0,0,0,-1,937,862,0,0
-280,162,0,0,0,0,0,0,0,0,0,-1,944,862,0,0
-273,162,0,0,0,0,0,0,0,0,0,-1,951,862,0,0
-266,162,0,0,0,0,0,0,0,0,0,-1,958,862,0,0
-259,162,0,0,0,0,0,0,0,0,0,-1,965,862,0,0
-252,162,0,0,0,0,0,0,0,0,0,-1,972,862,0,0
-245,162,0,0,0,0,0,0,0,0,0,-1,979,862,0,0
-238,162,0,0,0,0,0,0,0,0,0,-1,986,862,0,0
-231,162,0,0,0,0,0,0,0,0,0,-1,993,862,0,0
-224,162,0,0,0,0,0,0,0,0,0,-1,1000,862,0,0
-217,162,0,0,0,0,0,0,0,0,0,-1,1007,862,0,0
-210,162,0,0,0,0,0,0,0,0,0,-1,1014,862,0,0
-203,162,0,0,0,0,0,0,0,0,0,-1,1021,862,0,0
-196,162,0,0,0,0,0,0,0,0,0,-1,1028,862,0,0
-189,162,0,0,0,0,0,0,0,0,0,-1,1035,862,0,0
-182,162,0,0,0,0,0,0,0,0,0,-1,1042,862,0,0
-175,162,0,0,0,0,0,0,0,0,0,-1,1049,862,0,0
-168,162,0,0,0,0,0,0,0,0,0,-1,1056,862,0,0
-161,162,0,0,0,0,0,0,0,0,0,-1,1063,862,0,0
-154,162,0,0,0,0,0,0,0,0,0,-1,1070,862,0,0
-147,162,0,0,0,0,0,0,0,0,0,-1,1077,862,0,0
-140,162,0,0,0,0,0,0,0,0,0,-1,1084,862,0,0
-133,162,0,0,0,0,0,0,0,0,0,-1,1091,862,0,0
-126,162,0,0,0,0,0,0,0,0,0,-1,1098,862,0,0
-119,162,0,0,0,0,0,0,0,0,0,-1,1105,862,0,0
-112,162,0,0,0,0,0,0,0,0,0,-1,1112,862,0,0
-105,162,0,0,0,0,0,0,0,0,0,-1,1119,862,0,0
-98,162,0,0,0,0,0,0,0,0,0,-1,1126,862,0,0
-91,162,0,0,0,0,0,0,0,0,0,-1,1133,862,0,0
-84,162,0,0,0,0,0,0,0,0,0,-1,1140,862,0,0
-77,162,0,0,0,0,0,0,0,0,0,-1,1147,862,0,0
-70,162,0,0,0,0,0,0,0,0,0,-1,1154,862,0,0
-63,162,0,0,0,0,0,0,0,0,0,-1,1161,862,0,0
-56,162,0,0,0,0,0,0,0,0,0,-1,1168,862,0,0
-49,162,0,0,0,0,0,0,0,0,0,-1,1175,862,0,0
-42,162,0,0,0,0,0,0,0,0,0,-1,1182,862,0,0
-35,162,0,0,0,0,0,0,0,0,0,-1,1189,862,0,0
-28,162,0,0,0,0,0,0,0,0,0,-1,1196,862,0,0
-21,162,0,0,0,0,0,0,0,0,0,-1,1203,862,0,0
-14,162,0,0,0,0,0,0,0,0,0,-1,1210,862,0,0
-7,162,0,0,0,0,0,0,0,0,0,-1,1217,862,0,0
0,162,0,0,0,0,0,0,0,0,0,-1,1224,862,0,0
7,162,0,0,0,0,0,0,0,0,0,-1,1231,862,0,0
14,162,0,0,0,0,0,0,0,0,0,-1,1238,862,0,0
21,162,0,0,0,0,0,0,0,0,0,-1,1245,862,0,0
28,162,0,0,0,0,0,0,0,0,0,-1,1252,862,0,0
35,162,0,0,0,0,0,0,0,0,0,-1,1259,862,0,0
42,162,0,0,0,0,0,0,0,0,0,-1,1266,862,0,0
49,162,0,0,0,0,0,0,0,0,0,-1,1273,862,0,0
56,162,0,0,0,0,0,0,0,0,0,-1,1280,862,0,0
63,162,0,0,0,0,0,0,0,0,0,-1,1287,862,0,0
70,162,0,0,0,0,0,0,0,0,0,-1,1294,862,0,0
77,162,0,0,0,0,0,0,0,0,0,-1,1301,862,0,0
84,162,0,0,0,0,0,0,0,0,0,-1,1308,862,0,0
91,162,0,0,0,0,0,0,0,0,0,-1,1315,862,0,0
98,162,0,0,0,0,0,0,0,0,0,-1,1322,862,0,0
105,162,0,0,0,0,0,0,0,0,0,-1,1329,862,0,0
112,162,0,0,0,0,0,0,0,0,0,-1,1336,862,0,0
119,162,0,0,0,0,0,0,0,0,0,-1,1343,862,0,0
126,162,0,0,0,0,0,0,0,0,0,-1,1350,862,0,0
133,162,0,0,0,0,0,0,0,0,0,-1,1357,862,0,0
140,162,0,0,0,0,0,0,0,0,0,-1,1364,862,0,0
147,162,0,0,0,0,0,0,0,0,0,-1,1371,862,0,0
154,162,0,0,0,0,0,0,0,0,0,-1,1378,862,0,0
161,162,0,0,0,0,0,0,0,0,0,-1,1385,862,0,0
168,162,0,0,0,0,0,0,0,0,0,-1,1392,862,0,0
175,162,0,0,0,0,0,0,0,0,0,-1,1399,862,0,0
182,162,0,0,0,0,0,0,0,0,0,-1,1406,862,0,0
189,162,0,0,0,0,0,0,0,0,0,-1,1413,862,0,0
196,162,0,0,0,0,0,0,0,0,0,-1,1420,862,0,0
203,162,0,0,0,0,0,0,0,0,0,-1,1427,862,0,0
210,162,0,0,0,0,0,0,0,0,0,-1,1434,862,0,0
217,162,0,0,0,0,0,0,0,0,0,-1,1441,862,0,0
224,162,0,0,0,0,0,0,0,0,0,-1,1448,862,0,0
231,162,0,0,0,0,0,0,0,0,0,-1,1455,862,0,0
238,162,0,0,0,0,0,0,0,0,0,-1,1462,862,0,0
245,162,0,0,0,0,0,0,0,0,0,-1,1469,862,0,0
252,162,0,0,0,0,0,0,0,0,0,-1,1476,862,0,0
259,162,0,0,0,0,0,0,0,0,0,-1,1483,862,0,0
266,162,0,0,0,0,0,0,0,0,0,-1,1490,862,0,0
273,162,0,0,0,0,0,0,0,0,0,-1,1497,862,0,0
280,162,0,0,0,0,0,0,0,0,0,-1,1504,862,0,0
287,162,0,0,0,0,0,0,0,0,0,-1,1511,862,0,0
294,162,0,0,0,0,0,0,0,0,0,-1,1518,862,0,0
301,162,0,0,0,0,0,0,0,0,0,-1,1525,862,0,0
308,162,0,0,0,0,0,0,0,0,0,-1,1532,862,0,0
315,162,0,0,0,0,0,0,0,0,0,-1,1539,862,0,0
322,162,0,0,0,0,0,0,0,0,0,-1,1546,862,0,0
329,162,0,0,0,0,0,0,0,0,0,-1,1553,862,0,0
336,162,0,0,0,0,0,0,0,0,0,-1,1560,862,0,0
343,162,0,0,0,0,0,0,0,0,0,-1,1567,862,0,0
350,162,0,0,0,0,0,0,0,0,0,-1,1574,862,0,0
357,162,0,0,0,0,0,0,0,0,0,-1,1581,862,0,0
364,162,0,0,0,0,0,0,0,0,0,-1,1588,862,0,0
371,162,0,0,0,0,0,0,0,0,0,-1,1595,862,0,0
378,162,0,0,0,0,0,0,0,0,0,-1,1602,862,0,0
385,162,0,0,0,0,0,0,0,0,0,-1,1609,862,0,0
392,162,0,0,0,0,0,0,0,0,0,-1,1616,862,0,0
399,162,0,0,0,0,0,0,0,0,0,-1,1623,862,0,0
406,162,0,0,0,0,0,0,0,0,0,-1,1630,862,0,0
413,162,0,0,0,0,0,0,0,0,0,-1,1637,862,0,0
420,162,0,0,0,0,0,0,0,0,0,-1,1644,862,0,0
427,162,0,0,0,0,0,0,0,0,0,-1,1651,862,0,0
434,162,0,0,0,0,0,0,0,0,0,-1,1658,862,0,0
441,162,0,0,0,0,0,0,0,0,0,-1,1665,862,0,0
448,162,0,0,0,0,0,0,0,0,0,-1,1672,862,0,0
455,162,0,0,0,0,0,0,0,0,0,-1,1679,862,0,0
462,162,0,0,0,0,0,0,0,0,0,-1,1686,862,0,0
469,162,0,0,0,0,0,0,0,0,0,-1,1693,862,0,0
476,162,0,0,0,0,0,0,0,0,0,-1,1700,862,0,0
483,162,0,0,0,0,0,0,0,0,0,-1,1707,862,0,0
490,162,0,0,0,0,0,0,0,0,0,-1,1714,862,0,0
497,162,0,0,0,0,0,0,0,0,0,-1,1721,862,0,0
504,162,0,0,0,0,0,0,0,0,0,-1,1728,862,0,0
511,162,0,0,0,0,0,0,0,0,0,-1,1735,862,0,0
518,162,0,0,0,0,0,0,0,0,0,-1,1742,862,0,0
525,162,0,0,0,0,0,0,0,0,0,-1,1749,862,0,0
532,162,0,0,0,0,0,0,0,0,0,-1,1756,862,0,0
539,162,0,0,0,0,0,0,0,0,0,-1,1763,862,0,0
546,162,0,0,0,0,0,0,0,0,0,-1,1770,862,0,0
553,162,0,0,0,0,0,0,0,0,0,-1,1777,862,0,0
560,162,0,0,0,0,0,0,0,0,0,-1,1784,862,0,0
567,162,0,0,0,0,0,0,0,0,0,-1,1791,862,0,0
574,162,0,0,0,0,0,0,0,0,0,-1,1798,862,0,0
581,162,0,0,0,0,0,0,0,0,0,-1,1805,862,0,0
588,162,0,0,0,0,0,0,0,0,0,-1,1812,862,0,0
595,162,0,0,0,0,0,0,0,0,0,-1,1819,862,0,0
602,162,0,0,0,0,0,0,0,0,0,-1,1826,862,0,0
609,162,0,0,0,0,0,0,0,0,0,-1,1833,862,0,0
616,162,78.9204,2.32977,0.00292151,-0.00415484,-0.00241206,0.00366547,-0.0048988,-0.299177,0.00496165,0.0466755,1840,862,78.9204,-2.32978
623,162,79.0334,2.35266,0.00127953,-0.00324759,-0.00176318,0.0018852,-0.00385326,-0.330884,0.00337742,0.0470979,1847,862,79.0335,-2.35264
630,162,78.981,2.40387,-3.20101e-05,-0.00233038,-0.00117102,0.000459511,-0.00282191,-0.397404,0.00205167,0.0418689,1854,862,78.981,-2.40389
637,162,78.9216,2.41095,-0.000958486,-0.00149079,-0.000779955,-0.000400523,-0.00204875,-0.620973,0.00125384,0.0392235,1861,862,78.9217,-2.41092
644,162,78.9976,2.42267,-0.001595,-0.00116316,-0.000673263,-0.000672038,-0.00208612,-0.940569,0.00122956,0.036644,1868,862,78.9976,-2.42268
651,162,79.0114,2.48901,-0.00192745,-0.00118363,-0.000896434,-0.000585023,-0.00252606,-0.982031,0.00152686,0.0355801,1875,862,79.0114,-2.48899
658,162,79.0304,2.38092,-0.00240683,-0.00134866,-0.00150319,-0.000284166,-0.00347132,-0.954614,0.00222555,0.0374828,1882,862,79.0303,-2.38094
665,162,79.0762,2.2915,0,0,0,0,0,0,0,-1,1889,862,79.0762,-2.29152
672,162,56.9712,3.04034,0,0,0,0,0,0,0,-1,1896,862,56.9711,-3.04034
679,162,26.5077,2.54785,0,0,0,0,0,0,0,-1,1903,862,26.5077,-2.54787
686,162,65.6438,-0.174011,0,0,0,0,0,0,0,-1,1910,862,65.6438,0.173988
693,162,66.1837,1.15118,0,0,0,0,0,0,0,-1,1917,862,66.1837,-1.15117
700,162,66.1984,2.03882,0,0,0,0,0,0,0,-1,1924,862,66.1984,-2.0388
707,162,65.9441,2.84131,-0.00253342,-6.94578e-06,-0.00284672,0.00184423,-0.00438459,-0.994221,0.00369456,0.0343428,1931,862,65.944,-2.8413
714,162,65.6747,3.47388,-0.00216481,0.000562713,-0.0028028,0.00231593,-0.00391802,-1.01182,0.00363858,0.0387596,1938,862,65.6747,-3.4739
721,162,65.5082,4.51147,-0.0017603,0.00129695,-0.00267906,0.00285281,-0.00331616,-1.04465,0.003565,0.036143,1945,862,65.5081,-4.51147
728,162,65.5076,5.41803,-0.00114498,0.00216471,-0.00221662,0.00327607,-0.00225635,-1.10605,0.00321218,0.0297748,1952,862,65.5075,-5.41803
735,162,65.4988,6.30731,-9.53263e-05,0.00337182,-0.00166162,0.00403955,-0.000763058,-1.18869,0.00298013,0.0126958,1959,862,65.4988,-6.30733
742,162,65.4635,7.14551,0.00121132,0.00492703,-0.00103516,0.00519595,0.000942399,-1.31663,0.00319648,0.0151412,1966,862,65.4635,-7.14551
749,162,65.3472,7.96722,0.00256956,0.00667212,-0.000463455,0.00672382,0.00251785,-1.45969,0.00392257,0.0214215,1973,862,65.3471,-7.9672
756,162,65.1331,8.60083,0,0,0,0,0,0,0,-1,1980,862,65.1331,-8.60084
763,162,64.9766,9.31091,0,0,0,0,0,0,0,-1,1987,862,64.9765,-9.31092
770,162,54.8257,9.36987,0,0,0,0,0,0,0,-1,1994,862,54.8256,-9.36988
777,162,66.324,10.5801,0,0,0,0,0,0,0,-1,2001,862,66.3239,-10.5802
784,162,55.6492,10.6049,0,0,0,0,0,0,0,-1,2008,862,55.6491,-10.6049
791,162,0,0,0,0,0,0,0,0,0,-1,2015,862,0,0
798,162,0,0,0,0,0,0,0,0,0,-1,2022,862,0,0
805,162,0,0,0,0,0,0,0,0,0,-1,2029,862,0,0
812,162,0,0,0,0,0,0,0,0,0,-1,2036,862,0,0
-700,155,0,0,0,0,0,0,0,0,0,-1,524,869,0,0
-693,155,0,0,0,0,0,0,0,0,0,-1,531,869,0,0
-686,155,0,0,0,0,0,0,0,0,0,-1,538,869,0,0
-679,155,0,0,0,0,0,0,0,0,0,-1,545,869,0,0
-672,155,0,0,0,0,0,0,0,0,0,-1,552,869,0,0
-665,155,-50.9639,6.01917,0,0,0,0,0,0,0,-1,559,869,-50.9639,-6.01917
-658,155,-51.2028,4.90723,0,0,0,0,0,0,0,-1,566,869,-51.2028,-4.90722
-651,155,-51.22,3.81226,0,0,0,0,0,0,0,-1,573,869,-51.2201,-3.81228
-644,155,-50.7668,9.11438,0,0,0,0,0,0,0,-1,580,869,-50.7669,-9.11438
-637,155,-50.5795,9.20978,0,0,0,0,0,0,0,-1,587,869,-50.5795,-9.20977
-630,155,-50.4245,9.1676,0,0,0,0,0,0,0,-1,594,869,-50.4245,-9.16761
-623,155,-50.4581,8.21613,-0.000759433,0.0155996,0.011233,0.0213156,-0.00647544,1.10009,0.0167904,0.0298826,601,869,-50.4581,-8.21612
-616,155,-50.5439,7.26282,-0.00177738,0.010403,0.00790817,0.0142943,-0.00566865,1.11352,0.0118788,0.0166754,608,869,-50.5439,-7.26284
-609,155,-50.6694,6.32465,-0.00226504,0.00656058,0.00557012,0.00925405,-0.00495851,1.12039,0.00832961,0.0145591,615,869,-50.6694,-6.32463
-602,155,-50.7615,5.42584,-0.00236524,0.00381085,0.00410555,0.00586008,-0.00441447,1.10784,0.00595155,0.0134041,622,869,-50.7615,-5.42583
-595,155,-50.8186,4.55359,-0.00200899,0.00234634,0.00332582,0.00414401,-0.00380666,1.07526,0.0045917,0.0134694,629,869,-50.8186,-4.55357
-588,155,-50.7676,3.7428,-0.00140185,0.00187068,0.00301514,0.00366493,-0.00319611,1.034,0.0039643,0.0275478,636,869,-50.7676,-3.74278
-581,155,-51.4114,2.82788,0,0,0,0,0,0,0,-1,643,869,-51.4114,-2.82789
-574,155,-50.6295,2.30585,0,0,0,0,0,0,0,-1,650,869,-50.6295,-2.30585
-567,155,-38.0134,0.582214,0,0,0,0,0,0,0,-1,657,869,-38.0134,-0.582192
-560,155,-37.1416,-0.708008,0,0,0,0,0,0,0,-1,664,869,-37.1416,0.70801
-553,155,-36.7729,-1.71521,0,0,0,0,0,0,0,-1,671,869,-36.7729,1.71523
-546,155,-22.7988,0.873657,0,0,0,0,0,0,0,-1,678,869,-22.7988,-0.873645
-539,155,-62.9681,0.341248,0,0,0,0,0,0,0,-1,685,869,-62.9681,-0.341252
-532,155,-62.908,0.5495,0,0,0,0,0,0,0,-1,692,869,-62.908,-0.549511
-525,155,-62.8961,0.628296,0.000371413,-0.0032279,0.00186127,0.00116079,-0.00401727,0.401113,0.00313752,0.036164,699,869,-62.8961,-0.628305
-518,155,-62.8675,0.796936,0.000422417,-0.00300928,0.00176521,0.0011683,-0.00375516,0.399789,0.00297047,0.0405514,706,869,-62.8675,-0.796951
-511,155,-62.8899,0.723022,0.00179401,-0.00153749,0.00164696,0.00247074,-0.00221421,0.389863,0.00270621,0.0435425,713,869,-62.8899,-0.723008
-504,155,-62.913,0.744507,0.00489666,0.00080663,0.000989819,0.00512361,0.000579679,0.225389,0.00323984,0.0449095,720,869,-62.913,-0.744528
-497,155,0,0,0,0,0,0,0,0,0,-1,727,869,0,0
-490,155,0,0,0,0,0,0,0,0,0,-1,734,869,0,0
-483,155,0,0,0,0,0,0,0,0,0,-1,741,869,0,0
-476,155,0,0,0,0,0,0,0,0,0,-1,748,869,0,0
-469,155,0,0,0,0,0,0,0,0,0,-1,755,869,0,0
-462,155,0,0,0,0,0,0,0,0,0,-1,762,869,0,0
-455,155,0,0,0,0,0,0,0,0,0,-1,769,869,0,0
-448,155,0,0,0,0,0,0,0,0,0,-1,776,869,0,0
-441,155,0,0,0,0,0,0,0,0,0,-1,783,869,0,0
-434,155,0,0,0,0,0,0,0,0,0,-1,790,869,0,0
-427,155,0,0,0,0,0,0,0,0,0,-1,797,869,0,0
-420,155,0,0,0,0,0,0,0,0,0,-1,804,869,0,0
-413,155,0,0,0,0,0,0,0,0,0,-1,811,869,0,0
-406,155,0,0,0,0,0,0,0,0,0,-1,818,869,0,0
-399,155,0,0,0,0,0,0,0,0,0,-1,825,869,0,0
-392,155,0,0,0,0,0,0,0,0,0,-1,832,869,0,0
-385,155,0,0,0,0,0,0,0,0,0,-1,839,869,0,0
-378,155,0,0,0,0,0,0,0,0,0,-1,846,869,0,0
-371,155,0,0,0,0,0,0,0,0,0,-1,853,869,0,0
-364,155,0,0,0,0,0,0,0,0,0,-1,860,869,0,0
-357,155,0,0,0,0,0,0,0,0,0,-1,867,869,0,0
-350,155,0,0,0,0,0,0,0,0,0,-1,874,869,0,0
-343,155,0,0,0,0,0,0,0,0,0,-1,881,869,0,0
-336,155,0,0,0,0,0,0,0,0,0,-1,888,869,0,0
-329,155,0,0,0,0,0,0,0,0,0,-1,895,869,0,0
-322,155,0,0,0,0,0,0,0,0,0,-1,902,869,0,0
-315,155,0,0,0,0,0,0,0,0,0,-1,909,869,0,0
-308,155,0,0,0,0,0,0,0,0,0,-1,916,869,0,0
-301,155,0,0,0,0,0,0,0,0,0,-1,923,869,0,0
-294,155,0,0,0,0,0,0,0,0,0,-1,930,869,0,0
-287,155,0,0,0,0,0,0,0,0,0,-1,937,869,0,0
-280,155,0,0,0,0,0,0,0,0,0,-1,944,869,0,0
-273,155,0,0,0,0,0,0,0,0,0,-1,951,869,0,0
-266,155,0,0,0,0,0,0,0,0,0,-1,958,869,0,0
-259,155,0,0,0,0,0,0,0,0,0,-1,965,869,0,0
-252,155,0,0,0,0,0,0,0,0,0,-1,972,869,0,0
-245,155,0,0,0,0,0,0,0,0,0,-1,979,869,0,0
-238,155,0,0,0,0,0,0,0,0,0,-1,986,869,0,0
-231,155,0,0,0,0,0,0,0,0,0,-1,993,869,0,0
-224,155,0,0,0,0,0,0,0,0,0,-1,1000,869,0,0
-217,155,0,0,0,0,0,0,0,0,0,-1,1007,869,0,0
-210,155,0,0,0,0,0,0,0,0,0,-1,1014,869,0,0
-203,155,0,0,0,0,0,0,0,0,0,-1,1021,869,0,0
-196,155,0,0,0,0,0,0,0,0,0,-1,1028,869,0,0
-189,155,0,0,0,0,0,0,0,0,0,-1,1035,869,0,0
-182,155,0,0,0,0,0,0,0,0,0,-1,1042,869,0,0
-175,155,0,0,0,0,0,0,0,0,0,-1,1049,869,0,0
-168,155,0,0,0,0,0,0,0,0,0,-1,1056,869,0,0
-161,155,0,0,0,0,0,0,0,0,0,-1,1063,869,0,0
-154,155,0,0,0,0,0,0,0,0,0,-1,1070,869,0,0
-147,155,0,0,0,0,0,0,0,0,0,-1,1077,869,0,0
-140,155,0,0,0,0,0,0,0,0,0,-1,1084,869,0,0
-133,155,0,0,0,0,0,0,0,0,0,-1,1091,869,0,0
-126,155,0,0,0,0,0,0,0,0,0,-1,1098,869,0,0
-119,155,0,0,0,0,0,0,0,0,0,-1,1105,869,0,0
-112,155,0,0,0,0,0,0,0,0,0,-1,1112,869,0,0
-105,155,0,0,0,0,0,0,0,0,0,-1,1119,869,0,0
-98,155,0,0,0,0,0,0,0,0,0,-1,1126,869,0,0
-91,155,0,0,0,0,0,0,0,0,0,-1,1133,869,0,0
-84,155,0,0,0,0,0,0,0,0,0,-1,1140,869,0,0
-77,155,0,0,0,0,0,0,0,0,0,-1,1147,869,0,0
-70,155,0,0,0,0,0,0,0,0,0,-1,1154,869,0,0
-63,155,0,0,0,0,0,0,0,0,0,-1,1161,869,0,0
-56,155,0,0,0,0,0,0,0,0,0,-1,1168,869,0,0
-49,155,0,0,0,0,0,0,0,0,0,-1,1175,869,0,0
-42,155,0,0,0,0,0,0,0,0,0,-1,1182,869,0,0
-35,155,0,0,0,0,0,0,0,0,0,-1,1189,869,0,0
-28,155,0,0,0,0,0,0,0,0,0,-1,1196,869,0,0
-21,155,0,0,0,0,0,0,0,0,0,-1,1203,869,0,0
-14,155,0,0,0,0,0,0,0,0,0,-1,1210,869,0,0
-7,155,0,0,0,0,0,0,0,0,0,-1,1217,869,0,0
0,155,0,0,0,0,0,0,0,0,0,-1,1224,869,0,0
7,155,0,0,0,0,0,0,0,0,0,-1,1231,869,0,0
14,155,0,0,0,0,0,0,0,0,0,-1,1238,869,0,0
21,155,0,0,0,0,0,0,0,0,0,-1,1245,869,0,0
28,155,0,0,0,0,0,0,0,0,0,-1,1252,869,0,0
35,155,0,0,0,0,0,0,0,0,0,-1,1259,869,0,0
42,155,0,0,0,0,0,0,0,0,0,-1,1266,869,0,0
49,155,0,0,0,0,0,0,0,0,0,-1,1273,869,0,0
56,155,0,0,0,0,0,0,0,0,0,-1,1280,869,0,0
63,155,0,0,0,0,0,0,0,0,0,-1,1287,869,0,0
70,155,0,0,0,0,0,0,0,0,0,-1,1294,869,0,0
77,155,0,0,0,0,0,0,0,0,0,-1,1301,869,0,0
84,155,0,0,0,0,0,0,0,0,0,-1,1308,869,0,0
91,155,0,0,0,0,0,0,0,0,0,-1,1315,869,0,0
98,155,0,0,0,0,0,0,0,0,0,-1,1322,869,0,0
105,155,0,0,0,0,0,0,0,0,0,-1,1329,869,0,0
112,155,0,0,0,0,0,0,0,0,0,-1,1336,869,0,0
119,155,0,0,0,0,0,0,0,0,0,-1,1343,869,0,0
126,155,0,0,0,0,0,0,0,0,0,-1,1350,869,0,0
133,155,0,0,0,0,0,0,0,0,0,-1,1357,869,0,0
140,155,0,0,0,0,0,0,0,0,0,-1,1364,869,0,0
147,155,0,0,0,0,0,0,0,0,0,-1,1371,869,0,0
154,155,0,0,0,0,0,0,0,0,0,-1,1378,869,0,0
161,155,0,0,0,0,0,0,0,0,0,-1,1385,869,0,0
168,155,0,0,0,0,0,0,0,0,0,-1,1392,869,0,0
175,155,0,0,0,0,0,0,0,0,0,-1,1399,869,0,0
182,155,0,0,0,0,0,0,0,0,0,-1,1406,869,0,0
189,155,0,0,0,0,0,0,0,0,0,-1,1413,869,0,0
196,155,0,0,0,0,0,0,0,0,0,-1,1420,869,0,0
203,155,0,0,0,0,0,0,0,0,0,-1,1427,869,0,0
210,155,0,0,0,0,0,0,0,0,0,-1,1434,869,0,0
217,155,0,0,0,0,0,0,0,0,0,-1,1441,869,0,0
224,155,0,0,0,0,0,0,0,0,0,-1,1448,869,0,0
231,155,0,0,0,0,0,0,0,0,0,-1,1455,869,0,0
238,155,0,0,0,0,0,0,0,0,0,-1,1462,869,0,0
245,155,0,0,0,0,0,0,0,0,0,-1,1469,869,0,0
252,155,0,0,0,0,0,0,0,0,0,-1,1476,869,0,0
259,155,0,0,0,0,0,0,0,0,0,-1,1483,869,0,0
266,155,0,0,0,0,0,0,0,0,0,-1,1490,869,0,0
273,155,0,0,0,0,0,0,0,0,0,-1,1497,869,0,0
280,155,0,0,0,0,0,0,0,0,0,-1,1504,869,0,0
287,155,0,0,0,0,0,0,0,0,0,-1,1511,869,0,0
294,155,0,0,0,0,0,0,0,0,0,-1,1518,869,0,0
301,155,0,0,0,0,0,0,0,0,0,-1,1525,869,0,0
308,155,0,0,0,0,0,0,0,0,0,-1,1532,869,0,0
315,155,0,0,0,0,0,0,0,0,0,-1,1539,869,0,0
322,155,0,0,0,0,0,0,0,0,0,-1,1546,869,0,0
329,155,0,0,0,0,0,0,0,0,0,-1,1553,869,0,0
336,155,0,0,0,0,0,0,0,0,0,-1,1560,869,0,0
343,155,0,0,0,0,0,0,0,0,0,-1,1567,869,0,0
350,155,0,0,0,0,0,0,0,0,0,-1,1574,869,0,0
357,155,0,0,0,0,0,0,0,0,0,-1,1581,869,0,0
364,155,0,0,0,0,0,0,0,0,0,-1,1588,869,0,0
371,155,0,0,0,0,0,0,0,0,0,-1,1595,869,0,0
378,155,0,0,0,0,0,0,0,0,0,-1,1602,869,0,0
385,155,0,0,0,0,0,0,0,0,0,-1,1609,869,0,0
392,155,0,0,0,0,0,0,0,0,0,-1,1616,869,0,0
399,155,0,0,0,0,0,0,0,0,0,-1,1623,869,0,0
406,155,0,0,0,0,0,0,0,0,0,-1,1630,869,0,0
413,155,0,0,0,0,0,0,0,0,0,-1,1637,869,0,0
420,155,0,0,0,0,0,0,0,0,0,-1,1644,869,0,0
427,155,0,0,0,0,0,0,0,0,0,-1,1651,869,0,0
434,155,0,0,0,0,0,0,0,0,0,-1,1658,869,0,0
441,155,0,0,0,0,0,0,0,0,0,-1,1665,869,0,0
448,155,0,0,0,0,0,0,0,0,0,-1,1672,869,0,0
455,155,0,0,0,0,0,0,0,0,0,-1,1679,869,0,0
462,155,0,0,0,0,0,0,0,0,0,-1,1686,869,0,0
469,155,0,0,0,0,0,0,0,0,0,-1,1693,869,0,0
476,155,0,0,0,0,0,0,0,0,0,-1,1700,869,0,0
483,155,0,0,0,0,0,0,0,0,0,-1,1707,869,0,0
490,155,0,0,0,0,0,0,0,0,0,-1,1714,869,0,0
497,155,0,0,0,0,0,0,0,0,0,-1,1721,869,0,0
504,155,0,0,0,0,0,0,0,0,0,-1,1728,869,0,0
511,155,0,0,0,0,0,0,0,0,0,-1,1735,869,0,0
518,155,0,0,0,0,0,0,0,0,0,-1,1742,869,0,0
525,155,0,0,0,0,0,0,0,0,0,-1,1749,869,0,0
532,155,0,0,0,0,0,0,0,0,0,-1,1756,869,0,0
539,155,0,0,0,0,0,0,0,0,0,-1,1763,869,0,0
546,155,0,0,0,0,0,0,0,0,0,-1,1770,869,0,0
553,155,0,0,0,0,0,0,0,0,0,-1,1777,869,0,0
560,155,0,0,0,0,0,0,0,0,0,-1,1784,869,0,0
567,155,0,0,0,0,0,0,0,0,0,-1,1791,869,0,0
574,155,0,0,0,0,0,0,0,0,0,-1,1798,869,0,0
581,155,0,0,0,0,0,0,0,0,0,-1,1805,869,0,0
588,155,0,0,0,0,0,0,0,0,0,-1,1812,869,0,0
595,155,0,0,0,0,0,0,0,0,0,-1,1819,869,0,0
602,155,0,0,0,0,0,0,0,0,0,-1,1826,869,0,0
609,155,0,0,0,0,0,0,0,0,0,-1,1833,869,0,0
616,155,79.1827,2.47522,0.00372788,-0.00496141,-0.00273099,0.00451493,-0.00574846,-0.280588,0.00593982,0.0441595,1840,869,79.1827,-2.47521
623,155,79.057,2.6131,0.00180274,-0.00389929,-0.00200466,0.00243697,-0.00453352,-0.306414,0.00408464,0.0440835,1847,869,79.057,-2.6131
630,155,78.9485,2.54333,0.00026804,-0.00290727,-0.00140995,0.000803733,-0.00344296,-0.363093,0.00260488,0.0428713,1854,869,78.9485,-2.54331
637,155,78.9438,2.46118,-0.000802833,-0.00194314,-0.00101512,-0.000208707,-0.00253727,-0.529522,0.00162641,0.0396373,1861,869,78.9438,-2.46121
644,155,78.9867,2.37958,-0.00153591,-0.00143219,-0.000840725,-0.000641729,-0.00232638,-0.816202,0.00138739,0.0352698,1868,869,78.9867,-2.37959
651,155,79.0498,2.40985,-0.00194511,-0.00129276,-0.000990925,-0.000575709,-0.00266216,-0.944395,0.0016174,0.0332121,1875,869,79.0499,-2.40987
658,155,79.0135,2.41888,-0.00245889,-0.00137974,-0.00155275,-0.000275487,-0.00356315,-0.95262,0.00228914,0.0286068,1882,869,79.0136,-2.41888
665,155,78.9795,2.39093,-0.00287279,-0.00103479,-0.00175582,2.79963e-05,-0.00393558,-1.02649,0.0026331,0.0384774,1889,869,78.9795,-2.39093
672,155,78.9797,2.39819,0,0,0,0,0,0,0,-1,1896,869,78.9798,-2.39821
679,155,35.1565,2.78528,0,0,0,0,0,0,0,-1,1903,869,35.1565,-2.7853
686,155,43.6101,1.63361,0,0,0,0,0,0,0,-1,1910,869,43.6101,-1.63362
693,155,67.3447,1.35443,0,0,0,0,0,0,0,-1,1917,869,67.3447,-1.35443
700,155,66.6262,2.20996,0,0,0,0,0,0,0,-1,1924,869,66.6262,-2.20998
707,155,66.9683,2.99762,0,0,0,0,0,0,0,-1,1931,869,66.9683,-2.99759
714,155,66.6924,3.48346,0,0,0,0,0,0,0,-1,1938,869,66.6924,-3.48346
721,155,66.4366,4.55237,-0.00195704,0.00142231,-0.00290941,0.0030971,-0.00363183,-1.04847,0.00388904,0.0497556,1945,869,66.4366,-4.55239
728,155,66.433,5.48102,-0.00174029,0.00233284,-0.00263153,0.00362382,-0.00303126,-1.11471,0.00384739,0.0215751,1952,869,66.4329,-5.48105
735,155,66.4012,6.34222,-0.00113873,0.00362154,-0.00228936,0.00454386,-0.00206104,-1.18782,0.00390212,0.0175285,1959,869,66.4012,-6.34221
742,155,66.3894,7.20538,-0.000226116,0.00536827,-0.00185929,0.00592984,-0.000787683,-1.27748,0.00424024,0.020237,1966,869,66.3894,-7.20541
749,155,66.2383,8.02264,0.000741248,0.00733665,-0.00146918,0.00764912,0.000428778,-1.36124,0.00496267,0.0180378,1973,869,66.2382,-8.02265
756,155,66.0656,8.76654,0,0,0,0,0,0,0,-1,1980,869,66.0656,-8.76656
763,155,66.0759,9.86377,0,0,0,0,0,0,0,-1,1987,869,66.0759,-9.8638
770,155,65.7659,10.4352,0,0,0,0,0,0,0,-1,1994,869,65.766,-10.4352
777,155,67.8357,10.6007,0,0,0,0,0,0,0,-1,2001,869,67.8357,-10.6007
784,155,69.9526,8.4718,0,0,0,0,0,0,0,-1,2008,869,69.9525,-8.47183
791,155,0,0,0,0,0,0,0,0,0,-1,2015,869,0,0
798,155,0,0,0,0,0,0,0,0,0,-1,2022,869,0,0
805,155,0,0,0,0,0,0,0,0,0,-1,2029,869,0,0
812,155,0,0,0,0,0,0,0,0,0,-1,2036,869,0,0
-700,148,0,0,0,0,0,0,0,0,0,-1,524,876,0,0
-693,148,0,0,0,0,0,0,0,0,0,-1,531,876,0,0
-686,148,0,0,0,0,0,0,0,0,0,-1,538,876,0,0
-679,148,0,0,0,0,0,0,0,0,0,-1,545,876,0,0
-672,148,-48.1407,-0.726746,0,0,0,0,0,0,0,-1,552,876,-48.1407,0.726755
-665,148,-48.2041,-3.97095,0,0,0,0,0,0,0,-1,559,876,-48.2041,3.97096
-658,148,-51.7661,3.82794,0,0,0,0,0,0,0,-1,566,876,-51.7661,-3.82797
-651,148,-52.0392,2.79663,0,0,0,0,0,0,0,-1,573,876,-52.0392,-2.79661
-644,148,-52.2687,1.81482,0,0,0,0,0,0,0,-1,580,876,-52.2687,-1.81482
-637,148,-52.5708,0.881165,0,0,0,0,0,0,0,-1,587,876,-52.5708,-0.88117
-630,148,-51.052,9.35394,0,0,0,0,0,0,0,-1,594,876,-51.052,-9.35392
-623,148,-51.2595,8.28918,-0.00380586,0.0152455,0.0104175,0.0198359,-0.00839624,1.15575,0.0167399,0.0309628,601,876,-51.2595,-8.28921
-616,148,-51.4474,7.27991,-0.00382515,0.0101975,0.00747732,0.0134365,-0.00706414,1.16202,0.0120251,0.0149901,608,876,-51.4474,-7.27988
-609,148,-51.5852,6.35559,-0.00356589,0.00633895,0.00546189,0.00875936,-0.0059863,1.15366,0.00856345,0.0137997,615,876,-51.5852,-6.35559
-602,148,-51.6849,5.46063,-0.00314679,0.0036012,0.00424917,0.005653,-0.00519859,1.12094,0.006267,0.0163004,622,876,-51.6849,-5.46063
-595,148,-51.7141,4.60657,-0.00251492,0.00237234,0.00353487,0.004226,-0.00436858,1.08783,0.00496231,0.0151117,629,876,-51.7141,-4.60657
-588,148,-51.7429,3.66187,-0.00187062,0.00207814,0.00317996,0.0038468,-0.00363928,1.06321,0.00432264,0.0368168,636,876,-51.7429,-3.66185
-581,148,-51.6724,2.73523,0,0,0,0,0,0,0,-1,643,876,-51.6724,-2.73523
-574,148,-51.1478,2.54205,0,0,0,0,0,0,0,-1,650,876,-51.1478,-2.54208
-567,148,-35.6293,0.615784,0,0,0,0,0,0,0,-1,657,876,-35.6293,-0.615792
-560,148,-37.7973,-0.588135,0,0,0,0,0,0,0,-1,664,876,-37.7973,0.588143
-553,148,-18.3896,-0.00280762,0,0,0,0,0,0,0,-1,671,876,-18.3897,0.00278524
-546,148,-62.9014,0.426086,0,0,0,0,0,0,0,-1,678,876,-62.9014,-0.426086
-539,148,-62.8843,0.435425,-0.00171568,-0.000999064,0.00280908,0.00147446,-0.00418921,0.848833,0.00339283,0.0444315,685,876,-62.8844,-0.435395
-532,148,-62.8694,0.546387,-0.00106839,-0.00205165,0.00238389,0.000874039,-0.00399408,0.683709,0.00299686,0.0344185,692,876,-62.8694,-0.546378
-525,148,-62.7936,0.75708,-0.000468662,-0.00258712,0.00217066,0.00088742,-0.0039432,0.558407,0.00296915,0.0361428,699,876,-62.7936,-0.757082
-518,148,-62.8188,0.864136,-0.000125436,-0.00194543,0.0021879,0.00133416,-0.00340503,0.58832,0.0028219,0.0407984,706,876,-62.8188,-0.864109
-511,148,-62.8994,0.954712,0.00131604,-0.000237764,0.00208466,0.00276386,-0.00168558,0.607032,0.00259391,0.0409953,713,876,-62.8993,-0.954742
-504,148,-62.9705,1.08868,0.00362299,0.0018076,0.00170845,0.00464991,0.000780683,0.541212,0.00287526,0.0452905,720,876,-62.9705,-1.08867
-497,148,0,0,0,0,0,0,0,0,0,-1,727,876,0,0
-490,148,0,0,0,0,0,0,0,0,0,-1,734,876,0,0
-483,148,0,0,0,0,0,0,0,0,0,-1,741,876,0,0
-476,148,0,0,0,0,0,0,0,0,0,-1,748,876,0,0
-469,148,0,0,0,0,0,0,0,0,0,-1,755,876,0,0
-462,148,0,0,0,0,0,0,0,0,0,-1,762,876,0,0
-455,148,0,0,0,0,0,0,0,0,0,-1,769,876,0,0
-448,148,0,0,0,0,0,0,0,0,0,-1,776,876,0,0
-441,148,0,0,0,0,0,0,0,0,0,-1,783,876,0,0
-434,148,0,0,0,0,0,0,0,0,0,-1,790,876,0,0
-427,148,0,0,0,0,0,0,0,0,0,-1,797,876,0,0
-420,148,0,0,0,0,0,0,0,0,0,-1,804,876,0,0
-413,148,0,0,0,0,0,0,0,0,0,-1,811,876,0,0
-406,148,0,0,0,0,0,0,0,0,0,-1,818,876,0,0
-399,148,0,0,0,0,0,0,0,0,0,-1,825,876,0,0
-392,148,0,0,0,0,0,0,0,0,0,-1,832,876,0,0
-385,148,0,0,0,0,0,0,0,0,0,-1,839,876,0,0
-378,148,0,0,0,0,0,0,0,0,0,-1,846,876,0,0
-371,148,0,0,0,0,0,0,0,0,0,-1,853,876,0,0
-364,148,0,0,0,0,0,0,0,0,0,-1,860,876,0,0
-357,148,0,0,0,0,0,0,0,0,0,-1,867,876,0,0
-350,148,0,0,0,0,0,0,0,0,0,-1,874,876,0,0
-343,148,0,0,0,0,0,0,0,0,0,-1,881,876,0,0
-336,148,0,0,0,0,0,0,0,0,0,-1,888,876,0,0
-329,148,0,0,0,0,0,0,0,0,0,-1,895,876,0,0
-322,148,0,0,0,0,0,0,0,0,0,-1,902,876,0,0
-315,148,0,0,0,0,0,0,0,0,0,-1,909,876,0,0
-308,148,0,0,0,0,0,0,0,0,0,-1,916,876,0,0
-301,148,0,0,0,0,0,0,0,0,0,-1,923,876,0,0
-294,148,0,0,0,0,0,0,0,0,0,-1,930,876,0,0
-287,148,0,0,0,0,0,0,0,0,0,-1,937,876,0,0
-280,148,0,0,0,0,0,0,0,0,0,-1,944,876,0,0
-273,148,0,0,0,0,0,0,0,0,0,-1,951,876,0,0
-266,148,0,0,0,0,0,0,0,0,0,-1,958,876,0,0
-259,148,0,0,0,0,0,0,0,0,0,-1,965,876,0,0
-252,148,0,0,0,0,0,0,0,0,0,-1,972,876,0,0
-245,148,0,0,0,0,0,0,0,0,0,-1,979,876,0,0
-238,148,0,0,0,0,0,0,0,0,0,-1,986,876,0,0
-231,148,0,0,0,0,0,0,0,0,0,-1,993,876,0,0
-224,148,0,0,0,0,0,0,0,0,0,-1,1000,876,0,0
-217,148,0,0,0,0,0,0,0,0,0,-1,1007,876,0,0
-210,148,0,0,0,0,0,0,0,0,0,-1,1014,876,0,0
-203,148,0,0,0,0,0,0,0,0,0,-1,1021,876,0,0
-196,148,0,0,0,0,0,0,0,0,0,-1,1028,876,0,0
-189,148,0,0,0,0,0,0,0,0,0,-1,1035,876,0,0
-182,148,0,0,0,0,0,0,0,0,0,-1,1042,876,0,0
-175,148,0,0,0,0,0,0,0,0,0,-1,1049,876,0,0
-168,148,0,0,0,0,0,0,0,0,0,-1,1056,876,0,0
-161,148,0,0,0,0,0,0,0,0,0,-1,1063,876,0,0
-154,148,0,0,0,0,0,0,0,0,0,-1,1070,876,0,0
-147,148,0,0,0,0,0,0,0,0,0,-1,1077,876,0,0
-140,148,0,0,0,0,0,0,0,0,0,-1,1084,876,0,0
-133,148,0,0,0,0,0,0,0,0,0,-1,1091,876,0,0
-126,148,0,0,0,0,0,0,0,0,0,-1,1098,876,0,0
-119,148,0,0,0,0,0,0,0,0,0,-1,1105,876,0,0
-112,148,0,0,0,0,0,0,0,0,0,-1,1112,876,0,0
-105,148,0,0,0,0,0,0,0,0,0,-1,1119,876,0,0
-98,148,0,0,0,0,0,0,0,0,0,-1,1126,876,0,0
-91,148,0,0,0,0,0,0,0,0,0,-1,1133,876,0,0
-84,148,0,0,0,0,0,0,0,0,0,-1,1140,876,0,0
-77,148,0,0,0,0,0,0,0,0,0,-1,1147,876,0,0
-70,148,0,0,0,0,0,0,0,0,0,-1,1154,876,0,0
-63,148,0,0,0,0,0,0,0,0,0,-1,1161,876,0,0
-56,148,0,0,0,0,0,0,0,0,0,-1,1168,876,0,0
-49,148,0,0,0,0,0,0,0,0,0,-1,1175,876,0,0
-42,148,0,0,0,0,0,0,0,0,0,-1,1182,876,0,0
-35,148,0,0,0,0,0,0,0,0,0,-1,1189,876,0,0
-28,148,0,0,0,0,0,0,0,0,0,-1,1196,876,0,0
-21,148,0,0,0,0,0,0,0,0,0,-1,1203,876,0,0
-14,148,0,0,0,0,0,0,0,0,0,-1,1210,876,0,0
-7,148,0,0,0,0,0,0,0,0,0,-1,1217,876,0,0
0,148,0,0,0,0,0,0,0,0,0,-1,1224,876,0,0
7,148,0,0,0,0,0,0,0,0,0,-1,1231,876,0,0
14,148,0,0,0,0,0,0,0,0,0,-1,1238,876,0,0
21,148,0,0,0,0,0,0,0,0,0,-1,1245,876,0,0
28,148,0,0,0,0,0,0,0,0,0,-1,1252,876,0,0
35,148,0,0,0,0,0,0,0,0,0,-1,1259,876,0,0
42,148,0,0,0,0,0,0,0,0,0,-1,1266,876,0,0
49,148,0,0,0,0,0,0,0,0,0,-1,1273,876,0,0
56,148,0,0,0,0,0,0,0,0,0,-1,1280,876,0,0
63,148,0,0,0,0,0,0,0,0,0,-1,1287,876,0,0
70,148,0,0,0,0,0,0,0,0,0,-1,1294,876,0,0
77,148,0,0,0,0,0,0,0,0,0,-1,1301,876,0,0
84,148,0,0,0,0,0,0,0,0,0,-1,1308,876,0,0
91,148,0,0,0,0,0,0,0,0,0,-1,1315,876,0,0
98,148,0,0,0,0,0,0,0,0,0,-1,1322,876,0,0
105,148,0,0,0,0,0,0,0,0,0,-1,1329,876,0,0
112,148,0,0,0,0,0,0,0,0,0,-1,1336,876,0,0
119,148,0,0,0,0,0,0,0,0,0,-1,1343,876,0,0
126,148,0,0,0,0,0,0,0,0,0,-1,1350,876,0,0
133,148,0,0,0,0,0,0,0,0,0,-1,1357,876,0,0
140,148,0,0,0,0,0,0,0,0,0,-1,1364,876,0,0
147,148,0,0,0,0,0,0,0,0,0,-1,1371,876,0,0
154,148,0,0,0,0,0,0,0,0,0,-1,1378,876,0,0
161,148,0,0,0,0,0,0,0,0,0,-1,1385,876,0,0
168,148,0,0,0,0,0,0,0,0,0,-1,1392,876,0,0
175,148,0,0,0,0,0,0,0,0,0,-1,1399,876,0,0
182,148,0,0,0,0,0,0,0,0,0,-1,1406,876,0,0
189,148,0,0,0,0,0,0,0,0,0,-1,1413,876,0,0
196,148,0,0,0,0,0,0,0,0,0,-1,1420,876,0,0
203,148,0,0,0,0,0,0,0,0,0,-1,1427,876,0,0
210,148,0,0,0,0,0,0,0,0,0,-1,1434,876,0,0
217,148,0,0,0,0,0,0,0,0,0,-1,1441,876,0,0
224,148,0,0,0,0,0,0,0,0,0,-1,1448,876,0,0
231,148,0,0,0,0,0,0,0,0,0,-1,1455,876,0,0
238,148,0,0,0,0,0,0,0,0,0,-1,1462,876,0,0
245,148,0,0,0,0,0,0,0,0,0,-1,1469,876,0,0
252,148,0,0,0,0,0,0,0,0,0,-1,1476,876,0,0
259,148,0,0,0,0,0,0,0,0,0,-1,1483,876,0,0
266,148,0,0,0,0,0,0,0,0,0,-1,1490,876,0,0
273,148,0,0,0,0,0,0,0,0,0,-1,1497,876,0,0
280,148,0,0,0,0,0,0,0,0,0,-1,1504,876,0,0
287,148,0,0,0,0,0,0,0,0,0,-1,1511,876,0,0
294,148,0,0,0,0,0,0,0,0,0,-1,1518,876,0,0
301,148,0,0,0,0,0,0,0,0,0,-1,1525,876,0,0
308,148,0,0,0,0,0,0,0,0,0,-1,1532,876,0,0
315,148,0,0,0,0,0,0,0,0,0,-1,1539,876,0,0
322,148,0,0,0,0,0,0,0,0,0,-1,1546,876,0,0
329,148,0,0,0,0,0,0,0,0,0,-1,1553,876,0,0
336,148,0,0,0,0,0,0,0,0,0,-1,1560,876,0,0
343,148,0,0,0,0,0,0,0,0,0,-1,1567,876,0,0
350,148,0,0,0,0,0,0,0,0,0,-1,1574,876,0,0
357,148,0,0,0,0,0,0,0,0,0,-1,1581,876,0,0
364,148,0,0,0,0,0,0,0,0,0,-1,1588,876,0,0
371,148,0,0,0,0,0,0,0,0,0,-1,1595,876,0,0
378,148,0,0,0,0,0,0,0,0,0,-1,1602,876,0,0
385,148,0,0,0,0,0,0,0,0,0,-1,1609,876,0,0
392,148,0,0,0,0,0,0,0,0,0,-1,1616,876,0,0
399,148,0,0,0,0,0,0,0,0,0,-1,1623,876,0,0
406,148,0,0,0,0,0,0,0,0,0,-1,1630,876,0,0
413,148,0,0,0,0,0,0,0,0,0,-1,1637,876,0,0
420,148,0,0,0,0,0,0,0,0,0,-1,1644,876,0,0
427,148,0,0,0,0,0,0,0,0,0,-1,1651,876,0,0
434,148,0,0,0,0,0,0,0,0,0,-1,1658,876,0,0
441,148,0,0,0,0,0,0,0,0,0,-1,1665,876,0,0
448,148,0,0,0,0,0,0,0,0,0,-1,1672,876,0,0
455,148,0,0,0,0,0,0,0,0,0,-1,1679,876,0,0
462,148,0,0,0,0,0,0,0,0,0,-1,1686,876,0,0
469,148,0,0,0,0,0,0,0,0,0,-1,1693,876,0,0
476,148,0,0,0,0,0,0,0,0,0,-1,1700,876,0,0
483,148,0,0,0,0,0,0,0,0,0,-1,1707,876,0,0
490,148,0,0,0,0,0,0,0,0,0,-1,1714,876,0,0
497,148,0,0,0,0,0,0,0,0,0,-1,1721,876,0,0
504,148,0,0,0,0,0,0,0,0,0,-1,1728,876,0,0
511,148,0,0,0,0,0,0,0,0,0,-1,1735,876,0,0
518,148,0,0,0,0,0,0,0,0,0,-1,1742,876,0,0
525,148,0,0,0,0,0,0,0,0,0,-1,1749,876,0,0
532,148,0,0,0,0,0,0,0,0,0,-1,1756,876,0,0
539,148,0,0,0,0,0,0,0,0,0,-1,1763,876,0,0
546,148,0,0,0,0,0,0,0,0,0,-1,1770,876,0,0
553,148,0,0,0,0,0,0,0,0,0,-1,1777,876,0,0
560,148,0,0,0,0,0,0,0,0,0,-1,1784,876,0,0
567,148,0,0,0,0,0,0,0,0,0,-1,1791,876,0,0
574,148,0,0,0,0,0,0,0,0,0,-1,1798,876,0,0
581,148,0,0,0,0,0,0,0,0,0,-1,1805,876,0,0
588,148,0,0,0,0,0,0,0,0,0,-1,1812,876,0,0
595,148,0,0,0,0,0,0,0,0,0,-1,1819,876,0,0
602,148,0,0,0,0,0,0,0,0,0,-1,1826,876,0,0
609,148,0,0,0,0,0,0,0,0,0,-1,1833,876,0,0
616,148,0,0,0,0,0,0,0,0,0,-1,1840,876,0,0
623,148,79.1036,2.73737,0.00224184,-0.0036535,-0.00227884,0.00302001,-0.00443166,-0.329061,0.00432788,0.0414338,1847,876,79.1037,-2.73736
630,148,79.0258,2.58057,0.000517416,-0.00283749,-0.00161908,0.00117133,-0.0034914,-0.383847,0.00280091,0.0403264,1854,876,79.0257,-2.58054
637,148,79.0031,2.44714,-0.00067745,-0.00201758,-0.00118147,1.0743e-05,-0.00270577,-0.527443,0.00180744,0.0361393,1861,876,79.0031,-2.44714
644,148,79.0067,2.35254,-0.00147987,-0.00151096,-0.000911196,-0.000584087,-0.00240674,-0.776868,0.00144957,0.0350024,1868,876,79.0067,-2.35256
651,148,79.04,2.32434,-0.0019381,-0.00131162,-0.00094083,-0.000633253,-0.00261646,-0.946096,0.00157621,0.0345537,1875,876,79.0401,-2.32435
658,148,78.9752,2.42975,-0.00244626,-0.00133015,-0.00139971,-0.000381351,-0.00339506,-0.975087,0.00214757,0.0303908,1882,876,78.9752,-2.42974
665,148,78.9004,2.52612,-0.00281771,-0.000920603,-0.00158868,-1.8845e-05,-0.00371946,-1.05453,0.00247339,0.0233933,1889,876,78.9003,-2.52615
672,148,78.8446,2.54108,0,0,0,0,0,0,0,-1,1896,876,78.8446,-2.54107
679,148,78.8163,2.59283,0,0,0,0,0,0,0,-1,1903,876,78.8162,-2.59285
686,148,21.6195,2.40845,0,0,0,0,0,0,0,-1,1910,876,21.6196,-2.40846
693,148,48.1387,1.97351,0,0,0,0,0,0,0,-1,1917,876,48.1387,-1.97351
700,148,67.9381,2.58459,0,0,0,0,0,0,0,-1,1924,876,67.9381,-2.58462
707,148,67.8732,3.22888,0,0,0,0,0,0,0,-1,1931,876,67.8732,-3.22891
714,148,67.7189,3.92023,-0.00200299,0.000821733,-0.00282824,0.00257066,-0.00375192,-1.01697,0.00367151,0.0438869,1938,876,67.7189,-3.92025
721,148,67.334,4.74786,-0.00183634,0.00153746,-0.00296864,0.003265,-0.00356389,-1.04377,0.00394392,0.0366236,1945,876,67.334,-4.74786
728,148,67.3259,5.51709,-0.00190136,0.00246592,-0.00285543,0.00387697,-0.0033124,-1.11183,0.00415505,0.0223647,1952,876,67.3259,-5.51707
735,148,67.3304,6.39594,-0.00162027,0.00379071,-0.0027104,0.00491483,-0.00274439,-1.17764,0.00448085,0.0221058,1959,876,67.3304,-6.39591
742,148,67.2495,7.26581,-0.000928263,0.00565075,-0.00246243,0.00647031,-0.00174782,-1.2495,0.00499905,0.0229331,1966,876,67.2495,-7.26581
749,148,67.1077,8.04608,-3.45569e-05,0.00770555,-0.00220384,0.00828906,-0.000618067,-1.31197,0.00574316,0.0216871,1973,876,67.1076,-8.0461
756,148,67.012,8.89734,0.000918094,0.00995299,-0.00210336,0.0104187,0.000452427,-1.35292,0.00679998,0.0261179,1980,876,67.012,-8.89734
763,148,66.9973,9.82471,0.00157761,0.0124111,-0.00227856,0.0128708,0.00111787,-1.37171,0.00823327,0.0456514,1987,876,66.9973,-9.82473
770,148,66.9653,10.7266,0,0,0,0,0,0,0,-1,1994,876,66.9653,-10.7266
777,148,67.0679,11.7677,0,0,0,0,0,0,0,-1,2001,876,67.0678,-11.7677
784,148,71.5566,9.01587,0,0,0,0,0,0,0,-1,2008,876,71.5567,-9.01584
791,148,71.4524,10.6003,0,0,0,0,0,0,0,-1,2015,876,71.4523,-10.6003
798,148,0,0,0,0,0,0,0,0,0,-1,2022,876,0,0
805,148,0,0,0,0,0,0,0,0,0,-1,2029,876,0,0
812,148,0,0,0,0,0,0,0,0,0,-1,2036,876,0,0
-700,141,0,0,0,0,0,0,0,0,0,-1,524,883,0,0
-693,141,0,0,0,0,0,0,0,0,0,-1,531,883,0,0
-686,141,0,0,0,0,0,0,0,0,0,-1,538,883,0,0
-679,141,0,0,0,0,0,0,0,0,0,-1,545,883,0,0
-672,141,-48.7804,-0.600891,0,0,0,0,0,0,0,-1,552,883,-48.7804,0.600898
-665,141,-48.764,-3.67065,0,0,0,0,0,0,0,-1,559,883,-48.764,3.67066
-658,141,-52.3438,3.12531,0,0,0,0,0,0,0,-1,566,883,-52.3438,-3.1253
-651,141,-53.1779,1.50293,0,0,0,0,0,0,0,-1,573,883,-53.1778,-1.50292
-644,141,-52.4205,-0.191956,0,0,0,0,0,0,0,-1,580,883,-52.4205,0.191941
-637,141,-52.859,0.400024,0,0,0,0,0,0,0,-1,587,883,-52.859,-0.400006
-630,141,-51.8024,9.40869,0,0,0,0,0,0,0,-1,594,883,-51.8024,-9.40869
-623,141,-52.0891,8.25079,-0.00644168,0.0148702,0.00991552,0.0187699,-0.0103414,1.19609,0.0170406,0.0368649,601,883,-52.0891,-8.25076
-616,141,-52.3793,7.24548,-0.00540599,0.00996736,0.00726756,0.0128591,-0.0082977,1.19211,0.0123091,0.0149089,608,883,-52.3793,-7.2455
-609,141,-52.5133,6.37311,-0.00427669,0.00613071,0.00548326,0.00848642,-0.0066324,1.16502,0.0087507,0.0144798,615,883,-52.5133,-6.37309
-602,141,-52.5743,5.50732,-0.003328,0.0035858,0.00440676,0.00572977,-0.00547197,1.11799,0.0064679,0.0167086,622,883,-52.5743,-5.50735
-595,141,-52.5393,4.6297,-0.00260168,0.00266248,0.00366075,0.00453917,-0.00447836,1.09708,0.00520631,0.0212009,629,883,-52.5393,-4.62968
-588,141,-53.0138,3.70099,-0.00211118,0.00239541,0.00322136,0.00407333,-0.0037891,1.09059,0.00454037,0.0407453,636,883,-53.0138,-3.70097
-581,141,-53.4066,2.73785,0,0,0,0,0,0,0,-1,643,883,-53.4066,-2.73784
-574,141,-42.7302,0.864685,0,0,0,0,0,0,0,-1,650,883,-42.7301,-0.864692
-567,141,-30.5335,0.480103,0,0,0,0,0,0,0,-1,657,883,-30.5335,-0.480081
-560,141,-30.5542,0.23175,0,0,0,0,0,0,0,-1,664,883,-30.5542,-0.231742
-553,141,-32.0876,1.39459,0,0,0,0,0,0,0,-1,671,883,-32.0876,-1.3946
-546,141,-62.7696,0.603394,0,0,0,0,0,0,0,-1,678,883,-62.7696,-0.603411
-539,141,-62.8015,0.533875,-0.00244545,-0.000378094,0.00273698,0.0015139,-0.00433745,0.965953,0.00350693,0.0275697,685,883,-62.8015,-0.533876
-532,141,-62.8606,0.574219,-0.00167696,-0.00134876,0.00231136,0.000804318,-0.00383004,0.820837,0.00285942,0.0273265,692,883,-62.8606,-0.574225
-525,141,-62.8478,0.708313,-0.00106391,-0.00146736,0.00234055,0.0010836,-0.00361486,0.742411,0.00284085,0.036304,699,883,-62.8479,-0.708311
-518,141,-62.8647,0.825134,-0.000648017,-0.0004643,0.00267917,0.00212459,-0.00323691,0.802535,0.00311759,0.0424229,706,883,-62.8648,-0.825116
-511,141,-62.9292,0.93457,0.000450556,0.00124295,0.00283574,0.00371004,-0.00201653,0.854807,0.00335408,0.0412513,713,883,-62.9292,-0.934578
-504,141,-62.8954,1.07428,0.00204952,0.00323295,0.00273215,0.00543672,-0.000154252,0.892039,0.00367698,0.0448373,720,883,-62.8954,-1.0743
-497,141,0,0,0,0,0,0,0,0,0,-1,727,883,0,0
-490,141,0,0,0,0,0,0,0,0,0,-1,734,883,0,0
-483,141,0,0,0,0,0,0,0,0,0,-1,741,883,0,0
-476,141,0,0,0,0,0,0,0,0,0,-1,748,883,0,0
-469,141,0,0,0,0,0,0,0,0,0,-1,755,883,0,0
-462,141,0,0,0,0,0,0,0,0,0,-1,762,883,0,0
-455,141,0,0,0,0,0,0,0,0,0,-1,769,883,0,0
-448,141,0,0,0,0,0,0,0,0,0,-1,776,883,0,0
-441,141,0,0,0,0,0,0,0,0,0,-1,783,883,0,0
-434,141,0,0,0,0,0,0,0,0,0,-1,790,883,0,0
-427,141,0,0,0,0,0,0,0,0,0,-1,797,883,0,0
-420,141,0,0,0,0,0,0,0,0,0,-1,804,883,0,0
-413,141,0,0,0,0,0,0,0,0,0,-1,811,883,0,0
-406,141,0,0,0,0,0,0,0,0,0,-1,818,883,0,0
-399,141,0,0,0,0,0,0,0,0,0,-1,825,883,0,0
-392,141,0,0,0,0,0,0,0,0,0,-1,832,883,0,0
-385,141,0,0,0,0,0,0,0,0,0,-1,839,883,0,0
-378,141,0,0,0,0,0,0,0,0,0,-1,846,883,0,0
-371,141,0,0,0,0,0,0,0,0,0,-1,853,883,0,0
-364,141,0,0,0,0,0,0,0,0,0,-1,860,883,0,0
-357,141,0,0,0,0,0,0,0,0,0,-1,867,883,0,0
-350,141,0,0,0,0,0,0,0,0,0,-1,874,883,0,0
-343,141,0,0,0,0,0,0,0,0,0,-1,881,883,0,0
-336,141,0,0,0,0,0,0,0,0,0,-1,888,883,0,0
-329,141,0,0,0,0,0,0,0,0,0,-1,895,883,0,0
-322,141,0,0,0,0,0,0,0,0,0,-1,902,883,0,0
-315,141,0,0,0,0,0,0,0,0,0,-1,909,883,0,0
-308,141,0,0,0,0,0,0,0,0,0,-1,916,883,0,0
-301,141,0,0,0,0,0,0,0,0,0,-1,923,883,0,0
-294,141,0,0,0,0,0,0,0,0,0,-1,930,883,0,0
-287,141,0,0,0,0,0,0,0,0,0,-1,937,883,0,0
-280,141,0,0,0,0,0,0,0,0,0,-1,944,883,0,0
-273,141,0,0,0,0,0,0,0,0,0,-1,951,883,0,0
-266,141,0,0,0,0,0,0,0,0,0,-1,958,883,0,0
-259,141,0,0,0,0,0,0,0,0,0,-1,965,883,0,0
-252,141,0,0,0,0,0,0,0,0,0,-1,972,883,0,0
-245,141,0,0,0,0,0,0,0,0,0,-1,979,883,0,0
-238,141,0,0,0,0,0,0,0,0,0,-1,986,883,0,0
-231,141,0,0,0,0,0,0,0,0,0,-1,993,883,0,0
-224,141,0,0,0,0,0,0,0,0,0,-1,1000,883,0,0
-217,141,0,0,0,0,0,0,0,0,0,-1,1007,883,0,0
-210,141,0,0,0,0,0,0,0,0,0,-1,1014,883,0,0
-203,141,0,0,0,0,0,0,0,0,0,-1,1021,883,0,0
-196,141,0,0,0,0,0,0,0,0,0,-1,1028,883,0,0
-189,141,0,0,0,0,0,0,0,0,0,-1,1035,883,0,0
-182,141,0,0,0,0,0,0,0,0,0,-1,1042,883,0,0
-175,141,0,0,0,0,0,0,0,0,0,-1,1049,883,0,0
-168,141,0,0,0,0,0,0,0,0,0,-1,1056,883,0,0
-161,141,0,0,0,0,0,0,0,0,0,-1,1063,883,0,0
-154,141,0,0,0,0,0,0,0,0,0,-1,1070,883,0,0
-147,141,0,0,0,0,0,0,0,0,0,-1,1077,883,0,0
-140,141,0,0,0,0,0,0,0,0,0,-1,1084,883,0,0
-133,141,0,0,0,0,0,0,0,0,0,-1,1091,883,0,0
-126,141,0,0,0,0,0,0,0,0,0,-1,1098,883,0,0
-119,141,0,0,0,0,0,0,0,0,0,-1,1105,883,0,0
-112,141,0,0,0,0,0,0,0,0,0,-1,1112,883,0,0
-105,141,0,0,0,0,0,0,0,0,0,-1,1119,883,0,0
-98,141,0,0,0,0,0,0,0,0,0,-1,1126,883,0,0
-91,141,0,0,0,0,0,0,0,0,0,-1,1133,883,0,0
-84,141,0,0,0,0,0,0,0,0,0,-1,1140,883,0,0
-77,141,0,0,0,0,0,0,0,0,0,-1,1147,883,0,0
-70,141,0,0,0,0,0,0,0,0,0,-1,1154,883,0,0
-63,141,0,0,0,0,0,0,0,0,0,-1,1161,883,0,0
-56,141,0,0,0,0,0,0,0,0,0,-1,1168,883,0,0
-49,141,0,0,0,0,0,0,0,0,0,-1,1175,883,0,0
-42,141,0,0,0,0,0,0,0,0,0,-1,1182,883,0,0
-35,141,0,0,0,0,0,0,0,0,0,-1,1189,883,0,0
-28,141,0,0,0,0,0,0,0,0,0,-1,1196,883,0,0
-21,141,0,0,0,0,0,0,0,0,0,-1,1203,883,0,0
-14,141,0,0,0,0,0,0,0,0,0,-1,1210,883,0,0
-7,141,0,0,0,0,0,0,0,0,0,-1,1217,883,0,0
0,141,0,0,0,0,0,0,0,0,0,-1,1224,883,0,0
7,141,0,0,0,0,0,0,0,0,0,-1,1231,883,0,0
14,141,0,0,0,0,0,0,0,0,0,-1,1238,883,0,0
21,141,0,0,0,0,0,0,0,0,0,-1,1245,883,0,0
28,141,0,0,0,0,0,0,0,0,0,-1,1252,883,0,0
35,141,0,0,0,0,0,0,0,0,0,-1,1259,883,0,0
42,141,0,0,0,0,0,0,0,0,0,-1,1266,883,0,0
49,141,0,0,0,0,0,0,0,0,0,-1,1273,883,0,0
56,141,0,0,0,0,0,0,0,0,0,-1,1280,883,0,0
63,141,0,0,0,0,0,0,0,0,0,-1,1287,883,0,0
70,141,0,0,0,0,0,0,0,0,0,-1,1294,883,0,0
77,141,0,0,0,0,0,0,0,0,0,-1,1301,883,0,0
84,141,0,0,0,0,0,0,0,0,0,-1,1308,883,0,0
91,141,0,0,0,0,0,0,0,0,0,-1,1315,883,0,0
98,141,0,0,0,0,0,0,0,0,0,-1,1322,883,0,0
105,141,0,0,0,0,0,0,0,0,0,-1,1329,883,0,0
112,141,0,0,0,0,0,0,0,0,0,-1,1336,883,0,0
119,141,0,0,0,0,0,0,0,0,0,-1,1343,883,0,0
126,141,0,0,0,0,0,0,0,0,0,-1,1350,883,0,0
133,141,0,0,0,0,0,0,0,0,0,-1,1357,883,0,0
140,141,0,0,0,0,0,0,0,0,0,-1,1364,883,0,0
147,141,0,0,0,0,0,0,0,0,0,-1,1371,883,0,0
154,141,0,0,0,0,0,0,0,0,0,-1,1378,883,0,0
161,141,0,0,0,0,0,0,0,0,0,-1,1385,883,0,0
168,141,0,0,0,0,0,0,0,0,0,-1,1392,883,0,0
175,141,0,0,0,0,0,0,0,0,0,-1,1399,883,0,0
182,141,0,0,0,0,0,0,0,0,0,-1,1406,883,0,0
189,141,0,0,0,0,0,0,0,0,0,-1,1413,883,0,0
196,141,0,0,0,0,0,0,0,0,0,-1,1420,883,0,0
203,141,0,0,0,0,0,0,0,0,0,-1,1427,883,0,0
210,141,0,0,0,0,0,0,0,0,0,-1,1434,883,0,0
217,141,0,0,0,0,0,0,0,0,0,-1,1441,883,0,0
224,141,0,0,0,0,0,0,0,0,0,-1,1448,883,0,0
231,141,0,0,0,0,0,0,0,0,0,-1,1455,883,0,0
238,141,0,0,0,0,0,0,0,0,0,-1,1462,883,0,0
245,141,0,0,0,0,0,0,0,0,0,-1,1469,883,0,0
252,141,0,0,0,0,0,0,0,0,0,-1,1476,883,0,0
259,141,0,0,0,0,0,0,0,0,0,-1,1483,883,0,0
266,141,0,0,0,0,0,0,0,0,0,-1,1490,883,0,0
273,141,0,0,0,0,0,0,0,0,0,-1,1497,883,0,0
280,141,0,0,0,0,0,0,0,0,0,-1,1504,883,0,0
287,141,0,0,0,0,0,0,0,0,0,-1,1511,883,0,0
294,141,0,0,0,0,0,0,0,0,0,-1,1518,883,0,0
301,141,0,0,0,0,0,0,0,0,0,-1,1525,883,0,0
308,141,0,0,0,0,0,0,0,0,0,-1,1532,883,0,0
315,141,0,0,0,0,0,0,0,0,0,-1,1539,883,0,0
322,141,0,0,0,0,0,0,0,0,0,-1,1546,883,0,0
329,141,0,0,0,0,0,0,0,0,0,-1,1553,883,0,0
336,141,0,0,0,0,0,0,0,0,0,-1,1560,883,0,0
343,141,0,0,0,0,0,0,0,0,0,-1,1567,883,0,0
350,141,0,0,0,0,0,0,0,0,0,-1,1574,883,0,0
357,141,0,0,0,0,0,0,0,0,0,-1,1581,883,0,0
364,141,0,0,0,0,0,0,0,0,0,-1,1588,883,0,0
371,141,0,0,0,0,0,0,0,0,0,-1,1595,883,0,0
378,141,0,0,0,0,0,0,0,0,0,-1,1602,883,0,0
385,141,0,0,0,0,0,0,0,0,0,-1,1609,883,0,0
392,141,0,0,0,0,0,0,0,0,0,-1,1616,883,0,0
399,141,0,0,0,0,0,0,0,0,0,-1,1623,883,0,0
406,141,0,0,0,0,0,0,0,0,0,-1,1630,883,0,0
413,141,0,0,0,0,0,0,0,0,0,-1,1637,883,0,0
420,141,0,0,0,0,0,0,0,0,0,-1,1644,883,0,0
427,141,0,0,0,0,0,0,0,0,0,-1,1651,883,0,0
434,141,0,0,0,0,0,0,0,0,0,-1,1658,883,0,0
441,141,0,0,0,0,0,0,0,0,0,-1,1665,883,0,0
448,141,0,0,0,0,0,0,0,0,0,-1,1672,883,0,0
455,141,0,0,0,0,0,0,0,0,0,-1,1679,883,0,0
462,141,0,0,0,0,0,0,0,0,0,-1,1686,883,0,0
469,141,0,0,0,0,0,0,0,0,0,-1,1693,883,0,0
476,141,0,0,0,0,0,0,0,0,0,-1,1700,883,0,0
483,141,0,0,0,0,0,0,0,0,0,-1,1707,883,0,0
490,141,0,0,0,0,0,0,0,0,0,-1,1714,883,0,0
497,141,0,0,0,0,0,0,0,0,0,-1,1721,883,0,0
504,141,0,0,0,0,0,0,0,0,0,-1,1728,883,0,0
511,141,0,0,0,0,0,0,0,0,0,-1,1735,883,0,0
518,141,0,0,0,0,0,0,0,0,0,-1,1742,883,0,0
525,141,0,0,0,0,0,0,0,0,0,-1,1749,883,0,0
532,141,0,0,0,0,0,0,0,0,0,-1,1756,883,0,0
539,141,0,0,0,0,0,0,0,0,0,-1,1763,883,0,0
546,141,0,0,0,0,0,0,0,0,0,-1,1770,883,0,0
553,141,0,0,0,0,0,0,0,0,0,-1,1777,883,0,0
560,141,0,0,0,0,0,0,0,0,0,-1,1784,883,0,0
567,141,0,0,0,0,0,0,0,0,0,-1,1791,883,0,0
574,141,0,0,0,0,0,0,0,0,0,-1,1798,883,0,0
581,141,0,0,0,0,0,0,0,0,0,-1,1805,883,0,0
588,141,0,0,0,0,0,0,0,0,0,-1,1812,883,0,0
595,141,0,0,0,0,0,0,0,0,0,-1,1819,883,0,0
602,141,0,0,0,0,0,0,0,0,0,-1,1826,883,0,0
609,141,0,0,0,0,0,0,0,0,0,-1,1833,883,0,0
616,141,0,0,0,0,0,0,0,0,0,-1,1840,883,0,0
623,141,79.047,2.79657,0.00219348,-0.00243415,-0.00200141,0.00293897,-0.00317964,-0.356564,0.00353349,0.0431416,1847,883,79.047,-2.79656
630,141,78.9454,2.62903,0.000380631,-0.00189247,-0.00128573,0.000960136,-0.00247198,-0.423453,0.00204461,0.0437947,1854,883,78.9454,-2.62903
637,141,79.1583,1.97833,0,0,0,0,0,0,0,-1,1861,883,79.1584,-1.97836
644,141,79.0817,2.25232,-0.00159432,-0.00105149,-0.000715841,-0.000557337,-0.00208847,-0.966603,0.00124871,0.0386702,1868,883,79.0816,-2.25234
651,141,79.1024,2.36383,-0.00200433,-0.000963103,-0.00075307,-0.000568209,-0.00239922,-1.08784,0.00144774,0.0364156,1875,883,79.1024,-2.36383
658,141,79.0492,2.27869,-0.00240548,-0.00103245,-0.00116238,-0.00036899,-0.00306895,-1.05214,0.00193473,0.0356126,1882,883,79.0492,-2.2787
665,141,78.8655,2.435,-0.00266671,-0.000641605,-0.00135963,4.10916e-05,-0.0033494,-1.10546,0.00224676,0.0286412,1889,883,78.8655,-2.43498
672,141,78.9227,2.43677,-0.0025466,-0.000711279,-0.001588,0.000205139,-0.00346302,-1.04739,0.00238001,0.020291,1896,883,78.9228,-2.43679
679,141,78.9252,2.42065,-0.00240157,-0.000575731,-0.00176648,0.000499785,-0.00347709,-1.0239,0.00250135,0.0330667,1903,883,78.9251,-2.42063
686,141,78.8916,2.42096,0,0,0,0,0,0,0,-1,1910,883,78.8916,-2.42096
693,141,51.7202,1.76593,0,0,0,0,0,0,0,-1,1917,883,51.7202,-1.76595
700,141,62.7651,1.95361,0,0,0,0,0,0,0,-1,1924,883,62.7651,-1.95364
707,141,68.5621,3.39587,0,0,0,0,0,0,0,-1,1931,883,68.5622,-3.39586
714,141,68.1804,3.99121,-0.0019623,0.000930529,-0.00276883,0.00260798,-0.00363975,-1.0261,0.00362349,0.042077,1938,883,68.1804,-3.99119
721,141,68.1694,4.74249,-0.00185397,0.00156015,-0.00299427,0.00329978,-0.0035936,-1.04447,0.0039811,0.0240421,1945,883,68.1694,-4.74248
728,141,68.3002,5.53485,-0.00216353,0.00245388,-0.00301298,0.00394098,-0.00365063,-1.11231,0.00438409,0.0185749,1952,883,68.3002,-5.53485
735,141,68.225,6.49713,-0.00215285,0.00381409,-0.00302528,0.00507955,-0.00341831,-1.17462,0.00493739,0.0217375,1959,883,68.225,-6.49714
742,141,68.1046,7.29865,-0.00162868,0.00585734,-0.00293936,0.00687353,-0.00264487,-1.23794,0.00567334,0.0216669,1966,883,68.1047,-7.29863
749,141,68.0472,8.04077,-0.000724595,0.00814379,-0.00275385,0.00892935,-0.00151015,-1.29292,0.00651489,0.0154877,1973,883,68.0472,-8.04079
756,141,67.9551,8.84674,0.000375304,0.0105088,-0.00262449,0.0111482,-0.000264077,-1.33183,0.00752168,0.0217557,1980,883,67.955,-8.84673
763,141,67.9878,9.63147,0.00149687,0.012884,-0.00261034,0.0134539,0.000927007,-1.35586,0.00867677,0.0434974,1987,883,67.9878,-9.63145
770,141,67.9922,10.4021,0,0,0,0,0,0,0,-1,1994,883,67.9923,-10.4021
777,141,73.0037,8.44788,0,0,0,0,0,0,0,-1,2001,883,73.0038,-8.44787
784,141,73.3435,9.80182,0,0,0,0,0,0,0,-1,2008,883,73.3434,-9.80183
791,141,73.7993,11.1595,0,0,0,0,0,0,0,-1,2015,883,73.7994,-11.1595
798,141,0,0,0,0,0,0,0,0,0,-1,2022,883,0,0
805,141,0,0,0,0,0,0,0,0,0,-1,2029,883,0,0
812,141,0,0,0,0,0,0,0,0,0,-1,2036,883,0,0
-700,134,0,0,0,0,0,0,0,0,0,-1,524,890,0,0
-693,134,0,0,0,0,0,0,0,0,0,-1,531,890,0,0
-686,134,0,0,0,0,0,0,0,0,0,-1,538,890,0,0
-679,134,0,0,0,0,0,0,0,0,0,-1,545,890,0,0
-672,134,-49.3306,-0.500671,0,0,0,0,0,0,0,-1,552,890,-49.3306,0.500651
-665,134,-49.3356,-3.00098,0,0,0,0,0,0,0,-1,559,890,-49.3356,3.00096
-658,134,-49.3368,-5.46246,0,0,0,0,0,0,0,-1,566,890,-49.3368,5.46248
-651,134,-53.0905,0.530762,0,0,0,0,0,0,0,-1,573,890,-53.0905,-0.530792
-644,134,-51.8253,-1.26782,0,0,0,0,0,0,0,-1,580,890,-51.8253,1.26783
-637,134,-50.5067,-2.83545,0,0,0,0,0,0,0,-1,587,890,-50.5066,2.83545
-630,134,-52.6851,8.82245,0,0,0,0,0,0,0,-1,594,890,-52.6851,-8.82247
-623,134,-52.9445,8.08954,-0.0080086,0.0147746,0.00991295,0.0184838,-0.0117178,1.21274,0.0175822,0.0357215,601,890,-52.9445,-8.08957
-616,134,-53.2864,7.25281,-0.0061869,0.00988532,0.00740502,0.0127769,-0.00907844,1.19852,0.0126782,0.0154468,608,890,-53.2864,-7.2528
-609,134,-53.4179,6.38916,-0.0044005,0.00591607,0.00573737,0.00847306,-0.00695748,1.15155,0.00892314,0.0121752,615,890,-53.4179,-6.38914
-602,134,-53.4426,5.53528,-0.00323951,0.00344745,0.00468069,0.00585617,-0.00564822,1.09553,0.00664242,0.01369,622,890,-53.4426,-5.53525
-595,134,-53.3315,4.73969,-0.00267111,0.00270067,0.00384836,0.00470774,-0.00467818,1.09007,0.00541897,0.0318415,629,890,-53.3315,-4.73968
-588,134,-53.3046,3.92224,0,0,0,0,0,0,0,-1,636,890,-53.3046,-3.92225
-581,134,-53.1306,2.69196,0,0,0,0,0,0,0,-1,643,890,-53.1306,-2.69195
-574,134,-31.1517,0.757751,0,0,0,0,0,0,0,-1,650,890,-31.1517,-0.757758
-567,134,-30.9003,0.296326,0,0,0,0,0,0,0,-1,657,890,-30.9002,-0.296302
-560,134,-22.9123,0.106567,0,0,0,0,0,0,0,-1,664,890,-22.9123,-0.106594
-553,134,-62.7921,0.584717,0,0,0,0,0,0,0,-1,671,890,-62.792,-0.584741
-546,134,-62.8137,0.570068,-0.00242287,0.000317209,0.00285178,0.00211098,-0.00421664,1.00933,0.00372006,0.0320979,678,890,-62.8137,-0.570067
-539,134,-62.8172,0.549316,-0.00304736,0.000231884,0.00256575,0.00163716,-0.00445264,1.06971,0.00363905,0.0182319,685,890,-62.8172,-0.549312
-532,134,-62.8488,0.572693,-0.00214594,-0.000379125,0.00223774,0.00114327,-0.00366834,0.973396,0.0029027,0.0223119,692,890,-62.8488,-0.572684
-525,134,-62.8989,0.624268,-0.00151508,8.75535e-06,0.00256065,0.00191844,-0.00342476,0.930002,0.00312549,0.0339194,699,890,-62.8988,-0.624265
-518,134,-62.9302,0.706055,-0.00118364,0.00121096,0.00312452,0.00335973,-0.0033324,0.968366,0.00386371,0.0415792,706,890,-62.9301,-0.706075
-511,134,-63.0015,0.933533,-0.000601113,0.00273411,0.0035052,0.00494817,-0.00281517,1.00743,0.00453821,0.0440293,713,890,-63.0015,-0.933535
-504,134,0,0,0,0,0,0,0,0,0,-1,720,890,0,0
-497,134,0,0,0,0,0,0,0,0,0,-1,727,890,0,0
-490,134,0,0,0,0,0,0,0,0,0,-1,734,890,0,0
-483,134,0,0,0,0,0,0,0,0,0,-1,741,890,0,0
-476,134,0,0,0,0,0,0,0,0,0,-1,748,890,0,0
-469,134,0,0,0,0,0,0,0,0,0,-1,755,890,0,0
-462,134,0,0,0,0,0,0,0,0,0,-1,762,890,0,0
-455,134,0,0,0,0,0,0,0,0,0,-1,769,890,0,0
-448,134,0,0,0,0,0,0,0,0,0,-1,776,890,0,0
-441,134,0,0,0,0,0,0,0,0,0,-1,783,890,0,0
-434,134,0,0,0,0,0,0,0,0,0,-1,790,890,0,0
-427,134,0,0,0,0,0,0,0,0,0,-1,797,890,0,0
-420,134,0,0,0,0,0,0,0,0,0,-1,804,890,0,0
-413,134,0,0,0,0,0,0,0,0,0,-1,811,890,0,0
-406,134,0,0,0,0,0,0,0,0,0,-1,818,890,0,0
-399,134,0,0,0,0,0,0,0,0,0,-1,825,890,0,0
-392,134,0,0,0,0,0,0,0,0,0,-1,832,890,0,0
-385,134,0,0,0,0,0,0,0,0,0,-1,839,890,0,0
-378,134,0,0,0,0,0,0,0,0,0,-1,846,890,0,0
-371,134,0,0,0,0,0,0,0,0,0,-1,853,890,0,0
-364,134,0,0,0,0,0,0,0,0,0,-1,860,890,0,0
-357,134,0,0,0,0,0,0,0,0,0,-1,867,890,0,0
-350,134,0,0,0,0,0,0,0,0,0,-1,874,890,0,0
-343,134,0,0,0,0,0,0,0,0,0,-1,881,890,0,0
-336,134,0,0,0,0,0,0,0,0,0,-1,888,890,0,0
-329,134,0,0,0,0,0,0,0,0,0,-1,895,890,0,0
-322,134,0,0,0,0,0,0,0,0,0,-1,902,890,0,0
-315,134,0,0,0,0,0,0,0,0,0,-1,909,890,0,0
-308,134,0,0,0,0,0,0,0,0,0,-1,916,890,0,0
-301,134,0,0,0,0,0,0,0,0,0,-1,923,890,0,0
-294,134,0,0,0,0,0,0,0,0,0,-1,930,890,0,0
-287,134,0,0,0,0,0,0,0,0,0,-1,937,890,0,0
-280,134,0,0,0,0,0,0,0,0,0,-1,944,890,0,0
-273,134,0,0,0,0,0,0,0,0,0,-1,951,890,0,0
-266,134,0,0,0,0,0,0,0,0,0,-1,958,890,0,0
-259,134,0,0,0,0,0,0,0,0,0,-1,965,890,0,0
-252,134,0,0,0,0,0,0,0,0,0,-1,972,890,0,0
-245,134,0,0,0,0,0,0,0,0,0,-1,979,890,0,0
-238,134,0,0,0,0,0,0,0,0,0,-1,986,890,0,0
-231,134,0,0,0,0,0,0,0,0,0,-1,993,890,0,0
-224,134,0,0,0,0,0,0,0,0,0,-1,1000,890,0,0
-217,134,0,0,0,0,0,0,0,0,0,-1,1007,890,0,0
-210,134,0,0,0,0,0,0,0,0,0,-1,1014,890,0,0
-203,134,0,0,0,0,0,0,0,0,0,-1,1021,890,0,0
-196,134,0,0,0,0,0,0,0,0,0,-1,1028,890,0,0
-189,134,0,0,0,0,0,0,0,0,0,-1,1035,890,0,0
-182,134,0,0,0,0,0,0,0,0,0,-1,1042,890,0,0
-175,134,0,0,0,0,0,0,0,0,0,-1,1049,890,0,0
-168,134,0,0,0,0,0,0,0,0,0,-1,1056,890,0,0
-161,134,0,0,0,0,0,0,0,0,0,-1,1063,890,0,0
-154,134,0,0,0,0,0,0,0,0,0,-1,1070,890,0,0
-147,134,0,0,0,0,0,0,0,0,0,-1,1077,890,0,0
-140,134,0,0,0,0,0,0,0,0,0,-1,1084,890,0,0
-133,134,0,0,0,0,0,0,0,0,0,-1,1091,890,0,0
-126,134,0,0,0,0,0,0,0,0,0,-1,1098,890,0,0
-119,134,0,0,0,0,0,0,0,0,0,-1,1105,890,0,0
-112,134,0,0,0,0,0,0,0,0,0,-1,1112,890,0,0
-105,134,0,0,0,0,0,0,0,0,0,-1,1119,890,0,0
-98,134,0,0,0,0,0,0,0,0,0,-1,1126,890,0,0
-91,134,0,0,0,0,0,0,0,0,0,-1,1133,890,0,0
-84,134,0,0,0,0,0,0,0,0,0,-1,1140,890,0,0
-77,134,0,0,0,0,0,0,0,0,0,-1,1147,890,0,0
-70,134,0,0,0,0,0,0,0,0,0,-1,1154,890,0,0
-63,134,0,0,0,0,0,0,0,0,0,-1,1161,890,0,0
-56,134,0,0,0,0,0,0,0,0,0,-1,1168,890,0,0
-49,134,0,0,0,0,0,0,0,0,0,-1,1175,890,0,0
-42,134,0,0,0,0,0,0,0,0,0,-1,1182,890,0,0
-35,134,0,0,0,0,0,0,0,0,0,-1,1189,890,0,0
-28,134,0,0,0,0,0,0,0,0,0,-1,1196,890,0,0
-21,134,0,0,0,0,0,0,0,0,0,-1,1203,890,0,0
-14,134,0,0,0,0,0,0,0,0,0,-1,1210,890,0,0
-7,134,0,0,0,0,0,0,0,0,0,-1,1217,890,0,0
0,134,0,0,0,0,0,0,0,0,0,-1,1224,890,0,0
7,134,0,0,0,0,0,0,0,0,0,-1,1231,890,0,0
14,134,0,0,0,0,0,0,0,0,0,-1,1238,890,0,0
21,134,0,0,0,0,0,0,0,0,0,-1,1245,890,0,0
28,134,0,0,0,0,0,0,0,0,0,-1,1252,890,0,0
35,134,0,0,0,0,0,0,0,0,0,-1,1259,890,0,0
42,134,0,0,0,0,0,0,0,0,0,-1,1266,890,0,0
49,134,0,0,0,0,0,0,0,0,0,-1,1273,890,0,0
56,134,0,0,0,0,0,0,0,0,0,-1,1280,890,0,0
63,134,0,0,0,0,0,0,0,0,0,-1,1287,890,0,0
70,134,0,0,0,0,0,0,0,0,0,-1,1294,890,0,0
77,134,0,0,0,0,0,0,0,0,0,-1,1301,890,0,0
84,134,0,0,0,0,0,0,0,0,0,-1,1308,890,0,0
91,134,0,0,0,0,0,0,0,0,0,-1,1315,890,0,0
98,134,0,0,0,0,0,0,0,0,0,-1,1322,890,0,0
105,134,0,0,0,0,0,0,0,0,0,-1,1329,890,0,0
112,134,0,0,0,0,0,0,0,0,0,-1,1336,890,0,0
119,134,0,0,0,0,0,0,0,0,0,-1,1343,890,0,0
126,134,0,0,0,0,0,0,0,0,0,-1,1350,890,0,0
133,134,0,0,0,0,0,0,0,0,0,-1,1357,890,0,0
140,134,0,0,0,0,0,0,0,0,0,-1,1364,890,0,0
147,134,0,0,0,0,0,0,0,0,0,-1,1371,890,0,0
154,134,0,0,0,0,0,0,0,0,0,-1,1378,890,0,0
161,134,0,0,0,0,0,0,0,0,0,-1,1385,890,0,0
168,134,0,0,0,0,0,0,0,0,0,-1,1392,890,0,0
175,134,0,0,0,0,0,0,0,0,0,-1,1399,890,0,0
182,134,0,0,0,0,0,0,0,0,0,-1,1406,890,0,0
189,134,0,0,0,0,0,0,0,0,0,-1,1413,890,0,0
196,134,0,0,0,0,0,0,0,0,0,-1,1420,890,0,0
203,134,0,0,0,0,0,0,0,0,0,-1,1427,890,0,0
210,134,0,0,0,0,0,0,0,0,0,-1,1434,890,0,0
217,134,0,0,0,0,0,0,0,0,0,-1,1441,890,0,0
224,134,0,0,0,0,0,0,0,0,0,-1,1448,890,0,0
231,134,0,0,0,0,0,0,0,0,0,-1,1455,890,0,0
238,134,0,0,0,0,0,0,0,0,0,-1,1462,890,0,0
245,134,0,0,0,0,0,0,0,0,0,-1,1469,890,0,0
252,134,0,0,0,0,0,0,0,0,0,-1,1476,890,0,0
259,134,0,0,0,0,0,0,0,0,0,-1,1483,890,0,0
266,134,0,0,0,0,0,0,0,0,0,-1,1490,890,0,0
273,134,0,0,0,0,0,0,0,0,0,-1,1497,890,0,0
280,134,0,0,0,0,0,0,0,0,0,-1,1504,890,0,0
287,134,0,0,0,0,0,0,0,0,0,-1,1511,890,0,0
294,134,0,0,0,0,0,0,0,0,0,-1,1518,890,0,0
301,134,0,0,0,0,0,0,0,0,0,-1,1525,890,0,0
308,134,0,0,0,0,0,0,0,0,0,-1,1532,890,0,0
315,134,0,0,0,0,0,0,0,0,0,-1,1539,890,0,0
322,134,0,0,0,0,0,0,0,0,0,-1,1546,890,0,0
329,134,0,0,0,0,0,0,0,0,0,-1,1553,890,0,0
336,134,0,0,0,0,0,0,0,0,0,-1,1560,890,0,0
343,134,0,0,0,0,0,0,0,0,0,-1,1567,890,0,0
350,134,0,0,0,0,0,0,0,0,0,-1,1574,890,0,0
357,134,0,0,0,0,0,0,0,0,0,-1,1581,890,0,0
364,134,0,0,0,0,0,0,0,0,0,-1,1588,890,0,0
371,134,0,0,0,0,0,0,0,0,0,-1,1595,890,0,0
378,134,0,0,0,0,0,0,0,0,0,-1,1602,890,0,0
385,134,0,0,0,0,0,0,0,0,0,-1,1609,890,0,0
392,134,0,0,0,0,0,0,0,0,0,-1,1616,890,0,0
399,134,0,0,0,0,0,0,0,0,0,-1,1623,890,0,0
406,134,0,0,0,0,0,0,0,0,0,-1,1630,890,0,0
413,134,0,0,0,0,0,0,0,0,0,-1,1637,890,0,0
420,134,0,0,0,0,0,0,0,0,0,-1,1644,890,0,0
427,134,0,0,0,0,0,0,0,0,0,-1,1651,890,0,0
434,134,0,0,0,0,0,0,0,0,0,-1,1658,890,0,0
441,134,0,0,0,0,0,0,0,0,0,-1,1665,890,0,0
448,134,0,0,0,0,0,0,0,0,0,-1,1672,890,0,0
455,134,0,0,0,0,0,0,0,0,0,-1,1679,890,0,0
462,134,0,0,0,0,0,0,0,0,0,-1,1686,890,0,0
469,134,0,0,0,0,0,0,0,0,0,-1,1693,890,0,0
476,134,0,0,0,0,0,0,0,0,0,-1,1700,890,0,0
483,134,0,0,0,0,0,0,0,0,0,-1,1707,890,0,0
490,134,0,0,0,0,0,0,0,0,0,-1,1714,890,0,0
497,134,0,0,0,0,0,0,0,0,0,-1,1721,890,0,0
504,134,0,0,0,0,0,0,0,0,0,-1,1728,890,0,0
511,134,0,0,0,0,0,0,0,0,0,-1,1735,890,0,0
518,134,0,0,0,0,0,0,0,0,0,-1,1742,890,0,0
525,134,0,0,0,0,0,0,0,0,0,-1,1749,890,0,0
532,134,0,0,0,0,0,0,0,0,0,-1,1756,890,0,0
539,134,0,0,0,0,0,0,0,0,0,-1,1763,890,0,0
546,134,0,0,0,0,0,0,0,0,0,-1,1770,890,0,0
553,134,0,0,0,0,0,0,0,0,0,-1,1777,890,0,0
560,134,0,0,0,0,0,0,0,0,0,-1,1784,890,0,0
567,134,0,0,0,0,0,0,0,0,0,-1,1791,890,0,0
574,134,0,0,0,0,0,0,0,0,0,-1,1798,890,0,0
581,134,0,0,0,0,0,0,0,0,0,-1,1805,890,0,0
588,134,0,0,0,0,0,0,0,0,0,-1,1812,890,0,0
595,134,0,0,0,0,0,0,0,0,0,-1,1819,890,0,0
602,134,0,0,0,0,0,0,0,0,0,-1,1826,890,0,0
609,134,0,0,0,0,0,0,0,0,0,-1,1833,890,0,0
616,134,0,0,0,0,0,0,0,0,0,-1,1840,890,0,0
623,134,78.8121,2.8335,0.00210883,-0.00143967,-0.0018533,0.00290025,-0.00223109,-0.403593,0.00297097,0.0441732,1847,890,78.8121,-2.83349
630,134,78.9164,2.51117,0.000224132,-0.00109634,-0.00102422,0.000782475,-0.00165468,-0.499105,0.00143682,0.044585,1854,890,78.9164,-2.51115
637,134,79.1171,2.14587,-0.000927445,-0.000762593,-0.000677765,-0.00016226,-0.00152778,-0.845908,0.000968971,0.0468681,1861,890,79.1171,-2.14586
644,134,79.1233,2.42084,-0.0017019,-0.000606943,-0.00053126,-0.000391551,-0.00191729,-1.18561,0.00116973,0.0398658,1868,890,79.1233,-2.42083
651,134,79.0861,2.48004,-0.00206077,-0.000636752,-0.000587697,-0.000425535,-0.00227198,-1.22577,0.00139462,0.0402593,1875,890,79.0861,-2.48004
658,134,78.9912,2.32813,-0.00231249,-0.000783064,-0.00094572,-0.000331566,-0.00276399,-1.12538,0.00174269,0.0404315,1882,890,78.9912,-2.32815
665,134,78.9027,2.30518,-0.00242833,-0.000459847,-0.00116412,8.03438e-05,-0.00296852,-1.13633,0.00200633,0.0346386,1889,890,78.9027,-2.30515
672,134,78.9567,2.35004,-0.00230943,-0.000575746,-0.00140553,0.000208752,-0.00309393,-1.06172,0.00213561,0.0214299,1896,890,78.9566,-2.35003
679,134,78.9733,2.32227,-0.00218853,-0.000540371,-0.00157402,0.000412247,-0.00314115,-1.02655,0.00224417,0.0187757,1903,890,78.9733,-2.3223
686,134,78.9718,2.32056,0,0,0,0,0,0,0,-1,1910,890,78.9718,-2.32053
693,134,34.5778,2.48096,0,0,0,0,0,0,0,-1,1917,890,34.5777,-2.48099
700,134,68.9724,1.82471,0,0,0,0,0,0,0,-1,1924,890,68.9724,-1.82469
707,134,68.9515,2.71136,0,0,0,0,0,0,0,-1,1931,890,68.9516,-2.71135
714,134,69.0469,3.71765,-0.00193802,0.000955195,-0.00270725,0.0025781,-0.00356092,-1.03077,0.00355947,0.0303986,1938,890,69.0468,-3.71762
721,134,69.1737,4.59277,-0.00187651,0.00151763,-0.00297961,0.00324957,-0.00360845,-1.04427,0.00396129,0.028921,1945,890,69.1737,-4.59276
728,134,69.2145,5.46326,-0.00239405,0.00232814,-0.00310563,0.00386829,-0.0039342,-1.11042,0.00450483,0.0251988,1952,890,69.2145,-5.46328
735,134,69.1198,6.49707,-0.00265193,0.00360826,-0.00327493,0.00500836,-0.00405203,-1.16679,0.00524073,0.031049,1959,890,69.1198,-6.49706
742,134,68.9937,7.33319,-0.00234483,0.00566366,-0.00337344,0.00689526,-0.00357643,-1.22074,0.00614621,0.0193791,1966,890,68.9937,-7.33318
749,134,68.9669,8.06689,-0.00155278,0.00805602,-0.00329097,0.00907508,-0.00257184,-1.27051,0.00706513,0.0129004,1973,890,68.967,-8.06687
756,134,68.8813,8.82471,-0.000433948,0.010508,-0.00312271,0.0113365,-0.00126241,-1.31147,0.00801168,0.0169139,1980,890,68.8813,-8.82471
763,134,68.8059,9.67877,0.000808705,0.0128197,-0.00293785,0.0134998,0.000128624,-1.34331,0.0089573,0.0380614,1987,890,68.806,-9.67878
770,134,68.7178,10.5494,0,0,0,0,0,0,0,-1,1994,890,68.7178,-10.5495
777,134,74.8572,9.58441,0,0,0,0,0,0,0,-1,2001,890,74.8572,-9.58442
784,134,75.1489,10.8398,0,0,0,0,0,0,0,-1,2008,890,75.1489,-10.8398
791,134,75.4202,12.0895,0,0,0,0,0,0,0,-1,2015,890,75.4202,-12.0896
798,134,0,0,0,0,0,0,0,0,0,-1,2022,890,0,0
805,134,0,0,0,0,0,0,0,0,0,-1,2029,890,0,0
812,134,0,0,0,0,0,0,0,0,0,-1,2036,890,0,0
-700,127,0,0,0,0,0,0,0,0,0,-1,524,897,0,0
-693,127,0,0,0,0,0,0,0,0,0,-1,531,897,0,0
-686,127,0,0,0,0,0,0,0,0,0,-1,538,897,0,0
-679,127,-52.0821,4.30957,0,0,0,0,0,0,0,-1,545,897,-52.0821,-4.30955
-672,127,-50.373,4.8219,0,0,0,0,0,0,0,-1,552,897,-50.373,-4.8219
-665,127,-49.6271,-2.44153,0,0,0,0,0,0,0,-1,559,897,-49.6271,2.44154
-658,127,-48.965,-4.18744,0,0,0,0,0,0,0,-1,566,897,-48.965,4.18745
-651,127,-52.9149,-0.455505,0,0,0,0,0,0,0,-1,573,897,-52.9149,0.455524
-644,127,-51.6913,-2.33765,0,0,0,0,0,0,0,-1,580,897,-51.6914,2.33763
-637,127,-50.3104,-4.18658,0,0,0,0,0,0,0,-1,587,897,-50.3104,4.18656
-630,127,-54.0381,8.58441,0,0,0,0,0,0,0,-1,594,897,-54.0381,-8.5844
-623,127,-54.1257,7.97406,-0.00972952,0.0146636,0.00944549,0.0178934,-0.0129593,1.24132,0.0178886,0.0236906,601,897,-54.1257,-7.97404
-616,127,-54.217,7.25146,-0.0069363,0.00972875,0.00720103,0.0124092,-0.00961676,1.21445,0.0127507,0.0136292,608,897,-54.217,-7.25146
-609,127,-54.3187,6.40485,-0.0044084,0.00571008,0.00571585,0.00828411,-0.00698243,1.14767,0.00882481,0.0147612,615,897,-54.3187,-6.40485
-602,127,-54.3345,5.59735,-0.00304937,0.00336715,0.00465263,0.00581043,-0.00549266,1.08724,0.0065267,0.017378,622,897,-54.3346,-5.59738
-595,127,-54.2573,4.83856,-0.00255883,0.00273396,0.00372301,0.00465531,-0.00448018,1.09437,0.0052747,0.0371893,629,897,-54.2573,-4.83858
-588,127,-54.1346,4.42834,0,0,0,0,0,0,0,-1,636,897,-54.1346,-4.42836
-581,127,-52.8495,2.43585,0,0,0,0,0,0,0,-1,643,897,-52.8495,-2.43585
-574,127,-25.2603,0.511169,0,0,0,0,0,0,0,-1,650,897,-25.2603,-0.51117
-567,127,-24.5417,-0.0447388,0,0,0,0,0,0,0,-1,657,897,-24.5417,0.0447226
-560,127,-18.9678,1.21667,0,0,0,0,0,0,0,-1,664,897,-18.9677,-1.2167
-553,127,-62.8392,0.580261,0,0,0,0,0,0,0,-1,671,897,-62.8393,-0.580231
-546,127,-62.8267,0.567688,-0.0023418,0.000767812,0.00236605,0.00204419,-0.00361818,1.07608,0.00331101,0.022783,678,897,-62.8267,-0.567688
-539,127,-62.8132,0.554932,-0.0029898,0.000875418,0.00200042,0.00172429,-0.00383868,1.16948,0.0032882,0.0214227,685,897,-62.8132,-0.554954
-532,127,-62.8389,0.564392,-0.00217227,0.000712047,0.00194176,0.00168862,-0.00314884,1.10481,0.00283501,0.0174671,692,897,-62.8389,-0.564403
-525,127,-62.9481,0.672546,-0.00181897,0.00132082,0.00267007,0.00284831,-0.00334646,1.05116,0.00358041,0.031986,699,897,-62.9481,-0.672536
-518,127,-62.8659,0.681458,-0.00175858,0.00243833,0.00348034,0.0044039,-0.00372415,1.05669,0.0046982,0.0390926,706,897,-62.8659,-0.681476
-511,127,-62.7488,0.624084,-0.00156966,0.00385429,0.00408163,0.00604278,-0.00375814,1.07863,0.00570958,0.0414404,713,897,-62.7488,-0.624106
-504,127,0,0,0,0,0,0,0,0,0,-1,720,897,0,0
-497,127,0,0,0,0,0,0,0,0,0,-1,727,897,0,0
-490,127,0,0,0,0,0,0,0,0,0,-1,734,897,0,0
-483,127,0,0,0,0,0,0,0,0,0,-1,741,897,0,0
-476,127,0,0,0,0,0,0,0,0,0,-1,748,897,0,0
-469,127,0,0,0,0,0,0,0,0,0,-1,755,897,0,0
-462,127,0,0,0,0,0,0,0,0,0,-1,762,897,0,0
-455,127,0,0,0,0,0,0,0,0,0,-1,769,897,0,0
-448,127,0,0,0,0,0,0,0,0,0,-1,776,897,0,0
-441,127,0,0,0,0,0,0,0,0,0,-1,783,897,0,0
-434,127,0,0,0,0,0,0,0,0,0,-1,790,897,0,0
-427,127,0,0,0,0,0,0,0,0,0,-1,797,897,0,0
-420,127,0,0,0,0,0,0,0,0,0,-1,804,897,0,0
-413,127,0,0,0,0,0,0,0,0,0,-1,811,897,0,0
-406,127,0,0,0,0,0,0,0,0,0,-1,818,897,0,0
-399,127,0,0,0,0,0,0,0,0,0,-1,825,897,0,0
-392,127,0,0,0,0,0,0,0,0,0,-1,832,897,0,0
-385,127,0,0,0,0,0,0,0,0,0,-1,839,897,0,0
-378,127,0,0,0,0,0,0,0,0,0,-1,846,897,0,0
-371,127,0,0,0,0,0,0,0,0,0,-1,853,897,0,0
-364,127,0,0,0,0,0,0,0,0,0,-1,860,897,0,0
-357,127,0,0,0,0,0,0,0,0,0,-1,867,897,0,0
-350,127,0,0,0,0,0,0,0,0,0,-1,874,897,0,0
-343,127,0,0,0,0,0,0,0,0,0,-1,881,897,0,0
-336,127,0,0,0,0,0,0,0,0,0,-1,888,897,0,0
-329,127,0,0,0,0,0,0,0,0,0,-1,895,897,0,0
-322,127,0,0,0,0,0,0,0,0,0,-1,902,897,0,0
-315,127,0,0,0,0,0,0,0,0,0,-1,909,897,0,0
-308,127,0,0,0,0,0,0,0,0,0,-1,916,897,0,0
-301,127,0,0,0,0,0,0,0,0,0,-1,923,897,0,0
-294,127,0,0,0,0,0,0,0,0,0,-1,930,897,0,0
-287,127,0,0,0,0,0,0,0,0,0,-1,937,897,0,0
-280,127,0,0,0,0,0,0,0,0,0,-1,944,897,0,0
-273,127,0,0,0,0,0,0,0,0,0,-1,951,897,0,0
-266,127,0,0,0,0,0,0,0,0,0,-1,958,897,0,0
-259,127,0,0,0,0,0,0,0,0,0,-1,965,897,0,0
-252,127,0,0,0,0,0,0,0,0,0,-1,972,897,0,0
-245,127,0,0,0,0,0,0,0,0,0,-1,979,897,0,0
-238,127,0,0,0,0,0,0,0,0,0,-1,986,897,0,0
-231,127,0,0,0,0,0,0,0,0,0,-1,993,897,0,0
-224,127,0,0,0,0,0,0,0,0,0,-1,1000,897,0,0
-217,127,0,0,0,0,0,0,0,0,0,-1,1007,897,0,0
-210,127,0,0,0,0,0,0,0,0,0,-1,1014,897,0,0
-203,127,0,0,0,0,0,0,0,0,0,-1,1021,897,0,0
-196,127,0,0,0,0,0,0,0,0,0,-1,1028,897,0,0
-189,127,0,0,0,0,0,0,0,0,0,-1,1035,897,0,0
-182,127,0,0,0,0,0,0,0,0,0,-1,1042,897,0,0
-175,127,0,0,0,0,0,0,0,0,0,-1,1049,897,0,0
-168,127,0,0,0,0,0,0,0,0,0,-1,1056,897,0,0
-161,127,0,0,0,0,0,0,0,0,0,-1,1063,897,0,0
-154,127,0,0,0,0,0,0,0,0,0,-1,1070,897,0,0
-147,127,0,0,0,0,0,0,0,0,0,-1,1077,897,0,0
-140,127,0,0,0,0,0,0,0,0,0,-1,1084,897,0,0
-133,127,0,0,0,0,0,0,0,0,0,-1,1091,897,0,0
-126,127,0,0,0,0,0,0,0,0,0,-1,1098,897,0,0
-119,127,0,0,0,0,0,0,0,0,0,-1,1105,897,0,0
-112,127,0,0,0,0,0,0,0,0,0,-1,1112,897,0,0
-105,127,0,0,0,0,0,0,0,0,0,-1,1119,897,0,0
-98,127,0,0,0,0,0,0,0,0,0,-1,1126,897,0,0
-91,127,0,0,0,0,0,0,0,0,0,-1,1133,897,0,0
-84,127,0,0,0,0,0,0,0,0,0,-1,1140,897,0,0
-77,127,0,0,0,0,0,0,0,0,0,-1,1147,897,0,0
-70,127,0,0,0,0,0,0,0,0,0,-1,1154,897,0,0
-63,127,0,0,0,0,0,0,0,0,0,-1,1161,897,0,0
-56,127,0,0,0,0,0,0,0,0,0,-1,1168,897,0,0
-49,127,0,0,0,0,0,0,0,0,0,-1,1175,897,0,0
-42,127,0,0,0,0,0,0,0,0,0,-1,1182,897,0,0
-35,127,0,0,0,0,0,0,0,0,0,-1,1189,897,0,0
-28,127,0,0,0,0,0,0,0,0,0,-1,1196,897,0,0
-21,127,0,0,0,0,0,0,0,0,0,-1,1203,897,0,0
-14,127,0,0,0,0,0,0,0,0,0,-1,1210,897,0,0
-7,127,0,0,0,0,0,0,0,0,0,-1,1217,897,0,0
0,127,0,0,0,0,0,0,0,0,0,-1,1224,897,0,0
7,127,0,0,0,0,0,0,0,0,0,-1,1231,897,0,0
14,127,0,0,0,0,0,0,0,0,0,-1,1238,897,0,0
21,127,0,0,0,0,0,0,0,0,0,-1,1245,897,0,0
28,127,0,0,0,0,0,0,0,0,0,-1,1252,897,0,0
35,127,0,0,0,0,0,0,0,0,0,-1,1259,897,0,0
42,127,0,0,0,0,0,0,0,0,0,-1,1266,897,0,0
49,127,0,0,0,0,0,0,0,0,0,-1,1273,897,0,0
56,127,0,0,0,0,0,0,0,0,0,-1,1280,897,0,0
63,127,0,0,0,0,0,0,0,0,0,-1,1287,897,0,0
70,127,0,0,0,0,0,0,0,0,0,-1,1294,897,0,0
77,127,0,0,0,0,0,0,0,0,0,-1,1301,897,0,0
84,127,0,0,0,0,0,0,0,0,0,-1,1308,897,0,0
91,127,0,0,0,0,0,0,0,0,0,-1,1315,897,0,0
98,127,0,0,0,0,0,0,0,0,0,-1,1322,897,0,0
105,127,0,0,0,0,0,0,0,0,0,-1,1329,897,0,0
112,127,0,0,0,0,0,0,0,0,0,-1,1336,897,0,0
119,127,0,0,0,0,0,0,0,0,0,-1,1343,897,0,0
126,127,0,0,0,0,0,0,0,0,0,-1,1350,897,0,0
133,127,0,0,0,0,0,0,0,0,0,-1,1357,897,0,0
140,127,0,0,0,0,0,0,0,0,0,-1,1364,897,0,0
147,127,0,0,0,0,0,0,0,0,0,-1,1371,897,0,0
154,127,0,0,0,0,0,0,0,0,0,-1,1378,897,0,0
161,127,0,0,0,0,0,0,0,0,0,-1,1385,897,0,0
168,127,0,0,0,0,0,0,0,0,0,-1,1392,897,0,0
175,127,0,0,0,0,0,0,0,0,0,-1,1399,897,0,0
182,127,0,0,0,0,0,0,0,0,0,-1,1406,897,0,0
189,127,0,0,0,0,0,0,0,0,0,-1,1413,897,0,0
196,127,0,0,0,0,0,0,0,0,0,-1,1420,897,0,0
203,127,0,0,0,0,0,0,0,0,0,-1,1427,897,0,0
210,127,0,0,0,0,0,0,0,0,0,-1,1434,897,0,0
217,127,0,0,0,0,0,0,0,0,0,-1,1441,897,0,0
224,127,0,0,0,0,0,0,0,0,0,-1,1448,897,0,0
231,127,0,0,0,0,0,0,0,0,0,-1,1455,897,0,0
238,127,0,0,0,0,0,0,0,0,0,-1,1462,897,0,0
245,127,0,0,0,0,0,0,0,0,0,-1,1469,897,0,0
252,127,0,0,0,0,0,0,0,0,0,-1,1476,897,0,0
259,127,0,0,0,0,0,0,0,0,0,-1,1483,897,0,0
266,127,0,0,0,0,0,0,0,0,0,-1,1490,897,0,0
273,127,0,0,0,0,0,0,0,0,0,-1,1497,897,0,0
280,127,0,0,0,0,0,0,0,0,0,-1,1504,897,0,0
287,127,0,0,0,0,0,0,0,0,0,-1,1511,897,0,0
294,127,0,0,0,0,0,0,0,0,0,-1,1518,897,0,0
301,127,0,0,0,0,0,0,0,0,0,-1,1525,897,0,0
308,127,0,0,0,0,0,0,0,0,0,-1,1532,897,0,0
315,127,0,0,0,0,0,0,0,0,0,-1,1539,897,0,0
322,127,0,0,0,0,0,0,0,0,0,-1,1546,897,0,0
329,127,0,0,0,0,0,0,0,0,0,-1,1553,897,0,0
336,127,0,0,0,0,0,0,0,0,0,-1,1560,897,0,0
343,127,0,0,0,0,0,0,0,0,0,-1,1567,897,0,0
350,127,0,0,0,0,0,0,0,0,0,-1,1574,897,0,0
357,127,0,0,0,0,0,0,0,0,0,-1,1581,897,0,0
364,127,0,0,0,0,0,0,0,0,0,-1,1588,897,0,0
371,127,0,0,0,0,0,0,0,0,0,-1,1595,897,0,0
378,127,0,0,0,0,0,0,0,0,0,-1,1602,897,0,0
385,127,0,0,0,0,0,0,0,0,0,-1,1609,897,0,0
392,127,0,0,0,0,0,0,0,0,0,-1,1616,897,0,0
399,127,0,0,0,0,0,0,0,0,0,-1,1623,897,0,0
406,127,0,0,0,0,0,0,0,0,0,-1,1630,897,0,0
413,127,0,0,0,0,0,0,0,0,0,-1,1637,897,0,0
420,127,0,0,0,0,0,0,0,0,0,-1,1644,897,0,0
427,127,0,0,0,0,0,0,0,0,0,-1,1651,897,0,0
434,127,0,0,0,0,0,0,0,0,0,-1,1658,897,0,0
441,127,0,0,0,0,0,0,0,0,0,-1,1665,897,0,0
448,127,0,0,0,0,0,0,0,0,0,-1,1672,897,0,0
455,127,0,0,0,0,0,0,0,0,0,-1,1679,897,0,0
462,127,0,0,0,0,0,0,0,0,0,-1,1686,897,0,0
469,127,0,0,0,0,0,0,0,0,0,-1,1693,897,0,0
476,127,0,0,0,0,0,0,0,0,0,-1,1700,897,0,0
483,127,0,0,0,0,0,0,0,0,0,-1,1707,897,0,0
490,127,0,0,0,0,0,0,0,0,0,-1,1714,897,0,0
497,127,0,0,0,0,0,0,0,0,0,-1,1721,897,0,0
504,127,0,0,0,0,0,0,0,0,0,-1,1728,897,0,0
511,127,0,0,0,0,0,0,0,0,0,-1,1735,897,0,0
518,127,0,0,0,0,0,0,0,0,0,-1,1742,897,0,0
525,127,0,0,0,0,0,0,0,0,0,-1,1749,897,0,0
532,127,0,0,0,0,0,0,0,0,0,-1,1756,897,0,0
539,127,0,0,0,0,0,0,0,0,0,-1,1763,897,0,0
546,127,0,0,0,0,0,0,0,0,0,-1,1770,897,0,0
553,127,0,0,0,0,0,0,0,0,0,-1,1777,897,0,0
560,127,0,0,0,0,0,0,0,0,0,-1,1784,897,0,0
567,127,0,0,0,0,0,0,0,0,0,-1,1791,897,0,0
574,127,0,0,0,0,0,0,0,0,0,-1,1798,897,0,0
581,127,0,0,0,0,0,0,0,0,0,-1,1805,897,0,0
588,127,0,0,0,0,0,0,0,0,0,-1,1812,897,0,0
595,127,0,0,0,0,0,0,0,0,0,-1,1819,897,0,0
602,127,0,0,0,0,0,0,0,0,0,-1,1826,897,0,0
609,127,0,0,0,0,0,0,0,0,0,-1,1833,897,0,0
616,127,0,0,0,0,0,0,0,0,0,-1,1840,897,0,0
623,127,0,0,0,0,0,0,0,0,0,-1,1847,897,0,0
630,127,78.9884,2.34625,0.000180401,-0.000617017,-0.000413712,0.000356259,-0.000792874,-0.401932,0.000679228,0.0424801,1854,897,78.9884,-2.34625
637,127,79.0433,2.32452,-0.000996943,-0.000347131,-0.000195228,-0.000292988,-0.00105109,-1.30026,0.000626336,0.0425621,1861,897,79.0433,-2.32453
644,127,79.1444,2.6817,-0.00177611,-0.000276451,-0.000169765,-0.000257473,-0.00179509,-1.45947,0.0011208,0.0407011,1868,897,79.1444,-2.6817
651,127,79.014,2.64252,-0.0021168,-0.000387726,-0.000309213,-0.000334092,-0.00217043,-1.39905,0.00134945,0.0414905,1875,897,79.014,-2.64252
658,127,78.8654,2.51996,-0.00226295,-0.000578483,-0.000663924,-0.000348265,-0.00249317,-1.23702,0.00155904,0.040787,1882,897,78.8654,-2.51994
665,127,78.9163,2.45258,-0.00223172,-0.000320222,-0.000922362,5.22636e-05,-0.00260421,-1.18699,0.00175382,0.0385586,1889,897,78.9162,-2.45259
672,127,78.918,2.34003,-0.00208046,-0.000440038,-0.00118739,0.000182883,-0.00270338,-1.08765,0.00186621,0.0329748,1896,897,78.918,-2.34001
679,127,78.9858,2.29138,-0.00197877,-0.000463043,-0.00135294,0.000329834,-0.00277165,-1.0407,0.00196695,0.0236227,1903,897,78.9858,-2.29139
686,127,78.9591,2.3764,0,0,0,0,0,0,0,-1,1910,897,78.9591,-2.37643
693,127,59.2523,2.33673,0,0,0,0,0,0,0,-1,1917,897,59.2524,-2.33674
700,127,58.717,1.80957,0,0,0,0,0,0,0,-1,1924,897,58.717,-1.80956
707,127,69.4174,2.27454,0,0,0,0,0,0,0,-1,1931,897,69.4174,-2.27455
714,127,70.2236,3.79614,-0.00209147,0.00104455,-0.00267623,0.00257829,-0.00362521,-1.05039,0.00359856,0.0294678,1938,897,70.2236,-3.79614
721,127,70.2241,4.80103,-0.0020683,0.0015812,-0.00298236,0.00325276,-0.00373986,-1.05994,0.00404045,0.0287551,1945,897,70.2241,-4.80104
728,127,70.0704,5.62305,-0.00275448,0.00233351,-0.003181,0.00386268,-0.00428366,-1.12269,0.00470538,0.0265448,1952,897,70.0704,-5.62305
735,127,69.9584,6.50842,-0.0032909,0.00348985,-0.00343057,0.0049227,-0.00472374,-1.17515,0.00556977,0.0222862,1959,897,69.9583,-6.50843
742,127,69.8751,7.31342,-0.0033,0.00542309,-0.0035914,0.00671143,-0.00458834,-1.22637,0.0065622,0.0196118,1966,897,69.8751,-7.31341
749,127,69.8257,8.08789,-0.00275784,0.00781051,-0.00347276,0.00884951,-0.00379684,-1.28009,0.00749311,0.013128,1973,897,69.8257,-8.0879
756,127,69.7319,8.80237,-0.001765,0.010294,-0.00313259,0.0110592,-0.00253021,-1.33122,0.00834503,0.0157705,1980,897,69.7319,-8.80238
763,127,69.6624,9.55573,-0.000563813,0.012529,-0.0026724,0.0130535,-0.00108827,-1.37701,0.00908684,0.0265884,1987,897,69.6623,-9.55575
770,127,69.6846,10.3328,0,0,0,0,0,0,0,-1,1994,897,69.6845,-10.3328
777,127,76.3003,10.8735,0,0,0,0,0,0,0,-1,2001,897,76.3003,-10.8735
784,127,76.6069,11.9427,0,0,0,0,0,0,0,-1,2008,897,76.6069,-11.9427
791,127,76.7629,12.9143,0,0,0,0,0,0,0,-1,2015,897,76.763,-12.9143
798,127,0,0,0,0,0,0,0,0,0,-1,2022,897,0,0
805,127,0,0,0,0,0,0,0,0,0,-1,2029,897,0,0
812,127,0,0,0,0,0,0,0,0,0,-1,2036,897,0,0
-700,120,0,0,0,0,0,0,0,0,0,-1,524,904,0,0
-693,120,0,0,0,0,0,0,0,0,0,-1,531,904,0,0
-686,120,0,0,0,0,0,0,0,0,0,-1,538,904,0,0
-679,120,-52.0888,4.76025,0,0,0,0,0,0,0,-1,545,904,-52.0888,-4.76024
-672,120,-51.1454,5.42755,0,0,0,0,0,0,0,-1,552,904,-51.1454,-5.42753
-665,120,-50.2376,-2.67987,0,0,0,0,0,0,0,-1,559,904,-50.2376,2.67988
-658,120,-54.6443,7.5307,0,0,0,0,0,0,0,-1,566,904,-54.6443,-7.53071
-651,120,-52.9452,-1.22644,0,0,0,0,0,0,0,-1,573,904,-52.9452,1.22647
-644,120,-51.6526,-3.15863,0,0,0,0,0,0,0,-1,580,904,-51.6526,3.15864
-637,120,-54.7697,9.38953,0,0,0,0,0,0,0,-1,587,904,-54.7696,-9.3895
-630,120,-54.8745,8.71045,-0.0136517,0.0210159,0.0115022,0.024485,-0.0171208,1.27787,0.0241462,0.0438502,594,904,-54.8745,-8.71043
-623,120,-55.041,7.97443,-0.0103293,0.0151508,0.00887748,0.0179388,-0.0131172,1.2665,0.0180021,0.0150552,601,904,-55.041,-7.97444
-616,120,-55.1262,7.2171,-0.00689789,0.00985145,0.00694136,0.0123542,-0.00940061,1.22475,0.0125987,0.0120326,608,904,-55.1262,-7.21708
-609,120,-55.1741,6.41949,-0.00402062,0.00558399,0.00565296,0.00819911,-0.00663573,1.13751,0.00858074,0.0146363,615,904,-55.174,-6.41952
-602,120,-55.2025,5.6405,-0.00271624,0.00323349,0.00461892,0.00575264,-0.0052354,1.07149,0.00634629,0.0179025,622,904,-55.2024,-5.64052
-595,120,-55.1072,4.8808,-0.00230049,0.00259629,0.00363176,0.00452789,-0.00423209,1.08198,0.00505854,0.0374938,629,904,-55.1072,-4.88081
-588,120,-55.0677,4.26385,0,0,0,0,0,0,0,-1,636,904,-55.0677,-4.26385
-581,120,-55.285,3.46967,0,0,0,0,0,0,0,-1,643,904,-55.285,-3.46969
-574,120,-27.5438,0.505066,0,0,0,0,0,0,0,-1,650,904,-27.5438,-0.505085
-567,120,-25.2822,-0.410645,0,0,0,0,0,0,0,-1,657,904,-25.2821,0.410629
-560,120,-27.3358,1.10327,0,0,0,0,0,0,0,-1,664,904,-27.3358,-1.10324
-553,120,-62.7328,0.737122,0,0,0,0,0,0,0,-1,671,904,-62.7328,-0.73714
-546,120,-62.7841,0.60553,-0.00214123,0.000993421,0.00186232,0.00186018,-0.00300798,1.1352,0.00283655,0.0317222,678,904,-62.7841,-0.605554
-539,120,-62.7879,0.575134,-0.00280261,0.00129344,0.00147579,0.00176977,-0.00327894,1.25859,0.00295797,0.0274569,685,904,-62.7879,-0.575126
-532,120,-62.8478,0.642822,-0.00231164,0.00153951,0.0017757,0.00223328,-0.0030054,1.19833,0.00303549,0.0287606,692,904,-62.8478,-0.642807
-525,120,-62.9547,0.758118,-0.00234795,0.00225196,0.00289017,0.00364563,-0.00374162,1.12148,0.00426515,0.0338782,699,904,-62.9546,-0.758125
-518,120,-62.9473,0.831421,-0.00257018,0.00332857,0.00399248,0.00534293,-0.00458455,1.10352,0.00573721,0.0371484,706,904,-62.9473,-0.831436
-511,120,-62.826,0.987488,-0.00274731,0.00470845,0.00499391,0.00721244,-0.0052513,1.10602,0.00722557,0.0401918,713,904,-62.8261,-0.987467
-504,120,0,0,0,0,0,0,0,0,0,-1,720,904,0,0
-497,120,0,0,0,0,0,0,0,0,0,-1,727,904,0,0
-490,120,0,0,0,0,0,0,0,0,0,-1,734,904,0,0
-483,120,0,0,0,0,0,0,0,0,0,-1,741,904,0,0
-476,120,0,0,0,0,0,0,0,0,0,-1,748,904,0,0
-469,120,0,0,0,0,0,0,0,0,0,-1,755,904,0,0
-462,120,0,0,0,0,0,0,0,0,0,-1,762,904,0,0
-455,120,0,0,0,0,0,0,0,0,0,-1,769,904,0,0
-448,120,0,0,0,0,0,0,0,0,0,-1,776,904,0,0
-441,120,0,0,0,0,0,0,0,0,0,-1,783,904,0,0
-434,120,0,0,0,0,0,0,0,0,0,-1,790,904,0,0
-427,120,0,0,0,0,0,0,0,0,0,-1,797,904,0,0
-420,120,0,0,0,0,0,0,0,0,0,-1,804,904,0,0
-413,120,0,0,0,0,0,0,0,0,0,-1,811,904,0,0
-406,120,0,0,0,0,0,0,0,0,0,-1,818,904,0,0
-399,120,0,0,0,0,0,0,0,0,0,-1,825,904,0,0
-392,120,0,0,0,0,0,0,0,0,0,-1,832,904,0,0
-385,120,0,0,0,0,0,0,0,0,0,-1,839,904,0,0
-378,120,0,0,0,0,0,0,0,0,0,-1,846,904,0,0
-371,120,0,0,0,0,0,0,0,0,0,-1,853,904,0,0
-364,120,0,0,0,0,0,0,0,0,0,-1,860,904,0,0
-357,120,0,0,0,0,0,0,0,0,0,-1,867,904,0,0
-350,120,0,0,0,0,0,0,0,0,0,-1,874,904,0,0
-343,120,0,0,0,0,0,0,0,0,0,-1,881,904,0,0
-336,120,0,0,0,0,0,0,0,0,0,-1,888,904,0,0
-329,120,0,0,0,0,0,0,0,0,0,-1,895,904,0,0
-322,120,0,0,0,0,0,0,0,0,0,-1,902,904,0,0
-315,120,0,0,0,0,0,0,0,0,0,-1,909,904,0,0
-308,120,0,0,0,0,0,0,0,0,0,-1,916,904,0,0
-301,120,0,0,0,0,0,0,0,0,0,-1,923,904,0,0
-294,120,0,0,0,0,0,0,0,0,0,-1,930,904,0,0
-287,120,0,0,0,0,0,0,0,0,0,-1,937,904,0,0
-280,120,0,0,0,0,0,0,0,0,0,-1,944,904,0,0
-273,120,0,0,0,0,0,0,0,0,0,-1,951,904,0,0
-266,120,0,0,0,0,0,0,0,0,0,-1,958,904,0,0
-259,120,0,0,0,0,0,0,0,0,0,-1,965,904,0,0
-252,120,0,0,0,0,0,0,0,0,0,-1,972,904,0,0
-245,120,0,0,0,0,0,0,0,0,0,-1,979,904,0,0
-238,120,0,0,0,0,0,0,0,0,0,-1,986,904,0,0
-231,120,0,0,0,0,0,0,0,0,0,-1,993,904,0,0
-224,120,0,0,0,0,0,0,0,0,0,-1,1000,904,0,0
-217,120,0,0,0,0,0,0,0,0,0,-1,1007,904,0,0
-210,120,0,0,0,0,0,0,0,0,0,-1,1014,904,0,0
-203,120,0,0,0,0,0,0,0,0,0,-1,1021,904,0,0
-196,120,0,0,0,0,0,0,0,0,0,-1,1028,904,0,0
-189,120,0,0,0,0,0,0,0,0,0,-1,1035,904,0,0
-182,120,0,0,0,0,0,0,0,0,0,-1,1042,904,0,0
-175,120,0,0,0,0,0,0,0,0,0,-1,1049,904,0,0
-168,120,0,0,0,0,0,0,0,0,0,-1,1056,904,0,0
-161,120,0,0,0,0,0,0,0,0,0,-1,1063,904,0,0
-154,120,0,0,0,0,0,0,0,0,0,-1,1070,904,0,0
-147,120,0,0,0,0,0,0,0,0,0,-1,1077,904,0,0
-140,120,0,0,0,0,0,0,0,0,0,-1,1084,904,0,0
-133,120,0,0,0,0,0,0,0,0,0,-1,1091,904,0,0
-126,120,0,0,0,0,0,0,0,0,0,-1,1098,904,0,0
-119,120,0,0,0,0,0,0,0,0,0,-1,1105,904,0,0
-112,120,0,0,0,0,0,0,0,0,0,-1,1112,904,0,0
-105,120,0,0,0,0,0,0,0,0,0,-1,1119,904,0,0
-98,120,0,0,0,0,0,0,0,0,0,-1,1126,904,0,0
-91,120,0,0,0,0,0,0,0,0,0,-1,1133,904,0,0
-84,120,0,0,0,0,0,0,0,0,0,-1,1140,904,0,0
-77,120,0,0,0,0,0,0,0,0,0,-1,1147,904,0,0
-70,120,0,0,0,0,0,0,0,0,0,-1,1154,904,0,0
-63,120,0,0,0,0,0,0,0,0,0,-1,1161,904,0,0
-56,120,0,0,0,0,0,0,0,0,0,-1,1168,904,0,0
-49,120,0,0,0,0,0,0,0,0,0,-1,1175,904,0,0
-42,120,0,0,0,0,0,0,0,0,0,-1,1182,904,0,0
-35,120,0,0,0,0,0,0,0,0,0,-1,1189,904,0,0
-28,120,0,0,0,0,0,0,0,0,0,-1,1196,904,0,0
-21,120,0,0,0,0,0,0,0,0,0,-1,1203,904,0,0
-14,120,0,0,0,0,0,0,0,0,0,-1,1210,904,0,0
-7,120,0,0,0,0,0,0,0,0,0,-1,1217,904,0,0
0,120,0,0,0,0,0,0,0,0,0,-1,1224,904,0,0
7,120,0,0,0,0,0,0,0,0,0,-1,1231,904,0,0
14,120,0,0,0,0,0,0,0,0,0,-1,1238,904,0,0
21,120,0,0,0,0,0,0,0,0,0,-1,1245,904,0,0
28,120,0,0,0,0,0,0,0,0,0,-1,1252,904,0,0
35,120,0,0,0,0,0,0,0,0,0,-1,1259,904,0,0
42,120,0,0,0,0,0,0,0,0,0,-1,1266,904,0,0
49,120,0,0,0,0,0,0,0,0,0,-1,1273,904,0,0
56,120,0,0,0,0,0,0,0,0,0,-1,1280,904,0,0
63,120,0,0,0,0,0,0,0,0,0,-1,1287,904,0,0
70,120,0,0,0,0,0,0,0,0,0,-1,1294,904,0,0
77,120,0,0,0,0,0,0,0,0,0,-1,1301,904,0,0
84,120,0,0,0,0,0,0,0,0,0,-1,1308,904,0,0
91,120,0,0,0,0,0,0,0,0,0,-1,1315,904,0,0
98,120,0,0,0,0,0,0,0,0,0,-1,1322,904,0,0
105,120,0,0,0,0,0,0,0,0,0,-1,1329,904,0,0
112,120,0,0,0,0,0,0,0,0,0,-1,1336,904,0,0
119,120,0,0,0,0,0,0,0,0,0,-1,1343,904,0,0
126,120,0,0,0,0,0,0,0,0,0,-1,1350,904,0,0
133,120,0,0,0,0,0,0,0,0,0,-1,1357,904,0,0
140,120,0,0,0,0,0,0,0,0,0,-1,1364,904,0,0
147,120,0,0,0,0,0,0,0,0,0,-1,1371,904,0,0
154,120,0,0,0,0,0,0,0,0,0,-1,1378,904,0,0
161,120,0,0,0,0,0,0,0,0,0,-1,1385,904,0,0
168,120,0,0,0,0,0,0,0,0,0,-1,1392,904,0,0
175,120,0,0,0,0,0,0,0,0,0,-1,1399,904,0,0
182,120,0,0,0,0,0,0,0,0,0,-1,1406,904,0,0
189,120,0,0,0,0,0,0,0,0,0,-1,1413,904,0,0
196,120,0,0,0,0,0,0,0,0,0,-1,1420,904,0,0
203,120,0,0,0,0,0,0,0,0,0,-1,1427,904,0,0
210,120,0,0,0,0,0,0,0,0,0,-1,1434,904,0,0
217,120,0,0,0,0,0,0,0,0,0,-1,1441,904,0,0
224,120,0,0,0,0,0,0,0,0,0,-1,1448,904,0,0
231,120,0,0,0,0,0,0,0,0,0,-1,1455,904,0,0
238,120,0,0,0,0,0,0,0,0,0,-1,1462,904,0,0
245,120,0,0,0,0,0,0,0,0,0,-1,1469,904,0,0
252,120,0,0,0,0,0,0,0,0,0,-1,1476,904,0,0
259,120,0,0,0,0,0,0,0,0,0,-1,1483,904,0,0
266,120,0,0,0,0,0,0,0,0,0,-1,1490,904,0,0
273,120,0,0,0,0,0,0,0,0,0,-1,1497,904,0,0
280,120,0,0,0,0,0,0,0,0,0,-1,1504,904,0,0
287,120,0,0,0,0,0,0,0,0,0,-1,1511,904,0,0
294,120,0,0,0,0,0,0,0,0,0,-1,1518,904,0,0
301,120,0,0,0,0,0,0,0,0,0,-1,1525,904,0,0
308,120,0,0,0,0,0,0,0,0,0,-1,1532,904,0,0
315,120,0,0,0,0,0,0,0,0,0,-1,1539,904,0,0
322,120,0,0,0,0,0,0,0,0,0,-1,1546,904,0,0
329,120,0,0,0,0,0,0,0,0,0,-1,1553,904,0,0
336,120,0,0,0,0,0,0,0,0,0,-1,1560,904,0,0
343,120,0,0,0,0,0,0,0,0,0,-1,1567,904,0,0
350,120,0,0,0,0,0,0,0,0,0,-1,1574,904,0,0
357,120,0,0,0,0,0,0,0,0,0,-1,1581,904,0,0
364,120,0,0,0,0,0,0,0,0,0,-1,1588,904,0,0
371,120,0,0,0,0,0,0,0,0,0,-1,1595,904,0,0
378,120,0,0,0,0,0,0,0,0,0,-1,1602,904,0,0
385,120,0,0,0,0,0,0,0,0,0,-1,1609,904,0,0
392,120,0,0,0,0,0,0,0,0,0,-1,1616,904,0,0
399,120,0,0,0,0,0,0,0,0,0,-1,1623,904,0,0
406,120,0,0,0,0,0,0,0,0,0,-1,1630,904,0,0
413,120,0,0,0,0,0,0,0,0,0,-1,1637,904,0,0
420,120,0,0,0,0,0,0,0,0,0,-1,1644,904,0,0
427,120,0,0,0,0,0,0,0,0,0,-1,1651,904,0,0
434,120,0,0,0,0,0,0,0,0,0,-1,1658,904,0,0
441,120,0,0,0,0,0,0,0,0,0,-1,1665,904,0,0
448,120,0,0,0,0,0,0,0,0,0,-1,1672,904,0,0
455,120,0,0,0,0,0,0,0,0,0,-1,1679,904,0,0
462,120,0,0,0,0,0,0,0,0,0,-1,1686,904,0,0
469,120,0,0,0,0,0,0,0,0,0,-1,1693,904,0,0
476,120,0,0,0,0,0,0,0,0,0,-1,1700,904,0,0
483,120,0,0,0,0,0,0,0,0,0,-1,1707,904,0,0
490,120,0,0,0,0,0,0,0,0,0,-1,1714,904,0,0
497,120,0,0,0,0,0,0,0,0,0,-1,1721,904,0,0
504,120,0,0,0,0,0,0,0,0,0,-1,1728,904,0,0
511,120,0,0,0,0,0,0,0,0,0,-1,1735,904,0,0
518,120,0,0,0,0,0,0,0,0,0,-1,1742,904,0,0
525,120,0,0,0,0,0,0,0,0,0,-1,1749,904,0,0
532,120,0,0,0,0,0,0,0,0,0,-1,1756,904,0,0
539,120,0,0,0,0,0,0,0,0,0,-1,1763,904,0,0
546,120,0,0,0,0,0,0,0,0,0,-1,1770,904,0,0
553,120,0,0,0,0,0,0,0,0,0,-1,1777,904,0,0
560,120,0,0,0,0,0,0,0,0,0,-1,1784,904,0,0
567,120,0,0,0,0,0,0,0,0,0,-1,1791,904,0,0
574,120,0,0,0,0,0,0,0,0,0,-1,1798,904,0,0
581,120,0,0,0,0,0,0,0,0,0,-1,1805,904,0,0
588,120,0,0,0,0,0,0,0,0,0,-1,1812,904,0,0
595,120,0,0,0,0,0,0,0,0,0,-1,1819,904,0,0
602,120,0,0,0,0,0,0,0,0,0,-1,1826,904,0,0
609,120,0,0,0,0,0,0,0,0,0,-1,1833,904,0,0
616,120,0,0,0,0,0,0,0,0,0,-1,1840,904,0,0
623,120,0,0,0,0,0,0,0,0,0,-1,1847,904,0,0
630,120,79.1365,2.31018,0.000255839,-0.000117862,0.000566901,0.000665888,-0.000527911,0.626205,0.000690773,0.0405887,1854,904,79.1365,-2.3102
637,120,79.1554,2.37372,-0.00101418,0.000222588,0.000583488,0.000454414,-0.001246,1.19261,0.00101658,0.0414969,1861,904,79.1554,-2.37372
644,120,79.2058,2.69104,-0.0018292,0.000284989,0.000438929,0.000372493,-0.0019167,1.37402,0.00141837,0.0396588,1868,904,79.2058,-2.69104
651,120,79.0538,2.78558,-0.00217094,0.00013117,0.000156555,0.000141768,-0.00218153,1.50321,0.00150384,0.0405225,1875,904,79.0539,-2.78556
658,120,78.8658,2.65308,-0.00221102,-9.27361e-05,-0.000256242,-6.21801e-05,-0.00224157,-1.45211,0.00147409,0.03902,1882,904,78.8659,-2.65307
665,120,78.8301,2.62903,-0.00199233,6.74011e-05,-0.000601895,0.000230389,-0.00215532,-1.30635,0.00151951,0.0370757,1889,904,78.8301,-2.62901
672,120,78.9148,2.36694,-0.00182425,-0.000102136,-0.0008781,0.000266635,-0.00219303,-1.1732,0.00155852,0.0360029,1896,904,78.9147,-2.36694
679,120,78.9821,2.23395,-0.00176064,-0.000216022,-0.00101907,0.000290329,-0.002267,-1.10965,0.00161682,0.0307071,1903,904,78.982,-2.23396
686,120,78.9375,2.34692,-0.00189379,-0.00019351,-0.00116462,0.000398253,-0.00248555,-1.10068,0.0018045,0.0324058,1910,904,78.9375,-2.34693
693,120,78.9763,2.47638,0,0,0,0,0,0,0,-1,1917,904,78.9763,-2.47636
700,120,42.2007,3.00946,0,0,0,0,0,0,0,-1,1924,904,42.2007,-3.00944
707,120,69.2025,2.91791,0,0,0,0,0,0,0,-1,1931,904,69.2025,-2.9179
714,120,71.5847,3.89215,0,0,0,0,0,0,0,-1,1938,904,71.5848,-3.89217
721,120,71.0404,5.03809,-0.00235686,0.00168397,-0.00284084,0.00314959,-0.00382248,-1.0945,0.00403157,0.025805,1945,904,71.0404,-5.03806
728,120,70.8755,5.80933,-0.00317593,0.00238065,-0.00307134,0.00374385,-0.00453914,-1.15307,0.00478953,0.0179494,1952,904,70.8755,-5.80934
735,120,70.7986,6.51825,-0.00396673,0.00348067,-0.00336624,0.00477668,-0.00526274,-1.20328,0.00579853,0.0156677,1959,904,70.7986,-6.51826
742,120,70.7098,7.33539,-0.0042936,0.00539845,-0.0036186,0.00660042,-0.00549557,-1.2501,0.00699333,0.016331,1966,904,70.7098,-7.33541
749,120,70.6687,8.09814,-0.00406006,0.00799562,-0.00355702,0.00896687,-0.00503131,-1.30424,0.00818763,0.0119957,1973,904,70.6687,-8.09816
756,120,70.5515,8.83331,-0.0032899,0.0108548,-0.00314913,0.0115243,-0.00395933,-1.36134,0.0092883,0.0157482,1980,904,70.5515,-8.83334
763,120,70.405,9.53845,-0.00226229,0.0135141,-0.00250145,0.0139012,-0.00264941,-1.41726,0.0102652,0.0353078,1987,904,70.4049,-9.53844
770,120,70.2908,10.2665,0,0,0,0,0,0,0,-1,1994,904,70.2908,-10.2665
777,120,77.7629,11.9034,0,0,0,0,0,0,0,-1,2001,904,77.763,-11.9034
784,120,78.0063,12.8853,0,0,0,0,0,0,0,-1,2008,904,78.0063,-12.8852
791,120,78.2561,13.8319,0,0,0,0,0,0,0,-1,2015,904,78.2561,-13.8319
798,120,78.5127,14.8143,0,0,0,0,0,0,0,-1,2022,904,78.5128,-14.8143
805,120,0,0,0,0,0,0,0,0,0,-1,2029,904,0,0
812,120,0,0,0,0,0,0,0,0,0,-1,2036,904,0,0
-700,113,0,0,0,0,0,0,0,0,0,-1,524,911,0,0
-693,113,0,0,0,0,0,0,0,0,0,-1,531,911,0,0
-686,113,0,0,0,0,0,0,0,0,0,-1,538,911,0,0
-679,113,-55.4734,4.82983,0,0,0,0,0,0,0,-1,545,911,-55.4735,-4.82983
-672,113,-52.5881,5.49811,0,0,0,0,0,0,0,-1,552,911,-52.5881,-5.49808
-665,113,-56.8114,7.23682,0,0,0,0,0,0,0,-1,559,911,-56.8114,-7.23679
-658,113,-54.1535,7.58624,0,0,0,0,0,0,0,-1,566,911,-54.1535,-7.58627
-651,113,-53.3762,7.8313,0,0,0,0,0,0,0,-1,573,911,-53.3762,-7.8313
-644,113,-48.5211,7.83691,0,0,0,0,0,0,0,-1,580,911,-48.5211,-7.83694
-637,113,-55.6868,9.48615,0,0,0,0,0,0,0,-1,587,911,-55.6868,-9.48616
-630,113,-55.7815,8.72748,-0.0153263,0.0214312,0.0103871,0.0241634,-0.0180585,1.31359,0.0244616,0.0268999,594,911,-55.7815,-8.72747
-623,113,-55.9343,7.96893,-0.0110256,0.0154216,0.00835528,0.0178401,-0.0134441,1.28904,0.0181213,0.0142963,601,911,-55.9343,-7.96893
-616,113,-55.986,7.19604,-0.00681351,0.00979761,0.006798,0.012225,-0.00924085,1.22784,0.0124331,0.0129124,608,911,-55.986,-7.19607
-609,113,-56.0064,6.48474,-0.00356905,0.00527455,0.00569904,0.00806603,-0.00636053,1.11533,0.00834856,0.0120048,615,911,-56.0064,-6.48473
-602,113,-56.0417,5.68054,-0.00224827,0.00293334,0.00468837,0.00569913,-0.00501406,1.03782,0.00618947,0.0212075,622,911,-56.0417,-5.68051
-595,113,-56.0983,5.02417,-0.00181525,0.00223792,0.00368846,0.00441987,-0.0039972,1.0366,0.00486164,0.0301418,629,911,-56.0983,-5.02414
-588,113,-56.0408,4.17505,0,0,0,0,0,0,0,-1,636,911,-56.0408,-4.17506
-581,113,-56.0712,3.38306,0,0,0,0,0,0,0,-1,643,911,-56.0713,-3.38304
-574,113,-56.0623,2.35626,0,0,0,0,0,0,0,-1,650,911,-56.0623,-2.35624
-567,113,-21.8396,0.437378,0,0,0,0,0,0,0,-1,657,911,-21.8396,-0.437351
-560,113,-62.8015,0.645447,0,0,0,0,0,0,0,-1,664,911,-62.8014,-0.645439
-553,113,-62.7645,0.615723,-0.0012255,0.000586168,0.00173527,0.00163781,-0.00227714,1.02595,0.00227032,0.0464199,671,911,-62.7645,-0.615738
-546,113,-62.7767,0.577087,-0.00183383,0.000797742,0.00133893,0.00135919,-0.00239528,1.17374,0.00219499,0.0355062,678,911,-62.7767,-0.577097
-539,113,-62.7709,0.540344,-0.00251044,0.00124103,0.00100349,0.00149259,-0.00276199,1.32518,0.00249256,0.0375698,685,911,-62.7709,-0.540347
-532,113,-62.7469,0.52771,-0.00246763,0.00167784,0.00156272,0.00220093,-0.00299072,1.24779,0.00300894,0.0384571,692,911,-62.7469,-0.527682
-525,113,-62.917,0.640503,-0.00285042,0.00226834,0.0028012,0.00350331,-0.0040854,1.15556,0.00438564,0.0369963,699,911,-62.917,-0.640496
-518,113,-63.047,0.67334,-0.00340112,0.00322236,0.00402272,0.00512117,-0.00529994,1.12978,0.00601692,0.039013,706,911,-63.047,-0.673348
-511,113,-63.0662,0.716858,-0.00397248,0.00456947,0.00526997,0.00708184,-0.00648485,1.12593,0.00783526,0.0417571,713,911,-63.0662,-0.716838
-504,113,0,0,0,0,0,0,0,0,0,-1,720,911,0,0
-497,113,0,0,0,0,0,0,0,0,0,-1,727,911,0,0
-490,113,0,0,0,0,0,0,0,0,0,-1,734,911,0,0
-483,113,0,0,0,0,0,0,0,0,0,-1,741,911,0,0
-476,113,0,0,0,0,0,0,0,0,0,-1,748,911,0,0
-469,113,0,0,0,0,0,0,0,0,0,-1,755,911,0,0
-462,113,0,0,0,0,0,0,0,0,0,-1,762,911,0,0
-455,113,0,0,0,0,0,0,0,0,0,-1,769,911,0,0
-448,113,0,0,0,0,0,0,0,0,0,-1,776,911,0,0
-441,113,0,0,0,0,0,0,0,0,0,-1,783,911,0,0
-434,113,0,0,0,0,0,0,0,0,0,-1,790,911,0,0
-427,113,0,0,0,0,0,0,0,0,0,-1,797,911,0,0
-420,113,0,0,0,0,0,0,0,0,0,-1,804,911,0,0
-413,113,0,0,0,0,0,0,0,0,0,-1,811,911,0,0
-406,113,0,0,0,0,0,0,0,0,0,-1,818,911,0,0
-399,113,0,0,0,0,0,0,0,0,0,-1,825,911,0,0
-392,113,0,0,0,0,0,0,0,0,0,-1,832,911,0,0
-385,113,0,0,0,0,0,0,0,0,0,-1,839,911,0,0
-378,113,0,0,0,0,0,0,0,0,0,-1,846,911,0,0
-371,113,0,0,0,0,0,0,0,0,0,-1,853,911,0,0
-364,113,0,0,0,0,0,0,0,0,0,-1,860,911,0,0
-357,113,0,0,0,0,0,0,0,0,0,-1,867,911,0,0
-350,113,0,0,0,0,0,0,0,0,0,-1,874,911,0,0
-343,113,0,0,0,0,0,0,0,0,0,-1,881,911,0,0
-336,113,0,0,0,0,0,0,0,0,0,-1,888,911,0,0
-329,113,0,0,0,0,0,0,0,0,0,-1,895,911,0,0
-322,113,0,0,0,0,0,0,0,0,0,-1,902,911,0,0
-315,113,0,0,0,0,0,0,0,0,0,-1,909,911,0,0
-308,113,0,0,0,0,0,0,0,0,0,-1,916,911,0,0
-301,113,0,0,0,0,0,0,0,0,0,-1,923,911,0,0
-294,113,0,0,0,0,0,0,0,0,0,-1,930,911,0,0
-287,113,0,0,0,0,0,0,0,0,0,-1,937,911,0,0
-280,113,0,0,0,0,0,0,0,0,0,-1,944,911,0,0
-273,113,0,0,0,0,0,0,0,0,0,-1,951,911,0,0
-266,113,0,0,0,0,0,0,0,0,0,-1,958,911,0,0
-259,113,0,0,0,0,0,0,0,0,0,-1,965,911,0,0
-252,113,0,0,0,0,0,0,0,0,0,-1,972,911,0,0
-245,113,0,0,0,0,0,0,0,0,0,-1,979,911,0,0
-238,113,0,0,0,0,0,0,0,0,0,-1,986,911,0,0
-231,113,0,0,0,0,0,0,0,0,0,-1,993,911,0,0
-224,113,0,0,0,0,0,0,0,0,0,-1,1000,911,0,0
-217,113,0,0,0,0,0,0,0,0,0,-1,1007,911,0,0
-210,113,0,0,0,0,0,0,0,0,0,-1,1014,911,0,0
-203,113,0,0,0,0,0,0,0,0,0,-1,1021,911,0,0
-196,113,0,0,0,0,0,0,0,0,0,-1,1028,911,0,0
-189,113,0,0,0,0,0,0,0,0,0,-1,1035,911,0,0
-182,113,0,0,0,0,0,0,0,0,0,-1,1042,911,0,0
-175,113,0,0,0,0,0,0,0,0,0,-1,1049,911,0,0
-168,113,0,0,0,0,0,0,0,0,0,-1,1056,911,0,0
-161,113,0,0,0,0,0,0,0,0,0,-1,1063,911,0,0
-154,113,0,0,0,0,0,0,0,0,0,-1,1070,911,0,0
-147,113,0,0,0,0,0,0,0,0,0,-1,1077,911,0,0
-140,113,0,0,0,0,0,0,0,0,0,-1,1084,911,0,0
-133,113,0,0,0,0,0,0,0,0,0,-1,1091,911,0,0
-126,113,0,0,0,0,0,0,0,0,0,-1,1098,911,0,0
-119,113,0,0,0,0,0,0,0,0,0,-1,1105,911,0,0
-112,113,0,0,0,0,0,0,0,0,0,-1,1112,911,0,0
-105,113,0,0,0,0,0,0,0,0,0,-1,1119,911,0,0
-98,113,0,0,0,0,0,0,0,0,0,-1,1126,911,0,0
-91,113,0,0,0,0,0,0,0,0,0,-1,1133,911,0,0
-84,113,0,0,0,0,0,0,0,0,0,-1,1140,911,0,0
-77,113,0,0,0,0,0,0,0,0,0,-1,1147,911,0,0
-70,113,0,0,0,0,0,0,0,0,0,-1,1154,911,0,0
-63,113,0,0,0,0,0,0,0,0,0,-1,1161,911,0,0
-56,113,0,0,0,0,0,0,0,0,0,-1,1168,911,0,0
-49,113,0,0,0,0,0,0,0,0,0,-1,1175,911,0,0
-42,113,0,0,0,0,0,0,0,0,0,-1,1182,911,0,0
-35,113,0,0,0,0,0,0,0,0,0,-1,1189,911,0,0
-28,113,0,0,0,0,0,0,0,0,0,-1,1196,911,0,0
-21,113,0,0,0,0,0,0,0,0,0,-1,1203,911,0,0
-14,113,0,0,0,0,0,0,0,0,0,-1,1210,911,0,0
-7,113,0,0,0,0,0,0,0,0,0,-1,1217,911,0,0
0,113,0,0,0,0,0,0,0,0,0,-1,1224,911,0,0
7,113,0,0,0,0,0,0,0,0,0,-1,1231,911,0,0
14,113,0,0,0,0,0,0,0,0,0,-1,1238,911,0,0
21,113,0,0,0,0,0,0,0,0,0,-1,1245,911,0,0
28,113,0,0,0,0,0,0,0,0,0,-1,1252,911,0,0
35,113,0,0,0,0,0,0,0,0,0,-1,1259,911,0,0
42,113,0,0,0,0,0,0,0,0,0,-1,1266,911,0,0
49,113,0,0,0,0,0,0,0,0,0,-1,1273,911,0,0
56,113,0,0,0,0,0,0,0,0,0,-1,1280,911,0,0
63,113,0,0,0,0,0,0,0,0,0,-1,1287,911,0,0
70,113,0,0,0,0,0,0,0,0,0,-1,1294,911,0,0
77,113,0,0,0,0,0,0,0,0,0,-1,1301,911,0,0
84,113,0,0,0,0,0,0,0,0,0,-1,1308,911,0,0
91,113,0,0,0,0,0,0,0,0,0,-1,1315,911,0,0
98,113,0,0,0,0,0,0,0,0,0,-1,1322,911,0,0
105,113,0,0,0,0,0,0,0,0,0,-1,1329,911,0,0
112,113,0,0,0,0,0,0,0,0,0,-1,1336,911,0,0
119,113,0,0,0,0,0,0,0,0,0,-1,1343,911,0,0
126,113,0,0,0,0,0,0,0,0,0,-1,1350,911,0,0
133,113,0,0,0,0,0,0,0,0,0,-1,1357,911,0,0
140,113,0,0,0,0,0,0,0,0,0,-1,1364,911,0,0
147,113,0,0,0,0,0,0,0,0,0,-1,1371,911,0,0
154,113,0,0,0,0,0,0,0,0,0,-1,1378,911,0,0
161,113,0,0,0,0,0,0,0,0,0,-1,1385,911,0,0
168,113,0,0,0,0,0,0,0,0,0,-1,1392,911,0,0
175,113,0,0,0,0,0,0,0,0,0,-1,1399,911,0,0
182,113,0,0,0,0,0,0,0,0,0,-1,1406,911,0,0
189,113,0,0,0,0,0,0,0,0,0,-1,1413,911,0,0
196,113,0,0,0,0,0,0,0,0,0,-1,1420,911,0,0
203,113,0,0,0,0,0,0,0,0,0,-1,1427,911,0,0
210,113,0,0,0,0,0,0,0,0,0,-1,1434,911,0,0
217,113,0,0,0,0,0,0,0,0,0,-1,1441,911,0,0
224,113,0,0,0,0,0,0,0,0,0,-1,1448,911,0,0
231,113,0,0,0,0,0,0,0,0,0,-1,1455,911,0,0
238,113,0,0,0,0,0,0,0,0,0,-1,1462,911,0,0
245,113,0,0,0,0,0,0,0,0,0,-1,1469,911,0,0
252,113,0,0,0,0,0,0,0,0,0,-1,1476,911,0,0
259,113,0,0,0,0,0,0,0,0,0,-1,1483,911,0,0
266,113,0,0,0,0,0,0,0,0,0,-1,1490,911,0,0
273,113,0,0,0,0,0,0,0,0,0,-1,1497,911,0,0
280,113,0,0,0,0,0,0,0,0,0,-1,1504,911,0,0
287,113,0,0,0,0,0,0,0,0,0,-1,1511,911,0,0
294,113,0,0,0,0,0,0,0,0,0,-1,1518,911,0,0
301,113,0,0,0,0,0,0,0,0,0,-1,1525,911,0,0
308,113,0,0,0,0,0,0,0,0,0,-1,1532,911,0,0
315,113,0,0,0,0,0,0,0,0,0,-1,1539,911,0,0
322,113,0,0,0,0,0,0,0,0,0,-1,1546,911,0,0
329,113,0,0,0,0,0,0,0,0,0,-1,1553,911,0,0
336,113,0,0,0,0,0,0,0,0,0,-1,1560,911,0,0
343,113,0,0,0,0,0,0,0,0,0,-1,1567,911,0,0
350,113,0,0,0,0,0,0,0,0,0,-1,1574,911,0,0
357,113,0,0,0,0,0,0,0,0,0,-1,1581,911,0,0
364,113,0,0,0,0,0,0,0,0,0,-1,1588,911,0,0
371,113,0,0,0,0,0,0,0,0,0,-1,1595,911,0,0
378,113,0,0,0,0,0,0,0,0,0,-1,1602,911,0,0
385,113,0,0,0,0,0,0,0,0,0,-1,1609,911,0,0
392,113,0,0,0,0,0,0,0,0,0,-1,1616,911,0,0
399,113,0,0,0,0,0,0,0,0,0,-1,1623,911,0,0
406,113,0,0,0,0,0,0,0,0,0,-1,1630,911,0,0
413,113,0,0,0,0,0,0,0,0,0,-1,1637,911,0,0
420,113,0,0,0,0,0,0,0,0,0,-1,1644,911,0,0
427,113,0,0,0,0,0,0,0,0,0,-1,1651,911,0,0
434,113,0,0,0,0,0,0,0,0,0,-1,1658,911,0,0
441,113,0,0,0,0,0,0,0,0,0,-1,1665,911,0,0
448,113,0,0,0,0,0,0,0,0,0,-1,1672,911,0,0
455,113,0,0,0,0,0,0,0,0,0,-1,1679,911,0,0
462,113,0,0,0,0,0,0,0,0,0,-1,1686,911,0,0
469,113,0,0,0,0,0,0,0,0,0,-1,1693,911,0,0
476,113,0,0,0,0,0,0,0,0,0,-1,1700,911,0,0
483,113,0,0,0,0,0,0,0,0,0,-1,1707,911,0,0
490,113,0,0,0,0,0,0,0,0,0,-1,1714,911,0,0
497,113,0,0,0,0,0,0,0,0,0,-1,1721,911,0,0
504,113,0,0,0,0,0,0,0,0,0,-1,1728,911,0,0
511,113,0,0,0,0,0,0,0,0,0,-1,1735,911,0,0
518,113,0,0,0,0,0,0,0,0,0,-1,1742,911,0,0
525,113,0,0,0,0,0,0,0,0,0,-1,1749,911,0,0
532,113,0,0,0,0,0,0,0,0,0,-1,1756,911,0,0
539,113,0,0,0,0,0,0,0,0,0,-1,1763,911,0,0
546,113,0,0,0,0,0,0,0,0,0,-1,1770,911,0,0
553,113,0,0,0,0,0,0,0,0,0,-1,1777,911,0,0
560,113,0,0,0,0,0,0,0,0,0,-1,1784,911,0,0
567,113,0,0,0,0,0,0,0,0,0,-1,1791,911,0,0
574,113,0,0,0,0,0,0,0,0,0,-1,1798,911,0,0
581,113,0,0,0,0,0,0,0,0,0,-1,1805,911,0,0
588,113,0,0,0,0,0,0,0,0,0,-1,1812,911,0,0
595,113,0,0,0,0,0,0,0,0,0,-1,1819,911,0,0
602,113,0,0,0,0,0,0,0,0,0,-1,1826,911,0,0
609,113,0,0,0,0,0,0,0,0,0,-1,1833,911,0,0
616,113,0,0,0,0,0,0,0,0,0,-1,1840,911,0,0
623,113,0,0,0,0,0,0,0,0,0,-1,1847,911,0,0
630,113,79.1324,2.37262,0.000481597,0.000926821,0.00128226,0.00200564,-0.000597226,0.871346,0.00157439,0.0403837,1854,911,79.1325,-2.37263
637,113,79.1791,2.3974,-0.000981445,0.00106689,0.00119996,0.00162033,-0.00153488,1.13866,0.00182188,0.0414767,1861,911,79.1791,-2.39742
644,113,79.2103,2.64423,-0.00186946,0.00100082,0.0009588,0.00129164,-0.00216028,1.2763,0.00201389,0.0391612,1868,911,79.2104,-2.64422
651,113,79.1071,2.80109,-0.00223016,0.000744095,0.000588237,0.000856208,-0.00234228,1.38246,0.00191193,0.0409396,1875,911,79.107,-2.80108
658,113,79.1801,2.54175,-0.0021973,0.000445424,0.000138784,0.000452692,-0.00220457,1.51847,0.00164155,0.0396491,1882,911,79.1801,-2.54176
665,113,78.9866,2.49042,-0.00180427,0.000431975,-0.000259851,0.000461772,-0.00183406,-1.45662,0.00140221,0.0371372,1889,911,78.9866,-2.49045
672,113,78.9092,2.3786,-0.00164178,0.000154134,-0.000540968,0.000304496,-0.00179214,-1.29969,0.00130813,0.036721,1896,911,78.9092,-2.37863
679,113,78.9596,2.2724,-0.00163793,-0.000103135,-0.000657785,0.000140201,-0.00188126,-1.21648,0.00130342,0.0313545,1903,911,78.9596,-2.27242
686,113,78.9872,2.33795,-0.0017921,-0.00016328,-0.000838824,0.00019145,-0.00214683,-1.17071,0.00149912,0.0264744,1910,911,78.9872,-2.33794
693,113,79.0079,2.27289,0,0,0,0,0,0,0,-1,1917,911,79.008,-2.27286
700,113,43.897,2.79669,0,0,0,0,0,0,0,-1,1924,911,43.897,-2.79671
707,113,69.3839,3.14288,0,0,0,0,0,0,0,-1,1931,911,69.3839,-3.14286
714,113,69.9979,3.82825,0,0,0,0,0,0,0,-1,1938,911,69.998,-3.82826
721,113,71.7253,5.08893,0,0,0,0,0,0,0,-1,1945,911,71.7253,-5.08892
728,113,71.7703,5.8056,-0.00345604,0.00236076,-0.00291064,0.00356705,-0.00466232,-1.1779,0.00476523,0.0281498,1952,911,71.7702,-5.80558
735,113,71.6438,6.60962,-0.00440223,0.00347962,-0.00324263,0.00464218,-0.00556479,-1.22655,0.00590101,0.0249624,1959,911,71.6439,-6.6096
742,113,71.5228,7.31903,-0.00495213,0.00545809,-0.00360745,0.00658598,-0.00608002,-1.26777,0.00731466,0.0154838,1966,911,71.5229,-7.31902
749,113,71.5088,8.07245,-0.00496612,0.00835366,-0.0036836,0.00930449,-0.00591695,-1.31819,0.00886035,0.011068,1973,911,71.5088,-8.07246
756,113,71.406,8.84998,-0.00438051,0.0117033,-0.00334145,0.0123699,-0.00504707,-1.3739,0.0103477,0.0160752,1980,911,71.406,-8.84996
763,113,71.2012,9.73175,-0.00354307,0.0149401,-0.00270155,0.0153269,-0.00392984,-1.4286,0.011749,0.0398119,1987,911,71.2013,-9.73178
770,113,71.0613,10.6243,0,0,0,0,0,0,0,-1,1994,911,71.0614,-10.6244
777,113,58.1719,9.65338,0,0,0,0,0,0,0,-1,2001,911,58.172,-9.6534
784,113,79.3757,13.6559,0,0,0,0,0,0,0,-1,2008,911,79.3756,-13.6559
791,113,79.6433,14.5973,0,0,0,0,0,0,0,-1,2015,911,79.6432,-14.5973
798,113,82.4463,16.4567,0,0,0,0,0,0,0,-1,2022,911,82.4462,-16.4566
805,113,0,0,0,0,0,0,0,0,0,-1,2029,911,0,0
812,113,0,0,0,0,0,0,0,0,0,-1,2036,911,0,0
-700,106,0,0,0,0,0,0,0,0,0,-1,524,918,0,0
-693,106,0,0,0,0,0,0,0,0,0,-1,531,918,0,0
-686,106,0,0,0,0,0,0,0,0,0,-1,538,918,0,0
-679,106,-52.7545,10.0162,0,0,0,0,0,0,0,-1,545,918,-52.7546,-10.0161
-672,106,-55.9772,5.9516,0,0,0,0,0,0,0,-1,552,918,-55.9772,-5.95162
-665,106,-53.5263,9.70886,0,0,0,0,0,0,0,-1,559,918,-53.5263,-9.70888
-658,106,-53.7712,10.2163,0,0,0,0,0,0,0,-1,566,918,-53.7712,-10.2163
-651,106,-52.8008,8.01733,0,0,0,0,0,0,0,-1,573,918,-52.8008,-8.01734
-644,106,-55.4821,10.2918,0,0,0,0,0,0,0,-1,580,918,-55.482,-10.2918
-637,106,-55.9981,9.47473,-0.0141222,0.0297453,0.0130571,0.0333376,-0.0177144,1.30232,0.0299314,0.0454928,587,918,-55.9981,-9.47473
-630,106,-56.5479,8.80371,-0.0129155,0.0228724,0.0101414,0.0255464,-0.0155895,1.31299,0.0239806,0.0204062,594,918,-56.5479,-8.80374
-623,106,-56.7985,7.92029,-0.00935634,0.0160245,0.00828172,0.0184878,-0.0118196,1.2817,0.0176386,0.0204748,601,918,-56.7985,-7.92031
-616,106,-56.8715,7.15375,-0.00589933,0.00968257,0.00677097,0.0122137,-0.00843044,1.21306,0.0119854,0.0201444,608,918,-56.8715,-7.15372
-609,106,-56.8564,6.4903,-0.00291399,0.00512739,0.00572171,0.00809983,-0.00588644,1.09167,0.00810861,0.0138402,615,918,-56.8564,-6.49029
-602,106,-56.8928,5.71368,-0.00178509,0.00286656,0.00469744,0.00578243,-0.00470096,1.01527,0.00606332,0.0234926,622,918,-56.8928,-5.71367
-595,106,-57.0729,4.98633,-0.00129404,0.00209361,0.00373043,0.00449676,-0.00369719,0.998509,0.00473828,0.0287622,629,918,-57.0729,-4.98631
-588,106,-57.1999,4.25323,0,0,0,0,0,0,0,-1,636,918,-57.1999,-4.25325
-581,106,-56.952,3.33875,0,0,0,0,0,0,0,-1,643,918,-56.952,-3.33878
-574,106,-57.3264,2.51984,0,0,0,0,0,0,0,-1,650,918,-57.3264,-2.51985
-567,106,-41.3706,0.420776,0,0,0,0,0,0,0,-1,657,918,-41.3706,-0.420794
-560,106,-62.7364,0.639038,0,0,0,0,0,0,0,-1,664,918,-62.7364,-0.639017
-553,106,-62.8553,0.555542,-0.000884738,0.000358811,0.00120483,0.00109285,-0.00161877,1.02361,0.00157534,0.0332859,671,918,-62.8554,-0.555544
-546,106,-62.8981,0.460205,-0.00155538,0.000662008,0.000796364,0.000918377,-0.00181175,1.25935,0.00160413,0.0367538,678,918,-62.8981,-0.460188
-539,106,-62.8353,0.354553,-0.00227794,0.00117922,0.000507402,0.00125215,-0.00235087,1.42804,0.0021122,0.0397115,685,918,-62.8352,-0.354552
-532,106,-62.6304,0.398987,-0.00267515,0.00160208,0.000960295,0.00180778,-0.00288086,1.35977,0.00273052,0.0392397,692,918,-62.6304,-0.398961
-525,106,-62.802,0.463623,-0.00333813,0.00207906,0.00184517,0.00264783,-0.0039069,1.27179,0.00380758,0.0373036,699,918,-62.802,-0.463605
-518,106,-63.0089,0.480103,-0.00420428,0.00296831,0.0027614,0.00390826,-0.00514422,1.24271,0.00524267,0.0399184,706,918,-63.0088,-0.480094
-511,106,0,0,0,0,0,0,0,0,0,-1,713,918,0,0
-504,106,0,0,0,0,0,0,0,0,0,-1,720,918,0,0
-497,106,0,0,0,0,0,0,0,0,0,-1,727,918,0,0
-490,106,0,0,0,0,0,0,0,0,0,-1,734,918,0,0
-483,106,0,0,0,0,0,0,0,0,0,-1,741,918,0,0
-476,106,0,0,0,0,0,0,0,0,0,-1,748,918,0,0
-469,106,0,0,0,0,0,0,0,0,0,-1,755,918,0,0
-462,106,0,0,0,0,0,0,0,0,0,-1,762,918,0,0
-455,106,0,0,0,0,0,0,0,0,0,-1,769,918,0,0
-448,106,0,0,0,0,0,0,0,0,0,-1,776,918,0,0
-441,106,0,0,0,0,0,0,0,0,0,-1,783,918,0,0
-434,106,0,0,0,0,0,0,0,0,0,-1,790,918,0,0
-427,106,0,0,0,0,0,0,0,0,0,-1,797,918,0,0
-420,106,0,0,0,0,0,0,0,0,0,-1,804,918,0,0
-413,106,0,0,0,0,0,0,0,0,0,-1,811,918,0,0
-406,106,0,0,0,0,0,0,0,0,0,-1,818,918,0,0
-399,106,0,0,0,0,0,0,0,0,0,-1,825,918,0,0
-392,106,0,0,0,0,0,0,0,0,0,-1,832,918,0,0
-385,106,0,0,0,0,0,0,0,0,0,-1,839,918,0,0
-378,106,0,0,0,0,0,0,0,0,0,-1,846,918,0,0
-371,106,0,0,0,0,0,0,0,0,0,-1,853,918,0,0
-364,106,0,0,0,0,0,0,0,0,0,-1,860,918,0,0
-357,106,0,0,0,0,0,0,0,0,0,-1,867,918,0,0
-350,106,0,0,0,0,0,0,0,0,0,-1,874,918,0,0
-343,106,0,0,0,0,0,0,0,0,0,-1,881,918,0,0
-336,106,0,0,0,0,0,0,0,0,0,-1,888,918,0,0
-329,106,0,0,0,0,0,0,0,0,0,-1,895,918,0,0
-322,106,0,0,0,0,0,0,0,0,0,-1,902,918,0,0
-315,106,0,0,0,0,0,0,0,0,0,-1,909,918,0,0
-308,106,0,0,0,0,0,0,0,0,0,-1,916,918,0,0
-301,106,0,0,0,0,0,0,0,0,0,-1,923,918,0,0
-294,106,0,0,0,0,0,0,0,0,0,-1,930,918,0,0
-287,106,0,0,0,0,0,0,0,0,0,-1,937,918,0,0
-280,106,0,0,0,0,0,0,0,0,0,-1,944,918,0,0
-273,106,0,0,0,0,0,0,0,0,0,-1,951,918,0,0
-266,106,0,0,0,0,0,0,0,0,0,-1,958,918,0,0
-259,106,0,0,0,0,0,0,0,0,0,-1,965,918,0,0
-252,106,0,0,0,0,0,0,0,0,0,-1,972,918,0,0
-245,106,0,0,0,0,0,0,0,0,0,-1,979,918,0,0
-238,106,0,0,0,0,0,0,0,0,0,-1,986,918,0,0
-231,106,0,0,0,0,0,0,0,0,0,-1,993,918,0,0
-224,106,0,0,0,0,0,0,0,0,0,-1,1000,918,0,0
-217,106,0,0,0,0,0,0,0,0,0,-1,1007,918,0,0
-210,106,0,0,0,0,0,0,0,0,0,-1,1014,918,0,0
-203,106,0,0,0,0,0,0,0,0,0,-1,1021,918,0,0
-196,106,0,0,0,0,0,0,0,0,0,-1,1028,918,0,0
-189,106,0,0,0,0,0,0,0,0,0,-1,1035,918,0,0
-182,106,0,0,0,0,0,0,0,0,0,-1,1042,918,0,0
-175,106,0,0,0,0,0,0,0,0,0,-1,1049,918,0,0
-168,106,0,0,0,0,0,0,0,0,0,-1,1056,918,0,0
-161,106,0,0,0,0,0,0,0,0,0,-1,1063,918,0,0
-154,106,0,0,0,0,0,0,0,0,0,-1,1070,918,0,0
-147,106,0,0,0,0,0,0,0,0,0,-1,1077,918,0,0
-140,106,0,0,0,0,0,0,0,0,0,-1,1084,918,0,0
-133,106,0,0,0,0,0,0,0,0,0,-1,1091,918,0,0
-126,106,0,0,0,0,0,0,0,0,0,-1,1098,918,0,0
-119,106,0,0,0,0,0,0,0,0,0,-1,1105,918,0,0
-112,106,0,0,0,0,0,0,0,0,0,-1,1112,918,0,0
-105,106,0,0,0,0,0,0,0,0,0,-1,1119,918,0,0
-98,106,0,0,0,0,0,0,0,0,0,-1,1126,918,0,0
-91,106,0,0,0,0,0,0,0,0,0,-1,1133,918,0,0
-84,106,0,0,0,0,0,0,0,0,0,-1,1140,918,0,0
-77,106,0,0,0,0,0,0,0,0,0,-1,1147,918,0,0
-70,106,0,0,0,0,0,0,0,0,0,-1,1154,918,0,0
-63,106,0,0,0,0,0,0,0,0,0,-1,1161,918,0,0
-56,106,0,0,0,0,0,0,0,0,0,-1,1168,918,0,0
-49,106,0,0,0,0,0,0,0,0,0,-1,1175,918,0,0
-42,106,0,0,0,0,0,0,0,0,0,-1,1182,918,0,0
-35,106,0,0,0,0,0,0,0,0,0,-1,1189,918,0,0
-28,106,0,0,0,0,0,0,0,0,0,-1,1196,918,0,0
-21,106,0,0,0,0,0,0,0,0,0,-1,1203,918,0,0
-14,106,0,0,0,0,0,0,0,0,0,-1,1210,918,0,0
-7,106,0,0,0,0,0,0,0,0,0,-1,1217,918,0,0
0,106,0,0,0,0,0,0,0,0,0,-1,1224,918,0,0
7,106,0,0,0,0,0,0,0,0,0,-1,1231,918,0,0
14,106,0,0,0,0,0,0,0,0,0,-1,1238,918,0,0
21,106,0,0,0,0,0,0,0,0,0,-1,1245,918,0,0
28,106,0,0,0,0,0,0,0,0,0,-1,1252,918,0,0
35,106,0,0,0,0,0,0,0,0,0,-1,1259,918,0,0
42,106,0,0,0,0,0,0,0,0,0,-1,1266,918,0,0
49,106,0,0,0,0,0,0,0,0,0,-1,1273,918,0,0
56,106,0,0,0,0,0,0,0,0,0,-1,1280,918,0,0
63,106,0,0,0,0,0,0,0,0,0,-1,1287,918,0,0
70,106,0,0,0,0,0,0,0,0,0,-1,1294,918,0,0
77,106,0,0,0,0,0,0,0,0,0,-1,1301,918,0,0
84,106,0,0,0,0,0,0,0,0,0,-1,1308,918,0,0
91,106,0,0,0,0,0,0,0,0,0,-1,1315,918,0,0
98,106,0,0,0,0,0,0,0,0,0,-1,1322,918,0,0
105,106,0,0,0,0,0,0,0,0,0,-1,1329,918,0,0
112,106,0,0,0,0,0,0,0,0,0,-1,1336,918,0,0
119,106,0,0,0,0,0,0,0,0,0,-1,1343,918,0,0
126,106,0,0,0,0,0,0,0,0,0,-1,1350,918,0,0
133,106,0,0,0,0,0,0,0,0,0,-1,1357,918,0,0
140,106,0,0,0,0,0,0,0,0,0,-1,1364,918,0,0
147,106,0,0,0,0,0,0,0,0,0,-1,1371,918,0,0
154,106,0,0,0,0,0,0,0,0,0,-1,1378,918,0,0
161,106,0,0,0,0,0,0,0,0,0,-1,1385,918,0,0
168,106,0,0,0,0,0,0,0,0,0,-1,1392,918,0,0
175,106,0,0,0,0,0,0,0,0,0,-1,1399,918,0,0
182,106,0,0,0,0,0,0,0,0,0,-1,1406,918,0,0
189,106,0,0,0,0,0,0,0,0,0,-1,1413,918,0,0
196,106,0,0,0,0,0,0,0,0,0,-1,1420,918,0,0
203,106,0,0,0,0,0,0,0,0,0,-1,1427,918,0,0
210,106,0,0,0,0,0,0,0,0,0,-1,1434,918,0,0
217,106,0,0,0,0,0,0,0,0,0,-1,1441,918,0,0
224,106,0,0,0,0,0,0,0,0,0,-1,1448,918,0,0
231,106,0,0,0,0,0,0,0,0,0,-1,1455,918,0,0
238,106,0,0,0,0,0,0,0,0,0,-1,1462,918,0,0
245,106,0,0,0,0,0,0,0,0,0,-1,1469,918,0,0
252,106,0,0,0,0,0,0,0,0,0,-1,1476,918,0,0
259,106,0,0,0,0,0,0,0,0,0,-1,1483,918,0,0
266,106,0,0,0,0,0,0,0,0,0,-1,1490,918,0,0
273,106,0,0,0,0,0,0,0,0,0,-1,1497,918,0,0
280,106,0,0,0,0,0,0,0,0,0,-1,1504,918,0,0
287,106,0,0,0,0,0,0,0,0,0,-1,1511,918,0,0
294,106,0,0,0,0,0,0,0,0,0,-1,1518,918,0,0
301,106,0,0,0,0,0,0,0,0,0,-1,1525,918,0,0
308,106,0,0,0,0,0,0,0,0,0,-1,1532,918,0,0
315,106,0,0,0,0,0,0,0,0,0,-1,1539,918,0,0
322,106,0,0,0,0,0,0,0,0,0,-1,1546,918,0,0
329,106,0,0,0,0,0,0,0,0,0,-1,1553,918,0,0
336,106,0,0,0,0,0,0,0,0,0,-1,1560,918,0,0
343,106,0,0,0,0,0,0,0,0,0,-1,1567,918,0,0
350,106,0,0,0,0,0,0,0,0,0,-1,1574,918,0,0
357,106,0,0,0,0,0,0,0,0,0,-1,1581,918,0,0
364,106,0,0,0,0,0,0,0,0,0,-1,1588,918,0,0
371,106,0,0,0,0,0,0,0,0,0,-1,1595,918,0,0
378,106,0,0,0,0,0,0,0,0,0,-1,1602,918,0,0
385,106,0,0,0,0,0,0,0,0,0,-1,1609,918,0,0
392,106,0,0,0,0,0,0,0,0,0,-1,1616,918,0,0
399,106,0,0,0,0,0,0,0,0,0,-1,1623,918,0,0
406,106,0,0,0,0,0,0,0,0,0,-1,1630,918,0,0
413,106,0,0,0,0,0,0,0,0,0,-1,1637,918,0,0
420,106,0,0,0,0,0,0,0,0,0,-1,1644,918,0,0
427,106,0,0,0,0,0,0,0,0,0,-1,1651,918,0,0
434,106,0,0,0,0,0,0,0,0,0,-1,1658,918,0,0
441,106,0,0,0,0,0,0,0,0,0,-1,1665,918,0,0
448,106,0,0,0,0,0,0,0,0,0,-1,1672,918,0,0
455,106,0,0,0,0,0,0,0,0,0,-1,1679,918,0,0
462,106,0,0,0,0,0,0,0,0,0,-1,1686,918,0,0
469,106,0,0,0,0,0,0,0,0,0,-1,1693,918,0,0
476,106,0,0,0,0,0,0,0,0,0,-1,1700,918,0,0
483,106,0,0,0,0,0,0,0,0,0,-1,1707,918,0,0
490,106,0,0,0,0,0,0,0,0,0,-1,1714,918,0,0
497,106,0,0,0,0,0,0,0,0,0,-1,1721,918,0,0
504,106,0,0,0,0,0,0,0,0,0,-1,1728,918,0,0
511,106,0,0,0,0,0,0,0,0,0,-1,1735,918,0,0
518,106,0,0,0,0,0,0,0,0,0,-1,1742,918,0,0
525,106,0,0,0,0,0,0,0,0,0,-1,1749,918,0,0
532,106,0,0,0,0,0,0,0,0,0,-1,1756,918,0,0
539,106,0,0,0,0,0,0,0,0,0,-1,1763,918,0,0
546,106,0,0,0,0,0,0,0,0,0,-1,1770,918,0,0
553,106,0,0,0,0,0,0,0,0,0,-1,1777,918,0,0
560,106,0,0,0,0,0,0,0,0,0,-1,1784,918,0,0
567,106,0,0,0,0,0,0,0,0,0,-1,1791,918,0,0
574,106,0,0,0,0,0,0,0,0,0,-1,1798,918,0,0
581,106,0,0,0,0,0,0,0,0,0,-1,1805,918,0,0
588,106,0,0,0,0,0,0,0,0,0,-1,1812,918,0,0
595,106,0,0,0,0,0,0,0,0,0,-1,1819,918,0,0
602,106,0,0,0,0,0,0,0,0,0,-1,1826,918,0,0
609,106,0,0,0,0,0,0,0,0,0,-1,1833,918,0,0
616,106,0,0,0,0,0,0,0,0,0,-1,1840,918,0,0
623,106,0,0,0,0,0,0,0,0,0,-1,1847,918,0,0
630,106,78.9751,2.53552,0.000385292,0.00249031,0.00206998,0.00375999,-0.000884393,1.0206,0.00284761,0.0425581,1854,918,78.9751,-2.53549
637,106,78.9939,2.53235,-0.00121538,0.00227157,0.00189535,0.00310337,-0.00204718,1.15724,0.00299444,0.04293,1861,918,78.9939,-2.53236
644,106,79.1514,2.55151,-0.002149,0.00196681,0.00155037,0.00248546,-0.00266765,1.24797,0.00297577,0.0417106,1868,918,79.1513,-2.55152
651,106,79.3589,2.39099,-0.00247016,0.00151681,0.00110431,0.00180225,-0.0027556,1.31786,0.00265059,0.0428559,1875,918,79.3589,-2.391
658,106,79.3491,2.43146,-0.00233813,0.0010726,0.000621832,0.00118243,-0.00244796,1.39597,0.00213804,0.0388428,1882,918,79.3492,-2.43143
665,106,79.0879,2.47363,-0.00176256,0.000824605,0.000177311,0.000836701,-0.00177465,1.50269,0.00153974,0.0374622,1889,918,79.0879,-2.47365
672,106,78.9263,2.44482,-0.00149163,0.000403271,-0.000123389,0.000411272,-0.00149964,-1.50604,0.00116138,0.0393257,1896,918,78.9263,-2.44483
679,106,78.9417,2.35406,-0.00147314,-4.03704e-05,-0.000243375,-1.58558e-07,-0.00151335,-1.40705,0.00100885,0.0334297,1903,918,78.9416,-2.35404
686,106,78.9666,2.39044,-0.00159742,-0.000228992,-0.000489317,-7.2028e-05,-0.00175439,-1.26039,0.00114634,0.0294309,1910,918,78.9666,-2.39044
693,106,78.9824,2.29492,-0.00183391,-0.000166243,-0.000904717,0.000230285,-0.00223044,-1.15772,0.00156936,0.0379519,1917,918,78.9824,-2.2949
700,106,79.1038,2.18011,0,0,0,0,0,0,0,-1,1924,918,79.1038,-2.1801
707,106,59.4137,3.22595,0,0,0,0,0,0,0,-1,1931,918,59.4136,-3.22598
714,106,72.2664,4.18872,0,0,0,0,0,0,0,-1,1938,918,72.2664,-4.18875
721,106,72.6079,5.13647,-0.00266675,0.00159379,-0.0025428,0.00278073,-0.0038537,-1.13407,0.00384705,0.0358889,1945,918,72.6079,-5.13647
728,106,72.6382,5.93787,-0.0036139,0.00232853,-0.00278478,0.00342955,-0.00471493,-1.19429,0.0047217,0.0340839,1952,918,72.6382,-5.93787
735,106,72.5201,6.66919,-0.00464938,0.00354058,-0.00317925,0.00462985,-0.00573865,-1.24071,0.00599766,0.0294665,1959,918,72.5201,-6.66918
742,106,72.3877,7.32935,-0.00538986,0.00557719,-0.00368397,0.00669978,-0.00651244,-1.27501,0.00762833,0.0149004,1966,918,72.3877,-7.32936
749,106,72.334,8.04956,-0.00567514,0.00871246,-0.0040009,0.00975018,-0.00671286,-1.31702,0.00955871,0.0112433,1973,918,72.334,-8.04956
756,106,72.2427,8.77625,-0.00530757,0.0125241,-0.00389969,0.0133397,-0.00612311,-1.36464,0.0114914,0.014172,1980,918,72.2427,-8.77623
763,106,72.1135,9.63922,-0.00465581,0.0163402,-0.00349533,0.0169068,-0.00522241,-1.41009,0.0133567,0.0318706,1987,918,72.1134,-9.63921
770,106,72.0229,10.5114,0,0,0,0,0,0,0,-1,1994,918,72.0231,-10.5114
777,106,73.199,10.4978,0,0,0,0,0,0,0,-1,2001,918,73.199,-10.4978
784,106,73.127,10.9843,0,0,0,0,0,0,0,-1,2008,918,73.1268,-10.9843
791,106,70.8381,11.1007,0,0,0,0,0,0,0,-1,2015,918,70.8382,-11.1007
798,106,71.9023,11.7274,0,0,0,0,0,0,0,-1,2022,918,71.9024,-11.7274
805,106,0,0,0,0,0,0,0,0,0,-1,2029,918,0,0
812,106,0,0,0,0,0,0,0,0,0,-1,2036,918,0,0
-700,99,0,0,0,0,0,0,0,0,0,-1,524,925,0,0
-693,99,0,0,0,0,0,0,0,0,0,-1,531,925,0,0
-686,99,0,0,0,0,0,0,0,0,0,-1,538,925,0,0
-679,99,-53.1852,10.2767,0,0,0,0,0,0,0,-1,545,925,-53.1852,-10.2767
-672,99,-53.4276,9.64172,0,0,0,0,0,0,0,-1,552,925,-53.4276,-9.64175
-665,99,-53.4944,9.35168,0,0,0,0,0,0,0,-1,559,925,-53.4944,-9.35171
-658,99,-54.2926,7.97803,0,0,0,0,0,0,0,-1,566,925,-54.2926,-7.97804
-651,99,-55.3055,8.14996,0,0,0,0,0,0,0,-1,573,925,-55.3055,-8.14996
-644,99,-56.7547,10.1193,0,0,0,0,0,0,0,-1,580,925,-56.7547,-10.1192
-637,99,-57.0238,9.40747,-0.00998658,0.0319593,0.0138868,0.03614,-0.0141673,1.27837,0.0299542,0.0384362,587,925,-57.0238,-9.40746
-630,99,-57.3704,8.74219,-0.0101461,0.0244779,0.0106749,0.0275045,-0.0131727,1.29452,0.0239659,0.0208969,594,925,-57.3704,-8.7422
-623,99,-57.6628,7.95166,-0.00736312,0.0168009,0.00865045,0.0195784,-0.0101406,1.26011,0.0174443,0.0144377,601,925,-57.6628,-7.95167
-616,99,-57.6861,7.19183,-0.00468307,0.00988696,0.00699124,0.0126989,-0.00749503,1.18838,0.0117873,0.0164285,608,925,-57.6861,-7.19181
-609,99,-57.6841,6.52844,-0.00228762,0.0051954,0.00584564,0.00839438,-0.0054866,1.07007,0.00807259,0.0134762,615,925,-57.6842,-6.52846
-602,99,-57.6816,5.83612,-0.00141408,0.00290128,0.00479633,0.00600291,-0.00451571,0.996767,0.00609313,0.0193776,622,925,-57.6816,-5.83613
-595,99,-57.8268,5.12372,-0.000893729,0.00200199,0.00385956,0.00467633,-0.00356806,0.964843,0.00477422,0.0262004,629,925,-57.8268,-5.12374
-588,99,-57.4014,4.28619,0,0,0,0,0,0,0,-1,636,925,-57.4014,-4.2862
-581,99,-58.0361,3.38824,0,0,0,0,0,0,0,-1,643,925,-58.0361,-3.38823
-574,99,-58.6707,2.4903,0,0,0,0,0,0,0,-1,650,925,-58.6707,-2.49027
-567,99,-50.5977,0.659485,0,0,0,0,0,0,0,-1,657,925,-50.5977,-0.659461
-560,99,-62.6115,0.768066,0,0,0,0,0,0,0,-1,664,925,-62.6115,-0.76809
-553,99,-62.8109,0.65094,-0.000715926,0.000189816,0.000664184,0.00054083,-0.00106694,1.08462,0.000944668,0.0364187,671,925,-62.8108,-0.650912
-546,99,-62.8275,0.397156,-0.00140147,0.000651249,0.000212675,0.000673052,-0.00142327,1.46864,0.00123588,0.0394123,678,925,-62.8275,-0.39718
-539,99,-62.7286,0.118713,-0.00214487,0.00132141,-0.000129837,0.00132627,-0.00214973,-1.53341,0.00202555,0.0403731,685,925,-62.7287,-0.118718
-532,99,-62.6363,0.395508,-0.00278919,0.0018891,-2.61168e-05,0.00188925,-0.00278934,-1.56521,0.0027178,0.0419614,692,925,-62.6363,-0.395482
-525,99,-62.6854,0.520325,-0.00368841,0.00255128,0.000312552,0.0025669,-0.00370402,1.52087,0.00364031,0.040256,699,925,-62.6854,-0.520297
-518,99,-62.8135,0.529297,-0.00486174,0.00373264,0.000724262,0.00379325,-0.00492235,1.48731,0.00504601,0.0392075,706,925,-62.8135,-0.529271
-511,99,0,0,0,0,0,0,0,0,0,-1,713,925,0,0
-504,99,0,0,0,0,0,0,0,0,0,-1,720,925,0,0
-497,99,0,0,0,0,0,0,0,0,0,-1,727,925,0,0
-490,99,0,0,0,0,0,0,0,0,0,-1,734,925,0,0
-483,99,0,0,0,0,0,0,0,0,0,-1,741,925,0,0
-476,99,0,0,0,0,0,0,0,0,0,-1,748,925,0,0
-469,99,0,0,0,0,0,0,0,0,0,-1,755,925,0,0
-462,99,0,0,0,0,0,0,0,0,0,-1,762,925,0,0
-455,99,0,0,0,0,0,0,0,0,0,-1,769,925,0,0
-448,99,0,0,0,0,0,0,0,0,0,-1,776,925,0,0
-441,99,0,0,0,0,0,0,0,0,0,-1,783,925,0,0
-434,99,0,0,0,0,0,0,0,0,0,-1,790,925,0,0
-427,99,0,0,0,0,0,0,0,0,0,-1,797,925,0,0
-420,99,0,0,0,0,0,0,0,0,0,-1,804,925,0,0
-413,99,0,0,0,0,0,0,0,0,0,-1,811,925,0,0
-406,99,0,0,0,0,0,0,0,0,0,-1,818,925,0,0
-399,99,0,0,0,0,0,0,0,0,0,-1,825,925,0,0
-392,99,0,0,0,0,0,0,0,0,0,-1,832,925,0,0
-385,99,0,0,0,0,0,0,0,0,0,-1,839,925,0,0
-378,99,0,0,0,0,0,0,0,0,0,-1,846,925,0,0
-371,99,0,0,0,0,0,0,0,0,0,-1,853,925,0,0
-364,99,0,0,0,0,0,0,0,0,0,-1,860,925,0,0
-357,99,0,0,0,0,0,0,0,0,0,-1,867,925,0,0
-350,99,0,0,0,0,0,0,0,0,0,-1,874,925,0,0
-343,99,0,0,0,0,0,0,0,0,0,-1,881,925,0,0
-336,99,0,0,0,0,0,0,0,0,0,-1,888,925,0,0
-329,99,0,0,0,0,0,0,0,0,0,-1,895,925,0,0
-322,99,0,0,0,0,0,0,0,0,0,-1,902,925,0,0
-315,99,0,0,0,0,0,0,0,0,0,-1,909,925,0,0
-308,99,0,0,0,0,0,0,0,0,0,-1,916,925,0,0
-301,99,0,0,0,0,0,0,0,0,0,-1,923,925,0,0
-294,99,0,0,0,0,0,0,0,0,0,-1,930,925,0,0
-287,99,0,0,0,0,0,0,0,0,0,-1,937,925,0,0
-280,99,0,0,0,0,0,0,0,0,0,-1,944,925,0,0
-273,99,0,0,0,0,0,0,0,0,0,-1,951,925,0,0
-266,99,0,0,0,0,0,0,0,0,0,-1,958,925,0,0
-259,99,0,0,0,0,0,0,0,0,0,-1,965,925,0,0
-252,99,0,0,0,0,0,0,0,0,0,-1,972,925,0,0
-245,99,0,0,0,0,0,0,0,0,0,-1,979,925,0,0
-238,99,0,0,0,0,0,0,0,0,0,-1,986,925,0,0
-231,99,0,0,0,0,0,0,0,0,0,-1,993,925,0,0
-224,99,0,0,0,0,0,0,0,0,0,-1,1000,925,0,0
-217,99,0,0,0,0,0,0,0,0,0,-1,1007,925,0,0
-210,99,0,0,0,0,0,0,0,0,0,-1,1014,925,0,0
-203,99,0,0,0,0,0,0,0,0,0,-1,1021,925,0,0
-196,99,0,0,0,0,0,0,0,0,0,-1,1028,925,0,0
-189,99,0,0,0,0,0,0,0,0,0,-1,1035,925,0,0
-182,99,0,0,0,0,0,0,0,0,0,-1,1042,925,0,0
-175,99,0,0,0,0,0,0,0,0,0,-1,1049,925,0,0
-168,99,0,0,0,0,0,0,0,0,0,-1,1056,925,0,0
-161,99,0,0,0,0,0,0,0,0,0,-1,1063,925,0,0
-154,99,0,0,0,0,0,0,0,0,0,-1,1070,925,0,0
-147,99,0,0,0,0,0,0,0,0,0,-1,1077,925,0,0
-140,99,0,0,0,0,0,0,0,0,0,-1,1084,925,0,0
-133,99,0,0,0,0,0,0,0,0,0,-1,1091,925,0,0
-126,99,0,0,0,0,0,0,0,0,0,-1,1098,925,0,0
-119,99,0,0,0,0,0,0,0,0,0,-1,1105,925,0,0
-112,99,0,0,0,0,0,0,0,0,0,-1,1112,925,0,0
-105,99,0,0,0,0,0,0,0,0,0,-1,1119,925,0,0
-98,99,0,0,0,0,0,0,0,0,0,-1,1126,925,0,0
-91,99,0,0,0,0,0,0,0,0,0,-1,1133,925,0,0
-84,99,0,0,0,0,0,0,0,0,0,-1,1140,925,0,0
-77,99,0,0,0,0,0,0,0,0,0,-1,1147,925,0,0
-70,99,0,0,0,0,0,0,0,0,0,-1,1154,925,0,0
-63,99,0,0,0,0,0,0,0,0,0,-1,1161,925,0,0
-56,99,0,0,0,0,0,0,0,0,0,-1,1168,925,0,0
-49,99,0,0,0,0,0,0,0,0,0,-1,1175,925,0,0
-42,99,0,0,0,0,0,0,0,0,0,-1,1182,925,0,0
-35,99,0,0,0,0,0,0,0,0,0,-1,1189,925,0,0
-28,99,0,0,0,0,0,0,0,0,0,-1,1196,925,0,0
-21,99,0,0,0,0,0,0,0,0,0,-1,1203,925,0,0
-14,99,0,0,0,0,0,0,0,0,0,-1,1210,925,0,0
-7,99,0,0,0,0,0,0,0,0,0,-1,1217,925,0,0
0,99,0,0,0,0,0,0,0,0,0,-1,1224,925,0,0
7,99,0,0,0,0,0,0,0,0,0,-1,1231,925,0,0
14,99,0,0,0,0,0,0,0,0,0,-1,1238,925,0,0
21,99,0,0,0,0,0,0,0,0,0,-1,1245,925,0,0
28,99,0,0,0,0,0,0,0,0,0,-1,1252,925,0,0
35,99,0,0,0,0,0,0,0,0,0,-1,1259,925,0,0
42,99,0,0,0,0,0,0,0,0,0,-1,1266,925,0,0
49,99,0,0,0,0,0,0,0,0,0,-1,1273,925,0,0
56,99,0,0,0,0,0,0,0,0,0,-1,1280,925,0,0
63,99,0,0,0,0,0,0,0,0,0,-1,1287,925,0,0
70,99,0,0,0,0,0,0,0,0,0,-1,1294,925,0,0
77,99,0,0,0,0,0,0,0,0,0,-1,1301,925,0,0
84,99,0,0,0,0,0,0,0,0,0,-1,1308,925,0,0
91,99,0,0,0,0,0,0,0,0,0,-1,1315,925,0,0
98,99,0,0,0,0,0,0,0,0,0,-1,1322,925,0,0
105,99,0,0,0,0,0,0,0,0,0,-1,1329,925,0,0
112,99,0,0,0,0,0,0,0,0,0,-1,1336,925,0,0
119,99,0,0,0,0,0,0,0,0,0,-1,1343,925,0,0
126,99,0,0,0,0,0,0,0,0,0,-1,1350,925,0,0
133,99,0,0,0,0,0,0,0,0,0,-1,1357,925,0,0
140,99,0,0,0,0,0,0,0,0,0,-1,1364,925,0,0
147,99,0,0,0,0,0,0,0,0,0,-1,1371,925,0,0
154,99,0,0,0,0,0,0,0,0,0,-1,1378,925,0,0
161,99,0,0,0,0,0,0,0,0,0,-1,1385,925,0,0
168,99,0,0,0,0,0,0,0,0,0,-1,1392,925,0,0
175,99,0,0,0,0,0,0,0,0,0,-1,1399,925,0,0
182,99,0,0,0,0,0,0,0,0,0,-1,1406,925,0,0
189,99,0,0,0,0,0,0,0,0,0,-1,1413,925,0,0
196,99,0,0,0,0,0,0,0,0,0,-1,1420,925,0,0
203,99,0,0,0,0,0,0,0,0,0,-1,1427,925,0,0
210,99,0,0,0,0,0,0,0,0,0,-1,1434,925,0,0
217,99,0,0,0,0,0,0,0,0,0,-1,1441,925,0,0
224,99,0,0,0,0,0,0,0,0,0,-1,1448,925,0,0
231,99,0,0,0,0,0,0,0,0,0,-1,1455,925,0,0
238,99,0,0,0,0,0,0,0,0,0,-1,1462,925,0,0
245,99,0,0,0,0,0,0,0,0,0,-1,1469,925,0,0
252,99,0,0,0,0,0,0,0,0,0,-1,1476,925,0,0
259,99,0,0,0,0,0,0,0,0,0,-1,1483,925,0,0
266,99,0,0,0,0,0,0,0,0,0,-1,1490,925,0,0
273,99,0,0,0,0,0,0,0,0,0,-1,1497,925,0,0
280,99,0,0,0,0,0,0,0,0,0,-1,1504,925,0,0
287,99,0,0,0,0,0,0,0,0,0,-1,1511,925,0,0
294,99,0,0,0,0,0,0,0,0,0,-1,1518,925,0,0
301,99,0,0,0,0,0,0,0,0,0,-1,1525,925,0,0
308,99,0,0,0,0,0,0,0,0,0,-1,1532,925,0,0
315,99,0,0,0,0,0,0,0,0,0,-1,1539,925,0,0
322,99,0,0,0,0,0,0,0,0,0,-1,1546,925,0,0
329,99,0,0,0,0,0,0,0,0,0,-1,1553,925,0,0
336,99,0,0,0,0,0,0,0,0,0,-1,1560,925,0,0
343,99,0,0,0,0,0,0,0,0,0,-1,1567,925,0,0
350,99,0,0,0,0,0,0,0,0,0,-1,1574,925,0,0
357,99,0,0,0,0,0,0,0,0,0,-1,1581,925,0,0
364,99,0,0,0,0,0,0,0,0,0,-1,1588,925,0,0
371,99,0,0,0,0,0,0,0,0,0,-1,1595,925,0,0
378,99,0,0,0,0,0,0,0,0,0,-1,1602,925,0,0
385,99,0,0,0,0,0,0,0,0,0,-1,1609,925,0,0
392,99,0,0,0,0,0,0,0,0,0,-1,1616,925,0,0
399,99,0,0,0,0,0,0,0,0,0,-1,1623,925,0,0
406,99,0,0,0,0,0,0,0,0,0,-1,1630,925,0,0
413,99,0,0,0,0,0,0,0,0,0,-1,1637,925,0,0
420,99,0,0,0,0,0,0,0,0,0,-1,1644,925,0,0
427,99,0,0,0,0,0,0,0,0,0,-1,1651,925,0,0
434,99,0,0,0,0,0,0,0,0,0,-1,1658,925,0,0
441,99,0,0,0,0,0,0,0,0,0,-1,1665,925,0,0
448,99,0,0,0,0,0,0,0,0,0,-1,1672,925,0,0
455,99,0,0,0,0,0,0,0,0,0,-1,1679,925,0,0
462,99,0,0,0,0,0,0,0,0,0,-1,1686,925,0,0
469,99,0,0,0,0,0,0,0,0,0,-1,1693,925,0,0
476,99,0,0,0,0,0,0,0,0,0,-1,1700,925,0,0
483,99,0,0,0,0,0,0,0,0,0,-1,1707,925,0,0
490,99,0,0,0,0,0,0,0,0,0,-1,1714,925,0,0
497,99,0,0,0,0,0,0,0,0,0,-1,1721,925,0,0
504,99,0,0,0,0,0,0,0,0,0,-1,1728,925,0,0
511,99,0,0,0,0,0,0,0,0,0,-1,1735,925,0,0
518,99,0,0,0,0,0,0,0,0,0,-1,1742,925,0,0
525,99,0,0,0,0,0,0,0,0,0,-1,1749,925,0,0
532,99,0,0,0,0,0,0,0,0,0,-1,1756,925,0,0
539,99,0,0,0,0,0,0,0,0,0,-1,1763,925,0,0
546,99,0,0,0,0,0,0,0,0,0,-1,1770,925,0,0
553,99,0,0,0,0,0,0,0,0,0,-1,1777,925,0,0
560,99,0,0,0,0,0,0,0,0,0,-1,1784,925,0,0
567,99,0,0,0,0,0,0,0,0,0,-1,1791,925,0,0
574,99,0,0,0,0,0,0,0,0,0,-1,1798,925,0,0
581,99,0,0,0,0,0,0,0,0,0,-1,1805,925,0,0
588,99,0,0,0,0,0,0,0,0,0,-1,1812,925,0,0
595,99,0,0,0,0,0,0,0,0,0,-1,1819,925,0,0
602,99,0,0,0,0,0,0,0,0,0,-1,1826,925,0,0
609,99,0,0,0,0,0,0,0,0,0,-1,1833,925,0,0
616,99,0,0,0,0,0,0,0,0,0,-1,1840,925,0,0
623,99,0,0,0,0,0,0,0,0,0,-1,1847,925,0,0
630,99,0,0,0,0,0,0,0,0,0,-1,1854,925,0,0
637,99,79.1742,2.40936,-0.00131693,0.00361827,0.00258555,0.00472476,-0.00242341,1.16643,0.00419769,0.0449009,1861,925,79.1742,-2.40937
644,99,79.16,2.26166,-0.00236289,0.00312403,0.00210262,0.0038371,-0.00307596,1.24384,0.00399931,0.0412808,1868,925,79.1601,-2.26163
651,99,79.2102,2.24701,-0.00267123,0.00252709,0.00155246,0.00295543,-0.00309957,1.30158,0.00349619,0.0409245,1875,925,79.2102,-2.24702
658,99,79.1259,2.37689,-0.00246409,0.00198356,0.00100851,0.00220156,-0.00268209,1.35791,0.00282412,0.0380591,1882,925,79.1259,-2.3769
665,99,78.8943,2.4624,-0.00180786,0.00158257,0.000491739,0.00165245,-0.00187774,1.42963,0.00203954,0.0369794,1889,925,78.8943,-2.46238
672,99,78.8218,2.51678,-0.00149348,0.00105342,0.000161249,0.00106359,-0.00150365,1.50782,0.00148943,0.0396712,1896,925,78.8218,-2.51677
679,99,78.8695,2.44427,-0.0014757,0.000444201,2.9501e-05,0.000444654,-0.00147615,1.55544,0.00116106,0.0355357,1903,925,78.8695,-2.44426
686,99,78.9161,2.4541,-0.0015759,0.00010075,-0.000266462,0.000142079,-0.00161723,-1.41692,0.0011285,0.0305391,1910,925,78.9161,-2.4541
693,99,78.9677,2.40265,-0.001803,7.01056e-06,-0.000698625,0.000245295,-0.00204128,-1.24209,0.00144955,0.0344187,1917,925,78.9677,-2.40264
700,99,78.9828,2.33331,0,0,0,0,0,0,0,-1,1924,925,78.9828,-2.33333
707,99,47.9915,3.27429,0,0,0,0,0,0,0,-1,1931,925,47.9914,-3.27427
714,99,73.1735,4.13782,0,0,0,0,0,0,0,-1,1938,925,73.1734,-4.13783
721,99,73.3944,5.09515,-0.00305578,0.00170951,-0.00248453,0.00276923,-0.0041155,-1.16763,0.00400015,0.0393743,1945,925,73.3945,-5.09515
728,99,73.3645,5.87805,-0.00401359,0.00247285,-0.0027399,0.00347528,-0.00501602,-1.22006,0.00492928,0.032373,1952,925,73.3645,-5.87805
735,99,73.2856,6.64288,-0.00507387,0.00374066,-0.00318704,0.00477226,-0.00610547,-1.25775,0.00629596,0.0253117,1959,925,73.2856,-6.6429
742,99,73.2008,7.35748,-0.00593355,0.00574948,-0.00379319,0.00687299,-0.00705706,-1.28284,0.00804276,0.0165091,1966,925,73.2008,-7.35748
749,99,73.1089,8.03912,-0.00644269,0.00893547,-0.00435637,0.0100838,-0.00759103,-1.31306,0.0102383,0.014563,1973,925,73.1088,-8.03913
756,99,73.0227,8.69354,-0.00632375,0.0129944,-0.00456584,0.0140191,-0.00734852,-1.35001,0.0125354,0.0149008,1980,925,73.0226,-8.69354
763,99,73.0059,9.38611,-0.0058672,0.0172476,-0.00447352,0.0180831,-0.00670278,-1.38614,0.0148044,0.0189554,1987,925,73.0059,-9.38611
770,99,73.2869,9.99506,-0.00513994,0.0214855,-0.00418336,0.0221273,-0.00578176,-1.41856,0.0170095,0.0332362,1994,925,73.2868,-9.99507
777,99,73.4314,10.3914,-0.00451276,0.0254762,-0.00328171,0.0258311,-0.00486768,-1.46306,0.0190517,0.0421913,2001,925,73.4314,-10.3914
784,99,73.4592,10.9263,-0.00294335,0.0285851,-0.0015771,0.0286638,-0.00302204,-1.52094,0.0201921,0.0458255,2008,925,73.4591,-10.9263
791,99,73.4771,11.426,0,0,0,0,0,0,0,-1,2015,925,73.4771,-11.426
798,99,74.0798,11.4299,0,0,0,0,0,0,0,-1,2022,925,74.0797,-11.4299
805,99,0,0,0,0,0,0,0,0,0,-1,2029,925,0,0
812,99,0,0,0,0,0,0,0,0,0,-1,2036,925,0,0
-700,92,0,0,0,0,0,0,0,0,0,-1,524,932,0,0
-693,92,0,0,0,0,0,0,0,0,0,-1,531,932,0,0
-686,92,-71.83,-1.72913,0,0,0,0,0,0,0,-1,538,932,-71.83,1.72912
-679,92,-71.4345,-0.644897,0,0,0,0,0,0,0,-1,545,932,-71.4345,0.644893
-672,92,-54.4041,9.71277,0,0,0,0,0,0,0,-1,552,932,-54.4042,-9.71274
-665,92,-54.8063,9.43829,0,0,0,0,0,0,0,-1,559,932,-54.8063,-9.43829
-658,92,-56.0568,9.09058,0,0,0,0,0,0,0,-1,566,932,-56.0568,-9.09056
-651,92,-56.109,8.67078,0,0,0,0,0,0,0,-1,573,932,-56.109,-8.67075
-644,92,-58.1131,9.85059,0,0,0,0,0,0,0,-1,580,932,-58.1131,-9.8506
-637,92,-58.1299,9.26105,-0.0064438,0.0342169,0.0141232,0.0386411,-0.010868,1.26722,0.0300459,0.0340609,587,932,-58.1299,-9.26103
-630,92,-58.2245,8.6095,-0.0076768,0.026081,0.0107812,0.0292303,-0.0108261,1.28659,0.0239265,0.0168616,594,932,-58.2245,-8.60951
-623,92,-58.3994,7.94092,-0.00557882,0.0175367,0.0087458,0.0204728,-0.00851488,1.24691,0.0172041,0.0105688,601,932,-58.3994,-7.94092
-616,92,-58.4313,7.26117,-0.00358154,0.0100631,0.00706648,0.0130632,-0.00658159,1.16931,0.0115459,0.00986816,608,932,-58.4313,-7.26118
-609,92,-58.4813,6.58386,-0.00163327,0.00520141,0.00592113,0.00862058,-0.00505245,1.04712,0.00798323,0.00981656,615,932,-58.4813,-6.58388
-602,92,-58.4708,5.85474,-0.000891542,0.0028311,0.00489411,0.00620589,-0.00426633,0.967111,0.00608061,0.0125663,622,932,-58.4708,-5.85472
-595,92,-58.368,5.03552,-0.000324044,0.00179195,0.00400852,0.00487974,-0.00341184,0.914424,0.00481208,0.0261951,629,932,-58.368,-5.0355
-588,92,-58.1283,4.52612,0,0,0,0,0,0,0,-1,636,932,-58.1283,-4.52611
-581,92,-59.1379,3.62207,0,0,0,0,0,0,0,-1,643,932,-59.1379,-3.62209
-574,92,-60.1476,2.71808,0,0,0,0,0,0,0,-1,650,932,-60.1476,-2.71807
-567,92,-62.7076,0.525146,0,0,0,0,0,0,0,-1,657,932,-62.7076,-0.525153
-560,92,-62.621,0.582031,5.43115e-05,-0.000257834,0.000777098,0.000690855,-0.000894377,0.686297,0.000917745,0.040062,664,932,-62.621,-0.582008
-553,92,-62.8177,0.609863,-0.000398495,3.54969e-05,0.000220334,0.000127749,-0.000490747,1.17428,0.000377032,0.0391859,671,932,-62.8177,-0.609877
-546,92,-62.8868,0.393799,-0.00104783,0.000676881,-0.000296426,0.000726406,-0.00109735,-1.40525,0.00106018,0.0388221,678,932,-62.8868,-0.393817
-539,92,-62.8486,0.358276,-0.00175168,0.0014964,-0.000769434,0.00166945,-0.00192473,-1.34957,0.00207684,0.0376069,685,932,-62.8487,-0.358306
-532,92,-62.8765,0.403687,-0.00250538,0.00207792,-0.00100248,0.0022876,-0.00271506,-1.36461,0.0028918,0.0435928,692,932,-62.8765,-0.403685
-525,92,-62.8245,0.590149,-0.00354504,0.00280841,-0.001174,0.0030184,-0.00375503,-1.3938,0.00391835,0.039881,699,932,-62.8245,-0.590141
-518,92,-62.9957,0.948059,0,0,0,0,0,0,0,-1,706,932,-62.9957,-0.948057
-511,92,0,0,0,0,0,0,0,0,0,-1,713,932,0,0
-504,92,0,0,0,0,0,0,0,0,0,-1,720,932,0,0
-497,92,0,0,0,0,0,0,0,0,0,-1,727,932,0,0
-490,92,0,0,0,0,0,0,0,0,0,-1,734,932,0,0
-483,92,0,0,0,0,0,0,0,0,0,-1,741,932,0,0
-476,92,0,0,0,0,0,0,0,0,0,-1,748,932,0,0
-469,92,0,0,0,0,0,0,0,0,0,-1,755,932,0,0
-462,92,0,0,0,0,0,0,0,0,0,-1,762,932,0,0
-455,92,0,0,0,0,0,0,0,0,0,-1,769,932,0,0
-448,92,0,0,0,0,0,0,0,0,0,-1,776,932,0,0
-441,92,0,0,0,0,0,0,0,0,0,-1,783,932,0,0
-434,92,0,0,0,0,0,0,0,0,0,-1,790,932,0,0
-427,92,0,0,0,0,0,0,0,0,0,-1,797,932,0,0
-420,92,0,0,0,0,0,0,0,0,0,-1,804,932,0,0
-413,92,0,0,0,0,0,0,0,0,0,-1,811,932,0,0
-406,92,0,0,0,0,0,0,0,0,0,-1,818,932,0,0
-399,92,0,0,0,0,0,0,0,0,0,-1,825,932,0,0
-392,92,0,0,0,0,0,0,0,0,0,-1,832,932,0,0
-385,92,0,0,0,0,0,0,0,0,0,-1,839,932,0,0
-378,92,0,0,0,0,0,0,0,0,0,-1,846,932,0,0
-371,92,0,0,0,0,0,0,0,0,0,-1,853,932,0,0
-364,92,0,0,0,0,0,0,0,0,0,-1,860,932,0,0
-357,92,0,0,0,0,0,0,0,0,0,-1,867,932,0,0
-350,92,0,0,0,0,0,0,0,0,0,-1,874,932,0,0
-343,92,0,0,0,0,0,0,0,0,0,-1,881,932,0,0
-336,92,0,0,0,0,0,0,0,0,0,-1,888,932,0,0
-329,92,0,0,0,0,0,0,0,0,0,-1,895,932,0,0
-322,92,0,0,0,0,0,0,0,0,0,-1,902,932,0,0
-315,92,0,0,0,0,0,0,0,0,0,-1,909,932,0,0
-308,92,0,0,0,0,0,0,0,0,0,-1,916,932,0,0
-301,92,0,0,0,0,0,0,0,0,0,-1,923,932,0,0
-294,92,0,0,0,0,0,0,0,0,0,-1,930,932,0,0
-287,92,0,0,0,0,0,0,0,0,0,-1,937,932,0,0
-280,92,0,0,0,0,0,0,0,0,0,-1,944,932,0,0
-273,92,0,0,0,0,0,0,0,0,0,-1,951,932,0,0
-266,92,0,0,0,0,0,0,0,0,0,-1,958,932,0,0
-259,92,0,0,0,0,0,0,0,0,0,-1,965,932,0,0
-252,92,0,0,0,0,0,0,0,0,0,-1,972,932,0,0
-245,92,0,0,0,0,0,0,0,0,0,-1,979,932,0,0
-238,92,0,0,0,0,0,0,0,0,0,-1,986,932,0,0
-231,92,0,0,0,0,0,0,0,0,0,-1,993,932,0,0
-224,92,0,0,0,0,0,0,0,0,0,-1,1000,932,0,0
-217,92,0,0,0,0,0,0,0,0,0,-1,1007,932,0,0
-210,92,0,0,0,0,0,0,0,0,0,-1,1014,932,0,0
-203,92,0,0,0,0,0,0,0,0,0,-1,1021,932,0,0
-196,92,0,0,0,0,0,0,0,0,0,-1,1028,932,0,0
-189,92,0,0,0,0,0,0,0,0,0,-1,1035,932,0,0
-182,92,0,0,0,0,0,0,0,0,0,-1,1042,932,0,0
-175,92,0,0,0,0,0,0,0,0,0,-1,1049,932,0,0
-168,92,0,0,0,0,0,0,0,0,0,-1,1056,932,0,0
-161,92,0,0,0,0,0,0,0,0,0,-1,1063,932,0,0
-154,92,0,0,0,0,0,0,0,0,0,-1,1070,932,0,0
-147,92,0,0,0,0,0,0,0,0,0,-1,1077,932,0,0
-140,92,0,0,0,0,0,0,0,0,0,-1,1084,932,0,0
-133,92,0,0,0,0,0,0,0,0,0,-1,1091,932,0,0
-126,92,0,0,0,0,0,0,0,0,0,-1,1098,932,0,0
-119,92,0,0,0,0,0,0,0,0,0,-1,1105,932,0,0
-112,92,0,0,0,0,0,0,0,0,0,-1,1112,932,0,0
-105,92,0,0,0,0,0,0,0,0,0,-1,1119,932,0,0
-98,92,0,0,0,0,0,0,0,0,0,-1,1126,932,0,0
-91,92,0,0,0,0,0,0,0,0,0,-1,1133,932,0,0
-84,92,0,0,0,0,0,0,0,0,0,-1,1140,932,0,0
-77,92,0,0,0,0,0,0,0,0,0,-1,1147,932,0,0
-70,92,0,0,0,0,0,0,0,0,0,-1,1154,932,0,0
-63,92,0,0,0,0,0,0,0,0,0,-1,1161,932,0,0
-56,92,0,0,0,0,0,0,0,0,0,-1,1168,932,0,0
-49,92,0,0,0,0,0,0,0,0,0,-1,1175,932,0,0
-42,92,0,0,0,0,0,0,0,0,0,-1,1182,932,0,0
-35,92,0,0,0,0,0,0,0,0,0,-1,1189,932,0,0
-28,92,0,0,0,0,0,0,0,0,0,-1,1196,932,0,0
-21,92,0,0,0,0,0,0,0,0,0,-1,1203,932,0,0
-14,92,0,0,0,0,0,0,0,0,0,-1,1210,932,0,0
-7,92,0,0,0,0,0,0,0,0,0,-1,1217,932,0,0
0,92,0,0,0,0,0,0,0,0,0,-1,1224,932,0,0
7,92,0,0,0,0,0,0,0,0,0,-1,1231,932,0,0
14,92,0,0,0,0,0,0,0,0,0,-1,1238,932,0,0
21,92,0,0,0,0,0,0,0,0,0,-1,1245,932,0,0
28,92,0,0,0,0,0,0,0,0,0,-1,1252,932,0,0
35,92,0,0,0,0,0,0,0,0,0,-1,1259,932,0,0
42,92,0,0,0,0,0,0,0,0,0,-1,1266,932,0,0
49,92,0,0,0,0,0,0,0,0,0,-1,1273,932,0,0
56,92,0,0,0,0,0,0,0,0,0,-1,1280,932,0,0
63,92,0,0,0,0,0,0,0,0,0,-1,1287,932,0,0
70,92,0,0,0,0,0,0,0,0,0,-1,1294,932,0,0
77,92,0,0,0,0,0,0,0,0,0,-1,1301,932,0,0
84,92,0,0,0,0,0,0,0,0,0,-1,1308,932,0,0
91,92,0,0,0,0,0,0,0,0,0,-1,1315,932,0,0
98,92,0,0,0,0,0,0,0,0,0,-1,1322,932,0,0
105,92,0,0,0,0,0,0,0,0,0,-1,1329,932,0,0
112,92,0,0,0,0,0,0,0,0,0,-1,1336,932,0,0
119,92,0,0,0,0,0,0,0,0,0,-1,1343,932,0,0
126,92,0,0,0,0,0,0,0,0,0,-1,1350,932,0,0
133,92,0,0,0,0,0,0,0,0,0,-1,1357,932,0,0
140,92,0,0,0,0,0,0,0,0,0,-1,1364,932,0,0
147,92,0,0,0,0,0,0,0,0,0,-1,1371,932,0,0
154,92,0,0,0,0,0,0,0,0,0,-1,1378,932,0,0
161,92,0,0,0,0,0,0,0,0,0,-1,1385,932,0,0
168,92,0,0,0,0,0,0,0,0,0,-1,1392,932,0,0
175,92,0,0,0,0,0,0,0,0,0,-1,1399,932,0,0
182,92,0,0,0,0,0,0,0,0,0,-1,1406,932,0,0
189,92,0,0,0,0,0,0,0,0,0,-1,1413,932,0,0
196,92,0,0,0,0,0,0,0,0,0,-1,1420,932,0,0
203,92,0,0,0,0,0,0,0,0,0,-1,1427,932,0,0
210,92,0,0,0,0,0,0,0,0,0,-1,1434,932,0,0
217,92,0,0,0,0,0,0,0,0,0,-1,1441,932,0,0
224,92,0,0,0,0,0,0,0,0,0,-1,1448,932,0,0
231,92,0,0,0,0,0,0,0,0,0,-1,1455,932,0,0
238,92,0,0,0,0,0,0,0,0,0,-1,1462,932,0,0
245,92,0,0,0,0,0,0,0,0,0,-1,1469,932,0,0
252,92,0,0,0,0,0,0,0,0,0,-1,1476,932,0,0
259,92,0,0,0,0,0,0,0,0,0,-1,1483,932,0,0
266,92,0,0,0,0,0,0,0,0,0,-1,1490,932,0,0
273,92,0,0,0,0,0,0,0,0,0,-1,1497,932,0,0
280,92,0,0,0,0,0,0,0,0,0,-1,1504,932,0,0
287,92,0,0,0,0,0,0,0,0,0,-1,1511,932,0,0
294,92,0,0,0,0,0,0,0,0,0,-1,1518,932,0,0
301,92,0,0,0,0,0,0,0,0,0,-1,1525,932,0,0
308,92,0,0,0,0,0,0,0,0,0,-1,1532,932,0,0
315,92,0,0,0,0,0,0,0,0,0,-1,1539,932,0,0
322,92,0,0,0,0,0,0,0,0,0,-1,1546,932,0,0
329,92,0,0,0,0,0,0,0,0,0,-1,1553,932,0,0
336,92,0,0,0,0,0,0,0,0,0,-1,1560,932,0,0
343,92,0,0,0,0,0,0,0,0,0,-1,1567,932,0,0
350,92,0,0,0,0,0,0,0,0,0,-1,1574,932,0,0
357,92,0,0,0,0,0,0,0,0,0,-1,1581,932,0,0
364,92,0,0,0,0,0,0,0,0,0,-1,1588,932,0,0
371,92,0,0,0,0,0,0,0,0,0,-1,1595,932,0,0
378,92,0,0,0,0,0,0,0,0,0,-1,1602,932,0,0
385,92,0,0,0,0,0,0,0,0,0,-1,1609,932,0,0
392,92,0,0,0,0,0,0,0,0,0,-1,1616,932,0,0
399,92,0,0,0,0,0,0,0,0,0,-1,1623,932,0,0
406,92,0,0,0,0,0,0,0,0,0,-1,1630,932,0,0
413,92,0,0,0,0,0,0,0,0,0,-1,1637,932,0,0
420,92,0,0,0,0,0,0,0,0,0,-1,1644,932,0,0
427,92,0,0,0,0,0,0,0,0,0,-1,1651,932,0,0
434,92,0,0,0,0,0,0,0,0,0,-1,1658,932,0,0
441,92,0,0,0,0,0,0,0,0,0,-1,1665,932,0,0
448,92,0,0,0,0,0,0,0,0,0,-1,1672,932,0,0
455,92,0,0,0,0,0,0,0,0,0,-1,1679,932,0,0
462,92,0,0,0,0,0,0,0,0,0,-1,1686,932,0,0
469,92,0,0,0,0,0,0,0,0,0,-1,1693,932,0,0
476,92,0,0,0,0,0,0,0,0,0,-1,1700,932,0,0
483,92,0,0,0,0,0,0,0,0,0,-1,1707,932,0,0
490,92,0,0,0,0,0,0,0,0,0,-1,1714,932,0,0
497,92,0,0,0,0,0,0,0,0,0,-1,1721,932,0,0
504,92,0,0,0,0,0,0,0,0,0,-1,1728,932,0,0
511,92,0,0,0,0,0,0,0,0,0,-1,1735,932,0,0
518,92,0,0,0,0,0,0,0,0,0,-1,1742,932,0,0
525,92,0,0,0,0,0,0,0,0,0,-1,1749,932,0,0
532,92,0,0,0,0,0,0,0,0,0,-1,1756,932,0,0
539,92,0,0,0,0,0,0,0,0,0,-1,1763,932,0,0
546,92,0,0,0,0,0,0,0,0,0,-1,1770,932,0,0
553,92,0,0,0,0,0,0,0,0,0,-1,1777,932,0,0
560,92,0,0,0,0,0,0,0,0,0,-1,1784,932,0,0
567,92,0,0,0,0,0,0,0,0,0,-1,1791,932,0,0
574,92,0,0,0,0,0,0,0,0,0,-1,1798,932,0,0
581,92,0,0,0,0,0,0,0,0,0,-1,1805,932,0,0
588,92,0,0,0,0,0,0,0,0,0,-1,1812,932,0,0
595,92,0,0,0,0,0,0,0,0,0,-1,1819,932,0,0
602,92,0,0,0,0,0,0,0,0,0,-1,1826,932,0,0
609,92,0,0,0,0,0,0,0,0,0,-1,1833,932,0,0
616,92,0,0,0,0,0,0,0,0,0,-1,1840,932,0,0
623,92,0,0,0,0,0,0,0,0,0,-1,1847,932,0,0
630,92,0,0,0,0,0,0,0,0,0,-1,1854,932,0,0
637,92,79.1801,2.10089,-0.00183317,0.00425402,0.00298394,0.00547275,-0.00305189,1.18305,0.00498742,0.0466517,1861,932,79.18,-2.1009
644,92,78.9882,2.07355,-0.00276656,0.00370463,0.00235765,0.00447248,-0.00353441,1.25594,0.00463335,0.0407901,1868,932,78.9881,-2.07355
651,92,78.9844,2.33167,-0.00293882,0.00308094,0.00171901,0.00353724,-0.00339511,1.31134,0.00400267,0.0404884,1875,932,78.9844,-2.33168
658,92,79.0784,2.38593,-0.00258086,0.00254209,0.00115728,0.00279139,-0.00283016,1.35862,0.00324563,0.0433692,1882,932,79.0784,-2.38592
665,92,78.818,2.3634,-0.00178619,0.00210921,0.000608228,0.00220197,-0.00187895,1.41945,0.00235858,0.0406422,1889,932,78.818,-2.36338
672,92,78.7581,2.51172,-0.00132505,0.00156073,0.000263983,0.00158468,-0.00134899,1.48032,0.00169558,0.0387483,1896,932,78.758,-2.5117
679,92,78.8718,2.55383,-0.00122742,0.000849603,0.000144308,0.000859582,-0.0012374,1.50176,0.00121723,0.0374251,1903,932,78.8718,-2.55386
686,92,78.8866,2.40051,-0.00125321,0.000378989,-0.000166089,0.000395718,-0.00126994,-1.47041,0.00100485,0.0318188,1910,932,78.8866,-2.40054
693,92,78.9497,2.45746,-0.00145014,0.000154043,-0.000588084,0.000346534,-0.00164263,-1.25447,0.00122702,0.0263225,1917,932,78.9497,-2.45743
700,92,78.9265,2.48096,0,0,0,0,0,0,0,-1,1924,932,78.9266,-2.48097
707,92,32.9893,3.26874,0,0,0,0,0,0,0,-1,1931,932,32.9893,-3.26874
714,92,74.556,4.47693,0,0,0,0,0,0,0,-1,1938,932,74.556,-4.47691
721,92,74.3236,5.29102,-0.00310941,0.00179055,-0.00242762,0.00278959,-0.00410845,-1.18039,0.00400678,0.037558,1945,932,74.3237,-5.29101
728,92,74.0552,6.00726,-0.00408807,0.00257063,-0.00267699,0.00351339,-0.00503082,-1.23219,0.00495886,0.0311608,1952,932,74.0552,-6.00725
735,92,73.9922,6.69977,-0.00518035,0.00386525,-0.00314848,0.00485323,-0.00616833,-1.26673,0.00637838,0.0242263,1959,932,73.9922,-6.69979
742,92,74.0298,7.35266,-0.00619202,0.00583816,-0.00380301,0.00693954,-0.0072934,-1.2889,0.00821824,0.0235979,1966,932,74.0298,-7.35267
749,92,73.9186,8.01953,-0.00699371,0.00904105,-0.00454186,0.0102382,-0.00819082,-1.31308,0.0106618,0.0210687,1973,932,73.9185,-8.01953
756,92,73.7661,8.65314,-0.00725778,0.0132896,-0.0050165,0.0144489,-0.00841711,-1.34368,0.0133539,0.0172342,1980,932,73.766,-8.65316
763,92,73.7678,9.29816,-0.00712767,0.0179423,-0.00520746,0.0189809,-0.00816632,-1.37393,0.0160827,0.0198238,1987,932,73.7679,-9.29818
770,92,73.7952,9.87622,-0.00678556,0.0225908,-0.00525462,0.0235025,-0.00769717,-1.39902,0.0187678,0.0285612,1994,932,73.7952,-9.87623
777,92,73.9272,10.4111,-0.00666598,0.0271956,-0.00485952,0.0278792,-0.00734958,-1.43104,0.0214597,0.042935,2001,932,73.9273,-10.4112
784,92,74.0098,11.0243,-0.0056812,0.0312353,-0.00381773,0.031626,-0.00607187,-1.46882,0.0233724,0.0471147,2008,932,74.0097,-11.0243
791,92,74.282,11.3262,0,0,0,0,0,0,0,-1,2015,932,74.2821,-11.3262
798,92,74.4543,11.778,0,0,0,0,0,0,0,-1,2022,932,74.4543,-11.778
805,92,0,0,0,0,0,0,0,0,0,-1,2029,932,0,0
812,92,0,0,0,0,0,0,0,0,0,-1,2036,932,0,0
-700,85,0,0,0,0,0,0,0,0,0,-1,524,939,0,0
-693,85,0,0,0,0,0,0,0,0,0,-1,531,939,0,0
-686,85,-71.2813,-1.96863,0,0,0,0,0,0,0,-1,538,939,-71.2813,1.96865
-679,85,-70.8549,-0.888062,0,0,0,0,0,0,0,-1,545,939,-70.8549,0.888056
-672,85,-55.3577,9.87915,0,0,0,0,0,0,0,-1,552,939,-55.3577,-9.87914
-665,85,-57.5883,10.4811,0,0,0,0,0,0,0,-1,559,939,-57.5883,-10.4811
-658,85,-57.267,9.86951,0,0,0,0,0,0,0,-1,566,939,-57.267,-9.86952
-651,85,-56.9446,9.34045,0,0,0,0,0,0,0,-1,573,939,-56.9446,-9.34045
-644,85,-60.2286,9.50232,0,0,0,0,0,0,0,-1,580,939,-60.2286,-9.50231
-637,85,-59.4727,9.03229,-0.00253798,0.0354465,0.0144382,0.0403115,-0.00740295,1.24579,0.0296516,0.0399672,587,939,-59.4726,-9.03228
-630,85,-59.0422,8.52069,-0.0053798,0.0274381,0.0107951,0.0306707,-0.00861232,1.27985,0.0238421,0.0177201,594,939,-59.0421,-8.52069
-623,85,-59.1563,7.87695,-0.00393423,0.0181326,0.00873837,0.0211738,-0.00697544,1.23588,0.0169271,0.0104635,601,939,-59.1563,-7.87698
-616,85,-59.1937,7.24414,-0.00253291,0.0102337,0.00702281,0.0133407,-0.00563994,1.15426,0.0112551,0.0103181,608,939,-59.1937,-7.24416
-609,85,-59.2548,6.58502,-0.000892423,0.0052516,0.00585557,0.00879208,-0.0044329,1.02698,0.00777247,0.0128781,615,939,-59.2548,-6.585
-602,85,-59.2662,5.89392,-0.000178396,0.00279978,0.00485592,0.0063898,-0.00376842,0.934173,0.00592959,0.0173754,622,939,-59.2662,-5.8939
-595,85,-59.1462,5.18054,0.000479812,0.00160469,0.00403559,0.00511684,-0.00303234,0.854637,0.00475597,0.0217435,629,939,-59.1462,-5.18054
-588,85,-59.0834,4.48511,0.00097529,0.000890297,0.0032802,0.00421327,-0.00234768,0.778921,0.00383867,0.0275578,636,939,-59.0834,-4.48512
-581,85,-60.3217,3.83905,0,0,0,0,0,0,0,-1,643,939,-60.3216,-3.83902
-574,85,-57.1787,1.97198,0,0,0,0,0,0,0,-1,650,939,-57.1787,-1.97196
-567,85,-62.6654,0.534424,0,0,0,0,0,0,0,-1,657,939,-62.6654,-0.534448
-560,85,-62.663,0.464783,0.000683202,-0.00061915,0.000511209,0.000859894,-0.000795841,0.332781,0.000956177,0.0370321,664,939,-62.663,-0.46477
-553,85,-62.8562,0.411926,0.000204822,-0.000163982,-7.65265e-05,0.00022007,-0.00017923,-0.196685,0.000230938,0.0438342,671,939,-62.8562,-0.411953
-546,85,-62.9003,0.386353,-0.000398529,0.000635794,-0.000632055,0.000935303,-0.000698037,-1.12828,0.00094632,0.0422196,678,939,-62.9002,-0.386342
-539,85,-62.8035,0.470276,-0.00112927,0.00155045,-0.00119036,0.00200285,-0.00158167,-1.2076,0.00207428,0.0377359,685,939,-62.8035,-0.470267
-532,85,-62.7737,0.532349,-0.00200158,0.00203745,-0.00166611,0.00263602,-0.00260014,-1.2259,0.00302312,0.0378601,692,939,-62.7737,-0.532355
-525,85,-62.7214,0.588623,-0.00325265,0.00274925,-0.00222623,0.00348485,-0.00398825,-1.25167,0.00431786,0.0379263,699,939,-62.7214,-0.588604
-518,85,-62.8531,0.788818,-0.00508345,0.00407342,-0.00284264,0.00488411,-0.00589414,-1.29298,0.00623193,0.0396967,706,939,-62.8531,-0.788847
-511,85,0,0,0,0,0,0,0,0,0,-1,713,939,0,0
-504,85,0,0,0,0,0,0,0,0,0,-1,720,939,0,0
-497,85,0,0,0,0,0,0,0,0,0,-1,727,939,0,0
-490,85,0,0,0,0,0,0,0,0,0,-1,734,939,0,0
-483,85,0,0,0,0,0,0,0,0,0,-1,741,939,0,0
-476,85,0,0,0,0,0,0,0,0,0,-1,748,939,0,0
-469,85,0,0,0,0,0,0,0,0,0,-1,755,939,0,0
-462,85,0,0,0,0,0,0,0,0,0,-1,762,939,0,0
-455,85,0,0,0,0,0,0,0,0,0,-1,769,939,0,0
-448,85,0,0,0,0,0,0,0,0,0,-1,776,939,0,0
-441,85,0,0,0,0,0,0,0,0,0,-1,783,939,0,0
-434,85,0,0,0,0,0,0,0,0,0,-1,790,939,0,0
-427,85,0,0,0,0,0,0,0,0,0,-1,797,939,0,0
-420,85,0,0,0,0,0,0,0,0,0,-1,804,939,0,0
-413,85,0,0,0,0,0,0,0,0,0,-1,811,939,0,0
-406,85,0,0,0,0,0,0,0,0,0,-1,818,939,0,0
-399,85,0,0,0,0,0,0,0,0,0,-1,825,939,0,0
-392,85,0,0,0,0,0,0,0,0,0,-1,832,939,0,0
-385,85,0,0,0,0,0,0,0,0,0,-1,839,939,0,0
-378,85,0,0,0,0,0,0,0,0,0,-1,846,939,0,0
-371,85,0,0,0,0,0,0,0,0,0,-1,853,939,0,0
-364,85,0,0,0,0,0,0,0,0,0,-1,860,939,0,0
-357,85,0,0,0,0,0,0,0,0,0,-1,867,939,0,0
-350,85,0,0,0,0,0,0,0,0,0,-1,874,939,0,0
-343,85,0,0,0,0,0,0,0,0,0,-1,881,939,0,0
-336,85,0,0,0,0,0,0,0,0,0,-1,888,939,0,0
-329,85,0,0,0,0,0,0,0,0,0,-1,895,939,0,0
-322,85,0,0,0,0,0,0,0,0,0,-1,902,939,0,0
-315,85,0,0,0,0,0,0,0,0,0,-1,909,939,0,0
-308,85,0,0,0,0,0,0,0,0,0,-1,916,939,0,0
-301,85,0,0,0,0,0,0,0,0,0,-1,923,939,0,0
-294,85,0,0,0,0,0,0,0,0,0,-1,930,939,0,0
-287,85,0,0,0,0,0,0,0,0,0,-1,937,939,0,0
-280,85,0,0,0,0,0,0,0,0,0,-1,944,939,0,0
-273,85,0,0,0,0,0,0,0,0,0,-1,951,939,0,0
-266,85,0,0,0,0,0,0,0,0,0,-1,958,939,0,0
-259,85,0,0,0,0,0,0,0,0,0,-1,965,939,0,0
-252,85,0,0,0,0,0,0,0,0,0,-1,972,939,0,0
-245,85,0,0,0,0,0,0,0,0,0,-1,979,939,0,0
-238,85,0,0,0,0,0,0,0,0,0,-1,986,939,0,0
-231,85,0,0,0,0,0,0,0,0,0,-1,993,939,0,0
-224,85,0,0,0,0,0,0,0,0,0,-1,1000,939,0,0
-217,85,0,0,0,0,0,0,0,0,0,-1,1007,939,0,0
-210,85,0,0,0,0,0,0,0,0,0,-1,1014,939,0,0
-203,85,0,0,0,0,0,0,0,0,0,-1,1021,939,0,0
-196,85,0,0,0,0,0,0,0,0,0,-1,1028,939,0,0
-189,85,0,0,0,0,0,0,0,0,0,-1,1035,939,0,0
-182,85,0,0,0,0,0,0,0,0,0,-1,1042,939,0,0
-175,85,0,0,0,0,0,0,0,0,0,-1,1049,939,0,0
-168,85,0,0,0,0,0,0,0,0,0,-1,1056,939,0,0
-161,85,0,0,0,0,0,0,0,0,0,-1,1063,939,0,0
-154,85,0,0,0,0,0,0,0,0,0,-1,1070,939,0,0
-147,85,0,0,0,0,0,0,0,0,0,-1,1077,939,0,0
-140,85,0,0,0,0,0,0,0,0,0,-1,1084,939,0,0
-133,85,0,0,0,0,0,0,0,0,0,-1,1091,939,0,0
-126,85,0,0,0,0,0,0,0,0,0,-1,1098,939,0,0
-119,85,0,0,0,0,0,0,0,0,0,-1,1105,939,0,0
-112,85,0,0,0,0,0,0,0,0,0,-1,1112,939,0,0
-105,85,0,0,0,0,0,0,0,0,0,-1,1119,939,0,0
-98,85,0,0,0,0,0,0,0,0,0,-1,1126,939,0,0
-91,85,0,0,0,0,0,0,0,0,0,-1,1133,939,0,0
-84,85,0,0,0,0,0,0,0,0,0,-1,1140,939,0,0
-77,85,0,0,0,0,0,0,0,0,0,-1,1147,939,0,0
-70,85,0,0,0,0,0,0,0,0,0,-1,1154,939,0,0
-63,85,0,0,0,0,0,0,0,0,0,-1,1161,939,0,0
-56,85,0,0,0,0,0,0,0,0,0,-1,1168,939,0,0
-49,85,0,0,0,0,0,0,0,0,0,-1,1175,939,0,0
-42,85,0,0,0,0,0,0,0,0,0,-1,1182,939,0,0
-35,85,0,0,0,0,0,0,0,0,0,-1,1189,939,0,0
-28,85,0,0,0,0,0,0,0,0,0,-1,1196,939,0,0
-21,85,0,0,0,0,0,0,0,0,0,-1,1203,939,0,0
-14,85,0,0,0,0,0,0,0,0,0,-1,1210,939,0,0
-7,85,0,0,0,0,0,0,0,0,0,-1,1217,939,0,0
0,85,0,0,0,0,0,0,0,0,0,-1,1224,939,0,0
7,85,0,0,0,0,0,0,0,0,0,-1,1231,939,0,0
14,85,0,0,0,0,0,0,0,0,0,-1,1238,939,0,0
21,85,0,0,0,0,0,0,0,0,0,-1,1245,939,0,0
28,85,0,0,0,0,0,0,0,0,0,-1,1252,939,0,0
35,85,0,0,0,0,0,0,0,0,0,-1,1259,939,0,0
42,85,0,0,0,0,0,0,0,0,0,-1,1266,939,0,0
49,85,0,0,0,0,0,0,0,0,0,-1,1273,939,0,0
56,85,0,0,0,0,0,0,0,0,0,-1,1280,939,0,0
63,85,0,0,0,0,0,0,0,0,0,-1,1287,939,0,0
70,85,0,0,0,0,0,0,0,0,0,-1,1294,939,0,0
77,85,0,0,0,0,0,0,0,0,0,-1,1301,939,0,0
84,85,0,0,0,0,0,0,0,0,0,-1,1308,939,0,0
91,85,0,0,0,0,0,0,0,0,0,-1,1315,939,0,0
98,85,0,0,0,0,0,0,0,0,0,-1,1322,939,0,0
105,85,0,0,0,0,0,0,0,0,0,-1,1329,939,0,0
112,85,0,0,0,0,0,0,0,0,0,-1,1336,939,0,0
119,85,0,0,0,0,0,0,0,0,0,-1,1343,939,0,0
126,85,0,0,0,0,0,0,0,0,0,-1,1350,939,0,0
133,85,0,0,0,0,0,0,0,0,0,-1,1357,939,0,0
140,85,0,0,0,0,0,0,0,0,0,-1,1364,939,0,0
147,85,0,0,0,0,0,0,0,0,0,-1,1371,939,0,0
154,85,0,0,0,0,0,0,0,0,0,-1,1378,939,0,0
161,85,0,0,0,0,0,0,0,0,0,-1,1385,939,0,0
168,85,0,0,0,0,0,0,0,0,0,-1,1392,939,0,0
175,85,0,0,0,0,0,0,0,0,0,-1,1399,939,0,0
182,85,0,0,0,0,0,0,0,0,0,-1,1406,939,0,0
189,85,0,0,0,0,0,0,0,0,0,-1,1413,939,0,0
196,85,0,0,0,0,0,0,0,0,0,-1,1420,939,0,0
203,85,0,0,0,0,0,0,0,0,0,-1,1427,939,0,0
210,85,0,0,0,0,0,0,0,0,0,-1,1434,939,0,0
217,85,0,0,0,0,0,0,0,0,0,-1,1441,939,0,0
224,85,0,0,0,0,0,0,0,0,0,-1,1448,939,0,0
231,85,0,0,0,0,0,0,0,0,0,-1,1455,939,0,0
238,85,0,0,0,0,0,0,0,0,0,-1,1462,939,0,0
245,85,0,0,0,0,0,0,0,0,0,-1,1469,939,0,0
252,85,0,0,0,0,0,0,0,0,0,-1,1476,939,0,0
259,85,0,0,0,0,0,0,0,0,0,-1,1483,939,0,0
266,85,0,0,0,0,0,0,0,0,0,-1,1490,939,0,0
273,85,0,0,0,0,0,0,0,0,0,-1,1497,939,0,0
280,85,0,0,0,0,0,0,0,0,0,-1,1504,939,0,0
287,85,0,0,0,0,0,0,0,0,0,-1,1511,939,0,0
294,85,0,0,0,0,0,0,0,0,0,-1,1518,939,0,0
301,85,0,0,0,0,0,0,0,0,0,-1,1525,939,0,0
308,85,0,0,0,0,0,0,0,0,0,-1,1532,939,0,0
315,85,0,0,0,0,0,0,0,0,0,-1,1539,939,0,0
322,85,0,0,0,0,0,0,0,0,0,-1,1546,939,0,0
329,85,0,0,0,0,0,0,0,0,0,-1,1553,939,0,0
336,85,0,0,0,0,0,0,0,0,0,-1,1560,939,0,0
343,85,0,0,0,0,0,0,0,0,0,-1,1567,939,0,0
350,85,0,0,0,0,0,0,0,0,0,-1,1574,939,0,0
357,85,0,0,0,0,0,0,0,0,0,-1,1581,939,0,0
364,85,0,0,0,0,0,0,0,0,0,-1,1588,939,0,0
371,85,0,0,0,0,0,0,0,0,0,-1,1595,939,0,0
378,85,0,0,0,0,0,0,0,0,0,-1,1602,939,0,0
385,85,0,0,0,0,0,0,0,0,0,-1,1609,939,0,0
392,85,0,0,0,0,0,0,0,0,0,-1,1616,939,0,0
399,85,0,0,0,0,0,0,0,0,0,-1,1623,939,0,0
406,85,0,0,0,0,0,0,0,0,0,-1,1630,939,0,0
413,85,0,0,0,0,0,0,0,0,0,-1,1637,939,0,0
420,85,0,0,0,0,0,0,0,0,0,-1,1644,939,0,0
427,85,0,0,0,0,0,0,0,0,0,-1,1651,939,0,0
434,85,0,0,0,0,0,0,0,0,0,-1,1658,939,0,0
441,85,0,0,0,0,0,0,0,0,0,-1,1665,939,0,0
448,85,0,0,0,0,0,0,0,0,0,-1,1672,939,0,0
455,85,0,0,0,0,0,0,0,0,0,-1,1679,939,0,0
462,85,0,0,0,0,0,0,0,0,0,-1,1686,939,0,0
469,85,0,0,0,0,0,0,0,0,0,-1,1693,939,0,0
476,85,0,0,0,0,0,0,0,0,0,-1,1700,939,0,0
483,85,0,0,0,0,0,0,0,0,0,-1,1707,939,0,0
490,85,0,0,0,0,0,0,0,0,0,-1,1714,939,0,0
497,85,0,0,0,0,0,0,0,0,0,-1,1721,939,0,0
504,85,0,0,0,0,0,0,0,0,0,-1,1728,939,0,0
511,85,0,0,0,0,0,0,0,0,0,-1,1735,939,0,0
518,85,0,0,0,0,0,0,0,0,0,-1,1742,939,0,0
525,85,0,0,0,0,0,0,0,0,0,-1,1749,939,0,0
532,85,0,0,0,0,0,0,0,0,0,-1,1756,939,0,0
539,85,0,0,0,0,0,0,0,0,0,-1,1763,939,0,0
546,85,0,0,0,0,0,0,0,0,0,-1,1770,939,0,0
553,85,0,0,0,0,0,0,0,0,0,-1,1777,939,0,0
560,85,0,0,0,0,0,0,0,0,0,-1,1784,939,0,0
567,85,0,0,0,0,0,0,0,0,0,-1,1791,939,0,0
574,85,0,0,0,0,0,0,0,0,0,-1,1798,939,0,0
581,85,0,0,0,0,0,0,0,0,0,-1,1805,939,0,0
588,85,0,0,0,0,0,0,0,0,0,-1,1812,939,0,0
595,85,0,0,0,0,0,0,0,0,0,-1,1819,939,0,0
602,85,0,0,0,0,0,0,0,0,0,-1,1826,939,0,0
609,85,0,0,0,0,0,0,0,0,0,-1,1833,939,0,0
616,85,0,0,0,0,0,0,0,0,0,-1,1840,939,0,0
623,85,0,0,0,0,0,0,0,0,0,-1,1847,939,0,0
630,85,0,0,0,0,0,0,0,0,0,-1,1854,939,0,0
637,85,79.0369,1.93512,0,0,0,0,0,0,0,-1,1861,939,79.0368,-1.93514
644,85,78.8348,1.85046,0,0,0,0,0,0,0,-1,1868,939,78.8348,-1.85048
651,85,79.1248,2.58154,0,0,0,0,0,0,0,-1,1875,939,79.1247,-2.58152
658,85,78.99,2.48157,-0.00257347,0.00249245,0.00114132,0.00273771,-0.00281873,1.35912,0.00320812,0.0437184,1882,939,78.99,-2.48156
665,85,78.762,2.38898,-0.00173715,0.00205962,0.000656466,0.00216992,-0.00184745,1.40433,0.00232192,0.0410681,1889,939,78.7619,-2.38897
672,85,78.76,2.46637,-0.00123376,0.00149675,0.000374631,0.00154722,-0.00128422,1.43689,0.00163708,0.0403784,1896,939,78.76,-2.46639
679,85,78.8831,2.44965,-0.00110991,0.000715359,0.000327717,0.000772415,-0.00116697,1.39842,0.0011274,0.0401326,1903,939,78.8831,-2.44963
686,85,78.8743,2.38086,-0.00109442,0.000144586,5.52988e-05,0.00014705,-0.00109688,1.52628,0.000784876,0.0351258,1910,939,78.8743,-2.38086
693,85,78.9022,2.41235,-0.00128951,-0.000187045,-0.000314636,-0.00010357,-0.00137299,-1.31147,0.000882828,0.0288456,1917,939,78.9023,-2.41233
700,85,78.9628,2.43311,-0.00181699,-0.000240691,-0.000816052,0.000105672,-0.00216336,-1.1694,0.00147872,0.0414694,1924,939,78.9628,-2.43312
707,85,79.1151,2.38519,0,0,0,0,0,0,0,-1,1931,939,79.1151,-2.38522
714,85,75.3766,4.65613,0,0,0,0,0,0,0,-1,1938,939,75.3766,-4.65615
721,85,75.0614,5.43402,-0.00333243,0.00148216,-0.00212942,0.00228882,-0.00413909,-1.20868,0.00376205,0.0355706,1945,939,75.0614,-5.43403
728,85,74.7551,6.26752,-0.00432035,0.00236941,-0.00237813,0.00312864,-0.00507958,-1.26177,0.00478343,0.041019,1952,939,74.7551,-6.26751
735,85,74.7273,6.80536,-0.00540148,0.00383355,-0.00288727,0.00466193,-0.00622986,-1.29139,0.00631006,0.038541,1959,939,74.7273,-6.80535
742,85,74.7921,7.38647,-0.00648361,0.00589334,-0.00359321,0.00686087,-0.00745114,-1.30777,0.00826539,0.0242148,1966,939,74.7921,-7.38645
749,85,74.6772,8.00824,-0.00747664,0.00924151,-0.00449374,0.0103728,-0.00860797,-1.32416,0.0109744,0.0158536,1973,939,74.6772,-8.00825
756,85,74.5166,8.61444,-0.00804673,0.013838,-0.00524146,0.0150286,-0.0092373,-1.34744,0.0141423,0.0144971,1980,939,74.5167,-8.61441
763,85,74.4492,9.2038,-0.00819076,0.0190996,-0.0057533,0.0202629,-0.00935407,-1.37129,0.0174817,0.0153153,1987,939,74.4492,-9.20378
770,85,74.3359,9.72546,-0.00816278,0.024432,-0.00617968,0.0255643,-0.00929506,-1.38958,0.0208439,0.0216409,1994,939,74.3359,-9.72546
777,85,74.1726,10.4354,-0.00841891,0.0299187,-0.00634247,0.0309408,-0.00944095,-1.41103,0.024391,0.0429873,2001,939,74.1726,-10.4354
784,85,74.1072,11.222,0,0,0,0,0,0,0,-1,2008,939,74.1071,-11.222
791,85,75.333,10.7042,0,0,0,0,0,0,0,-1,2015,939,75.3331,-10.7042
798,85,75.4956,11.9659,0,0,0,0,0,0,0,-1,2022,939,75.4955,-11.966
805,85,67.4045,8.44751,0,0,0,0,0,0,0,-1,2029,939,67.4046,-8.4475
812,85,0,0,0,0,0,0,0,0,0,-1,2036,939,0,0
-700,78,0,0,0,0,0,0,0,0,0,-1,524,946,0,0
-693,78,0,0,0,0,0,0,0,0,0,-1,531,946,0,0
-686,78,-70.6745,-2.27557,0,0,0,0,0,0,0,-1,538,946,-70.6745,2.2756
-679,78,-70.2203,-1.24353,0,0,0,0,0,0,0,-1,545,946,-70.2204,1.24355
-672,78,-55.5735,10.041,0,0,0,0,0,0,0,-1,552,946,-55.5735,-10.041
-665,78,-56.5371,9.93585,0,0,0,0,0,0,0,-1,559,946,-56.5371,-9.93586
-658,78,-56.7449,9.97845,0,0,0,0,0,0,0,-1,566,946,-56.7449,-9.97847
-651,78,-57.2355,9.40192,0,0,0,0,0,0,0,-1,573,946,-57.2355,-9.40191
-644,78,-60.7222,9.64691,0,0,0,0,0,0,0,-1,580,946,-60.7222,-9.64694
-637,78,-60.5781,8.96381,0,0,0,0,0,0,0,-1,587,946,-60.5781,-8.96382
-630,78,-59.8375,8.38837,-0.00341786,0.0283674,0.0103659,0.0314491,-0.00649962,1.28182,0.023435,0.0235003,594,946,-59.8374,-8.38838
-623,78,-59.8647,7.78448,-0.00281104,0.0185843,0.00838648,0.0214798,-0.0057065,1.23836,0.0165532,0.0153082,601,946,-59.8647,-7.78449
-616,78,-59.9099,7.17358,-0.00216346,0.0105017,0.0067092,0.0133949,-0.00505666,1.16366,0.0110096,0.0129427,608,946,-59.9099,-7.17359
-609,78,-59.926,6.61023,-0.000943709,0.00549928,0.00556946,0.00871183,-0.00415626,1.0476,0.00758299,0.0123332,615,946,-59.926,-6.61026
-602,78,-59.9526,5.97919,-0.000310026,0.00290969,0.00463362,0.00620515,-0.00360548,0.95259,0.00573007,0.0174157,622,946,-59.9526,-5.97916
-595,78,-59.827,5.27814,0.000434072,0.00144183,0.00391858,0.0048888,-0.0030129,0.849341,0.0046047,0.0186177,629,946,-59.827,-5.27814
-588,78,-59.8242,4.67035,0.000995896,0.000521258,0.00324933,0.00401656,-0.00249941,0.748945,0.00379584,0.0155673,636,946,-59.8241,-4.67038
-581,78,-59.8124,3.97906,0,0,0,0,0,0,0,-1,643,946,-59.8125,-3.97906
-574,78,-62.6977,0.401855,0,0,0,0,0,0,0,-1,650,946,-62.6977,-0.401839
-567,78,-62.6735,0.512329,0.00102308,-0.00126366,0.00100772,0.00140378,-0.00164436,0.361211,0.00176168,0.0377109,657,946,-62.6735,-0.512313
-560,78,-62.6666,0.520569,0.000827126,-0.00109753,0.000454934,0.000929242,-0.00119964,0.220803,0.00123241,0.0345947,664,946,-62.6666,-0.520549
-553,78,-62.7687,0.372559,0.000463477,-0.000553081,-0.000108067,0.000474839,-0.000564442,-0.104747,0.000600772,0.0444862,671,946,-62.7687,-0.37253
-546,78,-62.7631,0.390259,6.01767e-05,0.000296449,-0.000640445,0.000829562,-0.000472936,-0.876603,0.000761336,0.0446505,678,946,-62.763,-0.390276
-539,78,-62.6949,0.535156,-0.000553408,0.00115562,-0.0011962,0.00177117,-0.00116896,-1.09555,0.00170931,0.0391902,685,946,-62.695,-0.535185
-532,78,-62.6416,0.624146,-0.00142285,0.00142213,-0.00179293,0.00228832,-0.00228904,-1.12075,0.00264274,0.0379352,692,946,-62.6416,-0.62414
-525,78,-62.6176,0.58905,-0.00276938,0.00202923,-0.00260273,0.00316982,-0.00390997,-1.15777,0.00409496,0.0389387,699,946,-62.6176,-0.589049
-518,78,-62.6729,0.628113,-0.00488448,0.00325103,-0.00367773,0.0046671,-0.00630055,-1.20325,0.00635554,0.045114,706,946,-62.6729,-0.628138
-511,78,0,0,0,0,0,0,0,0,0,-1,713,946,0,0
-504,78,0,0,0,0,0,0,0,0,0,-1,720,946,0,0
-497,78,0,0,0,0,0,0,0,0,0,-1,727,946,0,0
-490,78,0,0,0,0,0,0,0,0,0,-1,734,946,0,0
-483,78,0,0,0,0,0,0,0,0,0,-1,741,946,0,0
-476,78,0,0,0,0,0,0,0,0,0,-1,748,946,0,0
-469,78,0,0,0,0,0,0,0,0,0,-1,755,946,0,0
-462,78,0,0,0,0,0,0,0,0,0,-1,762,946,0,0
-455,78,0,0,0,0,0,0,0,0,0,-1,769,946,0,0
-448,78,0,0,0,0,0,0,0,0,0,-1,776,946,0,0
-441,78,0,0,0,0,0,0,0,0,0,-1,783,946,0,0
-434,78,0,0,0,0,0,0,0,0,0,-1,790,946,0,0
-427,78,0,0,0,0,0,0,0,0,0,-1,797,946,0,0
-420,78,0,0,0,0,0,0,0,0,0,-1,804,946,0,0
-413,78,0,0,0,0,0,0,0,0,0,-1,811,946,0,0
-406,78,0,0,0,0,0,0,0,0,0,-1,818,946,0,0
-399,78,0,0,0,0,0,0,0,0,0,-1,825,946,0,0
-392,78,0,0,0,0,0,0,0,0,0,-1,832,946,0,0
-385,78,0,0,0,0,0,0,0,0,0,-1,839,946,0,0
-378,78,0,0,0,0,0,0,0,0,0,-1,846,946,0,0
-371,78,0,0,0,0,0,0,0,0,0,-1,853,946,0,0
-364,78,0,0,0,0,0,0,0,0,0,-1,860,946,0,0
-357,78,0,0,0,0,0,0,0,0,0,-1,867,946,0,0
-350,78,0,0,0,0,0,0,0,0,0,-1,874,946,0,0
-343,78,0,0,0,0,0,0,0,0,0,-1,881,946,0,0
-336,78,0,0,0,0,0,0,0,0,0,-1,888,946,0,0
-329,78,0,0,0,0,0,0,0,0,0,-1,895,946,0,0
-322,78,0,0,0,0,0,0,0,0,0,-1,902,946,0,0
-315,78,0,0,0,0,0,0,0,0,0,-1,909,946,0,0
-308,78,0,0,0,0,0,0,0,0,0,-1,916,946,0,0
-301,78,0,0,0,0,0,0,0,0,0,-1,923,946,0,0
-294,78,0,0,0,0,0,0,0,0,0,-1,930,946,0,0
-287,78,0,0,0,0,0,0,0,0,0,-1,937,946,0,0
-280,78,0,0,0,0,0,0,0,0,0,-1,944,946,0,0
-273,78,0,0,0,0,0,0,0,0,0,-1,951,946,0,0
-266,78,0,0,0,0,0,0,0,0,0,-1,958,946,0,0
-259,78,0,0,0,0,0,0,0,0,0,-1,965,946,0,0
-252,78,0,0,0,0,0,0,0,0,0,-1,972,946,0,0
-245,78,0,0,0,0,0,0,0,0,0,-1,979,946,0,0
-238,78,0,0,0,0,0,0,0,0,0,-1,986,946,0,0
-231,78,0,0,0,0,0,0,0,0,0,-1,993,946,0,0
-224,78,0,0,0,0,0,0,0,0,0,-1,1000,946,0,0
-217,78,0,0,0,0,0,0,0,0,0,-1,1007,946,0,0
-210,78,0,0,0,0,0,0,0,0,0,-1,1014,946,0,0
-203,78,0,0,0,0,0,0,0,0,0,-1,1021,946,0,0
-196,78,0,0,0,0,0,0,0,0,0,-1,1028,946,0,0
-189,78,0,0,0,0,0,0,0,0,0,-1,1035,946,0,0
-182,78,0,0,0,0,0,0,0,0,0,-1,1042,946,0,0
-175,78,0,0,0,0,0,0,0,0,0,-1,1049,946,0,0
-168,78,0,0,0,0,0,0,0,0,0,-1,1056,946,0,0
-161,78,0,0,0,0,0,0,0,0,0,-1,1063,946,0,0
-154,78,0,0,0,0,0,0,0,0,0,-1,1070,946,0,0
-147,78,0,0,0,0,0,0,0,0,0,-1,1077,946,0,0
-140,78,0,0,0,0,0,0,0,0,0,-1,1084,946,0,0
-133,78,0,0,0,0,0,0,0,0,0,-1,1091,946,0,0
-126,78,0,0,0,0,0,0,0,0,0,-1,1098,946,0,0
-119,78,0,0,0,0,0,0,0,0,0,-1,1105,946,0,0
-112,78,0,0,0,0,0,0,0,0,0,-1,1112,946,0,0
-105,78,0,0,0,0,0,0,0,0,0,-1,1119,946,0,0
-98,78,0,0,0,0,0,0,0,0,0,-1,1126,946,0,0
-91,78,0,0,0,0,0,0,0,0,0,-1,1133,946,0,0
-84,78,0,0,0,0,0,0,0,0,0,-1,1140,946,0,0
-77,78,0,0,0,0,0,0,0,0,0,-1,1147,946,0,0
-70,78,0,0,0,0,0,0,0,0,0,-1,1154,946,0,0
-63,78,0,0,0,0,0,0,0,0,0,-1,1161,946,0,0
-56,78,0,0,0,0,0,0,0,0,0,-1,1168,946,0,0
-49,78,0,0,0,0,0,0,0,0,0,-1,1175,946,0,0
-42,78,0,0,0,0,0,0,0,0,0,-1,1182,946,0,0
-35,78,0,0,0,0,0,0,0,0,0,-1,1189,946,0,0
-28,78,0,0,0,0,0,0,0,0,0,-1,1196,946,0,0
-21,78,0,0,0,0,0,0,0,0,0,-1,1203,946,0,0
-14,78,0,0,0,0,0,0,0,0,0,-1,1210,946,0,0
-7,78,0,0,0,0,0,0,0,0,0,-1,1217,946,0,0
0,78,0,0,0,0,0,0,0,0,0,-1,1224,946,0,0
7,78,0,0,0,0,0,0,0,0,0,-1,1231,946,0,0
14,78,0,0,0,0,0,0,0,0,0,-1,1238,946,0,0
21,78,0,0,0,0,0,0,0,0,0,-1,1245,946,0,0
28,78,0,0,0,0,0,0,0,0,0,-1,1252,946,0,0
35,78,0,0,0,0,0,0,0,0,0,-1,1259,946,0,0
42,78,0,0,0,0,0,0,0,0,0,-1,1266,946,0,0
49,78,0,0,0,0,0,0,0,0,0,-1,1273,946,0,0
56,78,0,0,0,0,0,0,0,0,0,-1,1280,946,0,0
63,78,0,0,0,0,0,0,0,0,0,-1,1287,946,0,0
70,78,0,0,0,0,0,0,0,0,0,-1,1294,946,0,0
77,78,0,0,0,0,0,0,0,0,0,-1,1301,946,0,0
84,78,0,0,0,0,0,0,0,0,0,-1,1308,946,0,0
91,78,0,0,0,0,0,0,0,0,0,-1,1315,946,0,0
98,78,0,0,0,0,0,0,0,0,0,-1,1322,946,0,0
105,78,0,0,0,0,0,0,0,0,0,-1,1329,946,0,0
112,78,0,0,0,0,0,0,0,0,0,-1,1336,946,0,0
119,78,0,0,0,0,0,0,0,0,0,-1,1343,946,0,0
126,78,0,0,0,0,0,0,0,0,0,-1,1350,946,0,0
133,78,0,0,0,0,0,0,0,0,0,-1,1357,946,0,0
140,78,0,0,0,0,0,0,0,0,0,-1,1364,946,0,0
147,78,0,0,0,0,0,0,0,0,0,-1,1371,946,0,0
154,78,0,0,0,0,0,0,0,0,0,-1,1378,946,0,0
161,78,0,0,0,0,0,0,0,0,0,-1,1385,946,0,0
168,78,0,0,0,0,0,0,0,0,0,-1,1392,946,0,0
175,78,0,0,0,0,0,0,0,0,0,-1,1399,946,0,0
182,78,0,0,0,0,0,0,0,0,0,-1,1406,946,0,0
189,78,0,0,0,0,0,0,0,0,0,-1,1413,946,0,0
196,78,0,0,0,0,0,0,0,0,0,-1,1420,946,0,0
203,78,0,0,0,0,0,0,0,0,0,-1,1427,946,0,0
210,78,0,0,0,0,0,0,0,0,0,-1,1434,946,0,0
217,78,0,0,0,0,0,0,0,0,0,-1,1441,946,0,0
224,78,0,0,0,0,0,0,0,0,0,-1,1448,946,0,0
231,78,0,0,0,0,0,0,0,0,0,-1,1455,946,0,0
238,78,0,0,0,0,0,0,0,0,0,-1,1462,946,0,0
245,78,0,0,0,0,0,0,0,0,0,-1,1469,946,0,0
252,78,0,0,0,0,0,0,0,0,0,-1,1476,946,0,0
259,78,0,0,0,0,0,0,0,0,0,-1,1483,946,0,0
266,78,0,0,0,0,0,0,0,0,0,-1,1490,946,0,0
273,78,0,0,0,0,0,0,0,0,0,-1,1497,946,0,0
280,78,0,0,0,0,0,0,0,0,0,-1,1504,946,0,0
287,78,0,0,0,0,0,0,0,0,0,-1,1511,946,0,0
294,78,0,0,0,0,0,0,0,0,0,-1,1518,946,0,0
301,78,0,0,0,0,0,0,0,0,0,-1,1525,946,0,0
308,78,0,0,0,0,0,0,0,0,0,-1,1532,946,0,0
315,78,0,0,0,0,0,0,0,0,0,-1,1539,946,0,0
322,78,0,0,0,0,0,0,0,0,0,-1,1546,946,0,0
329,78,0,0,0,0,0,0,0,0,0,-1,1553,946,0,0
336,78,0,0,0,0,0,0,0,0,0,-1,1560,946,0,0
343,78,0,0,0,0,0,0,0,0,0,-1,1567,946,0,0
350,78,0,0,0,0,0,0,0,0,0,-1,1574,946,0,0
357,78,0,0,0,0,0,0,0,0,0,-1,1581,946,0,0
364,78,0,0,0,0,0,0,0,0,0,-1,1588,946,0,0
371,78,0,0,0,0,0,0,0,0,0,-1,1595,946,0,0
378,78,0,0,0,0,0,0,0,0,0,-1,1602,946,0,0
385,78,0,0,0,0,0,0,0,0,0,-1,1609,946,0,0
392,78,0,0,0,0,0,0,0,0,0,-1,1616,946,0,0
399,78,0,0,0,0,0,0,0,0,0,-1,1623,946,0,0
406,78,0,0,0,0,0,0,0,0,0,-1,1630,946,0,0
413,78,0,0,0,0,0,0,0,0,0,-1,1637,946,0,0
420,78,0,0,0,0,0,0,0,0,0,-1,1644,946,0,0
427,78,0,0,0,0,0,0,0,0,0,-1,1651,946,0,0
434,78,0,0,0,0,0,0,0,0,0,-1,1658,946,0,0
441,78,0,0,0,0,0,0,0,0,0,-1,1665,946,0,0
448,78,0,0,0,0,0,0,0,0,0,-1,1672,946,0,0
455,78,0,0,0,0,0,0,0,0,0,-1,1679,946,0,0
462,78,0,0,0,0,0,0,0,0,0,-1,1686,946,0,0
469,78,0,0,0,0,0,0,0,0,0,-1,1693,946,0,0
476,78,0,0,0,0,0,0,0,0,0,-1,1700,946,0,0
483,78,0,0,0,0,0,0,0,0,0,-1,1707,946,0,0
490,78,0,0,0,0,0,0,0,0,0,-1,1714,946,0,0
497,78,0,0,0,0,0,0,0,0,0,-1,1721,946,0,0
504,78,0,0,0,0,0,0,0,0,0,-1,1728,946,0,0
511,78,0,0,0,0,0,0,0,0,0,-1,1735,946,0,0
518,78,0,0,0,0,0,0,0,0,0,-1,1742,946,0,0
525,78,0,0,0,0,0,0,0,0,0,-1,1749,946,0,0
532,78,0,0,0,0,0,0,0,0,0,-1,1756,946,0,0
539,78,0,0,0,0,0,0,0,0,0,-1,1763,946,0,0
546,78,0,0,0,0,0,0,0,0,0,-1,1770,946,0,0
553,78,0,0,0,0,0,0,0,0,0,-1,1777,946,0,0
560,78,0,0,0,0,0,0,0,0,0,-1,1784,946,0,0
567,78,0,0,0,0,0,0,0,0,0,-1,1791,946,0,0
574,78,0,0,0,0,0,0,0,0,0,-1,1798,946,0,0
581,78,0,0,0,0,0,0,0,0,0,-1,1805,946,0,0
588,78,0,0,0,0,0,0,0,0,0,-1,1812,946,0,0
595,78,0,0,0,0,0,0,0,0,0,-1,1819,946,0,0
602,78,0,0,0,0,0,0,0,0,0,-1,1826,946,0,0
609,78,0,0,0,0,0,0,0,0,0,-1,1833,946,0,0
616,78,0,0,0,0,0,0,0,0,0,-1,1840,946,0,0
623,78,0,0,0,0,0,0,0,0,0,-1,1847,946,0,0
630,78,0,0,0,0,0,0,0,0,0,-1,1854,946,0,0
637,78,78.8909,2.2713,-0.00280685,0.00456425,0.0033121,0.00583383,-0.00407643,1.20476,0.0057516,0.0476213,1861,946,78.8909,-2.27132
644,78,78.7543,1.96753,0,0,0,0,0,0,0,-1,1868,946,78.7543,-1.96751
651,78,78.7837,2.23651,-0.00332504,0.00329056,0.00163861,0.00367418,-0.00370866,1.34083,0.0042625,0.0417229,1875,946,78.7837,-2.23652
658,78,78.9099,2.55536,-0.0027432,0.00273312,0.00114255,0.00296194,-0.00297202,1.37314,0.00342597,0.0384015,1882,946,78.91,-2.55537
665,78,78.8073,2.49109,-0.00182465,0.00223795,0.000682883,0.00234966,-0.00193636,1.40864,0.00247837,0.0402004,1889,946,78.8072,-2.49109
672,78,78.7749,2.51807,-0.00124005,0.0016106,0.000438322,0.00167647,-0.00130592,1.42162,0.00172631,0.0434713,1896,946,78.7749,-2.51804
679,78,78.8094,2.49963,-0.00104972,0.000756454,0.000438549,0.000857305,-0.00115057,1.34476,0.00116336,0.0406046,1903,946,78.8095,-2.49964
686,78,78.8384,2.36597,-0.000978904,7.50127e-05,0.00020601,0.00011385,-0.00101774,1.38446,0.000719454,0.0370585,1910,946,78.8384,-2.36594
693,78,78.8792,2.30438,-0.00116285,-0.00037954,-0.000102721,-0.000366293,-0.0011761,-1.44255,0.00069493,0.0303255,1917,946,78.8791,-2.30436
700,78,78.9105,2.34644,-0.00171515,-0.000493177,-0.000543167,-0.000286646,-0.00192168,-1.20744,0.00119707,0.0236844,1924,946,78.9105,-2.34644
707,78,78.9963,2.41815,0,0,0,0,0,0,0,-1,1931,946,78.9963,-2.41816
714,78,75.8203,4.73602,0,0,0,0,0,0,0,-1,1938,946,75.8204,-4.73603
721,78,75.6289,5.4762,0,0,0,0,0,0,0,-1,1945,946,75.6289,-5.47623
728,78,75.4052,6.51862,0,0,0,0,0,0,0,-1,1952,946,75.4051,-6.51863
735,78,75.5273,6.89923,-0.00558048,0.00395088,-0.0027279,0.00467639,-0.00630599,-1.31086,0.0063639,0.0338071,1959,946,75.5274,-6.89924
742,78,75.4908,7.39825,-0.00673753,0.00612821,-0.00347482,0.00700671,-0.00761604,-1.32317,0.00844489,0.0242938,1966,946,75.4909,-7.39826
749,78,75.3264,7.98969,-0.00790222,0.00961306,-0.00451496,0.0107084,-0.00899755,-1.33279,0.0113915,0.0174733,1973,946,75.3265,-7.9897
756,78,75.2563,8.53876,-0.00876031,0.0145232,-0.00551241,0.0157623,-0.00999943,-1.34968,0.0149971,0.0156574,1980,946,75.2564,-8.53878
763,78,75.1504,9.02997,-0.00919823,0.0203981,-0.00634617,0.0217014,-0.0105016,-1.36823,0.0189635,0.0177102,1987,946,75.1504,-9.02999
770,78,74.9749,9.52802,-0.00948617,0.0264635,-0.00715836,0.0278364,-0.0108591,-1.3813,0.0230465,0.0234308,1994,946,74.9748,-9.52799
777,78,74.6797,10.3945,-0.0100876,0.032849,-0.0078448,0.0342374,-0.011476,-1.39563,0.0274615,0.0426705,2001,946,74.6797,-10.3945
784,78,74.4121,11.3104,0,0,0,0,0,0,0,-1,2008,946,74.4121,-11.3104
791,78,73.6782,12.3209,0,0,0,0,0,0,0,-1,2015,946,73.6783,-12.3209
798,78,67.9287,7.90448,0,0,0,0,0,0,0,-1,2022,946,67.9287,-7.90446
805,78,68.5852,7.34106,0,0,0,0,0,0,0,-1,2029,946,68.5853,-7.34105
812,78,0,0,0,0,0,0,0,0,0,-1,2036,946,0,0
-700,71,0,0,0,0,0,0,0,0,0,-1,524,953,0,0
-693,71,0,0,0,0,0,0,0,0,0,-1,531,953,0,0
-686,71,-70.0028,-2.75513,0,0,0,0,0,0,0,-1,538,953,-70.0028,2.75513
-679,71,-69.5643,-1.7608,0,0,0,0,0,0,0,-1,545,953,-69.5643,1.76083
-672,71,-57.1571,9.63507,0,0,0,0,0,0,0,-1,552,953,-57.1571,-9.63509
-665,71,-57.2897,8.09198,0,0,0,0,0,0,0,-1,559,953,-57.2897,-8.092
-658,71,-58.2655,9.78412,0,0,0,0,0,0,0,-1,566,953,-58.2655,-9.78413
-651,71,-58.3897,9.255,0,0,0,0,0,0,0,-1,573,953,-58.3897,-9.25503
-644,71,-60.3004,9.42957,0,0,0,0,0,0,0,-1,580,953,-60.3004,-9.42955
-637,71,-60.5688,9.01251,0.00339608,0.0358202,0.0138218,0.0409125,-0.00169617,1.21781,0.0278576,0.0312215,587,953,-60.5688,-9.01249
-630,71,-60.484,8.29169,-0.00241681,0.0289981,0.00981892,0.0318146,-0.00523327,1.29146,0.0231521,0.0207883,594,953,-60.484,-8.29168
-623,71,-60.5183,7.7193,-0.00247043,0.0188817,0.00792589,0.0215021,-0.00509091,1.25149,0.0162989,0.0172147,601,953,-60.5183,-7.71927
-616,71,-60.5657,7.10565,-0.00239038,0.0107242,0.00630316,0.0132624,-0.00492858,1.18798,0.0108637,0.0158089,608,953,-60.5657,-7.10566
-609,71,-60.5645,6.57947,-0.00146912,0.00570904,0.00521031,0.00844679,-0.00420687,1.087,0.00744104,0.0159725,615,953,-60.5644,-6.57948
-602,71,-60.5543,6.05499,-0.000843351,0.00293402,0.00436261,0.00579922,-0.00370855,0.98968,0.00553338,0.0181925,622,953,-60.5543,-6.05502
-595,71,-60.5252,5.49335,1.53039e-05,0.00119191,0.00376787,0.00441712,-0.00320991,0.862841,0.00442182,0.0240802,629,953,-60.5252,-5.49333
-588,71,-60.4909,4.91223,0.000670991,5.84442e-05,0.00319215,0.00357153,-0.00284209,0.737572,0.00371088,0.0313267,636,953,-60.4909,-4.91225
-581,71,-60.2659,4.2265,0,0,0,0,0,0,0,-1,643,953,-60.2659,-4.22652
-574,71,-62.7379,0.323547,0,0,0,0,0,0,0,-1,650,953,-62.7379,-0.323538
-567,71,-62.6876,0.446167,0.000944975,-0.00187063,0.00105897,0.0012988,-0.00222446,0.322459,0.00205742,0.0214701,657,953,-62.6876,-0.446196
-560,71,-62.6683,0.546326,0.000840303,-0.00163988,0.000545007,0.000954781,-0.00175436,0.207039,0.00158667,0.0287586,664,953,-62.6683,-0.546349
-553,71,-62.6829,0.51532,0.000616132,-0.00101453,2.01786e-05,0.000616381,-0.00101478,0.0123719,0.000951071,0.0413668,671,953,-62.6829,-0.515336
-546,71,-62.6415,0.48468,0.00033938,-0.000127917,-0.000504363,0.000661585,-0.000450122,-0.568487,0.000645703,0.0427105,678,953,-62.6415,-0.484671
-539,71,-62.6679,0.636414,0,0,0,0,0,0,0,-1,685,953,-62.6679,-0.636428
-532,71,-62.9431,0.535095,0,0,0,0,0,0,0,-1,692,953,-62.9431,-0.535124
-525,71,-62.7102,0.609924,0,0,0,0,0,0,0,-1,699,953,-62.7102,-0.609947
-518,71,0,0,0,0,0,0,0,0,0,-1,706,953,0,0
-511,71,0,0,0,0,0,0,0,0,0,-1,713,953,0,0
-504,71,0,0,0,0,0,0,0,0,0,-1,720,953,0,0
-497,71,0,0,0,0,0,0,0,0,0,-1,727,953,0,0
-490,71,0,0,0,0,0,0,0,0,0,-1,734,953,0,0
-483,71,0,0,0,0,0,0,0,0,0,-1,741,953,0,0
-476,71,0,0,0,0,0,0,0,0,0,-1,748,953,0,0
-469,71,0,0,0,0,0,0,0,0,0,-1,755,953,0,0
-462,71,0,0,0,0,0,0,0,0,0,-1,762,953,0,0
-455,71,0,0,0,0,0,0,0,0,0,-1,769,953,0,0
-448,71,0,0,0,0,0,0,0,0,0,-1,776,953,0,0
-441,71,0,0,0,0,0,0,0,0,0,-1,783,953,0,0
-434,71,0,0,0,0,0,0,0,0,0,-1,790,953,0,0
-427,71,0,0,0,0,0,0,0,0,0,-1,797,953,0,0
-420,71,0,0,0,0,0,0,0,0,0,-1,804,953,0,0
-413,71,0,0,0,0,0,0,0,0,0,-1,811,953,0,0
-406,71,0,0,0,0,0,0,0,0,0,-1,818,953,0,0
-399,71,0,0,0,0,0,0,0,0,0,-1,825,953,0,0
-392,71,0,0,0,0,0,0,0,0,0,-1,832,953,0,0
-385,71,0,0,0,0,0,0,0,0,0,-1,839,953,0,0
-378,71,0,0,0,0,0,0,0,0,0,-1,846,953,0,0
-371,71,0,0,0,0,0,0,0,0,0,-1,853,953,0,0
-364,71,0,0,0,0,0,0,0,0,0,-1,860,953,0,0
-357,71,0,0,0,0,0,0,0,0,0,-1,867,953,0,0
-350,71,0,0,0,0,0,0,0,0,0,-1,874,953,0,0
-343,71,0,0,0,0,0,0,0,0,0,-1,881,953,0,0
-336,71,0,0,0,0,0,0,0,0,0,-1,888,953,0,0
-329,71,0,0,0,0,0,0,0,0,0,-1,895,953,0,0
-322,71,0,0,0,0,0,0,0,0,0,-1,902,953,0,0
-315,71,0,0,0,0,0,0,0,0,0,-1,909,953,0,0
-308,71,0,0,0,0,0,0,0,0,0,-1,916,953,0,0
-301,71,0,0,0,0,0,0,0,0,0,-1,923,953,0,0
-294,71,0,0,0,0,0,0,0,0,0,-1,930,953,0,0
-287,71,0,0,0,0,0,0,0,0,0,-1,937,953,0,0
-280,71,0,0,0,0,0,0,0,0,0,-1,944,953,0,0
-273,71,0,0,0,0,0,0,0,0,0,-1,951,953,0,0
-266,71,0,0,0,0,0,0,0,0,0,-1,958,953,0,0
-259,71,0,0,0,0,0,0,0,0,0,-1,965,953,0,0
-252,71,0,0,0,0,0,0,0,0,0,-1,972,953,0,0
-245,71,0,0,0,0,0,0,0,0,0,-1,979,953,0,0
-238,71,0,0,0,0,0,0,0,0,0,-1,986,953,0,0
-231,71,0,0,0,0,0,0,0,0,0,-1,993,953,0,0
-224,71,0,0,0,0,0,0,0,0,0,-1,1000,953,0,0
-217,71,0,0,0,0,0,0,0,0,0,-1,1007,953,0,0
-210,71,0,0,0,0,0,0,0,0,0,-1,1014,953,0,0
-203,71,0,0,0,0,0,0,0,0,0,-1,1021,953,0,0
-196,71,0,0,0,0,0,0,0,0,0,-1,1028,953,0,0
-189,71,0,0,0,0,0,0,0,0,0,-1,1035,953,0,0
-182,71,0,0,0,0,0,0,0,0,0,-1,1042,953,0,0
-175,71,0,0,0,0,0,0,0,0,0,-1,1049,953,0,0
-168,71,0,0,0,0,0,0,0,0,0,-1,1056,953,0,0
-161,71,0,0,0,0,0,0,0,0,0,-1,1063,953,0,0
-154,71,0,0,0,0,0,0,0,0,0,-1,1070,953,0,0
-147,71,0,0,0,0,0,0,0,0,0,-1,1077,953,0,0
-140,71,0,0,0,0,0,0,0,0,0,-1,1084,953,0,0
-133,71,0,0,0,0,0,0,0,0,0,-1,1091,953,0,0
-126,71,0,0,0,0,0,0,0,0,0,-1,1098,953,0,0
-119,71,0,0,0,0,0,0,0,0,0,-1,1105,953,0,0
-112,71,0,0,0,0,0,0,0,0,0,-1,1112,953,0,0
-105,71,0,0,0,0,0,0,0,0,0,-1,1119,953,0,0
-98,71,0,0,0,0,0,0,0,0,0,-1,1126,953,0,0
-91,71,0,0,0,0,0,0,0,0,0,-1,1133,953,0,0
-84,71,0,0,0,0,0,0,0,0,0,-1,1140,953,0,0
-77,71,0,0,0,0,0,0,0,0,0,-1,1147,953,0,0
-70,71,0,0,0,0,0,0,0,0,0,-1,1154,953,0,0
-63,71,0,0,0,0,0,0,0,0,0,-1,1161,953,0,0
-56,71,0,0,0,0,0,0,0,0,0,-1,1168,953,0,0
-49,71,0,0,0,0,0,0,0,0,0,-1,1175,953,0,0
-42,71,0,0,0,0,0,0,0,0,0,-1,1182,953,0,0
-35,71,0,0,0,0,0,0,0,0,0,-1,1189,953,0,0
-28,71,0,0,0,0,0,0,0,0,0,-1,1196,953,0,0
-21,71,0,0,0,0,0,0,0,0,0,-1,1203,953,0,0
-14,71,0,0,0,0,0,0,0,0,0,-1,1210,953,0,0
-7,71,0,0,0,0,0,0,0,0,0,-1,1217,953,0,0
0,71,0,0,0,0,0,0,0,0,0,-1,1224,953,0,0
7,71,0,0,0,0,0,0,0,0,0,-1,1231,953,0,0
14,71,0,0,0,0,0,0,0,0,0,-1,1238,953,0,0
21,71,0,0,0,0,0,0,0,0,0,-1,1245,953,0,0
28,71,0,0,0,0,0,0,0,0,0,-1,1252,953,0,0
35,71,0,0,0,0,0,0,0,0,0,-1,1259,953,0,0
42,71,0,0,0,0,0,0,0,0,0,-1,1266,953,0,0
49,71,0,0,0,0,0,0,0,0,0,-1,1273,953,0,0
56,71,0,0,0,0,0,0,0,0,0,-1,1280,953,0,0
63,71,0,0,0,0,0,0,0,0,0,-1,1287,953,0,0
70,71,0,0,0,0,0,0,0,0,0,-1,1294,953,0,0
77,71,0,0,0,0,0,0,0,0,0,-1,1301,953,0,0
84,71,0,0,0,0,0,0,0,0,0,-1,1308,953,0,0
91,71,0,0,0,0,0,0,0,0,0,-1,1315,953,0,0
98,71,0,0,0,0,0,0,0,0,0,-1,1322,953,0,0
105,71,0,0,0,0,0,0,0,0,0,-1,1329,953,0,0
112,71,0,0,0,0,0,0,0,0,0,-1,1336,953,0,0
119,71,0,0,0,0,0,0,0,0,0,-1,1343,953,0,0
126,71,0,0,0,0,0,0,0,0,0,-1,1350,953,0,0
133,71,0,0,0,0,0,0,0,0,0,-1,1357,953,0,0
140,71,0,0,0,0,0,0,0,0,0,-1,1364,953,0,0
147,71,0,0,0,0,0,0,0,0,0,-1,1371,953,0,0
154,71,0,0,0,0,0,0,0,0,0,-1,1378,953,0,0
161,71,0,0,0,0,0,0,0,0,0,-1,1385,953,0,0
168,71,0,0,0,0,0,0,0,0,0,-1,1392,953,0,0
175,71,0,0,0,0,0,0,0,0,0,-1,1399,953,0,0
182,71,0,0,0,0,0,0,0,0,0,-1,1406,953,0,0
189,71,0,0,0,0,0,0,0,0,0,-1,1413,953,0,0
196,71,0,0,0,0,0,0,0,0,0,-1,1420,953,0,0
203,71,0,0,0,0,0,0,0,0,0,-1,1427,953,0,0
210,71,0,0,0,0,0,0,0,0,0,-1,1434,953,0,0
217,71,0,0,0,0,0,0,0,0,0,-1,1441,953,0,0
224,71,0,0,0,0,0,0,0,0,0,-1,1448,953,0,0
231,71,0,0,0,0,0,0,0,0,0,-1,1455,953,0,0
238,71,0,0,0,0,0,0,0,0,0,-1,1462,953,0,0
245,71,0,0,0,0,0,0,0,0,0,-1,1469,953,0,0
252,71,0,0,0,0,0,0,0,0,0,-1,1476,953,0,0
259,71,0,0,0,0,0,0,0,0,0,-1,1483,953,0,0
266,71,0,0,0,0,0,0,0,0,0,-1,1490,953,0,0
273,71,0,0,0,0,0,0,0,0,0,-1,1497,953,0,0
280,71,0,0,0,0,0,0,0,0,0,-1,1504,953,0,0
287,71,0,0,0,0,0,0,0,0,0,-1,1511,953,0,0
294,71,0,0,0,0,0,0,0,0,0,-1,1518,953,0,0
301,71,0,0,0,0,0,0,0,0,0,-1,1525,953,0,0
308,71,0,0,0,0,0,0,0,0,0,-1,1532,953,0,0
315,71,0,0,0,0,0,0,0,0,0,-1,1539,953,0,0
322,71,0,0,0,0,0,0,0,0,0,-1,1546,953,0,0
329,71,0,0,0,0,0,0,0,0,0,-1,1553,953,0,0
336,71,0,0,0,0,0,0,0,0,0,-1,1560,953,0,0
343,71,0,0,0,0,0,0,0,0,0,-1,1567,953,0,0
350,71,0,0,0,0,0,0,0,0,0,-1,1574,953,0,0
357,71,0,0,0,0,0,0,0,0,0,-1,1581,953,0,0
364,71,0,0,0,0,0,0,0,0,0,-1,1588,953,0,0
371,71,0,0,0,0,0,0,0,0,0,-1,1595,953,0,0
378,71,0,0,0,0,0,0,0,0,0,-1,1602,953,0,0
385,71,0,0,0,0,0,0,0,0,0,-1,1609,953,0,0
392,71,0,0,0,0,0,0,0,0,0,-1,1616,953,0,0
399,71,0,0,0,0,0,0,0,0,0,-1,1623,953,0,0
406,71,0,0,0,0,0,0,0,0,0,-1,1630,953,0,0
413,71,0,0,0,0,0,0,0,0,0,-1,1637,953,0,0
420,71,0,0,0,0,0,0,0,0,0,-1,1644,953,0,0
427,71,0,0,0,0,0,0,0,0,0,-1,1651,953,0,0
434,71,0,0,0,0,0,0,0,0,0,-1,1658,953,0,0
441,71,0,0,0,0,0,0,0,0,0,-1,1665,953,0,0
448,71,0,0,0,0,0,0,0,0,0,-1,1672,953,0,0
455,71,0,0,0,0,0,0,0,0,0,-1,1679,953,0,0
462,71,0,0,0,0,0,0,0,0,0,-1,1686,953,0,0
469,71,0,0,0,0,0,0,0,0,0,-1,1693,953,0,0
476,71,0,0,0,0,0,0,0,0,0,-1,1700,953,0,0
483,71,0,0,0,0,0,0,0,0,0,-1,1707,953,0,0
490,71,0,0,0,0,0,0,0,0,0,-1,1714,953,0,0
497,71,0,0,0,0,0,0,0,0,0,-1,1721,953,0,0
504,71,0,0,0,0,0,0,0,0,0,-1,1728,953,0,0
511,71,0,0,0,0,0,0,0,0,0,-1,1735,953,0,0
518,71,0,0,0,0,0,0,0,0,0,-1,1742,953,0,0
525,71,0,0,0,0,0,0,0,0,0,-1,1749,953,0,0
532,71,0,0,0,0,0,0,0,0,0,-1,1756,953,0,0
539,71,0,0,0,0,0,0,0,0,0,-1,1763,953,0,0
546,71,0,0,0,0,0,0,0,0,0,-1,1770,953,0,0
553,71,0,0,0,0,0,0,0,0,0,-1,1777,953,0,0
560,71,0,0,0,0,0,0,0,0,0,-1,1784,953,0,0
567,71,0,0,0,0,0,0,0,0,0,-1,1791,953,0,0
574,71,0,0,0,0,0,0,0,0,0,-1,1798,953,0,0
581,71,0,0,0,0,0,0,0,0,0,-1,1805,953,0,0
588,71,0,0,0,0,0,0,0,0,0,-1,1812,953,0,0
595,71,0,0,0,0,0,0,0,0,0,-1,1819,953,0,0
602,71,0,0,0,0,0,0,0,0,0,-1,1826,953,0,0
609,71,0,0,0,0,0,0,0,0,0,-1,1833,953,0,0
616,71,0,0,0,0,0,0,0,0,0,-1,1840,953,0,0
623,71,0,0,0,0,0,0,0,0,0,-1,1847,953,0,0
630,71,0,0,0,0,0,0,0,0,0,-1,1854,953,0,0
637,71,78.8422,2.30249,0,0,0,0,0,0,0,-1,1861,953,78.8422,-2.30248
644,71,78.719,2.17273,0,0,0,0,0,0,0,-1,1868,953,78.719,-2.17275
651,71,78.87,2.23853,-0.0030873,0.00353164,0.00138631,0.00381027,-0.00336592,1.37245,0.00414582,0.0398576,1875,953,78.8699,-2.23855
658,71,78.9962,2.44446,-0.00252369,0.00298105,0.00096557,0.0031455,-0.00268815,1.4021,0.00337151,0.0367767,1882,953,78.9962,-2.44448
665,71,78.9135,2.50098,-0.00167128,0.00247515,0.000569425,0.00255193,-0.00174806,1.43677,0.00249702,0.0384001,1889,953,78.9135,-2.50098
672,71,78.6796,2.59875,-0.00109091,0.00184825,0.000369616,0.00189402,-0.00113668,1.4476,0.00176789,0.0404271,1896,953,78.6796,-2.59877
679,71,78.7388,2.48022,-0.0008544,0.00099359,0.000418359,0.00108389,-0.000944698,1.35822,0.00117212,0.0390098,1903,953,78.7387,-2.48023
686,71,78.8201,2.27606,-0.0007189,0.000238063,0.000248706,0.000298839,-0.000779676,1.33112,0.000642978,0.0377618,1910,953,78.8201,-2.27606
693,71,78.8794,2.12781,-0.000867861,-0.000295893,3.51137e-06,-0.000295872,-0.000867882,1.56466,0.000509456,0.0330798,1917,953,78.8794,-2.12782
700,71,78.9054,2.20856,-0.00139994,-0.000451916,-0.000371154,-0.000323896,-0.00152796,-1.23865,0.000929678,0.0280968,1924,953,78.9055,-2.20855
707,71,78.9607,2.34546,0,0,0,0,0,0,0,-1,1931,953,78.9607,-2.34547
714,71,76.6925,4.8938,0,0,0,0,0,0,0,-1,1938,953,76.6926,-4.89379
721,71,76.3414,5.61884,-0.00348508,0.00133273,-0.00172276,0.00188537,-0.00403771,-1.26038,0.00349414,0.0378842,1945,953,76.3415,-5.61881
728,71,76.0942,6.41962,-0.00447682,0.00246045,-0.00201501,0.00300326,-0.00501963,-1.30766,0.00468053,0.0405653,1952,953,76.0942,-6.41963
735,71,76.0911,6.99329,-0.00551484,0.00427052,-0.00262315,0.00492935,-0.00617367,-1.32473,0.00642373,0.0274351,1959,953,76.0911,-6.99329
742,71,76.0924,7.48047,-0.0067787,0.00650742,-0.00339367,0.00732407,-0.00759535,-1.33465,0.0086142,0.0264696,1966,953,76.0924,-7.48044
749,71,76.0186,7.995,-0.00815199,0.0100338,-0.00454256,0.0111054,-0.00922353,-1.33914,0.0117536,0.0225821,1973,953,76.0185,-7.99499
756,71,75.9404,8.44519,-0.00935455,0.0150798,-0.00575746,0.0163685,-0.0106432,-1.3506,0.0157115,0.019119,1980,953,75.9404,-8.4452
763,71,75.8428,8.94794,-0.0101818,0.0213713,-0.00691781,0.0228213,-0.0116319,-1.36418,0.0202382,0.0221239,1987,953,75.8428,-8.94793
770,71,75.5352,9.40503,-0.0108353,0.0279986,-0.00814288,0.0296369,-0.0124736,-1.37225,0.0249766,0.0257379,1994,953,75.5352,-9.40504
777,71,75.217,10.047,-0.0117723,0.0350555,-0.00937024,0.0368609,-0.0135777,-1.38046,0.0301372,0.0451602,2001,953,75.217,-10.047
784,71,74.9856,10.8058,-0.012031,0.042582,-0.010591,0.044564,-0.0140129,-1.3858,0.0353194,0.0484717,2008,953,74.9855,-10.8058
791,71,74.6213,11.4221,0,0,0,0,0,0,0,-1,2015,953,74.6213,-11.4221
798,71,74.6455,8.40894,0,0,0,0,0,0,0,-1,2022,953,74.6456,-8.40892
805,71,59.978,6.41992,0,0,0,0,0,0,0,-1,2029,953,59.9781,-6.41992
812,71,0,0,0,0,0,0,0,0,0,-1,2036,953,0,0
-700,64,0,0,0,0,0,0,0,0,0,-1,524,960,0,0
-693,64,0,0,0,0,0,0,0,0,0,-1,531,960,0,0
-686,64,-69.5881,-2.95184,0,0,0,0,0,0,0,-1,538,960,-69.5881,2.95187
-679,64,-68.9772,-1.66022,0,0,0,0,0,0,0,-1,545,960,-68.9772,1.66019
-672,64,-67.4869,-0.145508,0,0,0,0,0,0,0,-1,552,960,-67.4869,0.145512
-665,64,-66.5367,1.09735,0,0,0,0,0,0,0,-1,559,960,-66.5366,-1.09736
-658,64,-66.1065,2.58191,0,0,0,0,0,0,0,-1,566,960,-66.1065,-2.58189
-651,64,-60.9634,9.68744,0,0,0,0,0,0,0,-1,573,960,-60.9634,-9.68744
-644,64,-60.9792,9.12396,0.0139638,0.0390684,0.0177056,0.0482197,0.00481246,1.09375,0.0306685,0.0389954,580,960,-60.9792,-9.12393
-637,64,-60.998,8.56982,0.00480227,0.035217,0.0133333,0.0402343,-0.000215117,1.21088,0.0268949,0.0207468,587,960,-60.998,-8.56985
-630,64,-61.0654,8.12952,-0.00204878,0.0294097,0.00921874,0.0319121,-0.00455122,1.30573,0.0229428,0.0164906,594,960,-61.0654,-8.12952
-623,64,-61.1262,7.67145,-0.0025804,0.0191024,0.00740268,0.0213887,-0.00486666,1.27125,0.016128,0.0160748,601,960,-61.1262,-7.67146
-616,64,-61.1829,7.14868,-0.00291064,0.0109766,0.00584587,0.0131097,-0.00504382,1.22091,0.0108203,0.0192317,608,960,-61.1829,-7.14866
-609,64,-61.1675,6.66736,-0.00220727,0.00597817,0.00482519,0.00821259,-0.0044417,1.13712,0.0074133,0.0191223,615,960,-61.1675,-6.66735
-602,64,-61.1764,6.1499,-0.00157559,0.00307703,0.00407088,0.00543941,-0.00393797,1.04498,0.00543712,0.0181651,622,960,-61.1764,-6.14993
-595,64,-61.1917,5.66278,-0.000606885,0.00116019,0.00358735,0.0039712,-0.0034179,0.906141,0.00427009,0.0328905,629,960,-61.1917,-5.66275
-588,64,-60.9935,5.15808,0.000157134,-0.000111472,0.00310512,0.00313086,-0.0030852,0.763786,0.00358887,0.0497265,636,960,-60.9935,-5.15807
-581,64,-60.637,4.49158,0,0,0,0,0,0,0,-1,643,960,-60.637,-4.49157
-574,64,-62.7009,0.347412,0,0,0,0,0,0,0,-1,650,960,-62.7009,-0.347414
-567,64,-62.687,0.42981,0,0,0,0,0,0,0,-1,657,960,-62.6869,-0.429838
-560,64,-62.7783,0.394409,0,0,0,0,0,0,0,-1,664,960,-62.7783,-0.3944
-553,64,-62.9083,0.682983,0.000828725,-0.00102178,0.000124411,0.000837052,-0.00103011,0.0668303,0.00107992,0.0394191,671,960,-62.9083,-0.68299
-546,64,-62.6205,0.793701,0.000675488,-2.16561e-05,-0.000457957,0.000902439,-0.000248608,-0.4601,0.000699383,0.042394,678,960,-62.6205,-0.793698
-539,64,-62.5931,1.10089,-0.000115934,0.000826137,-0.00125572,0.00169626,-0.00098606,-0.964832,0.00156663,0.0447271,685,960,-62.5931,-1.10091
-532,64,-62.7564,0.868591,-0.00135841,0.000986594,-0.00237805,0.00246549,-0.0028373,-1.01444,0.00306407,0.0462153,692,960,-62.7564,-0.868564
-525,64,-63.0611,0.445007,0,0,0,0,0,0,0,-1,699,960,-63.0611,-0.444978
-518,64,0,0,0,0,0,0,0,0,0,-1,706,960,0,0
-511,64,0,0,0,0,0,0,0,0,0,-1,713,960,0,0
-504,64,0,0,0,0,0,0,0,0,0,-1,720,960,0,0
-497,64,0,0,0,0,0,0,0,0,0,-1,727,960,0,0
-490,64,0,0,0,0,0,0,0,0,0,-1,734,960,0,0
-483,64,0,0,0,0,0,0,0,0,0,-1,741,960,0,0
-476,64,0,0,0,0,0,0,0,0,0,-1,748,960,0,0
-469,64,0,0,0,0,0,0,0,0,0,-1,755,960,0,0
-462,64,0,0,0,0,0,0,0,0,0,-1,762,960,0,0
-455,64,0,0,0,0,0,0,0,0,0,-1,769,960,0,0
-448,64,0,0,0,0,0,0,0,0,0,-1,776,960,0,0
-441,64,0,0,0,0,0,0,0,0,0,-1,783,960,0,0
-434,64,0,0,0,0,0,0,0,0,0,-1,790,960,0,0
-427,64,0,0,0,0,0,0,0,0,0,-1,797,960,0,0
-420,64,0,0,0,0,0,0,0,0,0,-1,804,960,0,0
-413,64,0,0,0,0,0,0,0,0,0,-1,811,960,0,0
-406,64,0,0,0,0,0,0,0,0,0,-1,818,960,0,0
-399,64,0,0,0,0,0,0,0,0,0,-1,825,960,0,0
-392,64,0,0,0,0,0,0,0,0,0,-1,832,960,0,0
-385,64,0,0,0,0,0,0,0,0,0,-1,839,960,0,0
-378,64,0,0,0,0,0,0,0,0,0,-1,846,960,0,0
-371,64,0,0,0,0,0,0,0,0,0,-1,853,960,0,0
-364,64,0,0,0,0,0,0,0,0,0,-1,860,960,0,0
-357,64,0,0,0,0,0,0,0,0,0,-1,867,960,0,0
-350,64,0,0,0,0,0,0,0,0,0,-1,874,960,0,0
-343,64,0,0,0,0,0,0,0,0,0,-1,881,960,0,0
-336,64,0,0,0,0,0,0,0,0,0,-1,888,960,0,0
-329,64,0,0,0,0,0,0,0,0,0,-1,895,960,0,0
-322,64,0,0,0,0,0,0,0,0,0,-1,902,960,0,0
-315,64,0,0,0,0,0,0,0,0,0,-1,909,960,0,0
-308,64,0,0,0,0,0,0,0,0,0,-1,916,960,0,0
-301,64,0,0,0,0,0,0,0,0,0,-1,923,960,0,0
-294,64,0,0,0,0,0,0,0,0,0,-1,930,960,0,0
-287,64,0,0,0,0,0,0,0,0,0,-1,937,960,0,0
-280,64,0,0,0,0,0,0,0,0,0,-1,944,960,0,0
-273,64,0,0,0,0,0,0,0,0,0,-1,951,960,0,0
-266,64,0,0,0,0,0,0,0,0,0,-1,958,960,0,0
-259,64,0,0,0,0,0,0,0,0,0,-1,965,960,0,0
-252,64,0,0,0,0,0,0,0,0,0,-1,972,960,0,0
-245,64,0,0,0,0,0,0,0,0,0,-1,979,960,0,0
-238,64,0,0,0,0,0,0,0,0,0,-1,986,960,0,0
-231,64,0,0,0,0,0,0,0,0,0,-1,993,960,0,0
-224,64,0,0,0,0,0,0,0,0,0,-1,1000,960,0,0
-217,64,0,0,0,0,0,0,0,0,0,-1,1007,960,0,0
-210,64,0,0,0,0,0,0,0,0,0,-1,1014,960,0,0
-203,64,0,0,0,0,0,0,0,0,0,-1,1021,960,0,0
-196,64,0,0,0,0,0,0,0,0,0,-1,1028,960,0,0
-189,64,0,0,0,0,0,0,0,0,0,-1,1035,960,0,0
-182,64,0,0,0,0,0,0,0,0,0,-1,1042,960,0,0
-175,64,0,0,0,0,0,0,0,0,0,-1,1049,960,0,0
-168,64,0,0,0,0,0,0,0,0,0,-1,1056,960,0,0
-161,64,0,0,0,0,0,0,0,0,0,-1,1063,960,0,0
-154,64,0,0,0,0,0,0,0,0,0,-1,1070,960,0,0
-147,64,0,0,0,0,0,0,0,0,0,-1,1077,960,0,0
-140,64,0,0,0,0,0,0,0,0,0,-1,1084,960,0,0
-133,64,0,0,0,0,0,0,0,0,0,-1,1091,960,0,0
-126,64,0,0,0,0,0,0,0,0,0,-1,1098,960,0,0
-119,64,0,0,0,0,0,0,0,0,0,-1,1105,960,0,0
-112,64,0,0,0,0,0,0,0,0,0,-1,1112,960,0,0
-105,64,0,0,0,0,0,0,0,0,0,-1,1119,960,0,0
-98,64,0,0,0,0,0,0,0,0,0,-1,1126,960,0,0
-91,64,0,0,0,0,0,0,0,0,0,-1,1133,960,0,0
-84,64,0,0,0,0,0,0,0,0,0,-1,1140,960,0,0
-77,64,0,0,0,0,0,0,0,0,0,-1,1147,960,0,0
-70,64,0,0,0,0,0,0,0,0,0,-1,1154,960,0,0
-63,64,0,0,0,0,0,0,0,0,0,-1,1161,960,0,0
-56,64,0,0,0,0,0,0,0,0,0,-1,1168,960,0,0
-49,64,0,0,0,0,0,0,0,0,0,-1,1175,960,0,0
-42,64,0,0,0,0,0,0,0,0,0,-1,1182,960,0,0
-35,64,0,0,0,0,0,0,0,0,0,-1,1189,960,0,0
-28,64,0,0,0,0,0,0,0,0,0,-1,1196,960,0,0
-21,64,0,0,0,0,0,0,0,0,0,-1,1203,960,0,0
-14,64,0,0,0,0,0,0,0,0,0,-1,1210,960,0,0
-7,64,0,0,0,0,0,0,0,0,0,-1,1217,960,0,0
0,64,0,0,0,0,0,0,0,0,0,-1,1224,960,0,0
7,64,0,0,0,0,0,0,0,0,0,-1,1231,960,0,0
14,64,0,0,0,0,0,0,0,0,0,-1,1238,960,0,0
21,64,0,0,0,0,0,0,0,0,0,-1,1245,960,0,0
28,64,0,0,0,0,0,0,0,0,0,-1,1252,960,0,0
35,64,0,0,0,0,0,0,0,0,0,-1,1259,960,0,0
42,64,0,0,0,0,0,0,0,0,0,-1,1266,960,0,0
49,64,0,0,0,0,0,0,0,0,0,-1,1273,960,0,0
56,64,0,0,0,0,0,0,0,0,0,-1,1280,960,0,0
63,64,0,0,0,0,0,0,0,0,0,-1,1287,960,0,0
70,64,0,0,0,0,0,0,0,0,0,-1,1294,960,0,0
77,64,0,0,0,0,0,0,0,0,0,-1,1301,960,0,0
84,64,0,0,0,0,0,0,0,0,0,-1,1308,960,0,0
91,64,0,0,0,0,0,0,0,0,0,-1,1315,960,0,0
98,64,0,0,0,0,0,0,0,0,0,-1,1322,960,0,0
105,64,0,0,0,0,0,0,0,0,0,-1,1329,960,0,0
112,64,0,0,0,0,0,0,0,0,0,-1,1336,960,0,0
119,64,0,0,0,0,0,0,0,0,0,-1,1343,960,0,0
126,64,0,0,0,0,0,0,0,0,0,-1,1350,960,0,0
133,64,0,0,0,0,0,0,0,0,0,-1,1357,960,0,0
140,64,0,0,0,0,0,0,0,0,0,-1,1364,960,0,0
147,64,0,0,0,0,0,0,0,0,0,-1,1371,960,0,0
154,64,0,0,0,0,0,0,0,0,0,-1,1378,960,0,0
161,64,0,0,0,0,0,0,0,0,0,-1,1385,960,0,0
168,64,0,0,0,0,0,0,0,0,0,-1,1392,960,0,0
175,64,0,0,0,0,0,0,0,0,0,-1,1399,960,0,0
182,64,0,0,0,0,0,0,0,0,0,-1,1406,960,0,0
189,64,0,0,0,0,0,0,0,0,0,-1,1413,960,0,0
196,64,0,0,0,0,0,0,0,0,0,-1,1420,960,0,0
203,64,0,0,0,0,0,0,0,0,0,-1,1427,960,0,0
210,64,0,0,0,0,0,0,0,0,0,-1,1434,960,0,0
217,64,0,0,0,0,0,0,0,0,0,-1,1441,960,0,0
224,64,0,0,0,0,0,0,0,0,0,-1,1448,960,0,0
231,64,0,0,0,0,0,0,0,0,0,-1,1455,960,0,0
238,64,0,0,0,0,0,0,0,0,0,-1,1462,960,0,0
245,64,0,0,0,0,0,0,0,0,0,-1,1469,960,0,0
252,64,0,0,0,0,0,0,0,0,0,-1,1476,960,0,0
259,64,0,0,0,0,0,0,0,0,0,-1,1483,960,0,0
266,64,0,0,0,0,0,0,0,0,0,-1,1490,960,0,0
273,64,0,0,0,0,0,0,0,0,0,-1,1497,960,0,0
280,64,0,0,0,0,0,0,0,0,0,-1,1504,960,0,0
287,64,0,0,0,0,0,0,0,0,0,-1,1511,960,0,0
294,64,0,0,0,0,0,0,0,0,0,-1,1518,960,0,0
301,64,0,0,0,0,0,0,0,0,0,-1,1525,960,0,0
308,64,0,0,0,0,0,0,0,0,0,-1,1532,960,0,0
315,64,0,0,0,0,0,0,0,0,0,-1,1539,960,0,0
322,64,0,0,0,0,0,0,0,0,0,-1,1546,960,0,0
329,64,0,0,0,0,0,0,0,0,0,-1,1553,960,0,0
336,64,0,0,0,0,0,0,0,0,0,-1,1560,960,0,0
343,64,0,0,0,0,0,0,0,0,0,-1,1567,960,0,0
350,64,0,0,0,0,0,0,0,0,0,-1,1574,960,0,0
357,64,0,0,0,0,0,0,0,0,0,-1,1581,960,0,0
364,64,0,0,0,0,0,0,0,0,0,-1,1588,960,0,0
371,64,0,0,0,0,0,0,0,0,0,-1,1595,960,0,0
378,64,0,0,0,0,0,0,0,0,0,-1,1602,960,0,0
385,64,0,0,0,0,0,0,0,0,0,-1,1609,960,0,0
392,64,0,0,0,0,0,0,0,0,0,-1,1616,960,0,0
399,64,0,0,0,0,0,0,0,0,0,-1,1623,960,0,0
406,64,0,0,0,0,0,0,0,0,0,-1,1630,960,0,0
413,64,0,0,0,0,0,0,0,0,0,-1,1637,960,0,0
420,64,0,0,0,0,0,0,0,0,0,-1,1644,960,0,0
427,64,0,0,0,0,0,0,0,0,0,-1,1651,960,0,0
434,64,0,0,0,0,0,0,0,0,0,-1,1658,960,0,0
441,64,0,0,0,0,0,0,0,0,0,-1,1665,960,0,0
448,64,0,0,0,0,0,0,0,0,0,-1,1672,960,0,0
455,64,0,0,0,0,0,0,0,0,0,-1,1679,960,0,0
462,64,0,0,0,0,0,0,0,0,0,-1,1686,960,0,0
469,64,0,0,0,0,0,0,0,0,0,-1,1693,960,0,0
476,64,0,0,0,0,0,0,0,0,0,-1,1700,960,0,0
483,64,0,0,0,0,0,0,0,0,0,-1,1707,960,0,0
490,64,0,0,0,0,0,0,0,0,0,-1,1714,960,0,0
497,64,0,0,0,0,0,0,0,0,0,-1,1721,960,0,0
504,64,0,0,0,0,0,0,0,0,0,-1,1728,960,0,0
511,64,0,0,0,0,0,0,0,0,0,-1,1735,960,0,0
518,64,0,0,0,0,0,0,0,0,0,-1,1742,960,0,0
525,64,0,0,0,0,0,0,0,0,0,-1,1749,960,0,0
532,64,0,0,0,0,0,0,0,0,0,-1,1756,960,0,0
539,64,0,0,0,0,0,0,0,0,0,-1,1763,960,0,0
546,64,0,0,0,0,0,0,0,0,0,-1,1770,960,0,0
553,64,0,0,0,0,0,0,0,0,0,-1,1777,960,0,0
560,64,0,0,0,0,0,0,0,0,0,-1,1784,960,0,0
567,64,0,0,0,0,0,0,0,0,0,-1,1791,960,0,0
574,64,0,0,0,0,0,0,0,0,0,-1,1798,960,0,0
581,64,0,0,0,0,0,0,0,0,0,-1,1805,960,0,0
588,64,0,0,0,0,0,0,0,0,0,-1,1812,960,0,0
595,64,0,0,0,0,0,0,0,0,0,-1,1819,960,0,0
602,64,0,0,0,0,0,0,0,0,0,-1,1826,960,0,0
609,64,0,0,0,0,0,0,0,0,0,-1,1833,960,0,0
616,64,0,0,0,0,0,0,0,0,0,-1,1840,960,0,0
623,64,0,0,0,0,0,0,0,0,0,-1,1847,960,0,0
630,64,0,0,0,0,0,0,0,0,0,-1,1854,960,0,0
637,64,0,0,0,0,0,0,0,0,0,-1,1861,960,0,0
644,64,78.9954,2.32062,-0.00310996,0.00321188,0.00165986,0.00362119,-0.00351927,1.32903,0.00412269,0.0421248,1868,960,78.9954,-2.32063
651,64,78.9835,2.35864,-0.00291255,0.00281189,0.0010258,0.00299016,-0.00309082,1.39873,0.00351101,0.040044,1875,960,78.9835,-2.35862
658,64,78.9611,2.43146,-0.00231784,0.00242755,0.000739791,0.00254021,-0.0024305,1.41968,0.00287007,0.035943,1882,960,78.9611,-2.43148
665,64,78.9006,2.59119,-0.00149814,0.00208753,0.000448167,0.00214269,-0.00155331,1.44832,0.00214291,0.0379831,1889,960,78.9006,-2.59116
672,64,78.8396,2.5119,-0.000908536,0.00163583,0.000312422,0.00167363,-0.000946336,1.45039,0.00153194,0.0395995,1896,960,78.8396,-2.51193
679,64,78.8574,2.26953,-0.000610682,0.000917851,0.000407522,0.00101971,-0.000712543,1.32586,0.00100535,0.0402405,1903,960,78.8574,-2.26956
686,64,78.8077,2.09412,-0.000405062,0.000200388,0.000303313,0.000326196,-0.000530871,1.17761,0.000499509,0.0366901,1910,960,78.8078,-2.09414
693,64,78.801,2.08234,-0.00050505,-0.000329638,0.000113502,-0.000273904,-0.000560785,1.11434,0.000323798,0.0324057,1917,960,78.801,-2.08235
700,64,78.9166,2.26581,-0.000987063,-0.0004707,-0.000210982,-0.000395459,-0.0010623,-1.22823,0.000619957,0.0302875,1924,960,78.9166,-2.26581
707,64,79.0062,2.36853,0,0,0,0,0,0,0,-1,1931,960,79.0062,-2.3685
714,64,77.5824,5.13477,0,0,0,0,0,0,0,-1,1938,960,77.5824,-5.13475
721,64,76.9296,5.74854,-0.00331727,0.00152796,-0.00155841,0.00198592,-0.00377523,-1.28498,0.00337925,0.0367165,1945,960,76.9295,-5.74856
728,64,76.5795,6.42798,-0.00433341,0.00279516,-0.00189997,0.00326993,-0.00480819,-1.32592,0.00469201,0.0290245,1952,960,76.5794,-6.42799
735,64,76.5154,7.06311,-0.00535062,0.0047379,-0.0025586,0.0053497,-0.00596242,-1.33609,0.00653425,0.0373968,1959,960,76.5154,-7.0631
742,64,76.6682,7.44397,-0.00672026,0.00706752,-0.00336124,0.00784329,-0.00749603,-1.34397,0.00885691,0.0313103,1966,960,76.6682,-7.44395
749,64,76.6311,7.94,-0.00828668,0.01061,-0.00459523,0.0116682,-0.00934488,-1.34446,0.0121566,0.0180252,1973,960,76.6311,-7.94002
756,64,76.5427,8.39185,-0.00981778,0.0156725,-0.00596404,0.0169989,-0.0111442,-1.35196,0.0163652,0.0173647,1980,960,76.5428,-8.39184
763,64,76.4729,8.883,-0.0110296,0.0222043,-0.00737777,0.0237685,-0.0125938,-1.36187,0.0213216,0.0199126,1987,960,76.4728,-8.88298
770,64,76.1914,9.25494,-0.0120152,0.02928,-0.00894708,0.0311352,-0.0138703,-1.36635,0.0266136,0.0197919,1994,960,76.1914,-9.25493
777,64,75.8579,9.65332,-0.0132285,0.0368315,-0.0105997,0.0389834,-0.0153803,-1.37051,0.032358,0.0356677,2001,960,75.8579,-9.65334
784,64,75.5691,9.99762,-0.0137412,0.0449963,-0.012376,0.0474975,-0.0162423,-1.37139,0.0382465,0.0480854,2008,960,75.569,-9.99759
791,64,75.2874,10.4042,0,0,0,0,0,0,0,-1,2015,960,75.2874,-10.4042
798,64,76.1096,9.16791,0,0,0,0,0,0,0,-1,2022,960,76.1096,-9.16789
805,64,71.8018,7.16925,0,0,0,0,0,0,0,-1,2029,960,71.8016,-7.16926
812,64,0,0,0,0,0,0,0,0,0,-1,2036,960,0,0
-700,57,0,0,0,0,0,0,0,0,0,-1,524,967,0,0
-693,57,0,0,0,0,0,0,0,0,0,-1,531,967,0,0
-686,57,-69.4371,-3.0874,0.136131,0.0369286,0.065358,0.168578,0.00448132,0.460808,0.110922,0.0448527,538,967,-69.4371,3.08742
-679,57,-68.702,-1.78473,0,0,0,0,0,0,0,-1,545,967,-68.702,1.78476
-672,57,-67.4795,-0.898621,0.0812386,0.0316961,0.0440775,0.107029,0.00590613,0.529396,0.0694674,0.0495135,552,967,-67.4795,0.898626
-665,57,-66.4033,0.171631,0,0,0,0,0,0,0,-1,559,967,-66.4033,-0.171637
-658,57,-65.6603,1.69305,0,0,0,0,0,0,0,-1,566,967,-65.6603,-1.69307
-651,57,-61.7325,9.04205,0,0,0,0,0,0,0,-1,573,967,-61.7325,-9.04204
-644,57,-61.6259,8.69232,0.0151639,0.0353393,0.0174548,0.0454118,0.00509142,1.04741,0.0287282,0.0395654,580,967,-61.6259,-8.69232
-637,57,-61.5723,8.34985,0.00543527,0.0335325,0.0131359,0.0387171,0.000250695,1.19488,0.0257282,0.0222077,587,967,-61.5723,-8.34986
-630,57,-61.6526,7.97803,-0.00231153,0.0290915,0.00884036,0.0314092,-0.00462916,1.3144,0.0226408,0.0150758,594,967,-61.6526,-7.978
-623,57,-61.705,7.59015,-0.00328525,0.0191121,0.00692496,0.0210803,-0.0052534,1.29389,0.016093,0.0143557,601,967,-61.705,-7.59016
-616,57,-61.7075,7.15033,-0.00377217,0.0111192,0.00541392,0.0128794,-0.0055324,1.25645,0.0109085,0.0160815,608,967,-61.7075,-7.15036
-609,57,-61.7209,6.68713,-0.00315687,0.00618175,0.00443145,0.00794985,-0.00492497,1.19116,0.00750135,0.0162542,615,967,-61.7209,-6.68714
-602,57,-61.7316,6.18201,-0.00246023,0.00320014,0.00372084,0.00504484,-0.00430494,1.11053,0.00540373,0.0118994,622,967,-61.7316,-6.18203
-595,57,-61.73,5.70514,-0.00137169,0.00113835,0.0033106,0.00342384,-0.00365718,0.966575,0.00408896,0.0240649,629,967,-61.73,-5.70513
-588,57,-61.3909,5.45648,0,0,0,0,0,0,0,-1,636,967,-61.3909,-5.45647
-581,57,-62.593,0.619019,0,0,0,0,0,0,0,-1,643,967,-62.593,-0.61902
-574,57,-62.6555,0.516479,0.000289927,-0.00229708,0.00165698,0.0010985,-0.00310566,0.453986,0.00251779,0.0355384,650,967,-62.6554,-0.516486
-567,57,-62.7401,0.54126,0.000644955,-0.00234917,0.00122468,0.00108207,-0.00278629,0.342827,0.00230451,0.0327827,657,967,-62.74,-0.541255
-560,57,-62.6794,0.481995,0.000947291,-0.00197924,0.000804927,0.00115407,-0.00218602,0.251456,0.00195884,0.0406191,664,967,-62.6794,-0.481975
-553,57,-62.6935,0.496704,0.0011491,-0.00116883,0.000375661,0.00120846,-0.00122819,0.156725,0.00140682,0.0416569,671,967,-62.6936,-0.496689
-546,57,-62.6198,1.00763,0.00117758,-0.000182145,-0.000154347,0.00119488,-0.000199445,-0.111621,0.000870719,0.0426722,678,967,-62.6198,-1.00764
-539,57,-62.4329,1.35907,0.000404592,0.000497128,-0.000935872,0.00138788,-0.000486155,-0.810098,0.00112295,0.0455915,685,967,-62.4329,-1.35904
-532,57,-62.6208,1.00201,-0.000788228,0.000434494,-0.00208843,0.00199921,-0.00235295,-0.927788,0.00251548,0.0435065,692,967,-62.6208,-1.00201
-525,57,-62.7505,0.3302,-0.00281243,0.000852926,-0.00377982,0.00322093,-0.00518043,-1.01113,0.00489431,0.042013,699,967,-62.7505,-0.330213
-518,57,0,0,0,0,0,0,0,0,0,-1,706,967,0,0
-511,57,0,0,0,0,0,0,0,0,0,-1,713,967,0,0
-504,57,0,0,0,0,0,0,0,0,0,-1,720,967,0,0
-497,57,0,0,0,0,0,0,0,0,0,-1,727,967,0,0
-490,57,0,0,0,0,0,0,0,0,0,-1,734,967,0,0
-483,57,0,0,0,0,0,0,0,0,0,-1,741,967,0,0
-476,57,0,0,0,0,0,0,0,0,0,-1,748,967,0,0
-469,57,0,0,0,0,0,0,0,0,0,-1,755,967,0,0
-462,57,0,0,0,0,0,0,0,0,0,-1,762,967,0,0
-455,57,0,0,0,0,0,0,0,0,0,-1,769,967,0,0
-448,57,0,0,0,0,0,0,0,0,0,-1,776,967,0,0
-441,57,0,0,0,0,0,0,0,0,0,-1,783,967,0,0
-434,57,0,0,0,0,0,0,0,0,0,-1,790,967,0,0
-427,57,0,0,0,0,0,0,0,0,0,-1,797,967,0,0
-420,57,0,0,0,0,0,0,0,0,0,-1,804,967,0,0
-413,57,0,0,0,0,0,0,0,0,0,-1,811,967,0,0
-406,57,0,0,0,0,0,0,0,0,0,-1,818,967,0,0
-399,57,0,0,0,0,0,0,0,0,0,-1,825,967,0,0
-392,57,0,0,0,0,0,0,0,0,0,-1,832,967,0,0
-385,57,0,0,0,0,0,0,0,0,0,-1,839,967,0,0
-378,57,0,0,0,0,0,0,0,0,0,-1,846,967,0,0
-371,57,0,0,0,0,0,0,0,0,0,-1,853,967,0,0
-364,57,0,0,0,0,0,0,0,0,0,-1,860,967,0,0
-357,57,0,0,0,0,0,0,0,0,0,-1,867,967,0,0
-350,57,0,0,0,0,0,0,0,0,0,-1,874,967,0,0
-343,57,0,0,0,0,0,0,0,0,0,-1,881,967,0,0
-336,57,0,0,0,0,0,0,0,0,0,-1,888,967,0,0
-329,57,0,0,0,0,0,0,0,0,0,-1,895,967,0,0
-322,57,0,0,0,0,0,0,0,0,0,-1,902,967,0,0
-315,57,0,0,0,0,0,0,0,0,0,-1,909,967,0,0
-308,57,0,0,0,0,0,0,0,0,0,-1,916,967,0,0
-301,57,0,0,0,0,0,0,0,0,0,-1,923,967,0,0
-294,57,0,0,0,0,0,0,0,0,0,-1,930,967,0,0
-287,57,0,0,0,0,0,0,0,0,0,-1,937,967,0,0
-280,57,0,0,0,0,0,0,0,0,0,-1,944,967,0,0
-273,57,0,0,0,0,0,0,0,0,0,-1,951,967,0,0
-266,57,0,0,0,0,0,0,0,0,0,-1,958,967,0,0
-259,57,0,0,0,0,0,0,0,0,0,-1,965,967,0,0
-252,57,0,0,0,0,0,0,0,0,0,-1,972,967,0,0
-245,57,0,0,0,0,0,0,0,0,0,-1,979,967,0,0
-238,57,0,0,0,0,0,0,0,0,0,-1,986,967,0,0
-231,57,0,0,0,0,0,0,0,0,0,-1,993,967,0,0
-224,57,0,0,0,0,0,0,0,0,0,-1,1000,967,0,0
-217,57,0,0,0,0,0,0,0,0,0,-1,1007,967,0,0
-210,57,0,0,0,0,0,0,0,0,0,-1,1014,967,0,0
-203,57,0,0,0,0,0,0,0,0,0,-1,1021,967,0,0
-196,57,0,0,0,0,0,0,0,0,0,-1,1028,967,0,0
-189,57,0,0,0,0,0,0,0,0,0,-1,1035,967,0,0
-182,57,0,0,0,0,0,0,0,0,0,-1,1042,967,0,0
-175,57,0,0,0,0,0,0,0,0,0,-1,1049,967,0,0
-168,57,0,0,0,0,0,0,0,0,0,-1,1056,967,0,0
-161,57,0,0,0,0,0,0,0,0,0,-1,1063,967,0,0
-154,57,0,0,0,0,0,0,0,0,0,-1,1070,967,0,0
-147,57,0,0,0,0,0,0,0,0,0,-1,1077,967,0,0
-140,57,0,0,0,0,0,0,0,0,0,-1,1084,967,0,0
-133,57,0,0,0,0,0,0,0,0,0,-1,1091,967,0,0
-126,57,0,0,0,0,0,0,0,0,0,-1,1098,967,0,0
-119,57,0,0,0,0,0,0,0,0,0,-1,1105,967,0,0
-112,57,0,0,0,0,0,0,0,0,0,-1,1112,967,0,0
-105,57,0,0,0,0,0,0,0,0,0,-1,1119,967,0,0
-98,57,0,0,0,0,0,0,0,0,0,-1,1126,967,0,0
-91,57,0,0,0,0,0,0,0,0,0,-1,1133,967,0,0
-84,57,0,0,0,0,0,0,0,0,0,-1,1140,967,0,0
-77,57,0,0,0,0,0,0,0,0,0,-1,1147,967,0,0
-70,57,0,0,0,0,0,0,0,0,0,-1,1154,967,0,0
-63,57,0,0,0,0,0,0,0,0,0,-1,1161,967,0,0
-56,57,0,0,0,0,0,0,0,0,0,-1,1168,967,0,0
-49,57,0,0,0,0,0,0,0,0,0,-1,1175,967,0,0
-42,57,0,0,0,0,0,0,0,0,0,-1,1182,967,0,0
-35,57,0,0,0,0,0,0,0,0,0,-1,1189,967,0,0
-28,57,0,0,0,0,0,0,0,0,0,-1,1196,967,0,0
-21,57,0,0,0,0,0,0,0,0,0,-1,1203,967,0,0
-14,57,0,0,0,0,0,0,0,0,0,-1,1210,967,0,0
-7,57,0,0,0,0,0,0,0,0,0,-1,1217,967,0,0
0,57,0,0,0,0,0,0,0,0,0,-1,1224,967,0,0
7,57,0,0,0,0,0,0,0,0,0,-1,1231,967,0,0
14,57,0,0,0,0,0,0,0,0,0,-1,1238,967,0,0
21,57,0,0,0,0,0,0,0,0,0,-1,1245,967,0,0
28,57,0,0,0,0,0,0,0,0,0,-1,1252,967,0,0
35,57,0,0,0,0,0,0,0,0,0,-1,1259,967,0,0
42,57,0,0,0,0,0,0,0,0,0,-1,1266,967,0,0
49,57,0,0,0,0,0,0,0,0,0,-1,1273,967,0,0
56,57,0,0,0,0,0,0,0,0,0,-1,1280,967,0,0
63,57,0,0,0,0,0,0,0,0,0,-1,1287,967,0,0
70,57,0,0,0,0,0,0,0,0,0,-1,1294,967,0,0
77,57,0,0,0,0,0,0,0,0,0,-1,1301,967,0,0
84,57,0,0,0,0,0,0,0,0,0,-1,1308,967,0,0
91,57,0,0,0,0,0,0,0,0,0,-1,1315,967,0,0
98,57,0,0,0,0,0,0,0,0,0,-1,1322,967,0,0
105,57,0,0,0,0,0,0,0,0,0,-1,1329,967,0,0
112,57,0,0,0,0,0,0,0,0,0,-1,1336,967,0,0
119,57,0,0,0,0,0,0,0,0,0,-1,1343,967,0,0
126,57,0,0,0,0,0,0,0,0,0,-1,1350,967,0,0
133,57,0,0,0,0,0,0,0,0,0,-1,1357,967,0,0
140,57,0,0,0,0,0,0,0,0,0,-1,1364,967,0,0
147,57,0,0,0,0,0,0,0,0,0,-1,1371,967,0,0
154,57,0,0,0,0,0,0,0,0,0,-1,1378,967,0,0
161,57,0,0,0,0,0,0,0,0,0,-1,1385,967,0,0
168,57,0,0,0,0,0,0,0,0,0,-1,1392,967,0,0
175,57,0,0,0,0,0,0,0,0,0,-1,1399,967,0,0
182,57,0,0,0,0,0,0,0,0,0,-1,1406,967,0,0
189,57,0,0,0,0,0,0,0,0,0,-1,1413,967,0,0
196,57,0,0,0,0,0,0,0,0,0,-1,1420,967,0,0
203,57,0,0,0,0,0,0,0,0,0,-1,1427,967,0,0
210,57,0,0,0,0,0,0,0,0,0,-1,1434,967,0,0
217,57,0,0,0,0,0,0,0,0,0,-1,1441,967,0,0
224,57,0,0,0,0,0,0,0,0,0,-1,1448,967,0,0
231,57,0,0,0,0,0,0,0,0,0,-1,1455,967,0,0
238,57,0,0,0,0,0,0,0,0,0,-1,1462,967,0,0
245,57,0,0,0,0,0,0,0,0,0,-1,1469,967,0,0
252,57,0,0,0,0,0,0,0,0,0,-1,1476,967,0,0
259,57,0,0,0,0,0,0,0,0,0,-1,1483,967,0,0
266,57,0,0,0,0,0,0,0,0,0,-1,1490,967,0,0
273,57,0,0,0,0,0,0,0,0,0,-1,1497,967,0,0
280,57,0,0,0,0,0,0,0,0,0,-1,1504,967,0,0
287,57,0,0,0,0,0,0,0,0,0,-1,1511,967,0,0
294,57,0,0,0,0,0,0,0,0,0,-1,1518,967,0,0
301,57,0,0,0,0,0,0,0,0,0,-1,1525,967,0,0
308,57,0,0,0,0,0,0,0,0,0,-1,1532,967,0,0
315,57,0,0,0,0,0,0,0,0,0,-1,1539,967,0,0
322,57,0,0,0,0,0,0,0,0,0,-1,1546,967,0,0
329,57,0,0,0,0,0,0,0,0,0,-1,1553,967,0,0
336,57,0,0,0,0,0,0,0,0,0,-1,1560,967,0,0
343,57,0,0,0,0,0,0,0,0,0,-1,1567,967,0,0
350,57,0,0,0,0,0,0,0,0,0,-1,1574,967,0,0
357,57,0,0,0,0,0,0,0,0,0,-1,1581,967,0,0
364,57,0,0,0,0,0,0,0,0,0,-1,1588,967,0,0
371,57,0,0,0,0,0,0,0,0,0,-1,1595,967,0,0
378,57,0,0,0,0,0,0,0,0,0,-1,1602,967,0,0
385,57,0,0,0,0,0,0,0,0,0,-1,1609,967,0,0
392,57,0,0,0,0,0,0,0,0,0,-1,1616,967,0,0
399,57,0,0,0,0,0,0,0,0,0,-1,1623,967,0,0
406,57,0,0,0,0,0,0,0,0,0,-1,1630,967,0,0
413,57,0,0,0,0,0,0,0,0,0,-1,1637,967,0,0
420,57,0,0,0,0,0,0,0,0,0,-1,1644,967,0,0
427,57,0,0,0,0,0,0,0,0,0,-1,1651,967,0,0
434,57,0,0,0,0,0,0,0,0,0,-1,1658,967,0,0
441,57,0,0,0,0,0,0,0,0,0,-1,1665,967,0,0
448,57,0,0,0,0,0,0,0,0,0,-1,1672,967,0,0
455,57,0,0,0,0,0,0,0,0,0,-1,1679,967,0,0
462,57,0,0,0,0,0,0,0,0,0,-1,1686,967,0,0
469,57,0,0,0,0,0,0,0,0,0,-1,1693,967,0,0
476,57,0,0,0,0,0,0,0,0,0,-1,1700,967,0,0
483,57,0,0,0,0,0,0,0,0,0,-1,1707,967,0,0
490,57,0,0,0,0,0,0,0,0,0,-1,1714,967,0,0
497,57,0,0,0,0,0,0,0,0,0,-1,1721,967,0,0
504,57,0,0,0,0,0,0,0,0,0,-1,1728,967,0,0
511,57,0,0,0,0,0,0,0,0,0,-1,1735,967,0,0
518,57,0,0,0,0,0,0,0,0,0,-1,1742,967,0,0
525,57,0,0,0,0,0,0,0,0,0,-1,1749,967,0,0
532,57,0,0,0,0,0,0,0,0,0,-1,1756,967,0,0
539,57,0,0,0,0,0,0,0,0,0,-1,1763,967,0,0
546,57,0,0,0,0,0,0,0,0,0,-1,1770,967,0,0
553,57,0,0,0,0,0,0,0,0,0,-1,1777,967,0,0
560,57,0,0,0,0,0,0,0,0,0,-1,1784,967,0,0
567,57,0,0,0,0,0,0,0,0,0,-1,1791,967,0,0
574,57,0,0,0,0,0,0,0,0,0,-1,1798,967,0,0
581,57,0,0,0,0,0,0,0,0,0,-1,1805,967,0,0
588,57,0,0,0,0,0,0,0,0,0,-1,1812,967,0,0
595,57,0,0,0,0,0,0,0,0,0,-1,1819,967,0,0
602,57,0,0,0,0,0,0,0,0,0,-1,1826,967,0,0
609,57,0,0,0,0,0,0,0,0,0,-1,1833,967,0,0
616,57,0,0,0,0,0,0,0,0,0,-1,1840,967,0,0
623,57,0,0,0,0,0,0,0,0,0,-1,1847,967,0,0
630,57,0,0,0,0,0,0,0,0,0,-1,1854,967,0,0
637,57,0,0,0,0,0,0,0,0,0,-1,1861,967,0,0
644,57,78.9153,2.48871,-0.00322552,0.00170076,0.00086097,0.00184689,-0.00337166,1.40266,0.0030555,0.0406961,1868,967,78.9153,-2.48871
651,57,78.9211,2.42798,-0.00285524,0.0015843,0.000488,0.00163731,-0.00290825,1.4626,0.00265836,0.0341071,1875,967,78.9212,-2.42797
658,57,78.8951,2.48792,-0.00219414,0.00141934,0.000417415,0.00146693,-0.00224173,1.45727,0.00215672,0.0331717,1882,967,78.8952,-2.48789
665,57,78.8516,2.52856,-0.00137993,0.00129577,0.000290253,0.00132689,-0.00141105,1.46397,0.001581,0.0398492,1889,967,78.8515,-2.52854
672,57,78.9316,2.46301,-0.000784331,0.00106032,0.000263314,0.00109717,-0.000821182,1.43175,0.00111138,0.0413849,1896,967,78.9316,-2.46302
679,57,78.9116,2.27728,-0.000427473,0.000524861,0.000416599,0.000681378,-0.000583991,1.21141,0.000731282,0.040921,1903,967,78.9116,-2.27727
686,57,78.8014,2.07739,-0.000154979,-0.00010921,0.000381776,0.000250367,-0.000514555,0.815333,0.000450323,0.037976,1910,967,78.8014,-2.07738
693,57,78.7876,2.14917,-0.000205486,-0.000598412,0.000246328,-8.68696e-05,-0.000717028,0.44877,0.000451855,0.0314391,1917,967,78.7876,-2.14919
700,57,78.8905,2.36792,-0.000621561,-0.000695687,-2.19916e-05,-0.000615527,-0.00070172,-0.26776,0.000441894,0.0248197,1924,967,78.8905,-2.3679
707,57,78.9971,2.58252,0,0,0,0,0,0,0,-1,1931,967,78.9971,-2.5825
714,57,76.8607,2.55151,0,0,0,0,0,0,0,-1,1938,967,76.8607,-2.55154
721,57,77.6238,5.76239,0,0,0,0,0,0,0,-1,1945,967,77.6238,-5.76237
728,57,77.1825,6.55237,-0.00424535,0.00302648,-0.00174405,0.00342313,-0.004642,-1.34717,0.0046741,0.0266657,1952,967,77.1825,-6.55236
735,57,77.1687,7.06647,-0.00523258,0.00509312,-0.00246271,0.0056504,-0.00578987,-1.34825,0.00660521,0.0354842,1959,967,77.1687,-7.06644
742,57,77.212,7.36548,-0.00670258,0.00753324,-0.00329615,0.00825938,-0.00742873,-1.35396,0.00906177,0.0255274,1966,967,77.212,-7.36548
749,57,77.1326,7.87689,-0.00844127,0.0110887,-0.00455904,0.0121005,-0.0094531,-1.3524,0.0124752,0.0167633,1973,967,77.1327,-7.87689
756,57,77.064,8.33929,-0.0102536,0.0161007,-0.00599805,0.0174016,-0.0115545,-1.35722,0.016831,0.0138269,1980,967,77.0639,-8.33927
763,57,76.9402,8.75983,-0.0118202,0.0227322,-0.00758498,0.0243239,-0.013412,-1.36394,0.0220884,0.0144762,1987,967,76.9403,-8.75982
770,57,76.7661,9.12439,-0.0131142,0.0301435,-0.00942999,0.0321098,-0.0150805,-1.36522,0.0278304,0.013731,1994,967,76.7662,-9.12437
777,57,76.6196,9.49103,-0.0145843,0.0380598,-0.0114058,0.0404247,-0.0169492,-1.36635,0.0340366,0.0294214,2001,967,76.6196,-9.49106
784,57,76.5701,8.99097,-0.0153,0.0466664,-0.0135832,0.0495131,-0.0181467,-1.36421,0.0404384,0.0471662,2008,967,76.5701,-8.99098
791,57,76.4341,9.15485,0,0,0,0,0,0,0,-1,2015,967,76.4341,-9.15487
798,57,76.5171,9.46729,0,0,0,0,0,0,0,-1,2022,967,76.517,-9.46726
805,57,76.834,10.7179,0,0,0,0,0,0,0,-1,2029,967,76.834,-10.7179
812,57,0,0,0,0,0,0,0,0,0,-1,2036,967,0,0
-700,50,0,0,0,0,0,0,0,0,0,-1,524,974,0,0
-693,50,-70.0118,-4.54077,0,0,0,0,0,0,0,-1,531,974,-70.0118,4.54079
-686,50,-69.2411,-3.25018,0,0,0,0,0,0,0,-1,538,974,-69.2411,3.25016
-679,50,-68.4704,-1.95953,0,0,0,0,0,0,0,-1,545,974,-68.4704,1.95953
-672,50,-67.1304,-2.04523,0,0,0,0,0,0,0,-1,552,974,-67.1304,2.0452
-665,50,-66.2699,-0.754089,0,0,0,0,0,0,0,-1,559,974,-66.2699,0.75409
-658,50,-64.7177,0.968628,0,0,0,0,0,0,0,-1,566,974,-64.7177,-0.968623
-651,50,-61.7525,8.6485,0,0,0,0,0,0,0,-1,573,974,-61.7525,-8.64851
-644,50,-61.9322,8.42334,0.0154769,0.0307209,0.0166686,0.0414275,0.0047703,0.999837,0.0261735,0.0348619,580,974,-61.9322,-8.42332
-637,50,-62.0635,8.15576,0.00564374,0.0311918,0.012797,0.0364992,0.000336302,1.17765,0.0242215,0.0195344,587,974,-62.0635,-8.15578
-630,50,-62.1646,7.84882,-0.00267298,0.0282393,0.00838173,0.0303657,-0.00479938,1.32234,0.0220186,0.0123483,594,974,-62.1646,-7.84883
-623,50,-62.2071,7.51385,-0.00394486,0.0188734,0.00639072,0.0205413,-0.0056128,1.3155,0.0158989,0.0139552,601,974,-62.2071,-7.51387
-616,50,-62.2123,7.1449,-0.0044967,0.0110932,0.00494561,0.0125298,-0.00593323,1.28811,0.010884,0.014011,608,974,-62.2123,-7.14492
-609,50,-62.2123,6.67328,-0.00394089,0.00625343,0.00401317,0.00764369,-0.00533115,1.23731,0.00753058,0.0124287,615,974,-62.2123,-6.67326
-602,50,-62.2272,6.22455,-0.00319938,0.00323571,0.00337229,0.00467917,-0.00464283,1.16636,0.00538208,0.0128961,622,974,-62.2272,-6.22456
-595,50,-62.2689,5.81256,-0.00205569,0.00103716,0.00304916,0.00290962,-0.00392816,1.02008,0.00396237,0.0192133,629,974,-62.2689,-5.81258
-588,50,-62.2511,5.17267,0,0,0,0,0,0,0,-1,636,974,-62.2511,-5.17269
-581,50,-62.1821,4.22363,0,0,0,0,0,0,0,-1,643,974,-62.1821,-4.22364
-574,50,-62.6555,0.429138,-0.000128892,-0.00255963,0.00171995,0.000761763,-0.00345028,0.477817,0.0025917,0.0287215,650,974,-62.6555,-0.42914
-567,50,-62.6915,0.483032,0.000422006,-0.00262948,0.00141371,0.000976279,-0.00318375,0.373651,0.00251198,0.0366331,657,974,-62.6915,-0.483025
-560,50,-62.5112,0.43396,0.000951172,-0.00223761,0.00113179,0.00131204,-0.00259847,0.308656,0.0022981,0.0418937,664,974,-62.5112,-0.43399
-553,50,-62.6747,0.648926,0.0013851,-0.00140477,0.000833392,0.00161509,-0.00163476,0.269268,0.00187632,0.0420212,671,974,-62.6748,-0.648916
-546,50,-62.5835,0.879639,0.00161065,-0.000478238,0.000407834,0.00168745,-0.000555039,0.186136,0.00134861,0.0413904,678,974,-62.5835,-0.879642
-539,50,-62.4122,1.15039,0.00093127,2.2119e-05,-0.000286497,0.00101402,-6.06318e-05,-0.281184,0.000697104,0.0452409,685,974,-62.4123,-1.15037
-532,50,-62.6848,0.780579,-8.32177e-05,-0.000157372,-0.00136953,0.00124974,-0.00149033,-0.771865,0.00158401,0.0425816,692,974,-62.6848,-0.780549
-525,50,-62.7218,0.399841,-0.00197245,0.000158149,-0.00304415,0.00231802,-0.00413232,-0.953713,0.00377289,0.0413869,699,974,-62.7218,-0.399844
-518,50,0,0,0,0,0,0,0,0,0,-1,706,974,0,0
-511,50,0,0,0,0,0,0,0,0,0,-1,713,974,0,0
-504,50,0,0,0,0,0,0,0,0,0,-1,720,974,0,0
-497,50,0,0,0,0,0,0,0,0,0,-1,727,974,0,0
-490,50,0,0,0,0,0,0,0,0,0,-1,734,974,0,0
-483,50,0,0,0,0,0,0,0,0,0,-1,741,974,0,0
-476,50,0,0,0,0,0,0,0,0,0,-1,748,974,0,0
-469,50,0,0,0,0,0,0,0,0,0,-1,755,974,0,0
-462,50,0,0,0,0,0,0,0,0,0,-1,762,974,0,0
-455,50,0,0,0,0,0,0,0,0,0,-1,769,974,0,0
-448,50,0,0,0,0,0,0,0,0,0,-1,776,974,0,0
-441,50,0,0,0,0,0,0,0,0,0,-1,783,974,0,0
-434,50,0,0,0,0,0,0,0,0,0,-1,790,974,0,0
-427,50,0,0,0,0,0,0,0,0,0,-1,797,974,0,0
-420,50,0,0,0,0,0,0,0,0,0,-1,804,974,0,0
-413,50,0,0,0,0,0,0,0,0,0,-1,811,974,0,0
-406,50,0,0,0,0,0,0,0,0,0,-1,818,974,0,0
-399,50,0,0,0,0,0,0,0,0,0,-1,825,974,0,0
-392,50,0,0,0,0,0,0,0,0,0,-1,832,974,0,0
-385,50,0,0,0,0,0,0,0,0,0,-1,839,974,0,0
-378,50,0,0,0,0,0,0,0,0,0,-1,846,974,0,0
-371,50,0,0,0,0,0,0,0,0,0,-1,853,974,0,0
-364,50,0,0,0,0,0,0,0,0,0,-1,860,974,0,0
-357,50,0,0,0,0,0,0,0,0,0,-1,867,974,0,0
-350,50,0,0,0,0,0,0,0,0,0,-1,874,974,0,0
-343,50,0,0,0,0,0,0,0,0,0,-1,881,974,0,0
-336,50,0,0,0,0,0,0,0,0,0,-1,888,974,0,0
-329,50,0,0,0,0,0,0,0,0,0,-1,895,974,0,0
-322,50,0,0,0,0,0,0,0,0,0,-1,902,974,0,0
-315,50,0,0,0,0,0,0,0,0,0,-1,909,974,0,0
-308,50,0,0,0,0,0,0,0,0,0,-1,916,974,0,0
-301,50,0,0,0,0,0,0,0,0,0,-1,923,974,0,0
-294,50,0,0,0,0,0,0,0,0,0,-1,930,974,0,0
-287,50,0,0,0,0,0,0,0,0,0,-1,937,974,0,0
-280,50,0,0,0,0,0,0,0,0,0,-1,944,974,0,0
-273,50,0,0,0,0,0,0,0,0,0,-1,951,974,0,0
-266,50,0,0,0,0,0,0,0,0,0,-1,958,974,0,0
-259,50,0,0,0,0,0,0,0,0,0,-1,965,974,0,0
-252,50,0,0,0,0,0,0,0,0,0,-1,972,974,0,0
-245,50,0,0,0,0,0,0,0,0,0,-1,979,974,0,0
-238,50,0,0,0,0,0,0,0,0,0,-1,986,974,0,0
-231,50,0,0,0,0,0,0,0,0,0,-1,993,974,0,0
-224,50,0,0,0,0,0,0,0,0,0,-1,1000,974,0,0
-217,50,0,0,0,0,0,0,0,0,0,-1,1007,974,0,0
-210,50,0,0,0,0,0,0,0,0,0,-1,1014,974,0,0
-203,50,0,0,0,0,0,0,0,0,0,-1,1021,974,0,0
-196,50,0,0,0,0,0,0,0,0,0,-1,1028,974,0,0
-189,50,0,0,0,0,0,0,0,0,0,-1,1035,974,0,0
-182,50,0,0,0,0,0,0,0,0,0,-1,1042,974,0,0
-175,50,0,0,0,0,0,0,0,0,0,-1,1049,974,0,0
-168,50,0,0,0,0,0,0,0,0,0,-1,1056,974,0,0
-161,50,0,0,0,0,0,0,0,0,0,-1,1063,974,0,0
-154,50,0,0,0,0,0,0,0,0,0,-1,1070,974,0,0
-147,50,0,0,0,0,0,0,0,0,0,-1,1077,974,0,0
-140,50,0,0,0,0,0,0,0,0,0,-1,1084,974,0,0
-133,50,0,0,0,0,0,0,0,0,0,-1,1091,974,0,0
-126,50,0,0,0,0,0,0,0,0,0,-1,1098,974,0,0
-119,50,0,0,0,0,0,0,0,0,0,-1,1105,974,0,0
-112,50,0,0,0,0,0,0,0,0,0,-1,1112,974,0,0
-105,50,0,0,0,0,0,0,0,0,0,-1,1119,974,0,0
-98,50,0,0,0,0,0,0,0,0,0,-1,1126,974,0,0
-91,50,0,0,0,0,0,0,0,0,0,-1,1133,974,0,0
-84,50,0,0,0,0,0,0,0,0,0,-1,1140,974,0,0
-77,50,0,0,0,0,0,0,0,0,0,-1,1147,974,0,0
-70,50,0,0,0,0,0,0,0,0,0,-1,1154,974,0,0
-63,50,0,0,0,0,0,0,0,0,0,-1,1161,974,0,0
-56,50,0,0,0,0,0,0,0,0,0,-1,1168,974,0,0
-49,50,0,0,0,0,0,0,0,0,0,-1,1175,974,0,0
-42,50,0,0,0,0,0,0,0,0,0,-1,1182,974,0,0
-35,50,0,0,0,0,0,0,0,0,0,-1,1189,974,0,0
-28,50,0,0,0,0,0,0,0,0,0,-1,1196,974,0,0
-21,50,0,0,0,0,0,0,0,0,0,-1,1203,974,0,0
-14,50,0,0,0,0,0,0,0,0,0,-1,1210,974,0,0
-7,50,0,0,0,0,0,0,0,0,0,-1,1217,974,0,0
0,50,0,0,0,0,0,0,0,0,0,-1,1224,974,0,0
7,50,0,0,0,0,0,0,0,0,0,-1,1231,974,0,0
14,50,0,0,0,0,0,0,0,0,0,-1,1238,974,0,0
21,50,0,0,0,0,0,0,0,0,0,-1,1245,974,0,0
28,50,0,0,0,0,0,0,0,0,0,-1,1252,974,0,0
35,50,0,0,0,0,0,0,0,0,0,-1,1259,974,0,0
42,50,0,0,0,0,0,0,0,0,0,-1,1266,974,0,0
49,50,0,0,0,0,0,0,0,0,0,-1,1273,974,0,0
56,50,0,0,0,0,0,0,0,0,0,-1,1280,974,0,0
63,50,0,0,0,0,0,0,0,0,0,-1,1287,974,0,0
70,50,0,0,0,0,0,0,0,0,0,-1,1294,974,0,0
77,50,0,0,0,0,0,0,0,0,0,-1,1301,974,0,0
84,50,0,0,0,0,0,0,0,0,0,-1,1308,974,0,0
91,50,0,0,0,0,0,0,0,0,0,-1,1315,974,0,0
98,50,0,0,0,0,0,0,0,0,0,-1,1322,974,0,0
105,50,0,0,0,0,0,0,0,0,0,-1,1329,974,0,0
112,50,0,0,0,0,0,0,0,0,0,-1,1336,974,0,0
119,50,0,0,0,0,0,0,0,0,0,-1,1343,974,0,0
126,50,0,0,0,0,0,0,0,0,0,-1,1350,974,0,0
133,50,0,0,0,0,0,0,0,0,0,-1,1357,974,0,0
140,50,0,0,0,0,0,0,0,0,0,-1,1364,974,0,0
147,50,0,0,0,0,0,0,0,0,0,-1,1371,974,0,0
154,50,0,0,0,0,0,0,0,0,0,-1,1378,974,0,0
161,50,0,0,0,0,0,0,0,0,0,-1,1385,974,0,0
168,50,0,0,0,0,0,0,0,0,0,-1,1392,974,0,0
175,50,0,0,0,0,0,0,0,0,0,-1,1399,974,0,0
182,50,0,0,0,0,0,0,0,0,0,-1,1406,974,0,0
189,50,0,0,0,0,0,0,0,0,0,-1,1413,974,0,0
196,50,0,0,0,0,0,0,0,0,0,-1,1420,974,0,0
203,50,0,0,0,0,0,0,0,0,0,-1,1427,974,0,0
210,50,0,0,0,0,0,0,0,0,0,-1,1434,974,0,0
217,50,0,0,0,0,0,0,0,0,0,-1,1441,974,0,0
224,50,0,0,0,0,0,0,0,0,0,-1,1448,974,0,0
231,50,0,0,0,0,0,0,0,0,0,-1,1455,974,0,0
238,50,0,0,0,0,0,0,0,0,0,-1,1462,974,0,0
245,50,0,0,0,0,0,0,0,0,0,-1,1469,974,0,0
252,50,0,0,0,0,0,0,0,0,0,-1,1476,974,0,0
259,50,0,0,0,0,0,0,0,0,0,-1,1483,974,0,0
266,50,0,0,0,0,0,0,0,0,0,-1,1490,974,0,0
273,50,0,0,0,0,0,0,0,0,0,-1,1497,974,0,0
280,50,0,0,0,0,0,0,0,0,0,-1,1504,974,0,0
287,50,0,0,0,0,0,0,0,0,0,-1,1511,974,0,0
294,50,0,0,0,0,0,0,0,0,0,-1,1518,974,0,0
301,50,0,0,0,0,0,0,0,0,0,-1,1525,974,0,0
308,50,0,0,0,0,0,0,0,0,0,-1,1532,974,0,0
315,50,0,0,0,0,0,0,0,0,0,-1,1539,974,0,0
322,50,0,0,0,0,0,0,0,0,0,-1,1546,974,0,0
329,50,0,0,0,0,0,0,0,0,0,-1,1553,974,0,0
336,50,0,0,0,0,0,0,0,0,0,-1,1560,974,0,0
343,50,0,0,0,0,0,0,0,0,0,-1,1567,974,0,0
350,50,0,0,0,0,0,0,0,0,0,-1,1574,974,0,0
357,50,0,0,0,0,0,0,0,0,0,-1,1581,974,0,0
364,50,0,0,0,0,0,0,0,0,0,-1,1588,974,0,0
371,50,0,0,0,0,0,0,0,0,0,-1,1595,974,0,0
378,50,0,0,0,0,0,0,0,0,0,-1,1602,974,0,0
385,50,0,0,0,0,0,0,0,0,0,-1,1609,974,0,0
392,50,0,0,0,0,0,0,0,0,0,-1,1616,974,0,0
399,50,0,0,0,0,0,0,0,0,0,-1,1623,974,0,0
406,50,0,0,0,0,0,0,0,0,0,-1,1630,974,0,0
413,50,0,0,0,0,0,0,0,0,0,-1,1637,974,0,0
420,50,0,0,0,0,0,0,0,0,0,-1,1644,974,0,0
427,50,0,0,0,0,0,0,0,0,0,-1,1651,974,0,0
434,50,0,0,0,0,0,0,0,0,0,-1,1658,974,0,0
441,50,0,0,0,0,0,0,0,0,0,-1,1665,974,0,0
448,50,0,0,0,0,0,0,0,0,0,-1,1672,974,0,0
455,50,0,0,0,0,0,0,0,0,0,-1,1679,974,0,0
462,50,0,0,0,0,0,0,0,0,0,-1,1686,974,0,0
469,50,0,0,0,0,0,0,0,0,0,-1,1693,974,0,0
476,50,0,0,0,0,0,0,0,0,0,-1,1700,974,0,0
483,50,0,0,0,0,0,0,0,0,0,-1,1707,974,0,0
490,50,0,0,0,0,0,0,0,0,0,-1,1714,974,0,0
497,50,0,0,0,0,0,0,0,0,0,-1,1721,974,0,0
504,50,0,0,0,0,0,0,0,0,0,-1,1728,974,0,0
511,50,0,0,0,0,0,0,0,0,0,-1,1735,974,0,0
518,50,0,0,0,0,0,0,0,0,0,-1,1742,974,0,0
525,50,0,0,0,0,0,0,0,0,0,-1,1749,974,0,0
532,50,0,0,0,0,0,0,0,0,0,-1,1756,974,0,0
539,50,0,0,0,0,0,0,0,0,0,-1,1763,974,0,0
546,50,0,0,0,0,0,0,0,0,0,-1,1770,974,0,0
553,50,0,0,0,0,0,0,0,0,0,-1,1777,974,0,0
560,50,0,0,0,0,0,0,0,0,0,-1,1784,974,0,0
567,50,0,0,0,0,0,0,0,0,0,-1,1791,974,0,0
574,50,0,0,0,0,0,0,0,0,0,-1,1798,974,0,0
581,50,0,0,0,0,0,0,0,0,0,-1,1805,974,0,0
588,50,0,0,0,0,0,0,0,0,0,-1,1812,974,0,0
595,50,0,0,0,0,0,0,0,0,0,-1,1819,974,0,0
602,50,0,0,0,0,0,0,0,0,0,-1,1826,974,0,0
609,50,0,0,0,0,0,0,0,0,0,-1,1833,974,0,0
616,50,0,0,0,0,0,0,0,0,0,-1,1840,974,0,0
623,50,0,0,0,0,0,0,0,0,0,-1,1847,974,0,0
630,50,0,0,0,0,0,0,0,0,0,-1,1854,974,0,0
637,50,0,0,0,0,0,0,0,0,0,-1,1861,974,0,0
644,50,78.9362,2.47003,-0.0033796,0.00031723,5.05878e-05,0.000317922,-0.00338029,1.55712,0.00236663,0.0371954,1868,974,78.9362,-2.47
651,50,78.873,2.42084,-0.00284433,0.000462326,-0.000120546,0.000466714,-0.00284872,-1.5344,0.00207231,0.0324375,1875,974,78.873,-2.42082
658,50,78.8499,2.37152,-0.00212609,0.00049256,-1.33408e-05,0.000492627,-0.00212616,-1.5657,0.00160702,0.0368256,1882,974,78.8498,-2.37149
665,50,78.8882,2.33807,-0.00131711,0.000550131,2.75904e-06,0.000550135,-0.00131711,1.56932,0.00110796,0.0418549,1889,974,78.8881,-2.33806
672,50,78.8829,2.41852,-0.000713559,0.00051343,8.54862e-05,0.000519358,-0.000719487,1.50157,0.000718351,0.0423431,1896,974,78.8829,-2.41853
679,50,78.7843,2.39545,-0.000304572,0.000158781,0.000307521,0.000312128,-0.000457919,1.10822,0.000447235,0.040988,1903,974,78.7843,-2.39544
686,50,78.765,2.17889,2.47543e-05,-0.000387163,0.000354642,0.000228905,-0.000591314,0.522326,0.000488719,0.0427794,1910,974,78.765,-2.17888
693,50,78.8127,2.20483,2.42792e-05,-0.000821831,0.000278644,0.000107799,-0.000905351,0.291215,0.000642522,0.039728,1917,974,78.8128,-2.20481
700,50,78.8383,2.41278,-0.000323657,-0.000888934,5.9194e-05,-0.000317525,-0.000895066,0.103225,0.000523985,0.0216058,1924,974,78.8382,-2.41281
707,50,78.8944,2.3548,-0.000977298,-0.000424349,-0.000345197,-0.000258557,-0.00114309,-1.12305,0.000692163,0.0312399,1931,974,78.8944,-2.35479
714,50,78.856,2.28754,0,0,0,0,0,0,0,-1,1938,974,78.856,-2.28751
721,50,77.615,6.13861,0,0,0,0,0,0,0,-1,1945,974,77.6149,-6.13859
728,50,77.7167,6.58307,-0.00430055,0.00329819,-0.00165231,0.00364193,-0.00464429,-1.36569,0.00479571,0.021001,1952,974,77.7167,-6.58308
735,50,77.7421,7.04413,-0.00530326,0.00546274,-0.0024245,0.00598354,-0.00582406,-1.3592,0.00681733,0.0233972,1959,974,77.742,-7.04414
742,50,77.7239,7.47632,-0.00691337,0.00794845,-0.00327499,0.00863813,-0.00760305,-1.36324,0.0093832,0.0178055,1966,974,77.7239,-7.47631
749,50,77.6519,7.84387,-0.00885281,0.0114468,-0.00452489,0.0124097,-0.00981575,-1.36111,0.012861,0.0185001,1973,974,77.6518,-7.84388
756,50,77.5508,8.22052,-0.0109421,0.0163091,-0.00596089,0.0175559,-0.012189,-1.3646,0.0172661,0.0162565,1980,974,77.5509,-8.2205
763,50,77.429,8.60638,-0.0128737,0.0228814,-0.00763807,0.0244447,-0.014437,-1.36891,0.0226949,0.015409,1987,974,77.429,-8.60641
770,50,77.2913,8.95227,-0.014497,0.0304803,-0.00969211,0.03248,-0.0164967,-1.36734,0.0287742,0.014875,1994,974,77.2912,-8.95228
777,50,77.2034,9.30176,-0.0162443,0.0385657,-0.0119119,0.0410426,-0.0187211,-1.36578,0.0352977,0.0270526,2001,974,77.2033,-9.30173
784,50,77.3154,8.93097,-0.0172048,0.0473527,-0.014379,0.0504105,-0.0202627,-1.36126,0.0420225,0.0422125,2008,974,77.3154,-8.93098
791,50,77.2981,8.46924,0,0,0,0,0,0,0,-1,2015,974,77.298,-8.46924
798,50,77.3569,8.35394,0,0,0,0,0,0,0,-1,2022,974,77.357,-8.35393
805,50,77.5298,8.43262,0,0,0,0,0,0,0,-1,2029,974,77.5299,-8.43262
812,50,0,0,0,0,0,0,0,0,0,-1,2036,974,0,0
-700,43,0,0,0,0,0,0,0,0,0,-1,524,981,0,0
-693,43,-69.6601,-4.43964,0,0,0,0,0,0,0,-1,531,981,-69.6601,4.43966
-686,43,-68.8615,-3.15259,0,0,0,0,0,0,0,-1,538,981,-68.8615,3.15256
-679,43,-67.9652,-2.18829,0,0,0,0,0,0,0,-1,545,981,-67.9652,2.18831
-672,43,-66.8415,-2.90875,0,0,0,0,0,0,0,-1,552,981,-66.8415,2.90876
-665,43,-56.2556,4.02905,0,0,0,0,0,0,0,-1,559,981,-56.2556,-4.02905
-658,43,-61.7875,8.86194,0,0,0,0,0,0,0,-1,566,981,-61.7875,-8.86196
-651,43,-62.0701,8.55511,0.0258259,0.0256783,0.0205673,0.0463195,0.00518461,0.783604,0.0293048,0.0472638,573,981,-62.0701,-8.55513
-644,43,-62.3315,8.2395,0.0149917,0.0266824,0.0159476,0.0378222,0.0038519,0.961063,0.0240339,0.0274139,580,981,-62.3315,-8.23949
-637,43,-62.5267,7.95465,0.00518924,0.0288331,0.0122776,0.0340552,-3.28347e-05,1.16864,0.0227144,0.0188252,587,981,-62.5266,-7.95466
-630,43,-62.5851,7.70422,-0.00341754,0.0272312,0.00776623,0.0290868,-0.00527312,1.33626,0.0213669,0.0147299,594,981,-62.5851,-7.70422
-623,43,-62.6173,7.40906,-0.00474662,0.0184302,0.00573845,0.0197732,-0.00608961,1.3409,0.015613,0.0141197,601,981,-62.6173,-7.40905
-616,43,-62.6353,7.05243,-0.00524808,0.0109073,0.00440559,0.0120306,-0.00637139,1.32114,0.0107906,0.0138377,608,981,-62.6353,-7.05243
-609,43,-62.6271,6.65479,-0.00471793,0.0061747,0.0035569,0.0072333,-0.00577652,1.28153,0.0075269,0.0149689,615,981,-62.6271,-6.65481
-602,43,-62.6007,6.31635,-0.00394407,0.00314392,0.00301729,0.00425438,-0.00505453,1.21815,0.00538112,0.0184284,622,981,-62.6007,-6.31635
-595,43,-62.8109,5.98553,-0.00277671,0.000903533,0.00280617,0.0024191,-0.00429228,1.0756,0.0039248,0.0205247,629,981,-62.8109,-5.98554
-588,43,-63.1686,5.81952,0,0,0,0,0,0,0,-1,636,981,-63.1686,-5.81952
-581,43,-62.682,0.494385,0,0,0,0,0,0,0,-1,643,981,-62.682,-0.494371
-574,43,-62.6481,0.398682,-0.000609288,-0.00262038,0.00181096,0.000456566,-0.00368624,0.531963,0.00262296,0.0315073,650,981,-62.648,-0.398691
-567,43,-62.6096,0.327393,0.000111066,-0.00264253,0.00163651,0.000872898,-0.00340436,0.435687,0.00260966,0.0397937,657,981,-62.6096,-0.327371
-560,43,-62.5077,0.379578,0.000856741,-0.00214578,0.00148321,0.00146585,-0.0027549,0.389674,0.00247444,0.0422228,664,981,-62.5077,-0.379578
-553,43,-62.5634,0.476868,0.00152496,-0.00117834,0.00129271,0.00204362,-0.001697,0.381555,0.00216273,0.0418981,671,981,-62.5634,-0.476878
-546,43,-62.6035,0.683228,0.00196372,-0.00014637,0.000923758,0.00231098,-0.000493626,0.359574,0.00172884,0.0425363,678,981,-62.6035,-0.683201
-539,43,-62.3845,0.90741,0.00141788,0.000429059,0.000227725,0.00146781,0.000379135,0.215816,0.000879824,0.0467454,685,981,-62.3845,-0.907405
-532,43,-61.7512,0.621765,0,0,0,0,0,0,0,-1,692,981,-61.7512,-0.621759
-525,43,-62.4612,0.513855,0,0,0,0,0,0,0,-1,699,981,-62.4612,-0.513869
-518,43,0,0,0,0,0,0,0,0,0,-1,706,981,0,0
-511,43,0,0,0,0,0,0,0,0,0,-1,713,981,0,0
-504,43,0,0,0,0,0,0,0,0,0,-1,720,981,0,0
-497,43,0,0,0,0,0,0,0,0,0,-1,727,981,0,0
-490,43,0,0,0,0,0,0,0,0,0,-1,734,981,0,0
-483,43,0,0,0,0,0,0,0,0,0,-1,741,981,0,0
-476,43,0,0,0,0,0,0,0,0,0,-1,748,981,0,0
-469,43,0,0,0,0,0,0,0,0,0,-1,755,981,0,0
-462,43,0,0,0,0,0,0,0,0,0,-1,762,981,0,0
-455,43,0,0,0,0,0,0,0,0,0,-1,769,981,0,0
-448,43,0,0,0,0,0,0,0,0,0,-1,776,981,0,0
-441,43,0,0,0,0,0,0,0,0,0,-1,783,981,0,0
-434,43,0,0,0,0,0,0,0,0,0,-1,790,981,0,0
-427,43,0,0,0,0,0,0,0,0,0,-1,797,981,0,0
-420,43,0,0,0,0,0,0,0,0,0,-1,804,981,0,0
-413,43,0,0,0,0,0,0,0,0,0,-1,811,981,0,0
-406,43,0,0,0,0,0,0,0,0,0,-1,818,981,0,0
-399,43,0,0,0,0,0,0,0,0,0,-1,825,981,0,0
-392,43,0,0,0,0,0,0,0,0,0,-1,832,981,0,0
-385,43,0,0,0,0,0,0,0,0,0,-1,839,981,0,0
-378,43,0,0,0,0,0,0,0,0,0,-1,846,981,0,0
-371,43,0,0,0,0,0,0,0,0,0,-1,853,981,0,0
-364,43,0,0,0,0,0,0,0,0,0,-1,860,981,0,0
-357,43,0,0,0,0,0,0,0,0,0,-1,867,981,0,0
-350,43,0,0,0,0,0,0,0,0,0,-1,874,981,0,0
-343,43,0,0,0,0,0,0,0,0,0,-1,881,981,0,0
-336,43,0,0,0,0,0,0,0,0,0,-1,888,981,0,0
-329,43,0,0,0,0,0,0,0,0,0,-1,895,981,0,0
-322,43,0,0,0,0,0,0,0,0,0,-1,902,981,0,0
-315,43,0,0,0,0,0,0,0,0,0,-1,909,981,0,0
-308,43,0,0,0,0,0,0,0,0,0,-1,916,981,0,0
-301,43,0,0,0,0,0,0,0,0,0,-1,923,981,0,0
-294,43,0,0,0,0,0,0,0,0,0,-1,930,981,0,0
-287,43,0,0,0,0,0,0,0,0,0,-1,937,981,0,0
-280,43,0,0,0,0,0,0,0,0,0,-1,944,981,0,0
-273,43,0,0,0,0,0,0,0,0,0,-1,951,981,0,0
-266,43,0,0,0,0,0,0,0,0,0,-1,958,981,0,0
-259,43,0,0,0,0,0,0,0,0,0,-1,965,981,0,0
-252,43,0,0,0,0,0,0,0,0,0,-1,972,981,0,0
-245,43,0,0,0,0,0,0,0,0,0,-1,979,981,0,0
-238,43,0,0,0,0,0,0,0,0,0,-1,986,981,0,0
-231,43,0,0,0,0,0,0,0,0,0,-1,993,981,0,0
-224,43,0,0,0,0,0,0,0,0,0,-1,1000,981,0,0
-217,43,0,0,0,0,0,0,0,0,0,-1,1007,981,0,0
-210,43,0,0,0,0,0,0,0,0,0,-1,1014,981,0,0
-203,43,0,0,0,0,0,0,0,0,0,-1,1021,981,0,0
-196,43,0,0,0,0,0,0,0,0,0,-1,1028,981,0,0
-189,43,0,0,0,0,0,0,0,0,0,-1,1035,981,0,0
-182,43,0,0,0,0,0,0,0,0,0,-1,1042,981,0,0
-175,43,0,0,0,0,0,0,0,0,0,-1,1049,981,0,0
-168,43,0,0,0,0,0,0,0,0,0,-1,1056,981,0,0
-161,43,0,0,0,0,0,0,0,0,0,-1,1063,981,0,0
-154,43,0,0,0,0,0,0,0,0,0,-1,1070,981,0,0
-147,43,0,0,0,0,0,0,0,0,0,-1,1077,981,0,0
-140,43,0,0,0,0,0,0,0,0,0,-1,1084,981,0,0
-133,43,0,0,0,0,0,0,0,0,0,-1,1091,981,0,0
-126,43,0,0,0,0,0,0,0,0,0,-1,1098,981,0,0
-119,43,0,0,0,0,0,0,0,0,0,-1,1105,981,0,0
-112,43,0,0,0,0,0,0,0,0,0,-1,1112,981,0,0
-105,43,0,0,0,0,0,0,0,0,0,-1,1119,981,0,0
-98,43,0,0,0,0,0,0,0,0,0,-1,1126,981,0,0
-91,43,0,0,0,0,0,0,0,0,0,-1,1133,981,0,0
-84,43,0,0,0,0,0,0,0,0,0,-1,1140,981,0,0
-77,43,0,0,0,0,0,0,0,0,0,-1,1147,981,0,0
-70,43,0,0,0,0,0,0,0,0,0,-1,1154,981,0,0
-63,43,0,0,0,0,0,0,0,0,0,-1,1161,981,0,0
-56,43,0,0,0,0,0,0,0,0,0,-1,1168,981,0,0
-49,43,0,0,0,0,0,0,0,0,0,-1,1175,981,0,0
-42,43,0,0,0,0,0,0,0,0,0,-1,1182,981,0,0
-35,43,0,0,0,0,0,0,0,0,0,-1,1189,981,0,0
-28,43,0,0,0,0,0,0,0,0,0,-1,1196,981,0,0
-21,43,0,0,0,0,0,0,0,0,0,-1,1203,981,0,0
-14,43,0,0,0,0,0,0,0,0,0,-1,1210,981,0,0
-7,43,0,0,0,0,0,0,0,0,0,-1,1217,981,0,0
0,43,0,0,0,0,0,0,0,0,0,-1,1224,981,0,0
7,43,0,0,0,0,0,0,0,0,0,-1,1231,981,0,0
14,43,0,0,0,0,0,0,0,0,0,-1,1238,981,0,0
21,43,0,0,0,0,0,0,0,0,0,-1,1245,981,0,0
28,43,0,0,0,0,0,0,0,0,0,-1,1252,981,0,0
35,43,0,0,0,0,0,0,0,0,0,-1,1259,981,0,0
42,43,0,0,0,0,0,0,0,0,0,-1,1266,981,0,0
49,43,0,0,0,0,0,0,0,0,0,-1,1273,981,0,0
56,43,0,0,0,0,0,0,0,0,0,-1,1280,981,0,0
63,43,0,0,0,0,0,0,0,0,0,-1,1287,981,0,0
70,43,0,0,0,0,0,0,0,0,0,-1,1294,981,0,0
77,43,0,0,0,0,0,0,0,0,0,-1,1301,981,0,0
84,43,0,0,0,0,0,0,0,0,0,-1,1308,981,0,0
91,43,0,0,0,0,0,0,0,0,0,-1,1315,981,0,0
98,43,0,0,0,0,0,0,0,0,0,-1,1322,981,0,0
105,43,0,0,0,0,0,0,0,0,0,-1,1329,981,0,0
112,43,0,0,0,0,0,0,0,0,0,-1,1336,981,0,0
119,43,0,0,0,0,0,0,0,0,0,-1,1343,981,0,0
126,43,0,0,0,0,0,0,0,0,0,-1,1350,981,0,0
133,43,0,0,0,0,0,0,0,0,0,-1,1357,981,0,0
140,43,0,0,0,0,0,0,0,0,0,-1,1364,981,0,0
147,43,0,0,0,0,0,0,0,0,0,-1,1371,981,0,0
154,43,0,0,0,0,0,0,0,0,0,-1,1378,981,0,0
161,43,0,0,0,0,0,0,0,0,0,-1,1385,981,0,0
168,43,0,0,0,0,0,0,0,0,0,-1,1392,981,0,0
175,43,0,0,0,0,0,0,0,0,0,-1,1399,981,0,0
182,43,0,0,0,0,0,0,0,0,0,-1,1406,981,0,0
189,43,0,0,0,0,0,0,0,0,0,-1,1413,981,0,0
196,43,0,0,0,0,0,0,0,0,0,-1,1420,981,0,0
203,43,0,0,0,0,0,0,0,0,0,-1,1427,981,0,0
210,43,0,0,0,0,0,0,0,0,0,-1,1434,981,0,0
217,43,0,0,0,0,0,0,0,0,0,-1,1441,981,0,0
224,43,0,0,0,0,0,0,0,0,0,-1,1448,981,0,0
231,43,0,0,0,0,0,0,0,0,0,-1,1455,981,0,0
238,43,0,0,0,0,0,0,0,0,0,-1,1462,981,0,0
245,43,0,0,0,0,0,0,0,0,0,-1,1469,981,0,0
252,43,0,0,0,0,0,0,0,0,0,-1,1476,981,0,0
259,43,0,0,0,0,0,0,0,0,0,-1,1483,981,0,0
266,43,0,0,0,0,0,0,0,0,0,-1,1490,981,0,0
273,43,0,0,0,0,0,0,0,0,0,-1,1497,981,0,0
280,43,0,0,0,0,0,0,0,0,0,-1,1504,981,0,0
287,43,0,0,0,0,0,0,0,0,0,-1,1511,981,0,0
294,43,0,0,0,0,0,0,0,0,0,-1,1518,981,0,0
301,43,0,0,0,0,0,0,0,0,0,-1,1525,981,0,0
308,43,0,0,0,0,0,0,0,0,0,-1,1532,981,0,0
315,43,0,0,0,0,0,0,0,0,0,-1,1539,981,0,0
322,43,0,0,0,0,0,0,0,0,0,-1,1546,981,0,0
329,43,0,0,0,0,0,0,0,0,0,-1,1553,981,0,0
336,43,0,0,0,0,0,0,0,0,0,-1,1560,981,0,0
343,43,0,0,0,0,0,0,0,0,0,-1,1567,981,0,0
350,43,0,0,0,0,0,0,0,0,0,-1,1574,981,0,0
357,43,0,0,0,0,0,0,0,0,0,-1,1581,981,0,0
364,43,0,0,0,0,0,0,0,0,0,-1,1588,981,0,0
371,43,0,0,0,0,0,0,0,0,0,-1,1595,981,0,0
378,43,0,0,0,0,0,0,0,0,0,-1,1602,981,0,0
385,43,0,0,0,0,0,0,0,0,0,-1,1609,981,0,0
392,43,0,0,0,0,0,0,0,0,0,-1,1616,981,0,0
399,43,0,0,0,0,0,0,0,0,0,-1,1623,981,0,0
406,43,0,0,0,0,0,0,0,0,0,-1,1630,981,0,0
413,43,0,0,0,0,0,0,0,0,0,-1,1637,981,0,0
420,43,0,0,0,0,0,0,0,0,0,-1,1644,981,0,0
427,43,0,0,0,0,0,0,0,0,0,-1,1651,981,0,0
434,43,0,0,0,0,0,0,0,0,0,-1,1658,981,0,0
441,43,0,0,0,0,0,0,0,0,0,-1,1665,981,0,0
448,43,0,0,0,0,0,0,0,0,0,-1,1672,981,0,0
455,43,0,0,0,0,0,0,0,0,0,-1,1679,981,0,0
462,43,0,0,0,0,0,0,0,0,0,-1,1686,981,0,0
469,43,0,0,0,0,0,0,0,0,0,-1,1693,981,0,0
476,43,0,0,0,0,0,0,0,0,0,-1,1700,981,0,0
483,43,0,0,0,0,0,0,0,0,0,-1,1707,981,0,0
490,43,0,0,0,0,0,0,0,0,0,-1,1714,981,0,0
497,43,0,0,0,0,0,0,0,0,0,-1,1721,981,0,0
504,43,0,0,0,0,0,0,0,0,0,-1,1728,981,0,0
511,43,0,0,0,0,0,0,0,0,0,-1,1735,981,0,0
518,43,0,0,0,0,0,0,0,0,0,-1,1742,981,0,0
525,43,0,0,0,0,0,0,0,0,0,-1,1749,981,0,0
532,43,0,0,0,0,0,0,0,0,0,-1,1756,981,0,0
539,43,0,0,0,0,0,0,0,0,0,-1,1763,981,0,0
546,43,0,0,0,0,0,0,0,0,0,-1,1770,981,0,0
553,43,0,0,0,0,0,0,0,0,0,-1,1777,981,0,0
560,43,0,0,0,0,0,0,0,0,0,-1,1784,981,0,0
567,43,0,0,0,0,0,0,0,0,0,-1,1791,981,0,0
574,43,0,0,0,0,0,0,0,0,0,-1,1798,981,0,0
581,43,0,0,0,0,0,0,0,0,0,-1,1805,981,0,0
588,43,0,0,0,0,0,0,0,0,0,-1,1812,981,0,0
595,43,0,0,0,0,0,0,0,0,0,-1,1819,981,0,0
602,43,0,0,0,0,0,0,0,0,0,-1,1826,981,0,0
609,43,0,0,0,0,0,0,0,0,0,-1,1833,981,0,0
616,43,0,0,0,0,0,0,0,0,0,-1,1840,981,0,0
623,43,0,0,0,0,0,0,0,0,0,-1,1847,981,0,0
630,43,0,0,0,0,0,0,0,0,0,-1,1854,981,0,0
637,43,0,0,0,0,0,0,0,0,0,-1,1861,981,0,0
644,43,78.9135,2.42053,-0.00279973,-0.00160586,-0.000752047,-0.00124263,-0.00316296,-1.12086,0.00184005,0.0381185,1868,981,78.9135,-2.42056
651,43,78.7355,2.33099,-0.00239536,-0.000980013,-0.000760937,-0.00064854,-0.00272684,-1.15997,0.0016449,0.0371656,1875,981,78.7355,-2.33102
658,43,78.7953,2.26044,-0.00182226,-0.00062373,-0.00050655,-0.000438322,-0.00200767,-1.21992,0.0012189,0.0385762,1882,981,78.7953,-2.26046
665,43,78.9408,2.17279,-0.0011543,-0.000321449,-0.000377274,-0.000175962,-0.00129979,-1.20274,0.000814233,0.0395206,1889,981,78.9407,-2.17279
672,43,79.0293,2.07202,-0.000622288,-0.000123185,-0.000215363,-4.31045e-05,-0.000702368,-1.2148,0.000454559,0.0415079,1896,981,79.0293,-2.07201
679,43,78.907,2.1557,-0.000204964,-0.000261575,4.95437e-05,-0.00017621,-0.000290329,0.525862,0.000168894,0.0410496,1903,981,78.907,-2.15571
686,43,78.8872,2.14874,0.000155102,-0.000670911,0.000157401,0.000184079,-0.000699888,0.182058,0.000538543,0.0407273,1910,981,78.8872,-2.14872
693,43,78.8638,2.27002,0.000205077,-0.0010241,0.000132534,0.000219205,-0.00103823,0.106197,0.000775618,0.0386032,1917,981,78.8638,-2.27002
700,43,78.8434,2.34003,-6.8534e-05,-0.00106065,-3.90849e-05,-6.69967e-05,-0.00106219,-0.0393143,0.000686882,0.0331795,1924,981,78.8434,-2.34005
707,43,78.9574,2.24609,-0.000733638,-0.000525329,-0.000394131,-0.000221823,-0.00103714,-0.914577,0.00063063,0.0280413,1931,981,78.9574,-2.2461
714,43,78.8936,2.27875,0,0,0,0,0,0,0,-1,1938,981,78.8936,-2.27876
721,43,78.0317,6.20874,0,0,0,0,0,0,0,-1,1945,981,78.0318,-6.20876
728,43,78.1355,6.65247,-0.00450096,0.00371352,-0.00168574,0.004046,-0.00483344,-1.37606,0.00513327,0.0189896,1952,981,78.1355,-6.65244
735,43,78.2146,7.08392,-0.00554457,0.00598208,-0.00247115,0.00648952,-0.00605201,-1.36827,0.00724233,0.0162209,1959,981,78.2146,-7.0839
742,43,78.151,7.49023,-0.00730634,0.00846923,-0.00328656,0.00912654,-0.00796364,-1.3734,0.00987463,0.0175746,1966,981,78.151,-7.49022
749,43,78.0688,7.8385,-0.00945286,0.0118665,-0.00446007,0.012762,-0.0103483,-1.37266,0.013367,0.0203383,1973,981,78.0687,-7.83853
756,43,78.0085,8.13104,-0.0118058,0.0165087,-0.00582044,0.0176585,-0.0129556,-1.37577,0.0177444,0.0250426,1980,981,78.0086,-8.13103
763,43,77.9468,8.40851,-0.0141018,0.0229168,-0.00750897,0.024382,-0.0155669,-1.3781,0.0232509,0.0274429,1987,981,77.9468,-8.40849
770,43,77.8201,8.8103,-0.0160672,0.0306206,-0.00973483,0.0325691,-0.0180157,-1.37325,0.0296053,0.0233463,1994,981,77.82,-8.81028
777,43,77.8057,9.15564,-0.0180079,0.0387535,-0.0121743,0.0412544,-0.0205089,-1.36819,0.0363234,0.0280289,2001,981,77.8057,-9.15567
784,43,77.8301,9.52594,-0.0190537,0.0474466,-0.0149156,0.0506389,-0.022246,-1.35996,0.0431313,0.0455172,2008,981,77.8301,-9.52593
791,43,77.8623,9.90076,0,0,0,0,0,0,0,-1,2015,981,77.8624,-9.90075
798,43,78.2112,7.22449,0,0,0,0,0,0,0,-1,2022,981,78.2111,-7.2245
805,43,78.6973,7.26379,0,0,0,0,0,0,0,-1,2029,981,78.6973,-7.26381
812,43,79.1421,7.37152,0,0,0,0,0,0,0,-1,2036,981,79.1422,-7.37151
-700,36,0,0,0,0,0,0,0,0,0,-1,524,988,0,0
-693,36,-69.2413,-4.24982,0,0,0,0,0,0,0,-1,531,988,-69.2413,4.24982
-686,36,-68.5542,-3.02045,0.101908,-0.00228567,0.0467741,0.119824,-0.0202024,0.365808,0.0873988,0.0465285,538,988,-68.5542,3.02044
-679,36,-67.8846,-1.94611,0,0,0,0,0,0,0,-1,545,988,-67.8846,1.94613
-672,36,-67.1346,-0.900391,0,0,0,0,0,0,0,-1,552,988,-67.1347,0.900416
-665,36,-57.2717,4.1062,0,0,0,0,0,0,0,-1,559,988,-57.2717,-4.10622
-658,36,-62.3767,8.12268,0,0,0,0,0,0,0,-1,566,988,-62.3767,-8.12266
-651,36,-62.5814,8.00452,0.0233741,0.0216257,0.0187478,0.0412681,0.0037317,0.762101,0.0263564,0.0486452,573,988,-62.5814,-8.00452
-644,36,-62.7475,7.88239,0.01349,0.0233308,0.0146326,0.0338481,0.00297262,0.94759,0.0216427,0.0321043,580,988,-62.7475,-7.88239
-637,36,-62.9218,7.70428,0.00427827,0.0264051,0.0113841,0.0312161,-0.000532726,1.17095,0.0209906,0.0228758,587,988,-62.9217,-7.7043
-630,36,-62.9782,7.55475,-0.00427142,0.0260035,0.00703854,0.0275599,-0.00582778,1.35318,0.0205926,0.0163845,594,988,-62.9782,-7.55472
-623,36,-63.0332,7.29987,-0.00567106,0.0178715,0.00499983,0.0188893,-0.00668889,1.36997,0.0153173,0.0149836,601,988,-63.0332,-7.29985
-616,36,-63.0331,7.05139,-0.00610967,0.0106702,0.0038197,0.0114988,-0.00693825,1.35718,0.0107527,0.0126001,608,988,-63.0331,-7.05138
-609,36,-62.9025,6.78094,-0.00559534,0.00600654,0.0030664,0.00676714,-0.00635593,1.32766,0.00757785,0.0191832,615,988,-62.9025,-6.78097
-602,36,-62.9644,6.43048,-0.00477579,0.002919,0.0025978,0.00371391,-0.0055707,1.27385,0.00539609,0.0240163,622,988,-62.9644,-6.43048
-595,36,-63.3364,6.0686,-0.00358877,0.000651832,0.0024512,0.00177253,-0.00470947,1.14197,0.00386831,0.0269928,629,988,-63.3364,-6.0686
-588,36,-63.6974,5.89716,0,0,0,0,0,0,0,-1,636,988,-63.6974,-5.89716
-581,36,-62.6263,0.5849,0,0,0,0,0,0,0,-1,643,988,-62.6263,-0.584917
-574,36,-62.611,0.492249,-0.00104184,-0.00282596,0.00174408,2.50788e-05,-0.00389288,0.549005,0.00260365,0.0297842,650,988,-62.6109,-0.492276
-567,36,-62.5948,0.335876,-0.000150109,-0.00280422,0.00165582,0.000644822,-0.00359915,0.447587,0.00264075,0.0357946,657,988,-62.5948,-0.335887
-560,36,-62.5136,0.362,0.000821284,-0.00218546,0.00158697,0.00150391,-0.00286809,0.406222,0.00256481,0.040419,664,988,-62.5136,-0.361995
-553,36,-62.5823,0.334106,0.00173417,-0.00102378,0.00147066,0.00237124,-0.00166084,0.408781,0.00233994,0.0439323,671,988,-62.5823,-0.334121
-546,36,-62.5809,0.450867,0.00239246,0.00026015,0.00115892,0.00290103,-0.000248424,0.413531,0.00202192,0.0445917,678,988,-62.5809,-0.450882
-539,36,-62.3185,0.610718,0.00194079,0.00120023,0.000521957,0.00221047,0.000930555,0.476894,0.00128152,0.0446553,685,988,-62.3185,-0.610707
-532,36,-61.9687,0.679199,0.00121414,0.00177057,-0.000529682,0.00209066,0.000894053,-1.02722,0.00121125,0.0448656,692,988,-61.9687,-0.679212
-525,36,-62.3907,0.588318,0,0,0,0,0,0,0,-1,699,988,-62.3907,-0.588339
-518,36,0,0,0,0,0,0,0,0,0,-1,706,988,0,0
-511,36,0,0,0,0,0,0,0,0,0,-1,713,988,0,0
-504,36,0,0,0,0,0,0,0,0,0,-1,720,988,0,0
-497,36,0,0,0,0,0,0,0,0,0,-1,727,988,0,0
-490,36,0,0,0,0,0,0,0,0,0,-1,734,988,0,0
-483,36,0,0,0,0,0,0,0,0,0,-1,741,988,0,0
-476,36,0,0,0,0,0,0,0,0,0,-1,748,988,0,0
-469,36,0,0,0,0,0,0,0,0,0,-1,755,988,0,0
-462,36,0,0,0,0,0,0,0,0,0,-1,762,988,0,0
-455,36,0,0,0,0,0,0,0,0,0,-1,769,988,0,0
-448,36,0,0,0,0,0,0,0,0,0,-1,776,988,0,0
-441,36,0,0,0,0,0,0,0,0,0,-1,783,988,0,0
-434,36,0,0,0,0,0,0,0,0,0,-1,790,988,0,0
-427,36,0,0,0,0,0,0,0,0,0,-1,797,988,0,0
-420,36,0,0,0,0,0,0,0,0,0,-1,804,988,0,0
-413,36,0,0,0,0,0,0,0,0,0,-1,811,988,0,0
-406,36,0,0,0,0,0,0,0,0,0,-1,818,988,0,0
-399,36,0,0,0,0,0,0,0,0,0,-1,825,988,0,0
-392,36,0,0,0,0,0,0,0,0,0,-1,832,988,0,0
-385,36,0,0,0,0,0,0,0,0,0,-1,839,988,0,0
-378,36,0,0,0,0,0,0,0,0,0,-1,846,988,0,0
-371,36,0,0,0,0,0,0,0,0,0,-1,853,988,0,0
-364,36,0,0,0,0,0,0,0,0,0,-1,860,988,0,0
-357,36,0,0,0,0,0,0,0,0,0,-1,867,988,0,0
-350,36,0,0,0,0,0,0,0,0,0,-1,874,988,0,0
-343,36,0,0,0,0,0,0,0,0,0,-1,881,988,0,0
-336,36,0,0,0,0,0,0,0,0,0,-1,888,988,0,0
-329,36,0,0,0,0,0,0,0,0,0,-1,895,988,0,0
-322,36,0,0,0,0,0,0,0,0,0,-1,902,988,0,0
-315,36,0,0,0,0,0,0,0,0,0,-1,909,988,0,0
-308,36,0,0,0,0,0,0,0,0,0,-1,916,988,0,0
-301,36,0,0,0,0,0,0,0,0,0,-1,923,988,0,0
-294,36,0,0,0,0,0,0,0,0,0,-1,930,988,0,0
-287,36,0,0,0,0,0,0,0,0,0,-1,937,988,0,0
-280,36,0,0,0,0,0,0,0,0,0,-1,944,988,0,0
-273,36,0,0,0,0,0,0,0,0,0,-1,951,988,0,0
-266,36,0,0,0,0,0,0,0,0,0,-1,958,988,0,0
-259,36,0,0,0,0,0,0,0,0,0,-1,965,988,0,0
-252,36,0,0,0,0,0,0,0,0,0,-1,972,988,0,0
-245,36,0,0,0,0,0,0,0,0,0,-1,979,988,0,0
-238,36,0,0,0,0,0,0,0,0,0,-1,986,988,0,0
-231,36,0,0,0,0,0,0,0,0,0,-1,993,988,0,0
-224,36,0,0,0,0,0,0,0,0,0,-1,1000,988,0,0
-217,36,0,0,0,0,0,0,0,0,0,-1,1007,988,0,0
-210,36,0,0,0,0,0,0,0,0,0,-1,1014,988,0,0
-203,36,0,0,0,0,0,0,0,0,0,-1,1021,988,0,0
-196,36,0,0,0,0,0,0,0,0,0,-1,1028,988,0,0
-189,36,0,0,0,0,0,0,0,0,0,-1,1035,988,0,0
-182,36,0,0,0,0,0,0,0,0,0,-1,1042,988,0,0
-175,36,0,0,0,0,0,0,0,0,0,-1,1049,988,0,0
-168,36,0,0,0,0,0,0,0,0,0,-1,1056,988,0,0
-161,36,0,0,0,0,0,0,0,0,0,-1,1063,988,0,0
-154,36,0,0,0,0,0,0,0,0,0,-1,1070,988,0,0
-147,36,0,0,0,0,0,0,0,0,0,-1,1077,988,0,0
-140,36,0,0,0,0,0,0,0,0,0,-1,1084,988,0,0
-133,36,0,0,0,0,0,0,0,0,0,-1,1091,988,0,0
-126,36,0,0,0,0,0,0,0,0,0,-1,1098,988,0,0
-119,36,0,0,0,0,0,0,0,0,0,-1,1105,988,0,0
-112,36,0,0,0,0,0,0,0,0,0,-1,1112,988,0,0
-105,36,0,0,0,0,0,0,0,0,0,-1,1119,988,0,0
-98,36,0,0,0,0,0,0,0,0,0,-1,1126,988,0,0
-91,36,0,0,0,0,0,0,0,0,0,-1,1133,988,0,0
-84,36,0,0,0,0,0,0,0,0,0,-1,1140,988,0,0
-77,36,0,0,0,0,0,0,0,0,0,-1,1147,988,0,0
-70,36,0,0,0,0,0,0,0,0,0,-1,1154,988,0,0
-63,36,0,0,0,0,0,0,0,0,0,-1,1161,988,0,0
-56,36,0,0,0,0,0,0,0,0,0,-1,1168,988,0,0
-49,36,0,0,0,0,0,0,0,0,0,-1,1175,988,0,0
-42,36,0,0,0,0,0,0,0,0,0,-1,1182,988,0,0
-35,36,0,0,0,0,0,0,0,0,0,-1,1189,988,0,0
-28,36,0,0,0,0,0,0,0,0,0,-1,1196,988,0,0
-21,36,0,0,0,0,0,0,0,0,0,-1,1203,988,0,0
-14,36,0,0,0,0,0,0,0,0,0,-1,1210,988,0,0
-7,36,0,0,0,0,0,0,0,0,0,-1,1217,988,0,0
0,36,0,0,0,0,0,0,0,0,0,-1,1224,988,0,0
7,36,0,0,0,0,0,0,0,0,0,-1,1231,988,0,0
14,36,0,0,0,0,0,0,0,0,0,-1,1238,988,0,0
21,36,0,0,0,0,0,0,0,0,0,-1,1245,988,0,0
28,36,0,0,0,0,0,0,0,0,0,-1,1252,988,0,0
35,36,0,0,0,0,0,0,0,0,0,-1,1259,988,0,0
42,36,0,0,0,0,0,0,0,0,0,-1,1266,988,0,0
49,36,0,0,0,0,0,0,0,0,0,-1,1273,988,0,0
56,36,0,0,0,0,0,0,0,0,0,-1,1280,988,0,0
63,36,0,0,0,0,0,0,0,0,0,-1,1287,988,0,0
70,36,0,0,0,0,0,0,0,0,0,-1,1294,988,0,0
77,36,0,0,0,0,0,0,0,0,0,-1,1301,988,0,0
84,36,0,0,0,0,0,0,0,0,0,-1,1308,988,0,0
91,36,0,0,0,0,0,0,0,0,0,-1,1315,988,0,0
98,36,0,0,0,0,0,0,0,0,0,-1,1322,988,0,0
105,36,0,0,0,0,0,0,0,0,0,-1,1329,988,0,0
112,36,0,0,0,0,0,0,0,0,0,-1,1336,988,0,0
119,36,0,0,0,0,0,0,0,0,0,-1,1343,988,0,0
126,36,0,0,0,0,0,0,0,0,0,-1,1350,988,0,0
133,36,0,0,0,0,0,0,0,0,0,-1,1357,988,0,0
140,36,0,0,0,0,0,0,0,0,0,-1,1364,988,0,0
147,36,0,0,0,0,0,0,0,0,0,-1,1371,988,0,0
154,36,0,0,0,0,0,0,0,0,0,-1,1378,988,0,0
161,36,0,0,0,0,0,0,0,0,0,-1,1385,988,0,0
168,36,0,0,0,0,0,0,0,0,0,-1,1392,988,0,0
175,36,0,0,0,0,0,0,0,0,0,-1,1399,988,0,0
182,36,0,0,0,0,0,0,0,0,0,-1,1406,988,0,0
189,36,0,0,0,0,0,0,0,0,0,-1,1413,988,0,0
196,36,0,0,0,0,0,0,0,0,0,-1,1420,988,0,0
203,36,0,0,0,0,0,0,0,0,0,-1,1427,988,0,0
210,36,0,0,0,0,0,0,0,0,0,-1,1434,988,0,0
217,36,0,0,0,0,0,0,0,0,0,-1,1441,988,0,0
224,36,0,0,0,0,0,0,0,0,0,-1,1448,988,0,0
231,36,0,0,0,0,0,0,0,0,0,-1,1455,988,0,0
238,36,0,0,0,0,0,0,0,0,0,-1,1462,988,0,0
245,36,0,0,0,0,0,0,0,0,0,-1,1469,988,0,0
252,36,0,0,0,0,0,0,0,0,0,-1,1476,988,0,0
259,36,0,0,0,0,0,0,0,0,0,-1,1483,988,0,0
266,36,0,0,0,0,0,0,0,0,0,-1,1490,988,0,0
273,36,0,0,0,0,0,0,0,0,0,-1,1497,988,0,0
280,36,0,0,0,0,0,0,0,0,0,-1,1504,988,0,0
287,36,0,0,0,0,0,0,0,0,0,-1,1511,988,0,0
294,36,0,0,0,0,0,0,0,0,0,-1,1518,988,0,0
301,36,0,0,0,0,0,0,0,0,0,-1,1525,988,0,0
308,36,0,0,0,0,0,0,0,0,0,-1,1532,988,0,0
315,36,0,0,0,0,0,0,0,0,0,-1,1539,988,0,0
322,36,0,0,0,0,0,0,0,0,0,-1,1546,988,0,0
329,36,0,0,0,0,0,0,0,0,0,-1,1553,988,0,0
336,36,0,0,0,0,0,0,0,0,0,-1,1560,988,0,0
343,36,0,0,0,0,0,0,0,0,0,-1,1567,988,0,0
350,36,0,0,0,0,0,0,0,0,0,-1,1574,988,0,0
357,36,0,0,0,0,0,0,0,0,0,-1,1581,988,0,0
364,36,0,0,0,0,0,0,0,0,0,-1,1588,988,0,0
371,36,0,0,0,0,0,0,0,0,0,-1,1595,988,0,0
378,36,0,0,0,0,0,0,0,0,0,-1,1602,988,0,0
385,36,0,0,0,0,0,0,0,0,0,-1,1609,988,0,0
392,36,0,0,0,0,0,0,0,0,0,-1,1616,988,0,0
399,36,0,0,0,0,0,0,0,0,0,-1,1623,988,0,0
406,36,0,0,0,0,0,0,0,0,0,-1,1630,988,0,0
413,36,0,0,0,0,0,0,0,0,0,-1,1637,988,0,0
420,36,0,0,0,0,0,0,0,0,0,-1,1644,988,0,0
427,36,0,0,0,0,0,0,0,0,0,-1,1651,988,0,0
434,36,0,0,0,0,0,0,0,0,0,-1,1658,988,0,0
441,36,0,0,0,0,0,0,0,0,0,-1,1665,988,0,0
448,36,0,0,0,0,0,0,0,0,0,-1,1672,988,0,0
455,36,0,0,0,0,0,0,0,0,0,-1,1679,988,0,0
462,36,0,0,0,0,0,0,0,0,0,-1,1686,988,0,0
469,36,0,0,0,0,0,0,0,0,0,-1,1693,988,0,0
476,36,0,0,0,0,0,0,0,0,0,-1,1700,988,0,0
483,36,0,0,0,0,0,0,0,0,0,-1,1707,988,0,0
490,36,0,0,0,0,0,0,0,0,0,-1,1714,988,0,0
497,36,0,0,0,0,0,0,0,0,0,-1,1721,988,0,0
504,36,0,0,0,0,0,0,0,0,0,-1,1728,988,0,0
511,36,0,0,0,0,0,0,0,0,0,-1,1735,988,0,0
518,36,0,0,0,0,0,0,0,0,0,-1,1742,988,0,0
525,36,0,0,0,0,0,0,0,0,0,-1,1749,988,0,0
532,36,0,0,0,0,0,0,0,0,0,-1,1756,988,0,0
539,36,0,0,0,0,0,0,0,0,0,-1,1763,988,0,0
546,36,0,0,0,0,0,0,0,0,0,-1,1770,988,0,0
553,36,0,0,0,0,0,0,0,0,0,-1,1777,988,0,0
560,36,0,0,0,0,0,0,0,0,0,-1,1784,988,0,0
567,36,0,0,0,0,0,0,0,0,0,-1,1791,988,0,0
574,36,0,0,0,0,0,0,0,0,0,-1,1798,988,0,0
581,36,0,0,0,0,0,0,0,0,0,-1,1805,988,0,0
588,36,0,0,0,0,0,0,0,0,0,-1,1812,988,0,0
595,36,0,0,0,0,0,0,0,0,0,-1,1819,988,0,0
602,36,0,0,0,0,0,0,0,0,0,-1,1826,988,0,0
609,36,0,0,0,0,0,0,0,0,0,-1,1833,988,0,0
616,36,0,0,0,0,0,0,0,0,0,-1,1840,988,0,0
623,36,0,0,0,0,0,0,0,0,0,-1,1847,988,0,0
630,36,0,0,0,0,0,0,0,0,0,-1,1854,988,0,0
637,36,0,0,0,0,0,0,0,0,0,-1,1861,988,0,0
644,36,78.877,2.34119,-0.00192791,-0.0031213,-0.0019659,-0.000470142,-0.00457907,-0.638057,0.00290869,0.0424863,1868,988,78.877,-2.34119
651,36,78.8414,2.37268,-0.0017783,-0.00208415,-0.00162539,-0.000298658,-0.00356379,-0.738495,0.00228283,0.0417575,1875,988,78.8415,-2.3727
658,36,78.9102,2.3078,-0.0014213,-0.00144926,-0.00113407,-0.000301119,-0.00256944,-0.779234,0.00162193,0.0393264,1882,988,78.9101,-2.30781
665,36,78.9863,2.25665,-0.000938632,-0.000962762,-0.000831733,-0.000118876,-0.00178252,-0.778146,0.00115077,0.0378452,1889,988,78.9863,-2.25664
672,36,79.0176,2.23529,-0.000514269,-0.000595067,-0.000545741,-7.43393e-06,-0.0011019,-0.748453,0.000732136,0.0398541,1896,988,79.0176,-2.23531
679,36,78.9669,2.12933,-0.000105733,-0.00053988,-0.000207602,-2.24417e-05,-0.000623172,-0.381549,0.000408173,0.0415834,1903,988,78.9669,-2.12931
686,36,78.8723,2.20337,0.000275745,-0.000799574,-2.05149e-05,0.000276137,-0.000799965,-0.0190688,0.000645358,0.0380722,1910,988,78.8723,-2.20339
693,36,78.8293,2.37848,0.000401614,-0.00101823,2.75714e-05,0.000402149,-0.00101877,0.0194088,0.000845725,0.0381463,1917,988,78.8293,-2.37847
700,36,78.8348,2.38916,0.000234136,-0.000986282,-8.52766e-05,0.000240066,-0.000992212,-0.0694253,0.000754339,0.0392446,1924,988,78.8348,-2.38916
707,36,78.989,2.28253,-0.000415099,-0.000369639,-0.0003793,-1.23878e-05,-0.00077235,-0.815325,0.000510821,0.0303391,1931,988,78.989,-2.28253
714,36,78.9442,2.22986,0,0,0,0,0,0,0,-1,1938,988,78.9442,-2.22983
721,36,78.2664,6.29388,0,0,0,0,0,0,0,-1,1945,988,78.2664,-6.2939
728,36,78.3949,6.74695,-0.00451215,0.00430179,-0.00161975,0.00459003,-0.00480038,-1.39469,0.00542201,0.0257876,1952,988,78.3949,-6.74696
735,36,78.5187,7.17767,-0.00557962,0.00659583,-0.00237423,0.00704243,-0.00602622,-1.38487,0.00755279,0.0214871,1959,988,78.5186,-7.17767
742,36,78.4269,7.44653,-0.00740357,0.00902661,-0.00313571,0.00960472,-0.00798168,-1.38848,0.0101679,0.0170738,1966,988,78.4269,-7.44656
749,36,78.377,7.78937,-0.00967722,0.0122611,-0.0041983,0.0130371,-0.0104532,-1.38803,0.0135895,0.0183174,1973,988,78.3769,-7.78939
756,36,78.3391,8.09674,-0.0122256,0.0166012,-0.00545591,0.0175993,-0.0132237,-1.38987,0.0178553,0.0188877,1980,988,78.339,-8.09675
763,36,78.2292,8.29944,-0.0148607,0.0226853,-0.00712221,0.0239909,-0.0161663,-1.38949,0.023331,0.0218852,1987,988,78.2293,-8.29944
770,36,78.1423,8.60809,-0.0172362,0.0303136,-0.00946945,0.03213,-0.0190526,-1.38128,0.0298701,0.0183423,1994,988,78.1423,-8.60808
777,36,78.146,9.00177,-0.019424,0.038348,-0.012065,0.0407664,-0.0218424,-1.37297,0.0366935,0.0274864,2001,988,78.1461,-9.00176
784,36,78.3369,9.34528,-0.020653,0.0467737,-0.0149609,0.0499442,-0.0238235,-1.36197,0.0434707,0.0477916,2008,988,78.337,-9.34526
791,36,78.4753,9.67688,0,0,0,0,0,0,0,-1,2015,988,78.4753,-9.67688
798,36,79.1062,6.0719,0,0,0,0,0,0,0,-1,2022,988,79.1063,-6.07191
805,36,79.177,6.18964,0,0,0,0,0,0,0,-1,2029,988,79.1769,-6.18966
812,36,79.26,6.68024,0,0,0,0,0,0,0,-1,2036,988,79.2599,-6.68023
-700,29,0,0,0,0,0,0,0,0,0,-1,524,995,0,0
-693,29,-68.9695,-4.10876,0.107043,-0.0298567,0.0467858,0.121504,-0.0443183,0.299786,0.0991345,0.0475176,531,995,-68.9695,4.10877
-686,29,-68.3276,-2.93622,0.0881171,-0.0128425,0.0408537,0.102578,-0.0273029,0.340195,0.0790731,0.0485376,538,995,-68.3277,2.93623
-679,29,-67.6407,-1.7254,0,0,0,0,0,0,0,-1,545,995,-67.6407,1.72538
-672,29,-60.9066,3.94055,0,0,0,0,0,0,0,-1,552,995,-60.9067,-3.94058
-665,29,-60.4847,4.07245,0,0,0,0,0,0,0,-1,559,995,-60.4847,-4.07242
-658,29,-58.0084,4.89471,0,0,0,0,0,0,0,-1,566,995,-58.0084,-4.89473
-651,29,-62.8302,7.50122,0,0,0,0,0,0,0,-1,573,995,-62.8302,-7.50123
-644,29,-63.0235,7.44702,0,0,0,0,0,0,0,-1,580,995,-63.0235,-7.44701
-637,29,-63.2296,7.49011,0.00368536,0.0247472,0.00986957,0.0286491,-0.000216635,1.1943,0.019172,0.0294957,587,995,-63.2296,-7.49012
-630,29,-63.2739,7.383,-0.00472445,0.0250645,0.00578164,0.0261473,-0.00580723,1.38566,0.0196554,0.0155562,594,995,-63.2739,-7.38299
-623,29,-63.278,7.21326,-0.00628129,0.0174469,0.00390769,0.0180739,-0.00690826,1.41171,0.0148959,0.014559,601,995,-63.2779,-7.21329
-616,29,-63.3295,7.0163,-0.00669534,0.0105048,0.00300073,0.0110132,-0.00720382,1.40294,0.010594,0.0170191,608,995,-63.3295,-7.01629
-609,29,-63.0978,6.88397,0,0,0,0,0,0,0,-1,615,995,-63.0978,-6.88396
-602,29,-63.4047,6.58344,-0.00540153,0.00272822,0.00206231,0.00322145,-0.00589476,1.33604,0.00533815,0.0284482,622,995,-63.4047,-6.58341
-595,29,-63.7603,6.21674,-0.00424721,0.000451189,0.00198219,0.00117572,-0.00497174,1.22036,0.00376805,0.027688,629,995,-63.7603,-6.21673
-588,29,-64.0933,5.90906,0,0,0,0,0,0,0,-1,636,995,-64.0933,-5.90905
-581,29,-62.5518,0.544922,0,0,0,0,0,0,0,-1,643,995,-62.5518,-0.544922
-574,29,-62.5646,0.53479,-0.00138599,-0.0030169,0.00158216,-0.000421497,-0.00398139,0.54745,0.00252551,0.0331712,650,995,-62.5646,-0.534799
-567,29,-62.5683,0.416443,-0.000368756,-0.00299356,0.0015842,0.000376047,-0.00373836,0.439479,0.00262658,0.0332738,657,995,-62.5683,-0.416468
-560,29,-62.6218,0.353394,0.000766529,-0.00231368,0.00160522,0.00145098,-0.00299814,0.403049,0.00261996,0.0382251,664,995,-62.6218,-0.353402
-553,29,-62.7525,0.143311,0.00187355,-0.00104781,0.00157632,0.00256191,-0.00173617,0.411728,0.00249672,0.0426755,671,995,-62.7525,-0.143339
-546,29,-62.4722,0.309631,0.0027518,0.000380171,0.0013541,0.00336591,-0.000233941,0.425778,0.00232585,0.0434594,678,995,-62.4722,-0.309641
-539,29,-62.5806,0.504028,0.0025013,0.00155274,0.000814986,0.00296997,0.00108408,0.521877,0.00173542,0.0430071,685,995,-62.5806,-0.504058
-532,29,-62.5134,0.78363,0.00199909,0.00251331,-8.92447e-05,0.00252836,0.00198404,-1.40375,0.00153661,0.0461869,692,995,-62.5133,-0.783633
-525,29,-62.2758,1.0412,0,0,0,0,0,0,0,-1,699,995,-62.2757,-1.04117
-518,29,0,0,0,0,0,0,0,0,0,-1,706,995,0,0
-511,29,0,0,0,0,0,0,0,0,0,-1,713,995,0,0
-504,29,0,0,0,0,0,0,0,0,0,-1,720,995,0,0
-497,29,0,0,0,0,0,0,0,0,0,-1,727,995,0,0
-490,29,0,0,0,0,0,0,0,0,0,-1,734,995,0,0
-483,29,0,0,0,0,0,0,0,0,0,-1,741,995,0,0
-476,29,0,0,0,0,0,0,0,0,0,-1,748,995,0,0
-469,29,0,0,0,0,0,0,0,0,0,-1,755,995,0,0
-462,29,0,0,0,0,0,0,0,0,0,-1,762,995,0,0
-455,29,0,0,0,0,0,0,0,0,0,-1,769,995,0,0
-448,29,0,0,0,0,0,0,0,0,0,-1,776,995,0,0
-441,29,0,0,0,0,0,0,0,0,0,-1,783,995,0,0
-434,29,0,0,0,0,0,0,0,0,0,-1,790,995,0,0
-427,29,0,0,0,0,0,0,0,0,0,-1,797,995,0,0
-420,29,0,0,0,0,0,0,0,0,0,-1,804,995,0,0
-413,29,0,0,0,0,0,0,0,0,0,-1,811,995,0,0
-406,29,0,0,0,0,0,0,0,0,0,-1,818,995,0,0
-399,29,0,0,0,0,0,0,0,0,0,-1,825,995,0,0
-392,29,0,0,0,0,0,0,0,0,0,-1,832,995,0,0
-385,29,0,0,0,0,0,0,0,0,0,-1,839,995,0,0
-378,29,0,0,0,0,0,0,0,0,0,-1,846,995,0,0
-371,29,0,0,0,0,0,0,0,0,0,-1,853,995,0,0
-364,29,0,0,0,0,0,0,0,0,0,-1,860,995,0,0
-357,29,0,0,0,0,0,0,0,0,0,-1,867,995,0,0
-350,29,0,0,0,0,0,0,0,0,0,-1,874,995,0,0
-343,29,0,0,0,0,0,0,0,0,0,-1,881,995,0,0
-336,29,0,0,0,0,0,0,0,0,0,-1,888,995,0,0
-329,29,0,0,0,0,0,0,0,0,0,-1,895,995,0,0
-322,29,0,0,0,0,0,0,0,0,0,-1,902,995,0,0
-315,29,0,0,0,0,0,0,0,0,0,-1,909,995,0,0
-308,29,0,0,0,0,0,0,0,0,0,-1,916,995,0,0
-301,29,0,0,0,0,0,0,0,0,0,-1,923,995,0,0
-294,29,0,0,0,0,0,0,0,0,0,-1,930,995,0,0
-287,29,0,0,0,0,0,0,0,0,0,-1,937,995,0,0
-280,29,0,0,0,0,0,0,0,0,0,-1,944,995,0,0
-273,29,0,0,0,0,0,0,0,0,0,-1,951,995,0,0
-266,29,0,0,0,0,0,0,0,0,0,-1,958,995,0,0
-259,29,0,0,0,0,0,0,0,0,0,-1,965,995,0,0
-252,29,0,0,0,0,0,0,0,0,0,-1,972,995,0,0
-245,29,0,0,0,0,0,0,0,0,0,-1,979,995,0,0
-238,29,0,0,0,0,0,0,0,0,0,-1,986,995,0,0
-231,29,0,0,0,0,0,0,0,0,0,-1,993,995,0,0
-224,29,0,0,0,0,0,0,0,0,0,-1,1000,995,0,0
-217,29,0,0,0,0,0,0,0,0,0,-1,1007,995,0,0
-210,29,0,0,0,0,0,0,0,0,0,-1,1014,995,0,0
-203,29,0,0,0,0,0,0,0,0,0,-1,1021,995,0,0
-196,29,0,0,0,0,0,0,0,0,0,-1,1028,995,0,0
-189,29,0,0,0,0,0,0,0,0,0,-1,1035,995,0,0
-182,29,0,0,0,0,0,0,0,0,0,-1,1042,995,0,0
-175,29,0,0,0,0,0,0,0,0,0,-1,1049,995,0,0
-168,29,0,0,0,0,0,0,0,0,0,-1,1056,995,0,0
-161,29,0,0,0,0,0,0,0,0,0,-1,1063,995,0,0
-154,29,0,0,0,0,0,0,0,0,0,-1,1070,995,0,0
-147,29,0,0,0,0,0,0,0,0,0,-1,1077,995,0,0
-140,29,0,0,0,0,0,0,0,0,0,-1,1084,995,0,0
-133,29,0,0,0,0,0,0,0,0,0,-1,1091,995,0,0
-126,29,0,0,0,0,0,0,0,0,0,-1,1098,995,0,0
-119,29,0,0,0,0,0,0,0,0,0,-1,1105,995,0,0
-112,29,0,0,0,0,0,0,0,0,0,-1,1112,995,0,0
-105,29,0,0,0,0,0,0,0,0,0,-1,1119,995,0,0
-98,29,0,0,0,0,0,0,0,0,0,-1,1126,995,0,0
-91,29,0,0,0,0,0,0,0,0,0,-1,1133,995,0,0
-84,29,0,0,0,0,0,0,0,0,0,-1,1140,995,0,0
-77,29,0,0,0,0,0,0,0,0,0,-1,1147,995,0,0
-70,29,0,0,0,0,0,0,0,0,0,-1,1154,995,0,0
-63,29,0,0,0,0,0,0,0,0,0,-1,1161,995,0,0
-56,29,0,0,0,0,0,0,0,0,0,-1,1168,995,0,0
-49,29,0,0,0,0,0,0,0,0,0,-1,1175,995,0,0
-42,29,0,0,0,0,0,0,0,0,0,-1,1182,995,0,0
-35,29,0,0,0,0,0,0,0,0,0,-1,1189,995,0,0
-28,29,0,0,0,0,0,0,0,0,0,-1,1196,995,0,0
-21,29,0,0,0,0,0,0,0,0,0,-1,1203,995,0,0
-14,29,0,0,0,0,0,0,0,0,0,-1,1210,995,0,0
-7,29,0,0,0,0,0,0,0,0,0,-1,1217,995,0,0
0,29,0,0,0,0,0,0,0,0,0,-1,1224,995,0,0
7,29,0,0,0,0,0,0,0,0,0,-1,1231,995,0,0
14,29,0,0,0,0,0,0,0,0,0,-1,1238,995,0,0
21,29,0,0,0,0,0,0,0,0,0,-1,1245,995,0,0
28,29,0,0,0,0,0,0,0,0,0,-1,1252,995,0,0
35,29,0,0,0,0,0,0,0,0,0,-1,1259,995,0,0
42,29,0,0,0,0,0,0,0,0,0,-1,1266,995,0,0
49,29,0,0,0,0,0,0,0,0,0,-1,1273,995,0,0
56,29,0,0,0,0,0,0,0,0,0,-1,1280,995,0,0
63,29,0,0,0,0,0,0,0,0,0,-1,1287,995,0,0
70,29,0,0,0,0,0,0,0,0,0,-1,1294,995,0,0
77,29,0,0,0,0,0,0,0,0,0,-1,1301,995,0,0
84,29,0,0,0,0,0,0,0,0,0,-1,1308,995,0,0
91,29,0,0,0,0,0,0,0,0,0,-1,1315,995,0,0
98,29,0,0,0,0,0,0,0,0,0,-1,1322,995,0,0
105,29,0,0,0,0,0,0,0,0,0,-1,1329,995,0,0
112,29,0,0,0,0,0,0,0,0,0,-1,1336,995,0,0
119,29,0,0,0,0,0,0,0,0,0,-1,1343,995,0,0
126,29,0,0,0,0,0,0,0,0,0,-1,1350,995,0,0
133,29,0,0,0,0,0,0,0,0,0,-1,1357,995,0,0
140,29,0,0,0,0,0,0,0,0,0,-1,1364,995,0,0
147,29,0,0,0,0,0,0,0,0,0,-1,1371,995,0,0
154,29,0,0,0,0,0,0,0,0,0,-1,1378,995,0,0
161,29,0,0,0,0,0,0,0,0,0,-1,1385,995,0,0
168,29,0,0,0,0,0,0,0,0,0,-1,1392,995,0,0
175,29,0,0,0,0,0,0,0,0,0,-1,1399,995,0,0
182,29,0,0,0,0,0,0,0,0,0,-1,1406,995,0,0
189,29,0,0,0,0,0,0,0,0,0,-1,1413,995,0,0
196,29,0,0,0,0,0,0,0,0,0,-1,1420,995,0,0
203,29,0,0,0,0,0,0,0,0,0,-1,1427,995,0,0
210,29,0,0,0,0,0,0,0,0,0,-1,1434,995,0,0
217,29,0,0,0,0,0,0,0,0,0,-1,1441,995,0,0
224,29,0,0,0,0,0,0,0,0,0,-1,1448,995,0,0
231,29,0,0,0,0,0,0,0,0,0,-1,1455,995,0,0
238,29,0,0,0,0,0,0,0,0,0,-1,1462,995,0,0
245,29,0,0,0,0,0,0,0,0,0,-1,1469,995,0,0
252,29,0,0,0,0,0,0,0,0,0,-1,1476,995,0,0
259,29,0,0,0,0,0,0,0,0,0,-1,1483,995,0,0
266,29,0,0,0,0,0,0,0,0,0,-1,1490,995,0,0
273,29,0,0,0,0,0,0,0,0,0,-1,1497,995,0,0
280,29,0,0,0,0,0,0,0,0,0,-1,1504,995,0,0
287,29,0,0,0,0,0,0,0,0,0,-1,1511,995,0,0
294,29,0,0,0,0,0,0,0,0,0,-1,1518,995,0,0
301,29,0,0,0,0,0,0,0,0,0,-1,1525,995,0,0
308,29,0,0,0,0,0,0,0,0,0,-1,1532,995,0,0
315,29,0,0,0,0,0,0,0,0,0,-1,1539,995,0,0
322,29,0,0,0,0,0,0,0,0,0,-1,1546,995,0,0
329,29,0,0,0,0,0,0,0,0,0,-1,1553,995,0,0
336,29,0,0,0,0,0,0,0,0,0,-1,1560,995,0,0
343,29,0,0,0,0,0,0,0,0,0,-1,1567,995,0,0
350,29,0,0,0,0,0,0,0,0,0,-1,1574,995,0,0
357,29,0,0,0,0,0,0,0,0,0,-1,1581,995,0,0
364,29,0,0,0,0,0,0,0,0,0,-1,1588,995,0,0
371,29,0,0,0,0,0,0,0,0,0,-1,1595,995,0,0
378,29,0,0,0,0,0,0,0,0,0,-1,1602,995,0,0
385,29,0,0,0,0,0,0,0,0,0,-1,1609,995,0,0
392,29,0,0,0,0,0,0,0,0,0,-1,1616,995,0,0
399,29,0,0,0,0,0,0,0,0,0,-1,1623,995,0,0
406,29,0,0,0,0,0,0,0,0,0,-1,1630,995,0,0
413,29,0,0,0,0,0,0,0,0,0,-1,1637,995,0,0
420,29,0,0,0,0,0,0,0,0,0,-1,1644,995,0,0
427,29,0,0,0,0,0,0,0,0,0,-1,1651,995,0,0
434,29,0,0,0,0,0,0,0,0,0,-1,1658,995,0,0
441,29,0,0,0,0,0,0,0,0,0,-1,1665,995,0,0
448,29,0,0,0,0,0,0,0,0,0,-1,1672,995,0,0
455,29,0,0,0,0,0,0,0,0,0,-1,1679,995,0,0
462,29,0,0,0,0,0,0,0,0,0,-1,1686,995,0,0
469,29,0,0,0,0,0,0,0,0,0,-1,1693,995,0,0
476,29,0,0,0,0,0,0,0,0,0,-1,1700,995,0,0
483,29,0,0,0,0,0,0,0,0,0,-1,1707,995,0,0
490,29,0,0,0,0,0,0,0,0,0,-1,1714,995,0,0
497,29,0,0,0,0,0,0,0,0,0,-1,1721,995,0,0
504,29,0,0,0,0,0,0,0,0,0,-1,1728,995,0,0
511,29,0,0,0,0,0,0,0,0,0,-1,1735,995,0,0
518,29,0,0,0,0,0,0,0,0,0,-1,1742,995,0,0
525,29,0,0,0,0,0,0,0,0,0,-1,1749,995,0,0
532,29,0,0,0,0,0,0,0,0,0,-1,1756,995,0,0
539,29,0,0,0,0,0,0,0,0,0,-1,1763,995,0,0
546,29,0,0,0,0,0,0,0,0,0,-1,1770,995,0,0
553,29,0,0,0,0,0,0,0,0,0,-1,1777,995,0,0
560,29,0,0,0,0,0,0,0,0,0,-1,1784,995,0,0
567,29,0,0,0,0,0,0,0,0,0,-1,1791,995,0,0
574,29,0,0,0,0,0,0,0,0,0,-1,1798,995,0,0
581,29,0,0,0,0,0,0,0,0,0,-1,1805,995,0,0
588,29,0,0,0,0,0,0,0,0,0,-1,1812,995,0,0
595,29,0,0,0,0,0,0,0,0,0,-1,1819,995,0,0
602,29,0,0,0,0,0,0,0,0,0,-1,1826,995,0,0
609,29,0,0,0,0,0,0,0,0,0,-1,1833,995,0,0
616,29,0,0,0,0,0,0,0,0,0,-1,1840,995,0,0
623,29,0,0,0,0,0,0,0,0,0,-1,1847,995,0,0
630,29,0,0,0,0,0,0,0,0,0,-1,1854,995,0,0
637,29,0,0,0,0,0,0,0,0,0,-1,1861,995,0,0
644,29,78.8643,2.42969,-0.00180669,-0.00392237,-0.00272187,5.56752e-05,-0.00578473,-0.600059,0.00387518,0.0432236,1868,995,78.8643,-2.42971
651,29,78.9023,2.37299,-0.00163262,-0.00271683,-0.00208078,-2.44884e-05,-0.00432496,-0.657966,0.00287518,0.0451535,1875,995,78.9023,-2.37298
658,29,78.9556,2.30829,-0.00132134,-0.00195729,-0.00141872,-0.000185393,-0.00309323,-0.675156,0.00200322,0.0442428,1882,995,78.9556,-2.30828
665,29,78.9926,2.32642,-0.000905967,-0.00138739,-0.000996222,-0.000121789,-0.00217157,-0.666857,0.00140887,0.0420246,1889,995,78.9926,-2.32639
672,29,78.9591,2.37299,-0.000517092,-0.000929484,-0.000640102,-5.07949e-05,-0.00139578,-0.629581,0.00091406,0.0386491,1896,995,78.9591,-2.37297
679,29,78.7764,2.48004,-9.60086e-05,-0.000736334,-0.000282856,1.10428e-05,-0.000843385,-0.361806,0.000565974,0.0392702,1903,995,78.7764,-2.48005
686,29,78.7578,2.42157,0.000258223,-0.000885321,-7.63297e-05,0.000263296,-0.000890394,-0.066356,0.000698112,0.0375813,1910,995,78.7578,-2.42159
693,29,78.8383,2.38275,0.000407303,-0.00101803,-1.04367e-05,0.000407379,-0.0010181,-0.0073218,0.000847806,0.0396925,1917,995,78.8383,-2.38277
700,29,78.822,2.47931,0.000309658,-0.000946331,-9.81261e-05,0.000317278,-0.000953951,-0.0774999,0.000764012,0.0393743,1924,995,78.822,-2.47933
707,29,78.8708,2.36401,-0.000364517,-0.000267887,-0.000346863,3.40095e-05,-0.000666413,-0.854599,0.000456035,0.0261335,1931,995,78.8709,-2.36404
714,29,78.9242,2.13635,0,0,0,0,0,0,0,-1,1938,995,78.9242,-2.13636
721,29,74.6213,6.08148,0,0,0,0,0,0,0,-1,1945,995,74.6214,-6.08147
728,29,78.5933,6.86261,0,0,0,0,0,0,0,-1,1952,995,78.5932,-6.8626
735,29,78.7527,7.25415,-0.00583125,0.00692757,-0.00224815,0.00731211,-0.00621579,-1.40139,0.00781888,0.0185955,1959,995,78.7527,-7.25415
742,29,78.7043,7.48364,-0.00761161,0.00926819,-0.00294984,0.00976884,-0.00811226,-1.40268,0.0103384,0.0151535,1966,995,78.7044,-7.48363
749,29,78.6609,7.76837,-0.0097995,0.0123376,-0.00386865,0.0129942,-0.0104561,-1.40267,0.0135654,0.0159925,1973,995,78.661,-7.76838
756,29,78.6389,8.0351,-0.0122012,0.0163632,-0.00498602,0.0172085,-0.0130465,-1.40286,0.0175228,0.0148335,1980,995,78.6389,-8.03509
763,29,78.5625,8.18732,-0.0146497,0.0220107,-0.00656464,0.0231508,-0.0157897,-1.39885,0.0226158,0.0128509,1987,995,78.5625,-8.18733
770,29,78.4229,8.33923,-0.0166963,0.0292873,-0.00890171,0.0309504,-0.0183594,-1.3861,0.0287767,0.0188642,1994,995,78.4228,-8.33925
777,29,78.2671,8.61176,-0.0182128,0.0369549,-0.0115707,0.0392834,-0.0205413,-1.37221,0.0351002,0.033479,2001,995,78.267,-8.61177
784,29,78.1763,8.70874,-0.0185019,0.0447896,-0.0145342,0.0479677,-0.0216799,-1.35552,0.0411547,0.0497602,2008,995,78.1763,-8.70875
791,29,78.0417,8.6734,0,0,0,0,0,0,0,-1,2015,995,78.0418,-8.67339
798,29,79.3899,4.37164,0,0,0,0,0,0,0,-1,2022,995,79.3898,-4.37163
805,29,79.7434,4.59613,0,0,0,0,0,0,0,-1,2029,995,79.7434,-4.59615
812,29,80.0244,4.56281,0,0,0,0,0,0,0,-1,2036,995,80.0243,-4.56278
-700,22,0,0,0,0,0,0,0,0,0,-1,524,1002,0,0
-693,22,-68.5213,-3.82544,0.092784,-0.0332227,0.0402158,0.104525,-0.0449639,0.284058,0.0885616,0.043519,531,1002,-68.5213,3.82546
-686,22,-68.0024,-2.89178,0.0785192,-0.0164638,0.036018,0.0906326,-0.0285772,0.324431,0.071867,0.0471126,538,1002,-68.0024,2.89176
-679,22,-67.4321,-1.90485,0,0,0,0,0,0,0,-1,545,1002,-67.4321,1.90483
-672,22,-61.0786,3.78717,0,0,0,0,0,0,0,-1,552,1002,-61.0786,-3.78715
-665,22,-60.3166,4.37958,0,0,0,0,0,0,0,-1,559,1002,-60.3166,-4.3796
-658,22,-59.6215,4.85364,0,0,0,0,0,0,0,-1,566,1002,-59.6215,-4.85361
-651,22,-62.213,6.81622,0,0,0,0,0,0,0,-1,573,1002,-62.213,-6.81624
-644,22,-63.0443,7.06989,0,0,0,0,0,0,0,-1,580,1002,-63.0443,-7.0699
-637,22,-63.523,7.24329,0.00377371,0.0235013,0.00888235,0.0269112,0.00036383,1.20425,0.0178208,0.0340791,587,1002,-63.523,-7.24327
-630,22,-63.4872,7.20349,-0.00447721,0.0241981,0.00503484,0.0250564,-0.00533555,1.40194,0.0187377,0.0194863,594,1002,-63.4872,-7.20351
-623,22,-63.5243,7.07214,-0.00617693,0.0170133,0.00319001,0.0174441,-0.00660774,1.43656,0.0143484,0.0133772,601,1002,-63.5243,-7.07215
-616,22,-63.5526,6.89178,-0.00659936,0.0102949,0.00241654,0.0106338,-0.00693822,1.43148,0.0102197,0.0222035,608,1002,-63.5525,-6.89181
-609,22,-63.6235,6.80261,-0.00619205,0.00579698,0.00183973,0.00607294,-0.00646801,1.42191,0.00724172,0.0386445,615,1002,-63.6235,-6.80259
-602,22,-63.8737,6.65216,-0.00548046,0.00267008,0.00148914,0.00293363,-0.00574401,1.39563,0.00509686,0.0339248,622,1002,-63.8737,-6.65219
-595,22,-64.1138,6.31891,-0.00444777,0.000466934,0.00142055,0.000847987,-0.00482882,1.30872,0.00353593,0.0386496,629,1002,-64.1138,-6.31892
-588,22,-64.2062,5.89441,0,0,0,0,0,0,0,-1,636,1002,-64.2062,-5.89439
-581,22,-62.5745,0.497986,0,0,0,0,0,0,0,-1,643,1002,-62.5745,-0.497977
-574,22,-62.5698,0.583923,-0.00155709,-0.00286159,0.00113434,-0.000900837,-0.00351783,0.52448,0.00211005,0.0359284,650,1002,-62.5697,-0.583893
-567,22,-62.5721,0.619812,-0.000514688,-0.00280532,0.00119746,-2.99758e-06,-0.00331701,0.403827,0.00221034,0.0335314,657,1002,-62.5722,-0.619797
-560,22,-62.7948,0.479431,0.000672989,-0.00208126,0.00128486,0.0011793,-0.00258758,0.375376,0.00222489,0.0381525,664,1002,-62.7948,-0.479423
-553,22,-62.7396,0.619202,0.00185594,-0.000800944,0.001341,0.0024151,-0.0013601,0.395052,0.0022078,0.0410137,671,1002,-62.7395,-0.619216
-546,22,-62.4286,0.811951,0.00287323,0.000588719,0.00125846,0.00343053,3.14246e-05,0.416882,0.00227662,0.0425044,678,1002,-62.4286,-0.811921
-539,22,-62.6642,0.733643,0.0028465,0.0016956,0.000937642,0.0033712,0.00117091,0.510173,0.00197637,0.0428334,685,1002,-62.6642,-0.73367
-532,22,-62.736,0.808167,0.00259943,0.00268734,0.00036723,0.00301324,0.00227354,0.844961,0.00181327,0.0459068,692,1002,-62.736,-0.808163
-525,22,0,0,0,0,0,0,0,0,0,-1,699,1002,0,0
-518,22,0,0,0,0,0,0,0,0,0,-1,706,1002,0,0
-511,22,0,0,0,0,0,0,0,0,0,-1,713,1002,0,0
-504,22,0,0,0,0,0,0,0,0,0,-1,720,1002,0,0
-497,22,0,0,0,0,0,0,0,0,0,-1,727,1002,0,0
-490,22,0,0,0,0,0,0,0,0,0,-1,734,1002,0,0
-483,22,0,0,0,0,0,0,0,0,0,-1,741,1002,0,0
-476,22,0,0,0,0,0,0,0,0,0,-1,748,1002,0,0
-469,22,0,0,0,0,0,0,0,0,0,-1,755,1002,0,0
-462,22,0,0,0,0,0,0,0,0,0,-1,762,1002,0,0
-455,22,0,0,0,0,0,0,0,0,0,-1,769,1002,0,0
-448,22,0,0,0,0,0,0,0,0,0,-1,776,1002,0,0
-441,22,0,0,0,0,0,0,0,0,0,-1,783,1002,0,0
-434,22,0,0,0,0,0,0,0,0,0,-1,790,1002,0,0
-427,22,0,0,0,0,0,0,0,0,0,-1,797,1002,0,0
-420,22,0,0,0,0,0,0,0,0,0,-1,804,1002,0,0
-413,22,0,0,0,0,0,0,0,0,0,-1,811,1002,0,0
-406,22,0,0,0,0,0,0,0,0,0,-1,818,1002,0,0
-399,22,0,0,0,0,0,0,0,0,0,-1,825,1002,0,0
-392,22,0,0,0,0,0,0,0,0,0,-1,832,1002,0,0
-385,22,0,0,0,0,0,0,0,0,0,-1,839,1002,0,0
-378,22,0,0,0,0,0,0,0,0,0,-1,846,1002,0,0
-371,22,0,0,0,0,0,0,0,0,0,-1,853,1002,0,0
-364,22,0,0,0,0,0,0,0,0,0,-1,860,1002,0,0
-357,22,0,0,0,0,0,0,0,0,0,-1,867,1002,0,0
-350,22,0,0,0,0,0,0,0,0,0,-1,874,1002,0,0
-343,22,0,0,0,0,0,0,0,0,0,-1,881,1002,0,0
-336,22,0,0,0,0,0,0,0,0,0,-1,888,1002,0,0
-329,22,0,0,0,0,0,0,0,0,0,-1,895,1002,0,0
-322,22,0,0,0,0,0,0,0,0,0,-1,902,1002,0,0
-315,22,0,0,0,0,0,0,0,0,0,-1,909,1002,0,0
-308,22,0,0,0,0,0,0,0,0,0,-1,916,1002,0,0
-301,22,0,0,0,0,0,0,0,0,0,-1,923,1002,0,0
-294,22,0,0,0,0,0,0,0,0,0,-1,930,1002,0,0
-287,22,0,0,0,0,0,0,0,0,0,-1,937,1002,0,0
-280,22,0,0,0,0,0,0,0,0,0,-1,944,1002,0,0
-273,22,0,0,0,0,0,0,0,0,0,-1,951,1002,0,0
-266,22,0,0,0,0,0,0,0,0,0,-1,958,1002,0,0
-259,22,0,0,0,0,0,0,0,0,0,-1,965,1002,0,0
-252,22,0,0,0,0,0,0,0,0,0,-1,972,1002,0,0
-245,22,0,0,0,0,0,0,0,0,0,-1,979,1002,0,0
-238,22,0,0,0,0,0,0,0,0,0,-1,986,1002,0,0
-231,22,0,0,0,0,0,0,0,0,0,-1,993,1002,0,0
-224,22,0,0,0,0,0,0,0,0,0,-1,1000,1002,0,0
-217,22,0,0,0,0,0,0,0,0,0,-1,1007,1002,0,0
-210,22,0,0,0,0,0,0,0,0,0,-1,1014,1002,0,0
-203,22,0,0,0,0,0,0,0,0,0,-1,1021,1002,0,0
-196,22,0,0,0,0,0,0,0,0,0,-1,1028,1002,0,0
-189,22,0,0,0,0,0,0,0,0,0,-1,1035,1002,0,0
-182,22,0,0,0,0,0,0,0,0,0,-1,1042,1002,0,0
-175,22,0,0,0,0,0,0,0,0,0,-1,1049,1002,0,0
-168,22,0,0,0,0,0,0,0,0,0,-1,1056,1002,0,0
-161,22,0,0,0,0,0,0,0,0,0,-1,1063,1002,0,0
-154,22,0,0,0,0,0,0,0,0,0,-1,1070,1002,0,0
-147,22,0,0,0,0,0,0,0,0,0,-1,1077,1002,0,0
-140,22,0,0,0,0,0,0,0,0,0,-1,1084,1002,0,0
-133,22,0,0,0,0,0,0,0,0,0,-1,1091,1002,0,0
-126,22,0,0,0,0,0,0,0,0,0,-1,1098,1002,0,0
-119,22,0,0,0,0,0,0,0,0,0,-1,1105,1002,0,0
-112,22,0,0,0,0,0,0,0,0,0,-1,1112,1002,0,0
-105,22,0,0,0,0,0,0,0,0,0,-1,1119,1002,0,0
-98,22,0,0,0,0,0,0,0,0,0,-1,1126,1002,0,0
-91,22,0,0,0,0,0,0,0,0,0,-1,1133,1002,0,0
-84,22,0,0,0,0,0,0,0,0,0,-1,1140,1002,0,0
-77,22,0,0,0,0,0,0,0,0,0,-1,1147,1002,0,0
-70,22,0,0,0,0,0,0,0,0,0,-1,1154,1002,0,0
-63,22,0,0,0,0,0,0,0,0,0,-1,1161,1002,0,0
-56,22,0,0,0,0,0,0,0,0,0,-1,1168,1002,0,0
-49,22,0,0,0,0,0,0,0,0,0,-1,1175,1002,0,0
-42,22,0,0,0,0,0,0,0,0,0,-1,1182,1002,0,0
-35,22,0,0,0,0,0,0,0,0,0,-1,1189,1002,0,0
-28,22,0,0,0,0,0,0,0,0,0,-1,1196,1002,0,0
-21,22,0,0,0,0,0,0,0,0,0,-1,1203,1002,0,0
-14,22,0,0,0,0,0,0,0,0,0,-1,1210,1002,0,0
-7,22,0,0,0,0,0,0,0,0,0,-1,1217,1002,0,0
0,22,0,0,0,0,0,0,0,0,0,-1,1224,1002,0,0
7,22,0,0,0,0,0,0,0,0,0,-1,1231,1002,0,0
14,22,0,0,0,0,0,0,0,0,0,-1,1238,1002,0,0
21,22,0,0,0,0,0,0,0,0,0,-1,1245,1002,0,0
28,22,0,0,0,0,0,0,0,0,0,-1,1252,1002,0,0
35,22,0,0,0,0,0,0,0,0,0,-1,1259,1002,0,0
42,22,0,0,0,0,0,0,0,0,0,-1,1266,1002,0,0
49,22,0,0,0,0,0,0,0,0,0,-1,1273,1002,0,0
56,22,0,0,0,0,0,0,0,0,0,-1,1280,1002,0,0
63,22,0,0,0,0,0,0,0,0,0,-1,1287,1002,0,0
70,22,0,0,0,0,0,0,0,0,0,-1,1294,1002,0,0
77,22,0,0,0,0,0,0,0,0,0,-1,1301,1002,0,0
84,22,0,0,0,0,0,0,0,0,0,-1,1308,1002,0,0
91,22,0,0,0,0,0,0,0,0,0,-1,1315,1002,0,0
98,22,0,0,0,0,0,0,0,0,0,-1,1322,1002,0,0
105,22,0,0,0,0,0,0,0,0,0,-1,1329,1002,0,0
112,22,0,0,0,0,0,0,0,0,0,-1,1336,1002,0,0
119,22,0,0,0,0,0,0,0,0,0,-1,1343,1002,0,0
126,22,0,0,0,0,0,0,0,0,0,-1,1350,1002,0,0
133,22,0,0,0,0,0,0,0,0,0,-1,1357,1002,0,0
140,22,0,0,0,0,0,0,0,0,0,-1,1364,1002,0,0
147,22,0,0,0,0,0,0,0,0,0,-1,1371,1002,0,0
154,22,0,0,0,0,0,0,0,0,0,-1,1378,1002,0,0
161,22,0,0,0,0,0,0,0,0,0,-1,1385,1002,0,0
168,22,0,0,0,0,0,0,0,0,0,-1,1392,1002,0,0
175,22,0,0,0,0,0,0,0,0,0,-1,1399,1002,0,0
182,22,0,0,0,0,0,0,0,0,0,-1,1406,1002,0,0
189,22,0,0,0,0,0,0,0,0,0,-1,1413,1002,0,0
196,22,0,0,0,0,0,0,0,0,0,-1,1420,1002,0,0
203,22,0,0,0,0,0,0,0,0,0,-1,1427,1002,0,0
210,22,0,0,0,0,0,0,0,0,0,-1,1434,1002,0,0
217,22,0,0,0,0,0,0,0,0,0,-1,1441,1002,0,0
224,22,0,0,0,0,0,0,0,0,0,-1,1448,1002,0,0
231,22,0,0,0,0,0,0,0,0,0,-1,1455,1002,0,0
238,22,0,0,0,0,0,0,0,0,0,-1,1462,1002,0,0
245,22,0,0,0,0,0,0,0,0,0,-1,1469,1002,0,0
252,22,0,0,0,0,0,0,0,0,0,-1,1476,1002,0,0
259,22,0,0,0,0,0,0,0,0,0,-1,1483,1002,0,0
266,22,0,0,0,0,0,0,0,0,0,-1,1490,1002,0,0
273,22,0,0,0,0,0,0,0,0,0,-1,1497,1002,0,0
280,22,0,0,0,0,0,0,0,0,0,-1,1504,1002,0,0
287,22,0,0,0,0,0,0,0,0,0,-1,1511,1002,0,0
294,22,0,0,0,0,0,0,0,0,0,-1,1518,1002,0,0
301,22,0,0,0,0,0,0,0,0,0,-1,1525,1002,0,0
308,22,0,0,0,0,0,0,0,0,0,-1,1532,1002,0,0
315,22,0,0,0,0,0,0,0,0,0,-1,1539,1002,0,0
322,22,0,0,0,0,0,0,0,0,0,-1,1546,1002,0,0
329,22,0,0,0,0,0,0,0,0,0,-1,1553,1002,0,0
336,22,0,0,0,0,0,0,0,0,0,-1,1560,1002,0,0
343,22,0,0,0,0,0,0,0,0,0,-1,1567,1002,0,0
350,22,0,0,0,0,0,0,0,0,0,-1,1574,1002,0,0
357,22,0,0,0,0,0,0,0,0,0,-1,1581,1002,0,0
364,22,0,0,0,0,0,0,0,0,0,-1,1588,1002,0,0
371,22,0,0,0,0,0,0,0,0,0,-1,1595,1002,0,0
378,22,0,0,0,0,0,0,0,0,0,-1,1602,1002,0,0
385,22,0,0,0,0,0,0,0,0,0,-1,1609,1002,0,0
392,22,0,0,0,0,0,0,0,0,0,-1,1616,1002,0,0
399,22,0,0,0,0,0,0,0,0,0,-1,1623,1002,0,0
406,22,0,0,0,0,0,0,0,0,0,-1,1630,1002,0,0
413,22,0,0,0,0,0,0,0,0,0,-1,1637,1002,0,0
420,22,0,0,0,0,0,0,0,0,0,-1,1644,1002,0,0
427,22,0,0,0,0,0,0,0,0,0,-1,1651,1002,0,0
434,22,0,0,0,0,0,0,0,0,0,-1,1658,1002,0,0
441,22,0,0,0,0,0,0,0,0,0,-1,1665,1002,0,0
448,22,0,0,0,0,0,0,0,0,0,-1,1672,1002,0,0
455,22,0,0,0,0,0,0,0,0,0,-1,1679,1002,0,0
462,22,0,0,0,0,0,0,0,0,0,-1,1686,1002,0,0
469,22,0,0,0,0,0,0,0,0,0,-1,1693,1002,0,0
476,22,0,0,0,0,0,0,0,0,0,-1,1700,1002,0,0
483,22,0,0,0,0,0,0,0,0,0,-1,1707,1002,0,0
490,22,0,0,0,0,0,0,0,0,0,-1,1714,1002,0,0
497,22,0,0,0,0,0,0,0,0,0,-1,1721,1002,0,0
504,22,0,0,0,0,0,0,0,0,0,-1,1728,1002,0,0
511,22,0,0,0,0,0,0,0,0,0,-1,1735,1002,0,0
518,22,0,0,0,0,0,0,0,0,0,-1,1742,1002,0,0
525,22,0,0,0,0,0,0,0,0,0,-1,1749,1002,0,0
532,22,0,0,0,0,0,0,0,0,0,-1,1756,1002,0,0
539,22,0,0,0,0,0,0,0,0,0,-1,1763,1002,0,0
546,22,0,0,0,0,0,0,0,0,0,-1,1770,1002,0,0
553,22,0,0,0,0,0,0,0,0,0,-1,1777,1002,0,0
560,22,0,0,0,0,0,0,0,0,0,-1,1784,1002,0,0
567,22,0,0,0,0,0,0,0,0,0,-1,1791,1002,0,0
574,22,0,0,0,0,0,0,0,0,0,-1,1798,1002,0,0
581,22,0,0,0,0,0,0,0,0,0,-1,1805,1002,0,0
588,22,0,0,0,0,0,0,0,0,0,-1,1812,1002,0,0
595,22,0,0,0,0,0,0,0,0,0,-1,1819,1002,0,0
602,22,0,0,0,0,0,0,0,0,0,-1,1826,1002,0,0
609,22,0,0,0,0,0,0,0,0,0,-1,1833,1002,0,0
616,22,0,0,0,0,0,0,0,0,0,-1,1840,1002,0,0
623,22,0,0,0,0,0,0,0,0,0,-1,1847,1002,0,0
630,22,0,0,0,0,0,0,0,0,0,-1,1854,1002,0,0
637,22,0,0,0,0,0,0,0,0,0,-1,1861,1002,0,0
644,22,78.7255,2.21722,-0.00251858,-0.00472465,-0.00347853,2.76098e-05,-0.00727084,-0.631864,0.00485646,0.0400072,1868,1002,78.7255,-2.21722
651,22,78.7983,2.20026,-0.00218762,-0.00339961,-0.00253111,-0.00019097,-0.00539626,-0.6679,0.00353557,0.0434401,1875,1002,78.7984,-2.20026
658,22,78.8412,2.17737,-0.00177536,-0.00253999,-0.00168414,-0.000430691,-0.00388466,-0.673785,0.00245882,0.0434714,1882,1002,78.8412,-2.17735
665,22,78.9822,2.24548,-0.00128272,-0.00190243,-0.00113049,-0.000420393,-0.00276476,-0.651638,0.00172025,0.041612,1889,1002,78.9822,-2.24548
672,22,78.9449,2.37958,-0.000807802,-0.00136835,-0.000682936,-0.000349865,-0.00182629,-0.590681,0.00111928,0.039746,1896,1002,78.945,-2.37958
679,22,78.8054,2.52649,-0.000306405,-0.00106877,-0.000282513,-0.000213126,-0.00116205,-0.318906,0.000714336,0.0379208,1903,1002,78.8054,-2.52647
686,22,78.8486,2.55078,6.34633e-05,-0.00111845,-3.30717e-05,6.4388e-05,-0.00111937,-0.0279524,0.00076861,0.035839,1910,1002,78.8486,-2.55078
693,22,78.9351,2.50403,0.000257672,-0.00118426,5.63542e-05,0.000259871,-0.00118646,0.0390031,0.000890331,0.0380104,1917,1002,78.9351,-2.50401
700,22,78.8947,2.48822,0.000232075,-0.00109293,-1.02169e-06,0.000232076,-0.00109293,-0.000771082,0.000817041,0.0346655,1924,1002,78.8947,-2.48822
707,22,78.8088,2.45886,-0.000460539,-0.000378799,-0.000198022,-0.000217474,-0.000621864,-0.887166,0.000364399,0.0311754,1931,1002,78.8089,-2.45883
714,22,78.7579,2.43402,0,0,0,0,0,0,0,-1,1938,1002,78.7579,-2.43402
721,22,76.814,2.41211,0,0,0,0,0,0,0,-1,1945,1002,76.814,-2.41212
728,22,78.9359,7.18701,0,0,0,0,0,0,0,-1,1952,1002,78.9359,-7.18699
735,22,78.928,7.36548,-0.00613917,0.00700456,-0.00196877,0.00729312,-0.00642773,-1.42526,0.00792699,0.0196985,1959,1002,78.928,-7.36548
742,22,78.9573,7.53827,-0.00782951,0.00927312,-0.00260724,0.00966176,-0.00821815,-1.42283,0.0103342,0.0195151,1966,1002,78.9573,-7.53827
749,22,78.8877,7.75128,-0.00982936,0.0122213,-0.00336176,0.0127224,-0.0103305,-1.42282,0.0133334,0.0145465,1973,1002,78.8878,-7.75131
756,22,78.884,7.90967,-0.0118912,0.015986,-0.00432937,0.0166429,-0.0125481,-1.42022,0.0169086,0.018964,1980,1002,78.8841,-7.90968
763,22,78.7939,8.06293,-0.0138238,0.0212281,-0.00580707,0.0221652,-0.0147608,-1.41082,0.0214616,0.0193906,1987,1002,78.794,-8.06295
770,22,78.5442,8.18182,-0.0150376,0.028057,-0.00806079,0.0295154,-0.016496,-1.39181,0.0269169,0.0213436,1994,1002,78.5443,-8.18183
777,22,78.1445,8.16638,-0.0152849,0.0353319,-0.010764,0.0375259,-0.0174789,-1.36973,0.0324524,0.0448941,2001,1002,78.1446,-8.1664
784,22,77.7974,8.1593,0,0,0,0,0,0,0,-1,2008,1002,77.7973,-8.1593
791,22,77.8013,7.87866,0,0,0,0,0,0,0,-1,2015,1002,77.8012,-7.87863
798,22,77.5999,7.59204,0,0,0,0,0,0,0,-1,2022,1002,77.5998,-7.59202
805,22,80.0361,3.28198,0,0,0,0,0,0,0,-1,2029,1002,80.0361,-3.282
812,22,80.2668,2.9942,0,0,0,0,0,0,0,-1,2036,1002,80.2668,-2.99423
-700,15,0,0,0,0,0,0,0,0,0,-1,524,1009,0,0
-693,15,-68.0511,-3.40527,0.0818924,-0.0307459,0.0351251,0.0919481,-0.0408016,0.278825,0.0785163,0.0462769,531,1009,-68.0511,3.40527
-686,15,-67.6334,-2.53882,0.0720223,-0.0155369,0.0329782,0.0830534,-0.026568,0.322798,0.0660313,0.0463832,538,1009,-67.6334,2.53881
-679,15,-66.8748,-1.00848,0,0,0,0,0,0,0,-1,545,1009,-66.8748,1.00851
-672,15,-61.1201,3.03052,0,0,0,0,0,0,0,-1,552,1009,-61.1202,-3.03051
-665,15,-60.031,3.28375,0,0,0,0,0,0,0,-1,559,1009,-60.031,-3.28373
-658,15,-64.2608,5.32886,0,0,0,0,0,0,0,-1,566,1009,-64.2608,-5.32885
-651,15,-51.4943,3.62128,0,0,0,0,0,0,0,-1,573,1009,-51.4943,-3.62128
-644,15,-63.4651,7.00641,0,0,0,0,0,0,0,-1,580,1009,-63.4651,-7.0064
-637,15,-63.6217,7.2124,0.00506013,0.0224008,0.0090271,0.026247,0.00121395,1.16802,0.0171077,0.0376056,587,1009,-63.6217,-7.21238
-630,15,-63.612,7.09509,-0.0030685,0.0230255,0.00525399,0.0240436,-0.00408666,1.37938,0.0175506,0.0208884,594,1009,-63.612,-7.09506
-623,15,-63.6671,6.99933,-0.00545591,0.0164077,0.00298908,0.016809,-0.00585719,1.43734,0.013586,0.0111,601,1009,-63.6671,-6.99932
-616,15,-63.6868,6.89398,-0.00619539,0.00997465,0.00200583,0.0102198,-0.00644049,1.44921,0.00970094,0.018619,608,1009,-63.6868,-6.89401
-609,15,-63.8231,6.8288,-0.00598905,0.00561661,0.00131735,0.00576427,-0.00613671,1.45918,0.00687215,0.0273518,615,1009,-63.8231,-6.82881
-602,15,-63.9506,6.75348,-0.00536581,0.00252504,0.00100494,0.00265101,-0.00549178,1.44609,0.00479566,0.0272962,622,1009,-63.9506,-6.7535
-595,15,-64.4386,6.31323,0,0,0,0,0,0,0,-1,629,1009,-64.4386,-6.31323
-588,15,-62.4941,0.537598,0,0,0,0,0,0,0,-1,636,1009,-62.4941,-0.537579
-581,15,-62.5556,0.585022,-0.00253381,-0.00215825,0.000859881,-0.00146588,-0.00322618,0.892902,0.00186522,0.0421568,643,1009,-62.5556,-0.584997
-574,15,-62.5819,0.631897,-0.00161254,-0.00282956,0.000731927,-0.00126921,-0.00317289,0.438605,0.00184404,0.0346094,650,1009,-62.5819,-0.63187
-567,15,-62.6447,0.686646,-0.000613789,-0.00277042,0.000824086,-0.000334944,-0.00304926,0.326275,0.0019309,0.0347611,657,1009,-62.6447,-0.686644
-560,15,-62.7421,0.778992,0.000560301,-0.00205737,0.000928481,0.000856186,-0.00235325,0.308502,0.00191899,0.0397133,664,1009,-62.742,-0.779016
-553,15,-62.6528,0.975586,0.00175057,-0.000826112,0.000984321,0.00208356,-0.0011591,0.326208,0.00189734,0.0424008,671,1009,-62.6528,-0.975565
-546,15,-62.4838,0.741943,0.00286409,0.000474312,0.000898746,0.00316436,0.000174041,0.322441,0.00205402,0.0439339,678,1009,-62.4838,-0.741947
-539,15,-62.5178,0.836731,0.00311562,0.00149952,0.000584949,0.00330512,0.00131002,0.313295,0.00192183,0.045227,685,1009,-62.5178,-0.836737
-532,15,-62.6644,0.749512,0.00317232,0.00252593,0.000135726,0.00319966,0.00249859,0.198793,0.00194206,0.0443796,692,1009,-62.6644,-0.74953
-525,15,0,0,0,0,0,0,0,0,0,-1,699,1009,0,0
-518,15,0,0,0,0,0,0,0,0,0,-1,706,1009,0,0
-511,15,0,0,0,0,0,0,0,0,0,-1,713,1009,0,0
-504,15,0,0,0,0,0,0,0,0,0,-1,720,1009,0,0
-497,15,0,0,0,0,0,0,0,0,0,-1,727,1009,0,0
-490,15,0,0,0,0,0,0,0,0,0,-1,734,1009,0,0
-483,15,0,0,0,0,0,0,0,0,0,-1,741,1009,0,0
-476,15,0,0,0,0,0,0,0,0,0,-1,748,1009,0,0
-469,15,0,0,0,0,0,0,0,0,0,-1,755,1009,0,0
-462,15,0,0,0,0,0,0,0,0,0,-1,762,1009,0,0
-455,15,0,0,0,0,0,0,0,0,0,-1,769,1009,0,0
-448,15,0,0,0,0,0,0,0,0,0,-1,776,1009,0,0
-441,15,0,0,0,0,0,0,0,0,0,-1,783,1009,0,0
-434,15,0,0,0,0,0,0,0,0,0,-1,790,1009,0,0
-427,15,0,0,0,0,0,0,0,0,0,-1,797,1009,0,0
-420,15,0,0,0,0,0,0,0,0,0,-1,804,1009,0,0
-413,15,0,0,0,0,0,0,0,0,0,-1,811,1009,0,0
-406,15,0,0,0,0,0,0,0,0,0,-1,818,1009,0,0
-399,15,0,0,0,0,0,0,0,0,0,-1,825,1009,0,0
-392,15,0,0,0,0,0,0,0,0,0,-1,832,1009,0,0
-385,15,0,0,0,0,0,0,0,0,0,-1,839,1009,0,0
-378,15,0,0,0,0,0,0,0,0,0,-1,846,1009,0,0
-371,15,0,0,0,0,0,0,0,0,0,-1,853,1009,0,0
-364,15,0,0,0,0,0,0,0,0,0,-1,860,1009,0,0
-357,15,0,0,0,0,0,0,0,0,0,-1,867,1009,0,0
-350,15,0,0,0,0,0,0,0,0,0,-1,874,1009,0,0
-343,15,0,0,0,0,0,0,0,0,0,-1,881,1009,0,0
-336,15,0,0,0,0,0,0,0,0,0,-1,888,1009,0,0
-329,15,0,0,0,0,0,0,0,0,0,-1,895,1009,0,0
-322,15,0,0,0,0,0,0,0,0,0,-1,902,1009,0,0
-315,15,0,0,0,0,0,0,0,0,0,-1,909,1009,0,0
-308,15,0,0,0,0,0,0,0,0,0,-1,916,1009,0,0
-301,15,0,0,0,0,0,0,0,0,0,-1,923,1009,0,0
-294,15,0,0,0,0,0,0,0,0,0,-1,930,1009,0,0
-287,15,0,0,0,0,0,0,0,0,0,-1,937,1009,0,0
-280,15,0,0,0,0,0,0,0,0,0,-1,944,1009,0,0
-273,15,0,0,0,0,0,0,0,0,0,-1,951,1009,0,0
-266,15,0,0,0,0,0,0,0,0,0,-1,958,1009,0,0
-259,15,0,0,0,0,0,0,0,0,0,-1,965,1009,0,0
-252,15,0,0,0,0,0,0,0,0,0,-1,972,1009,0,0
-245,15,0,0,0,0,0,0,0,0,0,-1,979,1009,0,0
-238,15,0,0,0,0,0,0,0,0,0,-1,986,1009,0,0
-231,15,0,0,0,0,0,0,0,0,0,-1,993,1009,0,0
-224,15,0,0,0,0,0,0,0,0,0,-1,1000,1009,0,0
-217,15,0,0,0,0,0,0,0,0,0,-1,1007,1009,0,0
-210,15,0,0,0,0,0,0,0,0,0,-1,1014,1009,0,0
-203,15,0,0,0,0,0,0,0,0,0,-1,1021,1009,0,0
-196,15,0,0,0,0,0,0,0,0,0,-1,1028,1009,0,0
-189,15,0,0,0,0,0,0,0,0,0,-1,1035,1009,0,0
-182,15,0,0,0,0,0,0,0,0,0,-1,1042,1009,0,0
-175,15,0,0,0,0,0,0,0,0,0,-1,1049,1009,0,0
-168,15,0,0,0,0,0,0,0,0,0,-1,1056,1009,0,0
-161,15,0,0,0,0,0,0,0,0,0,-1,1063,1009,0,0
-154,15,0,0,0,0,0,0,0,0,0,-1,1070,1009,0,0
-147,15,0,0,0,0,0,0,0,0,0,-1,1077,1009,0,0
-140,15,0,0,0,0,0,0,0,0,0,-1,1084,1009,0,0
-133,15,0,0,0,0,0,0,0,0,0,-1,1091,1009,0,0
-126,15,0,0,0,0,0,0,0,0,0,-1,1098,1009,0,0
-119,15,0,0,0,0,0,0,0,0,0,-1,1105,1009,0,0
-112,15,0,0,0,0,0,0,0,0,0,-1,1112,1009,0,0
-105,15,0,0,0,0,0,0,0,0,0,-1,1119,1009,0,0
-98,15,0,0,0,0,0,0,0,0,0,-1,1126,1009,0,0
-91,15,0,0,0,0,0,0,0,0,0,-1,1133,1009,0,0
-84,15,0,0,0,0,0,0,0,0,0,-1,1140,1009,0,0
-77,15,0,0,0,0,0,0,0,0,0,-1,1147,1009,0,0
-70,15,0,0,0,0,0,0,0,0,0,-1,1154,1009,0,0
-63,15,0,0,0,0,0,0,0,0,0,-1,1161,1009,0,0
-56,15,0,0,0,0,0,0,0,0,0,-1,1168,1009,0,0
-49,15,0,0,0,0,0,0,0,0,0,-1,1175,1009,0,0
-42,15,0,0,0,0,0,0,0,0,0,-1,1182,1009,0,0
-35,15,0,0,0,0,0,0,0,0,0,-1,1189,1009,0,0
-28,15,0,0,0,0,0,0,0,0,0,-1,1196,1009,0,0
-21,15,0,0,0,0,0,0,0,0,0,-1,1203,1009,0,0
-14,15,0,0,0,0,0,0,0,0,0,-1,1210,1009,0,0
-7,15,0,0,0,0,0,0,0,0,0,-1,1217,1009,0,0
0,15,0,0,0,0,0,0,0,0,0,-1,1224,1009,0,0
7,15,0,0,0,0,0,0,0,0,0,-1,1231,1009,0,0
14,15,0,0,0,0,0,0,0,0,0,-1,1238,1009,0,0
21,15,0,0,0,0,0,0,0,0,0,-1,1245,1009,0,0
28,15,0,0,0,0,0,0,0,0,0,-1,1252,1009,0,0
35,15,0,0,0,0,0,0,0,0,0,-1,1259,1009,0,0
42,15,0,0,0,0,0,0,0,0,0,-1,1266,1009,0,0
49,15,0,0,0,0,0,0,0,0,0,-1,1273,1009,0,0
56,15,0,0,0,0,0,0,0,0,0,-1,1280,1009,0,0
63,15,0,0,0,0,0,0,0,0,0,-1,1287,1009,0,0
70,15,0,0,0,0,0,0,0,0,0,-1,1294,1009,0,0
77,15,0,0,0,0,0,0,0,0,0,-1,1301,1009,0,0
84,15,0,0,0,0,0,0,0,0,0,-1,1308,1009,0,0
91,15,0,0,0,0,0,0,0,0,0,-1,1315,1009,0,0
98,15,0,0,0,0,0,0,0,0,0,-1,1322,1009,0,0
105,15,0,0,0,0,0,0,0,0,0,-1,1329,1009,0,0
112,15,0,0,0,0,0,0,0,0,0,-1,1336,1009,0,0
119,15,0,0,0,0,0,0,0,0,0,-1,1343,1009,0,0
126,15,0,0,0,0,0,0,0,0,0,-1,1350,1009,0,0
133,15,0,0,0,0,0,0,0,0,0,-1,1357,1009,0,0
140,15,0,0,0,0,0,0,0,0,0,-1,1364,1009,0,0
147,15,0,0,0,0,0,0,0,0,0,-1,1371,1009,0,0
154,15,0,0,0,0,0,0,0,0,0,-1,1378,1009,0,0
161,15,0,0,0,0,0,0,0,0,0,-1,1385,1009,0,0
168,15,0,0,0,0,0,0,0,0,0,-1,1392,1009,0,0
175,15,0,0,0,0,0,0,0,0,0,-1,1399,1009,0,0
182,15,0,0,0,0,0,0,0,0,0,-1,1406,1009,0,0
189,15,0,0,0,0,0,0,0,0,0,-1,1413,1009,0,0
196,15,0,0,0,0,0,0,0,0,0,-1,1420,1009,0,0
203,15,0,0,0,0,0,0,0,0,0,-1,1427,1009,0,0
210,15,0,0,0,0,0,0,0,0,0,-1,1434,1009,0,0
217,15,0,0,0,0,0,0,0,0,0,-1,1441,1009,0,0
224,15,0,0,0,0,0,0,0,0,0,-1,1448,1009,0,0
231,15,0,0,0,0,0,0,0,0,0,-1,1455,1009,0,0
238,15,0,0,0,0,0,0,0,0,0,-1,1462,1009,0,0
245,15,0,0,0,0,0,0,0,0,0,-1,1469,1009,0,0
252,15,0,0,0,0,0,0,0,0,0,-1,1476,1009,0,0
259,15,0,0,0,0,0,0,0,0,0,-1,1483,1009,0,0
266,15,0,0,0,0,0,0,0,0,0,-1,1490,1009,0,0
273,15,0,0,0,0,0,0,0,0,0,-1,1497,1009,0,0
280,15,0,0,0,0,0,0,0,0,0,-1,1504,1009,0,0
287,15,0,0,0,0,0,0,0,0,0,-1,1511,1009,0,0
294,15,0,0,0,0,0,0,0,0,0,-1,1518,1009,0,0
301,15,0,0,0,0,0,0,0,0,0,-1,1525,1009,0,0
308,15,0,0,0,0,0,0,0,0,0,-1,1532,1009,0,0
315,15,0,0,0,0,0,0,0,0,0,-1,1539,1009,0,0
322,15,0,0,0,0,0,0,0,0,0,-1,1546,1009,0,0
329,15,0,0,0,0,0,0,0,0,0,-1,1553,1009,0,0
336,15,0,0,0,0,0,0,0,0,0,-1,1560,1009,0,0
343,15,0,0,0,0,0,0,0,0,0,-1,1567,1009,0,0
350,15,0,0,0,0,0,0,0,0,0,-1,1574,1009,0,0
357,15,0,0,0,0,0,0,0,0,0,-1,1581,1009,0,0
364,15,0,0,0,0,0,0,0,0,0,-1,1588,1009,0,0
371,15,0,0,0,0,0,0,0,0,0,-1,1595,1009,0,0
378,15,0,0,0,0,0,0,0,0,0,-1,1602,1009,0,0
385,15,0,0,0,0,0,0,0,0,0,-1,1609,1009,0,0
392,15,0,0,0,0,0,0,0,0,0,-1,1616,1009,0,0
399,15,0,0,0,0,0,0,0,0,0,-1,1623,1009,0,0
406,15,0,0,0,0,0,0,0,0,0,-1,1630,1009,0,0
413,15,0,0,0,0,0,0,0,0,0,-1,1637,1009,0,0
420,15,0,0,0,0,0,0,0,0,0,-1,1644,1009,0,0
427,15,0,0,0,0,0,0,0,0,0,-1,1651,1009,0,0
434,15,0,0,0,0,0,0,0,0,0,-1,1658,1009,0,0
441,15,0,0,0,0,0,0,0,0,0,-1,1665,1009,0,0
448,15,0,0,0,0,0,0,0,0,0,-1,1672,1009,0,0
455,15,0,0,0,0,0,0,0,0,0,-1,1679,1009,0,0
462,15,0,0,0,0,0,0,0,0,0,-1,1686,1009,0,0
469,15,0,0,0,0,0,0,0,0,0,-1,1693,1009,0,0
476,15,0,0,0,0,0,0,0,0,0,-1,1700,1009,0,0
483,15,0,0,0,0,0,0,0,0,0,-1,1707,1009,0,0
490,15,0,0,0,0,0,0,0,0,0,-1,1714,1009,0,0
497,15,0,0,0,0,0,0,0,0,0,-1,1721,1009,0,0
504,15,0,0,0,0,0,0,0,0,0,-1,1728,1009,0,0
511,15,0,0,0,0,0,0,0,0,0,-1,1735,1009,0,0
518,15,0,0,0,0,0,0,0,0,0,-1,1742,1009,0,0
525,15,0,0,0,0,0,0,0,0,0,-1,1749,1009,0,0
532,15,0,0,0,0,0,0,0,0,0,-1,1756,1009,0,0
539,15,0,0,0,0,0,0,0,0,0,-1,1763,1009,0,0
546,15,0,0,0,0,0,0,0,0,0,-1,1770,1009,0,0
553,15,0,0,0,0,0,0,0,0,0,-1,1777,1009,0,0
560,15,0,0,0,0,0,0,0,0,0,-1,1784,1009,0,0
567,15,0,0,0,0,0,0,0,0,0,-1,1791,1009,0,0
574,15,0,0,0,0,0,0,0,0,0,-1,1798,1009,0,0
581,15,0,0,0,0,0,0,0,0,0,-1,1805,1009,0,0
588,15,0,0,0,0,0,0,0,0,0,-1,1812,1009,0,0
595,15,0,0,0,0,0,0,0,0,0,-1,1819,1009,0,0
602,15,0,0,0,0,0,0,0,0,0,-1,1826,1009,0,0
609,15,0,0,0,0,0,0,0,0,0,-1,1833,1009,0,0
616,15,0,0,0,0,0,0,0,0,0,-1,1840,1009,0,0
623,15,0,0,0,0,0,0,0,0,0,-1,1847,1009,0,0
630,15,0,0,0,0,0,0,0,0,0,-1,1854,1009,0,0
637,15,0,0,0,0,0,0,0,0,0,-1,1861,1009,0,0
644,15,79.0309,2.27948,-0.0038445,-0.00506692,-0.00415959,-0.000251459,-0.00865996,-0.71245,0.00569134,0.040056,1868,1009,79.0309,-2.27951
651,15,78.9205,2.27997,-0.00311746,-0.00374702,-0.00295196,-0.000463545,-0.00640094,-0.732282,0.00412148,0.0386623,1875,1009,78.9205,-2.27999
658,15,78.7483,2.19739,-0.00243921,-0.00284175,-0.00196138,-0.000668805,-0.00461216,-0.734269,0.00287786,0.0409474,1882,1009,78.7483,-2.19737
665,15,78.9951,2.33185,-0.0017656,-0.00217258,-0.00130575,-0.000647578,-0.0032906,-0.7081,0.0020129,0.040086,1889,1009,78.9951,-2.33184
672,15,79.0775,2.4278,-0.00113405,-0.00159309,-0.000784473,-0.000546211,-0.00218093,-0.643083,0.00131039,0.0379604,1896,1009,79.0776,-2.42777
679,15,78.978,2.45569,-0.000491265,-0.00119525,-0.000355343,-0.00034309,-0.00134343,-0.395067,0.000805974,0.0388084,1903,1009,78.978,-2.45566
686,15,78.9725,2.33582,-6.87691e-05,-0.00113415,-9.31025e-05,-6.06942e-05,-0.00114222,-0.0865151,0.000742079,0.0412103,1910,1009,78.9726,-2.33582
693,15,78.913,2.40045,0.000181577,-0.00110296,4.76154e-06,0.000181595,-0.00110297,0.00370676,0.000802724,0.0379598,1917,1009,78.913,-2.40043
700,15,78.8989,2.43774,0.000216648,-0.000976824,-2.60475e-05,0.000217216,-0.000977393,-0.0218111,0.000734782,0.0307818,1924,1009,78.8989,-2.43773
707,15,78.8503,2.47491,-0.000505549,-0.000240024,-0.000181195,-0.000148159,-0.000597414,-1.10157,0.000359223,0.0279163,1931,1009,78.8503,-2.4749
714,15,78.844,2.48456,-0.00176445,0.00109027,-0.00039493,0.00114389,-0.00181808,-1.43583,0.0017248,0.0349256,1938,1009,78.844,-2.48453
721,15,78.7793,2.45325,0,0,0,0,0,0,0,-1,1945,1009,78.7793,-2.45324
728,15,79.1278,7.32977,0,0,0,0,0,0,0,-1,1952,1009,79.1278,-7.32977
735,15,79.0413,7.49109,0,0,0,0,0,0,0,-1,1959,1009,79.0413,-7.49108
742,15,79.2374,7.54077,0,0,0,0,0,0,0,-1,1966,1009,79.2375,-7.54079
749,15,79.0903,7.81091,-0.00998693,0.0121465,-0.00289411,0.0125186,-0.0103591,-1.4429,0.0132281,0.0309571,1973,1009,79.0904,-7.8109
756,15,79.0569,7.74304,-0.0119191,0.0156294,-0.00371308,0.0161211,-0.0124108,-1.43914,0.0165193,0.021393,1980,1009,79.0568,-7.74306
763,15,78.95,7.88721,-0.0136825,0.0204281,-0.00505161,0.0211605,-0.0144149,-1.42682,0.0206622,0.0146855,1987,1009,78.9498,-7.8872
770,15,78.7444,7.90582,-0.0145719,0.0266615,-0.00717505,0.0278743,-0.0157848,-1.40334,0.0255267,0.0212358,1994,1009,78.7443,-7.90582
777,15,78.2798,7.90674,-0.0142751,0.0333627,-0.00987749,0.0353295,-0.016242,-1.37424,0.030447,0.0480987,2001,1009,78.2797,-7.90672
784,15,77.8784,7.94196,0,0,0,0,0,0,0,-1,2008,1009,77.8784,-7.94196
791,15,78.1777,7.2099,0,0,0,0,0,0,0,-1,2015,1009,78.1778,-7.20993
798,15,77.2703,7.10712,0,0,0,0,0,0,0,-1,2022,1009,77.2702,-7.10714
805,15,76.927,7.07764,0,0,0,0,0,0,0,-1,2029,1009,76.9269,-7.07764
812,15,75.9182,3.65948,0,0,0,0,0,0,0,-1,2036,1009,75.9181,-3.65946
-700,8,0,0,0,0,0,0,0,0,0,-1,524,1016,0,0
-693,8,-67.7078,-3.04834,0.0750941,-0.0251343,0.0322012,0.084548,-0.0345881,0.285562,0.0707705,0.0453719,531,1016,-67.7078,3.04831
-686,8,-67.1957,-1.95868,0.0678469,-0.0118181,0.0313096,0.0786792,-0.0226504,0.333082,0.0614114,0.0449454,538,1016,-67.1958,1.95865
-679,8,-66.7308,-0.899048,0.0580457,-0.00213381,0.0287547,0.069576,-0.0136641,0.381357,0.0515459,0.0461072,545,1016,-66.7308,0.899052
-672,8,-66.7144,-0.0280762,0,0,0,0,0,0,0,-1,552,1016,-66.7144,0.0280565
-665,8,-63.8641,5.05444,0,0,0,0,0,0,0,-1,559,1016,-63.8641,-5.05442
-658,8,-63.5308,5.51825,0,0,0,0,0,0,0,-1,566,1016,-63.5308,-5.51823
-651,8,-62.4905,6.31323,0,0,0,0,0,0,0,-1,573,1016,-62.4905,-6.31323
-644,8,-63.4213,6.64636,0,0,0,0,0,0,0,-1,580,1016,-63.4213,-6.64637
-637,8,-63.4293,6.82556,0.00629559,0.022389,0.00933472,0.0266665,0.00201807,1.14111,0.0171446,0.0469465,587,1016,-63.4292,-6.82558
-630,8,-63.6905,6.96198,-0.00148941,0.022502,0.00560182,0.0237455,-0.00273294,1.35235,0.0168155,0.0288601,594,1016,-63.6905,-6.96195
-623,8,-63.6578,6.96844,-0.00438203,0.0161471,0.00290324,0.0165498,-0.00478471,1.43298,0.0129267,0.018768,601,1016,-63.6579,-6.96846
-616,8,-63.7488,6.88831,-0.00547804,0.00985535,0.00164603,0.0100301,-0.00565275,1.46505,0.00917128,0.0209337,608,1016,-63.7488,-6.88833
-609,8,-63.8735,6.78546,-0.00551256,0.00548682,0.000795269,0.00554402,-0.00556976,1.49899,0.00641655,0.0236541,615,1016,-63.8735,-6.78544
-602,8,-63.7691,6.85211,-0.00508074,0.00227771,0.000465964,0.0023071,-0.00511013,1.50781,0.00438309,0.0296437,622,1016,-63.7691,-6.85208
-595,8,-63.7864,6.77429,0,0,0,0,0,0,0,-1,629,1016,-63.7865,-6.77428
-588,8,-62.4312,0.447815,0,0,0,0,0,0,0,-1,636,1016,-62.4312,-0.44783
-581,8,-62.5271,0.560608,-0.00248896,-0.00230885,0.000369322,-0.00201876,-0.00277905,0.904984,0.00165842,0.0327342,643,1016,-62.5271,-0.560605
-574,8,-62.575,0.661499,-0.00162309,-0.00295865,0.000295925,-0.00156046,-0.00302129,0.20857,0.00174466,0.0352239,650,1016,-62.575,-0.661494
-567,8,-62.6248,0.76001,-0.0006905,-0.00288165,0.000391451,-0.000622666,-0.00294948,0.171583,0.00179513,0.0374814,657,1016,-62.6248,-0.760004
-560,8,-62.6809,0.807129,0.000446034,-0.00214863,0.000479245,0.000531723,-0.00223432,0.17693,0.00169482,0.039804,664,1016,-62.6809,-0.80714
-553,8,-62.6246,0.540649,0.00163476,-0.000902515,0.000499344,0.00172949,-0.000997251,0.187492,0.00159309,0.041748,671,1016,-62.6246,-0.540658
-546,8,-62.5237,0.279541,0.00285981,0.000431236,0.000373706,0.00291602,0.000375032,0.149279,0.00183184,0.0426508,678,1016,-62.5237,-0.279511
-539,8,-62.496,0.637329,0.0034245,0.00154991,3.69806e-05,0.00342523,0.00154918,0.0197171,0.00198055,0.0409895,685,1016,-62.496,-0.637326
-532,8,-62.5389,0.796814,0.00379291,0.00278394,-0.000297712,0.00387421,0.00270265,-0.266565,0.00229426,0.0415759,692,1016,-62.5389,-0.796816
-525,8,0,0,0,0,0,0,0,0,0,-1,699,1016,0,0
-518,8,0,0,0,0,0,0,0,0,0,-1,706,1016,0,0
-511,8,0,0,0,0,0,0,0,0,0,-1,713,1016,0,0
-504,8,0,0,0,0,0,0,0,0,0,-1,720,1016,0,0
-497,8,0,0,0,0,0,0,0,0,0,-1,727,1016,0,0
-490,8,0,0,0,0,0,0,0,0,0,-1,734,1016,0,0
-483,8,0,0,0,0,0,0,0,0,0,-1,741,1016,0,0
-476,8,0,0,0,0,0,0,0,0,0,-1,748,1016,0,0
-469,8,0,0,0,0,0,0,0,0,0,-1,755,1016,0,0
-462,8,0,0,0,0,0,0,0,0,0,-1,762,1016,0,0
-455,8,0,0,0,0,0,0,0,0,0,-1,769,1016,0,0
-448,8,0,0,0,0,0,0,0,0,0,-1,776,1016,0,0
-441,8,0,0,0,0,0,0,0,0,0,-1,783,1016,0,0
-434,8,0,0,0,0,0,0,0,0,0,-1,790,1016,0,0
-427,8,0,0,0,0,0,0,0,0,0,-1,797,1016,0,0
-420,8,0,0,0,0,0,0,0,0,0,-1,804,1016,0,0
-413,8,0,0,0,0,0,0,0,0,0,-1,811,1016,0,0
-406,8,0,0,0,0,0,0,0,0,0,-1,818,1016,0,0
-399,8,0,0,0,0,0,0,0,0,0,-1,825,1016,0,0
-392,8,0,0,0,0,0,0,0,0,0,-1,832,1016,0,0
-385,8,0,0,0,0,0,0,0,0,0,-1,839,1016,0,0
-378,8,0,0,0,0,0,0,0,0,0,-1,846,1016,0,0
-371,8,0,0,0,0,0,0,0,0,0,-1,853,1016,0,0
-364,8,0,0,0,0,0,0,0,0,0,-1,860,1016,0,0
-357,8,0,0,0,0,0,0,0,0,0,-1,867,1016,0,0
-350,8,0,0,0,0,0,0,0,0,0,-1,874,1016,0,0
-343,8,0,0,0,0,0,0,0,0,0,-1,881,1016,0,0
-336,8,0,0,0,0,0,0,0,0,0,-1,888,1016,0,0
-329,8,0,0,0,0,0,0,0,0,0,-1,895,1016,0,0
-322,8,0,0,0,0,0,0,0,0,0,-1,902,1016,0,0
-315,8,0,0,0,0,0,0,0,0,0,-1,909,1016,0,0
-308,8,0,0,0,0,0,0,0,0,0,-1,916,1016,0,0
-301,8,0,0,0,0,0,0,0,0,0,-1,923,1016,0,0
-294,8,0,0,0,0,0,0,0,0,0,-1,930,1016,0,0
-287,8,0,0,0,0,0,0,0,0,0,-1,937,1016,0,0
-280,8,0,0,0,0,0,0,0,0,0,-1,944,1016,0,0
-273,8,0,0,0,0,0,0,0,0,0,-1,951,1016,0,0
-266,8,0,0,0,0,0,0,0,0,0,-1,958,1016,0,0
-259,8,0,0,0,0,0,0,0,0,0,-1,965,1016,0,0
-252,8,0,0,0,0,0,0,0,0,0,-1,972,1016,0,0
-245,8,0,0,0,0,0,0,0,0,0,-1,979,1016,0,0
-238,8,0,0,0,0,0,0,0,0,0,-1,986,1016,0,0
-231,8,0,0,0,0,0,0,0,0,0,-1,993,1016,0,0
-224,8,0,0,0,0,0,0,0,0,0,-1,1000,1016,0,0
-217,8,0,0,0,0,0,0,0,0,0,-1,1007,1016,0,0
-210,8,0,0,0,0,0,0,0,0,0,-1,1014,1016,0,0
-203,8,0,0,0,0,0,0,0,0,0,-1,1021,1016,0,0
-196,8,0,0,0,0,0,0,0,0,0,-1,1028,1016,0,0
-189,8,0,0,0,0,0,0,0,0,0,-1,1035,1016,0,0
-182,8,0,0,0,0,0,0,0,0,0,-1,1042,1016,0,0
-175,8,0,0,0,0,0,0,0,0,0,-1,1049,1016,0,0
-168,8,0,0,0,0,0,0,0,0,0,-1,1056,1016,0,0
-161,8,0,0,0,0,0,0,0,0,0,-1,1063,1016,0,0
-154,8,0,0,0,0,0,0,0,0,0,-1,1070,1016,0,0
-147,8,0,0,0,0,0,0,0,0,0,-1,1077,1016,0,0
-140,8,0,0,0,0,0,0,0,0,0,-1,1084,1016,0,0
-133,8,0,0,0,0,0,0,0,0,0,-1,1091,1016,0,0
-126,8,0,0,0,0,0,0,0,0,0,-1,1098,1016,0,0
-119,8,0,0,0,0,0,0,0,0,0,-1,1105,1016,0,0
-112,8,0,0,0,0,0,0,0,0,0,-1,1112,1016,0,0
-105,8,0,0,0,0,0,0,0,0,0,-1,1119,1016,0,0
-98,8,0,0,0,0,0,0,0,0,0,-1,1126,1016,0,0
-91,8,0,0,0,0,0,0,0,0,0,-1,1133,1016,0,0
-84,8,0,0,0,0,0,0,0,0,0,-1,1140,1016,0,0
-77,8,0,0,0,0,0,0,0,0,0,-1,1147,1016,0,0
-70,8,0,0,0,0,0,0,0,0,0,-1,1154,1016,0,0
-63,8,0,0,0,0,0,0,0,0,0,-1,1161,1016,0,0
-56,8,0,0,0,0,0,0,0,0,0,-1,1168,1016,0,0
-49,8,0,0,0,0,0,0,0,0,0,-1,1175,1016,0,0
-42,8,0,0,0,0,0,0,0,0,0,-1,1182,1016,0,0
-35,8,0,0,0,0,0,0,0,0,0,-1,1189,1016,0,0
-28,8,0,0,0,0,0,0,0,0,0,-1,1196,1016,0,0
-21,8,0,0,0,0,0,0,0,0,0,-1,1203,1016,0,0
-14,8,0,0,0,0,0,0,0,0,0,-1,1210,1016,0,0
-7,8,0,0,0,0,0,0,0,0,0,-1,1217,1016,0,0
0,8,0,0,0,0,0,0,0,0,0,-1,1224,1016,0,0
7,8,0,0,0,0,0,0,0,0,0,-1,1231,1016,0,0
14,8,0,0,0,0,0,0,0,0,0,-1,1238,1016,0,0
21,8,0,0,0,0,0,0,0,0,0,-1,1245,1016,0,0
28,8,0,0,0,0,0,0,0,0,0,-1,1252,1016,0,0
35,8,0,0,0,0,0,0,0,0,0,-1,1259,1016,0,0
42,8,0,0,0,0,0,0,0,0,0,-1,1266,1016,0,0
49,8,0,0,0,0,0,0,0,0,0,-1,1273,1016,0,0
56,8,0,0,0,0,0,0,0,0,0,-1,1280,1016,0,0
63,8,0,0,0,0,0,0,0,0,0,-1,1287,1016,0,0
70,8,0,0,0,0,0,0,0,0,0,-1,1294,1016,0,0
77,8,0,0,0,0,0,0,0,0,0,-1,1301,1016,0,0
84,8,0,0,0,0,0,0,0,0,0,-1,1308,1016,0,0
91,8,0,0,0,0,0,0,0,0,0,-1,1315,1016,0,0
98,8,0,0,0,0,0,0,0,0,0,-1,1322,1016,0,0
105,8,0,0,0,0,0,0,0,0,0,-1,1329,1016,0,0
112,8,0,0,0,0,0,0,0,0,0,-1,1336,1016,0,0
119,8,0,0,0,0,0,0,0,0,0,-1,1343,1016,0,0
126,8,0,0,0,0,0,0,0,0,0,-1,1350,1016,0,0
133,8,0,0,0,0,0,0,0,0,0,-1,1357,1016,0,0
140,8,0,0,0,0,0,0,0,0,0,-1,1364,1016,0,0
147,8,0,0,0,0,0,0,0,0,0,-1,1371,1016,0,0
154,8,0,0,0,0,0,0,0,0,0,-1,1378,1016,0,0
161,8,0,0,0,0,0,0,0,0,0,-1,1385,1016,0,0
168,8,0,0,0,0,0,0,0,0,0,-1,1392,1016,0,0
175,8,0,0,0,0,0,0,0,0,0,-1,1399,1016,0,0
182,8,0,0,0,0,0,0,0,0,0,-1,1406,1016,0,0
189,8,0,0,0,0,0,0,0,0,0,-1,1413,1016,0,0
196,8,0,0,0,0,0,0,0,0,0,-1,1420,1016,0,0
203,8,0,0,0,0,0,0,0,0,0,-1,1427,1016,0,0
210,8,0,0,0,0,0,0,0,0,0,-1,1434,1016,0,0
217,8,0,0,0,0,0,0,0,0,0,-1,1441,1016,0,0
224,8,0,0,0,0,0,0,0,0,0,-1,1448,1016,0,0
231,8,0,0,0,0,0,0,0,0,0,-1,1455,1016,0,0
238,8,0,0,0,0,0,0,0,0,0,-1,1462,1016,0,0
245,8,0,0,0,0,0,0,0,0,0,-1,1469,1016,0,0
252,8,0,0,0,0,0,0,0,0,0,-1,1476,1016,0,0
259,8,0,0,0,0,0,0,0,0,0,-1,1483,1016,0,0
266,8,0,0,0,0,0,0,0,0,0,-1,1490,1016,0,0
273,8,0,0,0,0,0,0,0,0,0,-1,1497,1016,0,0
280,8,0,0,0,0,0,0,0,0,0,-1,1504,1016,0,0
287,8,0,0,0,0,0,0,0,0,0,-1,1511,1016,0,0
294,8,0,0,0,0,0,0,0,0,0,-1,1518,1016,0,0
301,8,0,0,0,0,0,0,0,0,0,-1,1525,1016,0,0
308,8,0,0,0,0,0,0,0,0,0,-1,1532,1016,0,0
315,8,0,0,0,0,0,0,0,0,0,-1,1539,1016,0,0
322,8,0,0,0,0,0,0,0,0,0,-1,1546,1016,0,0
329,8,0,0,0,0,0,0,0,0,0,-1,1553,1016,0,0
336,8,0,0,0,0,0,0,0,0,0,-1,1560,1016,0,0
343,8,0,0,0,0,0,0,0,0,0,-1,1567,1016,0,0
350,8,0,0,0,0,0,0,0,0,0,-1,1574,1016,0,0
357,8,0,0,0,0,0,0,0,0,0,-1,1581,1016,0,0
364,8,0,0,0,0,0,0,0,0,0,-1,1588,1016,0,0
371,8,0,0,0,0,0,0,0,0,0,-1,1595,1016,0,0
378,8,0,0,0,0,0,0,0,0,0,-1,1602,1016,0,0
385,8,0,0,0,0,0,0,0,0,0,-1,1609,1016,0,0
392,8,0,0,0,0,0,0,0,0,0,-1,1616,1016,0,0
399,8,0,0,0,0,0,0,0,0,0,-1,1623,1016,0,0
406,8,0,0,0,0,0,0,0,0,0,-1,1630,1016,0,0
413,8,0,0,0,0,0,0,0,0,0,-1,1637,1016,0,0
420,8,0,0,0,0,0,0,0,0,0,-1,1644,1016,0,0
427,8,0,0,0,0,0,0,0,0,0,-1,1651,1016,0,0
434,8,0,0,0,0,0,0,0,0,0,-1,1658,1016,0,0
441,8,0,0,0,0,0,0,0,0,0,-1,1665,1016,0,0
448,8,0,0,0,0,0,0,0,0,0,-1,1672,1016,0,0
455,8,0,0,0,0,0,0,0,0,0,-1,1679,1016,0,0
462,8,0,0,0,0,0,0,0,0,0,-1,1686,1016,0,0
469,8,0,0,0,0,0,0,0,0,0,-1,1693,1016,0,0
476,8,0,0,0,0,0,0,0,0,0,-1,1700,1016,0,0
483,8,0,0,0,0,0,0,0,0,0,-1,1707,1016,0,0
490,8,0,0,0,0,0,0,0,0,0,-1,1714,1016,0,0
497,8,0,0,0,0,0,0,0,0,0,-1,1721,1016,0,0
504,8,0,0,0,0,0,0,0,0,0,-1,1728,1016,0,0
511,8,0,0,0,0,0,0,0,0,0,-1,1735,1016,0,0
518,8,0,0,0,0,0,0,0,0,0,-1,1742,1016,0,0
525,8,0,0,0,0,0,0,0,0,0,-1,1749,1016,0,0
532,8,0,0,0,0,0,0,0,0,0,-1,1756,1016,0,0
539,8,0,0,0,0,0,0,0,0,0,-1,1763,1016,0,0
546,8,0,0,0,0,0,0,0,0,0,-1,1770,1016,0,0
553,8,0,0,0,0,0,0,0,0,0,-1,1777,1016,0,0
560,8,0,0,0,0,0,0,0,0,0,-1,1784,1016,0,0
567,8,0,0,0,0,0,0,0,0,0,-1,1791,1016,0,0
574,8,0,0,0,0,0,0,0,0,0,-1,1798,1016,0,0
581,8,0,0,0,0,0,0,0,0,0,-1,1805,1016,0,0
588,8,0,0,0,0,0,0,0,0,0,-1,1812,1016,0,0
595,8,0,0,0,0,0,0,0,0,0,-1,1819,1016,0,0
602,8,0,0,0,0,0,0,0,0,0,-1,1826,1016,0,0
609,8,0,0,0,0,0,0,0,0,0,-1,1833,1016,0,0
616,8,0,0,0,0,0,0,0,0,0,-1,1840,1016,0,0
623,8,0,0,0,0,0,0,0,0,0,-1,1847,1016,0,0
630,8,0,0,0,0,0,0,0,0,0,-1,1854,1016,0,0
637,8,0,0,0,0,0,0,0,0,0,-1,1861,1016,0,0
644,8,79.0067,2.62866,-0.0047933,-0.00497979,-0.00477457,-0.000111065,-0.00966202,-0.775634,0.00640465,0.0444237,1868,1016,79.0068,-2.62863
651,8,78.9077,2.44684,-0.00382994,-0.00376613,-0.00331686,-0.000481029,-0.00711505,-0.790208,0.00459143,0.0399656,1875,1016,78.9077,-2.44687
658,8,78.7443,2.48053,-0.00301846,-0.0028523,-0.00220368,-0.000730133,-0.00514062,-0.804239,0.00321149,0.0417524,1882,1016,78.7442,-2.48054
665,8,78.8936,2.53119,-0.00226345,-0.002163,-0.00146029,-0.000752074,-0.00367438,-0.802588,0.00224136,0.0425192,1889,1016,78.8935,-2.53117
672,8,78.9537,2.3418,-0.00155329,-0.00154891,-0.000872498,-0.000678601,-0.0024236,-0.786653,0.00144371,0.0408946,1896,1016,78.9538,-2.34178
679,8,78.7931,2.28845,-0.000816674,-0.00106229,-0.00040303,-0.000518158,-0.00136081,-0.637509,0.000793075,0.0405853,1903,1016,78.793,-2.28845
686,8,78.7972,2.38062,-0.00037525,-0.000919315,-0.000107716,-0.0003547,-0.000939864,-0.188513,0.000548042,0.0417856,1910,1016,78.7973,-2.38063
693,8,78.8457,2.47107,-9.94068e-05,-0.000843647,3.00775e-05,-9.81932e-05,-0.00084486,0.040326,0.00053353,0.038413,1917,1016,78.8457,-2.4711
700,8,78.8761,2.40753,-9.06923e-06,-0.000728182,5.871e-05,-4.30751e-06,-0.000732944,0.0809281,0.0004872,0.0303577,1924,1016,78.8761,-2.40755
707,8,78.8712,2.3783,-0.000752116,-2.14072e-05,-3.63328e-05,-1.9605e-05,-0.000753918,-1.52124,0.000496206,0.0236599,1931,1016,78.8712,-2.37832
714,8,78.8552,2.35858,-0.00201443,0.00128611,-0.000181765,0.00129609,-0.00202441,-1.51595,0.0019324,0.0288057,1938,1016,78.8552,-2.35856
721,8,78.8552,2.35974,0,0,0,0,0,0,0,-1,1945,1016,78.8553,-2.35976
728,8,52.1681,5.36774,0,0,0,0,0,0,0,-1,1952,1016,52.168,-5.36773
735,8,79.1342,7.659,0,0,0,0,0,0,0,-1,1959,1016,79.1341,-7.65902
742,8,78.6129,7.61761,0,0,0,0,0,0,0,-1,1966,1016,78.6129,-7.61763
749,8,79.4731,7.77942,0,0,0,0,0,0,0,-1,1973,1016,79.4732,-7.77943
756,8,79.1572,7.57428,-0.0118546,0.0151829,-0.00296016,0.0155032,-0.0121749,-1.46301,0.0160184,0.0437576,1980,1016,79.1571,-7.57429
763,8,79.0725,7.69202,-0.0133982,0.0196407,-0.00415258,0.0201546,-0.0139122,-1.44766,0.0197782,0.0169604,1987,1016,79.0725,-7.69199
770,8,78.9175,7.64862,-0.0138882,0.0253866,-0.00606261,0.0263011,-0.0148027,-1.42107,0.0240388,0.0225709,1994,1016,78.9176,-7.64861
777,8,78.5056,7.61462,-0.0129907,0.0316627,-0.00861283,0.0332664,-0.0145944,-1.38671,0.0283247,0.0375053,2001,1016,78.5055,-7.61464
784,8,78.0828,7.57922,0,0,0,0,0,0,0,-1,2008,1016,78.0828,-7.57925
791,8,75.5461,6.04517,0,0,0,0,0,0,0,-1,2015,1016,75.5462,-6.04517
798,8,76.8606,6.46661,0,0,0,0,0,0,0,-1,2022,1016,76.8606,-6.46663
805,8,75.1563,5.92737,0,0,0,0,0,0,0,-1,2029,1016,75.1562,-5.92735
812,8,75.3179,5.32159,0,0,0,0,0,0,0,-1,2036,1016,75.3178,-5.3216
-700,1,0,0,0,0,0,0,0,0,0,-1,524,1023,0,0
-693,1,-66.9782,-2.69263,0.0689994,-0.0193419,0.0306786,0.0786081,-0.0289506,0.303529,0.0642672,0.0449014,531,1023,-66.9782,2.69263
-686,1,-66.7458,-1.70874,0.063147,-0.00856326,0.0300926,0.0741016,-0.0195179,0.34912,0.0570314,0.0457632,538,1023,-66.7458,1.70874
-679,1,-66.5858,-0.818054,0.0545729,0.000220809,0.0279302,0.0663665,-0.0115728,0.399542,0.0485638,0.0477411,545,1023,-66.5858,0.818073
-672,1,-66.4248,0.0220337,0,0,0,0,0,0,0,-1,552,1023,-66.4248,-0.0220564
-665,1,-66.2448,0.901489,0,0,0,0,0,0,0,-1,559,1023,-66.2449,-0.9015
-658,1,-63.827,6.31201,0,0,0,0,0,0,0,-1,566,1023,-63.827,-6.31201
-651,1,-63.4994,6.59363,0,0,0,0,0,0,0,-1,573,1023,-63.4994,-6.59364
-644,1,-63.1813,6.87555,0,0,0,0,0,0,0,-1,580,1023,-63.1813,-6.87553
-637,1,-63.416,6.75745,0.00716897,0.0227965,0.00959102,0.0273537,0.00261169,1.12722,0.0174306,0.0447574,587,1023,-63.416,-6.75746
-630,1,-63.7567,6.83923,6.37174e-06,0.0222339,0.00594675,0.0237248,-0.00148461,1.32514,0.0163339,0.0400901,594,1023,-63.7567,-6.83922
-623,1,-63.5999,6.88702,-0.00314093,0.0159194,0.00290054,0.016351,-0.00357255,1.42307,0.0122662,0.0206662,601,1023,-63.5999,-6.88705
-616,1,-63.7875,6.76471,-0.00437368,0.00970608,0.0014002,0.00984398,-0.00451158,1.47263,0.00847664,0.0261147,608,1023,-63.7875,-6.76473
-609,1,-63.8446,6.83441,-0.00464507,0.00524265,0.000353072,0.00525524,-0.00465766,1.53515,0.00572668,0.0273232,615,1023,-63.8446,-6.8344
-602,1,-63.6136,6.97638,-0.00439817,0.00187661,-4.01309e-05,0.00187687,-0.00439842,-1.5644,0.00371926,0.0190873,622,1023,-63.6136,-6.9764
-595,1,-63.6137,7.01324,-0.00386905,-0.000231769,-0.000105032,-0.000228739,-0.00387208,-1.54195,0.00250862,0.0499792,629,1023,-63.6137,-7.01325
-588,1,-63.5663,7.11975,0,0,0,0,0,0,0,-1,636,1023,-63.5664,-7.11973
-581,1,-62.5164,0.514282,-0.00206819,-0.00264116,-0.000129725,-0.00204018,-0.00266916,-0.212597,0.00161124,0.0296068,643,1023,-62.5164,-0.514253
-574,1,-62.5623,0.697937,-0.00127505,-0.00324143,-0.000143117,-0.00126468,-0.00325179,-0.0722743,0.0018928,0.0342754,650,1023,-62.5623,-0.697955
-567,1,-62.5907,0.838318,-0.000451733,-0.00311835,-4.91863e-05,-0.000450826,-0.00311925,-0.0184369,0.00194671,0.0386081,657,1023,-62.5907,-0.838336
-560,1,-62.5779,0.652893,0.000560784,-0.00233989,3.15078e-05,0.000561126,-0.00234023,0.0108605,0.00177698,0.0390712,664,1023,-62.5779,-0.652902
-553,1,-62.4677,0.450195,0.00164158,-0.00105237,5.07633e-05,0.00164253,-0.00105333,0.0188345,0.0015688,0.0421587,671,1023,-62.4676,-0.4502
-546,1,-62.5017,0.811707,0.00286198,0.000336752,-4.54406e-05,0.0028628,0.000335935,-0.0179869,0.00180699,0.0446378,678,1023,-62.5017,-0.811714
-539,1,-62.5906,0.908325,0.00362876,0.00154246,-0.000298391,0.0036706,0.00150062,-0.139305,0.00213093,0.0421937,685,1023,-62.5906,-0.908327
-532,1,-62.5204,0.745544,0.0042716,0.00289392,-0.000392342,0.00437549,0.00279002,-0.258873,0.0025579,0.0400564,692,1023,-62.5204,-0.745517
-525,1,0,0,0,0,0,0,0,0,0,-1,699,1023,0,0
-518,1,0,0,0,0,0,0,0,0,0,-1,706,1023,0,0
-511,1,0,0,0,0,0,0,0,0,0,-1,713,1023,0,0
-504,1,0,0,0,0,0,0,0,0,0,-1,720,1023,0,0
-497,1,0,0,0,0,0,0,0,0,0,-1,727,1023,0,0
-490,1,0,0,0,0,0,0,0,0,0,-1,734,1023,0,0
-483,1,0,0,0,0,0,0,0,0,0,-1,741,1023,0,0
-476,1,0,0,0,0,0,0,0,0,0,-1,748,1023,0,0
-469,1,0,0,0,0,0,0,0,0,0,-1,755,1023,0,0
-462,1,0,0,0,0,0,0,0,0,0,-1,762,1023,0,0
-455,1,0,0,0,0,0,0,0,0,0,-1,769,1023,0,0
-448,1,0,0,0,0,0,0,0,0,0,-1,776,1023,0,0
-441,1,0,0,0,0,0,0,0,0,0,-1,783,1023,0,0
-434,1,0,0,0,0,0,0,0,0,0,-1,790,1023,0,0
-427,1,0,0,0,0,0,0,0,0,0,-1,797,1023,0,0
-420,1,0,0,0,0,0,0,0,0,0,-1,804,1023,0,0
-413,1,0,0,0,0,0,0,0,0,0,-1,811,1023,0,0
-406,1,0,0,0,0,0,0,0,0,0,-1,818,1023,0,0
-399,1,0,0,0,0,0,0,0,0,0,-1,825,1023,0,0
-392,1,0,0,0,0,0,0,0,0,0,-1,832,1023,0,0
-385,1,0,0,0,0,0,0,0,0,0,-1,839,1023,0,0
-378,1,0,0,0,0,0,0,0,0,0,-1,846,1023,0,0
-371,1,0,0,0,0,0,0,0,0,0,-1,853,1023,0,0
-364,1,0,0,0,0,0,0,0,0,0,-1,860,1023,0,0
-357,1,0,0,0,0,0,0,0,0,0,-1,867,1023,0,0
-350,1,0,0,0,0,0,0,0,0,0,-1,874,1023,0,0
-343,1,0,0,0,0,0,0,0,0,0,-1,881,1023,0,0
-336,1,0,0,0,0,0,0,0,0,0,-1,888,1023,0,0
-329,1,0,0,0,0,0,0,0,0,0,-1,895,1023,0,0
-322,1,0,0,0,0,0,0,0,0,0,-1,902,1023,0,0
-315,1,0,0,0,0,0,0,0,0,0,-1,909,1023,0,0
-308,1,0,0,0,0,0,0,0,0,0,-1,916,1023,0,0
-301,1,0,0,0,0,0,0,0,0,0,-1,923,1023,0,0
-294,1,0,0,0,0,0,0,0,0,0,-1,930,1023,0,0
-287,1,0,0,0,0,0,0,0,0,0,-1,937,1023,0,0
-280,1,0,0,0,0,0,0,0,0,0,-1,944,1023,0,0
-273,1,0,0,0,0,0,0,0,0,0,-1,951,1023,0,0
-266,1,0,0,0,0,0,0,0,0,0,-1,958,1023,0,0
-259,1,0,0,0,0,0,0,0,0,0,-1,965,1023,0,0
-252,1,0,0,0,0,0,0,0,0,0,-1,972,1023,0,0
-245,1,0,0,0,0,0,0,0,0,0,-1,979,1023,0,0
-238,1,0,0,0,0,0,0,0,0,0,-1,986,1023,0,0
-231,1,0,0,0,0,0,0,0,0,0,-1,993,1023,0,0
-224,1,0,0,0,0,0,0,0,0,0,-1,1000,1023,0,0
-217,1,0,0,0,0,0,0,0,0,0,-1,1007,1023,0,0
-210,1,0,0,0,0,0,0,0,0,0,-1,1014,1023,0,0
-203,1,0,0,0,0,0,0,0,0,0,-1,1021,1023,0,0
-196,1,0,0,0,0,0,0,0,0,0,-1,1028,1023,0,0
-189,1,0,0,0,0,0,0,0,0,0,-1,1035,1023,0,0
-182,1,0,0,0,0,0,0,0,0,0,-1,1042,1023,0,0
-175,1,0,0,0,0,0,0,0,0,0,-1,1049,1023,0,0
-168,1,0,0,0,0,0,0,0,0,0,-1,1056,1023,0,0
-161,1,0,0,0,0,0,0,0,0,0,-1,1063,1023,0,0
-154,1,0,0,0,0,0,0,0,0,0,-1,1070,1023,0,0
-147,1,0,0,0,0,0,0,0,0,0,-1,1077,1023,0,0
-140,1,0,0,0,0,0,0,0,0,0,-1,1084,1023,0,0
-133,1,0,0,0,0,0,0,0,0,0,-1,1091,1023,0,0
-126,1,0,0,0,0,0,0,0,0,0,-1,1098,1023,0,0
-119,1,0,0,0,0,0,0,0,0,0,-1,1105,1023,0,0
-112,1,0,0,0,0,0,0,0,0,0,-1,1112,1023,0,0
-105,1,0,0,0,0,0,0,0,0,0,-1,1119,1023,0,0
-98,1,0,0,0,0,0,0,0,0,0,-1,1126,1023,0,0
-91,1,0,0,0,0,0,0,0,0,0,-1,1133,1023,0,0
-84,1,0,0,0,0,0,0,0,0,0,-1,1140,1023,0,0
-77,1,0,0,0,0,0,0,0,0,0,-1,1147,1023,0,0
-70,1,0,0,0,0,0,0,0,0,0,-1,1154,1023,0,0
-63,1,0,0,0,0,0,0,0,0,0,-1,1161,1023,0,0
-56,1,0,0,0,0,0,0,0,0,0,-1,1168,1023,0,0
-49,1,0,0,0,0,0,0,0,0,0,-1,1175,1023,0,0
-42,1,0,0,0,0,0,0,0,0,0,-1,1182,1023,0,0
-35,1,0,0,0,0,0,0,0,0,0,-1,1189,1023,0,0
-28,1,0,0,0,0,0,0,0,0,0,-1,1196,1023,0,0
-21,1,0,0,0,0,0,0,0,0,0,-1,1203,1023,0,0
-14,1,0,0,0,0,0,0,0,0,0,-1,1210,1023,0,0
-7,1,0,0,0,0,0,0,0,0,0,-1,1217,1023,0,0
0,1,0,0,0,0,0,0,0,0,0,-1,1224,1023,0,0
7,1,0,0,0,0,0,0,0,0,0,-1,1231,1023,0,0
14,1,0,0,0,0,0,0,0,0,0,-1,1238,1023,0,0
21,1,0,0,0,0,0,0,0,0,0,-1,1245,1023,0,0
28,1,0,0,0,0,0,0,0,0,0,-1,1252,1023,0,0
35,1,0,0,0,0,0,0,0,0,0,-1,1259,1023,0,0
42,1,0,0,0,0,0,0,0,0,0,-1,1266,1023,0,0
49,1,0,0,0,0,0,0,0,0,0,-1,1273,1023,0,0
56,1,0,0,0,0,0,0,0,0,0,-1,1280,1023,0,0
63,1,0,0,0,0,0,0,0,0,0,-1,1287,1023,0,0
70,1,0,0,0,0,0,0,0,0,0,-1,1294,1023,0,0
77,1,0,0,0,0,0,0,0,0,0,-1,1301,1023,0,0
84,1,0,0,0,0,0,0,0,0,0,-1,1308,1023,0,0
91,1,0,0,0,0,0,0,0,0,0,-1,1315,1023,0,0
98,1,0,0,0,0,0,0,0,0,0,-1,1322,1023,0,0
105,1,0,0,0,0,0,0,0,0,0,-1,1329,1023,0,0
112,1,0,0,0,0,0,0,0,0,0,-1,1336,1023,0,0
119,1,0,0,0,0,0,0,0,0,0,-1,1343,1023,0,0
126,1,0,0,0,0,0,0,0,0,0,-1,1350,1023,0,0
133,1,0,0,0,0,0,0,0,0,0,-1,1357,1023,0,0
140,1,0,0,0,0,0,0,0,0,0,-1,1364,1023,0,0
147,1,0,0,0,0,0,0,0,0,0,-1,1371,1023,0,0
154,1,0,0,0,0,0,0,0,0,0,-1,1378,1023,0,0
161,1,0,0,0,0,0,0,0,0,0,-1,1385,1023,0,0
168,1,0,0,0,0,0,0,0,0,0,-1,1392,1023,0,0
175,1,0,0,0,0,0,0,0,0,0,-1,1399,1023,0,0
182,1,0,0,0,0,0,0,0,0,0,-1,1406,1023,0,0
189,1,0,0,0,0,0,0,0,0,0,-1,1413,1023,0,0
196,1,0,0,0,0,0,0,0,0,0,-1,1420,1023,0,0
203,1,0,0,0,0,0,0,0,0,0,-1,1427,1023,0,0
210,1,0,0,0,0,0,0,0,0,0,-1,1434,1023,0,0
217,1,0,0,0,0,0,0,0,0,0,-1,1441,1023,0,0
224,1,0,0,0,0,0,0,0,0,0,-1,1448,1023,0,0
231,1,0,0,0,0,0,0,0,0,0,-1,1455,1023,0,0
238,1,0,0,0,0,0,0,0,0,0,-1,1462,1023,0,0
245,1,0,0,0,0,0,0,0,0,0,-1,1469,1023,0,0
252,1,0,0,0,0,0,0,0,0,0,-1,1476,1023,0,0
259,1,0,0,0,0,0,0,0,0,0,-1,1483,1023,0,0
266,1,0,0,0,0,0,0,0,0,0,-1,1490,1023,0,0
273,1,0,0,0,0,0,0,0,0,0,-1,1497,1023,0,0
280,1,0,0,0,0,0,0,0,0,0,-1,1504,1023,0,0
287,1,0,0,0,0,0,0,0,0,0,-1,1511,1023,0,0
294,1,0,0,0,0,0,0,0,0,0,-1,1518,1023,0,0
301,1,0,0,0,0,0,0,0,0,0,-1,1525,1023,0,0
308,1,0,0,0,0,0,0,0,0,0,-1,1532,1023,0,0
315,1,0,0,0,0,0,0,0,0,0,-1,1539,1023,0,0
322,1,0,0,0,0,0,0,0,0,0,-1,1546,1023,0,0
329,1,0,0,0,0,0,0,0,0,0,-1,1553,1023,0,0
336,1,0,0,0,0,0,0,0,0,0,-1,1560,1023,0,0
343,1,0,0,0,0,0,0,0,0,0,-1,1567,1023,0,0
350,1,0,0,0,0,0,0,0,0,0,-1,1574,1023,0,0
357,1,0,0,0,0,0,0,0,0,0,-1,1581,1023,0,0
364,1,0,0,0,0,0,0,0,0,0,-1,1588,1023,0,0
371,1,0,0,0,0,0,0,0,0,0,-1,1595,1023,0,0
378,1,0,0,0,0,0,0,0,0,0,-1,1602,1023,0,0
385,1,0,0,0,0,0,0,0,0,0,-1,1609,1023,0,0
392,1,0,0,0,0,0,0,0,0,0,-1,1616,1023,0,0
399,1,0,0,0,0,0,0,0,0,0,-1,1623,1023,0,0
406,1,0,0,0,0,0,0,0,0,0,-1,1630,1023,0,0
413,1,0,0,0,0,0,0,0,0,0,-1,1637,1023,0,0
420,1,0,0,0,0,0,0,0,0,0,-1,1644,1023,0,0
427,1,0,0,0,0,0,0,0,0,0,-1,1651,1023,0,0
434,1,0,0,0,0,0,0,0,0,0,-1,1658,1023,0,0
441,1,0,0,0,0,0,0,0,0,0,-1,1665,1023,0,0
448,1,0,0,0,0,0,0,0,0,0,-1,1672,1023,0,0
455,1,0,0,0,0,0,0,0,0,0,-1,1679,1023,0,0
462,1,0,0,0,0,0,0,0,0,0,-1,1686,1023,0,0
469,1,0,0,0,0,0,0,0,0,0,-1,1693,1023,0,0
476,1,0,0,0,0,0,0,0,0,0,-1,1700,1023,0,0
483,1,0,0,0,0,0,0,0,0,0,-1,1707,1023,0,0
490,1,0,0,0,0,0,0,0,0,0,-1,1714,1023,0,0
497,1,0,0,0,0,0,0,0,0,0,-1,1721,1023,0,0
504,1,0,0,0,0,0,0,0,0,0,-1,1728,1023,0,0
511,1,0,0,0,0,0,0,0,0,0,-1,1735,1023,0,0
518,1,0,0,0,0,0,0,0,0,0,-1,1742,1023,0,0
525,1,0,0,0,0,0,0,0,0,0,-1,1749,1023,0,0
532,1,0,0,0,0,0,0,0,0,0,-1,1756,1023,0,0
539,1,0,0,0,0,0,0,0,0,0,-1,1763,1023,0,0
546,1,0,0,0,0,0,0,0,0,0,-1,1770,1023,0,0
553,1,0,0,0,0,0,0,0,0,0,-1,1777,1023,0,0
560,1,0,0,0,0,0,0,0,0,0,-1,1784,1023,0,0
567,1,0,0,0,0,0,0,0,0,0,-1,1791,1023,0,0
574,1,0,0,0,0,0,0,0,0,0,-1,1798,1023,0,0
581,1,0,0,0,0,0,0,0,0,0,-1,1805,1023,0,0
588,1,0,0,0,0,0,0,0,0,0,-1,1812,1023,0,0
595,1,0,0,0,0,0,0,0,0,0,-1,1819,1023,0,0
602,1,0,0,0,0,0,0,0,0,0,-1,1826,1023,0,0
609,1,0,0,0,0,0,0,0,0,0,-1,1833,1023,0,0
616,1,0,0,0,0,0,0,0,0,0,-1,1840,1023,0,0
623,1,0,0,0,0,0,0,0,0,0,-1,1847,1023,0,0
630,1,0,0,0,0,0,0,0,0,0,-1,1854,1023,0,0
637,1,0,0,0,0,0,0,0,0,0,-1,1861,1023,0,0
644,1,0,0,0,0,0,0,0,0,0,-1,1868,1023,0,0
651,1,78.9063,2.50671,-0.00452265,-0.00425109,-0.00309794,-0.00128596,-0.00748778,-0.807299,0.0046232,0.0386312,1875,1023,78.9063,-2.50674
658,1,78.9323,2.59576,-0.00355213,-0.00320624,-0.00205181,-0.0013201,-0.00543827,-0.827444,0.00327539,0.040925,1882,1023,78.9323,-2.59576
665,1,78.8947,2.42285,-0.00269168,-0.00239237,-0.00135431,-0.00117947,-0.00390458,-0.840426,0.00231244,0.0433897,1889,1023,78.8946,-2.42284
672,1,78.8088,2.30426,-0.00189663,-0.00166628,-0.000801442,-0.000971781,-0.00259113,-0.856766,0.00151148,0.0439172,1896,1023,78.8089,-2.30423
679,1,78.6376,2.24292,-0.00110081,-0.00104684,-0.000354614,-0.000718186,-0.00142946,-0.823373,0.000825305,0.0426308,1903,1023,78.6375,-2.24291
686,1,78.5726,2.45044,-0.000693322,-0.000816184,-4.73862e-05,-0.00067717,-0.000832337,-0.32852,0.000511082,0.0407089,1910,1023,78.5726,-2.45042
693,1,78.7511,2.49219,-0.00045631,-0.000704358,0.00012595,-0.000403571,-0.000757098,0.396551,0.000437429,0.0360589,1917,1023,78.7511,-2.49222
700,1,78.8087,2.45929,-0.000369824,-0.00060631,0.000222084,-0.000236467,-0.000739667,0.540774,0.000436205,0.0303423,1924,1023,78.8087,-2.45927
707,1,78.8304,2.33014,-0.00113817,4.11051e-05,0.000203412,7.52053e-05,-0.00117227,1.4047,0.000807749,0.0260665,1931,1023,78.8304,-2.33013
714,1,78.8247,2.24921,-0.00239074,0.00128983,0.000126748,0.00129419,-0.0023951,1.53641,0.00216139,0.0279654,1938,1023,78.8248,-2.24921
721,1,78.8904,2.25702,0,0,0,0,0,0,0,-1,1945,1023,78.8903,-2.25699
728,1,52.4639,5.59277,0,0,0,0,0,0,0,-1,1952,1023,52.4639,-5.59276
735,1,53.3617,6.10699,0,0,0,0,0,0,0,-1,1959,1023,53.3617,-6.10698
742,1,52.4393,5.81525,0,0,0,0,0,0,0,-1,1966,1023,52.4393,-5.81527
749,1,79.4695,7.56384,0,0,0,0,0,0,0,-1,1973,1023,79.4696,-7.56385
756,1,79.2771,7.65497,-0.011885,0.0147705,-0.00192928,0.0149094,-0.012024,-1.49892,0.0155797,0.047686,1980,1023,79.2771,-7.65498
763,1,79.0254,7.54431,-0.0131815,0.0190918,-0.0029057,0.0193513,-0.013441,-1.48172,0.0190349,0.0180656,1987,1023,79.0253,-7.54429
770,1,78.9585,7.45758,-0.0132891,0.024659,-0.00442271,0.0251676,-0.0137978,-1.45629,0.0228137,0.0203457,1994,1023,78.9585,-7.45757
777,1,78.6143,7.29883,-0.0118905,0.0309267,-0.00652605,0.0318993,-0.0128631,-1.42285,0.0266112,0.0275947,2001,1023,78.6142,-7.2988
784,1,78.2961,7.09448,-0.00917542,0.0371475,-0.00910784,0.0388739,-0.0109018,-1.38347,0.0302128,0.0476912,2008,1023,78.296,-7.0945
791,1,78.531,6.54291,0,0,0,0,0,0,0,-1,2015,1023,78.5309,-6.54292
798,1,78.301,6.29468,0,0,0,0,0,0,0,-1,2022,1023,78.3011,-6.29467
805,1,76.5056,5.87726,0,0,0,0,0,0,0,-1,2029,1023,76.5057,-5.87729
812,1,76.5642,5.17908,0,0,0,0,0,0,0,-1,2036,1023,76.5641,-5.17907
-700,-6,0,0,0,0,0,0,0,0,0,-1,524,1030,0,0
-693,-6,-64.8146,0.0134277,0,0,0,0,0,0,0,-1,531,1030,-64.8146,-0.0133892
-686,-6,-66.3949,-1.18201,0,0,0,0,0,0,0,-1,538,1030,-66.3949,1.18196
-679,-6,-66.0916,-0.600952,0,0,0,0,0,0,0,-1,545,1030,-66.0916,0.600995
-672,-6,-65.7562,0.0834961,0,0,0,0,0,0,0,-1,552,1030,-65.7562,-0.0835535
-665,-6,-64.194,5.38354,0,0,0,0,0,0,0,-1,559,1030,-64.194,-5.38356
-658,-6,-63.7689,5.73108,0,0,0,0,0,0,0,-1,566,1030,-63.7689,-5.73112
-651,-6,-63.4499,6.07214,0,0,0,0,0,0,0,-1,573,1030,-63.4499,-6.07214
-644,-6,-63.202,6.79126,0,0,0,0,0,0,0,-1,580,1030,-63.202,-6.79127
-637,-6,-63.5934,6.87439,0,0,0,0,0,0,0,-1,587,1030,-63.5934,-6.87438
-630,-6,-63.6274,6.67291,0.00218517,0.0221641,0.00618021,0.0239213,0.000427955,1.29378,0.0158068,0.0287745,594,1030,-63.6274,-6.67291
-623,-6,-63.5455,6.80109,-0.00140525,0.0156885,0.00291785,0.0161729,-0.00188959,1.4063,0.0114638,0.0222301,601,1030,-63.5455,-6.80106
-616,-6,-63.6371,6.77808,-0.00306206,0.00940081,0.00115051,0.00950613,-0.00316738,1.47951,0.00761601,0.0253281,608,1030,-63.6371,-6.77807
-609,-6,-63.6448,6.92743,-0.00354706,0.00491929,-9.40989e-05,0.00492034,-0.00354811,-1.55968,0.00491061,0.0243994,615,1030,-63.6448,-6.92745
-602,-6,-63.4951,7.07758,-0.00345431,0.00148599,-0.000527128,0.00154161,-0.00350993,-1.46567,0.00298939,0.0159725,622,1030,-63.495,-7.0776
-595,-6,-63.3837,7.12402,-0.00310745,-0.000580013,-0.000614593,-0.000438488,-0.00324897,-1.34447,0.00203562,0.0475628,629,1030,-63.3836,-7.12401
-588,-6,-62.7948,6.99097,0,0,0,0,0,0,0,-1,636,1030,-62.7948,-6.99099
-581,-6,-62.5154,0.452393,-0.0014615,-0.00290041,-0.00068752,-0.00118582,-0.00317609,-0.381352,0.00185322,0.0256885,643,1030,-62.5154,-0.452373
-574,-6,-62.5913,0.62146,-0.000780496,-0.00342987,-0.000705576,-0.000604305,-0.00360606,-0.244707,0.00223006,0.0304607,650,1030,-62.5913,-0.621431
-567,-6,-62.6301,0.777832,-0.000112507,-0.00325551,-0.000658894,2.00333e-05,-0.00338805,-0.198506,0.00226541,0.0390325,657,1030,-62.63,-0.777815
-560,-6,-62.6617,0.71167,0.000708642,-0.00244848,-0.000630573,0.000829928,-0.00256976,-0.190021,0.0020467,0.0414944,664,1030,-62.6617,-0.71171
-553,-6,-62.5551,0.486694,0.00161423,-0.00117971,-0.000668088,0.00176577,-0.00133125,-0.223044,0.00179392,0.0431472,671,1030,-62.5551,-0.486728
-546,-6,-62.5811,1.03271,0.00276575,0.000162898,-0.000818408,0.00300169,-7.3045e-05,-0.280684,0.00202591,0.0448827,678,1030,-62.5811,-1.03277
-539,-6,-62.52,1.04785,0.00370869,0.00129835,-0.00111366,0.00414446,0.000862587,-0.372978,0.00252504,0.0434271,685,1030,-62.52,-1.0478
-532,-6,-62.4606,0.765015,0.00457975,0.00259162,-0.00115962,0.00511306,0.0020583,-0.431059,0.00297065,0.0401546,692,1030,-62.4606,-0.765018
-525,-6,0,0,0,0,0,0,0,0,0,-1,699,1030,0,0
-518,-6,0,0,0,0,0,0,0,0,0,-1,706,1030,0,0
-511,-6,0,0,0,0,0,0,0,0,0,-1,713,1030,0,0
-504,-6,0,0,0,0,0,0,0,0,0,-1,720,1030,0,0
-497,-6,0,0,0,0,0,0,0,0,0,-1,727,1030,0,0
-490,-6,0,0,0,0,0,0,0,0,0,-1,734,1030,0,0
-483,-6,0,0,0,0,0,0,0,0,0,-1,741,1030,0,0
-476,-6,0,0,0,0,0,0,0,0,0,-1,748,1030,0,0
-469,-6,0,0,0,0,0,0,0,0,0,-1,755,1030,0,0
-462,-6,0,0,0,0,0,0,0,0,0,-1,762,1030,0,0
-455,-6,0,0,0,0,0,0,0,0,0,-1,769,1030,0,0
-448,-6,0,0,0,0,0,0,0,0,0,-1,776,1030,0,0
-441,-6,0,0,0,0,0,0,0,0,0,-1,783,1030,0,0
-434,-6,0,0,0,0,0,0,0,0,0,-1,790,1030,0,0
-427,-6,0,0,0,0,0,0,0,0,0,-1,797,1030,0,0
-420,-6,0,0,0,0,0,0,0,0,0,-1,804,1030,0,0
-413,-6,0,0,0,0,0,0,0,0,0,-1,811,1030,0,0
-406,-6,0,0,0,0,0,0,0,0,0,-1,818,1030,0,0
-399,-6,0,0,0,0,0,0,0,0,0,-1,825,1030,0,0
-392,-6,0,0,0,0,0,0,0,0,0,-1,832,1030,0,0
-385,-6,0,0,0,0,0,0,0,0,0,-1,839,1030,0,0
-378,-6,0,0,0,0,0,0,0,0,0,-1,846,1030,0,0
-371,-6,0,0,0,0,0,0,0,0,0,-1,853,1030,0,0
-364,-6,0,0,0,0,0,0,0,0,0,-1,860,1030,0,0
-357,-6,0,0,0,0,0,0,0,0,0,-1,867,1030,0,0
-350,-6,0,0,0,0,0,0,0,0,0,-1,874,1030,0,0
-343,-6,0,0,0,0,0,0,0,0,0,-1,881,1030,0,0
-336,-6,0,0,0,0,0,0,0,0,0,-1,888,1030,0,0
-329,-6,0,0,0,0,0,0,0,0,0,-1,895,1030,0,0
-322,-6,0,0,0,0,0,0,0,0,0,-1,902,1030,0,0
-315,-6,0,0,0,0,0,0,0,0,0,-1,909,1030,0,0
-308,-6,0,0,0,0,0,0,0,0,0,-1,916,1030,0,0
-301,-6,0,0,0,0,0,0,0,0,0,-1,923,1030,0,0
-294,-6,0,0,0,0,0,0,0,0,0,-1,930,1030,0,0
-287,-6,0,0,0,0,0,0,0,0,0,-1,937,1030,0,0
-280,-6,0,0,0,0,0,0,0,0,0,-1,944,1030,0,0
-273,-6,0,0,0,0,0,0,0,0,0,-1,951,1030,0,0
-266,-6,0,0,0,0,0,0,0,0,0,-1,958,1030,0,0
-259,-6,0,0,0,0,0,0,0,0,0,-1,965,1030,0,0
-252,-6,0,0,0,0,0,0,0,0,0,-1,972,1030,0,0
-245,-6,0,0,0,0,0,0,0,0,0,-1,979,1030,0,0
-238,-6,0,0,0,0,0,0,0,0,0,-1,986,1030,0,0
-231,-6,0,0,0,0,0,0,0,0,0,-1,993,1030,0,0
-224,-6,0,0,0,0,0,0,0,0,0,-1,1000,1030,0,0
-217,-6,0,0,0,0,0,0,0,0,0,-1,1007,1030,0,0
-210,-6,0,0,0,0,0,0,0,0,0,-1,1014,1030,0,0
-203,-6,0,0,0,0,0,0,0,0,0,-1,1021,1030,0,0
-196,-6,0,0,0,0,0,0,0,0,0,-1,1028,1030,0,0
-189,-6,0,0,0,0,0,0,0,0,0,-1,1035,1030,0,0
-182,-6,0,0,0,0,0,0,0,0,0,-1,1042,1030,0,0
-175,-6,0,0,0,0,0,0,0,0,0,-1,1049,1030,0,0
-168,-6,0,0,0,0,0,0,0,0,0,-1,1056,1030,0,0
-161,-6,0,0,0,0,0,0,0,0,0,-1,1063,1030,0,0
-154,-6,0,0,0,0,0,0,0,0,0,-1,1070,1030,0,0
-147,-6,0,0,0,0,0,0,0,0,0,-1,1077,1030,0,0
-140,-6,0,0,0,0,0,0,0,0,0,-1,1084,1030,0,0
-133,-6,0,0,0,0,0,0,0,0,0,-1,1091,1030,0,0
-126,-6,0,0,0,0,0,0,0,0,0,-1,1098,1030,0,0
-119,-6,0,0,0,0,0,0,0,0,0,-1,1105,1030,0,0
-112,-6,0,0,0,0,0,0,0,0,0,-1,1112,1030,0,0
-105,-6,0,0,0,0,0,0,0,0,0,-1,1119,1030,0,0
-98,-6,0,0,0,0,0,0,0,0,0,-1,1126,1030,0,0
-91,-6,0,0,0,0,0,0,0,0,0,-1,1133,1030,0,0
-84,-6,0,0,0,0,0,0,0,0,0,-1,1140,1030,0,0
-77,-6,0,0,0,0,0,0,0,0,0,-1,1147,1030,0,0
-70,-6,0,0,0,0,0,0,0,0,0,-1,1154,1030,0,0
-63,-6,0,0,0,0,0,0,0,0,0,-1,1161,1030,0,0
-56,-6,0,0,0,0,0,0,0,0,0,-1,1168,1030,0,0
-49,-6,0,0,0,0,0,0,0,0,0,-1,1175,1030,0,0
-42,-6,0,0,0,0,0,0,0,0,0,-1,1182,1030,0,0
-35,-6,0,0,0,0,0,0,0,0,0,-1,1189,1030,0,0
-28,-6,0,0,0,0,0,0,0,0,0,-1,1196,1030,0,0
-21,-6,0,0,0,0,0,0,0,0,0,-1,1203,1030,0,0
-14,-6,0,0,0,0,0,0,0,0,0,-1,1210,1030,0,0
-7,-6,0,0,0,0,0,0,0,0,0,-1,1217,1030,0,0
0,-6,0,0,0,0,0,0,0,0,0,-1,1224,1030,0,0
7,-6,0,0,0,0,0,0,0,0,0,-1,1231,1030,0,0
14,-6,0,0,0,0,0,0,0,0,0,-1,1238,1030,0,0
21,-6,0,0,0,0,0,0,0,0,0,-1,1245,1030,0,0
28,-6,0,0,0,0,0,0,0,0,0,-1,1252,1030,0,0
35,-6,0,0,0,0,0,0,0,0,0,-1,1259,1030,0,0
42,-6,0,0,0,0,0,0,0,0,0,-1,1266,1030,0,0
49,-6,0,0,0,0,0,0,0,0,0,-1,1273,1030,0,0
56,-6,0,0,0,0,0,0,0,0,0,-1,1280,1030,0,0
63,-6,0,0,0,0,0,0,0,0,0,-1,1287,1030,0,0
70,-6,0,0,0,0,0,0,0,0,0,-1,1294,1030,0,0
77,-6,0,0,0,0,0,0,0,0,0,-1,1301,1030,0,0
84,-6,0,0,0,0,0,0,0,0,0,-1,1308,1030,0,0
91,-6,0,0,0,0,0,0,0,0,0,-1,1315,1030,0,0
98,-6,0,0,0,0,0,0,0,0,0,-1,1322,1030,0,0
105,-6,0,0,0,0,0,0,0,0,0,-1,1329,1030,0,0
112,-6,0,0,0,0,0,0,0,0,0,-1,1336,1030,0,0
119,-6,0,0,0,0,0,0,0,0,0,-1,1343,1030,0,0
126,-6,0,0,0,0,0,0,0,0,0,-1,1350,1030,0,0
133,-6,0,0,0,0,0,0,0,0,0,-1,1357,1030,0,0
140,-6,0,0,0,0,0,0,0,0,0,-1,1364,1030,0,0
147,-6,0,0,0,0,0,0,0,0,0,-1,1371,1030,0,0
154,-6,0,0,0,0,0,0,0,0,0,-1,1378,1030,0,0
161,-6,0,0,0,0,0,0,0,0,0,-1,1385,1030,0,0
168,-6,0,0,0,0,0,0,0,0,0,-1,1392,1030,0,0
175,-6,0,0,0,0,0,0,0,0,0,-1,1399,1030,0,0
182,-6,0,0,0,0,0,0,0,0,0,-1,1406,1030,0,0
189,-6,0,0,0,0,0,0,0,0,0,-1,1413,1030,0,0
196,-6,0,0,0,0,0,0,0,0,0,-1,1420,1030,0,0
203,-6,0,0,0,0,0,0,0,0,0,-1,1427,1030,0,0
210,-6,0,0,0,0,0,0,0,0,0,-1,1434,1030,0,0
217,-6,0,0,0,0,0,0,0,0,0,-1,1441,1030,0,0
224,-6,0,0,0,0,0,0,0,0,0,-1,1448,1030,0,0
231,-6,0,0,0,0,0,0,0,0,0,-1,1455,1030,0,0
238,-6,0,0,0,0,0,0,0,0,0,-1,1462,1030,0,0
245,-6,0,0,0,0,0,0,0,0,0,-1,1469,1030,0,0
252,-6,0,0,0,0,0,0,0,0,0,-1,1476,1030,0,0
259,-6,0,0,0,0,0,0,0,0,0,-1,1483,1030,0,0
266,-6,0,0,0,0,0,0,0,0,0,-1,1490,1030,0,0
273,-6,0,0,0,0,0,0,0,0,0,-1,1497,1030,0,0
280,-6,0,0,0,0,0,0,0,0,0,-1,1504,1030,0,0
287,-6,0,0,0,0,0,0,0,0,0,-1,1511,1030,0,0
294,-6,0,0,0,0,0,0,0,0,0,-1,1518,1030,0,0
301,-6,0,0,0,0,0,0,0,0,0,-1,1525,1030,0,0
308,-6,0,0,0,0,0,0,0,0,0,-1,1532,1030,0,0
315,-6,0,0,0,0,0,0,0,0,0,-1,1539,1030,0,0
322,-6,0,0,0,0,0,0,0,0,0,-1,1546,1030,0,0
329,-6,0,0,0,0,0,0,0,0,0,-1,1553,1030,0,0
336,-6,0,0,0,0,0,0,0,0,0,-1,1560,1030,0,0
343,-6,0,0,0,0,0,0,0,0,0,-1,1567,1030,0,0
350,-6,0,0,0,0,0,0,0,0,0,-1,1574,1030,0,0
357,-6,0,0,0,0,0,0,0,0,0,-1,1581,1030,0,0
364,-6,0,0,0,0,0,0,0,0,0,-1,1588,1030,0,0
371,-6,0,0,0,0,0,0,0,0,0,-1,1595,1030,0,0
378,-6,0,0,0,0,0,0,0,0,0,-1,1602,1030,0,0
385,-6,0,0,0,0,0,0,0,0,0,-1,1609,1030,0,0
392,-6,0,0,0,0,0,0,0,0,0,-1,1616,1030,0,0
399,-6,0,0,0,0,0,0,0,0,0,-1,1623,1030,0,0
406,-6,0,0,0,0,0,0,0,0,0,-1,1630,1030,0,0
413,-6,0,0,0,0,0,0,0,0,0,-1,1637,1030,0,0
420,-6,0,0,0,0,0,0,0,0,0,-1,1644,1030,0,0
427,-6,0,0,0,0,0,0,0,0,0,-1,1651,1030,0,0
434,-6,0,0,0,0,0,0,0,0,0,-1,1658,1030,0,0
441,-6,0,0,0,0,0,0,0,0,0,-1,1665,1030,0,0
448,-6,0,0,0,0,0,0,0,0,0,-1,1672,1030,0,0
455,-6,0,0,0,0,0,0,0,0,0,-1,1679,1030,0,0
462,-6,0,0,0,0,0,0,0,0,0,-1,1686,1030,0,0
469,-6,0,0,0,0,0,0,0,0,0,-1,1693,1030,0,0
476,-6,0,0,0,0,0,0,0,0,0,-1,1700,1030,0,0
483,-6,0,0,0,0,0,0,0,0,0,-1,1707,1030,0,0
490,-6,0,0,0,0,0,0,0,0,0,-1,1714,1030,0,0
497,-6,0,0,0,0,0,0,0,0,0,-1,1721,1030,0,0
504,-6,0,0,0,0,0,0,0,0,0,-1,1728,1030,0,0
511,-6,0,0,0,0,0,0,0,0,0,-1,1735,1030,0,0
518,-6,0,0,0,0,0,0,0,0,0,-1,1742,1030,0,0
525,-6,0,0,0,0,0,0,0,0,0,-1,1749,1030,0,0
532,-6,0,0,0,0,0,0,0,0,0,-1,1756,1030,0,0
539,-6,0,0,0,0,0,0,0,0,0,-1,1763,1030,0,0
546,-6,0,0,0,0,0,0,0,0,0,-1,1770,1030,0,0
553,-6,0,0,0,0,0,0,0,0,0,-1,1777,1030,0,0
560,-6,0,0,0,0,0,0,0,0,0,-1,1784,1030,0,0
567,-6,0,0,0,0,0,0,0,0,0,-1,1791,1030,0,0
574,-6,0,0,0,0,0,0,0,0,0,-1,1798,1030,0,0
581,-6,0,0,0,0,0,0,0,0,0,-1,1805,1030,0,0
588,-6,0,0,0,0,0,0,0,0,0,-1,1812,1030,0,0
595,-6,0,0,0,0,0,0,0,0,0,-1,1819,1030,0,0
602,-6,0,0,0,0,0,0,0,0,0,-1,1826,1030,0,0
609,-6,0,0,0,0,0,0,0,0,0,-1,1833,1030,0,0
616,-6,0,0,0,0,0,0,0,0,0,-1,1840,1030,0,0
623,-6,0,0,0,0,0,0,0,0,0,-1,1847,1030,0,0
630,-6,0,0,0,0,0,0,0,0,0,-1,1854,1030,0,0
637,-6,0,0,0,0,0,0,0,0,0,-1,1861,1030,0,0
644,-6,0,0,0,0,0,0,0,0,0,-1,1868,1030,0,0
651,-6,78.7056,2.61548,0,0,0,0,0,0,0,-1,1875,1030,78.7056,-2.61548
658,-6,78.8453,2.65161,0,0,0,0,0,0,0,-1,1882,1030,78.8454,-2.65156
665,-6,78.8308,2.45215,-0.00307848,-0.00266888,-0.00123377,-0.00162303,-0.00412433,-0.867647,0.00239911,0.0433932,1889,1030,78.8309,-2.45221
672,-6,78.8154,2.37,-0.00219852,-0.00190161,-0.000724613,-0.0013104,-0.00278973,-0.886435,0.00161164,0.0427222,1896,1030,78.8155,-2.36997
679,-6,78.6945,2.46692,-0.0013382,-0.0012162,-0.000294629,-0.000976322,-0.00157808,-0.887476,0.000919619,0.0422609,1903,1030,78.6945,-2.46696
686,-6,78.5917,2.37317,-0.000942857,-0.000931944,2.85958e-05,-0.000908288,-0.000966512,0.879672,0.000625837,0.0390852,1910,1030,78.5917,-2.37314
693,-6,78.7115,2.3634,-0.000726985,-0.00078983,0.000238893,-0.000517457,-0.000999358,0.720008,0.000577102,0.037721,1917,1030,78.7115,-2.36339
700,-6,78.7963,2.40332,-0.000645089,-0.000678607,0.000409053,-0.000252452,-0.00107124,0.764925,0.000646652,0.0321917,1924,1030,78.7962,-2.40337
707,-6,78.8059,2.32593,-0.0014126,-7.61461e-05,0.000470049,7.2617e-05,-0.00156136,1.26429,0.00106594,0.0260508,1931,1030,78.8059,-2.32598
714,-6,78.8425,2.16687,-0.00262748,0.00111548,0.000462164,0.0011717,-0.00268371,1.44974,0.00228227,0.033853,1938,1030,78.8426,-2.16687
721,-6,78.8804,2.04614,0,0,0,0,0,0,0,-1,1945,1030,78.8804,-2.04612
728,-6,53.1713,6.25494,0,0,0,0,0,0,0,-1,1952,1030,53.1713,-6.25495
735,-6,78.4772,7.47345,0,0,0,0,0,0,0,-1,1959,1030,78.4772,-7.47343
742,-6,79.1222,7.99689,0,0,0,0,0,0,0,-1,1966,1030,79.1222,-7.99687
749,-6,79.1558,7.38702,0,0,0,0,0,0,0,-1,1973,1030,79.1557,-7.387
756,-6,79.1687,7.47461,-0.0119093,0.0144302,-0.00103023,0.0144705,-0.0119495,-1.53176,0.0152767,0.0404944,1980,1030,79.1686,-7.4746
763,-6,78.9519,7.32843,-0.0130553,0.0187253,-0.00188624,0.0188368,-0.0131669,-1.51172,0.0185738,0.0234276,1987,1030,78.9518,-7.32841
770,-6,78.8474,7.21533,-0.0130086,0.0242236,-0.00317405,0.0244923,-0.0132772,-1.48636,0.0221244,0.0205883,1994,1030,78.8474,-7.21534
777,-6,78.6641,7.14044,-0.0113671,0.0306384,-0.00503932,0.0312345,-0.0119632,-1.45305,0.0257542,0.0210582,2001,1030,78.6639,-7.14044
784,-6,78.5356,6.90277,-0.00855191,0.0370889,-0.00739105,0.038256,-0.00971896,-1.41419,0.0292862,0.0438149,2008,1030,78.5358,-6.90277
791,-6,78.4619,6.53754,-0.00446698,0.0436344,-0.0107129,0.0459125,-0.00674501,-1.36127,0.0330866,0.0450705,2015,1030,78.4618,-6.53751
798,-6,78.2778,6.28857,0,0,0,0,0,0,0,-1,2022,1030,78.2779,-6.2886
805,-6,78.1387,6.07941,0,0,0,0,0,0,0,-1,2029,1030,78.1388,-6.07939
812,-6,79.2561,6.67358,0,0,0,0,0,0,0,-1,2036,1030,79.2561,-6.67357
-700,-13,0,0,0,0,0,0,0,0,0,-1,524,1037,0,0
-693,-13,-65.4355,-0.887085,0.0664498,0.00356414,0.0346159,0.0817714,-0.0117575,0.416698,0.0588264,0.0450708,531,1037,-65.4355,0.887039
-686,-13,-65.7141,-1.07092,0.063643,0.0105665,0.033779,0.0800617,-0.00585221,0.452435,0.0554283,0.0459058,538,1037,-65.714,1.07093
-679,-13,-65.352,-0.442383,0,0,0,0,0,0,0,-1,545,1037,-65.352,0.44243
-672,-13,-64.9856,0.176514,0,0,0,0,0,0,0,-1,552,1037,-64.9856,-0.17656
-665,-13,-63.8863,5.58044,0,0,0,0,0,0,0,-1,559,1037,-63.8863,-5.58049
-658,-13,-63.2672,5.51941,0,0,0,0,0,0,0,-1,566,1037,-63.2673,-5.51942
-651,-13,-63.1693,5.83679,0.0258367,0.0258346,0.0175254,0.0433611,0.00831025,0.785368,0.0265741,0.046057,573,1037,-63.1693,-5.83683
-644,-13,-63.0551,6.28845,0.0186762,0.0248984,0.0135777,0.0357169,0.00785773,0.89802,0.0216722,0.0403907,580,1037,-63.0551,-6.2885
-637,-13,-63.1964,6.42737,0.0116247,0.0242542,0.0102128,0.0299469,0.00593211,1.06229,0.0183104,0.0304816,587,1037,-63.1964,-6.42736
-630,-13,-63.388,6.47937,0.0048083,0.0218997,0.00650369,0.024093,0.00261495,1.24553,0.0152652,0.0185815,594,1037,-63.388,-6.47941
-623,-13,-63.4484,6.67639,0.000676059,0.0153478,0.00298804,0.015933,9.08589e-05,1.3774,0.0105919,0.0162401,601,1037,-63.4484,-6.67636
-616,-13,-63.4433,6.86877,-0.00147064,0.00909547,0.000917275,0.00917451,-0.00154968,1.48484,0.00669297,0.0148881,608,1037,-63.4433,-6.86872
-609,-13,-63.4365,7.03882,-0.00222921,0.00465864,-0.000547145,0.00470184,-0.0022724,-1.49202,0.0041072,0.0187063,615,1037,-63.4366,-7.03877
-602,-13,-63.3649,7.15222,-0.00230104,0.00118499,-0.00102998,0.00146656,-0.00258262,-1.30394,0.00236721,0.0139467,622,1037,-63.3649,-7.15227
-595,-13,-63.3864,7.24597,0,0,0,0,0,0,0,-1,629,1037,-63.3864,-7.246
-588,-13,-62.4169,0.640259,0,0,0,0,0,0,0,-1,636,1037,-62.4169,-0.640238
-581,-13,-62.5356,0.462402,-0.000705391,-0.00299035,-0.00130447,-0.00011383,-0.00358191,-0.425751,0.00235091,0.0270087,643,1037,-62.5356,-0.462439
-574,-13,-62.6099,0.644287,-0.000169988,-0.00345705,-0.00136323,0.000321803,-0.00394884,-0.346222,0.00274612,0.031241,650,1037,-62.6099,-0.644281
-567,-13,-62.7004,0.833374,0.000294106,-0.00325076,-0.00138445,0.000770719,-0.00372737,-0.331555,0.0027777,0.0380149,657,1037,-62.7004,-0.83333
-560,-13,-62.6044,0.71814,0.000856861,-0.0024404,-0.00144225,0.00139868,-0.00298222,-0.359364,0.00258381,0.0433427,664,1037,-62.6045,-0.718105
-553,-13,-62.5106,0.584839,0.00150283,-0.00120874,-0.00160276,0.00224633,-0.00195224,-0.434341,0.00242603,0.0441973,671,1037,-62.5106,-0.584803
-546,-13,-62.5932,0.563232,0.00246463,9.23646e-05,-0.00193894,0.00355147,-0.00099447,-0.510893,0.00275953,0.0402698,678,1037,-62.5932,-0.563253
-539,-13,-62.4311,0.782227,0.00345743,0.00117587,-0.00250321,0.00506754,-0.000434244,-0.571595,0.00353202,0.0396243,685,1037,-62.4311,-0.782224
-532,-13,-62.3715,0.572021,0.00441407,0.00242759,-0.002826,0.00641629,0.000425368,-0.616408,0.00414302,0.0399668,692,1037,-62.3715,-0.572078
-525,-13,0,0,0,0,0,0,0,0,0,-1,699,1037,0,0
-518,-13,0,0,0,0,0,0,0,0,0,-1,706,1037,0,0
-511,-13,0,0,0,0,0,0,0,0,0,-1,713,1037,0,0
-504,-13,0,0,0,0,0,0,0,0,0,-1,720,1037,0,0
-497,-13,0,0,0,0,0,0,0,0,0,-1,727,1037,0,0
-490,-13,0,0,0,0,0,0,0,0,0,-1,734,1037,0,0
-483,-13,0,0,0,0,0,0,0,0,0,-1,741,1037,0,0
-476,-13,0,0,0,0,0,0,0,0,0,-1,748,1037,0,0
-469,-13,0,0,0,0,0,0,0,0,0,-1,755,1037,0,0
-462,-13,0,0,0,0,0,0,0,0,0,-1,762,1037,0,0
-455,-13,0,0,0,0,0,0,0,0,0,-1,769,1037,0,0
-448,-13,0,0,0,0,0,0,0,0,0,-1,776,1037,0,0
-441,-13,0,0,0,0,0,0,0,0,0,-1,783,1037,0,0
-434,-13,0,0,0,0,0,0,0,0,0,-1,790,1037,0,0
-427,-13,0,0,0,0,0,0,0,0,0,-1,797,1037,0,0
-420,-13,0,0,0,0,0,0,0,0,0,-1,804,1037,0,0
-413,-13,0,0,0,0,0,0,0,0,0,-1,811,1037,0,0
-406,-13,0,0,0,0,0,0,0,0,0,-1,818,1037,0,0
-399,-13,0,0,0,0,0,0,0,0,0,-1,825,1037,0,0
-392,-13,0,0,0,0,0,0,0,0,0,-1,832,1037,0,0
-385,-13,0,0,0,0,0,0,0,0,0,-1,839,1037,0,0
-378,-13,0,0,0,0,0,0,0,0,0,-1,846,1037,0,0
-371,-13,0,0,0,0,0,0,0,0,0,-1,853,1037,0,0
-364,-13,0,0,0,0,0,0,0,0,0,-1,860,1037,0,0
-357,-13,0,0,0,0,0,0,0,0,0,-1,867,1037,0,0
-350,-13,0,0,0,0,0,0,0,0,0,-1,874,1037,0,0
-343,-13,0,0,0,0,0,0,0,0,0,-1,881,1037,0,0
-336,-13,0,0,0,0,0,0,0,0,0,-1,888,1037,0,0
-329,-13,0,0,0,0,0,0,0,0,0,-1,895,1037,0,0
-322,-13,0,0,0,0,0,0,0,0,0,-1,902,1037,0,0
-315,-13,0,0,0,0,0,0,0,0,0,-1,909,1037,0,0
-308,-13,0,0,0,0,0,0,0,0,0,-1,916,1037,0,0
-301,-13,0,0,0,0,0,0,0,0,0,-1,923,1037,0,0
-294,-13,0,0,0,0,0,0,0,0,0,-1,930,1037,0,0
-287,-13,0,0,0,0,0,0,0,0,0,-1,937,1037,0,0
-280,-13,0,0,0,0,0,0,0,0,0,-1,944,1037,0,0
-273,-13,0,0,0,0,0,0,0,0,0,-1,951,1037,0,0
-266,-13,0,0,0,0,0,0,0,0,0,-1,958,1037,0,0
-259,-13,0,0,0,0,0,0,0,0,0,-1,965,1037,0,0
-252,-13,0,0,0,0,0,0,0,0,0,-1,972,1037,0,0
-245,-13,0,0,0,0,0,0,0,0,0,-1,979,1037,0,0
-238,-13,0,0,0,0,0,0,0,0,0,-1,986,1037,0,0
-231,-13,0,0,0,0,0,0,0,0,0,-1,993,1037,0,0
-224,-13,0,0,0,0,0,0,0,0,0,-1,1000,1037,0,0
-217,-13,0,0,0,0,0,0,0,0,0,-1,1007,1037,0,0
-210,-13,0,0,0,0,0,0,0,0,0,-1,1014,1037,0,0
-203,-13,0,0,0,0,0,0,0,0,0,-1,1021,1037,0,0
-196,-13,0,0,0,0,0,0,0,0,0,-1,1028,1037,0,0
-189,-13,0,0,0,0,0,0,0,0,0,-1,1035,1037,0,0
-182,-13,0,0,0,0,0,0,0,0,0,-1,1042,1037,0,0
-175,-13,0,0,0,0,0,0,0,0,0,-1,1049,1037,0,0
-168,-13,0,0,0,0,0,0,0,0,0,-1,1056,1037,0,0
-161,-13,0,0,0,0,0,0,0,0,0,-1,1063,1037,0,0
-154,-13,0,0,0,0,0,0,0,0,0,-1,1070,1037,0,0
-147,-13,0,0,0,0,0,0,0,0,0,-1,1077,1037,0,0
-140,-13,0,0,0,0,0,0,0,0,0,-1,1084,1037,0,0
-133,-13,0,0,0,0,0,0,0,0,0,-1,1091,1037,0,0
-126,-13,0,0,0,0,0,0,0,0,0,-1,1098,1037,0,0
-119,-13,0,0,0,0,0,0,0,0,0,-1,1105,1037,0,0
-112,-13,0,0,0,0,0,0,0,0,0,-1,1112,1037,0,0
-105,-13,0,0,0,0,0,0,0,0,0,-1,1119,1037,0,0
-98,-13,0,0,0,0,0,0,0,0,0,-1,1126,1037,0,0
-91,-13,0,0,0,0,0,0,0,0,0,-1,1133,1037,0,0
-84,-13,0,0,0,0,0,0,0,0,0,-1,1140,1037,0,0
-77,-13,0,0,0,0,0,0,0,0,0,-1,1147,1037,0,0
-70,-13,0,0,0,0,0,0,0,0,0,-1,1154,1037,0,0
-63,-13,0,0,0,0,0,0,0,0,0,-1,1161,1037,0,0
-56,-13,0,0,0,0,0,0,0,0,0,-1,1168,1037,0,0
-49,-13,0,0,0,0,0,0,0,0,0,-1,1175,1037,0,0
-42,-13,0,0,0,0,0,0,0,0,0,-1,1182,1037,0,0
-35,-13,0,0,0,0,0,0,0,0,0,-1,1189,1037,0,0
-28,-13,0,0,0,0,0,0,0,0,0,-1,1196,1037,0,0
-21,-13,0,0,0,0,0,0,0,0,0,-1,1203,1037,0,0
-14,-13,0,0,0,0,0,0,0,0,0,-1,1210,1037,0,0
-7,-13,0,0,0,0,0,0,0,0,0,-1,1217,1037,0,0
0,-13,0,0,0,0,0,0,0,0,0,-1,1224,1037,0,0
7,-13,0,0,0,0,0,0,0,0,0,-1,1231,1037,0,0
14,-13,0,0,0,0,0,0,0,0,0,-1,1238,1037,0,0
21,-13,0,0,0,0,0,0,0,0,0,-1,1245,1037,0,0
28,-13,0,0,0,0,0,0,0,0,0,-1,1252,1037,0,0
35,-13,0,0,0,0,0,0,0,0,0,-1,1259,1037,0,0
42,-13,0,0,0,0,0,0,0,0,0,-1,1266,1037,0,0
49,-13,0,0,0,0,0,0,0,0,0,-1,1273,1037,0,0
56,-13,0,0,0,0,0,0,0,0,0,-1,1280,1037,0,0
63,-13,0,0,0,0,0,0,0,0,0,-1,1287,1037,0,0
70,-13,0,0,0,0,0,0,0,0,0,-1,1294,1037,0,0
77,-13,0,0,0,0,0,0,0,0,0,-1,1301,1037,0,0
84,-13,0,0,0,0,0,0,0,0,0,-1,1308,1037,0,0
91,-13,0,0,0,0,0,0,0,0,0,-1,1315,1037,0,0
98,-13,0,0,0,0,0,0,0,0,0,-1,1322,1037,0,0
105,-13,0,0,0,0,0,0,0,0,0,-1,1329,1037,0,0
112,-13,0,0,0,0,0,0,0,0,0,-1,1336,1037,0,0
119,-13,0,0,0,0,0,0,0,0,0,-1,1343,1037,0,0
126,-13,0,0,0,0,0,0,0,0,0,-1,1350,1037,0,0
133,-13,0,0,0,0,0,0,0,0,0,-1,1357,1037,0,0
140,-13,0,0,0,0,0,0,0,0,0,-1,1364,1037,0,0
147,-13,0,0,0,0,0,0,0,0,0,-1,1371,1037,0,0
154,-13,0,0,0,0,0,0,0,0,0,-1,1378,1037,0,0
161,-13,0,0,0,0,0,0,0,0,0,-1,1385,1037,0,0
168,-13,0,0,0,0,0,0,0,0,0,-1,1392,1037,0,0
175,-13,0,0,0,0,0,0,0,0,0,-1,1399,1037,0,0
182,-13,0,0,0,0,0,0,0,0,0,-1,1406,1037,0,0
189,-13,0,0,0,0,0,0,0,0,0,-1,1413,1037,0,0
196,-13,0,0,0,0,0,0,0,0,0,-1,1420,1037,0,0
203,-13,0,0,0,0,0,0,0,0,0,-1,1427,1037,0,0
210,-13,0,0,0,0,0,0,0,0,0,-1,1434,1037,0,0
217,-13,0,0,0,0,0,0,0,0,0,-1,1441,1037,0,0
224,-13,0,0,0,0,0,0,0,0,0,-1,1448,1037,0,0
231,-13,0,0,0,0,0,0,0,0,0,-1,1455,1037,0,0
238,-13,0,0,0,0,0,0,0,0,0,-1,1462,1037,0,0
245,-13,0,0,0,0,0,0,0,0,0,-1,1469,1037,0,0
252,-13,0,0,0,0,0,0,0,0,0,-1,1476,1037,0,0
259,-13,0,0,0,0,0,0,0,0,0,-1,1483,1037,0,0
266,-13,0,0,0,0,0,0,0,0,0,-1,1490,1037,0,0
273,-13,0,0,0,0,0,0,0,0,0,-1,1497,1037,0,0
280,-13,0,0,0,0,0,0,0,0,0,-1,1504,1037,0,0
287,-13,0,0,0,0,0,0,0,0,0,-1,1511,1037,0,0
294,-13,0,0,0,0,0,0,0,0,0,-1,1518,1037,0,0
301,-13,0,0,0,0,0,0,0,0,0,-1,1525,1037,0,0
308,-13,0,0,0,0,0,0,0,0,0,-1,1532,1037,0,0
315,-13,0,0,0,0,0,0,0,0,0,-1,1539,1037,0,0
322,-13,0,0,0,0,0,0,0,0,0,-1,1546,1037,0,0
329,-13,0,0,0,0,0,0,0,0,0,-1,1553,1037,0,0
336,-13,0,0,0,0,0,0,0,0,0,-1,1560,1037,0,0
343,-13,0,0,0,0,0,0,0,0,0,-1,1567,1037,0,0
350,-13,0,0,0,0,0,0,0,0,0,-1,1574,1037,0,0
357,-13,0,0,0,0,0,0,0,0,0,-1,1581,1037,0,0
364,-13,0,0,0,0,0,0,0,0,0,-1,1588,1037,0,0
371,-13,0,0,0,0,0,0,0,0,0,-1,1595,1037,0,0
378,-13,0,0,0,0,0,0,0,0,0,-1,1602,1037,0,0
385,-13,0,0,0,0,0,0,0,0,0,-1,1609,1037,0,0
392,-13,0,0,0,0,0,0,0,0,0,-1,1616,1037,0,0
399,-13,0,0,0,0,0,0,0,0,0,-1,1623,1037,0,0
406,-13,0,0,0,0,0,0,0,0,0,-1,1630,1037,0,0
413,-13,0,0,0,0,0,0,0,0,0,-1,1637,1037,0,0
420,-13,0,0,0,0,0,0,0,0,0,-1,1644,1037,0,0
427,-13,0,0,0,0,0,0,0,0,0,-1,1651,1037,0,0
434,-13,0,0,0,0,0,0,0,0,0,-1,1658,1037,0,0
441,-13,0,0,0,0,0,0,0,0,0,-1,1665,1037,0,0
448,-13,0,0,0,0,0,0,0,0,0,-1,1672,1037,0,0
455,-13,0,0,0,0,0,0,0,0,0,-1,1679,1037,0,0
462,-13,0,0,0,0,0,0,0,0,0,-1,1686,1037,0,0
469,-13,0,0,0,0,0,0,0,0,0,-1,1693,1037,0,0
476,-13,0,0,0,0,0,0,0,0,0,-1,1700,1037,0,0
483,-13,0,0,0,0,0,0,0,0,0,-1,1707,1037,0,0
490,-13,0,0,0,0,0,0,0,0,0,-1,1714,1037,0,0
497,-13,0,0,0,0,0,0,0,0,0,-1,1721,1037,0,0
504,-13,0,0,0,0,0,0,0,0,0,-1,1728,1037,0,0
511,-13,0,0,0,0,0,0,0,0,0,-1,1735,1037,0,0
518,-13,0,0,0,0,0,0,0,0,0,-1,1742,1037,0,0
525,-13,0,0,0,0,0,0,0,0,0,-1,1749,1037,0,0
532,-13,0,0,0,0,0,0,0,0,0,-1,1756,1037,0,0
539,-13,0,0,0,0,0,0,0,0,0,-1,1763,1037,0,0
546,-13,0,0,0,0,0,0,0,0,0,-1,1770,1037,0,0
553,-13,0,0,0,0,0,0,0,0,0,-1,1777,1037,0,0
560,-13,0,0,0,0,0,0,0,0,0,-1,1784,1037,0,0
567,-13,0,0,0,0,0,0,0,0,0,-1,1791,1037,0,0
574,-13,0,0,0,0,0,0,0,0,0,-1,1798,1037,0,0
581,-13,0,0,0,0,0,0,0,0,0,-1,1805,1037,0,0
588,-13,0,0,0,0,0,0,0,0,0,-1,1812,1037,0,0
595,-13,0,0,0,0,0,0,0,0,0,-1,1819,1037,0,0
602,-13,0,0,0,0,0,0,0,0,0,-1,1826,1037,0,0
609,-13,0,0,0,0,0,0,0,0,0,-1,1833,1037,0,0
616,-13,0,0,0,0,0,0,0,0,0,-1,1840,1037,0,0
623,-13,0,0,0,0,0,0,0,0,0,-1,1847,1037,0,0
630,-13,0,0,0,0,0,0,0,0,0,-1,1854,1037,0,0
637,-13,0,0,0,0,0,0,0,0,0,-1,1861,1037,0,0
644,-13,0,0,0,0,0,0,0,0,0,-1,1868,1037,0,0
651,-13,78.7621,2.46887,-0.00571233,-0.00419591,-0.00199117,-0.00282347,-0.00708476,-0.967314,0.00411837,0.0401615,1875,1037,78.7621,-2.46885
658,-13,78.7805,2.4292,-0.004511,-0.00323568,-0.00137288,-0.0023596,-0.00538708,-1.00281,0.00311819,0.0444625,1882,1037,78.7805,-2.42919
665,-13,78.7892,2.4873,-0.00347676,-0.00245104,-0.000928238,-0.0019034,-0.00402439,-1.03778,0.00232462,0.0428677,1889,1037,78.7892,-2.48735
672,-13,78.8761,2.33984,-0.00252335,-0.00174929,-0.000527833,-0.0014818,-0.00279085,-1.10174,0.00161232,0.0366462,1896,1037,78.8761,-2.33989
679,-13,78.8904,2.39294,-0.00159845,-0.00110075,-0.00017325,-0.00104638,-0.00165282,-1.26671,0.000965456,0.0368016,1903,1037,78.8903,-2.3929
686,-13,78.7576,2.34167,-0.00121307,-0.000846775,0.000119595,-0.000811186,-0.00124866,1.28156,0.000731597,0.0404338,1910,1037,78.7575,-2.34173
693,-13,78.7474,2.39587,-0.00102633,-0.00075393,0.000337275,-0.000526391,-0.00125387,0.977296,0.000727016,0.041177,1917,1037,78.7475,-2.39584
700,-13,78.7985,2.36194,-0.000974589,-0.000670525,0.000563285,-0.000239116,-0.001406,0.917209,0.000868667,0.0373631,1924,1037,78.7985,-2.36192
707,-13,78.8715,2.28857,-0.00173383,-0.000144537,0.000700949,0.000120436,-0.0019988,1.20938,0.00137444,0.0289875,1931,1037,78.8714,-2.2886
714,-13,78.8464,2.45007,-0.00289523,0.000951768,0.000753538,0.0010941,-0.00303756,1.38411,0.00247182,0.0329004,1938,1037,78.8465,-2.45008
721,-13,78.6244,2.6366,0,0,0,0,0,0,0,-1,1945,1037,78.6245,-2.6366
728,-13,78.576,7.60706,0,0,0,0,0,0,0,-1,1952,1037,78.5761,-7.60708
735,-13,78.7148,7.87305,0,0,0,0,0,0,0,-1,1959,1037,78.7149,-7.87299
742,-13,78.868,7.71338,-0.00904587,0.00841527,1.08458e-05,0.00841527,-0.00904588,1.57018,0.0100834,0.0348434,1966,1037,78.8681,-7.71337
749,-13,79.02,7.54419,-0.0105661,0.0108498,-7.00468e-05,0.0108501,-0.0105663,-1.56753,0.0123651,0.0466343,1973,1037,79.0201,-7.54416
756,-13,78.9871,7.40747,-0.0118636,0.0138489,-0.000421784,0.0138558,-0.0118705,-1.5544,0.0148678,0.0246208,1980,1037,78.9871,-7.40749
763,-13,78.9014,7.24097,-0.0128179,0.0180366,-0.00126151,0.0180881,-0.0128694,-1.53,0.0179578,0.0321194,1987,1037,78.9014,-7.24098
770,-13,78.7666,7.10913,-0.0126148,0.023339,-0.00247883,0.0235091,-0.0127849,-1.50228,0.0212571,0.0264155,1994,1037,78.7666,-7.10908
777,-13,78.5254,6.90332,-0.0107355,0.0296928,-0.00429612,0.0301443,-0.011187,-1.46609,0.0246851,0.0190885,2001,1037,78.5255,-6.90335
784,-13,78.4575,6.71802,-0.00778018,0.036148,-0.0066134,0.0371221,-0.00875423,-1.42456,0.028124,0.0375446,2008,1037,78.4576,-6.71803
791,-13,78.4331,6.51904,-0.00360626,0.042835,-0.00988902,0.044853,-0.0056243,-1.36949,0.0319423,0.0449426,2015,1037,78.4332,-6.51899
798,-13,78.3672,6.30005,0,0,0,0,0,0,0,-1,2022,1037,78.3672,-6.30004
805,-13,78.7036,6.6908,0,0,0,0,0,0,0,-1,2029,1037,78.7036,-6.69082
812,-13,78.1807,7.14172,0,0,0,0,0,0,0,-1,2036,1037,78.1806,-7.1417
-700,-20,-65.5833,-2.37329,0,0,0,0,0,0,0,-1,524,1044,-65.5833,2.37333
-693,-20,-65.5272,-1.79138,0.0665568,0.0148731,0.0376883,0.0864118,-0.00498193,0.484875,0.0593383,0.04472,531,1044,-65.5272,1.79141
-686,-20,-65.1532,-1.19043,0.0647305,0.0206376,0.0366563,0.0854594,-9.12771e-05,0.514661,0.0570034,0.0464068,538,1044,-65.1532,1.19043
-679,-20,-64.6298,-0.25647,0,0,0,0,0,0,0,-1,545,1044,-64.6298,0.256437
-672,-20,-64.5747,4.54907,0,0,0,0,0,0,0,-1,552,1044,-64.5747,-4.54907
-665,-20,-63.9308,5.25342,0,0,0,0,0,0,0,-1,559,1044,-63.9307,-5.25337
-658,-20,-63.3863,5.69885,0.035347,0.0300624,0.0226456,0.055504,0.00990549,0.727321,0.0341826,0.0491926,566,1044,-63.3863,-5.69881
-651,-20,-63.0051,5.74133,0.0278181,0.0291634,0.0185777,0.0470805,0.00990089,0.803494,0.0286625,0.0460544,573,1044,-63.0051,-5.74137
-644,-20,-62.8834,5.8595,0.0206591,0.0270782,0.0142662,0.0384915,0.00924583,0.896043,0.0232015,0.0316495,580,1044,-62.8834,-5.85949
-637,-20,-62.9811,6.02283,0.0136002,0.0250913,0.0104828,0.0312998,0.00739161,1.03609,0.018891,0.0211022,587,1044,-62.9811,-6.02281
-630,-20,-63.1053,6.32227,0.00699686,0.0217207,0.00665202,0.0242808,0.00443672,1.2034,0.0149297,0.0176931,594,1044,-63.1053,-6.32229
-623,-20,-63.1968,6.61072,0.00254008,0.0150745,0.00295773,0.0157374,0.00187721,1.35032,0.00992518,0.0161615,601,1044,-63.1968,-6.61073
-616,-20,-63.2158,6.84558,3.03928e-05,0.00888259,0.000639404,0.00892853,-1.55536e-05,1.49906,0.00595755,0.0151645,608,1044,-63.2157,-6.84558
-609,-20,-63.2337,7.0675,-0.000954956,0.0045272,-0.000992836,0.00470146,-0.00112922,-1.39704,0.00357074,0.0167789,615,1044,-63.2337,-7.06749
-602,-20,-63.191,7.20605,-0.00118516,0.00106888,-0.00150701,0.00182368,-0.00193997,-1.10646,0.00217329,0.0147991,622,1044,-63.191,-7.20604
-595,-20,-63.2226,7.37158,0,0,0,0,0,0,0,-1,629,1044,-63.2226,-7.37154
-588,-20,-62.4683,0.550781,0,0,0,0,0,0,0,-1,636,1044,-62.4683,-0.550742
-581,-20,-62.5357,0.460205,7.65083e-05,-0.00278691,-0.0018279,0.000966651,-0.00367706,-0.453174,0.00282918,0.0354724,643,1044,-62.5357,-0.460241
-574,-20,-62.541,0.697998,0.000484559,-0.00315982,-0.00190821,0.00130086,-0.00397612,-0.404227,0.0031745,0.0373971,650,1044,-62.541,-0.697985
-567,-20,-62.6093,1.01611,0.000780435,-0.00290076,-0.00198102,0.00164396,-0.00376428,-0.411064,0.00320144,0.0426687,657,1044,-62.6093,-1.01615
-560,-20,-62.4515,1.15356,0.00113427,-0.00207457,-0.00211371,0.00218352,-0.00312382,-0.460763,0.00308018,0.0447707,664,1044,-62.4515,-1.15358
-553,-20,-62.3194,0.969482,0.00157748,-0.000872912,-0.00239398,0.00304156,-0.002337,-0.548883,0.00311418,0.0446691,671,1044,-62.3194,-0.969422
-546,-20,-62.567,0.490112,0.0024081,0.000372439,-0.00292529,0.00448757,-0.00170703,-0.617978,0.0036946,0.0388829,678,1044,-62.567,-0.490076
-539,-20,-62.5178,0.400024,0.00350574,0.00134152,-0.00378898,0.0063641,-0.00151684,-0.646304,0.00482843,0.0391984,685,1044,-62.5178,-0.399986
-532,-20,-62.4512,0.399658,0.00461701,0.00249256,-0.00442094,0.00810154,-0.000991976,-0.667497,0.00576023,0.0402107,692,1044,-62.4512,-0.399637
-525,-20,0,0,0,0,0,0,0,0,0,-1,699,1044,0,0
-518,-20,0,0,0,0,0,0,0,0,0,-1,706,1044,0,0
-511,-20,0,0,0,0,0,0,0,0,0,-1,713,1044,0,0
-504,-20,0,0,0,0,0,0,0,0,0,-1,720,1044,0,0
-497,-20,0,0,0,0,0,0,0,0,0,-1,727,1044,0,0
-490,-20,0,0,0,0,0,0,0,0,0,-1,734,1044,0,0
-483,-20,0,0,0,0,0,0,0,0,0,-1,741,1044,0,0
-476,-20,0,0,0,0,0,0,0,0,0,-1,748,1044,0,0
-469,-20,0,0,0,0,0,0,0,0,0,-1,755,1044,0,0
-462,-20,0,0,0,0,0,0,0,0,0,-1,762,1044,0,0
-455,-20,0,0,0,0,0,0,0,0,0,-1,769,1044,0,0
-448,-20,0,0,0,0,0,0,0,0,0,-1,776,1044,0,0
-441,-20,0,0,0,0,0,0,0,0,0,-1,783,1044,0,0
-434,-20,0,0,0,0,0,0,0,0,0,-1,790,1044,0,0
-427,-20,0,0,0,0,0,0,0,0,0,-1,797,1044,0,0
-420,-20,0,0,0,0,0,0,0,0,0,-1,804,1044,0,0
-413,-20,0,0,0,0,0,0,0,0,0,-1,811,1044,0,0
-406,-20,0,0,0,0,0,0,0,0,0,-1,818,1044,0,0
-399,-20,0,0,0,0,0,0,0,0,0,-1,825,1044,0,0
-392,-20,0,0,0,0,0,0,0,0,0,-1,832,1044,0,0
-385,-20,0,0,0,0,0,0,0,0,0,-1,839,1044,0,0
-378,-20,0,0,0,0,0,0,0,0,0,-1,846,1044,0,0
-371,-20,0,0,0,0,0,0,0,0,0,-1,853,1044,0,0
-364,-20,0,0,0,0,0,0,0,0,0,-1,860,1044,0,0
-357,-20,0,0,0,0,0,0,0,0,0,-1,867,1044,0,0
-350,-20,0,0,0,0,0,0,0,0,0,-1,874,1044,0,0
-343,-20,0,0,0,0,0,0,0,0,0,-1,881,1044,0,0
-336,-20,0,0,0,0,0,0,0,0,0,-1,888,1044,0,0
-329,-20,0,0,0,0,0,0,0,0,0,-1,895,1044,0,0
-322,-20,0,0,0,0,0,0,0,0,0,-1,902,1044,0,0
-315,-20,0,0,0,0,0,0,0,0,0,-1,909,1044,0,0
-308,-20,0,0,0,0,0,0,0,0,0,-1,916,1044,0,0
-301,-20,0,0,0,0,0,0,0,0,0,-1,923,1044,0,0
-294,-20,0,0,0,0,0,0,0,0,0,-1,930,1044,0,0
-287,-20,0,0,0,0,0,0,0,0,0,-1,937,1044,0,0
-280,-20,0,0,0,0,0,0,0,0,0,-1,944,1044,0,0
-273,-20,0,0,0,0,0,0,0,0,0,-1,951,1044,0,0
-266,-20,0,0,0,0,0,0,0,0,0,-1,958,1044,0,0
-259,-20,0,0,0,0,0,0,0,0,0,-1,965,1044,0,0
-252,-20,0,0,0,0,0,0,0,0,0,-1,972,1044,0,0
-245,-20,0,0,0,0,0,0,0,0,0,-1,979,1044,0,0
-238,-20,0,0,0,0,0,0,0,0,0,-1,986,1044,0,0
-231,-20,0,0,0,0,0,0,0,0,0,-1,993,1044,0,0
-224,-20,0,0,0,0,0,0,0,0,0,-1,1000,1044,0,0
-217,-20,0,0,0,0,0,0,0,0,0,-1,1007,1044,0,0
-210,-20,0,0,0,0,0,0,0,0,0,-1,1014,1044,0,0
-203,-20,0,0,0,0,0,0,0,0,0,-1,1021,1044,0,0
-196,-20,0,0,0,0,0,0,0,0,0,-1,1028,1044,0,0
-189,-20,0,0,0,0,0,0,0,0,0,-1,1035,1044,0,0
-182,-20,0,0,0,0,0,0,0,0,0,-1,1042,1044,0,0
-175,-20,0,0,0,0,0,0,0,0,0,-1,1049,1044,0,0
-168,-20,0,0,0,0,0,0,0,0,0,-1,1056,1044,0,0
-161,-20,0,0,0,0,0,0,0,0,0,-1,1063,1044,0,0
-154,-20,0,0,0,0,0,0,0,0,0,-1,1070,1044,0,0
-147,-20,0,0,0,0,0,0,0,0,0,-1,1077,1044,0,0
-140,-20,0,0,0,0,0,0,0,0,0,-1,1084,1044,0,0
-133,-20,0,0,0,0,0,0,0,0,0,-1,1091,1044,0,0
-126,-20,0,0,0,0,0,0,0,0,0,-1,1098,1044,0,0
-119,-20,0,0,0,0,0,0,0,0,0,-1,1105,1044,0,0
-112,-20,0,0,0,0,0,0,0,0,0,-1,1112,1044,0,0
-105,-20,0,0,0,0,0,0,0,0,0,-1,1119,1044,0,0
-98,-20,0,0,0,0,0,0,0,0,0,-1,1126,1044,0,0
-91,-20,0,0,0,0,0,0,0,0,0,-1,1133,1044,0,0
-84,-20,0,0,0,0,0,0,0,0,0,-1,1140,1044,0,0
-77,-20,0,0,0,0,0,0,0,0,0,-1,1147,1044,0,0
-70,-20,0,0,0,0,0,0,0,0,0,-1,1154,1044,0,0
-63,-20,0,0,0,0,0,0,0,0,0,-1,1161,1044,0,0
-56,-20,0,0,0,0,0,0,0,0,0,-1,1168,1044,0,0
-49,-20,0,0,0,0,0,0,0,0,0,-1,1175,1044,0,0
-42,-20,0,0,0,0,0,0,0,0,0,-1,1182,1044,0,0
-35,-20,0,0,0,0,0,0,0,0,0,-1,1189,1044,0,0
-28,-20,0,0,0,0,0,0,0,0,0,-1,1196,1044,0,0
-21,-20,0,0,0,0,0,0,0,0,0,-1,1203,1044,0,0
-14,-20,0,0,0,0,0,0,0,0,0,-1,1210,1044,0,0
-7,-20,0,0,0,0,0,0,0,0,0,-1,1217,1044,0,0
0,-20,0,0,0,0,0,0,0,0,0,-1,1224,1044,0,0
7,-20,0,0,0,0,0,0,0,0,0,-1,1231,1044,0,0
14,-20,0,0,0,0,0,0,0,0,0,-1,1238,1044,0,0
21,-20,0,0,0,0,0,0,0,0,0,-1,1245,1044,0,0
28,-20,0,0,0,0,0,0,0,0,0,-1,1252,1044,0,0
35,-20,0,0,0,0,0,0,0,0,0,-1,1259,1044,0,0
42,-20,0,0,0,0,0,0,0,0,0,-1,1266,1044,0,0
49,-20,0,0,0,0,0,0,0,0,0,-1,1273,1044,0,0
56,-20,0,0,0,0,0,0,0,0,0,-1,1280,1044,0,0
63,-20,0,0,0,0,0,0,0,0,0,-1,1287,1044,0,0
70,-20,0,0,0,0,0,0,0,0,0,-1,1294,1044,0,0
77,-20,0,0,0,0,0,0,0,0,0,-1,1301,1044,0,0
84,-20,0,0,0,0,0,0,0,0,0,-1,1308,1044,0,0
91,-20,0,0,0,0,0,0,0,0,0,-1,1315,1044,0,0
98,-20,0,0,0,0,0,0,0,0,0,-1,1322,1044,0,0
105,-20,0,0,0,0,0,0,0,0,0,-1,1329,1044,0,0
112,-20,0,0,0,0,0,0,0,0,0,-1,1336,1044,0,0
119,-20,0,0,0,0,0,0,0,0,0,-1,1343,1044,0,0
126,-20,0,0,0,0,0,0,0,0,0,-1,1350,1044,0,0
133,-20,0,0,0,0,0,0,0,0,0,-1,1357,1044,0,0
140,-20,0,0,0,0,0,0,0,0,0,-1,1364,1044,0,0
147,-20,0,0,0,0,0,0,0,0,0,-1,1371,1044,0,0
154,-20,0,0,0,0,0,0,0,0,0,-1,1378,1044,0,0
161,-20,0,0,0,0,0,0,0,0,0,-1,1385,1044,0,0
168,-20,0,0,0,0,0,0,0,0,0,-1,1392,1044,0,0
175,-20,0,0,0,0,0,0,0,0,0,-1,1399,1044,0,0
182,-20,0,0,0,0,0,0,0,0,0,-1,1406,1044,0,0
189,-20,0,0,0,0,0,0,0,0,0,-1,1413,1044,0,0
196,-20,0,0,0,0,0,0,0,0,0,-1,1420,1044,0,0
203,-20,0,0,0,0,0,0,0,0,0,-1,1427,1044,0,0
210,-20,0,0,0,0,0,0,0,0,0,-1,1434,1044,0,0
217,-20,0,0,0,0,0,0,0,0,0,-1,1441,1044,0,0
224,-20,0,0,0,0,0,0,0,0,0,-1,1448,1044,0,0
231,-20,0,0,0,0,0,0,0,0,0,-1,1455,1044,0,0
238,-20,0,0,0,0,0,0,0,0,0,-1,1462,1044,0,0
245,-20,0,0,0,0,0,0,0,0,0,-1,1469,1044,0,0
252,-20,0,0,0,0,0,0,0,0,0,-1,1476,1044,0,0
259,-20,0,0,0,0,0,0,0,0,0,-1,1483,1044,0,0
266,-20,0,0,0,0,0,0,0,0,0,-1,1490,1044,0,0
273,-20,0,0,0,0,0,0,0,0,0,-1,1497,1044,0,0
280,-20,0,0,0,0,0,0,0,0,0,-1,1504,1044,0,0
287,-20,0,0,0,0,0,0,0,0,0,-1,1511,1044,0,0
294,-20,0,0,0,0,0,0,0,0,0,-1,1518,1044,0,0
301,-20,0,0,0,0,0,0,0,0,0,-1,1525,1044,0,0
308,-20,0,0,0,0,0,0,0,0,0,-1,1532,1044,0,0
315,-20,0,0,0,0,0,0,0,0,0,-1,1539,1044,0,0
322,-20,0,0,0,0,0,0,0,0,0,-1,1546,1044,0,0
329,-20,0,0,0,0,0,0,0,0,0,-1,1553,1044,0,0
336,-20,0,0,0,0,0,0,0,0,0,-1,1560,1044,0,0
343,-20,0,0,0,0,0,0,0,0,0,-1,1567,1044,0,0
350,-20,0,0,0,0,0,0,0,0,0,-1,1574,1044,0,0
357,-20,0,0,0,0,0,0,0,0,0,-1,1581,1044,0,0
364,-20,0,0,0,0,0,0,0,0,0,-1,1588,1044,0,0
371,-20,0,0,0,0,0,0,0,0,0,-1,1595,1044,0,0
378,-20,0,0,0,0,0,0,0,0,0,-1,1602,1044,0,0
385,-20,0,0,0,0,0,0,0,0,0,-1,1609,1044,0,0
392,-20,0,0,0,0,0,0,0,0,0,-1,1616,1044,0,0
399,-20,0,0,0,0,0,0,0,0,0,-1,1623,1044,0,0
406,-20,0,0,0,0,0,0,0,0,0,-1,1630,1044,0,0
413,-20,0,0,0,0,0,0,0,0,0,-1,1637,1044,0,0
420,-20,0,0,0,0,0,0,0,0,0,-1,1644,1044,0,0
427,-20,0,0,0,0,0,0,0,0,0,-1,1651,1044,0,0
434,-20,0,0,0,0,0,0,0,0,0,-1,1658,1044,0,0
441,-20,0,0,0,0,0,0,0,0,0,-1,1665,1044,0,0
448,-20,0,0,0,0,0,0,0,0,0,-1,1672,1044,0,0
455,-20,0,0,0,0,0,0,0,0,0,-1,1679,1044,0,0
462,-20,0,0,0,0,0,0,0,0,0,-1,1686,1044,0,0
469,-20,0,0,0,0,0,0,0,0,0,-1,1693,1044,0,0
476,-20,0,0,0,0,0,0,0,0,0,-1,1700,1044,0,0
483,-20,0,0,0,0,0,0,0,0,0,-1,1707,1044,0,0
490,-20,0,0,0,0,0,0,0,0,0,-1,1714,1044,0,0
497,-20,0,0,0,0,0,0,0,0,0,-1,1721,1044,0,0
504,-20,0,0,0,0,0,0,0,0,0,-1,1728,1044,0,0
511,-20,0,0,0,0,0,0,0,0,0,-1,1735,1044,0,0
518,-20,0,0,0,0,0,0,0,0,0,-1,1742,1044,0,0
525,-20,0,0,0,0,0,0,0,0,0,-1,1749,1044,0,0
532,-20,0,0,0,0,0,0,0,0,0,-1,1756,1044,0,0
539,-20,0,0,0,0,0,0,0,0,0,-1,1763,1044,0,0
546,-20,0,0,0,0,0,0,0,0,0,-1,1770,1044,0,0
553,-20,0,0,0,0,0,0,0,0,0,-1,1777,1044,0,0
560,-20,0,0,0,0,0,0,0,0,0,-1,1784,1044,0,0
567,-20,0,0,0,0,0,0,0,0,0,-1,1791,1044,0,0
574,-20,0,0,0,0,0,0,0,0,0,-1,1798,1044,0,0
581,-20,0,0,0,0,0,0,0,0,0,-1,1805,1044,0,0
588,-20,0,0,0,0,0,0,0,0,0,-1,1812,1044,0,0
595,-20,0,0,0,0,0,0,0,0,0,-1,1819,1044,0,0
602,-20,0,0,0,0,0,0,0,0,0,-1,1826,1044,0,0
609,-20,0,0,0,0,0,0,0,0,0,-1,1833,1044,0,0
616,-20,0,0,0,0,0,0,0,0,0,-1,1840,1044,0,0
623,-20,0,0,0,0,0,0,0,0,0,-1,1847,1044,0,0
630,-20,0,0,0,0,0,0,0,0,0,-1,1854,1044,0,0
637,-20,0,0,0,0,0,0,0,0,0,-1,1861,1044,0,0
644,-20,0,0,0,0,0,0,0,0,0,-1,1868,1044,0,0
651,-20,78.896,2.41907,-0.00635741,-0.00327987,-0.000996904,-0.00298516,-0.00665212,-1.28336,0.00384732,0.0406534,1875,1044,78.896,-2.41902
658,-20,78.8175,2.36609,-0.00501151,-0.00241037,-0.000737089,-0.00221602,-0.00520586,-1.31299,0.00301665,0.0437024,1882,1044,78.8175,-2.3661
665,-20,78.8223,2.36255,-0.00386723,-0.00170727,-0.000533256,-0.00158279,-0.0039917,-1.34147,0.002321,0.0388343,1889,1044,78.8222,-2.36249
672,-20,78.8824,2.36377,-0.00282094,-0.00109296,-0.00029313,-0.00104458,-0.00286931,-1.40725,0.00167689,0.0258219,1896,1044,78.8825,-2.36373
679,-20,78.9172,2.27161,-0.00182143,-0.000520994,-5.92415e-05,-0.000518301,-0.00182412,-1.52537,0.00108538,0.0278002,1903,1044,78.9173,-2.27156
686,-20,78.8762,2.25488,-0.00144572,-0.000360131,0.000172673,-0.000333328,-0.00147252,1.4168,0.000891591,0.0385011,1910,1044,78.8762,-2.25489
693,-20,78.9423,2.26477,-0.00131495,-0.000382189,0.000389232,-0.000241105,-0.00145604,1.22306,0.000901139,0.0431376,1917,1044,78.9423,-2.26483
700,-20,78.9036,2.30493,-0.00131911,-0.000390878,0.0006574,-5.02706e-05,-0.00165971,1.09276,0.0010901,0.0383549,1924,1044,78.9036,-2.30495
707,-20,78.8597,2.29871,-0.00206318,-1.81081e-07,0.000863314,0.000313423,-0.00237678,1.22236,0.00169866,0.0312885,1931,1044,78.8598,-2.29876
714,-20,78.8666,2.47729,-0.00317249,0.000945111,0.000985095,0.00116865,-0.00339603,1.34765,0.00273801,0.0318446,1938,1044,78.8666,-2.47732
721,-20,78.6763,2.58057,0,0,0,0,0,0,0,-1,1945,1044,78.6763,-2.58055
728,-20,79.2262,8.08618,0,0,0,0,0,0,0,-1,1952,1044,79.2262,-8.08613
735,-20,78.9324,7.9303,-0.00779674,0.00591137,0.000722782,0.00594937,-0.00783475,1.51826,0.00798304,0.0368786,1959,1044,78.9324,-7.93025
742,-20,78.6246,7.56787,-0.00921611,0.00776975,0.000485403,0.00778361,-0.00922997,1.54225,0.00983462,0.0401849,1966,1044,78.6246,-7.56783
749,-20,78.8069,7.46729,-0.0106126,0.0100683,0.000485146,0.0100797,-0.010624,1.54735,0.0119546,0.04051,1973,1044,78.8069,-7.46724
756,-20,78.8015,7.3595,-0.0117339,0.0128952,0.00015957,0.0128962,-0.011735,1.56432,0.0142261,0.0237691,1980,1044,78.8015,-7.35945
763,-20,78.689,7.18591,-0.0124777,0.0168928,-0.000661438,0.0169076,-0.0124926,-1.54829,0.0170379,0.0332347,1987,1044,78.6891,-7.18596
770,-20,78.5554,7.07361,-0.0121206,0.021923,-0.00180755,0.0220187,-0.0122163,-1.5179,0.0200339,0.027488,1994,1044,78.5554,-7.07359
777,-20,78.3379,6.74707,-0.0100313,0.0280835,-0.00353947,0.0284094,-0.0103572,-1.47898,0.0231766,0.0193334,2001,1044,78.338,-6.74707
784,-20,78.3147,6.54053,-0.00694192,0.0343992,-0.00575791,0.0351861,-0.00772889,-1.43496,0.0264134,0.0232206,2008,1044,78.3147,-6.54057
791,-20,78.5708,6.22693,-0.00268078,0.0410168,-0.00888713,0.042755,-0.00441908,-1.37764,0.0300848,0.0379536,2015,1044,78.5709,-6.22688
798,-20,78.9299,6.42395,0.00368386,0.0482473,-0.0132458,0.0518871,4.40348e-05,-1.30262,0.0345767,0.0431442,2022,1044,78.9298,-6.4239
805,-20,79.1257,6.4137,0.0123789,0.0562902,-0.0189099,0.063311,0.00535807,-1.21529,0.0405395,0.0432388,2029,1044,79.1256,-6.41369
812,-20,78.855,6.5719,0.0223526,0.0659248,-0.0267147,0.0786105,0.00966683,-1.12746,0.0495004,0.0442167,2036,1044,78.8551,-6.57189
-700,-27,-65.7036,-2.94934,0.0588068,0.0155668,0.0340329,0.0775063,-0.00313269,0.502424,0.0527461,0.0488517,524,1051,-65.7036,2.94935
-693,-27,-65.5122,-1.95129,0.0668722,0.0246542,0.0387474,0.0898875,0.00163888,0.535983,0.0593863,0.0465624,531,1051,-65.5122,1.95127
-686,-27,-64.7708,-1.20898,0.0657993,0.0304855,0.0386087,0.0905971,0.00568774,0.570932,0.0585942,0.0443605,538,1051,-64.7708,1.20897
-679,-27,-64.388,0.14502,0,0,0,0,0,0,0,-1,545,1051,-64.388,-0.14506
-672,-27,-63.3586,1.35547,0,0,0,0,0,0,0,-1,552,1051,-63.3586,-1.35549
-665,-27,-63.0015,4.69507,0,0,0,0,0,0,0,-1,559,1051,-63.0015,-4.69512
-658,-27,-62.9354,4.88977,0.036939,0.0352978,0.0241923,0.0603247,0.0119122,0.768445,0.0368924,0.0471918,566,1051,-62.9354,-4.88975
-651,-27,-62.7001,5.2583,0.0292903,0.0328663,0.0196832,0.0508426,0.0113141,0.830693,0.0308238,0.0381901,573,1051,-62.7001,-5.2583
-644,-27,-62.6747,5.59766,0.0220997,0.0294152,0.0149938,0.041191,0.0103239,0.905036,0.0247479,0.0187033,580,1051,-62.6747,-5.59769
-637,-27,-62.7463,5.85693,0.0150549,0.0258234,0.0107557,0.0324673,0.00841102,1.01746,0.0194569,0.0152839,587,1051,-62.7463,-5.85693
-630,-27,-62.8521,6.25964,0.00864771,0.0213455,0.00686342,0.0243462,0.00564701,1.15864,0.0147142,0.0213746,594,1051,-62.8521,-6.25968
-623,-27,-62.9333,6.59888,0.00407484,0.01466,0.00304791,0.0154749,0.00325995,1.30955,0.00941988,0.0199122,601,1051,-62.9333,-6.59893
-616,-27,-62.9066,6.8689,0.00134512,0.00856694,0.000487743,0.00859973,0.00131233,1.50367,0.00534964,0.0155494,608,1051,-62.9066,-6.86895
-609,-27,-62.8793,7.09839,0.000166841,0.00434079,-0.00130479,0.0047151,-0.000207474,-1.29142,0.00321479,0.0154986,615,1051,-62.8793,-7.09844
-602,-27,-62.853,7.33984,-0.000195997,0.00101108,-0.0018626,0.00236548,-0.0015504,-0.942075,0.0022771,0.0142109,622,1051,-62.853,-7.3398
-595,-27,-62.8541,7.61279,-0.000296903,-0.000687125,-0.00201857,0.00153596,-0.00251999,-0.737219,0.00236457,0.0286305,629,1051,-62.8541,-7.61281
-588,-27,-63.0235,7.9115,0,0,0,0,0,0,0,-1,636,1051,-63.0235,-7.91148
-581,-27,-62.4332,0.517578,0.000824475,-0.00232166,-0.00222988,0.00198031,-0.00347749,-0.478211,0.00319034,0.0266864,643,1051,-62.4331,-0.517581
-574,-27,-62.4053,0.622559,0.00113703,-0.00250639,-0.002311,0.002258,-0.00362736,-0.451623,0.00342843,0.0349405,650,1051,-62.4053,-0.622511
-567,-27,-62.4242,0.19812,0,0,0,0,0,0,0,-1,657,1051,-62.4242,-0.198106
-560,-27,-62.3989,1.42737,0.00150843,-0.00117785,-0.00257061,0.00306565,-0.00273507,-0.544656,0.00335086,0.0480012,664,1051,-62.3989,-1.42737
-553,-27,-62.3555,0.295166,0.00181849,4.99268e-05,-0.00290369,0.00396956,-0.00210114,-0.637591,0.00355983,0.0423119,671,1051,-62.3555,-0.295173
-546,-27,-62.6597,0.500366,0.00259224,0.001246,-0.00354817,0.00553057,-0.00169233,-0.691658,0.00436199,0.0414781,678,1051,-62.6597,-0.500347
-539,-27,-62.5843,0.50647,0.00382278,0.00201459,-0.00462982,0.00763595,-0.00179858,-0.688974,0.00578413,0.042237,685,1051,-62.5843,-0.506528
-532,-27,-62.5249,0.484619,0.00510841,0.00293254,-0.00548326,0.00961063,-0.00156967,-0.687465,0.00698931,0.0410859,692,1051,-62.5249,-0.484662
-525,-27,0,0,0,0,0,0,0,0,0,-1,699,1051,0,0
-518,-27,0,0,0,0,0,0,0,0,0,-1,706,1051,0,0
-511,-27,0,0,0,0,0,0,0,0,0,-1,713,1051,0,0
-504,-27,0,0,0,0,0,0,0,0,0,-1,720,1051,0,0
-497,-27,0,0,0,0,0,0,0,0,0,-1,727,1051,0,0
-490,-27,0,0,0,0,0,0,0,0,0,-1,734,1051,0,0
-483,-27,0,0,0,0,0,0,0,0,0,-1,741,1051,0,0
-476,-27,0,0,0,0,0,0,0,0,0,-1,748,1051,0,0
-469,-27,0,0,0,0,0,0,0,0,0,-1,755,1051,0,0
-462,-27,0,0,0,0,0,0,0,0,0,-1,762,1051,0,0
-455,-27,0,0,0,0,0,0,0,0,0,-1,769,1051,0,0
-448,-27,0,0,0,0,0,0,0,0,0,-1,776,1051,0,0
-441,-27,0,0,0,0,0,0,0,0,0,-1,783,1051,0,0
-434,-27,0,0,0,0,0,0,0,0,0,-1,790,1051,0,0
-427,-27,0,0,0,0,0,0,0,0,0,-1,797,1051,0,0
-420,-27,0,0,0,0,0,0,0,0,0,-1,804,1051,0,0
-413,-27,0,0,0,0,0,0,0,0,0,-1,811,1051,0,0
-406,-27,0,0,0,0,0,0,0,0,0,-1,818,1051,0,0
-399,-27,0,0,0,0,0,0,0,0,0,-1,825,1051,0,0
-392,-27,0,0,0,0,0,0,0,0,0,-1,832,1051,0,0
-385,-27,0,0,0,0,0,0,0,0,0,-1,839,1051,0,0
-378,-27,0,0,0,0,0,0,0,0,0,-1,846,1051,0,0
-371,-27,0,0,0,0,0,0,0,0,0,-1,853,1051,0,0
-364,-27,0,0,0,0,0,0,0,0,0,-1,860,1051,0,0
-357,-27,0,0,0,0,0,0,0,0,0,-1,867,1051,0,0
-350,-27,0,0,0,0,0,0,0,0,0,-1,874,1051,0,0
-343,-27,0,0,0,0,0,0,0,0,0,-1,881,1051,0,0
-336,-27,0,0,0,0,0,0,0,0,0,-1,888,1051,0,0
-329,-27,0,0,0,0,0,0,0,0,0,-1,895,1051,0,0
-322,-27,0,0,0,0,0,0,0,0,0,-1,902,1051,0,0
-315,-27,0,0,0,0,0,0,0,0,0,-1,909,1051,0,0
-308,-27,0,0,0,0,0,0,0,0,0,-1,916,1051,0,0
-301,-27,0,0,0,0,0,0,0,0,0,-1,923,1051,0,0
-294,-27,0,0,0,0,0,0,0,0,0,-1,930,1051,0,0
-287,-27,0,0,0,0,0,0,0,0,0,-1,937,1051,0,0
-280,-27,0,0,0,0,0,0,0,0,0,-1,944,1051,0,0
-273,-27,0,0,0,0,0,0,0,0,0,-1,951,1051,0,0
-266,-27,0,0,0,0,0,0,0,0,0,-1,958,1051,0,0
-259,-27,0,0,0,0,0,0,0,0,0,-1,965,1051,0,0
-252,-27,0,0,0,0,0,0,0,0,0,-1,972,1051,0,0
-245,-27,0,0,0,0,0,0,0,0,0,-1,979,1051,0,0
-238,-27,0,0,0,0,0,0,0,0,0,-1,986,1051,0,0
-231,-27,0,0,0,0,0,0,0,0,0,-1,993,1051,0,0
-224,-27,0,0,0,0,0,0,0,0,0,-1,1000,1051,0,0
-217,-27,0,0,0,0,0,0,0,0,0,-1,1007,1051,0,0
-210,-27,0,0,0,0,0,0,0,0,0,-1,1014,1051,0,0
-203,-27,0,0,0,0,0,0,0,0,0,-1,1021,1051,0,0
-196,-27,0,0,0,0,0,0,0,0,0,-1,1028,1051,0,0
-189,-27,0,0,0,0,0,0,0,0,0,-1,1035,1051,0,0
-182,-27,0,0,0,0,0,0,0,0,0,-1,1042,1051,0,0
-175,-27,0,0,0,0,0,0,0,0,0,-1,1049,1051,0,0
-168,-27,0,0,0,0,0,0,0,0,0,-1,1056,1051,0,0
-161,-27,0,0,0,0,0,0,0,0,0,-1,1063,1051,0,0
-154,-27,0,0,0,0,0,0,0,0,0,-1,1070,1051,0,0
-147,-27,0,0,0,0,0,0,0,0,0,-1,1077,1051,0,0
-140,-27,0,0,0,0,0,0,0,0,0,-1,1084,1051,0,0
-133,-27,0,0,0,0,0,0,0,0,0,-1,1091,1051,0,0
-126,-27,0,0,0,0,0,0,0,0,0,-1,1098,1051,0,0
-119,-27,0,0,0,0,0,0,0,0,0,-1,1105,1051,0,0
-112,-27,0,0,0,0,0,0,0,0,0,-1,1112,1051,0,0
-105,-27,0,0,0,0,0,0,0,0,0,-1,1119,1051,0,0
-98,-27,0,0,0,0,0,0,0,0,0,-1,1126,1051,0,0
-91,-27,0,0,0,0,0,0,0,0,0,-1,1133,1051,0,0
-84,-27,0,0,0,0,0,0,0,0,0,-1,1140,1051,0,0
-77,-27,0,0,0,0,0,0,0,0,0,-1,1147,1051,0,0
-70,-27,0,0,0,0,0,0,0,0,0,-1,1154,1051,0,0
-63,-27,0,0,0,0,0,0,0,0,0,-1,1161,1051,0,0
-56,-27,0,0,0,0,0,0,0,0,0,-1,1168,1051,0,0
-49,-27,0,0,0,0,0,0,0,0,0,-1,1175,1051,0,0
-42,-27,0,0,0,0,0,0,0,0,0,-1,1182,1051,0,0
-35,-27,0,0,0,0,0,0,0,0,0,-1,1189,1051,0,0
-28,-27,0,0,0,0,0,0,0,0,0,-1,1196,1051,0,0
-21,-27,0,0,0,0,0,0,0,0,0,-1,1203,1051,0,0
-14,-27,0,0,0,0,0,0,0,0,0,-1,1210,1051,0,0
-7,-27,0,0,0,0,0,0,0,0,0,-1,1217,1051,0,0
0,-27,0,0,0,0,0,0,0,0,0,-1,1224,1051,0,0
7,-27,0,0,0,0,0,0,0,0,0,-1,1231,1051,0,0
14,-27,0,0,0,0,0,0,0,0,0,-1,1238,1051,0,0
21,-27,0,0,0,0,0,0,0,0,0,-1,1245,1051,0,0
28,-27,0,0,0,0,0,0,0,0,0,-1,1252,1051,0,0
35,-27,0,0,0,0,0,0,0,0,0,-1,1259,1051,0,0
42,-27,0,0,0,0,0,0,0,0,0,-1,1266,1051,0,0
49,-27,0,0,0,0,0,0,0,0,0,-1,1273,1051,0,0
56,-27,0,0,0,0,0,0,0,0,0,-1,1280,1051,0,0
63,-27,0,0,0,0,0,0,0,0,0,-1,1287,1051,0,0
70,-27,0,0,0,0,0,0,0,0,0,-1,1294,1051,0,0
77,-27,0,0,0,0,0,0,0,0,0,-1,1301,1051,0,0
84,-27,0,0,0,0,0,0,0,0,0,-1,1308,1051,0,0
91,-27,0,0,0,0,0,0,0,0,0,-1,1315,1051,0,0
98,-27,0,0,0,0,0,0,0,0,0,-1,1322,1051,0,0
105,-27,0,0,0,0,0,0,0,0,0,-1,1329,1051,0,0
112,-27,0,0,0,0,0,0,0,0,0,-1,1336,1051,0,0
119,-27,0,0,0,0,0,0,0,0,0,-1,1343,1051,0,0
126,-27,0,0,0,0,0,0,0,0,0,-1,1350,1051,0,0
133,-27,0,0,0,0,0,0,0,0,0,-1,1357,1051,0,0
140,-27,0,0,0,0,0,0,0,0,0,-1,1364,1051,0,0
147,-27,0,0,0,0,0,0,0,0,0,-1,1371,1051,0,0
154,-27,0,0,0,0,0,0,0,0,0,-1,1378,1051,0,0
161,-27,0,0,0,0,0,0,0,0,0,-1,1385,1051,0,0
168,-27,0,0,0,0,0,0,0,0,0,-1,1392,1051,0,0
175,-27,0,0,0,0,0,0,0,0,0,-1,1399,1051,0,0
182,-27,0,0,0,0,0,0,0,0,0,-1,1406,1051,0,0
189,-27,0,0,0,0,0,0,0,0,0,-1,1413,1051,0,0
196,-27,0,0,0,0,0,0,0,0,0,-1,1420,1051,0,0
203,-27,0,0,0,0,0,0,0,0,0,-1,1427,1051,0,0
210,-27,0,0,0,0,0,0,0,0,0,-1,1434,1051,0,0
217,-27,0,0,0,0,0,0,0,0,0,-1,1441,1051,0,0
224,-27,0,0,0,0,0,0,0,0,0,-1,1448,1051,0,0
231,-27,0,0,0,0,0,0,0,0,0,-1,1455,1051,0,0
238,-27,0,0,0,0,0,0,0,0,0,-1,1462,1051,0,0
245,-27,0,0,0,0,0,0,0,0,0,-1,1469,1051,0,0
252,-27,0,0,0,0,0,0,0,0,0,-1,1476,1051,0,0
259,-27,0,0,0,0,0,0,0,0,0,-1,1483,1051,0,0
266,-27,0,0,0,0,0,0,0,0,0,-1,1490,1051,0,0
273,-27,0,0,0,0,0,0,0,0,0,-1,1497,1051,0,0
280,-27,0,0,0,0,0,0,0,0,0,-1,1504,1051,0,0
287,-27,0,0,0,0,0,0,0,0,0,-1,1511,1051,0,0
294,-27,0,0,0,0,0,0,0,0,0,-1,1518,1051,0,0
301,-27,0,0,0,0,0,0,0,0,0,-1,1525,1051,0,0
308,-27,0,0,0,0,0,0,0,0,0,-1,1532,1051,0,0
315,-27,0,0,0,0,0,0,0,0,0,-1,1539,1051,0,0
322,-27,0,0,0,0,0,0,0,0,0,-1,1546,1051,0,0
329,-27,0,0,0,0,0,0,0,0,0,-1,1553,1051,0,0
336,-27,0,0,0,0,0,0,0,0,0,-1,1560,1051,0,0
343,-27,0,0,0,0,0,0,0,0,0,-1,1567,1051,0,0
350,-27,0,0,0,0,0,0,0,0,0,-1,1574,1051,0,0
357,-27,0,0,0,0,0,0,0,0,0,-1,1581,1051,0,0
364,-27,0,0,0,0,0,0,0,0,0,-1,1588,1051,0,0
371,-27,0,0,0,0,0,0,0,0,0,-1,1595,1051,0,0
378,-27,0,0,0,0,0,0,0,0,0,-1,1602,1051,0,0
385,-27,0,0,0,0,0,0,0,0,0,-1,1609,1051,0,0
392,-27,0,0,0,0,0,0,0,0,0,-1,1616,1051,0,0
399,-27,0,0,0,0,0,0,0,0,0,-1,1623,1051,0,0
406,-27,0,0,0,0,0,0,0,0,0,-1,1630,1051,0,0
413,-27,0,0,0,0,0,0,0,0,0,-1,1637,1051,0,0
420,-27,0,0,0,0,0,0,0,0,0,-1,1644,1051,0,0
427,-27,0,0,0,0,0,0,0,0,0,-1,1651,1051,0,0
434,-27,0,0,0,0,0,0,0,0,0,-1,1658,1051,0,0
441,-27,0,0,0,0,0,0,0,0,0,-1,1665,1051,0,0
448,-27,0,0,0,0,0,0,0,0,0,-1,1672,1051,0,0
455,-27,0,0,0,0,0,0,0,0,0,-1,1679,1051,0,0
462,-27,0,0,0,0,0,0,0,0,0,-1,1686,1051,0,0
469,-27,0,0,0,0,0,0,0,0,0,-1,1693,1051,0,0
476,-27,0,0,0,0,0,0,0,0,0,-1,1700,1051,0,0
483,-27,0,0,0,0,0,0,0,0,0,-1,1707,1051,0,0
490,-27,0,0,0,0,0,0,0,0,0,-1,1714,1051,0,0
497,-27,0,0,0,0,0,0,0,0,0,-1,1721,1051,0,0
504,-27,0,0,0,0,0,0,0,0,0,-1,1728,1051,0,0
511,-27,0,0,0,0,0,0,0,0,0,-1,1735,1051,0,0
518,-27,0,0,0,0,0,0,0,0,0,-1,1742,1051,0,0
525,-27,0,0,0,0,0,0,0,0,0,-1,1749,1051,0,0
532,-27,0,0,0,0,0,0,0,0,0,-1,1756,1051,0,0
539,-27,0,0,0,0,0,0,0,0,0,-1,1763,1051,0,0
546,-27,0,0,0,0,0,0,0,0,0,-1,1770,1051,0,0
553,-27,0,0,0,0,0,0,0,0,0,-1,1777,1051,0,0
560,-27,0,0,0,0,0,0,0,0,0,-1,1784,1051,0,0
567,-27,0,0,0,0,0,0,0,0,0,-1,1791,1051,0,0
574,-27,0,0,0,0,0,0,0,0,0,-1,1798,1051,0,0
581,-27,0,0,0,0,0,0,0,0,0,-1,1805,1051,0,0
588,-27,0,0,0,0,0,0,0,0,0,-1,1812,1051,0,0
595,-27,0,0,0,0,0,0,0,0,0,-1,1819,1051,0,0
602,-27,0,0,0,0,0,0,0,0,0,-1,1826,1051,0,0
609,-27,0,0,0,0,0,0,0,0,0,-1,1833,1051,0,0
616,-27,0,0,0,0,0,0,0,0,0,-1,1840,1051,0,0
623,-27,0,0,0,0,0,0,0,0,0,-1,1847,1051,0,0
630,-27,0,0,0,0,0,0,0,0,0,-1,1854,1051,0,0
637,-27,0,0,0,0,0,0,0,0,0,-1,1861,1051,0,0
644,-27,0,0,0,0,0,0,0,0,0,-1,1868,1051,0,0
651,-27,79.0872,2.47693,-0.00696912,-0.00250265,-5.12988e-05,-0.00250206,-0.00696971,-1.55931,0.00407696,0.0407658,1875,1051,79.0871,-2.47695
658,-27,78.8564,2.40759,-0.00545678,-0.00178091,-0.000142619,-0.00177538,-0.0054623,-1.53208,0.00321739,0.0404642,1882,1051,78.8565,-2.40764
665,-27,78.7898,2.34204,-0.00417631,-0.00119424,-0.000160792,-0.00118559,-0.00418496,-1.51708,0.00249068,0.0378999,1889,1051,78.7897,-2.34199
672,-27,78.8282,2.35107,-0.00302817,-0.000672748,-5.85826e-05,-0.000671292,-0.00302962,-1.54595,0.00183733,0.0313258,1896,1051,78.8282,-2.35106
679,-27,78.7328,2.34753,-0.0019447,-0.000180533,8.32618e-05,-0.000176612,-0.00194862,1.52374,0.00124439,0.0295574,1903,1051,78.7328,-2.34757
686,-27,78.6942,2.33569,-0.00154187,-9.69716e-05,0.000283028,-4.35102e-05,-0.00159534,1.3841,0.00104935,0.040341,1910,1051,78.6942,-2.33573
693,-27,78.9413,2.39941,-0.00144788,-0.000207297,0.000520386,-1.79207e-05,-0.00163726,1.22178,0.00108558,0.0429704,1917,1051,78.9413,-2.39937
700,-27,78.9076,2.36328,-0.00148842,-0.000284208,0.000831773,0.000140514,-0.00191315,1.09869,0.00132476,0.0370955,1924,1051,78.9076,-2.36329
707,-27,78.8124,2.33057,-0.0021843,-1.94573e-05,0.00110179,0.000442652,-0.00264641,1.17366,0.00192883,0.0241104,1931,1051,78.8124,-2.33053
714,-27,78.89,2.44177,-0.0032146,0.000769022,0.00130183,0.00115672,-0.0036023,1.28135,0.002866,0.0240392,1938,1051,78.89,-2.44182
721,-27,78.8114,2.69458,0,0,0,0,0,0,0,-1,1945,1051,78.8114,-2.69453
728,-27,79.1831,8.17651,0,0,0,0,0,0,0,-1,1952,1051,79.1831,-8.17651
735,-27,78.7344,8.06555,-0.00757749,0.00517811,0.00130448,0.00531015,-0.00770953,1.46992,0.00755935,0.0305434,1959,1051,78.7343,-8.06553
742,-27,78.5046,7.82837,-0.00890651,0.00690137,0.0011428,0.00698355,-0.0089887,1.499,0.00924578,0.0227127,1966,1051,78.5046,-7.82842
749,-27,78.5442,7.48682,-0.0101487,0.00902672,0.00124227,0.00910686,-0.0102288,1.50637,0.0111697,0.0180764,1973,1051,78.5443,-7.48681
756,-27,78.5127,7.27454,-0.0111154,0.0116604,0.000963387,0.011701,-0.0111561,1.5286,0.0131978,0.0178798,1980,1051,78.5127,-7.27449
763,-27,78.4055,7.02417,-0.0117183,0.0154167,0.000205906,0.0154183,-0.0117199,1.56321,0.0157166,0.0177017,1987,1051,78.4056,-7.02413
770,-27,78.3066,6.73755,-0.0113537,0.0200519,-0.000793201,0.0200719,-0.0113737,-1.54556,0.0183852,0.0179246,1994,1051,78.3068,-6.73757
777,-27,78.1475,6.60095,-0.00939938,0.0256796,-0.00226626,0.0258254,-0.00954519,-1.50655,0.02113,0.0213173,2001,1051,78.1475,-6.60091
784,-27,78.0566,6.48669,-0.00657738,0.0314117,-0.00415428,0.0318606,-0.00702637,-1.46314,0.0239289,0.02978,2008,1051,78.0566,-6.48664
791,-27,78.3167,6.1792,-0.00272716,0.0373605,-0.00680461,0.038484,-0.00385071,-1.40716,0.0270312,0.0422999,2015,1051,78.3167,-6.17915
798,-27,78.9102,6.08655,0.00297373,0.0438407,-0.0105519,0.0464044,0.000410026,-1.33245,0.0308005,0.0471003,2022,1051,78.91,-6.08653
805,-27,79.5588,6.10205,0.0108232,0.0511035,-0.0155125,0.056385,0.00554162,-1.24264,0.0358857,0.0484073,2029,1051,79.5589,-6.102
812,-27,79.6882,5.99597,0.0198219,0.0597712,-0.0223164,0.0697466,0.00984647,-1.15044,0.0435879,0.0476275,2036,1051,79.6881,-5.99595
-700,-34,-65.2988,-3.15076,0.0584101,0.0247867,0.0338354,0.0793803,0.0038165,0.554829,0.051695,0.0432501,524,1058,-65.2988,3.1507
-693,-34,-65.1568,-1.96155,0.0674446,0.0339011,0.0394756,0.0935636,0.00778207,0.584521,0.0599503,0.0475056,531,1058,-65.1568,1.96161
-686,-34,-64.6414,-0.973511,0.0671077,0.0394766,0.0401052,0.0957102,0.010874,0.619522,0.0605087,0.0481522,538,1058,-64.6414,0.973524
-679,-34,-64.0769,0.130615,0.0616464,0.0421528,0.0377907,0.090927,0.0128722,0.659191,0.0568154,0.0432315,545,1058,-64.0769,-0.130587
-672,-34,-63.2127,1.37427,0.0542925,0.0427935,0.0341685,0.0831919,0.0138941,0.702045,0.051459,0.0458167,552,1058,-63.2127,-1.37426
-665,-34,-62.5316,2.91113,0.0462068,0.0417802,0.0298536,0.073929,0.014058,0.748396,0.0453325,0.0472378,559,1058,-62.5316,-2.91119
-658,-34,-62.9046,4.77209,0,0,0,0,0,0,0,-1,566,1058,-62.9046,-4.77205
-651,-34,-62.4885,5.07288,0.0301692,0.0354977,0.0202506,0.0532586,0.0124083,0.850804,0.0321772,0.0328918,573,1058,-62.4885,-5.07284
-644,-34,-62.4552,5.42334,0.0228961,0.0309032,0.0152813,0.0426966,0.0111027,0.913513,0.0255797,0.0151909,580,1058,-62.4552,-5.42336
-637,-34,-62.4924,5.76331,0.0157952,0.0260429,0.0106771,0.032762,0.00907617,1.00911,0.019532,0.0166462,587,1058,-62.4923,-5.76325
-630,-34,-62.5587,6.18274,0.00957012,0.0206716,0.00672446,0.0238403,0.00640139,1.13043,0.0142475,0.0199818,594,1058,-62.5587,-6.18274
-623,-34,-62.5551,6.52234,0.00504019,0.0140393,0.00290623,0.0148962,0.00418324,1.28405,0.0088715,0.0165743,601,1058,-62.5551,-6.52236
-616,-34,-62.5239,6.88831,0.00223862,0.00811278,0.000226665,0.00812151,0.00222988,1.53229,0.00484522,0.0228342,608,1058,-62.5238,-6.88833
-609,-34,-62.5063,7.21338,0.000967388,0.00405574,-0.00163687,0.00476186,0.000261267,-1.16353,0.00309117,0.022627,615,1058,-62.5063,-7.21334
-602,-34,-62.5038,7.4519,0.000544589,0.000896488,-0.00223663,0.00296408,-0.001523,-0.824651,0.00263478,0.0172388,622,1058,-62.5038,-7.45193
-595,-34,-62.6132,7.71814,0.000401623,-0.000645335,-0.00242878,0.0023627,-0.00260641,-0.679256,0.00287007,0.0204744,629,1058,-62.6133,-7.71809
-588,-34,-62.9651,7.98853,0,0,0,0,0,0,0,-1,636,1058,-62.9651,-7.98847
-581,-34,-62.4206,0.504028,0.00147319,-0.00200629,-0.00259663,0.00285902,-0.00339212,-0.490244,0.00361347,0.027194,643,1058,-62.4206,-0.504073
-574,-34,-62.3341,0.499756,0.00171655,-0.00203644,-0.00264733,0.00308499,-0.00340488,-0.477085,0.00374844,0.0346637,650,1058,-62.3341,-0.499769
-567,-34,-62.3514,0.297852,0.00180664,-0.00151403,-0.00270774,0.00332256,-0.00302995,-0.510371,0.00366892,0.0426247,657,1058,-62.3514,-0.29789
-560,-34,-62.5666,0.0428467,0.0018775,-0.000513325,-0.00281803,0.00374318,-0.00237901,-0.584801,0.00356378,0.0420653,664,1058,-62.5666,-0.0428269
-553,-34,-62.5623,0.670654,0.00207989,0.000740146,-0.00307564,0.00455776,-0.00173772,-0.678173,0.00375429,0.0443031,671,1058,-62.5622,-0.670703
-546,-34,-62.6617,0.744141,0.00281527,0.00189438,-0.00363709,0.00602094,-0.00131129,-0.722434,0.00451498,0.0453169,678,1058,-62.6618,-0.74411
-539,-34,-62.5211,0.674805,0.00417633,0.00247554,-0.00466863,0.00807138,-0.00141951,-0.69531,0.00591118,0.043535,685,1058,-62.5211,-0.674822
-532,-34,-62.467,0.612305,0.0056203,0.00316529,-0.00547184,0.0100006,-0.00121503,-0.675059,0.00710681,0.0415507,692,1058,-62.467,-0.612315
-525,-34,0,0,0,0,0,0,0,0,0,-1,699,1058,0,0
-518,-34,0,0,0,0,0,0,0,0,0,-1,706,1058,0,0
-511,-34,0,0,0,0,0,0,0,0,0,-1,713,1058,0,0
-504,-34,0,0,0,0,0,0,0,0,0,-1,720,1058,0,0
-497,-34,0,0,0,0,0,0,0,0,0,-1,727,1058,0,0
-490,-34,0,0,0,0,0,0,0,0,0,-1,734,1058,0,0
-483,-34,0,0,0,0,0,0,0,0,0,-1,741,1058,0,0
-476,-34,0,0,0,0,0,0,0,0,0,-1,748,1058,0,0
-469,-34,0,0,0,0,0,0,0,0,0,-1,755,1058,0,0
-462,-34,0,0,0,0,0,0,0,0,0,-1,762,1058,0,0
-455,-34,0,0,0,0,0,0,0,0,0,-1,769,1058,0,0
-448,-34,0,0,0,0,0,0,0,0,0,-1,776,1058,0,0
-441,-34,0,0,0,0,0,0,0,0,0,-1,783,1058,0,0
-434,-34,0,0,0,0,0,0,0,0,0,-1,790,1058,0,0
-427,-34,0,0,0,0,0,0,0,0,0,-1,797,1058,0,0
-420,-34,0,0,0,0,0,0,0,0,0,-1,804,1058,0,0
-413,-34,0,0,0,0,0,0,0,0,0,-1,811,1058,0,0
-406,-34,0,0,0,0,0,0,0,0,0,-1,818,1058,0,0
-399,-34,0,0,0,0,0,0,0,0,0,-1,825,1058,0,0
-392,-34,0,0,0,0,0,0,0,0,0,-1,832,1058,0,0
-385,-34,0,0,0,0,0,0,0,0,0,-1,839,1058,0,0
-378,-34,0,0,0,0,0,0,0,0,0,-1,846,1058,0,0
-371,-34,0,0,0,0,0,0,0,0,0,-1,853,1058,0,0
-364,-34,0,0,0,0,0,0,0,0,0,-1,860,1058,0,0
-357,-34,0,0,0,0,0,0,0,0,0,-1,867,1058,0,0
-350,-34,0,0,0,0,0,0,0,0,0,-1,874,1058,0,0
-343,-34,0,0,0,0,0,0,0,0,0,-1,881,1058,0,0
-336,-34,0,0,0,0,0,0,0,0,0,-1,888,1058,0,0
-329,-34,0,0,0,0,0,0,0,0,0,-1,895,1058,0,0
-322,-34,0,0,0,0,0,0,0,0,0,-1,902,1058,0,0
-315,-34,0,0,0,0,0,0,0,0,0,-1,909,1058,0,0
-308,-34,0,0,0,0,0,0,0,0,0,-1,916,1058,0,0
-301,-34,0,0,0,0,0,0,0,0,0,-1,923,1058,0,0
-294,-34,0,0,0,0,0,0,0,0,0,-1,930,1058,0,0
-287,-34,0,0,0,0,0,0,0,0,0,-1,937,1058,0,0
-280,-34,0,0,0,0,0,0,0,0,0,-1,944,1058,0,0
-273,-34,0,0,0,0,0,0,0,0,0,-1,951,1058,0,0
-266,-34,0,0,0,0,0,0,0,0,0,-1,958,1058,0,0
-259,-34,0,0,0,0,0,0,0,0,0,-1,965,1058,0,0
-252,-34,0,0,0,0,0,0,0,0,0,-1,972,1058,0,0
-245,-34,0,0,0,0,0,0,0,0,0,-1,979,1058,0,0
-238,-34,0,0,0,0,0,0,0,0,0,-1,986,1058,0,0
-231,-34,0,0,0,0,0,0,0,0,0,-1,993,1058,0,0
-224,-34,0,0,0,0,0,0,0,0,0,-1,1000,1058,0,0
-217,-34,0,0,0,0,0,0,0,0,0,-1,1007,1058,0,0
-210,-34,0,0,0,0,0,0,0,0,0,-1,1014,1058,0,0
-203,-34,0,0,0,0,0,0,0,0,0,-1,1021,1058,0,0
-196,-34,0,0,0,0,0,0,0,0,0,-1,1028,1058,0,0
-189,-34,0,0,0,0,0,0,0,0,0,-1,1035,1058,0,0
-182,-34,0,0,0,0,0,0,0,0,0,-1,1042,1058,0,0
-175,-34,0,0,0,0,0,0,0,0,0,-1,1049,1058,0,0
-168,-34,0,0,0,0,0,0,0,0,0,-1,1056,1058,0,0
-161,-34,0,0,0,0,0,0,0,0,0,-1,1063,1058,0,0
-154,-34,0,0,0,0,0,0,0,0,0,-1,1070,1058,0,0
-147,-34,0,0,0,0,0,0,0,0,0,-1,1077,1058,0,0
-140,-34,0,0,0,0,0,0,0,0,0,-1,1084,1058,0,0
-133,-34,0,0,0,0,0,0,0,0,0,-1,1091,1058,0,0
-126,-34,0,0,0,0,0,0,0,0,0,-1,1098,1058,0,0
-119,-34,0,0,0,0,0,0,0,0,0,-1,1105,1058,0,0
-112,-34,0,0,0,0,0,0,0,0,0,-1,1112,1058,0,0
-105,-34,0,0,0,0,0,0,0,0,0,-1,1119,1058,0,0
-98,-34,0,0,0,0,0,0,0,0,0,-1,1126,1058,0,0
-91,-34,0,0,0,0,0,0,0,0,0,-1,1133,1058,0,0
-84,-34,0,0,0,0,0,0,0,0,0,-1,1140,1058,0,0
-77,-34,0,0,0,0,0,0,0,0,0,-1,1147,1058,0,0
-70,-34,0,0,0,0,0,0,0,0,0,-1,1154,1058,0,0
-63,-34,0,0,0,0,0,0,0,0,0,-1,1161,1058,0,0
-56,-34,0,0,0,0,0,0,0,0,0,-1,1168,1058,0,0
-49,-34,0,0,0,0,0,0,0,0,0,-1,1175,1058,0,0
-42,-34,0,0,0,0,0,0,0,0,0,-1,1182,1058,0,0
-35,-34,0,0,0,0,0,0,0,0,0,-1,1189,1058,0,0
-28,-34,0,0,0,0,0,0,0,0,0,-1,1196,1058,0,0
-21,-34,0,0,0,0,0,0,0,0,0,-1,1203,1058,0,0
-14,-34,0,0,0,0,0,0,0,0,0,-1,1210,1058,0,0
-7,-34,0,0,0,0,0,0,0,0,0,-1,1217,1058,0,0
0,-34,0,0,0,0,0,0,0,0,0,-1,1224,1058,0,0
7,-34,0,0,0,0,0,0,0,0,0,-1,1231,1058,0,0
14,-34,0,0,0,0,0,0,0,0,0,-1,1238,1058,0,0
21,-34,0,0,0,0,0,0,0,0,0,-1,1245,1058,0,0
28,-34,0,0,0,0,0,0,0,0,0,-1,1252,1058,0,0
35,-34,0,0,0,0,0,0,0,0,0,-1,1259,1058,0,0
42,-34,0,0,0,0,0,0,0,0,0,-1,1266,1058,0,0
49,-34,0,0,0,0,0,0,0,0,0,-1,1273,1058,0,0
56,-34,0,0,0,0,0,0,0,0,0,-1,1280,1058,0,0
63,-34,0,0,0,0,0,0,0,0,0,-1,1287,1058,0,0
70,-34,0,0,0,0,0,0,0,0,0,-1,1294,1058,0,0
77,-34,0,0,0,0,0,0,0,0,0,-1,1301,1058,0,0
84,-34,0,0,0,0,0,0,0,0,0,-1,1308,1058,0,0
91,-34,0,0,0,0,0,0,0,0,0,-1,1315,1058,0,0
98,-34,0,0,0,0,0,0,0,0,0,-1,1322,1058,0,0
105,-34,0,0,0,0,0,0,0,0,0,-1,1329,1058,0,0
112,-34,0,0,0,0,0,0,0,0,0,-1,1336,1058,0,0
119,-34,0,0,0,0,0,0,0,0,0,-1,1343,1058,0,0
126,-34,0,0,0,0,0,0,0,0,0,-1,1350,1058,0,0
133,-34,0,0,0,0,0,0,0,0,0,-1,1357,1058,0,0
140,-34,0,0,0,0,0,0,0,0,0,-1,1364,1058,0,0
147,-34,0,0,0,0,0,0,0,0,0,-1,1371,1058,0,0
154,-34,0,0,0,0,0,0,0,0,0,-1,1378,1058,0,0
161,-34,0,0,0,0,0,0,0,0,0,-1,1385,1058,0,0
168,-34,0,0,0,0,0,0,0,0,0,-1,1392,1058,0,0
175,-34,0,0,0,0,0,0,0,0,0,-1,1399,1058,0,0
182,-34,0,0,0,0,0,0,0,0,0,-1,1406,1058,0,0
189,-34,0,0,0,0,0,0,0,0,0,-1,1413,1058,0,0
196,-34,0,0,0,0,0,0,0,0,0,-1,1420,1058,0,0
203,-34,0,0,0,0,0,0,0,0,0,-1,1427,1058,0,0
210,-34,0,0,0,0,0,0,0,0,0,-1,1434,1058,0,0
217,-34,0,0,0,0,0,0,0,0,0,-1,1441,1058,0,0
224,-34,0,0,0,0,0,0,0,0,0,-1,1448,1058,0,0
231,-34,0,0,0,0,0,0,0,0,0,-1,1455,1058,0,0
238,-34,0,0,0,0,0,0,0,0,0,-1,1462,1058,0,0
245,-34,0,0,0,0,0,0,0,0,0,-1,1469,1058,0,0
252,-34,0,0,0,0,0,0,0,0,0,-1,1476,1058,0,0
259,-34,0,0,0,0,0,0,0,0,0,-1,1483,1058,0,0
266,-34,0,0,0,0,0,0,0,0,0,-1,1490,1058,0,0
273,-34,0,0,0,0,0,0,0,0,0,-1,1497,1058,0,0
280,-34,0,0,0,0,0,0,0,0,0,-1,1504,1058,0,0
287,-34,0,0,0,0,0,0,0,0,0,-1,1511,1058,0,0
294,-34,0,0,0,0,0,0,0,0,0,-1,1518,1058,0,0
301,-34,0,0,0,0,0,0,0,0,0,-1,1525,1058,0,0
308,-34,0,0,0,0,0,0,0,0,0,-1,1532,1058,0,0
315,-34,0,0,0,0,0,0,0,0,0,-1,1539,1058,0,0
322,-34,0,0,0,0,0,0,0,0,0,-1,1546,1058,0,0
329,-34,0,0,0,0,0,0,0,0,0,-1,1553,1058,0,0
336,-34,0,0,0,0,0,0,0,0,0,-1,1560,1058,0,0
343,-34,0,0,0,0,0,0,0,0,0,-1,1567,1058,0,0
350,-34,0,0,0,0,0,0,0,0,0,-1,1574,1058,0,0
357,-34,0,0,0,0,0,0,0,0,0,-1,1581,1058,0,0
364,-34,0,0,0,0,0,0,0,0,0,-1,1588,1058,0,0
371,-34,0,0,0,0,0,0,0,0,0,-1,1595,1058,0,0
378,-34,0,0,0,0,0,0,0,0,0,-1,1602,1058,0,0
385,-34,0,0,0,0,0,0,0,0,0,-1,1609,1058,0,0
392,-34,0,0,0,0,0,0,0,0,0,-1,1616,1058,0,0
399,-34,0,0,0,0,0,0,0,0,0,-1,1623,1058,0,0
406,-34,0,0,0,0,0,0,0,0,0,-1,1630,1058,0,0
413,-34,0,0,0,0,0,0,0,0,0,-1,1637,1058,0,0
420,-34,0,0,0,0,0,0,0,0,0,-1,1644,1058,0,0
427,-34,0,0,0,0,0,0,0,0,0,-1,1651,1058,0,0
434,-34,0,0,0,0,0,0,0,0,0,-1,1658,1058,0,0
441,-34,0,0,0,0,0,0,0,0,0,-1,1665,1058,0,0
448,-34,0,0,0,0,0,0,0,0,0,-1,1672,1058,0,0
455,-34,0,0,0,0,0,0,0,0,0,-1,1679,1058,0,0
462,-34,0,0,0,0,0,0,0,0,0,-1,1686,1058,0,0
469,-34,0,0,0,0,0,0,0,0,0,-1,1693,1058,0,0
476,-34,0,0,0,0,0,0,0,0,0,-1,1700,1058,0,0
483,-34,0,0,0,0,0,0,0,0,0,-1,1707,1058,0,0
490,-34,0,0,0,0,0,0,0,0,0,-1,1714,1058,0,0
497,-34,0,0,0,0,0,0,0,0,0,-1,1721,1058,0,0
504,-34,0,0,0,0,0,0,0,0,0,-1,1728,1058,0,0
511,-34,0,0,0,0,0,0,0,0,0,-1,1735,1058,0,0
518,-34,0,0,0,0,0,0,0,0,0,-1,1742,1058,0,0
525,-34,0,0,0,0,0,0,0,0,0,-1,1749,1058,0,0
532,-34,0,0,0,0,0,0,0,0,0,-1,1756,1058,0,0
539,-34,0,0,0,0,0,0,0,0,0,-1,1763,1058,0,0
546,-34,0,0,0,0,0,0,0,0,0,-1,1770,1058,0,0
553,-34,0,0,0,0,0,0,0,0,0,-1,1777,1058,0,0
560,-34,0,0,0,0,0,0,0,0,0,-1,1784,1058,0,0
567,-34,0,0,0,0,0,0,0,0,0,-1,1791,1058,0,0
574,-34,0,0,0,0,0,0,0,0,0,-1,1798,1058,0,0
581,-34,0,0,0,0,0,0,0,0,0,-1,1805,1058,0,0
588,-34,0,0,0,0,0,0,0,0,0,-1,1812,1058,0,0
595,-34,0,0,0,0,0,0,0,0,0,-1,1819,1058,0,0
602,-34,0,0,0,0,0,0,0,0,0,-1,1826,1058,0,0
609,-34,0,0,0,0,0,0,0,0,0,-1,1833,1058,0,0
616,-34,0,0,0,0,0,0,0,0,0,-1,1840,1058,0,0
623,-34,0,0,0,0,0,0,0,0,0,-1,1847,1058,0,0
630,-34,0,0,0,0,0,0,0,0,0,-1,1854,1058,0,0
637,-34,0,0,0,0,0,0,0,0,0,-1,1861,1058,0,0
644,-34,0,0,0,0,0,0,0,0,0,-1,1868,1058,0,0
651,-34,79.0342,2.34009,-0.00712726,-0.00172851,0.0010067,-0.0015469,-0.00730887,1.39231,0.00444754,0.0405971,1875,1058,79.0342,-2.3401
658,-34,78.8577,2.42773,-0.00562784,-0.00128495,0.000582807,-0.0012081,-0.00570469,1.43969,0.00347123,0.0408862,1882,1058,78.8577,-2.42772
665,-34,78.6578,2.44482,-0.00430276,-0.00091274,0.000341114,-0.000878757,-0.00433675,1.4715,0.00264732,0.0430754,1889,1058,78.6578,-2.4448
672,-34,78.6886,2.36267,-0.00310426,-0.000539304,0.000288916,-0.000507163,-0.0031364,1.46001,0.00194406,0.0407021,1896,1058,78.6886,-2.36263
679,-34,78.6367,2.44409,-0.00196579,-0.000163382,0.000315624,-0.000109711,-0.00201946,1.40236,0.00131127,0.0379466,1903,1058,78.6367,-2.44407
686,-34,78.8623,2.48743,-0.0015459,-0.000164109,0.000463183,-2.32138e-05,-0.00168679,1.2755,0.00111687,0.0428357,1910,1058,78.8623,-2.48738
693,-34,78.9146,2.41577,-0.00146241,-0.00034073,0.000714444,6.71e-06,-0.00180985,1.11816,0.00120881,0.0438472,1917,1058,78.9146,-2.41581
700,-34,78.8563,2.36938,-0.00152019,-0.000436795,0.00104578,0.00019926,-0.00215624,1.02436,0.00150831,0.0392806,1924,1058,78.8564,-2.36934
707,-34,78.797,2.38831,-0.00216606,-0.000247983,0.00135244,0.000450944,-0.00286499,1.09381,0.00207669,0.0250471,1931,1058,78.797,-2.38829
714,-34,78.8265,2.46863,-0.00309972,0.000420867,0.00160232,0.00104093,-0.00371978,1.20157,0.00289,0.0228094,1938,1058,78.8265,-2.46862
721,-34,78.8007,2.63721,0,0,0,0,0,0,0,-1,1945,1058,78.8006,-2.63721
728,-34,78.5048,8.35815,0,0,0,0,0,0,0,-1,1952,1058,78.5048,-8.35811
735,-34,78.3202,8.13037,-0.00710703,0.00447711,0.00190242,0.00478153,-0.00741146,1.41212,0.007094,0.0229346,1959,1058,78.3202,-8.13038
742,-34,78.2179,7.79919,-0.00835836,0.0061206,0.00183363,0.0063492,-0.00858696,1.44676,0.0086556,0.020081,1966,1058,78.2179,-7.79915
749,-34,78.2043,7.50818,-0.00947132,0.00808208,0.00204031,0.00831611,-0.00970536,1.45659,0.010415,0.0172196,1973,1058,78.2043,-7.5082
756,-34,78.1831,7.21143,-0.0103453,0.0105526,0.00182818,0.0107113,-0.010504,1.48419,0.0122489,0.0128027,1980,1058,78.183,-7.21148
763,-34,78.0876,6.90796,-0.0109053,0.0140663,0.00117351,0.0141213,-0.0109604,1.52394,0.0145192,0.0135876,1987,1058,78.0876,-6.90799
770,-34,77.9338,6.60144,-0.0106393,0.0183185,0.00032651,0.0183222,-0.010643,1.55952,0.0169178,0.0189076,1994,1058,77.934,-6.60146
777,-34,77.719,6.39966,-0.00903212,0.0233472,-0.000895335,0.0233719,-0.00905685,-1.54317,0.0193212,0.0225546,2001,1058,77.7191,-6.39962
784,-34,77.49,6.19836,-0.00670881,0.0283682,-0.00245326,0.028539,-0.00687956,-1.50131,0.021686,0.0407332,2008,1058,77.49,-6.19831
791,-34,77.2866,5.97339,0,0,0,0,0,0,0,-1,2015,1058,77.2866,-5.97341
798,-34,78.0386,5.87451,0,0,0,0,0,0,0,-1,2022,1058,78.0385,-5.87451
805,-34,79.9541,5.82727,0,0,0,0,0,0,0,-1,2029,1058,79.9542,-5.82724
812,-34,80.1147,5.72107,0,0,0,0,0,0,0,-1,2036,1058,80.1146,-5.72107
-700,-41,-64.7906,-3.07837,0,0,0,0,0,0,0,-1,524,1065,-64.7907,3.07835
-693,-41,-64.1701,-2.05603,0.0666146,0.0409352,0.0380207,0.0939051,0.0136447,0.62256,0.0585872,0.0464009,531,1065,-64.1701,2.05608
-686,-41,-63.7062,-1.04041,0.0668267,0.0461542,0.0394722,0.0972935,0.0156874,0.657343,0.0603171,0.0446886,538,1065,-63.7062,1.04041
-679,-41,-63.601,-0.0875244,0.061657,0.0479364,0.0375989,0.0930163,0.016577,0.695161,0.0572903,0.0442091,545,1065,-63.601,0.0874712
-672,-41,-63.132,1.04346,0.0543016,0.0474175,0.0341307,0.0851633,0.0165557,0.735144,0.0521406,0.044211,552,1065,-63.1321,-1.04343
-665,-41,-62.628,2.26208,0.0461047,0.045163,0.0298077,0.0754452,0.0158224,0.777501,0.0459401,0.0450063,559,1065,-62.628,-2.26205
-658,-41,-62.1793,3.83752,0.0378331,0.0415001,0.0250233,0.0647569,0.0145762,0.821969,0.0392259,0.0457752,566,1065,-62.1793,-3.83755
-651,-41,-61.8981,4.80481,0.0298976,0.0366707,0.0200574,0.0536253,0.0129429,0.869031,0.0323119,0.0348289,573,1065,-61.8981,-4.80479
-644,-41,-62.0471,5.29309,0.0227246,0.0312847,0.0150964,0.0426961,0.0113132,0.923531,0.0255422,0.0170983,580,1065,-62.047,-5.2931
-637,-41,-62.1318,5.65771,0.0157136,0.0255667,0.0103804,0.0321303,0.00914998,1.00696,0.0191147,0.0187001,587,1065,-62.1318,-5.65775
-630,-41,-62.1527,6.07068,0.00973232,0.0195731,0.00646222,0.0227749,0.00653048,1.11078,0.0135419,0.0175659,594,1065,-62.1527,-6.07069
-623,-41,-62.146,6.47388,0.00541144,0.0131078,0.00274889,0.0139888,0.00453046,1.26065,0.00824177,0.0141954,601,1065,-62.146,-6.47392
-616,-41,-62.1556,6.90063,0.00267712,0.00743425,4.99797e-05,0.00743477,0.00267659,1.56029,0.00434819,0.0177244,608,1065,-62.1557,-6.90058
-609,-41,-62.1546,7.27454,0.00138845,0.00360037,-0.00180635,0.00461243,0.000376382,-1.06009,0.00295749,0.0244594,615,1065,-62.1546,-7.27451
-602,-41,-62.165,7.56384,0.000987496,0.000634865,-0.00243228,0.00324984,-0.00162748,-0.749216,0.00286738,0.015126,622,1065,-62.165,-7.56385
-595,-41,-62.3087,7.80823,0.000848344,-0.000791076,-0.00267105,0.00282264,-0.00276537,-0.636517,0.00322629,0.0254934,629,1065,-62.3087,-7.80826
-588,-41,-62.7696,7.92505,0,0,0,0,0,0,0,-1,636,1065,-62.7696,-7.92506
-581,-41,-62.4086,0.438965,0.00185986,-0.00199836,-0.00280568,0.00333565,-0.00347415,-0.48423,0.00393191,0.0379446,643,1065,-62.4085,-0.438957
-574,-41,-62.4139,0.592773,0.00205973,-0.0019825,-0.0028168,0.0035055,-0.00342827,-0.474204,0.0040033,0.0382827,650,1065,-62.414,-0.59282
-567,-41,-62.4449,0.611938,0.00210185,-0.00146185,-0.00282684,0.00366156,-0.00302156,-0.504185,0.00386439,0.0439631,657,1065,-62.4449,-0.611891
-560,-41,-62.566,0.405396,0.00208799,-0.000495391,-0.00286142,0.00393576,-0.00234316,-0.573383,0.0036638,0.0436725,664,1065,-62.5661,-0.405396
-553,-41,-62.4924,0.855225,0.00221281,0.000701884,-0.00301606,0.00456658,-0.00165189,-0.662683,0.00371937,0.0458038,671,1065,-62.4924,-0.855181
-546,-41,-62.4957,0.920654,0.00289515,0.00177208,-0.00344784,0.00582688,-0.00115965,-0.704674,0.0043233,0.0434912,678,1065,-62.4957,-0.92061
-539,-41,-62.4714,0.766235,0.00429206,0.00219744,-0.00435329,0.00772225,-0.00123275,-0.667352,0.00560445,0.0398101,685,1065,-62.4714,-0.766199
-532,-41,-62.4603,0.672119,0.00578931,0.00274125,-0.00504111,0.00953172,-0.00100117,-0.638606,0.00671314,0.0382844,692,1065,-62.4603,-0.672121
-525,-41,0,0,0,0,0,0,0,0,0,-1,699,1065,0,0
-518,-41,0,0,0,0,0,0,0,0,0,-1,706,1065,0,0
-511,-41,0,0,0,0,0,0,0,0,0,-1,713,1065,0,0
-504,-41,0,0,0,0,0,0,0,0,0,-1,720,1065,0,0
-497,-41,0,0,0,0,0,0,0,0,0,-1,727,1065,0,0
-490,-41,0,0,0,0,0,0,0,0,0,-1,734,1065,0,0
-483,-41,0,0,0,0,0,0,0,0,0,-1,741,1065,0,0
-476,-41,0,0,0,0,0,0,0,0,0,-1,748,1065,0,0
-469,-41,0,0,0,0,0,0,0,0,0,-1,755,1065,0,0
-462,-41,0,0,0,0,0,0,0,0,0,-1,762,1065,0,0
-455,-41,0,0,0,0,0,0,0,0,0,-1,769,1065,0,0
-448,-41,0,0,0,0,0,0,0,0,0,-1,776,1065,0,0
-441,-41,0,0,0,0,0,0,0,0,0,-1,783,1065,0,0
-434,-41,0,0,0,0,0,0,0,0,0,-1,790,1065,0,0
-427,-41,0,0,0,0,0,0,0,0,0,-1,797,1065,0,0
-420,-41,0,0,0,0,0,0,0,0,0,-1,804,1065,0,0
-413,-41,0,0,0,0,0,0,0,0,0,-1,811,1065,0,0
-406,-41,0,0,0,0,0,0,0,0,0,-1,818,1065,0,0
-399,-41,0,0,0,0,0,0,0,0,0,-1,825,1065,0,0
-392,-41,0,0,0,0,0,0,0,0,0,-1,832,1065,0,0
-385,-41,0,0,0,0,0,0,0,0,0,-1,839,1065,0,0
-378,-41,0,0,0,0,0,0,0,0,0,-1,846,1065,0,0
-371,-41,0,0,0,0,0,0,0,0,0,-1,853,1065,0,0
-364,-41,0,0,0,0,0,0,0,0,0,-1,860,1065,0,0
-357,-41,0,0,0,0,0,0,0,0,0,-1,867,1065,0,0
-350,-41,0,0,0,0,0,0,0,0,0,-1,874,1065,0,0
-343,-41,0,0,0,0,0,0,0,0,0,-1,881,1065,0,0
-336,-41,0,0,0,0,0,0,0,0,0,-1,888,1065,0,0
-329,-41,0,0,0,0,0,0,0,0,0,-1,895,1065,0,0
-322,-41,0,0,0,0,0,0,0,0,0,-1,902,1065,0,0
-315,-41,0,0,0,0,0,0,0,0,0,-1,909,1065,0,0
-308,-41,0,0,0,0,0,0,0,0,0,-1,916,1065,0,0
-301,-41,0,0,0,0,0,0,0,0,0,-1,923,1065,0,0
-294,-41,0,0,0,0,0,0,0,0,0,-1,930,1065,0,0
-287,-41,0,0,0,0,0,0,0,0,0,-1,937,1065,0,0
-280,-41,0,0,0,0,0,0,0,0,0,-1,944,1065,0,0
-273,-41,0,0,0,0,0,0,0,0,0,-1,951,1065,0,0
-266,-41,0,0,0,0,0,0,0,0,0,-1,958,1065,0,0
-259,-41,0,0,0,0,0,0,0,0,0,-1,965,1065,0,0
-252,-41,0,0,0,0,0,0,0,0,0,-1,972,1065,0,0
-245,-41,0,0,0,0,0,0,0,0,0,-1,979,1065,0,0
-238,-41,0,0,0,0,0,0,0,0,0,-1,986,1065,0,0
-231,-41,0,0,0,0,0,0,0,0,0,-1,993,1065,0,0
-224,-41,0,0,0,0,0,0,0,0,0,-1,1000,1065,0,0
-217,-41,0,0,0,0,0,0,0,0,0,-1,1007,1065,0,0
-210,-41,0,0,0,0,0,0,0,0,0,-1,1014,1065,0,0
-203,-41,0,0,0,0,0,0,0,0,0,-1,1021,1065,0,0
-196,-41,0,0,0,0,0,0,0,0,0,-1,1028,1065,0,0
-189,-41,0,0,0,0,0,0,0,0,0,-1,1035,1065,0,0
-182,-41,0,0,0,0,0,0,0,0,0,-1,1042,1065,0,0
-175,-41,0,0,0,0,0,0,0,0,0,-1,1049,1065,0,0
-168,-41,0,0,0,0,0,0,0,0,0,-1,1056,1065,0,0
-161,-41,0,0,0,0,0,0,0,0,0,-1,1063,1065,0,0
-154,-41,0,0,0,0,0,0,0,0,0,-1,1070,1065,0,0
-147,-41,0,0,0,0,0,0,0,0,0,-1,1077,1065,0,0
-140,-41,0,0,0,0,0,0,0,0,0,-1,1084,1065,0,0
-133,-41,0,0,0,0,0,0,0,0,0,-1,1091,1065,0,0
-126,-41,0,0,0,0,0,0,0,0,0,-1,1098,1065,0,0
-119,-41,0,0,0,0,0,0,0,0,0,-1,1105,1065,0,0
-112,-41,0,0,0,0,0,0,0,0,0,-1,1112,1065,0,0
-105,-41,0,0,0,0,0,0,0,0,0,-1,1119,1065,0,0
-98,-41,0,0,0,0,0,0,0,0,0,-1,1126,1065,0,0
-91,-41,0,0,0,0,0,0,0,0,0,-1,1133,1065,0,0
-84,-41,0,0,0,0,0,0,0,0,0,-1,1140,1065,0,0
-77,-41,0,0,0,0,0,0,0,0,0,-1,1147,1065,0,0
-70,-41,0,0,0,0,0,0,0,0,0,-1,1154,1065,0,0
-63,-41,0,0,0,0,0,0,0,0,0,-1,1161,1065,0,0
-56,-41,0,0,0,0,0,0,0,0,0,-1,1168,1065,0,0
-49,-41,0,0,0,0,0,0,0,0,0,-1,1175,1065,0,0
-42,-41,0,0,0,0,0,0,0,0,0,-1,1182,1065,0,0
-35,-41,0,0,0,0,0,0,0,0,0,-1,1189,1065,0,0
-28,-41,0,0,0,0,0,0,0,0,0,-1,1196,1065,0,0
-21,-41,0,0,0,0,0,0,0,0,0,-1,1203,1065,0,0
-14,-41,0,0,0,0,0,0,0,0,0,-1,1210,1065,0,0
-7,-41,0,0,0,0,0,0,0,0,0,-1,1217,1065,0,0
0,-41,0,0,0,0,0,0,0,0,0,-1,1224,1065,0,0
7,-41,0,0,0,0,0,0,0,0,0,-1,1231,1065,0,0
14,-41,0,0,0,0,0,0,0,0,0,-1,1238,1065,0,0
21,-41,0,0,0,0,0,0,0,0,0,-1,1245,1065,0,0
28,-41,0,0,0,0,0,0,0,0,0,-1,1252,1065,0,0
35,-41,0,0,0,0,0,0,0,0,0,-1,1259,1065,0,0
42,-41,0,0,0,0,0,0,0,0,0,-1,1266,1065,0,0
49,-41,0,0,0,0,0,0,0,0,0,-1,1273,1065,0,0
56,-41,0,0,0,0,0,0,0,0,0,-1,1280,1065,0,0
63,-41,0,0,0,0,0,0,0,0,0,-1,1287,1065,0,0
70,-41,0,0,0,0,0,0,0,0,0,-1,1294,1065,0,0
77,-41,0,0,0,0,0,0,0,0,0,-1,1301,1065,0,0
84,-41,0,0,0,0,0,0,0,0,0,-1,1308,1065,0,0
91,-41,0,0,0,0,0,0,0,0,0,-1,1315,1065,0,0
98,-41,0,0,0,0,0,0,0,0,0,-1,1322,1065,0,0
105,-41,0,0,0,0,0,0,0,0,0,-1,1329,1065,0,0
112,-41,0,0,0,0,0,0,0,0,0,-1,1336,1065,0,0
119,-41,0,0,0,0,0,0,0,0,0,-1,1343,1065,0,0
126,-41,0,0,0,0,0,0,0,0,0,-1,1350,1065,0,0
133,-41,0,0,0,0,0,0,0,0,0,-1,1357,1065,0,0
140,-41,0,0,0,0,0,0,0,0,0,-1,1364,1065,0,0
147,-41,0,0,0,0,0,0,0,0,0,-1,1371,1065,0,0
154,-41,0,0,0,0,0,0,0,0,0,-1,1378,1065,0,0
161,-41,0,0,0,0,0,0,0,0,0,-1,1385,1065,0,0
168,-41,0,0,0,0,0,0,0,0,0,-1,1392,1065,0,0
175,-41,0,0,0,0,0,0,0,0,0,-1,1399,1065,0,0
182,-41,0,0,0,0,0,0,0,0,0,-1,1406,1065,0,0
189,-41,0,0,0,0,0,0,0,0,0,-1,1413,1065,0,0
196,-41,0,0,0,0,0,0,0,0,0,-1,1420,1065,0,0
203,-41,0,0,0,0,0,0,0,0,0,-1,1427,1065,0,0
210,-41,0,0,0,0,0,0,0,0,0,-1,1434,1065,0,0
217,-41,0,0,0,0,0,0,0,0,0,-1,1441,1065,0,0
224,-41,0,0,0,0,0,0,0,0,0,-1,1448,1065,0,0
231,-41,0,0,0,0,0,0,0,0,0,-1,1455,1065,0,0
238,-41,0,0,0,0,0,0,0,0,0,-1,1462,1065,0,0
245,-41,0,0,0,0,0,0,0,0,0,-1,1469,1065,0,0
252,-41,0,0,0,0,0,0,0,0,0,-1,1476,1065,0,0
259,-41,0,0,0,0,0,0,0,0,0,-1,1483,1065,0,0
266,-41,0,0,0,0,0,0,0,0,0,-1,1490,1065,0,0
273,-41,0,0,0,0,0,0,0,0,0,-1,1497,1065,0,0
280,-41,0,0,0,0,0,0,0,0,0,-1,1504,1065,0,0
287,-41,0,0,0,0,0,0,0,0,0,-1,1511,1065,0,0
294,-41,0,0,0,0,0,0,0,0,0,-1,1518,1065,0,0
301,-41,0,0,0,0,0,0,0,0,0,-1,1525,1065,0,0
308,-41,0,0,0,0,0,0,0,0,0,-1,1532,1065,0,0
315,-41,0,0,0,0,0,0,0,0,0,-1,1539,1065,0,0
322,-41,0,0,0,0,0,0,0,0,0,-1,1546,1065,0,0
329,-41,0,0,0,0,0,0,0,0,0,-1,1553,1065,0,0
336,-41,0,0,0,0,0,0,0,0,0,-1,1560,1065,0,0
343,-41,0,0,0,0,0,0,0,0,0,-1,1567,1065,0,0
350,-41,0,0,0,0,0,0,0,0,0,-1,1574,1065,0,0
357,-41,0,0,0,0,0,0,0,0,0,-1,1581,1065,0,0
364,-41,0,0,0,0,0,0,0,0,0,-1,1588,1065,0,0
371,-41,0,0,0,0,0,0,0,0,0,-1,1595,1065,0,0
378,-41,0,0,0,0,0,0,0,0,0,-1,1602,1065,0,0
385,-41,0,0,0,0,0,0,0,0,0,-1,1609,1065,0,0
392,-41,0,0,0,0,0,0,0,0,0,-1,1616,1065,0,0
399,-41,0,0,0,0,0,0,0,0,0,-1,1623,1065,0,0
406,-41,0,0,0,0,0,0,0,0,0,-1,1630,1065,0,0
413,-41,0,0,0,0,0,0,0,0,0,-1,1637,1065,0,0
420,-41,0,0,0,0,0,0,0,0,0,-1,1644,1065,0,0
427,-41,0,0,0,0,0,0,0,0,0,-1,1651,1065,0,0
434,-41,0,0,0,0,0,0,0,0,0,-1,1658,1065,0,0
441,-41,0,0,0,0,0,0,0,0,0,-1,1665,1065,0,0
448,-41,0,0,0,0,0,0,0,0,0,-1,1672,1065,0,0
455,-41,0,0,0,0,0,0,0,0,0,-1,1679,1065,0,0
462,-41,0,0,0,0,0,0,0,0,0,-1,1686,1065,0,0
469,-41,0,0,0,0,0,0,0,0,0,-1,1693,1065,0,0
476,-41,0,0,0,0,0,0,0,0,0,-1,1700,1065,0,0
483,-41,0,0,0,0,0,0,0,0,0,-1,1707,1065,0,0
490,-41,0,0,0,0,0,0,0,0,0,-1,1714,1065,0,0
497,-41,0,0,0,0,0,0,0,0,0,-1,1721,1065,0,0
504,-41,0,0,0,0,0,0,0,0,0,-1,1728,1065,0,0
511,-41,0,0,0,0,0,0,0,0,0,-1,1735,1065,0,0
518,-41,0,0,0,0,0,0,0,0,0,-1,1742,1065,0,0
525,-41,0,0,0,0,0,0,0,0,0,-1,1749,1065,0,0
532,-41,0,0,0,0,0,0,0,0,0,-1,1756,1065,0,0
539,-41,0,0,0,0,0,0,0,0,0,-1,1763,1065,0,0
546,-41,0,0,0,0,0,0,0,0,0,-1,1770,1065,0,0
553,-41,0,0,0,0,0,0,0,0,0,-1,1777,1065,0,0
560,-41,0,0,0,0,0,0,0,0,0,-1,1784,1065,0,0
567,-41,0,0,0,0,0,0,0,0,0,-1,1791,1065,0,0
574,-41,0,0,0,0,0,0,0,0,0,-1,1798,1065,0,0
581,-41,0,0,0,0,0,0,0,0,0,-1,1805,1065,0,0
588,-41,0,0,0,0,0,0,0,0,0,-1,1812,1065,0,0
595,-41,0,0,0,0,0,0,0,0,0,-1,1819,1065,0,0
602,-41,0,0,0,0,0,0,0,0,0,-1,1826,1065,0,0
609,-41,0,0,0,0,0,0,0,0,0,-1,1833,1065,0,0
616,-41,0,0,0,0,0,0,0,0,0,-1,1840,1065,0,0
623,-41,0,0,0,0,0,0,0,0,0,-1,1847,1065,0,0
630,-41,0,0,0,0,0,0,0,0,0,-1,1854,1065,0,0
637,-41,0,0,0,0,0,0,0,0,0,-1,1861,1065,0,0
644,-41,0,0,0,0,0,0,0,0,0,-1,1868,1065,0,0
651,-41,78.9778,2.26624,-0.00642401,-0.000688038,0.00214542,2.56191e-05,-0.00713766,1.24967,0.00476701,0.037332,1875,1065,78.9778,-2.26619
658,-41,78.9742,2.32239,-0.00519239,-0.000549974,0.00140087,-0.000160015,-0.00558235,1.2993,0.00366939,0.0434035,1882,1065,78.9742,-2.32239
665,-41,78.9608,2.38879,-0.00401253,-0.00042471,0.000923948,-0.000200752,-0.00423648,1.33299,0.00275984,0.0444782,1889,1065,78.9608,-2.38879
672,-41,78.9619,2.25049,-0.00289405,-0.000242853,0.000684537,-7.65397e-05,-0.00306037,1.33246,0.00201522,0.0418841,1896,1065,78.962,-2.25049
679,-41,78.7363,2.38721,-0.00180108,-2.92319e-05,0.000555684,0.00013062,-0.00196093,1.29069,0.00135293,0.0404137,1903,1065,78.7363,-2.3872
686,-41,78.9539,2.53479,0,0,0,0,0,0,0,-1,1910,1065,78.9538,-2.53482
693,-41,78.9177,2.26392,-0.0012866,-0.000406763,0.00078595,5.40112e-05,-0.00174737,1.04054,0.00118333,0.0463339,1917,1065,78.9178,-2.26393
700,-41,78.8441,2.26526,-0.00131286,-0.000533431,0.00109115,0.000235511,-0.0020818,0.956917,0.00147266,0.0412236,1924,1065,78.8442,-2.26532
707,-41,78.822,2.34338,-0.00188717,-0.00041317,0.00139852,0.00043066,-0.002731,1.0279,0.00197989,0.030187,1931,1065,78.822,-2.34336
714,-41,78.8275,2.40442,-0.00270217,0.000125763,0.00166928,0.00089944,-0.00347584,1.13679,0.00266807,0.0289718,1938,1065,78.8275,-2.4044
721,-41,78.8413,2.52795,0,0,0,0,0,0,0,-1,1945,1065,78.8413,-2.52795
728,-41,78.1696,8.39661,0,0,0,0,0,0,0,-1,1952,1065,78.1695,-8.39663
735,-41,77.9773,8.08398,-0.0063085,0.00376049,0.0022542,0.00424211,-0.00679012,1.36031,0.00642584,0.0248742,1959,1065,77.9773,-8.08398
742,-41,77.8514,7.75342,-0.00753523,0.00531232,0.00230323,0.00571275,-0.00793566,1.39866,0.00791467,0.0214978,1966,1065,77.8515,-7.75347
749,-41,77.8125,7.48938,-0.00860022,0.00709611,0.00262778,0.00752435,-0.00902846,1.40925,0.00956991,0.0177069,1973,1065,77.8125,-7.48941
756,-41,77.8003,7.19543,-0.0095,0.0093948,0.00247106,0.00971262,-0.00981782,1.44288,0.011276,0.015146,1980,1065,77.8004,-7.1954
763,-41,77.6887,6.83105,-0.0101644,0.0126867,0.00192144,0.0128472,-0.0103248,1.48749,0.0134048,0.0131885,1987,1065,77.6886,-6.83103
770,-41,77.5383,6.50085,-0.0101857,0.0166396,0.00117417,0.0166909,-0.010237,1.52714,0.015695,0.0144452,1994,1065,77.5384,-6.50085
777,-41,77.3113,6.1748,-0.0092099,0.0211519,6.80552e-05,0.0211521,-0.00921005,1.56855,0.0179759,0.0177955,2001,1065,77.3114,-6.17481
784,-41,77.095,5.78479,-0.00765761,0.0255444,-0.00136029,0.0256001,-0.00771325,-1.52992,0.0201364,0.0299913,2008,1065,77.095,-5.78483
791,-41,77.0896,5.37292,-0.00546082,0.0297889,-0.00337847,0.0301098,-0.00578171,-1.4761,0.0222522,0.0448036,2015,1065,77.0896,-5.37291
798,-41,77.1575,4.91968,0,0,0,0,0,0,0,-1,2022,1065,77.1574,-4.91965
805,-41,77.0862,2.87451,0,0,0,0,0,0,0,-1,2029,1065,77.0861,-2.87451
812,-41,77.4431,3.07104,0,0,0,0,0,0,0,-1,2036,1065,77.443,-3.07099
-700,-48,-64.4902,-3.64343,0,0,0,0,0,0,0,-1,524,1072,-64.4902,3.64345
-693,-48,-64.0706,-2.45642,0.0631141,0.0442477,0.0317313,0.0867847,0.0205771,0.640917,0.052363,0.0448915,531,1072,-64.0707,2.4564
-686,-48,-63.6377,-1.52954,0.0637329,0.0494735,0.0345908,0.0919212,0.0212853,0.683764,0.0555618,0.0445349,538,1072,-63.6377,1.52959
-679,-48,-63.3513,-0.562744,0.0589929,0.0507011,0.0337129,0.0888139,0.0208801,0.724217,0.0536219,0.0440734,545,1072,-63.3513,0.562802
-672,-48,-62.927,0.642578,0.0519384,0.0494027,0.0309554,0.0816519,0.0196892,0.764931,0.0492027,0.0440649,552,1072,-62.927,-0.64255
-665,-48,-62.4854,1.82947,0.0439972,0.0463307,0.0271958,0.0723847,0.0179431,0.806836,0.0435262,0.0459673,559,1072,-62.4854,-1.82952
-658,-48,-61.9473,2.93311,0.0359887,0.0419354,0.0228961,0.0620504,0.0158736,0.849968,0.0372216,0.0493419,566,1072,-61.9473,-2.93309
-651,-48,-61.3685,4.34924,0.0283553,0.0365347,0.0183752,0.0512699,0.0136201,0.894898,0.0306652,0.043642,573,1072,-61.3685,-4.3492
-644,-48,-61.5149,5.25391,0.0215347,0.0307222,0.0138221,0.040694,0.011563,0.945829,0.0242135,0.0253594,580,1072,-61.5149,-5.25387
-637,-48,-61.6056,5.52112,0.0148935,0.0245785,0.00943704,0.030343,0.00912903,1.02245,0.0179757,0.0265911,587,1072,-61.6056,-5.52115
-630,-48,-61.6472,5.95935,0.00926848,0.0182912,0.00581683,0.0211411,0.0064186,1.11523,0.0125157,0.0310182,594,1072,-61.6472,-5.95933
-623,-48,-61.7505,6.40063,0.00527669,0.0120186,0.00238683,0.0127781,0.00451723,1.26274,0.00748223,0.0142316,601,1072,-61.7505,-6.40063
-616,-48,-61.7672,6.83789,0.00274516,0.00665236,-0.000145476,0.00665776,0.00273975,-1.53363,0.00386387,0.0117149,608,1072,-61.7672,-6.83786
-609,-48,-61.717,7.29846,0.00153331,0.00308075,-0.0018733,0.00433382,0.000280243,-0.981241,0.00280048,0.0134522,615,1072,-61.7171,-7.29845
-602,-48,-61.7026,7.66394,0.00123504,0.000385447,-0.00246821,0.00331474,-0.00169426,-0.70018,0.00294196,0.0139312,622,1072,-61.7027,-7.66399
-595,-48,-61.7224,7.98486,0.00116267,-0.000851935,-0.00272657,0.00306205,-0.00275132,-0.608455,0.00335795,0.0354885,629,1072,-61.7224,-7.98484
-588,-48,-61.9379,8.28284,0,0,0,0,0,0,0,-1,636,1072,-61.9378,-8.28286
-581,-48,-62.3995,0.450195,0,0,0,0,0,0,0,-1,643,1072,-62.3995,-0.45019
-574,-48,-62.4136,0.629761,0.00233685,-0.00178174,-0.00277164,0.00373049,-0.00317537,-0.465899,0.00399139,0.0416346,650,1072,-62.4136,-0.629741
-567,-48,-62.4262,0.716431,0.00238452,-0.00124058,-0.00274622,0.00386242,-0.00271847,-0.493706,0.00381856,0.0419768,657,1072,-62.4262,-0.716423
-560,-48,-62.4348,0.712646,0.00233537,-0.000261469,-0.0027439,0.00407256,-0.00199865,-0.564408,0.00357273,0.041678,664,1072,-62.4348,-0.71268
-553,-48,-62.3412,0.723511,0.00240909,0.000943781,-0.00284548,0.00461473,-0.00126186,-0.659395,0.00357218,0.0441818,671,1072,-62.3412,-0.72357
-546,-48,-62.5027,0.816772,0.00302498,0.00203664,-0.00322045,0.00578895,-0.000727328,-0.709268,0.00412318,0.0409194,678,1072,-62.5027,-0.816716
-539,-48,-62.5593,0.799194,0.00441124,0.0024519,-0.0041144,0.00766099,-0.000797858,-0.66852,0.00539299,0.0386641,685,1072,-62.5593,-0.799164
-532,-48,-62.5443,0.7052,0.00589711,0.00298606,-0.00481783,0.00947448,-0.000591318,-0.638701,0.00652237,0.0370493,692,1072,-62.5443,-0.70521
-525,-48,0,0,0,0,0,0,0,0,0,-1,699,1072,0,0
-518,-48,0,0,0,0,0,0,0,0,0,-1,706,1072,0,0
-511,-48,0,0,0,0,0,0,0,0,0,-1,713,1072,0,0
-504,-48,0,0,0,0,0,0,0,0,0,-1,720,1072,0,0
-497,-48,0,0,0,0,0,0,0,0,0,-1,727,1072,0,0
-490,-48,0,0,0,0,0,0,0,0,0,-1,734,1072,0,0
-483,-48,0,0,0,0,0,0,0,0,0,-1,741,1072,0,0
-476,-48,0,0,0,0,0,0,0,0,0,-1,748,1072,0,0
-469,-48,0,0,0,0,0,0,0,0,0,-1,755,1072,0,0
-462,-48,0,0,0,0,0,0,0,0,0,-1,762,1072,0,0
-455,-48,0,0,0,0,0,0,0,0,0,-1,769,1072,0,0
-448,-48,0,0,0,0,0,0,0,0,0,-1,776,1072,0,0
-441,-48,0,0,0,0,0,0,0,0,0,-1,783,1072,0,0
-434,-48,0,0,0,0,0,0,0,0,0,-1,790,1072,0,0
-427,-48,0,0,0,0,0,0,0,0,0,-1,797,1072,0,0
-420,-48,0,0,0,0,0,0,0,0,0,-1,804,1072,0,0
-413,-48,0,0,0,0,0,0,0,0,0,-1,811,1072,0,0
-406,-48,0,0,0,0,0,0,0,0,0,-1,818,1072,0,0
-399,-48,0,0,0,0,0,0,0,0,0,-1,825,1072,0,0
-392,-48,0,0,0,0,0,0,0,0,0,-1,832,1072,0,0
-385,-48,0,0,0,0,0,0,0,0,0,-1,839,1072,0,0
-378,-48,0,0,0,0,0,0,0,0,0,-1,846,1072,0,0
-371,-48,0,0,0,0,0,0,0,0,0,-1,853,1072,0,0
-364,-48,0,0,0,0,0,0,0,0,0,-1,860,1072,0,0
-357,-48,0,0,0,0,0,0,0,0,0,-1,867,1072,0,0
-350,-48,0,0,0,0,0,0,0,0,0,-1,874,1072,0,0
-343,-48,0,0,0,0,0,0,0,0,0,-1,881,1072,0,0
-336,-48,0,0,0,0,0,0,0,0,0,-1,888,1072,0,0
-329,-48,0,0,0,0,0,0,0,0,0,-1,895,1072,0,0
-322,-48,0,0,0,0,0,0,0,0,0,-1,902,1072,0,0
-315,-48,0,0,0,0,0,0,0,0,0,-1,909,1072,0,0
-308,-48,0,0,0,0,0,0,0,0,0,-1,916,1072,0,0
-301,-48,0,0,0,0,0,0,0,0,0,-1,923,1072,0,0
-294,-48,0,0,0,0,0,0,0,0,0,-1,930,1072,0,0
-287,-48,0,0,0,0,0,0,0,0,0,-1,937,1072,0,0
-280,-48,0,0,0,0,0,0,0,0,0,-1,944,1072,0,0
-273,-48,0,0,0,0,0,0,0,0,0,-1,951,1072,0,0
-266,-48,0,0,0,0,0,0,0,0,0,-1,958,1072,0,0
-259,-48,0,0,0,0,0,0,0,0,0,-1,965,1072,0,0
-252,-48,0,0,0,0,0,0,0,0,0,-1,972,1072,0,0
-245,-48,0,0,0,0,0,0,0,0,0,-1,979,1072,0,0
-238,-48,0,0,0,0,0,0,0,0,0,-1,986,1072,0,0
-231,-48,0,0,0,0,0,0,0,0,0,-1,993,1072,0,0
-224,-48,0,0,0,0,0,0,0,0,0,-1,1000,1072,0,0
-217,-48,0,0,0,0,0,0,0,0,0,-1,1007,1072,0,0
-210,-48,0,0,0,0,0,0,0,0,0,-1,1014,1072,0,0
-203,-48,0,0,0,0,0,0,0,0,0,-1,1021,1072,0,0
-196,-48,0,0,0,0,0,0,0,0,0,-1,1028,1072,0,0
-189,-48,0,0,0,0,0,0,0,0,0,-1,1035,1072,0,0
-182,-48,0,0,0,0,0,0,0,0,0,-1,1042,1072,0,0
-175,-48,0,0,0,0,0,0,0,0,0,-1,1049,1072,0,0
-168,-48,0,0,0,0,0,0,0,0,0,-1,1056,1072,0,0
-161,-48,0,0,0,0,0,0,0,0,0,-1,1063,1072,0,0
-154,-48,0,0,0,0,0,0,0,0,0,-1,1070,1072,0,0
-147,-48,0,0,0,0,0,0,0,0,0,-1,1077,1072,0,0
-140,-48,0,0,0,0,0,0,0,0,0,-1,1084,1072,0,0
-133,-48,0,0,0,0,0,0,0,0,0,-1,1091,1072,0,0
-126,-48,0,0,0,0,0,0,0,0,0,-1,1098,1072,0,0
-119,-48,0,0,0,0,0,0,0,0,0,-1,1105,1072,0,0
-112,-48,0,0,0,0,0,0,0,0,0,-1,1112,1072,0,0
-105,-48,0,0,0,0,0,0,0,0,0,-1,1119,1072,0,0
-98,-48,0,0,0,0,0,0,0,0,0,-1,1126,1072,0,0
-91,-48,0,0,0,0,0,0,0,0,0,-1,1133,1072,0,0
-84,-48,0,0,0,0,0,0,0,0,0,-1,1140,1072,0,0
-77,-48,0,0,0,0,0,0,0,0,0,-1,1147,1072,0,0
-70,-48,0,0,0,0,0,0,0,0,0,-1,1154,1072,0,0
-63,-48,0,0,0,0,0,0,0,0,0,-1,1161,1072,0,0
-56,-48,0,0,0,0,0,0,0,0,0,-1,1168,1072,0,0
-49,-48,0,0,0,0,0,0,0,0,0,-1,1175,1072,0,0
-42,-48,0,0,0,0,0,0,0,0,0,-1,1182,1072,0,0
-35,-48,0,0,0,0,0,0,0,0,0,-1,1189,1072,0,0
-28,-48,0,0,0,0,0,0,0,0,0,-1,1196,1072,0,0
-21,-48,0,0,0,0,0,0,0,0,0,-1,1203,1072,0,0
-14,-48,0,0,0,0,0,0,0,0,0,-1,1210,1072,0,0
-7,-48,0,0,0,0,0,0,0,0,0,-1,1217,1072,0,0
0,-48,0,0,0,0,0,0,0,0,0,-1,1224,1072,0,0
7,-48,0,0,0,0,0,0,0,0,0,-1,1231,1072,0,0
14,-48,0,0,0,0,0,0,0,0,0,-1,1238,1072,0,0
21,-48,0,0,0,0,0,0,0,0,0,-1,1245,1072,0,0
28,-48,0,0,0,0,0,0,0,0,0,-1,1252,1072,0,0
35,-48,0,0,0,0,0,0,0,0,0,-1,1259,1072,0,0
42,-48,0,0,0,0,0,0,0,0,0,-1,1266,1072,0,0
49,-48,0,0,0,0,0,0,0,0,0,-1,1273,1072,0,0
56,-48,0,0,0,0,0,0,0,0,0,-1,1280,1072,0,0
63,-48,0,0,0,0,0,0,0,0,0,-1,1287,1072,0,0
70,-48,0,0,0,0,0,0,0,0,0,-1,1294,1072,0,0
77,-48,0,0,0,0,0,0,0,0,0,-1,1301,1072,0,0
84,-48,0,0,0,0,0,0,0,0,0,-1,1308,1072,0,0
91,-48,0,0,0,0,0,0,0,0,0,-1,1315,1072,0,0
98,-48,0,0,0,0,0,0,0,0,0,-1,1322,1072,0,0
105,-48,0,0,0,0,0,0,0,0,0,-1,1329,1072,0,0
112,-48,0,0,0,0,0,0,0,0,0,-1,1336,1072,0,0
119,-48,0,0,0,0,0,0,0,0,0,-1,1343,1072,0,0
126,-48,0,0,0,0,0,0,0,0,0,-1,1350,1072,0,0
133,-48,0,0,0,0,0,0,0,0,0,-1,1357,1072,0,0
140,-48,0,0,0,0,0,0,0,0,0,-1,1364,1072,0,0
147,-48,0,0,0,0,0,0,0,0,0,-1,1371,1072,0,0
154,-48,0,0,0,0,0,0,0,0,0,-1,1378,1072,0,0
161,-48,0,0,0,0,0,0,0,0,0,-1,1385,1072,0,0
168,-48,0,0,0,0,0,0,0,0,0,-1,1392,1072,0,0
175,-48,0,0,0,0,0,0,0,0,0,-1,1399,1072,0,0
182,-48,0,0,0,0,0,0,0,0,0,-1,1406,1072,0,0
189,-48,0,0,0,0,0,0,0,0,0,-1,1413,1072,0,0
196,-48,0,0,0,0,0,0,0,0,0,-1,1420,1072,0,0
203,-48,0,0,0,0,0,0,0,0,0,-1,1427,1072,0,0
210,-48,0,0,0,0,0,0,0,0,0,-1,1434,1072,0,0
217,-48,0,0,0,0,0,0,0,0,0,-1,1441,1072,0,0
224,-48,0,0,0,0,0,0,0,0,0,-1,1448,1072,0,0
231,-48,0,0,0,0,0,0,0,0,0,-1,1455,1072,0,0
238,-48,0,0,0,0,0,0,0,0,0,-1,1462,1072,0,0
245,-48,0,0,0,0,0,0,0,0,0,-1,1469,1072,0,0
252,-48,0,0,0,0,0,0,0,0,0,-1,1476,1072,0,0
259,-48,0,0,0,0,0,0,0,0,0,-1,1483,1072,0,0
266,-48,0,0,0,0,0,0,0,0,0,-1,1490,1072,0,0
273,-48,0,0,0,0,0,0,0,0,0,-1,1497,1072,0,0
280,-48,0,0,0,0,0,0,0,0,0,-1,1504,1072,0,0
287,-48,0,0,0,0,0,0,0,0,0,-1,1511,1072,0,0
294,-48,0,0,0,0,0,0,0,0,0,-1,1518,1072,0,0
301,-48,0,0,0,0,0,0,0,0,0,-1,1525,1072,0,0
308,-48,0,0,0,0,0,0,0,0,0,-1,1532,1072,0,0
315,-48,0,0,0,0,0,0,0,0,0,-1,1539,1072,0,0
322,-48,0,0,0,0,0,0,0,0,0,-1,1546,1072,0,0
329,-48,0,0,0,0,0,0,0,0,0,-1,1553,1072,0,0
336,-48,0,0,0,0,0,0,0,0,0,-1,1560,1072,0,0
343,-48,0,0,0,0,0,0,0,0,0,-1,1567,1072,0,0
350,-48,0,0,0,0,0,0,0,0,0,-1,1574,1072,0,0
357,-48,0,0,0,0,0,0,0,0,0,-1,1581,1072,0,0
364,-48,0,0,0,0,0,0,0,0,0,-1,1588,1072,0,0
371,-48,0,0,0,0,0,0,0,0,0,-1,1595,1072,0,0
378,-48,0,0,0,0,0,0,0,0,0,-1,1602,1072,0,0
385,-48,0,0,0,0,0,0,0,0,0,-1,1609,1072,0,0
392,-48,0,0,0,0,0,0,0,0,0,-1,1616,1072,0,0
399,-48,0,0,0,0,0,0,0,0,0,-1,1623,1072,0,0
406,-48,0,0,0,0,0,0,0,0,0,-1,1630,1072,0,0
413,-48,0,0,0,0,0,0,0,0,0,-1,1637,1072,0,0
420,-48,0,0,0,0,0,0,0,0,0,-1,1644,1072,0,0
427,-48,0,0,0,0,0,0,0,0,0,-1,1651,1072,0,0
434,-48,0,0,0,0,0,0,0,0,0,-1,1658,1072,0,0
441,-48,0,0,0,0,0,0,0,0,0,-1,1665,1072,0,0
448,-48,0,0,0,0,0,0,0,0,0,-1,1672,1072,0,0
455,-48,0,0,0,0,0,0,0,0,0,-1,1679,1072,0,0
462,-48,0,0,0,0,0,0,0,0,0,-1,1686,1072,0,0
469,-48,0,0,0,0,0,0,0,0,0,-1,1693,1072,0,0
476,-48,0,0,0,0,0,0,0,0,0,-1,1700,1072,0,0
483,-48,0,0,0,0,0,0,0,0,0,-1,1707,1072,0,0
490,-48,0,0,0,0,0,0,0,0,0,-1,1714,1072,0,0
497,-48,0,0,0,0,0,0,0,0,0,-1,1721,1072,0,0
504,-48,0,0,0,0,0,0,0,0,0,-1,1728,1072,0,0
511,-48,0,0,0,0,0,0,0,0,0,-1,1735,1072,0,0
518,-48,0,0,0,0,0,0,0,0,0,-1,1742,1072,0,0
525,-48,0,0,0,0,0,0,0,0,0,-1,1749,1072,0,0
532,-48,0,0,0,0,0,0,0,0,0,-1,1756,1072,0,0
539,-48,0,0,0,0,0,0,0,0,0,-1,1763,1072,0,0
546,-48,0,0,0,0,0,0,0,0,0,-1,1770,1072,0,0
553,-48,0,0,0,0,0,0,0,0,0,-1,1777,1072,0,0
560,-48,0,0,0,0,0,0,0,0,0,-1,1784,1072,0,0
567,-48,0,0,0,0,0,0,0,0,0,-1,1791,1072,0,0
574,-48,0,0,0,0,0,0,0,0,0,-1,1798,1072,0,0
581,-48,0,0,0,0,0,0,0,0,0,-1,1805,1072,0,0
588,-48,0,0,0,0,0,0,0,0,0,-1,1812,1072,0,0
595,-48,0,0,0,0,0,0,0,0,0,-1,1819,1072,0,0
602,-48,0,0,0,0,0,0,0,0,0,-1,1826,1072,0,0
609,-48,0,0,0,0,0,0,0,0,0,-1,1833,1072,0,0
616,-48,0,0,0,0,0,0,0,0,0,-1,1840,1072,0,0
623,-48,0,0,0,0,0,0,0,0,0,-1,1847,1072,0,0
630,-48,0,0,0,0,0,0,0,0,0,-1,1854,1072,0,0
637,-48,0,0,0,0,0,0,0,0,0,-1,1861,1072,0,0
644,-48,0,0,0,0,0,0,0,0,0,-1,1868,1072,0,0
651,-48,78.8838,2.24121,-0.00562684,-0.000390734,0.00291252,0.000907457,-0.00692503,1.1515,0.00494699,0.0335697,1875,1072,78.8838,-2.24127
658,-48,78.9855,2.40112,-0.00466762,-0.000284773,0.00192451,0.00044032,-0.00539271,1.21048,0.00375054,0.0398955,1882,1072,78.9854,-2.40107
665,-48,78.9404,2.49731,-0.00364386,-0.000186238,0.00127219,0.0002314,-0.00406149,1.2536,0.002788,0.043038,1889,1072,78.9404,-2.49733
672,-48,78.7777,2.47119,-0.00261869,-2.46053e-05,0.000879456,0.00024544,-0.00288873,1.27288,0.00201263,0.0391062,1896,1072,78.7776,-2.47113
679,-48,78.6855,2.28613,-0.00158449,0.000185865,0.000605993,0.000373426,-0.00177205,1.27064,0.00132352,0.0372368,1903,1072,78.6856,-2.28611
686,-48,78.8427,2.42517,-0.00118828,7.45568e-05,0.000512972,0.000256667,-0.00137039,1.22967,0.00101008,0.0386729,1910,1072,78.8427,-2.42519
693,-48,78.8494,2.3363,-0.00106212,-0.000191979,0.000647305,0.00015288,-0.00140698,1.08128,0.000992878,0.0409006,1917,1072,78.8493,-2.33627
700,-48,78.8479,2.2959,-0.00105531,-0.000317636,0.000893362,0.000280035,-0.00165298,0.981171,0.00120621,0.0361992,1924,1072,78.8479,-2.29588
707,-48,78.8701,2.33899,-0.00156138,-0.000228071,0.00117326,0.000454708,-0.00224415,1.04375,0.00166846,0.0273824,1931,1072,78.8701,-2.33896
714,-48,78.8186,2.41382,-0.00227734,0.000202269,0.00143918,0.000862028,-0.0029371,1.14096,0.00229991,0.043888,1938,1072,78.8186,-2.41386
721,-48,78.8721,2.50439,0,0,0,0,0,0,0,-1,1945,1072,78.8721,-2.50443
728,-48,77.6898,8.6814,0,0,0,0,0,0,0,-1,1952,1072,77.6898,-8.68145
735,-48,77.559,8.30408,-0.00553428,0.00337434,0.00221509,0.00389471,-0.00605466,1.34006,0.00578922,0.0270814,1959,1072,77.559,-8.30408
742,-48,77.3961,7.88562,-0.00675153,0.00478161,0.00236721,0.00524858,-0.0072185,1.37603,0.00722776,0.0205188,1966,1072,77.3961,-7.88556
749,-48,77.3601,7.48877,-0.00782183,0.00633047,0.00278531,0.00685891,-0.00835028,1.3833,0.00879509,0.0166045,1973,1072,77.3601,-7.48875
756,-48,77.3245,7.12634,-0.00881135,0.00839273,0.00270723,0.00880869,-0.0092273,1.41834,0.010414,0.0140186,1980,1072,77.3245,-7.12635
763,-48,77.2361,6.76331,-0.00964006,0.0113806,0.00231213,0.0116319,-0.00989137,1.46253,0.01244,0.0138181,1987,1072,77.2361,-6.76325
770,-48,77.1733,6.38074,-0.00998469,0.0149493,0.00174034,0.0150702,-0.0101056,1.50145,0.0146291,0.0154107,1994,1072,77.1734,-6.38075
777,-48,76.9668,5.98303,-0.00963039,0.0188599,0.000855553,0.0188856,-0.00965606,1.5408,0.0167632,0.0143383,2001,1072,76.9669,-5.98305
784,-48,76.7739,5.55005,-0.00882762,0.0225549,-0.000342415,0.0225586,-0.00883136,-1.55989,0.0186918,0.025839,2008,1072,76.7739,-5.55003
791,-48,76.9185,5.06787,-0.00758239,0.0258909,-0.00209364,0.0260213,-0.00771283,-1.50857,0.0204102,0.042197,2015,1072,76.9184,-5.06784
798,-48,77.0183,4.6615,-0.00521558,0.028867,-0.00461214,0.0294801,-0.00582868,-1.43864,0.0218569,0.0468144,2022,1072,77.0183,-4.6615
805,-48,76.9839,4.30676,0,0,0,0,0,0,0,-1,2029,1072,76.984,-4.30676
812,-48,76.8579,1.04956,0,0,0,0,0,0,0,-1,2036,1072,76.858,-1.04959
-700,-55,-64.1966,-3.88672,0,0,0,0,0,0,0,-1,524,1079,-64.1966,3.88676
-693,-55,-63.8843,-2.9126,0.0598763,0.047791,0.0254143,0.0799565,0.0277108,0.668683,0.0468817,0.0493316,531,1079,-63.8843,2.91258
-686,-55,-63.5575,-2.00916,0.0605295,0.0521732,0.0292834,0.0859313,0.0267714,0.714537,0.0507735,0.0469547,538,1079,-63.5575,2.00914
-679,-55,-63.2641,-1.41821,0.0559779,0.052452,0.0292307,0.0834988,0.0249311,0.75528,0.0494948,0.0462007,545,1079,-63.2641,1.41825
-672,-55,-62.5793,-0.0181885,0.0491271,0.0502673,0.0271872,0.0768905,0.022504,0.795881,0.0456471,0.0488947,552,1079,-62.5793,0.0181503
-665,-55,-62.1671,1.34192,0.0414197,0.0464656,0.024088,0.0681625,0.0197228,0.837578,0.0405011,0.0495822,559,1079,-62.1671,-1.3419
-658,-55,-61.5821,2.10559,0,0,0,0,0,0,0,-1,566,1079,-61.5821,-2.10563
-651,-55,-61.0077,4.6449,0,0,0,0,0,0,0,-1,573,1079,-61.0077,-4.64485
-644,-55,-61.0909,5.0968,0.019845,0.0297433,0.0123302,0.0380805,0.0115078,0.976248,0.022552,0.0325817,580,1079,-61.0909,-5.09678
-637,-55,-61.1555,5.41797,0.0135174,0.0233342,0.00827843,0.02805,0.00880162,1.053,0.0165648,0.0251595,587,1079,-61.1555,-5.41794
-630,-55,-61.2145,5.90466,0.00820042,0.0169185,0.00499936,0.0191924,0.00592662,1.14394,0.0113476,0.0267918,594,1079,-61.2145,-5.9047
-623,-55,-61.3842,6.44202,0.00452922,0.0109066,0.00184659,0.0114027,0.00403312,1.30834,0.00667662,0.0196028,601,1079,-61.3841,-6.44198
-616,-55,-61.4052,6.87573,0.00229721,0.00590496,-0.000446722,0.00595945,0.00224272,-1.44942,0.0034756,0.0185172,608,1079,-61.4052,-6.87572
-609,-55,-61.3304,7.35864,0.00125485,0.00264984,-0.00197198,0.00404404,-0.000139346,-0.955383,0.00274366,0.0197012,615,1079,-61.3304,-7.35864
-602,-55,-61.2302,7.7782,0.00111089,0.000305714,-0.00253483,0.0032749,-0.00185829,-0.706644,0.00300103,0.0155457,622,1079,-61.2302,-7.77818
-595,-55,-61.0249,8.22961,0.00116632,-0.00069702,-0.00282771,0.00321189,-0.00274259,-0.626259,0.00344138,0.0344095,629,1079,-61.0249,-8.22959
-588,-55,-60.9351,8.75891,0,0,0,0,0,0,0,-1,636,1079,-60.935,-8.75885
-581,-55,-62.4198,0.626953,0,0,0,0,0,0,0,-1,643,1079,-62.4198,-0.627002
-574,-55,-62.3739,0.799316,0.00244314,-0.00141732,-0.00276522,0.00388518,-0.00285936,-0.480694,0.00390895,0.0395997,650,1079,-62.3739,-0.799324
-567,-55,-62.3453,0.650024,0.00256726,-0.00085397,-0.00270313,0.00405556,-0.00234228,-0.503294,0.00373768,0.0398058,657,1079,-62.3453,-0.649977
-560,-55,-62.3032,0.631714,0.00254003,0.000139183,-0.00264172,0.00424127,-0.00156206,-0.572141,0.00346754,0.0419668,664,1079,-62.3032,-0.631741
-553,-55,-62.312,0.692139,0.00258321,0.00136418,-0.00262561,0.00466912,-0.000721732,-0.671348,0.00337912,0.0425633,671,1079,-62.312,-0.692176
-546,-55,-62.5121,0.718018,0.00312382,0.00249975,-0.002807,0.00563607,-1.25053e-05,-0.730044,0.00376156,0.0405569,678,1079,-62.5122,-0.718022
-539,-55,-62.5099,0.652466,0.00445269,0.00292076,-0.0034128,0.00718442,0.000189022,-0.675008,0.00472787,0.0393802,685,1079,-62.5099,-0.652501
-532,-55,-62.4799,0.615723,0.00584463,0.00339833,-0.00383556,0.00864735,0.000595608,-0.631047,0.00557697,0.0372746,692,1079,-62.4799,-0.615749
-525,-55,0,0,0,0,0,0,0,0,0,-1,699,1079,0,0
-518,-55,0,0,0,0,0,0,0,0,0,-1,706,1079,0,0
-511,-55,0,0,0,0,0,0,0,0,0,-1,713,1079,0,0
-504,-55,0,0,0,0,0,0,0,0,0,-1,720,1079,0,0
-497,-55,0,0,0,0,0,0,0,0,0,-1,727,1079,0,0
-490,-55,0,0,0,0,0,0,0,0,0,-1,734,1079,0,0
-483,-55,0,0,0,0,0,0,0,0,0,-1,741,1079,0,0
-476,-55,0,0,0,0,0,0,0,0,0,-1,748,1079,0,0
-469,-55,0,0,0,0,0,0,0,0,0,-1,755,1079,0,0
-462,-55,0,0,0,0,0,0,0,0,0,-1,762,1079,0,0
-455,-55,0,0,0,0,0,0,0,0,0,-1,769,1079,0,0
-448,-55,0,0,0,0,0,0,0,0,0,-1,776,1079,0,0
-441,-55,0,0,0,0,0,0,0,0,0,-1,783,1079,0,0
-434,-55,0,0,0,0,0,0,0,0,0,-1,790,1079,0,0
-427,-55,0,0,0,0,0,0,0,0,0,-1,797,1079,0,0
-420,-55,0,0,0,0,0,0,0,0,0,-1,804,1079,0,0
-413,-55,0,0,0,0,0,0,0,0,0,-1,811,1079,0,0
-406,-55,0,0,0,0,0,0,0,0,0,-1,818,1079,0,0
-399,-55,0,0,0,0,0,0,0,0,0,-1,825,1079,0,0
-392,-55,0,0,0,0,0,0,0,0,0,-1,832,1079,0,0
-385,-55,0,0,0,0,0,0,0,0,0,-1,839,1079,0,0
-378,-55,0,0,0,0,0,0,0,0,0,-1,846,1079,0,0
-371,-55,0,0,0,0,0,0,0,0,0,-1,853,1079,0,0
-364,-55,0,0,0,0,0,0,0,0,0,-1,860,1079,0,0
-357,-55,0,0,0,0,0,0,0,0,0,-1,867,1079,0,0
-350,-55,0,0,0,0,0,0,0,0,0,-1,874,1079,0,0
-343,-55,0,0,0,0,0,0,0,0,0,-1,881,1079,0,0
-336,-55,0,0,0,0,0,0,0,0,0,-1,888,1079,0,0
-329,-55,0,0,0,0,0,0,0,0,0,-1,895,1079,0,0
-322,-55,0,0,0,0,0,0,0,0,0,-1,902,1079,0,0
-315,-55,0,0,0,0,0,0,0,0,0,-1,909,1079,0,0
-308,-55,0,0,0,0,0,0,0,0,0,-1,916,1079,0,0
-301,-55,0,0,0,0,0,0,0,0,0,-1,923,1079,0,0
-294,-55,0,0,0,0,0,0,0,0,0,-1,930,1079,0,0
-287,-55,0,0,0,0,0,0,0,0,0,-1,937,1079,0,0
-280,-55,0,0,0,0,0,0,0,0,0,-1,944,1079,0,0
-273,-55,0,0,0,0,0,0,0,0,0,-1,951,1079,0,0
-266,-55,0,0,0,0,0,0,0,0,0,-1,958,1079,0,0
-259,-55,0,0,0,0,0,0,0,0,0,-1,965,1079,0,0
-252,-55,0,0,0,0,0,0,0,0,0,-1,972,1079,0,0
-245,-55,0,0,0,0,0,0,0,0,0,-1,979,1079,0,0
-238,-55,0,0,0,0,0,0,0,0,0,-1,986,1079,0,0
-231,-55,0,0,0,0,0,0,0,0,0,-1,993,1079,0,0
-224,-55,0,0,0,0,0,0,0,0,0,-1,1000,1079,0,0
-217,-55,0,0,0,0,0,0,0,0,0,-1,1007,1079,0,0
-210,-55,0,0,0,0,0,0,0,0,0,-1,1014,1079,0,0
-203,-55,0,0,0,0,0,0,0,0,0,-1,1021,1079,0,0
-196,-55,0,0,0,0,0,0,0,0,0,-1,1028,1079,0,0
-189,-55,0,0,0,0,0,0,0,0,0,-1,1035,1079,0,0
-182,-55,0,0,0,0,0,0,0,0,0,-1,1042,1079,0,0
-175,-55,0,0,0,0,0,0,0,0,0,-1,1049,1079,0,0
-168,-55,0,0,0,0,0,0,0,0,0,-1,1056,1079,0,0
-161,-55,0,0,0,0,0,0,0,0,0,-1,1063,1079,0,0
-154,-55,0,0,0,0,0,0,0,0,0,-1,1070,1079,0,0
-147,-55,0,0,0,0,0,0,0,0,0,-1,1077,1079,0,0
-140,-55,0,0,0,0,0,0,0,0,0,-1,1084,1079,0,0
-133,-55,0,0,0,0,0,0,0,0,0,-1,1091,1079,0,0
-126,-55,0,0,0,0,0,0,0,0,0,-1,1098,1079,0,0
-119,-55,0,0,0,0,0,0,0,0,0,-1,1105,1079,0,0
-112,-55,0,0,0,0,0,0,0,0,0,-1,1112,1079,0,0
-105,-55,0,0,0,0,0,0,0,0,0,-1,1119,1079,0,0
-98,-55,0,0,0,0,0,0,0,0,0,-1,1126,1079,0,0
-91,-55,0,0,0,0,0,0,0,0,0,-1,1133,1079,0,0
-84,-55,0,0,0,0,0,0,0,0,0,-1,1140,1079,0,0
-77,-55,0,0,0,0,0,0,0,0,0,-1,1147,1079,0,0
-70,-55,0,0,0,0,0,0,0,0,0,-1,1154,1079,0,0
-63,-55,0,0,0,0,0,0,0,0,0,-1,1161,1079,0,0
-56,-55,0,0,0,0,0,0,0,0,0,-1,1168,1079,0,0
-49,-55,0,0,0,0,0,0,0,0,0,-1,1175,1079,0,0
-42,-55,0,0,0,0,0,0,0,0,0,-1,1182,1079,0,0
-35,-55,0,0,0,0,0,0,0,0,0,-1,1189,1079,0,0
-28,-55,0,0,0,0,0,0,0,0,0,-1,1196,1079,0,0
-21,-55,0,0,0,0,0,0,0,0,0,-1,1203,1079,0,0
-14,-55,0,0,0,0,0,0,0,0,0,-1,1210,1079,0,0
-7,-55,0,0,0,0,0,0,0,0,0,-1,1217,1079,0,0
0,-55,0,0,0,0,0,0,0,0,0,-1,1224,1079,0,0
7,-55,0,0,0,0,0,0,0,0,0,-1,1231,1079,0,0
14,-55,0,0,0,0,0,0,0,0,0,-1,1238,1079,0,0
21,-55,0,0,0,0,0,0,0,0,0,-1,1245,1079,0,0
28,-55,0,0,0,0,0,0,0,0,0,-1,1252,1079,0,0
35,-55,0,0,0,0,0,0,0,0,0,-1,1259,1079,0,0
42,-55,0,0,0,0,0,0,0,0,0,-1,1266,1079,0,0
49,-55,0,0,0,0,0,0,0,0,0,-1,1273,1079,0,0
56,-55,0,0,0,0,0,0,0,0,0,-1,1280,1079,0,0
63,-55,0,0,0,0,0,0,0,0,0,-1,1287,1079,0,0
70,-55,0,0,0,0,0,0,0,0,0,-1,1294,1079,0,0
77,-55,0,0,0,0,0,0,0,0,0,-1,1301,1079,0,0
84,-55,0,0,0,0,0,0,0,0,0,-1,1308,1079,0,0
91,-55,0,0,0,0,0,0,0,0,0,-1,1315,1079,0,0
98,-55,0,0,0,0,0,0,0,0,0,-1,1322,1079,0,0
105,-55,0,0,0,0,0,0,0,0,0,-1,1329,1079,0,0
112,-55,0,0,0,0,0,0,0,0,0,-1,1336,1079,0,0
119,-55,0,0,0,0,0,0,0,0,0,-1,1343,1079,0,0
126,-55,0,0,0,0,0,0,0,0,0,-1,1350,1079,0,0
133,-55,0,0,0,0,0,0,0,0,0,-1,1357,1079,0,0
140,-55,0,0,0,0,0,0,0,0,0,-1,1364,1079,0,0
147,-55,0,0,0,0,0,0,0,0,0,-1,1371,1079,0,0
154,-55,0,0,0,0,0,0,0,0,0,-1,1378,1079,0,0
161,-55,0,0,0,0,0,0,0,0,0,-1,1385,1079,0,0
168,-55,0,0,0,0,0,0,0,0,0,-1,1392,1079,0,0
175,-55,0,0,0,0,0,0,0,0,0,-1,1399,1079,0,0
182,-55,0,0,0,0,0,0,0,0,0,-1,1406,1079,0,0
189,-55,0,0,0,0,0,0,0,0,0,-1,1413,1079,0,0
196,-55,0,0,0,0,0,0,0,0,0,-1,1420,1079,0,0
203,-55,0,0,0,0,0,0,0,0,0,-1,1427,1079,0,0
210,-55,0,0,0,0,0,0,0,0,0,-1,1434,1079,0,0
217,-55,0,0,0,0,0,0,0,0,0,-1,1441,1079,0,0
224,-55,0,0,0,0,0,0,0,0,0,-1,1448,1079,0,0
231,-55,0,0,0,0,0,0,0,0,0,-1,1455,1079,0,0
238,-55,0,0,0,0,0,0,0,0,0,-1,1462,1079,0,0
245,-55,0,0,0,0,0,0,0,0,0,-1,1469,1079,0,0
252,-55,0,0,0,0,0,0,0,0,0,-1,1476,1079,0,0
259,-55,0,0,0,0,0,0,0,0,0,-1,1483,1079,0,0
266,-55,0,0,0,0,0,0,0,0,0,-1,1490,1079,0,0
273,-55,0,0,0,0,0,0,0,0,0,-1,1497,1079,0,0
280,-55,0,0,0,0,0,0,0,0,0,-1,1504,1079,0,0
287,-55,0,0,0,0,0,0,0,0,0,-1,1511,1079,0,0
294,-55,0,0,0,0,0,0,0,0,0,-1,1518,1079,0,0
301,-55,0,0,0,0,0,0,0,0,0,-1,1525,1079,0,0
308,-55,0,0,0,0,0,0,0,0,0,-1,1532,1079,0,0
315,-55,0,0,0,0,0,0,0,0,0,-1,1539,1079,0,0
322,-55,0,0,0,0,0,0,0,0,0,-1,1546,1079,0,0
329,-55,0,0,0,0,0,0,0,0,0,-1,1553,1079,0,0
336,-55,0,0,0,0,0,0,0,0,0,-1,1560,1079,0,0
343,-55,0,0,0,0,0,0,0,0,0,-1,1567,1079,0,0
350,-55,0,0,0,0,0,0,0,0,0,-1,1574,1079,0,0
357,-55,0,0,0,0,0,0,0,0,0,-1,1581,1079,0,0
364,-55,0,0,0,0,0,0,0,0,0,-1,1588,1079,0,0
371,-55,0,0,0,0,0,0,0,0,0,-1,1595,1079,0,0
378,-55,0,0,0,0,0,0,0,0,0,-1,1602,1079,0,0
385,-55,0,0,0,0,0,0,0,0,0,-1,1609,1079,0,0
392,-55,0,0,0,0,0,0,0,0,0,-1,1616,1079,0,0
399,-55,0,0,0,0,0,0,0,0,0,-1,1623,1079,0,0
406,-55,0,0,0,0,0,0,0,0,0,-1,1630,1079,0,0
413,-55,0,0,0,0,0,0,0,0,0,-1,1637,1079,0,0
420,-55,0,0,0,0,0,0,0,0,0,-1,1644,1079,0,0
427,-55,0,0,0,0,0,0,0,0,0,-1,1651,1079,0,0
434,-55,0,0,0,0,0,0,0,0,0,-1,1658,1079,0,0
441,-55,0,0,0,0,0,0,0,0,0,-1,1665,1079,0,0
448,-55,0,0,0,0,0,0,0,0,0,-1,1672,1079,0,0
455,-55,0,0,0,0,0,0,0,0,0,-1,1679,1079,0,0
462,-55,0,0,0,0,0,0,0,0,0,-1,1686,1079,0,0
469,-55,0,0,0,0,0,0,0,0,0,-1,1693,1079,0,0
476,-55,0,0,0,0,0,0,0,0,0,-1,1700,1079,0,0
483,-55,0,0,0,0,0,0,0,0,0,-1,1707,1079,0,0
490,-55,0,0,0,0,0,0,0,0,0,-1,1714,1079,0,0
497,-55,0,0,0,0,0,0,0,0,0,-1,1721,1079,0,0
504,-55,0,0,0,0,0,0,0,0,0,-1,1728,1079,0,0
511,-55,0,0,0,0,0,0,0,0,0,-1,1735,1079,0,0
518,-55,0,0,0,0,0,0,0,0,0,-1,1742,1079,0,0
525,-55,0,0,0,0,0,0,0,0,0,-1,1749,1079,0,0
532,-55,0,0,0,0,0,0,0,0,0,-1,1756,1079,0,0
539,-55,0,0,0,0,0,0,0,0,0,-1,1763,1079,0,0
546,-55,0,0,0,0,0,0,0,0,0,-1,1770,1079,0,0
553,-55,0,0,0,0,0,0,0,0,0,-1,1777,1079,0,0
560,-55,0,0,0,0,0,0,0,0,0,-1,1784,1079,0,0
567,-55,0,0,0,0,0,0,0,0,0,-1,1791,1079,0,0
574,-55,0,0,0,0,0,0,0,0,0,-1,1798,1079,0,0
581,-55,0,0,0,0,0,0,0,0,0,-1,1805,1079,0,0
588,-55,0,0,0,0,0,0,0,0,0,-1,1812,1079,0,0
595,-55,0,0,0,0,0,0,0,0,0,-1,1819,1079,0,0
602,-55,0,0,0,0,0,0,0,0,0,-1,1826,1079,0,0
609,-55,0,0,0,0,0,0,0,0,0,-1,1833,1079,0,0
616,-55,0,0,0,0,0,0,0,0,0,-1,1840,1079,0,0
623,-55,0,0,0,0,0,0,0,0,0,-1,1847,1079,0,0
630,-55,0,0,0,0,0,0,0,0,0,-1,1854,1079,0,0
637,-55,0,0,0,0,0,0,0,0,0,-1,1861,1079,0,0
644,-55,0,0,0,0,0,0,0,0,0,-1,1868,1079,0,0
651,-55,78.845,2.40161,-0.00453199,-0.00115143,0.00334464,0.000905776,-0.0065892,1.01937,0.00472376,0.0340252,1875,1079,78.8449,-2.40158
658,-55,78.9113,2.56335,-0.00389954,-0.000714462,0.00218244,0.000394709,-0.00500871,1.10059,0.00347819,0.0339091,1882,1079,78.9112,-2.56341
665,-55,78.8107,2.55505,-0.00309183,-0.000385298,0.00141374,0.000218469,-0.0036956,1.16717,0.00253969,0.0379305,1889,1079,78.8106,-2.55502
672,-55,78.6849,2.53564,-0.00221725,-5.55378e-05,0.000908442,0.000275525,-0.00254832,1.22132,0.00179777,0.0362722,1896,1079,78.6849,-2.5356
679,-55,78.7251,2.38635,-0.00129162,0.000290026,0.000539188,0.000456347,-0.00145794,1.27159,0.00115454,0.0331699,1903,1079,78.7251,-2.38635
686,-55,78.7494,2.31738,-0.0009331,0.000258567,0.00037095,0.000364603,-0.00103914,1.29237,0.000841061,0.0351169,1910,1079,78.7494,-2.31734
693,-55,78.8198,2.32703,-0.000811551,2.08185e-05,0.000485131,0.000243822,-0.00103455,1.13992,0.000783723,0.03818,1917,1079,78.8198,-2.32701
700,-55,78.8282,2.32141,-0.000779257,-7.1982e-05,0.000699826,0.000358483,-0.00120972,1.01935,0.000948824,0.0333918,1924,1079,78.8283,-2.32145
707,-55,78.8392,2.34973,-0.0012099,7.58397e-06,0.000977044,0.000550007,-0.00175233,1.06399,0.00138836,0.0227335,1931,1079,78.8393,-2.34972
714,-55,78.8308,2.36157,-0.00183888,0.000358466,0.00124551,0.000920626,-0.00240104,1.14682,0.00198024,0.0457816,1938,1079,78.8308,-2.36159
721,-55,78.8882,2.33325,0,0,0,0,0,0,0,-1,1945,1079,78.8882,-2.33325
728,-55,77.0823,8.88403,0,0,0,0,0,0,0,-1,1952,1079,77.0823,-8.88401
735,-55,76.9802,8.4198,-0.00475491,0.00310196,0.00219623,0.0036742,-0.00532715,1.31591,0.00522605,0.025406,1959,1079,76.9803,-8.41975
742,-55,76.9751,7.98193,-0.00594007,0.00435468,0.00242661,0.00489799,-0.00648338,1.35053,0.00659225,0.0245372,1966,1079,76.9751,-7.98191
749,-55,76.9705,7.52783,-0.00701496,0.00568482,0.00290717,0.00631868,-0.00764882,1.35612,0.00807632,0.0153257,1973,1079,76.9706,-7.52785
756,-55,76.8401,7.10681,-0.00812054,0.00760408,0.00283925,0.00810103,-0.00861749,1.39752,0.00965397,0.0126814,1980,1079,76.8401,-7.10677
763,-55,76.7717,6.70813,-0.0091434,0.0104665,0.0024659,0.0107718,-0.00944872,1.4476,0.0116827,0.0151249,1987,1079,76.7717,-6.70815
770,-55,76.7026,6.26831,-0.00985078,0.0138816,0.00188233,0.01403,-0.00999915,1.49214,0.0139381,0.0174158,1994,1079,76.7027,-6.26833
777,-55,76.54,5.87024,-0.0101497,0.017646,0.000888489,0.0176744,-0.010178,1.53887,0.0162736,0.0150059,2001,1079,76.5401,-5.87018
784,-55,76.4331,5.33594,-0.0101604,0.0213057,-0.000522432,0.0213144,-0.0101691,-1.5542,0.0185528,0.0304931,2008,1079,76.433,-5.33594
791,-55,76.1279,4.57153,-0.00997528,0.0247805,-0.00264957,0.0249814,-0.0101761,-1.49515,0.0208895,0.0418215,2015,1079,76.1279,-4.57151
798,-55,75.8655,4.1698,-0.00910414,0.0281275,-0.00574734,0.0289945,-0.00997115,-1.42107,0.0233734,0.0462762,2022,1079,75.8655,-4.16979
805,-55,75.499,3.57019,0,0,0,0,0,0,0,-1,2029,1079,75.499,-3.5702
812,-55,76.2939,1.14624,0,0,0,0,0,0,0,-1,2036,1079,76.294,-1.14629
-700,-62,-63.52,-5.84631,0,0,0,0,0,0,0,-1,524,1086,-63.52,5.84629
-693,-62,-63.703,-3.44287,0,0,0,0,0,0,0,-1,531,1086,-63.703,3.44293
-686,-62,-63.4213,-2.54846,0,0,0,0,0,0,0,-1,538,1086,-63.4213,2.54841
-679,-62,-62.6898,-2.08972,0.0500123,0.0508451,0.0215252,0.0719579,0.0288995,0.795069,0.0418121,0.0495674,545,1086,-62.6898,2.08969
-672,-62,-61.9287,-0.378906,0.0436694,0.0481855,0.0207413,0.0667913,0.0250636,0.839618,0.03896,0.0474958,552,1086,-61.9287,0.37887
-665,-62,-61.2558,1.08411,0.0365802,0.0441649,0.0188613,0.0596114,0.0211337,0.884607,0.0348988,0.046886,559,1086,-61.2558,-1.08408
-658,-62,-61.0638,2.4115,0,0,0,0,0,0,0,-1,566,1086,-61.0638,-2.41149
-651,-62,-60.472,4.14197,0,0,0,0,0,0,0,-1,573,1086,-60.472,-4.14194
-644,-62,-60.6479,4.90808,0.0168435,0.0277112,0.00997823,0.0336392,0.0109155,1.03473,0.0198164,0.039786,580,1086,-60.648,-4.90807
-637,-62,-60.7287,5.44019,0.0110712,0.0215212,0.00663264,0.0247397,0.00785271,1.11902,0.0145975,0.0167998,587,1086,-60.7287,-5.44018
-630,-62,-60.812,5.91431,0.00623422,0.0152908,0.00386198,0.016714,0.00481101,1.21772,0.00993516,0.0165637,594,1086,-60.812,-5.91437
-623,-62,-60.8907,6.47827,0.00300276,0.00967677,0.00106627,0.00984298,0.00283655,1.41616,0.00585036,0.0190719,601,1086,-60.8908,-6.47824
-616,-62,-60.8961,7.01685,0.00121093,0.00512911,-0.000906647,0.00532873,0.00101131,-1.35408,0.00326797,0.0207911,608,1086,-60.8961,-7.01688
-609,-62,-60.8503,7.42175,0.000471413,0.00227618,-0.0021727,0.00372644,-0.000978845,-0.982223,0.00286683,0.0212687,615,1086,-60.8503,-7.4218
-602,-62,-60.6863,7.84851,0.000566314,0.000349863,-0.00269655,0.00315681,-0.00224063,-0.765342,0.00313114,0.0171278,622,1086,-60.6863,-7.84849
-595,-62,-60.4747,8.33228,0.000800337,-0.000453205,-0.00301838,0.00325633,-0.0029092,-0.683027,0.00356155,0.0409417,629,1086,-60.4747,-8.33223
-588,-62,-60.3257,8.7428,0,0,0,0,0,0,0,-1,636,1086,-60.3258,-8.74276
-581,-62,-62.4382,0.644409,0,0,0,0,0,0,0,-1,643,1086,-62.4382,-0.644384
-574,-62,-62.3967,0.80249,0.00233406,-0.00120371,-0.00285084,0.00392021,-0.00278986,-0.507727,0.00389234,0.0338914,650,1086,-62.3967,-0.80247
-567,-62,-62.3143,0.648315,0.00258372,-0.000739219,-0.0027518,0.00413674,-0.00229223,-0.513803,0.00376234,0.0375657,657,1086,-62.3143,-0.648303
-560,-62,-62.338,0.563354,0.00263425,9.58429e-05,-0.00262639,0.00428203,-0.00155194,-0.560319,0.00348901,0.0401334,664,1086,-62.338,-0.563401
-553,-62,-62.2829,0.636597,0.00265815,0.00112556,-0.00249105,0.0044981,-0.000714398,-0.636182,0.00326304,0.0355455,671,1086,-62.2829,-0.636629
-546,-62,-62.4192,0.584839,0.00310374,0.00202036,-0.00245497,0.00507607,4.80276e-05,-0.676814,0.00336815,0.0318456,678,1086,-62.4192,-0.584888
-539,-62,-62.3956,0.511719,0.0043149,0.00208588,-0.00270085,0.00612215,0.000278624,-0.589716,0.0039918,0.0377152,685,1086,-62.3956,-0.511753
-532,-62,-62.2773,0.598755,0.00557008,0.00216014,-0.00277135,0.00711892,0.000611294,-0.509633,0.00455587,0.0387283,692,1086,-62.2773,-0.598784
-525,-62,0,0,0,0,0,0,0,0,0,-1,699,1086,0,0
-518,-62,0,0,0,0,0,0,0,0,0,-1,706,1086,0,0
-511,-62,0,0,0,0,0,0,0,0,0,-1,713,1086,0,0
-504,-62,0,0,0,0,0,0,0,0,0,-1,720,1086,0,0
-497,-62,0,0,0,0,0,0,0,0,0,-1,727,1086,0,0
-490,-62,0,0,0,0,0,0,0,0,0,-1,734,1086,0,0
-483,-62,0,0,0,0,0,0,0,0,0,-1,741,1086,0,0
-476,-62,0,0,0,0,0,0,0,0,0,-1,748,1086,0,0
-469,-62,0,0,0,0,0,0,0,0,0,-1,755,1086,0,0
-462,-62,0,0,0,0,0,0,0,0,0,-1,762,1086,0,0
-455,-62,0,0,0,0,0,0,0,0,0,-1,769,1086,0,0
-448,-62,0,0,0,0,0,0,0,0,0,-1,776,1086,0,0
-441,-62,0,0,0,0,0,0,0,0,0,-1,783,1086,0,0
-434,-62,0,0,0,0,0,0,0,0,0,-1,790,1086,0,0
-427,-62,0,0,0,0,0,0,0,0,0,-1,797,1086,0,0
-420,-62,0,0,0,0,0,0,0,0,0,-1,804,1086,0,0
-413,-62,0,0,0,0,0,0,0,0,0,-1,811,1086,0,0
-406,-62,0,0,0,0,0,0,0,0,0,-1,818,1086,0,0
-399,-62,0,0,0,0,0,0,0,0,0,-1,825,1086,0,0
-392,-62,0,0,0,0,0,0,0,0,0,-1,832,1086,0,0
-385,-62,0,0,0,0,0,0,0,0,0,-1,839,1086,0,0
-378,-62,0,0,0,0,0,0,0,0,0,-1,846,1086,0,0
-371,-62,0,0,0,0,0,0,0,0,0,-1,853,1086,0,0
-364,-62,0,0,0,0,0,0,0,0,0,-1,860,1086,0,0
-357,-62,0,0,0,0,0,0,0,0,0,-1,867,1086,0,0
-350,-62,0,0,0,0,0,0,0,0,0,-1,874,1086,0,0
-343,-62,0,0,0,0,0,0,0,0,0,-1,881,1086,0,0
-336,-62,0,0,0,0,0,0,0,0,0,-1,888,1086,0,0
-329,-62,0,0,0,0,0,0,0,0,0,-1,895,1086,0,0
-322,-62,0,0,0,0,0,0,0,0,0,-1,902,1086,0,0
-315,-62,0,0,0,0,0,0,0,0,0,-1,909,1086,0,0
-308,-62,0,0,0,0,0,0,0,0,0,-1,916,1086,0,0
-301,-62,0,0,0,0,0,0,0,0,0,-1,923,1086,0,0
-294,-62,0,0,0,0,0,0,0,0,0,-1,930,1086,0,0
-287,-62,0,0,0,0,0,0,0,0,0,-1,937,1086,0,0
-280,-62,0,0,0,0,0,0,0,0,0,-1,944,1086,0,0
-273,-62,0,0,0,0,0,0,0,0,0,-1,951,1086,0,0
-266,-62,0,0,0,0,0,0,0,0,0,-1,958,1086,0,0
-259,-62,0,0,0,0,0,0,0,0,0,-1,965,1086,0,0
-252,-62,0,0,0,0,0,0,0,0,0,-1,972,1086,0,0
-245,-62,0,0,0,0,0,0,0,0,0,-1,979,1086,0,0
-238,-62,0,0,0,0,0,0,0,0,0,-1,986,1086,0,0
-231,-62,0,0,0,0,0,0,0,0,0,-1,993,1086,0,0
-224,-62,0,0,0,0,0,0,0,0,0,-1,1000,1086,0,0
-217,-62,0,0,0,0,0,0,0,0,0,-1,1007,1086,0,0
-210,-62,0,0,0,0,0,0,0,0,0,-1,1014,1086,0,0
-203,-62,0,0,0,0,0,0,0,0,0,-1,1021,1086,0,0
-196,-62,0,0,0,0,0,0,0,0,0,-1,1028,1086,0,0
-189,-62,0,0,0,0,0,0,0,0,0,-1,1035,1086,0,0
-182,-62,0,0,0,0,0,0,0,0,0,-1,1042,1086,0,0
-175,-62,0,0,0,0,0,0,0,0,0,-1,1049,1086,0,0
-168,-62,0,0,0,0,0,0,0,0,0,-1,1056,1086,0,0
-161,-62,0,0,0,0,0,0,0,0,0,-1,1063,1086,0,0
-154,-62,0,0,0,0,0,0,0,0,0,-1,1070,1086,0,0
-147,-62,0,0,0,0,0,0,0,0,0,-1,1077,1086,0,0
-140,-62,0,0,0,0,0,0,0,0,0,-1,1084,1086,0,0
-133,-62,0,0,0,0,0,0,0,0,0,-1,1091,1086,0,0
-126,-62,0,0,0,0,0,0,0,0,0,-1,1098,1086,0,0
-119,-62,0,0,0,0,0,0,0,0,0,-1,1105,1086,0,0
-112,-62,0,0,0,0,0,0,0,0,0,-1,1112,1086,0,0
-105,-62,0,0,0,0,0,0,0,0,0,-1,1119,1086,0,0
-98,-62,0,0,0,0,0,0,0,0,0,-1,1126,1086,0,0
-91,-62,0,0,0,0,0,0,0,0,0,-1,1133,1086,0,0
-84,-62,0,0,0,0,0,0,0,0,0,-1,1140,1086,0,0
-77,-62,0,0,0,0,0,0,0,0,0,-1,1147,1086,0,0
-70,-62,0,0,0,0,0,0,0,0,0,-1,1154,1086,0,0
-63,-62,0,0,0,0,0,0,0,0,0,-1,1161,1086,0,0
-56,-62,0,0,0,0,0,0,0,0,0,-1,1168,1086,0,0
-49,-62,0,0,0,0,0,0,0,0,0,-1,1175,1086,0,0
-42,-62,0,0,0,0,0,0,0,0,0,-1,1182,1086,0,0
-35,-62,0,0,0,0,0,0,0,0,0,-1,1189,1086,0,0
-28,-62,0,0,0,0,0,0,0,0,0,-1,1196,1086,0,0
-21,-62,0,0,0,0,0,0,0,0,0,-1,1203,1086,0,0
-14,-62,0,0,0,0,0,0,0,0,0,-1,1210,1086,0,0
-7,-62,0,0,0,0,0,0,0,0,0,-1,1217,1086,0,0
0,-62,0,0,0,0,0,0,0,0,0,-1,1224,1086,0,0
7,-62,0,0,0,0,0,0,0,0,0,-1,1231,1086,0,0
14,-62,0,0,0,0,0,0,0,0,0,-1,1238,1086,0,0
21,-62,0,0,0,0,0,0,0,0,0,-1,1245,1086,0,0
28,-62,0,0,0,0,0,0,0,0,0,-1,1252,1086,0,0
35,-62,0,0,0,0,0,0,0,0,0,-1,1259,1086,0,0
42,-62,0,0,0,0,0,0,0,0,0,-1,1266,1086,0,0
49,-62,0,0,0,0,0,0,0,0,0,-1,1273,1086,0,0
56,-62,0,0,0,0,0,0,0,0,0,-1,1280,1086,0,0
63,-62,0,0,0,0,0,0,0,0,0,-1,1287,1086,0,0
70,-62,0,0,0,0,0,0,0,0,0,-1,1294,1086,0,0
77,-62,0,0,0,0,0,0,0,0,0,-1,1301,1086,0,0
84,-62,0,0,0,0,0,0,0,0,0,-1,1308,1086,0,0
91,-62,0,0,0,0,0,0,0,0,0,-1,1315,1086,0,0
98,-62,0,0,0,0,0,0,0,0,0,-1,1322,1086,0,0
105,-62,0,0,0,0,0,0,0,0,0,-1,1329,1086,0,0
112,-62,0,0,0,0,0,0,0,0,0,-1,1336,1086,0,0
119,-62,0,0,0,0,0,0,0,0,0,-1,1343,1086,0,0
126,-62,0,0,0,0,0,0,0,0,0,-1,1350,1086,0,0
133,-62,0,0,0,0,0,0,0,0,0,-1,1357,1086,0,0
140,-62,0,0,0,0,0,0,0,0,0,-1,1364,1086,0,0
147,-62,0,0,0,0,0,0,0,0,0,-1,1371,1086,0,0
154,-62,0,0,0,0,0,0,0,0,0,-1,1378,1086,0,0
161,-62,0,0,0,0,0,0,0,0,0,-1,1385,1086,0,0
168,-62,0,0,0,0,0,0,0,0,0,-1,1392,1086,0,0
175,-62,0,0,0,0,0,0,0,0,0,-1,1399,1086,0,0
182,-62,0,0,0,0,0,0,0,0,0,-1,1406,1086,0,0
189,-62,0,0,0,0,0,0,0,0,0,-1,1413,1086,0,0
196,-62,0,0,0,0,0,0,0,0,0,-1,1420,1086,0,0
203,-62,0,0,0,0,0,0,0,0,0,-1,1427,1086,0,0
210,-62,0,0,0,0,0,0,0,0,0,-1,1434,1086,0,0
217,-62,0,0,0,0,0,0,0,0,0,-1,1441,1086,0,0
224,-62,0,0,0,0,0,0,0,0,0,-1,1448,1086,0,0
231,-62,0,0,0,0,0,0,0,0,0,-1,1455,1086,0,0
238,-62,0,0,0,0,0,0,0,0,0,-1,1462,1086,0,0
245,-62,0,0,0,0,0,0,0,0,0,-1,1469,1086,0,0
252,-62,0,0,0,0,0,0,0,0,0,-1,1476,1086,0,0
259,-62,0,0,0,0,0,0,0,0,0,-1,1483,1086,0,0
266,-62,0,0,0,0,0,0,0,0,0,-1,1490,1086,0,0
273,-62,0,0,0,0,0,0,0,0,0,-1,1497,1086,0,0
280,-62,0,0,0,0,0,0,0,0,0,-1,1504,1086,0,0
287,-62,0,0,0,0,0,0,0,0,0,-1,1511,1086,0,0
294,-62,0,0,0,0,0,0,0,0,0,-1,1518,1086,0,0
301,-62,0,0,0,0,0,0,0,0,0,-1,1525,1086,0,0
308,-62,0,0,0,0,0,0,0,0,0,-1,1532,1086,0,0
315,-62,0,0,0,0,0,0,0,0,0,-1,1539,1086,0,0
322,-62,0,0,0,0,0,0,0,0,0,-1,1546,1086,0,0
329,-62,0,0,0,0,0,0,0,0,0,-1,1553,1086,0,0
336,-62,0,0,0,0,0,0,0,0,0,-1,1560,1086,0,0
343,-62,0,0,0,0,0,0,0,0,0,-1,1567,1086,0,0
350,-62,0,0,0,0,0,0,0,0,0,-1,1574,1086,0,0
357,-62,0,0,0,0,0,0,0,0,0,-1,1581,1086,0,0
364,-62,0,0,0,0,0,0,0,0,0,-1,1588,1086,0,0
371,-62,0,0,0,0,0,0,0,0,0,-1,1595,1086,0,0
378,-62,0,0,0,0,0,0,0,0,0,-1,1602,1086,0,0
385,-62,0,0,0,0,0,0,0,0,0,-1,1609,1086,0,0
392,-62,0,0,0,0,0,0,0,0,0,-1,1616,1086,0,0
399,-62,0,0,0,0,0,0,0,0,0,-1,1623,1086,0,0
406,-62,0,0,0,0,0,0,0,0,0,-1,1630,1086,0,0
413,-62,0,0,0,0,0,0,0,0,0,-1,1637,1086,0,0
420,-62,0,0,0,0,0,0,0,0,0,-1,1644,1086,0,0
427,-62,0,0,0,0,0,0,0,0,0,-1,1651,1086,0,0
434,-62,0,0,0,0,0,0,0,0,0,-1,1658,1086,0,0
441,-62,0,0,0,0,0,0,0,0,0,-1,1665,1086,0,0
448,-62,0,0,0,0,0,0,0,0,0,-1,1672,1086,0,0
455,-62,0,0,0,0,0,0,0,0,0,-1,1679,1086,0,0
462,-62,0,0,0,0,0,0,0,0,0,-1,1686,1086,0,0
469,-62,0,0,0,0,0,0,0,0,0,-1,1693,1086,0,0
476,-62,0,0,0,0,0,0,0,0,0,-1,1700,1086,0,0
483,-62,0,0,0,0,0,0,0,0,0,-1,1707,1086,0,0
490,-62,0,0,0,0,0,0,0,0,0,-1,1714,1086,0,0
497,-62,0,0,0,0,0,0,0,0,0,-1,1721,1086,0,0
504,-62,0,0,0,0,0,0,0,0,0,-1,1728,1086,0,0
511,-62,0,0,0,0,0,0,0,0,0,-1,1735,1086,0,0
518,-62,0,0,0,0,0,0,0,0,0,-1,1742,1086,0,0
525,-62,0,0,0,0,0,0,0,0,0,-1,1749,1086,0,0
532,-62,0,0,0,0,0,0,0,0,0,-1,1756,1086,0,0
539,-62,0,0,0,0,0,0,0,0,0,-1,1763,1086,0,0
546,-62,0,0,0,0,0,0,0,0,0,-1,1770,1086,0,0
553,-62,0,0,0,0,0,0,0,0,0,-1,1777,1086,0,0
560,-62,0,0,0,0,0,0,0,0,0,-1,1784,1086,0,0
567,-62,0,0,0,0,0,0,0,0,0,-1,1791,1086,0,0
574,-62,0,0,0,0,0,0,0,0,0,-1,1798,1086,0,0
581,-62,0,0,0,0,0,0,0,0,0,-1,1805,1086,0,0
588,-62,0,0,0,0,0,0,0,0,0,-1,1812,1086,0,0
595,-62,0,0,0,0,0,0,0,0,0,-1,1819,1086,0,0
602,-62,0,0,0,0,0,0,0,0,0,-1,1826,1086,0,0
609,-62,0,0,0,0,0,0,0,0,0,-1,1833,1086,0,0
616,-62,0,0,0,0,0,0,0,0,0,-1,1840,1086,0,0
623,-62,0,0,0,0,0,0,0,0,0,-1,1847,1086,0,0
630,-62,0,0,0,0,0,0,0,0,0,-1,1854,1086,0,0
637,-62,0,0,0,0,0,0,0,0,0,-1,1861,1086,0,0
644,-62,0,0,0,0,0,0,0,0,0,-1,1868,1086,0,0
651,-62,78.8726,2.34912,-0.00283787,-0.00158498,0.00356678,0.00140994,-0.0058328,0.872328,0.00443388,0.0385305,1875,1086,78.8725,-2.34916
658,-62,78.9054,2.47339,-0.00270515,-0.000964969,0.0023616,0.000681725,-0.00435184,0.961898,0.00315313,0.0395119,1882,1086,78.9054,-2.47333
665,-62,78.8516,2.54248,-0.00224372,-0.000507663,0.00155684,0.000406789,-0.00315817,1.03971,0.00225332,0.0378586,1889,1086,78.8516,-2.54245
672,-62,78.7394,2.49792,-0.0016197,-7.9099e-05,0.000997803,0.000411146,-0.00210994,1.11411,0.00156182,0.0365439,1896,1086,78.7394,-2.49795
679,-62,78.7352,2.50183,-0.000875869,0.000335351,0.000582253,0.000569849,-0.00111037,1.18793,0.000986663,0.0371339,1903,1086,78.7353,-2.50179
686,-62,78.7513,2.43005,-0.000585455,0.000344978,0.000363938,0.00047042,-0.000710897,1.23887,0.000686728,0.039318,1910,1086,78.7513,-2.43
693,-62,78.7513,2.39233,-0.000473258,0.000122681,0.000462323,0.000374737,-0.000725314,1.07165,0.000645776,0.0392005,1917,1086,78.7514,-2.39229
700,-62,78.8259,2.30481,-0.000413247,5.8869e-05,0.00063276,0.000498169,-0.000852547,0.963933,0.000788732,0.0313362,1924,1086,78.8259,-2.30487
707,-62,78.8456,2.33508,-0.00079287,0.000135665,0.000889027,0.000674349,-0.00133155,1.02603,0.00117865,0.0203543,1931,1086,78.8456,-2.3351
714,-62,78.8311,2.31091,-0.00135832,0.000442766,0.00114599,0.000999715,-0.00191526,1.11841,0.00171041,0.0371599,1938,1086,78.831,-2.31086
721,-62,78.8199,2.29443,0,0,0,0,0,0,0,-1,1945,1086,78.8199,-2.29438
728,-62,76.6187,9.07373,0,0,0,0,0,0,0,-1,1952,1086,76.6187,-9.07375
735,-62,76.5116,8.45374,-0.00396167,0.00285211,0.00211549,0.00345548,-0.00456504,1.29296,0.0046454,0.0329292,1959,1086,76.5116,-8.45371
742,-62,76.444,8.06323,-0.00513337,0.00398232,0.00236652,0.00456007,-0.00571112,1.33134,0.00594247,0.0340819,1966,1086,76.444,-8.06329
749,-62,76.4331,7.57996,-0.00623852,0.00512631,0.00284682,0.00579953,-0.00691175,1.33858,0.00734822,0.0245783,1973,1086,76.4332,-7.57994
756,-62,76.2974,7.16724,-0.00749989,0.00696935,0.00271449,0.00746184,-0.00799238,1.39132,0.00892425,0.0145502,1980,1086,76.2974,-7.1672
763,-62,76.2332,6.68469,-0.00876177,0.00979296,0.00225419,0.0100629,-0.0090317,1.45162,0.0110296,0.0191167,1987,1086,76.2332,-6.68471
770,-62,76.1758,6.18738,-0.00987779,0.0131526,0.00152433,0.013253,-0.00997825,1.50499,0.0134569,0.01837,1994,1086,76.1757,-6.18738
777,-62,75.9719,5.67981,-0.0108237,0.0169562,0.00025009,0.0169585,-0.0108259,1.56179,0.016171,0.0182234,2001,1086,75.9718,-5.67987
784,-62,75.8506,5.17322,-0.0116195,0.0208367,-0.00157283,0.0209128,-0.0116956,-1.52249,0.0190755,0.0297357,2008,1086,75.8505,-5.1732
791,-62,75.6714,4.67322,-0.012412,0.0248396,-0.00431807,0.0253336,-0.012906,-1.45689,0.0224629,0.0453613,2015,1086,75.6715,-4.67323
798,-62,75.4243,4.13232,-0.0128771,0.0291534,-0.00829822,0.0307324,-0.0144561,-1.38276,0.0266478,0.0464585,2022,1086,75.4242,-4.13234
805,-62,75.1604,3.55542,0,0,0,0,0,0,0,-1,2029,1086,75.1603,-3.55545
812,-62,74.939,3.00024,0,0,0,0,0,0,0,-1,2036,1086,74.939,-3.00026
-700,-69,-62.6044,-6.26758,0,0,0,0,0,0,0,-1,524,1093,-62.6044,6.26756
-693,-69,-60.5875,1.74316,0,0,0,0,0,0,0,-1,531,1093,-60.5875,-1.74315
-686,-69,-61.2745,1.20532,0,0,0,0,0,0,0,-1,538,1093,-61.2745,-1.20532
-679,-69,-62.278,-2.65356,0,0,0,0,0,0,0,-1,545,1093,-62.278,2.65354
-672,-69,-61.3937,-0.440186,0,0,0,0,0,0,0,-1,552,1093,-61.3937,0.440179
-665,-69,-60.2865,1.10059,0,0,0,0,0,0,0,-1,559,1093,-60.2865,-1.10063
-658,-69,-58.1714,1.49817,0,0,0,0,0,0,0,-1,566,1093,-58.1714,-1.49823
-651,-69,-58.6837,4.00354,0,0,0,0,0,0,0,-1,573,1093,-58.6837,-4.00359
-644,-69,-60.1539,4.83496,0,0,0,0,0,0,0,-1,580,1093,-60.1538,-4.83496
-637,-69,-60.1318,5.40259,0.00841925,0.0195891,0.00483894,0.0213938,0.00661455,1.21382,0.012648,0.0199973,587,1093,-60.1318,-5.40264
-630,-69,-60.1555,5.8916,0.00405528,0.013596,0.0025907,0.014254,0.00339718,1.32204,0.00859703,0.0156233,594,1093,-60.1555,-5.89156
-623,-69,-60.1414,6.41333,0.00122033,0.00836336,0.000150081,0.00836651,0.00121717,1.5498,0.00521947,0.0211946,601,1093,-60.1414,-6.41338
-616,-69,-60.1852,6.92139,-0.000155949,0.00432157,-0.00147573,0.0047642,-0.000598575,-1.2794,0.0033933,0.0272732,608,1093,-60.1852,-6.92134
-609,-69,-60.2278,7.3844,-0.000575078,0.0019507,-0.00245062,0.00344469,-0.00206907,-1.02332,0.00321623,0.0231577,615,1093,-60.2278,-7.3844
-602,-69,-60.1792,7.93518,-0.000211451,0.000511686,-0.00288016,0.00305289,-0.00275265,-0.84784,0.00335332,0.021971,622,1093,-60.1792,-7.93516
-595,-69,-60.0812,8.33228,0.000219554,-3.97106e-05,-0.00315316,0.00324575,-0.0030659,-0.764854,0.00364453,0.0474396,629,1093,-60.0813,-8.33231
-588,-69,-60.1541,8.63135,0,0,0,0,0,0,0,-1,636,1093,-60.154,-8.63133
-581,-69,-62.4144,0.632202,0,0,0,0,0,0,0,-1,643,1093,-62.4144,-0.632244
-574,-69,-62.3776,0.677979,0.00201891,-0.000724869,-0.00279187,0.00375775,-0.00246371,-0.557032,0.00361777,0.0311799,650,1093,-62.3776,-0.677926
-567,-69,-62.2265,0.629028,0.0024253,-0.000347438,-0.00262543,0.00400792,-0.00193005,-0.542478,0.00349756,0.0372631,657,1093,-62.2265,-0.628991
-560,-69,-62.3558,0.907227,0.0026057,0.000328726,-0.00241241,0.00413477,-0.00120034,-0.564928,0.00323181,0.0401668,664,1093,-62.3558,-0.907258
-553,-69,-62.394,0.755981,0.00262721,0.00111837,-0.00217411,0.00417408,-0.000428492,-0.618398,0.00293599,0.0361136,671,1093,-62.394,-0.755945
-546,-69,-62.3708,0.544678,0.00292542,0.00167673,-0.00200245,0.0043986,0.000203549,-0.634279,0.00286696,0.0329964,678,1093,-62.3708,-0.544699
-539,-69,-62.2482,0.432251,0.00393147,0.00122922,-0.00205449,0.0050393,0.000121388,-0.494532,0.00331981,0.0377734,685,1093,-62.2481,-0.432275
-532,-69,-62.067,0.475952,0.00496944,0.000737468,-0.00198261,0.00575313,-4.62234e-05,-0.376433,0.00385092,0.0400642,692,1093,-62.067,-0.475906
-525,-69,0,0,0,0,0,0,0,0,0,-1,699,1093,0,0
-518,-69,0,0,0,0,0,0,0,0,0,-1,706,1093,0,0
-511,-69,0,0,0,0,0,0,0,0,0,-1,713,1093,0,0
-504,-69,0,0,0,0,0,0,0,0,0,-1,720,1093,0,0
-497,-69,0,0,0,0,0,0,0,0,0,-1,727,1093,0,0
-490,-69,0,0,0,0,0,0,0,0,0,-1,734,1093,0,0
-483,-69,0,0,0,0,0,0,0,0,0,-1,741,1093,0,0
-476,-69,0,0,0,0,0,0,0,0,0,-1,748,1093,0,0
-469,-69,0,0,0,0,0,0,0,0,0,-1,755,1093,0,0
-462,-69,0,0,0,0,0,0,0,0,0,-1,762,1093,0,0
-455,-69,0,0,0,0,0,0,0,0,0,-1,769,1093,0,0
-448,-69,0,0,0,0,0,0,0,0,0,-1,776,1093,0,0
-441,-69,0,0,0,0,0,0,0,0,0,-1,783,1093,0,0
-434,-69,0,0,0,0,0,0,0,0,0,-1,790,1093,0,0
-427,-69,0,0,0,0,0,0,0,0,0,-1,797,1093,0,0
-420,-69,0,0,0,0,0,0,0,0,0,-1,804,1093,0,0
-413,-69,0,0,0,0,0,0,0,0,0,-1,811,1093,0,0
-406,-69,0,0,0,0,0,0,0,0,0,-1,818,1093,0,0
-399,-69,0,0,0,0,0,0,0,0,0,-1,825,1093,0,0
-392,-69,0,0,0,0,0,0,0,0,0,-1,832,1093,0,0
-385,-69,0,0,0,0,0,0,0,0,0,-1,839,1093,0,0
-378,-69,0,0,0,0,0,0,0,0,0,-1,846,1093,0,0
-371,-69,0,0,0,0,0,0,0,0,0,-1,853,1093,0,0
-364,-69,0,0,0,0,0,0,0,0,0,-1,860,1093,0,0
-357,-69,0,0,0,0,0,0,0,0,0,-1,867,1093,0,0
-350,-69,0,0,0,0,0,0,0,0,0,-1,874,1093,0,0
-343,-69,0,0,0,0,0,0,0,0,0,-1,881,1093,0,0
-336,-69,0,0,0,0,0,0,0,0,0,-1,888,1093,0,0
-329,-69,0,0,0,0,0,0,0,0,0,-1,895,1093,0,0
-322,-69,0,0,0,0,0,0,0,0,0,-1,902,1093,0,0
-315,-69,0,0,0,0,0,0,0,0,0,-1,909,1093,0,0
-308,-69,0,0,0,0,0,0,0,0,0,-1,916,1093,0,0
-301,-69,0,0,0,0,0,0,0,0,0,-1,923,1093,0,0
-294,-69,0,0,0,0,0,0,0,0,0,-1,930,1093,0,0
-287,-69,0,0,0,0,0,0,0,0,0,-1,937,1093,0,0
-280,-69,0,0,0,0,0,0,0,0,0,-1,944,1093,0,0
-273,-69,0,0,0,0,0,0,0,0,0,-1,951,1093,0,0
-266,-69,0,0,0,0,0,0,0,0,0,-1,958,1093,0,0
-259,-69,0,0,0,0,0,0,0,0,0,-1,965,1093,0,0
-252,-69,0,0,0,0,0,0,0,0,0,-1,972,1093,0,0
-245,-69,0,0,0,0,0,0,0,0,0,-1,979,1093,0,0
-238,-69,0,0,0,0,0,0,0,0,0,-1,986,1093,0,0
-231,-69,0,0,0,0,0,0,0,0,0,-1,993,1093,0,0
-224,-69,0,0,0,0,0,0,0,0,0,-1,1000,1093,0,0
-217,-69,0,0,0,0,0,0,0,0,0,-1,1007,1093,0,0
-210,-69,0,0,0,0,0,0,0,0,0,-1,1014,1093,0,0
-203,-69,0,0,0,0,0,0,0,0,0,-1,1021,1093,0,0
-196,-69,0,0,0,0,0,0,0,0,0,-1,1028,1093,0,0
-189,-69,0,0,0,0,0,0,0,0,0,-1,1035,1093,0,0
-182,-69,0,0,0,0,0,0,0,0,0,-1,1042,1093,0,0
-175,-69,0,0,0,0,0,0,0,0,0,-1,1049,1093,0,0
-168,-69,0,0,0,0,0,0,0,0,0,-1,1056,1093,0,0
-161,-69,0,0,0,0,0,0,0,0,0,-1,1063,1093,0,0
-154,-69,0,0,0,0,0,0,0,0,0,-1,1070,1093,0,0
-147,-69,0,0,0,0,0,0,0,0,0,-1,1077,1093,0,0
-140,-69,0,0,0,0,0,0,0,0,0,-1,1084,1093,0,0
-133,-69,0,0,0,0,0,0,0,0,0,-1,1091,1093,0,0
-126,-69,0,0,0,0,0,0,0,0,0,-1,1098,1093,0,0
-119,-69,0,0,0,0,0,0,0,0,0,-1,1105,1093,0,0
-112,-69,0,0,0,0,0,0,0,0,0,-1,1112,1093,0,0
-105,-69,0,0,0,0,0,0,0,0,0,-1,1119,1093,0,0
-98,-69,0,0,0,0,0,0,0,0,0,-1,1126,1093,0,0
-91,-69,0,0,0,0,0,0,0,0,0,-1,1133,1093,0,0
-84,-69,0,0,0,0,0,0,0,0,0,-1,1140,1093,0,0
-77,-69,0,0,0,0,0,0,0,0,0,-1,1147,1093,0,0
-70,-69,0,0,0,0,0,0,0,0,0,-1,1154,1093,0,0
-63,-69,0,0,0,0,0,0,0,0,0,-1,1161,1093,0,0
-56,-69,0,0,0,0,0,0,0,0,0,-1,1168,1093,0,0
-49,-69,0,0,0,0,0,0,0,0,0,-1,1175,1093,0,0
-42,-69,0,0,0,0,0,0,0,0,0,-1,1182,1093,0,0
-35,-69,0,0,0,0,0,0,0,0,0,-1,1189,1093,0,0
-28,-69,0,0,0,0,0,0,0,0,0,-1,1196,1093,0,0
-21,-69,0,0,0,0,0,0,0,0,0,-1,1203,1093,0,0
-14,-69,0,0,0,0,0,0,0,0,0,-1,1210,1093,0,0
-7,-69,0,0,0,0,0,0,0,0,0,-1,1217,1093,0,0
0,-69,0,0,0,0,0,0,0,0,0,-1,1224,1093,0,0
7,-69,0,0,0,0,0,0,0,0,0,-1,1231,1093,0,0
14,-69,0,0,0,0,0,0,0,0,0,-1,1238,1093,0,0
21,-69,0,0,0,0,0,0,0,0,0,-1,1245,1093,0,0
28,-69,0,0,0,0,0,0,0,0,0,-1,1252,1093,0,0
35,-69,0,0,0,0,0,0,0,0,0,-1,1259,1093,0,0
42,-69,0,0,0,0,0,0,0,0,0,-1,1266,1093,0,0
49,-69,0,0,0,0,0,0,0,0,0,-1,1273,1093,0,0
56,-69,0,0,0,0,0,0,0,0,0,-1,1280,1093,0,0
63,-69,0,0,0,0,0,0,0,0,0,-1,1287,1093,0,0
70,-69,0,0,0,0,0,0,0,0,0,-1,1294,1093,0,0
77,-69,0,0,0,0,0,0,0,0,0,-1,1301,1093,0,0
84,-69,0,0,0,0,0,0,0,0,0,-1,1308,1093,0,0
91,-69,0,0,0,0,0,0,0,0,0,-1,1315,1093,0,0
98,-69,0,0,0,0,0,0,0,0,0,-1,1322,1093,0,0
105,-69,0,0,0,0,0,0,0,0,0,-1,1329,1093,0,0
112,-69,0,0,0,0,0,0,0,0,0,-1,1336,1093,0,0
119,-69,0,0,0,0,0,0,0,0,0,-1,1343,1093,0,0
126,-69,0,0,0,0,0,0,0,0,0,-1,1350,1093,0,0
133,-69,0,0,0,0,0,0,0,0,0,-1,1357,1093,0,0
140,-69,0,0,0,0,0,0,0,0,0,-1,1364,1093,0,0
147,-69,0,0,0,0,0,0,0,0,0,-1,1371,1093,0,0
154,-69,0,0,0,0,0,0,0,0,0,-1,1378,1093,0,0
161,-69,0,0,0,0,0,0,0,0,0,-1,1385,1093,0,0
168,-69,0,0,0,0,0,0,0,0,0,-1,1392,1093,0,0
175,-69,0,0,0,0,0,0,0,0,0,-1,1399,1093,0,0
182,-69,0,0,0,0,0,0,0,0,0,-1,1406,1093,0,0
189,-69,0,0,0,0,0,0,0,0,0,-1,1413,1093,0,0
196,-69,0,0,0,0,0,0,0,0,0,-1,1420,1093,0,0
203,-69,0,0,0,0,0,0,0,0,0,-1,1427,1093,0,0
210,-69,0,0,0,0,0,0,0,0,0,-1,1434,1093,0,0
217,-69,0,0,0,0,0,0,0,0,0,-1,1441,1093,0,0
224,-69,0,0,0,0,0,0,0,0,0,-1,1448,1093,0,0
231,-69,0,0,0,0,0,0,0,0,0,-1,1455,1093,0,0
238,-69,0,0,0,0,0,0,0,0,0,-1,1462,1093,0,0
245,-69,0,0,0,0,0,0,0,0,0,-1,1469,1093,0,0
252,-69,0,0,0,0,0,0,0,0,0,-1,1476,1093,0,0
259,-69,0,0,0,0,0,0,0,0,0,-1,1483,1093,0,0
266,-69,0,0,0,0,0,0,0,0,0,-1,1490,1093,0,0
273,-69,0,0,0,0,0,0,0,0,0,-1,1497,1093,0,0
280,-69,0,0,0,0,0,0,0,0,0,-1,1504,1093,0,0
287,-69,0,0,0,0,0,0,0,0,0,-1,1511,1093,0,0
294,-69,0,0,0,0,0,0,0,0,0,-1,1518,1093,0,0
301,-69,0,0,0,0,0,0,0,0,0,-1,1525,1093,0,0
308,-69,0,0,0,0,0,0,0,0,0,-1,1532,1093,0,0
315,-69,0,0,0,0,0,0,0,0,0,-1,1539,1093,0,0
322,-69,0,0,0,0,0,0,0,0,0,-1,1546,1093,0,0
329,-69,0,0,0,0,0,0,0,0,0,-1,1553,1093,0,0
336,-69,0,0,0,0,0,0,0,0,0,-1,1560,1093,0,0
343,-69,0,0,0,0,0,0,0,0,0,-1,1567,1093,0,0
350,-69,0,0,0,0,0,0,0,0,0,-1,1574,1093,0,0
357,-69,0,0,0,0,0,0,0,0,0,-1,1581,1093,0,0
364,-69,0,0,0,0,0,0,0,0,0,-1,1588,1093,0,0
371,-69,0,0,0,0,0,0,0,0,0,-1,1595,1093,0,0
378,-69,0,0,0,0,0,0,0,0,0,-1,1602,1093,0,0
385,-69,0,0,0,0,0,0,0,0,0,-1,1609,1093,0,0
392,-69,0,0,0,0,0,0,0,0,0,-1,1616,1093,0,0
399,-69,0,0,0,0,0,0,0,0,0,-1,1623,1093,0,0
406,-69,0,0,0,0,0,0,0,0,0,-1,1630,1093,0,0
413,-69,0,0,0,0,0,0,0,0,0,-1,1637,1093,0,0
420,-69,0,0,0,0,0,0,0,0,0,-1,1644,1093,0,0
427,-69,0,0,0,0,0,0,0,0,0,-1,1651,1093,0,0
434,-69,0,0,0,0,0,0,0,0,0,-1,1658,1093,0,0
441,-69,0,0,0,0,0,0,0,0,0,-1,1665,1093,0,0
448,-69,0,0,0,0,0,0,0,0,0,-1,1672,1093,0,0
455,-69,0,0,0,0,0,0,0,0,0,-1,1679,1093,0,0
462,-69,0,0,0,0,0,0,0,0,0,-1,1686,1093,0,0
469,-69,0,0,0,0,0,0,0,0,0,-1,1693,1093,0,0
476,-69,0,0,0,0,0,0,0,0,0,-1,1700,1093,0,0
483,-69,0,0,0,0,0,0,0,0,0,-1,1707,1093,0,0
490,-69,0,0,0,0,0,0,0,0,0,-1,1714,1093,0,0
497,-69,0,0,0,0,0,0,0,0,0,-1,1721,1093,0,0
504,-69,0,0,0,0,0,0,0,0,0,-1,1728,1093,0,0
511,-69,0,0,0,0,0,0,0,0,0,-1,1735,1093,0,0
518,-69,0,0,0,0,0,0,0,0,0,-1,1742,1093,0,0
525,-69,0,0,0,0,0,0,0,0,0,-1,1749,1093,0,0
532,-69,0,0,0,0,0,0,0,0,0,-1,1756,1093,0,0
539,-69,0,0,0,0,0,0,0,0,0,-1,1763,1093,0,0
546,-69,0,0,0,0,0,0,0,0,0,-1,1770,1093,0,0
553,-69,0,0,0,0,0,0,0,0,0,-1,1777,1093,0,0
560,-69,0,0,0,0,0,0,0,0,0,-1,1784,1093,0,0
567,-69,0,0,0,0,0,0,0,0,0,-1,1791,1093,0,0
574,-69,0,0,0,0,0,0,0,0,0,-1,1798,1093,0,0
581,-69,0,0,0,0,0,0,0,0,0,-1,1805,1093,0,0
588,-69,0,0,0,0,0,0,0,0,0,-1,1812,1093,0,0
595,-69,0,0,0,0,0,0,0,0,0,-1,1819,1093,0,0
602,-69,0,0,0,0,0,0,0,0,0,-1,1826,1093,0,0
609,-69,0,0,0,0,0,0,0,0,0,-1,1833,1093,0,0
616,-69,0,0,0,0,0,0,0,0,0,-1,1840,1093,0,0
623,-69,0,0,0,0,0,0,0,0,0,-1,1847,1093,0,0
630,-69,0,0,0,0,0,0,0,0,0,-1,1854,1093,0,0
637,-69,0,0,0,0,0,0,0,0,0,-1,1861,1093,0,0
644,-69,0,0,0,0,0,0,0,0,0,-1,1868,1093,0,0
651,-69,78.8386,2.30505,-0.0017706,-0.00135576,0.00359231,0.00203511,-0.00516147,0.814236,0.00428365,0.0393096,1875,1093,78.8386,-2.30506
658,-69,78.844,2.43054,-0.00192148,-0.000837185,0.00246513,0.00114471,-0.00390338,0.893638,0.00305614,0.0417904,1882,1093,78.844,-2.43055
665,-69,78.8641,2.43799,-0.00164864,-0.000440386,0.00167917,0.000740025,-0.00282905,0.958077,0.00217508,0.0407072,1889,1093,78.8642,-2.43798
672,-69,78.6755,2.44788,-0.00114763,-4.89524e-05,0.00108644,0.000619135,-0.00181572,1.01947,0.00146125,0.0369646,1896,1093,78.6755,-2.44782
679,-69,78.6244,2.50757,-0.000476946,0.000327516,0.000627924,0.000670992,-0.000820421,1.07026,0.000862507,0.0386139,1903,1093,78.6244,-2.50763
686,-69,78.7758,2.40417,-0.000175621,0.000327667,0.000344164,0.000502372,-0.000350326,1.10107,0.000494908,0.0415294,1910,1093,78.7758,-2.40414
693,-69,78.7573,2.33521,-5.30122e-05,9.41714e-05,0.000403861,0.000431091,-0.000389932,0.87552,0.000474216,0.0374855,1917,1093,78.7573,-2.33519
700,-69,78.8031,2.28064,3.31992e-05,1.87769e-05,0.000529667,0.000555705,-0.000503728,0.778591,0.000611909,0.0277494,1924,1093,78.8032,-2.28068
707,-69,78.818,2.2677,-0.000314513,9.6406e-05,0.000759191,0.000677448,-0.000895555,0.917547,0.000911079,0.0221192,1931,1093,78.8179,-2.26769
714,-69,78.8287,2.25989,-0.00084918,0.00039038,0.000989979,0.000938583,-0.00139738,1.06508,0.00135731,0.0375985,1938,1093,78.8288,-2.25995
721,-69,78.8334,2.2655,0,0,0,0,0,0,0,-1,1945,1093,78.8334,-2.26556
728,-69,75.6364,9.25024,0,0,0,0,0,0,0,-1,1952,1093,75.6363,-9.25028
735,-69,75.9712,8.63306,-0.00321568,0.00256601,0.00193839,0.00315573,-0.0038054,1.27546,0.00402484,0.0473501,1959,1093,75.9712,-8.63311
742,-69,75.8418,8.22925,-0.00438251,0.00360151,0.00219801,0.00416662,-0.00494762,1.31914,0.00526855,0.0353912,1966,1093,75.8417,-8.22929
749,-69,75.8718,7.64404,0,0,0,0,0,0,0,-1,1973,1093,75.8718,-7.644
756,-69,75.7441,7.16223,-0.00690445,0.00632256,0.00248479,0.00677394,-0.00735584,1.3911,0.00816014,0.0174929,1980,1093,75.7442,-7.16227
763,-69,75.6914,6.64685,-0.00834985,0.00901528,0.00197398,0.00923685,-0.00857142,1.45902,0.010284,0.0205087,1987,1093,75.6914,-6.64681
770,-69,75.5752,6.1731,-0.0097857,0.0121849,0.00111958,0.0122418,-0.00984261,1.52001,0.0127755,0.0230231,1994,1093,75.5752,-6.1731
777,-69,75.377,5.71802,-0.0112215,0.0157998,-0.000385855,0.0158053,-0.011227,-1.55652,0.0156815,0.0279767,2001,1093,75.3768,-5.71804
784,-69,75.2937,5.20532,-0.0126601,0.0195954,-0.00254228,0.0197946,-0.0128593,-1.49262,0.0189939,0.0348443,2008,1093,75.2937,-5.2053
791,-69,75.2871,4.70715,-0.0143009,0.0236871,-0.0057827,0.0245479,-0.0151616,-1.42303,0.0231388,0.0473729,2015,1093,75.2871,-4.70713
798,-69,75.2546,4.18762,0,0,0,0,0,0,0,-1,2022,1093,75.2546,-4.18768
805,-69,74.8218,3.54065,0,0,0,0,0,0,0,-1,2029,1093,74.8217,-3.5407
812,-69,74.71,1.99805,0,0,0,0,0,0,0,-1,2036,1093,74.71,-1.99809
-700,-76,0,0,0,0,0,0,0,0,0,-1,524,1100,0,0
-693,-76,-59.9362,0.251465,0,0,0,0,0,0,0,-1,531,1100,-59.9362,-0.251462
-686,-76,-60.02,0.776001,0.0384933,0.0471639,-0.00166549,0.0474728,0.0381843,-1.3874,0.0290516,0.0488716,538,1100,-60.0199,-0.776036
-679,-76,-59.476,0.696045,0.0351624,0.0455743,0.00312825,0.0464419,0.0342948,1.30025,0.027811,0.0478032,545,1100,-59.476,-0.69604
-672,-76,-59.8072,1.65796,0.0305264,0.0424177,0.00585491,0.0448166,0.0281275,1.18194,0.0261543,0.0486499,552,1100,-59.8072,-1.65801
-665,-76,-59.7813,2.3158,0,0,0,0,0,0,0,-1,559,1100,-59.7814,-2.3158
-658,-76,-59.1499,3.27454,0,0,0,0,0,0,0,-1,566,1100,-59.1499,-3.27453
-651,-76,-55.1196,3.9519,0,0,0,0,0,0,0,-1,573,1100,-55.1196,-3.95193
-644,-76,-59.3868,4.74243,0,0,0,0,0,0,0,-1,580,1100,-59.3868,-4.74248
-637,-76,-59.4645,5.30554,0.00531839,0.0175633,0.00307823,0.0182936,0.00458811,1.33786,0.0109904,0.0251687,587,1100,-59.4645,-5.30549
-630,-76,-59.5067,5.82227,0.00156041,0.0119166,0.00141997,0.0121077,0.00136924,1.43697,0.00765634,0.0168086,594,1100,-59.5067,-5.82229
-623,-76,-59.5492,6.3562,-0.000809624,0.00708883,-0.000654019,0.00714262,-0.000863413,-1.48874,0.0050741,0.023015,601,1100,-59.5492,-6.35614
-616,-76,-59.6413,6.95581,-0.00173369,0.00355206,-0.00193949,0.00418735,-0.00236899,-1.25425,0.00383353,0.0241312,608,1100,-59.6413,-6.95587
-609,-76,-59.6503,7.45361,-0.00177435,0.00171328,-0.00262696,0.00312252,-0.0031836,-1.07841,0.0036409,0.0226567,615,1100,-59.6503,-7.45355
-602,-76,-59.5729,8.01965,-0.00113362,0.000743759,-0.0029661,0.00291617,-0.00330602,-0.938648,0.00359473,0.0218496,622,1100,-59.5729,-8.01966
-595,-76,-59.6062,8.47156,-0.000517031,0.000466885,-0.00317802,0.0031908,-0.00324095,-0.862189,0.00371341,0.0428016,629,1100,-59.6062,-8.47154
-588,-76,-59.7631,8.85254,0,0,0,0,0,0,0,-1,636,1100,-59.7631,-8.85258
-581,-76,-62.3466,0.505371,0,0,0,0,0,0,0,-1,643,1100,-62.3465,-0.505355
-574,-76,-62.3834,0.443237,0.00156799,-0.000118945,-0.00267147,0.00352598,-0.00207694,-0.632485,0.00327071,0.0353638,650,1100,-62.3833,-0.443244
-567,-76,-62.3925,0.462646,0.00216223,0.000223868,-0.00246504,0.00384177,-0.00145567,-0.598096,0.00316021,0.0404749,657,1100,-62.3924,-0.462596
-560,-76,-62.4343,0.605835,0.00252471,0.000832219,-0.00219075,0.00402698,-0.00067005,-0.601086,0.00293362,0.0418018,664,1100,-62.4343,-0.605852
-553,-76,-62.4307,0.544678,0.00260058,0.00154039,-0.00187006,0.00401423,0.000126747,-0.64729,0.00263492,0.0432444,671,1100,-62.4307,-0.544617
-546,-76,-62.3506,0.438965,0.00284091,0.00199152,-0.00157465,0.00404713,0.000785294,-0.653679,0.00247815,0.0416904,678,1100,-62.3507,-0.439019
-539,-76,-62.2589,0.419434,0.00373337,0.00139239,-0.00146135,0.00443521,0.000690559,-0.447735,0.00275561,0.0402632,685,1100,-62.2589,-0.419463
-532,-76,-62.1346,0.501099,0.00466199,0.000684169,-0.00130671,0.00505284,0.000293318,-0.29064,0.00327517,0.0417212,692,1100,-62.1346,-0.501106
-525,-76,0,0,0,0,0,0,0,0,0,-1,699,1100,0,0
-518,-76,0,0,0,0,0,0,0,0,0,-1,706,1100,0,0
-511,-76,0,0,0,0,0,0,0,0,0,-1,713,1100,0,0
-504,-76,0,0,0,0,0,0,0,0,0,-1,720,1100,0,0
-497,-76,0,0,0,0,0,0,0,0,0,-1,727,1100,0,0
-490,-76,0,0,0,0,0,0,0,0,0,-1,734,1100,0,0
-483,-76,0,0,0,0,0,0,0,0,0,-1,741,1100,0,0
-476,-76,0,0,0,0,0,0,0,0,0,-1,748,1100,0,0
-469,-76,0,0,0,0,0,0,0,0,0,-1,755,1100,0,0
-462,-76,0,0,0,0,0,0,0,0,0,-1,762,1100,0,0
-455,-76,0,0,0,0,0,0,0,0,0,-1,769,1100,0,0
-448,-76,0,0,0,0,0,0,0,0,0,-1,776,1100,0,0
-441,-76,0,0,0,0,0,0,0,0,0,-1,783,1100,0,0
-434,-76,0,0,0,0,0,0,0,0,0,-1,790,1100,0,0
-427,-76,0,0,0,0,0,0,0,0,0,-1,797,1100,0,0
-420,-76,0,0,0,0,0,0,0,0,0,-1,804,1100,0,0
-413,-76,0,0,0,0,0,0,0,0,0,-1,811,1100,0,0
-406,-76,0,0,0,0,0,0,0,0,0,-1,818,1100,0,0
-399,-76,0,0,0,0,0,0,0,0,0,-1,825,1100,0,0
-392,-76,0,0,0,0,0,0,0,0,0,-1,832,1100,0,0
-385,-76,0,0,0,0,0,0,0,0,0,-1,839,1100,0,0
-378,-76,0,0,0,0,0,0,0,0,0,-1,846,1100,0,0
-371,-76,0,0,0,0,0,0,0,0,0,-1,853,1100,0,0
-364,-76,0,0,0,0,0,0,0,0,0,-1,860,1100,0,0
-357,-76,0,0,0,0,0,0,0,0,0,-1,867,1100,0,0
-350,-76,0,0,0,0,0,0,0,0,0,-1,874,1100,0,0
-343,-76,0,0,0,0,0,0,0,0,0,-1,881,1100,0,0
-336,-76,0,0,0,0,0,0,0,0,0,-1,888,1100,0,0
-329,-76,0,0,0,0,0,0,0,0,0,-1,895,1100,0,0
-322,-76,0,0,0,0,0,0,0,0,0,-1,902,1100,0,0
-315,-76,0,0,0,0,0,0,0,0,0,-1,909,1100,0,0
-308,-76,0,0,0,0,0,0,0,0,0,-1,916,1100,0,0
-301,-76,0,0,0,0,0,0,0,0,0,-1,923,1100,0,0
-294,-76,0,0,0,0,0,0,0,0,0,-1,930,1100,0,0
-287,-76,0,0,0,0,0,0,0,0,0,-1,937,1100,0,0
-280,-76,0,0,0,0,0,0,0,0,0,-1,944,1100,0,0
-273,-76,0,0,0,0,0,0,0,0,0,-1,951,1100,0,0
-266,-76,0,0,0,0,0,0,0,0,0,-1,958,1100,0,0
-259,-76,0,0,0,0,0,0,0,0,0,-1,965,1100,0,0
-252,-76,0,0,0,0,0,0,0,0,0,-1,972,1100,0,0
-245,-76,0,0,0,0,0,0,0,0,0,-1,979,1100,0,0
-238,-76,0,0,0,0,0,0,0,0,0,-1,986,1100,0,0
-231,-76,0,0,0,0,0,0,0,0,0,-1,993,1100,0,0
-224,-76,0,0,0,0,0,0,0,0,0,-1,1000,1100,0,0
-217,-76,0,0,0,0,0,0,0,0,0,-1,1007,1100,0,0
-210,-76,0,0,0,0,0,0,0,0,0,-1,1014,1100,0,0
-203,-76,0,0,0,0,0,0,0,0,0,-1,1021,1100,0,0
-196,-76,0,0,0,0,0,0,0,0,0,-1,1028,1100,0,0
-189,-76,0,0,0,0,0,0,0,0,0,-1,1035,1100,0,0
-182,-76,0,0,0,0,0,0,0,0,0,-1,1042,1100,0,0
-175,-76,0,0,0,0,0,0,0,0,0,-1,1049,1100,0,0
-168,-76,0,0,0,0,0,0,0,0,0,-1,1056,1100,0,0
-161,-76,0,0,0,0,0,0,0,0,0,-1,1063,1100,0,0
-154,-76,0,0,0,0,0,0,0,0,0,-1,1070,1100,0,0
-147,-76,0,0,0,0,0,0,0,0,0,-1,1077,1100,0,0
-140,-76,0,0,0,0,0,0,0,0,0,-1,1084,1100,0,0
-133,-76,0,0,0,0,0,0,0,0,0,-1,1091,1100,0,0
-126,-76,0,0,0,0,0,0,0,0,0,-1,1098,1100,0,0
-119,-76,0,0,0,0,0,0,0,0,0,-1,1105,1100,0,0
-112,-76,0,0,0,0,0,0,0,0,0,-1,1112,1100,0,0
-105,-76,0,0,0,0,0,0,0,0,0,-1,1119,1100,0,0
-98,-76,0,0,0,0,0,0,0,0,0,-1,1126,1100,0,0
-91,-76,0,0,0,0,0,0,0,0,0,-1,1133,1100,0,0
-84,-76,0,0,0,0,0,0,0,0,0,-1,1140,1100,0,0
-77,-76,0,0,0,0,0,0,0,0,0,-1,1147,1100,0,0
-70,-76,0,0,0,0,0,0,0,0,0,-1,1154,1100,0,0
-63,-76,0,0,0,0,0,0,0,0,0,-1,1161,1100,0,0
-56,-76,0,0,0,0,0,0,0,0,0,-1,1168,1100,0,0
-49,-76,0,0,0,0,0,0,0,0,0,-1,1175,1100,0,0
-42,-76,0,0,0,0,0,0,0,0,0,-1,1182,1100,0,0
-35,-76,0,0,0,0,0,0,0,0,0,-1,1189,1100,0,0
-28,-76,0,0,0,0,0,0,0,0,0,-1,1196,1100,0,0
-21,-76,0,0,0,0,0,0,0,0,0,-1,1203,1100,0,0
-14,-76,0,0,0,0,0,0,0,0,0,-1,1210,1100,0,0
-7,-76,0,0,0,0,0,0,0,0,0,-1,1217,1100,0,0
0,-76,0,0,0,0,0,0,0,0,0,-1,1224,1100,0,0
7,-76,0,0,0,0,0,0,0,0,0,-1,1231,1100,0,0
14,-76,0,0,0,0,0,0,0,0,0,-1,1238,1100,0,0
21,-76,0,0,0,0,0,0,0,0,0,-1,1245,1100,0,0
28,-76,0,0,0,0,0,0,0,0,0,-1,1252,1100,0,0
35,-76,0,0,0,0,0,0,0,0,0,-1,1259,1100,0,0
42,-76,0,0,0,0,0,0,0,0,0,-1,1266,1100,0,0
49,-76,0,0,0,0,0,0,0,0,0,-1,1273,1100,0,0
56,-76,0,0,0,0,0,0,0,0,0,-1,1280,1100,0,0
63,-76,0,0,0,0,0,0,0,0,0,-1,1287,1100,0,0
70,-76,0,0,0,0,0,0,0,0,0,-1,1294,1100,0,0
77,-76,0,0,0,0,0,0,0,0,0,-1,1301,1100,0,0
84,-76,0,0,0,0,0,0,0,0,0,-1,1308,1100,0,0
91,-76,0,0,0,0,0,0,0,0,0,-1,1315,1100,0,0
98,-76,0,0,0,0,0,0,0,0,0,-1,1322,1100,0,0
105,-76,0,0,0,0,0,0,0,0,0,-1,1329,1100,0,0
112,-76,0,0,0,0,0,0,0,0,0,-1,1336,1100,0,0
119,-76,0,0,0,0,0,0,0,0,0,-1,1343,1100,0,0
126,-76,0,0,0,0,0,0,0,0,0,-1,1350,1100,0,0
133,-76,0,0,0,0,0,0,0,0,0,-1,1357,1100,0,0
140,-76,0,0,0,0,0,0,0,0,0,-1,1364,1100,0,0
147,-76,0,0,0,0,0,0,0,0,0,-1,1371,1100,0,0
154,-76,0,0,0,0,0,0,0,0,0,-1,1378,1100,0,0
161,-76,0,0,0,0,0,0,0,0,0,-1,1385,1100,0,0
168,-76,0,0,0,0,0,0,0,0,0,-1,1392,1100,0,0
175,-76,0,0,0,0,0,0,0,0,0,-1,1399,1100,0,0
182,-76,0,0,0,0,0,0,0,0,0,-1,1406,1100,0,0
189,-76,0,0,0,0,0,0,0,0,0,-1,1413,1100,0,0
196,-76,0,0,0,0,0,0,0,0,0,-1,1420,1100,0,0
203,-76,0,0,0,0,0,0,0,0,0,-1,1427,1100,0,0
210,-76,0,0,0,0,0,0,0,0,0,-1,1434,1100,0,0
217,-76,0,0,0,0,0,0,0,0,0,-1,1441,1100,0,0
224,-76,0,0,0,0,0,0,0,0,0,-1,1448,1100,0,0
231,-76,0,0,0,0,0,0,0,0,0,-1,1455,1100,0,0
238,-76,0,0,0,0,0,0,0,0,0,-1,1462,1100,0,0
245,-76,0,0,0,0,0,0,0,0,0,-1,1469,1100,0,0
252,-76,0,0,0,0,0,0,0,0,0,-1,1476,1100,0,0
259,-76,0,0,0,0,0,0,0,0,0,-1,1483,1100,0,0
266,-76,0,0,0,0,0,0,0,0,0,-1,1490,1100,0,0
273,-76,0,0,0,0,0,0,0,0,0,-1,1497,1100,0,0
280,-76,0,0,0,0,0,0,0,0,0,-1,1504,1100,0,0
287,-76,0,0,0,0,0,0,0,0,0,-1,1511,1100,0,0
294,-76,0,0,0,0,0,0,0,0,0,-1,1518,1100,0,0
301,-76,0,0,0,0,0,0,0,0,0,-1,1525,1100,0,0
308,-76,0,0,0,0,0,0,0,0,0,-1,1532,1100,0,0
315,-76,0,0,0,0,0,0,0,0,0,-1,1539,1100,0,0
322,-76,0,0,0,0,0,0,0,0,0,-1,1546,1100,0,0
329,-76,0,0,0,0,0,0,0,0,0,-1,1553,1100,0,0
336,-76,0,0,0,0,0,0,0,0,0,-1,1560,1100,0,0
343,-76,0,0,0,0,0,0,0,0,0,-1,1567,1100,0,0
350,-76,0,0,0,0,0,0,0,0,0,-1,1574,1100,0,0
357,-76,0,0,0,0,0,0,0,0,0,-1,1581,1100,0,0
364,-76,0,0,0,0,0,0,0,0,0,-1,1588,1100,0,0
371,-76,0,0,0,0,0,0,0,0,0,-1,1595,1100,0,0
378,-76,0,0,0,0,0,0,0,0,0,-1,1602,1100,0,0
385,-76,0,0,0,0,0,0,0,0,0,-1,1609,1100,0,0
392,-76,0,0,0,0,0,0,0,0,0,-1,1616,1100,0,0
399,-76,0,0,0,0,0,0,0,0,0,-1,1623,1100,0,0
406,-76,0,0,0,0,0,0,0,0,0,-1,1630,1100,0,0
413,-76,0,0,0,0,0,0,0,0,0,-1,1637,1100,0,0
420,-76,0,0,0,0,0,0,0,0,0,-1,1644,1100,0,0
427,-76,0,0,0,0,0,0,0,0,0,-1,1651,1100,0,0
434,-76,0,0,0,0,0,0,0,0,0,-1,1658,1100,0,0
441,-76,0,0,0,0,0,0,0,0,0,-1,1665,1100,0,0
448,-76,0,0,0,0,0,0,0,0,0,-1,1672,1100,0,0
455,-76,0,0,0,0,0,0,0,0,0,-1,1679,1100,0,0
462,-76,0,0,0,0,0,0,0,0,0,-1,1686,1100,0,0
469,-76,0,0,0,0,0,0,0,0,0,-1,1693,1100,0,0
476,-76,0,0,0,0,0,0,0,0,0,-1,1700,1100,0,0
483,-76,0,0,0,0,0,0,0,0,0,-1,1707,1100,0,0
490,-76,0,0,0,0,0,0,0,0,0,-1,1714,1100,0,0
497,-76,0,0,0,0,0,0,0,0,0,-1,1721,1100,0,0
504,-76,0,0,0,0,0,0,0,0,0,-1,1728,1100,0,0
511,-76,0,0,0,0,0,0,0,0,0,-1,1735,1100,0,0
518,-76,0,0,0,0,0,0,0,0,0,-1,1742,1100,0,0
525,-76,0,0,0,0,0,0,0,0,0,-1,1749,1100,0,0
532,-76,0,0,0,0,0,0,0,0,0,-1,1756,1100,0,0
539,-76,0,0,0,0,0,0,0,0,0,-1,1763,1100,0,0
546,-76,0,0,0,0,0,0,0,0,0,-1,1770,1100,0,0
553,-76,0,0,0,0,0,0,0,0,0,-1,1777,1100,0,0
560,-76,0,0,0,0,0,0,0,0,0,-1,1784,1100,0,0
567,-76,0,0,0,0,0,0,0,0,0,-1,1791,1100,0,0
574,-76,0,0,0,0,0,0,0,0,0,-1,1798,1100,0,0
581,-76,0,0,0,0,0,0,0,0,0,-1,1805,1100,0,0
588,-76,0,0,0,0,0,0,0,0,0,-1,1812,1100,0,0
595,-76,0,0,0,0,0,0,0,0,0,-1,1819,1100,0,0
602,-76,0,0,0,0,0,0,0,0,0,-1,1826,1100,0,0
609,-76,0,0,0,0,0,0,0,0,0,-1,1833,1100,0,0
616,-76,0,0,0,0,0,0,0,0,0,-1,1840,1100,0,0
623,-76,0,0,0,0,0,0,0,0,0,-1,1847,1100,0,0
630,-76,0,0,0,0,0,0,0,0,0,-1,1854,1100,0,0
637,-76,0,0,0,0,0,0,0,0,0,-1,1861,1100,0,0
644,-76,0,0,0,0,0,0,0,0,0,-1,1868,1100,0,0
651,-76,78.8397,2.27991,-0.000838375,-0.00083681,0.00373004,0.00289245,-0.00456763,0.785503,0.00434313,0.0396384,1875,1100,78.8397,-2.27988
658,-76,78.7687,2.33105,-0.00120276,-0.00047715,0.00257258,0.00175808,-0.00343799,0.85545,0.00305177,0.0407342,1882,1100,78.7686,-2.33101
665,-76,78.7257,2.37622,-0.00107598,-0.000180932,0.00172891,0.00115743,-0.00241435,0.912043,0.0021043,0.0379327,1889,1100,78.7257,-2.37617
672,-76,78.6497,2.41504,-0.000671891,0.00011793,0.0010622,0.000856252,-0.00141021,0.963373,0.00132151,0.0362963,1896,1100,78.6496,-2.41499
679,-76,78.6394,2.44873,-4.86014e-05,0.000395681,0.000547558,0.000764443,-0.000417363,0.978101,0.000692055,0.0370765,1903,1100,78.6394,-2.4487
686,-76,78.848,2.31604,0.000305141,0.000353243,0.000217594,0.000548111,0.000110273,0.84044,0.00033476,0.0380902,1910,1100,78.848,-2.316
693,-76,78.8049,2.20056,0.000477868,0.000116115,0.000266937,0.000619438,-2.54549e-05,0.487632,0.0004217,0.0382774,1917,1100,78.8049,-2.20054
700,-76,78.7594,2.20984,0.000614404,2.90531e-05,0.00036718,0.000791282,-0.000147825,0.448916,0.000583076,0.0302917,1924,1100,78.7594,-2.20984
707,-76,78.7838,2.30701,0.000324802,0.000110352,0.000578918,0.000806341,-0.000371187,0.693828,0.000695148,0.0231687,1931,1100,78.7839,-2.30701
714,-76,78.8602,2.23462,0,0,0,0,0,0,0,-1,1938,1100,78.8602,-2.23463
721,-76,45.1713,3.04919,0,0,0,0,0,0,0,-1,1945,1100,45.1713,-3.04915
728,-76,60.937,8.08447,0,0,0,0,0,0,0,-1,1952,1100,60.937,-8.08446
735,-76,75.1329,8.92053,0,0,0,0,0,0,0,-1,1959,1100,75.1329,-8.92049
742,-76,75.2104,8.30188,-0.0034707,0.00335594,0.00203813,0.00391814,-0.00403289,1.30165,0.00459069,0.0370497,1966,1100,75.2105,-8.30193
749,-76,75.0784,7.7179,-0.00466507,0.00422524,0.00247465,0.00486764,-0.00530748,1.31681,0.00587644,0.0342112,1973,1100,75.0784,-7.71791
756,-76,75.1628,7.20813,-0.00623379,0.00588076,0.00224304,0.00628273,-0.00663576,1.39347,0.00745942,0.0180948,1980,1100,75.1628,-7.20814
763,-76,75.0916,6.62671,-0.00794671,0.00849147,0.0016363,0.00865276,-0.00810801,1.47254,0.00967854,0.0187095,1987,1100,75.0915,-6.62667
770,-76,74.9421,6.10071,-0.0098027,0.011558,0.000574819,0.0115734,-0.00981816,1.54391,0.0123643,0.0199638,1994,1100,74.9422,-6.10071
777,-76,74.791,5.72595,-0.0118031,0.0150987,-0.00124579,0.0151563,-0.0118607,-1.52462,0.0156369,0.0236046,2001,1100,74.7911,-5.72598
784,-76,74.8069,5.16516,-0.013937,0.018964,-0.00383662,0.0194055,-0.0143785,-1.45623,0.019577,0.0353196,2008,1100,74.807,-5.16515
791,-76,74.7144,4.83142,0,0,0,0,0,0,0,-1,2015,1100,74.7144,-4.83139
798,-76,74.8247,2.95386,-0.0192544,0.0285808,-0.0130973,0.0319321,-0.0226057,-1.3203,0.0316405,0.0431488,2022,1100,74.8248,-2.95391
805,-76,74.3501,2.59863,-0.0220183,0.0354099,-0.020633,0.0420543,-0.0286627,-1.25926,0.0410718,0.0465506,2029,1100,74.35,-2.59864
812,-76,74.0388,1.9408,0,0,0,0,0,0,0,-1,2036,1100,74.0387,-1.94076
-700,-83,0,0,0,0,0,0,0,0,0,-1,524,1107,0,0
-693,-83,-58.6297,-0.241821,0,0,0,0,0,0,0,-1,531,1107,-58.6297,0.241879
-686,-83,-58.7472,0.296265,0.0286037,0.0453339,-0.0142247,0.0534708,0.0204667,-1.0512,0.031153,0.0484751,538,1107,-58.7472,-0.296273
-679,-83,-58.7291,0.904907,0.0261134,0.0430087,-0.00730616,0.0457299,0.0233922,-1.21426,0.0264045,0.0470194,545,1107,-58.7291,-0.904879
-672,-83,-58.7234,1.55493,0.0227322,0.0396197,-0.00251904,0.0399875,0.0223645,-1.42583,0.0231408,0.0457276,552,1107,-58.7234,-1.55493
-665,-83,-58.7119,2.19519,0.0186802,0.0356161,0.00058041,0.0356359,0.0186603,1.53658,0.0205821,0.0469488,559,1107,-58.7119,-2.19514
-658,-83,-58.6105,3.05103,0.0143309,0.0311536,0.00223631,0.0314458,0.0140387,1.44087,0.01819,0.0480368,566,1107,-58.6105,-3.05105
-651,-83,-58.1592,4.31812,0,0,0,0,0,0,0,-1,573,1107,-58.1592,-4.31805
-644,-83,-58.5494,4.73608,0.00591535,0.0210422,0.00216995,0.0213473,0.00561022,1.4311,0.0127788,0.033953,580,1107,-58.5494,-4.73609
-637,-83,-58.8076,5.22754,0.00208596,0.015719,0.00118818,0.0158218,0.00198318,1.48451,0.00995287,0.0163475,587,1107,-58.8076,-5.2275
-630,-83,-58.8753,5.8031,-0.00105018,0.0104562,0.000153453,0.0104582,-0.00105223,1.55746,0.00734806,0.0189836,594,1107,-58.8753,-5.8031
-623,-83,-58.9504,6.36084,-0.00299676,0.00599918,-0.0015241,0.00625038,-0.00324796,-1.40745,0.00557444,0.0211364,601,1107,-58.9504,-6.3608
-616,-83,-59.0961,6.96216,-0.00352957,0.00295777,-0.00245488,0.003782,-0.00435381,-1.24687,0.00470108,0.0179565,608,1107,-59.0961,-6.9622
-609,-83,-59.0268,7.47546,-0.00319844,0.00149429,-0.00281013,0.00280883,-0.00451299,-1.13325,0.00426525,0.0241425,615,1107,-59.0268,-7.47545
-602,-83,-58.9941,8.10254,-0.00230083,0.000835489,-0.00305242,0.00269901,-0.00416434,-1.02269,0.00399255,0.0208138,622,1107,-58.9941,-8.1026
-595,-83,-58.9309,8.67371,-0.00150882,0.00069045,-0.00320511,0.00297932,-0.00379769,-0.95065,0.0039222,0.0308248,629,1107,-58.9309,-8.67374
-588,-83,-59.0332,8.9873,0,0,0,0,0,0,0,-1,636,1107,-59.0332,-8.98728
-581,-83,-62.3531,0.469604,0,0,0,0,0,0,0,-1,643,1107,-62.3531,-0.469569
-574,-83,-62.3964,0.424561,0.000850233,-3.27686e-05,-0.00255496,0.00300156,-0.0021841,-0.699842,0.00300632,0.037391,650,1107,-62.3964,-0.42462
-567,-83,-62.5203,0.304443,0.00167052,0.000189364,-0.00229722,0.00334358,-0.0014837,-0.629468,0.00285515,0.040518,657,1107,-62.5203,-0.30449
-560,-83,-62.4651,0.345093,0.00228087,0.000680864,-0.00193841,0.00357787,-0.000616144,-0.589691,0.00261494,0.0400672,664,1107,-62.4651,-0.345147
-553,-83,-62.3583,0.51001,0.00243901,0.0013298,-0.00152446,0.00350661,0.000262199,-0.610937,0.00225543,0.0419846,671,1107,-62.3583,-0.509975
-546,-83,-62.2588,0.464233,0.00258965,0.00187206,-0.0011078,0.00339531,0.0010664,-0.628787,0.00200495,0.0425197,678,1107,-62.2588,-0.464239
-539,-83,-62.2537,0.462769,0.00326826,0.00155223,-0.000856167,0.00362236,0.00119814,-0.392161,0.00213093,0.0431024,685,1107,-62.2537,-0.462807
-532,-83,-62.2851,0.515869,0.00397165,0.00111009,-0.000620825,0.00410054,0.000981204,-0.204695,0.0024724,0.0438932,692,1107,-62.2851,-0.515865
-525,-83,0,0,0,0,0,0,0,0,0,-1,699,1107,0,0
-518,-83,0,0,0,0,0,0,0,0,0,-1,706,1107,0,0
-511,-83,0,0,0,0,0,0,0,0,0,-1,713,1107,0,0
-504,-83,0,0,0,0,0,0,0,0,0,-1,720,1107,0,0
-497,-83,0,0,0,0,0,0,0,0,0,-1,727,1107,0,0
-490,-83,0,0,0,0,0,0,0,0,0,-1,734,1107,0,0
-483,-83,0,0,0,0,0,0,0,0,0,-1,741,1107,0,0
-476,-83,0,0,0,0,0,0,0,0,0,-1,748,1107,0,0
-469,-83,0,0,0,0,0,0,0,0,0,-1,755,1107,0,0
-462,-83,0,0,0,0,0,0,0,0,0,-1,762,1107,0,0
-455,-83,0,0,0,0,0,0,0,0,0,-1,769,1107,0,0
-448,-83,0,0,0,0,0,0,0,0,0,-1,776,1107,0,0
-441,-83,0,0,0,0,0,0,0,0,0,-1,783,1107,0,0
-434,-83,0,0,0,0,0,0,0,0,0,-1,790,1107,0,0
-427,-83,0,0,0,0,0,0,0,0,0,-1,797,1107,0,0
-420,-83,0,0,0,0,0,0,0,0,0,-1,804,1107,0,0
-413,-83,0,0,0,0,0,0,0,0,0,-1,811,1107,0,0
-406,-83,0,0,0,0,0,0,0,0,0,-1,818,1107,0,0
-399,-83,0,0,0,0,0,0,0,0,0,-1,825,1107,0,0
-392,-83,0,0,0,0,0,0,0,0,0,-1,832,1107,0,0
-385,-83,0,0,0,0,0,0,0,0,0,-1,839,1107,0,0
-378,-83,0,0,0,0,0,0,0,0,0,-1,846,1107,0,0
-371,-83,0,0,0,0,0,0,0,0,0,-1,853,1107,0,0
-364,-83,0,0,0,0,0,0,0,0,0,-1,860,1107,0,0
-357,-83,0,0,0,0,0,0,0,0,0,-1,867,1107,0,0
-350,-83,0,0,0,0,0,0,0,0,0,-1,874,1107,0,0
-343,-83,0,0,0,0,0,0,0,0,0,-1,881,1107,0,0
-336,-83,0,0,0,0,0,0,0,0,0,-1,888,1107,0,0
-329,-83,0,0,0,0,0,0,0,0,0,-1,895,1107,0,0
-322,-83,0,0,0,0,0,0,0,0,0,-1,902,1107,0,0
-315,-83,0,0,0,0,0,0,0,0,0,-1,909,1107,0,0
-308,-83,0,0,0,0,0,0,0,0,0,-1,916,1107,0,0
-301,-83,0,0,0,0,0,0,0,0,0,-1,923,1107,0,0
-294,-83,0,0,0,0,0,0,0,0,0,-1,930,1107,0,0
-287,-83,0,0,0,0,0,0,0,0,0,-1,937,1107,0,0
-280,-83,0,0,0,0,0,0,0,0,0,-1,944,1107,0,0
-273,-83,0,0,0,0,0,0,0,0,0,-1,951,1107,0,0
-266,-83,0,0,0,0,0,0,0,0,0,-1,958,1107,0,0
-259,-83,0,0,0,0,0,0,0,0,0,-1,965,1107,0,0
-252,-83,0,0,0,0,0,0,0,0,0,-1,972,1107,0,0
-245,-83,0,0,0,0,0,0,0,0,0,-1,979,1107,0,0
-238,-83,0,0,0,0,0,0,0,0,0,-1,986,1107,0,0
-231,-83,0,0,0,0,0,0,0,0,0,-1,993,1107,0,0
-224,-83,0,0,0,0,0,0,0,0,0,-1,1000,1107,0,0
-217,-83,0,0,0,0,0,0,0,0,0,-1,1007,1107,0,0
-210,-83,0,0,0,0,0,0,0,0,0,-1,1014,1107,0,0
-203,-83,0,0,0,0,0,0,0,0,0,-1,1021,1107,0,0
-196,-83,0,0,0,0,0,0,0,0,0,-1,1028,1107,0,0
-189,-83,0,0,0,0,0,0,0,0,0,-1,1035,1107,0,0
-182,-83,0,0,0,0,0,0,0,0,0,-1,1042,1107,0,0
-175,-83,0,0,0,0,0,0,0,0,0,-1,1049,1107,0,0
-168,-83,0,0,0,0,0,0,0,0,0,-1,1056,1107,0,0
-161,-83,0,0,0,0,0,0,0,0,0,-1,1063,1107,0,0
-154,-83,0,0,0,0,0,0,0,0,0,-1,1070,1107,0,0
-147,-83,0,0,0,0,0,0,0,0,0,-1,1077,1107,0,0
-140,-83,0,0,0,0,0,0,0,0,0,-1,1084,1107,0,0
-133,-83,0,0,0,0,0,0,0,0,0,-1,1091,1107,0,0
-126,-83,0,0,0,0,0,0,0,0,0,-1,1098,1107,0,0
-119,-83,0,0,0,0,0,0,0,0,0,-1,1105,1107,0,0
-112,-83,0,0,0,0,0,0,0,0,0,-1,1112,1107,0,0
-105,-83,0,0,0,0,0,0,0,0,0,-1,1119,1107,0,0
-98,-83,0,0,0,0,0,0,0,0,0,-1,1126,1107,0,0
-91,-83,0,0,0,0,0,0,0,0,0,-1,1133,1107,0,0
-84,-83,0,0,0,0,0,0,0,0,0,-1,1140,1107,0,0
-77,-83,0,0,0,0,0,0,0,0,0,-1,1147,1107,0,0
-70,-83,0,0,0,0,0,0,0,0,0,-1,1154,1107,0,0
-63,-83,0,0,0,0,0,0,0,0,0,-1,1161,1107,0,0
-56,-83,0,0,0,0,0,0,0,0,0,-1,1168,1107,0,0
-49,-83,0,0,0,0,0,0,0,0,0,-1,1175,1107,0,0
-42,-83,0,0,0,0,0,0,0,0,0,-1,1182,1107,0,0
-35,-83,0,0,0,0,0,0,0,0,0,-1,1189,1107,0,0
-28,-83,0,0,0,0,0,0,0,0,0,-1,1196,1107,0,0
-21,-83,0,0,0,0,0,0,0,0,0,-1,1203,1107,0,0
-14,-83,0,0,0,0,0,0,0,0,0,-1,1210,1107,0,0
-7,-83,0,0,0,0,0,0,0,0,0,-1,1217,1107,0,0
0,-83,0,0,0,0,0,0,0,0,0,-1,1224,1107,0,0
7,-83,0,0,0,0,0,0,0,0,0,-1,1231,1107,0,0
14,-83,0,0,0,0,0,0,0,0,0,-1,1238,1107,0,0
21,-83,0,0,0,0,0,0,0,0,0,-1,1245,1107,0,0
28,-83,0,0,0,0,0,0,0,0,0,-1,1252,1107,0,0
35,-83,0,0,0,0,0,0,0,0,0,-1,1259,1107,0,0
42,-83,0,0,0,0,0,0,0,0,0,-1,1266,1107,0,0
49,-83,0,0,0,0,0,0,0,0,0,-1,1273,1107,0,0
56,-83,0,0,0,0,0,0,0,0,0,-1,1280,1107,0,0
63,-83,0,0,0,0,0,0,0,0,0,-1,1287,1107,0,0
70,-83,0,0,0,0,0,0,0,0,0,-1,1294,1107,0,0
77,-83,0,0,0,0,0,0,0,0,0,-1,1301,1107,0,0
84,-83,0,0,0,0,0,0,0,0,0,-1,1308,1107,0,0
91,-83,0,0,0,0,0,0,0,0,0,-1,1315,1107,0,0
98,-83,0,0,0,0,0,0,0,0,0,-1,1322,1107,0,0
105,-83,0,0,0,0,0,0,0,0,0,-1,1329,1107,0,0
112,-83,0,0,0,0,0,0,0,0,0,-1,1336,1107,0,0
119,-83,0,0,0,0,0,0,0,0,0,-1,1343,1107,0,0
126,-83,0,0,0,0,0,0,0,0,0,-1,1350,1107,0,0
133,-83,0,0,0,0,0,0,0,0,0,-1,1357,1107,0,0
140,-83,0,0,0,0,0,0,0,0,0,-1,1364,1107,0,0
147,-83,0,0,0,0,0,0,0,0,0,-1,1371,1107,0,0
154,-83,0,0,0,0,0,0,0,0,0,-1,1378,1107,0,0
161,-83,0,0,0,0,0,0,0,0,0,-1,1385,1107,0,0
168,-83,0,0,0,0,0,0,0,0,0,-1,1392,1107,0,0
175,-83,0,0,0,0,0,0,0,0,0,-1,1399,1107,0,0
182,-83,0,0,0,0,0,0,0,0,0,-1,1406,1107,0,0
189,-83,0,0,0,0,0,0,0,0,0,-1,1413,1107,0,0
196,-83,0,0,0,0,0,0,0,0,0,-1,1420,1107,0,0
203,-83,0,0,0,0,0,0,0,0,0,-1,1427,1107,0,0
210,-83,0,0,0,0,0,0,0,0,0,-1,1434,1107,0,0
217,-83,0,0,0,0,0,0,0,0,0,-1,1441,1107,0,0
224,-83,0,0,0,0,0,0,0,0,0,-1,1448,1107,0,0
231,-83,0,0,0,0,0,0,0,0,0,-1,1455,1107,0,0
238,-83,0,0,0,0,0,0,0,0,0,-1,1462,1107,0,0
245,-83,0,0,0,0,0,0,0,0,0,-1,1469,1107,0,0
252,-83,0,0,0,0,0,0,0,0,0,-1,1476,1107,0,0
259,-83,0,0,0,0,0,0,0,0,0,-1,1483,1107,0,0
266,-83,0,0,0,0,0,0,0,0,0,-1,1490,1107,0,0
273,-83,0,0,0,0,0,0,0,0,0,-1,1497,1107,0,0
280,-83,0,0,0,0,0,0,0,0,0,-1,1504,1107,0,0
287,-83,0,0,0,0,0,0,0,0,0,-1,1511,1107,0,0
294,-83,0,0,0,0,0,0,0,0,0,-1,1518,1107,0,0
301,-83,0,0,0,0,0,0,0,0,0,-1,1525,1107,0,0
308,-83,0,0,0,0,0,0,0,0,0,-1,1532,1107,0,0
315,-83,0,0,0,0,0,0,0,0,0,-1,1539,1107,0,0
322,-83,0,0,0,0,0,0,0,0,0,-1,1546,1107,0,0
329,-83,0,0,0,0,0,0,0,0,0,-1,1553,1107,0,0
336,-83,0,0,0,0,0,0,0,0,0,-1,1560,1107,0,0
343,-83,0,0,0,0,0,0,0,0,0,-1,1567,1107,0,0
350,-83,0,0,0,0,0,0,0,0,0,-1,1574,1107,0,0
357,-83,0,0,0,0,0,0,0,0,0,-1,1581,1107,0,0
364,-83,0,0,0,0,0,0,0,0,0,-1,1588,1107,0,0
371,-83,0,0,0,0,0,0,0,0,0,-1,1595,1107,0,0
378,-83,0,0,0,0,0,0,0,0,0,-1,1602,1107,0,0
385,-83,0,0,0,0,0,0,0,0,0,-1,1609,1107,0,0
392,-83,0,0,0,0,0,0,0,0,0,-1,1616,1107,0,0
399,-83,0,0,0,0,0,0,0,0,0,-1,1623,1107,0,0
406,-83,0,0,0,0,0,0,0,0,0,-1,1630,1107,0,0
413,-83,0,0,0,0,0,0,0,0,0,-1,1637,1107,0,0
420,-83,0,0,0,0,0,0,0,0,0,-1,1644,1107,0,0
427,-83,0,0,0,0,0,0,0,0,0,-1,1651,1107,0,0
434,-83,0,0,0,0,0,0,0,0,0,-1,1658,1107,0,0
441,-83,0,0,0,0,0,0,0,0,0,-1,1665,1107,0,0
448,-83,0,0,0,0,0,0,0,0,0,-1,1672,1107,0,0
455,-83,0,0,0,0,0,0,0,0,0,-1,1679,1107,0,0
462,-83,0,0,0,0,0,0,0,0,0,-1,1686,1107,0,0
469,-83,0,0,0,0,0,0,0,0,0,-1,1693,1107,0,0
476,-83,0,0,0,0,0,0,0,0,0,-1,1700,1107,0,0
483,-83,0,0,0,0,0,0,0,0,0,-1,1707,1107,0,0
490,-83,0,0,0,0,0,0,0,0,0,-1,1714,1107,0,0
497,-83,0,0,0,0,0,0,0,0,0,-1,1721,1107,0,0
504,-83,0,0,0,0,0,0,0,0,0,-1,1728,1107,0,0
511,-83,0,0,0,0,0,0,0,0,0,-1,1735,1107,0,0
518,-83,0,0,0,0,0,0,0,0,0,-1,1742,1107,0,0
525,-83,0,0,0,0,0,0,0,0,0,-1,1749,1107,0,0
532,-83,0,0,0,0,0,0,0,0,0,-1,1756,1107,0,0
539,-83,0,0,0,0,0,0,0,0,0,-1,1763,1107,0,0
546,-83,0,0,0,0,0,0,0,0,0,-1,1770,1107,0,0
553,-83,0,0,0,0,0,0,0,0,0,-1,1777,1107,0,0
560,-83,0,0,0,0,0,0,0,0,0,-1,1784,1107,0,0
567,-83,0,0,0,0,0,0,0,0,0,-1,1791,1107,0,0
574,-83,0,0,0,0,0,0,0,0,0,-1,1798,1107,0,0
581,-83,0,0,0,0,0,0,0,0,0,-1,1805,1107,0,0
588,-83,0,0,0,0,0,0,0,0,0,-1,1812,1107,0,0
595,-83,0,0,0,0,0,0,0,0,0,-1,1819,1107,0,0
602,-83,0,0,0,0,0,0,0,0,0,-1,1826,1107,0,0
609,-83,0,0,0,0,0,0,0,0,0,-1,1833,1107,0,0
616,-83,0,0,0,0,0,0,0,0,0,-1,1840,1107,0,0
623,-83,0,0,0,0,0,0,0,0,0,-1,1847,1107,0,0
630,-83,0,0,0,0,0,0,0,0,0,-1,1854,1107,0,0
637,-83,0,0,0,0,0,0,0,0,0,-1,1861,1107,0,0
644,-83,78.7793,2.18445,0.00210217,-0.0010852,0.00529494,0.00603806,-0.00502109,0.639219,0.00639399,0.0349078,1868,1107,78.7793,-2.18443
651,-83,78.8514,2.08801,0.000397347,-0.000505761,0.00369904,0.00367229,-0.00378071,0.724662,0.00430314,0.0412639,1875,1107,78.8515,-2.08807
658,-83,78.8544,2.2074,-0.000237391,-0.000245403,0.00252857,0.00228717,-0.00276997,0.784606,0.00292417,0.0453915,1882,1107,78.8543,-2.20743
665,-83,78.6689,2.58362,-0.00034023,-1.67402e-05,0.00164792,0.00147735,-0.00183432,0.834317,0.00191569,0.0399003,1889,1107,78.669,-2.58356
672,-83,78.6097,2.49609,-0.000131343,0.000204207,0.000936485,0.000987827,-0.000914964,0.874035,0.00109885,0.0370002,1896,1107,78.6097,-2.49608
679,-83,78.6589,2.44495,0.000351488,0.000388092,0.000400744,0.000770952,-3.1372e-05,0.808218,0.000524738,0.0362402,1903,1107,78.6589,-2.44499
686,-83,78.8893,2.2948,0.000668616,0.000292744,4.30273e-05,0.000673478,0.000287881,0.112534,0.000390195,0.0338029,1910,1107,78.8892,-2.29477
693,-83,78.8203,2.25464,0.000843882,6.24392e-05,8.56609e-05,0.000853162,5.31594e-05,0.107912,0.000551909,0.0359512,1917,1107,78.8203,-2.25461
700,-83,78.7552,2.31628,0.00101663,-1.03359e-05,0.000170583,0.00104423,-3.79288e-05,0.160368,0.000709132,0.0327071,1924,1107,78.7553,-2.31627
707,-83,78.786,2.34778,0.000775896,7.8278e-05,0.000365007,0.000931961,-7.77873e-05,0.404043,0.000648793,0.022739,1931,1107,78.786,-2.34782
714,-83,78.8463,2.34253,0,0,0,0,0,0,0,-1,1938,1107,78.8463,-2.34248
721,-83,49.1162,7.36719,0,0,0,0,0,0,0,-1,1945,1107,49.1162,-7.36721
728,-83,66.6315,8.32141,0,0,0,0,0,0,0,-1,1952,1107,66.6314,-8.32147
735,-83,74.571,8.64917,0,0,0,0,0,0,0,-1,1959,1107,74.571,-8.64911
742,-83,74.5023,8.30957,-0.00262232,0.00307447,0.00181428,0.0036032,-0.00315105,1.28722,0.00390248,0.0322607,1966,1107,74.5023,-8.30961
749,-83,74.5959,7.71704,-0.00381736,0.00386017,0.00220577,0.00444877,-0.00440596,1.31003,0.0051123,0.0212033,1973,1107,74.5959,-7.7171
756,-83,74.594,7.17383,-0.00554707,0.00549845,0.00189556,0.0058147,-0.00586332,1.40548,0.00674233,0.0182361,1980,1107,74.594,-7.17382
763,-83,74.5203,6.5719,-0.00753582,0.00814645,0.00111111,0.00822478,-0.00761415,1.50041,0.00914688,0.0140408,1987,1107,74.5202,-6.57189
770,-83,74.3862,6.04504,-0.00979986,0.0112943,-0.000262208,0.0112975,-0.00980312,-1.55837,0.0121926,0.0168231,1994,1107,74.3861,-6.04501
777,-83,74.2222,5.52759,-0.0123591,0.0150326,-0.00251355,0.0152614,-0.0125878,-1.48004,0.0161034,0.0176504,2001,1107,74.2222,-5.52757
784,-83,74.1406,5.00891,-0.015249,0.0193267,-0.00569575,0.0202409,-0.0161631,-1.41166,0.0210617,0.0265308,2008,1107,74.1407,-5.00888
791,-83,74.0718,4.40015,-0.0187919,0.0244765,-0.0103502,0.0268249,-0.0211403,-1.34768,0.0277575,0.0433214,2015,1107,74.0719,-4.40014
798,-83,73.7979,3.75916,-0.0231147,0.0309457,-0.0167966,0.0357393,-0.0279083,-1.29279,0.0368396,0.0468439,2022,1107,73.7979,-3.7592
805,-83,73.6045,2.94214,-0.0279771,0.0394084,-0.0254726,0.0479537,-0.0365224,-1.24712,0.0489209,0.0496873,2029,1107,73.6044,-2.94209
812,-83,73.4373,2.12976,0,0,0,0,0,0,0,-1,2036,1107,73.4374,-2.12981
-700,-90,0,0,0,0,0,0,0,0,0,-1,524,1114,0,0
-693,-90,-57.3488,-0.723389,0,0,0,0,0,0,0,-1,531,1114,-57.3488,0.723358
-686,-90,-57.4579,-0.149658,0.0189933,0.0423891,-0.0260687,0.0592642,0.00211817,-0.996298,0.0388227,0.0464899,538,1114,-57.458,0.149607
-679,-90,-57.5657,0.626953,0.0173136,0.0398747,-0.0172835,0.0492332,0.00795512,-1.07453,0.030518,0.0441344,545,1114,-57.5657,-0.626915
-672,-90,-57.7387,1.16821,0.0150963,0.036644,-0.0106718,0.0410346,0.0107057,-1.18048,0.0245778,0.0424561,552,1114,-57.7387,-1.16826
-665,-90,-57.5776,2.08264,0.0121418,0.0328976,-0.0059472,0.0344809,0.0105585,-1.31061,0.0203999,0.0483501,559,1114,-57.5776,-2.0827
-658,-90,-57.8492,2.922,0.00869187,0.028691,-0.00290056,0.0291032,0.00827968,-1.42964,0.0173152,0.0460996,566,1114,-57.8492,-2.92199
-651,-90,-57.96,3.73413,0.00517105,0.0240627,-0.00122467,0.0241417,0.00509199,-1.50633,0.0146942,0.0396258,573,1114,-57.96,-3.7341
-644,-90,-58.0696,4.48682,0.00184753,0.0191405,-0.000669119,0.0191664,0.00182168,-1.53218,0.0122157,0.0225629,580,1114,-58.0696,-4.48676
-637,-90,-58.16,5.17725,-0.00123122,0.014095,-0.000763069,0.0141329,-0.00126911,-1.52117,0.00987219,0.0170867,587,1114,-58.16,-5.17725
-630,-90,-58.2366,5.80359,-0.00368295,0.00921159,-0.00111556,0.00930739,-0.00377875,-1.48513,0.0077768,0.0134605,594,1114,-58.2366,-5.80359
-623,-90,-58.2908,6.42041,-0.00511064,0.00505691,-0.00232156,0.00556191,-0.00561564,-1.35661,0.00645339,0.0134305,601,1114,-58.2908,-6.42037
-616,-90,-58.3655,7.02332,-0.0052582,0.00251222,-0.00292109,0.00348783,-0.00623382,-1.24845,0.00568694,0.015476,608,1114,-58.3655,-7.02336
-609,-90,-58.3317,7.63086,-0.00452742,0.00137151,-0.00306577,0.00267625,-0.00583217,-1.16843,0.00502372,0.0250254,615,1114,-58.3317,-7.6309
-602,-90,-58.4268,8.20239,-0.00338585,0.000939397,-0.00326792,0.00269548,-0.00514194,-1.0777,0.00459783,0.0247438,622,1114,-58.4268,-8.20239
-595,-90,-58.2759,8.84888,0,0,0,0,0,0,0,-1,629,1114,-58.2759,-8.84883
-588,-90,-57.9158,8.88037,0,0,0,0,0,0,0,-1,636,1114,-57.9158,-8.88038
-581,-90,-62.3773,0.598755,0,0,0,0,0,0,0,-1,643,1114,-62.3773,-0.598759
-574,-90,-62.3707,0.487061,9.24211e-05,-0.000199603,-0.00261073,0.00256121,-0.0026684,-0.757463,0.00301953,0.0383448,650,1114,-62.3707,-0.487014
-567,-90,-62.4489,0.381836,0.00113935,-0.000123389,-0.00236105,0.00295199,-0.00193603,-0.65475,0.00284235,0.0354932,657,1114,-62.4489,-0.381839
-560,-90,-62.4393,0.484253,0.0020332,0.00025871,-0.00197855,0.00331434,-0.00102242,-0.574624,0.00261779,0.03763,664,1114,-62.4393,-0.484242
-553,-90,-62.3525,0.670044,0.0022882,0.000888104,-0.00152212,0.00326354,-8.72354e-05,-0.569863,0.00220535,0.0373576,671,1114,-62.3525,-0.670086
-546,-90,-62.2291,0.591064,0.00227827,0.00159435,-0.000997451,0.00299075,0.000881866,-0.62026,0.00177449,0.0403817,678,1114,-62.229,-0.591038
-539,-90,-62.1996,0.505127,0.00263158,0.00157878,-0.000529604,0.0028519,0.00135847,-0.394216,0.00164716,0.0431045,685,1114,-62.1997,-0.505119
-532,-90,-62.3504,0.575073,0.00300067,0.00142455,-9.82717e-05,0.00300678,0.00141844,-0.06203,0.00173689,0.0402552,692,1114,-62.3504,-0.575098
-525,-90,0,0,0,0,0,0,0,0,0,-1,699,1114,0,0
-518,-90,0,0,0,0,0,0,0,0,0,-1,706,1114,0,0
-511,-90,0,0,0,0,0,0,0,0,0,-1,713,1114,0,0
-504,-90,0,0,0,0,0,0,0,0,0,-1,720,1114,0,0
-497,-90,0,0,0,0,0,0,0,0,0,-1,727,1114,0,0
-490,-90,0,0,0,0,0,0,0,0,0,-1,734,1114,0,0
-483,-90,0,0,0,0,0,0,0,0,0,-1,741,1114,0,0
-476,-90,0,0,0,0,0,0,0,0,0,-1,748,1114,0,0
-469,-90,0,0,0,0,0,0,0,0,0,-1,755,1114,0,0
-462,-90,0,0,0,0,0,0,0,0,0,-1,762,1114,0,0
-455,-90,0,0,0,0,0,0,0,0,0,-1,769,1114,0,0
-448,-90,0,0,0,0,0,0,0,0,0,-1,776,1114,0,0
-441,-90,0,0,0,0,0,0,0,0,0,-1,783,1114,0,0
-434,-90,0,0,0,0,0,0,0,0,0,-1,790,1114,0,0
-427,-90,0,0,0,0,0,0,0,0,0,-1,797,1114,0,0
-420,-90,0,0,0,0,0,0,0,0,0,-1,804,1114,0,0
-413,-90,0,0,0,0,0,0,0,0,0,-1,811,1114,0,0
-406,-90,0,0,0,0,0,0,0,0,0,-1,818,1114,0,0
-399,-90,0,0,0,0,0,0,0,0,0,-1,825,1114,0,0
-392,-90,0,0,0,0,0,0,0,0,0,-1,832,1114,0,0
-385,-90,0,0,0,0,0,0,0,0,0,-1,839,1114,0,0
-378,-90,0,0,0,0,0,0,0,0,0,-1,846,1114,0,0
-371,-90,0,0,0,0,0,0,0,0,0,-1,853,1114,0,0
-364,-90,0,0,0,0,0,0,0,0,0,-1,860,1114,0,0
-357,-90,0,0,0,0,0,0,0,0,0,-1,867,1114,0,0
-350,-90,0,0,0,0,0,0,0,0,0,-1,874,1114,0,0
-343,-90,0,0,0,0,0,0,0,0,0,-1,881,1114,0,0
-336,-90,0,0,0,0,0,0,0,0,0,-1,888,1114,0,0
-329,-90,0,0,0,0,0,0,0,0,0,-1,895,1114,0,0
-322,-90,0,0,0,0,0,0,0,0,0,-1,902,1114,0,0
-315,-90,0,0,0,0,0,0,0,0,0,-1,909,1114,0,0
-308,-90,0,0,0,0,0,0,0,0,0,-1,916,1114,0,0
-301,-90,0,0,0,0,0,0,0,0,0,-1,923,1114,0,0
-294,-90,0,0,0,0,0,0,0,0,0,-1,930,1114,0,0
-287,-90,0,0,0,0,0,0,0,0,0,-1,937,1114,0,0
-280,-90,0,0,0,0,0,0,0,0,0,-1,944,1114,0,0
-273,-90,0,0,0,0,0,0,0,0,0,-1,951,1114,0,0
-266,-90,0,0,0,0,0,0,0,0,0,-1,958,1114,0,0
-259,-90,0,0,0,0,0,0,0,0,0,-1,965,1114,0,0
-252,-90,0,0,0,0,0,0,0,0,0,-1,972,1114,0,0
-245,-90,0,0,0,0,0,0,0,0,0,-1,979,1114,0,0
-238,-90,0,0,0,0,0,0,0,0,0,-1,986,1114,0,0
-231,-90,0,0,0,0,0,0,0,0,0,-1,993,1114,0,0
-224,-90,0,0,0,0,0,0,0,0,0,-1,1000,1114,0,0
-217,-90,0,0,0,0,0,0,0,0,0,-1,1007,1114,0,0
-210,-90,0,0,0,0,0,0,0,0,0,-1,1014,1114,0,0
-203,-90,0,0,0,0,0,0,0,0,0,-1,1021,1114,0,0
-196,-90,0,0,0,0,0,0,0,0,0,-1,1028,1114,0,0
-189,-90,0,0,0,0,0,0,0,0,0,-1,1035,1114,0,0
-182,-90,0,0,0,0,0,0,0,0,0,-1,1042,1114,0,0
-175,-90,0,0,0,0,0,0,0,0,0,-1,1049,1114,0,0
-168,-90,0,0,0,0,0,0,0,0,0,-1,1056,1114,0,0
-161,-90,0,0,0,0,0,0,0,0,0,-1,1063,1114,0,0
-154,-90,0,0,0,0,0,0,0,0,0,-1,1070,1114,0,0
-147,-90,0,0,0,0,0,0,0,0,0,-1,1077,1114,0,0
-140,-90,0,0,0,0,0,0,0,0,0,-1,1084,1114,0,0
-133,-90,0,0,0,0,0,0,0,0,0,-1,1091,1114,0,0
-126,-90,0,0,0,0,0,0,0,0,0,-1,1098,1114,0,0
-119,-90,0,0,0,0,0,0,0,0,0,-1,1105,1114,0,0
-112,-90,0,0,0,0,0,0,0,0,0,-1,1112,1114,0,0
-105,-90,0,0,0,0,0,0,0,0,0,-1,1119,1114,0,0
-98,-90,0,0,0,0,0,0,0,0,0,-1,1126,1114,0,0
-91,-90,0,0,0,0,0,0,0,0,0,-1,1133,1114,0,0
-84,-90,0,0,0,0,0,0,0,0,0,-1,1140,1114,0,0
-77,-90,0,0,0,0,0,0,0,0,0,-1,1147,1114,0,0
-70,-90,0,0,0,0,0,0,0,0,0,-1,1154,1114,0,0
-63,-90,0,0,0,0,0,0,0,0,0,-1,1161,1114,0,0
-56,-90,0,0,0,0,0,0,0,0,0,-1,1168,1114,0,0
-49,-90,0,0,0,0,0,0,0,0,0,-1,1175,1114,0,0
-42,-90,0,0,0,0,0,0,0,0,0,-1,1182,1114,0,0
-35,-90,0,0,0,0,0,0,0,0,0,-1,1189,1114,0,0
-28,-90,0,0,0,0,0,0,0,0,0,-1,1196,1114,0,0
-21,-90,0,0,0,0,0,0,0,0,0,-1,1203,1114,0,0
-14,-90,0,0,0,0,0,0,0,0,0,-1,1210,1114,0,0
-7,-90,0,0,0,0,0,0,0,0,0,-1,1217,1114,0,0
0,-90,0,0,0,0,0,0,0,0,0,-1,1224,1114,0,0
7,-90,0,0,0,0,0,0,0,0,0,-1,1231,1114,0,0
14,-90,0,0,0,0,0,0,0,0,0,-1,1238,1114,0,0
21,-90,0,0,0,0,0,0,0,0,0,-1,1245,1114,0,0
28,-90,0,0,0,0,0,0,0,0,0,-1,1252,1114,0,0
35,-90,0,0,0,0,0,0,0,0,0,-1,1259,1114,0,0
42,-90,0,0,0,0,0,0,0,0,0,-1,1266,1114,0,0
49,-90,0,0,0,0,0,0,0,0,0,-1,1273,1114,0,0
56,-90,0,0,0,0,0,0,0,0,0,-1,1280,1114,0,0
63,-90,0,0,0,0,0,0,0,0,0,-1,1287,1114,0,0
70,-90,0,0,0,0,0,0,0,0,0,-1,1294,1114,0,0
77,-90,0,0,0,0,0,0,0,0,0,-1,1301,1114,0,0
84,-90,0,0,0,0,0,0,0,0,0,-1,1308,1114,0,0
91,-90,0,0,0,0,0,0,0,0,0,-1,1315,1114,0,0
98,-90,0,0,0,0,0,0,0,0,0,-1,1322,1114,0,0
105,-90,0,0,0,0,0,0,0,0,0,-1,1329,1114,0,0
112,-90,0,0,0,0,0,0,0,0,0,-1,1336,1114,0,0
119,-90,0,0,0,0,0,0,0,0,0,-1,1343,1114,0,0
126,-90,0,0,0,0,0,0,0,0,0,-1,1350,1114,0,0
133,-90,0,0,0,0,0,0,0,0,0,-1,1357,1114,0,0
140,-90,0,0,0,0,0,0,0,0,0,-1,1364,1114,0,0
147,-90,0,0,0,0,0,0,0,0,0,-1,1371,1114,0,0
154,-90,0,0,0,0,0,0,0,0,0,-1,1378,1114,0,0
161,-90,0,0,0,0,0,0,0,0,0,-1,1385,1114,0,0
168,-90,0,0,0,0,0,0,0,0,0,-1,1392,1114,0,0
175,-90,0,0,0,0,0,0,0,0,0,-1,1399,1114,0,0
182,-90,0,0,0,0,0,0,0,0,0,-1,1406,1114,0,0
189,-90,0,0,0,0,0,0,0,0,0,-1,1413,1114,0,0
196,-90,0,0,0,0,0,0,0,0,0,-1,1420,1114,0,0
203,-90,0,0,0,0,0,0,0,0,0,-1,1427,1114,0,0
210,-90,0,0,0,0,0,0,0,0,0,-1,1434,1114,0,0
217,-90,0,0,0,0,0,0,0,0,0,-1,1441,1114,0,0
224,-90,0,0,0,0,0,0,0,0,0,-1,1448,1114,0,0
231,-90,0,0,0,0,0,0,0,0,0,-1,1455,1114,0,0
238,-90,0,0,0,0,0,0,0,0,0,-1,1462,1114,0,0
245,-90,0,0,0,0,0,0,0,0,0,-1,1469,1114,0,0
252,-90,0,0,0,0,0,0,0,0,0,-1,1476,1114,0,0
259,-90,0,0,0,0,0,0,0,0,0,-1,1483,1114,0,0
266,-90,0,0,0,0,0,0,0,0,0,-1,1490,1114,0,0
273,-90,0,0,0,0,0,0,0,0,0,-1,1497,1114,0,0
280,-90,0,0,0,0,0,0,0,0,0,-1,1504,1114,0,0
287,-90,0,0,0,0,0,0,0,0,0,-1,1511,1114,0,0
294,-90,0,0,0,0,0,0,0,0,0,-1,1518,1114,0,0
301,-90,0,0,0,0,0,0,0,0,0,-1,1525,1114,0,0
308,-90,0,0,0,0,0,0,0,0,0,-1,1532,1114,0,0
315,-90,0,0,0,0,0,0,0,0,0,-1,1539,1114,0,0
322,-90,0,0,0,0,0,0,0,0,0,-1,1546,1114,0,0
329,-90,0,0,0,0,0,0,0,0,0,-1,1553,1114,0,0
336,-90,0,0,0,0,0,0,0,0,0,-1,1560,1114,0,0
343,-90,0,0,0,0,0,0,0,0,0,-1,1567,1114,0,0
350,-90,0,0,0,0,0,0,0,0,0,-1,1574,1114,0,0
357,-90,0,0,0,0,0,0,0,0,0,-1,1581,1114,0,0
364,-90,0,0,0,0,0,0,0,0,0,-1,1588,1114,0,0
371,-90,0,0,0,0,0,0,0,0,0,-1,1595,1114,0,0
378,-90,0,0,0,0,0,0,0,0,0,-1,1602,1114,0,0
385,-90,0,0,0,0,0,0,0,0,0,-1,1609,1114,0,0
392,-90,0,0,0,0,0,0,0,0,0,-1,1616,1114,0,0
399,-90,0,0,0,0,0,0,0,0,0,-1,1623,1114,0,0
406,-90,0,0,0,0,0,0,0,0,0,-1,1630,1114,0,0
413,-90,0,0,0,0,0,0,0,0,0,-1,1637,1114,0,0
420,-90,0,0,0,0,0,0,0,0,0,-1,1644,1114,0,0
427,-90,0,0,0,0,0,0,0,0,0,-1,1651,1114,0,0
434,-90,0,0,0,0,0,0,0,0,0,-1,1658,1114,0,0
441,-90,0,0,0,0,0,0,0,0,0,-1,1665,1114,0,0
448,-90,0,0,0,0,0,0,0,0,0,-1,1672,1114,0,0
455,-90,0,0,0,0,0,0,0,0,0,-1,1679,1114,0,0
462,-90,0,0,0,0,0,0,0,0,0,-1,1686,1114,0,0
469,-90,0,0,0,0,0,0,0,0,0,-1,1693,1114,0,0
476,-90,0,0,0,0,0,0,0,0,0,-1,1700,1114,0,0
483,-90,0,0,0,0,0,0,0,0,0,-1,1707,1114,0,0
490,-90,0,0,0,0,0,0,0,0,0,-1,1714,1114,0,0
497,-90,0,0,0,0,0,0,0,0,0,-1,1721,1114,0,0
504,-90,0,0,0,0,0,0,0,0,0,-1,1728,1114,0,0
511,-90,0,0,0,0,0,0,0,0,0,-1,1735,1114,0,0
518,-90,0,0,0,0,0,0,0,0,0,-1,1742,1114,0,0
525,-90,0,0,0,0,0,0,0,0,0,-1,1749,1114,0,0
532,-90,0,0,0,0,0,0,0,0,0,-1,1756,1114,0,0
539,-90,0,0,0,0,0,0,0,0,0,-1,1763,1114,0,0
546,-90,0,0,0,0,0,0,0,0,0,-1,1770,1114,0,0
553,-90,0,0,0,0,0,0,0,0,0,-1,1777,1114,0,0
560,-90,0,0,0,0,0,0,0,0,0,-1,1784,1114,0,0
567,-90,0,0,0,0,0,0,0,0,0,-1,1791,1114,0,0
574,-90,0,0,0,0,0,0,0,0,0,-1,1798,1114,0,0
581,-90,0,0,0,0,0,0,0,0,0,-1,1805,1114,0,0
588,-90,0,0,0,0,0,0,0,0,0,-1,1812,1114,0,0
595,-90,0,0,0,0,0,0,0,0,0,-1,1819,1114,0,0
602,-90,0,0,0,0,0,0,0,0,0,-1,1826,1114,0,0
609,-90,0,0,0,0,0,0,0,0,0,-1,1833,1114,0,0
616,-90,0,0,0,0,0,0,0,0,0,-1,1840,1114,0,0
623,-90,0,0,0,0,0,0,0,0,0,-1,1847,1114,0,0
630,-90,0,0,0,0,0,0,0,0,0,-1,1854,1114,0,0
637,-90,0,0,0,0,0,0,0,0,0,-1,1861,1114,0,0
644,-90,78.7169,2.24426,0.00333472,-0.000432824,0.00500193,0.00679585,-0.00389395,0.605308,0.0062471,0.0347084,1868,1114,78.7169,-2.24428
651,-90,78.7686,2.20569,0.0013262,-7.55899e-05,0.00352462,0.00421894,-0.00296832,0.68725,0.00417045,0.040637,1875,1114,78.7686,-2.20568
658,-90,78.8593,2.19739,0.00048797,1.07769e-05,0.00242251,0.00268361,-0.00218486,0.736311,0.00281572,0.0466596,1882,1114,78.8593,-2.19744
665,-90,78.7697,2.36682,0.000209142,0.000114635,0.0015643,0.00172691,-0.00140313,0.770299,0.00181035,0.0453226,1889,1114,78.7697,-2.3668
672,-90,78.6102,2.56226,0.000280892,0.00022054,0.000853269,0.00110452,-0.000603086,0.767723,0.000999954,0.0426547,1896,1114,78.6103,-2.56225
679,-90,78.6675,2.58008,0.000692929,0.000281755,0.000327619,0.000874124,0.00010056,0.505194,0.000552289,0.0398165,1903,1114,78.6675,-2.58008
686,-90,78.821,2.38245,0.00102298,0.000126504,-5.26972e-05,0.00102606,0.000123417,-0.0585143,0.00064684,0.0348778,1910,1114,78.8211,-2.38249
693,-90,78.7704,2.25549,0.00121914,-0.000109312,-4.58393e-05,0.00122072,-0.000110892,-0.0344513,0.00085318,0.0337068,1917,1114,78.7703,-2.25551
700,-90,78.7622,2.30408,0.00142038,-0.000183579,1.29456e-05,0.00142048,-0.000183684,0.00807034,0.00101378,0.0310888,1924,1114,78.7622,-2.30406
707,-90,78.7928,2.29163,0.00122266,-8.48106e-05,0.000191852,0.00125023,-0.000112381,0.142728,0.000873362,0.0223323,1931,1114,78.7928,-2.29167
714,-90,78.8531,2.24084,0,0,0,0,0,0,0,-1,1938,1114,78.8532,-2.24082
721,-90,63.521,8.76965,0,0,0,0,0,0,0,-1,1945,1114,63.521,-8.7697
728,-90,73.6946,9.552,0,0,0,0,0,0,0,-1,1952,1114,73.6946,-9.55204
735,-90,73.6013,8.99402,-0.000712104,0.00185497,0.00132677,0.00241745,-0.00127459,1.16982,0.00216537,0.0414338,1959,1114,73.6013,-8.994
742,-90,73.7445,8.31641,-0.00166309,0.00264436,0.00157484,0.00315872,-0.00217744,1.25511,0.00309815,0.0386205,1966,1114,73.7445,-8.3164
749,-90,74.129,7.55774,-0.00279753,0.00338325,0.00193999,0.00394171,-0.00335598,1.29051,0.00421784,0.0239547,1973,1114,74.129,-7.55777
756,-90,74.04,7.04907,-0.00452739,0.00503805,0.00157877,0.00529189,-0.00478122,1.41138,0.00581821,0.020074,1980,1114,74.04,-7.04901
763,-90,73.9321,6.49475,-0.00649525,0.00782117,0.000595781,0.00784592,-0.00652,1.52928,0.00830594,0.0144643,1987,1114,73.9321,-6.4948
770,-90,73.833,5.91699,-0.00871673,0.0111933,-0.00109365,0.0112532,-0.00877663,-1.51609,0.0115937,0.018405,1994,1114,73.8329,-5.917
777,-90,73.696,5.39417,-0.0112414,0.0153574,-0.00380604,0.0158913,-0.0117753,-1.43143,0.0160322,0.0185791,2001,1114,73.6962,-5.39417
784,-90,73.6013,4.91479,-0.0141356,0.0204452,-0.00769217,0.022079,-0.0157694,-1.3615,0.0219528,0.0307075,2008,1114,73.6012,-4.91475
791,-90,73.4194,4.39172,-0.0177352,0.0269507,-0.0134086,0.0306653,-0.0214498,-1.30054,0.0302451,0.0423195,2015,1114,73.4195,-4.39171
798,-90,73.2568,3.82947,0,0,0,0,0,0,0,-1,2022,1114,73.2569,-3.82942
805,-90,73.0432,2.91675,-0.0273838,0.0471461,-0.0320486,0.0590318,-0.0392695,-1.21566,0.0571353,0.0465176,2029,1114,73.0431,-2.9168
812,-90,72.5681,1.17053,0,0,0,0,0,0,0,-1,2036,1114,72.5682,-1.17049
-700,-97,0,0,0,0,0,0,0,0,0,-1,524,1121,0,0
-693,-97,-56.6501,-0.0557861,0.00943341,0.0399185,-0.0487938,0.0757951,-0.0264432,-0.936789,0.0612768,0.0497688,531,1121,-56.6501,0.055767
-686,-97,-56.6036,0.228271,0.00980821,0.0386469,-0.0356745,0.062706,-0.0142509,-0.977456,0.0472758,0.0481363,538,1121,-56.6037,-0.22831
-679,-97,-56.5624,0.487671,0.00971263,0.0363958,-0.0252282,0.051593,-0.00548449,-1.02862,0.0363616,0.0445714,545,1121,-56.5624,-0.487663
-672,-97,-56.5957,0.758423,0.00885151,0.0334547,-0.0171686,0.0422739,3.22796e-05,-1.09626,0.0281719,0.046853,552,1121,-56.5957,-0.758384
-665,-97,-56.821,1.90955,0,0,0,0,0,0,0,-1,559,1121,-56.821,-1.90957
-658,-97,-57.1099,2.80164,0.00419037,0.0259754,-0.00713882,0.0281063,0.00205945,-1.28072,0.0180902,0.0477386,566,1121,-57.1099,-2.80164
-651,-97,-57.4037,3.78638,0.00129829,0.021637,-0.00451246,0.0225932,0.000342083,-1.36198,0.0149494,0.0392558,573,1121,-57.4037,-3.78636
-644,-97,-57.4767,4.46509,-0.00143994,0.0170839,-0.0030785,0.0175821,-0.00193816,-1.41035,0.012418,0.0167889,580,1121,-57.4767,-4.46505
-637,-97,-57.514,5.15222,-0.00393491,0.0123901,-0.00238961,0.0127327,-0.0042775,-1.4284,0.0102172,0.0159398,587,1121,-57.514,-5.15224
-630,-97,-57.5719,5.77832,-0.00586577,0.00799892,-0.00214942,0.0083245,-0.00619134,-1.42047,0.00841084,0.0114254,594,1121,-57.5719,-5.77838
-623,-97,-57.6384,6.33289,-0.00688296,0.00423726,-0.00293639,0.00496501,-0.00761071,-1.32785,0.00731396,0.0153945,601,1121,-57.6384,-6.33289
-616,-97,-57.7539,7.02722,-0.00676899,0.00223302,-0.00332888,0.00333027,-0.00786624,-1.25239,0.00663878,0.0216987,608,1121,-57.7539,-7.02724
-609,-97,-57.8354,7.70996,-0.00575862,0.00147894,-0.00337564,0.00280895,-0.00708864,-1.19547,0.00588975,0.0302732,615,1121,-57.8354,-7.70998
-602,-97,-57.8763,8.26746,-0.00445036,0.00122275,-0.00353932,0.00292192,-0.00614953,-1.12321,0.00534677,0.0327219,622,1121,-57.8763,-8.26743
-595,-97,-57.6496,8.86914,0,0,0,0,0,0,0,-1,629,1121,-57.6496,-8.86917
-588,-97,-56.8126,8.75085,0,0,0,0,0,0,0,-1,636,1121,-56.8126,-8.75081
-581,-97,-51.2355,3.23926,0,0,0,0,0,0,0,-1,643,1121,-51.2355,-3.23926
-574,-97,-62.3181,0.46106,0,0,0,0,0,0,0,-1,650,1121,-62.3181,-0.461102
-567,-97,-62.4216,0.477173,0.000388768,-0.000160463,-0.00251559,0.00264468,-0.00241638,-0.731031,0.002923,0.0357194,657,1121,-62.4215,-0.477225
-560,-97,-62.4542,0.563354,0.00162334,9.92616e-05,-0.00210954,0.00310426,-0.00138165,-0.612074,0.00265283,0.040647,664,1121,-62.4542,-0.563411
-553,-97,-62.3835,0.611206,0.00206542,0.000665833,-0.00159008,0.00310288,-0.00037163,-0.578103,0.00220294,0.0438939,671,1121,-62.3835,-0.611232
-546,-97,-62.3251,0.611816,0.00198551,0.00138864,-0.000930469,0.00266423,0.000709919,-0.630213,0.00159314,0.0440653,678,1121,-62.3251,-0.611804
-539,-97,-62.1758,0.46167,0.00217809,0.00141752,-0.000229014,0.00224172,0.00135389,-0.271025,0.00130355,0.0421742,685,1121,-62.1758,-0.461668
-532,-97,-62.2079,0.5448,0.00242355,0.00126181,0.000406589,0.00255171,0.00113365,0.305351,0.00147628,0.0385901,692,1121,-62.208,-0.544858
-525,-97,0,0,0,0,0,0,0,0,0,-1,699,1121,0,0
-518,-97,0,0,0,0,0,0,0,0,0,-1,706,1121,0,0
-511,-97,0,0,0,0,0,0,0,0,0,-1,713,1121,0,0
-504,-97,0,0,0,0,0,0,0,0,0,-1,720,1121,0,0
-497,-97,0,0,0,0,0,0,0,0,0,-1,727,1121,0,0
-490,-97,0,0,0,0,0,0,0,0,0,-1,734,1121,0,0
-483,-97,0,0,0,0,0,0,0,0,0,-1,741,1121,0,0
-476,-97,0,0,0,0,0,0,0,0,0,-1,748,1121,0,0
-469,-97,0,0,0,0,0,0,0,0,0,-1,755,1121,0,0
-462,-97,0,0,0,0,0,0,0,0,0,-1,762,1121,0,0
-455,-97,0,0,0,0,0,0,0,0,0,-1,769,1121,0,0
-448,-97,0,0,0,0,0,0,0,0,0,-1,776,1121,0,0
-441,-97,0,0,0,0,0,0,0,0,0,-1,783,1121,0,0
-434,-97,0,0,0,0,0,0,0,0,0,-1,790,1121,0,0
-427,-97,0,0,0,0,0,0,0,0,0,-1,797,1121,0,0
-420,-97,0,0,0,0,0,0,0,0,0,-1,804,1121,0,0
-413,-97,0,0,0,0,0,0,0,0,0,-1,811,1121,0,0
-406,-97,0,0,0,0,0,0,0,0,0,-1,818,1121,0,0
-399,-97,0,0,0,0,0,0,0,0,0,-1,825,1121,0,0
-392,-97,0,0,0,0,0,0,0,0,0,-1,832,1121,0,0
-385,-97,0,0,0,0,0,0,0,0,0,-1,839,1121,0,0
-378,-97,0,0,0,0,0,0,0,0,0,-1,846,1121,0,0
-371,-97,0,0,0,0,0,0,0,0,0,-1,853,1121,0,0
-364,-97,0,0,0,0,0,0,0,0,0,-1,860,1121,0,0
-357,-97,0,0,0,0,0,0,0,0,0,-1,867,1121,0,0
-350,-97,0,0,0,0,0,0,0,0,0,-1,874,1121,0,0
-343,-97,0,0,0,0,0,0,0,0,0,-1,881,1121,0,0
-336,-97,0,0,0,0,0,0,0,0,0,-1,888,1121,0,0
-329,-97,0,0,0,0,0,0,0,0,0,-1,895,1121,0,0
-322,-97,0,0,0,0,0,0,0,0,0,-1,902,1121,0,0
-315,-97,0,0,0,0,0,0,0,0,0,-1,909,1121,0,0
-308,-97,0,0,0,0,0,0,0,0,0,-1,916,1121,0,0
-301,-97,0,0,0,0,0,0,0,0,0,-1,923,1121,0,0
-294,-97,0,0,0,0,0,0,0,0,0,-1,930,1121,0,0
-287,-97,0,0,0,0,0,0,0,0,0,-1,937,1121,0,0
-280,-97,0,0,0,0,0,0,0,0,0,-1,944,1121,0,0
-273,-97,0,0,0,0,0,0,0,0,0,-1,951,1121,0,0
-266,-97,0,0,0,0,0,0,0,0,0,-1,958,1121,0,0
-259,-97,0,0,0,0,0,0,0,0,0,-1,965,1121,0,0
-252,-97,0,0,0,0,0,0,0,0,0,-1,972,1121,0,0
-245,-97,0,0,0,0,0,0,0,0,0,-1,979,1121,0,0
-238,-97,0,0,0,0,0,0,0,0,0,-1,986,1121,0,0
-231,-97,0,0,0,0,0,0,0,0,0,-1,993,1121,0,0
-224,-97,0,0,0,0,0,0,0,0,0,-1,1000,1121,0,0
-217,-97,0,0,0,0,0,0,0,0,0,-1,1007,1121,0,0
-210,-97,0,0,0,0,0,0,0,0,0,-1,1014,1121,0,0
-203,-97,0,0,0,0,0,0,0,0,0,-1,1021,1121,0,0
-196,-97,0,0,0,0,0,0,0,0,0,-1,1028,1121,0,0
-189,-97,0,0,0,0,0,0,0,0,0,-1,1035,1121,0,0
-182,-97,0,0,0,0,0,0,0,0,0,-1,1042,1121,0,0
-175,-97,0,0,0,0,0,0,0,0,0,-1,1049,1121,0,0
-168,-97,0,0,0,0,0,0,0,0,0,-1,1056,1121,0,0
-161,-97,0,0,0,0,0,0,0,0,0,-1,1063,1121,0,0
-154,-97,0,0,0,0,0,0,0,0,0,-1,1070,1121,0,0
-147,-97,0,0,0,0,0,0,0,0,0,-1,1077,1121,0,0
-140,-97,0,0,0,0,0,0,0,0,0,-1,1084,1121,0,0
-133,-97,0,0,0,0,0,0,0,0,0,-1,1091,1121,0,0
-126,-97,0,0,0,0,0,0,0,0,0,-1,1098,1121,0,0
-119,-97,0,0,0,0,0,0,0,0,0,-1,1105,1121,0,0
-112,-97,0,0,0,0,0,0,0,0,0,-1,1112,1121,0,0
-105,-97,0,0,0,0,0,0,0,0,0,-1,1119,1121,0,0
-98,-97,0,0,0,0,0,0,0,0,0,-1,1126,1121,0,0
-91,-97,0,0,0,0,0,0,0,0,0,-1,1133,1121,0,0
-84,-97,0,0,0,0,0,0,0,0,0,-1,1140,1121,0,0
-77,-97,0,0,0,0,0,0,0,0,0,-1,1147,1121,0,0
-70,-97,0,0,0,0,0,0,0,0,0,-1,1154,1121,0,0
-63,-97,0,0,0,0,0,0,0,0,0,-1,1161,1121,0,0
-56,-97,0,0,0,0,0,0,0,0,0,-1,1168,1121,0,0
-49,-97,0,0,0,0,0,0,0,0,0,-1,1175,1121,0,0
-42,-97,0,0,0,0,0,0,0,0,0,-1,1182,1121,0,0
-35,-97,0,0,0,0,0,0,0,0,0,-1,1189,1121,0,0
-28,-97,0,0,0,0,0,0,0,0,0,-1,1196,1121,0,0
-21,-97,0,0,0,0,0,0,0,0,0,-1,1203,1121,0,0
-14,-97,0,0,0,0,0,0,0,0,0,-1,1210,1121,0,0
-7,-97,0,0,0,0,0,0,0,0,0,-1,1217,1121,0,0
0,-97,0,0,0,0,0,0,0,0,0,-1,1224,1121,0,0
7,-97,0,0,0,0,0,0,0,0,0,-1,1231,1121,0,0
14,-97,0,0,0,0,0,0,0,0,0,-1,1238,1121,0,0
21,-97,0,0,0,0,0,0,0,0,0,-1,1245,1121,0,0
28,-97,0,0,0,0,0,0,0,0,0,-1,1252,1121,0,0
35,-97,0,0,0,0,0,0,0,0,0,-1,1259,1121,0,0
42,-97,0,0,0,0,0,0,0,0,0,-1,1266,1121,0,0
49,-97,0,0,0,0,0,0,0,0,0,-1,1273,1121,0,0
56,-97,0,0,0,0,0,0,0,0,0,-1,1280,1121,0,0
63,-97,0,0,0,0,0,0,0,0,0,-1,1287,1121,0,0
70,-97,0,0,0,0,0,0,0,0,0,-1,1294,1121,0,0
77,-97,0,0,0,0,0,0,0,0,0,-1,1301,1121,0,0
84,-97,0,0,0,0,0,0,0,0,0,-1,1308,1121,0,0
91,-97,0,0,0,0,0,0,0,0,0,-1,1315,1121,0,0
98,-97,0,0,0,0,0,0,0,0,0,-1,1322,1121,0,0
105,-97,0,0,0,0,0,0,0,0,0,-1,1329,1121,0,0
112,-97,0,0,0,0,0,0,0,0,0,-1,1336,1121,0,0
119,-97,0,0,0,0,0,0,0,0,0,-1,1343,1121,0,0
126,-97,0,0,0,0,0,0,0,0,0,-1,1350,1121,0,0
133,-97,0,0,0,0,0,0,0,0,0,-1,1357,1121,0,0
140,-97,0,0,0,0,0,0,0,0,0,-1,1364,1121,0,0
147,-97,0,0,0,0,0,0,0,0,0,-1,1371,1121,0,0
154,-97,0,0,0,0,0,0,0,0,0,-1,1378,1121,0,0
161,-97,0,0,0,0,0,0,0,0,0,-1,1385,1121,0,0
168,-97,0,0,0,0,0,0,0,0,0,-1,1392,1121,0,0
175,-97,0,0,0,0,0,0,0,0,0,-1,1399,1121,0,0
182,-97,0,0,0,0,0,0,0,0,0,-1,1406,1121,0,0
189,-97,0,0,0,0,0,0,0,0,0,-1,1413,1121,0,0
196,-97,0,0,0,0,0,0,0,0,0,-1,1420,1121,0,0
203,-97,0,0,0,0,0,0,0,0,0,-1,1427,1121,0,0
210,-97,0,0,0,0,0,0,0,0,0,-1,1434,1121,0,0
217,-97,0,0,0,0,0,0,0,0,0,-1,1441,1121,0,0
224,-97,0,0,0,0,0,0,0,0,0,-1,1448,1121,0,0
231,-97,0,0,0,0,0,0,0,0,0,-1,1455,1121,0,0
238,-97,0,0,0,0,0,0,0,0,0,-1,1462,1121,0,0
245,-97,0,0,0,0,0,0,0,0,0,-1,1469,1121,0,0
252,-97,0,0,0,0,0,0,0,0,0,-1,1476,1121,0,0
259,-97,0,0,0,0,0,0,0,0,0,-1,1483,1121,0,0
266,-97,0,0,0,0,0,0,0,0,0,-1,1490,1121,0,0
273,-97,0,0,0,0,0,0,0,0,0,-1,1497,1121,0,0
280,-97,0,0,0,0,0,0,0,0,0,-1,1504,1121,0,0
287,-97,0,0,0,0,0,0,0,0,0,-1,1511,1121,0,0
294,-97,0,0,0,0,0,0,0,0,0,-1,1518,1121,0,0
301,-97,0,0,0,0,0,0,0,0,0,-1,1525,1121,0,0
308,-97,0,0,0,0,0,0,0,0,0,-1,1532,1121,0,0
315,-97,0,0,0,0,0,0,0,0,0,-1,1539,1121,0,0
322,-97,0,0,0,0,0,0,0,0,0,-1,1546,1121,0,0
329,-97,0,0,0,0,0,0,0,0,0,-1,1553,1121,0,0
336,-97,0,0,0,0,0,0,0,0,0,-1,1560,1121,0,0
343,-97,0,0,0,0,0,0,0,0,0,-1,1567,1121,0,0
350,-97,0,0,0,0,0,0,0,0,0,-1,1574,1121,0,0
357,-97,0,0,0,0,0,0,0,0,0,-1,1581,1121,0,0
364,-97,0,0,0,0,0,0,0,0,0,-1,1588,1121,0,0
371,-97,0,0,0,0,0,0,0,0,0,-1,1595,1121,0,0
378,-97,0,0,0,0,0,0,0,0,0,-1,1602,1121,0,0
385,-97,0,0,0,0,0,0,0,0,0,-1,1609,1121,0,0
392,-97,0,0,0,0,0,0,0,0,0,-1,1616,1121,0,0
399,-97,0,0,0,0,0,0,0,0,0,-1,1623,1121,0,0
406,-97,0,0,0,0,0,0,0,0,0,-1,1630,1121,0,0
413,-97,0,0,0,0,0,0,0,0,0,-1,1637,1121,0,0
420,-97,0,0,0,0,0,0,0,0,0,-1,1644,1121,0,0
427,-97,0,0,0,0,0,0,0,0,0,-1,1651,1121,0,0
434,-97,0,0,0,0,0,0,0,0,0,-1,1658,1121,0,0
441,-97,0,0,0,0,0,0,0,0,0,-1,1665,1121,0,0
448,-97,0,0,0,0,0,0,0,0,0,-1,1672,1121,0,0
455,-97,0,0,0,0,0,0,0,0,0,-1,1679,1121,0,0
462,-97,0,0,0,0,0,0,0,0,0,-1,1686,1121,0,0
469,-97,0,0,0,0,0,0,0,0,0,-1,1693,1121,0,0
476,-97,0,0,0,0,0,0,0,0,0,-1,1700,1121,0,0
483,-97,0,0,0,0,0,0,0,0,0,-1,1707,1121,0,0
490,-97,0,0,0,0,0,0,0,0,0,-1,1714,1121,0,0
497,-97,0,0,0,0,0,0,0,0,0,-1,1721,1121,0,0
504,-97,0,0,0,0,0,0,0,0,0,-1,1728,1121,0,0
511,-97,0,0,0,0,0,0,0,0,0,-1,1735,1121,0,0
518,-97,0,0,0,0,0,0,0,0,0,-1,1742,1121,0,0
525,-97,0,0,0,0,0,0,0,0,0,-1,1749,1121,0,0
532,-97,0,0,0,0,0,0,0,0,0,-1,1756,1121,0,0
539,-97,0,0,0,0,0,0,0,0,0,-1,1763,1121,0,0
546,-97,0,0,0,0,0,0,0,0,0,-1,1770,1121,0,0
553,-97,0,0,0,0,0,0,0,0,0,-1,1777,1121,0,0
560,-97,0,0,0,0,0,0,0,0,0,-1,1784,1121,0,0
567,-97,0,0,0,0,0,0,0,0,0,-1,1791,1121,0,0
574,-97,0,0,0,0,0,0,0,0,0,-1,1798,1121,0,0
581,-97,0,0,0,0,0,0,0,0,0,-1,1805,1121,0,0
588,-97,0,0,0,0,0,0,0,0,0,-1,1812,1121,0,0
595,-97,0,0,0,0,0,0,0,0,0,-1,1819,1121,0,0
602,-97,0,0,0,0,0,0,0,0,0,-1,1826,1121,0,0
609,-97,0,0,0,0,0,0,0,0,0,-1,1833,1121,0,0
616,-97,0,0,0,0,0,0,0,0,0,-1,1840,1121,0,0
623,-97,0,0,0,0,0,0,0,0,0,-1,1847,1121,0,0
630,-97,0,0,0,0,0,0,0,0,0,-1,1854,1121,0,0
637,-97,0,0,0,0,0,0,0,0,0,-1,1861,1121,0,0
644,-97,78.7451,2.53491,0.0037018,-0.000131415,0.00494963,0.00709294,-0.00352256,0.600677,0.00624334,0.0386637,1868,1121,78.7452,-2.53496
651,-97,78.761,2.4729,0.00174502,0.000240069,0.003494,0.00456665,-0.00258156,0.679337,0.00417973,0.0407254,1875,1121,78.7609,-2.47289
658,-97,78.817,2.36865,0.000926119,0.000291835,0.00238883,0.00301877,-0.00180082,0.719404,0.00281205,0.0417762,1882,1121,78.817,-2.36863
665,-97,78.7618,2.198,0.000622297,0.000338711,0.00150052,0.00198771,-0.0010267,0.73829,0.00176961,0.0441892,1889,1121,78.7618,-2.19798
672,-97,78.6289,2.32227,0.0006686,0.000362173,0.00075132,0.00128217,-0.000251397,0.684814,0.000949735,0.0447363,1896,1121,78.629,-2.32229
679,-97,78.5652,2.48132,0.00108026,0.00029985,0.000220356,0.00113818,0.00024193,0.257036,0.000692381,0.043618,1903,1121,78.5652,-2.48131
686,-97,78.6572,2.48804,0.0014639,0.000110537,-0.000163719,0.00148342,9.10136e-05,-0.118691,0.00096005,0.0372222,1910,1121,78.6573,-2.48805
693,-97,78.7039,2.28162,0.00166738,-0.000115132,-0.000170152,0.00168347,-0.000131228,-0.0943216,0.00116852,0.0327454,1917,1121,78.7039,-2.28166
700,-97,78.7283,2.26575,0.00186468,-0.000211727,-0.000116321,0.00187118,-0.000218223,-0.0557873,0.00132619,0.0268753,1924,1121,78.7282,-2.26578
707,-97,78.7847,2.25122,0.00170816,-0.000127847,5.46012e-05,0.00170979,-0.00012947,0.029704,0.00118537,0.0272135,1931,1121,78.7847,-2.25119
714,-97,78.8507,2.21472,0,0,0,0,0,0,0,-1,1938,1121,78.8507,-2.21474
721,-97,73.2542,9.88635,0,0,0,0,0,0,0,-1,1945,1121,73.2542,-9.88641
728,-97,73.3453,9.62964,0.00064192,0.00106883,0.000903418,0.00178366,-7.29191e-05,0.901407,0.00121415,0.0462608,1952,1121,73.3454,-9.62968
735,-97,73.3563,8.85913,8.08535e-05,0.00158632,0.00123024,0.00227585,-0.00060867,1.05994,0.00175565,0.0321407,1959,1121,73.3563,-8.85913
742,-97,73.2784,8.26611,-0.000758753,0.00231456,0.00150058,0.00292571,-0.0013699,1.18404,0.00253371,0.027657,1966,1121,73.2784,-8.26615
749,-97,73.4039,7.62366,-0.0018512,0.00301926,0.00186621,0.00365211,-0.00248405,1.24386,0.00356404,0.0269059,1973,1121,73.4039,-7.62368
756,-97,73.3679,7.05542,-0.00357523,0.00471128,0.00150824,0.00497726,-0.00384121,1.39624,0.00510541,0.0190357,1980,1121,73.3679,-7.05539
763,-97,73.2415,6.5,-0.00550196,0.0076847,0.000396025,0.00769658,-0.00551385,1.5408,0.00766167,0.0150909,1987,1121,73.2414,-6.49995
770,-97,73.1582,5.9397,-0.00763637,0.0113445,-0.00147913,0.011459,-0.00775094,-1.49349,0.0111595,0.0147593,1994,1121,73.1582,-5.93974
777,-97,73.0911,5.34424,-0.010058,0.0160076,-0.00447855,0.0167557,-0.010806,-1.4053,0.0160359,0.020737,2001,1121,73.091,-5.34426
784,-97,73.0161,4.71167,-0.0128675,0.0219783,-0.00887582,0.0241088,-0.0149981,-1.33521,0.0227817,0.0407089,2008,1121,73.016,-4.71167
791,-97,72.9434,4.09619,-0.0164021,0.0299496,-0.0154245,0.0346132,-0.0210657,-1.27718,0.0324619,0.042412,2015,1121,72.9434,-4.09625
798,-97,73.0264,3.42102,0,0,0,0,0,0,0,-1,2022,1121,73.0264,-3.42098
805,-97,73.3184,2.7229,0,0,0,0,0,0,0,-1,2029,1121,73.3185,-2.72287
812,-97,72.1946,1.46716,0,0,0,0,0,0,0,-1,2036,1121,72.1947,-1.46711
-700,-104,0,0,0,0,0,0,0,0,0,-1,524,1128,0,0
-693,-104,-55.5963,-0.201294,0,0,0,0,0,0,0,-1,531,1128,-55.5963,0.201259
-686,-104,-55.4955,0.178711,0,0,0,0,0,0,0,-1,538,1128,-55.4954,-0.17866
-679,-104,-55.4146,0.390625,0,0,0,0,0,0,0,-1,545,1128,-55.4146,-0.39065
-672,-104,-55.3352,0.557251,0,0,0,0,0,0,0,-1,552,1128,-55.3352,-0.5573
-665,-104,-56.4497,3.03625,0,0,0,0,0,0,0,-1,559,1128,-56.4497,-3.03631
-658,-104,-56.6886,3.02515,0,0,0,0,0,0,0,-1,566,1128,-56.6886,-3.02515
-651,-104,-56.7085,3.68665,-0.00190565,0.0192128,-0.007124,0.0213913,-0.00408411,-1.27403,0.0157992,0.0481384,573,1128,-56.7085,-3.68659
-644,-104,-56.7618,4.44092,-0.00420146,0.015021,-0.00501725,0.0162517,-0.00543221,-1.33024,0.0130283,0.0179562,580,1128,-56.7618,-4.44093
-637,-104,-56.8148,5.11548,-0.00619753,0.0107318,-0.00365946,0.0114889,-0.0069547,-1.36677,0.0107552,0.013703,587,1128,-56.8148,-5.11553
-630,-104,-56.8389,5.67871,-0.00764182,0.00691921,-0.00291574,0.00748137,-0.00820398,-1.38033,0.00905914,0.0192111,594,1128,-56.8388,-5.6787
-623,-104,-56.9767,6.34119,-0.0082664,0.0036278,-0.00332785,0.00449558,-0.00913418,-1.31571,0.00801962,0.0223101,601,1128,-56.9767,-6.34121
-616,-104,-57.3628,7.10681,-0.00796849,0.00213194,-0.00361022,0.00328965,-0.0091262,-1.26048,0.00742761,0.0323901,608,1128,-57.3628,-7.10679
-609,-104,-57.4954,7.66052,-0.00675667,0.00159967,-0.00364162,0.00296393,-0.00812093,-1.21235,0.00662669,0.0429301,615,1128,-57.4954,-7.66057
-602,-104,-57.3693,8.27014,0,0,0,0,0,0,0,-1,622,1128,-57.3693,-8.27018
-595,-104,-55.662,8.37207,0,0,0,0,0,0,0,-1,629,1128,-55.662,-8.37205
-588,-104,-55.9136,9.13232,0,0,0,0,0,0,0,-1,636,1128,-55.9136,-9.13236
-581,-104,-23.9373,2.85864,0,0,0,0,0,0,0,-1,643,1128,-23.9373,-2.85861
-574,-104,-62.345,0.72937,0,0,0,0,0,0,0,-1,650,1128,-62.345,-0.729333
-567,-104,-62.3839,0.704834,-0.000538678,-0.000149895,-0.00284846,0.0025108,-0.00319937,-0.819468,0.00330475,0.0366122,657,1128,-62.3838,-0.704817
-560,-104,-62.4222,0.602661,0.00104163,-3.51804e-05,-0.00243894,0.00300089,-0.00199444,-0.676764,0.0029035,0.0431006,664,1128,-62.4222,-0.602682
-553,-104,-62.4131,0.428223,0.00175371,0.000373297,-0.00185152,0.00303948,-0.000912478,-0.606988,0.00238929,0.0486656,671,1128,-62.4132,-0.428279
-546,-104,-62.3763,0.417847,0.00168367,0.00100461,-0.00107609,0.00247253,0.000215759,-0.63258,0.00158134,0.0453507,678,1128,-62.3764,-0.41781
-539,-104,-62.3156,0.399902,0.00180397,0.00102614,-0.000194679,0.00184997,0.000980131,-0.232051,0.00106872,0.0392905,685,1128,-62.3156,-0.399896
-532,-104,-62.243,0.406006,0.00201592,0.000851836,0.000605778,0.00227396,0.000593795,0.40269,0.0013619,0.041334,692,1128,-62.243,-0.40596
-525,-104,-62.2632,0.470703,0.00230131,0.000596837,0.00130887,0.00301095,-0.000112801,0.496816,0.00204594,0.0399037,699,1128,-62.2632,-0.470683
-518,-104,0,0,0,0,0,0,0,0,0,-1,706,1128,0,0
-511,-104,0,0,0,0,0,0,0,0,0,-1,713,1128,0,0
-504,-104,0,0,0,0,0,0,0,0,0,-1,720,1128,0,0
-497,-104,0,0,0,0,0,0,0,0,0,-1,727,1128,0,0
-490,-104,0,0,0,0,0,0,0,0,0,-1,734,1128,0,0
-483,-104,0,0,0,0,0,0,0,0,0,-1,741,1128,0,0
-476,-104,0,0,0,0,0,0,0,0,0,-1,748,1128,0,0
-469,-104,0,0,0,0,0,0,0,0,0,-1,755,1128,0,0
-462,-104,0,0,0,0,0,0,0,0,0,-1,762,1128,0,0
-455,-104,0,0,0,0,0,0,0,0,0,-1,769,1128,0,0
-448,-104,0,0,0,0,0,0,0,0,0,-1,776,1128,0,0
-441,-104,0,0,0,0,0,0,0,0,0,-1,783,1128,0,0
-434,-104,0,0,0,0,0,0,0,0,0,-1,790,1128,0,0
-427,-104,0,0,0,0,0,0,0,0,0,-1,797,1128,0,0
-420,-104,0,0,0,0,0,0,0,0,0,-1,804,1128,0,0
-413,-104,0,0,0,0,0,0,0,0,0,-1,811,1128,0,0
-406,-104,0,0,0,0,0,0,0,0,0,-1,818,1128,0,0
-399,-104,0,0,0,0,0,0,0,0,0,-1,825,1128,0,0
-392,-104,0,0,0,0,0,0,0,0,0,-1,832,1128,0,0
-385,-104,0,0,0,0,0,0,0,0,0,-1,839,1128,0,0
-378,-104,0,0,0,0,0,0,0,0,0,-1,846,1128,0,0
-371,-104,0,0,0,0,0,0,0,0,0,-1,853,1128,0,0
-364,-104,0,0,0,0,0,0,0,0,0,-1,860,1128,0,0
-357,-104,0,0,0,0,0,0,0,0,0,-1,867,1128,0,0
-350,-104,0,0,0,0,0,0,0,0,0,-1,874,1128,0,0
-343,-104,0,0,0,0,0,0,0,0,0,-1,881,1128,0,0
-336,-104,0,0,0,0,0,0,0,0,0,-1,888,1128,0,0
-329,-104,0,0,0,0,0,0,0,0,0,-1,895,1128,0,0
-322,-104,0,0,0,0,0,0,0,0,0,-1,902,1128,0,0
-315,-104,0,0,0,0,0,0,0,0,0,-1,909,1128,0,0
-308,-104,0,0,0,0,0,0,0,0,0,-1,916,1128,0,0
-301,-104,0,0,0,0,0,0,0,0,0,-1,923,1128,0,0
-294,-104,0,0,0,0,0,0,0,0,0,-1,930,1128,0,0
-287,-104,0,0,0,0,0,0,0,0,0,-1,937,1128,0,0
-280,-104,0,0,0,0,0,0,0,0,0,-1,944,1128,0,0
-273,-104,0,0,0,0,0,0,0,0,0,-1,951,1128,0,0
-266,-104,0,0,0,0,0,0,0,0,0,-1,958,1128,0,0
-259,-104,0,0,0,0,0,0,0,0,0,-1,965,1128,0,0
-252,-104,0,0,0,0,0,0,0,0,0,-1,972,1128,0,0
-245,-104,0,0,0,0,0,0,0,0,0,-1,979,1128,0,0
-238,-104,0,0,0,0,0,0,0,0,0,-1,986,1128,0,0
-231,-104,0,0,0,0,0,0,0,0,0,-1,993,1128,0,0
-224,-104,0,0,0,0,0,0,0,0,0,-1,1000,1128,0,0
-217,-104,0,0,0,0,0,0,0,0,0,-1,1007,1128,0,0
-210,-104,0,0,0,0,0,0,0,0,0,-1,1014,1128,0,0
-203,-104,0,0,0,0,0,0,0,0,0,-1,1021,1128,0,0
-196,-104,0,0,0,0,0,0,0,0,0,-1,1028,1128,0,0
-189,-104,0,0,0,0,0,0,0,0,0,-1,1035,1128,0,0
-182,-104,0,0,0,0,0,0,0,0,0,-1,1042,1128,0,0
-175,-104,0,0,0,0,0,0,0,0,0,-1,1049,1128,0,0
-168,-104,0,0,0,0,0,0,0,0,0,-1,1056,1128,0,0
-161,-104,0,0,0,0,0,0,0,0,0,-1,1063,1128,0,0
-154,-104,0,0,0,0,0,0,0,0,0,-1,1070,1128,0,0
-147,-104,0,0,0,0,0,0,0,0,0,-1,1077,1128,0,0
-140,-104,0,0,0,0,0,0,0,0,0,-1,1084,1128,0,0
-133,-104,0,0,0,0,0,0,0,0,0,-1,1091,1128,0,0
-126,-104,0,0,0,0,0,0,0,0,0,-1,1098,1128,0,0
-119,-104,0,0,0,0,0,0,0,0,0,-1,1105,1128,0,0
-112,-104,0,0,0,0,0,0,0,0,0,-1,1112,1128,0,0
-105,-104,0,0,0,0,0,0,0,0,0,-1,1119,1128,0,0
-98,-104,0,0,0,0,0,0,0,0,0,-1,1126,1128,0,0
-91,-104,0,0,0,0,0,0,0,0,0,-1,1133,1128,0,0
-84,-104,0,0,0,0,0,0,0,0,0,-1,1140,1128,0,0
-77,-104,0,0,0,0,0,0,0,0,0,-1,1147,1128,0,0
-70,-104,0,0,0,0,0,0,0,0,0,-1,1154,1128,0,0
-63,-104,0,0,0,0,0,0,0,0,0,-1,1161,1128,0,0
-56,-104,0,0,0,0,0,0,0,0,0,-1,1168,1128,0,0
-49,-104,0,0,0,0,0,0,0,0,0,-1,1175,1128,0,0
-42,-104,0,0,0,0,0,0,0,0,0,-1,1182,1128,0,0
-35,-104,0,0,0,0,0,0,0,0,0,-1,1189,1128,0,0
-28,-104,0,0,0,0,0,0,0,0,0,-1,1196,1128,0,0
-21,-104,0,0,0,0,0,0,0,0,0,-1,1203,1128,0,0
-14,-104,0,0,0,0,0,0,0,0,0,-1,1210,1128,0,0
-7,-104,0,0,0,0,0,0,0,0,0,-1,1217,1128,0,0
0,-104,0,0,0,0,0,0,0,0,0,-1,1224,1128,0,0
7,-104,0,0,0,0,0,0,0,0,0,-1,1231,1128,0,0
14,-104,0,0,0,0,0,0,0,0,0,-1,1238,1128,0,0
21,-104,0,0,0,0,0,0,0,0,0,-1,1245,1128,0,0
28,-104,0,0,0,0,0,0,0,0,0,-1,1252,1128,0,0
35,-104,0,0,0,0,0,0,0,0,0,-1,1259,1128,0,0
42,-104,0,0,0,0,0,0,0,0,0,-1,1266,1128,0,0
49,-104,0,0,0,0,0,0,0,0,0,-1,1273,1128,0,0
56,-104,0,0,0,0,0,0,0,0,0,-1,1280,1128,0,0
63,-104,0,0,0,0,0,0,0,0,0,-1,1287,1128,0,0
70,-104,0,0,0,0,0,0,0,0,0,-1,1294,1128,0,0
77,-104,0,0,0,0,0,0,0,0,0,-1,1301,1128,0,0
84,-104,0,0,0,0,0,0,0,0,0,-1,1308,1128,0,0
91,-104,0,0,0,0,0,0,0,0,0,-1,1315,1128,0,0
98,-104,0,0,0,0,0,0,0,0,0,-1,1322,1128,0,0
105,-104,0,0,0,0,0,0,0,0,0,-1,1329,1128,0,0
112,-104,0,0,0,0,0,0,0,0,0,-1,1336,1128,0,0
119,-104,0,0,0,0,0,0,0,0,0,-1,1343,1128,0,0
126,-104,0,0,0,0,0,0,0,0,0,-1,1350,1128,0,0
133,-104,0,0,0,0,0,0,0,0,0,-1,1357,1128,0,0
140,-104,0,0,0,0,0,0,0,0,0,-1,1364,1128,0,0
147,-104,0,0,0,0,0,0,0,0,0,-1,1371,1128,0,0
154,-104,0,0,0,0,0,0,0,0,0,-1,1378,1128,0,0
161,-104,0,0,0,0,0,0,0,0,0,-1,1385,1128,0,0
168,-104,0,0,0,0,0,0,0,0,0,-1,1392,1128,0,0
175,-104,0,0,0,0,0,0,0,0,0,-1,1399,1128,0,0
182,-104,0,0,0,0,0,0,0,0,0,-1,1406,1128,0,0
189,-104,0,0,0,0,0,0,0,0,0,-1,1413,1128,0,0
196,-104,0,0,0,0,0,0,0,0,0,-1,1420,1128,0,0
203,-104,0,0,0,0,0,0,0,0,0,-1,1427,1128,0,0
210,-104,0,0,0,0,0,0,0,0,0,-1,1434,1128,0,0
217,-104,0,0,0,0,0,0,0,0,0,-1,1441,1128,0,0
224,-104,0,0,0,0,0,0,0,0,0,-1,1448,1128,0,0
231,-104,0,0,0,0,0,0,0,0,0,-1,1455,1128,0,0
238,-104,0,0,0,0,0,0,0,0,0,-1,1462,1128,0,0
245,-104,0,0,0,0,0,0,0,0,0,-1,1469,1128,0,0
252,-104,0,0,0,0,0,0,0,0,0,-1,1476,1128,0,0
259,-104,0,0,0,0,0,0,0,0,0,-1,1483,1128,0,0
266,-104,0,0,0,0,0,0,0,0,0,-1,1490,1128,0,0
273,-104,0,0,0,0,0,0,0,0,0,-1,1497,1128,0,0
280,-104,0,0,0,0,0,0,0,0,0,-1,1504,1128,0,0
287,-104,0,0,0,0,0,0,0,0,0,-1,1511,1128,0,0
294,-104,0,0,0,0,0,0,0,0,0,-1,1518,1128,0,0
301,-104,0,0,0,0,0,0,0,0,0,-1,1525,1128,0,0
308,-104,0,0,0,0,0,0,0,0,0,-1,1532,1128,0,0
315,-104,0,0,0,0,0,0,0,0,0,-1,1539,1128,0,0
322,-104,0,0,0,0,0,0,0,0,0,-1,1546,1128,0,0
329,-104,0,0,0,0,0,0,0,0,0,-1,1553,1128,0,0
336,-104,0,0,0,0,0,0,0,0,0,-1,1560,1128,0,0
343,-104,0,0,0,0,0,0,0,0,0,-1,1567,1128,0,0
350,-104,0,0,0,0,0,0,0,0,0,-1,1574,1128,0,0
357,-104,0,0,0,0,0,0,0,0,0,-1,1581,1128,0,0
364,-104,0,0,0,0,0,0,0,0,0,-1,1588,1128,0,0
371,-104,0,0,0,0,0,0,0,0,0,-1,1595,1128,0,0
378,-104,0,0,0,0,0,0,0,0,0,-1,1602,1128,0,0
385,-104,0,0,0,0,0,0,0,0,0,-1,1609,1128,0,0
392,-104,0,0,0,0,0,0,0,0,0,-1,1616,1128,0,0
399,-104,0,0,0,0,0,0,0,0,0,-1,1623,1128,0,0
406,-104,0,0,0,0,0,0,0,0,0,-1,1630,1128,0,0
413,-104,0,0,0,0,0,0,0,0,0,-1,1637,1128,0,0
420,-104,0,0,0,0,0,0,0,0,0,-1,1644,1128,0,0
427,-104,0,0,0,0,0,0,0,0,0,-1,1651,1128,0,0
434,-104,0,0,0,0,0,0,0,0,0,-1,1658,1128,0,0
441,-104,0,0,0,0,0,0,0,0,0,-1,1665,1128,0,0
448,-104,0,0,0,0,0,0,0,0,0,-1,1672,1128,0,0
455,-104,0,0,0,0,0,0,0,0,0,-1,1679,1128,0,0
462,-104,0,0,0,0,0,0,0,0,0,-1,1686,1128,0,0
469,-104,0,0,0,0,0,0,0,0,0,-1,1693,1128,0,0
476,-104,0,0,0,0,0,0,0,0,0,-1,1700,1128,0,0
483,-104,0,0,0,0,0,0,0,0,0,-1,1707,1128,0,0
490,-104,0,0,0,0,0,0,0,0,0,-1,1714,1128,0,0
497,-104,0,0,0,0,0,0,0,0,0,-1,1721,1128,0,0
504,-104,0,0,0,0,0,0,0,0,0,-1,1728,1128,0,0
511,-104,0,0,0,0,0,0,0,0,0,-1,1735,1128,0,0
518,-104,0,0,0,0,0,0,0,0,0,-1,1742,1128,0,0
525,-104,0,0,0,0,0,0,0,0,0,-1,1749,1128,0,0
532,-104,0,0,0,0,0,0,0,0,0,-1,1756,1128,0,0
539,-104,0,0,0,0,0,0,0,0,0,-1,1763,1128,0,0
546,-104,0,0,0,0,0,0,0,0,0,-1,1770,1128,0,0
553,-104,0,0,0,0,0,0,0,0,0,-1,1777,1128,0,0
560,-104,0,0,0,0,0,0,0,0,0,-1,1784,1128,0,0
567,-104,0,0,0,0,0,0,0,0,0,-1,1791,1128,0,0
574,-104,0,0,0,0,0,0,0,0,0,-1,1798,1128,0,0
581,-104,0,0,0,0,0,0,0,0,0,-1,1805,1128,0,0
588,-104,0,0,0,0,0,0,0,0,0,-1,1812,1128,0,0
595,-104,0,0,0,0,0,0,0,0,0,-1,1819,1128,0,0
602,-104,0,0,0,0,0,0,0,0,0,-1,1826,1128,0,0
609,-104,0,0,0,0,0,0,0,0,0,-1,1833,1128,0,0
616,-104,0,0,0,0,0,0,0,0,0,-1,1840,1128,0,0
623,-104,0,0,0,0,0,0,0,0,0,-1,1847,1128,0,0
630,-104,0,0,0,0,0,0,0,0,0,-1,1854,1128,0,0
637,-104,0,0,0,0,0,0,0,0,0,-1,1861,1128,0,0
644,-104,78.7267,2.62,0.00377658,0.000297463,0.00463992,0.00699231,-0.00291827,0.606052,0.00588082,0.0398812,1868,1128,78.7267,-2.61995
651,-104,78.8125,2.62964,0.00188765,0.000678137,0.00327752,0.00461574,-0.00204996,0.694167,0.00394233,0.0418992,1875,1128,78.8125,-2.62966
658,-104,78.9176,2.51794,0.0010802,0.000689216,0.00223081,0.00312406,-0.00135465,0.741694,0.0026522,0.0427501,1882,1128,78.9176,-2.51796
665,-104,78.9325,2.44775,0.000746008,0.000649931,0.00136747,0.00206628,-0.000670343,0.767841,0.00164709,0.0450454,1889,1128,78.9325,-2.44772
672,-104,78.8844,2.24792,0.000765324,0.00055185,0.000630357,0.00129792,1.92575e-05,0.70153,0.000858931,0.0457463,1896,1128,78.8844,-2.24791
679,-104,78.7122,2.26941,0.00117913,0.000331776,0.00014102,0.00120198,0.000308923,0.160657,0.000720764,0.0421418,1903,1128,78.7121,-2.26939
686,-104,78.7111,2.29626,0.00161626,7.11912e-05,-0.000209624,0.0016442,4.3256e-05,-0.132483,0.001082,0.0392139,1910,1128,78.7111,-2.29628
693,-104,78.7073,2.24084,0.00182433,-0.000148797,-0.000189103,0.00184229,-0.000166757,-0.0946907,0.00128739,0.0356266,1917,1128,78.7073,-2.24084
700,-104,78.7589,2.24963,0.00201982,-0.000267438,-0.000119302,0.00202603,-0.000273644,-0.0519713,0.00145053,0.0271289,1924,1128,78.7589,-2.24969
707,-104,78.7883,2.28955,0,0,0,0,0,0,0,-1,1931,1128,78.7883,-2.28956
714,-104,45.5221,2.32166,0,0,0,0,0,0,0,-1,1938,1128,45.5221,-2.3216
721,-104,72.71,10.382,0,0,0,0,0,0,0,-1,1945,1128,72.71,-10.3819
728,-104,72.9117,9.4624,0.00109006,0.000858979,0.000921601,0.00190334,4.5706e-05,0.723038,0.00125393,0.0481151,1952,1128,72.9117,-9.46245
735,-104,72.9996,8.88135,0.000717432,0.00131197,0.00128503,0.00233367,-0.000304266,0.899065,0.00166649,0.0415741,1959,1128,72.9996,-8.88131
742,-104,72.7578,8.28406,3.93613e-05,0.002036,0.00158048,0.00290706,-0.000831695,1.06708,0.00226671,0.0270477,1966,1128,72.7578,-8.28411
749,-104,72.6625,7.70837,-0.000988442,0.00276734,0.00192046,0.00357545,-0.00179656,1.17249,0.00315771,0.0251982,1973,1128,72.6625,-7.70836
756,-104,72.6646,7.08716,-0.00266036,0.00454075,0.0015677,0.00486724,-0.00298685,1.36547,0.00457768,0.0189943,1980,1128,72.6644,-7.0872
763,-104,72.5337,6.51501,-0.00447368,0.00777845,0.000319473,0.00778678,-0.00448201,1.54475,0.00716853,0.0202038,1987,1128,72.5336,-6.51497
770,-104,72.4536,5.94446,-0.00641372,0.0118049,-0.00172524,0.0119669,-0.00657565,-1.47721,0.0108553,0.0188801,1994,1128,72.4535,-5.94445
777,-104,72.3569,5.28333,-0.00860715,0.0170212,-0.00496576,0.0179497,-0.00953568,-1.38595,0.0161147,0.0279822,2001,1128,72.357,-5.28327
784,-104,72.3621,4.57678,-0.0111901,0.0238974,-0.00979802,0.0264481,-0.0137407,-1.31613,0.0235865,0.0438703,2008,1128,72.362,-4.57677
791,-104,72.4858,3.95813,-0.0144876,0.0333044,-0.0170439,0.03876,-0.0199432,-1.26101,0.0344678,0.0470771,2015,1128,72.486,-3.95814
798,-104,72.3655,3.30627,0,0,0,0,0,0,0,-1,2022,1128,72.3654,-3.30628
805,-104,72.5857,-0.314819,-0.0239743,0.0641353,-0.0411979,0.0803971,-0.0402361,-1.19485,0.0709225,0.0483771,2029,1128,72.5857,0.314775
812,-104,72.2297,-0.719482,-0.031312,0.0885343,-0.05955,0.113092,-0.0558695,-1.17966,0.0993971,0.0478073,2036,1128,72.2297,0.719513
-700,-111,0,0,0,0,0,0,0,0,0,-1,524,1135,0,0
-693,-111,-54.5784,-0.580933,0.00179179,0.0394212,-0.052315,0.0762019,-0.0349889,-0.958018,0.0656495,0.0458749,531,1135,-54.5784,0.58096
-686,-111,-54.4358,0.0109863,0,0,0,0,0,0,0,-1,538,1135,-54.4358,-0.0109492
-679,-111,-54.2708,0.224243,0,0,0,0,0,0,0,-1,545,1135,-54.2708,-0.224282
-672,-111,-54.1524,0.402466,0,0,0,0,0,0,0,-1,552,1135,-54.1524,-0.402488
-665,-111,-57.4572,3.04773,0,0,0,0,0,0,0,-1,559,1135,-57.4571,-3.04777
-658,-111,-55.3861,2.86023,0,0,0,0,0,0,0,-1,566,1135,-55.3861,-2.86024
-651,-111,-55.8229,3.5177,0,0,0,0,0,0,0,-1,573,1135,-55.8229,-3.51772
-644,-111,-55.9635,4.34448,-0.00601533,0.0134236,-0.00616953,0.0152163,-0.00780808,-1.288,0.0135206,0.0290985,580,1135,-55.9635,-4.34449
-637,-111,-56.1115,5.11536,-0.00766768,0.00952662,-0.00435606,0.0105672,-0.00870828,-1.33631,0.011146,0.0144774,587,1135,-56.1114,-5.11536
-630,-111,-56.1673,5.65649,-0.00882982,0.00622159,-0.00336537,0.00693979,-0.00954802,-1.36054,0.00955886,0.0303771,594,1135,-56.1673,-5.65645
-623,-111,-56.1905,6.4126,-0.00934132,0.00326303,-0.00364116,0.00423928,-0.0103176,-1.30884,0.00864518,0.0263583,601,1135,-56.1905,-6.41258
-616,-111,-56.6058,7.06628,-0.0090666,0.00206758,-0.00396745,0.00333666,-0.0103357,-1.26121,0.00823127,0.0331719,608,1135,-56.6058,-7.06628
-609,-111,-56.809,7.65051,-0.00768282,0.00157601,-0.00403996,0.00309092,-0.00919773,-1.21204,0.0073811,0.0403472,615,1135,-56.809,-7.65057
-602,-111,-56.7301,8.45911,0,0,0,0,0,0,0,-1,622,1135,-56.7301,-8.45905
-595,-111,-54.9363,8.4364,0,0,0,0,0,0,0,-1,629,1135,-54.9363,-8.43644
-588,-111,-54.5975,9.34033,0,0,0,0,0,0,0,-1,636,1135,-54.5975,-9.34039
-581,-111,-21.0555,3.14551,0,0,0,0,0,0,0,-1,643,1135,-21.0555,-3.14548
-574,-111,-62.3158,0.571533,0,0,0,0,0,0,0,-1,650,1135,-62.3158,-0.571591
-567,-111,-62.3124,0.716919,-0.00176536,-0.000195402,-0.00326851,0.00238106,-0.00434183,-0.903249,0.00393611,0.0391584,657,1135,-62.3124,-0.716967
-560,-111,-62.2994,0.661011,0.00012322,-0.000238432,-0.00290024,0.00284826,-0.00296347,-0.754264,0.00335563,0.0397071,664,1135,-62.2995,-0.660962
-553,-111,-62.3238,0.446899,0.00124153,-4.30856e-06,-0.0022084,0.00291318,-0.00167596,-0.647935,0.00268145,0.0433898,671,1135,-62.3238,-0.446936
-546,-111,-62.2807,0.350586,0.00124447,0.00060842,-0.00132345,0.00228757,-0.000434679,-0.667483,0.00168869,0.0384057,678,1135,-62.2807,-0.350553
-539,-111,-62.449,0.534668,0.00134031,0.000752391,-0.000322122,0.00148244,0.00061026,-0.41554,0.000860328,0.0387539,685,1135,-62.449,-0.534668
-532,-111,-62.3773,0.568237,0.00155336,0.000731965,0.00057369,0.0018482,0.000437118,0.474744,0.00111536,0.0406823,692,1135,-62.3772,-0.568224
-525,-111,-62.3372,0.48877,0.00188855,0.000653558,0.00134109,0.00274748,-0.000205368,0.569645,0.00190381,0.0407955,699,1135,-62.3372,-0.488766
-518,-111,0,0,0,0,0,0,0,0,0,-1,706,1135,0,0
-511,-111,0,0,0,0,0,0,0,0,0,-1,713,1135,0,0
-504,-111,0,0,0,0,0,0,0,0,0,-1,720,1135,0,0
-497,-111,0,0,0,0,0,0,0,0,0,-1,727,1135,0,0
-490,-111,0,0,0,0,0,0,0,0,0,-1,734,1135,0,0
-483,-111,0,0,0,0,0,0,0,0,0,-1,741,1135,0,0
-476,-111,0,0,0,0,0,0,0,0,0,-1,748,1135,0,0
-469,-111,0,0,0,0,0,0,0,0,0,-1,755,1135,0,0
-462,-111,0,0,0,0,0,0,0,0,0,-1,762,1135,0,0
-455,-111,0,0,0,0,0,0,0,0,0,-1,769,1135,0,0
-448,-111,0,0,0,0,0,0,0,0,0,-1,776,1135,0,0
-441,-111,0,0,0,0,0,0,0,0,0,-1,783,1135,0,0
-434,-111,0,0,0,0,0,0,0,0,0,-1,790,1135,0,0
-427,-111,0,0,0,0,0,0,0,0,0,-1,797,1135,0,0
-420,-111,0,0,0,0,0,0,0,0,0,-1,804,1135,0,0
-413,-111,0,0,0,0,0,0,0,0,0,-1,811,1135,0,0
-406,-111,0,0,0,0,0,0,0,0,0,-1,818,1135,0,0
-399,-111,0,0,0,0,0,0,0,0,0,-1,825,1135,0,0
-392,-111,0,0,0,0,0,0,0,0,0,-1,832,1135,0,0
-385,-111,0,0,0,0,0,0,0,0,0,-1,839,1135,0,0
-378,-111,0,0,0,0,0,0,0,0,0,-1,846,1135,0,0
-371,-111,0,0,0,0,0,0,0,0,0,-1,853,1135,0,0
-364,-111,0,0,0,0,0,0,0,0,0,-1,860,1135,0,0
-357,-111,0,0,0,0,0,0,0,0,0,-1,867,1135,0,0
-350,-111,0,0,0,0,0,0,0,0,0,-1,874,1135,0,0
-343,-111,0,0,0,0,0,0,0,0,0,-1,881,1135,0,0
-336,-111,0,0,0,0,0,0,0,0,0,-1,888,1135,0,0
-329,-111,0,0,0,0,0,0,0,0,0,-1,895,1135,0,0
-322,-111,0,0,0,0,0,0,0,0,0,-1,902,1135,0,0
-315,-111,0,0,0,0,0,0,0,0,0,-1,909,1135,0,0
-308,-111,0,0,0,0,0,0,0,0,0,-1,916,1135,0,0
-301,-111,0,0,0,0,0,0,0,0,0,-1,923,1135,0,0
-294,-111,0,0,0,0,0,0,0,0,0,-1,930,1135,0,0
-287,-111,0,0,0,0,0,0,0,0,0,-1,937,1135,0,0
-280,-111,0,0,0,0,0,0,0,0,0,-1,944,1135,0,0
-273,-111,0,0,0,0,0,0,0,0,0,-1,951,1135,0,0
-266,-111,0,0,0,0,0,0,0,0,0,-1,958,1135,0,0
-259,-111,0,0,0,0,0,0,0,0,0,-1,965,1135,0,0
-252,-111,0,0,0,0,0,0,0,0,0,-1,972,1135,0,0
-245,-111,0,0,0,0,0,0,0,0,0,-1,979,1135,0,0
-238,-111,0,0,0,0,0,0,0,0,0,-1,986,1135,0,0
-231,-111,0,0,0,0,0,0,0,0,0,-1,993,1135,0,0
-224,-111,0,0,0,0,0,0,0,0,0,-1,1000,1135,0,0
-217,-111,0,0,0,0,0,0,0,0,0,-1,1007,1135,0,0
-210,-111,0,0,0,0,0,0,0,0,0,-1,1014,1135,0,0
-203,-111,0,0,0,0,0,0,0,0,0,-1,1021,1135,0,0
-196,-111,0,0,0,0,0,0,0,0,0,-1,1028,1135,0,0
-189,-111,0,0,0,0,0,0,0,0,0,-1,1035,1135,0,0
-182,-111,0,0,0,0,0,0,0,0,0,-1,1042,1135,0,0
-175,-111,0,0,0,0,0,0,0,0,0,-1,1049,1135,0,0
-168,-111,0,0,0,0,0,0,0,0,0,-1,1056,1135,0,0
-161,-111,0,0,0,0,0,0,0,0,0,-1,1063,1135,0,0
-154,-111,0,0,0,0,0,0,0,0,0,-1,1070,1135,0,0
-147,-111,0,0,0,0,0,0,0,0,0,-1,1077,1135,0,0
-140,-111,0,0,0,0,0,0,0,0,0,-1,1084,1135,0,0
-133,-111,0,0,0,0,0,0,0,0,0,-1,1091,1135,0,0
-126,-111,0,0,0,0,0,0,0,0,0,-1,1098,1135,0,0
-119,-111,0,0,0,0,0,0,0,0,0,-1,1105,1135,0,0
-112,-111,0,0,0,0,0,0,0,0,0,-1,1112,1135,0,0
-105,-111,0,0,0,0,0,0,0,0,0,-1,1119,1135,0,0
-98,-111,0,0,0,0,0,0,0,0,0,-1,1126,1135,0,0
-91,-111,0,0,0,0,0,0,0,0,0,-1,1133,1135,0,0
-84,-111,0,0,0,0,0,0,0,0,0,-1,1140,1135,0,0
-77,-111,0,0,0,0,0,0,0,0,0,-1,1147,1135,0,0
-70,-111,0,0,0,0,0,0,0,0,0,-1,1154,1135,0,0
-63,-111,0,0,0,0,0,0,0,0,0,-1,1161,1135,0,0
-56,-111,0,0,0,0,0,0,0,0,0,-1,1168,1135,0,0
-49,-111,0,0,0,0,0,0,0,0,0,-1,1175,1135,0,0
-42,-111,0,0,0,0,0,0,0,0,0,-1,1182,1135,0,0
-35,-111,0,0,0,0,0,0,0,0,0,-1,1189,1135,0,0
-28,-111,0,0,0,0,0,0,0,0,0,-1,1196,1135,0,0
-21,-111,0,0,0,0,0,0,0,0,0,-1,1203,1135,0,0
-14,-111,0,0,0,0,0,0,0,0,0,-1,1210,1135,0,0
-7,-111,0,0,0,0,0,0,0,0,0,-1,1217,1135,0,0
0,-111,0,0,0,0,0,0,0,0,0,-1,1224,1135,0,0
7,-111,0,0,0,0,0,0,0,0,0,-1,1231,1135,0,0
14,-111,0,0,0,0,0,0,0,0,0,-1,1238,1135,0,0
21,-111,0,0,0,0,0,0,0,0,0,-1,1245,1135,0,0
28,-111,0,0,0,0,0,0,0,0,0,-1,1252,1135,0,0
35,-111,0,0,0,0,0,0,0,0,0,-1,1259,1135,0,0
42,-111,0,0,0,0,0,0,0,0,0,-1,1266,1135,0,0
49,-111,0,0,0,0,0,0,0,0,0,-1,1273,1135,0,0
56,-111,0,0,0,0,0,0,0,0,0,-1,1280,1135,0,0
63,-111,0,0,0,0,0,0,0,0,0,-1,1287,1135,0,0
70,-111,0,0,0,0,0,0,0,0,0,-1,1294,1135,0,0
77,-111,0,0,0,0,0,0,0,0,0,-1,1301,1135,0,0
84,-111,0,0,0,0,0,0,0,0,0,-1,1308,1135,0,0
91,-111,0,0,0,0,0,0,0,0,0,-1,1315,1135,0,0
98,-111,0,0,0,0,0,0,0,0,0,-1,1322,1135,0,0
105,-111,0,0,0,0,0,0,0,0,0,-1,1329,1135,0,0
112,-111,0,0,0,0,0,0,0,0,0,-1,1336,1135,0,0
119,-111,0,0,0,0,0,0,0,0,0,-1,1343,1135,0,0
126,-111,0,0,0,0,0,0,0,0,0,-1,1350,1135,0,0
133,-111,0,0,0,0,0,0,0,0,0,-1,1357,1135,0,0
140,-111,0,0,0,0,0,0,0,0,0,-1,1364,1135,0,0
147,-111,0,0,0,0,0,0,0,0,0,-1,1371,1135,0,0
154,-111,0,0,0,0,0,0,0,0,0,-1,1378,1135,0,0
161,-111,0,0,0,0,0,0,0,0,0,-1,1385,1135,0,0
168,-111,0,0,0,0,0,0,0,0,0,-1,1392,1135,0,0
175,-111,0,0,0,0,0,0,0,0,0,-1,1399,1135,0,0
182,-111,0,0,0,0,0,0,0,0,0,-1,1406,1135,0,0
189,-111,0,0,0,0,0,0,0,0,0,-1,1413,1135,0,0
196,-111,0,0,0,0,0,0,0,0,0,-1,1420,1135,0,0
203,-111,0,0,0,0,0,0,0,0,0,-1,1427,1135,0,0
210,-111,0,0,0,0,0,0,0,0,0,-1,1434,1135,0,0
217,-111,0,0,0,0,0,0,0,0,0,-1,1441,1135,0,0
224,-111,0,0,0,0,0,0,0,0,0,-1,1448,1135,0,0
231,-111,0,0,0,0,0,0,0,0,0,-1,1455,1135,0,0
238,-111,0,0,0,0,0,0,0,0,0,-1,1462,1135,0,0
245,-111,0,0,0,0,0,0,0,0,0,-1,1469,1135,0,0
252,-111,0,0,0,0,0,0,0,0,0,-1,1476,1135,0,0
259,-111,0,0,0,0,0,0,0,0,0,-1,1483,1135,0,0
266,-111,0,0,0,0,0,0,0,0,0,-1,1490,1135,0,0
273,-111,0,0,0,0,0,0,0,0,0,-1,1497,1135,0,0
280,-111,0,0,0,0,0,0,0,0,0,-1,1504,1135,0,0
287,-111,0,0,0,0,0,0,0,0,0,-1,1511,1135,0,0
294,-111,0,0,0,0,0,0,0,0,0,-1,1518,1135,0,0
301,-111,0,0,0,0,0,0,0,0,0,-1,1525,1135,0,0
308,-111,0,0,0,0,0,0,0,0,0,-1,1532,1135,0,0
315,-111,0,0,0,0,0,0,0,0,0,-1,1539,1135,0,0
322,-111,0,0,0,0,0,0,0,0,0,-1,1546,1135,0,0
329,-111,0,0,0,0,0,0,0,0,0,-1,1553,1135,0,0
336,-111,0,0,0,0,0,0,0,0,0,-1,1560,1135,0,0
343,-111,0,0,0,0,0,0,0,0,0,-1,1567,1135,0,0
350,-111,0,0,0,0,0,0,0,0,0,-1,1574,1135,0,0
357,-111,0,0,0,0,0,0,0,0,0,-1,1581,1135,0,0
364,-111,0,0,0,0,0,0,0,0,0,-1,1588,1135,0,0
371,-111,0,0,0,0,0,0,0,0,0,-1,1595,1135,0,0
378,-111,0,0,0,0,0,0,0,0,0,-1,1602,1135,0,0
385,-111,0,0,0,0,0,0,0,0,0,-1,1609,1135,0,0
392,-111,0,0,0,0,0,0,0,0,0,-1,1616,1135,0,0
399,-111,0,0,0,0,0,0,0,0,0,-1,1623,1135,0,0
406,-111,0,0,0,0,0,0,0,0,0,-1,1630,1135,0,0
413,-111,0,0,0,0,0,0,0,0,0,-1,1637,1135,0,0
420,-111,0,0,0,0,0,0,0,0,0,-1,1644,1135,0,0
427,-111,0,0,0,0,0,0,0,0,0,-1,1651,1135,0,0
434,-111,0,0,0,0,0,0,0,0,0,-1,1658,1135,0,0
441,-111,0,0,0,0,0,0,0,0,0,-1,1665,1135,0,0
448,-111,0,0,0,0,0,0,0,0,0,-1,1672,1135,0,0
455,-111,0,0,0,0,0,0,0,0,0,-1,1679,1135,0,0
462,-111,0,0,0,0,0,0,0,0,0,-1,1686,1135,0,0
469,-111,0,0,0,0,0,0,0,0,0,-1,1693,1135,0,0
476,-111,0,0,0,0,0,0,0,0,0,-1,1700,1135,0,0
483,-111,0,0,0,0,0,0,0,0,0,-1,1707,1135,0,0
490,-111,0,0,0,0,0,0,0,0,0,-1,1714,1135,0,0
497,-111,0,0,0,0,0,0,0,0,0,-1,1721,1135,0,0
504,-111,0,0,0,0,0,0,0,0,0,-1,1728,1135,0,0
511,-111,0,0,0,0,0,0,0,0,0,-1,1735,1135,0,0
518,-111,0,0,0,0,0,0,0,0,0,-1,1742,1135,0,0
525,-111,0,0,0,0,0,0,0,0,0,-1,1749,1135,0,0
532,-111,0,0,0,0,0,0,0,0,0,-1,1756,1135,0,0
539,-111,0,0,0,0,0,0,0,0,0,-1,1763,1135,0,0
546,-111,0,0,0,0,0,0,0,0,0,-1,1770,1135,0,0
553,-111,0,0,0,0,0,0,0,0,0,-1,1777,1135,0,0
560,-111,0,0,0,0,0,0,0,0,0,-1,1784,1135,0,0
567,-111,0,0,0,0,0,0,0,0,0,-1,1791,1135,0,0
574,-111,0,0,0,0,0,0,0,0,0,-1,1798,1135,0,0
581,-111,0,0,0,0,0,0,0,0,0,-1,1805,1135,0,0
588,-111,0,0,0,0,0,0,0,0,0,-1,1812,1135,0,0
595,-111,0,0,0,0,0,0,0,0,0,-1,1819,1135,0,0
602,-111,0,0,0,0,0,0,0,0,0,-1,1826,1135,0,0
609,-111,0,0,0,0,0,0,0,0,0,-1,1833,1135,0,0
616,-111,0,0,0,0,0,0,0,0,0,-1,1840,1135,0,0
623,-111,0,0,0,0,0,0,0,0,0,-1,1847,1135,0,0
630,-111,0,0,0,0,0,0,0,0,0,-1,1854,1135,0,0
637,-111,0,0,0,0,0,0,0,0,0,-1,1861,1135,0,0
644,-111,78.5754,2.57959,0.00381137,0.000215205,0.00436256,0.00673187,-0.0027053,0.589925,0.00561143,0.0414829,1868,1135,78.5754,-2.57954
651,-111,78.7218,2.75146,0.00200573,0.000658107,0.00315561,0.00455867,-0.00189483,0.680214,0.00383028,0.0436958,1875,1135,78.7218,-2.75141
658,-111,78.9871,2.60083,0.00121141,0.000693469,0.00219083,0.00315853,-0.00125364,0.726568,0.00262531,0.0451155,1882,1135,78.9871,-2.60087
665,-111,79.1121,2.5332,0.000849653,0.000635325,0.00135294,0.00209967,-0.000614691,0.745877,0.00164345,0.0468126,1889,1135,79.112,-2.53316
672,-111,78.9888,2.34143,0.000841026,0.000490032,0.000613445,0.00130358,2.74744e-05,0.646077,0.000860044,0.0463468,1896,1135,78.9887,-2.34149
679,-111,78.8074,2.11182,0.00124904,0.000178884,0.000153259,0.00127056,0.000157368,0.139477,0.000799761,0.0429027,1903,1135,78.8074,-2.11182
686,-111,78.7363,2.1095,0.00171526,-0.000108668,-0.00016496,0.00173006,-0.000123467,-0.0894749,0.00119665,0.0412432,1910,1135,78.7363,-2.10945
693,-111,78.7008,2.25281,0.00189636,-0.000294035,-0.000119284,0.00190284,-0.000300512,-0.0542439,0.00137968,0.0378235,1917,1135,78.7008,-2.25281
700,-111,78.8075,2.32178,0.00206612,-0.000403374,-2.35399e-05,0.00206634,-0.000403598,-0.00953112,0.00152994,0.0270711,1924,1135,78.8075,-2.32182
707,-111,78.8536,2.42261,0,0,0,0,0,0,0,-1,1931,1135,78.8536,-2.42261
714,-111,45.1654,7.39746,0,0,0,0,0,0,0,-1,1938,1135,45.1654,-7.39745
721,-111,72.0857,10.459,0,0,0,0,0,0,0,-1,1945,1135,72.0857,-10.459
728,-111,72.1877,9.64917,0.0013713,0.000656759,0.00100899,0.0020844,-5.63448e-05,0.615243,0.00140876,0.0314538,1952,1135,72.1877,-9.64919
735,-111,72.2228,8.99988,0.00121003,0.00106632,0.00140863,0.00254864,-0.000272286,0.759915,0.00179674,0.0317598,1959,1135,72.2228,-8.99986
742,-111,72.0503,8.41138,0.000713096,0.00180563,0.00172622,0.00306996,-0.000551228,0.93864,0.00225297,0.0209325,1966,1135,72.0503,-8.41132
749,-111,71.967,7.74731,-0.000189438,0.00265631,0.00205478,0.00373278,-0.0012659,1.08823,0.00300085,0.0213883,1973,1135,71.9671,-7.74734
756,-111,71.9729,7.0813,-0.00166792,0.00461587,0.00175018,0.00507045,-0.0021225,1.31668,0.00426753,0.0177575,1980,1135,71.9728,-7.08131
763,-111,71.8911,6.50317,-0.00313182,0.00825831,0.000452689,0.00827627,-0.00314978,1.53114,0.00681457,0.0172375,1987,1135,71.8912,-6.50319
770,-111,71.8186,5.87866,-0.00460288,0.0128142,-0.00163069,0.0129656,-0.00475424,-1.47824,0.0105904,0.015509,1994,1135,71.8185,-5.87866
777,-111,71.6033,5.20264,-0.00628428,0.018715,-0.00492972,0.019652,-0.00722128,-1.38297,0.0160591,0.0314005,2001,1135,71.6033,-5.20267
784,-111,71.6858,4.26184,-0.00832326,0.0265865,-0.00993915,0.029218,-0.0109547,-1.31198,0.0239793,0.0441534,2008,1135,71.6858,-4.2618
791,-111,72.0671,3.776,0,0,0,0,0,0,0,-1,2015,1135,72.0672,-3.77604
798,-111,73.7144,-0.753784,0,0,0,0,0,0,0,-1,2022,1135,73.7145,0.753782
805,-111,73.3535,-1.3407,-0.0196322,0.0730859,-0.0431149,0.090036,-0.0365824,-1.19622,0.0752433,0.0473695,2029,1135,73.3534,1.34069
812,-111,73.0825,-1.82129,-0.0266781,0.101223,-0.0627555,0.126871,-0.0523263,-1.18281,0.106402,0.0479797,2036,1135,73.0825,1.82134
-700,-118,0,0,0,0,0,0,0,0,0,-1,524,1142,0,0
-693,-118,-53.7972,-1.08667,0,0,0,0,0,0,0,-1,531,1142,-53.7973,1.08662
-686,-118,-53.7215,-0.250854,0,0,0,0,0,0,0,-1,538,1142,-53.7215,0.250796
-679,-118,-53.1058,0.0655518,0,0,0,0,0,0,0,-1,545,1142,-53.1058,-0.065541
-672,-118,-53.0031,0.181519,0,0,0,0,0,0,0,-1,552,1142,-53.0031,-0.181458
-665,-118,-60.6881,-8.95374,0,0,0,0,0,0,0,-1,559,1142,-60.6881,8.95378
-658,-118,-55.0958,-1.94812,0,0,0,0,0,0,0,-1,566,1142,-55.0958,1.94813
-651,-118,-54.8262,3.63672,0,0,0,0,0,0,0,-1,573,1142,-54.8262,-3.63673
-644,-118,-55.1669,4.40552,-0.00755785,0.0119423,-0.00701542,0.0142039,-0.00981944,-1.25894,0.0139467,0.0386177,580,1142,-55.1669,-4.40551
-637,-118,-55.3882,5.16016,-0.00885604,0.00833697,-0.00492879,0.0096497,-0.0101688,-1.3105,0.0114435,0.0208023,587,1142,-55.3882,-5.16012
-630,-118,-55.4404,5.76526,-0.0096486,0.00547129,-0.00373996,0.00634581,-0.0105231,-1.34109,0.00983831,0.029854,594,1142,-55.4404,-5.76526
-623,-118,-55.424,6.47314,-0.00996934,0.00282887,-0.00386796,0.00390705,-0.0110475,-1.29895,0.00895608,0.023947,601,1142,-55.424,-6.4731
-616,-118,-55.6046,7.12256,-0.00969825,0.00189735,-0.00424581,0.00328575,-0.0110866,-1.25475,0.00869579,0.0401213,608,1142,-55.6046,-7.1225
-609,-118,-55.9489,7.58289,-0.00813913,0.00143338,-0.00437407,0.003131,-0.00983675,-1.20058,0.00781349,0.0464041,615,1142,-55.9489,-7.58292
-602,-118,-55.6788,8.4248,0,0,0,0,0,0,0,-1,622,1142,-55.6787,-8.42485
-595,-118,-54.3735,8.38013,0,0,0,0,0,0,0,-1,629,1142,-54.3735,-8.38017
-588,-118,-53.6946,9.46155,0,0,0,0,0,0,0,-1,636,1142,-53.6946,-9.46155
-581,-118,-24.6116,3.89648,0,0,0,0,0,0,0,-1,643,1142,-24.6116,-3.89645
-574,-118,-62.1743,0.278687,0,0,0,0,0,0,0,-1,650,1142,-62.1743,-0.278626
-567,-118,-62.2505,0.500854,-0.00274679,-0.000306274,-0.00369354,0.00236336,-0.00541643,-0.944941,0.00460551,0.0434855,657,1142,-62.2506,-0.500886
-560,-118,-62.262,0.630737,-0.000701367,-0.000486682,-0.003473,0.00288063,-0.00406868,-0.800847,0.00403169,0.0368992,664,1142,-62.262,-0.630748
-553,-118,-62.0853,0.436401,0.000737314,-0.000376767,-0.00274776,0.00298392,-0.00262338,-0.685391,0.00323961,0.0388242,671,1142,-62.0853,-0.436401
-546,-118,-61.9734,0.497314,0.000709645,0.000334013,-0.00176489,0.00229668,-0.00125302,-0.732389,0.00207874,0.0380569,678,1142,-61.9734,-0.497276
-539,-118,-62.285,0.758545,0.000685682,0.00068706,-0.000692188,0.00137856,-5.81745e-06,-0.785896,0.000920984,0.038758,685,1142,-62.285,-0.758549
-532,-118,-62.5099,0.885498,0.000799329,0.000892373,0.000234562,0.00108498,0.00060672,0.883295,0.000627876,0.0397524,692,1142,-62.5099,-0.885462
-525,-118,-62.4,0.628418,0.00108576,0.00104751,0.000997045,0.00206387,6.94107e-05,0.775808,0.00135337,0.0425064,699,1142,-62.4001,-0.628364
-518,-118,0,0,0,0,0,0,0,0,0,-1,706,1142,0,0
-511,-118,0,0,0,0,0,0,0,0,0,-1,713,1142,0,0
-504,-118,0,0,0,0,0,0,0,0,0,-1,720,1142,0,0
-497,-118,0,0,0,0,0,0,0,0,0,-1,727,1142,0,0
-490,-118,0,0,0,0,0,0,0,0,0,-1,734,1142,0,0
-483,-118,0,0,0,0,0,0,0,0,0,-1,741,1142,0,0
-476,-118,0,0,0,0,0,0,0,0,0,-1,748,1142,0,0
-469,-118,0,0,0,0,0,0,0,0,0,-1,755,1142,0,0
-462,-118,0,0,0,0,0,0,0,0,0,-1,762,1142,0,0
-455,-118,0,0,0,0,0,0,0,0,0,-1,769,1142,0,0
-448,-118,0,0,0,0,0,0,0,0,0,-1,776,1142,0,0
-441,-118,0,0,0,0,0,0,0,0,0,-1,783,1142,0,0
-434,-118,0,0,0,0,0,0,0,0,0,-1,790,1142,0,0
-427,-118,0,0,0,0,0,0,0,0,0,-1,797,1142,0,0
-420,-118,0,0,0,0,0,0,0,0,0,-1,804,1142,0,0
-413,-118,0,0,0,0,0,0,0,0,0,-1,811,1142,0,0
-406,-118,0,0,0,0,0,0,0,0,0,-1,818,1142,0,0
-399,-118,0,0,0,0,0,0,0,0,0,-1,825,1142,0,0
-392,-118,0,0,0,0,0,0,0,0,0,-1,832,1142,0,0
-385,-118,0,0,0,0,0,0,0,0,0,-1,839,1142,0,0
-378,-118,0,0,0,0,0,0,0,0,0,-1,846,1142,0,0
-371,-118,0,0,0,0,0,0,0,0,0,-1,853,1142,0,0
-364,-118,0,0,0,0,0,0,0,0,0,-1,860,1142,0,0
-357,-118,0,0,0,0,0,0,0,0,0,-1,867,1142,0,0
-350,-118,0,0,0,0,0,0,0,0,0,-1,874,1142,0,0
-343,-118,0,0,0,0,0,0,0,0,0,-1,881,1142,0,0
-336,-118,0,0,0,0,0,0,0,0,0,-1,888,1142,0,0
-329,-118,0,0,0,0,0,0,0,0,0,-1,895,1142,0,0
-322,-118,0,0,0,0,0,0,0,0,0,-1,902,1142,0,0
-315,-118,0,0,0,0,0,0,0,0,0,-1,909,1142,0,0
-308,-118,0,0,0,0,0,0,0,0,0,-1,916,1142,0,0
-301,-118,0,0,0,0,0,0,0,0,0,-1,923,1142,0,0
-294,-118,0,0,0,0,0,0,0,0,0,-1,930,1142,0,0
-287,-118,0,0,0,0,0,0,0,0,0,-1,937,1142,0,0
-280,-118,0,0,0,0,0,0,0,0,0,-1,944,1142,0,0
-273,-118,0,0,0,0,0,0,0,0,0,-1,951,1142,0,0
-266,-118,0,0,0,0,0,0,0,0,0,-1,958,1142,0,0
-259,-118,0,0,0,0,0,0,0,0,0,-1,965,1142,0,0
-252,-118,0,0,0,0,0,0,0,0,0,-1,972,1142,0,0
-245,-118,0,0,0,0,0,0,0,0,0,-1,979,1142,0,0
-238,-118,0,0,0,0,0,0,0,0,0,-1,986,1142,0,0
-231,-118,0,0,0,0,0,0,0,0,0,-1,993,1142,0,0
-224,-118,0,0,0,0,0,0,0,0,0,-1,1000,1142,0,0
-217,-118,0,0,0,0,0,0,0,0,0,-1,1007,1142,0,0
-210,-118,0,0,0,0,0,0,0,0,0,-1,1014,1142,0,0
-203,-118,0,0,0,0,0,0,0,0,0,-1,1021,1142,0,0
-196,-118,0,0,0,0,0,0,0,0,0,-1,1028,1142,0,0
-189,-118,0,0,0,0,0,0,0,0,0,-1,1035,1142,0,0
-182,-118,0,0,0,0,0,0,0,0,0,-1,1042,1142,0,0
-175,-118,0,0,0,0,0,0,0,0,0,-1,1049,1142,0,0
-168,-118,0,0,0,0,0,0,0,0,0,-1,1056,1142,0,0
-161,-118,0,0,0,0,0,0,0,0,0,-1,1063,1142,0,0
-154,-118,0,0,0,0,0,0,0,0,0,-1,1070,1142,0,0
-147,-118,0,0,0,0,0,0,0,0,0,-1,1077,1142,0,0
-140,-118,0,0,0,0,0,0,0,0,0,-1,1084,1142,0,0
-133,-118,0,0,0,0,0,0,0,0,0,-1,1091,1142,0,0
-126,-118,0,0,0,0,0,0,0,0,0,-1,1098,1142,0,0
-119,-118,0,0,0,0,0,0,0,0,0,-1,1105,1142,0,0
-112,-118,0,0,0,0,0,0,0,0,0,-1,1112,1142,0,0
-105,-118,0,0,0,0,0,0,0,0,0,-1,1119,1142,0,0
-98,-118,0,0,0,0,0,0,0,0,0,-1,1126,1142,0,0
-91,-118,0,0,0,0,0,0,0,0,0,-1,1133,1142,0,0
-84,-118,0,0,0,0,0,0,0,0,0,-1,1140,1142,0,0
-77,-118,0,0,0,0,0,0,0,0,0,-1,1147,1142,0,0
-70,-118,0,0,0,0,0,0,0,0,0,-1,1154,1142,0,0
-63,-118,0,0,0,0,0,0,0,0,0,-1,1161,1142,0,0
-56,-118,0,0,0,0,0,0,0,0,0,-1,1168,1142,0,0
-49,-118,0,0,0,0,0,0,0,0,0,-1,1175,1142,0,0
-42,-118,0,0,0,0,0,0,0,0,0,-1,1182,1142,0,0
-35,-118,0,0,0,0,0,0,0,0,0,-1,1189,1142,0,0
-28,-118,0,0,0,0,0,0,0,0,0,-1,1196,1142,0,0
-21,-118,0,0,0,0,0,0,0,0,0,-1,1203,1142,0,0
-14,-118,0,0,0,0,0,0,0,0,0,-1,1210,1142,0,0
-7,-118,0,0,0,0,0,0,0,0,0,-1,1217,1142,0,0
0,-118,0,0,0,0,0,0,0,0,0,-1,1224,1142,0,0
7,-118,0,0,0,0,0,0,0,0,0,-1,1231,1142,0,0
14,-118,0,0,0,0,0,0,0,0,0,-1,1238,1142,0,0
21,-118,0,0,0,0,0,0,0,0,0,-1,1245,1142,0,0
28,-118,0,0,0,0,0,0,0,0,0,-1,1252,1142,0,0
35,-118,0,0,0,0,0,0,0,0,0,-1,1259,1142,0,0
42,-118,0,0,0,0,0,0,0,0,0,-1,1266,1142,0,0
49,-118,0,0,0,0,0,0,0,0,0,-1,1273,1142,0,0
56,-118,0,0,0,0,0,0,0,0,0,-1,1280,1142,0,0
63,-118,0,0,0,0,0,0,0,0,0,-1,1287,1142,0,0
70,-118,0,0,0,0,0,0,0,0,0,-1,1294,1142,0,0
77,-118,0,0,0,0,0,0,0,0,0,-1,1301,1142,0,0
84,-118,0,0,0,0,0,0,0,0,0,-1,1308,1142,0,0
91,-118,0,0,0,0,0,0,0,0,0,-1,1315,1142,0,0
98,-118,0,0,0,0,0,0,0,0,0,-1,1322,1142,0,0
105,-118,0,0,0,0,0,0,0,0,0,-1,1329,1142,0,0
112,-118,0,0,0,0,0,0,0,0,0,-1,1336,1142,0,0
119,-118,0,0,0,0,0,0,0,0,0,-1,1343,1142,0,0
126,-118,0,0,0,0,0,0,0,0,0,-1,1350,1142,0,0
133,-118,0,0,0,0,0,0,0,0,0,-1,1357,1142,0,0
140,-118,0,0,0,0,0,0,0,0,0,-1,1364,1142,0,0
147,-118,0,0,0,0,0,0,0,0,0,-1,1371,1142,0,0
154,-118,0,0,0,0,0,0,0,0,0,-1,1378,1142,0,0
161,-118,0,0,0,0,0,0,0,0,0,-1,1385,1142,0,0
168,-118,0,0,0,0,0,0,0,0,0,-1,1392,1142,0,0
175,-118,0,0,0,0,0,0,0,0,0,-1,1399,1142,0,0
182,-118,0,0,0,0,0,0,0,0,0,-1,1406,1142,0,0
189,-118,0,0,0,0,0,0,0,0,0,-1,1413,1142,0,0
196,-118,0,0,0,0,0,0,0,0,0,-1,1420,1142,0,0
203,-118,0,0,0,0,0,0,0,0,0,-1,1427,1142,0,0
210,-118,0,0,0,0,0,0,0,0,0,-1,1434,1142,0,0
217,-118,0,0,0,0,0,0,0,0,0,-1,1441,1142,0,0
224,-118,0,0,0,0,0,0,0,0,0,-1,1448,1142,0,0
231,-118,0,0,0,0,0,0,0,0,0,-1,1455,1142,0,0
238,-118,0,0,0,0,0,0,0,0,0,-1,1462,1142,0,0
245,-118,0,0,0,0,0,0,0,0,0,-1,1469,1142,0,0
252,-118,0,0,0,0,0,0,0,0,0,-1,1476,1142,0,0
259,-118,0,0,0,0,0,0,0,0,0,-1,1483,1142,0,0
266,-118,0,0,0,0,0,0,0,0,0,-1,1490,1142,0,0
273,-118,0,0,0,0,0,0,0,0,0,-1,1497,1142,0,0
280,-118,0,0,0,0,0,0,0,0,0,-1,1504,1142,0,0
287,-118,0,0,0,0,0,0,0,0,0,-1,1511,1142,0,0
294,-118,0,0,0,0,0,0,0,0,0,-1,1518,1142,0,0
301,-118,0,0,0,0,0,0,0,0,0,-1,1525,1142,0,0
308,-118,0,0,0,0,0,0,0,0,0,-1,1532,1142,0,0
315,-118,0,0,0,0,0,0,0,0,0,-1,1539,1142,0,0
322,-118,0,0,0,0,0,0,0,0,0,-1,1546,1142,0,0
329,-118,0,0,0,0,0,0,0,0,0,-1,1553,1142,0,0
336,-118,0,0,0,0,0,0,0,0,0,-1,1560,1142,0,0
343,-118,0,0,0,0,0,0,0,0,0,-1,1567,1142,0,0
350,-118,0,0,0,0,0,0,0,0,0,-1,1574,1142,0,0
357,-118,0,0,0,0,0,0,0,0,0,-1,1581,1142,0,0
364,-118,0,0,0,0,0,0,0,0,0,-1,1588,1142,0,0
371,-118,0,0,0,0,0,0,0,0,0,-1,1595,1142,0,0
378,-118,0,0,0,0,0,0,0,0,0,-1,1602,1142,0,0
385,-118,0,0,0,0,0,0,0,0,0,-1,1609,1142,0,0
392,-118,0,0,0,0,0,0,0,0,0,-1,1616,1142,0,0
399,-118,0,0,0,0,0,0,0,0,0,-1,1623,1142,0,0
406,-118,0,0,0,0,0,0,0,0,0,-1,1630,1142,0,0
413,-118,0,0,0,0,0,0,0,0,0,-1,1637,1142,0,0
420,-118,0,0,0,0,0,0,0,0,0,-1,1644,1142,0,0
427,-118,0,0,0,0,0,0,0,0,0,-1,1651,1142,0,0
434,-118,0,0,0,0,0,0,0,0,0,-1,1658,1142,0,0
441,-118,0,0,0,0,0,0,0,0,0,-1,1665,1142,0,0
448,-118,0,0,0,0,0,0,0,0,0,-1,1672,1142,0,0
455,-118,0,0,0,0,0,0,0,0,0,-1,1679,1142,0,0
462,-118,0,0,0,0,0,0,0,0,0,-1,1686,1142,0,0
469,-118,0,0,0,0,0,0,0,0,0,-1,1693,1142,0,0
476,-118,0,0,0,0,0,0,0,0,0,-1,1700,1142,0,0
483,-118,0,0,0,0,0,0,0,0,0,-1,1707,1142,0,0
490,-118,0,0,0,0,0,0,0,0,0,-1,1714,1142,0,0
497,-118,0,0,0,0,0,0,0,0,0,-1,1721,1142,0,0
504,-118,0,0,0,0,0,0,0,0,0,-1,1728,1142,0,0
511,-118,0,0,0,0,0,0,0,0,0,-1,1735,1142,0,0
518,-118,0,0,0,0,0,0,0,0,0,-1,1742,1142,0,0
525,-118,0,0,0,0,0,0,0,0,0,-1,1749,1142,0,0
532,-118,0,0,0,0,0,0,0,0,0,-1,1756,1142,0,0
539,-118,0,0,0,0,0,0,0,0,0,-1,1763,1142,0,0
546,-118,0,0,0,0,0,0,0,0,0,-1,1770,1142,0,0
553,-118,0,0,0,0,0,0,0,0,0,-1,1777,1142,0,0
560,-118,0,0,0,0,0,0,0,0,0,-1,1784,1142,0,0
567,-118,0,0,0,0,0,0,0,0,0,-1,1791,1142,0,0
574,-118,0,0,0,0,0,0,0,0,0,-1,1798,1142,0,0
581,-118,0,0,0,0,0,0,0,0,0,-1,1805,1142,0,0
588,-118,0,0,0,0,0,0,0,0,0,-1,1812,1142,0,0
595,-118,0,0,0,0,0,0,0,0,0,-1,1819,1142,0,0
602,-118,0,0,0,0,0,0,0,0,0,-1,1826,1142,0,0
609,-118,0,0,0,0,0,0,0,0,0,-1,1833,1142,0,0
616,-118,0,0,0,0,0,0,0,0,0,-1,1840,1142,0,0
623,-118,0,0,0,0,0,0,0,0,0,-1,1847,1142,0,0
630,-118,0,0,0,0,0,0,0,0,0,-1,1854,1142,0,0
637,-118,0,0,0,0,0,0,0,0,0,-1,1861,1142,0,0
644,-118,78.6772,2.47595,0.00388343,-0.000599291,0.0038619,0.00610727,-0.00282312,0.522465,0.0052709,0.0411012,1868,1142,78.6773,-2.47598
651,-118,78.7352,2.44019,0.00213383,3.40517e-05,0.00285035,0.0041215,-0.00195361,0.60894,0.00358113,0.0414036,1875,1142,78.7352,-2.4402
658,-118,78.6814,2.48596,0.0013232,0.000222452,0.00199184,0.00283931,-0.00129365,0.650604,0.00244115,0.0424091,1882,1142,78.6814,-2.48601
665,-118,78.7717,2.53284,0.000917165,0.000274149,0.00119618,0.00183429,-0.000642976,0.654111,0.00148435,0.0434751,1889,1142,78.7717,-2.53282
672,-118,78.814,2.41663,0.000865724,0.000214444,0.000464995,0.00110777,-2.75967e-05,0.479932,0.000747879,0.0451612,1896,1142,78.814,-2.41668
679,-118,78.6919,2.23694,0.00125055,-8.45633e-05,4.453e-05,0.00125203,-8.60468e-05,0.0333036,0.000864799,0.042041,1903,1142,78.6918,-2.23688
686,-118,78.6969,2.26758,0.00175883,-0.000318142,-0.000222289,0.00178236,-0.000341666,-0.105434,0.00131698,0.0368321,1910,1142,78.6969,-2.26755
693,-118,78.6421,2.38684,0.00190076,-0.000426897,-0.000135092,0.00190857,-0.000434711,-0.0577791,0.00143934,0.0338591,1917,1142,78.642,-2.38681
700,-118,78.8064,2.40222,0.00205306,-0.000494289,3.12386e-06,0.00205306,-0.000494293,0.00122631,0.0015598,0.0234672,1924,1142,78.8064,-2.40228
707,-118,78.9274,2.59082,0,0,0,0,0,0,0,-1,1931,1142,78.9274,-2.59087
714,-118,50.4819,8.53809,0,0,0,0,0,0,0,-1,1938,1142,50.4819,-8.53809
721,-118,71.4279,10.473,0,0,0,0,0,0,0,-1,1945,1142,71.4279,-10.4731
728,-118,71.4624,9.77429,0.00159923,0.000475517,0.00106761,0.0022438,-0.000169058,0.543176,0.00155529,0.0241089,1952,1142,71.4624,-9.77431
735,-118,71.4408,9.1156,0.00162725,0.000806356,0.00153176,0.0028026,-0.000368991,0.654494,0.00200276,0.0237803,1959,1142,71.4408,-9.11557
742,-118,71.3323,8.49902,0.00130149,0.00149148,0.00188081,0.0032797,-0.000486727,0.810632,0.00236546,0.0354243,1966,1142,71.3323,-8.49897
749,-118,71.2148,7.81848,0.000492864,0.00246011,0.00220131,0.00388757,-0.00093459,0.995508,0.00295296,0.0260872,1973,1142,71.2149,-7.81852
756,-118,71.2532,7.09656,-0.000787158,0.00461649,0.0019851,0.00526734,-0.00143801,1.25397,0.00407634,0.0183301,1980,1142,71.2531,-7.0966
763,-118,71.2644,6.47388,-0.00192937,0.00864682,0.000722946,0.00869601,-0.00197856,1.50286,0.00655713,0.0109812,1987,1142,71.2643,-6.47391
770,-118,71.1409,5.86084,-0.00299876,0.0136677,-0.0012908,0.0137671,-0.00309814,-1.49396,0.0103663,0.0154768,1994,1142,71.1408,-5.86084
777,-118,70.9226,5.25867,-0.00423178,0.0201701,-0.00451472,0.0209786,-0.00504029,-1.39359,0.0159338,0.0348012,2001,1142,70.9226,-5.25869
784,-118,71.0884,4.5332,-0.00575562,0.0289411,-0.00951768,0.0313804,-0.00819493,-1.3199,0.0241205,0.0479511,2008,1142,71.0884,-4.53324
791,-118,71.3389,3.80383,0,0,0,0,0,0,0,-1,2015,1142,71.3389,-3.80386
798,-118,74.5918,-1.64709,0,0,0,0,0,0,0,-1,2022,1142,74.5918,1.64706
805,-118,74.2344,-2.30859,0,0,0,0,0,0,0,-1,2029,1142,74.2344,2.30864
812,-118,74.063,-3.09326,0,0,0,0,0,0,0,-1,2036,1142,74.0629,3.09323
-700,-125,0,0,0,0,0,0,0,0,0,-1,524,1149,0,0
-693,-125,-52.9986,-1.6189,0,0,0,0,0,0,0,-1,531,1149,-52.9986,1.61892
-686,-125,-52.0379,-0.0799561,0,0,0,0,0,0,0,-1,538,1149,-52.0379,0.0799827
-679,-125,-51.9518,-0.0285645,0,0,0,0,0,0,0,-1,545,1149,-51.9517,0.0285642
-672,-125,-51.8656,0.0228271,0,0,0,0,0,0,0,-1,552,1149,-51.8656,-0.0228543
-665,-125,-60.4668,-10.4543,0,0,0,0,0,0,0,-1,559,1149,-60.4668,10.4543
-658,-125,-53.4769,1.33105,0,0,0,0,0,0,0,-1,566,1149,-53.4769,-1.33109
-651,-125,-54.1135,3.81348,0,0,0,0,0,0,0,-1,573,1149,-54.1135,-3.81347
-644,-125,-54.4852,4.4895,-0.0067601,0.0107554,-0.00701609,0.0132192,-0.00922393,-1.23308,0.0130258,0.0390427,580,1149,-54.4852,-4.4895
-637,-125,-54.6906,5.12854,-0.00828366,0.00733486,-0.00496714,0.0087807,-0.0097295,-1.28754,0.0106916,0.0165751,587,1149,-54.6906,-5.12859
-630,-125,-54.6948,5.79761,-0.0093223,0.00479382,-0.00387956,0.00578977,-0.0103183,-1.3195,0.00942169,0.0154715,594,1149,-54.6948,-5.79758
-623,-125,-54.7068,6.50464,-0.00999067,0.00241122,-0.00405342,0.00361851,-0.011198,-1.28132,0.00891959,0.0137679,601,1149,-54.7069,-6.50468
-616,-125,-54.8149,7.14075,-0.00982052,0.0016622,-0.00452384,0.00323031,-0.0113886,-1.23712,0.00886753,0.0387864,608,1149,-54.8149,-7.1408
-609,-125,-55.1551,7.64233,0,0,0,0,0,0,0,-1,615,1149,-55.1551,-7.64233
-602,-125,-54.7005,7.66113,0,0,0,0,0,0,0,-1,622,1149,-54.7005,-7.66115
-595,-125,-53.7122,8.547,0,0,0,0,0,0,0,-1,629,1149,-53.7121,-8.54701
-588,-125,-52.7238,9.43286,0,0,0,0,0,0,0,-1,636,1149,-52.7238,-9.43287
-581,-125,-26.4055,4.83203,0,0,0,0,0,0,0,-1,643,1149,-26.4055,-4.83204
-574,-125,-37.674,0.655151,0,0,0,0,0,0,0,-1,650,1149,-37.674,-0.655195
-567,-125,-62.2719,0.588257,0,0,0,0,0,0,0,-1,657,1149,-62.2719,-0.588318
-560,-125,-62.2557,0.444336,-0.00129377,-0.00102744,-0.00412283,0.00296438,-0.00528559,-0.801542,0.00482556,0.0375146,664,1149,-62.2558,-0.444307
-553,-125,-62.1798,0.308716,0.000400428,-0.00113668,-0.0034438,0.00316039,-0.00389664,-0.675612,0.00408176,0.0397297,671,1149,-62.1798,-0.308686
-546,-125,-62.1472,0.237915,0.000252849,-0.000320926,-0.00235302,0.00233641,-0.00240449,-0.724736,0.00273725,0.0401093,678,1149,-62.1471,-0.237858
-539,-125,-62.3707,0.641357,0.000125532,0.000219701,-0.00120046,0.001374,-0.00102877,-0.804999,0.001392,0.0388737,685,1149,-62.3707,-0.641327
-532,-125,-62.511,0.75769,0.000206764,0.000582411,-0.00023923,0.00069874,9.04352e-05,-1.1182,0.000438799,0.037762,692,1149,-62.511,-0.75775
-525,-125,-62.368,0.572144,0.000549447,0.000831427,0.000512888,0.00122235,0.000158523,0.919532,0.000767536,0.0416319,699,1149,-62.368,-0.572087
-518,-125,0,0,0,0,0,0,0,0,0,-1,706,1149,0,0
-511,-125,0,0,0,0,0,0,0,0,0,-1,713,1149,0,0
-504,-125,0,0,0,0,0,0,0,0,0,-1,720,1149,0,0
-497,-125,0,0,0,0,0,0,0,0,0,-1,727,1149,0,0
-490,-125,0,0,0,0,0,0,0,0,0,-1,734,1149,0,0
-483,-125,0,0,0,0,0,0,0,0,0,-1,741,1149,0,0
-476,-125,0,0,0,0,0,0,0,0,0,-1,748,1149,0,0
-469,-125,0,0,0,0,0,0,0,0,0,-1,755,1149,0,0
-462,-125,0,0,0,0,0,0,0,0,0,-1,762,1149,0,0
-455,-125,0,0,0,0,0,0,0,0,0,-1,769,1149,0,0
-448,-125,0,0,0,0,0,0,0,0,0,-1,776,1149,0,0
-441,-125,0,0,0,0,0,0,0,0,0,-1,783,1149,0,0
-434,-125,0,0,0,0,0,0,0,0,0,-1,790,1149,0,0
-427,-125,0,0,0,0,0,0,0,0,0,-1,797,1149,0,0
-420,-125,0,0,0,0,0,0,0,0,0,-1,804,1149,0,0
-413,-125,0,0,0,0,0,0,0,0,0,-1,811,1149,0,0
-406,-125,0,0,0,0,0,0,0,0,0,-1,818,1149,0,0
-399,-125,0,0,0,0,0,0,0,0,0,-1,825,1149,0,0
-392,-125,0,0,0,0,0,0,0,0,0,-1,832,1149,0,0
-385,-125,0,0,0,0,0,0,0,0,0,-1,839,1149,0,0
-378,-125,0,0,0,0,0,0,0,0,0,-1,846,1149,0,0
-371,-125,0,0,0,0,0,0,0,0,0,-1,853,1149,0,0
-364,-125,0,0,0,0,0,0,0,0,0,-1,860,1149,0,0
-357,-125,0,0,0,0,0,0,0,0,0,-1,867,1149,0,0
-350,-125,0,0,0,0,0,0,0,0,0,-1,874,1149,0,0
-343,-125,0,0,0,0,0,0,0,0,0,-1,881,1149,0,0
-336,-125,0,0,0,0,0,0,0,0,0,-1,888,1149,0,0
-329,-125,0,0,0,0,0,0,0,0,0,-1,895,1149,0,0
-322,-125,0,0,0,0,0,0,0,0,0,-1,902,1149,0,0
-315,-125,0,0,0,0,0,0,0,0,0,-1,909,1149,0,0
-308,-125,0,0,0,0,0,0,0,0,0,-1,916,1149,0,0
-301,-125,0,0,0,0,0,0,0,0,0,-1,923,1149,0,0
-294,-125,0,0,0,0,0,0,0,0,0,-1,930,1149,0,0
-287,-125,0,0,0,0,0,0,0,0,0,-1,937,1149,0,0
-280,-125,0,0,0,0,0,0,0,0,0,-1,944,1149,0,0
-273,-125,0,0,0,0,0,0,0,0,0,-1,951,1149,0,0
-266,-125,0,0,0,0,0,0,0,0,0,-1,958,1149,0,0
-259,-125,0,0,0,0,0,0,0,0,0,-1,965,1149,0,0
-252,-125,0,0,0,0,0,0,0,0,0,-1,972,1149,0,0
-245,-125,0,0,0,0,0,0,0,0,0,-1,979,1149,0,0
-238,-125,0,0,0,0,0,0,0,0,0,-1,986,1149,0,0
-231,-125,0,0,0,0,0,0,0,0,0,-1,993,1149,0,0
-224,-125,0,0,0,0,0,0,0,0,0,-1,1000,1149,0,0
-217,-125,0,0,0,0,0,0,0,0,0,-1,1007,1149,0,0
-210,-125,0,0,0,0,0,0,0,0,0,-1,1014,1149,0,0
-203,-125,0,0,0,0,0,0,0,0,0,-1,1021,1149,0,0
-196,-125,0,0,0,0,0,0,0,0,0,-1,1028,1149,0,0
-189,-125,0,0,0,0,0,0,0,0,0,-1,1035,1149,0,0
-182,-125,0,0,0,0,0,0,0,0,0,-1,1042,1149,0,0
-175,-125,0,0,0,0,0,0,0,0,0,-1,1049,1149,0,0
-168,-125,0,0,0,0,0,0,0,0,0,-1,1056,1149,0,0
-161,-125,0,0,0,0,0,0,0,0,0,-1,1063,1149,0,0
-154,-125,0,0,0,0,0,0,0,0,0,-1,1070,1149,0,0
-147,-125,0,0,0,0,0,0,0,0,0,-1,1077,1149,0,0
-140,-125,0,0,0,0,0,0,0,0,0,-1,1084,1149,0,0
-133,-125,0,0,0,0,0,0,0,0,0,-1,1091,1149,0,0
-126,-125,0,0,0,0,0,0,0,0,0,-1,1098,1149,0,0
-119,-125,0,0,0,0,0,0,0,0,0,-1,1105,1149,0,0
-112,-125,0,0,0,0,0,0,0,0,0,-1,1112,1149,0,0
-105,-125,0,0,0,0,0,0,0,0,0,-1,1119,1149,0,0
-98,-125,0,0,0,0,0,0,0,0,0,-1,1126,1149,0,0
-91,-125,0,0,0,0,0,0,0,0,0,-1,1133,1149,0,0
-84,-125,0,0,0,0,0,0,0,0,0,-1,1140,1149,0,0
-77,-125,0,0,0,0,0,0,0,0,0,-1,1147,1149,0,0
-70,-125,0,0,0,0,0,0,0,0,0,-1,1154,1149,0,0
-63,-125,0,0,0,0,0,0,0,0,0,-1,1161,1149,0,0
-56,-125,0,0,0,0,0,0,0,0,0,-1,1168,1149,0,0
-49,-125,0,0,0,0,0,0,0,0,0,-1,1175,1149,0,0
-42,-125,0,0,0,0,0,0,0,0,0,-1,1182,1149,0,0
-35,-125,0,0,0,0,0,0,0,0,0,-1,1189,1149,0,0
-28,-125,0,0,0,0,0,0,0,0,0,-1,1196,1149,0,0
-21,-125,0,0,0,0,0,0,0,0,0,-1,1203,1149,0,0
-14,-125,0,0,0,0,0,0,0,0,0,-1,1210,1149,0,0
-7,-125,0,0,0,0,0,0,0,0,0,-1,1217,1149,0,0
0,-125,0,0,0,0,0,0,0,0,0,-1,1224,1149,0,0
7,-125,0,0,0,0,0,0,0,0,0,-1,1231,1149,0,0
14,-125,0,0,0,0,0,0,0,0,0,-1,1238,1149,0,0
21,-125,0,0,0,0,0,0,0,0,0,-1,1245,1149,0,0
28,-125,0,0,0,0,0,0,0,0,0,-1,1252,1149,0,0
35,-125,0,0,0,0,0,0,0,0,0,-1,1259,1149,0,0
42,-125,0,0,0,0,0,0,0,0,0,-1,1266,1149,0,0
49,-125,0,0,0,0,0,0,0,0,0,-1,1273,1149,0,0
56,-125,0,0,0,0,0,0,0,0,0,-1,1280,1149,0,0
63,-125,0,0,0,0,0,0,0,0,0,-1,1287,1149,0,0
70,-125,0,0,0,0,0,0,0,0,0,-1,1294,1149,0,0
77,-125,0,0,0,0,0,0,0,0,0,-1,1301,1149,0,0
84,-125,0,0,0,0,0,0,0,0,0,-1,1308,1149,0,0
91,-125,0,0,0,0,0,0,0,0,0,-1,1315,1149,0,0
98,-125,0,0,0,0,0,0,0,0,0,-1,1322,1149,0,0
105,-125,0,0,0,0,0,0,0,0,0,-1,1329,1149,0,0
112,-125,0,0,0,0,0,0,0,0,0,-1,1336,1149,0,0
119,-125,0,0,0,0,0,0,0,0,0,-1,1343,1149,0,0
126,-125,0,0,0,0,0,0,0,0,0,-1,1350,1149,0,0
133,-125,0,0,0,0,0,0,0,0,0,-1,1357,1149,0,0
140,-125,0,0,0,0,0,0,0,0,0,-1,1364,1149,0,0
147,-125,0,0,0,0,0,0,0,0,0,-1,1371,1149,0,0
154,-125,0,0,0,0,0,0,0,0,0,-1,1378,1149,0,0
161,-125,0,0,0,0,0,0,0,0,0,-1,1385,1149,0,0
168,-125,0,0,0,0,0,0,0,0,0,-1,1392,1149,0,0
175,-125,0,0,0,0,0,0,0,0,0,-1,1399,1149,0,0
182,-125,0,0,0,0,0,0,0,0,0,-1,1406,1149,0,0
189,-125,0,0,0,0,0,0,0,0,0,-1,1413,1149,0,0
196,-125,0,0,0,0,0,0,0,0,0,-1,1420,1149,0,0
203,-125,0,0,0,0,0,0,0,0,0,-1,1427,1149,0,0
210,-125,0,0,0,0,0,0,0,0,0,-1,1434,1149,0,0
217,-125,0,0,0,0,0,0,0,0,0,-1,1441,1149,0,0
224,-125,0,0,0,0,0,0,0,0,0,-1,1448,1149,0,0
231,-125,0,0,0,0,0,0,0,0,0,-1,1455,1149,0,0
238,-125,0,0,0,0,0,0,0,0,0,-1,1462,1149,0,0
245,-125,0,0,0,0,0,0,0,0,0,-1,1469,1149,0,0
252,-125,0,0,0,0,0,0,0,0,0,-1,1476,1149,0,0
259,-125,0,0,0,0,0,0,0,0,0,-1,1483,1149,0,0
266,-125,0,0,0,0,0,0,0,0,0,-1,1490,1149,0,0
273,-125,0,0,0,0,0,0,0,0,0,-1,1497,1149,0,0
280,-125,0,0,0,0,0,0,0,0,0,-1,1504,1149,0,0
287,-125,0,0,0,0,0,0,0,0,0,-1,1511,1149,0,0
294,-125,0,0,0,0,0,0,0,0,0,-1,1518,1149,0,0
301,-125,0,0,0,0,0,0,0,0,0,-1,1525,1149,0,0
308,-125,0,0,0,0,0,0,0,0,0,-1,1532,1149,0,0
315,-125,0,0,0,0,0,0,0,0,0,-1,1539,1149,0,0
322,-125,0,0,0,0,0,0,0,0,0,-1,1546,1149,0,0
329,-125,0,0,0,0,0,0,0,0,0,-1,1553,1149,0,0
336,-125,0,0,0,0,0,0,0,0,0,-1,1560,1149,0,0
343,-125,0,0,0,0,0,0,0,0,0,-1,1567,1149,0,0
350,-125,0,0,0,0,0,0,0,0,0,-1,1574,1149,0,0
357,-125,0,0,0,0,0,0,0,0,0,-1,1581,1149,0,0
364,-125,0,0,0,0,0,0,0,0,0,-1,1588,1149,0,0
371,-125,0,0,0,0,0,0,0,0,0,-1,1595,1149,0,0
378,-125,0,0,0,0,0,0,0,0,0,-1,1602,1149,0,0
385,-125,0,0,0,0,0,0,0,0,0,-1,1609,1149,0,0
392,-125,0,0,0,0,0,0,0,0,0,-1,1616,1149,0,0
399,-125,0,0,0,0,0,0,0,0,0,-1,1623,1149,0,0
406,-125,0,0,0,0,0,0,0,0,0,-1,1630,1149,0,0
413,-125,0,0,0,0,0,0,0,0,0,-1,1637,1149,0,0
420,-125,0,0,0,0,0,0,0,0,0,-1,1644,1149,0,0
427,-125,0,0,0,0,0,0,0,0,0,-1,1651,1149,0,0
434,-125,0,0,0,0,0,0,0,0,0,-1,1658,1149,0,0
441,-125,0,0,0,0,0,0,0,0,0,-1,1665,1149,0,0
448,-125,0,0,0,0,0,0,0,0,0,-1,1672,1149,0,0
455,-125,0,0,0,0,0,0,0,0,0,-1,1679,1149,0,0
462,-125,0,0,0,0,0,0,0,0,0,-1,1686,1149,0,0
469,-125,0,0,0,0,0,0,0,0,0,-1,1693,1149,0,0
476,-125,0,0,0,0,0,0,0,0,0,-1,1700,1149,0,0
483,-125,0,0,0,0,0,0,0,0,0,-1,1707,1149,0,0
490,-125,0,0,0,0,0,0,0,0,0,-1,1714,1149,0,0
497,-125,0,0,0,0,0,0,0,0,0,-1,1721,1149,0,0
504,-125,0,0,0,0,0,0,0,0,0,-1,1728,1149,0,0
511,-125,0,0,0,0,0,0,0,0,0,-1,1735,1149,0,0
518,-125,0,0,0,0,0,0,0,0,0,-1,1742,1149,0,0
525,-125,0,0,0,0,0,0,0,0,0,-1,1749,1149,0,0
532,-125,0,0,0,0,0,0,0,0,0,-1,1756,1149,0,0
539,-125,0,0,0,0,0,0,0,0,0,-1,1763,1149,0,0
546,-125,0,0,0,0,0,0,0,0,0,-1,1770,1149,0,0
553,-125,0,0,0,0,0,0,0,0,0,-1,1777,1149,0,0
560,-125,0,0,0,0,0,0,0,0,0,-1,1784,1149,0,0
567,-125,0,0,0,0,0,0,0,0,0,-1,1791,1149,0,0
574,-125,0,0,0,0,0,0,0,0,0,-1,1798,1149,0,0
581,-125,0,0,0,0,0,0,0,0,0,-1,1805,1149,0,0
588,-125,0,0,0,0,0,0,0,0,0,-1,1812,1149,0,0
595,-125,0,0,0,0,0,0,0,0,0,-1,1819,1149,0,0
602,-125,0,0,0,0,0,0,0,0,0,-1,1826,1149,0,0
609,-125,0,0,0,0,0,0,0,0,0,-1,1833,1149,0,0
616,-125,0,0,0,0,0,0,0,0,0,-1,1840,1149,0,0
623,-125,0,0,0,0,0,0,0,0,0,-1,1847,1149,0,0
630,-125,0,0,0,0,0,0,0,0,0,-1,1854,1149,0,0
637,-125,0,0,0,0,0,0,0,0,0,-1,1861,1149,0,0
644,-125,78.8363,1.93445,0.00379252,-0.00147643,0.00318969,0.00529503,-0.00297894,0.44022,0.00483896,0.0389835,1868,1149,78.8363,-1.93442
651,-125,78.8097,2.16064,0.00211457,-0.000648684,0.00236305,0.00347026,-0.00200437,0.520859,0.00319833,0.0398085,1875,1149,78.8097,-2.16059
658,-125,78.5443,2.41919,0.00128964,-0.000288787,0.00161065,0.00229404,-0.00129319,0.557592,0.00209779,0.0421355,1882,1149,78.5444,-2.41924
665,-125,78.6165,2.52209,0.000842862,-9.59811e-05,0.00086928,0.00136137,-0.000614489,0.537827,0.00116761,0.0429212,1889,1149,78.6165,-2.52214
672,-125,78.6973,2.35645,0.000750423,-3.45466e-05,0.000161375,0.000782304,-6.64274e-05,0.195046,0.00054503,0.0431581,1896,1149,78.6972,-2.35638
679,-125,78.7196,2.33813,0.00111095,-0.000293641,-0.000211068,0.00114198,-0.000324672,-0.145977,0.000889519,0.0402147,1903,1149,78.7196,-2.33819
686,-125,78.7019,2.41992,0.00174254,-0.000398752,-0.000455037,0.00183523,-0.000491438,-0.20094,0.00141602,0.0360126,1910,1149,78.702,-2.41995
693,-125,78.6322,2.38647,0.00193192,-0.000413303,-0.00032488,0.0019761,-0.000457476,-0.135138,0.00149343,0.0310894,1917,1149,78.6322,-2.3865
700,-125,78.7922,2.42957,0.00208059,-0.000405698,-0.000138684,0.0020883,-0.000413409,-0.0555501,0.00154851,0.0209852,1924,1149,78.7922,-2.42951
707,-125,78.9635,2.57935,0,0,0,0,0,0,0,-1,1931,1149,78.9635,-2.57939
714,-125,54.8745,9.21375,0,0,0,0,0,0,0,-1,1938,1149,54.8746,-9.21371
721,-125,70.6517,10.5408,0,0,0,0,0,0,0,-1,1945,1149,70.6518,-10.5408
728,-125,70.6853,9.89307,0.00201857,0.000430718,0.000965933,0.00247498,-2.56939e-05,0.441414,0.00165862,0.0213074,1952,1149,70.6853,-9.89302
735,-125,70.6777,9.25,0.00222999,0.000697997,0.00150626,0.00315383,-0.000225846,0.550168,0.00218174,0.0238736,1959,1149,70.6777,-9.25004
742,-125,70.5673,8.56201,0.00204714,0.00132011,0.00189232,0.00361054,-0.000243287,0.690503,0.00249209,0.0357569,1966,1149,70.5673,-8.56198
749,-125,70.467,7.90894,0.00128416,0.00238818,0.0022384,0.00414164,-0.00046929,0.906291,0.00293007,0.0278138,1973,1149,70.4671,-7.9089
756,-125,70.5334,7.12805,0.000182039,0.0047205,0.00218934,0.00560446,-0.000701919,1.18706,0.00399091,0.0226796,1980,1149,70.5336,-7.12802
763,-125,70.5303,6.47888,-0.000667239,0.00903491,0.0011048,0.00915913,-0.000791453,1.45883,0.00638627,0.0131774,1987,1149,70.5302,-6.47893
770,-125,70.4387,5.8175,-0.00137066,0.0143919,-0.00068341,0.0144214,-0.00140023,-1.52755,0.0101134,0.0175563,1994,1149,70.4388,-5.81747
777,-125,70.2991,5.27649,-0.00216113,0.0213145,-0.00363299,0.0218639,-0.0027105,-1.42072,0.0155583,0.0359497,2001,1149,70.2992,-5.27648
784,-125,70.2473,4.59424,0,0,0,0,0,0,0,-1,2008,1149,70.2474,-4.59428
791,-125,73.3032,-2.01965,0,0,0,0,0,0,0,-1,2015,1149,73.3032,2.01964
798,-125,73.0706,-3.13586,0,0,0,0,0,0,0,-1,2022,1149,73.0705,3.13581
805,-125,73.2634,-4.34607,0,0,0,0,0,0,0,-1,2029,1149,73.2634,4.34607
812,-125,73.3831,0.178101,0,0,0,0,0,0,0,-1,2036,1149,73.383,-0.17812
-700,-132,0,0,0,0,0,0,0,0,0,-1,524,1156,0,0
-693,-132,-49.0856,0.425293,0,0,0,0,0,0,0,-1,531,1156,-49.0856,-0.425308
-686,-132,-49.2548,1.69592,0,0,0,0,0,0,0,-1,538,1156,-49.2547,-1.69596
-679,-132,-50.7766,-0.131836,0,0,0,0,0,0,0,-1,545,1156,-50.7766,0.131788
-672,-132,-59.7148,-11.8569,0,0,0,0,0,0,0,-1,552,1156,-59.7148,11.857
-665,-132,-60.5032,-11.6488,0,0,0,0,0,0,0,-1,559,1156,-60.5032,11.6488
-658,-132,-54.48,1.67627,0,0,0,0,0,0,0,-1,566,1156,-54.48,-1.67633
-651,-132,-54.1329,3.04944,0,0,0,0,0,0,0,-1,573,1156,-54.1329,-3.04944
-644,-132,-53.812,4.39258,-0.00432714,0.00969827,-0.00812519,0.0134185,-0.00804741,-1.14142,0.012522,0.0318114,580,1156,-53.8119,-4.39263
-637,-132,-53.961,5.11194,-0.00636629,0.00647905,-0.00583096,0.0087311,-0.00861835,-1.20222,0.0100168,0.015532,587,1156,-53.961,-5.11192
-630,-132,-53.9644,5.81018,-0.00796261,0.00436598,-0.00454254,0.00585892,-0.00945555,-1.25326,0.00892272,0.0109289,594,1156,-53.9644,-5.81023
-623,-132,-54.0108,6.54761,-0.00938476,0.0023751,-0.00426977,0.00376184,-0.0107715,-1.25676,0.00871008,0.0159183,601,1156,-54.0108,-6.54766
-616,-132,-54.158,7.07422,-0.0095918,0.00168072,-0.00454266,0.00328347,-0.0111945,-1.23161,0.00876498,0.0483675,608,1156,-54.158,-7.07421
-609,-132,-54.1683,8.08203,0,0,0,0,0,0,0,-1,615,1156,-54.1683,-8.08207
-602,-132,-51.2123,7.94373,0,0,0,0,0,0,0,-1,622,1156,-51.2123,-7.94373
-595,-132,-53.017,8.81567,0,0,0,0,0,0,0,-1,629,1156,-53.017,-8.81568
-588,-132,-42.6534,6.92969,0,0,0,0,0,0,0,-1,636,1156,-42.6535,-6.92967
-581,-132,-35.9343,6.42957,0,0,0,0,0,0,0,-1,643,1156,-35.9342,-6.42957
-574,-132,-33.2071,2.86963,0,0,0,0,0,0,0,-1,650,1156,-33.2071,-2.86963
-567,-132,-62.2888,0.61853,0,0,0,0,0,0,0,-1,657,1156,-62.2888,-0.618525
-560,-132,-62.2377,0.421997,-0.00200619,-0.00166984,-0.00431038,0.00247564,-0.00615167,-0.804896,0.00512949,0.0360446,664,1156,-62.2377,-0.421986
-553,-132,-62.1837,0.24585,-0.00026102,-0.00202254,-0.00381887,0.00277734,-0.0050609,-0.672063,0.00458898,0.0397749,671,1156,-62.1837,-0.245877
-546,-132,-62.1438,0.0863037,-0.000240291,-0.00118498,-0.00288509,0.00221086,-0.00363614,-0.704258,0.00340903,0.0418055,678,1156,-62.1438,-0.0863285
-539,-132,-62.202,0.368286,-0.000111387,-0.000434506,-0.00177353,0.00150792,-0.00205382,-0.739976,0.00206441,0.0401922,685,1156,-62.202,-0.368247
-532,-132,-62.274,0.554321,0.000181164,0.00014811,-0.000790439,0.000955249,-0.000625975,-0.774945,0.000919494,0.040767,692,1156,-62.2741,-0.554336
-525,-132,-62.3395,0.563965,0.00069067,0.000571113,-1.22358e-05,0.000691909,0.000569874,-0.100949,0.000426455,0.0420458,699,1156,-62.3396,-0.563905
-518,-132,0,0,0,0,0,0,0,0,0,-1,706,1156,0,0
-511,-132,0,0,0,0,0,0,0,0,0,-1,713,1156,0,0
-504,-132,0,0,0,0,0,0,0,0,0,-1,720,1156,0,0
-497,-132,0,0,0,0,0,0,0,0,0,-1,727,1156,0,0
-490,-132,0,0,0,0,0,0,0,0,0,-1,734,1156,0,0
-483,-132,0,0,0,0,0,0,0,0,0,-1,741,1156,0,0
-476,-132,0,0,0,0,0,0,0,0,0,-1,748,1156,0,0
-469,-132,0,0,0,0,0,0,0,0,0,-1,755,1156,0,0
-462,-132,0,0,0,0,0,0,0,0,0,-1,762,1156,0,0
-455,-132,0,0,0,0,0,0,0,0,0,-1,769,1156,0,0
-448,-132,0,0,0,0,0,0,0,0,0,-1,776,1156,0,0
-441,-132,0,0,0,0,0,0,0,0,0,-1,783,1156,0,0
-434,-132,0,0,0,0,0,0,0,0,0,-1,790,1156,0,0
-427,-132,0,0,0,0,0,0,0,0,0,-1,797,1156,0,0
-420,-132,0,0,0,0,0,0,0,0,0,-1,804,1156,0,0
-413,-132,0,0,0,0,0,0,0,0,0,-1,811,1156,0,0
-406,-132,0,0,0,0,0,0,0,0,0,-1,818,1156,0,0
-399,-132,0,0,0,0,0,0,0,0,0,-1,825,1156,0,0
-392,-132,0,0,0,0,0,0,0,0,0,-1,832,1156,0,0
-385,-132,0,0,0,0,0,0,0,0,0,-1,839,1156,0,0
-378,-132,0,0,0,0,0,0,0,0,0,-1,846,1156,0,0
-371,-132,0,0,0,0,0,0,0,0,0,-1,853,1156,0,0
-364,-132,0,0,0,0,0,0,0,0,0,-1,860,1156,0,0
-357,-132,0,0,0,0,0,0,0,0,0,-1,867,1156,0,0
-350,-132,0,0,0,0,0,0,0,0,0,-1,874,1156,0,0
-343,-132,0,0,0,0,0,0,0,0,0,-1,881,1156,0,0
-336,-132,0,0,0,0,0,0,0,0,0,-1,888,1156,0,0
-329,-132,0,0,0,0,0,0,0,0,0,-1,895,1156,0,0
-322,-132,0,0,0,0,0,0,0,0,0,-1,902,1156,0,0
-315,-132,0,0,0,0,0,0,0,0,0,-1,909,1156,0,0
-308,-132,0,0,0,0,0,0,0,0,0,-1,916,1156,0,0
-301,-132,0,0,0,0,0,0,0,0,0,-1,923,1156,0,0
-294,-132,0,0,0,0,0,0,0,0,0,-1,930,1156,0,0
-287,-132,0,0,0,0,0,0,0,0,0,-1,937,1156,0,0
-280,-132,0,0,0,0,0,0,0,0,0,-1,944,1156,0,0
-273,-132,0,0,0,0,0,0,0,0,0,-1,951,1156,0,0
-266,-132,0,0,0,0,0,0,0,0,0,-1,958,1156,0,0
-259,-132,0,0,0,0,0,0,0,0,0,-1,965,1156,0,0
-252,-132,0,0,0,0,0,0,0,0,0,-1,972,1156,0,0
-245,-132,0,0,0,0,0,0,0,0,0,-1,979,1156,0,0
-238,-132,0,0,0,0,0,0,0,0,0,-1,986,1156,0,0
-231,-132,0,0,0,0,0,0,0,0,0,-1,993,1156,0,0
-224,-132,0,0,0,0,0,0,0,0,0,-1,1000,1156,0,0
-217,-132,0,0,0,0,0,0,0,0,0,-1,1007,1156,0,0
-210,-132,0,0,0,0,0,0,0,0,0,-1,1014,1156,0,0
-203,-132,0,0,0,0,0,0,0,0,0,-1,1021,1156,0,0
-196,-132,0,0,0,0,0,0,0,0,0,-1,1028,1156,0,0
-189,-132,0,0,0,0,0,0,0,0,0,-1,1035,1156,0,0
-182,-132,0,0,0,0,0,0,0,0,0,-1,1042,1156,0,0
-175,-132,0,0,0,0,0,0,0,0,0,-1,1049,1156,0,0
-168,-132,0,0,0,0,0,0,0,0,0,-1,1056,1156,0,0
-161,-132,0,0,0,0,0,0,0,0,0,-1,1063,1156,0,0
-154,-132,0,0,0,0,0,0,0,0,0,-1,1070,1156,0,0
-147,-132,0,0,0,0,0,0,0,0,0,-1,1077,1156,0,0
-140,-132,0,0,0,0,0,0,0,0,0,-1,1084,1156,0,0
-133,-132,0,0,0,0,0,0,0,0,0,-1,1091,1156,0,0
-126,-132,0,0,0,0,0,0,0,0,0,-1,1098,1156,0,0
-119,-132,0,0,0,0,0,0,0,0,0,-1,1105,1156,0,0
-112,-132,0,0,0,0,0,0,0,0,0,-1,1112,1156,0,0
-105,-132,0,0,0,0,0,0,0,0,0,-1,1119,1156,0,0
-98,-132,0,0,0,0,0,0,0,0,0,-1,1126,1156,0,0
-91,-132,0,0,0,0,0,0,0,0,0,-1,1133,1156,0,0
-84,-132,0,0,0,0,0,0,0,0,0,-1,1140,1156,0,0
-77,-132,0,0,0,0,0,0,0,0,0,-1,1147,1156,0,0
-70,-132,0,0,0,0,0,0,0,0,0,-1,1154,1156,0,0
-63,-132,0,0,0,0,0,0,0,0,0,-1,1161,1156,0,0
-56,-132,0,0,0,0,0,0,0,0,0,-1,1168,1156,0,0
-49,-132,0,0,0,0,0,0,0,0,0,-1,1175,1156,0,0
-42,-132,0,0,0,0,0,0,0,0,0,-1,1182,1156,0,0
-35,-132,0,0,0,0,0,0,0,0,0,-1,1189,1156,0,0
-28,-132,0,0,0,0,0,0,0,0,0,-1,1196,1156,0,0
-21,-132,0,0,0,0,0,0,0,0,0,-1,1203,1156,0,0
-14,-132,0,0,0,0,0,0,0,0,0,-1,1210,1156,0,0
-7,-132,0,0,0,0,0,0,0,0,0,-1,1217,1156,0,0
0,-132,0,0,0,0,0,0,0,0,0,-1,1224,1156,0,0
7,-132,0,0,0,0,0,0,0,0,0,-1,1231,1156,0,0
14,-132,0,0,0,0,0,0,0,0,0,-1,1238,1156,0,0
21,-132,0,0,0,0,0,0,0,0,0,-1,1245,1156,0,0
28,-132,0,0,0,0,0,0,0,0,0,-1,1252,1156,0,0
35,-132,0,0,0,0,0,0,0,0,0,-1,1259,1156,0,0
42,-132,0,0,0,0,0,0,0,0,0,-1,1266,1156,0,0
49,-132,0,0,0,0,0,0,0,0,0,-1,1273,1156,0,0
56,-132,0,0,0,0,0,0,0,0,0,-1,1280,1156,0,0
63,-132,0,0,0,0,0,0,0,0,0,-1,1287,1156,0,0
70,-132,0,0,0,0,0,0,0,0,0,-1,1294,1156,0,0
77,-132,0,0,0,0,0,0,0,0,0,-1,1301,1156,0,0
84,-132,0,0,0,0,0,0,0,0,0,-1,1308,1156,0,0
91,-132,0,0,0,0,0,0,0,0,0,-1,1315,1156,0,0
98,-132,0,0,0,0,0,0,0,0,0,-1,1322,1156,0,0
105,-132,0,0,0,0,0,0,0,0,0,-1,1329,1156,0,0
112,-132,0,0,0,0,0,0,0,0,0,-1,1336,1156,0,0
119,-132,0,0,0,0,0,0,0,0,0,-1,1343,1156,0,0
126,-132,0,0,0,0,0,0,0,0,0,-1,1350,1156,0,0
133,-132,0,0,0,0,0,0,0,0,0,-1,1357,1156,0,0
140,-132,0,0,0,0,0,0,0,0,0,-1,1364,1156,0,0
147,-132,0,0,0,0,0,0,0,0,0,-1,1371,1156,0,0
154,-132,0,0,0,0,0,0,0,0,0,-1,1378,1156,0,0
161,-132,0,0,0,0,0,0,0,0,0,-1,1385,1156,0,0
168,-132,0,0,0,0,0,0,0,0,0,-1,1392,1156,0,0
175,-132,0,0,0,0,0,0,0,0,0,-1,1399,1156,0,0
182,-132,0,0,0,0,0,0,0,0,0,-1,1406,1156,0,0
189,-132,0,0,0,0,0,0,0,0,0,-1,1413,1156,0,0
196,-132,0,0,0,0,0,0,0,0,0,-1,1420,1156,0,0
203,-132,0,0,0,0,0,0,0,0,0,-1,1427,1156,0,0
210,-132,0,0,0,0,0,0,0,0,0,-1,1434,1156,0,0
217,-132,0,0,0,0,0,0,0,0,0,-1,1441,1156,0,0
224,-132,0,0,0,0,0,0,0,0,0,-1,1448,1156,0,0
231,-132,0,0,0,0,0,0,0,0,0,-1,1455,1156,0,0
238,-132,0,0,0,0,0,0,0,0,0,-1,1462,1156,0,0
245,-132,0,0,0,0,0,0,0,0,0,-1,1469,1156,0,0
252,-132,0,0,0,0,0,0,0,0,0,-1,1476,1156,0,0
259,-132,0,0,0,0,0,0,0,0,0,-1,1483,1156,0,0
266,-132,0,0,0,0,0,0,0,0,0,-1,1490,1156,0,0
273,-132,0,0,0,0,0,0,0,0,0,-1,1497,1156,0,0
280,-132,0,0,0,0,0,0,0,0,0,-1,1504,1156,0,0
287,-132,0,0,0,0,0,0,0,0,0,-1,1511,1156,0,0
294,-132,0,0,0,0,0,0,0,0,0,-1,1518,1156,0,0
301,-132,0,0,0,0,0,0,0,0,0,-1,1525,1156,0,0
308,-132,0,0,0,0,0,0,0,0,0,-1,1532,1156,0,0
315,-132,0,0,0,0,0,0,0,0,0,-1,1539,1156,0,0
322,-132,0,0,0,0,0,0,0,0,0,-1,1546,1156,0,0
329,-132,0,0,0,0,0,0,0,0,0,-1,1553,1156,0,0
336,-132,0,0,0,0,0,0,0,0,0,-1,1560,1156,0,0
343,-132,0,0,0,0,0,0,0,0,0,-1,1567,1156,0,0
350,-132,0,0,0,0,0,0,0,0,0,-1,1574,1156,0,0
357,-132,0,0,0,0,0,0,0,0,0,-1,1581,1156,0,0
364,-132,0,0,0,0,0,0,0,0,0,-1,1588,1156,0,0
371,-132,0,0,0,0,0,0,0,0,0,-1,1595,1156,0,0
378,-132,0,0,0,0,0,0,0,0,0,-1,1602,1156,0,0
385,-132,0,0,0,0,0,0,0,0,0,-1,1609,1156,0,0
392,-132,0,0,0,0,0,0,0,0,0,-1,1616,1156,0,0
399,-132,0,0,0,0,0,0,0,0,0,-1,1623,1156,0,0
406,-132,0,0,0,0,0,0,0,0,0,-1,1630,1156,0,0
413,-132,0,0,0,0,0,0,0,0,0,-1,1637,1156,0,0
420,-132,0,0,0,0,0,0,0,0,0,-1,1644,1156,0,0
427,-132,0,0,0,0,0,0,0,0,0,-1,1651,1156,0,0
434,-132,0,0,0,0,0,0,0,0,0,-1,1658,1156,0,0
441,-132,0,0,0,0,0,0,0,0,0,-1,1665,1156,0,0
448,-132,0,0,0,0,0,0,0,0,0,-1,1672,1156,0,0
455,-132,0,0,0,0,0,0,0,0,0,-1,1679,1156,0,0
462,-132,0,0,0,0,0,0,0,0,0,-1,1686,1156,0,0
469,-132,0,0,0,0,0,0,0,0,0,-1,1693,1156,0,0
476,-132,0,0,0,0,0,0,0,0,0,-1,1700,1156,0,0
483,-132,0,0,0,0,0,0,0,0,0,-1,1707,1156,0,0
490,-132,0,0,0,0,0,0,0,0,0,-1,1714,1156,0,0
497,-132,0,0,0,0,0,0,0,0,0,-1,1721,1156,0,0
504,-132,0,0,0,0,0,0,0,0,0,-1,1728,1156,0,0
511,-132,0,0,0,0,0,0,0,0,0,-1,1735,1156,0,0
518,-132,0,0,0,0,0,0,0,0,0,-1,1742,1156,0,0
525,-132,0,0,0,0,0,0,0,0,0,-1,1749,1156,0,0
532,-132,0,0,0,0,0,0,0,0,0,-1,1756,1156,0,0
539,-132,0,0,0,0,0,0,0,0,0,-1,1763,1156,0,0
546,-132,0,0,0,0,0,0,0,0,0,-1,1770,1156,0,0
553,-132,0,0,0,0,0,0,0,0,0,-1,1777,1156,0,0
560,-132,0,0,0,0,0,0,0,0,0,-1,1784,1156,0,0
567,-132,0,0,0,0,0,0,0,0,0,-1,1791,1156,0,0
574,-132,0,0,0,0,0,0,0,0,0,-1,1798,1156,0,0
581,-132,0,0,0,0,0,0,0,0,0,-1,1805,1156,0,0
588,-132,0,0,0,0,0,0,0,0,0,-1,1812,1156,0,0
595,-132,0,0,0,0,0,0,0,0,0,-1,1819,1156,0,0
602,-132,0,0,0,0,0,0,0,0,0,-1,1826,1156,0,0
609,-132,0,0,0,0,0,0,0,0,0,-1,1833,1156,0,0
616,-132,0,0,0,0,0,0,0,0,0,-1,1840,1156,0,0
623,-132,0,0,0,0,0,0,0,0,0,-1,1847,1156,0,0
630,-132,0,0,0,0,0,0,0,0,0,-1,1854,1156,0,0
637,-132,0,0,0,0,0,0,0,0,0,-1,1861,1156,0,0
644,-132,78.7378,1.9342,0.00361985,-0.00209145,0.00292412,0.0048514,-0.003323,0.398622,0.00474691,0.0390122,1868,1156,78.7377,-1.93423
651,-132,78.6804,2.03638,0.00202238,-0.00109539,0.00218479,0.00314741,-0.00222042,0.475528,0.00311449,0.0415457,1875,1156,78.6805,-2.03644
658,-132,78.6583,2.35938,0.00118153,-0.000544672,0.00145907,0.00201367,-0.00137681,0.518309,0.00196897,0.0438384,1882,1156,78.6584,-2.35934
665,-132,78.7068,2.5509,0.000703812,-0.00017506,0.00070414,0.00109439,-0.000565634,0.506431,0.000974485,0.0420112,1889,1156,78.7068,-2.55086
672,-132,78.657,2.48364,0.000584884,4.93391e-05,-4.84464e-05,0.000589231,4.49919e-05,-0.0894938,0.000378715,0.0385599,1896,1156,78.657,-2.48364
679,-132,78.741,2.4563,0.00092613,-0.000141916,-0.000444507,0.00108692,-0.000302707,-0.347086,0.000843814,0.0394025,1903,1156,78.741,-2.45626
686,-132,78.7709,2.40186,0.00164482,-0.000139913,-0.000685856,0.00187794,-0.000373031,-0.327644,0.00139305,0.0378502,1910,1156,78.7708,-2.4019
693,-132,78.6759,2.4342,0.00186117,-0.000125719,-0.000499379,0.00197962,-0.000244169,-0.232892,0.00140821,0.0292774,1917,1156,78.6759,-2.43426
700,-132,78.8076,2.43054,0,0,0,0,0,0,0,-1,1924,1156,78.8076,-2.43057
707,-132,57.9275,3.01367,0,0,0,0,0,0,0,-1,1931,1156,57.9275,-3.01369
714,-132,57.8083,9.22156,0,0,0,0,0,0,0,-1,1938,1156,57.8084,-9.22151
721,-132,70.0256,10.5416,0,0,0,0,0,0,0,-1,1945,1156,70.0257,-10.5416
728,-132,69.9191,10.0306,0.00230251,0.000571023,0.000822866,0.00263118,0.000242354,0.380005,0.00167918,0.0315363,1952,1156,69.9191,-10.0307
735,-132,69.8762,9.32715,0.00264797,0.000783106,0.00143027,0.0034229,8.17212e-06,0.496534,0.00227922,0.0322321,1959,1156,69.8763,-9.32716
742,-132,69.8655,8.59509,0.00256401,0.00127533,0.00187986,0.00390689,-6.75487e-05,0.620293,0.0026274,0.0278223,1966,1156,69.8655,-8.59507
749,-132,69.8109,7.88513,0.00183424,0.00236351,0.00229776,0.00441183,-0.000214075,0.842731,0.00301511,0.0260668,1973,1156,69.8109,-7.88508
756,-132,69.8396,7.16333,0.00102576,0.00490294,0.0024259,0.00606969,-0.000140993,1.1225,0.00409427,0.0249956,1980,1156,69.8395,-7.16337
763,-132,69.7656,6.4989,0.000640349,0.00954315,0.00153993,0.00980198,0.00038151,1.40427,0.00641127,0.0156217,1987,1156,69.7656,-6.49894
770,-132,69.7451,5.85681,0.000507013,0.0153482,-2.64941e-05,0.0153482,0.000506966,-1.56901,0.0100674,0.0161944,1994,1156,69.7452,-5.85686
777,-132,69.6604,5.1748,0.0004085,0.0228567,-0.00270859,0.0231789,8.63066e-05,-1.4524,0.0154239,0.028728,2001,1156,69.6603,-5.17482
784,-132,69.7051,4.56873,0,0,0,0,0,0,0,-1,2008,1156,69.705,-4.56871
791,-132,73.1013,-2.94019,0,0,0,0,0,0,0,-1,2015,1156,73.1013,2.94019
798,-132,73.2852,-4.60278,0,0,0,0,0,0,0,-1,2022,1156,73.285,4.60284
805,-132,73.0271,0.386841,0,0,0,0,0,0,0,-1,2029,1156,73.0272,-0.386832
812,-132,73.3503,-0.32959,0,0,0,0,0,0,0,-1,2036,1156,73.3504,0.329639
-700,-139,0,0,0,0,0,0,0,0,0,-1,524,1163,0,0
-693,-139,-51.4747,-4.83777,0,0,0,0,0,0,0,-1,531,1163,-51.4747,4.83779
-686,-139,-51.5807,-4.75842,0,0,0,0,0,0,0,-1,538,1163,-51.5807,4.75841
-679,-139,-59.0947,-13.483,0,0,0,0,0,0,0,-1,545,1163,-59.0947,13.4831
-672,-139,-59.6949,-13.1381,0,0,0,0,0,0,0,-1,552,1163,-59.6949,13.1381
-665,-139,-60.5396,-12.8434,0,0,0,0,0,0,0,-1,559,1163,-60.5396,12.8433
-658,-139,-48.239,1.87109,0,0,0,0,0,0,0,-1,566,1163,-48.239,-1.87108
-651,-139,-53.2098,3.53857,0,0,0,0,0,0,0,-1,573,1163,-53.2098,-3.53858
-644,-139,-53.0834,4.44885,-0.00206612,0.00861145,-0.00981641,0.0144469,-0.00790162,-1.03446,0.0130861,0.0318932,580,1163,-53.0834,-4.44887
-637,-139,-53.1792,5.11768,-0.00451977,0.00566971,-0.00702999,0.00925697,-0.00810703,-1.09896,0.0100324,0.017764,587,1163,-53.1792,-5.11765
-630,-139,-53.2103,5.82263,-0.00661432,0.00404887,-0.00521346,0.00617423,-0.00873967,-1.1837,0.0086529,0.0107596,594,1163,-53.2103,-5.82263
-623,-139,-53.2437,6.54224,-0.00863263,0.00252745,-0.00427801,0.00397864,-0.0100838,-1.24376,0.00837013,0.0175222,601,1163,-53.2436,-6.54226
-616,-139,-53.3488,7.28198,-0.00934318,0.00197006,-0.00415599,0.00333267,-0.0107058,-1.25397,0.00846954,0.0231706,608,1163,-53.3488,-7.282
-609,-139,-53.5215,8.10718,0,0,0,0,0,0,0,-1,615,1163,-53.5216,-8.10712
-602,-139,-50.4112,7.96228,0,0,0,0,0,0,0,-1,622,1163,-50.4112,-7.96224
-595,-139,-50.6539,8.62317,0,0,0,0,0,0,0,-1,629,1163,-50.6539,-8.62318
-588,-139,-51.0773,9.1781,0,0,0,0,0,0,0,-1,636,1163,-51.0773,-9.17806
-581,-139,-34.4892,6.72473,0,0,0,0,0,0,0,-1,643,1163,-34.4892,-6.72476
-574,-139,-23.0725,2.4043,0,0,0,0,0,0,0,-1,650,1163,-23.0725,-2.40433
-567,-139,-62.3897,0.827881,0,0,0,0,0,0,0,-1,657,1163,-62.3897,-0.827871
-560,-139,-62.3218,0.680908,-0.00230658,-0.00183258,-0.00434104,0.00227792,-0.00641709,-0.812668,0.00520621,0.0396818,664,1163,-62.3218,-0.680939
-553,-139,-62.2342,0.598267,-0.000804192,-0.00235958,-0.00402122,0.00251384,-0.00567762,-0.689878,0.0048455,0.0420801,671,1163,-62.2342,-0.598285
-546,-139,-62.2255,0.52478,-0.000663529,-0.00182736,-0.00325373,0.00205991,-0.0045508,-0.696911,0.00390596,0.0407483,678,1163,-62.2255,-0.524761
-539,-139,-62.2126,0.49707,-0.000161072,-0.0012074,-0.00211565,0.00149514,-0.00286362,-0.664188,0.00255754,0.0388804,685,1163,-62.2126,-0.497096
-532,-139,-62.1448,0.441162,0.000526397,-0.000749876,-0.00100247,0.0010766,-0.00130008,-0.501961,0.0013742,0.0408338,692,1163,-62.1448,-0.441209
-525,-139,-62.2757,0.429688,0.00145319,-0.000489974,-3.38368e-05,0.00145378,-0.000490563,-0.0174062,0.00116758,0.0419956,699,1163,-62.2757,-0.42969
-518,-139,0,0,0,0,0,0,0,0,0,-1,706,1163,0,0
-511,-139,0,0,0,0,0,0,0,0,0,-1,713,1163,0,0
-504,-139,0,0,0,0,0,0,0,0,0,-1,720,1163,0,0
-497,-139,0,0,0,0,0,0,0,0,0,-1,727,1163,0,0
-490,-139,0,0,0,0,0,0,0,0,0,-1,734,1163,0,0
-483,-139,0,0,0,0,0,0,0,0,0,-1,741,1163,0,0
-476,-139,0,0,0,0,0,0,0,0,0,-1,748,1163,0,0
-469,-139,0,0,0,0,0,0,0,0,0,-1,755,1163,0,0
-462,-139,0,0,0,0,0,0,0,0,0,-1,762,1163,0,0
-455,-139,0,0,0,0,0,0,0,0,0,-1,769,1163,0,0
-448,-139,0,0,0,0,0,0,0,0,0,-1,776,1163,0,0
-441,-139,0,0,0,0,0,0,0,0,0,-1,783,1163,0,0
-434,-139,0,0,0,0,0,0,0,0,0,-1,790,1163,0,0
-427,-139,0,0,0,0,0,0,0,0,0,-1,797,1163,0,0
-420,-139,0,0,0,0,0,0,0,0,0,-1,804,1163,0,0
-413,-139,0,0,0,0,0,0,0,0,0,-1,811,1163,0,0
-406,-139,0,0,0,0,0,0,0,0,0,-1,818,1163,0,0
-399,-139,0,0,0,0,0,0,0,0,0,-1,825,1163,0,0
-392,-139,0,0,0,0,0,0,0,0,0,-1,832,1163,0,0
-385,-139,0,0,0,0,0,0,0,0,0,-1,839,1163,0,0
-378,-139,0,0,0,0,0,0,0,0,0,-1,846,1163,0,0
-371,-139,0,0,0,0,0,0,0,0,0,-1,853,1163,0,0
-364,-139,0,0,0,0,0,0,0,0,0,-1,860,1163,0,0
-357,-139,0,0,0,0,0,0,0,0,0,-1,867,1163,0,0
-350,-139,0,0,0,0,0,0,0,0,0,-1,874,1163,0,0
-343,-139,0,0,0,0,0,0,0,0,0,-1,881,1163,0,0
-336,-139,0,0,0,0,0,0,0,0,0,-1,888,1163,0,0
-329,-139,0,0,0,0,0,0,0,0,0,-1,895,1163,0,0
-322,-139,0,0,0,0,0,0,0,0,0,-1,902,1163,0,0
-315,-139,0,0,0,0,0,0,0,0,0,-1,909,1163,0,0
-308,-139,0,0,0,0,0,0,0,0,0,-1,916,1163,0,0
-301,-139,0,0,0,0,0,0,0,0,0,-1,923,1163,0,0
-294,-139,0,0,0,0,0,0,0,0,0,-1,930,1163,0,0
-287,-139,0,0,0,0,0,0,0,0,0,-1,937,1163,0,0
-280,-139,0,0,0,0,0,0,0,0,0,-1,944,1163,0,0
-273,-139,0,0,0,0,0,0,0,0,0,-1,951,1163,0,0
-266,-139,0,0,0,0,0,0,0,0,0,-1,958,1163,0,0
-259,-139,0,0,0,0,0,0,0,0,0,-1,965,1163,0,0
-252,-139,0,0,0,0,0,0,0,0,0,-1,972,1163,0,0
-245,-139,0,0,0,0,0,0,0,0,0,-1,979,1163,0,0
-238,-139,0,0,0,0,0,0,0,0,0,-1,986,1163,0,0
-231,-139,0,0,0,0,0,0,0,0,0,-1,993,1163,0,0
-224,-139,0,0,0,0,0,0,0,0,0,-1,1000,1163,0,0
-217,-139,0,0,0,0,0,0,0,0,0,-1,1007,1163,0,0
-210,-139,0,0,0,0,0,0,0,0,0,-1,1014,1163,0,0
-203,-139,0,0,0,0,0,0,0,0,0,-1,1021,1163,0,0
-196,-139,0,0,0,0,0,0,0,0,0,-1,1028,1163,0,0
-189,-139,0,0,0,0,0,0,0,0,0,-1,1035,1163,0,0
-182,-139,0,0,0,0,0,0,0,0,0,-1,1042,1163,0,0
-175,-139,0,0,0,0,0,0,0,0,0,-1,1049,1163,0,0
-168,-139,0,0,0,0,0,0,0,0,0,-1,1056,1163,0,0
-161,-139,0,0,0,0,0,0,0,0,0,-1,1063,1163,0,0
-154,-139,0,0,0,0,0,0,0,0,0,-1,1070,1163,0,0
-147,-139,0,0,0,0,0,0,0,0,0,-1,1077,1163,0,0
-140,-139,0,0,0,0,0,0,0,0,0,-1,1084,1163,0,0
-133,-139,0,0,0,0,0,0,0,0,0,-1,1091,1163,0,0
-126,-139,0,0,0,0,0,0,0,0,0,-1,1098,1163,0,0
-119,-139,0,0,0,0,0,0,0,0,0,-1,1105,1163,0,0
-112,-139,0,0,0,0,0,0,0,0,0,-1,1112,1163,0,0
-105,-139,0,0,0,0,0,0,0,0,0,-1,1119,1163,0,0
-98,-139,0,0,0,0,0,0,0,0,0,-1,1126,1163,0,0
-91,-139,0,0,0,0,0,0,0,0,0,-1,1133,1163,0,0
-84,-139,0,0,0,0,0,0,0,0,0,-1,1140,1163,0,0
-77,-139,0,0,0,0,0,0,0,0,0,-1,1147,1163,0,0
-70,-139,0,0,0,0,0,0,0,0,0,-1,1154,1163,0,0
-63,-139,0,0,0,0,0,0,0,0,0,-1,1161,1163,0,0
-56,-139,0,0,0,0,0,0,0,0,0,-1,1168,1163,0,0
-49,-139,0,0,0,0,0,0,0,0,0,-1,1175,1163,0,0
-42,-139,0,0,0,0,0,0,0,0,0,-1,1182,1163,0,0
-35,-139,0,0,0,0,0,0,0,0,0,-1,1189,1163,0,0
-28,-139,0,0,0,0,0,0,0,0,0,-1,1196,1163,0,0
-21,-139,0,0,0,0,0,0,0,0,0,-1,1203,1163,0,0
-14,-139,0,0,0,0,0,0,0,0,0,-1,1210,1163,0,0
-7,-139,0,0,0,0,0,0,0,0,0,-1,1217,1163,0,0
0,-139,0,0,0,0,0,0,0,0,0,-1,1224,1163,0,0
7,-139,0,0,0,0,0,0,0,0,0,-1,1231,1163,0,0
14,-139,0,0,0,0,0,0,0,0,0,-1,1238,1163,0,0
21,-139,0,0,0,0,0,0,0,0,0,-1,1245,1163,0,0
28,-139,0,0,0,0,0,0,0,0,0,-1,1252,1163,0,0
35,-139,0,0,0,0,0,0,0,0,0,-1,1259,1163,0,0
42,-139,0,0,0,0,0,0,0,0,0,-1,1266,1163,0,0
49,-139,0,0,0,0,0,0,0,0,0,-1,1273,1163,0,0
56,-139,0,0,0,0,0,0,0,0,0,-1,1280,1163,0,0
63,-139,0,0,0,0,0,0,0,0,0,-1,1287,1163,0,0
70,-139,0,0,0,0,0,0,0,0,0,-1,1294,1163,0,0
77,-139,0,0,0,0,0,0,0,0,0,-1,1301,1163,0,0
84,-139,0,0,0,0,0,0,0,0,0,-1,1308,1163,0,0
91,-139,0,0,0,0,0,0,0,0,0,-1,1315,1163,0,0
98,-139,0,0,0,0,0,0,0,0,0,-1,1322,1163,0,0
105,-139,0,0,0,0,0,0,0,0,0,-1,1329,1163,0,0
112,-139,0,0,0,0,0,0,0,0,0,-1,1336,1163,0,0
119,-139,0,0,0,0,0,0,0,0,0,-1,1343,1163,0,0
126,-139,0,0,0,0,0,0,0,0,0,-1,1350,1163,0,0
133,-139,0,0,0,0,0,0,0,0,0,-1,1357,1163,0,0
140,-139,0,0,0,0,0,0,0,0,0,-1,1364,1163,0,0
147,-139,0,0,0,0,0,0,0,0,0,-1,1371,1163,0,0
154,-139,0,0,0,0,0,0,0,0,0,-1,1378,1163,0,0
161,-139,0,0,0,0,0,0,0,0,0,-1,1385,1163,0,0
168,-139,0,0,0,0,0,0,0,0,0,-1,1392,1163,0,0
175,-139,0,0,0,0,0,0,0,0,0,-1,1399,1163,0,0
182,-139,0,0,0,0,0,0,0,0,0,-1,1406,1163,0,0
189,-139,0,0,0,0,0,0,0,0,0,-1,1413,1163,0,0
196,-139,0,0,0,0,0,0,0,0,0,-1,1420,1163,0,0
203,-139,0,0,0,0,0,0,0,0,0,-1,1427,1163,0,0
210,-139,0,0,0,0,0,0,0,0,0,-1,1434,1163,0,0
217,-139,0,0,0,0,0,0,0,0,0,-1,1441,1163,0,0
224,-139,0,0,0,0,0,0,0,0,0,-1,1448,1163,0,0
231,-139,0,0,0,0,0,0,0,0,0,-1,1455,1163,0,0
238,-139,0,0,0,0,0,0,0,0,0,-1,1462,1163,0,0
245,-139,0,0,0,0,0,0,0,0,0,-1,1469,1163,0,0
252,-139,0,0,0,0,0,0,0,0,0,-1,1476,1163,0,0
259,-139,0,0,0,0,0,0,0,0,0,-1,1483,1163,0,0
266,-139,0,0,0,0,0,0,0,0,0,-1,1490,1163,0,0
273,-139,0,0,0,0,0,0,0,0,0,-1,1497,1163,0,0
280,-139,0,0,0,0,0,0,0,0,0,-1,1504,1163,0,0
287,-139,0,0,0,0,0,0,0,0,0,-1,1511,1163,0,0
294,-139,0,0,0,0,0,0,0,0,0,-1,1518,1163,0,0
301,-139,0,0,0,0,0,0,0,0,0,-1,1525,1163,0,0
308,-139,0,0,0,0,0,0,0,0,0,-1,1532,1163,0,0
315,-139,0,0,0,0,0,0,0,0,0,-1,1539,1163,0,0
322,-139,0,0,0,0,0,0,0,0,0,-1,1546,1163,0,0
329,-139,0,0,0,0,0,0,0,0,0,-1,1553,1163,0,0
336,-139,0,0,0,0,0,0,0,0,0,-1,1560,1163,0,0
343,-139,0,0,0,0,0,0,0,0,0,-1,1567,1163,0,0
350,-139,0,0,0,0,0,0,0,0,0,-1,1574,1163,0,0
357,-139,0,0,0,0,0,0,0,0,0,-1,1581,1163,0,0
364,-139,0,0,0,0,0,0,0,0,0,-1,1588,1163,0,0
371,-139,0,0,0,0,0,0,0,0,0,-1,1595,1163,0,0
378,-139,0,0,0,0,0,0,0,0,0,-1,1602,1163,0,0
385,-139,0,0,0,0,0,0,0,0,0,-1,1609,1163,0,0
392,-139,0,0,0,0,0,0,0,0,0,-1,1616,1163,0,0
399,-139,0,0,0,0,0,0,0,0,0,-1,1623,1163,0,0
406,-139,0,0,0,0,0,0,0,0,0,-1,1630,1163,0,0
413,-139,0,0,0,0,0,0,0,0,0,-1,1637,1163,0,0
420,-139,0,0,0,0,0,0,0,0,0,-1,1644,1163,0,0
427,-139,0,0,0,0,0,0,0,0,0,-1,1651,1163,0,0
434,-139,0,0,0,0,0,0,0,0,0,-1,1658,1163,0,0
441,-139,0,0,0,0,0,0,0,0,0,-1,1665,1163,0,0
448,-139,0,0,0,0,0,0,0,0,0,-1,1672,1163,0,0
455,-139,0,0,0,0,0,0,0,0,0,-1,1679,1163,0,0
462,-139,0,0,0,0,0,0,0,0,0,-1,1686,1163,0,0
469,-139,0,0,0,0,0,0,0,0,0,-1,1693,1163,0,0
476,-139,0,0,0,0,0,0,0,0,0,-1,1700,1163,0,0
483,-139,0,0,0,0,0,0,0,0,0,-1,1707,1163,0,0
490,-139,0,0,0,0,0,0,0,0,0,-1,1714,1163,0,0
497,-139,0,0,0,0,0,0,0,0,0,-1,1721,1163,0,0
504,-139,0,0,0,0,0,0,0,0,0,-1,1728,1163,0,0
511,-139,0,0,0,0,0,0,0,0,0,-1,1735,1163,0,0
518,-139,0,0,0,0,0,0,0,0,0,-1,1742,1163,0,0
525,-139,0,0,0,0,0,0,0,0,0,-1,1749,1163,0,0
532,-139,0,0,0,0,0,0,0,0,0,-1,1756,1163,0,0
539,-139,0,0,0,0,0,0,0,0,0,-1,1763,1163,0,0
546,-139,0,0,0,0,0,0,0,0,0,-1,1770,1163,0,0
553,-139,0,0,0,0,0,0,0,0,0,-1,1777,1163,0,0
560,-139,0,0,0,0,0,0,0,0,0,-1,1784,1163,0,0
567,-139,0,0,0,0,0,0,0,0,0,-1,1791,1163,0,0
574,-139,0,0,0,0,0,0,0,0,0,-1,1798,1163,0,0
581,-139,0,0,0,0,0,0,0,0,0,-1,1805,1163,0,0
588,-139,0,0,0,0,0,0,0,0,0,-1,1812,1163,0,0
595,-139,0,0,0,0,0,0,0,0,0,-1,1819,1163,0,0
602,-139,0,0,0,0,0,0,0,0,0,-1,1826,1163,0,0
609,-139,0,0,0,0,0,0,0,0,0,-1,1833,1163,0,0
616,-139,0,0,0,0,0,0,0,0,0,-1,1840,1163,0,0
623,-139,0,0,0,0,0,0,0,0,0,-1,1847,1163,0,0
630,-139,0,0,0,0,0,0,0,0,0,-1,1854,1163,0,0
637,-139,0,0,0,0,0,0,0,0,0,-1,1861,1163,0,0
644,-139,78.7754,2.11096,0,0,0,0,0,0,0,-1,1868,1163,78.7754,-2.11102
651,-139,78.8665,2.1488,0,0,0,0,0,0,0,-1,1875,1163,78.8664,-2.1488
658,-139,78.7795,2.34814,0.000920365,-0.000820926,0.00114505,0.00148818,-0.00138874,0.460351,0.00166132,0.0426893,1882,1163,78.7796,-2.34811
665,-139,78.692,2.69421,0.000474473,-0.00019926,0.00037584,0.000642319,-0.000367106,0.420013,0.000589968,0.0407683,1889,1163,78.692,-2.69425
672,-139,78.661,2.6532,0.000380309,0.000270018,-0.000418509,0.00074729,-9.69627e-05,-0.719892,0.000533459,0.0364691,1896,1163,78.6611,-2.65325
679,-139,78.7592,2.51282,0.000729645,0.000200383,-0.000849069,0.00135437,-0.000424338,-0.634333,0.00107271,0.0352643,1903,1163,78.7591,-2.51278
686,-139,78.657,2.48486,0.00156045,0.000316728,-0.00108124,0.0021859,-0.000308728,-0.524431,0.00157033,0.0375869,1910,1163,78.657,-2.48486
693,-139,78.7318,2.42798,0.0017737,0.00032655,-0.000813147,0.00213859,-3.8346e-05,-0.42181,0.00143868,0.0275526,1917,1163,78.7318,-2.42797
700,-139,78.8601,2.34363,0,0,0,0,0,0,0,-1,1924,1163,78.8601,-2.34367
707,-139,32.116,6.54346,0,0,0,0,0,0,0,-1,1931,1163,32.116,-6.54343
714,-139,62.1425,10.1428,0,0,0,0,0,0,0,-1,1938,1163,62.1424,-10.1428
721,-139,65.8013,9.82837,0,0,0,0,0,0,0,-1,1945,1163,65.8013,-9.82837
728,-139,69.145,10.2643,0,0,0,0,0,0,0,-1,1952,1163,69.145,-10.2643
735,-139,69.1147,9.47156,0.00293213,0.0010595,0.00118954,0.00350965,0.000481987,0.451978,0.0021968,0.0368577,1959,1163,69.1147,-9.47157
742,-139,69.1943,8.57275,0.00286733,0.00132969,0.00171308,0.0039762,0.000220817,0.574473,0.00258035,0.0275172,1966,1163,69.1943,-8.57274
749,-139,69.1411,7.85095,0.00217836,0.00238154,0.00224839,0.00453064,2.92647e-05,0.807974,0.00301072,0.020907,1973,1163,69.1411,-7.85097
756,-139,69.0691,7.19348,0.00172312,0.00512513,0.00261669,0.00654509,0.000303156,1.07361,0.00426594,0.0119466,1980,1163,69.0692,-7.19344
763,-139,69.01,6.49536,0.00183719,0.0100282,0.00206209,0.0105181,0.00134735,1.33757,0.00660886,0.0124332,1987,1163,69.0101,-6.49542
770,-139,68.9966,5.82288,0.00229079,0.0162018,0.000883279,0.0162577,0.00223493,1.50764,0.0101756,0.0141471,1994,1163,68.9966,-5.82288
777,-139,68.9922,5.18958,0.00288943,0.0241828,-0.00132379,0.0242648,0.00280745,-1.50894,0.0153267,0.028532,2001,1163,68.9921,-5.18963
784,-139,68.9485,4.69434,0.00372536,0.035028,-0.00505869,0.0358252,0.00292814,-1.41449,0.0229697,0.04509,2008,1163,68.9484,-4.69438
791,-139,68.9912,4.16357,0,0,0,0,0,0,0,-1,2015,1163,68.9911,-4.16355
798,-139,72.6167,0.257446,0,0,0,0,0,0,0,-1,2022,1163,72.6167,-0.257404
805,-139,73.0437,-0.215698,0,0,0,0,0,0,0,-1,2029,1163,73.0437,0.215737
812,-139,0,0,0,0,0,0,0,0,0,-1,2036,1163,0,0
-700,-146,0,0,0,0,0,0,0,0,0,-1,524,1170,0,0
-693,-146,-51.506,-5.797,0,0,0,0,0,0,0,-1,531,1170,-51.506,5.79697
-686,-146,-51.814,-6.34314,0,0,0,0,0,0,0,-1,538,1170,-51.814,6.34313
-679,-146,-48.1238,2.80457,0,0,0,0,0,0,0,-1,545,1170,-48.1238,-2.80453
-672,-146,-48.5766,3.09644,0,0,0,0,0,0,0,-1,552,1170,-48.5766,-3.09646
-665,-146,-49.2606,3.46606,0,0,0,0,0,0,0,-1,559,1170,-49.2606,-3.46606
-658,-146,-51.6229,2.49084,0,0,0,0,0,0,0,-1,566,1170,-51.6229,-2.49089
-651,-146,-52.1835,3.604,0,0,0,0,0,0,0,-1,573,1170,-52.1835,-3.60401
-644,-146,-52.2905,4.39551,0.00024721,0.00717077,-0.0118869,0.0160897,-0.00867169,-0.927093,0.0145082,0.0305576,580,1170,-52.2904,-4.39554
-637,-146,-52.3931,5.12073,-0.0027069,0.0047181,-0.00846143,0.0102456,-0.00823445,-0.99213,0.0106905,0.0141959,587,1170,-52.3931,-5.12073
-630,-146,-52.4254,5.84387,-0.00521562,0.00359588,-0.00599676,0.00663135,-0.00825109,-1.10221,0.00860933,0.0106905,594,1170,-52.4253,-5.84385
-623,-146,-52.4786,6.53394,-0.00756143,0.0025579,-0.00445344,0.00423866,-0.00924219,-1.20992,0.00795987,0.0137087,601,1170,-52.4786,-6.53396
-616,-146,-52.5892,7.28088,-0.00872672,0.00216997,-0.00388879,0.00341544,-0.00997219,-1.26085,0.00803241,0.0225675,608,1170,-52.5893,-7.28094
-609,-146,-52.6956,8.01074,0,0,0,0,0,0,0,-1,615,1170,-52.6956,-8.01075
-602,-146,-49.7178,7.99854,0,0,0,0,0,0,0,-1,622,1170,-49.7178,-7.99849
-595,-146,-49.8962,8.69519,0,0,0,0,0,0,0,-1,629,1170,-49.8963,-8.6952
-588,-146,-45.0034,7.81934,0,0,0,0,0,0,0,-1,636,1170,-45.0034,-7.81931
-581,-146,-31.7815,6.30347,0,0,0,0,0,0,0,-1,643,1170,-31.7815,-6.3035
-574,-146,-17.9915,3.79114,0,0,0,0,0,0,0,-1,650,1170,-17.9915,-3.79118
-567,-146,-44.4572,0.6604,0,0,0,0,0,0,0,-1,657,1170,-44.4572,-0.660404
-560,-146,-62.4261,0.899292,0,0,0,0,0,0,0,-1,664,1170,-62.4261,-0.899237
-553,-146,-62.3264,0.81311,-0.00110596,-0.00216954,-0.00421054,0.00260624,-0.00588174,-0.722581,0.0050207,0.0407946,671,1170,-62.3264,-0.813068
-546,-146,-62.3891,0.786621,-0.00105401,-0.00220021,-0.00352224,0.00194145,-0.00519567,-0.70475,0.00426101,0.0407917,678,1170,-62.3891,-0.786636
-539,-146,-62.3824,0.508545,-0.000263002,-0.0019718,-0.00226634,0.00130464,-0.00353944,-0.605138,0.00289424,0.0387988,685,1170,-62.3824,-0.508601
-532,-146,-62.3435,0.401733,0.000910833,-0.00187983,-0.000962395,0.00121054,-0.00217953,-0.301898,0.00198373,0.0375166,692,1170,-62.3435,-0.401707
-525,-146,-62.2604,0.432983,0.00258726,-0.00192176,0.000247573,0.00260081,-0.00193531,0.054687,0.00262831,0.0416224,699,1170,-62.2604,-0.433015
-518,-146,0,0,0,0,0,0,0,0,0,-1,706,1170,0,0
-511,-146,0,0,0,0,0,0,0,0,0,-1,713,1170,0,0
-504,-146,0,0,0,0,0,0,0,0,0,-1,720,1170,0,0
-497,-146,0,0,0,0,0,0,0,0,0,-1,727,1170,0,0
-490,-146,0,0,0,0,0,0,0,0,0,-1,734,1170,0,0
-483,-146,0,0,0,0,0,0,0,0,0,-1,741,1170,0,0
-476,-146,0,0,0,0,0,0,0,0,0,-1,748,1170,0,0
-469,-146,0,0,0,0,0,0,0,0,0,-1,755,1170,0,0
-462,-146,0,0,0,0,0,0,0,0,0,-1,762,1170,0,0
-455,-146,0,0,0,0,0,0,0,0,0,-1,769,1170,0,0
-448,-146,0,0,0,0,0,0,0,0,0,-1,776,1170,0,0
-441,-146,0,0,0,0,0,0,0,0,0,-1,783,1170,0,0
-434,-146,0,0,0,0,0,0,0,0,0,-1,790,1170,0,0
-427,-146,0,0,0,0,0,0,0,0,0,-1,797,1170,0,0
-420,-146,0,0,0,0,0,0,0,0,0,-1,804,1170,0,0
-413,-146,0,0,0,0,0,0,0,0,0,-1,811,1170,0,0
-406,-146,0,0,0,0,0,0,0,0,0,-1,818,1170,0,0
-399,-146,0,0,0,0,0,0,0,0,0,-1,825,1170,0,0
-392,-146,0,0,0,0,0,0,0,0,0,-1,832,1170,0,0
-385,-146,0,0,0,0,0,0,0,0,0,-1,839,1170,0,0
-378,-146,0,0,0,0,0,0,0,0,0,-1,846,1170,0,0
-371,-146,0,0,0,0,0,0,0,0,0,-1,853,1170,0,0
-364,-146,0,0,0,0,0,0,0,0,0,-1,860,1170,0,0
-357,-146,0,0,0,0,0,0,0,0,0,-1,867,1170,0,0
-350,-146,0,0,0,0,0,0,0,0,0,-1,874,1170,0,0
-343,-146,0,0,0,0,0,0,0,0,0,-1,881,1170,0,0
-336,-146,0,0,0,0,0,0,0,0,0,-1,888,1170,0,0
-329,-146,0,0,0,0,0,0,0,0,0,-1,895,1170,0,0
-322,-146,0,0,0,0,0,0,0,0,0,-1,902,1170,0,0
-315,-146,0,0,0,0,0,0,0,0,0,-1,909,1170,0,0
-308,-146,0,0,0,0,0,0,0,0,0,-1,916,1170,0,0
-301,-146,0,0,0,0,0,0,0,0,0,-1,923,1170,0,0
-294,-146,0,0,0,0,0,0,0,0,0,-1,930,1170,0,0
-287,-146,0,0,0,0,0,0,0,0,0,-1,937,1170,0,0
-280,-146,0,0,0,0,0,0,0,0,0,-1,944,1170,0,0
-273,-146,0,0,0,0,0,0,0,0,0,-1,951,1170,0,0
-266,-146,0,0,0,0,0,0,0,0,0,-1,958,1170,0,0
-259,-146,0,0,0,0,0,0,0,0,0,-1,965,1170,0,0
-252,-146,0,0,0,0,0,0,0,0,0,-1,972,1170,0,0
-245,-146,0,0,0,0,0,0,0,0,0,-1,979,1170,0,0
-238,-146,0,0,0,0,0,0,0,0,0,-1,986,1170,0,0
-231,-146,0,0,0,0,0,0,0,0,0,-1,993,1170,0,0
-224,-146,0,0,0,0,0,0,0,0,0,-1,1000,1170,0,0
-217,-146,0,0,0,0,0,0,0,0,0,-1,1007,1170,0,0
-210,-146,0,0,0,0,0,0,0,0,0,-1,1014,1170,0,0
-203,-146,0,0,0,0,0,0,0,0,0,-1,1021,1170,0,0
-196,-146,0,0,0,0,0,0,0,0,0,-1,1028,1170,0,0
-189,-146,0,0,0,0,0,0,0,0,0,-1,1035,1170,0,0
-182,-146,0,0,0,0,0,0,0,0,0,-1,1042,1170,0,0
-175,-146,0,0,0,0,0,0,0,0,0,-1,1049,1170,0,0
-168,-146,0,0,0,0,0,0,0,0,0,-1,1056,1170,0,0
-161,-146,0,0,0,0,0,0,0,0,0,-1,1063,1170,0,0
-154,-146,0,0,0,0,0,0,0,0,0,-1,1070,1170,0,0
-147,-146,0,0,0,0,0,0,0,0,0,-1,1077,1170,0,0
-140,-146,0,0,0,0,0,0,0,0,0,-1,1084,1170,0,0
-133,-146,0,0,0,0,0,0,0,0,0,-1,1091,1170,0,0
-126,-146,0,0,0,0,0,0,0,0,0,-1,1098,1170,0,0
-119,-146,0,0,0,0,0,0,0,0,0,-1,1105,1170,0,0
-112,-146,0,0,0,0,0,0,0,0,0,-1,1112,1170,0,0
-105,-146,0,0,0,0,0,0,0,0,0,-1,1119,1170,0,0
-98,-146,0,0,0,0,0,0,0,0,0,-1,1126,1170,0,0
-91,-146,0,0,0,0,0,0,0,0,0,-1,1133,1170,0,0
-84,-146,0,0,0,0,0,0,0,0,0,-1,1140,1170,0,0
-77,-146,0,0,0,0,0,0,0,0,0,-1,1147,1170,0,0
-70,-146,0,0,0,0,0,0,0,0,0,-1,1154,1170,0,0
-63,-146,0,0,0,0,0,0,0,0,0,-1,1161,1170,0,0
-56,-146,0,0,0,0,0,0,0,0,0,-1,1168,1170,0,0
-49,-146,0,0,0,0,0,0,0,0,0,-1,1175,1170,0,0
-42,-146,0,0,0,0,0,0,0,0,0,-1,1182,1170,0,0
-35,-146,0,0,0,0,0,0,0,0,0,-1,1189,1170,0,0
-28,-146,0,0,0,0,0,0,0,0,0,-1,1196,1170,0,0
-21,-146,0,0,0,0,0,0,0,0,0,-1,1203,1170,0,0
-14,-146,0,0,0,0,0,0,0,0,0,-1,1210,1170,0,0
-7,-146,0,0,0,0,0,0,0,0,0,-1,1217,1170,0,0
0,-146,0,0,0,0,0,0,0,0,0,-1,1224,1170,0,0
7,-146,0,0,0,0,0,0,0,0,0,-1,1231,1170,0,0
14,-146,0,0,0,0,0,0,0,0,0,-1,1238,1170,0,0
21,-146,0,0,0,0,0,0,0,0,0,-1,1245,1170,0,0
28,-146,0,0,0,0,0,0,0,0,0,-1,1252,1170,0,0
35,-146,0,0,0,0,0,0,0,0,0,-1,1259,1170,0,0
42,-146,0,0,0,0,0,0,0,0,0,-1,1266,1170,0,0
49,-146,0,0,0,0,0,0,0,0,0,-1,1273,1170,0,0
56,-146,0,0,0,0,0,0,0,0,0,-1,1280,1170,0,0
63,-146,0,0,0,0,0,0,0,0,0,-1,1287,1170,0,0
70,-146,0,0,0,0,0,0,0,0,0,-1,1294,1170,0,0
77,-146,0,0,0,0,0,0,0,0,0,-1,1301,1170,0,0
84,-146,0,0,0,0,0,0,0,0,0,-1,1308,1170,0,0
91,-146,0,0,0,0,0,0,0,0,0,-1,1315,1170,0,0
98,-146,0,0,0,0,0,0,0,0,0,-1,1322,1170,0,0
105,-146,0,0,0,0,0,0,0,0,0,-1,1329,1170,0,0
112,-146,0,0,0,0,0,0,0,0,0,-1,1336,1170,0,0
119,-146,0,0,0,0,0,0,0,0,0,-1,1343,1170,0,0
126,-146,0,0,0,0,0,0,0,0,0,-1,1350,1170,0,0
133,-146,0,0,0,0,0,0,0,0,0,-1,1357,1170,0,0
140,-146,0,0,0,0,0,0,0,0,0,-1,1364,1170,0,0
147,-146,0,0,0,0,0,0,0,0,0,-1,1371,1170,0,0
154,-146,0,0,0,0,0,0,0,0,0,-1,1378,1170,0,0
161,-146,0,0,0,0,0,0,0,0,0,-1,1385,1170,0,0
168,-146,0,0,0,0,0,0,0,0,0,-1,1392,1170,0,0
175,-146,0,0,0,0,0,0,0,0,0,-1,1399,1170,0,0
182,-146,0,0,0,0,0,0,0,0,0,-1,1406,1170,0,0
189,-146,0,0,0,0,0,0,0,0,0,-1,1413,1170,0,0
196,-146,0,0,0,0,0,0,0,0,0,-1,1420,1170,0,0
203,-146,0,0,0,0,0,0,0,0,0,-1,1427,1170,0,0
210,-146,0,0,0,0,0,0,0,0,0,-1,1434,1170,0,0
217,-146,0,0,0,0,0,0,0,0,0,-1,1441,1170,0,0
224,-146,0,0,0,0,0,0,0,0,0,-1,1448,1170,0,0
231,-146,0,0,0,0,0,0,0,0,0,-1,1455,1170,0,0
238,-146,0,0,0,0,0,0,0,0,0,-1,1462,1170,0,0
245,-146,0,0,0,0,0,0,0,0,0,-1,1469,1170,0,0
252,-146,0,0,0,0,0,0,0,0,0,-1,1476,1170,0,0
259,-146,0,0,0,0,0,0,0,0,0,-1,1483,1170,0,0
266,-146,0,0,0,0,0,0,0,0,0,-1,1490,1170,0,0
273,-146,0,0,0,0,0,0,0,0,0,-1,1497,1170,0,0
280,-146,0,0,0,0,0,0,0,0,0,-1,1504,1170,0,0
287,-146,0,0,0,0,0,0,0,0,0,-1,1511,1170,0,0
294,-146,0,0,0,0,0,0,0,0,0,-1,1518,1170,0,0
301,-146,0,0,0,0,0,0,0,0,0,-1,1525,1170,0,0
308,-146,0,0,0,0,0,0,0,0,0,-1,1532,1170,0,0
315,-146,0,0,0,0,0,0,0,0,0,-1,1539,1170,0,0
322,-146,0,0,0,0,0,0,0,0,0,-1,1546,1170,0,0
329,-146,0,0,0,0,0,0,0,0,0,-1,1553,1170,0,0
336,-146,0,0,0,0,0,0,0,0,0,-1,1560,1170,0,0
343,-146,0,0,0,0,0,0,0,0,0,-1,1567,1170,0,0
350,-146,0,0,0,0,0,0,0,0,0,-1,1574,1170,0,0
357,-146,0,0,0,0,0,0,0,0,0,-1,1581,1170,0,0
364,-146,0,0,0,0,0,0,0,0,0,-1,1588,1170,0,0
371,-146,0,0,0,0,0,0,0,0,0,-1,1595,1170,0,0
378,-146,0,0,0,0,0,0,0,0,0,-1,1602,1170,0,0
385,-146,0,0,0,0,0,0,0,0,0,-1,1609,1170,0,0
392,-146,0,0,0,0,0,0,0,0,0,-1,1616,1170,0,0
399,-146,0,0,0,0,0,0,0,0,0,-1,1623,1170,0,0
406,-146,0,0,0,0,0,0,0,0,0,-1,1630,1170,0,0
413,-146,0,0,0,0,0,0,0,0,0,-1,1637,1170,0,0
420,-146,0,0,0,0,0,0,0,0,0,-1,1644,1170,0,0
427,-146,0,0,0,0,0,0,0,0,0,-1,1651,1170,0,0
434,-146,0,0,0,0,0,0,0,0,0,-1,1658,1170,0,0
441,-146,0,0,0,0,0,0,0,0,0,-1,1665,1170,0,0
448,-146,0,0,0,0,0,0,0,0,0,-1,1672,1170,0,0
455,-146,0,0,0,0,0,0,0,0,0,-1,1679,1170,0,0
462,-146,0,0,0,0,0,0,0,0,0,-1,1686,1170,0,0
469,-146,0,0,0,0,0,0,0,0,0,-1,1693,1170,0,0
476,-146,0,0,0,0,0,0,0,0,0,-1,1700,1170,0,0
483,-146,0,0,0,0,0,0,0,0,0,-1,1707,1170,0,0
490,-146,0,0,0,0,0,0,0,0,0,-1,1714,1170,0,0
497,-146,0,0,0,0,0,0,0,0,0,-1,1721,1170,0,0
504,-146,0,0,0,0,0,0,0,0,0,-1,1728,1170,0,0
511,-146,0,0,0,0,0,0,0,0,0,-1,1735,1170,0,0
518,-146,0,0,0,0,0,0,0,0,0,-1,1742,1170,0,0
525,-146,0,0,0,0,0,0,0,0,0,-1,1749,1170,0,0
532,-146,0,0,0,0,0,0,0,0,0,-1,1756,1170,0,0
539,-146,0,0,0,0,0,0,0,0,0,-1,1763,1170,0,0
546,-146,0,0,0,0,0,0,0,0,0,-1,1770,1170,0,0
553,-146,0,0,0,0,0,0,0,0,0,-1,1777,1170,0,0
560,-146,0,0,0,0,0,0,0,0,0,-1,1784,1170,0,0
567,-146,0,0,0,0,0,0,0,0,0,-1,1791,1170,0,0
574,-146,0,0,0,0,0,0,0,0,0,-1,1798,1170,0,0
581,-146,0,0,0,0,0,0,0,0,0,-1,1805,1170,0,0
588,-146,0,0,0,0,0,0,0,0,0,-1,1812,1170,0,0
595,-146,0,0,0,0,0,0,0,0,0,-1,1819,1170,0,0
602,-146,0,0,0,0,0,0,0,0,0,-1,1826,1170,0,0
609,-146,0,0,0,0,0,0,0,0,0,-1,1833,1170,0,0
616,-146,0,0,0,0,0,0,0,0,0,-1,1840,1170,0,0
623,-146,0,0,0,0,0,0,0,0,0,-1,1847,1170,0,0
630,-146,0,0,0,0,0,0,0,0,0,-1,1854,1170,0,0
637,-146,78.7064,2.04907,0.00463825,-0.00484558,0.00277305,0.00538956,-0.0055969,0.264583,0.00634341,0.039078,1861,1170,78.7065,-2.04905
644,-146,78.7493,2.17773,0.00274255,-0.00326141,0.0021297,0.00342126,-0.00394012,0.308514,0.00425361,0.0368869,1868,1170,78.7493,-2.17775
651,-146,78.7562,2.25146,0.0014452,-0.00196521,0.00138722,0.00193819,-0.0024582,0.341465,0.00254417,0.0357764,1875,1170,78.7563,-2.25152
658,-146,78.7462,2.2926,0.000695187,-0.000985219,0.000613622,0.000895404,-0.00118544,0.315395,0.00120526,0.0396905,1882,1170,78.7462,-2.29256
665,-146,78.7617,2.46826,0.00027587,-0.000162627,-0.000212438,0.000361907,-0.000248665,-0.384811,0.000354529,0.0405488,1889,1170,78.7618,-2.46827
672,-146,78.7787,2.56946,0.000199398,0.000528233,-0.00107228,0.00144863,-0.000720994,-0.861473,0.0012759,0.038499,1896,1170,78.7787,-2.56942
679,-146,78.7709,2.45386,0.000564684,0.000613424,-0.00155549,0.00214474,-0.000966631,-0.793231,0.00183877,0.0326277,1903,1170,78.7709,-2.45381
686,-146,78.6658,2.35449,0.00148834,0.000808187,-0.00171824,0.00289983,-0.000603307,-0.687701,0.00216256,0.0271721,1910,1170,78.6658,-2.35445
693,-146,78.7561,2.30762,0.00167073,0.000755232,-0.00130856,0.00259929,-0.000173329,-0.617145,0.00179343,0.0236216,1917,1170,78.7561,-2.30763
700,-146,78.8604,2.27051,0,0,0,0,0,0,0,-1,1924,1170,78.8604,-2.27048
707,-146,29.9441,6.94653,0,0,0,0,0,0,0,-1,1931,1170,29.9441,-6.94652
714,-146,31.325,6.13245,0,0,0,0,0,0,0,-1,1938,1170,31.325,-6.1325
721,-146,61.3608,9.47766,0,0,0,0,0,0,0,-1,1945,1170,61.3608,-9.47767
728,-146,68.3976,9.59753,0,0,0,0,0,0,0,-1,1952,1170,68.3975,-9.59755
735,-146,68.4082,9.30249,0.00302633,0.00126397,0.00082262,0.00335063,0.000939673,0.375522,0.00199568,0.0423828,1959,1170,68.4082,-9.30245
742,-146,68.5466,8.55566,0.00287858,0.00127002,0.00143435,0.00371876,0.000429843,0.529877,0.00234904,0.0216731,1966,1170,68.5467,-8.55565
749,-146,68.3929,7.90076,0.00228358,0.00237616,0.0020939,0.00442428,0.000235462,0.796451,0.00287425,0.0176628,1973,1170,68.393,-7.90075
756,-146,68.3467,7.21399,0.00227198,0.00533662,0.00269013,0.00690023,0.000708371,1.04428,0.00438315,0.0131229,1980,1170,68.3467,-7.21402
763,-146,68.2825,6.49548,0.0029665,0.0103293,0.00255846,0.011131,0.00216477,1.26712,0.00681467,0.0120105,1987,1170,68.2824,-6.49549
770,-146,68.2505,5.79895,0.00410237,0.0165822,0.00195764,0.0168821,0.0038025,1.41879,0.0102257,0.0131975,1994,1170,68.2505,-5.79897
777,-146,68.2844,5.28223,0.0055168,0.0246182,0.000536635,0.0246333,0.00550174,1.54273,0.0149301,0.0260776,2001,1170,68.2845,-5.28217
784,-146,68.2124,4.99084,0.00742647,0.0355175,-0.0020907,0.0356723,0.00727172,-1.49691,0.0217663,0.0423921,2008,1170,68.2123,-4.9909
791,-146,68.3174,4.6449,0.00974544,0.0509788,-0.00693734,0.0521147,0.00860956,-1.4085,0.0322586,0.0443013,2015,1170,68.3173,-4.64494
798,-146,68.5901,4.32031,0,0,0,0,0,0,0,-1,2022,1170,68.5902,-4.32026
805,-146,72.9839,-0.712646,0,0,0,0,0,0,0,-1,2029,1170,72.984,0.712678
812,-146,0,0,0,0,0,0,0,0,0,-1,2036,1170,0,0
-700,-153,0,0,0,0,0,0,0,0,0,-1,524,1177,0,0
-693,-153,0,0,0,0,0,0,0,0,0,-1,531,1177,0,0
-686,-153,-45.7,3.04272,0,0,0,0,0,0,0,-1,538,1177,-45.7,-3.04271
-679,-153,-46.0246,3.82935,0,0,0,0,0,0,0,-1,545,1177,-46.0246,-3.82934
-672,-153,-48.2269,3.06213,0,0,0,0,0,0,0,-1,552,1177,-48.2269,-3.06215
-665,-153,-48.4665,3.22314,0,0,0,0,0,0,0,-1,559,1177,-48.4665,-3.22312
-658,-153,-48.8251,3.48645,0,0,0,0,0,0,0,-1,566,1177,-48.8251,-3.48643
-651,-153,-51.3403,3.62231,0,0,0,0,0,0,0,-1,573,1177,-51.3402,-3.62237
-644,-153,-51.4735,4.36426,0.0032122,0.00631178,-0.0137934,0.0186422,-0.0091182,-0.841342,0.0163389,0.0329391,580,1177,-51.4735,-4.36429
-637,-153,-51.6138,5.1178,-0.000388998,0.00421562,-0.00990146,0.0120789,-0.00825229,-0.899629,0.0118073,0.0134775,587,1177,-51.6137,-5.11775
-630,-153,-51.6688,5.86169,-0.00337451,0.00318185,-0.0069,0.00754281,-0.00773547,-1.00716,0.00882115,0.0102576,594,1177,-51.6688,-5.86175
-623,-153,-51.7139,6.60291,-0.00601001,0.00235363,-0.00495623,0.00465655,-0.00831293,-1.13583,0.00758647,0.0126369,601,1177,-51.7139,-6.60294
-616,-153,-51.7908,7.31665,-0.00765644,0.00201674,-0.0040558,0.00349221,-0.00913191,-1.22189,0.00752708,0.0173523,608,1177,-51.7908,-7.31663
-609,-153,-51.877,8.03833,0,0,0,0,0,0,0,-1,615,1177,-51.877,-8.03838
-602,-153,-50.7079,7.54736,0,0,0,0,0,0,0,-1,622,1177,-50.7079,-7.54741
-595,-153,-43.9551,7.35718,0,0,0,0,0,0,0,-1,629,1177,-43.9551,-7.35722
-588,-153,-32.348,5.51038,0,0,0,0,0,0,0,-1,636,1177,-32.348,-5.51034
-581,-153,-33.4568,6.41492,0,0,0,0,0,0,0,-1,643,1177,-33.4568,-6.41497
-574,-153,-25.4814,5.16956,0,0,0,0,0,0,0,-1,650,1177,-25.4814,-5.16961
-567,-153,-35.3121,1.09485,0,0,0,0,0,0,0,-1,657,1177,-35.3121,-1.09482
-560,-153,-62.2548,0.592773,0,0,0,0,0,0,0,-1,664,1177,-62.2548,-0.592738
-553,-153,-62.2552,0.730347,-0.00127261,-0.00217055,-0.00445038,0.00275139,-0.00619455,-0.735127,0.00529092,0.0408005,671,1177,-62.2552,-0.730341
-546,-153,-62.2377,0.602539,-0.00133448,-0.00255475,-0.00376411,0.00186863,-0.00575786,-0.70505,0.00459004,0.0406756,678,1177,-62.2377,-0.602481
-539,-153,-62.3747,0.442871,-0.000388675,-0.00263845,-0.00236605,0.00110628,-0.00413341,-0.563499,0.00318898,0.0390507,685,1177,-62.3747,-0.442872
-532,-153,-62.5004,0.464844,0.00121027,-0.00283322,-0.00090837,0.00140496,-0.00302791,-0.211136,0.00261587,0.03833,692,1177,-62.5004,-0.464873
-525,-153,-62.3045,0.51416,0.00389702,-0.00311475,0.000456676,0.00392664,-0.00314437,0.0647653,0.00409077,0.0405079,699,1177,-62.3045,-0.514183
-518,-153,0,0,0,0,0,0,0,0,0,-1,706,1177,0,0
-511,-153,0,0,0,0,0,0,0,0,0,-1,713,1177,0,0
-504,-153,0,0,0,0,0,0,0,0,0,-1,720,1177,0,0
-497,-153,0,0,0,0,0,0,0,0,0,-1,727,1177,0,0
-490,-153,0,0,0,0,0,0,0,0,0,-1,734,1177,0,0
-483,-153,0,0,0,0,0,0,0,0,0,-1,741,1177,0,0
-476,-153,0,0,0,0,0,0,0,0,0,-1,748,1177,0,0
-469,-153,0,0,0,0,0,0,0,0,0,-1,755,1177,0,0
-462,-153,0,0,0,0,0,0,0,0,0,-1,762,1177,0,0
-455,-153,0,0,0,0,0,0,0,0,0,-1,769,1177,0,0
-448,-153,0,0,0,0,0,0,0,0,0,-1,776,1177,0,0
-441,-153,0,0,0,0,0,0,0,0,0,-1,783,1177,0,0
-434,-153,0,0,0,0,0,0,0,0,0,-1,790,1177,0,0
-427,-153,0,0,0,0,0,0,0,0,0,-1,797,1177,0,0
-420,-153,0,0,0,0,0,0,0,0,0,-1,804,1177,0,0
-413,-153,0,0,0,0,0,0,0,0,0,-1,811,1177,0,0
-406,-153,0,0,0,0,0,0,0,0,0,-1,818,1177,0,0
-399,-153,0,0,0,0,0,0,0,0,0,-1,825,1177,0,0
-392,-153,0,0,0,0,0,0,0,0,0,-1,832,1177,0,0
-385,-153,0,0,0,0,0,0,0,0,0,-1,839,1177,0,0
-378,-153,0,0,0,0,0,0,0,0,0,-1,846,1177,0,0
-371,-153,0,0,0,0,0,0,0,0,0,-1,853,1177,0,0
-364,-153,0,0,0,0,0,0,0,0,0,-1,860,1177,0,0
-357,-153,0,0,0,0,0,0,0,0,0,-1,867,1177,0,0
-350,-153,0,0,0,0,0,0,0,0,0,-1,874,1177,0,0
-343,-153,0,0,0,0,0,0,0,0,0,-1,881,1177,0,0
-336,-153,0,0,0,0,0,0,0,0,0,-1,888,1177,0,0
-329,-153,0,0,0,0,0,0,0,0,0,-1,895,1177,0,0
-322,-153,0,0,0,0,0,0,0,0,0,-1,902,1177,0,0
-315,-153,0,0,0,0,0,0,0,0,0,-1,909,1177,0,0
-308,-153,0,0,0,0,0,0,0,0,0,-1,916,1177,0,0
-301,-153,0,0,0,0,0,0,0,0,0,-1,923,1177,0,0
-294,-153,0,0,0,0,0,0,0,0,0,-1,930,1177,0,0
-287,-153,0,0,0,0,0,0,0,0,0,-1,937,1177,0,0
-280,-153,0,0,0,0,0,0,0,0,0,-1,944,1177,0,0
-273,-153,0,0,0,0,0,0,0,0,0,-1,951,1177,0,0
-266,-153,0,0,0,0,0,0,0,0,0,-1,958,1177,0,0
-259,-153,0,0,0,0,0,0,0,0,0,-1,965,1177,0,0
-252,-153,0,0,0,0,0,0,0,0,0,-1,972,1177,0,0
-245,-153,0,0,0,0,0,0,0,0,0,-1,979,1177,0,0
-238,-153,0,0,0,0,0,0,0,0,0,-1,986,1177,0,0
-231,-153,0,0,0,0,0,0,0,0,0,-1,993,1177,0,0
-224,-153,0,0,0,0,0,0,0,0,0,-1,1000,1177,0,0
-217,-153,0,0,0,0,0,0,0,0,0,-1,1007,1177,0,0
-210,-153,0,0,0,0,0,0,0,0,0,-1,1014,1177,0,0
-203,-153,0,0,0,0,0,0,0,0,0,-1,1021,1177,0,0
-196,-153,0,0,0,0,0,0,0,0,0,-1,1028,1177,0,0
-189,-153,0,0,0,0,0,0,0,0,0,-1,1035,1177,0,0
-182,-153,0,0,0,0,0,0,0,0,0,-1,1042,1177,0,0
-175,-153,0,0,0,0,0,0,0,0,0,-1,1049,1177,0,0
-168,-153,0,0,0,0,0,0,0,0,0,-1,1056,1177,0,0
-161,-153,0,0,0,0,0,0,0,0,0,-1,1063,1177,0,0
-154,-153,0,0,0,0,0,0,0,0,0,-1,1070,1177,0,0
-147,-153,0,0,0,0,0,0,0,0,0,-1,1077,1177,0,0
-140,-153,0,0,0,0,0,0,0,0,0,-1,1084,1177,0,0
-133,-153,0,0,0,0,0,0,0,0,0,-1,1091,1177,0,0
-126,-153,0,0,0,0,0,0,0,0,0,-1,1098,1177,0,0
-119,-153,0,0,0,0,0,0,0,0,0,-1,1105,1177,0,0
-112,-153,0,0,0,0,0,0,0,0,0,-1,1112,1177,0,0
-105,-153,0,0,0,0,0,0,0,0,0,-1,1119,1177,0,0
-98,-153,0,0,0,0,0,0,0,0,0,-1,1126,1177,0,0
-91,-153,0,0,0,0,0,0,0,0,0,-1,1133,1177,0,0
-84,-153,0,0,0,0,0,0,0,0,0,-1,1140,1177,0,0
-77,-153,0,0,0,0,0,0,0,0,0,-1,1147,1177,0,0
-70,-153,0,0,0,0,0,0,0,0,0,-1,1154,1177,0,0
-63,-153,0,0,0,0,0,0,0,0,0,-1,1161,1177,0,0
-56,-153,0,0,0,0,0,0,0,0,0,-1,1168,1177,0,0
-49,-153,0,0,0,0,0,0,0,0,0,-1,1175,1177,0,0
-42,-153,0,0,0,0,0,0,0,0,0,-1,1182,1177,0,0
-35,-153,0,0,0,0,0,0,0,0,0,-1,1189,1177,0,0
-28,-153,0,0,0,0,0,0,0,0,0,-1,1196,1177,0,0
-21,-153,0,0,0,0,0,0,0,0,0,-1,1203,1177,0,0
-14,-153,0,0,0,0,0,0,0,0,0,-1,1210,1177,0,0
-7,-153,0,0,0,0,0,0,0,0,0,-1,1217,1177,0,0
0,-153,0,0,0,0,0,0,0,0,0,-1,1224,1177,0,0
7,-153,0,0,0,0,0,0,0,0,0,-1,1231,1177,0,0
14,-153,0,0,0,0,0,0,0,0,0,-1,1238,1177,0,0
21,-153,0,0,0,0,0,0,0,0,0,-1,1245,1177,0,0
28,-153,0,0,0,0,0,0,0,0,0,-1,1252,1177,0,0
35,-153,0,0,0,0,0,0,0,0,0,-1,1259,1177,0,0
42,-153,0,0,0,0,0,0,0,0,0,-1,1266,1177,0,0
49,-153,0,0,0,0,0,0,0,0,0,-1,1273,1177,0,0
56,-153,0,0,0,0,0,0,0,0,0,-1,1280,1177,0,0
63,-153,0,0,0,0,0,0,0,0,0,-1,1287,1177,0,0
70,-153,0,0,0,0,0,0,0,0,0,-1,1294,1177,0,0
77,-153,0,0,0,0,0,0,0,0,0,-1,1301,1177,0,0
84,-153,0,0,0,0,0,0,0,0,0,-1,1308,1177,0,0
91,-153,0,0,0,0,0,0,0,0,0,-1,1315,1177,0,0
98,-153,0,0,0,0,0,0,0,0,0,-1,1322,1177,0,0
105,-153,0,0,0,0,0,0,0,0,0,-1,1329,1177,0,0
112,-153,0,0,0,0,0,0,0,0,0,-1,1336,1177,0,0
119,-153,0,0,0,0,0,0,0,0,0,-1,1343,1177,0,0
126,-153,0,0,0,0,0,0,0,0,0,-1,1350,1177,0,0
133,-153,0,0,0,0,0,0,0,0,0,-1,1357,1177,0,0
140,-153,0,0,0,0,0,0,0,0,0,-1,1364,1177,0,0
147,-153,0,0,0,0,0,0,0,0,0,-1,1371,1177,0,0
154,-153,0,0,0,0,0,0,0,0,0,-1,1378,1177,0,0
161,-153,0,0,0,0,0,0,0,0,0,-1,1385,1177,0,0
168,-153,0,0,0,0,0,0,0,0,0,-1,1392,1177,0,0
175,-153,0,0,0,0,0,0,0,0,0,-1,1399,1177,0,0
182,-153,0,0,0,0,0,0,0,0,0,-1,1406,1177,0,0
189,-153,0,0,0,0,0,0,0,0,0,-1,1413,1177,0,0
196,-153,0,0,0,0,0,0,0,0,0,-1,1420,1177,0,0
203,-153,0,0,0,0,0,0,0,0,0,-1,1427,1177,0,0
210,-153,0,0,0,0,0,0,0,0,0,-1,1434,1177,0,0
217,-153,0,0,0,0,0,0,0,0,0,-1,1441,1177,0,0
224,-153,0,0,0,0,0,0,0,0,0,-1,1448,1177,0,0
231,-153,0,0,0,0,0,0,0,0,0,-1,1455,1177,0,0
238,-153,0,0,0,0,0,0,0,0,0,-1,1462,1177,0,0
245,-153,0,0,0,0,0,0,0,0,0,-1,1469,1177,0,0
252,-153,0,0,0,0,0,0,0,0,0,-1,1476,1177,0,0
259,-153,0,0,0,0,0,0,0,0,0,-1,1483,1177,0,0
266,-153,0,0,0,0,0,0,0,0,0,-1,1490,1177,0,0
273,-153,0,0,0,0,0,0,0,0,0,-1,1497,1177,0,0
280,-153,0,0,0,0,0,0,0,0,0,-1,1504,1177,0,0
287,-153,0,0,0,0,0,0,0,0,0,-1,1511,1177,0,0
294,-153,0,0,0,0,0,0,0,0,0,-1,1518,1177,0,0
301,-153,0,0,0,0,0,0,0,0,0,-1,1525,1177,0,0
308,-153,0,0,0,0,0,0,0,0,0,-1,1532,1177,0,0
315,-153,0,0,0,0,0,0,0,0,0,-1,1539,1177,0,0
322,-153,0,0,0,0,0,0,0,0,0,-1,1546,1177,0,0
329,-153,0,0,0,0,0,0,0,0,0,-1,1553,1177,0,0
336,-153,0,0,0,0,0,0,0,0,0,-1,1560,1177,0,0
343,-153,0,0,0,0,0,0,0,0,0,-1,1567,1177,0,0
350,-153,0,0,0,0,0,0,0,0,0,-1,1574,1177,0,0
357,-153,0,0,0,0,0,0,0,0,0,-1,1581,1177,0,0
364,-153,0,0,0,0,0,0,0,0,0,-1,1588,1177,0,0
371,-153,0,0,0,0,0,0,0,0,0,-1,1595,1177,0,0
378,-153,0,0,0,0,0,0,0,0,0,-1,1602,1177,0,0
385,-153,0,0,0,0,0,0,0,0,0,-1,1609,1177,0,0
392,-153,0,0,0,0,0,0,0,0,0,-1,1616,1177,0,0
399,-153,0,0,0,0,0,0,0,0,0,-1,1623,1177,0,0
406,-153,0,0,0,0,0,0,0,0,0,-1,1630,1177,0,0
413,-153,0,0,0,0,0,0,0,0,0,-1,1637,1177,0,0
420,-153,0,0,0,0,0,0,0,0,0,-1,1644,1177,0,0
427,-153,0,0,0,0,0,0,0,0,0,-1,1651,1177,0,0
434,-153,0,0,0,0,0,0,0,0,0,-1,1658,1177,0,0
441,-153,0,0,0,0,0,0,0,0,0,-1,1665,1177,0,0
448,-153,0,0,0,0,0,0,0,0,0,-1,1672,1177,0,0
455,-153,0,0,0,0,0,0,0,0,0,-1,1679,1177,0,0
462,-153,0,0,0,0,0,0,0,0,0,-1,1686,1177,0,0
469,-153,0,0,0,0,0,0,0,0,0,-1,1693,1177,0,0
476,-153,0,0,0,0,0,0,0,0,0,-1,1700,1177,0,0
483,-153,0,0,0,0,0,0,0,0,0,-1,1707,1177,0,0
490,-153,0,0,0,0,0,0,0,0,0,-1,1714,1177,0,0
497,-153,0,0,0,0,0,0,0,0,0,-1,1721,1177,0,0
504,-153,0,0,0,0,0,0,0,0,0,-1,1728,1177,0,0
511,-153,0,0,0,0,0,0,0,0,0,-1,1735,1177,0,0
518,-153,0,0,0,0,0,0,0,0,0,-1,1742,1177,0,0
525,-153,0,0,0,0,0,0,0,0,0,-1,1749,1177,0,0
532,-153,0,0,0,0,0,0,0,0,0,-1,1756,1177,0,0
539,-153,0,0,0,0,0,0,0,0,0,-1,1763,1177,0,0
546,-153,0,0,0,0,0,0,0,0,0,-1,1770,1177,0,0
553,-153,0,0,0,0,0,0,0,0,0,-1,1777,1177,0,0
560,-153,0,0,0,0,0,0,0,0,0,-1,1784,1177,0,0
567,-153,0,0,0,0,0,0,0,0,0,-1,1791,1177,0,0
574,-153,0,0,0,0,0,0,0,0,0,-1,1798,1177,0,0
581,-153,0,0,0,0,0,0,0,0,0,-1,1805,1177,0,0
588,-153,0,0,0,0,0,0,0,0,0,-1,1812,1177,0,0
595,-153,0,0,0,0,0,0,0,0,0,-1,1819,1177,0,0
602,-153,0,0,0,0,0,0,0,0,0,-1,1826,1177,0,0
609,-153,0,0,0,0,0,0,0,0,0,-1,1833,1177,0,0
616,-153,0,0,0,0,0,0,0,0,0,-1,1840,1177,0,0
623,-153,0,0,0,0,0,0,0,0,0,-1,1847,1177,0,0
630,-153,0,0,0,0,0,0,0,0,0,-1,1854,1177,0,0
637,-153,78.7557,2.2937,0.00450614,-0.00469867,0.00263815,0.00520864,-0.00540116,0.260244,0.00612591,0.0394873,1861,1177,78.7557,-2.29374
644,-153,78.7485,2.26294,0.00268086,-0.00323398,0.00187244,0.00322378,-0.0037769,0.282214,0.00404605,0.0364929,1868,1177,78.7485,-2.26288
651,-153,78.8097,2.34082,0.00142686,-0.00196497,0.00103416,0.00171731,-0.00225542,0.273794,0.00230065,0.0308256,1875,1177,78.8097,-2.34086
658,-153,78.8051,2.20337,0.000643221,-0.000924252,0.000165736,0.000660553,-0.000941585,0.104199,0.000929726,0.0352004,1882,1177,78.8051,-2.20337
665,-153,78.8265,2.2644,0.000159816,-2.50648e-05,-0.000675806,0.000749475,-0.000614724,-0.717427,0.0007889,0.0392509,1889,1177,78.8266,-2.26439
672,-153,78.7914,2.45532,4.73722e-06,0.000833373,-0.00147559,0.00195171,-0.0011136,-0.922264,0.00179167,0.039976,1896,1177,78.7914,-2.45528
679,-153,78.7188,2.39551,0.00027047,0.00104739,-0.00184194,0.00254139,-0.00122353,-0.889324,0.00221762,0.0307393,1903,1177,78.7188,-2.39552
686,-153,78.7103,2.3396,0.00121565,0.00128736,-0.00186499,0.00311684,-0.000613825,-0.795009,0.00230985,0.0204802,1910,1177,78.7103,-2.33966
693,-153,78.7904,2.25854,0,0,0,0,0,0,0,-1,1917,1177,78.7905,-2.2586
700,-153,74.8911,2.25464,0,0,0,0,0,0,0,-1,1924,1177,74.8911,-2.25461
707,-153,29.6483,6.6842,0,0,0,0,0,0,0,-1,1931,1177,29.6483,-6.68415
714,-153,36.0046,6.78418,0,0,0,0,0,0,0,-1,1938,1177,36.0046,-6.78418
721,-153,36.4866,6.47595,0,0,0,0,0,0,0,-1,1945,1177,36.4866,-6.47593
728,-153,47.7305,7.37024,0,0,0,0,0,0,0,-1,1952,1177,47.7304,-7.37022
735,-153,67.5093,8.90637,0,0,0,0,0,0,0,-1,1959,1177,67.5093,-8.90638
742,-153,67.6932,8.65002,0.00272837,0.00133814,0.00139105,0.00358832,0.000478192,0.553692,0.00224982,0.0198105,1966,1177,67.6932,-8.64999
749,-153,67.6755,7.97498,0.00242624,0.00257811,0.00205523,0.00455881,0.000445543,0.803863,0.00290211,0.0176898,1973,1177,67.6755,-7.97497
756,-153,67.6331,7.24854,0.00286983,0.0057493,0.00271084,0.007379,0.00124012,1.02951,0.00456249,0.012005,1980,1177,67.633,-7.24855
763,-153,67.5806,6.53015,0.0040109,0.0107239,0.00284725,0.0117688,0.00296593,1.21905,0.00706783,0.0115797,1987,1177,67.5805,-6.53011
770,-153,67.564,5.83289,0.00564723,0.0169417,0.00269231,0.0175506,0.00503828,1.34836,0.0104346,0.0131475,1994,1177,67.5641,-5.83291
777,-153,67.5332,5.25049,0.00768432,0.0248995,0.00190102,0.0251069,0.0074769,1.46211,0.0148853,0.0267023,2001,1177,67.5333,-5.25046
784,-153,67.6809,4.82532,0.0104127,0.0354861,0.000245097,0.0354885,0.0104103,1.56102,0.0210646,0.0432673,2008,1177,67.6808,-4.82531
791,-153,67.9167,4.32312,0.0140484,0.0506288,-0.00327347,0.0509194,0.0137578,-1.48225,0.0304158,0.0444978,2015,1177,67.9168,-4.32308
798,-153,68.2898,3.79871,0,0,0,0,0,0,0,-1,2022,1177,68.2898,-3.79869
805,-153,72.9031,-1.25159,0,0,0,0,0,0,0,-1,2029,1177,72.9031,1.25159
812,-153,0,0,0,0,0,0,0,0,0,-1,2036,1177,0,0
-700,-160,0,0,0,0,0,0,0,0,0,-1,524,1184,0,0
-693,-160,0,0,0,0,0,0,0,0,0,-1,531,1184,0,0
-686,-160,-45.3687,2.0741,0,0,0,0,0,0,0,-1,538,1184,-45.3687,-2.07404
-679,-160,-45.745,2.91089,0,0,0,0,0,0,0,-1,545,1184,-45.745,-2.91085
-672,-160,-47.8455,2.80542,0,0,0,0,0,0,0,-1,552,1184,-47.8455,-2.80542
-665,-160,-47.8249,3.14966,0,0,0,0,0,0,0,-1,559,1184,-47.8249,-3.14969
-658,-160,-47.9688,3.38806,0,0,0,0,0,0,0,-1,566,1184,-47.9688,-3.38801
-651,-160,-50.6883,3.81299,0,0,0,0,0,0,0,-1,573,1184,-50.6883,-3.813
-644,-160,-50.7129,4.47791,0.00595134,0.00604843,-0.0167197,0.0227197,-0.0107199,-0.78685,0.0197164,0.0419042,580,1184,-50.7129,-4.47794
-637,-160,-50.8242,5.14099,0.00187412,0.00408045,-0.0116387,0.0146681,-0.00871357,-0.832649,0.0136446,0.0169283,587,1184,-50.8242,-5.14098
-630,-160,-50.9176,5.85132,-0.00137015,0.00298535,-0.00785442,0.00895833,-0.00734313,-0.920633,0.00942704,0.00951988,594,1184,-50.9176,-5.85134
-623,-160,-50.9694,6.60291,-0.00403157,0.00214128,-0.00542219,0.00529394,-0.00718422,-1.04414,0.00723177,0.0172406,601,1184,-50.9694,-6.60287
-616,-160,-51.0198,7.38293,-0.00591938,0.00175923,-0.00409196,0.00353102,-0.00769117,-1.16217,0.00662587,0.0160278,608,1184,-51.0198,-7.38289
-609,-160,-51.2444,8.08728,-0.00552284,0.00108976,-0.00412524,0.00307016,-0.00750324,-1.12322,0.00628086,0.0294651,615,1184,-51.2444,-8.08723
-602,-160,-51.5328,8.78992,0,0,0,0,0,0,0,-1,622,1184,-51.5329,-8.78992
-595,-160,-33.0669,5.93445,0,0,0,0,0,0,0,-1,629,1184,-33.0669,-5.93446
-588,-160,-33.4845,5.66699,0,0,0,0,0,0,0,-1,636,1184,-33.4845,-5.66697
-581,-160,-33.1338,6.41174,0,0,0,0,0,0,0,-1,643,1184,-33.1338,-6.41176
-574,-160,-32.7831,7.15649,0,0,0,0,0,0,0,-1,650,1184,-32.7831,-7.15655
-567,-160,-29.5828,0.643921,0,0,0,0,0,0,0,-1,657,1184,-29.5828,-0.643968
-560,-160,-57.0784,0.200806,0,0,0,0,0,0,0,-1,664,1184,-57.0784,-0.200768
-553,-160,-62.205,0.618774,0,0,0,0,0,0,0,-1,671,1184,-62.205,-0.61873
-546,-160,-62.1454,0.466919,-0.00163535,-0.00243548,-0.00358463,0.00157147,-0.00564231,-0.729825,0.00438036,0.039903,678,1184,-62.1454,-0.46687
-539,-160,-62.2863,0.459473,-0.000744853,-0.00282386,-0.00227811,0.000719714,-0.00428842,-0.571358,0.00312659,0.0402176,685,1184,-62.2863,-0.459509
-532,-160,-62.319,0.449951,0.000987199,-0.00323213,-0.000870838,0.00115987,-0.0034048,-0.19574,0.00273959,0.0401871,692,1184,-62.319,-0.44991
-525,-160,-62.1946,0.417603,0.00462014,-0.00378661,0.000414329,0.00464051,-0.00380698,0.0491266,0.00488507,0.041521,699,1184,-62.1946,-0.417652
-518,-160,-62.0369,0.399658,0,0,0,0,0,0,0,-1,706,1184,-62.0369,-0.399665
-511,-160,0,0,0,0,0,0,0,0,0,-1,713,1184,0,0
-504,-160,0,0,0,0,0,0,0,0,0,-1,720,1184,0,0
-497,-160,0,0,0,0,0,0,0,0,0,-1,727,1184,0,0
-490,-160,0,0,0,0,0,0,0,0,0,-1,734,1184,0,0
-483,-160,0,0,0,0,0,0,0,0,0,-1,741,1184,0,0
-476,-160,0,0,0,0,0,0,0,0,0,-1,748,1184,0,0
-469,-160,0,0,0,0,0,0,0,0,0,-1,755,1184,0,0
-462,-160,0,0,0,0,0,0,0,0,0,-1,762,1184,0,0
-455,-160,0,0,0,0,0,0,0,0,0,-1,769,1184,0,0
-448,-160,0,0,0,0,0,0,0,0,0,-1,776,1184,0,0
-441,-160,0,0,0,0,0,0,0,0,0,-1,783,1184,0,0
-434,-160,0,0,0,0,0,0,0,0,0,-1,790,1184,0,0
-427,-160,0,0,0,0,0,0,0,0,0,-1,797,1184,0,0
-420,-160,0,0,0,0,0,0,0,0,0,-1,804,1184,0,0
-413,-160,0,0,0,0,0,0,0,0,0,-1,811,1184,0,0
-406,-160,0,0,0,0,0,0,0,0,0,-1,818,1184,0,0
-399,-160,0,0,0,0,0,0,0,0,0,-1,825,1184,0,0
-392,-160,0,0,0,0,0,0,0,0,0,-1,832,1184,0,0
-385,-160,0,0,0,0,0,0,0,0,0,-1,839,1184,0,0
-378,-160,0,0,0,0,0,0,0,0,0,-1,846,1184,0,0
-371,-160,0,0,0,0,0,0,0,0,0,-1,853,1184,0,0
-364,-160,0,0,0,0,0,0,0,0,0,-1,860,1184,0,0
-357,-160,0,0,0,0,0,0,0,0,0,-1,867,1184,0,0
-350,-160,0,0,0,0,0,0,0,0,0,-1,874,1184,0,0
-343,-160,0,0,0,0,0,0,0,0,0,-1,881,1184,0,0
-336,-160,0,0,0,0,0,0,0,0,0,-1,888,1184,0,0
-329,-160,0,0,0,0,0,0,0,0,0,-1,895,1184,0,0
-322,-160,0,0,0,0,0,0,0,0,0,-1,902,1184,0,0
-315,-160,0,0,0,0,0,0,0,0,0,-1,909,1184,0,0
-308,-160,0,0,0,0,0,0,0,0,0,-1,916,1184,0,0
-301,-160,0,0,0,0,0,0,0,0,0,-1,923,1184,0,0
-294,-160,0,0,0,0,0,0,0,0,0,-1,930,1184,0,0
-287,-160,0,0,0,0,0,0,0,0,0,-1,937,1184,0,0
-280,-160,0,0,0,0,0,0,0,0,0,-1,944,1184,0,0
-273,-160,0,0,0,0,0,0,0,0,0,-1,951,1184,0,0
-266,-160,0,0,0,0,0,0,0,0,0,-1,958,1184,0,0
-259,-160,0,0,0,0,0,0,0,0,0,-1,965,1184,0,0
-252,-160,0,0,0,0,0,0,0,0,0,-1,972,1184,0,0
-245,-160,0,0,0,0,0,0,0,0,0,-1,979,1184,0,0
-238,-160,0,0,0,0,0,0,0,0,0,-1,986,1184,0,0
-231,-160,0,0,0,0,0,0,0,0,0,-1,993,1184,0,0
-224,-160,0,0,0,0,0,0,0,0,0,-1,1000,1184,0,0
-217,-160,0,0,0,0,0,0,0,0,0,-1,1007,1184,0,0
-210,-160,0,0,0,0,0,0,0,0,0,-1,1014,1184,0,0
-203,-160,0,0,0,0,0,0,0,0,0,-1,1021,1184,0,0
-196,-160,0,0,0,0,0,0,0,0,0,-1,1028,1184,0,0
-189,-160,0,0,0,0,0,0,0,0,0,-1,1035,1184,0,0
-182,-160,0,0,0,0,0,0,0,0,0,-1,1042,1184,0,0
-175,-160,0,0,0,0,0,0,0,0,0,-1,1049,1184,0,0
-168,-160,0,0,0,0,0,0,0,0,0,-1,1056,1184,0,0
-161,-160,0,0,0,0,0,0,0,0,0,-1,1063,1184,0,0
-154,-160,0,0,0,0,0,0,0,0,0,-1,1070,1184,0,0
-147,-160,0,0,0,0,0,0,0,0,0,-1,1077,1184,0,0
-140,-160,0,0,0,0,0,0,0,0,0,-1,1084,1184,0,0
-133,-160,0,0,0,0,0,0,0,0,0,-1,1091,1184,0,0
-126,-160,0,0,0,0,0,0,0,0,0,-1,1098,1184,0,0
-119,-160,0,0,0,0,0,0,0,0,0,-1,1105,1184,0,0
-112,-160,0,0,0,0,0,0,0,0,0,-1,1112,1184,0,0
-105,-160,0,0,0,0,0,0,0,0,0,-1,1119,1184,0,0
-98,-160,0,0,0,0,0,0,0,0,0,-1,1126,1184,0,0
-91,-160,0,0,0,0,0,0,0,0,0,-1,1133,1184,0,0
-84,-160,0,0,0,0,0,0,0,0,0,-1,1140,1184,0,0
-77,-160,0,0,0,0,0,0,0,0,0,-1,1147,1184,0,0
-70,-160,0,0,0,0,0,0,0,0,0,-1,1154,1184,0,0
-63,-160,0,0,0,0,0,0,0,0,0,-1,1161,1184,0,0
-56,-160,0,0,0,0,0,0,0,0,0,-1,1168,1184,0,0
-49,-160,0,0,0,0,0,0,0,0,0,-1,1175,1184,0,0
-42,-160,0,0,0,0,0,0,0,0,0,-1,1182,1184,0,0
-35,-160,0,0,0,0,0,0,0,0,0,-1,1189,1184,0,0
-28,-160,0,0,0,0,0,0,0,0,0,-1,1196,1184,0,0
-21,-160,0,0,0,0,0,0,0,0,0,-1,1203,1184,0,0
-14,-160,0,0,0,0,0,0,0,0,0,-1,1210,1184,0,0
-7,-160,0,0,0,0,0,0,0,0,0,-1,1217,1184,0,0
0,-160,0,0,0,0,0,0,0,0,0,-1,1224,1184,0,0
7,-160,0,0,0,0,0,0,0,0,0,-1,1231,1184,0,0
14,-160,0,0,0,0,0,0,0,0,0,-1,1238,1184,0,0
21,-160,0,0,0,0,0,0,0,0,0,-1,1245,1184,0,0
28,-160,0,0,0,0,0,0,0,0,0,-1,1252,1184,0,0
35,-160,0,0,0,0,0,0,0,0,0,-1,1259,1184,0,0
42,-160,0,0,0,0,0,0,0,0,0,-1,1266,1184,0,0
49,-160,0,0,0,0,0,0,0,0,0,-1,1273,1184,0,0
56,-160,0,0,0,0,0,0,0,0,0,-1,1280,1184,0,0
63,-160,0,0,0,0,0,0,0,0,0,-1,1287,1184,0,0
70,-160,0,0,0,0,0,0,0,0,0,-1,1294,1184,0,0
77,-160,0,0,0,0,0,0,0,0,0,-1,1301,1184,0,0
84,-160,0,0,0,0,0,0,0,0,0,-1,1308,1184,0,0
91,-160,0,0,0,0,0,0,0,0,0,-1,1315,1184,0,0
98,-160,0,0,0,0,0,0,0,0,0,-1,1322,1184,0,0
105,-160,0,0,0,0,0,0,0,0,0,-1,1329,1184,0,0
112,-160,0,0,0,0,0,0,0,0,0,-1,1336,1184,0,0
119,-160,0,0,0,0,0,0,0,0,0,-1,1343,1184,0,0
126,-160,0,0,0,0,0,0,0,0,0,-1,1350,1184,0,0
133,-160,0,0,0,0,0,0,0,0,0,-1,1357,1184,0,0
140,-160,0,0,0,0,0,0,0,0,0,-1,1364,1184,0,0
147,-160,0,0,0,0,0,0,0,0,0,-1,1371,1184,0,0
154,-160,0,0,0,0,0,0,0,0,0,-1,1378,1184,0,0
161,-160,0,0,0,0,0,0,0,0,0,-1,1385,1184,0,0
168,-160,0,0,0,0,0,0,0,0,0,-1,1392,1184,0,0
175,-160,0,0,0,0,0,0,0,0,0,-1,1399,1184,0,0
182,-160,0,0,0,0,0,0,0,0,0,-1,1406,1184,0,0
189,-160,0,0,0,0,0,0,0,0,0,-1,1413,1184,0,0
196,-160,0,0,0,0,0,0,0,0,0,-1,1420,1184,0,0
203,-160,0,0,0,0,0,0,0,0,0,-1,1427,1184,0,0
210,-160,0,0,0,0,0,0,0,0,0,-1,1434,1184,0,0
217,-160,0,0,0,0,0,0,0,0,0,-1,1441,1184,0,0
224,-160,0,0,0,0,0,0,0,0,0,-1,1448,1184,0,0
231,-160,0,0,0,0,0,0,0,0,0,-1,1455,1184,0,0
238,-160,0,0,0,0,0,0,0,0,0,-1,1462,1184,0,0
245,-160,0,0,0,0,0,0,0,0,0,-1,1469,1184,0,0
252,-160,0,0,0,0,0,0,0,0,0,-1,1476,1184,0,0
259,-160,0,0,0,0,0,0,0,0,0,-1,1483,1184,0,0
266,-160,0,0,0,0,0,0,0,0,0,-1,1490,1184,0,0
273,-160,0,0,0,0,0,0,0,0,0,-1,1497,1184,0,0
280,-160,0,0,0,0,0,0,0,0,0,-1,1504,1184,0,0
287,-160,0,0,0,0,0,0,0,0,0,-1,1511,1184,0,0
294,-160,0,0,0,0,0,0,0,0,0,-1,1518,1184,0,0
301,-160,0,0,0,0,0,0,0,0,0,-1,1525,1184,0,0
308,-160,0,0,0,0,0,0,0,0,0,-1,1532,1184,0,0
315,-160,0,0,0,0,0,0,0,0,0,-1,1539,1184,0,0
322,-160,0,0,0,0,0,0,0,0,0,-1,1546,1184,0,0
329,-160,0,0,0,0,0,0,0,0,0,-1,1553,1184,0,0
336,-160,0,0,0,0,0,0,0,0,0,-1,1560,1184,0,0
343,-160,0,0,0,0,0,0,0,0,0,-1,1567,1184,0,0
350,-160,0,0,0,0,0,0,0,0,0,-1,1574,1184,0,0
357,-160,0,0,0,0,0,0,0,0,0,-1,1581,1184,0,0
364,-160,0,0,0,0,0,0,0,0,0,-1,1588,1184,0,0
371,-160,0,0,0,0,0,0,0,0,0,-1,1595,1184,0,0
378,-160,0,0,0,0,0,0,0,0,0,-1,1602,1184,0,0
385,-160,0,0,0,0,0,0,0,0,0,-1,1609,1184,0,0
392,-160,0,0,0,0,0,0,0,0,0,-1,1616,1184,0,0
399,-160,0,0,0,0,0,0,0,0,0,-1,1623,1184,0,0
406,-160,0,0,0,0,0,0,0,0,0,-1,1630,1184,0,0
413,-160,0,0,0,0,0,0,0,0,0,-1,1637,1184,0,0
420,-160,0,0,0,0,0,0,0,0,0,-1,1644,1184,0,0
427,-160,0,0,0,0,0,0,0,0,0,-1,1651,1184,0,0
434,-160,0,0,0,0,0,0,0,0,0,-1,1658,1184,0,0
441,-160,0,0,0,0,0,0,0,0,0,-1,1665,1184,0,0
448,-160,0,0,0,0,0,0,0,0,0,-1,1672,1184,0,0
455,-160,0,0,0,0,0,0,0,0,0,-1,1679,1184,0,0
462,-160,0,0,0,0,0,0,0,0,0,-1,1686,1184,0,0
469,-160,0,0,0,0,0,0,0,0,0,-1,1693,1184,0,0
476,-160,0,0,0,0,0,0,0,0,0,-1,1700,1184,0,0
483,-160,0,0,0,0,0,0,0,0,0,-1,1707,1184,0,0
490,-160,0,0,0,0,0,0,0,0,0,-1,1714,1184,0,0
497,-160,0,0,0,0,0,0,0,0,0,-1,1721,1184,0,0
504,-160,0,0,0,0,0,0,0,0,0,-1,1728,1184,0,0
511,-160,0,0,0,0,0,0,0,0,0,-1,1735,1184,0,0
518,-160,0,0,0,0,0,0,0,0,0,-1,1742,1184,0,0
525,-160,0,0,0,0,0,0,0,0,0,-1,1749,1184,0,0
532,-160,0,0,0,0,0,0,0,0,0,-1,1756,1184,0,0
539,-160,0,0,0,0,0,0,0,0,0,-1,1763,1184,0,0
546,-160,0,0,0,0,0,0,0,0,0,-1,1770,1184,0,0
553,-160,0,0,0,0,0,0,0,0,0,-1,1777,1184,0,0
560,-160,0,0,0,0,0,0,0,0,0,-1,1784,1184,0,0
567,-160,0,0,0,0,0,0,0,0,0,-1,1791,1184,0,0
574,-160,0,0,0,0,0,0,0,0,0,-1,1798,1184,0,0
581,-160,0,0,0,0,0,0,0,0,0,-1,1805,1184,0,0
588,-160,0,0,0,0,0,0,0,0,0,-1,1812,1184,0,0
595,-160,0,0,0,0,0,0,0,0,0,-1,1819,1184,0,0
602,-160,0,0,0,0,0,0,0,0,0,-1,1826,1184,0,0
609,-160,0,0,0,0,0,0,0,0,0,-1,1833,1184,0,0
616,-160,0,0,0,0,0,0,0,0,0,-1,1840,1184,0,0
623,-160,0,0,0,0,0,0,0,0,0,-1,1847,1184,0,0
630,-160,0,0,0,0,0,0,0,0,0,-1,1854,1184,0,0
637,-160,78.7065,2.51465,0.00404604,-0.00468591,0.00228344,0.00460712,-0.00524699,0.240942,0.00569327,0.0430954,1861,1184,78.7066,-2.51466
644,-160,78.76,2.41663,0.00243572,-0.00327322,0.00149198,0.00280212,-0.00363962,0.240813,0.0037296,0.04102,1868,1184,78.76,-2.41662
651,-160,78.8413,2.42529,0.00134502,-0.00198403,0.000632285,0.00146106,-0.00210008,0.181512,0.00206703,0.0373106,1875,1184,78.8413,-2.42529
658,-160,78.6608,2.23193,0.000649103,-0.000860635,-0.0002482,0.00068886,-0.000900392,-0.158832,0.000920261,0.0384618,1882,1184,78.6608,-2.23191
665,-160,78.8075,2.203,0.000240565,0.000114582,-0.00101864,0.00119815,-0.000843008,-0.754518,0.0011844,0.0407108,1889,1184,78.8074,-2.20306
672,-160,78.7607,2.42188,0.000165013,0.00110895,-0.00166652,0.00236904,-0.00109508,-0.923388,0.0020446,0.0371395,1896,1184,78.7608,-2.42192
679,-160,78.7015,2.41321,0.000413032,0.00145883,-0.00190218,0.00290868,-0.00103682,-0.919532,0.00236184,0.0273295,1903,1184,78.7015,-2.41327
686,-160,78.7463,2.31702,0.0013098,0.00171268,-0.00189892,0.00342081,-0.00039833,-0.838241,0.00242425,0.0186757,1910,1184,78.7463,-2.31698
693,-160,78.7695,2.24182,0,0,0,0,0,0,0,-1,1917,1184,78.7695,-2.24178
700,-160,42.8784,2.44617,0,0,0,0,0,0,0,-1,1924,1184,42.8785,-2.4462
707,-160,24.5115,6.27405,0,0,0,0,0,0,0,-1,1931,1184,24.5115,-6.27401
714,-160,35.6892,6.8905,0,0,0,0,0,0,0,-1,1938,1184,35.6892,-6.89048
721,-160,36.2388,6.37878,0,0,0,0,0,0,0,-1,1945,1184,36.2388,-6.37876
728,-160,52.2174,8.57385,0,0,0,0,0,0,0,-1,1952,1184,52.2174,-8.57381
735,-160,66.8398,9.40796,0,0,0,0,0,0,0,-1,1959,1184,66.8399,-9.40797
742,-160,66.9213,8.65002,0.00271015,0.00167391,0.00113352,0.00343835,0.000945715,0.57103,0.00205101,0.0204868,1966,1184,66.9213,-8.65007
749,-160,66.9363,7.94604,0.00264183,0.00302662,0.00186285,0.00470699,0.00096146,0.836856,0.00287167,0.0188314,1973,1184,66.9363,-7.94605
756,-160,66.9034,7.24316,0.00338448,0.00614392,0.00273225,0.00782506,0.00170334,1.01921,0.0047518,0.0122926,1980,1184,66.9035,-7.24318
763,-160,66.8438,6.56628,0.00488999,0.0106673,0.00343178,0.0122643,0.00329295,1.13524,0.00732944,0.0131511,1987,1184,66.8438,-6.56626
770,-160,66.7146,5.76965,0.0070456,0.016417,0.00404483,0.0179213,0.00554128,1.21473,0.010595,0.0310272,1994,1184,66.7146,-5.76961
777,-160,66.5356,5.06958,0.00986068,0.0237563,0.00429,0.024974,0.00864294,1.29422,0.0146447,0.0413616,2001,1184,66.5357,-5.06959
784,-160,67.0762,4.39355,0.0136717,0.0333148,0.00409436,0.034134,0.0128524,1.37331,0.0199066,0.0468991,2008,1184,67.0761,-4.39352
791,-160,67.2527,3.73999,0.0193269,0.0472569,0.0025548,0.0474887,0.0190951,1.48033,0.0275923,0.0466933,2015,1184,67.2526,-3.73997
798,-160,67.5759,3.29163,0,0,0,0,0,0,0,-1,2022,1184,67.5758,-3.2916
805,-160,72.8779,-1.81018,0,0,0,0,0,0,0,-1,2029,1184,72.878,1.81012
812,-160,0,0,0,0,0,0,0,0,0,-1,2036,1184,0,0
-700,-167,0,0,0,0,0,0,0,0,0,-1,524,1191,0,0
-693,-167,0,0,0,0,0,0,0,0,0,-1,531,1191,0,0
-686,-167,-45.092,0.868896,0,0,0,0,0,0,0,-1,538,1191,-45.092,-0.868933
-679,-167,-45.5177,1.95996,0,0,0,0,0,0,0,-1,545,1191,-45.5177,-1.95999
-672,-167,-47.0906,2.15942,0,0,0,0,0,0,0,-1,552,1191,-47.0906,-2.15947
-665,-167,-47.3031,2.78796,0,0,0,0,0,0,0,-1,559,1191,-47.3031,-2.78794
-658,-167,-51.3466,4.15723,0,0,0,0,0,0,0,-1,566,1191,-51.3466,-4.1572
-651,-167,-49.8135,4.07214,0,0,0,0,0,0,0,-1,573,1191,-49.8136,-4.07215
-644,-167,-49.8751,4.64392,0.00879771,0.00586604,-0.0195097,0.0268966,-0.0122328,-0.747902,0.0231141,0.043069,580,1191,-49.875,-4.64389
-637,-167,-50.0115,5.18604,0.00418443,0.0041826,-0.0131601,0.0173436,-0.00897659,-0.785363,0.0154498,0.0205102,587,1191,-50.0115,-5.18604
-630,-167,-50.1416,5.85767,0.000674738,0.00297456,-0.00872026,0.0106204,-0.0069711,-0.850953,0.010229,0.0101077,594,1191,-50.1416,-5.85764
-623,-167,-50.1801,6.58765,-0.00198981,0.00210127,-0.00586677,0.00626887,-0.00615742,-0.953141,0.00717442,0.0159069,601,1191,-50.18,-6.58762
-616,-167,-50.2261,7.36853,-0.00395557,0.00159634,-0.00416075,0.00382216,-0.00618139,-1.07958,0.00582885,0.02083,608,1191,-50.2261,-7.36858
-609,-167,-50.3092,8.18726,-0.00416788,0.00094594,-0.00382659,0.00299126,-0.0062132,-1.07993,0.00542164,0.0206618,615,1191,-50.3092,-8.18722
-602,-167,-50.4957,8.9425,0,0,0,0,0,0,0,-1,622,1191,-50.4957,-8.94255
-595,-167,-47.733,8.40173,0,0,0,0,0,0,0,-1,629,1191,-47.733,-8.40171
-588,-167,-42.7112,7.92004,0,0,0,0,0,0,0,-1,636,1191,-42.7112,-7.92007
-581,-167,-32.8646,6.30542,0,0,0,0,0,0,0,-1,643,1191,-32.8646,-6.30537
-574,-167,-32.4808,7.37524,0,0,0,0,0,0,0,-1,650,1191,-32.4808,-7.37525
-567,-167,-27.3643,2.55859,0,0,0,0,0,0,0,-1,657,1191,-27.3643,-2.55864
-560,-167,-48.2598,0.834839,0,0,0,0,0,0,0,-1,664,1191,-48.2598,-0.834822
-553,-167,-62.1257,0.461914,0,0,0,0,0,0,0,-1,671,1191,-62.1257,-0.461942
-546,-167,-62.1264,0.474243,-0.00188205,-0.00214354,-0.00351564,0.00150527,-0.00553086,-0.766812,0.0042782,0.037068,678,1191,-62.1264,-0.474184
-539,-167,-62.1083,0.479858,-0.00116826,-0.00267535,-0.00220526,0.000408649,-0.00425225,-0.620765,0.00298041,0.0408925,685,1191,-62.1084,-0.479899
-532,-167,-62.2045,0.422607,0.000450888,-0.0031594,-0.000809239,0.000623979,-0.00333249,-0.210718,0.00245621,0.0429395,692,1191,-62.2045,-0.422649
-525,-167,-62.2301,0.235229,0.00478163,-0.00374817,0.000451057,0.00480541,-0.00377195,0.0526844,0.00496411,0.0443012,699,1191,-62.2301,-0.235253
-518,-167,-62.0904,0.0352783,0,0,0,0,0,0,0,-1,706,1191,-62.0904,-0.0353306
-511,-167,0,0,0,0,0,0,0,0,0,-1,713,1191,0,0
-504,-167,0,0,0,0,0,0,0,0,0,-1,720,1191,0,0
-497,-167,0,0,0,0,0,0,0,0,0,-1,727,1191,0,0
-490,-167,0,0,0,0,0,0,0,0,0,-1,734,1191,0,0
-483,-167,0,0,0,0,0,0,0,0,0,-1,741,1191,0,0
-476,-167,0,0,0,0,0,0,0,0,0,-1,748,1191,0,0
-469,-167,0,0,0,0,0,0,0,0,0,-1,755,1191,0,0
-462,-167,0,0,0,0,0,0,0,0,0,-1,762,1191,0,0
-455,-167,0,0,0,0,0,0,0,0,0,-1,769,1191,0,0
-448,-167,0,0,0,0,0,0,0,0,0,-1,776,1191,0,0
-441,-167,0,0,0,0,0,0,0,0,0,-1,783,1191,0,0
-434,-167,0,0,0,0,0,0,0,0,0,-1,790,1191,0,0
-427,-167,0,0,0,0,0,0,0,0,0,-1,797,1191,0,0
-420,-167,0,0,0,0,0,0,0,0,0,-1,804,1191,0,0
-413,-167,0,0,0,0,0,0,0,0,0,-1,811,1191,0,0
-406,-167,0,0,0,0,0,0,0,0,0,-1,818,1191,0,0
-399,-167,0,0,0,0,0,0,0,0,0,-1,825,1191,0,0
-392,-167,0,0,0,0,0,0,0,0,0,-1,832,1191,0,0
-385,-167,0,0,0,0,0,0,0,0,0,-1,839,1191,0,0
-378,-167,0,0,0,0,0,0,0,0,0,-1,846,1191,0,0
-371,-167,0,0,0,0,0,0,0,0,0,-1,853,1191,0,0
-364,-167,0,0,0,0,0,0,0,0,0,-1,860,1191,0,0
-357,-167,0,0,0,0,0,0,0,0,0,-1,867,1191,0,0
-350,-167,0,0,0,0,0,0,0,0,0,-1,874,1191,0,0
-343,-167,0,0,0,0,0,0,0,0,0,-1,881,1191,0,0
-336,-167,0,0,0,0,0,0,0,0,0,-1,888,1191,0,0
-329,-167,0,0,0,0,0,0,0,0,0,-1,895,1191,0,0
-322,-167,0,0,0,0,0,0,0,0,0,-1,902,1191,0,0
-315,-167,0,0,0,0,0,0,0,0,0,-1,909,1191,0,0
-308,-167,0,0,0,0,0,0,0,0,0,-1,916,1191,0,0
-301,-167,0,0,0,0,0,0,0,0,0,-1,923,1191,0,0
-294,-167,0,0,0,0,0,0,0,0,0,-1,930,1191,0,0
-287,-167,0,0,0,0,0,0,0,0,0,-1,937,1191,0,0
-280,-167,0,0,0,0,0,0,0,0,0,-1,944,1191,0,0
-273,-167,0,0,0,0,0,0,0,0,0,-1,951,1191,0,0
-266,-167,0,0,0,0,0,0,0,0,0,-1,958,1191,0,0
-259,-167,0,0,0,0,0,0,0,0,0,-1,965,1191,0,0
-252,-167,0,0,0,0,0,0,0,0,0,-1,972,1191,0,0
-245,-167,0,0,0,0,0,0,0,0,0,-1,979,1191,0,0
-238,-167,0,0,0,0,0,0,0,0,0,-1,986,1191,0,0
-231,-167,0,0,0,0,0,0,0,0,0,-1,993,1191,0,0
-224,-167,0,0,0,0,0,0,0,0,0,-1,1000,1191,0,0
-217,-167,0,0,0,0,0,0,0,0,0,-1,1007,1191,0,0
-210,-167,0,0,0,0,0,0,0,0,0,-1,1014,1191,0,0
-203,-167,0,0,0,0,0,0,0,0,0,-1,1021,1191,0,0
-196,-167,0,0,0,0,0,0,0,0,0,-1,1028,1191,0,0
-189,-167,0,0,0,0,0,0,0,0,0,-1,1035,1191,0,0
-182,-167,0,0,0,0,0,0,0,0,0,-1,1042,1191,0,0
-175,-167,0,0,0,0,0,0,0,0,0,-1,1049,1191,0,0
-168,-167,0,0,0,0,0,0,0,0,0,-1,1056,1191,0,0
-161,-167,0,0,0,0,0,0,0,0,0,-1,1063,1191,0,0
-154,-167,0,0,0,0,0,0,0,0,0,-1,1070,1191,0,0
-147,-167,0,0,0,0,0,0,0,0,0,-1,1077,1191,0,0
-140,-167,0,0,0,0,0,0,0,0,0,-1,1084,1191,0,0
-133,-167,0,0,0,0,0,0,0,0,0,-1,1091,1191,0,0
-126,-167,0,0,0,0,0,0,0,0,0,-1,1098,1191,0,0
-119,-167,0,0,0,0,0,0,0,0,0,-1,1105,1191,0,0
-112,-167,0,0,0,0,0,0,0,0,0,-1,1112,1191,0,0
-105,-167,0,0,0,0,0,0,0,0,0,-1,1119,1191,0,0
-98,-167,0,0,0,0,0,0,0,0,0,-1,1126,1191,0,0
-91,-167,0,0,0,0,0,0,0,0,0,-1,1133,1191,0,0
-84,-167,0,0,0,0,0,0,0,0,0,-1,1140,1191,0,0
-77,-167,0,0,0,0,0,0,0,0,0,-1,1147,1191,0,0
-70,-167,0,0,0,0,0,0,0,0,0,-1,1154,1191,0,0
-63,-167,0,0,0,0,0,0,0,0,0,-1,1161,1191,0,0
-56,-167,0,0,0,0,0,0,0,0,0,-1,1168,1191,0,0
-49,-167,0,0,0,0,0,0,0,0,0,-1,1175,1191,0,0
-42,-167,0,0,0,0,0,0,0,0,0,-1,1182,1191,0,0
-35,-167,0,0,0,0,0,0,0,0,0,-1,1189,1191,0,0
-28,-167,0,0,0,0,0,0,0,0,0,-1,1196,1191,0,0
-21,-167,0,0,0,0,0,0,0,0,0,-1,1203,1191,0,0
-14,-167,0,0,0,0,0,0,0,0,0,-1,1210,1191,0,0
-7,-167,0,0,0,0,0,0,0,0,0,-1,1217,1191,0,0
0,-167,0,0,0,0,0,0,0,0,0,-1,1224,1191,0,0
7,-167,0,0,0,0,0,0,0,0,0,-1,1231,1191,0,0
14,-167,0,0,0,0,0,0,0,0,0,-1,1238,1191,0,0
21,-167,0,0,0,0,0,0,0,0,0,-1,1245,1191,0,0
28,-167,0,0,0,0,0,0,0,0,0,-1,1252,1191,0,0
35,-167,0,0,0,0,0,0,0,0,0,-1,1259,1191,0,0
42,-167,0,0,0,0,0,0,0,0,0,-1,1266,1191,0,0
49,-167,0,0,0,0,0,0,0,0,0,-1,1273,1191,0,0
56,-167,0,0,0,0,0,0,0,0,0,-1,1280,1191,0,0
63,-167,0,0,0,0,0,0,0,0,0,-1,1287,1191,0,0
70,-167,0,0,0,0,0,0,0,0,0,-1,1294,1191,0,0
77,-167,0,0,0,0,0,0,0,0,0,-1,1301,1191,0,0
84,-167,0,0,0,0,0,0,0,0,0,-1,1308,1191,0,0
91,-167,0,0,0,0,0,0,0,0,0,-1,1315,1191,0,0
98,-167,0,0,0,0,0,0,0,0,0,-1,1322,1191,0,0
105,-167,0,0,0,0,0,0,0,0,0,-1,1329,1191,0,0
112,-167,0,0,0,0,0,0,0,0,0,-1,1336,1191,0,0
119,-167,0,0,0,0,0,0,0,0,0,-1,1343,1191,0,0
126,-167,0,0,0,0,0,0,0,0,0,-1,1350,1191,0,0
133,-167,0,0,0,0,0,0,0,0,0,-1,1357,1191,0,0
140,-167,0,0,0,0,0,0,0,0,0,-1,1364,1191,0,0
147,-167,0,0,0,0,0,0,0,0,0,-1,1371,1191,0,0
154,-167,0,0,0,0,0,0,0,0,0,-1,1378,1191,0,0
161,-167,0,0,0,0,0,0,0,0,0,-1,1385,1191,0,0
168,-167,0,0,0,0,0,0,0,0,0,-1,1392,1191,0,0
175,-167,0,0,0,0,0,0,0,0,0,-1,1399,1191,0,0
182,-167,0,0,0,0,0,0,0,0,0,-1,1406,1191,0,0
189,-167,0,0,0,0,0,0,0,0,0,-1,1413,1191,0,0
196,-167,0,0,0,0,0,0,0,0,0,-1,1420,1191,0,0
203,-167,0,0,0,0,0,0,0,0,0,-1,1427,1191,0,0
210,-167,0,0,0,0,0,0,0,0,0,-1,1434,1191,0,0
217,-167,0,0,0,0,0,0,0,0,0,-1,1441,1191,0,0
224,-167,0,0,0,0,0,0,0,0,0,-1,1448,1191,0,0
231,-167,0,0,0,0,0,0,0,0,0,-1,1455,1191,0,0
238,-167,0,0,0,0,0,0,0,0,0,-1,1462,1191,0,0
245,-167,0,0,0,0,0,0,0,0,0,-1,1469,1191,0,0
252,-167,0,0,0,0,0,0,0,0,0,-1,1476,1191,0,0
259,-167,0,0,0,0,0,0,0,0,0,-1,1483,1191,0,0
266,-167,0,0,0,0,0,0,0,0,0,-1,1490,1191,0,0
273,-167,0,0,0,0,0,0,0,0,0,-1,1497,1191,0,0
280,-167,0,0,0,0,0,0,0,0,0,-1,1504,1191,0,0
287,-167,0,0,0,0,0,0,0,0,0,-1,1511,1191,0,0
294,-167,0,0,0,0,0,0,0,0,0,-1,1518,1191,0,0
301,-167,0,0,0,0,0,0,0,0,0,-1,1525,1191,0,0
308,-167,0,0,0,0,0,0,0,0,0,-1,1532,1191,0,0
315,-167,0,0,0,0,0,0,0,0,0,-1,1539,1191,0,0
322,-167,0,0,0,0,0,0,0,0,0,-1,1546,1191,0,0
329,-167,0,0,0,0,0,0,0,0,0,-1,1553,1191,0,0
336,-167,0,0,0,0,0,0,0,0,0,-1,1560,1191,0,0
343,-167,0,0,0,0,0,0,0,0,0,-1,1567,1191,0,0
350,-167,0,0,0,0,0,0,0,0,0,-1,1574,1191,0,0
357,-167,0,0,0,0,0,0,0,0,0,-1,1581,1191,0,0
364,-167,0,0,0,0,0,0,0,0,0,-1,1588,1191,0,0
371,-167,0,0,0,0,0,0,0,0,0,-1,1595,1191,0,0
378,-167,0,0,0,0,0,0,0,0,0,-1,1602,1191,0,0
385,-167,0,0,0,0,0,0,0,0,0,-1,1609,1191,0,0
392,-167,0,0,0,0,0,0,0,0,0,-1,1616,1191,0,0
399,-167,0,0,0,0,0,0,0,0,0,-1,1623,1191,0,0
406,-167,0,0,0,0,0,0,0,0,0,-1,1630,1191,0,0
413,-167,0,0,0,0,0,0,0,0,0,-1,1637,1191,0,0
420,-167,0,0,0,0,0,0,0,0,0,-1,1644,1191,0,0
427,-167,0,0,0,0,0,0,0,0,0,-1,1651,1191,0,0
434,-167,0,0,0,0,0,0,0,0,0,-1,1658,1191,0,0
441,-167,0,0,0,0,0,0,0,0,0,-1,1665,1191,0,0
448,-167,0,0,0,0,0,0,0,0,0,-1,1672,1191,0,0
455,-167,0,0,0,0,0,0,0,0,0,-1,1679,1191,0,0
462,-167,0,0,0,0,0,0,0,0,0,-1,1686,1191,0,0
469,-167,0,0,0,0,0,0,0,0,0,-1,1693,1191,0,0
476,-167,0,0,0,0,0,0,0,0,0,-1,1700,1191,0,0
483,-167,0,0,0,0,0,0,0,0,0,-1,1707,1191,0,0
490,-167,0,0,0,0,0,0,0,0,0,-1,1714,1191,0,0
497,-167,0,0,0,0,0,0,0,0,0,-1,1721,1191,0,0
504,-167,0,0,0,0,0,0,0,0,0,-1,1728,1191,0,0
511,-167,0,0,0,0,0,0,0,0,0,-1,1735,1191,0,0
518,-167,0,0,0,0,0,0,0,0,0,-1,1742,1191,0,0
525,-167,0,0,0,0,0,0,0,0,0,-1,1749,1191,0,0
532,-167,0,0,0,0,0,0,0,0,0,-1,1756,1191,0,0
539,-167,0,0,0,0,0,0,0,0,0,-1,1763,1191,0,0
546,-167,0,0,0,0,0,0,0,0,0,-1,1770,1191,0,0
553,-167,0,0,0,0,0,0,0,0,0,-1,1777,1191,0,0
560,-167,0,0,0,0,0,0,0,0,0,-1,1784,1191,0,0
567,-167,0,0,0,0,0,0,0,0,0,-1,1791,1191,0,0
574,-167,0,0,0,0,0,0,0,0,0,-1,1798,1191,0,0
581,-167,0,0,0,0,0,0,0,0,0,-1,1805,1191,0,0
588,-167,0,0,0,0,0,0,0,0,0,-1,1812,1191,0,0
595,-167,0,0,0,0,0,0,0,0,0,-1,1819,1191,0,0
602,-167,0,0,0,0,0,0,0,0,0,-1,1826,1191,0,0
609,-167,0,0,0,0,0,0,0,0,0,-1,1833,1191,0,0
616,-167,0,0,0,0,0,0,0,0,0,-1,1840,1191,0,0
623,-167,0,0,0,0,0,0,0,0,0,-1,1847,1191,0,0
630,-167,0,0,0,0,0,0,0,0,0,-1,1854,1191,0,0
637,-167,78.7415,2.64246,0.00358241,-0.00503513,0.0016479,0.00388678,-0.0053395,0.182645,0.00534876,0.0434339,1861,1191,78.7415,-2.64243
644,-167,78.9905,2.46777,0.0021714,-0.00351404,0.000842857,0.00229372,-0.00363636,0.14412,0.00345286,0.0448089,1868,1191,78.9905,-2.46779
651,-167,78.6493,2.34448,0.00125194,-0.00204946,-1.88867e-05,0.00125205,-0.00204957,-0.00572056,0.00192464,0.0429602,1875,1191,78.6493,-2.34443
658,-167,78.6448,2.42688,0.000672699,-0.000716543,-0.000863828,0.00108654,-0.00113039,-0.446774,0.00128003,0.0432229,1882,1191,78.6448,-2.42689
665,-167,78.8344,2.45996,0.000335188,0.000430383,-0.00151102,0.00189455,-0.00112898,-0.801143,0.00176419,0.0396831,1889,1191,78.8344,-2.46002
672,-167,78.7484,2.45483,0.000293125,0.00159219,-0.00194675,0.0029949,-0.00110959,-0.946416,0.00245164,0.0296375,1896,1191,78.7485,-2.45489
679,-167,78.7284,2.39038,0.00048729,0.00208528,-0.00202348,0.0034618,-0.000889233,-0.973432,0.0026544,0.0234991,1903,1191,78.7284,-2.39041
686,-167,78.7178,2.25012,0.00123493,0.00228819,-0.00201656,0.00384575,-0.000322629,-0.913123,0.00267786,0.041534,1910,1191,78.7178,-2.25008
693,-167,78.6335,2.13318,0,0,0,0,0,0,0,-1,1917,1191,78.6336,-2.13322
700,-167,28.0459,2.70508,0,0,0,0,0,0,0,-1,1924,1191,28.0459,-2.70513
707,-167,29.4708,7.10168,0,0,0,0,0,0,0,-1,1931,1191,29.4708,-7.10172
714,-167,35.9202,6.84668,0,0,0,0,0,0,0,-1,1938,1191,35.9202,-6.84664
721,-167,36.2072,6.38892,0,0,0,0,0,0,0,-1,1945,1191,36.2072,-6.38891
728,-167,63.7198,9.84265,0,0,0,0,0,0,0,-1,1952,1191,63.7199,-9.8427
735,-167,66.2927,9.52893,0,0,0,0,0,0,0,-1,1959,1191,66.2927,-9.5289
742,-167,66.1908,8.7699,0.00255054,0.00216299,0.000837986,0.00321686,0.00149666,0.671775,0.00185875,0.0172847,1966,1191,66.1908,-8.7699
749,-167,66.158,7.99255,0.00271352,0.00353971,0.00170562,0.00488155,0.00137169,0.904208,0.00290708,0.0150954,1973,1191,66.158,-7.99257
756,-167,66.1794,7.29382,0.00369783,0.00644853,0.00283988,0.00822857,0.00191779,1.0109,0.00497132,0.0117891,1980,1191,66.1795,-7.29388
763,-167,66.1079,6.59094,0.00548605,0.010465,0.00411769,0.0127873,0.00316379,1.05729,0.00769033,0.0148613,1987,1191,66.108,-6.59092
770,-167,66.0247,5.91284,0,0,0,0,0,0,0,-1,1994,1191,66.0247,-5.91286
777,-167,65.7231,4.93457,0,0,0,0,0,0,0,-1,2001,1191,65.7232,-4.93461
784,-167,66.6606,3.86682,0,0,0,0,0,0,0,-1,2008,1191,66.6606,-3.86684
791,-167,66.6877,3.11511,0,0,0,0,0,0,0,-1,2015,1191,66.6878,-3.11506
798,-167,73.3459,-1.97961,0,0,0,0,0,0,0,-1,2022,1191,73.346,1.97955
805,-167,72.9312,-2.37915,0,0,0,0,0,0,0,-1,2029,1191,72.9312,2.37914
812,-167,0,0,0,0,0,0,0,0,0,-1,2036,1191,0,0
-700,-174,0,0,0,0,0,0,0,0,0,-1,524,1198,0,0
-693,-174,0,0,0,0,0,0,0,0,0,-1,531,1198,0,0
-686,-174,-45.0504,0.125488,0,0,0,0,0,0,0,-1,538,1198,-45.0504,-0.125512
-679,-174,-45.5024,1.23474,0,0,0,0,0,0,0,-1,545,1198,-45.5024,-1.23469
-672,-174,-46.5062,1.81177,0,0,0,0,0,0,0,-1,552,1198,-46.5062,-1.81177
-665,-174,-50.896,4.34082,0,0,0,0,0,0,0,-1,559,1198,-50.896,-4.34082
-658,-174,-50.2676,4.32935,0,0,0,0,0,0,0,-1,566,1198,-50.2676,-4.32935
-651,-174,-49.6691,4.47656,0,0,0,0,0,0,0,-1,573,1198,-49.6691,-4.47655
-644,-174,-49.408,4.83691,0.0116735,0.00652402,-0.0220489,0.0312975,-0.0131,-0.727274,0.0263409,0.0476395,580,1198,-49.408,-4.83687
-637,-174,-49.1696,5.19885,0.00652493,0.00455411,-0.0148008,0.0203731,-0.00929409,-0.752158,0.017522,0.0291669,587,1198,-49.1696,-5.19889
-630,-174,-49.3479,5.88379,0.00276975,0.00317039,-0.00971018,0.0126823,-0.00674217,-0.795712,0.0113882,0.0141126,594,1198,-49.3479,-5.88381
-623,-174,-49.4095,6.64111,8.56598e-05,0.00218692,-0.00643016,0.00765171,-0.00537914,-0.866378,0.00756141,0.015348,601,1198,-49.4095,-6.64108
-616,-174,-49.4066,7.43005,-0.00186394,0.00148366,-0.00437137,0.00449072,-0.00487101,-0.968238,0.00540648,0.0217147,608,1198,-49.4065,-7.43007
-609,-174,-49.483,8.20557,-0.00254136,0.000700259,-0.00367272,0.00309391,-0.00493501,-0.993201,0.00467595,0.0250642,615,1198,-49.483,-8.20552
-602,-174,-49.5966,8.93481,0,0,0,0,0,0,0,-1,622,1198,-49.5966,-8.93478
-595,-174,-48.6967,9.0376,0,0,0,0,0,0,0,-1,629,1198,-48.6967,-9.03761
-588,-174,-49.7366,10.5953,0,0,0,0,0,0,0,-1,636,1198,-49.7366,-10.5953
-581,-174,-50.0335,11.3944,0,0,0,0,0,0,0,-1,643,1198,-50.0335,-11.3944
-574,-174,-31.7448,7.09595,0,0,0,0,0,0,0,-1,650,1198,-31.7448,-7.09599
-567,-174,-26.6597,3.04041,0,0,0,0,0,0,0,-1,657,1198,-26.6597,-3.04039
-560,-174,-42.6953,1.07178,0,0,0,0,0,0,0,-1,664,1198,-42.6953,-1.07181
-553,-174,-62.1075,0.515503,0,0,0,0,0,0,0,-1,671,1198,-62.1075,-0.515549
-546,-174,-62.1348,0.531738,-0.00193107,-0.0023305,-0.00349889,0.00137381,-0.00563537,-0.75689,0.00428883,0.0344095,678,1198,-62.1348,-0.531702
-539,-174,-62.1275,0.440552,-0.00139536,-0.00287971,-0.00216233,0.000148615,-0.00442369,-0.620084,0.00299989,0.0355187,685,1198,-62.1275,-0.440493
-532,-174,-62.2267,0.331543,-2.85932e-05,-0.00341848,-0.000727084,0.000120775,-0.00356785,-0.202615,0.00241983,0.0440776,692,1198,-62.2267,-0.33159
-525,-174,-62.3069,0.369751,0.0046888,-0.00413801,0.00066521,0.00473865,-0.00418787,0.0747994,0.00515699,0.0439558,699,1198,-62.3069,-0.369722
-518,-174,-62.2136,0.359009,0.0119629,-0.00518017,0.00209032,0.0122141,-0.00543137,0.119599,0.0104355,0.0415513,706,1198,-62.2136,-0.359068
-511,-174,0,0,0,0,0,0,0,0,0,-1,713,1198,0,0
-504,-174,0,0,0,0,0,0,0,0,0,-1,720,1198,0,0
-497,-174,0,0,0,0,0,0,0,0,0,-1,727,1198,0,0
-490,-174,0,0,0,0,0,0,0,0,0,-1,734,1198,0,0
-483,-174,0,0,0,0,0,0,0,0,0,-1,741,1198,0,0
-476,-174,0,0,0,0,0,0,0,0,0,-1,748,1198,0,0
-469,-174,0,0,0,0,0,0,0,0,0,-1,755,1198,0,0
-462,-174,0,0,0,0,0,0,0,0,0,-1,762,1198,0,0
-455,-174,0,0,0,0,0,0,0,0,0,-1,769,1198,0,0
-448,-174,0,0,0,0,0,0,0,0,0,-1,776,1198,0,0
-441,-174,0,0,0,0,0,0,0,0,0,-1,783,1198,0,0
-434,-174,0,0,0,0,0,0,0,0,0,-1,790,1198,0,0
-427,-174,0,0,0,0,0,0,0,0,0,-1,797,1198,0,0
-420,-174,0,0,0,0,0,0,0,0,0,-1,804,1198,0,0
-413,-174,0,0,0,0,0,0,0,0,0,-1,811,1198,0,0
-406,-174,0,0,0,0,0,0,0,0,0,-1,818,1198,0,0
-399,-174,0,0,0,0,0,0,0,0,0,-1,825,1198,0,0
-392,-174,0,0,0,0,0,0,0,0,0,-1,832,1198,0,0
-385,-174,0,0,0,0,0,0,0,0,0,-1,839,1198,0,0
-378,-174,0,0,0,0,0,0,0,0,0,-1,846,1198,0,0
-371,-174,0,0,0,0,0,0,0,0,0,-1,853,1198,0,0
-364,-174,0,0,0,0,0,0,0,0,0,-1,860,1198,0,0
-357,-174,0,0,0,0,0,0,0,0,0,-1,867,1198,0,0
-350,-174,0,0,0,0,0,0,0,0,0,-1,874,1198,0,0
-343,-174,0,0,0,0,0,0,0,0,0,-1,881,1198,0,0
-336,-174,0,0,0,0,0,0,0,0,0,-1,888,1198,0,0
-329,-174,0,0,0,0,0,0,0,0,0,-1,895,1198,0,0
-322,-174,0,0,0,0,0,0,0,0,0,-1,902,1198,0,0
-315,-174,0,0,0,0,0,0,0,0,0,-1,909,1198,0,0
-308,-174,0,0,0,0,0,0,0,0,0,-1,916,1198,0,0
-301,-174,0,0,0,0,0,0,0,0,0,-1,923,1198,0,0
-294,-174,0,0,0,0,0,0,0,0,0,-1,930,1198,0,0
-287,-174,0,0,0,0,0,0,0,0,0,-1,937,1198,0,0
-280,-174,0,0,0,0,0,0,0,0,0,-1,944,1198,0,0
-273,-174,0,0,0,0,0,0,0,0,0,-1,951,1198,0,0
-266,-174,0,0,0,0,0,0,0,0,0,-1,958,1198,0,0
-259,-174,0,0,0,0,0,0,0,0,0,-1,965,1198,0,0
-252,-174,0,0,0,0,0,0,0,0,0,-1,972,1198,0,0
-245,-174,0,0,0,0,0,0,0,0,0,-1,979,1198,0,0
-238,-174,0,0,0,0,0,0,0,0,0,-1,986,1198,0,0
-231,-174,0,0,0,0,0,0,0,0,0,-1,993,1198,0,0
-224,-174,0,0,0,0,0,0,0,0,0,-1,1000,1198,0,0
-217,-174,0,0,0,0,0,0,0,0,0,-1,1007,1198,0,0
-210,-174,0,0,0,0,0,0,0,0,0,-1,1014,1198,0,0
-203,-174,0,0,0,0,0,0,0,0,0,-1,1021,1198,0,0
-196,-174,0,0,0,0,0,0,0,0,0,-1,1028,1198,0,0
-189,-174,0,0,0,0,0,0,0,0,0,-1,1035,1198,0,0
-182,-174,0,0,0,0,0,0,0,0,0,-1,1042,1198,0,0
-175,-174,0,0,0,0,0,0,0,0,0,-1,1049,1198,0,0
-168,-174,0,0,0,0,0,0,0,0,0,-1,1056,1198,0,0
-161,-174,0,0,0,0,0,0,0,0,0,-1,1063,1198,0,0
-154,-174,0,0,0,0,0,0,0,0,0,-1,1070,1198,0,0
-147,-174,0,0,0,0,0,0,0,0,0,-1,1077,1198,0,0
-140,-174,0,0,0,0,0,0,0,0,0,-1,1084,1198,0,0
-133,-174,0,0,0,0,0,0,0,0,0,-1,1091,1198,0,0
-126,-174,0,0,0,0,0,0,0,0,0,-1,1098,1198,0,0
-119,-174,0,0,0,0,0,0,0,0,0,-1,1105,1198,0,0
-112,-174,0,0,0,0,0,0,0,0,0,-1,1112,1198,0,0
-105,-174,0,0,0,0,0,0,0,0,0,-1,1119,1198,0,0
-98,-174,0,0,0,0,0,0,0,0,0,-1,1126,1198,0,0
-91,-174,0,0,0,0,0,0,0,0,0,-1,1133,1198,0,0
-84,-174,0,0,0,0,0,0,0,0,0,-1,1140,1198,0,0
-77,-174,0,0,0,0,0,0,0,0,0,-1,1147,1198,0,0
-70,-174,0,0,0,0,0,0,0,0,0,-1,1154,1198,0,0
-63,-174,0,0,0,0,0,0,0,0,0,-1,1161,1198,0,0
-56,-174,0,0,0,0,0,0,0,0,0,-1,1168,1198,0,0
-49,-174,0,0,0,0,0,0,0,0,0,-1,1175,1198,0,0
-42,-174,0,0,0,0,0,0,0,0,0,-1,1182,1198,0,0
-35,-174,0,0,0,0,0,0,0,0,0,-1,1189,1198,0,0
-28,-174,0,0,0,0,0,0,0,0,0,-1,1196,1198,0,0
-21,-174,0,0,0,0,0,0,0,0,0,-1,1203,1198,0,0
-14,-174,0,0,0,0,0,0,0,0,0,-1,1210,1198,0,0
-7,-174,0,0,0,0,0,0,0,0,0,-1,1217,1198,0,0
0,-174,0,0,0,0,0,0,0,0,0,-1,1224,1198,0,0
7,-174,0,0,0,0,0,0,0,0,0,-1,1231,1198,0,0
14,-174,0,0,0,0,0,0,0,0,0,-1,1238,1198,0,0
21,-174,0,0,0,0,0,0,0,0,0,-1,1245,1198,0,0
28,-174,0,0,0,0,0,0,0,0,0,-1,1252,1198,0,0
35,-174,0,0,0,0,0,0,0,0,0,-1,1259,1198,0,0
42,-174,0,0,0,0,0,0,0,0,0,-1,1266,1198,0,0
49,-174,0,0,0,0,0,0,0,0,0,-1,1273,1198,0,0
56,-174,0,0,0,0,0,0,0,0,0,-1,1280,1198,0,0
63,-174,0,0,0,0,0,0,0,0,0,-1,1287,1198,0,0
70,-174,0,0,0,0,0,0,0,0,0,-1,1294,1198,0,0
77,-174,0,0,0,0,0,0,0,0,0,-1,1301,1198,0,0
84,-174,0,0,0,0,0,0,0,0,0,-1,1308,1198,0,0
91,-174,0,0,0,0,0,0,0,0,0,-1,1315,1198,0,0
98,-174,0,0,0,0,0,0,0,0,0,-1,1322,1198,0,0
105,-174,0,0,0,0,0,0,0,0,0,-1,1329,1198,0,0
112,-174,0,0,0,0,0,0,0,0,0,-1,1336,1198,0,0
119,-174,0,0,0,0,0,0,0,0,0,-1,1343,1198,0,0
126,-174,0,0,0,0,0,0,0,0,0,-1,1350,1198,0,0
133,-174,0,0,0,0,0,0,0,0,0,-1,1357,1198,0,0
140,-174,0,0,0,0,0,0,0,0,0,-1,1364,1198,0,0
147,-174,0,0,0,0,0,0,0,0,0,-1,1371,1198,0,0
154,-174,0,0,0,0,0,0,0,0,0,-1,1378,1198,0,0
161,-174,0,0,0,0,0,0,0,0,0,-1,1385,1198,0,0
168,-174,0,0,0,0,0,0,0,0,0,-1,1392,1198,0,0
175,-174,0,0,0,0,0,0,0,0,0,-1,1399,1198,0,0
182,-174,0,0,0,0,0,0,0,0,0,-1,1406,1198,0,0
189,-174,0,0,0,0,0,0,0,0,0,-1,1413,1198,0,0
196,-174,0,0,0,0,0,0,0,0,0,-1,1420,1198,0,0
203,-174,0,0,0,0,0,0,0,0,0,-1,1427,1198,0,0
210,-174,0,0,0,0,0,0,0,0,0,-1,1434,1198,0,0
217,-174,0,0,0,0,0,0,0,0,0,-1,1441,1198,0,0
224,-174,0,0,0,0,0,0,0,0,0,-1,1448,1198,0,0
231,-174,0,0,0,0,0,0,0,0,0,-1,1455,1198,0,0
238,-174,0,0,0,0,0,0,0,0,0,-1,1462,1198,0,0
245,-174,0,0,0,0,0,0,0,0,0,-1,1469,1198,0,0
252,-174,0,0,0,0,0,0,0,0,0,-1,1476,1198,0,0
259,-174,0,0,0,0,0,0,0,0,0,-1,1483,1198,0,0
266,-174,0,0,0,0,0,0,0,0,0,-1,1490,1198,0,0
273,-174,0,0,0,0,0,0,0,0,0,-1,1497,1198,0,0
280,-174,0,0,0,0,0,0,0,0,0,-1,1504,1198,0,0
287,-174,0,0,0,0,0,0,0,0,0,-1,1511,1198,0,0
294,-174,0,0,0,0,0,0,0,0,0,-1,1518,1198,0,0
301,-174,0,0,0,0,0,0,0,0,0,-1,1525,1198,0,0
308,-174,0,0,0,0,0,0,0,0,0,-1,1532,1198,0,0
315,-174,0,0,0,0,0,0,0,0,0,-1,1539,1198,0,0
322,-174,0,0,0,0,0,0,0,0,0,-1,1546,1198,0,0
329,-174,0,0,0,0,0,0,0,0,0,-1,1553,1198,0,0
336,-174,0,0,0,0,0,0,0,0,0,-1,1560,1198,0,0
343,-174,0,0,0,0,0,0,0,0,0,-1,1567,1198,0,0
350,-174,0,0,0,0,0,0,0,0,0,-1,1574,1198,0,0
357,-174,0,0,0,0,0,0,0,0,0,-1,1581,1198,0,0
364,-174,0,0,0,0,0,0,0,0,0,-1,1588,1198,0,0
371,-174,0,0,0,0,0,0,0,0,0,-1,1595,1198,0,0
378,-174,0,0,0,0,0,0,0,0,0,-1,1602,1198,0,0
385,-174,0,0,0,0,0,0,0,0,0,-1,1609,1198,0,0
392,-174,0,0,0,0,0,0,0,0,0,-1,1616,1198,0,0
399,-174,0,0,0,0,0,0,0,0,0,-1,1623,1198,0,0
406,-174,0,0,0,0,0,0,0,0,0,-1,1630,1198,0,0
413,-174,0,0,0,0,0,0,0,0,0,-1,1637,1198,0,0
420,-174,0,0,0,0,0,0,0,0,0,-1,1644,1198,0,0
427,-174,0,0,0,0,0,0,0,0,0,-1,1651,1198,0,0
434,-174,0,0,0,0,0,0,0,0,0,-1,1658,1198,0,0
441,-174,0,0,0,0,0,0,0,0,0,-1,1665,1198,0,0
448,-174,0,0,0,0,0,0,0,0,0,-1,1672,1198,0,0
455,-174,0,0,0,0,0,0,0,0,0,-1,1679,1198,0,0
462,-174,0,0,0,0,0,0,0,0,0,-1,1686,1198,0,0
469,-174,0,0,0,0,0,0,0,0,0,-1,1693,1198,0,0
476,-174,0,0,0,0,0,0,0,0,0,-1,1700,1198,0,0
483,-174,0,0,0,0,0,0,0,0,0,-1,1707,1198,0,0
490,-174,0,0,0,0,0,0,0,0,0,-1,1714,1198,0,0
497,-174,0,0,0,0,0,0,0,0,0,-1,1721,1198,0,0
504,-174,0,0,0,0,0,0,0,0,0,-1,1728,1198,0,0
511,-174,0,0,0,0,0,0,0,0,0,-1,1735,1198,0,0
518,-174,0,0,0,0,0,0,0,0,0,-1,1742,1198,0,0
525,-174,0,0,0,0,0,0,0,0,0,-1,1749,1198,0,0
532,-174,0,0,0,0,0,0,0,0,0,-1,1756,1198,0,0
539,-174,0,0,0,0,0,0,0,0,0,-1,1763,1198,0,0
546,-174,0,0,0,0,0,0,0,0,0,-1,1770,1198,0,0
553,-174,0,0,0,0,0,0,0,0,0,-1,1777,1198,0,0
560,-174,0,0,0,0,0,0,0,0,0,-1,1784,1198,0,0
567,-174,0,0,0,0,0,0,0,0,0,-1,1791,1198,0,0
574,-174,0,0,0,0,0,0,0,0,0,-1,1798,1198,0,0
581,-174,0,0,0,0,0,0,0,0,0,-1,1805,1198,0,0
588,-174,0,0,0,0,0,0,0,0,0,-1,1812,1198,0,0
595,-174,0,0,0,0,0,0,0,0,0,-1,1819,1198,0,0
602,-174,0,0,0,0,0,0,0,0,0,-1,1826,1198,0,0
609,-174,0,0,0,0,0,0,0,0,0,-1,1833,1198,0,0
616,-174,0,0,0,0,0,0,0,0,0,-1,1840,1198,0,0
623,-174,0,0,0,0,0,0,0,0,0,-1,1847,1198,0,0
630,-174,0,0,0,0,0,0,0,0,0,-1,1854,1198,0,0
637,-174,78.8149,2.72119,0.0036355,-0.00526702,0.000924349,0.00373046,-0.00536198,0.102375,0.00527762,0.0410356,1861,1198,78.8149,-2.72122
644,-174,78.8649,2.67029,0.00233242,-0.00357598,0.00011557,0.00233468,-0.00357824,0.0195503,0.0034389,0.0419371,1868,1198,78.8649,-2.67026
651,-174,78.9001,2.55603,0.00146708,-0.00187821,-0.000748445,0.0016269,-0.00203802,-0.210371,0.00212038,0.0437198,1875,1198,78.9002,-2.55605
658,-174,78.9564,2.58118,0.000882141,-0.000329276,-0.00152012,0.00191278,-0.00135992,-0.595808,0.00189846,0.0402263,1882,1198,78.9564,-2.58121
665,-174,78.8131,2.50842,0.000471118,0.000880968,-0.00195993,0.00264666,-0.00129457,-0.837487,0.00231968,0.0331954,1889,1198,78.8131,-2.5084
672,-174,78.6981,2.39111,0.000323536,0.00204557,-0.00212291,0.00347543,-0.00110632,-0.978053,0.00276063,0.0259765,1896,1198,78.6981,-2.39113
679,-174,78.7167,2.29626,0.000372884,0.0024883,-0.00202037,0.00371108,-0.000849901,-1.02654,0.00280068,0.025697,1903,1198,78.7166,-2.29626
686,-174,78.7638,2.20593,0,0,0,0,0,0,0,-1,1910,1198,78.7638,-2.20598
693,-174,51.1324,2.57349,0,0,0,0,0,0,0,-1,1917,1198,51.1325,-2.57343
700,-174,25.4004,6.11792,0,0,0,0,0,0,0,-1,1924,1198,25.4004,-6.11797
707,-174,34.7908,7.34473,0,0,0,0,0,0,0,-1,1931,1198,34.7908,-7.34475
714,-174,40.1135,7.79871,0,0,0,0,0,0,0,-1,1938,1198,40.1135,-7.79875
721,-174,40.8693,7.59863,0,0,0,0,0,0,0,-1,1945,1198,40.8693,-7.59859
728,-174,65.1285,10.3269,0,0,0,0,0,0,0,-1,1952,1198,65.1285,-10.3269
735,-174,65.3025,9.62061,0.0022022,0.00272169,6.34237e-05,0.00272933,0.00219456,1.45105,0.00167008,0.0289141,1959,1198,65.3025,-9.62061
742,-174,65.4301,8.79285,0.00230894,0.00265217,0.000760991,0.00326066,0.00170045,0.896302,0.00188312,0.02102,1966,1198,65.43,-8.79288
749,-174,65.4133,8.0614,0.00265513,0.00401284,0.00170473,0.00516891,0.00149906,0.974883,0.00307074,0.0179541,1973,1198,65.4133,-8.06134
756,-174,65.4044,7.33252,0.00370568,0.0067617,0.00290746,0.00851822,0.00194916,1.02734,0.00515346,0.0109898,1980,1198,65.4044,-7.33255
763,-174,65.3699,6.62195,0.00546714,0.0107094,0.00428065,0.0131077,0.00306889,1.06012,0.00791633,0.0184708,1987,1198,65.37,-6.62199
770,-174,65.3755,5.89331,0,0,0,0,0,0,0,-1,1994,1198,65.3754,-5.89334
777,-174,72.7517,-3.92542,0,0,0,0,0,0,0,-1,2001,1198,72.7517,3.92536
784,-174,72.8079,-3.6228,0,0,0,0,0,0,0,-1,2008,1198,72.8078,3.62276
791,-174,72.6216,-3.64587,0,0,0,0,0,0,0,-1,2015,1198,72.6217,3.64586
798,-174,66.0049,3.41138,0,0,0,0,0,0,0,-1,2022,1198,66.005,-3.41138
805,-174,66.4358,3.14417,0,0,0,0,0,0,0,-1,2029,1198,66.4359,-3.1442
812,-174,0,0,0,0,0,0,0,0,0,-1,2036,1198,0,0
-700,-181,0,0,0,0,0,0,0,0,0,-1,524,1205,0,0
-693,-181,0,0,0,0,0,0,0,0,0,-1,531,1205,0,0
-686,-181,-45.3968,0.324097,0,0,0,0,0,0,0,-1,538,1205,-45.3968,-0.324039
-679,-181,-45.4095,0.594116,0,0,0,0,0,0,0,-1,545,1205,-45.4095,-0.594139
-672,-181,-50.1541,4.11401,0,0,0,0,0,0,0,-1,552,1205,-50.1541,-4.11405
-665,-181,-49.8097,4.34741,0,0,0,0,0,0,0,-1,559,1205,-49.8097,-4.34739
-658,-181,-49.4806,4.51782,0.0294604,0.0134407,-0.0446543,0.0668176,-0.0239165,-0.696655,0.0543021,0.0456368,566,1205,-49.4806,-4.51785
-651,-181,-49.1621,4.62634,0.0206296,0.00980471,-0.0331319,0.0487882,-0.0183539,-0.704433,0.04007,0.0493862,573,1205,-49.1621,-4.62634
-644,-181,-48.9146,4.82385,0.0141691,0.00708695,-0.0241563,0.0350425,-0.0137864,-0.712621,0.0290681,0.0496532,580,1205,-48.9145,-4.82385
-637,-181,-48.3727,5.24561,0.00848764,0.00486039,-0.0162509,0.0230258,-0.00967778,-0.729827,0.0193986,0.0311023,587,1205,-48.3727,-5.24566
-630,-181,-48.5776,5.92273,0.0044292,0.00335124,-0.0106964,0.0146002,-0.00681978,-0.760225,0.0126359,0.0153148,594,1205,-48.5776,-5.92269
-623,-181,-48.6445,6.67078,0.0016332,0.00234681,-0.00718013,0.009179,-0.00519898,-0.810225,0.00840647,0.0163099,601,1205,-48.6445,-6.6708
-616,-181,-48.6465,7.45837,-0.000327764,0.00168959,-0.00495241,0.005735,-0.00437318,-0.885861,0.00585359,0.0164524,608,1205,-48.6465,-7.45838
-609,-181,-48.6796,8.26196,-0.00133962,0.0010496,-0.00393642,0.00396868,-0.00425871,-0.93272,0.00475107,0.0163756,615,1205,-48.6796,-8.26202
-602,-181,-48.6439,9.10181,-0.00124411,0.000435975,-0.0043036,0.00398075,-0.00478889,-0.881784,0.00507031,0.0336545,622,1205,-48.6439,-9.10178
-595,-181,-48.3257,9.94946,0,0,0,0,0,0,0,-1,629,1205,-48.3258,-9.94951
-588,-181,-48.9794,10.6058,-0.00130847,-0.00023338,-0.00508727,0.00434466,-0.00588652,-0.838035,0.00592929,0.0386366,636,1205,-48.9794,-10.6059
-581,-181,-49.2203,11.3319,-0.00193076,-0.000361493,-0.00457638,0.00349703,-0.00578929,-0.870299,0.00541563,0.0497139,643,1205,-49.2203,-11.3319
-574,-181,-48.5723,12.0854,0,0,0,0,0,0,0,-1,650,1205,-48.5723,-12.0854
-567,-181,-25.8839,3.34485,0,0,0,0,0,0,0,-1,657,1205,-25.8839,-3.3449
-560,-181,-31.7396,1.63306,0,0,0,0,0,0,0,-1,664,1205,-31.7396,-1.63303
-553,-181,-57.8761,0.527832,0,0,0,0,0,0,0,-1,671,1205,-57.8761,-0.527787
-546,-181,-62.1758,0.676758,0,0,0,0,0,0,0,-1,678,1205,-62.1758,-0.676736
-539,-181,-62.1668,0.483276,-0.00170341,-0.00263363,-0.0018298,-0.00028053,-0.00405651,-0.660941,0.00261585,0.03725,685,1205,-62.1668,-0.483245
-532,-181,-62.2019,0.364746,-0.000869125,-0.00330334,-0.000523363,-0.00076137,-0.00341109,-0.203052,0.00206754,0.0447047,692,1205,-62.2019,-0.364731
-525,-181,-62.2281,0.561157,0.00343975,-0.00438411,0.00088881,0.00353945,-0.00448381,0.111706,0.00464291,0.0421837,699,1205,-62.2281,-0.561184
-518,-181,-62.098,0.654297,0.0117889,-0.00609739,0.00230143,0.0120802,-0.00638877,0.125938,0.0108305,0.0384652,706,1205,-62.098,-0.654248
-511,-181,0,0,0,0,0,0,0,0,0,-1,713,1205,0,0
-504,-181,0,0,0,0,0,0,0,0,0,-1,720,1205,0,0
-497,-181,0,0,0,0,0,0,0,0,0,-1,727,1205,0,0
-490,-181,0,0,0,0,0,0,0,0,0,-1,734,1205,0,0
-483,-181,0,0,0,0,0,0,0,0,0,-1,741,1205,0,0
-476,-181,0,0,0,0,0,0,0,0,0,-1,748,1205,0,0
-469,-181,0,0,0,0,0,0,0,0,0,-1,755,1205,0,0
-462,-181,0,0,0,0,0,0,0,0,0,-1,762,1205,0,0
-455,-181,0,0,0,0,0,0,0,0,0,-1,769,1205,0,0
-448,-181,0,0,0,0,0,0,0,0,0,-1,776,1205,0,0
-441,-181,0,0,0,0,0,0,0,0,0,-1,783,1205,0,0
-434,-181,0,0,0,0,0,0,0,0,0,-1,790,1205,0,0
-427,-181,0,0,0,0,0,0,0,0,0,-1,797,1205,0,0
-420,-181,0,0,0,0,0,0,0,0,0,-1,804,1205,0,0
-413,-181,0,0,0,0,0,0,0,0,0,-1,811,1205,0,0
-406,-181,0,0,0,0,0,0,0,0,0,-1,818,1205,0,0
-399,-181,0,0,0,0,0,0,0,0,0,-1,825,1205,0,0
-392,-181,0,0,0,0,0,0,0,0,0,-1,832,1205,0,0
-385,-181,0,0,0,0,0,0,0,0,0,-1,839,1205,0,0
-378,-181,0,0,0,0,0,0,0,0,0,-1,846,1205,0,0
-371,-181,0,0,0,0,0,0,0,0,0,-1,853,1205,0,0
-364,-181,0,0,0,0,0,0,0,0,0,-1,860,1205,0,0
-357,-181,0,0,0,0,0,0,0,0,0,-1,867,1205,0,0
-350,-181,0,0,0,0,0,0,0,0,0,-1,874,1205,0,0
-343,-181,0,0,0,0,0,0,0,0,0,-1,881,1205,0,0
-336,-181,0,0,0,0,0,0,0,0,0,-1,888,1205,0,0
-329,-181,0,0,0,0,0,0,0,0,0,-1,895,1205,0,0
-322,-181,0,0,0,0,0,0,0,0,0,-1,902,1205,0,0
-315,-181,0,0,0,0,0,0,0,0,0,-1,909,1205,0,0
-308,-181,0,0,0,0,0,0,0,0,0,-1,916,1205,0,0
-301,-181,0,0,0,0,0,0,0,0,0,-1,923,1205,0,0
-294,-181,0,0,0,0,0,0,0,0,0,-1,930,1205,0,0
-287,-181,0,0,0,0,0,0,0,0,0,-1,937,1205,0,0
-280,-181,0,0,0,0,0,0,0,0,0,-1,944,1205,0,0
-273,-181,0,0,0,0,0,0,0,0,0,-1,951,1205,0,0
-266,-181,0,0,0,0,0,0,0,0,0,-1,958,1205,0,0
-259,-181,0,0,0,0,0,0,0,0,0,-1,965,1205,0,0
-252,-181,0,0,0,0,0,0,0,0,0,-1,972,1205,0,0
-245,-181,0,0,0,0,0,0,0,0,0,-1,979,1205,0,0
-238,-181,0,0,0,0,0,0,0,0,0,-1,986,1205,0,0
-231,-181,0,0,0,0,0,0,0,0,0,-1,993,1205,0,0
-224,-181,0,0,0,0,0,0,0,0,0,-1,1000,1205,0,0
-217,-181,0,0,0,0,0,0,0,0,0,-1,1007,1205,0,0
-210,-181,0,0,0,0,0,0,0,0,0,-1,1014,1205,0,0
-203,-181,0,0,0,0,0,0,0,0,0,-1,1021,1205,0,0
-196,-181,0,0,0,0,0,0,0,0,0,-1,1028,1205,0,0
-189,-181,0,0,0,0,0,0,0,0,0,-1,1035,1205,0,0
-182,-181,0,0,0,0,0,0,0,0,0,-1,1042,1205,0,0
-175,-181,0,0,0,0,0,0,0,0,0,-1,1049,1205,0,0
-168,-181,0,0,0,0,0,0,0,0,0,-1,1056,1205,0,0
-161,-181,0,0,0,0,0,0,0,0,0,-1,1063,1205,0,0
-154,-181,0,0,0,0,0,0,0,0,0,-1,1070,1205,0,0
-147,-181,0,0,0,0,0,0,0,0,0,-1,1077,1205,0,0
-140,-181,0,0,0,0,0,0,0,0,0,-1,1084,1205,0,0
-133,-181,0,0,0,0,0,0,0,0,0,-1,1091,1205,0,0
-126,-181,0,0,0,0,0,0,0,0,0,-1,1098,1205,0,0
-119,-181,0,0,0,0,0,0,0,0,0,-1,1105,1205,0,0
-112,-181,0,0,0,0,0,0,0,0,0,-1,1112,1205,0,0
-105,-181,0,0,0,0,0,0,0,0,0,-1,1119,1205,0,0
-98,-181,0,0,0,0,0,0,0,0,0,-1,1126,1205,0,0
-91,-181,0,0,0,0,0,0,0,0,0,-1,1133,1205,0,0
-84,-181,0,0,0,0,0,0,0,0,0,-1,1140,1205,0,0
-77,-181,0,0,0,0,0,0,0,0,0,-1,1147,1205,0,0
-70,-181,0,0,0,0,0,0,0,0,0,-1,1154,1205,0,0
-63,-181,0,0,0,0,0,0,0,0,0,-1,1161,1205,0,0
-56,-181,0,0,0,0,0,0,0,0,0,-1,1168,1205,0,0
-49,-181,0,0,0,0,0,0,0,0,0,-1,1175,1205,0,0
-42,-181,0,0,0,0,0,0,0,0,0,-1,1182,1205,0,0
-35,-181,0,0,0,0,0,0,0,0,0,-1,1189,1205,0,0
-28,-181,0,0,0,0,0,0,0,0,0,-1,1196,1205,0,0
-21,-181,0,0,0,0,0,0,0,0,0,-1,1203,1205,0,0
-14,-181,0,0,0,0,0,0,0,0,0,-1,1210,1205,0,0
-7,-181,0,0,0,0,0,0,0,0,0,-1,1217,1205,0,0
0,-181,0,0,0,0,0,0,0,0,0,-1,1224,1205,0,0
7,-181,0,0,0,0,0,0,0,0,0,-1,1231,1205,0,0
14,-181,0,0,0,0,0,0,0,0,0,-1,1238,1205,0,0
21,-181,0,0,0,0,0,0,0,0,0,-1,1245,1205,0,0
28,-181,0,0,0,0,0,0,0,0,0,-1,1252,1205,0,0
35,-181,0,0,0,0,0,0,0,0,0,-1,1259,1205,0,0
42,-181,0,0,0,0,0,0,0,0,0,-1,1266,1205,0,0
49,-181,0,0,0,0,0,0,0,0,0,-1,1273,1205,0,0
56,-181,0,0,0,0,0,0,0,0,0,-1,1280,1205,0,0
63,-181,0,0,0,0,0,0,0,0,0,-1,1287,1205,0,0
70,-181,0,0,0,0,0,0,0,0,0,-1,1294,1205,0,0
77,-181,0,0,0,0,0,0,0,0,0,-1,1301,1205,0,0
84,-181,0,0,0,0,0,0,0,0,0,-1,1308,1205,0,0
91,-181,0,0,0,0,0,0,0,0,0,-1,1315,1205,0,0
98,-181,0,0,0,0,0,0,0,0,0,-1,1322,1205,0,0
105,-181,0,0,0,0,0,0,0,0,0,-1,1329,1205,0,0
112,-181,0,0,0,0,0,0,0,0,0,-1,1336,1205,0,0
119,-181,0,0,0,0,0,0,0,0,0,-1,1343,1205,0,0
126,-181,0,0,0,0,0,0,0,0,0,-1,1350,1205,0,0
133,-181,0,0,0,0,0,0,0,0,0,-1,1357,1205,0,0
140,-181,0,0,0,0,0,0,0,0,0,-1,1364,1205,0,0
147,-181,0,0,0,0,0,0,0,0,0,-1,1371,1205,0,0
154,-181,0,0,0,0,0,0,0,0,0,-1,1378,1205,0,0
161,-181,0,0,0,0,0,0,0,0,0,-1,1385,1205,0,0
168,-181,0,0,0,0,0,0,0,0,0,-1,1392,1205,0,0
175,-181,0,0,0,0,0,0,0,0,0,-1,1399,1205,0,0
182,-181,0,0,0,0,0,0,0,0,0,-1,1406,1205,0,0
189,-181,0,0,0,0,0,0,0,0,0,-1,1413,1205,0,0
196,-181,0,0,0,0,0,0,0,0,0,-1,1420,1205,0,0
203,-181,0,0,0,0,0,0,0,0,0,-1,1427,1205,0,0
210,-181,0,0,0,0,0,0,0,0,0,-1,1434,1205,0,0
217,-181,0,0,0,0,0,0,0,0,0,-1,1441,1205,0,0
224,-181,0,0,0,0,0,0,0,0,0,-1,1448,1205,0,0
231,-181,0,0,0,0,0,0,0,0,0,-1,1455,1205,0,0
238,-181,0,0,0,0,0,0,0,0,0,-1,1462,1205,0,0
245,-181,0,0,0,0,0,0,0,0,0,-1,1469,1205,0,0
252,-181,0,0,0,0,0,0,0,0,0,-1,1476,1205,0,0
259,-181,0,0,0,0,0,0,0,0,0,-1,1483,1205,0,0
266,-181,0,0,0,0,0,0,0,0,0,-1,1490,1205,0,0
273,-181,0,0,0,0,0,0,0,0,0,-1,1497,1205,0,0
280,-181,0,0,0,0,0,0,0,0,0,-1,1504,1205,0,0
287,-181,0,0,0,0,0,0,0,0,0,-1,1511,1205,0,0
294,-181,0,0,0,0,0,0,0,0,0,-1,1518,1205,0,0
301,-181,0,0,0,0,0,0,0,0,0,-1,1525,1205,0,0
308,-181,0,0,0,0,0,0,0,0,0,-1,1532,1205,0,0
315,-181,0,0,0,0,0,0,0,0,0,-1,1539,1205,0,0
322,-181,0,0,0,0,0,0,0,0,0,-1,1546,1205,0,0
329,-181,0,0,0,0,0,0,0,0,0,-1,1553,1205,0,0
336,-181,0,0,0,0,0,0,0,0,0,-1,1560,1205,0,0
343,-181,0,0,0,0,0,0,0,0,0,-1,1567,1205,0,0
350,-181,0,0,0,0,0,0,0,0,0,-1,1574,1205,0,0
357,-181,0,0,0,0,0,0,0,0,0,-1,1581,1205,0,0
364,-181,0,0,0,0,0,0,0,0,0,-1,1588,1205,0,0
371,-181,0,0,0,0,0,0,0,0,0,-1,1595,1205,0,0
378,-181,0,0,0,0,0,0,0,0,0,-1,1602,1205,0,0
385,-181,0,0,0,0,0,0,0,0,0,-1,1609,1205,0,0
392,-181,0,0,0,0,0,0,0,0,0,-1,1616,1205,0,0
399,-181,0,0,0,0,0,0,0,0,0,-1,1623,1205,0,0
406,-181,0,0,0,0,0,0,0,0,0,-1,1630,1205,0,0
413,-181,0,0,0,0,0,0,0,0,0,-1,1637,1205,0,0
420,-181,0,0,0,0,0,0,0,0,0,-1,1644,1205,0,0
427,-181,0,0,0,0,0,0,0,0,0,-1,1651,1205,0,0
434,-181,0,0,0,0,0,0,0,0,0,-1,1658,1205,0,0
441,-181,0,0,0,0,0,0,0,0,0,-1,1665,1205,0,0
448,-181,0,0,0,0,0,0,0,0,0,-1,1672,1205,0,0
455,-181,0,0,0,0,0,0,0,0,0,-1,1679,1205,0,0
462,-181,0,0,0,0,0,0,0,0,0,-1,1686,1205,0,0
469,-181,0,0,0,0,0,0,0,0,0,-1,1693,1205,0,0
476,-181,0,0,0,0,0,0,0,0,0,-1,1700,1205,0,0
483,-181,0,0,0,0,0,0,0,0,0,-1,1707,1205,0,0
490,-181,0,0,0,0,0,0,0,0,0,-1,1714,1205,0,0
497,-181,0,0,0,0,0,0,0,0,0,-1,1721,1205,0,0
504,-181,0,0,0,0,0,0,0,0,0,-1,1728,1205,0,0
511,-181,0,0,0,0,0,0,0,0,0,-1,1735,1205,0,0
518,-181,0,0,0,0,0,0,0,0,0,-1,1742,1205,0,0
525,-181,0,0,0,0,0,0,0,0,0,-1,1749,1205,0,0
532,-181,0,0,0,0,0,0,0,0,0,-1,1756,1205,0,0
539,-181,0,0,0,0,0,0,0,0,0,-1,1763,1205,0,0
546,-181,0,0,0,0,0,0,0,0,0,-1,1770,1205,0,0
553,-181,0,0,0,0,0,0,0,0,0,-1,1777,1205,0,0
560,-181,0,0,0,0,0,0,0,0,0,-1,1784,1205,0,0
567,-181,0,0,0,0,0,0,0,0,0,-1,1791,1205,0,0
574,-181,0,0,0,0,0,0,0,0,0,-1,1798,1205,0,0
581,-181,0,0,0,0,0,0,0,0,0,-1,1805,1205,0,0
588,-181,0,0,0,0,0,0,0,0,0,-1,1812,1205,0,0
595,-181,0,0,0,0,0,0,0,0,0,-1,1819,1205,0,0
602,-181,0,0,0,0,0,0,0,0,0,-1,1826,1205,0,0
609,-181,0,0,0,0,0,0,0,0,0,-1,1833,1205,0,0
616,-181,0,0,0,0,0,0,0,0,0,-1,1840,1205,0,0
623,-181,0,0,0,0,0,0,0,0,0,-1,1847,1205,0,0
630,-181,78.8545,2.45935,0.00536817,-0.0060089,0.000542813,0.00539401,-0.00603474,0.0475671,0.00660185,0.0381647,1854,1205,78.8546,-2.45937
637,-181,78.9307,2.56616,0.00367759,-0.00443933,-4.66473e-05,0.00367786,-0.0044396,-0.00574667,0.00469349,0.0373671,1861,1205,78.9306,-2.56622
644,-181,78.8843,2.58557,0.00245796,-0.00277408,-0.000741353,0.00256098,-0.0028771,-0.138075,0.00314144,0.0391517,1868,1205,78.8843,-2.5856
651,-181,79.0851,2.53088,0,0,0,0,0,0,0,-1,1875,1205,79.0851,-2.53094
658,-181,78.8417,2.48169,0.0010267,0.000409602,-0.00204961,0.00279085,-0.00135455,-0.710688,0.00244077,0.035561,1882,1205,78.8417,-2.48165
665,-181,78.7545,2.4231,0.00057096,0.00133011,-0.00216412,0.0031477,-0.00124662,-0.872212,0.002615,0.0307937,1889,1205,78.7546,-2.42304
672,-181,78.6799,2.31982,0.000378517,0.00221388,-0.00204099,0.003534,-0.000941609,-0.996669,0.00272466,0.0238983,1896,1205,78.6799,-2.31979
679,-181,78.7573,2.32861,0.000333575,0.00245704,-0.00183394,0.00351441,-0.000723796,-1.04779,0.00261778,0.0435449,1903,1205,78.7573,-2.32866
686,-181,78.8448,2.36548,0,0,0,0,0,0,0,-1,1910,1205,78.8449,-2.36546
693,-181,36.1301,2.91016,0,0,0,0,0,0,0,-1,1917,1205,36.1302,-2.9102
700,-181,29.5845,6.58398,0,0,0,0,0,0,0,-1,1924,1205,29.5844,-6.58395
707,-181,55.4949,10.6722,0,0,0,0,0,0,0,-1,1931,1205,55.4949,-10.6722
714,-181,55.6268,10.3521,0,0,0,0,0,0,0,-1,1938,1205,55.6268,-10.3521
721,-181,51.2217,9.59631,0,0,0,0,0,0,0,-1,1945,1205,51.2217,-9.59637
728,-181,64.7522,10.3059,0,0,0,0,0,0,0,-1,1952,1205,64.7522,-10.3059
735,-181,64.7397,9.57397,0.00191374,0.00297671,7.07608e-05,0.0029814,0.00190905,1.50462,0.00174376,0.0197079,1959,1205,64.7397,-9.57396
742,-181,64.7097,8.87769,0.00211169,0.00298282,0.000776054,0.00343719,0.00165733,1.04112,0.00198488,0.0176489,1966,1205,64.7097,-8.87765
749,-181,64.6576,8.10413,0.00253225,0.00418622,0.00174469,0.00529,0.00142847,1.00672,0.00316003,0.0159057,1973,1205,64.6575,-8.10408
756,-181,64.6324,7.34644,0.00350956,0.0065655,0.00295357,0.00836293,0.00171213,1.02411,0.00510127,0.0117822,1980,1205,64.6324,-7.34648
763,-181,64.6396,6.61243,0.00511569,0.0101634,0.00438309,0.0126974,0.00258175,1.04662,0.00774905,0.0183722,1987,1205,64.6396,-6.61243
770,-181,64.7161,5.87024,0,0,0,0,0,0,0,-1,1994,1205,64.7161,-5.87018
777,-181,69.6453,-1.67188,0,0,0,0,0,0,0,-1,2001,1205,69.6452,1.6719
784,-181,72.6182,-4.63086,0,0,0,0,0,0,0,-1,2008,1205,72.6181,4.63082
791,-181,69.3733,0.442383,0,0,0,0,0,0,0,-1,2015,1205,69.3733,-0.442431
798,-181,66.1357,-1.15442,0,0,0,0,0,0,0,-1,2022,1205,66.1358,1.15445
805,-181,0,0,0,0,0,0,0,0,0,-1,2029,1205,0,0
812,-181,0,0,0,0,0,0,0,0,0,-1,2036,1205,0,0
-700,-188,0,0,0,0,0,0,0,0,0,-1,524,1212,0,0
-693,-188,0,0,0,0,0,0,0,0,0,-1,531,1212,0,0
-686,-188,0,0,0,0,0,0,0,0,0,-1,538,1212,0,0
-679,-188,-44.9916,0.227295,0,0,0,0,0,0,0,-1,545,1212,-44.9916,-0.227252
-672,-188,-45.6163,0.922119,0,0,0,0,0,0,0,-1,552,1212,-45.6163,-0.922074
-665,-188,-48.7234,4.354,0,0,0,0,0,0,0,-1,559,1212,-48.7234,-4.35397
-658,-188,-48.3911,4.47351,0.0323067,0.0147658,-0.0479761,0.0723074,-0.0252349,-0.694992,0.0584611,0.0486449,566,1212,-48.391,-4.47349
-651,-188,-48.1404,4.64185,0.0226886,0.0106493,-0.0355171,0.0526926,-0.0193547,-0.701453,0.0430553,0.0485275,573,1212,-48.1404,-4.64179
-644,-188,-47.8268,4.40967,0,0,0,0,0,0,0,-1,580,1212,-47.8268,-4.40964
-637,-188,-47.7789,5.20459,0.00973548,0.00512211,-0.0173876,0.0249687,-0.0101111,-0.719452,0.0208501,0.0291728,587,1212,-47.779,-5.20459
-630,-188,-47.7773,5.97742,0.00551356,0.00351265,-0.0113871,0.0159441,-0.0069179,-0.741582,0.013538,0.0126937,594,1212,-47.7773,-5.97745
-623,-188,-47.8313,6.74011,0.00275904,0.00249373,-0.00772109,0.0103486,-0.00509584,-0.776809,0.00908714,0.011822,601,1212,-47.8313,-6.74012
-616,-188,-47.8506,7.50549,0.00090262,0.00188053,-0.00538715,0.00680087,-0.00401772,-0.830656,0.00631464,0.0115213,608,1212,-47.8506,-7.50546
-609,-188,-47.8706,8.29968,-0.000167715,0.00145399,-0.0041874,0.00490832,-0.00362204,-0.881035,0.00494364,0.0145832,615,1212,-47.8706,-8.2997
-602,-188,-47.8144,9.15503,-0.000428573,0.00114672,-0.00418516,0.00461771,-0.00389956,-0.87841,0.00492327,0.0315297,622,1212,-47.8144,-9.15502
-595,-188,-47.6665,10.2358,0,0,0,0,0,0,0,-1,629,1212,-47.6665,-10.2359
-588,-188,-48.2568,10.6959,-0.000861995,0.000622158,-0.00506283,0.00499701,-0.00523685,-0.858167,0.00590906,0.0286571,636,1212,-48.2568,-10.6959
-581,-188,-48.326,11.4047,-0.00174578,0.00034903,-0.00451254,0.00393412,-0.00533087,-0.899434,0.00536937,0.0347298,643,1212,-48.326,-11.4047
-574,-188,-48.3817,12.0624,0,0,0,0,0,0,0,-1,650,1212,-48.3817,-12.0624
-567,-188,-19.5786,4.10388,0,0,0,0,0,0,0,-1,657,1212,-19.5785,-4.10383
-560,-188,-23.9507,0.416626,0,0,0,0,0,0,0,-1,664,1212,-23.9508,-0.416602
-553,-188,-49.2368,1.03101,0,0,0,0,0,0,0,-1,671,1212,-49.2367,-1.03099
-546,-188,-62.2437,0.792725,0,0,0,0,0,0,0,-1,678,1212,-62.2437,-0.79271
-539,-188,-62.1751,0.54834,-0.0019201,-0.00179224,-0.00129923,-0.000555362,-0.00315697,-0.809981,0.00194612,0.0364398,685,1212,-62.1751,-0.548315
-532,-188,-62.2028,0.44519,-0.00162227,-0.00238872,-0.000119962,-0.00160393,-0.00240706,-0.151684,0.00141512,0.0402328,692,1212,-62.2028,-0.445148
-525,-188,-62.1989,0.65686,0.00149965,-0.00339457,0.00114164,0.00175285,-0.00364777,0.218255,0.00318138,0.0396394,699,1212,-62.1988,-0.656845
-518,-188,-62.1783,0.786865,0.0103617,-0.00558817,0.0021309,0.0106415,-0.00586795,0.13055,0.00966364,0.0411643,706,1212,-62.1784,-0.786853
-511,-188,-62.0943,0.877441,0.0212183,-0.00870033,0.00319234,0.0215552,-0.00903716,0.105124,0.0181487,0.0399877,713,1212,-62.0943,-0.877402
-504,-188,0,0,0,0,0,0,0,0,0,-1,720,1212,0,0
-497,-188,0,0,0,0,0,0,0,0,0,-1,727,1212,0,0
-490,-188,0,0,0,0,0,0,0,0,0,-1,734,1212,0,0
-483,-188,0,0,0,0,0,0,0,0,0,-1,741,1212,0,0
-476,-188,0,0,0,0,0,0,0,0,0,-1,748,1212,0,0
-469,-188,0,0,0,0,0,0,0,0,0,-1,755,1212,0,0
-462,-188,0,0,0,0,0,0,0,0,0,-1,762,1212,0,0
-455,-188,0,0,0,0,0,0,0,0,0,-1,769,1212,0,0
-448,-188,0,0,0,0,0,0,0,0,0,-1,776,1212,0,0
-441,-188,0,0,0,0,0,0,0,0,0,-1,783,1212,0,0
-434,-188,0,0,0,0,0,0,0,0,0,-1,790,1212,0,0
-427,-188,0,0,0,0,0,0,0,0,0,-1,797,1212,0,0
-420,-188,0,0,0,0,0,0,0,0,0,-1,804,1212,0,0
-413,-188,0,0,0,0,0,0,0,0,0,-1,811,1212,0,0
-406,-188,0,0,0,0,0,0,0,0,0,-1,818,1212,0,0
-399,-188,0,0,0,0,0,0,0,0,0,-1,825,1212,0,0
-392,-188,0,0,0,0,0,0,0,0,0,-1,832,1212,0,0
-385,-188,0,0,0,0,0,0,0,0,0,-1,839,1212,0,0
-378,-188,0,0,0,0,0,0,0,0,0,-1,846,1212,0,0
-371,-188,0,0,0,0,0,0,0,0,0,-1,853,1212,0,0
-364,-188,0,0,0,0,0,0,0,0,0,-1,860,1212,0,0
-357,-188,0,0,0,0,0,0,0,0,0,-1,867,1212,0,0
-350,-188,0,0,0,0,0,0,0,0,0,-1,874,1212,0,0
-343,-188,0,0,0,0,0,0,0,0,0,-1,881,1212,0,0
-336,-188,0,0,0,0,0,0,0,0,0,-1,888,1212,0,0
-329,-188,0,0,0,0,0,0,0,0,0,-1,895,1212,0,0
-322,-188,0,0,0,0,0,0,0,0,0,-1,902,1212,0,0
-315,-188,0,0,0,0,0,0,0,0,0,-1,909,1212,0,0
-308,-188,0,0,0,0,0,0,0,0,0,-1,916,1212,0,0
-301,-188,0,0,0,0,0,0,0,0,0,-1,923,1212,0,0
-294,-188,0,0,0,0,0,0,0,0,0,-1,930,1212,0,0
-287,-188,0,0,0,0,0,0,0,0,0,-1,937,1212,0,0
-280,-188,0,0,0,0,0,0,0,0,0,-1,944,1212,0,0
-273,-188,0,0,0,0,0,0,0,0,0,-1,951,1212,0,0
-266,-188,0,0,0,0,0,0,0,0,0,-1,958,1212,0,0
-259,-188,0,0,0,0,0,0,0,0,0,-1,965,1212,0,0
-252,-188,0,0,0,0,0,0,0,0,0,-1,972,1212,0,0
-245,-188,0,0,0,0,0,0,0,0,0,-1,979,1212,0,0
-238,-188,0,0,0,0,0,0,0,0,0,-1,986,1212,0,0
-231,-188,0,0,0,0,0,0,0,0,0,-1,993,1212,0,0
-224,-188,0,0,0,0,0,0,0,0,0,-1,1000,1212,0,0
-217,-188,0,0,0,0,0,0,0,0,0,-1,1007,1212,0,0
-210,-188,0,0,0,0,0,0,0,0,0,-1,1014,1212,0,0
-203,-188,0,0,0,0,0,0,0,0,0,-1,1021,1212,0,0
-196,-188,0,0,0,0,0,0,0,0,0,-1,1028,1212,0,0
-189,-188,0,0,0,0,0,0,0,0,0,-1,1035,1212,0,0
-182,-188,0,0,0,0,0,0,0,0,0,-1,1042,1212,0,0
-175,-188,0,0,0,0,0,0,0,0,0,-1,1049,1212,0,0
-168,-188,0,0,0,0,0,0,0,0,0,-1,1056,1212,0,0
-161,-188,0,0,0,0,0,0,0,0,0,-1,1063,1212,0,0
-154,-188,0,0,0,0,0,0,0,0,0,-1,1070,1212,0,0
-147,-188,0,0,0,0,0,0,0,0,0,-1,1077,1212,0,0
-140,-188,0,0,0,0,0,0,0,0,0,-1,1084,1212,0,0
-133,-188,0,0,0,0,0,0,0,0,0,-1,1091,1212,0,0
-126,-188,0,0,0,0,0,0,0,0,0,-1,1098,1212,0,0
-119,-188,0,0,0,0,0,0,0,0,0,-1,1105,1212,0,0
-112,-188,0,0,0,0,0,0,0,0,0,-1,1112,1212,0,0
-105,-188,0,0,0,0,0,0,0,0,0,-1,1119,1212,0,0
-98,-188,0,0,0,0,0,0,0,0,0,-1,1126,1212,0,0
-91,-188,0,0,0,0,0,0,0,0,0,-1,1133,1212,0,0
-84,-188,0,0,0,0,0,0,0,0,0,-1,1140,1212,0,0
-77,-188,0,0,0,0,0,0,0,0,0,-1,1147,1212,0,0
-70,-188,0,0,0,0,0,0,0,0,0,-1,1154,1212,0,0
-63,-188,0,0,0,0,0,0,0,0,0,-1,1161,1212,0,0
-56,-188,0,0,0,0,0,0,0,0,0,-1,1168,1212,0,0
-49,-188,0,0,0,0,0,0,0,0,0,-1,1175,1212,0,0
-42,-188,0,0,0,0,0,0,0,0,0,-1,1182,1212,0,0
-35,-188,0,0,0,0,0,0,0,0,0,-1,1189,1212,0,0
-28,-188,0,0,0,0,0,0,0,0,0,-1,1196,1212,0,0
-21,-188,0,0,0,0,0,0,0,0,0,-1,1203,1212,0,0
-14,-188,0,0,0,0,0,0,0,0,0,-1,1210,1212,0,0
-7,-188,0,0,0,0,0,0,0,0,0,-1,1217,1212,0,0
0,-188,0,0,0,0,0,0,0,0,0,-1,1224,1212,0,0
7,-188,0,0,0,0,0,0,0,0,0,-1,1231,1212,0,0
14,-188,0,0,0,0,0,0,0,0,0,-1,1238,1212,0,0
21,-188,0,0,0,0,0,0,0,0,0,-1,1245,1212,0,0
28,-188,0,0,0,0,0,0,0,0,0,-1,1252,1212,0,0
35,-188,0,0,0,0,0,0,0,0,0,-1,1259,1212,0,0
42,-188,0,0,0,0,0,0,0,0,0,-1,1266,1212,0,0
49,-188,0,0,0,0,0,0,0,0,0,-1,1273,1212,0,0
56,-188,0,0,0,0,0,0,0,0,0,-1,1280,1212,0,0
63,-188,0,0,0,0,0,0,0,0,0,-1,1287,1212,0,0
70,-188,0,0,0,0,0,0,0,0,0,-1,1294,1212,0,0
77,-188,0,0,0,0,0,0,0,0,0,-1,1301,1212,0,0
84,-188,0,0,0,0,0,0,0,0,0,-1,1308,1212,0,0
91,-188,0,0,0,0,0,0,0,0,0,-1,1315,1212,0,0
98,-188,0,0,0,0,0,0,0,0,0,-1,1322,1212,0,0
105,-188,0,0,0,0,0,0,0,0,0,-1,1329,1212,0,0
112,-188,0,0,0,0,0,0,0,0,0,-1,1336,1212,0,0
119,-188,0,0,0,0,0,0,0,0,0,-1,1343,1212,0,0
126,-188,0,0,0,0,0,0,0,0,0,-1,1350,1212,0,0
133,-188,0,0,0,0,0,0,0,0,0,-1,1357,1212,0,0
140,-188,0,0,0,0,0,0,0,0,0,-1,1364,1212,0,0
147,-188,0,0,0,0,0,0,0,0,0,-1,1371,1212,0,0
154,-188,0,0,0,0,0,0,0,0,0,-1,1378,1212,0,0
161,-188,0,0,0,0,0,0,0,0,0,-1,1385,1212,0,0
168,-188,0,0,0,0,0,0,0,0,0,-1,1392,1212,0,0
175,-188,0,0,0,0,0,0,0,0,0,-1,1399,1212,0,0
182,-188,0,0,0,0,0,0,0,0,0,-1,1406,1212,0,0
189,-188,0,0,0,0,0,0,0,0,0,-1,1413,1212,0,0
196,-188,0,0,0,0,0,0,0,0,0,-1,1420,1212,0,0
203,-188,0,0,0,0,0,0,0,0,0,-1,1427,1212,0,0
210,-188,0,0,0,0,0,0,0,0,0,-1,1434,1212,0,0
217,-188,0,0,0,0,0,0,0,0,0,-1,1441,1212,0,0
224,-188,0,0,0,0,0,0,0,0,0,-1,1448,1212,0,0
231,-188,0,0,0,0,0,0,0,0,0,-1,1455,1212,0,0
238,-188,0,0,0,0,0,0,0,0,0,-1,1462,1212,0,0
245,-188,0,0,0,0,0,0,0,0,0,-1,1469,1212,0,0
252,-188,0,0,0,0,0,0,0,0,0,-1,1476,1212,0,0
259,-188,0,0,0,0,0,0,0,0,0,-1,1483,1212,0,0
266,-188,0,0,0,0,0,0,0,0,0,-1,1490,1212,0,0
273,-188,0,0,0,0,0,0,0,0,0,-1,1497,1212,0,0
280,-188,0,0,0,0,0,0,0,0,0,-1,1504,1212,0,0
287,-188,0,0,0,0,0,0,0,0,0,-1,1511,1212,0,0
294,-188,0,0,0,0,0,0,0,0,0,-1,1518,1212,0,0
301,-188,0,0,0,0,0,0,0,0,0,-1,1525,1212,0,0
308,-188,0,0,0,0,0,0,0,0,0,-1,1532,1212,0,0
315,-188,0,0,0,0,0,0,0,0,0,-1,1539,1212,0,0
322,-188,0,0,0,0,0,0,0,0,0,-1,1546,1212,0,0
329,-188,0,0,0,0,0,0,0,0,0,-1,1553,1212,0,0
336,-188,0,0,0,0,0,0,0,0,0,-1,1560,1212,0,0
343,-188,0,0,0,0,0,0,0,0,0,-1,1567,1212,0,0
350,-188,0,0,0,0,0,0,0,0,0,-1,1574,1212,0,0
357,-188,0,0,0,0,0,0,0,0,0,-1,1581,1212,0,0
364,-188,0,0,0,0,0,0,0,0,0,-1,1588,1212,0,0
371,-188,0,0,0,0,0,0,0,0,0,-1,1595,1212,0,0
378,-188,0,0,0,0,0,0,0,0,0,-1,1602,1212,0,0
385,-188,0,0,0,0,0,0,0,0,0,-1,1609,1212,0,0
392,-188,0,0,0,0,0,0,0,0,0,-1,1616,1212,0,0
399,-188,0,0,0,0,0,0,0,0,0,-1,1623,1212,0,0
406,-188,0,0,0,0,0,0,0,0,0,-1,1630,1212,0,0
413,-188,0,0,0,0,0,0,0,0,0,-1,1637,1212,0,0
420,-188,0,0,0,0,0,0,0,0,0,-1,1644,1212,0,0
427,-188,0,0,0,0,0,0,0,0,0,-1,1651,1212,0,0
434,-188,0,0,0,0,0,0,0,0,0,-1,1658,1212,0,0
441,-188,0,0,0,0,0,0,0,0,0,-1,1665,1212,0,0
448,-188,0,0,0,0,0,0,0,0,0,-1,1672,1212,0,0
455,-188,0,0,0,0,0,0,0,0,0,-1,1679,1212,0,0
462,-188,0,0,0,0,0,0,0,0,0,-1,1686,1212,0,0
469,-188,0,0,0,0,0,0,0,0,0,-1,1693,1212,0,0
476,-188,0,0,0,0,0,0,0,0,0,-1,1700,1212,0,0
483,-188,0,0,0,0,0,0,0,0,0,-1,1707,1212,0,0
490,-188,0,0,0,0,0,0,0,0,0,-1,1714,1212,0,0
497,-188,0,0,0,0,0,0,0,0,0,-1,1721,1212,0,0
504,-188,0,0,0,0,0,0,0,0,0,-1,1728,1212,0,0
511,-188,0,0,0,0,0,0,0,0,0,-1,1735,1212,0,0
518,-188,0,0,0,0,0,0,0,0,0,-1,1742,1212,0,0
525,-188,0,0,0,0,0,0,0,0,0,-1,1749,1212,0,0
532,-188,0,0,0,0,0,0,0,0,0,-1,1756,1212,0,0
539,-188,0,0,0,0,0,0,0,0,0,-1,1763,1212,0,0
546,-188,0,0,0,0,0,0,0,0,0,-1,1770,1212,0,0
553,-188,0,0,0,0,0,0,0,0,0,-1,1777,1212,0,0
560,-188,0,0,0,0,0,0,0,0,0,-1,1784,1212,0,0
567,-188,0,0,0,0,0,0,0,0,0,-1,1791,1212,0,0
574,-188,0,0,0,0,0,0,0,0,0,-1,1798,1212,0,0
581,-188,0,0,0,0,0,0,0,0,0,-1,1805,1212,0,0
588,-188,0,0,0,0,0,0,0,0,0,-1,1812,1212,0,0
595,-188,0,0,0,0,0,0,0,0,0,-1,1819,1212,0,0
602,-188,0,0,0,0,0,0,0,0,0,-1,1826,1212,0,0
609,-188,0,0,0,0,0,0,0,0,0,-1,1833,1212,0,0
616,-188,0,0,0,0,0,0,0,0,0,-1,1840,1212,0,0
623,-188,0,0,0,0,0,0,0,0,0,-1,1847,1212,0,0
630,-188,78.8024,2.47681,0.0049842,-0.0039258,-3.6979e-05,0.00498436,-0.00392596,-0.00415019,0.00515646,0.0420453,1854,1212,78.8024,-2.47682
637,-188,78.8613,2.5011,0.00341123,-0.002667,-0.000600053,0.0034699,-0.00272567,-0.097468,0.00358561,0.0398102,1861,1212,78.8613,-2.50104
644,-188,78.7196,2.45251,0.00229469,-0.00129025,-0.00124181,0.00268283,-0.00167838,-0.302935,0.00254011,0.0352226,1868,1212,78.7196,-2.45256
651,-188,78.6375,2.43665,0.00155623,0.000107451,-0.0019023,0.00286739,-0.00120371,-0.603476,0.00241499,0.0324889,1875,1212,78.6375,-2.43661
658,-188,78.6671,2.42371,0.000967492,0.00113309,-0.00216134,0.00321322,-0.00111264,-0.804543,0.00259383,0.0324817,1882,1212,78.6671,-2.42368
665,-188,78.6045,2.34607,0.000488283,0.00152936,-0.00197022,0.00304665,-0.00102901,-0.914549,0.00244731,0.0294927,1889,1212,78.6045,-2.34608
672,-188,78.6769,2.29736,0.00029406,0.00206782,-0.00167559,0.00307677,-0.000714891,-1.0288,0.00232638,0.0252669,1896,1212,78.6769,-2.29739
679,-188,78.7656,2.28687,0,0,0,0,0,0,0,-1,1903,1212,78.7656,-2.28692
686,-188,60.1007,2.41321,0,0,0,0,0,0,0,-1,1910,1212,60.1007,-2.41325
693,-188,35.9054,2.18042,0,0,0,0,0,0,0,-1,1917,1212,35.9054,-2.18038
700,-188,54.452,11.2678,0,0,0,0,0,0,0,-1,1924,1212,54.452,-11.2678
707,-188,64.371,12.85,0,0,0,0,0,0,0,-1,1931,1212,64.3709,-12.8499
714,-188,54.7506,10.1539,0,0,0,0,0,0,0,-1,1938,1212,54.7507,-10.1539
721,-188,61.637,10.8645,0,0,0,0,0,0,0,-1,1945,1212,61.6369,-10.8645
728,-188,64.0752,10.3403,0,0,0,0,0,0,0,-1,1952,1212,64.0753,-10.3403
735,-188,63.998,9.62695,0.00161411,0.0029997,0.000319451,0.00306981,0.00154401,1.35477,0.00177236,0.0143149,1959,1212,63.998,-9.62694
742,-188,63.9368,8.87073,0.00185306,0.00307566,0.00101079,0.00364563,0.00128309,1.05736,0.00213534,0.0153152,1966,1212,63.9368,-8.87071
749,-188,63.9005,8.1178,0.00224422,0.00398359,0.00195657,0.00525505,0.000972755,0.994532,0.00322834,0.014335,1973,1212,63.9006,-8.11779
756,-188,63.8672,7.36328,0.00309951,0.00586531,0.00314657,0.00791945,0.00104536,0.99244,0.00496798,0.0138991,1980,1212,63.8671,-7.3633
763,-188,63.8494,6.5968,0.0044872,0.00894525,0.00466888,0.0118899,0.00154254,1.00811,0.00746573,0.0202212,1987,1212,63.8494,-6.59684
770,-188,63.9011,5.81555,0,0,0,0,0,0,0,-1,1994,1212,63.901,-5.81549
777,-188,61.4719,4.67664,0,0,0,0,0,0,0,-1,2001,1212,61.4719,-4.67659
784,-188,69.1482,-1.87268,0,0,0,0,0,0,0,-1,2008,1212,69.1481,1.87266
791,-188,68.3596,-0.192261,0,0,0,0,0,0,0,-1,2015,1212,68.3596,0.192286
798,-188,67.5286,1.23303,0,0,0,0,0,0,0,-1,2022,1212,67.5285,-1.23298
805,-188,0,0,0,0,0,0,0,0,0,-1,2029,1212,0,0
812,-188,0,0,0,0,0,0,0,0,0,-1,2036,1212,0,0
-700,-195,0,0,0,0,0,0,0,0,0,-1,524,1219,0,0
-693,-195,0,0,0,0,0,0,0,0,0,-1,531,1219,0,0
-686,-195,0,0,0,0,0,0,0,0,0,-1,538,1219,0,0
-679,-195,-44.2733,-0.262695,0,0,0,0,0,0,0,-1,545,1219,-44.2733,0.262648
-672,-195,-45.2201,0.631958,0,0,0,0,0,0,0,-1,552,1219,-45.2201,-0.632012
-665,-195,-46.6998,4.67078,0,0,0,0,0,0,0,-1,559,1219,-46.6998,-4.67073
-658,-195,-47.3607,4.42554,0,0,0,0,0,0,0,-1,566,1219,-47.3606,-4.42555
-651,-195,-47.2828,4.02917,0,0,0,0,0,0,0,-1,573,1219,-47.2827,-4.02916
-644,-195,-46.7462,4.44434,0,0,0,0,0,0,0,-1,580,1219,-46.7461,-4.44428
-637,-195,-46.8575,5.22607,0.0103603,0.00507124,-0.0177629,0.0256745,-0.0102429,-0.711501,0.0213654,0.0296458,587,1219,-46.8575,-5.22606
-630,-195,-46.9789,6.00537,0.00605576,0.00342046,-0.0114801,0.0162935,-0.00681732,-0.72826,0.0137118,0.0103583,594,1219,-46.9789,-6.00543
-623,-195,-47.0292,6.78076,0.00339475,0.00243815,-0.00783909,0.0107701,-0.00493722,-0.754929,0.00927473,0.00855055,601,1219,-47.0293,-6.78079
-616,-195,-47.0505,7.57202,0.0016486,0.00190923,-0.00554229,0.00732274,-0.0037649,-0.797152,0.00651038,0.0100576,608,1219,-47.0505,-7.57199
-609,-195,-47.0579,8.38208,0.000604958,0.0016554,-0.00434086,0.0055027,-0.00324233,-0.845603,0.00510486,0.0184577,615,1219,-47.0579,-8.38202
-602,-195,-47.108,9.099,0.000136696,0.00164709,-0.00412336,0.00508384,-0.00330005,-0.87597,0.00487682,0.0255888,622,1219,-47.108,-9.09902
-595,-195,-47.1767,9.94971,0,0,0,0,0,0,0,-1,629,1219,-47.1767,-9.94972
-588,-195,-47.4282,10.7881,-0.000594646,0.00151738,-0.00501575,0.00558708,-0.00466434,-0.889153,0.00592665,0.023454,636,1219,-47.4282,-10.788
-581,-195,-47.3569,11.4614,-0.00173602,0.00110771,-0.00443337,0.00434165,-0.00496995,-0.940576,0.00538013,0.030112,643,1219,-47.357,-11.4614
-574,-195,-47.5239,12.0446,0,0,0,0,0,0,0,-1,650,1219,-47.5239,-12.0446
-567,-195,-20.6388,3.78369,0,0,0,0,0,0,0,-1,657,1219,-20.6388,-3.78369
-560,-195,-20.878,2.10388,0,0,0,0,0,0,0,-1,664,1219,-20.878,-2.10385
-553,-195,-41.595,0.613281,0,0,0,0,0,0,0,-1,671,1219,-41.595,-0.61334
-546,-195,-61.9653,0.653076,0,0,0,0,0,0,0,-1,678,1219,-61.9653,-0.653038
-539,-195,-62.0789,0.55127,-0.002114,-0.000995633,-0.000766679,-0.000605878,-0.00250375,-1.10048,0.00150833,0.0430715,685,1219,-62.0788,-0.551319
-532,-195,-62.1794,0.560303,-0.00214566,-0.00140354,0.000316786,-0.00128671,-0.00226249,1.21747,0.00131036,0.0337858,692,1219,-62.1794,-0.560258
-525,-195,-62.2445,0.806396,-0.000295616,-0.00188941,0.00148572,0.000593428,-0.00277845,0.539238,0.00207854,0.0378151,699,1219,-62.2445,-0.806449
-518,-195,-62.3281,0.999512,0.00730298,-0.0033199,0.00209671,0.00770185,-0.00371876,0.187988,0.00672604,0.0421191,706,1219,-62.3281,-0.999525
-511,-195,-62.128,1.06714,0.0188867,-0.00652199,0.00297675,0.0192308,-0.00686607,0.115079,0.0156206,0.0440362,713,1219,-62.128,-1.06716
-504,-195,0,0,0,0,0,0,0,0,0,-1,720,1219,0,0
-497,-195,0,0,0,0,0,0,0,0,0,-1,727,1219,0,0
-490,-195,0,0,0,0,0,0,0,0,0,-1,734,1219,0,0
-483,-195,0,0,0,0,0,0,0,0,0,-1,741,1219,0,0
-476,-195,0,0,0,0,0,0,0,0,0,-1,748,1219,0,0
-469,-195,0,0,0,0,0,0,0,0,0,-1,755,1219,0,0
-462,-195,0,0,0,0,0,0,0,0,0,-1,762,1219,0,0
-455,-195,0,0,0,0,0,0,0,0,0,-1,769,1219,0,0
-448,-195,0,0,0,0,0,0,0,0,0,-1,776,1219,0,0
-441,-195,0,0,0,0,0,0,0,0,0,-1,783,1219,0,0
-434,-195,0,0,0,0,0,0,0,0,0,-1,790,1219,0,0
-427,-195,0,0,0,0,0,0,0,0,0,-1,797,1219,0,0
-420,-195,0,0,0,0,0,0,0,0,0,-1,804,1219,0,0
-413,-195,0,0,0,0,0,0,0,0,0,-1,811,1219,0,0
-406,-195,0,0,0,0,0,0,0,0,0,-1,818,1219,0,0
-399,-195,0,0,0,0,0,0,0,0,0,-1,825,1219,0,0
-392,-195,0,0,0,0,0,0,0,0,0,-1,832,1219,0,0
-385,-195,0,0,0,0,0,0,0,0,0,-1,839,1219,0,0
-378,-195,0,0,0,0,0,0,0,0,0,-1,846,1219,0,0
-371,-195,0,0,0,0,0,0,0,0,0,-1,853,1219,0,0
-364,-195,0,0,0,0,0,0,0,0,0,-1,860,1219,0,0
-357,-195,0,0,0,0,0,0,0,0,0,-1,867,1219,0,0
-350,-195,0,0,0,0,0,0,0,0,0,-1,874,1219,0,0
-343,-195,0,0,0,0,0,0,0,0,0,-1,881,1219,0,0
-336,-195,0,0,0,0,0,0,0,0,0,-1,888,1219,0,0
-329,-195,0,0,0,0,0,0,0,0,0,-1,895,1219,0,0
-322,-195,0,0,0,0,0,0,0,0,0,-1,902,1219,0,0
-315,-195,0,0,0,0,0,0,0,0,0,-1,909,1219,0,0
-308,-195,0,0,0,0,0,0,0,0,0,-1,916,1219,0,0
-301,-195,0,0,0,0,0,0,0,0,0,-1,923,1219,0,0
-294,-195,0,0,0,0,0,0,0,0,0,-1,930,1219,0,0
-287,-195,0,0,0,0,0,0,0,0,0,-1,937,1219,0,0
-280,-195,0,0,0,0,0,0,0,0,0,-1,944,1219,0,0
-273,-195,0,0,0,0,0,0,0,0,0,-1,951,1219,0,0
-266,-195,0,0,0,0,0,0,0,0,0,-1,958,1219,0,0
-259,-195,0,0,0,0,0,0,0,0,0,-1,965,1219,0,0
-252,-195,0,0,0,0,0,0,0,0,0,-1,972,1219,0,0
-245,-195,0,0,0,0,0,0,0,0,0,-1,979,1219,0,0
-238,-195,0,0,0,0,0,0,0,0,0,-1,986,1219,0,0
-231,-195,0,0,0,0,0,0,0,0,0,-1,993,1219,0,0
-224,-195,0,0,0,0,0,0,0,0,0,-1,1000,1219,0,0
-217,-195,0,0,0,0,0,0,0,0,0,-1,1007,1219,0,0
-210,-195,0,0,0,0,0,0,0,0,0,-1,1014,1219,0,0
-203,-195,0,0,0,0,0,0,0,0,0,-1,1021,1219,0,0
-196,-195,0,0,0,0,0,0,0,0,0,-1,1028,1219,0,0
-189,-195,0,0,0,0,0,0,0,0,0,-1,1035,1219,0,0
-182,-195,0,0,0,0,0,0,0,0,0,-1,1042,1219,0,0
-175,-195,0,0,0,0,0,0,0,0,0,-1,1049,1219,0,0
-168,-195,0,0,0,0,0,0,0,0,0,-1,1056,1219,0,0
-161,-195,0,0,0,0,0,0,0,0,0,-1,1063,1219,0,0
-154,-195,0,0,0,0,0,0,0,0,0,-1,1070,1219,0,0
-147,-195,0,0,0,0,0,0,0,0,0,-1,1077,1219,0,0
-140,-195,0,0,0,0,0,0,0,0,0,-1,1084,1219,0,0
-133,-195,0,0,0,0,0,0,0,0,0,-1,1091,1219,0,0
-126,-195,0,0,0,0,0,0,0,0,0,-1,1098,1219,0,0
-119,-195,0,0,0,0,0,0,0,0,0,-1,1105,1219,0,0
-112,-195,0,0,0,0,0,0,0,0,0,-1,1112,1219,0,0
-105,-195,0,0,0,0,0,0,0,0,0,-1,1119,1219,0,0
-98,-195,0,0,0,0,0,0,0,0,0,-1,1126,1219,0,0
-91,-195,0,0,0,0,0,0,0,0,0,-1,1133,1219,0,0
-84,-195,0,0,0,0,0,0,0,0,0,-1,1140,1219,0,0
-77,-195,0,0,0,0,0,0,0,0,0,-1,1147,1219,0,0
-70,-195,0,0,0,0,0,0,0,0,0,-1,1154,1219,0,0
-63,-195,0,0,0,0,0,0,0,0,0,-1,1161,1219,0,0
-56,-195,0,0,0,0,0,0,0,0,0,-1,1168,1219,0,0
-49,-195,0,0,0,0,0,0,0,0,0,-1,1175,1219,0,0
-42,-195,0,0,0,0,0,0,0,0,0,-1,1182,1219,0,0
-35,-195,0,0,0,0,0,0,0,0,0,-1,1189,1219,0,0
-28,-195,0,0,0,0,0,0,0,0,0,-1,1196,1219,0,0
-21,-195,0,0,0,0,0,0,0,0,0,-1,1203,1219,0,0
-14,-195,0,0,0,0,0,0,0,0,0,-1,1210,1219,0,0
-7,-195,0,0,0,0,0,0,0,0,0,-1,1217,1219,0,0
0,-195,0,0,0,0,0,0,0,0,0,-1,1224,1219,0,0
7,-195,0,0,0,0,0,0,0,0,0,-1,1231,1219,0,0
14,-195,0,0,0,0,0,0,0,0,0,-1,1238,1219,0,0
21,-195,0,0,0,0,0,0,0,0,0,-1,1245,1219,0,0
28,-195,0,0,0,0,0,0,0,0,0,-1,1252,1219,0,0
35,-195,0,0,0,0,0,0,0,0,0,-1,1259,1219,0,0
42,-195,0,0,0,0,0,0,0,0,0,-1,1266,1219,0,0
49,-195,0,0,0,0,0,0,0,0,0,-1,1273,1219,0,0
56,-195,0,0,0,0,0,0,0,0,0,-1,1280,1219,0,0
63,-195,0,0,0,0,0,0,0,0,0,-1,1287,1219,0,0
70,-195,0,0,0,0,0,0,0,0,0,-1,1294,1219,0,0
77,-195,0,0,0,0,0,0,0,0,0,-1,1301,1219,0,0
84,-195,0,0,0,0,0,0,0,0,0,-1,1308,1219,0,0
91,-195,0,0,0,0,0,0,0,0,0,-1,1315,1219,0,0
98,-195,0,0,0,0,0,0,0,0,0,-1,1322,1219,0,0
105,-195,0,0,0,0,0,0,0,0,0,-1,1329,1219,0,0
112,-195,0,0,0,0,0,0,0,0,0,-1,1336,1219,0,0
119,-195,0,0,0,0,0,0,0,0,0,-1,1343,1219,0,0
126,-195,0,0,0,0,0,0,0,0,0,-1,1350,1219,0,0
133,-195,0,0,0,0,0,0,0,0,0,-1,1357,1219,0,0
140,-195,0,0,0,0,0,0,0,0,0,-1,1364,1219,0,0
147,-195,0,0,0,0,0,0,0,0,0,-1,1371,1219,0,0
154,-195,0,0,0,0,0,0,0,0,0,-1,1378,1219,0,0
161,-195,0,0,0,0,0,0,0,0,0,-1,1385,1219,0,0
168,-195,0,0,0,0,0,0,0,0,0,-1,1392,1219,0,0
175,-195,0,0,0,0,0,0,0,0,0,-1,1399,1219,0,0
182,-195,0,0,0,0,0,0,0,0,0,-1,1406,1219,0,0
189,-195,0,0,0,0,0,0,0,0,0,-1,1413,1219,0,0
196,-195,0,0,0,0,0,0,0,0,0,-1,1420,1219,0,0
203,-195,0,0,0,0,0,0,0,0,0,-1,1427,1219,0,0
210,-195,0,0,0,0,0,0,0,0,0,-1,1434,1219,0,0
217,-195,0,0,0,0,0,0,0,0,0,-1,1441,1219,0,0
224,-195,0,0,0,0,0,0,0,0,0,-1,1448,1219,0,0
231,-195,0,0,0,0,0,0,0,0,0,-1,1455,1219,0,0
238,-195,0,0,0,0,0,0,0,0,0,-1,1462,1219,0,0
245,-195,0,0,0,0,0,0,0,0,0,-1,1469,1219,0,0
252,-195,0,0,0,0,0,0,0,0,0,-1,1476,1219,0,0
259,-195,0,0,0,0,0,0,0,0,0,-1,1483,1219,0,0
266,-195,0,0,0,0,0,0,0,0,0,-1,1490,1219,0,0
273,-195,0,0,0,0,0,0,0,0,0,-1,1497,1219,0,0
280,-195,0,0,0,0,0,0,0,0,0,-1,1504,1219,0,0
287,-195,0,0,0,0,0,0,0,0,0,-1,1511,1219,0,0
294,-195,0,0,0,0,0,0,0,0,0,-1,1518,1219,0,0
301,-195,0,0,0,0,0,0,0,0,0,-1,1525,1219,0,0
308,-195,0,0,0,0,0,0,0,0,0,-1,1532,1219,0,0
315,-195,0,0,0,0,0,0,0,0,0,-1,1539,1219,0,0
322,-195,0,0,0,0,0,0,0,0,0,-1,1546,1219,0,0
329,-195,0,0,0,0,0,0,0,0,0,-1,1553,1219,0,0
336,-195,0,0,0,0,0,0,0,0,0,-1,1560,1219,0,0
343,-195,0,0,0,0,0,0,0,0,0,-1,1567,1219,0,0
350,-195,0,0,0,0,0,0,0,0,0,-1,1574,1219,0,0
357,-195,0,0,0,0,0,0,0,0,0,-1,1581,1219,0,0
364,-195,0,0,0,0,0,0,0,0,0,-1,1588,1219,0,0
371,-195,0,0,0,0,0,0,0,0,0,-1,1595,1219,0,0
378,-195,0,0,0,0,0,0,0,0,0,-1,1602,1219,0,0
385,-195,0,0,0,0,0,0,0,0,0,-1,1609,1219,0,0
392,-195,0,0,0,0,0,0,0,0,0,-1,1616,1219,0,0
399,-195,0,0,0,0,0,0,0,0,0,-1,1623,1219,0,0
406,-195,0,0,0,0,0,0,0,0,0,-1,1630,1219,0,0
413,-195,0,0,0,0,0,0,0,0,0,-1,1637,1219,0,0
420,-195,0,0,0,0,0,0,0,0,0,-1,1644,1219,0,0
427,-195,0,0,0,0,0,0,0,0,0,-1,1651,1219,0,0
434,-195,0,0,0,0,0,0,0,0,0,-1,1658,1219,0,0
441,-195,0,0,0,0,0,0,0,0,0,-1,1665,1219,0,0
448,-195,0,0,0,0,0,0,0,0,0,-1,1672,1219,0,0
455,-195,0,0,0,0,0,0,0,0,0,-1,1679,1219,0,0
462,-195,0,0,0,0,0,0,0,0,0,-1,1686,1219,0,0
469,-195,0,0,0,0,0,0,0,0,0,-1,1693,1219,0,0
476,-195,0,0,0,0,0,0,0,0,0,-1,1700,1219,0,0
483,-195,0,0,0,0,0,0,0,0,0,-1,1707,1219,0,0
490,-195,0,0,0,0,0,0,0,0,0,-1,1714,1219,0,0
497,-195,0,0,0,0,0,0,0,0,0,-1,1721,1219,0,0
504,-195,0,0,0,0,0,0,0,0,0,-1,1728,1219,0,0
511,-195,0,0,0,0,0,0,0,0,0,-1,1735,1219,0,0
518,-195,0,0,0,0,0,0,0,0,0,-1,1742,1219,0,0
525,-195,0,0,0,0,0,0,0,0,0,-1,1749,1219,0,0
532,-195,0,0,0,0,0,0,0,0,0,-1,1756,1219,0,0
539,-195,0,0,0,0,0,0,0,0,0,-1,1763,1219,0,0
546,-195,0,0,0,0,0,0,0,0,0,-1,1770,1219,0,0
553,-195,0,0,0,0,0,0,0,0,0,-1,1777,1219,0,0
560,-195,0,0,0,0,0,0,0,0,0,-1,1784,1219,0,0
567,-195,0,0,0,0,0,0,0,0,0,-1,1791,1219,0,0
574,-195,0,0,0,0,0,0,0,0,0,-1,1798,1219,0,0
581,-195,0,0,0,0,0,0,0,0,0,-1,1805,1219,0,0
588,-195,0,0,0,0,0,0,0,0,0,-1,1812,1219,0,0
595,-195,0,0,0,0,0,0,0,0,0,-1,1819,1219,0,0
602,-195,0,0,0,0,0,0,0,0,0,-1,1826,1219,0,0
609,-195,0,0,0,0,0,0,0,0,0,-1,1833,1219,0,0
616,-195,0,0,0,0,0,0,0,0,0,-1,1840,1219,0,0
623,-195,0,0,0,0,0,0,0,0,0,-1,1847,1219,0,0
630,-195,78.7314,2.48511,0.00436604,-0.00181827,-0.000249438,0.00437608,-0.00182831,-0.0402469,0.00368141,0.0429888,1854,1219,78.7314,-2.48505
637,-195,78.8031,2.57837,0.00295574,-0.000997272,-0.000793905,0.00310922,-0.00115076,-0.190973,0.00254467,0.0405622,1861,1219,78.8031,-2.57833
644,-195,78.7058,2.52783,0.00199059,-5.46289e-05,-0.00140878,0.00270877,-0.000772818,-0.471455,0.00211114,0.0350807,1868,1219,78.7058,-2.52781
651,-195,78.657,2.44519,0.00140279,0.000805791,-0.00195916,0.00308607,-0.000877481,-0.709799,0.00240386,0.0269876,1875,1219,78.657,-2.44522
658,-195,78.6913,2.40015,0.000921963,0.00125073,-0.00195043,0.00304369,-0.000871002,-0.827439,0.00237335,0.0241603,1882,1219,78.6913,-2.40016
665,-195,78.7025,2.36743,0.000516776,0.00124495,-0.00159288,0.00251482,-0.000753098,-0.897754,0.00197601,0.0231178,1889,1219,78.7025,-2.3674
672,-195,78.7349,2.21594,0.000362338,0.00158849,-0.00127168,0.00238716,-0.000436332,-1.01001,0.00175506,0.0388727,1896,1219,78.7348,-2.21592
679,-195,78.7166,2.04163,0,0,0,0,0,0,0,-1,1903,1219,78.7166,-2.04164
686,-195,51.2117,1.94312,0,0,0,0,0,0,0,-1,1910,1219,51.2117,-1.9431
693,-195,24.4368,5.68298,0,0,0,0,0,0,0,-1,1917,1219,24.4368,-5.68293
700,-195,63.4592,13.551,0,0,0,0,0,0,0,-1,1924,1219,63.4592,-13.551
707,-195,63.4928,12.7859,0,0,0,0,0,0,0,-1,1931,1219,63.4928,-12.7859
714,-195,63.4927,12.2488,0,0,0,0,0,0,0,-1,1938,1219,63.4927,-12.2487
721,-195,63.1927,11.3936,0,0,0,0,0,0,0,-1,1945,1219,63.1928,-11.3936
728,-195,63.2543,10.49,0.000852835,0.00263501,0.000309022,0.00268708,0.000800773,1.40389,0.00159302,0.013819,1952,1219,63.2543,-10.49
735,-195,63.2347,9.63281,0.00106066,0.00258452,0.000752878,0.00289374,0.000751436,1.18109,0.00173384,0.0124708,1959,1219,63.2348,-9.63278
742,-195,63.1809,8.86926,0.00124705,0.00272655,0.00141756,0.00358578,0.000387824,1.02588,0.0022723,0.0157817,1966,1219,63.1809,-8.86923
749,-195,63.1238,8.1333,0.00150168,0.00340687,0.0023277,0.00496936,-6.08088e-05,0.979623,0.00333336,0.0152653,1973,1219,63.1238,-8.13335
756,-195,63.0892,7.40967,0.00210811,0.00489422,0.00350016,0.00726836,-0.000266021,0.974788,0.00493663,0.0155317,1980,1219,63.0892,-7.40963
763,-195,63.094,6.60632,0.00315631,0.00751613,0.00509919,0.0108818,-0.000209384,0.987392,0.00732535,0.02417,1987,1219,63.094,-6.60636
770,-195,63.1873,5.75537,0,0,0,0,0,0,0,-1,1994,1219,63.1873,-5.75541
777,-195,62.5642,5.0415,0,0,0,0,0,0,0,-1,2001,1219,62.5643,-5.04151
784,-195,69.7437,-3.15942,0,0,0,0,0,0,0,-1,2008,1219,69.7437,3.15944
791,-195,68.9104,-1.24268,0,0,0,0,0,0,0,-1,2015,1219,68.9103,1.24264
798,-195,66.05,2.49902,0,0,0,0,0,0,0,-1,2022,1219,66.0501,-2.499
805,-195,0,0,0,0,0,0,0,0,0,-1,2029,1219,0,0
812,-195,0,0,0,0,0,0,0,0,0,-1,2036,1219,0,0
-700,-202,0,0,0,0,0,0,0,0,0,-1,524,1226,0,0
-693,-202,0,0,0,0,0,0,0,0,0,-1,531,1226,0,0
-686,-202,0,0,0,0,0,0,0,0,0,-1,538,1226,0,0
-679,-202,-44.165,-2.40588,0,0,0,0,0,0,0,-1,545,1226,-44.1651,2.4059
-672,-202,-43.8438,-2.58093,0,0,0,0,0,0,0,-1,552,1226,-43.8437,2.58095
-665,-202,-47.0174,4.41162,0,0,0,0,0,0,0,-1,559,1226,-47.0174,-4.41162
-658,-202,-48.6339,4.83545,0,0,0,0,0,0,0,-1,566,1226,-48.6338,-4.83547
-651,-202,-46.3695,3.44409,0,0,0,0,0,0,0,-1,573,1226,-46.3695,-3.44415
-644,-202,-45.5078,4.21594,0,0,0,0,0,0,0,-1,580,1226,-45.5078,-4.21591
-637,-202,-46.0404,5.24536,0,0,0,0,0,0,0,-1,587,1226,-46.0404,-5.24533
-630,-202,-46.2012,5.98804,0.00629142,0.00306685,-0.0111357,0.0159309,-0.00657266,-0.713505,0.0133617,0.0254827,594,1226,-46.2013,-5.98801
-623,-202,-46.2224,6.79041,0.00376192,0.002176,-0.00762917,0.0106392,-0.00470131,-0.733615,0.00907533,0.00919167,601,1226,-46.2224,-6.79046
-616,-202,-46.2464,7.5946,0.00211225,0.0017605,-0.00543282,0.00737204,-0.00349929,-0.769218,0.00640794,0.00861782,608,1226,-46.2464,-7.5946
-609,-202,-46.2222,8.37231,0.00111923,0.00158382,-0.00425881,0.00561666,-0.00291362,-0.812644,0.0050067,0.0224321,615,1226,-46.2222,-8.37231
-602,-202,-46.3132,9.12891,0.000568528,0.00161241,-0.00384526,0.004971,-0.00279005,-0.852854,0.00453943,0.0232337,622,1226,-46.3132,-9.12893
-595,-202,-46.4126,9.93591,0,0,0,0,0,0,0,-1,629,1226,-46.4126,-9.93589
-588,-202,-46.6376,10.7813,-0.000251986,0.00147276,-0.00455632,0.0052476,-0.00402682,-0.878927,0.00537003,0.0270659,636,1226,-46.6376,-10.7813
-581,-202,-46.5178,11.4542,-0.00163439,0.000997707,-0.00400501,0.00389736,-0.00453404,-0.94414,0.00487249,0.0382437,643,1226,-46.5178,-11.4543
-574,-202,-46.6141,12.4056,0,0,0,0,0,0,0,-1,650,1226,-46.6141,-12.4056
-567,-202,-22.1768,4.56995,0,0,0,0,0,0,0,-1,657,1226,-22.1768,-4.56991
-560,-202,-10.929,2.73096,0,0,0,0,0,0,0,-1,664,1226,-10.929,-2.73092
-553,-202,-30.2701,1.474,0,0,0,0,0,0,0,-1,671,1226,-30.2701,-1.47395
-546,-202,-53.2803,0.580933,0,0,0,0,0,0,0,-1,678,1226,-53.2803,-0.580945
-539,-202,-61.9609,0.577881,0,0,0,0,0,0,0,-1,685,1226,-61.9609,-0.577884
-532,-202,-62.0945,0.556519,-0.00250379,-0.000785942,0.000853893,-0.000433716,-0.00285602,1.17957,0.00177717,0.03035,692,1226,-62.0946,-0.556545
-525,-202,-62.3077,0.825073,-0.00150424,-0.000717135,0.00179382,0.000725799,-0.00294718,0.893384,0.00224615,0.0345438,699,1226,-62.3077,-0.825037
-518,-202,-62.4355,1.11646,0.00401314,-0.000637769,0.00194561,0.00471971,-0.00134433,0.348349,0.00367742,0.0410469,706,1226,-62.4355,-1.11641
-511,-202,-61.9943,1.06738,0.0143328,-0.00262633,0.00234741,0.0146518,-0.00294525,0.135034,0.0108833,0.044673,713,1226,-61.9943,-1.06735
-504,-202,0,0,0,0,0,0,0,0,0,-1,720,1226,0,0
-497,-202,0,0,0,0,0,0,0,0,0,-1,727,1226,0,0
-490,-202,0,0,0,0,0,0,0,0,0,-1,734,1226,0,0
-483,-202,0,0,0,0,0,0,0,0,0,-1,741,1226,0,0
-476,-202,0,0,0,0,0,0,0,0,0,-1,748,1226,0,0
-469,-202,0,0,0,0,0,0,0,0,0,-1,755,1226,0,0
-462,-202,0,0,0,0,0,0,0,0,0,-1,762,1226,0,0
-455,-202,0,0,0,0,0,0,0,0,0,-1,769,1226,0,0
-448,-202,0,0,0,0,0,0,0,0,0,-1,776,1226,0,0
-441,-202,0,0,0,0,0,0,0,0,0,-1,783,1226,0,0
-434,-202,0,0,0,0,0,0,0,0,0,-1,790,1226,0,0
-427,-202,0,0,0,0,0,0,0,0,0,-1,797,1226,0,0
-420,-202,0,0,0,0,0,0,0,0,0,-1,804,1226,0,0
-413,-202,0,0,0,0,0,0,0,0,0,-1,811,1226,0,0
-406,-202,0,0,0,0,0,0,0,0,0,-1,818,1226,0,0
-399,-202,0,0,0,0,0,0,0,0,0,-1,825,1226,0,0
-392,-202,0,0,0,0,0,0,0,0,0,-1,832,1226,0,0
-385,-202,0,0,0,0,0,0,0,0,0,-1,839,1226,0,0
-378,-202,0,0,0,0,0,0,0,0,0,-1,846,1226,0,0
-371,-202,0,0,0,0,0,0,0,0,0,-1,853,1226,0,0
-364,-202,0,0,0,0,0,0,0,0,0,-1,860,1226,0,0
-357,-202,0,0,0,0,0,0,0,0,0,-1,867,1226,0,0
-350,-202,0,0,0,0,0,0,0,0,0,-1,874,1226,0,0
-343,-202,0,0,0,0,0,0,0,0,0,-1,881,1226,0,0
-336,-202,0,0,0,0,0,0,0,0,0,-1,888,1226,0,0
-329,-202,0,0,0,0,0,0,0,0,0,-1,895,1226,0,0
-322,-202,0,0,0,0,0,0,0,0,0,-1,902,1226,0,0
-315,-202,0,0,0,0,0,0,0,0,0,-1,909,1226,0,0
-308,-202,0,0,0,0,0,0,0,0,0,-1,916,1226,0,0
-301,-202,0,0,0,0,0,0,0,0,0,-1,923,1226,0,0
-294,-202,0,0,0,0,0,0,0,0,0,-1,930,1226,0,0
-287,-202,0,0,0,0,0,0,0,0,0,-1,937,1226,0,0
-280,-202,0,0,0,0,0,0,0,0,0,-1,944,1226,0,0
-273,-202,0,0,0,0,0,0,0,0,0,-1,951,1226,0,0
-266,-202,0,0,0,0,0,0,0,0,0,-1,958,1226,0,0
-259,-202,0,0,0,0,0,0,0,0,0,-1,965,1226,0,0
-252,-202,0,0,0,0,0,0,0,0,0,-1,972,1226,0,0
-245,-202,0,0,0,0,0,0,0,0,0,-1,979,1226,0,0
-238,-202,0,0,0,0,0,0,0,0,0,-1,986,1226,0,0
-231,-202,0,0,0,0,0,0,0,0,0,-1,993,1226,0,0
-224,-202,0,0,0,0,0,0,0,0,0,-1,1000,1226,0,0
-217,-202,0,0,0,0,0,0,0,0,0,-1,1007,1226,0,0
-210,-202,0,0,0,0,0,0,0,0,0,-1,1014,1226,0,0
-203,-202,0,0,0,0,0,0,0,0,0,-1,1021,1226,0,0
-196,-202,0,0,0,0,0,0,0,0,0,-1,1028,1226,0,0
-189,-202,0,0,0,0,0,0,0,0,0,-1,1035,1226,0,0
-182,-202,0,0,0,0,0,0,0,0,0,-1,1042,1226,0,0
-175,-202,0,0,0,0,0,0,0,0,0,-1,1049,1226,0,0
-168,-202,0,0,0,0,0,0,0,0,0,-1,1056,1226,0,0
-161,-202,0,0,0,0,0,0,0,0,0,-1,1063,1226,0,0
-154,-202,0,0,0,0,0,0,0,0,0,-1,1070,1226,0,0
-147,-202,0,0,0,0,0,0,0,0,0,-1,1077,1226,0,0
-140,-202,0,0,0,0,0,0,0,0,0,-1,1084,1226,0,0
-133,-202,0,0,0,0,0,0,0,0,0,-1,1091,1226,0,0
-126,-202,0,0,0,0,0,0,0,0,0,-1,1098,1226,0,0
-119,-202,0,0,0,0,0,0,0,0,0,-1,1105,1226,0,0
-112,-202,0,0,0,0,0,0,0,0,0,-1,1112,1226,0,0
-105,-202,0,0,0,0,0,0,0,0,0,-1,1119,1226,0,0
-98,-202,0,0,0,0,0,0,0,0,0,-1,1126,1226,0,0
-91,-202,0,0,0,0,0,0,0,0,0,-1,1133,1226,0,0
-84,-202,0,0,0,0,0,0,0,0,0,-1,1140,1226,0,0
-77,-202,0,0,0,0,0,0,0,0,0,-1,1147,1226,0,0
-70,-202,0,0,0,0,0,0,0,0,0,-1,1154,1226,0,0
-63,-202,0,0,0,0,0,0,0,0,0,-1,1161,1226,0,0
-56,-202,0,0,0,0,0,0,0,0,0,-1,1168,1226,0,0
-49,-202,0,0,0,0,0,0,0,0,0,-1,1175,1226,0,0
-42,-202,0,0,0,0,0,0,0,0,0,-1,1182,1226,0,0
-35,-202,0,0,0,0,0,0,0,0,0,-1,1189,1226,0,0
-28,-202,0,0,0,0,0,0,0,0,0,-1,1196,1226,0,0
-21,-202,0,0,0,0,0,0,0,0,0,-1,1203,1226,0,0
-14,-202,0,0,0,0,0,0,0,0,0,-1,1210,1226,0,0
-7,-202,0,0,0,0,0,0,0,0,0,-1,1217,1226,0,0
0,-202,0,0,0,0,0,0,0,0,0,-1,1224,1226,0,0
7,-202,0,0,0,0,0,0,0,0,0,-1,1231,1226,0,0
14,-202,0,0,0,0,0,0,0,0,0,-1,1238,1226,0,0
21,-202,0,0,0,0,0,0,0,0,0,-1,1245,1226,0,0
28,-202,0,0,0,0,0,0,0,0,0,-1,1252,1226,0,0
35,-202,0,0,0,0,0,0,0,0,0,-1,1259,1226,0,0
42,-202,0,0,0,0,0,0,0,0,0,-1,1266,1226,0,0
49,-202,0,0,0,0,0,0,0,0,0,-1,1273,1226,0,0
56,-202,0,0,0,0,0,0,0,0,0,-1,1280,1226,0,0
63,-202,0,0,0,0,0,0,0,0,0,-1,1287,1226,0,0
70,-202,0,0,0,0,0,0,0,0,0,-1,1294,1226,0,0
77,-202,0,0,0,0,0,0,0,0,0,-1,1301,1226,0,0
84,-202,0,0,0,0,0,0,0,0,0,-1,1308,1226,0,0
91,-202,0,0,0,0,0,0,0,0,0,-1,1315,1226,0,0
98,-202,0,0,0,0,0,0,0,0,0,-1,1322,1226,0,0
105,-202,0,0,0,0,0,0,0,0,0,-1,1329,1226,0,0
112,-202,0,0,0,0,0,0,0,0,0,-1,1336,1226,0,0
119,-202,0,0,0,0,0,0,0,0,0,-1,1343,1226,0,0
126,-202,0,0,0,0,0,0,0,0,0,-1,1350,1226,0,0
133,-202,0,0,0,0,0,0,0,0,0,-1,1357,1226,0,0
140,-202,0,0,0,0,0,0,0,0,0,-1,1364,1226,0,0
147,-202,0,0,0,0,0,0,0,0,0,-1,1371,1226,0,0
154,-202,0,0,0,0,0,0,0,0,0,-1,1378,1226,0,0
161,-202,0,0,0,0,0,0,0,0,0,-1,1385,1226,0,0
168,-202,0,0,0,0,0,0,0,0,0,-1,1392,1226,0,0
175,-202,0,0,0,0,0,0,0,0,0,-1,1399,1226,0,0
182,-202,0,0,0,0,0,0,0,0,0,-1,1406,1226,0,0
189,-202,0,0,0,0,0,0,0,0,0,-1,1413,1226,0,0
196,-202,0,0,0,0,0,0,0,0,0,-1,1420,1226,0,0
203,-202,0,0,0,0,0,0,0,0,0,-1,1427,1226,0,0
210,-202,0,0,0,0,0,0,0,0,0,-1,1434,1226,0,0
217,-202,0,0,0,0,0,0,0,0,0,-1,1441,1226,0,0
224,-202,0,0,0,0,0,0,0,0,0,-1,1448,1226,0,0
231,-202,0,0,0,0,0,0,0,0,0,-1,1455,1226,0,0
238,-202,0,0,0,0,0,0,0,0,0,-1,1462,1226,0,0
245,-202,0,0,0,0,0,0,0,0,0,-1,1469,1226,0,0
252,-202,0,0,0,0,0,0,0,0,0,-1,1476,1226,0,0
259,-202,0,0,0,0,0,0,0,0,0,-1,1483,1226,0,0
266,-202,0,0,0,0,0,0,0,0,0,-1,1490,1226,0,0
273,-202,0,0,0,0,0,0,0,0,0,-1,1497,1226,0,0
280,-202,0,0,0,0,0,0,0,0,0,-1,1504,1226,0,0
287,-202,0,0,0,0,0,0,0,0,0,-1,1511,1226,0,0
294,-202,0,0,0,0,0,0,0,0,0,-1,1518,1226,0,0
301,-202,0,0,0,0,0,0,0,0,0,-1,1525,1226,0,0
308,-202,0,0,0,0,0,0,0,0,0,-1,1532,1226,0,0
315,-202,0,0,0,0,0,0,0,0,0,-1,1539,1226,0,0
322,-202,0,0,0,0,0,0,0,0,0,-1,1546,1226,0,0
329,-202,0,0,0,0,0,0,0,0,0,-1,1553,1226,0,0
336,-202,0,0,0,0,0,0,0,0,0,-1,1560,1226,0,0
343,-202,0,0,0,0,0,0,0,0,0,-1,1567,1226,0,0
350,-202,0,0,0,0,0,0,0,0,0,-1,1574,1226,0,0
357,-202,0,0,0,0,0,0,0,0,0,-1,1581,1226,0,0
364,-202,0,0,0,0,0,0,0,0,0,-1,1588,1226,0,0
371,-202,0,0,0,0,0,0,0,0,0,-1,1595,1226,0,0
378,-202,0,0,0,0,0,0,0,0,0,-1,1602,1226,0,0
385,-202,0,0,0,0,0,0,0,0,0,-1,1609,1226,0,0
392,-202,0,0,0,0,0,0,0,0,0,-1,1616,1226,0,0
399,-202,0,0,0,0,0,0,0,0,0,-1,1623,1226,0,0
406,-202,0,0,0,0,0,0,0,0,0,-1,1630,1226,0,0
413,-202,0,0,0,0,0,0,0,0,0,-1,1637,1226,0,0
420,-202,0,0,0,0,0,0,0,0,0,-1,1644,1226,0,0
427,-202,0,0,0,0,0,0,0,0,0,-1,1651,1226,0,0
434,-202,0,0,0,0,0,0,0,0,0,-1,1658,1226,0,0
441,-202,0,0,0,0,0,0,0,0,0,-1,1665,1226,0,0
448,-202,0,0,0,0,0,0,0,0,0,-1,1672,1226,0,0
455,-202,0,0,0,0,0,0,0,0,0,-1,1679,1226,0,0
462,-202,0,0,0,0,0,0,0,0,0,-1,1686,1226,0,0
469,-202,0,0,0,0,0,0,0,0,0,-1,1693,1226,0,0
476,-202,0,0,0,0,0,0,0,0,0,-1,1700,1226,0,0
483,-202,0,0,0,0,0,0,0,0,0,-1,1707,1226,0,0
490,-202,0,0,0,0,0,0,0,0,0,-1,1714,1226,0,0
497,-202,0,0,0,0,0,0,0,0,0,-1,1721,1226,0,0
504,-202,0,0,0,0,0,0,0,0,0,-1,1728,1226,0,0
511,-202,0,0,0,0,0,0,0,0,0,-1,1735,1226,0,0
518,-202,0,0,0,0,0,0,0,0,0,-1,1742,1226,0,0
525,-202,0,0,0,0,0,0,0,0,0,-1,1749,1226,0,0
532,-202,0,0,0,0,0,0,0,0,0,-1,1756,1226,0,0
539,-202,0,0,0,0,0,0,0,0,0,-1,1763,1226,0,0
546,-202,0,0,0,0,0,0,0,0,0,-1,1770,1226,0,0
553,-202,0,0,0,0,0,0,0,0,0,-1,1777,1226,0,0
560,-202,0,0,0,0,0,0,0,0,0,-1,1784,1226,0,0
567,-202,0,0,0,0,0,0,0,0,0,-1,1791,1226,0,0
574,-202,0,0,0,0,0,0,0,0,0,-1,1798,1226,0,0
581,-202,0,0,0,0,0,0,0,0,0,-1,1805,1226,0,0
588,-202,0,0,0,0,0,0,0,0,0,-1,1812,1226,0,0
595,-202,0,0,0,0,0,0,0,0,0,-1,1819,1226,0,0
602,-202,0,0,0,0,0,0,0,0,0,-1,1826,1226,0,0
609,-202,0,0,0,0,0,0,0,0,0,-1,1833,1226,0,0
616,-202,0,0,0,0,0,0,0,0,0,-1,1840,1226,0,0
623,-202,0,0,0,0,0,0,0,0,0,-1,1847,1226,0,0
630,-202,78.6284,2.45813,0.00383142,-0.000161791,-0.000672009,0.00394148,-0.000271849,-0.162333,0.0027228,0.0389451,1854,1226,78.6284,-2.45819
637,-202,78.7582,2.54565,0.00237356,0.000174389,-0.000996304,0.00275779,-0.000209841,-0.36808,0.00191231,0.0359756,1861,1226,78.7582,-2.54561
644,-202,78.7446,2.49353,0.00142278,0.0005556,-0.00139841,0.00245328,-0.000474897,-0.635068,0.00181465,0.0325694,1868,1226,78.7447,-2.49356
651,-202,78.7478,2.4209,0.000922937,0.000794618,-0.00169675,0.00255674,-0.000839185,-0.7665,0.00204252,0.0273506,1875,1226,78.7478,-2.42092
658,-202,78.7313,2.37561,0.000567589,0.000773958,-0.00145394,0.00212837,-0.000786827,-0.820823,0.00174148,0.0235613,1882,1226,78.7313,-2.37558
665,-202,78.7902,2.36426,0.000279773,0.000625316,-0.00106526,0.00153172,-0.00062663,-0.865792,0.00128213,0.0219913,1889,1226,78.7902,-2.36421
672,-202,78.8885,2.31506,0,0,0,0,0,0,0,-1,1896,1226,78.8885,-2.31505
679,-202,72.3511,2.32935,0,0,0,0,0,0,0,-1,1903,1226,72.3511,-2.32932
686,-202,49.1708,2.15198,0,0,0,0,0,0,0,-1,1910,1226,49.1708,-2.15195
693,-202,52.1176,12.0886,0,0,0,0,0,0,0,-1,1917,1226,52.1176,-12.0886
700,-202,62.7391,13.5986,0,0,0,0,0,0,0,-1,1924,1226,62.7391,-13.5986
707,-202,62.658,12.7159,1.55272e-05,0.00143479,-7.38144e-05,0.00143862,1.16985e-05,-1.51897,0.000955206,0.0343072,1931,1226,62.658,-12.716
714,-202,62.5189,12.0333,-7.45415e-07,0.00180756,0.000124558,0.0018161,-9.28476e-06,1.50235,0.00121384,0.041531,1938,1226,62.519,-12.0333
721,-202,62.5056,11.4564,4.59338e-05,0.00232205,0.000358827,0.00237728,-9.29483e-06,1.41808,0.00158796,0.0316243,1945,1226,62.5056,-11.4565
728,-202,62.509,10.4948,0.000332551,0.00204305,0.000657,0.00226628,0.00010933,1.24327,0.00147576,0.0123102,1952,1226,62.509,-10.4948
735,-202,62.4574,9.70752,0.000406002,0.00202313,0.00104959,0.00253949,-0.000110351,1.1136,0.00173095,0.0113711,1959,1226,62.4573,-9.70751
742,-202,62.4072,8.93115,0.000416286,0.00216431,0.00168425,0.00318782,-0.000607224,1.02474,0.00235388,0.0135528,1966,1226,62.4073,-8.93115
749,-202,62.3293,8.16724,0.000444048,0.00262795,0.00257245,0.00433061,-0.00125861,0.986113,0.00338551,0.0140959,1973,1226,62.3293,-8.1672
756,-202,62.3156,7.43335,0.000739441,0.00370162,0.00372361,0.00622788,-0.00178682,0.974684,0.00485832,0.0136015,1980,1226,62.3156,-7.4334
763,-202,62.3962,6.70825,0.00137851,0.00572332,0.00536971,0.00934342,-0.00224159,0.977617,0.00709518,0.0281807,1987,1226,62.3962,-6.70827
770,-202,62.4446,6.04797,0,0,0,0,0,0,0,-1,1994,1226,62.4445,-6.04797
777,-202,67.5615,-0.236572,0,0,0,0,0,0,0,-1,2001,1226,67.5615,0.236573
784,-202,66.7117,0.754517,0,0,0,0,0,0,0,-1,2008,1226,66.7118,-0.754543
791,-202,66.512,1.74207,0,0,0,0,0,0,0,-1,2015,1226,66.512,-1.74201
798,-202,51.8999,3.58789,0,0,0,0,0,0,0,-1,2022,1226,51.9,-3.58791
805,-202,0,0,0,0,0,0,0,0,0,-1,2029,1226,0,0
812,-202,0,0,0,0,0,0,0,0,0,-1,2036,1226,0,0
-700,-209,0,0,0,0,0,0,0,0,0,-1,524,1233,0,0
-693,-209,0,0,0,0,0,0,0,0,0,-1,531,1233,0,0
-686,-209,0,0,0,0,0,0,0,0,0,-1,538,1233,0,0
-679,-209,-43.5651,-1.98669,0,0,0,0,0,0,0,-1,545,1233,-43.5651,1.98668
-672,-209,-45.7134,3.70813,0,0,0,0,0,0,0,-1,552,1233,-45.7134,-3.70808
-665,-209,-47.3203,4.17615,0,0,0,0,0,0,0,-1,559,1233,-47.3203,-4.17618
-658,-209,-48.9473,4.63306,0,0,0,0,0,0,0,-1,566,1233,-48.9473,-4.63302
-651,-209,-40.8797,2.51941,0,0,0,0,0,0,0,-1,573,1233,-40.8797,-2.51942
-644,-209,-43.4648,-7.04663,0,0,0,0,0,0,0,-1,580,1233,-43.4648,7.04659
-637,-209,-45.2578,5.26672,0,0,0,0,0,0,0,-1,587,1233,-45.2578,-5.26673
-630,-209,-45.2463,6.00891,0.00616471,0.00280287,-0.0105037,0.0151211,-0.00615353,-0.706055,0.0126414,0.0426121,594,1233,-45.2464,-6.00897
-623,-209,-45.3624,6.82422,0.00381299,0.00199796,-0.00718665,0.0101492,-0.00433825,-0.722592,0.00858568,0.0178583,601,1233,-45.3624,-6.82423
-616,-209,-45.4264,7.64758,0.00229713,0.00166158,-0.00512145,0.00711066,-0.00315195,-0.754414,0.00607028,0.0125212,608,1233,-45.4264,-7.64762
-609,-209,-45.4648,8.43616,0.00137517,0.00154091,-0.00399428,0.00545318,-0.0025371,-0.795771,0.00471448,0.015303,615,1233,-45.4648,-8.4361
-602,-209,-45.5494,9.20837,0.000789411,0.0015433,-0.00344185,0.00462878,-0.00229607,-0.83994,0.00407298,0.0171786,622,1233,-45.5494,-9.20832
-595,-209,-45.6252,10.0609,0.000576692,0.00156157,-0.00359175,0.00469448,-0.00255622,-0.853525,0.00424644,0.0252687,629,1233,-45.6252,-10.0609
-588,-209,-45.7598,10.8411,5.4014e-05,0.00124965,-0.0039019,0.00459926,-0.0032956,-0.861413,0.00457877,0.0484412,636,1233,-45.7598,-10.8411
-581,-209,-45.5157,11.6261,-0.00146352,0.000709937,-0.0033572,0.00315191,-0.00390549,-0.941926,0.00408233,0.0467653,643,1233,-45.5157,-11.6261
-574,-209,-45.606,12.4456,-0.00286067,0.000148881,-0.00235215,0.00143641,-0.0041482,-1.06996,0.00334859,0.0445757,650,1233,-45.606,-12.4455
-567,-209,-45.5651,13.269,0,0,0,0,0,0,0,-1,657,1233,-45.5651,-13.269
-560,-209,-13.9294,4.16626,0,0,0,0,0,0,0,-1,664,1233,-13.9294,-4.16621
-553,-209,-22.7542,0.748779,0,0,0,0,0,0,0,-1,671,1233,-22.7541,-0.748796
-546,-209,-44.691,0.142822,0,0,0,0,0,0,0,-1,678,1233,-44.6911,-0.142844
-539,-209,-61.7058,0.405273,0,0,0,0,0,0,0,-1,685,1233,-61.7058,-0.405279
-532,-209,-61.9014,0.534424,-0.00270141,0.000183237,0.00123684,0.000640932,-0.0031591,1.21637,0.00234904,0.0387791,692,1233,-61.9014,-0.534459
-525,-209,-62.1843,0.792358,-0.00231283,0.000668653,0.00187314,0.00157186,-0.00321603,1.1215,0.0028181,0.0342072,699,1233,-62.1843,-0.792314
-518,-209,-62.2916,0.877686,0.0013961,0.00196719,0.00164157,0.00334787,1.54246e-05,0.871508,0.00222679,0.0435986,706,1233,-62.2916,-0.877685
-511,-209,-62.102,0.914917,0.00991954,0.00135521,0.00157719,0.0102008,0.00107399,0.176448,0.00647228,0.045367,713,1233,-62.102,-0.91493
-504,-209,0,0,0,0,0,0,0,0,0,-1,720,1233,0,0
-497,-209,0,0,0,0,0,0,0,0,0,-1,727,1233,0,0
-490,-209,0,0,0,0,0,0,0,0,0,-1,734,1233,0,0
-483,-209,0,0,0,0,0,0,0,0,0,-1,741,1233,0,0
-476,-209,0,0,0,0,0,0,0,0,0,-1,748,1233,0,0
-469,-209,0,0,0,0,0,0,0,0,0,-1,755,1233,0,0
-462,-209,0,0,0,0,0,0,0,0,0,-1,762,1233,0,0
-455,-209,0,0,0,0,0,0,0,0,0,-1,769,1233,0,0
-448,-209,0,0,0,0,0,0,0,0,0,-1,776,1233,0,0
-441,-209,0,0,0,0,0,0,0,0,0,-1,783,1233,0,0
-434,-209,0,0,0,0,0,0,0,0,0,-1,790,1233,0,0
-427,-209,0,0,0,0,0,0,0,0,0,-1,797,1233,0,0
-420,-209,0,0,0,0,0,0,0,0,0,-1,804,1233,0,0
-413,-209,0,0,0,0,0,0,0,0,0,-1,811,1233,0,0
-406,-209,0,0,0,0,0,0,0,0,0,-1,818,1233,0,0
-399,-209,0,0,0,0,0,0,0,0,0,-1,825,1233,0,0
-392,-209,0,0,0,0,0,0,0,0,0,-1,832,1233,0,0
-385,-209,0,0,0,0,0,0,0,0,0,-1,839,1233,0,0
-378,-209,0,0,0,0,0,0,0,0,0,-1,846,1233,0,0
-371,-209,0,0,0,0,0,0,0,0,0,-1,853,1233,0,0
-364,-209,0,0,0,0,0,0,0,0,0,-1,860,1233,0,0
-357,-209,0,0,0,0,0,0,0,0,0,-1,867,1233,0,0
-350,-209,0,0,0,0,0,0,0,0,0,-1,874,1233,0,0
-343,-209,0,0,0,0,0,0,0,0,0,-1,881,1233,0,0
-336,-209,0,0,0,0,0,0,0,0,0,-1,888,1233,0,0
-329,-209,0,0,0,0,0,0,0,0,0,-1,895,1233,0,0
-322,-209,0,0,0,0,0,0,0,0,0,-1,902,1233,0,0
-315,-209,0,0,0,0,0,0,0,0,0,-1,909,1233,0,0
-308,-209,0,0,0,0,0,0,0,0,0,-1,916,1233,0,0
-301,-209,0,0,0,0,0,0,0,0,0,-1,923,1233,0,0
-294,-209,0,0,0,0,0,0,0,0,0,-1,930,1233,0,0
-287,-209,0,0,0,0,0,0,0,0,0,-1,937,1233,0,0
-280,-209,0,0,0,0,0,0,0,0,0,-1,944,1233,0,0
-273,-209,0,0,0,0,0,0,0,0,0,-1,951,1233,0,0
-266,-209,0,0,0,0,0,0,0,0,0,-1,958,1233,0,0
-259,-209,0,0,0,0,0,0,0,0,0,-1,965,1233,0,0
-252,-209,0,0,0,0,0,0,0,0,0,-1,972,1233,0,0
-245,-209,0,0,0,0,0,0,0,0,0,-1,979,1233,0,0
-238,-209,0,0,0,0,0,0,0,0,0,-1,986,1233,0,0
-231,-209,0,0,0,0,0,0,0,0,0,-1,993,1233,0,0
-224,-209,0,0,0,0,0,0,0,0,0,-1,1000,1233,0,0
-217,-209,0,0,0,0,0,0,0,0,0,-1,1007,1233,0,0
-210,-209,0,0,0,0,0,0,0,0,0,-1,1014,1233,0,0
-203,-209,0,0,0,0,0,0,0,0,0,-1,1021,1233,0,0
-196,-209,0,0,0,0,0,0,0,0,0,-1,1028,1233,0,0
-189,-209,0,0,0,0,0,0,0,0,0,-1,1035,1233,0,0
-182,-209,0,0,0,0,0,0,0,0,0,-1,1042,1233,0,0
-175,-209,0,0,0,0,0,0,0,0,0,-1,1049,1233,0,0
-168,-209,0,0,0,0,0,0,0,0,0,-1,1056,1233,0,0
-161,-209,0,0,0,0,0,0,0,0,0,-1,1063,1233,0,0
-154,-209,0,0,0,0,0,0,0,0,0,-1,1070,1233,0,0
-147,-209,0,0,0,0,0,0,0,0,0,-1,1077,1233,0,0
-140,-209,0,0,0,0,0,0,0,0,0,-1,1084,1233,0,0
-133,-209,0,0,0,0,0,0,0,0,0,-1,1091,1233,0,0
-126,-209,0,0,0,0,0,0,0,0,0,-1,1098,1233,0,0
-119,-209,0,0,0,0,0,0,0,0,0,-1,1105,1233,0,0
-112,-209,0,0,0,0,0,0,0,0,0,-1,1112,1233,0,0
-105,-209,0,0,0,0,0,0,0,0,0,-1,1119,1233,0,0
-98,-209,0,0,0,0,0,0,0,0,0,-1,1126,1233,0,0
-91,-209,0,0,0,0,0,0,0,0,0,-1,1133,1233,0,0
-84,-209,0,0,0,0,0,0,0,0,0,-1,1140,1233,0,0
-77,-209,0,0,0,0,0,0,0,0,0,-1,1147,1233,0,0
-70,-209,0,0,0,0,0,0,0,0,0,-1,1154,1233,0,0
-63,-209,0,0,0,0,0,0,0,0,0,-1,1161,1233,0,0
-56,-209,0,0,0,0,0,0,0,0,0,-1,1168,1233,0,0
-49,-209,0,0,0,0,0,0,0,0,0,-1,1175,1233,0,0
-42,-209,0,0,0,0,0,0,0,0,0,-1,1182,1233,0,0
-35,-209,0,0,0,0,0,0,0,0,0,-1,1189,1233,0,0
-28,-209,0,0,0,0,0,0,0,0,0,-1,1196,1233,0,0
-21,-209,0,0,0,0,0,0,0,0,0,-1,1203,1233,0,0
-14,-209,0,0,0,0,0,0,0,0,0,-1,1210,1233,0,0
-7,-209,0,0,0,0,0,0,0,0,0,-1,1217,1233,0,0
0,-209,0,0,0,0,0,0,0,0,0,-1,1224,1233,0,0
7,-209,0,0,0,0,0,0,0,0,0,-1,1231,1233,0,0
14,-209,0,0,0,0,0,0,0,0,0,-1,1238,1233,0,0
21,-209,0,0,0,0,0,0,0,0,0,-1,1245,1233,0,0
28,-209,0,0,0,0,0,0,0,0,0,-1,1252,1233,0,0
35,-209,0,0,0,0,0,0,0,0,0,-1,1259,1233,0,0
42,-209,0,0,0,0,0,0,0,0,0,-1,1266,1233,0,0
49,-209,0,0,0,0,0,0,0,0,0,-1,1273,1233,0,0
56,-209,0,0,0,0,0,0,0,0,0,-1,1280,1233,0,0
63,-209,0,0,0,0,0,0,0,0,0,-1,1287,1233,0,0
70,-209,0,0,0,0,0,0,0,0,0,-1,1294,1233,0,0
77,-209,0,0,0,0,0,0,0,0,0,-1,1301,1233,0,0
84,-209,0,0,0,0,0,0,0,0,0,-1,1308,1233,0,0
91,-209,0,0,0,0,0,0,0,0,0,-1,1315,1233,0,0
98,-209,0,0,0,0,0,0,0,0,0,-1,1322,1233,0,0
105,-209,0,0,0,0,0,0,0,0,0,-1,1329,1233,0,0
112,-209,0,0,0,0,0,0,0,0,0,-1,1336,1233,0,0
119,-209,0,0,0,0,0,0,0,0,0,-1,1343,1233,0,0
126,-209,0,0,0,0,0,0,0,0,0,-1,1350,1233,0,0
133,-209,0,0,0,0,0,0,0,0,0,-1,1357,1233,0,0
140,-209,0,0,0,0,0,0,0,0,0,-1,1364,1233,0,0
147,-209,0,0,0,0,0,0,0,0,0,-1,1371,1233,0,0
154,-209,0,0,0,0,0,0,0,0,0,-1,1378,1233,0,0
161,-209,0,0,0,0,0,0,0,0,0,-1,1385,1233,0,0
168,-209,0,0,0,0,0,0,0,0,0,-1,1392,1233,0,0
175,-209,0,0,0,0,0,0,0,0,0,-1,1399,1233,0,0
182,-209,0,0,0,0,0,0,0,0,0,-1,1406,1233,0,0
189,-209,0,0,0,0,0,0,0,0,0,-1,1413,1233,0,0
196,-209,0,0,0,0,0,0,0,0,0,-1,1420,1233,0,0
203,-209,0,0,0,0,0,0,0,0,0,-1,1427,1233,0,0
210,-209,0,0,0,0,0,0,0,0,0,-1,1434,1233,0,0
217,-209,0,0,0,0,0,0,0,0,0,-1,1441,1233,0,0
224,-209,0,0,0,0,0,0,0,0,0,-1,1448,1233,0,0
231,-209,0,0,0,0,0,0,0,0,0,-1,1455,1233,0,0
238,-209,0,0,0,0,0,0,0,0,0,-1,1462,1233,0,0
245,-209,0,0,0,0,0,0,0,0,0,-1,1469,1233,0,0
252,-209,0,0,0,0,0,0,0,0,0,-1,1476,1233,0,0
259,-209,0,0,0,0,0,0,0,0,0,-1,1483,1233,0,0
266,-209,0,0,0,0,0,0,0,0,0,-1,1490,1233,0,0
273,-209,0,0,0,0,0,0,0,0,0,-1,1497,1233,0,0
280,-209,0,0,0,0,0,0,0,0,0,-1,1504,1233,0,0
287,-209,0,0,0,0,0,0,0,0,0,-1,1511,1233,0,0
294,-209,0,0,0,0,0,0,0,0,0,-1,1518,1233,0,0
301,-209,0,0,0,0,0,0,0,0,0,-1,1525,1233,0,0
308,-209,0,0,0,0,0,0,0,0,0,-1,1532,1233,0,0
315,-209,0,0,0,0,0,0,0,0,0,-1,1539,1233,0,0
322,-209,0,0,0,0,0,0,0,0,0,-1,1546,1233,0,0
329,-209,0,0,0,0,0,0,0,0,0,-1,1553,1233,0,0
336,-209,0,0,0,0,0,0,0,0,0,-1,1560,1233,0,0
343,-209,0,0,0,0,0,0,0,0,0,-1,1567,1233,0,0
350,-209,0,0,0,0,0,0,0,0,0,-1,1574,1233,0,0
357,-209,0,0,0,0,0,0,0,0,0,-1,1581,1233,0,0
364,-209,0,0,0,0,0,0,0,0,0,-1,1588,1233,0,0
371,-209,0,0,0,0,0,0,0,0,0,-1,1595,1233,0,0
378,-209,0,0,0,0,0,0,0,0,0,-1,1602,1233,0,0
385,-209,0,0,0,0,0,0,0,0,0,-1,1609,1233,0,0
392,-209,0,0,0,0,0,0,0,0,0,-1,1616,1233,0,0
399,-209,0,0,0,0,0,0,0,0,0,-1,1623,1233,0,0
406,-209,0,0,0,0,0,0,0,0,0,-1,1630,1233,0,0
413,-209,0,0,0,0,0,0,0,0,0,-1,1637,1233,0,0
420,-209,0,0,0,0,0,0,0,0,0,-1,1644,1233,0,0
427,-209,0,0,0,0,0,0,0,0,0,-1,1651,1233,0,0
434,-209,0,0,0,0,0,0,0,0,0,-1,1658,1233,0,0
441,-209,0,0,0,0,0,0,0,0,0,-1,1665,1233,0,0
448,-209,0,0,0,0,0,0,0,0,0,-1,1672,1233,0,0
455,-209,0,0,0,0,0,0,0,0,0,-1,1679,1233,0,0
462,-209,0,0,0,0,0,0,0,0,0,-1,1686,1233,0,0
469,-209,0,0,0,0,0,0,0,0,0,-1,1693,1233,0,0
476,-209,0,0,0,0,0,0,0,0,0,-1,1700,1233,0,0
483,-209,0,0,0,0,0,0,0,0,0,-1,1707,1233,0,0
490,-209,0,0,0,0,0,0,0,0,0,-1,1714,1233,0,0
497,-209,0,0,0,0,0,0,0,0,0,-1,1721,1233,0,0
504,-209,0,0,0,0,0,0,0,0,0,-1,1728,1233,0,0
511,-209,0,0,0,0,0,0,0,0,0,-1,1735,1233,0,0
518,-209,0,0,0,0,0,0,0,0,0,-1,1742,1233,0,0
525,-209,0,0,0,0,0,0,0,0,0,-1,1749,1233,0,0
532,-209,0,0,0,0,0,0,0,0,0,-1,1756,1233,0,0
539,-209,0,0,0,0,0,0,0,0,0,-1,1763,1233,0,0
546,-209,0,0,0,0,0,0,0,0,0,-1,1770,1233,0,0
553,-209,0,0,0,0,0,0,0,0,0,-1,1777,1233,0,0
560,-209,0,0,0,0,0,0,0,0,0,-1,1784,1233,0,0
567,-209,0,0,0,0,0,0,0,0,0,-1,1791,1233,0,0
574,-209,0,0,0,0,0,0,0,0,0,-1,1798,1233,0,0
581,-209,0,0,0,0,0,0,0,0,0,-1,1805,1233,0,0
588,-209,0,0,0,0,0,0,0,0,0,-1,1812,1233,0,0
595,-209,0,0,0,0,0,0,0,0,0,-1,1819,1233,0,0
602,-209,0,0,0,0,0,0,0,0,0,-1,1826,1233,0,0
609,-209,0,0,0,0,0,0,0,0,0,-1,1833,1233,0,0
616,-209,0,0,0,0,0,0,0,0,0,-1,1840,1233,0,0
623,-209,78.5784,2.4071,0.00627519,0.00134791,-0.00141929,0.00665477,0.000968332,-0.261328,0.00415155,0.0355564,1847,1233,78.5784,-2.40712
630,-209,78.6237,2.41638,0.00339794,0.00116159,-0.00110665,0.00385298,0.000706553,-0.390111,0.00236853,0.035889,1854,1233,78.6237,-2.41636
637,-209,78.7109,2.3429,0.00122651,0.000939023,-0.000930323,0.00202413,0.000141402,-0.708751,0.00130484,0.0332543,1861,1233,78.7109,-2.34293
644,-209,78.7107,2.36536,-0.000199009,0.000711171,-0.000898922,0.00126364,-0.000751474,-1.01972,0.00117588,0.0285377,1868,1233,78.7107,-2.3653
651,-209,78.7659,2.38611,-0.000750126,0.000461684,-0.000878345,0.000922836,-0.00121128,-1.08733,0.00123588,0.0251068,1875,1233,78.7659,-2.38609
658,-209,78.7599,2.38257,-0.000809178,0.000256616,-0.000557622,0.00049503,-0.00104759,-1.16676,0.00090948,0.0227906,1882,1233,78.7599,-2.38253
665,-209,78.9113,2.50037,-0.000688645,0.000181054,-0.000319375,0.000285736,-0.000793328,-1.25406,0.000645565,0.0380824,1889,1233,78.9112,-2.50032
672,-209,79.1677,2.71436,0,0,0,0,0,0,0,-1,1896,1233,79.1677,-2.7143
679,-209,55.2465,2.78674,0,0,0,0,0,0,0,-1,1903,1233,55.2464,-2.78678
686,-209,33.3711,3.89856,0,0,0,0,0,0,0,-1,1910,1233,33.3711,-3.89855
693,-209,60.7567,13.6616,0,0,0,0,0,0,0,-1,1917,1233,60.7567,-13.6616
700,-209,61.8309,13.5629,0,0,0,0,0,0,0,-1,1924,1233,61.8309,-13.5629
707,-209,61.7546,12.8013,-6.50673e-05,0.00104066,0.000176856,0.00106826,-9.26658e-05,1.41599,0.000744984,0.0355293,1931,1233,61.7547,-12.8013
714,-209,61.7096,12.0741,-0.00016351,0.00142177,0.000390217,0.00151261,-0.000254357,1.34206,0.00110301,0.0242325,1938,1233,61.7096,-12.0741
721,-209,61.7719,11.2692,-0.000223478,0.00194865,0.000685677,0.00214698,-0.000421816,1.28922,0.00159068,0.0142592,1945,1233,61.7719,-11.2692
728,-209,61.7637,10.5195,-0.000151121,0.00166918,0.00100728,0.0021166,-0.000598535,1.15279,0.00164723,0.0143576,1952,1233,61.7637,-10.5195
735,-209,61.7102,9.76013,-0.000315607,0.00155666,0.00138554,0.00229267,-0.00105162,1.08249,0.00197465,0.0167937,1959,1233,61.7102,-9.76012
742,-209,61.6486,8.97253,-0.000585385,0.00150743,0.00198961,0.00270902,-0.00178698,1.02749,0.0026139,0.0166378,1966,1233,61.6486,-8.9725
749,-209,61.5529,8.19714,-0.00086226,0.00161295,0.00283588,0.00346951,-0.00271883,0.991145,0.00358159,0.0149005,1973,1233,61.5528,-8.19718
756,-209,61.5304,7.46033,-0.00100293,0.00205757,0.00396084,0.00477348,-0.00371884,0.969738,0.00491563,0.0135394,1980,1233,61.5304,-7.46034
763,-209,61.5,6.8374,-0.00100675,0.00304848,0.00563711,0.00701154,-0.00496981,0.958039,0.00695083,0.0290465,1987,1233,61.5,-6.83737
770,-209,61.5803,6.40479,0,0,0,0,0,0,0,-1,1994,1233,61.5803,-6.40482
777,-209,68.0347,-0.36377,0,0,0,0,0,0,0,-1,2001,1233,68.0346,0.363742
784,-209,67.6289,0.771729,0,0,0,0,0,0,0,-1,2008,1233,67.6289,-0.771742
791,-209,67.1841,1.90906,0,0,0,0,0,0,0,-1,2015,1233,67.1841,-1.90909
798,-209,53.6404,3.71179,0,0,0,0,0,0,0,-1,2022,1233,53.6404,-3.71185
805,-209,0,0,0,0,0,0,0,0,0,-1,2029,1233,0,0
812,-209,0,0,0,0,0,0,0,0,0,-1,2036,1233,0,0
-700,-216,0,0,0,0,0,0,0,0,0,-1,524,1240,0,0
-693,-216,0,0,0,0,0,0,0,0,0,-1,531,1240,0,0
-686,-216,0,0,0,0,0,0,0,0,0,-1,538,1240,0,0
-679,-216,-44.4113,2.96509,0,0,0,0,0,0,0,-1,545,1240,-44.4113,-2.96514
-672,-216,-46.0019,3.48901,0,0,0,0,0,0,0,-1,552,1240,-46.0019,-3.48904
-665,-216,-47.6393,4.02075,0,0,0,0,0,0,0,-1,559,1240,-47.6392,-4.02069
-658,-216,-49.2646,4.4613,0,0,0,0,0,0,0,-1,566,1240,-49.2646,-4.4613
-651,-216,-42.788,-8.0509,0,0,0,0,0,0,0,-1,573,1240,-42.788,8.05092
-644,-216,-45.6099,1.72839,0,0,0,0,0,0,0,-1,580,1240,-45.6099,-1.72843
-637,-216,-44.3499,5.14063,0,0,0,0,0,0,0,-1,587,1240,-44.3498,-5.14063
-630,-216,-44.3394,6.11902,0.00584863,0.00265551,-0.00934497,0.0137324,-0.0052283,-0.700791,0.0113081,0.0495343,594,1240,-44.3393,-6.11907
-623,-216,-44.5047,7.02197,0.00374009,0.0019254,-0.00632286,0.00922038,-0.00355489,-0.714134,0.00761373,0.0257754,601,1240,-44.5047,-7.02196
-616,-216,-44.6194,7.71216,0.00238648,0.00162306,-0.00449113,0.00651209,-0.00250255,-0.743004,0.00537347,0.014755,608,1240,-44.6195,-7.71212
-609,-216,-44.6774,8.49353,0.00148977,0.0015071,-0.00351156,0.00501001,-0.00201314,-0.786632,0.00417606,0.014328,615,1240,-44.6774,-8.49351
-602,-216,-44.7336,9.24451,0.000817108,0.00144447,-0.0029716,0.0041189,-0.00185732,-0.837983,0.00353176,0.0135939,622,1240,-44.7336,-9.2445
-595,-216,-44.7789,10.0154,0.00046785,0.00136361,-0.00307316,0.00402136,-0.00218989,-0.857759,0.00363766,0.0205447,629,1240,-44.7789,-10.0153
-588,-216,-44.7712,10.6904,-9.43604e-05,0.0010419,-0.00337131,0.00389262,-0.00294508,-0.868873,0.00396036,0.0456717,636,1240,-44.7712,-10.6905
-581,-216,-44.7913,11.0299,0,0,0,0,0,0,0,-1,643,1240,-44.7913,-11.0299
-574,-216,-44.9346,12.3879,0,0,0,0,0,0,0,-1,650,1240,-44.9346,-12.3879
-567,-216,-44.9661,13.0673,0,0,0,0,0,0,0,-1,657,1240,-44.966,-13.0673
-560,-216,-16.5087,5.4574,0,0,0,0,0,0,0,-1,664,1240,-16.5087,-5.45746
-553,-216,-16.2355,1.22351,0,0,0,0,0,0,0,-1,671,1240,-16.2356,-1.22356
-546,-216,-37.1617,-0.25415,0,0,0,0,0,0,0,-1,678,1240,-37.1618,0.254161
-539,-216,-47.7817,1.47327,0,0,0,0,0,0,0,-1,685,1240,-47.7818,-1.4733
-532,-216,-61.7007,0.464233,0,0,0,0,0,0,0,-1,692,1240,-61.7008,-0.464174
-525,-216,-61.9656,0.681763,-0.00280455,0.00198713,0.00122126,0.00228043,-0.00309786,1.33509,0.00311709,0.0486409,699,1240,-61.9657,-0.681715
-518,-216,-62.2115,0.77417,-0.000387062,0.00420085,0.000802817,0.00433727,-0.000523486,1.40247,0.00308087,0.045567,706,1240,-62.2115,-0.774141
-511,-216,-62.27,0.75708,0.00555312,0.0052048,0.000488599,0.00589767,0.00486025,0.614192,0.00363565,0.0429064,713,1240,-62.27,-0.757056
-504,-216,-62.151,0.616455,0.0197819,0.000886088,0.000696306,0.0198076,0.000860464,0.0367832,0.0129278,0.0407247,720,1240,-62.151,-0.616488
-497,-216,0,0,0,0,0,0,0,0,0,-1,727,1240,0,0
-490,-216,0,0,0,0,0,0,0,0,0,-1,734,1240,0,0
-483,-216,0,0,0,0,0,0,0,0,0,-1,741,1240,0,0
-476,-216,0,0,0,0,0,0,0,0,0,-1,748,1240,0,0
-469,-216,0,0,0,0,0,0,0,0,0,-1,755,1240,0,0
-462,-216,0,0,0,0,0,0,0,0,0,-1,762,1240,0,0
-455,-216,0,0,0,0,0,0,0,0,0,-1,769,1240,0,0
-448,-216,0,0,0,0,0,0,0,0,0,-1,776,1240,0,0
-441,-216,0,0,0,0,0,0,0,0,0,-1,783,1240,0,0
-434,-216,0,0,0,0,0,0,0,0,0,-1,790,1240,0,0
-427,-216,0,0,0,0,0,0,0,0,0,-1,797,1240,0,0
-420,-216,0,0,0,0,0,0,0,0,0,-1,804,1240,0,0
-413,-216,0,0,0,0,0,0,0,0,0,-1,811,1240,0,0
-406,-216,0,0,0,0,0,0,0,0,0,-1,818,1240,0,0
-399,-216,0,0,0,0,0,0,0,0,0,-1,825,1240,0,0
-392,-216,0,0,0,0,0,0,0,0,0,-1,832,1240,0,0
-385,-216,0,0,0,0,0,0,0,0,0,-1,839,1240,0,0
-378,-216,0,0,0,0,0,0,0,0,0,-1,846,1240,0,0
-371,-216,0,0,0,0,0,0,0,0,0,-1,853,1240,0,0
-364,-216,0,0,0,0,0,0,0,0,0,-1,860,1240,0,0
-357,-216,0,0,0,0,0,0,0,0,0,-1,867,1240,0,0
-350,-216,0,0,0,0,0,0,0,0,0,-1,874,1240,0,0
-343,-216,0,0,0,0,0,0,0,0,0,-1,881,1240,0,0
-336,-216,0,0,0,0,0,0,0,0,0,-1,888,1240,0,0
-329,-216,0,0,0,0,0,0,0,0,0,-1,895,1240,0,0
-322,-216,0,0,0,0,0,0,0,0,0,-1,902,1240,0,0
-315,-216,0,0,0,0,0,0,0,0,0,-1,909,1240,0,0
-308,-216,0,0,0,0,0,0,0,0,0,-1,916,1240,0,0
-301,-216,0,0,0,0,0,0,0,0,0,-1,923,1240,0,0
-294,-216,0,0,0,0,0,0,0,0,0,-1,930,1240,0,0
-287,-216,0,0,0,0,0,0,0,0,0,-1,937,1240,0,0
-280,-216,0,0,0,0,0,0,0,0,0,-1,944,1240,0,0
-273,-216,0,0,0,0,0,0,0,0,0,-1,951,1240,0,0
-266,-216,0,0,0,0,0,0,0,0,0,-1,958,1240,0,0
-259,-216,0,0,0,0,0,0,0,0,0,-1,965,1240,0,0
-252,-216,0,0,0,0,0,0,0,0,0,-1,972,1240,0,0
-245,-216,0,0,0,0,0,0,0,0,0,-1,979,1240,0,0
-238,-216,0,0,0,0,0,0,0,0,0,-1,986,1240,0,0
-231,-216,0,0,0,0,0,0,0,0,0,-1,993,1240,0,0
-224,-216,0,0,0,0,0,0,0,0,0,-1,1000,1240,0,0
-217,-216,0,0,0,0,0,0,0,0,0,-1,1007,1240,0,0
-210,-216,0,0,0,0,0,0,0,0,0,-1,1014,1240,0,0
-203,-216,0,0,0,0,0,0,0,0,0,-1,1021,1240,0,0
-196,-216,0,0,0,0,0,0,0,0,0,-1,1028,1240,0,0
-189,-216,0,0,0,0,0,0,0,0,0,-1,1035,1240,0,0
-182,-216,0,0,0,0,0,0,0,0,0,-1,1042,1240,0,0
-175,-216,0,0,0,0,0,0,0,0,0,-1,1049,1240,0,0
-168,-216,0,0,0,0,0,0,0,0,0,-1,1056,1240,0,0
-161,-216,0,0,0,0,0,0,0,0,0,-1,1063,1240,0,0
-154,-216,0,0,0,0,0,0,0,0,0,-1,1070,1240,0,0
-147,-216,0,0,0,0,0,0,0,0,0,-1,1077,1240,0,0
-140,-216,0,0,0,0,0,0,0,0,0,-1,1084,1240,0,0
-133,-216,0,0,0,0,0,0,0,0,0,-1,1091,1240,0,0
-126,-216,0,0,0,0,0,0,0,0,0,-1,1098,1240,0,0
-119,-216,0,0,0,0,0,0,0,0,0,-1,1105,1240,0,0
-112,-216,0,0,0,0,0,0,0,0,0,-1,1112,1240,0,0
-105,-216,0,0,0,0,0,0,0,0,0,-1,1119,1240,0,0
-98,-216,0,0,0,0,0,0,0,0,0,-1,1126,1240,0,0
-91,-216,0,0,0,0,0,0,0,0,0,-1,1133,1240,0,0
-84,-216,0,0,0,0,0,0,0,0,0,-1,1140,1240,0,0
-77,-216,0,0,0,0,0,0,0,0,0,-1,1147,1240,0,0
-70,-216,0,0,0,0,0,0,0,0,0,-1,1154,1240,0,0
-63,-216,0,0,0,0,0,0,0,0,0,-1,1161,1240,0,0
-56,-216,0,0,0,0,0,0,0,0,0,-1,1168,1240,0,0
-49,-216,0,0,0,0,0,0,0,0,0,-1,1175,1240,0,0
-42,-216,0,0,0,0,0,0,0,0,0,-1,1182,1240,0,0
-35,-216,0,0,0,0,0,0,0,0,0,-1,1189,1240,0,0
-28,-216,0,0,0,0,0,0,0,0,0,-1,1196,1240,0,0
-21,-216,0,0,0,0,0,0,0,0,0,-1,1203,1240,0,0
-14,-216,0,0,0,0,0,0,0,0,0,-1,1210,1240,0,0
-7,-216,0,0,0,0,0,0,0,0,0,-1,1217,1240,0,0
0,-216,0,0,0,0,0,0,0,0,0,-1,1224,1240,0,0
7,-216,0,0,0,0,0,0,0,0,0,-1,1231,1240,0,0
14,-216,0,0,0,0,0,0,0,0,0,-1,1238,1240,0,0
21,-216,0,0,0,0,0,0,0,0,0,-1,1245,1240,0,0
28,-216,0,0,0,0,0,0,0,0,0,-1,1252,1240,0,0
35,-216,0,0,0,0,0,0,0,0,0,-1,1259,1240,0,0
42,-216,0,0,0,0,0,0,0,0,0,-1,1266,1240,0,0
49,-216,0,0,0,0,0,0,0,0,0,-1,1273,1240,0,0
56,-216,0,0,0,0,0,0,0,0,0,-1,1280,1240,0,0
63,-216,0,0,0,0,0,0,0,0,0,-1,1287,1240,0,0
70,-216,0,0,0,0,0,0,0,0,0,-1,1294,1240,0,0
77,-216,0,0,0,0,0,0,0,0,0,-1,1301,1240,0,0
84,-216,0,0,0,0,0,0,0,0,0,-1,1308,1240,0,0
91,-216,0,0,0,0,0,0,0,0,0,-1,1315,1240,0,0
98,-216,0,0,0,0,0,0,0,0,0,-1,1322,1240,0,0
105,-216,0,0,0,0,0,0,0,0,0,-1,1329,1240,0,0
112,-216,0,0,0,0,0,0,0,0,0,-1,1336,1240,0,0
119,-216,0,0,0,0,0,0,0,0,0,-1,1343,1240,0,0
126,-216,0,0,0,0,0,0,0,0,0,-1,1350,1240,0,0
133,-216,0,0,0,0,0,0,0,0,0,-1,1357,1240,0,0
140,-216,0,0,0,0,0,0,0,0,0,-1,1364,1240,0,0
147,-216,0,0,0,0,0,0,0,0,0,-1,1371,1240,0,0
154,-216,0,0,0,0,0,0,0,0,0,-1,1378,1240,0,0
161,-216,0,0,0,0,0,0,0,0,0,-1,1385,1240,0,0
168,-216,0,0,0,0,0,0,0,0,0,-1,1392,1240,0,0
175,-216,0,0,0,0,0,0,0,0,0,-1,1399,1240,0,0
182,-216,0,0,0,0,0,0,0,0,0,-1,1406,1240,0,0
189,-216,0,0,0,0,0,0,0,0,0,-1,1413,1240,0,0
196,-216,0,0,0,0,0,0,0,0,0,-1,1420,1240,0,0
203,-216,0,0,0,0,0,0,0,0,0,-1,1427,1240,0,0
210,-216,0,0,0,0,0,0,0,0,0,-1,1434,1240,0,0
217,-216,0,0,0,0,0,0,0,0,0,-1,1441,1240,0,0
224,-216,0,0,0,0,0,0,0,0,0,-1,1448,1240,0,0
231,-216,0,0,0,0,0,0,0,0,0,-1,1455,1240,0,0
238,-216,0,0,0,0,0,0,0,0,0,-1,1462,1240,0,0
245,-216,0,0,0,0,0,0,0,0,0,-1,1469,1240,0,0
252,-216,0,0,0,0,0,0,0,0,0,-1,1476,1240,0,0
259,-216,0,0,0,0,0,0,0,0,0,-1,1483,1240,0,0
266,-216,0,0,0,0,0,0,0,0,0,-1,1490,1240,0,0
273,-216,0,0,0,0,0,0,0,0,0,-1,1497,1240,0,0
280,-216,0,0,0,0,0,0,0,0,0,-1,1504,1240,0,0
287,-216,0,0,0,0,0,0,0,0,0,-1,1511,1240,0,0
294,-216,0,0,0,0,0,0,0,0,0,-1,1518,1240,0,0
301,-216,0,0,0,0,0,0,0,0,0,-1,1525,1240,0,0
308,-216,0,0,0,0,0,0,0,0,0,-1,1532,1240,0,0
315,-216,0,0,0,0,0,0,0,0,0,-1,1539,1240,0,0
322,-216,0,0,0,0,0,0,0,0,0,-1,1546,1240,0,0
329,-216,0,0,0,0,0,0,0,0,0,-1,1553,1240,0,0
336,-216,0,0,0,0,0,0,0,0,0,-1,1560,1240,0,0
343,-216,0,0,0,0,0,0,0,0,0,-1,1567,1240,0,0
350,-216,0,0,0,0,0,0,0,0,0,-1,1574,1240,0,0
357,-216,0,0,0,0,0,0,0,0,0,-1,1581,1240,0,0
364,-216,0,0,0,0,0,0,0,0,0,-1,1588,1240,0,0
371,-216,0,0,0,0,0,0,0,0,0,-1,1595,1240,0,0
378,-216,0,0,0,0,0,0,0,0,0,-1,1602,1240,0,0
385,-216,0,0,0,0,0,0,0,0,0,-1,1609,1240,0,0
392,-216,0,0,0,0,0,0,0,0,0,-1,1616,1240,0,0
399,-216,0,0,0,0,0,0,0,0,0,-1,1623,1240,0,0
406,-216,0,0,0,0,0,0,0,0,0,-1,1630,1240,0,0
413,-216,0,0,0,0,0,0,0,0,0,-1,1637,1240,0,0
420,-216,0,0,0,0,0,0,0,0,0,-1,1644,1240,0,0
427,-216,0,0,0,0,0,0,0,0,0,-1,1651,1240,0,0
434,-216,0,0,0,0,0,0,0,0,0,-1,1658,1240,0,0
441,-216,0,0,0,0,0,0,0,0,0,-1,1665,1240,0,0
448,-216,0,0,0,0,0,0,0,0,0,-1,1672,1240,0,0
455,-216,0,0,0,0,0,0,0,0,0,-1,1679,1240,0,0
462,-216,0,0,0,0,0,0,0,0,0,-1,1686,1240,0,0
469,-216,0,0,0,0,0,0,0,0,0,-1,1693,1240,0,0
476,-216,0,0,0,0,0,0,0,0,0,-1,1700,1240,0,0
483,-216,0,0,0,0,0,0,0,0,0,-1,1707,1240,0,0
490,-216,0,0,0,0,0,0,0,0,0,-1,1714,1240,0,0
497,-216,0,0,0,0,0,0,0,0,0,-1,1721,1240,0,0
504,-216,0,0,0,0,0,0,0,0,0,-1,1728,1240,0,0
511,-216,0,0,0,0,0,0,0,0,0,-1,1735,1240,0,0
518,-216,0,0,0,0,0,0,0,0,0,-1,1742,1240,0,0
525,-216,0,0,0,0,0,0,0,0,0,-1,1749,1240,0,0
532,-216,0,0,0,0,0,0,0,0,0,-1,1756,1240,0,0
539,-216,0,0,0,0,0,0,0,0,0,-1,1763,1240,0,0
546,-216,0,0,0,0,0,0,0,0,0,-1,1770,1240,0,0
553,-216,0,0,0,0,0,0,0,0,0,-1,1777,1240,0,0
560,-216,0,0,0,0,0,0,0,0,0,-1,1784,1240,0,0
567,-216,0,0,0,0,0,0,0,0,0,-1,1791,1240,0,0
574,-216,0,0,0,0,0,0,0,0,0,-1,1798,1240,0,0
581,-216,0,0,0,0,0,0,0,0,0,-1,1805,1240,0,0
588,-216,0,0,0,0,0,0,0,0,0,-1,1812,1240,0,0
595,-216,0,0,0,0,0,0,0,0,0,-1,1819,1240,0,0
602,-216,0,0,0,0,0,0,0,0,0,-1,1826,1240,0,0
609,-216,0,0,0,0,0,0,0,0,0,-1,1833,1240,0,0
616,-216,0,0,0,0,0,0,0,0,0,-1,1840,1240,0,0
623,-216,78.5143,2.4519,0.00585698,0.00301131,-0.00177403,0.00670827,0.00216002,-0.447407,0.00395399,0.0385796,1847,1240,78.5143,-2.45191
630,-216,78.6134,2.39746,0.00286791,0.00245757,-0.00125291,0.00393233,0.00139315,-0.704241,0.00230225,0.0357819,1854,1240,78.6134,-2.39746
637,-216,78.7003,2.37793,0.000462862,0.0017928,-0.000818559,0.00218245,7.32123e-05,-1.12652,0.00143119,0.0306271,1861,1240,78.7003,-2.37794
644,-216,78.6831,2.38306,-0.000944965,0.00110103,-0.000584852,0.00125641,-0.00110035,-1.31112,0.00136167,0.0252709,1868,1240,78.6831,-2.38308
651,-216,78.707,2.39868,-0.00129641,0.000558757,-0.000405079,0.00064335,-0.001381,-1.36493,0.00119434,0.0229447,1875,1240,78.707,-2.39872
658,-216,78.7948,2.41833,-0.00115379,0.000287349,-8.15904e-05,0.000291953,-0.0011584,-1.51442,0.00088577,0.0326075,1882,1240,78.7948,-2.41837
665,-216,79.0417,2.7002,0,0,0,0,0,0,0,-1,1889,1240,79.0417,-2.70017
672,-216,68.6339,1.33826,0,0,0,0,0,0,0,-1,1896,1240,68.6339,-1.33828
679,-216,47.3159,3.82703,0,0,0,0,0,0,0,-1,1903,1240,47.316,-3.82708
686,-216,21.5172,6.19458,0,0,0,0,0,0,0,-1,1910,1240,21.5172,-6.19453
693,-216,56.1224,12.7039,0,0,0,0,0,0,0,-1,1917,1240,56.1224,-12.7038
700,-216,59.896,12.7087,0,0,0,0,0,0,0,-1,1924,1240,59.896,-12.7087
707,-216,61.2396,12.6104,0,0,0,0,0,0,0,-1,1931,1240,61.2397,-12.6104
714,-216,61.0945,12.0018,-0.000414943,0.00113521,0.000688406,0.00139678,-0.000676519,1.20767,0.00122086,0.0289213,1938,1240,61.0945,-12.0019
721,-216,61.0193,11.3323,-0.000611416,0.00153461,0.00104645,0.0019604,-0.00103721,1.18436,0.00175782,0.0141823,1945,1240,61.0193,-11.3322
728,-216,61.0321,10.5614,-0.000762865,0.00123533,0.00140008,0.00195624,-0.00148378,1.09529,0.00199233,0.0144587,1952,1240,61.0321,-10.5614
735,-216,61.0233,9.80615,-0.00112362,0.00102299,0.00178988,0.0020367,-0.00213733,1.05548,0.00241011,0.0163879,1959,1240,61.0233,-9.80619
742,-216,60.9087,9.03369,-0.00160601,0.000733031,0.00240057,0.00223382,-0.00310679,1.01207,0.0030971,0.0179805,1966,1240,60.9087,-9.03368
749,-216,60.8223,8.24194,-0.00214596,0.000434752,0.00324494,0.00263648,-0.00434769,0.974638,0.00407246,0.0134123,1973,1240,60.8223,-8.24196
756,-216,60.7744,7.48535,-0.00273024,0.000126333,0.00440366,0.00332754,-0.00593144,0.942216,0.00541568,0.0118903,1980,1240,60.7744,-7.48533
763,-216,60.7168,6.78076,-0.00346831,-0.000229763,0.00617312,0.00453293,-0.008231,0.913664,0.00747165,0.0238206,1987,1240,60.7168,-6.78077
770,-216,60.8887,6.05078,0,0,0,0,0,0,0,-1,1994,1240,60.8887,-6.05073
777,-216,60.8386,5.25562,0,0,0,0,0,0,0,-1,2001,1240,60.8386,-5.25565
784,-216,68.2205,0.660034,0,0,0,0,0,0,0,-1,2008,1240,68.2204,-0.660033
791,-216,67.71,1.8468,0,0,0,0,0,0,0,-1,2015,1240,67.7099,-1.84686
798,-216,0,0,0,0,0,0,0,0,0,-1,2022,1240,0,0
805,-216,0,0,0,0,0,0,0,0,0,-1,2029,1240,0,0
812,-216,0,0,0,0,0,0,0,0,0,-1,2036,1240,0,0
-700,-223,0,0,0,0,0,0,0,0,0,-1,524,1247,0,0
-693,-223,0,0,0,0,0,0,0,0,0,-1,531,1247,0,0
-686,-223,0,0,0,0,0,0,0,0,0,-1,538,1247,0,0
-679,-223,0,0,0,0,0,0,0,0,0,-1,545,1247,0,0
-672,-223,-46.3007,3.27185,0,0,0,0,0,0,0,-1,552,1247,-46.3007,-3.27184
-665,-223,-47.9709,3.83252,0,0,0,0,0,0,0,-1,559,1247,-47.9709,-3.83247
-658,-223,-39.6435,-8.36633,0,0,0,0,0,0,0,-1,566,1247,-39.6435,8.36633
-651,-223,-40.2339,-7.32275,0,0,0,0,0,0,0,-1,573,1247,-40.234,7.32277
-644,-223,-45.9081,3.8446,0,0,0,0,0,0,0,-1,580,1247,-45.9081,-3.84463
-637,-223,-49.2922,0.294189,0,0,0,0,0,0,0,-1,587,1247,-49.2922,-0.294245
-630,-223,-43.6093,6.32166,0,0,0,0,0,0,0,-1,594,1247,-43.6093,-6.32165
-623,-223,-43.7968,6.92773,0,0,0,0,0,0,0,-1,601,1247,-43.7968,-6.92769
-616,-223,-43.8351,7.73694,0.00239065,0.00135971,-0.00391788,0.00582682,-0.00207646,-0.719989,0.00473111,0.0179674,608,1247,-43.8351,-7.7369
-609,-223,-43.8657,8.52515,0.00145795,0.00132189,-0.00307398,0.00446465,-0.00168481,-0.774335,0.00366932,0.0123913,615,1247,-43.8657,-8.52512
-602,-223,-43.9135,9.28943,0.000681481,0.00123159,-0.00257525,0.00354643,-0.00163336,-0.8386,0.00305779,0.0151609,622,1247,-43.9135,-9.28946
-595,-223,-43.917,10.0889,0.000141936,0.00109642,-0.00263279,0.00329487,-0.00205652,-0.875059,0.00311708,0.0217403,629,1247,-43.917,-10.0889
-588,-223,-43.7089,10.655,0,0,0,0,0,0,0,-1,636,1247,-43.7089,-10.655
-581,-223,-44.4628,12.6101,0,0,0,0,0,0,0,-1,643,1247,-44.4628,-12.6101
-574,-223,-44.335,12.0876,0,0,0,0,0,0,0,-1,650,1247,-44.335,-12.0877
-567,-223,-44.7149,13.1128,0,0,0,0,0,0,0,-1,657,1247,-44.7149,-13.1128
-560,-223,-31.8748,9.50732,0,0,0,0,0,0,0,-1,664,1247,-31.8748,-9.50735
-553,-223,-11.4025,4.14722,0,0,0,0,0,0,0,-1,671,1247,-11.4025,-4.14719
-546,-223,-26.9034,-0.148682,0,0,0,0,0,0,0,-1,678,1247,-26.9034,0.14867
-539,-223,-36.7405,0.35376,0,0,0,0,0,0,0,-1,685,1247,-36.7405,-0.353807
-532,-223,-47.6184,1.39844,0,0,0,0,0,0,0,-1,692,1247,-47.6184,-1.3984
-525,-223,-61.8382,0.528198,0,0,0,0,0,0,0,-1,699,1247,-61.8382,-0.528188
-518,-223,-62.2187,0.759399,0,0,0,0,0,0,0,-1,706,1247,-62.2187,-0.759429
-511,-223,-62.2393,0.696655,0.00280717,0.00785531,-0.00119855,0.00812542,0.00253705,-1.34913,0.00480021,0.0406708,713,1247,-62.2393,-0.696679
-504,-223,-62.174,0.644531,0.0122257,0.00695676,-0.00119168,0.0124826,0.00669977,-0.212402,0.00721334,0.0396075,720,1247,-62.1739,-0.644555
-497,-223,0,0,0,0,0,0,0,0,0,-1,727,1247,0,0
-490,-223,0,0,0,0,0,0,0,0,0,-1,734,1247,0,0
-483,-223,0,0,0,0,0,0,0,0,0,-1,741,1247,0,0
-476,-223,0,0,0,0,0,0,0,0,0,-1,748,1247,0,0
-469,-223,0,0,0,0,0,0,0,0,0,-1,755,1247,0,0
-462,-223,0,0,0,0,0,0,0,0,0,-1,762,1247,0,0
-455,-223,0,0,0,0,0,0,0,0,0,-1,769,1247,0,0
-448,-223,0,0,0,0,0,0,0,0,0,-1,776,1247,0,0
-441,-223,0,0,0,0,0,0,0,0,0,-1,783,1247,0,0
-434,-223,0,0,0,0,0,0,0,0,0,-1,790,1247,0,0
-427,-223,0,0,0,0,0,0,0,0,0,-1,797,1247,0,0
-420,-223,0,0,0,0,0,0,0,0,0,-1,804,1247,0,0
-413,-223,0,0,0,0,0,0,0,0,0,-1,811,1247,0,0
-406,-223,0,0,0,0,0,0,0,0,0,-1,818,1247,0,0
-399,-223,0,0,0,0,0,0,0,0,0,-1,825,1247,0,0
-392,-223,0,0,0,0,0,0,0,0,0,-1,832,1247,0,0
-385,-223,0,0,0,0,0,0,0,0,0,-1,839,1247,0,0
-378,-223,0,0,0,0,0,0,0,0,0,-1,846,1247,0,0
-371,-223,0,0,0,0,0,0,0,0,0,-1,853,1247,0,0
-364,-223,0,0,0,0,0,0,0,0,0,-1,860,1247,0,0
-357,-223,0,0,0,0,0,0,0,0,0,-1,867,1247,0,0
-350,-223,0,0,0,0,0,0,0,0,0,-1,874,1247,0,0
-343,-223,0,0,0,0,0,0,0,0,0,-1,881,1247,0,0
-336,-223,0,0,0,0,0,0,0,0,0,-1,888,1247,0,0
-329,-223,0,0,0,0,0,0,0,0,0,-1,895,1247,0,0
-322,-223,0,0,0,0,0,0,0,0,0,-1,902,1247,0,0
-315,-223,0,0,0,0,0,0,0,0,0,-1,909,1247,0,0
-308,-223,0,0,0,0,0,0,0,0,0,-1,916,1247,0,0
-301,-223,0,0,0,0,0,0,0,0,0,-1,923,1247,0,0
-294,-223,0,0,0,0,0,0,0,0,0,-1,930,1247,0,0
-287,-223,0,0,0,0,0,0,0,0,0,-1,937,1247,0,0
-280,-223,0,0,0,0,0,0,0,0,0,-1,944,1247,0,0
-273,-223,0,0,0,0,0,0,0,0,0,-1,951,1247,0,0
-266,-223,0,0,0,0,0,0,0,0,0,-1,958,1247,0,0
-259,-223,0,0,0,0,0,0,0,0,0,-1,965,1247,0,0
-252,-223,0,0,0,0,0,0,0,0,0,-1,972,1247,0,0
-245,-223,0,0,0,0,0,0,0,0,0,-1,979,1247,0,0
-238,-223,0,0,0,0,0,0,0,0,0,-1,986,1247,0,0
-231,-223,0,0,0,0,0,0,0,0,0,-1,993,1247,0,0
-224,-223,0,0,0,0,0,0,0,0,0,-1,1000,1247,0,0
-217,-223,0,0,0,0,0,0,0,0,0,-1,1007,1247,0,0
-210,-223,0,0,0,0,0,0,0,0,0,-1,1014,1247,0,0
-203,-223,0,0,0,0,0,0,0,0,0,-1,1021,1247,0,0
-196,-223,0,0,0,0,0,0,0,0,0,-1,1028,1247,0,0
-189,-223,0,0,0,0,0,0,0,0,0,-1,1035,1247,0,0
-182,-223,0,0,0,0,0,0,0,0,0,-1,1042,1247,0,0
-175,-223,0,0,0,0,0,0,0,0,0,-1,1049,1247,0,0
-168,-223,0,0,0,0,0,0,0,0,0,-1,1056,1247,0,0
-161,-223,0,0,0,0,0,0,0,0,0,-1,1063,1247,0,0
-154,-223,0,0,0,0,0,0,0,0,0,-1,1070,1247,0,0
-147,-223,0,0,0,0,0,0,0,0,0,-1,1077,1247,0,0
-140,-223,0,0,0,0,0,0,0,0,0,-1,1084,1247,0,0
-133,-223,0,0,0,0,0,0,0,0,0,-1,1091,1247,0,0
-126,-223,0,0,0,0,0,0,0,0,0,-1,1098,1247,0,0
-119,-223,0,0,0,0,0,0,0,0,0,-1,1105,1247,0,0
-112,-223,0,0,0,0,0,0,0,0,0,-1,1112,1247,0,0
-105,-223,0,0,0,0,0,0,0,0,0,-1,1119,1247,0,0
-98,-223,0,0,0,0,0,0,0,0,0,-1,1126,1247,0,0
-91,-223,0,0,0,0,0,0,0,0,0,-1,1133,1247,0,0
-84,-223,0,0,0,0,0,0,0,0,0,-1,1140,1247,0,0
-77,-223,0,0,0,0,0,0,0,0,0,-1,1147,1247,0,0
-70,-223,0,0,0,0,0,0,0,0,0,-1,1154,1247,0,0
-63,-223,0,0,0,0,0,0,0,0,0,-1,1161,1247,0,0
-56,-223,0,0,0,0,0,0,0,0,0,-1,1168,1247,0,0
-49,-223,0,0,0,0,0,0,0,0,0,-1,1175,1247,0,0
-42,-223,0,0,0,0,0,0,0,0,0,-1,1182,1247,0,0
-35,-223,0,0,0,0,0,0,0,0,0,-1,1189,1247,0,0
-28,-223,0,0,0,0,0,0,0,0,0,-1,1196,1247,0,0
-21,-223,0,0,0,0,0,0,0,0,0,-1,1203,1247,0,0
-14,-223,0,0,0,0,0,0,0,0,0,-1,1210,1247,0,0
-7,-223,0,0,0,0,0,0,0,0,0,-1,1217,1247,0,0
0,-223,0,0,0,0,0,0,0,0,0,-1,1224,1247,0,0
7,-223,0,0,0,0,0,0,0,0,0,-1,1231,1247,0,0
14,-223,0,0,0,0,0,0,0,0,0,-1,1238,1247,0,0
21,-223,0,0,0,0,0,0,0,0,0,-1,1245,1247,0,0
28,-223,0,0,0,0,0,0,0,0,0,-1,1252,1247,0,0
35,-223,0,0,0,0,0,0,0,0,0,-1,1259,1247,0,0
42,-223,0,0,0,0,0,0,0,0,0,-1,1266,1247,0,0
49,-223,0,0,0,0,0,0,0,0,0,-1,1273,1247,0,0
56,-223,0,0,0,0,0,0,0,0,0,-1,1280,1247,0,0
63,-223,0,0,0,0,0,0,0,0,0,-1,1287,1247,0,0
70,-223,0,0,0,0,0,0,0,0,0,-1,1294,1247,0,0
77,-223,0,0,0,0,0,0,0,0,0,-1,1301,1247,0,0
84,-223,0,0,0,0,0,0,0,0,0,-1,1308,1247,0,0
91,-223,0,0,0,0,0,0,0,0,0,-1,1315,1247,0,0
98,-223,0,0,0,0,0,0,0,0,0,-1,1322,1247,0,0
105,-223,0,0,0,0,0,0,0,0,0,-1,1329,1247,0,0
112,-223,0,0,0,0,0,0,0,0,0,-1,1336,1247,0,0
119,-223,0,0,0,0,0,0,0,0,0,-1,1343,1247,0,0
126,-223,0,0,0,0,0,0,0,0,0,-1,1350,1247,0,0
133,-223,0,0,0,0,0,0,0,0,0,-1,1357,1247,0,0
140,-223,0,0,0,0,0,0,0,0,0,-1,1364,1247,0,0
147,-223,0,0,0,0,0,0,0,0,0,-1,1371,1247,0,0
154,-223,0,0,0,0,0,0,0,0,0,-1,1378,1247,0,0
161,-223,0,0,0,0,0,0,0,0,0,-1,1385,1247,0,0
168,-223,0,0,0,0,0,0,0,0,0,-1,1392,1247,0,0
175,-223,0,0,0,0,0,0,0,0,0,-1,1399,1247,0,0
182,-223,0,0,0,0,0,0,0,0,0,-1,1406,1247,0,0
189,-223,0,0,0,0,0,0,0,0,0,-1,1413,1247,0,0
196,-223,0,0,0,0,0,0,0,0,0,-1,1420,1247,0,0
203,-223,0,0,0,0,0,0,0,0,0,-1,1427,1247,0,0
210,-223,0,0,0,0,0,0,0,0,0,-1,1434,1247,0,0
217,-223,0,0,0,0,0,0,0,0,0,-1,1441,1247,0,0
224,-223,0,0,0,0,0,0,0,0,0,-1,1448,1247,0,0
231,-223,0,0,0,0,0,0,0,0,0,-1,1455,1247,0,0
238,-223,0,0,0,0,0,0,0,0,0,-1,1462,1247,0,0
245,-223,0,0,0,0,0,0,0,0,0,-1,1469,1247,0,0
252,-223,0,0,0,0,0,0,0,0,0,-1,1476,1247,0,0
259,-223,0,0,0,0,0,0,0,0,0,-1,1483,1247,0,0
266,-223,0,0,0,0,0,0,0,0,0,-1,1490,1247,0,0
273,-223,0,0,0,0,0,0,0,0,0,-1,1497,1247,0,0
280,-223,0,0,0,0,0,0,0,0,0,-1,1504,1247,0,0
287,-223,0,0,0,0,0,0,0,0,0,-1,1511,1247,0,0
294,-223,0,0,0,0,0,0,0,0,0,-1,1518,1247,0,0
301,-223,0,0,0,0,0,0,0,0,0,-1,1525,1247,0,0
308,-223,0,0,0,0,0,0,0,0,0,-1,1532,1247,0,0
315,-223,0,0,0,0,0,0,0,0,0,-1,1539,1247,0,0
322,-223,0,0,0,0,0,0,0,0,0,-1,1546,1247,0,0
329,-223,0,0,0,0,0,0,0,0,0,-1,1553,1247,0,0
336,-223,0,0,0,0,0,0,0,0,0,-1,1560,1247,0,0
343,-223,0,0,0,0,0,0,0,0,0,-1,1567,1247,0,0
350,-223,0,0,0,0,0,0,0,0,0,-1,1574,1247,0,0
357,-223,0,0,0,0,0,0,0,0,0,-1,1581,1247,0,0
364,-223,0,0,0,0,0,0,0,0,0,-1,1588,1247,0,0
371,-223,0,0,0,0,0,0,0,0,0,-1,1595,1247,0,0
378,-223,0,0,0,0,0,0,0,0,0,-1,1602,1247,0,0
385,-223,0,0,0,0,0,0,0,0,0,-1,1609,1247,0,0
392,-223,0,0,0,0,0,0,0,0,0,-1,1616,1247,0,0
399,-223,0,0,0,0,0,0,0,0,0,-1,1623,1247,0,0
406,-223,0,0,0,0,0,0,0,0,0,-1,1630,1247,0,0
413,-223,0,0,0,0,0,0,0,0,0,-1,1637,1247,0,0
420,-223,0,0,0,0,0,0,0,0,0,-1,1644,1247,0,0
427,-223,0,0,0,0,0,0,0,0,0,-1,1651,1247,0,0
434,-223,0,0,0,0,0,0,0,0,0,-1,1658,1247,0,0
441,-223,0,0,0,0,0,0,0,0,0,-1,1665,1247,0,0
448,-223,0,0,0,0,0,0,0,0,0,-1,1672,1247,0,0
455,-223,0,0,0,0,0,0,0,0,0,-1,1679,1247,0,0
462,-223,0,0,0,0,0,0,0,0,0,-1,1686,1247,0,0
469,-223,0,0,0,0,0,0,0,0,0,-1,1693,1247,0,0
476,-223,0,0,0,0,0,0,0,0,0,-1,1700,1247,0,0
483,-223,0,0,0,0,0,0,0,0,0,-1,1707,1247,0,0
490,-223,0,0,0,0,0,0,0,0,0,-1,1714,1247,0,0
497,-223,0,0,0,0,0,0,0,0,0,-1,1721,1247,0,0
504,-223,0,0,0,0,0,0,0,0,0,-1,1728,1247,0,0
511,-223,0,0,0,0,0,0,0,0,0,-1,1735,1247,0,0
518,-223,0,0,0,0,0,0,0,0,0,-1,1742,1247,0,0
525,-223,0,0,0,0,0,0,0,0,0,-1,1749,1247,0,0
532,-223,0,0,0,0,0,0,0,0,0,-1,1756,1247,0,0
539,-223,0,0,0,0,0,0,0,0,0,-1,1763,1247,0,0
546,-223,0,0,0,0,0,0,0,0,0,-1,1770,1247,0,0
553,-223,0,0,0,0,0,0,0,0,0,-1,1777,1247,0,0
560,-223,0,0,0,0,0,0,0,0,0,-1,1784,1247,0,0
567,-223,0,0,0,0,0,0,0,0,0,-1,1791,1247,0,0
574,-223,0,0,0,0,0,0,0,0,0,-1,1798,1247,0,0
581,-223,0,0,0,0,0,0,0,0,0,-1,1805,1247,0,0
588,-223,0,0,0,0,0,0,0,0,0,-1,1812,1247,0,0
595,-223,0,0,0,0,0,0,0,0,0,-1,1819,1247,0,0
602,-223,0,0,0,0,0,0,0,0,0,-1,1826,1247,0,0
609,-223,0,0,0,0,0,0,0,0,0,-1,1833,1247,0,0
616,-223,0,0,0,0,0,0,0,0,0,-1,1840,1247,0,0
623,-223,78.576,2.5813,0.00508107,0.00462486,-0.00224842,0.00711292,0.002593,-0.734846,0.00415658,0.0373443,1847,1247,78.576,-2.58129
630,-223,78.5763,2.40332,0.00196409,0.00388609,-0.00142141,0.00464088,0.00120931,-1.08265,0.00277992,0.0342311,1854,1247,78.5763,-2.40332
637,-223,78.6624,2.31885,-0.000763362,0.00284208,-0.000596051,0.00293806,-0.000859346,-1.41113,0.00229932,0.0282866,1861,1247,78.6624,-2.31881
644,-223,78.6509,2.33887,-0.00196014,0.00174834,-0.000146322,0.0017541,-0.00196591,-1.53142,0.00214891,0.0240755,1868,1247,78.6508,-2.33883
651,-223,78.6954,2.33655,-0.00199238,0.000958247,0.000168708,0.000967862,-0.00200199,1.51387,0.00174895,0.0319547,1875,1247,78.6954,-2.33655
658,-223,78.8757,2.396,0,0,0,0,0,0,0,-1,1882,1247,78.8757,-2.396
665,-223,68.7177,1.6427,0,0,0,0,0,0,0,-1,1889,1247,68.7176,-1.64275
672,-223,56.4625,2.72424,0,0,0,0,0,0,0,-1,1896,1247,56.4626,-2.72418
679,-223,43.2783,2.46973,0,0,0,0,0,0,0,-1,1903,1247,43.2784,-2.46978
686,-223,40.7926,10.0316,0,0,0,0,0,0,0,-1,1910,1247,40.7926,-10.0316
693,-223,55.5261,12.8093,0,0,0,0,0,0,0,-1,1917,1247,55.5261,-12.8093
700,-223,55.0945,12.2452,0,0,0,0,0,0,0,-1,1924,1247,55.0944,-12.2452
707,-223,60.5792,12.6989,0,0,0,0,0,0,0,-1,1931,1247,60.5792,-12.6989
714,-223,60.3617,12.0574,-0.000570695,0.000760445,0.00105349,0.001341,-0.00115125,1.06713,0.00144029,0.026373,1938,1247,60.3616,-12.0574
721,-223,60.248,11.3502,-0.000943109,0.00105315,0.00142846,0.00179765,-0.00168761,1.09034,0.00201255,0.0149286,1945,1247,60.248,-11.3502
728,-223,60.2208,10.5743,-0.00128809,0.000832833,0.00177973,0.00184409,-0.00229935,1.05408,0.00239702,0.0196128,1952,1247,60.2209,-10.5743
735,-223,60.1775,9.86304,-0.00175609,0.00067366,0.00218471,0.00195856,-0.00304098,1.03915,0.00290895,0.0201873,1959,1247,60.1775,-9.86306
742,-223,60.0881,9.12524,-0.0023083,0.000440004,0.00280865,0.00219264,-0.00406094,1.01291,0.00366382,0.018395,1966,1247,60.0881,-9.12529
749,-223,60.0314,8.29321,-0.0029074,0.000167863,0.00365879,0.00259899,-0.00533852,0.984321,0.00467282,0.0136531,1973,1247,60.0313,-8.29327
756,-223,59.9564,7.50769,-0.00359496,-0.000143245,0.0048516,0.00328032,-0.00701853,0.956283,0.00607521,0.0150146,1980,1247,59.9564,-7.50774
763,-223,59.8955,6.80627,-0.0044593,-0.000507443,0.00665095,0.00445488,-0.00942163,0.929791,0.00818088,0.0214491,1987,1247,59.8955,-6.80624
770,-223,60.0776,6.02942,0,0,0,0,0,0,0,-1,1994,1247,60.0775,-6.02945
777,-223,53.7227,4.88562,0,0,0,0,0,0,0,-1,2001,1247,53.7227,-4.8856
784,-223,68.8677,0.507813,0,0,0,0,0,0,0,-1,2008,1247,68.8676,-0.507816
791,-223,34.7136,2.92554,0,0,0,0,0,0,0,-1,2015,1247,34.7137,-2.92555
798,-223,0,0,0,0,0,0,0,0,0,-1,2022,1247,0,0
805,-223,0,0,0,0,0,0,0,0,0,-1,2029,1247,0,0
812,-223,0,0,0,0,0,0,0,0,0,-1,2036,1247,0,0
-700,-230,0,0,0,0,0,0,0,0,0,-1,524,1254,0,0
-693,-230,0,0,0,0,0,0,0,0,0,-1,531,1254,0,0
-686,-230,0,0,0,0,0,0,0,0,0,-1,538,1254,0,0
-679,-230,0,0,0,0,0,0,0,0,0,-1,545,1254,0,0
-672,-230,-38.5905,2.07617,0,0,0,0,0,0,0,-1,552,1254,-38.5905,-2.07614
-665,-230,-38.168,-9.9397,0,0,0,0,0,0,0,-1,559,1254,-38.168,9.93971
-658,-230,-38.8468,-8.48303,0,0,0,0,0,0,0,-1,566,1254,-38.8468,8.48304
-651,-230,-39.3627,-7.38525,0,0,0,0,0,0,0,-1,573,1254,-39.3627,7.38529
-644,-230,-48.2715,0.872925,0,0,0,0,0,0,0,-1,580,1254,-48.2715,-0.87288
-637,-230,-49.1636,-0.158325,0,0,0,0,0,0,0,-1,587,1254,-49.1636,0.158288
-630,-230,-41.3331,5.24744,0,0,0,0,0,0,0,-1,594,1254,-41.3331,-5.24744
-623,-230,-43.0007,6.90979,0,0,0,0,0,0,0,-1,601,1254,-43.0007,-6.90983
-616,-230,-43.0007,7.74646,0.0021956,0.00124099,-0.00316995,0.00492397,-0.00148739,-0.710674,0.0038748,0.0189935,608,1254,-43.0007,-7.74648
-609,-230,-43.0189,8.56885,0.00130901,0.00126253,-0.00250453,0.00379041,-0.00121887,-0.780759,0.00301646,0.0125624,615,1254,-43.0189,-8.5689
-602,-230,-43.062,9.35657,0.000499201,0.00110965,-0.00210949,0.00293588,-0.00132703,-0.857245,0.00251894,0.012967,622,1254,-43.062,-9.3566
-595,-230,-43.1179,10.1447,-0.00014208,0.000861418,-0.0021796,0.00259628,-0.00187694,-0.898528,0.00259372,0.0204154,629,1254,-43.1179,-10.1446
-588,-230,-43.2183,11.0049,-0.00085177,0.000423221,-0.00245823,0.00232528,-0.00275383,-0.912269,0.0029359,0.0295822,636,1254,-43.2183,-11.0048
-581,-230,-43.3889,12.1156,-0.00227962,-0.000299533,-0.00225966,0.00117745,-0.0037566,-0.991871,0.00297558,0.0499574,643,1254,-43.3889,-12.1156
-574,-230,-43.6872,13.212,0,0,0,0,0,0,0,-1,650,1254,-43.6872,-13.212
-567,-230,-43.4643,13.3251,0,0,0,0,0,0,0,-1,657,1254,-43.4643,-13.325
-560,-230,-43.9281,13.7024,0,0,0,0,0,0,0,-1,664,1254,-43.9281,-13.7024
-553,-230,-13.1939,4.9718,0,0,0,0,0,0,0,-1,671,1254,-13.1939,-4.97175
-546,-230,-15.23,0.453979,0,0,0,0,0,0,0,-1,678,1254,-15.23,-0.453996
-539,-230,-25.8232,0.512817,0,0,0,0,0,0,0,-1,685,1254,-25.8232,-0.512878
-532,-230,-21.1644,1.52966,0,0,0,0,0,0,0,-1,692,1254,-21.1644,-1.52969
-525,-230,-29.4775,0.731445,0,0,0,0,0,0,0,-1,699,1254,-29.4775,-0.731432
-518,-230,-61.9252,0.597778,0,0,0,0,0,0,0,-1,706,1254,-61.9252,-0.597773
-511,-230,-62.0916,0.569824,0.00256946,0.00840902,-0.00332077,0.00991108,0.0010674,-1.14601,0.00628189,0.0428627,713,1254,-62.0915,-0.569851
-504,-230,-62.1115,0.623047,0.00729406,0.0099889,-0.00363181,0.0125152,0.00476778,-0.96303,0.00729359,0.0366191,720,1254,-62.1115,-0.622989
-497,-230,0,0,0,0,0,0,0,0,0,-1,727,1254,0,0
-490,-230,0,0,0,0,0,0,0,0,0,-1,734,1254,0,0
-483,-230,0,0,0,0,0,0,0,0,0,-1,741,1254,0,0
-476,-230,0,0,0,0,0,0,0,0,0,-1,748,1254,0,0
-469,-230,0,0,0,0,0,0,0,0,0,-1,755,1254,0,0
-462,-230,0,0,0,0,0,0,0,0,0,-1,762,1254,0,0
-455,-230,0,0,0,0,0,0,0,0,0,-1,769,1254,0,0
-448,-230,0,0,0,0,0,0,0,0,0,-1,776,1254,0,0
-441,-230,0,0,0,0,0,0,0,0,0,-1,783,1254,0,0
-434,-230,0,0,0,0,0,0,0,0,0,-1,790,1254,0,0
-427,-230,0,0,0,0,0,0,0,0,0,-1,797,1254,0,0
-420,-230,0,0,0,0,0,0,0,0,0,-1,804,1254,0,0
-413,-230,0,0,0,0,0,0,0,0,0,-1,811,1254,0,0
-406,-230,0,0,0,0,0,0,0,0,0,-1,818,1254,0,0
-399,-230,0,0,0,0,0,0,0,0,0,-1,825,1254,0,0
-392,-230,0,0,0,0,0,0,0,0,0,-1,832,1254,0,0
-385,-230,0,0,0,0,0,0,0,0,0,-1,839,1254,0,0
-378,-230,0,0,0,0,0,0,0,0,0,-1,846,1254,0,0
-371,-230,0,0,0,0,0,0,0,0,0,-1,853,1254,0,0
-364,-230,0,0,0,0,0,0,0,0,0,-1,860,1254,0,0
-357,-230,0,0,0,0,0,0,0,0,0,-1,867,1254,0,0
-350,-230,0,0,0,0,0,0,0,0,0,-1,874,1254,0,0
-343,-230,0,0,0,0,0,0,0,0,0,-1,881,1254,0,0
-336,-230,0,0,0,0,0,0,0,0,0,-1,888,1254,0,0
-329,-230,0,0,0,0,0,0,0,0,0,-1,895,1254,0,0
-322,-230,0,0,0,0,0,0,0,0,0,-1,902,1254,0,0
-315,-230,0,0,0,0,0,0,0,0,0,-1,909,1254,0,0
-308,-230,0,0,0,0,0,0,0,0,0,-1,916,1254,0,0
-301,-230,0,0,0,0,0,0,0,0,0,-1,923,1254,0,0
-294,-230,0,0,0,0,0,0,0,0,0,-1,930,1254,0,0
-287,-230,0,0,0,0,0,0,0,0,0,-1,937,1254,0,0
-280,-230,0,0,0,0,0,0,0,0,0,-1,944,1254,0,0
-273,-230,0,0,0,0,0,0,0,0,0,-1,951,1254,0,0
-266,-230,0,0,0,0,0,0,0,0,0,-1,958,1254,0,0
-259,-230,0,0,0,0,0,0,0,0,0,-1,965,1254,0,0
-252,-230,0,0,0,0,0,0,0,0,0,-1,972,1254,0,0
-245,-230,0,0,0,0,0,0,0,0,0,-1,979,1254,0,0
-238,-230,0,0,0,0,0,0,0,0,0,-1,986,1254,0,0
-231,-230,0,0,0,0,0,0,0,0,0,-1,993,1254,0,0
-224,-230,0,0,0,0,0,0,0,0,0,-1,1000,1254,0,0
-217,-230,0,0,0,0,0,0,0,0,0,-1,1007,1254,0,0
-210,-230,0,0,0,0,0,0,0,0,0,-1,1014,1254,0,0
-203,-230,0,0,0,0,0,0,0,0,0,-1,1021,1254,0,0
-196,-230,0,0,0,0,0,0,0,0,0,-1,1028,1254,0,0
-189,-230,0,0,0,0,0,0,0,0,0,-1,1035,1254,0,0
-182,-230,0,0,0,0,0,0,0,0,0,-1,1042,1254,0,0
-175,-230,0,0,0,0,0,0,0,0,0,-1,1049,1254,0,0
-168,-230,0,0,0,0,0,0,0,0,0,-1,1056,1254,0,0
-161,-230,0,0,0,0,0,0,0,0,0,-1,1063,1254,0,0
-154,-230,0,0,0,0,0,0,0,0,0,-1,1070,1254,0,0
-147,-230,0,0,0,0,0,0,0,0,0,-1,1077,1254,0,0
-140,-230,0,0,0,0,0,0,0,0,0,-1,1084,1254,0,0
-133,-230,0,0,0,0,0,0,0,0,0,-1,1091,1254,0,0
-126,-230,0,0,0,0,0,0,0,0,0,-1,1098,1254,0,0
-119,-230,0,0,0,0,0,0,0,0,0,-1,1105,1254,0,0
-112,-230,0,0,0,0,0,0,0,0,0,-1,1112,1254,0,0
-105,-230,0,0,0,0,0,0,0,0,0,-1,1119,1254,0,0
-98,-230,0,0,0,0,0,0,0,0,0,-1,1126,1254,0,0
-91,-230,0,0,0,0,0,0,0,0,0,-1,1133,1254,0,0
-84,-230,0,0,0,0,0,0,0,0,0,-1,1140,1254,0,0
-77,-230,0,0,0,0,0,0,0,0,0,-1,1147,1254,0,0
-70,-230,0,0,0,0,0,0,0,0,0,-1,1154,1254,0,0
-63,-230,0,0,0,0,0,0,0,0,0,-1,1161,1254,0,0
-56,-230,0,0,0,0,0,0,0,0,0,-1,1168,1254,0,0
-49,-230,0,0,0,0,0,0,0,0,0,-1,1175,1254,0,0
-42,-230,0,0,0,0,0,0,0,0,0,-1,1182,1254,0,0
-35,-230,0,0,0,0,0,0,0,0,0,-1,1189,1254,0,0
-28,-230,0,0,0,0,0,0,0,0,0,-1,1196,1254,0,0
-21,-230,0,0,0,0,0,0,0,0,0,-1,1203,1254,0,0
-14,-230,0,0,0,0,0,0,0,0,0,-1,1210,1254,0,0
-7,-230,0,0,0,0,0,0,0,0,0,-1,1217,1254,0,0
0,-230,0,0,0,0,0,0,0,0,0,-1,1224,1254,0,0
7,-230,0,0,0,0,0,0,0,0,0,-1,1231,1254,0,0
14,-230,0,0,0,0,0,0,0,0,0,-1,1238,1254,0,0
21,-230,0,0,0,0,0,0,0,0,0,-1,1245,1254,0,0
28,-230,0,0,0,0,0,0,0,0,0,-1,1252,1254,0,0
35,-230,0,0,0,0,0,0,0,0,0,-1,1259,1254,0,0
42,-230,0,0,0,0,0,0,0,0,0,-1,1266,1254,0,0
49,-230,0,0,0,0,0,0,0,0,0,-1,1273,1254,0,0
56,-230,0,0,0,0,0,0,0,0,0,-1,1280,1254,0,0
63,-230,0,0,0,0,0,0,0,0,0,-1,1287,1254,0,0
70,-230,0,0,0,0,0,0,0,0,0,-1,1294,1254,0,0
77,-230,0,0,0,0,0,0,0,0,0,-1,1301,1254,0,0
84,-230,0,0,0,0,0,0,0,0,0,-1,1308,1254,0,0
91,-230,0,0,0,0,0,0,0,0,0,-1,1315,1254,0,0
98,-230,0,0,0,0,0,0,0,0,0,-1,1322,1254,0,0
105,-230,0,0,0,0,0,0,0,0,0,-1,1329,1254,0,0
112,-230,0,0,0,0,0,0,0,0,0,-1,1336,1254,0,0
119,-230,0,0,0,0,0,0,0,0,0,-1,1343,1254,0,0
126,-230,0,0,0,0,0,0,0,0,0,-1,1350,1254,0,0
133,-230,0,0,0,0,0,0,0,0,0,-1,1357,1254,0,0
140,-230,0,0,0,0,0,0,0,0,0,-1,1364,1254,0,0
147,-230,0,0,0,0,0,0,0,0,0,-1,1371,1254,0,0
154,-230,0,0,0,0,0,0,0,0,0,-1,1378,1254,0,0
161,-230,0,0,0,0,0,0,0,0,0,-1,1385,1254,0,0
168,-230,0,0,0,0,0,0,0,0,0,-1,1392,1254,0,0
175,-230,0,0,0,0,0,0,0,0,0,-1,1399,1254,0,0
182,-230,0,0,0,0,0,0,0,0,0,-1,1406,1254,0,0
189,-230,0,0,0,0,0,0,0,0,0,-1,1413,1254,0,0
196,-230,0,0,0,0,0,0,0,0,0,-1,1420,1254,0,0
203,-230,0,0,0,0,0,0,0,0,0,-1,1427,1254,0,0
210,-230,0,0,0,0,0,0,0,0,0,-1,1434,1254,0,0
217,-230,0,0,0,0,0,0,0,0,0,-1,1441,1254,0,0
224,-230,0,0,0,0,0,0,0,0,0,-1,1448,1254,0,0
231,-230,0,0,0,0,0,0,0,0,0,-1,1455,1254,0,0
238,-230,0,0,0,0,0,0,0,0,0,-1,1462,1254,0,0
245,-230,0,0,0,0,0,0,0,0,0,-1,1469,1254,0,0
252,-230,0,0,0,0,0,0,0,0,0,-1,1476,1254,0,0
259,-230,0,0,0,0,0,0,0,0,0,-1,1483,1254,0,0
266,-230,0,0,0,0,0,0,0,0,0,-1,1490,1254,0,0
273,-230,0,0,0,0,0,0,0,0,0,-1,1497,1254,0,0
280,-230,0,0,0,0,0,0,0,0,0,-1,1504,1254,0,0
287,-230,0,0,0,0,0,0,0,0,0,-1,1511,1254,0,0
294,-230,0,0,0,0,0,0,0,0,0,-1,1518,1254,0,0
301,-230,0,0,0,0,0,0,0,0,0,-1,1525,1254,0,0
308,-230,0,0,0,0,0,0,0,0,0,-1,1532,1254,0,0
315,-230,0,0,0,0,0,0,0,0,0,-1,1539,1254,0,0
322,-230,0,0,0,0,0,0,0,0,0,-1,1546,1254,0,0
329,-230,0,0,0,0,0,0,0,0,0,-1,1553,1254,0,0
336,-230,0,0,0,0,0,0,0,0,0,-1,1560,1254,0,0
343,-230,0,0,0,0,0,0,0,0,0,-1,1567,1254,0,0
350,-230,0,0,0,0,0,0,0,0,0,-1,1574,1254,0,0
357,-230,0,0,0,0,0,0,0,0,0,-1,1581,1254,0,0
364,-230,0,0,0,0,0,0,0,0,0,-1,1588,1254,0,0
371,-230,0,0,0,0,0,0,0,0,0,-1,1595,1254,0,0
378,-230,0,0,0,0,0,0,0,0,0,-1,1602,1254,0,0
385,-230,0,0,0,0,0,0,0,0,0,-1,1609,1254,0,0
392,-230,0,0,0,0,0,0,0,0,0,-1,1616,1254,0,0
399,-230,0,0,0,0,0,0,0,0,0,-1,1623,1254,0,0
406,-230,0,0,0,0,0,0,0,0,0,-1,1630,1254,0,0
413,-230,0,0,0,0,0,0,0,0,0,-1,1637,1254,0,0
420,-230,0,0,0,0,0,0,0,0,0,-1,1644,1254,0,0
427,-230,0,0,0,0,0,0,0,0,0,-1,1651,1254,0,0
434,-230,0,0,0,0,0,0,0,0,0,-1,1658,1254,0,0
441,-230,0,0,0,0,0,0,0,0,0,-1,1665,1254,0,0
448,-230,0,0,0,0,0,0,0,0,0,-1,1672,1254,0,0
455,-230,0,0,0,0,0,0,0,0,0,-1,1679,1254,0,0
462,-230,0,0,0,0,0,0,0,0,0,-1,1686,1254,0,0
469,-230,0,0,0,0,0,0,0,0,0,-1,1693,1254,0,0
476,-230,0,0,0,0,0,0,0,0,0,-1,1700,1254,0,0
483,-230,0,0,0,0,0,0,0,0,0,-1,1707,1254,0,0
490,-230,0,0,0,0,0,0,0,0,0,-1,1714,1254,0,0
497,-230,0,0,0,0,0,0,0,0,0,-1,1721,1254,0,0
504,-230,0,0,0,0,0,0,0,0,0,-1,1728,1254,0,0
511,-230,0,0,0,0,0,0,0,0,0,-1,1735,1254,0,0
518,-230,0,0,0,0,0,0,0,0,0,-1,1742,1254,0,0
525,-230,0,0,0,0,0,0,0,0,0,-1,1749,1254,0,0
532,-230,0,0,0,0,0,0,0,0,0,-1,1756,1254,0,0
539,-230,0,0,0,0,0,0,0,0,0,-1,1763,1254,0,0
546,-230,0,0,0,0,0,0,0,0,0,-1,1770,1254,0,0
553,-230,0,0,0,0,0,0,0,0,0,-1,1777,1254,0,0
560,-230,0,0,0,0,0,0,0,0,0,-1,1784,1254,0,0
567,-230,0,0,0,0,0,0,0,0,0,-1,1791,1254,0,0
574,-230,0,0,0,0,0,0,0,0,0,-1,1798,1254,0,0
581,-230,0,0,0,0,0,0,0,0,0,-1,1805,1254,0,0
588,-230,0,0,0,0,0,0,0,0,0,-1,1812,1254,0,0
595,-230,0,0,0,0,0,0,0,0,0,-1,1819,1254,0,0
602,-230,0,0,0,0,0,0,0,0,0,-1,1826,1254,0,0
609,-230,0,0,0,0,0,0,0,0,0,-1,1833,1254,0,0
616,-230,78.8636,2.53198,0.00786951,0.00613057,-0.00367447,0.010776,0.0032241,-0.669222,0.00638657,0.0377833,1840,1254,78.8637,-2.53197
623,-230,78.959,2.4635,0.00411735,0.00549847,-0.00245911,0.00736214,0.00225368,-0.922281,0.00435575,0.036046,1847,1254,78.959,-2.46355
630,-230,78.787,2.40735,0.000576757,0.0044919,-0.00120697,0.00483408,0.000234576,-1.29454,0.00314744,0.0304706,1854,1254,78.787,-2.40731
637,-230,78.6525,2.34998,-0.00258061,0.0030533,9.31418e-05,0.00305484,-0.00258215,1.55427,0.00325833,0.0261691,1861,1254,78.6524,-2.34996
644,-230,78.616,2.28284,-0.00316987,0.00177825,0.000555298,0.0018398,-0.00323143,1.4604,0.00296439,0.0233509,1868,1254,78.616,-2.28289
651,-230,78.6322,2.30212,0,0,0,0,0,0,0,-1,1875,1254,78.6322,-2.30211
658,-230,78.1301,1.74463,0,0,0,0,0,0,0,-1,1882,1254,78.1301,-1.74469
665,-230,56.2585,2.51587,0,0,0,0,0,0,0,-1,1889,1254,56.2586,-2.51586
672,-230,43.0962,2.78699,0,0,0,0,0,0,0,-1,1896,1254,43.0962,-2.78698
679,-230,27.9967,2.37708,0,0,0,0,0,0,0,-1,1903,1254,27.9967,-2.3771
686,-230,40.8854,10.1788,0,0,0,0,0,0,0,-1,1910,1254,40.8853,-10.1788
693,-230,50.7637,12.0411,0,0,0,0,0,0,0,-1,1917,1254,50.7636,-12.0412
700,-230,59.9398,13.5657,0,0,0,0,0,0,0,-1,1924,1254,59.9398,-13.5657
707,-230,59.5541,12.9365,0,0,0,0,0,0,0,-1,1931,1254,59.554,-12.9365
714,-230,59.4834,12.1827,-0.000719222,0.000333887,0.00135687,0.00126279,-0.00164813,0.970486,0.00168552,0.0226835,1938,1254,59.4834,-12.1827
721,-230,59.4375,11.4189,-0.00133124,0.000592627,0.00173663,0.00161594,-0.00235455,1.03832,0.00230555,0.0139344,1945,1254,59.4375,-11.419
728,-230,59.3624,10.6599,-0.00184429,0.000463125,0.0021001,0.00170555,-0.00308672,1.03657,0.00280486,0.0151464,1952,1254,59.3625,-10.6599
735,-230,59.3212,9.90588,-0.00242751,0.000348865,0.00254359,0.00185842,-0.00393707,1.03519,0.00341702,0.0160308,1959,1254,59.3212,-9.90588
742,-230,59.2751,9.11365,-0.00308931,0.000167764,0.0031884,0.00211945,-0.005041,1.02151,0.00424724,0.0128268,1966,1254,59.2752,-9.11364
749,-230,59.2412,8.30737,-0.00379697,-7.48351e-05,0.00404058,0.00251268,-0.00638448,1.00121,0.00529642,0.0118719,1973,1254,59.2412,-8.3074
756,-230,59.1831,7.54626,-0.00464174,-0.000384108,0.00526369,0.00316496,-0.0081908,0.977559,0.0067669,0.0163698,1980,1254,59.1831,-7.54622
763,-230,59.049,6.81799,-0.00566624,-0.000747134,0.00707131,0.00428016,-0.0106935,0.952764,0.00890547,0.0376613,1987,1254,59.0489,-6.81801
770,-230,59.2305,6.04236,0,0,0,0,0,0,0,-1,1994,1254,59.2305,-6.04236
777,-230,41.8693,3.74707,0,0,0,0,0,0,0,-1,2001,1254,41.8692,-3.74713
784,-230,35.8896,1.80334,0,0,0,0,0,0,0,-1,2008,1254,35.8897,-1.80338
791,-230,35.6028,2.20642,0,0,0,0,0,0,0,-1,2015,1254,35.6027,-2.2064
798,-230,0,0,0,0,0,0,0,0,0,-1,2022,1254,0,0
805,-230,0,0,0,0,0,0,0,0,0,-1,2029,1254,0,0
812,-230,0,0,0,0,0,0,0,0,0,-1,2036,1254,0,0
-700,-237,0,0,0,0,0,0,0,0,0,-1,524,1261,0,0
-693,-237,0,0,0,0,0,0,0,0,0,-1,531,1261,0,0
-686,-237,0,0,0,0,0,0,0,0,0,-1,538,1261,0,0
-679,-237,0,0,0,0,0,0,0,0,0,-1,545,1261,0,0
-672,-237,-36.6405,-12.5112,0,0,0,0,0,0,0,-1,552,1261,-36.6405,12.5113
-665,-237,-37.1436,-10.5648,0,0,0,0,0,0,0,-1,559,1261,-37.1436,10.5649
-658,-237,-37.8344,-8.67175,0,0,0,0,0,0,0,-1,566,1261,-37.8344,8.67179
-651,-237,-46.9487,1.65137,0,0,0,0,0,0,0,-1,573,1261,-46.9487,-1.65142
-644,-237,-47.6604,0.785034,0,0,0,0,0,0,0,-1,580,1261,-47.6604,-0.785034
-637,-237,-33.4961,2.71313,0,0,0,0,0,0,0,-1,587,1261,-33.4961,-2.71312
-630,-237,-41.1737,5.36414,0,0,0,0,0,0,0,-1,594,1261,-41.1737,-5.3641
-623,-237,-42.2094,6.97595,0,0,0,0,0,0,0,-1,601,1261,-42.2094,-6.97598
-616,-237,-42.1144,7.75085,0.00153915,0.00108878,-0.00182957,0.00315734,-0.000529409,-0.724166,0.00230175,0.0165738,608,1261,-42.1144,-7.7509
-609,-237,-42.1927,8.60022,0.000990565,0.00125587,-0.00162923,0.00275783,-0.000511401,-0.826018,0.0020306,0.0168622,615,1261,-42.1927,-8.60023
-602,-237,-42.2183,9.41882,0.000375704,0.00108582,-0.00157083,0.00234122,-0.000879695,-0.896546,0.00192235,0.012989,622,1261,-42.2183,-9.41882
-595,-237,-42.2941,10.2262,-0.000178656,0.000737855,-0.00174877,0.00208741,-0.00152821,-0.913539,0.00209579,0.0171644,629,1261,-42.2941,-10.2262
-588,-237,-42.3472,11.0522,-0.000811285,0.000214049,-0.0020257,0.00179094,-0.00238818,-0.909337,0.00242102,0.0282055,636,1261,-42.3472,-11.0523
-581,-237,-42.4014,11.8688,-0.00203586,-0.000539675,-0.00197742,0.000826428,-0.00340196,-0.966236,0.00258782,0.026006,643,1261,-42.4014,-11.8687
-574,-237,-42.3538,12.4854,-0.00385844,-0.00111817,-0.00157215,-0.000402902,-0.00457371,-1.14382,0.00292411,0.03993,650,1261,-42.3538,-12.4853
-567,-237,-42.515,13.4028,-0.00485687,-0.00144174,-0.00100489,-0.001168,-0.00513061,-1.30484,0.00310518,0.0465133,657,1261,-42.515,-13.4028
-560,-237,-42.6152,13.8469,0,0,0,0,0,0,0,-1,664,1261,-42.6153,-13.8469
-553,-237,-20.6102,6.92139,0,0,0,0,0,0,0,-1,671,1261,-20.6102,-6.92138
-546,-237,-11.192,1.14014,0,0,0,0,0,0,0,-1,678,1261,-11.192,-1.14011
-539,-237,-16.512,1.53455,0,0,0,0,0,0,0,-1,685,1261,-16.512,-1.53457
-532,-237,-29.7025,1.23621,0,0,0,0,0,0,0,-1,692,1261,-29.7025,-1.23618
-525,-237,-47.2925,0.590942,0,0,0,0,0,0,0,-1,699,1261,-47.2925,-0.590989
-518,-237,-48.2897,0.765869,0,0,0,0,0,0,0,-1,706,1261,-48.2897,-0.765854
-511,-237,-61.9897,0.629639,0,0,0,0,0,0,0,-1,713,1261,-61.9897,-0.629623
-504,-237,-62.1678,0.617188,0.00688771,0.00948733,-0.00537736,0.0137197,0.0026553,-0.903983,0.00840243,0.042594,720,1261,-62.1678,-0.617165
-497,-237,-62.2423,0.561401,0,0,0,0,0,0,0,-1,727,1261,-62.2423,-0.56135
-490,-237,0,0,0,0,0,0,0,0,0,-1,734,1261,0,0
-483,-237,0,0,0,0,0,0,0,0,0,-1,741,1261,0,0
-476,-237,0,0,0,0,0,0,0,0,0,-1,748,1261,0,0
-469,-237,0,0,0,0,0,0,0,0,0,-1,755,1261,0,0
-462,-237,0,0,0,0,0,0,0,0,0,-1,762,1261,0,0
-455,-237,0,0,0,0,0,0,0,0,0,-1,769,1261,0,0
-448,-237,0,0,0,0,0,0,0,0,0,-1,776,1261,0,0
-441,-237,0,0,0,0,0,0,0,0,0,-1,783,1261,0,0
-434,-237,0,0,0,0,0,0,0,0,0,-1,790,1261,0,0
-427,-237,0,0,0,0,0,0,0,0,0,-1,797,1261,0,0
-420,-237,0,0,0,0,0,0,0,0,0,-1,804,1261,0,0
-413,-237,0,0,0,0,0,0,0,0,0,-1,811,1261,0,0
-406,-237,0,0,0,0,0,0,0,0,0,-1,818,1261,0,0
-399,-237,0,0,0,0,0,0,0,0,0,-1,825,1261,0,0
-392,-237,0,0,0,0,0,0,0,0,0,-1,832,1261,0,0
-385,-237,0,0,0,0,0,0,0,0,0,-1,839,1261,0,0
-378,-237,0,0,0,0,0,0,0,0,0,-1,846,1261,0,0
-371,-237,0,0,0,0,0,0,0,0,0,-1,853,1261,0,0
-364,-237,0,0,0,0,0,0,0,0,0,-1,860,1261,0,0
-357,-237,0,0,0,0,0,0,0,0,0,-1,867,1261,0,0
-350,-237,0,0,0,0,0,0,0,0,0,-1,874,1261,0,0
-343,-237,0,0,0,0,0,0,0,0,0,-1,881,1261,0,0
-336,-237,0,0,0,0,0,0,0,0,0,-1,888,1261,0,0
-329,-237,0,0,0,0,0,0,0,0,0,-1,895,1261,0,0
-322,-237,0,0,0,0,0,0,0,0,0,-1,902,1261,0,0
-315,-237,0,0,0,0,0,0,0,0,0,-1,909,1261,0,0
-308,-237,0,0,0,0,0,0,0,0,0,-1,916,1261,0,0
-301,-237,0,0,0,0,0,0,0,0,0,-1,923,1261,0,0
-294,-237,0,0,0,0,0,0,0,0,0,-1,930,1261,0,0
-287,-237,0,0,0,0,0,0,0,0,0,-1,937,1261,0,0
-280,-237,0,0,0,0,0,0,0,0,0,-1,944,1261,0,0
-273,-237,0,0,0,0,0,0,0,0,0,-1,951,1261,0,0
-266,-237,0,0,0,0,0,0,0,0,0,-1,958,1261,0,0
-259,-237,0,0,0,0,0,0,0,0,0,-1,965,1261,0,0
-252,-237,0,0,0,0,0,0,0,0,0,-1,972,1261,0,0
-245,-237,0,0,0,0,0,0,0,0,0,-1,979,1261,0,0
-238,-237,0,0,0,0,0,0,0,0,0,-1,986,1261,0,0
-231,-237,0,0,0,0,0,0,0,0,0,-1,993,1261,0,0
-224,-237,0,0,0,0,0,0,0,0,0,-1,1000,1261,0,0
-217,-237,0,0,0,0,0,0,0,0,0,-1,1007,1261,0,0
-210,-237,0,0,0,0,0,0,0,0,0,-1,1014,1261,0,0
-203,-237,0,0,0,0,0,0,0,0,0,-1,1021,1261,0,0
-196,-237,0,0,0,0,0,0,0,0,0,-1,1028,1261,0,0
-189,-237,0,0,0,0,0,0,0,0,0,-1,1035,1261,0,0
-182,-237,0,0,0,0,0,0,0,0,0,-1,1042,1261,0,0
-175,-237,0,0,0,0,0,0,0,0,0,-1,1049,1261,0,0
-168,-237,0,0,0,0,0,0,0,0,0,-1,1056,1261,0,0
-161,-237,0,0,0,0,0,0,0,0,0,-1,1063,1261,0,0
-154,-237,0,0,0,0,0,0,0,0,0,-1,1070,1261,0,0
-147,-237,0,0,0,0,0,0,0,0,0,-1,1077,1261,0,0
-140,-237,0,0,0,0,0,0,0,0,0,-1,1084,1261,0,0
-133,-237,0,0,0,0,0,0,0,0,0,-1,1091,1261,0,0
-126,-237,0,0,0,0,0,0,0,0,0,-1,1098,1261,0,0
-119,-237,0,0,0,0,0,0,0,0,0,-1,1105,1261,0,0
-112,-237,0,0,0,0,0,0,0,0,0,-1,1112,1261,0,0
-105,-237,0,0,0,0,0,0,0,0,0,-1,1119,1261,0,0
-98,-237,0,0,0,0,0,0,0,0,0,-1,1126,1261,0,0
-91,-237,0,0,0,0,0,0,0,0,0,-1,1133,1261,0,0
-84,-237,0,0,0,0,0,0,0,0,0,-1,1140,1261,0,0
-77,-237,0,0,0,0,0,0,0,0,0,-1,1147,1261,0,0
-70,-237,0,0,0,0,0,0,0,0,0,-1,1154,1261,0,0
-63,-237,0,0,0,0,0,0,0,0,0,-1,1161,1261,0,0
-56,-237,0,0,0,0,0,0,0,0,0,-1,1168,1261,0,0
-49,-237,0,0,0,0,0,0,0,0,0,-1,1175,1261,0,0
-42,-237,0,0,0,0,0,0,0,0,0,-1,1182,1261,0,0
-35,-237,0,0,0,0,0,0,0,0,0,-1,1189,1261,0,0
-28,-237,0,0,0,0,0,0,0,0,0,-1,1196,1261,0,0
-21,-237,0,0,0,0,0,0,0,0,0,-1,1203,1261,0,0
-14,-237,0,0,0,0,0,0,0,0,0,-1,1210,1261,0,0
-7,-237,0,0,0,0,0,0,0,0,0,-1,1217,1261,0,0
0,-237,0,0,0,0,0,0,0,0,0,-1,1224,1261,0,0
7,-237,0,0,0,0,0,0,0,0,0,-1,1231,1261,0,0
14,-237,0,0,0,0,0,0,0,0,0,-1,1238,1261,0,0
21,-237,0,0,0,0,0,0,0,0,0,-1,1245,1261,0,0
28,-237,0,0,0,0,0,0,0,0,0,-1,1252,1261,0,0
35,-237,0,0,0,0,0,0,0,0,0,-1,1259,1261,0,0
42,-237,0,0,0,0,0,0,0,0,0,-1,1266,1261,0,0
49,-237,0,0,0,0,0,0,0,0,0,-1,1273,1261,0,0
56,-237,0,0,0,0,0,0,0,0,0,-1,1280,1261,0,0
63,-237,0,0,0,0,0,0,0,0,0,-1,1287,1261,0,0
70,-237,0,0,0,0,0,0,0,0,0,-1,1294,1261,0,0
77,-237,0,0,0,0,0,0,0,0,0,-1,1301,1261,0,0
84,-237,0,0,0,0,0,0,0,0,0,-1,1308,1261,0,0
91,-237,0,0,0,0,0,0,0,0,0,-1,1315,1261,0,0
98,-237,0,0,0,0,0,0,0,0,0,-1,1322,1261,0,0
105,-237,0,0,0,0,0,0,0,0,0,-1,1329,1261,0,0
112,-237,0,0,0,0,0,0,0,0,0,-1,1336,1261,0,0
119,-237,0,0,0,0,0,0,0,0,0,-1,1343,1261,0,0
126,-237,0,0,0,0,0,0,0,0,0,-1,1350,1261,0,0
133,-237,0,0,0,0,0,0,0,0,0,-1,1357,1261,0,0
140,-237,0,0,0,0,0,0,0,0,0,-1,1364,1261,0,0
147,-237,0,0,0,0,0,0,0,0,0,-1,1371,1261,0,0
154,-237,0,0,0,0,0,0,0,0,0,-1,1378,1261,0,0
161,-237,0,0,0,0,0,0,0,0,0,-1,1385,1261,0,0
168,-237,0,0,0,0,0,0,0,0,0,-1,1392,1261,0,0
175,-237,0,0,0,0,0,0,0,0,0,-1,1399,1261,0,0
182,-237,0,0,0,0,0,0,0,0,0,-1,1406,1261,0,0
189,-237,0,0,0,0,0,0,0,0,0,-1,1413,1261,0,0
196,-237,0,0,0,0,0,0,0,0,0,-1,1420,1261,0,0
203,-237,0,0,0,0,0,0,0,0,0,-1,1427,1261,0,0
210,-237,0,0,0,0,0,0,0,0,0,-1,1434,1261,0,0
217,-237,0,0,0,0,0,0,0,0,0,-1,1441,1261,0,0
224,-237,0,0,0,0,0,0,0,0,0,-1,1448,1261,0,0
231,-237,0,0,0,0,0,0,0,0,0,-1,1455,1261,0,0
238,-237,0,0,0,0,0,0,0,0,0,-1,1462,1261,0,0
245,-237,0,0,0,0,0,0,0,0,0,-1,1469,1261,0,0
252,-237,0,0,0,0,0,0,0,0,0,-1,1476,1261,0,0
259,-237,0,0,0,0,0,0,0,0,0,-1,1483,1261,0,0
266,-237,0,0,0,0,0,0,0,0,0,-1,1490,1261,0,0
273,-237,0,0,0,0,0,0,0,0,0,-1,1497,1261,0,0
280,-237,0,0,0,0,0,0,0,0,0,-1,1504,1261,0,0
287,-237,0,0,0,0,0,0,0,0,0,-1,1511,1261,0,0
294,-237,0,0,0,0,0,0,0,0,0,-1,1518,1261,0,0
301,-237,0,0,0,0,0,0,0,0,0,-1,1525,1261,0,0
308,-237,0,0,0,0,0,0,0,0,0,-1,1532,1261,0,0
315,-237,0,0,0,0,0,0,0,0,0,-1,1539,1261,0,0
322,-237,0,0,0,0,0,0,0,0,0,-1,1546,1261,0,0
329,-237,0,0,0,0,0,0,0,0,0,-1,1553,1261,0,0
336,-237,0,0,0,0,0,0,0,0,0,-1,1560,1261,0,0
343,-237,0,0,0,0,0,0,0,0,0,-1,1567,1261,0,0
350,-237,0,0,0,0,0,0,0,0,0,-1,1574,1261,0,0
357,-237,0,0,0,0,0,0,0,0,0,-1,1581,1261,0,0
364,-237,0,0,0,0,0,0,0,0,0,-1,1588,1261,0,0
371,-237,0,0,0,0,0,0,0,0,0,-1,1595,1261,0,0
378,-237,0,0,0,0,0,0,0,0,0,-1,1602,1261,0,0
385,-237,0,0,0,0,0,0,0,0,0,-1,1609,1261,0,0
392,-237,0,0,0,0,0,0,0,0,0,-1,1616,1261,0,0
399,-237,0,0,0,0,0,0,0,0,0,-1,1623,1261,0,0
406,-237,0,0,0,0,0,0,0,0,0,-1,1630,1261,0,0
413,-237,0,0,0,0,0,0,0,0,0,-1,1637,1261,0,0
420,-237,0,0,0,0,0,0,0,0,0,-1,1644,1261,0,0
427,-237,0,0,0,0,0,0,0,0,0,-1,1651,1261,0,0
434,-237,0,0,0,0,0,0,0,0,0,-1,1658,1261,0,0
441,-237,0,0,0,0,0,0,0,0,0,-1,1665,1261,0,0
448,-237,0,0,0,0,0,0,0,0,0,-1,1672,1261,0,0
455,-237,0,0,0,0,0,0,0,0,0,-1,1679,1261,0,0
462,-237,0,0,0,0,0,0,0,0,0,-1,1686,1261,0,0
469,-237,0,0,0,0,0,0,0,0,0,-1,1693,1261,0,0
476,-237,0,0,0,0,0,0,0,0,0,-1,1700,1261,0,0
483,-237,0,0,0,0,0,0,0,0,0,-1,1707,1261,0,0
490,-237,0,0,0,0,0,0,0,0,0,-1,1714,1261,0,0
497,-237,0,0,0,0,0,0,0,0,0,-1,1721,1261,0,0
504,-237,0,0,0,0,0,0,0,0,0,-1,1728,1261,0,0
511,-237,0,0,0,0,0,0,0,0,0,-1,1735,1261,0,0
518,-237,0,0,0,0,0,0,0,0,0,-1,1742,1261,0,0
525,-237,0,0,0,0,0,0,0,0,0,-1,1749,1261,0,0
532,-237,0,0,0,0,0,0,0,0,0,-1,1756,1261,0,0
539,-237,0,0,0,0,0,0,0,0,0,-1,1763,1261,0,0
546,-237,0,0,0,0,0,0,0,0,0,-1,1770,1261,0,0
553,-237,0,0,0,0,0,0,0,0,0,-1,1777,1261,0,0
560,-237,0,0,0,0,0,0,0,0,0,-1,1784,1261,0,0
567,-237,0,0,0,0,0,0,0,0,0,-1,1791,1261,0,0
574,-237,0,0,0,0,0,0,0,0,0,-1,1798,1261,0,0
581,-237,0,0,0,0,0,0,0,0,0,-1,1805,1261,0,0
588,-237,0,0,0,0,0,0,0,0,0,-1,1812,1261,0,0
595,-237,0,0,0,0,0,0,0,0,0,-1,1819,1261,0,0
602,-237,0,0,0,0,0,0,0,0,0,-1,1826,1261,0,0
609,-237,0,0,0,0,0,0,0,0,0,-1,1833,1261,0,0
616,-237,78.8605,2.50989,0.0070243,0.00709486,-0.00423599,0.0112957,0.00282344,-0.789562,0.00678797,0.0382913,1840,1261,78.8605,-2.50984
623,-237,78.9318,2.47876,0.00304336,0.00642712,-0.00270103,0.00792241,0.00154808,-1.0652,0.00484867,0.0336324,1847,1261,78.9317,-2.47874
630,-237,78.7892,2.41467,-0.00107185,0.005156,-0.00089879,0.00528311,-0.00119897,-1.4303,0.00398236,0.0265005,1854,1261,78.7892,-2.41465
637,-237,78.6163,2.2821,-0.00454443,0.00334688,0.000855605,0.00343858,-0.00463613,1.46403,0.004679,0.0223549,1861,1261,78.6163,-2.28213
644,-237,78.5345,2.2196,-0.00426591,0.0019727,0.00103102,0.00213868,-0.00443189,1.41118,0.00386977,0.045555,1868,1261,78.5346,-2.21966
651,-237,78.4521,2.16772,0,0,0,0,0,0,0,-1,1875,1261,78.4522,-2.16773
658,-237,76.8235,1.29675,0,0,0,0,0,0,0,-1,1882,1261,76.8235,-1.2968
665,-237,57.9302,3.30676,0,0,0,0,0,0,0,-1,1889,1261,57.9302,-3.30671
672,-237,45.3922,1.95618,0,0,0,0,0,0,0,-1,1896,1261,45.3922,-1.95623
679,-237,23.1501,7.37488,0,0,0,0,0,0,0,-1,1903,1261,23.1502,-7.37493
686,-237,36.8348,9.99426,0,0,0,0,0,0,0,-1,1910,1261,36.8349,-9.99424
693,-237,59.1952,14.4983,0,0,0,0,0,0,0,-1,1917,1261,59.1952,-14.4983
700,-237,58.9315,13.8177,0.000600514,-0.000244899,0.000767097,0.00105366,-0.000698045,0.533575,0.00101827,0.0437878,1924,1261,58.9316,-13.8178
707,-237,58.7605,13.0958,-6.94627e-05,-0.000188219,0.00109194,0.000964716,-0.0012224,0.758236,0.00126565,0.0300213,1931,1261,58.7605,-13.0958
714,-237,58.6583,12.2905,-0.000820939,5.48132e-05,0.00142988,0.00111236,-0.00187849,0.93398,0.00174555,0.0190712,1938,1261,58.6583,-12.2905
721,-237,58.5958,11.5112,-0.00150318,0.000308988,0.00182485,0.00144032,-0.00263451,1.01583,0.00238605,0.0194653,1945,1261,58.5958,-11.5113
728,-237,58.5792,10.7009,-0.00208572,0.000267154,0.0022172,0.00160069,-0.00341926,1.02931,0.00296099,0.0160321,1952,1261,58.5792,-10.7009
735,-237,58.5405,9.91418,-0.00275024,0.000211,0.00270667,0.00181555,-0.00435479,1.03568,0.00366162,0.0203845,1959,1261,58.5405,-9.91422
742,-237,58.5001,9.13879,-0.00351736,9.40717e-05,0.00337399,0.00211516,-0.00553845,1.0311,0.00456377,0.0165441,1966,1261,58.5001,-9.13883
749,-237,58.4216,8.37695,-0.00435716,-0.000111049,0.00423419,0.00250253,-0.00697075,1.01778,0.00566857,0.0106942,1973,1261,58.4217,-8.37693
756,-237,58.3588,7.60657,-0.00541198,-0.000414525,0.00550029,0.00312801,-0.00895451,0.998606,0.00724117,0.0184453,1980,1261,58.3587,-7.60654
763,-237,58.3987,6.74756,0,0,0,0,0,0,0,-1,1987,1261,58.3986,-6.7475
770,-237,57.7642,5.42041,0,0,0,0,0,0,0,-1,1994,1261,57.7642,-5.42046
777,-237,56.8215,4.47815,0,0,0,0,0,0,0,-1,2001,1261,56.8214,-4.47817
784,-237,36.3441,1.68591,0,0,0,0,0,0,0,-1,2008,1261,36.3441,-1.68592
791,-237,32.3025,6.03235,0,0,0,0,0,0,0,-1,2015,1261,32.3025,-6.03229
798,-237,0,0,0,0,0,0,0,0,0,-1,2022,1261,0,0
805,-237,0,0,0,0,0,0,0,0,0,-1,2029,1261,0,0
812,-237,0,0,0,0,0,0,0,0,0,-1,2036,1261,0,0
-700,-244,0,0,0,0,0,0,0,0,0,-1,524,1268,0,0
-693,-244,0,0,0,0,0,0,0,0,0,-1,531,1268,0,0
-686,-244,0,0,0,0,0,0,0,0,0,-1,538,1268,0,0
-679,-244,0,0,0,0,0,0,0,0,0,-1,545,1268,0,0
-672,-244,-44.7993,4.39575,0,0,0,0,0,0,0,-1,552,1268,-44.7992,-4.39576
-665,-244,-46.0868,3.64392,0,0,0,0,0,0,0,-1,559,1268,-46.0868,-3.64391
-658,-244,-45.9758,2.05481,0,0,0,0,0,0,0,-1,566,1268,-45.9758,-2.05486
-651,-244,-46.4749,1.28564,0,0,0,0,0,0,0,-1,573,1268,-46.4749,-1.28561
-644,-244,-32.7362,1.51355,0,0,0,0,0,0,0,-1,580,1268,-32.7362,-1.51355
-637,-244,-34.8414,3.00073,0,0,0,0,0,0,0,-1,587,1268,-34.8414,-3.00078
-630,-244,-41.4845,6.2876,0,0,0,0,0,0,0,-1,594,1268,-41.4845,-6.28762
-623,-244,-41.3834,7.05164,0.00178012,0.000212268,-0.000432959,0.00189173,0.000100652,-0.252303,0.00122898,0.0440477,601,1268,-41.3834,-7.05166
-616,-244,-41.3124,7.8197,0.00171755,0.000807279,-0.000771855,0.00215846,0.000366361,-0.519007,0.00133373,0.0191277,608,1268,-41.3124,-7.81974
-609,-244,-41.381,8.62512,0.00115883,0.00119767,-0.0009318,0.00211025,0.000246244,-0.795818,0.00133236,0.0154261,615,1268,-41.381,-8.62517
-602,-244,-41.4229,9.44763,0.000451122,0.00103013,-0.00112161,0.001899,-0.000417747,-0.911699,0.0014258,0.0151621,622,1268,-41.4229,-9.44762
-595,-244,-41.4931,10.303,-0.000237864,0.000631062,-0.00135439,0.00161897,-0.00122577,-0.940604,0.00164763,0.0190031,629,1268,-41.4931,-10.303
-588,-244,-41.5221,11.1212,-0.000990934,-3.06301e-06,-0.00159248,0.00117032,-0.00216432,-0.935777,0.00195356,0.0239623,636,1268,-41.5221,-11.1212
-581,-244,-41.5535,11.8922,-0.00212448,-0.000808247,-0.00164825,0.000308415,-0.00324114,-0.975342,0.00227056,0.0195533,643,1268,-41.5535,-11.8922
-574,-244,-41.6132,12.6475,-0.0037679,-0.00142194,-0.00148437,-0.000703036,-0.00448681,-1.11977,0.00278658,0.0331018,650,1268,-41.6132,-12.6475
-567,-244,-41.7772,13.4705,-0.00482535,-0.0017014,-0.00118691,-0.00130161,-0.00522514,-1.2459,0.00314079,0.0389024,657,1268,-41.7772,-13.4705
-560,-244,-41.8236,14.2458,-0.00419585,-0.000798517,-0.00106889,-0.0004902,-0.00450417,-1.28997,0.00285345,0.0444117,664,1268,-41.8236,-14.2459
-553,-244,-41.7652,15.0317,0,0,0,0,0,0,0,-1,671,1268,-41.7652,-15.0317
-546,-244,-11.2686,4.41772,0,0,0,0,0,0,0,-1,678,1268,-11.2686,-4.41767
-539,-244,-12.8706,0.3302,0,0,0,0,0,0,0,-1,685,1268,-12.8706,-0.330156
-532,-244,-18.1502,0.816528,0,0,0,0,0,0,0,-1,692,1268,-18.1502,-0.816514
-525,-244,-33.0835,0.693604,0,0,0,0,0,0,0,-1,699,1268,-33.0835,-0.69365
-518,-244,-47.5015,0.609131,0,0,0,0,0,0,0,-1,706,1268,-47.5015,-0.60919
-511,-244,-48.6138,1.11877,0,0,0,0,0,0,0,-1,713,1268,-48.6138,-1.11872
-504,-244,-62.186,0.800293,0,0,0,0,0,0,0,-1,720,1268,-62.186,-0.800318
-497,-244,-62.3389,0.715088,0,0,0,0,0,0,0,-1,727,1268,-62.3389,-0.715047
-490,-244,0,0,0,0,0,0,0,0,0,-1,734,1268,0,0
-483,-244,0,0,0,0,0,0,0,0,0,-1,741,1268,0,0
-476,-244,0,0,0,0,0,0,0,0,0,-1,748,1268,0,0
-469,-244,0,0,0,0,0,0,0,0,0,-1,755,1268,0,0
-462,-244,0,0,0,0,0,0,0,0,0,-1,762,1268,0,0
-455,-244,0,0,0,0,0,0,0,0,0,-1,769,1268,0,0
-448,-244,0,0,0,0,0,0,0,0,0,-1,776,1268,0,0
-441,-244,0,0,0,0,0,0,0,0,0,-1,783,1268,0,0
-434,-244,0,0,0,0,0,0,0,0,0,-1,790,1268,0,0
-427,-244,0,0,0,0,0,0,0,0,0,-1,797,1268,0,0
-420,-244,0,0,0,0,0,0,0,0,0,-1,804,1268,0,0
-413,-244,0,0,0,0,0,0,0,0,0,-1,811,1268,0,0
-406,-244,0,0,0,0,0,0,0,0,0,-1,818,1268,0,0
-399,-244,0,0,0,0,0,0,0,0,0,-1,825,1268,0,0
-392,-244,0,0,0,0,0,0,0,0,0,-1,832,1268,0,0
-385,-244,0,0,0,0,0,0,0,0,0,-1,839,1268,0,0
-378,-244,0,0,0,0,0,0,0,0,0,-1,846,1268,0,0
-371,-244,0,0,0,0,0,0,0,0,0,-1,853,1268,0,0
-364,-244,0,0,0,0,0,0,0,0,0,-1,860,1268,0,0
-357,-244,0,0,0,0,0,0,0,0,0,-1,867,1268,0,0
-350,-244,0,0,0,0,0,0,0,0,0,-1,874,1268,0,0
-343,-244,0,0,0,0,0,0,0,0,0,-1,881,1268,0,0
-336,-244,0,0,0,0,0,0,0,0,0,-1,888,1268,0,0
-329,-244,0,0,0,0,0,0,0,0,0,-1,895,1268,0,0
-322,-244,0,0,0,0,0,0,0,0,0,-1,902,1268,0,0
-315,-244,0,0,0,0,0,0,0,0,0,-1,909,1268,0,0
-308,-244,0,0,0,0,0,0,0,0,0,-1,916,1268,0,0
-301,-244,0,0,0,0,0,0,0,0,0,-1,923,1268,0,0
-294,-244,0,0,0,0,0,0,0,0,0,-1,930,1268,0,0
-287,-244,0,0,0,0,0,0,0,0,0,-1,937,1268,0,0
-280,-244,0,0,0,0,0,0,0,0,0,-1,944,1268,0,0
-273,-244,0,0,0,0,0,0,0,0,0,-1,951,1268,0,0
-266,-244,0,0,0,0,0,0,0,0,0,-1,958,1268,0,0
-259,-244,0,0,0,0,0,0,0,0,0,-1,965,1268,0,0
-252,-244,0,0,0,0,0,0,0,0,0,-1,972,1268,0,0
-245,-244,0,0,0,0,0,0,0,0,0,-1,979,1268,0,0
-238,-244,0,0,0,0,0,0,0,0,0,-1,986,1268,0,0
-231,-244,0,0,0,0,0,0,0,0,0,-1,993,1268,0,0
-224,-244,0,0,0,0,0,0,0,0,0,-1,1000,1268,0,0
-217,-244,0,0,0,0,0,0,0,0,0,-1,1007,1268,0,0
-210,-244,0,0,0,0,0,0,0,0,0,-1,1014,1268,0,0
-203,-244,0,0,0,0,0,0,0,0,0,-1,1021,1268,0,0
-196,-244,0,0,0,0,0,0,0,0,0,-1,1028,1268,0,0
-189,-244,0,0,0,0,0,0,0,0,0,-1,1035,1268,0,0
-182,-244,0,0,0,0,0,0,0,0,0,-1,1042,1268,0,0
-175,-244,0,0,0,0,0,0,0,0,0,-1,1049,1268,0,0
-168,-244,0,0,0,0,0,0,0,0,0,-1,1056,1268,0,0
-161,-244,0,0,0,0,0,0,0,0,0,-1,1063,1268,0,0
-154,-244,0,0,0,0,0,0,0,0,0,-1,1070,1268,0,0
-147,-244,0,0,0,0,0,0,0,0,0,-1,1077,1268,0,0
-140,-244,0,0,0,0,0,0,0,0,0,-1,1084,1268,0,0
-133,-244,0,0,0,0,0,0,0,0,0,-1,1091,1268,0,0
-126,-244,0,0,0,0,0,0,0,0,0,-1,1098,1268,0,0
-119,-244,0,0,0,0,0,0,0,0,0,-1,1105,1268,0,0
-112,-244,0,0,0,0,0,0,0,0,0,-1,1112,1268,0,0
-105,-244,0,0,0,0,0,0,0,0,0,-1,1119,1268,0,0
-98,-244,0,0,0,0,0,0,0,0,0,-1,1126,1268,0,0
-91,-244,0,0,0,0,0,0,0,0,0,-1,1133,1268,0,0
-84,-244,0,0,0,0,0,0,0,0,0,-1,1140,1268,0,0
-77,-244,0,0,0,0,0,0,0,0,0,-1,1147,1268,0,0
-70,-244,0,0,0,0,0,0,0,0,0,-1,1154,1268,0,0
-63,-244,0,0,0,0,0,0,0,0,0,-1,1161,1268,0,0
-56,-244,0,0,0,0,0,0,0,0,0,-1,1168,1268,0,0
-49,-244,0,0,0,0,0,0,0,0,0,-1,1175,1268,0,0
-42,-244,0,0,0,0,0,0,0,0,0,-1,1182,1268,0,0
-35,-244,0,0,0,0,0,0,0,0,0,-1,1189,1268,0,0
-28,-244,0,0,0,0,0,0,0,0,0,-1,1196,1268,0,0
-21,-244,0,0,0,0,0,0,0,0,0,-1,1203,1268,0,0
-14,-244,0,0,0,0,0,0,0,0,0,-1,1210,1268,0,0
-7,-244,0,0,0,0,0,0,0,0,0,-1,1217,1268,0,0
0,-244,0,0,0,0,0,0,0,0,0,-1,1224,1268,0,0
7,-244,0,0,0,0,0,0,0,0,0,-1,1231,1268,0,0
14,-244,0,0,0,0,0,0,0,0,0,-1,1238,1268,0,0
21,-244,0,0,0,0,0,0,0,0,0,-1,1245,1268,0,0
28,-244,0,0,0,0,0,0,0,0,0,-1,1252,1268,0,0
35,-244,0,0,0,0,0,0,0,0,0,-1,1259,1268,0,0
42,-244,0,0,0,0,0,0,0,0,0,-1,1266,1268,0,0
49,-244,0,0,0,0,0,0,0,0,0,-1,1273,1268,0,0
56,-244,0,0,0,0,0,0,0,0,0,-1,1280,1268,0,0
63,-244,0,0,0,0,0,0,0,0,0,-1,1287,1268,0,0
70,-244,0,0,0,0,0,0,0,0,0,-1,1294,1268,0,0
77,-244,0,0,0,0,0,0,0,0,0,-1,1301,1268,0,0
84,-244,0,0,0,0,0,0,0,0,0,-1,1308,1268,0,0
91,-244,0,0,0,0,0,0,0,0,0,-1,1315,1268,0,0
98,-244,0,0,0,0,0,0,0,0,0,-1,1322,1268,0,0
105,-244,0,0,0,0,0,0,0,0,0,-1,1329,1268,0,0
112,-244,0,0,0,0,0,0,0,0,0,-1,1336,1268,0,0
119,-244,0,0,0,0,0,0,0,0,0,-1,1343,1268,0,0
126,-244,0,0,0,0,0,0,0,0,0,-1,1350,1268,0,0
133,-244,0,0,0,0,0,0,0,0,0,-1,1357,1268,0,0
140,-244,0,0,0,0,0,0,0,0,0,-1,1364,1268,0,0
147,-244,0,0,0,0,0,0,0,0,0,-1,1371,1268,0,0
154,-244,0,0,0,0,0,0,0,0,0,-1,1378,1268,0,0
161,-244,0,0,0,0,0,0,0,0,0,-1,1385,1268,0,0
168,-244,0,0,0,0,0,0,0,0,0,-1,1392,1268,0,0
175,-244,0,0,0,0,0,0,0,0,0,-1,1399,1268,0,0
182,-244,0,0,0,0,0,0,0,0,0,-1,1406,1268,0,0
189,-244,0,0,0,0,0,0,0,0,0,-1,1413,1268,0,0
196,-244,0,0,0,0,0,0,0,0,0,-1,1420,1268,0,0
203,-244,0,0,0,0,0,0,0,0,0,-1,1427,1268,0,0
210,-244,0,0,0,0,0,0,0,0,0,-1,1434,1268,0,0
217,-244,0,0,0,0,0,0,0,0,0,-1,1441,1268,0,0
224,-244,0,0,0,0,0,0,0,0,0,-1,1448,1268,0,0
231,-244,0,0,0,0,0,0,0,0,0,-1,1455,1268,0,0
238,-244,0,0,0,0,0,0,0,0,0,-1,1462,1268,0,0
245,-244,0,0,0,0,0,0,0,0,0,-1,1469,1268,0,0
252,-244,0,0,0,0,0,0,0,0,0,-1,1476,1268,0,0
259,-244,0,0,0,0,0,0,0,0,0,-1,1483,1268,0,0
266,-244,0,0,0,0,0,0,0,0,0,-1,1490,1268,0,0
273,-244,0,0,0,0,0,0,0,0,0,-1,1497,1268,0,0
280,-244,0,0,0,0,0,0,0,0,0,-1,1504,1268,0,0
287,-244,0,0,0,0,0,0,0,0,0,-1,1511,1268,0,0
294,-244,0,0,0,0,0,0,0,0,0,-1,1518,1268,0,0
301,-244,0,0,0,0,0,0,0,0,0,-1,1525,1268,0,0
308,-244,0,0,0,0,0,0,0,0,0,-1,1532,1268,0,0
315,-244,0,0,0,0,0,0,0,0,0,-1,1539,1268,0,0
322,-244,0,0,0,0,0,0,0,0,0,-1,1546,1268,0,0
329,-244,0,0,0,0,0,0,0,0,0,-1,1553,1268,0,0
336,-244,0,0,0,0,0,0,0,0,0,-1,1560,1268,0,0
343,-244,0,0,0,0,0,0,0,0,0,-1,1567,1268,0,0
350,-244,0,0,0,0,0,0,0,0,0,-1,1574,1268,0,0
357,-244,0,0,0,0,0,0,0,0,0,-1,1581,1268,0,0
364,-244,0,0,0,0,0,0,0,0,0,-1,1588,1268,0,0
371,-244,0,0,0,0,0,0,0,0,0,-1,1595,1268,0,0
378,-244,0,0,0,0,0,0,0,0,0,-1,1602,1268,0,0
385,-244,0,0,0,0,0,0,0,0,0,-1,1609,1268,0,0
392,-244,0,0,0,0,0,0,0,0,0,-1,1616,1268,0,0
399,-244,0,0,0,0,0,0,0,0,0,-1,1623,1268,0,0
406,-244,0,0,0,0,0,0,0,0,0,-1,1630,1268,0,0
413,-244,0,0,0,0,0,0,0,0,0,-1,1637,1268,0,0
420,-244,0,0,0,0,0,0,0,0,0,-1,1644,1268,0,0
427,-244,0,0,0,0,0,0,0,0,0,-1,1651,1268,0,0
434,-244,0,0,0,0,0,0,0,0,0,-1,1658,1268,0,0
441,-244,0,0,0,0,0,0,0,0,0,-1,1665,1268,0,0
448,-244,0,0,0,0,0,0,0,0,0,-1,1672,1268,0,0
455,-244,0,0,0,0,0,0,0,0,0,-1,1679,1268,0,0
462,-244,0,0,0,0,0,0,0,0,0,-1,1686,1268,0,0
469,-244,0,0,0,0,0,0,0,0,0,-1,1693,1268,0,0
476,-244,0,0,0,0,0,0,0,0,0,-1,1700,1268,0,0
483,-244,0,0,0,0,0,0,0,0,0,-1,1707,1268,0,0
490,-244,0,0,0,0,0,0,0,0,0,-1,1714,1268,0,0
497,-244,0,0,0,0,0,0,0,0,0,-1,1721,1268,0,0
504,-244,0,0,0,0,0,0,0,0,0,-1,1728,1268,0,0
511,-244,0,0,0,0,0,0,0,0,0,-1,1735,1268,0,0
518,-244,0,0,0,0,0,0,0,0,0,-1,1742,1268,0,0
525,-244,0,0,0,0,0,0,0,0,0,-1,1749,1268,0,0
532,-244,0,0,0,0,0,0,0,0,0,-1,1756,1268,0,0
539,-244,0,0,0,0,0,0,0,0,0,-1,1763,1268,0,0
546,-244,0,0,0,0,0,0,0,0,0,-1,1770,1268,0,0
553,-244,0,0,0,0,0,0,0,0,0,-1,1777,1268,0,0
560,-244,0,0,0,0,0,0,0,0,0,-1,1784,1268,0,0
567,-244,0,0,0,0,0,0,0,0,0,-1,1791,1268,0,0
574,-244,0,0,0,0,0,0,0,0,0,-1,1798,1268,0,0
581,-244,0,0,0,0,0,0,0,0,0,-1,1805,1268,0,0
588,-244,0,0,0,0,0,0,0,0,0,-1,1812,1268,0,0
595,-244,0,0,0,0,0,0,0,0,0,-1,1819,1268,0,0
602,-244,0,0,0,0,0,0,0,0,0,-1,1826,1268,0,0
609,-244,0,0,0,0,0,0,0,0,0,-1,1833,1268,0,0
616,-244,78.7383,2.34766,0.00617713,0.00882045,-0.00433337,0.0120292,0.00296835,-0.933415,0.00723592,0.0353009,1840,1268,78.7383,-2.34768
623,-244,78.7734,2.39355,0.00190699,0.00808416,-0.00249666,0.00896706,0.0010241,-1.23089,0.0056676,0.0279603,1847,1268,78.7734,-2.39349
630,-244,78.6686,2.37939,-0.00270794,0.00645569,-0.000251182,0.00646257,-0.00271482,-1.54341,0.00544385,0.0248396,1854,1268,78.6685,-2.37939
637,-244,78.5419,2.25867,-0.00575513,0.00419832,0.00145442,0.00440648,-0.0059633,1.42863,0.00600945,0.0419037,1861,1268,78.5419,-2.25862
644,-244,78.4913,2.38025,-0.00471206,0.00270493,0.00122598,0.00290232,-0.00490946,1.41116,0.00455949,0.0498086,1868,1268,78.4913,-2.38021
651,-244,78.3812,2.40771,0,0,0,0,0,0,0,-1,1875,1268,78.3813,-2.40777
658,-244,71.6105,1.55334,0,0,0,0,0,0,0,-1,1882,1268,71.6104,-1.55332
665,-244,50.7988,1.09888,0,0,0,0,0,0,0,-1,1889,1268,50.7989,-1.09893
672,-244,32.224,3.6123,0,0,0,0,0,0,0,-1,1896,1268,32.224,-3.6123
679,-244,27.2593,7.90649,0,0,0,0,0,0,0,-1,1903,1268,27.2592,-7.9065
686,-244,58.0631,15.4027,0,0,0,0,0,0,0,-1,1910,1268,58.0631,-15.4027
693,-244,58,14.6979,-0.00160977,-0.0013765,0.00221706,0.000726987,-0.00371326,0.811677,0.00275005,0.0392173,1917,1268,58,-14.6979
700,-244,57.9957,13.9022,0.000614726,-0.000470371,0.000752803,0.00100012,-0.000855762,0.473155,0.00107257,0.018816,1924,1268,57.9957,-13.9023
707,-244,57.9218,13.13,-0.000111679,-0.000368766,0.00105549,0.000823064,-0.00130351,0.724804,0.00123818,0.0155904,1931,1268,57.9217,-13.13
714,-244,57.9751,12.3215,-0.000855339,-0.000100254,0.00141063,0.000982482,-0.00193808,0.916154,0.00171601,0.0167685,1938,1268,57.9752,-12.3216
721,-244,57.8411,11.5958,-0.00151748,0.000135032,0.00180117,0.00129042,-0.00267287,1.00045,0.00233414,0.0233575,1945,1268,57.841,-11.5958
728,-244,57.8186,10.7521,-0.0021316,0.000157776,0.00221735,0.00150847,-0.0034823,1.02368,0.00295559,0.0300153,1952,1268,57.8186,-10.7521
735,-244,57.7556,9.91711,-0.00285197,0.000137873,0.0027417,0.00176572,-0.00447982,1.03499,0.00371762,0.0300409,1959,1268,57.7556,-9.91706
742,-244,57.6676,9.22095,-0.00368469,5.48325e-05,0.00342235,0.00208488,-0.00571474,1.03541,0.00466283,0.0182022,1966,1268,57.6676,-9.22097
749,-244,57.4893,8.54688,-0.00461991,-0.000134412,0.00428524,0.00245949,-0.00721381,1.02648,0.00580538,0.0255478,1973,1268,57.4892,-8.5469
756,-244,57.2733,7.85315,-0.00584972,-0.000438231,0.00559087,0.00306721,-0.00935516,1.01076,0.00747205,0.0371403,1980,1268,57.2734,-7.85313
763,-244,57.2164,6.99585,0,0,0,0,0,0,0,-1,1987,1268,57.2165,-6.99582
770,-244,56.2969,5.43298,0,0,0,0,0,0,0,-1,1994,1268,56.2969,-5.43297
777,-244,48.7119,2.7002,0,0,0,0,0,0,0,-1,2001,1268,48.712,-2.70019
784,-244,31.7908,5.20081,0,0,0,0,0,0,0,-1,2008,1268,31.7907,-5.20083
791,-244,0,0,0,0,0,0,0,0,0,-1,2015,1268,0,0
798,-244,0,0,0,0,0,0,0,0,0,-1,2022,1268,0,0
805,-244,0,0,0,0,0,0,0,0,0,-1,2029,1268,0,0
812,-244,0,0,0,0,0,0,0,0,0,-1,2036,1268,0,0
-700,-251,0,0,0,0,0,0,0,0,0,-1,524,1275,0,0
-693,-251,0,0,0,0,0,0,0,0,0,-1,531,1275,0,0
-686,-251,0,0,0,0,0,0,0,0,0,-1,538,1275,0,0
-679,-251,0,0,0,0,0,0,0,0,0,-1,545,1275,0,0
-672,-251,0,0,0,0,0,0,0,0,0,-1,552,1275,0,0
-665,-251,-45.2521,2.44568,0,0,0,0,0,0,0,-1,559,1275,-45.2521,-2.44573
-658,-251,-45.5222,1.44397,0,0,0,0,0,0,0,-1,566,1275,-45.5221,-1.44401
-651,-251,-45.8498,0.382935,0,0,0,0,0,0,0,-1,573,1275,-45.8498,-0.382965
-644,-251,-46.2018,-0.658325,0,0,0,0,0,0,0,-1,580,1275,-46.2019,0.658365
-637,-251,-35.2292,3.33899,0,0,0,0,0,0,0,-1,587,1275,-35.2292,-3.33904
-630,-251,-40.7592,6.42542,0,0,0,0,0,0,0,-1,594,1275,-40.7592,-6.42538
-623,-251,-40.6395,7.13892,0.00324789,0.000764349,-8.35494e-05,0.0032507,0.000761542,-0.0335906,0.00196315,0.0412308,601,1275,-40.6394,-7.13896
-616,-251,-40.5296,7.88232,0.00285148,0.00119659,-0.000415848,0.0029501,0.00109797,-0.23285,0.00172169,0.020921,608,1275,-40.5296,-7.88231
-609,-251,-40.5793,8.66687,0.00195574,0.00148101,-0.000538225,0.00230662,0.00113014,-0.577723,0.00133181,0.0204256,615,1275,-40.5793,-8.66686
-602,-251,-40.6125,9.4873,0.000928286,0.00113928,-0.000707538,0.00174915,0.000318425,-0.859407,0.00107578,0.0144202,622,1275,-40.6126,-9.48731
-595,-251,-40.654,10.3114,-1.31132e-05,0.000585913,-0.000934331,0.00126756,-0.000694764,-0.940505,0.00114893,0.0151555,629,1275,-40.654,-10.3114
-588,-251,-40.7028,11.1134,-0.000911925,-0.000167351,-0.00116162,0.000680183,-0.00175946,-0.940471,0.00145375,0.0177263,636,1275,-40.7028,-11.1134
-581,-251,-40.734,11.9661,-0.0019934,-0.00106909,-0.00131339,-0.000138916,-0.00292357,-0.954572,0.00190443,0.0156778,643,1275,-40.734,-11.9661
-574,-251,-40.7807,12.8455,-0.00337711,-0.00180253,-0.00137449,-0.00100583,-0.00417382,-1.04548,0.00251522,0.0228494,650,1275,-40.7807,-12.8454
-567,-251,-40.9984,13.569,-0.00436186,-0.00213794,-0.00136449,-0.0014897,-0.00501009,-1.12729,0.00297072,0.0378061,657,1275,-40.9983,-13.569
-560,-251,-41.0768,14.4716,-0.00388212,-0.00111368,-0.00138788,-0.000537729,-0.00445807,-1.17744,0.00281001,0.047134,664,1275,-41.0769,-14.4716
-553,-251,-40.9189,15.351,0,0,0,0,0,0,0,-1,671,1275,-40.9189,-15.3509
-546,-251,-12.995,4.5675,0,0,0,0,0,0,0,-1,678,1275,-12.995,-4.56745
-539,-251,-10.7916,0.366333,0,0,0,0,0,0,0,-1,685,1275,-10.7916,-0.366282
-532,-251,-10.7391,-0.00769043,0,0,0,0,0,0,0,-1,692,1275,-10.7391,0.00773227
-525,-251,-29.4286,-0.250244,0,0,0,0,0,0,0,-1,699,1275,-29.4286,0.250266
-518,-251,-32.6981,0.678833,0,0,0,0,0,0,0,-1,706,1275,-32.6981,-0.678787
-511,-251,-29.4731,0.637085,0,0,0,0,0,0,0,-1,713,1275,-29.4731,-0.637025
-504,-251,-30.6428,0.792358,0,0,0,0,0,0,0,-1,720,1275,-30.6427,-0.792335
-497,-251,-54.1249,0.753784,0,0,0,0,0,0,0,-1,727,1275,-54.1249,-0.753774
-490,-251,0,0,0,0,0,0,0,0,0,-1,734,1275,0,0
-483,-251,0,0,0,0,0,0,0,0,0,-1,741,1275,0,0
-476,-251,0,0,0,0,0,0,0,0,0,-1,748,1275,0,0
-469,-251,0,0,0,0,0,0,0,0,0,-1,755,1275,0,0
-462,-251,0,0,0,0,0,0,0,0,0,-1,762,1275,0,0
-455,-251,0,0,0,0,0,0,0,0,0,-1,769,1275,0,0
-448,-251,0,0,0,0,0,0,0,0,0,-1,776,1275,0,0
-441,-251,0,0,0,0,0,0,0,0,0,-1,783,1275,0,0
-434,-251,0,0,0,0,0,0,0,0,0,-1,790,1275,0,0
-427,-251,0,0,0,0,0,0,0,0,0,-1,797,1275,0,0
-420,-251,0,0,0,0,0,0,0,0,0,-1,804,1275,0,0
-413,-251,0,0,0,0,0,0,0,0,0,-1,811,1275,0,0
-406,-251,0,0,0,0,0,0,0,0,0,-1,818,1275,0,0
-399,-251,0,0,0,0,0,0,0,0,0,-1,825,1275,0,0
-392,-251,0,0,0,0,0,0,0,0,0,-1,832,1275,0,0
-385,-251,0,0,0,0,0,0,0,0,0,-1,839,1275,0,0
-378,-251,0,0,0,0,0,0,0,0,0,-1,846,1275,0,0
-371,-251,0,0,0,0,0,0,0,0,0,-1,853,1275,0,0
-364,-251,0,0,0,0,0,0,0,0,0,-1,860,1275,0,0
-357,-251,0,0,0,0,0,0,0,0,0,-1,867,1275,0,0
-350,-251,0,0,0,0,0,0,0,0,0,-1,874,1275,0,0
-343,-251,0,0,0,0,0,0,0,0,0,-1,881,1275,0,0
-336,-251,0,0,0,0,0,0,0,0,0,-1,888,1275,0,0
-329,-251,0,0,0,0,0,0,0,0,0,-1,895,1275,0,0
-322,-251,0,0,0,0,0,0,0,0,0,-1,902,1275,0,0
-315,-251,0,0,0,0,0,0,0,0,0,-1,909,1275,0,0
-308,-251,0,0,0,0,0,0,0,0,0,-1,916,1275,0,0
-301,-251,0,0,0,0,0,0,0,0,0,-1,923,1275,0,0
-294,-251,0,0,0,0,0,0,0,0,0,-1,930,1275,0,0
-287,-251,0,0,0,0,0,0,0,0,0,-1,937,1275,0,0
-280,-251,0,0,0,0,0,0,0,0,0,-1,944,1275,0,0
-273,-251,0,0,0,0,0,0,0,0,0,-1,951,1275,0,0
-266,-251,0,0,0,0,0,0,0,0,0,-1,958,1275,0,0
-259,-251,0,0,0,0,0,0,0,0,0,-1,965,1275,0,0
-252,-251,0,0,0,0,0,0,0,0,0,-1,972,1275,0,0
-245,-251,0,0,0,0,0,0,0,0,0,-1,979,1275,0,0
-238,-251,0,0,0,0,0,0,0,0,0,-1,986,1275,0,0
-231,-251,0,0,0,0,0,0,0,0,0,-1,993,1275,0,0
-224,-251,0,0,0,0,0,0,0,0,0,-1,1000,1275,0,0
-217,-251,0,0,0,0,0,0,0,0,0,-1,1007,1275,0,0
-210,-251,0,0,0,0,0,0,0,0,0,-1,1014,1275,0,0
-203,-251,0,0,0,0,0,0,0,0,0,-1,1021,1275,0,0
-196,-251,0,0,0,0,0,0,0,0,0,-1,1028,1275,0,0
-189,-251,0,0,0,0,0,0,0,0,0,-1,1035,1275,0,0
-182,-251,0,0,0,0,0,0,0,0,0,-1,1042,1275,0,0
-175,-251,0,0,0,0,0,0,0,0,0,-1,1049,1275,0,0
-168,-251,0,0,0,0,0,0,0,0,0,-1,1056,1275,0,0
-161,-251,0,0,0,0,0,0,0,0,0,-1,1063,1275,0,0
-154,-251,0,0,0,0,0,0,0,0,0,-1,1070,1275,0,0
-147,-251,0,0,0,0,0,0,0,0,0,-1,1077,1275,0,0
-140,-251,0,0,0,0,0,0,0,0,0,-1,1084,1275,0,0
-133,-251,0,0,0,0,0,0,0,0,0,-1,1091,1275,0,0
-126,-251,0,0,0,0,0,0,0,0,0,-1,1098,1275,0,0
-119,-251,0,0,0,0,0,0,0,0,0,-1,1105,1275,0,0
-112,-251,0,0,0,0,0,0,0,0,0,-1,1112,1275,0,0
-105,-251,0,0,0,0,0,0,0,0,0,-1,1119,1275,0,0
-98,-251,0,0,0,0,0,0,0,0,0,-1,1126,1275,0,0
-91,-251,0,0,0,0,0,0,0,0,0,-1,1133,1275,0,0
-84,-251,0,0,0,0,0,0,0,0,0,-1,1140,1275,0,0
-77,-251,0,0,0,0,0,0,0,0,0,-1,1147,1275,0,0
-70,-251,0,0,0,0,0,0,0,0,0,-1,1154,1275,0,0
-63,-251,0,0,0,0,0,0,0,0,0,-1,1161,1275,0,0
-56,-251,0,0,0,0,0,0,0,0,0,-1,1168,1275,0,0
-49,-251,0,0,0,0,0,0,0,0,0,-1,1175,1275,0,0
-42,-251,0,0,0,0,0,0,0,0,0,-1,1182,1275,0,0
-35,-251,0,0,0,0,0,0,0,0,0,-1,1189,1275,0,0
-28,-251,0,0,0,0,0,0,0,0,0,-1,1196,1275,0,0
-21,-251,0,0,0,0,0,0,0,0,0,-1,1203,1275,0,0
-14,-251,0,0,0,0,0,0,0,0,0,-1,1210,1275,0,0
-7,-251,0,0,0,0,0,0,0,0,0,-1,1217,1275,0,0
0,-251,0,0,0,0,0,0,0,0,0,-1,1224,1275,0,0
7,-251,0,0,0,0,0,0,0,0,0,-1,1231,1275,0,0
14,-251,0,0,0,0,0,0,0,0,0,-1,1238,1275,0,0
21,-251,0,0,0,0,0,0,0,0,0,-1,1245,1275,0,0
28,-251,0,0,0,0,0,0,0,0,0,-1,1252,1275,0,0
35,-251,0,0,0,0,0,0,0,0,0,-1,1259,1275,0,0
42,-251,0,0,0,0,0,0,0,0,0,-1,1266,1275,0,0
49,-251,0,0,0,0,0,0,0,0,0,-1,1273,1275,0,0
56,-251,0,0,0,0,0,0,0,0,0,-1,1280,1275,0,0
63,-251,0,0,0,0,0,0,0,0,0,-1,1287,1275,0,0
70,-251,0,0,0,0,0,0,0,0,0,-1,1294,1275,0,0
77,-251,0,0,0,0,0,0,0,0,0,-1,1301,1275,0,0
84,-251,0,0,0,0,0,0,0,0,0,-1,1308,1275,0,0
91,-251,0,0,0,0,0,0,0,0,0,-1,1315,1275,0,0
98,-251,0,0,0,0,0,0,0,0,0,-1,1322,1275,0,0
105,-251,0,0,0,0,0,0,0,0,0,-1,1329,1275,0,0
112,-251,0,0,0,0,0,0,0,0,0,-1,1336,1275,0,0
119,-251,0,0,0,0,0,0,0,0,0,-1,1343,1275,0,0
126,-251,0,0,0,0,0,0,0,0,0,-1,1350,1275,0,0
133,-251,0,0,0,0,0,0,0,0,0,-1,1357,1275,0,0
140,-251,0,0,0,0,0,0,0,0,0,-1,1364,1275,0,0
147,-251,0,0,0,0,0,0,0,0,0,-1,1371,1275,0,0
154,-251,0,0,0,0,0,0,0,0,0,-1,1378,1275,0,0
161,-251,0,0,0,0,0,0,0,0,0,-1,1385,1275,0,0
168,-251,0,0,0,0,0,0,0,0,0,-1,1392,1275,0,0
175,-251,0,0,0,0,0,0,0,0,0,-1,1399,1275,0,0
182,-251,0,0,0,0,0,0,0,0,0,-1,1406,1275,0,0
189,-251,0,0,0,0,0,0,0,0,0,-1,1413,1275,0,0
196,-251,0,0,0,0,0,0,0,0,0,-1,1420,1275,0,0
203,-251,0,0,0,0,0,0,0,0,0,-1,1427,1275,0,0
210,-251,0,0,0,0,0,0,0,0,0,-1,1434,1275,0,0
217,-251,0,0,0,0,0,0,0,0,0,-1,1441,1275,0,0
224,-251,0,0,0,0,0,0,0,0,0,-1,1448,1275,0,0
231,-251,0,0,0,0,0,0,0,0,0,-1,1455,1275,0,0
238,-251,0,0,0,0,0,0,0,0,0,-1,1462,1275,0,0
245,-251,0,0,0,0,0,0,0,0,0,-1,1469,1275,0,0
252,-251,0,0,0,0,0,0,0,0,0,-1,1476,1275,0,0
259,-251,0,0,0,0,0,0,0,0,0,-1,1483,1275,0,0
266,-251,0,0,0,0,0,0,0,0,0,-1,1490,1275,0,0
273,-251,0,0,0,0,0,0,0,0,0,-1,1497,1275,0,0
280,-251,0,0,0,0,0,0,0,0,0,-1,1504,1275,0,0
287,-251,0,0,0,0,0,0,0,0,0,-1,1511,1275,0,0
294,-251,0,0,0,0,0,0,0,0,0,-1,1518,1275,0,0
301,-251,0,0,0,0,0,0,0,0,0,-1,1525,1275,0,0
308,-251,0,0,0,0,0,0,0,0,0,-1,1532,1275,0,0
315,-251,0,0,0,0,0,0,0,0,0,-1,1539,1275,0,0
322,-251,0,0,0,0,0,0,0,0,0,-1,1546,1275,0,0
329,-251,0,0,0,0,0,0,0,0,0,-1,1553,1275,0,0
336,-251,0,0,0,0,0,0,0,0,0,-1,1560,1275,0,0
343,-251,0,0,0,0,0,0,0,0,0,-1,1567,1275,0,0
350,-251,0,0,0,0,0,0,0,0,0,-1,1574,1275,0,0
357,-251,0,0,0,0,0,0,0,0,0,-1,1581,1275,0,0
364,-251,0,0,0,0,0,0,0,0,0,-1,1588,1275,0,0
371,-251,0,0,0,0,0,0,0,0,0,-1,1595,1275,0,0
378,-251,0,0,0,0,0,0,0,0,0,-1,1602,1275,0,0
385,-251,0,0,0,0,0,0,0,0,0,-1,1609,1275,0,0
392,-251,0,0,0,0,0,0,0,0,0,-1,1616,1275,0,0
399,-251,0,0,0,0,0,0,0,0,0,-1,1623,1275,0,0
406,-251,0,0,0,0,0,0,0,0,0,-1,1630,1275,0,0
413,-251,0,0,0,0,0,0,0,0,0,-1,1637,1275,0,0
420,-251,0,0,0,0,0,0,0,0,0,-1,1644,1275,0,0
427,-251,0,0,0,0,0,0,0,0,0,-1,1651,1275,0,0
434,-251,0,0,0,0,0,0,0,0,0,-1,1658,1275,0,0
441,-251,0,0,0,0,0,0,0,0,0,-1,1665,1275,0,0
448,-251,0,0,0,0,0,0,0,0,0,-1,1672,1275,0,0
455,-251,0,0,0,0,0,0,0,0,0,-1,1679,1275,0,0
462,-251,0,0,0,0,0,0,0,0,0,-1,1686,1275,0,0
469,-251,0,0,0,0,0,0,0,0,0,-1,1693,1275,0,0
476,-251,0,0,0,0,0,0,0,0,0,-1,1700,1275,0,0
483,-251,0,0,0,0,0,0,0,0,0,-1,1707,1275,0,0
490,-251,0,0,0,0,0,0,0,0,0,-1,1714,1275,0,0
497,-251,0,0,0,0,0,0,0,0,0,-1,1721,1275,0,0
504,-251,0,0,0,0,0,0,0,0,0,-1,1728,1275,0,0
511,-251,0,0,0,0,0,0,0,0,0,-1,1735,1275,0,0
518,-251,0,0,0,0,0,0,0,0,0,-1,1742,1275,0,0
525,-251,0,0,0,0,0,0,0,0,0,-1,1749,1275,0,0
532,-251,0,0,0,0,0,0,0,0,0,-1,1756,1275,0,0
539,-251,0,0,0,0,0,0,0,0,0,-1,1763,1275,0,0
546,-251,0,0,0,0,0,0,0,0,0,-1,1770,1275,0,0
553,-251,0,0,0,0,0,0,0,0,0,-1,1777,1275,0,0
560,-251,0,0,0,0,0,0,0,0,0,-1,1784,1275,0,0
567,-251,0,0,0,0,0,0,0,0,0,-1,1791,1275,0,0
574,-251,0,0,0,0,0,0,0,0,0,-1,1798,1275,0,0
581,-251,0,0,0,0,0,0,0,0,0,-1,1805,1275,0,0
588,-251,0,0,0,0,0,0,0,0,0,-1,1812,1275,0,0
595,-251,0,0,0,0,0,0,0,0,0,-1,1819,1275,0,0
602,-251,0,0,0,0,0,0,0,0,0,-1,1826,1275,0,0
609,-251,78.6737,2.25488,0.00925518,0.0109424,-0.00584759,0.0160069,0.00419067,-0.857037,0.00958479,0.0312802,1833,1275,78.6737,-2.25485
616,-251,78.6958,2.31628,0.00550138,0.0114514,-0.00433817,0.0137367,0.00321612,-1.08596,0.00829619,0.0277111,1840,1275,78.6958,-2.31634
623,-251,78.7101,2.38733,0.00104809,0.0106271,-0.00220929,0.011112,0.000563093,-1.3547,0.00722765,0.0244654,1847,1275,78.7101,-2.38739
630,-251,78.715,2.37292,-0.00322888,0.0084923,9.1729e-05,0.00849302,-0.0032296,1.56297,0.00699176,0.0364664,1854,1275,78.715,-2.37297
637,-251,78.7252,2.33362,-0.00527745,0.00572902,0.00135458,0.00589328,-0.00544171,1.45012,0.00654599,0.0411273,1861,1275,78.7252,-2.33362
644,-251,78.4719,2.50684,-0.00421313,0.00399456,0.00101834,0.00411902,-0.00433759,1.44918,0.00488297,0.04458,1868,1275,78.4719,-2.50688
651,-251,78.3014,2.5426,0,0,0,0,0,0,0,-1,1875,1275,78.3014,-2.54263
658,-251,64.3931,2.57288,0,0,0,0,0,0,0,-1,1882,1275,64.393,-2.57287
665,-251,32.9579,2.60229,0,0,0,0,0,0,0,-1,1889,1275,32.9579,-2.60231
672,-251,26.0721,4.53064,0,0,0,0,0,0,0,-1,1896,1275,26.0721,-4.53063
679,-251,29.1344,8.63782,0,0,0,0,0,0,0,-1,1903,1275,29.1344,-8.63778
686,-251,57.3585,15.4683,0,0,0,0,0,0,0,-1,1910,1275,57.3585,-15.4682
693,-251,57.236,14.7632,-0.00187099,-0.00160302,0.00257137,0.000837851,-0.00431187,0.811428,0.00319074,0.0384241,1917,1275,57.236,-14.7632
700,-251,57.1903,13.9513,0.000651818,-0.000509255,0.000811451,0.00106902,-0.000926454,0.474895,0.00115307,0.0151279,1924,1275,57.1903,-13.9513
707,-251,57.1608,13.1548,-8.6795e-05,-0.000375198,0.00105086,0.000829714,-0.00129171,0.717213,0.00123445,0.013385,1931,1275,57.1607,-13.1548
714,-251,57.1521,12.3448,-0.000817693,-0.000145222,0.00140757,0.000965719,-0.00192863,0.902639,0.0017016,0.0167846,1938,1275,57.1521,-12.3448
721,-251,57.0389,11.6028,-0.00150375,9.95005e-06,0.00182241,0.00122642,-0.00272022,0.982212,0.00233237,0.0256993,1945,1275,57.0389,-11.6028
728,-251,57.0068,10.8843,-0.00219513,1.44787e-05,0.00230568,0.00146639,-0.00364704,1.00882,0.00304041,0.0312244,1952,1275,57.0069,-10.8842
735,-251,56.9662,9.99023,-0.00298725,-2.51141e-05,0.00289416,0.00174493,-0.00475729,1.0219,0.00388603,0.0248406,1959,1275,56.9662,-9.99022
742,-251,56.8604,9.30884,-0.00388885,-0.000116576,0.00360906,0.00206949,-0.00607492,1.02618,0.00488805,0.0187077,1966,1275,56.8603,-9.30884
749,-251,56.5703,8.70642,-0.0049106,-0.000312762,0.00448386,0.00242717,-0.00765053,1.02228,0.00607329,0.0402103,1973,1275,56.5703,-8.70648
756,-251,56.3539,7.97083,0,0,0,0,0,0,0,-1,1980,1275,56.3539,-7.97087
763,-251,43.3652,5.7583,0,0,0,0,0,0,0,-1,1987,1275,43.3653,-5.75827
770,-251,49.4386,3.45508,0,0,0,0,0,0,0,-1,1994,1275,49.4386,-3.4551
777,-251,31.5731,4.33252,0,0,0,0,0,0,0,-1,2001,1275,31.5731,-4.33251
784,-251,32.0776,5.78247,0,0,0,0,0,0,0,-1,2008,1275,32.0776,-5.78247
791,-251,0,0,0,0,0,0,0,0,0,-1,2015,1275,0,0
798,-251,0,0,0,0,0,0,0,0,0,-1,2022,1275,0,0
805,-251,0,0,0,0,0,0,0,0,0,-1,2029,1275,0,0
812,-251,0,0,0,0,0,0,0,0,0,-1,2036,1275,0,0
-700,-258,0,0,0,0,0,0,0,0,0,-1,524,1282,0,0
-693,-258,0,0,0,0,0,0,0,0,0,-1,531,1282,0,0
-686,-258,0,0,0,0,0,0,0,0,0,-1,538,1282,0,0
-679,-258,0,0,0,0,0,0,0,0,0,-1,545,1282,0,0
-672,-258,0,0,0,0,0,0,0,0,0,-1,552,1282,0,0
-665,-258,-44.8717,2.03601,0,0,0,0,0,0,0,-1,559,1282,-44.8717,-2.03603
-658,-258,-45.2628,1.20544,0,0,0,0,0,0,0,-1,566,1282,-45.2627,-1.20545
-651,-258,-45.5418,0.0863037,0,0,0,0,0,0,0,-1,573,1282,-45.5418,-0.0863288
-644,-258,-45.1855,0.336792,0,0,0,0,0,0,0,-1,580,1282,-45.1855,-0.336733
-637,-258,-45.329,0.234253,0,0,0,0,0,0,0,-1,587,1282,-45.329,-0.234296
-630,-258,-34.6896,4.45715,0,0,0,0,0,0,0,-1,594,1282,-34.6896,-4.45712
-623,-258,-39.8361,7.14844,0,0,0,0,0,0,0,-1,601,1282,-39.8361,-7.14844
-616,-258,-39.7127,7.89441,0.00371955,0.00172769,-0.000103338,0.0037249,0.00172234,-0.0516949,0.0021526,0.0345324,608,1282,-39.7127,-7.89446
-609,-258,-39.7325,8.71545,0.00263054,0.00190075,-0.000184546,0.00267456,0.00185674,-0.234119,0.00158251,0.0173385,615,1282,-39.7326,-8.7155
-602,-258,-39.7795,9.54871,0.00139781,0.00141149,-0.000340954,0.00174567,0.00106363,-0.795429,0.00101586,0.0138305,622,1282,-39.7795,-9.54868
-595,-258,-39.8174,10.3615,0.000300654,0.000739165,-0.000573641,0.00113402,-9.42058e-05,-0.96794,0.000789294,0.0123007,629,1282,-39.8175,-10.3615
-588,-258,-39.8527,11.1758,-0.000678927,-8.75239e-05,-0.000808319,0.000477483,-0.00124393,-0.960748,0.00102617,0.0137429,636,1282,-39.8526,-11.1758
-581,-258,-39.9036,12.0109,-0.00168297,-0.00106508,-0.00103768,-0.00029133,-0.00245672,-0.930083,0.00154985,0.015775,643,1282,-39.9036,-12.0109
-574,-258,-39.9078,12.8793,-0.00278767,-0.00197712,-0.00127366,-0.00104582,-0.00371898,-0.939431,0.00221461,0.0160408,650,1282,-39.9078,-12.8793
-567,-258,-40.2001,13.6448,0,0,0,0,0,0,0,-1,657,1282,-40.2001,-13.6448
-560,-258,-40.3162,14.6713,0,0,0,0,0,0,0,-1,664,1282,-40.3162,-14.6712
-553,-258,-32.5081,11.6642,0,0,0,0,0,0,0,-1,671,1282,-32.5081,-11.6641
-546,-258,-14.2231,5.92029,0,0,0,0,0,0,0,-1,678,1282,-14.2231,-5.92028
-539,-258,-10.2228,4.05823,0,0,0,0,0,0,0,-1,685,1282,-10.2228,-4.05823
-532,-258,-10.2173,-0.353882,0,0,0,0,0,0,0,-1,692,1282,-10.2173,0.353836
-525,-258,-21.8661,-1.5929,0,0,0,0,0,0,0,-1,699,1282,-21.8661,1.59285
-518,-258,-29.2484,0.123169,0,0,0,0,0,0,0,-1,706,1282,-29.2484,-0.123186
-511,-258,-23.5061,1.16833,0,0,0,0,0,0,0,-1,713,1282,-23.5061,-1.16833
-504,-258,-22.9178,0.484131,0,0,0,0,0,0,0,-1,720,1282,-22.9178,-0.484106
-497,-258,-17.8047,0.730469,0,0,0,0,0,0,0,-1,727,1282,-17.8048,-0.730489
-490,-258,-15.4346,0.632935,0,0,0,0,0,0,0,-1,734,1282,-15.4346,-0.632917
-483,-258,0,0,0,0,0,0,0,0,0,-1,741,1282,0,0
-476,-258,0,0,0,0,0,0,0,0,0,-1,748,1282,0,0
-469,-258,0,0,0,0,0,0,0,0,0,-1,755,1282,0,0
-462,-258,0,0,0,0,0,0,0,0,0,-1,762,1282,0,0
-455,-258,0,0,0,0,0,0,0,0,0,-1,769,1282,0,0
-448,-258,0,0,0,0,0,0,0,0,0,-1,776,1282,0,0
-441,-258,0,0,0,0,0,0,0,0,0,-1,783,1282,0,0
-434,-258,0,0,0,0,0,0,0,0,0,-1,790,1282,0,0
-427,-258,0,0,0,0,0,0,0,0,0,-1,797,1282,0,0
-420,-258,0,0,0,0,0,0,0,0,0,-1,804,1282,0,0
-413,-258,0,0,0,0,0,0,0,0,0,-1,811,1282,0,0
-406,-258,0,0,0,0,0,0,0,0,0,-1,818,1282,0,0
-399,-258,0,0,0,0,0,0,0,0,0,-1,825,1282,0,0
-392,-258,0,0,0,0,0,0,0,0,0,-1,832,1282,0,0
-385,-258,0,0,0,0,0,0,0,0,0,-1,839,1282,0,0
-378,-258,0,0,0,0,0,0,0,0,0,-1,846,1282,0,0
-371,-258,0,0,0,0,0,0,0,0,0,-1,853,1282,0,0
-364,-258,0,0,0,0,0,0,0,0,0,-1,860,1282,0,0
-357,-258,0,0,0,0,0,0,0,0,0,-1,867,1282,0,0
-350,-258,0,0,0,0,0,0,0,0,0,-1,874,1282,0,0
-343,-258,0,0,0,0,0,0,0,0,0,-1,881,1282,0,0
-336,-258,0,0,0,0,0,0,0,0,0,-1,888,1282,0,0
-329,-258,0,0,0,0,0,0,0,0,0,-1,895,1282,0,0
-322,-258,0,0,0,0,0,0,0,0,0,-1,902,1282,0,0
-315,-258,0,0,0,0,0,0,0,0,0,-1,909,1282,0,0
-308,-258,0,0,0,0,0,0,0,0,0,-1,916,1282,0,0
-301,-258,0,0,0,0,0,0,0,0,0,-1,923,1282,0,0
-294,-258,0,0,0,0,0,0,0,0,0,-1,930,1282,0,0
-287,-258,0,0,0,0,0,0,0,0,0,-1,937,1282,0,0
-280,-258,0,0,0,0,0,0,0,0,0,-1,944,1282,0,0
-273,-258,0,0,0,0,0,0,0,0,0,-1,951,1282,0,0
-266,-258,0,0,0,0,0,0,0,0,0,-1,958,1282,0,0
-259,-258,0,0,0,0,0,0,0,0,0,-1,965,1282,0,0
-252,-258,0,0,0,0,0,0,0,0,0,-1,972,1282,0,0
-245,-258,0,0,0,0,0,0,0,0,0,-1,979,1282,0,0
-238,-258,0,0,0,0,0,0,0,0,0,-1,986,1282,0,0
-231,-258,0,0,0,0,0,0,0,0,0,-1,993,1282,0,0
-224,-258,0,0,0,0,0,0,0,0,0,-1,1000,1282,0,0
-217,-258,0,0,0,0,0,0,0,0,0,-1,1007,1282,0,0
-210,-258,0,0,0,0,0,0,0,0,0,-1,1014,1282,0,0
-203,-258,0,0,0,0,0,0,0,0,0,-1,1021,1282,0,0
-196,-258,0,0,0,0,0,0,0,0,0,-1,1028,1282,0,0
-189,-258,0,0,0,0,0,0,0,0,0,-1,1035,1282,0,0
-182,-258,0,0,0,0,0,0,0,0,0,-1,1042,1282,0,0
-175,-258,0,0,0,0,0,0,0,0,0,-1,1049,1282,0,0
-168,-258,0,0,0,0,0,0,0,0,0,-1,1056,1282,0,0
-161,-258,0,0,0,0,0,0,0,0,0,-1,1063,1282,0,0
-154,-258,0,0,0,0,0,0,0,0,0,-1,1070,1282,0,0
-147,-258,0,0,0,0,0,0,0,0,0,-1,1077,1282,0,0
-140,-258,0,0,0,0,0,0,0,0,0,-1,1084,1282,0,0
-133,-258,0,0,0,0,0,0,0,0,0,-1,1091,1282,0,0
-126,-258,0,0,0,0,0,0,0,0,0,-1,1098,1282,0,0
-119,-258,0,0,0,0,0,0,0,0,0,-1,1105,1282,0,0
-112,-258,0,0,0,0,0,0,0,0,0,-1,1112,1282,0,0
-105,-258,0,0,0,0,0,0,0,0,0,-1,1119,1282,0,0
-98,-258,0,0,0,0,0,0,0,0,0,-1,1126,1282,0,0
-91,-258,0,0,0,0,0,0,0,0,0,-1,1133,1282,0,0
-84,-258,0,0,0,0,0,0,0,0,0,-1,1140,1282,0,0
-77,-258,0,0,0,0,0,0,0,0,0,-1,1147,1282,0,0
-70,-258,0,0,0,0,0,0,0,0,0,-1,1154,1282,0,0
-63,-258,0,0,0,0,0,0,0,0,0,-1,1161,1282,0,0
-56,-258,0,0,0,0,0,0,0,0,0,-1,1168,1282,0,0
-49,-258,0,0,0,0,0,0,0,0,0,-1,1175,1282,0,0
-42,-258,0,0,0,0,0,0,0,0,0,-1,1182,1282,0,0
-35,-258,0,0,0,0,0,0,0,0,0,-1,1189,1282,0,0
-28,-258,0,0,0,0,0,0,0,0,0,-1,1196,1282,0,0
-21,-258,0,0,0,0,0,0,0,0,0,-1,1203,1282,0,0
-14,-258,0,0,0,0,0,0,0,0,0,-1,1210,1282,0,0
-7,-258,0,0,0,0,0,0,0,0,0,-1,1217,1282,0,0
0,-258,0,0,0,0,0,0,0,0,0,-1,1224,1282,0,0
7,-258,0,0,0,0,0,0,0,0,0,-1,1231,1282,0,0
14,-258,0,0,0,0,0,0,0,0,0,-1,1238,1282,0,0
21,-258,0,0,0,0,0,0,0,0,0,-1,1245,1282,0,0
28,-258,0,0,0,0,0,0,0,0,0,-1,1252,1282,0,0
35,-258,0,0,0,0,0,0,0,0,0,-1,1259,1282,0,0
42,-258,0,0,0,0,0,0,0,0,0,-1,1266,1282,0,0
49,-258,0,0,0,0,0,0,0,0,0,-1,1273,1282,0,0
56,-258,0,0,0,0,0,0,0,0,0,-1,1280,1282,0,0
63,-258,0,0,0,0,0,0,0,0,0,-1,1287,1282,0,0
70,-258,0,0,0,0,0,0,0,0,0,-1,1294,1282,0,0
77,-258,0,0,0,0,0,0,0,0,0,-1,1301,1282,0,0
84,-258,0,0,0,0,0,0,0,0,0,-1,1308,1282,0,0
91,-258,0,0,0,0,0,0,0,0,0,-1,1315,1282,0,0
98,-258,0,0,0,0,0,0,0,0,0,-1,1322,1282,0,0
105,-258,0,0,0,0,0,0,0,0,0,-1,1329,1282,0,0
112,-258,0,0,0,0,0,0,0,0,0,-1,1336,1282,0,0
119,-258,0,0,0,0,0,0,0,0,0,-1,1343,1282,0,0
126,-258,0,0,0,0,0,0,0,0,0,-1,1350,1282,0,0
133,-258,0,0,0,0,0,0,0,0,0,-1,1357,1282,0,0
140,-258,0,0,0,0,0,0,0,0,0,-1,1364,1282,0,0
147,-258,0,0,0,0,0,0,0,0,0,-1,1371,1282,0,0
154,-258,0,0,0,0,0,0,0,0,0,-1,1378,1282,0,0
161,-258,0,0,0,0,0,0,0,0,0,-1,1385,1282,0,0
168,-258,0,0,0,0,0,0,0,0,0,-1,1392,1282,0,0
175,-258,0,0,0,0,0,0,0,0,0,-1,1399,1282,0,0
182,-258,0,0,0,0,0,0,0,0,0,-1,1406,1282,0,0
189,-258,0,0,0,0,0,0,0,0,0,-1,1413,1282,0,0
196,-258,0,0,0,0,0,0,0,0,0,-1,1420,1282,0,0
203,-258,0,0,0,0,0,0,0,0,0,-1,1427,1282,0,0
210,-258,0,0,0,0,0,0,0,0,0,-1,1434,1282,0,0
217,-258,0,0,0,0,0,0,0,0,0,-1,1441,1282,0,0
224,-258,0,0,0,0,0,0,0,0,0,-1,1448,1282,0,0
231,-258,0,0,0,0,0,0,0,0,0,-1,1455,1282,0,0
238,-258,0,0,0,0,0,0,0,0,0,-1,1462,1282,0,0
245,-258,0,0,0,0,0,0,0,0,0,-1,1469,1282,0,0
252,-258,0,0,0,0,0,0,0,0,0,-1,1476,1282,0,0
259,-258,0,0,0,0,0,0,0,0,0,-1,1483,1282,0,0
266,-258,0,0,0,0,0,0,0,0,0,-1,1490,1282,0,0
273,-258,0,0,0,0,0,0,0,0,0,-1,1497,1282,0,0
280,-258,0,0,0,0,0,0,0,0,0,-1,1504,1282,0,0
287,-258,0,0,0,0,0,0,0,0,0,-1,1511,1282,0,0
294,-258,0,0,0,0,0,0,0,0,0,-1,1518,1282,0,0
301,-258,0,0,0,0,0,0,0,0,0,-1,1525,1282,0,0
308,-258,0,0,0,0,0,0,0,0,0,-1,1532,1282,0,0
315,-258,0,0,0,0,0,0,0,0,0,-1,1539,1282,0,0
322,-258,0,0,0,0,0,0,0,0,0,-1,1546,1282,0,0
329,-258,0,0,0,0,0,0,0,0,0,-1,1553,1282,0,0
336,-258,0,0,0,0,0,0,0,0,0,-1,1560,1282,0,0
343,-258,0,0,0,0,0,0,0,0,0,-1,1567,1282,0,0
350,-258,0,0,0,0,0,0,0,0,0,-1,1574,1282,0,0
357,-258,0,0,0,0,0,0,0,0,0,-1,1581,1282,0,0
364,-258,0,0,0,0,0,0,0,0,0,-1,1588,1282,0,0
371,-258,0,0,0,0,0,0,0,0,0,-1,1595,1282,0,0
378,-258,0,0,0,0,0,0,0,0,0,-1,1602,1282,0,0
385,-258,0,0,0,0,0,0,0,0,0,-1,1609,1282,0,0
392,-258,0,0,0,0,0,0,0,0,0,-1,1616,1282,0,0
399,-258,0,0,0,0,0,0,0,0,0,-1,1623,1282,0,0
406,-258,0,0,0,0,0,0,0,0,0,-1,1630,1282,0,0
413,-258,0,0,0,0,0,0,0,0,0,-1,1637,1282,0,0
420,-258,0,0,0,0,0,0,0,0,0,-1,1644,1282,0,0
427,-258,0,0,0,0,0,0,0,0,0,-1,1651,1282,0,0
434,-258,0,0,0,0,0,0,0,0,0,-1,1658,1282,0,0
441,-258,0,0,0,0,0,0,0,0,0,-1,1665,1282,0,0
448,-258,0,0,0,0,0,0,0,0,0,-1,1672,1282,0,0
455,-258,0,0,0,0,0,0,0,0,0,-1,1679,1282,0,0
462,-258,0,0,0,0,0,0,0,0,0,-1,1686,1282,0,0
469,-258,0,0,0,0,0,0,0,0,0,-1,1693,1282,0,0
476,-258,0,0,0,0,0,0,0,0,0,-1,1700,1282,0,0
483,-258,0,0,0,0,0,0,0,0,0,-1,1707,1282,0,0
490,-258,0,0,0,0,0,0,0,0,0,-1,1714,1282,0,0
497,-258,0,0,0,0,0,0,0,0,0,-1,1721,1282,0,0
504,-258,0,0,0,0,0,0,0,0,0,-1,1728,1282,0,0
511,-258,0,0,0,0,0,0,0,0,0,-1,1735,1282,0,0
518,-258,0,0,0,0,0,0,0,0,0,-1,1742,1282,0,0
525,-258,0,0,0,0,0,0,0,0,0,-1,1749,1282,0,0
532,-258,0,0,0,0,0,0,0,0,0,-1,1756,1282,0,0
539,-258,0,0,0,0,0,0,0,0,0,-1,1763,1282,0,0
546,-258,0,0,0,0,0,0,0,0,0,-1,1770,1282,0,0
553,-258,0,0,0,0,0,0,0,0,0,-1,1777,1282,0,0
560,-258,0,0,0,0,0,0,0,0,0,-1,1784,1282,0,0
567,-258,0,0,0,0,0,0,0,0,0,-1,1791,1282,0,0
574,-258,0,0,0,0,0,0,0,0,0,-1,1798,1282,0,0
581,-258,0,0,0,0,0,0,0,0,0,-1,1805,1282,0,0
588,-258,0,0,0,0,0,0,0,0,0,-1,1812,1282,0,0
595,-258,0,0,0,0,0,0,0,0,0,-1,1819,1282,0,0
602,-258,0,0,0,0,0,0,0,0,0,-1,1826,1282,0,0
609,-258,78.7283,2.36536,0.00916307,0.0148638,-0.00605995,0.0187103,0.00531662,-1.00523,0.0111329,0.0275779,1833,1282,78.7283,-2.36542
616,-258,78.6896,2.37781,0.00567806,0.0155403,-0.00445823,0.0172569,0.00396149,-1.20326,0.0104377,0.0262935,1840,1282,78.6895,-2.37784
623,-258,78.7036,2.43213,0.00148566,0.0143843,-0.00228238,0.0147763,0.00109371,-1.40073,0.00950727,0.0360877,1847,1282,78.7037,-2.4321
630,-258,78.8271,2.39429,-0.00201634,0.01141,-0.000307697,0.0114171,-0.00202339,-1.54789,0.00836778,0.0446528,1854,1282,78.8272,-2.39432
637,-258,78.7404,2.26758,-0.00354837,0.00796636,0.000564093,0.00799393,-0.00357593,1.52196,0.00684027,0.045921,1861,1282,78.7403,-2.26763
644,-258,77.7848,2.81958,-0.00306437,0.00580495,0.000404577,0.00582336,-0.00308278,1.52531,0.00522248,0.0452004,1868,1282,77.7848,-2.81957
651,-258,77.8041,3.65466,0,0,0,0,0,0,0,-1,1875,1282,77.8041,-3.65469
658,-258,45.4424,3.1405,0,0,0,0,0,0,0,-1,1882,1282,45.4423,-3.14046
665,-258,35.4747,1.1864,0,0,0,0,0,0,0,-1,1889,1282,35.4747,-1.18637
672,-258,22.703,2.80957,0,0,0,0,0,0,0,-1,1896,1282,22.703,-2.80962
679,-258,26.8693,8.19543,0,0,0,0,0,0,0,-1,1903,1282,26.8692,-8.19548
686,-258,56.5671,15.691,0,0,0,0,0,0,0,-1,1910,1282,56.5671,-15.691
693,-258,56.4465,14.827,-0.00196524,-0.00164524,0.00251317,0.000713022,-0.0043235,0.817188,0.00314705,0.032467,1917,1282,56.4465,-14.8271
700,-258,56.3939,14.0049,0.000717376,-0.000412142,0.0005614,0.000948935,-0.000643701,0.391208,0.000925121,0.0110881,1924,1282,56.3939,-14.0049
707,-258,56.37,13.2015,2.17857e-05,-0.000339883,0.000840088,0.000700282,-0.00101838,0.679388,0.000997918,0.011911,1931,1282,56.37,-13.2016
714,-258,56.3406,12.4105,-0.000667697,-0.000212523,0.00128022,0.000860177,-0.0017404,0.873365,0.00152984,0.0133429,1938,1282,56.3406,-12.4105
721,-258,56.2838,11.5956,-0.00134625,-0.000148247,0.00178013,0.00113097,-0.00262546,0.947693,0.00222525,0.0238052,1945,1282,56.2838,-11.5956
728,-258,56.1879,10.8667,-0.00207059,-0.000158531,0.00234222,0.00141526,-0.00364438,0.979164,0.0030142,0.0233496,1952,1282,56.1879,-10.8667
735,-258,56.1835,10.0465,-0.00289551,-0.000184102,0.00297701,0.00173136,-0.00481097,0.999062,0.00391422,0.0197997,1959,1282,56.1835,-10.0465
742,-258,56.1254,9.29639,-0.00383564,-0.000236112,0.00369931,0.002078,-0.00614976,1.0118,0.00494039,0.0190025,1966,1282,56.1254,-9.29634
749,-258,56.0128,8.57666,-0.00492441,-0.000369854,0.00454583,0.00243722,-0.00773148,1.01761,0.0061304,0.0416332,1973,1282,56.0128,-8.5767
756,-258,55.9294,7.70276,0,0,0,0,0,0,0,-1,1980,1282,55.9294,-7.70275
763,-258,39.3638,5.09753,0,0,0,0,0,0,0,-1,1987,1282,39.3638,-5.09751
770,-258,40.3713,4.08325,0,0,0,0,0,0,0,-1,1994,1282,40.3713,-4.08323
777,-258,31.912,4.83093,0,0,0,0,0,0,0,-1,2001,1282,31.912,-4.8309
784,-258,32.6525,6.43091,0,0,0,0,0,0,0,-1,2008,1282,32.6525,-6.43091
791,-258,0,0,0,0,0,0,0,0,0,-1,2015,1282,0,0
798,-258,0,0,0,0,0,0,0,0,0,-1,2022,1282,0,0
805,-258,0,0,0,0,0,0,0,0,0,-1,2029,1282,0,0
812,-258,0,0,0,0,0,0,0,0,0,-1,2036,1282,0,0
-700,-265,0,0,0,0,0,0,0,0,0,-1,524,1289,0,0
-693,-265,0,0,0,0,0,0,0,0,0,-1,531,1289,0,0
-686,-265,0,0,0,0,0,0,0,0,0,-1,538,1289,0,0
-679,-265,0,0,0,0,0,0,0,0,0,-1,545,1289,0,0
-672,-265,0,0,0,0,0,0,0,0,0,-1,552,1289,0,0
-665,-265,-44.553,1.771,0,0,0,0,0,0,0,-1,559,1289,-44.553,-1.77096
-658,-265,-44.9351,1.32117,0,0,0,0,0,0,0,-1,566,1289,-44.9351,-1.32118
-651,-265,-44.821,1.0614,0,0,0,0,0,0,0,-1,573,1289,-44.821,-1.06141
-644,-265,-44.4684,0.304932,0,0,0,0,0,0,0,-1,580,1289,-44.4684,-0.304991
-637,-265,-44.6157,0.250122,0,0,0,0,0,0,0,-1,587,1289,-44.6157,-0.250067
-630,-265,-44.5689,0.900269,0,0,0,0,0,0,0,-1,594,1289,-44.5689,-0.900302
-623,-265,-38.8043,6.80359,0,0,0,0,0,0,0,-1,601,1289,-38.8042,-6.80361
-616,-265,-38.8185,7.73181,0.00488469,0.00276626,0.000451732,0.004977,0.00267396,0.201561,0.00287613,0.0474536,608,1289,-38.8185,-7.73182
-609,-265,-38.8633,8.7196,0.00364894,0.00269681,0.000340925,0.00375842,0.00258733,0.310736,0.00222068,0.0189429,615,1289,-38.8633,-8.71962
-602,-265,-38.9318,9.60632,0.00222766,0.00196825,0.000129909,0.00228153,0.00191438,0.393097,0.00141461,0.0152088,622,1289,-38.9318,-9.60632
-595,-265,-38.9827,10.4475,0.000983594,0.00110497,-0.000180117,0.00123435,0.000854218,-0.947899,0.000729964,0.0132964,629,1289,-38.9827,-10.4475
-588,-265,-39.0177,11.2518,-6.00482e-05,0.000148496,-0.000496913,0.00055196,-0.000463511,-0.888818,0.000587023,0.0122819,636,1289,-39.0177,-11.2518
-581,-265,-39.0757,12.077,-0.00102306,-0.000929534,-0.000828414,-0.000146564,-0.00180603,-0.813592,0.00115826,0.0143362,643,1289,-39.0757,-12.077
-574,-265,-39.142,12.952,-0.00192995,-0.00202808,-0.00117708,-0.000800916,-0.00315712,-0.764568,0.00189505,0.0147699,650,1289,-39.142,-12.952
-567,-265,-39.2883,13.7133,-0.0026775,-0.00309617,-0.00151573,-0.00135671,-0.00441695,-0.716778,0.00261259,0.0237706,657,1289,-39.2883,-13.7132
-560,-265,-39.5811,14.475,-0.00269992,-0.00311399,-0.00186466,-0.00103084,-0.00478307,-0.730109,0.00290669,0.0347625,664,1289,-39.5811,-14.475
-553,-265,-39.6615,15.2736,0,0,0,0,0,0,0,-1,671,1289,-39.6615,-15.2736
-546,-265,-24.2283,10.2581,0,0,0,0,0,0,0,-1,678,1289,-24.2283,-10.258
-539,-265,-13.7668,6.39917,0,0,0,0,0,0,0,-1,685,1289,-13.7668,-6.39915
-532,-265,-8.53998,3.41467,0,0,0,0,0,0,0,-1,692,1289,-8.53996,-3.41473
-525,-265,-12.1317,0.514648,0,0,0,0,0,0,0,-1,699,1289,-12.1317,-0.514634
-518,-265,-24.1604,0.712402,0,0,0,0,0,0,0,-1,706,1289,-24.1604,-0.712425
-511,-265,-23.233,0.791626,0,0,0,0,0,0,0,-1,713,1289,-23.233,-0.791617
-504,-265,-22.3056,0.87085,0,0,0,0,0,0,0,-1,720,1289,-22.3056,-0.87081
-497,-265,-18.689,-0.278442,0,0,0,0,0,0,0,-1,727,1289,-18.689,0.278423
-490,-265,-15.1696,0.492676,0,0,0,0,0,0,0,-1,734,1289,-15.1696,-0.492688
-483,-265,0,0,0,0,0,0,0,0,0,-1,741,1289,0,0
-476,-265,0,0,0,0,0,0,0,0,0,-1,748,1289,0,0
-469,-265,0,0,0,0,0,0,0,0,0,-1,755,1289,0,0
-462,-265,0,0,0,0,0,0,0,0,0,-1,762,1289,0,0
-455,-265,0,0,0,0,0,0,0,0,0,-1,769,1289,0,0
-448,-265,0,0,0,0,0,0,0,0,0,-1,776,1289,0,0
-441,-265,0,0,0,0,0,0,0,0,0,-1,783,1289,0,0
-434,-265,0,0,0,0,0,0,0,0,0,-1,790,1289,0,0
-427,-265,0,0,0,0,0,0,0,0,0,-1,797,1289,0,0
-420,-265,0,0,0,0,0,0,0,0,0,-1,804,1289,0,0
-413,-265,0,0,0,0,0,0,0,0,0,-1,811,1289,0,0
-406,-265,0,0,0,0,0,0,0,0,0,-1,818,1289,0,0
-399,-265,0,0,0,0,0,0,0,0,0,-1,825,1289,0,0
-392,-265,0,0,0,0,0,0,0,0,0,-1,832,1289,0,0
-385,-265,0,0,0,0,0,0,0,0,0,-1,839,1289,0,0
-378,-265,0,0,0,0,0,0,0,0,0,-1,846,1289,0,0
-371,-265,0,0,0,0,0,0,0,0,0,-1,853,1289,0,0
-364,-265,0,0,0,0,0,0,0,0,0,-1,860,1289,0,0
-357,-265,0,0,0,0,0,0,0,0,0,-1,867,1289,0,0
-350,-265,0,0,0,0,0,0,0,0,0,-1,874,1289,0,0
-343,-265,0,0,0,0,0,0,0,0,0,-1,881,1289,0,0
-336,-265,0,0,0,0,0,0,0,0,0,-1,888,1289,0,0
-329,-265,0,0,0,0,0,0,0,0,0,-1,895,1289,0,0
-322,-265,0,0,0,0,0,0,0,0,0,-1,902,1289,0,0
-315,-265,0,0,0,0,0,0,0,0,0,-1,909,1289,0,0
-308,-265,0,0,0,0,0,0,0,0,0,-1,916,1289,0,0
-301,-265,0,0,0,0,0,0,0,0,0,-1,923,1289,0,0
-294,-265,0,0,0,0,0,0,0,0,0,-1,930,1289,0,0
-287,-265,0,0,0,0,0,0,0,0,0,-1,937,1289,0,0
-280,-265,0,0,0,0,0,0,0,0,0,-1,944,1289,0,0
-273,-265,0,0,0,0,0,0,0,0,0,-1,951,1289,0,0
-266,-265,0,0,0,0,0,0,0,0,0,-1,958,1289,0,0
-259,-265,0,0,0,0,0,0,0,0,0,-1,965,1289,0,0
-252,-265,0,0,0,0,0,0,0,0,0,-1,972,1289,0,0
-245,-265,0,0,0,0,0,0,0,0,0,-1,979,1289,0,0
-238,-265,0,0,0,0,0,0,0,0,0,-1,986,1289,0,0
-231,-265,0,0,0,0,0,0,0,0,0,-1,993,1289,0,0
-224,-265,0,0,0,0,0,0,0,0,0,-1,1000,1289,0,0
-217,-265,0,0,0,0,0,0,0,0,0,-1,1007,1289,0,0
-210,-265,0,0,0,0,0,0,0,0,0,-1,1014,1289,0,0
-203,-265,0,0,0,0,0,0,0,0,0,-1,1021,1289,0,0
-196,-265,0,0,0,0,0,0,0,0,0,-1,1028,1289,0,0
-189,-265,0,0,0,0,0,0,0,0,0,-1,1035,1289,0,0
-182,-265,0,0,0,0,0,0,0,0,0,-1,1042,1289,0,0
-175,-265,0,0,0,0,0,0,0,0,0,-1,1049,1289,0,0
-168,-265,0,0,0,0,0,0,0,0,0,-1,1056,1289,0,0
-161,-265,0,0,0,0,0,0,0,0,0,-1,1063,1289,0,0
-154,-265,0,0,0,0,0,0,0,0,0,-1,1070,1289,0,0
-147,-265,0,0,0,0,0,0,0,0,0,-1,1077,1289,0,0
-140,-265,0,0,0,0,0,0,0,0,0,-1,1084,1289,0,0
-133,-265,0,0,0,0,0,0,0,0,0,-1,1091,1289,0,0
-126,-265,0,0,0,0,0,0,0,0,0,-1,1098,1289,0,0
-119,-265,0,0,0,0,0,0,0,0,0,-1,1105,1289,0,0
-112,-265,0,0,0,0,0,0,0,0,0,-1,1112,1289,0,0
-105,-265,0,0,0,0,0,0,0,0,0,-1,1119,1289,0,0
-98,-265,0,0,0,0,0,0,0,0,0,-1,1126,1289,0,0
-91,-265,0,0,0,0,0,0,0,0,0,-1,1133,1289,0,0
-84,-265,0,0,0,0,0,0,0,0,0,-1,1140,1289,0,0
-77,-265,0,0,0,0,0,0,0,0,0,-1,1147,1289,0,0
-70,-265,0,0,0,0,0,0,0,0,0,-1,1154,1289,0,0
-63,-265,0,0,0,0,0,0,0,0,0,-1,1161,1289,0,0
-56,-265,0,0,0,0,0,0,0,0,0,-1,1168,1289,0,0
-49,-265,0,0,0,0,0,0,0,0,0,-1,1175,1289,0,0
-42,-265,0,0,0,0,0,0,0,0,0,-1,1182,1289,0,0
-35,-265,0,0,0,0,0,0,0,0,0,-1,1189,1289,0,0
-28,-265,0,0,0,0,0,0,0,0,0,-1,1196,1289,0,0
-21,-265,0,0,0,0,0,0,0,0,0,-1,1203,1289,0,0
-14,-265,0,0,0,0,0,0,0,0,0,-1,1210,1289,0,0
-7,-265,0,0,0,0,0,0,0,0,0,-1,1217,1289,0,0
0,-265,0,0,0,0,0,0,0,0,0,-1,1224,1289,0,0
7,-265,0,0,0,0,0,0,0,0,0,-1,1231,1289,0,0
14,-265,0,0,0,0,0,0,0,0,0,-1,1238,1289,0,0
21,-265,0,0,0,0,0,0,0,0,0,-1,1245,1289,0,0
28,-265,0,0,0,0,0,0,0,0,0,-1,1252,1289,0,0
35,-265,0,0,0,0,0,0,0,0,0,-1,1259,1289,0,0
42,-265,0,0,0,0,0,0,0,0,0,-1,1266,1289,0,0
49,-265,0,0,0,0,0,0,0,0,0,-1,1273,1289,0,0
56,-265,0,0,0,0,0,0,0,0,0,-1,1280,1289,0,0
63,-265,0,0,0,0,0,0,0,0,0,-1,1287,1289,0,0
70,-265,0,0,0,0,0,0,0,0,0,-1,1294,1289,0,0
77,-265,0,0,0,0,0,0,0,0,0,-1,1301,1289,0,0
84,-265,0,0,0,0,0,0,0,0,0,-1,1308,1289,0,0
91,-265,0,0,0,0,0,0,0,0,0,-1,1315,1289,0,0
98,-265,0,0,0,0,0,0,0,0,0,-1,1322,1289,0,0
105,-265,0,0,0,0,0,0,0,0,0,-1,1329,1289,0,0
112,-265,0,0,0,0,0,0,0,0,0,-1,1336,1289,0,0
119,-265,0,0,0,0,0,0,0,0,0,-1,1343,1289,0,0
126,-265,0,0,0,0,0,0,0,0,0,-1,1350,1289,0,0
133,-265,0,0,0,0,0,0,0,0,0,-1,1357,1289,0,0
140,-265,0,0,0,0,0,0,0,0,0,-1,1364,1289,0,0
147,-265,0,0,0,0,0,0,0,0,0,-1,1371,1289,0,0
154,-265,0,0,0,0,0,0,0,0,0,-1,1378,1289,0,0
161,-265,0,0,0,0,0,0,0,0,0,-1,1385,1289,0,0
168,-265,0,0,0,0,0,0,0,0,0,-1,1392,1289,0,0
175,-265,0,0,0,0,0,0,0,0,0,-1,1399,1289,0,0
182,-265,0,0,0,0,0,0,0,0,0,-1,1406,1289,0,0
189,-265,0,0,0,0,0,0,0,0,0,-1,1413,1289,0,0
196,-265,0,0,0,0,0,0,0,0,0,-1,1420,1289,0,0
203,-265,0,0,0,0,0,0,0,0,0,-1,1427,1289,0,0
210,-265,0,0,0,0,0,0,0,0,0,-1,1434,1289,0,0
217,-265,0,0,0,0,0,0,0,0,0,-1,1441,1289,0,0
224,-265,0,0,0,0,0,0,0,0,0,-1,1448,1289,0,0
231,-265,0,0,0,0,0,0,0,0,0,-1,1455,1289,0,0
238,-265,0,0,0,0,0,0,0,0,0,-1,1462,1289,0,0
245,-265,0,0,0,0,0,0,0,0,0,-1,1469,1289,0,0
252,-265,0,0,0,0,0,0,0,0,0,-1,1476,1289,0,0
259,-265,0,0,0,0,0,0,0,0,0,-1,1483,1289,0,0
266,-265,0,0,0,0,0,0,0,0,0,-1,1490,1289,0,0
273,-265,0,0,0,0,0,0,0,0,0,-1,1497,1289,0,0
280,-265,0,0,0,0,0,0,0,0,0,-1,1504,1289,0,0
287,-265,0,0,0,0,0,0,0,0,0,-1,1511,1289,0,0
294,-265,0,0,0,0,0,0,0,0,0,-1,1518,1289,0,0
301,-265,0,0,0,0,0,0,0,0,0,-1,1525,1289,0,0
308,-265,0,0,0,0,0,0,0,0,0,-1,1532,1289,0,0
315,-265,0,0,0,0,0,0,0,0,0,-1,1539,1289,0,0
322,-265,0,0,0,0,0,0,0,0,0,-1,1546,1289,0,0
329,-265,0,0,0,0,0,0,0,0,0,-1,1553,1289,0,0
336,-265,0,0,0,0,0,0,0,0,0,-1,1560,1289,0,0
343,-265,0,0,0,0,0,0,0,0,0,-1,1567,1289,0,0
350,-265,0,0,0,0,0,0,0,0,0,-1,1574,1289,0,0
357,-265,0,0,0,0,0,0,0,0,0,-1,1581,1289,0,0
364,-265,0,0,0,0,0,0,0,0,0,-1,1588,1289,0,0
371,-265,0,0,0,0,0,0,0,0,0,-1,1595,1289,0,0
378,-265,0,0,0,0,0,0,0,0,0,-1,1602,1289,0,0
385,-265,0,0,0,0,0,0,0,0,0,-1,1609,1289,0,0
392,-265,0,0,0,0,0,0,0,0,0,-1,1616,1289,0,0
399,-265,0,0,0,0,0,0,0,0,0,-1,1623,1289,0,0
406,-265,0,0,0,0,0,0,0,0,0,-1,1630,1289,0,0
413,-265,0,0,0,0,0,0,0,0,0,-1,1637,1289,0,0
420,-265,0,0,0,0,0,0,0,0,0,-1,1644,1289,0,0
427,-265,0,0,0,0,0,0,0,0,0,-1,1651,1289,0,0
434,-265,0,0,0,0,0,0,0,0,0,-1,1658,1289,0,0
441,-265,0,0,0,0,0,0,0,0,0,-1,1665,1289,0,0
448,-265,0,0,0,0,0,0,0,0,0,-1,1672,1289,0,0
455,-265,0,0,0,0,0,0,0,0,0,-1,1679,1289,0,0
462,-265,0,0,0,0,0,0,0,0,0,-1,1686,1289,0,0
469,-265,0,0,0,0,0,0,0,0,0,-1,1693,1289,0,0
476,-265,0,0,0,0,0,0,0,0,0,-1,1700,1289,0,0
483,-265,0,0,0,0,0,0,0,0,0,-1,1707,1289,0,0
490,-265,0,0,0,0,0,0,0,0,0,-1,1714,1289,0,0
497,-265,0,0,0,0,0,0,0,0,0,-1,1721,1289,0,0
504,-265,0,0,0,0,0,0,0,0,0,-1,1728,1289,0,0
511,-265,0,0,0,0,0,0,0,0,0,-1,1735,1289,0,0
518,-265,0,0,0,0,0,0,0,0,0,-1,1742,1289,0,0
525,-265,0,0,0,0,0,0,0,0,0,-1,1749,1289,0,0
532,-265,0,0,0,0,0,0,0,0,0,-1,1756,1289,0,0
539,-265,0,0,0,0,0,0,0,0,0,-1,1763,1289,0,0
546,-265,0,0,0,0,0,0,0,0,0,-1,1770,1289,0,0
553,-265,0,0,0,0,0,0,0,0,0,-1,1777,1289,0,0
560,-265,0,0,0,0,0,0,0,0,0,-1,1784,1289,0,0
567,-265,0,0,0,0,0,0,0,0,0,-1,1791,1289,0,0
574,-265,0,0,0,0,0,0,0,0,0,-1,1798,1289,0,0
581,-265,0,0,0,0,0,0,0,0,0,-1,1805,1289,0,0
588,-265,0,0,0,0,0,0,0,0,0,-1,1812,1289,0,0
595,-265,0,0,0,0,0,0,0,0,0,-1,1819,1289,0,0
602,-265,78.6746,2.40942,0.0121177,0.0182213,-0.00741741,0.0231902,0.00714879,-0.980564,0.0137131,0.0270675,1826,1289,78.6745,-2.40946
609,-265,78.6968,2.32239,0.01071,0.0209173,-0.00669969,0.0242359,0.00739149,-1.1109,0.014343,0.0296093,1833,1289,78.6968,-2.32234
616,-265,78.7023,2.3916,0.00765703,0.0219132,-0.00503215,0.0235104,0.00605974,-1.26344,0.0140948,0.0382915,1840,1289,78.7022,-2.39162
623,-265,78.7684,2.30664,0.0041323,0.0194254,-0.00315181,0.0200495,0.0035082,-1.37531,0.012364,0.0490554,1847,1289,78.7685,-2.30669
630,-265,79.3156,2.34229,0.00121503,0.0150682,-0.00162397,0.015256,0.0010272,-1.45565,0.00984616,0.0437103,1854,1289,79.3155,-2.34228
637,-265,78.819,2.30164,0,0,0,0,0,0,0,-1,1861,1289,78.819,-2.30165
644,-265,77.3746,2.97742,0,0,0,0,0,0,0,-1,1868,1289,77.3746,-2.97738
651,-265,53.6781,1.57166,0,0,0,0,0,0,0,-1,1875,1289,53.6781,-1.57167
658,-265,41.7163,3.71619,0,0,0,0,0,0,0,-1,1882,1289,41.7163,-3.71624
665,-265,34.7902,1.43164,0,0,0,0,0,0,0,-1,1889,1289,34.7901,-1.43162
672,-265,20.0045,6.62671,0,0,0,0,0,0,0,-1,1896,1289,20.0045,-6.62668
679,-265,48.9694,14.0298,0,0,0,0,0,0,0,-1,1903,1289,48.9694,-14.0297
686,-265,55.6733,15.7833,0,0,0,0,0,0,0,-1,1910,1289,55.6733,-15.7834
693,-265,55.6294,14.8785,-0.00215453,-0.00144685,0.00215523,0.000383399,-0.00398477,0.866761,0.0027931,0.0189052,1917,1289,55.6294,-14.8785
700,-265,55.6012,14.053,0.000524254,-0.000202611,0.000273686,0.00061578,-0.000294137,0.322728,0.000536169,0.0108006,1924,1289,55.6012,-14.053
707,-265,55.5631,13.2491,-2.44725e-05,-0.000226133,0.000704145,0.000586025,-0.00083663,0.714284,0.000825607,0.0114039,1931,1289,55.5632,-13.2492
714,-265,55.5179,12.4403,-0.00058469,-0.000205717,0.0012426,0.000861759,-0.00165217,0.861061,0.00147513,0.0141016,1938,1289,55.518,-12.4402
721,-265,55.4176,11.6182,-0.0011743,-0.00022072,0.00180935,0.00117361,-0.00256863,0.914226,0.00221006,0.0163095,1945,1289,55.4175,-11.6181
728,-265,55.3489,10.8638,-0.00184004,-0.000255813,0.00240923,0.00148818,-0.00358403,0.944223,0.00301062,0.0167463,1952,1289,55.3489,-10.8638
735,-265,55.3785,10.093,-0.0025939,-0.000295279,0.0030509,0.00181561,-0.0047048,0.965534,0.00388579,0.0171447,1959,1289,55.3785,-10.093
742,-265,55.3522,9.3252,-0.00345669,-0.000349394,0.00373694,0.002144,-0.00595008,0.982404,0.00484228,0.019664,1966,1289,55.3522,-9.32524
749,-265,55.3715,8.52454,-0.00445822,-0.000484289,0.00449817,0.00244622,-0.00738873,0.993375,0.00591239,0.0451862,1973,1289,55.3714,-8.52452
756,-265,55.4653,7.71094,0,0,0,0,0,0,0,-1,1980,1289,55.4654,-7.7109
763,-265,39.1299,4.9679,0,0,0,0,0,0,0,-1,1987,1289,39.1299,-4.96791
770,-265,35.1674,5.07715,0,0,0,0,0,0,0,-1,1994,1289,35.1673,-5.07718
777,-265,32.1664,5.3457,0,0,0,0,0,0,0,-1,2001,1289,32.1664,-5.34568
784,-265,0,0,0,0,0,0,0,0,0,-1,2008,1289,0,0
791,-265,0,0,0,0,0,0,0,0,0,-1,2015,1289,0,0
798,-265,0,0,0,0,0,0,0,0,0,-1,2022,1289,0,0
805,-265,0,0,0,0,0,0,0,0,0,-1,2029,1289,0,0
812,-265,0,0,0,0,0,0,0,0,0,-1,2036,1289,0,0
-700,-272,0,0,0,0,0,0,0,0,0,-1,524,1296,0,0
-693,-272,0,0,0,0,0,0,0,0,0,-1,531,1296,0,0
-686,-272,0,0,0,0,0,0,0,0,0,-1,538,1296,0,0
-679,-272,0,0,0,0,0,0,0,0,0,-1,545,1296,0,0
-672,-272,0,0,0,0,0,0,0,0,0,-1,552,1296,0,0
-665,-272,0,0,0,0,0,0,0,0,0,-1,559,1296,0,0
-658,-272,-44.6526,1.54443,0,0,0,0,0,0,0,-1,566,1296,-44.6526,-1.5444
-651,-272,-44.3723,1.53772,0,0,0,0,0,0,0,-1,573,1296,-44.3723,-1.53774
-644,-272,-44.1104,1.46021,0,0,0,0,0,0,0,-1,580,1296,-44.1104,-1.46022
-637,-272,-43.9348,1.25171,0,0,0,0,0,0,0,-1,587,1296,-43.9348,-1.25175
-630,-272,-43.5906,0.784912,0,0,0,0,0,0,0,-1,594,1296,-43.5906,-0.784935
-623,-272,-36.8673,6.23547,0,0,0,0,0,0,0,-1,601,1296,-36.8673,-6.23548
-616,-272,-37.8339,7.75195,0,0,0,0,0,0,0,-1,608,1296,-37.834,-7.75199
-609,-272,-37.9738,8.90906,0.0046235,0.00367597,0.000838138,0.00511251,0.00318696,0.528156,0.0029815,0.0287941,615,1296,-37.9738,-8.90901
-602,-272,-38.0576,9.63159,0.00306259,0.00267173,0.000626012,0.00352297,0.00221135,0.634098,0.00205598,0.0160881,622,1296,-38.0576,-9.63157
-595,-272,-38.1365,10.4952,0.00172303,0.00161481,0.000275554,0.00194974,0.0013881,0.688454,0.0011589,0.0122572,629,1296,-38.1366,-10.4953
-588,-272,-38.1797,11.3248,0.000689191,0.000552341,-9.58139e-05,0.000738505,0.000503028,-0.47532,0.000435603,0.0115563,636,1296,-38.1797,-11.3248
-581,-272,-38.2622,12.1323,-0.000193142,-0.000547459,-0.000468988,0.000131033,-0.000871634,-0.60481,0.00062933,0.0109536,643,1296,-38.2622,-12.1324
-574,-272,-38.3118,12.9788,-0.000912233,-0.00169098,-0.000845221,-0.00037101,-0.0022322,-0.569549,0.00138118,0.0156447,650,1296,-38.3118,-12.9787
-567,-272,-38.3459,13.7957,-0.00139272,-0.00288359,-0.00121094,-0.000716169,-0.00356014,-0.509497,0.00217438,0.0222664,657,1296,-38.3459,-13.7957
-560,-272,-38.5515,14.5911,-0.00131093,-0.00347661,-0.00156977,-0.000486747,-0.00430079,-0.483472,0.0027195,0.0259629,664,1296,-38.5515,-14.5911
-553,-272,-38.6233,15.4197,-0.000782187,-0.00370211,-0.00171885,1.30527e-05,-0.00449735,-0.43333,0.0030026,0.0394206,671,1296,-38.6233,-15.4197
-546,-272,-38.9164,16.3766,0,0,0,0,0,0,0,-1,678,1296,-38.9164,-16.3766
-539,-272,-24.1416,11.0325,0,0,0,0,0,0,0,-1,685,1296,-24.1416,-11.0324
-532,-272,-10.5572,4.53943,0,0,0,0,0,0,0,-1,692,1296,-10.5572,-4.53943
-525,-272,-11.9599,0.0393066,0,0,0,0,0,0,0,-1,699,1296,-11.9599,-0.0393577
-518,-272,-21.1357,-1.41382,0,0,0,0,0,0,0,-1,706,1296,-21.1357,1.41379
-511,-272,-23.2565,0.226318,0,0,0,0,0,0,0,-1,713,1296,-23.2565,-0.22626
-504,-272,-19.7397,0.114746,0,0,0,0,0,0,0,-1,720,1296,-19.7397,-0.114701
-497,-272,-19.2225,1.71301,0,0,0,0,0,0,0,-1,727,1296,-19.2225,-1.71302
-490,-272,-20.1948,2.4032,0,0,0,0,0,0,0,-1,734,1296,-20.1948,-2.40322
-483,-272,-15.3736,0.792603,0,0,0,0,0,0,0,-1,741,1296,-15.3736,-0.79263
-476,-272,0,0,0,0,0,0,0,0,0,-1,748,1296,0,0
-469,-272,0,0,0,0,0,0,0,0,0,-1,755,1296,0,0
-462,-272,0,0,0,0,0,0,0,0,0,-1,762,1296,0,0
-455,-272,0,0,0,0,0,0,0,0,0,-1,769,1296,0,0
-448,-272,0,0,0,0,0,0,0,0,0,-1,776,1296,0,0
-441,-272,0,0,0,0,0,0,0,0,0,-1,783,1296,0,0
-434,-272,0,0,0,0,0,0,0,0,0,-1,790,1296,0,0
-427,-272,0,0,0,0,0,0,0,0,0,-1,797,1296,0,0
-420,-272,0,0,0,0,0,0,0,0,0,-1,804,1296,0,0
-413,-272,0,0,0,0,0,0,0,0,0,-1,811,1296,0,0
-406,-272,0,0,0,0,0,0,0,0,0,-1,818,1296,0,0
-399,-272,0,0,0,0,0,0,0,0,0,-1,825,1296,0,0
-392,-272,0,0,0,0,0,0,0,0,0,-1,832,1296,0,0
-385,-272,0,0,0,0,0,0,0,0,0,-1,839,1296,0,0
-378,-272,0,0,0,0,0,0,0,0,0,-1,846,1296,0,0
-371,-272,0,0,0,0,0,0,0,0,0,-1,853,1296,0,0
-364,-272,0,0,0,0,0,0,0,0,0,-1,860,1296,0,0
-357,-272,0,0,0,0,0,0,0,0,0,-1,867,1296,0,0
-350,-272,0,0,0,0,0,0,0,0,0,-1,874,1296,0,0
-343,-272,0,0,0,0,0,0,0,0,0,-1,881,1296,0,0
-336,-272,0,0,0,0,0,0,0,0,0,-1,888,1296,0,0
-329,-272,0,0,0,0,0,0,0,0,0,-1,895,1296,0,0
-322,-272,0,0,0,0,0,0,0,0,0,-1,902,1296,0,0
-315,-272,0,0,0,0,0,0,0,0,0,-1,909,1296,0,0
-308,-272,0,0,0,0,0,0,0,0,0,-1,916,1296,0,0
-301,-272,0,0,0,0,0,0,0,0,0,-1,923,1296,0,0
-294,-272,0,0,0,0,0,0,0,0,0,-1,930,1296,0,0
-287,-272,0,0,0,0,0,0,0,0,0,-1,937,1296,0,0
-280,-272,0,0,0,0,0,0,0,0,0,-1,944,1296,0,0
-273,-272,0,0,0,0,0,0,0,0,0,-1,951,1296,0,0
-266,-272,0,0,0,0,0,0,0,0,0,-1,958,1296,0,0
-259,-272,0,0,0,0,0,0,0,0,0,-1,965,1296,0,0
-252,-272,0,0,0,0,0,0,0,0,0,-1,972,1296,0,0
-245,-272,0,0,0,0,0,0,0,0,0,-1,979,1296,0,0
-238,-272,0,0,0,0,0,0,0,0,0,-1,986,1296,0,0
-231,-272,0,0,0,0,0,0,0,0,0,-1,993,1296,0,0
-224,-272,0,0,0,0,0,0,0,0,0,-1,1000,1296,0,0
-217,-272,0,0,0,0,0,0,0,0,0,-1,1007,1296,0,0
-210,-272,0,0,0,0,0,0,0,0,0,-1,1014,1296,0,0
-203,-272,0,0,0,0,0,0,0,0,0,-1,1021,1296,0,0
-196,-272,0,0,0,0,0,0,0,0,0,-1,1028,1296,0,0
-189,-272,0,0,0,0,0,0,0,0,0,-1,1035,1296,0,0
-182,-272,0,0,0,0,0,0,0,0,0,-1,1042,1296,0,0
-175,-272,0,0,0,0,0,0,0,0,0,-1,1049,1296,0,0
-168,-272,0,0,0,0,0,0,0,0,0,-1,1056,1296,0,0
-161,-272,0,0,0,0,0,0,0,0,0,-1,1063,1296,0,0
-154,-272,0,0,0,0,0,0,0,0,0,-1,1070,1296,0,0
-147,-272,0,0,0,0,0,0,0,0,0,-1,1077,1296,0,0
-140,-272,0,0,0,0,0,0,0,0,0,-1,1084,1296,0,0
-133,-272,0,0,0,0,0,0,0,0,0,-1,1091,1296,0,0
-126,-272,0,0,0,0,0,0,0,0,0,-1,1098,1296,0,0
-119,-272,0,0,0,0,0,0,0,0,0,-1,1105,1296,0,0
-112,-272,0,0,0,0,0,0,0,0,0,-1,1112,1296,0,0
-105,-272,0,0,0,0,0,0,0,0,0,-1,1119,1296,0,0
-98,-272,0,0,0,0,0,0,0,0,0,-1,1126,1296,0,0
-91,-272,0,0,0,0,0,0,0,0,0,-1,1133,1296,0,0
-84,-272,0,0,0,0,0,0,0,0,0,-1,1140,1296,0,0
-77,-272,0,0,0,0,0,0,0,0,0,-1,1147,1296,0,0
-70,-272,0,0,0,0,0,0,0,0,0,-1,1154,1296,0,0
-63,-272,0,0,0,0,0,0,0,0,0,-1,1161,1296,0,0
-56,-272,0,0,0,0,0,0,0,0,0,-1,1168,1296,0,0
-49,-272,0,0,0,0,0,0,0,0,0,-1,1175,1296,0,0
-42,-272,0,0,0,0,0,0,0,0,0,-1,1182,1296,0,0
-35,-272,0,0,0,0,0,0,0,0,0,-1,1189,1296,0,0
-28,-272,0,0,0,0,0,0,0,0,0,-1,1196,1296,0,0
-21,-272,0,0,0,0,0,0,0,0,0,-1,1203,1296,0,0
-14,-272,0,0,0,0,0,0,0,0,0,-1,1210,1296,0,0
-7,-272,0,0,0,0,0,0,0,0,0,-1,1217,1296,0,0
0,-272,0,0,0,0,0,0,0,0,0,-1,1224,1296,0,0
7,-272,0,0,0,0,0,0,0,0,0,-1,1231,1296,0,0
14,-272,0,0,0,0,0,0,0,0,0,-1,1238,1296,0,0
21,-272,0,0,0,0,0,0,0,0,0,-1,1245,1296,0,0
28,-272,0,0,0,0,0,0,0,0,0,-1,1252,1296,0,0
35,-272,0,0,0,0,0,0,0,0,0,-1,1259,1296,0,0
42,-272,0,0,0,0,0,0,0,0,0,-1,1266,1296,0,0
49,-272,0,0,0,0,0,0,0,0,0,-1,1273,1296,0,0
56,-272,0,0,0,0,0,0,0,0,0,-1,1280,1296,0,0
63,-272,0,0,0,0,0,0,0,0,0,-1,1287,1296,0,0
70,-272,0,0,0,0,0,0,0,0,0,-1,1294,1296,0,0
77,-272,0,0,0,0,0,0,0,0,0,-1,1301,1296,0,0
84,-272,0,0,0,0,0,0,0,0,0,-1,1308,1296,0,0
91,-272,0,0,0,0,0,0,0,0,0,-1,1315,1296,0,0
98,-272,0,0,0,0,0,0,0,0,0,-1,1322,1296,0,0
105,-272,0,0,0,0,0,0,0,0,0,-1,1329,1296,0,0
112,-272,0,0,0,0,0,0,0,0,0,-1,1336,1296,0,0
119,-272,0,0,0,0,0,0,0,0,0,-1,1343,1296,0,0
126,-272,0,0,0,0,0,0,0,0,0,-1,1350,1296,0,0
133,-272,0,0,0,0,0,0,0,0,0,-1,1357,1296,0,0
140,-272,0,0,0,0,0,0,0,0,0,-1,1364,1296,0,0
147,-272,0,0,0,0,0,0,0,0,0,-1,1371,1296,0,0
154,-272,0,0,0,0,0,0,0,0,0,-1,1378,1296,0,0
161,-272,0,0,0,0,0,0,0,0,0,-1,1385,1296,0,0
168,-272,0,0,0,0,0,0,0,0,0,-1,1392,1296,0,0
175,-272,0,0,0,0,0,0,0,0,0,-1,1399,1296,0,0
182,-272,0,0,0,0,0,0,0,0,0,-1,1406,1296,0,0
189,-272,0,0,0,0,0,0,0,0,0,-1,1413,1296,0,0
196,-272,0,0,0,0,0,0,0,0,0,-1,1420,1296,0,0
203,-272,0,0,0,0,0,0,0,0,0,-1,1427,1296,0,0
210,-272,0,0,0,0,0,0,0,0,0,-1,1434,1296,0,0
217,-272,0,0,0,0,0,0,0,0,0,-1,1441,1296,0,0
224,-272,0,0,0,0,0,0,0,0,0,-1,1448,1296,0,0
231,-272,0,0,0,0,0,0,0,0,0,-1,1455,1296,0,0
238,-272,0,0,0,0,0,0,0,0,0,-1,1462,1296,0,0
245,-272,0,0,0,0,0,0,0,0,0,-1,1469,1296,0,0
252,-272,0,0,0,0,0,0,0,0,0,-1,1476,1296,0,0
259,-272,0,0,0,0,0,0,0,0,0,-1,1483,1296,0,0
266,-272,0,0,0,0,0,0,0,0,0,-1,1490,1296,0,0
273,-272,0,0,0,0,0,0,0,0,0,-1,1497,1296,0,0
280,-272,0,0,0,0,0,0,0,0,0,-1,1504,1296,0,0
287,-272,0,0,0,0,0,0,0,0,0,-1,1511,1296,0,0
294,-272,0,0,0,0,0,0,0,0,0,-1,1518,1296,0,0
301,-272,0,0,0,0,0,0,0,0,0,-1,1525,1296,0,0
308,-272,0,0,0,0,0,0,0,0,0,-1,1532,1296,0,0
315,-272,0,0,0,0,0,0,0,0,0,-1,1539,1296,0,0
322,-272,0,0,0,0,0,0,0,0,0,-1,1546,1296,0,0
329,-272,0,0,0,0,0,0,0,0,0,-1,1553,1296,0,0
336,-272,0,0,0,0,0,0,0,0,0,-1,1560,1296,0,0
343,-272,0,0,0,0,0,0,0,0,0,-1,1567,1296,0,0
350,-272,0,0,0,0,0,0,0,0,0,-1,1574,1296,0,0
357,-272,0,0,0,0,0,0,0,0,0,-1,1581,1296,0,0
364,-272,0,0,0,0,0,0,0,0,0,-1,1588,1296,0,0
371,-272,0,0,0,0,0,0,0,0,0,-1,1595,1296,0,0
378,-272,0,0,0,0,0,0,0,0,0,-1,1602,1296,0,0
385,-272,0,0,0,0,0,0,0,0,0,-1,1609,1296,0,0
392,-272,0,0,0,0,0,0,0,0,0,-1,1616,1296,0,0
399,-272,0,0,0,0,0,0,0,0,0,-1,1623,1296,0,0
406,-272,0,0,0,0,0,0,0,0,0,-1,1630,1296,0,0
413,-272,0,0,0,0,0,0,0,0,0,-1,1637,1296,0,0
420,-272,0,0,0,0,0,0,0,0,0,-1,1644,1296,0,0
427,-272,0,0,0,0,0,0,0,0,0,-1,1651,1296,0,0
434,-272,0,0,0,0,0,0,0,0,0,-1,1658,1296,0,0
441,-272,0,0,0,0,0,0,0,0,0,-1,1665,1296,0,0
448,-272,0,0,0,0,0,0,0,0,0,-1,1672,1296,0,0
455,-272,0,0,0,0,0,0,0,0,0,-1,1679,1296,0,0
462,-272,0,0,0,0,0,0,0,0,0,-1,1686,1296,0,0
469,-272,0,0,0,0,0,0,0,0,0,-1,1693,1296,0,0
476,-272,0,0,0,0,0,0,0,0,0,-1,1700,1296,0,0
483,-272,0,0,0,0,0,0,0,0,0,-1,1707,1296,0,0
490,-272,0,0,0,0,0,0,0,0,0,-1,1714,1296,0,0
497,-272,0,0,0,0,0,0,0,0,0,-1,1721,1296,0,0
504,-272,0,0,0,0,0,0,0,0,0,-1,1728,1296,0,0
511,-272,0,0,0,0,0,0,0,0,0,-1,1735,1296,0,0
518,-272,0,0,0,0,0,0,0,0,0,-1,1742,1296,0,0
525,-272,0,0,0,0,0,0,0,0,0,-1,1749,1296,0,0
532,-272,0,0,0,0,0,0,0,0,0,-1,1756,1296,0,0
539,-272,0,0,0,0,0,0,0,0,0,-1,1763,1296,0,0
546,-272,0,0,0,0,0,0,0,0,0,-1,1770,1296,0,0
553,-272,0,0,0,0,0,0,0,0,0,-1,1777,1296,0,0
560,-272,0,0,0,0,0,0,0,0,0,-1,1784,1296,0,0
567,-272,0,0,0,0,0,0,0,0,0,-1,1791,1296,0,0
574,-272,0,0,0,0,0,0,0,0,0,-1,1798,1296,0,0
581,-272,0,0,0,0,0,0,0,0,0,-1,1805,1296,0,0
588,-272,0,0,0,0,0,0,0,0,0,-1,1812,1296,0,0
595,-272,0,0,0,0,0,0,0,0,0,-1,1819,1296,0,0
602,-272,78.6614,2.36047,0.0152865,0.0265812,-0.00895317,0.0315193,0.0103484,-1.06677,0.0185518,0.0307517,1826,1296,78.6613,-2.36053
609,-272,78.5883,2.2063,0.0149884,0.0299453,-0.0083992,0.0337129,0.0112208,-1.14913,0.0198235,0.0399944,1833,1296,78.5882,-2.20634
616,-272,78.4834,1.94739,0.0124371,0.0297494,-0.00680702,0.0321052,0.0100812,-1.23761,0.0189586,0.0492071,1840,1296,78.4834,-1.9474
623,-272,78.9755,1.5,0.00930018,0.024245,-0.00526852,0.0259156,0.00762961,-1.26374,0.0153783,0.0443455,1847,1296,78.9755,-1.50006
630,-272,79.3712,1.52563,0,0,0,0,0,0,0,-1,1854,1296,79.3712,-1.52564
637,-272,77.3831,1.07275,0,0,0,0,0,0,0,-1,1861,1296,77.3831,-1.07278
644,-272,53.563,1.44336,0,0,0,0,0,0,0,-1,1868,1296,53.5629,-1.4433
651,-272,41.9225,4.27161,0,0,0,0,0,0,0,-1,1875,1296,41.9225,-4.27157
658,-272,35.1527,2.10571,0,0,0,0,0,0,0,-1,1882,1296,35.1527,-2.10573
665,-272,22.0238,4.14417,0,0,0,0,0,0,0,-1,1889,1296,22.0238,-4.14421
672,-272,22.661,7.21765,0,0,0,0,0,0,0,-1,1896,1296,22.661,-7.21761
679,-272,51.5885,15.1158,0,0,0,0,0,0,0,-1,1903,1296,51.5885,-15.1159
686,-272,54.7633,15.733,0,0,0,0,0,0,0,-1,1910,1296,54.7633,-15.733
693,-272,54.7975,14.9238,-0.00172612,-0.00120412,0.0016226,0.000178339,-0.00310857,0.865142,0.00213431,0.0133317,1917,1296,54.7975,-14.9238
700,-272,54.7805,14.1055,0.000626141,-9.55874e-05,7.87041e-05,0.000634624,-0.00010407,0.107368,0.000461699,0.0124838,1924,1296,54.7806,-14.1055
707,-272,54.7411,13.2896,0.00014076,-0.000156703,0.000633408,0.000642664,-0.000658608,0.670081,0.000751308,0.0119991,1931,1296,54.741,-13.2895
714,-272,54.6835,12.4772,-0.000384767,-0.000205198,0.00123915,0.000947418,-0.00153738,0.821563,0.00144802,0.0150052,1938,1296,54.6835,-12.4772
721,-272,54.624,11.7092,-0.000960759,-0.000274259,0.00186244,0.00127629,-0.00251131,0.876526,0.00222519,0.0196007,1945,1296,54.624,-11.7092
728,-272,54.5928,10.8796,-0.00160025,-0.000361378,0.00250871,0.00160323,-0.00356486,0.906435,0.00305461,0.0197773,1952,1296,54.5928,-10.8797
735,-272,54.5636,10.1168,-0.002313,-0.000455405,0.00318431,0.0019328,-0.00470121,0.927301,0.00393975,0.0167964,1959,1296,54.5636,-10.1168
742,-272,54.4667,9.41882,-0.00312407,-0.000565583,0.00387815,0.00223887,-0.00592852,0.944708,0.00487319,0.0243826,1966,1296,54.4667,-9.4188
749,-272,54.5712,8.53784,-0.00405761,-0.000780558,0.0046261,0.00248862,-0.00732679,0.9556,0.00589194,0.0429896,1973,1296,54.5712,-8.5378
756,-272,54.8013,7.6792,0,0,0,0,0,0,0,-1,1980,1296,54.8013,-7.67925
763,-272,34.3995,5.88416,0,0,0,0,0,0,0,-1,1987,1296,34.3996,-5.88419
770,-272,25.9485,3.67749,0,0,0,0,0,0,0,-1,1994,1296,25.9485,-3.67744
777,-272,32.3619,6.13257,0,0,0,0,0,0,0,-1,2001,1296,32.362,-6.1326
784,-272,0,0,0,0,0,0,0,0,0,-1,2008,1296,0,0
791,-272,0,0,0,0,0,0,0,0,0,-1,2015,1296,0,0
798,-272,0,0,0,0,0,0,0,0,0,-1,2022,1296,0,0
805,-272,0,0,0,0,0,0,0,0,0,-1,2029,1296,0,0
812,-272,0,0,0,0,0,0,0,0,0,-1,2036,1296,0,0
-700,-279,0,0,0,0,0,0,0,0,0,-1,524,1303,0,0
-693,-279,0,0,0,0,0,0,0,0,0,-1,531,1303,0,0
-686,-279,0,0,0,0,0,0,0,0,0,-1,538,1303,0,0
-679,-279,0,0,0,0,0,0,0,0,0,-1,545,1303,0,0
-672,-279,0,0,0,0,0,0,0,0,0,-1,552,1303,0,0
-665,-279,0,0,0,0,0,0,0,0,0,-1,559,1303,0,0
-658,-279,-44.3733,1.65881,0,0,0,0,0,0,0,-1,566,1303,-44.3733,-1.65883
-651,-279,-44.1603,1.61462,0,0,0,0,0,0,0,-1,573,1303,-44.1604,-1.61462
-644,-279,-43.8069,1.50903,0,0,0,0,0,0,0,-1,580,1303,-43.8069,-1.50909
-637,-279,-43.2951,1.33704,0,0,0,0,0,0,0,-1,587,1303,-43.2951,-1.33703
-630,-279,-42.6152,1.22852,0,0,0,0,0,0,0,-1,594,1303,-42.6152,-1.22856
-623,-279,-41.8359,0.907715,0,0,0,0,0,0,0,-1,601,1303,-41.8358,-0.907688
-616,-279,-36.7089,8.0625,0,0,0,0,0,0,0,-1,608,1303,-36.7089,-8.06252
-609,-279,-37.3655,9.18311,0,0,0,0,0,0,0,-1,615,1303,-37.3655,-9.18305
-602,-279,-37.2054,9.67944,0.00380239,0.00332407,0.00124538,0.00483137,0.00229509,0.690534,0.00279055,0.0161243,622,1303,-37.2054,-9.67945
-595,-279,-37.3139,10.526,0.00241626,0.00222358,0.000787441,0.00311323,0.00152661,0.724529,0.00179754,0.0109052,629,1303,-37.3139,-10.526
-588,-279,-37.3733,11.3694,0.00141882,0.00115696,0.000308795,0.0016233,0.000952486,0.58489,0.000941902,0.0123078,636,1303,-37.3733,-11.3693
-581,-279,-37.4095,12.1676,0.000633485,0.000100022,-0.000127345,0.000662325,7.11822e-05,-0.222714,0.000419839,0.0134679,643,1303,-37.4095,-12.1676
-574,-279,-37.4631,12.9962,4.71829e-05,-0.000956169,-0.000536023,0.000279673,-0.00118866,-0.409242,0.000900262,0.0140769,650,1303,-37.4631,-12.9962
-567,-279,-37.5004,13.8292,-0.00029701,-0.00201186,-0.00090358,9.12106e-05,-0.00240008,-0.4058,0.00163131,0.0191798,657,1303,-37.5004,-13.8292
-560,-279,-37.5923,14.7363,-0.000228893,-0.0028195,-0.00119445,0.00023777,-0.00328616,-0.372457,0.00227418,0.0200879,664,1303,-37.5923,-14.7363
-553,-279,-37.6432,15.593,0.000177476,-0.00339303,-0.00129348,0.000596812,-0.00381237,-0.313502,0.00276209,0.0259482,671,1303,-37.6432,-15.5931
-546,-279,-37.6467,16.3839,0.000919871,-0.00359741,-0.0011437,0.00119293,-0.00387047,-0.234364,0.00305656,0.0331445,678,1303,-37.6467,-16.384
-539,-279,-38.0701,17.1943,0,0,0,0,0,0,0,-1,685,1303,-38.0701,-17.1943
-532,-279,-14.9813,7.89917,0,0,0,0,0,0,0,-1,692,1303,-14.9813,-7.89918
-525,-279,-11.7063,-0.539185,0,0,0,0,0,0,0,-1,699,1303,-11.7063,0.539166
-518,-279,-16.8138,1.11963,0,0,0,0,0,0,0,-1,706,1303,-16.8138,-1.11968
-511,-279,-20.1063,-1.37915,0,0,0,0,0,0,0,-1,713,1303,-20.1062,1.37918
-504,-279,-18.3766,1.04578,0,0,0,0,0,0,0,-1,720,1303,-18.3767,-1.04577
-497,-279,-19.0046,2.08911,0,0,0,0,0,0,0,-1,727,1303,-19.0046,-2.08905
-490,-279,-20.0176,2.55188,0,0,0,0,0,0,0,-1,734,1303,-20.0176,-2.55183
-483,-279,-20.8064,2.99792,0,0,0,0,0,0,0,-1,741,1303,-20.8064,-2.99797
-476,-279,0,0,0,0,0,0,0,0,0,-1,748,1303,0,0
-469,-279,0,0,0,0,0,0,0,0,0,-1,755,1303,0,0
-462,-279,0,0,0,0,0,0,0,0,0,-1,762,1303,0,0
-455,-279,0,0,0,0,0,0,0,0,0,-1,769,1303,0,0
-448,-279,0,0,0,0,0,0,0,0,0,-1,776,1303,0,0
-441,-279,0,0,0,0,0,0,0,0,0,-1,783,1303,0,0
-434,-279,0,0,0,0,0,0,0,0,0,-1,790,1303,0,0
-427,-279,0,0,0,0,0,0,0,0,0,-1,797,1303,0,0
-420,-279,0,0,0,0,0,0,0,0,0,-1,804,1303,0,0
-413,-279,0,0,0,0,0,0,0,0,0,-1,811,1303,0,0
-406,-279,0,0,0,0,0,0,0,0,0,-1,818,1303,0,0
-399,-279,0,0,0,0,0,0,0,0,0,-1,825,1303,0,0
-392,-279,0,0,0,0,0,0,0,0,0,-1,832,1303,0,0
-385,-279,0,0,0,0,0,0,0,0,0,-1,839,1303,0,0
-378,-279,0,0,0,0,0,0,0,0,0,-1,846,1303,0,0
-371,-279,0,0,0,0,0,0,0,0,0,-1,853,1303,0,0
-364,-279,0,0,0,0,0,0,0,0,0,-1,860,1303,0,0
-357,-279,0,0,0,0,0,0,0,0,0,-1,867,1303,0,0
-350,-279,0,0,0,0,0,0,0,0,0,-1,874,1303,0,0
-343,-279,0,0,0,0,0,0,0,0,0,-1,881,1303,0,0
-336,-279,0,0,0,0,0,0,0,0,0,-1,888,1303,0,0
-329,-279,0,0,0,0,0,0,0,0,0,-1,895,1303,0,0
-322,-279,0,0,0,0,0,0,0,0,0,-1,902,1303,0,0
-315,-279,0,0,0,0,0,0,0,0,0,-1,909,1303,0,0
-308,-279,0,0,0,0,0,0,0,0,0,-1,916,1303,0,0
-301,-279,0,0,0,0,0,0,0,0,0,-1,923,1303,0,0
-294,-279,0,0,0,0,0,0,0,0,0,-1,930,1303,0,0
-287,-279,0,0,0,0,0,0,0,0,0,-1,937,1303,0,0
-280,-279,0,0,0,0,0,0,0,0,0,-1,944,1303,0,0
-273,-279,0,0,0,0,0,0,0,0,0,-1,951,1303,0,0
-266,-279,0,0,0,0,0,0,0,0,0,-1,958,1303,0,0
-259,-279,0,0,0,0,0,0,0,0,0,-1,965,1303,0,0
-252,-279,0,0,0,0,0,0,0,0,0,-1,972,1303,0,0
-245,-279,0,0,0,0,0,0,0,0,0,-1,979,1303,0,0
-238,-279,0,0,0,0,0,0,0,0,0,-1,986,1303,0,0
-231,-279,0,0,0,0,0,0,0,0,0,-1,993,1303,0,0
-224,-279,0,0,0,0,0,0,0,0,0,-1,1000,1303,0,0
-217,-279,0,0,0,0,0,0,0,0,0,-1,1007,1303,0,0
-210,-279,0,0,0,0,0,0,0,0,0,-1,1014,1303,0,0
-203,-279,0,0,0,0,0,0,0,0,0,-1,1021,1303,0,0
-196,-279,0,0,0,0,0,0,0,0,0,-1,1028,1303,0,0
-189,-279,0,0,0,0,0,0,0,0,0,-1,1035,1303,0,0
-182,-279,0,0,0,0,0,0,0,0,0,-1,1042,1303,0,0
-175,-279,0,0,0,0,0,0,0,0,0,-1,1049,1303,0,0
-168,-279,0,0,0,0,0,0,0,0,0,-1,1056,1303,0,0
-161,-279,0,0,0,0,0,0,0,0,0,-1,1063,1303,0,0
-154,-279,0,0,0,0,0,0,0,0,0,-1,1070,1303,0,0
-147,-279,0,0,0,0,0,0,0,0,0,-1,1077,1303,0,0
-140,-279,0,0,0,0,0,0,0,0,0,-1,1084,1303,0,0
-133,-279,0,0,0,0,0,0,0,0,0,-1,1091,1303,0,0
-126,-279,0,0,0,0,0,0,0,0,0,-1,1098,1303,0,0
-119,-279,0,0,0,0,0,0,0,0,0,-1,1105,1303,0,0
-112,-279,0,0,0,0,0,0,0,0,0,-1,1112,1303,0,0
-105,-279,0,0,0,0,0,0,0,0,0,-1,1119,1303,0,0
-98,-279,0,0,0,0,0,0,0,0,0,-1,1126,1303,0,0
-91,-279,0,0,0,0,0,0,0,0,0,-1,1133,1303,0,0
-84,-279,0,0,0,0,0,0,0,0,0,-1,1140,1303,0,0
-77,-279,0,0,0,0,0,0,0,0,0,-1,1147,1303,0,0
-70,-279,0,0,0,0,0,0,0,0,0,-1,1154,1303,0,0
-63,-279,0,0,0,0,0,0,0,0,0,-1,1161,1303,0,0
-56,-279,0,0,0,0,0,0,0,0,0,-1,1168,1303,0,0
-49,-279,0,0,0,0,0,0,0,0,0,-1,1175,1303,0,0
-42,-279,0,0,0,0,0,0,0,0,0,-1,1182,1303,0,0
-35,-279,0,0,0,0,0,0,0,0,0,-1,1189,1303,0,0
-28,-279,0,0,0,0,0,0,0,0,0,-1,1196,1303,0,0
-21,-279,0,0,0,0,0,0,0,0,0,-1,1203,1303,0,0
-14,-279,0,0,0,0,0,0,0,0,0,-1,1210,1303,0,0
-7,-279,0,0,0,0,0,0,0,0,0,-1,1217,1303,0,0
0,-279,0,0,0,0,0,0,0,0,0,-1,1224,1303,0,0
7,-279,0,0,0,0,0,0,0,0,0,-1,1231,1303,0,0
14,-279,0,0,0,0,0,0,0,0,0,-1,1238,1303,0,0
21,-279,0,0,0,0,0,0,0,0,0,-1,1245,1303,0,0
28,-279,0,0,0,0,0,0,0,0,0,-1,1252,1303,0,0
35,-279,0,0,0,0,0,0,0,0,0,-1,1259,1303,0,0
42,-279,0,0,0,0,0,0,0,0,0,-1,1266,1303,0,0
49,-279,0,0,0,0,0,0,0,0,0,-1,1273,1303,0,0
56,-279,0,0,0,0,0,0,0,0,0,-1,1280,1303,0,0
63,-279,0,0,0,0,0,0,0,0,0,-1,1287,1303,0,0
70,-279,0,0,0,0,0,0,0,0,0,-1,1294,1303,0,0
77,-279,0,0,0,0,0,0,0,0,0,-1,1301,1303,0,0
84,-279,0,0,0,0,0,0,0,0,0,-1,1308,1303,0,0
91,-279,0,0,0,0,0,0,0,0,0,-1,1315,1303,0,0
98,-279,0,0,0,0,0,0,0,0,0,-1,1322,1303,0,0
105,-279,0,0,0,0,0,0,0,0,0,-1,1329,1303,0,0
112,-279,0,0,0,0,0,0,0,0,0,-1,1336,1303,0,0
119,-279,0,0,0,0,0,0,0,0,0,-1,1343,1303,0,0
126,-279,0,0,0,0,0,0,0,0,0,-1,1350,1303,0,0
133,-279,0,0,0,0,0,0,0,0,0,-1,1357,1303,0,0
140,-279,0,0,0,0,0,0,0,0,0,-1,1364,1303,0,0
147,-279,0,0,0,0,0,0,0,0,0,-1,1371,1303,0,0
154,-279,0,0,0,0,0,0,0,0,0,-1,1378,1303,0,0
161,-279,0,0,0,0,0,0,0,0,0,-1,1385,1303,0,0
168,-279,0,0,0,0,0,0,0,0,0,-1,1392,1303,0,0
175,-279,0,0,0,0,0,0,0,0,0,-1,1399,1303,0,0
182,-279,0,0,0,0,0,0,0,0,0,-1,1406,1303,0,0
189,-279,0,0,0,0,0,0,0,0,0,-1,1413,1303,0,0
196,-279,0,0,0,0,0,0,0,0,0,-1,1420,1303,0,0
203,-279,0,0,0,0,0,0,0,0,0,-1,1427,1303,0,0
210,-279,0,0,0,0,0,0,0,0,0,-1,1434,1303,0,0
217,-279,0,0,0,0,0,0,0,0,0,-1,1441,1303,0,0
224,-279,0,0,0,0,0,0,0,0,0,-1,1448,1303,0,0
231,-279,0,0,0,0,0,0,0,0,0,-1,1455,1303,0,0
238,-279,0,0,0,0,0,0,0,0,0,-1,1462,1303,0,0
245,-279,0,0,0,0,0,0,0,0,0,-1,1469,1303,0,0
252,-279,0,0,0,0,0,0,0,0,0,-1,1476,1303,0,0
259,-279,0,0,0,0,0,0,0,0,0,-1,1483,1303,0,0
266,-279,0,0,0,0,0,0,0,0,0,-1,1490,1303,0,0
273,-279,0,0,0,0,0,0,0,0,0,-1,1497,1303,0,0
280,-279,0,0,0,0,0,0,0,0,0,-1,1504,1303,0,0
287,-279,0,0,0,0,0,0,0,0,0,-1,1511,1303,0,0
294,-279,0,0,0,0,0,0,0,0,0,-1,1518,1303,0,0
301,-279,0,0,0,0,0,0,0,0,0,-1,1525,1303,0,0
308,-279,0,0,0,0,0,0,0,0,0,-1,1532,1303,0,0
315,-279,0,0,0,0,0,0,0,0,0,-1,1539,1303,0,0
322,-279,0,0,0,0,0,0,0,0,0,-1,1546,1303,0,0
329,-279,0,0,0,0,0,0,0,0,0,-1,1553,1303,0,0
336,-279,0,0,0,0,0,0,0,0,0,-1,1560,1303,0,0
343,-279,0,0,0,0,0,0,0,0,0,-1,1567,1303,0,0
350,-279,0,0,0,0,0,0,0,0,0,-1,1574,1303,0,0
357,-279,0,0,0,0,0,0,0,0,0,-1,1581,1303,0,0
364,-279,0,0,0,0,0,0,0,0,0,-1,1588,1303,0,0
371,-279,0,0,0,0,0,0,0,0,0,-1,1595,1303,0,0
378,-279,0,0,0,0,0,0,0,0,0,-1,1602,1303,0,0
385,-279,0,0,0,0,0,0,0,0,0,-1,1609,1303,0,0
392,-279,0,0,0,0,0,0,0,0,0,-1,1616,1303,0,0
399,-279,0,0,0,0,0,0,0,0,0,-1,1623,1303,0,0
406,-279,0,0,0,0,0,0,0,0,0,-1,1630,1303,0,0
413,-279,0,0,0,0,0,0,0,0,0,-1,1637,1303,0,0
420,-279,0,0,0,0,0,0,0,0,0,-1,1644,1303,0,0
427,-279,0,0,0,0,0,0,0,0,0,-1,1651,1303,0,0
434,-279,0,0,0,0,0,0,0,0,0,-1,1658,1303,0,0
441,-279,0,0,0,0,0,0,0,0,0,-1,1665,1303,0,0
448,-279,0,0,0,0,0,0,0,0,0,-1,1672,1303,0,0
455,-279,0,0,0,0,0,0,0,0,0,-1,1679,1303,0,0
462,-279,0,0,0,0,0,0,0,0,0,-1,1686,1303,0,0
469,-279,0,0,0,0,0,0,0,0,0,-1,1693,1303,0,0
476,-279,0,0,0,0,0,0,0,0,0,-1,1700,1303,0,0
483,-279,0,0,0,0,0,0,0,0,0,-1,1707,1303,0,0
490,-279,0,0,0,0,0,0,0,0,0,-1,1714,1303,0,0
497,-279,0,0,0,0,0,0,0,0,0,-1,1721,1303,0,0
504,-279,0,0,0,0,0,0,0,0,0,-1,1728,1303,0,0
511,-279,0,0,0,0,0,0,0,0,0,-1,1735,1303,0,0
518,-279,0,0,0,0,0,0,0,0,0,-1,1742,1303,0,0
525,-279,0,0,0,0,0,0,0,0,0,-1,1749,1303,0,0
532,-279,0,0,0,0,0,0,0,0,0,-1,1756,1303,0,0
539,-279,0,0,0,0,0,0,0,0,0,-1,1763,1303,0,0
546,-279,0,0,0,0,0,0,0,0,0,-1,1770,1303,0,0
553,-279,0,0,0,0,0,0,0,0,0,-1,1777,1303,0,0
560,-279,0,0,0,0,0,0,0,0,0,-1,1784,1303,0,0
567,-279,0,0,0,0,0,0,0,0,0,-1,1791,1303,0,0
574,-279,0,0,0,0,0,0,0,0,0,-1,1798,1303,0,0
581,-279,0,0,0,0,0,0,0,0,0,-1,1805,1303,0,0
588,-279,0,0,0,0,0,0,0,0,0,-1,1812,1303,0,0
595,-279,0,0,0,0,0,0,0,0,0,-1,1819,1303,0,0
602,-279,78.6354,2.27332,0,0,0,0,0,0,0,-1,1826,1303,78.6354,-2.2733
609,-279,78.5168,2.09448,0,0,0,0,0,0,0,-1,1833,1303,78.5169,-2.0945
616,-279,78.2731,1.52686,0,0,0,0,0,0,0,-1,1840,1303,78.273,-1.52687
623,-279,79.0588,0.693848,0,0,0,0,0,0,0,-1,1847,1303,79.0589,-0.693845
630,-279,79.4244,0.700928,0,0,0,0,0,0,0,-1,1854,1303,79.4244,-0.700966
637,-279,73.1141,1.62744,0,0,0,0,0,0,0,-1,1861,1303,73.1142,-1.62742
644,-279,33.5021,3.40234,0,0,0,0,0,0,0,-1,1868,1303,33.5021,-3.40237
651,-279,29.8456,2.3562,0,0,0,0,0,0,0,-1,1875,1303,29.8455,-2.35615
658,-279,21.5076,7.65649,0,0,0,0,0,0,0,-1,1882,1303,21.5076,-7.65648
665,-279,18.9794,6.09607,0,0,0,0,0,0,0,-1,1889,1303,18.9793,-6.09601
672,-279,23.5206,8.32507,0,0,0,0,0,0,0,-1,1896,1303,23.5206,-8.32512
679,-279,53.8031,16.6227,0,0,0,0,0,0,0,-1,1903,1303,53.8031,-16.6227
686,-279,53.9768,15.8074,-0.00367918,-0.00123227,0.00177069,-0.000303478,-0.00460798,1.08771,0.00297599,0.036104,1910,1303,53.9769,-15.8074
693,-279,53.9906,14.9966,-0.00103426,-0.000899943,0.0010127,4.78214e-05,-0.00198202,0.818507,0.00133757,0.0182687,1917,1303,53.9906,-14.9966
700,-279,53.9392,14.1833,0.000787554,-2.01467e-06,-5.83447e-05,0.000791842,-6.30275e-06,-0.0733634,0.000530008,0.0130787,1924,1303,53.9392,-14.1833
707,-279,53.8948,13.3472,0.000330895,-0.000108981,0.000578015,0.000729402,-0.000507488,0.603604,0.00071794,0.00973505,1931,1303,53.8948,-13.3471
714,-279,53.8424,12.5427,-0.000177407,-0.000240236,0.00124068,0.00103225,-0.0014499,0.772741,0.00143982,0.0114814,1938,1303,53.8424,-12.5428
721,-279,53.8584,11.7438,-0.000734082,-0.000400549,0.00192782,0.00136771,-0.00250234,0.828543,0.00226616,0.0162755,1945,1303,53.8584,-11.7438
728,-279,53.8461,10.95,-0.00135415,-0.000582487,0.00264117,0.00170088,-0.00363752,0.857927,0.00314901,0.0181138,1952,1303,53.846,-10.9499
735,-279,53.7576,10.1914,-0.00204486,-0.00078299,0.00338599,0.00203034,-0.0048582,0.877511,0.00408728,0.017201,1959,1303,53.7576,-10.1914
742,-279,53.6809,9.4801,-0.00283585,-0.00100586,0.00413502,0.00231419,-0.0061559,0.894283,0.0050551,0.0265628,1966,1303,53.6809,-9.48015
749,-279,53.6768,8.67554,0,0,0,0,0,0,0,-1,1973,1303,53.6767,-8.67555
756,-279,23.2091,4.43433,0,0,0,0,0,0,0,-1,1980,1303,23.2092,-4.43432
763,-279,27.1613,3.46265,0,0,0,0,0,0,0,-1,1987,1303,27.1613,-3.4627
770,-279,21.5828,3.54199,0,0,0,0,0,0,0,-1,1994,1303,21.5827,-3.54198
777,-279,32.5369,6.99609,0,0,0,0,0,0,0,-1,2001,1303,32.5369,-6.99608
784,-279,0,0,0,0,0,0,0,0,0,-1,2008,1303,0,0
791,-279,0,0,0,0,0,0,0,0,0,-1,2015,1303,0,0
798,-279,0,0,0,0,0,0,0,0,0,-1,2022,1303,0,0
805,-279,0,0,0,0,0,0,0,0,0,-1,2029,1303,0,0
812,-279,0,0,0,0,0,0,0,0,0,-1,2036,1303,0,0
-700,-286,0,0,0,0,0,0,0,0,0,-1,524,1310,0,0
-693,-286,0,0,0,0,0,0,0,0,0,-1,531,1310,0,0
-686,-286,0,0,0,0,0,0,0,0,0,-1,538,1310,0,0
-679,-286,0,0,0,0,0,0,0,0,0,-1,545,1310,0,0
-672,-286,0,0,0,0,0,0,0,0,0,-1,552,1310,0,0
-665,-286,0,0,0,0,0,0,0,0,0,-1,559,1310,0,0
-658,-286,-44.103,1.76782,0,0,0,0,0,0,0,-1,566,1310,-44.103,-1.76778
-651,-286,-43.6417,1.98254,0,0,0,0,0,0,0,-1,573,1310,-43.6416,-1.98254
-644,-286,-43.3175,1.59558,0,0,0,0,0,0,0,-1,580,1310,-43.3175,-1.59556
-637,-286,-42.8448,1.15039,0,0,0,0,0,0,0,-1,587,1310,-42.8448,-1.15043
-630,-286,-42.1176,0.443848,0,0,0,0,0,0,0,-1,594,1310,-42.1176,-0.443802
-623,-286,-41.3121,-0.468384,0,0,0,0,0,0,0,-1,601,1310,-41.3121,0.468376
-616,-286,-22.0634,2.37744,0,0,0,0,0,0,0,-1,608,1310,-22.0633,-2.37746
-609,-286,-36.5009,8.61072,0,0,0,0,0,0,0,-1,615,1310,-36.5009,-8.61066
-602,-286,-36.4308,9.64673,0.0046136,0.00418539,0.00204215,0.00645284,0.00234616,0.733168,0.00377149,0.0243862,622,1310,-36.4309,-9.6467
-595,-286,-36.5151,10.5698,0.00315808,0.00291978,0.00139098,0.00443501,0.00164286,0.742673,0.00258905,0.0142027,629,1310,-36.5151,-10.5698
-588,-286,-36.5518,11.3948,0.00216733,0.00175867,0.000749482,0.00273983,0.00118616,0.652319,0.00158658,0.0153635,636,1310,-36.5518,-11.3948
-581,-286,-36.5273,12.2242,0.00145163,0.000679752,0.000231183,0.00151557,0.000615808,0.269848,0.00088012,0.016568,643,1310,-36.5274,-12.2242
-574,-286,-36.5725,13.0674,0.000957719,-0.000344091,-0.000215548,0.00099248,-0.000378852,-0.159893,0.000817734,0.0154632,650,1310,-36.5725,-13.0674
-567,-286,-36.6752,13.9001,0.000703909,-0.00131414,-0.000578976,0.000858217,-0.00146845,-0.260465,0.00135862,0.0152413,657,1310,-36.6752,-13.9002
-560,-286,-36.7078,14.7495,0.000832509,-0.00221579,-0.00082484,0.00104139,-0.00242467,-0.248023,0.00205357,0.0148225,664,1310,-36.7078,-14.7495
-553,-286,-36.7091,15.6228,0.00131003,-0.0029917,-0.000913222,0.00149587,-0.00317754,-0.200759,0.00275581,0.0131272,671,1310,-36.7091,-15.6228
-546,-286,-36.6362,16.5339,0.00217045,-0.003563,-0.000713417,0.00225788,-0.00365043,-0.121953,0.00344261,0.0302619,678,1310,-36.6362,-16.534
-539,-286,-36.6923,17.5371,0,0,0,0,0,0,0,-1,685,1310,-36.6923,-17.5371
-532,-286,-21.6771,10.4924,0,0,0,0,0,0,0,-1,692,1310,-21.6771,-10.4924
-525,-286,-11.4528,-1.11768,0,0,0,0,0,0,0,-1,699,1310,-11.4528,1.11769
-518,-286,-11.0701,1.37329,0,0,0,0,0,0,0,-1,706,1310,-11.0701,-1.37332
-511,-286,-17.7545,-0.0791016,0,0,0,0,0,0,0,-1,713,1310,-17.7544,0.0791606
-504,-286,-18.0455,1.29602,0,0,0,0,0,0,0,-1,720,1310,-18.0455,-1.29601
-497,-286,-18.3367,2.67114,0,0,0,0,0,0,0,-1,727,1310,-18.3366,-2.67118
-490,-286,-19.5795,2.47266,0,0,0,0,0,0,0,-1,734,1310,-19.5795,-2.4727
-483,-286,-19.7277,2.74744,0,0,0,0,0,0,0,-1,741,1310,-19.7277,-2.74747
-476,-286,-20.0391,3.06177,0,0,0,0,0,0,0,-1,748,1310,-20.0391,-3.06178
-469,-286,0,0,0,0,0,0,0,0,0,-1,755,1310,0,0
-462,-286,0,0,0,0,0,0,0,0,0,-1,762,1310,0,0
-455,-286,0,0,0,0,0,0,0,0,0,-1,769,1310,0,0
-448,-286,0,0,0,0,0,0,0,0,0,-1,776,1310,0,0
-441,-286,0,0,0,0,0,0,0,0,0,-1,783,1310,0,0
-434,-286,0,0,0,0,0,0,0,0,0,-1,790,1310,0,0
-427,-286,0,0,0,0,0,0,0,0,0,-1,797,1310,0,0
-420,-286,0,0,0,0,0,0,0,0,0,-1,804,1310,0,0
-413,-286,0,0,0,0,0,0,0,0,0,-1,811,1310,0,0
-406,-286,0,0,0,0,0,0,0,0,0,-1,818,1310,0,0
-399,-286,0,0,0,0,0,0,0,0,0,-1,825,1310,0,0
-392,-286,0,0,0,0,0,0,0,0,0,-1,832,1310,0,0
-385,-286,0,0,0,0,0,0,0,0,0,-1,839,1310,0,0
-378,-286,0,0,0,0,0,0,0,0,0,-1,846,1310,0,0
-371,-286,0,0,0,0,0,0,0,0,0,-1,853,1310,0,0
-364,-286,0,0,0,0,0,0,0,0,0,-1,860,1310,0,0
-357,-286,0,0,0,0,0,0,0,0,0,-1,867,1310,0,0
-350,-286,0,0,0,0,0,0,0,0,0,-1,874,1310,0,0
-343,-286,0,0,0,0,0,0,0,0,0,-1,881,1310,0,0
-336,-286,0,0,0,0,0,0,0,0,0,-1,888,1310,0,0
-329,-286,0,0,0,0,0,0,0,0,0,-1,895,1310,0,0
-322,-286,0,0,0,0,0,0,0,0,0,-1,902,1310,0,0
-315,-286,0,0,0,0,0,0,0,0,0,-1,909,1310,0,0
-308,-286,0,0,0,0,0,0,0,0,0,-1,916,1310,0,0
-301,-286,0,0,0,0,0,0,0,0,0,-1,923,1310,0,0
-294,-286,0,0,0,0,0,0,0,0,0,-1,930,1310,0,0
-287,-286,0,0,0,0,0,0,0,0,0,-1,937,1310,0,0
-280,-286,0,0,0,0,0,0,0,0,0,-1,944,1310,0,0
-273,-286,0,0,0,0,0,0,0,0,0,-1,951,1310,0,0
-266,-286,0,0,0,0,0,0,0,0,0,-1,958,1310,0,0
-259,-286,0,0,0,0,0,0,0,0,0,-1,965,1310,0,0
-252,-286,0,0,0,0,0,0,0,0,0,-1,972,1310,0,0
-245,-286,0,0,0,0,0,0,0,0,0,-1,979,1310,0,0
-238,-286,0,0,0,0,0,0,0,0,0,-1,986,1310,0,0
-231,-286,0,0,0,0,0,0,0,0,0,-1,993,1310,0,0
-224,-286,0,0,0,0,0,0,0,0,0,-1,1000,1310,0,0
-217,-286,0,0,0,0,0,0,0,0,0,-1,1007,1310,0,0
-210,-286,0,0,0,0,0,0,0,0,0,-1,1014,1310,0,0
-203,-286,0,0,0,0,0,0,0,0,0,-1,1021,1310,0,0
-196,-286,0,0,0,0,0,0,0,0,0,-1,1028,1310,0,0
-189,-286,0,0,0,0,0,0,0,0,0,-1,1035,1310,0,0
-182,-286,0,0,0,0,0,0,0,0,0,-1,1042,1310,0,0
-175,-286,0,0,0,0,0,0,0,0,0,-1,1049,1310,0,0
-168,-286,0,0,0,0,0,0,0,0,0,-1,1056,1310,0,0
-161,-286,0,0,0,0,0,0,0,0,0,-1,1063,1310,0,0
-154,-286,0,0,0,0,0,0,0,0,0,-1,1070,1310,0,0
-147,-286,0,0,0,0,0,0,0,0,0,-1,1077,1310,0,0
-140,-286,0,0,0,0,0,0,0,0,0,-1,1084,1310,0,0
-133,-286,0,0,0,0,0,0,0,0,0,-1,1091,1310,0,0
-126,-286,0,0,0,0,0,0,0,0,0,-1,1098,1310,0,0
-119,-286,0,0,0,0,0,0,0,0,0,-1,1105,1310,0,0
-112,-286,0,0,0,0,0,0,0,0,0,-1,1112,1310,0,0
-105,-286,0,0,0,0,0,0,0,0,0,-1,1119,1310,0,0
-98,-286,0,0,0,0,0,0,0,0,0,-1,1126,1310,0,0
-91,-286,0,0,0,0,0,0,0,0,0,-1,1133,1310,0,0
-84,-286,0,0,0,0,0,0,0,0,0,-1,1140,1310,0,0
-77,-286,0,0,0,0,0,0,0,0,0,-1,1147,1310,0,0
-70,-286,0,0,0,0,0,0,0,0,0,-1,1154,1310,0,0
-63,-286,0,0,0,0,0,0,0,0,0,-1,1161,1310,0,0
-56,-286,0,0,0,0,0,0,0,0,0,-1,1168,1310,0,0
-49,-286,0,0,0,0,0,0,0,0,0,-1,1175,1310,0,0
-42,-286,0,0,0,0,0,0,0,0,0,-1,1182,1310,0,0
-35,-286,0,0,0,0,0,0,0,0,0,-1,1189,1310,0,0
-28,-286,0,0,0,0,0,0,0,0,0,-1,1196,1310,0,0
-21,-286,0,0,0,0,0,0,0,0,0,-1,1203,1310,0,0
-14,-286,0,0,0,0,0,0,0,0,0,-1,1210,1310,0,0
-7,-286,0,0,0,0,0,0,0,0,0,-1,1217,1310,0,0
0,-286,0,0,0,0,0,0,0,0,0,-1,1224,1310,0,0
7,-286,0,0,0,0,0,0,0,0,0,-1,1231,1310,0,0
14,-286,0,0,0,0,0,0,0,0,0,-1,1238,1310,0,0
21,-286,0,0,0,0,0,0,0,0,0,-1,1245,1310,0,0
28,-286,0,0,0,0,0,0,0,0,0,-1,1252,1310,0,0
35,-286,0,0,0,0,0,0,0,0,0,-1,1259,1310,0,0
42,-286,0,0,0,0,0,0,0,0,0,-1,1266,1310,0,0
49,-286,0,0,0,0,0,0,0,0,0,-1,1273,1310,0,0
56,-286,0,0,0,0,0,0,0,0,0,-1,1280,1310,0,0
63,-286,0,0,0,0,0,0,0,0,0,-1,1287,1310,0,0
70,-286,0,0,0,0,0,0,0,0,0,-1,1294,1310,0,0
77,-286,0,0,0,0,0,0,0,0,0,-1,1301,1310,0,0
84,-286,0,0,0,0,0,0,0,0,0,-1,1308,1310,0,0
91,-286,0,0,0,0,0,0,0,0,0,-1,1315,1310,0,0
98,-286,0,0,0,0,0,0,0,0,0,-1,1322,1310,0,0
105,-286,0,0,0,0,0,0,0,0,0,-1,1329,1310,0,0
112,-286,0,0,0,0,0,0,0,0,0,-1,1336,1310,0,0
119,-286,0,0,0,0,0,0,0,0,0,-1,1343,1310,0,0
126,-286,0,0,0,0,0,0,0,0,0,-1,1350,1310,0,0
133,-286,0,0,0,0,0,0,0,0,0,-1,1357,1310,0,0
140,-286,0,0,0,0,0,0,0,0,0,-1,1364,1310,0,0
147,-286,0,0,0,0,0,0,0,0,0,-1,1371,1310,0,0
154,-286,0,0,0,0,0,0,0,0,0,-1,1378,1310,0,0
161,-286,0,0,0,0,0,0,0,0,0,-1,1385,1310,0,0
168,-286,0,0,0,0,0,0,0,0,0,-1,1392,1310,0,0
175,-286,0,0,0,0,0,0,0,0,0,-1,1399,1310,0,0
182,-286,0,0,0,0,0,0,0,0,0,-1,1406,1310,0,0
189,-286,0,0,0,0,0,0,0,0,0,-1,1413,1310,0,0
196,-286,0,0,0,0,0,0,0,0,0,-1,1420,1310,0,0
203,-286,0,0,0,0,0,0,0,0,0,-1,1427,1310,0,0
210,-286,0,0,0,0,0,0,0,0,0,-1,1434,1310,0,0
217,-286,0,0,0,0,0,0,0,0,0,-1,1441,1310,0,0
224,-286,0,0,0,0,0,0,0,0,0,-1,1448,1310,0,0
231,-286,0,0,0,0,0,0,0,0,0,-1,1455,1310,0,0
238,-286,0,0,0,0,0,0,0,0,0,-1,1462,1310,0,0
245,-286,0,0,0,0,0,0,0,0,0,-1,1469,1310,0,0
252,-286,0,0,0,0,0,0,0,0,0,-1,1476,1310,0,0
259,-286,0,0,0,0,0,0,0,0,0,-1,1483,1310,0,0
266,-286,0,0,0,0,0,0,0,0,0,-1,1490,1310,0,0
273,-286,0,0,0,0,0,0,0,0,0,-1,1497,1310,0,0
280,-286,0,0,0,0,0,0,0,0,0,-1,1504,1310,0,0
287,-286,0,0,0,0,0,0,0,0,0,-1,1511,1310,0,0
294,-286,0,0,0,0,0,0,0,0,0,-1,1518,1310,0,0
301,-286,0,0,0,0,0,0,0,0,0,-1,1525,1310,0,0
308,-286,0,0,0,0,0,0,0,0,0,-1,1532,1310,0,0
315,-286,0,0,0,0,0,0,0,0,0,-1,1539,1310,0,0
322,-286,0,0,0,0,0,0,0,0,0,-1,1546,1310,0,0
329,-286,0,0,0,0,0,0,0,0,0,-1,1553,1310,0,0
336,-286,0,0,0,0,0,0,0,0,0,-1,1560,1310,0,0
343,-286,0,0,0,0,0,0,0,0,0,-1,1567,1310,0,0
350,-286,0,0,0,0,0,0,0,0,0,-1,1574,1310,0,0
357,-286,0,0,0,0,0,0,0,0,0,-1,1581,1310,0,0
364,-286,0,0,0,0,0,0,0,0,0,-1,1588,1310,0,0
371,-286,0,0,0,0,0,0,0,0,0,-1,1595,1310,0,0
378,-286,0,0,0,0,0,0,0,0,0,-1,1602,1310,0,0
385,-286,0,0,0,0,0,0,0,0,0,-1,1609,1310,0,0
392,-286,0,0,0,0,0,0,0,0,0,-1,1616,1310,0,0
399,-286,0,0,0,0,0,0,0,0,0,-1,1623,1310,0,0
406,-286,0,0,0,0,0,0,0,0,0,-1,1630,1310,0,0
413,-286,0,0,0,0,0,0,0,0,0,-1,1637,1310,0,0
420,-286,0,0,0,0,0,0,0,0,0,-1,1644,1310,0,0
427,-286,0,0,0,0,0,0,0,0,0,-1,1651,1310,0,0
434,-286,0,0,0,0,0,0,0,0,0,-1,1658,1310,0,0
441,-286,0,0,0,0,0,0,0,0,0,-1,1665,1310,0,0
448,-286,0,0,0,0,0,0,0,0,0,-1,1672,1310,0,0
455,-286,0,0,0,0,0,0,0,0,0,-1,1679,1310,0,0
462,-286,0,0,0,0,0,0,0,0,0,-1,1686,1310,0,0
469,-286,0,0,0,0,0,0,0,0,0,-1,1693,1310,0,0
476,-286,0,0,0,0,0,0,0,0,0,-1,1700,1310,0,0
483,-286,0,0,0,0,0,0,0,0,0,-1,1707,1310,0,0
490,-286,0,0,0,0,0,0,0,0,0,-1,1714,1310,0,0
497,-286,0,0,0,0,0,0,0,0,0,-1,1721,1310,0,0
504,-286,0,0,0,0,0,0,0,0,0,-1,1728,1310,0,0
511,-286,0,0,0,0,0,0,0,0,0,-1,1735,1310,0,0
518,-286,0,0,0,0,0,0,0,0,0,-1,1742,1310,0,0
525,-286,0,0,0,0,0,0,0,0,0,-1,1749,1310,0,0
532,-286,0,0,0,0,0,0,0,0,0,-1,1756,1310,0,0
539,-286,0,0,0,0,0,0,0,0,0,-1,1763,1310,0,0
546,-286,0,0,0,0,0,0,0,0,0,-1,1770,1310,0,0
553,-286,0,0,0,0,0,0,0,0,0,-1,1777,1310,0,0
560,-286,0,0,0,0,0,0,0,0,0,-1,1784,1310,0,0
567,-286,0,0,0,0,0,0,0,0,0,-1,1791,1310,0,0
574,-286,0,0,0,0,0,0,0,0,0,-1,1798,1310,0,0
581,-286,0,0,0,0,0,0,0,0,0,-1,1805,1310,0,0
588,-286,0,0,0,0,0,0,0,0,0,-1,1812,1310,0,0
595,-286,69.8951,2.40527,0,0,0,0,0,0,0,-1,1819,1310,69.8951,-2.40522
602,-286,78.6125,2.11768,0,0,0,0,0,0,0,-1,1826,1310,78.6125,-2.1177
609,-286,77.7521,1.48865,0,0,0,0,0,0,0,-1,1833,1310,77.7521,-1.48869
616,-286,77.772,1.56287,0,0,0,0,0,0,0,-1,1840,1310,77.772,-1.56292
623,-286,79.0966,-0.117676,0,0,0,0,0,0,0,-1,1847,1310,79.0965,0.117729
630,-286,73.3732,1.46594,0,0,0,0,0,0,0,-1,1854,1310,73.3731,-1.46595
637,-286,47.8409,3.69824,0,0,0,0,0,0,0,-1,1861,1310,47.841,-3.69823
644,-286,25.6433,1.33862,0,0,0,0,0,0,0,-1,1868,1310,25.6433,-1.33858
651,-286,25.2507,1.88245,0,0,0,0,0,0,0,-1,1875,1310,25.2508,-1.88245
658,-286,25.9475,9.43689,0,0,0,0,0,0,0,-1,1882,1310,25.9475,-9.43693
665,-286,24.9838,8.03101,0,0,0,0,0,0,0,-1,1889,1310,24.9837,-8.03104
672,-286,40.2175,12.9626,0,0,0,0,0,0,0,-1,1896,1310,40.2175,-12.9627
679,-286,53.1892,16.6476,0,0,0,0,0,0,0,-1,1903,1310,53.1892,-16.6475
686,-286,53.2324,15.8542,-0.00239978,-0.000838998,0.00107235,-0.000293141,-0.00294564,1.09995,0.00187371,0.0233531,1910,1310,53.2324,-15.8543
693,-286,53.1732,15.0483,-0.000310503,-0.000528399,0.000493867,8.62907e-05,-0.000925193,0.676836,0.000647478,0.0179079,1917,1310,53.1732,-15.0484
700,-286,53.1179,14.2089,0.000871004,7.13565e-05,-7.91917e-05,0.000878771,6.35893e-05,-0.0977679,0.000565843,0.0129608,1924,1310,53.118,-14.2088
707,-286,53.0836,13.4073,0.000435048,-0.000108877,0.000598437,0.000820421,-0.000494251,0.572122,0.000766774,0.00902287,1931,1310,53.0836,-13.4074
714,-286,53.0399,12.6097,-4.08676e-05,-0.000325231,0.0013088,0.00113345,-0.00149955,0.731293,0.00152505,0.00971605,1938,1310,53.0399,-12.6098
721,-286,53.0413,11.8021,-0.000564607,-0.000582143,0.00205668,0.00148333,-0.00263008,0.783266,0.00240544,0.0134311,1945,1310,53.0413,-11.8022
728,-286,53.0083,11.0048,-0.00114376,-0.000871053,0.00284248,0.00183834,-0.00385315,0.809365,0.00335391,0.0177935,1952,1310,53.0084,-11.0047
735,-286,52.9675,10.2015,-0.0017886,-0.00121214,0.00367653,0.00218744,-0.00518818,0.824517,0.00437421,0.0218058,1959,1310,52.9675,-10.2016
742,-286,52.9236,9.46082,-0.00253263,-0.00160651,0.0045142,0.00246831,-0.00660746,0.836509,0.0054185,0.0373392,1966,1310,52.9236,-9.46085
749,-286,52.9839,8.72058,0,0,0,0,0,0,0,-1,1973,1310,52.9839,-8.72053
756,-286,24.8226,4.43481,0,0,0,0,0,0,0,-1,1980,1310,24.8227,-4.43479
763,-286,20.6671,3.99683,0,0,0,0,0,0,0,-1,1987,1310,20.6671,-3.99683
770,-286,23.9147,4.45679,0,0,0,0,0,0,0,-1,1994,1310,23.9146,-4.45675
777,-286,0,0,0,0,0,0,0,0,0,-1,2001,1310,0,0
784,-286,0,0,0,0,0,0,0,0,0,-1,2008,1310,0,0
791,-286,0,0,0,0,0,0,0,0,0,-1,2015,1310,0,0
798,-286,0,0,0,0,0,0,0,0,0,-1,2022,1310,0,0
805,-286,0,0,0,0,0,0,0,0,0,-1,2029,1310,0,0
812,-286,0,0,0,0,0,0,0,0,0,-1,2036,1310,0,0
-700,-293,0,0,0,0,0,0,0,0,0,-1,524,1317,0,0
-693,-293,0,0,0,0,0,0,0,0,0,-1,531,1317,0,0
-686,-293,0,0,0,0,0,0,0,0,0,-1,538,1317,0,0
-679,-293,0,0,0,0,0,0,0,0,0,-1,545,1317,0,0
-672,-293,0,0,0,0,0,0,0,0,0,-1,552,1317,0,0
-665,-293,0,0,0,0,0,0,0,0,0,-1,559,1317,0,0
-658,-293,0,0,0,0,0,0,0,0,0,-1,566,1317,0,0
-651,-293,-42.6636,2.1897,0,0,0,0,0,0,0,-1,573,1317,-42.6636,-2.18965
-644,-293,-42.6672,1.56262,0,0,0,0,0,0,0,-1,580,1317,-42.6672,-1.5626
-637,-293,-42.7898,0.963745,0,0,0,0,0,0,0,-1,587,1317,-42.7898,-0.963689
-630,-293,-42.7558,0.296021,0,0,0,0,0,0,0,-1,594,1317,-42.7558,-0.295997
-623,-293,-15.6058,0.229614,0,0,0,0,0,0,0,-1,601,1317,-15.6058,-0.229666
-616,-293,-15.5056,2.17737,0,0,0,0,0,0,0,-1,608,1317,-15.5055,-2.17742
-609,-293,-25.3796,5.07373,0,0,0,0,0,0,0,-1,615,1317,-25.3796,-5.07369
-602,-293,-35.7075,9.69849,0,0,0,0,0,0,0,-1,622,1317,-35.7075,-9.69851
-595,-293,-35.7032,10.5966,0.00404782,0.00357279,0.00202662,0.0058508,0.00176981,0.727067,0.0034647,0.024212,629,1317,-35.7032,-10.5966
-588,-293,-35.7039,11.4382,0.00293686,0.00235934,0.00123717,0.00391853,0.00137768,0.67075,0.00229535,0.0189111,636,1317,-35.7039,-11.4383
-581,-293,-35.6889,12.2701,0.00220747,0.00130495,0.000666957,0.00256149,0.000950938,0.487977,0.00149513,0.019843,643,1317,-35.6889,-12.2701
-574,-293,-35.7112,13.1515,0.0017388,0.000340738,0.000201989,0.0017674,0.00031214,0.140646,0.00108923,0.0163268,650,1317,-35.7112,-13.1515
-567,-293,-35.8185,13.9845,0.00154492,-0.000535334,-0.000137743,0.001554,-0.000544415,-0.0658316,0.00125739,0.0161462,657,1317,-35.8185,-13.9845
-560,-293,-35.8553,14.8208,0.00173199,-0.00134892,-0.000336979,0.00176842,-0.00138535,-0.10768,0.0018253,0.018021,664,1317,-35.8553,-14.8207
-553,-293,-35.8662,15.6484,0.00233834,-0.00207636,-0.000372891,0.00236962,-0.00210763,-0.0836758,0.00258641,0.0123272,671,1317,-35.8662,-15.6485
-546,-293,-35.863,16.5297,0.00337412,-0.0026608,-0.000129925,0.00337691,-0.00266359,-0.0215157,0.00349558,0.0231375,678,1317,-35.863,-16.5297
-539,-293,-35.804,17.4,0,0,0,0,0,0,0,-1,685,1317,-35.804,-17.4
-532,-293,-27.4858,13.6715,0,0,0,0,0,0,0,-1,692,1317,-27.4858,-13.6715
-525,-293,-8.20642,3.62256,0,0,0,0,0,0,0,-1,699,1317,-8.20639,-3.6226
-518,-293,-10.1053,0.314209,0,0,0,0,0,0,0,-1,706,1317,-10.1053,-0.314234
-511,-293,-11.6276,0.235352,0,0,0,0,0,0,0,-1,713,1317,-11.6276,-0.235372
-504,-293,-17.9086,1.25427,0,0,0,0,0,0,0,-1,720,1317,-17.9086,-1.25423
-497,-293,-18.8006,1.62122,0,0,0,0,0,0,0,-1,727,1317,-18.8006,-1.62119
-490,-293,-18.8961,1.99255,0,0,0,0,0,0,0,-1,734,1317,-18.8961,-1.99251
-483,-293,-19.0831,2.35498,0,0,0,0,0,0,0,-1,741,1317,-19.0831,-2.35497
-476,-293,-19.5228,2.61243,0,0,0,0,0,0,0,-1,748,1317,-19.5228,-2.61237
-469,-293,0,0,0,0,0,0,0,0,0,-1,755,1317,0,0
-462,-293,0,0,0,0,0,0,0,0,0,-1,762,1317,0,0
-455,-293,0,0,0,0,0,0,0,0,0,-1,769,1317,0,0
-448,-293,0,0,0,0,0,0,0,0,0,-1,776,1317,0,0
-441,-293,0,0,0,0,0,0,0,0,0,-1,783,1317,0,0
-434,-293,0,0,0,0,0,0,0,0,0,-1,790,1317,0,0
-427,-293,0,0,0,0,0,0,0,0,0,-1,797,1317,0,0
-420,-293,0,0,0,0,0,0,0,0,0,-1,804,1317,0,0
-413,-293,0,0,0,0,0,0,0,0,0,-1,811,1317,0,0
-406,-293,0,0,0,0,0,0,0,0,0,-1,818,1317,0,0
-399,-293,0,0,0,0,0,0,0,0,0,-1,825,1317,0,0
-392,-293,0,0,0,0,0,0,0,0,0,-1,832,1317,0,0
-385,-293,0,0,0,0,0,0,0,0,0,-1,839,1317,0,0
-378,-293,0,0,0,0,0,0,0,0,0,-1,846,1317,0,0
-371,-293,0,0,0,0,0,0,0,0,0,-1,853,1317,0,0
-364,-293,0,0,0,0,0,0,0,0,0,-1,860,1317,0,0
-357,-293,0,0,0,0,0,0,0,0,0,-1,867,1317,0,0
-350,-293,0,0,0,0,0,0,0,0,0,-1,874,1317,0,0
-343,-293,0,0,0,0,0,0,0,0,0,-1,881,1317,0,0
-336,-293,0,0,0,0,0,0,0,0,0,-1,888,1317,0,0
-329,-293,0,0,0,0,0,0,0,0,0,-1,895,1317,0,0
-322,-293,0,0,0,0,0,0,0,0,0,-1,902,1317,0,0
-315,-293,0,0,0,0,0,0,0,0,0,-1,909,1317,0,0
-308,-293,0,0,0,0,0,0,0,0,0,-1,916,1317,0,0
-301,-293,0,0,0,0,0,0,0,0,0,-1,923,1317,0,0
-294,-293,0,0,0,0,0,0,0,0,0,-1,930,1317,0,0
-287,-293,0,0,0,0,0,0,0,0,0,-1,937,1317,0,0
-280,-293,0,0,0,0,0,0,0,0,0,-1,944,1317,0,0
-273,-293,0,0,0,0,0,0,0,0,0,-1,951,1317,0,0
-266,-293,0,0,0,0,0,0,0,0,0,-1,958,1317,0,0
-259,-293,0,0,0,0,0,0,0,0,0,-1,965,1317,0,0
-252,-293,0,0,0,0,0,0,0,0,0,-1,972,1317,0,0
-245,-293,0,0,0,0,0,0,0,0,0,-1,979,1317,0,0
-238,-293,0,0,0,0,0,0,0,0,0,-1,986,1317,0,0
-231,-293,0,0,0,0,0,0,0,0,0,-1,993,1317,0,0
-224,-293,0,0,0,0,0,0,0,0,0,-1,1000,1317,0,0
-217,-293,0,0,0,0,0,0,0,0,0,-1,1007,1317,0,0
-210,-293,0,0,0,0,0,0,0,0,0,-1,1014,1317,0,0
-203,-293,0,0,0,0,0,0,0,0,0,-1,1021,1317,0,0
-196,-293,0,0,0,0,0,0,0,0,0,-1,1028,1317,0,0
-189,-293,0,0,0,0,0,0,0,0,0,-1,1035,1317,0,0
-182,-293,0,0,0,0,0,0,0,0,0,-1,1042,1317,0,0
-175,-293,0,0,0,0,0,0,0,0,0,-1,1049,1317,0,0
-168,-293,0,0,0,0,0,0,0,0,0,-1,1056,1317,0,0
-161,-293,0,0,0,0,0,0,0,0,0,-1,1063,1317,0,0
-154,-293,0,0,0,0,0,0,0,0,0,-1,1070,1317,0,0
-147,-293,0,0,0,0,0,0,0,0,0,-1,1077,1317,0,0
-140,-293,0,0,0,0,0,0,0,0,0,-1,1084,1317,0,0
-133,-293,0,0,0,0,0,0,0,0,0,-1,1091,1317,0,0
-126,-293,0,0,0,0,0,0,0,0,0,-1,1098,1317,0,0
-119,-293,0,0,0,0,0,0,0,0,0,-1,1105,1317,0,0
-112,-293,0,0,0,0,0,0,0,0,0,-1,1112,1317,0,0
-105,-293,0,0,0,0,0,0,0,0,0,-1,1119,1317,0,0
-98,-293,0,0,0,0,0,0,0,0,0,-1,1126,1317,0,0
-91,-293,0,0,0,0,0,0,0,0,0,-1,1133,1317,0,0
-84,-293,0,0,0,0,0,0,0,0,0,-1,1140,1317,0,0
-77,-293,0,0,0,0,0,0,0,0,0,-1,1147,1317,0,0
-70,-293,0,0,0,0,0,0,0,0,0,-1,1154,1317,0,0
-63,-293,0,0,0,0,0,0,0,0,0,-1,1161,1317,0,0
-56,-293,0,0,0,0,0,0,0,0,0,-1,1168,1317,0,0
-49,-293,0,0,0,0,0,0,0,0,0,-1,1175,1317,0,0
-42,-293,0,0,0,0,0,0,0,0,0,-1,1182,1317,0,0
-35,-293,0,0,0,0,0,0,0,0,0,-1,1189,1317,0,0
-28,-293,0,0,0,0,0,0,0,0,0,-1,1196,1317,0,0
-21,-293,0,0,0,0,0,0,0,0,0,-1,1203,1317,0,0
-14,-293,0,0,0,0,0,0,0,0,0,-1,1210,1317,0,0
-7,-293,0,0,0,0,0,0,0,0,0,-1,1217,1317,0,0
0,-293,0,0,0,0,0,0,0,0,0,-1,1224,1317,0,0
7,-293,0,0,0,0,0,0,0,0,0,-1,1231,1317,0,0
14,-293,0,0,0,0,0,0,0,0,0,-1,1238,1317,0,0
21,-293,0,0,0,0,0,0,0,0,0,-1,1245,1317,0,0
28,-293,0,0,0,0,0,0,0,0,0,-1,1252,1317,0,0
35,-293,0,0,0,0,0,0,0,0,0,-1,1259,1317,0,0
42,-293,0,0,0,0,0,0,0,0,0,-1,1266,1317,0,0
49,-293,0,0,0,0,0,0,0,0,0,-1,1273,1317,0,0
56,-293,0,0,0,0,0,0,0,0,0,-1,1280,1317,0,0
63,-293,0,0,0,0,0,0,0,0,0,-1,1287,1317,0,0
70,-293,0,0,0,0,0,0,0,0,0,-1,1294,1317,0,0
77,-293,0,0,0,0,0,0,0,0,0,-1,1301,1317,0,0
84,-293,0,0,0,0,0,0,0,0,0,-1,1308,1317,0,0
91,-293,0,0,0,0,0,0,0,0,0,-1,1315,1317,0,0
98,-293,0,0,0,0,0,0,0,0,0,-1,1322,1317,0,0
105,-293,0,0,0,0,0,0,0,0,0,-1,1329,1317,0,0
112,-293,0,0,0,0,0,0,0,0,0,-1,1336,1317,0,0
119,-293,0,0,0,0,0,0,0,0,0,-1,1343,1317,0,0
126,-293,0,0,0,0,0,0,0,0,0,-1,1350,1317,0,0
133,-293,0,0,0,0,0,0,0,0,0,-1,1357,1317,0,0
140,-293,0,0,0,0,0,0,0,0,0,-1,1364,1317,0,0
147,-293,0,0,0,0,0,0,0,0,0,-1,1371,1317,0,0
154,-293,0,0,0,0,0,0,0,0,0,-1,1378,1317,0,0
161,-293,0,0,0,0,0,0,0,0,0,-1,1385,1317,0,0
168,-293,0,0,0,0,0,0,0,0,0,-1,1392,1317,0,0
175,-293,0,0,0,0,0,0,0,0,0,-1,1399,1317,0,0
182,-293,0,0,0,0,0,0,0,0,0,-1,1406,1317,0,0
189,-293,0,0,0,0,0,0,0,0,0,-1,1413,1317,0,0
196,-293,0,0,0,0,0,0,0,0,0,-1,1420,1317,0,0
203,-293,0,0,0,0,0,0,0,0,0,-1,1427,1317,0,0
210,-293,0,0,0,0,0,0,0,0,0,-1,1434,1317,0,0
217,-293,0,0,0,0,0,0,0,0,0,-1,1441,1317,0,0
224,-293,0,0,0,0,0,0,0,0,0,-1,1448,1317,0,0
231,-293,0,0,0,0,0,0,0,0,0,-1,1455,1317,0,0
238,-293,0,0,0,0,0,0,0,0,0,-1,1462,1317,0,0
245,-293,0,0,0,0,0,0,0,0,0,-1,1469,1317,0,0
252,-293,0,0,0,0,0,0,0,0,0,-1,1476,1317,0,0
259,-293,0,0,0,0,0,0,0,0,0,-1,1483,1317,0,0
266,-293,0,0,0,0,0,0,0,0,0,-1,1490,1317,0,0
273,-293,0,0,0,0,0,0,0,0,0,-1,1497,1317,0,0
280,-293,0,0,0,0,0,0,0,0,0,-1,1504,1317,0,0
287,-293,0,0,0,0,0,0,0,0,0,-1,1511,1317,0,0
294,-293,0,0,0,0,0,0,0,0,0,-1,1518,1317,0,0
301,-293,0,0,0,0,0,0,0,0,0,-1,1525,1317,0,0
308,-293,0,0,0,0,0,0,0,0,0,-1,1532,1317,0,0
315,-293,0,0,0,0,0,0,0,0,0,-1,1539,1317,0,0
322,-293,0,0,0,0,0,0,0,0,0,-1,1546,1317,0,0
329,-293,0,0,0,0,0,0,0,0,0,-1,1553,1317,0,0
336,-293,0,0,0,0,0,0,0,0,0,-1,1560,1317,0,0
343,-293,0,0,0,0,0,0,0,0,0,-1,1567,1317,0,0
350,-293,0,0,0,0,0,0,0,0,0,-1,1574,1317,0,0
357,-293,0,0,0,0,0,0,0,0,0,-1,1581,1317,0,0
364,-293,0,0,0,0,0,0,0,0,0,-1,1588,1317,0,0
371,-293,0,0,0,0,0,0,0,0,0,-1,1595,1317,0,0
378,-293,0,0,0,0,0,0,0,0,0,-1,1602,1317,0,0
385,-293,0,0,0,0,0,0,0,0,0,-1,1609,1317,0,0
392,-293,0,0,0,0,0,0,0,0,0,-1,1616,1317,0,0
399,-293,0,0,0,0,0,0,0,0,0,-1,1623,1317,0,0
406,-293,0,0,0,0,0,0,0,0,0,-1,1630,1317,0,0
413,-293,0,0,0,0,0,0,0,0,0,-1,1637,1317,0,0
420,-293,0,0,0,0,0,0,0,0,0,-1,1644,1317,0,0
427,-293,0,0,0,0,0,0,0,0,0,-1,1651,1317,0,0
434,-293,0,0,0,0,0,0,0,0,0,-1,1658,1317,0,0
441,-293,0,0,0,0,0,0,0,0,0,-1,1665,1317,0,0
448,-293,0,0,0,0,0,0,0,0,0,-1,1672,1317,0,0
455,-293,0,0,0,0,0,0,0,0,0,-1,1679,1317,0,0
462,-293,0,0,0,0,0,0,0,0,0,-1,1686,1317,0,0
469,-293,0,0,0,0,0,0,0,0,0,-1,1693,1317,0,0
476,-293,0,0,0,0,0,0,0,0,0,-1,1700,1317,0,0
483,-293,0,0,0,0,0,0,0,0,0,-1,1707,1317,0,0
490,-293,0,0,0,0,0,0,0,0,0,-1,1714,1317,0,0
497,-293,0,0,0,0,0,0,0,0,0,-1,1721,1317,0,0
504,-293,0,0,0,0,0,0,0,0,0,-1,1728,1317,0,0
511,-293,0,0,0,0,0,0,0,0,0,-1,1735,1317,0,0
518,-293,0,0,0,0,0,0,0,0,0,-1,1742,1317,0,0
525,-293,0,0,0,0,0,0,0,0,0,-1,1749,1317,0,0
532,-293,0,0,0,0,0,0,0,0,0,-1,1756,1317,0,0
539,-293,0,0,0,0,0,0,0,0,0,-1,1763,1317,0,0
546,-293,0,0,0,0,0,0,0,0,0,-1,1770,1317,0,0
553,-293,0,0,0,0,0,0,0,0,0,-1,1777,1317,0,0
560,-293,0,0,0,0,0,0,0,0,0,-1,1784,1317,0,0
567,-293,0,0,0,0,0,0,0,0,0,-1,1791,1317,0,0
574,-293,0,0,0,0,0,0,0,0,0,-1,1798,1317,0,0
581,-293,0,0,0,0,0,0,0,0,0,-1,1805,1317,0,0
588,-293,0,0,0,0,0,0,0,0,0,-1,1812,1317,0,0
595,-293,70.0999,2.25085,0,0,0,0,0,0,0,-1,1819,1317,70.0998,-2.25088
602,-293,70.2273,2.05859,0,0,0,0,0,0,0,-1,1826,1317,70.2273,-2.05859
609,-293,77.3313,1.12964,0,0,0,0,0,0,0,-1,1833,1317,77.3313,-1.1296
616,-293,77.2634,1.09961,0,0,0,0,0,0,0,-1,1840,1317,77.2634,-1.09961
623,-293,64.6224,0.448364,0,0,0,0,0,0,0,-1,1847,1317,64.6224,-0.448318
630,-293,46.6716,3.21558,0,0,0,0,0,0,0,-1,1854,1317,46.6716,-3.2156
637,-293,42.7729,4.95544,0,0,0,0,0,0,0,-1,1861,1317,42.773,-4.95546
644,-293,24.4565,0.520752,0,0,0,0,0,0,0,-1,1868,1317,24.4566,-0.520709
651,-293,25.8926,9.51245,0,0,0,0,0,0,0,-1,1875,1317,25.8926,-9.51246
658,-293,25.4904,9.10205,0,0,0,0,0,0,0,-1,1882,1317,25.4904,-9.10209
665,-293,39.7999,13.4221,0,0,0,0,0,0,0,-1,1889,1317,39.8,-13.4221
672,-293,52.4924,17.7609,0,0,0,0,0,0,0,-1,1896,1317,52.4925,-17.7608
679,-293,52.4833,16.7158,-0.00149694,-0.000686447,0.000263103,-0.00060853,-0.00157486,1.28288,0.000917035,0.0238434,1903,1317,52.4833,-16.7158
686,-293,52.4496,15.8975,-0.00103437,-0.000406426,0.000410111,-0.0002039,-0.00123689,1.1121,0.000765731,0.0168103,1910,1317,52.4495,-15.8974
693,-293,52.3929,15.0726,0.000401194,-0.000221968,8.80673e-05,0.000413401,-0.000234175,0.137731,0.000378621,0.0130641,1917,1317,52.3929,-15.0727
700,-293,52.3173,14.2417,0.00102056,6.1365e-05,-6.74298e-05,0.00102527,5.6648e-05,-0.0698409,0.000665436,0.0111675,1924,1317,52.3172,-14.2417
707,-293,52.2823,13.4524,0.00054968,-0.000185014,0.000646244,0.000925687,-0.000561021,0.526955,0.000866916,0.0116248,1931,1317,52.2824,-13.4524
714,-293,52.2471,12.66,3.43567e-05,-0.000476178,0.00140871,0.00121074,-0.00165257,0.695768,0.00165968,0.00864458,1938,1317,52.2471,-12.6601
721,-293,52.2273,11.8345,-0.00053294,-0.000816202,0.0022206,0.00155054,-0.00289969,0.753551,0.0026084,0.0106447,1945,1317,52.2273,-11.8345
728,-293,52.2057,11.005,-0.00115674,-0.0011935,0.00308737,0.00191231,-0.00426255,0.782422,0.00365012,0.0145657,1952,1317,52.2057,-11.005
735,-293,52.1639,10.1692,-0.0018599,-0.00166003,0.00402688,0.00226815,-0.00578808,0.797804,0.00479697,0.0266044,1959,1317,52.164,-10.1692
742,-293,52.2041,9.31262,0,0,0,0,0,0,0,-1,1966,1317,52.2041,-9.31259
749,-293,29.439,5.35339,0,0,0,0,0,0,0,-1,1973,1317,29.4389,-5.35334
756,-293,24.978,3.9718,0,0,0,0,0,0,0,-1,1980,1317,24.978,-3.97186
763,-293,26.6713,4.74097,0,0,0,0,0,0,0,-1,1987,1317,26.6713,-4.74098
770,-293,24.1349,4.69153,0,0,0,0,0,0,0,-1,1994,1317,24.1348,-4.69159
777,-293,0,0,0,0,0,0,0,0,0,-1,2001,1317,0,0
784,-293,0,0,0,0,0,0,0,0,0,-1,2008,1317,0,0
791,-293,0,0,0,0,0,0,0,0,0,-1,2015,1317,0,0
798,-293,0,0,0,0,0,0,0,0,0,-1,2022,1317,0,0
805,-293,0,0,0,0,0,0,0,0,0,-1,2029,1317,0,0
812,-293,0,0,0,0,0,0,0,0,0,-1,2036,1317,0,0
-700,-300,0,0,0,0,0,0,0,0,0,-1,524,1324,0,0
-693,-300,0,0,0,0,0,0,0,0,0,-1,531,1324,0,0
-686,-300,0,0,0,0,0,0,0,0,0,-1,538,1324,0,0
-679,-300,0,0,0,0,0,0,0,0,0,-1,545,1324,0,0
-672,-300,0,0,0,0,0,0,0,0,0,-1,552,1324,0,0
-665,-300,0,0,0,0,0,0,0,0,0,-1,559,1324,0,0
-658,-300,0,0,0,0,0,0,0,0,0,-1,566,1324,0,0
-651,-300,-41.7632,2.33789,0,0,0,0,0,0,0,-1,573,1324,-41.7632,-2.33789
-644,-300,-42.3084,1.3728,0,0,0,0,0,0,0,-1,580,1324,-42.3084,-1.37282
-637,-300,-42.6259,0.807251,0,0,0,0,0,0,0,-1,587,1324,-42.6259,-0.807209
-630,-300,-21.1108,2.26306,0,0,0,0,0,0,0,-1,594,1324,-21.1109,-2.2631
-623,-300,-12.7067,1.48462,0,0,0,0,0,0,0,-1,601,1324,-12.7067,-1.48462
-616,-300,-14.9988,1.68628,0,0,0,0,0,0,0,-1,608,1324,-14.9988,-1.68627
-609,-300,-15.5027,3.29907,0,0,0,0,0,0,0,-1,615,1324,-15.5027,-3.29902
-602,-300,-34.8962,9.47864,0,0,0,0,0,0,0,-1,622,1324,-34.8962,-9.47864
-595,-300,-34.9023,10.5897,0.00464821,0.00419568,0.00270837,0.00713975,0.00170414,0.743724,0.00430571,0.0422402,629,1324,-34.9023,-10.5897
-588,-300,-34.8386,11.5072,0.00342538,0.00293007,0.00172109,0.00491655,0.0014389,0.713941,0.00291879,0.0222061,636,1324,-34.8386,-11.5071
-581,-300,-34.8919,12.3589,0.00271136,0.00192156,0.00109539,0.00348086,0.00115207,0.612394,0.0020476,0.0212124,643,1324,-34.8919,-12.3589
-574,-300,-34.8707,13.1964,0.00228266,0.00102557,0.000617151,0.00253499,0.000773237,0.388127,0.00150021,0.0162751,650,1324,-34.8707,-13.1964
-567,-300,-34.941,14.0145,0.00215717,0.000243407,0.000308765,0.00220575,0.000194824,0.156065,0.00141005,0.0169722,657,1324,-34.941,-14.0145
-560,-300,-35.0152,14.8728,0.00239036,-0.000472042,0.000163665,0.00239969,-0.00048137,0.0569302,0.00178205,0.0169571,664,1324,-35.0152,-14.8728
-553,-300,-35.0375,15.7146,0.00302915,-0.00105737,0.00021524,0.00304046,-0.00106868,0.0524771,0.00246177,0.0120005,671,1324,-35.0375,-15.7146
-546,-300,-35.0755,16.5573,0.00407678,-0.00154188,0.000519992,0.00412449,-0.0015896,0.0915117,0.00340552,0.0129394,678,1324,-35.0755,-16.5572
-539,-300,-34.9539,17.5105,0.00583751,-0.00189794,0.00118551,0.00601512,-0.00207555,0.148711,0.00485223,0.0323182,685,1324,-34.9539,-17.5105
-532,-300,-34.7667,18.4707,0,0,0,0,0,0,0,-1,692,1324,-34.7667,-18.4707
-525,-300,-13.5115,6.27783,0,0,0,0,0,0,0,-1,699,1324,-13.5115,-6.2778
-518,-300,-9.8349,-0.537109,0,0,0,0,0,0,0,-1,706,1324,-9.83487,0.537068
-511,-300,-12.8644,0.081665,0,0,0,0,0,0,0,-1,713,1324,-12.8644,-0.0817016
-504,-300,-13.4829,-0.165527,0,0,0,0,0,0,0,-1,720,1324,-13.4829,0.165544
-497,-300,-18.1063,0.956543,0,0,0,0,0,0,0,-1,727,1324,-18.1063,-0.9565
-490,-300,-18.2293,1.53625,0,0,0,0,0,0,0,-1,734,1324,-18.2293,-1.53626
-483,-300,-18.3522,1.61084,0,0,0,0,0,0,0,-1,741,1324,-18.3522,-1.6108
-476,-300,-18.7489,1.96387,0,0,0,0,0,0,0,-1,748,1324,-18.7489,-1.96387
-469,-300,0,0,0,0,0,0,0,0,0,-1,755,1324,0,0
-462,-300,0,0,0,0,0,0,0,0,0,-1,762,1324,0,0
-455,-300,0,0,0,0,0,0,0,0,0,-1,769,1324,0,0
-448,-300,0,0,0,0,0,0,0,0,0,-1,776,1324,0,0
-441,-300,0,0,0,0,0,0,0,0,0,-1,783,1324,0,0
-434,-300,0,0,0,0,0,0,0,0,0,-1,790,1324,0,0
-427,-300,0,0,0,0,0,0,0,0,0,-1,797,1324,0,0
-420,-300,0,0,0,0,0,0,0,0,0,-1,804,1324,0,0
-413,-300,0,0,0,0,0,0,0,0,0,-1,811,1324,0,0
-406,-300,0,0,0,0,0,0,0,0,0,-1,818,1324,0,0
-399,-300,0,0,0,0,0,0,0,0,0,-1,825,1324,0,0
-392,-300,0,0,0,0,0,0,0,0,0,-1,832,1324,0,0
-385,-300,0,0,0,0,0,0,0,0,0,-1,839,1324,0,0
-378,-300,0,0,0,0,0,0,0,0,0,-1,846,1324,0,0
-371,-300,0,0,0,0,0,0,0,0,0,-1,853,1324,0,0
-364,-300,0,0,0,0,0,0,0,0,0,-1,860,1324,0,0
-357,-300,0,0,0,0,0,0,0,0,0,-1,867,1324,0,0
-350,-300,0,0,0,0,0,0,0,0,0,-1,874,1324,0,0
-343,-300,0,0,0,0,0,0,0,0,0,-1,881,1324,0,0
-336,-300,0,0,0,0,0,0,0,0,0,-1,888,1324,0,0
-329,-300,0,0,0,0,0,0,0,0,0,-1,895,1324,0,0
-322,-300,0,0,0,0,0,0,0,0,0,-1,902,1324,0,0
-315,-300,0,0,0,0,0,0,0,0,0,-1,909,1324,0,0
-308,-300,0,0,0,0,0,0,0,0,0,-1,916,1324,0,0
-301,-300,0,0,0,0,0,0,0,0,0,-1,923,1324,0,0
-294,-300,0,0,0,0,0,0,0,0,0,-1,930,1324,0,0
-287,-300,0,0,0,0,0,0,0,0,0,-1,937,1324,0,0
-280,-300,0,0,0,0,0,0,0,0,0,-1,944,1324,0,0
-273,-300,0,0,0,0,0,0,0,0,0,-1,951,1324,0,0
-266,-300,0,0,0,0,0,0,0,0,0,-1,958,1324,0,0
-259,-300,0,0,0,0,0,0,0,0,0,-1,965,1324,0,0
-252,-300,0,0,0,0,0,0,0,0,0,-1,972,1324,0,0
-245,-300,0,0,0,0,0,0,0,0,0,-1,979,1324,0,0
-238,-300,0,0,0,0,0,0,0,0,0,-1,986,1324,0,0
-231,-300,0,0,0,0,0,0,0,0,0,-1,993,1324,0,0
-224,-300,0,0,0,0,0,0,0,0,0,-1,1000,1324,0,0
-217,-300,0,0,0,0,0,0,0,0,0,-1,1007,1324,0,0
-210,-300,0,0,0,0,0,0,0,0,0,-1,1014,1324,0,0
-203,-300,0,0,0,0,0,0,0,0,0,-1,1021,1324,0,0
-196,-300,0,0,0,0,0,0,0,0,0,-1,1028,1324,0,0
-189,-300,0,0,0,0,0,0,0,0,0,-1,1035,1324,0,0
-182,-300,0,0,0,0,0,0,0,0,0,-1,1042,1324,0,0
-175,-300,0,0,0,0,0,0,0,0,0,-1,1049,1324,0,0
-168,-300,0,0,0,0,0,0,0,0,0,-1,1056,1324,0,0
-161,-300,0,0,0,0,0,0,0,0,0,-1,1063,1324,0,0
-154,-300,0,0,0,0,0,0,0,0,0,-1,1070,1324,0,0
-147,-300,0,0,0,0,0,0,0,0,0,-1,1077,1324,0,0
-140,-300,0,0,0,0,0,0,0,0,0,-1,1084,1324,0,0
-133,-300,0,0,0,0,0,0,0,0,0,-1,1091,1324,0,0
-126,-300,0,0,0,0,0,0,0,0,0,-1,1098,1324,0,0
-119,-300,0,0,0,0,0,0,0,0,0,-1,1105,1324,0,0
-112,-300,0,0,0,0,0,0,0,0,0,-1,1112,1324,0,0
-105,-300,0,0,0,0,0,0,0,0,0,-1,1119,1324,0,0
-98,-300,0,0,0,0,0,0,0,0,0,-1,1126,1324,0,0
-91,-300,0,0,0,0,0,0,0,0,0,-1,1133,1324,0,0
-84,-300,0,0,0,0,0,0,0,0,0,-1,1140,1324,0,0
-77,-300,0,0,0,0,0,0,0,0,0,-1,1147,1324,0,0
-70,-300,0,0,0,0,0,0,0,0,0,-1,1154,1324,0,0
-63,-300,0,0,0,0,0,0,0,0,0,-1,1161,1324,0,0
-56,-300,0,0,0,0,0,0,0,0,0,-1,1168,1324,0,0
-49,-300,0,0,0,0,0,0,0,0,0,-1,1175,1324,0,0
-42,-300,0,0,0,0,0,0,0,0,0,-1,1182,1324,0,0
-35,-300,0,0,0,0,0,0,0,0,0,-1,1189,1324,0,0
-28,-300,0,0,0,0,0,0,0,0,0,-1,1196,1324,0,0
-21,-300,0,0,0,0,0,0,0,0,0,-1,1203,1324,0,0
-14,-300,0,0,0,0,0,0,0,0,0,-1,1210,1324,0,0
-7,-300,0,0,0,0,0,0,0,0,0,-1,1217,1324,0,0
0,-300,0,0,0,0,0,0,0,0,0,-1,1224,1324,0,0
7,-300,0,0,0,0,0,0,0,0,0,-1,1231,1324,0,0
14,-300,0,0,0,0,0,0,0,0,0,-1,1238,1324,0,0
21,-300,0,0,0,0,0,0,0,0,0,-1,1245,1324,0,0
28,-300,0,0,0,0,0,0,0,0,0,-1,1252,1324,0,0
35,-300,0,0,0,0,0,0,0,0,0,-1,1259,1324,0,0
42,-300,0,0,0,0,0,0,0,0,0,-1,1266,1324,0,0
49,-300,0,0,0,0,0,0,0,0,0,-1,1273,1324,0,0
56,-300,0,0,0,0,0,0,0,0,0,-1,1280,1324,0,0
63,-300,0,0,0,0,0,0,0,0,0,-1,1287,1324,0,0
70,-300,0,0,0,0,0,0,0,0,0,-1,1294,1324,0,0
77,-300,0,0,0,0,0,0,0,0,0,-1,1301,1324,0,0
84,-300,0,0,0,0,0,0,0,0,0,-1,1308,1324,0,0
91,-300,0,0,0,0,0,0,0,0,0,-1,1315,1324,0,0
98,-300,0,0,0,0,0,0,0,0,0,-1,1322,1324,0,0
105,-300,0,0,0,0,0,0,0,0,0,-1,1329,1324,0,0
112,-300,0,0,0,0,0,0,0,0,0,-1,1336,1324,0,0
119,-300,0,0,0,0,0,0,0,0,0,-1,1343,1324,0,0
126,-300,0,0,0,0,0,0,0,0,0,-1,1350,1324,0,0
133,-300,0,0,0,0,0,0,0,0,0,-1,1357,1324,0,0
140,-300,0,0,0,0,0,0,0,0,0,-1,1364,1324,0,0
147,-300,0,0,0,0,0,0,0,0,0,-1,1371,1324,0,0
154,-300,0,0,0,0,0,0,0,0,0,-1,1378,1324,0,0
161,-300,0,0,0,0,0,0,0,0,0,-1,1385,1324,0,0
168,-300,0,0,0,0,0,0,0,0,0,-1,1392,1324,0,0
175,-300,0,0,0,0,0,0,0,0,0,-1,1399,1324,0,0
182,-300,0,0,0,0,0,0,0,0,0,-1,1406,1324,0,0
189,-300,0,0,0,0,0,0,0,0,0,-1,1413,1324,0,0
196,-300,0,0,0,0,0,0,0,0,0,-1,1420,1324,0,0
203,-300,0,0,0,0,0,0,0,0,0,-1,1427,1324,0,0
210,-300,0,0,0,0,0,0,0,0,0,-1,1434,1324,0,0
217,-300,0,0,0,0,0,0,0,0,0,-1,1441,1324,0,0
224,-300,0,0,0,0,0,0,0,0,0,-1,1448,1324,0,0
231,-300,0,0,0,0,0,0,0,0,0,-1,1455,1324,0,0
238,-300,0,0,0,0,0,0,0,0,0,-1,1462,1324,0,0
245,-300,0,0,0,0,0,0,0,0,0,-1,1469,1324,0,0
252,-300,0,0,0,0,0,0,0,0,0,-1,1476,1324,0,0
259,-300,0,0,0,0,0,0,0,0,0,-1,1483,1324,0,0
266,-300,0,0,0,0,0,0,0,0,0,-1,1490,1324,0,0
273,-300,0,0,0,0,0,0,0,0,0,-1,1497,1324,0,0
280,-300,0,0,0,0,0,0,0,0,0,-1,1504,1324,0,0
287,-300,0,0,0,0,0,0,0,0,0,-1,1511,1324,0,0
294,-300,0,0,0,0,0,0,0,0,0,-1,1518,1324,0,0
301,-300,0,0,0,0,0,0,0,0,0,-1,1525,1324,0,0
308,-300,0,0,0,0,0,0,0,0,0,-1,1532,1324,0,0
315,-300,0,0,0,0,0,0,0,0,0,-1,1539,1324,0,0
322,-300,0,0,0,0,0,0,0,0,0,-1,1546,1324,0,0
329,-300,0,0,0,0,0,0,0,0,0,-1,1553,1324,0,0
336,-300,0,0,0,0,0,0,0,0,0,-1,1560,1324,0,0
343,-300,0,0,0,0,0,0,0,0,0,-1,1567,1324,0,0
350,-300,0,0,0,0,0,0,0,0,0,-1,1574,1324,0,0
357,-300,0,0,0,0,0,0,0,0,0,-1,1581,1324,0,0
364,-300,0,0,0,0,0,0,0,0,0,-1,1588,1324,0,0
371,-300,0,0,0,0,0,0,0,0,0,-1,1595,1324,0,0
378,-300,0,0,0,0,0,0,0,0,0,-1,1602,1324,0,0
385,-300,0,0,0,0,0,0,0,0,0,-1,1609,1324,0,0
392,-300,0,0,0,0,0,0,0,0,0,-1,1616,1324,0,0
399,-300,0,0,0,0,0,0,0,0,0,-1,1623,1324,0,0
406,-300,0,0,0,0,0,0,0,0,0,-1,1630,1324,0,0
413,-300,0,0,0,0,0,0,0,0,0,-1,1637,1324,0,0
420,-300,0,0,0,0,0,0,0,0,0,-1,1644,1324,0,0
427,-300,0,0,0,0,0,0,0,0,0,-1,1651,1324,0,0
434,-300,0,0,0,0,0,0,0,0,0,-1,1658,1324,0,0
441,-300,0,0,0,0,0,0,0,0,0,-1,1665,1324,0,0
448,-300,0,0,0,0,0,0,0,0,0,-1,1672,1324,0,0
455,-300,0,0,0,0,0,0,0,0,0,-1,1679,1324,0,0
462,-300,0,0,0,0,0,0,0,0,0,-1,1686,1324,0,0
469,-300,0,0,0,0,0,0,0,0,0,-1,1693,1324,0,0
476,-300,0,0,0,0,0,0,0,0,0,-1,1700,1324,0,0
483,-300,0,0,0,0,0,0,0,0,0,-1,1707,1324,0,0
490,-300,0,0,0,0,0,0,0,0,0,-1,1714,1324,0,0
497,-300,0,0,0,0,0,0,0,0,0,-1,1721,1324,0,0
504,-300,0,0,0,0,0,0,0,0,0,-1,1728,1324,0,0
511,-300,0,0,0,0,0,0,0,0,0,-1,1735,1324,0,0
518,-300,0,0,0,0,0,0,0,0,0,-1,1742,1324,0,0
525,-300,0,0,0,0,0,0,0,0,0,-1,1749,1324,0,0
532,-300,0,0,0,0,0,0,0,0,0,-1,1756,1324,0,0
539,-300,0,0,0,0,0,0,0,0,0,-1,1763,1324,0,0
546,-300,0,0,0,0,0,0,0,0,0,-1,1770,1324,0,0
553,-300,0,0,0,0,0,0,0,0,0,-1,1777,1324,0,0
560,-300,0,0,0,0,0,0,0,0,0,-1,1784,1324,0,0
567,-300,0,0,0,0,0,0,0,0,0,-1,1791,1324,0,0
574,-300,0,0,0,0,0,0,0,0,0,-1,1798,1324,0,0
581,-300,0,0,0,0,0,0,0,0,0,-1,1805,1324,0,0
588,-300,66.4561,1.99207,0,0,0,0,0,0,0,-1,1812,1324,66.456,-1.99202
595,-300,66.4685,1.95496,0,0,0,0,0,0,0,-1,1819,1324,66.4685,-1.95499
602,-300,66.5259,1.72363,0,0,0,0,0,0,0,-1,1826,1324,66.5259,-1.72367
609,-300,64.2576,2.90149,0,0,0,0,0,0,0,-1,1833,1324,64.2575,-2.90154
616,-300,65.1267,2.84033,0,0,0,0,0,0,0,-1,1840,1324,65.1267,-2.84037
623,-300,47.4474,2.43188,0,0,0,0,0,0,0,-1,1847,1324,47.4474,-2.43194
630,-300,42.4099,3.9165,0,0,0,0,0,0,0,-1,1854,1324,42.4099,-3.91649
637,-300,31.1719,4.6366,0,0,0,0,0,0,0,-1,1861,1324,31.1718,-4.63665
644,-300,22.9836,3.44934,0,0,0,0,0,0,0,-1,1868,1324,22.9836,-3.4493
651,-300,25.5004,9.11853,0,0,0,0,0,0,0,-1,1875,1324,25.5004,-9.11851
658,-300,25.4012,9.20032,0,0,0,0,0,0,0,-1,1882,1324,25.4012,-9.20036
665,-300,51.8687,18.3605,0,0,0,0,0,0,0,-1,1889,1324,51.8686,-18.3604
672,-300,51.6764,17.6438,0.000797564,0.00265357,-0.000902259,0.00301988,0.000431248,-1.18513,0.00188601,0.0378164,1896,1324,51.6764,-17.6438
679,-300,51.6852,16.772,-0.00046569,-0.000125398,-0.000222535,-1.54161e-05,-0.000575671,-1.11178,0.000378747,0.0132869,1903,1324,51.6852,-16.7719
686,-300,51.6499,15.9447,-0.000173381,1.11888e-05,-5.67753e-05,2.72548e-05,-0.000189447,-1.29503,0.000136294,0.0134871,1910,1324,51.6499,-15.9447
693,-300,51.5721,15.1112,0.000730725,-1.0699e-05,-0.000125004,0.000751233,-3.12073e-05,-0.162613,0.000511542,0.0117158,1917,1324,51.5722,-15.1113
700,-300,51.5021,14.2782,0.00102432,7.18491e-06,1.31998e-05,0.00102449,7.01367e-06,0.0129745,0.000680667,0.0130241,1924,1324,51.5021,-14.2782
707,-300,51.4913,13.4644,0.000654652,-0.000275694,0.000687572,0.00101962,-0.000640666,0.487993,0.000966857,0.0098471,1931,1324,51.4913,-13.4643
714,-300,51.4618,12.6775,0.000232454,-0.000616762,0.00143189,0.00130136,-0.00168567,0.641259,0.00172932,0.0119478,1938,1324,51.4618,-12.6775
721,-300,51.4288,11.8645,-0.000250816,-0.00101488,0.00224342,0.00164287,-0.00290857,0.701062,0.00266143,0.0133976,1945,1324,51.4289,-11.8645
728,-300,51.4282,11.004,-0.00078488,-0.00146033,0.00313431,0.00202985,-0.00427505,0.73173,0.00371627,0.0184788,1952,1324,51.4282,-11.004
735,-300,51.2095,10.4822,-0.00140805,-0.00204852,0.00413221,0.00241631,-0.00587289,0.746727,0.00492252,0.0352802,1959,1324,51.2095,-10.4821
742,-300,51.1093,9.80688,0,0,0,0,0,0,0,-1,1966,1324,51.1092,-9.80689
749,-300,27.4065,5.9718,0,0,0,0,0,0,0,-1,1973,1324,27.4065,-5.97181
756,-300,22.1423,3.45642,0,0,0,0,0,0,0,-1,1980,1324,22.1423,-3.45638
763,-300,22.6136,5.1571,0,0,0,0,0,0,0,-1,1987,1324,22.6136,-5.15706
770,-300,24.859,4.77979,0,0,0,0,0,0,0,-1,1994,1324,24.859,-4.77972
777,-300,0,0,0,0,0,0,0,0,0,-1,2001,1324,0,0
784,-300,0,0,0,0,0,0,0,0,0,-1,2008,1324,0,0
791,-300,0,0,0,0,0,0,0,0,0,-1,2015,1324,0,0
798,-300,0,0,0,0,0,0,0,0,0,-1,2022,1324,0,0
805,-300,0,0,0,0,0,0,0,0,0,-1,2029,1324,0,0
812,-300,0,0,0,0,0,0,0,0,0,-1,2036,1324,0,0
-700,-307,0,0,0,0,0,0,0,0,0,-1,524,1331,0,0
-693,-307,0,0,0,0,0,0,0,0,0,-1,531,1331,0,0
-686,-307,0,0,0,0,0,0,0,0,0,-1,538,1331,0,0
-679,-307,0,0,0,0,0,0,0,0,0,-1,545,1331,0,0
-672,-307,0,0,0,0,0,0,0,0,0,-1,552,1331,0,0
-665,-307,0,0,0,0,0,0,0,0,0,-1,559,1331,0,0
-658,-307,0,0,0,0,0,0,0,0,0,-1,566,1331,0,0
-651,-307,-40.7436,1.98755,0,0,0,0,0,0,0,-1,573,1331,-40.7436,-1.98753
-644,-307,-41.7838,1.24817,0,0,0,0,0,0,0,-1,580,1331,-41.7838,-1.2482
-637,-307,-41.9006,0.477783,0,0,0,0,0,0,0,-1,587,1331,-41.9006,-0.477844
-630,-307,-12.0005,0.767212,0,0,0,0,0,0,0,-1,594,1331,-12.0005,-0.767266
-623,-307,-12.2128,2.93811,0,0,0,0,0,0,0,-1,601,1331,-12.2128,-2.93813
-616,-307,-12.6612,2.08289,0,0,0,0,0,0,0,-1,608,1331,-12.6612,-2.08293
-609,-307,-12.2767,1.83228,0,0,0,0,0,0,0,-1,615,1331,-12.2768,-1.83224
-602,-307,-27.5659,6.93335,0,0,0,0,0,0,0,-1,622,1331,-27.5658,-6.9333
-595,-307,-34.2065,10.5537,0,0,0,0,0,0,0,-1,629,1331,-34.2066,-10.5537
-588,-307,-33.993,11.5895,0.00394141,0.00346703,0.0022908,0.00600726,0.00140117,0.733812,0.00362909,0.02464,636,1331,-33.9931,-11.5895
-581,-307,-34.027,12.4252,0.00321681,0.00247486,0.00155921,0.00444857,0.0012431,0.668608,0.00265037,0.0171428,643,1331,-34.027,-12.4251
-574,-307,-34.044,13.2345,0.00278077,0.00160491,0.0010251,0.00337457,0.00101111,0.525033,0.00199978,0.0140475,650,1331,-34.044,-13.2345
-567,-307,-34.0923,14.0598,0.00267016,0.000870291,0.000700113,0.00291042,0.000630033,0.330578,0.00176809,0.0135895,657,1331,-34.0923,-14.0598
-560,-307,-34.1492,14.9161,0.00288451,0.000216349,0.000563053,0.00299846,0.000102397,0.199686,0.00196573,0.0148832,664,1331,-34.1492,-14.9162
-553,-307,-34.2064,15.7683,0.00347656,-0.000289407,0.000642126,0.00358304,-0.000395884,0.164324,0.002531,0.012477,671,1331,-34.2064,-15.7683
-546,-307,-34.2629,16.6061,0.00445126,-0.000719323,0.000949557,0.00462013,-0.00088819,0.175998,0.00341487,0.0118033,678,1331,-34.263,-16.6061
-539,-307,-34.245,17.5209,0.00599502,-0.00102687,0.001568,0.00632925,-0.00136109,0.210013,0.00473881,0.025375,685,1331,-34.245,-17.5209
-532,-307,-34.1675,18.4795,0,0,0,0,0,0,0,-1,692,1331,-34.1676,-18.4795
-525,-307,-13.2009,6.91309,0,0,0,0,0,0,0,-1,699,1331,-13.2009,-6.9131
-518,-307,-9.77777,-1.56653,0,0,0,0,0,0,0,-1,706,1331,-9.77777,1.56651
-511,-307,-12.5226,0.26709,0,0,0,0,0,0,0,-1,713,1331,-12.5226,-0.267038
-504,-307,-12.5913,-0.308105,0,0,0,0,0,0,0,-1,720,1331,-12.5913,0.308124
-497,-307,-13.8586,-0.115845,0,0,0,0,0,0,0,-1,727,1331,-13.8587,0.115861
-490,-307,-17.9429,0.982178,0,0,0,0,0,0,0,-1,734,1331,-17.9429,-0.982198
-483,-307,-18.1066,0.927612,0,0,0,0,0,0,0,-1,741,1331,-18.1066,-0.927609
-476,-307,-18.1288,1.1228,0,0,0,0,0,0,0,-1,748,1331,-18.1289,-1.12286
-469,-307,-18.2028,0.798584,0,0,0,0,0,0,0,-1,755,1331,-18.2027,-0.798546
-462,-307,0,0,0,0,0,0,0,0,0,-1,762,1331,0,0
-455,-307,0,0,0,0,0,0,0,0,0,-1,769,1331,0,0
-448,-307,0,0,0,0,0,0,0,0,0,-1,776,1331,0,0
-441,-307,0,0,0,0,0,0,0,0,0,-1,783,1331,0,0
-434,-307,0,0,0,0,0,0,0,0,0,-1,790,1331,0,0
-427,-307,0,0,0,0,0,0,0,0,0,-1,797,1331,0,0
-420,-307,0,0,0,0,0,0,0,0,0,-1,804,1331,0,0
-413,-307,0,0,0,0,0,0,0,0,0,-1,811,1331,0,0
-406,-307,0,0,0,0,0,0,0,0,0,-1,818,1331,0,0
-399,-307,0,0,0,0,0,0,0,0,0,-1,825,1331,0,0
-392,-307,0,0,0,0,0,0,0,0,0,-1,832,1331,0,0
-385,-307,0,0,0,0,0,0,0,0,0,-1,839,1331,0,0
-378,-307,0,0,0,0,0,0,0,0,0,-1,846,1331,0,0
-371,-307,0,0,0,0,0,0,0,0,0,-1,853,1331,0,0
-364,-307,0,0,0,0,0,0,0,0,0,-1,860,1331,0,0
-357,-307,0,0,0,0,0,0,0,0,0,-1,867,1331,0,0
-350,-307,0,0,0,0,0,0,0,0,0,-1,874,1331,0,0
-343,-307,0,0,0,0,0,0,0,0,0,-1,881,1331,0,0
-336,-307,0,0,0,0,0,0,0,0,0,-1,888,1331,0,0
-329,-307,0,0,0,0,0,0,0,0,0,-1,895,1331,0,0
-322,-307,0,0,0,0,0,0,0,0,0,-1,902,1331,0,0
-315,-307,0,0,0,0,0,0,0,0,0,-1,909,1331,0,0
-308,-307,0,0,0,0,0,0,0,0,0,-1,916,1331,0,0
-301,-307,0,0,0,0,0,0,0,0,0,-1,923,1331,0,0
-294,-307,0,0,0,0,0,0,0,0,0,-1,930,1331,0,0
-287,-307,0,0,0,0,0,0,0,0,0,-1,937,1331,0,0
-280,-307,0,0,0,0,0,0,0,0,0,-1,944,1331,0,0
-273,-307,0,0,0,0,0,0,0,0,0,-1,951,1331,0,0
-266,-307,0,0,0,0,0,0,0,0,0,-1,958,1331,0,0
-259,-307,0,0,0,0,0,0,0,0,0,-1,965,1331,0,0
-252,-307,0,0,0,0,0,0,0,0,0,-1,972,1331,0,0
-245,-307,0,0,0,0,0,0,0,0,0,-1,979,1331,0,0
-238,-307,0,0,0,0,0,0,0,0,0,-1,986,1331,0,0
-231,-307,0,0,0,0,0,0,0,0,0,-1,993,1331,0,0
-224,-307,0,0,0,0,0,0,0,0,0,-1,1000,1331,0,0
-217,-307,0,0,0,0,0,0,0,0,0,-1,1007,1331,0,0
-210,-307,0,0,0,0,0,0,0,0,0,-1,1014,1331,0,0
-203,-307,0,0,0,0,0,0,0,0,0,-1,1021,1331,0,0
-196,-307,0,0,0,0,0,0,0,0,0,-1,1028,1331,0,0
-189,-307,0,0,0,0,0,0,0,0,0,-1,1035,1331,0,0
-182,-307,0,0,0,0,0,0,0,0,0,-1,1042,1331,0,0
-175,-307,0,0,0,0,0,0,0,0,0,-1,1049,1331,0,0
-168,-307,0,0,0,0,0,0,0,0,0,-1,1056,1331,0,0
-161,-307,0,0,0,0,0,0,0,0,0,-1,1063,1331,0,0
-154,-307,0,0,0,0,0,0,0,0,0,-1,1070,1331,0,0
-147,-307,0,0,0,0,0,0,0,0,0,-1,1077,1331,0,0
-140,-307,0,0,0,0,0,0,0,0,0,-1,1084,1331,0,0
-133,-307,0,0,0,0,0,0,0,0,0,-1,1091,1331,0,0
-126,-307,0,0,0,0,0,0,0,0,0,-1,1098,1331,0,0
-119,-307,0,0,0,0,0,0,0,0,0,-1,1105,1331,0,0
-112,-307,0,0,0,0,0,0,0,0,0,-1,1112,1331,0,0
-105,-307,0,0,0,0,0,0,0,0,0,-1,1119,1331,0,0
-98,-307,0,0,0,0,0,0,0,0,0,-1,1126,1331,0,0
-91,-307,0,0,0,0,0,0,0,0,0,-1,1133,1331,0,0
-84,-307,0,0,0,0,0,0,0,0,0,-1,1140,1331,0,0
-77,-307,0,0,0,0,0,0,0,0,0,-1,1147,1331,0,0
-70,-307,0,0,0,0,0,0,0,0,0,-1,1154,1331,0,0
-63,-307,0,0,0,0,0,0,0,0,0,-1,1161,1331,0,0
-56,-307,0,0,0,0,0,0,0,0,0,-1,1168,1331,0,0
-49,-307,0,0,0,0,0,0,0,0,0,-1,1175,1331,0,0
-42,-307,0,0,0,0,0,0,0,0,0,-1,1182,1331,0,0
-35,-307,0,0,0,0,0,0,0,0,0,-1,1189,1331,0,0
-28,-307,0,0,0,0,0,0,0,0,0,-1,1196,1331,0,0
-21,-307,0,0,0,0,0,0,0,0,0,-1,1203,1331,0,0
-14,-307,0,0,0,0,0,0,0,0,0,-1,1210,1331,0,0
-7,-307,0,0,0,0,0,0,0,0,0,-1,1217,1331,0,0
0,-307,0,0,0,0,0,0,0,0,0,-1,1224,1331,0,0
7,-307,0,0,0,0,0,0,0,0,0,-1,1231,1331,0,0
14,-307,0,0,0,0,0,0,0,0,0,-1,1238,1331,0,0
21,-307,0,0,0,0,0,0,0,0,0,-1,1245,1331,0,0
28,-307,0,0,0,0,0,0,0,0,0,-1,1252,1331,0,0
35,-307,0,0,0,0,0,0,0,0,0,-1,1259,1331,0,0
42,-307,0,0,0,0,0,0,0,0,0,-1,1266,1331,0,0
49,-307,0,0,0,0,0,0,0,0,0,-1,1273,1331,0,0
56,-307,0,0,0,0,0,0,0,0,0,-1,1280,1331,0,0
63,-307,0,0,0,0,0,0,0,0,0,-1,1287,1331,0,0
70,-307,0,0,0,0,0,0,0,0,0,-1,1294,1331,0,0
77,-307,0,0,0,0,0,0,0,0,0,-1,1301,1331,0,0
84,-307,0,0,0,0,0,0,0,0,0,-1,1308,1331,0,0
91,-307,0,0,0,0,0,0,0,0,0,-1,1315,1331,0,0
98,-307,0,0,0,0,0,0,0,0,0,-1,1322,1331,0,0
105,-307,0,0,0,0,0,0,0,0,0,-1,1329,1331,0,0
112,-307,0,0,0,0,0,0,0,0,0,-1,1336,1331,0,0
119,-307,0,0,0,0,0,0,0,0,0,-1,1343,1331,0,0
126,-307,0,0,0,0,0,0,0,0,0,-1,1350,1331,0,0
133,-307,0,0,0,0,0,0,0,0,0,-1,1357,1331,0,0
140,-307,0,0,0,0,0,0,0,0,0,-1,1364,1331,0,0
147,-307,0,0,0,0,0,0,0,0,0,-1,1371,1331,0,0
154,-307,0,0,0,0,0,0,0,0,0,-1,1378,1331,0,0
161,-307,0,0,0,0,0,0,0,0,0,-1,1385,1331,0,0
168,-307,0,0,0,0,0,0,0,0,0,-1,1392,1331,0,0
175,-307,0,0,0,0,0,0,0,0,0,-1,1399,1331,0,0
182,-307,0,0,0,0,0,0,0,0,0,-1,1406,1331,0,0
189,-307,0,0,0,0,0,0,0,0,0,-1,1413,1331,0,0
196,-307,0,0,0,0,0,0,0,0,0,-1,1420,1331,0,0
203,-307,0,0,0,0,0,0,0,0,0,-1,1427,1331,0,0
210,-307,0,0,0,0,0,0,0,0,0,-1,1434,1331,0,0
217,-307,0,0,0,0,0,0,0,0,0,-1,1441,1331,0,0
224,-307,0,0,0,0,0,0,0,0,0,-1,1448,1331,0,0
231,-307,0,0,0,0,0,0,0,0,0,-1,1455,1331,0,0
238,-307,0,0,0,0,0,0,0,0,0,-1,1462,1331,0,0
245,-307,0,0,0,0,0,0,0,0,0,-1,1469,1331,0,0
252,-307,0,0,0,0,0,0,0,0,0,-1,1476,1331,0,0
259,-307,0,0,0,0,0,0,0,0,0,-1,1483,1331,0,0
266,-307,0,0,0,0,0,0,0,0,0,-1,1490,1331,0,0
273,-307,0,0,0,0,0,0,0,0,0,-1,1497,1331,0,0
280,-307,0,0,0,0,0,0,0,0,0,-1,1504,1331,0,0
287,-307,0,0,0,0,0,0,0,0,0,-1,1511,1331,0,0
294,-307,0,0,0,0,0,0,0,0,0,-1,1518,1331,0,0
301,-307,0,0,0,0,0,0,0,0,0,-1,1525,1331,0,0
308,-307,0,0,0,0,0,0,0,0,0,-1,1532,1331,0,0
315,-307,0,0,0,0,0,0,0,0,0,-1,1539,1331,0,0
322,-307,0,0,0,0,0,0,0,0,0,-1,1546,1331,0,0
329,-307,0,0,0,0,0,0,0,0,0,-1,1553,1331,0,0
336,-307,0,0,0,0,0,0,0,0,0,-1,1560,1331,0,0
343,-307,0,0,0,0,0,0,0,0,0,-1,1567,1331,0,0
350,-307,0,0,0,0,0,0,0,0,0,-1,1574,1331,0,0
357,-307,0,0,0,0,0,0,0,0,0,-1,1581,1331,0,0
364,-307,0,0,0,0,0,0,0,0,0,-1,1588,1331,0,0
371,-307,0,0,0,0,0,0,0,0,0,-1,1595,1331,0,0
378,-307,0,0,0,0,0,0,0,0,0,-1,1602,1331,0,0
385,-307,0,0,0,0,0,0,0,0,0,-1,1609,1331,0,0
392,-307,0,0,0,0,0,0,0,0,0,-1,1616,1331,0,0
399,-307,0,0,0,0,0,0,0,0,0,-1,1623,1331,0,0
406,-307,0,0,0,0,0,0,0,0,0,-1,1630,1331,0,0
413,-307,0,0,0,0,0,0,0,0,0,-1,1637,1331,0,0
420,-307,0,0,0,0,0,0,0,0,0,-1,1644,1331,0,0
427,-307,0,0,0,0,0,0,0,0,0,-1,1651,1331,0,0
434,-307,0,0,0,0,0,0,0,0,0,-1,1658,1331,0,0
441,-307,0,0,0,0,0,0,0,0,0,-1,1665,1331,0,0
448,-307,0,0,0,0,0,0,0,0,0,-1,1672,1331,0,0
455,-307,0,0,0,0,0,0,0,0,0,-1,1679,1331,0,0
462,-307,0,0,0,0,0,0,0,0,0,-1,1686,1331,0,0
469,-307,0,0,0,0,0,0,0,0,0,-1,1693,1331,0,0
476,-307,0,0,0,0,0,0,0,0,0,-1,1700,1331,0,0
483,-307,0,0,0,0,0,0,0,0,0,-1,1707,1331,0,0
490,-307,0,0,0,0,0,0,0,0,0,-1,1714,1331,0,0
497,-307,0,0,0,0,0,0,0,0,0,-1,1721,1331,0,0
504,-307,0,0,0,0,0,0,0,0,0,-1,1728,1331,0,0
511,-307,0,0,0,0,0,0,0,0,0,-1,1735,1331,0,0
518,-307,0,0,0,0,0,0,0,0,0,-1,1742,1331,0,0
525,-307,0,0,0,0,0,0,0,0,0,-1,1749,1331,0,0
532,-307,0,0,0,0,0,0,0,0,0,-1,1756,1331,0,0
539,-307,0,0,0,0,0,0,0,0,0,-1,1763,1331,0,0
546,-307,0,0,0,0,0,0,0,0,0,-1,1770,1331,0,0
553,-307,0,0,0,0,0,0,0,0,0,-1,1777,1331,0,0
560,-307,0,0,0,0,0,0,0,0,0,-1,1784,1331,0,0
567,-307,0,0,0,0,0,0,0,0,0,-1,1791,1331,0,0
574,-307,0,0,0,0,0,0,0,0,0,-1,1798,1331,0,0
581,-307,0,0,0,0,0,0,0,0,0,-1,1805,1331,0,0
588,-307,66.5917,1.60864,0,0,0,0,0,0,0,-1,1812,1331,66.5917,-1.60867
595,-307,66.708,1.85352,0,0,0,0,0,0,0,-1,1819,1331,66.708,-1.85351
602,-307,66.111,1.49976,0,0,0,0,0,0,0,-1,1826,1331,66.1109,-1.49974
609,-307,63.8848,2.78992,0,0,0,0,0,0,0,-1,1833,1331,63.8848,-2.78989
616,-307,53.2878,0.135498,0,0,0,0,0,0,0,-1,1840,1331,53.2878,-0.135477
623,-307,44.3966,2.84888,0,0,0,0,0,0,0,-1,1847,1331,44.3966,-2.84884
630,-307,29.8116,1.51184,0,0,0,0,0,0,0,-1,1854,1331,29.8116,-1.51188
637,-307,24.6407,4.09106,0,0,0,0,0,0,0,-1,1861,1331,24.6407,-4.09103
644,-307,22.6885,5.80408,0,0,0,0,0,0,0,-1,1868,1331,22.6884,-5.80408
651,-307,17.5013,5.80078,0,0,0,0,0,0,0,-1,1875,1331,17.5014,-5.80072
658,-307,37.4427,13.9775,0,0,0,0,0,0,0,-1,1882,1331,37.4427,-13.9776
665,-307,51.0146,18.4177,0,0,0,0,0,0,0,-1,1889,1331,51.0147,-18.4177
672,-307,50.8893,17.6307,0.00169088,0.00276765,-0.0014236,0.00375126,0.000707266,-0.966179,0.0023016,0.022137,1896,1331,50.8892,-17.6308
679,-307,50.8521,16.8187,0.000523693,0.00028238,-0.000687078,0.00110063,-0.000294555,-0.69848,0.000849141,0.0104065,1903,1331,50.8521,-16.8187
686,-307,50.8207,15.985,0.000605063,0.00022824,-0.000407891,0.000865956,-3.26521e-05,-0.569039,0.00058849,0.0103941,1910,1331,50.8206,-15.985
693,-307,50.7554,15.1521,0.00102293,7.16874e-05,-0.000232477,0.0010767,1.79118e-05,-0.227318,0.000711908,0.0132505,1917,1331,50.7554,-15.1521
700,-307,50.708,14.3018,0.00106767,-7.52416e-05,0.000117707,0.00107966,-8.72381e-05,0.101569,0.000750546,0.0151003,1924,1331,50.708,-14.3018
707,-307,50.6846,13.4773,0.000773364,-0.000376376,0.000749221,0.00114285,-0.000745862,0.45816,0.00109845,0.0165952,1931,1331,50.6846,-13.4773
714,-307,50.6539,12.7266,0.000412833,-0.000758268,0.00147857,0.00141758,-0.00176301,0.59686,0.00183992,0.0143465,1938,1331,50.6539,-12.7266
721,-307,50.6472,11.911,-2.95999e-05,-0.00123685,0.00231612,0.00176026,-0.00302672,0.657924,0.00279582,0.018269,1945,1331,50.6472,-11.911
728,-307,50.6013,11.2552,-0.000530029,-0.00181465,0.00329548,0.00218515,-0.00452983,0.689151,0.00395489,0.0490313,1952,1331,50.6013,-11.2552
735,-307,50.6765,10.2926,0,0,0,0,0,0,0,-1,1959,1331,50.6765,-10.2927
742,-307,26.677,6.09192,0,0,0,0,0,0,0,-1,1966,1331,26.677,-6.0919
749,-307,26.7727,5.9032,0,0,0,0,0,0,0,-1,1973,1331,26.7727,-5.90323
756,-307,27.1556,5.74756,0,0,0,0,0,0,0,-1,1980,1331,27.1557,-5.7475
763,-307,18.7522,3.55298,0,0,0,0,0,0,0,-1,1987,1331,18.7522,-3.55301
770,-307,0,0,0,0,0,0,0,0,0,-1,1994,1331,0,0
777,-307,0,0,0,0,0,0,0,0,0,-1,2001,1331,0,0
784,-307,0,0,0,0,0,0,0,0,0,-1,2008,1331,0,0
791,-307,0,0,0,0,0,0,0,0,0,-1,2015,1331,0,0
798,-307,0,0,0,0,0,0,0,0,0,-1,2022,1331,0,0
805,-307,0,0,0,0,0,0,0,0,0,-1,2029,1331,0,0
812,-307,0,0,0,0,0,0,0,0,0,-1,2036,1331,0,0
-700,-314,0,0,0,0,0,0,0,0,0,-1,524,1338,0,0
-693,-314,0,0,0,0,0,0,0,0,0,-1,531,1338,0,0
-686,-314,0,0,0,0,0,0,0,0,0,-1,538,1338,0,0
-679,-314,0,0,0,0,0,0,0,0,0,-1,545,1338,0,0
-672,-314,0,0,0,0,0,0,0,0,0,-1,552,1338,0,0
-665,-314,0,0,0,0,0,0,0,0,0,-1,559,1338,0,0
-658,-314,0,0,0,0,0,0,0,0,0,-1,566,1338,0,0
-651,-314,0,0,0,0,0,0,0,0,0,-1,573,1338,0,0
-644,-314,-41.2806,1.17566,0,0,0,0,0,0,0,-1,580,1338,-41.2806,-1.17565
-637,-314,-58.369,7.97375,0,0,0,0,0,0,0,-1,587,1338,-58.369,-7.97376
-630,-314,-59.7463,6.72742,0,0,0,0,0,0,0,-1,594,1338,-59.7463,-6.72739
-623,-314,-13.3542,3.00903,0,0,0,0,0,0,0,-1,601,1338,-13.3542,-3.00907
-616,-314,-9.93311,1.15088,0,0,0,0,0,0,0,-1,608,1338,-9.93308,-1.15093
-609,-314,-9.4361,2.86292,0,0,0,0,0,0,0,-1,615,1338,-9.43612,-2.86286
-602,-314,-11.8027,2.42798,0,0,0,0,0,0,0,-1,622,1338,-11.8027,-2.42802
-595,-314,-33.3077,10.6068,0,0,0,0,0,0,0,-1,629,1338,-33.3077,-10.6068
-588,-314,-33.2197,11.5492,0.00462018,0.00401787,0.00273278,0.00706835,0.0015697,0.73052,0.00428591,0.0356936,636,1338,-33.2197,-11.5492
-581,-314,-33.1585,12.447,0.00371462,0.00303162,0.00192909,0.0053322,0.00141404,0.697792,0.0031897,0.013638,643,1338,-33.1585,-12.447
-574,-314,-33.2308,13.2721,0.00313674,0.00213386,0.00136668,0.00409107,0.00117953,0.609571,0.00243151,0.0132228,650,1338,-33.2308,-13.2721
-567,-314,-33.2463,14.1108,0.00293432,0.0013801,0.00104185,0.00345696,0.000857457,0.464963,0.00207863,0.0145993,657,1338,-33.2463,-14.1109
-560,-314,-33.2696,14.9762,0.00309136,0.000720907,0.000928415,0.0034117,0.000400572,0.332244,0.0021534,0.015564,664,1338,-33.2696,-14.9761
-553,-314,-33.3555,15.8254,0.00362201,0.000200576,0.001034,0.00391021,-8.76323e-05,0.271833,0.00263651,0.0186522,671,1338,-33.3555,-15.8254
-546,-314,-33.45,16.6737,0.00453912,-0.000248568,0.00134655,0.00489185,-0.000601301,0.256197,0.00347903,0.0189767,678,1338,-33.45,-16.6737
-539,-314,-33.4372,17.5699,0.0059532,-0.000573663,0.0019249,0.0064786,-0.00109906,0.266457,0.00472819,0.0226177,685,1338,-33.4372,-17.57
-532,-314,-33.3113,18.3979,0,0,0,0,0,0,0,-1,692,1338,-33.3113,-18.3979
-525,-314,-13.3017,7.50671,0,0,0,0,0,0,0,-1,699,1338,-13.3017,-7.50669
-518,-314,-8.52753,4.70032,0,0,0,0,0,0,0,-1,706,1338,-8.52755,-4.70034
-511,-314,-11.8597,0.384888,0,0,0,0,0,0,0,-1,713,1338,-11.8597,-0.384927
-504,-314,-11.4322,-0.187378,0,0,0,0,0,0,0,-1,720,1338,-11.4322,0.187381
-497,-314,-11.0047,-0.759644,0,0,0,0,0,0,0,-1,727,1338,-11.0047,0.759689
-490,-314,-18.5143,0.471069,0,0,0,0,0,0,0,-1,734,1338,-18.5143,-0.47103
-483,-314,-17.8528,0.577271,0,0,0,0,0,0,0,-1,741,1338,-17.8528,-0.577327
-476,-314,-17.714,0.665405,0,0,0,0,0,0,0,-1,748,1338,-17.714,-0.665388
-469,-314,-17.7246,0.794678,0,0,0,0,0,0,0,-1,755,1338,-17.7246,-0.794645
-462,-314,0,0,0,0,0,0,0,0,0,-1,762,1338,0,0
-455,-314,0,0,0,0,0,0,0,0,0,-1,769,1338,0,0
-448,-314,0,0,0,0,0,0,0,0,0,-1,776,1338,0,0
-441,-314,0,0,0,0,0,0,0,0,0,-1,783,1338,0,0
-434,-314,0,0,0,0,0,0,0,0,0,-1,790,1338,0,0
-427,-314,0,0,0,0,0,0,0,0,0,-1,797,1338,0,0
-420,-314,0,0,0,0,0,0,0,0,0,-1,804,1338,0,0
-413,-314,0,0,0,0,0,0,0,0,0,-1,811,1338,0,0
-406,-314,0,0,0,0,0,0,0,0,0,-1,818,1338,0,0
-399,-314,0,0,0,0,0,0,0,0,0,-1,825,1338,0,0
-392,-314,0,0,0,0,0,0,0,0,0,-1,832,1338,0,0
-385,-314,0,0,0,0,0,0,0,0,0,-1,839,1338,0,0
-378,-314,0,0,0,0,0,0,0,0,0,-1,846,1338,0,0
-371,-314,0,0,0,0,0,0,0,0,0,-1,853,1338,0,0
-364,-314,0,0,0,0,0,0,0,0,0,-1,860,1338,0,0
-357,-314,0,0,0,0,0,0,0,0,0,-1,867,1338,0,0
-350,-314,0,0,0,0,0,0,0,0,0,-1,874,1338,0,0
-343,-314,0,0,0,0,0,0,0,0,0,-1,881,1338,0,0
-336,-314,0,0,0,0,0,0,0,0,0,-1,888,1338,0,0
-329,-314,0,0,0,0,0,0,0,0,0,-1,895,1338,0,0
-322,-314,0,0,0,0,0,0,0,0,0,-1,902,1338,0,0
-315,-314,0,0,0,0,0,0,0,0,0,-1,909,1338,0,0
-308,-314,0,0,0,0,0,0,0,0,0,-1,916,1338,0,0
-301,-314,0,0,0,0,0,0,0,0,0,-1,923,1338,0,0
-294,-314,0,0,0,0,0,0,0,0,0,-1,930,1338,0,0
-287,-314,0,0,0,0,0,0,0,0,0,-1,937,1338,0,0
-280,-314,0,0,0,0,0,0,0,0,0,-1,944,1338,0,0
-273,-314,0,0,0,0,0,0,0,0,0,-1,951,1338,0,0
-266,-314,0,0,0,0,0,0,0,0,0,-1,958,1338,0,0
-259,-314,0,0,0,0,0,0,0,0,0,-1,965,1338,0,0
-252,-314,0,0,0,0,0,0,0,0,0,-1,972,1338,0,0
-245,-314,0,0,0,0,0,0,0,0,0,-1,979,1338,0,0
-238,-314,0,0,0,0,0,0,0,0,0,-1,986,1338,0,0
-231,-314,0,0,0,0,0,0,0,0,0,-1,993,1338,0,0
-224,-314,0,0,0,0,0,0,0,0,0,-1,1000,1338,0,0
-217,-314,0,0,0,0,0,0,0,0,0,-1,1007,1338,0,0
-210,-314,0,0,0,0,0,0,0,0,0,-1,1014,1338,0,0
-203,-314,0,0,0,0,0,0,0,0,0,-1,1021,1338,0,0
-196,-314,0,0,0,0,0,0,0,0,0,-1,1028,1338,0,0
-189,-314,0,0,0,0,0,0,0,0,0,-1,1035,1338,0,0
-182,-314,0,0,0,0,0,0,0,0,0,-1,1042,1338,0,0
-175,-314,0,0,0,0,0,0,0,0,0,-1,1049,1338,0,0
-168,-314,0,0,0,0,0,0,0,0,0,-1,1056,1338,0,0
-161,-314,0,0,0,0,0,0,0,0,0,-1,1063,1338,0,0
-154,-314,0,0,0,0,0,0,0,0,0,-1,1070,1338,0,0
-147,-314,0,0,0,0,0,0,0,0,0,-1,1077,1338,0,0
-140,-314,0,0,0,0,0,0,0,0,0,-1,1084,1338,0,0
-133,-314,0,0,0,0,0,0,0,0,0,-1,1091,1338,0,0
-126,-314,0,0,0,0,0,0,0,0,0,-1,1098,1338,0,0
-119,-314,0,0,0,0,0,0,0,0,0,-1,1105,1338,0,0
-112,-314,0,0,0,0,0,0,0,0,0,-1,1112,1338,0,0
-105,-314,0,0,0,0,0,0,0,0,0,-1,1119,1338,0,0
-98,-314,0,0,0,0,0,0,0,0,0,-1,1126,1338,0,0
-91,-314,0,0,0,0,0,0,0,0,0,-1,1133,1338,0,0
-84,-314,0,0,0,0,0,0,0,0,0,-1,1140,1338,0,0
-77,-314,0,0,0,0,0,0,0,0,0,-1,1147,1338,0,0
-70,-314,0,0,0,0,0,0,0,0,0,-1,1154,1338,0,0
-63,-314,0,0,0,0,0,0,0,0,0,-1,1161,1338,0,0
-56,-314,0,0,0,0,0,0,0,0,0,-1,1168,1338,0,0
-49,-314,0,0,0,0,0,0,0,0,0,-1,1175,1338,0,0
-42,-314,0,0,0,0,0,0,0,0,0,-1,1182,1338,0,0
-35,-314,0,0,0,0,0,0,0,0,0,-1,1189,1338,0,0
-28,-314,0,0,0,0,0,0,0,0,0,-1,1196,1338,0,0
-21,-314,0,0,0,0,0,0,0,0,0,-1,1203,1338,0,0
-14,-314,0,0,0,0,0,0,0,0,0,-1,1210,1338,0,0
-7,-314,0,0,0,0,0,0,0,0,0,-1,1217,1338,0,0
0,-314,0,0,0,0,0,0,0,0,0,-1,1224,1338,0,0
7,-314,0,0,0,0,0,0,0,0,0,-1,1231,1338,0,0
14,-314,0,0,0,0,0,0,0,0,0,-1,1238,1338,0,0
21,-314,0,0,0,0,0,0,0,0,0,-1,1245,1338,0,0
28,-314,0,0,0,0,0,0,0,0,0,-1,1252,1338,0,0
35,-314,0,0,0,0,0,0,0,0,0,-1,1259,1338,0,0
42,-314,0,0,0,0,0,0,0,0,0,-1,1266,1338,0,0
49,-314,0,0,0,0,0,0,0,0,0,-1,1273,1338,0,0
56,-314,0,0,0,0,0,0,0,0,0,-1,1280,1338,0,0
63,-314,0,0,0,0,0,0,0,0,0,-1,1287,1338,0,0
70,-314,0,0,0,0,0,0,0,0,0,-1,1294,1338,0,0
77,-314,0,0,0,0,0,0,0,0,0,-1,1301,1338,0,0
84,-314,0,0,0,0,0,0,0,0,0,-1,1308,1338,0,0
91,-314,0,0,0,0,0,0,0,0,0,-1,1315,1338,0,0
98,-314,0,0,0,0,0,0,0,0,0,-1,1322,1338,0,0
105,-314,0,0,0,0,0,0,0,0,0,-1,1329,1338,0,0
112,-314,0,0,0,0,0,0,0,0,0,-1,1336,1338,0,0
119,-314,0,0,0,0,0,0,0,0,0,-1,1343,1338,0,0
126,-314,0,0,0,0,0,0,0,0,0,-1,1350,1338,0,0
133,-314,0,0,0,0,0,0,0,0,0,-1,1357,1338,0,0
140,-314,0,0,0,0,0,0,0,0,0,-1,1364,1338,0,0
147,-314,0,0,0,0,0,0,0,0,0,-1,1371,1338,0,0
154,-314,0,0,0,0,0,0,0,0,0,-1,1378,1338,0,0
161,-314,0,0,0,0,0,0,0,0,0,-1,1385,1338,0,0
168,-314,0,0,0,0,0,0,0,0,0,-1,1392,1338,0,0
175,-314,0,0,0,0,0,0,0,0,0,-1,1399,1338,0,0
182,-314,0,0,0,0,0,0,0,0,0,-1,1406,1338,0,0
189,-314,0,0,0,0,0,0,0,0,0,-1,1413,1338,0,0
196,-314,0,0,0,0,0,0,0,0,0,-1,1420,1338,0,0
203,-314,0,0,0,0,0,0,0,0,0,-1,1427,1338,0,0
210,-314,0,0,0,0,0,0,0,0,0,-1,1434,1338,0,0
217,-314,0,0,0,0,0,0,0,0,0,-1,1441,1338,0,0
224,-314,0,0,0,0,0,0,0,0,0,-1,1448,1338,0,0
231,-314,0,0,0,0,0,0,0,0,0,-1,1455,1338,0,0
238,-314,0,0,0,0,0,0,0,0,0,-1,1462,1338,0,0
245,-314,0,0,0,0,0,0,0,0,0,-1,1469,1338,0,0
252,-314,0,0,0,0,0,0,0,0,0,-1,1476,1338,0,0
259,-314,0,0,0,0,0,0,0,0,0,-1,1483,1338,0,0
266,-314,0,0,0,0,0,0,0,0,0,-1,1490,1338,0,0
273,-314,0,0,0,0,0,0,0,0,0,-1,1497,1338,0,0
280,-314,0,0,0,0,0,0,0,0,0,-1,1504,1338,0,0
287,-314,0,0,0,0,0,0,0,0,0,-1,1511,1338,0,0
294,-314,0,0,0,0,0,0,0,0,0,-1,1518,1338,0,0
301,-314,0,0,0,0,0,0,0,0,0,-1,1525,1338,0,0
308,-314,0,0,0,0,0,0,0,0,0,-1,1532,1338,0,0
315,-314,0,0,0,0,0,0,0,0,0,-1,1539,1338,0,0
322,-314,0,0,0,0,0,0,0,0,0,-1,1546,1338,0,0
329,-314,0,0,0,0,0,0,0,0,0,-1,1553,1338,0,0
336,-314,0,0,0,0,0,0,0,0,0,-1,1560,1338,0,0
343,-314,0,0,0,0,0,0,0,0,0,-1,1567,1338,0,0
350,-314,0,0,0,0,0,0,0,0,0,-1,1574,1338,0,0
357,-314,0,0,0,0,0,0,0,0,0,-1,1581,1338,0,0
364,-314,0,0,0,0,0,0,0,0,0,-1,1588,1338,0,0
371,-314,0,0,0,0,0,0,0,0,0,-1,1595,1338,0,0
378,-314,0,0,0,0,0,0,0,0,0,-1,1602,1338,0,0
385,-314,0,0,0,0,0,0,0,0,0,-1,1609,1338,0,0
392,-314,0,0,0,0,0,0,0,0,0,-1,1616,1338,0,0
399,-314,0,0,0,0,0,0,0,0,0,-1,1623,1338,0,0
406,-314,0,0,0,0,0,0,0,0,0,-1,1630,1338,0,0
413,-314,0,0,0,0,0,0,0,0,0,-1,1637,1338,0,0
420,-314,0,0,0,0,0,0,0,0,0,-1,1644,1338,0,0
427,-314,0,0,0,0,0,0,0,0,0,-1,1651,1338,0,0
434,-314,0,0,0,0,0,0,0,0,0,-1,1658,1338,0,0
441,-314,0,0,0,0,0,0,0,0,0,-1,1665,1338,0,0
448,-314,0,0,0,0,0,0,0,0,0,-1,1672,1338,0,0
455,-314,0,0,0,0,0,0,0,0,0,-1,1679,1338,0,0
462,-314,0,0,0,0,0,0,0,0,0,-1,1686,1338,0,0
469,-314,0,0,0,0,0,0,0,0,0,-1,1693,1338,0,0
476,-314,0,0,0,0,0,0,0,0,0,-1,1700,1338,0,0
483,-314,0,0,0,0,0,0,0,0,0,-1,1707,1338,0,0
490,-314,0,0,0,0,0,0,0,0,0,-1,1714,1338,0,0
497,-314,0,0,0,0,0,0,0,0,0,-1,1721,1338,0,0
504,-314,0,0,0,0,0,0,0,0,0,-1,1728,1338,0,0
511,-314,0,0,0,0,0,0,0,0,0,-1,1735,1338,0,0
518,-314,0,0,0,0,0,0,0,0,0,-1,1742,1338,0,0
525,-314,0,0,0,0,0,0,0,0,0,-1,1749,1338,0,0
532,-314,0,0,0,0,0,0,0,0,0,-1,1756,1338,0,0
539,-314,0,0,0,0,0,0,0,0,0,-1,1763,1338,0,0
546,-314,0,0,0,0,0,0,0,0,0,-1,1770,1338,0,0
553,-314,0,0,0,0,0,0,0,0,0,-1,1777,1338,0,0
560,-314,0,0,0,0,0,0,0,0,0,-1,1784,1338,0,0
567,-314,0,0,0,0,0,0,0,0,0,-1,1791,1338,0,0
574,-314,0,0,0,0,0,0,0,0,0,-1,1798,1338,0,0
581,-314,66.1637,1.86658,0,0,0,0,0,0,0,-1,1805,1338,66.1637,-1.86663
588,-314,66.4303,1.43481,0,0,0,0,0,0,0,-1,1812,1338,66.4303,-1.43487
595,-314,66.7465,0.982788,0,0,0,0,0,0,0,-1,1819,1338,66.7464,-0.982795
602,-314,66.322,1.38416,0,0,0,0,0,0,0,-1,1826,1338,66.322,-1.3842
609,-314,60.2225,1.27014,0,0,0,0,0,0,0,-1,1833,1338,60.2225,-1.27017
616,-314,48.1149,3.005,0,0,0,0,0,0,0,-1,1840,1338,48.1149,-3.00505
623,-314,38.7728,2.71741,0,0,0,0,0,0,0,-1,1847,1338,38.7728,-2.71737
630,-314,29.4308,6.23206,0,0,0,0,0,0,0,-1,1854,1338,29.4308,-6.23202
637,-314,22.1349,5.16418,0,0,0,0,0,0,0,-1,1861,1338,22.1349,-5.16414
644,-314,18.7517,6.2605,0,0,0,0,0,0,0,-1,1868,1338,18.7517,-6.26053
651,-314,23.1317,8.005,0,0,0,0,0,0,0,-1,1875,1338,23.1317,-8.00506
658,-314,49.9191,18.822,0,0,0,0,0,0,0,-1,1882,1338,49.9191,-18.8221
665,-314,50.1074,18.5343,0,0,0,0,0,0,0,-1,1889,1338,50.1074,-18.5344
672,-314,50.0583,17.6965,0.00361898,0.00246553,-0.0021862,0.00530325,0.000781265,-0.656435,0.00330599,0.0143063,1896,1338,50.0584,-17.6966
679,-314,50.037,16.8516,0.00199196,0.000462378,-0.00122896,0.00267467,-0.000220331,-0.507068,0.00186091,0.0107466,1903,1338,50.037,-16.8516
686,-314,49.9821,16.024,0.00152334,0.000297565,-0.000769956,0.00189456,-7.3654e-05,-0.449249,0.00128829,0.0138474,1910,1338,49.9821,-16.024
693,-314,49.9113,15.201,0.00141207,0.000108942,-0.000373173,0.00151137,9.64466e-06,-0.260064,0.00100438,0.0146647,1917,1338,49.9112,-15.201
700,-314,49.8789,14.3549,0.0013,-9.58316e-05,7.62773e-05,0.00130415,-9.99876e-05,0.0544305,0.000904609,0.016602,1924,1338,49.8789,-14.3548
707,-314,49.871,13.5439,0.00110844,-0.000372646,0.000628406,0.00133913,-0.000603339,0.351833,0.00114799,0.015475,1931,1338,49.871,-13.5439
714,-314,49.8136,12.7655,0.00082482,-0.00074935,0.00130961,0.00156567,-0.0014902,0.514818,0.00176448,0.0122661,1938,1338,49.8136,-12.7655
721,-314,49.7672,12.0007,0.000409124,-0.0012798,0.00216214,0.00188586,-0.00275654,0.599224,0.00269596,0.0261881,1945,1338,49.7672,-12.0007
728,-314,49.8274,11.2119,0,0,0,0,0,0,0,-1,1952,1338,49.8274,-11.212
735,-314,26.3665,6.21582,0,0,0,0,0,0,0,-1,1959,1338,26.3664,-6.21581
742,-314,26.2235,6.0166,0,0,0,0,0,0,0,-1,1966,1338,26.2235,-6.01662
749,-314,26.2223,5.47046,0,0,0,0,0,0,0,-1,1973,1338,26.2223,-5.47041
756,-314,24.2521,5.93408,0,0,0,0,0,0,0,-1,1980,1338,24.252,-5.93413
763,-314,19.2207,4.07239,0,0,0,0,0,0,0,-1,1987,1338,19.2206,-4.07239
770,-314,0,0,0,0,0,0,0,0,0,-1,1994,1338,0,0
777,-314,0,0,0,0,0,0,0,0,0,-1,2001,1338,0,0
784,-314,0,0,0,0,0,0,0,0,0,-1,2008,1338,0,0
791,-314,0,0,0,0,0,0,0,0,0,-1,2015,1338,0,0
798,-314,0,0,0,0,0,0,0,0,0,-1,2022,1338,0,0
805,-314,0,0,0,0,0,0,0,0,0,-1,2029,1338,0,0
812,-314,0,0,0,0,0,0,0,0,0,-1,2036,1338,0,0
-700,-321,0,0,0,0,0,0,0,0,0,-1,524,1345,0,0
-693,-321,0,0,0,0,0,0,0,0,0,-1,531,1345,0,0
-686,-321,0,0,0,0,0,0,0,0,0,-1,538,1345,0,0
-679,-321,0,0,0,0,0,0,0,0,0,-1,545,1345,0,0
-672,-321,0,0,0,0,0,0,0,0,0,-1,552,1345,0,0
-665,-321,0,0,0,0,0,0,0,0,0,-1,559,1345,0,0
-658,-321,0,0,0,0,0,0,0,0,0,-1,566,1345,0,0
-651,-321,0,0,0,0,0,0,0,0,0,-1,573,1345,0,0
-644,-321,-58.7329,10.2313,0,0,0,0,0,0,0,-1,580,1345,-58.7329,-10.2313
-637,-321,-59.9981,9.06421,0,0,0,0,0,0,0,-1,587,1345,-59.9981,-9.06417
-630,-321,-61.377,8.07166,0,0,0,0,0,0,0,-1,594,1345,-61.3769,-8.07168
-623,-321,-13.2242,3.14148,0,0,0,0,0,0,0,-1,601,1345,-13.2243,-3.14146
-616,-321,-11.6754,3.13794,0,0,0,0,0,0,0,-1,608,1345,-11.6754,-3.13789
-609,-321,-7.95209,1.14758,0,0,0,0,0,0,0,-1,615,1345,-7.95208,-1.14757
-602,-321,-8.85791,2.50049,0,0,0,0,0,0,0,-1,622,1345,-8.85791,-2.50048
-595,-321,-19.8463,5.36584,0,0,0,0,0,0,0,-1,629,1345,-19.8462,-5.36589
-588,-321,-32.4578,11.5411,0,0,0,0,0,0,0,-1,636,1345,-32.4578,-11.5411
-581,-321,-32.3542,12.4941,0.00425187,0.00364694,0.00222017,0.00619009,0.00170873,0.717698,0.00369142,0.0145312,643,1345,-32.3542,-12.4941
-574,-321,-32.41,13.3392,0.00359691,0.00270578,0.00168422,0.00489351,0.00140918,0.656084,0.00290871,0.0154998,650,1345,-32.41,-13.3392
-567,-321,-32.427,14.2174,0.00334536,0.00191449,0.0013797,0.00418409,0.00107577,0.546212,0.0025089,0.0225426,657,1345,-32.427,-14.2174
-560,-321,-32.4175,15.0865,0.00345431,0.00123989,0.0012914,0.00404817,0.000646038,0.431019,0.00251129,0.0267549,664,1345,-32.4175,-15.0865
-553,-321,-32.5381,15.8401,0.00390422,0.000673919,0.0013941,0.00442266,0.000155477,0.356036,0.00289801,0.0276273,671,1345,-32.5381,-15.8401
-546,-321,-32.6119,16.6989,0.00470631,0.000188843,0.00166978,0.0052565,-0.000361347,0.318295,0.00363078,0.0265533,678,1345,-32.6119,-16.6989
-539,-321,-32.6393,17.5724,0.00591174,-0.00017439,0.00215927,0.00659999,-0.000862639,0.308561,0.00471392,0.0247557,685,1345,-32.6394,-17.5723
-532,-321,-32.6061,18.4175,0.00766677,-0.000404048,0.00288648,0.00859285,-0.00133012,0.310457,0.00621953,0.0364993,692,1345,-32.6061,-18.4175
-525,-321,-32.5977,19.2572,0,0,0,0,0,0,0,-1,699,1345,-32.5977,-19.2572
-518,-321,-10.3564,6.75696,0,0,0,0,0,0,0,-1,706,1345,-10.3564,-6.75694
-511,-321,-9.3302,5.29297,0,0,0,0,0,0,0,-1,713,1345,-9.33023,-5.29294
-504,-321,-10.4713,0.0145264,0,0,0,0,0,0,0,-1,720,1345,-10.4713,-0.0145296
-497,-321,-9.96771,0.313599,0,0,0,0,0,0,0,-1,727,1345,-9.96769,-0.313618
-490,-321,-10.7631,0.973511,0,0,0,0,0,0,0,-1,734,1345,-10.7631,-0.97353
-483,-321,-17.5908,0.2323,0,0,0,0,0,0,0,-1,741,1345,-17.5908,-0.232355
-476,-321,-17.2915,0.297363,0,0,0,0,0,0,0,-1,748,1345,-17.2915,-0.297342
-469,-321,-17.2441,0.478027,0,0,0,0,0,0,0,-1,755,1345,-17.2441,-0.477994
-462,-321,-17.1672,0.526489,0,0,0,0,0,0,0,-1,762,1345,-17.1672,-0.526533
-455,-321,0,0,0,0,0,0,0,0,0,-1,769,1345,0,0
-448,-321,0,0,0,0,0,0,0,0,0,-1,776,1345,0,0
-441,-321,0,0,0,0,0,0,0,0,0,-1,783,1345,0,0
-434,-321,0,0,0,0,0,0,0,0,0,-1,790,1345,0,0
-427,-321,0,0,0,0,0,0,0,0,0,-1,797,1345,0,0
-420,-321,0,0,0,0,0,0,0,0,0,-1,804,1345,0,0
-413,-321,0,0,0,0,0,0,0,0,0,-1,811,1345,0,0
-406,-321,0,0,0,0,0,0,0,0,0,-1,818,1345,0,0
-399,-321,0,0,0,0,0,0,0,0,0,-1,825,1345,0,0
-392,-321,0,0,0,0,0,0,0,0,0,-1,832,1345,0,0
-385,-321,0,0,0,0,0,0,0,0,0,-1,839,1345,0,0
-378,-321,0,0,0,0,0,0,0,0,0,-1,846,1345,0,0
-371,-321,0,0,0,0,0,0,0,0,0,-1,853,1345,0,0
-364,-321,0,0,0,0,0,0,0,0,0,-1,860,1345,0,0
-357,-321,0,0,0,0,0,0,0,0,0,-1,867,1345,0,0
-350,-321,0,0,0,0,0,0,0,0,0,-1,874,1345,0,0
-343,-321,0,0,0,0,0,0,0,0,0,-1,881,1345,0,0
-336,-321,0,0,0,0,0,0,0,0,0,-1,888,1345,0,0
-329,-321,0,0,0,0,0,0,0,0,0,-1,895,1345,0,0
-322,-321,0,0,0,0,0,0,0,0,0,-1,902,1345,0,0
-315,-321,0,0,0,0,0,0,0,0,0,-1,909,1345,0,0
-308,-321,0,0,0,0,0,0,0,0,0,-1,916,1345,0,0
-301,-321,0,0,0,0,0,0,0,0,0,-1,923,1345,0,0
-294,-321,0,0,0,0,0,0,0,0,0,-1,930,1345,0,0
-287,-321,0,0,0,0,0,0,0,0,0,-1,937,1345,0,0
-280,-321,0,0,0,0,0,0,0,0,0,-1,944,1345,0,0
-273,-321,0,0,0,0,0,0,0,0,0,-1,951,1345,0,0
-266,-321,0,0,0,0,0,0,0,0,0,-1,958,1345,0,0
-259,-321,0,0,0,0,0,0,0,0,0,-1,965,1345,0,0
-252,-321,0,0,0,0,0,0,0,0,0,-1,972,1345,0,0
-245,-321,0,0,0,0,0,0,0,0,0,-1,979,1345,0,0
-238,-321,0,0,0,0,0,0,0,0,0,-1,986,1345,0,0
-231,-321,0,0,0,0,0,0,0,0,0,-1,993,1345,0,0
-224,-321,0,0,0,0,0,0,0,0,0,-1,1000,1345,0,0
-217,-321,0,0,0,0,0,0,0,0,0,-1,1007,1345,0,0
-210,-321,0,0,0,0,0,0,0,0,0,-1,1014,1345,0,0
-203,-321,0,0,0,0,0,0,0,0,0,-1,1021,1345,0,0
-196,-321,0,0,0,0,0,0,0,0,0,-1,1028,1345,0,0
-189,-321,0,0,0,0,0,0,0,0,0,-1,1035,1345,0,0
-182,-321,0,0,0,0,0,0,0,0,0,-1,1042,1345,0,0
-175,-321,0,0,0,0,0,0,0,0,0,-1,1049,1345,0,0
-168,-321,0,0,0,0,0,0,0,0,0,-1,1056,1345,0,0
-161,-321,0,0,0,0,0,0,0,0,0,-1,1063,1345,0,0
-154,-321,0,0,0,0,0,0,0,0,0,-1,1070,1345,0,0
-147,-321,0,0,0,0,0,0,0,0,0,-1,1077,1345,0,0
-140,-321,0,0,0,0,0,0,0,0,0,-1,1084,1345,0,0
-133,-321,0,0,0,0,0,0,0,0,0,-1,1091,1345,0,0
-126,-321,0,0,0,0,0,0,0,0,0,-1,1098,1345,0,0
-119,-321,0,0,0,0,0,0,0,0,0,-1,1105,1345,0,0
-112,-321,0,0,0,0,0,0,0,0,0,-1,1112,1345,0,0
-105,-321,0,0,0,0,0,0,0,0,0,-1,1119,1345,0,0
-98,-321,0,0,0,0,0,0,0,0,0,-1,1126,1345,0,0
-91,-321,0,0,0,0,0,0,0,0,0,-1,1133,1345,0,0
-84,-321,0,0,0,0,0,0,0,0,0,-1,1140,1345,0,0
-77,-321,0,0,0,0,0,0,0,0,0,-1,1147,1345,0,0
-70,-321,0,0,0,0,0,0,0,0,0,-1,1154,1345,0,0
-63,-321,0,0,0,0,0,0,0,0,0,-1,1161,1345,0,0
-56,-321,0,0,0,0,0,0,0,0,0,-1,1168,1345,0,0
-49,-321,0,0,0,0,0,0,0,0,0,-1,1175,1345,0,0
-42,-321,0,0,0,0,0,0,0,0,0,-1,1182,1345,0,0
-35,-321,0,0,0,0,0,0,0,0,0,-1,1189,1345,0,0
-28,-321,0,0,0,0,0,0,0,0,0,-1,1196,1345,0,0
-21,-321,0,0,0,0,0,0,0,0,0,-1,1203,1345,0,0
-14,-321,0,0,0,0,0,0,0,0,0,-1,1210,1345,0,0
-7,-321,0,0,0,0,0,0,0,0,0,-1,1217,1345,0,0
0,-321,0,0,0,0,0,0,0,0,0,-1,1224,1345,0,0
7,-321,0,0,0,0,0,0,0,0,0,-1,1231,1345,0,0
14,-321,0,0,0,0,0,0,0,0,0,-1,1238,1345,0,0
21,-321,0,0,0,0,0,0,0,0,0,-1,1245,1345,0,0
28,-321,0,0,0,0,0,0,0,0,0,-1,1252,1345,0,0
35,-321,0,0,0,0,0,0,0,0,0,-1,1259,1345,0,0
42,-321,0,0,0,0,0,0,0,0,0,-1,1266,1345,0,0
49,-321,0,0,0,0,0,0,0,0,0,-1,1273,1345,0,0
56,-321,0,0,0,0,0,0,0,0,0,-1,1280,1345,0,0
63,-321,0,0,0,0,0,0,0,0,0,-1,1287,1345,0,0
70,-321,0,0,0,0,0,0,0,0,0,-1,1294,1345,0,0
77,-321,0,0,0,0,0,0,0,0,0,-1,1301,1345,0,0
84,-321,0,0,0,0,0,0,0,0,0,-1,1308,1345,0,0
91,-321,0,0,0,0,0,0,0,0,0,-1,1315,1345,0,0
98,-321,0,0,0,0,0,0,0,0,0,-1,1322,1345,0,0
105,-321,0,0,0,0,0,0,0,0,0,-1,1329,1345,0,0
112,-321,0,0,0,0,0,0,0,0,0,-1,1336,1345,0,0
119,-321,0,0,0,0,0,0,0,0,0,-1,1343,1345,0,0
126,-321,0,0,0,0,0,0,0,0,0,-1,1350,1345,0,0
133,-321,0,0,0,0,0,0,0,0,0,-1,1357,1345,0,0
140,-321,0,0,0,0,0,0,0,0,0,-1,1364,1345,0,0
147,-321,0,0,0,0,0,0,0,0,0,-1,1371,1345,0,0
154,-321,0,0,0,0,0,0,0,0,0,-1,1378,1345,0,0
161,-321,0,0,0,0,0,0,0,0,0,-1,1385,1345,0,0
168,-321,0,0,0,0,0,0,0,0,0,-1,1392,1345,0,0
175,-321,0,0,0,0,0,0,0,0,0,-1,1399,1345,0,0
182,-321,0,0,0,0,0,0,0,0,0,-1,1406,1345,0,0
189,-321,0,0,0,0,0,0,0,0,0,-1,1413,1345,0,0
196,-321,0,0,0,0,0,0,0,0,0,-1,1420,1345,0,0
203,-321,0,0,0,0,0,0,0,0,0,-1,1427,1345,0,0
210,-321,0,0,0,0,0,0,0,0,0,-1,1434,1345,0,0
217,-321,0,0,0,0,0,0,0,0,0,-1,1441,1345,0,0
224,-321,0,0,0,0,0,0,0,0,0,-1,1448,1345,0,0
231,-321,0,0,0,0,0,0,0,0,0,-1,1455,1345,0,0
238,-321,0,0,0,0,0,0,0,0,0,-1,1462,1345,0,0
245,-321,0,0,0,0,0,0,0,0,0,-1,1469,1345,0,0
252,-321,0,0,0,0,0,0,0,0,0,-1,1476,1345,0,0
259,-321,0,0,0,0,0,0,0,0,0,-1,1483,1345,0,0
266,-321,0,0,0,0,0,0,0,0,0,-1,1490,1345,0,0
273,-321,0,0,0,0,0,0,0,0,0,-1,1497,1345,0,0
280,-321,0,0,0,0,0,0,0,0,0,-1,1504,1345,0,0
287,-321,0,0,0,0,0,0,0,0,0,-1,1511,1345,0,0
294,-321,0,0,0,0,0,0,0,0,0,-1,1518,1345,0,0
301,-321,0,0,0,0,0,0,0,0,0,-1,1525,1345,0,0
308,-321,0,0,0,0,0,0,0,0,0,-1,1532,1345,0,0
315,-321,0,0,0,0,0,0,0,0,0,-1,1539,1345,0,0
322,-321,0,0,0,0,0,0,0,0,0,-1,1546,1345,0,0
329,-321,0,0,0,0,0,0,0,0,0,-1,1553,1345,0,0
336,-321,0,0,0,0,0,0,0,0,0,-1,1560,1345,0,0
343,-321,0,0,0,0,0,0,0,0,0,-1,1567,1345,0,0
350,-321,0,0,0,0,0,0,0,0,0,-1,1574,1345,0,0
357,-321,0,0,0,0,0,0,0,0,0,-1,1581,1345,0,0
364,-321,0,0,0,0,0,0,0,0,0,-1,1588,1345,0,0
371,-321,0,0,0,0,0,0,0,0,0,-1,1595,1345,0,0
378,-321,0,0,0,0,0,0,0,0,0,-1,1602,1345,0,0
385,-321,0,0,0,0,0,0,0,0,0,-1,1609,1345,0,0
392,-321,0,0,0,0,0,0,0,0,0,-1,1616,1345,0,0
399,-321,0,0,0,0,0,0,0,0,0,-1,1623,1345,0,0
406,-321,0,0,0,0,0,0,0,0,0,-1,1630,1345,0,0
413,-321,0,0,0,0,0,0,0,0,0,-1,1637,1345,0,0
420,-321,0,0,0,0,0,0,0,0,0,-1,1644,1345,0,0
427,-321,0,0,0,0,0,0,0,0,0,-1,1651,1345,0,0
434,-321,0,0,0,0,0,0,0,0,0,-1,1658,1345,0,0
441,-321,0,0,0,0,0,0,0,0,0,-1,1665,1345,0,0
448,-321,0,0,0,0,0,0,0,0,0,-1,1672,1345,0,0
455,-321,0,0,0,0,0,0,0,0,0,-1,1679,1345,0,0
462,-321,0,0,0,0,0,0,0,0,0,-1,1686,1345,0,0
469,-321,0,0,0,0,0,0,0,0,0,-1,1693,1345,0,0
476,-321,0,0,0,0,0,0,0,0,0,-1,1700,1345,0,0
483,-321,0,0,0,0,0,0,0,0,0,-1,1707,1345,0,0
490,-321,0,0,0,0,0,0,0,0,0,-1,1714,1345,0,0
497,-321,0,0,0,0,0,0,0,0,0,-1,1721,1345,0,0
504,-321,0,0,0,0,0,0,0,0,0,-1,1728,1345,0,0
511,-321,0,0,0,0,0,0,0,0,0,-1,1735,1345,0,0
518,-321,0,0,0,0,0,0,0,0,0,-1,1742,1345,0,0
525,-321,0,0,0,0,0,0,0,0,0,-1,1749,1345,0,0
532,-321,0,0,0,0,0,0,0,0,0,-1,1756,1345,0,0
539,-321,0,0,0,0,0,0,0,0,0,-1,1763,1345,0,0
546,-321,0,0,0,0,0,0,0,0,0,-1,1770,1345,0,0
553,-321,0,0,0,0,0,0,0,0,0,-1,1777,1345,0,0
560,-321,0,0,0,0,0,0,0,0,0,-1,1784,1345,0,0
567,-321,0,0,0,0,0,0,0,0,0,-1,1791,1345,0,0
574,-321,0,0,0,0,0,0,0,0,0,-1,1798,1345,0,0
581,-321,66.1073,1.6543,0,0,0,0,0,0,0,-1,1805,1345,66.1073,-1.65427
588,-321,66.6576,0.7948,0,0,0,0,0,0,0,-1,1812,1345,66.6575,-0.794774
595,-321,67.2585,-0.216431,0,0,0,0,0,0,0,-1,1819,1345,67.2586,0.216484
602,-321,60.3523,1.24133,0,0,0,0,0,0,0,-1,1826,1345,60.3523,-1.2413
609,-321,48.311,3.39575,0,0,0,0,0,0,0,-1,1833,1345,48.311,-3.39571
616,-321,37.8107,2.58704,0,0,0,0,0,0,0,-1,1840,1345,37.8106,-2.58705
623,-321,37.6854,3.68933,0,0,0,0,0,0,0,-1,1847,1345,37.6854,-3.68931
630,-321,23.6674,4.34106,0,0,0,0,0,0,0,-1,1854,1345,23.6674,-4.34112
637,-321,21.7925,6.79224,0,0,0,0,0,0,0,-1,1861,1345,21.7925,-6.7922
644,-321,16.8844,6.71973,0,0,0,0,0,0,0,-1,1868,1345,16.8844,-6.71971
651,-321,27.4924,10.0319,0,0,0,0,0,0,0,-1,1875,1345,27.4924,-10.0319
658,-321,49.2667,19.3831,0,0,0,0,0,0,0,-1,1882,1345,49.2667,-19.383
665,-321,49.2817,18.5735,0.00270875,0.00311824,-0.00196401,0.00488815,0.000938843,-0.837335,0.00299527,0.0320706,1889,1345,49.2818,-18.5735
672,-321,49.2501,17.7404,0.00191381,0.00123108,-0.00139781,0.00301133,0.000133561,-0.665635,0.00196455,0.0147585,1896,1345,49.2501,-17.7404
679,-321,49.215,16.8853,0.00147777,0.000332836,-0.000921882,0.00199047,-0.000179862,-0.507547,0.00139082,0.0125673,1903,1345,49.215,-16.8853
686,-321,49.1471,16.083,0.00153071,0.00022861,-0.000704238,0.00183873,-7.9411e-05,-0.412311,0.00125313,0.0138457,1910,1345,49.1471,-16.083
693,-321,49.0847,15.2888,0.001525,0.000103556,-0.000419635,0.00163963,-1.10824e-05,-0.266679,0.0010968,0.0139986,1917,1345,49.0847,-15.2888
700,-321,49.0729,14.4546,0.00149735,-4.99872e-05,-7.42313e-05,0.0015009,-5.35402e-05,-0.0478272,0.00101892,0.0139602,1924,1345,49.0729,-14.4545
707,-321,49.0427,13.6151,0.00136888,-0.000276004,0.000378814,0.00145193,-0.000359051,0.215815,0.00110722,0.0156291,1931,1345,49.0428,-13.6152
714,-321,48.9861,12.7947,0.0011231,-0.000599782,0.000975234,0.00156287,-0.00103956,0.423638,0.0015126,0.0146083,1938,1345,48.9861,-12.7946
721,-321,48.8817,11.9867,0.00068219,-0.00112743,0.001803,0.00179468,-0.00223992,0.55284,0.0023341,0.0410564,1945,1345,48.8817,-11.9868
728,-321,48.8615,11.2496,0,0,0,0,0,0,0,-1,1952,1345,48.8615,-11.2496
735,-321,22.0081,5.65479,0,0,0,0,0,0,0,-1,1959,1345,22.008,-5.65481
742,-321,24.5398,5.05725,0,0,0,0,0,0,0,-1,1966,1345,24.5398,-5.05729
749,-321,24.0675,5.4458,0,0,0,0,0,0,0,-1,1973,1345,24.0675,-5.44581
756,-321,19.6251,4.98315,0,0,0,0,0,0,0,-1,1980,1345,19.6251,-4.98311
763,-321,19.6747,4.61438,0,0,0,0,0,0,0,-1,1987,1345,19.6747,-4.61436
770,-321,0,0,0,0,0,0,0,0,0,-1,1994,1345,0,0
777,-321,0,0,0,0,0,0,0,0,0,-1,2001,1345,0,0
784,-321,0,0,0,0,0,0,0,0,0,-1,2008,1345,0,0
791,-321,0,0,0,0,0,0,0,0,0,-1,2015,1345,0,0
798,-321,0,0,0,0,0,0,0,0,0,-1,2022,1345,0,0
805,-321,0,0,0,0,0,0,0,0,0,-1,2029,1345,0,0
812,-321,0,0,0,0,0,0,0,0,0,-1,2036,1345,0,0
-700,-328,0,0,0,0,0,0,0,0,0,-1,524,1352,0,0
-693,-328,0,0,0,0,0,0,0,0,0,-1,531,1352,0,0
-686,-328,0,0,0,0,0,0,0,0,0,-1,538,1352,0,0
-679,-328,0,0,0,0,0,0,0,0,0,-1,545,1352,0,0
-672,-328,0,0,0,0,0,0,0,0,0,-1,552,1352,0,0
-665,-328,0,0,0,0,0,0,0,0,0,-1,559,1352,0,0
-658,-328,0,0,0,0,0,0,0,0,0,-1,566,1352,0,0
-651,-328,0,0,0,0,0,0,0,0,0,-1,573,1352,0,0
-644,-328,0,0,0,0,0,0,0,0,0,-1,580,1352,0,0
-637,-328,-61.3883,10.1125,0,0,0,0,0,0,0,-1,587,1352,-61.3883,-10.1126
-630,-328,-62.8012,9.14563,0,0,0,0,0,0,0,-1,594,1352,-62.8012,-9.14564
-623,-328,-10.7739,4.55042,0,0,0,0,0,0,0,-1,601,1352,-10.7739,-4.55041
-616,-328,-8.22198,-0.25708,0,0,0,0,0,0,0,-1,608,1352,-8.22201,0.257067
-609,-328,-7.87439,0.192871,0,0,0,0,0,0,0,-1,615,1352,-7.87441,-0.192822
-602,-328,-7.63062,1.31665,0,0,0,0,0,0,0,-1,622,1352,-7.63064,-1.3166
-595,-328,-9.42639,2.93494,0,0,0,0,0,0,0,-1,629,1352,-9.42638,-2.93499
-588,-328,-31.6598,11.4071,0,0,0,0,0,0,0,-1,636,1352,-31.6598,-11.4071
-581,-328,-31.5403,12.4659,0.00493607,0.00445732,0.00265231,0.00735979,0.0020336,0.740394,0.00438863,0.028278,643,1352,-31.5403,-12.4659
-574,-328,-31.5444,13.3866,0.00401541,0.00334711,0.00204569,0.00575406,0.00160847,0.704441,0.00342806,0.0148509,650,1352,-31.5444,-13.3866
-567,-328,-31.5759,14.2511,0.00358774,0.00245799,0.00169168,0.00480637,0.00123937,0.624263,0.00288138,0.020602,657,1352,-31.576,-14.251
-560,-328,-31.6083,15.1024,0.00356584,0.00172623,0.00157461,0.00446962,0.000822456,0.521057,0.00274695,0.0291121,664,1352,-31.6083,-15.1024
-553,-328,-31.6997,15.9143,0.00388129,0.00111606,0.00163843,0.00464252,0.000354829,0.434937,0.00298378,0.0308025,671,1352,-31.6997,-15.9143
-546,-328,-31.739,16.7607,0.00454441,0.000613401,0.00186674,0.00528961,-0.000131803,0.379817,0.00357115,0.0285088,678,1352,-31.739,-16.7608
-539,-328,-31.7794,17.6157,0.00555768,0.000225754,0.00227327,0.0063953,-0.000611869,0.35303,0.00448143,0.0241999,685,1352,-31.7794,-17.6158
-532,-328,-31.7974,18.4854,0.0070137,-4.13272e-05,0.00287135,0.00803459,-0.00106222,0.341606,0.00574331,0.0198095,692,1352,-31.7974,-18.4854
-525,-328,-31.7851,19.4156,0.00892556,-0.000163085,0.00368193,0.01023,-0.00146748,0.340473,0.00735807,0.0343561,699,1352,-31.7851,-19.4157
-518,-328,-31.9095,20.3699,0,0,0,0,0,0,0,-1,706,1352,-31.9095,-20.3699
-511,-328,-9.39868,7.16113,0,0,0,0,0,0,0,-1,713,1352,-9.39869,-7.16113
-504,-328,-8.60626,-0.905762,0,0,0,0,0,0,0,-1,720,1352,-8.60623,0.905787
-497,-328,-9.29102,-0.0517578,0,0,0,0,0,0,0,-1,727,1352,-9.29104,0.0518175
-490,-328,-10.0663,0.882813,0,0,0,0,0,0,0,-1,734,1352,-10.0663,-0.882795
-483,-328,-10.8181,1.72375,0,0,0,0,0,0,0,-1,741,1352,-10.8181,-1.72374
-476,-328,-16.8951,-0.150757,0,0,0,0,0,0,0,-1,748,1352,-16.8951,0.150795
-469,-328,-16.8412,0.00158691,0,0,0,0,0,0,0,-1,755,1352,-16.8412,-0.00161515
-462,-328,-16.3546,-0.203491,0,0,0,0,0,0,0,-1,762,1352,-16.3545,0.203532
-455,-328,0,0,0,0,0,0,0,0,0,-1,769,1352,0,0
-448,-328,0,0,0,0,0,0,0,0,0,-1,776,1352,0,0
-441,-328,0,0,0,0,0,0,0,0,0,-1,783,1352,0,0
-434,-328,0,0,0,0,0,0,0,0,0,-1,790,1352,0,0
-427,-328,0,0,0,0,0,0,0,0,0,-1,797,1352,0,0
-420,-328,0,0,0,0,0,0,0,0,0,-1,804,1352,0,0
-413,-328,0,0,0,0,0,0,0,0,0,-1,811,1352,0,0
-406,-328,0,0,0,0,0,0,0,0,0,-1,818,1352,0,0
-399,-328,0,0,0,0,0,0,0,0,0,-1,825,1352,0,0
-392,-328,0,0,0,0,0,0,0,0,0,-1,832,1352,0,0
-385,-328,0,0,0,0,0,0,0,0,0,-1,839,1352,0,0
-378,-328,0,0,0,0,0,0,0,0,0,-1,846,1352,0,0
-371,-328,0,0,0,0,0,0,0,0,0,-1,853,1352,0,0
-364,-328,0,0,0,0,0,0,0,0,0,-1,860,1352,0,0
-357,-328,0,0,0,0,0,0,0,0,0,-1,867,1352,0,0
-350,-328,0,0,0,0,0,0,0,0,0,-1,874,1352,0,0
-343,-328,0,0,0,0,0,0,0,0,0,-1,881,1352,0,0
-336,-328,0,0,0,0,0,0,0,0,0,-1,888,1352,0,0
-329,-328,0,0,0,0,0,0,0,0,0,-1,895,1352,0,0
-322,-328,0,0,0,0,0,0,0,0,0,-1,902,1352,0,0
-315,-328,0,0,0,0,0,0,0,0,0,-1,909,1352,0,0
-308,-328,0,0,0,0,0,0,0,0,0,-1,916,1352,0,0
-301,-328,0,0,0,0,0,0,0,0,0,-1,923,1352,0,0
-294,-328,0,0,0,0,0,0,0,0,0,-1,930,1352,0,0
-287,-328,0,0,0,0,0,0,0,0,0,-1,937,1352,0,0
-280,-328,0,0,0,0,0,0,0,0,0,-1,944,1352,0,0
-273,-328,0,0,0,0,0,0,0,0,0,-1,951,1352,0,0
-266,-328,0,0,0,0,0,0,0,0,0,-1,958,1352,0,0
-259,-328,0,0,0,0,0,0,0,0,0,-1,965,1352,0,0
-252,-328,0,0,0,0,0,0,0,0,0,-1,972,1352,0,0
-245,-328,0,0,0,0,0,0,0,0,0,-1,979,1352,0,0
-238,-328,0,0,0,0,0,0,0,0,0,-1,986,1352,0,0
-231,-328,0,0,0,0,0,0,0,0,0,-1,993,1352,0,0
-224,-328,0,0,0,0,0,0,0,0,0,-1,1000,1352,0,0
-217,-328,0,0,0,0,0,0,0,0,0,-1,1007,1352,0,0
-210,-328,0,0,0,0,0,0,0,0,0,-1,1014,1352,0,0
-203,-328,0,0,0,0,0,0,0,0,0,-1,1021,1352,0,0
-196,-328,0,0,0,0,0,0,0,0,0,-1,1028,1352,0,0
-189,-328,0,0,0,0,0,0,0,0,0,-1,1035,1352,0,0
-182,-328,0,0,0,0,0,0,0,0,0,-1,1042,1352,0,0
-175,-328,0,0,0,0,0,0,0,0,0,-1,1049,1352,0,0
-168,-328,0,0,0,0,0,0,0,0,0,-1,1056,1352,0,0
-161,-328,0,0,0,0,0,0,0,0,0,-1,1063,1352,0,0
-154,-328,0,0,0,0,0,0,0,0,0,-1,1070,1352,0,0
-147,-328,0,0,0,0,0,0,0,0,0,-1,1077,1352,0,0
-140,-328,0,0,0,0,0,0,0,0,0,-1,1084,1352,0,0
-133,-328,0,0,0,0,0,0,0,0,0,-1,1091,1352,0,0
-126,-328,0,0,0,0,0,0,0,0,0,-1,1098,1352,0,0
-119,-328,0,0,0,0,0,0,0,0,0,-1,1105,1352,0,0
-112,-328,0,0,0,0,0,0,0,0,0,-1,1112,1352,0,0
-105,-328,0,0,0,0,0,0,0,0,0,-1,1119,1352,0,0
-98,-328,0,0,0,0,0,0,0,0,0,-1,1126,1352,0,0
-91,-328,0,0,0,0,0,0,0,0,0,-1,1133,1352,0,0
-84,-328,0,0,0,0,0,0,0,0,0,-1,1140,1352,0,0
-77,-328,0,0,0,0,0,0,0,0,0,-1,1147,1352,0,0
-70,-328,0,0,0,0,0,0,0,0,0,-1,1154,1352,0,0
-63,-328,0,0,0,0,0,0,0,0,0,-1,1161,1352,0,0
-56,-328,0,0,0,0,0,0,0,0,0,-1,1168,1352,0,0
-49,-328,0,0,0,0,0,0,0,0,0,-1,1175,1352,0,0
-42,-328,0,0,0,0,0,0,0,0,0,-1,1182,1352,0,0
-35,-328,0,0,0,0,0,0,0,0,0,-1,1189,1352,0,0
-28,-328,0,0,0,0,0,0,0,0,0,-1,1196,1352,0,0
-21,-328,0,0,0,0,0,0,0,0,0,-1,1203,1352,0,0
-14,-328,0,0,0,0,0,0,0,0,0,-1,1210,1352,0,0
-7,-328,0,0,0,0,0,0,0,0,0,-1,1217,1352,0,0
0,-328,0,0,0,0,0,0,0,0,0,-1,1224,1352,0,0
7,-328,0,0,0,0,0,0,0,0,0,-1,1231,1352,0,0
14,-328,0,0,0,0,0,0,0,0,0,-1,1238,1352,0,0
21,-328,0,0,0,0,0,0,0,0,0,-1,1245,1352,0,0
28,-328,0,0,0,0,0,0,0,0,0,-1,1252,1352,0,0
35,-328,0,0,0,0,0,0,0,0,0,-1,1259,1352,0,0
42,-328,0,0,0,0,0,0,0,0,0,-1,1266,1352,0,0
49,-328,0,0,0,0,0,0,0,0,0,-1,1273,1352,0,0
56,-328,0,0,0,0,0,0,0,0,0,-1,1280,1352,0,0
63,-328,0,0,0,0,0,0,0,0,0,-1,1287,1352,0,0
70,-328,0,0,0,0,0,0,0,0,0,-1,1294,1352,0,0
77,-328,0,0,0,0,0,0,0,0,0,-1,1301,1352,0,0
84,-328,0,0,0,0,0,0,0,0,0,-1,1308,1352,0,0
91,-328,0,0,0,0,0,0,0,0,0,-1,1315,1352,0,0
98,-328,0,0,0,0,0,0,0,0,0,-1,1322,1352,0,0
105,-328,0,0,0,0,0,0,0,0,0,-1,1329,1352,0,0
112,-328,0,0,0,0,0,0,0,0,0,-1,1336,1352,0,0
119,-328,0,0,0,0,0,0,0,0,0,-1,1343,1352,0,0
126,-328,0,0,0,0,0,0,0,0,0,-1,1350,1352,0,0
133,-328,0,0,0,0,0,0,0,0,0,-1,1357,1352,0,0
140,-328,0,0,0,0,0,0,0,0,0,-1,1364,1352,0,0
147,-328,0,0,0,0,0,0,0,0,0,-1,1371,1352,0,0
154,-328,0,0,0,0,0,0,0,0,0,-1,1378,1352,0,0
161,-328,0,0,0,0,0,0,0,0,0,-1,1385,1352,0,0
168,-328,0,0,0,0,0,0,0,0,0,-1,1392,1352,0,0
175,-328,0,0,0,0,0,0,0,0,0,-1,1399,1352,0,0
182,-328,0,0,0,0,0,0,0,0,0,-1,1406,1352,0,0
189,-328,0,0,0,0,0,0,0,0,0,-1,1413,1352,0,0
196,-328,0,0,0,0,0,0,0,0,0,-1,1420,1352,0,0
203,-328,0,0,0,0,0,0,0,0,0,-1,1427,1352,0,0
210,-328,0,0,0,0,0,0,0,0,0,-1,1434,1352,0,0
217,-328,0,0,0,0,0,0,0,0,0,-1,1441,1352,0,0
224,-328,0,0,0,0,0,0,0,0,0,-1,1448,1352,0,0
231,-328,0,0,0,0,0,0,0,0,0,-1,1455,1352,0,0
238,-328,0,0,0,0,0,0,0,0,0,-1,1462,1352,0,0
245,-328,0,0,0,0,0,0,0,0,0,-1,1469,1352,0,0
252,-328,0,0,0,0,0,0,0,0,0,-1,1476,1352,0,0
259,-328,0,0,0,0,0,0,0,0,0,-1,1483,1352,0,0
266,-328,0,0,0,0,0,0,0,0,0,-1,1490,1352,0,0
273,-328,0,0,0,0,0,0,0,0,0,-1,1497,1352,0,0
280,-328,0,0,0,0,0,0,0,0,0,-1,1504,1352,0,0
287,-328,0,0,0,0,0,0,0,0,0,-1,1511,1352,0,0
294,-328,0,0,0,0,0,0,0,0,0,-1,1518,1352,0,0
301,-328,0,0,0,0,0,0,0,0,0,-1,1525,1352,0,0
308,-328,0,0,0,0,0,0,0,0,0,-1,1532,1352,0,0
315,-328,0,0,0,0,0,0,0,0,0,-1,1539,1352,0,0
322,-328,0,0,0,0,0,0,0,0,0,-1,1546,1352,0,0
329,-328,0,0,0,0,0,0,0,0,0,-1,1553,1352,0,0
336,-328,0,0,0,0,0,0,0,0,0,-1,1560,1352,0,0
343,-328,0,0,0,0,0,0,0,0,0,-1,1567,1352,0,0
350,-328,0,0,0,0,0,0,0,0,0,-1,1574,1352,0,0
357,-328,0,0,0,0,0,0,0,0,0,-1,1581,1352,0,0
364,-328,0,0,0,0,0,0,0,0,0,-1,1588,1352,0,0
371,-328,0,0,0,0,0,0,0,0,0,-1,1595,1352,0,0
378,-328,0,0,0,0,0,0,0,0,0,-1,1602,1352,0,0
385,-328,0,0,0,0,0,0,0,0,0,-1,1609,1352,0,0
392,-328,0,0,0,0,0,0,0,0,0,-1,1616,1352,0,0
399,-328,0,0,0,0,0,0,0,0,0,-1,1623,1352,0,0
406,-328,0,0,0,0,0,0,0,0,0,-1,1630,1352,0,0
413,-328,0,0,0,0,0,0,0,0,0,-1,1637,1352,0,0
420,-328,0,0,0,0,0,0,0,0,0,-1,1644,1352,0,0
427,-328,0,0,0,0,0,0,0,0,0,-1,1651,1352,0,0
434,-328,0,0,0,0,0,0,0,0,0,-1,1658,1352,0,0
441,-328,0,0,0,0,0,0,0,0,0,-1,1665,1352,0,0
448,-328,0,0,0,0,0,0,0,0,0,-1,1672,1352,0,0
455,-328,0,0,0,0,0,0,0,0,0,-1,1679,1352,0,0
462,-328,0,0,0,0,0,0,0,0,0,-1,1686,1352,0,0
469,-328,0,0,0,0,0,0,0,0,0,-1,1693,1352,0,0
476,-328,0,0,0,0,0,0,0,0,0,-1,1700,1352,0,0
483,-328,0,0,0,0,0,0,0,0,0,-1,1707,1352,0,0
490,-328,0,0,0,0,0,0,0,0,0,-1,1714,1352,0,0
497,-328,0,0,0,0,0,0,0,0,0,-1,1721,1352,0,0
504,-328,0,0,0,0,0,0,0,0,0,-1,1728,1352,0,0
511,-328,0,0,0,0,0,0,0,0,0,-1,1735,1352,0,0
518,-328,0,0,0,0,0,0,0,0,0,-1,1742,1352,0,0
525,-328,0,0,0,0,0,0,0,0,0,-1,1749,1352,0,0
532,-328,0,0,0,0,0,0,0,0,0,-1,1756,1352,0,0
539,-328,0,0,0,0,0,0,0,0,0,-1,1763,1352,0,0
546,-328,0,0,0,0,0,0,0,0,0,-1,1770,1352,0,0
553,-328,0,0,0,0,0,0,0,0,0,-1,1777,1352,0,0
560,-328,0,0,0,0,0,0,0,0,0,-1,1784,1352,0,0
567,-328,0,0,0,0,0,0,0,0,0,-1,1791,1352,0,0
574,-328,65.0565,3.09021,0,0,0,0,0,0,0,-1,1798,1352,65.0565,-3.09019
581,-328,66.3988,1.74048,0,0,0,0,0,0,0,-1,1805,1352,66.3989,-1.74051
588,-328,67.0304,0.506714,0,0,0,0,0,0,0,-1,1812,1352,67.0304,-0.506669
595,-328,60.5831,1.52856,0,0,0,0,0,0,0,-1,1819,1352,60.5832,-1.52861
602,-328,48.7734,3.66785,0,0,0,0,0,0,0,-1,1826,1352,48.7734,-3.66782
609,-328,37.0468,1.17407,0,0,0,0,0,0,0,-1,1833,1352,37.0468,-1.17407
616,-328,36.999,2.42859,0,0,0,0,0,0,0,-1,1840,1352,36.999,-2.42862
623,-328,34.345,5.14722,0,0,0,0,0,0,0,-1,1847,1352,34.3449,-5.14718
630,-328,22.0211,5.026,0,0,0,0,0,0,0,-1,1854,1352,22.0212,-5.02603
637,-328,21.15,5.53699,0,0,0,0,0,0,0,-1,1861,1352,21.15,-5.53704
644,-328,16.9579,6.3396,0,0,0,0,0,0,0,-1,1868,1352,16.9579,-6.33959
651,-328,36.2629,14.6906,0,0,0,0,0,0,0,-1,1875,1352,36.263,-14.6905
658,-328,48.5225,19.4524,0,0,0,0,0,0,0,-1,1882,1352,48.5224,-19.4524
665,-328,48.4932,18.6235,0.000906171,0.000461624,-0.000931429,0.00164148,-0.000273685,-0.66827,0.00119603,0.016323,1889,1352,48.4932,-18.6236
672,-328,48.4312,17.7942,0.0012066,0.000301736,-0.000886963,0.00174986,-0.00024152,-0.549553,0.00125485,0.0133543,1896,1352,48.4311,-17.7942
679,-328,48.3842,16.9526,0.00147247,0.000300202,-0.000830035,0.00190246,-0.00012979,-0.477976,0.00131371,0.0153314,1903,1352,48.3842,-16.9526
686,-328,48.3331,16.1316,0.00168101,0.000242381,-0.000723544,0.00198196,-5.85634e-05,-0.394164,0.00134125,0.0153606,1910,1352,48.3331,-16.1316
693,-328,48.2915,15.3362,0.00184712,0.000201279,-0.000586395,0.00203468,1.37262e-05,-0.309558,0.0013519,0.0103071,1917,1352,48.2915,-15.3361
700,-328,48.2579,14.4895,0.00195741,0.000129589,-0.00038657,0.0020358,5.1195e-05,-0.200082,0.00134046,0.0140238,1924,1352,48.258,-14.4895
707,-328,48.2352,13.6584,0.00194761,-1.43959e-05,-7.45115e-05,0.00195044,-1.72216e-05,-0.0379043,0.00130607,0.0163086,1931,1352,48.2353,-13.6585
714,-328,48.1919,12.8296,0.00179172,-0.000236095,0.000382874,0.0018616,-0.000305977,0.180534,0.00135463,0.0173473,1938,1352,48.1919,-12.8296
721,-328,48.1628,11.9119,0,0,0,0,0,0,0,-1,1945,1352,48.1628,-11.9119
728,-328,29.2787,6.74695,0,0,0,0,0,0,0,-1,1952,1352,29.2787,-6.74693
735,-328,20.8927,5.23523,0,0,0,0,0,0,0,-1,1959,1352,20.8927,-5.23528
742,-328,20.3547,4.11316,0,0,0,0,0,0,0,-1,1966,1352,20.3547,-4.11321
749,-328,20.0669,5.66321,0,0,0,0,0,0,0,-1,1973,1352,20.0669,-5.66319
756,-328,19.9543,5.50464,0,0,0,0,0,0,0,-1,1980,1352,19.9543,-5.50463
763,-328,0,0,0,0,0,0,0,0,0,-1,1987,1352,0,0
770,-328,0,0,0,0,0,0,0,0,0,-1,1994,1352,0,0
777,-328,0,0,0,0,0,0,0,0,0,-1,2001,1352,0,0
784,-328,0,0,0,0,0,0,0,0,0,-1,2008,1352,0,0
791,-328,0,0,0,0,0,0,0,0,0,-1,2015,1352,0,0
798,-328,0,0,0,0,0,0,0,0,0,-1,2022,1352,0,0
805,-328,0,0,0,0,0,0,0,0,0,-1,2029,1352,0,0
812,-328,0,0,0,0,0,0,0,0,0,-1,2036,1352,0,0
-700,-335,0,0,0,0,0,0,0,0,0,-1,524,1359,0,0
-693,-335,0,0,0,0,0,0,0,0,0,-1,531,1359,0,0
-686,-335,0,0,0,0,0,0,0,0,0,-1,538,1359,0,0
-679,-335,0,0,0,0,0,0,0,0,0,-1,545,1359,0,0
-672,-335,0,0,0,0,0,0,0,0,0,-1,552,1359,0,0
-665,-335,0,0,0,0,0,0,0,0,0,-1,559,1359,0,0
-658,-335,0,0,0,0,0,0,0,0,0,-1,566,1359,0,0
-651,-335,0,0,0,0,0,0,0,0,0,-1,573,1359,0,0
-644,-335,0,0,0,0,0,0,0,0,0,-1,580,1359,0,0
-637,-335,-62.7114,11.0491,0,0,0,0,0,0,0,-1,587,1359,-62.7114,-11.0491
-630,-335,-64.2532,9.91284,0,0,0,0,0,0,0,-1,594,1359,-64.2532,-9.91285
-623,-335,-8.43304,1.09509,0,0,0,0,0,0,0,-1,601,1359,-8.43301,-1.09507
-616,-335,-7.80927,-0.485352,0,0,0,0,0,0,0,-1,608,1359,-7.80926,0.485291
-609,-335,-7.12256,-2.03601,0,0,0,0,0,0,0,-1,615,1359,-7.12253,2.03601
-602,-335,-9.39935,2.25146,0,0,0,0,0,0,0,-1,622,1359,-9.39935,-2.25145
-595,-335,-9.54767,3.01917,0,0,0,0,0,0,0,-1,629,1359,-9.54768,-3.01911
-588,-335,-30.401,10.9033,0,0,0,0,0,0,0,-1,636,1359,-30.401,-10.9033
-581,-335,-30.6893,12.4808,0,0,0,0,0,0,0,-1,643,1359,-30.6893,-12.4809
-574,-335,-30.6919,13.3837,0.00444153,0.00387546,0.00221065,0.00638719,0.0019298,0.721728,0.00378267,0.0141223,650,1359,-30.6919,-13.3837
-567,-335,-30.6805,14.2689,0.00376192,0.00288772,0.00181717,0.00519383,0.00145582,0.667371,0.00309365,0.0174376,657,1359,-30.6805,-14.2689
-560,-335,-30.7098,15.0658,0.00356286,0.00209029,0.00167994,0.00466078,0.00099237,0.578865,0.0028349,0.0254624,664,1359,-30.7099,-15.0658
-553,-335,-30.8148,15.9142,0.00372508,0.0014335,0.00172409,0.0046494,0.000509185,0.492121,0.00294458,0.0292693,671,1359,-30.8147,-15.9142
-546,-335,-30.8636,16.8292,0.00423495,0.000897092,0.00192758,0.00511571,1.63342e-05,0.428596,0.00340504,0.0266345,678,1359,-30.8636,-16.8293
-539,-335,-30.9097,17.6921,0.00508016,0.00048103,0.00229276,0.00602786,-0.00046667,0.391958,0.00418282,0.0212689,685,1359,-30.9098,-17.6922
-532,-335,-30.9846,18.5723,0.00631215,0.000188389,0.00282677,0.0074175,-0.000916955,0.372747,0.00527727,0.0168448,692,1359,-30.9846,-18.5723
-525,-335,-30.9543,19.4514,0.0079363,4.01792e-05,0.00354508,0.00929435,-0.00131787,0.365835,0.006679,0.0143045,699,1359,-30.9543,-19.4515
-518,-335,-30.8068,20.2321,0,0,0,0,0,0,0,-1,706,1359,-30.8068,-20.2321
-511,-335,-17.3098,11.6718,0,0,0,0,0,0,0,-1,713,1359,-17.3097,-11.6717
-504,-335,-9.35767,5.99695,0,0,0,0,0,0,0,-1,720,1359,-9.35767,-5.99694
-497,-335,-8.75024,-0.650513,0,0,0,0,0,0,0,-1,727,1359,-8.75024,0.650521
-490,-335,-9.51971,0.417603,0,0,0,0,0,0,0,-1,734,1359,-9.51974,-0.41765
-483,-335,-10.2883,1.29224,0,0,0,0,0,0,0,-1,741,1359,-10.2883,-1.2922
-476,-335,-11.9938,-0.173462,0,0,0,0,0,0,0,-1,748,1359,-11.9938,0.173429
-469,-335,-12.8704,-0.204102,0,0,0,0,0,0,0,-1,755,1359,-12.8704,0.204117
-462,-335,-13.486,0.0218506,0,0,0,0,0,0,0,-1,762,1359,-13.4859,-0.0217908
-455,-335,-14.1504,0.549561,0,0,0,0,0,0,0,-1,769,1359,-14.1504,-0.549583
-448,-335,0,0,0,0,0,0,0,0,0,-1,776,1359,0,0
-441,-335,0,0,0,0,0,0,0,0,0,-1,783,1359,0,0
-434,-335,0,0,0,0,0,0,0,0,0,-1,790,1359,0,0
-427,-335,0,0,0,0,0,0,0,0,0,-1,797,1359,0,0
-420,-335,0,0,0,0,0,0,0,0,0,-1,804,1359,0,0
-413,-335,0,0,0,0,0,0,0,0,0,-1,811,1359,0,0
-406,-335,0,0,0,0,0,0,0,0,0,-1,818,1359,0,0
-399,-335,0,0,0,0,0,0,0,0,0,-1,825,1359,0,0
-392,-335,0,0,0,0,0,0,0,0,0,-1,832,1359,0,0
-385,-335,0,0,0,0,0,0,0,0,0,-1,839,1359,0,0
-378,-335,0,0,0,0,0,0,0,0,0,-1,846,1359,0,0
-371,-335,0,0,0,0,0,0,0,0,0,-1,853,1359,0,0
-364,-335,0,0,0,0,0,0,0,0,0,-1,860,1359,0,0
-357,-335,0,0,0,0,0,0,0,0,0,-1,867,1359,0,0
-350,-335,0,0,0,0,0,0,0,0,0,-1,874,1359,0,0
-343,-335,0,0,0,0,0,0,0,0,0,-1,881,1359,0,0
-336,-335,0,0,0,0,0,0,0,0,0,-1,888,1359,0,0
-329,-335,0,0,0,0,0,0,0,0,0,-1,895,1359,0,0
-322,-335,0,0,0,0,0,0,0,0,0,-1,902,1359,0,0
-315,-335,0,0,0,0,0,0,0,0,0,-1,909,1359,0,0
-308,-335,0,0,0,0,0,0,0,0,0,-1,916,1359,0,0
-301,-335,0,0,0,0,0,0,0,0,0,-1,923,1359,0,0
-294,-335,0,0,0,0,0,0,0,0,0,-1,930,1359,0,0
-287,-335,0,0,0,0,0,0,0,0,0,-1,937,1359,0,0
-280,-335,0,0,0,0,0,0,0,0,0,-1,944,1359,0,0
-273,-335,0,0,0,0,0,0,0,0,0,-1,951,1359,0,0
-266,-335,0,0,0,0,0,0,0,0,0,-1,958,1359,0,0
-259,-335,0,0,0,0,0,0,0,0,0,-1,965,1359,0,0
-252,-335,0,0,0,0,0,0,0,0,0,-1,972,1359,0,0
-245,-335,0,0,0,0,0,0,0,0,0,-1,979,1359,0,0
-238,-335,0,0,0,0,0,0,0,0,0,-1,986,1359,0,0
-231,-335,0,0,0,0,0,0,0,0,0,-1,993,1359,0,0
-224,-335,0,0,0,0,0,0,0,0,0,-1,1000,1359,0,0
-217,-335,0,0,0,0,0,0,0,0,0,-1,1007,1359,0,0
-210,-335,0,0,0,0,0,0,0,0,0,-1,1014,1359,0,0
-203,-335,0,0,0,0,0,0,0,0,0,-1,1021,1359,0,0
-196,-335,0,0,0,0,0,0,0,0,0,-1,1028,1359,0,0
-189,-335,0,0,0,0,0,0,0,0,0,-1,1035,1359,0,0
-182,-335,0,0,0,0,0,0,0,0,0,-1,1042,1359,0,0
-175,-335,0,0,0,0,0,0,0,0,0,-1,1049,1359,0,0
-168,-335,0,0,0,0,0,0,0,0,0,-1,1056,1359,0,0
-161,-335,0,0,0,0,0,0,0,0,0,-1,1063,1359,0,0
-154,-335,0,0,0,0,0,0,0,0,0,-1,1070,1359,0,0
-147,-335,0,0,0,0,0,0,0,0,0,-1,1077,1359,0,0
-140,-335,0,0,0,0,0,0,0,0,0,-1,1084,1359,0,0
-133,-335,0,0,0,0,0,0,0,0,0,-1,1091,1359,0,0
-126,-335,0,0,0,0,0,0,0,0,0,-1,1098,1359,0,0
-119,-335,0,0,0,0,0,0,0,0,0,-1,1105,1359,0,0
-112,-335,0,0,0,0,0,0,0,0,0,-1,1112,1359,0,0
-105,-335,0,0,0,0,0,0,0,0,0,-1,1119,1359,0,0
-98,-335,0,0,0,0,0,0,0,0,0,-1,1126,1359,0,0
-91,-335,0,0,0,0,0,0,0,0,0,-1,1133,1359,0,0
-84,-335,0,0,0,0,0,0,0,0,0,-1,1140,1359,0,0
-77,-335,0,0,0,0,0,0,0,0,0,-1,1147,1359,0,0
-70,-335,0,0,0,0,0,0,0,0,0,-1,1154,1359,0,0
-63,-335,0,0,0,0,0,0,0,0,0,-1,1161,1359,0,0
-56,-335,0,0,0,0,0,0,0,0,0,-1,1168,1359,0,0
-49,-335,0,0,0,0,0,0,0,0,0,-1,1175,1359,0,0
-42,-335,0,0,0,0,0,0,0,0,0,-1,1182,1359,0,0
-35,-335,0,0,0,0,0,0,0,0,0,-1,1189,1359,0,0
-28,-335,0,0,0,0,0,0,0,0,0,-1,1196,1359,0,0
-21,-335,0,0,0,0,0,0,0,0,0,-1,1203,1359,0,0
-14,-335,0,0,0,0,0,0,0,0,0,-1,1210,1359,0,0
-7,-335,0,0,0,0,0,0,0,0,0,-1,1217,1359,0,0
0,-335,0,0,0,0,0,0,0,0,0,-1,1224,1359,0,0
7,-335,0,0,0,0,0,0,0,0,0,-1,1231,1359,0,0
14,-335,0,0,0,0,0,0,0,0,0,-1,1238,1359,0,0
21,-335,0,0,0,0,0,0,0,0,0,-1,1245,1359,0,0
28,-335,0,0,0,0,0,0,0,0,0,-1,1252,1359,0,0
35,-335,0,0,0,0,0,0,0,0,0,-1,1259,1359,0,0
42,-335,0,0,0,0,0,0,0,0,0,-1,1266,1359,0,0
49,-335,0,0,0,0,0,0,0,0,0,-1,1273,1359,0,0
56,-335,0,0,0,0,0,0,0,0,0,-1,1280,1359,0,0
63,-335,0,0,0,0,0,0,0,0,0,-1,1287,1359,0,0
70,-335,0,0,0,0,0,0,0,0,0,-1,1294,1359,0,0
77,-335,0,0,0,0,0,0,0,0,0,-1,1301,1359,0,0
84,-335,0,0,0,0,0,0,0,0,0,-1,1308,1359,0,0
91,-335,0,0,0,0,0,0,0,0,0,-1,1315,1359,0,0
98,-335,0,0,0,0,0,0,0,0,0,-1,1322,1359,0,0
105,-335,0,0,0,0,0,0,0,0,0,-1,1329,1359,0,0
112,-335,0,0,0,0,0,0,0,0,0,-1,1336,1359,0,0
119,-335,0,0,0,0,0,0,0,0,0,-1,1343,1359,0,0
126,-335,0,0,0,0,0,0,0,0,0,-1,1350,1359,0,0
133,-335,0,0,0,0,0,0,0,0,0,-1,1357,1359,0,0
140,-335,0,0,0,0,0,0,0,0,0,-1,1364,1359,0,0
147,-335,0,0,0,0,0,0,0,0,0,-1,1371,1359,0,0
154,-335,0,0,0,0,0,0,0,0,0,-1,1378,1359,0,0
161,-335,0,0,0,0,0,0,0,0,0,-1,1385,1359,0,0
168,-335,0,0,0,0,0,0,0,0,0,-1,1392,1359,0,0
175,-335,0,0,0,0,0,0,0,0,0,-1,1399,1359,0,0
182,-335,0,0,0,0,0,0,0,0,0,-1,1406,1359,0,0
189,-335,0,0,0,0,0,0,0,0,0,-1,1413,1359,0,0
196,-335,0,0,0,0,0,0,0,0,0,-1,1420,1359,0,0
203,-335,0,0,0,0,0,0,0,0,0,-1,1427,1359,0,0
210,-335,0,0,0,0,0,0,0,0,0,-1,1434,1359,0,0
217,-335,0,0,0,0,0,0,0,0,0,-1,1441,1359,0,0
224,-335,0,0,0,0,0,0,0,0,0,-1,1448,1359,0,0
231,-335,0,0,0,0,0,0,0,0,0,-1,1455,1359,0,0
238,-335,0,0,0,0,0,0,0,0,0,-1,1462,1359,0,0
245,-335,0,0,0,0,0,0,0,0,0,-1,1469,1359,0,0
252,-335,0,0,0,0,0,0,0,0,0,-1,1476,1359,0,0
259,-335,0,0,0,0,0,0,0,0,0,-1,1483,1359,0,0
266,-335,0,0,0,0,0,0,0,0,0,-1,1490,1359,0,0
273,-335,0,0,0,0,0,0,0,0,0,-1,1497,1359,0,0
280,-335,0,0,0,0,0,0,0,0,0,-1,1504,1359,0,0
287,-335,0,0,0,0,0,0,0,0,0,-1,1511,1359,0,0
294,-335,0,0,0,0,0,0,0,0,0,-1,1518,1359,0,0
301,-335,0,0,0,0,0,0,0,0,0,-1,1525,1359,0,0
308,-335,0,0,0,0,0,0,0,0,0,-1,1532,1359,0,0
315,-335,0,0,0,0,0,0,0,0,0,-1,1539,1359,0,0
322,-335,0,0,0,0,0,0,0,0,0,-1,1546,1359,0,0
329,-335,0,0,0,0,0,0,0,0,0,-1,1553,1359,0,0
336,-335,0,0,0,0,0,0,0,0,0,-1,1560,1359,0,0
343,-335,0,0,0,0,0,0,0,0,0,-1,1567,1359,0,0
350,-335,0,0,0,0,0,0,0,0,0,-1,1574,1359,0,0
357,-335,0,0,0,0,0,0,0,0,0,-1,1581,1359,0,0
364,-335,0,0,0,0,0,0,0,0,0,-1,1588,1359,0,0
371,-335,0,0,0,0,0,0,0,0,0,-1,1595,1359,0,0
378,-335,0,0,0,0,0,0,0,0,0,-1,1602,1359,0,0
385,-335,0,0,0,0,0,0,0,0,0,-1,1609,1359,0,0
392,-335,0,0,0,0,0,0,0,0,0,-1,1616,1359,0,0
399,-335,0,0,0,0,0,0,0,0,0,-1,1623,1359,0,0
406,-335,0,0,0,0,0,0,0,0,0,-1,1630,1359,0,0
413,-335,0,0,0,0,0,0,0,0,0,-1,1637,1359,0,0
420,-335,0,0,0,0,0,0,0,0,0,-1,1644,1359,0,0
427,-335,0,0,0,0,0,0,0,0,0,-1,1651,1359,0,0
434,-335,0,0,0,0,0,0,0,0,0,-1,1658,1359,0,0
441,-335,0,0,0,0,0,0,0,0,0,-1,1665,1359,0,0
448,-335,0,0,0,0,0,0,0,0,0,-1,1672,1359,0,0
455,-335,0,0,0,0,0,0,0,0,0,-1,1679,1359,0,0
462,-335,0,0,0,0,0,0,0,0,0,-1,1686,1359,0,0
469,-335,0,0,0,0,0,0,0,0,0,-1,1693,1359,0,0
476,-335,0,0,0,0,0,0,0,0,0,-1,1700,1359,0,0
483,-335,0,0,0,0,0,0,0,0,0,-1,1707,1359,0,0
490,-335,0,0,0,0,0,0,0,0,0,-1,1714,1359,0,0
497,-335,0,0,0,0,0,0,0,0,0,-1,1721,1359,0,0
504,-335,0,0,0,0,0,0,0,0,0,-1,1728,1359,0,0
511,-335,0,0,0,0,0,0,0,0,0,-1,1735,1359,0,0
518,-335,0,0,0,0,0,0,0,0,0,-1,1742,1359,0,0
525,-335,0,0,0,0,0,0,0,0,0,-1,1749,1359,0,0
532,-335,0,0,0,0,0,0,0,0,0,-1,1756,1359,0,0
539,-335,0,0,0,0,0,0,0,0,0,-1,1763,1359,0,0
546,-335,0,0,0,0,0,0,0,0,0,-1,1770,1359,0,0
553,-335,0,0,0,0,0,0,0,0,0,-1,1777,1359,0,0
560,-335,0,0,0,0,0,0,0,0,0,-1,1784,1359,0,0
567,-335,0,0,0,0,0,0,0,0,0,-1,1791,1359,0,0
574,-335,65.0712,2.80188,0,0,0,0,0,0,0,-1,1798,1359,65.0712,-2.80193
581,-335,66.5206,1.60327,0,0,0,0,0,0,0,-1,1805,1359,66.5206,-1.60333
588,-335,67.826,0.334961,0,0,0,0,0,0,0,-1,1812,1359,67.8261,-0.335018
595,-335,49.984,3.76465,0,0,0,0,0,0,0,-1,1819,1359,49.984,-3.76467
602,-335,36.5643,0.0861816,0,0,0,0,0,0,0,-1,1826,1359,36.5643,-0.0862283
609,-335,36.2933,0.993896,0,0,0,0,0,0,0,-1,1833,1359,36.2934,-0.993911
616,-335,34.6969,4.82666,0,0,0,0,0,0,0,-1,1840,1359,34.6969,-4.82667
623,-335,26.6051,6.54333,0,0,0,0,0,0,0,-1,1847,1359,26.6051,-6.54339
630,-335,19.1707,1.00952,0,0,0,0,0,0,0,-1,1854,1359,19.1707,-1.00953
637,-335,18.2009,6.65454,0,0,0,0,0,0,0,-1,1861,1359,18.2009,-6.6546
644,-335,28.1042,12.067,0,0,0,0,0,0,0,-1,1868,1359,28.1042,-12.067
651,-335,47.5991,20.554,0,0,0,0,0,0,0,-1,1875,1359,47.5991,-20.5539
658,-335,47.6611,19.5859,0.000308836,0.000650886,-0.000855576,0.00135236,-0.000392641,-0.884045,0.00105705,0.0437072,1882,1359,47.6611,-19.5859
665,-335,47.6509,18.6862,0.000714813,0.000346007,-0.000703308,0.00125749,-0.000196671,-0.657187,0.000910989,0.0162416,1889,1359,47.6508,-18.6861
672,-335,47.6117,17.8485,0.00113685,0.000270669,-0.000725452,0.00154865,-0.000141136,-0.516295,0.00108255,0.0189764,1896,1359,47.6116,-17.8485
679,-335,47.5634,17.0306,0.00153253,0.000305794,-0.000764262,0.00189912,-6.07947e-05,-0.447247,0.00128682,0.0160058,1903,1359,47.5633,-17.0306
686,-335,47.5375,16.1838,0.00188664,0.000315736,-0.000782755,0.00221008,-7.70367e-06,-0.391839,0.00147596,0.0134021,1910,1359,47.5375,-16.1838
693,-335,47.479,15.358,0.00223613,0.000367474,-0.000812876,0.00254024,6.33608e-05,-0.357999,0.00167278,0.0110736,1917,1359,47.479,-15.358
700,-335,47.423,14.5472,0.00254071,0.00040662,-0.000802025,0.00280852,0.000138813,-0.322272,0.00182783,0.0117528,1924,1359,47.4229,-14.5473
707,-335,47.3912,13.7292,0.00273242,0.000376496,-0.000688464,0.00291886,0.000190061,-0.264455,0.00188575,0.0150458,1931,1359,47.3913,-13.7293
714,-335,47.3842,12.8088,0.00282454,0.000313733,-0.000472501,0.00291051,0.000227759,-0.179988,0.00186905,0.0367496,1938,1359,47.3841,-12.8088
721,-335,47.2792,11.8052,0,0,0,0,0,0,0,-1,1945,1359,47.2792,-11.8052
728,-335,20.8126,5.21167,0,0,0,0,0,0,0,-1,1952,1359,20.8127,-5.21172
735,-335,20.2725,5.34729,0,0,0,0,0,0,0,-1,1959,1359,20.2724,-5.34734
742,-335,19.8624,4.72229,0,0,0,0,0,0,0,-1,1966,1359,19.8624,-4.72225
749,-335,20.5887,6.05322,0,0,0,0,0,0,0,-1,1973,1359,20.5887,-6.05322
756,-335,20.7832,6.00452,0,0,0,0,0,0,0,-1,1980,1359,20.7832,-6.00447
763,-335,0,0,0,0,0,0,0,0,0,-1,1987,1359,0,0
770,-335,0,0,0,0,0,0,0,0,0,-1,1994,1359,0,0
777,-335,0,0,0,0,0,0,0,0,0,-1,2001,1359,0,0
784,-335,0,0,0,0,0,0,0,0,0,-1,2008,1359,0,0
791,-335,0,0,0,0,0,0,0,0,0,-1,2015,1359,0,0
798,-335,0,0,0,0,0,0,0,0,0,-1,2022,1359,0,0
805,-335,0,0,0,0,0,0,0,0,0,-1,2029,1359,0,0
812,-335,0,0,0,0,0,0,0,0,0,-1,2036,1359,0,0
-700,-342,0,0,0,0,0,0,0,0,0,-1,524,1366,0,0
-693,-342,0,0,0,0,0,0,0,0,0,-1,531,1366,0,0
-686,-342,0,0,0,0,0,0,0,0,0,-1,538,1366,0,0
-679,-342,0,0,0,0,0,0,0,0,0,-1,545,1366,0,0
-672,-342,0,0,0,0,0,0,0,0,0,-1,552,1366,0,0
-665,-342,0,0,0,0,0,0,0,0,0,-1,559,1366,0,0
-658,-342,0,0,0,0,0,0,0,0,0,-1,566,1366,0,0
-651,-342,0,0,0,0,0,0,0,0,0,-1,573,1366,0,0
-644,-342,0,0,0,0,0,0,0,0,0,-1,580,1366,0,0
-637,-342,-63.7546,12.2344,0,0,0,0,0,0,0,-1,587,1366,-63.7546,-12.2343
-630,-342,-8.60132,2.71777,0,0,0,0,0,0,0,-1,594,1366,-8.60135,-2.71779
-623,-342,-8.41168,0.662476,0,0,0,0,0,0,0,-1,601,1366,-8.41168,-0.662442
-616,-342,-6.625,-1.28015,0,0,0,0,0,0,0,-1,608,1366,-6.62499,1.28011
-609,-342,-7.83154,0.674561,0,0,0,0,0,0,0,-1,615,1366,-7.83155,-0.674598
-602,-342,-9.65765,2.25195,0,0,0,0,0,0,0,-1,622,1366,-9.65767,-2.25192
-595,-342,-9.47687,3.00671,0,0,0,0,0,0,0,-1,629,1366,-9.47686,-3.00668
-588,-342,-9.78467,3.57727,0,0,0,0,0,0,0,-1,636,1366,-9.78468,-3.57723
-581,-342,-29.9966,12.6128,0,0,0,0,0,0,0,-1,643,1366,-29.9967,-12.6128
-574,-342,-29.8989,13.4491,0.00508645,0.0044931,0.00252211,0.00732927,0.00225028,0.726852,0.00433534,0.0189095,650,1366,-29.8989,-13.4491
-567,-342,-29.8331,14.3257,0.00408087,0.00333965,0.00201401,0.00575808,0.00166244,0.694408,0.00342194,0.0182456,657,1366,-29.8331,-14.3257
-560,-342,-29.9045,15.123,0.00364641,0.00242588,0.00177677,0.0049148,0.00115749,0.619976,0.00296695,0.0267582,664,1366,-29.9045,-15.1231
-553,-342,-29.9941,15.9072,0.00360221,0.00168143,0.00172187,0.00461342,0.000670221,0.531007,0.00287834,0.0302609,671,1366,-29.9941,-15.9072
-546,-342,-30.0342,16.7775,0.00389603,0.00108166,0.00182111,0.00479028,0.000187407,0.45646,0.00313292,0.029686,678,1366,-30.0342,-16.7775
-539,-342,-30.0338,17.7461,0.0045118,0.000614585,0.0020641,0.00540178,-0.000275396,0.407086,0.00369641,0.0237141,685,1366,-30.0337,-17.746
-532,-342,-30.0959,18.6536,0.00546953,0.000287384,0.0024583,0.00645014,-0.000693226,0.379555,0.00454881,0.0189309,692,1366,-30.0959,-18.6536
-525,-342,-30.1034,19.502,0.00676381,0.000115508,0.00301362,0.00792651,-0.0010472,0.368221,0.00566576,0.0145022,699,1366,-30.1034,-19.502
-518,-342,-30.0221,20.394,0.00861932,0.000194888,0.0037721,0.0100614,-0.00124723,0.365166,0.00715968,0.0485723,706,1366,-30.0221,-20.394
-511,-342,-29.9719,21.2417,0,0,0,0,0,0,0,-1,713,1366,-29.9719,-21.2417
-504,-342,-8.95709,6.5719,0,0,0,0,0,0,0,-1,720,1366,-8.95707,-6.57192
-497,-342,-8.26587,-0.943604,0,0,0,0,0,0,0,-1,727,1366,-8.26586,0.943543
-490,-342,-9.07153,-0.0227051,0,0,0,0,0,0,0,-1,734,1366,-9.07155,0.0227087
-483,-342,-9.87726,0.898071,0,0,0,0,0,0,0,-1,741,1366,-9.87724,-0.898125
-476,-342,-11.6371,-0.736328,0,0,0,0,0,0,0,-1,748,1366,-11.6371,0.736281
-469,-342,-12.6245,-0.987549,0,0,0,0,0,0,0,-1,755,1366,-12.6245,0.987553
-462,-342,-13.0912,-0.533203,0,0,0,0,0,0,0,-1,762,1366,-13.0912,0.533224
-455,-342,-13.7612,0.122925,0,0,0,0,0,0,0,-1,769,1366,-13.7612,-0.122896
-448,-342,-14.5278,0.826904,0,0,0,0,0,0,0,-1,776,1366,-14.5277,-0.826861
-441,-342,0,0,0,0,0,0,0,0,0,-1,783,1366,0,0
-434,-342,0,0,0,0,0,0,0,0,0,-1,790,1366,0,0
-427,-342,0,0,0,0,0,0,0,0,0,-1,797,1366,0,0
-420,-342,0,0,0,0,0,0,0,0,0,-1,804,1366,0,0
-413,-342,0,0,0,0,0,0,0,0,0,-1,811,1366,0,0
-406,-342,0,0,0,0,0,0,0,0,0,-1,818,1366,0,0
-399,-342,0,0,0,0,0,0,0,0,0,-1,825,1366,0,0
-392,-342,0,0,0,0,0,0,0,0,0,-1,832,1366,0,0
-385,-342,0,0,0,0,0,0,0,0,0,-1,839,1366,0,0
-378,-342,0,0,0,0,0,0,0,0,0,-1,846,1366,0,0
-371,-342,0,0,0,0,0,0,0,0,0,-1,853,1366,0,0
-364,-342,0,0,0,0,0,0,0,0,0,-1,860,1366,0,0
-357,-342,0,0,0,0,0,0,0,0,0,-1,867,1366,0,0
-350,-342,0,0,0,0,0,0,0,0,0,-1,874,1366,0,0
-343,-342,0,0,0,0,0,0,0,0,0,-1,881,1366,0,0
-336,-342,0,0,0,0,0,0,0,0,0,-1,888,1366,0,0
-329,-342,0,0,0,0,0,0,0,0,0,-1,895,1366,0,0
-322,-342,0,0,0,0,0,0,0,0,0,-1,902,1366,0,0
-315,-342,0,0,0,0,0,0,0,0,0,-1,909,1366,0,0
-308,-342,0,0,0,0,0,0,0,0,0,-1,916,1366,0,0
-301,-342,0,0,0,0,0,0,0,0,0,-1,923,1366,0,0
-294,-342,0,0,0,0,0,0,0,0,0,-1,930,1366,0,0
-287,-342,0,0,0,0,0,0,0,0,0,-1,937,1366,0,0
-280,-342,0,0,0,0,0,0,0,0,0,-1,944,1366,0,0
-273,-342,0,0,0,0,0,0,0,0,0,-1,951,1366,0,0
-266,-342,0,0,0,0,0,0,0,0,0,-1,958,1366,0,0
-259,-342,0,0,0,0,0,0,0,0,0,-1,965,1366,0,0
-252,-342,0,0,0,0,0,0,0,0,0,-1,972,1366,0,0
-245,-342,0,0,0,0,0,0,0,0,0,-1,979,1366,0,0
-238,-342,0,0,0,0,0,0,0,0,0,-1,986,1366,0,0
-231,-342,0,0,0,0,0,0,0,0,0,-1,993,1366,0,0
-224,-342,0,0,0,0,0,0,0,0,0,-1,1000,1366,0,0
-217,-342,0,0,0,0,0,0,0,0,0,-1,1007,1366,0,0
-210,-342,0,0,0,0,0,0,0,0,0,-1,1014,1366,0,0
-203,-342,0,0,0,0,0,0,0,0,0,-1,1021,1366,0,0
-196,-342,0,0,0,0,0,0,0,0,0,-1,1028,1366,0,0
-189,-342,0,0,0,0,0,0,0,0,0,-1,1035,1366,0,0
-182,-342,0,0,0,0,0,0,0,0,0,-1,1042,1366,0,0
-175,-342,0,0,0,0,0,0,0,0,0,-1,1049,1366,0,0
-168,-342,0,0,0,0,0,0,0,0,0,-1,1056,1366,0,0
-161,-342,0,0,0,0,0,0,0,0,0,-1,1063,1366,0,0
-154,-342,0,0,0,0,0,0,0,0,0,-1,1070,1366,0,0
-147,-342,0,0,0,0,0,0,0,0,0,-1,1077,1366,0,0
-140,-342,0,0,0,0,0,0,0,0,0,-1,1084,1366,0,0
-133,-342,0,0,0,0,0,0,0,0,0,-1,1091,1366,0,0
-126,-342,0,0,0,0,0,0,0,0,0,-1,1098,1366,0,0
-119,-342,0,0,0,0,0,0,0,0,0,-1,1105,1366,0,0
-112,-342,0,0,0,0,0,0,0,0,0,-1,1112,1366,0,0
-105,-342,0,0,0,0,0,0,0,0,0,-1,1119,1366,0,0
-98,-342,0,0,0,0,0,0,0,0,0,-1,1126,1366,0,0
-91,-342,0,0,0,0,0,0,0,0,0,-1,1133,1366,0,0
-84,-342,0,0,0,0,0,0,0,0,0,-1,1140,1366,0,0
-77,-342,0,0,0,0,0,0,0,0,0,-1,1147,1366,0,0
-70,-342,0,0,0,0,0,0,0,0,0,-1,1154,1366,0,0
-63,-342,0,0,0,0,0,0,0,0,0,-1,1161,1366,0,0
-56,-342,0,0,0,0,0,0,0,0,0,-1,1168,1366,0,0
-49,-342,0,0,0,0,0,0,0,0,0,-1,1175,1366,0,0
-42,-342,0,0,0,0,0,0,0,0,0,-1,1182,1366,0,0
-35,-342,0,0,0,0,0,0,0,0,0,-1,1189,1366,0,0
-28,-342,0,0,0,0,0,0,0,0,0,-1,1196,1366,0,0
-21,-342,0,0,0,0,0,0,0,0,0,-1,1203,1366,0,0
-14,-342,0,0,0,0,0,0,0,0,0,-1,1210,1366,0,0
-7,-342,0,0,0,0,0,0,0,0,0,-1,1217,1366,0,0
0,-342,0,0,0,0,0,0,0,0,0,-1,1224,1366,0,0
7,-342,0,0,0,0,0,0,0,0,0,-1,1231,1366,0,0
14,-342,0,0,0,0,0,0,0,0,0,-1,1238,1366,0,0
21,-342,0,0,0,0,0,0,0,0,0,-1,1245,1366,0,0
28,-342,0,0,0,0,0,0,0,0,0,-1,1252,1366,0,0
35,-342,0,0,0,0,0,0,0,0,0,-1,1259,1366,0,0
42,-342,0,0,0,0,0,0,0,0,0,-1,1266,1366,0,0
49,-342,0,0,0,0,0,0,0,0,0,-1,1273,1366,0,0
56,-342,0,0,0,0,0,0,0,0,0,-1,1280,1366,0,0
63,-342,0,0,0,0,0,0,0,0,0,-1,1287,1366,0,0
70,-342,0,0,0,0,0,0,0,0,0,-1,1294,1366,0,0
77,-342,0,0,0,0,0,0,0,0,0,-1,1301,1366,0,0
84,-342,0,0,0,0,0,0,0,0,0,-1,1308,1366,0,0
91,-342,0,0,0,0,0,0,0,0,0,-1,1315,1366,0,0
98,-342,0,0,0,0,0,0,0,0,0,-1,1322,1366,0,0
105,-342,0,0,0,0,0,0,0,0,0,-1,1329,1366,0,0
112,-342,0,0,0,0,0,0,0,0,0,-1,1336,1366,0,0
119,-342,0,0,0,0,0,0,0,0,0,-1,1343,1366,0,0
126,-342,0,0,0,0,0,0,0,0,0,-1,1350,1366,0,0
133,-342,0,0,0,0,0,0,0,0,0,-1,1357,1366,0,0
140,-342,0,0,0,0,0,0,0,0,0,-1,1364,1366,0,0
147,-342,0,0,0,0,0,0,0,0,0,-1,1371,1366,0,0
154,-342,0,0,0,0,0,0,0,0,0,-1,1378,1366,0,0
161,-342,0,0,0,0,0,0,0,0,0,-1,1385,1366,0,0
168,-342,0,0,0,0,0,0,0,0,0,-1,1392,1366,0,0
175,-342,0,0,0,0,0,0,0,0,0,-1,1399,1366,0,0
182,-342,0,0,0,0,0,0,0,0,0,-1,1406,1366,0,0
189,-342,0,0,0,0,0,0,0,0,0,-1,1413,1366,0,0
196,-342,0,0,0,0,0,0,0,0,0,-1,1420,1366,0,0
203,-342,0,0,0,0,0,0,0,0,0,-1,1427,1366,0,0
210,-342,0,0,0,0,0,0,0,0,0,-1,1434,1366,0,0
217,-342,0,0,0,0,0,0,0,0,0,-1,1441,1366,0,0
224,-342,0,0,0,0,0,0,0,0,0,-1,1448,1366,0,0
231,-342,0,0,0,0,0,0,0,0,0,-1,1455,1366,0,0
238,-342,0,0,0,0,0,0,0,0,0,-1,1462,1366,0,0
245,-342,0,0,0,0,0,0,0,0,0,-1,1469,1366,0,0
252,-342,0,0,0,0,0,0,0,0,0,-1,1476,1366,0,0
259,-342,0,0,0,0,0,0,0,0,0,-1,1483,1366,0,0
266,-342,0,0,0,0,0,0,0,0,0,-1,1490,1366,0,0
273,-342,0,0,0,0,0,0,0,0,0,-1,1497,1366,0,0
280,-342,0,0,0,0,0,0,0,0,0,-1,1504,1366,0,0
287,-342,0,0,0,0,0,0,0,0,0,-1,1511,1366,0,0
294,-342,0,0,0,0,0,0,0,0,0,-1,1518,1366,0,0
301,-342,0,0,0,0,0,0,0,0,0,-1,1525,1366,0,0
308,-342,0,0,0,0,0,0,0,0,0,-1,1532,1366,0,0
315,-342,0,0,0,0,0,0,0,0,0,-1,1539,1366,0,0
322,-342,0,0,0,0,0,0,0,0,0,-1,1546,1366,0,0
329,-342,0,0,0,0,0,0,0,0,0,-1,1553,1366,0,0
336,-342,0,0,0,0,0,0,0,0,0,-1,1560,1366,0,0
343,-342,0,0,0,0,0,0,0,0,0,-1,1567,1366,0,0
350,-342,0,0,0,0,0,0,0,0,0,-1,1574,1366,0,0
357,-342,0,0,0,0,0,0,0,0,0,-1,1581,1366,0,0
364,-342,0,0,0,0,0,0,0,0,0,-1,1588,1366,0,0
371,-342,0,0,0,0,0,0,0,0,0,-1,1595,1366,0,0
378,-342,0,0,0,0,0,0,0,0,0,-1,1602,1366,0,0
385,-342,0,0,0,0,0,0,0,0,0,-1,1609,1366,0,0
392,-342,0,0,0,0,0,0,0,0,0,-1,1616,1366,0,0
399,-342,0,0,0,0,0,0,0,0,0,-1,1623,1366,0,0
406,-342,0,0,0,0,0,0,0,0,0,-1,1630,1366,0,0
413,-342,0,0,0,0,0,0,0,0,0,-1,1637,1366,0,0
420,-342,0,0,0,0,0,0,0,0,0,-1,1644,1366,0,0
427,-342,0,0,0,0,0,0,0,0,0,-1,1651,1366,0,0
434,-342,0,0,0,0,0,0,0,0,0,-1,1658,1366,0,0
441,-342,0,0,0,0,0,0,0,0,0,-1,1665,1366,0,0
448,-342,0,0,0,0,0,0,0,0,0,-1,1672,1366,0,0
455,-342,0,0,0,0,0,0,0,0,0,-1,1679,1366,0,0
462,-342,0,0,0,0,0,0,0,0,0,-1,1686,1366,0,0
469,-342,0,0,0,0,0,0,0,0,0,-1,1693,1366,0,0
476,-342,0,0,0,0,0,0,0,0,0,-1,1700,1366,0,0
483,-342,0,0,0,0,0,0,0,0,0,-1,1707,1366,0,0
490,-342,0,0,0,0,0,0,0,0,0,-1,1714,1366,0,0
497,-342,0,0,0,0,0,0,0,0,0,-1,1721,1366,0,0
504,-342,0,0,0,0,0,0,0,0,0,-1,1728,1366,0,0
511,-342,0,0,0,0,0,0,0,0,0,-1,1735,1366,0,0
518,-342,0,0,0,0,0,0,0,0,0,-1,1742,1366,0,0
525,-342,0,0,0,0,0,0,0,0,0,-1,1749,1366,0,0
532,-342,0,0,0,0,0,0,0,0,0,-1,1756,1366,0,0
539,-342,0,0,0,0,0,0,0,0,0,-1,1763,1366,0,0
546,-342,0,0,0,0,0,0,0,0,0,-1,1770,1366,0,0
553,-342,0,0,0,0,0,0,0,0,0,-1,1777,1366,0,0
560,-342,0,0,0,0,0,0,0,0,0,-1,1784,1366,0,0
567,-342,64.6937,3.24878,0,0,0,0,0,0,0,-1,1791,1366,64.6938,-3.24881
574,-342,65.4669,2.18384,0,0,0,0,0,0,0,-1,1798,1366,65.4669,-2.18381
581,-342,66.542,1.36292,0,0,0,0,0,0,0,-1,1805,1366,66.542,-1.36295
588,-342,43.9108,7.22559,0,0,0,0,0,0,0,-1,1812,1366,43.9107,-7.22554
595,-342,35.7993,0.709961,0,0,0,0,0,0,0,-1,1819,1366,35.7993,-0.709913
602,-342,36.3618,3.28723,0,0,0,0,0,0,0,-1,1826,1366,36.3619,-3.28719
609,-342,35.3777,4.14978,0,0,0,0,0,0,0,-1,1833,1366,35.3777,-4.14976
616,-342,34.199,5.8158,0,0,0,0,0,0,0,-1,1840,1366,34.199,-5.81579
623,-342,26.0299,6.86865,0,0,0,0,0,0,0,-1,1847,1366,26.0299,-6.86863
630,-342,17.3431,0.773071,0,0,0,0,0,0,0,-1,1854,1366,17.3432,-0.773095
637,-342,16.196,6.76172,0,0,0,0,0,0,0,-1,1861,1366,16.1961,-6.76174
644,-342,31.8916,14.0614,0,0,0,0,0,0,0,-1,1868,1366,31.8916,-14.0613
651,-342,46.8092,20.494,0,0,0,0,0,0,0,-1,1875,1366,46.8092,-20.4941
658,-342,46.828,19.5999,0.000133268,0.000403256,-0.000588858,0.000872395,-0.000335871,-0.898075,0.000720153,0.0228667,1882,1366,46.828,-19.5998
665,-342,46.8201,18.6699,0.000670568,0.000203033,-0.00053905,0.00102436,-0.000150756,-0.580804,0.000738304,0.0186873,1889,1366,46.82,-18.6699
672,-342,46.7709,17.8993,0.00121207,0.000200736,-0.000635132,0.00151825,-0.000105442,-0.449201,0.00104908,0.0150462,1896,1366,46.7709,-17.8992
679,-342,46.7346,17.1051,0.0017408,0.000285567,-0.000777937,0.00207837,-5.19978e-05,-0.409404,0.00140323,0.0144072,1903,1366,46.7347,-17.1051
686,-342,46.7286,16.2659,0.00224223,0.000373939,-0.000933382,0.00262862,-1.24577e-05,-0.392495,0.00175658,0.0129526,1910,1366,46.7287,-16.2659
693,-342,46.6541,15.4381,0.00276168,0.000519346,-0.00113593,0.00323655,4.44722e-05,-0.395969,0.00214303,0.0127954,1917,1366,46.6541,-15.4381
700,-342,46.5933,14.6292,0.00324309,0.000673644,-0.00133168,0.00380874,0.000107992,-0.401672,0.00250394,0.0146434,1924,1366,46.5933,-14.6292
707,-342,46.5642,13.7334,0.00360977,0.000756356,-0.00143801,0.00420874,0.000157387,-0.394671,0.00275486,0.0149342,1931,1366,46.5642,-13.7334
714,-342,46.5669,12.8342,0,0,0,0,0,0,0,-1,1938,1366,46.5669,-12.8343
721,-342,22.4666,6.08679,0,0,0,0,0,0,0,-1,1945,1366,22.4666,-6.08678
728,-342,19.8912,5.26636,0,0,0,0,0,0,0,-1,1952,1366,19.8913,-5.26636
735,-342,19.481,4.41968,0,0,0,0,0,0,0,-1,1959,1366,19.4809,-4.41962
742,-342,19.309,2.66943,0,0,0,0,0,0,0,-1,1966,1366,19.3089,-2.66948
749,-342,21.0934,6.47729,0,0,0,0,0,0,0,-1,1973,1366,21.0934,-6.4773
756,-342,0,0,0,0,0,0,0,0,0,-1,1980,1366,0,0
763,-342,0,0,0,0,0,0,0,0,0,-1,1987,1366,0,0
770,-342,0,0,0,0,0,0,0,0,0,-1,1994,1366,0,0
777,-342,0,0,0,0,0,0,0,0,0,-1,2001,1366,0,0
784,-342,0,0,0,0,0,0,0,0,0,-1,2008,1366,0,0
791,-342,0,0,0,0,0,0,0,0,0,-1,2015,1366,0,0
798,-342,0,0,0,0,0,0,0,0,0,-1,2022,1366,0,0
805,-342,0,0,0,0,0,0,0,0,0,-1,2029,1366,0,0
812,-342,0,0,0,0,0,0,0,0,0,-1,2036,1366,0,0
-700,-349,0,0,0,0,0,0,0,0,0,-1,524,1373,0,0
-693,-349,0,0,0,0,0,0,0,0,0,-1,531,1373,0,0
-686,-349,0,0,0,0,0,0,0,0,0,-1,538,1373,0,0
-679,-349,0,0,0,0,0,0,0,0,0,-1,545,1373,0,0
-672,-349,0,0,0,0,0,0,0,0,0,-1,552,1373,0,0
-665,-349,0,0,0,0,0,0,0,0,0,-1,559,1373,0,0
-658,-349,0,0,0,0,0,0,0,0,0,-1,566,1373,0,0
-651,-349,0,0,0,0,0,0,0,0,0,-1,573,1373,0,0
-644,-349,0,0,0,0,0,0,0,0,0,-1,580,1373,0,0
-637,-349,0,0,0,0,0,0,0,0,0,-1,587,1373,0,0
-630,-349,-7.64117,-5.06177,0,0,0,0,0,0,0,-1,594,1373,-7.64118,5.0618
-623,-349,-8.63507,0.51123,0,0,0,0,0,0,0,-1,601,1373,-8.63505,-0.511275
-616,-349,-5.2066,-0.188232,0,0,0,0,0,0,0,-1,608,1373,-5.20659,0.188211
-609,-349,-7.12073,1.37048,0,0,0,0,0,0,0,-1,615,1373,-7.12072,-1.37044
-602,-349,-9.00623,3.39587,0,0,0,0,0,0,0,-1,622,1373,-9.0062,-3.39591
-595,-349,-9.50568,2.96912,0,0,0,0,0,0,0,-1,629,1373,-9.50569,-2.96906
-588,-349,-8.60046,3.56042,0,0,0,0,0,0,0,-1,636,1373,-8.60046,-3.56047
-581,-349,-28.8818,12.6278,0,0,0,0,0,0,0,-1,643,1373,-28.8819,-12.6278
-574,-349,-28.9916,13.4114,0.00584056,0.0052696,0.00317781,0.00874569,0.00236447,0.740601,0.00522383,0.047282,650,1373,-28.9916,-13.4114
-567,-349,-29.0536,14.3595,0.00457548,0.00390148,0.0024602,0.00672165,0.0017553,0.717331,0.00402565,0.019182,657,1373,-29.0537,-14.3594
-560,-349,-29.0781,15.2179,0.00394601,0.0028458,0.00205035,0.00551876,0.00127305,0.654336,0.00333678,0.0229528,664,1373,-29.0782,-15.2179
-553,-349,-29.1335,16.0071,0.00372139,0.00199947,0.00184146,0.00489322,0.000827636,0.566725,0.00302426,0.0305727,671,1373,-29.1335,-16.007
-546,-349,-29.2044,16.8372,0.00380321,0.00131786,0.00178111,0.00473231,0.000388763,0.480809,0.0030336,0.0336145,678,1373,-29.2044,-16.8372
-539,-349,-29.2165,17.7799,0.00417228,0.000781602,0.00185838,0.00499244,-3.85616e-05,0.415623,0.00334122,0.024716,685,1373,-29.2165,-17.7799
-532,-349,-29.2518,18.7126,0.00482789,0.000389839,0.00207304,0.00564557,-0.000427841,0.375699,0.00391413,0.0182936,692,1373,-29.2518,-18.7127
-525,-349,-29.26,19.5477,0.00575534,0.00014791,0.00242922,0.00666133,-0.00075808,0.356977,0.00471394,0.0156417,699,1373,-29.26,-19.5477
-518,-349,-29.2757,20.4417,0.00706338,0.000123238,0.00294028,0.00814157,-0.000954946,0.351469,0.00577242,0.0302587,706,1373,-29.2757,-20.4417
-511,-349,-29.2391,21.3517,0,0,0,0,0,0,0,-1,713,1373,-29.2391,-21.3517
-504,-349,-9.60516,7.88831,0,0,0,0,0,0,0,-1,720,1373,-9.60519,-7.88825
-497,-349,-7.9339,5.58789,0,0,0,0,0,0,0,-1,727,1373,-7.93388,-5.58785
-490,-349,-8.73969,-0.503784,0,0,0,0,0,0,0,-1,734,1373,-8.73966,0.503752
-483,-349,-5.66974,3.7395,0,0,0,0,0,0,0,-1,741,1373,-5.66975,-3.73949
-476,-349,-10.8496,1.15759,0,0,0,0,0,0,0,-1,748,1373,-10.8496,-1.15756
-469,-349,-12.3314,-1.74878,0,0,0,0,0,0,0,-1,755,1373,-12.3314,1.74882
-462,-349,-12.6559,-0.995361,0,0,0,0,0,0,0,-1,762,1373,-12.656,0.995351
-455,-349,-13.2897,-0.234253,0,0,0,0,0,0,0,-1,769,1373,-13.2897,0.234261
-448,-349,-14.045,0.712891,0,0,0,0,0,0,0,-1,776,1373,-14.045,-0.712838
-441,-349,0,0,0,0,0,0,0,0,0,-1,783,1373,0,0
-434,-349,0,0,0,0,0,0,0,0,0,-1,790,1373,0,0
-427,-349,0,0,0,0,0,0,0,0,0,-1,797,1373,0,0
-420,-349,0,0,0,0,0,0,0,0,0,-1,804,1373,0,0
-413,-349,0,0,0,0,0,0,0,0,0,-1,811,1373,0,0
-406,-349,0,0,0,0,0,0,0,0,0,-1,818,1373,0,0
-399,-349,0,0,0,0,0,0,0,0,0,-1,825,1373,0,0
-392,-349,0,0,0,0,0,0,0,0,0,-1,832,1373,0,0
-385,-349,0,0,0,0,0,0,0,0,0,-1,839,1373,0,0
-378,-349,0,0,0,0,0,0,0,0,0,-1,846,1373,0,0
-371,-349,0,0,0,0,0,0,0,0,0,-1,853,1373,0,0
-364,-349,0,0,0,0,0,0,0,0,0,-1,860,1373,0,0
-357,-349,0,0,0,0,0,0,0,0,0,-1,867,1373,0,0
-350,-349,0,0,0,0,0,0,0,0,0,-1,874,1373,0,0
-343,-349,0,0,0,0,0,0,0,0,0,-1,881,1373,0,0
-336,-349,0,0,0,0,0,0,0,0,0,-1,888,1373,0,0
-329,-349,0,0,0,0,0,0,0,0,0,-1,895,1373,0,0
-322,-349,0,0,0,0,0,0,0,0,0,-1,902,1373,0,0
-315,-349,0,0,0,0,0,0,0,0,0,-1,909,1373,0,0
-308,-349,0,0,0,0,0,0,0,0,0,-1,916,1373,0,0
-301,-349,0,0,0,0,0,0,0,0,0,-1,923,1373,0,0
-294,-349,0,0,0,0,0,0,0,0,0,-1,930,1373,0,0
-287,-349,0,0,0,0,0,0,0,0,0,-1,937,1373,0,0
-280,-349,0,0,0,0,0,0,0,0,0,-1,944,1373,0,0
-273,-349,0,0,0,0,0,0,0,0,0,-1,951,1373,0,0
-266,-349,0,0,0,0,0,0,0,0,0,-1,958,1373,0,0
-259,-349,0,0,0,0,0,0,0,0,0,-1,965,1373,0,0
-252,-349,0,0,0,0,0,0,0,0,0,-1,972,1373,0,0
-245,-349,0,0,0,0,0,0,0,0,0,-1,979,1373,0,0
-238,-349,0,0,0,0,0,0,0,0,0,-1,986,1373,0,0
-231,-349,0,0,0,0,0,0,0,0,0,-1,993,1373,0,0
-224,-349,0,0,0,0,0,0,0,0,0,-1,1000,1373,0,0
-217,-349,0,0,0,0,0,0,0,0,0,-1,1007,1373,0,0
-210,-349,0,0,0,0,0,0,0,0,0,-1,1014,1373,0,0
-203,-349,0,0,0,0,0,0,0,0,0,-1,1021,1373,0,0
-196,-349,0,0,0,0,0,0,0,0,0,-1,1028,1373,0,0
-189,-349,0,0,0,0,0,0,0,0,0,-1,1035,1373,0,0
-182,-349,0,0,0,0,0,0,0,0,0,-1,1042,1373,0,0
-175,-349,0,0,0,0,0,0,0,0,0,-1,1049,1373,0,0
-168,-349,0,0,0,0,0,0,0,0,0,-1,1056,1373,0,0
-161,-349,0,0,0,0,0,0,0,0,0,-1,1063,1373,0,0
-154,-349,0,0,0,0,0,0,0,0,0,-1,1070,1373,0,0
-147,-349,0,0,0,0,0,0,0,0,0,-1,1077,1373,0,0
-140,-349,0,0,0,0,0,0,0,0,0,-1,1084,1373,0,0
-133,-349,0,0,0,0,0,0,0,0,0,-1,1091,1373,0,0
-126,-349,0,0,0,0,0,0,0,0,0,-1,1098,1373,0,0
-119,-349,0,0,0,0,0,0,0,0,0,-1,1105,1373,0,0
-112,-349,0,0,0,0,0,0,0,0,0,-1,1112,1373,0,0
-105,-349,0,0,0,0,0,0,0,0,0,-1,1119,1373,0,0
-98,-349,0,0,0,0,0,0,0,0,0,-1,1126,1373,0,0
-91,-349,0,0,0,0,0,0,0,0,0,-1,1133,1373,0,0
-84,-349,0,0,0,0,0,0,0,0,0,-1,1140,1373,0,0
-77,-349,0,0,0,0,0,0,0,0,0,-1,1147,1373,0,0
-70,-349,0,0,0,0,0,0,0,0,0,-1,1154,1373,0,0
-63,-349,0,0,0,0,0,0,0,0,0,-1,1161,1373,0,0
-56,-349,0,0,0,0,0,0,0,0,0,-1,1168,1373,0,0
-49,-349,0,0,0,0,0,0,0,0,0,-1,1175,1373,0,0
-42,-349,0,0,0,0,0,0,0,0,0,-1,1182,1373,0,0
-35,-349,0,0,0,0,0,0,0,0,0,-1,1189,1373,0,0
-28,-349,0,0,0,0,0,0,0,0,0,-1,1196,1373,0,0
-21,-349,0,0,0,0,0,0,0,0,0,-1,1203,1373,0,0
-14,-349,0,0,0,0,0,0,0,0,0,-1,1210,1373,0,0
-7,-349,0,0,0,0,0,0,0,0,0,-1,1217,1373,0,0
0,-349,0,0,0,0,0,0,0,0,0,-1,1224,1373,0,0
7,-349,0,0,0,0,0,0,0,0,0,-1,1231,1373,0,0
14,-349,0,0,0,0,0,0,0,0,0,-1,1238,1373,0,0
21,-349,0,0,0,0,0,0,0,0,0,-1,1245,1373,0,0
28,-349,0,0,0,0,0,0,0,0,0,-1,1252,1373,0,0
35,-349,0,0,0,0,0,0,0,0,0,-1,1259,1373,0,0
42,-349,0,0,0,0,0,0,0,0,0,-1,1266,1373,0,0
49,-349,0,0,0,0,0,0,0,0,0,-1,1273,1373,0,0
56,-349,0,0,0,0,0,0,0,0,0,-1,1280,1373,0,0
63,-349,0,0,0,0,0,0,0,0,0,-1,1287,1373,0,0
70,-349,0,0,0,0,0,0,0,0,0,-1,1294,1373,0,0
77,-349,0,0,0,0,0,0,0,0,0,-1,1301,1373,0,0
84,-349,0,0,0,0,0,0,0,0,0,-1,1308,1373,0,0
91,-349,0,0,0,0,0,0,0,0,0,-1,1315,1373,0,0
98,-349,0,0,0,0,0,0,0,0,0,-1,1322,1373,0,0
105,-349,0,0,0,0,0,0,0,0,0,-1,1329,1373,0,0
112,-349,0,0,0,0,0,0,0,0,0,-1,1336,1373,0,0
119,-349,0,0,0,0,0,0,0,0,0,-1,1343,1373,0,0
126,-349,0,0,0,0,0,0,0,0,0,-1,1350,1373,0,0
133,-349,0,0,0,0,0,0,0,0,0,-1,1357,1373,0,0
140,-349,0,0,0,0,0,0,0,0,0,-1,1364,1373,0,0
147,-349,0,0,0,0,0,0,0,0,0,-1,1371,1373,0,0
154,-349,0,0,0,0,0,0,0,0,0,-1,1378,1373,0,0
161,-349,0,0,0,0,0,0,0,0,0,-1,1385,1373,0,0
168,-349,0,0,0,0,0,0,0,0,0,-1,1392,1373,0,0
175,-349,0,0,0,0,0,0,0,0,0,-1,1399,1373,0,0
182,-349,0,0,0,0,0,0,0,0,0,-1,1406,1373,0,0
189,-349,0,0,0,0,0,0,0,0,0,-1,1413,1373,0,0
196,-349,0,0,0,0,0,0,0,0,0,-1,1420,1373,0,0
203,-349,0,0,0,0,0,0,0,0,0,-1,1427,1373,0,0
210,-349,0,0,0,0,0,0,0,0,0,-1,1434,1373,0,0
217,-349,0,0,0,0,0,0,0,0,0,-1,1441,1373,0,0
224,-349,0,0,0,0,0,0,0,0,0,-1,1448,1373,0,0
231,-349,0,0,0,0,0,0,0,0,0,-1,1455,1373,0,0
238,-349,0,0,0,0,0,0,0,0,0,-1,1462,1373,0,0
245,-349,0,0,0,0,0,0,0,0,0,-1,1469,1373,0,0
252,-349,0,0,0,0,0,0,0,0,0,-1,1476,1373,0,0
259,-349,0,0,0,0,0,0,0,0,0,-1,1483,1373,0,0
266,-349,0,0,0,0,0,0,0,0,0,-1,1490,1373,0,0
273,-349,0,0,0,0,0,0,0,0,0,-1,1497,1373,0,0
280,-349,0,0,0,0,0,0,0,0,0,-1,1504,1373,0,0
287,-349,0,0,0,0,0,0,0,0,0,-1,1511,1373,0,0
294,-349,0,0,0,0,0,0,0,0,0,-1,1518,1373,0,0
301,-349,0,0,0,0,0,0,0,0,0,-1,1525,1373,0,0
308,-349,0,0,0,0,0,0,0,0,0,-1,1532,1373,0,0
315,-349,0,0,0,0,0,0,0,0,0,-1,1539,1373,0,0
322,-349,0,0,0,0,0,0,0,0,0,-1,1546,1373,0,0
329,-349,0,0,0,0,0,0,0,0,0,-1,1553,1373,0,0
336,-349,0,0,0,0,0,0,0,0,0,-1,1560,1373,0,0
343,-349,0,0,0,0,0,0,0,0,0,-1,1567,1373,0,0
350,-349,0,0,0,0,0,0,0,0,0,-1,1574,1373,0,0
357,-349,0,0,0,0,0,0,0,0,0,-1,1581,1373,0,0
364,-349,0,0,0,0,0,0,0,0,0,-1,1588,1373,0,0
371,-349,0,0,0,0,0,0,0,0,0,-1,1595,1373,0,0
378,-349,0,0,0,0,0,0,0,0,0,-1,1602,1373,0,0
385,-349,0,0,0,0,0,0,0,0,0,-1,1609,1373,0,0
392,-349,0,0,0,0,0,0,0,0,0,-1,1616,1373,0,0
399,-349,0,0,0,0,0,0,0,0,0,-1,1623,1373,0,0
406,-349,0,0,0,0,0,0,0,0,0,-1,1630,1373,0,0
413,-349,0,0,0,0,0,0,0,0,0,-1,1637,1373,0,0
420,-349,0,0,0,0,0,0,0,0,0,-1,1644,1373,0,0
427,-349,0,0,0,0,0,0,0,0,0,-1,1651,1373,0,0
434,-349,0,0,0,0,0,0,0,0,0,-1,1658,1373,0,0
441,-349,0,0,0,0,0,0,0,0,0,-1,1665,1373,0,0
448,-349,0,0,0,0,0,0,0,0,0,-1,1672,1373,0,0
455,-349,0,0,0,0,0,0,0,0,0,-1,1679,1373,0,0
462,-349,0,0,0,0,0,0,0,0,0,-1,1686,1373,0,0
469,-349,0,0,0,0,0,0,0,0,0,-1,1693,1373,0,0
476,-349,0,0,0,0,0,0,0,0,0,-1,1700,1373,0,0
483,-349,0,0,0,0,0,0,0,0,0,-1,1707,1373,0,0
490,-349,0,0,0,0,0,0,0,0,0,-1,1714,1373,0,0
497,-349,0,0,0,0,0,0,0,0,0,-1,1721,1373,0,0
504,-349,0,0,0,0,0,0,0,0,0,-1,1728,1373,0,0
511,-349,0,0,0,0,0,0,0,0,0,-1,1735,1373,0,0
518,-349,0,0,0,0,0,0,0,0,0,-1,1742,1373,0,0
525,-349,0,0,0,0,0,0,0,0,0,-1,1749,1373,0,0
532,-349,0,0,0,0,0,0,0,0,0,-1,1756,1373,0,0
539,-349,0,0,0,0,0,0,0,0,0,-1,1763,1373,0,0
546,-349,0,0,0,0,0,0,0,0,0,-1,1770,1373,0,0
553,-349,0,0,0,0,0,0,0,0,0,-1,1777,1373,0,0
560,-349,63.5519,3.94397,0,0,0,0,0,0,0,-1,1784,1373,63.5519,-3.94394
567,-349,64.7863,2.54688,0,0,0,0,0,0,0,-1,1791,1373,64.7863,-2.5469
574,-349,65.8214,1.63818,0,0,0,0,0,0,0,-1,1798,1373,65.8214,-1.63813
581,-349,42.8947,6.78381,0,0,0,0,0,0,0,-1,1805,1373,42.8946,-6.78376
588,-349,44.8121,5.06213,0,0,0,0,0,0,0,-1,1812,1373,44.8121,-5.06215
595,-349,44.4338,6.14099,0,0,0,0,0,0,0,-1,1819,1373,44.4338,-6.14095
602,-349,35.6641,3.26465,0,0,0,0,0,0,0,-1,1826,1373,35.6641,-3.26468
609,-349,34.7175,4.401,0,0,0,0,0,0,0,-1,1833,1373,34.7175,-4.40096
616,-349,27.1451,6.68274,0,0,0,0,0,0,0,-1,1840,1373,27.1451,-6.6828
623,-349,18.8478,2.75769,0,0,0,0,0,0,0,-1,1847,1373,18.8478,-2.75774
630,-349,15.4948,6.47644,0,0,0,0,0,0,0,-1,1854,1373,15.4947,-6.4765
637,-349,16.5161,6.92639,0,0,0,0,0,0,0,-1,1861,1373,16.5161,-6.92636
644,-349,44.2694,19.8312,0,0,0,0,0,0,0,-1,1868,1373,44.2695,-19.8311
651,-349,46.0629,20.4423,0,0,0,0,0,0,0,-1,1875,1373,46.0628,-20.4423
658,-349,46.0089,19.593,8.74271e-05,0.000187859,-0.000328403,0.000469863,-0.000194577,-0.861265,0.000394437,0.0278446,1882,1373,46.0089,-19.593
665,-349,45.9586,18.7344,0.000696175,8.2239e-05,-0.000397485,0.000891426,-0.000113012,-0.456595,0.000635314,0.022559,1889,1373,45.9586,-18.7343
672,-349,45.9561,17.9402,0.00132108,0.000141842,-0.000588693,0.00156466,-0.000101731,-0.392306,0.00107862,0.0162804,1896,1373,45.956,-17.9402
679,-349,45.9197,17.1415,0.00196235,0.000274069,-0.000849275,0.00231564,-7.9221e-05,-0.394215,0.00157083,0.0162154,1903,1373,45.9197,-17.1415
686,-349,45.9376,16.2988,0.00260494,0.000454171,-0.00115685,0.00310903,-4.99231e-05,-0.410939,0.00208953,0.0179156,1910,1373,45.9376,-16.2989
693,-349,45.8521,15.4902,0.00328898,0.00071487,-0.00153748,0.00400701,-3.16137e-06,-0.436915,0.00267239,0.0199591,1917,1373,45.852,-15.4902
700,-349,45.78,14.6956,0.00395709,0.0010245,-0.00195864,0.00493748,4.41044e-05,-0.464087,0.00327705,0.0190606,1924,1373,45.78,-14.6955
707,-349,45.8456,13.7943,0.00452117,0.00128909,-0.00231211,0.00572603,8.42384e-05,-0.480389,0.00378958,0.0393975,1931,1373,45.8456,-13.7943
714,-349,45.9574,12.7656,0,0,0,0,0,0,0,-1,1938,1373,45.9573,-12.7657
721,-349,19.6688,5.93604,0,0,0,0,0,0,0,-1,1945,1373,19.6688,-5.93606
728,-349,18.6333,3.73218,0,0,0,0,0,0,0,-1,1952,1373,18.6333,-3.73214
735,-349,18.1918,3.39954,0,0,0,0,0,0,0,-1,1959,1373,18.1918,-3.3995
742,-349,20.7345,2.07483,0,0,0,0,0,0,0,-1,1966,1373,20.7345,-2.07485
749,-349,21.9037,1.45789,0,0,0,0,0,0,0,-1,1973,1373,21.9037,-1.45788
756,-349,0,0,0,0,0,0,0,0,0,-1,1980,1373,0,0
763,-349,0,0,0,0,0,0,0,0,0,-1,1987,1373,0,0
770,-349,0,0,0,0,0,0,0,0,0,-1,1994,1373,0,0
777,-349,0,0,0,0,0,0,0,0,0,-1,2001,1373,0,0
784,-349,0,0,0,0,0,0,0,0,0,-1,2008,1373,0,0
791,-349,0,0,0,0,0,0,0,0,0,-1,2015,1373,0,0
798,-349,0,0,0,0,0,0,0,0,0,-1,2022,1373,0,0
805,-349,0,0,0,0,0,0,0,0,0,-1,2029,1373,0,0
812,-349,0,0,0,0,0,0,0,0,0,-1,2036,1373,0,0
-700,-356,0,0,0,0,0,0,0,0,0,-1,524,1380,0,0
-693,-356,0,0,0,0,0,0,0,0,0,-1,531,1380,0,0
-686,-356,0,0,0,0,0,0,0,0,0,-1,538,1380,0,0
-679,-356,0,0,0,0,0,0,0,0,0,-1,545,1380,0,0
-672,-356,0,0,0,0,0,0,0,0,0,-1,552,1380,0,0
-665,-356,0,0,0,0,0,0,0,0,0,-1,559,1380,0,0
-658,-356,0,0,0,0,0,0,0,0,0,-1,566,1380,0,0
-651,-356,0,0,0,0,0,0,0,0,0,-1,573,1380,0,0
-644,-356,0,0,0,0,0,0,0,0,0,-1,580,1380,0,0
-637,-356,0,0,0,0,0,0,0,0,0,-1,587,1380,0,0
-630,-356,-8.23126,-5.01917,0,0,0,0,0,0,0,-1,594,1380,-8.23124,5.0192
-623,-356,-0.263855,-0.675781,0,0,0,0,0,0,0,-1,601,1380,-0.263835,0.675841
-616,-356,-8.26532,-3.43945,0,0,0,0,0,0,0,-1,608,1380,-8.2653,3.43948
-609,-356,-4.88483,0.734497,0,0,0,0,0,0,0,-1,615,1380,-4.88485,-0.734532
-602,-356,-9.06635,2.4021,0,0,0,0,0,0,0,-1,622,1380,-9.06634,-2.40206
-595,-356,-8.45703,3.61853,0,0,0,0,0,0,0,-1,629,1380,-8.45706,-3.61848
-588,-356,-9.31738,4.14258,0,0,0,0,0,0,0,-1,636,1380,-9.31736,-4.14255
-581,-356,-16.5185,7.32312,0,0,0,0,0,0,0,-1,643,1380,-16.5185,-7.32306
-574,-356,-28.2622,13.4014,0,0,0,0,0,0,0,-1,650,1380,-28.2622,-13.4014
-567,-356,-28.2471,14.3267,0.00512171,0.00454382,0.00299338,0.00784006,0.00182547,0.737283,0.00473695,0.0258416,657,1380,-28.2471,-14.3266
-560,-356,-28.1959,15.2869,0.00425592,0.00331459,0.00237305,0.00620453,0.00136598,0.6875,0.00376456,0.0185061,664,1380,-28.1959,-15.2868
-553,-356,-28.2392,16.1376,0.00383739,0.00235258,0.00199493,0.00522358,0.000966391,0.607265,0.00320913,0.021969,671,1380,-28.2392,-16.1375
-546,-356,-28.3397,16.9724,0.00370178,0.00158079,0.00177077,0.00470532,0.00057724,0.515596,0.00296327,0.0237995,678,1380,-28.3397,-16.9724
-539,-356,-28.3708,17.8424,0.00383966,0.000972514,0.00169391,0.0046252,0.000186973,0.434224,0.00302307,0.0163305,685,1380,-28.3708,-17.8424
-532,-356,-28.4374,18.7371,0.00423366,0.000537828,0.00176623,0.00494198,-0.000170496,0.3814,0.00335293,0.0161299,692,1380,-28.4375,-18.737
-525,-356,-28.4467,19.5917,0.00486571,0.000251376,0.00197923,0.00559834,-0.000481256,0.35452,0.00390255,0.0139523,699,1380,-28.4466,-19.5917
-518,-356,-28.4669,20.4469,0.00577949,0.000171554,0.00234652,0.0066318,-0.00068076,0.348407,0.00466471,0.0147372,706,1380,-28.4669,-20.447
-511,-356,-28.4878,21.3119,0,0,0,0,0,0,0,-1,713,1380,-28.4878,-21.3119
-504,-356,-14.3925,12.3971,0,0,0,0,0,0,0,-1,720,1380,-14.3925,-12.3971
-497,-356,-5.68604,4.96387,0,0,0,0,0,0,0,-1,727,1380,-5.68605,-4.96385
-490,-356,-7.95288,5.5625,0,0,0,0,0,0,0,-1,734,1380,-7.95285,-5.56246
-483,-356,-7.2627,4.07446,0,0,0,0,0,0,0,-1,741,1380,-7.2627,-4.07441
-476,-356,-5.1936,4.16016,0,0,0,0,0,0,0,-1,748,1380,-5.1936,-4.16012
-469,-356,-10.0883,0.536011,0,0,0,0,0,0,0,-1,755,1380,-10.0883,-0.535989
-462,-356,-12.3481,-0.215698,0,0,0,0,0,0,0,-1,762,1380,-12.3481,0.215641
-455,-356,-13.1367,-0.264648,0,0,0,0,0,0,0,-1,769,1380,-13.1367,0.264647
-448,-356,-13.9116,-0.310181,0,0,0,0,0,0,0,-1,776,1380,-13.9115,0.310207
-441,-356,-13.1602,3.05603,0,0,0,0,0,0,0,-1,783,1380,-13.1602,-3.05609
-434,-356,0,0,0,0,0,0,0,0,0,-1,790,1380,0,0
-427,-356,0,0,0,0,0,0,0,0,0,-1,797,1380,0,0
-420,-356,0,0,0,0,0,0,0,0,0,-1,804,1380,0,0
-413,-356,0,0,0,0,0,0,0,0,0,-1,811,1380,0,0
-406,-356,0,0,0,0,0,0,0,0,0,-1,818,1380,0,0
-399,-356,0,0,0,0,0,0,0,0,0,-1,825,1380,0,0
-392,-356,0,0,0,0,0,0,0,0,0,-1,832,1380,0,0
-385,-356,0,0,0,0,0,0,0,0,0,-1,839,1380,0,0
-378,-356,0,0,0,0,0,0,0,0,0,-1,846,1380,0,0
-371,-356,0,0,0,0,0,0,0,0,0,-1,853,1380,0,0
-364,-356,0,0,0,0,0,0,0,0,0,-1,860,1380,0,0
-357,-356,0,0,0,0,0,0,0,0,0,-1,867,1380,0,0
-350,-356,0,0,0,0,0,0,0,0,0,-1,874,1380,0,0
-343,-356,0,0,0,0,0,0,0,0,0,-1,881,1380,0,0
-336,-356,0,0,0,0,0,0,0,0,0,-1,888,1380,0,0
-329,-356,0,0,0,0,0,0,0,0,0,-1,895,1380,0,0
-322,-356,0,0,0,0,0,0,0,0,0,-1,902,1380,0,0
-315,-356,0,0,0,0,0,0,0,0,0,-1,909,1380,0,0
-308,-356,0,0,0,0,0,0,0,0,0,-1,916,1380,0,0
-301,-356,0,0,0,0,0,0,0,0,0,-1,923,1380,0,0
-294,-356,0,0,0,0,0,0,0,0,0,-1,930,1380,0,0
-287,-356,0,0,0,0,0,0,0,0,0,-1,937,1380,0,0
-280,-356,0,0,0,0,0,0,0,0,0,-1,944,1380,0,0
-273,-356,0,0,0,0,0,0,0,0,0,-1,951,1380,0,0
-266,-356,0,0,0,0,0,0,0,0,0,-1,958,1380,0,0
-259,-356,0,0,0,0,0,0,0,0,0,-1,965,1380,0,0
-252,-356,0,0,0,0,0,0,0,0,0,-1,972,1380,0,0
-245,-356,0,0,0,0,0,0,0,0,0,-1,979,1380,0,0
-238,-356,0,0,0,0,0,0,0,0,0,-1,986,1380,0,0
-231,-356,0,0,0,0,0,0,0,0,0,-1,993,1380,0,0
-224,-356,0,0,0,0,0,0,0,0,0,-1,1000,1380,0,0
-217,-356,0,0,0,0,0,0,0,0,0,-1,1007,1380,0,0
-210,-356,0,0,0,0,0,0,0,0,0,-1,1014,1380,0,0
-203,-356,0,0,0,0,0,0,0,0,0,-1,1021,1380,0,0
-196,-356,0,0,0,0,0,0,0,0,0,-1,1028,1380,0,0
-189,-356,0,0,0,0,0,0,0,0,0,-1,1035,1380,0,0
-182,-356,0,0,0,0,0,0,0,0,0,-1,1042,1380,0,0
-175,-356,0,0,0,0,0,0,0,0,0,-1,1049,1380,0,0
-168,-356,0,0,0,0,0,0,0,0,0,-1,1056,1380,0,0
-161,-356,0,0,0,0,0,0,0,0,0,-1,1063,1380,0,0
-154,-356,0,0,0,0,0,0,0,0,0,-1,1070,1380,0,0
-147,-356,0,0,0,0,0,0,0,0,0,-1,1077,1380,0,0
-140,-356,0,0,0,0,0,0,0,0,0,-1,1084,1380,0,0
-133,-356,0,0,0,0,0,0,0,0,0,-1,1091,1380,0,0
-126,-356,0,0,0,0,0,0,0,0,0,-1,1098,1380,0,0
-119,-356,0,0,0,0,0,0,0,0,0,-1,1105,1380,0,0
-112,-356,0,0,0,0,0,0,0,0,0,-1,1112,1380,0,0
-105,-356,0,0,0,0,0,0,0,0,0,-1,1119,1380,0,0
-98,-356,0,0,0,0,0,0,0,0,0,-1,1126,1380,0,0
-91,-356,0,0,0,0,0,0,0,0,0,-1,1133,1380,0,0
-84,-356,0,0,0,0,0,0,0,0,0,-1,1140,1380,0,0
-77,-356,0,0,0,0,0,0,0,0,0,-1,1147,1380,0,0
-70,-356,0,0,0,0,0,0,0,0,0,-1,1154,1380,0,0
-63,-356,0,0,0,0,0,0,0,0,0,-1,1161,1380,0,0
-56,-356,0,0,0,0,0,0,0,0,0,-1,1168,1380,0,0
-49,-356,0,0,0,0,0,0,0,0,0,-1,1175,1380,0,0
-42,-356,0,0,0,0,0,0,0,0,0,-1,1182,1380,0,0
-35,-356,0,0,0,0,0,0,0,0,0,-1,1189,1380,0,0
-28,-356,0,0,0,0,0,0,0,0,0,-1,1196,1380,0,0
-21,-356,0,0,0,0,0,0,0,0,0,-1,1203,1380,0,0
-14,-356,0,0,0,0,0,0,0,0,0,-1,1210,1380,0,0
-7,-356,0,0,0,0,0,0,0,0,0,-1,1217,1380,0,0
0,-356,0,0,0,0,0,0,0,0,0,-1,1224,1380,0,0
7,-356,0,0,0,0,0,0,0,0,0,-1,1231,1380,0,0
14,-356,0,0,0,0,0,0,0,0,0,-1,1238,1380,0,0
21,-356,0,0,0,0,0,0,0,0,0,-1,1245,1380,0,0
28,-356,0,0,0,0,0,0,0,0,0,-1,1252,1380,0,0
35,-356,0,0,0,0,0,0,0,0,0,-1,1259,1380,0,0
42,-356,0,0,0,0,0,0,0,0,0,-1,1266,1380,0,0
49,-356,0,0,0,0,0,0,0,0,0,-1,1273,1380,0,0
56,-356,0,0,0,0,0,0,0,0,0,-1,1280,1380,0,0
63,-356,0,0,0,0,0,0,0,0,0,-1,1287,1380,0,0
70,-356,0,0,0,0,0,0,0,0,0,-1,1294,1380,0,0
77,-356,0,0,0,0,0,0,0,0,0,-1,1301,1380,0,0
84,-356,0,0,0,0,0,0,0,0,0,-1,1308,1380,0,0
91,-356,0,0,0,0,0,0,0,0,0,-1,1315,1380,0,0
98,-356,0,0,0,0,0,0,0,0,0,-1,1322,1380,0,0
105,-356,0,0,0,0,0,0,0,0,0,-1,1329,1380,0,0
112,-356,0,0,0,0,0,0,0,0,0,-1,1336,1380,0,0
119,-356,0,0,0,0,0,0,0,0,0,-1,1343,1380,0,0
126,-356,0,0,0,0,0,0,0,0,0,-1,1350,1380,0,0
133,-356,0,0,0,0,0,0,0,0,0,-1,1357,1380,0,0
140,-356,0,0,0,0,0,0,0,0,0,-1,1364,1380,0,0
147,-356,0,0,0,0,0,0,0,0,0,-1,1371,1380,0,0
154,-356,0,0,0,0,0,0,0,0,0,-1,1378,1380,0,0
161,-356,0,0,0,0,0,0,0,0,0,-1,1385,1380,0,0
168,-356,0,0,0,0,0,0,0,0,0,-1,1392,1380,0,0
175,-356,0,0,0,0,0,0,0,0,0,-1,1399,1380,0,0
182,-356,0,0,0,0,0,0,0,0,0,-1,1406,1380,0,0
189,-356,0,0,0,0,0,0,0,0,0,-1,1413,1380,0,0
196,-356,0,0,0,0,0,0,0,0,0,-1,1420,1380,0,0
203,-356,0,0,0,0,0,0,0,0,0,-1,1427,1380,0,0
210,-356,0,0,0,0,0,0,0,0,0,-1,1434,1380,0,0
217,-356,0,0,0,0,0,0,0,0,0,-1,1441,1380,0,0
224,-356,0,0,0,0,0,0,0,0,0,-1,1448,1380,0,0
231,-356,0,0,0,0,0,0,0,0,0,-1,1455,1380,0,0
238,-356,0,0,0,0,0,0,0,0,0,-1,1462,1380,0,0
245,-356,0,0,0,0,0,0,0,0,0,-1,1469,1380,0,0
252,-356,0,0,0,0,0,0,0,0,0,-1,1476,1380,0,0
259,-356,0,0,0,0,0,0,0,0,0,-1,1483,1380,0,0
266,-356,0,0,0,0,0,0,0,0,0,-1,1490,1380,0,0
273,-356,0,0,0,0,0,0,0,0,0,-1,1497,1380,0,0
280,-356,0,0,0,0,0,0,0,0,0,-1,1504,1380,0,0
287,-356,0,0,0,0,0,0,0,0,0,-1,1511,1380,0,0
294,-356,0,0,0,0,0,0,0,0,0,-1,1518,1380,0,0
301,-356,0,0,0,0,0,0,0,0,0,-1,1525,1380,0,0
308,-356,0,0,0,0,0,0,0,0,0,-1,1532,1380,0,0
315,-356,0,0,0,0,0,0,0,0,0,-1,1539,1380,0,0
322,-356,0,0,0,0,0,0,0,0,0,-1,1546,1380,0,0
329,-356,0,0,0,0,0,0,0,0,0,-1,1553,1380,0,0
336,-356,0,0,0,0,0,0,0,0,0,-1,1560,1380,0,0
343,-356,0,0,0,0,0,0,0,0,0,-1,1567,1380,0,0
350,-356,0,0,0,0,0,0,0,0,0,-1,1574,1380,0,0
357,-356,0,0,0,0,0,0,0,0,0,-1,1581,1380,0,0
364,-356,0,0,0,0,0,0,0,0,0,-1,1588,1380,0,0
371,-356,0,0,0,0,0,0,0,0,0,-1,1595,1380,0,0
378,-356,0,0,0,0,0,0,0,0,0,-1,1602,1380,0,0
385,-356,0,0,0,0,0,0,0,0,0,-1,1609,1380,0,0
392,-356,0,0,0,0,0,0,0,0,0,-1,1616,1380,0,0
399,-356,0,0,0,0,0,0,0,0,0,-1,1623,1380,0,0
406,-356,0,0,0,0,0,0,0,0,0,-1,1630,1380,0,0
413,-356,0,0,0,0,0,0,0,0,0,-1,1637,1380,0,0
420,-356,0,0,0,0,0,0,0,0,0,-1,1644,1380,0,0
427,-356,0,0,0,0,0,0,0,0,0,-1,1651,1380,0,0
434,-356,0,0,0,0,0,0,0,0,0,-1,1658,1380,0,0
441,-356,0,0,0,0,0,0,0,0,0,-1,1665,1380,0,0
448,-356,0,0,0,0,0,0,0,0,0,-1,1672,1380,0,0
455,-356,0,0,0,0,0,0,0,0,0,-1,1679,1380,0,0
462,-356,0,0,0,0,0,0,0,0,0,-1,1686,1380,0,0
469,-356,0,0,0,0,0,0,0,0,0,-1,1693,1380,0,0
476,-356,0,0,0,0,0,0,0,0,0,-1,1700,1380,0,0
483,-356,0,0,0,0,0,0,0,0,0,-1,1707,1380,0,0
490,-356,0,0,0,0,0,0,0,0,0,-1,1714,1380,0,0
497,-356,0,0,0,0,0,0,0,0,0,-1,1721,1380,0,0
504,-356,0,0,0,0,0,0,0,0,0,-1,1728,1380,0,0
511,-356,0,0,0,0,0,0,0,0,0,-1,1735,1380,0,0
518,-356,0,0,0,0,0,0,0,0,0,-1,1742,1380,0,0
525,-356,0,0,0,0,0,0,0,0,0,-1,1749,1380,0,0
532,-356,0,0,0,0,0,0,0,0,0,-1,1756,1380,0,0
539,-356,0,0,0,0,0,0,0,0,0,-1,1763,1380,0,0
546,-356,0,0,0,0,0,0,0,0,0,-1,1770,1380,0,0
553,-356,0,0,0,0,0,0,0,0,0,-1,1777,1380,0,0
560,-356,63.6171,3.12183,0,0,0,0,0,0,0,-1,1784,1380,63.617,-3.12183
567,-356,65.0425,1.89966,0,0,0,0,0,0,0,-1,1791,1380,65.0424,-1.8996
574,-356,45.5742,3.39575,0,0,0,0,0,0,0,-1,1798,1380,45.5742,-3.39574
581,-356,45.6708,3.64172,0,0,0,0,0,0,0,-1,1805,1380,45.6707,-3.64175
588,-356,44.4739,4.87085,0,0,0,0,0,0,0,-1,1812,1380,44.4739,-4.87086
595,-356,32.0834,5.86084,0,0,0,0,0,0,0,-1,1819,1380,32.0834,-5.86079
602,-356,30.1604,6.07104,0,0,0,0,0,0,0,-1,1826,1380,30.1604,-6.07104
609,-356,28.3435,6.48901,0,0,0,0,0,0,0,-1,1833,1380,28.3435,-6.48899
616,-356,26.9358,6.80872,0,0,0,0,0,0,0,-1,1840,1380,26.9358,-6.80877
623,-356,16.1803,1.07532,0,0,0,0,0,0,0,-1,1847,1380,16.1803,-1.07529
630,-356,16.4138,6.91553,0,0,0,0,0,0,0,-1,1854,1380,16.4138,-6.9155
637,-356,24.8021,12.0151,0,0,0,0,0,0,0,-1,1861,1380,24.8022,-12.0151
644,-356,45.3418,21.3317,0,0,0,0,0,0,0,-1,1868,1380,45.3418,-21.3316
651,-356,45.3047,20.4323,-0.000679973,0.000170735,-0.000184083,0.000208859,-0.000718098,-1.36658,0.000561454,0.0221647,1875,1380,45.3047,-20.4322
658,-356,45.2053,19.5885,-2.76044e-05,5.55531e-05,-0.000142892,0.000162793,-0.000134844,-0.926979,0.000172093,0.01513,1882,1380,45.2053,-19.5885
665,-356,45.1459,18.8098,0.000744421,2.4416e-05,-0.000320754,0.000866586,-9.77485e-05,-0.363904,0.00061291,0.0161112,1889,1380,45.1459,-18.8098
672,-356,45.1143,18.004,0.00154832,0.000140914,-0.000619095,0.00178189,-9.26537e-05,-0.360762,0.00121998,0.0173874,1896,1380,45.1142,-18.004
679,-356,45.0896,17.1792,0.00240076,0.000339786,-0.0010205,0.00282056,-8.00112e-05,-0.390264,0.0019076,0.0186837,1903,1380,45.0895,-17.1792
686,-356,45.0592,16.3259,0.003325,0.000667309,-0.00154881,0.0040369,-4.45878e-05,-0.430844,0.00270625,0.0196221,1910,1380,45.0592,-16.3259
693,-356,45.016,15.5334,0.00431141,0.0011112,-0.0021843,0.00541898,3.63239e-06,-0.469279,0.00361144,0.0172605,1917,1380,45.016,-15.5335
700,-356,44.9995,14.7137,0.00534764,0.00169286,-0.002963,0.00700144,3.90548e-05,-0.50908,0.00465467,0.025444,1924,1380,44.9996,-14.7138
707,-356,45.1489,13.6991,0,0,0,0,0,0,0,-1,1931,1380,45.1489,-13.6991
714,-356,19.6907,5.82129,0,0,0,0,0,0,0,-1,1938,1380,19.6907,-5.82132
721,-356,17.2948,4.1958,0,0,0,0,0,0,0,-1,1945,1380,17.2948,-4.19584
728,-356,19.1846,2.31519,0,0,0,0,0,0,0,-1,1952,1380,19.1846,-2.31514
735,-356,20.0731,2.50842,0,0,0,0,0,0,0,-1,1959,1380,20.0731,-2.50844
742,-356,21.0111,2.43762,0,0,0,0,0,0,0,-1,1966,1380,21.0112,-2.43762
749,-356,22.1411,1.83276,0,0,0,0,0,0,0,-1,1973,1380,22.1411,-1.83275
756,-356,0,0,0,0,0,0,0,0,0,-1,1980,1380,0,0
763,-356,0,0,0,0,0,0,0,0,0,-1,1987,1380,0,0
770,-356,0,0,0,0,0,0,0,0,0,-1,1994,1380,0,0
777,-356,0,0,0,0,0,0,0,0,0,-1,2001,1380,0,0
784,-356,0,0,0,0,0,0,0,0,0,-1,2008,1380,0,0
791,-356,0,0,0,0,0,0,0,0,0,-1,2015,1380,0,0
798,-356,0,0,0,0,0,0,0,0,0,-1,2022,1380,0,0
805,-356,0,0,0,0,0,0,0,0,0,-1,2029,1380,0,0
812,-356,0,0,0,0,0,0,0,0,0,-1,2036,1380,0,0
-700,-363,0,0,0,0,0,0,0,0,0,-1,524,1387,0,0
-693,-363,0,0,0,0,0,0,0,0,0,-1,531,1387,0,0
-686,-363,0,0,0,0,0,0,0,0,0,-1,538,1387,0,0
-679,-363,0,0,0,0,0,0,0,0,0,-1,545,1387,0,0
-672,-363,0,0,0,0,0,0,0,0,0,-1,552,1387,0,0
-665,-363,0,0,0,0,0,0,0,0,0,-1,559,1387,0,0
-658,-363,0,0,0,0,0,0,0,0,0,-1,566,1387,0,0
-651,-363,0,0,0,0,0,0,0,0,0,-1,573,1387,0,0
-644,-363,0,0,0,0,0,0,0,0,0,-1,580,1387,0,0
-637,-363,0,0,0,0,0,0,0,0,0,-1,587,1387,0,0
-630,-363,0,0,0,0,0,0,0,0,0,-1,594,1387,0,0
-623,-363,-9.67566,-5.91846,0,0,0,0,0,0,0,-1,601,1387,-9.67563,5.91847
-616,-363,-9.02985,-2.98083,0,0,0,0,0,0,0,-1,608,1387,-9.02987,2.98079
-609,-363,-4.90265,0.195679,0,0,0,0,0,0,0,-1,615,1387,-4.90263,-0.195721
-602,-363,-9.65009,3.5321,0,0,0,0,0,0,0,-1,622,1387,-9.65007,-3.53211
-595,-363,-8.00256,3.48853,0,0,0,0,0,0,0,-1,629,1387,-8.00256,-3.48855
-588,-363,-10.8846,4.49768,0,0,0,0,0,0,0,-1,636,1387,-10.8846,-4.49773
-581,-363,-11.7469,5.15161,0,0,0,0,0,0,0,-1,643,1387,-11.747,-5.15167
-574,-363,-17.8334,8.33801,0,0,0,0,0,0,0,-1,650,1387,-17.8334,-8.33804
-567,-363,-27.4558,14.3737,0,0,0,0,0,0,0,-1,657,1387,-27.4558,-14.3737
-560,-363,-27.363,15.3046,0.00463766,0.00379451,0.00285182,0.0070989,0.00133327,0.712016,0.00435672,0.015324,664,1387,-27.363,-15.3046
-553,-363,-27.3873,16.1836,0.00405025,0.00272306,0.00229582,0.00577646,0.000996849,0.64471,0.00356545,0.0129296,671,1387,-27.3873,-16.1836
-546,-363,-27.4459,17.027,0.00373737,0.00186868,0.00190884,0.00492827,0.000677775,0.557799,0.00308451,0.0132714,678,1387,-27.4459,-17.027
-539,-363,-27.4733,17.8872,0.00368239,0.00119552,0.00167714,0.00452676,0.000351151,0.46641,0.00290787,0.0156772,685,1387,-27.4733,-17.8872
-532,-363,-27.5676,18.7661,0.00386338,0.000720325,0.00160329,0.0045369,4.68076e-05,0.397701,0.00300912,0.0143012,692,1387,-27.5676,-18.7661
-525,-363,-27.5989,19.6217,0.00425646,0.000392844,0.0016683,0.00487712,-0.000227816,0.356166,0.00332995,0.0129372,699,1387,-27.5989,-19.6217
-518,-363,-27.6035,20.4922,0.00485909,0.00025973,0.00188055,0.0055301,-0.000411282,0.342734,0.0038312,0.0116604,706,1387,-27.6035,-20.4922
-511,-363,-27.5061,21.379,0.00570878,0.000327248,0.00230464,0.00656084,-0.00052481,0.354128,0.00455891,0.0362111,713,1387,-27.5061,-21.379
-504,-363,-27.3276,22.3301,0,0,0,0,0,0,0,-1,720,1387,-27.3276,-22.33
-497,-363,-7.18842,7.29944,0,0,0,0,0,0,0,-1,727,1387,-7.18839,-7.29945
-490,-363,-5.42413,4.6958,0,0,0,0,0,0,0,-1,734,1387,-5.42412,-4.69583
-483,-363,-6.28375,4.1394,0,0,0,0,0,0,0,-1,741,1387,-6.28374,-4.13944
-476,-363,-5.83807,4.31018,0,0,0,0,0,0,0,-1,748,1387,-5.8381,-4.31013
-469,-363,-10.7125,0.697754,0,0,0,0,0,0,0,-1,755,1387,-10.7125,-0.697811
-462,-363,-9.55951,-0.0830078,0,0,0,0,0,0,0,-1,762,1387,-9.55949,0.0830163
-455,-363,-13.1008,-0.290894,0,0,0,0,0,0,0,-1,769,1387,-13.1008,0.290921
-448,-363,-11.7324,2.46606,0,0,0,0,0,0,0,-1,776,1387,-11.7324,-2.46605
-441,-363,-12.4464,2.5354,0,0,0,0,0,0,0,-1,783,1387,-12.4463,-2.53537
-434,-363,-13.6918,2.14661,0,0,0,0,0,0,0,-1,790,1387,-13.6918,-2.14662
-427,-363,0,0,0,0,0,0,0,0,0,-1,797,1387,0,0
-420,-363,0,0,0,0,0,0,0,0,0,-1,804,1387,0,0
-413,-363,0,0,0,0,0,0,0,0,0,-1,811,1387,0,0
-406,-363,0,0,0,0,0,0,0,0,0,-1,818,1387,0,0
-399,-363,0,0,0,0,0,0,0,0,0,-1,825,1387,0,0
-392,-363,0,0,0,0,0,0,0,0,0,-1,832,1387,0,0
-385,-363,0,0,0,0,0,0,0,0,0,-1,839,1387,0,0
-378,-363,0,0,0,0,0,0,0,0,0,-1,846,1387,0,0
-371,-363,0,0,0,0,0,0,0,0,0,-1,853,1387,0,0
-364,-363,0,0,0,0,0,0,0,0,0,-1,860,1387,0,0
-357,-363,0,0,0,0,0,0,0,0,0,-1,867,1387,0,0
-350,-363,0,0,0,0,0,0,0,0,0,-1,874,1387,0,0
-343,-363,0,0,0,0,0,0,0,0,0,-1,881,1387,0,0
-336,-363,0,0,0,0,0,0,0,0,0,-1,888,1387,0,0
-329,-363,0,0,0,0,0,0,0,0,0,-1,895,1387,0,0
-322,-363,0,0,0,0,0,0,0,0,0,-1,902,1387,0,0
-315,-363,0,0,0,0,0,0,0,0,0,-1,909,1387,0,0
-308,-363,0,0,0,0,0,0,0,0,0,-1,916,1387,0,0
-301,-363,0,0,0,0,0,0,0,0,0,-1,923,1387,0,0
-294,-363,0,0,0,0,0,0,0,0,0,-1,930,1387,0,0
-287,-363,0,0,0,0,0,0,0,0,0,-1,937,1387,0,0
-280,-363,0,0,0,0,0,0,0,0,0,-1,944,1387,0,0
-273,-363,0,0,0,0,0,0,0,0,0,-1,951,1387,0,0
-266,-363,0,0,0,0,0,0,0,0,0,-1,958,1387,0,0
-259,-363,0,0,0,0,0,0,0,0,0,-1,965,1387,0,0
-252,-363,0,0,0,0,0,0,0,0,0,-1,972,1387,0,0
-245,-363,0,0,0,0,0,0,0,0,0,-1,979,1387,0,0
-238,-363,0,0,0,0,0,0,0,0,0,-1,986,1387,0,0
-231,-363,0,0,0,0,0,0,0,0,0,-1,993,1387,0,0
-224,-363,0,0,0,0,0,0,0,0,0,-1,1000,1387,0,0
-217,-363,0,0,0,0,0,0,0,0,0,-1,1007,1387,0,0
-210,-363,0,0,0,0,0,0,0,0,0,-1,1014,1387,0,0
-203,-363,0,0,0,0,0,0,0,0,0,-1,1021,1387,0,0
-196,-363,0,0,0,0,0,0,0,0,0,-1,1028,1387,0,0
-189,-363,0,0,0,0,0,0,0,0,0,-1,1035,1387,0,0
-182,-363,0,0,0,0,0,0,0,0,0,-1,1042,1387,0,0
-175,-363,0,0,0,0,0,0,0,0,0,-1,1049,1387,0,0
-168,-363,0,0,0,0,0,0,0,0,0,-1,1056,1387,0,0
-161,-363,0,0,0,0,0,0,0,0,0,-1,1063,1387,0,0
-154,-363,0,0,0,0,0,0,0,0,0,-1,1070,1387,0,0
-147,-363,0,0,0,0,0,0,0,0,0,-1,1077,1387,0,0
-140,-363,0,0,0,0,0,0,0,0,0,-1,1084,1387,0,0
-133,-363,0,0,0,0,0,0,0,0,0,-1,1091,1387,0,0
-126,-363,0,0,0,0,0,0,0,0,0,-1,1098,1387,0,0
-119,-363,0,0,0,0,0,0,0,0,0,-1,1105,1387,0,0
-112,-363,0,0,0,0,0,0,0,0,0,-1,1112,1387,0,0
-105,-363,0,0,0,0,0,0,0,0,0,-1,1119,1387,0,0
-98,-363,0,0,0,0,0,0,0,0,0,-1,1126,1387,0,0
-91,-363,0,0,0,0,0,0,0,0,0,-1,1133,1387,0,0
-84,-363,0,0,0,0,0,0,0,0,0,-1,1140,1387,0,0
-77,-363,0,0,0,0,0,0,0,0,0,-1,1147,1387,0,0
-70,-363,0,0,0,0,0,0,0,0,0,-1,1154,1387,0,0
-63,-363,0,0,0,0,0,0,0,0,0,-1,1161,1387,0,0
-56,-363,0,0,0,0,0,0,0,0,0,-1,1168,1387,0,0
-49,-363,0,0,0,0,0,0,0,0,0,-1,1175,1387,0,0
-42,-363,0,0,0,0,0,0,0,0,0,-1,1182,1387,0,0
-35,-363,0,0,0,0,0,0,0,0,0,-1,1189,1387,0,0
-28,-363,0,0,0,0,0,0,0,0,0,-1,1196,1387,0,0
-21,-363,0,0,0,0,0,0,0,0,0,-1,1203,1387,0,0
-14,-363,0,0,0,0,0,0,0,0,0,-1,1210,1387,0,0
-7,-363,0,0,0,0,0,0,0,0,0,-1,1217,1387,0,0
0,-363,0,0,0,0,0,0,0,0,0,-1,1224,1387,0,0
7,-363,0,0,0,0,0,0,0,0,0,-1,1231,1387,0,0
14,-363,0,0,0,0,0,0,0,0,0,-1,1238,1387,0,0
21,-363,0,0,0,0,0,0,0,0,0,-1,1245,1387,0,0
28,-363,0,0,0,0,0,0,0,0,0,-1,1252,1387,0,0
35,-363,0,0,0,0,0,0,0,0,0,-1,1259,1387,0,0
42,-363,0,0,0,0,0,0,0,0,0,-1,1266,1387,0,0
49,-363,0,0,0,0,0,0,0,0,0,-1,1273,1387,0,0
56,-363,0,0,0,0,0,0,0,0,0,-1,1280,1387,0,0
63,-363,0,0,0,0,0,0,0,0,0,-1,1287,1387,0,0
70,-363,0,0,0,0,0,0,0,0,0,-1,1294,1387,0,0
77,-363,0,0,0,0,0,0,0,0,0,-1,1301,1387,0,0
84,-363,0,0,0,0,0,0,0,0,0,-1,1308,1387,0,0
91,-363,0,0,0,0,0,0,0,0,0,-1,1315,1387,0,0
98,-363,0,0,0,0,0,0,0,0,0,-1,1322,1387,0,0
105,-363,0,0,0,0,0,0,0,0,0,-1,1329,1387,0,0
112,-363,0,0,0,0,0,0,0,0,0,-1,1336,1387,0,0
119,-363,0,0,0,0,0,0,0,0,0,-1,1343,1387,0,0
126,-363,0,0,0,0,0,0,0,0,0,-1,1350,1387,0,0
133,-363,0,0,0,0,0,0,0,0,0,-1,1357,1387,0,0
140,-363,0,0,0,0,0,0,0,0,0,-1,1364,1387,0,0
147,-363,0,0,0,0,0,0,0,0,0,-1,1371,1387,0,0
154,-363,0,0,0,0,0,0,0,0,0,-1,1378,1387,0,0
161,-363,0,0,0,0,0,0,0,0,0,-1,1385,1387,0,0
168,-363,0,0,0,0,0,0,0,0,0,-1,1392,1387,0,0
175,-363,0,0,0,0,0,0,0,0,0,-1,1399,1387,0,0
182,-363,0,0,0,0,0,0,0,0,0,-1,1406,1387,0,0
189,-363,0,0,0,0,0,0,0,0,0,-1,1413,1387,0,0
196,-363,0,0,0,0,0,0,0,0,0,-1,1420,1387,0,0
203,-363,0,0,0,0,0,0,0,0,0,-1,1427,1387,0,0
210,-363,0,0,0,0,0,0,0,0,0,-1,1434,1387,0,0
217,-363,0,0,0,0,0,0,0,0,0,-1,1441,1387,0,0
224,-363,0,0,0,0,0,0,0,0,0,-1,1448,1387,0,0
231,-363,0,0,0,0,0,0,0,0,0,-1,1455,1387,0,0
238,-363,0,0,0,0,0,0,0,0,0,-1,1462,1387,0,0
245,-363,0,0,0,0,0,0,0,0,0,-1,1469,1387,0,0
252,-363,0,0,0,0,0,0,0,0,0,-1,1476,1387,0,0
259,-363,0,0,0,0,0,0,0,0,0,-1,1483,1387,0,0
266,-363,0,0,0,0,0,0,0,0,0,-1,1490,1387,0,0
273,-363,0,0,0,0,0,0,0,0,0,-1,1497,1387,0,0
280,-363,0,0,0,0,0,0,0,0,0,-1,1504,1387,0,0
287,-363,0,0,0,0,0,0,0,0,0,-1,1511,1387,0,0
294,-363,0,0,0,0,0,0,0,0,0,-1,1518,1387,0,0
301,-363,0,0,0,0,0,0,0,0,0,-1,1525,1387,0,0
308,-363,0,0,0,0,0,0,0,0,0,-1,1532,1387,0,0
315,-363,0,0,0,0,0,0,0,0,0,-1,1539,1387,0,0
322,-363,0,0,0,0,0,0,0,0,0,-1,1546,1387,0,0
329,-363,0,0,0,0,0,0,0,0,0,-1,1553,1387,0,0
336,-363,0,0,0,0,0,0,0,0,0,-1,1560,1387,0,0
343,-363,0,0,0,0,0,0,0,0,0,-1,1567,1387,0,0
350,-363,0,0,0,0,0,0,0,0,0,-1,1574,1387,0,0
357,-363,0,0,0,0,0,0,0,0,0,-1,1581,1387,0,0
364,-363,0,0,0,0,0,0,0,0,0,-1,1588,1387,0,0
371,-363,0,0,0,0,0,0,0,0,0,-1,1595,1387,0,0
378,-363,0,0,0,0,0,0,0,0,0,-1,1602,1387,0,0
385,-363,0,0,0,0,0,0,0,0,0,-1,1609,1387,0,0
392,-363,0,0,0,0,0,0,0,0,0,-1,1616,1387,0,0
399,-363,0,0,0,0,0,0,0,0,0,-1,1623,1387,0,0
406,-363,0,0,0,0,0,0,0,0,0,-1,1630,1387,0,0
413,-363,0,0,0,0,0,0,0,0,0,-1,1637,1387,0,0
420,-363,0,0,0,0,0,0,0,0,0,-1,1644,1387,0,0
427,-363,0,0,0,0,0,0,0,0,0,-1,1651,1387,0,0
434,-363,0,0,0,0,0,0,0,0,0,-1,1658,1387,0,0
441,-363,0,0,0,0,0,0,0,0,0,-1,1665,1387,0,0
448,-363,0,0,0,0,0,0,0,0,0,-1,1672,1387,0,0
455,-363,0,0,0,0,0,0,0,0,0,-1,1679,1387,0,0
462,-363,0,0,0,0,0,0,0,0,0,-1,1686,1387,0,0
469,-363,0,0,0,0,0,0,0,0,0,-1,1693,1387,0,0
476,-363,0,0,0,0,0,0,0,0,0,-1,1700,1387,0,0
483,-363,0,0,0,0,0,0,0,0,0,-1,1707,1387,0,0
490,-363,0,0,0,0,0,0,0,0,0,-1,1714,1387,0,0
497,-363,0,0,0,0,0,0,0,0,0,-1,1721,1387,0,0
504,-363,0,0,0,0,0,0,0,0,0,-1,1728,1387,0,0
511,-363,0,0,0,0,0,0,0,0,0,-1,1735,1387,0,0
518,-363,0,0,0,0,0,0,0,0,0,-1,1742,1387,0,0
525,-363,0,0,0,0,0,0,0,0,0,-1,1749,1387,0,0
532,-363,0,0,0,0,0,0,0,0,0,-1,1756,1387,0,0
539,-363,0,0,0,0,0,0,0,0,0,-1,1763,1387,0,0
546,-363,0,0,0,0,0,0,0,0,0,-1,1770,1387,0,0
553,-363,62.1395,3.42249,0,0,0,0,0,0,0,-1,1777,1387,62.1395,-3.42245
560,-363,63.2896,2.40808,0,0,0,0,0,0,0,-1,1784,1387,63.2896,-2.40811
567,-363,64.4463,1.38135,0,0,0,0,0,0,0,-1,1791,1387,64.4463,-1.38131
574,-363,45.7261,2.8075,0,0,0,0,0,0,0,-1,1798,1387,45.7261,-2.80754
581,-363,39.2413,1.97632,0,0,0,0,0,0,0,-1,1805,1387,39.2413,-1.97636
588,-363,32.5608,6.72131,0,0,0,0,0,0,0,-1,1812,1387,32.5608,-6.72131
595,-363,31.4688,6.95435,0,0,0,0,0,0,0,-1,1819,1387,31.4688,-6.95431
602,-363,25.7437,5.33667,0,0,0,0,0,0,0,-1,1826,1387,25.7437,-5.33667
609,-363,27.7048,7.06885,0,0,0,0,0,0,0,-1,1833,1387,27.7048,-7.06882
616,-363,16.229,1.08704,0,0,0,0,0,0,0,-1,1840,1387,16.229,-1.08706
623,-363,15.7283,7.16663,0,0,0,0,0,0,0,-1,1847,1387,15.7282,-7.16665
630,-363,18.3192,9.27844,0,0,0,0,0,0,0,-1,1854,1387,18.3192,-9.27843
637,-363,44.4946,22.2722,0,0,0,0,0,0,0,-1,1861,1387,44.4946,-22.2722
644,-363,44.4652,21.368,-0.00122053,0.000402971,-0.000206882,0.000428919,-0.00124648,-1.44602,0.00100495,0.0197433,1868,1387,44.4653,-21.3681
651,-363,44.4233,20.5085,-0.000687465,6.92381e-06,-1.67423e-05,7.32724e-06,-0.000687869,-1.5467,0.000461041,0.0118405,1875,1387,44.4233,-20.5086
658,-363,44.3794,19.6847,9.28584e-05,-4.63675e-05,-0.000112702,0.000155713,-0.000109222,-0.508742,0.000153744,0.0120311,1882,1387,44.3793,-19.6847
665,-363,44.3265,18.8754,0.000973751,2.35649e-06,-0.000391272,0.00111175,-0.000135641,-0.33907,0.00079027,0.0133317,1889,1387,44.3265,-18.8753
672,-363,44.2814,18.0493,0.00190642,0.000185221,-0.000792935,0.00221603,-0.000124383,-0.37225,0.00152051,0.0152477,1896,1387,44.2814,-18.0493
679,-363,44.24,17.2275,0.00291461,0.000480997,-0.00132992,0.00350038,-0.000104778,-0.414892,0.00236929,0.0149852,1903,1387,44.24,-17.2275
686,-363,44.2012,16.4183,0.00401623,0.000920435,-0.0020191,0.00501249,-7.58243e-05,-0.458369,0.00336722,0.0148095,1910,1387,44.2012,-16.4183
693,-363,44.1677,15.5658,0.00520361,0.0015268,-0.00285834,0.00676371,-3.33048e-05,-0.499618,0.00452028,0.0143554,1917,1387,44.1677,-15.5658
700,-363,44.3053,14.6167,0.00648655,0.00234982,-0.00394163,0.00886954,-3.31732e-05,-0.543773,0.00592412,0.0355867,1924,1387,44.3054,-14.6167
707,-363,44.6019,13.7157,0,0,0,0,0,0,0,-1,1931,1387,44.6019,-13.7157
714,-363,16.5782,5.3147,0,0,0,0,0,0,0,-1,1938,1387,16.5783,-5.31472
721,-363,14.4045,4.51685,0,0,0,0,0,0,0,-1,1945,1387,14.4045,-4.51685
728,-363,19.9756,0.853027,0,0,0,0,0,0,0,-1,1952,1387,19.9756,-0.853059
735,-363,21.4297,1.2981,0,0,0,0,0,0,0,-1,1959,1387,21.4297,-1.29811
742,-363,21.3621,2.79663,0,0,0,0,0,0,0,-1,1966,1387,21.362,-2.7966
749,-363,0,0,0,0,0,0,0,0,0,-1,1973,1387,0,0
756,-363,0,0,0,0,0,0,0,0,0,-1,1980,1387,0,0
763,-363,0,0,0,0,0,0,0,0,0,-1,1987,1387,0,0
770,-363,0,0,0,0,0,0,0,0,0,-1,1994,1387,0,0
777,-363,0,0,0,0,0,0,0,0,0,-1,2001,1387,0,0
784,-363,0,0,0,0,0,0,0,0,0,-1,2008,1387,0,0
791,-363,0,0,0,0,0,0,0,0,0,-1,2015,1387,0,0
798,-363,0,0,0,0,0,0,0,0,0,-1,2022,1387,0,0
805,-363,0,0,0,0,0,0,0,0,0,-1,2029,1387,0,0
812,-363,0,0,0,0,0,0,0,0,0,-1,2036,1387,0,0
-700,-370,0,0,0,0,0,0,0,0,0,-1,524,1394,0,0
-693,-370,0,0,0,0,0,0,0,0,0,-1,531,1394,0,0
-686,-370,0,0,0,0,0,0,0,0,0,-1,538,1394,0,0
-679,-370,0,0,0,0,0,0,0,0,0,-1,545,1394,0,0
-672,-370,0,0,0,0,0,0,0,0,0,-1,552,1394,0,0
-665,-370,0,0,0,0,0,0,0,0,0,-1,559,1394,0,0
-658,-370,0,0,0,0,0,0,0,0,0,-1,566,1394,0,0
-651,-370,0,0,0,0,0,0,0,0,0,-1,573,1394,0,0
-644,-370,0,0,0,0,0,0,0,0,0,-1,580,1394,0,0
-637,-370,0,0,0,0,0,0,0,0,0,-1,587,1394,0,0
-630,-370,0,0,0,0,0,0,0,0,0,-1,594,1394,0,0
-623,-370,-10.1758,-7.10486,0,0,0,0,0,0,0,-1,601,1394,-10.1758,7.10483
-616,-370,-8.85925,-1.61475,0,0,0,0,0,0,0,-1,608,1394,-8.85925,1.61476
-609,-370,-5.39325,0.0421143,0,0,0,0,0,0,0,-1,615,1394,-5.39328,-0.0421372
-602,-370,-12.3151,3.44592,0,0,0,0,0,0,0,-1,622,1394,-12.3151,-3.44595
-595,-370,-7.53284,5.44214,0,0,0,0,0,0,0,-1,629,1394,-7.53284,-5.44216
-588,-370,-11.2422,4.50598,0,0,0,0,0,0,0,-1,636,1394,-11.2422,-4.50596
-581,-370,-13.1575,5.84888,0,0,0,0,0,0,0,-1,643,1394,-13.1575,-5.84887
-574,-370,-13.0107,6.69861,0,0,0,0,0,0,0,-1,650,1394,-13.0108,-6.69866
-567,-370,-26.5498,14.2635,0,0,0,0,0,0,0,-1,657,1394,-26.5498,-14.2636
-560,-370,-26.602,15.2491,0.00509303,0.00429892,0.00332291,0.00804253,0.00134942,0.725935,0.00497328,0.0403926,664,1394,-26.602,-15.2492
-553,-370,-26.5455,16.2159,0.00436983,0.00310971,0.00260827,0.00642306,0.00105648,0.666887,0.00397693,0.011305,671,1394,-26.5455,-16.2159
-546,-370,-26.5607,17.079,0.00389467,0.00216568,0.00207838,0.00528117,0.000779175,0.58831,0.00329194,0.0151672,678,1394,-26.5607,-17.0789
-539,-370,-26.5791,17.9655,0.00364747,0.00142118,0.00171149,0.00457596,0.000492687,0.497072,0.0029004,0.0194833,685,1394,-26.5791,-17.9655
-532,-370,-26.6901,18.8335,0.00362123,0.00088976,0.00151343,0.00429405,0.000216945,0.418324,0.00279319,0.0232968,692,1394,-26.6901,-18.8335
-525,-370,-26.7385,19.6809,0.00378533,0.000525567,0.00146448,0.00434661,-3.57185e-05,0.365998,0.00290972,0.022244,699,1394,-26.7385,-19.6809
-518,-370,-26.733,20.5179,0.00411949,0.00034283,0.00156113,0.00468124,-0.000218923,0.345412,0.0031963,0.0159185,706,1394,-26.733,-20.518
-511,-370,-26.7464,21.3889,0.00466097,0.000366715,0.00184701,0.00534608,-0.000318398,0.355199,0.00367479,0.0165476,713,1394,-26.7464,-21.389
-504,-370,-26.7629,22.2772,0,0,0,0,0,0,0,-1,720,1394,-26.7629,-22.2772
-497,-370,-12.3546,11.7982,0,0,0,0,0,0,0,-1,727,1394,-12.3546,-11.7983
-490,-370,-5.30695,4.5271,0,0,0,0,0,0,0,-1,734,1394,-5.30698,-4.52704
-483,-370,-6.02997,4.59253,0,0,0,0,0,0,0,-1,741,1394,-6.02994,-4.5925
-476,-370,-6.75293,4.65796,0,0,0,0,0,0,0,-1,748,1394,-6.7529,-4.65795
-469,-370,-10.584,1.14294,0,0,0,0,0,0,0,-1,755,1394,-10.584,-1.14293
-462,-370,-9.54462,0.387207,0,0,0,0,0,0,0,-1,762,1394,-9.5446,-0.387176
-455,-370,-8.50525,-0.36853,0,0,0,0,0,0,0,-1,769,1394,-8.50523,0.368582
-448,-370,-10.9543,2.28833,0,0,0,0,0,0,0,-1,776,1394,-10.9543,-2.28835
-441,-370,-11.8699,1.8313,0,0,0,0,0,0,0,-1,783,1394,-11.8699,-1.83127
-434,-370,-12.7855,1.37415,0,0,0,0,0,0,0,-1,790,1394,-12.7855,-1.37419
-427,-370,0,0,0,0,0,0,0,0,0,-1,797,1394,0,0
-420,-370,0,0,0,0,0,0,0,0,0,-1,804,1394,0,0
-413,-370,0,0,0,0,0,0,0,0,0,-1,811,1394,0,0
-406,-370,0,0,0,0,0,0,0,0,0,-1,818,1394,0,0
-399,-370,0,0,0,0,0,0,0,0,0,-1,825,1394,0,0
-392,-370,0,0,0,0,0,0,0,0,0,-1,832,1394,0,0
-385,-370,0,0,0,0,0,0,0,0,0,-1,839,1394,0,0
-378,-370,0,0,0,0,0,0,0,0,0,-1,846,1394,0,0
-371,-370,0,0,0,0,0,0,0,0,0,-1,853,1394,0,0
-364,-370,0,0,0,0,0,0,0,0,0,-1,860,1394,0,0
-357,-370,0,0,0,0,0,0,0,0,0,-1,867,1394,0,0
-350,-370,0,0,0,0,0,0,0,0,0,-1,874,1394,0,0
-343,-370,0,0,0,0,0,0,0,0,0,-1,881,1394,0,0
-336,-370,0,0,0,0,0,0,0,0,0,-1,888,1394,0,0
-329,-370,0,0,0,0,0,0,0,0,0,-1,895,1394,0,0
-322,-370,0,0,0,0,0,0,0,0,0,-1,902,1394,0,0
-315,-370,0,0,0,0,0,0,0,0,0,-1,909,1394,0,0
-308,-370,0,0,0,0,0,0,0,0,0,-1,916,1394,0,0
-301,-370,0,0,0,0,0,0,0,0,0,-1,923,1394,0,0
-294,-370,0,0,0,0,0,0,0,0,0,-1,930,1394,0,0
-287,-370,0,0,0,0,0,0,0,0,0,-1,937,1394,0,0
-280,-370,0,0,0,0,0,0,0,0,0,-1,944,1394,0,0
-273,-370,0,0,0,0,0,0,0,0,0,-1,951,1394,0,0
-266,-370,0,0,0,0,0,0,0,0,0,-1,958,1394,0,0
-259,-370,0,0,0,0,0,0,0,0,0,-1,965,1394,0,0
-252,-370,0,0,0,0,0,0,0,0,0,-1,972,1394,0,0
-245,-370,0,0,0,0,0,0,0,0,0,-1,979,1394,0,0
-238,-370,0,0,0,0,0,0,0,0,0,-1,986,1394,0,0
-231,-370,0,0,0,0,0,0,0,0,0,-1,993,1394,0,0
-224,-370,0,0,0,0,0,0,0,0,0,-1,1000,1394,0,0
-217,-370,0,0,0,0,0,0,0,0,0,-1,1007,1394,0,0
-210,-370,0,0,0,0,0,0,0,0,0,-1,1014,1394,0,0
-203,-370,0,0,0,0,0,0,0,0,0,-1,1021,1394,0,0
-196,-370,0,0,0,0,0,0,0,0,0,-1,1028,1394,0,0
-189,-370,0,0,0,0,0,0,0,0,0,-1,1035,1394,0,0
-182,-370,0,0,0,0,0,0,0,0,0,-1,1042,1394,0,0
-175,-370,0,0,0,0,0,0,0,0,0,-1,1049,1394,0,0
-168,-370,0,0,0,0,0,0,0,0,0,-1,1056,1394,0,0
-161,-370,0,0,0,0,0,0,0,0,0,-1,1063,1394,0,0
-154,-370,0,0,0,0,0,0,0,0,0,-1,1070,1394,0,0
-147,-370,0,0,0,0,0,0,0,0,0,-1,1077,1394,0,0
-140,-370,0,0,0,0,0,0,0,0,0,-1,1084,1394,0,0
-133,-370,0,0,0,0,0,0,0,0,0,-1,1091,1394,0,0
-126,-370,0,0,0,0,0,0,0,0,0,-1,1098,1394,0,0
-119,-370,0,0,0,0,0,0,0,0,0,-1,1105,1394,0,0
-112,-370,0,0,0,0,0,0,0,0,0,-1,1112,1394,0,0
-105,-370,0,0,0,0,0,0,0,0,0,-1,1119,1394,0,0
-98,-370,0,0,0,0,0,0,0,0,0,-1,1126,1394,0,0
-91,-370,0,0,0,0,0,0,0,0,0,-1,1133,1394,0,0
-84,-370,0,0,0,0,0,0,0,0,0,-1,1140,1394,0,0
-77,-370,0,0,0,0,0,0,0,0,0,-1,1147,1394,0,0
-70,-370,0,0,0,0,0,0,0,0,0,-1,1154,1394,0,0
-63,-370,0,0,0,0,0,0,0,0,0,-1,1161,1394,0,0
-56,-370,0,0,0,0,0,0,0,0,0,-1,1168,1394,0,0
-49,-370,0,0,0,0,0,0,0,0,0,-1,1175,1394,0,0
-42,-370,0,0,0,0,0,0,0,0,0,-1,1182,1394,0,0
-35,-370,0,0,0,0,0,0,0,0,0,-1,1189,1394,0,0
-28,-370,0,0,0,0,0,0,0,0,0,-1,1196,1394,0,0
-21,-370,0,0,0,0,0,0,0,0,0,-1,1203,1394,0,0
-14,-370,0,0,0,0,0,0,0,0,0,-1,1210,1394,0,0
-7,-370,0,0,0,0,0,0,0,0,0,-1,1217,1394,0,0
0,-370,0,0,0,0,0,0,0,0,0,-1,1224,1394,0,0
7,-370,0,0,0,0,0,0,0,0,0,-1,1231,1394,0,0
14,-370,0,0,0,0,0,0,0,0,0,-1,1238,1394,0,0
21,-370,0,0,0,0,0,0,0,0,0,-1,1245,1394,0,0
28,-370,0,0,0,0,0,0,0,0,0,-1,1252,1394,0,0
35,-370,0,0,0,0,0,0,0,0,0,-1,1259,1394,0,0
42,-370,0,0,0,0,0,0,0,0,0,-1,1266,1394,0,0
49,-370,0,0,0,0,0,0,0,0,0,-1,1273,1394,0,0
56,-370,0,0,0,0,0,0,0,0,0,-1,1280,1394,0,0
63,-370,0,0,0,0,0,0,0,0,0,-1,1287,1394,0,0
70,-370,0,0,0,0,0,0,0,0,0,-1,1294,1394,0,0
77,-370,0,0,0,0,0,0,0,0,0,-1,1301,1394,0,0
84,-370,0,0,0,0,0,0,0,0,0,-1,1308,1394,0,0
91,-370,0,0,0,0,0,0,0,0,0,-1,1315,1394,0,0
98,-370,0,0,0,0,0,0,0,0,0,-1,1322,1394,0,0
105,-370,0,0,0,0,0,0,0,0,0,-1,1329,1394,0,0
112,-370,0,0,0,0,0,0,0,0,0,-1,1336,1394,0,0
119,-370,0,0,0,0,0,0,0,0,0,-1,1343,1394,0,0
126,-370,0,0,0,0,0,0,0,0,0,-1,1350,1394,0,0
133,-370,0,0,0,0,0,0,0,0,0,-1,1357,1394,0,0
140,-370,0,0,0,0,0,0,0,0,0,-1,1364,1394,0,0
147,-370,0,0,0,0,0,0,0,0,0,-1,1371,1394,0,0
154,-370,0,0,0,0,0,0,0,0,0,-1,1378,1394,0,0
161,-370,0,0,0,0,0,0,0,0,0,-1,1385,1394,0,0
168,-370,0,0,0,0,0,0,0,0,0,-1,1392,1394,0,0
175,-370,0,0,0,0,0,0,0,0,0,-1,1399,1394,0,0
182,-370,0,0,0,0,0,0,0,0,0,-1,1406,1394,0,0
189,-370,0,0,0,0,0,0,0,0,0,-1,1413,1394,0,0
196,-370,0,0,0,0,0,0,0,0,0,-1,1420,1394,0,0
203,-370,0,0,0,0,0,0,0,0,0,-1,1427,1394,0,0
210,-370,0,0,0,0,0,0,0,0,0,-1,1434,1394,0,0
217,-370,0,0,0,0,0,0,0,0,0,-1,1441,1394,0,0
224,-370,0,0,0,0,0,0,0,0,0,-1,1448,1394,0,0
231,-370,0,0,0,0,0,0,0,0,0,-1,1455,1394,0,0
238,-370,0,0,0,0,0,0,0,0,0,-1,1462,1394,0,0
245,-370,0,0,0,0,0,0,0,0,0,-1,1469,1394,0,0
252,-370,0,0,0,0,0,0,0,0,0,-1,1476,1394,0,0
259,-370,0,0,0,0,0,0,0,0,0,-1,1483,1394,0,0
266,-370,0,0,0,0,0,0,0,0,0,-1,1490,1394,0,0
273,-370,0,0,0,0,0,0,0,0,0,-1,1497,1394,0,0
280,-370,0,0,0,0,0,0,0,0,0,-1,1504,1394,0,0
287,-370,0,0,0,0,0,0,0,0,0,-1,1511,1394,0,0
294,-370,0,0,0,0,0,0,0,0,0,-1,1518,1394,0,0
301,-370,0,0,0,0,0,0,0,0,0,-1,1525,1394,0,0
308,-370,0,0,0,0,0,0,0,0,0,-1,1532,1394,0,0
315,-370,0,0,0,0,0,0,0,0,0,-1,1539,1394,0,0
322,-370,0,0,0,0,0,0,0,0,0,-1,1546,1394,0,0
329,-370,0,0,0,0,0,0,0,0,0,-1,1553,1394,0,0
336,-370,0,0,0,0,0,0,0,0,0,-1,1560,1394,0,0
343,-370,0,0,0,0,0,0,0,0,0,-1,1567,1394,0,0
350,-370,0,0,0,0,0,0,0,0,0,-1,1574,1394,0,0
357,-370,0,0,0,0,0,0,0,0,0,-1,1581,1394,0,0
364,-370,0,0,0,0,0,0,0,0,0,-1,1588,1394,0,0
371,-370,0,0,0,0,0,0,0,0,0,-1,1595,1394,0,0
378,-370,0,0,0,0,0,0,0,0,0,-1,1602,1394,0,0
385,-370,0,0,0,0,0,0,0,0,0,-1,1609,1394,0,0
392,-370,0,0,0,0,0,0,0,0,0,-1,1616,1394,0,0
399,-370,0,0,0,0,0,0,0,0,0,-1,1623,1394,0,0
406,-370,0,0,0,0,0,0,0,0,0,-1,1630,1394,0,0
413,-370,0,0,0,0,0,0,0,0,0,-1,1637,1394,0,0
420,-370,0,0,0,0,0,0,0,0,0,-1,1644,1394,0,0
427,-370,0,0,0,0,0,0,0,0,0,-1,1651,1394,0,0
434,-370,0,0,0,0,0,0,0,0,0,-1,1658,1394,0,0
441,-370,0,0,0,0,0,0,0,0,0,-1,1665,1394,0,0
448,-370,0,0,0,0,0,0,0,0,0,-1,1672,1394,0,0
455,-370,0,0,0,0,0,0,0,0,0,-1,1679,1394,0,0
462,-370,0,0,0,0,0,0,0,0,0,-1,1686,1394,0,0
469,-370,0,0,0,0,0,0,0,0,0,-1,1693,1394,0,0
476,-370,0,0,0,0,0,0,0,0,0,-1,1700,1394,0,0
483,-370,0,0,0,0,0,0,0,0,0,-1,1707,1394,0,0
490,-370,0,0,0,0,0,0,0,0,0,-1,1714,1394,0,0
497,-370,0,0,0,0,0,0,0,0,0,-1,1721,1394,0,0
504,-370,0,0,0,0,0,0,0,0,0,-1,1728,1394,0,0
511,-370,0,0,0,0,0,0,0,0,0,-1,1735,1394,0,0
518,-370,0,0,0,0,0,0,0,0,0,-1,1742,1394,0,0
525,-370,0,0,0,0,0,0,0,0,0,-1,1749,1394,0,0
532,-370,0,0,0,0,0,0,0,0,0,-1,1756,1394,0,0
539,-370,0,0,0,0,0,0,0,0,0,-1,1763,1394,0,0
546,-370,60.9257,3.80493,0,0,0,0,0,0,0,-1,1770,1394,60.9256,-3.80494
553,-370,61.9966,2.87524,0,0,0,0,0,0,0,-1,1777,1394,61.9966,-2.8753
560,-370,63.1577,1.82617,0,0,0,0,0,0,0,-1,1784,1394,63.1578,-1.82617
567,-370,46.1089,3.11719,0,0,0,0,0,0,0,-1,1791,1394,46.1089,-3.1172
574,-370,38.8953,1.49353,0,0,0,0,0,0,0,-1,1798,1394,38.8952,-1.49348
581,-370,39.178,2.86145,0,0,0,0,0,0,0,-1,1805,1394,39.1779,-2.86145
588,-370,39.2102,4.27661,0,0,0,0,0,0,0,-1,1812,1394,39.2102,-4.27657
595,-370,25.793,4.5271,0,0,0,0,0,0,0,-1,1819,1394,25.793,-4.52711
602,-370,25.1077,5.34937,0,0,0,0,0,0,0,-1,1826,1394,25.1077,-5.34932
609,-370,16.712,0.993286,0,0,0,0,0,0,0,-1,1833,1394,16.7121,-0.99323
616,-370,16.7764,7.23315,0,0,0,0,0,0,0,-1,1840,1394,16.7764,-7.23313
623,-370,17.6625,8.94263,0,0,0,0,0,0,0,-1,1847,1394,17.6624,-8.94258
630,-370,20.9681,11.1785,0,0,0,0,0,0,0,-1,1854,1394,20.9681,-11.1784
637,-370,43.7104,22.2548,0,0,0,0,0,0,0,-1,1861,1394,43.7104,-22.2547
644,-370,43.686,21.3981,-0.0011433,0.000141862,5.91936e-05,0.000144583,-0.00114602,1.52487,0.000816485,0.0152593,1868,1394,43.686,-21.3981
651,-370,43.6235,20.5624,-0.000511448,-0.000107074,8.27138e-05,-9.08089e-05,-0.000527713,1.37664,0.000325785,0.0134613,1875,1394,43.6235,-20.5624
658,-370,43.564,19.7583,0.000340583,-0.000106181,-0.000125943,0.000373641,-0.000139238,-0.256688,0.000306246,0.0129282,1882,1394,43.564,-19.7584
665,-370,43.5188,18.9364,0.00129653,7.01776e-06,-0.00049469,0.00146444,-0.000160894,-0.327226,0.0010341,0.0143666,1889,1394,43.5187,-18.9364
672,-370,43.4565,18.1011,0.0023369,0.000235251,-0.000994326,0.00273277,-0.000160616,-0.37889,0.00187767,0.0150469,1896,1394,43.4566,-18.101
679,-370,43.4208,17.26,0.00348018,0.000579334,-0.00164285,0.00422126,-0.000161744,-0.423763,0.00286961,0.0139205,1903,1394,43.4207,-17.26
686,-370,43.3755,16.463,0.00475158,0.0010682,-0.00247023,0.0059911,-0.000171324,-0.465073,0.00405238,0.0140184,1910,1394,43.3755,-16.4631
693,-370,43.3394,15.5969,0.0061345,0.00174654,-0.00348176,0.00805588,-0.000174835,-0.504256,0.0054298,0.0157125,1917,1394,43.3393,-15.5969
700,-370,43.4161,14.676,0,0,0,0,0,0,0,-1,1924,1394,43.4162,-14.6761
707,-370,39.2391,11.5549,0,0,0,0,0,0,0,-1,1931,1394,39.2392,-11.555
714,-370,16.9116,5.93018,0,0,0,0,0,0,0,-1,1938,1394,16.9116,-5.93014
721,-370,17.2007,4.69153,0,0,0,0,0,0,0,-1,1945,1394,17.2007,-4.69158
728,-370,20.5315,-0.313354,0,0,0,0,0,0,0,-1,1952,1394,20.5315,0.313332
735,-370,22.3652,0.233398,0,0,0,0,0,0,0,-1,1959,1394,22.3652,-0.233355
742,-370,24.1989,0.780029,0,0,0,0,0,0,0,-1,1966,1394,24.1989,-0.780041
749,-370,0,0,0,0,0,0,0,0,0,-1,1973,1394,0,0
756,-370,0,0,0,0,0,0,0,0,0,-1,1980,1394,0,0
763,-370,0,0,0,0,0,0,0,0,0,-1,1987,1394,0,0
770,-370,0,0,0,0,0,0,0,0,0,-1,1994,1394,0,0
777,-370,0,0,0,0,0,0,0,0,0,-1,2001,1394,0,0
784,-370,0,0,0,0,0,0,0,0,0,-1,2008,1394,0,0
791,-370,0,0,0,0,0,0,0,0,0,-1,2015,1394,0,0
798,-370,0,0,0,0,0,0,0,0,0,-1,2022,1394,0,0
805,-370,0,0,0,0,0,0,0,0,0,-1,2029,1394,0,0
812,-370,0,0,0,0,0,0,0,0,0,-1,2036,1394,0,0
-700,-377,0,0,0,0,0,0,0,0,0,-1,524,1401,0,0
-693,-377,0,0,0,0,0,0,0,0,0,-1,531,1401,0,0
-686,-377,0,0,0,0,0,0,0,0,0,-1,538,1401,0,0
-679,-377,0,0,0,0,0,0,0,0,0,-1,545,1401,0,0
-672,-377,0,0,0,0,0,0,0,0,0,-1,552,1401,0,0
-665,-377,0,0,0,0,0,0,0,0,0,-1,559,1401,0,0
-658,-377,0,0,0,0,0,0,0,0,0,-1,566,1401,0,0
-651,-377,0,0,0,0,0,0,0,0,0,-1,573,1401,0,0
-644,-377,0,0,0,0,0,0,0,0,0,-1,580,1401,0,0
-637,-377,0,0,0,0,0,0,0,0,0,-1,587,1401,0,0
-630,-377,0,0,0,0,0,0,0,0,0,-1,594,1401,0,0
-623,-377,0,0,0,0,0,0,0,0,0,-1,601,1401,0,0
-616,-377,-9.43915,-2.4906,0,0,0,0,0,0,0,-1,608,1401,-9.43915,2.49062
-609,-377,-7.2821,-1.35278,0,0,0,0,0,0,0,-1,615,1401,-7.28208,1.35279
-602,-377,-14.9736,3.98279,0,0,0,0,0,0,0,-1,622,1401,-14.9737,-3.98276
-595,-377,-6.9082,1.18201,0,0,0,0,0,0,0,-1,629,1401,-6.90822,-1.18204
-588,-377,-12.8003,3.44751,0,0,0,0,0,0,0,-1,636,1401,-12.8003,-3.44754
-581,-377,-11.8243,6.21521,0,0,0,0,0,0,0,-1,643,1401,-11.8244,-6.21519
-574,-377,-12.2761,6.60547,0,0,0,0,0,0,0,-1,650,1401,-12.2761,-6.60552
-567,-377,-13.4844,7.41931,0,0,0,0,0,0,0,-1,657,1401,-13.4845,-7.41926
-560,-377,-25.8726,15.168,0,0,0,0,0,0,0,-1,664,1401,-25.8726,-15.1679
-553,-377,-25.6948,16.2091,0.00491835,0.00361011,0.00306867,0.00740184,0.00112662,0.68039,0.00460518,0.0199261,671,1401,-25.6948,-16.2091
-546,-377,-25.7312,17.1907,0.00422004,0.00254915,0.00238553,0.00591219,0.000857002,0.616965,0.00368912,0.0174534,678,1401,-25.7312,-17.1907
-539,-377,-25.7455,17.981,0.00374196,0.0017152,0.0018783,0.00486281,0.000594349,0.538018,0.00306304,0.0223759,685,1401,-25.7455,-17.9809
-532,-377,-25.8275,18.8124,0.00348253,0.00109858,0.00154613,0.00424282,0.000338295,0.457013,0.00272279,0.0215213,692,1401,-25.8274,-18.8124
-525,-377,-25.8342,19.7144,0.00341233,0.000675688,0.00137417,0.00398325,0.000104771,0.393765,0.00262127,0.0272319,699,1401,-25.8342,-19.7143
-518,-377,-25.8878,20.5736,0.00349739,0.000409593,0.00134389,0.00400036,-9.3377e-05,0.358125,0.00269857,0.0180598,706,1401,-25.8878,-20.5736
-511,-377,-25.9252,21.4354,0.00376289,0.000341125,0.00147676,0.00431208,-0.000208068,0.356041,0.00294653,0.012804,713,1401,-25.9252,-21.4355
-504,-377,-25.9821,22.3218,0.00424398,0.000513896,0.00183179,0.0049931,-0.000235221,0.388201,0.00340984,0.0163342,720,1401,-25.9821,-22.3218
-497,-377,-26.0104,23.1836,0,0,0,0,0,0,0,-1,727,1401,-26.0104,-23.1836
-490,-377,-8.88409,10.1245,0,0,0,0,0,0,0,-1,734,1401,-8.8841,-10.1245
-483,-377,-5.6524,5.07324,0,0,0,0,0,0,0,-1,741,1401,-5.6524,-5.07325
-476,-377,-6.11682,5.10535,0,0,0,0,0,0,0,-1,748,1401,-6.11681,-5.10537
-469,-377,-10.3211,1.9281,0,0,0,0,0,0,0,-1,755,1401,-10.3211,-1.92808
-462,-377,-9.2204,1.0022,0,0,0,0,0,0,0,-1,762,1401,-9.22039,-1.00218
-455,-377,-8.11969,0.0762939,0,0,0,0,0,0,0,-1,769,1401,-8.11968,-0.0762759
-448,-377,-9.05334,0.877319,0,0,0,0,0,0,0,-1,776,1401,-9.05332,-0.877324
-441,-377,-11.212,0.763428,0,0,0,0,0,0,0,-1,783,1401,-11.212,-0.763415
-434,-377,-11.0984,0.996216,0,0,0,0,0,0,0,-1,790,1401,-11.0984,-0.996265
-427,-377,-11.1733,1.25732,0,0,0,0,0,0,0,-1,797,1401,-11.1733,-1.25732
-420,-377,0,0,0,0,0,0,0,0,0,-1,804,1401,0,0
-413,-377,0,0,0,0,0,0,0,0,0,-1,811,1401,0,0
-406,-377,0,0,0,0,0,0,0,0,0,-1,818,1401,0,0
-399,-377,0,0,0,0,0,0,0,0,0,-1,825,1401,0,0
-392,-377,0,0,0,0,0,0,0,0,0,-1,832,1401,0,0
-385,-377,0,0,0,0,0,0,0,0,0,-1,839,1401,0,0
-378,-377,0,0,0,0,0,0,0,0,0,-1,846,1401,0,0
-371,-377,0,0,0,0,0,0,0,0,0,-1,853,1401,0,0
-364,-377,0,0,0,0,0,0,0,0,0,-1,860,1401,0,0
-357,-377,0,0,0,0,0,0,0,0,0,-1,867,1401,0,0
-350,-377,0,0,0,0,0,0,0,0,0,-1,874,1401,0,0
-343,-377,0,0,0,0,0,0,0,0,0,-1,881,1401,0,0
-336,-377,0,0,0,0,0,0,0,0,0,-1,888,1401,0,0
-329,-377,0,0,0,0,0,0,0,0,0,-1,895,1401,0,0
-322,-377,0,0,0,0,0,0,0,0,0,-1,902,1401,0,0
-315,-377,0,0,0,0,0,0,0,0,0,-1,909,1401,0,0
-308,-377,0,0,0,0,0,0,0,0,0,-1,916,1401,0,0
-301,-377,0,0,0,0,0,0,0,0,0,-1,923,1401,0,0
-294,-377,0,0,0,0,0,0,0,0,0,-1,930,1401,0,0
-287,-377,0,0,0,0,0,0,0,0,0,-1,937,1401,0,0
-280,-377,0,0,0,0,0,0,0,0,0,-1,944,1401,0,0
-273,-377,0,0,0,0,0,0,0,0,0,-1,951,1401,0,0
-266,-377,0,0,0,0,0,0,0,0,0,-1,958,1401,0,0
-259,-377,0,0,0,0,0,0,0,0,0,-1,965,1401,0,0
-252,-377,0,0,0,0,0,0,0,0,0,-1,972,1401,0,0
-245,-377,0,0,0,0,0,0,0,0,0,-1,979,1401,0,0
-238,-377,0,0,0,0,0,0,0,0,0,-1,986,1401,0,0
-231,-377,0,0,0,0,0,0,0,0,0,-1,993,1401,0,0
-224,-377,0,0,0,0,0,0,0,0,0,-1,1000,1401,0,0
-217,-377,0,0,0,0,0,0,0,0,0,-1,1007,1401,0,0
-210,-377,0,0,0,0,0,0,0,0,0,-1,1014,1401,0,0
-203,-377,0,0,0,0,0,0,0,0,0,-1,1021,1401,0,0
-196,-377,0,0,0,0,0,0,0,0,0,-1,1028,1401,0,0
-189,-377,0,0,0,0,0,0,0,0,0,-1,1035,1401,0,0
-182,-377,0,0,0,0,0,0,0,0,0,-1,1042,1401,0,0
-175,-377,0,0,0,0,0,0,0,0,0,-1,1049,1401,0,0
-168,-377,0,0,0,0,0,0,0,0,0,-1,1056,1401,0,0
-161,-377,0,0,0,0,0,0,0,0,0,-1,1063,1401,0,0
-154,-377,0,0,0,0,0,0,0,0,0,-1,1070,1401,0,0
-147,-377,0,0,0,0,0,0,0,0,0,-1,1077,1401,0,0
-140,-377,0,0,0,0,0,0,0,0,0,-1,1084,1401,0,0
-133,-377,0,0,0,0,0,0,0,0,0,-1,1091,1401,0,0
-126,-377,0,0,0,0,0,0,0,0,0,-1,1098,1401,0,0
-119,-377,0,0,0,0,0,0,0,0,0,-1,1105,1401,0,0
-112,-377,0,0,0,0,0,0,0,0,0,-1,1112,1401,0,0
-105,-377,0,0,0,0,0,0,0,0,0,-1,1119,1401,0,0
-98,-377,0,0,0,0,0,0,0,0,0,-1,1126,1401,0,0
-91,-377,0,0,0,0,0,0,0,0,0,-1,1133,1401,0,0
-84,-377,0,0,0,0,0,0,0,0,0,-1,1140,1401,0,0
-77,-377,0,0,0,0,0,0,0,0,0,-1,1147,1401,0,0
-70,-377,0,0,0,0,0,0,0,0,0,-1,1154,1401,0,0
-63,-377,0,0,0,0,0,0,0,0,0,-1,1161,1401,0,0
-56,-377,0,0,0,0,0,0,0,0,0,-1,1168,1401,0,0
-49,-377,0,0,0,0,0,0,0,0,0,-1,1175,1401,0,0
-42,-377,0,0,0,0,0,0,0,0,0,-1,1182,1401,0,0
-35,-377,0,0,0,0,0,0,0,0,0,-1,1189,1401,0,0
-28,-377,0,0,0,0,0,0,0,0,0,-1,1196,1401,0,0
-21,-377,0,0,0,0,0,0,0,0,0,-1,1203,1401,0,0
-14,-377,0,0,0,0,0,0,0,0,0,-1,1210,1401,0,0
-7,-377,0,0,0,0,0,0,0,0,0,-1,1217,1401,0,0
0,-377,0,0,0,0,0,0,0,0,0,-1,1224,1401,0,0
7,-377,0,0,0,0,0,0,0,0,0,-1,1231,1401,0,0
14,-377,0,0,0,0,0,0,0,0,0,-1,1238,1401,0,0
21,-377,0,0,0,0,0,0,0,0,0,-1,1245,1401,0,0
28,-377,0,0,0,0,0,0,0,0,0,-1,1252,1401,0,0
35,-377,0,0,0,0,0,0,0,0,0,-1,1259,1401,0,0
42,-377,0,0,0,0,0,0,0,0,0,-1,1266,1401,0,0
49,-377,0,0,0,0,0,0,0,0,0,-1,1273,1401,0,0
56,-377,0,0,0,0,0,0,0,0,0,-1,1280,1401,0,0
63,-377,0,0,0,0,0,0,0,0,0,-1,1287,1401,0,0
70,-377,0,0,0,0,0,0,0,0,0,-1,1294,1401,0,0
77,-377,0,0,0,0,0,0,0,0,0,-1,1301,1401,0,0
84,-377,0,0,0,0,0,0,0,0,0,-1,1308,1401,0,0
91,-377,0,0,0,0,0,0,0,0,0,-1,1315,1401,0,0
98,-377,0,0,0,0,0,0,0,0,0,-1,1322,1401,0,0
105,-377,0,0,0,0,0,0,0,0,0,-1,1329,1401,0,0
112,-377,0,0,0,0,0,0,0,0,0,-1,1336,1401,0,0
119,-377,0,0,0,0,0,0,0,0,0,-1,1343,1401,0,0
126,-377,0,0,0,0,0,0,0,0,0,-1,1350,1401,0,0
133,-377,0,0,0,0,0,0,0,0,0,-1,1357,1401,0,0
140,-377,0,0,0,0,0,0,0,0,0,-1,1364,1401,0,0
147,-377,0,0,0,0,0,0,0,0,0,-1,1371,1401,0,0
154,-377,0,0,0,0,0,0,0,0,0,-1,1378,1401,0,0
161,-377,0,0,0,0,0,0,0,0,0,-1,1385,1401,0,0
168,-377,0,0,0,0,0,0,0,0,0,-1,1392,1401,0,0
175,-377,0,0,0,0,0,0,0,0,0,-1,1399,1401,0,0
182,-377,0,0,0,0,0,0,0,0,0,-1,1406,1401,0,0
189,-377,0,0,0,0,0,0,0,0,0,-1,1413,1401,0,0
196,-377,0,0,0,0,0,0,0,0,0,-1,1420,1401,0,0
203,-377,0,0,0,0,0,0,0,0,0,-1,1427,1401,0,0
210,-377,0,0,0,0,0,0,0,0,0,-1,1434,1401,0,0
217,-377,0,0,0,0,0,0,0,0,0,-1,1441,1401,0,0
224,-377,0,0,0,0,0,0,0,0,0,-1,1448,1401,0,0
231,-377,0,0,0,0,0,0,0,0,0,-1,1455,1401,0,0
238,-377,0,0,0,0,0,0,0,0,0,-1,1462,1401,0,0
245,-377,0,0,0,0,0,0,0,0,0,-1,1469,1401,0,0
252,-377,0,0,0,0,0,0,0,0,0,-1,1476,1401,0,0
259,-377,0,0,0,0,0,0,0,0,0,-1,1483,1401,0,0
266,-377,0,0,0,0,0,0,0,0,0,-1,1490,1401,0,0
273,-377,0,0,0,0,0,0,0,0,0,-1,1497,1401,0,0
280,-377,0,0,0,0,0,0,0,0,0,-1,1504,1401,0,0
287,-377,0,0,0,0,0,0,0,0,0,-1,1511,1401,0,0
294,-377,0,0,0,0,0,0,0,0,0,-1,1518,1401,0,0
301,-377,0,0,0,0,0,0,0,0,0,-1,1525,1401,0,0
308,-377,0,0,0,0,0,0,0,0,0,-1,1532,1401,0,0
315,-377,0,0,0,0,0,0,0,0,0,-1,1539,1401,0,0
322,-377,0,0,0,0,0,0,0,0,0,-1,1546,1401,0,0
329,-377,0,0,0,0,0,0,0,0,0,-1,1553,1401,0,0
336,-377,0,0,0,0,0,0,0,0,0,-1,1560,1401,0,0
343,-377,0,0,0,0,0,0,0,0,0,-1,1567,1401,0,0
350,-377,0,0,0,0,0,0,0,0,0,-1,1574,1401,0,0
357,-377,0,0,0,0,0,0,0,0,0,-1,1581,1401,0,0
364,-377,0,0,0,0,0,0,0,0,0,-1,1588,1401,0,0
371,-377,0,0,0,0,0,0,0,0,0,-1,1595,1401,0,0
378,-377,0,0,0,0,0,0,0,0,0,-1,1602,1401,0,0
385,-377,0,0,0,0,0,0,0,0,0,-1,1609,1401,0,0
392,-377,0,0,0,0,0,0,0,0,0,-1,1616,1401,0,0
399,-377,0,0,0,0,0,0,0,0,0,-1,1623,1401,0,0
406,-377,0,0,0,0,0,0,0,0,0,-1,1630,1401,0,0
413,-377,0,0,0,0,0,0,0,0,0,-1,1637,1401,0,0
420,-377,0,0,0,0,0,0,0,0,0,-1,1644,1401,0,0
427,-377,0,0,0,0,0,0,0,0,0,-1,1651,1401,0,0
434,-377,0,0,0,0,0,0,0,0,0,-1,1658,1401,0,0
441,-377,0,0,0,0,0,0,0,0,0,-1,1665,1401,0,0
448,-377,0,0,0,0,0,0,0,0,0,-1,1672,1401,0,0
455,-377,0,0,0,0,0,0,0,0,0,-1,1679,1401,0,0
462,-377,0,0,0,0,0,0,0,0,0,-1,1686,1401,0,0
469,-377,0,0,0,0,0,0,0,0,0,-1,1693,1401,0,0
476,-377,0,0,0,0,0,0,0,0,0,-1,1700,1401,0,0
483,-377,0,0,0,0,0,0,0,0,0,-1,1707,1401,0,0
490,-377,0,0,0,0,0,0,0,0,0,-1,1714,1401,0,0
497,-377,0,0,0,0,0,0,0,0,0,-1,1721,1401,0,0
504,-377,0,0,0,0,0,0,0,0,0,-1,1728,1401,0,0
511,-377,0,0,0,0,0,0,0,0,0,-1,1735,1401,0,0
518,-377,0,0,0,0,0,0,0,0,0,-1,1742,1401,0,0
525,-377,0,0,0,0,0,0,0,0,0,-1,1749,1401,0,0
532,-377,0,0,0,0,0,0,0,0,0,-1,1756,1401,0,0
539,-377,0,0,0,0,0,0,0,0,0,-1,1763,1401,0,0
546,-377,27.8485,2.34094,0,0,0,0,0,0,0,-1,1770,1401,27.8486,-2.34091
553,-377,61.8907,2.39148,0,0,0,0,0,0,0,-1,1777,1401,61.8908,-2.39149
560,-377,38.3577,-2.15015,0,0,0,0,0,0,0,-1,1784,1401,38.3576,2.1501
567,-377,38.4889,-0.285645,0,0,0,0,0,0,0,-1,1791,1401,38.4889,0.2857
574,-377,38.6221,1.61694,0,0,0,0,0,0,0,-1,1798,1401,38.6221,-1.61689
581,-377,39.1818,3.76367,0,0,0,0,0,0,0,-1,1805,1401,39.1818,-3.76366
588,-377,25.882,4.35217,0,0,0,0,0,0,0,-1,1812,1401,25.8819,-4.3522
595,-377,25.5392,5.11804,0,0,0,0,0,0,0,-1,1819,1401,25.5392,-5.11808
602,-377,24.816,5.79126,0,0,0,0,0,0,0,-1,1826,1401,24.816,-5.79124
609,-377,15.0223,4.76135,0,0,0,0,0,0,0,-1,1833,1401,15.0224,-4.76129
616,-377,14.1842,5.78992,0,0,0,0,0,0,0,-1,1840,1401,14.1842,-5.78987
623,-377,15.8248,8.76721,0,0,0,0,0,0,0,-1,1847,1401,15.8248,-8.76725
630,-377,37.4343,20.0704,0,0,0,0,0,0,0,-1,1854,1401,37.4344,-20.0704
637,-377,42.938,22.3076,0,0,0,0,0,0,0,-1,1861,1401,42.938,-22.3076
644,-377,42.8704,21.4473,-0.000934965,-1.23648e-05,0.000196287,2.76598e-05,-0.000974989,1.36965,0.000659406,0.0140536,1868,1401,42.8704,-21.4472
651,-377,42.7949,20.6107,-0.000238145,-0.000144217,9.09344e-05,-8.8835e-05,-0.000293527,1.02376,0.000173812,0.0148541,1875,1401,42.795,-20.6107
658,-377,42.7452,19.8,0.000663869,-9.98071e-05,-0.000210902,0.000718242,-0.00015418,-0.252316,0.000537641,0.0167098,1882,1401,42.7452,-19.8001
665,-377,42.7271,18.97,0.00168436,5.45965e-05,-0.000657105,0.00191629,-0.000177336,-0.33931,0.00134056,0.0201191,1889,1401,42.7271,-18.97
672,-377,42.6777,18.1343,0.00283312,0.000306991,-0.00124625,0.00334444,-0.000204337,-0.389349,0.00230077,0.0190888,1896,1401,42.6778,-18.1343
679,-377,42.5688,17.3182,0.00411909,0.000679844,-0.00200034,0.00503736,-0.00023842,-0.430358,0.00344047,0.0177183,1903,1401,42.5689,-17.3182
686,-377,42.5422,16.5204,0.00558368,0.00118699,-0.00295439,0.00706788,-0.000297213,-0.465542,0.00481405,0.0154975,1910,1401,42.5422,-16.5204
693,-377,42.6246,15.629,0.00720188,0.00190577,-0.00412362,0.00945448,-0.000346827,-0.499973,0.00642172,0.0287707,1917,1401,42.6246,-15.629
700,-377,42.8163,14.6014,0,0,0,0,0,0,0,-1,1924,1401,42.8163,-14.6014
707,-377,28.6234,9.18152,0,0,0,0,0,0,0,-1,1931,1401,28.6234,-9.18151
714,-377,16.5369,5.45959,0,0,0,0,0,0,0,-1,1938,1401,16.5369,-5.4596
721,-377,17.0913,5.42529,0,0,0,0,0,0,0,-1,1945,1401,17.0914,-5.42529
728,-377,14.5396,2.79724,0,0,0,0,0,0,0,-1,1952,1401,14.5396,-2.7972
735,-377,23.2977,-0.991089,0,0,0,0,0,0,0,-1,1959,1401,23.2978,0.991076
742,-377,0,0,0,0,0,0,0,0,0,-1,1966,1401,0,0
749,-377,0,0,0,0,0,0,0,0,0,-1,1973,1401,0,0
756,-377,0,0,0,0,0,0,0,0,0,-1,1980,1401,0,0
763,-377,0,0,0,0,0,0,0,0,0,-1,1987,1401,0,0
770,-377,0,0,0,0,0,0,0,0,0,-1,1994,1401,0,0
777,-377,0,0,0,0,0,0,0,0,0,-1,2001,1401,0,0
784,-377,0,0,0,0,0,0,0,0,0,-1,2008,1401,0,0
791,-377,0,0,0,0,0,0,0,0,0,-1,2015,1401,0,0
798,-377,0,0,0,0,0,0,0,0,0,-1,2022,1401,0,0
805,-377,0,0,0,0,0,0,0,0,0,-1,2029,1401,0,0
812,-377,0,0,0,0,0,0,0,0,0,-1,2036,1401,0,0
-700,-384,0,0,0,0,0,0,0,0,0,-1,524,1408,0,0
-693,-384,0,0,0,0,0,0,0,0,0,-1,531,1408,0,0
-686,-384,0,0,0,0,0,0,0,0,0,-1,538,1408,0,0
-679,-384,0,0,0,0,0,0,0,0,0,-1,545,1408,0,0
-672,-384,0,0,0,0,0,0,0,0,0,-1,552,1408,0,0
-665,-384,0,0,0,0,0,0,0,0,0,-1,559,1408,0,0
-658,-384,0,0,0,0,0,0,0,0,0,-1,566,1408,0,0
-651,-384,0,0,0,0,0,0,0,0,0,-1,573,1408,0,0
-644,-384,0,0,0,0,0,0,0,0,0,-1,580,1408,0,0
-637,-384,0,0,0,0,0,0,0,0,0,-1,587,1408,0,0
-630,-384,0,0,0,0,0,0,0,0,0,-1,594,1408,0,0
-623,-384,0,0,0,0,0,0,0,0,0,-1,601,1408,0,0
-616,-384,-10.019,-3.36646,0,0,0,0,0,0,0,-1,608,1408,-10.019,3.36648
-609,-384,-7.72357,-2.3418,0,0,0,0,0,0,0,-1,615,1408,-7.72358,2.34182
-602,-384,-11.7632,-2.85156,0,0,0,0,0,0,0,-1,622,1408,-11.7632,2.85157
-595,-384,-10.2217,2.8855,0,0,0,0,0,0,0,-1,629,1408,-10.2218,-2.88548
-588,-384,-12.1653,2.29041,0,0,0,0,0,0,0,-1,636,1408,-12.1654,-2.29038
-581,-384,-11.9297,3.60376,0,0,0,0,0,0,0,-1,643,1408,-11.9298,-3.6038
-574,-384,-11.8677,6.02722,0,0,0,0,0,0,0,-1,650,1408,-11.8677,-6.02722
-567,-384,-12.0743,7.04639,0,0,0,0,0,0,0,-1,657,1408,-12.0743,-7.04641
-560,-384,-19.9478,11.6345,0,0,0,0,0,0,0,-1,664,1408,-19.9478,-11.6345
-553,-384,-24.8335,16.2239,0,0,0,0,0,0,0,-1,671,1408,-24.8335,-16.2239
-546,-384,-24.8627,17.2455,0.00457774,0.00291759,0.00278025,0.00664919,0.000846144,0.640329,0.00417939,0.01649,678,1408,-24.8627,-17.2455
-539,-384,-24.9382,18.0464,0.00387008,0.00202157,0.00211613,0.00525499,0.000636653,0.579501,0.00331157,0.0175805,685,1408,-24.9382,-18.0463
-532,-384,-24.9427,18.8147,0.00339298,0.00133276,0.00163939,0.00429904,0.000426708,0.504896,0.00273491,0.0229816,692,1408,-24.9427,-18.8147
-525,-384,-24.9658,19.7684,0.00312779,0.000869278,0.00134804,0.00375707,0.000240007,0.436741,0.00242866,0.023862,699,1408,-24.9658,-19.7684
-518,-384,-25.0413,20.6516,0.00302596,0.000547456,0.00120512,0.00351531,5.81061e-05,0.385718,0.00232441,0.0145748,706,1408,-25.0413,-20.6517
-511,-384,-25.101,21.5172,0.00310081,0.000413142,0.00121583,0.0035692,-5.52415e-05,0.367716,0.00239809,0.011743,713,1408,-25.101,-21.5172
-504,-384,-25.1261,22.3851,0.00338128,0.000486543,0.00142622,0.0039659,-9.80786e-05,0.389019,0.00267723,0.0133872,720,1408,-25.1261,-22.3851
-497,-384,-25.1493,23.2522,0,0,0,0,0,0,0,-1,727,1408,-25.1493,-23.2522
-490,-384,-24.643,23.7618,0,0,0,0,0,0,0,-1,734,1408,-24.643,-23.7619
-483,-384,-6.26471,7.61194,0,0,0,0,0,0,0,-1,741,1408,-6.26469,-7.61191
-476,-384,-6.02734,5.67761,0,0,0,0,0,0,0,-1,748,1408,-6.02736,-5.6776
-469,-384,-10.206,2.63721,0,0,0,0,0,0,0,-1,755,1408,-10.206,-2.6372
-462,-384,-9.04291,1.43542,0,0,0,0,0,0,0,-1,762,1408,-9.04293,-1.43545
-455,-384,-7.87988,0.233765,0,0,0,0,0,0,0,-1,769,1408,-7.87986,-0.233709
-448,-384,-9.35529,7.19226,0,0,0,0,0,0,0,-1,776,1408,-9.35531,-7.19226
-441,-384,-10.4697,1.79004,0,0,0,0,0,0,0,-1,783,1408,-10.4697,-1.79003
-434,-384,-10.6449,0.552246,0,0,0,0,0,0,0,-1,790,1408,-10.6449,-0.552216
-427,-384,-10.968,1.10583,0,0,0,0,0,0,0,-1,797,1408,-10.968,-1.10588
-420,-384,-12.5607,4.54858,0,0,0,0,0,0,0,-1,804,1408,-12.5607,-4.54859
-413,-384,0,0,0,0,0,0,0,0,0,-1,811,1408,0,0
-406,-384,0,0,0,0,0,0,0,0,0,-1,818,1408,0,0
-399,-384,0,0,0,0,0,0,0,0,0,-1,825,1408,0,0
-392,-384,0,0,0,0,0,0,0,0,0,-1,832,1408,0,0
-385,-384,0,0,0,0,0,0,0,0,0,-1,839,1408,0,0
-378,-384,0,0,0,0,0,0,0,0,0,-1,846,1408,0,0
-371,-384,0,0,0,0,0,0,0,0,0,-1,853,1408,0,0
-364,-384,0,0,0,0,0,0,0,0,0,-1,860,1408,0,0
-357,-384,0,0,0,0,0,0,0,0,0,-1,867,1408,0,0
-350,-384,0,0,0,0,0,0,0,0,0,-1,874,1408,0,0
-343,-384,0,0,0,0,0,0,0,0,0,-1,881,1408,0,0
-336,-384,0,0,0,0,0,0,0,0,0,-1,888,1408,0,0
-329,-384,0,0,0,0,0,0,0,0,0,-1,895,1408,0,0
-322,-384,0,0,0,0,0,0,0,0,0,-1,902,1408,0,0
-315,-384,0,0,0,0,0,0,0,0,0,-1,909,1408,0,0
-308,-384,0,0,0,0,0,0,0,0,0,-1,916,1408,0,0
-301,-384,0,0,0,0,0,0,0,0,0,-1,923,1408,0,0
-294,-384,0,0,0,0,0,0,0,0,0,-1,930,1408,0,0
-287,-384,0,0,0,0,0,0,0,0,0,-1,937,1408,0,0
-280,-384,0,0,0,0,0,0,0,0,0,-1,944,1408,0,0
-273,-384,0,0,0,0,0,0,0,0,0,-1,951,1408,0,0
-266,-384,0,0,0,0,0,0,0,0,0,-1,958,1408,0,0
-259,-384,0,0,0,0,0,0,0,0,0,-1,965,1408,0,0
-252,-384,0,0,0,0,0,0,0,0,0,-1,972,1408,0,0
-245,-384,0,0,0,0,0,0,0,0,0,-1,979,1408,0,0
-238,-384,0,0,0,0,0,0,0,0,0,-1,986,1408,0,0
-231,-384,0,0,0,0,0,0,0,0,0,-1,993,1408,0,0
-224,-384,0,0,0,0,0,0,0,0,0,-1,1000,1408,0,0
-217,-384,0,0,0,0,0,0,0,0,0,-1,1007,1408,0,0
-210,-384,0,0,0,0,0,0,0,0,0,-1,1014,1408,0,0
-203,-384,0,0,0,0,0,0,0,0,0,-1,1021,1408,0,0
-196,-384,0,0,0,0,0,0,0,0,0,-1,1028,1408,0,0
-189,-384,0,0,0,0,0,0,0,0,0,-1,1035,1408,0,0
-182,-384,0,0,0,0,0,0,0,0,0,-1,1042,1408,0,0
-175,-384,0,0,0,0,0,0,0,0,0,-1,1049,1408,0,0
-168,-384,0,0,0,0,0,0,0,0,0,-1,1056,1408,0,0
-161,-384,0,0,0,0,0,0,0,0,0,-1,1063,1408,0,0
-154,-384,0,0,0,0,0,0,0,0,0,-1,1070,1408,0,0
-147,-384,0,0,0,0,0,0,0,0,0,-1,1077,1408,0,0
-140,-384,0,0,0,0,0,0,0,0,0,-1,1084,1408,0,0
-133,-384,0,0,0,0,0,0,0,0,0,-1,1091,1408,0,0
-126,-384,0,0,0,0,0,0,0,0,0,-1,1098,1408,0,0
-119,-384,0,0,0,0,0,0,0,0,0,-1,1105,1408,0,0
-112,-384,0,0,0,0,0,0,0,0,0,-1,1112,1408,0,0
-105,-384,0,0,0,0,0,0,0,0,0,-1,1119,1408,0,0
-98,-384,0,0,0,0,0,0,0,0,0,-1,1126,1408,0,0
-91,-384,0,0,0,0,0,0,0,0,0,-1,1133,1408,0,0
-84,-384,0,0,0,0,0,0,0,0,0,-1,1140,1408,0,0
-77,-384,0,0,0,0,0,0,0,0,0,-1,1147,1408,0,0
-70,-384,0,0,0,0,0,0,0,0,0,-1,1154,1408,0,0
-63,-384,0,0,0,0,0,0,0,0,0,-1,1161,1408,0,0
-56,-384,0,0,0,0,0,0,0,0,0,-1,1168,1408,0,0
-49,-384,0,0,0,0,0,0,0,0,0,-1,1175,1408,0,0
-42,-384,0,0,0,0,0,0,0,0,0,-1,1182,1408,0,0
-35,-384,0,0,0,0,0,0,0,0,0,-1,1189,1408,0,0
-28,-384,0,0,0,0,0,0,0,0,0,-1,1196,1408,0,0
-21,-384,0,0,0,0,0,0,0,0,0,-1,1203,1408,0,0
-14,-384,0,0,0,0,0,0,0,0,0,-1,1210,1408,0,0
-7,-384,0,0,0,0,0,0,0,0,0,-1,1217,1408,0,0
0,-384,0,0,0,0,0,0,0,0,0,-1,1224,1408,0,0
7,-384,0,0,0,0,0,0,0,0,0,-1,1231,1408,0,0
14,-384,0,0,0,0,0,0,0,0,0,-1,1238,1408,0,0
21,-384,0,0,0,0,0,0,0,0,0,-1,1245,1408,0,0
28,-384,0,0,0,0,0,0,0,0,0,-1,1252,1408,0,0
35,-384,0,0,0,0,0,0,0,0,0,-1,1259,1408,0,0
42,-384,0,0,0,0,0,0,0,0,0,-1,1266,1408,0,0
49,-384,0,0,0,0,0,0,0,0,0,-1,1273,1408,0,0
56,-384,0,0,0,0,0,0,0,0,0,-1,1280,1408,0,0
63,-384,0,0,0,0,0,0,0,0,0,-1,1287,1408,0,0
70,-384,0,0,0,0,0,0,0,0,0,-1,1294,1408,0,0
77,-384,0,0,0,0,0,0,0,0,0,-1,1301,1408,0,0
84,-384,0,0,0,0,0,0,0,0,0,-1,1308,1408,0,0
91,-384,0,0,0,0,0,0,0,0,0,-1,1315,1408,0,0
98,-384,0,0,0,0,0,0,0,0,0,-1,1322,1408,0,0
105,-384,0,0,0,0,0,0,0,0,0,-1,1329,1408,0,0
112,-384,0,0,0,0,0,0,0,0,0,-1,1336,1408,0,0
119,-384,0,0,0,0,0,0,0,0,0,-1,1343,1408,0,0
126,-384,0,0,0,0,0,0,0,0,0,-1,1350,1408,0,0
133,-384,0,0,0,0,0,0,0,0,0,-1,1357,1408,0,0
140,-384,0,0,0,0,0,0,0,0,0,-1,1364,1408,0,0
147,-384,0,0,0,0,0,0,0,0,0,-1,1371,1408,0,0
154,-384,0,0,0,0,0,0,0,0,0,-1,1378,1408,0,0
161,-384,0,0,0,0,0,0,0,0,0,-1,1385,1408,0,0
168,-384,0,0,0,0,0,0,0,0,0,-1,1392,1408,0,0
175,-384,0,0,0,0,0,0,0,0,0,-1,1399,1408,0,0
182,-384,0,0,0,0,0,0,0,0,0,-1,1406,1408,0,0
189,-384,0,0,0,0,0,0,0,0,0,-1,1413,1408,0,0
196,-384,0,0,0,0,0,0,0,0,0,-1,1420,1408,0,0
203,-384,0,0,0,0,0,0,0,0,0,-1,1427,1408,0,0
210,-384,0,0,0,0,0,0,0,0,0,-1,1434,1408,0,0
217,-384,0,0,0,0,0,0,0,0,0,-1,1441,1408,0,0
224,-384,0,0,0,0,0,0,0,0,0,-1,1448,1408,0,0
231,-384,0,0,0,0,0,0,0,0,0,-1,1455,1408,0,0
238,-384,0,0,0,0,0,0,0,0,0,-1,1462,1408,0,0
245,-384,0,0,0,0,0,0,0,0,0,-1,1469,1408,0,0
252,-384,0,0,0,0,0,0,0,0,0,-1,1476,1408,0,0
259,-384,0,0,0,0,0,0,0,0,0,-1,1483,1408,0,0
266,-384,0,0,0,0,0,0,0,0,0,-1,1490,1408,0,0
273,-384,0,0,0,0,0,0,0,0,0,-1,1497,1408,0,0
280,-384,0,0,0,0,0,0,0,0,0,-1,1504,1408,0,0
287,-384,0,0,0,0,0,0,0,0,0,-1,1511,1408,0,0
294,-384,0,0,0,0,0,0,0,0,0,-1,1518,1408,0,0
301,-384,0,0,0,0,0,0,0,0,0,-1,1525,1408,0,0
308,-384,0,0,0,0,0,0,0,0,0,-1,1532,1408,0,0
315,-384,0,0,0,0,0,0,0,0,0,-1,1539,1408,0,0
322,-384,0,0,0,0,0,0,0,0,0,-1,1546,1408,0,0
329,-384,0,0,0,0,0,0,0,0,0,-1,1553,1408,0,0
336,-384,0,0,0,0,0,0,0,0,0,-1,1560,1408,0,0
343,-384,0,0,0,0,0,0,0,0,0,-1,1567,1408,0,0
350,-384,0,0,0,0,0,0,0,0,0,-1,1574,1408,0,0
357,-384,0,0,0,0,0,0,0,0,0,-1,1581,1408,0,0
364,-384,0,0,0,0,0,0,0,0,0,-1,1588,1408,0,0
371,-384,0,0,0,0,0,0,0,0,0,-1,1595,1408,0,0
378,-384,0,0,0,0,0,0,0,0,0,-1,1602,1408,0,0
385,-384,0,0,0,0,0,0,0,0,0,-1,1609,1408,0,0
392,-384,0,0,0,0,0,0,0,0,0,-1,1616,1408,0,0
399,-384,0,0,0,0,0,0,0,0,0,-1,1623,1408,0,0
406,-384,0,0,0,0,0,0,0,0,0,-1,1630,1408,0,0
413,-384,0,0,0,0,0,0,0,0,0,-1,1637,1408,0,0
420,-384,0,0,0,0,0,0,0,0,0,-1,1644,1408,0,0
427,-384,0,0,0,0,0,0,0,0,0,-1,1651,1408,0,0
434,-384,0,0,0,0,0,0,0,0,0,-1,1658,1408,0,0
441,-384,0,0,0,0,0,0,0,0,0,-1,1665,1408,0,0
448,-384,0,0,0,0,0,0,0,0,0,-1,1672,1408,0,0
455,-384,0,0,0,0,0,0,0,0,0,-1,1679,1408,0,0
462,-384,0,0,0,0,0,0,0,0,0,-1,1686,1408,0,0
469,-384,0,0,0,0,0,0,0,0,0,-1,1693,1408,0,0
476,-384,0,0,0,0,0,0,0,0,0,-1,1700,1408,0,0
483,-384,0,0,0,0,0,0,0,0,0,-1,1707,1408,0,0
490,-384,0,0,0,0,0,0,0,0,0,-1,1714,1408,0,0
497,-384,0,0,0,0,0,0,0,0,0,-1,1721,1408,0,0
504,-384,0,0,0,0,0,0,0,0,0,-1,1728,1408,0,0
511,-384,0,0,0,0,0,0,0,0,0,-1,1735,1408,0,0
518,-384,0,0,0,0,0,0,0,0,0,-1,1742,1408,0,0
525,-384,0,0,0,0,0,0,0,0,0,-1,1749,1408,0,0
532,-384,0,0,0,0,0,0,0,0,0,-1,1756,1408,0,0
539,-384,27.6886,2.85803,0,0,0,0,0,0,0,-1,1763,1408,27.6886,-2.85807
546,-384,27.5044,2.9425,0,0,0,0,0,0,0,-1,1770,1408,27.5044,-2.94255
553,-384,27.3052,2.78394,0,0,0,0,0,0,0,-1,1777,1408,27.3051,-2.78394
560,-384,26.833,3.19812,0,0,0,0,0,0,0,-1,1784,1408,26.833,-3.19816
567,-384,38.2566,0.109985,0,0,0,0,0,0,0,-1,1791,1408,38.2566,-0.110044
574,-384,38.4003,2.05945,0,0,0,0,0,0,0,-1,1798,1408,38.4003,-2.05949
581,-384,25.819,3.91846,0,0,0,0,0,0,0,-1,1805,1408,25.8189,-3.91848
588,-384,23.3721,4.25439,0,0,0,0,0,0,0,-1,1812,1408,23.3721,-4.25442
595,-384,24.981,5.59595,0,0,0,0,0,0,0,-1,1819,1408,24.981,-5.59598
602,-384,20.6605,4.17261,0,0,0,0,0,0,0,-1,1826,1408,20.6606,-4.17265
609,-384,14.158,5.49475,0,0,0,0,0,0,0,-1,1833,1408,14.158,-5.49474
616,-384,14.7997,7.6908,0,0,0,0,0,0,0,-1,1840,1408,14.7996,-7.69079
623,-384,16.4293,9.58899,0,0,0,0,0,0,0,-1,1847,1408,16.4294,-9.58901
630,-384,42.0005,23.2533,0,0,0,0,0,0,0,-1,1854,1408,42.0004,-23.2534
637,-384,42.0579,22.3463,-0.00093872,9.2784e-05,0.000250488,0.000150394,-0.00099633,1.34474,0.000719609,0.0266594,1861,1408,42.0579,-22.3463
644,-384,41.9893,21.5424,-0.000517737,-6.15828e-05,0.000212484,2.20586e-05,-0.000601378,1.19579,0.00040847,0.0170851,1868,1408,41.9892,-21.5424
651,-384,41.9197,20.6692,0.000168416,-0.00011418,-8.12544e-06,0.000168649,-0.000114413,-0.0287213,0.000164423,0.0168371,1875,1408,41.9197,-20.6692
658,-384,41.8866,19.8297,0.00105132,-5.23752e-05,-0.000388532,0.00117437,-0.00017543,-0.306722,0.000847466,0.0175156,1882,1408,41.8866,-19.8297
665,-384,41.8749,19.0388,0.00209824,0.000128742,-0.000912934,0.00245631,-0.000229334,-0.373787,0.00171909,0.0195354,1889,1408,41.8749,-19.0388
672,-384,41.8289,18.1979,0.00330883,0.000399485,-0.00157961,0.00400154,-0.00029322,-0.413275,0.00277061,0.017681,1896,1408,41.8289,-18.1979
679,-384,41.7678,17.3531,0.00469396,0.000792979,-0.0024238,0.00585461,-0.000367676,-0.446591,0.00403123,0.0162896,1903,1408,41.7679,-17.3531
686,-384,41.7198,16.5414,0.00629562,0.00130301,-0.0034771,0.00807971,-0.000481076,-0.47407,0.00555378,0.0153037,1910,1408,41.7199,-16.5414
693,-384,41.7673,15.6674,0,0,0,0,0,0,0,-1,1917,1408,41.7673,-15.6674
700,-384,41.9762,14.4678,0,0,0,0,0,0,0,-1,1924,1408,41.9762,-14.4678
707,-384,17.0566,6.62842,0,0,0,0,0,0,0,-1,1931,1408,17.0567,-6.62848
714,-384,16.038,5.0282,0,0,0,0,0,0,0,-1,1938,1408,16.038,-5.02819
721,-384,13.8843,2.8717,0,0,0,0,0,0,0,-1,1945,1408,13.8843,-2.87171
728,-384,15.4409,6.25745,0,0,0,0,0,0,0,-1,1952,1408,15.4409,-6.2574
735,-384,16.7598,6.71289,0,0,0,0,0,0,0,-1,1959,1408,16.7598,-6.71287
742,-384,0,0,0,0,0,0,0,0,0,-1,1966,1408,0,0
749,-384,0,0,0,0,0,0,0,0,0,-1,1973,1408,0,0
756,-384,0,0,0,0,0,0,0,0,0,-1,1980,1408,0,0
763,-384,0,0,0,0,0,0,0,0,0,-1,1987,1408,0,0
770,-384,0,0,0,0,0,0,0,0,0,-1,1994,1408,0,0
777,-384,0,0,0,0,0,0,0,0,0,-1,2001,1408,0,0
784,-384,0,0,0,0,0,0,0,0,0,-1,2008,1408,0,0
791,-384,0,0,0,0,0,0,0,0,0,-1,2015,1408,0,0
798,-384,0,0,0,0,0,0,0,0,0,-1,2022,1408,0,0
805,-384,0,0,0,0,0,0,0,0,0,-1,2029,1408,0,0
812,-384,0,0,0,0,0,0,0,0,0,-1,2036,1408,0,0
-700,-391,0,0,0,0,0,0,0,0,0,-1,524,1415,0,0
-693,-391,0,0,0,0,0,0,0,0,0,-1,531,1415,0,0
-686,-391,0,0,0,0,0,0,0,0,0,-1,538,1415,0,0
-679,-391,0,0,0,0,0,0,0,0,0,-1,545,1415,0,0
-672,-391,0,0,0,0,0,0,0,0,0,-1,552,1415,0,0
-665,-391,0,0,0,0,0,0,0,0,0,-1,559,1415,0,0
-658,-391,0,0,0,0,0,0,0,0,0,-1,566,1415,0,0
-651,-391,0,0,0,0,0,0,0,0,0,-1,573,1415,0,0
-644,-391,0,0,0,0,0,0,0,0,0,-1,580,1415,0,0
-637,-391,0,0,0,0,0,0,0,0,0,-1,587,1415,0,0
-630,-391,0,0,0,0,0,0,0,0,0,-1,594,1415,0,0
-623,-391,0,0,0,0,0,0,0,0,0,-1,601,1415,0,0
-616,-391,0,0,0,0,0,0,0,0,0,-1,608,1415,0,0
-609,-391,-7.71753,-3.69763,0,0,0,0,0,0,0,-1,615,1415,-7.71751,3.69759
-602,-391,-13.9493,-4.12805,0,0,0,0,0,0,0,-1,622,1415,-13.9493,4.12803
-595,-391,-10.8315,1.76172,0,0,0,0,0,0,0,-1,629,1415,-10.8315,-1.76171
-588,-391,-10.265,2.16431,0,0,0,0,0,0,0,-1,636,1415,-10.265,-2.16431
-581,-391,-11.3325,2.44836,0,0,0,0,0,0,0,-1,643,1415,-11.3325,-2.44842
-574,-391,-11.1471,6.19983,0,0,0,0,0,0,0,-1,650,1415,-11.1471,-6.19981
-567,-391,-11.5172,6.82458,0,0,0,0,0,0,0,-1,657,1415,-11.5171,-6.82454
-560,-391,-11.2459,7.37195,0,0,0,0,0,0,0,-1,664,1415,-11.2459,-7.37191
-553,-391,-24.1143,16.296,0,0,0,0,0,0,0,-1,671,1415,-24.1143,-16.296
-546,-391,-24.0395,17.2401,0.00511842,0.00352207,0.00336959,0.00778308,0.000857409,0.669104,0.00492784,0.0220001,678,1415,-24.0395,-17.2402
-539,-391,-24.016,18.1272,0.00418282,0.00251388,0.00254027,0.00602217,0.000674531,0.626703,0.00380989,0.0148134,685,1415,-24.016,-18.1272
-532,-391,-24.0396,18.9873,0.0034878,0.00170035,0.00191196,0.0047046,0.000483547,0.566767,0.00298829,0.0255468,692,1415,-24.0396,-18.9873
-525,-391,-24.0722,19.9176,0.00302947,0.00115512,0.00149348,0.00385547,0.000329119,0.505196,0.00246793,0.0243561,699,1415,-24.0722,-19.9176
-518,-391,-24.2193,20.7209,0.00274396,0.00075973,0.00123178,0.00333348,0.000170205,0.446377,0.00216782,0.0161989,706,1415,-24.2193,-20.721
-511,-391,-24.2386,21.5757,0.00261867,0.000544499,0.00110636,0.00309802,6.51471e-05,0.408854,0.00204398,0.0156975,713,1415,-24.2386,-21.5757
-504,-391,-24.2647,22.4331,0.0026789,0.000511346,0.00115185,0.00317668,1.35629e-05,0.407919,0.00211328,0.0140475,720,1415,-24.2647,-22.4332
-497,-391,-24.299,23.2886,0.00288756,0.000647649,0.0013519,0.00352315,1.20592e-05,0.439479,0.00234476,0.0154308,727,1415,-24.299,-23.2886
-490,-391,-24.2925,24.1802,0,0,0,0,0,0,0,-1,734,1415,-24.2925,-24.1802
-483,-391,-11.1018,12.9382,0,0,0,0,0,0,0,-1,741,1415,-11.1018,-12.9382
-476,-391,-6.05731,6.85303,0,0,0,0,0,0,0,-1,748,1415,-6.05728,-6.85304
-469,-391,-3.88953,5.0979,0,0,0,0,0,0,0,-1,755,1415,-3.88955,-5.09794
-462,-391,-8.67688,2.03125,0,0,0,0,0,0,0,-1,762,1415,-8.67685,-2.03121
-455,-391,-8.65576,6.46997,0,0,0,0,0,0,0,-1,769,1415,-8.65579,-6.46999
-448,-391,-8.39618,4.38403,0,0,0,0,0,0,0,-1,776,1415,-8.39617,-4.38405
-441,-391,-9.77704,2.5946,0,0,0,0,0,0,0,-1,783,1415,-9.77702,-2.5946
-434,-391,-11.5403,2.12878,0,0,0,0,0,0,0,-1,790,1415,-11.5403,-2.12881
-427,-391,-10.5311,2.50403,0,0,0,0,0,0,0,-1,797,1415,-10.5311,-2.504
-420,-391,-14.7087,1.24365,0,0,0,0,0,0,0,-1,804,1415,-14.7088,-1.24365
-413,-391,0,0,0,0,0,0,0,0,0,-1,811,1415,0,0
-406,-391,0,0,0,0,0,0,0,0,0,-1,818,1415,0,0
-399,-391,0,0,0,0,0,0,0,0,0,-1,825,1415,0,0
-392,-391,0,0,0,0,0,0,0,0,0,-1,832,1415,0,0
-385,-391,0,0,0,0,0,0,0,0,0,-1,839,1415,0,0
-378,-391,0,0,0,0,0,0,0,0,0,-1,846,1415,0,0
-371,-391,0,0,0,0,0,0,0,0,0,-1,853,1415,0,0
-364,-391,0,0,0,0,0,0,0,0,0,-1,860,1415,0,0
-357,-391,0,0,0,0,0,0,0,0,0,-1,867,1415,0,0
-350,-391,0,0,0,0,0,0,0,0,0,-1,874,1415,0,0
-343,-391,0,0,0,0,0,0,0,0,0,-1,881,1415,0,0
-336,-391,0,0,0,0,0,0,0,0,0,-1,888,1415,0,0
-329,-391,0,0,0,0,0,0,0,0,0,-1,895,1415,0,0
-322,-391,0,0,0,0,0,0,0,0,0,-1,902,1415,0,0
-315,-391,0,0,0,0,0,0,0,0,0,-1,909,1415,0,0
-308,-391,0,0,0,0,0,0,0,0,0,-1,916,1415,0,0
-301,-391,0,0,0,0,0,0,0,0,0,-1,923,1415,0,0
-294,-391,0,0,0,0,0,0,0,0,0,-1,930,1415,0,0
-287,-391,0,0,0,0,0,0,0,0,0,-1,937,1415,0,0
-280,-391,0,0,0,0,0,0,0,0,0,-1,944,1415,0,0
-273,-391,0,0,0,0,0,0,0,0,0,-1,951,1415,0,0
-266,-391,0,0,0,0,0,0,0,0,0,-1,958,1415,0,0
-259,-391,0,0,0,0,0,0,0,0,0,-1,965,1415,0,0
-252,-391,0,0,0,0,0,0,0,0,0,-1,972,1415,0,0
-245,-391,0,0,0,0,0,0,0,0,0,-1,979,1415,0,0
-238,-391,0,0,0,0,0,0,0,0,0,-1,986,1415,0,0
-231,-391,0,0,0,0,0,0,0,0,0,-1,993,1415,0,0
-224,-391,0,0,0,0,0,0,0,0,0,-1,1000,1415,0,0
-217,-391,0,0,0,0,0,0,0,0,0,-1,1007,1415,0,0
-210,-391,0,0,0,0,0,0,0,0,0,-1,1014,1415,0,0
-203,-391,0,0,0,0,0,0,0,0,0,-1,1021,1415,0,0
-196,-391,0,0,0,0,0,0,0,0,0,-1,1028,1415,0,0
-189,-391,0,0,0,0,0,0,0,0,0,-1,1035,1415,0,0
-182,-391,0,0,0,0,0,0,0,0,0,-1,1042,1415,0,0
-175,-391,0,0,0,0,0,0,0,0,0,-1,1049,1415,0,0
-168,-391,0,0,0,0,0,0,0,0,0,-1,1056,1415,0,0
-161,-391,0,0,0,0,0,0,0,0,0,-1,1063,1415,0,0
-154,-391,0,0,0,0,0,0,0,0,0,-1,1070,1415,0,0
-147,-391,0,0,0,0,0,0,0,0,0,-1,1077,1415,0,0
-140,-391,0,0,0,0,0,0,0,0,0,-1,1084,1415,0,0
-133,-391,0,0,0,0,0,0,0,0,0,-1,1091,1415,0,0
-126,-391,0,0,0,0,0,0,0,0,0,-1,1098,1415,0,0
-119,-391,0,0,0,0,0,0,0,0,0,-1,1105,1415,0,0
-112,-391,0,0,0,0,0,0,0,0,0,-1,1112,1415,0,0
-105,-391,0,0,0,0,0,0,0,0,0,-1,1119,1415,0,0
-98,-391,0,0,0,0,0,0,0,0,0,-1,1126,1415,0,0
-91,-391,0,0,0,0,0,0,0,0,0,-1,1133,1415,0,0
-84,-391,0,0,0,0,0,0,0,0,0,-1,1140,1415,0,0
-77,-391,0,0,0,0,0,0,0,0,0,-1,1147,1415,0,0
-70,-391,0,0,0,0,0,0,0,0,0,-1,1154,1415,0,0
-63,-391,0,0,0,0,0,0,0,0,0,-1,1161,1415,0,0
-56,-391,0,0,0,0,0,0,0,0,0,-1,1168,1415,0,0
-49,-391,0,0,0,0,0,0,0,0,0,-1,1175,1415,0,0
-42,-391,0,0,0,0,0,0,0,0,0,-1,1182,1415,0,0
-35,-391,0,0,0,0,0,0,0,0,0,-1,1189,1415,0,0
-28,-391,0,0,0,0,0,0,0,0,0,-1,1196,1415,0,0
-21,-391,0,0,0,0,0,0,0,0,0,-1,1203,1415,0,0
-14,-391,0,0,0,0,0,0,0,0,0,-1,1210,1415,0,0
-7,-391,0,0,0,0,0,0,0,0,0,-1,1217,1415,0,0
0,-391,0,0,0,0,0,0,0,0,0,-1,1224,1415,0,0
7,-391,0,0,0,0,0,0,0,0,0,-1,1231,1415,0,0
14,-391,0,0,0,0,0,0,0,0,0,-1,1238,1415,0,0
21,-391,0,0,0,0,0,0,0,0,0,-1,1245,1415,0,0
28,-391,0,0,0,0,0,0,0,0,0,-1,1252,1415,0,0
35,-391,0,0,0,0,0,0,0,0,0,-1,1259,1415,0,0
42,-391,0,0,0,0,0,0,0,0,0,-1,1266,1415,0,0
49,-391,0,0,0,0,0,0,0,0,0,-1,1273,1415,0,0
56,-391,0,0,0,0,0,0,0,0,0,-1,1280,1415,0,0
63,-391,0,0,0,0,0,0,0,0,0,-1,1287,1415,0,0
70,-391,0,0,0,0,0,0,0,0,0,-1,1294,1415,0,0
77,-391,0,0,0,0,0,0,0,0,0,-1,1301,1415,0,0
84,-391,0,0,0,0,0,0,0,0,0,-1,1308,1415,0,0
91,-391,0,0,0,0,0,0,0,0,0,-1,1315,1415,0,0
98,-391,0,0,0,0,0,0,0,0,0,-1,1322,1415,0,0
105,-391,0,0,0,0,0,0,0,0,0,-1,1329,1415,0,0
112,-391,0,0,0,0,0,0,0,0,0,-1,1336,1415,0,0
119,-391,0,0,0,0,0,0,0,0,0,-1,1343,1415,0,0
126,-391,0,0,0,0,0,0,0,0,0,-1,1350,1415,0,0
133,-391,0,0,0,0,0,0,0,0,0,-1,1357,1415,0,0
140,-391,0,0,0,0,0,0,0,0,0,-1,1364,1415,0,0
147,-391,0,0,0,0,0,0,0,0,0,-1,1371,1415,0,0
154,-391,0,0,0,0,0,0,0,0,0,-1,1378,1415,0,0
161,-391,0,0,0,0,0,0,0,0,0,-1,1385,1415,0,0
168,-391,0,0,0,0,0,0,0,0,0,-1,1392,1415,0,0
175,-391,0,0,0,0,0,0,0,0,0,-1,1399,1415,0,0
182,-391,0,0,0,0,0,0,0,0,0,-1,1406,1415,0,0
189,-391,0,0,0,0,0,0,0,0,0,-1,1413,1415,0,0
196,-391,0,0,0,0,0,0,0,0,0,-1,1420,1415,0,0
203,-391,0,0,0,0,0,0,0,0,0,-1,1427,1415,0,0
210,-391,0,0,0,0,0,0,0,0,0,-1,1434,1415,0,0
217,-391,0,0,0,0,0,0,0,0,0,-1,1441,1415,0,0
224,-391,0,0,0,0,0,0,0,0,0,-1,1448,1415,0,0
231,-391,0,0,0,0,0,0,0,0,0,-1,1455,1415,0,0
238,-391,0,0,0,0,0,0,0,0,0,-1,1462,1415,0,0
245,-391,0,0,0,0,0,0,0,0,0,-1,1469,1415,0,0
252,-391,0,0,0,0,0,0,0,0,0,-1,1476,1415,0,0
259,-391,0,0,0,0,0,0,0,0,0,-1,1483,1415,0,0
266,-391,0,0,0,0,0,0,0,0,0,-1,1490,1415,0,0
273,-391,0,0,0,0,0,0,0,0,0,-1,1497,1415,0,0
280,-391,0,0,0,0,0,0,0,0,0,-1,1504,1415,0,0
287,-391,0,0,0,0,0,0,0,0,0,-1,1511,1415,0,0
294,-391,0,0,0,0,0,0,0,0,0,-1,1518,1415,0,0
301,-391,0,0,0,0,0,0,0,0,0,-1,1525,1415,0,0
308,-391,0,0,0,0,0,0,0,0,0,-1,1532,1415,0,0
315,-391,0,0,0,0,0,0,0,0,0,-1,1539,1415,0,0
322,-391,0,0,0,0,0,0,0,0,0,-1,1546,1415,0,0
329,-391,0,0,0,0,0,0,0,0,0,-1,1553,1415,0,0
336,-391,0,0,0,0,0,0,0,0,0,-1,1560,1415,0,0
343,-391,0,0,0,0,0,0,0,0,0,-1,1567,1415,0,0
350,-391,0,0,0,0,0,0,0,0,0,-1,1574,1415,0,0
357,-391,0,0,0,0,0,0,0,0,0,-1,1581,1415,0,0
364,-391,0,0,0,0,0,0,0,0,0,-1,1588,1415,0,0
371,-391,0,0,0,0,0,0,0,0,0,-1,1595,1415,0,0
378,-391,0,0,0,0,0,0,0,0,0,-1,1602,1415,0,0
385,-391,0,0,0,0,0,0,0,0,0,-1,1609,1415,0,0
392,-391,0,0,0,0,0,0,0,0,0,-1,1616,1415,0,0
399,-391,0,0,0,0,0,0,0,0,0,-1,1623,1415,0,0
406,-391,0,0,0,0,0,0,0,0,0,-1,1630,1415,0,0
413,-391,0,0,0,0,0,0,0,0,0,-1,1637,1415,0,0
420,-391,0,0,0,0,0,0,0,0,0,-1,1644,1415,0,0
427,-391,0,0,0,0,0,0,0,0,0,-1,1651,1415,0,0
434,-391,0,0,0,0,0,0,0,0,0,-1,1658,1415,0,0
441,-391,0,0,0,0,0,0,0,0,0,-1,1665,1415,0,0
448,-391,0,0,0,0,0,0,0,0,0,-1,1672,1415,0,0
455,-391,0,0,0,0,0,0,0,0,0,-1,1679,1415,0,0
462,-391,0,0,0,0,0,0,0,0,0,-1,1686,1415,0,0
469,-391,0,0,0,0,0,0,0,0,0,-1,1693,1415,0,0
476,-391,0,0,0,0,0,0,0,0,0,-1,1700,1415,0,0
483,-391,0,0,0,0,0,0,0,0,0,-1,1707,1415,0,0
490,-391,0,0,0,0,0,0,0,0,0,-1,1714,1415,0,0
497,-391,0,0,0,0,0,0,0,0,0,-1,1721,1415,0,0
504,-391,0,0,0,0,0,0,0,0,0,-1,1728,1415,0,0
511,-391,0,0,0,0,0,0,0,0,0,-1,1735,1415,0,0
518,-391,0,0,0,0,0,0,0,0,0,-1,1742,1415,0,0
525,-391,0,0,0,0,0,0,0,0,0,-1,1749,1415,0,0
532,-391,28.5959,3.02356,0,0,0,0,0,0,0,-1,1756,1415,28.596,-3.02358
539,-391,27.5881,3.25012,0,0,0,0,0,0,0,-1,1763,1415,27.5882,-3.25016
546,-391,27.2837,3.28064,0,0,0,0,0,0,0,-1,1770,1415,27.2837,-3.28064
553,-391,32.5952,5.04553,0,0,0,0,0,0,0,-1,1777,1415,32.5952,-5.04551
560,-391,31.2947,5.67017,0,0,0,0,0,0,0,-1,1784,1415,31.2947,-5.67011
567,-391,30.1473,6.17603,0,0,0,0,0,0,0,-1,1791,1415,30.1473,-6.17602
574,-391,27.5656,5.6842,0,0,0,0,0,0,0,-1,1798,1415,27.5655,-5.68422
581,-391,25.8883,5.76123,0,0,0,0,0,0,0,-1,1805,1415,25.8883,-5.76124
588,-391,24.2717,5.47986,0,0,0,0,0,0,0,-1,1812,1415,24.2717,-5.47982
595,-391,22.8827,6.1991,0,0,0,0,0,0,0,-1,1819,1415,22.8827,-6.19909
602,-391,15.1635,5.69849,0,0,0,0,0,0,0,-1,1826,1415,15.1635,-5.69847
609,-391,14.8285,7.50476,0,0,0,0,0,0,0,-1,1833,1415,14.8285,-7.50479
616,-391,20.7952,12.0503,0,0,0,0,0,0,0,-1,1840,1415,20.7952,-12.0503
623,-391,36.6426,20.3677,0,0,0,0,0,0,0,-1,1847,1415,36.6426,-20.3676
630,-391,41.2703,23.198,0,0,0,0,0,0,0,-1,1854,1415,41.2703,-23.198
637,-391,41.2202,22.3577,-0.000497046,-4.76395e-05,0.000276239,8.37464e-05,-0.000628432,1.12684,0.000449478,0.0180662,1861,1415,41.2202,-22.3576
644,-391,41.1521,21.55,-9.38229e-05,-0.000115172,0.000134989,3.09135e-05,-0.000239908,0.745942,0.000171176,0.0173734,1868,1415,41.1522,-21.5501
651,-391,41.0951,20.7523,0.000574506,-7.68188e-05,-0.000169111,0.000615796,-0.000118109,-0.239477,0.000455039,0.0181695,1875,1415,41.0951,-20.7524
658,-391,41.0562,19.9066,0.00148991,3.90168e-05,-0.000646532,0.0017362,-0.000207276,-0.363971,0.00123238,0.0195272,1882,1415,41.0562,-19.9066
665,-391,41.0154,19.0979,0.00261198,0.000261761,-0.00126206,0.00316131,-0.000287567,-0.41053,0.00220964,0.015971,1889,1415,41.0154,-19.0979
672,-391,40.9774,18.2637,0.00392164,0.000561607,-0.00201661,0.00486634,-0.000383101,-0.438101,0.00337918,0.0133547,1896,1415,40.9774,-18.2636
679,-391,40.9474,17.4075,0.00544481,0.000989741,-0.00296457,0.00692545,-0.000490899,-0.463204,0.00478899,0.0122846,1903,1415,40.9474,-17.4075
686,-391,40.9078,16.5565,0.00722235,0.0014975,-0.00412616,0.00938175,-0.000661899,-0.482147,0.0064864,0.0232565,1910,1415,40.9078,-16.5565
693,-391,40.9824,15.6133,0,0,0,0,0,0,0,-1,1917,1415,40.9824,-15.6132
700,-391,39.8163,14.4929,0,0,0,0,0,0,0,-1,1924,1415,39.8163,-14.4929
707,-391,12.9524,5.96851,0,0,0,0,0,0,0,-1,1931,1415,12.9524,-5.96849
714,-391,15.6875,7.67896,0,0,0,0,0,0,0,-1,1938,1415,15.6875,-7.67893
721,-391,14.1808,8.08435,0,0,0,0,0,0,0,-1,1945,1415,14.1808,-8.08439
728,-391,13.8102,7.28174,0,0,0,0,0,0,0,-1,1952,1415,13.8102,-7.28174
735,-391,0,0,0,0,0,0,0,0,0,-1,1959,1415,0,0
742,-391,0,0,0,0,0,0,0,0,0,-1,1966,1415,0,0
749,-391,0,0,0,0,0,0,0,0,0,-1,1973,1415,0,0
756,-391,0,0,0,0,0,0,0,0,0,-1,1980,1415,0,0
763,-391,0,0,0,0,0,0,0,0,0,-1,1987,1415,0,0
770,-391,0,0,0,0,0,0,0,0,0,-1,1994,1415,0,0
777,-391,0,0,0,0,0,0,0,0,0,-1,2001,1415,0,0
784,-391,0,0,0,0,0,0,0,0,0,-1,2008,1415,0,0
791,-391,0,0,0,0,0,0,0,0,0,-1,2015,1415,0,0
798,-391,0,0,0,0,0,0,0,0,0,-1,2022,1415,0,0
805,-391,0,0,0,0,0,0,0,0,0,-1,2029,1415,0,0
812,-391,0,0,0,0,0,0,0,0,0,-1,2036,1415,0,0
-700,-398,0,0,0,0,0,0,0,0,0,-1,524,1422,0,0
-693,-398,0,0,0,0,0,0,0,0,0,-1,531,1422,0,0
-686,-398,0,0,0,0,0,0,0,0,0,-1,538,1422,0,0
-679,-398,0,0,0,0,0,0,0,0,0,-1,545,1422,0,0
-672,-398,0,0,0,0,0,0,0,0,0,-1,552,1422,0,0
-665,-398,0,0,0,0,0,0,0,0,0,-1,559,1422,0,0
-658,-398,0,0,0,0,0,0,0,0,0,-1,566,1422,0,0
-651,-398,0,0,0,0,0,0,0,0,0,-1,573,1422,0,0
-644,-398,0,0,0,0,0,0,0,0,0,-1,580,1422,0,0
-637,-398,0,0,0,0,0,0,0,0,0,-1,587,1422,0,0
-630,-398,0,0,0,0,0,0,0,0,0,-1,594,1422,0,0
-623,-398,0,0,0,0,0,0,0,0,0,-1,601,1422,0,0
-616,-398,0,0,0,0,0,0,0,0,0,-1,608,1422,0,0
-609,-398,-7.47125,-4.05322,0,0,0,0,0,0,0,-1,615,1422,-7.47128,4.05317
-602,-398,-4.58868,-2.77026,0,0,0,0,0,0,0,-1,622,1422,-4.58869,2.77023
-595,-398,-12.2224,-1.82007,0,0,0,0,0,0,0,-1,629,1422,-12.2224,1.82006
-588,-398,-10.6939,1.32336,0,0,0,0,0,0,0,-1,636,1422,-10.6939,-1.32337
-581,-398,-10.433,3.1123,0,0,0,0,0,0,0,-1,643,1422,-10.433,-3.11233
-574,-398,-10.4475,5.89807,0,0,0,0,0,0,0,-1,650,1422,-10.4475,-5.89802
-567,-398,-10.4904,6.80115,0,0,0,0,0,0,0,-1,657,1422,-10.4904,-6.80115
-560,-398,-10.5333,7.70435,0,0,0,0,0,0,0,-1,664,1422,-10.5333,-7.70429
-553,-398,-23.329,16.1066,0,0,0,0,0,0,0,-1,671,1422,-23.329,-16.1065
-546,-398,-23.2538,17.2357,0.00580938,0.00435777,0.00418195,0.00932804,0.000839106,0.699476,0.00595872,0.0431085,678,1422,-23.2538,-17.2357
-539,-398,-23.1471,18.2119,0.00457546,0.0031894,0.00312546,0.0070838,0.00068105,0.676295,0.00451268,0.0130498,685,1422,-23.1471,-18.212
-532,-398,-23.1789,19.085,0.00362051,0.00219835,0.0022991,0.00531598,0.000502881,0.635421,0.00338882,0.0212036,692,1422,-23.1789,-19.0849
-525,-398,-23.2507,19.9313,0.00296165,0.00153536,0.00172586,0.0041159,0.00038111,0.589477,0.00262613,0.020678,699,1422,-23.2508,-19.9313
-518,-398,-23.3005,20.7695,0.00251404,0.0010492,0.00133051,0.00330041,0.000262838,0.533793,0.0021181,0.0199945,706,1422,-23.3005,-20.7695
-511,-398,-23.3352,21.6145,0.00223118,0.000737064,0.00107332,0.00279183,0.000176407,0.481372,0.0018053,0.0158817,713,1422,-23.3352,-21.6145
-504,-398,-23.3946,22.4911,0.00213188,0.000588634,0.000970047,0.00259977,0.000120743,0.449419,0.00169436,0.0149835,720,1422,-23.3946,-22.491
-497,-398,-23.4647,23.3311,0.00220353,0.000614073,0.00102069,0.0027024,0.000115203,0.454614,0.00176445,0.0108701,727,1422,-23.4647,-23.331
-490,-398,-23.4949,24.1875,0.00257003,0.000833758,0.00126166,0.00323338,0.000170407,0.484055,0.00210109,0.0230415,734,1422,-23.4949,-24.1875
-483,-398,-23.5076,25.0637,0,0,0,0,0,0,0,-1,741,1422,-23.5076,-25.0638
-476,-398,-8.64392,11.9448,0,0,0,0,0,0,0,-1,748,1422,-8.6439,-11.9448
-469,-398,-8.91699,10.6276,0,0,0,0,0,0,0,-1,755,1422,-8.91697,-10.6275
-462,-398,-9.59753,9.32532,0,0,0,0,0,0,0,-1,762,1422,-9.59753,-9.32531
-455,-398,-8.08331,6.75024,0,0,0,0,0,0,0,-1,769,1422,-8.08333,-6.75022
-448,-398,-7.4505,5.25293,0,0,0,0,0,0,0,-1,776,1422,-7.4505,-5.25291
-441,-398,-7.61639,3.32141,0,0,0,0,0,0,0,-1,783,1422,-7.61637,-3.32145
-434,-398,-10.7618,3.297,0,0,0,0,0,0,0,-1,790,1422,-10.7618,-3.29704
-427,-398,-11.9061,2.24939,0,0,0,0,0,0,0,-1,797,1422,-11.9061,-2.24941
-420,-398,-13.467,2.32788,0,0,0,0,0,0,0,-1,804,1422,-13.467,-2.32787
-413,-398,-14.7983,2.15515,0,0,0,0,0,0,0,-1,811,1422,-14.7983,-2.15516
-406,-398,0,0,0,0,0,0,0,0,0,-1,818,1422,0,0
-399,-398,0,0,0,0,0,0,0,0,0,-1,825,1422,0,0
-392,-398,0,0,0,0,0,0,0,0,0,-1,832,1422,0,0
-385,-398,0,0,0,0,0,0,0,0,0,-1,839,1422,0,0
-378,-398,0,0,0,0,0,0,0,0,0,-1,846,1422,0,0
-371,-398,0,0,0,0,0,0,0,0,0,-1,853,1422,0,0
-364,-398,0,0,0,0,0,0,0,0,0,-1,860,1422,0,0
-357,-398,0,0,0,0,0,0,0,0,0,-1,867,1422,0,0
-350,-398,0,0,0,0,0,0,0,0,0,-1,874,1422,0,0
-343,-398,0,0,0,0,0,0,0,0,0,-1,881,1422,0,0
-336,-398,0,0,0,0,0,0,0,0,0,-1,888,1422,0,0
-329,-398,0,0,0,0,0,0,0,0,0,-1,895,1422,0,0
-322,-398,0,0,0,0,0,0,0,0,0,-1,902,1422,0,0
-315,-398,0,0,0,0,0,0,0,0,0,-1,909,1422,0,0
-308,-398,0,0,0,0,0,0,0,0,0,-1,916,1422,0,0
-301,-398,0,0,0,0,0,0,0,0,0,-1,923,1422,0,0
-294,-398,0,0,0,0,0,0,0,0,0,-1,930,1422,0,0
-287,-398,0,0,0,0,0,0,0,0,0,-1,937,1422,0,0
-280,-398,0,0,0,0,0,0,0,0,0,-1,944,1422,0,0
-273,-398,0,0,0,0,0,0,0,0,0,-1,951,1422,0,0
-266,-398,0,0,0,0,0,0,0,0,0,-1,958,1422,0,0
-259,-398,0,0,0,0,0,0,0,0,0,-1,965,1422,0,0
-252,-398,0,0,0,0,0,0,0,0,0,-1,972,1422,0,0
-245,-398,0,0,0,0,0,0,0,0,0,-1,979,1422,0,0
-238,-398,0,0,0,0,0,0,0,0,0,-1,986,1422,0,0
-231,-398,0,0,0,0,0,0,0,0,0,-1,993,1422,0,0
-224,-398,0,0,0,0,0,0,0,0,0,-1,1000,1422,0,0
-217,-398,0,0,0,0,0,0,0,0,0,-1,1007,1422,0,0
-210,-398,0,0,0,0,0,0,0,0,0,-1,1014,1422,0,0
-203,-398,0,0,0,0,0,0,0,0,0,-1,1021,1422,0,0
-196,-398,0,0,0,0,0,0,0,0,0,-1,1028,1422,0,0
-189,-398,0,0,0,0,0,0,0,0,0,-1,1035,1422,0,0
-182,-398,0,0,0,0,0,0,0,0,0,-1,1042,1422,0,0
-175,-398,0,0,0,0,0,0,0,0,0,-1,1049,1422,0,0
-168,-398,0,0,0,0,0,0,0,0,0,-1,1056,1422,0,0
-161,-398,0,0,0,0,0,0,0,0,0,-1,1063,1422,0,0
-154,-398,0,0,0,0,0,0,0,0,0,-1,1070,1422,0,0
-147,-398,0,0,0,0,0,0,0,0,0,-1,1077,1422,0,0
-140,-398,0,0,0,0,0,0,0,0,0,-1,1084,1422,0,0
-133,-398,0,0,0,0,0,0,0,0,0,-1,1091,1422,0,0
-126,-398,0,0,0,0,0,0,0,0,0,-1,1098,1422,0,0
-119,-398,0,0,0,0,0,0,0,0,0,-1,1105,1422,0,0
-112,-398,0,0,0,0,0,0,0,0,0,-1,1112,1422,0,0
-105,-398,0,0,0,0,0,0,0,0,0,-1,1119,1422,0,0
-98,-398,0,0,0,0,0,0,0,0,0,-1,1126,1422,0,0
-91,-398,0,0,0,0,0,0,0,0,0,-1,1133,1422,0,0
-84,-398,0,0,0,0,0,0,0,0,0,-1,1140,1422,0,0
-77,-398,0,0,0,0,0,0,0,0,0,-1,1147,1422,0,0
-70,-398,0,0,0,0,0,0,0,0,0,-1,1154,1422,0,0
-63,-398,0,0,0,0,0,0,0,0,0,-1,1161,1422,0,0
-56,-398,0,0,0,0,0,0,0,0,0,-1,1168,1422,0,0
-49,-398,0,0,0,0,0,0,0,0,0,-1,1175,1422,0,0
-42,-398,0,0,0,0,0,0,0,0,0,-1,1182,1422,0,0
-35,-398,0,0,0,0,0,0,0,0,0,-1,1189,1422,0,0
-28,-398,0,0,0,0,0,0,0,0,0,-1,1196,1422,0,0
-21,-398,0,0,0,0,0,0,0,0,0,-1,1203,1422,0,0
-14,-398,0,0,0,0,0,0,0,0,0,-1,1210,1422,0,0
-7,-398,0,0,0,0,0,0,0,0,0,-1,1217,1422,0,0
0,-398,0,0,0,0,0,0,0,0,0,-1,1224,1422,0,0
7,-398,0,0,0,0,0,0,0,0,0,-1,1231,1422,0,0
14,-398,0,0,0,0,0,0,0,0,0,-1,1238,1422,0,0
21,-398,0,0,0,0,0,0,0,0,0,-1,1245,1422,0,0
28,-398,0,0,0,0,0,0,0,0,0,-1,1252,1422,0,0
35,-398,0,0,0,0,0,0,0,0,0,-1,1259,1422,0,0
42,-398,0,0,0,0,0,0,0,0,0,-1,1266,1422,0,0
49,-398,0,0,0,0,0,0,0,0,0,-1,1273,1422,0,0
56,-398,0,0,0,0,0,0,0,0,0,-1,1280,1422,0,0
63,-398,0,0,0,0,0,0,0,0,0,-1,1287,1422,0,0
70,-398,0,0,0,0,0,0,0,0,0,-1,1294,1422,0,0
77,-398,0,0,0,0,0,0,0,0,0,-1,1301,1422,0,0
84,-398,0,0,0,0,0,0,0,0,0,-1,1308,1422,0,0
91,-398,0,0,0,0,0,0,0,0,0,-1,1315,1422,0,0
98,-398,0,0,0,0,0,0,0,0,0,-1,1322,1422,0,0
105,-398,0,0,0,0,0,0,0,0,0,-1,1329,1422,0,0
112,-398,0,0,0,0,0,0,0,0,0,-1,1336,1422,0,0
119,-398,0,0,0,0,0,0,0,0,0,-1,1343,1422,0,0
126,-398,0,0,0,0,0,0,0,0,0,-1,1350,1422,0,0
133,-398,0,0,0,0,0,0,0,0,0,-1,1357,1422,0,0
140,-398,0,0,0,0,0,0,0,0,0,-1,1364,1422,0,0
147,-398,0,0,0,0,0,0,0,0,0,-1,1371,1422,0,0
154,-398,0,0,0,0,0,0,0,0,0,-1,1378,1422,0,0
161,-398,0,0,0,0,0,0,0,0,0,-1,1385,1422,0,0
168,-398,0,0,0,0,0,0,0,0,0,-1,1392,1422,0,0
175,-398,0,0,0,0,0,0,0,0,0,-1,1399,1422,0,0
182,-398,0,0,0,0,0,0,0,0,0,-1,1406,1422,0,0
189,-398,0,0,0,0,0,0,0,0,0,-1,1413,1422,0,0
196,-398,0,0,0,0,0,0,0,0,0,-1,1420,1422,0,0
203,-398,0,0,0,0,0,0,0,0,0,-1,1427,1422,0,0
210,-398,0,0,0,0,0,0,0,0,0,-1,1434,1422,0,0
217,-398,0,0,0,0,0,0,0,0,0,-1,1441,1422,0,0
224,-398,0,0,0,0,0,0,0,0,0,-1,1448,1422,0,0
231,-398,0,0,0,0,0,0,0,0,0,-1,1455,1422,0,0
238,-398,0,0,0,0,0,0,0,0,0,-1,1462,1422,0,0
245,-398,0,0,0,0,0,0,0,0,0,-1,1469,1422,0,0
252,-398,0,0,0,0,0,0,0,0,0,-1,1476,1422,0,0
259,-398,0,0,0,0,0,0,0,0,0,-1,1483,1422,0,0
266,-398,0,0,0,0,0,0,0,0,0,-1,1490,1422,0,0
273,-398,0,0,0,0,0,0,0,0,0,-1,1497,1422,0,0
280,-398,0,0,0,0,0,0,0,0,0,-1,1504,1422,0,0
287,-398,0,0,0,0,0,0,0,0,0,-1,1511,1422,0,0
294,-398,0,0,0,0,0,0,0,0,0,-1,1518,1422,0,0
301,-398,0,0,0,0,0,0,0,0,0,-1,1525,1422,0,0
308,-398,0,0,0,0,0,0,0,0,0,-1,1532,1422,0,0
315,-398,0,0,0,0,0,0,0,0,0,-1,1539,1422,0,0
322,-398,0,0,0,0,0,0,0,0,0,-1,1546,1422,0,0
329,-398,0,0,0,0,0,0,0,0,0,-1,1553,1422,0,0
336,-398,0,0,0,0,0,0,0,0,0,-1,1560,1422,0,0
343,-398,0,0,0,0,0,0,0,0,0,-1,1567,1422,0,0
350,-398,0,0,0,0,0,0,0,0,0,-1,1574,1422,0,0
357,-398,0,0,0,0,0,0,0,0,0,-1,1581,1422,0,0
364,-398,0,0,0,0,0,0,0,0,0,-1,1588,1422,0,0
371,-398,0,0,0,0,0,0,0,0,0,-1,1595,1422,0,0
378,-398,0,0,0,0,0,0,0,0,0,-1,1602,1422,0,0
385,-398,0,0,0,0,0,0,0,0,0,-1,1609,1422,0,0
392,-398,0,0,0,0,0,0,0,0,0,-1,1616,1422,0,0
399,-398,0,0,0,0,0,0,0,0,0,-1,1623,1422,0,0
406,-398,0,0,0,0,0,0,0,0,0,-1,1630,1422,0,0
413,-398,0,0,0,0,0,0,0,0,0,-1,1637,1422,0,0
420,-398,0,0,0,0,0,0,0,0,0,-1,1644,1422,0,0
427,-398,0,0,0,0,0,0,0,0,0,-1,1651,1422,0,0
434,-398,0,0,0,0,0,0,0,0,0,-1,1658,1422,0,0
441,-398,0,0,0,0,0,0,0,0,0,-1,1665,1422,0,0
448,-398,0,0,0,0,0,0,0,0,0,-1,1672,1422,0,0
455,-398,0,0,0,0,0,0,0,0,0,-1,1679,1422,0,0
462,-398,0,0,0,0,0,0,0,0,0,-1,1686,1422,0,0
469,-398,0,0,0,0,0,0,0,0,0,-1,1693,1422,0,0
476,-398,0,0,0,0,0,0,0,0,0,-1,1700,1422,0,0
483,-398,0,0,0,0,0,0,0,0,0,-1,1707,1422,0,0
490,-398,0,0,0,0,0,0,0,0,0,-1,1714,1422,0,0
497,-398,0,0,0,0,0,0,0,0,0,-1,1721,1422,0,0
504,-398,0,0,0,0,0,0,0,0,0,-1,1728,1422,0,0
511,-398,0,0,0,0,0,0,0,0,0,-1,1735,1422,0,0
518,-398,0,0,0,0,0,0,0,0,0,-1,1742,1422,0,0
525,-398,0,0,0,0,0,0,0,0,0,-1,1749,1422,0,0
532,-398,28.4558,3.84094,0,0,0,0,0,0,0,-1,1756,1422,28.4558,-3.8409
539,-398,27.0594,3.33887,0,0,0,0,0,0,0,-1,1763,1422,27.0595,-3.3389
546,-398,31.6873,5.58582,0,0,0,0,0,0,0,-1,1770,1422,31.6872,-5.58585
553,-398,30.4392,5.92383,0,0,0,0,0,0,0,-1,1777,1422,30.4392,-5.92386
560,-398,29.1621,6.30469,0,0,0,0,0,0,0,-1,1784,1422,29.1621,-6.30469
567,-398,27.8411,6.55029,0,0,0,0,0,0,0,-1,1791,1422,27.8411,-6.55033
574,-398,26.411,6.8916,0,0,0,0,0,0,0,-1,1798,1422,26.411,-6.8916
581,-398,24.75,7.11145,0,0,0,0,0,0,0,-1,1805,1422,24.7499,-7.11142
588,-398,23.1649,7.67969,0,0,0,0,0,0,0,-1,1812,1422,23.1649,-7.67975
595,-398,21.4253,7.86023,0,0,0,0,0,0,0,-1,1819,1422,21.4253,-7.86029
602,-398,19.6857,8.04077,0,0,0,0,0,0,0,-1,1826,1422,19.6856,-8.04083
609,-398,21.1835,13.2628,0,0,0,0,0,0,0,-1,1833,1422,21.1835,-13.2628
616,-398,35.7712,21.4,0,0,0,0,0,0,0,-1,1840,1422,35.7713,-21.4
623,-398,40.5009,24.1064,0,0,0,0,0,0,0,-1,1847,1422,40.5009,-24.1064
630,-398,40.4467,23.2462,-0.000203068,5.87627e-05,0.00017166,0.000143731,-0.000288037,1.11117,0.00025388,0.0150353,1854,1422,40.4467,-23.2462
637,-398,40.405,22.3936,-4.41313e-05,-7.67674e-05,0.000115337,5.60362e-05,-0.000176935,0.715124,0.000140413,0.0160554,1861,1422,40.405,-22.3935
644,-398,40.3043,21.6018,0.000357928,-0.000111423,-7.35569e-05,0.000369186,-0.000122681,-0.151871,0.000295628,0.0236407,1868,1422,40.3044,-21.6018
651,-398,40.3181,20.8647,0.00103911,-5.6243e-06,-0.000442734,0.00120149,-0.000168006,-0.351537,0.000862466,0.0313233,1875,1422,40.3181,-20.8648
658,-398,40.2678,20.0199,0.00199173,0.000165467,-0.000992636,0.00242736,-0.000270154,-0.413545,0.00171539,0.0270778,1882,1422,40.2678,-20.0198
665,-398,40.1956,19.155,0.00318585,0.000437554,-0.00168575,0.00398657,-0.000363163,-0.443441,0.00278666,0.0176084,1889,1422,40.1955,-19.1551
672,-398,40.1484,18.3231,0.00459559,0.00078227,-0.00251724,0.00584675,-0.000468889,-0.461274,0.00406316,0.0134105,1896,1422,40.1484,-18.3231
679,-398,40.1222,17.4785,0.00627564,0.00128105,-0.00356726,0.00813286,-0.000576167,-0.480015,0.00562381,0.0156503,1903,1422,40.1222,-17.4785
686,-398,40.0527,16.62,0.00825925,0.00182418,-0.0048301,0.0108454,-0.000761932,-0.491578,0.00749714,0.0355011,1910,1422,40.0528,-16.6199
693,-398,39.9084,15.6139,0,0,0,0,0,0,0,-1,1917,1422,39.9084,-15.6139
700,-398,38.7251,14.4174,0,0,0,0,0,0,0,-1,1924,1422,38.725,-14.4174
707,-398,10.9731,5.479,0,0,0,0,0,0,0,-1,1931,1422,10.9732,-5.47896
714,-398,11.7313,6.17346,0,0,0,0,0,0,0,-1,1938,1422,11.7313,-6.17348
721,-398,13.9371,8.05103,0,0,0,0,0,0,0,-1,1945,1422,13.9372,-8.05102
728,-398,14.786,7.0282,0,0,0,0,0,0,0,-1,1952,1422,14.786,-7.0282
735,-398,0,0,0,0,0,0,0,0,0,-1,1959,1422,0,0
742,-398,0,0,0,0,0,0,0,0,0,-1,1966,1422,0,0
749,-398,0,0,0,0,0,0,0,0,0,-1,1973,1422,0,0
756,-398,0,0,0,0,0,0,0,0,0,-1,1980,1422,0,0
763,-398,0,0,0,0,0,0,0,0,0,-1,1987,1422,0,0
770,-398,0,0,0,0,0,0,0,0,0,-1,1994,1422,0,0
777,-398,0,0,0,0,0,0,0,0,0,-1,2001,1422,0,0
784,-398,0,0,0,0,0,0,0,0,0,-1,2008,1422,0,0
791,-398,0,0,0,0,0,0,0,0,0,-1,2015,1422,0,0
798,-398,0,0,0,0,0,0,0,0,0,-1,2022,1422,0,0
805,-398,0,0,0,0,0,0,0,0,0,-1,2029,1422,0,0
812,-398,0,0,0,0,0,0,0,0,0,-1,2036,1422,0,0
-700,-405,0,0,0,0,0,0,0,0,0,-1,524,1429,0,0
-693,-405,0,0,0,0,0,0,0,0,0,-1,531,1429,0,0
-686,-405,0,0,0,0,0,0,0,0,0,-1,538,1429,0,0
-679,-405,0,0,0,0,0,0,0,0,0,-1,545,1429,0,0
-672,-405,0,0,0,0,0,0,0,0,0,-1,552,1429,0,0
-665,-405,0,0,0,0,0,0,0,0,0,-1,559,1429,0,0
-658,-405,0,0,0,0,0,0,0,0,0,-1,566,1429,0,0
-651,-405,0,0,0,0,0,0,0,0,0,-1,573,1429,0,0
-644,-405,0,0,0,0,0,0,0,0,0,-1,580,1429,0,0
-637,-405,0,0,0,0,0,0,0,0,0,-1,587,1429,0,0
-630,-405,0,0,0,0,0,0,0,0,0,-1,594,1429,0,0
-623,-405,0,0,0,0,0,0,0,0,0,-1,601,1429,0,0
-616,-405,0,0,0,0,0,0,0,0,0,-1,608,1429,0,0
-609,-405,0,0,0,0,0,0,0,0,0,-1,615,1429,0,0
-602,-405,-5.80988,-3.46594,0,0,0,0,0,0,0,-1,622,1429,-5.80987,3.46592
-595,-405,-9.35413,2.01477,0,0,0,0,0,0,0,-1,629,1429,-9.35411,-2.01476
-588,-405,-7.35693,0.507202,0,0,0,0,0,0,0,-1,636,1429,-7.35696,-0.507187
-581,-405,-10.1284,1.62927,0,0,0,0,0,0,0,-1,643,1429,-10.1284,-1.62922
-574,-405,-9.32074,3.05896,0,0,0,0,0,0,0,-1,650,1429,-9.32077,-3.0589
-567,-405,-9.68781,6.92163,0,0,0,0,0,0,0,-1,657,1429,-9.68782,-6.92166
-560,-405,-9.28674,7.20886,0,0,0,0,0,0,0,-1,664,1429,-9.28675,-7.20885
-553,-405,-20.6244,15.8638,0,0,0,0,0,0,0,-1,671,1429,-20.6244,-15.8637
-546,-405,-22.4366,17.0516,0,0,0,0,0,0,0,-1,678,1429,-22.4366,-17.0516
-539,-405,-22.3357,18.2056,0.00504996,0.00404702,0.00383954,0.00842063,0.000676344,0.720462,0.00540244,0.0151537,685,1429,-22.3357,-18.2056
-532,-405,-22.382,19.0747,0.00383056,0.00285486,0.00280395,0.00618878,0.000496639,0.699267,0.00397067,0.0165016,692,1429,-22.3819,-19.0747
-525,-405,-22.407,19.9675,0.00300418,0.00204929,0.00207286,0.00465387,0.000399596,0.672206,0.00297833,0.015607,699,1429,-22.407,-19.9675
-518,-405,-22.4135,20.8447,0.00243514,0.00145872,0.00155163,0.00357356,0.000320298,0.63298,0.00228311,0.0163927,706,1429,-22.4135,-20.8447
-511,-405,-22.4625,21.6849,0.00205489,0.00102834,0.00118082,0.00282917,0.000254055,0.58038,0.00180739,0.0164483,713,1429,-22.4625,-21.685
-504,-405,-22.5254,22.5212,0.00186659,0.000751833,0.000957166,0.00241684,0.000201583,0.521739,0.00154841,0.0174625,720,1429,-22.5254,-22.5212
-497,-405,-22.5917,23.4037,0.00187037,0.000657112,0.000898317,0.0023477,0.000179779,0.488422,0.00150878,0.0153668,727,1429,-22.5917,-23.4037
-490,-405,-22.6608,24.2638,0.00209558,0.000741391,0.00101321,0.00263712,0.000199855,0.490844,0.00169539,0.0134598,734,1429,-22.6608,-24.2638
-483,-405,-22.6526,25.2089,0.00240249,0.0010707,0.00125192,0.0031546,0.000318597,0.540978,0.00200532,0.0404954,741,1429,-22.6526,-25.2089
-476,-405,-22.528,26.2942,0,0,0,0,0,0,0,-1,748,1429,-22.528,-26.2942
-469,-405,-9.65692,12.8171,0,0,0,0,0,0,0,-1,755,1429,-9.65691,-12.8172
-462,-405,-9.14862,11.3597,0,0,0,0,0,0,0,-1,762,1429,-9.14865,-11.3597
-455,-405,-9.021,9.51111,0,0,0,0,0,0,0,-1,769,1429,-9.021,-9.51109
-448,-405,-8.4649,6.82813,0,0,0,0,0,0,0,-1,776,1429,-8.46492,-6.82817
-441,-405,-6.6712,4.23767,0,0,0,0,0,0,0,-1,783,1429,-6.67121,-4.23764
-434,-405,-9.62549,3.94189,0,0,0,0,0,0,0,-1,790,1429,-9.62546,-3.94191
-427,-405,-10.9764,3.73926,0,0,0,0,0,0,0,-1,797,1429,-10.9764,-3.73923
-420,-405,-12.1187,3.68506,0,0,0,0,0,0,0,-1,804,1429,-12.1187,-3.68512
-413,-405,-13.5353,3.75659,0,0,0,0,0,0,0,-1,811,1429,-13.5353,-3.75655
-406,-405,-14.7374,3.99817,0,0,0,0,0,0,0,-1,818,1429,-14.7374,-3.99814
-399,-405,0,0,0,0,0,0,0,0,0,-1,825,1429,0,0
-392,-405,0,0,0,0,0,0,0,0,0,-1,832,1429,0,0
-385,-405,0,0,0,0,0,0,0,0,0,-1,839,1429,0,0
-378,-405,0,0,0,0,0,0,0,0,0,-1,846,1429,0,0
-371,-405,0,0,0,0,0,0,0,0,0,-1,853,1429,0,0
-364,-405,0,0,0,0,0,0,0,0,0,-1,860,1429,0,0
-357,-405,0,0,0,0,0,0,0,0,0,-1,867,1429,0,0
-350,-405,0,0,0,0,0,0,0,0,0,-1,874,1429,0,0
-343,-405,0,0,0,0,0,0,0,0,0,-1,881,1429,0,0
-336,-405,0,0,0,0,0,0,0,0,0,-1,888,1429,0,0
-329,-405,0,0,0,0,0,0,0,0,0,-1,895,1429,0,0
-322,-405,0,0,0,0,0,0,0,0,0,-1,902,1429,0,0
-315,-405,0,0,0,0,0,0,0,0,0,-1,909,1429,0,0
-308,-405,0,0,0,0,0,0,0,0,0,-1,916,1429,0,0
-301,-405,0,0,0,0,0,0,0,0,0,-1,923,1429,0,0
-294,-405,0,0,0,0,0,0,0,0,0,-1,930,1429,0,0
-287,-405,0,0,0,0,0,0,0,0,0,-1,937,1429,0,0
-280,-405,0,0,0,0,0,0,0,0,0,-1,944,1429,0,0
-273,-405,0,0,0,0,0,0,0,0,0,-1,951,1429,0,0
-266,-405,0,0,0,0,0,0,0,0,0,-1,958,1429,0,0
-259,-405,0,0,0,0,0,0,0,0,0,-1,965,1429,0,0
-252,-405,0,0,0,0,0,0,0,0,0,-1,972,1429,0,0
-245,-405,0,0,0,0,0,0,0,0,0,-1,979,1429,0,0
-238,-405,0,0,0,0,0,0,0,0,0,-1,986,1429,0,0
-231,-405,0,0,0,0,0,0,0,0,0,-1,993,1429,0,0
-224,-405,0,0,0,0,0,0,0,0,0,-1,1000,1429,0,0
-217,-405,0,0,0,0,0,0,0,0,0,-1,1007,1429,0,0
-210,-405,0,0,0,0,0,0,0,0,0,-1,1014,1429,0,0
-203,-405,0,0,0,0,0,0,0,0,0,-1,1021,1429,0,0
-196,-405,0,0,0,0,0,0,0,0,0,-1,1028,1429,0,0
-189,-405,0,0,0,0,0,0,0,0,0,-1,1035,1429,0,0
-182,-405,0,0,0,0,0,0,0,0,0,-1,1042,1429,0,0
-175,-405,0,0,0,0,0,0,0,0,0,-1,1049,1429,0,0
-168,-405,0,0,0,0,0,0,0,0,0,-1,1056,1429,0,0
-161,-405,0,0,0,0,0,0,0,0,0,-1,1063,1429,0,0
-154,-405,0,0,0,0,0,0,0,0,0,-1,1070,1429,0,0
-147,-405,0,0,0,0,0,0,0,0,0,-1,1077,1429,0,0
-140,-405,0,0,0,0,0,0,0,0,0,-1,1084,1429,0,0
-133,-405,0,0,0,0,0,0,0,0,0,-1,1091,1429,0,0
-126,-405,0,0,0,0,0,0,0,0,0,-1,1098,1429,0,0
-119,-405,0,0,0,0,0,0,0,0,0,-1,1105,1429,0,0
-112,-405,0,0,0,0,0,0,0,0,0,-1,1112,1429,0,0
-105,-405,0,0,0,0,0,0,0,0,0,-1,1119,1429,0,0
-98,-405,0,0,0,0,0,0,0,0,0,-1,1126,1429,0,0
-91,-405,0,0,0,0,0,0,0,0,0,-1,1133,1429,0,0
-84,-405,0,0,0,0,0,0,0,0,0,-1,1140,1429,0,0
-77,-405,0,0,0,0,0,0,0,0,0,-1,1147,1429,0,0
-70,-405,0,0,0,0,0,0,0,0,0,-1,1154,1429,0,0
-63,-405,0,0,0,0,0,0,0,0,0,-1,1161,1429,0,0
-56,-405,0,0,0,0,0,0,0,0,0,-1,1168,1429,0,0
-49,-405,0,0,0,0,0,0,0,0,0,-1,1175,1429,0,0
-42,-405,0,0,0,0,0,0,0,0,0,-1,1182,1429,0,0
-35,-405,0,0,0,0,0,0,0,0,0,-1,1189,1429,0,0
-28,-405,0,0,0,0,0,0,0,0,0,-1,1196,1429,0,0
-21,-405,0,0,0,0,0,0,0,0,0,-1,1203,1429,0,0
-14,-405,0,0,0,0,0,0,0,0,0,-1,1210,1429,0,0
-7,-405,0,0,0,0,0,0,0,0,0,-1,1217,1429,0,0
0,-405,0,0,0,0,0,0,0,0,0,-1,1224,1429,0,0
7,-405,0,0,0,0,0,0,0,0,0,-1,1231,1429,0,0
14,-405,0,0,0,0,0,0,0,0,0,-1,1238,1429,0,0
21,-405,0,0,0,0,0,0,0,0,0,-1,1245,1429,0,0
28,-405,0,0,0,0,0,0,0,0,0,-1,1252,1429,0,0
35,-405,0,0,0,0,0,0,0,0,0,-1,1259,1429,0,0
42,-405,0,0,0,0,0,0,0,0,0,-1,1266,1429,0,0
49,-405,0,0,0,0,0,0,0,0,0,-1,1273,1429,0,0
56,-405,0,0,0,0,0,0,0,0,0,-1,1280,1429,0,0
63,-405,0,0,0,0,0,0,0,0,0,-1,1287,1429,0,0
70,-405,0,0,0,0,0,0,0,0,0,-1,1294,1429,0,0
77,-405,0,0,0,0,0,0,0,0,0,-1,1301,1429,0,0
84,-405,0,0,0,0,0,0,0,0,0,-1,1308,1429,0,0
91,-405,0,0,0,0,0,0,0,0,0,-1,1315,1429,0,0
98,-405,0,0,0,0,0,0,0,0,0,-1,1322,1429,0,0
105,-405,0,0,0,0,0,0,0,0,0,-1,1329,1429,0,0
112,-405,0,0,0,0,0,0,0,0,0,-1,1336,1429,0,0
119,-405,0,0,0,0,0,0,0,0,0,-1,1343,1429,0,0
126,-405,0,0,0,0,0,0,0,0,0,-1,1350,1429,0,0
133,-405,0,0,0,0,0,0,0,0,0,-1,1357,1429,0,0
140,-405,0,0,0,0,0,0,0,0,0,-1,1364,1429,0,0
147,-405,0,0,0,0,0,0,0,0,0,-1,1371,1429,0,0
154,-405,0,0,0,0,0,0,0,0,0,-1,1378,1429,0,0
161,-405,0,0,0,0,0,0,0,0,0,-1,1385,1429,0,0
168,-405,0,0,0,0,0,0,0,0,0,-1,1392,1429,0,0
175,-405,0,0,0,0,0,0,0,0,0,-1,1399,1429,0,0
182,-405,0,0,0,0,0,0,0,0,0,-1,1406,1429,0,0
189,-405,0,0,0,0,0,0,0,0,0,-1,1413,1429,0,0
196,-405,0,0,0,0,0,0,0,0,0,-1,1420,1429,0,0
203,-405,0,0,0,0,0,0,0,0,0,-1,1427,1429,0,0
210,-405,0,0,0,0,0,0,0,0,0,-1,1434,1429,0,0
217,-405,0,0,0,0,0,0,0,0,0,-1,1441,1429,0,0
224,-405,0,0,0,0,0,0,0,0,0,-1,1448,1429,0,0
231,-405,0,0,0,0,0,0,0,0,0,-1,1455,1429,0,0
238,-405,0,0,0,0,0,0,0,0,0,-1,1462,1429,0,0
245,-405,0,0,0,0,0,0,0,0,0,-1,1469,1429,0,0
252,-405,0,0,0,0,0,0,0,0,0,-1,1476,1429,0,0
259,-405,0,0,0,0,0,0,0,0,0,-1,1483,1429,0,0
266,-405,0,0,0,0,0,0,0,0,0,-1,1490,1429,0,0
273,-405,0,0,0,0,0,0,0,0,0,-1,1497,1429,0,0
280,-405,0,0,0,0,0,0,0,0,0,-1,1504,1429,0,0
287,-405,0,0,0,0,0,0,0,0,0,-1,1511,1429,0,0
294,-405,0,0,0,0,0,0,0,0,0,-1,1518,1429,0,0
301,-405,0,0,0,0,0,0,0,0,0,-1,1525,1429,0,0
308,-405,0,0,0,0,0,0,0,0,0,-1,1532,1429,0,0
315,-405,0,0,0,0,0,0,0,0,0,-1,1539,1429,0,0
322,-405,0,0,0,0,0,0,0,0,0,-1,1546,1429,0,0
329,-405,0,0,0,0,0,0,0,0,0,-1,1553,1429,0,0
336,-405,0,0,0,0,0,0,0,0,0,-1,1560,1429,0,0
343,-405,0,0,0,0,0,0,0,0,0,-1,1567,1429,0,0
350,-405,0,0,0,0,0,0,0,0,0,-1,1574,1429,0,0
357,-405,0,0,0,0,0,0,0,0,0,-1,1581,1429,0,0
364,-405,0,0,0,0,0,0,0,0,0,-1,1588,1429,0,0
371,-405,0,0,0,0,0,0,0,0,0,-1,1595,1429,0,0
378,-405,0,0,0,0,0,0,0,0,0,-1,1602,1429,0,0
385,-405,0,0,0,0,0,0,0,0,0,-1,1609,1429,0,0
392,-405,0,0,0,0,0,0,0,0,0,-1,1616,1429,0,0
399,-405,0,0,0,0,0,0,0,0,0,-1,1623,1429,0,0
406,-405,0,0,0,0,0,0,0,0,0,-1,1630,1429,0,0
413,-405,0,0,0,0,0,0,0,0,0,-1,1637,1429,0,0
420,-405,0,0,0,0,0,0,0,0,0,-1,1644,1429,0,0
427,-405,0,0,0,0,0,0,0,0,0,-1,1651,1429,0,0
434,-405,0,0,0,0,0,0,0,0,0,-1,1658,1429,0,0
441,-405,0,0,0,0,0,0,0,0,0,-1,1665,1429,0,0
448,-405,0,0,0,0,0,0,0,0,0,-1,1672,1429,0,0
455,-405,0,0,0,0,0,0,0,0,0,-1,1679,1429,0,0
462,-405,0,0,0,0,0,0,0,0,0,-1,1686,1429,0,0
469,-405,0,0,0,0,0,0,0,0,0,-1,1693,1429,0,0
476,-405,0,0,0,0,0,0,0,0,0,-1,1700,1429,0,0
483,-405,0,0,0,0,0,0,0,0,0,-1,1707,1429,0,0
490,-405,0,0,0,0,0,0,0,0,0,-1,1714,1429,0,0
497,-405,0,0,0,0,0,0,0,0,0,-1,1721,1429,0,0
504,-405,0,0,0,0,0,0,0,0,0,-1,1728,1429,0,0
511,-405,0,0,0,0,0,0,0,0,0,-1,1735,1429,0,0
518,-405,0,0,0,0,0,0,0,0,0,-1,1742,1429,0,0
525,-405,31.1563,-1.40942,0,0,0,0,0,0,0,-1,1749,1429,31.1563,1.40937
532,-405,28.156,4.8783,0,0,0,0,0,0,0,-1,1756,1429,28.1561,-4.87833
539,-405,26.5133,3.02454,0,0,0,0,0,0,0,-1,1763,1429,26.5133,-3.0246
546,-405,29.5735,6.53052,0,0,0,0,0,0,0,-1,1770,1429,29.5735,-6.53049
553,-405,28.2911,6.70654,0,0,0,0,0,0,0,-1,1777,1429,28.2912,-6.70656
560,-405,26.9299,7.08472,0,0,0,0,0,0,0,-1,1784,1429,26.9299,-7.08469
567,-405,25.804,7.14661,0,0,0,0,0,0,0,-1,1791,1429,25.8039,-7.14665
574,-405,25.1151,8.07971,0,0,0,0,0,0,0,-1,1798,1429,25.1151,-8.07965
581,-405,23.5055,8.505,0,0,0,0,0,0,0,-1,1805,1429,23.5054,-8.50501
588,-405,21.7491,8.98254,0,0,0,0,0,0,0,-1,1812,1429,21.7491,-8.98254
595,-405,21.6327,10.7795,0,0,0,0,0,0,0,-1,1819,1429,21.6327,-10.7796
602,-405,21.6461,13.9199,0,0,0,0,0,0,0,-1,1826,1429,21.6461,-13.92
609,-405,37.801,24.062,0,0,0,0,0,0,0,-1,1833,1429,37.8011,-24.062
616,-405,39.6552,25.1156,0,0,0,0,0,0,0,-1,1840,1429,39.6551,-25.1157
623,-405,39.6174,24.2136,0.000683199,0.00043212,-0.000314282,0.000896087,0.000219232,-0.595382,0.000539376,0.0167358,1847,1429,39.6174,-24.2136
630,-405,39.5967,23.3158,0.000342713,0.000150434,-8.2988e-05,0.000373577,0.000119571,-0.356055,0.000220291,0.0119778,1854,1429,39.5967,-23.3158
637,-405,39.5635,22.4553,0.000449852,-2.44617e-05,-0.000137388,0.000486774,-6.1383e-05,-0.262535,0.000346792,0.0130715,1861,1429,39.5635,-22.4554
644,-405,39.4854,21.6493,0.000873454,-6.82619e-05,-0.000382087,0.00100898,-0.000203785,-0.340848,0.000749867,0.0342123,1868,1429,39.4853,-21.6493
651,-405,39.3666,20.9034,0.00157904,5.2371e-05,-0.000813762,0.00193145,-0.000300041,-0.408682,0.00139842,0.0355305,1875,1429,39.3666,-20.9034
658,-405,39.3695,20.0625,0.00256264,0.00025308,-0.0014257,0.00324257,-0.000426843,-0.445001,0.00231713,0.0269489,1882,1429,39.3695,-20.0625
665,-405,39.3473,19.2087,0.00381934,0.000555915,-0.00218824,0.00491726,-0.000541999,-0.465034,0.00347296,0.0202508,1889,1429,39.3473,-19.2088
672,-405,39.3207,18.3716,0.00530631,0.000940065,-0.00309095,0.00690737,-0.000660991,-0.477929,0.00484031,0.023411,1896,1429,39.3207,-18.3716
679,-405,39.4598,17.5186,0.00712319,0.00152696,-0.00424831,0.00941207,-0.000761924,-0.494185,0.00654349,0.0411424,1903,1429,39.4598,-17.5185
686,-405,39.5986,16.4745,0,0,0,0,0,0,0,-1,1910,1429,39.5986,-16.4745
693,-405,37.6653,14.9521,0,0,0,0,0,0,0,-1,1917,1429,37.6653,-14.9521
700,-405,9.1958,4.02026,0,0,0,0,0,0,0,-1,1924,1429,9.19579,-4.02025
707,-405,7.40308,3.83191,0,0,0,0,0,0,0,-1,1931,1429,7.40311,-3.83194
714,-405,7.33252,3.47388,0,0,0,0,0,0,0,-1,1938,1429,7.33255,-3.47383
721,-405,9.23523,0.993896,0,0,0,0,0,0,0,-1,1945,1429,9.23523,-0.993884
728,-405,0,0,0,0,0,0,0,0,0,-1,1952,1429,0,0
735,-405,0,0,0,0,0,0,0,0,0,-1,1959,1429,0,0
742,-405,0,0,0,0,0,0,0,0,0,-1,1966,1429,0,0
749,-405,0,0,0,0,0,0,0,0,0,-1,1973,1429,0,0
756,-405,0,0,0,0,0,0,0,0,0,-1,1980,1429,0,0
763,-405,0,0,0,0,0,0,0,0,0,-1,1987,1429,0,0
770,-405,0,0,0,0,0,0,0,0,0,-1,1994,1429,0,0
777,-405,0,0,0,0,0,0,0,0,0,-1,2001,1429,0,0
784,-405,0,0,0,0,0,0,0,0,0,-1,2008,1429,0,0
791,-405,0,0,0,0,0,0,0,0,0,-1,2015,1429,0,0
798,-405,0,0,0,0,0,0,0,0,0,-1,2022,1429,0,0
805,-405,0,0,0,0,0,0,0,0,0,-1,2029,1429,0,0
812,-405,0,0,0,0,0,0,0,0,0,-1,2036,1429,0,0
-700,-412,0,0,0,0,0,0,0,0,0,-1,524,1436,0,0
-693,-412,0,0,0,0,0,0,0,0,0,-1,531,1436,0,0
-686,-412,0,0,0,0,0,0,0,0,0,-1,538,1436,0,0
-679,-412,0,0,0,0,0,0,0,0,0,-1,545,1436,0,0
-672,-412,0,0,0,0,0,0,0,0,0,-1,552,1436,0,0
-665,-412,0,0,0,0,0,0,0,0,0,-1,559,1436,0,0
-658,-412,0,0,0,0,0,0,0,0,0,-1,566,1436,0,0
-651,-412,0,0,0,0,0,0,0,0,0,-1,573,1436,0,0
-644,-412,0,0,0,0,0,0,0,0,0,-1,580,1436,0,0
-637,-412,0,0,0,0,0,0,0,0,0,-1,587,1436,0,0
-630,-412,0,0,0,0,0,0,0,0,0,-1,594,1436,0,0
-623,-412,0,0,0,0,0,0,0,0,0,-1,601,1436,0,0
-616,-412,0,0,0,0,0,0,0,0,0,-1,608,1436,0,0
-609,-412,0,0,0,0,0,0,0,0,0,-1,615,1436,0,0
-602,-412,-3.72766,-3.50012,0,0,0,0,0,0,0,-1,622,1436,-3.72764,3.50017
-595,-412,-10.3706,0.65564,0,0,0,0,0,0,0,-1,629,1436,-10.3706,-0.655672
-588,-412,-8.17957,1.94934,0,0,0,0,0,0,0,-1,636,1436,-8.17956,-1.94939
-581,-412,-6.60065,-0.0554199,0,0,0,0,0,0,0,-1,643,1436,-6.60063,0.0554733
-574,-412,-8.34131,5.25012,0,0,0,0,0,0,0,-1,650,1436,-8.34129,-5.25012
-567,-412,-7.50354,3.65454,0,0,0,0,0,0,0,-1,657,1436,-7.50356,-3.65452
-560,-412,-8.52448,7.39014,0,0,0,0,0,0,0,-1,664,1436,-8.52447,-7.39019
-553,-412,-7.36761,6.54651,0,0,0,0,0,0,0,-1,671,1436,-7.36763,-6.54654
-546,-412,-21.5188,17.1892,0,0,0,0,0,0,0,-1,678,1436,-21.5188,-17.1892
-539,-412,-21.4458,18.1749,0.00539376,0.00507833,0.00459007,0.00982882,0.000643265,0.768225,0.006349,0.0342807,685,1436,-21.4458,-18.175
-532,-412,-21.5317,19.1467,0.00399071,0.00363419,0.003381,0.00719815,0.000426757,0.75906,0.00466303,0.0165625,692,1436,-21.5317,-19.1467
-525,-412,-21.5607,20.0297,0.00305331,0.00265517,0.00251672,0.00537882,0.000329664,0.74593,0.0034812,0.0161957,699,1436,-21.5607,-20.0296
-518,-412,-21.5659,20.8876,0.00240882,0.0019408,0.00188987,0.00407912,0.000270506,0.723801,0.00263388,0.017163,706,1436,-21.5658,-20.8876
-511,-412,-21.6411,21.6987,0.00196299,0.00139462,0.00142389,0.00313078,0.000226831,0.686901,0.00201584,0.0205987,713,1436,-21.641,-21.6988
-504,-412,-21.7001,22.5447,0.0016985,0.00100408,0.00109551,0.00250051,0.000202076,0.631936,0.0016039,0.0202624,720,1436,-21.7001,-22.5447
-497,-412,-21.7503,23.4553,0.0016297,0.000799994,0.000933087,0.002236,0.000193695,0.576219,0.00143048,0.0161091,727,1436,-21.7503,-23.4554
-490,-412,-21.795,24.3223,0.0017236,0.000764861,0.000922065,0.00228346,0.000205001,0.545683,0.00145878,0.0129816,734,1436,-21.795,-24.3222
-483,-412,-21.8376,25.168,0.0019249,0.000951793,0.00104671,0.00259261,0.000284081,0.567834,0.00164193,0.0117383,741,1436,-21.8376,-25.168
-476,-412,-21.8358,26.1132,0,0,0,0,0,0,0,-1,748,1436,-21.8357,-26.1132
-469,-412,-12.7646,18.4785,0,0,0,0,0,0,0,-1,755,1436,-12.7647,-18.4785
-462,-412,-8.94659,13.3385,0,0,0,0,0,0,0,-1,762,1436,-8.94657,-13.3385
-455,-412,-8.25006,11.2572,0,0,0,0,0,0,0,-1,769,1436,-8.25007,-11.2572
-448,-412,-7.38086,8.78186,0,0,0,0,0,0,0,-1,776,1436,-7.38088,-8.78183
-441,-412,-8.79523,9.05286,0,0,0,0,0,0,0,-1,783,1436,-8.79521,-9.0529
-434,-412,-10.6305,8.03577,0,0,0,0,0,0,0,-1,790,1436,-10.6305,-8.0358
-427,-412,-10.0004,5.15271,0,0,0,0,0,0,0,-1,797,1436,-10.0004,-5.15266
-420,-412,-10.4468,4.9043,0,0,0,0,0,0,0,-1,804,1436,-10.4468,-4.90429
-413,-412,-11.5704,4.97766,0,0,0,0,0,0,0,-1,811,1436,-11.5704,-4.97771
-406,-412,-13.1968,5.70093,0,0,0,0,0,0,0,-1,818,1436,-13.1968,-5.70096
-399,-412,-10.5506,0.771973,0,0,0,0,0,0,0,-1,825,1436,-10.5506,-0.771954
-392,-412,0,0,0,0,0,0,0,0,0,-1,832,1436,0,0
-385,-412,0,0,0,0,0,0,0,0,0,-1,839,1436,0,0
-378,-412,0,0,0,0,0,0,0,0,0,-1,846,1436,0,0
-371,-412,0,0,0,0,0,0,0,0,0,-1,853,1436,0,0
-364,-412,0,0,0,0,0,0,0,0,0,-1,860,1436,0,0
-357,-412,0,0,0,0,0,0,0,0,0,-1,867,1436,0,0
-350,-412,0,0,0,0,0,0,0,0,0,-1,874,1436,0,0
-343,-412,0,0,0,0,0,0,0,0,0,-1,881,1436,0,0
-336,-412,0,0,0,0,0,0,0,0,0,-1,888,1436,0,0
-329,-412,0,0,0,0,0,0,0,0,0,-1,895,1436,0,0
-322,-412,0,0,0,0,0,0,0,0,0,-1,902,1436,0,0
-315,-412,0,0,0,0,0,0,0,0,0,-1,909,1436,0,0
-308,-412,0,0,0,0,0,0,0,0,0,-1,916,1436,0,0
-301,-412,0,0,0,0,0,0,0,0,0,-1,923,1436,0,0
-294,-412,0,0,0,0,0,0,0,0,0,-1,930,1436,0,0
-287,-412,0,0,0,0,0,0,0,0,0,-1,937,1436,0,0
-280,-412,0,0,0,0,0,0,0,0,0,-1,944,1436,0,0
-273,-412,0,0,0,0,0,0,0,0,0,-1,951,1436,0,0
-266,-412,0,0,0,0,0,0,0,0,0,-1,958,1436,0,0
-259,-412,0,0,0,0,0,0,0,0,0,-1,965,1436,0,0
-252,-412,0,0,0,0,0,0,0,0,0,-1,972,1436,0,0
-245,-412,0,0,0,0,0,0,0,0,0,-1,979,1436,0,0
-238,-412,0,0,0,0,0,0,0,0,0,-1,986,1436,0,0
-231,-412,0,0,0,0,0,0,0,0,0,-1,993,1436,0,0
-224,-412,0,0,0,0,0,0,0,0,0,-1,1000,1436,0,0
-217,-412,0,0,0,0,0,0,0,0,0,-1,1007,1436,0,0
-210,-412,0,0,0,0,0,0,0,0,0,-1,1014,1436,0,0
-203,-412,0,0,0,0,0,0,0,0,0,-1,1021,1436,0,0
-196,-412,0,0,0,0,0,0,0,0,0,-1,1028,1436,0,0
-189,-412,0,0,0,0,0,0,0,0,0,-1,1035,1436,0,0
-182,-412,0,0,0,0,0,0,0,0,0,-1,1042,1436,0,0
-175,-412,0,0,0,0,0,0,0,0,0,-1,1049,1436,0,0
-168,-412,0,0,0,0,0,0,0,0,0,-1,1056,1436,0,0
-161,-412,0,0,0,0,0,0,0,0,0,-1,1063,1436,0,0
-154,-412,0,0,0,0,0,0,0,0,0,-1,1070,1436,0,0
-147,-412,0,0,0,0,0,0,0,0,0,-1,1077,1436,0,0
-140,-412,0,0,0,0,0,0,0,0,0,-1,1084,1436,0,0
-133,-412,0,0,0,0,0,0,0,0,0,-1,1091,1436,0,0
-126,-412,0,0,0,0,0,0,0,0,0,-1,1098,1436,0,0
-119,-412,0,0,0,0,0,0,0,0,0,-1,1105,1436,0,0
-112,-412,0,0,0,0,0,0,0,0,0,-1,1112,1436,0,0
-105,-412,0,0,0,0,0,0,0,0,0,-1,1119,1436,0,0
-98,-412,0,0,0,0,0,0,0,0,0,-1,1126,1436,0,0
-91,-412,0,0,0,0,0,0,0,0,0,-1,1133,1436,0,0
-84,-412,0,0,0,0,0,0,0,0,0,-1,1140,1436,0,0
-77,-412,0,0,0,0,0,0,0,0,0,-1,1147,1436,0,0
-70,-412,0,0,0,0,0,0,0,0,0,-1,1154,1436,0,0
-63,-412,0,0,0,0,0,0,0,0,0,-1,1161,1436,0,0
-56,-412,0,0,0,0,0,0,0,0,0,-1,1168,1436,0,0
-49,-412,0,0,0,0,0,0,0,0,0,-1,1175,1436,0,0
-42,-412,0,0,0,0,0,0,0,0,0,-1,1182,1436,0,0
-35,-412,0,0,0,0,0,0,0,0,0,-1,1189,1436,0,0
-28,-412,0,0,0,0,0,0,0,0,0,-1,1196,1436,0,0
-21,-412,0,0,0,0,0,0,0,0,0,-1,1203,1436,0,0
-14,-412,0,0,0,0,0,0,0,0,0,-1,1210,1436,0,0
-7,-412,0,0,0,0,0,0,0,0,0,-1,1217,1436,0,0
0,-412,0,0,0,0,0,0,0,0,0,-1,1224,1436,0,0
7,-412,0,0,0,0,0,0,0,0,0,-1,1231,1436,0,0
14,-412,0,0,0,0,0,0,0,0,0,-1,1238,1436,0,0
21,-412,0,0,0,0,0,0,0,0,0,-1,1245,1436,0,0
28,-412,0,0,0,0,0,0,0,0,0,-1,1252,1436,0,0
35,-412,0,0,0,0,0,0,0,0,0,-1,1259,1436,0,0
42,-412,0,0,0,0,0,0,0,0,0,-1,1266,1436,0,0
49,-412,0,0,0,0,0,0,0,0,0,-1,1273,1436,0,0
56,-412,0,0,0,0,0,0,0,0,0,-1,1280,1436,0,0
63,-412,0,0,0,0,0,0,0,0,0,-1,1287,1436,0,0
70,-412,0,0,0,0,0,0,0,0,0,-1,1294,1436,0,0
77,-412,0,0,0,0,0,0,0,0,0,-1,1301,1436,0,0
84,-412,0,0,0,0,0,0,0,0,0,-1,1308,1436,0,0
91,-412,0,0,0,0,0,0,0,0,0,-1,1315,1436,0,0
98,-412,0,0,0,0,0,0,0,0,0,-1,1322,1436,0,0
105,-412,0,0,0,0,0,0,0,0,0,-1,1329,1436,0,0
112,-412,0,0,0,0,0,0,0,0,0,-1,1336,1436,0,0
119,-412,0,0,0,0,0,0,0,0,0,-1,1343,1436,0,0
126,-412,0,0,0,0,0,0,0,0,0,-1,1350,1436,0,0
133,-412,0,0,0,0,0,0,0,0,0,-1,1357,1436,0,0
140,-412,0,0,0,0,0,0,0,0,0,-1,1364,1436,0,0
147,-412,0,0,0,0,0,0,0,0,0,-1,1371,1436,0,0
154,-412,0,0,0,0,0,0,0,0,0,-1,1378,1436,0,0
161,-412,0,0,0,0,0,0,0,0,0,-1,1385,1436,0,0
168,-412,0,0,0,0,0,0,0,0,0,-1,1392,1436,0,0
175,-412,0,0,0,0,0,0,0,0,0,-1,1399,1436,0,0
182,-412,0,0,0,0,0,0,0,0,0,-1,1406,1436,0,0
189,-412,0,0,0,0,0,0,0,0,0,-1,1413,1436,0,0
196,-412,0,0,0,0,0,0,0,0,0,-1,1420,1436,0,0
203,-412,0,0,0,0,0,0,0,0,0,-1,1427,1436,0,0
210,-412,0,0,0,0,0,0,0,0,0,-1,1434,1436,0,0
217,-412,0,0,0,0,0,0,0,0,0,-1,1441,1436,0,0
224,-412,0,0,0,0,0,0,0,0,0,-1,1448,1436,0,0
231,-412,0,0,0,0,0,0,0,0,0,-1,1455,1436,0,0
238,-412,0,0,0,0,0,0,0,0,0,-1,1462,1436,0,0
245,-412,0,0,0,0,0,0,0,0,0,-1,1469,1436,0,0
252,-412,0,0,0,0,0,0,0,0,0,-1,1476,1436,0,0
259,-412,0,0,0,0,0,0,0,0,0,-1,1483,1436,0,0
266,-412,0,0,0,0,0,0,0,0,0,-1,1490,1436,0,0
273,-412,0,0,0,0,0,0,0,0,0,-1,1497,1436,0,0
280,-412,0,0,0,0,0,0,0,0,0,-1,1504,1436,0,0
287,-412,0,0,0,0,0,0,0,0,0,-1,1511,1436,0,0
294,-412,0,0,0,0,0,0,0,0,0,-1,1518,1436,0,0
301,-412,0,0,0,0,0,0,0,0,0,-1,1525,1436,0,0
308,-412,0,0,0,0,0,0,0,0,0,-1,1532,1436,0,0
315,-412,0,0,0,0,0,0,0,0,0,-1,1539,1436,0,0
322,-412,0,0,0,0,0,0,0,0,0,-1,1546,1436,0,0
329,-412,0,0,0,0,0,0,0,0,0,-1,1553,1436,0,0
336,-412,0,0,0,0,0,0,0,0,0,-1,1560,1436,0,0
343,-412,0,0,0,0,0,0,0,0,0,-1,1567,1436,0,0
350,-412,0,0,0,0,0,0,0,0,0,-1,1574,1436,0,0
357,-412,0,0,0,0,0,0,0,0,0,-1,1581,1436,0,0
364,-412,0,0,0,0,0,0,0,0,0,-1,1588,1436,0,0
371,-412,0,0,0,0,0,0,0,0,0,-1,1595,1436,0,0
378,-412,0,0,0,0,0,0,0,0,0,-1,1602,1436,0,0
385,-412,0,0,0,0,0,0,0,0,0,-1,1609,1436,0,0
392,-412,0,0,0,0,0,0,0,0,0,-1,1616,1436,0,0
399,-412,0,0,0,0,0,0,0,0,0,-1,1623,1436,0,0
406,-412,0,0,0,0,0,0,0,0,0,-1,1630,1436,0,0
413,-412,0,0,0,0,0,0,0,0,0,-1,1637,1436,0,0
420,-412,0,0,0,0,0,0,0,0,0,-1,1644,1436,0,0
427,-412,0,0,0,0,0,0,0,0,0,-1,1651,1436,0,0
434,-412,0,0,0,0,0,0,0,0,0,-1,1658,1436,0,0
441,-412,0,0,0,0,0,0,0,0,0,-1,1665,1436,0,0
448,-412,0,0,0,0,0,0,0,0,0,-1,1672,1436,0,0
455,-412,0,0,0,0,0,0,0,0,0,-1,1679,1436,0,0
462,-412,0,0,0,0,0,0,0,0,0,-1,1686,1436,0,0
469,-412,0,0,0,0,0,0,0,0,0,-1,1693,1436,0,0
476,-412,0,0,0,0,0,0,0,0,0,-1,1700,1436,0,0
483,-412,0,0,0,0,0,0,0,0,0,-1,1707,1436,0,0
490,-412,0,0,0,0,0,0,0,0,0,-1,1714,1436,0,0
497,-412,0,0,0,0,0,0,0,0,0,-1,1721,1436,0,0
504,-412,0,0,0,0,0,0,0,0,0,-1,1728,1436,0,0
511,-412,0,0,0,0,0,0,0,0,0,-1,1735,1436,0,0
518,-412,30.1038,-2.43384,0,0,0,0,0,0,0,-1,1742,1436,30.1038,2.43383
525,-412,29.5283,-1.42493,0,0,0,0,0,0,0,-1,1749,1436,29.5283,1.42495
532,-412,28.8533,-0.386597,0,0,0,0,0,0,0,-1,1756,1436,28.8533,0.386632
539,-412,25.8654,2.74683,0,0,0,0,0,0,0,-1,1763,1436,25.8654,-2.74685
546,-412,25.4265,2.4342,0,0,0,0,0,0,0,-1,1770,1436,25.4265,-2.4342
553,-412,26.3595,7.49255,0,0,0,0,0,0,0,-1,1777,1436,26.3595,-7.4925
560,-412,24.9116,7.94324,0,0,0,0,0,0,0,-1,1784,1436,24.9116,-7.94327
567,-412,23.668,7.94531,0,0,0,0,0,0,0,-1,1791,1436,23.6679,-7.94534
574,-412,23.0142,9.17236,0,0,0,0,0,0,0,-1,1798,1436,23.0141,-9.17235
581,-412,22.2615,10.0349,0,0,0,0,0,0,0,-1,1805,1436,22.2615,-10.0349
588,-412,21.6893,10.8069,0,0,0,0,0,0,0,-1,1812,1436,21.6893,-10.8069
595,-412,21.5137,14.3157,0,0,0,0,0,0,0,-1,1819,1436,21.5137,-14.3157
602,-412,37.0725,24.8387,0,0,0,0,0,0,0,-1,1826,1436,37.0725,-24.8388
609,-412,38.8538,25.8472,0,0,0,0,0,0,0,-1,1833,1436,38.8538,-25.8472
616,-412,38.8734,25.0364,0.00173162,0.000937254,-0.00101226,0.00242183,0.000247048,-0.598441,0.00153883,0.0152449,1840,1436,38.8734,-25.0364
623,-412,38.7946,24.2147,0.00109301,0.000521135,-0.000590425,0.00146309,0.000151052,-0.559898,0.000929145,0.0105212,1847,1436,38.7946,-24.2147
630,-412,38.77,23.3511,0.000858719,0.000231478,-0.000389688,0.00104531,4.4884e-05,-0.446568,0.000682406,0.0129953,1854,1436,38.77,-23.351
637,-412,38.7427,22.4973,0.000984087,6.32798e-05,-0.000417091,0.00114492,-9.75542e-05,-0.368039,0.000797789,0.0154923,1861,1436,38.7427,-22.4973
644,-412,38.6923,21.6788,0.00143943,2.76134e-05,-0.000671556,0.00170784,-0.000240795,-0.380232,0.00122673,0.0167276,1868,1436,38.6922,-21.6788
651,-412,38.5829,20.8839,0.00217582,0.000146318,-0.00112512,0.0026762,-0.000354061,-0.418466,0.0019131,0.0260683,1875,1436,38.5829,-20.884
658,-412,38.5404,20.0638,0.00321254,0.000358645,-0.00178387,0.00406996,-0.000498784,-0.448054,0.00289393,0.0187459,1882,1436,38.5404,-20.0639
665,-412,38.5425,19.2501,0.00454417,0.000657819,-0.0026086,0.00585379,-0.000651808,-0.46528,0.00413695,0.0232478,1889,1436,38.5425,-19.2501
672,-412,38.5791,18.3635,0.00612096,0.00103247,-0.0035978,0.00798323,-0.000829797,-0.477638,0.00561921,0.0436849,1896,1436,38.5792,-18.3636
679,-412,38.6815,17.4454,0,0,0,0,0,0,0,-1,1903,1436,38.6815,-17.4455
686,-412,35.3159,15.2073,0,0,0,0,0,0,0,-1,1910,1436,35.3159,-15.2072
693,-412,11.9346,6.02344,0,0,0,0,0,0,0,-1,1917,1436,11.9346,-6.02343
700,-412,8.82764,5.8844,0,0,0,0,0,0,0,-1,1924,1436,8.82761,-5.88444
707,-412,6.59998,1.68994,0,0,0,0,0,0,0,-1,1931,1436,6.60002,-1.68995
714,-412,4.77283,-2.39832,0,0,0,0,0,0,0,-1,1938,1436,4.77288,2.39835
721,-412,0,0,0,0,0,0,0,0,0,-1,1945,1436,0,0
728,-412,0,0,0,0,0,0,0,0,0,-1,1952,1436,0,0
735,-412,0,0,0,0,0,0,0,0,0,-1,1959,1436,0,0
742,-412,0,0,0,0,0,0,0,0,0,-1,1966,1436,0,0
749,-412,0,0,0,0,0,0,0,0,0,-1,1973,1436,0,0
756,-412,0,0,0,0,0,0,0,0,0,-1,1980,1436,0,0
763,-412,0,0,0,0,0,0,0,0,0,-1,1987,1436,0,0
770,-412,0,0,0,0,0,0,0,0,0,-1,1994,1436,0,0
777,-412,0,0,0,0,0,0,0,0,0,-1,2001,1436,0,0
784,-412,0,0,0,0,0,0,0,0,0,-1,2008,1436,0,0
791,-412,0,0,0,0,0,0,0,0,0,-1,2015,1436,0,0
798,-412,0,0,0,0,0,0,0,0,0,-1,2022,1436,0,0
805,-412,0,0,0,0,0,0,0,0,0,-1,2029,1436,0,0
812,-412,0,0,0,0,0,0,0,0,0,-1,2036,1436,0,0
-700,-419,0,0,0,0,0,0,0,0,0,-1,524,1443,0,0
-693,-419,0,0,0,0,0,0,0,0,0,-1,531,1443,0,0
-686,-419,0,0,0,0,0,0,0,0,0,-1,538,1443,0,0
-679,-419,0,0,0,0,0,0,0,0,0,-1,545,1443,0,0
-672,-419,0,0,0,0,0,0,0,0,0,-1,552,1443,0,0
-665,-419,0,0,0,0,0,0,0,0,0,-1,559,1443,0,0
-658,-419,0,0,0,0,0,0,0,0,0,-1,566,1443,0,0
-651,-419,0,0,0,0,0,0,0,0,0,-1,573,1443,0,0
-644,-419,0,0,0,0,0,0,0,0,0,-1,580,1443,0,0
-637,-419,0,0,0,0,0,0,0,0,0,-1,587,1443,0,0
-630,-419,0,0,0,0,0,0,0,0,0,-1,594,1443,0,0
-623,-419,0,0,0,0,0,0,0,0,0,-1,601,1443,0,0
-616,-419,0,0,0,0,0,0,0,0,0,-1,608,1443,0,0
-609,-419,0,0,0,0,0,0,0,0,0,-1,615,1443,0,0
-602,-419,0,0,0,0,0,0,0,0,0,-1,622,1443,0,0
-595,-419,-11.4904,-0.622681,0,0,0,0,0,0,0,-1,629,1443,-11.4903,0.622714
-588,-419,-9.09369,0.742432,0,0,0,0,0,0,0,-1,636,1443,-9.09366,-0.742482
-581,-419,-6.39172,2.14673,0,0,0,0,0,0,0,-1,643,1443,-6.39175,-2.14668
-574,-419,-4.09772,3.54773,0,0,0,0,0,0,0,-1,650,1443,-4.09772,-3.54767
-567,-419,-6.14038,3.22498,0,0,0,0,0,0,0,-1,657,1443,-6.14037,-3.22497
-560,-419,-4.52814,5.22253,0,0,0,0,0,0,0,-1,664,1443,-4.52816,-5.22251
-553,-419,-5.08331,6.11829,0,0,0,0,0,0,0,-1,671,1443,-5.08331,-6.1183
-546,-419,-10.3732,9.23279,0,0,0,0,0,0,0,-1,678,1443,-10.3732,-9.23275
-539,-419,-20.6121,18.0646,0,0,0,0,0,0,0,-1,685,1443,-20.6121,-18.0645
-532,-419,-20.6846,19.1747,0.00445274,0.00463425,0.00422197,0.00876643,0.000320551,0.796144,0.00574042,0.0339321,692,1443,-20.6846,-19.1746
-525,-419,-20.6693,20.0938,0.00330374,0.00343592,0.00317632,0.00654684,0.000192824,0.7958,0.00430173,0.0136801,699,1443,-20.6693,-20.0938
-518,-419,-20.7095,20.9496,0.00252093,0.00257308,0.00240586,0.00495301,0.000141001,0.790817,0.00325602,0.0177799,706,1443,-20.7095,-20.9496
-511,-419,-20.8068,21.7644,0.00195741,0.00187654,0.00180342,0.00372085,0.000113104,0.77419,0.00244374,0.0209363,713,1443,-20.8068,-21.7644
-504,-419,-20.8671,22.609,0.00157658,0.00134831,0.00133814,0.00280544,0.000119447,0.742853,0.00183178,0.0211333,720,1443,-20.8671,-22.609
-497,-419,-20.8881,23.478,0.00139246,0.00100307,0.00103391,0.00224984,0.000145687,0.692334,0.00145377,0.0145005,727,1443,-20.8881,-23.478
-490,-419,-20.9268,24.345,0.00134969,0.000821202,0.000867127,0.00199194,0.00017895,0.637501,0.00127251,0.0112592,734,1443,-20.9267,-24.345
-483,-419,-20.9781,25.1838,0.00147383,0.000891487,0.000879798,0.00210939,0.00025593,0.625595,0.00132919,0.00985222,741,1443,-20.9781,-25.1839
-476,-419,-20.9825,26.1058,0.00171283,0.0010497,0.00101792,0.00245183,0.000310705,0.627953,0.00154146,0.0240434,748,1443,-20.9825,-26.1058
-469,-419,-21.0132,26.8978,0,0,0,0,0,0,0,-1,755,1443,-21.0132,-26.8979
-462,-419,-11.5347,18.1563,0,0,0,0,0,0,0,-1,762,1443,-11.5347,-18.1562
-455,-419,-7.35645,11.9451,0,0,0,0,0,0,0,-1,769,1443,-7.35646,-11.9451
-448,-419,-7.49109,9.92444,0,0,0,0,0,0,0,-1,776,1443,-7.49109,-9.92442
-441,-419,-7.65527,8.75574,0,0,0,0,0,0,0,-1,783,1443,-7.65525,-8.75568
-434,-419,-11.3724,12.3643,0,0,0,0,0,0,0,-1,790,1443,-11.3724,-12.3643
-427,-419,-8.23193,7.89404,0,0,0,0,0,0,0,-1,797,1443,-8.23193,-7.89404
-420,-419,-8.74091,6.36597,0,0,0,0,0,0,0,-1,804,1443,-8.74089,-6.366
-413,-419,-9.88391,6.53955,0,0,0,0,0,0,0,-1,811,1443,-9.8839,-6.53955
-406,-419,-10.3372,2.75195,0,0,0,0,0,0,0,-1,818,1443,-10.3372,-2.75201
-399,-419,-11.5999,1.40002,0,0,0,0,0,0,0,-1,825,1443,-11.5999,-1.39998
-392,-419,0,0,0,0,0,0,0,0,0,-1,832,1443,0,0
-385,-419,0,0,0,0,0,0,0,0,0,-1,839,1443,0,0
-378,-419,0,0,0,0,0,0,0,0,0,-1,846,1443,0,0
-371,-419,0,0,0,0,0,0,0,0,0,-1,853,1443,0,0
-364,-419,0,0,0,0,0,0,0,0,0,-1,860,1443,0,0
-357,-419,0,0,0,0,0,0,0,0,0,-1,867,1443,0,0
-350,-419,0,0,0,0,0,0,0,0,0,-1,874,1443,0,0
-343,-419,0,0,0,0,0,0,0,0,0,-1,881,1443,0,0
-336,-419,0,0,0,0,0,0,0,0,0,-1,888,1443,0,0
-329,-419,0,0,0,0,0,0,0,0,0,-1,895,1443,0,0
-322,-419,0,0,0,0,0,0,0,0,0,-1,902,1443,0,0
-315,-419,0,0,0,0,0,0,0,0,0,-1,909,1443,0,0
-308,-419,0,0,0,0,0,0,0,0,0,-1,916,1443,0,0
-301,-419,0,0,0,0,0,0,0,0,0,-1,923,1443,0,0
-294,-419,0,0,0,0,0,0,0,0,0,-1,930,1443,0,0
-287,-419,0,0,0,0,0,0,0,0,0,-1,937,1443,0,0
-280,-419,0,0,0,0,0,0,0,0,0,-1,944,1443,0,0
-273,-419,0,0,0,0,0,0,0,0,0,-1,951,1443,0,0
-266,-419,0,0,0,0,0,0,0,0,0,-1,958,1443,0,0
-259,-419,0,0,0,0,0,0,0,0,0,-1,965,1443,0,0
-252,-419,0,0,0,0,0,0,0,0,0,-1,972,1443,0,0
-245,-419,0,0,0,0,0,0,0,0,0,-1,979,1443,0,0
-238,-419,0,0,0,0,0,0,0,0,0,-1,986,1443,0,0
-231,-419,0,0,0,0,0,0,0,0,0,-1,993,1443,0,0
-224,-419,0,0,0,0,0,0,0,0,0,-1,1000,1443,0,0
-217,-419,0,0,0,0,0,0,0,0,0,-1,1007,1443,0,0
-210,-419,0,0,0,0,0,0,0,0,0,-1,1014,1443,0,0
-203,-419,0,0,0,0,0,0,0,0,0,-1,1021,1443,0,0
-196,-419,0,0,0,0,0,0,0,0,0,-1,1028,1443,0,0
-189,-419,0,0,0,0,0,0,0,0,0,-1,1035,1443,0,0
-182,-419,0,0,0,0,0,0,0,0,0,-1,1042,1443,0,0
-175,-419,0,0,0,0,0,0,0,0,0,-1,1049,1443,0,0
-168,-419,0,0,0,0,0,0,0,0,0,-1,1056,1443,0,0
-161,-419,0,0,0,0,0,0,0,0,0,-1,1063,1443,0,0
-154,-419,0,0,0,0,0,0,0,0,0,-1,1070,1443,0,0
-147,-419,0,0,0,0,0,0,0,0,0,-1,1077,1443,0,0
-140,-419,0,0,0,0,0,0,0,0,0,-1,1084,1443,0,0
-133,-419,0,0,0,0,0,0,0,0,0,-1,1091,1443,0,0
-126,-419,0,0,0,0,0,0,0,0,0,-1,1098,1443,0,0
-119,-419,0,0,0,0,0,0,0,0,0,-1,1105,1443,0,0
-112,-419,0,0,0,0,0,0,0,0,0,-1,1112,1443,0,0
-105,-419,0,0,0,0,0,0,0,0,0,-1,1119,1443,0,0
-98,-419,0,0,0,0,0,0,0,0,0,-1,1126,1443,0,0
-91,-419,0,0,0,0,0,0,0,0,0,-1,1133,1443,0,0
-84,-419,0,0,0,0,0,0,0,0,0,-1,1140,1443,0,0
-77,-419,0,0,0,0,0,0,0,0,0,-1,1147,1443,0,0
-70,-419,0,0,0,0,0,0,0,0,0,-1,1154,1443,0,0
-63,-419,0,0,0,0,0,0,0,0,0,-1,1161,1443,0,0
-56,-419,0,0,0,0,0,0,0,0,0,-1,1168,1443,0,0
-49,-419,0,0,0,0,0,0,0,0,0,-1,1175,1443,0,0
-42,-419,0,0,0,0,0,0,0,0,0,-1,1182,1443,0,0
-35,-419,0,0,0,0,0,0,0,0,0,-1,1189,1443,0,0
-28,-419,0,0,0,0,0,0,0,0,0,-1,1196,1443,0,0
-21,-419,0,0,0,0,0,0,0,0,0,-1,1203,1443,0,0
-14,-419,0,0,0,0,0,0,0,0,0,-1,1210,1443,0,0
-7,-419,0,0,0,0,0,0,0,0,0,-1,1217,1443,0,0
0,-419,0,0,0,0,0,0,0,0,0,-1,1224,1443,0,0
7,-419,0,0,0,0,0,0,0,0,0,-1,1231,1443,0,0
14,-419,0,0,0,0,0,0,0,0,0,-1,1238,1443,0,0
21,-419,0,0,0,0,0,0,0,0,0,-1,1245,1443,0,0
28,-419,0,0,0,0,0,0,0,0,0,-1,1252,1443,0,0
35,-419,0,0,0,0,0,0,0,0,0,-1,1259,1443,0,0
42,-419,0,0,0,0,0,0,0,0,0,-1,1266,1443,0,0
49,-419,0,0,0,0,0,0,0,0,0,-1,1273,1443,0,0
56,-419,0,0,0,0,0,0,0,0,0,-1,1280,1443,0,0
63,-419,0,0,0,0,0,0,0,0,0,-1,1287,1443,0,0
70,-419,0,0,0,0,0,0,0,0,0,-1,1294,1443,0,0
77,-419,0,0,0,0,0,0,0,0,0,-1,1301,1443,0,0
84,-419,0,0,0,0,0,0,0,0,0,-1,1308,1443,0,0
91,-419,0,0,0,0,0,0,0,0,0,-1,1315,1443,0,0
98,-419,0,0,0,0,0,0,0,0,0,-1,1322,1443,0,0
105,-419,0,0,0,0,0,0,0,0,0,-1,1329,1443,0,0
112,-419,0,0,0,0,0,0,0,0,0,-1,1336,1443,0,0
119,-419,0,0,0,0,0,0,0,0,0,-1,1343,1443,0,0
126,-419,0,0,0,0,0,0,0,0,0,-1,1350,1443,0,0
133,-419,0,0,0,0,0,0,0,0,0,-1,1357,1443,0,0
140,-419,0,0,0,0,0,0,0,0,0,-1,1364,1443,0,0
147,-419,0,0,0,0,0,0,0,0,0,-1,1371,1443,0,0
154,-419,0,0,0,0,0,0,0,0,0,-1,1378,1443,0,0
161,-419,0,0,0,0,0,0,0,0,0,-1,1385,1443,0,0
168,-419,0,0,0,0,0,0,0,0,0,-1,1392,1443,0,0
175,-419,0,0,0,0,0,0,0,0,0,-1,1399,1443,0,0
182,-419,0,0,0,0,0,0,0,0,0,-1,1406,1443,0,0
189,-419,0,0,0,0,0,0,0,0,0,-1,1413,1443,0,0
196,-419,0,0,0,0,0,0,0,0,0,-1,1420,1443,0,0
203,-419,0,0,0,0,0,0,0,0,0,-1,1427,1443,0,0
210,-419,0,0,0,0,0,0,0,0,0,-1,1434,1443,0,0
217,-419,0,0,0,0,0,0,0,0,0,-1,1441,1443,0,0
224,-419,0,0,0,0,0,0,0,0,0,-1,1448,1443,0,0
231,-419,0,0,0,0,0,0,0,0,0,-1,1455,1443,0,0
238,-419,0,0,0,0,0,0,0,0,0,-1,1462,1443,0,0
245,-419,0,0,0,0,0,0,0,0,0,-1,1469,1443,0,0
252,-419,0,0,0,0,0,0,0,0,0,-1,1476,1443,0,0
259,-419,0,0,0,0,0,0,0,0,0,-1,1483,1443,0,0
266,-419,0,0,0,0,0,0,0,0,0,-1,1490,1443,0,0
273,-419,0,0,0,0,0,0,0,0,0,-1,1497,1443,0,0
280,-419,0,0,0,0,0,0,0,0,0,-1,1504,1443,0,0
287,-419,0,0,0,0,0,0,0,0,0,-1,1511,1443,0,0
294,-419,0,0,0,0,0,0,0,0,0,-1,1518,1443,0,0
301,-419,0,0,0,0,0,0,0,0,0,-1,1525,1443,0,0
308,-419,0,0,0,0,0,0,0,0,0,-1,1532,1443,0,0
315,-419,0,0,0,0,0,0,0,0,0,-1,1539,1443,0,0
322,-419,0,0,0,0,0,0,0,0,0,-1,1546,1443,0,0
329,-419,0,0,0,0,0,0,0,0,0,-1,1553,1443,0,0
336,-419,0,0,0,0,0,0,0,0,0,-1,1560,1443,0,0
343,-419,0,0,0,0,0,0,0,0,0,-1,1567,1443,0,0
350,-419,0,0,0,0,0,0,0,0,0,-1,1574,1443,0,0
357,-419,0,0,0,0,0,0,0,0,0,-1,1581,1443,0,0
364,-419,0,0,0,0,0,0,0,0,0,-1,1588,1443,0,0
371,-419,0,0,0,0,0,0,0,0,0,-1,1595,1443,0,0
378,-419,0,0,0,0,0,0,0,0,0,-1,1602,1443,0,0
385,-419,0,0,0,0,0,0,0,0,0,-1,1609,1443,0,0
392,-419,0,0,0,0,0,0,0,0,0,-1,1616,1443,0,0
399,-419,0,0,0,0,0,0,0,0,0,-1,1623,1443,0,0
406,-419,0,0,0,0,0,0,0,0,0,-1,1630,1443,0,0
413,-419,0,0,0,0,0,0,0,0,0,-1,1637,1443,0,0
420,-419,0,0,0,0,0,0,0,0,0,-1,1644,1443,0,0
427,-419,0,0,0,0,0,0,0,0,0,-1,1651,1443,0,0
434,-419,0,0,0,0,0,0,0,0,0,-1,1658,1443,0,0
441,-419,0,0,0,0,0,0,0,0,0,-1,1665,1443,0,0
448,-419,0,0,0,0,0,0,0,0,0,-1,1672,1443,0,0
455,-419,0,0,0,0,0,0,0,0,0,-1,1679,1443,0,0
462,-419,0,0,0,0,0,0,0,0,0,-1,1686,1443,0,0
469,-419,0,0,0,0,0,0,0,0,0,-1,1693,1443,0,0
476,-419,0,0,0,0,0,0,0,0,0,-1,1700,1443,0,0
483,-419,0,0,0,0,0,0,0,0,0,-1,1707,1443,0,0
490,-419,0,0,0,0,0,0,0,0,0,-1,1714,1443,0,0
497,-419,0,0,0,0,0,0,0,0,0,-1,1721,1443,0,0
504,-419,0,0,0,0,0,0,0,0,0,-1,1728,1443,0,0
511,-419,20.3005,3.7959,0,0,0,0,0,0,0,-1,1735,1443,20.3005,-3.79584
518,-419,21.3154,2.03027,0,0,0,0,0,0,0,-1,1742,1443,21.3155,-2.03029
525,-419,28.3439,-1.24475,0,0,0,0,0,0,0,-1,1749,1443,28.3438,1.24471
532,-419,27.5902,-0.272583,0,0,0,0,0,0,0,-1,1756,1443,27.5902,0.272526
539,-419,26.5278,1.60583,0,0,0,0,0,0,0,-1,1763,1443,26.5279,-1.60579
546,-419,24.9509,2.77539,0,0,0,0,0,0,0,-1,1770,1443,24.9509,-2.77537
553,-419,24.118,3.75525,0,0,0,0,0,0,0,-1,1777,1443,24.1181,-3.75526
560,-419,11.8199,8.26343,0,0,0,0,0,0,0,-1,1784,1443,11.82,-8.26341
567,-419,21.5143,8.74719,0,0,0,0,0,0,0,-1,1791,1443,21.5143,-8.74722
574,-419,19.5886,6.46155,0,0,0,0,0,0,0,-1,1798,1443,19.5886,-6.46157
581,-419,20.7926,11.4265,0,0,0,0,0,0,0,-1,1805,1443,20.7926,-11.4265
588,-419,19.4242,12.5363,0,0,0,0,0,0,0,-1,1812,1443,19.4242,-12.5362
595,-419,22.9375,16.0151,0,0,0,0,0,0,0,-1,1819,1443,22.9375,-16.0152
602,-419,38.1036,26.7595,0,0,0,0,0,0,0,-1,1826,1443,38.1037,-26.7596
609,-419,38.0677,25.8929,0.00296299,0.00126286,-0.00186153,0.00415936,6.64934e-05,-0.571214,0.00275101,0.0311254,1833,1443,38.0678,-25.893
616,-419,38.0116,25.1074,0.00208695,0.000814079,-0.00122194,0.00282826,7.27695e-05,-0.545308,0.00186172,0.012903,1840,1443,38.0116,-25.1075
623,-419,37.9772,24.2559,0.0014958,0.000514547,-0.000789319,0.00193455,7.57971e-05,-0.50733,0.00126519,0.0108291,1847,1443,37.9772,-24.2559
630,-419,37.958,23.4008,0.00126983,0.000260776,-0.000571668,0.00152777,2.83832e-06,-0.423853,0.00101757,0.0129444,1854,1443,37.958,-23.4008
637,-419,37.9188,22.6088,0.00134437,0.000135872,-0.000546848,0.00155508,-7.48388e-05,-0.367786,0.00106255,0.0143602,1861,1443,37.9189,-22.6088
644,-419,37.8711,21.7903,0.00174756,0.000136868,-0.000765091,0.00205304,-0.000168618,-0.379886,0.00142822,0.0133205,1868,1443,37.8711,-21.7903
651,-419,37.7937,20.9877,0.00243301,0.000266957,-0.00119827,0.00296516,-0.000265194,-0.417936,0.00207084,0.0120511,1875,1443,37.7937,-20.9877
658,-419,37.7263,20.1183,0.00346849,0.000510357,-0.00186889,0.00437278,-0.000393929,-0.450655,0.00305497,0.0139703,1882,1443,37.7263,-20.1182
665,-419,37.7401,19.2904,0.00482067,0.000809541,-0.00271962,0.00619425,-0.000564039,-0.46769,0.00432978,0.0248637,1889,1443,37.7401,-19.2904
672,-419,37.8212,18.3402,0,0,0,0,0,0,0,-1,1896,1443,37.8212,-18.3402
679,-419,35.5436,15.4066,0,0,0,0,0,0,0,-1,1903,1443,35.5436,-15.4067
686,-419,17.4127,8.03076,0,0,0,0,0,0,0,-1,1910,1443,17.4127,-8.03071
693,-419,8.76086,5.60535,0,0,0,0,0,0,0,-1,1917,1443,8.76091,-5.6054
700,-419,11.0498,4.85156,0,0,0,0,0,0,0,-1,1924,1443,11.0498,-4.85153
707,-419,9.5752,1.80042,0,0,0,0,0,0,0,-1,1931,1443,9.57523,-1.80037
714,-419,5.77576,-1.25061,0,0,0,0,0,0,0,-1,1938,1443,5.7757,1.25056
721,-419,0,0,0,0,0,0,0,0,0,-1,1945,1443,0,0
728,-419,0,0,0,0,0,0,0,0,0,-1,1952,1443,0,0
735,-419,0,0,0,0,0,0,0,0,0,-1,1959,1443,0,0
742,-419,0,0,0,0,0,0,0,0,0,-1,1966,1443,0,0
749,-419,0,0,0,0,0,0,0,0,0,-1,1973,1443,0,0
756,-419,0,0,0,0,0,0,0,0,0,-1,1980,1443,0,0
763,-419,0,0,0,0,0,0,0,0,0,-1,1987,1443,0,0
770,-419,0,0,0,0,0,0,0,0,0,-1,1994,1443,0,0
777,-419,0,0,0,0,0,0,0,0,0,-1,2001,1443,0,0
784,-419,0,0,0,0,0,0,0,0,0,-1,2008,1443,0,0
791,-419,0,0,0,0,0,0,0,0,0,-1,2015,1443,0,0
798,-419,0,0,0,0,0,0,0,0,0,-1,2022,1443,0,0
805,-419,0,0,0,0,0,0,0,0,0,-1,2029,1443,0,0
812,-419,0,0,0,0,0,0,0,0,0,-1,2036,1443,0,0
-700,-426,0,0,0,0,0,0,0,0,0,-1,524,1450,0,0
-693,-426,0,0,0,0,0,0,0,0,0,-1,531,1450,0,0
-686,-426,0,0,0,0,0,0,0,0,0,-1,538,1450,0,0
-679,-426,0,0,0,0,0,0,0,0,0,-1,545,1450,0,0
-672,-426,0,0,0,0,0,0,0,0,0,-1,552,1450,0,0
-665,-426,0,0,0,0,0,0,0,0,0,-1,559,1450,0,0
-658,-426,0,0,0,0,0,0,0,0,0,-1,566,1450,0,0
-651,-426,0,0,0,0,0,0,0,0,0,-1,573,1450,0,0
-644,-426,0,0,0,0,0,0,0,0,0,-1,580,1450,0,0
-637,-426,0,0,0,0,0,0,0,0,0,-1,587,1450,0,0
-630,-426,0,0,0,0,0,0,0,0,0,-1,594,1450,0,0
-623,-426,0,0,0,0,0,0,0,0,0,-1,601,1450,0,0
-616,-426,0,0,0,0,0,0,0,0,0,-1,608,1450,0,0
-609,-426,0,0,0,0,0,0,0,0,0,-1,615,1450,0,0
-602,-426,0,0,0,0,0,0,0,0,0,-1,622,1450,0,0
-595,-426,0,0,0,0,0,0,0,0,0,-1,629,1450,0,0
-588,-426,-10.184,-0.554321,0,0,0,0,0,0,0,-1,636,1450,-10.184,0.554321
-581,-426,-7.3349,1.48157,0,0,0,0,0,0,0,-1,643,1450,-7.33491,-1.48152
-574,-426,-5.02856,2.89319,0,0,0,0,0,0,0,-1,650,1450,-5.02858,-2.89319
-567,-426,-3.04797,1.72644,0,0,0,0,0,0,0,-1,657,1450,-3.04797,-1.72639
-560,-426,-5.55682,3.44397,0,0,0,0,0,0,0,-1,664,1450,-5.55684,-3.44399
-553,-426,-4.67017,6.66614,0,0,0,0,0,0,0,-1,671,1450,-4.67015,-6.66619
-546,-426,-7.58752,8.28882,0,0,0,0,0,0,0,-1,678,1450,-7.58752,-8.28878
-539,-426,-10.436,10.7441,0,0,0,0,0,0,0,-1,685,1450,-10.436,-10.7441
-532,-426,-19.9324,19.1401,0,0,0,0,0,0,0,-1,692,1450,-19.9324,-19.1401
-525,-426,-19.8543,20.0594,0.00340496,0.0043037,0.0038499,0.00773037,-2.17082e-05,0.843496,0.00516083,0.0270302,699,1450,-19.8543,-20.0594
-518,-426,-19.8536,21.0027,0.00260776,0.00328498,0.00295525,0.00592096,-2.82135e-05,0.842439,0.00395674,0.0170705,706,1450,-19.8535,-21.0027
-511,-426,-19.9213,21.8508,0.00202907,0.00243278,0.00224549,0.00448547,-2.36151e-05,0.830224,0.00299822,0.0166748,713,1450,-19.9213,-21.8508
-504,-426,-19.9907,22.6888,0.00161792,0.00176793,0.00167709,0.0033717,1.41561e-05,0.807744,0.0022431,0.0162751,720,1450,-19.9907,-22.6888
-497,-426,-20.014,23.5513,0.0013762,0.00128466,0.00125515,0.00258641,7.4445e-05,0.767173,0.0017,0.0131925,727,1450,-20.014,-23.5513
-490,-426,-20.0683,24.4048,0.00124651,0.000964118,0.000960421,0.00207606,0.00013457,0.712414,0.00134143,0.0127899,734,1450,-20.0683,-24.4048
-483,-426,-20.1202,25.2476,0.00131184,0.000912916,0.000871178,0.0020061,0.000218657,0.672859,0.0012708,0.0121768,741,1450,-20.1202,-25.2476
-476,-426,-20.1646,26.089,0.00151648,0.00103996,0.000949545,0.0022572,0.00029924,0.662475,0.00141564,0.00936501,748,1450,-20.1645,-26.089
-469,-426,-20.222,26.937,0.001874,0.00142584,0.00119355,0.00286433,0.000435516,0.692607,0.00178221,0.0148589,755,1450,-20.222,-26.937
-462,-426,-20.1773,27.8424,0,0,0,0,0,0,0,-1,762,1450,-20.1773,-27.8424
-455,-426,-10.215,17.7007,0,0,0,0,0,0,0,-1,769,1450,-10.215,-17.7007
-448,-426,-6.46545,10.1322,0,0,0,0,0,0,0,-1,776,1450,-6.46543,-10.1322
-441,-426,-10.9547,11.4747,0,0,0,0,0,0,0,-1,783,1450,-10.9546,-11.4748
-434,-426,-10.4998,13.6189,0,0,0,0,0,0,0,-1,790,1450,-10.4997,-13.6189
-427,-426,-9.36627,13.7396,0,0,0,0,0,0,0,-1,797,1450,-9.36628,-13.7396
-420,-426,-5.33765,7.95044,0,0,0,0,0,0,0,-1,804,1450,-5.33766,-7.95041
-413,-426,-10.1148,5.0415,0,0,0,0,0,0,0,-1,811,1450,-10.1148,-5.04152
-406,-426,-11.4199,3.6438,0,0,0,0,0,0,0,-1,818,1450,-11.4198,-3.64382
-399,-426,-12.7595,2.29004,0,0,0,0,0,0,0,-1,825,1450,-12.7595,-2.29003
-392,-426,-12.4147,0.537354,0,0,0,0,0,0,0,-1,832,1450,-12.4147,-0.53731
-385,-426,0,0,0,0,0,0,0,0,0,-1,839,1450,0,0
-378,-426,0,0,0,0,0,0,0,0,0,-1,846,1450,0,0
-371,-426,0,0,0,0,0,0,0,0,0,-1,853,1450,0,0
-364,-426,0,0,0,0,0,0,0,0,0,-1,860,1450,0,0
-357,-426,0,0,0,0,0,0,0,0,0,-1,867,1450,0,0
-350,-426,0,0,0,0,0,0,0,0,0,-1,874,1450,0,0
-343,-426,0,0,0,0,0,0,0,0,0,-1,881,1450,0,0
-336,-426,0,0,0,0,0,0,0,0,0,-1,888,1450,0,0
-329,-426,0,0,0,0,0,0,0,0,0,-1,895,1450,0,0
-322,-426,0,0,0,0,0,0,0,0,0,-1,902,1450,0,0
-315,-426,0,0,0,0,0,0,0,0,0,-1,909,1450,0,0
-308,-426,0,0,0,0,0,0,0,0,0,-1,916,1450,0,0
-301,-426,0,0,0,0,0,0,0,0,0,-1,923,1450,0,0
-294,-426,0,0,0,0,0,0,0,0,0,-1,930,1450,0,0
-287,-426,0,0,0,0,0,0,0,0,0,-1,937,1450,0,0
-280,-426,0,0,0,0,0,0,0,0,0,-1,944,1450,0,0
-273,-426,0,0,0,0,0,0,0,0,0,-1,951,1450,0,0
-266,-426,0,0,0,0,0,0,0,0,0,-1,958,1450,0,0
-259,-426,0,0,0,0,0,0,0,0,0,-1,965,1450,0,0
-252,-426,0,0,0,0,0,0,0,0,0,-1,972,1450,0,0
-245,-426,0,0,0,0,0,0,0,0,0,-1,979,1450,0,0
-238,-426,0,0,0,0,0,0,0,0,0,-1,986,1450,0,0
-231,-426,0,0,0,0,0,0,0,0,0,-1,993,1450,0,0
-224,-426,0,0,0,0,0,0,0,0,0,-1,1000,1450,0,0
-217,-426,0,0,0,0,0,0,0,0,0,-1,1007,1450,0,0
-210,-426,0,0,0,0,0,0,0,0,0,-1,1014,1450,0,0
-203,-426,0,0,0,0,0,0,0,0,0,-1,1021,1450,0,0
-196,-426,0,0,0,0,0,0,0,0,0,-1,1028,1450,0,0
-189,-426,0,0,0,0,0,0,0,0,0,-1,1035,1450,0,0
-182,-426,0,0,0,0,0,0,0,0,0,-1,1042,1450,0,0
-175,-426,0,0,0,0,0,0,0,0,0,-1,1049,1450,0,0
-168,-426,0,0,0,0,0,0,0,0,0,-1,1056,1450,0,0
-161,-426,0,0,0,0,0,0,0,0,0,-1,1063,1450,0,0
-154,-426,0,0,0,0,0,0,0,0,0,-1,1070,1450,0,0
-147,-426,0,0,0,0,0,0,0,0,0,-1,1077,1450,0,0
-140,-426,0,0,0,0,0,0,0,0,0,-1,1084,1450,0,0
-133,-426,0,0,0,0,0,0,0,0,0,-1,1091,1450,0,0
-126,-426,0,0,0,0,0,0,0,0,0,-1,1098,1450,0,0
-119,-426,0,0,0,0,0,0,0,0,0,-1,1105,1450,0,0
-112,-426,0,0,0,0,0,0,0,0,0,-1,1112,1450,0,0
-105,-426,0,0,0,0,0,0,0,0,0,-1,1119,1450,0,0
-98,-426,0,0,0,0,0,0,0,0,0,-1,1126,1450,0,0
-91,-426,0,0,0,0,0,0,0,0,0,-1,1133,1450,0,0
-84,-426,0,0,0,0,0,0,0,0,0,-1,1140,1450,0,0
-77,-426,0,0,0,0,0,0,0,0,0,-1,1147,1450,0,0
-70,-426,0,0,0,0,0,0,0,0,0,-1,1154,1450,0,0
-63,-426,0,0,0,0,0,0,0,0,0,-1,1161,1450,0,0
-56,-426,0,0,0,0,0,0,0,0,0,-1,1168,1450,0,0
-49,-426,0,0,0,0,0,0,0,0,0,-1,1175,1450,0,0
-42,-426,0,0,0,0,0,0,0,0,0,-1,1182,1450,0,0
-35,-426,0,0,0,0,0,0,0,0,0,-1,1189,1450,0,0
-28,-426,0,0,0,0,0,0,0,0,0,-1,1196,1450,0,0
-21,-426,0,0,0,0,0,0,0,0,0,-1,1203,1450,0,0
-14,-426,0,0,0,0,0,0,0,0,0,-1,1210,1450,0,0
-7,-426,0,0,0,0,0,0,0,0,0,-1,1217,1450,0,0
0,-426,0,0,0,0,0,0,0,0,0,-1,1224,1450,0,0
7,-426,0,0,0,0,0,0,0,0,0,-1,1231,1450,0,0
14,-426,0,0,0,0,0,0,0,0,0,-1,1238,1450,0,0
21,-426,0,0,0,0,0,0,0,0,0,-1,1245,1450,0,0
28,-426,0,0,0,0,0,0,0,0,0,-1,1252,1450,0,0
35,-426,0,0,0,0,0,0,0,0,0,-1,1259,1450,0,0
42,-426,0,0,0,0,0,0,0,0,0,-1,1266,1450,0,0
49,-426,0,0,0,0,0,0,0,0,0,-1,1273,1450,0,0
56,-426,0,0,0,0,0,0,0,0,0,-1,1280,1450,0,0
63,-426,0,0,0,0,0,0,0,0,0,-1,1287,1450,0,0
70,-426,0,0,0,0,0,0,0,0,0,-1,1294,1450,0,0
77,-426,0,0,0,0,0,0,0,0,0,-1,1301,1450,0,0
84,-426,0,0,0,0,0,0,0,0,0,-1,1308,1450,0,0
91,-426,0,0,0,0,0,0,0,0,0,-1,1315,1450,0,0
98,-426,0,0,0,0,0,0,0,0,0,-1,1322,1450,0,0
105,-426,0,0,0,0,0,0,0,0,0,-1,1329,1450,0,0
112,-426,0,0,0,0,0,0,0,0,0,-1,1336,1450,0,0
119,-426,0,0,0,0,0,0,0,0,0,-1,1343,1450,0,0
126,-426,0,0,0,0,0,0,0,0,0,-1,1350,1450,0,0
133,-426,0,0,0,0,0,0,0,0,0,-1,1357,1450,0,0
140,-426,0,0,0,0,0,0,0,0,0,-1,1364,1450,0,0
147,-426,0,0,0,0,0,0,0,0,0,-1,1371,1450,0,0
154,-426,0,0,0,0,0,0,0,0,0,-1,1378,1450,0,0
161,-426,0,0,0,0,0,0,0,0,0,-1,1385,1450,0,0
168,-426,0,0,0,0,0,0,0,0,0,-1,1392,1450,0,0
175,-426,0,0,0,0,0,0,0,0,0,-1,1399,1450,0,0
182,-426,0,0,0,0,0,0,0,0,0,-1,1406,1450,0,0
189,-426,0,0,0,0,0,0,0,0,0,-1,1413,1450,0,0
196,-426,0,0,0,0,0,0,0,0,0,-1,1420,1450,0,0
203,-426,0,0,0,0,0,0,0,0,0,-1,1427,1450,0,0
210,-426,0,0,0,0,0,0,0,0,0,-1,1434,1450,0,0
217,-426,0,0,0,0,0,0,0,0,0,-1,1441,1450,0,0
224,-426,0,0,0,0,0,0,0,0,0,-1,1448,1450,0,0
231,-426,0,0,0,0,0,0,0,0,0,-1,1455,1450,0,0
238,-426,0,0,0,0,0,0,0,0,0,-1,1462,1450,0,0
245,-426,0,0,0,0,0,0,0,0,0,-1,1469,1450,0,0
252,-426,0,0,0,0,0,0,0,0,0,-1,1476,1450,0,0
259,-426,0,0,0,0,0,0,0,0,0,-1,1483,1450,0,0
266,-426,0,0,0,0,0,0,0,0,0,-1,1490,1450,0,0
273,-426,0,0,0,0,0,0,0,0,0,-1,1497,1450,0,0
280,-426,0,0,0,0,0,0,0,0,0,-1,1504,1450,0,0
287,-426,0,0,0,0,0,0,0,0,0,-1,1511,1450,0,0
294,-426,0,0,0,0,0,0,0,0,0,-1,1518,1450,0,0
301,-426,0,0,0,0,0,0,0,0,0,-1,1525,1450,0,0
308,-426,0,0,0,0,0,0,0,0,0,-1,1532,1450,0,0
315,-426,0,0,0,0,0,0,0,0,0,-1,1539,1450,0,0
322,-426,0,0,0,0,0,0,0,0,0,-1,1546,1450,0,0
329,-426,0,0,0,0,0,0,0,0,0,-1,1553,1450,0,0
336,-426,0,0,0,0,0,0,0,0,0,-1,1560,1450,0,0
343,-426,0,0,0,0,0,0,0,0,0,-1,1567,1450,0,0
350,-426,0,0,0,0,0,0,0,0,0,-1,1574,1450,0,0
357,-426,0,0,0,0,0,0,0,0,0,-1,1581,1450,0,0
364,-426,0,0,0,0,0,0,0,0,0,-1,1588,1450,0,0
371,-426,0,0,0,0,0,0,0,0,0,-1,1595,1450,0,0
378,-426,0,0,0,0,0,0,0,0,0,-1,1602,1450,0,0
385,-426,0,0,0,0,0,0,0,0,0,-1,1609,1450,0,0
392,-426,0,0,0,0,0,0,0,0,0,-1,1616,1450,0,0
399,-426,0,0,0,0,0,0,0,0,0,-1,1623,1450,0,0
406,-426,0,0,0,0,0,0,0,0,0,-1,1630,1450,0,0
413,-426,0,0,0,0,0,0,0,0,0,-1,1637,1450,0,0
420,-426,0,0,0,0,0,0,0,0,0,-1,1644,1450,0,0
427,-426,0,0,0,0,0,0,0,0,0,-1,1651,1450,0,0
434,-426,0,0,0,0,0,0,0,0,0,-1,1658,1450,0,0
441,-426,0,0,0,0,0,0,0,0,0,-1,1665,1450,0,0
448,-426,0,0,0,0,0,0,0,0,0,-1,1672,1450,0,0
455,-426,0,0,0,0,0,0,0,0,0,-1,1679,1450,0,0
462,-426,0,0,0,0,0,0,0,0,0,-1,1686,1450,0,0
469,-426,0,0,0,0,0,0,0,0,0,-1,1693,1450,0,0
476,-426,0,0,0,0,0,0,0,0,0,-1,1700,1450,0,0
483,-426,0,0,0,0,0,0,0,0,0,-1,1707,1450,0,0
490,-426,0,0,0,0,0,0,0,0,0,-1,1714,1450,0,0
497,-426,0,0,0,0,0,0,0,0,0,-1,1721,1450,0,0
504,-426,20.6873,3.38367,0,0,0,0,0,0,0,-1,1728,1450,20.6873,-3.38361
511,-426,19.6676,3.53748,0,0,0,0,0,0,0,-1,1735,1450,19.6676,-3.53749
518,-426,18.6853,3.32288,0,0,0,0,0,0,0,-1,1742,1450,18.6853,-3.3229
525,-426,18.9552,2.71033,0,0,0,0,0,0,0,-1,1749,1450,18.9552,-2.71034
532,-426,19.4333,2.70764,0,0,0,0,0,0,0,-1,1756,1450,19.4334,-2.70764
539,-426,25.1482,2.56287,0,0,0,0,0,0,0,-1,1763,1450,25.1482,-2.56286
546,-426,24.1136,3.75659,0,0,0,0,0,0,0,-1,1770,1450,24.1136,-3.7566
553,-426,23.0791,4.95032,0,0,0,0,0,0,0,-1,1777,1450,23.0791,-4.95034
560,-426,12.9688,11.8289,0,0,0,0,0,0,0,-1,1784,1450,12.9688,-11.8288
567,-426,13.6388,11.5623,0,0,0,0,0,0,0,-1,1791,1450,13.6388,-11.5623
574,-426,14.3943,11.0286,0,0,0,0,0,0,0,-1,1798,1450,14.3942,-11.0285
581,-426,16.3879,11.4653,0,0,0,0,0,0,0,-1,1805,1450,16.3879,-11.4653
588,-426,18.1212,12.5547,0,0,0,0,0,0,0,-1,1812,1450,18.1212,-12.5547
595,-426,30.0474,21.0964,0,0,0,0,0,0,0,-1,1819,1450,30.0474,-21.0965
602,-426,37.2365,26.9058,0,0,0,0,0,0,0,-1,1826,1450,37.2365,-26.9058
609,-426,37.2405,25.9724,0.00316625,0.00127529,-0.00196127,0.00439804,4.34991e-05,-0.560796,0.00291763,0.0159256,1833,1450,37.2405,-25.9724
616,-426,37.1927,25.1359,0.00227547,0.000797809,-0.00128412,0.00301813,5.51428e-05,-0.524346,0.00199396,0.0156285,1840,1450,37.1927,-25.1359
623,-426,37.1619,24.295,0.00173951,0.000516997,-0.000846291,0.00217221,8.42984e-05,-0.472637,0.00142087,0.0124561,1847,1450,37.1619,-24.2951
630,-426,37.1587,23.4783,0.00156505,0.000248163,-0.000617502,0.0018093,3.91318e-06,-0.37666,0.0012049,0.01331,1854,1450,37.1587,-23.4783
637,-426,37.0991,22.6652,0.00163833,0.000110598,-0.000553995,0.00181808,-6.9147e-05,-0.313736,0.00123575,0.0143237,1861,1450,37.0991,-22.6651
644,-426,37.0134,21.8506,0.00203457,0.000109218,-0.00073637,0.00228391,-0.000140124,-0.326491,0.0015714,0.0143228,1868,1450,37.0134,-21.8506
651,-426,36.9451,21.0259,0.00274909,0.000246367,-0.00117676,0.00321548,-0.000220024,-0.377342,0.00222063,0.0129914,1875,1450,36.9451,-21.0259
658,-426,36.9102,20.1235,0.00385478,0.000534323,-0.00187137,0.00469623,-0.000307126,-0.422557,0.00323805,0.0146811,1882,1450,36.9102,-20.1235
665,-426,37.0017,19.2838,0,0,0,0,0,0,0,-1,1889,1450,37.0018,-19.2838
672,-426,36.2397,16.927,0,0,0,0,0,0,0,-1,1896,1450,36.2397,-16.9271
679,-426,17.1522,8.15784,0,0,0,0,0,0,0,-1,1903,1450,17.1522,-8.15784
686,-426,13.5326,8.03711,0,0,0,0,0,0,0,-1,1910,1450,13.5326,-8.03717
693,-426,11.8607,6.45215,0,0,0,0,0,0,0,-1,1917,1450,11.8607,-6.45215
700,-426,9.24304,2.95447,0,0,0,0,0,0,0,-1,1924,1450,9.24305,-2.95442
707,-426,8.44519,-1.21448,0,0,0,0,0,0,0,-1,1931,1450,8.44514,1.21454
714,-426,0,0,0,0,0,0,0,0,0,-1,1938,1450,0,0
721,-426,0,0,0,0,0,0,0,0,0,-1,1945,1450,0,0
728,-426,0,0,0,0,0,0,0,0,0,-1,1952,1450,0,0
735,-426,0,0,0,0,0,0,0,0,0,-1,1959,1450,0,0
742,-426,0,0,0,0,0,0,0,0,0,-1,1966,1450,0,0
749,-426,0,0,0,0,0,0,0,0,0,-1,1973,1450,0,0
756,-426,0,0,0,0,0,0,0,0,0,-1,1980,1450,0,0
763,-426,0,0,0,0,0,0,0,0,0,-1,1987,1450,0,0
770,-426,0,0,0,0,0,0,0,0,0,-1,1994,1450,0,0
777,-426,0,0,0,0,0,0,0,0,0,-1,2001,1450,0,0
784,-426,0,0,0,0,0,0,0,0,0,-1,2008,1450,0,0
791,-426,0,0,0,0,0,0,0,0,0,-1,2015,1450,0,0
798,-426,0,0,0,0,0,0,0,0,0,-1,2022,1450,0,0
805,-426,0,0,0,0,0,0,0,0,0,-1,2029,1450,0,0
812,-426,0,0,0,0,0,0,0,0,0,-1,2036,1450,0,0
-700,-433,0,0,0,0,0,0,0,0,0,-1,524,1457,0,0
-693,-433,0,0,0,0,0,0,0,0,0,-1,531,1457,0,0
-686,-433,0,0,0,0,0,0,0,0,0,-1,538,1457,0,0
-679,-433,0,0,0,0,0,0,0,0,0,-1,545,1457,0,0
-672,-433,0,0,0,0,0,0,0,0,0,-1,552,1457,0,0
-665,-433,0,0,0,0,0,0,0,0,0,-1,559,1457,0,0
-658,-433,0,0,0,0,0,0,0,0,0,-1,566,1457,0,0
-651,-433,0,0,0,0,0,0,0,0,0,-1,573,1457,0,0
-644,-433,0,0,0,0,0,0,0,0,0,-1,580,1457,0,0
-637,-433,0,0,0,0,0,0,0,0,0,-1,587,1457,0,0
-630,-433,0,0,0,0,0,0,0,0,0,-1,594,1457,0,0
-623,-433,0,0,0,0,0,0,0,0,0,-1,601,1457,0,0
-616,-433,0,0,0,0,0,0,0,0,0,-1,608,1457,0,0
-609,-433,0,0,0,0,0,0,0,0,0,-1,615,1457,0,0
-602,-433,0,0,0,0,0,0,0,0,0,-1,622,1457,0,0
-595,-433,0,0,0,0,0,0,0,0,0,-1,629,1457,0,0
-588,-433,-10.3756,-0.467041,0,0,0,0,0,0,0,-1,636,1457,-10.3756,0.467081
-581,-433,-8.12201,0.884033,0,0,0,0,0,0,0,-1,643,1457,-8.12204,-0.884056
-574,-433,-5.86847,2.23523,0,0,0,0,0,0,0,-1,650,1457,-5.86844,-2.23519
-567,-433,-5.42255,1.16833,0,0,0,0,0,0,0,-1,657,1457,-5.42254,-1.1683
-560,-433,-6.84027,1.86414,0,0,0,0,0,0,0,-1,664,1457,-6.84026,-1.86412
-553,-433,-5.74017,1.79163,0,0,0,0,0,0,0,-1,671,1457,-5.74015,-1.79166
-546,-433,-8.12451,7.35095,0,0,0,0,0,0,0,-1,678,1457,-8.12451,-7.35097
-539,-433,-7.3136,8.75659,0,0,0,0,0,0,0,-1,685,1457,-7.31362,-8.75659
-532,-433,-14.5645,14.8475,0,0,0,0,0,0,0,-1,692,1457,-14.5645,-14.8475
-525,-433,-19.0416,20.0906,0,0,0,0,0,0,0,-1,699,1457,-19.0416,-20.0905
-518,-433,-19.0003,21.0481,0.00273098,0.00419413,0.00363579,0.00717122,-0.000246103,0.88468,0.00486492,0.0196529,706,1457,-19.0003,-21.0482
-511,-433,-19.0774,21.8999,0.00214154,0.00316746,0.00279038,0.00549163,-0.000182641,0.876299,0.00372346,0.0167893,713,1457,-19.0774,-21.8999
-504,-433,-19.1184,22.7513,0.00170138,0.00234611,0.00209492,0.00414333,-9.58371e-05,0.861738,0.00279471,0.0128991,720,1457,-19.1184,-22.7513
-497,-433,-19.1749,23.6057,0.0014192,0.00171943,0.00155536,0.0031319,6.73323e-06,0.833506,0.00208569,0.013954,727,1457,-19.1749,-23.6057
-490,-433,-19.2335,24.4493,0.00123942,0.0012531,0.00114049,0.00238677,0.000105752,0.788399,0.00155712,0.0161138,734,1457,-19.2335,-24.4493
-483,-433,-19.2682,25.3068,0.00126316,0.00105141,0.000944317,0.00210752,0.000207047,0.729573,0.00134133,0.0162799,741,1457,-19.2682,-25.3067
-476,-433,-19.3135,26.1674,0.00141973,0.00108099,0.000940681,0.00220617,0.000294551,0.696329,0.00138309,0.0105288,748,1457,-19.3134,-26.1674
-469,-433,-19.3743,27.0327,0.00170335,0.00131593,0.00109081,0.00261752,0.000401758,0.697522,0.00162771,0.0112696,755,1457,-19.3743,-27.0327
-462,-433,-19.4423,27.9164,0,0,0,0,0,0,0,-1,762,1457,-19.4423,-27.9164
-455,-433,-13.8576,22.7446,0,0,0,0,0,0,0,-1,769,1457,-13.8576,-22.7446
-448,-433,-6.94812,14.5563,0,0,0,0,0,0,0,-1,776,1457,-6.94809,-14.5562
-441,-433,-9.97485,14.0258,0,0,0,0,0,0,0,-1,783,1457,-9.97488,-14.0257
-434,-433,-9.41205,14.2297,0,0,0,0,0,0,0,-1,790,1457,-9.41205,-14.2297
-427,-433,-8.67419,13.6827,0,0,0,0,0,0,0,-1,797,1457,-8.67422,-13.6827
-420,-433,-5.74658,9.49121,0,0,0,0,0,0,0,-1,804,1457,-5.7466,-9.49119
-413,-433,-3.63074,5.5813,0,0,0,0,0,0,0,-1,811,1457,-3.63072,-5.58129
-406,-433,-12.3472,4.69373,0,0,0,0,0,0,0,-1,818,1457,-12.3472,-4.69374
-399,-433,-12.055,2.83594,0,0,0,0,0,0,0,-1,825,1457,-12.055,-2.83594
-392,-433,-12.9772,1.6228,0,0,0,0,0,0,0,-1,832,1457,-12.9772,-1.62282
-385,-433,-13.7999,0.514771,0,0,0,0,0,0,0,-1,839,1457,-13.7999,-0.514788
-378,-433,0,0,0,0,0,0,0,0,0,-1,846,1457,0,0
-371,-433,0,0,0,0,0,0,0,0,0,-1,853,1457,0,0
-364,-433,0,0,0,0,0,0,0,0,0,-1,860,1457,0,0
-357,-433,0,0,0,0,0,0,0,0,0,-1,867,1457,0,0
-350,-433,0,0,0,0,0,0,0,0,0,-1,874,1457,0,0
-343,-433,0,0,0,0,0,0,0,0,0,-1,881,1457,0,0
-336,-433,0,0,0,0,0,0,0,0,0,-1,888,1457,0,0
-329,-433,0,0,0,0,0,0,0,0,0,-1,895,1457,0,0
-322,-433,0,0,0,0,0,0,0,0,0,-1,902,1457,0,0
-315,-433,0,0,0,0,0,0,0,0,0,-1,909,1457,0,0
-308,-433,0,0,0,0,0,0,0,0,0,-1,916,1457,0,0
-301,-433,0,0,0,0,0,0,0,0,0,-1,923,1457,0,0
-294,-433,0,0,0,0,0,0,0,0,0,-1,930,1457,0,0
-287,-433,0,0,0,0,0,0,0,0,0,-1,937,1457,0,0
-280,-433,0,0,0,0,0,0,0,0,0,-1,944,1457,0,0
-273,-433,0,0,0,0,0,0,0,0,0,-1,951,1457,0,0
-266,-433,0,0,0,0,0,0,0,0,0,-1,958,1457,0,0
-259,-433,0,0,0,0,0,0,0,0,0,-1,965,1457,0,0
-252,-433,0,0,0,0,0,0,0,0,0,-1,972,1457,0,0
-245,-433,0,0,0,0,0,0,0,0,0,-1,979,1457,0,0
-238,-433,0,0,0,0,0,0,0,0,0,-1,986,1457,0,0
-231,-433,0,0,0,0,0,0,0,0,0,-1,993,1457,0,0
-224,-433,0,0,0,0,0,0,0,0,0,-1,1000,1457,0,0
-217,-433,0,0,0,0,0,0,0,0,0,-1,1007,1457,0,0
-210,-433,0,0,0,0,0,0,0,0,0,-1,1014,1457,0,0
-203,-433,0,0,0,0,0,0,0,0,0,-1,1021,1457,0,0
-196,-433,0,0,0,0,0,0,0,0,0,-1,1028,1457,0,0
-189,-433,0,0,0,0,0,0,0,0,0,-1,1035,1457,0,0
-182,-433,0,0,0,0,0,0,0,0,0,-1,1042,1457,0,0
-175,-433,0,0,0,0,0,0,0,0,0,-1,1049,1457,0,0
-168,-433,0,0,0,0,0,0,0,0,0,-1,1056,1457,0,0
-161,-433,0,0,0,0,0,0,0,0,0,-1,1063,1457,0,0
-154,-433,0,0,0,0,0,0,0,0,0,-1,1070,1457,0,0
-147,-433,0,0,0,0,0,0,0,0,0,-1,1077,1457,0,0
-140,-433,0,0,0,0,0,0,0,0,0,-1,1084,1457,0,0
-133,-433,0,0,0,0,0,0,0,0,0,-1,1091,1457,0,0
-126,-433,0,0,0,0,0,0,0,0,0,-1,1098,1457,0,0
-119,-433,0,0,0,0,0,0,0,0,0,-1,1105,1457,0,0
-112,-433,0,0,0,0,0,0,0,0,0,-1,1112,1457,0,0
-105,-433,0,0,0,0,0,0,0,0,0,-1,1119,1457,0,0
-98,-433,0,0,0,0,0,0,0,0,0,-1,1126,1457,0,0
-91,-433,0,0,0,0,0,0,0,0,0,-1,1133,1457,0,0
-84,-433,0,0,0,0,0,0,0,0,0,-1,1140,1457,0,0
-77,-433,0,0,0,0,0,0,0,0,0,-1,1147,1457,0,0
-70,-433,0,0,0,0,0,0,0,0,0,-1,1154,1457,0,0
-63,-433,0,0,0,0,0,0,0,0,0,-1,1161,1457,0,0
-56,-433,0,0,0,0,0,0,0,0,0,-1,1168,1457,0,0
-49,-433,0,0,0,0,0,0,0,0,0,-1,1175,1457,0,0
-42,-433,0,0,0,0,0,0,0,0,0,-1,1182,1457,0,0
-35,-433,0,0,0,0,0,0,0,0,0,-1,1189,1457,0,0
-28,-433,0,0,0,0,0,0,0,0,0,-1,1196,1457,0,0
-21,-433,0,0,0,0,0,0,0,0,0,-1,1203,1457,0,0
-14,-433,0,0,0,0,0,0,0,0,0,-1,1210,1457,0,0
-7,-433,0,0,0,0,0,0,0,0,0,-1,1217,1457,0,0
0,-433,0,0,0,0,0,0,0,0,0,-1,1224,1457,0,0
7,-433,0,0,0,0,0,0,0,0,0,-1,1231,1457,0,0
14,-433,0,0,0,0,0,0,0,0,0,-1,1238,1457,0,0
21,-433,0,0,0,0,0,0,0,0,0,-1,1245,1457,0,0
28,-433,0,0,0,0,0,0,0,0,0,-1,1252,1457,0,0
35,-433,0,0,0,0,0,0,0,0,0,-1,1259,1457,0,0
42,-433,0,0,0,0,0,0,0,0,0,-1,1266,1457,0,0
49,-433,0,0,0,0,0,0,0,0,0,-1,1273,1457,0,0
56,-433,0,0,0,0,0,0,0,0,0,-1,1280,1457,0,0
63,-433,0,0,0,0,0,0,0,0,0,-1,1287,1457,0,0
70,-433,0,0,0,0,0,0,0,0,0,-1,1294,1457,0,0
77,-433,0,0,0,0,0,0,0,0,0,-1,1301,1457,0,0
84,-433,0,0,0,0,0,0,0,0,0,-1,1308,1457,0,0
91,-433,0,0,0,0,0,0,0,0,0,-1,1315,1457,0,0
98,-433,0,0,0,0,0,0,0,0,0,-1,1322,1457,0,0
105,-433,0,0,0,0,0,0,0,0,0,-1,1329,1457,0,0
112,-433,0,0,0,0,0,0,0,0,0,-1,1336,1457,0,0
119,-433,0,0,0,0,0,0,0,0,0,-1,1343,1457,0,0
126,-433,0,0,0,0,0,0,0,0,0,-1,1350,1457,0,0
133,-433,0,0,0,0,0,0,0,0,0,-1,1357,1457,0,0
140,-433,0,0,0,0,0,0,0,0,0,-1,1364,1457,0,0
147,-433,0,0,0,0,0,0,0,0,0,-1,1371,1457,0,0
154,-433,0,0,0,0,0,0,0,0,0,-1,1378,1457,0,0
161,-433,0,0,0,0,0,0,0,0,0,-1,1385,1457,0,0
168,-433,0,0,0,0,0,0,0,0,0,-1,1392,1457,0,0
175,-433,0,0,0,0,0,0,0,0,0,-1,1399,1457,0,0
182,-433,0,0,0,0,0,0,0,0,0,-1,1406,1457,0,0
189,-433,0,0,0,0,0,0,0,0,0,-1,1413,1457,0,0
196,-433,0,0,0,0,0,0,0,0,0,-1,1420,1457,0,0
203,-433,0,0,0,0,0,0,0,0,0,-1,1427,1457,0,0
210,-433,0,0,0,0,0,0,0,0,0,-1,1434,1457,0,0
217,-433,0,0,0,0,0,0,0,0,0,-1,1441,1457,0,0
224,-433,0,0,0,0,0,0,0,0,0,-1,1448,1457,0,0
231,-433,0,0,0,0,0,0,0,0,0,-1,1455,1457,0,0
238,-433,0,0,0,0,0,0,0,0,0,-1,1462,1457,0,0
245,-433,0,0,0,0,0,0,0,0,0,-1,1469,1457,0,0
252,-433,0,0,0,0,0,0,0,0,0,-1,1476,1457,0,0
259,-433,0,0,0,0,0,0,0,0,0,-1,1483,1457,0,0
266,-433,0,0,0,0,0,0,0,0,0,-1,1490,1457,0,0
273,-433,0,0,0,0,0,0,0,0,0,-1,1497,1457,0,0
280,-433,0,0,0,0,0,0,0,0,0,-1,1504,1457,0,0
287,-433,0,0,0,0,0,0,0,0,0,-1,1511,1457,0,0
294,-433,0,0,0,0,0,0,0,0,0,-1,1518,1457,0,0
301,-433,0,0,0,0,0,0,0,0,0,-1,1525,1457,0,0
308,-433,0,0,0,0,0,0,0,0,0,-1,1532,1457,0,0
315,-433,0,0,0,0,0,0,0,0,0,-1,1539,1457,0,0
322,-433,0,0,0,0,0,0,0,0,0,-1,1546,1457,0,0
329,-433,0,0,0,0,0,0,0,0,0,-1,1553,1457,0,0
336,-433,0,0,0,0,0,0,0,0,0,-1,1560,1457,0,0
343,-433,0,0,0,0,0,0,0,0,0,-1,1567,1457,0,0
350,-433,0,0,0,0,0,0,0,0,0,-1,1574,1457,0,0
357,-433,0,0,0,0,0,0,0,0,0,-1,1581,1457,0,0
364,-433,0,0,0,0,0,0,0,0,0,-1,1588,1457,0,0
371,-433,0,0,0,0,0,0,0,0,0,-1,1595,1457,0,0
378,-433,0,0,0,0,0,0,0,0,0,-1,1602,1457,0,0
385,-433,0,0,0,0,0,0,0,0,0,-1,1609,1457,0,0
392,-433,0,0,0,0,0,0,0,0,0,-1,1616,1457,0,0
399,-433,0,0,0,0,0,0,0,0,0,-1,1623,1457,0,0
406,-433,0,0,0,0,0,0,0,0,0,-1,1630,1457,0,0
413,-433,0,0,0,0,0,0,0,0,0,-1,1637,1457,0,0
420,-433,0,0,0,0,0,0,0,0,0,-1,1644,1457,0,0
427,-433,0,0,0,0,0,0,0,0,0,-1,1651,1457,0,0
434,-433,0,0,0,0,0,0,0,0,0,-1,1658,1457,0,0
441,-433,0,0,0,0,0,0,0,0,0,-1,1665,1457,0,0
448,-433,0,0,0,0,0,0,0,0,0,-1,1672,1457,0,0
455,-433,0,0,0,0,0,0,0,0,0,-1,1679,1457,0,0
462,-433,0,0,0,0,0,0,0,0,0,-1,1686,1457,0,0
469,-433,0,0,0,0,0,0,0,0,0,-1,1693,1457,0,0
476,-433,0,0,0,0,0,0,0,0,0,-1,1700,1457,0,0
483,-433,0,0,0,0,0,0,0,0,0,-1,1707,1457,0,0
490,-433,0,0,0,0,0,0,0,0,0,-1,1714,1457,0,0
497,-433,0,0,0,0,0,0,0,0,0,-1,1721,1457,0,0
504,-433,19.9058,3.03662,0,0,0,0,0,0,0,-1,1728,1457,19.9058,-3.03656
511,-433,19.0145,3.07837,0,0,0,0,0,0,0,-1,1735,1457,19.0146,-3.07834
518,-433,18.071,3.06433,0,0,0,0,0,0,0,-1,1742,1457,18.071,-3.06432
525,-433,17.2048,3.37085,0,0,0,0,0,0,0,-1,1749,1457,17.2049,-3.37083
532,-433,16.5637,3.36646,0,0,0,0,0,0,0,-1,1756,1457,16.5637,-3.36643
539,-433,15.9193,3.30396,0,0,0,0,0,0,0,-1,1763,1457,15.9193,-3.30394
546,-433,23.1903,4.81775,0,0,0,0,0,0,0,-1,1770,1457,23.1903,-4.81775
553,-433,13.9674,11.5781,0,0,0,0,0,0,0,-1,1777,1457,13.9674,-11.5781
560,-433,13.9855,11.7341,0,0,0,0,0,0,0,-1,1784,1457,13.9855,-11.7341
567,-433,13.9264,11.3364,0,0,0,0,0,0,0,-1,1791,1457,13.9263,-11.3364
574,-433,15.5305,12.3673,0,0,0,0,0,0,0,-1,1798,1457,15.5305,-12.3673
581,-433,16.6405,12.1898,0,0,0,0,0,0,0,-1,1805,1457,16.6405,-12.1898
588,-433,26.4386,19.7478,0,0,0,0,0,0,0,-1,1812,1457,26.4386,-19.7478
595,-433,36.4342,27.7678,0,0,0,0,0,0,0,-1,1819,1457,36.4342,-27.7678
602,-433,36.4159,26.851,0.00428578,0.00168283,-0.00265539,0.00594149,2.7122e-05,-0.55754,0.00395198,0.0312904,1826,1457,36.4159,-26.851
609,-433,36.4353,25.9758,0.00321523,0.00115213,-0.00186374,0.00431385,5.35178e-05,-0.532641,0.00285823,0.0182811,1833,1457,36.4353,-25.9758
616,-433,36.425,25.1915,0.00234136,0.00068451,-0.00120404,0.00297444,5.14333e-05,-0.48407,0.00196604,0.0152317,1840,1457,36.4251,-25.1915
623,-433,36.3451,24.3513,0.00184643,0.000426573,-0.000778398,0.00219002,8.29833e-05,-0.415684,0.00143316,0.0110583,1847,1457,36.3451,-24.3513
630,-433,36.3159,23.5348,0.00170381,0.000154649,-0.000533774,0.00186991,-1.14561e-05,-0.301691,0.00125045,0.0148059,1854,1457,36.3159,-23.5348
637,-433,36.2648,22.7192,0.00177088,5.76852e-06,-0.000432346,0.00187109,-9.4441e-05,-0.227759,0.00128004,0.0170256,1861,1457,36.2648,-22.7192
644,-433,36.1918,21.9154,0.00213037,4.07336e-06,-0.000564809,0.00227109,-0.000136645,-0.244171,0.0015616,0.0180163,1868,1457,36.1917,-21.9154
651,-433,36.1479,21.0596,0.00285267,0.000141932,-0.000998191,0.00318058,-0.000185972,-0.317393,0.00218502,0.0140125,1875,1457,36.148,-21.0596
658,-433,36.0608,20.1506,0.00399582,0.000471579,-0.0016791,0.00466772,-0.000200321,-0.380639,0.00318069,0.0495789,1882,1457,36.0608,-20.1507
665,-433,36.2111,18.9192,0,0,0,0,0,0,0,-1,1889,1457,36.2111,-18.9192
672,-433,18.115,8.7207,0,0,0,0,0,0,0,-1,1896,1457,18.115,-8.72074
679,-433,17.2969,9.6355,0,0,0,0,0,0,0,-1,1903,1457,17.2968,-9.63548
686,-433,13.6356,8.61694,0,0,0,0,0,0,0,-1,1910,1457,13.6356,-8.61694
693,-433,13.4081,8.39624,0,0,0,0,0,0,0,-1,1917,1457,13.4081,-8.39624
700,-433,7.16809,-1.5166,0,0,0,0,0,0,0,-1,1924,1457,7.16806,1.51656
707,-433,8.68359,-2.82202,0,0,0,0,0,0,0,-1,1931,1457,8.68359,2.82197
714,-433,0,0,0,0,0,0,0,0,0,-1,1938,1457,0,0
721,-433,0,0,0,0,0,0,0,0,0,-1,1945,1457,0,0
728,-433,0,0,0,0,0,0,0,0,0,-1,1952,1457,0,0
735,-433,0,0,0,0,0,0,0,0,0,-1,1959,1457,0,0
742,-433,0,0,0,0,0,0,0,0,0,-1,1966,1457,0,0
749,-433,0,0,0,0,0,0,0,0,0,-1,1973,1457,0,0
756,-433,0,0,0,0,0,0,0,0,0,-1,1980,1457,0,0
763,-433,0,0,0,0,0,0,0,0,0,-1,1987,1457,0,0
770,-433,0,0,0,0,0,0,0,0,0,-1,1994,1457,0,0
777,-433,0,0,0,0,0,0,0,0,0,-1,2001,1457,0,0
784,-433,0,0,0,0,0,0,0,0,0,-1,2008,1457,0,0
791,-433,0,0,0,0,0,0,0,0,0,-1,2015,1457,0,0
798,-433,0,0,0,0,0,0,0,0,0,-1,2022,1457,0,0
805,-433,0,0,0,0,0,0,0,0,0,-1,2029,1457,0,0
812,-433,0,0,0,0,0,0,0,0,0,-1,2036,1457,0,0
-700,-440,0,0,0,0,0,0,0,0,0,-1,524,1464,0,0
-693,-440,0,0,0,0,0,0,0,0,0,-1,531,1464,0,0
-686,-440,0,0,0,0,0,0,0,0,0,-1,538,1464,0,0
-679,-440,0,0,0,0,0,0,0,0,0,-1,545,1464,0,0
-672,-440,0,0,0,0,0,0,0,0,0,-1,552,1464,0,0
-665,-440,0,0,0,0,0,0,0,0,0,-1,559,1464,0,0
-658,-440,0,0,0,0,0,0,0,0,0,-1,566,1464,0,0
-651,-440,0,0,0,0,0,0,0,0,0,-1,573,1464,0,0
-644,-440,0,0,0,0,0,0,0,0,0,-1,580,1464,0,0
-637,-440,0,0,0,0,0,0,0,0,0,-1,587,1464,0,0
-630,-440,0,0,0,0,0,0,0,0,0,-1,594,1464,0,0
-623,-440,0,0,0,0,0,0,0,0,0,-1,601,1464,0,0
-616,-440,0,0,0,0,0,0,0,0,0,-1,608,1464,0,0
-609,-440,0,0,0,0,0,0,0,0,0,-1,615,1464,0,0
-602,-440,0,0,0,0,0,0,0,0,0,-1,622,1464,0,0
-595,-440,0,0,0,0,0,0,0,0,0,-1,629,1464,0,0
-588,-440,0,0,0,0,0,0,0,0,0,-1,636,1464,0,0
-581,-440,-8.97278,0.254517,0,0,0,0,0,0,0,-1,643,1464,-8.97276,-0.254526
-574,-440,-7.00818,-0.918579,0,0,0,0,0,0,0,-1,650,1464,-7.00817,0.918538
-567,-440,-6.12152,-0.0766602,0,0,0,0,0,0,0,-1,657,1464,-6.12151,0.0767097
-560,-440,-5.46747,0.82251,0,0,0,0,0,0,0,-1,664,1464,-5.46748,-0.822551
-553,-440,-6.84729,0.0831299,0,0,0,0,0,0,0,-1,671,1464,-6.84732,-0.083136
-546,-440,-5.63446,-0.153198,0,0,0,0,0,0,0,-1,678,1464,-5.63447,0.153147
-539,-440,-6.80017,8.58252,0,0,0,0,0,0,0,-1,685,1464,-6.80015,-8.58257
-532,-440,-9.69647,11.3262,0,0,0,0,0,0,0,-1,692,1464,-9.69649,-11.3262
-525,-440,-18.2861,19.9747,0,0,0,0,0,0,0,-1,699,1464,-18.2861,-19.9747
-518,-440,-18.2185,20.974,0.00305187,0.00540691,0.00461833,0.00899547,-0.000536694,0.910222,0.00618365,0.0355086,706,1464,-18.2185,-20.974
-511,-440,-18.1999,21.9586,0.00243468,0.00418627,0.00360578,0.00702109,-0.000400148,0.904534,0.00481965,0.0172673,713,1464,-18.1999,-21.9587
-504,-440,-18.251,22.8213,0.00194385,0.00317805,0.00275489,0.00538411,-0.00026221,0.89558,0.00367993,0.0194667,720,1464,-18.251,-22.8213
-497,-440,-18.3649,23.6462,0.00159337,0.00236483,0.0020593,0.00407422,-0.000116021,0.877981,0.00275563,0.0218373,727,1464,-18.3648,-23.6462
-490,-440,-18.4217,24.4294,0.00133928,0.00172184,0.0014956,0.00303835,2.27755e-05,0.849,0.00201802,0.0231562,734,1464,-18.4217,-24.4295
-483,-440,-18.4169,25.3364,0.00128317,0.00132629,0.00115028,0.00245521,0.000154246,0.794769,0.00158789,0.0209643,741,1464,-18.4169,-25.3364
-476,-440,-18.4519,26.1821,0.00135246,0.00118418,0.00101808,0.00228987,0.000246775,0.744169,0.00145133,0.0134972,748,1464,-18.4519,-26.1822
-469,-440,-18.5156,27.0717,0.00152283,0.00127453,0.00105224,0.00245821,0.000339142,0.726676,0.00153827,0.0136151,755,1464,-18.5156,-27.0716
-462,-440,-18.6025,27.9266,0.00188564,0.00170261,0.00137252,0.0031697,0.000418553,0.752109,0.00198835,0.0200249,762,1464,-18.6025,-27.9266
-455,-440,-18.637,28.7711,0,0,0,0,0,0,0,-1,769,1464,-18.637,-28.7711
-448,-440,-12.8837,23.5623,0,0,0,0,0,0,0,-1,776,1464,-12.8837,-23.5623
-441,-440,-7.28583,14.7465,0,0,0,0,0,0,0,-1,783,1464,-7.28584,-14.7464
-434,-440,-8.33636,14.5024,0,0,0,0,0,0,0,-1,790,1464,-8.33638,-14.5025
-427,-440,-8.28094,14.2512,0,0,0,0,0,0,0,-1,797,1464,-8.28094,-14.2512
-420,-440,-6.86603,8.09216,0,0,0,0,0,0,0,-1,804,1464,-6.86602,-8.09222
-413,-440,-3.46796,5.72278,0,0,0,0,0,0,0,-1,811,1464,-3.46797,-5.72276
-406,-440,-5.2887,5.20264,0,0,0,0,0,0,0,-1,818,1464,-5.2887,-5.20261
-399,-440,-12.7318,3.94421,0,0,0,0,0,0,0,-1,825,1464,-12.7318,-3.94419
-392,-440,-13.5565,2.51855,0,0,0,0,0,0,0,-1,832,1464,-13.5565,-2.51861
-385,-440,-14.6741,1.39795,0,0,0,0,0,0,0,-1,839,1464,-14.6741,-1.39801
-378,-440,-15.8063,0.293457,0,0,0,0,0,0,0,-1,846,1464,-15.8063,-0.293412
-371,-440,0,0,0,0,0,0,0,0,0,-1,853,1464,0,0
-364,-440,0,0,0,0,0,0,0,0,0,-1,860,1464,0,0
-357,-440,0,0,0,0,0,0,0,0,0,-1,867,1464,0,0
-350,-440,0,0,0,0,0,0,0,0,0,-1,874,1464,0,0
-343,-440,0,0,0,0,0,0,0,0,0,-1,881,1464,0,0
-336,-440,0,0,0,0,0,0,0,0,0,-1,888,1464,0,0
-329,-440,0,0,0,0,0,0,0,0,0,-1,895,1464,0,0
-322,-440,0,0,0,0,0,0,0,0,0,-1,902,1464,0,0
-315,-440,0,0,0,0,0,0,0,0,0,-1,909,1464,0,0
-308,-440,0,0,0,0,0,0,0,0,0,-1,916,1464,0,0
-301,-440,0,0,0,0,0,0,0,0,0,-1,923,1464,0,0
-294,-440,0,0,0,0,0,0,0,0,0,-1,930,1464,0,0
-287,-440,0,0,0,0,0,0,0,0,0,-1,937,1464,0,0
-280,-440,0,0,0,0,0,0,0,0,0,-1,944,1464,0,0
-273,-440,0,0,0,0,0,0,0,0,0,-1,951,1464,0,0
-266,-440,0,0,0,0,0,0,0,0,0,-1,958,1464,0,0
-259,-440,0,0,0,0,0,0,0,0,0,-1,965,1464,0,0
-252,-440,0,0,0,0,0,0,0,0,0,-1,972,1464,0,0
-245,-440,0,0,0,0,0,0,0,0,0,-1,979,1464,0,0
-238,-440,0,0,0,0,0,0,0,0,0,-1,986,1464,0,0
-231,-440,0,0,0,0,0,0,0,0,0,-1,993,1464,0,0
-224,-440,0,0,0,0,0,0,0,0,0,-1,1000,1464,0,0
-217,-440,0,0,0,0,0,0,0,0,0,-1,1007,1464,0,0
-210,-440,0,0,0,0,0,0,0,0,0,-1,1014,1464,0,0
-203,-440,0,0,0,0,0,0,0,0,0,-1,1021,1464,0,0
-196,-440,0,0,0,0,0,0,0,0,0,-1,1028,1464,0,0
-189,-440,0,0,0,0,0,0,0,0,0,-1,1035,1464,0,0
-182,-440,0,0,0,0,0,0,0,0,0,-1,1042,1464,0,0
-175,-440,0,0,0,0,0,0,0,0,0,-1,1049,1464,0,0
-168,-440,0,0,0,0,0,0,0,0,0,-1,1056,1464,0,0
-161,-440,0,0,0,0,0,0,0,0,0,-1,1063,1464,0,0
-154,-440,0,0,0,0,0,0,0,0,0,-1,1070,1464,0,0
-147,-440,0,0,0,0,0,0,0,0,0,-1,1077,1464,0,0
-140,-440,0,0,0,0,0,0,0,0,0,-1,1084,1464,0,0
-133,-440,0,0,0,0,0,0,0,0,0,-1,1091,1464,0,0
-126,-440,0,0,0,0,0,0,0,0,0,-1,1098,1464,0,0
-119,-440,0,0,0,0,0,0,0,0,0,-1,1105,1464,0,0
-112,-440,0,0,0,0,0,0,0,0,0,-1,1112,1464,0,0
-105,-440,0,0,0,0,0,0,0,0,0,-1,1119,1464,0,0
-98,-440,0,0,0,0,0,0,0,0,0,-1,1126,1464,0,0
-91,-440,0,0,0,0,0,0,0,0,0,-1,1133,1464,0,0
-84,-440,0,0,0,0,0,0,0,0,0,-1,1140,1464,0,0
-77,-440,0,0,0,0,0,0,0,0,0,-1,1147,1464,0,0
-70,-440,0,0,0,0,0,0,0,0,0,-1,1154,1464,0,0
-63,-440,0,0,0,0,0,0,0,0,0,-1,1161,1464,0,0
-56,-440,0,0,0,0,0,0,0,0,0,-1,1168,1464,0,0
-49,-440,0,0,0,0,0,0,0,0,0,-1,1175,1464,0,0
-42,-440,0,0,0,0,0,0,0,0,0,-1,1182,1464,0,0
-35,-440,0,0,0,0,0,0,0,0,0,-1,1189,1464,0,0
-28,-440,0,0,0,0,0,0,0,0,0,-1,1196,1464,0,0
-21,-440,0,0,0,0,0,0,0,0,0,-1,1203,1464,0,0
-14,-440,0,0,0,0,0,0,0,0,0,-1,1210,1464,0,0
-7,-440,0,0,0,0,0,0,0,0,0,-1,1217,1464,0,0
0,-440,0,0,0,0,0,0,0,0,0,-1,1224,1464,0,0
7,-440,0,0,0,0,0,0,0,0,0,-1,1231,1464,0,0
14,-440,0,0,0,0,0,0,0,0,0,-1,1238,1464,0,0
21,-440,0,0,0,0,0,0,0,0,0,-1,1245,1464,0,0
28,-440,0,0,0,0,0,0,0,0,0,-1,1252,1464,0,0
35,-440,0,0,0,0,0,0,0,0,0,-1,1259,1464,0,0
42,-440,0,0,0,0,0,0,0,0,0,-1,1266,1464,0,0
49,-440,0,0,0,0,0,0,0,0,0,-1,1273,1464,0,0
56,-440,0,0,0,0,0,0,0,0,0,-1,1280,1464,0,0
63,-440,0,0,0,0,0,0,0,0,0,-1,1287,1464,0,0
70,-440,0,0,0,0,0,0,0,0,0,-1,1294,1464,0,0
77,-440,0,0,0,0,0,0,0,0,0,-1,1301,1464,0,0
84,-440,0,0,0,0,0,0,0,0,0,-1,1308,1464,0,0
91,-440,0,0,0,0,0,0,0,0,0,-1,1315,1464,0,0
98,-440,0,0,0,0,0,0,0,0,0,-1,1322,1464,0,0
105,-440,0,0,0,0,0,0,0,0,0,-1,1329,1464,0,0
112,-440,0,0,0,0,0,0,0,0,0,-1,1336,1464,0,0
119,-440,0,0,0,0,0,0,0,0,0,-1,1343,1464,0,0
126,-440,0,0,0,0,0,0,0,0,0,-1,1350,1464,0,0
133,-440,0,0,0,0,0,0,0,0,0,-1,1357,1464,0,0
140,-440,0,0,0,0,0,0,0,0,0,-1,1364,1464,0,0
147,-440,0,0,0,0,0,0,0,0,0,-1,1371,1464,0,0
154,-440,0,0,0,0,0,0,0,0,0,-1,1378,1464,0,0
161,-440,0,0,0,0,0,0,0,0,0,-1,1385,1464,0,0
168,-440,0,0,0,0,0,0,0,0,0,-1,1392,1464,0,0
175,-440,0,0,0,0,0,0,0,0,0,-1,1399,1464,0,0
182,-440,0,0,0,0,0,0,0,0,0,-1,1406,1464,0,0
189,-440,0,0,0,0,0,0,0,0,0,-1,1413,1464,0,0
196,-440,0,0,0,0,0,0,0,0,0,-1,1420,1464,0,0
203,-440,0,0,0,0,0,0,0,0,0,-1,1427,1464,0,0
210,-440,0,0,0,0,0,0,0,0,0,-1,1434,1464,0,0
217,-440,0,0,0,0,0,0,0,0,0,-1,1441,1464,0,0
224,-440,0,0,0,0,0,0,0,0,0,-1,1448,1464,0,0
231,-440,0,0,0,0,0,0,0,0,0,-1,1455,1464,0,0
238,-440,0,0,0,0,0,0,0,0,0,-1,1462,1464,0,0
245,-440,0,0,0,0,0,0,0,0,0,-1,1469,1464,0,0
252,-440,0,0,0,0,0,0,0,0,0,-1,1476,1464,0,0
259,-440,0,0,0,0,0,0,0,0,0,-1,1483,1464,0,0
266,-440,0,0,0,0,0,0,0,0,0,-1,1490,1464,0,0
273,-440,0,0,0,0,0,0,0,0,0,-1,1497,1464,0,0
280,-440,0,0,0,0,0,0,0,0,0,-1,1504,1464,0,0
287,-440,0,0,0,0,0,0,0,0,0,-1,1511,1464,0,0
294,-440,0,0,0,0,0,0,0,0,0,-1,1518,1464,0,0
301,-440,0,0,0,0,0,0,0,0,0,-1,1525,1464,0,0
308,-440,0,0,0,0,0,0,0,0,0,-1,1532,1464,0,0
315,-440,0,0,0,0,0,0,0,0,0,-1,1539,1464,0,0
322,-440,0,0,0,0,0,0,0,0,0,-1,1546,1464,0,0
329,-440,0,0,0,0,0,0,0,0,0,-1,1553,1464,0,0
336,-440,0,0,0,0,0,0,0,0,0,-1,1560,1464,0,0
343,-440,0,0,0,0,0,0,0,0,0,-1,1567,1464,0,0
350,-440,0,0,0,0,0,0,0,0,0,-1,1574,1464,0,0
357,-440,0,0,0,0,0,0,0,0,0,-1,1581,1464,0,0
364,-440,0,0,0,0,0,0,0,0,0,-1,1588,1464,0,0
371,-440,0,0,0,0,0,0,0,0,0,-1,1595,1464,0,0
378,-440,0,0,0,0,0,0,0,0,0,-1,1602,1464,0,0
385,-440,0,0,0,0,0,0,0,0,0,-1,1609,1464,0,0
392,-440,0,0,0,0,0,0,0,0,0,-1,1616,1464,0,0
399,-440,0,0,0,0,0,0,0,0,0,-1,1623,1464,0,0
406,-440,0,0,0,0,0,0,0,0,0,-1,1630,1464,0,0
413,-440,0,0,0,0,0,0,0,0,0,-1,1637,1464,0,0
420,-440,0,0,0,0,0,0,0,0,0,-1,1644,1464,0,0
427,-440,0,0,0,0,0,0,0,0,0,-1,1651,1464,0,0
434,-440,0,0,0,0,0,0,0,0,0,-1,1658,1464,0,0
441,-440,0,0,0,0,0,0,0,0,0,-1,1665,1464,0,0
448,-440,0,0,0,0,0,0,0,0,0,-1,1672,1464,0,0
455,-440,0,0,0,0,0,0,0,0,0,-1,1679,1464,0,0
462,-440,0,0,0,0,0,0,0,0,0,-1,1686,1464,0,0
469,-440,0,0,0,0,0,0,0,0,0,-1,1693,1464,0,0
476,-440,0,0,0,0,0,0,0,0,0,-1,1700,1464,0,0
483,-440,0,0,0,0,0,0,0,0,0,-1,1707,1464,0,0
490,-440,0,0,0,0,0,0,0,0,0,-1,1714,1464,0,0
497,-440,16.965,-0.528442,0,0,0,0,0,0,0,-1,1721,1464,16.965,0.528492
504,-440,15.8052,0.670166,0,0,0,0,0,0,0,-1,1728,1464,15.8052,-0.670145
511,-440,17.5754,2.77832,0,0,0,0,0,0,0,-1,1735,1464,17.5754,-2.77826
518,-440,16.9017,3.07861,0,0,0,0,0,0,0,-1,1742,1464,16.9018,-3.07859
525,-440,18.4495,12.0867,0,0,0,0,0,0,0,-1,1749,1464,18.4495,-12.0867
532,-440,15.4319,3.64392,0,0,0,0,0,0,0,-1,1756,1464,15.4318,-3.64391
539,-440,14.8214,3.41321,0,0,0,0,0,0,0,-1,1763,1464,14.8214,-3.4132
546,-440,14.8651,10.7683,0,0,0,0,0,0,0,-1,1770,1464,14.8651,-10.7683
553,-440,15.1213,11.4121,0,0,0,0,0,0,0,-1,1777,1464,15.1213,-11.4121
560,-440,17.4325,12.5394,0,0,0,0,0,0,0,-1,1784,1464,17.4325,-12.5394
567,-440,16.9025,12.4249,0,0,0,0,0,0,0,-1,1791,1464,16.9025,-12.425
574,-440,19.2841,14.8679,0,0,0,0,0,0,0,-1,1798,1464,19.2841,-14.868
581,-440,26.4432,21.3477,0,0,0,0,0,0,0,-1,1805,1464,26.4432,-21.3476
588,-440,35.467,28.7207,0,0,0,0,0,0,0,-1,1812,1464,35.467,-28.7207
595,-440,35.5081,27.73,0.00533779,0.00200861,-0.00317573,0.00725874,8.76612e-05,-0.544004,0.00481021,0.0372081,1819,1464,35.5081,-27.73
602,-440,35.6233,26.8169,0.0040572,0.00139235,-0.00232115,0.00540116,4.83792e-05,-0.524843,0.00358476,0.0203498,1826,1464,35.6233,-26.8169
609,-440,35.6167,26.0422,0.00308361,0.000915023,-0.00162348,0.00395159,4.70426e-05,-0.490976,0.00261885,0.0172364,1833,1464,35.6167,-26.0422
616,-440,35.5695,25.2577,0.00227456,0.000489027,-0.00101601,0.00273431,2.92724e-05,-0.424938,0.0018132,0.0188723,1840,1464,35.5694,-25.2577
623,-440,35.5143,24.3979,0.00183606,0.00026602,-0.000619032,0.00205076,5.13108e-05,-0.333862,0.0013504,0.0139087,1847,1464,35.5143,-24.398
630,-440,35.4546,23.5442,0.00172414,1.80374e-05,-0.000359572,0.00179683,-5.4648e-05,-0.199456,0.00121651,0.0121989,1854,1464,35.4547,-23.5442
637,-440,35.4255,22.7742,0.00180423,-0.000112922,-0.000223762,0.00183,-0.000138692,-0.114662,0.00126876,0.0173949,1861,1464,35.4255,-22.7741
644,-440,35.3965,21.9584,0.00216023,-8.52074e-05,-0.000313408,0.00220315,-0.000128131,-0.136111,0.00151329,0.0165667,1868,1464,35.3965,-21.9584
651,-440,35.4,21.0519,0.00292509,6.9063e-05,-0.000740765,0.00310578,-0.000111636,-0.239263,0.00210872,0.0268034,1875,1464,35.4001,-21.0518
658,-440,35.5531,20.0242,0,0,0,0,0,0,0,-1,1882,1464,35.5531,-20.0242
665,-440,24.2067,12.5813,0,0,0,0,0,0,0,-1,1889,1464,24.2067,-12.5813
672,-440,18.9385,9.6394,0,0,0,0,0,0,0,-1,1896,1464,18.9384,-9.63939
679,-440,16.9508,10.2336,0,0,0,0,0,0,0,-1,1903,1464,16.9508,-10.2337
686,-440,15.2556,8.44177,0,0,0,0,0,0,0,-1,1910,1464,15.2556,-8.44177
693,-440,9.88635,2.89795,0,0,0,0,0,0,0,-1,1917,1464,9.88638,-2.89798
700,-440,7.07825,-2.62061,0,0,0,0,0,0,0,-1,1924,1464,7.07829,2.62057
707,-440,0,0,0,0,0,0,0,0,0,-1,1931,1464,0,0
714,-440,0,0,0,0,0,0,0,0,0,-1,1938,1464,0,0
721,-440,0,0,0,0,0,0,0,0,0,-1,1945,1464,0,0
728,-440,0,0,0,0,0,0,0,0,0,-1,1952,1464,0,0
735,-440,0,0,0,0,0,0,0,0,0,-1,1959,1464,0,0
742,-440,0,0,0,0,0,0,0,0,0,-1,1966,1464,0,0
749,-440,0,0,0,0,0,0,0,0,0,-1,1973,1464,0,0
756,-440,0,0,0,0,0,0,0,0,0,-1,1980,1464,0,0
763,-440,0,0,0,0,0,0,0,0,0,-1,1987,1464,0,0
770,-440,0,0,0,0,0,0,0,0,0,-1,1994,1464,0,0
777,-440,0,0,0,0,0,0,0,0,0,-1,2001,1464,0,0
784,-440,0,0,0,0,0,0,0,0,0,-1,2008,1464,0,0
791,-440,0,0,0,0,0,0,0,0,0,-1,2015,1464,0,0
798,-440,0,0,0,0,0,0,0,0,0,-1,2022,1464,0,0
805,-440,0,0,0,0,0,0,0,0,0,-1,2029,1464,0,0
812,-440,0,0,0,0,0,0,0,0,0,-1,2036,1464,0,0
-700,-447,0,0,0,0,0,0,0,0,0,-1,524,1471,0,0
-693,-447,0,0,0,0,0,0,0,0,0,-1,531,1471,0,0
-686,-447,0,0,0,0,0,0,0,0,0,-1,538,1471,0,0
-679,-447,0,0,0,0,0,0,0,0,0,-1,545,1471,0,0
-672,-447,0,0,0,0,0,0,0,0,0,-1,552,1471,0,0
-665,-447,0,0,0,0,0,0,0,0,0,-1,559,1471,0,0
-658,-447,0,0,0,0,0,0,0,0,0,-1,566,1471,0,0
-651,-447,0,0,0,0,0,0,0,0,0,-1,573,1471,0,0
-644,-447,0,0,0,0,0,0,0,0,0,-1,580,1471,0,0
-637,-447,0,0,0,0,0,0,0,0,0,-1,587,1471,0,0
-630,-447,0,0,0,0,0,0,0,0,0,-1,594,1471,0,0
-623,-447,0,0,0,0,0,0,0,0,0,-1,601,1471,0,0
-616,-447,0,0,0,0,0,0,0,0,0,-1,608,1471,0,0
-609,-447,0,0,0,0,0,0,0,0,0,-1,615,1471,0,0
-602,-447,0,0,0,0,0,0,0,0,0,-1,622,1471,0,0
-595,-447,0,0,0,0,0,0,0,0,0,-1,629,1471,0,0
-588,-447,0,0,0,0,0,0,0,0,0,-1,636,1471,0,0
-581,-447,-7.06482,-1.50476,0,0,0,0,0,0,0,-1,643,1471,-7.0648,1.50474
-574,-447,-6.88092,-0.00585938,0,0,0,0,0,0,0,-1,650,1471,-6.88095,0.00589852
-567,-447,-6.8205,-1.32178,0,0,0,0,0,0,0,-1,657,1471,-6.82047,1.32172
-560,-447,-8.85748,2.80774,0,0,0,0,0,0,0,-1,664,1471,-8.85748,-2.80775
-553,-447,-7.60486,3.26794,0,0,0,0,0,0,0,-1,671,1471,-7.60487,-3.26799
-546,-447,-3.94501,1.8656,0,0,0,0,0,0,0,-1,678,1471,-3.945,-1.86554
-539,-447,-5.35492,4.50024,0,0,0,0,0,0,0,-1,685,1471,-5.35492,-4.50018
-532,-447,-6.12781,8.81091,0,0,0,0,0,0,0,-1,692,1471,-6.12781,-8.81094
-525,-447,-9.44501,12.098,0,0,0,0,0,0,0,-1,699,1471,-9.44502,-12.098
-518,-447,-17.4269,20.7689,0,0,0,0,0,0,0,-1,706,1471,-17.4269,-20.769
-511,-447,-17.3788,21.9252,0.00274377,0.00527406,0.00445238,0.00863755,-0.000619724,0.923825,0.00597566,0.0310473,713,1471,-17.3788,-21.9252
-504,-447,-17.3987,22.9073,0.00223345,0.00401603,0.00345698,0.00669477,-0.000445295,0.911562,0.00461877,0.0213948,720,1471,-17.3987,-22.9074
-497,-447,-17.5685,23.7208,0.00183137,0.00298199,0.00261171,0.005081,-0.000267646,0.893807,0.00347998,0.0245016,727,1471,-17.5685,-23.7209
-490,-447,-17.6484,24.4991,0.00152982,0.00216717,0.00192256,0.00379728,-0.000100293,0.86753,0.00256561,0.0253958,734,1471,-17.6483,-24.4992
-483,-447,-17.5898,25.3566,0.00139936,0.00160328,0.00144384,0.00294876,5.38866e-05,0.820647,0.00194812,0.0239486,741,1471,-17.5898,-25.3566
-476,-447,-17.5902,26.2091,0.00139523,0.00134236,0.00120174,0.00257082,0.000166765,0.774401,0.00166109,0.0148072,748,1471,-17.5902,-26.2091
-469,-447,-17.6415,27.1068,0.00149584,0.00136849,0.00113445,0.00256841,0.000295928,0.757363,0.00162265,0.0146002,755,1471,-17.6415,-27.1068
-462,-447,-17.7172,27.9761,0.00181959,0.00174264,0.00134841,0.00313008,0.000432155,0.771135,0.00195863,0.0138756,762,1471,-17.7172,-27.9761
-455,-447,-17.7767,28.8031,0.00237974,0.0024892,0.00186218,0.00429746,0.000571483,0.800088,0.00269475,0.0274991,769,1471,-17.7767,-28.8031
-448,-447,-17.769,29.698,0,0,0,0,0,0,0,-1,776,1471,-17.769,-29.6979
-441,-447,-8.68506,19.0931,0,0,0,0,0,0,0,-1,783,1471,-8.68504,-19.0932
-434,-447,-7.43402,15.6273,0,0,0,0,0,0,0,-1,790,1471,-7.43404,-15.6274
-427,-447,-7.21832,14.691,0,0,0,0,0,0,0,-1,797,1471,-7.21834,-14.6911
-420,-447,-8.0545,12.8055,0,0,0,0,0,0,0,-1,804,1471,-8.05452,-12.8055
-413,-447,-4.27393,6.59705,0,0,0,0,0,0,0,-1,811,1471,-4.27392,-6.59707
-406,-447,-1.04279,6.18591,0,0,0,0,0,0,0,-1,818,1471,-1.04276,-6.18586
-399,-447,0.0134888,0.687622,0,0,0,0,0,0,0,-1,825,1471,0.0134841,-0.68767
-392,-447,-14.0646,3.76147,0,0,0,0,0,0,0,-1,832,1471,-14.0646,-3.7615
-385,-447,-15.1695,2.61865,0,0,0,0,0,0,0,-1,839,1471,-15.1695,-2.61871
-378,-447,-15.9424,1.49316,0,0,0,0,0,0,0,-1,846,1471,-15.9424,-1.49313
-371,-447,-17.3655,0.73291,0,0,0,0,0,0,0,-1,853,1471,-17.3655,-0.732946
-364,-447,0,0,0,0,0,0,0,0,0,-1,860,1471,0,0
-357,-447,0,0,0,0,0,0,0,0,0,-1,867,1471,0,0
-350,-447,0,0,0,0,0,0,0,0,0,-1,874,1471,0,0
-343,-447,0,0,0,0,0,0,0,0,0,-1,881,1471,0,0
-336,-447,0,0,0,0,0,0,0,0,0,-1,888,1471,0,0
-329,-447,0,0,0,0,0,0,0,0,0,-1,895,1471,0,0
-322,-447,0,0,0,0,0,0,0,0,0,-1,902,1471,0,0
-315,-447,0,0,0,0,0,0,0,0,0,-1,909,1471,0,0
-308,-447,0,0,0,0,0,0,0,0,0,-1,916,1471,0,0
-301,-447,0,0,0,0,0,0,0,0,0,-1,923,1471,0,0
-294,-447,0,0,0,0,0,0,0,0,0,-1,930,1471,0,0
-287,-447,0,0,0,0,0,0,0,0,0,-1,937,1471,0,0
-280,-447,0,0,0,0,0,0,0,0,0,-1,944,1471,0,0
-273,-447,0,0,0,0,0,0,0,0,0,-1,951,1471,0,0
-266,-447,0,0,0,0,0,0,0,0,0,-1,958,1471,0,0
-259,-447,0,0,0,0,0,0,0,0,0,-1,965,1471,0,0
-252,-447,0,0,0,0,0,0,0,0,0,-1,972,1471,0,0
-245,-447,0,0,0,0,0,0,0,0,0,-1,979,1471,0,0
-238,-447,0,0,0,0,0,0,0,0,0,-1,986,1471,0,0
-231,-447,0,0,0,0,0,0,0,0,0,-1,993,1471,0,0
-224,-447,0,0,0,0,0,0,0,0,0,-1,1000,1471,0,0
-217,-447,0,0,0,0,0,0,0,0,0,-1,1007,1471,0,0
-210,-447,0,0,0,0,0,0,0,0,0,-1,1014,1471,0,0
-203,-447,0,0,0,0,0,0,0,0,0,-1,1021,1471,0,0
-196,-447,0,0,0,0,0,0,0,0,0,-1,1028,1471,0,0
-189,-447,0,0,0,0,0,0,0,0,0,-1,1035,1471,0,0
-182,-447,0,0,0,0,0,0,0,0,0,-1,1042,1471,0,0
-175,-447,0,0,0,0,0,0,0,0,0,-1,1049,1471,0,0
-168,-447,0,0,0,0,0,0,0,0,0,-1,1056,1471,0,0
-161,-447,0,0,0,0,0,0,0,0,0,-1,1063,1471,0,0
-154,-447,0,0,0,0,0,0,0,0,0,-1,1070,1471,0,0
-147,-447,0,0,0,0,0,0,0,0,0,-1,1077,1471,0,0
-140,-447,0,0,0,0,0,0,0,0,0,-1,1084,1471,0,0
-133,-447,0,0,0,0,0,0,0,0,0,-1,1091,1471,0,0
-126,-447,0,0,0,0,0,0,0,0,0,-1,1098,1471,0,0
-119,-447,0,0,0,0,0,0,0,0,0,-1,1105,1471,0,0
-112,-447,0,0,0,0,0,0,0,0,0,-1,1112,1471,0,0
-105,-447,0,0,0,0,0,0,0,0,0,-1,1119,1471,0,0
-98,-447,0,0,0,0,0,0,0,0,0,-1,1126,1471,0,0
-91,-447,0,0,0,0,0,0,0,0,0,-1,1133,1471,0,0
-84,-447,0,0,0,0,0,0,0,0,0,-1,1140,1471,0,0
-77,-447,0,0,0,0,0,0,0,0,0,-1,1147,1471,0,0
-70,-447,0,0,0,0,0,0,0,0,0,-1,1154,1471,0,0
-63,-447,0,0,0,0,0,0,0,0,0,-1,1161,1471,0,0
-56,-447,0,0,0,0,0,0,0,0,0,-1,1168,1471,0,0
-49,-447,0,0,0,0,0,0,0,0,0,-1,1175,1471,0,0
-42,-447,0,0,0,0,0,0,0,0,0,-1,1182,1471,0,0
-35,-447,0,0,0,0,0,0,0,0,0,-1,1189,1471,0,0
-28,-447,0,0,0,0,0,0,0,0,0,-1,1196,1471,0,0
-21,-447,0,0,0,0,0,0,0,0,0,-1,1203,1471,0,0
-14,-447,0,0,0,0,0,0,0,0,0,-1,1210,1471,0,0
-7,-447,0,0,0,0,0,0,0,0,0,-1,1217,1471,0,0
0,-447,0,0,0,0,0,0,0,0,0,-1,1224,1471,0,0
7,-447,0,0,0,0,0,0,0,0,0,-1,1231,1471,0,0
14,-447,0,0,0,0,0,0,0,0,0,-1,1238,1471,0,0
21,-447,0,0,0,0,0,0,0,0,0,-1,1245,1471,0,0
28,-447,0,0,0,0,0,0,0,0,0,-1,1252,1471,0,0
35,-447,0,0,0,0,0,0,0,0,0,-1,1259,1471,0,0
42,-447,0,0,0,0,0,0,0,0,0,-1,1266,1471,0,0
49,-447,0,0,0,0,0,0,0,0,0,-1,1273,1471,0,0
56,-447,0,0,0,0,0,0,0,0,0,-1,1280,1471,0,0
63,-447,0,0,0,0,0,0,0,0,0,-1,1287,1471,0,0
70,-447,0,0,0,0,0,0,0,0,0,-1,1294,1471,0,0
77,-447,0,0,0,0,0,0,0,0,0,-1,1301,1471,0,0
84,-447,0,0,0,0,0,0,0,0,0,-1,1308,1471,0,0
91,-447,0,0,0,0,0,0,0,0,0,-1,1315,1471,0,0
98,-447,0,0,0,0,0,0,0,0,0,-1,1322,1471,0,0
105,-447,0,0,0,0,0,0,0,0,0,-1,1329,1471,0,0
112,-447,0,0,0,0,0,0,0,0,0,-1,1336,1471,0,0
119,-447,0,0,0,0,0,0,0,0,0,-1,1343,1471,0,0
126,-447,0,0,0,0,0,0,0,0,0,-1,1350,1471,0,0
133,-447,0,0,0,0,0,0,0,0,0,-1,1357,1471,0,0
140,-447,0,0,0,0,0,0,0,0,0,-1,1364,1471,0,0
147,-447,0,0,0,0,0,0,0,0,0,-1,1371,1471,0,0
154,-447,0,0,0,0,0,0,0,0,0,-1,1378,1471,0,0
161,-447,0,0,0,0,0,0,0,0,0,-1,1385,1471,0,0
168,-447,0,0,0,0,0,0,0,0,0,-1,1392,1471,0,0
175,-447,0,0,0,0,0,0,0,0,0,-1,1399,1471,0,0
182,-447,0,0,0,0,0,0,0,0,0,-1,1406,1471,0,0
189,-447,0,0,0,0,0,0,0,0,0,-1,1413,1471,0,0
196,-447,0,0,0,0,0,0,0,0,0,-1,1420,1471,0,0
203,-447,0,0,0,0,0,0,0,0,0,-1,1427,1471,0,0
210,-447,0,0,0,0,0,0,0,0,0,-1,1434,1471,0,0
217,-447,0,0,0,0,0,0,0,0,0,-1,1441,1471,0,0
224,-447,0,0,0,0,0,0,0,0,0,-1,1448,1471,0,0
231,-447,0,0,0,0,0,0,0,0,0,-1,1455,1471,0,0
238,-447,0,0,0,0,0,0,0,0,0,-1,1462,1471,0,0
245,-447,0,0,0,0,0,0,0,0,0,-1,1469,1471,0,0
252,-447,0,0,0,0,0,0,0,0,0,-1,1476,1471,0,0
259,-447,0,0,0,0,0,0,0,0,0,-1,1483,1471,0,0
266,-447,0,0,0,0,0,0,0,0,0,-1,1490,1471,0,0
273,-447,0,0,0,0,0,0,0,0,0,-1,1497,1471,0,0
280,-447,0,0,0,0,0,0,0,0,0,-1,1504,1471,0,0
287,-447,0,0,0,0,0,0,0,0,0,-1,1511,1471,0,0
294,-447,0,0,0,0,0,0,0,0,0,-1,1518,1471,0,0
301,-447,0,0,0,0,0,0,0,0,0,-1,1525,1471,0,0
308,-447,0,0,0,0,0,0,0,0,0,-1,1532,1471,0,0
315,-447,0,0,0,0,0,0,0,0,0,-1,1539,1471,0,0
322,-447,0,0,0,0,0,0,0,0,0,-1,1546,1471,0,0
329,-447,0,0,0,0,0,0,0,0,0,-1,1553,1471,0,0
336,-447,0,0,0,0,0,0,0,0,0,-1,1560,1471,0,0
343,-447,0,0,0,0,0,0,0,0,0,-1,1567,1471,0,0
350,-447,0,0,0,0,0,0,0,0,0,-1,1574,1471,0,0
357,-447,0,0,0,0,0,0,0,0,0,-1,1581,1471,0,0
364,-447,0,0,0,0,0,0,0,0,0,-1,1588,1471,0,0
371,-447,0,0,0,0,0,0,0,0,0,-1,1595,1471,0,0
378,-447,0,0,0,0,0,0,0,0,0,-1,1602,1471,0,0
385,-447,0,0,0,0,0,0,0,0,0,-1,1609,1471,0,0
392,-447,0,0,0,0,0,0,0,0,0,-1,1616,1471,0,0
399,-447,0,0,0,0,0,0,0,0,0,-1,1623,1471,0,0
406,-447,0,0,0,0,0,0,0,0,0,-1,1630,1471,0,0
413,-447,0,0,0,0,0,0,0,0,0,-1,1637,1471,0,0
420,-447,0,0,0,0,0,0,0,0,0,-1,1644,1471,0,0
427,-447,0,0,0,0,0,0,0,0,0,-1,1651,1471,0,0
434,-447,0,0,0,0,0,0,0,0,0,-1,1658,1471,0,0
441,-447,0,0,0,0,0,0,0,0,0,-1,1665,1471,0,0
448,-447,0,0,0,0,0,0,0,0,0,-1,1672,1471,0,0
455,-447,0,0,0,0,0,0,0,0,0,-1,1679,1471,0,0
462,-447,0,0,0,0,0,0,0,0,0,-1,1686,1471,0,0
469,-447,0,0,0,0,0,0,0,0,0,-1,1693,1471,0,0
476,-447,0,0,0,0,0,0,0,0,0,-1,1700,1471,0,0
483,-447,0,0,0,0,0,0,0,0,0,-1,1707,1471,0,0
490,-447,18.2214,-0.810303,0,0,0,0,0,0,0,-1,1714,1471,18.2215,0.810307
497,-447,17.0237,0.352417,0,0,0,0,0,0,0,-1,1721,1471,17.0237,-0.352442
504,-447,15.8998,1.53479,0,0,0,0,0,0,0,-1,1728,1471,15.8997,-1.53478
511,-447,14.7201,2.76111,0,0,0,0,0,0,0,-1,1735,1471,14.7201,-2.76107
518,-447,17.7618,13.2864,0,0,0,0,0,0,0,-1,1742,1471,17.7619,-13.2863
525,-447,17.1191,11.9014,0,0,0,0,0,0,0,-1,1749,1471,17.1191,-11.9013
532,-447,16.3959,10.0455,0,0,0,0,0,0,0,-1,1756,1471,16.3959,-10.0456
539,-447,14.1699,10.0204,0,0,0,0,0,0,0,-1,1763,1471,14.1699,-10.0204
546,-447,16.3715,11.8046,0,0,0,0,0,0,0,-1,1770,1471,16.3714,-11.8046
553,-447,17.5106,13.4012,0,0,0,0,0,0,0,-1,1777,1471,17.5107,-13.4012
560,-447,17.0187,13.168,0,0,0,0,0,0,0,-1,1784,1471,17.0187,-13.168
567,-447,18.9286,15.1703,0,0,0,0,0,0,0,-1,1791,1471,18.9286,-15.1703
574,-447,32.1848,27.6504,0,0,0,0,0,0,0,-1,1798,1471,32.1848,-27.6503
581,-447,34.645,29.5507,0,0,0,0,0,0,0,-1,1805,1471,34.645,-29.5507
588,-447,34.8503,28.6355,0.00651032,0.0023317,-0.00339853,0.00841039,0.000431621,-0.509794,0.00546873,0.0410958,1812,1471,34.8503,-28.6355
595,-447,34.8422,27.7361,0.0048804,0.00173173,-0.00267714,0.00641181,0.000200322,-0.519599,0.00420935,0.0151045,1819,1471,34.8422,-27.7361
602,-447,34.8048,26.8951,0.00370602,0.00114703,-0.00194619,0.00475564,9.74112e-05,-0.494606,0.00313846,0.0119483,1826,1471,34.8048,-26.8952
609,-447,34.7753,26.084,0.00282711,0.000716282,-0.00131993,0.0034617,8.16922e-05,-0.44815,0.00228105,0.0123378,1833,1471,34.7752,-26.084
616,-447,34.7424,25.2678,0.00210745,0.000318302,-0.000748998,0.00237961,4.61452e-05,-0.348528,0.00157125,0.0144021,1840,1471,34.7425,-25.2678
623,-447,34.6978,24.4575,0.0017401,9.89464e-05,-0.000350184,0.0018117,2.73489e-05,-0.201677,0.00119879,0.0164021,1847,1471,34.6977,-24.4575
630,-447,34.6334,23.6113,0.00166489,-0.000143024,-4.25665e-05,0.00166589,-0.000144026,-0.0235271,0.00116158,0.0109435,1854,1471,34.6334,-23.6113
637,-447,34.6099,22.7854,0.00176652,-0.000269024,0.000158755,0.00177883,-0.000281331,0.0773678,0.00128993,0.0116604,1861,1471,34.6098,-22.7854
644,-447,34.5887,21.9567,0.00210837,-0.000224669,0.000151551,0.00211817,-0.000234472,0.0645967,0.00149641,0.0136039,1868,1471,34.5887,-21.9567
651,-447,34.709,20.9198,0,0,0,0,0,0,0,-1,1875,1471,34.709,-20.9198
658,-447,30.2566,16.5862,0,0,0,0,0,0,0,-1,1882,1471,30.2566,-16.5862
665,-447,18.4946,9.79919,0,0,0,0,0,0,0,-1,1889,1471,18.4946,-9.79922
672,-447,18.9784,9.66077,0,0,0,0,0,0,0,-1,1896,1471,18.9784,-9.66081
679,-447,14.844,7.4248,0,0,0,0,0,0,0,-1,1903,1471,14.844,-7.42477
686,-447,9.81079,4.30859,0,0,0,0,0,0,0,-1,1910,1471,9.8108,-4.30864
693,-447,10.48,2.08643,0,0,0,0,0,0,0,-1,1917,1471,10.48,-2.08642
700,-447,0,0,0,0,0,0,0,0,0,-1,1924,1471,0,0
707,-447,0,0,0,0,0,0,0,0,0,-1,1931,1471,0,0
714,-447,0,0,0,0,0,0,0,0,0,-1,1938,1471,0,0
721,-447,0,0,0,0,0,0,0,0,0,-1,1945,1471,0,0
728,-447,0,0,0,0,0,0,0,0,0,-1,1952,1471,0,0
735,-447,0,0,0,0,0,0,0,0,0,-1,1959,1471,0,0
742,-447,0,0,0,0,0,0,0,0,0,-1,1966,1471,0,0
749,-447,0,0,0,0,0,0,0,0,0,-1,1973,1471,0,0
756,-447,0,0,0,0,0,0,0,0,0,-1,1980,1471,0,0
763,-447,0,0,0,0,0,0,0,0,0,-1,1987,1471,0,0
770,-447,0,0,0,0,0,0,0,0,0,-1,1994,1471,0,0
777,-447,0,0,0,0,0,0,0,0,0,-1,2001,1471,0,0
784,-447,0,0,0,0,0,0,0,0,0,-1,2008,1471,0,0
791,-447,0,0,0,0,0,0,0,0,0,-1,2015,1471,0,0
798,-447,0,0,0,0,0,0,0,0,0,-1,2022,1471,0,0
805,-447,0,0,0,0,0,0,0,0,0,-1,2029,1471,0,0
812,-447,0,0,0,0,0,0,0,0,0,-1,2036,1471,0,0
-700,-454,0,0,0,0,0,0,0,0,0,-1,524,1478,0,0
-693,-454,0,0,0,0,0,0,0,0,0,-1,531,1478,0,0
-686,-454,0,0,0,0,0,0,0,0,0,-1,538,1478,0,0
-679,-454,0,0,0,0,0,0,0,0,0,-1,545,1478,0,0
-672,-454,0,0,0,0,0,0,0,0,0,-1,552,1478,0,0
-665,-454,0,0,0,0,0,0,0,0,0,-1,559,1478,0,0
-658,-454,0,0,0,0,0,0,0,0,0,-1,566,1478,0,0
-651,-454,0,0,0,0,0,0,0,0,0,-1,573,1478,0,0
-644,-454,0,0,0,0,0,0,0,0,0,-1,580,1478,0,0
-637,-454,0,0,0,0,0,0,0,0,0,-1,587,1478,0,0
-630,-454,0,0,0,0,0,0,0,0,0,-1,594,1478,0,0
-623,-454,0,0,0,0,0,0,0,0,0,-1,601,1478,0,0
-616,-454,0,0,0,0,0,0,0,0,0,-1,608,1478,0,0
-609,-454,0,0,0,0,0,0,0,0,0,-1,615,1478,0,0
-602,-454,0,0,0,0,0,0,0,0,0,-1,622,1478,0,0
-595,-454,0,0,0,0,0,0,0,0,0,-1,629,1478,0,0
-588,-454,0,0,0,0,0,0,0,0,0,-1,636,1478,0,0
-581,-454,0,0,0,0,0,0,0,0,0,-1,643,1478,0,0
-574,-454,-8.4881,-0.465942,0,0,0,0,0,0,0,-1,650,1478,-8.4881,0.465885
-567,-454,-8.10046,0.922974,0,0,0,0,0,0,0,-1,657,1478,-8.10047,-0.923034
-560,-454,-10.656,3.51172,0,0,0,0,0,0,0,-1,664,1478,-10.656,-3.51176
-553,-454,-9.01129,3.95251,0,0,0,0,0,0,0,-1,671,1478,-9.0113,-3.95256
-546,-454,-9.61896,6.05237,0,0,0,0,0,0,0,-1,678,1478,-9.61897,-6.05239
-539,-454,-7.72589,4.96533,0,0,0,0,0,0,0,-1,685,1478,-7.72592,-4.96532
-532,-454,-7.03931,7.59985,0,0,0,0,0,0,0,-1,692,1478,-7.03929,-7.59981
-525,-454,-5.78723,9.677,0,0,0,0,0,0,0,-1,699,1478,-5.78722,-9.67703
-518,-454,-9.82098,13.8295,0,0,0,0,0,0,0,-1,706,1478,-9.82098,-13.8295
-511,-454,-16.6582,21.934,0,0,0,0,0,0,0,-1,713,1478,-16.6582,-21.9339
-504,-454,-16.5888,22.8578,0.00255495,0.00492047,0.00423688,0.00813658,-0.000661159,0.921512,0.00565766,0.022311,720,1478,-16.5888,-22.8578
-497,-454,-16.6725,23.7689,0.00213117,0.00364883,0.00322987,0.00620781,-0.000427808,0.900777,0.00428826,0.0190804,727,1478,-16.6725,-23.7689
-490,-454,-16.7056,24.6263,0.00181059,0.00266138,0.00241802,0.00469114,-0.000219166,0.872471,0.00320298,0.018906,734,1478,-16.7056,-24.6263
-483,-454,-16.7279,25.4529,0.00159756,0.00192665,0.00179396,0.0035636,-3.93891e-05,0.831132,0.00238897,0.0169102,741,1478,-16.7279,-25.4529
-476,-454,-16.7895,26.267,0.00151294,0.00155484,0.00143415,0.0029682,9.95853e-05,0.792701,0.00194645,0.0138773,748,1478,-16.7895,-26.267
-469,-454,-16.821,27.1526,0.00154351,0.00151053,0.00127286,0.00279998,0.000254058,0.778922,0.001788,0.010682,755,1478,-16.821,-27.1526
-462,-454,-16.8923,28.022,0.00179629,0.00181315,0.00138678,0.00319153,0.00041792,0.788438,0.00200296,0.0110193,762,1478,-16.8924,-28.0219
-455,-454,-16.944,28.8588,0.00232168,0.00249244,0.00182795,0.004237,0.000577115,0.808735,0.0026533,0.0121419,769,1478,-16.9439,-28.8588
-448,-454,-16.9432,29.7329,0.00315594,0.00377138,0.00274861,0.00622944,0.000697877,0.841143,0.00394099,0.0277407,776,1478,-16.9432,-29.7329
-441,-454,-16.7876,30.7638,0,0,0,0,0,0,0,-1,783,1478,-16.7876,-30.7638
-434,-454,-7.55743,19.4857,0,0,0,0,0,0,0,-1,790,1478,-7.55746,-19.4858
-427,-454,-6.00183,15.8636,0,0,0,0,0,0,0,-1,797,1478,-6.00184,-15.8637
-420,-454,-6.28088,15.2135,0,0,0,0,0,0,0,-1,804,1478,-6.28087,-15.2135
-413,-454,-5.4408,13.674,0,0,0,0,0,0,0,-1,811,1478,-5.44079,-13.6739
-406,-454,-2.38208,10.0308,0,0,0,0,0,0,0,-1,818,1478,-2.38209,-10.0308
-399,-454,-1.21033,6.95447,0,0,0,0,0,0,0,-1,825,1478,-1.21035,-6.95452
-392,-454,0.0967407,0.985474,0,0,0,0,0,0,0,-1,832,1478,0.0967364,-0.985529
-385,-454,2.38629,3.297,0,0,0,0,0,0,0,-1,839,1478,2.38629,-3.29702
-378,-454,-15.9756,2.83997,0,0,0,0,0,0,0,-1,846,1478,-15.9756,-2.83994
-371,-454,-17.2753,2.01453,0,0,0,0,0,0,0,-1,853,1478,-17.2753,-2.01455
-364,-454,1.08124,0.819458,0,0,0,0,0,0,0,-1,860,1478,1.08124,-0.819513
-357,-454,0,0,0,0,0,0,0,0,0,-1,867,1478,0,0
-350,-454,0,0,0,0,0,0,0,0,0,-1,874,1478,0,0
-343,-454,0,0,0,0,0,0,0,0,0,-1,881,1478,0,0
-336,-454,0,0,0,0,0,0,0,0,0,-1,888,1478,0,0
-329,-454,0,0,0,0,0,0,0,0,0,-1,895,1478,0,0
-322,-454,0,0,0,0,0,0,0,0,0,-1,902,1478,0,0
-315,-454,0,0,0,0,0,0,0,0,0,-1,909,1478,0,0
-308,-454,0,0,0,0,0,0,0,0,0,-1,916,1478,0,0
-301,-454,0,0,0,0,0,0,0,0,0,-1,923,1478,0,0
-294,-454,0,0,0,0,0,0,0,0,0,-1,930,1478,0,0
-287,-454,0,0,0,0,0,0,0,0,0,-1,937,1478,0,0
-280,-454,0,0,0,0,0,0,0,0,0,-1,944,1478,0,0
-273,-454,0,0,0,0,0,0,0,0,0,-1,951,1478,0,0
-266,-454,0,0,0,0,0,0,0,0,0,-1,958,1478,0,0
-259,-454,0,0,0,0,0,0,0,0,0,-1,965,1478,0,0
-252,-454,0,0,0,0,0,0,0,0,0,-1,972,1478,0,0
-245,-454,0,0,0,0,0,0,0,0,0,-1,979,1478,0,0
-238,-454,0,0,0,0,0,0,0,0,0,-1,986,1478,0,0
-231,-454,0,0,0,0,0,0,0,0,0,-1,993,1478,0,0
-224,-454,0,0,0,0,0,0,0,0,0,-1,1000,1478,0,0
-217,-454,0,0,0,0,0,0,0,0,0,-1,1007,1478,0,0
-210,-454,0,0,0,0,0,0,0,0,0,-1,1014,1478,0,0
-203,-454,0,0,0,0,0,0,0,0,0,-1,1021,1478,0,0
-196,-454,0,0,0,0,0,0,0,0,0,-1,1028,1478,0,0
-189,-454,0,0,0,0,0,0,0,0,0,-1,1035,1478,0,0
-182,-454,0,0,0,0,0,0,0,0,0,-1,1042,1478,0,0
-175,-454,0,0,0,0,0,0,0,0,0,-1,1049,1478,0,0
-168,-454,0,0,0,0,0,0,0,0,0,-1,1056,1478,0,0
-161,-454,0,0,0,0,0,0,0,0,0,-1,1063,1478,0,0
-154,-454,0,0,0,0,0,0,0,0,0,-1,1070,1478,0,0
-147,-454,0,0,0,0,0,0,0,0,0,-1,1077,1478,0,0
-140,-454,0,0,0,0,0,0,0,0,0,-1,1084,1478,0,0
-133,-454,0,0,0,0,0,0,0,0,0,-1,1091,1478,0,0
-126,-454,0,0,0,0,0,0,0,0,0,-1,1098,1478,0,0
-119,-454,0,0,0,0,0,0,0,0,0,-1,1105,1478,0,0
-112,-454,0,0,0,0,0,0,0,0,0,-1,1112,1478,0,0
-105,-454,0,0,0,0,0,0,0,0,0,-1,1119,1478,0,0
-98,-454,0,0,0,0,0,0,0,0,0,-1,1126,1478,0,0
-91,-454,0,0,0,0,0,0,0,0,0,-1,1133,1478,0,0
-84,-454,0,0,0,0,0,0,0,0,0,-1,1140,1478,0,0
-77,-454,0,0,0,0,0,0,0,0,0,-1,1147,1478,0,0
-70,-454,0,0,0,0,0,0,0,0,0,-1,1154,1478,0,0
-63,-454,0,0,0,0,0,0,0,0,0,-1,1161,1478,0,0
-56,-454,0,0,0,0,0,0,0,0,0,-1,1168,1478,0,0
-49,-454,0,0,0,0,0,0,0,0,0,-1,1175,1478,0,0
-42,-454,0,0,0,0,0,0,0,0,0,-1,1182,1478,0,0
-35,-454,0,0,0,0,0,0,0,0,0,-1,1189,1478,0,0
-28,-454,0,0,0,0,0,0,0,0,0,-1,1196,1478,0,0
-21,-454,0,0,0,0,0,0,0,0,0,-1,1203,1478,0,0
-14,-454,0,0,0,0,0,0,0,0,0,-1,1210,1478,0,0
-7,-454,0,0,0,0,0,0,0,0,0,-1,1217,1478,0,0
0,-454,0,0,0,0,0,0,0,0,0,-1,1224,1478,0,0
7,-454,0,0,0,0,0,0,0,0,0,-1,1231,1478,0,0
14,-454,0,0,0,0,0,0,0,0,0,-1,1238,1478,0,0
21,-454,0,0,0,0,0,0,0,0,0,-1,1245,1478,0,0
28,-454,0,0,0,0,0,0,0,0,0,-1,1252,1478,0,0
35,-454,0,0,0,0,0,0,0,0,0,-1,1259,1478,0,0
42,-454,0,0,0,0,0,0,0,0,0,-1,1266,1478,0,0
49,-454,0,0,0,0,0,0,0,0,0,-1,1273,1478,0,0
56,-454,0,0,0,0,0,0,0,0,0,-1,1280,1478,0,0
63,-454,0,0,0,0,0,0,0,0,0,-1,1287,1478,0,0
70,-454,0,0,0,0,0,0,0,0,0,-1,1294,1478,0,0
77,-454,0,0,0,0,0,0,0,0,0,-1,1301,1478,0,0
84,-454,0,0,0,0,0,0,0,0,0,-1,1308,1478,0,0
91,-454,0,0,0,0,0,0,0,0,0,-1,1315,1478,0,0
98,-454,0,0,0,0,0,0,0,0,0,-1,1322,1478,0,0
105,-454,0,0,0,0,0,0,0,0,0,-1,1329,1478,0,0
112,-454,0,0,0,0,0,0,0,0,0,-1,1336,1478,0,0
119,-454,0,0,0,0,0,0,0,0,0,-1,1343,1478,0,0
126,-454,0,0,0,0,0,0,0,0,0,-1,1350,1478,0,0
133,-454,0,0,0,0,0,0,0,0,0,-1,1357,1478,0,0
140,-454,0,0,0,0,0,0,0,0,0,-1,1364,1478,0,0
147,-454,0,0,0,0,0,0,0,0,0,-1,1371,1478,0,0
154,-454,0,0,0,0,0,0,0,0,0,-1,1378,1478,0,0
161,-454,0,0,0,0,0,0,0,0,0,-1,1385,1478,0,0
168,-454,0,0,0,0,0,0,0,0,0,-1,1392,1478,0,0
175,-454,0,0,0,0,0,0,0,0,0,-1,1399,1478,0,0
182,-454,0,0,0,0,0,0,0,0,0,-1,1406,1478,0,0
189,-454,0,0,0,0,0,0,0,0,0,-1,1413,1478,0,0
196,-454,0,0,0,0,0,0,0,0,0,-1,1420,1478,0,0
203,-454,0,0,0,0,0,0,0,0,0,-1,1427,1478,0,0
210,-454,0,0,0,0,0,0,0,0,0,-1,1434,1478,0,0
217,-454,0,0,0,0,0,0,0,0,0,-1,1441,1478,0,0
224,-454,0,0,0,0,0,0,0,0,0,-1,1448,1478,0,0
231,-454,0,0,0,0,0,0,0,0,0,-1,1455,1478,0,0
238,-454,0,0,0,0,0,0,0,0,0,-1,1462,1478,0,0
245,-454,0,0,0,0,0,0,0,0,0,-1,1469,1478,0,0
252,-454,0,0,0,0,0,0,0,0,0,-1,1476,1478,0,0
259,-454,0,0,0,0,0,0,0,0,0,-1,1483,1478,0,0
266,-454,0,0,0,0,0,0,0,0,0,-1,1490,1478,0,0
273,-454,0,0,0,0,0,0,0,0,0,-1,1497,1478,0,0
280,-454,0,0,0,0,0,0,0,0,0,-1,1504,1478,0,0
287,-454,0,0,0,0,0,0,0,0,0,-1,1511,1478,0,0
294,-454,0,0,0,0,0,0,0,0,0,-1,1518,1478,0,0
301,-454,0,0,0,0,0,0,0,0,0,-1,1525,1478,0,0
308,-454,0,0,0,0,0,0,0,0,0,-1,1532,1478,0,0
315,-454,0,0,0,0,0,0,0,0,0,-1,1539,1478,0,0
322,-454,0,0,0,0,0,0,0,0,0,-1,1546,1478,0,0
329,-454,0,0,0,0,0,0,0,0,0,-1,1553,1478,0,0
336,-454,0,0,0,0,0,0,0,0,0,-1,1560,1478,0,0
343,-454,0,0,0,0,0,0,0,0,0,-1,1567,1478,0,0
350,-454,0,0,0,0,0,0,0,0,0,-1,1574,1478,0,0
357,-454,0,0,0,0,0,0,0,0,0,-1,1581,1478,0,0
364,-454,0,0,0,0,0,0,0,0,0,-1,1588,1478,0,0
371,-454,0,0,0,0,0,0,0,0,0,-1,1595,1478,0,0
378,-454,0,0,0,0,0,0,0,0,0,-1,1602,1478,0,0
385,-454,0,0,0,0,0,0,0,0,0,-1,1609,1478,0,0
392,-454,0,0,0,0,0,0,0,0,0,-1,1616,1478,0,0
399,-454,0,0,0,0,0,0,0,0,0,-1,1623,1478,0,0
406,-454,0,0,0,0,0,0,0,0,0,-1,1630,1478,0,0
413,-454,0,0,0,0,0,0,0,0,0,-1,1637,1478,0,0
420,-454,0,0,0,0,0,0,0,0,0,-1,1644,1478,0,0
427,-454,0,0,0,0,0,0,0,0,0,-1,1651,1478,0,0
434,-454,0,0,0,0,0,0,0,0,0,-1,1658,1478,0,0
441,-454,0,0,0,0,0,0,0,0,0,-1,1665,1478,0,0
448,-454,0,0,0,0,0,0,0,0,0,-1,1672,1478,0,0
455,-454,0,0,0,0,0,0,0,0,0,-1,1679,1478,0,0
462,-454,0,0,0,0,0,0,0,0,0,-1,1686,1478,0,0
469,-454,0,0,0,0,0,0,0,0,0,-1,1693,1478,0,0
476,-454,0,0,0,0,0,0,0,0,0,-1,1700,1478,0,0
483,-454,14.2399,3.97498,0,0,0,0,0,0,0,-1,1707,1478,14.2399,-3.97502
490,-454,18.1821,-0.175781,0,0,0,0,0,0,0,-1,1714,1478,18.1821,0.175822
497,-454,16.8854,1.01208,0,0,0,0,0,0,0,-1,1721,1478,16.8854,-1.01209
504,-454,15.587,2.05994,0,0,0,0,0,0,0,-1,1728,1478,15.5871,-2.05998
511,-454,17.0273,14.5258,0,0,0,0,0,0,0,-1,1735,1478,17.0273,-14.5258
518,-454,16.4158,13.1039,0,0,0,0,0,0,0,-1,1742,1478,16.4157,-13.1038
525,-454,15.7842,11.6628,0,0,0,0,0,0,0,-1,1749,1478,15.7841,-11.6629
532,-454,15.1094,10.2476,0,0,0,0,0,0,0,-1,1756,1478,15.1094,-10.2475
539,-454,13.7905,10.9373,0,0,0,0,0,0,0,-1,1763,1478,13.7906,-10.9372
546,-454,16.2002,13.2458,0,0,0,0,0,0,0,-1,1770,1478,16.2002,-13.2459
553,-454,15.6747,12.1868,0,0,0,0,0,0,0,-1,1777,1478,15.6747,-12.1868
560,-454,16.3895,14.0527,0,0,0,0,0,0,0,-1,1784,1478,16.3895,-14.0528
567,-454,34.28,31.1007,0,0,0,0,0,0,0,-1,1791,1478,34.28,-31.1007
574,-454,33.9318,30.5032,0,0,0,0,0,0,0,-1,1798,1478,33.9318,-30.5032
581,-454,34.0615,29.4669,0.00745542,0.00270572,-0.00362325,0.00941276,0.000748381,-0.495301,0.00604118,0.035079,1805,1478,34.0616,-29.467
588,-454,34.1132,28.5941,0.0057017,0.00203579,-0.00285571,0.0072621,0.000475394,-0.500084,0.00469097,0.0151399,1812,1478,34.1132,-28.5941
595,-454,34.031,27.7858,0.00431401,0.00144098,-0.00219224,0.00549847,0.000256518,-0.495361,0.0035832,0.0126921,1819,1478,34.031,-27.7858
602,-454,33.9879,26.9514,0.00327831,0.000911491,-0.00156929,0.00406038,0.000129415,-0.462337,0.00266483,0.00895606,1826,1478,33.988,-26.9514
609,-454,33.9524,26.126,0.00251394,0.000533963,-0.00101132,0.00293917,0.000108734,-0.398028,0.00192423,0.0104515,1833,1478,33.9524,-26.1259
616,-454,33.9121,25.3159,0.00189738,0.000170871,-0.000471632,0.00201781,5.04361e-05,-0.250015,0.00132871,0.0134177,1840,1478,33.9121,-25.3159
623,-454,33.9022,24.5118,0.00160537,-5.88753e-05,-5.07801e-05,0.00160692,-6.04233e-05,-0.0304746,0.00109198,0.0155655,1847,1478,33.9022,-24.5118
630,-454,33.8632,23.6851,0.00156459,-0.000307455,0.000341607,0.00162498,-0.000367843,0.174968,0.00122449,0.0158161,1854,1478,33.8631,-23.6851
637,-454,33.7544,22.8705,0.00169705,-0.000448753,0.000655808,0.0018816,-0.000633311,0.274324,0.00151043,0.0134088,1861,1478,33.7544,-22.8705
644,-454,33.8119,22.0282,0.002026,-0.00042144,0.000804463,0.00226674,-0.000662183,0.290777,0.00177359,0.0306226,1868,1478,33.8119,-22.0283
651,-454,33.9067,21.1244,0,0,0,0,0,0,0,-1,1875,1478,33.9067,-21.1243
658,-454,17.2583,10.0765,0,0,0,0,0,0,0,-1,1882,1478,17.2583,-10.0765
665,-454,17.683,9.67566,0,0,0,0,0,0,0,-1,1889,1478,17.683,-9.67572
672,-454,16.5476,6.41931,0,0,0,0,0,0,0,-1,1896,1478,16.5476,-6.41929
679,-454,14.2161,5.45007,0,0,0,0,0,0,0,-1,1903,1478,14.2161,-5.45013
686,-454,10.3767,2.12842,0,0,0,0,0,0,0,-1,1910,1478,10.3767,-2.12839
693,-454,11.1857,1.48486,0,0,0,0,0,0,0,-1,1917,1478,11.1857,-1.48487
700,-454,0,0,0,0,0,0,0,0,0,-1,1924,1478,0,0
707,-454,0,0,0,0,0,0,0,0,0,-1,1931,1478,0,0
714,-454,0,0,0,0,0,0,0,0,0,-1,1938,1478,0,0
721,-454,0,0,0,0,0,0,0,0,0,-1,1945,1478,0,0
728,-454,0,0,0,0,0,0,0,0,0,-1,1952,1478,0,0
735,-454,0,0,0,0,0,0,0,0,0,-1,1959,1478,0,0
742,-454,0,0,0,0,0,0,0,0,0,-1,1966,1478,0,0
749,-454,0,0,0,0,0,0,0,0,0,-1,1973,1478,0,0
756,-454,0,0,0,0,0,0,0,0,0,-1,1980,1478,0,0
763,-454,0,0,0,0,0,0,0,0,0,-1,1987,1478,0,0
770,-454,0,0,0,0,0,0,0,0,0,-1,1994,1478,0,0
777,-454,0,0,0,0,0,0,0,0,0,-1,2001,1478,0,0
784,-454,0,0,0,0,0,0,0,0,0,-1,2008,1478,0,0
791,-454,0,0,0,0,0,0,0,0,0,-1,2015,1478,0,0
798,-454,0,0,0,0,0,0,0,0,0,-1,2022,1478,0,0
805,-454,0,0,0,0,0,0,0,0,0,-1,2029,1478,0,0
812,-454,0,0,0,0,0,0,0,0,0,-1,2036,1478,0,0
-700,-461,0,0,0,0,0,0,0,0,0,-1,524,1485,0,0
-693,-461,0,0,0,0,0,0,0,0,0,-1,531,1485,0,0
-686,-461,0,0,0,0,0,0,0,0,0,-1,538,1485,0,0
-679,-461,0,0,0,0,0,0,0,0,0,-1,545,1485,0,0
-672,-461,0,0,0,0,0,0,0,0,0,-1,552,1485,0,0
-665,-461,0,0,0,0,0,0,0,0,0,-1,559,1485,0,0
-658,-461,0,0,0,0,0,0,0,0,0,-1,566,1485,0,0
-651,-461,0,0,0,0,0,0,0,0,0,-1,573,1485,0,0
-644,-461,0,0,0,0,0,0,0,0,0,-1,580,1485,0,0
-637,-461,0,0,0,0,0,0,0,0,0,-1,587,1485,0,0
-630,-461,0,0,0,0,0,0,0,0,0,-1,594,1485,0,0
-623,-461,0,0,0,0,0,0,0,0,0,-1,601,1485,0,0
-616,-461,0,0,0,0,0,0,0,0,0,-1,608,1485,0,0
-609,-461,0,0,0,0,0,0,0,0,0,-1,615,1485,0,0
-602,-461,0,0,0,0,0,0,0,0,0,-1,622,1485,0,0
-595,-461,0,0,0,0,0,0,0,0,0,-1,629,1485,0,0
-588,-461,0,0,0,0,0,0,0,0,0,-1,636,1485,0,0
-581,-461,0,0,0,0,0,0,0,0,0,-1,643,1485,0,0
-574,-461,0,0,0,0,0,0,0,0,0,-1,650,1485,0,0
-567,-461,-9.69031,0.513306,0,0,0,0,0,0,0,-1,657,1485,-9.69032,-0.513305
-560,-461,-7.28815,1.54004,0,0,0,0,0,0,0,-1,664,1485,-7.28817,-1.54005
-553,-461,-11.9607,5.27783,0,0,0,0,0,0,0,-1,671,1485,-11.9607,-5.27778
-546,-461,-11.4215,4.44666,0,0,0,0,0,0,0,-1,678,1485,-11.4215,-4.4467
-539,-461,-9.36493,5.23438,0,0,0,0,0,0,0,-1,685,1485,-9.3649,-5.23432
-532,-461,-7.82898,6.78357,0,0,0,0,0,0,0,-1,692,1485,-7.829,-6.78363
-525,-461,-6.37878,8.75659,0,0,0,0,0,0,0,-1,699,1485,-6.3788,-8.75659
-518,-461,-6.49695,10.886,0,0,0,0,0,0,0,-1,706,1485,-6.49696,-10.8859
-511,-461,-15.8618,21.5214,0,0,0,0,0,0,0,-1,713,1485,-15.8617,-21.5213
-504,-461,-15.7953,22.8196,0,0,0,0,0,0,0,-1,720,1485,-15.7953,-22.8196
-497,-461,-15.7973,23.8101,0.00263315,0.00448754,0.00399873,0.00766516,-0.000544477,0.899321,0.00530093,0.0116284,727,1485,-15.7973,-23.8101
-490,-461,-15.8339,24.6765,0.00219399,0.00326499,0.00299346,0.00577047,-0.000311489,0.873907,0.0039549,0.0126703,734,1485,-15.8339,-24.6765
-483,-461,-15.8772,25.5176,0.00183573,0.00230185,0.00216762,0.0042489,-0.000111321,0.838952,0.00287042,0.0120952,741,1485,-15.8772,-25.5175
-476,-461,-15.9514,26.3438,0.00164346,0.00176202,0.00165689,0.00336069,4.4786e-05,0.80328,0.00222568,0.0110178,748,1485,-15.9514,-26.3437
-469,-461,-15.9948,27.2092,0.0015964,0.00159719,0.00139434,0.00299113,0.000202455,0.785539,0.00193015,0.0131417,755,1485,-15.9948,-27.2092
-462,-461,-16.0445,28.0524,0.00176516,0.00178405,0.00140918,0.00318382,0.000365391,0.78875,0.00201184,0.0198132,762,1485,-16.0445,-28.0524
-455,-461,-16.1133,28.8807,0.00219798,0.00234251,0.00175052,0.00402225,0.000518231,0.806027,0.00252654,0.0253742,769,1485,-16.1133,-28.8807
-448,-461,-16.1277,29.7487,0.00298169,0.00352541,0.00258635,0.00585415,0.00065295,0.837763,0.00370435,0.0228344,776,1485,-16.1277,-29.7486
-441,-461,-16.1456,30.5708,0,0,0,0,0,0,0,-1,783,1485,-16.1456,-30.5708
-434,-461,-15.9094,31.7372,0,0,0,0,0,0,0,-1,790,1485,-15.9094,-31.7372
-427,-461,-8.26154,21.546,0,0,0,0,0,0,0,-1,797,1485,-8.26153,-21.5461
-420,-461,-5.70355,16.6116,0,0,0,0,0,0,0,-1,804,1485,-5.70353,-16.6115
-413,-461,-5.98798,16.0605,0,0,0,0,0,0,0,-1,811,1485,-5.98796,-16.0605
-406,-461,-5.52667,14.839,0,0,0,0,0,0,0,-1,818,1485,-5.52666,-14.839
-399,-461,-1.93439,9.82849,0,0,0,0,0,0,0,-1,825,1485,-1.9344,-9.82846
-392,-461,-0.357544,5.55225,0,0,0,0,0,0,0,-1,832,1485,-0.357536,-5.55228
-385,-461,1.71509,3.35254,0,0,0,0,0,0,0,-1,839,1485,1.71511,-3.35255
-378,-461,1.95996,3.01111,0,0,0,0,0,0,0,-1,846,1485,1.95993,-3.01111
-371,-461,0.702881,2.33459,0,0,0,0,0,0,0,-1,853,1485,0.702859,-2.33459
-364,-461,-1.93097,2.56458,0,0,0,0,0,0,0,-1,860,1485,-1.93095,-2.56456
-357,-461,-2.41516,3.49487,0,0,0,0,0,0,0,-1,867,1485,-2.41517,-3.49487
-350,-461,0,0,0,0,0,0,0,0,0,-1,874,1485,0,0
-343,-461,0,0,0,0,0,0,0,0,0,-1,881,1485,0,0
-336,-461,0,0,0,0,0,0,0,0,0,-1,888,1485,0,0
-329,-461,0,0,0,0,0,0,0,0,0,-1,895,1485,0,0
-322,-461,0,0,0,0,0,0,0,0,0,-1,902,1485,0,0
-315,-461,0,0,0,0,0,0,0,0,0,-1,909,1485,0,0
-308,-461,0,0,0,0,0,0,0,0,0,-1,916,1485,0,0
-301,-461,0,0,0,0,0,0,0,0,0,-1,923,1485,0,0
-294,-461,0,0,0,0,0,0,0,0,0,-1,930,1485,0,0
-287,-461,0,0,0,0,0,0,0,0,0,-1,937,1485,0,0
-280,-461,0,0,0,0,0,0,0,0,0,-1,944,1485,0,0
-273,-461,0,0,0,0,0,0,0,0,0,-1,951,1485,0,0
-266,-461,0,0,0,0,0,0,0,0,0,-1,958,1485,0,0
-259,-461,0,0,0,0,0,0,0,0,0,-1,965,1485,0,0
-252,-461,0,0,0,0,0,0,0,0,0,-1,972,1485,0,0
-245,-461,0,0,0,0,0,0,0,0,0,-1,979,1485,0,0
-238,-461,0,0,0,0,0,0,0,0,0,-1,986,1485,0,0
-231,-461,0,0,0,0,0,0,0,0,0,-1,993,1485,0,0
-224,-461,0,0,0,0,0,0,0,0,0,-1,1000,1485,0,0
-217,-461,0,0,0,0,0,0,0,0,0,-1,1007,1485,0,0
-210,-461,0,0,0,0,0,0,0,0,0,-1,1014,1485,0,0
-203,-461,0,0,0,0,0,0,0,0,0,-1,1021,1485,0,0
-196,-461,0,0,0,0,0,0,0,0,0,-1,1028,1485,0,0
-189,-461,0,0,0,0,0,0,0,0,0,-1,1035,1485,0,0
-182,-461,0,0,0,0,0,0,0,0,0,-1,1042,1485,0,0
-175,-461,0,0,0,0,0,0,0,0,0,-1,1049,1485,0,0
-168,-461,0,0,0,0,0,0,0,0,0,-1,1056,1485,0,0
-161,-461,0,0,0,0,0,0,0,0,0,-1,1063,1485,0,0
-154,-461,0,0,0,0,0,0,0,0,0,-1,1070,1485,0,0
-147,-461,0,0,0,0,0,0,0,0,0,-1,1077,1485,0,0
-140,-461,0,0,0,0,0,0,0,0,0,-1,1084,1485,0,0
-133,-461,0,0,0,0,0,0,0,0,0,-1,1091,1485,0,0
-126,-461,0,0,0,0,0,0,0,0,0,-1,1098,1485,0,0
-119,-461,0,0,0,0,0,0,0,0,0,-1,1105,1485,0,0
-112,-461,0,0,0,0,0,0,0,0,0,-1,1112,1485,0,0
-105,-461,0,0,0,0,0,0,0,0,0,-1,1119,1485,0,0
-98,-461,0,0,0,0,0,0,0,0,0,-1,1126,1485,0,0
-91,-461,0,0,0,0,0,0,0,0,0,-1,1133,1485,0,0
-84,-461,0,0,0,0,0,0,0,0,0,-1,1140,1485,0,0
-77,-461,0,0,0,0,0,0,0,0,0,-1,1147,1485,0,0
-70,-461,0,0,0,0,0,0,0,0,0,-1,1154,1485,0,0
-63,-461,0,0,0,0,0,0,0,0,0,-1,1161,1485,0,0
-56,-461,0,0,0,0,0,0,0,0,0,-1,1168,1485,0,0
-49,-461,0,0,0,0,0,0,0,0,0,-1,1175,1485,0,0
-42,-461,0,0,0,0,0,0,0,0,0,-1,1182,1485,0,0
-35,-461,0,0,0,0,0,0,0,0,0,-1,1189,1485,0,0
-28,-461,0,0,0,0,0,0,0,0,0,-1,1196,1485,0,0
-21,-461,0,0,0,0,0,0,0,0,0,-1,1203,1485,0,0
-14,-461,0,0,0,0,0,0,0,0,0,-1,1210,1485,0,0
-7,-461,0,0,0,0,0,0,0,0,0,-1,1217,1485,0,0
0,-461,0,0,0,0,0,0,0,0,0,-1,1224,1485,0,0
7,-461,0,0,0,0,0,0,0,0,0,-1,1231,1485,0,0
14,-461,0,0,0,0,0,0,0,0,0,-1,1238,1485,0,0
21,-461,0,0,0,0,0,0,0,0,0,-1,1245,1485,0,0
28,-461,0,0,0,0,0,0,0,0,0,-1,1252,1485,0,0
35,-461,0,0,0,0,0,0,0,0,0,-1,1259,1485,0,0
42,-461,0,0,0,0,0,0,0,0,0,-1,1266,1485,0,0
49,-461,0,0,0,0,0,0,0,0,0,-1,1273,1485,0,0
56,-461,0,0,0,0,0,0,0,0,0,-1,1280,1485,0,0
63,-461,0,0,0,0,0,0,0,0,0,-1,1287,1485,0,0
70,-461,0,0,0,0,0,0,0,0,0,-1,1294,1485,0,0
77,-461,0,0,0,0,0,0,0,0,0,-1,1301,1485,0,0
84,-461,0,0,0,0,0,0,0,0,0,-1,1308,1485,0,0
91,-461,0,0,0,0,0,0,0,0,0,-1,1315,1485,0,0
98,-461,0,0,0,0,0,0,0,0,0,-1,1322,1485,0,0
105,-461,0,0,0,0,0,0,0,0,0,-1,1329,1485,0,0
112,-461,0,0,0,0,0,0,0,0,0,-1,1336,1485,0,0
119,-461,0,0,0,0,0,0,0,0,0,-1,1343,1485,0,0
126,-461,0,0,0,0,0,0,0,0,0,-1,1350,1485,0,0
133,-461,0,0,0,0,0,0,0,0,0,-1,1357,1485,0,0
140,-461,0,0,0,0,0,0,0,0,0,-1,1364,1485,0,0
147,-461,0,0,0,0,0,0,0,0,0,-1,1371,1485,0,0
154,-461,0,0,0,0,0,0,0,0,0,-1,1378,1485,0,0
161,-461,0,0,0,0,0,0,0,0,0,-1,1385,1485,0,0
168,-461,0,0,0,0,0,0,0,0,0,-1,1392,1485,0,0
175,-461,0,0,0,0,0,0,0,0,0,-1,1399,1485,0,0
182,-461,0,0,0,0,0,0,0,0,0,-1,1406,1485,0,0
189,-461,0,0,0,0,0,0,0,0,0,-1,1413,1485,0,0
196,-461,0,0,0,0,0,0,0,0,0,-1,1420,1485,0,0
203,-461,0,0,0,0,0,0,0,0,0,-1,1427,1485,0,0
210,-461,0,0,0,0,0,0,0,0,0,-1,1434,1485,0,0
217,-461,0,0,0,0,0,0,0,0,0,-1,1441,1485,0,0
224,-461,0,0,0,0,0,0,0,0,0,-1,1448,1485,0,0
231,-461,0,0,0,0,0,0,0,0,0,-1,1455,1485,0,0
238,-461,0,0,0,0,0,0,0,0,0,-1,1462,1485,0,0
245,-461,0,0,0,0,0,0,0,0,0,-1,1469,1485,0,0
252,-461,0,0,0,0,0,0,0,0,0,-1,1476,1485,0,0
259,-461,0,0,0,0,0,0,0,0,0,-1,1483,1485,0,0
266,-461,0,0,0,0,0,0,0,0,0,-1,1490,1485,0,0
273,-461,0,0,0,0,0,0,0,0,0,-1,1497,1485,0,0
280,-461,0,0,0,0,0,0,0,0,0,-1,1504,1485,0,0
287,-461,0,0,0,0,0,0,0,0,0,-1,1511,1485,0,0
294,-461,0,0,0,0,0,0,0,0,0,-1,1518,1485,0,0
301,-461,0,0,0,0,0,0,0,0,0,-1,1525,1485,0,0
308,-461,0,0,0,0,0,0,0,0,0,-1,1532,1485,0,0
315,-461,0,0,0,0,0,0,0,0,0,-1,1539,1485,0,0
322,-461,0,0,0,0,0,0,0,0,0,-1,1546,1485,0,0
329,-461,0,0,0,0,0,0,0,0,0,-1,1553,1485,0,0
336,-461,0,0,0,0,0,0,0,0,0,-1,1560,1485,0,0
343,-461,0,0,0,0,0,0,0,0,0,-1,1567,1485,0,0
350,-461,0,0,0,0,0,0,0,0,0,-1,1574,1485,0,0
357,-461,0,0,0,0,0,0,0,0,0,-1,1581,1485,0,0
364,-461,0,0,0,0,0,0,0,0,0,-1,1588,1485,0,0
371,-461,0,0,0,0,0,0,0,0,0,-1,1595,1485,0,0
378,-461,0,0,0,0,0,0,0,0,0,-1,1602,1485,0,0
385,-461,0,0,0,0,0,0,0,0,0,-1,1609,1485,0,0
392,-461,0,0,0,0,0,0,0,0,0,-1,1616,1485,0,0
399,-461,0,0,0,0,0,0,0,0,0,-1,1623,1485,0,0
406,-461,0,0,0,0,0,0,0,0,0,-1,1630,1485,0,0
413,-461,0,0,0,0,0,0,0,0,0,-1,1637,1485,0,0
420,-461,0,0,0,0,0,0,0,0,0,-1,1644,1485,0,0
427,-461,0,0,0,0,0,0,0,0,0,-1,1651,1485,0,0
434,-461,0,0,0,0,0,0,0,0,0,-1,1658,1485,0,0
441,-461,0,0,0,0,0,0,0,0,0,-1,1665,1485,0,0
448,-461,0,0,0,0,0,0,0,0,0,-1,1672,1485,0,0
455,-461,0,0,0,0,0,0,0,0,0,-1,1679,1485,0,0
462,-461,0,0,0,0,0,0,0,0,0,-1,1686,1485,0,0
469,-461,0,0,0,0,0,0,0,0,0,-1,1693,1485,0,0
476,-461,14.1906,0.690552,0,0,0,0,0,0,0,-1,1700,1485,14.1906,-0.690525
483,-461,10.6361,3.09106,0,0,0,0,0,0,0,-1,1707,1485,10.6361,-3.091
490,-461,17.9972,0.665894,0,0,0,0,0,0,0,-1,1714,1485,17.9972,-0.665876
497,-461,16.6829,1.87732,0,0,0,0,0,0,0,-1,1721,1485,16.6828,-1.87736
504,-461,15.3884,3.09216,0,0,0,0,0,0,0,-1,1728,1485,15.3885,-3.09212
511,-461,15.4292,14.3512,0,0,0,0,0,0,0,-1,1735,1485,15.4292,-14.3512
518,-461,14.8081,10.0085,0,0,0,0,0,0,0,-1,1742,1485,14.8081,-10.0086
525,-461,14.0022,10.8033,0,0,0,0,0,0,0,-1,1749,1485,14.0022,-10.8033
532,-461,17.1704,14.077,0,0,0,0,0,0,0,-1,1756,1485,17.1704,-14.077
539,-461,17.0229,14.7386,0,0,0,0,0,0,0,-1,1763,1485,17.0229,-14.7387
546,-461,16.2106,14.1372,0,0,0,0,0,0,0,-1,1770,1485,16.2106,-14.1372
553,-461,25.9354,24.2889,0,0,0,0,0,0,0,-1,1777,1485,25.9354,-24.2889
560,-461,33.324,31.9663,0,0,0,0,0,0,0,-1,1784,1485,33.324,-31.9663
567,-461,33.3538,31.0043,0.0105185,0.00470532,-0.00498846,0.0133854,0.00183843,-0.521612,0.00837827,0.0397647,1791,1485,33.3538,-31.0043
574,-461,33.3719,30.2711,0.00817803,0.00337045,-0.00386745,0.0103279,0.00122063,-0.507343,0.00651658,0.0338569,1798,1485,33.3719,-30.2711
581,-461,33.3461,29.4382,0.00633889,0.00248764,-0.00304936,0.00801973,0.000806796,-0.503773,0.00509888,0.0196302,1805,1485,33.346,-29.4382
588,-461,33.2979,28.6559,0.00486764,0.00176399,-0.00235396,0.00613526,0.000496363,-0.493977,0.00393517,0.0116634,1812,1485,33.2978,-28.6559
595,-461,33.2218,27.8479,0.00373548,0.00115551,-0.00174652,0.00461677,0.000274228,-0.467315,0.00299063,0.00890753,1819,1485,33.2218,-27.8478
602,-461,33.1901,26.991,0.00286593,0.000647791,-0.00121274,0.00340027,0.000113457,-0.41501,0.00222999,0.00945176,1826,1485,33.1901,-26.9909
609,-461,33.1484,26.1552,0.00221893,0.000293314,-0.000709489,0.0024521,6.01397e-05,-0.317531,0.00161506,0.0113435,1833,1485,33.1485,-26.1551
616,-461,33.0978,25.3438,0.001709,-4.20089e-05,-0.000195858,0.00173064,-6.36491e-05,-0.110043,0.00117555,0.013533,1840,1485,33.0977,-25.3438
623,-461,33.0925,24.5646,0.00147473,-0.000298355,0.000265599,0.00151366,-0.000337286,0.14554,0.00113832,0.0180947,1847,1485,33.0926,-24.5646
630,-461,33.0411,23.7891,0.0013983,-0.000561508,0.000774571,0.00166747,-0.000830673,0.334447,0.00146903,0.0188574,1854,1485,33.0411,-23.7891
637,-461,32.968,22.9401,0.00146389,-0.000731975,0.00124699,0.00202742,-0.0012955,0.424438,0.00193394,0.0174491,1861,1485,32.9681,-22.9401
644,-461,33.0448,22.1938,0.00160659,-0.000748943,0.0016337,0.0024428,-0.00158515,0.473083,0.00234305,0.0422346,1868,1485,33.0448,-22.1939
651,-461,33.1912,21.3555,0,0,0,0,0,0,0,-1,1875,1485,33.1912,-21.3555
658,-461,16.8987,10.1084,0,0,0,0,0,0,0,-1,1882,1485,16.8986,-10.1084
665,-461,17.2638,9.81384,0,0,0,0,0,0,0,-1,1889,1485,17.2638,-9.81385
672,-461,14.4877,6.89429,0,0,0,0,0,0,0,-1,1896,1485,14.4876,-6.89431
679,-461,10.0535,2.16321,0,0,0,0,0,0,0,-1,1903,1485,10.0535,-2.16317
686,-461,10.8195,1.84192,0,0,0,0,0,0,0,-1,1910,1485,10.8194,-1.84195
693,-461,0,0,0,0,0,0,0,0,0,-1,1917,1485,0,0
700,-461,0,0,0,0,0,0,0,0,0,-1,1924,1485,0,0
707,-461,0,0,0,0,0,0,0,0,0,-1,1931,1485,0,0
714,-461,0,0,0,0,0,0,0,0,0,-1,1938,1485,0,0
721,-461,0,0,0,0,0,0,0,0,0,-1,1945,1485,0,0
728,-461,0,0,0,0,0,0,0,0,0,-1,1952,1485,0,0
735,-461,0,0,0,0,0,0,0,0,0,-1,1959,1485,0,0
742,-461,0,0,0,0,0,0,0,0,0,-1,1966,1485,0,0
749,-461,0,0,0,0,0,0,0,0,0,-1,1973,1485,0,0
756,-461,0,0,0,0,0,0,0,0,0,-1,1980,1485,0,0
763,-461,0,0,0,0,0,0,0,0,0,-1,1987,1485,0,0
770,-461,0,0,0,0,0,0,0,0,0,-1,1994,1485,0,0
777,-461,0,0,0,0,0,0,0,0,0,-1,2001,1485,0,0
784,-461,0,0,0,0,0,0,0,0,0,-1,2008,1485,0,0
791,-461,0,0,0,0,0,0,0,0,0,-1,2015,1485,0,0
798,-461,0,0,0,0,0,0,0,0,0,-1,2022,1485,0,0
805,-461,0,0,0,0,0,0,0,0,0,-1,2029,1485,0,0
812,-461,0,0,0,0,0,0,0,0,0,-1,2036,1485,0,0
-700,-468,0,0,0,0,0,0,0,0,0,-1,524,1492,0,0
-693,-468,0,0,0,0,0,0,0,0,0,-1,531,1492,0,0
-686,-468,0,0,0,0,0,0,0,0,0,-1,538,1492,0,0
-679,-468,0,0,0,0,0,0,0,0,0,-1,545,1492,0,0
-672,-468,0,0,0,0,0,0,0,0,0,-1,552,1492,0,0
-665,-468,0,0,0,0,0,0,0,0,0,-1,559,1492,0,0
-658,-468,0,0,0,0,0,0,0,0,0,-1,566,1492,0,0
-651,-468,0,0,0,0,0,0,0,0,0,-1,573,1492,0,0
-644,-468,0,0,0,0,0,0,0,0,0,-1,580,1492,0,0
-637,-468,0,0,0,0,0,0,0,0,0,-1,587,1492,0,0
-630,-468,0,0,0,0,0,0,0,0,0,-1,594,1492,0,0
-623,-468,0,0,0,0,0,0,0,0,0,-1,601,1492,0,0
-616,-468,0,0,0,0,0,0,0,0,0,-1,608,1492,0,0
-609,-468,0,0,0,0,0,0,0,0,0,-1,615,1492,0,0
-602,-468,0,0,0,0,0,0,0,0,0,-1,622,1492,0,0
-595,-468,0,0,0,0,0,0,0,0,0,-1,629,1492,0,0
-588,-468,0,0,0,0,0,0,0,0,0,-1,636,1492,0,0
-581,-468,0,0,0,0,0,0,0,0,0,-1,643,1492,0,0
-574,-468,0,0,0,0,0,0,0,0,0,-1,650,1492,0,0
-567,-468,-11.2603,1.8042,0,0,0,0,0,0,0,-1,657,1492,-11.2603,-1.80424
-560,-468,-8.77441,2.23694,0,0,0,0,0,0,0,-1,664,1492,-8.77443,-2.23692
-553,-468,-5.94061,9.26318,0,0,0,0,0,0,0,-1,671,1492,-5.94062,-9.26322
-546,-468,-10.47,5.43237,0,0,0,0,0,0,0,-1,678,1492,-10.47,-5.4324
-539,-468,-10.2468,5.45203,0,0,0,0,0,0,0,-1,685,1492,-10.2468,-5.45197
-532,-468,-8.39795,6.02783,0,0,0,0,0,0,0,-1,692,1492,-8.39793,-6.02789
-525,-468,-6.59332,7.15405,0,0,0,0,0,0,0,-1,699,1492,-6.59331,-7.15411
-518,-468,-6.33588,8.65393,0,0,0,0,0,0,0,-1,706,1492,-6.33588,-8.65397
-511,-468,-8.05835,13.8282,0,0,0,0,0,0,0,-1,713,1492,-8.05835,-13.8283
-504,-468,-15.0111,22.6676,0,0,0,0,0,0,0,-1,720,1492,-15.0111,-22.6676
-497,-468,-14.9895,23.7433,0.0032524,0.00550915,0.00490295,0.00941189,-0.000650348,0.8985,0.00650223,0.0356044,727,1492,-14.9895,-23.7433
-490,-468,-14.9847,24.7365,0.00268479,0.00400857,0.00372125,0.00712633,-0.000432976,0.873411,0.00490159,0.00884715,734,1492,-14.9847,-24.7364
-483,-468,-15.0472,25.5642,0.00216383,0.00276832,0.00268702,0.00517003,-0.00023789,0.841404,0.00352866,0.00920739,741,1492,-15.0472,-25.5642
-476,-468,-15.0983,26.4084,0.00185356,0.00201446,0.00200291,0.00393854,-7.05228e-05,0.805471,0.00264951,0.00974466,748,1492,-15.0982,-26.4084
-469,-468,-15.144,27.287,0.00172209,0.00169592,0.00161785,0.00332691,9.11023e-05,0.781354,0.0021882,0.013376,755,1492,-15.144,-27.2869
-462,-468,-15.1293,28.1115,0.00179431,0.00175317,0.00151082,0.0032847,0.000262772,0.778591,0.00210768,0.0245438,762,1492,-15.1293,-28.1114
-455,-468,-15.1855,28.8789,0.00212435,0.00217714,0.00171724,0.00386819,0.000433302,0.793084,0.00244718,0.0288138,769,1492,-15.1856,-28.879
-448,-468,-15.2758,29.7765,0.00283153,0.00320667,0.00240429,0.0054307,0.000607501,0.824327,0.00343591,0.0172645,776,1492,-15.2757,-29.7764
-441,-468,-15.33,30.6177,0.00383298,0.00463926,0.00341488,0.00767472,0.000797525,0.844154,0.00487244,0.0172046,783,1492,-15.33,-30.6177
-434,-468,-15.2743,31.5928,0.00528445,0.0065292,0.00487963,0.010826,0.000987665,0.848829,0.00691167,0.0461058,790,1492,-15.2743,-31.5928
-427,-468,-15.2519,32.6237,0,0,0,0,0,0,0,-1,797,1492,-15.2519,-32.6236
-420,-468,-7.57581,22.0538,0,0,0,0,0,0,0,-1,804,1492,-7.57582,-22.0538
-413,-468,-5.30328,17.3519,0,0,0,0,0,0,0,-1,811,1492,-5.30329,-17.352
-406,-468,-2.2356,9.396,0,0,0,0,0,0,0,-1,818,1492,-2.2356,-9.396
-399,-468,-0.940369,8.1936,0,0,0,0,0,0,0,-1,825,1492,-0.940365,-8.19357
-392,-468,-0.35144,8.14673,0,0,0,0,0,0,0,-1,832,1492,-0.351449,-8.14674
-385,-468,0.465759,5.35864,0,0,0,0,0,0,0,-1,839,1492,0.465732,-5.35864
-378,-468,1.99835,3.25391,0,0,0,0,0,0,0,-1,846,1492,1.99837,-3.2539
-371,-468,-0.31842,3.1532,0,0,0,0,0,0,0,-1,853,1492,-0.318441,-3.15324
-364,-468,-0.966736,2.14563,0,0,0,0,0,0,0,-1,860,1492,-0.966735,-2.14557
-357,-468,-3.06787,3.22742,0,0,0,0,0,0,0,-1,867,1492,-3.06784,-3.2274
-350,-468,-3.18658,4.12659,0,0,0,0,0,0,0,-1,874,1492,-3.18659,-4.12658
-343,-468,0,0,0,0,0,0,0,0,0,-1,881,1492,0,0
-336,-468,0,0,0,0,0,0,0,0,0,-1,888,1492,0,0
-329,-468,0,0,0,0,0,0,0,0,0,-1,895,1492,0,0
-322,-468,0,0,0,0,0,0,0,0,0,-1,902,1492,0,0
-315,-468,0,0,0,0,0,0,0,0,0,-1,909,1492,0,0
-308,-468,0,0,0,0,0,0,0,0,0,-1,916,1492,0,0
-301,-468,0,0,0,0,0,0,0,0,0,-1,923,1492,0,0
-294,-468,0,0,0,0,0,0,0,0,0,-1,930,1492,0,0
-287,-468,0,0,0,0,0,0,0,0,0,-1,937,1492,0,0
-280,-468,0,0,0,0,0,0,0,0,0,-1,944,1492,0,0
-273,-468,0,0,0,0,0,0,0,0,0,-1,951,1492,0,0
-266,-468,0,0,0,0,0,0,0,0,0,-1,958,1492,0,0
-259,-468,0,0,0,0,0,0,0,0,0,-1,965,1492,0,0
-252,-468,0,0,0,0,0,0,0,0,0,-1,972,1492,0,0
-245,-468,0,0,0,0,0,0,0,0,0,-1,979,1492,0,0
-238,-468,0,0,0,0,0,0,0,0,0,-1,986,1492,0,0
-231,-468,0,0,0,0,0,0,0,0,0,-1,993,1492,0,0
-224,-468,0,0,0,0,0,0,0,0,0,-1,1000,1492,0,0
-217,-468,0,0,0,0,0,0,0,0,0,-1,1007,1492,0,0
-210,-468,0,0,0,0,0,0,0,0,0,-1,1014,1492,0,0
-203,-468,0,0,0,0,0,0,0,0,0,-1,1021,1492,0,0
-196,-468,0,0,0,0,0,0,0,0,0,-1,1028,1492,0,0
-189,-468,0,0,0,0,0,0,0,0,0,-1,1035,1492,0,0
-182,-468,0,0,0,0,0,0,0,0,0,-1,1042,1492,0,0
-175,-468,0,0,0,0,0,0,0,0,0,-1,1049,1492,0,0
-168,-468,0,0,0,0,0,0,0,0,0,-1,1056,1492,0,0
-161,-468,0,0,0,0,0,0,0,0,0,-1,1063,1492,0,0
-154,-468,0,0,0,0,0,0,0,0,0,-1,1070,1492,0,0
-147,-468,0,0,0,0,0,0,0,0,0,-1,1077,1492,0,0
-140,-468,0,0,0,0,0,0,0,0,0,-1,1084,1492,0,0
-133,-468,0,0,0,0,0,0,0,0,0,-1,1091,1492,0,0
-126,-468,0,0,0,0,0,0,0,0,0,-1,1098,1492,0,0
-119,-468,0,0,0,0,0,0,0,0,0,-1,1105,1492,0,0
-112,-468,0,0,0,0,0,0,0,0,0,-1,1112,1492,0,0
-105,-468,0,0,0,0,0,0,0,0,0,-1,1119,1492,0,0
-98,-468,0,0,0,0,0,0,0,0,0,-1,1126,1492,0,0
-91,-468,0,0,0,0,0,0,0,0,0,-1,1133,1492,0,0
-84,-468,0,0,0,0,0,0,0,0,0,-1,1140,1492,0,0
-77,-468,0,0,0,0,0,0,0,0,0,-1,1147,1492,0,0
-70,-468,0,0,0,0,0,0,0,0,0,-1,1154,1492,0,0
-63,-468,0,0,0,0,0,0,0,0,0,-1,1161,1492,0,0
-56,-468,0,0,0,0,0,0,0,0,0,-1,1168,1492,0,0
-49,-468,0,0,0,0,0,0,0,0,0,-1,1175,1492,0,0
-42,-468,0,0,0,0,0,0,0,0,0,-1,1182,1492,0,0
-35,-468,0,0,0,0,0,0,0,0,0,-1,1189,1492,0,0
-28,-468,0,0,0,0,0,0,0,0,0,-1,1196,1492,0,0
-21,-468,0,0,0,0,0,0,0,0,0,-1,1203,1492,0,0
-14,-468,0,0,0,0,0,0,0,0,0,-1,1210,1492,0,0
-7,-468,0,0,0,0,0,0,0,0,0,-1,1217,1492,0,0
0,-468,0,0,0,0,0,0,0,0,0,-1,1224,1492,0,0
7,-468,0,0,0,0,0,0,0,0,0,-1,1231,1492,0,0
14,-468,0,0,0,0,0,0,0,0,0,-1,1238,1492,0,0
21,-468,0,0,0,0,0,0,0,0,0,-1,1245,1492,0,0
28,-468,0,0,0,0,0,0,0,0,0,-1,1252,1492,0,0
35,-468,0,0,0,0,0,0,0,0,0,-1,1259,1492,0,0
42,-468,0,0,0,0,0,0,0,0,0,-1,1266,1492,0,0
49,-468,0,0,0,0,0,0,0,0,0,-1,1273,1492,0,0
56,-468,0,0,0,0,0,0,0,0,0,-1,1280,1492,0,0
63,-468,0,0,0,0,0,0,0,0,0,-1,1287,1492,0,0
70,-468,0,0,0,0,0,0,0,0,0,-1,1294,1492,0,0
77,-468,0,0,0,0,0,0,0,0,0,-1,1301,1492,0,0
84,-468,0,0,0,0,0,0,0,0,0,-1,1308,1492,0,0
91,-468,0,0,0,0,0,0,0,0,0,-1,1315,1492,0,0
98,-468,0,0,0,0,0,0,0,0,0,-1,1322,1492,0,0
105,-468,0,0,0,0,0,0,0,0,0,-1,1329,1492,0,0
112,-468,0,0,0,0,0,0,0,0,0,-1,1336,1492,0,0
119,-468,0,0,0,0,0,0,0,0,0,-1,1343,1492,0,0
126,-468,0,0,0,0,0,0,0,0,0,-1,1350,1492,0,0
133,-468,0,0,0,0,0,0,0,0,0,-1,1357,1492,0,0
140,-468,0,0,0,0,0,0,0,0,0,-1,1364,1492,0,0
147,-468,0,0,0,0,0,0,0,0,0,-1,1371,1492,0,0
154,-468,0,0,0,0,0,0,0,0,0,-1,1378,1492,0,0
161,-468,0,0,0,0,0,0,0,0,0,-1,1385,1492,0,0
168,-468,0,0,0,0,0,0,0,0,0,-1,1392,1492,0,0
175,-468,0,0,0,0,0,0,0,0,0,-1,1399,1492,0,0
182,-468,0,0,0,0,0,0,0,0,0,-1,1406,1492,0,0
189,-468,0,0,0,0,0,0,0,0,0,-1,1413,1492,0,0
196,-468,0,0,0,0,0,0,0,0,0,-1,1420,1492,0,0
203,-468,0,0,0,0,0,0,0,0,0,-1,1427,1492,0,0
210,-468,0,0,0,0,0,0,0,0,0,-1,1434,1492,0,0
217,-468,0,0,0,0,0,0,0,0,0,-1,1441,1492,0,0
224,-468,0,0,0,0,0,0,0,0,0,-1,1448,1492,0,0
231,-468,0,0,0,0,0,0,0,0,0,-1,1455,1492,0,0
238,-468,0,0,0,0,0,0,0,0,0,-1,1462,1492,0,0
245,-468,0,0,0,0,0,0,0,0,0,-1,1469,1492,0,0
252,-468,0,0,0,0,0,0,0,0,0,-1,1476,1492,0,0
259,-468,0,0,0,0,0,0,0,0,0,-1,1483,1492,0,0
266,-468,0,0,0,0,0,0,0,0,0,-1,1490,1492,0,0
273,-468,0,0,0,0,0,0,0,0,0,-1,1497,1492,0,0
280,-468,0,0,0,0,0,0,0,0,0,-1,1504,1492,0,0
287,-468,0,0,0,0,0,0,0,0,0,-1,1511,1492,0,0
294,-468,0,0,0,0,0,0,0,0,0,-1,1518,1492,0,0
301,-468,0,0,0,0,0,0,0,0,0,-1,1525,1492,0,0
308,-468,0,0,0,0,0,0,0,0,0,-1,1532,1492,0,0
315,-468,0,0,0,0,0,0,0,0,0,-1,1539,1492,0,0
322,-468,0,0,0,0,0,0,0,0,0,-1,1546,1492,0,0
329,-468,0,0,0,0,0,0,0,0,0,-1,1553,1492,0,0
336,-468,0,0,0,0,0,0,0,0,0,-1,1560,1492,0,0
343,-468,0,0,0,0,0,0,0,0,0,-1,1567,1492,0,0
350,-468,0,0,0,0,0,0,0,0,0,-1,1574,1492,0,0
357,-468,0,0,0,0,0,0,0,0,0,-1,1581,1492,0,0
364,-468,0,0,0,0,0,0,0,0,0,-1,1588,1492,0,0
371,-468,0,0,0,0,0,0,0,0,0,-1,1595,1492,0,0
378,-468,0,0,0,0,0,0,0,0,0,-1,1602,1492,0,0
385,-468,0,0,0,0,0,0,0,0,0,-1,1609,1492,0,0
392,-468,0,0,0,0,0,0,0,0,0,-1,1616,1492,0,0
399,-468,0,0,0,0,0,0,0,0,0,-1,1623,1492,0,0
406,-468,0,0,0,0,0,0,0,0,0,-1,1630,1492,0,0
413,-468,0,0,0,0,0,0,0,0,0,-1,1637,1492,0,0
420,-468,0,0,0,0,0,0,0,0,0,-1,1644,1492,0,0
427,-468,0,0,0,0,0,0,0,0,0,-1,1651,1492,0,0
434,-468,0,0,0,0,0,0,0,0,0,-1,1658,1492,0,0
441,-468,0,0,0,0,0,0,0,0,0,-1,1665,1492,0,0
448,-468,0,0,0,0,0,0,0,0,0,-1,1672,1492,0,0
455,-468,0,0,0,0,0,0,0,0,0,-1,1679,1492,0,0
462,-468,0,0,0,0,0,0,0,0,0,-1,1686,1492,0,0
469,-468,15.6879,1.2677,0,0,0,0,0,0,0,-1,1693,1492,15.6879,-1.26772
476,-468,14.9318,1.61865,0,0,0,0,0,0,0,-1,1700,1492,14.9318,-1.61869
483,-468,11.265,4.64795,0,0,0,0,0,0,0,-1,1707,1492,11.265,-4.64798
490,-468,12.1316,3.51624,0,0,0,0,0,0,0,-1,1714,1492,12.1316,-3.51628
497,-468,16.5355,3.14587,0,0,0,0,0,0,0,-1,1721,1492,16.5356,-3.14583
504,-468,15.0642,4.10437,0,0,0,0,0,0,0,-1,1728,1492,15.0643,-4.10431
511,-468,15.6877,9.4801,0,0,0,0,0,0,0,-1,1735,1492,15.6878,-9.48007
518,-468,13.759,11.0887,0,0,0,0,0,0,0,-1,1742,1492,13.759,-11.0887
525,-468,16.6531,14.2238,0,0,0,0,0,0,0,-1,1749,1492,16.653,-14.2237
532,-468,16.9696,15.9641,0,0,0,0,0,0,0,-1,1756,1492,16.9696,-15.9641
539,-468,21.5308,20.7551,0,0,0,0,0,0,0,-1,1763,1492,21.5308,-20.7551
546,-468,25.5796,25.0283,0,0,0,0,0,0,0,-1,1770,1492,25.5796,-25.0284
553,-468,31.8678,31.5677,0,0,0,0,0,0,0,-1,1777,1492,31.8678,-31.5678
560,-468,32.3376,32.1498,0,0,0,0,0,0,0,-1,1784,1492,32.3376,-32.1497
567,-468,32.5405,31.1545,0.00901617,0.0045409,-0.00443496,0.011746,0.00181105,-0.55176,0.00730225,0.0279717,1791,1492,32.5405,-31.1545
574,-468,32.5657,30.2865,0.00703515,0.00319173,-0.00339001,0.00901025,0.00121663,-0.527546,0.00564516,0.0174541,1798,1492,32.5657,-30.2865
581,-468,32.5416,29.4973,0.00543156,0.00226463,-0.00260975,0.00690066,0.000795533,-0.512714,0.00435953,0.017834,1805,1492,32.5417,-29.4973
588,-468,32.4784,28.7141,0.00418319,0.00152132,-0.00198616,0.00524312,0.00046139,-0.490209,0.00335222,0.0134793,1812,1492,32.4784,-28.7142
595,-468,32.4148,27.9006,0.00325212,0.000916099,-0.00142473,0.00392641,0.000241803,-0.442045,0.00254085,0.0105768,1819,1492,32.4148,-27.9006
602,-468,32.3696,27.0549,0.00252177,0.000432207,-0.00095127,0.00288996,6.40188e-05,-0.369292,0.00190566,0.00929811,1826,1492,32.3696,-27.0549
609,-468,32.3079,26.2197,0.00197219,9.73285e-05,-0.000482428,0.00208905,-1.95238e-05,-0.23764,0.00139925,0.0101985,1833,1492,32.3078,-26.2198
616,-468,32.2516,25.3877,0.00155571,-0.000208018,1.9896e-05,0.00155593,-0.000208243,0.0112788,0.00111321,0.0103429,1840,1492,32.2516,-25.3877
623,-468,32.2264,24.6001,0.00136225,-0.000508105,0.000558732,0.00151645,-0.000662302,0.269275,0.00128972,0.0116108,1847,1492,32.2264,-24.6001
630,-468,32.2247,23.787,0.00126003,-0.000803307,0.00121312,0.00182084,-0.00136412,0.433026,0.00184513,0.0128212,1854,1492,32.2248,-23.787
637,-468,32.2184,22.9219,0.00125276,-0.00103558,0.00190351,0.00232951,-0.00211232,0.51479,0.00256551,0.0246478,1861,1492,32.2183,-22.9219
644,-468,32.0652,22.2396,0.00121086,-0.0011587,0.00263012,0.00291073,-0.00285858,0.573777,0.00333096,0.0424888,1868,1492,32.0651,-22.2397
651,-468,32.0592,21.4069,0,0,0,0,0,0,0,-1,1875,1492,32.0591,-21.4068
658,-468,16.4969,10.0774,0,0,0,0,0,0,0,-1,1882,1492,16.497,-10.0774
665,-468,15.4673,8.59546,0,0,0,0,0,0,0,-1,1889,1492,15.4672,-8.59548
672,-468,9.96814,3.61133,0,0,0,0,0,0,0,-1,1896,1492,9.96817,-3.61139
679,-468,11.2191,1.91968,0,0,0,0,0,0,0,-1,1903,1492,11.2191,-1.91965
686,-468,11.9252,1.42285,0,0,0,0,0,0,0,-1,1910,1492,11.9252,-1.42291
693,-468,0,0,0,0,0,0,0,0,0,-1,1917,1492,0,0
700,-468,0,0,0,0,0,0,0,0,0,-1,1924,1492,0,0
707,-468,0,0,0,0,0,0,0,0,0,-1,1931,1492,0,0
714,-468,0,0,0,0,0,0,0,0,0,-1,1938,1492,0,0
721,-468,0,0,0,0,0,0,0,0,0,-1,1945,1492,0,0
728,-468,0,0,0,0,0,0,0,0,0,-1,1952,1492,0,0
735,-468,0,0,0,0,0,0,0,0,0,-1,1959,1492,0,0
742,-468,0,0,0,0,0,0,0,0,0,-1,1966,1492,0,0
749,-468,0,0,0,0,0,0,0,0,0,-1,1973,1492,0,0
756,-468,0,0,0,0,0,0,0,0,0,-1,1980,1492,0,0
763,-468,0,0,0,0,0,0,0,0,0,-1,1987,1492,0,0
770,-468,0,0,0,0,0,0,0,0,0,-1,1994,1492,0,0
777,-468,0,0,0,0,0,0,0,0,0,-1,2001,1492,0,0
784,-468,0,0,0,0,0,0,0,0,0,-1,2008,1492,0,0
791,-468,0,0,0,0,0,0,0,0,0,-1,2015,1492,0,0
798,-468,0,0,0,0,0,0,0,0,0,-1,2022,1492,0,0
805,-468,0,0,0,0,0,0,0,0,0,-1,2029,1492,0,0
812,-468,0,0,0,0,0,0,0,0,0,-1,2036,1492,0,0
-700,-475,0,0,0,0,0,0,0,0,0,-1,524,1499,0,0
-693,-475,0,0,0,0,0,0,0,0,0,-1,531,1499,0,0
-686,-475,0,0,0,0,0,0,0,0,0,-1,538,1499,0,0
-679,-475,0,0,0,0,0,0,0,0,0,-1,545,1499,0,0
-672,-475,0,0,0,0,0,0,0,0,0,-1,552,1499,0,0
-665,-475,0,0,0,0,0,0,0,0,0,-1,559,1499,0,0
-658,-475,0,0,0,0,0,0,0,0,0,-1,566,1499,0,0
-651,-475,0,0,0,0,0,0,0,0,0,-1,573,1499,0,0
-644,-475,0,0,0,0,0,0,0,0,0,-1,580,1499,0,0
-637,-475,0,0,0,0,0,0,0,0,0,-1,587,1499,0,0
-630,-475,0,0,0,0,0,0,0,0,0,-1,594,1499,0,0
-623,-475,0,0,0,0,0,0,0,0,0,-1,601,1499,0,0
-616,-475,0,0,0,0,0,0,0,0,0,-1,608,1499,0,0
-609,-475,0,0,0,0,0,0,0,0,0,-1,615,1499,0,0
-602,-475,0,0,0,0,0,0,0,0,0,-1,622,1499,0,0
-595,-475,0,0,0,0,0,0,0,0,0,-1,629,1499,0,0
-588,-475,0,0,0,0,0,0,0,0,0,-1,636,1499,0,0
-581,-475,0,0,0,0,0,0,0,0,0,-1,643,1499,0,0
-574,-475,0,0,0,0,0,0,0,0,0,-1,650,1499,0,0
-567,-475,0,0,0,0,0,0,0,0,0,-1,657,1499,0,0
-560,-475,-9.42731,9.29517,0,0,0,0,0,0,0,-1,664,1499,-9.42731,-9.29519
-553,-475,-8.15131,8.78369,0,0,0,0,0,0,0,-1,671,1499,-8.15131,-8.78367
-546,-475,-8.41254,8.20654,0,0,0,0,0,0,0,-1,678,1499,-8.41251,-8.20655
-539,-475,-4.7345,4.17419,0,0,0,0,0,0,0,-1,685,1499,-4.73449,-4.17418
-532,-475,-7.07379,4.25024,0,0,0,0,0,0,0,-1,692,1499,-7.07378,-4.2503
-525,-475,-6.13147,5.82166,0,0,0,0,0,0,0,-1,699,1499,-6.1315,-5.8216
-518,-475,-7.28784,9.31506,0,0,0,0,0,0,0,-1,706,1499,-7.28782,-9.315
-511,-475,-6.84851,12.4244,0,0,0,0,0,0,0,-1,713,1499,-6.84851,-12.4244
-504,-475,-8.80957,16.0863,0,0,0,0,0,0,0,-1,720,1499,-8.80954,-16.0862
-497,-475,-14.3271,23.6138,0,0,0,0,0,0,0,-1,727,1499,-14.3271,-23.6138
-490,-475,-14.1716,24.7308,0.00334241,0.00483514,0.00459263,0.00874166,-0.000564112,0.865951,0.00602462,0.0218704,734,1499,-14.1716,-24.7309
-483,-475,-14.1874,25.6527,0.00262727,0.00325591,0.00328174,0.00623835,-0.000355174,0.833142,0.0042822,0.00998367,741,1499,-14.1874,-25.6527
-476,-475,-14.243,26.4703,0.00216539,0.00226151,0.00237627,0.0045902,-0.000163306,0.79551,0.003116,0.0117371,748,1499,-14.243,-26.4703
-469,-475,-14.2995,27.3331,0.00190845,0.00177398,0.00185189,0.00369433,-1.18986e-05,0.767254,0.00246686,0.0149959,755,1499,-14.2995,-27.3331
-462,-475,-14.2803,28.1753,0.00184278,0.00169761,0.00161502,0.00338684,0.000153551,0.762941,0.00220849,0.021049,762,1499,-14.2803,-28.1752
-455,-475,-14.3331,28.9985,0.00203262,0.00198863,0.00168863,0.0036994,0.000321849,0.778886,0.00236629,0.0191889,769,1499,-14.3331,-28.9985
-448,-475,-14.4401,29.832,0.00259937,0.00286418,0.00222821,0.00496392,0.000499637,0.815074,0.00315594,0.0164744,776,1499,-14.4401,-29.8321
-441,-475,-14.4984,30.6417,0.00339676,0.00407413,0.00303876,0.00679302,0.00067787,0.840896,0.00432049,0.0171463,783,1499,-14.4983,-30.6417
-434,-475,-14.5129,31.4858,0.00454089,0.0057132,0.00424423,0.00941156,0.000842536,0.854017,0.00601324,0.0132849,790,1499,-14.5129,-31.4859
-427,-475,-14.4394,32.4872,0.00621734,0.0080949,0.00603819,0.0132668,0.00104539,0.862518,0.00851751,0.0492219,797,1499,-14.4394,-32.4871
-420,-475,-14.302,33.4558,0,0,0,0,0,0,0,-1,804,1499,-14.302,-33.4559
-413,-475,-6.46777,20.8481,0,0,0,0,0,0,0,-1,811,1499,-6.46776,-20.8481
-406,-475,-2.56116,12.4956,0,0,0,0,0,0,0,-1,818,1499,-2.56116,-12.4956
-399,-475,-1.39667,6.1615,0,0,0,0,0,0,0,-1,825,1499,-1.39664,-6.16155
-392,-475,0.217163,8.61389,0,0,0,0,0,0,0,-1,832,1499,0.217167,-8.6139
-385,-475,1.18372,2.73999,0,0,0,0,0,0,0,-1,839,1499,1.18372,-2.73995
-378,-475,1.31409,2.90149,0,0,0,0,0,0,0,-1,846,1499,1.31411,-2.90151
-371,-475,2.3476,3.31116,0,0,0,0,0,0,0,-1,853,1499,2.34761,-3.31121
-364,-475,1.04462,9.05823,0,0,0,0,0,0,0,-1,860,1499,1.04461,-9.05825
-357,-475,-0.262756,7.97205,0,0,0,0,0,0,0,-1,867,1499,-0.262784,-7.97205
-350,-475,-5.16473,-1.27881,0,0,0,0,0,0,0,-1,874,1499,-5.16474,1.27884
-343,-475,-5.76923,-0.530518,0,0,0,0,0,0,0,-1,881,1499,-5.76923,0.530526
-336,-475,0,0,0,0,0,0,0,0,0,-1,888,1499,0,0
-329,-475,0,0,0,0,0,0,0,0,0,-1,895,1499,0,0
-322,-475,0,0,0,0,0,0,0,0,0,-1,902,1499,0,0
-315,-475,0,0,0,0,0,0,0,0,0,-1,909,1499,0,0
-308,-475,0,0,0,0,0,0,0,0,0,-1,916,1499,0,0
-301,-475,0,0,0,0,0,0,0,0,0,-1,923,1499,0,0
-294,-475,0,0,0,0,0,0,0,0,0,-1,930,1499,0,0
-287,-475,0,0,0,0,0,0,0,0,0,-1,937,1499,0,0
-280,-475,0,0,0,0,0,0,0,0,0,-1,944,1499,0,0
-273,-475,0,0,0,0,0,0,0,0,0,-1,951,1499,0,0
-266,-475,0,0,0,0,0,0,0,0,0,-1,958,1499,0,0
-259,-475,0,0,0,0,0,0,0,0,0,-1,965,1499,0,0
-252,-475,0,0,0,0,0,0,0,0,0,-1,972,1499,0,0
-245,-475,0,0,0,0,0,0,0,0,0,-1,979,1499,0,0
-238,-475,0,0,0,0,0,0,0,0,0,-1,986,1499,0,0
-231,-475,0,0,0,0,0,0,0,0,0,-1,993,1499,0,0
-224,-475,0,0,0,0,0,0,0,0,0,-1,1000,1499,0,0
-217,-475,0,0,0,0,0,0,0,0,0,-1,1007,1499,0,0
-210,-475,0,0,0,0,0,0,0,0,0,-1,1014,1499,0,0
-203,-475,0,0,0,0,0,0,0,0,0,-1,1021,1499,0,0
-196,-475,0,0,0,0,0,0,0,0,0,-1,1028,1499,0,0
-189,-475,0,0,0,0,0,0,0,0,0,-1,1035,1499,0,0
-182,-475,0,0,0,0,0,0,0,0,0,-1,1042,1499,0,0
-175,-475,0,0,0,0,0,0,0,0,0,-1,1049,1499,0,0
-168,-475,0,0,0,0,0,0,0,0,0,-1,1056,1499,0,0
-161,-475,0,0,0,0,0,0,0,0,0,-1,1063,1499,0,0
-154,-475,0,0,0,0,0,0,0,0,0,-1,1070,1499,0,0
-147,-475,0,0,0,0,0,0,0,0,0,-1,1077,1499,0,0
-140,-475,0,0,0,0,0,0,0,0,0,-1,1084,1499,0,0
-133,-475,0,0,0,0,0,0,0,0,0,-1,1091,1499,0,0
-126,-475,0,0,0,0,0,0,0,0,0,-1,1098,1499,0,0
-119,-475,0,0,0,0,0,0,0,0,0,-1,1105,1499,0,0
-112,-475,0,0,0,0,0,0,0,0,0,-1,1112,1499,0,0
-105,-475,0,0,0,0,0,0,0,0,0,-1,1119,1499,0,0
-98,-475,0,0,0,0,0,0,0,0,0,-1,1126,1499,0,0
-91,-475,0,0,0,0,0,0,0,0,0,-1,1133,1499,0,0
-84,-475,0,0,0,0,0,0,0,0,0,-1,1140,1499,0,0
-77,-475,0,0,0,0,0,0,0,0,0,-1,1147,1499,0,0
-70,-475,0,0,0,0,0,0,0,0,0,-1,1154,1499,0,0
-63,-475,0,0,0,0,0,0,0,0,0,-1,1161,1499,0,0
-56,-475,0,0,0,0,0,0,0,0,0,-1,1168,1499,0,0
-49,-475,0,0,0,0,0,0,0,0,0,-1,1175,1499,0,0
-42,-475,0,0,0,0,0,0,0,0,0,-1,1182,1499,0,0
-35,-475,0,0,0,0,0,0,0,0,0,-1,1189,1499,0,0
-28,-475,0,0,0,0,0,0,0,0,0,-1,1196,1499,0,0
-21,-475,0,0,0,0,0,0,0,0,0,-1,1203,1499,0,0
-14,-475,0,0,0,0,0,0,0,0,0,-1,1210,1499,0,0
-7,-475,0,0,0,0,0,0,0,0,0,-1,1217,1499,0,0
0,-475,0,0,0,0,0,0,0,0,0,-1,1224,1499,0,0
7,-475,0,0,0,0,0,0,0,0,0,-1,1231,1499,0,0
14,-475,0,0,0,0,0,0,0,0,0,-1,1238,1499,0,0
21,-475,0,0,0,0,0,0,0,0,0,-1,1245,1499,0,0
28,-475,0,0,0,0,0,0,0,0,0,-1,1252,1499,0,0
35,-475,0,0,0,0,0,0,0,0,0,-1,1259,1499,0,0
42,-475,0,0,0,0,0,0,0,0,0,-1,1266,1499,0,0
49,-475,0,0,0,0,0,0,0,0,0,-1,1273,1499,0,0
56,-475,0,0,0,0,0,0,0,0,0,-1,1280,1499,0,0
63,-475,0,0,0,0,0,0,0,0,0,-1,1287,1499,0,0
70,-475,0,0,0,0,0,0,0,0,0,-1,1294,1499,0,0
77,-475,0,0,0,0,0,0,0,0,0,-1,1301,1499,0,0
84,-475,0,0,0,0,0,0,0,0,0,-1,1308,1499,0,0
91,-475,0,0,0,0,0,0,0,0,0,-1,1315,1499,0,0
98,-475,0,0,0,0,0,0,0,0,0,-1,1322,1499,0,0
105,-475,0,0,0,0,0,0,0,0,0,-1,1329,1499,0,0
112,-475,0,0,0,0,0,0,0,0,0,-1,1336,1499,0,0
119,-475,0,0,0,0,0,0,0,0,0,-1,1343,1499,0,0
126,-475,0,0,0,0,0,0,0,0,0,-1,1350,1499,0,0
133,-475,0,0,0,0,0,0,0,0,0,-1,1357,1499,0,0
140,-475,0,0,0,0,0,0,0,0,0,-1,1364,1499,0,0
147,-475,0,0,0,0,0,0,0,0,0,-1,1371,1499,0,0
154,-475,0,0,0,0,0,0,0,0,0,-1,1378,1499,0,0
161,-475,0,0,0,0,0,0,0,0,0,-1,1385,1499,0,0
168,-475,0,0,0,0,0,0,0,0,0,-1,1392,1499,0,0
175,-475,0,0,0,0,0,0,0,0,0,-1,1399,1499,0,0
182,-475,0,0,0,0,0,0,0,0,0,-1,1406,1499,0,0
189,-475,0,0,0,0,0,0,0,0,0,-1,1413,1499,0,0
196,-475,0,0,0,0,0,0,0,0,0,-1,1420,1499,0,0
203,-475,0,0,0,0,0,0,0,0,0,-1,1427,1499,0,0
210,-475,0,0,0,0,0,0,0,0,0,-1,1434,1499,0,0
217,-475,0,0,0,0,0,0,0,0,0,-1,1441,1499,0,0
224,-475,0,0,0,0,0,0,0,0,0,-1,1448,1499,0,0
231,-475,0,0,0,0,0,0,0,0,0,-1,1455,1499,0,0
238,-475,0,0,0,0,0,0,0,0,0,-1,1462,1499,0,0
245,-475,0,0,0,0,0,0,0,0,0,-1,1469,1499,0,0
252,-475,0,0,0,0,0,0,0,0,0,-1,1476,1499,0,0
259,-475,0,0,0,0,0,0,0,0,0,-1,1483,1499,0,0
266,-475,0,0,0,0,0,0,0,0,0,-1,1490,1499,0,0
273,-475,0,0,0,0,0,0,0,0,0,-1,1497,1499,0,0
280,-475,0,0,0,0,0,0,0,0,0,-1,1504,1499,0,0
287,-475,0,0,0,0,0,0,0,0,0,-1,1511,1499,0,0
294,-475,0,0,0,0,0,0,0,0,0,-1,1518,1499,0,0
301,-475,0,0,0,0,0,0,0,0,0,-1,1525,1499,0,0
308,-475,0,0,0,0,0,0,0,0,0,-1,1532,1499,0,0
315,-475,0,0,0,0,0,0,0,0,0,-1,1539,1499,0,0
322,-475,0,0,0,0,0,0,0,0,0,-1,1546,1499,0,0
329,-475,0,0,0,0,0,0,0,0,0,-1,1553,1499,0,0
336,-475,0,0,0,0,0,0,0,0,0,-1,1560,1499,0,0
343,-475,0,0,0,0,0,0,0,0,0,-1,1567,1499,0,0
350,-475,0,0,0,0,0,0,0,0,0,-1,1574,1499,0,0
357,-475,0,0,0,0,0,0,0,0,0,-1,1581,1499,0,0
364,-475,0,0,0,0,0,0,0,0,0,-1,1588,1499,0,0
371,-475,0,0,0,0,0,0,0,0,0,-1,1595,1499,0,0
378,-475,0,0,0,0,0,0,0,0,0,-1,1602,1499,0,0
385,-475,0,0,0,0,0,0,0,0,0,-1,1609,1499,0,0
392,-475,0,0,0,0,0,0,0,0,0,-1,1616,1499,0,0
399,-475,0,0,0,0,0,0,0,0,0,-1,1623,1499,0,0
406,-475,0,0,0,0,0,0,0,0,0,-1,1630,1499,0,0
413,-475,0,0,0,0,0,0,0,0,0,-1,1637,1499,0,0
420,-475,0,0,0,0,0,0,0,0,0,-1,1644,1499,0,0
427,-475,0,0,0,0,0,0,0,0,0,-1,1651,1499,0,0
434,-475,0,0,0,0,0,0,0,0,0,-1,1658,1499,0,0
441,-475,0,0,0,0,0,0,0,0,0,-1,1665,1499,0,0
448,-475,0,0,0,0,0,0,0,0,0,-1,1672,1499,0,0
455,-475,0,0,0,0,0,0,0,0,0,-1,1679,1499,0,0
462,-475,12.6372,0.275391,0,0,0,0,0,0,0,-1,1686,1499,12.6372,-0.27536
469,-475,15.6437,2.28296,0,0,0,0,0,0,0,-1,1693,1499,15.6437,-2.28293
476,-475,15.3302,2.71436,0,0,0,0,0,0,0,-1,1700,1499,15.3303,-2.7143
483,-475,10.7461,5.91479,0,0,0,0,0,0,0,-1,1707,1499,10.7461,-5.91476
490,-475,11.9305,4.4364,0,0,0,0,0,0,0,-1,1714,1499,11.9305,-4.43644
497,-475,15.3451,4.3479,0,0,0,0,0,0,0,-1,1721,1499,15.3451,-4.34789
504,-475,16.9646,7.71265,0,0,0,0,0,0,0,-1,1728,1499,16.9646,-7.71265
511,-475,18.941,12.7572,0,0,0,0,0,0,0,-1,1735,1499,18.941,-12.7572
518,-475,17.0021,13.8564,0,0,0,0,0,0,0,-1,1742,1499,17.0021,-13.8564
525,-475,17.5637,15.2103,0,0,0,0,0,0,0,-1,1749,1499,17.5637,-15.2103
532,-475,20.8623,20.8413,0,0,0,0,0,0,0,-1,1756,1499,20.8623,-20.8413
539,-475,20.5494,20.8519,0,0,0,0,0,0,0,-1,1763,1499,20.5494,-20.852
546,-475,20.4524,19.8799,0,0,0,0,0,0,0,-1,1770,1499,20.4524,-19.8798
553,-475,31.4563,33.0769,0,0,0,0,0,0,0,-1,1777,1499,31.4563,-33.077
560,-475,31.5933,32.1482,0.00947786,0.00568621,-0.00518795,0.0131055,0.00205854,-0.610222,0.0081381,0.0384632,1784,1499,31.5933,-32.1482
567,-475,31.8074,31.1521,0.00755619,0.00409287,-0.00390728,0.0100983,0.00155072,-0.57681,0.00627947,0.0167006,1791,1499,31.8073,-31.152
574,-475,31.7477,30.3229,0.00596516,0.00288284,-0.00297981,0.00777876,0.00106923,-0.546742,0.00486873,0.0149159,1798,1499,31.7477,-30.3229
581,-475,31.7069,29.5492,0.00464169,0.00201165,-0.00226352,0.00594446,0.000708886,-0.522245,0.00374908,0.0126011,1805,1499,31.7069,-29.5491
588,-475,31.6504,28.7523,0.00361592,0.00131882,-0.00171412,0.00453071,0.000404034,-0.490227,0.00289521,0.0108075,1812,1499,31.6504,-28.7523
595,-475,31.5947,27.9364,0.00286298,0.000763606,-0.00120581,0.00341199,0.000214599,-0.427254,0.00220661,0.0114632,1819,1499,31.5947,-27.9364
602,-475,31.5381,27.1023,0.00226571,0.000336375,-0.000795754,0.00255157,5.05192e-05,-0.34487,0.00168446,0.0132606,1826,1499,31.5381,-27.1023
609,-475,31.4899,26.2882,0.00180724,3.49107e-05,-0.000363592,0.00187893,-3.67799e-05,-0.194676,0.00126506,0.0130679,1833,1499,31.4899,-26.2882
616,-475,31.4243,25.4832,0.00150123,-0.000231663,0.000116329,0.00150901,-0.000239437,0.066731,0.00109458,0.0122062,1840,1499,31.4243,-25.4832
623,-475,31.4036,24.6254,0.00136883,-0.000588347,0.000721641,0.00160614,-0.000825653,0.317704,0.0014279,0.0116834,1847,1499,31.4036,-24.6254
630,-475,31.3712,23.797,0.00122709,-0.000933876,0.00153337,0.00202242,-0.00172921,0.47848,0.0021682,0.0193714,1854,1499,31.3712,-23.797
637,-475,31.3348,23.0364,0.00112777,-0.00125836,0.00247194,0.0026795,-0.00281009,0.560565,0.00316971,0.0363922,1861,1499,31.3349,-23.0364
644,-475,31.2245,22.1481,0,0,0,0,0,0,0,-1,1868,1499,31.2245,-22.1481
651,-475,29.886,19.2421,0,0,0,0,0,0,0,-1,1875,1499,29.886,-19.242
658,-475,14.6708,8.80322,0,0,0,0,0,0,0,-1,1882,1499,14.6708,-8.8032
665,-475,9.33435,5.43335,0,0,0,0,0,0,0,-1,1889,1499,9.33439,-5.43332
672,-475,9.38635,1.10474,0,0,0,0,0,0,0,-1,1896,1499,9.38629,-1.10475
679,-475,12.2594,1.31079,0,0,0,0,0,0,0,-1,1903,1499,12.2594,-1.31077
686,-475,0,0,0,0,0,0,0,0,0,-1,1910,1499,0,0
693,-475,0,0,0,0,0,0,0,0,0,-1,1917,1499,0,0
700,-475,0,0,0,0,0,0,0,0,0,-1,1924,1499,0,0
707,-475,0,0,0,0,0,0,0,0,0,-1,1931,1499,0,0
714,-475,0,0,0,0,0,0,0,0,0,-1,1938,1499,0,0
721,-475,0,0,0,0,0,0,0,0,0,-1,1945,1499,0,0
728,-475,0,0,0,0,0,0,0,0,0,-1,1952,1499,0,0
735,-475,0,0,0,0,0,0,0,0,0,-1,1959,1499,0,0
742,-475,0,0,0,0,0,0,0,0,0,-1,1966,1499,0,0
749,-475,0,0,0,0,0,0,0,0,0,-1,1973,1499,0,0
756,-475,0,0,0,0,0,0,0,0,0,-1,1980,1499,0,0
763,-475,0,0,0,0,0,0,0,0,0,-1,1987,1499,0,0
770,-475,0,0,0,0,0,0,0,0,0,-1,1994,1499,0,0
777,-475,0,0,0,0,0,0,0,0,0,-1,2001,1499,0,0
784,-475,0,0,0,0,0,0,0,0,0,-1,2008,1499,0,0
791,-475,0,0,0,0,0,0,0,0,0,-1,2015,1499,0,0
798,-475,0,0,0,0,0,0,0,0,0,-1,2022,1499,0,0
805,-475,0,0,0,0,0,0,0,0,0,-1,2029,1499,0,0
812,-475,0,0,0,0,0,0,0,0,0,-1,2036,1499,0,0
-700,-482,0,0,0,0,0,0,0,0,0,-1,524,1506,0,0
-693,-482,0,0,0,0,0,0,0,0,0,-1,531,1506,0,0
-686,-482,0,0,0,0,0,0,0,0,0,-1,538,1506,0,0
-679,-482,0,0,0,0,0,0,0,0,0,-1,545,1506,0,0
-672,-482,0,0,0,0,0,0,0,0,0,-1,552,1506,0,0
-665,-482,0,0,0,0,0,0,0,0,0,-1,559,1506,0,0
-658,-482,0,0,0,0,0,0,0,0,0,-1,566,1506,0,0
-651,-482,0,0,0,0,0,0,0,0,0,-1,573,1506,0,0
-644,-482,0,0,0,0,0,0,0,0,0,-1,580,1506,0,0
-637,-482,0,0,0,0,0,0,0,0,0,-1,587,1506,0,0
-630,-482,0,0,0,0,0,0,0,0,0,-1,594,1506,0,0
-623,-482,0,0,0,0,0,0,0,0,0,-1,601,1506,0,0
-616,-482,0,0,0,0,0,0,0,0,0,-1,608,1506,0,0
-609,-482,0,0,0,0,0,0,0,0,0,-1,615,1506,0,0
-602,-482,0,0,0,0,0,0,0,0,0,-1,622,1506,0,0
-595,-482,0,0,0,0,0,0,0,0,0,-1,629,1506,0,0
-588,-482,0,0,0,0,0,0,0,0,0,-1,636,1506,0,0
-581,-482,0,0,0,0,0,0,0,0,0,-1,643,1506,0,0
-574,-482,0,0,0,0,0,0,0,0,0,-1,650,1506,0,0
-567,-482,0,0,0,0,0,0,0,0,0,-1,657,1506,0,0
-560,-482,0,0,0,0,0,0,0,0,0,-1,664,1506,0,0
-553,-482,-9.06055,9.34314,0,0,0,0,0,0,0,-1,671,1506,-9.06056,-9.34312
-546,-482,-4.08624,8.34241,0,0,0,0,0,0,0,-1,678,1506,-4.08624,-8.3424
-539,-482,-4.29877,2.73499,0,0,0,0,0,0,0,-1,685,1506,-4.29879,-2.73494
-532,-482,-3.63611,4.23987,0,0,0,0,0,0,0,-1,692,1506,-3.63609,-4.23983
-525,-482,-6.19116,5.24927,0,0,0,0,0,0,0,-1,699,1506,-6.19117,-5.24927
-518,-482,-5.92957,6.39807,0,0,0,0,0,0,0,-1,706,1506,-5.92958,-6.39806
-511,-482,-7.74634,11.9137,0,0,0,0,0,0,0,-1,713,1506,-7.74633,-11.9137
-504,-482,-6.42358,13.4211,0,0,0,0,0,0,0,-1,720,1506,-6.42356,-13.4212
-497,-482,-8.86163,17.7108,0,0,0,0,0,0,0,-1,727,1506,-8.86163,-17.7109
-490,-482,-13.3795,24.7952,0,0,0,0,0,0,0,-1,734,1506,-13.3794,-24.7952
-483,-482,-13.3582,25.6592,0.00298109,0.00372339,0.00384062,0.00721075,-0.000506274,0.833568,0.0049845,0.0134694,741,1506,-13.3582,-25.6592
-476,-482,-13.3925,26.5247,0.00235586,0.00250439,0.00271471,0.00514586,-0.000285602,0.799073,0.00352963,0.011416,748,1506,-13.3924,-26.5246
-469,-482,-13.4655,27.4008,0.00199434,0.00185614,0.00207048,0.00399687,-0.000146395,0.768717,0.00271469,0.0141089,755,1506,-13.4655,-27.4007
-462,-482,-13.5027,28.2289,0.00182296,0.00165702,0.00171942,0.00346141,1.85726e-05,0.761289,0.00230144,0.0147576,762,1506,-13.5027,-28.2289
-455,-482,-13.5315,29.0377,0.00191326,0.00182446,0.00167717,0.00354662,0.000191101,0.772163,0.00230336,0.0140202,769,1506,-13.5315,-29.0377
-448,-482,-13.587,29.8945,0.00238796,0.00253357,0.00207642,0.00453846,0.00038307,0.802921,0.00290638,0.0147875,776,1506,-13.587,-29.8945
-441,-482,-13.6429,30.7061,0.00307269,0.00352557,0.00271313,0.0060217,0.000576568,0.827032,0.00383674,0.0142261,783,1506,-13.6429,-30.706
-434,-482,-13.6761,31.5422,0.0040487,0.00491001,0.00368523,0.00818966,0.000769047,0.843564,0.00522234,0.0176213,790,1506,-13.6761,-31.5422
-427,-482,-13.7017,32.4182,0.00544388,0.00677494,0.00506337,0.0112163,0.00100249,0.850744,0.0071668,0.023019,797,1506,-13.7017,-32.4182
-420,-482,-13.7852,33.3236,0,0,0,0,0,0,0,-1,804,1506,-13.7852,-33.3236
-413,-482,-6.56415,22.3163,0,0,0,0,0,0,0,-1,811,1506,-6.56417,-22.3163
-406,-482,-2.51373,12.7556,0,0,0,0,0,0,0,-1,818,1506,-2.51376,-12.7556
-399,-482,-1.3822,9.22595,0,0,0,0,0,0,0,-1,825,1506,-1.38221,-9.22598
-392,-482,-1.06836,9.22729,0,0,0,0,0,0,0,-1,832,1506,-1.06835,-9.2273
-385,-482,0.0647583,8.90649,0,0,0,0,0,0,0,-1,839,1506,0.0647778,-8.90644
-378,-482,0.215698,5.96948,0,0,0,0,0,0,0,-1,846,1506,0.215681,-5.9695
-371,-482,-0.10907,8.10437,0,0,0,0,0,0,0,-1,853,1506,-0.109063,-8.10433
-364,-482,-0.154968,10.5032,0,0,0,0,0,0,0,-1,860,1506,-0.154976,-10.5032
-357,-482,2.14807,4.60144,0,0,0,0,0,0,0,-1,867,1506,2.14807,-4.60144
-350,-482,-7.5813,-1.45935,0,0,0,0,0,0,0,-1,874,1506,-7.58133,1.45937
-343,-482,-5.80902,1.81226,0,0,0,0,0,0,0,-1,881,1506,-5.80903,-1.81221
-336,-482,2.52826,-0.390503,0,0,0,0,0,0,0,-1,888,1506,2.52826,0.390456
-329,-482,0,0,0,0,0,0,0,0,0,-1,895,1506,0,0
-322,-482,0,0,0,0,0,0,0,0,0,-1,902,1506,0,0
-315,-482,0,0,0,0,0,0,0,0,0,-1,909,1506,0,0
-308,-482,0,0,0,0,0,0,0,0,0,-1,916,1506,0,0
-301,-482,0,0,0,0,0,0,0,0,0,-1,923,1506,0,0
-294,-482,0,0,0,0,0,0,0,0,0,-1,930,1506,0,0
-287,-482,0,0,0,0,0,0,0,0,0,-1,937,1506,0,0
-280,-482,0,0,0,0,0,0,0,0,0,-1,944,1506,0,0
-273,-482,0,0,0,0,0,0,0,0,0,-1,951,1506,0,0
-266,-482,0,0,0,0,0,0,0,0,0,-1,958,1506,0,0
-259,-482,0,0,0,0,0,0,0,0,0,-1,965,1506,0,0
-252,-482,0,0,0,0,0,0,0,0,0,-1,972,1506,0,0
-245,-482,0,0,0,0,0,0,0,0,0,-1,979,1506,0,0
-238,-482,0,0,0,0,0,0,0,0,0,-1,986,1506,0,0
-231,-482,0,0,0,0,0,0,0,0,0,-1,993,1506,0,0
-224,-482,0,0,0,0,0,0,0,0,0,-1,1000,1506,0,0
-217,-482,0,0,0,0,0,0,0,0,0,-1,1007,1506,0,0
-210,-482,0,0,0,0,0,0,0,0,0,-1,1014,1506,0,0
-203,-482,0,0,0,0,0,0,0,0,0,-1,1021,1506,0,0
-196,-482,0,0,0,0,0,0,0,0,0,-1,1028,1506,0,0
-189,-482,0,0,0,0,0,0,0,0,0,-1,1035,1506,0,0
-182,-482,0,0,0,0,0,0,0,0,0,-1,1042,1506,0,0
-175,-482,0,0,0,0,0,0,0,0,0,-1,1049,1506,0,0
-168,-482,0,0,0,0,0,0,0,0,0,-1,1056,1506,0,0
-161,-482,0,0,0,0,0,0,0,0,0,-1,1063,1506,0,0
-154,-482,0,0,0,0,0,0,0,0,0,-1,1070,1506,0,0
-147,-482,0,0,0,0,0,0,0,0,0,-1,1077,1506,0,0
-140,-482,0,0,0,0,0,0,0,0,0,-1,1084,1506,0,0
-133,-482,0,0,0,0,0,0,0,0,0,-1,1091,1506,0,0
-126,-482,0,0,0,0,0,0,0,0,0,-1,1098,1506,0,0
-119,-482,0,0,0,0,0,0,0,0,0,-1,1105,1506,0,0
-112,-482,0,0,0,0,0,0,0,0,0,-1,1112,1506,0,0
-105,-482,0,0,0,0,0,0,0,0,0,-1,1119,1506,0,0
-98,-482,0,0,0,0,0,0,0,0,0,-1,1126,1506,0,0
-91,-482,0,0,0,0,0,0,0,0,0,-1,1133,1506,0,0
-84,-482,0,0,0,0,0,0,0,0,0,-1,1140,1506,0,0
-77,-482,0,0,0,0,0,0,0,0,0,-1,1147,1506,0,0
-70,-482,0,0,0,0,0,0,0,0,0,-1,1154,1506,0,0
-63,-482,0,0,0,0,0,0,0,0,0,-1,1161,1506,0,0
-56,-482,0,0,0,0,0,0,0,0,0,-1,1168,1506,0,0
-49,-482,0,0,0,0,0,0,0,0,0,-1,1175,1506,0,0
-42,-482,0,0,0,0,0,0,0,0,0,-1,1182,1506,0,0
-35,-482,0,0,0,0,0,0,0,0,0,-1,1189,1506,0,0
-28,-482,0,0,0,0,0,0,0,0,0,-1,1196,1506,0,0
-21,-482,0,0,0,0,0,0,0,0,0,-1,1203,1506,0,0
-14,-482,0,0,0,0,0,0,0,0,0,-1,1210,1506,0,0
-7,-482,0,0,0,0,0,0,0,0,0,-1,1217,1506,0,0
0,-482,0,0,0,0,0,0,0,0,0,-1,1224,1506,0,0
7,-482,0,0,0,0,0,0,0,0,0,-1,1231,1506,0,0
14,-482,0,0,0,0,0,0,0,0,0,-1,1238,1506,0,0
21,-482,0,0,0,0,0,0,0,0,0,-1,1245,1506,0,0
28,-482,0,0,0,0,0,0,0,0,0,-1,1252,1506,0,0
35,-482,0,0,0,0,0,0,0,0,0,-1,1259,1506,0,0
42,-482,0,0,0,0,0,0,0,0,0,-1,1266,1506,0,0
49,-482,0,0,0,0,0,0,0,0,0,-1,1273,1506,0,0
56,-482,0,0,0,0,0,0,0,0,0,-1,1280,1506,0,0
63,-482,0,0,0,0,0,0,0,0,0,-1,1287,1506,0,0
70,-482,0,0,0,0,0,0,0,0,0,-1,1294,1506,0,0
77,-482,0,0,0,0,0,0,0,0,0,-1,1301,1506,0,0
84,-482,0,0,0,0,0,0,0,0,0,-1,1308,1506,0,0
91,-482,0,0,0,0,0,0,0,0,0,-1,1315,1506,0,0
98,-482,0,0,0,0,0,0,0,0,0,-1,1322,1506,0,0
105,-482,0,0,0,0,0,0,0,0,0,-1,1329,1506,0,0
112,-482,0,0,0,0,0,0,0,0,0,-1,1336,1506,0,0
119,-482,0,0,0,0,0,0,0,0,0,-1,1343,1506,0,0
126,-482,0,0,0,0,0,0,0,0,0,-1,1350,1506,0,0
133,-482,0,0,0,0,0,0,0,0,0,-1,1357,1506,0,0
140,-482,0,0,0,0,0,0,0,0,0,-1,1364,1506,0,0
147,-482,0,0,0,0,0,0,0,0,0,-1,1371,1506,0,0
154,-482,0,0,0,0,0,0,0,0,0,-1,1378,1506,0,0
161,-482,0,0,0,0,0,0,0,0,0,-1,1385,1506,0,0
168,-482,0,0,0,0,0,0,0,0,0,-1,1392,1506,0,0
175,-482,0,0,0,0,0,0,0,0,0,-1,1399,1506,0,0
182,-482,0,0,0,0,0,0,0,0,0,-1,1406,1506,0,0
189,-482,0,0,0,0,0,0,0,0,0,-1,1413,1506,0,0
196,-482,0,0,0,0,0,0,0,0,0,-1,1420,1506,0,0
203,-482,0,0,0,0,0,0,0,0,0,-1,1427,1506,0,0
210,-482,0,0,0,0,0,0,0,0,0,-1,1434,1506,0,0
217,-482,0,0,0,0,0,0,0,0,0,-1,1441,1506,0,0
224,-482,0,0,0,0,0,0,0,0,0,-1,1448,1506,0,0
231,-482,0,0,0,0,0,0,0,0,0,-1,1455,1506,0,0
238,-482,0,0,0,0,0,0,0,0,0,-1,1462,1506,0,0
245,-482,0,0,0,0,0,0,0,0,0,-1,1469,1506,0,0
252,-482,0,0,0,0,0,0,0,0,0,-1,1476,1506,0,0
259,-482,0,0,0,0,0,0,0,0,0,-1,1483,1506,0,0
266,-482,0,0,0,0,0,0,0,0,0,-1,1490,1506,0,0
273,-482,0,0,0,0,0,0,0,0,0,-1,1497,1506,0,0
280,-482,0,0,0,0,0,0,0,0,0,-1,1504,1506,0,0
287,-482,0,0,0,0,0,0,0,0,0,-1,1511,1506,0,0
294,-482,0,0,0,0,0,0,0,0,0,-1,1518,1506,0,0
301,-482,0,0,0,0,0,0,0,0,0,-1,1525,1506,0,0
308,-482,0,0,0,0,0,0,0,0,0,-1,1532,1506,0,0
315,-482,0,0,0,0,0,0,0,0,0,-1,1539,1506,0,0
322,-482,0,0,0,0,0,0,0,0,0,-1,1546,1506,0,0
329,-482,0,0,0,0,0,0,0,0,0,-1,1553,1506,0,0
336,-482,0,0,0,0,0,0,0,0,0,-1,1560,1506,0,0
343,-482,0,0,0,0,0,0,0,0,0,-1,1567,1506,0,0
350,-482,0,0,0,0,0,0,0,0,0,-1,1574,1506,0,0
357,-482,0,0,0,0,0,0,0,0,0,-1,1581,1506,0,0
364,-482,0,0,0,0,0,0,0,0,0,-1,1588,1506,0,0
371,-482,0,0,0,0,0,0,0,0,0,-1,1595,1506,0,0
378,-482,0,0,0,0,0,0,0,0,0,-1,1602,1506,0,0
385,-482,0,0,0,0,0,0,0,0,0,-1,1609,1506,0,0
392,-482,0,0,0,0,0,0,0,0,0,-1,1616,1506,0,0
399,-482,0,0,0,0,0,0,0,0,0,-1,1623,1506,0,0
406,-482,0,0,0,0,0,0,0,0,0,-1,1630,1506,0,0
413,-482,0,0,0,0,0,0,0,0,0,-1,1637,1506,0,0
420,-482,0,0,0,0,0,0,0,0,0,-1,1644,1506,0,0
427,-482,0,0,0,0,0,0,0,0,0,-1,1651,1506,0,0
434,-482,0,0,0,0,0,0,0,0,0,-1,1658,1506,0,0
441,-482,0,0,0,0,0,0,0,0,0,-1,1665,1506,0,0
448,-482,4.24146,1.55383,0,0,0,0,0,0,0,-1,1672,1506,4.24149,-1.55381
455,-482,12.4122,1.09729,0,0,0,0,0,0,0,-1,1679,1506,12.4122,-1.09734
462,-482,15.0673,3.13135,0,0,0,0,0,0,0,-1,1686,1506,15.0672,-3.13134
469,-482,15.3793,3.46301,0,0,0,0,0,0,0,-1,1693,1506,15.3793,-3.46307
476,-482,8.69751,9.18738,0,0,0,0,0,0,0,-1,1700,1506,8.69753,-9.18739
483,-482,10.0902,7.17432,0,0,0,0,0,0,0,-1,1707,1506,10.0902,-7.1743
490,-482,11.6289,5.4928,0,0,0,0,0,0,0,-1,1714,1506,11.6289,-5.49283
497,-482,15.9539,7.40222,0,0,0,0,0,0,0,-1,1721,1506,15.9538,-7.40219
504,-482,20.4233,12.006,0,0,0,0,0,0,0,-1,1728,1506,20.4233,-12.006
511,-482,18.4937,12.9175,0,0,0,0,0,0,0,-1,1735,1506,18.4936,-12.9174
518,-482,16.6002,13.9679,0,0,0,0,0,0,0,-1,1742,1506,16.6003,-13.9679
525,-482,18.495,15.9618,0,0,0,0,0,0,0,-1,1749,1506,18.495,-15.9618
532,-482,19.9375,21.0775,0,0,0,0,0,0,0,-1,1756,1506,19.9375,-21.0775
539,-482,20.2291,20.5577,0,0,0,0,0,0,0,-1,1763,1506,20.2291,-20.5578
546,-482,30.9578,34.015,0,0,0,0,0,0,0,-1,1770,1506,30.9578,-34.015
553,-482,30.7184,32.9825,0,0,0,0,0,0,0,-1,1777,1506,30.7184,-32.9826
560,-482,30.8801,32.0573,0.00787372,0.00498879,-0.00445132,0.0111105,0.00175205,-0.628711,0.00689753,0.0186188,1784,1506,30.8802,-32.0572
567,-482,30.9786,31.2036,0.00631193,0.00360932,-0.00336203,0.00858406,0.00133719,-0.594313,0.00533315,0.014956,1791,1506,30.9787,-31.2036
574,-482,30.9373,30.4086,0.00504952,0.00257392,-0.00258594,0.00667864,0.000944792,-0.562181,0.0041733,0.0140377,1798,1506,30.9373,-30.4085
581,-482,30.8938,29.5948,0.00398902,0.00179979,-0.00197333,0.005151,0.000637812,-0.532175,0.00324237,0.0102194,1805,1506,30.8938,-29.5949
588,-482,30.829,28.7798,0.00318538,0.00118979,-0.0015259,0.00401076,0.000364413,-0.49584,0.00256103,0.0115779,1812,1506,30.829,-28.7798
595,-482,30.776,27.951,0.00261555,0.000720035,-0.00110606,0.00312437,0.00021122,-0.43116,0.0020162,0.0176404,1819,1506,30.776,-27.951
602,-482,30.7411,27.1146,0.00216409,0.000380767,-0.000787853,0.00246229,8.2567e-05,-0.361834,0.00161471,0.0219925,1826,1506,30.7411,-27.1146
609,-482,30.701,26.3236,0.00180707,0.00013108,-0.000425017,0.00190869,2.94607e-05,-0.234689,0.00126275,0.0173959,1833,1506,30.7011,-26.3237
616,-482,30.6243,25.5283,0.00165592,-7.21693e-05,-1.20855e-05,0.00165601,-7.22537e-05,-0.00699308,0.00112886,0.0122472,1840,1506,30.6243,-25.5284
623,-482,30.5574,24.7076,0.00161199,-0.000479599,0.00063273,0.0017885,-0.000656111,0.272053,0.001461,0.0202971,1847,1506,30.5573,-24.7076
630,-482,30.5074,23.9227,0.00140865,-0.00087601,0.00158246,0.00221801,-0.00168537,0.472771,0.0022606,0.0461384,1854,1506,30.5075,-23.9228
637,-482,30.4873,23.14,0,0,0,0,0,0,0,-1,1861,1506,30.4873,-23.14
644,-482,29.0146,20.1443,0,0,0,0,0,0,0,-1,1868,1506,29.0147,-20.1442
651,-482,4.03845,7.05273,0,0,0,0,0,0,0,-1,1875,1506,4.03843,-7.05279
658,-482,10.0278,5.87903,0,0,0,0,0,0,0,-1,1882,1506,10.0279,-5.87902
665,-482,8.15198,3.22229,0,0,0,0,0,0,0,-1,1889,1506,8.15199,-3.22232
672,-482,9.87415,1.3147,0,0,0,0,0,0,0,-1,1896,1506,9.87416,-1.31473
679,-482,0,0,0,0,0,0,0,0,0,-1,1903,1506,0,0
686,-482,0,0,0,0,0,0,0,0,0,-1,1910,1506,0,0
693,-482,0,0,0,0,0,0,0,0,0,-1,1917,1506,0,0
700,-482,0,0,0,0,0,0,0,0,0,-1,1924,1506,0,0
707,-482,0,0,0,0,0,0,0,0,0,-1,1931,1506,0,0
714,-482,0,0,0,0,0,0,0,0,0,-1,1938,1506,0,0
721,-482,0,0,0,0,0,0,0,0,0,-1,1945,1506,0,0
728,-482,0,0,0,0,0,0,0,0,0,-1,1952,1506,0,0
735,-482,0,0,0,0,0,0,0,0,0,-1,1959,1506,0,0
742,-482,0,0,0,0,0,0,0,0,0,-1,1966,1506,0,0
749,-482,0,0,0,0,0,0,0,0,0,-1,1973,1506,0,0
756,-482,0,0,0,0,0,0,0,0,0,-1,1980,1506,0,0
763,-482,0,0,0,0,0,0,0,0,0,-1,1987,1506,0,0
770,-482,0,0,0,0,0,0,0,0,0,-1,1994,1506,0,0
777,-482,0,0,0,0,0,0,0,0,0,-1,2001,1506,0,0
784,-482,0,0,0,0,0,0,0,0,0,-1,2008,1506,0,0
791,-482,0,0,0,0,0,0,0,0,0,-1,2015,1506,0,0
798,-482,0,0,0,0,0,0,0,0,0,-1,2022,1506,0,0
805,-482,0,0,0,0,0,0,0,0,0,-1,2029,1506,0,0
812,-482,0,0,0,0,0,0,0,0,0,-1,2036,1506,0,0
-700,-489,0,0,0,0,0,0,0,0,0,-1,524,1513,0,0
-693,-489,0,0,0,0,0,0,0,0,0,-1,531,1513,0,0
-686,-489,0,0,0,0,0,0,0,0,0,-1,538,1513,0,0
-679,-489,0,0,0,0,0,0,0,0,0,-1,545,1513,0,0
-672,-489,0,0,0,0,0,0,0,0,0,-1,552,1513,0,0
-665,-489,0,0,0,0,0,0,0,0,0,-1,559,1513,0,0
-658,-489,0,0,0,0,0,0,0,0,0,-1,566,1513,0,0
-651,-489,0,0,0,0,0,0,0,0,0,-1,573,1513,0,0
-644,-489,0,0,0,0,0,0,0,0,0,-1,580,1513,0,0
-637,-489,0,0,0,0,0,0,0,0,0,-1,587,1513,0,0
-630,-489,0,0,0,0,0,0,0,0,0,-1,594,1513,0,0
-623,-489,0,0,0,0,0,0,0,0,0,-1,601,1513,0,0
-616,-489,0,0,0,0,0,0,0,0,0,-1,608,1513,0,0
-609,-489,0,0,0,0,0,0,0,0,0,-1,615,1513,0,0
-602,-489,0,0,0,0,0,0,0,0,0,-1,622,1513,0,0
-595,-489,0,0,0,0,0,0,0,0,0,-1,629,1513,0,0
-588,-489,0,0,0,0,0,0,0,0,0,-1,636,1513,0,0
-581,-489,0,0,0,0,0,0,0,0,0,-1,643,1513,0,0
-574,-489,0,0,0,0,0,0,0,0,0,-1,650,1513,0,0
-567,-489,0,0,0,0,0,0,0,0,0,-1,657,1513,0,0
-560,-489,0,0,0,0,0,0,0,0,0,-1,664,1513,0,0
-553,-489,-9.42206,8.5116,0,0,0,0,0,0,0,-1,671,1513,-9.42205,-8.51158
-546,-489,-7.80951,8.18506,0,0,0,0,0,0,0,-1,678,1513,-7.8095,-8.18503
-539,-489,-3.06879,2.82349,0,0,0,0,0,0,0,-1,685,1513,-3.06881,-2.82354
-532,-489,-3.14215,2.5835,0,0,0,0,0,0,0,-1,692,1513,-3.14213,-2.58353
-525,-489,-2.604,4.06274,0,0,0,0,0,0,0,-1,699,1513,-2.60399,-4.06274
-518,-489,-5.43774,7.48059,0,0,0,0,0,0,0,-1,706,1513,-5.43777,-7.48058
-511,-489,-7.52856,10.951,0,0,0,0,0,0,0,-1,713,1513,-7.52857,-10.951
-504,-489,-7.17352,12.8508,0,0,0,0,0,0,0,-1,720,1513,-7.17352,-12.8508
-497,-489,-5.51678,14.9254,0,0,0,0,0,0,0,-1,727,1513,-5.51681,-14.9254
-490,-489,-12.7173,24.5437,0,0,0,0,0,0,0,-1,734,1513,-12.7173,-24.5437
-483,-489,-12.5883,25.5232,0.00350863,0.00412768,0.00448001,0.00830884,-0.000672532,0.819889,0.00577647,0.0401373,741,1513,-12.5883,-25.5232
-476,-489,-12.5702,26.5334,0.00267183,0.00264768,0.0030963,0.00575608,-0.000436573,0.783448,0.00399088,0.0121913,748,1513,-12.5702,-26.5335
-469,-489,-12.6143,27.3983,0.00215916,0.00180108,0.00229639,0.00428348,-0.000323238,0.746494,0.00296927,0.0116258,755,1513,-12.6143,-27.3983
-462,-489,-12.6765,28.2267,0.00183687,0.00148488,0.00180956,0.00347897,-0.00015722,0.736921,0.00237345,0.0162246,762,1513,-12.6765,-28.2267
-455,-489,-12.7332,29.0791,0.00178796,0.00154283,0.00163474,0.00330472,2.60678e-05,0.74798,0.00219451,0.0201726,769,1513,-12.7332,-29.0791
-448,-489,-12.7817,29.9142,0.0021129,0.0020906,0.00186644,0.00396822,0.000235272,0.782412,0.00257065,0.0181492,776,1513,-12.7817,-29.9142
-441,-489,-12.7972,30.7471,0.00264314,0.00291135,0.00233089,0.00511199,0.000442499,0.814134,0.00327049,0.0158546,783,1513,-12.7972,-30.7471
-434,-489,-12.8658,31.589,0.00342764,0.00409553,0.00308973,0.00686931,0.000653859,0.839231,0.00437789,0.0187367,790,1513,-12.8658,-31.589
-427,-489,-12.9336,32.4265,0.0045475,0.00559001,0.00414157,0.009243,0.000894513,0.847999,0.00588653,0.0208029,797,1513,-12.9336,-32.4265
-420,-489,-12.9905,33.4114,0.00606961,0.00736218,0.0055206,0.0122742,0.0011576,0.843667,0.00782552,0.0295021,804,1513,-12.9905,-33.4113
-413,-489,-12.5717,34.4192,0,0,0,0,0,0,0,-1,811,1513,-12.5717,-34.4191
-406,-489,-3.10559,15.8143,0,0,0,0,0,0,0,-1,818,1513,-3.10556,-15.8143
-399,-489,-1.41241,9.10718,0,0,0,0,0,0,0,-1,825,1513,-1.41244,-9.10722
-392,-489,-1.0368,9.30469,0,0,0,0,0,0,0,-1,832,1513,-1.03682,-9.30466
-385,-489,-1.75165,10.6559,0,0,0,0,0,0,0,-1,839,1513,-1.75165,-10.6559
-378,-489,-0.401428,9.87048,0,0,0,0,0,0,0,-1,846,1513,-0.401415,-9.87047
-371,-489,-1.11633,10.6606,0,0,0,0,0,0,0,-1,853,1513,-1.11633,-10.6606
-364,-489,-0.503113,8.98486,0,0,0,0,0,0,0,-1,860,1513,-0.503097,-8.98482
-357,-489,-0.609924,10.9606,0,0,0,0,0,0,0,-1,867,1513,-0.609947,-10.9605
-350,-489,-7.94659,-0.358887,0,0,0,0,0,0,0,-1,874,1513,-7.94657,0.358912
-343,-489,-7.49323,-0.437866,0,0,0,0,0,0,0,-1,881,1513,-7.49322,0.437823
-336,-489,-7.02332,-0.53125,0,0,0,0,0,0,0,-1,888,1513,-7.0233,0.531295
-329,-489,-13.2786,4.96082,0,0,0,0,0,0,0,-1,895,1513,-13.2785,-4.96077
-322,-489,0,0,0,0,0,0,0,0,0,-1,902,1513,0,0
-315,-489,0,0,0,0,0,0,0,0,0,-1,909,1513,0,0
-308,-489,0,0,0,0,0,0,0,0,0,-1,916,1513,0,0
-301,-489,0,0,0,0,0,0,0,0,0,-1,923,1513,0,0
-294,-489,0,0,0,0,0,0,0,0,0,-1,930,1513,0,0
-287,-489,0,0,0,0,0,0,0,0,0,-1,937,1513,0,0
-280,-489,0,0,0,0,0,0,0,0,0,-1,944,1513,0,0
-273,-489,0,0,0,0,0,0,0,0,0,-1,951,1513,0,0
-266,-489,0,0,0,0,0,0,0,0,0,-1,958,1513,0,0
-259,-489,0,0,0,0,0,0,0,0,0,-1,965,1513,0,0
-252,-489,0,0,0,0,0,0,0,0,0,-1,972,1513,0,0
-245,-489,0,0,0,0,0,0,0,0,0,-1,979,1513,0,0
-238,-489,0,0,0,0,0,0,0,0,0,-1,986,1513,0,0
-231,-489,0,0,0,0,0,0,0,0,0,-1,993,1513,0,0
-224,-489,0,0,0,0,0,0,0,0,0,-1,1000,1513,0,0
-217,-489,0,0,0,0,0,0,0,0,0,-1,1007,1513,0,0
-210,-489,0,0,0,0,0,0,0,0,0,-1,1014,1513,0,0
-203,-489,0,0,0,0,0,0,0,0,0,-1,1021,1513,0,0
-196,-489,0,0,0,0,0,0,0,0,0,-1,1028,1513,0,0
-189,-489,0,0,0,0,0,0,0,0,0,-1,1035,1513,0,0
-182,-489,0,0,0,0,0,0,0,0,0,-1,1042,1513,0,0
-175,-489,0,0,0,0,0,0,0,0,0,-1,1049,1513,0,0
-168,-489,0,0,0,0,0,0,0,0,0,-1,1056,1513,0,0
-161,-489,0,0,0,0,0,0,0,0,0,-1,1063,1513,0,0
-154,-489,0,0,0,0,0,0,0,0,0,-1,1070,1513,0,0
-147,-489,0,0,0,0,0,0,0,0,0,-1,1077,1513,0,0
-140,-489,0,0,0,0,0,0,0,0,0,-1,1084,1513,0,0
-133,-489,0,0,0,0,0,0,0,0,0,-1,1091,1513,0,0
-126,-489,0,0,0,0,0,0,0,0,0,-1,1098,1513,0,0
-119,-489,0,0,0,0,0,0,0,0,0,-1,1105,1513,0,0
-112,-489,0,0,0,0,0,0,0,0,0,-1,1112,1513,0,0
-105,-489,0,0,0,0,0,0,0,0,0,-1,1119,1513,0,0
-98,-489,0,0,0,0,0,0,0,0,0,-1,1126,1513,0,0
-91,-489,0,0,0,0,0,0,0,0,0,-1,1133,1513,0,0
-84,-489,0,0,0,0,0,0,0,0,0,-1,1140,1513,0,0
-77,-489,0,0,0,0,0,0,0,0,0,-1,1147,1513,0,0
-70,-489,0,0,0,0,0,0,0,0,0,-1,1154,1513,0,0
-63,-489,0,0,0,0,0,0,0,0,0,-1,1161,1513,0,0
-56,-489,0,0,0,0,0,0,0,0,0,-1,1168,1513,0,0
-49,-489,0,0,0,0,0,0,0,0,0,-1,1175,1513,0,0
-42,-489,0,0,0,0,0,0,0,0,0,-1,1182,1513,0,0
-35,-489,0,0,0,0,0,0,0,0,0,-1,1189,1513,0,0
-28,-489,0,0,0,0,0,0,0,0,0,-1,1196,1513,0,0
-21,-489,0,0,0,0,0,0,0,0,0,-1,1203,1513,0,0
-14,-489,0,0,0,0,0,0,0,0,0,-1,1210,1513,0,0
-7,-489,0,0,0,0,0,0,0,0,0,-1,1217,1513,0,0
0,-489,0,0,0,0,0,0,0,0,0,-1,1224,1513,0,0
7,-489,0,0,0,0,0,0,0,0,0,-1,1231,1513,0,0
14,-489,0,0,0,0,0,0,0,0,0,-1,1238,1513,0,0
21,-489,0,0,0,0,0,0,0,0,0,-1,1245,1513,0,0
28,-489,0,0,0,0,0,0,0,0,0,-1,1252,1513,0,0
35,-489,0,0,0,0,0,0,0,0,0,-1,1259,1513,0,0
42,-489,0,0,0,0,0,0,0,0,0,-1,1266,1513,0,0
49,-489,0,0,0,0,0,0,0,0,0,-1,1273,1513,0,0
56,-489,0,0,0,0,0,0,0,0,0,-1,1280,1513,0,0
63,-489,0,0,0,0,0,0,0,0,0,-1,1287,1513,0,0
70,-489,0,0,0,0,0,0,0,0,0,-1,1294,1513,0,0
77,-489,0,0,0,0,0,0,0,0,0,-1,1301,1513,0,0
84,-489,0,0,0,0,0,0,0,0,0,-1,1308,1513,0,0
91,-489,0,0,0,0,0,0,0,0,0,-1,1315,1513,0,0
98,-489,0,0,0,0,0,0,0,0,0,-1,1322,1513,0,0
105,-489,0,0,0,0,0,0,0,0,0,-1,1329,1513,0,0
112,-489,0,0,0,0,0,0,0,0,0,-1,1336,1513,0,0
119,-489,0,0,0,0,0,0,0,0,0,-1,1343,1513,0,0
126,-489,0,0,0,0,0,0,0,0,0,-1,1350,1513,0,0
133,-489,0,0,0,0,0,0,0,0,0,-1,1357,1513,0,0
140,-489,0,0,0,0,0,0,0,0,0,-1,1364,1513,0,0
147,-489,0,0,0,0,0,0,0,0,0,-1,1371,1513,0,0
154,-489,0,0,0,0,0,0,0,0,0,-1,1378,1513,0,0
161,-489,0,0,0,0,0,0,0,0,0,-1,1385,1513,0,0
168,-489,0,0,0,0,0,0,0,0,0,-1,1392,1513,0,0
175,-489,0,0,0,0,0,0,0,0,0,-1,1399,1513,0,0
182,-489,0,0,0,0,0,0,0,0,0,-1,1406,1513,0,0
189,-489,0,0,0,0,0,0,0,0,0,-1,1413,1513,0,0
196,-489,0,0,0,0,0,0,0,0,0,-1,1420,1513,0,0
203,-489,0,0,0,0,0,0,0,0,0,-1,1427,1513,0,0
210,-489,0,0,0,0,0,0,0,0,0,-1,1434,1513,0,0
217,-489,0,0,0,0,0,0,0,0,0,-1,1441,1513,0,0
224,-489,0,0,0,0,0,0,0,0,0,-1,1448,1513,0,0
231,-489,0,0,0,0,0,0,0,0,0,-1,1455,1513,0,0
238,-489,0,0,0,0,0,0,0,0,0,-1,1462,1513,0,0
245,-489,0,0,0,0,0,0,0,0,0,-1,1469,1513,0,0
252,-489,0,0,0,0,0,0,0,0,0,-1,1476,1513,0,0
259,-489,0,0,0,0,0,0,0,0,0,-1,1483,1513,0,0
266,-489,0,0,0,0,0,0,0,0,0,-1,1490,1513,0,0
273,-489,0,0,0,0,0,0,0,0,0,-1,1497,1513,0,0
280,-489,0,0,0,0,0,0,0,0,0,-1,1504,1513,0,0
287,-489,0,0,0,0,0,0,0,0,0,-1,1511,1513,0,0
294,-489,0,0,0,0,0,0,0,0,0,-1,1518,1513,0,0
301,-489,0,0,0,0,0,0,0,0,0,-1,1525,1513,0,0
308,-489,0,0,0,0,0,0,0,0,0,-1,1532,1513,0,0
315,-489,0,0,0,0,0,0,0,0,0,-1,1539,1513,0,0
322,-489,0,0,0,0,0,0,0,0,0,-1,1546,1513,0,0
329,-489,0,0,0,0,0,0,0,0,0,-1,1553,1513,0,0
336,-489,0,0,0,0,0,0,0,0,0,-1,1560,1513,0,0
343,-489,0,0,0,0,0,0,0,0,0,-1,1567,1513,0,0
350,-489,0,0,0,0,0,0,0,0,0,-1,1574,1513,0,0
357,-489,0,0,0,0,0,0,0,0,0,-1,1581,1513,0,0
364,-489,0,0,0,0,0,0,0,0,0,-1,1588,1513,0,0
371,-489,0,0,0,0,0,0,0,0,0,-1,1595,1513,0,0
378,-489,0,0,0,0,0,0,0,0,0,-1,1602,1513,0,0
385,-489,0,0,0,0,0,0,0,0,0,-1,1609,1513,0,0
392,-489,0,0,0,0,0,0,0,0,0,-1,1616,1513,0,0
399,-489,0,0,0,0,0,0,0,0,0,-1,1623,1513,0,0
406,-489,0,0,0,0,0,0,0,0,0,-1,1630,1513,0,0
413,-489,0,0,0,0,0,0,0,0,0,-1,1637,1513,0,0
420,-489,0,0,0,0,0,0,0,0,0,-1,1644,1513,0,0
427,-489,0,0,0,0,0,0,0,0,0,-1,1651,1513,0,0
434,-489,0,0,0,0,0,0,0,0,0,-1,1658,1513,0,0
441,-489,11.4602,2.56787,0,0,0,0,0,0,0,-1,1665,1513,11.4602,-2.56786
448,-489,12.4425,1.72351,0,0,0,0,0,0,0,-1,1672,1513,12.4425,-1.72349
455,-489,12.5575,1.37463,0,0,0,0,0,0,0,-1,1679,1513,12.5575,-1.37469
462,-489,14.9784,3.84888,0,0,0,0,0,0,0,-1,1686,1513,14.9784,-3.84892
469,-489,15.1367,4.53101,0,0,0,0,0,0,0,-1,1693,1513,15.1368,-4.531
476,-489,15.5536,5.09338,0,0,0,0,0,0,0,-1,1700,1513,15.5536,-5.09339
483,-489,8.96912,8.37805,0,0,0,0,0,0,0,-1,1707,1513,8.96909,-8.37809
490,-489,10.5366,7.49561,0,0,0,0,0,0,0,-1,1714,1513,10.5367,-7.49558
497,-489,14.6051,11.8397,0,0,0,0,0,0,0,-1,1721,1513,14.6051,-11.8397
504,-489,16.7527,14.1735,0,0,0,0,0,0,0,-1,1728,1513,16.7527,-14.1735
511,-489,17.83,17.7993,0,0,0,0,0,0,0,-1,1735,1513,17.83,-17.7993
518,-489,16.4751,14.3682,0,0,0,0,0,0,0,-1,1742,1513,16.4751,-14.3682
525,-489,17.2606,17.4949,0,0,0,0,0,0,0,-1,1749,1513,17.2606,-17.4949
532,-489,19.397,21.0182,0,0,0,0,0,0,0,-1,1756,1513,19.397,-21.0182
539,-489,30.0593,34.9402,0,0,0,0,0,0,0,-1,1763,1513,30.0593,-34.9402
546,-489,30.2373,33.9141,0.010258,0.00792909,-0.00682965,0.0160217,0.00216533,-0.700961,0.0100375,0.0429111,1770,1513,30.2373,-33.9141
553,-489,30.1698,32.9446,0.00822923,0.0059836,-0.00514794,0.0123754,0.00183745,-0.678025,0.00771109,0.024095,1777,1513,30.1698,-32.9445
560,-489,30.1501,32.0803,0.0065915,0.00442463,-0.00383608,0.00949421,0.00152192,-0.647766,0.0058881,0.0140645,1784,1513,30.1502,-32.0804
567,-489,30.1628,31.2808,0.00527968,0.00320486,-0.00290255,0.00732464,0.0011599,-0.613766,0.00454605,0.0162587,1791,1513,30.1629,-31.2807
574,-489,30.0804,30.5094,0.00425176,0.00229712,-0.00225206,0.00572941,0.000819459,-0.580677,0.00357787,0.0160231,1798,1513,30.0804,-30.5094
581,-489,30.0621,29.6686,0.00340276,0.00159437,-0.00173697,0.00445679,0.000540343,-0.545419,0.00280846,0.0111799,1805,1513,30.0621,-29.6686
588,-489,30.0127,28.8419,0.00279837,0.00105889,-0.00139429,0.00357195,0.000285308,-0.506535,0.00229212,0.014191,1812,1513,30.0127,-28.8419
595,-489,29.9558,28.041,0.00241131,0.000680923,-0.0010781,0.00292845,0.000163778,-0.447262,0.00190006,0.0212627,1819,1513,29.9559,-28.041
602,-489,29.927,27.2241,0.00213674,0.000452526,-0.000863991,0.00250113,8.81404e-05,-0.399112,0.00163883,0.0266702,1826,1513,29.927,-27.2241
609,-489,29.8806,26.3956,0.00193017,0.000281682,-0.000595857,0.002123,8.88604e-05,-0.312969,0.00138666,0.0183227,1833,1513,29.8806,-26.3956
616,-489,29.8496,25.537,0.00201429,0.000182728,-0.000292503,0.00205987,0.00013715,-0.154581,0.00132989,0.0224791,1840,1513,29.8496,-25.537
623,-489,29.7874,24.7094,0.00215264,-0.00020997,0.00035365,0.00220444,-0.00026177,0.14544,0.0015642,0.0495068,1847,1513,29.7873,-24.7093
630,-489,29.8955,23.8462,0,0,0,0,0,0,0,-1,1854,1513,29.8955,-23.8462
637,-489,17.2048,11.8091,0,0,0,0,0,0,0,-1,1861,1513,17.2048,-11.8091
644,-489,9.67578,8.45874,0,0,0,0,0,0,0,-1,1868,1513,9.67576,-8.45879
651,-489,6.13818,6.85095,0,0,0,0,0,0,0,-1,1875,1513,6.13823,-6.85097
658,-489,5.43848,7.75513,0,0,0,0,0,0,0,-1,1882,1513,5.43844,-7.75509
665,-489,5.48438,8.59912,0,0,0,0,0,0,0,-1,1889,1513,5.48434,-8.59907
672,-489,0,0,0,0,0,0,0,0,0,-1,1896,1513,0,0
679,-489,0,0,0,0,0,0,0,0,0,-1,1903,1513,0,0
686,-489,0,0,0,0,0,0,0,0,0,-1,1910,1513,0,0
693,-489,0,0,0,0,0,0,0,0,0,-1,1917,1513,0,0
700,-489,0,0,0,0,0,0,0,0,0,-1,1924,1513,0,0
707,-489,0,0,0,0,0,0,0,0,0,-1,1931,1513,0,0
714,-489,0,0,0,0,0,0,0,0,0,-1,1938,1513,0,0
721,-489,0,0,0,0,0,0,0,0,0,-1,1945,1513,0,0
728,-489,0,0,0,0,0,0,0,0,0,-1,1952,1513,0,0
735,-489,0,0,0,0,0,0,0,0,0,-1,1959,1513,0,0
742,-489,0,0,0,0,0,0,0,0,0,-1,1966,1513,0,0
749,-489,0,0,0,0,0,0,0,0,0,-1,1973,1513,0,0
756,-489,0,0,0,0,0,0,0,0,0,-1,1980,1513,0,0
763,-489,0,0,0,0,0,0,0,0,0,-1,1987,1513,0,0
770,-489,0,0,0,0,0,0,0,0,0,-1,1994,1513,0,0
777,-489,0,0,0,0,0,0,0,0,0,-1,2001,1513,0,0
784,-489,0,0,0,0,0,0,0,0,0,-1,2008,1513,0,0
791,-489,0,0,0,0,0,0,0,0,0,-1,2015,1513,0,0
798,-489,0,0,0,0,0,0,0,0,0,-1,2022,1513,0,0
805,-489,0,0,0,0,0,0,0,0,0,-1,2029,1513,0,0
812,-489,0,0,0,0,0,0,0,0,0,-1,2036,1513,0,0
-700,-496,0,0,0,0,0,0,0,0,0,-1,524,1520,0,0
-693,-496,0,0,0,0,0,0,0,0,0,-1,531,1520,0,0
-686,-496,0,0,0,0,0,0,0,0,0,-1,538,1520,0,0
-679,-496,0,0,0,0,0,0,0,0,0,-1,545,1520,0,0
-672,-496,0,0,0,0,0,0,0,0,0,-1,552,1520,0,0
-665,-496,0,0,0,0,0,0,0,0,0,-1,559,1520,0,0
-658,-496,0,0,0,0,0,0,0,0,0,-1,566,1520,0,0
-651,-496,0,0,0,0,0,0,0,0,0,-1,573,1520,0,0
-644,-496,0,0,0,0,0,0,0,0,0,-1,580,1520,0,0
-637,-496,0,0,0,0,0,0,0,0,0,-1,587,1520,0,0
-630,-496,0,0,0,0,0,0,0,0,0,-1,594,1520,0,0
-623,-496,0,0,0,0,0,0,0,0,0,-1,601,1520,0,0
-616,-496,0,0,0,0,0,0,0,0,0,-1,608,1520,0,0
-609,-496,0,0,0,0,0,0,0,0,0,-1,615,1520,0,0
-602,-496,0,0,0,0,0,0,0,0,0,-1,622,1520,0,0
-595,-496,0,0,0,0,0,0,0,0,0,-1,629,1520,0,0
-588,-496,0,0,0,0,0,0,0,0,0,-1,636,1520,0,0
-581,-496,0,0,0,0,0,0,0,0,0,-1,643,1520,0,0
-574,-496,0,0,0,0,0,0,0,0,0,-1,650,1520,0,0
-567,-496,0,0,0,0,0,0,0,0,0,-1,657,1520,0,0
-560,-496,0,0,0,0,0,0,0,0,0,-1,664,1520,0,0
-553,-496,0,0,0,0,0,0,0,0,0,-1,671,1520,0,0
-546,-496,-8.09711,7.94836,0,0,0,0,0,0,0,-1,678,1520,-8.09712,-7.94842
-539,-496,-3.20129,1.16052,0,0,0,0,0,0,0,-1,685,1520,-3.20131,-1.16054
-532,-496,-2.98279,2.62146,0,0,0,0,0,0,0,-1,692,1520,-2.98278,-2.62151
-525,-496,-2.75201,4.08032,0,0,0,0,0,0,0,-1,699,1520,-2.75201,-4.08031
-518,-496,-2.6333,5.36072,0,0,0,0,0,0,0,-1,706,1520,-2.63328,-5.36077
-511,-496,-7.92126,9.68604,0,0,0,0,0,0,0,-1,713,1520,-7.92127,-9.68598
-504,-496,-7.51044,11.6274,0,0,0,0,0,0,0,-1,720,1520,-7.51042,-11.6275
-497,-496,-5.30933,14.4291,0,0,0,0,0,0,0,-1,727,1520,-5.30932,-14.4291
-490,-496,-8.21246,19.5051,0,0,0,0,0,0,0,-1,734,1520,-8.21243,-19.5051
-483,-496,-11.902,25.5747,0,0,0,0,0,0,0,-1,741,1520,-11.902,-25.5747
-476,-496,-11.7832,26.5724,0.00297673,0.00270149,0.00335188,0.00619381,-0.000515594,0.764881,0.00431136,0.0299975,748,1520,-11.7832,-26.5724
-469,-496,-11.7846,27.4575,0.00234775,0.00163155,0.00240383,0.00442,-0.000440708,0.711457,0.00310402,0.0106701,755,1520,-11.7846,-27.4576
-462,-496,-11.8448,28.2649,0.00190378,0.00119955,0.00179862,0.00338442,-0.000281093,0.688736,0.00235558,0.0160847,762,1520,-11.8448,-28.2649
-455,-496,-11.9072,29.1204,0.00171931,0.00116112,0.00150544,0.00297131,-9.08718e-05,0.693742,0.00201185,0.0225161,769,1520,-11.9072,-29.1203
-448,-496,-11.9377,29.9912,0.00187488,0.00154127,0.00157708,0.00329396,0.000122197,0.73271,0.00215639,0.0204243,776,1520,-11.9377,-29.9912
-441,-496,-11.9651,30.8134,0.00224771,0.00221883,0.00190956,0.00414288,0.00032365,0.781617,0.00266061,0.0150161,783,1520,-11.9651,-30.8134
-434,-496,-12.0316,31.6534,0.00284294,0.00323218,0.00251144,0.00555653,0.000518586,0.824067,0.00354416,0.0148694,790,1520,-12.0316,-31.6534
-427,-496,-12.0909,32.5018,0.00369391,0.00444415,0.00333291,0.00742298,0.000715074,0.841437,0.00472835,0.0194287,797,1520,-12.0909,-32.5019
-420,-496,-12.132,33.3009,0.00485625,0.00590897,0.00442424,0.00983805,0.000927168,0.844606,0.00627253,0.0208624,804,1520,-12.132,-33.3009
-413,-496,-12.0802,34.1907,0.00634329,0.00761245,0.00578712,0.0127997,0.00115606,0.840007,0.00817506,0.0335562,811,1520,-12.0802,-34.1906
-406,-496,-11.9555,35.3103,0,0,0,0,0,0,0,-1,818,1520,-11.9555,-35.3103
-399,-496,-11.5063,36.5204,0,0,0,0,0,0,0,-1,825,1520,-11.5063,-36.5204
-392,-496,-1.49786,12.387,0,0,0,0,0,0,0,-1,832,1520,-1.49788,-12.387
-385,-496,-1.72437,11.4985,0,0,0,0,0,0,0,-1,839,1520,-1.72436,-11.4985
-378,-496,-1.45532,14.0719,0,0,0,0,0,0,0,-1,846,1520,-1.45533,-14.0719
-371,-496,0.0877075,12.5299,0,0,0,0,0,0,0,-1,853,1520,0.0876896,-12.5299
-364,-496,0.0881348,10.6422,0,0,0,0,0,0,0,-1,860,1520,0.0881368,-10.6423
-357,-496,0.323792,7.56812,0,0,0,0,0,0,0,-1,867,1520,0.323782,-7.56806
-350,-496,2.1535,7.18945,0,0,0,0,0,0,0,-1,874,1520,2.15348,-7.1894
-343,-496,-7.56244,0.335327,0,0,0,0,0,0,0,-1,881,1520,-7.56242,-0.335322
-336,-496,-3.99249,6.02222,0,0,0,0,0,0,0,-1,888,1520,-3.99246,-6.0222
-329,-496,-6.93689,-0.100342,0,0,0,0,0,0,0,-1,895,1520,-6.93686,0.1003
-322,-496,-6.17505,0.494385,0,0,0,0,0,0,0,-1,902,1520,-6.17507,-0.49437
-315,-496,-7.539,5.78638,0,0,0,0,0,0,0,-1,909,1520,-7.53898,-5.78633
-308,-496,0,0,0,0,0,0,0,0,0,-1,916,1520,0,0
-301,-496,0,0,0,0,0,0,0,0,0,-1,923,1520,0,0
-294,-496,0,0,0,0,0,0,0,0,0,-1,930,1520,0,0
-287,-496,0,0,0,0,0,0,0,0,0,-1,937,1520,0,0
-280,-496,0,0,0,0,0,0,0,0,0,-1,944,1520,0,0
-273,-496,0,0,0,0,0,0,0,0,0,-1,951,1520,0,0
-266,-496,0,0,0,0,0,0,0,0,0,-1,958,1520,0,0
-259,-496,0,0,0,0,0,0,0,0,0,-1,965,1520,0,0
-252,-496,0,0,0,0,0,0,0,0,0,-1,972,1520,0,0
-245,-496,0,0,0,0,0,0,0,0,0,-1,979,1520,0,0
-238,-496,0,0,0,0,0,0,0,0,0,-1,986,1520,0,0
-231,-496,0,0,0,0,0,0,0,0,0,-1,993,1520,0,0
-224,-496,0,0,0,0,0,0,0,0,0,-1,1000,1520,0,0
-217,-496,0,0,0,0,0,0,0,0,0,-1,1007,1520,0,0
-210,-496,0,0,0,0,0,0,0,0,0,-1,1014,1520,0,0
-203,-496,0,0,0,0,0,0,0,0,0,-1,1021,1520,0,0
-196,-496,0,0,0,0,0,0,0,0,0,-1,1028,1520,0,0
-189,-496,0,0,0,0,0,0,0,0,0,-1,1035,1520,0,0
-182,-496,0,0,0,0,0,0,0,0,0,-1,1042,1520,0,0
-175,-496,0,0,0,0,0,0,0,0,0,-1,1049,1520,0,0
-168,-496,0,0,0,0,0,0,0,0,0,-1,1056,1520,0,0
-161,-496,0,0,0,0,0,0,0,0,0,-1,1063,1520,0,0
-154,-496,0,0,0,0,0,0,0,0,0,-1,1070,1520,0,0
-147,-496,0,0,0,0,0,0,0,0,0,-1,1077,1520,0,0
-140,-496,0,0,0,0,0,0,0,0,0,-1,1084,1520,0,0
-133,-496,0,0,0,0,0,0,0,0,0,-1,1091,1520,0,0
-126,-496,0,0,0,0,0,0,0,0,0,-1,1098,1520,0,0
-119,-496,0,0,0,0,0,0,0,0,0,-1,1105,1520,0,0
-112,-496,0,0,0,0,0,0,0,0,0,-1,1112,1520,0,0
-105,-496,0,0,0,0,0,0,0,0,0,-1,1119,1520,0,0
-98,-496,0,0,0,0,0,0,0,0,0,-1,1126,1520,0,0
-91,-496,0,0,0,0,0,0,0,0,0,-1,1133,1520,0,0
-84,-496,0,0,0,0,0,0,0,0,0,-1,1140,1520,0,0
-77,-496,0,0,0,0,0,0,0,0,0,-1,1147,1520,0,0
-70,-496,0,0,0,0,0,0,0,0,0,-1,1154,1520,0,0
-63,-496,0,0,0,0,0,0,0,0,0,-1,1161,1520,0,0
-56,-496,0,0,0,0,0,0,0,0,0,-1,1168,1520,0,0
-49,-496,0,0,0,0,0,0,0,0,0,-1,1175,1520,0,0
-42,-496,0,0,0,0,0,0,0,0,0,-1,1182,1520,0,0
-35,-496,0,0,0,0,0,0,0,0,0,-1,1189,1520,0,0
-28,-496,0,0,0,0,0,0,0,0,0,-1,1196,1520,0,0
-21,-496,0,0,0,0,0,0,0,0,0,-1,1203,1520,0,0
-14,-496,0,0,0,0,0,0,0,0,0,-1,1210,1520,0,0
-7,-496,0,0,0,0,0,0,0,0,0,-1,1217,1520,0,0
0,-496,0,0,0,0,0,0,0,0,0,-1,1224,1520,0,0
7,-496,0,0,0,0,0,0,0,0,0,-1,1231,1520,0,0
14,-496,0,0,0,0,0,0,0,0,0,-1,1238,1520,0,0
21,-496,0,0,0,0,0,0,0,0,0,-1,1245,1520,0,0
28,-496,0,0,0,0,0,0,0,0,0,-1,1252,1520,0,0
35,-496,0,0,0,0,0,0,0,0,0,-1,1259,1520,0,0
42,-496,0,0,0,0,0,0,0,0,0,-1,1266,1520,0,0
49,-496,0,0,0,0,0,0,0,0,0,-1,1273,1520,0,0
56,-496,0,0,0,0,0,0,0,0,0,-1,1280,1520,0,0
63,-496,0,0,0,0,0,0,0,0,0,-1,1287,1520,0,0
70,-496,0,0,0,0,0,0,0,0,0,-1,1294,1520,0,0
77,-496,0,0,0,0,0,0,0,0,0,-1,1301,1520,0,0
84,-496,0,0,0,0,0,0,0,0,0,-1,1308,1520,0,0
91,-496,0,0,0,0,0,0,0,0,0,-1,1315,1520,0,0
98,-496,0,0,0,0,0,0,0,0,0,-1,1322,1520,0,0
105,-496,0,0,0,0,0,0,0,0,0,-1,1329,1520,0,0
112,-496,0,0,0,0,0,0,0,0,0,-1,1336,1520,0,0
119,-496,0,0,0,0,0,0,0,0,0,-1,1343,1520,0,0
126,-496,0,0,0,0,0,0,0,0,0,-1,1350,1520,0,0
133,-496,0,0,0,0,0,0,0,0,0,-1,1357,1520,0,0
140,-496,0,0,0,0,0,0,0,0,0,-1,1364,1520,0,0
147,-496,0,0,0,0,0,0,0,0,0,-1,1371,1520,0,0
154,-496,0,0,0,0,0,0,0,0,0,-1,1378,1520,0,0
161,-496,0,0,0,0,0,0,0,0,0,-1,1385,1520,0,0
168,-496,0,0,0,0,0,0,0,0,0,-1,1392,1520,0,0
175,-496,0,0,0,0,0,0,0,0,0,-1,1399,1520,0,0
182,-496,0,0,0,0,0,0,0,0,0,-1,1406,1520,0,0
189,-496,0,0,0,0,0,0,0,0,0,-1,1413,1520,0,0
196,-496,0,0,0,0,0,0,0,0,0,-1,1420,1520,0,0
203,-496,0,0,0,0,0,0,0,0,0,-1,1427,1520,0,0
210,-496,0,0,0,0,0,0,0,0,0,-1,1434,1520,0,0
217,-496,0,0,0,0,0,0,0,0,0,-1,1441,1520,0,0
224,-496,0,0,0,0,0,0,0,0,0,-1,1448,1520,0,0
231,-496,0,0,0,0,0,0,0,0,0,-1,1455,1520,0,0
238,-496,0,0,0,0,0,0,0,0,0,-1,1462,1520,0,0
245,-496,0,0,0,0,0,0,0,0,0,-1,1469,1520,0,0
252,-496,0,0,0,0,0,0,0,0,0,-1,1476,1520,0,0
259,-496,0,0,0,0,0,0,0,0,0,-1,1483,1520,0,0
266,-496,0,0,0,0,0,0,0,0,0,-1,1490,1520,0,0
273,-496,0,0,0,0,0,0,0,0,0,-1,1497,1520,0,0
280,-496,0,0,0,0,0,0,0,0,0,-1,1504,1520,0,0
287,-496,0,0,0,0,0,0,0,0,0,-1,1511,1520,0,0
294,-496,0,0,0,0,0,0,0,0,0,-1,1518,1520,0,0
301,-496,0,0,0,0,0,0,0,0,0,-1,1525,1520,0,0
308,-496,0,0,0,0,0,0,0,0,0,-1,1532,1520,0,0
315,-496,0,0,0,0,0,0,0,0,0,-1,1539,1520,0,0
322,-496,0,0,0,0,0,0,0,0,0,-1,1546,1520,0,0
329,-496,0,0,0,0,0,0,0,0,0,-1,1553,1520,0,0
336,-496,0,0,0,0,0,0,0,0,0,-1,1560,1520,0,0
343,-496,0,0,0,0,0,0,0,0,0,-1,1567,1520,0,0
350,-496,0,0,0,0,0,0,0,0,0,-1,1574,1520,0,0
357,-496,0,0,0,0,0,0,0,0,0,-1,1581,1520,0,0
364,-496,0,0,0,0,0,0,0,0,0,-1,1588,1520,0,0
371,-496,0,0,0,0,0,0,0,0,0,-1,1595,1520,0,0
378,-496,0,0,0,0,0,0,0,0,0,-1,1602,1520,0,0
385,-496,0,0,0,0,0,0,0,0,0,-1,1609,1520,0,0
392,-496,0,0,0,0,0,0,0,0,0,-1,1616,1520,0,0
399,-496,0,0,0,0,0,0,0,0,0,-1,1623,1520,0,0
406,-496,0,0,0,0,0,0,0,0,0,-1,1630,1520,0,0
413,-496,0,0,0,0,0,0,0,0,0,-1,1637,1520,0,0
420,-496,0,0,0,0,0,0,0,0,0,-1,1644,1520,0,0
427,-496,0,0,0,0,0,0,0,0,0,-1,1651,1520,0,0
434,-496,11.0457,3.37732,0,0,0,0,0,0,0,-1,1658,1520,11.0456,-3.37736
441,-496,11.788,2.75488,0,0,0,0,0,0,0,-1,1665,1520,11.7879,-2.75485
448,-496,12.2146,2.18494,0,0,0,0,0,0,0,-1,1672,1520,12.2146,-2.18489
455,-496,12.3489,1.65173,0,0,0,0,0,0,0,-1,1679,1520,12.3489,-1.65178
462,-496,12.1912,1.32361,0,0,0,0,0,0,0,-1,1686,1520,12.1911,-1.32357
469,-496,14.8138,5.77954,0,0,0,0,0,0,0,-1,1693,1520,14.8138,-5.77958
476,-496,15.2449,6.27942,0,0,0,0,0,0,0,-1,1700,1520,15.2449,-6.27936
483,-496,9.19812,6.88367,0,0,0,0,0,0,0,-1,1707,1520,9.19812,-6.88361
490,-496,10.2123,7.97144,0,0,0,0,0,0,0,-1,1714,1520,10.2122,-7.97145
497,-496,13.9297,12.2981,0,0,0,0,0,0,0,-1,1721,1520,13.9297,-12.2982
504,-496,16.3271,16.6501,0,0,0,0,0,0,0,-1,1728,1520,16.3272,-16.6502
511,-496,17.6753,18.0685,0,0,0,0,0,0,0,-1,1735,1520,17.6753,-18.0685
518,-496,17.0537,17.3118,0,0,0,0,0,0,0,-1,1742,1520,17.0538,-17.3118
525,-496,18.2721,19.3259,0,0,0,0,0,0,0,-1,1749,1520,18.2721,-19.3259
532,-496,29.5594,34.8182,0,0,0,0,0,0,0,-1,1756,1520,29.5594,-34.8182
539,-496,29.0769,34.928,0,0,0,0,0,0,0,-1,1763,1520,29.0769,-34.928
546,-496,29.3295,33.8281,0.00840797,0.00680776,-0.00573545,0.0133988,0.00181688,-0.716095,0.00839275,0.0240501,1770,1520,29.3295,-33.8281
553,-496,29.424,32.891,0.00671543,0.00518024,-0.00432801,0.0103434,0.00155228,-0.697634,0.00644082,0.0157064,1777,1520,29.4239,-32.891
560,-496,29.3939,32.1101,0.00536961,0.00385032,-0.00323319,0.0079312,0.00128873,-0.670015,0.00491454,0.0148839,1784,1520,29.3939,-32.1101
567,-496,29.3413,31.3007,0.00433826,0.00281376,-0.00247685,0.0061675,0.000984522,-0.636123,0.00382595,0.0131179,1791,1520,29.3414,-31.3006
574,-496,29.2972,30.4701,0.00357358,0.0020587,-0.00197525,0.00493164,0.00070064,-0.602313,0.00308088,0.0139063,1798,1520,29.2972,-30.4701
581,-496,29.2454,29.692,0.00297802,0.0014635,-0.00159282,0.00398443,0.000457095,-0.563503,0.00251779,0.0145847,1805,1520,29.2454,-29.692
588,-496,29.2098,28.9194,0.0026169,0.00103545,-0.00139085,0.00342608,0.000226271,-0.526923,0.00221249,0.0170671,1812,1520,29.2098,-28.9195
595,-496,29.1639,28.109,0.00246039,0.000778154,-0.00122312,0.00310369,0.000134851,-0.484193,0.00202567,0.0185717,1819,1520,29.1639,-28.109
602,-496,29.1323,27.3033,0.00241812,0.000692557,-0.00115218,0.00299475,0.000115923,-0.464024,0.001959,0.0196538,1826,1520,29.1323,-27.3034
609,-496,29.1078,26.4373,0.00241196,0.000628067,-0.00102768,0.00288078,0.000159246,-0.427994,0.0018697,0.0192597,1833,1520,29.1077,-26.4373
616,-496,29.094,25.332,0,0,0,0,0,0,0,-1,1840,1520,29.0941,-25.332
623,-496,28.9139,24.1847,0,0,0,0,0,0,0,-1,1847,1520,28.9139,-24.1846
630,-496,18.5656,13.8966,0,0,0,0,0,0,0,-1,1854,1520,18.5655,-13.8967
637,-496,14.6411,10.1016,0,0,0,0,0,0,0,-1,1861,1520,14.6411,-10.1016
644,-496,12.4537,10.087,0,0,0,0,0,0,0,-1,1868,1520,12.4537,-10.0871
651,-496,8.18506,5.47803,0,0,0,0,0,0,0,-1,1875,1520,8.18505,-5.47806
658,-496,7.79993,4.02563,0,0,0,0,0,0,0,-1,1882,1520,7.79997,-4.02568
665,-496,5.47583,7.90625,0,0,0,0,0,0,0,-1,1889,1520,5.47581,-7.90628
672,-496,0,0,0,0,0,0,0,0,0,-1,1896,1520,0,0
679,-496,0,0,0,0,0,0,0,0,0,-1,1903,1520,0,0
686,-496,0,0,0,0,0,0,0,0,0,-1,1910,1520,0,0
693,-496,0,0,0,0,0,0,0,0,0,-1,1917,1520,0,0
700,-496,0,0,0,0,0,0,0,0,0,-1,1924,1520,0,0
707,-496,0,0,0,0,0,0,0,0,0,-1,1931,1520,0,0
714,-496,0,0,0,0,0,0,0,0,0,-1,1938,1520,0,0
721,-496,0,0,0,0,0,0,0,0,0,-1,1945,1520,0,0
728,-496,0,0,0,0,0,0,0,0,0,-1,1952,1520,0,0
735,-496,0,0,0,0,0,0,0,0,0,-1,1959,1520,0,0
742,-496,0,0,0,0,0,0,0,0,0,-1,1966,1520,0,0
749,-496,0,0,0,0,0,0,0,0,0,-1,1973,1520,0,0
756,-496,0,0,0,0,0,0,0,0,0,-1,1980,1520,0,0
763,-496,0,0,0,0,0,0,0,0,0,-1,1987,1520,0,0
770,-496,0,0,0,0,0,0,0,0,0,-1,1994,1520,0,0
777,-496,0,0,0,0,0,0,0,0,0,-1,2001,1520,0,0
784,-496,0,0,0,0,0,0,0,0,0,-1,2008,1520,0,0
791,-496,0,0,0,0,0,0,0,0,0,-1,2015,1520,0,0
798,-496,0,0,0,0,0,0,0,0,0,-1,2022,1520,0,0
805,-496,0,0,0,0,0,0,0,0,0,-1,2029,1520,0,0
812,-496,0,0,0,0,0,0,0,0,0,-1,2036,1520,0,0
-700,-503,0,0,0,0,0,0,0,0,0,-1,524,1527,0,0
-693,-503,0,0,0,0,0,0,0,0,0,-1,531,1527,0,0
-686,-503,0,0,0,0,0,0,0,0,0,-1,538,1527,0,0
-679,-503,0,0,0,0,0,0,0,0,0,-1,545,1527,0,0
-672,-503,0,0,0,0,0,0,0,0,0,-1,552,1527,0,0
-665,-503,0,0,0,0,0,0,0,0,0,-1,559,1527,0,0
-658,-503,0,0,0,0,0,0,0,0,0,-1,566,1527,0,0
-651,-503,0,0,0,0,0,0,0,0,0,-1,573,1527,0,0
-644,-503,0,0,0,0,0,0,0,0,0,-1,580,1527,0,0
-637,-503,0,0,0,0,0,0,0,0,0,-1,587,1527,0,0
-630,-503,0,0,0,0,0,0,0,0,0,-1,594,1527,0,0
-623,-503,0,0,0,0,0,0,0,0,0,-1,601,1527,0,0
-616,-503,0,0,0,0,0,0,0,0,0,-1,608,1527,0,0
-609,-503,0,0,0,0,0,0,0,0,0,-1,615,1527,0,0
-602,-503,0,0,0,0,0,0,0,0,0,-1,622,1527,0,0
-595,-503,0,0,0,0,0,0,0,0,0,-1,629,1527,0,0
-588,-503,0,0,0,0,0,0,0,0,0,-1,636,1527,0,0
-581,-503,0,0,0,0,0,0,0,0,0,-1,643,1527,0,0
-574,-503,0,0,0,0,0,0,0,0,0,-1,650,1527,0,0
-567,-503,0,0,0,0,0,0,0,0,0,-1,657,1527,0,0
-560,-503,0,0,0,0,0,0,0,0,0,-1,664,1527,0,0
-553,-503,0,0,0,0,0,0,0,0,0,-1,671,1527,0,0
-546,-503,0,0,0,0,0,0,0,0,0,-1,678,1527,0,0
-539,-503,3.50177,4.26428,0,0,0,0,0,0,0,-1,685,1527,3.50177,-4.26424
-532,-503,-3.13196,1.05298,0,0,0,0,0,0,0,-1,692,1527,-3.13194,-1.05299
-525,-503,-2.94293,2.59314,0,0,0,0,0,0,0,-1,699,1527,-2.94296,-2.59314
-518,-503,-2.7395,4.05872,0,0,0,0,0,0,0,-1,706,1527,-2.73948,-4.05871
-511,-503,-1.60022,7.23877,0,0,0,0,0,0,0,-1,713,1527,-1.60023,-7.23872
-504,-503,-8.1402,10.1541,0,0,0,0,0,0,0,-1,720,1527,-8.14017,-10.1541
-497,-503,-4.51758,14.0781,0,0,0,0,0,0,0,-1,727,1527,-4.5176,-14.0782
-490,-503,-4.24194,16.1982,0,0,0,0,0,0,0,-1,734,1527,-4.24196,-16.1982
-483,-503,-9.55774,23.7681,0,0,0,0,0,0,0,-1,741,1527,-9.55776,-23.7681
-476,-503,-10.9664,26.5876,0,0,0,0,0,0,0,-1,748,1527,-10.9664,-26.5877
-469,-503,-10.981,27.5212,0.0025573,0.0014414,0.00255553,0.00461508,-0.000616384,0.677919,0.00330142,0.0203968,755,1527,-10.9809,-27.5212
-462,-503,-11.0137,28.3765,0.00194406,0.000883491,0.00180565,0.00329568,-0.000468126,0.642573,0.00236863,0.0124296,762,1527,-11.0137,-28.3764
-455,-503,-11.0393,29.2338,0.00160819,0.00077205,0.00139963,0.00265086,-0.000270613,0.640265,0.001864,0.0191988,769,1527,-11.0393,-29.2337
-448,-503,-11.0757,30.0718,0.0015855,0.000972753,0.00129879,0.00261356,-5.5316e-05,0.669571,0.0017611,0.0176242,776,1527,-11.0757,-30.0717
-441,-503,-11.0986,30.8712,0.00182333,0.00150958,0.00149808,0.00317272,0.000160184,0.73323,0.00206382,0.0138626,783,1527,-11.0987,-30.8712
-434,-503,-11.178,31.6917,0.0022745,0.00235048,0.00194069,0.00425355,0.000371434,0.795185,0.00272036,0.0121464,790,1527,-11.178,-31.6917
-427,-503,-11.2567,32.4974,0.00293206,0.00332006,0.00254985,0.00568328,0.000568836,0.823367,0.00361419,0.0190763,797,1527,-11.2567,-32.4975
-420,-503,-11.2808,33.2977,0.0038487,0.00452776,0.00338988,0.00759507,0.00078139,0.835312,0.00482406,0.0196621,804,1527,-11.2808,-33.2977
-413,-503,-11.3325,34.1277,0.00502273,0.00592027,0.00444588,0.00993998,0.00100302,0.835698,0.0063189,0.0170447,811,1527,-11.3325,-34.1276
-406,-503,-11.3304,34.9788,0.00642369,0.00758814,0.00574679,0.0127821,0.0012297,0.835882,0.00814253,0.0276219,818,1527,-11.3304,-34.9787
-399,-503,-11.168,36.0717,0.0081456,0.00932107,0.00728003,0.0160371,0.00142961,0.825677,0.0102481,0.0491644,825,1527,-11.1679,-36.0716
-392,-503,-10.7637,37.4486,0,0,0,0,0,0,0,-1,832,1527,-10.7637,-37.4486
-385,-503,-2.00403,14.1218,0,0,0,0,0,0,0,-1,839,1527,-2.00403,-14.1218
-378,-503,-2.07043,13.8632,0,0,0,0,0,0,0,-1,846,1527,-2.07043,-13.8631
-371,-503,-1.67285,13.8081,0,0,0,0,0,0,0,-1,853,1527,-1.67285,-13.8081
-364,-503,0.181396,12.3768,0,0,0,0,0,0,0,-1,860,1527,0.18138,-12.3768
-357,-503,0.558533,9.25452,0,0,0,0,0,0,0,-1,867,1527,0.558542,-9.25446
-350,-503,0.219971,6.84827,0,0,0,0,0,0,0,-1,874,1527,0.21996,-6.84831
-343,-503,-3.5802,4.43274,0,0,0,0,0,0,0,-1,881,1527,-3.58018,-4.43276
-336,-503,-3.2384,6.40637,0,0,0,0,0,0,0,-1,888,1527,-3.2384,-6.40643
-329,-503,-1.70691,11.886,0,0,0,0,0,0,0,-1,895,1527,-1.70689,-11.886
-322,-503,-3.31317,8.81519,0,0,0,0,0,0,0,-1,902,1527,-3.31315,-8.81524
-315,-503,-3.90265,7.73853,0,0,0,0,0,0,0,-1,909,1527,-3.90264,-7.73854
-308,-503,-1.70264,7.35413,0,0,0,0,0,0,0,-1,916,1527,-1.70262,-7.35416
-301,-503,0,0,0,0,0,0,0,0,0,-1,923,1527,0,0
-294,-503,0,0,0,0,0,0,0,0,0,-1,930,1527,0,0
-287,-503,0,0,0,0,0,0,0,0,0,-1,937,1527,0,0
-280,-503,0,0,0,0,0,0,0,0,0,-1,944,1527,0,0
-273,-503,0,0,0,0,0,0,0,0,0,-1,951,1527,0,0
-266,-503,0,0,0,0,0,0,0,0,0,-1,958,1527,0,0
-259,-503,0,0,0,0,0,0,0,0,0,-1,965,1527,0,0
-252,-503,0,0,0,0,0,0,0,0,0,-1,972,1527,0,0
-245,-503,0,0,0,0,0,0,0,0,0,-1,979,1527,0,0
-238,-503,0,0,0,0,0,0,0,0,0,-1,986,1527,0,0
-231,-503,0,0,0,0,0,0,0,0,0,-1,993,1527,0,0
-224,-503,0,0,0,0,0,0,0,0,0,-1,1000,1527,0,0
-217,-503,0,0,0,0,0,0,0,0,0,-1,1007,1527,0,0
-210,-503,0,0,0,0,0,0,0,0,0,-1,1014,1527,0,0
-203,-503,0,0,0,0,0,0,0,0,0,-1,1021,1527,0,0
-196,-503,0,0,0,0,0,0,0,0,0,-1,1028,1527,0,0
-189,-503,0,0,0,0,0,0,0,0,0,-1,1035,1527,0,0
-182,-503,0,0,0,0,0,0,0,0,0,-1,1042,1527,0,0
-175,-503,0,0,0,0,0,0,0,0,0,-1,1049,1527,0,0
-168,-503,0,0,0,0,0,0,0,0,0,-1,1056,1527,0,0
-161,-503,0,0,0,0,0,0,0,0,0,-1,1063,1527,0,0
-154,-503,0,0,0,0,0,0,0,0,0,-1,1070,1527,0,0
-147,-503,0,0,0,0,0,0,0,0,0,-1,1077,1527,0,0
-140,-503,0,0,0,0,0,0,0,0,0,-1,1084,1527,0,0
-133,-503,0,0,0,0,0,0,0,0,0,-1,1091,1527,0,0
-126,-503,0,0,0,0,0,0,0,0,0,-1,1098,1527,0,0
-119,-503,0,0,0,0,0,0,0,0,0,-1,1105,1527,0,0
-112,-503,0,0,0,0,0,0,0,0,0,-1,1112,1527,0,0
-105,-503,0,0,0,0,0,0,0,0,0,-1,1119,1527,0,0
-98,-503,0,0,0,0,0,0,0,0,0,-1,1126,1527,0,0
-91,-503,0,0,0,0,0,0,0,0,0,-1,1133,1527,0,0
-84,-503,0,0,0,0,0,0,0,0,0,-1,1140,1527,0,0
-77,-503,0,0,0,0,0,0,0,0,0,-1,1147,1527,0,0
-70,-503,0,0,0,0,0,0,0,0,0,-1,1154,1527,0,0
-63,-503,0,0,0,0,0,0,0,0,0,-1,1161,1527,0,0
-56,-503,0,0,0,0,0,0,0,0,0,-1,1168,1527,0,0
-49,-503,0,0,0,0,0,0,0,0,0,-1,1175,1527,0,0
-42,-503,0,0,0,0,0,0,0,0,0,-1,1182,1527,0,0
-35,-503,0,0,0,0,0,0,0,0,0,-1,1189,1527,0,0
-28,-503,0,0,0,0,0,0,0,0,0,-1,1196,1527,0,0
-21,-503,0,0,0,0,0,0,0,0,0,-1,1203,1527,0,0
-14,-503,0,0,0,0,0,0,0,0,0,-1,1210,1527,0,0
-7,-503,0,0,0,0,0,0,0,0,0,-1,1217,1527,0,0
0,-503,0,0,0,0,0,0,0,0,0,-1,1224,1527,0,0
7,-503,0,0,0,0,0,0,0,0,0,-1,1231,1527,0,0
14,-503,0,0,0,0,0,0,0,0,0,-1,1238,1527,0,0
21,-503,0,0,0,0,0,0,0,0,0,-1,1245,1527,0,0
28,-503,0,0,0,0,0,0,0,0,0,-1,1252,1527,0,0
35,-503,0,0,0,0,0,0,0,0,0,-1,1259,1527,0,0
42,-503,0,0,0,0,0,0,0,0,0,-1,1266,1527,0,0
49,-503,0,0,0,0,0,0,0,0,0,-1,1273,1527,0,0
56,-503,0,0,0,0,0,0,0,0,0,-1,1280,1527,0,0
63,-503,0,0,0,0,0,0,0,0,0,-1,1287,1527,0,0
70,-503,0,0,0,0,0,0,0,0,0,-1,1294,1527,0,0
77,-503,0,0,0,0,0,0,0,0,0,-1,1301,1527,0,0
84,-503,0,0,0,0,0,0,0,0,0,-1,1308,1527,0,0
91,-503,0,0,0,0,0,0,0,0,0,-1,1315,1527,0,0
98,-503,0,0,0,0,0,0,0,0,0,-1,1322,1527,0,0
105,-503,0,0,0,0,0,0,0,0,0,-1,1329,1527,0,0
112,-503,0,0,0,0,0,0,0,0,0,-1,1336,1527,0,0
119,-503,0,0,0,0,0,0,0,0,0,-1,1343,1527,0,0
126,-503,0,0,0,0,0,0,0,0,0,-1,1350,1527,0,0
133,-503,0,0,0,0,0,0,0,0,0,-1,1357,1527,0,0
140,-503,0,0,0,0,0,0,0,0,0,-1,1364,1527,0,0
147,-503,0,0,0,0,0,0,0,0,0,-1,1371,1527,0,0
154,-503,0,0,0,0,0,0,0,0,0,-1,1378,1527,0,0
161,-503,0,0,0,0,0,0,0,0,0,-1,1385,1527,0,0
168,-503,0,0,0,0,0,0,0,0,0,-1,1392,1527,0,0
175,-503,0,0,0,0,0,0,0,0,0,-1,1399,1527,0,0
182,-503,0,0,0,0,0,0,0,0,0,-1,1406,1527,0,0
189,-503,0,0,0,0,0,0,0,0,0,-1,1413,1527,0,0
196,-503,0,0,0,0,0,0,0,0,0,-1,1420,1527,0,0
203,-503,0,0,0,0,0,0,0,0,0,-1,1427,1527,0,0
210,-503,0,0,0,0,0,0,0,0,0,-1,1434,1527,0,0
217,-503,0,0,0,0,0,0,0,0,0,-1,1441,1527,0,0
224,-503,0,0,0,0,0,0,0,0,0,-1,1448,1527,0,0
231,-503,0,0,0,0,0,0,0,0,0,-1,1455,1527,0,0
238,-503,0,0,0,0,0,0,0,0,0,-1,1462,1527,0,0
245,-503,0,0,0,0,0,0,0,0,0,-1,1469,1527,0,0
252,-503,0,0,0,0,0,0,0,0,0,-1,1476,1527,0,0
259,-503,0,0,0,0,0,0,0,0,0,-1,1483,1527,0,0
266,-503,0,0,0,0,0,0,0,0,0,-1,1490,1527,0,0
273,-503,0,0,0,0,0,0,0,0,0,-1,1497,1527,0,0
280,-503,0,0,0,0,0,0,0,0,0,-1,1504,1527,0,0
287,-503,0,0,0,0,0,0,0,0,0,-1,1511,1527,0,0
294,-503,0,0,0,0,0,0,0,0,0,-1,1518,1527,0,0
301,-503,0,0,0,0,0,0,0,0,0,-1,1525,1527,0,0
308,-503,0,0,0,0,0,0,0,0,0,-1,1532,1527,0,0
315,-503,0,0,0,0,0,0,0,0,0,-1,1539,1527,0,0
322,-503,0,0,0,0,0,0,0,0,0,-1,1546,1527,0,0
329,-503,0,0,0,0,0,0,0,0,0,-1,1553,1527,0,0
336,-503,0,0,0,0,0,0,0,0,0,-1,1560,1527,0,0
343,-503,0,0,0,0,0,0,0,0,0,-1,1567,1527,0,0
350,-503,0,0,0,0,0,0,0,0,0,-1,1574,1527,0,0
357,-503,0,0,0,0,0,0,0,0,0,-1,1581,1527,0,0
364,-503,0,0,0,0,0,0,0,0,0,-1,1588,1527,0,0
371,-503,0,0,0,0,0,0,0,0,0,-1,1595,1527,0,0
378,-503,0,0,0,0,0,0,0,0,0,-1,1602,1527,0,0
385,-503,0,0,0,0,0,0,0,0,0,-1,1609,1527,0,0
392,-503,0,0,0,0,0,0,0,0,0,-1,1616,1527,0,0
399,-503,0,0,0,0,0,0,0,0,0,-1,1623,1527,0,0
406,-503,0,0,0,0,0,0,0,0,0,-1,1630,1527,0,0
413,-503,0,0,0,0,0,0,0,0,0,-1,1637,1527,0,0
420,-503,0,0,0,0,0,0,0,0,0,-1,1644,1527,0,0
427,-503,10.5968,4.9856,0,0,0,0,0,0,0,-1,1651,1527,10.5969,-4.98563
434,-503,11.4329,3.97217,0,0,0,0,0,0,0,-1,1658,1527,11.4328,-3.97222
441,-503,12.0957,2.96509,0,0,0,0,0,0,0,-1,1665,1527,12.0957,-2.96512
448,-503,12.3259,2.53894,0,0,0,0,0,0,0,-1,1672,1527,12.326,-2.53895
455,-503,12.1669,2.18762,0,0,0,0,0,0,0,-1,1679,1527,12.1668,-2.18767
462,-503,11.59,2.60791,0,0,0,0,0,0,0,-1,1686,1527,11.5899,-2.60794
469,-503,11.1625,1.61853,0,0,0,0,0,0,0,-1,1693,1527,11.1625,-1.61856
476,-503,9.07703,5.81042,0,0,0,0,0,0,0,-1,1700,1527,9.07699,-5.81047
483,-503,9.74414,6.92432,0,0,0,0,0,0,0,-1,1707,1527,9.74417,-6.9243
490,-503,10.5033,10.1071,0,0,0,0,0,0,0,-1,1714,1527,10.5032,-10.107
497,-503,15.0057,17.9476,0,0,0,0,0,0,0,-1,1721,1527,15.0058,-17.9476
504,-503,16.4764,18.4486,0,0,0,0,0,0,0,-1,1728,1527,16.4764,-18.4486
511,-503,16.8276,18.3271,0,0,0,0,0,0,0,-1,1735,1527,16.8276,-18.3272
518,-503,17.2533,18.2738,0,0,0,0,0,0,0,-1,1742,1527,17.2533,-18.2738
525,-503,21.2887,26.5785,0,0,0,0,0,0,0,-1,1749,1527,21.2887,-26.5785
532,-503,28.5273,35.6167,0,0,0,0,0,0,0,-1,1756,1527,28.5273,-35.6167
539,-503,28.5784,34.6851,0.00870373,0.00733478,-0.00614318,0.0142005,0.00183806,-0.729917,0.00891765,0.0336695,1763,1527,28.5784,-34.685
546,-503,28.6287,33.7467,0.00681304,0.0057428,-0.00471214,0.0110203,0.00153549,-0.728859,0.00689232,0.0145513,1770,1527,28.6287,-33.7468
553,-503,28.6361,32.9406,0.00543933,0.0043939,-0.00358126,0.00853582,0.00129741,-0.71293,0.00531117,0.0144776,1777,1527,28.6361,-32.9405
560,-503,28.5718,32.1509,0.00437402,0.00327134,-0.00269856,0.00657698,0.00106837,-0.684631,0.00407548,0.0141661,1784,1527,28.5718,-32.1509
567,-503,28.5129,31.3253,0.00360618,0.00241668,-0.00211789,0.00521124,0.000811618,-0.648512,0.00323771,0.0132436,1791,1527,28.5129,-31.3253
574,-503,28.4978,30.4974,0.00309311,0.00182251,-0.00176769,0.0043362,0.000579424,-0.612888,0.00271832,0.0134716,1798,1527,28.4978,-30.4975
581,-503,28.4392,29.7208,0.00275543,0.0013664,-0.00153532,0.00374602,0.000375815,-0.572992,0.00238198,0.0143386,1805,1527,28.4392,-29.7208
588,-503,28.3934,28.9655,0.00264117,0.00109151,-0.00149638,0.00355143,0.000181255,-0.546505,0.00230957,0.0178373,1812,1527,28.3934,-28.9654
595,-503,28.3728,28.1337,0.0027163,0.00101061,-0.00151729,0.003604,0.000122897,-0.529362,0.00236277,0.0136282,1819,1527,28.3728,-28.1337
602,-503,28.3956,27.2683,0.00292076,0.00114821,-0.00164792,0.00390562,0.000163353,-0.538679,0.00255104,0.0249981,1826,1527,28.3956,-27.2683
609,-503,28.4191,26.2874,0,0,0,0,0,0,0,-1,1833,1527,28.4191,-26.2874
616,-503,27.9205,24.2308,0,0,0,0,0,0,0,-1,1840,1527,27.9206,-24.2309
623,-503,18.7351,15.5999,0,0,0,0,0,0,0,-1,1847,1527,18.7351,-15.5999
630,-503,20.6721,13.9077,0,0,0,0,0,0,0,-1,1854,1527,20.6721,-13.9077
637,-503,14.5564,9.20496,0,0,0,0,0,0,0,-1,1861,1527,14.5564,-9.2049
644,-503,11.4802,7.57214,0,0,0,0,0,0,0,-1,1868,1527,11.4802,-7.57215
651,-503,11.5718,6.5448,0,0,0,0,0,0,0,-1,1875,1527,11.5718,-6.54476
658,-503,8.25635,3.10498,0,0,0,0,0,0,0,-1,1882,1527,8.2563,-3.10493
665,-503,0,0,0,0,0,0,0,0,0,-1,1889,1527,0,0
672,-503,0,0,0,0,0,0,0,0,0,-1,1896,1527,0,0
679,-503,0,0,0,0,0,0,0,0,0,-1,1903,1527,0,0
686,-503,0,0,0,0,0,0,0,0,0,-1,1910,1527,0,0
693,-503,0,0,0,0,0,0,0,0,0,-1,1917,1527,0,0
700,-503,0,0,0,0,0,0,0,0,0,-1,1924,1527,0,0
707,-503,0,0,0,0,0,0,0,0,0,-1,1931,1527,0,0
714,-503,0,0,0,0,0,0,0,0,0,-1,1938,1527,0,0
721,-503,0,0,0,0,0,0,0,0,0,-1,1945,1527,0,0
728,-503,0,0,0,0,0,0,0,0,0,-1,1952,1527,0,0
735,-503,0,0,0,0,0,0,0,0,0,-1,1959,1527,0,0
742,-503,0,0,0,0,0,0,0,0,0,-1,1966,1527,0,0
749,-503,0,0,0,0,0,0,0,0,0,-1,1973,1527,0,0
756,-503,0,0,0,0,0,0,0,0,0,-1,1980,1527,0,0
763,-503,0,0,0,0,0,0,0,0,0,-1,1987,1527,0,0
770,-503,0,0,0,0,0,0,0,0,0,-1,1994,1527,0,0
777,-503,0,0,0,0,0,0,0,0,0,-1,2001,1527,0,0
784,-503,0,0,0,0,0,0,0,0,0,-1,2008,1527,0,0
791,-503,0,0,0,0,0,0,0,0,0,-1,2015,1527,0,0
798,-503,0,0,0,0,0,0,0,0,0,-1,2022,1527,0,0
805,-503,0,0,0,0,0,0,0,0,0,-1,2029,1527,0,0
812,-503,0,0,0,0,0,0,0,0,0,-1,2036,1527,0,0
-700,-510,0,0,0,0,0,0,0,0,0,-1,524,1534,0,0
-693,-510,0,0,0,0,0,0,0,0,0,-1,531,1534,0,0
-686,-510,0,0,0,0,0,0,0,0,0,-1,538,1534,0,0
-679,-510,0,0,0,0,0,0,0,0,0,-1,545,1534,0,0
-672,-510,0,0,0,0,0,0,0,0,0,-1,552,1534,0,0
-665,-510,0,0,0,0,0,0,0,0,0,-1,559,1534,0,0
-658,-510,0,0,0,0,0,0,0,0,0,-1,566,1534,0,0
-651,-510,0,0,0,0,0,0,0,0,0,-1,573,1534,0,0
-644,-510,0,0,0,0,0,0,0,0,0,-1,580,1534,0,0
-637,-510,0,0,0,0,0,0,0,0,0,-1,587,1534,0,0
-630,-510,0,0,0,0,0,0,0,0,0,-1,594,1534,0,0
-623,-510,0,0,0,0,0,0,0,0,0,-1,601,1534,0,0
-616,-510,0,0,0,0,0,0,0,0,0,-1,608,1534,0,0
-609,-510,0,0,0,0,0,0,0,0,0,-1,615,1534,0,0
-602,-510,0,0,0,0,0,0,0,0,0,-1,622,1534,0,0
-595,-510,0,0,0,0,0,0,0,0,0,-1,629,1534,0,0
-588,-510,0,0,0,0,0,0,0,0,0,-1,636,1534,0,0
-581,-510,0,0,0,0,0,0,0,0,0,-1,643,1534,0,0
-574,-510,0,0,0,0,0,0,0,0,0,-1,650,1534,0,0
-567,-510,0,0,0,0,0,0,0,0,0,-1,657,1534,0,0
-560,-510,0,0,0,0,0,0,0,0,0,-1,664,1534,0,0
-553,-510,0,0,0,0,0,0,0,0,0,-1,671,1534,0,0
-546,-510,0,0,0,0,0,0,0,0,0,-1,678,1534,0,0
-539,-510,0,0,0,0,0,0,0,0,0,-1,685,1534,0,0
-532,-510,-3.95129,4.52014,0,0,0,0,0,0,0,-1,692,1534,-3.95131,-4.5202
-525,-510,-2.77411,0.316772,0,0,0,0,0,0,0,-1,699,1534,-2.77409,-0.3168
-518,-510,-2.86847,2.71423,0,0,0,0,0,0,0,-1,706,1534,-2.86849,-2.71424
-511,-510,-2.28571,4.48083,0,0,0,0,0,0,0,-1,713,1534,-2.28571,-4.48086
-504,-510,-4.86731,10.8224,0,0,0,0,0,0,0,-1,720,1534,-4.8673,-10.8224
-497,-510,-3.42352,15.5178,0,0,0,0,0,0,0,-1,727,1534,-3.42352,-15.5178
-490,-510,-5.9472,18.5184,0,0,0,0,0,0,0,-1,734,1534,-5.94718,-18.5185
-483,-510,-6.79639,20.8453,0,0,0,0,0,0,0,-1,741,1534,-6.79638,-20.8454
-476,-510,-10.246,26.6918,0,0,0,0,0,0,0,-1,748,1534,-10.246,-26.6918
-469,-510,-10.1406,27.5863,0.00288793,0.0011939,0.00274326,0.00491196,-0.000830131,0.635661,0.00358355,0.0288983,755,1534,-10.1405,-27.5863
-462,-510,-10.1689,28.4193,0.00207433,0.000520461,0.00182306,0.00327911,-0.000684312,0.583967,0.00244629,0.0125231,762,1534,-10.1689,-28.4193
-455,-510,-10.2136,29.2827,0.00155431,0.000343687,0.00128576,0.00237012,-0.000472122,0.565398,0.0017587,0.015486,769,1534,-10.2135,-29.2828
-448,-510,-10.2299,30.108,0.00132894,0.000365886,0.00100518,0.00196197,-0.000267151,0.562026,0.00140552,0.0143476,776,1534,-10.2299,-30.108
-441,-510,-10.2754,30.9186,0.00143542,0.000779153,0.00108567,0.00224146,-2.68839e-05,0.638642,0.00150335,0.0146695,783,1534,-10.2754,-30.9185
-434,-510,-10.3802,31.7015,0.00174882,0.00146659,0.00138701,0.00300188,0.000213533,0.734702,0.00193401,0.0157152,790,1534,-10.3802,-31.7016
-427,-510,-10.4621,32.4696,0.00222946,0.0022366,0.00182065,0.00405368,0.000412376,0.78638,0.00257602,0.0245505,797,1534,-10.4621,-32.4696
-420,-510,-10.4781,33.3445,0.00293446,0.0032242,0.00245293,0.00553653,0.000622128,0.814894,0.00350211,0.0238915,804,1534,-10.4782,-33.3445
-413,-510,-10.5129,34.1947,0.00386101,0.00436297,0.00326465,0.00738627,0.000837707,0.823761,0.00467006,0.0120842,811,1534,-10.5129,-34.1947
-406,-510,-10.5602,35.0154,0.00495291,0.00570206,0.00423926,0.00958326,0.00107171,0.829463,0.00606326,0.0108293,818,1534,-10.5602,-35.0154
-399,-510,-10.5913,35.8213,0.00624845,0.00708665,0.0053385,0.0120225,0.00131263,0.82457,0.00761524,0.0175807,825,1534,-10.5913,-35.8213
-392,-510,-10.5171,36.743,0,0,0,0,0,0,0,-1,832,1534,-10.5171,-36.7431
-385,-510,-7.23199,31.704,0,0,0,0,0,0,0,-1,839,1534,-7.23198,-31.704
-378,-510,-1.78308,13.8044,0,0,0,0,0,0,0,-1,846,1534,-1.78309,-13.8044
-371,-510,-1.74982,13.8027,0,0,0,0,0,0,0,-1,853,1534,-1.74981,-13.8028
-364,-510,-1.3479,13.7771,0,0,0,0,0,0,0,-1,860,1534,-1.34791,-13.7771
-357,-510,-0.254395,8.89575,0,0,0,0,0,0,0,-1,867,1534,-0.254397,-8.89569
-350,-510,0.471191,6.06458,0,0,0,0,0,0,0,-1,874,1534,0.47118,-6.06453
-343,-510,-6.96869,26.3074,0,0,0,0,0,0,0,-1,881,1534,-6.9687,-26.3074
-336,-510,-5.60437,29.5996,0,0,0,0,0,0,0,-1,888,1534,-5.60435,-29.5996
-329,-510,-4.87781,20.6893,0,0,0,0,0,0,0,-1,895,1534,-4.87782,-20.6894
-322,-510,-0.251526,11.973,0,0,0,0,0,0,0,-1,902,1534,-0.251497,-11.9731
-315,-510,-1.73047,10.9796,0,0,0,0,0,0,0,-1,909,1534,-1.73049,-10.9796
-308,-510,-2.05328,9.72034,0,0,0,0,0,0,0,-1,916,1534,-2.05327,-9.72036
-301,-510,-1.85437,11.5869,0,0,0,0,0,0,0,-1,923,1534,-1.85437,-11.5869
-294,-510,0,0,0,0,0,0,0,0,0,-1,930,1534,0,0
-287,-510,0,0,0,0,0,0,0,0,0,-1,937,1534,0,0
-280,-510,0,0,0,0,0,0,0,0,0,-1,944,1534,0,0
-273,-510,0,0,0,0,0,0,0,0,0,-1,951,1534,0,0
-266,-510,0,0,0,0,0,0,0,0,0,-1,958,1534,0,0
-259,-510,0,0,0,0,0,0,0,0,0,-1,965,1534,0,0
-252,-510,0,0,0,0,0,0,0,0,0,-1,972,1534,0,0
-245,-510,0,0,0,0,0,0,0,0,0,-1,979,1534,0,0
-238,-510,0,0,0,0,0,0,0,0,0,-1,986,1534,0,0
-231,-510,0,0,0,0,0,0,0,0,0,-1,993,1534,0,0
-224,-510,0,0,0,0,0,0,0,0,0,-1,1000,1534,0,0
-217,-510,0,0,0,0,0,0,0,0,0,-1,1007,1534,0,0
-210,-510,0,0,0,0,0,0,0,0,0,-1,1014,1534,0,0
-203,-510,0,0,0,0,0,0,0,0,0,-1,1021,1534,0,0
-196,-510,0,0,0,0,0,0,0,0,0,-1,1028,1534,0,0
-189,-510,0,0,0,0,0,0,0,0,0,-1,1035,1534,0,0
-182,-510,0,0,0,0,0,0,0,0,0,-1,1042,1534,0,0
-175,-510,0,0,0,0,0,0,0,0,0,-1,1049,1534,0,0
-168,-510,0,0,0,0,0,0,0,0,0,-1,1056,1534,0,0
-161,-510,0,0,0,0,0,0,0,0,0,-1,1063,1534,0,0
-154,-510,0,0,0,0,0,0,0,0,0,-1,1070,1534,0,0
-147,-510,0,0,0,0,0,0,0,0,0,-1,1077,1534,0,0
-140,-510,0,0,0,0,0,0,0,0,0,-1,1084,1534,0,0
-133,-510,0,0,0,0,0,0,0,0,0,-1,1091,1534,0,0
-126,-510,0,0,0,0,0,0,0,0,0,-1,1098,1534,0,0
-119,-510,0,0,0,0,0,0,0,0,0,-1,1105,1534,0,0
-112,-510,0,0,0,0,0,0,0,0,0,-1,1112,1534,0,0
-105,-510,0,0,0,0,0,0,0,0,0,-1,1119,1534,0,0
-98,-510,0,0,0,0,0,0,0,0,0,-1,1126,1534,0,0
-91,-510,0,0,0,0,0,0,0,0,0,-1,1133,1534,0,0
-84,-510,0,0,0,0,0,0,0,0,0,-1,1140,1534,0,0
-77,-510,0,0,0,0,0,0,0,0,0,-1,1147,1534,0,0
-70,-510,0,0,0,0,0,0,0,0,0,-1,1154,1534,0,0
-63,-510,0,0,0,0,0,0,0,0,0,-1,1161,1534,0,0
-56,-510,0,0,0,0,0,0,0,0,0,-1,1168,1534,0,0
-49,-510,0,0,0,0,0,0,0,0,0,-1,1175,1534,0,0
-42,-510,0,0,0,0,0,0,0,0,0,-1,1182,1534,0,0
-35,-510,0,0,0,0,0,0,0,0,0,-1,1189,1534,0,0
-28,-510,0,0,0,0,0,0,0,0,0,-1,1196,1534,0,0
-21,-510,0,0,0,0,0,0,0,0,0,-1,1203,1534,0,0
-14,-510,0,0,0,0,0,0,0,0,0,-1,1210,1534,0,0
-7,-510,0,0,0,0,0,0,0,0,0,-1,1217,1534,0,0
0,-510,0,0,0,0,0,0,0,0,0,-1,1224,1534,0,0
7,-510,0,0,0,0,0,0,0,0,0,-1,1231,1534,0,0
14,-510,0,0,0,0,0,0,0,0,0,-1,1238,1534,0,0
21,-510,0,0,0,0,0,0,0,0,0,-1,1245,1534,0,0
28,-510,0,0,0,0,0,0,0,0,0,-1,1252,1534,0,0
35,-510,0,0,0,0,0,0,0,0,0,-1,1259,1534,0,0
42,-510,0,0,0,0,0,0,0,0,0,-1,1266,1534,0,0
49,-510,0,0,0,0,0,0,0,0,0,-1,1273,1534,0,0
56,-510,0,0,0,0,0,0,0,0,0,-1,1280,1534,0,0
63,-510,0,0,0,0,0,0,0,0,0,-1,1287,1534,0,0
70,-510,0,0,0,0,0,0,0,0,0,-1,1294,1534,0,0
77,-510,0,0,0,0,0,0,0,0,0,-1,1301,1534,0,0
84,-510,0,0,0,0,0,0,0,0,0,-1,1308,1534,0,0
91,-510,0,0,0,0,0,0,0,0,0,-1,1315,1534,0,0
98,-510,0,0,0,0,0,0,0,0,0,-1,1322,1534,0,0
105,-510,0,0,0,0,0,0,0,0,0,-1,1329,1534,0,0
112,-510,0,0,0,0,0,0,0,0,0,-1,1336,1534,0,0
119,-510,0,0,0,0,0,0,0,0,0,-1,1343,1534,0,0
126,-510,0,0,0,0,0,0,0,0,0,-1,1350,1534,0,0
133,-510,0,0,0,0,0,0,0,0,0,-1,1357,1534,0,0
140,-510,0,0,0,0,0,0,0,0,0,-1,1364,1534,0,0
147,-510,0,0,0,0,0,0,0,0,0,-1,1371,1534,0,0
154,-510,0,0,0,0,0,0,0,0,0,-1,1378,1534,0,0
161,-510,0,0,0,0,0,0,0,0,0,-1,1385,1534,0,0
168,-510,0,0,0,0,0,0,0,0,0,-1,1392,1534,0,0
175,-510,0,0,0,0,0,0,0,0,0,-1,1399,1534,0,0
182,-510,0,0,0,0,0,0,0,0,0,-1,1406,1534,0,0
189,-510,0,0,0,0,0,0,0,0,0,-1,1413,1534,0,0
196,-510,0,0,0,0,0,0,0,0,0,-1,1420,1534,0,0
203,-510,0,0,0,0,0,0,0,0,0,-1,1427,1534,0,0
210,-510,0,0,0,0,0,0,0,0,0,-1,1434,1534,0,0
217,-510,0,0,0,0,0,0,0,0,0,-1,1441,1534,0,0
224,-510,0,0,0,0,0,0,0,0,0,-1,1448,1534,0,0
231,-510,0,0,0,0,0,0,0,0,0,-1,1455,1534,0,0
238,-510,0,0,0,0,0,0,0,0,0,-1,1462,1534,0,0
245,-510,0,0,0,0,0,0,0,0,0,-1,1469,1534,0,0
252,-510,0,0,0,0,0,0,0,0,0,-1,1476,1534,0,0
259,-510,0,0,0,0,0,0,0,0,0,-1,1483,1534,0,0
266,-510,0,0,0,0,0,0,0,0,0,-1,1490,1534,0,0
273,-510,0,0,0,0,0,0,0,0,0,-1,1497,1534,0,0
280,-510,0,0,0,0,0,0,0,0,0,-1,1504,1534,0,0
287,-510,0,0,0,0,0,0,0,0,0,-1,1511,1534,0,0
294,-510,0,0,0,0,0,0,0,0,0,-1,1518,1534,0,0
301,-510,0,0,0,0,0,0,0,0,0,-1,1525,1534,0,0
308,-510,0,0,0,0,0,0,0,0,0,-1,1532,1534,0,0
315,-510,0,0,0,0,0,0,0,0,0,-1,1539,1534,0,0
322,-510,0,0,0,0,0,0,0,0,0,-1,1546,1534,0,0
329,-510,0,0,0,0,0,0,0,0,0,-1,1553,1534,0,0
336,-510,0,0,0,0,0,0,0,0,0,-1,1560,1534,0,0
343,-510,0,0,0,0,0,0,0,0,0,-1,1567,1534,0,0
350,-510,0,0,0,0,0,0,0,0,0,-1,1574,1534,0,0
357,-510,0,0,0,0,0,0,0,0,0,-1,1581,1534,0,0
364,-510,0,0,0,0,0,0,0,0,0,-1,1588,1534,0,0
371,-510,0,0,0,0,0,0,0,0,0,-1,1595,1534,0,0
378,-510,0,0,0,0,0,0,0,0,0,-1,1602,1534,0,0
385,-510,0,0,0,0,0,0,0,0,0,-1,1609,1534,0,0
392,-510,0,0,0,0,0,0,0,0,0,-1,1616,1534,0,0
399,-510,0,0,0,0,0,0,0,0,0,-1,1623,1534,0,0
406,-510,0,0,0,0,0,0,0,0,0,-1,1630,1534,0,0
413,-510,0,0,0,0,0,0,0,0,0,-1,1637,1534,0,0
420,-510,14.1888,6.71936,0,0,0,0,0,0,0,-1,1644,1534,14.1889,-6.71939
427,-510,10.2134,5.59485,0,0,0,0,0,0,0,-1,1651,1534,10.2134,-5.59485
434,-510,11.8219,4.07898,0,0,0,0,0,0,0,-1,1658,1534,11.8219,-4.07895
441,-510,12.6812,3.02991,0,0,0,0,0,0,0,-1,1665,1534,12.6811,-3.0299
448,-510,13.2379,2.2804,0,0,0,0,0,0,0,-1,1672,1534,13.2379,-2.28037
455,-510,9.76892,2.20642,0,0,0,0,0,0,0,-1,1679,1534,9.76894,-2.20647
462,-510,9.84692,2.49182,0,0,0,0,0,0,0,-1,1686,1534,9.84695,-2.49185
469,-510,16.6072,7.26941,0,0,0,0,0,0,0,-1,1693,1534,16.6072,-7.26945
476,-510,15.9199,7.8645,0,0,0,0,0,0,0,-1,1700,1534,15.9199,-7.86455
483,-510,13.0833,8.10938,0,0,0,0,0,0,0,-1,1707,1534,13.0833,-8.10932
490,-510,13.0841,15.3286,0,0,0,0,0,0,0,-1,1714,1534,13.0841,-15.3286
497,-510,15.5652,18.823,0,0,0,0,0,0,0,-1,1721,1534,15.5652,-18.823
504,-510,15.998,18.7478,0,0,0,0,0,0,0,-1,1728,1534,15.998,-18.7478
511,-510,15.9443,18.0476,0,0,0,0,0,0,0,-1,1735,1534,15.9443,-18.0476
518,-510,21.5343,27.1368,0,0,0,0,0,0,0,-1,1742,1534,21.5342,-27.1368
525,-510,27.536,36.5499,0,0,0,0,0,0,0,-1,1749,1534,27.5361,-36.5499
532,-510,27.8546,35.4773,0.00869987,0.00776558,-0.0062358,0.014486,0.00197945,-0.748011,0.00906981,0.032598,1756,1534,27.8546,-35.4772
539,-510,27.9127,34.5514,0.00680069,0.00603431,-0.00485359,0.0112862,0.00154881,-0.746005,0.00706468,0.0143252,1763,1534,27.9127,-34.5514
546,-510,27.8556,33.7859,0.00536604,0.00472796,-0.0037893,0.00884971,0.00124429,-0.7434,0.00553189,0.0136066,1770,1534,27.8555,-33.7859
553,-510,27.8086,32.9768,0.00431711,0.00362874,-0.00292971,0.00692279,0.00102306,-0.726926,0.00431479,0.0142917,1777,1534,27.8086,-32.9769
560,-510,27.745,32.1602,0.00353637,0.00270369,-0.00226014,0.0054182,0.000821868,-0.694314,0.00337173,0.0148649,1784,1534,27.745,-32.1602
567,-510,27.701,31.3517,0.00302879,0.00203026,-0.00185708,0.00445254,0.000606504,-0.654081,0.00278827,0.014503,1791,1534,27.701,-31.3517
574,-510,27.6718,30.58,0.00276338,0.00159944,-0.00166109,0.00394149,0.000421325,-0.616902,0.00249909,0.0151654,1798,1534,27.6717,-30.58
581,-510,27.6238,29.8275,0.00271063,0.00130557,-0.00160046,0.00375596,0.000260242,-0.578583,0.00242189,0.0132889,1805,1534,27.6238,-29.8275
588,-510,27.5912,29.0221,0.00288204,0.00122662,-0.00174353,0.00398435,0.000124305,-0.563782,0.00261578,0.013129,1812,1534,27.5912,-29.0221
595,-510,27.6782,28.0776,0.00321783,0.00138988,-0.00197841,0.00448318,0.000124532,-0.569014,0.00294815,0.0212722,1819,1534,27.6782,-28.0777
602,-510,27.6923,27.1835,0,0,0,0,0,0,0,-1,1826,1534,27.6923,-27.1834
609,-510,21.259,19.222,0,0,0,0,0,0,0,-1,1833,1534,21.259,-19.222
616,-510,18.7024,16.2474,0,0,0,0,0,0,0,-1,1840,1534,18.7024,-16.2474
623,-510,19.6013,14.6211,0,0,0,0,0,0,0,-1,1847,1534,19.6013,-14.6211
630,-510,13.7461,9.30334,0,0,0,0,0,0,0,-1,1854,1534,13.7461,-9.30335
637,-510,11.0155,7.38464,0,0,0,0,0,0,0,-1,1861,1534,11.0155,-7.38463
644,-510,11.5809,7.17126,0,0,0,0,0,0,0,-1,1868,1534,11.5809,-7.17123
651,-510,8.70471,3.5061,0,0,0,0,0,0,0,-1,1875,1534,8.70475,-3.50611
658,-510,0,0,0,0,0,0,0,0,0,-1,1882,1534,0,0
665,-510,0,0,0,0,0,0,0,0,0,-1,1889,1534,0,0
672,-510,0,0,0,0,0,0,0,0,0,-1,1896,1534,0,0
679,-510,0,0,0,0,0,0,0,0,0,-1,1903,1534,0,0
686,-510,0,0,0,0,0,0,0,0,0,-1,1910,1534,0,0
693,-510,0,0,0,0,0,0,0,0,0,-1,1917,1534,0,0
700,-510,0,0,0,0,0,0,0,0,0,-1,1924,1534,0,0
707,-510,0,0,0,0,0,0,0,0,0,-1,1931,1534,0,0
714,-510,0,0,0,0,0,0,0,0,0,-1,1938,1534,0,0
721,-510,0,0,0,0,0,0,0,0,0,-1,1945,1534,0,0
728,-510,0,0,0,0,0,0,0,0,0,-1,1952,1534,0,0
735,-510,0,0,0,0,0,0,0,0,0,-1,1959,1534,0,0
742,-510,0,0,0,0,0,0,0,0,0,-1,1966,1534,0,0
749,-510,0,0,0,0,0,0,0,0,0,-1,1973,1534,0,0
756,-510,0,0,0,0,0,0,0,0,0,-1,1980,1534,0,0
763,-510,0,0,0,0,0,0,0,0,0,-1,1987,1534,0,0
770,-510,0,0,0,0,0,0,0,0,0,-1,1994,1534,0,0
777,-510,0,0,0,0,0,0,0,0,0,-1,2001,1534,0,0
784,-510,0,0,0,0,0,0,0,0,0,-1,2008,1534,0,0
791,-510,0,0,0,0,0,0,0,0,0,-1,2015,1534,0,0
798,-510,0,0,0,0,0,0,0,0,0,-1,2022,1534,0,0
805,-510,0,0,0,0,0,0,0,0,0,-1,2029,1534,0,0
812,-510,0,0,0,0,0,0,0,0,0,-1,2036,1534,0,0
-700,-517,0,0,0,0,0,0,0,0,0,-1,524,1541,0,0
-693,-517,0,0,0,0,0,0,0,0,0,-1,531,1541,0,0
-686,-517,0,0,0,0,0,0,0,0,0,-1,538,1541,0,0
-679,-517,0,0,0,0,0,0,0,0,0,-1,545,1541,0,0
-672,-517,0,0,0,0,0,0,0,0,0,-1,552,1541,0,0
-665,-517,0,0,0,0,0,0,0,0,0,-1,559,1541,0,0
-658,-517,0,0,0,0,0,0,0,0,0,-1,566,1541,0,0
-651,-517,0,0,0,0,0,0,0,0,0,-1,573,1541,0,0
-644,-517,0,0,0,0,0,0,0,0,0,-1,580,1541,0,0
-637,-517,0,0,0,0,0,0,0,0,0,-1,587,1541,0,0
-630,-517,0,0,0,0,0,0,0,0,0,-1,594,1541,0,0
-623,-517,0,0,0,0,0,0,0,0,0,-1,601,1541,0,0
-616,-517,0,0,0,0,0,0,0,0,0,-1,608,1541,0,0
-609,-517,0,0,0,0,0,0,0,0,0,-1,615,1541,0,0
-602,-517,0,0,0,0,0,0,0,0,0,-1,622,1541,0,0
-595,-517,0,0,0,0,0,0,0,0,0,-1,629,1541,0,0
-588,-517,0,0,0,0,0,0,0,0,0,-1,636,1541,0,0
-581,-517,0,0,0,0,0,0,0,0,0,-1,643,1541,0,0
-574,-517,0,0,0,0,0,0,0,0,0,-1,650,1541,0,0
-567,-517,0,0,0,0,0,0,0,0,0,-1,657,1541,0,0
-560,-517,0,0,0,0,0,0,0,0,0,-1,664,1541,0,0
-553,-517,0,0,0,0,0,0,0,0,0,-1,671,1541,0,0
-546,-517,0,0,0,0,0,0,0,0,0,-1,678,1541,0,0
-539,-517,0,0,0,0,0,0,0,0,0,-1,685,1541,0,0
-532,-517,0,0,0,0,0,0,0,0,0,-1,692,1541,0,0
-525,-517,-3.62903,4.3606,0,0,0,0,0,0,0,-1,699,1541,-3.62904,-4.36056
-518,-517,-1.664,2.27209,0,0,0,0,0,0,0,-1,706,1541,-1.66399,-2.27207
-511,-517,-0.999146,5.52063,0,0,0,0,0,0,0,-1,713,1541,-0.999126,-5.52059
-504,-517,-1.06946,8.67432,0,0,0,0,0,0,0,-1,720,1541,-1.06947,-8.6743
-497,-517,-5.43036,17.4033,0,0,0,0,0,0,0,-1,727,1541,-5.43033,-17.4034
-490,-517,-6.20526,19.4496,0,0,0,0,0,0,0,-1,734,1541,-6.20526,-19.4495
-483,-517,-6.2254,20.368,0,0,0,0,0,0,0,-1,741,1541,-6.22542,-20.368
-476,-517,-8.65912,26.1796,0,0,0,0,0,0,0,-1,748,1541,-8.65911,-26.1796
-469,-517,-9.25006,27.5837,0,0,0,0,0,0,0,-1,755,1541,-9.25007,-27.5837
-462,-517,-9.36194,28.4114,0.00224687,0.000144297,0.00177788,0.00326103,-0.000869857,0.518393,0.00251463,0.0347611,762,1541,-9.36191,-28.4114
-455,-517,-9.3938,29.3055,0.00156438,-5.97398e-05,0.0011539,0.00216332,-0.000658684,0.478779,0.00170473,0.0197408,769,1541,-9.39381,-29.3056
-448,-517,-9.41101,30.1713,0.00115023,-0.000224571,0.000716022,0.0014554,-0.000529746,0.402895,0.00118693,0.0144672,776,1541,-9.41101,-30.1712
-441,-517,-9.48102,30.9832,0.0011475,9.32858e-05,0.000714894,0.0015086,-0.000267816,0.467729,0.00110587,0.0126377,783,1541,-9.48099,-30.9831
-434,-517,-9.52893,31.7644,0.00134725,0.000651953,0.000913972,0.00197746,2.1746e-05,0.603661,0.00131112,0.0155715,790,1541,-9.52892,-31.7644
-427,-517,-9.58356,32.5547,0.00167735,0.00127281,0.00121906,0.00271081,0.000239353,0.703185,0.00173294,0.015393,797,1541,-9.58354,-32.5546
-420,-517,-9.64526,33.3923,0.00219564,0.0020752,0.00168069,0.00381719,0.000453645,0.76749,0.00240787,0.0301311,804,1541,-9.64525,-33.3924
-413,-517,-9.71979,34.2218,0.00290532,0.00299244,0.00228742,0.00523672,0.000661041,0.794919,0.00329299,0.0160904,811,1541,-9.71979,-34.2218
-406,-517,-9.74335,35.0637,0.00373344,0.00404874,0.00299613,0.00689137,0.000890822,0.811683,0.00432797,0.0111751,818,1541,-9.74337,-35.0637
-399,-517,-9.75537,35.8826,0.00468253,0.00512901,0.00375708,0.00866947,0.00114206,0.815072,0.00543908,0.0116854,825,1541,-9.75539,-35.8826
-392,-517,-9.76526,36.7155,0.00560217,0.00633097,0.00448147,0.0104628,0.00147031,0.825965,0.00654044,0.0215211,832,1541,-9.76529,-36.7155
-385,-517,-9.72192,37.6387,0,0,0,0,0,0,0,-1,839,1541,-9.72195,-37.6386
-378,-517,-6.61444,32.6315,0,0,0,0,0,0,0,-1,846,1541,-6.61445,-32.6315
-371,-517,-1.37585,13.2646,0,0,0,0,0,0,0,-1,853,1541,-1.37586,-13.2647
-364,-517,-1.26245,12.6289,0,0,0,0,0,0,0,-1,860,1541,-1.26243,-12.6289
-357,-517,-1.23889,12.979,0,0,0,0,0,0,0,-1,867,1541,-1.23891,-12.979
-350,-517,-5.40198,23.8954,0,0,0,0,0,0,0,-1,874,1541,-5.40196,-23.8954
-343,-517,-5.45844,29.2598,0,0,0,0,0,0,0,-1,881,1541,-5.45842,-29.2598
-336,-517,-4.53223,29.6708,0,0,0,0,0,0,0,-1,888,1541,-4.53221,-29.6708
-329,-517,-3.60602,30.0817,0,0,0,0,0,0,0,-1,895,1541,-3.60601,-30.0817
-322,-517,-4.21246,19.5819,0,0,0,0,0,0,0,-1,902,1541,-4.21244,-19.5819
-315,-517,-0.987976,7.29749,0,0,0,0,0,0,0,-1,909,1541,-0.987993,-7.29743
-308,-517,3.27911,17.621,0,0,0,0,0,0,0,-1,916,1541,3.27913,-17.621
-301,-517,-1.69141,8.87488,0,0,0,0,0,0,0,-1,923,1541,-1.69141,-8.87485
-294,-517,-1.72583,9.92566,0,0,0,0,0,0,0,-1,930,1541,-1.72584,-9.92571
-287,-517,-3.09045,12.1472,0,0,0,0,0,0,0,-1,937,1541,-3.09043,-12.1472
-280,-517,0,0,0,0,0,0,0,0,0,-1,944,1541,0,0
-273,-517,0,0,0,0,0,0,0,0,0,-1,951,1541,0,0
-266,-517,0,0,0,0,0,0,0,0,0,-1,958,1541,0,0
-259,-517,0,0,0,0,0,0,0,0,0,-1,965,1541,0,0
-252,-517,0,0,0,0,0,0,0,0,0,-1,972,1541,0,0
-245,-517,0,0,0,0,0,0,0,0,0,-1,979,1541,0,0
-238,-517,0,0,0,0,0,0,0,0,0,-1,986,1541,0,0
-231,-517,0,0,0,0,0,0,0,0,0,-1,993,1541,0,0
-224,-517,0,0,0,0,0,0,0,0,0,-1,1000,1541,0,0
-217,-517,0,0,0,0,0,0,0,0,0,-1,1007,1541,0,0
-210,-517,0,0,0,0,0,0,0,0,0,-1,1014,1541,0,0
-203,-517,0,0,0,0,0,0,0,0,0,-1,1021,1541,0,0
-196,-517,0,0,0,0,0,0,0,0,0,-1,1028,1541,0,0
-189,-517,0,0,0,0,0,0,0,0,0,-1,1035,1541,0,0
-182,-517,0,0,0,0,0,0,0,0,0,-1,1042,1541,0,0
-175,-517,0,0,0,0,0,0,0,0,0,-1,1049,1541,0,0
-168,-517,0,0,0,0,0,0,0,0,0,-1,1056,1541,0,0
-161,-517,0,0,0,0,0,0,0,0,0,-1,1063,1541,0,0
-154,-517,0,0,0,0,0,0,0,0,0,-1,1070,1541,0,0
-147,-517,0,0,0,0,0,0,0,0,0,-1,1077,1541,0,0
-140,-517,0,0,0,0,0,0,0,0,0,-1,1084,1541,0,0
-133,-517,0,0,0,0,0,0,0,0,0,-1,1091,1541,0,0
-126,-517,0,0,0,0,0,0,0,0,0,-1,1098,1541,0,0
-119,-517,0,0,0,0,0,0,0,0,0,-1,1105,1541,0,0
-112,-517,0,0,0,0,0,0,0,0,0,-1,1112,1541,0,0
-105,-517,0,0,0,0,0,0,0,0,0,-1,1119,1541,0,0
-98,-517,0,0,0,0,0,0,0,0,0,-1,1126,1541,0,0
-91,-517,0,0,0,0,0,0,0,0,0,-1,1133,1541,0,0
-84,-517,0,0,0,0,0,0,0,0,0,-1,1140,1541,0,0
-77,-517,0,0,0,0,0,0,0,0,0,-1,1147,1541,0,0
-70,-517,0,0,0,0,0,0,0,0,0,-1,1154,1541,0,0
-63,-517,0,0,0,0,0,0,0,0,0,-1,1161,1541,0,0
-56,-517,0,0,0,0,0,0,0,0,0,-1,1168,1541,0,0
-49,-517,0,0,0,0,0,0,0,0,0,-1,1175,1541,0,0
-42,-517,0,0,0,0,0,0,0,0,0,-1,1182,1541,0,0
-35,-517,0,0,0,0,0,0,0,0,0,-1,1189,1541,0,0
-28,-517,0,0,0,0,0,0,0,0,0,-1,1196,1541,0,0
-21,-517,0,0,0,0,0,0,0,0,0,-1,1203,1541,0,0
-14,-517,0,0,0,0,0,0,0,0,0,-1,1210,1541,0,0
-7,-517,0,0,0,0,0,0,0,0,0,-1,1217,1541,0,0
0,-517,0,0,0,0,0,0,0,0,0,-1,1224,1541,0,0
7,-517,0,0,0,0,0,0,0,0,0,-1,1231,1541,0,0
14,-517,0,0,0,0,0,0,0,0,0,-1,1238,1541,0,0
21,-517,0,0,0,0,0,0,0,0,0,-1,1245,1541,0,0
28,-517,0,0,0,0,0,0,0,0,0,-1,1252,1541,0,0
35,-517,0,0,0,0,0,0,0,0,0,-1,1259,1541,0,0
42,-517,0,0,0,0,0,0,0,0,0,-1,1266,1541,0,0
49,-517,0,0,0,0,0,0,0,0,0,-1,1273,1541,0,0
56,-517,0,0,0,0,0,0,0,0,0,-1,1280,1541,0,0
63,-517,0,0,0,0,0,0,0,0,0,-1,1287,1541,0,0
70,-517,0,0,0,0,0,0,0,0,0,-1,1294,1541,0,0
77,-517,0,0,0,0,0,0,0,0,0,-1,1301,1541,0,0
84,-517,0,0,0,0,0,0,0,0,0,-1,1308,1541,0,0
91,-517,0,0,0,0,0,0,0,0,0,-1,1315,1541,0,0
98,-517,0,0,0,0,0,0,0,0,0,-1,1322,1541,0,0
105,-517,0,0,0,0,0,0,0,0,0,-1,1329,1541,0,0
112,-517,0,0,0,0,0,0,0,0,0,-1,1336,1541,0,0
119,-517,0,0,0,0,0,0,0,0,0,-1,1343,1541,0,0
126,-517,0,0,0,0,0,0,0,0,0,-1,1350,1541,0,0
133,-517,0,0,0,0,0,0,0,0,0,-1,1357,1541,0,0
140,-517,0,0,0,0,0,0,0,0,0,-1,1364,1541,0,0
147,-517,0,0,0,0,0,0,0,0,0,-1,1371,1541,0,0
154,-517,0,0,0,0,0,0,0,0,0,-1,1378,1541,0,0
161,-517,0,0,0,0,0,0,0,0,0,-1,1385,1541,0,0
168,-517,0,0,0,0,0,0,0,0,0,-1,1392,1541,0,0
175,-517,0,0,0,0,0,0,0,0,0,-1,1399,1541,0,0
182,-517,0,0,0,0,0,0,0,0,0,-1,1406,1541,0,0
189,-517,0,0,0,0,0,0,0,0,0,-1,1413,1541,0,0
196,-517,0,0,0,0,0,0,0,0,0,-1,1420,1541,0,0
203,-517,0,0,0,0,0,0,0,0,0,-1,1427,1541,0,0
210,-517,0,0,0,0,0,0,0,0,0,-1,1434,1541,0,0
217,-517,0,0,0,0,0,0,0,0,0,-1,1441,1541,0,0
224,-517,0,0,0,0,0,0,0,0,0,-1,1448,1541,0,0
231,-517,0,0,0,0,0,0,0,0,0,-1,1455,1541,0,0
238,-517,0,0,0,0,0,0,0,0,0,-1,1462,1541,0,0
245,-517,0,0,0,0,0,0,0,0,0,-1,1469,1541,0,0
252,-517,0,0,0,0,0,0,0,0,0,-1,1476,1541,0,0
259,-517,0,0,0,0,0,0,0,0,0,-1,1483,1541,0,0
266,-517,0,0,0,0,0,0,0,0,0,-1,1490,1541,0,0
273,-517,0,0,0,0,0,0,0,0,0,-1,1497,1541,0,0
280,-517,0,0,0,0,0,0,0,0,0,-1,1504,1541,0,0
287,-517,0,0,0,0,0,0,0,0,0,-1,1511,1541,0,0
294,-517,0,0,0,0,0,0,0,0,0,-1,1518,1541,0,0
301,-517,0,0,0,0,0,0,0,0,0,-1,1525,1541,0,0
308,-517,0,0,0,0,0,0,0,0,0,-1,1532,1541,0,0
315,-517,0,0,0,0,0,0,0,0,0,-1,1539,1541,0,0
322,-517,0,0,0,0,0,0,0,0,0,-1,1546,1541,0,0
329,-517,0,0,0,0,0,0,0,0,0,-1,1553,1541,0,0
336,-517,0,0,0,0,0,0,0,0,0,-1,1560,1541,0,0
343,-517,0,0,0,0,0,0,0,0,0,-1,1567,1541,0,0
350,-517,0,0,0,0,0,0,0,0,0,-1,1574,1541,0,0
357,-517,0,0,0,0,0,0,0,0,0,-1,1581,1541,0,0
364,-517,0,0,0,0,0,0,0,0,0,-1,1588,1541,0,0
371,-517,0,0,0,0,0,0,0,0,0,-1,1595,1541,0,0
378,-517,0,0,0,0,0,0,0,0,0,-1,1602,1541,0,0
385,-517,0,0,0,0,0,0,0,0,0,-1,1609,1541,0,0
392,-517,0,0,0,0,0,0,0,0,0,-1,1616,1541,0,0
399,-517,0,0,0,0,0,0,0,0,0,-1,1623,1541,0,0
406,-517,13.1395,7.01978,0,0,0,0,0,0,0,-1,1630,1541,13.1396,-7.01981
413,-517,12.8859,6.31592,0,0,0,0,0,0,0,-1,1637,1541,12.8858,-6.31588
420,-517,12.4789,6.20337,0,0,0,0,0,0,0,-1,1644,1541,12.4789,-6.20333
427,-517,11.647,4.66516,0,0,0,0,0,0,0,-1,1651,1541,11.647,-4.66519
434,-517,12.3719,3.92773,0,0,0,0,0,0,0,-1,1658,1541,12.3719,-3.92776
441,-517,13.146,3.14124,0,0,0,0,0,0,0,-1,1665,1541,13.146,-3.14121
448,-517,13.8861,2.36682,0,0,0,0,0,0,0,-1,1672,1541,13.8861,-2.36684
455,-517,13.6012,4.06335,0,0,0,0,0,0,0,-1,1679,1541,13.6012,-4.06335
462,-517,14.8956,7.0752,0,0,0,0,0,0,0,-1,1686,1541,14.8956,-7.07525
469,-517,13.6292,6.87744,0,0,0,0,0,0,0,-1,1693,1541,13.6292,-6.87739
476,-517,17.1632,14.1487,0,0,0,0,0,0,0,-1,1700,1541,17.1632,-14.1487
483,-517,16.5157,15.0776,0,0,0,0,0,0,0,-1,1707,1541,16.5157,-15.0777
490,-517,15.5439,18.0258,0,0,0,0,0,0,0,-1,1714,1541,15.5439,-18.0258
497,-517,16.0292,18.7786,0,0,0,0,0,0,0,-1,1721,1541,16.0291,-18.7786
504,-517,17.3815,22.3873,0,0,0,0,0,0,0,-1,1728,1541,17.3814,-22.3873
511,-517,16.9674,21.8491,0,0,0,0,0,0,0,-1,1735,1541,16.9674,-21.8491
518,-517,26.7823,37.1125,0,0,0,0,0,0,0,-1,1742,1541,26.7823,-37.1125
525,-517,26.9805,36.2717,0.00841705,0.0077724,-0.00613627,0.0142395,0.00194999,-0.759158,0.00891435,0.0280621,1749,1541,26.9804,-36.2718
532,-517,27.1396,35.3595,0.00672759,0.00630373,-0.004945,0.0114652,0.00156611,-0.763983,0.0071786,0.0133056,1756,1541,27.1396,-35.3595
539,-517,27.1196,34.5654,0.00529389,0.00498438,-0.00392224,0.00906442,0.00121384,-0.765681,0.00568172,0.0140708,1763,1541,27.1196,-34.5655
546,-517,27.0726,33.809,0.00419612,0.00389567,-0.00311263,0.00716215,0.000929638,-0.761286,0.00449703,0.0147085,1770,1541,27.0727,-33.8089
553,-517,27.0031,33.0154,0.00339221,0.00298199,-0.00244062,0.00563632,0.000737876,-0.743477,0.00353733,0.0186852,1777,1541,27.003,-33.0154
560,-517,26.9635,32.2191,0.00283721,0.00220667,-0.00192008,0.00446773,0.000576148,-0.704025,0.00280622,0.0179933,1784,1541,26.9636,-32.2191
567,-517,26.937,31.4424,0.002539,0.00166386,-0.00163487,0.00379385,0.000409012,-0.654639,0.00240452,0.0144192,1791,1541,26.937,-31.4424
574,-517,26.8926,30.6337,0.0024791,0.00134733,-0.00154386,0.00355751,0.000268919,-0.609732,0.00228731,0.0161162,1798,1541,26.8926,-30.6337
581,-517,26.8335,29.8557,0.00269739,0.0011827,-0.00163391,0.00374094,0.000139149,-0.568379,0.00244889,0.0174392,1805,1541,26.8334,-29.8557
588,-517,26.8167,29.0525,0.0031599,0.00127684,-0.00193824,0.00437319,6.3553e-05,-0.559301,0.00289451,0.0169735,1812,1541,26.8166,-29.0525
595,-517,26.8453,28.1968,0.00375385,0.00166679,-0.0024105,0.005337,8.36363e-05,-0.581123,0.00353045,0.0471942,1819,1541,26.8453,-28.1968
602,-517,27.1881,27.1237,0,0,0,0,0,0,0,-1,1826,1541,27.1881,-27.1237
609,-517,12.6417,10.8751,0,0,0,0,0,0,0,-1,1833,1541,12.6417,-10.8751
616,-517,14.205,10.3193,0,0,0,0,0,0,0,-1,1840,1541,14.205,-10.3194
623,-517,12.578,10.0779,0,0,0,0,0,0,0,-1,1847,1541,12.578,-10.0779
630,-517,11.7035,7.47815,0,0,0,0,0,0,0,-1,1854,1541,11.7035,-7.47812
637,-517,11.5172,5.79822,0,0,0,0,0,0,0,-1,1861,1541,11.5173,-5.79825
644,-517,11.4232,3.30579,0,0,0,0,0,0,0,-1,1868,1541,11.4232,-3.30574
651,-517,0,0,0,0,0,0,0,0,0,-1,1875,1541,0,0
658,-517,0,0,0,0,0,0,0,0,0,-1,1882,1541,0,0
665,-517,0,0,0,0,0,0,0,0,0,-1,1889,1541,0,0
672,-517,0,0,0,0,0,0,0,0,0,-1,1896,1541,0,0
679,-517,0,0,0,0,0,0,0,0,0,-1,1903,1541,0,0
686,-517,0,0,0,0,0,0,0,0,0,-1,1910,1541,0,0
693,-517,0,0,0,0,0,0,0,0,0,-1,1917,1541,0,0
700,-517,0,0,0,0,0,0,0,0,0,-1,1924,1541,0,0
707,-517,0,0,0,0,0,0,0,0,0,-1,1931,1541,0,0
714,-517,0,0,0,0,0,0,0,0,0,-1,1938,1541,0,0
721,-517,0,0,0,0,0,0,0,0,0,-1,1945,1541,0,0
728,-517,0,0,0,0,0,0,0,0,0,-1,1952,1541,0,0
735,-517,0,0,0,0,0,0,0,0,0,-1,1959,1541,0,0
742,-517,0,0,0,0,0,0,0,0,0,-1,1966,1541,0,0
749,-517,0,0,0,0,0,0,0,0,0,-1,1973,1541,0,0
756,-517,0,0,0,0,0,0,0,0,0,-1,1980,1541,0,0
763,-517,0,0,0,0,0,0,0,0,0,-1,1987,1541,0,0
770,-517,0,0,0,0,0,0,0,0,0,-1,1994,1541,0,0
777,-517,0,0,0,0,0,0,0,0,0,-1,2001,1541,0,0
784,-517,0,0,0,0,0,0,0,0,0,-1,2008,1541,0,0
791,-517,0,0,0,0,0,0,0,0,0,-1,2015,1541,0,0
798,-517,0,0,0,0,0,0,0,0,0,-1,2022,1541,0,0
805,-517,0,0,0,0,0,0,0,0,0,-1,2029,1541,0,0
812,-517,0,0,0,0,0,0,0,0,0,-1,2036,1541,0,0
-700,-524,0,0,0,0,0,0,0,0,0,-1,524,1548,0,0
-693,-524,0,0,0,0,0,0,0,0,0,-1,531,1548,0,0
-686,-524,0,0,0,0,0,0,0,0,0,-1,538,1548,0,0
-679,-524,0,0,0,0,0,0,0,0,0,-1,545,1548,0,0
-672,-524,0,0,0,0,0,0,0,0,0,-1,552,1548,0,0
-665,-524,0,0,0,0,0,0,0,0,0,-1,559,1548,0,0
-658,-524,0,0,0,0,0,0,0,0,0,-1,566,1548,0,0
-651,-524,0,0,0,0,0,0,0,0,0,-1,573,1548,0,0
-644,-524,0,0,0,0,0,0,0,0,0,-1,580,1548,0,0
-637,-524,0,0,0,0,0,0,0,0,0,-1,587,1548,0,0
-630,-524,0,0,0,0,0,0,0,0,0,-1,594,1548,0,0
-623,-524,0,0,0,0,0,0,0,0,0,-1,601,1548,0,0
-616,-524,0,0,0,0,0,0,0,0,0,-1,608,1548,0,0
-609,-524,0,0,0,0,0,0,0,0,0,-1,615,1548,0,0
-602,-524,0,0,0,0,0,0,0,0,0,-1,622,1548,0,0
-595,-524,0,0,0,0,0,0,0,0,0,-1,629,1548,0,0
-588,-524,0,0,0,0,0,0,0,0,0,-1,636,1548,0,0
-581,-524,0,0,0,0,0,0,0,0,0,-1,643,1548,0,0
-574,-524,0,0,0,0,0,0,0,0,0,-1,650,1548,0,0
-567,-524,0,0,0,0,0,0,0,0,0,-1,657,1548,0,0
-560,-524,0,0,0,0,0,0,0,0,0,-1,664,1548,0,0
-553,-524,0,0,0,0,0,0,0,0,0,-1,671,1548,0,0
-546,-524,0,0,0,0,0,0,0,0,0,-1,678,1548,0,0
-539,-524,0,0,0,0,0,0,0,0,0,-1,685,1548,0,0
-532,-524,0,0,0,0,0,0,0,0,0,-1,692,1548,0,0
-525,-524,-0.215515,3.97131,0,0,0,0,0,0,0,-1,699,1548,-0.215501,-3.97136
-518,-524,-0.806274,4.35632,0,0,0,0,0,0,0,-1,706,1548,-0.806259,-4.35633
-511,-524,-1.08301,4.29004,0,0,0,0,0,0,0,-1,713,1548,-1.08301,-4.29006
-504,-524,-1.28821,3.98145,0,0,0,0,0,0,0,-1,720,1548,-1.28822,-3.98151
-497,-524,-0.328491,8.63416,0,0,0,0,0,0,0,-1,727,1548,-0.328487,-8.63411
-490,-524,-6.65582,19.3033,0,0,0,0,0,0,0,-1,734,1548,-6.65583,-19.3034
-483,-524,-7.57153,22.1989,0,0,0,0,0,0,0,-1,741,1548,-7.57151,-22.1988
-476,-524,-8.51898,26.7598,0,0,0,0,0,0,0,-1,748,1548,-8.51897,-26.7597
-469,-524,-8.47229,27.4583,0,0,0,0,0,0,0,-1,755,1548,-8.47229,-27.4583
-462,-524,-8.84344,28.4183,0,0,0,0,0,0,0,-1,762,1548,-8.84344,-28.4184
-455,-524,-8.6712,29.3627,0.00171007,-0.000338021,0.00109036,0.00218187,-0.000809818,0.408374,0.00178678,0.0432815,769,1548,-8.6712,-29.3627
-448,-524,-8.64343,30.1995,0.00106307,-0.000696007,0.000515538,0.00120302,-0.000835962,0.265085,0.00118355,0.0176002,776,1548,-8.64345,-30.1995
-441,-524,-8.67627,31.0221,0.000943248,-0.000456353,0.000463903,0.00108305,-0.000596152,0.292698,0.000982977,0.0115973,783,1548,-8.67628,-31.0221
-434,-524,-8.67798,31.8274,0.00102745,-1.19923e-05,0.000582309,0.00128823,-0.000272781,0.421067,0.000962719,0.0138141,790,1548,-8.67799,-31.8274
-427,-524,-8.72479,32.6414,0.0012261,0.000498774,0.00078862,0.00173087,-5.99277e-06,0.569359,0.00115592,0.0161838,797,1548,-8.72477,-32.6414
-420,-524,-8.81207,33.4623,0.00158683,0.00114983,0.00110838,0.00249805,0.000238617,0.68808,0.0015918,0.0408832,804,1548,-8.8121,-33.4623
-413,-524,-8.91681,34.2821,0.00212109,0.00188314,0.00153883,0.00354554,0.000458694,0.746817,0.0022266,0.0379799,811,1548,-8.9168,-34.2821
-406,-524,-8.90234,35.1196,0.00276195,0.00270806,0.00202882,0.004764,0.000706003,0.778759,0.00296878,0.0138602,818,1548,-8.90237,-35.1196
-399,-524,-8.93243,35.9249,0.00347842,0.00355095,0.00252708,0.00604203,0.000987337,0.792573,0.00374257,0.00969113,825,1548,-8.93246,-35.9249
-392,-524,-8.97577,36.7109,0.00419338,0.00445668,0.00301293,0.00734083,0.00130923,0.807232,0.00452112,0.0107122,832,1548,-8.97576,-36.7109
-385,-524,-9.02081,37.5609,0.00498024,0.00538522,0.00347647,0.0086651,0.00170037,0.814488,0.00530163,0.0192609,839,1548,-9.02083,-37.561
-378,-524,-9.0163,38.451,0,0,0,0,0,0,0,-1,846,1548,-9.01632,-38.451
-371,-524,-4.20789,29.1592,0,0,0,0,0,0,0,-1,853,1548,-4.2079,-29.1592
-364,-524,-0.712097,14.9871,0,0,0,0,0,0,0,-1,860,1548,-0.712116,-14.9871
-357,-524,-1.34052,14.7448,0,0,0,0,0,0,0,-1,867,1548,-1.34054,-14.7447
-350,-524,-4.31909,25.032,0,0,0,0,0,0,0,-1,874,1548,-4.31906,-25.0319
-343,-524,-3.69696,28.6923,0,0,0,0,0,0,0,-1,881,1548,-3.69694,-28.6922
-336,-524,-3.4873,29.655,0,0,0,0,0,0,0,-1,888,1548,-3.48728,-29.6551
-329,-524,-3.21936,30.5509,0,0,0,0,0,0,0,-1,895,1548,-3.21933,-30.5509
-322,-524,-4.31378,25.6389,0,0,0,0,0,0,0,-1,902,1548,-4.31379,-25.639
-315,-524,-1.90839,19.4824,0,0,0,0,0,0,0,-1,909,1548,-1.90838,-19.4824
-308,-524,-2.36938,19.3059,0,0,0,0,0,0,0,-1,916,1548,-2.3694,-19.3058
-301,-524,2.72394,17.7618,0,0,0,0,0,0,0,-1,923,1548,2.72396,-17.7619
-294,-524,-1.52515,9.05408,0,0,0,0,0,0,0,-1,930,1548,-1.52512,-9.05411
-287,-524,-0.962219,10.3199,0,0,0,0,0,0,0,-1,937,1548,-0.962241,-10.32
-280,-524,-1.36255,10.3859,0,0,0,0,0,0,0,-1,944,1548,-1.36253,-10.3859
-273,-524,0,0,0,0,0,0,0,0,0,-1,951,1548,0,0
-266,-524,0,0,0,0,0,0,0,0,0,-1,958,1548,0,0
-259,-524,0,0,0,0,0,0,0,0,0,-1,965,1548,0,0
-252,-524,0,0,0,0,0,0,0,0,0,-1,972,1548,0,0
-245,-524,0,0,0,0,0,0,0,0,0,-1,979,1548,0,0
-238,-524,0,0,0,0,0,0,0,0,0,-1,986,1548,0,0
-231,-524,0,0,0,0,0,0,0,0,0,-1,993,1548,0,0
-224,-524,0,0,0,0,0,0,0,0,0,-1,1000,1548,0,0
-217,-524,0,0,0,0,0,0,0,0,0,-1,1007,1548,0,0
-210,-524,0,0,0,0,0,0,0,0,0,-1,1014,1548,0,0
-203,-524,0,0,0,0,0,0,0,0,0,-1,1021,1548,0,0
-196,-524,0,0,0,0,0,0,0,0,0,-1,1028,1548,0,0
-189,-524,0,0,0,0,0,0,0,0,0,-1,1035,1548,0,0
-182,-524,0,0,0,0,0,0,0,0,0,-1,1042,1548,0,0
-175,-524,0,0,0,0,0,0,0,0,0,-1,1049,1548,0,0
-168,-524,0,0,0,0,0,0,0,0,0,-1,1056,1548,0,0
-161,-524,0,0,0,0,0,0,0,0,0,-1,1063,1548,0,0
-154,-524,0,0,0,0,0,0,0,0,0,-1,1070,1548,0,0
-147,-524,0,0,0,0,0,0,0,0,0,-1,1077,1548,0,0
-140,-524,0,0,0,0,0,0,0,0,0,-1,1084,1548,0,0
-133,-524,0,0,0,0,0,0,0,0,0,-1,1091,1548,0,0
-126,-524,0,0,0,0,0,0,0,0,0,-1,1098,1548,0,0
-119,-524,0,0,0,0,0,0,0,0,0,-1,1105,1548,0,0
-112,-524,0,0,0,0,0,0,0,0,0,-1,1112,1548,0,0
-105,-524,0,0,0,0,0,0,0,0,0,-1,1119,1548,0,0
-98,-524,0,0,0,0,0,0,0,0,0,-1,1126,1548,0,0
-91,-524,0,0,0,0,0,0,0,0,0,-1,1133,1548,0,0
-84,-524,0,0,0,0,0,0,0,0,0,-1,1140,1548,0,0
-77,-524,0,0,0,0,0,0,0,0,0,-1,1147,1548,0,0
-70,-524,0,0,0,0,0,0,0,0,0,-1,1154,1548,0,0
-63,-524,0,0,0,0,0,0,0,0,0,-1,1161,1548,0,0
-56,-524,0,0,0,0,0,0,0,0,0,-1,1168,1548,0,0
-49,-524,0,0,0,0,0,0,0,0,0,-1,1175,1548,0,0
-42,-524,0,0,0,0,0,0,0,0,0,-1,1182,1548,0,0
-35,-524,0,0,0,0,0,0,0,0,0,-1,1189,1548,0,0
-28,-524,0,0,0,0,0,0,0,0,0,-1,1196,1548,0,0
-21,-524,0,0,0,0,0,0,0,0,0,-1,1203,1548,0,0
-14,-524,0,0,0,0,0,0,0,0,0,-1,1210,1548,0,0
-7,-524,0,0,0,0,0,0,0,0,0,-1,1217,1548,0,0
0,-524,0,0,0,0,0,0,0,0,0,-1,1224,1548,0,0
7,-524,0,0,0,0,0,0,0,0,0,-1,1231,1548,0,0
14,-524,0,0,0,0,0,0,0,0,0,-1,1238,1548,0,0
21,-524,0,0,0,0,0,0,0,0,0,-1,1245,1548,0,0
28,-524,0,0,0,0,0,0,0,0,0,-1,1252,1548,0,0
35,-524,0,0,0,0,0,0,0,0,0,-1,1259,1548,0,0
42,-524,0,0,0,0,0,0,0,0,0,-1,1266,1548,0,0
49,-524,0,0,0,0,0,0,0,0,0,-1,1273,1548,0,0
56,-524,0,0,0,0,0,0,0,0,0,-1,1280,1548,0,0
63,-524,0,0,0,0,0,0,0,0,0,-1,1287,1548,0,0
70,-524,0,0,0,0,0,0,0,0,0,-1,1294,1548,0,0
77,-524,0,0,0,0,0,0,0,0,0,-1,1301,1548,0,0
84,-524,0,0,0,0,0,0,0,0,0,-1,1308,1548,0,0
91,-524,0,0,0,0,0,0,0,0,0,-1,1315,1548,0,0
98,-524,0,0,0,0,0,0,0,0,0,-1,1322,1548,0,0
105,-524,0,0,0,0,0,0,0,0,0,-1,1329,1548,0,0
112,-524,0,0,0,0,0,0,0,0,0,-1,1336,1548,0,0
119,-524,0,0,0,0,0,0,0,0,0,-1,1343,1548,0,0
126,-524,0,0,0,0,0,0,0,0,0,-1,1350,1548,0,0
133,-524,0,0,0,0,0,0,0,0,0,-1,1357,1548,0,0
140,-524,0,0,0,0,0,0,0,0,0,-1,1364,1548,0,0
147,-524,0,0,0,0,0,0,0,0,0,-1,1371,1548,0,0
154,-524,0,0,0,0,0,0,0,0,0,-1,1378,1548,0,0
161,-524,0,0,0,0,0,0,0,0,0,-1,1385,1548,0,0
168,-524,0,0,0,0,0,0,0,0,0,-1,1392,1548,0,0
175,-524,0,0,0,0,0,0,0,0,0,-1,1399,1548,0,0
182,-524,0,0,0,0,0,0,0,0,0,-1,1406,1548,0,0
189,-524,0,0,0,0,0,0,0,0,0,-1,1413,1548,0,0
196,-524,0,0,0,0,0,0,0,0,0,-1,1420,1548,0,0
203,-524,0,0,0,0,0,0,0,0,0,-1,1427,1548,0,0
210,-524,0,0,0,0,0,0,0,0,0,-1,1434,1548,0,0
217,-524,0,0,0,0,0,0,0,0,0,-1,1441,1548,0,0
224,-524,0,0,0,0,0,0,0,0,0,-1,1448,1548,0,0
231,-524,0,0,0,0,0,0,0,0,0,-1,1455,1548,0,0
238,-524,0,0,0,0,0,0,0,0,0,-1,1462,1548,0,0
245,-524,0,0,0,0,0,0,0,0,0,-1,1469,1548,0,0
252,-524,0,0,0,0,0,0,0,0,0,-1,1476,1548,0,0
259,-524,0,0,0,0,0,0,0,0,0,-1,1483,1548,0,0
266,-524,0,0,0,0,0,0,0,0,0,-1,1490,1548,0,0
273,-524,0,0,0,0,0,0,0,0,0,-1,1497,1548,0,0
280,-524,0,0,0,0,0,0,0,0,0,-1,1504,1548,0,0
287,-524,0,0,0,0,0,0,0,0,0,-1,1511,1548,0,0
294,-524,0,0,0,0,0,0,0,0,0,-1,1518,1548,0,0
301,-524,0,0,0,0,0,0,0,0,0,-1,1525,1548,0,0
308,-524,0,0,0,0,0,0,0,0,0,-1,1532,1548,0,0
315,-524,0,0,0,0,0,0,0,0,0,-1,1539,1548,0,0
322,-524,0,0,0,0,0,0,0,0,0,-1,1546,1548,0,0
329,-524,0,0,0,0,0,0,0,0,0,-1,1553,1548,0,0
336,-524,0,0,0,0,0,0,0,0,0,-1,1560,1548,0,0
343,-524,0,0,0,0,0,0,0,0,0,-1,1567,1548,0,0
350,-524,0,0,0,0,0,0,0,0,0,-1,1574,1548,0,0
357,-524,0,0,0,0,0,0,0,0,0,-1,1581,1548,0,0
364,-524,0,0,0,0,0,0,0,0,0,-1,1588,1548,0,0
371,-524,0,0,0,0,0,0,0,0,0,-1,1595,1548,0,0
378,-524,0,0,0,0,0,0,0,0,0,-1,1602,1548,0,0
385,-524,0,0,0,0,0,0,0,0,0,-1,1609,1548,0,0
392,-524,0,0,0,0,0,0,0,0,0,-1,1616,1548,0,0
399,-524,8.81848,5.05774,0,0,0,0,0,0,0,-1,1623,1548,8.81843,-5.05769
406,-524,8.64294,6.06799,0,0,0,0,0,0,0,-1,1630,1548,8.6429,-6.06805
413,-524,11.677,6.41858,0,0,0,0,0,0,0,-1,1637,1548,11.677,-6.41864
420,-524,11.4913,6.36401,0,0,0,0,0,0,0,-1,1644,1548,11.4913,-6.36402
427,-524,7.68335,6.17249,0,0,0,0,0,0,0,-1,1651,1548,7.68341,-6.17245
434,-524,10.432,11.6801,0,0,0,0,0,0,0,-1,1658,1548,10.432,-11.68
441,-524,8.78552,4.12305,0,0,0,0,0,0,0,-1,1665,1548,8.78553,-4.12301
448,-524,14.1854,4.78674,0,0,0,0,0,0,0,-1,1672,1548,14.1854,-4.78674
455,-524,12.4784,3.65576,0,0,0,0,0,0,0,-1,1679,1548,12.4784,-3.65572
462,-524,14.7551,9.29395,0,0,0,0,0,0,0,-1,1686,1548,14.7552,-9.29397
469,-524,16.3314,14.3779,0,0,0,0,0,0,0,-1,1693,1548,16.3314,-14.3779
476,-524,15.9106,15.1875,0,0,0,0,0,0,0,-1,1700,1548,15.9107,-15.1876
483,-524,15.2776,16.2268,0,0,0,0,0,0,0,-1,1707,1548,15.2776,-16.2269
490,-524,15.2563,18.5848,0,0,0,0,0,0,0,-1,1714,1548,15.2564,-18.5848
497,-524,17.5173,22.6123,0,0,0,0,0,0,0,-1,1721,1548,17.5174,-22.6123
504,-524,26.0765,38.9247,0,0,0,0,0,0,0,-1,1728,1548,26.0766,-38.9247
511,-524,26.4299,37.9146,0,0,0,0,0,0,0,-1,1735,1548,26.4299,-37.9145
518,-524,26.4484,37.0167,0.00790941,0.00743708,-0.00566773,0.0133459,0.0020006,-0.764576,0.00831105,0.026198,1742,1548,26.4484,-37.0167
525,-524,26.4197,36.2383,0.00640738,0.00615123,-0.00470255,0.0109836,0.00157501,-0.771784,0.00685795,0.0144919,1749,1548,26.4196,-36.2382
532,-524,26.3602,35.4066,0.00505217,0.00493992,-0.00378367,0.00878013,0.00121196,-0.777983,0.00549418,0.010984,1756,1548,26.3603,-35.4066
539,-524,26.3215,34.6006,0.00396571,0.00392295,-0.0030317,0.0069761,0.000912556,-0.781872,0.00437837,0.0121994,1763,1548,26.3215,-34.6006
546,-524,26.2643,33.8715,0.00314283,0.0030141,-0.0024339,0.00551322,0.000643719,-0.772179,0.0034808,0.0158986,1770,1548,26.2643,-33.8715
553,-524,26.2322,33.0695,0.00256266,0.00227513,-0.00194659,0.00437078,0.000467007,-0.748538,0.00277133,0.0260644,1777,1548,26.2322,-33.0694
560,-524,26.2371,32.2668,0.00223373,0.00166929,-0.00159606,0.00357232,0.000330693,-0.697892,0.00227933,0.0328051,1784,1548,26.237,-32.2669
567,-524,26.1277,31.5129,0.0021553,0.00128916,-0.00145087,0.00323636,0.000208105,-0.640362,0.00209166,0.018875,1791,1548,26.1277,-31.5129
574,-524,26.0928,30.6854,0.00231232,0.00111948,-0.00148799,0.00331896,0.000112832,-0.594789,0.00217601,0.0143168,1798,1548,26.0927,-30.6854
581,-524,26.0522,29.8593,0.00281921,0.00112612,-0.00177257,0.00393701,8.3209e-06,-0.562622,0.0026219,0.0158016,1805,1548,26.0522,-29.8593
588,-524,26.1052,29.0449,0.00362956,0.00146394,-0.00229109,0.00508083,1.26676e-05,-0.564647,0.00338301,0.0321879,1812,1548,26.1052,-29.045
595,-524,26.3677,28.2532,0,0,0,0,0,0,0,-1,1819,1548,26.3677,-28.2531
602,-524,13.837,12.0682,0,0,0,0,0,0,0,-1,1826,1548,13.837,-12.0683
609,-524,13.0056,10.5138,0,0,0,0,0,0,0,-1,1833,1548,13.0056,-10.5138
616,-524,11.6941,8.65515,0,0,0,0,0,0,0,-1,1840,1548,11.6941,-8.65514
623,-524,9.38452,5.15356,0,0,0,0,0,0,0,-1,1847,1548,9.38456,-5.15359
630,-524,11.0541,3.57434,0,0,0,0,0,0,0,-1,1854,1548,11.0541,-3.57438
637,-524,11.6067,3.20728,0,0,0,0,0,0,0,-1,1861,1548,11.6067,-3.20724
644,-524,12.2134,0.727173,0,0,0,0,0,0,0,-1,1868,1548,12.2134,-0.727222
651,-524,0,0,0,0,0,0,0,0,0,-1,1875,1548,0,0
658,-524,0,0,0,0,0,0,0,0,0,-1,1882,1548,0,0
665,-524,0,0,0,0,0,0,0,0,0,-1,1889,1548,0,0
672,-524,0,0,0,0,0,0,0,0,0,-1,1896,1548,0,0
679,-524,0,0,0,0,0,0,0,0,0,-1,1903,1548,0,0
686,-524,0,0,0,0,0,0,0,0,0,-1,1910,1548,0,0
693,-524,0,0,0,0,0,0,0,0,0,-1,1917,1548,0,0
700,-524,0,0,0,0,0,0,0,0,0,-1,1924,1548,0,0
707,-524,0,0,0,0,0,0,0,0,0,-1,1931,1548,0,0
714,-524,0,0,0,0,0,0,0,0,0,-1,1938,1548,0,0
721,-524,0,0,0,0,0,0,0,0,0,-1,1945,1548,0,0
728,-524,0,0,0,0,0,0,0,0,0,-1,1952,1548,0,0
735,-524,0,0,0,0,0,0,0,0,0,-1,1959,1548,0,0
742,-524,0,0,0,0,0,0,0,0,0,-1,1966,1548,0,0
749,-524,0,0,0,0,0,0,0,0,0,-1,1973,1548,0,0
756,-524,0,0,0,0,0,0,0,0,0,-1,1980,1548,0,0
763,-524,0,0,0,0,0,0,0,0,0,-1,1987,1548,0,0
770,-524,0,0,0,0,0,0,0,0,0,-1,1994,1548,0,0
777,-524,0,0,0,0,0,0,0,0,0,-1,2001,1548,0,0
784,-524,0,0,0,0,0,0,0,0,0,-1,2008,1548,0,0
791,-524,0,0,0,0,0,0,0,0,0,-1,2015,1548,0,0
798,-524,0,0,0,0,0,0,0,0,0,-1,2022,1548,0,0
805,-524,0,0,0,0,0,0,0,0,0,-1,2029,1548,0,0
812,-524,0,0,0,0,0,0,0,0,0,-1,2036,1548,0,0
-700,-531,0,0,0,0,0,0,0,0,0,-1,524,1555,0,0
-693,-531,0,0,0,0,0,0,0,0,0,-1,531,1555,0,0
-686,-531,0,0,0,0,0,0,0,0,0,-1,538,1555,0,0
-679,-531,0,0,0,0,0,0,0,0,0,-1,545,1555,0,0
-672,-531,0,0,0,0,0,0,0,0,0,-1,552,1555,0,0
-665,-531,0,0,0,0,0,0,0,0,0,-1,559,1555,0,0
-658,-531,0,0,0,0,0,0,0,0,0,-1,566,1555,0,0
-651,-531,0,0,0,0,0,0,0,0,0,-1,573,1555,0,0
-644,-531,0,0,0,0,0,0,0,0,0,-1,580,1555,0,0
-637,-531,0,0,0,0,0,0,0,0,0,-1,587,1555,0,0
-630,-531,0,0,0,0,0,0,0,0,0,-1,594,1555,0,0
-623,-531,0,0,0,0,0,0,0,0,0,-1,601,1555,0,0
-616,-531,0,0,0,0,0,0,0,0,0,-1,608,1555,0,0
-609,-531,0,0,0,0,0,0,0,0,0,-1,615,1555,0,0
-602,-531,0,0,0,0,0,0,0,0,0,-1,622,1555,0,0
-595,-531,0,0,0,0,0,0,0,0,0,-1,629,1555,0,0
-588,-531,0,0,0,0,0,0,0,0,0,-1,636,1555,0,0
-581,-531,0,0,0,0,0,0,0,0,0,-1,643,1555,0,0
-574,-531,0,0,0,0,0,0,0,0,0,-1,650,1555,0,0
-567,-531,0,0,0,0,0,0,0,0,0,-1,657,1555,0,0
-560,-531,0,0,0,0,0,0,0,0,0,-1,664,1555,0,0
-553,-531,0,0,0,0,0,0,0,0,0,-1,671,1555,0,0
-546,-531,0,0,0,0,0,0,0,0,0,-1,678,1555,0,0
-539,-531,0,0,0,0,0,0,0,0,0,-1,685,1555,0,0
-532,-531,0,0,0,0,0,0,0,0,0,-1,692,1555,0,0
-525,-531,0,0,0,0,0,0,0,0,0,-1,699,1555,0,0
-518,-531,-1.63983,4.03821,0,0,0,0,0,0,0,-1,706,1555,-1.63982,-4.03821
-511,-531,-2.9682,8.07483,0,0,0,0,0,0,0,-1,713,1555,-2.9682,-8.07479
-504,-531,-2.95978,0.557861,0,0,0,0,0,0,0,-1,720,1555,-2.95978,-0.557917
-497,-531,-2.46039,8.07422,0,0,0,0,0,0,0,-1,727,1555,-2.46039,-8.07423
-490,-531,-0.423462,7.92065,0,0,0,0,0,0,0,-1,734,1555,-0.42344,-7.92066
-483,-531,-7.50745,20.1915,0,0,0,0,0,0,0,-1,741,1555,-7.50744,-20.1915
-476,-531,-7.69647,23.6229,0,0,0,0,0,0,0,-1,748,1555,-7.6965,-23.6229
-469,-531,-8.2475,27.6931,0,0,0,0,0,0,0,-1,755,1555,-8.2475,-27.6931
-462,-531,-7.27551,28.5044,0,0,0,0,0,0,0,-1,762,1555,-7.27551,-28.5044
-455,-531,-7.92926,29.3474,0,0,0,0,0,0,0,-1,769,1555,-7.92923,-29.3474
-448,-531,-7.72534,30.2198,0.00119412,-0.00111922,0.000404201,0.00126272,-0.00118781,0.168094,0.00141503,0.0330979,776,1555,-7.72536,-30.2199
-441,-531,-7.87292,31.026,0.000919994,-0.00094702,0.000292719,0.000964812,-0.000991838,0.151929,0.00112971,0.0144206,783,1555,-7.87291,-31.0261
-434,-531,-7.91321,31.8843,0.000887563,-0.000566776,0.000357972,0.000970899,-0.000650112,0.228727,0.00094198,0.012948,790,1555,-7.91322,-31.8843
-427,-531,-7.95038,32.7053,0.000959099,-0.000107951,0.000502753,0.00115866,-0.000307508,0.377856,0.000892771,0.0161647,797,1555,-7.9504,-32.7054
-420,-531,-8.07312,33.5029,0.00116005,0.000446,0.000718706,0.00160553,5.27012e-07,0.554871,0.00107018,0.0362526,804,1555,-8.07314,-33.5029
-413,-531,-8.10065,34.3651,0.00152137,0.00104662,0.00101547,0.00232684,0.000241154,0.670581,0.00147742,0.0338434,811,1555,-8.10065,-34.3651
-406,-531,-8.1145,35.1857,0.00199605,0.00170846,0.00135739,0.00321724,0.000487269,0.732627,0.00200227,0.0141134,818,1555,-8.1145,-35.1856
-399,-531,-8.14233,35.9736,0.00253286,0.00240047,0.00169655,0.0041645,0.000768829,0.765898,0.00255885,0.0138502,825,1555,-8.14235,-35.9736
-392,-531,-8.14099,36.7566,0.00311481,0.00312714,0.00204908,0.00517007,0.00107188,0.786902,0.00315079,0.0181181,832,1555,-8.14096,-36.7565
-385,-531,-8.21075,37.558,0.00376794,0.00387845,0.00233755,0.00616139,0.00148499,0.797215,0.00371294,0.0150276,839,1555,-8.21077,-37.558
-378,-531,-8.2702,38.2714,0.00466235,0.00448602,0.00259156,0.00716724,0.00198113,0.768394,0.00427369,0.0214115,846,1555,-8.27022,-38.2713
-371,-531,-8.26935,39.2167,0,0,0,0,0,0,0,-1,853,1555,-8.26936,-39.2167
-364,-531,-8.04376,40.3014,0,0,0,0,0,0,0,-1,860,1555,-8.04375,-40.3014
-357,-531,-4.29193,31.5354,0,0,0,0,0,0,0,-1,867,1555,-4.29191,-31.5354
-350,-531,-3.16101,27.5791,0,0,0,0,0,0,0,-1,874,1555,-3.16099,-27.5791
-343,-531,-2.90552,28.561,0,0,0,0,0,0,0,-1,881,1555,-2.90549,-28.5611
-336,-531,-2.6698,29.5398,0,0,0,0,0,0,0,-1,888,1555,-2.66983,-29.5398
-329,-531,-2.45148,30.4781,0,0,0,0,0,0,0,-1,895,1555,-2.45148,-30.4781
-322,-531,-3.25092,28.4921,0,0,0,0,0,0,0,-1,902,1555,-3.25092,-28.4921
-315,-531,-5.51929,31.7814,0,0,0,0,0,0,0,-1,909,1555,-5.51928,-31.7813
-308,-531,-1.66455,19.0624,0,0,0,0,0,0,0,-1,916,1555,-1.66455,-19.0623
-301,-531,-2.02405,18.8912,0,0,0,0,0,0,0,-1,923,1555,-2.02407,-18.8913
-294,-531,-1.3244,8.1825,0,0,0,0,0,0,0,-1,930,1555,-1.3244,-8.18251
-287,-531,-1.78192,10.1661,0,0,0,0,0,0,0,-1,937,1555,-1.78192,-10.1661
-280,-531,-2.14508,10.3945,0,0,0,0,0,0,0,-1,944,1555,-2.14506,-10.3945
-273,-531,-2.50818,10.6229,0,0,0,0,0,0,0,-1,951,1555,-2.5082,-10.6229
-266,-531,-4.97742,17.9215,0,0,0,0,0,0,0,-1,958,1555,-4.97744,-17.9215
-259,-531,0,0,0,0,0,0,0,0,0,-1,965,1555,0,0
-252,-531,0,0,0,0,0,0,0,0,0,-1,972,1555,0,0
-245,-531,0,0,0,0,0,0,0,0,0,-1,979,1555,0,0
-238,-531,0,0,0,0,0,0,0,0,0,-1,986,1555,0,0
-231,-531,0,0,0,0,0,0,0,0,0,-1,993,1555,0,0
-224,-531,0,0,0,0,0,0,0,0,0,-1,1000,1555,0,0
-217,-531,0,0,0,0,0,0,0,0,0,-1,1007,1555,0,0
-210,-531,0,0,0,0,0,0,0,0,0,-1,1014,1555,0,0
-203,-531,0,0,0,0,0,0,0,0,0,-1,1021,1555,0,0
-196,-531,0,0,0,0,0,0,0,0,0,-1,1028,1555,0,0
-189,-531,0,0,0,0,0,0,0,0,0,-1,1035,1555,0,0
-182,-531,0,0,0,0,0,0,0,0,0,-1,1042,1555,0,0
-175,-531,0,0,0,0,0,0,0,0,0,-1,1049,1555,0,0
-168,-531,0,0,0,0,0,0,0,0,0,-1,1056,1555,0,0
-161,-531,0,0,0,0,0,0,0,0,0,-1,1063,1555,0,0
-154,-531,0,0,0,0,0,0,0,0,0,-1,1070,1555,0,0
-147,-531,0,0,0,0,0,0,0,0,0,-1,1077,1555,0,0
-140,-531,0,0,0,0,0,0,0,0,0,-1,1084,1555,0,0
-133,-531,0,0,0,0,0,0,0,0,0,-1,1091,1555,0,0
-126,-531,0,0,0,0,0,0,0,0,0,-1,1098,1555,0,0
-119,-531,0,0,0,0,0,0,0,0,0,-1,1105,1555,0,0
-112,-531,0,0,0,0,0,0,0,0,0,-1,1112,1555,0,0
-105,-531,0,0,0,0,0,0,0,0,0,-1,1119,1555,0,0
-98,-531,0,0,0,0,0,0,0,0,0,-1,1126,1555,0,0
-91,-531,0,0,0,0,0,0,0,0,0,-1,1133,1555,0,0
-84,-531,0,0,0,0,0,0,0,0,0,-1,1140,1555,0,0
-77,-531,0,0,0,0,0,0,0,0,0,-1,1147,1555,0,0
-70,-531,0,0,0,0,0,0,0,0,0,-1,1154,1555,0,0
-63,-531,0,0,0,0,0,0,0,0,0,-1,1161,1555,0,0
-56,-531,0,0,0,0,0,0,0,0,0,-1,1168,1555,0,0
-49,-531,0,0,0,0,0,0,0,0,0,-1,1175,1555,0,0
-42,-531,0,0,0,0,0,0,0,0,0,-1,1182,1555,0,0
-35,-531,0,0,0,0,0,0,0,0,0,-1,1189,1555,0,0
-28,-531,0,0,0,0,0,0,0,0,0,-1,1196,1555,0,0
-21,-531,0,0,0,0,0,0,0,0,0,-1,1203,1555,0,0
-14,-531,0,0,0,0,0,0,0,0,0,-1,1210,1555,0,0
-7,-531,0,0,0,0,0,0,0,0,0,-1,1217,1555,0,0
0,-531,0,0,0,0,0,0,0,0,0,-1,1224,1555,0,0
7,-531,0,0,0,0,0,0,0,0,0,-1,1231,1555,0,0
14,-531,0,0,0,0,0,0,0,0,0,-1,1238,1555,0,0
21,-531,0,0,0,0,0,0,0,0,0,-1,1245,1555,0,0
28,-531,0,0,0,0,0,0,0,0,0,-1,1252,1555,0,0
35,-531,0,0,0,0,0,0,0,0,0,-1,1259,1555,0,0
42,-531,0,0,0,0,0,0,0,0,0,-1,1266,1555,0,0
49,-531,0,0,0,0,0,0,0,0,0,-1,1273,1555,0,0
56,-531,0,0,0,0,0,0,0,0,0,-1,1280,1555,0,0
63,-531,0,0,0,0,0,0,0,0,0,-1,1287,1555,0,0
70,-531,0,0,0,0,0,0,0,0,0,-1,1294,1555,0,0
77,-531,0,0,0,0,0,0,0,0,0,-1,1301,1555,0,0
84,-531,0,0,0,0,0,0,0,0,0,-1,1308,1555,0,0
91,-531,0,0,0,0,0,0,0,0,0,-1,1315,1555,0,0
98,-531,0,0,0,0,0,0,0,0,0,-1,1322,1555,0,0
105,-531,0,0,0,0,0,0,0,0,0,-1,1329,1555,0,0
112,-531,0,0,0,0,0,0,0,0,0,-1,1336,1555,0,0
119,-531,0,0,0,0,0,0,0,0,0,-1,1343,1555,0,0
126,-531,0,0,0,0,0,0,0,0,0,-1,1350,1555,0,0
133,-531,0,0,0,0,0,0,0,0,0,-1,1357,1555,0,0
140,-531,0,0,0,0,0,0,0,0,0,-1,1364,1555,0,0
147,-531,0,0,0,0,0,0,0,0,0,-1,1371,1555,0,0
154,-531,0,0,0,0,0,0,0,0,0,-1,1378,1555,0,0
161,-531,0,0,0,0,0,0,0,0,0,-1,1385,1555,0,0
168,-531,0,0,0,0,0,0,0,0,0,-1,1392,1555,0,0
175,-531,0,0,0,0,0,0,0,0,0,-1,1399,1555,0,0
182,-531,0,0,0,0,0,0,0,0,0,-1,1406,1555,0,0
189,-531,0,0,0,0,0,0,0,0,0,-1,1413,1555,0,0
196,-531,0,0,0,0,0,0,0,0,0,-1,1420,1555,0,0
203,-531,0,0,0,0,0,0,0,0,0,-1,1427,1555,0,0
210,-531,0,0,0,0,0,0,0,0,0,-1,1434,1555,0,0
217,-531,0,0,0,0,0,0,0,0,0,-1,1441,1555,0,0
224,-531,0,0,0,0,0,0,0,0,0,-1,1448,1555,0,0
231,-531,0,0,0,0,0,0,0,0,0,-1,1455,1555,0,0
238,-531,0,0,0,0,0,0,0,0,0,-1,1462,1555,0,0
245,-531,0,0,0,0,0,0,0,0,0,-1,1469,1555,0,0
252,-531,0,0,0,0,0,0,0,0,0,-1,1476,1555,0,0
259,-531,0,0,0,0,0,0,0,0,0,-1,1483,1555,0,0
266,-531,0,0,0,0,0,0,0,0,0,-1,1490,1555,0,0
273,-531,0,0,0,0,0,0,0,0,0,-1,1497,1555,0,0
280,-531,0,0,0,0,0,0,0,0,0,-1,1504,1555,0,0
287,-531,0,0,0,0,0,0,0,0,0,-1,1511,1555,0,0
294,-531,0,0,0,0,0,0,0,0,0,-1,1518,1555,0,0
301,-531,0,0,0,0,0,0,0,0,0,-1,1525,1555,0,0
308,-531,0,0,0,0,0,0,0,0,0,-1,1532,1555,0,0
315,-531,0,0,0,0,0,0,0,0,0,-1,1539,1555,0,0
322,-531,0,0,0,0,0,0,0,0,0,-1,1546,1555,0,0
329,-531,0,0,0,0,0,0,0,0,0,-1,1553,1555,0,0
336,-531,0,0,0,0,0,0,0,0,0,-1,1560,1555,0,0
343,-531,0,0,0,0,0,0,0,0,0,-1,1567,1555,0,0
350,-531,0,0,0,0,0,0,0,0,0,-1,1574,1555,0,0
357,-531,0,0,0,0,0,0,0,0,0,-1,1581,1555,0,0
364,-531,0,0,0,0,0,0,0,0,0,-1,1588,1555,0,0
371,-531,0,0,0,0,0,0,0,0,0,-1,1595,1555,0,0
378,-531,0,0,0,0,0,0,0,0,0,-1,1602,1555,0,0
385,-531,3.48169,1.78625,0,0,0,0,0,0,0,-1,1609,1555,3.48165,-1.78624
392,-531,10.8781,9.09204,0,0,0,0,0,0,0,-1,1616,1555,10.8781,-9.09205
399,-531,8.26306,5.29602,0,0,0,0,0,0,0,-1,1623,1555,8.26302,-5.29607
406,-531,8.26147,5.42712,0,0,0,0,0,0,0,-1,1630,1555,8.26145,-5.42716
413,-531,8.20618,5.75012,0,0,0,0,0,0,0,-1,1637,1555,8.20619,-5.75017
420,-531,7.64868,7.09558,0,0,0,0,0,0,0,-1,1644,1555,7.64867,-7.09564
427,-531,9.93054,11.8412,0,0,0,0,0,0,0,-1,1651,1555,9.93059,-11.8412
434,-531,10.244,11.7072,0,0,0,0,0,0,0,-1,1658,1555,10.244,-11.7071
441,-531,11.4528,12.9397,0,0,0,0,0,0,0,-1,1665,1555,11.4528,-12.9397
448,-531,11.928,18.8029,0,0,0,0,0,0,0,-1,1672,1555,11.928,-18.8028
455,-531,14.4877,9.67065,0,0,0,0,0,0,0,-1,1679,1555,14.4876,-9.67066
462,-531,13.5253,12.2002,0,0,0,0,0,0,0,-1,1686,1555,13.5252,-12.2002
469,-531,15.5087,15.7894,0,0,0,0,0,0,0,-1,1693,1555,15.5086,-15.7895
476,-531,14.6582,16.2264,0,0,0,0,0,0,0,-1,1700,1555,14.6582,-16.2264
483,-531,14.755,18.5994,0,0,0,0,0,0,0,-1,1707,1555,14.7551,-18.5994
490,-531,16.9362,25.4943,0,0,0,0,0,0,0,-1,1714,1555,16.9362,-25.4942
497,-531,25.4479,39.7457,0,0,0,0,0,0,0,-1,1721,1555,25.4479,-39.7458
504,-531,25.5588,38.7084,0.00883585,0.00867716,-0.00615261,0.0149096,0.00260339,-0.77895,0.00919563,0.037172,1728,1555,25.5588,-38.7083
511,-531,25.6508,37.8478,0.00724841,0.00707248,-0.00506287,0.0122241,0.00209681,-0.776712,0.00754816,0.0157936,1735,1555,25.6507,-37.8478
518,-531,25.6635,37.0582,0.00591566,0.0058712,-0.00422489,0.0101184,0.00166848,-0.782767,0.00626394,0.0147018,1742,1555,25.6635,-37.0582
525,-531,25.6482,36.2772,0.00466443,0.00472152,-0.00347431,0.0081674,0.00121855,-0.789506,0.00508763,0.014147,1749,1555,25.6482,-36.2772
532,-531,25.6149,35.4647,0.00356704,0.00366202,-0.00278691,0.00640185,0.000827215,-0.793917,0.00402063,0.0112551,1756,1555,25.6148,-35.4647
539,-531,25.5532,34.6876,0.00275912,0.00285341,-0.00226698,0.00507374,0.000538794,-0.795794,0.00321796,0.0130122,1763,1555,25.5533,-34.6876
546,-531,25.452,33.9144,0.00217874,0.00208212,-0.00185819,0.00398924,0.000271611,-0.772402,0.00257374,0.016343,1770,1555,25.452,-33.9145
553,-531,25.4557,33.1122,0.00182592,0.00149462,-0.00154913,0.00321823,0.000102311,-0.732134,0.00211221,0.0332109,1777,1555,25.4557,-33.1121
560,-531,25.4343,32.3469,0.00175156,0.00106517,-0.00138343,0.00283373,-1.69966e-05,-0.663813,0.00189484,0.0360542,1784,1555,25.4343,-32.3469
567,-531,25.3024,31.5282,0.00194005,0.000871687,-0.00139198,0.00289683,-8.50935e-05,-0.602186,0.0019602,0.0199928,1791,1555,25.3024,-31.5282
574,-531,25.2466,30.7244,0.00238604,0.000894147,-0.00156904,0.00337743,-9.72417e-05,-0.563504,0.00228473,0.0161172,1798,1555,25.2466,-30.7244
581,-531,25.2916,29.866,0.00331114,0.00117583,-0.00211156,0.00460962,-0.00012264,-0.551329,0.00311476,0.0290436,1805,1555,25.2917,-29.866
588,-531,25.2837,28.9402,0.00463316,0.001965,-0.00294638,0.00653342,6.47465e-05,-0.572814,0.00433419,0.0497138,1812,1555,25.2837,-28.9402
595,-531,25.139,27.9659,0,0,0,0,0,0,0,-1,1819,1555,25.139,-27.9659
602,-531,13.701,11.8346,0,0,0,0,0,0,0,-1,1826,1555,13.701,-11.8347
609,-531,10.9072,8.50903,0,0,0,0,0,0,0,-1,1833,1555,10.9073,-8.50902
616,-531,10.5723,7.17859,0,0,0,0,0,0,0,-1,1840,1555,10.5723,-7.17855
623,-531,10.0674,5.08984,0,0,0,0,0,0,0,-1,1847,1555,10.0674,-5.08981
630,-531,11.672,3.18909,0,0,0,0,0,0,0,-1,1854,1555,11.672,-3.18904
637,-531,13.2546,1.38965,0,0,0,0,0,0,0,-1,1861,1555,13.2547,-1.3896
644,-531,0,0,0,0,0,0,0,0,0,-1,1868,1555,0,0
651,-531,0,0,0,0,0,0,0,0,0,-1,1875,1555,0,0
658,-531,0,0,0,0,0,0,0,0,0,-1,1882,1555,0,0
665,-531,0,0,0,0,0,0,0,0,0,-1,1889,1555,0,0
672,-531,0,0,0,0,0,0,0,0,0,-1,1896,1555,0,0
679,-531,0,0,0,0,0,0,0,0,0,-1,1903,1555,0,0
686,-531,0,0,0,0,0,0,0,0,0,-1,1910,1555,0,0
693,-531,0,0,0,0,0,0,0,0,0,-1,1917,1555,0,0
700,-531,0,0,0,0,0,0,0,0,0,-1,1924,1555,0,0
707,-531,0,0,0,0,0,0,0,0,0,-1,1931,1555,0,0
714,-531,0,0,0,0,0,0,0,0,0,-1,1938,1555,0,0
721,-531,0,0,0,0,0,0,0,0,0,-1,1945,1555,0,0
728,-531,0,0,0,0,0,0,0,0,0,-1,1952,1555,0,0
735,-531,0,0,0,0,0,0,0,0,0,-1,1959,1555,0,0
742,-531,0,0,0,0,0,0,0,0,0,-1,1966,1555,0,0
749,-531,0,0,0,0,0,0,0,0,0,-1,1973,1555,0,0
756,-531,0,0,0,0,0,0,0,0,0,-1,1980,1555,0,0
763,-531,0,0,0,0,0,0,0,0,0,-1,1987,1555,0,0
770,-531,0,0,0,0,0,0,0,0,0,-1,1994,1555,0,0
777,-531,0,0,0,0,0,0,0,0,0,-1,2001,1555,0,0
784,-531,0,0,0,0,0,0,0,0,0,-1,2008,1555,0,0
791,-531,0,0,0,0,0,0,0,0,0,-1,2015,1555,0,0
798,-531,0,0,0,0,0,0,0,0,0,-1,2022,1555,0,0
805,-531,0,0,0,0,0,0,0,0,0,-1,2029,1555,0,0
812,-531,0,0,0,0,0,0,0,0,0,-1,2036,1555,0,0
-700,-538,0,0,0,0,0,0,0,0,0,-1,524,1562,0,0
-693,-538,0,0,0,0,0,0,0,0,0,-1,531,1562,0,0
-686,-538,0,0,0,0,0,0,0,0,0,-1,538,1562,0,0
-679,-538,0,0,0,0,0,0,0,0,0,-1,545,1562,0,0
-672,-538,0,0,0,0,0,0,0,0,0,-1,552,1562,0,0
-665,-538,0,0,0,0,0,0,0,0,0,-1,559,1562,0,0
-658,-538,0,0,0,0,0,0,0,0,0,-1,566,1562,0,0
-651,-538,0,0,0,0,0,0,0,0,0,-1,573,1562,0,0
-644,-538,0,0,0,0,0,0,0,0,0,-1,580,1562,0,0
-637,-538,0,0,0,0,0,0,0,0,0,-1,587,1562,0,0
-630,-538,0,0,0,0,0,0,0,0,0,-1,594,1562,0,0
-623,-538,0,0,0,0,0,0,0,0,0,-1,601,1562,0,0
-616,-538,0,0,0,0,0,0,0,0,0,-1,608,1562,0,0
-609,-538,0,0,0,0,0,0,0,0,0,-1,615,1562,0,0
-602,-538,0,0,0,0,0,0,0,0,0,-1,622,1562,0,0
-595,-538,0,0,0,0,0,0,0,0,0,-1,629,1562,0,0
-588,-538,0,0,0,0,0,0,0,0,0,-1,636,1562,0,0
-581,-538,0,0,0,0,0,0,0,0,0,-1,643,1562,0,0
-574,-538,0,0,0,0,0,0,0,0,0,-1,650,1562,0,0
-567,-538,0,0,0,0,0,0,0,0,0,-1,657,1562,0,0
-560,-538,0,0,0,0,0,0,0,0,0,-1,664,1562,0,0
-553,-538,0,0,0,0,0,0,0,0,0,-1,671,1562,0,0
-546,-538,0,0,0,0,0,0,0,0,0,-1,678,1562,0,0
-539,-538,0,0,0,0,0,0,0,0,0,-1,685,1562,0,0
-532,-538,0,0,0,0,0,0,0,0,0,-1,692,1562,0,0
-525,-538,0,0,0,0,0,0,0,0,0,-1,699,1562,0,0
-518,-538,0,0,0,0,0,0,0,0,0,-1,706,1562,0,0
-511,-538,-2.6582,-1.54321,0,0,0,0,0,0,0,-1,713,1562,-2.65821,1.54327
-504,-538,-2.66455,-0.71167,0,0,0,0,0,0,0,-1,720,1562,-2.66456,0.711667
-497,-538,-0.763855,6.77747,0,0,0,0,0,0,0,-1,727,1562,-0.76385,-6.77743
-490,-538,-2.70453,8.01465,0,0,0,0,0,0,0,-1,734,1562,-2.70451,-8.0147
-483,-538,-0.933533,7.84644,0,0,0,0,0,0,0,-1,741,1562,-0.933548,-7.84638
-476,-538,-3.29962,15.8307,0,0,0,0,0,0,0,-1,748,1562,-3.29962,-15.8306
-469,-538,-6.44983,24.5707,0,0,0,0,0,0,0,-1,755,1562,-6.4498,-24.5707
-462,-538,-5.75458,25.4069,0,0,0,0,0,0,0,-1,762,1562,-5.7546,-25.4068
-455,-538,-6.5755,28.8893,0,0,0,0,0,0,0,-1,769,1562,-6.57549,-28.8893
-448,-538,-7.0484,30.295,0,0,0,0,0,0,0,-1,776,1562,-7.04839,-30.2951
-441,-538,-7.08618,31.0531,0,0,0,0,0,0,0,-1,783,1562,-7.08616,-31.0531
-434,-538,-7.13104,31.9353,0.000867577,-0.00101011,0.000270557,0.000905784,-0.00104832,0.140289,0.0011292,0.0151024,790,1562,-7.13103,-31.9353
-427,-538,-7.16956,32.7961,0.000887824,-0.000505617,0.000441982,0.00101619,-0.000633983,0.282656,0.000961209,0.0143165,797,1562,-7.16958,-32.7962
-420,-538,-7.2049,33.583,0.000980473,1.23529e-05,0.000613745,0.00127808,-0.00028525,0.451492,0.000961346,0.0185698,804,1562,-7.20489,-33.583
-413,-538,-7.25189,34.3799,0.00119675,0.000516638,0.000812659,0.00173763,-2.42449e-05,0.587244,0.00116659,0.0190694,811,1562,-7.25187,-34.3799
-406,-538,-7.30261,35.2141,0.00152775,0.0010405,0.00103754,0.00234988,0.000218373,0.670081,0.00149911,0.0159253,818,1562,-7.3026,-35.2141
-399,-538,-7.33472,36.0217,0.00191324,0.00160355,0.00125287,0.00302079,0.000495997,0.723914,0.00187058,0.0138306,825,1562,-7.33469,-36.0218
-392,-538,-7.33142,36.8154,0.00236817,0.00217393,0.0014908,0.00376501,0.00077709,0.752871,0.00229525,0.0157919,832,1562,-7.33142,-36.8155
-385,-538,-7.39789,37.6121,0.00287071,0.00276236,0.00162834,0.00444578,0.0011873,0.76877,0.002658,0.0132351,839,1562,-7.39788,-37.612
-378,-538,-7.44977,38.4014,0.00354757,0.00324946,0.00173463,0.00513954,0.00165749,0.742539,0.003029,0.0105586,846,1562,-7.44979,-38.4013
-371,-538,-7.49103,39.1663,0.00434184,0.00388565,0.00190911,0.00603644,0.00219106,0.725942,0.0035285,0.0160202,853,1562,-7.491,-39.1662
-364,-538,-7.435,40.0729,0.00542466,0.00487152,0.00232497,0.00748945,0.00280672,0.726198,0.00436902,0.027133,860,1562,-7.43499,-40.0729
-357,-538,-7.27979,41.0791,0,0,0,0,0,0,0,-1,867,1562,-7.2798,-41.0791
-350,-538,-6.37695,40.0256,0,0,0,0,0,0,0,-1,874,1562,-6.37696,-40.0257
-343,-538,-2.47339,28.3082,0,0,0,0,0,0,0,-1,881,1562,-2.47341,-28.3083
-336,-538,-2.40161,28.5409,0,0,0,0,0,0,0,-1,888,1562,-2.40163,-28.541
-329,-538,-2.57159,28.4905,0,0,0,0,0,0,0,-1,895,1562,-2.57161,-28.4905
-322,-538,-2.83783,28.2308,0,0,0,0,0,0,0,-1,902,1562,-2.83783,-28.2308
-315,-538,-2.91827,27.7609,0,0,0,0,0,0,0,-1,909,1562,-2.91829,-27.7608
-308,-538,-4.37433,31.7996,0,0,0,0,0,0,0,-1,916,1562,-4.3743,-31.7995
-301,-538,-0.452393,18.5101,0,0,0,0,0,0,0,-1,923,1562,-0.452367,-18.5102
-294,-538,1.23138,14.0757,0,0,0,0,0,0,0,-1,930,1562,1.23137,-14.0757
-287,-538,-2.60419,10.2361,0,0,0,0,0,0,0,-1,937,1562,-2.6042,-10.2361
-280,-538,-2.93475,10.5106,0,0,0,0,0,0,0,-1,944,1562,-2.93475,-10.5106
-273,-538,-3.26532,10.785,0,0,0,0,0,0,0,-1,951,1562,-3.26531,-10.785
-266,-538,-5.03412,15.9951,0,0,0,0,0,0,0,-1,958,1562,-5.03409,-15.9951
-259,-538,-5.89642,16.5184,0,0,0,0,0,0,0,-1,965,1562,-5.89644,-16.5184
-252,-538,0,0,0,0,0,0,0,0,0,-1,972,1562,0,0
-245,-538,0,0,0,0,0,0,0,0,0,-1,979,1562,0,0
-238,-538,0,0,0,0,0,0,0,0,0,-1,986,1562,0,0
-231,-538,0,0,0,0,0,0,0,0,0,-1,993,1562,0,0
-224,-538,0,0,0,0,0,0,0,0,0,-1,1000,1562,0,0
-217,-538,0,0,0,0,0,0,0,0,0,-1,1007,1562,0,0
-210,-538,0,0,0,0,0,0,0,0,0,-1,1014,1562,0,0
-203,-538,0,0,0,0,0,0,0,0,0,-1,1021,1562,0,0
-196,-538,0,0,0,0,0,0,0,0,0,-1,1028,1562,0,0
-189,-538,0,0,0,0,0,0,0,0,0,-1,1035,1562,0,0
-182,-538,0,0,0,0,0,0,0,0,0,-1,1042,1562,0,0
-175,-538,0,0,0,0,0,0,0,0,0,-1,1049,1562,0,0
-168,-538,0,0,0,0,0,0,0,0,0,-1,1056,1562,0,0
-161,-538,0,0,0,0,0,0,0,0,0,-1,1063,1562,0,0
-154,-538,0,0,0,0,0,0,0,0,0,-1,1070,1562,0,0
-147,-538,0,0,0,0,0,0,0,0,0,-1,1077,1562,0,0
-140,-538,0,0,0,0,0,0,0,0,0,-1,1084,1562,0,0
-133,-538,0,0,0,0,0,0,0,0,0,-1,1091,1562,0,0
-126,-538,0,0,0,0,0,0,0,0,0,-1,1098,1562,0,0
-119,-538,0,0,0,0,0,0,0,0,0,-1,1105,1562,0,0
-112,-538,0,0,0,0,0,0,0,0,0,-1,1112,1562,0,0
-105,-538,0,0,0,0,0,0,0,0,0,-1,1119,1562,0,0
-98,-538,0,0,0,0,0,0,0,0,0,-1,1126,1562,0,0
-91,-538,0,0,0,0,0,0,0,0,0,-1,1133,1562,0,0
-84,-538,0,0,0,0,0,0,0,0,0,-1,1140,1562,0,0
-77,-538,0,0,0,0,0,0,0,0,0,-1,1147,1562,0,0
-70,-538,0,0,0,0,0,0,0,0,0,-1,1154,1562,0,0
-63,-538,0,0,0,0,0,0,0,0,0,-1,1161,1562,0,0
-56,-538,0,0,0,0,0,0,0,0,0,-1,1168,1562,0,0
-49,-538,0,0,0,0,0,0,0,0,0,-1,1175,1562,0,0
-42,-538,0,0,0,0,0,0,0,0,0,-1,1182,1562,0,0
-35,-538,0,0,0,0,0,0,0,0,0,-1,1189,1562,0,0
-28,-538,0,0,0,0,0,0,0,0,0,-1,1196,1562,0,0
-21,-538,0,0,0,0,0,0,0,0,0,-1,1203,1562,0,0
-14,-538,0,0,0,0,0,0,0,0,0,-1,1210,1562,0,0
-7,-538,0,0,0,0,0,0,0,0,0,-1,1217,1562,0,0
0,-538,0,0,0,0,0,0,0,0,0,-1,1224,1562,0,0
7,-538,0,0,0,0,0,0,0,0,0,-1,1231,1562,0,0
14,-538,0,0,0,0,0,0,0,0,0,-1,1238,1562,0,0
21,-538,0,0,0,0,0,0,0,0,0,-1,1245,1562,0,0
28,-538,0,0,0,0,0,0,0,0,0,-1,1252,1562,0,0
35,-538,0,0,0,0,0,0,0,0,0,-1,1259,1562,0,0
42,-538,0,0,0,0,0,0,0,0,0,-1,1266,1562,0,0
49,-538,0,0,0,0,0,0,0,0,0,-1,1273,1562,0,0
56,-538,0,0,0,0,0,0,0,0,0,-1,1280,1562,0,0
63,-538,0,0,0,0,0,0,0,0,0,-1,1287,1562,0,0
70,-538,0,0,0,0,0,0,0,0,0,-1,1294,1562,0,0
77,-538,0,0,0,0,0,0,0,0,0,-1,1301,1562,0,0
84,-538,0,0,0,0,0,0,0,0,0,-1,1308,1562,0,0
91,-538,0,0,0,0,0,0,0,0,0,-1,1315,1562,0,0
98,-538,0,0,0,0,0,0,0,0,0,-1,1322,1562,0,0
105,-538,0,0,0,0,0,0,0,0,0,-1,1329,1562,0,0
112,-538,0,0,0,0,0,0,0,0,0,-1,1336,1562,0,0
119,-538,0,0,0,0,0,0,0,0,0,-1,1343,1562,0,0
126,-538,0,0,0,0,0,0,0,0,0,-1,1350,1562,0,0
133,-538,0,0,0,0,0,0,0,0,0,-1,1357,1562,0,0
140,-538,0,0,0,0,0,0,0,0,0,-1,1364,1562,0,0
147,-538,0,0,0,0,0,0,0,0,0,-1,1371,1562,0,0
154,-538,0,0,0,0,0,0,0,0,0,-1,1378,1562,0,0
161,-538,0,0,0,0,0,0,0,0,0,-1,1385,1562,0,0
168,-538,0,0,0,0,0,0,0,0,0,-1,1392,1562,0,0
175,-538,0,0,0,0,0,0,0,0,0,-1,1399,1562,0,0
182,-538,0,0,0,0,0,0,0,0,0,-1,1406,1562,0,0
189,-538,0,0,0,0,0,0,0,0,0,-1,1413,1562,0,0
196,-538,0,0,0,0,0,0,0,0,0,-1,1420,1562,0,0
203,-538,0,0,0,0,0,0,0,0,0,-1,1427,1562,0,0
210,-538,0,0,0,0,0,0,0,0,0,-1,1434,1562,0,0
217,-538,0,0,0,0,0,0,0,0,0,-1,1441,1562,0,0
224,-538,0,0,0,0,0,0,0,0,0,-1,1448,1562,0,0
231,-538,0,0,0,0,0,0,0,0,0,-1,1455,1562,0,0
238,-538,0,0,0,0,0,0,0,0,0,-1,1462,1562,0,0
245,-538,0,0,0,0,0,0,0,0,0,-1,1469,1562,0,0
252,-538,0,0,0,0,0,0,0,0,0,-1,1476,1562,0,0
259,-538,0,0,0,0,0,0,0,0,0,-1,1483,1562,0,0
266,-538,0,0,0,0,0,0,0,0,0,-1,1490,1562,0,0
273,-538,0,0,0,0,0,0,0,0,0,-1,1497,1562,0,0
280,-538,0,0,0,0,0,0,0,0,0,-1,1504,1562,0,0
287,-538,0,0,0,0,0,0,0,0,0,-1,1511,1562,0,0
294,-538,0,0,0,0,0,0,0,0,0,-1,1518,1562,0,0
301,-538,0,0,0,0,0,0,0,0,0,-1,1525,1562,0,0
308,-538,0,0,0,0,0,0,0,0,0,-1,1532,1562,0,0
315,-538,0,0,0,0,0,0,0,0,0,-1,1539,1562,0,0
322,-538,0,0,0,0,0,0,0,0,0,-1,1546,1562,0,0
329,-538,0,0,0,0,0,0,0,0,0,-1,1553,1562,0,0
336,-538,0,0,0,0,0,0,0,0,0,-1,1560,1562,0,0
343,-538,0,0,0,0,0,0,0,0,0,-1,1567,1562,0,0
350,-538,0,0,0,0,0,0,0,0,0,-1,1574,1562,0,0
357,-538,0,0,0,0,0,0,0,0,0,-1,1581,1562,0,0
364,-538,0,0,0,0,0,0,0,0,0,-1,1588,1562,0,0
371,-538,0,0,0,0,0,0,0,0,0,-1,1595,1562,0,0
378,-538,9.65479,5.82434,0,0,0,0,0,0,0,-1,1602,1562,9.6548,-5.82439
385,-538,10.5449,7.9502,0,0,0,0,0,0,0,-1,1609,1562,10.5449,-7.95014
392,-538,8.20361,7.07214,0,0,0,0,0,0,0,-1,1616,1562,8.20362,-7.07211
399,-538,7.85425,4.70508,0,0,0,0,0,0,0,-1,1623,1562,7.85425,-4.70512
406,-538,7.77734,4.96094,0,0,0,0,0,0,0,-1,1630,1562,7.77729,-4.96097
413,-538,13.0446,13.1765,0,0,0,0,0,0,0,-1,1637,1562,13.0446,-13.1765
420,-538,9.96216,12.7653,0,0,0,0,0,0,0,-1,1644,1562,9.96221,-12.7653
427,-538,10.1732,14.5863,0,0,0,0,0,0,0,-1,1651,1562,10.1732,-14.5863
434,-538,9.64331,14.7745,0,0,0,0,0,0,0,-1,1658,1562,9.64326,-14.7746
441,-538,11.5039,20.5195,0,0,0,0,0,0,0,-1,1665,1562,11.5039,-20.5195
448,-538,12.8766,22.4932,0,0,0,0,0,0,0,-1,1672,1562,12.8766,-22.4932
455,-538,12.5693,17.4128,0,0,0,0,0,0,0,-1,1679,1562,12.5694,-17.4128
462,-538,12.1389,17.017,0,0,0,0,0,0,0,-1,1686,1562,12.1389,-17.017
469,-538,14.3802,16.6945,0,0,0,0,0,0,0,-1,1693,1562,14.3803,-16.6945
476,-538,13.724,19.0608,0,0,0,0,0,0,0,-1,1700,1562,13.724,-19.0608
483,-538,17.088,25.2936,0,0,0,0,0,0,0,-1,1707,1562,17.088,-25.2936
490,-538,24.7604,40.3541,0,0,0,0,0,0,0,-1,1714,1562,24.7604,-40.3541
497,-538,24.9271,39.41,0,0,0,0,0,0,0,-1,1721,1562,24.9271,-39.41
504,-538,24.9288,38.6027,0.00673083,0.00692638,-0.00470959,0.0115392,0.002118,-0.795777,0.00709301,0.0168503,1728,1562,24.9288,-38.6027
511,-538,24.8727,37.8345,0.0054411,0.00555321,-0.00382367,0.00932124,0.00167308,-0.792727,0.00573835,0.0100424,1735,1562,24.8726,-37.8344
518,-538,24.8489,37.0825,0.00435954,0.00449975,-0.003165,0.00759542,0.00126387,-0.796471,0.00469932,0.0108216,1742,1562,24.8489,-37.0825
525,-538,24.8212,36.2974,0.00337554,0.00348829,-0.00257772,0.00601024,0.000853582,-0.796331,0.00375478,0.0125702,1749,1562,24.8211,-36.2974
532,-538,24.8101,35.5182,0.00254504,0.00256221,-0.0020698,0.00462344,0.00048381,-0.787473,0.00293435,0.0146677,1756,1562,24.8101,-35.5182
539,-538,24.7562,34.7566,0.00199125,0.00190894,-0.00172278,0.00367336,0.000226826,-0.773455,0.00237691,0.0173359,1763,1562,24.7562,-34.7566
546,-538,24.6671,33.9575,0.00162391,0.00124182,-0.0014572,0.00290254,-3.68096e-05,-0.720219,0.00194741,0.0181572,1770,1562,24.6671,-33.9575
553,-538,24.6261,33.1158,0.00145993,0.000759358,-0.00128782,0.00244425,-0.000224963,-0.652612,0.00170943,0.0287805,1777,1562,24.6261,-33.1158
560,-538,24.5515,32.368,0.00158388,0.000460529,-0.0012758,0.00241618,-0.000371765,-0.578038,0.00174793,0.0328621,1784,1562,24.5515,-32.368
567,-538,24.4797,31.6173,0.00196676,0.000385446,-0.0013909,0.00277603,-0.000423819,-0.52695,0.00200693,0.0256147,1791,1562,24.4797,-31.6173
574,-538,24.3799,30.7838,0.00263148,0.000524536,-0.00165874,0.00354301,-0.000386992,-0.502482,0.002501,0.0335779,1798,1562,24.3799,-30.7838
581,-538,24.6088,29.8134,0,0,0,0,0,0,0,-1,1805,1562,24.6088,-29.8134
588,-538,24.4109,28.9408,0,0,0,0,0,0,0,-1,1812,1562,24.4109,-28.9407
595,-538,15.9808,16.0894,0,0,0,0,0,0,0,-1,1819,1562,15.9808,-16.0893
602,-538,10.314,8.94238,0,0,0,0,0,0,0,-1,1826,1562,10.314,-8.94238
609,-538,10.1046,7.05713,0,0,0,0,0,0,0,-1,1833,1562,10.1046,-7.05719
616,-538,9.92249,5.43506,0,0,0,0,0,0,0,-1,1840,1562,9.92254,-5.43507
623,-538,11.1711,4.31604,0,0,0,0,0,0,0,-1,1847,1562,11.1711,-4.316
630,-538,12.6112,2.61633,0,0,0,0,0,0,0,-1,1854,1562,12.6112,-2.61637
637,-538,0,0,0,0,0,0,0,0,0,-1,1861,1562,0,0
644,-538,0,0,0,0,0,0,0,0,0,-1,1868,1562,0,0
651,-538,0,0,0,0,0,0,0,0,0,-1,1875,1562,0,0
658,-538,0,0,0,0,0,0,0,0,0,-1,1882,1562,0,0
665,-538,0,0,0,0,0,0,0,0,0,-1,1889,1562,0,0
672,-538,0,0,0,0,0,0,0,0,0,-1,1896,1562,0,0
679,-538,0,0,0,0,0,0,0,0,0,-1,1903,1562,0,0
686,-538,0,0,0,0,0,0,0,0,0,-1,1910,1562,0,0
693,-538,0,0,0,0,0,0,0,0,0,-1,1917,1562,0,0
700,-538,0,0,0,0,0,0,0,0,0,-1,1924,1562,0,0
707,-538,0,0,0,0,0,0,0,0,0,-1,1931,1562,0,0
714,-538,0,0,0,0,0,0,0,0,0,-1,1938,1562,0,0
721,-538,0,0,0,0,0,0,0,0,0,-1,1945,1562,0,0
728,-538,0,0,0,0,0,0,0,0,0,-1,1952,1562,0,0
735,-538,0,0,0,0,0,0,0,0,0,-1,1959,1562,0,0
742,-538,0,0,0,0,0,0,0,0,0,-1,1966,1562,0,0
749,-538,0,0,0,0,0,0,0,0,0,-1,1973,1562,0,0
756,-538,0,0,0,0,0,0,0,0,0,-1,1980,1562,0,0
763,-538,0,0,0,0,0,0,0,0,0,-1,1987,1562,0,0
770,-538,0,0,0,0,0,0,0,0,0,-1,1994,1562,0,0
777,-538,0,0,0,0,0,0,0,0,0,-1,2001,1562,0,0
784,-538,0,0,0,0,0,0,0,0,0,-1,2008,1562,0,0
791,-538,0,0,0,0,0,0,0,0,0,-1,2015,1562,0,0
798,-538,0,0,0,0,0,0,0,0,0,-1,2022,1562,0,0
805,-538,0,0,0,0,0,0,0,0,0,-1,2029,1562,0,0
812,-538,0,0,0,0,0,0,0,0,0,-1,2036,1562,0,0
-700,-545,0,0,0,0,0,0,0,0,0,-1,524,1569,0,0
-693,-545,0,0,0,0,0,0,0,0,0,-1,531,1569,0,0
-686,-545,0,0,0,0,0,0,0,0,0,-1,538,1569,0,0
-679,-545,0,0,0,0,0,0,0,0,0,-1,545,1569,0,0
-672,-545,0,0,0,0,0,0,0,0,0,-1,552,1569,0,0
-665,-545,0,0,0,0,0,0,0,0,0,-1,559,1569,0,0
-658,-545,0,0,0,0,0,0,0,0,0,-1,566,1569,0,0
-651,-545,0,0,0,0,0,0,0,0,0,-1,573,1569,0,0
-644,-545,0,0,0,0,0,0,0,0,0,-1,580,1569,0,0
-637,-545,0,0,0,0,0,0,0,0,0,-1,587,1569,0,0
-630,-545,0,0,0,0,0,0,0,0,0,-1,594,1569,0,0
-623,-545,0,0,0,0,0,0,0,0,0,-1,601,1569,0,0
-616,-545,0,0,0,0,0,0,0,0,0,-1,608,1569,0,0
-609,-545,0,0,0,0,0,0,0,0,0,-1,615,1569,0,0
-602,-545,0,0,0,0,0,0,0,0,0,-1,622,1569,0,0
-595,-545,0,0,0,0,0,0,0,0,0,-1,629,1569,0,0
-588,-545,0,0,0,0,0,0,0,0,0,-1,636,1569,0,0
-581,-545,0,0,0,0,0,0,0,0,0,-1,643,1569,0,0
-574,-545,0,0,0,0,0,0,0,0,0,-1,650,1569,0,0
-567,-545,0,0,0,0,0,0,0,0,0,-1,657,1569,0,0
-560,-545,0,0,0,0,0,0,0,0,0,-1,664,1569,0,0
-553,-545,0,0,0,0,0,0,0,0,0,-1,671,1569,0,0
-546,-545,0,0,0,0,0,0,0,0,0,-1,678,1569,0,0
-539,-545,0,0,0,0,0,0,0,0,0,-1,685,1569,0,0
-532,-545,0,0,0,0,0,0,0,0,0,-1,692,1569,0,0
-525,-545,0,0,0,0,0,0,0,0,0,-1,699,1569,0,0
-518,-545,0,0,0,0,0,0,0,0,0,-1,706,1569,0,0
-511,-545,0,0,0,0,0,0,0,0,0,-1,713,1569,0,0
-504,-545,-3.55237,-2.5354,0,0,0,0,0,0,0,-1,720,1569,-3.55236,2.53545
-497,-545,2.26575,5.69214,0,0,0,0,0,0,0,-1,727,1569,2.26573,-5.6922
-490,-545,-2.17334,7.81396,0,0,0,0,0,0,0,-1,734,1569,-2.17334,-7.81399
-483,-545,-1.88336,5.8446,0,0,0,0,0,0,0,-1,741,1569,-1.88334,-5.84466
-476,-545,-1.13147,6.5741,0,0,0,0,0,0,0,-1,748,1569,-1.13149,-6.57405
-469,-545,-1.03412,15.8353,0,0,0,0,0,0,0,-1,755,1569,-1.03414,-15.8353
-462,-545,-4.09772,21.0458,0,0,0,0,0,0,0,-1,762,1569,-4.0977,-21.0458
-455,-545,-5.52856,27.5786,0,0,0,0,0,0,0,-1,769,1569,-5.52854,-27.5786
-448,-545,-5.52972,28.8887,0,0,0,0,0,0,0,-1,776,1569,-5.52974,-28.8886
-441,-545,-6.0871,31.1801,0,0,0,0,0,0,0,-1,783,1569,-6.08708,-31.18
-434,-545,-6.39465,32.0464,0.0008801,-0.00121493,0.000355995,0.00093894,-0.00127377,0.163801,0.00128237,0.0320542,790,1569,-6.39467,-32.0464
-427,-545,-6.36914,32.8337,0.000927917,-0.000624435,0.000611559,0.0011399,-0.000836415,0.333664,0.0011455,0.021885,797,1569,-6.36917,-32.8338
-420,-545,-6.35944,33.5981,0.000951807,-0.000136163,0.000751838,0.00133582,-0.000520176,0.472223,0.00110551,0.0237493,804,1569,-6.35943,-33.5981
-413,-545,-6.40784,34.3938,0.00103759,0.000257918,0.000850944,0.00158374,-0.000288237,0.570605,0.00116387,0.0239643,811,1569,-6.40787,-34.3938
-406,-545,-6.4574,35.2448,0.00124252,0.000628123,0.000966341,0.00194931,-7.86744e-05,0.631501,0.00132655,0.0185465,818,1569,-6.45739,-35.2448
-399,-545,-6.49524,36.048,0.00150674,0.00105791,0.00108067,0.00238605,0.000178601,0.683023,0.00153463,0.0123263,825,1569,-6.49526,-36.048
-392,-545,-6.54773,36.8387,0.001861,0.00148061,0.00122628,0.00291175,0.000429863,0.708461,0.00181493,0.0127744,832,1569,-6.54772,-36.8387
-385,-545,-6.58429,37.6453,0.00223994,0.00192624,0.00125583,0.00334867,0.000817506,0.723269,0.00201598,0.0112978,839,1569,-6.58427,-37.6453
-378,-545,-6.63904,38.4377,0.00274313,0.00231384,0.00126366,0.00381025,0.00124672,0.701273,0.00224321,0.0130435,846,1569,-6.63903,-38.4378
-371,-545,-6.68103,39.2572,0.00337469,0.00280736,0.00131943,0.00444061,0.00174144,0.679515,0.00258359,0.0160048,853,1569,-6.68103,-39.2573
-364,-545,-6.71857,40.021,0.00428075,0.00370662,0.00161641,0.00563538,0.00235198,0.697517,0.00326837,0.0126142,860,1569,-6.71856,-40.021
-357,-545,-6.66528,40.9518,0.00528208,0.00488258,0.00195031,0.00704284,0.00312181,0.734366,0.00407491,0.0280245,867,1569,-6.66529,-40.9518
-350,-545,-6.62311,41.796,0,0,0,0,0,0,0,-1,874,1569,-6.62313,-41.7961
-343,-545,-6.43225,42.7833,0,0,0,0,0,0,0,-1,881,1569,-6.43226,-42.7833
-336,-545,-4.2146,36.9165,0,0,0,0,0,0,0,-1,888,1569,-4.21457,-36.9165
-329,-545,-2.03595,27.8694,0,0,0,0,0,0,0,-1,895,1569,-2.03592,-27.8694
-322,-545,-2.42474,27.9695,0,0,0,0,0,0,0,-1,902,1569,-2.42474,-27.9695
-315,-545,-2.52954,30.1711,0,0,0,0,0,0,0,-1,909,1569,-2.52951,-30.1712
-308,-545,-1.54358,21.4457,0,0,0,0,0,0,0,-1,916,1569,-1.54357,-21.4457
-301,-545,1.52191,17.5009,0,0,0,0,0,0,0,-1,923,1569,1.52192,-17.5008
-294,-545,-2.69287,8.42102,0,0,0,0,0,0,0,-1,930,1569,-2.69287,-8.42097
-287,-545,-3.47784,9.96021,0,0,0,0,0,0,0,-1,937,1569,-3.47785,-9.96021
-280,-545,-3.7879,10.5448,0,0,0,0,0,0,0,-1,944,1569,-3.78793,-10.5448
-273,-545,-5.10333,12.864,0,0,0,0,0,0,0,-1,951,1569,-5.10331,-12.864
-266,-545,-5.78955,13.3704,0,0,0,0,0,0,0,-1,958,1569,-5.78952,-13.3703
-259,-545,-6.32184,13.8101,0,0,0,0,0,0,0,-1,965,1569,-6.32182,-13.81
-252,-545,0.369263,7.54053,0,0,0,0,0,0,0,-1,972,1569,0.369276,-7.54056
-245,-545,-0.236633,6.65564,0,0,0,0,0,0,0,-1,979,1569,-0.236605,-6.65566
-238,-545,0,0,0,0,0,0,0,0,0,-1,986,1569,0,0
-231,-545,0,0,0,0,0,0,0,0,0,-1,993,1569,0,0
-224,-545,0,0,0,0,0,0,0,0,0,-1,1000,1569,0,0
-217,-545,0,0,0,0,0,0,0,0,0,-1,1007,1569,0,0
-210,-545,0,0,0,0,0,0,0,0,0,-1,1014,1569,0,0
-203,-545,0,0,0,0,0,0,0,0,0,-1,1021,1569,0,0
-196,-545,0,0,0,0,0,0,0,0,0,-1,1028,1569,0,0
-189,-545,0,0,0,0,0,0,0,0,0,-1,1035,1569,0,0
-182,-545,0,0,0,0,0,0,0,0,0,-1,1042,1569,0,0
-175,-545,0,0,0,0,0,0,0,0,0,-1,1049,1569,0,0
-168,-545,0,0,0,0,0,0,0,0,0,-1,1056,1569,0,0
-161,-545,0,0,0,0,0,0,0,0,0,-1,1063,1569,0,0
-154,-545,0,0,0,0,0,0,0,0,0,-1,1070,1569,0,0
-147,-545,0,0,0,0,0,0,0,0,0,-1,1077,1569,0,0
-140,-545,0,0,0,0,0,0,0,0,0,-1,1084,1569,0,0
-133,-545,0,0,0,0,0,0,0,0,0,-1,1091,1569,0,0
-126,-545,0,0,0,0,0,0,0,0,0,-1,1098,1569,0,0
-119,-545,0,0,0,0,0,0,0,0,0,-1,1105,1569,0,0
-112,-545,0,0,0,0,0,0,0,0,0,-1,1112,1569,0,0
-105,-545,0,0,0,0,0,0,0,0,0,-1,1119,1569,0,0
-98,-545,0,0,0,0,0,0,0,0,0,-1,1126,1569,0,0
-91,-545,0,0,0,0,0,0,0,0,0,-1,1133,1569,0,0
-84,-545,0,0,0,0,0,0,0,0,0,-1,1140,1569,0,0
-77,-545,0,0,0,0,0,0,0,0,0,-1,1147,1569,0,0
-70,-545,0,0,0,0,0,0,0,0,0,-1,1154,1569,0,0
-63,-545,0,0,0,0,0,0,0,0,0,-1,1161,1569,0,0
-56,-545,0,0,0,0,0,0,0,0,0,-1,1168,1569,0,0
-49,-545,0,0,0,0,0,0,0,0,0,-1,1175,1569,0,0
-42,-545,0,0,0,0,0,0,0,0,0,-1,1182,1569,0,0
-35,-545,0,0,0,0,0,0,0,0,0,-1,1189,1569,0,0
-28,-545,0,0,0,0,0,0,0,0,0,-1,1196,1569,0,0
-21,-545,0,0,0,0,0,0,0,0,0,-1,1203,1569,0,0
-14,-545,0,0,0,0,0,0,0,0,0,-1,1210,1569,0,0
-7,-545,0,0,0,0,0,0,0,0,0,-1,1217,1569,0,0
0,-545,0,0,0,0,0,0,0,0,0,-1,1224,1569,0,0
7,-545,0,0,0,0,0,0,0,0,0,-1,1231,1569,0,0
14,-545,0,0,0,0,0,0,0,0,0,-1,1238,1569,0,0
21,-545,0,0,0,0,0,0,0,0,0,-1,1245,1569,0,0
28,-545,0,0,0,0,0,0,0,0,0,-1,1252,1569,0,0
35,-545,0,0,0,0,0,0,0,0,0,-1,1259,1569,0,0
42,-545,0,0,0,0,0,0,0,0,0,-1,1266,1569,0,0
49,-545,0,0,0,0,0,0,0,0,0,-1,1273,1569,0,0
56,-545,0,0,0,0,0,0,0,0,0,-1,1280,1569,0,0
63,-545,0,0,0,0,0,0,0,0,0,-1,1287,1569,0,0
70,-545,0,0,0,0,0,0,0,0,0,-1,1294,1569,0,0
77,-545,0,0,0,0,0,0,0,0,0,-1,1301,1569,0,0
84,-545,0,0,0,0,0,0,0,0,0,-1,1308,1569,0,0
91,-545,0,0,0,0,0,0,0,0,0,-1,1315,1569,0,0
98,-545,0,0,0,0,0,0,0,0,0,-1,1322,1569,0,0
105,-545,0,0,0,0,0,0,0,0,0,-1,1329,1569,0,0
112,-545,0,0,0,0,0,0,0,0,0,-1,1336,1569,0,0
119,-545,0,0,0,0,0,0,0,0,0,-1,1343,1569,0,0
126,-545,0,0,0,0,0,0,0,0,0,-1,1350,1569,0,0
133,-545,0,0,0,0,0,0,0,0,0,-1,1357,1569,0,0
140,-545,0,0,0,0,0,0,0,0,0,-1,1364,1569,0,0
147,-545,0,0,0,0,0,0,0,0,0,-1,1371,1569,0,0
154,-545,0,0,0,0,0,0,0,0,0,-1,1378,1569,0,0
161,-545,0,0,0,0,0,0,0,0,0,-1,1385,1569,0,0
168,-545,0,0,0,0,0,0,0,0,0,-1,1392,1569,0,0
175,-545,0,0,0,0,0,0,0,0,0,-1,1399,1569,0,0
182,-545,0,0,0,0,0,0,0,0,0,-1,1406,1569,0,0
189,-545,0,0,0,0,0,0,0,0,0,-1,1413,1569,0,0
196,-545,0,0,0,0,0,0,0,0,0,-1,1420,1569,0,0
203,-545,0,0,0,0,0,0,0,0,0,-1,1427,1569,0,0
210,-545,0,0,0,0,0,0,0,0,0,-1,1434,1569,0,0
217,-545,0,0,0,0,0,0,0,0,0,-1,1441,1569,0,0
224,-545,0,0,0,0,0,0,0,0,0,-1,1448,1569,0,0
231,-545,0,0,0,0,0,0,0,0,0,-1,1455,1569,0,0
238,-545,0,0,0,0,0,0,0,0,0,-1,1462,1569,0,0
245,-545,0,0,0,0,0,0,0,0,0,-1,1469,1569,0,0
252,-545,0,0,0,0,0,0,0,0,0,-1,1476,1569,0,0
259,-545,0,0,0,0,0,0,0,0,0,-1,1483,1569,0,0
266,-545,0,0,0,0,0,0,0,0,0,-1,1490,1569,0,0
273,-545,0,0,0,0,0,0,0,0,0,-1,1497,1569,0,0
280,-545,0,0,0,0,0,0,0,0,0,-1,1504,1569,0,0
287,-545,0,0,0,0,0,0,0,0,0,-1,1511,1569,0,0
294,-545,0,0,0,0,0,0,0,0,0,-1,1518,1569,0,0
301,-545,0,0,0,0,0,0,0,0,0,-1,1525,1569,0,0
308,-545,0,0,0,0,0,0,0,0,0,-1,1532,1569,0,0
315,-545,0,0,0,0,0,0,0,0,0,-1,1539,1569,0,0
322,-545,0,0,0,0,0,0,0,0,0,-1,1546,1569,0,0
329,-545,0,0,0,0,0,0,0,0,0,-1,1553,1569,0,0
336,-545,0,0,0,0,0,0,0,0,0,-1,1560,1569,0,0
343,-545,0,0,0,0,0,0,0,0,0,-1,1567,1569,0,0
350,-545,0,0,0,0,0,0,0,0,0,-1,1574,1569,0,0
357,-545,0,0,0,0,0,0,0,0,0,-1,1581,1569,0,0
364,-545,7.19495,4.88098,0,0,0,0,0,0,0,-1,1588,1569,7.19497,-4.88095
371,-545,7.82324,3.84302,0,0,0,0,0,0,0,-1,1595,1569,7.82324,-3.84307
378,-545,7.65674,5.52673,0,0,0,0,0,0,0,-1,1602,1569,7.6567,-5.52667
385,-545,8.58447,1.16125,0,0,0,0,0,0,0,-1,1609,1569,8.5845,-1.1612
392,-545,12.5654,3.89526,0,0,0,0,0,0,0,-1,1616,1569,12.5655,-3.89532
399,-545,11.5869,5.6333,0,0,0,0,0,0,0,-1,1623,1569,11.5869,-5.63326
406,-545,11.234,6.36414,0,0,0,0,0,0,0,-1,1630,1569,11.234,-6.3641
413,-545,12.1521,13.4817,0,0,0,0,0,0,0,-1,1637,1569,12.1521,-13.4817
420,-545,11.1954,13.6047,0,0,0,0,0,0,0,-1,1644,1569,11.1954,-13.6047
427,-545,9.61072,14.9135,0,0,0,0,0,0,0,-1,1651,1569,9.61076,-14.9134
434,-545,13.1598,23.9921,0,0,0,0,0,0,0,-1,1658,1569,13.1598,-23.992
441,-545,12.2833,22.2238,0,0,0,0,0,0,0,-1,1665,1569,12.2833,-22.2237
448,-545,13.0082,21.941,0,0,0,0,0,0,0,-1,1672,1569,13.0082,-21.941
455,-545,13.733,21.6583,0,0,0,0,0,0,0,-1,1679,1569,13.733,-21.6583
462,-545,12.449,20.7413,0,0,0,0,0,0,0,-1,1686,1569,12.4489,-20.7413
469,-545,12.7837,17.7919,0,0,0,0,0,0,0,-1,1693,1569,12.7837,-17.7919
476,-545,15.7562,24.8708,0,0,0,0,0,0,0,-1,1700,1569,15.7563,-24.8709
483,-545,24.1404,41.1047,0,0,0,0,0,0,0,-1,1707,1569,24.1404,-41.1048
490,-545,24.121,40.2528,0.00830835,0.00773701,-0.00545831,0.0134885,0.0025569,-0.759254,0.00827278,0.0298256,1714,1569,24.121,-40.2529
497,-545,24.1268,39.4689,0.00673901,0.00616817,-0.00435859,0.0108215,0.00208567,-0.752702,0.0066294,0.0239762,1721,1569,24.1268,-39.4688
504,-545,24.2148,38.658,0.00540113,0.00521189,-0.00354787,0.00885565,0.00175738,-0.772067,0.0054139,0.0163753,1728,1569,24.2149,-38.6579
511,-545,24.1498,37.8702,0.00424944,0.00410586,-0.00284434,0.0070229,0.00133241,-0.772781,0.00430705,0.0114814,1735,1569,24.1498,-37.8702
518,-545,24.0829,37.1105,0.00326737,0.00324626,-0.00233765,0.00559448,0.000919141,-0.783141,0.00346416,0.0132201,1742,1569,24.0829,-37.1105
525,-545,24.0093,36.3396,0.00239835,0.00241286,-0.0018851,0.00429072,0.000520497,-0.787323,0.00270373,0.0150707,1749,1569,24.0093,-36.3396
532,-545,23.9791,35.5684,0.00170157,0.00165836,-0.00152476,0.00320488,0.000155052,-0.778313,0.00208682,0.0156232,1756,1569,23.9791,-35.5683
539,-545,23.9371,34.7988,0.00128415,0.00117215,-0.00131543,0.00254477,-8.84695e-05,-0.764124,0.00172676,0.0186673,1763,1569,23.9371,-34.7989
546,-545,23.8602,34.0046,0.00105054,0.00064411,-0.00117406,0.00203884,-0.000344196,-0.699705,0.0014873,0.0204901,1770,1569,23.8602,-34.0047
553,-545,23.8352,33.1714,0.00101605,0.000291731,-0.00113765,0.00184779,-0.000540013,-0.6313,0.00144588,0.0286502,1777,1569,23.8353,-33.1714
560,-545,23.8268,32.3409,0.00127576,0.000148612,-0.00128458,0.00211496,-0.000690586,-0.57868,0.00168794,0.0326329,1784,1569,23.8268,-32.3409
567,-545,23.8097,31.5436,0,0,0,0,0,0,0,-1,1791,1569,23.8096,-31.5436
574,-545,23.7501,30.6182,0,0,0,0,0,0,0,-1,1798,1569,23.7501,-30.6181
581,-545,23.687,29.3699,0,0,0,0,0,0,0,-1,1805,1569,23.687,-29.3699
588,-545,15.4786,16.7035,0,0,0,0,0,0,0,-1,1812,1569,15.4786,-16.7035
595,-545,10.2859,9.11218,0,0,0,0,0,0,0,-1,1819,1569,10.2858,-9.11215
602,-545,8.82117,6.32214,0,0,0,0,0,0,0,-1,1826,1569,8.82121,-6.32217
609,-545,10.2406,5.22351,0,0,0,0,0,0,0,-1,1833,1569,10.2406,-5.22353
616,-545,11.701,3.93188,0,0,0,0,0,0,0,-1,1840,1569,11.701,-3.93191
623,-545,13.2139,2.32043,0,0,0,0,0,0,0,-1,1847,1569,13.2139,-2.32042
630,-545,0,0,0,0,0,0,0,0,0,-1,1854,1569,0,0
637,-545,0,0,0,0,0,0,0,0,0,-1,1861,1569,0,0
644,-545,0,0,0,0,0,0,0,0,0,-1,1868,1569,0,0
651,-545,0,0,0,0,0,0,0,0,0,-1,1875,1569,0,0
658,-545,0,0,0,0,0,0,0,0,0,-1,1882,1569,0,0
665,-545,0,0,0,0,0,0,0,0,0,-1,1889,1569,0,0
672,-545,0,0,0,0,0,0,0,0,0,-1,1896,1569,0,0
679,-545,0,0,0,0,0,0,0,0,0,-1,1903,1569,0,0
686,-545,0,0,0,0,0,0,0,0,0,-1,1910,1569,0,0
693,-545,0,0,0,0,0,0,0,0,0,-1,1917,1569,0,0
700,-545,0,0,0,0,0,0,0,0,0,-1,1924,1569,0,0
707,-545,0,0,0,0,0,0,0,0,0,-1,1931,1569,0,0
714,-545,0,0,0,0,0,0,0,0,0,-1,1938,1569,0,0
721,-545,0,0,0,0,0,0,0,0,0,-1,1945,1569,0,0
728,-545,0,0,0,0,0,0,0,0,0,-1,1952,1569,0,0
735,-545,0,0,0,0,0,0,0,0,0,-1,1959,1569,0,0
742,-545,0,0,0,0,0,0,0,0,0,-1,1966,1569,0,0
749,-545,0,0,0,0,0,0,0,0,0,-1,1973,1569,0,0
756,-545,0,0,0,0,0,0,0,0,0,-1,1980,1569,0,0
763,-545,0,0,0,0,0,0,0,0,0,-1,1987,1569,0,0
770,-545,0,0,0,0,0,0,0,0,0,-1,1994,1569,0,0
777,-545,0,0,0,0,0,0,0,0,0,-1,2001,1569,0,0
784,-545,0,0,0,0,0,0,0,0,0,-1,2008,1569,0,0
791,-545,0,0,0,0,0,0,0,0,0,-1,2015,1569,0,0
798,-545,0,0,0,0,0,0,0,0,0,-1,2022,1569,0,0
805,-545,0,0,0,0,0,0,0,0,0,-1,2029,1569,0,0
812,-545,0,0,0,0,0,0,0,0,0,-1,2036,1569,0,0
-700,-552,0,0,0,0,0,0,0,0,0,-1,524,1576,0,0
-693,-552,0,0,0,0,0,0,0,0,0,-1,531,1576,0,0
-686,-552,0,0,0,0,0,0,0,0,0,-1,538,1576,0,0
-679,-552,0,0,0,0,0,0,0,0,0,-1,545,1576,0,0
-672,-552,0,0,0,0,0,0,0,0,0,-1,552,1576,0,0
-665,-552,0,0,0,0,0,0,0,0,0,-1,559,1576,0,0
-658,-552,0,0,0,0,0,0,0,0,0,-1,566,1576,0,0
-651,-552,0,0,0,0,0,0,0,0,0,-1,573,1576,0,0
-644,-552,0,0,0,0,0,0,0,0,0,-1,580,1576,0,0
-637,-552,0,0,0,0,0,0,0,0,0,-1,587,1576,0,0
-630,-552,0,0,0,0,0,0,0,0,0,-1,594,1576,0,0
-623,-552,0,0,0,0,0,0,0,0,0,-1,601,1576,0,0
-616,-552,0,0,0,0,0,0,0,0,0,-1,608,1576,0,0
-609,-552,0,0,0,0,0,0,0,0,0,-1,615,1576,0,0
-602,-552,0,0,0,0,0,0,0,0,0,-1,622,1576,0,0
-595,-552,0,0,0,0,0,0,0,0,0,-1,629,1576,0,0
-588,-552,0,0,0,0,0,0,0,0,0,-1,636,1576,0,0
-581,-552,0,0,0,0,0,0,0,0,0,-1,643,1576,0,0
-574,-552,0,0,0,0,0,0,0,0,0,-1,650,1576,0,0
-567,-552,0,0,0,0,0,0,0,0,0,-1,657,1576,0,0
-560,-552,0,0,0,0,0,0,0,0,0,-1,664,1576,0,0
-553,-552,0,0,0,0,0,0,0,0,0,-1,671,1576,0,0
-546,-552,0,0,0,0,0,0,0,0,0,-1,678,1576,0,0
-539,-552,0,0,0,0,0,0,0,0,0,-1,685,1576,0,0
-532,-552,0,0,0,0,0,0,0,0,0,-1,692,1576,0,0
-525,-552,0,0,0,0,0,0,0,0,0,-1,699,1576,0,0
-518,-552,0,0,0,0,0,0,0,0,0,-1,706,1576,0,0
-511,-552,0,0,0,0,0,0,0,0,0,-1,713,1576,0,0
-504,-552,0,0,0,0,0,0,0,0,0,-1,720,1576,0,0
-497,-552,1.51282,3.96924,0,0,0,0,0,0,0,-1,727,1576,1.5128,-3.96924
-490,-552,-3.82312,6.32104,0,0,0,0,0,0,0,-1,734,1576,-3.82314,-6.3211
-483,-552,-3.50586,6.47986,0,0,0,0,0,0,0,-1,741,1576,-3.50587,-6.47983
-476,-552,-1.95129,4.43054,0,0,0,0,0,0,0,-1,748,1576,-1.95128,-4.43054
-469,-552,-1.40491,7.9895,0,0,0,0,0,0,0,-1,755,1576,-1.40491,-7.98947
-462,-552,0.0459595,16.3469,0,0,0,0,0,0,0,-1,762,1576,0.0459611,-16.3469
-455,-552,-3.21484,22.3766,0,0,0,0,0,0,0,-1,769,1576,-3.21487,-22.3766
-448,-552,-4.31531,29.2926,0,0,0,0,0,0,0,-1,776,1576,-4.31533,-29.2926
-441,-552,-4.58466,31.7538,0,0,0,0,0,0,0,-1,783,1576,-4.58463,-31.7538
-434,-552,-5.27588,32.2772,0,0,0,0,0,0,0,-1,790,1576,-5.27591,-32.2772
-427,-552,-5.96716,32.8005,0,0,0,0,0,0,0,-1,797,1576,-5.96719,-32.8006
-420,-552,-5.59192,33.6641,0.00113007,0.00010477,0.00113619,0.00186391,-0.000629068,0.573472,0.00149702,0.0239448,804,1576,-5.59193,-33.6641
-413,-552,-5.61786,34.4572,0.00103147,0.000365925,0.00114915,0.00189506,-0.000497669,0.644463,0.00145786,0.0186024,811,1576,-5.61785,-34.4572
-406,-552,-5.64746,35.2764,0.00108143,0.000556891,0.00116268,0.00201105,-0.000372732,0.674468,0.00148067,0.0142681,818,1576,-5.64748,-35.2764
-399,-552,-5.71051,36.079,0.00122012,0.000841952,0.00118851,0.0022345,-0.000172421,0.706512,0.00155034,0.0144373,825,1576,-5.71054,-36.0789
-392,-552,-5.78821,36.8757,0.00147485,0.00111595,0.00124578,0.00255403,3.67644e-05,0.713867,0.00169057,0.0167522,832,1576,-5.78822,-36.8757
-385,-552,-5.82104,37.6826,0.00175006,0.00141778,0.00118494,0.00278045,0.000387384,0.715747,0.00173895,0.0157702,839,1576,-5.82102,-37.6827
-378,-552,-5.86847,38.4503,0.00212638,0.00168841,0.0011129,0.00304164,0.000773152,0.688256,0.00182546,0.0173047,846,1576,-5.86845,-38.4503
-371,-552,-5.90125,39.2875,0.00264702,0.00200538,0.00106007,0.00343375,0.00121865,0.638461,0.00201011,0.0209823,853,1576,-5.90124,-39.2875
-364,-552,-5.91541,40.0806,0.00343608,0.00270188,0.00123791,0.00436017,0.00177779,0.641256,0.00253159,0.0163456,860,1576,-5.91541,-40.0806
-357,-552,-5.95172,40.823,0.00430715,0.00360856,0.00145817,0.00545728,0.00245844,0.667841,0.0031559,0.0116009,867,1576,-5.95169,-40.823
-350,-552,-5.95825,41.6753,0.00537904,0.00482564,0.00181699,0.00694028,0.0032644,0.709836,0.00400932,0.0171834,874,1576,-5.95826,-41.6753
-343,-552,-5.97382,42.4489,0.00654006,0.00609943,0.00228834,0.00861867,0.00402082,0.737407,0.00497971,0.0334112,881,1576,-5.97379,-42.4489
-336,-552,-6.02808,43.1118,0,0,0,0,0,0,0,-1,888,1576,-6.02809,-43.1118
-329,-552,-3.68982,37.6417,0,0,0,0,0,0,0,-1,895,1576,-3.68984,-37.6417
-322,-552,-1.23962,28.5371,0,0,0,0,0,0,0,-1,902,1576,-1.23964,-28.5371
-315,-552,-0.605347,28.994,0,0,0,0,0,0,0,-1,909,1576,-0.605331,-28.9941
-308,-552,-1.01624,30.3169,0,0,0,0,0,0,0,-1,916,1576,-1.01624,-30.3169
-301,-552,1.39453,18.4995,0,0,0,0,0,0,0,-1,923,1576,1.3945,-18.4995
-294,-552,0.842163,13.7863,0,0,0,0,0,0,0,-1,930,1576,0.842149,-13.7863
-287,-552,-0.663757,13.3474,0,0,0,0,0,0,0,-1,937,1576,-0.663744,-13.3474
-280,-552,-5.47241,8.96765,0,0,0,0,0,0,0,-1,944,1576,-5.47239,-8.96766
-273,-552,1.64587,10.6685,0,0,0,0,0,0,0,-1,951,1576,1.6459,-10.6685
-266,-552,-1.32678,8.05688,0,0,0,0,0,0,0,-1,958,1576,-1.32677,-8.05683
-259,-552,-5.54321,8.31213,0,0,0,0,0,0,0,-1,965,1576,-5.54324,-8.31214
-252,-552,-1.93445,7.81543,0,0,0,0,0,0,0,-1,972,1576,-1.93445,-7.81546
-245,-552,-2.53613,6.92212,0,0,0,0,0,0,0,-1,979,1576,-2.53614,-6.92216
-238,-552,-6.5365,2.81885,0,0,0,0,0,0,0,-1,986,1576,-6.53649,-2.8188
-231,-552,-4.32239,4.34583,0,0,0,0,0,0,0,-1,993,1576,-4.32239,-4.34587
-224,-552,0,0,0,0,0,0,0,0,0,-1,1000,1576,0,0
-217,-552,0,0,0,0,0,0,0,0,0,-1,1007,1576,0,0
-210,-552,0,0,0,0,0,0,0,0,0,-1,1014,1576,0,0
-203,-552,0,0,0,0,0,0,0,0,0,-1,1021,1576,0,0
-196,-552,0,0,0,0,0,0,0,0,0,-1,1028,1576,0,0
-189,-552,0,0,0,0,0,0,0,0,0,-1,1035,1576,0,0
-182,-552,0,0,0,0,0,0,0,0,0,-1,1042,1576,0,0
-175,-552,0,0,0,0,0,0,0,0,0,-1,1049,1576,0,0
-168,-552,0,0,0,0,0,0,0,0,0,-1,1056,1576,0,0
-161,-552,0,0,0,0,0,0,0,0,0,-1,1063,1576,0,0
-154,-552,0,0,0,0,0,0,0,0,0,-1,1070,1576,0,0
-147,-552,0,0,0,0,0,0,0,0,0,-1,1077,1576,0,0
-140,-552,0,0,0,0,0,0,0,0,0,-1,1084,1576,0,0
-133,-552,0,0,0,0,0,0,0,0,0,-1,1091,1576,0,0
-126,-552,0,0,0,0,0,0,0,0,0,-1,1098,1576,0,0
-119,-552,0,0,0,0,0,0,0,0,0,-1,1105,1576,0,0
-112,-552,0,0,0,0,0,0,0,0,0,-1,1112,1576,0,0
-105,-552,0,0,0,0,0,0,0,0,0,-1,1119,1576,0,0
-98,-552,0,0,0,0,0,0,0,0,0,-1,1126,1576,0,0
-91,-552,0,0,0,0,0,0,0,0,0,-1,1133,1576,0,0
-84,-552,0,0,0,0,0,0,0,0,0,-1,1140,1576,0,0
-77,-552,0,0,0,0,0,0,0,0,0,-1,1147,1576,0,0
-70,-552,0,0,0,0,0,0,0,0,0,-1,1154,1576,0,0
-63,-552,0,0,0,0,0,0,0,0,0,-1,1161,1576,0,0
-56,-552,0,0,0,0,0,0,0,0,0,-1,1168,1576,0,0
-49,-552,0,0,0,0,0,0,0,0,0,-1,1175,1576,0,0
-42,-552,0,0,0,0,0,0,0,0,0,-1,1182,1576,0,0
-35,-552,0,0,0,0,0,0,0,0,0,-1,1189,1576,0,0
-28,-552,0,0,0,0,0,0,0,0,0,-1,1196,1576,0,0
-21,-552,0,0,0,0,0,0,0,0,0,-1,1203,1576,0,0
-14,-552,0,0,0,0,0,0,0,0,0,-1,1210,1576,0,0
-7,-552,0,0,0,0,0,0,0,0,0,-1,1217,1576,0,0
0,-552,0,0,0,0,0,0,0,0,0,-1,1224,1576,0,0
7,-552,0,0,0,0,0,0,0,0,0,-1,1231,1576,0,0
14,-552,0,0,0,0,0,0,0,0,0,-1,1238,1576,0,0
21,-552,0,0,0,0,0,0,0,0,0,-1,1245,1576,0,0
28,-552,0,0,0,0,0,0,0,0,0,-1,1252,1576,0,0
35,-552,0,0,0,0,0,0,0,0,0,-1,1259,1576,0,0
42,-552,0,0,0,0,0,0,0,0,0,-1,1266,1576,0,0
49,-552,0,0,0,0,0,0,0,0,0,-1,1273,1576,0,0
56,-552,0,0,0,0,0,0,0,0,0,-1,1280,1576,0,0
63,-552,0,0,0,0,0,0,0,0,0,-1,1287,1576,0,0
70,-552,0,0,0,0,0,0,0,0,0,-1,1294,1576,0,0
77,-552,0,0,0,0,0,0,0,0,0,-1,1301,1576,0,0
84,-552,0,0,0,0,0,0,0,0,0,-1,1308,1576,0,0
91,-552,0,0,0,0,0,0,0,0,0,-1,1315,1576,0,0
98,-552,0,0,0,0,0,0,0,0,0,-1,1322,1576,0,0
105,-552,0,0,0,0,0,0,0,0,0,-1,1329,1576,0,0
112,-552,0,0,0,0,0,0,0,0,0,-1,1336,1576,0,0
119,-552,0,0,0,0,0,0,0,0,0,-1,1343,1576,0,0
126,-552,0,0,0,0,0,0,0,0,0,-1,1350,1576,0,0
133,-552,0,0,0,0,0,0,0,0,0,-1,1357,1576,0,0
140,-552,0,0,0,0,0,0,0,0,0,-1,1364,1576,0,0
147,-552,0,0,0,0,0,0,0,0,0,-1,1371,1576,0,0
154,-552,0,0,0,0,0,0,0,0,0,-1,1378,1576,0,0
161,-552,0,0,0,0,0,0,0,0,0,-1,1385,1576,0,0
168,-552,0,0,0,0,0,0,0,0,0,-1,1392,1576,0,0
175,-552,0,0,0,0,0,0,0,0,0,-1,1399,1576,0,0
182,-552,0,0,0,0,0,0,0,0,0,-1,1406,1576,0,0
189,-552,0,0,0,0,0,0,0,0,0,-1,1413,1576,0,0
196,-552,0,0,0,0,0,0,0,0,0,-1,1420,1576,0,0
203,-552,0,0,0,0,0,0,0,0,0,-1,1427,1576,0,0
210,-552,0,0,0,0,0,0,0,0,0,-1,1434,1576,0,0
217,-552,0,0,0,0,0,0,0,0,0,-1,1441,1576,0,0
224,-552,0,0,0,0,0,0,0,0,0,-1,1448,1576,0,0
231,-552,0,0,0,0,0,0,0,0,0,-1,1455,1576,0,0
238,-552,0,0,0,0,0,0,0,0,0,-1,1462,1576,0,0
245,-552,0,0,0,0,0,0,0,0,0,-1,1469,1576,0,0
252,-552,0,0,0,0,0,0,0,0,0,-1,1476,1576,0,0
259,-552,0,0,0,0,0,0,0,0,0,-1,1483,1576,0,0
266,-552,0,0,0,0,0,0,0,0,0,-1,1490,1576,0,0
273,-552,0,0,0,0,0,0,0,0,0,-1,1497,1576,0,0
280,-552,0,0,0,0,0,0,0,0,0,-1,1504,1576,0,0
287,-552,0,0,0,0,0,0,0,0,0,-1,1511,1576,0,0
294,-552,0,0,0,0,0,0,0,0,0,-1,1518,1576,0,0
301,-552,0,0,0,0,0,0,0,0,0,-1,1525,1576,0,0
308,-552,0,0,0,0,0,0,0,0,0,-1,1532,1576,0,0
315,-552,0,0,0,0,0,0,0,0,0,-1,1539,1576,0,0
322,-552,0,0,0,0,0,0,0,0,0,-1,1546,1576,0,0
329,-552,0,0,0,0,0,0,0,0,0,-1,1553,1576,0,0
336,-552,0,0,0,0,0,0,0,0,0,-1,1560,1576,0,0
343,-552,0,0,0,0,0,0,0,0,0,-1,1567,1576,0,0
350,-552,4.97876,4.09888,0,0,0,0,0,0,0,-1,1574,1576,4.97875,-4.09883
357,-552,5.18469,4.10706,0,0,0,0,0,0,0,-1,1581,1576,5.1847,-4.10702
364,-552,5.80872,5.07031,0,0,0,0,0,0,0,-1,1588,1576,5.80874,-5.07037
371,-552,7.10657,5.64783,0,0,0,0,0,0,0,-1,1595,1576,7.10651,-5.64786
378,-552,6.44446,4.91492,0,0,0,0,0,0,0,-1,1602,1576,6.44448,-4.91496
385,-552,12.8276,3.16504,0,0,0,0,0,0,0,-1,1609,1576,12.8276,-3.16503
392,-552,12.1301,4.3363,0,0,0,0,0,0,0,-1,1616,1576,12.1302,-4.33631
399,-552,11.3486,5.6012,0,0,0,0,0,0,0,-1,1623,1576,11.3486,-5.60115
406,-552,10.7863,6.42542,0,0,0,0,0,0,0,-1,1630,1576,10.7863,-6.42536
413,-552,8.39307,10.365,0,0,0,0,0,0,0,-1,1637,1576,8.3931,-10.365
420,-552,10.2306,12.7225,0,0,0,0,0,0,0,-1,1644,1576,10.2305,-12.7226
427,-552,9.73267,14.783,0,0,0,0,0,0,0,-1,1651,1576,9.73269,-14.783
434,-552,12.0377,20.1364,0,0,0,0,0,0,0,-1,1658,1576,12.0377,-20.1364
441,-552,12.4963,21.5277,0,0,0,0,0,0,0,-1,1665,1576,12.4964,-21.5277
448,-552,12.9141,21.5482,0,0,0,0,0,0,0,-1,1672,1576,12.9141,-21.5482
455,-552,13.3318,21.5687,0,0,0,0,0,0,0,-1,1679,1576,13.3317,-21.5687
462,-552,12.745,20.5947,0,0,0,0,0,0,0,-1,1686,1576,12.745,-20.5947
469,-552,17.7067,29.6902,0,0,0,0,0,0,0,-1,1693,1576,17.7067,-29.6902
476,-552,23.2933,42.0216,0,0,0,0,0,0,0,-1,1700,1576,23.2933,-42.0216
483,-552,23.4971,40.9467,0,0,0,0,0,0,0,-1,1707,1576,23.4971,-40.9467
490,-552,23.4203,40.1796,0.00657558,0.0061874,-0.00414134,0.0105274,0.0022356,-0.761982,0.00640446,0.0156736,1714,1576,23.4203,-40.1796
497,-552,23.5027,39.4326,0.00522188,0.00485973,-0.00328593,0.00833172,0.00174989,-0.757873,0.0050728,0.0233409,1721,1576,23.5027,-39.4326
504,-552,23.4607,38.6937,0.00409025,0.00397869,-0.00266255,0.00669761,0.00137133,-0.774925,0.00408541,0.0237829,1728,1576,23.4607,-38.6937
511,-552,23.3822,37.8853,0.00309149,0.00300029,-0.00209657,0.00514296,0.000948828,-0.774525,0.0031602,0.0178183,1735,1576,23.3822,-37.8852
518,-552,23.3496,37.1139,0.00223459,0.00221829,-0.00170417,0.00393063,0.000522256,-0.783008,0.00246484,0.0167112,1742,1576,23.3496,-37.1139
525,-552,23.2535,36.363,0.0015028,0.00146102,-0.0013636,0.00284567,0.000118157,-0.777739,0.00185898,0.0164833,1749,1576,23.2535,-36.363
532,-552,23.2148,35.5936,0.000969261,0.00079071,-0.00113306,0.00201655,-0.000256582,-0.746083,0.00143755,0.0161081,1756,1576,23.2149,-35.5936
539,-552,23.1677,34.8254,0.000712663,0.000377317,-0.00103899,0.00159743,-0.000507446,-0.705398,0.0012684,0.0196096,1763,1576,23.1677,-34.8254
546,-552,23.0944,34.0508,0.000663443,-7.04996e-05,-0.00100528,0.00136664,-0.000773697,-0.610392,0.00125143,0.0247763,1770,1576,23.0943,-34.0508
553,-552,23.0859,33.2007,0.000815136,-0.000356008,-0.00107797,0.00145631,-0.000997184,-0.536587,0.00142477,0.0292184,1777,1576,23.0859,-33.2007
560,-552,23.1012,32.3052,0,0,0,0,0,0,0,-1,1784,1576,23.1012,-32.3052
567,-552,20.6783,26.0908,0,0,0,0,0,0,0,-1,1791,1576,20.6784,-26.0908
574,-552,12.8835,14.8463,0,0,0,0,0,0,0,-1,1798,1576,12.8836,-14.8463
581,-552,9.74841,9.98645,0,0,0,0,0,0,0,-1,1805,1576,9.74847,-9.9864
588,-552,10.5619,9.34924,0,0,0,0,0,0,0,-1,1812,1576,10.5619,-9.34921
595,-552,5.36194,6.62744,0,0,0,0,0,0,0,-1,1819,1576,5.36193,-6.62742
602,-552,10.6863,4.31616,0,0,0,0,0,0,0,-1,1826,1576,10.6862,-4.31619
609,-552,12.146,3.18286,0,0,0,0,0,0,0,-1,1833,1576,12.1459,-3.18281
616,-552,13.8762,2.08167,0,0,0,0,0,0,0,-1,1840,1576,13.8763,-2.08167
623,-552,0,0,0,0,0,0,0,0,0,-1,1847,1576,0,0
630,-552,0,0,0,0,0,0,0,0,0,-1,1854,1576,0,0
637,-552,0,0,0,0,0,0,0,0,0,-1,1861,1576,0,0
644,-552,0,0,0,0,0,0,0,0,0,-1,1868,1576,0,0
651,-552,0,0,0,0,0,0,0,0,0,-1,1875,1576,0,0
658,-552,0,0,0,0,0,0,0,0,0,-1,1882,1576,0,0
665,-552,0,0,0,0,0,0,0,0,0,-1,1889,1576,0,0
672,-552,0,0,0,0,0,0,0,0,0,-1,1896,1576,0,0
679,-552,0,0,0,0,0,0,0,0,0,-1,1903,1576,0,0
686,-552,0,0,0,0,0,0,0,0,0,-1,1910,1576,0,0
693,-552,0,0,0,0,0,0,0,0,0,-1,1917,1576,0,0
700,-552,0,0,0,0,0,0,0,0,0,-1,1924,1576,0,0
707,-552,0,0,0,0,0,0,0,0,0,-1,1931,1576,0,0
714,-552,0,0,0,0,0,0,0,0,0,-1,1938,1576,0,0
721,-552,0,0,0,0,0,0,0,0,0,-1,1945,1576,0,0
728,-552,0,0,0,0,0,0,0,0,0,-1,1952,1576,0,0
735,-552,0,0,0,0,0,0,0,0,0,-1,1959,1576,0,0
742,-552,0,0,0,0,0,0,0,0,0,-1,1966,1576,0,0
749,-552,0,0,0,0,0,0,0,0,0,-1,1973,1576,0,0
756,-552,0,0,0,0,0,0,0,0,0,-1,1980,1576,0,0
763,-552,0,0,0,0,0,0,0,0,0,-1,1987,1576,0,0
770,-552,0,0,0,0,0,0,0,0,0,-1,1994,1576,0,0
777,-552,0,0,0,0,0,0,0,0,0,-1,2001,1576,0,0
784,-552,0,0,0,0,0,0,0,0,0,-1,2008,1576,0,0
791,-552,0,0,0,0,0,0,0,0,0,-1,2015,1576,0,0
798,-552,0,0,0,0,0,0,0,0,0,-1,2022,1576,0,0
805,-552,0,0,0,0,0,0,0,0,0,-1,2029,1576,0,0
812,-552,0,0,0,0,0,0,0,0,0,-1,2036,1576,0,0
-700,-559,0,0,0,0,0,0,0,0,0,-1,524,1583,0,0
-693,-559,0,0,0,0,0,0,0,0,0,-1,531,1583,0,0
-686,-559,0,0,0,0,0,0,0,0,0,-1,538,1583,0,0
-679,-559,0,0,0,0,0,0,0,0,0,-1,545,1583,0,0
-672,-559,0,0,0,0,0,0,0,0,0,-1,552,1583,0,0
-665,-559,0,0,0,0,0,0,0,0,0,-1,559,1583,0,0
-658,-559,0,0,0,0,0,0,0,0,0,-1,566,1583,0,0
-651,-559,0,0,0,0,0,0,0,0,0,-1,573,1583,0,0
-644,-559,0,0,0,0,0,0,0,0,0,-1,580,1583,0,0
-637,-559,0,0,0,0,0,0,0,0,0,-1,587,1583,0,0
-630,-559,0,0,0,0,0,0,0,0,0,-1,594,1583,0,0
-623,-559,0,0,0,0,0,0,0,0,0,-1,601,1583,0,0
-616,-559,0,0,0,0,0,0,0,0,0,-1,608,1583,0,0
-609,-559,0,0,0,0,0,0,0,0,0,-1,615,1583,0,0
-602,-559,0,0,0,0,0,0,0,0,0,-1,622,1583,0,0
-595,-559,0,0,0,0,0,0,0,0,0,-1,629,1583,0,0
-588,-559,0,0,0,0,0,0,0,0,0,-1,636,1583,0,0
-581,-559,0,0,0,0,0,0,0,0,0,-1,643,1583,0,0
-574,-559,0,0,0,0,0,0,0,0,0,-1,650,1583,0,0
-567,-559,0,0,0,0,0,0,0,0,0,-1,657,1583,0,0
-560,-559,0,0,0,0,0,0,0,0,0,-1,664,1583,0,0
-553,-559,0,0,0,0,0,0,0,0,0,-1,671,1583,0,0
-546,-559,0,0,0,0,0,0,0,0,0,-1,678,1583,0,0
-539,-559,0,0,0,0,0,0,0,0,0,-1,685,1583,0,0
-532,-559,0,0,0,0,0,0,0,0,0,-1,692,1583,0,0
-525,-559,0,0,0,0,0,0,0,0,0,-1,699,1583,0,0
-518,-559,0,0,0,0,0,0,0,0,0,-1,706,1583,0,0
-511,-559,0,0,0,0,0,0,0,0,0,-1,713,1583,0,0
-504,-559,0,0,0,0,0,0,0,0,0,-1,720,1583,0,0
-497,-559,0,0,0,0,0,0,0,0,0,-1,727,1583,0,0
-490,-559,-5.49835,4.47424,0,0,0,0,0,0,0,-1,734,1583,-5.49833,-4.4743
-483,-559,-5.24078,4.74561,0,0,0,0,0,0,0,-1,741,1583,-5.24079,-4.74563
-476,-559,-4.98022,4.99316,0,0,0,0,0,0,0,-1,748,1583,-4.98024,-4.99321
-469,-559,-4.6424,5.38062,0,0,0,0,0,0,0,-1,755,1583,-4.64237,-5.38058
-462,-559,-0.161865,6.49438,0,0,0,0,0,0,0,-1,762,1583,-0.161835,-6.49444
-455,-559,1.08826,7.02527,0,0,0,0,0,0,0,-1,769,1583,1.08823,-7.02529
-448,-559,-2.86023,20.0852,0,0,0,0,0,0,0,-1,776,1583,-2.86025,-20.0852
-441,-559,-3.86279,30.3889,0,0,0,0,0,0,0,-1,783,1583,-3.86278,-30.3889
-434,-559,-4.0191,32.2782,0,0,0,0,0,0,0,-1,790,1583,-4.01908,-32.2782
-427,-559,-4.59821,33.0817,0,0,0,0,0,0,0,-1,797,1583,-4.59822,-33.0817
-420,-559,-4.80774,33.5861,0,0,0,0,0,0,0,-1,804,1583,-4.80774,-33.5861
-413,-559,-4.85773,34.5039,0.00139052,0.000916935,0.00197468,0.00314255,-0.000835097,0.725726,0.00242187,0.019163,811,1583,-4.85771,-34.5039
-406,-559,-4.87701,35.3284,0.00117221,0.000790807,0.00174893,0.0027408,-0.000777789,0.731094,0.00213424,0.010099,818,1583,-4.877,-35.3284
-399,-559,-4.91486,36.139,0.00110201,0.000839905,0.00158567,0.00256204,-0.000620118,0.744167,0.00194792,0.0136604,825,1583,-4.91486,-36.1391
-392,-559,-4.99957,36.9304,0.00119196,0.000920213,0.00147534,0.00253767,-0.000425495,0.73948,0.00184999,0.0177668,832,1583,-4.99959,-36.9304
-385,-559,-5.03845,37.7295,0.00132577,0.00106464,0.00128653,0.00248834,-9.79339e-05,0.734827,0.00169248,0.017347,839,1583,-5.03845,-37.7295
-378,-559,-5.0683,38.5056,0.00156411,0.00123293,0.00111357,0.00252433,0.000272702,0.711588,0.00159975,0.0156973,846,1583,-5.06829,-38.5056
-371,-559,-5.13403,39.3356,0.00198467,0.00141738,0.00094948,0.00269197,0.000710085,0.640249,0.00161099,0.023287,853,1583,-5.13406,-39.3356
-364,-559,-5.13483,40.0909,0.00267077,0.00193843,0.00100978,0.00337872,0.00123048,0.611459,0.00197455,0.0211565,860,1583,-5.13483,-40.0909
-357,-559,-5.16705,40.851,0.00344281,0.00264633,0.00112279,0.00423589,0.00185325,0.614975,0.00245195,0.0133537,867,1583,-5.16708,-40.8509
-350,-559,-5.20898,41.6116,0.00447103,0.0035563,0.0013639,0.0054522,0.00257512,0.623623,0.00314944,0.0106807,874,1583,-5.20898,-41.6115
-343,-559,-5.23871,42.3938,0.00563235,0.00470367,0.00181508,0.00704155,0.00329447,0.660173,0.00406824,0.0121055,881,1583,-5.23872,-42.3938
-336,-559,-5.20789,43.1699,0,0,0,0,0,0,0,-1,888,1583,-5.20786,-43.1699
-329,-559,-5.2583,44.0924,0,0,0,0,0,0,0,-1,895,1583,-5.2583,-44.0924
-322,-559,-4.86597,44.8291,0,0,0,0,0,0,0,-1,902,1583,-4.86594,-44.8291
-315,-559,-0.659607,29.1698,0,0,0,0,0,0,0,-1,909,1583,-0.659577,-29.1698
-308,-559,-0.755493,30.4624,0,0,0,0,0,0,0,-1,916,1583,-0.755509,-30.4625
-301,-559,-1.22174,31.0372,0,0,0,0,0,0,0,-1,923,1583,-1.22176,-31.0372
-294,-559,0.945129,18.5165,0,0,0,0,0,0,0,-1,930,1583,0.945117,-18.5165
-287,-559,-0.11792,15.4912,0,0,0,0,0,0,0,-1,937,1583,-0.117939,-15.4912
-280,-559,0.191467,13.5093,0,0,0,0,0,0,0,-1,944,1583,0.191441,-13.5093
-273,-559,2.12836,10.3059,0,0,0,0,0,0,0,-1,951,1583,2.12839,-10.3059
-266,-559,-0.597046,6.68933,0,0,0,0,0,0,0,-1,958,1583,-0.597031,-6.68937
-259,-559,-7.00311,8.62756,0,0,0,0,0,0,0,-1,965,1583,-7.00312,-8.6275
-252,-559,-9.4483,2.87805,0,0,0,0,0,0,0,-1,972,1583,-9.44829,-2.87805
-245,-559,-4.80804,7.1803,0,0,0,0,0,0,0,-1,979,1583,-4.80804,-7.18027
-238,-559,-8.45764,2.54858,0,0,0,0,0,0,0,-1,986,1583,-8.45763,-2.54862
-231,-559,-5.86914,4.34021,0,0,0,0,0,0,0,-1,993,1583,-5.86914,-4.34019
-224,-559,-3.30505,6.22864,0,0,0,0,0,0,0,-1,1000,1583,-3.30505,-6.22859
-217,-559,0,0,0,0,0,0,0,0,0,-1,1007,1583,0,0
-210,-559,0,0,0,0,0,0,0,0,0,-1,1014,1583,0,0
-203,-559,0,0,0,0,0,0,0,0,0,-1,1021,1583,0,0
-196,-559,0,0,0,0,0,0,0,0,0,-1,1028,1583,0,0
-189,-559,0,0,0,0,0,0,0,0,0,-1,1035,1583,0,0
-182,-559,0,0,0,0,0,0,0,0,0,-1,1042,1583,0,0
-175,-559,0,0,0,0,0,0,0,0,0,-1,1049,1583,0,0
-168,-559,0,0,0,0,0,0,0,0,0,-1,1056,1583,0,0
-161,-559,0,0,0,0,0,0,0,0,0,-1,1063,1583,0,0
-154,-559,0,0,0,0,0,0,0,0,0,-1,1070,1583,0,0
-147,-559,0,0,0,0,0,0,0,0,0,-1,1077,1583,0,0
-140,-559,0,0,0,0,0,0,0,0,0,-1,1084,1583,0,0
-133,-559,0,0,0,0,0,0,0,0,0,-1,1091,1583,0,0
-126,-559,0,0,0,0,0,0,0,0,0,-1,1098,1583,0,0
-119,-559,0,0,0,0,0,0,0,0,0,-1,1105,1583,0,0
-112,-559,0,0,0,0,0,0,0,0,0,-1,1112,1583,0,0
-105,-559,0,0,0,0,0,0,0,0,0,-1,1119,1583,0,0
-98,-559,0,0,0,0,0,0,0,0,0,-1,1126,1583,0,0
-91,-559,0,0,0,0,0,0,0,0,0,-1,1133,1583,0,0
-84,-559,0,0,0,0,0,0,0,0,0,-1,1140,1583,0,0
-77,-559,0,0,0,0,0,0,0,0,0,-1,1147,1583,0,0
-70,-559,0,0,0,0,0,0,0,0,0,-1,1154,1583,0,0
-63,-559,0,0,0,0,0,0,0,0,0,-1,1161,1583,0,0
-56,-559,0,0,0,0,0,0,0,0,0,-1,1168,1583,0,0
-49,-559,0,0,0,0,0,0,0,0,0,-1,1175,1583,0,0
-42,-559,0,0,0,0,0,0,0,0,0,-1,1182,1583,0,0
-35,-559,0,0,0,0,0,0,0,0,0,-1,1189,1583,0,0
-28,-559,0,0,0,0,0,0,0,0,0,-1,1196,1583,0,0
-21,-559,0,0,0,0,0,0,0,0,0,-1,1203,1583,0,0
-14,-559,0,0,0,0,0,0,0,0,0,-1,1210,1583,0,0
-7,-559,0,0,0,0,0,0,0,0,0,-1,1217,1583,0,0
0,-559,0,0,0,0,0,0,0,0,0,-1,1224,1583,0,0
7,-559,0,0,0,0,0,0,0,0,0,-1,1231,1583,0,0
14,-559,0,0,0,0,0,0,0,0,0,-1,1238,1583,0,0
21,-559,0,0,0,0,0,0,0,0,0,-1,1245,1583,0,0
28,-559,0,0,0,0,0,0,0,0,0,-1,1252,1583,0,0
35,-559,0,0,0,0,0,0,0,0,0,-1,1259,1583,0,0
42,-559,0,0,0,0,0,0,0,0,0,-1,1266,1583,0,0
49,-559,0,0,0,0,0,0,0,0,0,-1,1273,1583,0,0
56,-559,0,0,0,0,0,0,0,0,0,-1,1280,1583,0,0
63,-559,0,0,0,0,0,0,0,0,0,-1,1287,1583,0,0
70,-559,0,0,0,0,0,0,0,0,0,-1,1294,1583,0,0
77,-559,0,0,0,0,0,0,0,0,0,-1,1301,1583,0,0
84,-559,0,0,0,0,0,0,0,0,0,-1,1308,1583,0,0
91,-559,0,0,0,0,0,0,0,0,0,-1,1315,1583,0,0
98,-559,0,0,0,0,0,0,0,0,0,-1,1322,1583,0,0
105,-559,0,0,0,0,0,0,0,0,0,-1,1329,1583,0,0
112,-559,0,0,0,0,0,0,0,0,0,-1,1336,1583,0,0
119,-559,0,0,0,0,0,0,0,0,0,-1,1343,1583,0,0
126,-559,0,0,0,0,0,0,0,0,0,-1,1350,1583,0,0
133,-559,0,0,0,0,0,0,0,0,0,-1,1357,1583,0,0
140,-559,0,0,0,0,0,0,0,0,0,-1,1364,1583,0,0
147,-559,0,0,0,0,0,0,0,0,0,-1,1371,1583,0,0
154,-559,0,0,0,0,0,0,0,0,0,-1,1378,1583,0,0
161,-559,0,0,0,0,0,0,0,0,0,-1,1385,1583,0,0
168,-559,0,0,0,0,0,0,0,0,0,-1,1392,1583,0,0
175,-559,0,0,0,0,0,0,0,0,0,-1,1399,1583,0,0
182,-559,0,0,0,0,0,0,0,0,0,-1,1406,1583,0,0
189,-559,0,0,0,0,0,0,0,0,0,-1,1413,1583,0,0
196,-559,0,0,0,0,0,0,0,0,0,-1,1420,1583,0,0
203,-559,0,0,0,0,0,0,0,0,0,-1,1427,1583,0,0
210,-559,0,0,0,0,0,0,0,0,0,-1,1434,1583,0,0
217,-559,0,0,0,0,0,0,0,0,0,-1,1441,1583,0,0
224,-559,0,0,0,0,0,0,0,0,0,-1,1448,1583,0,0
231,-559,0,0,0,0,0,0,0,0,0,-1,1455,1583,0,0
238,-559,0,0,0,0,0,0,0,0,0,-1,1462,1583,0,0
245,-559,0,0,0,0,0,0,0,0,0,-1,1469,1583,0,0
252,-559,0,0,0,0,0,0,0,0,0,-1,1476,1583,0,0
259,-559,0,0,0,0,0,0,0,0,0,-1,1483,1583,0,0
266,-559,0,0,0,0,0,0,0,0,0,-1,1490,1583,0,0
273,-559,0,0,0,0,0,0,0,0,0,-1,1497,1583,0,0
280,-559,0,0,0,0,0,0,0,0,0,-1,1504,1583,0,0
287,-559,0,0,0,0,0,0,0,0,0,-1,1511,1583,0,0
294,-559,0,0,0,0,0,0,0,0,0,-1,1518,1583,0,0
301,-559,0,0,0,0,0,0,0,0,0,-1,1525,1583,0,0
308,-559,0,0,0,0,0,0,0,0,0,-1,1532,1583,0,0
315,-559,0,0,0,0,0,0,0,0,0,-1,1539,1583,0,0
322,-559,0,0,0,0,0,0,0,0,0,-1,1546,1583,0,0
329,-559,0,0,0,0,0,0,0,0,0,-1,1553,1583,0,0
336,-559,5.97668,3.09827,0,0,0,0,0,0,0,-1,1560,1583,5.97667,-3.09824
343,-559,5.44824,2.88696,0,0,0,0,0,0,0,-1,1567,1583,5.44819,-2.88693
350,-559,4.69775,3.27051,0,0,0,0,0,0,0,-1,1574,1583,4.69771,-3.27048
357,-559,3.88025,3.60999,0,0,0,0,0,0,0,-1,1581,1583,3.88027,-3.60998
364,-559,5.00928,5.32605,0,0,0,0,0,0,0,-1,1588,1583,5.00928,-5.32607
371,-559,1.84436,2.52441,0,0,0,0,0,0,0,-1,1595,1583,1.84441,-2.52447
378,-559,6.34753,1.53137,0,0,0,0,0,0,0,-1,1602,1583,6.34752,-1.53139
385,-559,6.95911,1.48181,0,0,0,0,0,0,0,-1,1609,1583,6.95916,-1.48175
392,-559,11.6949,4.77734,0,0,0,0,0,0,0,-1,1616,1583,11.6949,-4.77731
399,-559,11.1104,5.56909,0,0,0,0,0,0,0,-1,1623,1583,11.1103,-5.56905
406,-559,10.3385,6.48657,0,0,0,0,0,0,0,-1,1630,1583,10.3385,-6.48661
413,-559,9.76147,6.97571,0,0,0,0,0,0,0,-1,1637,1583,9.76143,-6.97574
420,-559,7.77124,10.5851,0,0,0,0,0,0,0,-1,1644,1583,7.77128,-10.585
427,-559,10.1022,12.5565,0,0,0,0,0,0,0,-1,1651,1583,10.1021,-12.5565
434,-559,9.62769,14.6309,0,0,0,0,0,0,0,-1,1658,1583,9.62771,-14.6309
441,-559,12.6149,21.3678,0,0,0,0,0,0,0,-1,1665,1583,12.6149,-21.3678
448,-559,13.7046,22.6677,0,0,0,0,0,0,0,-1,1672,1583,13.7046,-22.6677
455,-559,13.9427,23.0509,0,0,0,0,0,0,0,-1,1679,1583,13.9427,-23.0509
462,-559,21.9476,42.0568,0,0,0,0,0,0,0,-1,1686,1583,21.9477,-42.0568
469,-559,22.4763,42.7231,0,0,0,0,0,0,0,-1,1693,1583,22.4763,-42.7232
476,-559,22.6716,41.8567,0.00737284,0.00701938,-0.00451736,0.0117169,0.00267529,-0.765847,0.00708982,0.0320085,1700,1583,22.6717,-41.8567
483,-559,22.715,40.9636,0.00619453,0.00588622,-0.0037965,0.00984,0.00224075,-0.765107,0.0059553,0.0142538,1707,1583,22.715,-40.9637
490,-559,22.6819,40.1962,0.00503871,0.00469995,-0.00307533,0.00794932,0.00178934,-0.757887,0.00481523,0.0163319,1714,1583,22.6819,-40.1961
497,-559,22.6827,39.4749,0.00392342,0.00363813,-0.00243205,0.00621701,0.00134454,-0.756105,0.00377712,0.0191379,1721,1583,22.6827,-39.4749
504,-559,22.6133,38.7352,0.00299311,0.00285637,-0.00196919,0.00489512,0.000954363,-0.768044,0.00299639,0.0232697,1728,1583,22.6133,-38.7352
511,-559,22.5527,37.9224,0.0021542,0.00201846,-0.00152922,0.00361706,0.000555611,-0.763221,0.00224916,0.0224796,1735,1583,22.5527,-37.9224
518,-559,22.5909,37.144,0.00143132,0.00132922,-0.00123758,0.0026189,0.000141642,-0.764786,0.00170068,0.0159486,1742,1583,22.5909,-37.1441
525,-559,22.5208,36.3855,0.000835329,0.000661575,-0.00100271,0.00175492,-0.000258018,-0.742185,0.00126476,0.0141986,1749,1583,22.5208,-36.3855
532,-559,22.463,35.6259,0.000452793,7.99564e-05,-0.000894806,0.00118039,-0.000647643,-0.6827,0.00107025,0.0153083,1756,1583,22.463,-35.6259
539,-559,22.4156,34.8513,0.000327188,-0.000294162,-0.000904955,0.000973311,-0.000940285,-0.620049,0.00110487,0.0196751,1763,1583,22.4156,-34.8513
546,-559,22.3387,34.0739,0.000436056,-0.000684825,-0.000974884,0.00100011,-0.00124888,-0.524526,0.0013011,0.0183895,1770,1583,22.3387,-34.0739
553,-559,22.4081,33.225,0.00073293,-0.000958876,-0.00114374,0.00130959,-0.00153554,-0.466994,0.00164436,0.0246596,1777,1583,22.408,-33.225
560,-559,22.3679,32.3589,0,0,0,0,0,0,0,-1,1784,1583,22.3679,-32.3589
567,-559,21.7423,29.5544,0,0,0,0,0,0,0,-1,1791,1583,21.7423,-29.5544
574,-559,10.5109,10.7317,0,0,0,0,0,0,0,-1,1798,1583,10.5108,-10.7317
581,-559,5.97095,5.96179,0,0,0,0,0,0,0,-1,1805,1583,5.97093,-5.96181
588,-559,5.79102,5.89954,0,0,0,0,0,0,0,-1,1812,1583,5.79098,-5.89949
595,-559,5.79089,6.24231,0,0,0,0,0,0,0,-1,1819,1583,5.7909,-6.24227
602,-559,12.478,2.35669,0,0,0,0,0,0,0,-1,1826,1583,12.4781,-2.35675
609,-559,14.0479,1.22681,0,0,0,0,0,0,0,-1,1833,1583,14.0479,-1.22681
616,-559,0,0,0,0,0,0,0,0,0,-1,1840,1583,0,0
623,-559,0,0,0,0,0,0,0,0,0,-1,1847,1583,0,0
630,-559,0,0,0,0,0,0,0,0,0,-1,1854,1583,0,0
637,-559,0,0,0,0,0,0,0,0,0,-1,1861,1583,0,0
644,-559,0,0,0,0,0,0,0,0,0,-1,1868,1583,0,0
651,-559,0,0,0,0,0,0,0,0,0,-1,1875,1583,0,0
658,-559,0,0,0,0,0,0,0,0,0,-1,1882,1583,0,0
665,-559,0,0,0,0,0,0,0,0,0,-1,1889,1583,0,0
672,-559,0,0,0,0,0,0,0,0,0,-1,1896,1583,0,0
679,-559,0,0,0,0,0,0,0,0,0,-1,1903,1583,0,0
686,-559,0,0,0,0,0,0,0,0,0,-1,1910,1583,0,0
693,-559,0,0,0,0,0,0,0,0,0,-1,1917,1583,0,0
700,-559,0,0,0,0,0,0,0,0,0,-1,1924,1583,0,0
707,-559,0,0,0,0,0,0,0,0,0,-1,1931,1583,0,0
714,-559,0,0,0,0,0,0,0,0,0,-1,1938,1583,0,0
721,-559,0,0,0,0,0,0,0,0,0,-1,1945,1583,0,0
728,-559,0,0,0,0,0,0,0,0,0,-1,1952,1583,0,0
735,-559,0,0,0,0,0,0,0,0,0,-1,1959,1583,0,0
742,-559,0,0,0,0,0,0,0,0,0,-1,1966,1583,0,0
749,-559,0,0,0,0,0,0,0,0,0,-1,1973,1583,0,0
756,-559,0,0,0,0,0,0,0,0,0,-1,1980,1583,0,0
763,-559,0,0,0,0,0,0,0,0,0,-1,1987,1583,0,0
770,-559,0,0,0,0,0,0,0,0,0,-1,1994,1583,0,0
777,-559,0,0,0,0,0,0,0,0,0,-1,2001,1583,0,0
784,-559,0,0,0,0,0,0,0,0,0,-1,2008,1583,0,0
791,-559,0,0,0,0,0,0,0,0,0,-1,2015,1583,0,0
798,-559,0,0,0,0,0,0,0,0,0,-1,2022,1583,0,0
805,-559,0,0,0,0,0,0,0,0,0,-1,2029,1583,0,0
812,-559,0,0,0,0,0,0,0,0,0,-1,2036,1583,0,0
-700,-566,0,0,0,0,0,0,0,0,0,-1,524,1590,0,0
-693,-566,0,0,0,0,0,0,0,0,0,-1,531,1590,0,0
-686,-566,0,0,0,0,0,0,0,0,0,-1,538,1590,0,0
-679,-566,0,0,0,0,0,0,0,0,0,-1,545,1590,0,0
-672,-566,0,0,0,0,0,0,0,0,0,-1,552,1590,0,0
-665,-566,0,0,0,0,0,0,0,0,0,-1,559,1590,0,0
-658,-566,0,0,0,0,0,0,0,0,0,-1,566,1590,0,0
-651,-566,0,0,0,0,0,0,0,0,0,-1,573,1590,0,0
-644,-566,0,0,0,0,0,0,0,0,0,-1,580,1590,0,0
-637,-566,0,0,0,0,0,0,0,0,0,-1,587,1590,0,0
-630,-566,0,0,0,0,0,0,0,0,0,-1,594,1590,0,0
-623,-566,0,0,0,0,0,0,0,0,0,-1,601,1590,0,0
-616,-566,0,0,0,0,0,0,0,0,0,-1,608,1590,0,0
-609,-566,0,0,0,0,0,0,0,0,0,-1,615,1590,0,0
-602,-566,0,0,0,0,0,0,0,0,0,-1,622,1590,0,0
-595,-566,0,0,0,0,0,0,0,0,0,-1,629,1590,0,0
-588,-566,0,0,0,0,0,0,0,0,0,-1,636,1590,0,0
-581,-566,0,0,0,0,0,0,0,0,0,-1,643,1590,0,0
-574,-566,0,0,0,0,0,0,0,0,0,-1,650,1590,0,0
-567,-566,0,0,0,0,0,0,0,0,0,-1,657,1590,0,0
-560,-566,0,0,0,0,0,0,0,0,0,-1,664,1590,0,0
-553,-566,0,0,0,0,0,0,0,0,0,-1,671,1590,0,0
-546,-566,0,0,0,0,0,0,0,0,0,-1,678,1590,0,0
-539,-566,0,0,0,0,0,0,0,0,0,-1,685,1590,0,0
-532,-566,0,0,0,0,0,0,0,0,0,-1,692,1590,0,0
-525,-566,0,0,0,0,0,0,0,0,0,-1,699,1590,0,0
-518,-566,0,0,0,0,0,0,0,0,0,-1,706,1590,0,0
-511,-566,0,0,0,0,0,0,0,0,0,-1,713,1590,0,0
-504,-566,0,0,0,0,0,0,0,0,0,-1,720,1590,0,0
-497,-566,0,0,0,0,0,0,0,0,0,-1,727,1590,0,0
-490,-566,0,0,0,0,0,0,0,0,0,-1,734,1590,0,0
-483,-566,-7.17084,2.78613,0,0,0,0,0,0,0,-1,741,1590,-7.17083,-2.78618
-476,-566,-7.13971,2.87183,0,0,0,0,0,0,0,-1,748,1590,-7.13971,-2.87184
-469,-566,-6.43829,3.2998,0,0,0,0,0,0,0,-1,755,1590,-6.43829,-3.2998
-462,-566,-0.459106,3.89343,0,0,0,0,0,0,0,-1,762,1590,-0.459095,-3.89341
-455,-566,0.280212,4.74023,0,0,0,0,0,0,0,-1,769,1590,0.280207,-4.74023
-448,-566,0.436951,5.51306,0,0,0,0,0,0,0,-1,776,1590,0.436971,-5.51301
-441,-566,-0.440735,12.4063,0,0,0,0,0,0,0,-1,783,1590,-0.440753,-12.4062
-434,-566,-2.66687,31.0841,0,0,0,0,0,0,0,-1,790,1590,-2.66687,-31.0841
-427,-566,-3.8623,33.8759,0,0,0,0,0,0,0,-1,797,1590,-3.86232,-33.8758
-420,-566,-4.21478,33.6041,0,0,0,0,0,0,0,-1,804,1590,-4.21479,-33.6042
-413,-566,-4.07214,34.5293,0.00172,0.00152854,0.00291455,0.00454039,-0.00129185,0.768982,0.00353708,0.0376995,811,1590,-4.07212,-34.5293
-406,-566,-4.08643,35.356,0.00137575,0.00103445,0.0025132,0.00372409,-0.00131389,0.751499,0.00301759,0.0156057,818,1590,-4.0864,-35.356
-399,-566,-4.13293,36.1749,0.00118604,0.000843122,0.00221629,0.00323749,-0.00120833,0.746793,0.00265442,0.0120819,825,1590,-4.13294,-36.1749
-392,-566,-4.18591,36.9679,0.00118584,0.00075036,0.00198197,0.00296199,-0.00102579,0.730687,0.0023911,0.0159715,832,1590,-4.18589,-36.9679
-385,-566,-4.20862,37.7871,0.00122151,0.000762285,0.00171054,0.00271778,-0.000733981,0.71868,0.00209972,0.0172809,839,1590,-4.20864,-37.7871
-378,-566,-4.24762,38.5967,0.00133031,0.000864459,0.00145403,0.00256995,-0.000375185,0.705977,0.00185108,0.0158839,846,1590,-4.2476,-38.5967
-371,-566,-4.34302,39.3657,0.00162477,0.000960982,0.00118706,0.00252546,6.02937e-05,0.649082,0.00166391,0.0218155,853,1590,-4.343,-39.3657
-364,-566,-4.34839,40.137,0.00215064,0.00135495,0.00112258,0.00294378,0.000561799,0.615102,0.00180464,0.0229267,860,1590,-4.34839,-40.1369
-357,-566,-4.40442,40.8755,0.00276246,0.00194383,0.00112397,0.00354932,0.00115696,0.610778,0.00209017,0.019806,867,1590,-4.40442,-40.8755
-350,-566,-4.45837,41.646,0.00363028,0.0026807,0.00123722,0.00448069,0.0018303,0.602186,0.00260133,0.0229241,874,1590,-4.45837,-41.6459
-343,-566,-4.44946,42.4451,0.00461266,0.00370207,0.00157013,0.00579218,0.00252255,0.644282,0.00335337,0.0271299,881,1590,-4.44944,-42.4451
-336,-566,-4.59253,43.1932,0.00578385,0.00509364,0.00221199,0.00767749,0.00319999,0.708014,0.00445301,0.0318729,888,1590,-4.59255,-43.1932
-329,-566,-4.50641,43.8657,0.00728645,0.00759523,0.00340349,0.0108478,0.00403385,0.808064,0.00633119,0.0316519,895,1590,-4.50639,-43.8657
-322,-566,-4.35553,44.8864,0,0,0,0,0,0,0,-1,902,1590,-4.35554,-44.8863
-315,-566,-4.00464,45.7654,0,0,0,0,0,0,0,-1,909,1590,-4.00467,-45.7654
-308,-566,-0.127258,29.7607,0,0,0,0,0,0,0,-1,916,1590,-0.12725,-29.7608
-301,-566,0.424011,30.6545,0,0,0,0,0,0,0,-1,923,1590,0.424036,-30.6546
-294,-566,-2.54523,43.1459,0,0,0,0,0,0,0,-1,930,1590,-2.54522,-43.1458
-287,-566,1.25391,23.4589,0,0,0,0,0,0,0,-1,937,1590,1.2539,-23.4589
-280,-566,1.59406,17.8762,0,0,0,0,0,0,0,-1,944,1590,1.59405,-17.8762
-273,-566,0.49762,11.2427,0,0,0,0,0,0,0,-1,951,1590,0.497591,-11.2426
-266,-566,0.392151,6.90295,0,0,0,0,0,0,0,-1,958,1590,0.392151,-6.90294
-259,-566,0.343628,6.47437,0,0,0,0,0,0,0,-1,965,1590,0.34363,-6.47438
-252,-566,-7.68311,1.01343,0,0,0,0,0,0,0,-1,972,1590,-7.68308,-1.01348
-245,-566,-11.1835,1.97522,0,0,0,0,0,0,0,-1,979,1590,-11.1835,-1.97527
-238,-566,-10.4883,2.40491,0,0,0,0,0,0,0,-1,986,1590,-10.4883,-2.40487
-231,-566,-7.41827,4.22803,0,0,0,0,0,0,0,-1,993,1590,-7.41827,-4.22803
-224,-566,-4.67188,6.30859,0,0,0,0,0,0,0,-1,1000,1590,-4.67185,-6.30853
-217,-566,-2.82867,7.52527,0,0,0,0,0,0,0,-1,1007,1590,-2.82869,-7.52531
-210,-566,-1.03436,8.67737,0,0,0,0,0,0,0,-1,1014,1590,-1.03439,-8.67733
-203,-566,0,0,0,0,0,0,0,0,0,-1,1021,1590,0,0
-196,-566,0,0,0,0,0,0,0,0,0,-1,1028,1590,0,0
-189,-566,0,0,0,0,0,0,0,0,0,-1,1035,1590,0,0
-182,-566,0,0,0,0,0,0,0,0,0,-1,1042,1590,0,0
-175,-566,0,0,0,0,0,0,0,0,0,-1,1049,1590,0,0
-168,-566,0,0,0,0,0,0,0,0,0,-1,1056,1590,0,0
-161,-566,0,0,0,0,0,0,0,0,0,-1,1063,1590,0,0
-154,-566,0,0,0,0,0,0,0,0,0,-1,1070,1590,0,0
-147,-566,0,0,0,0,0,0,0,0,0,-1,1077,1590,0,0
-140,-566,0,0,0,0,0,0,0,0,0,-1,1084,1590,0,0
-133,-566,0,0,0,0,0,0,0,0,0,-1,1091,1590,0,0
-126,-566,0,0,0,0,0,0,0,0,0,-1,1098,1590,0,0
-119,-566,0,0,0,0,0,0,0,0,0,-1,1105,1590,0,0
-112,-566,0,0,0,0,0,0,0,0,0,-1,1112,1590,0,0
-105,-566,0,0,0,0,0,0,0,0,0,-1,1119,1590,0,0
-98,-566,0,0,0,0,0,0,0,0,0,-1,1126,1590,0,0
-91,-566,0,0,0,0,0,0,0,0,0,-1,1133,1590,0,0
-84,-566,0,0,0,0,0,0,0,0,0,-1,1140,1590,0,0
-77,-566,0,0,0,0,0,0,0,0,0,-1,1147,1590,0,0
-70,-566,0,0,0,0,0,0,0,0,0,-1,1154,1590,0,0
-63,-566,0,0,0,0,0,0,0,0,0,-1,1161,1590,0,0
-56,-566,0,0,0,0,0,0,0,0,0,-1,1168,1590,0,0
-49,-566,0,0,0,0,0,0,0,0,0,-1,1175,1590,0,0
-42,-566,0,0,0,0,0,0,0,0,0,-1,1182,1590,0,0
-35,-566,0,0,0,0,0,0,0,0,0,-1,1189,1590,0,0
-28,-566,0,0,0,0,0,0,0,0,0,-1,1196,1590,0,0
-21,-566,0,0,0,0,0,0,0,0,0,-1,1203,1590,0,0
-14,-566,0,0,0,0,0,0,0,0,0,-1,1210,1590,0,0
-7,-566,0,0,0,0,0,0,0,0,0,-1,1217,1590,0,0
0,-566,0,0,0,0,0,0,0,0,0,-1,1224,1590,0,0
7,-566,0,0,0,0,0,0,0,0,0,-1,1231,1590,0,0
14,-566,0,0,0,0,0,0,0,0,0,-1,1238,1590,0,0
21,-566,0,0,0,0,0,0,0,0,0,-1,1245,1590,0,0
28,-566,0,0,0,0,0,0,0,0,0,-1,1252,1590,0,0
35,-566,0,0,0,0,0,0,0,0,0,-1,1259,1590,0,0
42,-566,0,0,0,0,0,0,0,0,0,-1,1266,1590,0,0
49,-566,0,0,0,0,0,0,0,0,0,-1,1273,1590,0,0
56,-566,0,0,0,0,0,0,0,0,0,-1,1280,1590,0,0
63,-566,0,0,0,0,0,0,0,0,0,-1,1287,1590,0,0
70,-566,0,0,0,0,0,0,0,0,0,-1,1294,1590,0,0
77,-566,0,0,0,0,0,0,0,0,0,-1,1301,1590,0,0
84,-566,0,0,0,0,0,0,0,0,0,-1,1308,1590,0,0
91,-566,0,0,0,0,0,0,0,0,0,-1,1315,1590,0,0
98,-566,0,0,0,0,0,0,0,0,0,-1,1322,1590,0,0
105,-566,0,0,0,0,0,0,0,0,0,-1,1329,1590,0,0
112,-566,0,0,0,0,0,0,0,0,0,-1,1336,1590,0,0
119,-566,0,0,0,0,0,0,0,0,0,-1,1343,1590,0,0
126,-566,0,0,0,0,0,0,0,0,0,-1,1350,1590,0,0
133,-566,0,0,0,0,0,0,0,0,0,-1,1357,1590,0,0
140,-566,0,0,0,0,0,0,0,0,0,-1,1364,1590,0,0
147,-566,0,0,0,0,0,0,0,0,0,-1,1371,1590,0,0
154,-566,0,0,0,0,0,0,0,0,0,-1,1378,1590,0,0
161,-566,0,0,0,0,0,0,0,0,0,-1,1385,1590,0,0
168,-566,0,0,0,0,0,0,0,0,0,-1,1392,1590,0,0
175,-566,0,0,0,0,0,0,0,0,0,-1,1399,1590,0,0
182,-566,0,0,0,0,0,0,0,0,0,-1,1406,1590,0,0
189,-566,0,0,0,0,0,0,0,0,0,-1,1413,1590,0,0
196,-566,0,0,0,0,0,0,0,0,0,-1,1420,1590,0,0
203,-566,0,0,0,0,0,0,0,0,0,-1,1427,1590,0,0
210,-566,0,0,0,0,0,0,0,0,0,-1,1434,1590,0,0
217,-566,0,0,0,0,0,0,0,0,0,-1,1441,1590,0,0
224,-566,0,0,0,0,0,0,0,0,0,-1,1448,1590,0,0
231,-566,0,0,0,0,0,0,0,0,0,-1,1455,1590,0,0
238,-566,0,0,0,0,0,0,0,0,0,-1,1462,1590,0,0
245,-566,0,0,0,0,0,0,0,0,0,-1,1469,1590,0,0
252,-566,0,0,0,0,0,0,0,0,0,-1,1476,1590,0,0
259,-566,0,0,0,0,0,0,0,0,0,-1,1483,1590,0,0
266,-566,0,0,0,0,0,0,0,0,0,-1,1490,1590,0,0
273,-566,0,0,0,0,0,0,0,0,0,-1,1497,1590,0,0
280,-566,0,0,0,0,0,0,0,0,0,-1,1504,1590,0,0
287,-566,0,0,0,0,0,0,0,0,0,-1,1511,1590,0,0
294,-566,0,0,0,0,0,0,0,0,0,-1,1518,1590,0,0
301,-566,0,0,0,0,0,0,0,0,0,-1,1525,1590,0,0
308,-566,0,0,0,0,0,0,0,0,0,-1,1532,1590,0,0
315,-566,0,0,0,0,0,0,0,0,0,-1,1539,1590,0,0
322,-566,6.07983,4.44873,0,0,0,0,0,0,0,-1,1546,1590,6.07983,-4.44873
329,-566,5.77026,3.47534,0,0,0,0,0,0,0,-1,1553,1590,5.77026,-3.47535
336,-566,5.41138,2.62915,0,0,0,0,0,0,0,-1,1560,1590,5.41138,-2.62909
343,-566,4.81873,1.79089,0,0,0,0,0,0,0,-1,1567,1590,4.81878,-1.79095
350,-566,24.2104,52.894,0,0,0,0,0,0,0,-1,1574,1590,24.2105,-52.8941
357,-566,6.34058,5.18579,0,0,0,0,0,0,0,-1,1581,1590,6.34059,-5.1858
364,-566,6.06262,4.20251,0,0,0,0,0,0,0,-1,1588,1590,6.06259,-4.20246
371,-566,5.78455,3.21912,0,0,0,0,0,0,0,-1,1595,1590,5.7846,-3.21912
378,-566,5.7439,0.695557,0,0,0,0,0,0,0,-1,1602,1590,5.74392,-0.695531
385,-566,5.67615,-0.573975,0,0,0,0,0,0,0,-1,1609,1590,5.67612,0.573956
392,-566,5.78638,1.82434,0,0,0,0,0,0,0,-1,1616,1590,5.78637,-1.82439
399,-566,18.6853,38.6455,0,0,0,0,0,0,0,-1,1623,1590,18.6853,-38.6456
406,-566,4.30359,5.26868,0,0,0,0,0,0,0,-1,1630,1590,4.30364,-5.26867
413,-566,4.27124,5.79492,0,0,0,0,0,0,0,-1,1637,1590,4.27123,-5.7949
420,-566,18.0121,32.5314,0,0,0,0,0,0,0,-1,1644,1590,18.0121,-32.5313
427,-566,19.4491,36.9315,0,0,0,0,0,0,0,-1,1651,1590,19.4491,-36.9315
434,-566,19.338,36.7385,0,0,0,0,0,0,0,-1,1658,1590,19.338,-36.7386
441,-566,15.5841,27.5869,0,0,0,0,0,0,0,-1,1665,1590,15.5842,-27.587
448,-566,21.8796,45.052,0,0,0,0,0,0,0,-1,1672,1590,21.8797,-45.052
455,-566,21.7637,44.5178,0,0,0,0,0,0,0,-1,1679,1590,21.7636,-44.5179
462,-566,21.9496,43.3507,0,0,0,0,0,0,0,-1,1686,1590,21.9495,-43.3507
469,-566,21.9205,42.5817,0.00644922,0.00667867,-0.00366274,0.0102285,0.00289941,-0.801055,0.00608722,0.0228607,1693,1590,21.9206,-42.5816
476,-566,21.9718,41.7618,0.00569302,0.00540524,-0.0033715,0.0089237,0.00217457,-0.764072,0.00537302,0.0117921,1700,1590,21.9717,-41.7618
483,-566,21.9374,41.0044,0.00474765,0.00441781,-0.00286675,0.00745423,0.00171124,-0.756666,0.00450865,0.0111481,1707,1590,21.9374,-41.0044
490,-566,21.9121,40.2406,0.00379005,0.00344022,-0.00232852,0.00595021,0.00128006,-0.74791,0.00361644,0.013045,1714,1590,21.9121,-40.2406
497,-566,21.9396,39.5046,0.00287245,0.00260017,-0.00185682,0.00459812,0.000874497,-0.748805,0.00281949,0.0160976,1721,1590,21.9396,-39.5046
504,-566,21.8727,38.7612,0.00209151,0.00189147,-0.00150646,0.00350127,0.000481709,-0.75225,0.00219133,0.0196448,1728,1590,21.8727,-38.7612
511,-566,21.8063,37.9779,0.00137901,0.00117778,-0.00116387,0.0024466,0.00011019,-0.742281,0.00159561,0.0205301,1735,1590,21.8063,-37.9779
518,-566,21.7999,37.2201,0.000766178,0.000572033,-0.000942869,0.00161696,-0.000278748,-0.734102,0.0011819,0.0130671,1742,1590,21.7999,-37.22
525,-566,21.7371,36.443,0.000284915,-1.2256e-05,-0.000786461,0.000936703,-0.000664044,-0.692034,0.00092865,0.0129587,1749,1590,21.737,-36.443
532,-566,21.6951,35.6477,2.41185e-05,-0.000514129,-0.000763874,0.000564891,-0.0010549,-0.616031,0.000949344,0.0156742,1756,1590,21.695,-35.6477
539,-566,21.6554,34.8334,-2.53297e-05,-0.000895999,-0.000826634,0.000473595,-0.00139492,-0.543034,0.00112165,0.0212561,1763,1590,21.6554,-34.8334
546,-566,21.7048,33.9851,0.000201404,-0.00123774,-0.000971207,0.000690561,-0.0017269,-0.46657,0.00143784,0.0261691,1770,1590,21.7048,-33.9851
553,-566,21.7067,33.4558,0.000625827,-0.00149499,-0.00122108,0.00118267,-0.00205183,-0.427853,0.00188978,0.0387935,1777,1590,21.7067,-33.4558
560,-566,21.4519,32.8738,0,0,0,0,0,0,0,-1,1784,1590,21.452,-32.8737
567,-566,21.3424,32.1578,0,0,0,0,0,0,0,-1,1791,1590,21.3424,-32.1579
574,-566,7.99548,3.14514,0,0,0,0,0,0,0,-1,1798,1590,7.99543,-3.14511
581,-566,2.54102,5.1311,0,0,0,0,0,0,0,-1,1805,1590,2.54099,-5.13111
588,-566,-1.91321,8.39197,0,0,0,0,0,0,0,-1,1812,1590,-1.91316,-8.39199
595,-566,9.0271,4.66467,0,0,0,0,0,0,0,-1,1819,1590,9.02705,-4.66468
602,-566,9.953,3.54895,0,0,0,0,0,0,0,-1,1826,1590,9.953,-3.54898
609,-566,0,0,0,0,0,0,0,0,0,-1,1833,1590,0,0
616,-566,0,0,0,0,0,0,0,0,0,-1,1840,1590,0,0
623,-566,0,0,0,0,0,0,0,0,0,-1,1847,1590,0,0
630,-566,0,0,0,0,0,0,0,0,0,-1,1854,1590,0,0
637,-566,0,0,0,0,0,0,0,0,0,-1,1861,1590,0,0
644,-566,0,0,0,0,0,0,0,0,0,-1,1868,1590,0,0
651,-566,0,0,0,0,0,0,0,0,0,-1,1875,1590,0,0
658,-566,0,0,0,0,0,0,0,0,0,-1,1882,1590,0,0
665,-566,0,0,0,0,0,0,0,0,0,-1,1889,1590,0,0
672,-566,0,0,0,0,0,0,0,0,0,-1,1896,1590,0,0
679,-566,0,0,0,0,0,0,0,0,0,-1,1903,1590,0,0
686,-566,0,0,0,0,0,0,0,0,0,-1,1910,1590,0,0
693,-566,0,0,0,0,0,0,0,0,0,-1,1917,1590,0,0
700,-566,0,0,0,0,0,0,0,0,0,-1,1924,1590,0,0
707,-566,0,0,0,0,0,0,0,0,0,-1,1931,1590,0,0
714,-566,0,0,0,0,0,0,0,0,0,-1,1938,1590,0,0
721,-566,0,0,0,0,0,0,0,0,0,-1,1945,1590,0,0
728,-566,0,0,0,0,0,0,0,0,0,-1,1952,1590,0,0
735,-566,0,0,0,0,0,0,0,0,0,-1,1959,1590,0,0
742,-566,0,0,0,0,0,0,0,0,0,-1,1966,1590,0,0
749,-566,0,0,0,0,0,0,0,0,0,-1,1973,1590,0,0
756,-566,0,0,0,0,0,0,0,0,0,-1,1980,1590,0,0
763,-566,0,0,0,0,0,0,0,0,0,-1,1987,1590,0,0
770,-566,0,0,0,0,0,0,0,0,0,-1,1994,1590,0,0
777,-566,0,0,0,0,0,0,0,0,0,-1,2001,1590,0,0
784,-566,0,0,0,0,0,0,0,0,0,-1,2008,1590,0,0
791,-566,0,0,0,0,0,0,0,0,0,-1,2015,1590,0,0
798,-566,0,0,0,0,0,0,0,0,0,-1,2022,1590,0,0
805,-566,0,0,0,0,0,0,0,0,0,-1,2029,1590,0,0
812,-566,0,0,0,0,0,0,0,0,0,-1,2036,1590,0,0
-700,-573,0,0,0,0,0,0,0,0,0,-1,524,1597,0,0
-693,-573,0,0,0,0,0,0,0,0,0,-1,531,1597,0,0
-686,-573,0,0,0,0,0,0,0,0,0,-1,538,1597,0,0
-679,-573,0,0,0,0,0,0,0,0,0,-1,545,1597,0,0
-672,-573,0,0,0,0,0,0,0,0,0,-1,552,1597,0,0
-665,-573,0,0,0,0,0,0,0,0,0,-1,559,1597,0,0
-658,-573,0,0,0,0,0,0,0,0,0,-1,566,1597,0,0
-651,-573,0,0,0,0,0,0,0,0,0,-1,573,1597,0,0
-644,-573,0,0,0,0,0,0,0,0,0,-1,580,1597,0,0
-637,-573,0,0,0,0,0,0,0,0,0,-1,587,1597,0,0
-630,-573,0,0,0,0,0,0,0,0,0,-1,594,1597,0,0
-623,-573,0,0,0,0,0,0,0,0,0,-1,601,1597,0,0
-616,-573,0,0,0,0,0,0,0,0,0,-1,608,1597,0,0
-609,-573,0,0,0,0,0,0,0,0,0,-1,615,1597,0,0
-602,-573,0,0,0,0,0,0,0,0,0,-1,622,1597,0,0
-595,-573,0,0,0,0,0,0,0,0,0,-1,629,1597,0,0
-588,-573,0,0,0,0,0,0,0,0,0,-1,636,1597,0,0
-581,-573,0,0,0,0,0,0,0,0,0,-1,643,1597,0,0
-574,-573,0,0,0,0,0,0,0,0,0,-1,650,1597,0,0
-567,-573,0,0,0,0,0,0,0,0,0,-1,657,1597,0,0
-560,-573,0,0,0,0,0,0,0,0,0,-1,664,1597,0,0
-553,-573,0,0,0,0,0,0,0,0,0,-1,671,1597,0,0
-546,-573,0,0,0,0,0,0,0,0,0,-1,678,1597,0,0
-539,-573,0,0,0,0,0,0,0,0,0,-1,685,1597,0,0
-532,-573,0,0,0,0,0,0,0,0,0,-1,692,1597,0,0
-525,-573,0,0,0,0,0,0,0,0,0,-1,699,1597,0,0
-518,-573,0,0,0,0,0,0,0,0,0,-1,706,1597,0,0
-511,-573,0,0,0,0,0,0,0,0,0,-1,713,1597,0,0
-504,-573,0,0,0,0,0,0,0,0,0,-1,720,1597,0,0
-497,-573,0,0,0,0,0,0,0,0,0,-1,727,1597,0,0
-490,-573,0,0,0,0,0,0,0,0,0,-1,734,1597,0,0
-483,-573,0,0,0,0,0,0,0,0,0,-1,741,1597,0,0
-476,-573,-9.3327,0.972778,0,0,0,0,0,0,0,-1,748,1597,-9.33268,-0.972776
-469,-573,-1.41681,1.13379,0,0,0,0,0,0,0,-1,755,1597,-1.41681,-1.13382
-462,-573,-0.748535,2.02588,0,0,0,0,0,0,0,-1,762,1597,-0.748533,-2.02584
-455,-573,-0.112976,2.70703,0,0,0,0,0,0,0,-1,769,1597,-0.112988,-2.70697
-448,-573,-1.26172,3.33252,0,0,0,0,0,0,0,-1,776,1597,-1.26173,-3.33248
-441,-573,0.108582,5.06726,0,0,0,0,0,0,0,-1,783,1597,0.108584,-5.06721
-434,-573,1.61768,7.05444,0,0,0,0,0,0,0,-1,790,1597,1.61767,-7.05446
-427,-573,-1.37927,24.4124,0,0,0,0,0,0,0,-1,797,1597,-1.37928,-24.4124
-420,-573,-1.15186,28.0936,0,0,0,0,0,0,0,-1,804,1597,-1.15185,-28.0936
-413,-573,-3.35266,34.2177,0,0,0,0,0,0,0,-1,811,1597,-3.35266,-34.2177
-406,-573,-3.28558,35.2859,0.00170279,0.00146807,0.00344727,0.00503469,-0.00186383,0.768383,0.00412072,0.0478164,818,1597,-3.2856,-35.2859
-399,-573,-3.36346,36.2131,0.00136602,0.00104503,0.00302392,0.0042337,-0.00182265,0.758885,0.00358781,0.0192882,825,1597,-3.36348,-36.2131
-392,-573,-3.39185,37.0414,0.00125044,0.000779332,0.00265941,0.00368471,-0.00165494,0.741227,0.00315622,0.0156845,832,1597,-3.39182,-37.0413
-385,-573,-3.4624,37.8361,0.00117063,0.000645394,0.00230215,0.00322509,-0.00140907,0.728606,0.00274316,0.0169716,839,1597,-3.46241,-37.836
-378,-573,-3.5014,38.6168,0.00114239,0.000656697,0.00195005,0.00286466,-0.00106557,0.72345,0.00234702,0.0168534,846,1597,-3.50141,-38.6168
-371,-573,-3.51563,39.4132,0.00130273,0.000630441,0.00157167,0.0025738,-0.000640633,0.680047,0.00196454,0.0174055,853,1597,-3.51564,-39.4132
-364,-573,-3.56726,40.1638,0.00166219,0.00084652,0.0013622,0.00267629,-0.000167581,0.639947,0.0018426,0.0195795,860,1597,-3.56725,-40.1638
-357,-573,-3.61469,40.9141,0.00213445,0.00127426,0.00124704,0.00302348,0.000385228,0.619338,0.0019003,0.0235969,867,1597,-3.61469,-40.9141
-350,-573,-3.62976,41.7318,0.00286617,0.00182335,0.0012378,0.0036879,0.00100162,0.586057,0.00220202,0.0192771,874,1597,-3.62978,-41.7318
-343,-573,-3.64471,42.4996,0.00370793,0.00267347,0.00144312,0.0047237,0.00165769,0.613324,0.00276734,0.0227393,881,1597,-3.64469,-42.4996
-336,-573,-3.7146,43.2782,0.00470838,0.00386176,0.00194552,0.00627612,0.00229402,0.678276,0.00366695,0.0178109,888,1597,-3.7146,-43.2782
-329,-573,-3.72064,44.0077,0.00595702,0.00598026,0.00289734,0.00886601,0.00307127,0.787404,0.00519867,0.0196008,895,1597,-3.72066,-44.0077
-322,-573,-3.75549,44.8098,0.00725266,0.00942736,0.00419099,0.0126698,0.00401026,0.912324,0.00747725,0.0188264,902,1597,-3.75547,-44.8098
-315,-573,-3.57288,45.8,0.00870331,0.0127992,0.0055974,0.0167115,0.00479096,0.96077,0.00993678,0.0458522,909,1597,-3.57288,-45.8001
-308,-573,-3.12262,46.9023,0,0,0,0,0,0,0,-1,916,1597,-3.12261,-46.9023
-301,-573,-3.53387,47.4701,0,0,0,0,0,0,0,-1,923,1597,-3.53388,-47.4701
-294,-573,-3.15479,47.188,0,0,0,0,0,0,0,-1,930,1597,-3.1548,-47.1879
-287,-573,-2.00739,43.4723,0,0,0,0,0,0,0,-1,937,1597,-2.00739,-43.4723
-280,-573,1.19684,26.4906,0,0,0,0,0,0,0,-1,944,1597,1.19685,-26.4906
-273,-573,2.24805,25.4375,0,0,0,0,0,0,0,-1,951,1597,2.24803,-25.4374
-266,-573,1.31116,7.1814,0,0,0,0,0,0,0,-1,958,1597,1.31118,-7.18142
-259,-573,1.2514,6.70959,0,0,0,0,0,0,0,-1,965,1597,1.25137,-6.70965
-252,-573,2.07874,5.27161,0,0,0,0,0,0,0,-1,972,1597,2.07875,-5.27157
-245,-573,-10.2592,1.09827,0,0,0,0,0,0,0,-1,979,1597,-10.2592,-1.09823
-238,-573,-11.5463,4.44141,0,0,0,0,0,0,0,-1,986,1597,-11.5463,-4.44146
-231,-573,-9.23431,4.14539,0,0,0,0,0,0,0,-1,993,1597,-9.23431,-4.14534
-224,-573,-6.70044,7.40857,0,0,0,0,0,0,0,-1,1000,1597,-6.70045,-7.40851
-217,-573,-4.25824,8.59119,0,0,0,0,0,0,0,-1,1007,1597,-4.25824,-8.59122
-210,-573,-2.39661,9.73914,0,0,0,0,0,0,0,-1,1014,1597,-2.39658,-9.73915
-203,-573,-0.557373,10.9005,0,0,0,0,0,0,0,-1,1021,1597,-0.557387,-10.9006
-196,-573,-1.65344,9.02246,0,0,0,0,0,0,0,-1,1028,1597,-1.65349,-9.02241
-189,-573,-6.12915,6.66882,0,0,0,0,0,0,0,-1,1035,1597,-6.12913,-6.66884
-182,-573,0,0,0,0,0,0,0,0,0,-1,1042,1597,0,0
-175,-573,0,0,0,0,0,0,0,0,0,-1,1049,1597,0,0
-168,-573,0,0,0,0,0,0,0,0,0,-1,1056,1597,0,0
-161,-573,0,0,0,0,0,0,0,0,0,-1,1063,1597,0,0
-154,-573,0,0,0,0,0,0,0,0,0,-1,1070,1597,0,0
-147,-573,0,0,0,0,0,0,0,0,0,-1,1077,1597,0,0
-140,-573,0,0,0,0,0,0,0,0,0,-1,1084,1597,0,0
-133,-573,0,0,0,0,0,0,0,0,0,-1,1091,1597,0,0
-126,-573,0,0,0,0,0,0,0,0,0,-1,1098,1597,0,0
-119,-573,0,0,0,0,0,0,0,0,0,-1,1105,1597,0,0
-112,-573,0,0,0,0,0,0,0,0,0,-1,1112,1597,0,0
-105,-573,0,0,0,0,0,0,0,0,0,-1,1119,1597,0,0
-98,-573,0,0,0,0,0,0,0,0,0,-1,1126,1597,0,0
-91,-573,0,0,0,0,0,0,0,0,0,-1,1133,1597,0,0
-84,-573,0,0,0,0,0,0,0,0,0,-1,1140,1597,0,0
-77,-573,0,0,0,0,0,0,0,0,0,-1,1147,1597,0,0
-70,-573,0,0,0,0,0,0,0,0,0,-1,1154,1597,0,0
-63,-573,0,0,0,0,0,0,0,0,0,-1,1161,1597,0,0
-56,-573,0,0,0,0,0,0,0,0,0,-1,1168,1597,0,0
-49,-573,0,0,0,0,0,0,0,0,0,-1,1175,1597,0,0
-42,-573,0,0,0,0,0,0,0,0,0,-1,1182,1597,0,0
-35,-573,0,0,0,0,0,0,0,0,0,-1,1189,1597,0,0
-28,-573,0,0,0,0,0,0,0,0,0,-1,1196,1597,0,0
-21,-573,0,0,0,0,0,0,0,0,0,-1,1203,1597,0,0
-14,-573,0,0,0,0,0,0,0,0,0,-1,1210,1597,0,0
-7,-573,0,0,0,0,0,0,0,0,0,-1,1217,1597,0,0
0,-573,0,0,0,0,0,0,0,0,0,-1,1224,1597,0,0
7,-573,0,0,0,0,0,0,0,0,0,-1,1231,1597,0,0
14,-573,0,0,0,0,0,0,0,0,0,-1,1238,1597,0,0
21,-573,0,0,0,0,0,0,0,0,0,-1,1245,1597,0,0
28,-573,0,0,0,0,0,0,0,0,0,-1,1252,1597,0,0
35,-573,0,0,0,0,0,0,0,0,0,-1,1259,1597,0,0
42,-573,0,0,0,0,0,0,0,0,0,-1,1266,1597,0,0
49,-573,0,0,0,0,0,0,0,0,0,-1,1273,1597,0,0
56,-573,0,0,0,0,0,0,0,0,0,-1,1280,1597,0,0
63,-573,0,0,0,0,0,0,0,0,0,-1,1287,1597,0,0
70,-573,0,0,0,0,0,0,0,0,0,-1,1294,1597,0,0
77,-573,0,0,0,0,0,0,0,0,0,-1,1301,1597,0,0
84,-573,0,0,0,0,0,0,0,0,0,-1,1308,1597,0,0
91,-573,0,0,0,0,0,0,0,0,0,-1,1315,1597,0,0
98,-573,0,0,0,0,0,0,0,0,0,-1,1322,1597,0,0
105,-573,0,0,0,0,0,0,0,0,0,-1,1329,1597,0,0
112,-573,0,0,0,0,0,0,0,0,0,-1,1336,1597,0,0
119,-573,0,0,0,0,0,0,0,0,0,-1,1343,1597,0,0
126,-573,0,0,0,0,0,0,0,0,0,-1,1350,1597,0,0
133,-573,0,0,0,0,0,0,0,0,0,-1,1357,1597,0,0
140,-573,0,0,0,0,0,0,0,0,0,-1,1364,1597,0,0
147,-573,0,0,0,0,0,0,0,0,0,-1,1371,1597,0,0
154,-573,0,0,0,0,0,0,0,0,0,-1,1378,1597,0,0
161,-573,0,0,0,0,0,0,0,0,0,-1,1385,1597,0,0
168,-573,0,0,0,0,0,0,0,0,0,-1,1392,1597,0,0
175,-573,0,0,0,0,0,0,0,0,0,-1,1399,1597,0,0
182,-573,0,0,0,0,0,0,0,0,0,-1,1406,1597,0,0
189,-573,0,0,0,0,0,0,0,0,0,-1,1413,1597,0,0
196,-573,0,0,0,0,0,0,0,0,0,-1,1420,1597,0,0
203,-573,0,0,0,0,0,0,0,0,0,-1,1427,1597,0,0
210,-573,0,0,0,0,0,0,0,0,0,-1,1434,1597,0,0
217,-573,0,0,0,0,0,0,0,0,0,-1,1441,1597,0,0
224,-573,0,0,0,0,0,0,0,0,0,-1,1448,1597,0,0
231,-573,0,0,0,0,0,0,0,0,0,-1,1455,1597,0,0
238,-573,0,0,0,0,0,0,0,0,0,-1,1462,1597,0,0
245,-573,0,0,0,0,0,0,0,0,0,-1,1469,1597,0,0
252,-573,0,0,0,0,0,0,0,0,0,-1,1476,1597,0,0
259,-573,0,0,0,0,0,0,0,0,0,-1,1483,1597,0,0
266,-573,0,0,0,0,0,0,0,0,0,-1,1490,1597,0,0
273,-573,0,0,0,0,0,0,0,0,0,-1,1497,1597,0,0
280,-573,0,0,0,0,0,0,0,0,0,-1,1504,1597,0,0
287,-573,0,0,0,0,0,0,0,0,0,-1,1511,1597,0,0
294,-573,0,0,0,0,0,0,0,0,0,-1,1518,1597,0,0
301,-573,0,0,0,0,0,0,0,0,0,-1,1525,1597,0,0
308,-573,5.93042,9.71143,0,0,0,0,0,0,0,-1,1532,1597,5.93046,-9.71144
315,-573,4.34204,11.719,0,0,0,0,0,0,0,-1,1539,1597,4.34205,-11.719
322,-573,10.3269,7.77563,0,0,0,0,0,0,0,-1,1546,1597,10.327,-7.77565
329,-573,4.99573,3.80273,0,0,0,0,0,0,0,-1,1553,1597,4.9957,-3.80273
336,-573,4.85693,2.53455,0,0,0,0,0,0,0,-1,1560,1597,4.8569,-2.53459
343,-573,21.4159,52.1832,0,0,0,0,0,0,0,-1,1567,1597,21.4159,-52.1833
350,-573,21.6807,52.4836,0,0,0,0,0,0,0,-1,1574,1597,21.6806,-52.4836
357,-573,21.9453,52.7841,0,0,0,0,0,0,0,-1,1581,1597,21.9453,-52.784
364,-573,7.14551,3.02087,0,0,0,0,0,0,0,-1,1588,1597,7.14556,-3.02084
371,-573,6.88867,2.00549,0,0,0,0,0,0,0,-1,1595,1597,6.88868,-2.00553
378,-573,8.62012,6.09106,0,0,0,0,0,0,0,-1,1602,1597,8.62012,-6.09103
385,-573,6.54346,-0.951904,0,0,0,0,0,0,0,-1,1609,1597,6.54349,0.951901
392,-573,17.5164,38.3645,0,0,0,0,0,0,0,-1,1616,1597,17.5164,-38.3645
399,-573,20.5255,42.9893,0,0,0,0,0,0,0,-1,1623,1597,20.5255,-42.9893
406,-573,20.2545,44.7974,0,0,0,0,0,0,0,-1,1630,1597,20.2545,-44.7974
413,-573,19.0908,43.9061,0,0,0,0,0,0,0,-1,1637,1597,19.0908,-43.9062
420,-573,18.8063,37.0011,0,0,0,0,0,0,0,-1,1644,1597,18.8063,-37.0011
427,-573,20.4286,42.2079,0,0,0,0,0,0,0,-1,1651,1597,20.4285,-42.2079
434,-573,21.4855,47.1382,0,0,0,0,0,0,0,-1,1658,1597,21.4855,-47.1382
441,-573,21.1283,46.0962,0,0,0,0,0,0,0,-1,1665,1597,21.1283,-46.0962
448,-573,21.2239,44.9707,0,0,0,0,0,0,0,-1,1672,1597,21.2238,-44.9707
455,-573,21.2098,44.1836,0.00583808,0.00707789,-0.00299106,0.00951261,0.00340337,-0.887578,0.00556568,0.0355294,1679,1597,21.2099,-44.1836
462,-573,21.2642,43.2739,0.0053904,0.00617194,-0.00293779,0.00874485,0.0028175,-0.851517,0.00515416,0.0235579,1686,1597,21.2642,-43.274
469,-573,21.2622,42.5171,0.004897,0.00506615,-0.00277623,0.0077591,0.00220406,-0.800626,0.00461688,0.0162577,1693,1597,21.2622,-42.5171
476,-573,21.24,41.7898,0.00427326,0.00407756,-0.00256781,0.00674508,0.00160573,-0.766354,0.00406851,0.0148972,1700,1597,21.24,-41.7898
483,-573,21.2299,41.0587,0.00353461,0.00320764,-0.00222355,0.00560068,0.00114158,-0.748701,0.00341742,0.013511,1707,1597,21.2298,-41.0588
490,-573,21.1775,40.292,0.00275456,0.00240212,-0.00182932,0.00441613,0.00074055,-0.737381,0.00273091,0.0152247,1714,1597,21.1775,-40.292
497,-573,21.1764,39.5079,0.00200022,0.00173758,-0.00148628,0.00336097,0.000376824,-0.741336,0.0021262,0.0231183,1721,1597,21.1764,-39.5079
504,-573,21.1361,38.7637,0.00133447,0.00108322,-0.00121417,0.0024295,-1.18061e-05,-0.733849,0.00162362,0.0202602,1728,1597,21.1361,-38.7636
511,-573,21.0758,37.9847,0.0007251,0.000479404,-0.000951918,0.00156206,-0.00035756,-0.721226,0.00117878,0.019054,1735,1597,21.0758,-37.9848
518,-573,21.0059,37.2592,0.000206435,-5.87431e-05,-0.00078408,0.000869057,-0.000721366,-0.70164,0.00091955,0.014416,1742,1597,21.0059,-37.2592
525,-573,20.964,36.5044,-0.000170921,-0.000582282,-0.000685848,0.000339423,-0.00109263,-0.639719,0.000864074,0.018785,1749,1597,20.964,-36.5044
532,-573,20.9648,35.6858,-0.000318711,-0.00104504,-0.000718433,0.00012313,-0.00148688,-0.551382,0.00103474,0.0189159,1756,1597,20.9648,-35.6858
539,-573,20.9178,34.8467,0,0,0,0,0,0,0,-1,1763,1597,20.9179,-34.8467
546,-573,21.0682,33.9955,0,0,0,0,0,0,0,-1,1770,1597,21.0682,-33.9955
553,-573,20.8265,33.6957,0,0,0,0,0,0,0,-1,1777,1597,20.8265,-33.6957
560,-573,20.4728,33.1034,0,0,0,0,0,0,0,-1,1784,1597,20.4728,-33.1034
567,-573,19.8645,28.3368,0,0,0,0,0,0,0,-1,1791,1597,19.8645,-28.3368
574,-573,0.83374,5.7041,0,0,0,0,0,0,0,-1,1798,1597,0.833718,-5.70405
581,-573,-0.224854,7.41602,0,0,0,0,0,0,0,-1,1805,1597,-0.224904,-7.41596
588,-573,-0.134033,7.67065,0,0,0,0,0,0,0,-1,1812,1597,-0.134037,-7.67063
595,-573,-0.0825195,8.35083,0,0,0,0,0,0,0,-1,1819,1597,-0.0824684,-8.35088
602,-573,0,0,0,0,0,0,0,0,0,-1,1826,1597,0,0
609,-573,0,0,0,0,0,0,0,0,0,-1,1833,1597,0,0
616,-573,0,0,0,0,0,0,0,0,0,-1,1840,1597,0,0
623,-573,0,0,0,0,0,0,0,0,0,-1,1847,1597,0,0
630,-573,0,0,0,0,0,0,0,0,0,-1,1854,1597,0,0
637,-573,0,0,0,0,0,0,0,0,0,-1,1861,1597,0,0
644,-573,0,0,0,0,0,0,0,0,0,-1,1868,1597,0,0
651,-573,0,0,0,0,0,0,0,0,0,-1,1875,1597,0,0
658,-573,0,0,0,0,0,0,0,0,0,-1,1882,1597,0,0
665,-573,0,0,0,0,0,0,0,0,0,-1,1889,1597,0,0
672,-573,0,0,0,0,0,0,0,0,0,-1,1896,1597,0,0
679,-573,0,0,0,0,0,0,0,0,0,-1,1903,1597,0,0
686,-573,0,0,0,0,0,0,0,0,0,-1,1910,1597,0,0
693,-573,0,0,0,0,0,0,0,0,0,-1,1917,1597,0,0
700,-573,0,0,0,0,0,0,0,0,0,-1,1924,1597,0,0
707,-573,0,0,0,0,0,0,0,0,0,-1,1931,1597,0,0
714,-573,0,0,0,0,0,0,0,0,0,-1,1938,1597,0,0
721,-573,0,0,0,0,0,0,0,0,0,-1,1945,1597,0,0
728,-573,0,0,0,0,0,0,0,0,0,-1,1952,1597,0,0
735,-573,0,0,0,0,0,0,0,0,0,-1,1959,1597,0,0
742,-573,0,0,0,0,0,0,0,0,0,-1,1966,1597,0,0
749,-573,0,0,0,0,0,0,0,0,0,-1,1973,1597,0,0
756,-573,0,0,0,0,0,0,0,0,0,-1,1980,1597,0,0
763,-573,0,0,0,0,0,0,0,0,0,-1,1987,1597,0,0
770,-573,0,0,0,0,0,0,0,0,0,-1,1994,1597,0,0
777,-573,0,0,0,0,0,0,0,0,0,-1,2001,1597,0,0
784,-573,0,0,0,0,0,0,0,0,0,-1,2008,1597,0,0
791,-573,0,0,0,0,0,0,0,0,0,-1,2015,1597,0,0
798,-573,0,0,0,0,0,0,0,0,0,-1,2022,1597,0,0
805,-573,0,0,0,0,0,0,0,0,0,-1,2029,1597,0,0
812,-573,0,0,0,0,0,0,0,0,0,-1,2036,1597,0,0
-700,-580,0,0,0,0,0,0,0,0,0,-1,524,1604,0,0
-693,-580,0,0,0,0,0,0,0,0,0,-1,531,1604,0,0
-686,-580,0,0,0,0,0,0,0,0,0,-1,538,1604,0,0
-679,-580,0,0,0,0,0,0,0,0,0,-1,545,1604,0,0
-672,-580,0,0,0,0,0,0,0,0,0,-1,552,1604,0,0
-665,-580,0,0,0,0,0,0,0,0,0,-1,559,1604,0,0
-658,-580,0,0,0,0,0,0,0,0,0,-1,566,1604,0,0
-651,-580,0,0,0,0,0,0,0,0,0,-1,573,1604,0,0
-644,-580,0,0,0,0,0,0,0,0,0,-1,580,1604,0,0
-637,-580,0,0,0,0,0,0,0,0,0,-1,587,1604,0,0
-630,-580,0,0,0,0,0,0,0,0,0,-1,594,1604,0,0
-623,-580,0,0,0,0,0,0,0,0,0,-1,601,1604,0,0
-616,-580,0,0,0,0,0,0,0,0,0,-1,608,1604,0,0
-609,-580,0,0,0,0,0,0,0,0,0,-1,615,1604,0,0
-602,-580,0,0,0,0,0,0,0,0,0,-1,622,1604,0,0
-595,-580,0,0,0,0,0,0,0,0,0,-1,629,1604,0,0
-588,-580,0,0,0,0,0,0,0,0,0,-1,636,1604,0,0
-581,-580,0,0,0,0,0,0,0,0,0,-1,643,1604,0,0
-574,-580,0,0,0,0,0,0,0,0,0,-1,650,1604,0,0
-567,-580,0,0,0,0,0,0,0,0,0,-1,657,1604,0,0
-560,-580,0,0,0,0,0,0,0,0,0,-1,664,1604,0,0
-553,-580,0,0,0,0,0,0,0,0,0,-1,671,1604,0,0
-546,-580,0,0,0,0,0,0,0,0,0,-1,678,1604,0,0
-539,-580,0,0,0,0,0,0,0,0,0,-1,685,1604,0,0
-532,-580,0,0,0,0,0,0,0,0,0,-1,692,1604,0,0
-525,-580,0,0,0,0,0,0,0,0,0,-1,699,1604,0,0
-518,-580,0,0,0,0,0,0,0,0,0,-1,706,1604,0,0
-511,-580,0,0,0,0,0,0,0,0,0,-1,713,1604,0,0
-504,-580,0,0,0,0,0,0,0,0,0,-1,720,1604,0,0
-497,-580,0,0,0,0,0,0,0,0,0,-1,727,1604,0,0
-490,-580,0,0,0,0,0,0,0,0,0,-1,734,1604,0,0
-483,-580,0,0,0,0,0,0,0,0,0,-1,741,1604,0,0
-476,-580,0,0,0,0,0,0,0,0,0,-1,748,1604,0,0
-469,-580,-1.69189,-0.38916,0,0,0,0,0,0,0,-1,755,1604,-1.69192,0.389188
-462,-580,-0.859863,0.675293,0,0,0,0,0,0,0,-1,762,1604,-0.859834,-0.675245
-455,-580,-0.730164,0.651978,0,0,0,0,0,0,0,-1,769,1604,-0.730153,-0.651957
-448,-580,-3.31891,2.07544,0,0,0,0,0,0,0,-1,776,1604,-3.3189,-2.07539
-441,-580,-1.63843,3.9469,0,0,0,0,0,0,0,-1,783,1604,-1.63842,-3.94695
-434,-580,0.23291,5.97876,0,0,0,0,0,0,0,-1,790,1604,0.232901,-5.97878
-427,-580,1.62756,8.05493,0,0,0,0,0,0,0,-1,797,1604,1.62758,-8.05488
-420,-580,0.986572,11.2383,0,0,0,0,0,0,0,-1,804,1604,0.986544,-11.2382
-413,-580,0.922913,21.5701,0,0,0,0,0,0,0,-1,811,1604,0.922905,-21.5701
-406,-580,-2.53937,35.2404,0,0,0,0,0,0,0,-1,818,1604,-2.53934,-35.2404
-399,-580,-2.57397,36.1896,0,0,0,0,0,0,0,-1,825,1604,-2.57399,-36.1895
-392,-580,-2.61884,37.0884,0.00139403,0.000826874,0.00348112,0.0046031,-0.0023822,0.744757,0.00410035,0.0248305,832,1604,-2.61886,-37.0883
-385,-580,-2.6795,37.8784,0.00121191,0.000549457,0.00303981,0.00393848,-0.00217712,0.731131,0.00357933,0.0139332,839,1604,-2.67949,-37.8784
-378,-580,-2.71118,38.6763,0.00104206,0.000474334,0.00257716,0.00335094,-0.00183455,0.730546,0.00303621,0.0160924,846,1604,-2.7112,-38.6763
-371,-580,-2.74512,39.4814,0.00105384,0.000338827,0.00207912,0.00280597,-0.00141329,0.700255,0.00247983,0.0146721,853,1604,-2.7451,-39.4814
-364,-580,-2.80005,40.2297,0.00123062,0.000377822,0.00170662,0.0025633,-0.000954861,0.66298,0.00210078,0.0197827,860,1604,-2.80007,-40.2297
-357,-580,-2.8288,40.9778,0.0015617,0.000652893,0.00146551,0.00264163,-0.000427042,0.635065,0.00191934,0.0146107,867,1604,-2.82881,-40.9777
-350,-580,-2.85944,41.7817,0.00214938,0.00104976,0.00133198,0.00304056,0.000158583,0.589662,0.0019763,0.0111628,874,1604,-2.85944,-41.7818
-343,-580,-2.87006,42.5514,0.00284393,0.00175939,0.00140233,0.00380518,0.000798131,0.600908,0.00231703,0.0118153,881,1604,-2.87004,-42.5514
-336,-580,-2.87134,43.2512,0.00367313,0.002769,0.00174267,0.00502141,0.00142071,0.658491,0.0029888,0.0216014,888,1604,-2.87133,-43.2512
-329,-580,-2.94409,44.0663,0.00468484,0.00454349,0.00244314,0.00705833,0.00217,0.770939,0.00417465,0.0205181,895,1604,-2.94408,-44.0663
-322,-580,-2.98566,44.86,0.00572545,0.00740282,0.00341878,0.0100843,0.00304399,0.905682,0.00597261,0.0230866,902,1604,-2.98564,-44.86
-315,-580,-2.96661,45.5841,0.00691233,0.0101523,0.00450156,0.0133165,0.00374815,0.958121,0.0079293,0.0257935,909,1604,-2.96661,-45.5841
-308,-580,-2.92291,46.5107,0.00826302,0.0130291,0.00593775,0.0170442,0.00424795,0.976227,0.0102447,0.039402,916,1604,-2.92294,-46.5108
-301,-580,-2.87463,47.1343,0.00961189,0.0168412,0.00773809,0.0217673,0.00468584,1.0039,0.0132291,0.0368853,923,1604,-2.87465,-47.1343
-294,-580,-2.78046,48.0454,0,0,0,0,0,0,0,-1,930,1604,-2.78048,-48.0454
-287,-580,-2.77307,49.0404,0,0,0,0,0,0,0,-1,937,1604,-2.77307,-49.0404
-280,-580,-2.80096,50.3184,0,0,0,0,0,0,0,-1,944,1604,-2.80095,-50.3183
-273,-580,-2.82843,51.313,0,0,0,0,0,0,0,-1,951,1604,-2.82845,-51.3129
-266,-580,-1.22644,48.4485,0,0,0,0,0,0,0,-1,958,1604,-1.22644,-48.4485
-259,-580,1.31091,9.11536,0,0,0,0,0,0,0,-1,965,1604,1.31092,-9.11539
-252,-580,1.07629,7.74097,0,0,0,0,0,0,0,-1,972,1604,1.07627,-7.74101
-245,-580,3.80304,9.16028,0,0,0,0,0,0,0,-1,979,1604,3.80306,-9.16034
-238,-580,-10.3588,1.57556,0,0,0,0,0,0,0,-1,986,1604,-10.3588,-1.5755
-231,-580,-10.576,6.43787,0,0,0,0,0,0,0,-1,993,1604,-10.576,-6.43783
-224,-580,-8.27435,7.58972,0,0,0,0,0,0,0,-1,1000,1604,-8.27435,-7.5897
-217,-580,-5.85632,9.51221,0,0,0,0,0,0,0,-1,1007,1604,-5.85632,-9.5122
-210,-580,-3.6684,11.1569,0,0,0,0,0,0,0,-1,1014,1604,-3.66839,-11.1569
-203,-580,-1.92474,12.7845,0,0,0,0,0,0,0,-1,1021,1604,-1.92477,-12.7845
-196,-580,-2.28552,10.3289,0,0,0,0,0,0,0,-1,1028,1604,-2.28552,-10.3288
-189,-580,-4.58252,7.59058,0,0,0,0,0,0,0,-1,1035,1604,-4.58256,-7.59057
-182,-580,-5.45874,7.65942,0,0,0,0,0,0,0,-1,1042,1604,-5.45876,-7.65939
-175,-580,-6.38977,7.55005,0,0,0,0,0,0,0,-1,1049,1604,-6.38981,-7.5501
-168,-580,0,0,0,0,0,0,0,0,0,-1,1056,1604,0,0
-161,-580,0,0,0,0,0,0,0,0,0,-1,1063,1604,0,0
-154,-580,0,0,0,0,0,0,0,0,0,-1,1070,1604,0,0
-147,-580,0,0,0,0,0,0,0,0,0,-1,1077,1604,0,0
-140,-580,0,0,0,0,0,0,0,0,0,-1,1084,1604,0,0
-133,-580,0,0,0,0,0,0,0,0,0,-1,1091,1604,0,0
-126,-580,0,0,0,0,0,0,0,0,0,-1,1098,1604,0,0
-119,-580,0,0,0,0,0,0,0,0,0,-1,1105,1604,0,0
-112,-580,0,0,0,0,0,0,0,0,0,-1,1112,1604,0,0
-105,-580,0,0,0,0,0,0,0,0,0,-1,1119,1604,0,0
-98,-580,0,0,0,0,0,0,0,0,0,-1,1126,1604,0,0
-91,-580,0,0,0,0,0,0,0,0,0,-1,1133,1604,0,0
-84,-580,0,0,0,0,0,0,0,0,0,-1,1140,1604,0,0
-77,-580,0,0,0,0,0,0,0,0,0,-1,1147,1604,0,0
-70,-580,0,0,0,0,0,0,0,0,0,-1,1154,1604,0,0
-63,-580,0,0,0,0,0,0,0,0,0,-1,1161,1604,0,0
-56,-580,0,0,0,0,0,0,0,0,0,-1,1168,1604,0,0
-49,-580,0,0,0,0,0,0,0,0,0,-1,1175,1604,0,0
-42,-580,0,0,0,0,0,0,0,0,0,-1,1182,1604,0,0
-35,-580,0,0,0,0,0,0,0,0,0,-1,1189,1604,0,0
-28,-580,0,0,0,0,0,0,0,0,0,-1,1196,1604,0,0
-21,-580,0,0,0,0,0,0,0,0,0,-1,1203,1604,0,0
-14,-580,0,0,0,0,0,0,0,0,0,-1,1210,1604,0,0
-7,-580,0,0,0,0,0,0,0,0,0,-1,1217,1604,0,0
0,-580,0,0,0,0,0,0,0,0,0,-1,1224,1604,0,0
7,-580,0,0,0,0,0,0,0,0,0,-1,1231,1604,0,0
14,-580,0,0,0,0,0,0,0,0,0,-1,1238,1604,0,0
21,-580,0,0,0,0,0,0,0,0,0,-1,1245,1604,0,0
28,-580,0,0,0,0,0,0,0,0,0,-1,1252,1604,0,0
35,-580,0,0,0,0,0,0,0,0,0,-1,1259,1604,0,0
42,-580,0,0,0,0,0,0,0,0,0,-1,1266,1604,0,0
49,-580,0,0,0,0,0,0,0,0,0,-1,1273,1604,0,0
56,-580,0,0,0,0,0,0,0,0,0,-1,1280,1604,0,0
63,-580,0,0,0,0,0,0,0,0,0,-1,1287,1604,0,0
70,-580,0,0,0,0,0,0,0,0,0,-1,1294,1604,0,0
77,-580,0,0,0,0,0,0,0,0,0,-1,1301,1604,0,0
84,-580,0,0,0,0,0,0,0,0,0,-1,1308,1604,0,0
91,-580,0,0,0,0,0,0,0,0,0,-1,1315,1604,0,0
98,-580,0,0,0,0,0,0,0,0,0,-1,1322,1604,0,0
105,-580,0,0,0,0,0,0,0,0,0,-1,1329,1604,0,0
112,-580,0,0,0,0,0,0,0,0,0,-1,1336,1604,0,0
119,-580,0,0,0,0,0,0,0,0,0,-1,1343,1604,0,0
126,-580,0,0,0,0,0,0,0,0,0,-1,1350,1604,0,0
133,-580,0,0,0,0,0,0,0,0,0,-1,1357,1604,0,0
140,-580,0,0,0,0,0,0,0,0,0,-1,1364,1604,0,0
147,-580,0,0,0,0,0,0,0,0,0,-1,1371,1604,0,0
154,-580,0,0,0,0,0,0,0,0,0,-1,1378,1604,0,0
161,-580,0,0,0,0,0,0,0,0,0,-1,1385,1604,0,0
168,-580,0,0,0,0,0,0,0,0,0,-1,1392,1604,0,0
175,-580,0,0,0,0,0,0,0,0,0,-1,1399,1604,0,0
182,-580,0,0,0,0,0,0,0,0,0,-1,1406,1604,0,0
189,-580,0,0,0,0,0,0,0,0,0,-1,1413,1604,0,0
196,-580,0,0,0,0,0,0,0,0,0,-1,1420,1604,0,0
203,-580,0,0,0,0,0,0,0,0,0,-1,1427,1604,0,0
210,-580,0,0,0,0,0,0,0,0,0,-1,1434,1604,0,0
217,-580,0,0,0,0,0,0,0,0,0,-1,1441,1604,0,0
224,-580,0,0,0,0,0,0,0,0,0,-1,1448,1604,0,0
231,-580,0,0,0,0,0,0,0,0,0,-1,1455,1604,0,0
238,-580,0,0,0,0,0,0,0,0,0,-1,1462,1604,0,0
245,-580,0,0,0,0,0,0,0,0,0,-1,1469,1604,0,0
252,-580,0,0,0,0,0,0,0,0,0,-1,1476,1604,0,0
259,-580,0,0,0,0,0,0,0,0,0,-1,1483,1604,0,0
266,-580,0,0,0,0,0,0,0,0,0,-1,1490,1604,0,0
273,-580,0,0,0,0,0,0,0,0,0,-1,1497,1604,0,0
280,-580,0,0,0,0,0,0,0,0,0,-1,1504,1604,0,0
287,-580,0,0,0,0,0,0,0,0,0,-1,1511,1604,0,0
294,-580,4.0437,0.177368,0,0,0,0,0,0,0,-1,1518,1604,4.04369,-0.177371
301,-580,7.55164,8.05798,0,0,0,0,0,0,0,-1,1525,1604,7.55158,-8.05802
308,-580,5.9126,9.99341,0,0,0,0,0,0,0,-1,1532,1604,5.91255,-9.99337
315,-580,4.27356,11.9287,0,0,0,0,0,0,0,-1,1539,1604,4.27352,-11.9287
322,-580,10.2366,7.50281,0,0,0,0,0,0,0,-1,1546,1604,10.2366,-7.50282
329,-580,10.5962,8.69641,0,0,0,0,0,0,0,-1,1553,1604,10.5962,-8.69642
336,-580,3.66431,1.58862,0,0,0,0,0,0,0,-1,1560,1604,3.6643,-1.58864
343,-580,19.0659,51.8346,0,0,0,0,0,0,0,-1,1567,1604,19.0659,-51.8346
350,-580,21.4856,54.0978,0,0,0,0,0,0,0,-1,1574,1604,21.4857,-54.0978
357,-580,21.0597,54.0709,0,0,0,0,0,0,0,-1,1581,1604,21.0597,-54.071
364,-580,21.548,53.6591,0,0,0,0,0,0,0,-1,1588,1604,21.548,-53.6591
371,-580,22.3584,52.7148,0,0,0,0,0,0,0,-1,1595,1604,22.3584,-52.7149
378,-580,23.3003,52.3074,0,0,0,0,0,0,0,-1,1602,1604,23.3003,-52.3074
385,-580,18.6182,47.5352,0,0,0,0,0,0,0,-1,1609,1604,18.6181,-47.5352
392,-580,19.1388,46.7451,0,0,0,0,0,0,0,-1,1616,1604,19.1388,-46.7452
399,-580,19.433,45.329,0,0,0,0,0,0,0,-1,1623,1604,19.433,-45.329
406,-580,20.6763,49.1041,0,0,0,0,0,0,0,-1,1630,1604,20.6763,-49.1042
413,-580,20.79,48.4563,0,0,0,0,0,0,0,-1,1637,1604,20.79,-48.4563
420,-580,20.6554,47.8014,0,0,0,0,0,0,0,-1,1644,1604,20.6554,-47.8013
427,-580,20.5964,47.1862,0,0,0,0,0,0,0,-1,1651,1604,20.5964,-47.1861
434,-580,20.7748,46.4839,0,0,0,0,0,0,0,-1,1658,1604,20.7747,-46.4838
441,-580,20.4806,45.5784,0.00587507,0.00660179,-0.00193193,0.00820423,0.00427263,-0.878353,0.00473808,0.0278592,1665,1604,20.4806,-45.5784
448,-580,20.546,44.7484,0.00507196,0.00607883,-0.00202859,0.00766552,0.00348527,-0.907026,0.00443175,0.0188266,1672,1604,20.5461,-44.7484
455,-580,20.5931,44.0292,0.0044875,0.00535985,-0.00221075,0.00717705,0.00267031,-0.882795,0.00418864,0.0205468,1679,1604,20.5932,-44.0292
462,-580,20.55,43.2792,0.00415159,0.00458175,-0.00225994,0.00663683,0.00209652,-0.832841,0.0039174,0.023447,1686,1604,20.5501,-43.2792
469,-580,20.4974,42.547,0.00377729,0.00371203,-0.00223212,0.00597702,0.00151231,-0.778089,0.00358842,0.0214441,1693,1604,20.4974,-42.5471
476,-580,20.486,41.8119,0.00325885,0.00296585,-0.00210525,0.00522269,0.00100201,-0.750659,0.00320051,0.0158296,1700,1604,20.4859,-41.8119
483,-580,20.4457,41.0951,0.00267323,0.00220889,-0.00188461,0.00433991,0.000542205,-0.724112,0.00273054,0.0146615,1707,1604,20.4456,-41.0951
490,-580,20.3883,40.3679,0.00202191,0.00155515,-0.00160224,0.00340768,0.000169379,-0.713077,0.00221748,0.0196537,1714,1604,20.3883,-40.368
497,-580,20.3643,39.5757,0.00138209,0.00103837,-0.00135566,0.00257674,-0.000156281,-0.722347,0.00177222,0.0151163,1721,1604,20.3643,-39.5757
504,-580,20.3271,38.7905,0.000777129,0.000426823,-0.00112628,0.0017418,-0.000537846,-0.708259,0.00137598,0.0177885,1728,1604,20.3272,-38.7906
511,-580,20.2952,38.0594,0.000212951,-8.36642e-05,-0.00091454,0.000991131,-0.000861844,-0.705015,0.00107068,0.0171984,1735,1604,20.2952,-38.0595
518,-580,20.2415,37.3081,-0.00029056,-0.000594231,-0.000757478,0.00033015,-0.00121494,-0.686484,0.000939549,0.0151173,1742,1604,20.2414,-37.3081
525,-580,20.1846,36.5278,-0.000670586,-0.00110182,-0.000647525,-0.000203722,-0.00156868,-0.62468,0.000984929,0.0192371,1749,1604,20.1846,-36.5278
532,-580,20.1338,35.7865,-0.000839298,-0.00158822,-0.000657929,-0.00045673,-0.00197078,-0.526685,0.00119117,0.0336451,1756,1604,20.1338,-35.7865
539,-580,20.2008,34.9983,0,0,0,0,0,0,0,-1,1763,1604,20.2008,-34.9982
546,-580,20.4354,34.3694,0,0,0,0,0,0,0,-1,1770,1604,20.4355,-34.3694
553,-580,17.1749,26.6359,0,0,0,0,0,0,0,-1,1777,1604,17.1749,-26.6358
560,-580,18.9662,29.0388,0,0,0,0,0,0,0,-1,1784,1604,18.9661,-29.0389
567,-580,3.87708,4.0647,0,0,0,0,0,0,0,-1,1791,1604,3.87711,-4.06471
574,-580,2.31653,5.62952,0,0,0,0,0,0,0,-1,1798,1604,2.31654,-5.62947
581,-580,1.60876,6.67664,0,0,0,0,0,0,0,-1,1805,1604,1.60873,-6.67667
588,-580,1.38684,7.14441,0,0,0,0,0,0,0,-1,1812,1604,1.38689,-7.14443
595,-580,0,0,0,0,0,0,0,0,0,-1,1819,1604,0,0
602,-580,0,0,0,0,0,0,0,0,0,-1,1826,1604,0,0
609,-580,0,0,0,0,0,0,0,0,0,-1,1833,1604,0,0
616,-580,0,0,0,0,0,0,0,0,0,-1,1840,1604,0,0
623,-580,0,0,0,0,0,0,0,0,0,-1,1847,1604,0,0
630,-580,0,0,0,0,0,0,0,0,0,-1,1854,1604,0,0
637,-580,0,0,0,0,0,0,0,0,0,-1,1861,1604,0,0
644,-580,0,0,0,0,0,0,0,0,0,-1,1868,1604,0,0
651,-580,0,0,0,0,0,0,0,0,0,-1,1875,1604,0,0
658,-580,0,0,0,0,0,0,0,0,0,-1,1882,1604,0,0
665,-580,0,0,0,0,0,0,0,0,0,-1,1889,1604,0,0
672,-580,0,0,0,0,0,0,0,0,0,-1,1896,1604,0,0
679,-580,0,0,0,0,0,0,0,0,0,-1,1903,1604,0,0
686,-580,0,0,0,0,0,0,0,0,0,-1,1910,1604,0,0
693,-580,0,0,0,0,0,0,0,0,0,-1,1917,1604,0,0
700,-580,0,0,0,0,0,0,0,0,0,-1,1924,1604,0,0
707,-580,0,0,0,0,0,0,0,0,0,-1,1931,1604,0,0
714,-580,0,0,0,0,0,0,0,0,0,-1,1938,1604,0,0
721,-580,0,0,0,0,0,0,0,0,0,-1,1945,1604,0,0
728,-580,0,0,0,0,0,0,0,0,0,-1,1952,1604,0,0
735,-580,0,0,0,0,0,0,0,0,0,-1,1959,1604,0,0
742,-580,0,0,0,0,0,0,0,0,0,-1,1966,1604,0,0
749,-580,0,0,0,0,0,0,0,0,0,-1,1973,1604,0,0
756,-580,0,0,0,0,0,0,0,0,0,-1,1980,1604,0,0
763,-580,0,0,0,0,0,0,0,0,0,-1,1987,1604,0,0
770,-580,0,0,0,0,0,0,0,0,0,-1,1994,1604,0,0
777,-580,0,0,0,0,0,0,0,0,0,-1,2001,1604,0,0
784,-580,0,0,0,0,0,0,0,0,0,-1,2008,1604,0,0
791,-580,0,0,0,0,0,0,0,0,0,-1,2015,1604,0,0
798,-580,0,0,0,0,0,0,0,0,0,-1,2022,1604,0,0
805,-580,0,0,0,0,0,0,0,0,0,-1,2029,1604,0,0
812,-580,0,0,0,0,0,0,0,0,0,-1,2036,1604,0,0
-700,-587,0,0,0,0,0,0,0,0,0,-1,524,1611,0,0
-693,-587,0,0,0,0,0,0,0,0,0,-1,531,1611,0,0
-686,-587,0,0,0,0,0,0,0,0,0,-1,538,1611,0,0
-679,-587,0,0,0,0,0,0,0,0,0,-1,545,1611,0,0
-672,-587,0,0,0,0,0,0,0,0,0,-1,552,1611,0,0
-665,-587,0,0,0,0,0,0,0,0,0,-1,559,1611,0,0
-658,-587,0,0,0,0,0,0,0,0,0,-1,566,1611,0,0
-651,-587,0,0,0,0,0,0,0,0,0,-1,573,1611,0,0
-644,-587,0,0,0,0,0,0,0,0,0,-1,580,1611,0,0
-637,-587,0,0,0,0,0,0,0,0,0,-1,587,1611,0,0
-630,-587,0,0,0,0,0,0,0,0,0,-1,594,1611,0,0
-623,-587,0,0,0,0,0,0,0,0,0,-1,601,1611,0,0
-616,-587,0,0,0,0,0,0,0,0,0,-1,608,1611,0,0
-609,-587,0,0,0,0,0,0,0,0,0,-1,615,1611,0,0
-602,-587,0,0,0,0,0,0,0,0,0,-1,622,1611,0,0
-595,-587,0,0,0,0,0,0,0,0,0,-1,629,1611,0,0
-588,-587,0,0,0,0,0,0,0,0,0,-1,636,1611,0,0
-581,-587,0,0,0,0,0,0,0,0,0,-1,643,1611,0,0
-574,-587,0,0,0,0,0,0,0,0,0,-1,650,1611,0,0
-567,-587,0,0,0,0,0,0,0,0,0,-1,657,1611,0,0
-560,-587,0,0,0,0,0,0,0,0,0,-1,664,1611,0,0
-553,-587,0,0,0,0,0,0,0,0,0,-1,671,1611,0,0
-546,-587,0,0,0,0,0,0,0,0,0,-1,678,1611,0,0
-539,-587,0,0,0,0,0,0,0,0,0,-1,685,1611,0,0
-532,-587,0,0,0,0,0,0,0,0,0,-1,692,1611,0,0
-525,-587,0,0,0,0,0,0,0,0,0,-1,699,1611,0,0
-518,-587,0,0,0,0,0,0,0,0,0,-1,706,1611,0,0
-511,-587,0,0,0,0,0,0,0,0,0,-1,713,1611,0,0
-504,-587,0,0,0,0,0,0,0,0,0,-1,720,1611,0,0
-497,-587,0,0,0,0,0,0,0,0,0,-1,727,1611,0,0
-490,-587,0,0,0,0,0,0,0,0,0,-1,734,1611,0,0
-483,-587,0,0,0,0,0,0,0,0,0,-1,741,1611,0,0
-476,-587,0,0,0,0,0,0,0,0,0,-1,748,1611,0,0
-469,-587,0,0,0,0,0,0,0,0,0,-1,755,1611,0,0
-462,-587,-0.714355,-0.418457,0,0,0,0,0,0,0,-1,762,1611,-0.714359,0.418483
-455,-587,-0.619812,-0.522461,0,0,0,0,0,0,0,-1,769,1611,-0.619802,0.522515
-448,-587,-0.461731,-0.686523,0,0,0,0,0,0,0,-1,776,1611,-0.461739,0.686559
-441,-587,-3.56555,2.72253,0,0,0,0,0,0,0,-1,783,1611,-3.56555,-2.72259
-434,-587,-1.77319,4.76318,0,0,0,0,0,0,0,-1,790,1611,-1.77318,-4.76323
-427,-587,0.0346069,6.92944,0,0,0,0,0,0,0,-1,797,1611,0.034587,-6.92941
-420,-587,-0.647156,10.1157,0,0,0,0,0,0,0,-1,804,1611,-0.647128,-10.1158
-413,-587,2.13971,10.3901,0,0,0,0,0,0,0,-1,811,1611,2.13971,-10.3902
-406,-587,2.2525,19.7814,0,0,0,0,0,0,0,-1,818,1611,2.25253,-19.7814
-399,-587,-1.5578,34.803,0,0,0,0,0,0,0,-1,825,1611,-1.55782,-34.803
-392,-587,-1.9574,36.9436,0,0,0,0,0,0,0,-1,832,1611,-1.95741,-36.9436
-385,-587,-1.98608,37.8418,0.00140888,0.000360132,0.00388708,0.0048068,-0.00303779,0.718352,0.0045673,0.0335603,839,1611,-1.98611,-37.8418
-378,-587,-1.96167,38.7284,0.00112972,0.000270546,0.00335562,0.00408314,-0.00268288,0.721734,0.00393415,0.0146659,846,1611,-1.96166,-38.7283
-371,-587,-1.9964,39.5046,0.000997958,7.85731e-05,0.00275979,0.00333608,-0.00225955,0.702872,0.00325051,0.0139089,853,1611,-1.9964,-39.5046
-364,-587,-2.03052,40.2665,0.0010003,-2.86811e-05,0.00222826,0.00277269,-0.00180108,0.67194,0.00266045,0.0175561,860,1611,-2.0305,-40.2665
-357,-587,-2.07465,40.9836,0.00119658,0.000123478,0.00186123,0.00259705,-0.001277,0.645064,0.00227955,0.0169825,867,1611,-2.07462,-40.9837
-350,-587,-2.12366,41.8165,0.00162337,0.000409604,0.00160049,0.00272818,-0.000695201,0.60418,0.00208943,0.0099433,874,1611,-2.12364,-41.8166
-343,-587,-2.16772,42.5828,0.00215319,0.00100074,0.00152251,0.00320486,-5.09403e-05,0.604493,0.00215376,0.0129855,881,1611,-2.16773,-42.5827
-336,-587,-2.19763,43.3103,0.00278809,0.00184556,0.00167411,0.004056,0.000577647,0.648198,0.0025335,0.0140708,888,1611,-2.19764,-43.3103
-329,-587,-2.23053,44.0862,0.00354669,0.00328878,0.00210149,0.00552317,0.00131229,0.754755,0.00333197,0.0160313,895,1611,-2.2305,-44.0862
-322,-587,-2.21918,44.866,0.0043213,0.00559153,0.00275571,0.00778437,0.00212846,0.898657,0.00464557,0.0193171,902,1611,-2.21916,-44.8659
-315,-587,-2.28333,45.5837,0.00524468,0.00780181,0.00352593,0.0102738,0.00277266,0.959334,0.00613744,0.0162864,909,1611,-2.28333,-45.5837
-308,-587,-2.34174,46.3297,0.00631806,0.0100786,0.00457258,0.0131424,0.00325426,0.980464,0.00790343,0.0163587,916,1611,-2.34175,-46.3297
-301,-587,-2.27209,47.0977,0.00742108,0.0131421,0.00593201,0.0168673,0.00369592,1.01006,0.0102377,0.0166298,923,1611,-2.27212,-47.0976
-294,-587,-2.20227,47.8794,0.00859445,0.0168239,0.00754369,0.0213021,0.00411626,1.03507,0.0130476,0.0247807,930,1611,-2.20224,-47.8794
-287,-587,-2.2616,48.6741,0.00990907,0.0209878,0.00931684,0.0262876,0.00460923,1.0536,0.0162086,0.0386484,937,1611,-2.26159,-48.6741
-280,-587,-2.19366,49.7401,0.0113959,0.0255078,0.0114393,0.0318923,0.00501144,1.06175,0.0198035,0.0485183,944,1611,-2.19365,-49.7402
-273,-587,-2.24286,50.6685,0.0129157,0.0302971,0.0135996,0.0377457,0.00546707,1.06971,0.0235539,0.0456669,951,1611,-2.24288,-50.6685
-266,-587,-1.99792,50.8971,0,0,0,0,0,0,0,-1,958,1611,-1.9979,-50.8971
-259,-587,-1.90405,51.3767,0,0,0,0,0,0,0,-1,965,1611,-1.90405,-51.3767
-252,-587,1.30188,10.3103,0,0,0,0,0,0,0,-1,972,1611,1.30188,-10.3104
-245,-587,1.52075,27.4791,0,0,0,0,0,0,0,-1,979,1611,1.52076,-27.4791
-238,-587,2.87799,9.53821,0,0,0,0,0,0,0,-1,986,1611,2.87797,-9.53823
-231,-587,2.49548,9.14465,0,0,0,0,0,0,0,-1,993,1611,2.49551,-9.14468
-224,-587,-9.72528,9.21069,0,0,0,0,0,0,0,-1,1000,1611,-9.72529,-9.21072
-217,-587,-7.07495,10.7847,0,0,0,0,0,0,0,-1,1007,1611,-7.07495,-10.7847
-210,-587,-4.72308,12.5889,0,0,0,0,0,0,0,-1,1014,1611,-4.72307,-12.5888
-203,-587,-3.2583,13.7289,0,0,0,0,0,0,0,-1,1021,1611,-3.25828,-13.7289
-196,-587,-1.953,14.8145,0,0,0,0,0,0,0,-1,1028,1611,-1.95302,-14.8144
-189,-587,-3.04138,8.66638,0,0,0,0,0,0,0,-1,1035,1611,-3.04136,-8.66635
-182,-587,-3.97095,9.7146,0,0,0,0,0,0,0,-1,1042,1611,-3.97093,-9.71461
-175,-587,-4.80969,8.37878,0,0,0,0,0,0,0,-1,1049,1611,-4.80964,-8.37883
-168,-587,-5.91394,8.72546,0,0,0,0,0,0,0,-1,1056,1611,-5.91398,-8.72542
-161,-587,-7.06946,8.88501,0,0,0,0,0,0,0,-1,1063,1611,-7.06947,-8.885
-154,-587,-2.24731,6.56519,0,0,0,0,0,0,0,-1,1070,1611,-2.24728,-6.56517
-147,-587,0,0,0,0,0,0,0,0,0,-1,1077,1611,0,0
-140,-587,0,0,0,0,0,0,0,0,0,-1,1084,1611,0,0
-133,-587,0,0,0,0,0,0,0,0,0,-1,1091,1611,0,0
-126,-587,0,0,0,0,0,0,0,0,0,-1,1098,1611,0,0
-119,-587,0,0,0,0,0,0,0,0,0,-1,1105,1611,0,0
-112,-587,0,0,0,0,0,0,0,0,0,-1,1112,1611,0,0
-105,-587,0,0,0,0,0,0,0,0,0,-1,1119,1611,0,0
-98,-587,0,0,0,0,0,0,0,0,0,-1,1126,1611,0,0
-91,-587,0,0,0,0,0,0,0,0,0,-1,1133,1611,0,0
-84,-587,0,0,0,0,0,0,0,0,0,-1,1140,1611,0,0
-77,-587,0,0,0,0,0,0,0,0,0,-1,1147,1611,0,0
-70,-587,0,0,0,0,0,0,0,0,0,-1,1154,1611,0,0
-63,-587,0,0,0,0,0,0,0,0,0,-1,1161,1611,0,0
-56,-587,0,0,0,0,0,0,0,0,0,-1,1168,1611,0,0
-49,-587,0,0,0,0,0,0,0,0,0,-1,1175,1611,0,0
-42,-587,0,0,0,0,0,0,0,0,0,-1,1182,1611,0,0
-35,-587,0,0,0,0,0,0,0,0,0,-1,1189,1611,0,0
-28,-587,0,0,0,0,0,0,0,0,0,-1,1196,1611,0,0
-21,-587,0,0,0,0,0,0,0,0,0,-1,1203,1611,0,0
-14,-587,0,0,0,0,0,0,0,0,0,-1,1210,1611,0,0
-7,-587,0,0,0,0,0,0,0,0,0,-1,1217,1611,0,0
0,-587,0,0,0,0,0,0,0,0,0,-1,1224,1611,0,0
7,-587,0,0,0,0,0,0,0,0,0,-1,1231,1611,0,0
14,-587,0,0,0,0,0,0,0,0,0,-1,1238,1611,0,0
21,-587,0,0,0,0,0,0,0,0,0,-1,1245,1611,0,0
28,-587,0,0,0,0,0,0,0,0,0,-1,1252,1611,0,0
35,-587,0,0,0,0,0,0,0,0,0,-1,1259,1611,0,0
42,-587,0,0,0,0,0,0,0,0,0,-1,1266,1611,0,0
49,-587,0,0,0,0,0,0,0,0,0,-1,1273,1611,0,0
56,-587,0,0,0,0,0,0,0,0,0,-1,1280,1611,0,0
63,-587,0,0,0,0,0,0,0,0,0,-1,1287,1611,0,0
70,-587,0,0,0,0,0,0,0,0,0,-1,1294,1611,0,0
77,-587,0,0,0,0,0,0,0,0,0,-1,1301,1611,0,0
84,-587,0,0,0,0,0,0,0,0,0,-1,1308,1611,0,0
91,-587,0,0,0,0,0,0,0,0,0,-1,1315,1611,0,0
98,-587,0,0,0,0,0,0,0,0,0,-1,1322,1611,0,0
105,-587,0,0,0,0,0,0,0,0,0,-1,1329,1611,0,0
112,-587,0,0,0,0,0,0,0,0,0,-1,1336,1611,0,0
119,-587,0,0,0,0,0,0,0,0,0,-1,1343,1611,0,0
126,-587,0,0,0,0,0,0,0,0,0,-1,1350,1611,0,0
133,-587,0,0,0,0,0,0,0,0,0,-1,1357,1611,0,0
140,-587,0,0,0,0,0,0,0,0,0,-1,1364,1611,0,0
147,-587,0,0,0,0,0,0,0,0,0,-1,1371,1611,0,0
154,-587,0,0,0,0,0,0,0,0,0,-1,1378,1611,0,0
161,-587,0,0,0,0,0,0,0,0,0,-1,1385,1611,0,0
168,-587,0,0,0,0,0,0,0,0,0,-1,1392,1611,0,0
175,-587,0,0,0,0,0,0,0,0,0,-1,1399,1611,0,0
182,-587,0,0,0,0,0,0,0,0,0,-1,1406,1611,0,0
189,-587,0,0,0,0,0,0,0,0,0,-1,1413,1611,0,0
196,-587,0,0,0,0,0,0,0,0,0,-1,1420,1611,0,0
203,-587,0,0,0,0,0,0,0,0,0,-1,1427,1611,0,0
210,-587,0,0,0,0,0,0,0,0,0,-1,1434,1611,0,0
217,-587,0,0,0,0,0,0,0,0,0,-1,1441,1611,0,0
224,-587,0,0,0,0,0,0,0,0,0,-1,1448,1611,0,0
231,-587,0,0,0,0,0,0,0,0,0,-1,1455,1611,0,0
238,-587,0,0,0,0,0,0,0,0,0,-1,1462,1611,0,0
245,-587,0,0,0,0,0,0,0,0,0,-1,1469,1611,0,0
252,-587,0,0,0,0,0,0,0,0,0,-1,1476,1611,0,0
259,-587,0,0,0,0,0,0,0,0,0,-1,1483,1611,0,0
266,-587,0,0,0,0,0,0,0,0,0,-1,1490,1611,0,0
273,-587,10.2936,6.35083,0,0,0,0,0,0,0,-1,1497,1611,10.2936,-6.35087
280,-587,2.09204,1.1217,0,0,0,0,0,0,0,-1,1504,1611,2.092,-1.12176
287,-587,3.2865,0.671509,0,0,0,0,0,0,0,-1,1511,1611,3.28656,-0.671538
294,-587,4.24646,1.58765,0,0,0,0,0,0,0,-1,1518,1611,4.24648,-1.58761
301,-587,7.60474,8.37085,0,0,0,0,0,0,0,-1,1525,1611,7.60478,-8.37084
308,-587,5.99316,10.2291,0,0,0,0,0,0,0,-1,1532,1611,5.99315,-10.2291
315,-587,4.34558,12.3289,0,0,0,0,0,0,0,-1,1539,1611,4.34556,-12.3288
322,-587,10.4526,6.38245,0,0,0,0,0,0,0,-1,1546,1611,10.4526,-6.38245
329,-587,10.7738,8.42444,0,0,0,0,0,0,0,-1,1553,1611,10.7738,-8.42438
336,-587,7.5531,5.96619,0,0,0,0,0,0,0,-1,1560,1611,7.55311,-5.96617
343,-587,20.0991,54.4835,0,0,0,0,0,0,0,-1,1567,1611,20.0991,-54.4835
350,-587,19.8248,54.2876,0,0,0,0,0,0,0,-1,1574,1611,19.8249,-54.2876
357,-587,18.6205,53.876,0,0,0,0,0,0,0,-1,1581,1611,18.6205,-53.876
364,-587,19.7931,53.4395,0,0,0,0,0,0,0,-1,1588,1611,19.7931,-53.4395
371,-587,20.7448,52.7705,0.0509632,0.0201375,0.00636809,0.0522269,0.0188738,0.195903,0.030537,0.0452101,1595,1611,20.7447,-52.7706
378,-587,21.543,52.1212,0,0,0,0,0,0,0,-1,1602,1611,21.543,-52.1212
385,-587,22.3545,51.4707,0,0,0,0,0,0,0,-1,1609,1611,22.3544,-51.4707
392,-587,20.0913,50.3293,0,0,0,0,0,0,0,-1,1616,1611,20.0914,-50.3293
399,-587,20.0742,49.7623,0,0,0,0,0,0,0,-1,1623,1611,20.0743,-49.7624
406,-587,19.9723,49.1254,0.0142773,0.00927206,0.00134665,0.0146166,0.00893275,0.246829,0.00850811,0.0416814,1630,1611,19.9722,-49.1253
413,-587,20.005,48.4474,0.0109906,0.00827345,0.000558635,0.011101,0.00816308,0.195057,0.00664161,0.0333654,1637,1611,20.005,-48.4473
420,-587,19.9655,47.7168,0.00859488,0.00755181,-0.000172558,0.00862268,0.00752401,-0.159764,0.00541948,0.0306127,1644,1611,19.9654,-47.7167
427,-587,19.9301,47.0485,0.00570607,0.00696846,-0.00128466,0.00776861,0.00490592,-1.01374,0.00453662,0.0261062,1651,1611,19.9301,-47.0484
434,-587,19.8726,46.3616,0,0,0,0,0,0,0,-1,1658,1611,19.8725,-46.3615
441,-587,19.8756,45.4198,0.00452481,0.00510146,-0.00130036,0.00614507,0.0034812,-0.894497,0.0035583,0.0246582,1665,1611,19.8756,-45.4198
448,-587,19.8689,44.7906,0.00390678,0.00462157,-0.00149193,0.00579831,0.00273004,-0.902959,0.00334956,0.0170395,1672,1611,19.8689,-44.7907
455,-587,19.8356,44.0826,0.00345936,0.00398276,-0.00173254,0.00547325,0.00196886,-0.860357,0.00320117,0.0149041,1679,1611,19.8355,-44.0826
462,-587,19.8027,43.3232,0.00320715,0.00327179,-0.00186379,0.00510354,0.0013754,-0.794068,0.00304911,0.0189116,1686,1611,19.8027,-43.3232
469,-587,19.7772,42.5975,0.00292857,0.00255742,-0.00193973,0.00469158,0.000794412,-0.737708,0.00289942,0.0177605,1693,1611,19.7773,-42.5975
476,-587,19.7438,41.8865,0.00249853,0.00199668,-0.00188928,0.00415347,0.00034174,-0.719377,0.00266239,0.0115129,1700,1611,19.7437,-41.8865
483,-587,19.6704,41.1307,0.0020474,0.00132729,-0.0017768,0.00350025,-0.00012557,-0.685431,0.00237647,0.0141436,1707,1611,19.6705,-41.1307
490,-587,19.6213,40.3837,0.00151916,0.000806008,-0.00159795,0.00279983,-0.000474666,-0.675624,0.00204324,0.0166961,1714,1611,19.6213,-40.3836
497,-587,19.5946,39.6289,0.000986111,0.000427133,-0.0014402,0.00217369,-0.000760449,-0.689558,0.00175831,0.0126622,1721,1611,19.5946,-39.6289
504,-587,19.5593,38.8856,0.000438535,-0.000124255,-0.00124761,0.00143609,-0.00112181,-0.67448,0.00148051,0.0122725,1728,1611,19.5593,-38.8857
511,-587,19.538,38.1564,-7.39152e-05,-0.000500722,-0.00108719,0.000820618,-0.00139526,-0.688486,0.0012936,0.0145483,1735,1611,19.538,-38.1563
518,-587,19.5303,37.3811,-0.000579482,-0.000954809,-0.00091042,0.000162414,-0.00169671,-0.683757,0.00118898,0.0145885,1742,1611,19.5302,-37.3811
525,-587,19.4803,36.6489,-0.00102893,-0.00142251,-0.000758568,-0.000442045,-0.0020094,-0.658483,0.00121926,0.021661,1749,1611,19.4804,-36.6489
532,-587,19.5308,35.9814,-0.00122554,-0.00190345,-0.00068028,-0.000804445,-0.00232454,-0.554271,0.00136311,0.0421413,1756,1611,19.5308,-35.9814
539,-587,19.6738,35.0756,0,0,0,0,0,0,0,-1,1763,1611,19.6738,-35.0756
546,-587,17.6716,25.2673,0,0,0,0,0,0,0,-1,1770,1611,17.6716,-25.2674
553,-587,7.5813,8.45068,0,0,0,0,0,0,0,-1,1777,1611,7.58125,-8.45068
560,-587,4.21179,5.23547,0,0,0,0,0,0,0,-1,1784,1611,4.21185,-5.23553
567,-587,4.03711,5.46387,0,0,0,0,0,0,0,-1,1791,1611,4.03715,-5.46382
574,-587,3.83142,5.68884,0,0,0,0,0,0,0,-1,1798,1611,3.83141,-5.68881
581,-587,3.47168,6.00977,0,0,0,0,0,0,0,-1,1805,1611,3.47167,-6.00983
588,-587,0,0,0,0,0,0,0,0,0,-1,1812,1611,0,0
595,-587,0,0,0,0,0,0,0,0,0,-1,1819,1611,0,0
602,-587,0,0,0,0,0,0,0,0,0,-1,1826,1611,0,0
609,-587,0,0,0,0,0,0,0,0,0,-1,1833,1611,0,0
616,-587,0,0,0,0,0,0,0,0,0,-1,1840,1611,0,0
623,-587,0,0,0,0,0,0,0,0,0,-1,1847,1611,0,0
630,-587,0,0,0,0,0,0,0,0,0,-1,1854,1611,0,0
637,-587,0,0,0,0,0,0,0,0,0,-1,1861,1611,0,0
644,-587,0,0,0,0,0,0,0,0,0,-1,1868,1611,0,0
651,-587,0,0,0,0,0,0,0,0,0,-1,1875,1611,0,0
658,-587,0,0,0,0,0,0,0,0,0,-1,1882,1611,0,0
665,-587,0,0,0,0,0,0,0,0,0,-1,1889,1611,0,0
672,-587,0,0,0,0,0,0,0,0,0,-1,1896,1611,0,0
679,-587,0,0,0,0,0,0,0,0,0,-1,1903,1611,0,0
686,-587,0,0,0,0,0,0,0,0,0,-1,1910,1611,0,0
693,-587,0,0,0,0,0,0,0,0,0,-1,1917,1611,0,0
700,-587,0,0,0,0,0,0,0,0,0,-1,1924,1611,0,0
707,-587,0,0,0,0,0,0,0,0,0,-1,1931,1611,0,0
714,-587,0,0,0,0,0,0,0,0,0,-1,1938,1611,0,0
721,-587,0,0,0,0,0,0,0,0,0,-1,1945,1611,0,0
728,-587,0,0,0,0,0,0,0,0,0,-1,1952,1611,0,0
735,-587,0,0,0,0,0,0,0,0,0,-1,1959,1611,0,0
742,-587,0,0,0,0,0,0,0,0,0,-1,1966,1611,0,0
749,-587,0,0,0,0,0,0,0,0,0,-1,1973,1611,0,0
756,-587,0,0,0,0,0,0,0,0,0,-1,1980,1611,0,0
763,-587,0,0,0,0,0,0,0,0,0,-1,1987,1611,0,0
770,-587,0,0,0,0,0,0,0,0,0,-1,1994,1611,0,0
777,-587,0,0,0,0,0,0,0,0,0,-1,2001,1611,0,0
784,-587,0,0,0,0,0,0,0,0,0,-1,2008,1611,0,0
791,-587,0,0,0,0,0,0,0,0,0,-1,2015,1611,0,0
798,-587,0,0,0,0,0,0,0,0,0,-1,2022,1611,0,0
805,-587,0,0,0,0,0,0,0,0,0,-1,2029,1611,0,0
812,-587,0,0,0,0,0,0,0,0,0,-1,2036,1611,0,0
-700,-594,0,0,0,0,0,0,0,0,0,-1,524,1618,0,0
-693,-594,0,0,0,0,0,0,0,0,0,-1,531,1618,0,0
-686,-594,0,0,0,0,0,0,0,0,0,-1,538,1618,0,0
-679,-594,0,0,0,0,0,0,0,0,0,-1,545,1618,0,0
-672,-594,0,0,0,0,0,0,0,0,0,-1,552,1618,0,0
-665,-594,0,0,0,0,0,0,0,0,0,-1,559,1618,0,0
-658,-594,0,0,0,0,0,0,0,0,0,-1,566,1618,0,0
-651,-594,0,0,0,0,0,0,0,0,0,-1,573,1618,0,0
-644,-594,0,0,0,0,0,0,0,0,0,-1,580,1618,0,0
-637,-594,0,0,0,0,0,0,0,0,0,-1,587,1618,0,0
-630,-594,0,0,0,0,0,0,0,0,0,-1,594,1618,0,0
-623,-594,0,0,0,0,0,0,0,0,0,-1,601,1618,0,0
-616,-594,0,0,0,0,0,0,0,0,0,-1,608,1618,0,0
-609,-594,0,0,0,0,0,0,0,0,0,-1,615,1618,0,0
-602,-594,0,0,0,0,0,0,0,0,0,-1,622,1618,0,0
-595,-594,0,0,0,0,0,0,0,0,0,-1,629,1618,0,0
-588,-594,0,0,0,0,0,0,0,0,0,-1,636,1618,0,0
-581,-594,0,0,0,0,0,0,0,0,0,-1,643,1618,0,0
-574,-594,0,0,0,0,0,0,0,0,0,-1,650,1618,0,0
-567,-594,0,0,0,0,0,0,0,0,0,-1,657,1618,0,0
-560,-594,0,0,0,0,0,0,0,0,0,-1,664,1618,0,0
-553,-594,0,0,0,0,0,0,0,0,0,-1,671,1618,0,0
-546,-594,0,0,0,0,0,0,0,0,0,-1,678,1618,0,0
-539,-594,0,0,0,0,0,0,0,0,0,-1,685,1618,0,0
-532,-594,0,0,0,0,0,0,0,0,0,-1,692,1618,0,0
-525,-594,0,0,0,0,0,0,0,0,0,-1,699,1618,0,0
-518,-594,0,0,0,0,0,0,0,0,0,-1,706,1618,0,0
-511,-594,0,0,0,0,0,0,0,0,0,-1,713,1618,0,0
-504,-594,0,0,0,0,0,0,0,0,0,-1,720,1618,0,0
-497,-594,0,0,0,0,0,0,0,0,0,-1,727,1618,0,0
-490,-594,0,0,0,0,0,0,0,0,0,-1,734,1618,0,0
-483,-594,0,0,0,0,0,0,0,0,0,-1,741,1618,0,0
-476,-594,0,0,0,0,0,0,0,0,0,-1,748,1618,0,0
-469,-594,0,0,0,0,0,0,0,0,0,-1,755,1618,0,0
-462,-594,0,0,0,0,0,0,0,0,0,-1,762,1618,0,0
-455,-594,-0.509216,-1.58411,0,0,0,0,0,0,0,-1,769,1618,-0.509245,1.58415
-448,-594,-7.71887,-0.0559082,0,0,0,0,0,0,0,-1,776,1618,-7.71885,0.055939
-441,-594,-5.78473,1.18298,0,0,0,0,0,0,0,-1,783,1618,-5.78474,-1.18295
-434,-594,-3.93628,3.06213,0,0,0,0,0,0,0,-1,790,1618,-3.93631,-3.06208
-427,-594,-3.97693,6.77759,0,0,0,0,0,0,0,-1,797,1618,-3.97695,-6.77764
-420,-594,-2.53046,7.71606,0,0,0,0,0,0,0,-1,804,1618,-2.53047,-7.71609
-413,-594,-0.860413,8.00391,0,0,0,0,0,0,0,-1,811,1618,-0.860423,-8.00389
-406,-594,2.45746,13.6218,0,0,0,0,0,0,0,-1,818,1618,2.45747,-13.6218
-399,-594,1.30414,24.9963,0,0,0,0,0,0,0,-1,825,1618,1.30415,-24.9963
-392,-594,-0.504883,35.921,0,0,0,0,0,0,0,-1,832,1618,-0.50491,-35.921
-385,-594,-1.23206,37.8042,0,0,0,0,0,0,0,-1,839,1618,-1.23208,-37.8042
-378,-594,-1.26678,38.7235,0.00147265,1.42856e-05,0.00437466,0.00517848,-0.00369154,0.702816,0.00514504,0.0223614,846,1618,-1.26677,-38.7235
-371,-594,-1.24597,39.5726,0.00115063,-0.000190411,0.00362087,0.00416254,-0.00320232,0.693844,0.00426414,0.013842,853,1618,-1.24599,-39.5726
-364,-594,-1.25586,40.3293,0.00094355,-0.000395755,0.00287675,0.00322756,-0.00267976,0.671044,0.00341548,0.0111935,860,1618,-1.25584,-40.3293
-357,-594,-1.30377,41.0919,0.000993305,-0.000322953,0.00235692,0.00278226,-0.00211191,0.64925,0.00283447,0.0109003,867,1618,-1.30376,-41.0919
-350,-594,-1.36627,41.8948,0.0012583,-9.70791e-05,0.00196478,0.00265898,-0.00149776,0.619327,0.00243091,0.0154231,874,1618,-1.36625,-41.8948
-343,-594,-1.43292,42.6681,0.00164803,0.000412629,0.00174455,0.00288101,-0.000820353,0.615249,0.00224466,0.0185371,881,1618,-1.43291,-42.6681
-336,-594,-1.48981,43.3793,0.0021276,0.00112173,0.0017228,0.00341937,-0.000170038,0.64338,0.00233832,0.0166607,888,1618,-1.48983,-43.3792
-329,-594,-1.49872,44.1376,0.00268824,0.00226043,0.00191244,0.0043987,0.000549969,0.729705,0.00276742,0.0157037,895,1618,-1.49873,-44.1376
-322,-594,-1.46948,44.9061,0.00326367,0.0040709,0.00230358,0.00600596,0.00132861,0.872125,0.00364278,0.0173285,902,1618,-1.46947,-44.9062
-315,-594,-1.51074,45.6219,0.00397417,0.00581126,0.00281316,0.00785203,0.00193339,0.9432,0.004724,0.0183664,909,1618,-1.51072,-45.622
-308,-594,-1.56665,46.353,0.00482372,0.00759721,0.00354295,0.0100151,0.00240578,0.971938,0.0060368,0.0163216,916,1618,-1.56667,-46.353
-301,-594,-1.59979,47.0597,0.00572209,0.0100184,0.00453814,0.0128911,0.00284936,1.00645,0.00781931,0.0126813,923,1618,-1.5998,-47.0597
-294,-594,-1.56927,47.7816,0.00670471,0.0128708,0.00572336,0.0162887,0.00328684,1.03245,0.00994623,0.0142802,930,1618,-1.5693,-47.7816
-287,-594,-1.65216,48.5044,0.00778155,0.0159859,0.00700479,0.0200013,0.00376615,1.05029,0.0122729,0.020606,937,1618,-1.65217,-48.5044
-280,-594,-1.59607,49.2859,0.00902695,0.0192999,0.0085049,0.0240991,0.00422781,1.05706,0.0148586,0.0223657,944,1618,-1.59605,-49.2859
-273,-594,-1.53577,50.0607,0.010414,0.0227319,0.0101113,0.0284123,0.00473357,1.05895,0.0175775,0.0277928,951,1618,-1.53575,-50.0606
-266,-594,-1.47406,50.7792,0.0118167,0.0259488,0.0116319,0.0324927,0.00527284,1.05834,0.0201357,0.0355497,958,1618,-1.47407,-50.7792
-259,-594,-1.32465,51.3159,0.0132549,0.0288414,0.0130292,0.0362302,0.00586608,1.05492,0.022455,0.0454047,965,1618,-1.32465,-51.3159
-252,-594,-1.41302,52.4337,0,0,0,0,0,0,0,-1,972,1618,-1.41302,-52.4337
-245,-594,2.27759,35.1766,0,0,0,0,0,0,0,-1,979,1618,2.27756,-35.1766
-238,-594,2.09015,28.0121,0,0,0,0,0,0,0,-1,986,1618,2.09012,-28.0121
-231,-594,1.93774,9.35388,0,0,0,0,0,0,0,-1,993,1618,1.93776,-9.35393
-224,-594,1.81824,8.62744,0,0,0,0,0,0,0,-1,1000,1618,1.81822,-8.62745
-217,-594,-8.24066,12.0752,0,0,0,0,0,0,0,-1,1007,1618,-8.24068,-12.0751
-210,-594,-5.61438,14.2119,0,0,0,0,0,0,0,-1,1014,1618,-5.6144,-14.212
-203,-594,-3.94507,15.5768,0,0,0,0,0,0,0,-1,1021,1618,-3.94506,-15.5768
-196,-594,2.78613,10.5815,0,0,0,0,0,0,0,-1,1028,1618,2.78612,-10.5815
-189,-594,2.60913,9.48865,0,0,0,0,0,0,0,-1,1035,1618,2.6091,-9.48871
-182,-594,1.2395,9.38806,0,0,0,0,0,0,0,-1,1042,1618,1.23951,-9.38804
-175,-594,0.234863,8.73792,0,0,0,0,0,0,0,-1,1049,1618,0.234812,-8.73786
-168,-594,-0.495483,8.46289,0,0,0,0,0,0,0,-1,1056,1618,-0.495513,-8.46285
-161,-594,-1.39734,8.28699,0,0,0,0,0,0,0,-1,1063,1618,-1.39729,-8.28699
-154,-594,-0.000854492,7.68445,0,0,0,0,0,0,0,-1,1070,1618,-0.000805755,-7.6845
-147,-594,0.348267,9.3385,0,0,0,0,0,0,0,-1,1077,1618,0.348237,-9.33849
-140,-594,0.675171,11.5884,0,0,0,0,0,0,0,-1,1084,1618,0.675204,-11.5884
-133,-594,0,0,0,0,0,0,0,0,0,-1,1091,1618,0,0
-126,-594,0,0,0,0,0,0,0,0,0,-1,1098,1618,0,0
-119,-594,0,0,0,0,0,0,0,0,0,-1,1105,1618,0,0
-112,-594,0,0,0,0,0,0,0,0,0,-1,1112,1618,0,0
-105,-594,0,0,0,0,0,0,0,0,0,-1,1119,1618,0,0
-98,-594,0,0,0,0,0,0,0,0,0,-1,1126,1618,0,0
-91,-594,0,0,0,0,0,0,0,0,0,-1,1133,1618,0,0
-84,-594,0,0,0,0,0,0,0,0,0,-1,1140,1618,0,0
-77,-594,0,0,0,0,0,0,0,0,0,-1,1147,1618,0,0
-70,-594,0,0,0,0,0,0,0,0,0,-1,1154,1618,0,0
-63,-594,0,0,0,0,0,0,0,0,0,-1,1161,1618,0,0
-56,-594,0,0,0,0,0,0,0,0,0,-1,1168,1618,0,0
-49,-594,0,0,0,0,0,0,0,0,0,-1,1175,1618,0,0
-42,-594,0,0,0,0,0,0,0,0,0,-1,1182,1618,0,0
-35,-594,0,0,0,0,0,0,0,0,0,-1,1189,1618,0,0
-28,-594,0,0,0,0,0,0,0,0,0,-1,1196,1618,0,0
-21,-594,0,0,0,0,0,0,0,0,0,-1,1203,1618,0,0
-14,-594,0,0,0,0,0,0,0,0,0,-1,1210,1618,0,0
-7,-594,0,0,0,0,0,0,0,0,0,-1,1217,1618,0,0
0,-594,0,0,0,0,0,0,0,0,0,-1,1224,1618,0,0
7,-594,0,0,0,0,0,0,0,0,0,-1,1231,1618,0,0
14,-594,0,0,0,0,0,0,0,0,0,-1,1238,1618,0,0
21,-594,0,0,0,0,0,0,0,0,0,-1,1245,1618,0,0
28,-594,0,0,0,0,0,0,0,0,0,-1,1252,1618,0,0
35,-594,0,0,0,0,0,0,0,0,0,-1,1259,1618,0,0
42,-594,0,0,0,0,0,0,0,0,0,-1,1266,1618,0,0
49,-594,0,0,0,0,0,0,0,0,0,-1,1273,1618,0,0
56,-594,0,0,0,0,0,0,0,0,0,-1,1280,1618,0,0
63,-594,0,0,0,0,0,0,0,0,0,-1,1287,1618,0,0
70,-594,0,0,0,0,0,0,0,0,0,-1,1294,1618,0,0
77,-594,0,0,0,0,0,0,0,0,0,-1,1301,1618,0,0
84,-594,0,0,0,0,0,0,0,0,0,-1,1308,1618,0,0
91,-594,0,0,0,0,0,0,0,0,0,-1,1315,1618,0,0
98,-594,0,0,0,0,0,0,0,0,0,-1,1322,1618,0,0
105,-594,0,0,0,0,0,0,0,0,0,-1,1329,1618,0,0
112,-594,0,0,0,0,0,0,0,0,0,-1,1336,1618,0,0
119,-594,0,0,0,0,0,0,0,0,0,-1,1343,1618,0,0
126,-594,0,0,0,0,0,0,0,0,0,-1,1350,1618,0,0
133,-594,0,0,0,0,0,0,0,0,0,-1,1357,1618,0,0
140,-594,0,0,0,0,0,0,0,0,0,-1,1364,1618,0,0
147,-594,0,0,0,0,0,0,0,0,0,-1,1371,1618,0,0
154,-594,0,0,0,0,0,0,0,0,0,-1,1378,1618,0,0
161,-594,0,0,0,0,0,0,0,0,0,-1,1385,1618,0,0
168,-594,0,0,0,0,0,0,0,0,0,-1,1392,1618,0,0
175,-594,0,0,0,0,0,0,0,0,0,-1,1399,1618,0,0
182,-594,0,0,0,0,0,0,0,0,0,-1,1406,1618,0,0
189,-594,0,0,0,0,0,0,0,0,0,-1,1413,1618,0,0
196,-594,0,0,0,0,0,0,0,0,0,-1,1420,1618,0,0
203,-594,0,0,0,0,0,0,0,0,0,-1,1427,1618,0,0
210,-594,0,0,0,0,0,0,0,0,0,-1,1434,1618,0,0
217,-594,0,0,0,0,0,0,0,0,0,-1,1441,1618,0,0
224,-594,0,0,0,0,0,0,0,0,0,-1,1448,1618,0,0
231,-594,0,0,0,0,0,0,0,0,0,-1,1455,1618,0,0
238,-594,0,0,0,0,0,0,0,0,0,-1,1462,1618,0,0
245,-594,0,0,0,0,0,0,0,0,0,-1,1469,1618,0,0
252,-594,3.03674,1.20996,0,0,0,0,0,0,0,-1,1476,1618,3.0368,-1.20999
259,-594,4.79834,1.53113,0,0,0,0,0,0,0,-1,1483,1618,4.79837,-1.53118
266,-594,3.71606,2.68152,0,0,0,0,0,0,0,-1,1490,1618,3.71609,-2.68149
273,-594,9.7655,6.33557,0,0,0,0,0,0,0,-1,1497,1618,9.76555,-6.33554
280,-594,3.13281,0.911255,0,0,0,0,0,0,0,-1,1504,1618,3.13277,-0.911207
287,-594,4.42749,1.51563,0,0,0,0,0,0,0,-1,1511,1618,4.42747,-1.51564
294,-594,5.36475,3.34937,0,0,0,0,0,0,0,-1,1518,1618,5.36475,-3.3494
301,-594,7.97144,9.04333,0,0,0,0,0,0,0,-1,1525,1618,7.9714,-9.04328
308,-594,6.30347,10.4633,0,0,0,0,0,0,0,-1,1532,1618,6.30351,-10.4633
315,-594,4.62012,11.934,0,0,0,0,0,0,0,-1,1539,1618,4.62006,-11.934
322,-594,2.91528,13.3134,0,0,0,0,0,0,0,-1,1546,1618,2.91523,-13.3133
329,-594,4.19861,9.77258,0,0,0,0,0,0,0,-1,1553,1618,4.19865,-9.77264
336,-594,10.1353,4.66528,0,0,0,0,0,0,0,-1,1560,1618,10.1353,-4.66533
343,-594,18.1643,55.3273,0,0,0,0,0,0,0,-1,1567,1618,18.1643,-55.3273
350,-594,18.2991,54.4825,0,0,0,0,0,0,0,-1,1574,1618,18.2991,-54.4826
357,-594,18.2343,53.7335,0,0,0,0,0,0,0,-1,1581,1618,18.2343,-53.7335
364,-594,18.886,53.4919,0,0,0,0,0,0,0,-1,1588,1618,18.886,-53.492
371,-594,19.3975,52.9232,0,0,0,0,0,0,0,-1,1595,1618,19.3975,-52.9232
378,-594,19.3448,52.3977,0,0,0,0,0,0,0,-1,1602,1618,19.3449,-52.3977
385,-594,18.9174,51.1115,0,0,0,0,0,0,0,-1,1609,1618,18.9173,-51.1115
392,-594,19.1619,50.4921,0.0186391,0.0120586,0.000354223,0.0186581,0.0120396,0.0536228,0.0109228,0.0469914,1616,1618,19.1619,-50.4921
399,-594,19.3489,49.782,0.0143992,0.00993054,0.000400542,0.0144348,0.00989493,0.088691,0.00852298,0.0416605,1623,1618,19.3488,-49.782
406,-594,19.2805,49.1299,0.0111308,0.00859622,0.000226127,0.0111508,0.0085762,0.0882877,0.00674159,0.0259686,1630,1618,19.2805,-49.1299
413,-594,19.2274,48.423,0.0085304,0.00737219,5.94527e-05,0.00853344,0.00736914,0.0511524,0.00534331,0.0178356,1637,1618,19.2274,-48.423
420,-594,19.2211,47.7356,0.00669784,0.00647345,-0.000265008,0.00687342,0.00629787,-0.585157,0.00440299,0.015958,1644,1618,19.221,-47.7356
427,-594,19.2339,47.0426,0.00452969,0.00569196,-0.000914347,0.00619422,0.00402743,-1.06848,0.00362962,0.0145769,1651,1618,19.2339,-47.0426
434,-594,19.1832,46.3195,0.0039204,0.00472427,-0.000916493,0.00532309,0.00332158,-0.992047,0.00310463,0.0192868,1658,1618,19.1832,-46.3195
441,-594,19.1226,45.5778,0.00356405,0.00394199,-0.00102075,0.00479111,0.00271493,-0.876927,0.00277433,0.0174501,1665,1618,19.1225,-45.5778
448,-594,19.1387,44.8425,0.00314798,0.00344249,-0.00128383,0.00458749,0.00200299,-0.842498,0.00265567,0.0185503,1672,1618,19.1387,-44.8425
455,-594,19.0813,44.0981,0.00289911,0.00282128,-0.00159681,0.00445748,0.00126291,-0.773215,0.00265285,0.0135391,1679,1618,19.0812,-44.0981
462,-594,19.0629,43.3594,0.00277947,0.00210685,-0.00180715,0.00428134,0.000604985,-0.693401,0.00267546,0.0140549,1686,1618,19.0628,-43.3593
469,-594,19.0505,42.6511,0.00262534,0.00145949,-0.00198213,0.00410849,-2.36579e-05,-0.642386,0.00274691,0.0124443,1693,1618,19.0505,-42.6512
476,-594,19.0148,41.9194,0.00229166,0.00101195,-0.0020062,0.00375758,-0.000453965,-0.631028,0.00266927,0.0127868,1700,1618,19.0147,-41.9194
483,-594,18.9785,41.1677,0.00195041,0.000403366,-0.00199239,0.00331416,-0.000960386,-0.600235,0.00258963,0.0159341,1707,1618,18.9785,-41.1677
490,-594,18.915,40.4142,0.0014963,-5.13716e-06,-0.00190597,0.00279407,-0.0013029,-0.597789,0.00241705,0.0139444,1714,1618,18.915,-40.4142
497,-594,18.8695,39.6686,0.000997057,-0.000257186,-0.00181365,0.00228894,-0.00154907,-0.618943,0.00222956,0.010312,1721,1618,18.8695,-39.6686
504,-594,18.8291,38.9119,0.000426141,-0.000732213,-0.00162903,0.00157589,-0.00188196,-0.6146,0.001999,0.0106514,1728,1618,18.8292,-38.9119
511,-594,18.8175,38.1307,-0.000184718,-0.000826705,-0.00149044,0.00101891,-0.00203033,-0.679334,0.00179247,0.0174056,1735,1618,18.8175,-38.1307
518,-594,18.7311,37.3486,-0.000961841,-0.00118274,-0.00116609,9.90169e-05,-0.0022436,-0.73818,0.00152981,0.0244789,1742,1618,18.7311,-37.3486
525,-594,18.5125,36.5359,-0.00163007,-0.001617,-0.000875976,-0.000747536,-0.00249954,-0.78913,0.00148144,0.0362838,1749,1618,18.5125,-36.5359
532,-594,19.0258,35.9762,0,0,0,0,0,0,0,-1,1756,1618,19.0257,-35.9761
539,-594,21.0237,24.9617,0,0,0,0,0,0,0,-1,1763,1618,21.0237,-24.9616
546,-594,7.48645,8.54785,0,0,0,0,0,0,0,-1,1770,1618,7.48639,-8.54789
553,-594,3.69714,5.68762,0,0,0,0,0,0,0,-1,1777,1618,3.69715,-5.68764
560,-594,6.06616,4.44482,0,0,0,0,0,0,0,-1,1784,1618,6.06621,-4.44477
567,-594,5.97266,4.73303,0,0,0,0,0,0,0,-1,1791,1618,5.97271,-4.73309
574,-594,5.9906,4.96326,0,0,0,0,0,0,0,-1,1798,1618,5.99065,-4.96326
581,-594,0,0,0,0,0,0,0,0,0,-1,1805,1618,0,0
588,-594,0,0,0,0,0,0,0,0,0,-1,1812,1618,0,0
595,-594,0,0,0,0,0,0,0,0,0,-1,1819,1618,0,0
602,-594,0,0,0,0,0,0,0,0,0,-1,1826,1618,0,0
609,-594,0,0,0,0,0,0,0,0,0,-1,1833,1618,0,0
616,-594,0,0,0,0,0,0,0,0,0,-1,1840,1618,0,0
623,-594,0,0,0,0,0,0,0,0,0,-1,1847,1618,0,0
630,-594,0,0,0,0,0,0,0,0,0,-1,1854,1618,0,0
637,-594,0,0,0,0,0,0,0,0,0,-1,1861,1618,0,0
644,-594,0,0,0,0,0,0,0,0,0,-1,1868,1618,0,0
651,-594,0,0,0,0,0,0,0,0,0,-1,1875,1618,0,0
658,-594,0,0,0,0,0,0,0,0,0,-1,1882,1618,0,0
665,-594,0,0,0,0,0,0,0,0,0,-1,1889,1618,0,0
672,-594,0,0,0,0,0,0,0,0,0,-1,1896,1618,0,0
679,-594,0,0,0,0,0,0,0,0,0,-1,1903,1618,0,0
686,-594,0,0,0,0,0,0,0,0,0,-1,1910,1618,0,0
693,-594,0,0,0,0,0,0,0,0,0,-1,1917,1618,0,0
700,-594,0,0,0,0,0,0,0,0,0,-1,1924,1618,0,0
707,-594,0,0,0,0,0,0,0,0,0,-1,1931,1618,0,0
714,-594,0,0,0,0,0,0,0,0,0,-1,1938,1618,0,0
721,-594,0,0,0,0,0,0,0,0,0,-1,1945,1618,0,0
728,-594,0,0,0,0,0,0,0,0,0,-1,1952,1618,0,0
735,-594,0,0,0,0,0,0,0,0,0,-1,1959,1618,0,0
742,-594,0,0,0,0,0,0,0,0,0,-1,1966,1618,0,0
749,-594,0,0,0,0,0,0,0,0,0,-1,1973,1618,0,0
756,-594,0,0,0,0,0,0,0,0,0,-1,1980,1618,0,0
763,-594,0,0,0,0,0,0,0,0,0,-1,1987,1618,0,0
770,-594,0,0,0,0,0,0,0,0,0,-1,1994,1618,0,0
777,-594,0,0,0,0,0,0,0,0,0,-1,2001,1618,0,0
784,-594,0,0,0,0,0,0,0,0,0,-1,2008,1618,0,0
791,-594,0,0,0,0,0,0,0,0,0,-1,2015,1618,0,0
798,-594,0,0,0,0,0,0,0,0,0,-1,2022,1618,0,0
805,-594,0,0,0,0,0,0,0,0,0,-1,2029,1618,0,0
812,-594,0,0,0,0,0,0,0,0,0,-1,2036,1618,0,0
-700,-601,0,0,0,0,0,0,0,0,0,-1,524,1625,0,0
-693,-601,0,0,0,0,0,0,0,0,0,-1,531,1625,0,0
-686,-601,0,0,0,0,0,0,0,0,0,-1,538,1625,0,0
-679,-601,0,0,0,0,0,0,0,0,0,-1,545,1625,0,0
-672,-601,0,0,0,0,0,0,0,0,0,-1,552,1625,0,0
-665,-601,0,0,0,0,0,0,0,0,0,-1,559,1625,0,0
-658,-601,0,0,0,0,0,0,0,0,0,-1,566,1625,0,0
-651,-601,0,0,0,0,0,0,0,0,0,-1,573,1625,0,0
-644,-601,0,0,0,0,0,0,0,0,0,-1,580,1625,0,0
-637,-601,0,0,0,0,0,0,0,0,0,-1,587,1625,0,0
-630,-601,0,0,0,0,0,0,0,0,0,-1,594,1625,0,0
-623,-601,0,0,0,0,0,0,0,0,0,-1,601,1625,0,0
-616,-601,0,0,0,0,0,0,0,0,0,-1,608,1625,0,0
-609,-601,0,0,0,0,0,0,0,0,0,-1,615,1625,0,0
-602,-601,0,0,0,0,0,0,0,0,0,-1,622,1625,0,0
-595,-601,0,0,0,0,0,0,0,0,0,-1,629,1625,0,0
-588,-601,0,0,0,0,0,0,0,0,0,-1,636,1625,0,0
-581,-601,0,0,0,0,0,0,0,0,0,-1,643,1625,0,0
-574,-601,0,0,0,0,0,0,0,0,0,-1,650,1625,0,0
-567,-601,0,0,0,0,0,0,0,0,0,-1,657,1625,0,0
-560,-601,0,0,0,0,0,0,0,0,0,-1,664,1625,0,0
-553,-601,0,0,0,0,0,0,0,0,0,-1,671,1625,0,0
-546,-601,0,0,0,0,0,0,0,0,0,-1,678,1625,0,0
-539,-601,0,0,0,0,0,0,0,0,0,-1,685,1625,0,0
-532,-601,0,0,0,0,0,0,0,0,0,-1,692,1625,0,0
-525,-601,0,0,0,0,0,0,0,0,0,-1,699,1625,0,0
-518,-601,0,0,0,0,0,0,0,0,0,-1,706,1625,0,0
-511,-601,0,0,0,0,0,0,0,0,0,-1,713,1625,0,0
-504,-601,0,0,0,0,0,0,0,0,0,-1,720,1625,0,0
-497,-601,0,0,0,0,0,0,0,0,0,-1,727,1625,0,0
-490,-601,0,0,0,0,0,0,0,0,0,-1,734,1625,0,0
-483,-601,0,0,0,0,0,0,0,0,0,-1,741,1625,0,0
-476,-601,0,0,0,0,0,0,0,0,0,-1,748,1625,0,0
-469,-601,0,0,0,0,0,0,0,0,0,-1,755,1625,0,0
-462,-601,0,0,0,0,0,0,0,0,0,-1,762,1625,0,0
-455,-601,0,0,0,0,0,0,0,0,0,-1,769,1625,0,0
-448,-601,-7.07623,2.7616,0,0,0,0,0,0,0,-1,776,1625,-7.07626,-2.76161
-441,-601,-6.06689,3.33447,0,0,0,0,0,0,0,-1,783,1625,-6.06691,-3.33448
-434,-601,-5.02655,3.8468,0,0,0,0,0,0,0,-1,790,1625,-5.02657,-3.84674
-427,-601,-5.78601,4.2406,0,0,0,0,0,0,0,-1,797,1625,-5.786,-4.24058
-420,-601,-5.5191,5.60364,0,0,0,0,0,0,0,-1,804,1625,-5.51907,-5.60368
-413,-601,-4.30756,5.86047,0,0,0,0,0,0,0,-1,811,1625,-4.30757,-5.86046
-406,-601,-1.67493,7.20422,0,0,0,0,0,0,0,-1,818,1625,-1.67493,-7.20428
-399,-601,1.40094,15.3108,0,0,0,0,0,0,0,-1,825,1625,1.40096,-15.3107
-392,-601,0.678833,30.98,0,0,0,0,0,0,0,-1,832,1625,0.678827,-30.98
-385,-601,-0.0147095,37.3687,0,0,0,0,0,0,0,-1,839,1625,-0.0147267,-37.3687
-378,-601,-0.594299,38.8632,0,0,0,0,0,0,0,-1,846,1625,-0.594291,-38.8632
-371,-601,-0.492126,39.5295,0.0015294,-0.000216608,0.00473444,0.00547065,-0.00415786,0.694225,0.00557622,0.0249587,853,1625,-0.492131,-39.5296
-364,-601,-0.509583,40.3442,0.00111859,-0.000477556,0.0037389,0.00414365,-0.00350261,0.68025,0.00441974,0.013274,860,1625,-0.50961,-40.3442
-357,-601,-0.562195,41.139,0.00102467,-0.000463487,0.00305725,0.00342708,-0.0028659,0.666028,0.00363807,0.0107085,867,1625,-0.562176,-41.139
-350,-601,-0.598999,41.9783,0.00112344,-0.000267153,0.00253291,0.00305475,-0.00219846,0.651445,0.00304634,0.0214665,874,1625,-0.598995,-41.9782
-343,-601,-0.696411,42.7744,0.00138545,0.000179158,0.00217259,0.00303707,-0.00147246,0.65,0.00265529,0.0253669,881,1625,-0.696422,-42.7744
-336,-601,-0.782898,43.5009,0.00173286,0.000762576,0.00198451,0.00329067,-0.000795235,0.665517,0.00250136,0.0229579,888,1625,-0.782898,-43.5008
-329,-601,-0.780396,44.2382,0.0021316,0.001611,0.00195728,0.00384581,-0.000103215,0.719291,0.00259896,0.018914,895,1625,-0.780374,-44.2382
-322,-601,-0.762207,44.9503,0.00254721,0.00296624,0.00211586,0.00488293,0.000630519,0.834748,0.00306679,0.0139555,902,1625,-0.762235,-44.9503
-315,-601,-0.773254,45.6194,0.00307476,0.00429854,0.00239441,0.00615801,0.00121529,0.910496,0.00376618,0.0146076,909,1625,-0.773252,-45.6194
-308,-601,-0.829346,46.3557,0.00372504,0.00566863,0.00283691,0.00769558,0.0016981,0.950411,0.00466846,0.0137791,916,1625,-0.829352,-46.3557
-301,-601,-0.841492,47.1012,0.00445483,0.00755081,0.00352414,0.00985196,0.00215368,0.992339,0.00598076,0.0113069,923,1625,-0.841491,-47.1012
-294,-601,-0.862976,47.8188,0.00526655,0.00972375,0.00435041,0.0123832,0.00260714,1.02211,0.00753821,0.0105857,930,1625,-0.862955,-47.8188
-287,-601,-0.931763,48.5619,0.00613894,0.0120326,0.00523504,0.0150933,0.00307833,1.04175,0.00920919,0.0110134,937,1625,-0.931747,-48.5619
-280,-601,-0.9328,49.2754,0.00716602,0.0144645,0.00625489,0.0180569,0.00357368,1.04947,0.0110412,0.0127189,944,1625,-0.932818,-49.2754
-273,-601,-0.93042,49.9818,0.00832816,0.0168807,0.00736796,0.0211234,0.00408542,1.04833,0.0129373,0.0134664,951,1625,-0.930395,-49.9818
-266,-601,-0.908264,50.6941,0.00953913,0.0192991,0.00849399,0.0242151,0.00462308,1.04613,0.0148443,0.0155713,958,1625,-0.908263,-50.6941
-259,-601,-0.863831,51.3153,0.010855,0.0215325,0.0095293,0.0271166,0.00527084,1.04074,0.0166021,0.0265412,965,1625,-0.863825,-51.3153
-252,-601,-0.872742,52.3967,0.0124763,0.023609,0.0105708,0.0299894,0.0060959,1.02774,0.0183026,0.0489056,972,1625,-0.872746,-52.3968
-245,-601,-0.804932,53.3967,0,0,0,0,0,0,0,-1,979,1625,-0.804934,-53.3967
-238,-601,-0.0498657,52.927,0,0,0,0,0,0,0,-1,986,1625,-0.0498886,-52.9271
-231,-601,2.66772,13.7051,0,0,0,0,0,0,0,-1,993,1625,2.6677,-13.7051
-224,-601,-0.0305176,9.13684,0,0,0,0,0,0,0,-1,1000,1625,-0.030498,-9.13681
-217,-601,3.39429,10.3898,0,0,0,0,0,0,0,-1,1007,1625,3.39431,-10.3898
-210,-601,-6.53699,15.7931,0,0,0,0,0,0,0,-1,1014,1625,-6.53697,-15.7931
-203,-601,2.69348,15.9099,0,0,0,0,0,0,0,-1,1021,1625,2.69351,-15.91
-196,-601,2.66992,16.1815,0,0,0,0,0,0,0,-1,1028,1625,2.66995,-16.1815
-189,-601,2.849,16.6105,0,0,0,0,0,0,0,-1,1035,1625,2.84902,-16.6104
-182,-601,1.82153,13.9752,0,0,0,0,0,0,0,-1,1042,1625,1.82155,-13.9752
-175,-601,0.544922,9.28687,0,0,0,0,0,0,0,-1,1049,1625,0.544879,-9.28685
-168,-601,-0.247559,8.97461,0,0,0,0,0,0,0,-1,1056,1625,-0.247598,-8.97466
-161,-601,-1.16833,8.80078,0,0,0,0,0,0,0,-1,1063,1625,-1.16837,-8.80081
-154,-601,1.12756,7.94861,0,0,0,0,0,0,0,-1,1070,1625,1.12762,-7.94855
-147,-601,1.35352,9.55432,0,0,0,0,0,0,0,-1,1077,1625,1.35351,-9.55429
-140,-601,1.72437,11.1498,0,0,0,0,0,0,0,-1,1084,1625,1.72432,-11.1498
-133,-601,2.13281,12.8347,0,0,0,0,0,0,0,-1,1091,1625,2.13287,-12.8348
-126,-601,3.09534,15.427,0,0,0,0,0,0,0,-1,1098,1625,3.0953,-15.4271
-119,-601,1.22485,9.43457,0,0,0,0,0,0,0,-1,1105,1625,1.22489,-9.43456
-112,-601,0,0,0,0,0,0,0,0,0,-1,1112,1625,0,0
-105,-601,0,0,0,0,0,0,0,0,0,-1,1119,1625,0,0
-98,-601,0,0,0,0,0,0,0,0,0,-1,1126,1625,0,0
-91,-601,0,0,0,0,0,0,0,0,0,-1,1133,1625,0,0
-84,-601,0,0,0,0,0,0,0,0,0,-1,1140,1625,0,0
-77,-601,0,0,0,0,0,0,0,0,0,-1,1147,1625,0,0
-70,-601,0,0,0,0,0,0,0,0,0,-1,1154,1625,0,0
-63,-601,0,0,0,0,0,0,0,0,0,-1,1161,1625,0,0
-56,-601,0,0,0,0,0,0,0,0,0,-1,1168,1625,0,0
-49,-601,0,0,0,0,0,0,0,0,0,-1,1175,1625,0,0
-42,-601,0,0,0,0,0,0,0,0,0,-1,1182,1625,0,0
-35,-601,0,0,0,0,0,0,0,0,0,-1,1189,1625,0,0
-28,-601,0,0,0,0,0,0,0,0,0,-1,1196,1625,0,0
-21,-601,0,0,0,0,0,0,0,0,0,-1,1203,1625,0,0
-14,-601,0,0,0,0,0,0,0,0,0,-1,1210,1625,0,0
-7,-601,0,0,0,0,0,0,0,0,0,-1,1217,1625,0,0
0,-601,0,0,0,0,0,0,0,0,0,-1,1224,1625,0,0
7,-601,0,0,0,0,0,0,0,0,0,-1,1231,1625,0,0
14,-601,0,0,0,0,0,0,0,0,0,-1,1238,1625,0,0
21,-601,0,0,0,0,0,0,0,0,0,-1,1245,1625,0,0
28,-601,0,0,0,0,0,0,0,0,0,-1,1252,1625,0,0
35,-601,0,0,0,0,0,0,0,0,0,-1,1259,1625,0,0
42,-601,0,0,0,0,0,0,0,0,0,-1,1266,1625,0,0
49,-601,0,0,0,0,0,0,0,0,0,-1,1273,1625,0,0
56,-601,0,0,0,0,0,0,0,0,0,-1,1280,1625,0,0
63,-601,0,0,0,0,0,0,0,0,0,-1,1287,1625,0,0
70,-601,0,0,0,0,0,0,0,0,0,-1,1294,1625,0,0
77,-601,0,0,0,0,0,0,0,0,0,-1,1301,1625,0,0
84,-601,0,0,0,0,0,0,0,0,0,-1,1308,1625,0,0
91,-601,0,0,0,0,0,0,0,0,0,-1,1315,1625,0,0
98,-601,0,0,0,0,0,0,0,0,0,-1,1322,1625,0,0
105,-601,0,0,0,0,0,0,0,0,0,-1,1329,1625,0,0
112,-601,0,0,0,0,0,0,0,0,0,-1,1336,1625,0,0
119,-601,0,0,0,0,0,0,0,0,0,-1,1343,1625,0,0
126,-601,0,0,0,0,0,0,0,0,0,-1,1350,1625,0,0
133,-601,0,0,0,0,0,0,0,0,0,-1,1357,1625,0,0
140,-601,0,0,0,0,0,0,0,0,0,-1,1364,1625,0,0
147,-601,0,0,0,0,0,0,0,0,0,-1,1371,1625,0,0
154,-601,0,0,0,0,0,0,0,0,0,-1,1378,1625,0,0
161,-601,0,0,0,0,0,0,0,0,0,-1,1385,1625,0,0
168,-601,0,0,0,0,0,0,0,0,0,-1,1392,1625,0,0
175,-601,0,0,0,0,0,0,0,0,0,-1,1399,1625,0,0
182,-601,0,0,0,0,0,0,0,0,0,-1,1406,1625,0,0
189,-601,0,0,0,0,0,0,0,0,0,-1,1413,1625,0,0
196,-601,0,0,0,0,0,0,0,0,0,-1,1420,1625,0,0
203,-601,0,0,0,0,0,0,0,0,0,-1,1427,1625,0,0
210,-601,0,0,0,0,0,0,0,0,0,-1,1434,1625,0,0
217,-601,0,0,0,0,0,0,0,0,0,-1,1441,1625,0,0
224,-601,0,0,0,0,0,0,0,0,0,-1,1448,1625,0,0
231,-601,-0.0371094,0.525879,0,0,0,0,0,0,0,-1,1455,1625,-0.0371518,-0.525824
238,-601,2.03369,-1.32861,0,0,0,0,0,0,0,-1,1462,1625,2.03364,1.32858
245,-601,2.71375,2.44983,0,0,0,0,0,0,0,-1,1469,1625,2.71371,-2.44979
252,-601,4.66943,2.28381,0,0,0,0,0,0,0,-1,1476,1625,4.66947,-2.28376
259,-601,6.42712,2.61987,0,0,0,0,0,0,0,-1,1483,1625,6.42711,-2.61985
266,-601,6.75317,1.68701,0,0,0,0,0,0,0,-1,1490,1625,6.75323,-1.687
273,-601,5.4314,2.92053,0,0,0,0,0,0,0,-1,1497,1625,5.43144,-2.92051
280,-601,4.64722,1.17786,0,0,0,0,0,0,0,-1,1504,1625,4.64722,-1.1779
287,-601,5.32532,2.6217,0,0,0,0,0,0,0,-1,1511,1625,5.32535,-2.62171
294,-601,5.97693,4.22693,0,0,0,0,0,0,0,-1,1518,1625,5.97697,-4.22694
301,-601,7.28162,9.50024,0,0,0,0,0,0,0,-1,1525,1625,7.28162,-9.50025
308,-601,6.53528,10.3927,0,0,0,0,0,0,0,-1,1532,1625,6.53529,-10.3927
315,-601,4.88013,11.7184,0,0,0,0,0,0,0,-1,1539,1625,4.88015,-11.7184
322,-601,3.38098,12.7864,0,0,0,0,0,0,0,-1,1546,1625,3.38104,-12.7864
329,-601,1.8772,13.8768,0,0,0,0,0,0,0,-1,1553,1625,1.87716,-13.8768
336,-601,4.67847,9.53308,0,0,0,0,0,0,0,-1,1560,1625,4.67848,-9.53309
343,-601,11.1404,3.14575,0,0,0,0,0,0,0,-1,1567,1625,11.1404,-3.1458
350,-601,16.8986,54.5154,0,0,0,0,0,0,0,-1,1574,1625,16.8985,-54.5154
357,-601,17.2762,53.5797,0,0,0,0,0,0,0,-1,1581,1625,17.2763,-53.5797
364,-601,18.3015,53.5468,0,0,0,0,0,0,0,-1,1588,1625,18.3015,-53.5467
371,-601,18.3938,52.8885,0,0,0,0,0,0,0,-1,1595,1625,18.3938,-52.8885
378,-601,18.4597,52.1912,0.0224214,0.0162836,-0.00259672,0.0233726,0.0153324,-0.351127,0.0137113,0.0437262,1602,1625,18.4598,-52.1912
385,-601,18.3754,51.3943,0.0181416,0.0133785,-0.00175666,0.0187194,0.0128007,-0.317762,0.0110484,0.0413866,1609,1625,18.3754,-51.3943
392,-601,18.3942,50.6478,0.0143066,0.0109379,-0.00107076,0.0146181,0.0106264,-0.283135,0.00872472,0.0373656,1616,1625,18.3942,-50.6478
399,-601,18.5275,49.8531,0.011199,0.00887792,-0.000616055,0.0113524,0.00872454,-0.244006,0.00686212,0.0200929,1623,1625,18.5274,-49.8531
406,-601,18.5753,49.1173,0.00873937,0.00733923,-0.000348329,0.00882124,0.00725736,-0.230847,0.00543506,0.0133006,1630,1625,18.5753,-49.1173
413,-601,18.5127,48.4126,0.0067791,0.00605764,-0.000245368,0.00685464,0.0059821,-0.298656,0.00430846,0.0125511,1637,1625,18.5127,-48.4126
420,-601,18.4863,47.688,0.00538814,0.00512915,-0.000377002,0.00565727,0.00486002,-0.619967,0.00353585,0.0118221,1644,1625,18.4864,-47.688
427,-601,18.4924,47.0083,0.00378177,0.00428683,-0.000776345,0.00485068,0.00321791,-0.942642,0.00284995,0.0159128,1651,1625,18.4924,-47.0083
434,-601,18.465,46.2841,0.003295,0.00345085,-0.00084979,0.00422628,0.00251957,-0.831118,0.00245504,0.0159191,1658,1625,18.465,-46.2841
441,-601,18.4399,45.5721,0.00304171,0.00275558,-0.0010418,0.00395022,0.00184707,-0.717162,0.00228226,0.0174504,1665,1625,18.44,-45.5722
448,-601,18.4242,44.8741,0.00279561,0.00230003,-0.00138433,0.00395416,0.00114149,-0.696838,0.00234992,0.0156217,1672,1625,18.4242,-44.8741
455,-601,18.3848,44.1212,0.00269354,0.00175987,-0.00177535,0.00406241,0.000391005,-0.656831,0.0025878,0.0142433,1679,1625,18.3848,-44.1212
462,-601,18.3433,43.3815,0.0026714,0.00110471,-0.00205987,0.00409184,-0.000315732,-0.603698,0.002839,0.0126428,1686,1625,18.3432,-43.3815
469,-601,18.322,42.6798,0.00261507,0.000562755,-0.0023206,0.00412627,-0.000948442,-0.577226,0.00311549,0.012105,1693,1625,18.322,-42.6798
476,-601,18.285,41.9526,0.00236637,0.000243039,-0.00241007,0.00393825,-0.00132884,-0.57793,0.00316291,0.0138535,1700,1625,18.285,-41.9526
483,-601,18.2164,41.2126,0.00213261,-0.000287283,-0.00248817,0.00368942,-0.00184409,-0.559092,0.00325345,0.016543,1707,1625,18.2164,-41.2126
490,-601,18.177,40.4653,0.00175393,-0.000592632,-0.00248958,0.00333284,-0.00217155,-0.565195,0.00320145,0.0129151,1714,1625,18.177,-40.4654
497,-601,18.1499,39.7202,0.00129531,-0.000734333,-0.00244678,0.00292937,-0.0023684,-0.588817,0.00306438,0.0126659,1721,1625,18.15,-39.7202
504,-601,18.201,38.9399,0.000722152,-0.00110475,-0.00231436,0.00229681,-0.0026794,-0.597439,0.00287584,0.0262807,1728,1625,18.2011,-38.9399
511,-601,18.0725,38.3015,1.51243e-05,-0.000864784,-0.00225458,0.00187228,-0.00272194,-0.68904,0.00266755,0.0427333,1735,1625,18.0725,-38.3015
518,-601,17.8406,37.6444,0,0,0,0,0,0,0,-1,1742,1625,17.8406,-37.6443
525,-601,17.481,36.2998,0,0,0,0,0,0,0,-1,1749,1625,17.481,-36.2998
532,-601,15.9053,24.3068,0,0,0,0,0,0,0,-1,1756,1625,15.9053,-24.3067
539,-601,7.77112,11.4299,0,0,0,0,0,0,0,-1,1763,1625,7.77116,-11.4299
546,-601,6.56873,3.62354,0,0,0,0,0,0,0,-1,1770,1625,6.56867,-3.62352
553,-601,7.03015,4.25049,0,0,0,0,0,0,0,-1,1777,1625,7.03011,-4.25048
560,-601,7.50745,4.83374,0,0,0,0,0,0,0,-1,1784,1625,7.50744,-4.83376
567,-601,7.82043,3.83301,0,0,0,0,0,0,0,-1,1791,1625,7.82041,-3.83303
574,-601,0,0,0,0,0,0,0,0,0,-1,1798,1625,0,0
581,-601,0,0,0,0,0,0,0,0,0,-1,1805,1625,0,0
588,-601,0,0,0,0,0,0,0,0,0,-1,1812,1625,0,0
595,-601,0,0,0,0,0,0,0,0,0,-1,1819,1625,0,0
602,-601,0,0,0,0,0,0,0,0,0,-1,1826,1625,0,0
609,-601,0,0,0,0,0,0,0,0,0,-1,1833,1625,0,0
616,-601,0,0,0,0,0,0,0,0,0,-1,1840,1625,0,0
623,-601,0,0,0,0,0,0,0,0,0,-1,1847,1625,0,0
630,-601,0,0,0,0,0,0,0,0,0,-1,1854,1625,0,0
637,-601,0,0,0,0,0,0,0,0,0,-1,1861,1625,0,0
644,-601,0,0,0,0,0,0,0,0,0,-1,1868,1625,0,0
651,-601,0,0,0,0,0,0,0,0,0,-1,1875,1625,0,0
658,-601,0,0,0,0,0,0,0,0,0,-1,1882,1625,0,0
665,-601,0,0,0,0,0,0,0,0,0,-1,1889,1625,0,0
672,-601,0,0,0,0,0,0,0,0,0,-1,1896,1625,0,0
679,-601,0,0,0,0,0,0,0,0,0,-1,1903,1625,0,0
686,-601,0,0,0,0,0,0,0,0,0,-1,1910,1625,0,0
693,-601,0,0,0,0,0,0,0,0,0,-1,1917,1625,0,0
700,-601,0,0,0,0,0,0,0,0,0,-1,1924,1625,0,0
707,-601,0,0,0,0,0,0,0,0,0,-1,1931,1625,0,0
714,-601,0,0,0,0,0,0,0,0,0,-1,1938,1625,0,0
721,-601,0,0,0,0,0,0,0,0,0,-1,1945,1625,0,0
728,-601,0,0,0,0,0,0,0,0,0,-1,1952,1625,0,0
735,-601,0,0,0,0,0,0,0,0,0,-1,1959,1625,0,0
742,-601,0,0,0,0,0,0,0,0,0,-1,1966,1625,0,0
749,-601,0,0,0,0,0,0,0,0,0,-1,1973,1625,0,0
756,-601,0,0,0,0,0,0,0,0,0,-1,1980,1625,0,0
763,-601,0,0,0,0,0,0,0,0,0,-1,1987,1625,0,0
770,-601,0,0,0,0,0,0,0,0,0,-1,1994,1625,0,0
777,-601,0,0,0,0,0,0,0,0,0,-1,2001,1625,0,0
784,-601,0,0,0,0,0,0,0,0,0,-1,2008,1625,0,0
791,-601,0,0,0,0,0,0,0,0,0,-1,2015,1625,0,0
798,-601,0,0,0,0,0,0,0,0,0,-1,2022,1625,0,0
805,-601,0,0,0,0,0,0,0,0,0,-1,2029,1625,0,0
812,-601,0,0,0,0,0,0,0,0,0,-1,2036,1625,0,0
-700,-608,0,0,0,0,0,0,0,0,0,-1,524,1632,0,0
-693,-608,0,0,0,0,0,0,0,0,0,-1,531,1632,0,0
-686,-608,0,0,0,0,0,0,0,0,0,-1,538,1632,0,0
-679,-608,0,0,0,0,0,0,0,0,0,-1,545,1632,0,0
-672,-608,0,0,0,0,0,0,0,0,0,-1,552,1632,0,0
-665,-608,0,0,0,0,0,0,0,0,0,-1,559,1632,0,0
-658,-608,0,0,0,0,0,0,0,0,0,-1,566,1632,0,0
-651,-608,0,0,0,0,0,0,0,0,0,-1,573,1632,0,0
-644,-608,0,0,0,0,0,0,0,0,0,-1,580,1632,0,0
-637,-608,0,0,0,0,0,0,0,0,0,-1,587,1632,0,0
-630,-608,0,0,0,0,0,0,0,0,0,-1,594,1632,0,0
-623,-608,0,0,0,0,0,0,0,0,0,-1,601,1632,0,0
-616,-608,0,0,0,0,0,0,0,0,0,-1,608,1632,0,0
-609,-608,0,0,0,0,0,0,0,0,0,-1,615,1632,0,0
-602,-608,0,0,0,0,0,0,0,0,0,-1,622,1632,0,0
-595,-608,0,0,0,0,0,0,0,0,0,-1,629,1632,0,0
-588,-608,0,0,0,0,0,0,0,0,0,-1,636,1632,0,0
-581,-608,0,0,0,0,0,0,0,0,0,-1,643,1632,0,0
-574,-608,0,0,0,0,0,0,0,0,0,-1,650,1632,0,0
-567,-608,0,0,0,0,0,0,0,0,0,-1,657,1632,0,0
-560,-608,0,0,0,0,0,0,0,0,0,-1,664,1632,0,0
-553,-608,0,0,0,0,0,0,0,0,0,-1,671,1632,0,0
-546,-608,0,0,0,0,0,0,0,0,0,-1,678,1632,0,0
-539,-608,0,0,0,0,0,0,0,0,0,-1,685,1632,0,0
-532,-608,0,0,0,0,0,0,0,0,0,-1,692,1632,0,0
-525,-608,0,0,0,0,0,0,0,0,0,-1,699,1632,0,0
-518,-608,0,0,0,0,0,0,0,0,0,-1,706,1632,0,0
-511,-608,0,0,0,0,0,0,0,0,0,-1,713,1632,0,0
-504,-608,0,0,0,0,0,0,0,0,0,-1,720,1632,0,0
-497,-608,0,0,0,0,0,0,0,0,0,-1,727,1632,0,0
-490,-608,0,0,0,0,0,0,0,0,0,-1,734,1632,0,0
-483,-608,0,0,0,0,0,0,0,0,0,-1,741,1632,0,0
-476,-608,0,0,0,0,0,0,0,0,0,-1,748,1632,0,0
-469,-608,0,0,0,0,0,0,0,0,0,-1,755,1632,0,0
-462,-608,0,0,0,0,0,0,0,0,0,-1,762,1632,0,0
-455,-608,0,0,0,0,0,0,0,0,0,-1,769,1632,0,0
-448,-608,0,0,0,0,0,0,0,0,0,-1,776,1632,0,0
-441,-608,-7.34601,2.78052,0,0,0,0,0,0,0,-1,783,1632,-7.346,-2.78056
-434,-608,-6.34558,3.27405,0,0,0,0,0,0,0,-1,790,1632,-6.34555,-3.27406
-427,-608,-7.74335,4.17688,0,0,0,0,0,0,0,-1,797,1632,-7.74334,-4.17693
-420,-608,-6.82794,4.34839,0,0,0,0,0,0,0,-1,804,1632,-6.82794,-4.34838
-413,-608,-5.41919,5.66138,0,0,0,0,0,0,0,-1,811,1632,-5.41917,-5.66133
-406,-608,-4.79681,4.98999,0,0,0,0,0,0,0,-1,818,1632,-4.79684,-4.98997
-399,-608,-2.60645,6.34167,0,0,0,0,0,0,0,-1,825,1632,-2.60643,-6.34169
-392,-608,2.08356,15.437,0,0,0,0,0,0,0,-1,832,1632,2.08354,-15.437
-385,-608,1.51526,31.5153,0,0,0,0,0,0,0,-1,839,1632,1.51527,-31.5153
-378,-608,0.340515,38.2742,0,0,0,0,0,0,0,-1,846,1632,0.340526,-38.2742
-371,-608,0.286804,39.3115,0,0,0,0,0,0,0,-1,853,1632,0.286782,-39.3116
-364,-608,0.312012,40.2703,0.0021341,-0.000292088,0.00500747,0.00607332,-0.00423131,0.666559,0.00598098,0.027549,860,1632,0.312024,-40.2703
-357,-608,0.202332,41.0995,0.00192723,-0.000360859,0.00419392,0.00513035,-0.00356397,0.652244,0.00504675,0.0194319,867,1632,0.202326,-41.0994
-350,-608,0.155029,41.9529,0.00186469,-0.000206546,0.00355628,0.00453308,-0.00287493,0.643712,0.00431258,0.0201133,874,1632,0.155042,-41.9529
-343,-608,0.0839844,42.7352,0.00199533,0.000166668,0.00306403,0.00427855,-0.00211655,0.6404,0.00376188,0.0260024,881,1632,0.0839559,-42.7353
-336,-608,0.00860596,43.526,0.0021761,0.000627349,0.00270556,0.00421593,-0.00141248,0.646016,0.00338126,0.0190844,888,1632,0.00858324,-43.526
-329,-608,-0.0689697,44.3076,0.00235685,0.00121864,0.0024613,0.00431398,-0.000738502,0.671785,0.00315114,0.0183294,895,1632,-0.0689812,-44.3076
-322,-608,-0.0897217,45.0032,0.00254191,0.00218684,0.00238723,0.00475819,-2.94487e-05,0.748282,0.00318199,0.0180656,902,1632,-0.0897518,-45.0031
-315,-608,-0.064209,45.6714,0.00280772,0.00319944,0.00243402,0.00544546,0.000561695,0.825546,0.00345832,0.0169822,909,1632,-0.0642001,-45.6714
-308,-608,-0.114563,46.4298,0.00317751,0.00425748,0.00259442,0.00636752,0.00106748,0.888,0.00393772,0.0175014,916,1632,-0.114557,-46.4298
-301,-608,-0.130432,47.1508,0.00364808,0.00569935,0.00297394,0.00781954,0.00152788,0.951449,0.00478574,0.0118711,923,1632,-0.130403,-47.1507
-294,-608,-0.134277,47.844,0.00421919,0.00733969,0.00347225,0.00958613,0.00197275,0.996555,0.00584521,0.0111213,930,1632,-0.134299,-47.844
-287,-608,-0.18927,48.5558,0.00483867,0.00903337,0.00400801,0.0114596,0.00241241,1.02645,0.00697607,0.0108389,937,1632,-0.189244,-48.5558
-280,-608,-0.198608,49.2544,0.00561613,0.0108169,0.00463475,0.0135309,0.00290211,1.04105,0.00822572,0.0102426,944,1632,-0.198592,-49.2544
-273,-608,-0.234497,49.9677,0.00653218,0.0125207,0.00535389,0.0156607,0.00339213,1.04036,0.00951355,0.0116467,951,1632,-0.234516,-49.9677
-266,-608,-0.23584,50.6989,0.00757018,0.0142783,0.00612807,0.0179101,0.00393832,1.03579,0.0108678,0.0118172,958,1632,-0.235834,-50.6989
-259,-608,-0.189697,51.3904,0.0087429,0.0159521,0.00685764,0.0200948,0.00460021,1.02737,0.0121568,0.0154571,965,1632,-0.18968,-51.3904
-252,-608,-0.132629,52.1036,0.0100939,0.0175143,0.00755417,0.0222202,0.00538797,1.01367,0.013384,0.0310816,972,1632,-0.132615,-52.1036
-245,-608,-0.110229,53.197,0.0114754,0.0187947,0.00825179,0.024162,0.00610815,0.994116,0.0145071,0.0460566,979,1632,-0.110254,-53.1971
-238,-608,0.0406494,54.02,0,0,0,0,0,0,0,-1,986,1632,0.0406735,-54.02
-231,-608,0.0617065,54.4552,0,0,0,0,0,0,0,-1,993,1632,0.0617198,-54.4552
-224,-608,0.582825,53.4453,0,0,0,0,0,0,0,-1,1000,1632,0.582838,-53.4453
-217,-608,1.04419,12.8451,0,0,0,0,0,0,0,-1,1007,1632,1.04418,-12.8451
-210,-608,2.75903,15.9414,0,0,0,0,0,0,0,-1,1014,1632,2.75903,-15.9414
-203,-608,2.76776,16.217,0,0,0,0,0,0,0,-1,1021,1632,2.76773,-16.217
-196,-608,1.53955,18.6058,0,0,0,0,0,0,0,-1,1028,1632,1.53959,-18.6058
-189,-608,1.37634,19.119,0,0,0,0,0,0,0,-1,1035,1632,1.37634,-19.1191
-182,-608,2.89221,16.7092,0,0,0,0,0,0,0,-1,1042,1632,2.89224,-16.7093
-175,-608,0.219116,15.1643,0,0,0,0,0,0,0,-1,1049,1632,0.219173,-15.1644
-168,-608,0.000366211,9.48645,0,0,0,0,0,0,0,-1,1056,1632,0.000317105,-9.48648
-161,-608,2.27832,15.4423,0,0,0,0,0,0,0,-1,1063,1632,2.27826,-15.4423
-154,-608,1.3999,16.4037,0,0,0,0,0,0,0,-1,1070,1632,1.39987,-16.4037
-147,-608,2.4386,9.50317,0,0,0,0,0,0,0,-1,1077,1632,2.43858,-9.50313
-140,-608,2.60132,10.8401,0,0,0,0,0,0,0,-1,1084,1632,2.60134,-10.8401
-133,-608,3.2312,12.4738,0,0,0,0,0,0,0,-1,1091,1632,3.23116,-12.4738
-126,-608,3.76465,13.9644,0,0,0,0,0,0,0,-1,1098,1632,3.76466,-13.9644
-119,-608,4.28906,15.4196,0,0,0,0,0,0,0,-1,1105,1632,4.28911,-15.4195
-112,-608,0.745117,10.5587,0,0,0,0,0,0,0,-1,1112,1632,0.745145,-10.5587
-105,-608,-0.252319,1.42419,0,0,0,0,0,0,0,-1,1119,1632,-0.252331,-1.42418
-98,-608,-2.8595,3.0863,0,0,0,0,0,0,0,-1,1126,1632,-2.85948,-3.08625
-91,-608,-3.71948,1.73608,0,0,0,0,0,0,0,-1,1133,1632,-3.7195,-1.73607
-84,-608,0,0,0,0,0,0,0,0,0,-1,1140,1632,0,0
-77,-608,0,0,0,0,0,0,0,0,0,-1,1147,1632,0,0
-70,-608,0,0,0,0,0,0,0,0,0,-1,1154,1632,0,0
-63,-608,0,0,0,0,0,0,0,0,0,-1,1161,1632,0,0
-56,-608,0,0,0,0,0,0,0,0,0,-1,1168,1632,0,0
-49,-608,0,0,0,0,0,0,0,0,0,-1,1175,1632,0,0
-42,-608,0,0,0,0,0,0,0,0,0,-1,1182,1632,0,0
-35,-608,0,0,0,0,0,0,0,0,0,-1,1189,1632,0,0
-28,-608,0,0,0,0,0,0,0,0,0,-1,1196,1632,0,0
-21,-608,0,0,0,0,0,0,0,0,0,-1,1203,1632,0,0
-14,-608,0,0,0,0,0,0,0,0,0,-1,1210,1632,0,0
-7,-608,0,0,0,0,0,0,0,0,0,-1,1217,1632,0,0
0,-608,0,0,0,0,0,0,0,0,0,-1,1224,1632,0,0
7,-608,0,0,0,0,0,0,0,0,0,-1,1231,1632,0,0
14,-608,0,0,0,0,0,0,0,0,0,-1,1238,1632,0,0
21,-608,0,0,0,0,0,0,0,0,0,-1,1245,1632,0,0
28,-608,0,0,0,0,0,0,0,0,0,-1,1252,1632,0,0
35,-608,0,0,0,0,0,0,0,0,0,-1,1259,1632,0,0
42,-608,0,0,0,0,0,0,0,0,0,-1,1266,1632,0,0
49,-608,0,0,0,0,0,0,0,0,0,-1,1273,1632,0,0
56,-608,0,0,0,0,0,0,0,0,0,-1,1280,1632,0,0
63,-608,0,0,0,0,0,0,0,0,0,-1,1287,1632,0,0
70,-608,0,0,0,0,0,0,0,0,0,-1,1294,1632,0,0
77,-608,0,0,0,0,0,0,0,0,0,-1,1301,1632,0,0
84,-608,0,0,0,0,0,0,0,0,0,-1,1308,1632,0,0
91,-608,0,0,0,0,0,0,0,0,0,-1,1315,1632,0,0
98,-608,0,0,0,0,0,0,0,0,0,-1,1322,1632,0,0
105,-608,0,0,0,0,0,0,0,0,0,-1,1329,1632,0,0
112,-608,0,0,0,0,0,0,0,0,0,-1,1336,1632,0,0
119,-608,0,0,0,0,0,0,0,0,0,-1,1343,1632,0,0
126,-608,0,0,0,0,0,0,0,0,0,-1,1350,1632,0,0
133,-608,0,0,0,0,0,0,0,0,0,-1,1357,1632,0,0
140,-608,0,0,0,0,0,0,0,0,0,-1,1364,1632,0,0
147,-608,0,0,0,0,0,0,0,0,0,-1,1371,1632,0,0
154,-608,0,0,0,0,0,0,0,0,0,-1,1378,1632,0,0
161,-608,0,0,0,0,0,0,0,0,0,-1,1385,1632,0,0
168,-608,0,0,0,0,0,0,0,0,0,-1,1392,1632,0,0
175,-608,0,0,0,0,0,0,0,0,0,-1,1399,1632,0,0
182,-608,0,0,0,0,0,0,0,0,0,-1,1406,1632,0,0
189,-608,0,0,0,0,0,0,0,0,0,-1,1413,1632,0,0
196,-608,0,0,0,0,0,0,0,0,0,-1,1420,1632,0,0
203,-608,0,0,0,0,0,0,0,0,0,-1,1427,1632,0,0
210,-608,5.7157,-0.333008,0,0,0,0,0,0,0,-1,1434,1632,5.71566,0.333004
217,-608,4.49402,-0.831787,0,0,0,0,0,0,0,-1,1441,1632,4.49396,0.831738
224,-608,4.18018,-1.11792,0,0,0,0,0,0,0,-1,1448,1632,4.1802,1.11796
231,-608,0.361816,0.825195,0,0,0,0,0,0,0,-1,1455,1632,0.36185,-0.825226
238,-608,2.85388,-0.28833,0,0,0,0,0,0,0,-1,1462,1632,2.85391,0.288282
245,-608,3.87537,4.02173,0,0,0,0,0,0,0,-1,1469,1632,3.87538,-4.02168
252,-608,5.66956,3.5282,0,0,0,0,0,0,0,-1,1476,1632,5.6696,-3.52815
259,-608,7.47437,3.07178,0,0,0,0,0,0,0,-1,1483,1632,7.4744,-3.07172
266,-608,9.46936,2.34766,0,0,0,0,0,0,0,-1,1490,1632,9.46932,-2.34764
273,-608,6.03003,3.34241,0,0,0,0,0,0,0,-1,1497,1632,6.02997,-3.34245
280,-608,5.72461,2.0769,0,0,0,0,0,0,0,-1,1504,1632,5.72457,-2.07688
287,-608,6.20581,3.59338,0,0,0,0,0,0,0,-1,1511,1632,6.20585,-3.59341
294,-608,6.94922,5.17151,0,0,0,0,0,0,0,-1,1518,1632,6.94925,-5.17151
301,-608,7.60083,6.68018,0,0,0,0,0,0,0,-1,1525,1632,7.60086,-6.68013
308,-608,7.64746,9.93848,0,0,0,0,0,0,0,-1,1532,1632,7.64745,-9.93842
315,-608,5.30688,11.2054,0,0,0,0,0,0,0,-1,1539,1632,5.30694,-11.2054
322,-608,5.32617,13.7581,0,0,0,0,0,0,0,-1,1546,1632,5.32613,-13.758
329,-608,7.12231,13.9607,0,0,0,0,0,0,0,-1,1553,1632,7.12231,-13.9607
336,-608,5.48633,7.82446,0,0,0,0,0,0,0,-1,1560,1632,5.48634,-7.82446
343,-608,5.47192,5.61047,0,0,0,0,0,0,0,-1,1567,1632,5.47192,-5.61045
350,-608,11.6957,1.71387,0,0,0,0,0,0,0,-1,1574,1632,11.6957,-1.71388
357,-608,3.77002,5.10046,0,0,0,0,0,0,0,-1,1581,1632,3.77002,-5.10043
364,-608,17.1698,54.0231,0,0,0,0,0,0,0,-1,1588,1632,17.1699,-54.0231
371,-608,17.4928,53.1875,0,0,0,0,0,0,0,-1,1595,1632,17.4928,-53.1874
378,-608,17.7362,52.0481,0.0166741,0.014337,-0.00369967,0.0193854,0.0116258,-0.632429,0.0112661,0.0373676,1602,1632,17.7362,-52.0481
385,-608,17.8331,51.2407,0.0136262,0.0117129,-0.00263914,0.0154767,0.0098624,-0.611524,0.009047,0.0305761,1609,1632,17.8331,-51.2407
392,-608,17.8303,50.5291,0.0107873,0.00947329,-0.00171545,0.0119672,0.00829332,-0.602521,0.00707879,0.0202172,1616,1632,17.8304,-50.529
399,-608,17.8452,49.7983,0.00852634,0.00764096,-0.00114641,0.00931257,0.00685473,-0.601141,0.00557279,0.0106675,1623,1632,17.8452,-49.7983
406,-608,17.869,49.0938,0.00671702,0.00610818,-0.000725432,0.00719931,0.00562588,-0.586738,0.00437052,0.00989624,1630,1632,17.869,-49.0938
413,-608,17.8429,48.4065,0.00532064,0.00489924,-0.000558881,0.00570722,0.00451266,-0.605136,0.00347574,0.0113317,1637,1632,17.8428,-48.4065
420,-608,17.7427,47.7396,0.00436173,0.00403552,-0.000650308,0.00486908,0.00352818,-0.662526,0.00290417,0.0201503,1644,1632,17.7426,-47.7396
427,-608,17.7614,47.0341,0.00329048,0.00322244,-0.000954085,0.00421115,0.00230177,-0.767577,0.00243483,0.0201721,1651,1632,17.7613,-47.034
434,-608,17.7778,46.3215,0.00301974,0.00252489,-0.00114313,0.00394191,0.00160271,-0.678819,0.00228906,0.0149382,1658,1632,17.7778,-46.3216
441,-608,17.7269,45.6254,0.00295922,0.00192739,-0.00145812,0.00399001,0.000896599,-0.615361,0.00241722,0.0137826,1665,1632,17.727,-45.6254
448,-608,17.7123,44.9224,0.00296617,0.00150829,-0.0019139,0.00428525,0.000189214,-0.603446,0.00279589,0.0157893,1672,1632,17.7122,-44.9223
455,-608,17.7065,44.1631,0.00309033,0.00101754,-0.00240168,0.00466969,-0.000561816,-0.581704,0.0033163,0.0124445,1679,1632,17.7065,-44.163
462,-608,17.6504,43.4287,0.00322572,0.000395667,-0.00277514,0.00492577,-0.00130438,-0.549632,0.00379413,0.0123429,1686,1632,17.6504,-43.4288
469,-608,17.5897,42.7207,0.00330687,-8.37571e-05,-0.00312022,0.0051626,-0.00193948,-0.536544,0.00423881,0.00966438,1693,1632,17.5897,-42.7207
476,-608,17.5364,41.9999,0.00317267,-0.000332391,-0.00325827,0.00511982,-0.00227955,-0.538656,0.00437568,0.00947568,1700,1632,17.5363,-41.9999
483,-608,17.5037,41.2604,0.00304487,-0.000837632,-0.00339398,0.00501355,-0.00280631,-0.525621,0.00457436,0.00879857,1707,1632,17.5036,-41.2603
490,-608,17.4886,40.5026,0.00266201,-0.00111966,-0.0034205,0.0046795,-0.00313716,-0.532904,0.00454214,0.0122619,1714,1632,17.4886,-40.5025
497,-608,17.5193,39.7045,0.00210189,-0.00121465,-0.00329778,0.00413485,-0.00324762,-0.552438,0.00427252,0.0326291,1721,1632,17.5193,-39.7044
504,-608,17.6848,38.8715,0,0,0,0,0,0,0,-1,1728,1632,17.6848,-38.8715
511,-608,17.35,38.5101,0,0,0,0,0,0,0,-1,1735,1632,17.35,-38.5102
518,-608,17.4116,35.865,0,0,0,0,0,0,0,-1,1742,1632,17.4117,-35.865
525,-608,11.2109,16.2579,0,0,0,0,0,0,0,-1,1749,1632,11.2109,-16.2579
532,-608,8.27917,11.6693,0,0,0,0,0,0,0,-1,1756,1632,8.27919,-11.6694
539,-608,9.40796,1.43457,0,0,0,0,0,0,0,-1,1763,1632,9.40801,-1.43463
546,-608,9.94031,2.1134,0,0,0,0,0,0,0,-1,1770,1632,9.94031,-2.11346
553,-608,10.363,2.81335,0,0,0,0,0,0,0,-1,1777,1632,10.3631,-2.81333
560,-608,9.23999,4.5636,0,0,0,0,0,0,0,-1,1784,1632,9.24,-4.56354
567,-608,0,0,0,0,0,0,0,0,0,-1,1791,1632,0,0
574,-608,0,0,0,0,0,0,0,0,0,-1,1798,1632,0,0
581,-608,0,0,0,0,0,0,0,0,0,-1,1805,1632,0,0
588,-608,0,0,0,0,0,0,0,0,0,-1,1812,1632,0,0
595,-608,0,0,0,0,0,0,0,0,0,-1,1819,1632,0,0
602,-608,0,0,0,0,0,0,0,0,0,-1,1826,1632,0,0
609,-608,0,0,0,0,0,0,0,0,0,-1,1833,1632,0,0
616,-608,0,0,0,0,0,0,0,0,0,-1,1840,1632,0,0
623,-608,0,0,0,0,0,0,0,0,0,-1,1847,1632,0,0
630,-608,0,0,0,0,0,0,0,0,0,-1,1854,1632,0,0
637,-608,0,0,0,0,0,0,0,0,0,-1,1861,1632,0,0
644,-608,0,0,0,0,0,0,0,0,0,-1,1868,1632,0,0
651,-608,0,0,0,0,0,0,0,0,0,-1,1875,1632,0,0
658,-608,0,0,0,0,0,0,0,0,0,-1,1882,1632,0,0
665,-608,0,0,0,0,0,0,0,0,0,-1,1889,1632,0,0
672,-608,0,0,0,0,0,0,0,0,0,-1,1896,1632,0,0
679,-608,0,0,0,0,0,0,0,0,0,-1,1903,1632,0,0
686,-608,0,0,0,0,0,0,0,0,0,-1,1910,1632,0,0
693,-608,0,0,0,0,0,0,0,0,0,-1,1917,1632,0,0
700,-608,0,0,0,0,0,0,0,0,0,-1,1924,1632,0,0
707,-608,0,0,0,0,0,0,0,0,0,-1,1931,1632,0,0
714,-608,0,0,0,0,0,0,0,0,0,-1,1938,1632,0,0
721,-608,0,0,0,0,0,0,0,0,0,-1,1945,1632,0,0
728,-608,0,0,0,0,0,0,0,0,0,-1,1952,1632,0,0
735,-608,0,0,0,0,0,0,0,0,0,-1,1959,1632,0,0
742,-608,0,0,0,0,0,0,0,0,0,-1,1966,1632,0,0
749,-608,0,0,0,0,0,0,0,0,0,-1,1973,1632,0,0
756,-608,0,0,0,0,0,0,0,0,0,-1,1980,1632,0,0
763,-608,0,0,0,0,0,0,0,0,0,-1,1987,1632,0,0
770,-608,0,0,0,0,0,0,0,0,0,-1,1994,1632,0,0
777,-608,0,0,0,0,0,0,0,0,0,-1,2001,1632,0,0
784,-608,0,0,0,0,0,0,0,0,0,-1,2008,1632,0,0
791,-608,0,0,0,0,0,0,0,0,0,-1,2015,1632,0,0
798,-608,0,0,0,0,0,0,0,0,0,-1,2022,1632,0,0
805,-608,0,0,0,0,0,0,0,0,0,-1,2029,1632,0,0
812,-608,0,0,0,0,0,0,0,0,0,-1,2036,1632,0,0
-700,-615,0,0,0,0,0,0,0,0,0,-1,524,1639,0,0
-693,-615,0,0,0,0,0,0,0,0,0,-1,531,1639,0,0
-686,-615,0,0,0,0,0,0,0,0,0,-1,538,1639,0,0
-679,-615,0,0,0,0,0,0,0,0,0,-1,545,1639,0,0
-672,-615,0,0,0,0,0,0,0,0,0,-1,552,1639,0,0
-665,-615,0,0,0,0,0,0,0,0,0,-1,559,1639,0,0
-658,-615,0,0,0,0,0,0,0,0,0,-1,566,1639,0,0
-651,-615,0,0,0,0,0,0,0,0,0,-1,573,1639,0,0
-644,-615,0,0,0,0,0,0,0,0,0,-1,580,1639,0,0
-637,-615,0,0,0,0,0,0,0,0,0,-1,587,1639,0,0
-630,-615,0,0,0,0,0,0,0,0,0,-1,594,1639,0,0
-623,-615,0,0,0,0,0,0,0,0,0,-1,601,1639,0,0
-616,-615,0,0,0,0,0,0,0,0,0,-1,608,1639,0,0
-609,-615,0,0,0,0,0,0,0,0,0,-1,615,1639,0,0
-602,-615,0,0,0,0,0,0,0,0,0,-1,622,1639,0,0
-595,-615,0,0,0,0,0,0,0,0,0,-1,629,1639,0,0
-588,-615,0,0,0,0,0,0,0,0,0,-1,636,1639,0,0
-581,-615,0,0,0,0,0,0,0,0,0,-1,643,1639,0,0
-574,-615,0,0,0,0,0,0,0,0,0,-1,650,1639,0,0
-567,-615,0,0,0,0,0,0,0,0,0,-1,657,1639,0,0
-560,-615,0,0,0,0,0,0,0,0,0,-1,664,1639,0,0
-553,-615,0,0,0,0,0,0,0,0,0,-1,671,1639,0,0
-546,-615,0,0,0,0,0,0,0,0,0,-1,678,1639,0,0
-539,-615,0,0,0,0,0,0,0,0,0,-1,685,1639,0,0
-532,-615,0,0,0,0,0,0,0,0,0,-1,692,1639,0,0
-525,-615,0,0,0,0,0,0,0,0,0,-1,699,1639,0,0
-518,-615,0,0,0,0,0,0,0,0,0,-1,706,1639,0,0
-511,-615,0,0,0,0,0,0,0,0,0,-1,713,1639,0,0
-504,-615,0,0,0,0,0,0,0,0,0,-1,720,1639,0,0
-497,-615,0,0,0,0,0,0,0,0,0,-1,727,1639,0,0
-490,-615,0,0,0,0,0,0,0,0,0,-1,734,1639,0,0
-483,-615,0,0,0,0,0,0,0,0,0,-1,741,1639,0,0
-476,-615,0,0,0,0,0,0,0,0,0,-1,748,1639,0,0
-469,-615,0,0,0,0,0,0,0,0,0,-1,755,1639,0,0
-462,-615,0,0,0,0,0,0,0,0,0,-1,762,1639,0,0
-455,-615,0,0,0,0,0,0,0,0,0,-1,769,1639,0,0
-448,-615,0,0,0,0,0,0,0,0,0,-1,776,1639,0,0
-441,-615,0,0,0,0,0,0,0,0,0,-1,783,1639,0,0
-434,-615,-7.64508,2.98596,0,0,0,0,0,0,0,-1,790,1639,-7.64505,-2.98594
-427,-615,-9.0011,2.89404,0,0,0,0,0,0,0,-1,797,1639,-9.00107,-2.89399
-420,-615,-8.07568,3.0752,0,0,0,0,0,0,0,-1,804,1639,-8.07569,-3.07514
-413,-615,-7.09149,3.396,0,0,0,0,0,0,0,-1,811,1639,-7.09147,-3.39599
-406,-615,-6.21368,3.7312,0,0,0,0,0,0,0,-1,818,1639,-6.21366,-3.73114
-399,-615,-4.84875,3.91907,0,0,0,0,0,0,0,-1,825,1639,-4.84877,-3.91901
-392,-615,1.7395,13.3127,0,0,0,0,0,0,0,-1,832,1639,1.73953,-13.3128
-385,-615,3.42297,14.9401,0,0,0,0,0,0,0,-1,839,1639,3.42296,-14.94
-378,-615,1.50134,37.1793,0,0,0,0,0,0,0,-1,846,1639,1.50132,-37.1793
-371,-615,1.09406,39.4985,0,0,0,0,0,0,0,-1,853,1639,1.09408,-39.4985
-364,-615,0.987488,40.4489,0.00366083,-0.000414146,0.00641598,0.00835507,-0.00510839,0.631652,0.00784811,0.0387063,860,1639,0.987479,-40.4488
-357,-615,1.05365,41.3496,0.00329387,-0.000495712,0.00550773,0.00722362,-0.00442547,0.619728,0.00678997,0.0382928,867,1639,1.05362,-41.3496
-350,-615,0.885864,42.0851,0.00302212,-0.000327325,0.00477444,0.00640704,-0.00371224,0.616718,0.00591102,0.0374722,874,1639,0.885881,-42.0851
-343,-615,0.808716,42.7118,0.00300299,3.17155e-05,0.00416602,0.00594034,-0.00290563,0.614123,0.00520644,0.0223613,881,1639,0.808729,-42.7118
-336,-615,0.781616,43.4999,0.00300731,0.00041989,0.00363115,0.00556833,-0.00214113,0.614268,0.00459533,0.0117574,888,1639,0.781595,-43.4998
-329,-615,0.704407,44.2799,0.00296489,0.000827736,0.00319816,0.00526827,-0.00147565,0.624168,0.0040937,0.0127089,895,1639,0.704396,-44.2799
-322,-615,0.674805,45.0333,0.00292125,0.0014995,0.00292305,0.00521862,-0.000797874,0.666116,0.00377326,0.0136766,902,1639,0.674784,-45.0334
-315,-615,0.668457,45.7896,0.00293563,0.00227545,0.00276945,0.00539459,-0.000183515,0.726083,0.0036591,0.016963,909,1639,0.668437,-45.7896
-308,-615,0.611877,46.5129,0.00304122,0.00310544,0.00269497,0.00576849,0.000378172,0.791355,0.00372601,0.0256319,916,1639,0.611853,-46.5129
-301,-615,0.611084,47.1746,0.00326191,0.00419279,0.00281392,0.0065795,0.0008752,0.86736,0.00412566,0.0138174,923,1639,0.611112,-47.1746
-294,-615,0.58606,47.8865,0.00359764,0.00541391,0.00304049,0.00767899,0.00133256,0.930521,0.00473802,0.010305,930,1639,0.586047,-47.8865
-287,-615,0.521606,48.601,0.00398097,0.00664965,0.00329774,0.00887277,0.00175785,0.977641,0.00542501,0.00840775,937,1639,0.521598,-48.601
-280,-615,0.508057,49.3043,0.00451823,0.00796578,0.00362028,0.0102517,0.00223228,1.00759,0.00622526,0.0114593,944,1639,0.508079,-49.3043
-273,-615,0.469116,50.0085,0.0051948,0.00918125,0.00403691,0.0116902,0.00268585,1.01472,0.00707033,0.0135764,951,1639,0.46909,-50.0086
-266,-615,0.42749,50.6948,0.00597438,0.0104202,0.00449,0.0132075,0.00318717,1.01525,0.00795824,0.0138044,958,1639,0.427481,-50.6949
-259,-615,0.450134,51.3727,0.00693113,0.0116695,0.00494573,0.0147842,0.00381639,1.00876,0.00886228,0.0146152,965,1639,0.450134,-51.3727
-252,-615,0.455505,52.108,0.00803217,0.0128545,0.00535543,0.0163165,0.00457014,0.996919,0.00971929,0.0176723,972,1639,0.455508,-52.108
-245,-615,0.568665,52.9325,0.00916307,0.0137559,0.00576378,0.0176639,0.00525507,0.97497,0.0104733,0.0273878,979,1639,0.568673,-52.9325
-238,-615,0.583618,53.6384,0.0101107,0.0138447,0.00643022,0.0186735,0.00528193,0.926689,0.0111149,0.0349175,986,1639,0.583621,-53.6384
-231,-615,0.638611,54.2385,0.0108112,0.014112,0.00720952,0.0198576,0.00506557,0.89792,0.0119144,0.044099,993,1639,0.638627,-54.2385
-224,-615,0.855103,54.6326,0,0,0,0,0,0,0,-1,1000,1639,0.855073,-54.6326
-217,-615,1.30402,54.2607,0,0,0,0,0,0,0,-1,1007,1639,1.30401,-54.2607
-210,-615,2.48901,18.9324,0,0,0,0,0,0,0,-1,1014,1639,2.48902,-18.9323
-203,-615,2.13684,18.6173,0,0,0,0,0,0,0,-1,1021,1639,2.13683,-18.6173
-196,-615,4.27161,21.3264,0,0,0,0,0,0,0,-1,1028,1639,4.27165,-21.3264
-189,-615,0.985352,58.1743,0,0,0,0,0,0,0,-1,1035,1639,0.985309,-58.1744
-182,-615,2.98364,52.7119,0,0,0,0,0,0,0,-1,1042,1639,2.9836,-52.7119
-175,-615,2.25159,49.2682,0,0,0,0,0,0,0,-1,1049,1639,2.25158,-49.2682
-168,-615,3.85754,15.472,0,0,0,0,0,0,0,-1,1056,1639,3.85757,-15.472
-161,-615,2.14307,46.5156,0,0,0,0,0,0,0,-1,1063,1639,2.14303,-46.5156
-154,-615,1.37329,47.9545,0,0,0,0,0,0,0,-1,1070,1639,1.37327,-47.9545
-147,-615,0.0180664,48.1396,0,0,0,0,0,0,0,-1,1077,1639,0.0180157,-48.1397
-140,-615,3.73401,10.2349,0,0,0,0,0,0,0,-1,1084,1639,3.73402,-10.2348
-133,-615,2.6178,17.45,0,0,0,0,0,0,0,-1,1091,1639,2.61776,-17.4499
-126,-615,4.43408,12.5017,0,0,0,0,0,0,0,-1,1098,1639,4.43403,-12.5018
-119,-615,4.82983,13.9279,0,0,0,0,0,0,0,-1,1105,1639,4.82986,-13.9278
-112,-615,3.65698,14.4874,0,0,0,0,0,0,0,-1,1112,1639,3.65695,-14.4875
-105,-615,0.958496,2.45398,0,0,0,0,0,0,0,-1,1119,1639,0.958452,-2.45398
-98,-615,-0.647705,2.12109,0,0,0,0,0,0,0,-1,1126,1639,-0.647756,-2.12105
-91,-615,-3.07983,2.97375,0,0,0,0,0,0,0,-1,1133,1639,-3.07989,-2.97376
-84,-615,-2.46509,0.703247,0,0,0,0,0,0,0,-1,1140,1639,-2.46505,-0.703273
-77,-615,-3.17859,1.23755,0,0,0,0,0,0,0,-1,1147,1639,-3.17865,-1.23752
-70,-615,-4.03943,1.43335,0,0,0,0,0,0,0,-1,1154,1639,-4.03942,-1.43339
-63,-615,-4.8877,1.45544,0,0,0,0,0,0,0,-1,1161,1639,-4.88766,-1.45549
-56,-615,0,0,0,0,0,0,0,0,0,-1,1168,1639,0,0
-49,-615,0,0,0,0,0,0,0,0,0,-1,1175,1639,0,0
-42,-615,0,0,0,0,0,0,0,0,0,-1,1182,1639,0,0
-35,-615,0,0,0,0,0,0,0,0,0,-1,1189,1639,0,0
-28,-615,0,0,0,0,0,0,0,0,0,-1,1196,1639,0,0
-21,-615,0,0,0,0,0,0,0,0,0,-1,1203,1639,0,0
-14,-615,0,0,0,0,0,0,0,0,0,-1,1210,1639,0,0
-7,-615,0,0,0,0,0,0,0,0,0,-1,1217,1639,0,0
0,-615,0,0,0,0,0,0,0,0,0,-1,1224,1639,0,0
7,-615,0,0,0,0,0,0,0,0,0,-1,1231,1639,0,0
14,-615,0,0,0,0,0,0,0,0,0,-1,1238,1639,0,0
21,-615,0,0,0,0,0,0,0,0,0,-1,1245,1639,0,0
28,-615,0,0,0,0,0,0,0,0,0,-1,1252,1639,0,0
35,-615,0,0,0,0,0,0,0,0,0,-1,1259,1639,0,0
42,-615,0,0,0,0,0,0,0,0,0,-1,1266,1639,0,0
49,-615,0,0,0,0,0,0,0,0,0,-1,1273,1639,0,0
56,-615,0,0,0,0,0,0,0,0,0,-1,1280,1639,0,0
63,-615,0,0,0,0,0,0,0,0,0,-1,1287,1639,0,0
70,-615,0,0,0,0,0,0,0,0,0,-1,1294,1639,0,0
77,-615,0,0,0,0,0,0,0,0,0,-1,1301,1639,0,0
84,-615,0,0,0,0,0,0,0,0,0,-1,1308,1639,0,0
91,-615,0,0,0,0,0,0,0,0,0,-1,1315,1639,0,0
98,-615,0,0,0,0,0,0,0,0,0,-1,1322,1639,0,0
105,-615,0,0,0,0,0,0,0,0,0,-1,1329,1639,0,0
112,-615,0,0,0,0,0,0,0,0,0,-1,1336,1639,0,0
119,-615,0,0,0,0,0,0,0,0,0,-1,1343,1639,0,0
126,-615,0,0,0,0,0,0,0,0,0,-1,1350,1639,0,0
133,-615,0,0,0,0,0,0,0,0,0,-1,1357,1639,0,0
140,-615,0,0,0,0,0,0,0,0,0,-1,1364,1639,0,0
147,-615,0,0,0,0,0,0,0,0,0,-1,1371,1639,0,0
154,-615,0,0,0,0,0,0,0,0,0,-1,1378,1639,0,0
161,-615,0,0,0,0,0,0,0,0,0,-1,1385,1639,0,0
168,-615,0,0,0,0,0,0,0,0,0,-1,1392,1639,0,0
175,-615,5.39648,-2.00879,0,0,0,0,0,0,0,-1,1399,1639,5.3965,2.00881
182,-615,5.65393,-1.51025,0,0,0,0,0,0,0,-1,1406,1639,5.65388,1.51028
189,-615,5.58972,-1.35608,0,0,0,0,0,0,0,-1,1413,1639,5.58967,1.35607
196,-615,5.49915,-0.693604,0,0,0,0,0,0,0,-1,1420,1639,5.4991,0.693602
203,-615,5.33411,-0.226685,0,0,0,0,0,0,0,-1,1427,1639,5.33414,0.226689
210,-615,5.60278,0.108276,0,0,0,0,0,0,0,-1,1434,1639,5.60284,-0.10831
217,-615,6.26331,-0.307373,0,0,0,0,0,0,0,-1,1441,1639,6.26331,0.307372
224,-615,5.45422,-0.333984,0,0,0,0,0,0,0,-1,1448,1639,5.45422,0.333992
231,-615,4.92542,1.80298,0,0,0,0,0,0,0,-1,1455,1639,4.92537,-1.80297
238,-615,4.76355,1.96729,0,0,0,0,0,0,0,-1,1462,1639,4.76357,-1.96734
245,-615,4.08643,3.15906,0,0,0,0,0,0,0,-1,1469,1639,4.08638,-3.159
252,-615,6.37805,3.73889,0,0,0,0,0,0,0,-1,1476,1639,6.37806,-3.73891
259,-615,8.35974,3.16443,0,0,0,0,0,0,0,-1,1483,1639,8.35975,-3.16444
266,-615,10.3414,2.58997,0,0,0,0,0,0,0,-1,1490,1639,10.3414,-2.58996
273,-615,6.57043,1.84766,0,0,0,0,0,0,0,-1,1497,1639,6.5704,-1.84771
280,-615,7.10449,3.23438,0,0,0,0,0,0,0,-1,1504,1639,7.10447,-3.23435
287,-615,7.35779,4.68542,0,0,0,0,0,0,0,-1,1511,1639,7.35776,-4.68546
294,-615,7.63733,6.29114,0,0,0,0,0,0,0,-1,1518,1639,7.63735,-6.29109
301,-615,8.47925,11.452,0,0,0,0,0,0,0,-1,1525,1639,8.47922,-11.452
308,-615,6.8114,10.9059,0,0,0,0,0,0,0,-1,1532,1639,6.81137,-10.9058
315,-615,5.1427,14.7251,0,0,0,0,0,0,0,-1,1539,1639,5.14269,-14.7251
322,-615,7.17981,17.6864,0,0,0,0,0,0,0,-1,1546,1639,7.17985,-17.6864
329,-615,7.62134,20.4354,0,0,0,0,0,0,0,-1,1553,1639,7.62139,-20.4354
336,-615,6.45007,14.1138,0,0,0,0,0,0,0,-1,1560,1639,6.45011,-14.1138
343,-615,2.40491,6.50134,0,0,0,0,0,0,0,-1,1567,1639,2.40489,-6.50137
350,-615,16.3262,55.0724,0,0,0,0,0,0,0,-1,1574,1639,16.3261,-55.0724
357,-615,16.6523,54.3496,0,0,0,0,0,0,0,-1,1581,1639,16.6524,-54.3496
364,-615,17.0303,53.4092,0,0,0,0,0,0,0,-1,1588,1639,17.0303,-53.4092
371,-615,16.9772,52.8575,0.0147127,0.014594,-0.00507967,0.0197334,0.00957333,-0.779557,0.0113947,0.0375054,1595,1639,16.9771,-52.8575
378,-615,17.1967,51.8823,0.0123999,0.0122006,-0.00395175,0.0162532,0.00834723,-0.772795,0.00938496,0.018881,1602,1639,17.1967,-51.8824
385,-615,17.1836,51.1335,0.0103196,0.0100177,-0.00295157,0.0131241,0.00721321,-0.759853,0.00758961,0.0120693,1609,1639,17.1836,-51.1336
392,-615,17.1775,50.4579,0.00831501,0.00810185,-0.0020879,0.010299,0.00611781,-0.759897,0.00598109,0.0108579,1616,1639,17.1775,-50.4578
399,-615,17.1567,49.7765,0.00666297,0.00652636,-0.00155421,0.00815038,0.00503896,-0.763439,0.00474928,0.0119492,1623,1639,17.1568,-49.7765
406,-615,17.1354,49.1077,0.00534081,0.00507624,-0.00112997,0.00634622,0.00407084,-0.727129,0.00371255,0.0120704,1630,1639,17.1354,-49.1077
413,-615,17.126,48.4401,0.00438586,0.00396667,-0.00099876,0.00519678,0.00315575,-0.681971,0.00302329,0.0142188,1637,1639,17.126,-48.4401
420,-615,17.1088,47.7595,0.00377456,0.00317325,-0.0011158,0.0046295,0.00231831,-0.653796,0.00267284,0.0158294,1644,1639,17.1088,-47.7596
427,-615,17.089,47.0443,0.00313194,0.00239056,-0.0013887,0.00419857,0.00132393,-0.654972,0.00247855,0.0161452,1651,1639,17.089,-47.0443
434,-615,17.08,46.3578,0.00304961,0.00177925,-0.00168017,0.00421066,0.000618205,-0.60468,0.00262541,0.0144774,1658,1639,17.08,-46.3578
441,-615,17.0299,45.6663,0.00316958,0.00122506,-0.00209606,0.0045079,-0.000113259,-0.568243,0.00304372,0.0146842,1665,1639,17.0299,-45.6663
448,-615,17.0048,44.9568,0.00341073,0.000789138,-0.00264378,0.00505083,-0.000850957,-0.555255,0.00368378,0.0152987,1672,1639,17.0048,-44.9567
455,-615,16.9794,44.2239,0.00375434,0.000295499,-0.00321144,0.00567241,-0.00162258,-0.538405,0.00442282,0.0144743,1679,1639,16.9794,-44.2239
462,-615,16.937,43.5129,0.00407193,-0.000323089,-0.00367687,0.00615793,-0.00240909,-0.516051,0.00510158,0.0150705,1686,1639,16.937,-43.513
469,-615,16.885,42.7693,0.00433602,-0.000756167,-0.00412957,0.00664131,-0.00306146,-0.509147,0.00572758,0.0134251,1693,1639,16.8851,-42.7693
476,-615,16.8491,42.0166,0.00439273,-0.00096047,-0.00435899,0.0068313,-0.00339904,-0.510058,0.00601627,0.0128392,1700,1639,16.8491,-42.0166
483,-615,16.8875,41.1914,0.00446405,-0.00142582,-0.00460882,0.00698847,-0.00395024,-0.501104,0.00639616,0.0313966,1707,1639,16.8875,-41.1914
490,-615,16.9031,40.3821,0,0,0,0,0,0,0,-1,1714,1639,16.9031,-40.382
497,-615,16.9006,39.5206,0,0,0,0,0,0,0,-1,1721,1639,16.9006,-39.5206
504,-615,16.4989,34.738,0,0,0,0,0,0,0,-1,1728,1639,16.4989,-34.738
511,-615,15.2349,30.2052,0,0,0,0,0,0,0,-1,1735,1639,15.2348,-30.2052
518,-615,13.2416,9.81812,0,0,0,0,0,0,0,-1,1742,1639,13.2416,-9.81813
525,-615,4.37524,3.90491,0,0,0,0,0,0,0,-1,1749,1639,4.37518,-3.90495
532,-615,7.3645,0.848145,0,0,0,0,0,0,0,-1,1756,1639,7.36451,-0.848093
539,-615,12.8112,-0.0476074,0,0,0,0,0,0,0,-1,1763,1639,12.8111,0.0475553
546,-615,8.33813,2.94556,0,0,0,0,0,0,0,-1,1770,1639,8.33813,-2.9455
553,-615,5.82532,-2.04199,0,0,0,0,0,0,0,-1,1777,1639,5.82534,2.04195
560,-615,0,0,0,0,0,0,0,0,0,-1,1784,1639,0,0
567,-615,0,0,0,0,0,0,0,0,0,-1,1791,1639,0,0
574,-615,0,0,0,0,0,0,0,0,0,-1,1798,1639,0,0
581,-615,0,0,0,0,0,0,0,0,0,-1,1805,1639,0,0
588,-615,0,0,0,0,0,0,0,0,0,-1,1812,1639,0,0
595,-615,0,0,0,0,0,0,0,0,0,-1,1819,1639,0,0
602,-615,0,0,0,0,0,0,0,0,0,-1,1826,1639,0,0
609,-615,0,0,0,0,0,0,0,0,0,-1,1833,1639,0,0
616,-615,0,0,0,0,0,0,0,0,0,-1,1840,1639,0,0
623,-615,0,0,0,0,0,0,0,0,0,-1,1847,1639,0,0
630,-615,0,0,0,0,0,0,0,0,0,-1,1854,1639,0,0
637,-615,0,0,0,0,0,0,0,0,0,-1,1861,1639,0,0
644,-615,0,0,0,0,0,0,0,0,0,-1,1868,1639,0,0
651,-615,0,0,0,0,0,0,0,0,0,-1,1875,1639,0,0
658,-615,0,0,0,0,0,0,0,0,0,-1,1882,1639,0,0
665,-615,0,0,0,0,0,0,0,0,0,-1,1889,1639,0,0
672,-615,0,0,0,0,0,0,0,0,0,-1,1896,1639,0,0
679,-615,0,0,0,0,0,0,0,0,0,-1,1903,1639,0,0
686,-615,0,0,0,0,0,0,0,0,0,-1,1910,1639,0,0
693,-615,0,0,0,0,0,0,0,0,0,-1,1917,1639,0,0
700,-615,0,0,0,0,0,0,0,0,0,-1,1924,1639,0,0
707,-615,0,0,0,0,0,0,0,0,0,-1,1931,1639,0,0
714,-615,0,0,0,0,0,0,0,0,0,-1,1938,1639,0,0
721,-615,0,0,0,0,0,0,0,0,0,-1,1945,1639,0,0
728,-615,0,0,0,0,0,0,0,0,0,-1,1952,1639,0,0
735,-615,0,0,0,0,0,0,0,0,0,-1,1959,1639,0,0
742,-615,0,0,0,0,0,0,0,0,0,-1,1966,1639,0,0
749,-615,0,0,0,0,0,0,0,0,0,-1,1973,1639,0,0
756,-615,0,0,0,0,0,0,0,0,0,-1,1980,1639,0,0
763,-615,0,0,0,0,0,0,0,0,0,-1,1987,1639,0,0
770,-615,0,0,0,0,0,0,0,0,0,-1,1994,1639,0,0
777,-615,0,0,0,0,0,0,0,0,0,-1,2001,1639,0,0
784,-615,0,0,0,0,0,0,0,0,0,-1,2008,1639,0,0
791,-615,0,0,0,0,0,0,0,0,0,-1,2015,1639,0,0
798,-615,0,0,0,0,0,0,0,0,0,-1,2022,1639,0,0
805,-615,0,0,0,0,0,0,0,0,0,-1,2029,1639,0,0
812,-615,0,0,0,0,0,0,0,0,0,-1,2036,1639,0,0
-700,-622,0,0,0,0,0,0,0,0,0,-1,524,1646,0,0
-693,-622,0,0,0,0,0,0,0,0,0,-1,531,1646,0,0
-686,-622,0,0,0,0,0,0,0,0,0,-1,538,1646,0,0
-679,-622,0,0,0,0,0,0,0,0,0,-1,545,1646,0,0
-672,-622,0,0,0,0,0,0,0,0,0,-1,552,1646,0,0
-665,-622,0,0,0,0,0,0,0,0,0,-1,559,1646,0,0
-658,-622,0,0,0,0,0,0,0,0,0,-1,566,1646,0,0
-651,-622,0,0,0,0,0,0,0,0,0,-1,573,1646,0,0
-644,-622,0,0,0,0,0,0,0,0,0,-1,580,1646,0,0
-637,-622,0,0,0,0,0,0,0,0,0,-1,587,1646,0,0
-630,-622,0,0,0,0,0,0,0,0,0,-1,594,1646,0,0
-623,-622,0,0,0,0,0,0,0,0,0,-1,601,1646,0,0
-616,-622,0,0,0,0,0,0,0,0,0,-1,608,1646,0,0
-609,-622,0,0,0,0,0,0,0,0,0,-1,615,1646,0,0
-602,-622,0,0,0,0,0,0,0,0,0,-1,622,1646,0,0
-595,-622,0,0,0,0,0,0,0,0,0,-1,629,1646,0,0
-588,-622,0,0,0,0,0,0,0,0,0,-1,636,1646,0,0
-581,-622,0,0,0,0,0,0,0,0,0,-1,643,1646,0,0
-574,-622,0,0,0,0,0,0,0,0,0,-1,650,1646,0,0
-567,-622,0,0,0,0,0,0,0,0,0,-1,657,1646,0,0
-560,-622,0,0,0,0,0,0,0,0,0,-1,664,1646,0,0
-553,-622,0,0,0,0,0,0,0,0,0,-1,671,1646,0,0
-546,-622,0,0,0,0,0,0,0,0,0,-1,678,1646,0,0
-539,-622,0,0,0,0,0,0,0,0,0,-1,685,1646,0,0
-532,-622,0,0,0,0,0,0,0,0,0,-1,692,1646,0,0
-525,-622,0,0,0,0,0,0,0,0,0,-1,699,1646,0,0
-518,-622,0,0,0,0,0,0,0,0,0,-1,706,1646,0,0
-511,-622,0,0,0,0,0,0,0,0,0,-1,713,1646,0,0
-504,-622,0,0,0,0,0,0,0,0,0,-1,720,1646,0,0
-497,-622,0,0,0,0,0,0,0,0,0,-1,727,1646,0,0
-490,-622,0,0,0,0,0,0,0,0,0,-1,734,1646,0,0
-483,-622,0,0,0,0,0,0,0,0,0,-1,741,1646,0,0
-476,-622,0,0,0,0,0,0,0,0,0,-1,748,1646,0,0
-469,-622,0,0,0,0,0,0,0,0,0,-1,755,1646,0,0
-462,-622,0,0,0,0,0,0,0,0,0,-1,762,1646,0,0
-455,-622,0,0,0,0,0,0,0,0,0,-1,769,1646,0,0
-448,-622,0,0,0,0,0,0,0,0,0,-1,776,1646,0,0
-441,-622,0,0,0,0,0,0,0,0,0,-1,783,1646,0,0
-434,-622,0,0,0,0,0,0,0,0,0,-1,790,1646,0,0
-427,-622,-7.62891,3.48096,0,0,0,0,0,0,0,-1,797,1646,-7.62892,-3.48092
-420,-622,-9.35791,1.77185,0,0,0,0,0,0,0,-1,804,1646,-9.35789,-1.77183
-413,-622,-8.46075,1.96777,0,0,0,0,0,0,0,-1,811,1646,-8.46074,-1.96774
-406,-622,-4.44318,2.16858,0,0,0,0,0,0,0,-1,818,1646,-4.44315,-2.16859
-399,-622,-7.06976,1.51001,0,0,0,0,0,0,0,-1,825,1646,-7.06976,-1.51005
-392,-622,3.89551,5.85376,0,0,0,0,0,0,0,-1,832,1646,3.8955,-5.85379
-385,-622,2.00543,14.0448,0,0,0,0,0,0,0,-1,839,1646,2.00544,-14.0448
-378,-622,1.49036,15.3436,0,0,0,0,0,0,0,-1,846,1646,1.49033,-15.3436
-371,-622,1.5274,38.0657,0,0,0,0,0,0,0,-1,853,1646,1.5274,-38.0657
-364,-622,1.52307,40.3068,0,0,0,0,0,0,0,-1,860,1646,1.52304,-40.3068
-357,-622,1.76862,41.2032,0,0,0,0,0,0,0,-1,867,1646,1.76863,-41.2032
-350,-622,1.64917,42.1945,0,0,0,0,0,0,0,-1,874,1646,1.64914,-42.1944
-343,-622,1.45227,43.0574,0,0,0,0,0,0,0,-1,881,1646,1.45229,-43.0573
-336,-622,1.5249,43.547,0.00416351,0.000538719,0.00475811,0.00744271,-0.00274048,0.603428,0.00608462,0.0103279,888,1646,1.5249,-43.547
-329,-622,1.45697,44.2848,0.00373127,0.000783413,0.00413413,0.00664636,-0.00213168,0.61416,0.00528672,0.00947177,895,1646,1.45694,-44.2848
-322,-622,1.41431,45.0315,0.00335037,0.00117366,0.00365147,0.00607223,-0.0015482,0.64056,0.00465092,0.0108111,902,1646,1.4143,-45.0315
-315,-622,1.37689,45.7754,0.0030256,0.00169425,0.00328548,0.00571216,-0.000992311,0.685445,0.00417834,0.0150194,909,1646,1.37687,-45.7754
-308,-622,1.3493,46.4894,0.0028059,0.00227902,0.0029766,0.0055307,-0.000445773,0.741261,0.00384435,0.0164274,916,1646,1.34929,-46.4893
-301,-622,1.32819,47.1981,0.00274634,0.00301286,0.00284726,0.00572998,2.92202e-05,0.808783,0.00381029,0.0143739,923,1646,1.3282,-47.1981
-294,-622,1.27515,47.9282,0.00285326,0.00384057,0.00283079,0.00622043,0.00047341,0.871724,0.0039985,0.00994446,930,1646,1.27515,-47.9282
-287,-622,1.23749,48.6228,0.00304986,0.00469183,0.00286567,0.00685179,0.000889895,0.924907,0.00430202,0.00818118,937,1646,1.23749,-48.6228
-280,-622,1.20416,49.3148,0.00342281,0.0056371,0.0029576,0.00768799,0.00137192,0.964494,0.00473475,0.0104785,944,1646,1.20418,-49.3148
-273,-622,1.18512,49.995,0.0039725,0.00649913,0.00315725,0.00863642,0.0018352,0.975708,0.00525383,0.0164672,951,1646,1.18514,-49.995
-266,-622,1.13629,50.6932,0.00459996,0.00737707,0.00338496,0.00964721,0.00232982,0.980037,0.00581264,0.0159069,958,1646,1.13631,-50.6933
-259,-622,1.1308,51.421,0.00545253,0.00833432,0.00363581,0.0108043,0.00298251,0.974058,0.00644309,0.0133153,965,1646,1.13083,-51.4211
-252,-622,1.11676,52.0753,0.00643447,0.00925841,0.00383028,0.0119287,0.0037642,0.961987,0.00704149,0.0134309,972,1646,1.11678,-52.0753
-245,-622,1.16687,52.7485,0.00742604,0.00991484,0.00401972,0.0128784,0.00446252,0.935506,0.0075512,0.0117535,979,1646,1.16687,-52.7485
-238,-622,1.15674,53.3994,0.00825275,0.00992176,0.00442797,0.0135932,0.00458133,0.878537,0.00798577,0.0137905,986,1646,1.15675,-53.3994
-231,-622,1.21045,54.0806,0.00872517,0.0100738,0.00486194,0.014308,0.00449103,0.854307,0.00844933,0.0210208,993,1646,1.21046,-54.0806
-224,-622,1.34003,54.6622,0.009157,0.00956526,0.00529348,0.0146585,0.00406372,0.80467,0.00873863,0.0315395,1000,1646,1.34003,-54.6622
-217,-622,1.45227,55.2799,0,0,0,0,0,0,0,-1,1007,1646,1.45229,-55.2799
-210,-622,1.97565,53.1395,0,0,0,0,0,0,0,-1,1014,1646,1.97565,-53.1395
-203,-622,4.21375,20.9574,0,0,0,0,0,0,0,-1,1021,1646,4.21375,-20.9574
-196,-622,1.69104,57.2128,0,0,0,0,0,0,0,-1,1028,1646,1.69104,-57.2128
-189,-622,1.5022,57.8837,0,0,0,0,0,0,0,-1,1035,1646,1.50224,-57.8837
-182,-622,1.56226,58.7455,0,0,0,0,0,0,0,-1,1042,1646,1.56226,-58.7454
-175,-622,3.61438,53.5428,0,0,0,0,0,0,0,-1,1049,1646,3.61438,-53.5428
-168,-622,3.44849,53.4453,0,0,0,0,0,0,0,-1,1056,1646,3.44848,-53.4453
-161,-622,2.79761,52.5291,0,0,0,0,0,0,0,-1,1063,1646,2.79756,-52.529
-154,-622,2.00879,52.2384,0,0,0,0,0,0,0,-1,1070,1646,2.00874,-52.2384
-147,-622,0.939453,52.2694,0,0,0,0,0,0,0,-1,1077,1646,0.939511,-52.2694
-140,-622,0.546997,48.6783,0,0,0,0,0,0,0,-1,1084,1646,0.547022,-48.6784
-133,-622,3.09644,17.677,0,0,0,0,0,0,0,-1,1091,1646,3.09638,-17.677
-126,-622,3.5061,19.5251,0,0,0,0,0,0,0,-1,1098,1646,3.50616,-19.5252
-119,-622,4.06384,13.1715,0,0,0,0,0,0,0,-1,1105,1646,4.06379,-13.1716
-112,-622,4.33276,14.6605,0,0,0,0,0,0,0,-1,1112,1646,4.33281,-14.6605
-105,-622,0.306519,4.38159,0,0,0,0,0,0,0,-1,1119,1646,0.306536,-4.38159
-98,-622,-0.510376,3.5033,0,0,0,0,0,0,0,-1,1126,1646,-0.510393,-3.50324
-91,-622,-1.146,0.975952,0,0,0,0,0,0,0,-1,1133,1646,-1.14599,-0.97597
-84,-622,-2.04895,1.31787,0,0,0,0,0,0,0,-1,1140,1646,-2.0489,-1.31781
-77,-622,-1.80627,0.332275,0,0,0,0,0,0,0,-1,1147,1646,-1.80622,-0.33223
-70,-622,-3.65588,2.28149,0,0,0,0,0,0,0,-1,1154,1646,-3.65589,-2.28155
-63,-622,-2.49683,1.27087,0,0,0,0,0,0,0,-1,1161,1646,-2.49679,-1.27093
-56,-622,-2.44238,-0.575562,0,0,0,0,0,0,0,-1,1168,1646,-2.44242,0.575508
-49,-622,-2.41089,1.38818,0,0,0,0,0,0,0,-1,1175,1646,-2.41088,-1.38815
-42,-622,-2.71497,2.85242,0,0,0,0,0,0,0,-1,1182,1646,-2.71491,-2.85247
-35,-622,-3.0177,4.25842,0,0,0,0,0,0,0,-1,1189,1646,-3.01773,-4.25838
-28,-622,-0.896606,0.678833,0,0,0,0,0,0,0,-1,1196,1646,-0.89661,-0.678835
-21,-622,16.4141,36.2849,0,0,0,0,0,0,0,-1,1203,1646,16.4141,-36.285
-14,-622,-4.54675,49.5179,0,0,0,0,0,0,0,-1,1210,1646,-4.54671,-49.5179
-7,-622,-3.02295,48.9022,0,0,0,0,0,0,0,-1,1217,1646,-3.0229,-48.9022
0,-622,0,0,0,0,0,0,0,0,0,-1,1224,1646,0,0
7,-622,0,0,0,0,0,0,0,0,0,-1,1231,1646,0,0
14,-622,0,0,0,0,0,0,0,0,0,-1,1238,1646,0,0
21,-622,0,0,0,0,0,0,0,0,0,-1,1245,1646,0,0
28,-622,0,0,0,0,0,0,0,0,0,-1,1252,1646,0,0
35,-622,0,0,0,0,0,0,0,0,0,-1,1259,1646,0,0
42,-622,0,0,0,0,0,0,0,0,0,-1,1266,1646,0,0
49,-622,0,0,0,0,0,0,0,0,0,-1,1273,1646,0,0
56,-622,0,0,0,0,0,0,0,0,0,-1,1280,1646,0,0
63,-622,0,0,0,0,0,0,0,0,0,-1,1287,1646,0,0
70,-622,0,0,0,0,0,0,0,0,0,-1,1294,1646,0,0
77,-622,0,0,0,0,0,0,0,0,0,-1,1301,1646,0,0
84,-622,0,0,0,0,0,0,0,0,0,-1,1308,1646,0,0
91,-622,0,0,0,0,0,0,0,0,0,-1,1315,1646,0,0
98,-622,0,0,0,0,0,0,0,0,0,-1,1322,1646,0,0
105,-622,0,0,0,0,0,0,0,0,0,-1,1329,1646,0,0
112,-622,0,0,0,0,0,0,0,0,0,-1,1336,1646,0,0
119,-622,0,0,0,0,0,0,0,0,0,-1,1343,1646,0,0
126,-622,22.8641,64.2972,0,0,0,0,0,0,0,-1,1350,1646,22.8641,-64.2972
133,-622,24.4869,63.823,0,0,0,0,0,0,0,-1,1357,1646,24.487,-63.8229
140,-622,11.865,69.6938,0,0,0,0,0,0,0,-1,1364,1646,11.865,-69.6939
147,-622,11.3212,69.8832,0,0,0,0,0,0,0,-1,1371,1646,11.3211,-69.8832
154,-622,10.7966,70.0903,0,0,0,0,0,0,0,-1,1378,1646,10.7967,-70.0903
161,-622,10.6884,6.46448,0,0,0,0,0,0,0,-1,1385,1646,10.6883,-6.46442
168,-622,12.2402,5.18091,0,0,0,0,0,0,0,-1,1392,1646,12.2403,-5.1809
175,-622,5.64355,-1.77075,0,0,0,0,0,0,0,-1,1399,1646,5.64351,1.77077
182,-622,5.88586,-1.32251,0,0,0,0,0,0,0,-1,1406,1646,5.88587,1.32256
189,-622,5.97986,-1.18005,0,0,0,0,0,0,0,-1,1413,1646,5.97986,1.18003
196,-622,5.85022,-0.244507,0,0,0,0,0,0,0,-1,1420,1646,5.85026,0.244478
203,-622,5.25159,0.138794,0,0,0,0,0,0,0,-1,1427,1646,5.25162,-0.138822
210,-622,6.66833,0.0397949,0,0,0,0,0,0,0,-1,1434,1646,6.6684,-0.0398278
217,-622,6.12061,0.0506592,0,0,0,0,0,0,0,-1,1441,1646,6.12058,-0.0507181
224,-622,5.57275,0.0616455,0,0,0,0,0,0,0,-1,1448,1646,5.57276,-0.0616084
231,-622,5.31348,1.3949,0,0,0,0,0,0,0,-1,1455,1646,5.31342,-1.39495
238,-622,3.76477,2.90686,0,0,0,0,0,0,0,-1,1462,1646,3.7648,-2.90686
245,-622,5.13794,2.67993,0,0,0,0,0,0,0,-1,1469,1646,5.13796,-2.67992
252,-622,6.66528,2.53992,0,0,0,0,0,0,0,-1,1476,1646,6.66522,-2.53991
259,-622,8.93787,3.31458,0,0,0,0,0,0,0,-1,1483,1646,8.93791,-3.31454
266,-622,5.72644,3.11926,0,0,0,0,0,0,0,-1,1490,1646,5.72647,-3.1192
273,-622,7.28076,3.61218,0,0,0,0,0,0,0,-1,1497,1646,7.28071,-3.61212
280,-622,8.43127,4.4447,0,0,0,0,0,0,0,-1,1504,1646,8.43123,-4.44467
287,-622,8.60315,5.94617,0,0,0,0,0,0,0,-1,1511,1646,8.60319,-5.94622
294,-622,7.62756,11.5143,0,0,0,0,0,0,0,-1,1518,1646,7.62762,-11.5143
301,-622,7.36548,11.6569,0,0,0,0,0,0,0,-1,1525,1646,7.36549,-11.6569
308,-622,7.10339,11.7994,0,0,0,0,0,0,0,-1,1532,1646,7.10335,-11.7995
315,-622,8.28687,16.5842,0,0,0,0,0,0,0,-1,1539,1646,8.28689,-16.5843
322,-622,7.43689,20.5786,0,0,0,0,0,0,0,-1,1546,1646,7.43685,-20.5786
329,-622,9.76477,26.4202,0,0,0,0,0,0,0,-1,1553,1646,9.7648,-26.4202
336,-622,10.4526,28.8552,0,0,0,0,0,0,0,-1,1560,1646,10.4526,-28.8552
343,-622,16.2339,55.6134,0,0,0,0,0,0,0,-1,1567,1646,16.2339,-55.6134
350,-622,16.2052,54.8794,0.0155401,0.0173113,-0.00730489,0.0237841,0.0090673,-0.845723,0.0138603,0.0491459,1574,1646,16.2052,-54.8794
357,-622,16.3351,54.073,0.013973,0.0156495,-0.00655419,0.0214188,0.00820367,-0.848998,0.0124785,0.0387807,1581,1646,16.3351,-54.0729
364,-622,16.4725,53.2515,0.0123901,0.0138743,-0.00573592,0.0189159,0.00734848,-0.849733,0.0110113,0.0331093,1588,1646,16.4725,-53.2515
371,-622,16.5123,52.5327,0.0108314,0.0118816,-0.0047148,0.0161005,0.00661256,-0.84086,0.00934489,0.019958,1595,1646,16.5123,-52.5328
378,-622,16.5337,51.8358,0.00924486,0.00997678,-0.00375446,0.0133831,0.00583857,-0.833981,0.00774762,0.0124251,1602,1646,16.5337,-51.8358
385,-622,16.5034,51.1582,0.00781609,0.00822209,-0.00291807,0.0109442,0.00509397,-0.820126,0.00632367,0.0103298,1609,1646,16.5034,-51.1583
392,-622,16.4767,50.4932,0.00641384,0.00665475,-0.00222104,0.0087586,0.00430999,-0.812488,0.00505699,0.0115741,1616,1646,16.4767,-50.4932
399,-622,16.4451,49.8143,0.00521073,0.00535526,-0.00180022,0.00708466,0.00348133,-0.805458,0.00409053,0.0116254,1623,1646,16.445,-49.8143
406,-622,16.4084,49.1133,0.00427392,0.00405122,-0.00146311,0.00562992,0.00269523,-0.747419,0.00325141,0.0149737,1630,1646,16.4084,-49.1133
413,-622,16.4063,48.4272,0.00369481,0.00308325,-0.00143683,0.00485803,0.00192003,-0.680555,0.00282524,0.0177645,1637,1646,16.4063,-48.4273
420,-622,16.4089,47.7861,0.00339388,0.00238816,-0.00163039,0.0045972,0.00118484,-0.635811,0.0027561,0.0178083,1644,1646,16.4089,-47.7861
427,-622,16.3923,47.0691,0.00315247,0.00168893,-0.00196281,0.00451548,0.000325918,-0.60697,0.00290778,0.0143272,1651,1646,16.3923,-47.0691
434,-622,16.3636,46.3677,0.00330242,0.0011673,-0.00239174,0.00485404,-0.00038432,-0.57549,0.00337144,0.0153046,1658,1646,16.3636,-46.3677
441,-622,16.3191,45.6843,0.00364833,0.0006555,-0.00294023,0.00545103,-0.00114721,-0.550009,0.00407067,0.0154415,1665,1646,16.3191,-45.6844
448,-622,16.2772,44.98,0.00417071,0.000193022,-0.00360857,0.00630222,-0.00193848,-0.533537,0.00497516,0.0146213,1672,1646,16.2773,-44.98
455,-622,16.2296,44.2471,0.00479557,-0.000328572,-0.00428531,0.0072263,-0.00275931,-0.515971,0.00595437,0.0165144,1679,1646,16.2296,-44.2471
462,-622,16.2092,43.5402,0.00538809,-0.000976288,-0.00488365,0.00803483,-0.00362303,-0.496649,0.00688945,0.0176059,1686,1646,16.2092,-43.5401
469,-622,16.1733,42.8148,0.00595017,-0.00137098,-0.00550309,0.00889897,-0.00431978,-0.49191,0.007783,0.0205895,1693,1646,16.1733,-42.8148
476,-622,16.2754,42.0518,0.00630866,-0.00157464,-0.00586782,0.00943581,-0.0047018,-0.489645,0.00831349,0.0417678,1700,1646,16.2754,-42.0517
483,-622,16.4003,41.1639,0,0,0,0,0,0,0,-1,1707,1646,16.4002,-41.1639
490,-622,15.8815,36.627,0,0,0,0,0,0,0,-1,1714,1646,15.8814,-36.6269
497,-622,14.9666,32.1024,0,0,0,0,0,0,0,-1,1721,1646,14.9665,-32.1024
504,-622,10.8306,19.8021,0,0,0,0,0,0,0,-1,1728,1646,10.8306,-19.8022
511,-622,5.29004,4.14587,0,0,0,0,0,0,0,-1,1735,1646,5.29008,-4.14589
518,-622,5.6001,1.55359,0,0,0,0,0,0,0,-1,1742,1646,5.60015,-1.5536
525,-622,5.83093,2.01807,0,0,0,0,0,0,0,-1,1749,1646,5.83097,-2.01802
532,-622,5.44202,0.57373,0,0,0,0,0,0,0,-1,1756,1646,5.44196,-0.573705
539,-622,9.32129,1.06116,0,0,0,0,0,0,0,-1,1763,1646,9.32131,-1.0612
546,-622,6.50977,-3.45618,0,0,0,0,0,0,0,-1,1770,1646,6.50981,3.4562
553,-622,0,0,0,0,0,0,0,0,0,-1,1777,1646,0,0
560,-622,0,0,0,0,0,0,0,0,0,-1,1784,1646,0,0
567,-622,0,0,0,0,0,0,0,0,0,-1,1791,1646,0,0
574,-622,0,0,0,0,0,0,0,0,0,-1,1798,1646,0,0
581,-622,0,0,0,0,0,0,0,0,0,-1,1805,1646,0,0
588,-622,0,0,0,0,0,0,0,0,0,-1,1812,1646,0,0
595,-622,0,0,0,0,0,0,0,0,0,-1,1819,1646,0,0
602,-622,0,0,0,0,0,0,0,0,0,-1,1826,1646,0,0
609,-622,0,0,0,0,0,0,0,0,0,-1,1833,1646,0,0
616,-622,0,0,0,0,0,0,0,0,0,-1,1840,1646,0,0
623,-622,0,0,0,0,0,0,0,0,0,-1,1847,1646,0,0
630,-622,0,0,0,0,0,0,0,0,0,-1,1854,1646,0,0
637,-622,0,0,0,0,0,0,0,0,0,-1,1861,1646,0,0
644,-622,0,0,0,0,0,0,0,0,0,-1,1868,1646,0,0
651,-622,0,0,0,0,0,0,0,0,0,-1,1875,1646,0,0
658,-622,0,0,0,0,0,0,0,0,0,-1,1882,1646,0,0
665,-622,0,0,0,0,0,0,0,0,0,-1,1889,1646,0,0
672,-622,0,0,0,0,0,0,0,0,0,-1,1896,1646,0,0
679,-622,0,0,0,0,0,0,0,0,0,-1,1903,1646,0,0
686,-622,0,0,0,0,0,0,0,0,0,-1,1910,1646,0,0
693,-622,0,0,0,0,0,0,0,0,0,-1,1917,1646,0,0
700,-622,0,0,0,0,0,0,0,0,0,-1,1924,1646,0,0
707,-622,0,0,0,0,0,0,0,0,0,-1,1931,1646,0,0
714,-622,0,0,0,0,0,0,0,0,0,-1,1938,1646,0,0
721,-622,0,0,0,0,0,0,0,0,0,-1,1945,1646,0,0
728,-622,0,0,0,0,0,0,0,0,0,-1,1952,1646,0,0
735,-622,0,0,0,0,0,0,0,0,0,-1,1959,1646,0,0
742,-622,0,0,0,0,0,0,0,0,0,-1,1966,1646,0,0
749,-622,0,0,0,0,0,0,0,0,0,-1,1973,1646,0,0
756,-622,0,0,0,0,0,0,0,0,0,-1,1980,1646,0,0
763,-622,0,0,0,0,0,0,0,0,0,-1,1987,1646,0,0
770,-622,0,0,0,0,0,0,0,0,0,-1,1994,1646,0,0
777,-622,0,0,0,0,0,0,0,0,0,-1,2001,1646,0,0
784,-622,0,0,0,0,0,0,0,0,0,-1,2008,1646,0,0
791,-622,0,0,0,0,0,0,0,0,0,-1,2015,1646,0,0
798,-622,0,0,0,0,0,0,0,0,0,-1,2022,1646,0,0
805,-622,0,0,0,0,0,0,0,0,0,-1,2029,1646,0,0
812,-622,0,0,0,0,0,0,0,0,0,-1,2036,1646,0,0
-700,-629,0,0,0,0,0,0,0,0,0,-1,524,1653,0,0
-693,-629,0,0,0,0,0,0,0,0,0,-1,531,1653,0,0
-686,-629,0,0,0,0,0,0,0,0,0,-1,538,1653,0,0
-679,-629,0,0,0,0,0,0,0,0,0,-1,545,1653,0,0
-672,-629,0,0,0,0,0,0,0,0,0,-1,552,1653,0,0
-665,-629,0,0,0,0,0,0,0,0,0,-1,559,1653,0,0
-658,-629,0,0,0,0,0,0,0,0,0,-1,566,1653,0,0
-651,-629,0,0,0,0,0,0,0,0,0,-1,573,1653,0,0
-644,-629,0,0,0,0,0,0,0,0,0,-1,580,1653,0,0
-637,-629,0,0,0,0,0,0,0,0,0,-1,587,1653,0,0
-630,-629,0,0,0,0,0,0,0,0,0,-1,594,1653,0,0
-623,-629,0,0,0,0,0,0,0,0,0,-1,601,1653,0,0
-616,-629,0,0,0,0,0,0,0,0,0,-1,608,1653,0,0
-609,-629,0,0,0,0,0,0,0,0,0,-1,615,1653,0,0
-602,-629,0,0,0,0,0,0,0,0,0,-1,622,1653,0,0
-595,-629,0,0,0,0,0,0,0,0,0,-1,629,1653,0,0
-588,-629,0,0,0,0,0,0,0,0,0,-1,636,1653,0,0
-581,-629,0,0,0,0,0,0,0,0,0,-1,643,1653,0,0
-574,-629,0,0,0,0,0,0,0,0,0,-1,650,1653,0,0
-567,-629,0,0,0,0,0,0,0,0,0,-1,657,1653,0,0
-560,-629,0,0,0,0,0,0,0,0,0,-1,664,1653,0,0
-553,-629,0,0,0,0,0,0,0,0,0,-1,671,1653,0,0
-546,-629,0,0,0,0,0,0,0,0,0,-1,678,1653,0,0
-539,-629,0,0,0,0,0,0,0,0,0,-1,685,1653,0,0
-532,-629,0,0,0,0,0,0,0,0,0,-1,692,1653,0,0
-525,-629,0,0,0,0,0,0,0,0,0,-1,699,1653,0,0
-518,-629,0,0,0,0,0,0,0,0,0,-1,706,1653,0,0
-511,-629,0,0,0,0,0,0,0,0,0,-1,713,1653,0,0
-504,-629,0,0,0,0,0,0,0,0,0,-1,720,1653,0,0
-497,-629,0,0,0,0,0,0,0,0,0,-1,727,1653,0,0
-490,-629,0,0,0,0,0,0,0,0,0,-1,734,1653,0,0
-483,-629,0,0,0,0,0,0,0,0,0,-1,741,1653,0,0
-476,-629,0,0,0,0,0,0,0,0,0,-1,748,1653,0,0
-469,-629,0,0,0,0,0,0,0,0,0,-1,755,1653,0,0
-462,-629,0,0,0,0,0,0,0,0,0,-1,762,1653,0,0
-455,-629,0,0,0,0,0,0,0,0,0,-1,769,1653,0,0
-448,-629,0,0,0,0,0,0,0,0,0,-1,776,1653,0,0
-441,-629,0,0,0,0,0,0,0,0,0,-1,783,1653,0,0
-434,-629,0,0,0,0,0,0,0,0,0,-1,790,1653,0,0
-427,-629,0,0,0,0,0,0,0,0,0,-1,797,1653,0,0
-420,-629,-3.87103,3.37634,0,0,0,0,0,0,0,-1,804,1653,-3.87101,-3.37633
-413,-629,-5.69751,1.33582,0,0,0,0,0,0,0,-1,811,1653,-5.69754,-1.3358
-406,-629,2.85406,6.01501,0,0,0,0,0,0,0,-1,818,1653,2.85405,-6.01507
-399,-629,-0.455627,10.8687,0,0,0,0,0,0,0,-1,825,1653,-0.455625,-10.8687
-392,-629,1.15369,11.1295,0,0,0,0,0,0,0,-1,832,1653,1.1537,-11.1295
-385,-629,1.81976,11.6935,0,0,0,0,0,0,0,-1,839,1653,1.81975,-11.6935
-378,-629,2.19452,14.7941,0,0,0,0,0,0,0,-1,846,1653,2.19451,-14.7941
-371,-629,3.60114,14.7299,0,0,0,0,0,0,0,-1,853,1653,3.60113,-14.7299
-364,-629,3.26898,21.0801,0,0,0,0,0,0,0,-1,860,1653,3.26895,-21.08
-357,-629,4.38782,16.3444,0,0,0,0,0,0,0,-1,867,1653,4.38783,-16.3443
-350,-629,2.41467,42.2731,0,0,0,0,0,0,0,-1,874,1653,2.4147,-42.273
-343,-629,2.15735,42.9191,0,0,0,0,0,0,0,-1,881,1653,2.15737,-42.919
-336,-629,2.2254,43.6042,0.00625875,0.000943517,0.00641947,0.010549,-0.00334671,0.589143,0.00837418,0.0192003,888,1653,2.22543,-43.6043
-329,-629,2.18683,44.3314,0.00526792,0.000958126,0.00549093,0.00901167,-0.00278561,0.598409,0.00712032,0.0118481,895,1653,2.18681,-44.3314
-322,-629,2.14813,45.0548,0.00440889,0.00104726,0.00472463,0.00774278,-0.00228663,0.614501,0.00606938,0.0124311,902,1653,2.14813,-45.0548
-315,-629,2.08551,45.78,0.00364085,0.00128063,0.00409692,0.00672424,-0.00180276,0.64517,0.0051892,0.0161987,909,1653,2.08551,-45.78
-308,-629,2.03766,46.5118,0.00301738,0.00163678,0.00351946,0.0059136,-0.00125944,0.688558,0.0044224,0.0132705,916,1653,2.03765,-46.5118
-301,-629,2.02936,47.2678,0.00261178,0.00206174,0.0031282,0.00547702,-0.000803507,0.741552,0.00394655,0.0116243,923,1653,2.02938,-47.2678
-294,-629,2.00122,47.9779,0.00242823,0.00256304,0.00286748,0.0053639,-0.000372634,0.797149,0.0037064,0.0118309,930,1653,2.00122,-47.9779
-287,-629,1.9549,48.6726,0.00238957,0.00311727,0.00269099,0.00546889,3.79463e-05,0.852596,0.00363334,0.009517,937,1653,1.95491,-48.6726
-280,-629,1.91254,49.3668,0.00254833,0.00379139,0.00258065,0.0058243,0.000515425,0.903569,0.00372297,0.0101879,944,1653,1.91251,-49.3669
-273,-629,1.87415,50.0386,0.00290615,0.00441609,0.00259389,0.00636265,0.000959589,0.927014,0.00396084,0.0142543,951,1653,1.87417,-50.0385
-266,-629,1.84998,50.7498,0.00332438,0.00501475,0.00262501,0.00692728,0.00141184,0.941144,0.00422692,0.0142896,958,1653,1.84997,-50.7498
-259,-629,1.84082,51.4808,0.00402119,0.00575183,0.00271113,0.00773239,0.00204064,0.939875,0.00462722,0.0147344,965,1653,1.84084,-51.4809
-252,-629,1.81836,52.1208,0.00483757,0.00646005,0.00273995,0.00850634,0.00279129,0.929326,0.00500691,0.0119885,972,1653,1.81836,-52.1209
-245,-629,1.82312,52.7826,0.00566236,0.00692053,0.00278,0.00914174,0.00344115,0.896669,0.00533145,0.00906414,979,1653,1.82309,-52.7826
-238,-629,1.81403,53.4287,0.00637163,0.00686592,0.0030169,0.00964578,0.00359177,0.826267,0.00562915,0.0115779,986,1653,1.81401,-53.4287
-231,-629,1.76917,54.0577,0.00684546,0.00694634,0.00329891,0.0101952,0.0035966,0.793043,0.00597065,0.0152474,993,1653,1.76915,-54.0577
-224,-629,1.86816,54.7898,0.00726973,0.00653496,0.00353056,0.010452,0.00335272,0.733556,0.00616232,0.0174355,1000,1653,1.86818,-54.7898
-217,-629,1.82623,55.3527,0.00768111,0.00579553,0.00396534,0.0108142,0.00266244,0.668686,0.00650618,0.0286894,1007,1653,1.82626,-55.3527
-210,-629,1.9162,56.0713,0,0,0,0,0,0,0,-1,1014,1653,1.91618,-56.0712
-203,-629,1.83368,57.2194,0,0,0,0,0,0,0,-1,1021,1653,1.83371,-57.2194
-196,-629,2.2887,56.8323,0,0,0,0,0,0,0,-1,1028,1653,2.28873,-56.8322
-189,-629,2.20923,57.5743,0.00788719,0.00285268,0.00694637,0.0127583,-0.00201848,0.611566,0.00925208,0.0416197,1035,1653,2.20926,-57.5743
-182,-629,2.1228,58.5276,0.00731026,0.00307333,0.00839997,0.0138548,-0.0034712,0.661874,0.010585,0.0463256,1042,1653,2.12277,-58.5276
-175,-629,2.37598,59.1495,0,0,0,0,0,0,0,-1,1049,1653,2.37598,-59.1495
-168,-629,3.94775,55.7037,0,0,0,0,0,0,0,-1,1056,1653,3.94774,-55.7038
-161,-629,3.2146,53.0543,0,0,0,0,0,0,0,-1,1063,1653,3.21462,-53.0543
-154,-629,2.30042,52.7101,0,0,0,0,0,0,0,-1,1070,1653,2.30043,-52.7101
-147,-629,1.22363,52.6086,0,0,0,0,0,0,0,-1,1077,1653,1.22368,-52.6087
-140,-629,3.68201,55.7941,0,0,0,0,0,0,0,-1,1084,1653,3.68206,-55.7941
-133,-629,1.99792,57.769,0,0,0,0,0,0,0,-1,1091,1653,1.99792,-57.769
-126,-629,4.01025,19.5328,0,0,0,0,0,0,0,-1,1098,1653,4.01022,-19.5328
-119,-629,4.94177,13.5525,0,0,0,0,0,0,0,-1,1105,1653,4.94172,-13.5525
-112,-629,5.63123,15.9187,0,0,0,0,0,0,0,-1,1112,1653,5.63118,-15.9187
-105,-629,2.15881,4.38342,0,0,0,0,0,0,0,-1,1119,1653,2.15878,-4.38347
-98,-629,0.825806,4.19385,0,0,0,0,0,0,0,-1,1126,1653,0.825779,-4.1939
-91,-629,-0.452271,3.64465,0,0,0,0,0,0,0,-1,1133,1653,-0.452278,-3.6446
-84,-629,-2.6084,0.466797,0,0,0,0,0,0,0,-1,1140,1653,-2.6084,-0.466786
-77,-629,-3.50903,2.10706,0,0,0,0,0,0,0,-1,1147,1653,-3.509,-2.10707
-70,-629,-1.20886,2.52502,0,0,0,0,0,0,0,-1,1154,1653,-1.20886,-2.525
-63,-629,-0.960693,4.30212,0,0,0,0,0,0,0,-1,1161,1653,-0.960691,-4.30215
-56,-629,-1.31934,5.64343,0,0,0,0,0,0,0,-1,1168,1653,-1.31928,-5.6434
-49,-629,-2.15662,2.57458,0,0,0,0,0,0,0,-1,1175,1653,-2.15656,-2.57459
-42,-629,-2.46326,3.91467,0,0,0,0,0,0,0,-1,1182,1653,-2.4633,-3.91466
-35,-629,-2.67261,5.24292,0,0,0,0,0,0,0,-1,1189,1653,-2.67257,-5.24298
-28,-629,-0.402954,-0.866577,0,0,0,0,0,0,0,-1,1196,1653,-0.402943,0.866612
-21,-629,3.45508,27.0596,0,0,0,0,0,0,0,-1,1203,1653,3.45508,-27.0596
-14,-629,-2.63892,51.2357,0,0,0,0,0,0,0,-1,1210,1653,-2.63893,-51.2357
-7,-629,7.30115,71.0272,0,0,0,0,0,0,0,-1,1217,1653,7.30113,-71.0272
0,-629,7.57568,70.8751,0,0,0,0,0,0,0,-1,1224,1653,7.57572,-70.8752
7,-629,7.63159,70.8275,0,0,0,0,0,0,0,-1,1231,1653,7.63165,-70.8275
14,-629,8.12439,70.2998,0.0852754,0.0901718,-0.0244842,0.11233,0.0631173,-0.835228,0.0650191,0.0451235,1238,1653,8.12434,-70.2998
21,-629,8.58606,70.0372,0.0807761,0.11384,-0.0147499,0.119463,0.0751525,-1.20655,0.0697341,0.0474353,1245,1653,8.58605,-70.0372
28,-629,9.08789,69.712,0,0,0,0,0,0,0,-1,1252,1653,9.08788,-69.712
35,-629,9.99121,69.1497,0.0722501,0.17091,-0.000932208,0.170919,0.0722413,-1.56135,0.0990729,0.0467706,1259,1653,9.99116,-69.1496
42,-629,10.8508,69.2493,0.0678995,0.198858,0.00170487,0.19888,0.0678773,1.55778,0.116735,0.0459636,1266,1653,10.8508,-69.2493
49,-629,11.0865,69.9515,0.0669708,0.23059,0.000117312,0.23059,0.0669707,1.57008,0.136974,0.0445286,1273,1653,11.0865,-69.9516
56,-629,11.3639,70.6165,0.0693832,0.256879,-0.00311707,0.25693,0.0693314,-1.55418,0.153488,0.0499509,1280,1653,11.3639,-70.6165
63,-629,11.5331,71.2983,0.0754314,0.276966,-0.00672688,0.277191,0.0752071,-1.53747,0.165522,0.0480258,1287,1653,11.5331,-71.2983
70,-629,11.9216,71.3801,0.0899057,0.280347,-0.00749994,0.280642,0.0896108,-1.5315,0.165518,0.0475745,1294,1653,11.9217,-71.3802
77,-629,12.1912,71.7476,0,0,0,0,0,0,0,-1,1301,1653,12.1912,-71.7475
84,-629,12.2528,67.6501,0.126257,0.265058,-0.00954832,0.265712,0.125603,-1.50243,0.153485,0.0457728,1308,1653,12.2528,-67.6501
91,-629,12.5011,67.5389,0.144575,0.254328,-0.00787376,0.25489,0.144013,-1.49954,0.147575,0.0464797,1315,1653,12.501,-67.539
98,-629,12.9459,67.3214,0,0,0,0,0,0,0,-1,1322,1653,12.9459,-67.3214
105,-629,17.9426,64.4747,0,0,0,0,0,0,0,-1,1329,1653,17.9426,-64.4747
112,-629,19.4674,64.0997,0,0,0,0,0,0,0,-1,1336,1653,19.4674,-64.0997
119,-629,20.8793,63.776,0.242874,0.1575,0.0342816,0.254935,0.145438,0.338311,0.147674,0.045843,1343,1653,20.8792,-63.776
126,-629,22.4412,63.4292,0.268759,0.132046,0.054171,0.287621,0.113184,0.335069,0.167309,0.0461739,1350,1653,22.4411,-63.4292
133,-629,24.0897,62.942,0,0,0,0,0,0,0,-1,1357,1653,24.0897,-62.942
140,-629,11.1543,70.0203,0,0,0,0,0,0,0,-1,1364,1653,11.1543,-70.0202
147,-629,10.6603,70.3171,0,0,0,0,0,0,0,-1,1371,1653,10.6602,-70.3172
154,-629,6.41516,53.151,0,0,0,0,0,0,0,-1,1378,1653,6.41517,-53.151
161,-629,10.5461,6.83752,0,0,0,0,0,0,0,-1,1385,1653,10.5461,-6.83758
168,-629,12.0059,5.56348,0,0,0,0,0,0,0,-1,1392,1653,12.0059,-5.56352
175,-629,5.84485,-1.78845,0,0,0,0,0,0,0,-1,1399,1653,5.84479,1.7884
182,-629,5.99036,-1.27783,0,0,0,0,0,0,0,-1,1406,1653,5.99041,1.27778
189,-629,5.97668,-0.748535,0,0,0,0,0,0,0,-1,1413,1653,5.97671,0.748544
196,-629,4.52869,9.24695,0,0,0,0,0,0,0,-1,1420,1653,4.52869,-9.2469
203,-629,3.75085,6.88037,0,0,0,0,0,0,0,-1,1427,1653,3.75087,-6.88032
210,-629,3.5907,6.52637,0,0,0,0,0,0,0,-1,1434,1653,3.59067,-6.52642
217,-629,2.4585,4.84448,0,0,0,0,0,0,0,-1,1441,1653,2.45855,-4.84448
224,-629,1.31982,3.68481,0,0,0,0,0,0,0,-1,1448,1653,1.31986,-3.68487
231,-629,3.63025,1.73499,0,0,0,0,0,0,0,-1,1455,1653,3.6303,-1.735
238,-629,4.26428,2.11255,0,0,0,0,0,0,0,-1,1462,1653,4.26429,-2.11253
245,-629,5.61816,1.95361,0,0,0,0,0,0,0,-1,1469,1653,5.61815,-1.95359
252,-629,7.27136,2.18982,0,0,0,0,0,0,0,-1,1476,1653,7.27131,-2.18985
259,-629,8.67334,2.18628,0,0,0,0,0,0,0,-1,1483,1653,8.6733,-2.18633
266,-629,6.86475,3.72058,0,0,0,0,0,0,0,-1,1490,1653,6.86479,-3.72063
273,-629,7.9021,3.8717,0,0,0,0,0,0,0,-1,1497,1653,7.90205,-3.87171
280,-629,9.70837,4.39087,0,0,0,0,0,0,0,-1,1504,1653,9.7084,-4.39082
287,-629,9.82947,7.19348,0,0,0,0,0,0,0,-1,1511,1653,9.8295,-7.19347
294,-629,6.56555,11.6359,0,0,0,0,0,0,0,-1,1518,1653,6.5656,-11.6358
301,-629,13.903,44.4862,0,0,0,0,0,0,0,-1,1525,1653,13.903,-44.4862
308,-629,6.08264,12.1423,0,0,0,0,0,0,0,-1,1532,1653,6.08263,-12.1423
315,-629,6.82043,18.2764,0,0,0,0,0,0,0,-1,1539,1653,6.82049,-18.2764
322,-629,14.1931,43.8071,0,0,0,0,0,0,0,-1,1546,1653,14.1931,-43.8071
329,-629,15.6775,56.1074,0,0,0,0,0,0,0,-1,1553,1653,15.6775,-56.1074
336,-629,15.3953,55.5818,0,0,0,0,0,0,0,-1,1560,1653,15.3952,-55.5817
343,-629,15.631,55.085,0,0,0,0,0,0,0,-1,1567,1653,15.631,-55.085
350,-629,15.906,54.5149,0.0111971,0.0133284,-0.00589703,0.0182553,0.00627021,-0.874786,0.0107105,0.0331306,1574,1653,15.906,-54.5149
357,-629,15.9263,53.7764,0.0100988,0.0120913,-0.00536364,0.0165504,0.00563968,-0.87722,0.00971559,0.0165002,1581,1653,15.9263,-53.7763
364,-629,15.879,53.1326,0.00900428,0.0107641,-0.00478543,0.0147498,0.00501854,-0.876319,0.0086595,0.014527,1588,1653,15.8791,-53.1326
371,-629,15.8573,52.4845,0.00793443,0.00925058,-0.00402778,0.0126737,0.00451132,-0.866375,0.00741767,0.012535,1595,1653,15.8573,-52.4845
378,-629,15.8448,51.8241,0.00683746,0.00779738,-0.00330717,0.0106592,0.0039756,-0.857458,0.00621996,0.0113365,1602,1653,15.8448,-51.8241
385,-629,15.8252,51.1891,0.0058722,0.00645806,-0.00270034,0.00888131,0.00344895,-0.839427,0.00517007,0.0133364,1609,1653,15.8253,-51.1891
392,-629,15.807,50.5405,0.00493689,0.0052581,-0.00225044,0.00735366,0.00284133,-0.821021,0.00428202,0.0116573,1616,1653,15.807,-50.5405
399,-629,15.7808,49.8593,0.00409339,0.00425849,-0.00201114,0.00618877,0.00216311,-0.80591,0.00362663,0.0112218,1623,1653,15.7808,-49.8592
406,-629,15.757,49.1389,0.00348351,0.00314819,-0.00182877,0.00515229,0.00147941,-0.739686,0.00306321,0.0150926,1630,1653,15.7569,-49.1389
413,-629,15.7303,48.4448,0.00324266,0.00236068,-0.00196388,0.00481446,0.000788883,-0.674956,0.00298167,0.0259759,1637,1653,15.7303,-48.4448
420,-629,15.6744,47.8136,0.00324762,0.00179977,-0.00229194,0.00492725,0.000120144,-0.632428,0.00324553,0.0242105,1644,1653,15.6744,-47.8136
427,-629,15.6924,47.1348,0.00339515,0.00122388,-0.00275569,0.00527135,-0.000652311,-0.597754,0.00375063,0.0163139,1651,1653,15.6924,-47.1347
434,-629,15.6797,46.4285,0.00382471,0.000795409,-0.00336094,0.00599653,-0.00137641,-0.573695,0.00452679,0.0146648,1658,1653,15.6797,-46.4284
441,-629,15.6279,45.7156,0.0044539,0.000325715,-0.00408458,0.0069663,-0.00218669,-0.551444,0.00551942,0.016681,1665,1653,15.628,-45.7155
448,-629,15.5848,44.9894,0.00532213,-0.000170885,-0.00492022,0.00821051,-0.00305926,-0.530837,0.00672936,0.0160419,1672,1653,15.5848,-44.9894
455,-629,15.5276,44.2523,0.0063238,-0.000742988,-0.00575712,0.00954536,-0.00396454,-0.510166,0.00801871,0.0150132,1679,1653,15.5276,-44.2524
462,-629,15.5315,43.595,0.0073346,-0.00146364,-0.00655624,0.0108308,-0.00495987,-0.489906,0.00932444,0.0212084,1686,1653,15.5315,-43.595
469,-629,15.5365,42.8414,0.00834838,-0.00185352,-0.00743025,0.0122601,-0.00576524,-0.48459,0.0106297,0.0350061,1693,1653,15.5364,-42.8414
476,-629,15.6533,42.0515,0,0,0,0,0,0,0,-1,1700,1653,15.6533,-42.0516
483,-629,14.0381,30.967,0,0,0,0,0,0,0,-1,1707,1653,14.0381,-30.9671
490,-629,13.9072,28.8588,0,0,0,0,0,0,0,-1,1714,1653,13.9072,-28.8587
497,-629,10.3662,19.8605,0,0,0,0,0,0,0,-1,1721,1653,10.3662,-19.8605
504,-629,7.89453,15.5316,0,0,0,0,0,0,0,-1,1728,1653,7.89447,-15.5316
511,-629,6.29138,3.40295,0,0,0,0,0,0,0,-1,1735,1653,6.29137,-3.403
518,-629,5.84387,1.41858,0,0,0,0,0,0,0,-1,1742,1653,5.84391,-1.4186
525,-629,6.4729,1.02319,0,0,0,0,0,0,0,-1,1749,1653,6.47284,-1.02316
532,-629,6.86511,0.903687,0,0,0,0,0,0,0,-1,1756,1653,6.86514,-0.903691
539,-629,6.60803,0.746704,0,0,0,0,0,0,0,-1,1763,1653,6.60809,-0.746691
546,-629,0,0,0,0,0,0,0,0,0,-1,1770,1653,0,0
553,-629,0,0,0,0,0,0,0,0,0,-1,1777,1653,0,0
560,-629,0,0,0,0,0,0,0,0,0,-1,1784,1653,0,0
567,-629,0,0,0,0,0,0,0,0,0,-1,1791,1653,0,0
574,-629,0,0,0,0,0,0,0,0,0,-1,1798,1653,0,0
581,-629,0,0,0,0,0,0,0,0,0,-1,1805,1653,0,0
588,-629,0,0,0,0,0,0,0,0,0,-1,1812,1653,0,0
595,-629,0,0,0,0,0,0,0,0,0,-1,1819,1653,0,0
602,-629,0,0,0,0,0,0,0,0,0,-1,1826,1653,0,0
609,-629,0,0,0,0,0,0,0,0,0,-1,1833,1653,0,0
616,-629,0,0,0,0,0,0,0,0,0,-1,1840,1653,0,0
623,-629,0,0,0,0,0,0,0,0,0,-1,1847,1653,0,0
630,-629,0,0,0,0,0,0,0,0,0,-1,1854,1653,0,0
637,-629,0,0,0,0,0,0,0,0,0,-1,1861,1653,0,0
644,-629,0,0,0,0,0,0,0,0,0,-1,1868,1653,0,0
651,-629,0,0,0,0,0,0,0,0,0,-1,1875,1653,0,0
658,-629,0,0,0,0,0,0,0,0,0,-1,1882,1653,0,0
665,-629,0,0,0,0,0,0,0,0,0,-1,1889,1653,0,0
672,-629,0,0,0,0,0,0,0,0,0,-1,1896,1653,0,0
679,-629,0,0,0,0,0,0,0,0,0,-1,1903,1653,0,0
686,-629,0,0,0,0,0,0,0,0,0,-1,1910,1653,0,0
693,-629,0,0,0,0,0,0,0,0,0,-1,1917,1653,0,0
700,-629,0,0,0,0,0,0,0,0,0,-1,1924,1653,0,0
707,-629,0,0,0,0,0,0,0,0,0,-1,1931,1653,0,0
714,-629,0,0,0,0,0,0,0,0,0,-1,1938,1653,0,0
721,-629,0,0,0,0,0,0,0,0,0,-1,1945,1653,0,0
728,-629,0,0,0,0,0,0,0,0,0,-1,1952,1653,0,0
735,-629,0,0,0,0,0,0,0,0,0,-1,1959,1653,0,0
742,-629,0,0,0,0,0,0,0,0,0,-1,1966,1653,0,0
749,-629,0,0,0,0,0,0,0,0,0,-1,1973,1653,0,0
756,-629,0,0,0,0,0,0,0,0,0,-1,1980,1653,0,0
763,-629,0,0,0,0,0,0,0,0,0,-1,1987,1653,0,0
770,-629,0,0,0,0,0,0,0,0,0,-1,1994,1653,0,0
777,-629,0,0,0,0,0,0,0,0,0,-1,2001,1653,0,0
784,-629,0,0,0,0,0,0,0,0,0,-1,2008,1653,0,0
791,-629,0,0,0,0,0,0,0,0,0,-1,2015,1653,0,0
798,-629,0,0,0,0,0,0,0,0,0,-1,2022,1653,0,0
805,-629,0,0,0,0,0,0,0,0,0,-1,2029,1653,0,0
812,-629,0,0,0,0,0,0,0,0,0,-1,2036,1653,0,0
-700,-636,0,0,0,0,0,0,0,0,0,-1,524,1660,0,0
-693,-636,0,0,0,0,0,0,0,0,0,-1,531,1660,0,0
-686,-636,0,0,0,0,0,0,0,0,0,-1,538,1660,0,0
-679,-636,0,0,0,0,0,0,0,0,0,-1,545,1660,0,0
-672,-636,0,0,0,0,0,0,0,0,0,-1,552,1660,0,0
-665,-636,0,0,0,0,0,0,0,0,0,-1,559,1660,0,0
-658,-636,0,0,0,0,0,0,0,0,0,-1,566,1660,0,0
-651,-636,0,0,0,0,0,0,0,0,0,-1,573,1660,0,0
-644,-636,0,0,0,0,0,0,0,0,0,-1,580,1660,0,0
-637,-636,0,0,0,0,0,0,0,0,0,-1,587,1660,0,0
-630,-636,0,0,0,0,0,0,0,0,0,-1,594,1660,0,0
-623,-636,0,0,0,0,0,0,0,0,0,-1,601,1660,0,0
-616,-636,0,0,0,0,0,0,0,0,0,-1,608,1660,0,0
-609,-636,0,0,0,0,0,0,0,0,0,-1,615,1660,0,0
-602,-636,0,0,0,0,0,0,0,0,0,-1,622,1660,0,0
-595,-636,0,0,0,0,0,0,0,0,0,-1,629,1660,0,0
-588,-636,0,0,0,0,0,0,0,0,0,-1,636,1660,0,0
-581,-636,0,0,0,0,0,0,0,0,0,-1,643,1660,0,0
-574,-636,0,0,0,0,0,0,0,0,0,-1,650,1660,0,0
-567,-636,0,0,0,0,0,0,0,0,0,-1,657,1660,0,0
-560,-636,0,0,0,0,0,0,0,0,0,-1,664,1660,0,0
-553,-636,0,0,0,0,0,0,0,0,0,-1,671,1660,0,0
-546,-636,0,0,0,0,0,0,0,0,0,-1,678,1660,0,0
-539,-636,0,0,0,0,0,0,0,0,0,-1,685,1660,0,0
-532,-636,0,0,0,0,0,0,0,0,0,-1,692,1660,0,0
-525,-636,0,0,0,0,0,0,0,0,0,-1,699,1660,0,0
-518,-636,0,0,0,0,0,0,0,0,0,-1,706,1660,0,0
-511,-636,0,0,0,0,0,0,0,0,0,-1,713,1660,0,0
-504,-636,0,0,0,0,0,0,0,0,0,-1,720,1660,0,0
-497,-636,0,0,0,0,0,0,0,0,0,-1,727,1660,0,0
-490,-636,0,0,0,0,0,0,0,0,0,-1,734,1660,0,0
-483,-636,0,0,0,0,0,0,0,0,0,-1,741,1660,0,0
-476,-636,0,0,0,0,0,0,0,0,0,-1,748,1660,0,0
-469,-636,0,0,0,0,0,0,0,0,0,-1,755,1660,0,0
-462,-636,0,0,0,0,0,0,0,0,0,-1,762,1660,0,0
-455,-636,0,0,0,0,0,0,0,0,0,-1,769,1660,0,0
-448,-636,0,0,0,0,0,0,0,0,0,-1,776,1660,0,0
-441,-636,0,0,0,0,0,0,0,0,0,-1,783,1660,0,0
-434,-636,0,0,0,0,0,0,0,0,0,-1,790,1660,0,0
-427,-636,0,0,0,0,0,0,0,0,0,-1,797,1660,0,0
-420,-636,0,0,0,0,0,0,0,0,0,-1,804,1660,0,0
-413,-636,0,0,0,0,0,0,0,0,0,-1,811,1660,0,0
-406,-636,-0.591125,10.6943,0,0,0,0,0,0,0,-1,818,1660,-0.59115,-10.6943
-399,-636,0.0766602,11.2408,0,0,0,0,0,0,0,-1,825,1660,0.076685,-11.2409
-392,-636,0.75946,11.9233,0,0,0,0,0,0,0,-1,832,1660,0.759481,-11.9233
-385,-636,1.68878,12.517,0,0,0,0,0,0,0,-1,839,1660,1.6888,-12.5169
-378,-636,2.22107,13.0013,0,0,0,0,0,0,0,-1,846,1660,2.22107,-13.0014
-371,-636,2.52185,11.9684,0,0,0,0,0,0,0,-1,853,1660,2.52184,-11.9684
-364,-636,4.51947,14.8503,0,0,0,0,0,0,0,-1,860,1660,4.51949,-14.8504
-357,-636,4.55682,15.8809,0,0,0,0,0,0,0,-1,867,1660,4.55681,-15.8808
-350,-636,2.57788,36.7095,0,0,0,0,0,0,0,-1,874,1660,2.57785,-36.7094
-343,-636,2.90234,42.9606,0,0,0,0,0,0,0,-1,881,1660,2.90237,-42.9606
-336,-636,2.73505,43.5869,0.00928101,0.00168788,0.0086235,0.0149067,-0.0039378,0.578037,0.0114778,0.0342404,888,1660,2.73504,-43.5869
-329,-636,2.88135,44.3802,0.00755081,0.00141668,0.00730047,0.0124023,-0.00343482,0.586533,0.00961978,0.0180336,895,1660,2.88135,-44.3802
-322,-636,2.86121,45.0864,0.00604849,0.00115616,0.00617264,0.010242,-0.00303735,0.596746,0.00803416,0.0126598,902,1660,2.86122,-45.0865
-315,-636,2.7948,45.8185,0.00468979,0.00106589,0.00522164,0.00840493,-0.00264925,0.618395,0.00666427,0.0145572,909,1660,2.7948,-45.8185
-308,-636,2.74847,46.5724,0.00353177,0.00122466,0.00433639,0.00686542,-0.00210899,0.655401,0.00541852,0.0124002,916,1660,2.74849,-46.5723
-301,-636,2.72919,47.3118,0.002674,0.00139848,0.00366584,0.00575715,-0.00168467,0.699274,0.00450588,0.0119267,923,1660,2.72918,-47.3117
-294,-636,2.68854,48.0154,0.00212303,0.00164797,0.003157,0.00505142,-0.00128042,0.747849,0.00386576,0.0148404,930,1660,2.68855,-48.0154
-287,-636,2.6582,48.7079,0.00180253,0.00199613,0.00277201,0.00467302,-0.00087437,0.802852,0.003444,0.0129456,937,1660,2.65822,-48.7079
-280,-636,2.61725,49.3903,0.0017213,0.00248642,0.00247464,0.0046079,-0.000400177,0.862087,0.00321364,0.012403,944,1660,2.61723,-49.3902
-273,-636,2.57813,50.0919,0.00188285,0.00296965,0.00232488,0.00481379,3.87102e-05,0.900203,0.00319637,0.0127545,951,1660,2.57811,-50.0919
-266,-636,2.55377,50.8041,0.00209688,0.00337849,0.00218978,0.0050193,0.000456077,0.927741,0.00320501,0.0140799,958,1660,2.55374,-50.8041
-259,-636,2.53979,51.5072,0.00266787,0.0039508,0.00213878,0.00554224,0.00107643,0.931091,0.00339341,0.0160311,965,1660,2.53981,-51.5071
-252,-636,2.51306,52.1515,0.00340225,0.00449797,0.00205876,0.00608052,0.0018197,0.915441,0.00360366,0.0126756,972,1660,2.51305,-52.1514
-245,-636,2.50061,52.8267,0.00415159,0.00479744,0.00199952,0.00649994,0.00244909,0.865457,0.00379053,0.0118272,979,1660,2.50059,-52.8267
-238,-636,2.49298,53.4767,0.00481786,0.00468466,0.00211341,0.00686572,0.0026368,0.769647,0.00399929,0.0120589,986,1660,2.49296,-53.4766
-231,-636,2.4801,54.1166,0.00534481,0.00469446,0.0022991,0.00734161,0.00269766,0.715146,0.00428804,0.0110779,993,1660,2.48012,-54.1166
-224,-636,2.48273,54.7555,0.00579032,0.00433072,0.00237937,0.00754929,0.00257174,0.636593,0.00443175,0.0103002,1000,1660,2.48276,-54.7555
-217,-636,2.46021,55.4491,0.00617977,0.00377538,0.00258642,0.00782974,0.00212541,0.567848,0.00467527,0.0169677,1007,1660,2.4602,-55.449
-210,-636,2.41583,56.0439,0.00649666,0.00325623,0.00282132,0.0081299,0.00162299,0.524753,0.0049681,0.0270394,1014,1660,2.41586,-56.0439
-203,-636,2.4126,56.7028,0.00689717,0.00284962,0.00300149,0.00849342,0.00125336,0.488779,0.00529418,0.0303041,1021,1660,2.41259,-56.7028
-196,-636,2.67969,57.1631,0.00716799,0.00197977,0.0035263,0.00895158,0.000196189,0.468273,0.00590341,0.0314386,1028,1660,2.67964,-57.1631
-189,-636,2.66882,57.6616,0.00692409,0.00186953,0.00440433,0.00947473,-0.000681106,0.524925,0.00655533,0.0323647,1035,1660,2.66884,-57.6617
-182,-636,2.66272,58.3507,0.00661644,0.00234306,0.00525192,0.0101497,-0.00119018,0.592204,0.00719607,0.0499743,1042,1660,2.66276,-58.3507
-175,-636,2.82703,58.9026,0,0,0,0,0,0,0,-1,1049,1660,2.82706,-58.9026
-168,-636,3.87,56.0028,0,0,0,0,0,0,0,-1,1056,1660,3.87004,-56.0028
-161,-636,4.54553,56.2565,0,0,0,0,0,0,0,-1,1063,1660,4.5455,-56.2564
-154,-636,2.71875,59.7118,0,0,0,0,0,0,0,-1,1070,1660,2.71874,-59.7118
-147,-636,4.22656,55.8413,0,0,0,0,0,0,0,-1,1077,1660,4.22662,-55.8413
-140,-636,3.20886,57.1307,0,0,0,0,0,0,0,-1,1084,1660,3.20882,-57.1307
-133,-636,2.82764,57.9807,0,0,0,0,0,0,0,-1,1091,1660,2.82766,-57.9807
-126,-636,2.44653,58.8307,0,0,0,0,0,0,0,-1,1098,1660,2.44649,-58.8307
-119,-636,1.8667,13.8916,0,0,0,0,0,0,0,-1,1105,1660,1.86668,-13.8916
-112,-636,-1.24963,9.7998,0,0,0,0,0,0,0,-1,1112,1660,-1.24968,-9.79978
-105,-636,3.51624,4.72791,0,0,0,0,0,0,0,-1,1119,1660,3.51618,-4.7279
-98,-636,1.54504,5.11914,0,0,0,0,0,0,0,-1,1126,1660,1.54503,-5.11912
-91,-636,-1.87964,-2.25012,0,0,0,0,0,0,0,-1,1133,1660,-1.87966,2.25016
-84,-636,-2.84143,0.133667,0,0,0,0,0,0,0,-1,1140,1660,-2.84144,-0.133701
-77,-636,-3.57349,2.45935,0,0,0,0,0,0,0,-1,1147,1660,-3.57345,-2.45939
-70,-636,-4.23682,4.82312,0,0,0,0,0,0,0,-1,1154,1660,-4.23681,-4.82307
-63,-636,-2.21033,6.97168,0,0,0,0,0,0,0,-1,1161,1660,-2.21034,-6.97165
-56,-636,-2.51917,8.80359,0,0,0,0,0,0,0,-1,1168,1660,-2.51916,-8.80361
-49,-636,-3.13,10.4113,0,0,0,0,0,0,0,-1,1175,1660,-3.12996,-10.4112
-42,-636,-2.27771,4.90173,0,0,0,0,0,0,0,-1,1182,1660,-2.27775,-4.90173
-35,-636,-2.27698,5.89685,0,0,0,0,0,0,0,-1,1189,1660,-2.27695,-5.89686
-28,-636,-1.70654,4.83936,0,0,0,0,0,0,0,-1,1196,1660,-1.70656,-4.8393
-21,-636,4.24683,27.7834,0,0,0,0,0,0,0,-1,1203,1660,4.24687,-27.7835
-14,-636,6.72449,70.9906,0,0,0,0,0,0,0,-1,1210,1660,6.7245,-70.9906
-7,-636,7.23633,70.6228,0,0,0,0,0,0,0,-1,1217,1660,7.23628,-70.6228
0,-636,7.50122,70.4935,0.110959,0.0803767,-0.0434637,0.141743,0.0495926,-0.616255,0.0830556,0.0496026,1224,1660,7.50118,-70.4936
7,-636,7.86792,70.2756,0.109195,0.0814719,-0.0381727,0.135945,0.0547219,-0.611237,0.0789834,0.0475245,1231,1660,7.8679,-70.2757
14,-636,8.29871,69.9246,0.105329,0.0927789,-0.0315335,0.131206,0.066902,-0.687186,0.0757565,0.0449063,1238,1660,8.29876,-69.9245
21,-636,8.71936,69.5509,0.100046,0.110846,-0.0241109,0.130154,0.0807378,-0.895561,0.0758663,0.04895,1245,1660,8.71931,-69.5509
28,-636,9.22461,69.1409,0.0950078,0.132834,-0.0179836,0.140019,0.0878226,-1.19069,0.0817076,0.0493302,1252,1660,9.22459,-69.1409
35,-636,9.71289,68.7327,0.0901186,0.155389,-0.0136634,0.158134,0.0873738,-1.37255,0.0914663,0.0450017,1259,1660,9.71285,-68.7327
42,-636,10.3972,68.4463,0.0851732,0.177414,-0.0110997,0.178731,0.0838563,-1.45271,0.103255,0.0497314,1266,1660,10.3972,-68.4463
49,-636,11.0911,68.2468,0.0824606,0.202108,-0.0113305,0.203172,0.081397,-1.47721,0.118071,0.0463873,1273,1660,11.091,-68.2468
56,-636,11.7643,68.2465,0.0818667,0.224784,-0.0125064,0.22587,0.0807805,-1.48417,0.132156,0.0452344,1280,1660,11.7643,-68.2465
63,-636,12.4443,68.2687,0.0835473,0.242843,-0.013228,0.243934,0.0824564,-1.48851,0.143278,0.0453377,1287,1660,12.4443,-68.2687
70,-636,11.1903,69.6226,0.0923826,0.249345,-0.0121576,0.250281,0.0914465,-1.49395,0.146236,0.048109,1294,1660,11.1903,-69.6225
77,-636,12.7344,67.02,0.104667,0.248096,-0.0120036,0.249094,0.103669,-1.48788,0.144487,0.0451972,1301,1660,12.7344,-67.0201
84,-636,12.7875,66.7194,0.116451,0.243017,-0.0103057,0.243851,0.115617,-1.49008,0.14085,0.041601,1308,1660,12.7875,-66.7193
91,-636,13.1948,66.4893,0.130279,0.234052,-0.00685901,0.234503,0.129828,-1.50508,0.13565,0.0412402,1315,1660,13.1949,-66.4893
98,-636,13.7485,65.9844,0.146807,0.219029,-0.000655466,0.219035,0.146801,-1.56172,0.128879,0.045321,1322,1660,13.7486,-65.9844
105,-636,14.4059,65.5123,0,0,0,0,0,0,0,-1,1329,1660,14.4059,-65.5123
112,-636,18.451,63.8787,0,0,0,0,0,0,0,-1,1336,1660,18.451,-63.8787
119,-636,20.3516,63.0194,0.206625,0.143808,0.0422106,0.227831,0.122603,0.465543,0.131666,0.0475879,1343,1660,20.3516,-63.0194
126,-636,22.0219,62.6257,0.227724,0.11736,0.0635167,0.256681,0.0884023,0.427749,0.150568,0.0475238,1350,1660,22.0218,-62.6257
133,-636,23.7546,62.1171,0,0,0,0,0,0,0,-1,1357,1660,23.7546,-62.117
140,-636,10.5439,70.3304,0,0,0,0,0,0,0,-1,1364,1660,10.544,-70.3305
147,-636,10.0558,71.2319,0,0,0,0,0,0,0,-1,1371,1660,10.0558,-71.232
154,-636,9.42834,72.0293,0,0,0,0,0,0,0,-1,1378,1660,9.42835,-72.0293
161,-636,10.2961,7.13025,0,0,0,0,0,0,0,-1,1385,1660,10.2961,-7.13021
168,-636,11.7659,5.83899,0,0,0,0,0,0,0,-1,1392,1660,11.7658,-5.83899
175,-636,5.94592,-1.72888,0,0,0,0,0,0,0,-1,1399,1660,5.94598,1.72886
182,-636,5.93994,-1.11938,0,0,0,0,0,0,0,-1,1406,1660,5.93998,1.11936
189,-636,5.32544,11.9595,0,0,0,0,0,0,0,-1,1413,1660,5.32542,-11.9595
196,-636,5.3623,9.38025,0,0,0,0,0,0,0,-1,1420,1660,5.36225,-9.38027
203,-636,5.18542,9.02429,0,0,0,0,0,0,0,-1,1427,1660,5.18547,-9.0243
210,-636,4.09167,7.17041,0,0,0,0,0,0,0,-1,1434,1660,4.09173,-7.17041
217,-636,2.94897,5.28992,0,0,0,0,0,0,0,-1,1441,1660,2.94899,-5.28991
224,-636,1.49194,3.63916,0,0,0,0,0,0,0,-1,1448,1660,1.49197,-3.63918
231,-636,0.17749,2.24854,0,0,0,0,0,0,0,-1,1455,1660,0.177501,-2.24855
238,-636,-0.764648,1.00598,0,0,0,0,0,0,0,-1,1462,1660,-0.764704,-1.00595
245,-636,6.21204,1.18005,0,0,0,0,0,0,0,-1,1469,1660,6.21206,-1.18001
252,-636,7.70251,0.865723,0,0,0,0,0,0,0,-1,1476,1660,7.7025,-0.865692
259,-636,9.03601,0.787231,0,0,0,0,0,0,0,-1,1483,1660,9.03598,-0.787243
266,-636,10.1071,3.24109,0,0,0,0,0,0,0,-1,1490,1660,10.1071,-3.24103
273,-636,8.48535,5.02466,0,0,0,0,0,0,0,-1,1497,1660,8.48533,-5.02472
280,-636,11.908,32.0698,0,0,0,0,0,0,0,-1,1504,1660,11.9079,-32.0698
287,-636,12.1218,36.4158,0,0,0,0,0,0,0,-1,1511,1660,12.1218,-36.4158
294,-636,13.3706,44.9711,0,0,0,0,0,0,0,-1,1518,1660,13.3706,-44.9711
301,-636,15.0588,58.5975,0,0,0,0,0,0,0,-1,1525,1660,15.0589,-58.5975
308,-636,15.2792,58.2717,0,0,0,0,0,0,0,-1,1532,1660,15.2792,-58.2718
315,-636,15.1285,57.7059,0,0,0,0,0,0,0,-1,1539,1660,15.1286,-57.7059
322,-636,15.0824,56.9133,0,0,0,0,0,0,0,-1,1546,1660,15.0823,-56.9133
329,-636,15.0963,56.2981,0.00945483,0.0114286,-0.00421024,0.0147661,0.00611735,-0.900519,0.00856685,0.0421083,1553,1660,15.0963,-56.2981
336,-636,14.9476,55.7463,0.00910327,0.0112851,-0.00456489,0.0148876,0.00550075,-0.902687,0.00869243,0.034445,1560,1660,14.9476,-55.7463
343,-636,15.1218,55.068,0.0086581,0.0106328,-0.00456292,0.014314,0.00497693,-0.891948,0.008391,0.0280143,1567,1660,15.1218,-55.0679
350,-636,15.2217,54.4177,0.00815183,0.00983068,-0.00450825,0.013577,0.00440553,-0.877443,0.00799804,0.0126761,1574,1660,15.2216,-54.4177
357,-636,15.2235,53.7736,0.00734517,0.00902234,-0.00422712,0.0124933,0.00387427,-0.883318,0.00738434,0.0107215,1581,1660,15.2235,-53.7736
364,-636,15.2225,53.1293,0.0065422,0.00807686,-0.00386964,0.0112545,0.00336454,-0.883276,0.0066706,0.0110666,1588,1660,15.2225,-53.1293
371,-636,15.2076,52.4972,0.00577636,0.00697463,-0.00335403,0.00978262,0.00296838,-0.873782,0.00579165,0.0100013,1595,1660,15.2077,-52.4972
378,-636,15.1948,51.8502,0.00500076,0.00590591,-0.00285223,0.00834125,0.00256542,-0.864079,0.00493329,0.0103092,1602,1660,15.1948,-51.8502
385,-636,15.1833,51.2009,0.00435956,0.00492438,-0.00245859,0.00711673,0.00216722,-0.842581,0.00421221,0.0164809,1609,1660,15.1833,-51.2009
392,-636,15.151,50.5575,0.00378471,0.0040438,-0.00224869,0.00616668,0.00166183,-0.814172,0.0036843,0.0168747,1616,1660,15.1509,-50.5575
399,-636,15.1132,49.8881,0.00323251,0.00331568,-0.00219306,0.00546755,0.00108064,-0.794878,0.00334355,0.0123557,1623,1660,15.1132,-49.8881
406,-636,15.1021,49.2018,0.0029192,0.00241841,-0.00220897,0.00489192,0.000445684,-0.728962,0.00312333,0.0147136,1630,1660,15.102,-49.2017
413,-636,15.0812,48.5028,0.00300615,0.00181472,-0.00254772,0.00502688,-0.000206009,-0.67055,0.00342199,0.0243786,1637,1660,15.0812,-48.5028
420,-636,15.0137,47.8549,0.00332433,0.00139376,-0.00305426,0.00556222,-0.000844121,-0.632343,0.00401918,0.0245525,1644,1660,15.0137,-47.8549
427,-636,15.0344,47.1838,0.00387108,0.000965033,-0.00371587,0.00640792,-0.00157181,-0.599023,0.00488098,0.0160856,1651,1660,15.0345,-47.1839
434,-636,14.9948,46.4592,0.00465668,0.000643126,-0.00456078,0.00763266,-0.00233285,-0.578142,0.00601869,0.0158205,1658,1660,14.9947,-46.4593
441,-636,14.9362,45.7328,0.00566281,0.000224698,-0.00553339,0.00910912,-0.00322161,-0.55703,0.00738469,0.013421,1665,1660,14.9362,-45.7328
448,-636,14.928,45.04,0.0069781,-0.00030912,-0.00661752,0.0108888,-0.00421981,-0.533746,0.00900176,0.0154288,1672,1660,14.928,-45.04
455,-636,14.8806,44.2943,0.00848935,-0.000944752,-0.00769568,0.0127986,-0.005254,-0.510456,0.0107218,0.0185445,1679,1660,14.8806,-44.2943
462,-636,14.7684,43.5649,0.010097,-0.00177763,-0.00878458,0.0147626,-0.00644316,-0.488221,0.0125533,0.0287454,1686,1660,14.7684,-43.5649
469,-636,14.913,42.8608,0.0117718,-0.00222162,-0.00998972,0.0169713,-0.00742117,-0.479905,0.0144383,0.0492014,1693,1660,14.9129,-42.8609
476,-636,15.2583,42.1936,0,0,0,0,0,0,0,-1,1700,1660,15.2584,-42.1937
483,-636,11.3833,24.3958,0,0,0,0,0,0,0,-1,1707,1660,11.3833,-24.3957
490,-636,10.8951,23.9569,0,0,0,0,0,0,0,-1,1714,1660,10.8951,-23.9569
497,-636,9.55579,18.0111,0,0,0,0,0,0,0,-1,1721,1660,9.55574,-18.0111
504,-636,6.26428,19.4268,0,0,0,0,0,0,0,-1,1728,1660,6.26433,-19.4268
511,-636,5.65466,9.23218,0,0,0,0,0,0,0,-1,1735,1660,5.65461,-9.23216
518,-636,6.72791,1.07605,0,0,0,0,0,0,0,-1,1742,1660,6.7279,-1.0761
525,-636,7.04309,0.93335,0,0,0,0,0,0,0,-1,1749,1660,7.04308,-0.933298
532,-636,0,0,0,0,0,0,0,0,0,-1,1756,1660,0,0
539,-636,0,0,0,0,0,0,0,0,0,-1,1763,1660,0,0
546,-636,0,0,0,0,0,0,0,0,0,-1,1770,1660,0,0
553,-636,0,0,0,0,0,0,0,0,0,-1,1777,1660,0,0
560,-636,0,0,0,0,0,0,0,0,0,-1,1784,1660,0,0
567,-636,0,0,0,0,0,0,0,0,0,-1,1791,1660,0,0
574,-636,0,0,0,0,0,0,0,0,0,-1,1798,1660,0,0
581,-636,0,0,0,0,0,0,0,0,0,-1,1805,1660,0,0
588,-636,0,0,0,0,0,0,0,0,0,-1,1812,1660,0,0
595,-636,0,0,0,0,0,0,0,0,0,-1,1819,1660,0,0
602,-636,0,0,0,0,0,0,0,0,0,-1,1826,1660,0,0
609,-636,0,0,0,0,0,0,0,0,0,-1,1833,1660,0,0
616,-636,0,0,0,0,0,0,0,0,0,-1,1840,1660,0,0
623,-636,0,0,0,0,0,0,0,0,0,-1,1847,1660,0,0
630,-636,0,0,0,0,0,0,0,0,0,-1,1854,1660,0,0
637,-636,0,0,0,0,0,0,0,0,0,-1,1861,1660,0,0
644,-636,0,0,0,0,0,0,0,0,0,-1,1868,1660,0,0
651,-636,0,0,0,0,0,0,0,0,0,-1,1875,1660,0,0
658,-636,0,0,0,0,0,0,0,0,0,-1,1882,1660,0,0
665,-636,0,0,0,0,0,0,0,0,0,-1,1889,1660,0,0
672,-636,0,0,0,0,0,0,0,0,0,-1,1896,1660,0,0
679,-636,0,0,0,0,0,0,0,0,0,-1,1903,1660,0,0
686,-636,0,0,0,0,0,0,0,0,0,-1,1910,1660,0,0
693,-636,0,0,0,0,0,0,0,0,0,-1,1917,1660,0,0
700,-636,0,0,0,0,0,0,0,0,0,-1,1924,1660,0,0
707,-636,0,0,0,0,0,0,0,0,0,-1,1931,1660,0,0
714,-636,0,0,0,0,0,0,0,0,0,-1,1938,1660,0,0
721,-636,0,0,0,0,0,0,0,0,0,-1,1945,1660,0,0
728,-636,0,0,0,0,0,0,0,0,0,-1,1952,1660,0,0
735,-636,0,0,0,0,0,0,0,0,0,-1,1959,1660,0,0
742,-636,0,0,0,0,0,0,0,0,0,-1,1966,1660,0,0
749,-636,0,0,0,0,0,0,0,0,0,-1,1973,1660,0,0
756,-636,0,0,0,0,0,0,0,0,0,-1,1980,1660,0,0
763,-636,0,0,0,0,0,0,0,0,0,-1,1987,1660,0,0
770,-636,0,0,0,0,0,0,0,0,0,-1,1994,1660,0,0
777,-636,0,0,0,0,0,0,0,0,0,-1,2001,1660,0,0
784,-636,0,0,0,0,0,0,0,0,0,-1,2008,1660,0,0
791,-636,0,0,0,0,0,0,0,0,0,-1,2015,1660,0,0
798,-636,0,0,0,0,0,0,0,0,0,-1,2022,1660,0,0
805,-636,0,0,0,0,0,0,0,0,0,-1,2029,1660,0,0
812,-636,0,0,0,0,0,0,0,0,0,-1,2036,1660,0,0
-700,-643,0,0,0,0,0,0,0,0,0,-1,524,1667,0,0
-693,-643,0,0,0,0,0,0,0,0,0,-1,531,1667,0,0
-686,-643,0,0,0,0,0,0,0,0,0,-1,538,1667,0,0
-679,-643,0,0,0,0,0,0,0,0,0,-1,545,1667,0,0
-672,-643,0,0,0,0,0,0,0,0,0,-1,552,1667,0,0
-665,-643,0,0,0,0,0,0,0,0,0,-1,559,1667,0,0
-658,-643,0,0,0,0,0,0,0,0,0,-1,566,1667,0,0
-651,-643,0,0,0,0,0,0,0,0,0,-1,573,1667,0,0
-644,-643,0,0,0,0,0,0,0,0,0,-1,580,1667,0,0
-637,-643,0,0,0,0,0,0,0,0,0,-1,587,1667,0,0
-630,-643,0,0,0,0,0,0,0,0,0,-1,594,1667,0,0
-623,-643,0,0,0,0,0,0,0,0,0,-1,601,1667,0,0
-616,-643,0,0,0,0,0,0,0,0,0,-1,608,1667,0,0
-609,-643,0,0,0,0,0,0,0,0,0,-1,615,1667,0,0
-602,-643,0,0,0,0,0,0,0,0,0,-1,622,1667,0,0
-595,-643,0,0,0,0,0,0,0,0,0,-1,629,1667,0,0
-588,-643,0,0,0,0,0,0,0,0,0,-1,636,1667,0,0
-581,-643,0,0,0,0,0,0,0,0,0,-1,643,1667,0,0
-574,-643,0,0,0,0,0,0,0,0,0,-1,650,1667,0,0
-567,-643,0,0,0,0,0,0,0,0,0,-1,657,1667,0,0
-560,-643,0,0,0,0,0,0,0,0,0,-1,664,1667,0,0
-553,-643,0,0,0,0,0,0,0,0,0,-1,671,1667,0,0
-546,-643,0,0,0,0,0,0,0,0,0,-1,678,1667,0,0
-539,-643,0,0,0,0,0,0,0,0,0,-1,685,1667,0,0
-532,-643,0,0,0,0,0,0,0,0,0,-1,692,1667,0,0
-525,-643,0,0,0,0,0,0,0,0,0,-1,699,1667,0,0
-518,-643,0,0,0,0,0,0,0,0,0,-1,706,1667,0,0
-511,-643,0,0,0,0,0,0,0,0,0,-1,713,1667,0,0
-504,-643,0,0,0,0,0,0,0,0,0,-1,720,1667,0,0
-497,-643,0,0,0,0,0,0,0,0,0,-1,727,1667,0,0
-490,-643,0,0,0,0,0,0,0,0,0,-1,734,1667,0,0
-483,-643,0,0,0,0,0,0,0,0,0,-1,741,1667,0,0
-476,-643,0,0,0,0,0,0,0,0,0,-1,748,1667,0,0
-469,-643,0,0,0,0,0,0,0,0,0,-1,755,1667,0,0
-462,-643,0,0,0,0,0,0,0,0,0,-1,762,1667,0,0
-455,-643,0,0,0,0,0,0,0,0,0,-1,769,1667,0,0
-448,-643,0,0,0,0,0,0,0,0,0,-1,776,1667,0,0
-441,-643,0,0,0,0,0,0,0,0,0,-1,783,1667,0,0
-434,-643,0,0,0,0,0,0,0,0,0,-1,790,1667,0,0
-427,-643,0,0,0,0,0,0,0,0,0,-1,797,1667,0,0
-420,-643,0,0,0,0,0,0,0,0,0,-1,804,1667,0,0
-413,-643,0,0,0,0,0,0,0,0,0,-1,811,1667,0,0
-406,-643,0,0,0,0,0,0,0,0,0,-1,818,1667,0,0
-399,-643,0.589417,11.6465,0,0,0,0,0,0,0,-1,825,1667,0.58939,-11.6465
-392,-643,0.865295,12.6523,0,0,0,0,0,0,0,-1,832,1667,0.865315,-12.6523
-385,-643,1.72968,13.2692,0,0,0,0,0,0,0,-1,839,1667,1.72967,-13.2692
-378,-643,2.66522,13.8193,0,0,0,0,0,0,0,-1,846,1667,2.66524,-13.8193
-371,-643,0.466125,3.35095,0,0,0,0,0,0,0,-1,853,1667,0.466148,-3.351
-364,-643,1.69513,9.922,0,0,0,0,0,0,0,-1,860,1667,1.69511,-9.92205
-357,-643,1.14227,10.8429,0,0,0,0,0,0,0,-1,867,1667,1.14228,-10.8429
-350,-643,4.48804,36.1799,0,0,0,0,0,0,0,-1,874,1667,4.48801,-36.1799
-343,-643,2.77307,42.8276,0,0,0,0,0,0,0,-1,881,1667,2.77305,-42.8277
-336,-643,3.22784,43.5823,0,0,0,0,0,0,0,-1,888,1667,3.22782,-43.5823
-329,-643,3.3891,44.3756,0.010817,0.00234584,0.00985264,0.0173059,-0.00414305,0.582394,0.0131379,0.0417933,895,1667,3.38909,-44.3756
-322,-643,3.52649,45.1401,0.00840188,0.00184092,0.00826754,0.014016,-0.00377319,0.59653,0.0108232,0.0289024,902,1667,3.52649,-45.1401
-315,-643,3.4859,45.87,0.00619845,0.00129837,0.00683908,0.0110131,-0.00351628,0.6134,0.00875285,0.0186596,909,1667,3.48592,-45.87
-308,-643,3.47009,46.6049,0.00432353,0.00112334,0.00551568,0.00846652,-0.00301965,0.644224,0.0068756,0.0132302,916,1667,3.4701,-46.6049
-301,-643,3.44177,47.329,0.00288831,0.000934583,0.00446049,0.00647766,-0.00265476,0.677598,0.00542441,0.0149412,923,1667,3.4418,-47.329
-294,-643,3.38202,48.0347,0.0018972,0.000851236,0.00362769,0.00503941,-0.00229098,0.713809,0.00433023,0.0132162,930,1667,3.382,-48.0346
-287,-643,3.35486,48.7239,0.00126504,0.000950918,0.00298032,0.00409243,-0.00187648,0.759073,0.00352442,0.0107757,937,1667,3.35489,-48.7239
-280,-643,3.31866,49.4141,0.000928503,0.00123746,0.00245375,0.00354159,-0.00137563,0.816835,0.00292933,0.0148809,944,1667,3.31865,-49.4141
-273,-643,3.27673,50.1165,0.000890128,0.00158602,0.00212679,0.00339314,-0.00091699,0.866481,0.00262177,0.0137928,951,1667,3.27676,-50.1165
-266,-643,3.23083,50.8271,0.000898733,0.00185402,0.00183401,0.00327157,-0.000518812,0.912787,0.00237296,0.014063,958,1667,3.23086,-50.8271
-259,-643,3.20813,51.507,0.00135109,0.00233869,0.0016635,0.00358014,0.000109645,0.929678,0.00235106,0.0142193,965,1667,3.2081,-51.5069
-252,-643,3.19244,52.1951,0.002022,0.00283468,0.00151638,0.00399822,0.000858467,0.916306,0.0024304,0.0156219,972,1667,3.19247,-52.195
-245,-643,3.16174,52.8622,0.00272054,0.00312814,0.0014257,0.00436453,0.00148415,0.856391,0.00256248,0.0133294,979,1667,3.16174,-52.8621
-238,-643,3.17261,53.498,0.00336427,0.00309229,0.00148514,0.00471963,0.00173692,0.739741,0.00275634,0.0148662,986,1667,3.17258,-53.498
-231,-643,3.14294,54.1343,0.00396571,0.00314698,0.00165813,0.00526426,0.00184843,0.664377,0.0030839,0.0107337,993,1667,3.14297,-54.1343
-224,-643,3.13379,54.7616,0.00444848,0.00291513,0.00167795,0.00552661,0.001837,0.571104,0.00325,0.0101463,1000,1667,3.13378,-54.7616
-217,-643,3.10577,55.3651,0.00482864,0.00255361,0.00176189,0.00578831,0.00159393,0.498753,0.00345247,0.00943017,1007,1667,3.1058,-55.3651
-210,-643,3.0918,56.0125,0.00518886,0.00208931,0.00182896,0.00603635,0.00124182,0.433921,0.0036808,0.0127559,1014,1667,3.09177,-56.0124
-203,-643,3.09961,56.6863,0.00565431,0.00163081,0.00184974,0.00637545,0.000909671,0.371734,0.00398186,0.0164093,1021,1667,3.09963,-56.6863
-196,-643,3.10303,57.2697,0.00601884,0.000975096,0.0021683,0.00682283,0.000171104,0.355078,0.0044926,0.016899,1028,1667,3.10303,-57.2697
-189,-643,3.21606,57.8254,0.00596401,0.00105884,0.00273809,0.00718733,-0.000164486,0.420174,0.00484731,0.0198431,1035,1667,3.21604,-57.8255
-182,-643,3.26477,58.4231,0.00585483,0.00163513,0.00319184,0.00757111,-8.11548e-05,0.493359,0.00507467,0.0347995,1042,1667,3.26473,-58.4231
-175,-643,3.30066,59.0682,0,0,0,0,0,0,0,-1,1049,1667,3.30067,-59.0682
-168,-643,3.40271,59.6598,0,0,0,0,0,0,0,-1,1056,1667,3.40273,-59.6598
-161,-643,3.07556,60.0619,0,0,0,0,0,0,0,-1,1063,1667,3.07555,-60.0619
-154,-643,3.08984,60.4149,0,0,0,0,0,0,0,-1,1070,1667,3.08982,-60.4149
-147,-643,3.44275,61.0981,0,0,0,0,0,0,0,-1,1077,1667,3.44275,-61.0982
-140,-643,3.1731,62.2816,0,0,0,0,0,0,0,-1,1084,1667,3.17305,-62.2816
-133,-643,2.32495,61.5938,0,0,0,0,0,0,0,-1,1091,1667,2.32497,-61.5937
-126,-643,3.28662,58.6659,0,0,0,0,0,0,0,-1,1098,1667,3.28657,-58.6658
-119,-643,3.76282,14.1458,0,0,0,0,0,0,0,-1,1105,1667,3.76283,-14.1458
-112,-643,3.81458,16.2069,0,0,0,0,0,0,0,-1,1112,1667,3.81463,-16.2069
-105,-643,-2.23413,10.0996,0,0,0,0,0,0,0,-1,1119,1667,-2.23415,-10.0996
-98,-643,3.11035,4.68066,0,0,0,0,0,0,0,-1,1126,1667,3.11041,-4.68071
-91,-643,-1.74146,-2.5885,0,0,0,0,0,0,0,-1,1133,1667,-1.74146,2.58856
-84,-643,-3.07446,-0.199341,0,0,0,0,0,0,0,-1,1140,1667,-3.07449,0.199383
-77,-643,-3.63794,2.81165,0,0,0,0,0,0,0,-1,1147,1667,-3.63791,-2.8117
-70,-643,-3.36938,4.45203,0,0,0,0,0,0,0,-1,1154,1667,-3.36941,-4.452
-63,-643,-3.67822,6.26855,0,0,0,0,0,0,0,-1,1161,1667,-3.67823,-6.26856
-56,-643,-3.95142,8.1073,0,0,0,0,0,0,0,-1,1168,1667,-3.95139,-8.10732
-49,-643,-4.23535,9.90552,0,0,0,0,0,0,0,-1,1175,1667,-4.23537,-9.90557
-42,-643,-4.25195,10.7059,0,0,0,0,0,0,0,-1,1182,1667,-4.25192,-10.706
-35,-643,-4.10986,11.6588,0,0,0,0,0,0,0,-1,1189,1667,-4.10982,-11.6589
-28,-643,-1.38513,5.604,0,0,0,0,0,0,0,-1,1196,1667,-1.3851,-5.60403
-21,-643,1.61011,23.1276,0,0,0,0,0,0,0,-1,1203,1667,1.61011,-23.1275
-14,-643,13.2256,68.0854,0,0,0,0,0,0,0,-1,1210,1667,13.2256,-68.0855
-7,-643,6.52014,70.7856,0,0,0,0,0,0,0,-1,1217,1667,6.52018,-70.7856
0,-643,7.3479,70.1791,0.126284,0.0868485,-0.0435626,0.154384,0.0587491,-0.572877,0.0899775,0.0481739,1224,1667,7.34788,-70.179
7,-643,8.1012,69.7524,0.122051,0.0862888,-0.0392705,0.14732,0.0610201,-0.571759,0.0854714,0.0440358,1231,1667,8.10124,-69.7525
14,-643,8.51526,69.4286,0.116615,0.0937562,-0.0340891,0.141139,0.0692313,-0.62365,0.0814918,0.0419403,1238,1667,8.5153,-69.4286
21,-643,8.8689,69.0586,0.110781,0.107339,-0.0288605,0.137972,0.0801484,-0.755621,0.0800049,0.0460474,1245,1667,8.86886,-69.0586
28,-643,9.41589,68.5972,0.105817,0.123658,-0.0247254,0.141023,0.0884524,-0.958526,0.0822936,0.0481478,1252,1667,9.41588,-68.5971
35,-643,9.79651,68.3145,0,0,0,0,0,0,0,-1,1259,1667,9.7965,-68.3145
42,-643,9.97705,67.8258,0.0969954,0.157523,-0.0204402,0.163779,0.0907393,-1.27378,0.0947417,0.0473645,1266,1667,9.97704,-67.8258
49,-643,10.3165,67.3448,0.0940101,0.17445,-0.0203355,0.179299,0.0891615,-1.33674,0.103519,0.0466842,1273,1667,10.3165,-67.3448
56,-643,10.8225,66.7634,0.0909795,0.192496,-0.0201539,0.196351,0.0871248,-1.38181,0.113602,0.0452805,1280,1667,10.8226,-66.7634
63,-643,11.3685,66.3347,0.08825,0.206722,-0.0185089,0.209547,0.0854257,-1.41937,0.121668,0.0473525,1287,1667,11.3685,-66.3347
70,-643,11.8741,65.777,0.0911606,0.214869,-0.0160162,0.216909,0.0891207,-1.44411,0.125894,0.045394,1294,1667,11.8742,-65.777
77,-643,12.6666,65.6965,0.096585,0.217834,-0.0142884,0.219495,0.094924,-1.45507,0.12711,0.041701,1301,1667,12.6666,-65.6966
84,-643,13.4661,65.3206,0.102517,0.216405,-0.0112779,0.217511,0.101411,-1.47304,0.125676,0.044671,1308,1667,13.4661,-65.3205
91,-643,14.1969,64.9994,0,0,0,0,0,0,0,-1,1315,1667,14.1969,-64.9994
98,-643,15.2303,64.2542,0.123491,0.196257,0.000594406,0.196262,0.123486,1.56263,0.114566,0.045485,1322,1667,15.2303,-64.2541
105,-643,16.4414,63.8273,0.137551,0.176723,0.0116779,0.17994,0.134334,1.30197,0.108016,0.0443706,1329,1667,16.4414,-63.8273
112,-643,18.1753,63.1554,0.153302,0.152526,0.0262085,0.179125,0.126703,0.777991,0.106341,0.0474073,1336,1667,18.1753,-63.1553
119,-643,19.8739,62.6538,0.170033,0.126256,0.0440638,0.197345,0.0989432,0.554878,0.113937,0.0474127,1343,1667,19.874,-62.6539
126,-643,21.4727,62.1323,0.188453,0.101506,0.0630308,0.221549,0.0684104,0.483502,0.130992,0.0474972,1350,1667,21.4727,-62.1323
133,-643,23.0652,61.603,0,0,0,0,0,0,0,-1,1357,1667,23.0652,-61.603
140,-643,9.90637,70.6454,0,0,0,0,0,0,0,-1,1364,1667,9.90642,-70.6454
147,-643,9.49622,70.9772,0,0,0,0,0,0,0,-1,1371,1667,9.49621,-70.9771
154,-643,16.9066,75.6637,0,0,0,0,0,0,0,-1,1378,1667,16.9066,-75.6637
161,-643,5.57935,26.2754,0,0,0,0,0,0,0,-1,1385,1667,5.57931,-26.2754
168,-643,10.5563,10.9818,0,0,0,0,0,0,0,-1,1392,1667,10.5562,-10.9819
175,-643,5.88525,-1.1698,0,0,0,0,0,0,0,-1,1399,1667,5.88526,1.16977
182,-643,5.80945,-0.418701,0,0,0,0,0,0,0,-1,1406,1667,5.80949,0.418712
189,-643,5.42297,12.9208,0,0,0,0,0,0,0,-1,1413,1667,5.42298,-12.9208
196,-643,5.51953,11.2415,0,0,0,0,0,0,0,-1,1420,1667,5.51948,-11.2414
203,-643,5.60828,9.82153,0,0,0,0,0,0,0,-1,1427,1667,5.60833,-9.82148
210,-643,4.73218,7.58728,0,0,0,0,0,0,0,-1,1434,1667,4.73222,-7.58728
217,-643,3.8031,5.28955,0,0,0,0,0,0,0,-1,1441,1667,3.80305,-5.28955
224,-643,2.96436,2.97095,0,0,0,0,0,0,0,-1,1448,1667,2.96432,-2.97095
231,-643,2.13403,1.08472,0,0,0,0,0,0,0,-1,1455,1667,2.13403,-1.08467
238,-643,1.18152,-0.261963,0,0,0,0,0,0,0,-1,1462,1667,1.18152,0.26192
245,-643,-0.157471,-1.79016,0,0,0,0,0,0,0,-1,1469,1667,-0.157517,1.7901
252,-643,8.08789,0.0202637,0,0,0,0,0,0,0,-1,1476,1667,8.08791,-0.0203056
259,-643,9.02979,-0.46936,0,0,0,0,0,0,0,-1,1483,1667,9.02974,0.46933
266,-643,4.55066,5.17554,0,0,0,0,0,0,0,-1,1490,1667,4.55063,-5.17556
273,-643,10.74,31.432,0,0,0,0,0,0,0,-1,1497,1667,10.7399,-31.4319
280,-643,12.1675,42.5023,0,0,0,0,0,0,0,-1,1504,1667,12.1675,-42.5023
287,-643,12.9725,46.299,0,0,0,0,0,0,0,-1,1511,1667,12.9725,-46.299
294,-643,14.8226,59.1388,0,0,0,0,0,0,0,-1,1518,1667,14.8227,-59.1388
301,-643,14.4305,58.5858,0.00807955,0.00675972,0.000262814,0.00812995,0.00670931,0.189501,0.00501396,0.0461047,1525,1667,14.4305,-58.5859
308,-643,14.5908,58.0776,0.00773772,0.0071691,-0.000631252,0.00814573,0.00676109,-0.573811,0.00503284,0.038374,1532,1667,14.5908,-58.0777
315,-643,14.5449,57.5421,0.00730827,0.00725491,-0.00135219,0.00863404,0.00592914,-0.775534,0.00509941,0.0326971,1539,1667,14.5449,-57.5421
322,-643,14.5547,56.9045,0.0071128,0.00771876,-0.00228443,0.00972021,0.00511134,-0.851328,0.00561447,0.0205475,1546,1667,14.5547,-56.9045
329,-643,14.5463,56.2656,0.00683989,0.00788982,-0.00298071,0.0103914,0.00433827,-0.872565,0.00602668,0.0139438,1553,1667,14.5462,-56.2657
336,-643,14.5212,55.6885,0.00643497,0.00792458,-0.00337634,0.0106373,0.00372226,-0.893957,0.00623298,0.0128932,1560,1667,14.5213,-55.6885
343,-643,14.5508,55.098,0.00596699,0.00763867,-0.0035308,0.0104312,0.00317444,-0.901623,0.00617428,0.013657,1567,1667,14.5508,-55.098
350,-643,14.5878,54.455,0.00550046,0.00717448,-0.00366712,0.0100989,0.00257604,-0.897599,0.00605929,0.0125708,1574,1667,14.5877,-54.4549
357,-643,14.5677,53.8191,0.00485984,0.00671499,-0.00359437,0.00949954,0.00207528,-0.911675,0.0057671,0.0110862,1581,1667,14.5677,-53.8191
364,-643,14.5596,53.1761,0.00425013,0.00606642,-0.00340486,0.00868217,0.00163439,-0.915725,0.00532755,0.010038,1588,1667,14.5596,-53.1761
371,-643,14.5607,52.5533,0.00371527,0.00528369,-0.00306333,0.0076616,0.00133737,-0.910707,0.00472545,0.00825808,1595,1667,14.5607,-52.5533
378,-643,14.5458,51.9211,0.00321422,0.00450572,-0.00270441,0.00664041,0.00107954,-0.902592,0.00411457,0.0101842,1602,1667,14.5458,-51.9212
385,-643,14.5297,51.2632,0.00287093,0.00379322,-0.0024502,0.00582529,0.000838863,-0.878414,0.0036363,0.0169184,1609,1667,14.5297,-51.2632
392,-643,14.4874,50.5848,0.00266747,0.00317438,-0.00243687,0.00537094,0.000470909,-0.837216,0.00343443,0.0174925,1616,1667,14.4874,-50.5848
399,-643,14.433,49.9478,0.00244952,0.00266191,-0.00252889,0.00508683,2.45972e-05,-0.806382,0.00338305,0.0145305,1623,1667,14.433,-49.9478
406,-643,14.4314,49.2531,0.00248342,0.00195647,-0.00272723,0.00495987,-0.00051998,-0.737243,0.00349283,0.0134179,1630,1667,14.4314,-49.2531
413,-643,14.4236,48.5566,0.00294432,0.00151397,-0.00325869,0.00556539,-0.0011071,-0.677377,0.00412907,0.0199327,1637,1667,14.4235,-48.5566
420,-643,14.3677,47.9039,0.00362732,0.00121316,-0.00395017,0.00655072,-0.00171024,-0.637115,0.005035,0.0203122,1644,1667,14.3677,-47.9039
427,-643,14.3329,47.2196,0.00458686,0.000946439,-0.0048881,0.00798265,-0.00244936,-0.607164,0.00629901,0.0171574,1651,1667,14.3329,-47.2197
434,-643,14.2988,46.4965,0.00585301,0.000747072,-0.00604333,0.00986049,-0.00326041,-0.585546,0.00788835,0.0181004,1658,1667,14.2988,-46.4965
441,-643,14.2528,45.7706,0.00733903,0.000381272,-0.00731591,0.0119611,-0.00424079,-0.563461,0.00970169,0.0177174,1665,1667,14.2528,-45.7706
448,-643,14.2924,45.0631,0.00923123,-0.000225693,-0.0087021,0.0144066,-0.00540102,-0.536529,0.0118233,0.0237732,1672,1667,14.2923,-45.0631
455,-643,14.1512,44.4574,0.0114194,-0.00102205,-0.0100652,0.017031,-0.00663369,-0.508607,0.0140956,0.0322798,1679,1667,14.1513,-44.4574
462,-643,14.4047,43.6956,0.0137554,-0.00215496,-0.0114479,0.0197407,-0.0081403,-0.481749,0.0165551,0.0444265,1686,1667,14.4047,-43.6956
469,-643,14.4159,42.9041,0,0,0,0,0,0,0,-1,1693,1667,14.4159,-42.9041
476,-643,10.5598,24.5066,0,0,0,0,0,0,0,-1,1700,1667,10.5598,-24.5065
483,-643,10.4502,24.3062,0,0,0,0,0,0,0,-1,1707,1667,10.4502,-24.3062
490,-643,10.6885,24.1522,0,0,0,0,0,0,0,-1,1714,1667,10.6884,-24.1522
497,-643,10.9073,23.9465,0,0,0,0,0,0,0,-1,1721,1667,10.9074,-23.9465
504,-643,8.05591,19.0656,0,0,0,0,0,0,0,-1,1728,1667,8.0559,-19.0655
511,-643,7.74719,18.1564,0,0,0,0,0,0,0,-1,1735,1667,7.74724,-18.1563
518,-643,7.40564,0.922607,0,0,0,0,0,0,0,-1,1742,1667,7.4057,-0.922598
525,-643,0,0,0,0,0,0,0,0,0,-1,1749,1667,0,0
532,-643,0,0,0,0,0,0,0,0,0,-1,1756,1667,0,0
539,-643,0,0,0,0,0,0,0,0,0,-1,1763,1667,0,0
546,-643,0,0,0,0,0,0,0,0,0,-1,1770,1667,0,0
553,-643,0,0,0,0,0,0,0,0,0,-1,1777,1667,0,0
560,-643,0,0,0,0,0,0,0,0,0,-1,1784,1667,0,0
567,-643,0,0,0,0,0,0,0,0,0,-1,1791,1667,0,0
574,-643,0,0,0,0,0,0,0,0,0,-1,1798,1667,0,0
581,-643,0,0,0,0,0,0,0,0,0,-1,1805,1667,0,0
588,-643,0,0,0,0,0,0,0,0,0,-1,1812,1667,0,0
595,-643,0,0,0,0,0,0,0,0,0,-1,1819,1667,0,0
602,-643,0,0,0,0,0,0,0,0,0,-1,1826,1667,0,0
609,-643,0,0,0,0,0,0,0,0,0,-1,1833,1667,0,0
616,-643,0,0,0,0,0,0,0,0,0,-1,1840,1667,0,0
623,-643,0,0,0,0,0,0,0,0,0,-1,1847,1667,0,0
630,-643,0,0,0,0,0,0,0,0,0,-1,1854,1667,0,0
637,-643,0,0,0,0,0,0,0,0,0,-1,1861,1667,0,0
644,-643,0,0,0,0,0,0,0,0,0,-1,1868,1667,0,0
651,-643,0,0,0,0,0,0,0,0,0,-1,1875,1667,0,0
658,-643,0,0,0,0,0,0,0,0,0,-1,1882,1667,0,0
665,-643,0,0,0,0,0,0,0,0,0,-1,1889,1667,0,0
672,-643,0,0,0,0,0,0,0,0,0,-1,1896,1667,0,0
679,-643,0,0,0,0,0,0,0,0,0,-1,1903,1667,0,0
686,-643,0,0,0,0,0,0,0,0,0,-1,1910,1667,0,0
693,-643,0,0,0,0,0,0,0,0,0,-1,1917,1667,0,0
700,-643,0,0,0,0,0,0,0,0,0,-1,1924,1667,0,0
707,-643,0,0,0,0,0,0,0,0,0,-1,1931,1667,0,0
714,-643,0,0,0,0,0,0,0,0,0,-1,1938,1667,0,0
721,-643,0,0,0,0,0,0,0,0,0,-1,1945,1667,0,0
728,-643,0,0,0,0,0,0,0,0,0,-1,1952,1667,0,0
735,-643,0,0,0,0,0,0,0,0,0,-1,1959,1667,0,0
742,-643,0,0,0,0,0,0,0,0,0,-1,1966,1667,0,0
749,-643,0,0,0,0,0,0,0,0,0,-1,1973,1667,0,0
756,-643,0,0,0,0,0,0,0,0,0,-1,1980,1667,0,0
763,-643,0,0,0,0,0,0,0,0,0,-1,1987,1667,0,0
770,-643,0,0,0,0,0,0,0,0,0,-1,1994,1667,0,0
777,-643,0,0,0,0,0,0,0,0,0,-1,2001,1667,0,0
784,-643,0,0,0,0,0,0,0,0,0,-1,2008,1667,0,0
791,-643,0,0,0,0,0,0,0,0,0,-1,2015,1667,0,0
798,-643,0,0,0,0,0,0,0,0,0,-1,2022,1667,0,0
805,-643,0,0,0,0,0,0,0,0,0,-1,2029,1667,0,0
812,-643,0,0,0,0,0,0,0,0,0,-1,2036,1667,0,0
-700,-650,0,0,0,0,0,0,0,0,0,-1,524,1674,0,0
-693,-650,0,0,0,0,0,0,0,0,0,-1,531,1674,0,0
-686,-650,0,0,0,0,0,0,0,0,0,-1,538,1674,0,0
-679,-650,0,0,0,0,0,0,0,0,0,-1,545,1674,0,0
-672,-650,0,0,0,0,0,0,0,0,0,-1,552,1674,0,0
-665,-650,0,0,0,0,0,0,0,0,0,-1,559,1674,0,0
-658,-650,0,0,0,0,0,0,0,0,0,-1,566,1674,0,0
-651,-650,0,0,0,0,0,0,0,0,0,-1,573,1674,0,0
-644,-650,0,0,0,0,0,0,0,0,0,-1,580,1674,0,0
-637,-650,0,0,0,0,0,0,0,0,0,-1,587,1674,0,0
-630,-650,0,0,0,0,0,0,0,0,0,-1,594,1674,0,0
-623,-650,0,0,0,0,0,0,0,0,0,-1,601,1674,0,0
-616,-650,0,0,0,0,0,0,0,0,0,-1,608,1674,0,0
-609,-650,0,0,0,0,0,0,0,0,0,-1,615,1674,0,0
-602,-650,0,0,0,0,0,0,0,0,0,-1,622,1674,0,0
-595,-650,0,0,0,0,0,0,0,0,0,-1,629,1674,0,0
-588,-650,0,0,0,0,0,0,0,0,0,-1,636,1674,0,0
-581,-650,0,0,0,0,0,0,0,0,0,-1,643,1674,0,0
-574,-650,0,0,0,0,0,0,0,0,0,-1,650,1674,0,0
-567,-650,0,0,0,0,0,0,0,0,0,-1,657,1674,0,0
-560,-650,0,0,0,0,0,0,0,0,0,-1,664,1674,0,0
-553,-650,0,0,0,0,0,0,0,0,0,-1,671,1674,0,0
-546,-650,0,0,0,0,0,0,0,0,0,-1,678,1674,0,0
-539,-650,0,0,0,0,0,0,0,0,0,-1,685,1674,0,0
-532,-650,0,0,0,0,0,0,0,0,0,-1,692,1674,0,0
-525,-650,0,0,0,0,0,0,0,0,0,-1,699,1674,0,0
-518,-650,0,0,0,0,0,0,0,0,0,-1,706,1674,0,0
-511,-650,0,0,0,0,0,0,0,0,0,-1,713,1674,0,0
-504,-650,0,0,0,0,0,0,0,0,0,-1,720,1674,0,0
-497,-650,0,0,0,0,0,0,0,0,0,-1,727,1674,0,0
-490,-650,0,0,0,0,0,0,0,0,0,-1,734,1674,0,0
-483,-650,0,0,0,0,0,0,0,0,0,-1,741,1674,0,0
-476,-650,0,0,0,0,0,0,0,0,0,-1,748,1674,0,0
-469,-650,0,0,0,0,0,0,0,0,0,-1,755,1674,0,0
-462,-650,0,0,0,0,0,0,0,0,0,-1,762,1674,0,0
-455,-650,0,0,0,0,0,0,0,0,0,-1,769,1674,0,0
-448,-650,0,0,0,0,0,0,0,0,0,-1,776,1674,0,0
-441,-650,0,0,0,0,0,0,0,0,0,-1,783,1674,0,0
-434,-650,0,0,0,0,0,0,0,0,0,-1,790,1674,0,0
-427,-650,0,0,0,0,0,0,0,0,0,-1,797,1674,0,0
-420,-650,0,0,0,0,0,0,0,0,0,-1,804,1674,0,0
-413,-650,0,0,0,0,0,0,0,0,0,-1,811,1674,0,0
-406,-650,0,0,0,0,0,0,0,0,0,-1,818,1674,0,0
-399,-650,0,0,0,0,0,0,0,0,0,-1,825,1674,0,0
-392,-650,5.44415,6.85669,0,0,0,0,0,0,0,-1,832,1674,5.44414,-6.85674
-385,-650,1.74451,14.0183,0,0,0,0,0,0,0,-1,839,1674,1.74453,-14.0183
-378,-650,0.997986,4.11108,0,0,0,0,0,0,0,-1,846,1674,0.998006,-4.11113
-371,-650,-1.80096,3.78625,0,0,0,0,0,0,0,-1,853,1674,-1.80094,-3.78625
-364,-650,-2.95679,2.57507,0,0,0,0,0,0,0,-1,860,1674,-2.95681,-2.57506
-357,-650,5.76074,34.531,0,0,0,0,0,0,0,-1,867,1674,5.76077,-34.531
-350,-650,5.11011,35.4972,0,0,0,0,0,0,0,-1,874,1674,5.1101,-35.4971
-343,-650,5.20538,37.4165,0,0,0,0,0,0,0,-1,881,1674,5.20538,-37.4166
-336,-650,3.26898,43.8756,0,0,0,0,0,0,0,-1,888,1674,3.26897,-43.8756
-329,-650,3.89203,44.384,0,0,0,0,0,0,0,-1,895,1674,3.892,-44.3841
-322,-650,4.09314,45.0226,0.0113837,0.00245854,0.010617,0.0184378,-0.0045956,0.586446,0.0140761,0.0480192,902,1674,4.09311,-45.0226
-315,-650,4.1579,45.699,0.00814367,0.00155816,0.00872493,0.0141765,-0.00447467,0.604963,0.0112434,0.0390122,909,1674,4.1579,-45.699
-308,-650,4.18622,46.5543,0.00539905,0.00117191,0.00697525,0.0105739,-0.00400296,0.63829,0.00869632,0.0221914,916,1674,4.18623,-46.5543
-301,-650,4.14331,47.3604,0.00324402,0.000750699,0.00553929,0.0076752,-0.00368048,0.674713,0.00669006,0.011926,923,1674,4.14331,-47.3604
-294,-650,4.0835,48.0648,0.00172391,0.000459473,0.00439401,0.00553095,-0.00334757,0.713948,0.00517743,0.0100642,930,1674,4.08353,-48.0648
-287,-650,4.02802,48.7723,0.000737164,0.000424628,0.00350367,0.00408805,-0.00292626,0.763112,0.00406819,0.0139328,937,1674,4.02799,-48.7723
-280,-650,3.99713,49.4535,1.06581e-05,0.000615793,0.00274264,0.00307251,-0.00244605,0.840336,0.00319298,0.0159585,944,1674,3.9971,-49.4535
-273,-650,3.96375,50.1654,-0.000313475,0.000906853,0.00225234,0.00263022,-0.00203684,0.917674,0.00270178,0.0159452,951,1674,3.96372,-50.1654
-266,-650,3.8963,50.8618,-0.000554265,0.00111897,0.00182173,0.002287,-0.0017223,1.00066,0.00232241,0.0130563,958,1674,3.8963,-50.8618
-259,-650,3.86383,51.5354,-0.000243864,0.0015964,0.0015475,0.00247665,-0.00112412,1.05362,0.00212723,0.0159521,965,1674,3.86384,-51.5354
-252,-650,3.85645,52.2178,0.000351722,0.00207041,0.00133976,0.00280274,-0.000380608,1.07056,0.00200743,0.0146727,972,1674,3.85646,-52.2177
-245,-650,3.82837,52.8604,0.00100062,0.00238036,0.00121494,0.00308763,0.000293348,1.04361,0.00196794,0.0125894,979,1674,3.82837,-52.8604
-238,-650,3.79767,53.5144,0.00164647,0.00240772,0.00121623,0.00330149,0.000752693,0.937048,0.00199793,0.0127424,986,1674,3.79767,-53.5144
-231,-650,3.73022,54.182,0.00236873,0.00247308,0.00136818,0.00379008,0.00105173,0.804457,0.00225927,0.0174949,993,1674,3.73022,-54.1821
-224,-650,3.73456,54.8177,0.0029544,0.00227544,0.00131123,0.00396938,0.00126046,0.658728,0.00234203,0.0153572,1000,1674,3.73455,-54.8178
-217,-650,3.73743,55.4077,0.00341257,0.00193979,0.001281,0.00415375,0.0011986,0.524536,0.00246861,0.0106647,1007,1674,3.73744,-55.4077
-210,-650,3.76727,56.0063,0.00387319,0.0014809,0.00123297,0.00439488,0.000959205,0.400278,0.00266829,0.010568,1014,1674,3.76728,-56.0063
-203,-650,3.79761,56.6392,0.00443755,0.000921795,0.00115304,0.00478196,0.000577379,0.290266,0.00301401,0.0151429,1021,1674,3.7976,-56.6392
-196,-650,3.74805,57.2377,0.00489546,0.00033149,0.0013095,0.00524449,-1.75415e-05,0.260482,0.00350219,0.0142299,1028,1674,3.74811,-57.2376
-189,-650,3.73865,57.8075,0.00499664,0.000432841,0.00164927,0.00553026,-0.000100784,0.312921,0.00372089,0.0122262,1035,1674,3.73871,-57.8075
-182,-650,3.82739,58.4546,0.00504821,0.000940658,0.00184988,0.0057585,0.000230367,0.366607,0.00376456,0.0145096,1042,1674,3.82744,-58.4546
-175,-650,3.82227,58.9608,0.00509203,0.0016918,0.00224773,0.00621019,0.000573643,0.461616,0.00396277,0.02537,1049,1674,3.82222,-58.9608
-168,-650,3.80505,59.5122,0.00494601,0.0030171,0.00268717,0.00683656,0.00112655,0.613103,0.00423247,0.0309657,1056,1674,3.80511,-59.5122
-161,-650,3.71936,59.9922,0.00498039,0.00492531,0.00331971,0.00827268,0.00163302,0.781251,0.0050594,0.0383095,1063,1674,3.71942,-59.9922
-154,-650,3.75623,60.4685,0.00490378,0.00747994,0.00401314,0.0104067,0.00197707,0.940688,0.00638166,0.0354713,1070,1674,3.75628,-60.4685
-147,-650,3.98999,61.1144,0.00463953,0.0106159,0.00479892,0.013281,0.00197451,1.06386,0.00827471,0.0431481,1077,1674,3.98997,-61.1144
-140,-650,3.81982,62.1873,0.00423923,0.0142469,0.00552752,0.0166991,0.00178708,1.15326,0.0105874,0.0488114,1084,1674,3.81986,-62.1873
-133,-650,3.79016,63.2565,0,0,0,0,0,0,0,-1,1091,1674,3.79013,-63.2565
-126,-650,3.67334,62.924,0,0,0,0,0,0,0,-1,1098,1674,3.67329,-62.924
-119,-650,5.16663,20.6232,0,0,0,0,0,0,0,-1,1105,1674,5.16665,-20.6232
-112,-650,3.86292,14.4513,0,0,0,0,0,0,0,-1,1112,1674,3.8629,-14.4513
-105,-650,7.92102,38.1313,0,0,0,0,0,0,0,-1,1119,1674,7.92104,-38.1314
-98,-650,3.3761,6.78003,0,0,0,0,0,0,0,-1,1126,1674,3.37611,-6.78009
-91,-650,3.66809,7.04443,0,0,0,0,0,0,0,-1,1133,1674,3.66806,-7.04439
-84,-650,-3.82666,-1.59521,0,0,0,0,0,0,0,-1,1140,1674,-3.82661,1.59517
-77,-650,-4.70557,1.90198,0,0,0,0,0,0,0,-1,1147,1674,-4.7056,-1.90194
-70,-650,-4.88171,3.81653,0,0,0,0,0,0,0,-1,1154,1674,-4.88176,-3.81651
-63,-650,-5.14612,5.56543,0,0,0,0,0,0,0,-1,1161,1674,-5.14612,-5.56547
-56,-650,-5.38367,7.41101,0,0,0,0,0,0,0,-1,1168,1674,-5.38361,-7.41102
-49,-650,-5.11316,8.23706,0,0,0,0,0,0,0,-1,1175,1674,-5.11317,-8.23708
-42,-650,-4.99487,9.6792,0,0,0,0,0,0,0,-1,1182,1674,-4.99484,-9.67921
-35,-650,-4.77771,11.3369,0,0,0,0,0,0,0,-1,1189,1674,-4.77769,-11.3369
-28,-650,-4.1936,13.1501,0,0,0,0,0,0,0,-1,1196,1674,-4.19358,-13.1501
-21,-650,7.52466,48.5822,0,0,0,0,0,0,0,-1,1203,1674,7.52469,-48.5821
-14,-650,5.94885,70.5787,0,0,0,0,0,0,0,-1,1210,1674,5.94887,-70.5787
-7,-650,6.58228,70.2144,0.119696,0.0857923,-0.0396961,0.145908,0.0595799,-0.5836,0.0847107,0.0478677,1217,1674,6.58233,-70.2143
0,-650,7.28394,69.7704,0.118581,0.0795419,-0.038162,0.141926,0.056197,-0.549001,0.0825299,0.0453616,1224,1674,7.28398,-69.7704
7,-650,10.3054,69.5948,0.115038,0.0795633,-0.0348503,0.136405,0.0581961,-0.550007,0.0790354,0.0450717,1231,1674,10.3054,-69.5948
14,-650,8.33875,68.8715,0,0,0,0,0,0,0,-1,1238,1674,8.33877,-68.8715
21,-650,9.03845,68.4758,0.104883,0.097219,-0.0268984,0.128221,0.073881,-0.714644,0.0743144,0.0463851,1245,1674,9.03842,-68.4758
28,-650,10.4736,67.8759,0.100528,0.110454,-0.0238903,0.129891,0.0810905,-0.887813,0.0757612,0.0451273,1252,1674,10.4737,-67.8759
35,-650,11.9041,67.6085,0,0,0,0,0,0,0,-1,1259,1674,11.904,-67.6085
42,-650,9.54163,66.9054,0.0928525,0.138353,-0.0210373,0.146589,0.0846167,-1.19765,0.0849693,0.0449658,1266,1674,9.54161,-66.9054
49,-650,10.1226,66.3071,0.0900448,0.150988,-0.0209644,0.157503,0.0835296,-1.26948,0.0909901,0.0467433,1273,1674,10.1226,-66.3071
56,-650,10.5785,65.8718,0.0868968,0.165157,-0.020648,0.170271,0.0817832,-1.32803,0.0983313,0.0464516,1280,1674,10.5785,-65.8718
63,-650,11.2883,65.3989,0.0833567,0.175643,-0.0187378,0.179302,0.0796973,-1.37793,0.103733,0.0470837,1287,1674,11.2884,-65.399
70,-650,11.8513,64.8792,0.0840137,0.182242,-0.016273,0.184868,0.081388,-1.41082,0.106987,0.0487666,1294,1674,11.8513,-64.8791
77,-650,12.6343,64.3081,0.0859397,0.185907,-0.0142933,0.18791,0.0839362,-1.43153,0.108696,0.0436438,1301,1674,12.6343,-64.3081
84,-650,13.6056,63.6339,0.088127,0.185893,-0.0112108,0.187162,0.0868579,-1.45808,0.108151,0.0455613,1308,1674,13.6055,-63.6339
91,-650,14.2799,62.994,0.0934715,0.180178,-0.00687607,0.18072,0.0929296,-1.49215,0.104353,0.0460313,1315,1674,14.2799,-62.994
98,-650,15.0343,62.5786,0.100716,0.169775,1.58034e-05,0.169775,0.100716,1.57057,0.0985861,0.0457339,1322,1674,15.0343,-62.5786
105,-650,15.792,62.3807,0.110149,0.153138,0.0102023,0.155437,0.107851,1.34922,0.0919623,0.0463803,1329,1674,15.792,-62.3807
112,-650,16.1892,62.4391,0.121704,0.132675,0.023286,0.151113,0.103266,0.90107,0.0891793,0.0430626,1336,1674,16.1893,-62.439
119,-650,16.1652,62.2734,0.134882,0.111889,0.0380872,0.16317,0.0836008,0.638823,0.0942157,0.0417224,1343,1674,16.1651,-62.2735
126,-650,16.2953,61.7947,0,0,0,0,0,0,0,-1,1350,1674,16.2953,-61.7946
133,-650,11.2542,65.0675,0,0,0,0,0,0,0,-1,1357,1674,11.2541,-65.0675
140,-650,9.22705,70.9298,0,0,0,0,0,0,0,-1,1364,1674,9.22704,-70.9298
147,-650,15.6283,69.7383,0,0,0,0,0,0,0,-1,1371,1674,15.6283,-69.7382
154,-650,7.51245,59.8033,0,0,0,0,0,0,0,-1,1378,1674,7.51242,-59.8033
161,-650,4.09106,30.3021,0,0,0,0,0,0,0,-1,1385,1674,4.09104,-30.3021
168,-650,11.2113,7.87231,0,0,0,0,0,0,0,-1,1392,1674,11.2113,-7.87236
175,-650,5.62537,-0.230713,0,0,0,0,0,0,0,-1,1399,1674,5.62538,0.230745
182,-650,5.56006,0.421631,0,0,0,0,0,0,0,-1,1406,1674,5.56,-0.421652
189,-650,4.81543,11.0654,0,0,0,0,0,0,0,-1,1413,1674,4.81542,-11.0654
196,-650,5.39575,11.9077,0,0,0,0,0,0,0,-1,1420,1674,5.39575,-11.9078
203,-650,3.93628,11.8215,0,0,0,0,0,0,0,-1,1427,1674,3.93624,-11.8216
210,-650,5.40955,8.08594,0,0,0,0,0,0,0,-1,1434,1674,5.40958,-8.086
217,-650,5.12451,4.69739,0,0,0,0,0,0,0,-1,1441,1674,5.12451,-4.69738
224,-650,4.79041,1.45813,0,0,0,0,0,0,0,-1,1448,1674,4.79046,-1.45816
231,-650,4.04102,-0.642212,0,0,0,0,0,0,0,-1,1455,1674,4.04101,0.642209
238,-650,3.23022,-1.43396,0,0,0,0,0,0,0,-1,1462,1674,3.23023,1.43394
245,-650,1.65894,-2.55042,0,0,0,0,0,0,0,-1,1469,1674,1.65889,2.55036
252,-650,8.75342,0.355103,0,0,0,0,0,0,0,-1,1476,1674,8.75337,-0.355147
259,-650,5.61255,3.17566,0,0,0,0,0,0,0,-1,1483,1674,5.61257,-3.17572
266,-650,4.00403,6.10229,0,0,0,0,0,0,0,-1,1490,1674,4.00401,-6.10225
273,-650,11.9524,42.7109,0,0,0,0,0,0,0,-1,1497,1674,11.9524,-42.7109
280,-650,12.3011,46.7283,0,0,0,0,0,0,0,-1,1504,1674,12.3011,-46.7283
287,-650,13.9774,59.5037,0,0,0,0,0,0,0,-1,1511,1674,13.9775,-59.5037
294,-650,13.9858,59.1895,0.0074373,0.00397788,0.000897792,0.00765642,0.00375876,0.239382,0.00442068,0.0474189,1518,1674,13.9858,-59.1895
301,-650,13.8781,58.5574,0.00694962,0.00446824,0.000293298,0.00698382,0.00443404,0.116068,0.00408073,0.0364983,1525,1674,13.878,-58.5573
308,-650,13.9305,58.0411,0.00640628,0.00466064,-0.00014632,0.00641846,0.00464846,-0.0830478,0.0038279,0.0216532,1532,1674,13.9305,-58.0411
315,-650,13.9642,57.5018,0.00588739,0.00468941,-0.000544389,0.00609781,0.00447898,-0.36884,0.00364738,0.0142357,1539,1674,13.9643,-57.5018
322,-650,13.9432,56.9268,0.00554958,0.00507796,-0.00120762,0.0065442,0.00408335,-0.688977,0.00381681,0.0122788,1546,1674,13.9433,-56.9268
329,-650,13.9639,56.2756,0.00523534,0.00530919,-0.00180616,0.00707881,0.00346572,-0.795619,0.00408725,0.0162864,1553,1674,13.9639,-56.2757
336,-650,13.9619,55.6892,0.00488097,0.00546577,-0.00219708,0.00738982,0.00295692,-0.851553,0.00429479,0.0153502,1560,1674,13.9619,-55.6892
343,-650,13.9476,55.0901,0.00445667,0.00546507,-0.00247549,0.00748718,0.00243456,-0.885863,0.00440994,0.0146572,1567,1674,13.9476,-55.09
350,-650,13.9664,54.4637,0.00406059,0.00527526,-0.00279082,0.00752407,0.00181178,-0.892537,0.00453442,0.0158715,1574,1674,13.9664,-54.4638
357,-650,13.9343,53.8411,0.00356193,0.00507553,-0.00292191,0.00733706,0.0013004,-0.912117,0.00452069,0.0133219,1581,1674,13.9344,-53.8411
364,-650,13.9153,53.2045,0.0030791,0.00464491,-0.00291865,0.00688384,0.000840176,-0.916435,0.00433638,0.00948652,1588,1674,13.9153,-53.2044
371,-650,13.9056,52.579,0.00266362,0.00410254,-0.00278924,0.00626362,0.000502544,-0.911617,0.00401872,0.011616,1595,1674,13.9057,-52.5789
378,-650,13.8767,51.9313,0.00229358,0.00354937,-0.00261715,0.00561289,0.000230058,-0.90313,0.00366765,0.012959,1602,1674,13.8767,-51.9312
385,-650,13.8695,51.272,0.00210262,0.00304705,-0.00253984,0.0051582,-8.52952e-06,-0.877311,0.00344164,0.014808,1609,1674,13.8695,-51.2719
392,-650,13.8403,50.6196,0.00212539,0.00264212,-0.00275266,0.00514851,-0.000381006,-0.832191,0.00356613,0.018687,1616,1674,13.8403,-50.6196
399,-650,13.8027,49.9824,0.00211671,0.00229165,-0.00301371,0.00521916,-0.000810803,-0.799906,0.00377882,0.0164244,1623,1674,13.8028,-49.9824
406,-650,13.7673,49.3008,0.00239537,0.00174916,-0.00340183,0.00548941,-0.00134487,-0.73805,0.00418063,0.0151073,1630,1674,13.7674,-49.3008
413,-650,13.7417,48.5941,0.00315856,0.00143372,-0.00411467,0.00650022,-0.00190794,-0.682095,0.00509008,0.0159172,1637,1674,13.7417,-48.5941
420,-650,13.6813,47.9321,0.00419839,0.00121938,-0.00498197,0.00790875,-0.00249099,-0.640138,0.00627,0.0173217,1644,1674,13.6813,-47.9321
427,-650,13.6321,47.2626,0.00564788,0.00114876,-0.00625517,0.0100457,-0.00324906,-0.612783,0.00800309,0.0166426,1651,1674,13.6321,-47.2626
434,-650,13.5756,46.5548,0.00752912,0.00110923,-0.00781192,0.0127649,-0.00412652,-0.590463,0.0101685,0.0224745,1658,1674,13.5755,-46.5549
441,-650,13.618,45.7308,0.00967984,0.000838176,-0.00951993,0.0157553,-0.00523732,-0.568026,0.012617,0.0406794,1665,1674,13.618,-45.7308
448,-650,13.6171,44.9996,0,0,0,0,0,0,0,-1,1672,1674,13.6171,-44.9996
455,-650,13.5767,45.2804,0,0,0,0,0,0,0,-1,1679,1674,13.5767,-45.2803
462,-650,14.1675,43.746,0,0,0,0,0,0,0,-1,1686,1674,14.1675,-43.7459
469,-650,11.3628,29.8889,0,0,0,0,0,0,0,-1,1693,1674,11.3628,-29.8889
476,-650,10.9189,27.1289,0,0,0,0,0,0,0,-1,1700,1674,10.919,-27.1289
483,-650,10.2426,24.5127,0,0,0,0,0,0,0,-1,1707,1674,10.2425,-24.5127
490,-650,10.4818,24.3475,0,0,0,0,0,0,0,-1,1714,1674,10.4818,-24.3475
497,-650,10.4985,20.1362,0,0,0,0,0,0,0,-1,1721,1674,10.4986,-20.1362
504,-650,9.69458,18.7721,0,0,0,0,0,0,0,-1,1728,1674,9.6946,-18.772
511,-650,9.37158,17.7506,0,0,0,0,0,0,0,-1,1735,1674,9.37159,-17.7506
518,-650,0,0,0,0,0,0,0,0,0,-1,1742,1674,0,0
525,-650,0,0,0,0,0,0,0,0,0,-1,1749,1674,0,0
532,-650,0,0,0,0,0,0,0,0,0,-1,1756,1674,0,0
539,-650,0,0,0,0,0,0,0,0,0,-1,1763,1674,0,0
546,-650,0,0,0,0,0,0,0,0,0,-1,1770,1674,0,0
553,-650,0,0,0,0,0,0,0,0,0,-1,1777,1674,0,0
560,-650,0,0,0,0,0,0,0,0,0,-1,1784,1674,0,0
567,-650,0,0,0,0,0,0,0,0,0,-1,1791,1674,0,0
574,-650,0,0,0,0,0,0,0,0,0,-1,1798,1674,0,0
581,-650,0,0,0,0,0,0,0,0,0,-1,1805,1674,0,0
588,-650,0,0,0,0,0,0,0,0,0,-1,1812,1674,0,0
595,-650,0,0,0,0,0,0,0,0,0,-1,1819,1674,0,0
602,-650,0,0,0,0,0,0,0,0,0,-1,1826,1674,0,0
609,-650,0,0,0,0,0,0,0,0,0,-1,1833,1674,0,0
616,-650,0,0,0,0,0,0,0,0,0,-1,1840,1674,0,0
623,-650,0,0,0,0,0,0,0,0,0,-1,1847,1674,0,0
630,-650,0,0,0,0,0,0,0,0,0,-1,1854,1674,0,0
637,-650,0,0,0,0,0,0,0,0,0,-1,1861,1674,0,0
644,-650,0,0,0,0,0,0,0,0,0,-1,1868,1674,0,0
651,-650,0,0,0,0,0,0,0,0,0,-1,1875,1674,0,0
658,-650,0,0,0,0,0,0,0,0,0,-1,1882,1674,0,0
665,-650,0,0,0,0,0,0,0,0,0,-1,1889,1674,0,0
672,-650,0,0,0,0,0,0,0,0,0,-1,1896,1674,0,0
679,-650,0,0,0,0,0,0,0,0,0,-1,1903,1674,0,0
686,-650,0,0,0,0,0,0,0,0,0,-1,1910,1674,0,0
693,-650,0,0,0,0,0,0,0,0,0,-1,1917,1674,0,0
700,-650,0,0,0,0,0,0,0,0,0,-1,1924,1674,0,0
707,-650,0,0,0,0,0,0,0,0,0,-1,1931,1674,0,0
714,-650,0,0,0,0,0,0,0,0,0,-1,1938,1674,0,0
721,-650,0,0,0,0,0,0,0,0,0,-1,1945,1674,0,0
728,-650,0,0,0,0,0,0,0,0,0,-1,1952,1674,0,0
735,-650,0,0,0,0,0,0,0,0,0,-1,1959,1674,0,0
742,-650,0,0,0,0,0,0,0,0,0,-1,1966,1674,0,0
749,-650,0,0,0,0,0,0,0,0,0,-1,1973,1674,0,0
756,-650,0,0,0,0,0,0,0,0,0,-1,1980,1674,0,0
763,-650,0,0,0,0,0,0,0,0,0,-1,1987,1674,0,0
770,-650,0,0,0,0,0,0,0,0,0,-1,1994,1674,0,0
777,-650,0,0,0,0,0,0,0,0,0,-1,2001,1674,0,0
784,-650,0,0,0,0,0,0,0,0,0,-1,2008,1674,0,0
791,-650,0,0,0,0,0,0,0,0,0,-1,2015,1674,0,0
798,-650,0,0,0,0,0,0,0,0,0,-1,2022,1674,0,0
805,-650,0,0,0,0,0,0,0,0,0,-1,2029,1674,0,0
812,-650,0,0,0,0,0,0,0,0,0,-1,2036,1674,0,0
-700,-657,0,0,0,0,0,0,0,0,0,-1,524,1681,0,0
-693,-657,0,0,0,0,0,0,0,0,0,-1,531,1681,0,0
-686,-657,0,0,0,0,0,0,0,0,0,-1,538,1681,0,0
-679,-657,0,0,0,0,0,0,0,0,0,-1,545,1681,0,0
-672,-657,0,0,0,0,0,0,0,0,0,-1,552,1681,0,0
-665,-657,0,0,0,0,0,0,0,0,0,-1,559,1681,0,0
-658,-657,0,0,0,0,0,0,0,0,0,-1,566,1681,0,0
-651,-657,0,0,0,0,0,0,0,0,0,-1,573,1681,0,0
-644,-657,0,0,0,0,0,0,0,0,0,-1,580,1681,0,0
-637,-657,0,0,0,0,0,0,0,0,0,-1,587,1681,0,0
-630,-657,0,0,0,0,0,0,0,0,0,-1,594,1681,0,0
-623,-657,0,0,0,0,0,0,0,0,0,-1,601,1681,0,0
-616,-657,0,0,0,0,0,0,0,0,0,-1,608,1681,0,0
-609,-657,0,0,0,0,0,0,0,0,0,-1,615,1681,0,0
-602,-657,0,0,0,0,0,0,0,0,0,-1,622,1681,0,0
-595,-657,0,0,0,0,0,0,0,0,0,-1,629,1681,0,0
-588,-657,0,0,0,0,0,0,0,0,0,-1,636,1681,0,0
-581,-657,0,0,0,0,0,0,0,0,0,-1,643,1681,0,0
-574,-657,0,0,0,0,0,0,0,0,0,-1,650,1681,0,0
-567,-657,0,0,0,0,0,0,0,0,0,-1,657,1681,0,0
-560,-657,0,0,0,0,0,0,0,0,0,-1,664,1681,0,0
-553,-657,0,0,0,0,0,0,0,0,0,-1,671,1681,0,0
-546,-657,0,0,0,0,0,0,0,0,0,-1,678,1681,0,0
-539,-657,0,0,0,0,0,0,0,0,0,-1,685,1681,0,0
-532,-657,0,0,0,0,0,0,0,0,0,-1,692,1681,0,0
-525,-657,0,0,0,0,0,0,0,0,0,-1,699,1681,0,0
-518,-657,0,0,0,0,0,0,0,0,0,-1,706,1681,0,0
-511,-657,0,0,0,0,0,0,0,0,0,-1,713,1681,0,0
-504,-657,0,0,0,0,0,0,0,0,0,-1,720,1681,0,0
-497,-657,0,0,0,0,0,0,0,0,0,-1,727,1681,0,0
-490,-657,0,0,0,0,0,0,0,0,0,-1,734,1681,0,0
-483,-657,0,0,0,0,0,0,0,0,0,-1,741,1681,0,0
-476,-657,0,0,0,0,0,0,0,0,0,-1,748,1681,0,0
-469,-657,0,0,0,0,0,0,0,0,0,-1,755,1681,0,0
-462,-657,0,0,0,0,0,0,0,0,0,-1,762,1681,0,0
-455,-657,0,0,0,0,0,0,0,0,0,-1,769,1681,0,0
-448,-657,0,0,0,0,0,0,0,0,0,-1,776,1681,0,0
-441,-657,0,0,0,0,0,0,0,0,0,-1,783,1681,0,0
-434,-657,0,0,0,0,0,0,0,0,0,-1,790,1681,0,0
-427,-657,0,0,0,0,0,0,0,0,0,-1,797,1681,0,0
-420,-657,0,0,0,0,0,0,0,0,0,-1,804,1681,0,0
-413,-657,0,0,0,0,0,0,0,0,0,-1,811,1681,0,0
-406,-657,0,0,0,0,0,0,0,0,0,-1,818,1681,0,0
-399,-657,0,0,0,0,0,0,0,0,0,-1,825,1681,0,0
-392,-657,0,0,0,0,0,0,0,0,0,-1,832,1681,0,0
-385,-657,1.09814,6.18896,0,0,0,0,0,0,0,-1,839,1681,1.09814,-6.18894
-378,-657,0.31488,4.46753,0,0,0,0,0,0,0,-1,846,1681,0.31487,-4.46755
-371,-657,-0.519043,2.69421,0,0,0,0,0,0,0,-1,853,1681,-0.519064,-2.69422
-364,-657,-3.42017,4.18323,0,0,0,0,0,0,0,-1,860,1681,-3.42019,-4.18319
-357,-657,5.03418,34.7598,0,0,0,0,0,0,0,-1,867,1681,5.03417,-34.7597
-350,-657,4.23431,35.8203,0,0,0,0,0,0,0,-1,874,1681,4.23429,-35.8203
-343,-657,3.60156,36.754,0,0,0,0,0,0,0,-1,881,1681,3.60154,-36.754
-336,-657,3.67853,40.0931,0,0,0,0,0,0,0,-1,888,1681,3.67851,-40.0932
-329,-657,3.74213,43.3619,0,0,0,0,0,0,0,-1,895,1681,3.74212,-43.3619
-322,-657,4.37329,44.5353,0.0149143,0.00240904,0.0131649,0.023236,-0.00591265,0.563696,0.0177921,0.0450601,902,1681,4.37327,-44.5352
-315,-657,4.82147,45.6337,0.0103236,0.00127761,0.0107528,0.0174659,-0.00586478,0.586316,0.0140141,0.0441188,909,1681,4.82147,-45.6336
-308,-657,4.79559,46.5516,0.00652522,0.000890038,0.00858103,0.0127394,-0.00532414,0.626768,0.0107179,0.0375852,916,1681,4.79557,-46.5516
-301,-657,4.75256,47.3695,0.00357534,0.000516922,0.00680168,0.0090176,-0.00492534,0.674823,0.00816472,0.0278836,923,1681,4.75255,-47.3695
-294,-657,4.73737,48.132,0.00148208,0.000190128,0.00533521,0.00621028,-0.00453807,0.725153,0.00623054,0.0170925,930,1681,4.73735,-48.132
-287,-657,4.69275,48.8312,0.000149323,0.000172542,0.00419792,0.00435886,-0.004037,0.786781,0.00484854,0.0125602,937,1681,4.69275,-48.8311
-280,-657,4.64661,49.4976,-0.000923156,0.000379662,0.00319722,0.00299115,-0.00353465,0.885894,0.00377203,0.0140694,944,1681,4.64663,-49.4975
-273,-657,4.61285,50.2089,-0.00147623,0.000687099,0.00254183,0.00236784,-0.00315697,0.986565,0.00320058,0.0108745,951,1681,4.61285,-50.2088
-266,-657,4.55524,50.8893,-0.00188892,0.000948264,0.00198261,0.00196753,-0.00290819,1.09593,0.00283241,0.0154259,958,1681,4.55521,-50.8893
-259,-657,4.53021,51.5466,-0.0016219,0.00152416,0.00163264,0.00221827,-0.00231601,1.1688,0.00261807,0.0189848,965,1681,4.53023,-51.5467
-252,-657,4.47742,52.196,-0.00101941,0.00200892,0.00138967,0.00254996,-0.00156045,1.19952,0.00239596,0.0134819,972,1681,4.4774,-52.196
-245,-657,4.47418,52.8698,-0.000393773,0.00234773,0.00124118,0.00282617,-0.00087221,1.20288,0.00223239,0.0159351,979,1681,4.47421,-52.8697
-238,-657,4.46442,53.5537,0.00023845,0.00243925,0.00120513,0.00297078,-0.000293084,1.1554,0.0020851,0.0212589,986,1681,4.46441,-53.5537
-231,-657,4.4115,54.2158,0.0010421,0.00252357,0.0013644,0.00333534,0.000230332,1.03409,0.0021509,0.0222069,993,1681,4.41147,-54.2158
-224,-657,4.35571,54.8621,0.00164953,0.00234626,0.0012541,0.00329948,0.000696308,0.920873,0.0020082,0.0173919,1000,1681,4.3557,-54.8621
-217,-657,4.37299,55.4744,0.00208552,0.00199615,0.0011452,0.0031869,0.000894764,0.7659,0.001898,0.0107554,1007,1681,4.37299,-55.4744
-210,-657,4.39246,56.0593,0.00253122,0.00153842,0.00102975,0.00317797,0.000891668,0.560804,0.00189278,0.0117718,1014,1681,4.39246,-56.0593
-203,-657,4.375,56.6722,0.00307386,0.000886866,0.000900915,0.00339718,0.000563541,0.344568,0.00210227,0.0142184,1021,1681,4.37497,-56.6722
-196,-657,4.3313,57.2673,0.00354366,0.000321695,0.000937022,0.00379635,6.90041e-05,0.263408,0.00250821,0.0148515,1028,1681,4.33124,-57.2673
-189,-657,4.34644,57.849,0.00373792,0.000329773,0.00108063,0.00405168,1.6018e-05,0.282575,0.00269579,0.0107597,1035,1681,4.34642,-57.849
-182,-657,4.36694,58.4294,0.00390074,0.000676725,0.00109633,0.00423822,0.000339242,0.298624,0.00271946,0.00908213,1042,1681,4.367,-58.4294
-175,-657,4.37769,59.0088,0.00414914,0.0012281,0.00130223,0.00464538,0.000731858,0.364084,0.00288409,0.0119118,1049,1681,4.37766,-59.0088
-168,-657,4.34497,59.5966,0.00420607,0.00216386,0.00150461,0.00500335,0.00136658,0.48727,0.00298616,0.0156254,1056,1681,4.34492,-59.5966
-161,-657,4.36938,60.1595,0.00436122,0.00361094,0.00187328,0.00589655,0.0020756,0.686576,0.00345373,0.0164852,1063,1681,4.36937,-60.1596
-154,-657,4.46008,60.6409,0.00452131,0.00562891,0.00234677,0.00748635,0.00266388,0.90127,0.00438173,0.0159644,1070,1681,4.46006,-60.6409
-147,-657,4.50195,61.1609,0.00462849,0.00797121,0.00288633,0.00963517,0.00296453,1.04784,0.00569839,0.02406,1077,1681,4.50194,-61.1609
-140,-657,4.44739,61.902,0.00460443,0.0105177,0.00334478,0.0120253,0.00309685,1.14734,0.00720981,0.0363529,1084,1681,4.44739,-61.902
-133,-657,4.19312,62.5333,0.00467593,0.0135101,0.00370098,0.0148557,0.00333039,1.22209,0.00900141,0.0430617,1091,1681,4.19317,-62.5333
-126,-657,4.54822,63.2697,0,0,0,0,0,0,0,-1,1098,1681,4.54823,-63.2697
-119,-657,5.64758,54.4952,0,0,0,0,0,0,0,-1,1105,1681,5.64753,-54.4952
-112,-657,6.24219,42.9092,0,0,0,0,0,0,0,-1,1112,1681,6.24217,-42.9092
-105,-657,7.37256,41.0361,0,0,0,0,0,0,0,-1,1119,1681,7.37254,-41.0362
-98,-657,8.14404,38.4435,0,0,0,0,0,0,0,-1,1126,1681,8.14405,-38.4435
-91,-657,3.6521,16.6017,0,0,0,0,0,0,0,-1,1133,1681,3.65215,-16.6017
-84,-657,4.08008,10.4579,0,0,0,0,0,0,0,-1,1140,1681,4.08006,-10.4579
-77,-657,-5.29846,0.396606,0,0,0,0,0,0,0,-1,1147,1681,-5.29842,-0.396573
-70,-657,-4.14893,2.14575,0,0,0,0,0,0,0,-1,1154,1681,-4.14893,-2.1458
-63,-657,-4.1239,3.177,0,0,0,0,0,0,0,-1,1161,1681,-4.12391,-3.17698
-56,-657,-6.40576,5.73987,0,0,0,0,0,0,0,-1,1168,1681,-6.40577,-5.7399
-49,-657,-5.98462,7.54053,0,0,0,0,0,0,0,-1,1175,1681,-5.98466,-7.5405
-42,-657,-5.71948,9.28955,0,0,0,0,0,0,0,-1,1182,1681,-5.71951,-9.2895
-35,-657,-5.44556,11.015,0,0,0,0,0,0,0,-1,1189,1681,-5.44555,-11.015
-28,-657,-1.3446,8.92847,0,0,0,0,0,0,0,-1,1196,1681,-1.34459,-8.92848
-21,-657,5.17517,69.8007,0,0,0,0,0,0,0,-1,1203,1681,5.1752,-69.8007
-14,-657,5.99719,69.6873,0.106013,0.0803801,-0.0349578,0.13043,0.0559635,-0.609691,0.0755559,0.0460529,1210,1681,5.99717,-69.6873
-7,-657,6.69177,69.4226,0.107254,0.0731277,-0.0338759,0.128121,0.0522602,-0.5521,0.0743879,0.0455459,1217,1681,6.69178,-69.4226
0,-657,8.13293,68.8916,0,0,0,0,0,0,0,-1,1224,1681,8.13289,-68.8916
7,-657,9.46008,69.1208,0,0,0,0,0,0,0,-1,1231,1681,9.46013,-69.1209
14,-657,9.51892,69.3298,0,0,0,0,0,0,0,-1,1238,1681,9.51892,-69.3298
21,-657,9.27527,67.9498,0.0946491,0.0850698,-0.023561,0.113902,0.0658165,-0.685121,0.0660266,0.0450849,1245,1681,9.27528,-67.9498
28,-657,10.4497,67.5248,0.0909684,0.0960169,-0.0213164,0.114958,0.0720273,-0.844332,0.067076,0.0441745,1252,1681,10.4497,-67.5247
35,-657,11.2483,67.0659,0,0,0,0,0,0,0,-1,1259,1681,11.2482,-67.0659
42,-657,8.9856,65.9725,0.0843112,0.119749,-0.0192716,0.12821,0.0758509,-1.15713,0.0744349,0.0431096,1266,1681,8.98558,-65.9725
49,-657,9.46558,65.5791,0.0817268,0.129819,-0.0192331,0.136565,0.0749812,-1.23347,0.078972,0.0457543,1273,1681,9.46555,-65.5791
56,-657,10.3286,64.9808,0.0787608,0.141195,-0.0189079,0.146475,0.0734812,-1.2985,0.0845676,0.0449257,1280,1681,10.3286,-64.9808
63,-657,11.0848,64.4083,0.0751704,0.149016,-0.0170947,0.152782,0.0714051,-1.354,0.0882711,0.0481508,1287,1681,11.0849,-64.4084
70,-657,11.7216,63.7048,0.0748856,0.153842,-0.0148879,0.156556,0.0721717,-1.39048,0.090479,0.04941,1294,1681,11.7215,-63.7048
77,-657,12.541,63.0327,0.0752584,0.156885,-0.0130427,0.158918,0.073225,-1.41614,0.0918455,0.0442906,1301,1681,12.5411,-63.0327
84,-657,13.1503,62.2581,0.0755647,0.156955,-0.0102764,0.158233,0.0742872,-1.44712,0.0914125,0.0437645,1308,1681,13.1502,-62.2581
91,-657,13.5653,61.6449,0.0782884,0.151946,-0.00657609,0.152528,0.0777059,-1.48245,0.0880674,0.0436608,1315,1681,13.5653,-61.6449
98,-657,14.1053,61.2098,0.0824107,0.143422,-0.00067303,0.143429,0.0824032,-1.55977,0.0831149,0.0473754,1322,1681,14.1053,-61.2099
105,-657,14.8306,60.552,0.0882212,0.129924,0.00781579,0.13134,0.0868045,1.39148,0.0771272,0.0480705,1329,1681,14.8306,-60.5519
112,-657,9.24231,66.9551,0,0,0,0,0,0,0,-1,1336,1681,9.24225,-66.9551
119,-657,8.86523,66.9607,0,0,0,0,0,0,0,-1,1343,1681,8.86524,-66.9607
126,-657,11.2489,66.5908,0,0,0,0,0,0,0,-1,1350,1681,11.2488,-66.5909
133,-657,10.1669,65.4136,0,0,0,0,0,0,0,-1,1357,1681,10.1669,-65.4136
140,-657,9.28247,64.2151,0,0,0,0,0,0,0,-1,1364,1681,9.28244,-64.2151
147,-657,8.47144,63.0674,0,0,0,0,0,0,0,-1,1371,1681,8.47141,-63.0674
154,-657,10.6222,48.2162,0,0,0,0,0,0,0,-1,1378,1681,10.6223,-48.2162
161,-657,4.2926,24.9226,0,0,0,0,0,0,0,-1,1385,1681,4.29264,-24.9226
168,-657,5.21643,0.70105,0,0,0,0,0,0,0,-1,1392,1681,5.21648,-0.7011
175,-657,5.52771,0.649048,0,0,0,0,0,0,0,-1,1399,1681,5.52774,-0.649019
182,-657,5.73999,1.02612,0,0,0,0,0,0,0,-1,1406,1681,5.73995,-1.02611
189,-657,5.92126,1.44116,0,0,0,0,0,0,0,-1,1413,1681,5.92126,-1.44115
196,-657,4.92834,9.59021,0,0,0,0,0,0,0,-1,1420,1681,4.9284,-9.59018
203,-657,6.26343,5.16492,0,0,0,0,0,0,0,-1,1427,1681,6.26345,-5.16488
210,-657,3.9856,5.28088,0,0,0,0,0,0,0,-1,1434,1681,3.98555,-5.28084
217,-657,3.95178,5.2843,0,0,0,0,0,0,0,-1,1441,1681,3.95174,-5.28431
224,-657,6.66736,-0.250244,0,0,0,0,0,0,0,-1,1448,1681,6.66737,0.250229
231,-657,6.85498,-1.70752,0,0,0,0,0,0,0,-1,1455,1681,6.855,1.70758
238,-657,5.34143,-2.89819,0,0,0,0,0,0,0,-1,1462,1681,5.34143,2.89813
245,-657,8.66003,-0.102783,0,0,0,0,0,0,0,-1,1469,1681,8.66,0.102824
252,-657,4.78955,0.623779,0,0,0,0,0,0,0,-1,1476,1681,4.7895,-0.623826
259,-657,2.61523,4.31909,0,0,0,0,0,0,0,-1,1483,1681,2.61523,-4.31908
266,-657,5.35437,11.4742,0,0,0,0,0,0,0,-1,1490,1681,5.35441,-11.4742
273,-657,11.9164,46.0638,0,0,0,0,0,0,0,-1,1497,1681,11.9164,-46.0638
280,-657,12.927,60.1755,0,0,0,0,0,0,0,-1,1504,1681,12.927,-60.1755
287,-657,12.8707,59.5952,0,0,0,0,0,0,0,-1,1511,1681,12.8707,-59.5952
294,-657,13.2496,59.1078,0.00650725,0.00255021,0.000484184,0.00656563,0.00249183,0.120002,0.00382717,0.0400261,1518,1681,13.2497,-59.1078
301,-657,13.3171,58.6606,0.00598933,0.00292044,0.000146237,0.00599628,0.00291349,0.0475081,0.00346241,0.0273056,1525,1681,13.3171,-58.6607
308,-657,13.3209,58.0991,0.00542153,0.003098,-0.000135964,0.00542946,0.00309007,-0.0582511,0.00314467,0.0162837,1532,1681,13.3209,-58.0991
315,-657,13.3438,57.5007,0.00488608,0.00321192,-0.000431398,0.0049907,0.0031073,-0.237931,0.00291012,0.0115876,1539,1681,13.3438,-57.5008
322,-657,13.3689,56.8972,0.00445134,0.00357663,-0.000921481,0.00503399,0.00299398,-0.563827,0.00292372,0.0140558,1546,1681,13.3689,-56.8972
329,-657,13.3679,56.2987,0.00407571,0.00381895,-0.00141042,0.00536358,0.00253108,-0.740013,0.00309829,0.0200788,1553,1681,13.368,-56.2987
336,-657,13.3508,55.694,0.00370719,0.0040092,-0.00173928,0.00560401,0.00211237,-0.828699,0.00326798,0.0179496,1560,1681,13.3509,-55.694
343,-657,13.3679,55.0874,0.00328738,0.00410617,-0.00201159,0.00574961,0.00164394,-0.885786,0.00341945,0.0149936,1567,1681,13.3679,-55.0874
350,-657,13.3582,54.4764,0.00289269,0.00402778,-0.00235407,0.00588175,0.00103872,-0.903686,0.00362488,0.0161086,1574,1681,13.3582,-54.4764
357,-657,13.323,53.8481,0.00245312,0.00394025,-0.00255757,0.00586015,0.000533214,-0.926864,0.00374171,0.0149623,1581,1681,13.323,-53.8481
364,-657,13.3009,53.2139,0.00203762,0.00360344,-0.0026222,0.00555712,8.39462e-05,-0.93047,0.00367708,0.011185,1588,1681,13.301,-53.2139
371,-657,13.2743,52.6085,0.00170149,0.00320334,-0.00261393,0.00517207,-0.000267243,-0.92527,0.00354049,0.0157847,1595,1681,13.2743,-52.6085
378,-657,13.2263,51.9551,0.00143718,0.00281248,-0.00257453,0.00478961,-0.000539949,-0.915901,0.00338743,0.0161356,1602,1681,13.2263,-51.9551
385,-657,13.1931,51.3018,0.00138997,0.00249203,-0.00264951,0.0046472,-0.000765202,-0.887923,0.00338218,0.0146977,1609,1681,13.1931,-51.3018
392,-657,13.175,50.6718,0.00164397,0.00229627,-0.00308926,0.00507655,-0.00113631,-0.837991,0.00381989,0.0146525,1616,1681,13.175,-50.6718
399,-657,13.1675,49.9941,0.00187524,0.00211751,-0.00355661,0.00555505,-0.00156229,-0.802421,0.00431936,0.0140928,1623,1681,13.1675,-49.9942
406,-657,13.1178,49.3251,0.00243266,0.00181301,-0.00419968,0.00633393,-0.00208826,-0.748578,0.00506432,0.0157184,1630,1681,13.1178,-49.3251
413,-657,13.0852,48.6227,0.00355005,0.00170237,-0.00517621,0.00788421,-0.00263179,-0.697089,0.00631882,0.0151222,1637,1681,13.0852,-48.6227
420,-657,13.0601,47.8916,0.00502762,0.0016434,-0.00631364,0.00987198,-0.00320095,-0.654471,0.00786841,0.0202573,1644,1681,13.06,-47.8916
427,-657,12.9889,47.1329,0.00710483,0.00184698,-0.00804493,0.0129395,-0.00398767,-0.627478,0.0102183,0.0289292,1651,1681,12.9889,-47.1329
434,-657,13.1044,46.3571,0.00980748,0.00199855,-0.0101355,0.0167646,-0.00495852,-0.601545,0.0131447,0.0385652,1658,1681,13.1044,-46.357
441,-657,13.4961,45.6096,0.0128174,0.0018246,-0.0123666,0.0208541,-0.00621207,-0.576282,0.0163711,0.0497157,1665,1681,13.4961,-45.6097
448,-657,13.8298,44.941,0,0,0,0,0,0,0,-1,1672,1681,13.8298,-44.9411
455,-657,12.9596,46.0713,0,0,0,0,0,0,0,-1,1679,1681,12.9596,-46.0713
462,-657,10.2832,30.1719,0,0,0,0,0,0,0,-1,1686,1681,10.2831,-30.1718
469,-657,9.22205,26.4175,0,0,0,0,0,0,0,-1,1693,1681,9.2221,-26.4175
476,-657,8.9519,20.5712,0,0,0,0,0,0,0,-1,1700,1681,8.95194,-20.5712
483,-657,10.0663,21.8628,0,0,0,0,0,0,0,-1,1707,1681,10.0663,-21.8628
490,-657,11.6039,21.2185,0,0,0,0,0,0,0,-1,1714,1681,11.6038,-21.2185
497,-657,9.20862,17.8127,0,0,0,0,0,0,0,-1,1721,1681,9.2086,-17.8127
504,-657,0,0,0,0,0,0,0,0,0,-1,1728,1681,0,0
511,-657,0,0,0,0,0,0,0,0,0,-1,1735,1681,0,0
518,-657,0,0,0,0,0,0,0,0,0,-1,1742,1681,0,0
525,-657,0,0,0,0,0,0,0,0,0,-1,1749,1681,0,0
532,-657,0,0,0,0,0,0,0,0,0,-1,1756,1681,0,0
539,-657,0,0,0,0,0,0,0,0,0,-1,1763,1681,0,0
546,-657,0,0,0,0,0,0,0,0,0,-1,1770,1681,0,0
553,-657,0,0,0,0,0,0,0,0,0,-1,1777,1681,0,0
560,-657,0,0,0,0,0,0,0,0,0,-1,1784,1681,0,0
567,-657,0,0,0,0,0,0,0,0,0,-1,1791,1681,0,0
574,-657,0,0,0,0,0,0,0,0,0,-1,1798,1681,0,0
581,-657,0,0,0,0,0,0,0,0,0,-1,1805,1681,0,0
588,-657,0,0,0,0,0,0,0,0,0,-1,1812,1681,0,0
595,-657,0,0,0,0,0,0,0,0,0,-1,1819,1681,0,0
602,-657,0,0,0,0,0,0,0,0,0,-1,1826,1681,0,0
609,-657,0,0,0,0,0,0,0,0,0,-1,1833,1681,0,0
616,-657,0,0,0,0,0,0,0,0,0,-1,1840,1681,0,0
623,-657,0,0,0,0,0,0,0,0,0,-1,1847,1681,0,0
630,-657,0,0,0,0,0,0,0,0,0,-1,1854,1681,0,0
637,-657,0,0,0,0,0,0,0,0,0,-1,1861,1681,0,0
644,-657,0,0,0,0,0,0,0,0,0,-1,1868,1681,0,0
651,-657,0,0,0,0,0,0,0,0,0,-1,1875,1681,0,0
658,-657,0,0,0,0,0,0,0,0,0,-1,1882,1681,0,0
665,-657,0,0,0,0,0,0,0,0,0,-1,1889,1681,0,0
672,-657,0,0,0,0,0,0,0,0,0,-1,1896,1681,0,0
679,-657,0,0,0,0,0,0,0,0,0,-1,1903,1681,0,0
686,-657,0,0,0,0,0,0,0,0,0,-1,1910,1681,0,0
693,-657,0,0,0,0,0,0,0,0,0,-1,1917,1681,0,0
700,-657,0,0,0,0,0,0,0,0,0,-1,1924,1681,0,0
707,-657,0,0,0,0,0,0,0,0,0,-1,1931,1681,0,0
714,-657,0,0,0,0,0,0,0,0,0,-1,1938,1681,0,0
721,-657,0,0,0,0,0,0,0,0,0,-1,1945,1681,0,0
728,-657,0,0,0,0,0,0,0,0,0,-1,1952,1681,0,0
735,-657,0,0,0,0,0,0,0,0,0,-1,1959,1681,0,0
742,-657,0,0,0,0,0,0,0,0,0,-1,1966,1681,0,0
749,-657,0,0,0,0,0,0,0,0,0,-1,1973,1681,0,0
756,-657,0,0,0,0,0,0,0,0,0,-1,1980,1681,0,0
763,-657,0,0,0,0,0,0,0,0,0,-1,1987,1681,0,0
770,-657,0,0,0,0,0,0,0,0,0,-1,1994,1681,0,0
777,-657,0,0,0,0,0,0,0,0,0,-1,2001,1681,0,0
784,-657,0,0,0,0,0,0,0,0,0,-1,2008,1681,0,0
791,-657,0,0,0,0,0,0,0,0,0,-1,2015,1681,0,0
798,-657,0,0,0,0,0,0,0,0,0,-1,2022,1681,0,0
805,-657,0,0,0,0,0,0,0,0,0,-1,2029,1681,0,0
812,-657,0,0,0,0,0,0,0,0,0,-1,2036,1681,0,0
-700,-664,0,0,0,0,0,0,0,0,0,-1,524,1688,0,0
-693,-664,0,0,0,0,0,0,0,0,0,-1,531,1688,0,0
-686,-664,0,0,0,0,0,0,0,0,0,-1,538,1688,0,0
-679,-664,0,0,0,0,0,0,0,0,0,-1,545,1688,0,0
-672,-664,0,0,0,0,0,0,0,0,0,-1,552,1688,0,0
-665,-664,0,0,0,0,0,0,0,0,0,-1,559,1688,0,0
-658,-664,0,0,0,0,0,0,0,0,0,-1,566,1688,0,0
-651,-664,0,0,0,0,0,0,0,0,0,-1,573,1688,0,0
-644,-664,0,0,0,0,0,0,0,0,0,-1,580,1688,0,0
-637,-664,0,0,0,0,0,0,0,0,0,-1,587,1688,0,0
-630,-664,0,0,0,0,0,0,0,0,0,-1,594,1688,0,0
-623,-664,0,0,0,0,0,0,0,0,0,-1,601,1688,0,0
-616,-664,0,0,0,0,0,0,0,0,0,-1,608,1688,0,0
-609,-664,0,0,0,0,0,0,0,0,0,-1,615,1688,0,0
-602,-664,0,0,0,0,0,0,0,0,0,-1,622,1688,0,0
-595,-664,0,0,0,0,0,0,0,0,0,-1,629,1688,0,0
-588,-664,0,0,0,0,0,0,0,0,0,-1,636,1688,0,0
-581,-664,0,0,0,0,0,0,0,0,0,-1,643,1688,0,0
-574,-664,0,0,0,0,0,0,0,0,0,-1,650,1688,0,0
-567,-664,0,0,0,0,0,0,0,0,0,-1,657,1688,0,0
-560,-664,0,0,0,0,0,0,0,0,0,-1,664,1688,0,0
-553,-664,0,0,0,0,0,0,0,0,0,-1,671,1688,0,0
-546,-664,0,0,0,0,0,0,0,0,0,-1,678,1688,0,0
-539,-664,0,0,0,0,0,0,0,0,0,-1,685,1688,0,0
-532,-664,0,0,0,0,0,0,0,0,0,-1,692,1688,0,0
-525,-664,0,0,0,0,0,0,0,0,0,-1,699,1688,0,0
-518,-664,0,0,0,0,0,0,0,0,0,-1,706,1688,0,0
-511,-664,0,0,0,0,0,0,0,0,0,-1,713,1688,0,0
-504,-664,0,0,0,0,0,0,0,0,0,-1,720,1688,0,0
-497,-664,0,0,0,0,0,0,0,0,0,-1,727,1688,0,0
-490,-664,0,0,0,0,0,0,0,0,0,-1,734,1688,0,0
-483,-664,0,0,0,0,0,0,0,0,0,-1,741,1688,0,0
-476,-664,0,0,0,0,0,0,0,0,0,-1,748,1688,0,0
-469,-664,0,0,0,0,0,0,0,0,0,-1,755,1688,0,0
-462,-664,0,0,0,0,0,0,0,0,0,-1,762,1688,0,0
-455,-664,0,0,0,0,0,0,0,0,0,-1,769,1688,0,0
-448,-664,0,0,0,0,0,0,0,0,0,-1,776,1688,0,0
-441,-664,0,0,0,0,0,0,0,0,0,-1,783,1688,0,0
-434,-664,0,0,0,0,0,0,0,0,0,-1,790,1688,0,0
-427,-664,0,0,0,0,0,0,0,0,0,-1,797,1688,0,0
-420,-664,0,0,0,0,0,0,0,0,0,-1,804,1688,0,0
-413,-664,0,0,0,0,0,0,0,0,0,-1,811,1688,0,0
-406,-664,0,0,0,0,0,0,0,0,0,-1,818,1688,0,0
-399,-664,0,0,0,0,0,0,0,0,0,-1,825,1688,0,0
-392,-664,0,0,0,0,0,0,0,0,0,-1,832,1688,0,0
-385,-664,0,0,0,0,0,0,0,0,0,-1,839,1688,0,0
-378,-664,0,0,0,0,0,0,0,0,0,-1,846,1688,0,0
-371,-664,-1.61676,5.92737,0,0,0,0,0,0,0,-1,853,1688,-1.61675,-5.92735
-364,-664,-3.901,5.87024,0,0,0,0,0,0,0,-1,860,1688,-3.90097,-5.87027
-357,-664,-4.81012,4.53479,0,0,0,0,0,0,0,-1,867,1688,-4.81012,-4.5348
-350,-664,3.26105,36.0225,0,0,0,0,0,0,0,-1,874,1688,3.26104,-36.0224
-343,-664,5.56708,45.6833,0,0,0,0,0,0,0,-1,881,1688,5.56709,-45.6833
-336,-664,5.21466,44.8312,0,0,0,0,0,0,0,-1,888,1688,5.21463,-44.8312
-329,-664,5.05334,43.625,0,0,0,0,0,0,0,-1,895,1688,5.05332,-43.625
-322,-664,5.31079,44.7288,0.0188841,0.00182977,0.0157549,0.0282714,-0.00755759,0.537353,0.0218078,0.0496205,902,1688,5.3108,-44.7287
-315,-664,5.45795,45.7657,0.01263,0.000428381,0.0127834,0.0206938,-0.00763542,0.56276,0.0169252,0.0495616,909,1688,5.45794,-45.7657
-308,-664,5.42444,46.6282,0.00759586,0.000230477,0.0101402,0.0147014,-0.00687505,0.611215,0.0127274,0.0483796,916,1688,5.42444,-46.6282
-301,-664,5.39667,47.4624,0.00378116,0.00010495,0.00805225,0.0102024,-0.00631633,0.673185,0.00962468,0.0451058,923,1688,5.39667,-47.4624
-294,-664,5.34082,48.1874,0.00110769,-1.0289e-05,0.00636686,0.00694005,-0.00584265,0.741612,0.00738915,0.0433815,930,1688,5.34081,-48.1874
-287,-664,5.36359,48.8964,-0.000566393,0.000139265,0.00500929,0.00480813,-0.00523526,0.820558,0.0058003,0.0291498,937,1688,5.36362,-48.8963
-280,-664,5.30621,49.5594,-0.00204695,0.000487644,0.00377006,0.00319771,-0.00475701,0.947538,0.00462198,0.0177519,944,1688,5.30619,-49.5594
-273,-664,5.21051,50.2529,-0.00285167,0.00088882,0.00297695,0.00253427,-0.00449711,1.06586,0.00411196,0.014574,951,1688,5.21051,-50.253
-266,-664,5.18079,50.9171,-0.00342769,0.00125987,0.00231814,0.00221262,-0.00438043,1.18085,0.00387448,0.0216397,958,1688,5.18078,-50.9171
-259,-664,5.15845,51.5601,-0.00319064,0.00195632,0.00190469,0.0025845,-0.00381882,1.25222,0.00371978,0.0193051,965,1688,5.15846,-51.5601
-252,-664,5.14246,52.2368,-0.00257532,0.00243964,0.001627,0.00292124,-0.00305692,1.28301,0.00345178,0.0168904,972,1688,5.14246,-52.2369
-245,-664,5.12006,52.9299,-0.00201062,0.00276204,0.00144492,0.0031654,-0.00241398,1.29857,0.00323098,0.0213183,979,1688,5.12003,-52.9299
-238,-664,5.1366,53.6095,-0.00141444,0.00287291,0.00136838,0.00327243,-0.00181395,1.28673,0.00297659,0.025467,986,1688,5.13658,-53.6095
-231,-664,5.10052,54.208,-0.000515098,0.00295947,0.00154588,0.00354767,-0.0011033,1.20721,0.00280614,0.022116,993,1688,5.1005,-54.208
-224,-664,5.01312,54.8583,0.000146157,0.00279371,0.00139823,0.0033954,-0.000455533,1.16443,0.00242972,0.0152973,1000,1688,5.01313,-54.8583
-217,-664,4.99292,55.4971,0.000602522,0.00243772,0.00124029,0.00306295,-2.27062e-05,1.10388,0.00204958,0.0110985,1007,1688,4.99294,-55.4971
-210,-664,4.9884,56.1012,0.00108616,0.00200879,0.00110887,0.00274847,0.000346477,0.98252,0.00172844,0.0120033,1014,1688,4.98842,-56.1012
-203,-664,4.95618,56.7035,0.00166886,0.00131741,0.000977564,0.00248637,0.000499901,0.696468,0.00151862,0.0143722,1021,1688,4.95621,-56.7034
-196,-664,4.94446,57.2821,0.00221077,0.000763667,0.000942451,0.00267538,0.000299052,0.458021,0.00169273,0.0153965,1028,1688,4.94443,-57.2821
-189,-664,4.93335,57.887,0.0025407,0.000706378,0.000983445,0.00296828,0.00027879,0.41013,0.00189278,0.010802,1035,1688,4.9333,-57.8869
-182,-664,4.94482,58.4625,0.00283348,0.000895739,0.000897411,0.00318524,0.000543982,0.373564,0.00196739,0.00957299,1042,1688,4.94486,-58.4625
-175,-664,4.95825,59.0009,0.00326311,0.00125704,0.000987939,0.00366795,0.000852201,0.388908,0.00221653,0.0123252,1049,1688,4.95821,-59.0009
-168,-664,4.96277,59.5466,0.00347651,0.00187333,0.00102621,0.00397709,0.00137274,0.453838,0.00233258,0.0138438,1056,1688,4.96277,-59.5467
-161,-664,4.93616,60.0929,0.00369711,0.00285255,0.00118777,0.00453543,0.00201423,0.614605,0.00262398,0.0117897,1063,1688,4.93618,-60.0929
-154,-664,4.99841,60.6158,0.00396351,0.00426506,0.00143171,0.00555392,0.00267466,0.83786,0.00320728,0.0122758,1070,1688,4.9984,-60.6158
-147,-664,5.00635,61.1183,0.00425545,0.00592076,0.00172548,0.00700398,0.00317223,1.0102,0.00404972,0.0165897,1077,1688,5.00632,-61.1183
-140,-664,5.03821,61.6616,0.00442224,0.00761521,0.00196519,0.00855067,0.00348678,1.12652,0.00496464,0.0189785,1084,1688,5.0382,-61.6616
-133,-664,5.00024,62.2207,0.00466443,0.00959336,0.0021717,0.0104137,0.0038441,1.20963,0.0060806,0.021792,1091,1688,5.0003,-62.2208
-126,-664,5.14563,62.8828,0.0052086,0.011209,0.00236471,0.0120289,0.00438871,1.23705,0.00702893,0.0448628,1098,1688,5.14559,-62.8828
-119,-664,5.33508,63.5884,0,0,0,0,0,0,0,-1,1105,1688,5.33514,-63.5883
-112,-664,6.3916,51.1235,0,0,0,0,0,0,0,-1,1112,1688,6.39161,-51.1236
-105,-664,6.87256,43.2527,0,0,0,0,0,0,0,-1,1119,1688,6.87258,-43.2527
-98,-664,7.69324,41.3359,0,0,0,0,0,0,0,-1,1126,1688,7.69321,-41.3359
-91,-664,5.41931,25.6302,0,0,0,0,0,0,0,-1,1133,1688,5.41932,-25.6302
-84,-664,3.48389,16.6913,0,0,0,0,0,0,0,-1,1140,1688,3.4839,-16.6913
-77,-664,4.52014,11.2122,0,0,0,0,0,0,0,-1,1147,1688,4.5202,-11.2122
-70,-664,4.20374,8.24524,0,0,0,0,0,0,0,-1,1154,1688,4.20379,-8.24519
-63,-664,-4.677,2.40503,0,0,0,0,0,0,0,-1,1161,1688,-4.67702,-2.40498
-56,-664,-4.66504,3.32727,0,0,0,0,0,0,0,-1,1168,1688,-4.6651,-3.32724
-49,-664,-2.54297,3.31848,0,0,0,0,0,0,0,-1,1175,1688,-2.54297,-3.31852
-42,-664,-0.359253,4.38684,0,0,0,0,0,0,0,-1,1182,1688,-0.359261,-4.38685
-35,-664,-0.705566,3.55017,0,0,0,0,0,0,0,-1,1189,1688,-0.705567,-3.55023
-28,-664,-1.54236,10.2538,0,0,0,0,0,0,0,-1,1196,1688,-1.54236,-10.2538
-21,-664,5.59045,68.5502,0,0,0,0,0,0,0,-1,1203,1688,5.5905,-68.5502
-14,-664,6.46765,68.5273,0.0932936,0.0649831,-0.0293697,0.111741,0.0465355,-0.560839,0.0648133,0.0453143,1210,1688,6.46768,-68.5274
-7,-664,7.12769,68.3728,0.0935259,0.060365,-0.0282938,0.109739,0.0441514,-0.520363,0.0637598,0.04734,1217,1688,7.12769,-68.3729
0,-664,8.04004,68.3552,0.0924572,0.0582555,-0.0267803,0.107131,0.0435817,-0.501253,0.0622092,0.0454044,1224,1688,8.04007,-68.3552
7,-664,8.68811,68.5852,0,0,0,0,0,0,0,-1,1231,1688,8.68811,-68.5852
14,-664,9.03247,68.6254,0,0,0,0,0,0,0,-1,1238,1688,9.03247,-68.6254
21,-664,9.50037,68.6237,0,0,0,0,0,0,0,-1,1245,1688,9.50036,-68.6236
28,-664,10.3979,66.9117,0.0803649,0.0816813,-0.0184334,0.0994682,0.062578,-0.803243,0.0580628,0.0444946,1252,1688,10.3979,-66.9117
35,-664,10.882,66.4287,0,0,0,0,0,0,0,-1,1259,1688,10.8819,-66.4287
42,-664,11.0931,66.101,0,0,0,0,0,0,0,-1,1266,1688,11.0931,-66.101
49,-664,11.6005,65.6884,0,0,0,0,0,0,0,-1,1273,1688,11.6005,-65.6883
56,-664,10.1259,64.381,0,0,0,0,0,0,0,-1,1280,1688,10.1259,-64.3809
63,-664,10.8428,64.0582,0,0,0,0,0,0,0,-1,1287,1688,10.8428,-64.0582
70,-664,11.5754,62.598,0,0,0,0,0,0,0,-1,1294,1688,11.5754,-62.5981
77,-664,12.3545,62.0044,0,0,0,0,0,0,0,-1,1301,1688,12.3544,-62.0044
84,-664,12.9963,60.7958,0.0644758,0.130757,-0.00905728,0.131973,0.0632604,-1.4374,0.0762161,0.043714,1308,1688,12.9963,-60.7958
91,-664,13.3898,59.9742,0.0654577,0.126086,-0.00603827,0.126681,0.0648622,-1.47249,0.0731466,0.0425776,1315,1688,13.3898,-59.9742
98,-664,9.85242,66.8408,0,0,0,0,0,0,0,-1,1322,1688,9.85238,-66.8408
105,-664,9.63013,66.6907,0,0,0,0,0,0,0,-1,1329,1688,9.63016,-66.6907
112,-664,9.45398,66.8284,0.075081,0.0961303,0.0135436,0.102758,0.0684535,1.11571,0.0604094,0.0467226,1336,1688,9.45402,-66.8284
119,-664,8.90417,66.7411,0.0815909,0.0860934,0.0216775,0.105636,0.0620481,0.837138,0.0612987,0.0491791,1343,1688,8.90416,-66.7411
126,-664,8.2959,66.6278,0,0,0,0,0,0,0,-1,1350,1688,8.29589,-66.6278
133,-664,9.59143,66.0323,0,0,0,0,0,0,0,-1,1357,1688,9.59148,-66.0324
140,-664,8.69519,64.8087,0,0,0,0,0,0,0,-1,1364,1688,8.69524,-64.8087
147,-664,8.04968,66.6101,0,0,0,0,0,0,0,-1,1371,1688,8.04964,-66.6102
154,-664,20.1138,63.4268,0,0,0,0,0,0,0,-1,1378,1688,20.1137,-63.4268
161,-664,4.60132,1.56238,0,0,0,0,0,0,0,-1,1385,1688,4.60134,-1.56233
168,-664,5.172,1.25488,0,0,0,0,0,0,0,-1,1392,1688,5.17203,-1.25484
175,-664,5.58313,1.16467,0,0,0,0,0,0,0,-1,1399,1688,5.58317,-1.16466
182,-664,5.74268,1.41113,0,0,0,0,0,0,0,-1,1406,1688,5.74263,-1.41115
189,-664,5.87744,1.87061,0,0,0,0,0,0,0,-1,1413,1688,5.87745,-1.87065
196,-664,6.7594,5.97473,0,0,0,0,0,0,0,-1,1420,1688,6.75943,-5.97478
203,-664,5.38452,5.22034,0,0,0,0,0,0,0,-1,1427,1688,5.38453,-5.2203
210,-664,5.25549,6.45715,0,0,0,0,0,0,0,-1,1434,1688,5.25549,-6.45721
217,-664,5.72009,6.73975,0,0,0,0,0,0,0,-1,1441,1688,5.72014,-6.73972
224,-664,5.05725,7.42908,0,0,0,0,0,0,0,-1,1448,1688,5.05723,-7.42912
231,-664,5.13318,7.60864,0,0,0,0,0,0,0,-1,1455,1688,5.13313,-7.60862
238,-664,4.23193,6.45471,0,0,0,0,0,0,0,-1,1462,1688,4.23197,-6.45476
245,-664,4.42004,6.80896,0,0,0,0,0,0,0,-1,1469,1688,4.4201,-6.80901
252,-664,3.67346,6.85461,0,0,0,0,0,0,0,-1,1476,1688,3.6734,-6.85462
259,-664,4.55823,11.7435,0,0,0,0,0,0,0,-1,1483,1688,4.55826,-11.7435
266,-664,12.3446,61.0087,0,0,0,0,0,0,0,-1,1490,1688,12.3446,-61.0086
273,-664,12.5865,60.6985,0,0,0,0,0,0,0,-1,1497,1688,12.5866,-60.6985
280,-664,12.5543,60.2344,0.00653945,0.00164303,0.000102843,0.00654161,0.00164088,0.0209915,0.00393001,0.0454677,1504,1688,12.5543,-60.2344
287,-664,12.5175,59.6586,0.00590687,0.00176354,0.000142598,0.00591177,0.00175864,0.034362,0.00350524,0.0386971,1511,1688,12.5175,-59.6585
294,-664,12.6655,59.1672,0.00544166,0.00175533,0.000116026,0.00544531,0.00175168,0.0314332,0.0032098,0.0249386,1518,1688,12.6655,-59.1672
301,-664,12.7455,58.6281,0.00488835,0.00205234,-9.20534e-05,0.00489134,0.00204935,-0.0324132,0.00283635,0.0149574,1525,1688,12.7455,-58.628
308,-664,12.769,58.0659,0.00431193,0.00222436,-0.000313191,0.0043579,0.00217839,-0.145753,0.00251604,0.0124594,1532,1688,12.7691,-58.0659
315,-664,12.7766,57.4868,0.0037934,0.00240442,-0.000581255,0.00400455,0.00219328,-0.348435,0.00231553,0.0122135,1539,1688,12.7767,-57.4869
322,-664,12.7932,56.9473,0.00333371,0.00275362,-0.000976837,0.00406266,0.00202468,-0.641082,0.00234558,0.0157309,1546,1688,12.7932,-56.9472
329,-664,12.7787,56.3765,0.002916,0.00299801,-0.00138491,0.00434253,0.00157148,-0.800197,0.00253884,0.0183836,1553,1688,12.7787,-56.3764
336,-664,12.7484,55.7402,0.00255276,0.0032104,-0.00168514,0.00459849,0.00116466,-0.881752,0.00276059,0.0152412,1560,1688,12.7484,-55.7402
343,-664,12.7416,55.1147,0.00217936,0.00336511,-0.00196091,0.00482081,0.000723656,-0.932203,0.00300187,0.0123869,1567,1688,12.7416,-55.1147
350,-664,12.7299,54.5256,0.00182926,0.00337637,-0.00232158,0.00504988,0.000155754,-0.946214,0.00331589,0.0144997,1574,1688,12.7299,-54.5256
357,-664,12.7003,53.8708,0.00147273,0.00338304,-0.00259219,0.00519045,-0.00033468,-0.961916,0.00357708,0.0139854,1581,1688,12.7004,-53.8708
364,-664,12.6804,53.2273,0.00113321,0.00313601,-0.00271765,0.00503089,-0.000761672,-0.961919,0.00363452,0.0117136,1588,1688,12.6804,-53.2273
371,-664,12.6483,52.637,0.000886475,0.00286801,-0.00281349,0.00486008,-0.0011056,-0.954692,0.00366461,0.0147474,1595,1688,12.6483,-52.637
378,-664,12.6042,51.9934,0.000731695,0.00261885,-0.00288556,0.00471119,-0.00136065,-0.943418,0.00367918,0.0145735,1602,1688,12.6043,-51.9934
385,-664,12.5531,51.3407,0.000824437,0.00246335,-0.00309258,0.0048432,-0.00155541,-0.914909,0.00385337,0.0154305,1609,1688,12.553,-51.3407
392,-664,12.495,50.7224,0.00130816,0.00246479,-0.00373702,0.00566798,-0.00189503,-0.862165,0.00454401,0.0177514,1616,1688,12.495,-50.7224
399,-664,12.4971,50.041,0.00180099,0.00245576,-0.00440023,0.00654077,-0.00228402,-0.822531,0.00528889,0.0156126,1623,1688,12.4971,-50.041
406,-664,12.4716,49.3502,0.00266482,0.00240762,-0.00530042,0.0078382,-0.00276575,-0.773269,0.00635139,0.0148596,1630,1688,12.4715,-49.3503
413,-664,12.4683,48.6273,0.00416919,0.00250935,-0.00653839,0.00993012,-0.00325158,-0.72227,0.00792937,0.0175411,1637,1688,12.4683,-48.6274
420,-664,12.4923,47.8971,0.00615763,0.00259285,-0.00795446,0.0125269,-0.00377647,-0.675181,0.00985436,0.0423217,1644,1688,12.4923,-47.8971
427,-664,12.5359,46.8623,0,0,0,0,0,0,0,-1,1651,1688,12.5359,-46.8623
434,-664,12.5535,45.9396,0,0,0,0,0,0,0,-1,1658,1688,12.5534,-45.9396
441,-664,12.7198,45.0563,0,0,0,0,0,0,0,-1,1665,1688,12.7198,-45.0563
448,-664,12.5538,38.7155,0,0,0,0,0,0,0,-1,1672,1688,12.5539,-38.7154
455,-664,12.1709,39.3733,0,0,0,0,0,0,0,-1,1679,1688,12.1708,-39.3733
462,-664,4.3147,4.25439,0,0,0,0,0,0,0,-1,1686,1688,4.31467,-4.25435
469,-664,6.05469,7.49341,0,0,0,0,0,0,0,-1,1693,1688,6.05474,-7.49339
476,-664,10.2377,22.7128,0,0,0,0,0,0,0,-1,1700,1688,10.2377,-22.7128
483,-664,8.41895,10.9768,0,0,0,0,0,0,0,-1,1707,1688,8.41897,-10.9769
490,-664,3.90771,13.2842,0,0,0,0,0,0,0,-1,1714,1688,3.90776,-13.2841
497,-664,0,0,0,0,0,0,0,0,0,-1,1721,1688,0,0
504,-664,0,0,0,0,0,0,0,0,0,-1,1728,1688,0,0
511,-664,0,0,0,0,0,0,0,0,0,-1,1735,1688,0,0
518,-664,0,0,0,0,0,0,0,0,0,-1,1742,1688,0,0
525,-664,0,0,0,0,0,0,0,0,0,-1,1749,1688,0,0
532,-664,0,0,0,0,0,0,0,0,0,-1,1756,1688,0,0
539,-664,0,0,0,0,0,0,0,0,0,-1,1763,1688,0,0
546,-664,0,0,0,0,0,0,0,0,0,-1,1770,1688,0,0
553,-664,0,0,0,0,0,0,0,0,0,-1,1777,1688,0,0
560,-664,0,0,0,0,0,0,0,0,0,-1,1784,1688,0,0
567,-664,0,0,0,0,0,0,0,0,0,-1,1791,1688,0,0
574,-664,0,0,0,0,0,0,0,0,0,-1,1798,1688,0,0
581,-664,0,0,0,0,0,0,0,0,0,-1,1805,1688,0,0
588,-664,0,0,0,0,0,0,0,0,0,-1,1812,1688,0,0
595,-664,0,0,0,0,0,0,0,0,0,-1,1819,1688,0,0
602,-664,0,0,0,0,0,0,0,0,0,-1,1826,1688,0,0
609,-664,0,0,0,0,0,0,0,0,0,-1,1833,1688,0,0
616,-664,0,0,0,0,0,0,0,0,0,-1,1840,1688,0,0
623,-664,0,0,0,0,0,0,0,0,0,-1,1847,1688,0,0
630,-664,0,0,0,0,0,0,0,0,0,-1,1854,1688,0,0
637,-664,0,0,0,0,0,0,0,0,0,-1,1861,1688,0,0
644,-664,0,0,0,0,0,0,0,0,0,-1,1868,1688,0,0
651,-664,0,0,0,0,0,0,0,0,0,-1,1875,1688,0,0
658,-664,0,0,0,0,0,0,0,0,0,-1,1882,1688,0,0
665,-664,0,0,0,0,0,0,0,0,0,-1,1889,1688,0,0
672,-664,0,0,0,0,0,0,0,0,0,-1,1896,1688,0,0
679,-664,0,0,0,0,0,0,0,0,0,-1,1903,1688,0,0
686,-664,0,0,0,0,0,0,0,0,0,-1,1910,1688,0,0
693,-664,0,0,0,0,0,0,0,0,0,-1,1917,1688,0,0
700,-664,0,0,0,0,0,0,0,0,0,-1,1924,1688,0,0
707,-664,0,0,0,0,0,0,0,0,0,-1,1931,1688,0,0
714,-664,0,0,0,0,0,0,0,0,0,-1,1938,1688,0,0
721,-664,0,0,0,0,0,0,0,0,0,-1,1945,1688,0,0
728,-664,0,0,0,0,0,0,0,0,0,-1,1952,1688,0,0
735,-664,0,0,0,0,0,0,0,0,0,-1,1959,1688,0,0
742,-664,0,0,0,0,0,0,0,0,0,-1,1966,1688,0,0
749,-664,0,0,0,0,0,0,0,0,0,-1,1973,1688,0,0
756,-664,0,0,0,0,0,0,0,0,0,-1,1980,1688,0,0
763,-664,0,0,0,0,0,0,0,0,0,-1,1987,1688,0,0
770,-664,0,0,0,0,0,0,0,0,0,-1,1994,1688,0,0
777,-664,0,0,0,0,0,0,0,0,0,-1,2001,1688,0,0
784,-664,0,0,0,0,0,0,0,0,0,-1,2008,1688,0,0
791,-664,0,0,0,0,0,0,0,0,0,-1,2015,1688,0,0
798,-664,0,0,0,0,0,0,0,0,0,-1,2022,1688,0,0
805,-664,0,0,0,0,0,0,0,0,0,-1,2029,1688,0,0
812,-664,0,0,0,0,0,0,0,0,0,-1,2036,1688,0,0
-700,-671,0,0,0,0,0,0,0,0,0,-1,524,1695,0,0
-693,-671,0,0,0,0,0,0,0,0,0,-1,531,1695,0,0
-686,-671,0,0,0,0,0,0,0,0,0,-1,538,1695,0,0
-679,-671,0,0,0,0,0,0,0,0,0,-1,545,1695,0,0
-672,-671,0,0,0,0,0,0,0,0,0,-1,552,1695,0,0
-665,-671,0,0,0,0,0,0,0,0,0,-1,559,1695,0,0
-658,-671,0,0,0,0,0,0,0,0,0,-1,566,1695,0,0
-651,-671,0,0,0,0,0,0,0,0,0,-1,573,1695,0,0
-644,-671,0,0,0,0,0,0,0,0,0,-1,580,1695,0,0
-637,-671,0,0,0,0,0,0,0,0,0,-1,587,1695,0,0
-630,-671,0,0,0,0,0,0,0,0,0,-1,594,1695,0,0
-623,-671,0,0,0,0,0,0,0,0,0,-1,601,1695,0,0
-616,-671,0,0,0,0,0,0,0,0,0,-1,608,1695,0,0
-609,-671,0,0,0,0,0,0,0,0,0,-1,615,1695,0,0
-602,-671,0,0,0,0,0,0,0,0,0,-1,622,1695,0,0
-595,-671,0,0,0,0,0,0,0,0,0,-1,629,1695,0,0
-588,-671,0,0,0,0,0,0,0,0,0,-1,636,1695,0,0
-581,-671,0,0,0,0,0,0,0,0,0,-1,643,1695,0,0
-574,-671,0,0,0,0,0,0,0,0,0,-1,650,1695,0,0
-567,-671,0,0,0,0,0,0,0,0,0,-1,657,1695,0,0
-560,-671,0,0,0,0,0,0,0,0,0,-1,664,1695,0,0
-553,-671,0,0,0,0,0,0,0,0,0,-1,671,1695,0,0
-546,-671,0,0,0,0,0,0,0,0,0,-1,678,1695,0,0
-539,-671,0,0,0,0,0,0,0,0,0,-1,685,1695,0,0
-532,-671,0,0,0,0,0,0,0,0,0,-1,692,1695,0,0
-525,-671,0,0,0,0,0,0,0,0,0,-1,699,1695,0,0
-518,-671,0,0,0,0,0,0,0,0,0,-1,706,1695,0,0
-511,-671,0,0,0,0,0,0,0,0,0,-1,713,1695,0,0
-504,-671,0,0,0,0,0,0,0,0,0,-1,720,1695,0,0
-497,-671,0,0,0,0,0,0,0,0,0,-1,727,1695,0,0
-490,-671,0,0,0,0,0,0,0,0,0,-1,734,1695,0,0
-483,-671,0,0,0,0,0,0,0,0,0,-1,741,1695,0,0
-476,-671,0,0,0,0,0,0,0,0,0,-1,748,1695,0,0
-469,-671,0,0,0,0,0,0,0,0,0,-1,755,1695,0,0
-462,-671,0,0,0,0,0,0,0,0,0,-1,762,1695,0,0
-455,-671,0,0,0,0,0,0,0,0,0,-1,769,1695,0,0
-448,-671,0,0,0,0,0,0,0,0,0,-1,776,1695,0,0
-441,-671,0,0,0,0,0,0,0,0,0,-1,783,1695,0,0
-434,-671,0,0,0,0,0,0,0,0,0,-1,790,1695,0,0
-427,-671,0,0,0,0,0,0,0,0,0,-1,797,1695,0,0
-420,-671,0,0,0,0,0,0,0,0,0,-1,804,1695,0,0
-413,-671,0,0,0,0,0,0,0,0,0,-1,811,1695,0,0
-406,-671,0,0,0,0,0,0,0,0,0,-1,818,1695,0,0
-399,-671,0,0,0,0,0,0,0,0,0,-1,825,1695,0,0
-392,-671,0,0,0,0,0,0,0,0,0,-1,832,1695,0,0
-385,-671,0,0,0,0,0,0,0,0,0,-1,839,1695,0,0
-378,-671,0,0,0,0,0,0,0,0,0,-1,846,1695,0,0
-371,-671,0,0,0,0,0,0,0,0,0,-1,853,1695,0,0
-364,-671,-4.18738,7.51416,0,0,0,0,0,0,0,-1,860,1695,-4.18739,-7.51419
-357,-671,-5.02393,6.07129,0,0,0,0,0,0,0,-1,867,1695,-5.0239,-6.07135
-350,-671,8.03021,46.2139,0,0,0,0,0,0,0,-1,874,1695,8.03024,-46.2139
-343,-671,7.2002,45.9105,0,0,0,0,0,0,0,-1,881,1695,7.20021,-45.9105
-336,-671,6.3653,45.8201,0,0,0,0,0,0,0,-1,888,1695,6.36532,-45.82
-329,-671,5.6283,45.7198,0,0,0,0,0,0,0,-1,895,1695,5.6283,-45.7199
-322,-671,5.80243,44.7689,0,0,0,0,0,0,0,-1,902,1695,5.80243,-44.7689
-315,-671,6.05896,45.9053,0,0,0,0,0,0,0,-1,909,1695,6.05897,-45.9052
-308,-671,6.06183,46.7131,0,0,0,0,0,0,0,-1,916,1695,6.0618,-46.7132
-301,-671,5.99359,47.6086,0,0,0,0,0,0,0,-1,923,1695,5.99361,-47.6086
-294,-671,5.95081,48.2615,0,0,0,0,0,0,0,-1,930,1695,5.95082,-48.2615
-287,-671,6.5766,49.1398,-0.0015424,0.000499381,0.00582647,0.00539372,-0.00643674,0.872126,0.00683916,0.0425772,937,1695,6.57657,-49.1397
-280,-671,5.80988,49.5874,-0.00348958,0.00116268,0.00435272,0.00377184,-0.00609874,1.0308,0.00575132,0.0354708,944,1695,5.8099,-49.5874
-273,-671,5.77124,50.287,-0.00456354,0.00171821,0.0034576,0.00324853,-0.00609387,1.15412,0.00547659,0.0346656,951,1695,5.77122,-50.287
-266,-671,5.80103,50.9774,-0.00525644,0.00229471,0.00274544,0.00318737,-0.0061491,1.25644,0.00548007,0.0257918,958,1695,5.80105,-50.9774
-259,-671,5.76038,51.6075,-0.00498436,0.00319361,0.00232089,0.00380636,-0.00559711,1.31267,0.00546181,0.0228999,965,1695,5.76041,-51.6075
-252,-671,5.77216,52.2902,-0.0043009,0.00366393,0.00204965,0.00416043,-0.0047974,1.33314,0.00517616,0.018378,972,1695,5.77214,-52.2901
-245,-671,5.75659,52.9614,-0.00375719,0.00392337,0.00185644,0.00434855,-0.00418237,1.34565,0.00492564,0.0205338,979,1695,5.7566,-52.9615
-238,-671,5.74829,53.6185,-0.00316578,0.00398034,0.00175675,0.00438885,-0.0035743,1.34232,0.00460554,0.020907,986,1695,5.74829,-53.6186
-231,-671,5.69781,54.2662,-0.00214916,0.00399216,0.0019612,0.00456503,-0.00272202,1.2866,0.0042518,0.0160118,993,1695,5.69782,-54.2663
-224,-671,5.63647,54.873,-0.00139663,0.00375668,0.00177401,0.00430833,-0.00194827,1.26932,0.00369692,0.0122422,1000,1695,5.63649,-54.873
-217,-671,5.60675,55.495,-0.000877388,0.00332182,0.00155963,0.00383771,-0.00139327,1.25135,0.0031281,0.011938,1007,1695,5.60678,-55.495
-210,-671,5.59985,56.1382,-0.000333931,0.00285574,0.00141165,0.00339075,-0.000868942,1.20853,0.00259903,0.0118533,1014,1695,5.59984,-56.1382
-203,-671,5.55359,56.7336,0.000299323,0.00206667,0.00128199,0.00274003,-0.000374041,1.08715,0.00196328,0.0195517,1021,1695,5.55358,-56.7336
-196,-671,5.53516,57.3182,0.000913235,0.00144849,0.0011737,0.00238469,-2.29671e-05,0.897492,0.00159751,0.0176296,1028,1695,5.53514,-57.3182
-189,-671,5.52368,57.9482,0.00136226,0.00126382,0.0011101,0.00242423,0.000201852,0.763242,0.00155325,0.0128387,1035,1695,5.52373,-57.9482
-182,-671,5.51697,58.4993,0.00176103,0.00128956,0.000962745,0.00251648,0.00053411,0.66533,0.00153099,0.00953769,1042,1695,5.51698,-58.4992
-175,-671,5.52588,59.0282,0.00232811,0.00145747,0.000979549,0.00296471,0.000820869,0.576301,0.00176757,0.0119819,1049,1695,5.52593,-59.0282
-168,-671,5.50745,59.5505,0.00263346,0.00178835,0.000901357,0.00320639,0.00121542,0.566211,0.00186918,0.0140851,1056,1695,5.50751,-59.5506
-161,-671,5.46826,60.0884,0.00286183,0.00236837,0.000919216,0.00356686,0.00166335,0.654281,0.00206088,0.0109065,1063,1695,5.46827,-60.0884
-154,-671,5.49658,60.6388,0.00315749,0.00329822,0.00100625,0.00423657,0.00221914,0.820305,0.00244691,0.0095609,1070,1695,5.49662,-60.6388
-147,-671,5.51709,61.1559,0.0035299,0.00444608,0.00114075,0.00521728,0.0027587,0.976326,0.00301386,0.0102163,1077,1695,5.5171,-61.1559
-140,-671,5.56128,61.6451,0.00385449,0.00552418,0.0012366,0.00618136,0.0031973,1.08231,0.00356952,0.0141131,1084,1695,5.56131,-61.6451
-133,-671,5.57935,62.1075,0.00422367,0.00674063,0.00130878,0.00729783,0.00366647,1.1683,0.00421342,0.0211893,1091,1695,5.57939,-62.1075
-126,-671,5.64709,62.7467,0.00482627,0.00766439,0.00134359,0.00819955,0.00429111,1.19175,0.00473573,0.0401139,1098,1695,5.64705,-62.7467
-119,-671,5.75146,63.5483,0,0,0,0,0,0,0,-1,1105,1695,5.75151,-63.5483
-112,-671,6.58704,44.6255,0,0,0,0,0,0,0,-1,1112,1695,6.58701,-44.6255
-105,-671,7.33252,41.3418,0,0,0,0,0,0,0,-1,1119,1695,7.33247,-41.3418
-98,-671,6.34534,45.6299,0,0,0,0,0,0,0,-1,1126,1695,6.34533,-45.6299
-91,-671,6.40063,38.2443,0,0,0,0,0,0,0,-1,1133,1695,6.40059,-38.2442
-84,-671,5.4209,26.2415,0,0,0,0,0,0,0,-1,1140,1695,5.42096,-26.2414
-77,-671,4.31763,16.489,0,0,0,0,0,0,0,-1,1147,1695,4.31757,-16.489
-70,-671,3.06067,10.7737,0,0,0,0,0,0,0,-1,1154,1695,3.0607,-10.7737
-63,-671,2.94592,6.90198,0,0,0,0,0,0,0,-1,1161,1695,2.94594,-6.90198
-56,-671,-3.07678,2.87976,0,0,0,0,0,0,0,-1,1168,1695,-3.07675,-2.87979
-49,-671,-1.05957,4.76917,0,0,0,0,0,0,0,-1,1175,1695,-1.05958,-4.76921
-42,-671,0.539307,3.7865,0,0,0,0,0,0,0,-1,1182,1695,0.539266,-3.78648
-35,-671,-0.272461,0.347534,0,0,0,0,0,0,0,-1,1189,1695,-0.272434,-0.347569
-28,-671,-10.4878,17.2009,0,0,0,0,0,0,0,-1,1196,1695,-10.4878,-17.2009
-21,-671,6.97937,67.7372,0,0,0,0,0,0,0,-1,1203,1695,6.97933,-67.7372
-14,-671,7.31396,67.6914,0,0,0,0,0,0,0,-1,1210,1695,7.31399,-67.6914
-7,-671,7.74402,67.3329,0,0,0,0,0,0,0,-1,1217,1695,7.74405,-67.3329
0,-671,8.07898,68.0276,0,0,0,0,0,0,0,-1,1224,1695,8.07899,-68.0275
7,-671,8.53564,68.4976,0,0,0,0,0,0,0,-1,1231,1695,8.53563,-68.4976
14,-671,8.54602,67.921,0,0,0,0,0,0,0,-1,1238,1695,8.54602,-67.921
21,-671,9.76819,66.5773,0,0,0,0,0,0,0,-1,1245,1695,9.76823,-66.5773
28,-671,10.3583,66.2689,0,0,0,0,0,0,0,-1,1252,1695,10.3582,-66.2689
35,-671,11.1028,65.7577,0,0,0,0,0,0,0,-1,1259,1695,11.1027,-65.7576
42,-671,10.9181,65.1528,0,0,0,0,0,0,0,-1,1266,1695,10.9181,-65.1528
49,-671,11.7675,64.3264,0,0,0,0,0,0,0,-1,1273,1695,11.7675,-64.3264
56,-671,12.4928,63.837,0,0,0,0,0,0,0,-1,1280,1695,12.4928,-63.8371
63,-671,13.7363,72.4574,0,0,0,0,0,0,0,-1,1287,1695,13.7363,-72.4573
70,-671,13.3077,71.6658,0,0,0,0,0,0,0,-1,1294,1695,13.3078,-71.6658
77,-671,13.0604,70.7523,0,0,0,0,0,0,0,-1,1301,1695,13.0604,-70.7524
84,-671,12.7783,59.4572,0,0,0,0,0,0,0,-1,1308,1695,12.7783,-59.4571
91,-671,10.0853,67.374,0,0,0,0,0,0,0,-1,1315,1695,10.0853,-67.3741
98,-671,9.75647,67.1349,0.0547482,0.0963457,-0.00152577,0.0964015,0.0546923,-1.53418,0.0558255,0.0457377,1322,1695,9.75644,-67.1349
105,-671,9.58325,66.8049,0.0558361,0.0875841,0.00347145,0.0879593,0.055461,1.46315,0.0513569,0.0477391,1329,1695,9.5833,-66.805
112,-671,9.40247,66.5001,0.0581094,0.0784725,0.00942244,0.0821635,0.0544185,1.19745,0.0482632,0.0423856,1336,1695,9.40251,-66.5002
119,-671,8.91748,66.5067,0.0619483,0.0712027,0.0152436,0.0825059,0.0506451,0.932752,0.0480446,0.0439421,1343,1695,8.91746,-66.5067
126,-671,8.30725,66.4397,0,0,0,0,0,0,0,-1,1350,1695,8.30721,-66.4397
133,-671,9.08789,67.0519,0,0,0,0,0,0,0,-1,1357,1695,9.08789,-67.0518
140,-671,8.9823,65.9464,0,0,0,0,0,0,0,-1,1364,1695,8.98234,-65.9464
147,-671,8.34424,65.7878,0,0,0,0,0,0,0,-1,1371,1695,8.34426,-65.7878
154,-671,8.01001,65.1267,0,0,0,0,0,0,0,-1,1378,1695,8.00997,-65.1268
161,-671,4.49292,4.91272,0,0,0,0,0,0,0,-1,1385,1695,4.49297,-4.91273
168,-671,5.17639,6.1416,0,0,0,0,0,0,0,-1,1392,1695,5.1764,-6.14164
175,-671,5.6731,1.64685,0,0,0,0,0,0,0,-1,1399,1695,5.67313,-1.64691
182,-671,5.56812,1.71692,0,0,0,0,0,0,0,-1,1406,1695,5.56809,-1.71686
189,-671,6.98315,6.36169,0,0,0,0,0,0,0,-1,1413,1695,6.98312,-6.36175
196,-671,5.38123,5.69775,0,0,0,0,0,0,0,-1,1420,1695,5.38125,-5.69769
203,-671,5.95117,8.11658,0,0,0,0,0,0,0,-1,1427,1695,5.9512,-8.11662
210,-671,4.73596,8.39624,0,0,0,0,0,0,0,-1,1434,1695,4.736,-8.39618
217,-671,5.37097,11.863,0,0,0,0,0,0,0,-1,1441,1695,5.37094,-11.863
224,-671,5.08167,13.6694,0,0,0,0,0,0,0,-1,1448,1695,5.08165,-13.6695
231,-671,5.66663,15.3348,0,0,0,0,0,0,0,-1,1455,1695,5.66667,-15.3349
238,-671,6.32959,16.2036,0,0,0,0,0,0,0,-1,1462,1695,6.32961,-16.2037
245,-671,11.9244,57.5367,0,0,0,0,0,0,0,-1,1469,1695,11.9245,-57.5367
252,-671,12.0531,62.6505,0,0,0,0,0,0,0,-1,1476,1695,12.0531,-62.6505
259,-671,12.0399,61.989,0,0,0,0,0,0,0,-1,1483,1695,12.0399,-61.989
266,-671,12.0687,61.2585,0.00635735,0.00086904,-0.000277385,0.00637133,0.000855056,-0.0503699,0.00399317,0.0322546,1490,1695,12.0688,-61.2586
273,-671,12.1511,60.7844,0.00591426,0.000994505,-0.000274518,0.00592953,0.000979234,-0.0555692,0.00367041,0.0120974,1497,1695,12.1511,-60.7845
280,-671,12.1716,60.2847,0.00526738,0.00108717,-0.000210062,0.00527791,0.00107664,-0.0500832,0.00322029,0.0120303,1504,1695,12.1717,-60.2846
287,-671,12.1403,59.6669,0.004663,0.00124112,-0.000212889,0.0046762,0.00122793,-0.0618959,0.00279941,0.0140186,1511,1695,12.1402,-59.6668
294,-671,12.127,59.1024,0.00419799,0.00131658,-0.000247075,0.00421902,0.00129555,-0.0849221,0.00249556,0.013321,1518,1695,12.127,-59.1025
301,-671,12.1682,58.6006,0.00365803,0.00157376,-0.000396878,0.00373105,0.00150075,-0.181937,0.0021678,0.0118539,1525,1695,12.1682,-58.6006
308,-671,12.2081,58.0679,0.00312302,0.00176833,-0.00062131,0.00336482,0.00152654,-0.371139,0.00194546,0.0123874,1532,1695,12.2081,-58.0679
315,-671,12.2197,57.5115,0.00266566,0.00203832,-0.000923828,0.00332762,0.00137637,-0.621739,0.00193074,0.0132278,1539,1695,12.2197,-57.5115
322,-671,12.201,56.9812,0.00221565,0.00237832,-0.00126199,0.00356159,0.00103237,-0.817579,0.00211596,0.01522,1546,1695,12.2011,-56.9811
329,-671,12.162,56.403,0.00180126,0.00265901,-0.00162595,0.0039117,0.000548567,-0.914346,0.00244554,0.0144162,1553,1695,12.162,-56.403
336,-671,12.1365,55.7665,0.00148107,0.00293328,-0.00194228,0.00428074,0.000133615,-0.964276,0.00281035,0.0117755,1560,1695,12.1365,-55.7665
343,-671,12.1603,55.118,0.00118376,0.00318014,-0.00226046,0.004653,-0.000289095,-0.993316,0.00320272,0.0128748,1567,1695,12.1603,-55.1181
350,-671,12.1357,54.5696,0.000902052,0.00332412,-0.00266629,0.00504152,-0.000815349,-0.998569,0.00366317,0.0136751,1574,1695,12.1358,-54.5696
357,-671,12.0807,53.8944,0.000644824,0.00346357,-0.00302459,0.00539103,-0.00128264,-1.00343,0.00408918,0.012325,1581,1695,12.0807,-53.8944
364,-671,12.0446,53.2606,0.00039359,0.0033395,-0.00322682,0.00541365,-0.00168056,-0.99951,0.0042807,0.0133611,1588,1695,12.0446,-53.2606
371,-671,11.9984,52.672,0.00025004,0.00322194,-0.00343392,0.00547762,-0.00200565,-0.989597,0.00447279,0.0155862,1595,1695,11.9984,-52.672
378,-671,11.9644,52.0267,0.000222905,0.00312023,-0.00362315,0.0055736,-0.00223046,-0.97558,0.00464144,0.0137246,1602,1695,11.9643,-52.0268
385,-671,11.9344,51.3365,0.000469541,0.00312812,-0.00396687,0.0059825,-0.00238484,-0.947067,0.00497751,0.0156593,1609,1695,11.9345,-51.3365
392,-671,11.8827,50.7402,0.00119383,0.00332253,-0.00480945,0.00718399,-0.00266763,-0.894295,0.0058837,0.0199537,1616,1695,11.8826,-50.7403
399,-671,11.8558,50.0934,0.00198833,0.00346075,-0.00567087,0.008443,-0.00299392,-0.849949,0.00684838,0.0164227,1623,1695,11.8559,-50.0934
406,-671,11.861,49.3862,0.00318932,0.0036743,-0.00682693,0.0102631,-0.00339943,-0.803151,0.00821313,0.0242018,1630,1695,11.861,-49.3862
413,-671,11.8075,48.8143,0.00511599,0.00397847,-0.00830249,0.0128692,-0.00377471,-0.751199,0.0100762,0.0393087,1637,1695,11.8075,-48.8144
420,-671,11.8666,48.2196,0,0,0,0,0,0,0,-1,1644,1695,11.8665,-48.2196
427,-671,11.9879,42.9364,0,0,0,0,0,0,0,-1,1651,1695,11.988,-42.9364
434,-671,12.0647,42.6493,0,0,0,0,0,0,0,-1,1658,1695,12.0648,-42.6493
441,-671,11.8904,39.6104,0,0,0,0,0,0,0,-1,1665,1695,11.8904,-39.6103
448,-671,11.6979,39.1995,0,0,0,0,0,0,0,-1,1672,1695,11.6979,-39.1994
455,-671,11.5221,39.0929,0,0,0,0,0,0,0,-1,1679,1695,11.5221,-39.0929
462,-671,5.86255,4.47961,0,0,0,0,0,0,0,-1,1686,1695,5.8625,-4.4796
469,-671,3.71301,3.76978,0,0,0,0,0,0,0,-1,1693,1695,3.71297,-3.76974
476,-671,3.75574,3.18848,0,0,0,0,0,0,0,-1,1700,1695,3.7558,-3.18847
483,-671,7.81824,12.1041,0,0,0,0,0,0,0,-1,1707,1695,7.81826,-12.1041
490,-671,0,0,0,0,0,0,0,0,0,-1,1714,1695,0,0
497,-671,0,0,0,0,0,0,0,0,0,-1,1721,1695,0,0
504,-671,0,0,0,0,0,0,0,0,0,-1,1728,1695,0,0
511,-671,0,0,0,0,0,0,0,0,0,-1,1735,1695,0,0
518,-671,0,0,0,0,0,0,0,0,0,-1,1742,1695,0,0
525,-671,0,0,0,0,0,0,0,0,0,-1,1749,1695,0,0
532,-671,0,0,0,0,0,0,0,0,0,-1,1756,1695,0,0
539,-671,0,0,0,0,0,0,0,0,0,-1,1763,1695,0,0
546,-671,0,0,0,0,0,0,0,0,0,-1,1770,1695,0,0
553,-671,0,0,0,0,0,0,0,0,0,-1,1777,1695,0,0
560,-671,0,0,0,0,0,0,0,0,0,-1,1784,1695,0,0
567,-671,0,0,0,0,0,0,0,0,0,-1,1791,1695,0,0
574,-671,0,0,0,0,0,0,0,0,0,-1,1798,1695,0,0
581,-671,0,0,0,0,0,0,0,0,0,-1,1805,1695,0,0
588,-671,0,0,0,0,0,0,0,0,0,-1,1812,1695,0,0
595,-671,0,0,0,0,0,0,0,0,0,-1,1819,1695,0,0
602,-671,0,0,0,0,0,0,0,0,0,-1,1826,1695,0,0
609,-671,0,0,0,0,0,0,0,0,0,-1,1833,1695,0,0
616,-671,0,0,0,0,0,0,0,0,0,-1,1840,1695,0,0
623,-671,0,0,0,0,0,0,0,0,0,-1,1847,1695,0,0
630,-671,0,0,0,0,0,0,0,0,0,-1,1854,1695,0,0
637,-671,0,0,0,0,0,0,0,0,0,-1,1861,1695,0,0
644,-671,0,0,0,0,0,0,0,0,0,-1,1868,1695,0,0
651,-671,0,0,0,0,0,0,0,0,0,-1,1875,1695,0,0
658,-671,0,0,0,0,0,0,0,0,0,-1,1882,1695,0,0
665,-671,0,0,0,0,0,0,0,0,0,-1,1889,1695,0,0
672,-671,0,0,0,0,0,0,0,0,0,-1,1896,1695,0,0
679,-671,0,0,0,0,0,0,0,0,0,-1,1903,1695,0,0
686,-671,0,0,0,0,0,0,0,0,0,-1,1910,1695,0,0
693,-671,0,0,0,0,0,0,0,0,0,-1,1917,1695,0,0
700,-671,0,0,0,0,0,0,0,0,0,-1,1924,1695,0,0
707,-671,0,0,0,0,0,0,0,0,0,-1,1931,1695,0,0
714,-671,0,0,0,0,0,0,0,0,0,-1,1938,1695,0,0
721,-671,0,0,0,0,0,0,0,0,0,-1,1945,1695,0,0
728,-671,0,0,0,0,0,0,0,0,0,-1,1952,1695,0,0
735,-671,0,0,0,0,0,0,0,0,0,-1,1959,1695,0,0
742,-671,0,0,0,0,0,0,0,0,0,-1,1966,1695,0,0
749,-671,0,0,0,0,0,0,0,0,0,-1,1973,1695,0,0
756,-671,0,0,0,0,0,0,0,0,0,-1,1980,1695,0,0
763,-671,0,0,0,0,0,0,0,0,0,-1,1987,1695,0,0
770,-671,0,0,0,0,0,0,0,0,0,-1,1994,1695,0,0
777,-671,0,0,0,0,0,0,0,0,0,-1,2001,1695,0,0
784,-671,0,0,0,0,0,0,0,0,0,-1,2008,1695,0,0
791,-671,0,0,0,0,0,0,0,0,0,-1,2015,1695,0,0
798,-671,0,0,0,0,0,0,0,0,0,-1,2022,1695,0,0
805,-671,0,0,0,0,0,0,0,0,0,-1,2029,1695,0,0
812,-671,0,0,0,0,0,0,0,0,0,-1,2036,1695,0,0
-700,-678,0,0,0,0,0,0,0,0,0,-1,524,1702,0,0
-693,-678,0,0,0,0,0,0,0,0,0,-1,531,1702,0,0
-686,-678,0,0,0,0,0,0,0,0,0,-1,538,1702,0,0
-679,-678,0,0,0,0,0,0,0,0,0,-1,545,1702,0,0
-672,-678,0,0,0,0,0,0,0,0,0,-1,552,1702,0,0
-665,-678,0,0,0,0,0,0,0,0,0,-1,559,1702,0,0
-658,-678,0,0,0,0,0,0,0,0,0,-1,566,1702,0,0
-651,-678,0,0,0,0,0,0,0,0,0,-1,573,1702,0,0
-644,-678,0,0,0,0,0,0,0,0,0,-1,580,1702,0,0
-637,-678,0,0,0,0,0,0,0,0,0,-1,587,1702,0,0
-630,-678,0,0,0,0,0,0,0,0,0,-1,594,1702,0,0
-623,-678,0,0,0,0,0,0,0,0,0,-1,601,1702,0,0
-616,-678,0,0,0,0,0,0,0,0,0,-1,608,1702,0,0
-609,-678,0,0,0,0,0,0,0,0,0,-1,615,1702,0,0
-602,-678,0,0,0,0,0,0,0,0,0,-1,622,1702,0,0
-595,-678,0,0,0,0,0,0,0,0,0,-1,629,1702,0,0
-588,-678,0,0,0,0,0,0,0,0,0,-1,636,1702,0,0
-581,-678,0,0,0,0,0,0,0,0,0,-1,643,1702,0,0
-574,-678,0,0,0,0,0,0,0,0,0,-1,650,1702,0,0
-567,-678,0,0,0,0,0,0,0,0,0,-1,657,1702,0,0
-560,-678,0,0,0,0,0,0,0,0,0,-1,664,1702,0,0
-553,-678,0,0,0,0,0,0,0,0,0,-1,671,1702,0,0
-546,-678,0,0,0,0,0,0,0,0,0,-1,678,1702,0,0
-539,-678,0,0,0,0,0,0,0,0,0,-1,685,1702,0,0
-532,-678,0,0,0,0,0,0,0,0,0,-1,692,1702,0,0
-525,-678,0,0,0,0,0,0,0,0,0,-1,699,1702,0,0
-518,-678,0,0,0,0,0,0,0,0,0,-1,706,1702,0,0
-511,-678,0,0,0,0,0,0,0,0,0,-1,713,1702,0,0
-504,-678,0,0,0,0,0,0,0,0,0,-1,720,1702,0,0
-497,-678,0,0,0,0,0,0,0,0,0,-1,727,1702,0,0
-490,-678,0,0,0,0,0,0,0,0,0,-1,734,1702,0,0
-483,-678,0,0,0,0,0,0,0,0,0,-1,741,1702,0,0
-476,-678,0,0,0,0,0,0,0,0,0,-1,748,1702,0,0
-469,-678,0,0,0,0,0,0,0,0,0,-1,755,1702,0,0
-462,-678,0,0,0,0,0,0,0,0,0,-1,762,1702,0,0
-455,-678,0,0,0,0,0,0,0,0,0,-1,769,1702,0,0
-448,-678,0,0,0,0,0,0,0,0,0,-1,776,1702,0,0
-441,-678,0,0,0,0,0,0,0,0,0,-1,783,1702,0,0
-434,-678,0,0,0,0,0,0,0,0,0,-1,790,1702,0,0
-427,-678,0,0,0,0,0,0,0,0,0,-1,797,1702,0,0
-420,-678,0,0,0,0,0,0,0,0,0,-1,804,1702,0,0
-413,-678,0,0,0,0,0,0,0,0,0,-1,811,1702,0,0
-406,-678,0,0,0,0,0,0,0,0,0,-1,818,1702,0,0
-399,-678,0,0,0,0,0,0,0,0,0,-1,825,1702,0,0
-392,-678,0,0,0,0,0,0,0,0,0,-1,832,1702,0,0
-385,-678,0,0,0,0,0,0,0,0,0,-1,839,1702,0,0
-378,-678,0,0,0,0,0,0,0,0,0,-1,846,1702,0,0
-371,-678,0,0,0,0,0,0,0,0,0,-1,853,1702,0,0
-364,-678,0,0,0,0,0,0,0,0,0,-1,860,1702,0,0
-357,-678,0,0,0,0,0,0,0,0,0,-1,867,1702,0,0
-350,-678,-5.79944,6.11865,0,0,0,0,0,0,0,-1,874,1702,-5.79942,-6.11864
-343,-678,8.83331,46.1378,0,0,0,0,0,0,0,-1,881,1702,8.83334,-46.1378
-336,-678,7.73517,46.2286,0,0,0,0,0,0,0,-1,888,1702,7.73516,-46.2286
-329,-678,6.11768,46.3923,0,0,0,0,0,0,0,-1,895,1702,6.11768,-46.3923
-322,-678,8.50494,35.5048,0,0,0,0,0,0,0,-1,902,1702,8.50495,-35.5047
-315,-678,6.50409,44.3799,0,0,0,0,0,0,0,-1,909,1702,6.50409,-44.3799
-308,-678,5.14136,46.7224,0,0,0,0,0,0,0,-1,916,1702,5.14133,-46.7224
-301,-678,5.328,47.2762,0,0,0,0,0,0,0,-1,923,1702,5.32801,-47.2763
-294,-678,5.72864,47.5842,0,0,0,0,0,0,0,-1,930,1702,5.72864,-47.5843
-287,-678,6.52734,49.0614,0,0,0,0,0,0,0,-1,937,1702,6.52735,-49.0614
-280,-678,6.32465,49.6967,-0.00552049,0.0023951,0.004754,0.00462314,-0.00774854,1.13253,0.00721837,0.0468536,944,1702,6.32463,-49.6967
-273,-678,6.2782,50.2683,-0.0068367,0.0031085,0.00383002,0.00441251,-0.00814071,1.24264,0.00735337,0.0468491,951,1702,6.27817,-50.2683
-266,-678,6.32196,51.0872,-0.00755333,0.00400467,0.00312927,0.00479752,-0.00834617,1.32265,0.00768015,0.039098,958,1702,6.32195,-51.0871
-259,-678,6.39618,51.6931,-0.00713673,0.00523553,0.00277,0.00582739,-0.00772859,1.3603,0.00785216,0.0242596,965,1702,6.39616,-51.6931
-252,-678,6.42554,52.334,-0.00629624,0.00571354,0.00256777,0.00623951,-0.00682221,1.36876,0.00754368,0.0185578,972,1702,6.42555,-52.334
-245,-678,6.37103,52.9904,-0.00574215,0.00589198,0.00239815,0.00636693,-0.0062171,1.37528,0.00726556,0.0190583,979,1702,6.37104,-52.9904
-238,-678,6.31482,53.6418,-0.00512387,0.00586576,0.0023087,0.00633107,-0.00558918,1.37191,0.0068866,0.0157358,986,1702,6.31481,-53.6418
-231,-678,6.27545,54.2881,-0.00395262,0.00577028,0.00256367,0.00640484,-0.00458718,1.32815,0.0063751,0.0129273,993,1702,6.27547,-54.2881
-224,-678,6.2243,54.8898,-0.00307425,0.00542432,0.00235801,0.00603473,-0.00368465,1.31749,0.0056659,0.0126974,1000,1702,6.22428,-54.8897
-217,-678,6.19403,55.5155,-0.00245811,0.00485445,0.00210665,0.00541793,-0.00302159,1.30944,0.0049376,0.0138504,1007,1702,6.19406,-55.5155
-210,-678,6.16693,56.1836,-0.00182787,0.00427927,0.00195421,0.00485106,-0.00239965,1.28615,0.00426521,0.0152086,1014,1702,6.16691,-56.1836
-203,-678,6.17004,56.7689,-0.00112268,0.00331985,0.00182531,0.00397361,-0.00177644,1.22687,0.00339962,0.020646,1021,1702,6.17008,-56.7689
-196,-678,6.1438,57.3585,-0.000422399,0.0025591,0.00163856,0.00328358,-0.00114687,1.1545,0.00265523,0.0195427,1028,1702,6.14378,-57.3586
-189,-678,6.08911,57.9554,0.000167973,0.0021835,0.00148153,0.00296753,-0.000616054,1.08406,0.00221248,0.0106184,1035,1702,6.08911,-57.9554
-182,-678,6.0863,58.5293,0.000687619,0.00198329,0.0012777,0.00276801,-9.71018e-05,1.02003,0.00187854,0.00931249,1042,1702,6.08635,-58.5293
-175,-678,6.07556,59.0815,0.00139663,0.00190948,0.00123295,0.00291239,0.000393723,0.887924,0.00182457,0.010375,1049,1702,6.0756,-59.0816
-168,-678,6.03833,59.6195,0.00179466,0.0019625,0.00104584,0.00292778,0.000829377,0.825433,0.00174248,0.0107657,1056,1702,6.03835,-59.6195
-161,-678,6.01563,60.1324,0.00202209,0.00216883,0.000933023,0.00303137,0.00115956,0.824637,0.00176619,0.0100069,1063,1702,6.0156,-60.1324
-154,-678,6.02771,60.6809,0.00233051,0.00268278,0.000893306,0.00341715,0.00159614,0.882735,0.00197432,0.00898002,1070,1702,6.02771,-60.6809
-147,-678,6.02478,61.1971,0.00274121,0.00342368,0.00090495,0.00404959,0.00211529,0.965694,0.00233881,0.0108982,1077,1702,6.0248,-61.1972
-140,-678,6.06812,61.6736,0.00315462,0.00404156,0.000889894,0.00459236,0.00260381,1.01656,0.00265932,0.013375,1084,1702,6.06812,-61.6736
-133,-678,6.09717,62.1471,0.00355706,0.00469948,0.000839361,0.00514356,0.00311298,1.08417,0.00299147,0.0142304,1091,1702,6.09714,-62.1471
-126,-678,6.0907,62.6852,0.00409526,0.00511306,0.000723376,0.00548861,0.00371971,1.09194,0.00323488,0.0187864,1098,1702,6.09069,-62.6852
-119,-678,6.10327,63.413,0,0,0,0,0,0,0,-1,1105,1702,6.10328,-63.413
-112,-678,6.18237,63.4767,0,0,0,0,0,0,0,-1,1112,1702,6.18232,-63.4767
-105,-678,6.15234,64.0486,0,0,0,0,0,0,0,-1,1119,1702,6.15228,-64.0486
-98,-678,6.22449,64.5846,0,0,0,0,0,0,0,-1,1126,1702,6.22448,-64.5847
-91,-678,6.40332,64.7188,0,0,0,0,0,0,0,-1,1133,1702,6.40326,-64.7188
-84,-678,6.58545,36.5073,0,0,0,0,0,0,0,-1,1140,1702,6.58544,-36.5073
-77,-678,5.95154,29.1879,0,0,0,0,0,0,0,-1,1147,1702,5.95156,-29.1878
-70,-678,4.75891,19.6552,0,0,0,0,0,0,0,-1,1154,1702,4.75895,-19.6551
-63,-678,3.41687,11.0365,0,0,0,0,0,0,0,-1,1161,1702,3.41682,-11.0365
-56,-678,1.72388,6.13159,0,0,0,0,0,0,0,-1,1168,1702,1.72388,-6.13157
-49,-678,-0.241699,5.29895,0,0,0,0,0,0,0,-1,1175,1702,-0.241682,-5.29897
-42,-678,0.297119,3.90649,0,0,0,0,0,0,0,-1,1182,1702,0.297139,-3.90655
-35,-678,0.498413,3.64038,0,0,0,0,0,0,0,-1,1189,1702,0.498471,-3.64038
-28,-678,0.132446,3.55994,0,0,0,0,0,0,0,-1,1196,1702,0.132432,-3.55993
-21,-678,7.36475,67.4467,0,0,0,0,0,0,0,-1,1203,1702,7.36477,-67.4467
-14,-678,7.65405,67.4906,0.0652819,0.0381466,-0.0185019,0.0746577,0.0287708,-0.469032,0.0434796,0.0419461,1210,1702,7.65407,-67.4906
-7,-678,7.86963,67.4639,0.0654681,0.0366443,-0.0180148,0.0741265,0.0279859,-0.448026,0.0432227,0.0446255,1217,1702,7.86957,-67.4639
0,-678,8.23157,67.842,0,0,0,0,0,0,0,-1,1224,1702,8.23154,-67.8421
7,-678,8.52258,68.3505,0,0,0,0,0,0,0,-1,1231,1702,8.52259,-68.3505
14,-678,9.80786,65.4615,0,0,0,0,0,0,0,-1,1238,1702,9.80786,-65.4616
21,-678,9.4502,66.2166,0,0,0,0,0,0,0,-1,1245,1702,9.4502,-66.2166
28,-678,10.2902,65.6606,0,0,0,0,0,0,0,-1,1252,1702,10.2902,-65.6607
35,-678,6.99573,72.1484,0,0,0,0,0,0,0,-1,1259,1702,6.9957,-72.1484
42,-678,10.7609,64.3627,0,0,0,0,0,0,0,-1,1266,1702,10.7609,-64.3626
49,-678,11.6031,63.6608,0,0,0,0,0,0,0,-1,1273,1702,11.6031,-63.6608
56,-678,4.80908,73.9227,0,0,0,0,0,0,0,-1,1280,1702,4.80912,-73.9227
63,-678,13.2806,72.6864,0,0,0,0,0,0,0,-1,1287,1702,13.2806,-72.6864
70,-678,12.9541,72.0702,0,0,0,0,0,0,0,-1,1294,1702,12.9541,-72.0701
77,-678,12.7114,71.1339,0,0,0,0,0,0,0,-1,1301,1702,12.7114,-71.1339
84,-678,10.3307,67.9039,0,0,0,0,0,0,0,-1,1308,1702,10.3307,-67.904
91,-678,10.0004,67.6785,0,0,0,0,0,0,0,-1,1315,1702,10.0004,-67.6784
98,-678,9.64111,67.4421,0.0439039,0.0755126,-0.00149869,0.0755835,0.043833,-1.52352,0.0438236,0.0416817,1322,1702,9.64112,-67.4421
105,-678,9.50891,67.0142,0.0437492,0.0683647,0.00212535,0.0685469,0.043567,1.4853,0.0400576,0.0411767,1329,1702,9.50887,-67.0142
112,-678,9.83154,67.1794,0.0443713,0.0612011,0.00636208,0.0633354,0.042237,1.24712,0.0372394,0.0422048,1336,1702,9.83155,-67.1795
119,-678,9.95398,67.6722,0,0,0,0,0,0,0,-1,1343,1702,9.95395,-67.6722
126,-678,10.0974,65.6912,0,0,0,0,0,0,0,-1,1350,1702,10.0974,-65.6911
133,-678,9.36169,64.3562,0,0,0,0,0,0,0,-1,1357,1702,9.36165,-64.3562
140,-678,9.18933,65.8634,0,0,0,0,0,0,0,-1,1364,1702,9.18927,-65.8634
147,-678,9.04272,65.011,0,0,0,0,0,0,0,-1,1371,1702,9.04278,-65.011
154,-678,8.32007,64.3206,0,0,0,0,0,0,0,-1,1378,1702,8.32001,-64.3205
161,-678,8.81226,34.8624,0,0,0,0,0,0,0,-1,1385,1702,8.81229,-34.8624
168,-678,4.21863,5.25781,0,0,0,0,0,0,0,-1,1392,1702,4.21865,-5.25781
175,-678,5.21899,5.9635,0,0,0,0,0,0,0,-1,1399,1702,5.21894,-5.96346
182,-678,7.31262,6.75122,0,0,0,0,0,0,0,-1,1406,1702,7.3126,-6.75123
189,-678,5.96021,6.36853,0,0,0,0,0,0,0,-1,1413,1702,5.96018,-6.36851
196,-678,5.01599,8.15771,0,0,0,0,0,0,0,-1,1420,1702,5.01596,-8.15767
203,-678,4.64771,13.0559,0,0,0,0,0,0,0,-1,1427,1702,4.64766,-13.0559
210,-678,5.6532,18.5957,0,0,0,0,0,0,0,-1,1434,1702,5.65318,-18.5958
217,-678,6.88049,23.4835,0,0,0,0,0,0,0,-1,1441,1702,6.88047,-23.4835
224,-678,8.521,32.0977,0,0,0,0,0,0,0,-1,1448,1702,8.52098,-32.0977
231,-678,9.96838,42.3734,0,0,0,0,0,0,0,-1,1455,1702,9.96844,-42.3734
238,-678,11.5217,63.2312,0,0,0,0,0,0,0,-1,1462,1702,11.5217,-63.2312
245,-678,11.5675,62.7037,0,0,0,0,0,0,0,-1,1469,1702,11.5675,-62.7037
252,-678,11.5706,62.3209,0.00629856,1.6797e-05,-0.000185745,0.00630404,1.13093e-05,-0.0295346,0.00419893,0.0224746,1476,1702,11.5706,-62.3209
259,-678,11.5831,61.8497,0.00549306,0.000379968,-0.000240274,0.00550432,0.000368702,-0.0468543,0.00355303,0.0183486,1483,1702,11.5831,-61.8497
266,-678,11.6422,61.3098,0.0048327,0.000578654,-0.000445205,0.0048788,0.00053256,-0.103165,0.00309035,0.0138196,1490,1702,11.6422,-61.3098
273,-678,11.6696,60.8094,0.00441753,0.000747256,-0.000509341,0.0044869,0.000677884,-0.135367,0.00279287,0.011751,1497,1702,11.6695,-60.8095
280,-678,11.6587,60.3035,0.00384824,0.000886203,-0.000524247,0.00393828,0.000796154,-0.170107,0.00240448,0.0123691,1504,1702,11.6587,-60.3035
287,-678,11.6534,59.7323,0.00331137,0.00104739,-0.000570753,0.00344711,0.000911638,-0.233502,0.00206249,0.0122892,1511,1702,11.6534,-59.7322
294,-678,11.6311,59.1713,0.00287034,0.00117929,-0.000615758,0.00307079,0.000978835,-0.314719,0.00181133,0.0132933,1518,1702,11.6311,-59.1713
301,-678,11.6079,58.6499,0.00236728,0.00138264,-0.000722881,0.00274956,0.00100035,-0.48645,0.00160697,0.0130063,1525,1702,11.6079,-58.6499
308,-678,11.6237,58.092,0.00189074,0.00159663,-0.000977014,0.00273171,0.000755667,-0.7107,0.00162877,0.014208,1532,1702,11.6237,-58.0921
315,-678,11.6243,57.5337,0.00150766,0.00196921,-0.00135631,0.00311424,0.000362636,-0.869666,0.00196646,0.0146359,1539,1702,11.6243,-57.5337
322,-678,11.5839,57.0188,0.00111886,0.00235585,-0.00171999,0.00356517,-9.04583e-05,-0.957995,0.0024075,0.0174357,1546,1702,11.5839,-57.0188
329,-678,11.5481,56.4148,0.000745532,0.00272765,-0.00210419,0.0040625,-0.000589312,-1.00549,0.00292463,0.0156535,1553,1702,11.5481,-56.4148
336,-678,11.5182,55.7671,0.000504323,0.00313433,-0.00250677,0.00465007,-0.00101142,-1.02696,0.00348644,0.0135557,1560,1702,11.5182,-55.7671
343,-678,11.5402,55.1573,0.000321782,0.00355276,-0.00293884,0.00529086,-0.00141632,-1.03671,0.00408209,0.015124,1567,1702,11.5401,-55.1574
350,-678,11.5303,54.5684,0.000150804,0.00391904,-0.00345173,0.0059674,-0.00189755,-1.03522,0.00473915,0.0150321,1574,1702,11.5302,-54.5684
357,-678,11.4624,53.9541,3.23899e-05,0.00428164,-0.00395907,0.00665015,-0.00233612,-1.03167,0.00538382,0.0107854,1581,1702,11.4625,-53.954
364,-678,11.4227,53.3333,-0.000101542,0.00438298,-0.00429297,0.00698399,-0.00270256,-1.02607,0.00577175,0.0122614,1588,1702,11.4227,-53.3332
371,-678,11.3633,52.6909,-0.000123722,0.004501,-0.00465009,0.00738194,-0.00300466,-1.01613,0.00617167,0.0134513,1595,1702,11.3633,-52.6909
378,-678,11.3198,52.0605,-1.76481e-05,0.00460719,-0.00497791,0.00778356,-0.00319403,-1.00284,0.00651994,0.0139378,1602,1702,11.3198,-52.0606
385,-678,11.3083,51.421,0.000372881,0.00481932,-0.00546503,0.00849604,-0.00330383,-0.978579,0.00702906,0.0141477,1609,1702,11.3083,-51.421
392,-678,11.325,50.7847,0.00132296,0.00522443,-0.00649093,0.0100514,-0.00350403,-0.931371,0.00812485,0.023557,1616,1702,11.3249,-50.7846
399,-678,11.3142,50.0876,0.00243391,0.00547561,-0.00753081,0.0116376,-0.00372808,-0.885033,0.00925487,0.0367889,1623,1702,11.3142,-50.0876
406,-678,11.2872,49.2885,0.00387742,0.00576134,-0.0087729,0.0136427,-0.00400395,-0.838879,0.0106829,0.0486006,1630,1702,11.2873,-49.2885
413,-678,11.3352,48.4421,0,0,0,0,0,0,0,-1,1637,1702,11.3353,-48.4422
420,-678,11.2355,43.032,0,0,0,0,0,0,0,-1,1644,1702,11.2355,-43.032
427,-678,10.0541,38.9548,0,0,0,0,0,0,0,-1,1651,1702,10.0541,-38.9548
434,-678,10.1094,38.722,0,0,0,0,0,0,0,-1,1658,1702,10.1094,-38.7221
441,-678,11.6007,39.4658,0,0,0,0,0,0,0,-1,1665,1702,11.6007,-39.4658
448,-678,11.344,38.9084,0,0,0,0,0,0,0,-1,1672,1702,11.344,-38.9084
455,-678,5.44678,5.54297,0,0,0,0,0,0,0,-1,1679,1702,5.44676,-5.54294
462,-678,3.86792,2.87402,0,0,0,0,0,0,0,-1,1686,1702,3.86796,-2.87406
469,-678,2.26587,1.98755,0,0,0,0,0,0,0,-1,1693,1702,2.26592,-1.98755
476,-678,0,0,0,0,0,0,0,0,0,-1,1700,1702,0,0
483,-678,0,0,0,0,0,0,0,0,0,-1,1707,1702,0,0
490,-678,0,0,0,0,0,0,0,0,0,-1,1714,1702,0,0
497,-678,0,0,0,0,0,0,0,0,0,-1,1721,1702,0,0
504,-678,0,0,0,0,0,0,0,0,0,-1,1728,1702,0,0
511,-678,0,0,0,0,0,0,0,0,0,-1,1735,1702,0,0
518,-678,0,0,0,0,0,0,0,0,0,-1,1742,1702,0,0
525,-678,0,0,0,0,0,0,0,0,0,-1,1749,1702,0,0
532,-678,0,0,0,0,0,0,0,0,0,-1,1756,1702,0,0
539,-678,0,0,0,0,0,0,0,0,0,-1,1763,1702,0,0
546,-678,0,0,0,0,0,0,0,0,0,-1,1770,1702,0,0
553,-678,0,0,0,0,0,0,0,0,0,-1,1777,1702,0,0
560,-678,0,0,0,0,0,0,0,0,0,-1,1784,1702,0,0
567,-678,0,0,0,0,0,0,0,0,0,-1,1791,1702,0,0
574,-678,0,0,0,0,0,0,0,0,0,-1,1798,1702,0,0
581,-678,0,0,0,0,0,0,0,0,0,-1,1805,1702,0,0
588,-678,0,0,0,0,0,0,0,0,0,-1,1812,1702,0,0
595,-678,0,0,0,0,0,0,0,0,0,-1,1819,1702,0,0
602,-678,0,0,0,0,0,0,0,0,0,-1,1826,1702,0,0
609,-678,0,0,0,0,0,0,0,0,0,-1,1833,1702,0,0
616,-678,0,0,0,0,0,0,0,0,0,-1,1840,1702,0,0
623,-678,0,0,0,0,0,0,0,0,0,-1,1847,1702,0,0
630,-678,0,0,0,0,0,0,0,0,0,-1,1854,1702,0,0
637,-678,0,0,0,0,0,0,0,0,0,-1,1861,1702,0,0
644,-678,0,0,0,0,0,0,0,0,0,-1,1868,1702,0,0
651,-678,0,0,0,0,0,0,0,0,0,-1,1875,1702,0,0
658,-678,0,0,0,0,0,0,0,0,0,-1,1882,1702,0,0
665,-678,0,0,0,0,0,0,0,0,0,-1,1889,1702,0,0
672,-678,0,0,0,0,0,0,0,0,0,-1,1896,1702,0,0
679,-678,0,0,0,0,0,0,0,0,0,-1,1903,1702,0,0
686,-678,0,0,0,0,0,0,0,0,0,-1,1910,1702,0,0
693,-678,0,0,0,0,0,0,0,0,0,-1,1917,1702,0,0
700,-678,0,0,0,0,0,0,0,0,0,-1,1924,1702,0,0
707,-678,0,0,0,0,0,0,0,0,0,-1,1931,1702,0,0
714,-678,0,0,0,0,0,0,0,0,0,-1,1938,1702,0,0
721,-678,0,0,0,0,0,0,0,0,0,-1,1945,1702,0,0
728,-678,0,0,0,0,0,0,0,0,0,-1,1952,1702,0,0
735,-678,0,0,0,0,0,0,0,0,0,-1,1959,1702,0,0
742,-678,0,0,0,0,0,0,0,0,0,-1,1966,1702,0,0
749,-678,0,0,0,0,0,0,0,0,0,-1,1973,1702,0,0
756,-678,0,0,0,0,0,0,0,0,0,-1,1980,1702,0,0
763,-678,0,0,0,0,0,0,0,0,0,-1,1987,1702,0,0
770,-678,0,0,0,0,0,0,0,0,0,-1,1994,1702,0,0
777,-678,0,0,0,0,0,0,0,0,0,-1,2001,1702,0,0
784,-678,0,0,0,0,0,0,0,0,0,-1,2008,1702,0,0
791,-678,0,0,0,0,0,0,0,0,0,-1,2015,1702,0,0
798,-678,0,0,0,0,0,0,0,0,0,-1,2022,1702,0,0
805,-678,0,0,0,0,0,0,0,0,0,-1,2029,1702,0,0
812,-678,0,0,0,0,0,0,0,0,0,-1,2036,1702,0,0
-700,-685,0,0,0,0,0,0,0,0,0,-1,524,1709,0,0
-693,-685,0,0,0,0,0,0,0,0,0,-1,531,1709,0,0
-686,-685,0,0,0,0,0,0,0,0,0,-1,538,1709,0,0
-679,-685,0,0,0,0,0,0,0,0,0,-1,545,1709,0,0
-672,-685,0,0,0,0,0,0,0,0,0,-1,552,1709,0,0
-665,-685,0,0,0,0,0,0,0,0,0,-1,559,1709,0,0
-658,-685,0,0,0,0,0,0,0,0,0,-1,566,1709,0,0
-651,-685,0,0,0,0,0,0,0,0,0,-1,573,1709,0,0
-644,-685,0,0,0,0,0,0,0,0,0,-1,580,1709,0,0
-637,-685,0,0,0,0,0,0,0,0,0,-1,587,1709,0,0
-630,-685,0,0,0,0,0,0,0,0,0,-1,594,1709,0,0
-623,-685,0,0,0,0,0,0,0,0,0,-1,601,1709,0,0
-616,-685,0,0,0,0,0,0,0,0,0,-1,608,1709,0,0
-609,-685,0,0,0,0,0,0,0,0,0,-1,615,1709,0,0
-602,-685,0,0,0,0,0,0,0,0,0,-1,622,1709,0,0
-595,-685,0,0,0,0,0,0,0,0,0,-1,629,1709,0,0
-588,-685,0,0,0,0,0,0,0,0,0,-1,636,1709,0,0
-581,-685,0,0,0,0,0,0,0,0,0,-1,643,1709,0,0
-574,-685,0,0,0,0,0,0,0,0,0,-1,650,1709,0,0
-567,-685,0,0,0,0,0,0,0,0,0,-1,657,1709,0,0
-560,-685,0,0,0,0,0,0,0,0,0,-1,664,1709,0,0
-553,-685,0,0,0,0,0,0,0,0,0,-1,671,1709,0,0
-546,-685,0,0,0,0,0,0,0,0,0,-1,678,1709,0,0
-539,-685,0,0,0,0,0,0,0,0,0,-1,685,1709,0,0
-532,-685,0,0,0,0,0,0,0,0,0,-1,692,1709,0,0
-525,-685,0,0,0,0,0,0,0,0,0,-1,699,1709,0,0
-518,-685,0,0,0,0,0,0,0,0,0,-1,706,1709,0,0
-511,-685,0,0,0,0,0,0,0,0,0,-1,713,1709,0,0
-504,-685,0,0,0,0,0,0,0,0,0,-1,720,1709,0,0
-497,-685,0,0,0,0,0,0,0,0,0,-1,727,1709,0,0
-490,-685,0,0,0,0,0,0,0,0,0,-1,734,1709,0,0
-483,-685,0,0,0,0,0,0,0,0,0,-1,741,1709,0,0
-476,-685,0,0,0,0,0,0,0,0,0,-1,748,1709,0,0
-469,-685,0,0,0,0,0,0,0,0,0,-1,755,1709,0,0
-462,-685,0,0,0,0,0,0,0,0,0,-1,762,1709,0,0
-455,-685,0,0,0,0,0,0,0,0,0,-1,769,1709,0,0
-448,-685,0,0,0,0,0,0,0,0,0,-1,776,1709,0,0
-441,-685,0,0,0,0,0,0,0,0,0,-1,783,1709,0,0
-434,-685,0,0,0,0,0,0,0,0,0,-1,790,1709,0,0
-427,-685,0,0,0,0,0,0,0,0,0,-1,797,1709,0,0
-420,-685,0,0,0,0,0,0,0,0,0,-1,804,1709,0,0
-413,-685,0,0,0,0,0,0,0,0,0,-1,811,1709,0,0
-406,-685,0,0,0,0,0,0,0,0,0,-1,818,1709,0,0
-399,-685,0,0,0,0,0,0,0,0,0,-1,825,1709,0,0
-392,-685,0,0,0,0,0,0,0,0,0,-1,832,1709,0,0
-385,-685,0,0,0,0,0,0,0,0,0,-1,839,1709,0,0
-378,-685,0,0,0,0,0,0,0,0,0,-1,846,1709,0,0
-371,-685,0,0,0,0,0,0,0,0,0,-1,853,1709,0,0
-364,-685,0,0,0,0,0,0,0,0,0,-1,860,1709,0,0
-357,-685,0,0,0,0,0,0,0,0,0,-1,867,1709,0,0
-350,-685,0,0,0,0,0,0,0,0,0,-1,874,1709,0,0
-343,-685,-5.98505,6.56335,0,0,0,0,0,0,0,-1,881,1709,-5.98505,-6.56329
-336,-685,-6.51312,5.10571,0,0,0,0,0,0,0,-1,888,1709,-6.51311,-5.10575
-329,-685,9.98907,36.2474,0,0,0,0,0,0,0,-1,895,1709,9.98909,-36.2475
-322,-685,3.83191,16.7219,0,0,0,0,0,0,0,-1,902,1709,3.8319,-16.7219
-315,-685,5.15784,21.4388,0,0,0,0,0,0,0,-1,909,1709,5.15783,-21.4389
-308,-685,6.98718,46.6025,0,0,0,0,0,0,0,-1,916,1709,6.98718,-46.6026
-301,-685,5.6405,47.6722,0,0,0,0,0,0,0,-1,923,1709,5.6405,-47.6723
-294,-685,6.18768,47.5267,0,0,0,0,0,0,0,-1,930,1709,6.18768,-47.5268
-287,-685,7.26007,49.184,0,0,0,0,0,0,0,-1,937,1709,7.26005,-49.1839
-280,-685,6.89752,49.709,0,0,0,0,0,0,0,-1,944,1709,6.89751,-49.709
-273,-685,6.85394,50.2196,0,0,0,0,0,0,0,-1,951,1709,6.85392,-50.2196
-266,-685,6.88599,51.1974,0,0,0,0,0,0,0,-1,958,1709,6.88601,-51.1974
-259,-685,7.22009,51.298,-0.0100516,0.00805596,0.00313548,0.00858352,-0.0105791,1.4041,0.0110836,0.0474903,965,1709,7.22008,-51.298
-252,-685,7.09882,52.1373,-0.00889729,0.00854679,0.00308505,0.00907631,-0.00942682,1.40081,0.0106834,0.040422,972,1709,7.09881,-52.1373
-245,-685,7.03699,52.9645,-0.0082414,0.00859816,0.00298596,0.00911195,-0.00875519,1.4004,0.0103163,0.036688,979,1709,7.03698,-52.9645
-238,-685,6.97437,53.6888,-0.00751596,0.0084423,0.00301094,0.00899149,-0.00806516,1.39038,0.0098525,0.0281528,986,1709,6.97435,-53.6888
-231,-685,6.89209,54.3577,-0.00609514,0.00823967,0.00339165,0.00900164,-0.00685711,1.3498,0.00918392,0.0176884,993,1709,6.89207,-54.3577
-224,-685,6.82874,54.9401,-0.00497519,0.00772329,0.00318573,0.00847769,-0.00572959,1.33827,0.00825357,0.0152497,1000,1709,6.82872,-54.94
-217,-685,6.78864,55.5757,-0.00415519,0.00694775,0.00289767,0.00765849,-0.00486594,1.33026,0.00729065,0.0115373,1007,1709,6.78863,-55.5757
-210,-685,6.75824,56.2246,-0.00335915,0.00618037,0.00272794,0.00690536,-0.00408414,1.31104,0.0064141,0.0162829,1014,1709,6.75824,-56.2246
-203,-685,6.74365,56.7942,-0.00252495,0.00497367,0.00256932,0.00576955,-0.00332083,1.27041,0.00531142,0.0178682,1021,1709,6.74369,-56.7942
-196,-685,6.7179,57.3812,-0.00170203,0.00398379,0.00227269,0.00478056,-0.0024988,1.2336,0.00427101,0.014667,1028,1709,6.71793,-57.3812
-189,-685,6.65234,57.9595,-0.000962392,0.00333754,0.00199037,0.00411741,-0.00174226,1.19736,0.00347449,0.00953297,1035,1709,6.65229,-57.9594
-182,-685,6.63257,58.5396,-0.000329999,0.00284974,0.0016975,0.00358564,-0.0010659,1.16173,0.00281384,0.0127905,1042,1709,6.63252,-58.5396
-175,-685,6.61731,59.1134,0.000505861,0.00249333,0.0015692,0.00335699,-0.00035779,1.06766,0.00236629,0.0132835,1049,1709,6.61736,-59.1134
-168,-685,6.58716,59.6567,0.000967041,0.00227924,0.00126824,0.00305105,0.00019524,1.02411,0.00197217,0.0109994,1056,1709,6.5872,-59.6567
-161,-685,6.58643,60.1746,0.00117331,0.00213004,0.00103672,0.00279343,0.000509919,1.00155,0.00171773,0.0122025,1063,1709,6.58644,-60.1746
-154,-685,6.58362,60.7095,0.00146597,0.00227455,0.000891533,0.00284918,0.000891341,0.99827,0.00168295,0.0111623,1070,1709,6.58364,-60.7095
-147,-685,6.55713,61.2183,0.00188155,0.00271329,0.000825742,0.00322197,0.00137287,1.01867,0.00186697,0.010733,1077,1709,6.55711,-61.2182
-140,-685,6.56848,61.6704,0.0023668,0.00304533,0.000772632,0.0035499,0.00186223,0.992274,0.00205036,0.0136921,1084,1709,6.56846,-61.6704
-133,-685,6.5769,62.1693,0.00279261,0.00337805,0.00071001,0.00385332,0.00231734,0.980922,0.00223991,0.0124673,1091,1709,6.57686,-62.1693
-126,-685,6.58118,62.672,0.00326696,0.00357249,0.000592205,0.00403131,0.00280813,0.911627,0.00238669,0.0101785,1098,1709,6.58113,-62.672
-119,-685,6.60706,63.1283,0.0039112,0.00363074,0.000432713,0.00422584,0.0033161,0.628701,0.00256826,0.015055,1105,1709,6.60704,-63.1283
-112,-685,6.6178,63.5609,0.00456883,0.00346673,0.000150729,0.00458907,0.00344648,0.133499,0.00275856,0.0163925,1112,1709,6.61782,-63.561
-105,-685,6.61096,64.0067,0.00507489,0.00304727,-0.000181246,0.00509096,0.0030312,-0.088454,0.00295705,0.0185113,1119,1709,6.61097,-64.0067
-98,-685,6.69202,64.3878,0.00544473,0.00259065,-0.00051942,0.00553632,0.00249906,-0.174539,0.00320143,0.0262728,1126,1709,6.69199,-64.3879
-91,-685,6.77136,64.6251,0.00615164,0.00206029,-0.00131328,0.00653691,0.00167502,-0.285357,0.00392074,0.0477102,1133,1709,6.77132,-64.6251
-84,-685,6.71936,65.0975,0,0,0,0,0,0,0,-1,1140,1709,6.71936,-65.0975
-77,-685,6.80652,65.5991,0,0,0,0,0,0,0,-1,1147,1709,6.80655,-65.5992
-70,-685,6.90051,66.1096,0,0,0,0,0,0,0,-1,1154,1709,6.90047,-66.1097
-63,-685,6.03015,29.7728,0,0,0,0,0,0,0,-1,1161,1709,6.0302,-29.7728
-56,-685,3.93909,15.8704,0,0,0,0,0,0,0,-1,1168,1709,3.93905,-15.8704
-49,-685,3.07471,9.86011,0,0,0,0,0,0,0,-1,1175,1709,3.07467,-9.86009
-42,-685,2.70618,7.54504,0,0,0,0,0,0,0,-1,1182,1709,2.7062,-7.54504
-35,-685,2.95264,7.91516,0,0,0,0,0,0,0,-1,1189,1709,2.95262,-7.91517
-28,-685,8.11353,52.4509,0,0,0,0,0,0,0,-1,1196,1709,8.1135,-52.451
-21,-685,7.57349,67.6047,0,0,0,0,0,0,0,-1,1203,1709,7.57353,-67.6048
-14,-685,7.68005,67.6184,0.0519843,0.0269275,-0.0137503,0.0580578,0.020854,-0.415931,0.0339599,0.0348793,1210,1709,7.68011,-67.6184
-7,-685,7.76123,67.8116,0.0527398,0.0263345,-0.0138137,0.0586455,0.0204288,-0.404005,0.0343742,0.0481661,1217,1709,7.76128,-67.8117
0,-685,7.59998,68.0745,0,0,0,0,0,0,0,-1,1224,1709,7.60002,-68.0744
7,-685,7.71936,68.1165,0,0,0,0,0,0,0,-1,1231,1709,7.71942,-68.1165
14,-685,8.06177,68.6423,0,0,0,0,0,0,0,-1,1238,1709,8.06175,-68.6424
21,-685,8.43213,68.8423,0,0,0,0,0,0,0,-1,1245,1709,8.43215,-68.8423
28,-685,8.47827,68.7061,0,0,0,0,0,0,0,-1,1252,1709,8.4783,-68.706
35,-685,8.55981,68.7523,0,0,0,0,0,0,0,-1,1259,1709,8.55986,-68.7523
42,-685,8.72339,69.0479,0,0,0,0,0,0,0,-1,1266,1709,8.72334,-69.0479
49,-685,8.88892,69.1472,0,0,0,0,0,0,0,-1,1273,1709,8.8889,-69.1472
56,-685,8.50098,63.9211,0,0,0,0,0,0,0,-1,1280,1709,8.50092,-63.9212
63,-685,12.8805,72.6556,0,0,0,0,0,0,0,-1,1287,1709,12.8806,-72.6556
70,-685,8.94983,69.2832,0,0,0,0,0,0,0,-1,1294,1709,8.94982,-69.2832
77,-685,12.3151,71.6799,0,0,0,0,0,0,0,-1,1301,1709,12.315,-71.68
84,-685,12.1744,70.7625,0,0,0,0,0,0,0,-1,1308,1709,12.1744,-70.7625
91,-685,9.8877,67.9351,0,0,0,0,0,0,0,-1,1315,1709,9.88769,-67.935
98,-685,9.54846,67.7561,0,0,0,0,0,0,0,-1,1322,1709,9.54852,-67.7562
105,-685,9.45313,67.776,0,0,0,0,0,0,0,-1,1329,1709,9.45312,-67.776
112,-685,9.73779,67.3943,0.0322515,0.0450737,0.0045903,0.0465476,0.0307776,1.26011,0.0273359,0.0468763,1336,1709,9.73777,-67.3943
119,-685,9.83655,67.7468,0.0321592,0.0405516,0.00753713,0.0449819,0.0277289,1.0394,0.0262041,0.0441922,1343,1709,9.83651,-67.7469
126,-685,10.1111,67.7502,0,0,0,0,0,0,0,-1,1350,1709,10.1111,-67.7503
133,-685,10.2792,67.6121,0,0,0,0,0,0,0,-1,1357,1709,10.2792,-67.612
140,-685,10.1455,67.5637,0,0,0,0,0,0,0,-1,1364,1709,10.1455,-67.5638
147,-685,8.97046,64.183,0,0,0,0,0,0,0,-1,1371,1709,8.9704,-64.183
154,-685,10.0796,56.0078,0,0,0,0,0,0,0,-1,1378,1709,10.0796,-56.0079
161,-685,10.4932,55.8827,0,0,0,0,0,0,0,-1,1385,1709,10.4932,-55.8827
168,-685,4.37524,10.8778,0,0,0,0,0,0,0,-1,1392,1709,4.37525,-10.8778
175,-685,3.97522,8.94324,0,0,0,0,0,0,0,-1,1399,1709,3.97519,-8.94328
182,-685,3.98218,9.19739,0,0,0,0,0,0,0,-1,1406,1709,3.98221,-9.1974
189,-685,4.53479,15.2343,0,0,0,0,0,0,0,-1,1413,1709,4.53474,-15.2343
196,-685,10.5464,65.8207,0,0,0,0,0,0,0,-1,1420,1709,10.5464,-65.8207
203,-685,10.6218,65.3022,0,0,0,0,0,0,0,-1,1427,1709,10.6218,-65.3023
210,-685,11.0321,64.8623,0,0,0,0,0,0,0,-1,1434,1709,11.0321,-64.8624
217,-685,11.0089,64.3928,0,0,0,0,0,0,0,-1,1441,1709,11.0089,-64.3928
224,-685,10.9478,64.0111,0,0,0,0,0,0,0,-1,1448,1709,10.9478,-64.0111
231,-685,10.988,63.6183,0,0,0,0,0,0,0,-1,1455,1709,10.9881,-63.6183
238,-685,11.0916,63.1816,0.0059777,-0.000472568,-0.000328397,0.00599437,-0.000489244,-0.0507373,0.00416891,0.0393007,1462,1709,11.0916,-63.1817
245,-685,11.0684,62.7128,0.00526992,-9.08809e-05,-0.000335255,0.0052908,-0.000111766,-0.0622152,0.00356504,0.0230585,1469,1709,11.0684,-62.7128
252,-685,11.1002,62.2787,0.00469388,0.000190736,-0.000354615,0.00472164,0.000162982,-0.0781067,0.00309486,0.0160033,1476,1709,11.1002,-62.2787
259,-685,11.1262,61.8149,0.00399239,0.00047915,-0.000466787,0.00405335,0.000418188,-0.129864,0.00257419,0.0116718,1483,1709,11.1263,-61.8149
266,-685,11.1448,61.3109,0.00340452,0.00064107,-0.000688023,0.00356634,0.000479248,-0.231001,0.00223501,0.0127495,1490,1709,11.1448,-61.3109
273,-685,11.1569,60.8074,0.0029702,0.000805715,-0.000787878,0.00322661,0.000549301,-0.314638,0.00199336,0.0161598,1497,1709,11.1568,-60.8074
280,-685,11.1257,60.296,0.00241996,0.000956626,-0.000857636,0.00281562,0.000560961,-0.432247,0.00172085,0.0180774,1504,1709,11.1257,-60.296
287,-685,11.1224,59.775,0.00191024,0.00110332,-0.00093925,0.00252902,0.00048454,-0.582536,0.00154995,0.0128655,1511,1709,11.1225,-59.775
294,-685,11.0967,59.2433,0.00146801,0.00128482,-0.000994387,0.00237501,0.000377816,-0.739471,0.00147363,0.0110962,1518,1709,11.0967,-59.2433
301,-685,11.0684,58.7037,0.00102077,0.00150298,-0.00112325,0.00241071,0.000113036,-0.891119,0.00157082,0.0139234,1525,1709,11.0683,-58.7038
308,-685,11.0846,58.1422,0.000636914,0.00181291,-0.00147915,0.00281665,-0.000366823,-0.974584,0.00201122,0.0152689,1532,1709,11.0846,-58.1423
315,-685,11.0927,57.5769,0.000364173,0.0023581,-0.0020101,0.00360489,-0.00088262,-1.01561,0.00274518,0.0134661,1539,1709,11.0926,-57.5769
322,-685,11.0396,57.0096,6.86915e-05,0.00286888,-0.00246814,0.00430639,-0.00136881,-1.0434,0.00341976,0.02181,1546,1709,11.0396,-57.0096
329,-685,10.9843,56.4303,-0.000239592,0.00340082,-0.00292764,0.00502796,-0.00186673,-1.06352,0.00411777,0.0200519,1553,1709,10.9842,-56.4304
336,-685,10.9524,55.7844,-0.000382006,0.00400866,-0.00347606,0.00592459,-0.00229793,-1.06705,0.00489878,0.013542,1560,1709,10.9524,-55.7844
343,-685,10.9445,55.1786,-0.000437155,0.00465612,-0.00407503,0.00691482,-0.00269585,-1.06468,0.00572416,0.0124157,1567,1709,10.9444,-55.1786
350,-685,10.9036,54.6061,-0.000489376,0.00530941,-0.00473007,0.00795799,-0.00313796,-1.06035,0.00660465,0.0124659,1574,1709,10.9035,-54.6061
357,-685,10.8656,54.0029,-0.000468512,0.00594024,-0.00541342,0.00902658,-0.00355485,-1.05263,0.00748938,0.00984272,1581,1709,10.8656,-54.0029
364,-685,10.8223,53.3918,-0.000502789,0.00631417,-0.00588866,0.00970966,-0.00389828,-1.04775,0.00809184,0.0104808,1588,1709,10.8222,-53.3918
371,-685,10.7888,52.7416,-0.000437424,0.00668495,-0.00637906,0.0104295,-0.00418202,-1.03998,0.00868924,0.0187778,1595,1709,10.7888,-52.7416
378,-685,10.7683,52.0673,-0.000243982,0.00698803,-0.00681385,0.0110859,-0.00434186,-1.02934,0.00918653,0.0231538,1602,1709,10.7683,-52.0673
385,-685,10.672,51.4209,0.000236115,0.00738404,-0.00741143,0.0120382,-0.00441807,-1.01006,0.00983473,0.034398,1609,1709,10.672,-51.4209
392,-685,10.7017,50.7324,0.00136407,0.00797715,-0.00858232,0.0138679,-0.00452664,-0.969272,0.0110671,0.0396142,1616,1709,10.7017,-50.7324
399,-685,10.7351,49.9934,0,0,0,0,0,0,0,-1,1623,1709,10.7352,-49.9934
406,-685,10.7268,49.2163,0,0,0,0,0,0,0,-1,1630,1709,10.7268,-49.2163
413,-685,10.9447,43.5477,0,0,0,0,0,0,0,-1,1637,1709,10.9447,-43.5477
420,-685,10.3047,40.3569,0,0,0,0,0,0,0,-1,1644,1709,10.3047,-40.3569
427,-685,10.7286,38.6702,0,0,0,0,0,0,0,-1,1651,1709,10.7286,-38.6702
434,-685,4.87769,8.91418,0,0,0,0,0,0,0,-1,1658,1709,4.87768,-8.91413
441,-685,5.62,8.75549,0,0,0,0,0,0,0,-1,1665,1709,5.61996,-8.75545
448,-685,6.4043,8.58972,0,0,0,0,0,0,0,-1,1672,1709,6.40435,-8.58971
455,-685,2.31958,4.09802,0,0,0,0,0,0,0,-1,1679,1709,2.31957,-4.09803
462,-685,0,0,0,0,0,0,0,0,0,-1,1686,1709,0,0
469,-685,0,0,0,0,0,0,0,0,0,-1,1693,1709,0,0
476,-685,0,0,0,0,0,0,0,0,0,-1,1700,1709,0,0
483,-685,0,0,0,0,0,0,0,0,0,-1,1707,1709,0,0
490,-685,0,0,0,0,0,0,0,0,0,-1,1714,1709,0,0
497,-685,0,0,0,0,0,0,0,0,0,-1,1721,1709,0,0
504,-685,0,0,0,0,0,0,0,0,0,-1,1728,1709,0,0
511,-685,0,0,0,0,0,0,0,0,0,-1,1735,1709,0,0
518,-685,0,0,0,0,0,0,0,0,0,-1,1742,1709,0,0
525,-685,0,0,0,0,0,0,0,0,0,-1,1749,1709,0,0
532,-685,0,0,0,0,0,0,0,0,0,-1,1756,1709,0,0
539,-685,0,0,0,0,0,0,0,0,0,-1,1763,1709,0,0
546,-685,0,0,0,0,0,0,0,0,0,-1,1770,1709,0,0
553,-685,0,0,0,0,0,0,0,0,0,-1,1777,1709,0,0
560,-685,0,0,0,0,0,0,0,0,0,-1,1784,1709,0,0
567,-685,0,0,0,0,0,0,0,0,0,-1,1791,1709,0,0
574,-685,0,0,0,0,0,0,0,0,0,-1,1798,1709,0,0
581,-685,0,0,0,0,0,0,0,0,0,-1,1805,1709,0,0
588,-685,0,0,0,0,0,0,0,0,0,-1,1812,1709,0,0
595,-685,0,0,0,0,0,0,0,0,0,-1,1819,1709,0,0
602,-685,0,0,0,0,0,0,0,0,0,-1,1826,1709,0,0
609,-685,0,0,0,0,0,0,0,0,0,-1,1833,1709,0,0
616,-685,0,0,0,0,0,0,0,0,0,-1,1840,1709,0,0
623,-685,0,0,0,0,0,0,0,0,0,-1,1847,1709,0,0
630,-685,0,0,0,0,0,0,0,0,0,-1,1854,1709,0,0
637,-685,0,0,0,0,0,0,0,0,0,-1,1861,1709,0,0
644,-685,0,0,0,0,0,0,0,0,0,-1,1868,1709,0,0
651,-685,0,0,0,0,0,0,0,0,0,-1,1875,1709,0,0
658,-685,0,0,0,0,0,0,0,0,0,-1,1882,1709,0,0
665,-685,0,0,0,0,0,0,0,0,0,-1,1889,1709,0,0
672,-685,0,0,0,0,0,0,0,0,0,-1,1896,1709,0,0
679,-685,0,0,0,0,0,0,0,0,0,-1,1903,1709,0,0
686,-685,0,0,0,0,0,0,0,0,0,-1,1910,1709,0,0
693,-685,0,0,0,0,0,0,0,0,0,-1,1917,1709,0,0
700,-685,0,0,0,0,0,0,0,0,0,-1,1924,1709,0,0
707,-685,0,0,0,0,0,0,0,0,0,-1,1931,1709,0,0
714,-685,0,0,0,0,0,0,0,0,0,-1,1938,1709,0,0
721,-685,0,0,0,0,0,0,0,0,0,-1,1945,1709,0,0
728,-685,0,0,0,0,0,0,0,0,0,-1,1952,1709,0,0
735,-685,0,0,0,0,0,0,0,0,0,-1,1959,1709,0,0
742,-685,0,0,0,0,0,0,0,0,0,-1,1966,1709,0,0
749,-685,0,0,0,0,0,0,0,0,0,-1,1973,1709,0,0
756,-685,0,0,0,0,0,0,0,0,0,-1,1980,1709,0,0
763,-685,0,0,0,0,0,0,0,0,0,-1,1987,1709,0,0
770,-685,0,0,0,0,0,0,0,0,0,-1,1994,1709,0,0
777,-685,0,0,0,0,0,0,0,0,0,-1,2001,1709,0,0
784,-685,0,0,0,0,0,0,0,0,0,-1,2008,1709,0,0
791,-685,0,0,0,0,0,0,0,0,0,-1,2015,1709,0,0
798,-685,0,0,0,0,0,0,0,0,0,-1,2022,1709,0,0
805,-685,0,0,0,0,0,0,0,0,0,-1,2029,1709,0,0
812,-685,0,0,0,0,0,0,0,0,0,-1,2036,1709,0,0
-700,-692,0,0,0,0,0,0,0,0,0,-1,524,1716,0,0
-693,-692,0,0,0,0,0,0,0,0,0,-1,531,1716,0,0
-686,-692,0,0,0,0,0,0,0,0,0,-1,538,1716,0,0
-679,-692,0,0,0,0,0,0,0,0,0,-1,545,1716,0,0
-672,-692,0,0,0,0,0,0,0,0,0,-1,552,1716,0,0
-665,-692,0,0,0,0,0,0,0,0,0,-1,559,1716,0,0
-658,-692,0,0,0,0,0,0,0,0,0,-1,566,1716,0,0
-651,-692,0,0,0,0,0,0,0,0,0,-1,573,1716,0,0
-644,-692,0,0,0,0,0,0,0,0,0,-1,580,1716,0,0
-637,-692,0,0,0,0,0,0,0,0,0,-1,587,1716,0,0
-630,-692,0,0,0,0,0,0,0,0,0,-1,594,1716,0,0
-623,-692,0,0,0,0,0,0,0,0,0,-1,601,1716,0,0
-616,-692,0,0,0,0,0,0,0,0,0,-1,608,1716,0,0
-609,-692,0,0,0,0,0,0,0,0,0,-1,615,1716,0,0
-602,-692,0,0,0,0,0,0,0,0,0,-1,622,1716,0,0
-595,-692,0,0,0,0,0,0,0,0,0,-1,629,1716,0,0
-588,-692,0,0,0,0,0,0,0,0,0,-1,636,1716,0,0
-581,-692,0,0,0,0,0,0,0,0,0,-1,643,1716,0,0
-574,-692,0,0,0,0,0,0,0,0,0,-1,650,1716,0,0
-567,-692,0,0,0,0,0,0,0,0,0,-1,657,1716,0,0
-560,-692,0,0,0,0,0,0,0,0,0,-1,664,1716,0,0
-553,-692,0,0,0,0,0,0,0,0,0,-1,671,1716,0,0
-546,-692,0,0,0,0,0,0,0,0,0,-1,678,1716,0,0
-539,-692,0,0,0,0,0,0,0,0,0,-1,685,1716,0,0
-532,-692,0,0,0,0,0,0,0,0,0,-1,692,1716,0,0
-525,-692,0,0,0,0,0,0,0,0,0,-1,699,1716,0,0
-518,-692,0,0,0,0,0,0,0,0,0,-1,706,1716,0,0
-511,-692,0,0,0,0,0,0,0,0,0,-1,713,1716,0,0
-504,-692,0,0,0,0,0,0,0,0,0,-1,720,1716,0,0
-497,-692,0,0,0,0,0,0,0,0,0,-1,727,1716,0,0
-490,-692,0,0,0,0,0,0,0,0,0,-1,734,1716,0,0
-483,-692,0,0,0,0,0,0,0,0,0,-1,741,1716,0,0
-476,-692,0,0,0,0,0,0,0,0,0,-1,748,1716,0,0
-469,-692,0,0,0,0,0,0,0,0,0,-1,755,1716,0,0
-462,-692,0,0,0,0,0,0,0,0,0,-1,762,1716,0,0
-455,-692,0,0,0,0,0,0,0,0,0,-1,769,1716,0,0
-448,-692,0,0,0,0,0,0,0,0,0,-1,776,1716,0,0
-441,-692,0,0,0,0,0,0,0,0,0,-1,783,1716,0,0
-434,-692,0,0,0,0,0,0,0,0,0,-1,790,1716,0,0
-427,-692,0,0,0,0,0,0,0,0,0,-1,797,1716,0,0
-420,-692,0,0,0,0,0,0,0,0,0,-1,804,1716,0,0
-413,-692,0,0,0,0,0,0,0,0,0,-1,811,1716,0,0
-406,-692,0,0,0,0,0,0,0,0,0,-1,818,1716,0,0
-399,-692,0,0,0,0,0,0,0,0,0,-1,825,1716,0,0
-392,-692,0,0,0,0,0,0,0,0,0,-1,832,1716,0,0
-385,-692,0,0,0,0,0,0,0,0,0,-1,839,1716,0,0
-378,-692,0,0,0,0,0,0,0,0,0,-1,846,1716,0,0
-371,-692,0,0,0,0,0,0,0,0,0,-1,853,1716,0,0
-364,-692,0,0,0,0,0,0,0,0,0,-1,860,1716,0,0
-357,-692,0,0,0,0,0,0,0,0,0,-1,867,1716,0,0
-350,-692,0,0,0,0,0,0,0,0,0,-1,874,1716,0,0
-343,-692,0,0,0,0,0,0,0,0,0,-1,881,1716,0,0
-336,-692,0,0,0,0,0,0,0,0,0,-1,888,1716,0,0
-329,-692,3.03107,4.10266,0,0,0,0,0,0,0,-1,895,1716,3.03105,-4.10267
-322,-692,4.43713,18.5242,0,0,0,0,0,0,0,-1,902,1716,4.43711,-18.5241
-315,-692,5.38965,17.975,0,0,0,0,0,0,0,-1,909,1716,5.38963,-17.975
-308,-692,5.86938,17.4392,0,0,0,0,0,0,0,-1,916,1716,5.86937,-17.4392
-301,-692,12.015,41.2892,0,0,0,0,0,0,0,-1,923,1716,12.015,-41.2892
-294,-692,8.41125,35.4742,0,0,0,0,0,0,0,-1,930,1716,8.41125,-35.4742
-287,-692,8.92493,45.6644,0,0,0,0,0,0,0,-1,937,1716,8.92492,-45.6644
-280,-692,7.70099,48.0779,0,0,0,0,0,0,0,-1,944,1716,7.70101,-48.0779
-273,-692,9.55292,48.0288,0,0,0,0,0,0,0,-1,951,1716,9.55291,-48.0288
-266,-692,8.42761,50.1807,0,0,0,0,0,0,0,-1,958,1716,8.4276,-50.1807
-259,-692,7.95874,51.0354,0,0,0,0,0,0,0,-1,965,1716,7.95876,-51.0354
-252,-692,7.73242,51.8785,0,0,0,0,0,0,0,-1,972,1716,7.7324,-51.8785
-245,-692,7.82703,52.7823,0,0,0,0,0,0,0,-1,979,1716,7.82702,-52.7824
-238,-692,7.75763,53.6747,-0.0104567,0.0121343,0.00376832,0.0127463,-0.0110687,1.4098,0.013761,0.0499997,986,1716,7.75762,-53.6746
-231,-692,7.67859,54.3933,-0.00865386,0.0116886,0.00433298,0.012573,-0.00953834,1.36944,0.012806,0.0417396,993,1716,7.67861,-54.3933
-224,-692,7.41394,55.0098,-0.00715312,0.0108341,0.00416381,0.0117512,-0.00807022,1.354,0.0115095,0.0211925,1000,1716,7.41396,-55.0098
-217,-692,7.35474,55.6178,-0.00601645,0.00970492,0.00387537,0.0106083,-0.00691983,1.34178,0.0101943,0.0145225,1007,1716,7.35476,-55.6178
-210,-692,7.33972,56.2194,-0.00498433,0.00861773,0.00372737,0.00957217,-0.00593877,1.32012,0.00903677,0.0143632,1014,1716,7.33971,-56.2194
-203,-692,7.33105,56.8051,-0.00397875,0.00706433,0.0035629,0.00811407,-0.00502849,1.28427,0.00765725,0.0171022,1021,1716,7.33109,-56.805
-196,-692,7.2677,57.4421,-0.00301096,0.00575668,0.00317832,0.00678762,-0.0040419,1.25714,0.00631906,0.0188232,1028,1716,7.26771,-57.4421
-189,-692,7.18787,57.9701,-0.00211422,0.00479791,0.00279452,0.00578637,-0.00310268,1.23082,0.00520947,0.00962149,1035,1716,7.18791,-57.9701
-182,-692,7.15857,58.551,-0.00137429,0.00399589,0.0024197,0.0049253,-0.0023037,1.20407,0.00426417,0.014101,1042,1716,7.15857,-58.5511
-175,-692,7.13049,59.1414,-0.000424472,0.00333667,0.00220919,0.00435732,-0.00144512,1.13801,0.00348785,0.015161,1049,1716,7.13047,-59.1413
-168,-692,7.13794,59.6804,8.42007e-05,0.00286393,0.00179549,0.00374464,-0.000796508,1.11477,0.00279995,0.0121807,1056,1716,7.13789,-59.6804
-161,-692,7.12524,60.2211,0.000261683,0.00238461,0.00145134,0.00312123,-0.00047493,1.10113,0.00225585,0.0142585,1063,1716,7.12521,-60.2211
-154,-692,7.09229,60.7721,0.000523846,0.0022029,0.00120495,0.00283195,-0.000105198,1.08966,0.00192399,0.0146155,1070,1716,7.09229,-60.7721
-147,-692,7.05884,61.2533,0.000930547,0.00239978,0.00106656,0.00296023,0.00037009,1.08697,0.00186242,0.0154207,1077,1716,7.05888,-61.2533
-140,-692,7.0376,61.7324,0.00147999,0.00252419,0.00098576,0.00311757,0.0008866,1.02894,0.00185488,0.0117559,1084,1716,7.03757,-61.7324
-133,-692,7.03748,62.2014,0.00192196,0.00263088,0.000883241,0.00322814,0.00132471,0.97622,0.00187372,0.0100193,1091,1716,7.03752,-62.2015
-126,-692,7.05212,62.6832,0.00232387,0.00264896,0.000741448,0.00324547,0.00172736,0.893305,0.00187507,0.0082948,1098,1716,7.05207,-62.6833
-119,-692,7.03088,63.1417,0.00284054,0.00260823,0.000604295,0.00333974,0.00210903,0.690446,0.0019503,0.0131839,1105,1716,7.03086,-63.1417
-112,-692,7.05212,63.5789,0.00340921,0.00242664,0.000391402,0.00354606,0.00228978,0.33636,0.0020761,0.0132983,1112,1716,7.05212,-63.5788
-105,-692,7.08325,64.0078,0.00388251,0.00203703,7.96981e-05,0.00388594,0.00203359,0.0430786,0.00224436,0.0174794,1119,1716,7.08328,-64.0078
-98,-692,7.14246,64.3768,0.00425599,0.0016137,-0.000247164,0.00427891,0.00159078,-0.0924725,0.00249736,0.0205554,1126,1716,7.14251,-64.3769
-91,-692,7.12219,64.7732,0.00484321,0.00119515,-0.000832379,0.00502416,0.0010142,-0.214057,0.00306777,0.0209378,1133,1716,7.12216,-64.7732
-84,-692,7.18176,65.1678,0.00595272,0.000516574,-0.00148179,0.00633038,0.000138906,-0.24956,0.00417473,0.0246928,1140,1716,7.18178,-65.1678
-77,-692,7.19116,65.5787,0.00692294,-0.000216998,-0.00179581,0.00734917,-0.000643228,-0.233035,0.00512732,0.0205765,1147,1716,7.19117,-65.5788
-70,-692,7.25818,65.9916,0.00729523,-0.000947195,-0.00231531,0.00790108,-0.00155304,-0.25593,0.00585414,0.0365831,1154,1716,7.25819,-65.9916
-63,-692,7.34546,66.3788,0,0,0,0,0,0,0,-1,1161,1716,7.34542,-66.3787
-56,-692,7.33813,66.5106,0,0,0,0,0,0,0,-1,1168,1716,7.33816,-66.5106
-49,-692,7.34167,66.9049,0,0,0,0,0,0,0,-1,1175,1716,7.34165,-66.9049
-42,-692,7.31689,67.4218,0,0,0,0,0,0,0,-1,1182,1716,7.31694,-67.4217
-35,-692,7.56873,67.7039,0,0,0,0,0,0,0,-1,1189,1716,7.56871,-67.7039
-28,-692,7.7749,67.7695,0,0,0,0,0,0,0,-1,1196,1716,7.7749,-67.7695
-21,-692,7.75562,67.7227,0.0375919,0.0171818,-0.00891469,0.0409373,0.0138364,-0.359006,0.0240452,0.0383875,1203,1716,7.75568,-67.7227
-14,-692,7.85217,67.8717,0.0397963,0.0167623,-0.0093457,0.0431111,0.0134474,-0.340848,0.0254704,0.0204981,1210,1716,7.85212,-67.8716
-7,-692,7.83386,68.0905,0.0410635,0.0167275,-0.00964508,0.0444225,0.0133685,-0.335125,0.0263161,0.0184155,1217,1716,7.83388,-68.0905
0,-692,7.87244,68.256,0.0419126,0.0171943,-0.00947573,0.0451271,0.0139798,-0.327051,0.0266752,0.0247694,1224,1716,7.87241,-68.256
7,-692,8.04541,68.3124,0.0424578,0.018212,-0.00935151,0.0456456,0.0150243,-0.328526,0.0268614,0.0340185,1231,1716,8.04538,-68.3124
14,-692,8.24268,68.6312,0.0424395,0.0199712,-0.00914962,0.045694,0.0167167,-0.341744,0.0266961,0.0366114,1238,1716,8.24263,-68.6312
21,-692,8.39136,68.7759,0.0420144,0.0229006,-0.00903599,0.0456099,0.0193052,-0.378694,0.026436,0.0347768,1245,1716,8.39137,-68.7759
28,-692,8.46338,68.7455,0.0414883,0.0264104,-0.00892706,0.0456339,0.0222648,-0.43475,0.0263493,0.0383568,1252,1716,8.46335,-68.7454
35,-692,8.54663,68.8276,0.0407842,0.0314576,-0.00911007,0.0463551,0.0258866,-0.548844,0.026824,0.0357627,1259,1716,8.54668,-68.8277
42,-692,8.65991,68.9889,0.0401051,0.0368217,-0.00903957,0.0476508,0.0292759,-0.695571,0.0277501,0.0312892,1266,1716,8.65992,-68.9889
49,-692,8.75757,69.0653,0.0386168,0.0403782,-0.00894532,0.0484861,0.0305089,-0.834468,0.0283034,0.0417169,1273,1716,8.75755,-69.0653
56,-692,8.86853,69.1382,0,0,0,0,0,0,0,-1,1280,1716,8.86852,-69.1382
63,-692,8.85791,68.9791,0,0,0,0,0,0,0,-1,1287,1716,8.85786,-68.9791
70,-692,8.92163,69.0902,0,0,0,0,0,0,0,-1,1294,1716,8.92162,-69.0902
77,-692,9.05005,68.9852,0,0,0,0,0,0,0,-1,1301,1716,9.05003,-68.9852
84,-692,9.10999,68.8688,0,0,0,0,0,0,0,-1,1308,1716,9.10997,-68.8688
91,-692,9.68652,68.2736,0,0,0,0,0,0,0,-1,1315,1716,9.68654,-68.2736
98,-692,9.41357,68.3192,0.0251094,0.0367873,0.000554443,0.0368136,0.0250832,1.52346,0.0217154,0.0397247,1322,1716,9.41352,-68.3192
105,-692,9.4292,68.2388,0.0232396,0.0324743,0.00253005,0.0331221,0.0225918,1.32017,0.0195411,0.0496458,1329,1716,9.42922,-68.2387
112,-692,9.72852,68.3412,0,0,0,0,0,0,0,-1,1336,1716,9.72854,-68.3412
119,-692,9.67444,68.1453,0.0203113,0.0246365,0.00663904,0.0294563,0.0154915,0.94285,0.0170142,0.0431542,1343,1716,9.67442,-68.1452
126,-692,9.82397,67.9594,0.0193513,0.0215897,0.00844054,0.0289849,0.0119561,0.851312,0.0168197,0.0430312,1350,1716,9.82403,-67.9593
133,-692,9.95093,67.8247,0.0183775,0.0192765,0.00981182,0.0286491,0.00900488,0.808287,0.0169165,0.032933,1357,1716,9.95099,-67.8247
140,-692,9.88574,67.7739,0.0172425,0.0161125,0.0110076,0.0276996,0.00565544,0.759756,0.0168997,0.0358803,1364,1716,9.88579,-67.7739
147,-692,9.82227,67.7778,0,0,0,0,0,0,0,-1,1371,1716,9.82223,-67.7779
154,-692,9.92883,56.0276,0,0,0,0,0,0,0,-1,1378,1716,9.92887,-56.0276
161,-692,9.91992,66.9857,0,0,0,0,0,0,0,-1,1385,1716,9.91994,-66.9857
168,-692,10.2838,66.9344,0,0,0,0,0,0,0,-1,1392,1716,10.2838,-66.9345
175,-692,10.4407,66.6487,0,0,0,0,0,0,0,-1,1399,1716,10.4407,-66.6486
182,-692,10.4127,66.3197,0,0,0,0,0,0,0,-1,1406,1716,10.4127,-66.3198
189,-692,10.3566,65.9939,0,0,0,0,0,0,0,-1,1413,1716,10.3565,-65.9939
196,-692,10.2529,65.5564,0.0089584,-0.000706302,0.00123081,0.00911269,-0.000860584,0.124699,0.00638136,0.0397536,1420,1716,10.2529,-65.5564
203,-692,10.3206,65.1875,0.0081903,-0.000532712,0.000994817,0.00830232,-0.000644728,0.112127,0.00576182,0.0286196,1427,1716,10.3206,-65.1875
210,-692,10.5703,64.889,0.00743006,-0.000326076,0.000698264,0.00749242,-0.000388437,0.089073,0.00512933,0.021638,1434,1716,10.5703,-64.889
217,-692,10.5739,64.4875,0.00660871,-0.000326289,0.000499885,0.00664456,-0.000362137,0.0715883,0.00455522,0.0189151,1441,1716,10.5739,-64.4875
224,-692,10.5713,64.0767,0.00579582,-0.000213188,0.000300038,0.00581077,-0.000228132,0.0497663,0.00395208,0.015148,1448,1716,10.5713,-64.0767
231,-692,10.5942,63.662,0.00496145,-8.61482e-05,-0.000105874,0.00496367,-8.83681e-05,-0.0209628,0.00333896,0.0136771,1455,1716,10.5942,-63.662
238,-692,10.6298,63.1895,0.00428747,2.93202e-06,-0.000497445,0.00434446,-5.40644e-05,-0.114081,0.0029145,0.0195351,1462,1716,10.6297,-63.1894
245,-692,10.5977,62.7261,0.00366991,0.000257516,-0.000572122,0.00376328,0.000164148,-0.161769,0.00245596,0.0209919,1469,1716,10.5977,-62.7261
252,-692,10.6232,62.2888,0.00310941,0.000520155,-0.000622507,0.00325129,0.000378267,-0.224101,0.00205309,0.0186536,1476,1716,10.6231,-62.2889
259,-692,10.634,61.8359,0.00249403,0.000754716,-0.000756013,0.0027767,0.000472046,-0.357803,0.00171557,0.00989136,1483,1716,10.6341,-61.836
266,-692,10.6304,61.333,0.00196595,0.000904446,-0.000978459,0.00254834,0.000322058,-0.536889,0.00160237,0.0105436,1490,1716,10.6304,-61.3331
273,-692,10.6266,60.8197,0.00151264,0.00107857,-0.00110587,0.00242257,0.000168635,-0.688502,0.00156187,0.0161279,1497,1716,10.6265,-60.8197
280,-692,10.6121,60.2939,0.000976781,0.00124751,-0.00121982,0.00233945,-0.000115161,-0.840657,0.0015994,0.0156454,1504,1716,10.612,-60.2939
287,-692,10.5973,59.7943,0.000476464,0.00138415,-0.00132871,0.00233439,-0.000473772,-0.94997,0.00173587,0.0117431,1511,1716,10.5973,-59.7944
294,-692,10.5703,59.2787,9.89343e-06,0.00162642,-0.00139147,0.00242734,-0.000791032,-1.04851,0.00193653,0.0107769,1518,1716,10.5703,-59.2786
301,-692,10.5487,58.7321,-0.000390818,0.00190322,-0.00156932,0.00270002,-0.00118762,-1.10098,0.00230045,0.0143925,1525,1716,10.5486,-58.7321
308,-692,10.5333,58.2092,-0.000689125,0.00235507,-0.00206073,0.00339489,-0.00172894,-1.10349,0.00300991,0.0180732,1532,1716,10.5333,-58.2092
315,-692,10.551,57.6434,-0.000857332,0.00311881,-0.00279005,0.00455664,-0.00229517,-1.09495,0.00402708,0.0168837,1539,1716,10.5511,-57.6435
322,-692,10.4703,57.0187,-0.00106195,0.00378463,-0.00338638,0.00552546,-0.00280278,-1.09596,0.00489321,0.0220153,1546,1716,10.4704,-57.0186
329,-692,10.3905,56.4122,-0.00130123,0.00451964,-0.00396239,0.00652562,-0.00330722,-1.10216,0.00577747,0.0188585,1553,1716,10.3905,-56.4122
336,-692,10.3696,55.7947,-0.0013237,0.00538949,-0.0047212,0.00782569,-0.00375989,-1.09442,0.00682485,0.0126669,1560,1716,10.3696,-55.7947
343,-692,10.3687,55.218,-0.00122051,0.00632175,-0.00556084,0.00926958,-0.00416834,-1.08336,0.00794254,0.0131034,1567,1716,10.3687,-55.218
350,-692,10.3235,54.6635,-0.00110765,0.00734141,-0.00642362,0.0108052,-0.00457139,-1.07627,0.0091176,0.0153293,1574,1716,10.3235,-54.6635
357,-692,10.2587,53.9808,-0.000882183,0.00830018,-0.00735554,0.0123798,-0.00496181,-1.0644,0.010313,0.022984,1581,1716,10.2586,-53.9808
364,-692,10.2184,53.2468,-0.000758581,0.00901844,-0.00803458,0.0135348,-0.00527496,-1.0587,0.0112034,0.030201,1588,1716,10.2184,-53.2468
371,-692,10.2217,52.6461,-0.000553491,0.00968386,-0.00869651,0.0146563,-0.0055259,-1.05139,0.0120431,0.0401012,1595,1716,10.2217,-52.6461
378,-692,10.0326,52.0844,-0.000229966,0.0101929,-0.00925593,0.0156037,-0.00564075,-1.0418,0.0127071,0.0478165,1602,1716,10.0325,-52.0844
385,-692,10.0126,51.4535,0,0,0,0,0,0,0,-1,1609,1716,10.0126,-51.4535
392,-692,10.0582,50.7233,0,0,0,0,0,0,0,-1,1616,1716,10.0582,-50.7233
399,-692,10.6187,48.0621,0,0,0,0,0,0,0,-1,1623,1716,10.6187,-48.0621
406,-692,11.3221,42.7773,0,0,0,0,0,0,0,-1,1630,1716,11.3222,-42.7773
413,-692,11.4845,42.9004,0,0,0,0,0,0,0,-1,1637,1716,11.4845,-42.9004
420,-692,9.65894,40.2512,0,0,0,0,0,0,0,-1,1644,1716,9.65889,-40.2513
427,-692,3.79578,8.60339,0,0,0,0,0,0,0,-1,1651,1716,3.79577,-8.6034
434,-692,4.78516,8.64636,0,0,0,0,0,0,0,-1,1658,1716,4.78512,-8.64634
441,-692,5.8208,8.74036,0,0,0,0,0,0,0,-1,1665,1716,5.82084,-8.7404
448,-692,6.73792,8.51013,0,0,0,0,0,0,0,-1,1672,1716,6.73793,-8.5101
455,-692,0,0,0,0,0,0,0,0,0,-1,1679,1716,0,0
462,-692,0,0,0,0,0,0,0,0,0,-1,1686,1716,0,0
469,-692,0,0,0,0,0,0,0,0,0,-1,1693,1716,0,0
476,-692,0,0,0,0,0,0,0,0,0,-1,1700,1716,0,0
483,-692,0,0,0,0,0,0,0,0,0,-1,1707,1716,0,0
490,-692,0,0,0,0,0,0,0,0,0,-1,1714,1716,0,0
497,-692,0,0,0,0,0,0,0,0,0,-1,1721,1716,0,0
504,-692,0,0,0,0,0,0,0,0,0,-1,1728,1716,0,0
511,-692,0,0,0,0,0,0,0,0,0,-1,1735,1716,0,0
518,-692,0,0,0,0,0,0,0,0,0,-1,1742,1716,0,0
525,-692,0,0,0,0,0,0,0,0,0,-1,1749,1716,0,0
532,-692,0,0,0,0,0,0,0,0,0,-1,1756,1716,0,0
539,-692,0,0,0,0,0,0,0,0,0,-1,1763,1716,0,0
546,-692,0,0,0,0,0,0,0,0,0,-1,1770,1716,0,0
553,-692,0,0,0,0,0,0,0,0,0,-1,1777,1716,0,0
560,-692,0,0,0,0,0,0,0,0,0,-1,1784,1716,0,0
567,-692,0,0,0,0,0,0,0,0,0,-1,1791,1716,0,0
574,-692,0,0,0,0,0,0,0,0,0,-1,1798,1716,0,0
581,-692,0,0,0,0,0,0,0,0,0,-1,1805,1716,0,0
588,-692,0,0,0,0,0,0,0,0,0,-1,1812,1716,0,0
595,-692,0,0,0,0,0,0,0,0,0,-1,1819,1716,0,0
602,-692,0,0,0,0,0,0,0,0,0,-1,1826,1716,0,0
609,-692,0,0,0,0,0,0,0,0,0,-1,1833,1716,0,0
616,-692,0,0,0,0,0,0,0,0,0,-1,1840,1716,0,0
623,-692,0,0,0,0,0,0,0,0,0,-1,1847,1716,0,0
630,-692,0,0,0,0,0,0,0,0,0,-1,1854,1716,0,0
637,-692,0,0,0,0,0,0,0,0,0,-1,1861,1716,0,0
644,-692,0,0,0,0,0,0,0,0,0,-1,1868,1716,0,0
651,-692,0,0,0,0,0,0,0,0,0,-1,1875,1716,0,0
658,-692,0,0,0,0,0,0,0,0,0,-1,1882,1716,0,0
665,-692,0,0,0,0,0,0,0,0,0,-1,1889,1716,0,0
672,-692,0,0,0,0,0,0,0,0,0,-1,1896,1716,0,0
679,-692,0,0,0,0,0,0,0,0,0,-1,1903,1716,0,0
686,-692,0,0,0,0,0,0,0,0,0,-1,1910,1716,0,0
693,-692,0,0,0,0,0,0,0,0,0,-1,1917,1716,0,0
700,-692,0,0,0,0,0,0,0,0,0,-1,1924,1716,0,0
707,-692,0,0,0,0,0,0,0,0,0,-1,1931,1716,0,0
714,-692,0,0,0,0,0,0,0,0,0,-1,1938,1716,0,0
721,-692,0,0,0,0,0,0,0,0,0,-1,1945,1716,0,0
728,-692,0,0,0,0,0,0,0,0,0,-1,1952,1716,0,0
735,-692,0,0,0,0,0,0,0,0,0,-1,1959,1716,0,0
742,-692,0,0,0,0,0,0,0,0,0,-1,1966,1716,0,0
749,-692,0,0,0,0,0,0,0,0,0,-1,1973,1716,0,0
756,-692,0,0,0,0,0,0,0,0,0,-1,1980,1716,0,0
763,-692,0,0,0,0,0,0,0,0,0,-1,1987,1716,0,0
770,-692,0,0,0,0,0,0,0,0,0,-1,1994,1716,0,0
777,-692,0,0,0,0,0,0,0,0,0,-1,2001,1716,0,0
784,-692,0,0,0,0,0,0,0,0,0,-1,2008,1716,0,0
791,-692,0,0,0,0,0,0,0,0,0,-1,2015,1716,0,0
798,-692,0,0,0,0,0,0,0,0,0,-1,2022,1716,0,0
805,-692,0,0,0,0,0,0,0,0,0,-1,2029,1716,0,0
812,-692,0,0,0,0,0,0,0,0,0,-1,2036,1716,0,0
-700,-699,0,0,0,0,0,0,0,0,0,-1,524,1723,0,0
-693,-699,0,0,0,0,0,0,0,0,0,-1,531,1723,0,0
-686,-699,0,0,0,0,0,0,0,0,0,-1,538,1723,0,0
-679,-699,0,0,0,0,0,0,0,0,0,-1,545,1723,0,0
-672,-699,0,0,0,0,0,0,0,0,0,-1,552,1723,0,0
-665,-699,0,0,0,0,0,0,0,0,0,-1,559,1723,0,0
-658,-699,0,0,0,0,0,0,0,0,0,-1,566,1723,0,0
-651,-699,0,0,0,0,0,0,0,0,0,-1,573,1723,0,0
-644,-699,0,0,0,0,0,0,0,0,0,-1,580,1723,0,0
-637,-699,0,0,0,0,0,0,0,0,0,-1,587,1723,0,0
-630,-699,0,0,0,0,0,0,0,0,0,-1,594,1723,0,0
-623,-699,0,0,0,0,0,0,0,0,0,-1,601,1723,0,0
-616,-699,0,0,0,0,0,0,0,0,0,-1,608,1723,0,0
-609,-699,0,0,0,0,0,0,0,0,0,-1,615,1723,0,0
-602,-699,0,0,0,0,0,0,0,0,0,-1,622,1723,0,0
-595,-699,0,0,0,0,0,0,0,0,0,-1,629,1723,0,0
-588,-699,0,0,0,0,0,0,0,0,0,-1,636,1723,0,0
-581,-699,0,0,0,0,0,0,0,0,0,-1,643,1723,0,0
-574,-699,0,0,0,0,0,0,0,0,0,-1,650,1723,0,0
-567,-699,0,0,0,0,0,0,0,0,0,-1,657,1723,0,0
-560,-699,0,0,0,0,0,0,0,0,0,-1,664,1723,0,0
-553,-699,0,0,0,0,0,0,0,0,0,-1,671,1723,0,0
-546,-699,0,0,0,0,0,0,0,0,0,-1,678,1723,0,0
-539,-699,0,0,0,0,0,0,0,0,0,-1,685,1723,0,0
-532,-699,0,0,0,0,0,0,0,0,0,-1,692,1723,0,0
-525,-699,0,0,0,0,0,0,0,0,0,-1,699,1723,0,0
-518,-699,0,0,0,0,0,0,0,0,0,-1,706,1723,0,0
-511,-699,0,0,0,0,0,0,0,0,0,-1,713,1723,0,0
-504,-699,0,0,0,0,0,0,0,0,0,-1,720,1723,0,0
-497,-699,0,0,0,0,0,0,0,0,0,-1,727,1723,0,0
-490,-699,0,0,0,0,0,0,0,0,0,-1,734,1723,0,0
-483,-699,0,0,0,0,0,0,0,0,0,-1,741,1723,0,0
-476,-699,0,0,0,0,0,0,0,0,0,-1,748,1723,0,0
-469,-699,0,0,0,0,0,0,0,0,0,-1,755,1723,0,0
-462,-699,0,0,0,0,0,0,0,0,0,-1,762,1723,0,0
-455,-699,0,0,0,0,0,0,0,0,0,-1,769,1723,0,0
-448,-699,0,0,0,0,0,0,0,0,0,-1,776,1723,0,0
-441,-699,0,0,0,0,0,0,0,0,0,-1,783,1723,0,0
-434,-699,0,0,0,0,0,0,0,0,0,-1,790,1723,0,0
-427,-699,0,0,0,0,0,0,0,0,0,-1,797,1723,0,0
-420,-699,0,0,0,0,0,0,0,0,0,-1,804,1723,0,0
-413,-699,0,0,0,0,0,0,0,0,0,-1,811,1723,0,0
-406,-699,0,0,0,0,0,0,0,0,0,-1,818,1723,0,0
-399,-699,0,0,0,0,0,0,0,0,0,-1,825,1723,0,0
-392,-699,0,0,0,0,0,0,0,0,0,-1,832,1723,0,0
-385,-699,0,0,0,0,0,0,0,0,0,-1,839,1723,0,0
-378,-699,0,0,0,0,0,0,0,0,0,-1,846,1723,0,0
-371,-699,0,0,0,0,0,0,0,0,0,-1,853,1723,0,0
-364,-699,0,0,0,0,0,0,0,0,0,-1,860,1723,0,0
-357,-699,0,0,0,0,0,0,0,0,0,-1,867,1723,0,0
-350,-699,0,0,0,0,0,0,0,0,0,-1,874,1723,0,0
-343,-699,0,0,0,0,0,0,0,0,0,-1,881,1723,0,0
-336,-699,0,0,0,0,0,0,0,0,0,-1,888,1723,0,0
-329,-699,0,0,0,0,0,0,0,0,0,-1,895,1723,0,0
-322,-699,0,0,0,0,0,0,0,0,0,-1,902,1723,0,0
-315,-699,6.20001,19.5193,0,0,0,0,0,0,0,-1,909,1723,6.20001,-19.5193
-308,-699,6.98151,18.9218,0,0,0,0,0,0,0,-1,916,1723,6.98151,-18.9217
-301,-699,4.72729,12.8752,0,0,0,0,0,0,0,-1,923,1723,4.72732,-12.8752
-294,-699,6.90332,19.8601,0,0,0,0,0,0,0,-1,930,1723,6.90332,-19.8601
-287,-699,9.0968,36.3315,0,0,0,0,0,0,0,-1,937,1723,9.09678,-36.3315
-280,-699,9.53729,45.2391,0,0,0,0,0,0,0,-1,944,1723,9.53728,-45.2391
-273,-699,8.216,48.0923,0,0,0,0,0,0,0,-1,951,1723,8.21601,-48.0923
-266,-699,6.81915,20.8951,0,0,0,0,0,0,0,-1,958,1723,6.81914,-20.8952
-259,-699,5.39758,14.5466,0,0,0,0,0,0,0,-1,965,1723,5.39759,-14.5466
-252,-699,8.3866,31.6284,0,0,0,0,0,0,0,-1,972,1723,8.38657,-31.6284
-245,-699,7.94281,50.88,0,0,0,0,0,0,0,-1,979,1723,7.9428,-50.88
-238,-699,8.50092,53.7584,0,0,0,0,0,0,0,-1,986,1723,8.50093,-53.7584
-231,-699,8.69067,54.3591,-0.0117991,0.0164631,0.005472,0.0174855,-0.0128216,1.38607,0.0175667,0.0463886,993,1723,8.69066,-54.3591
-224,-699,7.92029,55.0029,-0.00969202,0.0150229,0.00533664,0.016126,-0.0107951,1.36696,0.0156442,0.0408691,1000,1723,7.92027,-55.003
-217,-699,7.86908,55.543,-0.00805356,0.0133309,0.00503954,0.0144591,-0.00918168,1.35057,0.0137619,0.0282844,1007,1723,7.86907,-55.543
-210,-699,7.87872,56.1307,-0.00665949,0.01174,0.00490723,0.012967,-0.00788646,1.32579,0.0121583,0.0200904,1014,1723,7.87872,-56.1307
-203,-699,7.92249,56.7861,-0.00539974,0.00968843,0.00471314,0.0110397,-0.00675098,1.29159,0.0103704,0.0247089,1021,1723,7.92251,-56.7861
-196,-699,7.85156,57.4652,-0.00423768,0.00792129,0.00422033,0.00924257,-0.00555896,1.26739,0.00863343,0.0198582,1028,1723,7.85157,-57.4652
-189,-699,7.75977,58.0216,-0.00315901,0.00657635,0.00372917,0.00784064,-0.0044233,1.24393,0.00717163,0.00979925,1035,1723,7.75981,-58.0216
-182,-699,7.69775,58.5822,-0.00231455,0.00540814,0.00325697,0.00659832,-0.00350472,1.22045,0.00592344,0.0135758,1042,1723,7.69779,-58.5821
-175,-699,7.69312,59.1764,-0.00127109,0.00440948,0.00295966,0.00567124,-0.00253285,1.16781,0.00485078,0.01587,1049,1723,7.69312,-59.1764
-168,-699,7.69202,59.7164,-0.000738618,0.00367192,0.00243868,0.00475456,-0.00182126,1.15299,0.00392044,0.0163401,1056,1723,7.69199,-59.7164
-161,-699,7.6438,60.2367,-0.000609288,0.00288516,0.00199797,0.00379212,-0.00151625,1.14467,0.00315728,0.0134244,1063,1723,7.64377,-60.2367
-154,-699,7.5874,60.7682,-0.00039634,0.00243182,0.00168179,0.00321502,-0.00117954,1.13497,0.00262636,0.0130849,1070,1723,7.5874,-60.7681
-147,-699,7.54968,61.2531,-3.10305e-05,0.00245016,0.00150639,0.00316105,-0.000741916,1.12987,0.00239331,0.0166486,1077,1723,7.54969,-61.2531
-140,-699,7.5177,61.7355,0.00055829,0.00245891,0.00142617,0.00322238,-0.000205184,1.07929,0.00221981,0.0113921,1084,1723,7.51773,-61.7354
-133,-699,7.51343,62.2454,0.00100206,0.00243003,0.00130727,0.00320558,0.000226503,1.03535,0.0020657,0.00964375,1091,1723,7.5134,-62.2454
-126,-699,7.52856,62.7111,0.00131682,0.00232536,0.00116053,0.00308644,0.000555737,0.990349,0.00189967,0.0125393,1098,1723,7.52851,-62.7111
-119,-699,7.51672,63.1619,0.00169172,0.00223374,0.00107359,0.00307,0.000855456,0.909031,0.00182944,0.0190009,1105,1723,7.51669,-63.1619
-112,-699,7.49365,63.5947,0.00216744,0.00208295,0.000952508,0.00307864,0.00117175,0.763235,0.00179427,0.0132156,1112,1723,7.49364,-63.5947
-105,-699,7.50244,64.0216,0.00260843,0.00175283,0.000675723,0.00298039,0.00138087,0.503197,0.00172227,0.0135438,1119,1723,7.50243,-64.0216
-98,-699,7.55933,64.4314,0.00296632,0.00139928,0.000375754,0.00305176,0.00131384,0.223586,0.0017676,0.0162856,1126,1723,7.55927,-64.4314
-91,-699,7.56702,64.8142,0.00344049,0.00110301,-5.68706e-05,0.00344187,0.00110163,-0.0243107,0.00202961,0.0225637,1133,1723,7.56699,-64.8142
-84,-699,7.5686,65.2201,0.00418974,0.000709914,-0.000535546,0.0042703,0.000629358,-0.149299,0.002662,0.0282374,1140,1723,7.5686,-65.22
-77,-699,7.58472,65.569,0.00485903,0.000336931,-0.000840211,0.00501009,0.000185865,-0.177894,0.00327986,0.0186461,1147,1723,7.58474,-65.5689
-70,-699,7.61426,65.9288,0.00525652,-8.48345e-05,-0.00122351,0.00552344,-0.000351755,-0.214795,0.00380497,0.0182697,1154,1723,7.61424,-65.9288
-63,-699,7.65295,66.285,0.00747248,0.00230965,-0.0019462,0.00812393,0.0016582,-0.323006,0.00495655,0.0155401,1161,1723,7.653,-66.285
-56,-699,7.64014,66.5664,0.0102629,0.00454523,-0.00227208,0.0110558,0.00375232,-0.335766,0.00649193,0.0119787,1168,1723,7.64019,-66.5664
-49,-699,7.65784,66.8915,0.0134882,0.00580079,-0.00258765,0.0142781,0.00501092,-0.296262,0.00836464,0.0264217,1175,1723,7.65781,-66.8914
-42,-699,7.66736,67.2692,0.0171968,0.00672547,-0.00315969,0.0180764,0.00584592,-0.271492,0.0106512,0.0291267,1182,1723,7.66736,-67.2691
-35,-699,7.78552,67.5333,0.0196232,0.00762651,-0.00349562,0.0205674,0.00668227,-0.263825,0.0121149,0.0264864,1189,1723,7.78557,-67.5333
-28,-699,7.91907,67.6893,0.0225128,0.0081501,-0.00406094,0.0235815,0.00708142,-0.257326,0.0139721,0.0223998,1196,1723,7.91909,-67.6893
-21,-699,7.94568,67.7941,0.0251731,0.00846343,-0.00457425,0.0263433,0.00729319,-0.25046,0.0157061,0.016085,1203,1723,7.94573,-67.7941
-14,-699,7.98523,68.0208,0.0271163,0.00812366,-0.00479534,0.0282584,0.00698159,-0.233807,0.0169966,0.0141135,1210,1723,7.98524,-68.0208
-7,-699,8.03064,68.2418,0.0285647,0.00809374,-0.00501064,0.0297253,0.00693309,-0.227621,0.0179576,0.0101269,1217,1723,8.03068,-68.2418
0,-699,8.12622,68.4087,0.0297042,0.00839704,-0.00486739,0.0307634,0.0073378,-0.21428,0.0185532,0.0140405,1224,1723,8.12616,-68.4087
7,-699,8.27478,68.4885,0.0306335,0.00898459,-0.00482186,0.0316589,0.00795919,-0.209536,0.0190164,0.023942,1231,1723,8.27477,-68.4885
14,-699,8.36548,68.6332,0.0311062,0.00996255,-0.00477565,0.0321348,0.00893393,-0.212147,0.0191529,0.0240874,1238,1723,8.36546,-68.6332
21,-699,8.36792,68.7286,0.031188,0.0114506,-0.00477679,0.0322833,0.0103553,-0.225397,0.0190338,0.020242,1245,1723,8.36795,-68.7287
28,-699,8.45654,68.7881,0.0311015,0.0135526,-0.00489293,0.0323736,0.0122806,-0.254342,0.0188714,0.0200649,1252,1723,8.45651,-68.7881
35,-699,8.53369,68.917,0.0308006,0.0170026,-0.00523323,0.0325608,0.0152424,-0.324477,0.0188117,0.017297,1259,1723,8.5337,-68.917
42,-699,8.62683,68.9968,0.0303947,0.0209597,-0.00538402,0.0328356,0.0185188,-0.425643,0.0190093,0.014749,1266,1723,8.62681,-68.9969
49,-699,8.69727,69.061,0.0289213,0.0232127,-0.00540894,0.0321828,0.0199512,-0.542619,0.0187581,0.0182445,1273,1723,8.69727,-69.061
56,-699,8.81238,69.0867,0.0269253,0.0253935,-0.00519731,0.0314128,0.020906,-0.712243,0.0184645,0.0185274,1280,1723,8.81241,-69.0867
63,-699,8.90088,69.0352,0.0242233,0.0261233,-0.00451055,0.0297828,0.0205638,-0.88919,0.017606,0.0155846,1287,1723,8.9009,-69.0352
70,-699,8.94128,69.0262,0.0220438,0.0259679,-0.00360929,0.0281139,0.0198977,-1.03436,0.0166921,0.012913,1294,1723,8.94133,-69.0262
77,-699,8.97974,69.0022,0.0199511,0.0253439,-0.00281721,0.0265471,0.0187478,-1.16714,0.0157555,0.0134493,1301,1723,8.97969,-69.0021
84,-699,9.0625,68.9413,0.0177261,0.0239315,-0.00182539,0.0244286,0.0172289,-1.3049,0.0144947,0.0166728,1308,1723,9.06245,-68.9413
91,-699,9.19678,68.8423,0.0158866,0.0216518,-0.000934004,0.0217994,0.0157391,-1.41413,0.0129928,0.0156713,1315,1723,9.19673,-68.8423
98,-699,9.27747,68.7435,0.0138613,0.0187287,0.000283765,0.0187452,0.0138448,1.51276,0.0112257,0.0128077,1322,1723,9.27751,-68.7435
105,-699,9.33704,68.666,0.01183,0.0154872,0.00140989,0.0159676,0.0113496,1.24238,0.00948804,0.0175643,1329,1723,9.33706,-68.666
112,-699,9.44568,68.5625,0.00998533,0.0123064,0.00260125,0.0139942,0.00829746,0.995219,0.00812595,0.0241399,1336,1723,9.44567,-68.5625
119,-699,9.4325,68.4119,0.00847484,0.00955061,0.00371397,0.0127654,0.00526,0.857312,0.00740804,0.0185614,1343,1723,9.43244,-68.4119
126,-699,9.54114,68.2286,0.00725879,0.00726504,0.00466342,0.0119253,0.00259849,0.785733,0.00724117,0.0189227,1350,1723,9.54109,-68.2286
133,-699,9.66345,68.0487,0.00619823,0.00536386,0.00537924,0.0111764,0.000385653,0.746698,0.00732579,0.0172183,1357,1723,9.66344,-68.0487
140,-699,9.73206,67.8575,0.00521362,0.00305107,0.00591883,0.0101491,-0.00188444,0.695052,0.00747384,0.0189429,1364,1723,9.73207,-67.8575
147,-699,9.77478,67.615,0,0,0,0,0,0,0,-1,1371,1723,9.77479,-67.6149
154,-699,9.86011,67.4351,0,0,0,0,0,0,0,-1,1378,1723,9.86011,-67.435
161,-699,9.80994,67.1458,0.00462992,-0.0022114,0.00490645,0.00719041,-0.00477189,0.480984,0.00695333,0.031309,1385,1723,9.80988,-67.1457
168,-699,9.92773,66.9041,0.00584572,-0.00211728,0.00378804,0.00735982,-0.00363138,0.380252,0.00646633,0.0131227,1392,1723,9.92771,-66.9041
175,-699,9.98621,66.6515,0.00781878,-0.00250177,0.00169126,0.00808887,-0.00277185,0.158357,0.0065161,0.0196422,1399,1723,9.98622,-66.6515
182,-699,10.041,66.3422,0.00724928,-0.00115958,0.00126404,0.00743518,-0.00134548,0.146024,0.00546082,0.0210089,1406,1723,10.041,-66.3421
189,-699,10.0151,66.0029,0.00676151,-0.000317539,0.000832891,0.00685818,-0.000414213,0.115554,0.00471626,0.0193041,1413,1723,10.0152,-66.0029
196,-699,9.99976,65.5735,0.00651511,-0.000107629,0.000611818,0.00657116,-0.000163676,0.0913512,0.00443634,0.0212014,1420,1723,9.99977,-65.5735
203,-699,10.0432,65.2151,0.00591866,2.42565e-05,0.00038554,0.00594377,-8.53557e-07,0.0650385,0.0039628,0.0164219,1427,1723,10.0432,-65.2151
210,-699,10.1288,64.9165,0.00528352,0.000172844,0.000128502,0.00528675,0.000169615,0.0251226,0.00346934,0.0140488,1434,1723,10.1287,-64.9165
217,-699,10.1401,64.5313,0.0045841,0.000230291,-4.36252e-05,0.00458454,0.000229854,-0.0100187,0.0029827,0.0154552,1441,1723,10.1401,-64.5312
224,-699,10.1514,64.1022,0.00391788,0.000344423,-0.000246441,0.0039348,0.000327507,-0.068532,0.00252113,0.0175115,1448,1723,10.1513,-64.1021
231,-699,10.176,63.6736,0.00323114,0.000457686,-0.000548574,0.00333571,0.000353124,-0.188349,0.00211594,0.0133577,1455,1723,10.1761,-63.6735
238,-699,10.1487,63.2136,0.0026447,0.000562287,-0.000820462,0.00292912,0.000277874,-0.333687,0.00186703,0.0108621,1462,1723,10.1487,-63.2137
245,-699,10.1439,62.7731,0.00210287,0.000731097,-0.000928764,0.00257156,0.000262409,-0.46735,0.00163394,0.0121411,1469,1723,10.1439,-62.773
252,-699,10.144,62.345,0.0015457,0.00098291,-0.000998031,0.00230125,0.000227364,-0.64799,0.00146427,0.0110091,1476,1723,10.1441,-62.345
259,-699,10.1356,61.8745,0.000999733,0.00117953,-0.00113659,0.00222977,-5.05116e-05,-0.824862,0.00150363,0.0110844,1483,1723,10.1356,-61.8746
266,-699,10.1147,61.3553,0.000522644,0.00133627,-0.00134491,0.00233455,-0.000475634,-0.932266,0.00173676,0.0135455,1490,1723,10.1148,-61.3553
273,-699,10.1021,60.8307,5.19054e-05,0.0015382,-0.00148943,0.00245958,-0.00086948,-1.0168,0.00199378,0.0126887,1497,1723,10.1021,-60.8307
280,-699,10.0964,60.3085,-0.000505495,0.00175082,-0.00163669,0.0026105,-0.00136518,-1.08715,0.00233259,0.0133221,1504,1723,10.0964,-60.3085
287,-699,10.0721,59.7695,-0.00101744,0.00191037,-0.00177615,0.00274814,-0.00185522,-1.13006,0.00267437,0.0117533,1511,1723,10.0721,-59.7696
294,-699,10.0438,59.2529,-0.00151904,0.00224777,-0.00184674,0.0030021,-0.00227338,-1.18301,0.00305547,0.0114174,1518,1723,10.0438,-59.2529
301,-699,10.0321,58.745,-0.00187668,0.00262706,-0.00207647,0.0034383,-0.00268792,-1.19835,0.00354581,0.0126004,1525,1723,10.0321,-58.7449
308,-699,10.025,58.2349,-0.00208763,0.00327318,-0.002717,0.00440941,-0.00322386,-1.17471,0.00442475,0.0175989,1532,1723,10.025,-58.2348
315,-699,10.0052,57.6498,-0.00214365,0.00431849,-0.00368666,0.00598959,-0.00381475,-1.14522,0.00570677,0.0205669,1539,1723,10.0052,-57.6498
322,-699,9.92395,57.0292,-0.00224979,0.00518693,-0.00446807,0.00728148,-0.00434434,-1.13243,0.00678319,0.0212073,1546,1723,9.9239,-57.0292
329,-699,9.828,56.4266,-0.00241171,0.00619255,-0.00520899,0.0086463,-0.00486546,-1.13057,0.00790216,0.0161344,1553,1723,9.82797,-56.4266
336,-699,9.79834,55.8467,-0.00228566,0.00741834,-0.00627058,0.0104949,-0.00536222,-1.11467,0.00931361,0.0139799,1560,1723,9.79834,-55.8466
343,-699,9.8009,55.2639,-0.00199049,0.00872167,-0.00746115,0.0125502,-0.00581899,-1.09671,0.0108402,0.0219869,1567,1723,9.80095,-55.2639
350,-699,9.78564,54.5765,-0.00166204,0.0102363,-0.00863113,0.0147699,-0.00619567,-1.08714,0.0124373,0.0398645,1574,1723,9.78566,-54.5765
357,-699,10.0286,53.7566,-0.00120427,0.0115934,-0.00991676,0.0169965,-0.00660744,-1.07191,0.0140609,0.0474683,1581,1723,10.0286,-53.7566
364,-699,10.0697,52.9567,-0.000887153,0.0127419,-0.0109121,0.0187925,-0.0069378,-1.06451,0.015372,0.0479038,1588,1723,10.0697,-52.9567
371,-699,9.52759,52.8105,0,0,0,0,0,0,0,-1,1595,1723,9.52755,-52.8105
378,-699,9.15137,52.2878,0,0,0,0,0,0,0,-1,1602,1723,9.15132,-52.2879
385,-699,8.04944,42.8464,0,0,0,0,0,0,0,-1,1609,1723,8.04943,-42.8464
392,-699,8.04492,42.0624,0,0,0,0,0,0,0,-1,1616,1723,8.04492,-42.0623
399,-699,8.49963,41.4828,0,0,0,0,0,0,0,-1,1623,1723,8.49961,-41.4828
406,-699,11.7264,44.1525,0,0,0,0,0,0,0,-1,1630,1723,11.7264,-44.1525
413,-699,12.3215,44.3011,0,0,0,0,0,0,0,-1,1637,1723,12.3215,-44.3011
420,-699,8.41907,38.2246,0,0,0,0,0,0,0,-1,1644,1723,8.41902,-38.2247
427,-699,2.98743,11.8593,0,0,0,0,0,0,0,-1,1651,1723,2.98746,-11.8592
434,-699,4.66455,8.90222,0,0,0,0,0,0,0,-1,1658,1723,4.66456,-8.90223
441,-699,0,0,0,0,0,0,0,0,0,-1,1665,1723,0,0
448,-699,0,0,0,0,0,0,0,0,0,-1,1672,1723,0,0
455,-699,0,0,0,0,0,0,0,0,0,-1,1679,1723,0,0
462,-699,0,0,0,0,0,0,0,0,0,-1,1686,1723,0,0
469,-699,0,0,0,0,0,0,0,0,0,-1,1693,1723,0,0
476,-699,0,0,0,0,0,0,0,0,0,-1,1700,1723,0,0
483,-699,0,0,0,0,0,0,0,0,0,-1,1707,1723,0,0
490,-699,0,0,0,0,0,0,0,0,0,-1,1714,1723,0,0
497,-699,0,0,0,0,0,0,0,0,0,-1,1721,1723,0,0
504,-699,0,0,0,0,0,0,0,0,0,-1,1728,1723,0,0
511,-699,0,0,0,0,0,0,0,0,0,-1,1735,1723,0,0
518,-699,0,0,0,0,0,0,0,0,0,-1,1742,1723,0,0
525,-699,0,0,0,0,0,0,0,0,0,-1,1749,1723,0,0
532,-699,0,0,0,0,0,0,0,0,0,-1,1756,1723,0,0
539,-699,0,0,0,0,0,0,0,0,0,-1,1763,1723,0,0
546,-699,0,0,0,0,0,0,0,0,0,-1,1770,1723,0,0
553,-699,0,0,0,0,0,0,0,0,0,-1,1777,1723,0,0
560,-699,0,0,0,0,0,0,0,0,0,-1,1784,1723,0,0
567,-699,0,0,0,0,0,0,0,0,0,-1,1791,1723,0,0
574,-699,0,0,0,0,0,0,0,0,0,-1,1798,1723,0,0
581,-699,0,0,0,0,0,0,0,0,0,-1,1805,1723,0,0
588,-699,0,0,0,0,0,0,0,0,0,-1,1812,1723,0,0
595,-699,0,0,0,0,0,0,0,0,0,-1,1819,1723,0,0
602,-699,0,0,0,0,0,0,0,0,0,-1,1826,1723,0,0
609,-699,0,0,0,0,0,0,0,0,0,-1,1833,1723,0,0
616,-699,0,0,0,0,0,0,0,0,0,-1,1840,1723,0,0
623,-699,0,0,0,0,0,0,0,0,0,-1,1847,1723,0,0
630,-699,0,0,0,0,0,0,0,0,0,-1,1854,1723,0,0
637,-699,0,0,0,0,0,0,0,0,0,-1,1861,1723,0,0
644,-699,0,0,0,0,0,0,0,0,0,-1,1868,1723,0,0
651,-699,0,0,0,0,0,0,0,0,0,-1,1875,1723,0,0
658,-699,0,0,0,0,0,0,0,0,0,-1,1882,1723,0,0
665,-699,0,0,0,0,0,0,0,0,0,-1,1889,1723,0,0
672,-699,0,0,0,0,0,0,0,0,0,-1,1896,1723,0,0
679,-699,0,0,0,0,0,0,0,0,0,-1,1903,1723,0,0
686,-699,0,0,0,0,0,0,0,0,0,-1,1910,1723,0,0
693,-699,0,0,0,0,0,0,0,0,0,-1,1917,1723,0,0
700,-699,0,0,0,0,0,0,0,0,0,-1,1924,1723,0,0
707,-699,0,0,0,0,0,0,0,0,0,-1,1931,1723,0,0
714,-699,0,0,0,0,0,0,0,0,0,-1,1938,1723,0,0
721,-699,0,0,0,0,0,0,0,0,0,-1,1945,1723,0,0
728,-699,0,0,0,0,0,0,0,0,0,-1,1952,1723,0,0
735,-699,0,0,0,0,0,0,0,0,0,-1,1959,1723,0,0
742,-699,0,0,0,0,0,0,0,0,0,-1,1966,1723,0,0
749,-699,0,0,0,0,0,0,0,0,0,-1,1973,1723,0,0
756,-699,0,0,0,0,0,0,0,0,0,-1,1980,1723,0,0
763,-699,0,0,0,0,0,0,0,0,0,-1,1987,1723,0,0
770,-699,0,0,0,0,0,0,0,0,0,-1,1994,1723,0,0
777,-699,0,0,0,0,0,0,0,0,0,-1,2001,1723,0,0
784,-699,0,0,0,0,0,0,0,0,0,-1,2008,1723,0,0
791,-699,0,0,0,0,0,0,0,0,0,-1,2015,1723,0,0
798,-699,0,0,0,0,0,0,0,0,0,-1,2022,1723,0,0
805,-699,0,0,0,0,0,0,0,0,0,-1,2029,1723,0,0
812,-699,0,0,0,0,0,0,0,0,0,-1,2036,1723,0,0
-700,-706,0,0,0,0,0,0,0,0,0,-1,524,1730,0,0
-693,-706,0,0,0,0,0,0,0,0,0,-1,531,1730,0,0
-686,-706,0,0,0,0,0,0,0,0,0,-1,538,1730,0,0
-679,-706,0,0,0,0,0,0,0,0,0,-1,545,1730,0,0
-672,-706,0,0,0,0,0,0,0,0,0,-1,552,1730,0,0
-665,-706,0,0,0,0,0,0,0,0,0,-1,559,1730,0,0
-658,-706,0,0,0,0,0,0,0,0,0,-1,566,1730,0,0
-651,-706,0,0,0,0,0,0,0,0,0,-1,573,1730,0,0
-644,-706,0,0,0,0,0,0,0,0,0,-1,580,1730,0,0
-637,-706,0,0,0,0,0,0,0,0,0,-1,587,1730,0,0
-630,-706,0,0,0,0,0,0,0,0,0,-1,594,1730,0,0
-623,-706,0,0,0,0,0,0,0,0,0,-1,601,1730,0,0
-616,-706,0,0,0,0,0,0,0,0,0,-1,608,1730,0,0
-609,-706,0,0,0,0,0,0,0,0,0,-1,615,1730,0,0
-602,-706,0,0,0,0,0,0,0,0,0,-1,622,1730,0,0
-595,-706,0,0,0,0,0,0,0,0,0,-1,629,1730,0,0
-588,-706,0,0,0,0,0,0,0,0,0,-1,636,1730,0,0
-581,-706,0,0,0,0,0,0,0,0,0,-1,643,1730,0,0
-574,-706,0,0,0,0,0,0,0,0,0,-1,650,1730,0,0
-567,-706,0,0,0,0,0,0,0,0,0,-1,657,1730,0,0
-560,-706,0,0,0,0,0,0,0,0,0,-1,664,1730,0,0
-553,-706,0,0,0,0,0,0,0,0,0,-1,671,1730,0,0
-546,-706,0,0,0,0,0,0,0,0,0,-1,678,1730,0,0
-539,-706,0,0,0,0,0,0,0,0,0,-1,685,1730,0,0
-532,-706,0,0,0,0,0,0,0,0,0,-1,692,1730,0,0
-525,-706,0,0,0,0,0,0,0,0,0,-1,699,1730,0,0
-518,-706,0,0,0,0,0,0,0,0,0,-1,706,1730,0,0
-511,-706,0,0,0,0,0,0,0,0,0,-1,713,1730,0,0
-504,-706,0,0,0,0,0,0,0,0,0,-1,720,1730,0,0
-497,-706,0,0,0,0,0,0,0,0,0,-1,727,1730,0,0
-490,-706,0,0,0,0,0,0,0,0,0,-1,734,1730,0,0
-483,-706,0,0,0,0,0,0,0,0,0,-1,741,1730,0,0
-476,-706,0,0,0,0,0,0,0,0,0,-1,748,1730,0,0
-469,-706,0,0,0,0,0,0,0,0,0,-1,755,1730,0,0
-462,-706,0,0,0,0,0,0,0,0,0,-1,762,1730,0,0
-455,-706,0,0,0,0,0,0,0,0,0,-1,769,1730,0,0
-448,-706,0,0,0,0,0,0,0,0,0,-1,776,1730,0,0
-441,-706,0,0,0,0,0,0,0,0,0,-1,783,1730,0,0
-434,-706,0,0,0,0,0,0,0,0,0,-1,790,1730,0,0
-427,-706,0,0,0,0,0,0,0,0,0,-1,797,1730,0,0
-420,-706,0,0,0,0,0,0,0,0,0,-1,804,1730,0,0
-413,-706,0,0,0,0,0,0,0,0,0,-1,811,1730,0,0
-406,-706,0,0,0,0,0,0,0,0,0,-1,818,1730,0,0
-399,-706,0,0,0,0,0,0,0,0,0,-1,825,1730,0,0
-392,-706,0,0,0,0,0,0,0,0,0,-1,832,1730,0,0
-385,-706,0,0,0,0,0,0,0,0,0,-1,839,1730,0,0
-378,-706,0,0,0,0,0,0,0,0,0,-1,846,1730,0,0
-371,-706,0,0,0,0,0,0,0,0,0,-1,853,1730,0,0
-364,-706,0,0,0,0,0,0,0,0,0,-1,860,1730,0,0
-357,-706,0,0,0,0,0,0,0,0,0,-1,867,1730,0,0
-350,-706,0,0,0,0,0,0,0,0,0,-1,874,1730,0,0
-343,-706,0,0,0,0,0,0,0,0,0,-1,881,1730,0,0
-336,-706,0,0,0,0,0,0,0,0,0,-1,888,1730,0,0
-329,-706,0,0,0,0,0,0,0,0,0,-1,895,1730,0,0
-322,-706,0,0,0,0,0,0,0,0,0,-1,902,1730,0,0
-315,-706,0,0,0,0,0,0,0,0,0,-1,909,1730,0,0
-308,-706,5.08191,14.6245,0,0,0,0,0,0,0,-1,916,1730,5.08188,-14.6245
-301,-706,7.45007,21.1975,0,0,0,0,0,0,0,-1,923,1730,7.45005,-21.1976
-294,-706,11.8603,21.026,0,0,0,0,0,0,0,-1,930,1730,11.8603,-21.026
-287,-706,10.3292,20.8425,0,0,0,0,0,0,0,-1,937,1730,10.3292,-20.8425
-280,-706,7.9162,21.8951,0,0,0,0,0,0,0,-1,944,1730,7.9162,-21.8952
-273,-706,7.38953,20.6355,0,0,0,0,0,0,0,-1,951,1730,7.38955,-20.6355
-266,-706,9.66724,22.8231,0,0,0,0,0,0,0,-1,958,1730,9.66722,-22.8231
-259,-706,3.47852,20.7363,0,0,0,0,0,0,0,-1,965,1730,3.47851,-20.7364
-252,-706,3.84259,20.1979,0,0,0,0,0,0,0,-1,972,1730,3.84256,-20.1979
-245,-706,4.698,19.2992,0,0,0,0,0,0,0,-1,979,1730,4.69799,-19.2991
-238,-706,7.87585,53.6793,0,0,0,0,0,0,0,-1,986,1730,7.87588,-53.6793
-231,-706,9.95587,54.2175,0,0,0,0,0,0,0,-1,993,1730,9.95587,-54.2175
-224,-706,8.50684,55.1309,0,0,0,0,0,0,0,-1,1000,1730,8.50681,-55.1308
-217,-706,8.1908,55.2246,-0.0104301,0.0180388,0.00641931,0.0194193,-0.0118106,1.35897,0.0182081,0.0411943,1007,1730,8.19077,-55.2246
-210,-706,8.25244,55.6328,-0.00854577,0.0157058,0.00626519,0.0172288,-0.0100687,1.33234,0.0159399,0.0404136,1014,1730,8.25242,-55.6328
-203,-706,8.46594,56.7106,-0.00689192,0.012941,0.005988,0.0146086,-0.0085596,1.29918,0.0135273,0.0337783,1021,1730,8.46592,-56.7106
-196,-706,8.44397,57.3434,-0.00544696,0.0105297,0.00539982,0.0121835,-0.00710081,1.27359,0.011262,0.0252224,1028,1730,8.44393,-57.3434
-189,-706,8.27222,57.9861,-0.00415077,0.00876875,0.00484718,0.0103851,-0.00576713,1.24893,0.00945169,0.0207854,1035,1730,8.27217,-57.9861
-182,-706,8.21826,58.6023,-0.00317712,0.00715176,0.00425837,0.00868099,-0.00470635,1.22603,0.00784191,0.0164648,1042,1730,8.21828,-58.6023
-175,-706,8.23083,59.1825,-0.00204374,0.00575494,0.00386679,0.00734713,-0.00363594,1.18019,0.00646062,0.0164946,1049,1730,8.23085,-59.1825
-168,-706,8.20544,59.7206,-0.00149929,0.00474093,0.0032443,0.00612199,-0.00288035,1.16834,0.00530864,0.0181096,1056,1730,8.20546,-59.7206
-161,-706,8.15576,60.2587,-0.00142993,0.00366642,0.00272287,0.00484748,-0.00261099,1.16153,0.0043702,0.0142774,1063,1730,8.15574,-60.2587
-154,-706,8.07642,60.7905,-0.00127514,0.00300516,0.00236766,0.00405656,-0.00232655,1.15288,0.00373014,0.013756,1070,1730,8.0764,-60.7905
-147,-706,8.02844,61.2677,-0.000962567,0.0029038,0.00218138,0.00388534,-0.00194411,1.14797,0.00342727,0.0132087,1077,1730,8.02846,-61.2677
-140,-706,8.00928,61.7676,-0.000346264,0.00287053,0.0021207,0.00392377,-0.00139951,1.10983,0.00318649,0.0121246,1084,1730,8.00931,-61.7676
-133,-706,7.98853,62.2411,7.81935e-05,0.00277209,0.00199621,0.00383328,-0.000982997,1.08219,0.00293851,0.0103188,1091,1730,7.98849,-62.2411
-126,-706,7.99304,62.7018,0.000292912,0.00259229,0.00185344,0.00362366,-0.000738458,1.063,0.00269585,0.0163955,1098,1730,7.99309,-62.7018
-119,-706,7.96021,63.1696,0.000521848,0.00247941,0.00182537,0.00357186,-0.000570605,1.03149,0.00259246,0.0196489,1105,1730,7.96015,-63.1696
-112,-706,7.95117,63.6274,0.000908689,0.00238894,0.00179925,0.00359435,-0.000296716,0.980525,0.00250101,0.0128053,1112,1730,7.95112,-63.6274
-105,-706,7.93311,64.0522,0.00131981,0.00211573,0.00155081,0.00331882,0.000116714,0.910996,0.00217469,0.0103604,1119,1730,7.93312,-64.0522
-98,-706,7.96167,64.431,0.0016569,0.00182716,0.00127107,0.00301594,0.000468114,0.818837,0.00187418,0.0130387,1126,1730,7.96161,-64.431
-91,-706,7.96375,64.8407,0.00203207,0.00162121,0.000952138,0.00280068,0.000852591,0.67915,0.0016577,0.0161445,1133,1730,7.96374,-64.8407
-84,-706,7.93701,65.2406,0.00248367,0.00133322,0.000579491,0.00272496,0.00109193,0.394546,0.00158356,0.0197263,1140,1730,7.93707,-65.2406
-77,-706,7.94397,65.5793,0.00292842,0.00107239,0.000250691,0.00296169,0.00103913,0.13192,0.0017351,0.0179481,1147,1730,7.94396,-65.5794
-70,-706,7.93213,65.9672,0.00328699,0.000773368,-0.000122341,0.00329293,0.000767428,-0.0485183,0.00198944,0.0197415,1154,1730,7.93213,-65.9671
-63,-706,7.92334,66.3025,0.00445935,0.0015764,-0.0005316,0.00455425,0.0014815,-0.176657,0.00268236,0.0148092,1161,1730,7.92334,-66.3025
-56,-706,7.94519,66.5852,0.0058788,0.00213429,-0.000682638,0.00599937,0.00201372,-0.174814,0.00352555,0.0142237,1168,1730,7.9452,-66.5853
-49,-706,7.96423,66.8711,0.0071332,0.00237178,-0.000954699,0.00731749,0.00218748,-0.19069,0.00433712,0.0157986,1175,1730,7.96427,-66.8711
-42,-706,8.00232,67.1805,0.00826462,0.00243602,-0.00118128,0.00849493,0.00220572,-0.19255,0.00508993,0.0205242,1182,1730,8.00237,-67.1805
-35,-706,8.04871,67.4359,0.00942525,0.00264152,-0.00134549,0.00968237,0.0023844,-0.188822,0.00582512,0.0180915,1189,1730,8.04874,-67.436
-28,-706,8.10608,67.6565,0.0106999,0.00260419,-0.00157646,0.010996,0.00230804,-0.185692,0.00669527,0.0127538,1196,1730,8.10605,-67.6564
-21,-706,8.12915,67.8442,0.0119359,0.00249261,-0.00176094,0.0122536,0.00217493,-0.178487,0.00754923,0.0141722,1203,1730,8.12915,-67.8442
-14,-706,8.1709,68.0624,0.012809,0.00203314,-0.00179524,0.0131002,0.00174192,-0.160814,0.00821462,0.0132148,1210,1730,8.17093,-68.0623
-7,-706,8.23218,68.2728,0.0135163,0.00172804,-0.00184854,0.0137993,0.00144497,-0.151955,0.00875773,0.00968857,1217,1730,8.23216,-68.2729
0,-706,8.30762,68.4541,0.014146,0.00169733,-0.00164382,0.0143594,0.00148392,-0.129101,0.00911861,0.0140448,1224,1730,8.30757,-68.4542
7,-706,8.33997,68.604,0.014752,0.00179514,-0.00151087,0.0149259,0.0016213,-0.11456,0.00945658,0.0170834,1231,1730,8.33994,-68.604
14,-706,8.39746,68.7056,0.0151952,0.00207335,-0.00138812,0.0153404,0.00192812,-0.10425,0.00964865,0.0166636,1238,1730,8.39748,-68.7056
21,-706,8.46814,68.797,0.0155179,0.00264134,-0.00131556,0.0156509,0.00250831,-0.10078,0.0097065,0.0133437,1245,1730,8.46811,-68.797
28,-706,8.53052,68.8977,0.0158366,0.00353602,-0.00135116,0.0159833,0.00338935,-0.108127,0.00972466,0.0137551,1252,1730,8.53047,-68.8977
35,-706,8.56287,68.9825,0.0161658,0.0054333,-0.00160737,0.0164014,0.00519774,-0.145514,0.00967867,0.0160085,1259,1730,8.56291,-68.9825
42,-706,8.62524,69.0294,0.0163049,0.00769951,-0.00180258,0.0166672,0.00733718,-0.198365,0.00964571,0.0133856,1266,1730,8.6252,-69.0294
49,-706,8.69714,69.0833,0.0156567,0.00877274,-0.00204239,0.0162171,0.0082124,-0.267767,0.00936319,0.0160333,1273,1730,8.69711,-69.0832
56,-706,8.78552,69.1127,0.014989,0.00977912,-0.00217802,0.0157796,0.00898855,-0.348186,0.00913976,0.0153667,1280,1730,8.78556,-69.1126
63,-706,8.86597,69.0934,0.0139233,0.0100467,-0.00217361,0.0148973,0.00907269,-0.421282,0.00866885,0.012738,1287,1730,8.86597,-69.0934
70,-706,8.89929,69.0657,0.0125532,0.00959508,-0.0020928,0.0136369,0.00851145,-0.47778,0.00795374,0.0134878,1294,1730,8.89935,-69.0657
77,-706,8.9292,69.0443,0.0113606,0.00874386,-0.00193865,0.012391,0.00771337,-0.488566,0.00722518,0.01253,1301,1730,8.92923,-69.0443
84,-706,9.00305,69.007,0.0100136,0.00738715,-0.00163915,0.0108007,0.00660004,-0.447677,0.00628685,0.0105865,1308,1730,9.0031,-69.0069
91,-706,9.09265,68.967,0.00887509,0.00580172,-0.00137009,0.00939717,0.00527963,-0.364074,0.00543927,0.011202,1315,1730,9.09268,-68.9671
98,-706,9.13,68.8956,0.00769578,0.00379658,-0.000887586,0.00788831,0.00360404,-0.213612,0.00455996,0.0144161,1322,1730,9.12996,-68.8956
105,-706,9.15686,68.8069,0.00657607,0.00167779,-0.000475215,0.00662175,0.00163211,-0.0958258,0.00398352,0.0171288,1329,1730,9.15681,-68.8068
112,-706,9.1814,68.691,0.00564458,-0.000260144,1.58276e-05,0.00564462,-0.000260186,0.00268047,0.00385274,0.017308,1336,1730,9.18143,-68.691
119,-706,9.22302,68.5441,0.00494529,-0.00181569,0.000508317,0.0049833,-0.00185369,0.0746249,0.00408286,0.0149179,1343,1730,9.22305,-68.5441
126,-706,9.31531,68.3339,0.00446114,-0.00292937,0.000957938,0.00458328,-0.00305152,0.126826,0.00443743,0.0156301,1350,1730,9.31526,-68.3338
133,-706,9.43152,68.1001,0.00409202,-0.00355208,0.00131937,0.00431334,-0.0037734,0.166196,0.00467235,0.0127174,1357,1730,9.43151,-68.1001
140,-706,9.48022,67.8485,0.00373296,-0.00422357,0.001614,0.0040479,-0.00453851,0.192707,0.00496006,0.0132962,1364,1730,9.48025,-67.8485
147,-706,9.54797,67.6169,0.00356205,-0.00476171,0.00161548,0.00386459,-0.00506425,0.18513,0.00517055,0.0249703,1371,1730,9.54798,-67.617
154,-706,9.58179,67.4318,0.00392568,-0.00397669,0.00147153,0.0041908,-0.00424181,0.178257,0.0048686,0.0240068,1378,1730,9.58174,-67.4318
161,-706,9.57751,67.162,0.00411365,-0.00338273,0.00139916,0.00436629,-0.00363536,0.178635,0.00462617,0.0121766,1385,1730,9.57755,-67.162
168,-706,9.60132,66.8995,0.00465857,-0.00229808,0.00116766,0.00484933,-0.00248884,0.161938,0.00430914,0.0111609,1392,1730,9.60128,-66.8996
175,-706,9.64539,66.629,0.00537585,-0.00128299,0.000820028,0.00547535,-0.00138249,0.120745,0.00418783,0.010654,1399,1730,9.64536,-66.6291
182,-706,9.65967,66.3025,0.00488155,-0.000343643,0.000502276,0.0049294,-0.000391487,0.094967,0.00342423,0.0116252,1406,1730,9.65966,-66.3025
189,-706,9.67542,65.9531,0.00444062,0.000268098,0.000159783,0.00444673,0.000261988,0.0382196,0.00288113,0.0156149,1413,1730,9.67537,-65.9531
196,-706,9.7002,65.6075,0.00416397,0.000460688,-4.62476e-05,0.00416455,0.00046011,-0.0124857,0.00263641,0.0133343,1420,1730,9.7002,-65.6075
203,-706,9.71631,65.2671,0.00371004,0.000599037,-0.000268712,0.00373308,0.000575998,-0.0855307,0.00232067,0.0137916,1427,1730,9.71628,-65.2671
210,-706,9.7251,64.902,0.003193,0.000731579,-0.000500623,0.00329092,0.000633654,-0.193167,0.0020162,0.012539,1434,1730,9.7251,-64.902
217,-706,9.70959,64.5345,0.00262973,0.00086438,-0.000668675,0.00285441,0.000639696,-0.32416,0.0017296,0.0142084,1441,1730,9.70965,-64.5345
224,-706,9.72119,64.1171,0.00211422,0.000995674,-0.00087626,0.00259447,0.000515418,-0.501363,0.00158601,0.020357,1448,1730,9.72123,-64.1171
231,-706,9.74255,63.6724,0.00155384,0.00109633,-0.0011033,0.00245185,0.000198322,-0.683178,0.00157263,0.0151995,1455,1730,9.7426,-63.6724
238,-706,9.7146,63.2283,0.00105365,0.00121665,-0.00128123,0.00241897,-0.000148669,-0.817162,0.00166442,0.0093867,1462,1730,9.71464,-63.2282
245,-706,9.70093,62.7778,0.000588746,0.00132377,-0.00140575,0.00240925,-0.000496734,-0.913255,0.00179481,0.0113527,1469,1730,9.70092,-62.7779
252,-706,9.70654,62.3242,6.12732e-05,0.00159535,-0.00148186,0.00249692,-0.000840298,-1.02422,0.00200431,0.0115884,1476,1730,9.70657,-62.3243
259,-706,9.7085,61.8468,-0.000429785,0.00179302,-0.00159892,0.00262886,-0.00126562,-1.08911,0.00229394,0.0126941,1483,1730,9.70852,-61.8468
266,-706,9.64526,61.3733,-0.000884197,0.00199588,-0.0017781,0.00284393,-0.00173224,-1.12577,0.00266791,0.0130814,1490,1730,9.64525,-61.3732
273,-706,9.59277,60.8654,-0.00139413,0.00225943,-0.00193207,0.0030916,-0.0022263,-1.1641,0.00308381,0.0130807,1497,1730,9.59275,-60.8654
280,-706,9.58435,60.3269,-0.00201045,0.00254804,-0.00210335,0.00337025,-0.00283266,-1.19815,0.00358573,0.0115345,1504,1730,9.58434,-60.3269
287,-706,9.53259,59.802,-0.00259274,0.00276772,-0.00226794,0.0035985,-0.00342351,-1.21966,0.00405458,0.0122502,1511,1730,9.53257,-59.802
294,-706,9.51648,59.2867,-0.00319961,0.00324199,-0.00233982,0.00400218,-0.0039598,-1.25666,0.00459687,0.0111681,1518,1730,9.51643,-59.2867
301,-706,9.50085,58.7443,-0.00357328,0.00376659,-0.00261964,0.00460564,-0.00441233,-1.26083,0.00520693,0.0103518,1525,1730,9.50088,-58.7443
308,-706,9.47278,58.1984,-0.00374194,0.00466438,-0.00341788,0.00587864,-0.0049562,-1.22944,0.00626305,0.017922,1532,1730,9.47278,-58.1984
315,-706,9.47302,57.5878,-0.00371007,0.00606458,-0.00467102,0.00793776,-0.00558324,-1.18941,0.00784571,0.0429496,1539,1730,9.47299,-57.5878
322,-706,9.52222,56.8412,0,0,0,0,0,0,0,-1,1546,1730,9.52222,-56.8412
329,-706,9.34961,56.4136,-0.00382948,0.00856843,-0.00664264,0.0114553,-0.00671632,-1.16083,0.0106096,0.0394127,1553,1730,9.34966,-56.4136
336,-706,9.21948,55.87,-0.00351277,0.010297,-0.00812286,0.0140532,-0.00726894,-1.13766,0.0125163,0.0374156,1560,1730,9.21953,-55.87
343,-706,9.0459,55.129,-0.00296633,0.0121146,-0.00981296,0.0169496,-0.00780136,-1.11299,0.0146117,0.0463004,1567,1730,9.04586,-55.1291
350,-706,9.0321,54.6003,0,0,0,0,0,0,0,-1,1574,1730,9.03209,-54.6004
357,-706,9.81775,53.6687,0,0,0,0,0,0,0,-1,1581,1730,9.8178,-53.6687
364,-706,9.85034,52.8756,0,0,0,0,0,0,0,-1,1588,1730,9.85037,-52.8756
371,-706,8.6084,48.7302,0,0,0,0,0,0,0,-1,1595,1730,8.60844,-48.7303
378,-706,7.63867,44.0519,0,0,0,0,0,0,0,-1,1602,1730,7.63863,-44.0519
385,-706,7.3186,43.2451,0,0,0,0,0,0,0,-1,1609,1730,7.31862,-43.2451
392,-706,7.33728,42.4652,0,0,0,0,0,0,0,-1,1616,1730,7.3373,-42.4651
399,-706,7.51855,41.7692,0,0,0,0,0,0,0,-1,1623,1730,7.51855,-41.7691
406,-706,7.46301,40.9797,0,0,0,0,0,0,0,-1,1630,1730,7.46301,-40.9797
413,-706,8.43433,40.3345,0,0,0,0,0,0,0,-1,1637,1730,8.43428,-40.3344
420,-706,8.0636,39.6101,0,0,0,0,0,0,0,-1,1644,1730,8.06362,-39.6101
427,-706,0,0,0,0,0,0,0,0,0,-1,1651,1730,0,0
434,-706,0,0,0,0,0,0,0,0,0,-1,1658,1730,0,0
441,-706,0,0,0,0,0,0,0,0,0,-1,1665,1730,0,0
448,-706,0,0,0,0,0,0,0,0,0,-1,1672,1730,0,0
455,-706,0,0,0,0,0,0,0,0,0,-1,1679,1730,0,0
462,-706,0,0,0,0,0,0,0,0,0,-1,1686,1730,0,0
469,-706,0,0,0,0,0,0,0,0,0,-1,1693,1730,0,0
476,-706,0,0,0,0,0,0,0,0,0,-1,1700,1730,0,0
483,-706,0,0,0,0,0,0,0,0,0,-1,1707,1730,0,0
490,-706,0,0,0,0,0,0,0,0,0,-1,1714,1730,0,0
497,-706,0,0,0,0,0,0,0,0,0,-1,1721,1730,0,0
504,-706,0,0,0,0,0,0,0,0,0,-1,1728,1730,0,0
511,-706,0,0,0,0,0,0,0,0,0,-1,1735,1730,0,0
518,-706,0,0,0,0,0,0,0,0,0,-1,1742,1730,0,0
525,-706,0,0,0,0,0,0,0,0,0,-1,1749,1730,0,0
532,-706,0,0,0,0,0,0,0,0,0,-1,1756,1730,0,0
539,-706,0,0,0,0,0,0,0,0,0,-1,1763,1730,0,0
546,-706,0,0,0,0,0,0,0,0,0,-1,1770,1730,0,0
553,-706,0,0,0,0,0,0,0,0,0,-1,1777,1730,0,0
560,-706,0,0,0,0,0,0,0,0,0,-1,1784,1730,0,0
567,-706,0,0,0,0,0,0,0,0,0,-1,1791,1730,0,0
574,-706,0,0,0,0,0,0,0,0,0,-1,1798,1730,0,0
581,-706,0,0,0,0,0,0,0,0,0,-1,1805,1730,0,0
588,-706,0,0,0,0,0,0,0,0,0,-1,1812,1730,0,0
595,-706,0,0,0,0,0,0,0,0,0,-1,1819,1730,0,0
602,-706,0,0,0,0,0,0,0,0,0,-1,1826,1730,0,0
609,-706,0,0,0,0,0,0,0,0,0,-1,1833,1730,0,0
616,-706,0,0,0,0,0,0,0,0,0,-1,1840,1730,0,0
623,-706,0,0,0,0,0,0,0,0,0,-1,1847,1730,0,0
630,-706,0,0,0,0,0,0,0,0,0,-1,1854,1730,0,0
637,-706,0,0,0,0,0,0,0,0,0,-1,1861,1730,0,0
644,-706,0,0,0,0,0,0,0,0,0,-1,1868,1730,0,0
651,-706,0,0,0,0,0,0,0,0,0,-1,1875,1730,0,0
658,-706,0,0,0,0,0,0,0,0,0,-1,1882,1730,0,0
665,-706,0,0,0,0,0,0,0,0,0,-1,1889,1730,0,0
672,-706,0,0,0,0,0,0,0,0,0,-1,1896,1730,0,0
679,-706,0,0,0,0,0,0,0,0,0,-1,1903,1730,0,0
686,-706,0,0,0,0,0,0,0,0,0,-1,1910,1730,0,0
693,-706,0,0,0,0,0,0,0,0,0,-1,1917,1730,0,0
700,-706,0,0,0,0,0,0,0,0,0,-1,1924,1730,0,0
707,-706,0,0,0,0,0,0,0,0,0,-1,1931,1730,0,0
714,-706,0,0,0,0,0,0,0,0,0,-1,1938,1730,0,0
721,-706,0,0,0,0,0,0,0,0,0,-1,1945,1730,0,0
728,-706,0,0,0,0,0,0,0,0,0,-1,1952,1730,0,0
735,-706,0,0,0,0,0,0,0,0,0,-1,1959,1730,0,0
742,-706,0,0,0,0,0,0,0,0,0,-1,1966,1730,0,0
749,-706,0,0,0,0,0,0,0,0,0,-1,1973,1730,0,0
756,-706,0,0,0,0,0,0,0,0,0,-1,1980,1730,0,0
763,-706,0,0,0,0,0,0,0,0,0,-1,1987,1730,0,0
770,-706,0,0,0,0,0,0,0,0,0,-1,1994,1730,0,0
777,-706,0,0,0,0,0,0,0,0,0,-1,2001,1730,0,0
784,-706,0,0,0,0,0,0,0,0,0,-1,2008,1730,0,0
791,-706,0,0,0,0,0,0,0,0,0,-1,2015,1730,0,0
798,-706,0,0,0,0,0,0,0,0,0,-1,2022,1730,0,0
805,-706,0,0,0,0,0,0,0,0,0,-1,2029,1730,0,0
812,-706,0,0,0,0,0,0,0,0,0,-1,2036,1730,0,0
-700,-713,0,0,0,0,0,0,0,0,0,-1,524,1737,0,0
-693,-713,0,0,0,0,0,0,0,0,0,-1,531,1737,0,0
-686,-713,0,0,0,0,0,0,0,0,0,-1,538,1737,0,0
-679,-713,0,0,0,0,0,0,0,0,0,-1,545,1737,0,0
-672,-713,0,0,0,0,0,0,0,0,0,-1,552,1737,0,0
-665,-713,0,0,0,0,0,0,0,0,0,-1,559,1737,0,0
-658,-713,0,0,0,0,0,0,0,0,0,-1,566,1737,0,0
-651,-713,0,0,0,0,0,0,0,0,0,-1,573,1737,0,0
-644,-713,0,0,0,0,0,0,0,0,0,-1,580,1737,0,0
-637,-713,0,0,0,0,0,0,0,0,0,-1,587,1737,0,0
-630,-713,0,0,0,0,0,0,0,0,0,-1,594,1737,0,0
-623,-713,0,0,0,0,0,0,0,0,0,-1,601,1737,0,0
-616,-713,0,0,0,0,0,0,0,0,0,-1,608,1737,0,0
-609,-713,0,0,0,0,0,0,0,0,0,-1,615,1737,0,0
-602,-713,0,0,0,0,0,0,0,0,0,-1,622,1737,0,0
-595,-713,0,0,0,0,0,0,0,0,0,-1,629,1737,0,0
-588,-713,0,0,0,0,0,0,0,0,0,-1,636,1737,0,0
-581,-713,0,0,0,0,0,0,0,0,0,-1,643,1737,0,0
-574,-713,0,0,0,0,0,0,0,0,0,-1,650,1737,0,0
-567,-713,0,0,0,0,0,0,0,0,0,-1,657,1737,0,0
-560,-713,0,0,0,0,0,0,0,0,0,-1,664,1737,0,0
-553,-713,0,0,0,0,0,0,0,0,0,-1,671,1737,0,0
-546,-713,0,0,0,0,0,0,0,0,0,-1,678,1737,0,0
-539,-713,0,0,0,0,0,0,0,0,0,-1,685,1737,0,0
-532,-713,0,0,0,0,0,0,0,0,0,-1,692,1737,0,0
-525,-713,0,0,0,0,0,0,0,0,0,-1,699,1737,0,0
-518,-713,0,0,0,0,0,0,0,0,0,-1,706,1737,0,0
-511,-713,0,0,0,0,0,0,0,0,0,-1,713,1737,0,0
-504,-713,0,0,0,0,0,0,0,0,0,-1,720,1737,0,0
-497,-713,0,0,0,0,0,0,0,0,0,-1,727,1737,0,0
-490,-713,0,0,0,0,0,0,0,0,0,-1,734,1737,0,0
-483,-713,0,0,0,0,0,0,0,0,0,-1,741,1737,0,0
-476,-713,0,0,0,0,0,0,0,0,0,-1,748,1737,0,0
-469,-713,0,0,0,0,0,0,0,0,0,-1,755,1737,0,0
-462,-713,0,0,0,0,0,0,0,0,0,-1,762,1737,0,0
-455,-713,0,0,0,0,0,0,0,0,0,-1,769,1737,0,0
-448,-713,0,0,0,0,0,0,0,0,0,-1,776,1737,0,0
-441,-713,0,0,0,0,0,0,0,0,0,-1,783,1737,0,0
-434,-713,0,0,0,0,0,0,0,0,0,-1,790,1737,0,0
-427,-713,0,0,0,0,0,0,0,0,0,-1,797,1737,0,0
-420,-713,0,0,0,0,0,0,0,0,0,-1,804,1737,0,0
-413,-713,0,0,0,0,0,0,0,0,0,-1,811,1737,0,0
-406,-713,0,0,0,0,0,0,0,0,0,-1,818,1737,0,0
-399,-713,0,0,0,0,0,0,0,0,0,-1,825,1737,0,0
-392,-713,0,0,0,0,0,0,0,0,0,-1,832,1737,0,0
-385,-713,0,0,0,0,0,0,0,0,0,-1,839,1737,0,0
-378,-713,0,0,0,0,0,0,0,0,0,-1,846,1737,0,0
-371,-713,0,0,0,0,0,0,0,0,0,-1,853,1737,0,0
-364,-713,0,0,0,0,0,0,0,0,0,-1,860,1737,0,0
-357,-713,0,0,0,0,0,0,0,0,0,-1,867,1737,0,0
-350,-713,0,0,0,0,0,0,0,0,0,-1,874,1737,0,0
-343,-713,0,0,0,0,0,0,0,0,0,-1,881,1737,0,0
-336,-713,0,0,0,0,0,0,0,0,0,-1,888,1737,0,0
-329,-713,0,0,0,0,0,0,0,0,0,-1,895,1737,0,0
-322,-713,0,0,0,0,0,0,0,0,0,-1,902,1737,0,0
-315,-713,0,0,0,0,0,0,0,0,0,-1,909,1737,0,0
-308,-713,0,0,0,0,0,0,0,0,0,-1,916,1737,0,0
-301,-713,0,0,0,0,0,0,0,0,0,-1,923,1737,0,0
-294,-713,7.17883,22.0453,0,0,0,0,0,0,0,-1,930,1737,7.17881,-22.0453
-287,-713,11.8916,21.5834,0,0,0,0,0,0,0,-1,937,1737,11.8916,-21.5833
-280,-713,10.2786,21.3551,0,0,0,0,0,0,0,-1,944,1737,10.2787,-21.3551
-273,-713,11.1981,23.8683,0,0,0,0,0,0,0,-1,951,1737,11.198,-23.8683
-266,-713,3.17981,19.8851,0,0,0,0,0,0,0,-1,958,1737,3.17983,-19.8851
-259,-713,3.5921,19.6868,0,0,0,0,0,0,0,-1,965,1737,3.59207,-19.6868
-252,-713,4.55469,20.5758,0,0,0,0,0,0,0,-1,972,1737,4.55466,-20.5758
-245,-713,3.89014,25.9825,0,0,0,0,0,0,0,-1,979,1737,3.89013,-25.9826
-238,-713,6.62506,30.5463,0,0,0,0,0,0,0,-1,986,1737,6.62509,-30.5462
-231,-713,8.52356,54.5547,0,0,0,0,0,0,0,-1,993,1737,8.52359,-54.5547
-224,-713,9.021,54.7601,0,0,0,0,0,0,0,-1,1000,1737,9.02097,-54.7602
-217,-713,8.46948,54.9932,0,0,0,0,0,0,0,-1,1007,1737,8.46947,-54.9932
-210,-713,8.65405,55.1738,0,0,0,0,0,0,0,-1,1014,1737,8.65403,-55.1738
-203,-713,9.01868,56.7484,0,0,0,0,0,0,0,-1,1021,1737,9.01866,-56.7485
-196,-713,8.98499,57.4207,-0.00654629,0.0137283,0.00670099,0.0157429,-0.00856086,1.27875,0.0142346,0.047206,1028,1737,8.98493,-57.4206
-189,-713,8.65698,57.957,-0.00502343,0.0115731,0.00607258,0.0135577,-0.00700804,1.25492,0.0120727,0.0408049,1035,1737,8.65695,-57.957
-182,-713,8.60437,58.4626,-0.00400288,0.00959017,0.0053355,0.0114343,-0.00584697,1.23802,0.0101497,0.0273934,1042,1737,8.60439,-58.4627
-175,-713,8.76819,59.1094,-0.00281619,0.00774758,0.00484315,0.00963189,-0.0047005,1.19975,0.0084365,0.0233138,1049,1737,8.76819,-59.1094
-168,-713,8.7854,59.6632,-0.00229926,0.00645638,0.00413452,0.00810016,-0.00394303,1.19238,0.00708987,0.027523,1056,1737,8.78543,-59.6633
-161,-713,8.6582,60.2477,-0.00232572,0.00512073,0.0035655,0.00655262,-0.00375761,1.18892,0.00602508,0.0136097,1063,1737,8.65823,-60.2477
-154,-713,8.56885,60.7595,-0.00224811,0.00431645,0.00323851,0.00564517,-0.00357683,1.18145,0.00536877,0.0122098,1070,1737,8.56887,-60.7596
-147,-713,8.50952,61.2999,-0.00199957,0.00413222,0.00310753,0.0054317,-0.00329904,1.17473,0.00509058,0.0210502,1077,1737,8.50955,-61.3
-140,-713,8.50208,61.8363,-0.00136542,0.00409932,0.00312498,0.00551802,-0.00278411,1.14463,0.0048791,0.0210277,1084,1737,8.50204,-61.8363
-133,-713,8.4447,62.2582,-0.000974784,0.00395416,0.00304478,0.00540687,-0.00242749,1.12562,0.00463092,0.0142768,1091,1737,8.44472,-62.2582
-126,-713,8.43665,62.6879,-0.000859877,0.00369981,0.00294608,0.00514516,-0.00230522,1.1147,0.00440442,0.021388,1098,1737,8.43664,-62.6879
-119,-713,8.40686,63.1146,-0.00076469,0.00355413,0.0030015,0.00509229,-0.00230285,1.09723,0.00436966,0.0287832,1105,1737,8.40682,-63.1146
-112,-713,8.36865,63.6362,-0.000437259,0.00352268,0.00308752,0.00521055,-0.00212513,1.07051,0.00435834,0.0146169,1112,1737,8.36869,-63.6362
-105,-713,8.35449,64.0498,-2.95733e-05,0.00326572,0.00286861,0.00492619,-0.00169004,1.04608,0.00396928,0.011794,1119,1737,8.35443,-64.0498
-98,-713,8.34351,64.4478,0.000288557,0.00299937,0.00259427,0.00457097,-0.00128304,1.02613,0.00355307,0.0115564,1126,1737,8.34356,-64.4477
-91,-713,8.30908,64.8511,0.000597867,0.00278978,0.00228687,0.00422975,-0.000842098,1.00885,0.00313842,0.0115254,1133,1737,8.30912,-64.851
-84,-713,8.28967,65.2496,0.000861277,0.00230515,0.00186384,0.00358199,-0.000415559,0.97017,0.00253788,0.0111035,1140,1737,8.28962,-65.2496
-77,-713,8.27209,65.5951,0.00112827,0.00197369,0.00147878,0.00308899,1.29609e-05,0.924611,0.00205502,0.0143408,1147,1737,8.27215,-65.5951
-70,-713,8.26367,65.9355,0.00141656,0.00167725,0.00103746,0.00259253,0.000501286,0.847891,0.00158785,0.0163613,1154,1737,8.26366,-65.9356
-63,-713,8.26233,66.2972,0.00185805,0.00149601,0.000716363,0.00241591,0.000938152,0.661642,0.00140638,0.0145767,1161,1737,8.26234,-66.2972
-56,-713,8.29321,66.6069,0.00246326,0.00123669,0.000516957,0.00265207,0.00104787,0.350187,0.00154236,0.0135683,1168,1737,8.2932,-66.6069
-49,-713,8.28357,66.8888,0.0030766,0.000875575,0.00021818,0.00309802,0.000854156,0.0978577,0.00184766,0.0165817,1175,1737,8.28355,-66.8888
-42,-713,8.27661,67.146,0.00374824,0.000549276,3.50566e-05,0.00374862,0.000548892,0.010957,0.0023377,0.0203871,1182,1737,8.27656,-67.146
-35,-713,8.33228,67.4148,0.00450959,0.000297697,-7.00173e-05,0.00451076,0.000296533,-0.0166176,0.00291336,0.0162797,1189,1737,8.33226,-67.4148
-28,-713,8.35852,67.6783,0.00521985,-0.000133055,-0.000160992,0.00522469,-0.000137893,-0.0300394,0.00352999,0.0148096,1196,1737,8.35853,-67.6783
-21,-713,8.35168,67.8923,0.00589433,-0.000587914,-0.00022223,0.00590194,-0.000595523,-0.0342292,0.00414741,0.0112743,1203,1737,8.35164,-67.8923
-14,-713,8.36841,68.0859,0.0064368,-0.00113727,-0.0002058,0.00644239,-0.00114286,-0.0271449,0.00472221,0.0121884,1210,1737,8.3684,-68.086
-7,-713,8.42053,68.2863,0.00684879,-0.00160297,-0.000132614,0.00685087,-0.00160505,-0.0156856,0.00518573,0.0103401,1217,1737,8.42054,-68.2862
0,-713,8.46313,68.4662,0.0071673,-0.00181703,6.30852e-05,0.00716775,-0.00181747,0.00702123,0.00548561,0.0158633,1224,1737,8.46316,-68.4662
7,-713,8.48132,68.6125,0.00740386,-0.00197744,0.000254243,0.00741074,-0.00198433,0.0270745,0.00571788,0.0195225,1231,1737,8.48133,-68.6125
14,-713,8.5033,68.7439,0.00750176,-0.00211797,0.000450781,0.00752284,-0.00213905,0.0467235,0.00585986,0.0141157,1238,1737,8.50332,-68.7438
21,-713,8.55969,68.8511,0.00746711,-0.00219175,0.000635547,0.00750875,-0.00223339,0.0654235,0.0058931,0.0121303,1245,1737,8.55971,-68.851
28,-713,8.5918,68.9559,0.00741641,-0.00219498,0.000760832,0.00747626,-0.00225483,0.0785079,0.00588166,0.0125881,1252,1737,8.59182,-68.9559
35,-713,8.62781,69.0256,0.0074316,-0.00169086,0.000735017,0.00749044,-0.00174971,0.0798855,0.00566762,0.0122723,1259,1737,8.62782,-69.0257
42,-713,8.68738,69.062,0.00731346,-0.00102363,0.000700091,0.00737184,-0.00108201,0.0831967,0.00531209,0.0116437,1266,1737,8.68736,-69.062
49,-713,8.73645,69.0549,0.00672399,-0.00119205,0.000518429,0.0067578,-0.00122586,0.0651202,0.00496453,0.0149808,1273,1737,8.73645,-69.0549
56,-713,8.77063,69.0859,0.00619547,-0.0015557,0.000362204,0.00621236,-0.00157259,0.0465936,0.00475329,0.0179575,1280,1737,8.77059,-69.0859
63,-713,8.8197,69.1093,0.00561991,-0.00175141,0.000231894,0.0056272,-0.0017587,0.0314176,0.00445496,0.0166018,1287,1737,8.8197,-69.1092
70,-713,8.86145,69.1079,0.00491756,-0.00223651,8.41655e-05,0.00491855,-0.0022375,0.0117625,0.0042271,0.013675,1294,1737,8.86143,-69.1079
77,-713,8.90747,69.0867,0.00450989,-0.00289263,-5.6722e-05,0.00451033,-0.00289307,-0.00766192,0.00430821,0.0137505,1301,1737,8.90745,-69.0867
84,-713,8.95837,69.0586,0.00397131,-0.00369433,-5.59068e-05,0.00397172,-0.00369473,-0.00729265,0.00442719,0.0137445,1308,1737,8.95843,-69.0586
91,-713,8.98779,68.9971,0.00348444,-0.00432137,-7.46092e-05,0.00348515,-0.00432208,-0.009557,0.00451613,0.0135151,1315,1737,8.98781,-68.997
98,-713,9.00806,68.8987,0.00305971,-0.00504465,2.11614e-06,0.00305971,-0.00504465,0.000261111,0.00472561,0.0126086,1322,1737,9.00804,-68.8987
105,-713,9.02075,68.8051,0.00271908,-0.00569627,0.000159377,0.0027221,-0.00569928,0.0189298,0.00496233,0.0143938,1329,1737,9.02077,-68.805
112,-713,9.06921,68.7007,0.00251384,-0.00609969,0.000328985,0.00252638,-0.00611224,0.03812,0.00512874,0.0153741,1336,1737,9.06922,-68.7006
119,-713,9.08447,68.5509,0.00238347,-0.00620959,0.000531918,0.00241627,-0.0062424,0.0615875,0.00515921,0.0157439,1343,1737,9.08445,-68.5509
126,-713,9.13306,68.3629,0.00237405,-0.00602205,0.000732074,0.00243741,-0.00608541,0.0863241,0.00506867,0.0140491,1350,1737,9.13309,-68.363
133,-713,9.20154,68.1492,0.00237989,-0.0055198,0.000889055,0.00247871,-0.00561862,0.110698,0.00479072,0.0121688,1357,1737,9.2015,-68.1492
140,-713,9.26355,67.9028,0.00230592,-0.00501719,0.00100623,0.00244167,-0.00515293,0.134095,0.00447691,0.0138774,1364,1737,9.26356,-67.9029
147,-713,9.26331,67.6493,0.00232118,-0.00440375,0.000923463,0.00244568,-0.00452826,0.134015,0.00408581,0.0154443,1371,1737,9.26328,-67.6493
154,-713,9.25891,67.4663,0.0026271,-0.00312724,0.000775755,0.00272984,-0.00322998,0.131681,0.00344494,0.0153196,1378,1737,9.25885,-67.4663
161,-713,9.30823,67.1617,0.00277252,-0.00193431,0.000648734,0.0028603,-0.00202208,0.134488,0.00283266,0.0113728,1385,1737,9.3082,-67.1617
168,-713,9.31494,66.8726,0.00286189,-0.00108886,0.000391352,0.00290029,-0.00112726,0.0977912,0.00239924,0.0105936,1392,1737,9.31496,-66.8726
175,-713,9.31177,66.6008,0.00298145,-0.000290517,8.59987e-05,0.00298371,-0.000292776,0.0262593,0.00209356,0.0136079,1399,1737,9.31179,-66.6008
182,-713,9.31921,66.3104,0.00258467,0.000368282,-0.000197409,0.00260211,0.000350836,-0.0881435,0.00163043,0.0125481,1406,1737,9.31925,-66.3105
189,-713,9.33081,65.9785,0.00223549,0.000844991,-0.000510173,0.00240259,0.000677891,-0.316525,0.00143035,0.0120365,1413,1737,9.33075,-65.9786
196,-713,9.34888,65.6376,0.00194451,0.00103787,-0.00073932,0.00235842,0.000623954,-0.510378,0.00141106,0.0128152,1420,1737,9.34893,-65.6376
203,-713,9.35754,65.295,0.00156784,0.00117236,-0.000964879,0.00235504,0.000385171,-0.684329,0.00145868,0.0168655,1427,1737,9.35751,-65.2951
210,-713,9.34216,64.8923,0.00116348,0.0013484,-0.00119458,0.0024541,5.77873e-05,-0.824022,0.00161715,0.0141948,1434,1737,9.34221,-64.8923
217,-713,9.33691,64.5029,0.000745331,0.00157229,-0.00137171,0.00259148,-0.000273864,-0.931783,0.0018258,0.011737,1441,1737,9.33688,-64.5029
224,-713,9.32288,64.1106,0.000384432,0.00173866,-0.00158577,0.00278583,-0.000662735,-0.987178,0.00211306,0.0128163,1448,1737,9.32292,-64.1106
231,-713,9.32166,63.6869,-6.55309e-05,0.00183517,-0.00175974,0.00288478,-0.00111514,-1.03299,0.00238351,0.0127306,1455,1737,9.32163,-63.6869
238,-713,9.28772,63.2487,-0.000480425,0.00197531,-0.00186608,0.00298126,-0.00148637,-1.07639,0.00262707,0.00975703,1462,1737,9.28766,-63.2487
245,-713,9.26306,62.8007,-0.000884277,0.00206819,-0.00198765,0.00306785,-0.00188393,-1.1048,0.00288602,0.0115431,1469,1737,9.26301,-62.8007
252,-713,9.2655,62.3193,-0.00138967,0.00237128,-0.00206626,0.00328466,-0.00230305,-1.15458,0.00324262,0.0109359,1476,1737,9.26545,-62.3193
259,-713,9.27551,61.8221,-0.00183384,0.00258876,-0.00214556,0.00345857,-0.00270365,-1.18564,0.00356665,0.0118182,1483,1737,9.27557,-61.8222
266,-713,9.18494,61.3804,-0.00226857,0.00285789,-0.00227513,0.00372196,-0.00313264,-1.20784,0.00396237,0.011803,1490,1737,9.18497,-61.3804
273,-713,9.13281,60.8942,-0.00280899,0.00320738,-0.00242533,0.00406331,-0.00366492,-1.23153,0.00446387,0.00983165,1497,1737,9.13278,-60.8942
280,-713,9.0813,60.3737,-0.00347352,0.00358546,-0.00260193,0.00444087,-0.00432893,-1.25317,0.00506338,0.0108859,1504,1737,9.08131,-60.3736
287,-713,9.04272,59.8442,-0.00412426,0.00388488,-0.00277266,0.00475106,-0.00499044,-1.268,0.00562482,0.0122591,1511,1737,9.04274,-59.8442
294,-713,9.02734,59.303,-0.0048431,0.00451938,-0.00282615,0.00530633,-0.00563005,-1.29922,0.00631505,0.020498,1518,1737,9.02737,-59.303
301,-713,8.88232,58.6528,-0.00523503,0.00521657,-0.00313966,0.0060872,-0.00610566,-1.30029,0.00703955,0.0371372,1525,1737,8.88226,-58.6528
308,-713,8.76538,58.0101,0,0,0,0,0,0,0,-1,1532,1737,8.76539,-58.0101
315,-713,8.84131,57.2744,0,0,0,0,0,0,0,-1,1539,1737,8.84127,-57.2745
322,-713,9.14771,54.0642,0,0,0,0,0,0,0,-1,1546,1737,9.14768,-54.0642
329,-713,8.90796,56.4283,0,0,0,0,0,0,0,-1,1553,1737,8.9079,-56.4283
336,-713,8.79065,55.9432,0,0,0,0,0,0,0,-1,1560,1737,8.79062,-55.9433
343,-713,8.13171,55.0973,0,0,0,0,0,0,0,-1,1567,1737,8.13177,-55.0973
350,-713,8.63867,47.4143,0,0,0,0,0,0,0,-1,1574,1737,8.6387,-47.4143
357,-713,8.53796,49.5679,0,0,0,0,0,0,0,-1,1581,1737,8.53795,-49.5679
364,-713,7.52661,46.5348,0,0,0,0,0,0,0,-1,1588,1737,7.52664,-46.5347
371,-713,7.3302,45.0861,0,0,0,0,0,0,0,-1,1595,1737,7.33021,-45.0861
378,-713,6.73975,44.3853,0,0,0,0,0,0,0,-1,1602,1737,6.7397,-44.3853
385,-713,6.58777,43.6438,0,0,0,0,0,0,0,-1,1609,1737,6.58781,-43.6438
392,-713,6.62964,42.8679,0,0,0,0,0,0,0,-1,1616,1737,6.62968,-42.868
399,-713,6.53748,42.0555,0,0,0,0,0,0,0,-1,1623,1737,6.53749,-42.0555
406,-713,2.49878,27.8931,0,0,0,0,0,0,0,-1,1630,1737,2.49884,-27.893
413,-713,1.36597,29.459,0,0,0,0,0,0,0,-1,1637,1737,1.36593,-29.459
420,-713,0,0,0,0,0,0,0,0,0,-1,1644,1737,0,0
427,-713,0,0,0,0,0,0,0,0,0,-1,1651,1737,0,0
434,-713,0,0,0,0,0,0,0,0,0,-1,1658,1737,0,0
441,-713,0,0,0,0,0,0,0,0,0,-1,1665,1737,0,0
448,-713,0,0,0,0,0,0,0,0,0,-1,1672,1737,0,0
455,-713,0,0,0,0,0,0,0,0,0,-1,1679,1737,0,0
462,-713,0,0,0,0,0,0,0,0,0,-1,1686,1737,0,0
469,-713,0,0,0,0,0,0,0,0,0,-1,1693,1737,0,0
476,-713,0,0,0,0,0,0,0,0,0,-1,1700,1737,0,0
483,-713,0,0,0,0,0,0,0,0,0,-1,1707,1737,0,0
490,-713,0,0,0,0,0,0,0,0,0,-1,1714,1737,0,0
497,-713,0,0,0,0,0,0,0,0,0,-1,1721,1737,0,0
504,-713,0,0,0,0,0,0,0,0,0,-1,1728,1737,0,0
511,-713,0,0,0,0,0,0,0,0,0,-1,1735,1737,0,0
518,-713,0,0,0,0,0,0,0,0,0,-1,1742,1737,0,0
525,-713,0,0,0,0,0,0,0,0,0,-1,1749,1737,0,0
532,-713,0,0,0,0,0,0,0,0,0,-1,1756,1737,0,0
539,-713,0,0,0,0,0,0,0,0,0,-1,1763,1737,0,0
546,-713,0,0,0,0,0,0,0,0,0,-1,1770,1737,0,0
553,-713,0,0,0,0,0,0,0,0,0,-1,1777,1737,0,0
560,-713,0,0,0,0,0,0,0,0,0,-1,1784,1737,0,0
567,-713,0,0,0,0,0,0,0,0,0,-1,1791,1737,0,0
574,-713,0,0,0,0,0,0,0,0,0,-1,1798,1737,0,0
581,-713,0,0,0,0,0,0,0,0,0,-1,1805,1737,0,0
588,-713,0,0,0,0,0,0,0,0,0,-1,1812,1737,0,0
595,-713,0,0,0,0,0,0,0,0,0,-1,1819,1737,0,0
602,-713,0,0,0,0,0,0,0,0,0,-1,1826,1737,0,0
609,-713,0,0,0,0,0,0,0,0,0,-1,1833,1737,0,0
616,-713,0,0,0,0,0,0,0,0,0,-1,1840,1737,0,0
623,-713,0,0,0,0,0,0,0,0,0,-1,1847,1737,0,0
630,-713,0,0,0,0,0,0,0,0,0,-1,1854,1737,0,0
637,-713,0,0,0,0,0,0,0,0,0,-1,1861,1737,0,0
644,-713,0,0,0,0,0,0,0,0,0,-1,1868,1737,0,0
651,-713,0,0,0,0,0,0,0,0,0,-1,1875,1737,0,0
658,-713,0,0,0,0,0,0,0,0,0,-1,1882,1737,0,0
665,-713,0,0,0,0,0,0,0,0,0,-1,1889,1737,0,0
672,-713,0,0,0,0,0,0,0,0,0,-1,1896,1737,0,0
679,-713,0,0,0,0,0,0,0,0,0,-1,1903,1737,0,0
686,-713,0,0,0,0,0,0,0,0,0,-1,1910,1737,0,0
693,-713,0,0,0,0,0,0,0,0,0,-1,1917,1737,0,0
700,-713,0,0,0,0,0,0,0,0,0,-1,1924,1737,0,0
707,-713,0,0,0,0,0,0,0,0,0,-1,1931,1737,0,0
714,-713,0,0,0,0,0,0,0,0,0,-1,1938,1737,0,0
721,-713,0,0,0,0,0,0,0,0,0,-1,1945,1737,0,0
728,-713,0,0,0,0,0,0,0,0,0,-1,1952,1737,0,0
735,-713,0,0,0,0,0,0,0,0,0,-1,1959,1737,0,0
742,-713,0,0,0,0,0,0,0,0,0,-1,1966,1737,0,0
749,-713,0,0,0,0,0,0,0,0,0,-1,1973,1737,0,0
756,-713,0,0,0,0,0,0,0,0,0,-1,1980,1737,0,0
763,-713,0,0,0,0,0,0,0,0,0,-1,1987,1737,0,0
770,-713,0,0,0,0,0,0,0,0,0,-1,1994,1737,0,0
777,-713,0,0,0,0,0,0,0,0,0,-1,2001,1737,0,0
784,-713,0,0,0,0,0,0,0,0,0,-1,2008,1737,0,0
791,-713,0,0,0,0,0,0,0,0,0,-1,2015,1737,0,0
798,-713,0,0,0,0,0,0,0,0,0,-1,2022,1737,0,0
805,-713,0,0,0,0,0,0,0,0,0,-1,2029,1737,0,0
812,-713,0,0,0,0,0,0,0,0,0,-1,2036,1737,0,0
-700,-720,0,0,0,0,0,0,0,0,0,-1,524,1744,0,0
-693,-720,0,0,0,0,0,0,0,0,0,-1,531,1744,0,0
-686,-720,0,0,0,0,0,0,0,0,0,-1,538,1744,0,0
-679,-720,0,0,0,0,0,0,0,0,0,-1,545,1744,0,0
-672,-720,0,0,0,0,0,0,0,0,0,-1,552,1744,0,0
-665,-720,0,0,0,0,0,0,0,0,0,-1,559,1744,0,0
-658,-720,0,0,0,0,0,0,0,0,0,-1,566,1744,0,0
-651,-720,0,0,0,0,0,0,0,0,0,-1,573,1744,0,0
-644,-720,0,0,0,0,0,0,0,0,0,-1,580,1744,0,0
-637,-720,0,0,0,0,0,0,0,0,0,-1,587,1744,0,0
-630,-720,0,0,0,0,0,0,0,0,0,-1,594,1744,0,0
-623,-720,0,0,0,0,0,0,0,0,0,-1,601,1744,0,0
-616,-720,0,0,0,0,0,0,0,0,0,-1,608,1744,0,0
-609,-720,0,0,0,0,0,0,0,0,0,-1,615,1744,0,0
-602,-720,0,0,0,0,0,0,0,0,0,-1,622,1744,0,0
-595,-720,0,0,0,0,0,0,0,0,0,-1,629,1744,0,0
-588,-720,0,0,0,0,0,0,0,0,0,-1,636,1744,0,0
-581,-720,0,0,0,0,0,0,0,0,0,-1,643,1744,0,0
-574,-720,0,0,0,0,0,0,0,0,0,-1,650,1744,0,0
-567,-720,0,0,0,0,0,0,0,0,0,-1,657,1744,0,0
-560,-720,0,0,0,0,0,0,0,0,0,-1,664,1744,0,0
-553,-720,0,0,0,0,0,0,0,0,0,-1,671,1744,0,0
-546,-720,0,0,0,0,0,0,0,0,0,-1,678,1744,0,0
-539,-720,0,0,0,0,0,0,0,0,0,-1,685,1744,0,0
-532,-720,0,0,0,0,0,0,0,0,0,-1,692,1744,0,0
-525,-720,0,0,0,0,0,0,0,0,0,-1,699,1744,0,0
-518,-720,0,0,0,0,0,0,0,0,0,-1,706,1744,0,0
-511,-720,0,0,0,0,0,0,0,0,0,-1,713,1744,0,0
-504,-720,0,0,0,0,0,0,0,0,0,-1,720,1744,0,0
-497,-720,0,0,0,0,0,0,0,0,0,-1,727,1744,0,0
-490,-720,0,0,0,0,0,0,0,0,0,-1,734,1744,0,0
-483,-720,0,0,0,0,0,0,0,0,0,-1,741,1744,0,0
-476,-720,0,0,0,0,0,0,0,0,0,-1,748,1744,0,0
-469,-720,0,0,0,0,0,0,0,0,0,-1,755,1744,0,0
-462,-720,0,0,0,0,0,0,0,0,0,-1,762,1744,0,0
-455,-720,0,0,0,0,0,0,0,0,0,-1,769,1744,0,0
-448,-720,0,0,0,0,0,0,0,0,0,-1,776,1744,0,0
-441,-720,0,0,0,0,0,0,0,0,0,-1,783,1744,0,0
-434,-720,0,0,0,0,0,0,0,0,0,-1,790,1744,0,0
-427,-720,0,0,0,0,0,0,0,0,0,-1,797,1744,0,0
-420,-720,0,0,0,0,0,0,0,0,0,-1,804,1744,0,0
-413,-720,0,0,0,0,0,0,0,0,0,-1,811,1744,0,0
-406,-720,0,0,0,0,0,0,0,0,0,-1,818,1744,0,0
-399,-720,0,0,0,0,0,0,0,0,0,-1,825,1744,0,0
-392,-720,0,0,0,0,0,0,0,0,0,-1,832,1744,0,0
-385,-720,0,0,0,0,0,0,0,0,0,-1,839,1744,0,0
-378,-720,0,0,0,0,0,0,0,0,0,-1,846,1744,0,0
-371,-720,0,0,0,0,0,0,0,0,0,-1,853,1744,0,0
-364,-720,0,0,0,0,0,0,0,0,0,-1,860,1744,0,0
-357,-720,0,0,0,0,0,0,0,0,0,-1,867,1744,0,0
-350,-720,0,0,0,0,0,0,0,0,0,-1,874,1744,0,0
-343,-720,0,0,0,0,0,0,0,0,0,-1,881,1744,0,0
-336,-720,0,0,0,0,0,0,0,0,0,-1,888,1744,0,0
-329,-720,0,0,0,0,0,0,0,0,0,-1,895,1744,0,0
-322,-720,0,0,0,0,0,0,0,0,0,-1,902,1744,0,0
-315,-720,0,0,0,0,0,0,0,0,0,-1,909,1744,0,0
-308,-720,0,0,0,0,0,0,0,0,0,-1,916,1744,0,0
-301,-720,0,0,0,0,0,0,0,0,0,-1,923,1744,0,0
-294,-720,0,0,0,0,0,0,0,0,0,-1,930,1744,0,0
-287,-720,0,0,0,0,0,0,0,0,0,-1,937,1744,0,0
-280,-720,6.46796,22.6417,0,0,0,0,0,0,0,-1,944,1744,6.46793,-22.6417
-273,-720,8.54633,13.262,0,0,0,0,0,0,0,-1,951,1744,8.54636,-13.2619
-266,-720,7.28027,13.3165,0,0,0,0,0,0,0,-1,958,1744,7.28026,-13.3166
-259,-720,3.70563,18.6372,0,0,0,0,0,0,0,-1,965,1744,3.70564,-18.6372
-252,-720,4.00989,18.5059,0,0,0,0,0,0,0,-1,972,1744,4.00988,-18.5058
-245,-720,7.05634,33.8489,0,0,0,0,0,0,0,-1,979,1744,7.05634,-33.8489
-238,-720,5.02216,24.1455,0,0,0,0,0,0,0,-1,986,1744,5.02217,-24.1455
-231,-720,9.45819,50.8396,0,0,0,0,0,0,0,-1,993,1744,9.45816,-50.8396
-224,-720,10.0804,54.4775,0,0,0,0,0,0,0,-1,1000,1744,10.0805,-54.4775
-217,-720,9.41168,53.88,0,0,0,0,0,0,0,-1,1007,1744,9.41166,-53.88
-210,-720,8.74036,38.6686,0,0,0,0,0,0,0,-1,1014,1744,8.74035,-38.6686
-203,-720,9.78491,55.988,0,0,0,0,0,0,0,-1,1021,1744,9.78494,-55.9881
-196,-720,9.52136,57.5979,0,0,0,0,0,0,0,-1,1028,1744,9.52134,-57.5979
-189,-720,9.06042,58.1238,0,0,0,0,0,0,0,-1,1035,1744,9.06043,-58.1238
-182,-720,8.98401,58.4261,0,0,0,0,0,0,0,-1,1042,1744,8.98404,-58.4262
-175,-720,9.36426,59.1643,-0.00316677,0.010663,0.00591417,0.0128472,-0.00535095,1.21702,0.0107998,0.0458522,1049,1744,9.3642,-59.1643
-168,-720,9.4104,59.6578,-0.00267131,0.00911426,0.00515373,0.01105,-0.00460705,1.2115,0.00929122,0.0379168,1056,1744,9.41041,-59.6578
-161,-720,9.14685,60.1753,0,0,0,0,0,0,0,-1,1063,1744,9.14687,-60.1753
-154,-720,9.07751,60.7712,-0.00279684,0.00673014,0.00437184,0.00843224,-0.00449894,1.19952,0.00758007,0.0241593,1070,1744,9.0775,-60.7712
-147,-720,9.01282,61.3795,-0.00263359,0.0065146,0.0043685,0.00826555,-0.00438453,1.18959,0.00741721,0.0266414,1077,1744,9.01278,-61.3795
-140,-720,8.97437,61.8888,-0.00201892,0.00652416,0.00451456,0.00846771,-0.00396246,1.16427,0.00733201,0.0231212,1084,1744,8.97434,-61.8887
-133,-720,8.89514,62.2765,-0.00171881,0.00634372,0.00451236,0.00836328,-0.00373837,1.14997,0.00715494,0.0166789,1091,1744,8.8951,-62.2765
-126,-720,8.85986,62.7341,-0.00175107,0.00599064,0.00447797,0.00803888,-0.00379931,1.1418,0.00697936,0.0158451,1098,1744,8.85988,-62.7341
-119,-720,8.81958,63.1805,-0.00182694,0.00574783,0.00461301,0.00792904,-0.00400815,1.12911,0.00701477,0.0169642,1105,1744,8.81955,-63.1805
-112,-720,8.77295,63.6229,-0.00159916,0.00572353,0.0047995,0.00809879,-0.00397442,1.11124,0.00710475,0.0155136,1112,1744,8.77297,-63.6229
-105,-720,8.73596,64.0352,-0.00124931,0.00536087,0.00457101,0.0076965,-0.00358495,1.09841,0.00665598,0.0138757,1119,1744,8.73598,-64.0352
-98,-720,8.71826,64.4482,-0.000994061,0.00499388,0.00425404,0.0072019,-0.00320208,1.09203,0.00615293,0.0107843,1126,1744,8.71831,-64.4483
-91,-720,8.68738,64.8646,-0.000765016,0.00463074,0.00389461,0.00667064,-0.00280492,1.08831,0.00562043,0.010437,1133,1744,8.68741,-64.8647
-84,-720,8.65845,65.2527,-0.000673029,0.00369848,0.00334534,0.00550883,-0.00248338,1.07477,0.00472322,0.0123476,1140,1744,8.65848,-65.2526
-77,-720,8.63721,65.619,-0.000540799,0.00304466,0.00285249,0.00462099,-0.00211713,1.06595,0.00397878,0.0153177,1147,1744,8.63723,-65.619
-70,-720,8.61157,65.9415,-0.000361271,0.0026389,0.0022676,0.00385769,-0.00158006,1.07762,0.00322998,0.0128641,1154,1744,8.61155,-65.9416
-63,-720,8.59631,66.2958,-0.000206959,0.00238719,0.0017405,0.00326077,-0.00108054,1.10562,0.00260969,0.0119728,1161,1744,8.5963,-66.2957
-56,-720,8.61633,66.603,2.27464e-05,0.00208561,0.00130383,0.00271666,-0.000608299,1.12004,0.00204426,0.0141052,1168,1744,8.61634,-66.603
-49,-720,8.58228,66.8881,0.000219906,0.00148763,0.000878591,0.00193714,-0.000229608,1.09789,0.00137437,0.0201404,1175,1744,8.58226,-66.8881
-42,-720,8.58044,67.1415,0.000507189,0.00107067,0.000726017,0.0015677,1.01625e-05,0.970485,0.00104176,0.0229544,1182,1744,8.58039,-67.1415
-35,-720,8.60632,67.385,0.000887343,0.000477193,0.000682033,0.00139446,-2.99289e-05,0.639357,0.000939778,0.0201923,1189,1744,8.60634,-67.385
-28,-720,8.60962,67.6658,0.00125772,-0.000204781,0.00063312,0.00149372,-0.000440779,0.356799,0.00117073,0.0116828,1196,1744,8.60967,-67.6658
-21,-720,8.58325,67.9138,0.00162513,-0.000929135,0.000647922,0.00178008,-0.00108409,0.234745,0.00166983,0.00968859,1203,1744,8.58331,-67.9139
-14,-720,8.5824,68.0991,0.00194678,-0.00162476,0.000689165,0.00207515,-0.00175313,0.184155,0.00221286,0.011538,1210,1744,8.58235,-68.0991
-7,-720,8.60913,68.2996,0.00221485,-0.0022256,0.000723388,0.00232972,-0.00234047,0.157486,0.00269634,0.0127469,1217,1744,8.60912,-68.2996
0,-720,8.62341,68.4916,0.00247091,-0.0024898,0.000829692,0.002606,-0.00262489,0.161403,0.00302006,0.0140244,1224,1744,8.62342,-68.4916
7,-720,8.62524,68.6334,0.00271607,-0.00262459,0.00090126,0.00286406,-0.00277258,0.162752,0.00325446,0.0162174,1231,1744,8.62523,-68.6334
14,-720,8.64392,68.7549,0.00291657,-0.00263893,0.000949819,0.00307448,-0.00279683,0.164737,0.00339106,0.0150349,1238,1744,8.64393,-68.7549
21,-720,8.66699,68.8673,0.00306808,-0.00252895,0.000961668,0.0032287,-0.00268957,0.165497,0.00342164,0.0122763,1245,1744,8.66696,-68.8673
28,-720,8.68457,68.9652,0.00325271,-0.00232488,0.000899308,0.00339412,-0.0024663,0.155972,0.00339762,0.0120476,1252,1744,8.68459,-68.9652
35,-720,8.70715,69.0414,0.00343756,-0.00206055,0.000824305,0.00355849,-0.00218147,0.14566,0.0033456,0.0114686,1259,1744,8.70712,-69.0414
42,-720,8.72864,69.094,0.0035173,-0.00181113,0.000757545,0.00362291,-0.00191674,0.138515,0.00324849,0.0115696,1266,1744,8.72865,-69.094
49,-720,8.76904,69.099,0.00331002,-0.0019465,0.000611782,0.00338029,-0.00201676,0.114349,0.00314896,0.0151111,1273,1744,8.76901,-69.099
56,-720,8.77991,69.1228,0.00310291,-0.0023529,0.000522162,0.00315243,-0.00240243,0.0945636,0.00321683,0.0151961,1280,1744,8.77985,-69.1228
63,-720,8.81274,69.1355,0.00286542,-0.00274643,0.000433112,0.00289865,-0.00277966,0.0765737,0.00327861,0.0159579,1287,1744,8.81279,-69.1356
70,-720,8.86523,69.1365,0.00259011,-0.00325763,0.000322586,0.00260785,-0.00327537,0.054942,0.00340396,0.0145672,1294,1744,8.86527,-69.1365
77,-720,8.88867,69.1034,0.00244705,-0.00384803,0.00024064,0.00245624,-0.00385721,0.0381525,0.00367486,0.0161279,1301,1744,8.88868,-69.1034
84,-720,8.90894,69.0203,0.00221192,-0.00440497,0.000215846,0.00221896,-0.00441201,0.0325742,0.00389755,0.0152093,1308,1744,8.90894,-69.0202
91,-720,8.9198,68.939,0.00198013,-0.00480115,0.000201898,0.00198614,-0.00480715,0.0297377,0.00403326,0.0154942,1315,1744,8.91975,-68.9389
98,-720,8.89307,68.8751,0.00182753,-0.00516766,0.000238226,0.00183563,-0.00517576,0.0340031,0.00419835,0.0143478,1322,1744,8.89307,-68.8751
105,-720,8.92163,68.7861,0.00171356,-0.00542851,0.000325993,0.0017284,-0.00544336,0.045518,0.00432183,0.0124982,1329,1744,8.92164,-68.7862
112,-720,8.96118,68.6581,0.00165638,-0.00544698,0.000372636,0.00167588,-0.00546648,0.0522679,0.00431288,0.0122751,1336,1744,8.96115,-68.658
119,-720,8.95313,68.5144,0.00158712,-0.00524732,0.000418491,0.00161265,-0.00527285,0.0609293,0.00415836,0.0125426,1343,1744,8.95313,-68.5144
126,-720,8.98022,68.3442,0.00157433,-0.0048211,0.000470213,0.00160872,-0.00485549,0.073,0.00388586,0.0118154,1350,1744,8.98017,-68.3443
133,-720,9.01123,68.1503,0.00152986,-0.00415777,0.000500478,0.00157357,-0.00420147,0.0871022,0.00344737,0.0130689,1357,1744,9.01125,-68.1502
140,-720,9.04016,67.936,0.00141561,-0.00333159,0.000442581,0.00145652,-0.0033725,0.0921716,0.00286025,0.0202265,1364,1744,9.04017,-67.9361
147,-720,9.02087,67.6705,0.00132332,-0.00247087,0.000251775,0.00133995,-0.0024875,0.0659727,0.00224264,0.0204318,1371,1744,9.02087,-67.6705
154,-720,8.99658,67.4421,0.0013262,-0.00148794,5.06062e-05,0.00132711,-0.00148885,0.0179751,0.00162669,0.0135325,1378,1744,8.9966,-67.4422
161,-720,9.04602,67.1759,0.00120159,-0.000584624,-0.000139664,0.00121244,-0.000595479,-0.077562,0.00106387,0.0102412,1385,1744,9.04601,-67.176
168,-720,9.04309,66.8932,0.000960324,9.21638e-05,-0.000409537,0.00112302,-7.0536e-05,-0.378157,0.000773268,0.0102161,1392,1744,9.04305,-66.8932
175,-720,9.02148,66.5955,0.000730855,0.000666254,-0.000694829,0.00139413,2.9754e-06,-0.762171,0.000928432,0.0169073,1399,1744,9.02152,-66.5954
182,-720,9.01294,66.3169,0.000426489,0.00110534,-0.000955849,0.00178024,-0.000248411,-0.956005,0.00127771,0.0160212,1406,1744,9.01299,-66.3169
189,-720,9.01404,66.0125,0.000193239,0.00149507,-0.00123625,0.0022413,-0.000552987,-1.02772,0.00170862,0.013158,1413,1744,9.01402,-66.0125
196,-720,9.01953,65.653,-0.000126438,0.00166943,-0.00148496,0.00250683,-0.000963843,-1.05733,0.00206875,0.0143214,1420,1744,9.01948,-65.6529
203,-720,8.98792,65.2827,-0.000508134,0.00175686,-0.0017042,0.00267054,-0.00142181,-1.07866,0.0023991,0.0160556,1427,1744,8.9879,-65.2827
210,-720,8.97498,64.9078,-0.000803405,0.00201914,-0.00195039,0.0030153,-0.00179956,-1.09859,0.00280924,0.0142929,1434,1744,8.97503,-64.9078
217,-720,8.95215,64.4979,-0.00106822,0.00235163,-0.00215063,0.00338926,-0.00210584,-1.12127,0.00320131,0.0138061,1441,1744,8.9521,-64.4979
224,-720,8.92493,64.0802,-0.0012702,0.00257189,-0.00237286,0.00370385,-0.00240217,-1.12568,0.00355191,0.0103208,1448,1744,8.92497,-64.0802
231,-720,8.91711,63.673,-0.00163093,0.00267519,-0.00252633,0.00384147,-0.0027972,-1.1383,0.00384861,0.0110083,1455,1744,8.91714,-63.673
238,-720,8.87854,63.2393,-0.00196111,0.00284382,-0.00260326,0.00398379,-0.00310108,-1.15805,0.00410102,0.0100195,1462,1744,8.87851,-63.2392
245,-720,8.83728,62.8234,-0.00227513,0.00294245,-0.00273863,0.00411597,-0.00344865,-1.16596,0.0043731,0.0121335,1469,1744,8.8373,-62.8233
252,-720,8.81348,62.3507,-0.00273844,0.00329626,-0.00285177,0.00443066,-0.00387283,-1.1922,0.00479762,0.0112728,1476,1744,8.81342,-62.3507
259,-720,8.77466,61.8662,-0.00312973,0.00355743,-0.00292784,0.00465814,-0.00423045,-1.21119,0.00513381,0.0105437,1483,1744,8.77469,-61.8662
266,-720,8.72754,61.3781,-0.00353629,0.00391573,-0.00303815,0.00499737,-0.00461793,-1.22877,0.00555284,0.00881376,1490,1744,8.72757,-61.3781
273,-720,8.68005,60.8746,-0.00409375,0.00438751,-0.00322186,0.0054726,-0.00517884,-1.24594,0.00615039,0.0144474,1497,1744,8.68007,-60.8746
280,-720,8.57397,60.3809,-0.00479644,0.00489222,-0.00344596,0.00599282,-0.00589704,-1.26165,0.00686469,0.0215577,1504,1744,8.57393,-60.3809
287,-720,8.48145,59.7858,-0.00552191,0.00532681,-0.00367155,0.00645256,-0.00664766,-1.27328,0.0075637,0.0369762,1511,1744,8.48142,-59.7858
294,-720,8.5614,59.2858,0,0,0,0,0,0,0,-1,1518,1744,8.56137,-59.2857
301,-720,8.28406,58.5391,0,0,0,0,0,0,0,-1,1525,1744,8.28406,-58.5391
308,-720,8.48608,51.5551,0,0,0,0,0,0,0,-1,1532,1744,8.48612,-51.555
315,-720,8.66516,48.6633,0,0,0,0,0,0,0,-1,1539,1744,8.6651,-48.6633
322,-720,8.98181,43.5223,0,0,0,0,0,0,0,-1,1546,1744,8.98176,-43.5223
329,-720,9.15906,34.7668,0,0,0,0,0,0,0,-1,1553,1744,9.1591,-34.7669
336,-720,6.14148,26.5682,0,0,0,0,0,0,0,-1,1560,1744,6.14151,-26.5683
343,-720,6.78552,21.3625,0,0,0,0,0,0,0,-1,1567,1744,6.78551,-21.3625
350,-720,4.0741,11.1836,0,0,0,0,0,0,0,-1,1574,1744,4.07412,-11.1836
357,-720,6.90833,21.4504,0,0,0,0,0,0,0,-1,1581,1744,6.90827,-21.4505
364,-720,6.59497,44.1384,0,0,0,0,0,0,0,-1,1588,1744,6.59492,-44.1385
371,-720,6.67773,45.2386,0,0,0,0,0,0,0,-1,1595,1744,6.67779,-45.2386
378,-720,3.88257,25.5404,0,0,0,0,0,0,0,-1,1602,1744,3.88262,-25.5404
385,-720,4.672,37.3854,0,0,0,0,0,0,0,-1,1609,1744,4.67202,-37.3854
392,-720,4.89319,36.2684,0,0,0,0,0,0,0,-1,1616,1744,4.89323,-36.2684
399,-720,2.37317,24.7166,0,0,0,0,0,0,0,-1,1623,1744,2.37317,-24.7166
406,-720,0,0,0,0,0,0,0,0,0,-1,1630,1744,0,0
413,-720,0,0,0,0,0,0,0,0,0,-1,1637,1744,0,0
420,-720,0,0,0,0,0,0,0,0,0,-1,1644,1744,0,0
427,-720,0,0,0,0,0,0,0,0,0,-1,1651,1744,0,0
434,-720,0,0,0,0,0,0,0,0,0,-1,1658,1744,0,0
441,-720,0,0,0,0,0,0,0,0,0,-1,1665,1744,0,0
448,-720,0,0,0,0,0,0,0,0,0,-1,1672,1744,0,0
455,-720,0,0,0,0,0,0,0,0,0,-1,1679,1744,0,0
462,-720,0,0,0,0,0,0,0,0,0,-1,1686,1744,0,0
469,-720,0,0,0,0,0,0,0,0,0,-1,1693,1744,0,0
476,-720,0,0,0,0,0,0,0,0,0,-1,1700,1744,0,0
483,-720,0,0,0,0,0,0,0,0,0,-1,1707,1744,0,0
490,-720,0,0,0,0,0,0,0,0,0,-1,1714,1744,0,0
497,-720,0,0,0,0,0,0,0,0,0,-1,1721,1744,0,0
504,-720,0,0,0,0,0,0,0,0,0,-1,1728,1744,0,0
511,-720,0,0,0,0,0,0,0,0,0,-1,1735,1744,0,0
518,-720,0,0,0,0,0,0,0,0,0,-1,1742,1744,0,0
525,-720,0,0,0,0,0,0,0,0,0,-1,1749,1744,0,0
532,-720,0,0,0,0,0,0,0,0,0,-1,1756,1744,0,0
539,-720,0,0,0,0,0,0,0,0,0,-1,1763,1744,0,0
546,-720,0,0,0,0,0,0,0,0,0,-1,1770,1744,0,0
553,-720,0,0,0,0,0,0,0,0,0,-1,1777,1744,0,0
560,-720,0,0,0,0,0,0,0,0,0,-1,1784,1744,0,0
567,-720,0,0,0,0,0,0,0,0,0,-1,1791,1744,0,0
574,-720,0,0,0,0,0,0,0,0,0,-1,1798,1744,0,0
581,-720,0,0,0,0,0,0,0,0,0,-1,1805,1744,0,0
588,-720,0,0,0,0,0,0,0,0,0,-1,1812,1744,0,0
595,-720,0,0,0,0,0,0,0,0,0,-1,1819,1744,0,0
602,-720,0,0,0,0,0,0,0,0,0,-1,1826,1744,0,0
609,-720,0,0,0,0,0,0,0,0,0,-1,1833,1744,0,0
616,-720,0,0,0,0,0,0,0,0,0,-1,1840,1744,0,0
623,-720,0,0,0,0,0,0,0,0,0,-1,1847,1744,0,0
630,-720,0,0,0,0,0,0,0,0,0,-1,1854,1744,0,0
637,-720,0,0,0,0,0,0,0,0,0,-1,1861,1744,0,0
644,-720,0,0,0,0,0,0,0,0,0,-1,1868,1744,0,0
651,-720,0,0,0,0,0,0,0,0,0,-1,1875,1744,0,0
658,-720,0,0,0,0,0,0,0,0,0,-1,1882,1744,0,0
665,-720,0,0,0,0,0,0,0,0,0,-1,1889,1744,0,0
672,-720,0,0,0,0,0,0,0,0,0,-1,1896,1744,0,0
679,-720,0,0,0,0,0,0,0,0,0,-1,1903,1744,0,0
686,-720,0,0,0,0,0,0,0,0,0,-1,1910,1744,0,0
693,-720,0,0,0,0,0,0,0,0,0,-1,1917,1744,0,0
700,-720,0,0,0,0,0,0,0,0,0,-1,1924,1744,0,0
707,-720,0,0,0,0,0,0,0,0,0,-1,1931,1744,0,0
714,-720,0,0,0,0,0,0,0,0,0,-1,1938,1744,0,0
721,-720,0,0,0,0,0,0,0,0,0,-1,1945,1744,0,0
728,-720,0,0,0,0,0,0,0,0,0,-1,1952,1744,0,0
735,-720,0,0,0,0,0,0,0,0,0,-1,1959,1744,0,0
742,-720,0,0,0,0,0,0,0,0,0,-1,1966,1744,0,0
749,-720,0,0,0,0,0,0,0,0,0,-1,1973,1744,0,0
756,-720,0,0,0,0,0,0,0,0,0,-1,1980,1744,0,0
763,-720,0,0,0,0,0,0,0,0,0,-1,1987,1744,0,0
770,-720,0,0,0,0,0,0,0,0,0,-1,1994,1744,0,0
777,-720,0,0,0,0,0,0,0,0,0,-1,2001,1744,0,0
784,-720,0,0,0,0,0,0,0,0,0,-1,2008,1744,0,0
791,-720,0,0,0,0,0,0,0,0,0,-1,2015,1744,0,0
798,-720,0,0,0,0,0,0,0,0,0,-1,2022,1744,0,0
805,-720,0,0,0,0,0,0,0,0,0,-1,2029,1744,0,0
812,-720,0,0,0,0,0,0,0,0,0,-1,2036,1744,0,0
-700,-727,0,0,0,0,0,0,0,0,0,-1,524,1751,0,0
-693,-727,0,0,0,0,0,0,0,0,0,-1,531,1751,0,0
-686,-727,0,0,0,0,0,0,0,0,0,-1,538,1751,0,0
-679,-727,0,0,0,0,0,0,0,0,0,-1,545,1751,0,0
-672,-727,0,0,0,0,0,0,0,0,0,-1,552,1751,0,0
-665,-727,0,0,0,0,0,0,0,0,0,-1,559,1751,0,0
-658,-727,0,0,0,0,0,0,0,0,0,-1,566,1751,0,0
-651,-727,0,0,0,0,0,0,0,0,0,-1,573,1751,0,0
-644,-727,0,0,0,0,0,0,0,0,0,-1,580,1751,0,0
-637,-727,0,0,0,0,0,0,0,0,0,-1,587,1751,0,0
-630,-727,0,0,0,0,0,0,0,0,0,-1,594,1751,0,0
-623,-727,0,0,0,0,0,0,0,0,0,-1,601,1751,0,0
-616,-727,0,0,0,0,0,0,0,0,0,-1,608,1751,0,0
-609,-727,0,0,0,0,0,0,0,0,0,-1,615,1751,0,0
-602,-727,0,0,0,0,0,0,0,0,0,-1,622,1751,0,0
-595,-727,0,0,0,0,0,0,0,0,0,-1,629,1751,0,0
-588,-727,0,0,0,0,0,0,0,0,0,-1,636,1751,0,0
-581,-727,0,0,0,0,0,0,0,0,0,-1,643,1751,0,0
-574,-727,0,0,0,0,0,0,0,0,0,-1,650,1751,0,0
-567,-727,0,0,0,0,0,0,0,0,0,-1,657,1751,0,0
-560,-727,0,0,0,0,0,0,0,0,0,-1,664,1751,0,0
-553,-727,0,0,0,0,0,0,0,0,0,-1,671,1751,0,0
-546,-727,0,0,0,0,0,0,0,0,0,-1,678,1751,0,0
-539,-727,0,0,0,0,0,0,0,0,0,-1,685,1751,0,0
-532,-727,0,0,0,0,0,0,0,0,0,-1,692,1751,0,0
-525,-727,0,0,0,0,0,0,0,0,0,-1,699,1751,0,0
-518,-727,0,0,0,0,0,0,0,0,0,-1,706,1751,0,0
-511,-727,0,0,0,0,0,0,0,0,0,-1,713,1751,0,0
-504,-727,0,0,0,0,0,0,0,0,0,-1,720,1751,0,0
-497,-727,0,0,0,0,0,0,0,0,0,-1,727,1751,0,0
-490,-727,0,0,0,0,0,0,0,0,0,-1,734,1751,0,0
-483,-727,0,0,0,0,0,0,0,0,0,-1,741,1751,0,0
-476,-727,0,0,0,0,0,0,0,0,0,-1,748,1751,0,0
-469,-727,0,0,0,0,0,0,0,0,0,-1,755,1751,0,0
-462,-727,0,0,0,0,0,0,0,0,0,-1,762,1751,0,0
-455,-727,0,0,0,0,0,0,0,0,0,-1,769,1751,0,0
-448,-727,0,0,0,0,0,0,0,0,0,-1,776,1751,0,0
-441,-727,0,0,0,0,0,0,0,0,0,-1,783,1751,0,0
-434,-727,0,0,0,0,0,0,0,0,0,-1,790,1751,0,0
-427,-727,0,0,0,0,0,0,0,0,0,-1,797,1751,0,0
-420,-727,0,0,0,0,0,0,0,0,0,-1,804,1751,0,0
-413,-727,0,0,0,0,0,0,0,0,0,-1,811,1751,0,0
-406,-727,0,0,0,0,0,0,0,0,0,-1,818,1751,0,0
-399,-727,0,0,0,0,0,0,0,0,0,-1,825,1751,0,0
-392,-727,0,0,0,0,0,0,0,0,0,-1,832,1751,0,0
-385,-727,0,0,0,0,0,0,0,0,0,-1,839,1751,0,0
-378,-727,0,0,0,0,0,0,0,0,0,-1,846,1751,0,0
-371,-727,0,0,0,0,0,0,0,0,0,-1,853,1751,0,0
-364,-727,0,0,0,0,0,0,0,0,0,-1,860,1751,0,0
-357,-727,0,0,0,0,0,0,0,0,0,-1,867,1751,0,0
-350,-727,0,0,0,0,0,0,0,0,0,-1,874,1751,0,0
-343,-727,0,0,0,0,0,0,0,0,0,-1,881,1751,0,0
-336,-727,0,0,0,0,0,0,0,0,0,-1,888,1751,0,0
-329,-727,0,0,0,0,0,0,0,0,0,-1,895,1751,0,0
-322,-727,0,0,0,0,0,0,0,0,0,-1,902,1751,0,0
-315,-727,0,0,0,0,0,0,0,0,0,-1,909,1751,0,0
-308,-727,0,0,0,0,0,0,0,0,0,-1,916,1751,0,0
-301,-727,0,0,0,0,0,0,0,0,0,-1,923,1751,0,0
-294,-727,0,0,0,0,0,0,0,0,0,-1,930,1751,0,0
-287,-727,0,0,0,0,0,0,0,0,0,-1,937,1751,0,0
-280,-727,0,0,0,0,0,0,0,0,0,-1,944,1751,0,0
-273,-727,0,0,0,0,0,0,0,0,0,-1,951,1751,0,0
-266,-727,4.24805,7.61145,0,0,0,0,0,0,0,-1,958,1751,4.24802,-7.6115
-259,-727,3.65228,5.4082,0,0,0,0,0,0,0,-1,965,1751,3.65229,-5.40818
-252,-727,5.8797,32.9292,0,0,0,0,0,0,0,-1,972,1751,5.87972,-32.9292
-245,-727,6.59198,32.2588,0,0,0,0,0,0,0,-1,979,1751,6.59195,-32.2587
-238,-727,6.6189,30.4597,0,0,0,0,0,0,0,-1,986,1751,6.61889,-30.4598
-231,-727,9.95819,51.5021,0,0,0,0,0,0,0,-1,993,1751,9.95818,-51.5021
-224,-727,10.0845,52.0088,0,0,0,0,0,0,0,-1,1000,1751,10.0845,-52.0088
-217,-727,10.2109,52.5154,0,0,0,0,0,0,0,-1,1007,1751,10.2109,-52.5154
-210,-727,5.0921,32.4524,0,0,0,0,0,0,0,-1,1014,1751,5.09209,-32.4523
-203,-727,14.1763,48.6819,0,0,0,0,0,0,0,-1,1021,1751,14.1763,-48.6819
-196,-727,13.0454,48.5956,0,0,0,0,0,0,0,-1,1028,1751,13.0455,-48.5955
-189,-727,10.3168,48.1697,0,0,0,0,0,0,0,-1,1035,1751,10.3168,-48.1697
-182,-727,10.214,57.3904,0,0,0,0,0,0,0,-1,1042,1751,10.214,-57.3903
-175,-727,9.96631,59.2581,0,0,0,0,0,0,0,-1,1049,1751,9.96626,-59.258
-168,-727,9.97986,59.6929,0,0,0,0,0,0,0,-1,1056,1751,9.97981,-59.6928
-161,-727,9.26465,59.5532,0,0,0,0,0,0,0,-1,1063,1751,9.2647,-59.5532
-154,-727,9.59338,60.6781,0,0,0,0,0,0,0,-1,1070,1751,9.59338,-60.6781
-147,-727,9.06946,61.2076,0,0,0,0,0,0,0,-1,1077,1751,9.0694,-61.2076
-140,-727,9.2699,61.5861,-0.0023063,0.0096367,0.00642849,0.0124393,-0.00510887,1.15968,0.0104219,0.0363202,1084,1751,9.26994,-61.5861
-133,-727,9.3501,62.1393,-0.00214424,0.00944327,0.00653205,0.0123808,-0.00508177,1.14818,0.0103714,0.0267099,1091,1751,9.35004,-62.1393
-126,-727,9.24487,62.7188,-0.00234545,0.00898553,0.00656971,0.0119952,-0.00535515,1.14121,0.0102589,0.023069,1098,1751,9.24483,-62.7188
-119,-727,9.19116,63.0883,0,0,0,0,0,0,0,-1,1105,1751,9.19117,-63.0883
-112,-727,8.8988,63.1891,0,0,0,0,0,0,0,-1,1112,1751,8.89884,-63.189
-105,-727,8.99622,63.8129,-0.0022455,0.00803667,0.00669653,0.011338,-0.00554682,1.11277,0.00993774,0.0472366,1119,1751,8.99625,-63.8129
-98,-727,9.06262,64.428,-0.00208875,0.00749244,0.00626732,0.0105904,-0.0051867,1.11172,0.00928529,0.0172534,1126,1751,9.06261,-64.428
-91,-727,9.06055,64.8459,-0.00196049,0.00688559,0.00579857,0.00975547,-0.00483037,1.11121,0.00857967,0.0130666,1133,1751,9.06054,-64.846
-84,-727,9.01501,65.2408,-0.00206115,0.00537667,0.00505816,0.00793591,-0.0046204,1.10239,0.00733315,0.0132538,1140,1751,9.01501,-65.2409
-77,-727,8.97205,65.5959,-0.0020909,0.00428688,0.00438391,0.00651902,-0.00432305,1.09984,0.00630233,0.0141627,1147,1751,8.97201,-65.596
-70,-727,8.95361,65.9713,-0.00205378,0.00366946,0.00357706,0.0053887,-0.00377301,1.12277,0.00531686,0.0144883,1154,1751,8.95364,-65.9713
-63,-727,8.93591,66.3293,-0.00212373,0.00345567,0.00278195,0.00460573,-0.00327378,1.17879,0.00457085,0.0113008,1161,1751,8.93587,-66.3293
-56,-727,8.88464,66.6083,-0.00210357,0.0033357,0.0020526,0.00402335,-0.00279122,1.24753,0.00395578,0.0117381,1168,1751,8.88461,-66.6082
-49,-727,8.85132,66.8862,-0.00207359,0.00279091,0.00142238,0.00317628,-0.00245896,1.30621,0.00326228,0.014618,1175,1751,8.85132,-66.8862
-42,-727,8.86499,67.1696,-0.00197123,0.00261417,0.00125353,0.00293448,-0.00229154,1.32062,0.00302484,0.0183181,1182,1751,8.86501,-67.1695
-35,-727,8.86047,67.413,-0.00185284,0.00188584,0.00122595,0.00225198,-0.00221899,1.28057,0.00258134,0.0161435,1189,1751,8.8605,-67.4129
-28,-727,8.81995,67.6475,-0.00171858,0.00111631,0.00115847,0.00152949,-0.00213176,1.2282,0.00212334,0.0094636,1196,1751,8.81999,-67.6475
-21,-727,8.78589,67.8936,-0.00128688,0.000329215,0.00111334,0.000896834,-0.00185449,1.09931,0.00162024,0.0111178,1203,1751,8.78592,-67.8936
-14,-727,8.78467,68.099,-0.000834129,-0.000372292,0.0010457,0.00046768,-0.0016741,0.894068,0.0013003,0.0123974,1210,1751,8.78472,-68.099
-7,-727,8.78711,68.286,-0.000542477,-0.00108377,0.000951801,0.000176411,-0.00180265,0.646879,0.00126468,0.0157749,1217,1751,8.78712,-68.286
0,-727,8.77893,68.4894,-0.000240721,-0.0014447,0.000890651,0.000232302,-0.00191772,0.488216,0.00136253,0.0156492,1224,1751,8.77893,-68.4894
7,-727,8.77075,68.6271,3.29393e-05,-0.001659,0.000765103,0.000327604,-0.00195366,0.367623,0.00142426,0.0139662,1231,1751,8.77074,-68.6271
14,-727,8.77698,68.7451,0.000274715,-0.00164312,0.000611868,0.000453296,-0.00182171,0.283975,0.00139042,0.0143829,1238,1751,8.77695,-68.7452
21,-727,8.7644,68.8662,0.000495159,-0.00146064,0.000427643,0.000584576,-0.00155006,0.206125,0.00127376,0.0131309,1245,1751,8.76437,-68.8662
28,-727,8.78906,68.9454,0.000717643,-0.0011883,0.000176428,0.000733837,-0.00120449,0.091531,0.00113004,0.012065,1252,1751,8.78905,-68.9454
35,-727,8.8197,69.0206,0.000899034,-0.000822431,-5.89278e-05,0.000901049,-0.000824446,-0.0341778,0.000996542,0.0126791,1259,1751,8.81966,-69.0206
42,-727,8.79309,69.071,0.000956326,-0.000444394,-0.000278472,0.00100966,-0.000497725,-0.189223,0.00088686,0.0127725,1266,1751,8.79307,-69.0711
49,-727,8.78015,69.1072,0.000861318,-0.000305895,-0.000501107,0.00104694,-0.000491512,-0.354744,0.000907313,0.0117296,1273,1751,8.78015,-69.1072
56,-727,8.76208,69.1616,0.000776093,-0.000350854,-0.000645243,0.00106926,-0.000644026,-0.426473,0.000999273,0.0110654,1280,1751,8.76207,-69.1616
63,-727,8.79773,69.1703,0.000702956,-0.000419072,-0.000768597,0.00109351,-0.000809624,-0.470136,0.00110284,0.0136025,1287,1751,8.79772,-69.1703
70,-727,8.85693,69.1342,0.00067207,-0.000552627,-0.000879866,0.0011317,-0.00101226,-0.481395,0.00123845,0.0152853,1294,1751,8.85699,-69.1341
77,-727,8.84607,69.108,0.000672669,-0.000822742,-0.000905689,0.00109941,-0.00124949,-0.44033,0.00135706,0.0171913,1301,1751,8.84602,-69.1081
84,-727,8.85706,68.9645,0.000430927,-0.0011798,-0.000854228,0.00079958,-0.00154846,-0.407416,0.00137843,0.018181,1308,1751,8.85707,-68.9645
91,-727,8.85632,68.863,0.000227783,-0.00147241,-0.000774458,0.000527664,-0.00177229,-0.369436,0.00139118,0.0194164,1315,1751,8.85628,-68.863
98,-727,8.81311,68.851,0.000236868,-0.00174096,-0.000681167,0.000448762,-0.00195285,-0.301586,0.00147443,0.0160432,1322,1751,8.81317,-68.851
105,-727,8.81567,68.7625,0.000221218,-0.00200221,-0.000527807,0.00034015,-0.00212114,-0.22163,0.00154005,0.0142292,1329,1751,8.81562,-68.7625
112,-727,8.83679,68.6437,0.000215171,-0.0021095,-0.000428642,0.000291689,-0.00218602,-0.176651,0.00156367,0.0124941,1336,1751,8.83677,-68.6437
119,-727,8.83899,68.5126,0.000120827,-0.00213051,-0.000377197,0.000182343,-0.00219202,-0.161665,0.00152577,0.0103722,1343,1751,8.83894,-68.5126
126,-727,8.8595,68.3292,1.25823e-05,-0.00196108,-0.000333143,6.72981e-05,-0.0020158,-0.162788,0.00136685,0.0116951,1350,1751,8.8595,-68.3292
133,-727,8.84607,68.1349,-0.000122401,-0.00153873,-0.000298923,-6.18968e-05,-0.00159924,-0.19971,0.00104614,0.0167234,1357,1751,8.84608,-68.1349
140,-727,8.8175,67.9296,-0.000315807,-0.000977861,-0.000369964,-0.000150395,-0.00114327,-0.420443,0.000717325,0.0244164,1364,1751,8.81756,-67.9295
147,-727,8.81323,67.6824,-0.000497086,-0.000404761,-0.000520387,7.15071e-05,-0.000973354,-0.829637,0.000674004,0.0197258,1371,1751,8.81321,-67.6824
154,-727,8.78442,67.4203,-0.000666513,0.000238008,-0.000713309,0.000630348,-0.00105885,-1.06793,0.000985665,0.011829,1378,1751,8.78439,-67.4203
161,-727,8.78076,67.1879,-0.00090322,0.000832802,-0.00094629,0.00124889,-0.00131931,-1.15654,0.00148293,0.00956375,1385,1751,8.78077,-67.1879
168,-727,8.75403,66.9241,-0.00117277,0.00126369,-0.00119696,0.00175333,-0.0016624,-1.1825,0.00197231,0.0126714,1392,1751,8.75399,-66.9241
175,-727,8.7489,66.6241,-0.00141887,0.00155299,-0.00146594,0.00215439,-0.00202027,-1.18148,0.00241066,0.0193941,1399,1751,8.74895,-66.6241
182,-727,8.76501,66.3213,-0.00162598,0.00184188,-0.00173035,0.00255756,-0.00234167,-1.17861,0.00282949,0.0208469,1406,1751,8.76504,-66.3213
189,-727,8.69751,65.9921,-0.00170851,0.00220294,-0.00199253,0.00303917,-0.00254475,-1.17344,0.00322809,0.0125604,1413,1751,8.69749,-65.9921
196,-727,8.68091,65.6375,-0.00205569,0.00235262,-0.00226878,0.00331164,-0.00301471,-1.17087,0.00365386,0.0148481,1420,1751,8.68096,-65.6375
203,-727,8.63818,65.2606,-0.00252144,0.00234208,-0.00247652,0.00338114,-0.0035605,-1.17354,0.0040082,0.0178033,1427,1751,8.63823,-65.2606
210,-727,8.6123,64.8958,-0.00270616,0.00274138,-0.00276525,0.00389904,-0.00386383,-1.17432,0.00448191,0.0173642,1434,1751,8.61227,-64.8957
217,-727,8.57031,64.5145,-0.00280047,0.0031963,-0.00301298,0.00444861,-0.00405278,-1.17688,0.00491005,0.0135333,1441,1751,8.57033,-64.5145
224,-727,8.53467,64.0756,-0.00282569,0.00348856,-0.00325437,0.00486557,-0.0042027,-1.17051,0.00524023,0.0133852,1448,1751,8.53463,-64.0756
231,-727,8.50427,63.665,-0.00309114,0.00361492,-0.00341873,0.00505047,-0.00452669,-1.17325,0.00553213,0.0118059,1455,1751,8.50433,-63.6651
238,-727,8.49829,63.1918,-0.00332363,0.0038164,-0.00351167,0.00525406,-0.00476129,-1.18222,0.0057847,0.0264866,1462,1751,8.49825,-63.1917
245,-727,8.43933,62.8262,0,0,0,0,0,0,0,-1,1469,1751,8.43933,-62.8262
252,-727,8.36462,62.3586,0,0,0,0,0,0,0,-1,1476,1751,8.36464,-62.3587
259,-727,8.30322,61.8668,0,0,0,0,0,0,0,-1,1483,1751,8.30326,-61.8668
266,-727,8.33289,61.2803,-0.00458224,0.00510312,-0.0040833,0.00659486,-0.00607398,-1.22053,0.00731642,0.0394376,1490,1751,8.33291,-61.2803
273,-727,8.34485,60.8329,-0.00516011,0.00572674,-0.0043164,0.00723041,-0.00666379,-1.23558,0.00802404,0.0446336,1497,1751,8.34488,-60.8329
280,-727,8.05847,60.3977,0,0,0,0,0,0,0,-1,1504,1751,8.05852,-60.3977
287,-727,7.89966,59.7291,0,0,0,0,0,0,0,-1,1511,1751,7.89967,-59.7292
294,-727,8.48657,53.1189,0,0,0,0,0,0,0,-1,1518,1751,8.48656,-53.1189
301,-727,8.44385,46.1619,0,0,0,0,0,0,0,-1,1525,1751,8.4439,-46.1619
308,-727,8.77002,44.8007,0,0,0,0,0,0,0,-1,1532,1751,8.76996,-44.8006
315,-727,8.10571,41.24,0,0,0,0,0,0,0,-1,1539,1751,8.10567,-41.2399
322,-727,8.24133,40.2081,0,0,0,0,0,0,0,-1,1546,1751,8.24136,-40.2082
329,-727,5.54419,31.0325,0,0,0,0,0,0,0,-1,1553,1751,5.54425,-31.0325
336,-727,5.55823,20.2439,0,0,0,0,0,0,0,-1,1560,1751,5.55829,-20.2438
343,-727,2.41699,8.72095,0,0,0,0,0,0,0,-1,1567,1751,2.41702,-8.72098
350,-727,3.89783,7.50195,0,0,0,0,0,0,0,-1,1574,1751,3.89782,-7.50193
357,-727,4.48462,10.2948,0,0,0,0,0,0,0,-1,1581,1751,4.48464,-10.2948
364,-727,6.96729,17.2365,0,0,0,0,0,0,0,-1,1588,1751,6.96732,-17.2365
371,-727,5.04565,23.2227,0,0,0,0,0,0,0,-1,1595,1751,5.04564,-23.2227
378,-727,4.56726,23.0574,0,0,0,0,0,0,0,-1,1602,1751,4.56727,-23.0574
385,-727,3.52307,22.6431,0,0,0,0,0,0,0,-1,1609,1751,3.52303,-22.643
392,-727,0,0,0,0,0,0,0,0,0,-1,1616,1751,0,0
399,-727,0,0,0,0,0,0,0,0,0,-1,1623,1751,0,0
406,-727,0,0,0,0,0,0,0,0,0,-1,1630,1751,0,0
413,-727,0,0,0,0,0,0,0,0,0,-1,1637,1751,0,0
420,-727,0,0,0,0,0,0,0,0,0,-1,1644,1751,0,0
427,-727,0,0,0,0,0,0,0,0,0,-1,1651,1751,0,0
434,-727,0,0,0,0,0,0,0,0,0,-1,1658,1751,0,0
441,-727,0,0,0,0,0,0,0,0,0,-1,1665,1751,0,0
448,-727,0,0,0,0,0,0,0,0,0,-1,1672,1751,0,0
455,-727,0,0,0,0,0,0,0,0,0,-1,1679,1751,0,0
462,-727,0,0,0,0,0,0,0,0,0,-1,1686,1751,0,0
469,-727,0,0,0,0,0,0,0,0,0,-1,1693,1751,0,0
476,-727,0,0,0,0,0,0,0,0,0,-1,1700,1751,0,0
483,-727,0,0,0,0,0,0,0,0,0,-1,1707,1751,0,0
490,-727,0,0,0,0,0,0,0,0,0,-1,1714,1751,0,0
497,-727,0,0,0,0,0,0,0,0,0,-1,1721,1751,0,0
504,-727,0,0,0,0,0,0,0,0,0,-1,1728,1751,0,0
511,-727,0,0,0,0,0,0,0,0,0,-1,1735,1751,0,0
518,-727,0,0,0,0,0,0,0,0,0,-1,1742,1751,0,0
525,-727,0,0,0,0,0,0,0,0,0,-1,1749,1751,0,0
532,-727,0,0,0,0,0,0,0,0,0,-1,1756,1751,0,0
539,-727,0,0,0,0,0,0,0,0,0,-1,1763,1751,0,0
546,-727,0,0,0,0,0,0,0,0,0,-1,1770,1751,0,0
553,-727,0,0,0,0,0,0,0,0,0,-1,1777,1751,0,0
560,-727,0,0,0,0,0,0,0,0,0,-1,1784,1751,0,0
567,-727,0,0,0,0,0,0,0,0,0,-1,1791,1751,0,0
574,-727,0,0,0,0,0,0,0,0,0,-1,1798,1751,0,0
581,-727,0,0,0,0,0,0,0,0,0,-1,1805,1751,0,0
588,-727,0,0,0,0,0,0,0,0,0,-1,1812,1751,0,0
595,-727,0,0,0,0,0,0,0,0,0,-1,1819,1751,0,0
602,-727,0,0,0,0,0,0,0,0,0,-1,1826,1751,0,0
609,-727,0,0,0,0,0,0,0,0,0,-1,1833,1751,0,0
616,-727,0,0,0,0,0,0,0,0,0,-1,1840,1751,0,0
623,-727,0,0,0,0,0,0,0,0,0,-1,1847,1751,0,0
630,-727,0,0,0,0,0,0,0,0,0,-1,1854,1751,0,0
637,-727,0,0,0,0,0,0,0,0,0,-1,1861,1751,0,0
644,-727,0,0,0,0,0,0,0,0,0,-1,1868,1751,0,0
651,-727,0,0,0,0,0,0,0,0,0,-1,1875,1751,0,0
658,-727,0,0,0,0,0,0,0,0,0,-1,1882,1751,0,0
665,-727,0,0,0,0,0,0,0,0,0,-1,1889,1751,0,0
672,-727,0,0,0,0,0,0,0,0,0,-1,1896,1751,0,0
679,-727,0,0,0,0,0,0,0,0,0,-1,1903,1751,0,0
686,-727,0,0,0,0,0,0,0,0,0,-1,1910,1751,0,0
693,-727,0,0,0,0,0,0,0,0,0,-1,1917,1751,0,0
700,-727,0,0,0,0,0,0,0,0,0,-1,1924,1751,0,0
707,-727,0,0,0,0,0,0,0,0,0,-1,1931,1751,0,0
714,-727,0,0,0,0,0,0,0,0,0,-1,1938,1751,0,0
721,-727,0,0,0,0,0,0,0,0,0,-1,1945,1751,0,0
728,-727,0,0,0,0,0,0,0,0,0,-1,1952,1751,0,0
735,-727,0,0,0,0,0,0,0,0,0,-1,1959,1751,0,0
742,-727,0,0,0,0,0,0,0,0,0,-1,1966,1751,0,0
749,-727,0,0,0,0,0,0,0,0,0,-1,1973,1751,0,0
756,-727,0,0,0,0,0,0,0,0,0,-1,1980,1751,0,0
763,-727,0,0,0,0,0,0,0,0,0,-1,1987,1751,0,0
770,-727,0,0,0,0,0,0,0,0,0,-1,1994,1751,0,0
777,-727,0,0,0,0,0,0,0,0,0,-1,2001,1751,0,0
784,-727,0,0,0,0,0,0,0,0,0,-1,2008,1751,0,0
791,-727,0,0,0,0,0,0,0,0,0,-1,2015,1751,0,0
798,-727,0,0,0,0,0,0,0,0,0,-1,2022,1751,0,0
805,-727,0,0,0,0,0,0,0,0,0,-1,2029,1751,0,0
812,-727,0,0,0,0,0,0,0,0,0,-1,2036,1751,0,0
-700,-734,0,0,0,0,0,0,0,0,0,-1,524,1758,0,0
-693,-734,0,0,0,0,0,0,0,0,0,-1,531,1758,0,0
-686,-734,0,0,0,0,0,0,0,0,0,-1,538,1758,0,0
-679,-734,0,0,0,0,0,0,0,0,0,-1,545,1758,0,0
-672,-734,0,0,0,0,0,0,0,0,0,-1,552,1758,0,0
-665,-734,0,0,0,0,0,0,0,0,0,-1,559,1758,0,0
-658,-734,0,0,0,0,0,0,0,0,0,-1,566,1758,0,0
-651,-734,0,0,0,0,0,0,0,0,0,-1,573,1758,0,0
-644,-734,0,0,0,0,0,0,0,0,0,-1,580,1758,0,0
-637,-734,0,0,0,0,0,0,0,0,0,-1,587,1758,0,0
-630,-734,0,0,0,0,0,0,0,0,0,-1,594,1758,0,0
-623,-734,0,0,0,0,0,0,0,0,0,-1,601,1758,0,0
-616,-734,0,0,0,0,0,0,0,0,0,-1,608,1758,0,0
-609,-734,0,0,0,0,0,0,0,0,0,-1,615,1758,0,0
-602,-734,0,0,0,0,0,0,0,0,0,-1,622,1758,0,0
-595,-734,0,0,0,0,0,0,0,0,0,-1,629,1758,0,0
-588,-734,0,0,0,0,0,0,0,0,0,-1,636,1758,0,0
-581,-734,0,0,0,0,0,0,0,0,0,-1,643,1758,0,0
-574,-734,0,0,0,0,0,0,0,0,0,-1,650,1758,0,0
-567,-734,0,0,0,0,0,0,0,0,0,-1,657,1758,0,0
-560,-734,0,0,0,0,0,0,0,0,0,-1,664,1758,0,0
-553,-734,0,0,0,0,0,0,0,0,0,-1,671,1758,0,0
-546,-734,0,0,0,0,0,0,0,0,0,-1,678,1758,0,0
-539,-734,0,0,0,0,0,0,0,0,0,-1,685,1758,0,0
-532,-734,0,0,0,0,0,0,0,0,0,-1,692,1758,0,0
-525,-734,0,0,0,0,0,0,0,0,0,-1,699,1758,0,0
-518,-734,0,0,0,0,0,0,0,0,0,-1,706,1758,0,0
-511,-734,0,0,0,0,0,0,0,0,0,-1,713,1758,0,0
-504,-734,0,0,0,0,0,0,0,0,0,-1,720,1758,0,0
-497,-734,0,0,0,0,0,0,0,0,0,-1,727,1758,0,0
-490,-734,0,0,0,0,0,0,0,0,0,-1,734,1758,0,0
-483,-734,0,0,0,0,0,0,0,0,0,-1,741,1758,0,0
-476,-734,0,0,0,0,0,0,0,0,0,-1,748,1758,0,0
-469,-734,0,0,0,0,0,0,0,0,0,-1,755,1758,0,0
-462,-734,0,0,0,0,0,0,0,0,0,-1,762,1758,0,0
-455,-734,0,0,0,0,0,0,0,0,0,-1,769,1758,0,0
-448,-734,0,0,0,0,0,0,0,0,0,-1,776,1758,0,0
-441,-734,0,0,0,0,0,0,0,0,0,-1,783,1758,0,0
-434,-734,0,0,0,0,0,0,0,0,0,-1,790,1758,0,0
-427,-734,0,0,0,0,0,0,0,0,0,-1,797,1758,0,0
-420,-734,0,0,0,0,0,0,0,0,0,-1,804,1758,0,0
-413,-734,0,0,0,0,0,0,0,0,0,-1,811,1758,0,0
-406,-734,0,0,0,0,0,0,0,0,0,-1,818,1758,0,0
-399,-734,0,0,0,0,0,0,0,0,0,-1,825,1758,0,0
-392,-734,0,0,0,0,0,0,0,0,0,-1,832,1758,0,0
-385,-734,0,0,0,0,0,0,0,0,0,-1,839,1758,0,0
-378,-734,0,0,0,0,0,0,0,0,0,-1,846,1758,0,0
-371,-734,0,0,0,0,0,0,0,0,0,-1,853,1758,0,0
-364,-734,0,0,0,0,0,0,0,0,0,-1,860,1758,0,0
-357,-734,0,0,0,0,0,0,0,0,0,-1,867,1758,0,0
-350,-734,0,0,0,0,0,0,0,0,0,-1,874,1758,0,0
-343,-734,0,0,0,0,0,0,0,0,0,-1,881,1758,0,0
-336,-734,0,0,0,0,0,0,0,0,0,-1,888,1758,0,0
-329,-734,0,0,0,0,0,0,0,0,0,-1,895,1758,0,0
-322,-734,0,0,0,0,0,0,0,0,0,-1,902,1758,0,0
-315,-734,0,0,0,0,0,0,0,0,0,-1,909,1758,0,0
-308,-734,0,0,0,0,0,0,0,0,0,-1,916,1758,0,0
-301,-734,0,0,0,0,0,0,0,0,0,-1,923,1758,0,0
-294,-734,0,0,0,0,0,0,0,0,0,-1,930,1758,0,0
-287,-734,0,0,0,0,0,0,0,0,0,-1,937,1758,0,0
-280,-734,0,0,0,0,0,0,0,0,0,-1,944,1758,0,0
-273,-734,0,0,0,0,0,0,0,0,0,-1,951,1758,0,0
-266,-734,0,0,0,0,0,0,0,0,0,-1,958,1758,0,0
-259,-734,0,0,0,0,0,0,0,0,0,-1,965,1758,0,0
-252,-734,5.73883,31.5245,0,0,0,0,0,0,0,-1,972,1758,5.73884,-31.5246
-245,-734,6.32513,30.9761,0,0,0,0,0,0,0,-1,979,1758,6.32511,-30.9761
-238,-734,6.82385,30.0449,0,0,0,0,0,0,0,-1,986,1758,6.82387,-30.0449
-231,-734,7.1958,29.1666,0,0,0,0,0,0,0,-1,993,1758,7.19578,-29.1666
-224,-734,10.8631,52.8424,0,0,0,0,0,0,0,-1,1000,1758,10.8631,-52.8424
-217,-734,7.45984,28.4386,0,0,0,0,0,0,0,-1,1007,1758,7.45986,-28.4386
-210,-734,7.45483,28.4388,0,0,0,0,0,0,0,-1,1014,1758,7.45482,-28.4388
-203,-734,14.3309,49.7766,0,0,0,0,0,0,0,-1,1021,1758,14.3309,-49.7766
-196,-734,13.0366,49.6821,0,0,0,0,0,0,0,-1,1028,1758,13.0366,-49.6822
-189,-734,11.8075,49.2727,0,0,0,0,0,0,0,-1,1035,1758,11.8075,-49.2728
-182,-734,10.8073,48.8035,0,0,0,0,0,0,0,-1,1042,1758,10.8072,-48.8035
-175,-734,9.90186,48.634,0,0,0,0,0,0,0,-1,1049,1758,9.90187,-48.6341
-168,-734,8.91504,48.7642,0,0,0,0,0,0,0,-1,1056,1758,8.91505,-48.7641
-161,-734,8.28674,49.0464,0,0,0,0,0,0,0,-1,1063,1758,8.28671,-49.0464
-154,-734,10.3014,52.4893,0,0,0,0,0,0,0,-1,1070,1758,10.3014,-52.4893
-147,-734,10.325,56.6101,0,0,0,0,0,0,0,-1,1077,1758,10.3249,-56.6101
-140,-734,9.73157,61.5632,0,0,0,0,0,0,0,-1,1084,1758,9.73156,-61.5632
-133,-734,9.72229,62.1591,0,0,0,0,0,0,0,-1,1091,1758,9.72233,-62.1591
-126,-734,9.62561,62.6299,0,0,0,0,0,0,0,-1,1098,1758,9.6256,-62.6299
-119,-734,9.55713,62.0966,0,0,0,0,0,0,0,-1,1105,1758,9.55716,-62.0965
-112,-734,9.52307,61.2794,0,0,0,0,0,0,0,-1,1112,1758,9.52313,-61.2794
-105,-734,9.26392,63.5548,0,0,0,0,0,0,0,-1,1119,1758,9.26389,-63.5549
-98,-734,9.36877,64.3778,0,0,0,0,0,0,0,-1,1126,1758,9.36873,-64.3778
-91,-734,9.42407,64.814,0,0,0,0,0,0,0,-1,1133,1758,9.42406,-64.8139
-84,-734,9.35693,65.1978,0,0,0,0,0,0,0,-1,1140,1758,9.35688,-65.1977
-77,-734,9.31396,65.6111,0,0,0,0,0,0,0,-1,1147,1758,9.31398,-65.611
-70,-734,9.17212,65.7096,0,0,0,0,0,0,0,-1,1154,1758,9.17214,-65.7096
-63,-734,9.15979,66.105,-0.00392198,0.00452218,0.00391329,0.00605682,-0.00545662,1.19707,0.0066503,0.0364676,1161,1758,9.15974,-66.1049
-56,-734,9.15552,66.6051,-0.00403277,0.00439146,0.00298394,0.0053413,-0.00498261,1.26262,0.00596171,0.0173153,1168,1758,9.15555,-66.6051
-49,-734,9.10352,66.8849,-0.0041607,0.00383552,0.002132,0.00436845,-0.00469363,1.32585,0.00523312,0.0140003,1175,1758,9.10349,-66.8848
-42,-734,9.07971,67.1996,-0.00427455,0.00387432,0.00201057,0.00434339,-0.00474362,1.3416,0.00524808,0.0150889,1182,1758,9.07976,-67.1996
-35,-734,9.08118,67.436,-0.00464104,0.00275692,0.00209572,0.00330935,-0.00519347,1.31306,0.00494911,0.0150104,1189,1758,9.08119,-67.436
-28,-734,9.04529,67.6604,-0.00493573,0.0016741,0.00206057,0.00226385,-0.00552548,1.29204,0.00462672,0.0102857,1196,1758,9.04534,-67.6604
-21,-734,9.04797,67.8739,-0.0041817,0.000581582,0.00184693,0.0012138,-0.00481392,1.24099,0.0036812,0.0166589,1203,1758,9.04803,-67.874
-14,-734,8.9812,68.1249,-0.00328557,-0.000146611,0.00150415,0.000457784,-0.00388997,1.18872,0.0027586,0.0170084,1210,1758,8.98117,-68.1249
-7,-734,8.9552,68.3115,-0.00283922,-0.000974127,0.00119785,-0.000388618,-0.00342473,1.11615,0.00216527,0.0177365,1217,1758,8.95519,-68.3116
0,-734,8.92419,68.453,-0.00236734,-0.00142434,0.000910567,-0.00087044,-0.00292124,1.02429,0.00173186,0.017365,1224,1758,8.92417,-68.453
7,-734,8.90271,68.6158,-0.00200582,-0.00171841,0.000424084,-0.00141435,-0.00230989,0.948755,0.00134478,0.0133712,1231,1758,8.90277,-68.6158
14,-734,8.87805,68.756,-0.00166924,-0.00153754,-7.39118e-05,-0.0015044,-0.00170238,-1.14929,0.00107502,0.0142624,1238,1758,8.87811,-68.756
21,-734,8.82898,68.8568,-0.00134881,-0.00113034,-0.000560752,-0.000668282,-0.00181087,-0.881596,0.00105739,0.0126444,1245,1758,8.82902,-68.8568
28,-734,8.84375,68.9431,-0.00107821,-0.00065434,-0.0011068,0.000260636,-0.00199319,-0.879995,0.00142364,0.0120324,1252,1758,8.84374,-68.9431
35,-734,8.85925,69.0435,-0.000927526,-2.36765e-05,-0.00160826,0.00119494,-0.00214615,-0.922367,0.00195486,0.0152386,1259,1758,8.85929,-69.0434
42,-734,8.84448,69.0861,-0.000946522,0.000683369,-0.00207576,0.00209843,-0.00236158,-0.972454,0.00257649,0.012614,1266,1758,8.84443,-69.0861
49,-734,8.8103,69.1108,-0.00107608,0.00123952,-0.0024712,0.0028107,-0.00264726,-1.00447,0.00315162,0.0109202,1273,1758,8.81028,-69.1108
56,-734,8.77466,69.168,-0.00125775,0.00167561,-0.00273342,0.00331098,-0.00289313,-1.03164,0.00358465,0.0110046,1280,1758,8.77469,-69.1679
63,-734,8.79346,69.1538,-0.00143333,0.00205032,-0.00294305,0.00372836,-0.00311137,-1.0526,0.00395428,0.0142164,1287,1758,8.79345,-69.1538
70,-734,8.78479,69.1399,-0.00147007,0.00256922,-0.00309862,0.00424828,-0.00314913,-1.07421,0.00428658,0.0135764,1294,1758,8.7848,-69.1399
77,-734,8.78687,69.1412,-0.00147951,0.00289318,-0.00308843,0.00449082,-0.00307714,-1.09341,0.0043947,0.0173959,1301,1758,8.78686,-69.1413
84,-734,8.77698,69.0229,-0.0019691,0.00291869,-0.00290503,0.00427108,-0.0033215,-1.1351,0.00439499,0.017959,1308,1758,8.77701,-69.023
91,-734,8.74902,68.9446,-0.00233083,0.00284134,-0.00265584,0.00396218,-0.00345167,-1.17144,0.00428377,0.021248,1315,1758,8.74899,-68.9446
98,-734,8.72705,68.8962,-0.00218823,0.00280365,-0.0024727,0.00382111,-0.00320569,-1.18044,0.0040621,0.015861,1322,1758,8.727,-68.8962
105,-734,8.71277,68.7773,-0.00208606,0.00266887,-0.00221395,0.00354008,-0.00295728,-1.1959,0.00375628,0.0160277,1329,1758,8.71282,-68.7774
112,-734,8.7113,68.6442,-0.0019252,0.00264594,-0.00193073,0.00335229,-0.00263154,-1.22008,0.00346311,0.0134687,1336,1758,8.7113,-68.6441
119,-734,8.71619,68.489,-0.00194613,0.00240662,-0.00179376,0.00305056,-0.00259007,-1.22614,0.00326023,0.0143623,1343,1758,8.71618,-68.4891
126,-734,8.69531,68.2833,-0.00207405,0.0023305,-0.00171851,0.00292166,-0.00266521,-1.23948,0.00322671,0.0174742,1350,1758,8.69536,-68.2833
133,-734,8.651,68.0994,-0.00222187,0.00252874,-0.00161102,0.00302353,-0.00271666,-1.27281,0.00331568,0.0162164,1357,1758,8.65102,-68.0994
140,-734,8.61829,67.9026,-0.00239653,0.00275319,-0.00161896,0.00321987,-0.00286321,-1.29015,0.00351408,0.0214214,1364,1758,8.61834,-67.9025
147,-734,8.58813,67.6483,-0.00256333,0.00291142,-0.00163066,0.00336031,-0.00301222,-1.30217,0.00368101,0.0151985,1371,1758,8.58814,-67.6483
154,-734,8.55823,67.4358,-0.00277722,0.00312947,-0.00167563,0.00357171,-0.00321945,-1.31276,0.00392264,0.010313,1378,1758,8.55828,-67.4358
161,-734,8.53259,67.2012,-0.00297566,0.00332209,-0.0018928,0.00384719,-0.00350076,-1.30018,0.00424391,0.00919589,1385,1758,8.53255,-67.2012
168,-734,8.47656,66.9155,-0.00319984,0.00344685,-0.00209362,0.00405134,-0.00380433,-1.28971,0.00453622,0.0149235,1392,1758,8.47653,-66.9155
175,-734,8.43909,66.6294,-0.00341307,0.00299319,-0.00231647,0.00374304,-0.00416292,-1.25774,0.00456665,0.0190902,1399,1758,8.43908,-66.6293
182,-734,8.46729,66.2875,-0.00355091,0.00260525,-0.00253021,0.00351171,-0.00445737,-1.22679,0.00461173,0.0174002,1406,1758,8.46726,-66.2875
189,-734,8.40967,65.9617,-0.00344328,0.00299608,-0.00277949,0.00402986,-0.00447706,-1.21472,0.00491374,0.0129577,1413,1758,8.40968,-65.9617
196,-734,8.35168,65.6339,-0.00382168,0.00310758,-0.00308476,0.00428184,-0.00499595,-1.20707,0.00536182,0.0156067,1420,1758,8.35171,-65.6339
203,-734,8.34607,65.2349,-0.00448595,0.0029298,-0.0032717,0.00416686,-0.00572301,-1.2093,0.00573343,0.0224783,1427,1758,8.34613,-65.2349
210,-734,8.32141,64.84,-0.00455981,0.00356503,-0.00365382,0.00496646,-0.00596124,-1.20455,0.00631782,0.0385508,1434,1758,8.32141,-64.84
217,-734,8.20911,64.5354,0,0,0,0,0,0,0,-1,1441,1758,8.20909,-64.5354
224,-734,8.16345,64.1383,0,0,0,0,0,0,0,-1,1448,1758,8.16347,-64.1384
231,-734,8.06177,63.6487,0,0,0,0,0,0,0,-1,1455,1758,8.06177,-63.6487
238,-734,8.11462,63.0908,0,0,0,0,0,0,0,-1,1462,1758,8.11468,-63.0908
245,-734,8.29065,60.4988,0,0,0,0,0,0,0,-1,1469,1758,8.29062,-60.4987
252,-734,8.17517,58.5679,0,0,0,0,0,0,0,-1,1476,1758,8.1752,-58.5678
259,-734,8.07666,59.5597,0,0,0,0,0,0,0,-1,1483,1758,8.07667,-59.5597
266,-734,7.9491,61.1146,0,0,0,0,0,0,0,-1,1490,1758,7.94911,-61.1146
273,-734,8.06299,60.8032,0,0,0,0,0,0,0,-1,1497,1758,8.06298,-60.8032
280,-734,7.90149,52.7294,0,0,0,0,0,0,0,-1,1504,1758,7.90153,-52.7294
287,-734,7.56177,50.5933,0,0,0,0,0,0,0,-1,1511,1758,7.56172,-50.5933
294,-734,7.42676,47.7545,0,0,0,0,0,0,0,-1,1518,1758,7.4268,-47.7545
301,-734,7.21814,42.6078,0,0,0,0,0,0,0,-1,1525,1758,7.21809,-42.6078
308,-734,8.0509,41.5156,0,0,0,0,0,0,0,-1,1532,1758,8.05087,-41.5157
315,-734,7.93787,40.8274,0,0,0,0,0,0,0,-1,1539,1758,7.93784,-40.8273
322,-734,7.82483,40.139,0,0,0,0,0,0,0,-1,1546,1758,7.82481,-40.139
329,-734,5.73267,19.656,0,0,0,0,0,0,0,-1,1553,1758,5.73262,-19.656
336,-734,6.71375,23.7469,0,0,0,0,0,0,0,-1,1560,1758,6.71372,-23.7469
343,-734,5.54968,5.14221,0,0,0,0,0,0,0,-1,1567,1758,5.54973,-5.14225
350,-734,5.07397,6.73242,0,0,0,0,0,0,0,-1,1574,1758,5.07402,-6.73243
357,-734,5.05542,7.19189,0,0,0,0,0,0,0,-1,1581,1758,5.05541,-7.19184
364,-734,4.43896,10.4904,0,0,0,0,0,0,0,-1,1588,1758,4.43893,-10.4904
371,-734,7.36975,17.4751,0,0,0,0,0,0,0,-1,1595,1758,7.36972,-17.4752
378,-734,0,0,0,0,0,0,0,0,0,-1,1602,1758,0,0
385,-734,0,0,0,0,0,0,0,0,0,-1,1609,1758,0,0
392,-734,0,0,0,0,0,0,0,0,0,-1,1616,1758,0,0
399,-734,0,0,0,0,0,0,0,0,0,-1,1623,1758,0,0
406,-734,0,0,0,0,0,0,0,0,0,-1,1630,1758,0,0
413,-734,0,0,0,0,0,0,0,0,0,-1,1637,1758,0,0
420,-734,0,0,0,0,0,0,0,0,0,-1,1644,1758,0,0
427,-734,0,0,0,0,0,0,0,0,0,-1,1651,1758,0,0
434,-734,0,0,0,0,0,0,0,0,0,-1,1658,1758,0,0
441,-734,0,0,0,0,0,0,0,0,0,-1,1665,1758,0,0
448,-734,0,0,0,0,0,0,0,0,0,-1,1672,1758,0,0
455,-734,0,0,0,0,0,0,0,0,0,-1,1679,1758,0,0
462,-734,0,0,0,0,0,0,0,0,0,-1,1686,1758,0,0
469,-734,0,0,0,0,0,0,0,0,0,-1,1693,1758,0,0
476,-734,0,0,0,0,0,0,0,0,0,-1,1700,1758,0,0
483,-734,0,0,0,0,0,0,0,0,0,-1,1707,1758,0,0
490,-734,0,0,0,0,0,0,0,0,0,-1,1714,1758,0,0
497,-734,0,0,0,0,0,0,0,0,0,-1,1721,1758,0,0
504,-734,0,0,0,0,0,0,0,0,0,-1,1728,1758,0,0
511,-734,0,0,0,0,0,0,0,0,0,-1,1735,1758,0,0
518,-734,0,0,0,0,0,0,0,0,0,-1,1742,1758,0,0
525,-734,0,0,0,0,0,0,0,0,0,-1,1749,1758,0,0
532,-734,0,0,0,0,0,0,0,0,0,-1,1756,1758,0,0
539,-734,0,0,0,0,0,0,0,0,0,-1,1763,1758,0,0
546,-734,0,0,0,0,0,0,0,0,0,-1,1770,1758,0,0
553,-734,0,0,0,0,0,0,0,0,0,-1,1777,1758,0,0
560,-734,0,0,0,0,0,0,0,0,0,-1,1784,1758,0,0
567,-734,0,0,0,0,0,0,0,0,0,-1,1791,1758,0,0
574,-734,0,0,0,0,0,0,0,0,0,-1,1798,1758,0,0
581,-734,0,0,0,0,0,0,0,0,0,-1,1805,1758,0,0
588,-734,0,0,0,0,0,0,0,0,0,-1,1812,1758,0,0
595,-734,0,0,0,0,0,0,0,0,0,-1,1819,1758,0,0
602,-734,0,0,0,0,0,0,0,0,0,-1,1826,1758,0,0
609,-734,0,0,0,0,0,0,0,0,0,-1,1833,1758,0,0
616,-734,0,0,0,0,0,0,0,0,0,-1,1840,1758,0,0
623,-734,0,0,0,0,0,0,0,0,0,-1,1847,1758,0,0
630,-734,0,0,0,0,0,0,0,0,0,-1,1854,1758,0,0
637,-734,0,0,0,0,0,0,0,0,0,-1,1861,1758,0,0
644,-734,0,0,0,0,0,0,0,0,0,-1,1868,1758,0,0
651,-734,0,0,0,0,0,0,0,0,0,-1,1875,1758,0,0
658,-734,0,0,0,0,0,0,0,0,0,-1,1882,1758,0,0
665,-734,0,0,0,0,0,0,0,0,0,-1,1889,1758,0,0
672,-734,0,0,0,0,0,0,0,0,0,-1,1896,1758,0,0
679,-734,0,0,0,0,0,0,0,0,0,-1,1903,1758,0,0
686,-734,0,0,0,0,0,0,0,0,0,-1,1910,1758,0,0
693,-734,0,0,0,0,0,0,0,0,0,-1,1917,1758,0,0
700,-734,0,0,0,0,0,0,0,0,0,-1,1924,1758,0,0
707,-734,0,0,0,0,0,0,0,0,0,-1,1931,1758,0,0
714,-734,0,0,0,0,0,0,0,0,0,-1,1938,1758,0,0
721,-734,0,0,0,0,0,0,0,0,0,-1,1945,1758,0,0
728,-734,0,0,0,0,0,0,0,0,0,-1,1952,1758,0,0
735,-734,0,0,0,0,0,0,0,0,0,-1,1959,1758,0,0
742,-734,0,0,0,0,0,0,0,0,0,-1,1966,1758,0,0
749,-734,0,0,0,0,0,0,0,0,0,-1,1973,1758,0,0
756,-734,0,0,0,0,0,0,0,0,0,-1,1980,1758,0,0
763,-734,0,0,0,0,0,0,0,0,0,-1,1987,1758,0,0
770,-734,0,0,0,0,0,0,0,0,0,-1,1994,1758,0,0
777,-734,0,0,0,0,0,0,0,0,0,-1,2001,1758,0,0
784,-734,0,0,0,0,0,0,0,0,0,-1,2008,1758,0,0
791,-734,0,0,0,0,0,0,0,0,0,-1,2015,1758,0,0
798,-734,0,0,0,0,0,0,0,0,0,-1,2022,1758,0,0
805,-734,0,0,0,0,0,0,0,0,0,-1,2029,1758,0,0
812,-734,0,0,0,0,0,0,0,0,0,-1,2036,1758,0,0
-700,-741,0,0,0,0,0,0,0,0,0,-1,524,1765,0,0
-693,-741,0,0,0,0,0,0,0,0,0,-1,531,1765,0,0
-686,-741,0,0,0,0,0,0,0,0,0,-1,538,1765,0,0
-679,-741,0,0,0,0,0,0,0,0,0,-1,545,1765,0,0
-672,-741,0,0,0,0,0,0,0,0,0,-1,552,1765,0,0
-665,-741,0,0,0,0,0,0,0,0,0,-1,559,1765,0,0
-658,-741,0,0,0,0,0,0,0,0,0,-1,566,1765,0,0
-651,-741,0,0,0,0,0,0,0,0,0,-1,573,1765,0,0
-644,-741,0,0,0,0,0,0,0,0,0,-1,580,1765,0,0
-637,-741,0,0,0,0,0,0,0,0,0,-1,587,1765,0,0
-630,-741,0,0,0,0,0,0,0,0,0,-1,594,1765,0,0
-623,-741,0,0,0,0,0,0,0,0,0,-1,601,1765,0,0
-616,-741,0,0,0,0,0,0,0,0,0,-1,608,1765,0,0
-609,-741,0,0,0,0,0,0,0,0,0,-1,615,1765,0,0
-602,-741,0,0,0,0,0,0,0,0,0,-1,622,1765,0,0
-595,-741,0,0,0,0,0,0,0,0,0,-1,629,1765,0,0
-588,-741,0,0,0,0,0,0,0,0,0,-1,636,1765,0,0
-581,-741,0,0,0,0,0,0,0,0,0,-1,643,1765,0,0
-574,-741,0,0,0,0,0,0,0,0,0,-1,650,1765,0,0
-567,-741,0,0,0,0,0,0,0,0,0,-1,657,1765,0,0
-560,-741,0,0,0,0,0,0,0,0,0,-1,664,1765,0,0
-553,-741,0,0,0,0,0,0,0,0,0,-1,671,1765,0,0
-546,-741,0,0,0,0,0,0,0,0,0,-1,678,1765,0,0
-539,-741,0,0,0,0,0,0,0,0,0,-1,685,1765,0,0
-532,-741,0,0,0,0,0,0,0,0,0,-1,692,1765,0,0
-525,-741,0,0,0,0,0,0,0,0,0,-1,699,1765,0,0
-518,-741,0,0,0,0,0,0,0,0,0,-1,706,1765,0,0
-511,-741,0,0,0,0,0,0,0,0,0,-1,713,1765,0,0
-504,-741,0,0,0,0,0,0,0,0,0,-1,720,1765,0,0
-497,-741,0,0,0,0,0,0,0,0,0,-1,727,1765,0,0
-490,-741,0,0,0,0,0,0,0,0,0,-1,734,1765,0,0
-483,-741,0,0,0,0,0,0,0,0,0,-1,741,1765,0,0
-476,-741,0,0,0,0,0,0,0,0,0,-1,748,1765,0,0
-469,-741,0,0,0,0,0,0,0,0,0,-1,755,1765,0,0
-462,-741,0,0,0,0,0,0,0,0,0,-1,762,1765,0,0
-455,-741,0,0,0,0,0,0,0,0,0,-1,769,1765,0,0
-448,-741,0,0,0,0,0,0,0,0,0,-1,776,1765,0,0
-441,-741,0,0,0,0,0,0,0,0,0,-1,783,1765,0,0
-434,-741,0,0,0,0,0,0,0,0,0,-1,790,1765,0,0
-427,-741,0,0,0,0,0,0,0,0,0,-1,797,1765,0,0
-420,-741,0,0,0,0,0,0,0,0,0,-1,804,1765,0,0
-413,-741,0,0,0,0,0,0,0,0,0,-1,811,1765,0,0
-406,-741,0,0,0,0,0,0,0,0,0,-1,818,1765,0,0
-399,-741,0,0,0,0,0,0,0,0,0,-1,825,1765,0,0
-392,-741,0,0,0,0,0,0,0,0,0,-1,832,1765,0,0
-385,-741,0,0,0,0,0,0,0,0,0,-1,839,1765,0,0
-378,-741,0,0,0,0,0,0,0,0,0,-1,846,1765,0,0
-371,-741,0,0,0,0,0,0,0,0,0,-1,853,1765,0,0
-364,-741,0,0,0,0,0,0,0,0,0,-1,860,1765,0,0
-357,-741,0,0,0,0,0,0,0,0,0,-1,867,1765,0,0
-350,-741,0,0,0,0,0,0,0,0,0,-1,874,1765,0,0
-343,-741,0,0,0,0,0,0,0,0,0,-1,881,1765,0,0
-336,-741,0,0,0,0,0,0,0,0,0,-1,888,1765,0,0
-329,-741,0,0,0,0,0,0,0,0,0,-1,895,1765,0,0
-322,-741,0,0,0,0,0,0,0,0,0,-1,902,1765,0,0
-315,-741,0,0,0,0,0,0,0,0,0,-1,909,1765,0,0
-308,-741,0,0,0,0,0,0,0,0,0,-1,916,1765,0,0
-301,-741,0,0,0,0,0,0,0,0,0,-1,923,1765,0,0
-294,-741,0,0,0,0,0,0,0,0,0,-1,930,1765,0,0
-287,-741,0,0,0,0,0,0,0,0,0,-1,937,1765,0,0
-280,-741,0,0,0,0,0,0,0,0,0,-1,944,1765,0,0
-273,-741,0,0,0,0,0,0,0,0,0,-1,951,1765,0,0
-266,-741,0,0,0,0,0,0,0,0,0,-1,958,1765,0,0
-259,-741,0,0,0,0,0,0,0,0,0,-1,965,1765,0,0
-252,-741,0,0,0,0,0,0,0,0,0,-1,972,1765,0,0
-245,-741,0,0,0,0,0,0,0,0,0,-1,979,1765,0,0
-238,-741,7.13855,29.8348,0,0,0,0,0,0,0,-1,986,1765,7.13856,-29.8348
-231,-741,7.74182,29.3066,0,0,0,0,0,0,0,-1,993,1765,7.74183,-29.3066
-224,-741,7.80078,29.0964,0,0,0,0,0,0,0,-1,1000,1765,7.80079,-29.0964
-217,-741,8.15863,29.113,0,0,0,0,0,0,0,-1,1007,1765,8.15863,-29.1131
-210,-741,8.37024,29.3896,0,0,0,0,0,0,0,-1,1014,1765,8.37022,-29.3896
-203,-741,7.703,44.0701,0,0,0,0,0,0,0,-1,1021,1765,7.70306,-44.0701
-196,-741,13.1698,50.7012,0,0,0,0,0,0,0,-1,1028,1765,13.1698,-50.7012
-189,-741,12.3024,50.0712,0,0,0,0,0,0,0,-1,1035,1765,12.3023,-50.0712
-182,-741,11.3236,49.675,0,0,0,0,0,0,0,-1,1042,1765,11.3236,-49.675
-175,-741,10.1451,49.7836,0,0,0,0,0,0,0,-1,1049,1765,10.1451,-49.7836
-168,-741,8.38049,49.6892,0,0,0,0,0,0,0,-1,1056,1765,8.38049,-49.6892
-161,-741,8.15625,50.3143,0,0,0,0,0,0,0,-1,1063,1765,8.15622,-50.3143
-154,-741,7.93201,50.9395,0,0,0,0,0,0,0,-1,1070,1765,7.93195,-50.9395
-147,-741,10.9515,48.8568,0,0,0,0,0,0,0,-1,1077,1765,10.9515,-48.8569
-140,-741,10.5068,51.2876,0,0,0,0,0,0,0,-1,1084,1765,10.5068,-51.2876
-133,-741,10.6208,54.5072,0,0,0,0,0,0,0,-1,1091,1765,10.6208,-54.5072
-126,-741,9.89746,52.7167,0,0,0,0,0,0,0,-1,1098,1765,9.8975,-52.7167
-119,-741,9.33801,50.1482,0,0,0,0,0,0,0,-1,1105,1765,9.33802,-50.1482
-112,-741,9.6283,47.2815,0,0,0,0,0,0,0,-1,1112,1765,9.62827,-47.2815
-105,-741,9.61792,45.9158,0,0,0,0,0,0,0,-1,1119,1765,9.61797,-45.9158
-98,-741,9.19971,40.25,0,0,0,0,0,0,0,-1,1126,1765,9.19971,-40.25
-91,-741,8.40002,36.3687,0,0,0,0,0,0,0,-1,1133,1765,8.40002,-36.3687
-84,-741,7.8877,35.0892,0,0,0,0,0,0,0,-1,1140,1765,7.88776,-35.0892
-77,-741,7.73303,34.1174,0,0,0,0,0,0,0,-1,1147,1765,7.73304,-34.1174
-70,-741,7.5437,32.0275,0,0,0,0,0,0,0,-1,1154,1765,7.5437,-32.0275
-63,-741,9.21704,65.7152,0,0,0,0,0,0,0,-1,1161,1765,9.21702,-65.7153
-56,-741,9.43799,66.5819,0,0,0,0,0,0,0,-1,1168,1765,9.43799,-66.5819
-49,-741,9.37134,66.9186,0,0,0,0,0,0,0,-1,1175,1765,9.37138,-66.9186
-42,-741,9.27612,67.272,0,0,0,0,0,0,0,-1,1182,1765,9.2761,-67.272
-35,-741,9.29761,67.4557,-0.00698803,0.00232878,0.00513897,0.00460649,-0.00926575,1.15359,0.00815833,0.0246461,1189,1765,9.2976,-67.4557
-28,-741,9.2887,67.6721,-0.00764097,0.000929493,0.00506804,0.00328114,-0.00999262,1.13635,0.00798347,0.014843,1196,1765,9.2887,-67.6721
-21,-741,9.25208,67.8795,-0.00659248,-0.000426856,0.00461418,0.0020396,-0.00905893,1.0799,0.00682156,0.0193921,1203,1765,9.25203,-67.8795
-14,-741,9.18274,68.1173,-0.00525424,-0.00102502,0.00387041,0.00127078,-0.00755004,1.03542,0.00550605,0.0197848,1210,1765,9.18271,-68.1173
-7,-741,9.14465,68.2825,-0.00463376,-0.00180471,0.00318937,0.000269745,-0.00670821,0.994121,0.00456471,0.0155089,1217,1765,9.14464,-68.2825
0,-741,9.104,68.4178,-0.0039751,-0.00217108,0.00248902,-0.000425669,-0.00572051,0.959236,0.00368,0.0157104,1224,1765,9.10404,-68.4179
7,-741,9.05493,68.5754,-0.00354448,-0.00241925,0.00132488,-0.00154247,-0.00442125,0.986186,0.00259118,0.0183058,1231,1765,9.05494,-68.5754
14,-741,9.0033,68.7573,-0.00319189,-0.0020761,0.000103539,-0.00206657,-0.00320142,1.47905,0.00187425,0.0172285,1238,1765,9.00325,-68.7574
21,-741,8.9491,68.8433,-0.00282974,-0.00131793,-0.000977875,-0.000837861,-0.00330981,-1.11443,0.00198703,0.0140701,1245,1765,8.94907,-68.8433
28,-741,8.91455,68.957,-0.00254393,-0.000627445,-0.00210107,0.000723584,-0.00389495,-0.999344,0.00286842,0.0143099,1252,1765,8.91451,-68.957
35,-741,8.90503,69.0197,-0.00243264,0.000304929,-0.00315324,0.00237365,-0.00450137,-0.99017,0.00403216,0.0156616,1259,1765,8.90504,-69.0197
42,-741,8.87769,69.0632,-0.00252694,0.00134056,-0.0040898,0.00393073,-0.00511711,-1.00623,0.00523872,0.0162786,1266,1765,8.87768,-69.0632
49,-741,8.84875,69.108,-0.00275527,0.00228183,-0.00493235,0.00530143,-0.00577487,-1.02145,0.00639686,0.0109431,1273,1765,8.84878,-69.1081
56,-741,8.7998,69.1528,-0.0030548,0.0031184,-0.00550288,0.00634122,-0.00627762,-1.04099,0.00728552,0.0109862,1280,1765,8.79979,-69.1528
63,-741,8.7948,69.149,-0.00330729,0.00394727,-0.00594402,0.00728336,-0.00664339,-1.05936,0.00804344,0.0159946,1287,1765,8.79477,-69.1491
70,-741,8.76709,69.1431,-0.00333775,0.00511732,-0.00619657,0.00839109,-0.00661152,-1.08475,0.00868205,0.0174276,1294,1765,8.76706,-69.1431
77,-741,8.7439,69.1249,-0.00331774,0.00613074,-0.00617897,0.00918455,-0.00637155,-1.11178,0.00903013,0.0147579,1301,1765,8.74391,-69.1248
84,-741,8.69458,69.0576,-0.0039384,0.00665073,-0.00589506,0.00927981,-0.00656748,-1.15129,0.009194,0.0170835,1308,1765,8.69459,-69.0576
91,-741,8.64978,68.9901,-0.0043842,0.00699369,-0.00552212,0.00923304,-0.00662355,-1.18554,0.00919604,0.0144599,1315,1765,8.64977,-68.9901
98,-741,8.60388,68.875,-0.00411928,0.00745967,-0.00524338,0.00948115,-0.00614076,-1.20283,0.00908779,0.01162,1322,1765,8.60386,-68.875
105,-741,8.58862,68.7308,-0.00391774,0.00777619,-0.00486536,0.00953571,-0.00567727,-1.22379,0.00887689,0.012017,1329,1765,8.58861,-68.7309
112,-741,8.59656,68.5966,-0.00357717,0.00823642,-0.00428369,0.00962621,-0.00496696,-1.25707,0.00856732,0.0115771,1336,1765,8.59652,-68.5965
119,-741,8.5498,68.4375,-0.00345426,0.00827612,-0.00391489,0.00946266,-0.0046408,-1.27651,0.00829975,0.0144267,1343,1765,8.54978,-68.4376
126,-741,8.51038,68.225,-0.00359944,0.00817327,-0.00379657,0.00929143,-0.00471759,-1.28438,0.00823055,0.0205519,1350,1765,8.51034,-68.2249
133,-741,8.47571,68.0654,-0.00381551,0.00844434,-0.0035627,0.00940447,-0.00477564,-1.30756,0.00833101,0.015816,1357,1765,8.47568,-68.0654
140,-741,8.41125,67.8749,-0.00405336,0.00839447,-0.00340902,0.00926694,-0.00492582,-1.32025,0.00832098,0.0120712,1364,1765,8.41127,-67.8748
147,-741,8.37793,67.6606,-0.00428316,0.00818808,-0.00321558,0.00896836,-0.00506345,-1.33274,0.00820517,0.0118328,1371,1765,8.37789,-67.6607
154,-741,8.33374,67.4517,-0.00456703,0.00795509,-0.00301999,0.00864538,-0.00525732,-1.34608,0.00810578,0.00990352,1378,1765,8.33378,-67.4517
161,-741,8.30103,67.1876,-0.00473301,0.00760354,-0.00316121,0.00836641,-0.00549589,-1.334,0.0080604,0.011379,1385,1765,8.30102,-67.1876
168,-741,8.25598,66.9106,-0.00494142,0.00699267,-0.00322539,0.00780861,-0.00575735,-1.32302,0.0078621,0.0266502,1392,1765,8.25597,-66.9107
175,-741,8.19446,66.6543,0,0,0,0,0,0,0,-1,1399,1765,8.19441,-66.6543
182,-741,8.16858,66.2726,0,0,0,0,0,0,0,-1,1406,1765,8.16855,-66.2725
189,-741,8.0957,65.9723,0,0,0,0,0,0,0,-1,1413,1765,8.09567,-65.9723
196,-741,8.02075,65.6621,0,0,0,0,0,0,0,-1,1420,1765,8.02079,-65.6621
203,-741,8,65.1793,0,0,0,0,0,0,0,-1,1427,1765,8.00006,-65.1793
210,-741,7.93164,64.5348,0,0,0,0,0,0,0,-1,1434,1765,7.93161,-64.5347
217,-741,8.4032,40.1213,0,0,0,0,0,0,0,-1,1441,1765,8.40325,-40.1214
224,-741,8.0719,38.4249,0,0,0,0,0,0,0,-1,1448,1765,8.07187,-38.4249
231,-741,7.95923,39.0671,0,0,0,0,0,0,0,-1,1455,1765,7.9592,-39.0671
238,-741,7.96619,42.4865,0,0,0,0,0,0,0,-1,1462,1765,7.96621,-42.4864
245,-741,8.53577,45.7744,0,0,0,0,0,0,0,-1,1469,1765,8.53581,-45.7744
252,-741,8.59167,47.473,0,0,0,0,0,0,0,-1,1476,1765,8.59162,-47.473
259,-741,8.47412,48.5269,0,0,0,0,0,0,0,-1,1483,1765,8.47412,-48.5269
266,-741,8.50134,48.3838,0,0,0,0,0,0,0,-1,1490,1765,8.50132,-48.3838
273,-741,8.81421,49.1227,0,0,0,0,0,0,0,-1,1497,1765,8.81426,-49.1227
280,-741,7.33093,51.4729,0,0,0,0,0,0,0,-1,1504,1765,7.33092,-51.4729
287,-741,7.52783,49.7068,0,0,0,0,0,0,0,-1,1511,1765,7.52783,-49.7068
294,-741,5.91187,43.7742,0,0,0,0,0,0,0,-1,1518,1765,5.91188,-43.7742
301,-741,6.20667,38.5165,0,0,0,0,0,0,0,-1,1525,1765,6.20667,-38.5165
308,-741,7.99036,42.5969,0,0,0,0,0,0,0,-1,1532,1765,7.99037,-42.5969
315,-741,7.83838,41.6693,0,0,0,0,0,0,0,-1,1539,1765,7.83835,-41.6694
322,-741,7.68628,40.7418,0,0,0,0,0,0,0,-1,1546,1765,7.68633,-40.7418
329,-741,4.74414,17.928,0,0,0,0,0,0,0,-1,1553,1765,4.74414,-17.928
336,-741,5.74304,22.0945,0,0,0,0,0,0,0,-1,1560,1765,5.74306,-22.0945
343,-741,7.09888,26.501,0,0,0,0,0,0,0,-1,1567,1765,7.09885,-26.501
350,-741,4.90369,5.44666,0,0,0,0,0,0,0,-1,1574,1765,4.90368,-5.44664
357,-741,4.02063,5.16626,0,0,0,0,0,0,0,-1,1581,1765,4.02058,-5.1662
364,-741,0,0,0,0,0,0,0,0,0,-1,1588,1765,0,0
371,-741,0,0,0,0,0,0,0,0,0,-1,1595,1765,0,0
378,-741,0,0,0,0,0,0,0,0,0,-1,1602,1765,0,0
385,-741,0,0,0,0,0,0,0,0,0,-1,1609,1765,0,0
392,-741,0,0,0,0,0,0,0,0,0,-1,1616,1765,0,0
399,-741,0,0,0,0,0,0,0,0,0,-1,1623,1765,0,0
406,-741,0,0,0,0,0,0,0,0,0,-1,1630,1765,0,0
413,-741,0,0,0,0,0,0,0,0,0,-1,1637,1765,0,0
420,-741,0,0,0,0,0,0,0,0,0,-1,1644,1765,0,0
427,-741,0,0,0,0,0,0,0,0,0,-1,1651,1765,0,0
434,-741,0,0,0,0,0,0,0,0,0,-1,1658,1765,0,0
441,-741,0,0,0,0,0,0,0,0,0,-1,1665,1765,0,0
448,-741,0,0,0,0,0,0,0,0,0,-1,1672,1765,0,0
455,-741,0,0,0,0,0,0,0,0,0,-1,1679,1765,0,0
462,-741,0,0,0,0,0,0,0,0,0,-1,1686,1765,0,0
469,-741,0,0,0,0,0,0,0,0,0,-1,1693,1765,0,0
476,-741,0,0,0,0,0,0,0,0,0,-1,1700,1765,0,0
483,-741,0,0,0,0,0,0,0,0,0,-1,1707,1765,0,0
490,-741,0,0,0,0,0,0,0,0,0,-1,1714,1765,0,0
497,-741,0,0,0,0,0,0,0,0,0,-1,1721,1765,0,0
504,-741,0,0,0,0,0,0,0,0,0,-1,1728,1765,0,0
511,-741,0,0,0,0,0,0,0,0,0,-1,1735,1765,0,0
518,-741,0,0,0,0,0,0,0,0,0,-1,1742,1765,0,0
525,-741,0,0,0,0,0,0,0,0,0,-1,1749,1765,0,0
532,-741,0,0,0,0,0,0,0,0,0,-1,1756,1765,0,0
539,-741,0,0,0,0,0,0,0,0,0,-1,1763,1765,0,0
546,-741,0,0,0,0,0,0,0,0,0,-1,1770,1765,0,0
553,-741,0,0,0,0,0,0,0,0,0,-1,1777,1765,0,0
560,-741,0,0,0,0,0,0,0,0,0,-1,1784,1765,0,0
567,-741,0,0,0,0,0,0,0,0,0,-1,1791,1765,0,0
574,-741,0,0,0,0,0,0,0,0,0,-1,1798,1765,0,0
581,-741,0,0,0,0,0,0,0,0,0,-1,1805,1765,0,0
588,-741,0,0,0,0,0,0,0,0,0,-1,1812,1765,0,0
595,-741,0,0,0,0,0,0,0,0,0,-1,1819,1765,0,0
602,-741,0,0,0,0,0,0,0,0,0,-1,1826,1765,0,0
609,-741,0,0,0,0,0,0,0,0,0,-1,1833,1765,0,0
616,-741,0,0,0,0,0,0,0,0,0,-1,1840,1765,0,0
623,-741,0,0,0,0,0,0,0,0,0,-1,1847,1765,0,0
630,-741,0,0,0,0,0,0,0,0,0,-1,1854,1765,0,0
637,-741,0,0,0,0,0,0,0,0,0,-1,1861,1765,0,0
644,-741,0,0,0,0,0,0,0,0,0,-1,1868,1765,0,0
651,-741,0,0,0,0,0,0,0,0,0,-1,1875,1765,0,0
658,-741,0,0,0,0,0,0,0,0,0,-1,1882,1765,0,0
665,-741,0,0,0,0,0,0,0,0,0,-1,1889,1765,0,0
672,-741,0,0,0,0,0,0,0,0,0,-1,1896,1765,0,0
679,-741,0,0,0,0,0,0,0,0,0,-1,1903,1765,0,0
686,-741,0,0,0,0,0,0,0,0,0,-1,1910,1765,0,0
693,-741,0,0,0,0,0,0,0,0,0,-1,1917,1765,0,0
700,-741,0,0,0,0,0,0,0,0,0,-1,1924,1765,0,0
707,-741,0,0,0,0,0,0,0,0,0,-1,1931,1765,0,0
714,-741,0,0,0,0,0,0,0,0,0,-1,1938,1765,0,0
721,-741,0,0,0,0,0,0,0,0,0,-1,1945,1765,0,0
728,-741,0,0,0,0,0,0,0,0,0,-1,1952,1765,0,0
735,-741,0,0,0,0,0,0,0,0,0,-1,1959,1765,0,0
742,-741,0,0,0,0,0,0,0,0,0,-1,1966,1765,0,0
749,-741,0,0,0,0,0,0,0,0,0,-1,1973,1765,0,0
756,-741,0,0,0,0,0,0,0,0,0,-1,1980,1765,0,0
763,-741,0,0,0,0,0,0,0,0,0,-1,1987,1765,0,0
770,-741,0,0,0,0,0,0,0,0,0,-1,1994,1765,0,0
777,-741,0,0,0,0,0,0,0,0,0,-1,2001,1765,0,0
784,-741,0,0,0,0,0,0,0,0,0,-1,2008,1765,0,0
791,-741,0,0,0,0,0,0,0,0,0,-1,2015,1765,0,0
798,-741,0,0,0,0,0,0,0,0,0,-1,2022,1765,0,0
805,-741,0,0,0,0,0,0,0,0,0,-1,2029,1765,0,0
812,-741,0,0,0,0,0,0,0,0,0,-1,2036,1765,0,0
-700,-748,0,0,0,0,0,0,0,0,0,-1,524,1772,0,0
-693,-748,0,0,0,0,0,0,0,0,0,-1,531,1772,0,0
-686,-748,0,0,0,0,0,0,0,0,0,-1,538,1772,0,0
-679,-748,0,0,0,0,0,0,0,0,0,-1,545,1772,0,0
-672,-748,0,0,0,0,0,0,0,0,0,-1,552,1772,0,0
-665,-748,0,0,0,0,0,0,0,0,0,-1,559,1772,0,0
-658,-748,0,0,0,0,0,0,0,0,0,-1,566,1772,0,0
-651,-748,0,0,0,0,0,0,0,0,0,-1,573,1772,0,0
-644,-748,0,0,0,0,0,0,0,0,0,-1,580,1772,0,0
-637,-748,0,0,0,0,0,0,0,0,0,-1,587,1772,0,0
-630,-748,0,0,0,0,0,0,0,0,0,-1,594,1772,0,0
-623,-748,0,0,0,0,0,0,0,0,0,-1,601,1772,0,0
-616,-748,0,0,0,0,0,0,0,0,0,-1,608,1772,0,0
-609,-748,0,0,0,0,0,0,0,0,0,-1,615,1772,0,0
-602,-748,0,0,0,0,0,0,0,0,0,-1,622,1772,0,0
-595,-748,0,0,0,0,0,0,0,0,0,-1,629,1772,0,0
-588,-748,0,0,0,0,0,0,0,0,0,-1,636,1772,0,0
-581,-748,0,0,0,0,0,0,0,0,0,-1,643,1772,0,0
-574,-748,0,0,0,0,0,0,0,0,0,-1,650,1772,0,0
-567,-748,0,0,0,0,0,0,0,0,0,-1,657,1772,0,0
-560,-748,0,0,0,0,0,0,0,0,0,-1,664,1772,0,0
-553,-748,0,0,0,0,0,0,0,0,0,-1,671,1772,0,0
-546,-748,0,0,0,0,0,0,0,0,0,-1,678,1772,0,0
-539,-748,0,0,0,0,0,0,0,0,0,-1,685,1772,0,0
-532,-748,0,0,0,0,0,0,0,0,0,-1,692,1772,0,0
-525,-748,0,0,0,0,0,0,0,0,0,-1,699,1772,0,0
-518,-748,0,0,0,0,0,0,0,0,0,-1,706,1772,0,0
-511,-748,0,0,0,0,0,0,0,0,0,-1,713,1772,0,0
-504,-748,0,0,0,0,0,0,0,0,0,-1,720,1772,0,0
-497,-748,0,0,0,0,0,0,0,0,0,-1,727,1772,0,0
-490,-748,0,0,0,0,0,0,0,0,0,-1,734,1772,0,0
-483,-748,0,0,0,0,0,0,0,0,0,-1,741,1772,0,0
-476,-748,0,0,0,0,0,0,0,0,0,-1,748,1772,0,0
-469,-748,0,0,0,0,0,0,0,0,0,-1,755,1772,0,0
-462,-748,0,0,0,0,0,0,0,0,0,-1,762,1772,0,0
-455,-748,0,0,0,0,0,0,0,0,0,-1,769,1772,0,0
-448,-748,0,0,0,0,0,0,0,0,0,-1,776,1772,0,0
-441,-748,0,0,0,0,0,0,0,0,0,-1,783,1772,0,0
-434,-748,0,0,0,0,0,0,0,0,0,-1,790,1772,0,0
-427,-748,0,0,0,0,0,0,0,0,0,-1,797,1772,0,0
-420,-748,0,0,0,0,0,0,0,0,0,-1,804,1772,0,0
-413,-748,0,0,0,0,0,0,0,0,0,-1,811,1772,0,0
-406,-748,0,0,0,0,0,0,0,0,0,-1,818,1772,0,0
-399,-748,0,0,0,0,0,0,0,0,0,-1,825,1772,0,0
-392,-748,0,0,0,0,0,0,0,0,0,-1,832,1772,0,0
-385,-748,0,0,0,0,0,0,0,0,0,-1,839,1772,0,0
-378,-748,0,0,0,0,0,0,0,0,0,-1,846,1772,0,0
-371,-748,0,0,0,0,0,0,0,0,0,-1,853,1772,0,0
-364,-748,0,0,0,0,0,0,0,0,0,-1,860,1772,0,0
-357,-748,0,0,0,0,0,0,0,0,0,-1,867,1772,0,0
-350,-748,0,0,0,0,0,0,0,0,0,-1,874,1772,0,0
-343,-748,0,0,0,0,0,0,0,0,0,-1,881,1772,0,0
-336,-748,0,0,0,0,0,0,0,0,0,-1,888,1772,0,0
-329,-748,0,0,0,0,0,0,0,0,0,-1,895,1772,0,0
-322,-748,0,0,0,0,0,0,0,0,0,-1,902,1772,0,0
-315,-748,0,0,0,0,0,0,0,0,0,-1,909,1772,0,0
-308,-748,0,0,0,0,0,0,0,0,0,-1,916,1772,0,0
-301,-748,0,0,0,0,0,0,0,0,0,-1,923,1772,0,0
-294,-748,0,0,0,0,0,0,0,0,0,-1,930,1772,0,0
-287,-748,0,0,0,0,0,0,0,0,0,-1,937,1772,0,0
-280,-748,0,0,0,0,0,0,0,0,0,-1,944,1772,0,0
-273,-748,0,0,0,0,0,0,0,0,0,-1,951,1772,0,0
-266,-748,0,0,0,0,0,0,0,0,0,-1,958,1772,0,0
-259,-748,0,0,0,0,0,0,0,0,0,-1,965,1772,0,0
-252,-748,0,0,0,0,0,0,0,0,0,-1,972,1772,0,0
-245,-748,0,0,0,0,0,0,0,0,0,-1,979,1772,0,0
-238,-748,0,0,0,0,0,0,0,0,0,-1,986,1772,0,0
-231,-748,0,0,0,0,0,0,0,0,0,-1,993,1772,0,0
-224,-748,0,0,0,0,0,0,0,0,0,-1,1000,1772,0,0
-217,-748,8.97742,29.9884,0,0,0,0,0,0,0,-1,1007,1772,8.97744,-29.9884
-210,-748,8.8941,30.14,0,0,0,0,0,0,0,-1,1014,1772,8.8941,-30.14
-203,-748,7.88,43.3942,0,0,0,0,0,0,0,-1,1021,1772,7.87999,-43.3941
-196,-748,7.95483,43.9952,0,0,0,0,0,0,0,-1,1028,1772,7.95478,-43.9953
-189,-748,8.18359,44.5873,0,0,0,0,0,0,0,-1,1035,1772,8.18358,-44.5873
-182,-748,8.49304,45.5183,0,0,0,0,0,0,0,-1,1042,1772,8.49308,-45.5183
-175,-748,10.4392,50.6167,0,0,0,0,0,0,0,-1,1049,1772,10.4392,-50.6167
-168,-748,9.54541,50.6587,0,0,0,0,0,0,0,-1,1056,1772,9.54547,-50.6586
-161,-748,8.02576,51.5823,0,0,0,0,0,0,0,-1,1063,1772,8.02572,-51.5823
-154,-748,11.4552,48.7113,0,0,0,0,0,0,0,-1,1070,1772,11.4552,-48.7113
-147,-748,11.7789,49.4792,0,0,0,0,0,0,0,-1,1077,1772,11.7789,-49.4793
-140,-748,10.4108,44.9001,0,0,0,0,0,0,0,-1,1084,1772,10.4107,-44.9001
-133,-748,7.44727,22.0308,0,0,0,0,0,0,0,-1,1091,1772,7.44728,-22.0308
-126,-748,5.98035,22.6067,0,0,0,0,0,0,0,-1,1098,1772,5.9803,-22.6067
-119,-748,6.63342,26.309,0,0,0,0,0,0,0,-1,1105,1772,6.6334,-26.3089
-112,-748,6.91333,24.923,0,0,0,0,0,0,0,-1,1112,1772,6.91339,-24.923
-105,-748,6.83313,25.0537,0,0,0,0,0,0,0,-1,1119,1772,6.83311,-25.0537
-98,-748,8.13623,30.8743,0,0,0,0,0,0,0,-1,1126,1772,8.13628,-30.8742
-91,-748,4.85352,15.3033,0,0,0,0,0,0,0,-1,1133,1772,4.85351,-15.3033
-84,-748,-0.192017,7.26196,0,0,0,0,0,0,0,-1,1140,1772,-0.192047,-7.26201
-77,-748,4.42615,13.5537,0,0,0,0,0,0,0,-1,1147,1772,4.4261,-13.5538
-70,-748,4.46191,13.7446,0,0,0,0,0,0,0,-1,1154,1772,4.4619,-13.7446
-63,-748,4.49768,13.9355,0,0,0,0,0,0,0,-1,1161,1772,4.49769,-13.9355
-56,-748,3.05762,7.87817,0,0,0,0,0,0,0,-1,1168,1772,3.05768,-7.87822
-49,-748,3.04102,7.82471,0,0,0,0,0,0,0,-1,1175,1772,3.04096,-7.82468
-42,-748,0.793457,14.9474,0,0,0,0,0,0,0,-1,1182,1772,0.793413,-14.9474
-35,-748,9.57617,67.4156,0,0,0,0,0,0,0,-1,1189,1772,9.57619,-67.4157
-28,-748,9.53638,67.679,-0.00862105,-0.00124419,0.0105296,0.00622433,-0.0160896,0.953865,0.013296,0.0480791,1196,1772,9.53635,-67.679
-21,-748,9.44397,67.8883,-0.00739293,-0.00280557,0.00966205,0.00483132,-0.0150298,0.901936,0.0119601,0.0237537,1203,1772,9.44399,-67.8883
-14,-748,9.35083,68.0399,-0.00583273,-0.00323489,0.00830926,0.00387636,-0.012944,0.862932,0.0101707,0.0179104,1210,1772,9.35083,-68.0399
-7,-748,9.30676,68.2367,-0.00517533,-0.00382012,0.00698462,0.00251968,-0.0115151,0.833754,0.00864,0.0172464,1217,1772,9.30682,-68.2367
0,-748,9.25012,68.3939,-0.00444104,-0.00400779,0.00560056,0.00138033,-0.00982915,0.804728,0.00705802,0.0171367,1224,1772,9.25017,-68.394
7,-748,9.1842,68.5123,-0.00402225,-0.00407068,0.0035543,-0.000492083,-0.00760084,0.781992,0.00491143,0.0162971,1231,1772,9.18424,-68.5124
14,-748,9.1167,68.6989,-0.00378061,-0.00357789,0.00128448,-0.00239078,-0.00496772,0.824773,0.00286879,0.0175986,1238,1772,9.11672,-68.6988
21,-748,9.06787,68.8206,-0.00352486,-0.00257468,-0.000758619,-0.00215467,-0.00394488,-1.06515,0.00228081,0.0133579,1245,1772,9.06792,-68.8205
28,-748,9.021,68.9309,-0.00330295,-0.00173762,-0.00268939,0.000280678,-0.00532125,-0.926997,0.00364467,0.0134602,1252,1772,9.02098,-68.9309
35,-748,8.95703,68.9841,-0.00329394,-0.000668637,-0.00450817,0.0027141,-0.00667667,-0.927067,0.00558034,0.0135909,1259,1772,8.95704,-68.9841
42,-748,8.93884,69.0348,-0.00353711,0.000547878,-0.00606254,0.00490274,-0.00789198,-0.947878,0.00745393,0.0163505,1266,1772,8.93881,-69.0347
49,-748,8.89673,69.0618,-0.00393984,0.00172707,-0.00754803,0.00695595,-0.00916872,-0.964954,0.00933876,0.0121246,1273,1772,8.8967,-69.0618
56,-748,8.8197,69.1155,-0.00441894,0.00278517,-0.00858468,0.00849287,-0.0101266,-0.984038,0.0107638,0.0107394,1280,1772,8.81975,-69.1154
63,-748,8.78638,69.116,-0.00477957,0.00395868,-0.00934371,0.00990431,-0.0107252,-1.0041,0.0119136,0.0129491,1287,1772,8.78637,-69.116
70,-748,8.74988,69.0963,-0.00478801,0.0057176,-0.00970094,0.0114966,-0.010567,-1.03353,0.0127422,0.0160136,1294,1772,8.7499,-69.0963
77,-748,8.69739,69.0612,-0.00468705,0.00755146,-0.00972048,0.0129184,-0.010054,-1.06632,0.0132975,0.0151389,1301,1772,8.69742,-69.0612
84,-748,8.65027,69.0048,-0.00536656,0.00875309,-0.00936695,0.0134228,-0.0100362,-1.10833,0.013591,0.016152,1308,1772,8.65025,-69.0048
91,-748,8.5769,68.9678,-0.00578164,0.00978513,-0.00891487,0.0138363,-0.00983278,-1.14427,0.0137303,0.0123258,1315,1772,8.57696,-68.9678
98,-748,8.50415,68.8616,-0.00534295,0.0111003,-0.00863071,0.0147986,-0.00904123,-1.16596,0.0138971,0.0115398,1322,1772,8.50412,-68.8616
105,-748,8.48938,68.6862,-0.00498646,0.0123259,-0.00824607,0.0156249,-0.00828549,-1.19023,0.0140198,0.0131056,1329,1772,8.48932,-68.6862
112,-748,8.45642,68.5394,-0.00441723,0.0137541,-0.00756445,0.0164908,-0.00715401,-1.22365,0.0140016,0.0163718,1336,1772,8.45647,-68.5394
119,-748,8.40955,68.4021,-0.00402171,0.0147833,-0.00697822,0.0170899,-0.00632829,-1.25156,0.0139883,0.0143036,1343,1772,8.40956,-68.4021
126,-748,8.36548,68.2537,-0.00403334,0.0154163,-0.00676435,0.0175375,-0.00615456,-1.26692,0.0141951,0.0166389,1350,1772,8.36546,-68.2537
133,-748,8.27051,68.0792,-0.00430442,0.0162861,-0.00656212,0.0181996,-0.00621792,-1.28707,0.0146523,0.0104353,1357,1772,8.27049,-68.0792
140,-748,8.20972,67.8855,-0.0046081,0.01644,-0.00635962,0.0182123,-0.00638041,-1.29901,0.0147362,0.0130041,1364,1772,8.20975,-67.8855
147,-748,8.1969,67.6458,-0.00487675,0.0161335,-0.00608781,0.01777,-0.00651326,-1.30819,0.0145134,0.01587,1371,1772,8.19695,-67.6457
154,-748,8.10767,67.4108,-0.00524999,0.0155627,-0.00565077,0.0169979,-0.00668523,-1.32206,0.014099,0.0140984,1378,1772,8.10762,-67.4108
161,-748,8.05396,67.1853,-0.00544627,0.0146248,-0.00563719,0.0160997,-0.00692116,-1.3149,0.0136387,0.0201972,1385,1772,8.0539,-67.1853
168,-748,8.00891,66.9713,0,0,0,0,0,0,0,-1,1392,1772,8.00896,-66.9713
175,-748,11.6235,16.8242,0,0,0,0,0,0,0,-1,1399,1772,11.6236,-16.8242
182,-748,7.62476,10.3058,0,0,0,0,0,0,0,-1,1406,1772,7.62476,-10.3058
189,-748,6.15857,6.95898,0,0,0,0,0,0,0,-1,1413,1772,6.15862,-6.95896
196,-748,3.9425,8.46021,0,0,0,0,0,0,0,-1,1420,1772,3.9425,-8.46026
203,-748,3.9668,12.9835,0,0,0,0,0,0,0,-1,1427,1772,3.96678,-12.9836
210,-748,4.71472,16.8318,0,0,0,0,0,0,0,-1,1434,1772,4.71471,-16.8317
217,-748,5.38452,21.5551,0,0,0,0,0,0,0,-1,1441,1772,5.38455,-21.555
224,-748,6.14258,25.2345,0,0,0,0,0,0,0,-1,1448,1772,6.14263,-25.2345
231,-748,6.46045,29.7867,0,0,0,0,0,0,0,-1,1455,1772,6.46049,-29.7867
238,-748,7.41565,32.8574,0,0,0,0,0,0,0,-1,1462,1772,7.41562,-32.8574
245,-748,7.84912,32.0914,0,0,0,0,0,0,0,-1,1469,1772,7.84914,-32.0914
252,-748,7.57336,29.4369,0,0,0,0,0,0,0,-1,1476,1772,7.57337,-29.4369
259,-748,9.47351,46.1896,0,0,0,0,0,0,0,-1,1483,1772,9.4735,-46.1895
266,-748,8.36536,48.6908,0,0,0,0,0,0,0,-1,1490,1772,8.36541,-48.6909
273,-748,7.31421,46.6743,0,0,0,0,0,0,0,-1,1497,1772,7.31415,-46.6743
280,-748,8.76538,40.4501,0,0,0,0,0,0,0,-1,1504,1772,8.76537,-40.45
287,-748,14.161,8.32813,0,0,0,0,0,0,0,-1,1511,1772,14.161,-8.32808
294,-748,6.38525,32.4724,0,0,0,0,0,0,0,-1,1518,1772,6.38521,-32.4725
301,-748,5.40393,38.9807,0,0,0,0,0,0,0,-1,1525,1772,5.40397,-38.9807
308,-748,5.95227,37.1827,0,0,0,0,0,0,0,-1,1532,1772,5.95229,-37.1827
315,-748,7.71741,42.637,0,0,0,0,0,0,0,-1,1539,1772,7.71738,-42.637
322,-748,4.26538,29.0557,0,0,0,0,0,0,0,-1,1546,1772,4.26537,-29.0556
329,-748,3.87256,16.1473,0,0,0,0,0,0,0,-1,1553,1772,3.87259,-16.1474
336,-748,4.81006,19.6141,0,0,0,0,0,0,0,-1,1560,1772,4.81011,-19.6141
343,-748,0,0,0,0,0,0,0,0,0,-1,1567,1772,0,0
350,-748,0,0,0,0,0,0,0,0,0,-1,1574,1772,0,0
357,-748,0,0,0,0,0,0,0,0,0,-1,1581,1772,0,0
364,-748,0,0,0,0,0,0,0,0,0,-1,1588,1772,0,0
371,-748,0,0,0,0,0,0,0,0,0,-1,1595,1772,0,0
378,-748,0,0,0,0,0,0,0,0,0,-1,1602,1772,0,0
385,-748,0,0,0,0,0,0,0,0,0,-1,1609,1772,0,0
392,-748,0,0,0,0,0,0,0,0,0,-1,1616,1772,0,0
399,-748,0,0,0,0,0,0,0,0,0,-1,1623,1772,0,0
406,-748,0,0,0,0,0,0,0,0,0,-1,1630,1772,0,0
413,-748,0,0,0,0,0,0,0,0,0,-1,1637,1772,0,0
420,-748,0,0,0,0,0,0,0,0,0,-1,1644,1772,0,0
427,-748,0,0,0,0,0,0,0,0,0,-1,1651,1772,0,0
434,-748,0,0,0,0,0,0,0,0,0,-1,1658,1772,0,0
441,-748,0,0,0,0,0,0,0,0,0,-1,1665,1772,0,0
448,-748,0,0,0,0,0,0,0,0,0,-1,1672,1772,0,0
455,-748,0,0,0,0,0,0,0,0,0,-1,1679,1772,0,0
462,-748,0,0,0,0,0,0,0,0,0,-1,1686,1772,0,0
469,-748,0,0,0,0,0,0,0,0,0,-1,1693,1772,0,0
476,-748,0,0,0,0,0,0,0,0,0,-1,1700,1772,0,0
483,-748,0,0,0,0,0,0,0,0,0,-1,1707,1772,0,0
490,-748,0,0,0,0,0,0,0,0,0,-1,1714,1772,0,0
497,-748,0,0,0,0,0,0,0,0,0,-1,1721,1772,0,0
504,-748,0,0,0,0,0,0,0,0,0,-1,1728,1772,0,0
511,-748,0,0,0,0,0,0,0,0,0,-1,1735,1772,0,0
518,-748,0,0,0,0,0,0,0,0,0,-1,1742,1772,0,0
525,-748,0,0,0,0,0,0,0,0,0,-1,1749,1772,0,0
532,-748,0,0,0,0,0,0,0,0,0,-1,1756,1772,0,0
539,-748,0,0,0,0,0,0,0,0,0,-1,1763,1772,0,0
546,-748,0,0,0,0,0,0,0,0,0,-1,1770,1772,0,0
553,-748,0,0,0,0,0,0,0,0,0,-1,1777,1772,0,0
560,-748,0,0,0,0,0,0,0,0,0,-1,1784,1772,0,0
567,-748,0,0,0,0,0,0,0,0,0,-1,1791,1772,0,0
574,-748,0,0,0,0,0,0,0,0,0,-1,1798,1772,0,0
581,-748,0,0,0,0,0,0,0,0,0,-1,1805,1772,0,0
588,-748,0,0,0,0,0,0,0,0,0,-1,1812,1772,0,0
595,-748,0,0,0,0,0,0,0,0,0,-1,1819,1772,0,0
602,-748,0,0,0,0,0,0,0,0,0,-1,1826,1772,0,0
609,-748,0,0,0,0,0,0,0,0,0,-1,1833,1772,0,0
616,-748,0,0,0,0,0,0,0,0,0,-1,1840,1772,0,0
623,-748,0,0,0,0,0,0,0,0,0,-1,1847,1772,0,0
630,-748,0,0,0,0,0,0,0,0,0,-1,1854,1772,0,0
637,-748,0,0,0,0,0,0,0,0,0,-1,1861,1772,0,0
644,-748,0,0,0,0,0,0,0,0,0,-1,1868,1772,0,0
651,-748,0,0,0,0,0,0,0,0,0,-1,1875,1772,0,0
658,-748,0,0,0,0,0,0,0,0,0,-1,1882,1772,0,0
665,-748,0,0,0,0,0,0,0,0,0,-1,1889,1772,0,0
672,-748,0,0,0,0,0,0,0,0,0,-1,1896,1772,0,0
679,-748,0,0,0,0,0,0,0,0,0,-1,1903,1772,0,0
686,-748,0,0,0,0,0,0,0,0,0,-1,1910,1772,0,0
693,-748,0,0,0,0,0,0,0,0,0,-1,1917,1772,0,0
700,-748,0,0,0,0,0,0,0,0,0,-1,1924,1772,0,0
707,-748,0,0,0,0,0,0,0,0,0,-1,1931,1772,0,0
714,-748,0,0,0,0,0,0,0,0,0,-1,1938,1772,0,0
721,-748,0,0,0,0,0,0,0,0,0,-1,1945,1772,0,0
728,-748,0,0,0,0,0,0,0,0,0,-1,1952,1772,0,0
735,-748,0,0,0,0,0,0,0,0,0,-1,1959,1772,0,0
742,-748,0,0,0,0,0,0,0,0,0,-1,1966,1772,0,0
749,-748,0,0,0,0,0,0,0,0,0,-1,1973,1772,0,0
756,-748,0,0,0,0,0,0,0,0,0,-1,1980,1772,0,0
763,-748,0,0,0,0,0,0,0,0,0,-1,1987,1772,0,0
770,-748,0,0,0,0,0,0,0,0,0,-1,1994,1772,0,0
777,-748,0,0,0,0,0,0,0,0,0,-1,2001,1772,0,0
784,-748,0,0,0,0,0,0,0,0,0,-1,2008,1772,0,0
791,-748,0,0,0,0,0,0,0,0,0,-1,2015,1772,0,0
798,-748,0,0,0,0,0,0,0,0,0,-1,2022,1772,0,0
805,-748,0,0,0,0,0,0,0,0,0,-1,2029,1772,0,0
812,-748,0,0,0,0,0,0,0,0,0,-1,2036,1772,0,0
-700,-755,0,0,0,0,0,0,0,0,0,-1,524,1779,0,0
-693,-755,0,0,0,0,0,0,0,0,0,-1,531,1779,0,0
-686,-755,0,0,0,0,0,0,0,0,0,-1,538,1779,0,0
-679,-755,0,0,0,0,0,0,0,0,0,-1,545,1779,0,0
-672,-755,0,0,0,0,0,0,0,0,0,-1,552,1779,0,0
-665,-755,0,0,0,0,0,0,0,0,0,-1,559,1779,0,0
-658,-755,0,0,0,0,0,0,0,0,0,-1,566,1779,0,0
-651,-755,0,0,0,0,0,0,0,0,0,-1,573,1779,0,0
-644,-755,0,0,0,0,0,0,0,0,0,-1,580,1779,0,0
-637,-755,0,0,0,0,0,0,0,0,0,-1,587,1779,0,0
-630,-755,0,0,0,0,0,0,0,0,0,-1,594,1779,0,0
-623,-755,0,0,0,0,0,0,0,0,0,-1,601,1779,0,0
-616,-755,0,0,0,0,0,0,0,0,0,-1,608,1779,0,0
-609,-755,0,0,0,0,0,0,0,0,0,-1,615,1779,0,0
-602,-755,0,0,0,0,0,0,0,0,0,-1,622,1779,0,0
-595,-755,0,0,0,0,0,0,0,0,0,-1,629,1779,0,0
-588,-755,0,0,0,0,0,0,0,0,0,-1,636,1779,0,0
-581,-755,0,0,0,0,0,0,0,0,0,-1,643,1779,0,0
-574,-755,0,0,0,0,0,0,0,0,0,-1,650,1779,0,0
-567,-755,0,0,0,0,0,0,0,0,0,-1,657,1779,0,0
-560,-755,0,0,0,0,0,0,0,0,0,-1,664,1779,0,0
-553,-755,0,0,0,0,0,0,0,0,0,-1,671,1779,0,0
-546,-755,0,0,0,0,0,0,0,0,0,-1,678,1779,0,0
-539,-755,0,0,0,0,0,0,0,0,0,-1,685,1779,0,0
-532,-755,0,0,0,0,0,0,0,0,0,-1,692,1779,0,0
-525,-755,0,0,0,0,0,0,0,0,0,-1,699,1779,0,0
-518,-755,0,0,0,0,0,0,0,0,0,-1,706,1779,0,0
-511,-755,0,0,0,0,0,0,0,0,0,-1,713,1779,0,0
-504,-755,0,0,0,0,0,0,0,0,0,-1,720,1779,0,0
-497,-755,0,0,0,0,0,0,0,0,0,-1,727,1779,0,0
-490,-755,0,0,0,0,0,0,0,0,0,-1,734,1779,0,0
-483,-755,0,0,0,0,0,0,0,0,0,-1,741,1779,0,0
-476,-755,0,0,0,0,0,0,0,0,0,-1,748,1779,0,0
-469,-755,0,0,0,0,0,0,0,0,0,-1,755,1779,0,0
-462,-755,0,0,0,0,0,0,0,0,0,-1,762,1779,0,0
-455,-755,0,0,0,0,0,0,0,0,0,-1,769,1779,0,0
-448,-755,0,0,0,0,0,0,0,0,0,-1,776,1779,0,0
-441,-755,0,0,0,0,0,0,0,0,0,-1,783,1779,0,0
-434,-755,0,0,0,0,0,0,0,0,0,-1,790,1779,0,0
-427,-755,0,0,0,0,0,0,0,0,0,-1,797,1779,0,0
-420,-755,0,0,0,0,0,0,0,0,0,-1,804,1779,0,0
-413,-755,0,0,0,0,0,0,0,0,0,-1,811,1779,0,0
-406,-755,0,0,0,0,0,0,0,0,0,-1,818,1779,0,0
-399,-755,0,0,0,0,0,0,0,0,0,-1,825,1779,0,0
-392,-755,0,0,0,0,0,0,0,0,0,-1,832,1779,0,0
-385,-755,0,0,0,0,0,0,0,0,0,-1,839,1779,0,0
-378,-755,0,0,0,0,0,0,0,0,0,-1,846,1779,0,0
-371,-755,0,0,0,0,0,0,0,0,0,-1,853,1779,0,0
-364,-755,0,0,0,0,0,0,0,0,0,-1,860,1779,0,0
-357,-755,0,0,0,0,0,0,0,0,0,-1,867,1779,0,0
-350,-755,0,0,0,0,0,0,0,0,0,-1,874,1779,0,0
-343,-755,0,0,0,0,0,0,0,0,0,-1,881,1779,0,0
-336,-755,0,0,0,0,0,0,0,0,0,-1,888,1779,0,0
-329,-755,0,0,0,0,0,0,0,0,0,-1,895,1779,0,0
-322,-755,0,0,0,0,0,0,0,0,0,-1,902,1779,0,0
-315,-755,0,0,0,0,0,0,0,0,0,-1,909,1779,0,0
-308,-755,0,0,0,0,0,0,0,0,0,-1,916,1779,0,0
-301,-755,0,0,0,0,0,0,0,0,0,-1,923,1779,0,0
-294,-755,0,0,0,0,0,0,0,0,0,-1,930,1779,0,0
-287,-755,0,0,0,0,0,0,0,0,0,-1,937,1779,0,0
-280,-755,0,0,0,0,0,0,0,0,0,-1,944,1779,0,0
-273,-755,0,0,0,0,0,0,0,0,0,-1,951,1779,0,0
-266,-755,0,0,0,0,0,0,0,0,0,-1,958,1779,0,0
-259,-755,0,0,0,0,0,0,0,0,0,-1,965,1779,0,0
-252,-755,0,0,0,0,0,0,0,0,0,-1,972,1779,0,0
-245,-755,0,0,0,0,0,0,0,0,0,-1,979,1779,0,0
-238,-755,0,0,0,0,0,0,0,0,0,-1,986,1779,0,0
-231,-755,0,0,0,0,0,0,0,0,0,-1,993,1779,0,0
-224,-755,0,0,0,0,0,0,0,0,0,-1,1000,1779,0,0
-217,-755,0,0,0,0,0,0,0,0,0,-1,1007,1779,0,0
-210,-755,0,0,0,0,0,0,0,0,0,-1,1014,1779,0,0
-203,-755,8.97363,30.5414,0,0,0,0,0,0,0,-1,1021,1779,8.97362,-30.5414
-196,-755,8.08667,43.2203,0,0,0,0,0,0,0,-1,1028,1779,8.08666,-43.2204
-189,-755,0.725098,39.8892,0,0,0,0,0,0,0,-1,1035,1779,0.725055,-39.8891
-182,-755,1.80835,40.9692,0,0,0,0,0,0,0,-1,1042,1779,1.80838,-40.9692
-175,-755,3.04749,41.9612,0,0,0,0,0,0,0,-1,1049,1779,3.0475,-41.9612
-168,-755,4.8302,42.7631,0,0,0,0,0,0,0,-1,1056,1779,4.8302,-42.7631
-161,-755,6.46777,44.0007,0,0,0,0,0,0,0,-1,1063,1779,6.46773,-44.0007
-154,-755,7.71094,44.9023,0,0,0,0,0,0,0,-1,1070,1779,7.71089,-44.9023
-147,-755,-6.45593,10.2422,0,0,0,0,0,0,0,-1,1077,1779,-6.45594,-10.2422
-140,-755,1.33521,21.3856,0,0,0,0,0,0,0,-1,1084,1779,1.33522,-21.3857
-133,-755,2.89417,21.0964,0,0,0,0,0,0,0,-1,1091,1779,2.89422,-21.0964
-126,-755,3.26404,20.9304,0,0,0,0,0,0,0,-1,1098,1779,3.26399,-20.9305
-119,-755,5.17761,21.9325,0,0,0,0,0,0,0,-1,1105,1779,5.17761,-21.9325
-112,-755,5.40247,24.5646,0,0,0,0,0,0,0,-1,1112,1779,5.40244,-24.5646
-105,-755,7.01294,20.1539,0,0,0,0,0,0,0,-1,1119,1779,7.01295,-20.154
-98,-755,5.50708,16.9628,0,0,0,0,0,0,0,-1,1126,1779,5.5071,-16.9628
-91,-755,5.51025,12.0438,0,0,0,0,0,0,0,-1,1133,1779,5.51022,-12.0439
-84,-755,0.169312,8.66443,0,0,0,0,0,0,0,-1,1140,1779,0.16932,-8.66446
-77,-755,-0.0491943,6.87439,0,0,0,0,0,0,0,-1,1147,1779,-0.0491385,-6.87443
-70,-755,4.5686,13.2169,0,0,0,0,0,0,0,-1,1154,1779,4.56865,-13.2169
-63,-755,-1.36316,7.3147,0,0,0,0,0,0,0,-1,1161,1779,-1.36312,-7.31473
-56,-755,0.0483398,5.06079,0,0,0,0,0,0,0,-1,1168,1779,0.0483138,-5.06084
-49,-755,-1.32263,5.33716,0,0,0,0,0,0,0,-1,1175,1779,-1.32264,-5.33718
-42,-755,-2.03613,4.01672,0,0,0,0,0,0,0,-1,1182,1779,-2.0361,-4.01671
-35,-755,-2.72498,2.37476,0,0,0,0,0,0,0,-1,1189,1779,-2.72502,-2.37473
-28,-755,9.66516,67.7197,0,0,0,0,0,0,0,-1,1196,1779,9.66517,-67.7198
-21,-755,9.59412,67.7626,0,0,0,0,0,0,0,-1,1203,1779,9.59412,-67.7626
-14,-755,9.50879,67.9572,-0.00651689,-0.00624811,0.0132827,0.00690084,-0.0196658,0.790457,0.0159175,0.0371665,1210,1779,9.50875,-67.9571
-7,-755,9.41284,68.1349,-0.00580006,-0.00669686,0.0111741,0.0049346,-0.0174315,0.765345,0.0135684,0.0270348,1217,1779,9.4128,-68.1349
0,-755,9.33374,68.2926,-0.00478052,-0.00675397,0.00897222,0.00325907,-0.0147936,0.73063,0.0111092,0.0161339,1224,1779,9.33369,-68.2926
7,-755,9.30481,68.4565,-0.00419166,-0.00663043,0.00588765,0.000601558,-0.0114236,0.683288,0.00782399,0.0143819,1231,1779,9.30484,-68.4565
14,-755,9.24597,68.6232,-0.00390319,-0.00583059,0.00250646,-0.00218155,-0.00755223,0.601867,0.004488,0.0134231,1238,1779,9.246,-68.6232
21,-755,9.1521,68.7823,-0.00372186,-0.00476795,-0.000681773,-0.00338561,-0.0051042,-0.458193,0.00299884,0.0188088,1245,1779,9.15211,-68.7823
28,-755,9.07007,68.8179,-0.0036625,-0.00382545,-0.00356139,-0.000181657,-0.00730629,-0.773962,0.00481145,0.0220108,1252,1779,9.07005,-68.8178
35,-755,9.02161,68.9149,-0.00389999,-0.0027794,-0.00614728,0.00283307,-0.00951245,-0.830845,0.00746733,0.0221653,1259,1779,9.02162,-68.9149
42,-755,8.98596,68.9935,-0.00442767,-0.00145653,-0.00833206,0.00552136,-0.0114056,-0.873619,0.00996764,0.0170324,1266,1779,8.98597,-68.9935
49,-755,8.93884,68.999,-0.0051651,-0.000223363,-0.0104174,0.00801216,-0.0134006,-0.90184,0.0124925,0.0116829,1273,1779,8.9389,-68.999
56,-755,8.83691,69.0577,-0.00602925,0.000785652,-0.0118717,0.00972922,-0.0149728,-0.925153,0.0143684,0.0103227,1280,1779,8.83689,-69.0578
63,-755,8.78809,69.0902,-0.00671777,0.00200368,-0.0128887,0.0112494,-0.0159635,-0.948522,0.0157897,0.0105181,1287,1779,8.7881,-69.0902
70,-755,8.75867,69.0411,-0.00691699,0.00406701,-0.013329,0.0129911,-0.0158411,-0.980816,0.0166734,0.0155029,1294,1779,8.75862,-69.0411
77,-755,8.6604,68.9675,-0.00690659,0.00651601,-0.0133671,0.014762,-0.0151526,-1.01805,0.0172717,0.0151402,1301,1779,8.66046,-68.9676
84,-755,8.59338,68.9449,-0.00771263,0.00829795,-0.0129648,0.0155298,-0.0149445,-1.06198,0.0175954,0.0160012,1308,1779,8.59337,-68.945
91,-755,8.52612,68.8834,-0.00812915,0.0100371,-0.0124612,0.0163742,-0.0144663,-1.10033,0.0178171,0.0155169,1315,1779,8.52607,-68.8835
98,-755,8.42981,68.8145,-0.00750332,0.0123079,-0.0121822,0.0181035,-0.0132989,-1.12674,0.0182008,0.0154714,1322,1779,8.42978,-68.8144
105,-755,8.37415,68.677,-0.00700937,0.0147258,-0.0118404,0.0199299,-0.0122135,-1.15669,0.0187354,0.019268,1329,1779,8.37413,-68.677
112,-755,8.28491,68.5076,-0.00614156,0.0175266,-0.0110699,0.0218971,-0.010512,-1.19477,0.0190924,0.0253508,1336,1779,8.28493,-68.5076
119,-755,8.21826,68.355,-0.00534126,0.0199713,-0.0103549,0.0236676,-0.00903752,-1.22794,0.0195019,0.025917,1343,1779,8.21826,-68.3549
126,-755,8.23413,68.3121,-0.00492768,0.022436,-0.00988683,0.0256344,-0.00812607,-1.25792,0.0203466,0.0301342,1350,1779,8.23412,-68.3122
133,-755,8.09961,68.1353,-0.00485797,0.0246809,-0.00965425,0.0275564,-0.00773339,-1.28132,0.0214192,0.0305142,1357,1779,8.0996,-68.1353
140,-755,7.90601,67.9196,-0.0049705,0.0259647,-0.0095874,0.028695,-0.00770083,-1.29336,0.0221478,0.0366116,1364,1779,7.90603,-67.9195
147,-755,7.95068,67.6801,-0.00518556,0.0258834,-0.00927451,0.0284414,-0.00774352,-1.30168,0.0220011,0.0389772,1371,1779,7.95063,-67.6801
154,-755,7.87549,67.5076,-0.00553022,0.0253626,-0.00865155,0.0276205,-0.00778807,-1.31551,0.0214854,0.0389594,1378,1779,7.87543,-67.5076
161,-755,7.82922,67.1971,0,0,0,0,0,0,0,-1,1385,1779,7.82926,-67.1971
168,-755,3.98181,7.35901,0,0,0,0,0,0,0,-1,1392,1779,3.98184,-7.35904
175,-755,8.17065,1.34363,0,0,0,0,0,0,0,-1,1399,1779,8.1706,-1.34368
182,-755,8.09216,2.96924,0,0,0,0,0,0,0,-1,1406,1779,8.09213,-2.9693
189,-755,8.04419,4.68042,0,0,0,0,0,0,0,-1,1413,1779,8.04419,-4.68046
196,-755,7.74841,7.4541,0,0,0,0,0,0,0,-1,1420,1779,7.74842,-7.45405
203,-755,4.80554,6.88696,0,0,0,0,0,0,0,-1,1427,1779,4.80554,-6.88697
210,-755,25.1694,7.35693,0,0,0,0,0,0,0,-1,1434,1779,25.1694,-7.35688
217,-755,5.01648,16.411,0,0,0,0,0,0,0,-1,1441,1779,5.01646,-16.411
224,-755,5.18103,22.6283,0,0,0,0,0,0,0,-1,1448,1779,5.18101,-22.6283
231,-755,5.7489,30.15,0,0,0,0,0,0,0,-1,1455,1779,5.74885,-30.15
238,-755,6.56323,29.2726,0,0,0,0,0,0,0,-1,1462,1779,6.56327,-29.2726
245,-755,8.29639,28.2113,0,0,0,0,0,0,0,-1,1469,1779,8.29639,-28.2113
252,-755,6.8877,28.8699,0,0,0,0,0,0,0,-1,1476,1779,6.88774,-28.8698
259,-755,6.42676,30.8574,0,0,0,0,0,0,0,-1,1483,1779,6.42677,-30.8575
266,-755,17.255,7.86096,0,0,0,0,0,0,0,-1,1490,1779,17.255,-7.86092
273,-755,15.7932,7.59778,0,0,0,0,0,0,0,-1,1497,1779,15.7932,-7.59777
280,-755,14.6255,7.34802,0,0,0,0,0,0,0,-1,1504,1779,14.6254,-7.34806
287,-755,13.8279,7.83105,0,0,0,0,0,0,0,-1,1511,1779,13.8279,-7.83104
294,-755,12.5695,7.96814,0,0,0,0,0,0,0,-1,1518,1779,12.5694,-7.9682
301,-755,11.2659,8.27087,0,0,0,0,0,0,0,-1,1525,1779,11.2658,-8.27087
308,-755,5.17737,37.2896,0,0,0,0,0,0,0,-1,1532,1779,5.17742,-37.2896
315,-755,0.828613,31.032,0,0,0,0,0,0,0,-1,1539,1779,0.828668,-31.032
322,-755,0,0,0,0,0,0,0,0,0,-1,1546,1779,0,0
329,-755,0,0,0,0,0,0,0,0,0,-1,1553,1779,0,0
336,-755,0,0,0,0,0,0,0,0,0,-1,1560,1779,0,0
343,-755,0,0,0,0,0,0,0,0,0,-1,1567,1779,0,0
350,-755,0,0,0,0,0,0,0,0,0,-1,1574,1779,0,0
357,-755,0,0,0,0,0,0,0,0,0,-1,1581,1779,0,0
364,-755,0,0,0,0,0,0,0,0,0,-1,1588,1779,0,0
371,-755,0,0,0,0,0,0,0,0,0,-1,1595,1779,0,0
378,-755,0,0,0,0,0,0,0,0,0,-1,1602,1779,0,0
385,-755,0,0,0,0,0,0,0,0,0,-1,1609,1779,0,0
392,-755,0,0,0,0,0,0,0,0,0,-1,1616,1779,0,0
399,-755,0,0,0,0,0,0,0,0,0,-1,1623,1779,0,0
406,-755,0,0,0,0,0,0,0,0,0,-1,1630,1779,0,0
413,-755,0,0,0,0,0,0,0,0,0,-1,1637,1779,0,0
420,-755,0,0,0,0,0,0,0,0,0,-1,1644,1779,0,0
427,-755,0,0,0,0,0,0,0,0,0,-1,1651,1779,0,0
434,-755,0,0,0,0,0,0,0,0,0,-1,1658,1779,0,0
441,-755,0,0,0,0,0,0,0,0,0,-1,1665,1779,0,0
448,-755,0,0,0,0,0,0,0,0,0,-1,1672,1779,0,0
455,-755,0,0,0,0,0,0,0,0,0,-1,1679,1779,0,0
462,-755,0,0,0,0,0,0,0,0,0,-1,1686,1779,0,0
469,-755,0,0,0,0,0,0,0,0,0,-1,1693,1779,0,0
476,-755,0,0,0,0,0,0,0,0,0,-1,1700,1779,0,0
483,-755,0,0,0,0,0,0,0,0,0,-1,1707,1779,0,0
490,-755,0,0,0,0,0,0,0,0,0,-1,1714,1779,0,0
497,-755,0,0,0,0,0,0,0,0,0,-1,1721,1779,0,0
504,-755,0,0,0,0,0,0,0,0,0,-1,1728,1779,0,0
511,-755,0,0,0,0,0,0,0,0,0,-1,1735,1779,0,0
518,-755,0,0,0,0,0,0,0,0,0,-1,1742,1779,0,0
525,-755,0,0,0,0,0,0,0,0,0,-1,1749,1779,0,0
532,-755,0,0,0,0,0,0,0,0,0,-1,1756,1779,0,0
539,-755,0,0,0,0,0,0,0,0,0,-1,1763,1779,0,0
546,-755,0,0,0,0,0,0,0,0,0,-1,1770,1779,0,0
553,-755,0,0,0,0,0,0,0,0,0,-1,1777,1779,0,0
560,-755,0,0,0,0,0,0,0,0,0,-1,1784,1779,0,0
567,-755,0,0,0,0,0,0,0,0,0,-1,1791,1779,0,0
574,-755,0,0,0,0,0,0,0,0,0,-1,1798,1779,0,0
581,-755,0,0,0,0,0,0,0,0,0,-1,1805,1779,0,0
588,-755,0,0,0,0,0,0,0,0,0,-1,1812,1779,0,0
595,-755,0,0,0,0,0,0,0,0,0,-1,1819,1779,0,0
602,-755,0,0,0,0,0,0,0,0,0,-1,1826,1779,0,0
609,-755,0,0,0,0,0,0,0,0,0,-1,1833,1779,0,0
616,-755,0,0,0,0,0,0,0,0,0,-1,1840,1779,0,0
623,-755,0,0,0,0,0,0,0,0,0,-1,1847,1779,0,0
630,-755,0,0,0,0,0,0,0,0,0,-1,1854,1779,0,0
637,-755,0,0,0,0,0,0,0,0,0,-1,1861,1779,0,0
644,-755,0,0,0,0,0,0,0,0,0,-1,1868,1779,0,0
651,-755,0,0,0,0,0,0,0,0,0,-1,1875,1779,0,0
658,-755,0,0,0,0,0,0,0,0,0,-1,1882,1779,0,0
665,-755,0,0,0,0,0,0,0,0,0,-1,1889,1779,0,0
672,-755,0,0,0,0,0,0,0,0,0,-1,1896,1779,0,0
679,-755,0,0,0,0,0,0,0,0,0,-1,1903,1779,0,0
686,-755,0,0,0,0,0,0,0,0,0,-1,1910,1779,0,0
693,-755,0,0,0,0,0,0,0,0,0,-1,1917,1779,0,0
700,-755,0,0,0,0,0,0,0,0,0,-1,1924,1779,0,0
707,-755,0,0,0,0,0,0,0,0,0,-1,1931,1779,0,0
714,-755,0,0,0,0,0,0,0,0,0,-1,1938,1779,0,0
721,-755,0,0,0,0,0,0,0,0,0,-1,1945,1779,0,0
728,-755,0,0,0,0,0,0,0,0,0,-1,1952,1779,0,0
735,-755,0,0,0,0,0,0,0,0,0,-1,1959,1779,0,0
742,-755,0,0,0,0,0,0,0,0,0,-1,1966,1779,0,0
749,-755,0,0,0,0,0,0,0,0,0,-1,1973,1779,0,0
756,-755,0,0,0,0,0,0,0,0,0,-1,1980,1779,0,0
763,-755,0,0,0,0,0,0,0,0,0,-1,1987,1779,0,0
770,-755,0,0,0,0,0,0,0,0,0,-1,1994,1779,0,0
777,-755,0,0,0,0,0,0,0,0,0,-1,2001,1779,0,0
784,-755,0,0,0,0,0,0,0,0,0,-1,2008,1779,0,0
791,-755,0,0,0,0,0,0,0,0,0,-1,2015,1779,0,0
798,-755,0,0,0,0,0,0,0,0,0,-1,2022,1779,0,0
805,-755,0,0,0,0,0,0,0,0,0,-1,2029,1779,0,0
812,-755,0,0,0,0,0,0,0,0,0,-1,2036,1779,0,0
-700,-762,0,0,0,0,0,0,0,0,0,-1,524,1786,0,0
-693,-762,0,0,0,0,0,0,0,0,0,-1,531,1786,0,0
-686,-762,0,0,0,0,0,0,0,0,0,-1,538,1786,0,0
-679,-762,0,0,0,0,0,0,0,0,0,-1,545,1786,0,0
-672,-762,0,0,0,0,0,0,0,0,0,-1,552,1786,0,0
-665,-762,0,0,0,0,0,0,0,0,0,-1,559,1786,0,0
-658,-762,0,0,0,0,0,0,0,0,0,-1,566,1786,0,0
-651,-762,0,0,0,0,0,0,0,0,0,-1,573,1786,0,0
-644,-762,0,0,0,0,0,0,0,0,0,-1,580,1786,0,0
-637,-762,0,0,0,0,0,0,0,0,0,-1,587,1786,0,0
-630,-762,0,0,0,0,0,0,0,0,0,-1,594,1786,0,0
-623,-762,0,0,0,0,0,0,0,0,0,-1,601,1786,0,0
-616,-762,0,0,0,0,0,0,0,0,0,-1,608,1786,0,0
-609,-762,0,0,0,0,0,0,0,0,0,-1,615,1786,0,0
-602,-762,0,0,0,0,0,0,0,0,0,-1,622,1786,0,0
-595,-762,0,0,0,0,0,0,0,0,0,-1,629,1786,0,0
-588,-762,0,0,0,0,0,0,0,0,0,-1,636,1786,0,0
-581,-762,0,0,0,0,0,0,0,0,0,-1,643,1786,0,0
-574,-762,0,0,0,0,0,0,0,0,0,-1,650,1786,0,0
-567,-762,0,0,0,0,0,0,0,0,0,-1,657,1786,0,0
-560,-762,0,0,0,0,0,0,0,0,0,-1,664,1786,0,0
-553,-762,0,0,0,0,0,0,0,0,0,-1,671,1786,0,0
-546,-762,0,0,0,0,0,0,0,0,0,-1,678,1786,0,0
-539,-762,0,0,0,0,0,0,0,0,0,-1,685,1786,0,0
-532,-762,0,0,0,0,0,0,0,0,0,-1,692,1786,0,0
-525,-762,0,0,0,0,0,0,0,0,0,-1,699,1786,0,0
-518,-762,0,0,0,0,0,0,0,0,0,-1,706,1786,0,0
-511,-762,0,0,0,0,0,0,0,0,0,-1,713,1786,0,0
-504,-762,0,0,0,0,0,0,0,0,0,-1,720,1786,0,0
-497,-762,0,0,0,0,0,0,0,0,0,-1,727,1786,0,0
-490,-762,0,0,0,0,0,0,0,0,0,-1,734,1786,0,0
-483,-762,0,0,0,0,0,0,0,0,0,-1,741,1786,0,0
-476,-762,0,0,0,0,0,0,0,0,0,-1,748,1786,0,0
-469,-762,0,0,0,0,0,0,0,0,0,-1,755,1786,0,0
-462,-762,0,0,0,0,0,0,0,0,0,-1,762,1786,0,0
-455,-762,0,0,0,0,0,0,0,0,0,-1,769,1786,0,0
-448,-762,0,0,0,0,0,0,0,0,0,-1,776,1786,0,0
-441,-762,0,0,0,0,0,0,0,0,0,-1,783,1786,0,0
-434,-762,0,0,0,0,0,0,0,0,0,-1,790,1786,0,0
-427,-762,0,0,0,0,0,0,0,0,0,-1,797,1786,0,0
-420,-762,0,0,0,0,0,0,0,0,0,-1,804,1786,0,0
-413,-762,0,0,0,0,0,0,0,0,0,-1,811,1786,0,0
-406,-762,0,0,0,0,0,0,0,0,0,-1,818,1786,0,0
-399,-762,0,0,0,0,0,0,0,0,0,-1,825,1786,0,0
-392,-762,0,0,0,0,0,0,0,0,0,-1,832,1786,0,0
-385,-762,0,0,0,0,0,0,0,0,0,-1,839,1786,0,0
-378,-762,0,0,0,0,0,0,0,0,0,-1,846,1786,0,0
-371,-762,0,0,0,0,0,0,0,0,0,-1,853,1786,0,0
-364,-762,0,0,0,0,0,0,0,0,0,-1,860,1786,0,0
-357,-762,0,0,0,0,0,0,0,0,0,-1,867,1786,0,0
-350,-762,0,0,0,0,0,0,0,0,0,-1,874,1786,0,0
-343,-762,0,0,0,0,0,0,0,0,0,-1,881,1786,0,0
-336,-762,0,0,0,0,0,0,0,0,0,-1,888,1786,0,0
-329,-762,0,0,0,0,0,0,0,0,0,-1,895,1786,0,0
-322,-762,0,0,0,0,0,0,0,0,0,-1,902,1786,0,0
-315,-762,0,0,0,0,0,0,0,0,0,-1,909,1786,0,0
-308,-762,0,0,0,0,0,0,0,0,0,-1,916,1786,0,0
-301,-762,0,0,0,0,0,0,0,0,0,-1,923,1786,0,0
-294,-762,0,0,0,0,0,0,0,0,0,-1,930,1786,0,0
-287,-762,0,0,0,0,0,0,0,0,0,-1,937,1786,0,0
-280,-762,0,0,0,0,0,0,0,0,0,-1,944,1786,0,0
-273,-762,0,0,0,0,0,0,0,0,0,-1,951,1786,0,0
-266,-762,0,0,0,0,0,0,0,0,0,-1,958,1786,0,0
-259,-762,0,0,0,0,0,0,0,0,0,-1,965,1786,0,0
-252,-762,0,0,0,0,0,0,0,0,0,-1,972,1786,0,0
-245,-762,0,0,0,0,0,0,0,0,0,-1,979,1786,0,0
-238,-762,0,0,0,0,0,0,0,0,0,-1,986,1786,0,0
-231,-762,0,0,0,0,0,0,0,0,0,-1,993,1786,0,0
-224,-762,0,0,0,0,0,0,0,0,0,-1,1000,1786,0,0
-217,-762,0,0,0,0,0,0,0,0,0,-1,1007,1786,0,0
-210,-762,0,0,0,0,0,0,0,0,0,-1,1014,1786,0,0
-203,-762,0,0,0,0,0,0,0,0,0,-1,1021,1786,0,0
-196,-762,0,0,0,0,0,0,0,0,0,-1,1028,1786,0,0
-189,-762,0,0,0,0,0,0,0,0,0,-1,1035,1786,0,0
-182,-762,4.44226,13.2462,0,0,0,0,0,0,0,-1,1042,1786,4.44227,-13.2462
-175,-762,1.14465,40.1932,0,0,0,0,0,0,0,-1,1049,1786,1.1447,-40.1932
-168,-762,3.26794,41.3881,0,0,0,0,0,0,0,-1,1056,1786,3.26794,-41.388
-161,-762,-3.29077,11.9508,0,0,0,0,0,0,0,-1,1063,1786,-3.29076,-11.9508
-154,-762,-4.55823,11.1176,0,0,0,0,0,0,0,-1,1070,1786,-4.55828,-11.1175
-147,-762,-6.52454,9.41418,0,0,0,0,0,0,0,-1,1077,1786,-6.52458,-9.41419
-140,-762,4.99792,5.28589,0,0,0,0,0,0,0,-1,1084,1786,4.99793,-5.28587
-133,-762,0.689819,19.2172,0,0,0,0,0,0,0,-1,1091,1786,0.689867,-19.2171
-126,-762,1.48743,19.9288,0,0,0,0,0,0,0,-1,1098,1786,1.48738,-19.9289
-119,-762,2.65637,20.208,0,0,0,0,0,0,0,-1,1105,1786,2.65632,-20.208
-112,-762,6.84705,25.5554,0,0,0,0,0,0,0,-1,1112,1786,6.84706,-25.5554
-105,-762,5.57947,21.618,0,0,0,0,0,0,0,-1,1119,1786,5.57948,-21.618
-98,-762,5.0636,17.9901,0,0,0,0,0,0,0,-1,1126,1786,5.06361,-17.9901
-91,-762,4.54773,14.3622,0,0,0,0,0,0,0,-1,1133,1786,4.54774,-14.3622
-84,-762,3.96375,10.4547,0,0,0,0,0,0,0,-1,1140,1786,3.96371,-10.4548
-77,-762,0.305054,8.49365,0,0,0,0,0,0,0,-1,1147,1786,0.305008,-8.49362
-70,-762,0.183716,6.74622,0,0,0,0,0,0,0,-1,1154,1786,0.183696,-6.74621
-63,-762,-0.883057,9.08813,0,0,0,0,0,0,0,-1,1161,1786,-0.88311,-9.08808
-56,-762,-0.578979,5.10254,0,0,0,0,0,0,0,-1,1168,1786,-0.578951,-5.10249
-49,-762,-2.04541,3.66321,0,0,0,0,0,0,0,-1,1175,1786,-2.0454,-3.66319
-42,-762,-2.23462,3.474,0,0,0,0,0,0,0,-1,1182,1786,-2.23459,-3.47399
-35,-762,-3.28992,1.68164,0,0,0,0,0,0,0,-1,1189,1786,-3.28998,-1.68164
-28,-762,-3.75378,1.37769,0,0,0,0,0,0,0,-1,1196,1786,-3.75373,-1.37767
-21,-762,9.69189,67.1995,0,0,0,0,0,0,0,-1,1203,1786,9.69185,-67.1995
-14,-762,9.65039,67.8868,0,0,0,0,0,0,0,-1,1210,1786,9.65039,-67.8869
-7,-762,9.51709,68.0105,0,0,0,0,0,0,0,-1,1217,1786,9.51705,-68.0105
0,-762,9.42004,68.2743,-0.0044742,-0.0104137,0.0138687,0.00673911,-0.021627,0.679924,0.0171126,0.0398845,1224,1786,9.41999,-68.2744
7,-762,9.41553,68.3798,-0.00364746,-0.0101026,0.00942182,0.00308427,-0.0168344,0.62038,0.0123797,0.0241988,1231,1786,9.41549,-68.3798
14,-762,9.29797,68.7745,-0.00330033,-0.00903672,0.00452577,-0.00081044,-0.0115266,0.502966,0.00742901,0.0413082,1238,1786,9.29794,-68.7746
21,-762,9.19946,68.6899,0,0,0,0,0,0,0,-1,1245,1786,9.19952,-68.6899
28,-762,9.1167,68.6766,0,0,0,0,0,0,0,-1,1252,1786,9.11668,-68.6766
35,-762,8.99927,68.8033,0,0,0,0,0,0,0,-1,1259,1786,8.99931,-68.8033
42,-762,8.91907,68.9348,0,0,0,0,0,0,0,-1,1266,1786,8.91904,-68.9348
49,-762,8.97668,69.0121,-0.00583897,-0.00210239,-0.0137611,0.00991666,-0.017858,-0.852869,0.0162527,0.0466378,1273,1786,8.97664,-69.012
56,-762,8.9209,69.1042,-0.00715112,-0.00094813,-0.0157524,0.0120052,-0.0201044,-0.8826,0.018734,0.033732,1280,1786,8.92084,-69.1042
63,-762,8.84875,69.1105,-0.00819649,0.000571474,-0.0170659,0.0138075,-0.0214325,-0.911123,0.0205039,0.0310736,1287,1786,8.84881,-69.1105
70,-762,8.7666,69.0796,-0.00855965,0.00322759,-0.017561,0.0158576,-0.0211896,-0.947297,0.0214629,0.0323529,1294,1786,8.76661,-69.0796
77,-762,8.65442,68.8997,-0.00857586,0.00663663,-0.0175804,0.0181857,-0.0201249,-0.989567,0.0221281,0.0420634,1301,1786,8.65439,-68.8996
84,-762,8.57947,68.8917,0,0,0,0,0,0,0,-1,1308,1786,8.57949,-68.8917
91,-762,8.54077,68.7418,0,0,0,0,0,0,0,-1,1315,1786,8.54081,-68.7418
98,-762,8.26733,68.7141,0,0,0,0,0,0,0,-1,1322,1786,8.26737,-68.7141
105,-762,8.66907,68.9449,0,0,0,0,0,0,0,-1,1329,1786,8.66912,-68.9449
112,-762,8.26208,68.6554,0,0,0,0,0,0,0,-1,1336,1786,8.26212,-68.6554
119,-762,7.8551,68.3658,0,0,0,0,0,0,0,-1,1343,1786,7.85511,-68.3659
126,-762,8.073,68.3954,0,0,0,0,0,0,0,-1,1350,1786,8.07301,-68.3954
133,-762,7.91125,68.2269,-0.00461844,0.036375,-0.0136894,0.0405261,-0.00876953,-1.27637,0.0303657,0.049626,1357,1786,7.9113,-68.2269
140,-762,7.62415,67.8077,-0.00451214,0.0392239,-0.0138565,0.0432443,-0.00853262,-1.2884,0.0320546,0.0439356,1364,1786,7.62413,-67.8078
147,-762,7.79932,67.4301,-0.00457215,0.0400729,-0.0137164,0.0439503,-0.00844952,-1.2953,0.0324851,0.044348,1371,1786,7.79936,-67.43
154,-762,8.06824,67.2825,0,0,0,0,0,0,0,-1,1378,1786,8.06823,-67.2825
161,-762,8.65051,34.8102,0,0,0,0,0,0,0,-1,1385,1786,8.65054,-34.8101
168,-762,8.19287,0.880615,0,0,0,0,0,0,0,-1,1392,1786,8.19291,-0.880603
175,-762,8.33997,1.95947,0,0,0,0,0,0,0,-1,1399,1786,8.33997,-1.95942
182,-762,8.28418,3.56482,0,0,0,0,0,0,0,-1,1406,1786,8.28415,-3.56485
189,-762,8.21179,5.23389,0,0,0,0,0,0,0,-1,1413,1786,8.21183,-5.23383
196,-762,8.05969,6.95483,0,0,0,0,0,0,0,-1,1420,1786,8.05972,-6.9548
203,-762,24.0077,7.10425,0,0,0,0,0,0,0,-1,1427,1786,24.0077,-7.10426
210,-762,23.8073,7.6499,0,0,0,0,0,0,0,-1,1434,1786,23.8073,-7.64987
217,-762,23.3193,8.24426,0,0,0,0,0,0,0,-1,1441,1786,23.3194,-8.2442
224,-762,2.65149,20.6106,0,0,0,0,0,0,0,-1,1448,1786,2.65153,-20.6106
231,-762,5.46655,23.521,0,0,0,0,0,0,0,-1,1455,1786,5.46653,-23.521
238,-762,5.35632,29.7203,0,0,0,0,0,0,0,-1,1462,1786,5.35629,-29.7203
245,-762,6.93054,27.8312,0,0,0,0,0,0,0,-1,1469,1786,6.93058,-27.8312
252,-762,6.20215,28.3027,0,0,0,0,0,0,0,-1,1476,1786,6.20211,-28.3027
259,-762,5.46472,28.8762,0,0,0,0,0,0,0,-1,1483,1786,5.46476,-28.8762
266,-762,16.451,7.67773,0,0,0,0,0,0,0,-1,1490,1786,16.4511,-7.67773
273,-762,15.287,7.5304,0,0,0,0,0,0,0,-1,1497,1786,15.2869,-7.53044
280,-762,14.1501,7.38379,0,0,0,0,0,0,0,-1,1504,1786,14.1502,-7.38376
287,-762,12.6891,7.99133,0,0,0,0,0,0,0,-1,1511,1786,12.6891,-7.99135
294,-762,12.6959,8.30371,0,0,0,0,0,0,0,-1,1518,1786,12.6959,-8.30368
301,-762,11.4222,8.84143,0,0,0,0,0,0,0,-1,1525,1786,11.4223,-8.84149
308,-762,0,0,0,0,0,0,0,0,0,-1,1532,1786,0,0
315,-762,0,0,0,0,0,0,0,0,0,-1,1539,1786,0,0
322,-762,0,0,0,0,0,0,0,0,0,-1,1546,1786,0,0
329,-762,0,0,0,0,0,0,0,0,0,-1,1553,1786,0,0
336,-762,0,0,0,0,0,0,0,0,0,-1,1560,1786,0,0
343,-762,0,0,0,0,0,0,0,0,0,-1,1567,1786,0,0
350,-762,0,0,0,0,0,0,0,0,0,-1,1574,1786,0,0
357,-762,0,0,0,0,0,0,0,0,0,-1,1581,1786,0,0
364,-762,0,0,0,0,0,0,0,0,0,-1,1588,1786,0,0
371,-762,0,0,0,0,0,0,0,0,0,-1,1595,1786,0,0
378,-762,0,0,0,0,0,0,0,0,0,-1,1602,1786,0,0
385,-762,0,0,0,0,0,0,0,0,0,-1,1609,1786,0,0
392,-762,0,0,0,0,0,0,0,0,0,-1,1616,1786,0,0
399,-762,0,0,0,0,0,0,0,0,0,-1,1623,1786,0,0
406,-762,0,0,0,0,0,0,0,0,0,-1,1630,1786,0,0
413,-762,0,0,0,0,0,0,0,0,0,-1,1637,1786,0,0
420,-762,0,0,0,0,0,0,0,0,0,-1,1644,1786,0,0
427,-762,0,0,0,0,0,0,0,0,0,-1,1651,1786,0,0
434,-762,0,0,0,0,0,0,0,0,0,-1,1658,1786,0,0
441,-762,0,0,0,0,0,0,0,0,0,-1,1665,1786,0,0
448,-762,0,0,0,0,0,0,0,0,0,-1,1672,1786,0,0
455,-762,0,0,0,0,0,0,0,0,0,-1,1679,1786,0,0
462,-762,0,0,0,0,0,0,0,0,0,-1,1686,1786,0,0
469,-762,0,0,0,0,0,0,0,0,0,-1,1693,1786,0,0
476,-762,0,0,0,0,0,0,0,0,0,-1,1700,1786,0,0
483,-762,0,0,0,0,0,0,0,0,0,-1,1707,1786,0,0
490,-762,0,0,0,0,0,0,0,0,0,-1,1714,1786,0,0
497,-762,0,0,0,0,0,0,0,0,0,-1,1721,1786,0,0
504,-762,0,0,0,0,0,0,0,0,0,-1,1728,1786,0,0
511,-762,0,0,0,0,0,0,0,0,0,-1,1735,1786,0,0
518,-762,0,0,0,0,0,0,0,0,0,-1,1742,1786,0,0
525,-762,0,0,0,0,0,0,0,0,0,-1,1749,1786,0,0
532,-762,0,0,0,0,0,0,0,0,0,-1,1756,1786,0,0
539,-762,0,0,0,0,0,0,0,0,0,-1,1763,1786,0,0
546,-762,0,0,0,0,0,0,0,0,0,-1,1770,1786,0,0
553,-762,0,0,0,0,0,0,0,0,0,-1,1777,1786,0,0
560,-762,0,0,0,0,0,0,0,0,0,-1,1784,1786,0,0
567,-762,0,0,0,0,0,0,0,0,0,-1,1791,1786,0,0
574,-762,0,0,0,0,0,0,0,0,0,-1,1798,1786,0,0
581,-762,0,0,0,0,0,0,0,0,0,-1,1805,1786,0,0
588,-762,0,0,0,0,0,0,0,0,0,-1,1812,1786,0,0
595,-762,0,0,0,0,0,0,0,0,0,-1,1819,1786,0,0
602,-762,0,0,0,0,0,0,0,0,0,-1,1826,1786,0,0
609,-762,0,0,0,0,0,0,0,0,0,-1,1833,1786,0,0
616,-762,0,0,0,0,0,0,0,0,0,-1,1840,1786,0,0
623,-762,0,0,0,0,0,0,0,0,0,-1,1847,1786,0,0
630,-762,0,0,0,0,0,0,0,0,0,-1,1854,1786,0,0
637,-762,0,0,0,0,0,0,0,0,0,-1,1861,1786,0,0
644,-762,0,0,0,0,0,0,0,0,0,-1,1868,1786,0,0
651,-762,0,0,0,0,0,0,0,0,0,-1,1875,1786,0,0
658,-762,0,0,0,0,0,0,0,0,0,-1,1882,1786,0,0
665,-762,0,0,0,0,0,0,0,0,0,-1,1889,1786,0,0
672,-762,0,0,0,0,0,0,0,0,0,-1,1896,1786,0,0
679,-762,0,0,0,0,0,0,0,0,0,-1,1903,1786,0,0
686,-762,0,0,0,0,0,0,0,0,0,-1,1910,1786,0,0
693,-762,0,0,0,0,0,0,0,0,0,-1,1917,1786,0,0
700,-762,0,0,0,0,0,0,0,0,0,-1,1924,1786,0,0
707,-762,0,0,0,0,0,0,0,0,0,-1,1931,1786,0,0
714,-762,0,0,0,0,0,0,0,0,0,-1,1938,1786,0,0
721,-762,0,0,0,0,0,0,0,0,0,-1,1945,1786,0,0
728,-762,0,0,0,0,0,0,0,0,0,-1,1952,1786,0,0
735,-762,0,0,0,0,0,0,0,0,0,-1,1959,1786,0,0
742,-762,0,0,0,0,0,0,0,0,0,-1,1966,1786,0,0
749,-762,0,0,0,0,0,0,0,0,0,-1,1973,1786,0,0
756,-762,0,0,0,0,0,0,0,0,0,-1,1980,1786,0,0
763,-762,0,0,0,0,0,0,0,0,0,-1,1987,1786,0,0
770,-762,0,0,0,0,0,0,0,0,0,-1,1994,1786,0,0
777,-762,0,0,0,0,0,0,0,0,0,-1,2001,1786,0,0
784,-762,0,0,0,0,0,0,0,0,0,-1,2008,1786,0,0
791,-762,0,0,0,0,0,0,0,0,0,-1,2015,1786,0,0
798,-762,0,0,0,0,0,0,0,0,0,-1,2022,1786,0,0
805,-762,0,0,0,0,0,0,0,0,0,-1,2029,1786,0,0
812,-762,0,0,0,0,0,0,0,0,0,-1,2036,1786,0,0
-700,-769,0,0,0,0,0,0,0,0,0,-1,524,1793,0,0
-693,-769,0,0,0,0,0,0,0,0,0,-1,531,1793,0,0
-686,-769,0,0,0,0,0,0,0,0,0,-1,538,1793,0,0
-679,-769,0,0,0,0,0,0,0,0,0,-1,545,1793,0,0
-672,-769,0,0,0,0,0,0,0,0,0,-1,552,1793,0,0
-665,-769,0,0,0,0,0,0,0,0,0,-1,559,1793,0,0
-658,-769,0,0,0,0,0,0,0,0,0,-1,566,1793,0,0
-651,-769,0,0,0,0,0,0,0,0,0,-1,573,1793,0,0
-644,-769,0,0,0,0,0,0,0,0,0,-1,580,1793,0,0
-637,-769,0,0,0,0,0,0,0,0,0,-1,587,1793,0,0
-630,-769,0,0,0,0,0,0,0,0,0,-1,594,1793,0,0
-623,-769,0,0,0,0,0,0,0,0,0,-1,601,1793,0,0
-616,-769,0,0,0,0,0,0,0,0,0,-1,608,1793,0,0
-609,-769,0,0,0,0,0,0,0,0,0,-1,615,1793,0,0
-602,-769,0,0,0,0,0,0,0,0,0,-1,622,1793,0,0
-595,-769,0,0,0,0,0,0,0,0,0,-1,629,1793,0,0
-588,-769,0,0,0,0,0,0,0,0,0,-1,636,1793,0,0
-581,-769,0,0,0,0,0,0,0,0,0,-1,643,1793,0,0
-574,-769,0,0,0,0,0,0,0,0,0,-1,650,1793,0,0
-567,-769,0,0,0,0,0,0,0,0,0,-1,657,1793,0,0
-560,-769,0,0,0,0,0,0,0,0,0,-1,664,1793,0,0
-553,-769,0,0,0,0,0,0,0,0,0,-1,671,1793,0,0
-546,-769,0,0,0,0,0,0,0,0,0,-1,678,1793,0,0
-539,-769,0,0,0,0,0,0,0,0,0,-1,685,1793,0,0
-532,-769,0,0,0,0,0,0,0,0,0,-1,692,1793,0,0
-525,-769,0,0,0,0,0,0,0,0,0,-1,699,1793,0,0
-518,-769,0,0,0,0,0,0,0,0,0,-1,706,1793,0,0
-511,-769,0,0,0,0,0,0,0,0,0,-1,713,1793,0,0
-504,-769,0,0,0,0,0,0,0,0,0,-1,720,1793,0,0
-497,-769,0,0,0,0,0,0,0,0,0,-1,727,1793,0,0
-490,-769,0,0,0,0,0,0,0,0,0,-1,734,1793,0,0
-483,-769,0,0,0,0,0,0,0,0,0,-1,741,1793,0,0
-476,-769,0,0,0,0,0,0,0,0,0,-1,748,1793,0,0
-469,-769,0,0,0,0,0,0,0,0,0,-1,755,1793,0,0
-462,-769,0,0,0,0,0,0,0,0,0,-1,762,1793,0,0
-455,-769,0,0,0,0,0,0,0,0,0,-1,769,1793,0,0
-448,-769,0,0,0,0,0,0,0,0,0,-1,776,1793,0,0
-441,-769,0,0,0,0,0,0,0,0,0,-1,783,1793,0,0
-434,-769,0,0,0,0,0,0,0,0,0,-1,790,1793,0,0
-427,-769,0,0,0,0,0,0,0,0,0,-1,797,1793,0,0
-420,-769,0,0,0,0,0,0,0,0,0,-1,804,1793,0,0
-413,-769,0,0,0,0,0,0,0,0,0,-1,811,1793,0,0
-406,-769,0,0,0,0,0,0,0,0,0,-1,818,1793,0,0
-399,-769,0,0,0,0,0,0,0,0,0,-1,825,1793,0,0
-392,-769,0,0,0,0,0,0,0,0,0,-1,832,1793,0,0
-385,-769,0,0,0,0,0,0,0,0,0,-1,839,1793,0,0
-378,-769,0,0,0,0,0,0,0,0,0,-1,846,1793,0,0
-371,-769,0,0,0,0,0,0,0,0,0,-1,853,1793,0,0
-364,-769,0,0,0,0,0,0,0,0,0,-1,860,1793,0,0
-357,-769,0,0,0,0,0,0,0,0,0,-1,867,1793,0,0
-350,-769,0,0,0,0,0,0,0,0,0,-1,874,1793,0,0
-343,-769,0,0,0,0,0,0,0,0,0,-1,881,1793,0,0
-336,-769,0,0,0,0,0,0,0,0,0,-1,888,1793,0,0
-329,-769,0,0,0,0,0,0,0,0,0,-1,895,1793,0,0
-322,-769,0,0,0,0,0,0,0,0,0,-1,902,1793,0,0
-315,-769,0,0,0,0,0,0,0,0,0,-1,909,1793,0,0
-308,-769,0,0,0,0,0,0,0,0,0,-1,916,1793,0,0
-301,-769,0,0,0,0,0,0,0,0,0,-1,923,1793,0,0
-294,-769,0,0,0,0,0,0,0,0,0,-1,930,1793,0,0
-287,-769,0,0,0,0,0,0,0,0,0,-1,937,1793,0,0
-280,-769,0,0,0,0,0,0,0,0,0,-1,944,1793,0,0
-273,-769,0,0,0,0,0,0,0,0,0,-1,951,1793,0,0
-266,-769,0,0,0,0,0,0,0,0,0,-1,958,1793,0,0
-259,-769,0,0,0,0,0,0,0,0,0,-1,965,1793,0,0
-252,-769,0,0,0,0,0,0,0,0,0,-1,972,1793,0,0
-245,-769,0,0,0,0,0,0,0,0,0,-1,979,1793,0,0
-238,-769,0,0,0,0,0,0,0,0,0,-1,986,1793,0,0
-231,-769,0,0,0,0,0,0,0,0,0,-1,993,1793,0,0
-224,-769,0,0,0,0,0,0,0,0,0,-1,1000,1793,0,0
-217,-769,0,0,0,0,0,0,0,0,0,-1,1007,1793,0,0
-210,-769,0,0,0,0,0,0,0,0,0,-1,1014,1793,0,0
-203,-769,0,0,0,0,0,0,0,0,0,-1,1021,1793,0,0
-196,-769,0,0,0,0,0,0,0,0,0,-1,1028,1793,0,0
-189,-769,0,0,0,0,0,0,0,0,0,-1,1035,1793,0,0
-182,-769,0,0,0,0,0,0,0,0,0,-1,1042,1793,0,0
-175,-769,0,0,0,0,0,0,0,0,0,-1,1049,1793,0,0
-168,-769,0,0,0,0,0,0,0,0,0,-1,1056,1793,0,0
-161,-769,-3.61145,12.4761,0,0,0,0,0,0,0,-1,1063,1793,-3.6114,-12.476
-154,-769,-0.813232,5.32874,0,0,0,0,0,0,0,-1,1070,1793,-0.813269,-5.32872
-147,-769,4.26587,4.7002,0,0,0,0,0,0,0,-1,1077,1793,4.26593,-4.70022
-140,-769,4.10376,5.28589,0,0,0,0,0,0,0,-1,1084,1793,4.10371,-5.28584
-133,-769,6.422,8.21777,0,0,0,0,0,0,0,-1,1091,1793,6.42198,-8.21773
-126,-769,-0.352295,19.326,0,0,0,0,0,0,0,-1,1098,1793,-0.352235,-19.326
-119,-769,6.01685,16.2577,0,0,0,0,0,0,0,-1,1105,1793,6.01689,-16.2576
-112,-769,5.76416,27.2615,0,0,0,0,0,0,0,-1,1112,1793,5.7642,-27.2615
-105,-769,4.97009,22.8479,0,0,0,0,0,0,0,-1,1119,1793,4.97006,-22.8479
-98,-769,4.69373,18.9142,0,0,0,0,0,0,0,-1,1126,1793,4.69376,-18.9142
-91,-769,4.41748,14.9805,0,0,0,0,0,0,0,-1,1133,1793,4.41746,-14.9805
-84,-769,3.2207,12.4565,0,0,0,0,0,0,0,-1,1140,1793,3.22066,-12.4565
-77,-769,2.48816,8.98486,0,0,0,0,0,0,0,-1,1147,1793,2.48815,-8.98489
-70,-769,1.04944,11.9852,0,0,0,0,0,0,0,-1,1154,1793,1.04947,-11.9852
-63,-769,-2.39709,9.60339,0,0,0,0,0,0,0,-1,1161,1793,-2.39706,-9.6034
-56,-769,-5.84363,7.22156,0,0,0,0,0,0,0,-1,1168,1793,-5.84359,-7.22157
-49,-769,-2.41443,3.95471,0,0,0,0,0,0,0,-1,1175,1793,-2.41446,-3.95471
-42,-769,-3.1991,2.64941,0,0,0,0,0,0,0,-1,1182,1793,-3.19914,-2.64944
-35,-769,-3.50183,1.73389,0,0,0,0,0,0,0,-1,1189,1793,-3.50189,-1.7339
-28,-769,-3.96985,1.14075,0,0,0,0,0,0,0,-1,1196,1793,-3.96985,-1.14078
-21,-769,8.19836,65.4261,0,0,0,0,0,0,0,-1,1203,1793,8.19842,-65.4261
-14,-769,16.0205,69.9044,0,0,0,0,0,0,0,-1,1210,1793,16.0206,-69.9044
-7,-769,16.1553,69.2821,0,0,0,0,0,0,0,-1,1217,1793,16.1553,-69.2821
0,-769,9.4624,68.2196,0,0,0,0,0,0,0,-1,1224,1793,9.46238,-68.2196
7,-769,9.50146,68.3524,-0.00225675,-0.0143029,0.0145037,0.00742481,-0.0239845,0.588595,0.0189556,0.0485649,1231,1793,9.50152,-68.3524
14,-769,9.18127,69.1818,-0.00175166,-0.0130727,0.00771917,0.00216002,-0.0169844,0.469032,0.0121073,0.0455316,1238,1793,9.18123,-69.1818
21,-769,8.68457,69.4082,-0.00175102,-0.0116616,0.00117705,-0.00161315,-0.0117995,0.116606,0.00738755,0.0473647,1245,1793,8.68454,-69.4082
28,-769,8.22754,69.5613,0,0,0,0,0,0,0,-1,1252,1793,8.22753,-69.5613
35,-769,9.97986,68.8611,-0.00300401,-0.00883399,-0.00948674,0.00400549,-0.0158435,-0.636342,0.0121202,0.0477873,1259,1793,9.97988,-68.8611
42,-769,9.81409,68.9863,-0.00434892,-0.00695383,-0.0135388,0.00794995,-0.0192527,-0.737445,0.016151,0.0457536,1266,1793,9.81407,-68.9863
49,-769,9.56067,69.0331,-0.00600456,-0.00534311,-0.0174003,0.0117296,-0.0230773,-0.794901,0.0204486,0.0442597,1273,1793,9.56067,-69.0331
56,-769,9.25977,68.6743,-0.00792271,-0.00415174,-0.020058,0.0141092,-0.0261837,-0.832261,0.0236087,0.0442333,1280,1793,9.25971,-68.6743
63,-769,8.9541,68.7363,-0.0094627,-0.00234937,-0.0217053,0.0160888,-0.0279008,-0.866607,0.0257008,0.0460155,1287,1793,8.95411,-68.7363
70,-769,8.86829,68.7976,-0.0100834,0.000957029,-0.0222274,0.0183394,-0.0274658,-0.907112,0.0266201,0.0455621,1294,1793,8.8683,-68.7977
77,-769,8.94958,68.884,-0.0101589,0.00553425,-0.0222055,0.0212387,-0.0258634,-0.955232,0.0272381,0.0457266,1301,1793,8.94955,-68.884
84,-769,8.97363,68.8608,0,0,0,0,0,0,0,-1,1308,1793,8.9736,-68.8608
91,-769,9.12415,68.3903,0,0,0,0,0,0,0,-1,1315,1793,9.12409,-68.3903
98,-769,9.02917,68.1006,0,0,0,0,0,0,0,-1,1322,1793,9.02923,-68.1006
105,-769,8.14783,67.4471,0,0,0,0,0,0,0,-1,1329,1793,8.14787,-67.4471
112,-769,8.33374,68.646,0,0,0,0,0,0,0,-1,1336,1793,8.33375,-68.646
119,-769,8.07214,67.8274,0,0,0,0,0,0,0,-1,1343,1793,8.07212,-67.8274
126,-769,7.94641,67.4812,0,0,0,0,0,0,0,-1,1350,1793,7.94638,-67.4812
133,-769,7.45984,68.2921,0,0,0,0,0,0,0,-1,1357,1793,7.45982,-68.2921
140,-769,7.57495,67.7804,0,0,0,0,0,0,0,-1,1364,1793,7.57497,-67.7803
147,-769,7.69006,67.2687,0,0,0,0,0,0,0,-1,1371,1793,7.69012,-67.2686
154,-769,7.29382,55.4241,0,0,0,0,0,0,0,-1,1378,1793,7.29384,-55.4241
161,-769,6.57019,1.53223,0,0,0,0,0,0,0,-1,1385,1793,6.57019,-1.53226
168,-769,8.27637,0.756958,0,0,0,0,0,0,0,-1,1392,1793,8.27639,-0.756944
175,-769,8.47144,2.41174,0,0,0,0,0,0,0,-1,1399,1793,8.47147,-2.4118
182,-769,8.41479,4.05994,0,0,0,0,0,0,0,-1,1406,1793,8.41479,-4.05997
189,-769,8.25049,5.68433,0,0,0,0,0,0,0,-1,1413,1793,8.25054,-5.68428
196,-769,7.97729,7.42847,0,0,0,0,0,0,0,-1,1420,1793,7.9773,-7.42848
203,-769,22.0977,6.73889,0,0,0,0,0,0,0,-1,1427,1793,22.0977,-6.7389
210,-769,22.1115,7.77246,0,0,0,0,0,0,0,-1,1434,1793,22.1115,-7.77248
217,-769,22.4723,8.79102,0,0,0,0,0,0,0,-1,1441,1793,22.4723,-8.79099
224,-769,22.1348,9.35278,0,0,0,0,0,0,0,-1,1448,1793,22.1348,-9.35283
231,-769,3.13318,19.7184,0,0,0,0,0,0,0,-1,1455,1793,3.13323,-19.7184
238,-769,5.74512,18.6597,0,0,0,0,0,0,0,-1,1462,1793,5.74512,-18.6596
245,-769,5.80798,22.87,0,0,0,0,0,0,0,-1,1469,1793,5.80796,-22.87
252,-769,6.20837,28.394,0,0,0,0,0,0,0,-1,1476,1793,6.20833,-28.3941
259,-769,10.974,17.7698,0,0,0,0,0,0,0,-1,1483,1793,10.974,-17.7698
266,-769,15.8488,7.3905,0,0,0,0,0,0,0,-1,1490,1793,15.8488,-7.39046
273,-769,14.8075,7.56152,0,0,0,0,0,0,0,-1,1497,1793,14.8075,-7.56152
280,-769,13.6519,7.43054,0,0,0,0,0,0,0,-1,1504,1793,13.6518,-7.43058
287,-769,0,0,0,0,0,0,0,0,0,-1,1511,1793,0,0
294,-769,0,0,0,0,0,0,0,0,0,-1,1518,1793,0,0
301,-769,0,0,0,0,0,0,0,0,0,-1,1525,1793,0,0
308,-769,0,0,0,0,0,0,0,0,0,-1,1532,1793,0,0
315,-769,0,0,0,0,0,0,0,0,0,-1,1539,1793,0,0
322,-769,0,0,0,0,0,0,0,0,0,-1,1546,1793,0,0
329,-769,0,0,0,0,0,0,0,0,0,-1,1553,1793,0,0
336,-769,0,0,0,0,0,0,0,0,0,-1,1560,1793,0,0
343,-769,0,0,0,0,0,0,0,0,0,-1,1567,1793,0,0
350,-769,0,0,0,0,0,0,0,0,0,-1,1574,1793,0,0
357,-769,0,0,0,0,0,0,0,0,0,-1,1581,1793,0,0
364,-769,0,0,0,0,0,0,0,0,0,-1,1588,1793,0,0
371,-769,0,0,0,0,0,0,0,0,0,-1,1595,1793,0,0
378,-769,0,0,0,0,0,0,0,0,0,-1,1602,1793,0,0
385,-769,0,0,0,0,0,0,0,0,0,-1,1609,1793,0,0
392,-769,0,0,0,0,0,0,0,0,0,-1,1616,1793,0,0
399,-769,0,0,0,0,0,0,0,0,0,-1,1623,1793,0,0
406,-769,0,0,0,0,0,0,0,0,0,-1,1630,1793,0,0
413,-769,0,0,0,0,0,0,0,0,0,-1,1637,1793,0,0
420,-769,0,0,0,0,0,0,0,0,0,-1,1644,1793,0,0
427,-769,0,0,0,0,0,0,0,0,0,-1,1651,1793,0,0
434,-769,0,0,0,0,0,0,0,0,0,-1,1658,1793,0,0
441,-769,0,0,0,0,0,0,0,0,0,-1,1665,1793,0,0
448,-769,0,0,0,0,0,0,0,0,0,-1,1672,1793,0,0
455,-769,0,0,0,0,0,0,0,0,0,-1,1679,1793,0,0
462,-769,0,0,0,0,0,0,0,0,0,-1,1686,1793,0,0
469,-769,0,0,0,0,0,0,0,0,0,-1,1693,1793,0,0
476,-769,0,0,0,0,0,0,0,0,0,-1,1700,1793,0,0
483,-769,0,0,0,0,0,0,0,0,0,-1,1707,1793,0,0
490,-769,0,0,0,0,0,0,0,0,0,-1,1714,1793,0,0
497,-769,0,0,0,0,0,0,0,0,0,-1,1721,1793,0,0
504,-769,0,0,0,0,0,0,0,0,0,-1,1728,1793,0,0
511,-769,0,0,0,0,0,0,0,0,0,-1,1735,1793,0,0
518,-769,0,0,0,0,0,0,0,0,0,-1,1742,1793,0,0
525,-769,0,0,0,0,0,0,0,0,0,-1,1749,1793,0,0
532,-769,0,0,0,0,0,0,0,0,0,-1,1756,1793,0,0
539,-769,0,0,0,0,0,0,0,0,0,-1,1763,1793,0,0
546,-769,0,0,0,0,0,0,0,0,0,-1,1770,1793,0,0
553,-769,0,0,0,0,0,0,0,0,0,-1,1777,1793,0,0
560,-769,0,0,0,0,0,0,0,0,0,-1,1784,1793,0,0
567,-769,0,0,0,0,0,0,0,0,0,-1,1791,1793,0,0
574,-769,0,0,0,0,0,0,0,0,0,-1,1798,1793,0,0
581,-769,0,0,0,0,0,0,0,0,0,-1,1805,1793,0,0
588,-769,0,0,0,0,0,0,0,0,0,-1,1812,1793,0,0
595,-769,0,0,0,0,0,0,0,0,0,-1,1819,1793,0,0
602,-769,0,0,0,0,0,0,0,0,0,-1,1826,1793,0,0
609,-769,0,0,0,0,0,0,0,0,0,-1,1833,1793,0,0
616,-769,0,0,0,0,0,0,0,0,0,-1,1840,1793,0,0
623,-769,0,0,0,0,0,0,0,0,0,-1,1847,1793,0,0
630,-769,0,0,0,0,0,0,0,0,0,-1,1854,1793,0,0
637,-769,0,0,0,0,0,0,0,0,0,-1,1861,1793,0,0
644,-769,0,0,0,0,0,0,0,0,0,-1,1868,1793,0,0
651,-769,0,0,0,0,0,0,0,0,0,-1,1875,1793,0,0
658,-769,0,0,0,0,0,0,0,0,0,-1,1882,1793,0,0
665,-769,0,0,0,0,0,0,0,0,0,-1,1889,1793,0,0
672,-769,0,0,0,0,0,0,0,0,0,-1,1896,1793,0,0
679,-769,0,0,0,0,0,0,0,0,0,-1,1903,1793,0,0
686,-769,0,0,0,0,0,0,0,0,0,-1,1910,1793,0,0
693,-769,0,0,0,0,0,0,0,0,0,-1,1917,1793,0,0
700,-769,0,0,0,0,0,0,0,0,0,-1,1924,1793,0,0
707,-769,0,0,0,0,0,0,0,0,0,-1,1931,1793,0,0
714,-769,0,0,0,0,0,0,0,0,0,-1,1938,1793,0,0
721,-769,0,0,0,0,0,0,0,0,0,-1,1945,1793,0,0
728,-769,0,0,0,0,0,0,0,0,0,-1,1952,1793,0,0
735,-769,0,0,0,0,0,0,0,0,0,-1,1959,1793,0,0
742,-769,0,0,0,0,0,0,0,0,0,-1,1966,1793,0,0
749,-769,0,0,0,0,0,0,0,0,0,-1,1973,1793,0,0
756,-769,0,0,0,0,0,0,0,0,0,-1,1980,1793,0,0
763,-769,0,0,0,0,0,0,0,0,0,-1,1987,1793,0,0
770,-769,0,0,0,0,0,0,0,0,0,-1,1994,1793,0,0
777,-769,0,0,0,0,0,0,0,0,0,-1,2001,1793,0,0
784,-769,0,0,0,0,0,0,0,0,0,-1,2008,1793,0,0
791,-769,0,0,0,0,0,0,0,0,0,-1,2015,1793,0,0
798,-769,0,0,0,0,0,0,0,0,0,-1,2022,1793,0,0
805,-769,0,0,0,0,0,0,0,0,0,-1,2029,1793,0,0
812,-769,0,0,0,0,0,0,0,0,0,-1,2036,1793,0,0
-700,-776,0,0,0,0,0,0,0,0,0,-1,524,1800,0,0
-693,-776,0,0,0,0,0,0,0,0,0,-1,531,1800,0,0
-686,-776,0,0,0,0,0,0,0,0,0,-1,538,1800,0,0
-679,-776,0,0,0,0,0,0,0,0,0,-1,545,1800,0,0
-672,-776,0,0,0,0,0,0,0,0,0,-1,552,1800,0,0
-665,-776,0,0,0,0,0,0,0,0,0,-1,559,1800,0,0
-658,-776,0,0,0,0,0,0,0,0,0,-1,566,1800,0,0
-651,-776,0,0,0,0,0,0,0,0,0,-1,573,1800,0,0
-644,-776,0,0,0,0,0,0,0,0,0,-1,580,1800,0,0
-637,-776,0,0,0,0,0,0,0,0,0,-1,587,1800,0,0
-630,-776,0,0,0,0,0,0,0,0,0,-1,594,1800,0,0
-623,-776,0,0,0,0,0,0,0,0,0,-1,601,1800,0,0
-616,-776,0,0,0,0,0,0,0,0,0,-1,608,1800,0,0
-609,-776,0,0,0,0,0,0,0,0,0,-1,615,1800,0,0
-602,-776,0,0,0,0,0,0,0,0,0,-1,622,1800,0,0
-595,-776,0,0,0,0,0,0,0,0,0,-1,629,1800,0,0
-588,-776,0,0,0,0,0,0,0,0,0,-1,636,1800,0,0
-581,-776,0,0,0,0,0,0,0,0,0,-1,643,1800,0,0
-574,-776,0,0,0,0,0,0,0,0,0,-1,650,1800,0,0
-567,-776,0,0,0,0,0,0,0,0,0,-1,657,1800,0,0
-560,-776,0,0,0,0,0,0,0,0,0,-1,664,1800,0,0
-553,-776,0,0,0,0,0,0,0,0,0,-1,671,1800,0,0
-546,-776,0,0,0,0,0,0,0,0,0,-1,678,1800,0,0
-539,-776,0,0,0,0,0,0,0,0,0,-1,685,1800,0,0
-532,-776,0,0,0,0,0,0,0,0,0,-1,692,1800,0,0
-525,-776,0,0,0,0,0,0,0,0,0,-1,699,1800,0,0
-518,-776,0,0,0,0,0,0,0,0,0,-1,706,1800,0,0
-511,-776,0,0,0,0,0,0,0,0,0,-1,713,1800,0,0
-504,-776,0,0,0,0,0,0,0,0,0,-1,720,1800,0,0
-497,-776,0,0,0,0,0,0,0,0,0,-1,727,1800,0,0
-490,-776,0,0,0,0,0,0,0,0,0,-1,734,1800,0,0
-483,-776,0,0,0,0,0,0,0,0,0,-1,741,1800,0,0
-476,-776,0,0,0,0,0,0,0,0,0,-1,748,1800,0,0
-469,-776,0,0,0,0,0,0,0,0,0,-1,755,1800,0,0
-462,-776,0,0,0,0,0,0,0,0,0,-1,762,1800,0,0
-455,-776,0,0,0,0,0,0,0,0,0,-1,769,1800,0,0
-448,-776,0,0,0,0,0,0,0,0,0,-1,776,1800,0,0
-441,-776,0,0,0,0,0,0,0,0,0,-1,783,1800,0,0
-434,-776,0,0,0,0,0,0,0,0,0,-1,790,1800,0,0
-427,-776,0,0,0,0,0,0,0,0,0,-1,797,1800,0,0
-420,-776,0,0,0,0,0,0,0,0,0,-1,804,1800,0,0
-413,-776,0,0,0,0,0,0,0,0,0,-1,811,1800,0,0
-406,-776,0,0,0,0,0,0,0,0,0,-1,818,1800,0,0
-399,-776,0,0,0,0,0,0,0,0,0,-1,825,1800,0,0
-392,-776,0,0,0,0,0,0,0,0,0,-1,832,1800,0,0
-385,-776,0,0,0,0,0,0,0,0,0,-1,839,1800,0,0
-378,-776,0,0,0,0,0,0,0,0,0,-1,846,1800,0,0
-371,-776,0,0,0,0,0,0,0,0,0,-1,853,1800,0,0
-364,-776,0,0,0,0,0,0,0,0,0,-1,860,1800,0,0
-357,-776,0,0,0,0,0,0,0,0,0,-1,867,1800,0,0
-350,-776,0,0,0,0,0,0,0,0,0,-1,874,1800,0,0
-343,-776,0,0,0,0,0,0,0,0,0,-1,881,1800,0,0
-336,-776,0,0,0,0,0,0,0,0,0,-1,888,1800,0,0
-329,-776,0,0,0,0,0,0,0,0,0,-1,895,1800,0,0
-322,-776,0,0,0,0,0,0,0,0,0,-1,902,1800,0,0
-315,-776,0,0,0,0,0,0,0,0,0,-1,909,1800,0,0
-308,-776,0,0,0,0,0,0,0,0,0,-1,916,1800,0,0
-301,-776,0,0,0,0,0,0,0,0,0,-1,923,1800,0,0
-294,-776,0,0,0,0,0,0,0,0,0,-1,930,1800,0,0
-287,-776,0,0,0,0,0,0,0,0,0,-1,937,1800,0,0
-280,-776,0,0,0,0,0,0,0,0,0,-1,944,1800,0,0
-273,-776,0,0,0,0,0,0,0,0,0,-1,951,1800,0,0
-266,-776,0,0,0,0,0,0,0,0,0,-1,958,1800,0,0
-259,-776,0,0,0,0,0,0,0,0,0,-1,965,1800,0,0
-252,-776,0,0,0,0,0,0,0,0,0,-1,972,1800,0,0
-245,-776,0,0,0,0,0,0,0,0,0,-1,979,1800,0,0
-238,-776,0,0,0,0,0,0,0,0,0,-1,986,1800,0,0
-231,-776,0,0,0,0,0,0,0,0,0,-1,993,1800,0,0
-224,-776,0,0,0,0,0,0,0,0,0,-1,1000,1800,0,0
-217,-776,0,0,0,0,0,0,0,0,0,-1,1007,1800,0,0
-210,-776,0,0,0,0,0,0,0,0,0,-1,1014,1800,0,0
-203,-776,0,0,0,0,0,0,0,0,0,-1,1021,1800,0,0
-196,-776,0,0,0,0,0,0,0,0,0,-1,1028,1800,0,0
-189,-776,0,0,0,0,0,0,0,0,0,-1,1035,1800,0,0
-182,-776,0,0,0,0,0,0,0,0,0,-1,1042,1800,0,0
-175,-776,0,0,0,0,0,0,0,0,0,-1,1049,1800,0,0
-168,-776,0,0,0,0,0,0,0,0,0,-1,1056,1800,0,0
-161,-776,0,0,0,0,0,0,0,0,0,-1,1063,1800,0,0
-154,-776,0,0,0,0,0,0,0,0,0,-1,1070,1800,0,0
-147,-776,0,0,0,0,0,0,0,0,0,-1,1077,1800,0,0
-140,-776,2.98499,5.20911,0,0,0,0,0,0,0,-1,1084,1800,2.98493,-5.2091
-133,-776,6.72363,9.35828,0,0,0,0,0,0,0,-1,1091,1800,6.72358,-9.35824
-126,-776,6.55029,13.7832,0,0,0,0,0,0,0,-1,1098,1800,6.55029,-13.7832
-119,-776,5.72107,13.7787,0,0,0,0,0,0,0,-1,1105,1800,5.72106,-13.7787
-112,-776,6.84998,20.4421,0,0,0,0,0,0,0,-1,1112,1800,6.84993,-20.4421
-105,-776,4.46863,24.6742,0,0,0,0,0,0,0,-1,1119,1800,4.46868,-24.6742
-98,-776,4.31616,19.7659,0,0,0,0,0,0,0,-1,1126,1800,4.31619,-19.7659
-91,-776,3.30225,18.134,0,0,0,0,0,0,0,-1,1133,1800,3.30222,-18.134
-84,-776,2.67932,14.3162,0,0,0,0,0,0,0,-1,1140,1800,2.67926,-14.3161
-77,-776,0.580078,11.1272,0,0,0,0,0,0,0,-1,1147,1800,0.58002,-11.1272
-70,-776,-0.562866,12.3163,0,0,0,0,0,0,0,-1,1154,1800,-0.562897,-12.3163
-63,-776,-3.96106,9.97656,0,0,0,0,0,0,0,-1,1161,1800,-3.961,-9.97654
-56,-776,-7.35913,7.63672,0,0,0,0,0,0,0,-1,1168,1800,-7.3591,-7.63676
-49,-776,-7.62952,3.1908,0,0,0,0,0,0,0,-1,1175,1800,-7.62955,-3.19076
-42,-776,-3.41272,3.0249,0,0,0,0,0,0,0,-1,1182,1800,-3.41269,-3.02488
-35,-776,-3.71753,1.63635,0,0,0,0,0,0,0,-1,1189,1800,-3.71755,-1.63631
-28,-776,-4.03979,0.716064,0,0,0,0,0,0,0,-1,1196,1800,-4.03977,-0.716055
-21,-776,14.7042,70.5721,0,0,0,0,0,0,0,-1,1203,1800,14.7042,-70.5721
-14,-776,14.673,70.1262,0,0,0,0,0,0,0,-1,1210,1800,14.673,-70.1262
-7,-776,14.6301,69.6279,0,0,0,0,0,0,0,-1,1217,1800,14.6301,-69.628
0,-776,14.5073,68.8862,0,0,0,0,0,0,0,-1,1224,1800,14.5073,-68.8862
7,-776,9.53845,68.2827,0,0,0,0,0,0,0,-1,1231,1800,9.53849,-68.2827
14,-776,9.29822,69.5416,0.000805441,-0.0177351,0.0123597,0.00698505,-0.0239148,0.463633,0.0187113,0.0460732,1238,1800,9.29824,-69.5416
21,-776,8.81311,69.778,0.00071,-0.0164992,0.00347319,0.00138453,-0.0171737,0.191822,0.0119374,0.043366,1245,1800,8.81309,-69.778
28,-776,8.28491,70.1515,4.32343e-05,-0.0150377,-0.00420123,0.00113463,-0.0161291,-0.254161,0.0111502,0.0428148,1252,1800,8.28497,-70.1516
35,-776,10.3253,68.9257,-0.00135677,-0.0137344,-0.0107506,0.00485915,-0.0199503,-0.52423,0.0151814,0.0449274,1259,1800,10.3254,-68.9256
42,-776,10.2439,68.926,-0.00329976,-0.0118084,-0.0160821,0.00908121,-0.0241894,-0.656091,0.019858,0.0448469,1266,1800,10.2439,-68.9261
49,-776,10.017,68.9033,-0.00561789,-0.0102755,-0.0211599,0.013341,-0.0292344,-0.73059,0.0251454,0.0470305,1273,1800,10.0169,-68.9034
56,-776,9.8158,68.9486,-0.00831889,-0.00921895,-0.0246439,0.0158791,-0.033417,-0.776269,0.0290553,0.0478268,1280,1800,9.81585,-68.9487
63,-776,9.03906,68.4137,-0.0105164,-0.00718019,-0.0266841,0.0178879,-0.0355845,-0.816614,0.0314308,0.0467104,1287,1800,9.03901,-68.4137
70,-776,9.00525,68.4486,-0.0115179,-0.00317489,-0.0272182,0.0201896,-0.0348824,-0.861438,0.0321708,0.0484622,1294,1800,9.00524,-68.4486
77,-776,9.25879,68.1311,0,0,0,0,0,0,0,-1,1301,1800,9.25876,-68.131
84,-776,9.14722,68.6771,0,0,0,0,0,0,0,-1,1308,1800,9.14718,-68.6772
91,-776,9.36365,67.871,-0.0124594,0.0137551,-0.0257371,0.0295303,-0.0282346,-1.02092,0.0333534,0.045851,1315,1800,9.36366,-67.871
98,-776,9.23621,67.4427,-0.0109214,0.0210413,-0.0255038,0.0351573,-0.0250374,-1.06528,0.0349167,0.0468984,1322,1800,9.23615,-67.4427
105,-776,9.06909,67.0454,0,0,0,0,0,0,0,-1,1329,1800,9.0691,-67.0454
112,-776,6.90991,67.0729,0,0,0,0,0,0,0,-1,1336,1800,6.90991,-67.0729
119,-776,7.44482,67.2336,0,0,0,0,0,0,0,-1,1343,1800,7.44479,-67.2336
126,-776,7.37561,67.2639,0,0,0,0,0,0,0,-1,1350,1800,7.37558,-67.2639
133,-776,8.17322,67.3628,0,0,0,0,0,0,0,-1,1357,1800,8.17326,-67.3627
140,-776,7.51733,67.8993,0,0,0,0,0,0,0,-1,1364,1800,7.51736,-67.8993
147,-776,7.1377,66.0736,0,0,0,0,0,0,0,-1,1371,1800,7.13775,-66.0736
154,-776,38.4338,21.854,0,0,0,0,0,0,0,-1,1378,1800,38.4339,-21.854
161,-776,6.50293,1.1731,0,0,0,0,0,0,0,-1,1385,1800,6.5029,-1.17313
168,-776,8.44971,1.22913,0,0,0,0,0,0,0,-1,1392,1800,8.44974,-1.22915
175,-776,8.61523,2.87061,0,0,0,0,0,0,0,-1,1399,1800,8.6152,-2.87063
182,-776,8.54065,4.60645,0,0,0,0,0,0,0,-1,1406,1800,8.5407,-4.60643
189,-776,8.35303,6.28223,0,0,0,0,0,0,0,-1,1413,1800,8.35297,-6.28225
196,-776,8.0387,8.21704,0,0,0,0,0,0,0,-1,1420,1800,8.03865,-8.217
203,-776,7.91736,9.79919,0,0,0,0,0,0,0,-1,1427,1800,7.91735,-9.79922
210,-776,20.2479,7.85718,0,0,0,0,0,0,0,-1,1434,1800,20.248,-7.85719
217,-776,21.5171,9.3418,0,0,0,0,0,0,0,-1,1441,1800,21.5171,-9.34182
224,-776,3.09253,14.9313,0,0,0,0,0,0,0,-1,1448,1800,3.09254,-14.9313
231,-776,20.8671,9.21057,0,0,0,0,0,0,0,-1,1455,1800,20.867,-9.21054
238,-776,20.7511,9.05847,0,0,0,0,0,0,0,-1,1462,1800,20.7511,-9.05848
245,-776,3.80823,15.4108,0,0,0,0,0,0,0,-1,1469,1800,3.80826,-15.4108
252,-776,8.57837,20.2009,0,0,0,0,0,0,0,-1,1476,1800,8.57841,-20.2009
259,-776,14.1882,7.69055,0,0,0,0,0,0,0,-1,1483,1800,14.1882,-7.69061
266,-776,0,0,0,0,0,0,0,0,0,-1,1490,1800,0,0
273,-776,0,0,0,0,0,0,0,0,0,-1,1497,1800,0,0
280,-776,0,0,0,0,0,0,0,0,0,-1,1504,1800,0,0
287,-776,0,0,0,0,0,0,0,0,0,-1,1511,1800,0,0
294,-776,0,0,0,0,0,0,0,0,0,-1,1518,1800,0,0
301,-776,0,0,0,0,0,0,0,0,0,-1,1525,1800,0,0
308,-776,0,0,0,0,0,0,0,0,0,-1,1532,1800,0,0
315,-776,0,0,0,0,0,0,0,0,0,-1,1539,1800,0,0
322,-776,0,0,0,0,0,0,0,0,0,-1,1546,1800,0,0
329,-776,0,0,0,0,0,0,0,0,0,-1,1553,1800,0,0
336,-776,0,0,0,0,0,0,0,0,0,-1,1560,1800,0,0
343,-776,0,0,0,0,0,0,0,0,0,-1,1567,1800,0,0
350,-776,0,0,0,0,0,0,0,0,0,-1,1574,1800,0,0
357,-776,0,0,0,0,0,0,0,0,0,-1,1581,1800,0,0
364,-776,0,0,0,0,0,0,0,0,0,-1,1588,1800,0,0
371,-776,0,0,0,0,0,0,0,0,0,-1,1595,1800,0,0
378,-776,0,0,0,0,0,0,0,0,0,-1,1602,1800,0,0
385,-776,0,0,0,0,0,0,0,0,0,-1,1609,1800,0,0
392,-776,0,0,0,0,0,0,0,0,0,-1,1616,1800,0,0
399,-776,0,0,0,0,0,0,0,0,0,-1,1623,1800,0,0
406,-776,0,0,0,0,0,0,0,0,0,-1,1630,1800,0,0
413,-776,0,0,0,0,0,0,0,0,0,-1,1637,1800,0,0
420,-776,0,0,0,0,0,0,0,0,0,-1,1644,1800,0,0
427,-776,0,0,0,0,0,0,0,0,0,-1,1651,1800,0,0
434,-776,0,0,0,0,0,0,0,0,0,-1,1658,1800,0,0
441,-776,0,0,0,0,0,0,0,0,0,-1,1665,1800,0,0
448,-776,0,0,0,0,0,0,0,0,0,-1,1672,1800,0,0
455,-776,0,0,0,0,0,0,0,0,0,-1,1679,1800,0,0
462,-776,0,0,0,0,0,0,0,0,0,-1,1686,1800,0,0
469,-776,0,0,0,0,0,0,0,0,0,-1,1693,1800,0,0
476,-776,0,0,0,0,0,0,0,0,0,-1,1700,1800,0,0
483,-776,0,0,0,0,0,0,0,0,0,-1,1707,1800,0,0
490,-776,0,0,0,0,0,0,0,0,0,-1,1714,1800,0,0
497,-776,0,0,0,0,0,0,0,0,0,-1,1721,1800,0,0
504,-776,0,0,0,0,0,0,0,0,0,-1,1728,1800,0,0
511,-776,0,0,0,0,0,0,0,0,0,-1,1735,1800,0,0
518,-776,0,0,0,0,0,0,0,0,0,-1,1742,1800,0,0
525,-776,0,0,0,0,0,0,0,0,0,-1,1749,1800,0,0
532,-776,0,0,0,0,0,0,0,0,0,-1,1756,1800,0,0
539,-776,0,0,0,0,0,0,0,0,0,-1,1763,1800,0,0
546,-776,0,0,0,0,0,0,0,0,0,-1,1770,1800,0,0
553,-776,0,0,0,0,0,0,0,0,0,-1,1777,1800,0,0
560,-776,0,0,0,0,0,0,0,0,0,-1,1784,1800,0,0
567,-776,0,0,0,0,0,0,0,0,0,-1,1791,1800,0,0
574,-776,0,0,0,0,0,0,0,0,0,-1,1798,1800,0,0
581,-776,0,0,0,0,0,0,0,0,0,-1,1805,1800,0,0
588,-776,0,0,0,0,0,0,0,0,0,-1,1812,1800,0,0
595,-776,0,0,0,0,0,0,0,0,0,-1,1819,1800,0,0
602,-776,0,0,0,0,0,0,0,0,0,-1,1826,1800,0,0
609,-776,0,0,0,0,0,0,0,0,0,-1,1833,1800,0,0
616,-776,0,0,0,0,0,0,0,0,0,-1,1840,1800,0,0
623,-776,0,0,0,0,0,0,0,0,0,-1,1847,1800,0,0
630,-776,0,0,0,0,0,0,0,0,0,-1,1854,1800,0,0
637,-776,0,0,0,0,0,0,0,0,0,-1,1861,1800,0,0
644,-776,0,0,0,0,0,0,0,0,0,-1,1868,1800,0,0
651,-776,0,0,0,0,0,0,0,0,0,-1,1875,1800,0,0
658,-776,0,0,0,0,0,0,0,0,0,-1,1882,1800,0,0
665,-776,0,0,0,0,0,0,0,0,0,-1,1889,1800,0,0
672,-776,0,0,0,0,0,0,0,0,0,-1,1896,1800,0,0
679,-776,0,0,0,0,0,0,0,0,0,-1,1903,1800,0,0
686,-776,0,0,0,0,0,0,0,0,0,-1,1910,1800,0,0
693,-776,0,0,0,0,0,0,0,0,0,-1,1917,1800,0,0
700,-776,0,0,0,0,0,0,0,0,0,-1,1924,1800,0,0
707,-776,0,0,0,0,0,0,0,0,0,-1,1931,1800,0,0
714,-776,0,0,0,0,0,0,0,0,0,-1,1938,1800,0,0
721,-776,0,0,0,0,0,0,0,0,0,-1,1945,1800,0,0
728,-776,0,0,0,0,0,0,0,0,0,-1,1952,1800,0,0
735,-776,0,0,0,0,0,0,0,0,0,-1,1959,1800,0,0
742,-776,0,0,0,0,0,0,0,0,0,-1,1966,1800,0,0
749,-776,0,0,0,0,0,0,0,0,0,-1,1973,1800,0,0
756,-776,0,0,0,0,0,0,0,0,0,-1,1980,1800,0,0
763,-776,0,0,0,0,0,0,0,0,0,-1,1987,1800,0,0
770,-776,0,0,0,0,0,0,0,0,0,-1,1994,1800,0,0
777,-776,0,0,0,0,0,0,0,0,0,-1,2001,1800,0,0
784,-776,0,0,0,0,0,0,0,0,0,-1,2008,1800,0,0
791,-776,0,0,0,0,0,0,0,0,0,-1,2015,1800,0,0
798,-776,0,0,0,0,0,0,0,0,0,-1,2022,1800,0,0
805,-776,0,0,0,0,0,0,0,0,0,-1,2029,1800,0,0
812,-776,0,0,0,0,0,0,0,0,0,-1,2036,1800,0,0
-700,-783,0,0,0,0,0,0,0,0,0,-1,524,1807,0,0
-693,-783,0,0,0,0,0,0,0,0,0,-1,531,1807,0,0
-686,-783,0,0,0,0,0,0,0,0,0,-1,538,1807,0,0
-679,-783,0,0,0,0,0,0,0,0,0,-1,545,1807,0,0
-672,-783,0,0,0,0,0,0,0,0,0,-1,552,1807,0,0
-665,-783,0,0,0,0,0,0,0,0,0,-1,559,1807,0,0
-658,-783,0,0,0,0,0,0,0,0,0,-1,566,1807,0,0
-651,-783,0,0,0,0,0,0,0,0,0,-1,573,1807,0,0
-644,-783,0,0,0,0,0,0,0,0,0,-1,580,1807,0,0
-637,-783,0,0,0,0,0,0,0,0,0,-1,587,1807,0,0
-630,-783,0,0,0,0,0,0,0,0,0,-1,594,1807,0,0
-623,-783,0,0,0,0,0,0,0,0,0,-1,601,1807,0,0
-616,-783,0,0,0,0,0,0,0,0,0,-1,608,1807,0,0
-609,-783,0,0,0,0,0,0,0,0,0,-1,615,1807,0,0
-602,-783,0,0,0,0,0,0,0,0,0,-1,622,1807,0,0
-595,-783,0,0,0,0,0,0,0,0,0,-1,629,1807,0,0
-588,-783,0,0,0,0,0,0,0,0,0,-1,636,1807,0,0
-581,-783,0,0,0,0,0,0,0,0,0,-1,643,1807,0,0
-574,-783,0,0,0,0,0,0,0,0,0,-1,650,1807,0,0
-567,-783,0,0,0,0,0,0,0,0,0,-1,657,1807,0,0
-560,-783,0,0,0,0,0,0,0,0,0,-1,664,1807,0,0
-553,-783,0,0,0,0,0,0,0,0,0,-1,671,1807,0,0
-546,-783,0,0,0,0,0,0,0,0,0,-1,678,1807,0,0
-539,-783,0,0,0,0,0,0,0,0,0,-1,685,1807,0,0
-532,-783,0,0,0,0,0,0,0,0,0,-1,692,1807,0,0
-525,-783,0,0,0,0,0,0,0,0,0,-1,699,1807,0,0
-518,-783,0,0,0,0,0,0,0,0,0,-1,706,1807,0,0
-511,-783,0,0,0,0,0,0,0,0,0,-1,713,1807,0,0
-504,-783,0,0,0,0,0,0,0,0,0,-1,720,1807,0,0
-497,-783,0,0,0,0,0,0,0,0,0,-1,727,1807,0,0
-490,-783,0,0,0,0,0,0,0,0,0,-1,734,1807,0,0
-483,-783,0,0,0,0,0,0,0,0,0,-1,741,1807,0,0
-476,-783,0,0,0,0,0,0,0,0,0,-1,748,1807,0,0
-469,-783,0,0,0,0,0,0,0,0,0,-1,755,1807,0,0
-462,-783,0,0,0,0,0,0,0,0,0,-1,762,1807,0,0
-455,-783,0,0,0,0,0,0,0,0,0,-1,769,1807,0,0
-448,-783,0,0,0,0,0,0,0,0,0,-1,776,1807,0,0
-441,-783,0,0,0,0,0,0,0,0,0,-1,783,1807,0,0
-434,-783,0,0,0,0,0,0,0,0,0,-1,790,1807,0,0
-427,-783,0,0,0,0,0,0,0,0,0,-1,797,1807,0,0
-420,-783,0,0,0,0,0,0,0,0,0,-1,804,1807,0,0
-413,-783,0,0,0,0,0,0,0,0,0,-1,811,1807,0,0
-406,-783,0,0,0,0,0,0,0,0,0,-1,818,1807,0,0
-399,-783,0,0,0,0,0,0,0,0,0,-1,825,1807,0,0
-392,-783,0,0,0,0,0,0,0,0,0,-1,832,1807,0,0
-385,-783,0,0,0,0,0,0,0,0,0,-1,839,1807,0,0
-378,-783,0,0,0,0,0,0,0,0,0,-1,846,1807,0,0
-371,-783,0,0,0,0,0,0,0,0,0,-1,853,1807,0,0
-364,-783,0,0,0,0,0,0,0,0,0,-1,860,1807,0,0
-357,-783,0,0,0,0,0,0,0,0,0,-1,867,1807,0,0
-350,-783,0,0,0,0,0,0,0,0,0,-1,874,1807,0,0
-343,-783,0,0,0,0,0,0,0,0,0,-1,881,1807,0,0
-336,-783,0,0,0,0,0,0,0,0,0,-1,888,1807,0,0
-329,-783,0,0,0,0,0,0,0,0,0,-1,895,1807,0,0
-322,-783,0,0,0,0,0,0,0,0,0,-1,902,1807,0,0
-315,-783,0,0,0,0,0,0,0,0,0,-1,909,1807,0,0
-308,-783,0,0,0,0,0,0,0,0,0,-1,916,1807,0,0
-301,-783,0,0,0,0,0,0,0,0,0,-1,923,1807,0,0
-294,-783,0,0,0,0,0,0,0,0,0,-1,930,1807,0,0
-287,-783,0,0,0,0,0,0,0,0,0,-1,937,1807,0,0
-280,-783,0,0,0,0,0,0,0,0,0,-1,944,1807,0,0
-273,-783,0,0,0,0,0,0,0,0,0,-1,951,1807,0,0
-266,-783,0,0,0,0,0,0,0,0,0,-1,958,1807,0,0
-259,-783,0,0,0,0,0,0,0,0,0,-1,965,1807,0,0
-252,-783,0,0,0,0,0,0,0,0,0,-1,972,1807,0,0
-245,-783,0,0,0,0,0,0,0,0,0,-1,979,1807,0,0
-238,-783,0,0,0,0,0,0,0,0,0,-1,986,1807,0,0
-231,-783,0,0,0,0,0,0,0,0,0,-1,993,1807,0,0
-224,-783,0,0,0,0,0,0,0,0,0,-1,1000,1807,0,0
-217,-783,0,0,0,0,0,0,0,0,0,-1,1007,1807,0,0
-210,-783,0,0,0,0,0,0,0,0,0,-1,1014,1807,0,0
-203,-783,0,0,0,0,0,0,0,0,0,-1,1021,1807,0,0
-196,-783,0,0,0,0,0,0,0,0,0,-1,1028,1807,0,0
-189,-783,0,0,0,0,0,0,0,0,0,-1,1035,1807,0,0
-182,-783,0,0,0,0,0,0,0,0,0,-1,1042,1807,0,0
-175,-783,0,0,0,0,0,0,0,0,0,-1,1049,1807,0,0
-168,-783,0,0,0,0,0,0,0,0,0,-1,1056,1807,0,0
-161,-783,0,0,0,0,0,0,0,0,0,-1,1063,1807,0,0
-154,-783,0,0,0,0,0,0,0,0,0,-1,1070,1807,0,0
-147,-783,0,0,0,0,0,0,0,0,0,-1,1077,1807,0,0
-140,-783,0,0,0,0,0,0,0,0,0,-1,1084,1807,0,0
-133,-783,0,0,0,0,0,0,0,0,0,-1,1091,1807,0,0
-126,-783,0,0,0,0,0,0,0,0,0,-1,1098,1807,0,0
-119,-783,0,0,0,0,0,0,0,0,0,-1,1105,1807,0,0
-112,-783,5.33936,14.7699,0,0,0,0,0,0,0,-1,1112,1807,5.33931,-14.7699
-105,-783,6.44263,21.2224,0,0,0,0,0,0,0,-1,1119,1807,6.44263,-21.2224
-98,-783,5.54773,20.5695,0,0,0,0,0,0,0,-1,1126,1807,5.54772,-20.5695
-91,-783,2.6106,20.2491,0,0,0,0,0,0,0,-1,1133,1807,2.61056,-20.2492
-84,-783,-0.0491943,14.5743,0,0,0,0,0,0,0,-1,1140,1807,-0.0491562,-14.5743
-77,-783,0.332764,12.7788,0,0,0,0,0,0,0,-1,1147,1807,0.332743,-12.7788
-70,-783,-1.93176,5.12817,0,0,0,0,0,0,0,-1,1154,1807,-1.93171,-5.12813
-63,-783,-5.31702,10.54,0,0,0,0,0,0,0,-1,1161,1807,-5.31703,-10.54
-56,-783,-6.26135,6.9679,0,0,0,0,0,0,0,-1,1168,1807,-6.26136,-6.96785
-49,-783,-3.17688,4.59705,0,0,0,0,0,0,0,-1,1175,1807,-3.17685,-4.5971
-42,-783,-3.72876,3.1405,0,0,0,0,0,0,0,-1,1182,1807,-3.72874,-3.14055
-35,-783,-3.97046,1.59399,0,0,0,0,0,0,0,-1,1189,1807,-3.97041,-1.59401
-28,-783,-4.12195,0.270386,0,0,0,0,0,0,0,-1,1196,1807,-4.12197,-0.270408
-21,-783,9.91113,66.3043,0,0,0,0,0,0,0,-1,1203,1807,9.91116,-66.3043
-14,-783,13.3254,70.3479,0,0,0,0,0,0,0,-1,1210,1807,13.3254,-70.348
-7,-783,12.6748,69.4265,0,0,0,0,0,0,0,-1,1217,1807,12.6748,-69.4265
0,-783,12.8839,69.1061,0,0,0,0,0,0,0,-1,1224,1807,12.884,-69.106
7,-783,9.91919,69.6226,0,0,0,0,0,0,0,-1,1231,1807,9.91913,-69.6226
14,-783,9.45898,69.88,0.00443476,-0.0227343,0.0186999,0.0139635,-0.0322631,0.471269,0.0273771,0.0492578,1238,1807,9.45903,-69.8801
21,-783,8.90076,70.4045,0.00422912,-0.0221007,0.00704485,0.00599554,-0.0238671,0.245675,0.0182414,0.0449084,1245,1807,8.90082,-70.4046
28,-783,8.37317,70.9304,0.00314376,-0.020918,-0.00294691,0.00349942,-0.0212737,-0.120108,0.0154813,0.0451304,1252,1807,8.37322,-70.9304
35,-783,10.5377,68.7837,0.00114757,-0.0201087,-0.0113232,0.00604919,-0.0250103,-0.408527,0.0190134,0.0460442,1259,1807,10.5377,-68.7837
42,-783,10.6469,68.828,-0.00151961,-0.0184804,-0.0181921,0.0100716,-0.0300716,-0.567293,0.0241164,0.0455399,1266,1807,10.6469,-68.8281
49,-783,10.4237,68.7908,0,0,0,0,0,0,0,-1,1273,1807,10.4237,-68.7907
56,-783,10.2551,68.7152,-0.00830605,-0.0167222,-0.0292711,0.0170579,-0.0420862,-0.714006,0.0351512,0.0470953,1280,1807,10.2552,-68.7153
63,-783,9.44006,67.7435,-0.0113525,-0.0145569,-0.0318101,0.0188957,-0.0448051,-0.760236,0.0377781,0.0460967,1287,1807,9.44012,-67.7436
70,-783,9.21411,67.9127,-0.0129004,-0.0098653,-0.032373,0.0210257,-0.0437914,-0.80882,0.0381838,0.0452925,1294,1807,9.21409,-67.9127
77,-783,9.52612,67.6219,0,0,0,0,0,0,0,-1,1301,1807,9.52616,-67.6219
84,-783,9.66138,67.7632,0,0,0,0,0,0,0,-1,1308,1807,9.66142,-67.7632
91,-783,9.60181,67.5569,-0.0135558,0.0127232,-0.0307425,0.0330164,-0.0338491,-0.987351,0.0386058,0.0463228,1315,1807,9.60186,-67.5569
98,-783,9.58276,67.3419,-0.0115839,0.0228458,-0.0305348,0.0406842,-0.0294222,-1.04208,0.0406497,0.0466298,1322,1807,9.58276,-67.3419
105,-783,9.92395,66.8488,0,0,0,0,0,0,0,-1,1329,1807,9.924,-66.8488
112,-783,10.1526,66.4456,0,0,0,0,0,0,0,-1,1336,1807,10.1526,-66.4455
119,-783,7.8075,66.2274,-0.00454343,0.0628159,-0.0299584,0.074212,-0.0159395,-1.2073,0.0555553,0.0468349,1343,1807,7.8075,-66.2274
126,-783,7.74817,66.25,-0.00191878,0.0789275,-0.0296481,0.0886346,-0.0116259,-1.25439,0.0633218,0.0491865,1350,1807,7.74813,-66.25
133,-783,7.67273,66.2368,0,0,0,0,0,0,0,-1,1357,1807,7.67275,-66.2368
140,-783,7.30542,66.7736,0,0,0,0,0,0,0,-1,1364,1807,7.30541,-66.7735
147,-783,7.61633,65.818,0,0,0,0,0,0,0,-1,1371,1807,7.61632,-65.818
154,-783,38.2109,17.545,0,0,0,0,0,0,0,-1,1378,1807,38.2109,-17.545
161,-783,39.5087,17.5449,0,0,0,0,0,0,0,-1,1385,1807,39.5087,-17.545
168,-783,8.62561,1.79944,0,0,0,0,0,0,0,-1,1392,1807,8.62561,-1.79946
175,-783,8.78699,3.40857,0,0,0,0,0,0,0,-1,1399,1807,8.78697,-3.40854
182,-783,8.70984,5.14661,0,0,0,0,0,0,0,-1,1406,1807,8.70989,-5.14666
189,-783,8.55762,6.79871,0,0,0,0,0,0,0,-1,1413,1807,8.55766,-6.79872
196,-783,8.25488,8.66626,0,0,0,0,0,0,0,-1,1420,1807,8.25492,-8.66628
203,-783,7.86755,10.5735,0,0,0,0,0,0,0,-1,1427,1807,7.8676,-10.5734
210,-783,5.6969,8.99231,0,0,0,0,0,0,0,-1,1434,1807,5.69693,-8.99234
217,-783,5.28503,3.80872,0,0,0,0,0,0,0,-1,1441,1807,5.285,-3.80868
224,-783,3.22571,6.62903,0,0,0,0,0,0,0,-1,1448,1807,3.2257,-6.62907
231,-783,4.27942,4.56262,0,0,0,0,0,0,0,-1,1455,1807,4.27948,-4.56267
238,-783,0,0,0,0,0,0,0,0,0,-1,1462,1807,0,0
245,-783,0,0,0,0,0,0,0,0,0,-1,1469,1807,0,0
252,-783,0,0,0,0,0,0,0,0,0,-1,1476,1807,0,0
259,-783,0,0,0,0,0,0,0,0,0,-1,1483,1807,0,0
266,-783,0,0,0,0,0,0,0,0,0,-1,1490,1807,0,0
273,-783,0,0,0,0,0,0,0,0,0,-1,1497,1807,0,0
280,-783,0,0,0,0,0,0,0,0,0,-1,1504,1807,0,0
287,-783,0,0,0,0,0,0,0,0,0,-1,1511,1807,0,0
294,-783,0,0,0,0,0,0,0,0,0,-1,1518,1807,0,0
301,-783,0,0,0,0,0,0,0,0,0,-1,1525,1807,0,0
308,-783,0,0,0,0,0,0,0,0,0,-1,1532,1807,0,0
315,-783,0,0,0,0,0,0,0,0,0,-1,1539,1807,0,0
322,-783,0,0,0,0,0,0,0,0,0,-1,1546,1807,0,0
329,-783,0,0,0,0,0,0,0,0,0,-1,1553,1807,0,0
336,-783,0,0,0,0,0,0,0,0,0,-1,1560,1807,0,0
343,-783,0,0,0,0,0,0,0,0,0,-1,1567,1807,0,0
350,-783,0,0,0,0,0,0,0,0,0,-1,1574,1807,0,0
357,-783,0,0,0,0,0,0,0,0,0,-1,1581,1807,0,0
364,-783,0,0,0,0,0,0,0,0,0,-1,1588,1807,0,0
371,-783,0,0,0,0,0,0,0,0,0,-1,1595,1807,0,0
378,-783,0,0,0,0,0,0,0,0,0,-1,1602,1807,0,0
385,-783,0,0,0,0,0,0,0,0,0,-1,1609,1807,0,0
392,-783,0,0,0,0,0,0,0,0,0,-1,1616,1807,0,0
399,-783,0,0,0,0,0,0,0,0,0,-1,1623,1807,0,0
406,-783,0,0,0,0,0,0,0,0,0,-1,1630,1807,0,0
413,-783,0,0,0,0,0,0,0,0,0,-1,1637,1807,0,0
420,-783,0,0,0,0,0,0,0,0,0,-1,1644,1807,0,0
427,-783,0,0,0,0,0,0,0,0,0,-1,1651,1807,0,0
434,-783,0,0,0,0,0,0,0,0,0,-1,1658,1807,0,0
441,-783,0,0,0,0,0,0,0,0,0,-1,1665,1807,0,0
448,-783,0,0,0,0,0,0,0,0,0,-1,1672,1807,0,0
455,-783,0,0,0,0,0,0,0,0,0,-1,1679,1807,0,0
462,-783,0,0,0,0,0,0,0,0,0,-1,1686,1807,0,0
469,-783,0,0,0,0,0,0,0,0,0,-1,1693,1807,0,0
476,-783,0,0,0,0,0,0,0,0,0,-1,1700,1807,0,0
483,-783,0,0,0,0,0,0,0,0,0,-1,1707,1807,0,0
490,-783,0,0,0,0,0,0,0,0,0,-1,1714,1807,0,0
497,-783,0,0,0,0,0,0,0,0,0,-1,1721,1807,0,0
504,-783,0,0,0,0,0,0,0,0,0,-1,1728,1807,0,0
511,-783,0,0,0,0,0,0,0,0,0,-1,1735,1807,0,0
518,-783,0,0,0,0,0,0,0,0,0,-1,1742,1807,0,0
525,-783,0,0,0,0,0,0,0,0,0,-1,1749,1807,0,0
532,-783,0,0,0,0,0,0,0,0,0,-1,1756,1807,0,0
539,-783,0,0,0,0,0,0,0,0,0,-1,1763,1807,0,0
546,-783,0,0,0,0,0,0,0,0,0,-1,1770,1807,0,0
553,-783,0,0,0,0,0,0,0,0,0,-1,1777,1807,0,0
560,-783,0,0,0,0,0,0,0,0,0,-1,1784,1807,0,0
567,-783,0,0,0,0,0,0,0,0,0,-1,1791,1807,0,0
574,-783,0,0,0,0,0,0,0,0,0,-1,1798,1807,0,0
581,-783,0,0,0,0,0,0,0,0,0,-1,1805,1807,0,0
588,-783,0,0,0,0,0,0,0,0,0,-1,1812,1807,0,0
595,-783,0,0,0,0,0,0,0,0,0,-1,1819,1807,0,0
602,-783,0,0,0,0,0,0,0,0,0,-1,1826,1807,0,0
609,-783,0,0,0,0,0,0,0,0,0,-1,1833,1807,0,0
616,-783,0,0,0,0,0,0,0,0,0,-1,1840,1807,0,0
623,-783,0,0,0,0,0,0,0,0,0,-1,1847,1807,0,0
630,-783,0,0,0,0,0,0,0,0,0,-1,1854,1807,0,0
637,-783,0,0,0,0,0,0,0,0,0,-1,1861,1807,0,0
644,-783,0,0,0,0,0,0,0,0,0,-1,1868,1807,0,0
651,-783,0,0,0,0,0,0,0,0,0,-1,1875,1807,0,0
658,-783,0,0,0,0,0,0,0,0,0,-1,1882,1807,0,0
665,-783,0,0,0,0,0,0,0,0,0,-1,1889,1807,0,0
672,-783,0,0,0,0,0,0,0,0,0,-1,1896,1807,0,0
679,-783,0,0,0,0,0,0,0,0,0,-1,1903,1807,0,0
686,-783,0,0,0,0,0,0,0,0,0,-1,1910,1807,0,0
693,-783,0,0,0,0,0,0,0,0,0,-1,1917,1807,0,0
700,-783,0,0,0,0,0,0,0,0,0,-1,1924,1807,0,0
707,-783,0,0,0,0,0,0,0,0,0,-1,1931,1807,0,0
714,-783,0,0,0,0,0,0,0,0,0,-1,1938,1807,0,0
721,-783,0,0,0,0,0,0,0,0,0,-1,1945,1807,0,0
728,-783,0,0,0,0,0,0,0,0,0,-1,1952,1807,0,0
735,-783,0,0,0,0,0,0,0,0,0,-1,1959,1807,0,0
742,-783,0,0,0,0,0,0,0,0,0,-1,1966,1807,0,0
749,-783,0,0,0,0,0,0,0,0,0,-1,1973,1807,0,0
756,-783,0,0,0,0,0,0,0,0,0,-1,1980,1807,0,0
763,-783,0,0,0,0,0,0,0,0,0,-1,1987,1807,0,0
770,-783,0,0,0,0,0,0,0,0,0,-1,1994,1807,0,0
777,-783,0,0,0,0,0,0,0,0,0,-1,2001,1807,0,0
784,-783,0,0,0,0,0,0,0,0,0,-1,2008,1807,0,0
791,-783,0,0,0,0,0,0,0,0,0,-1,2015,1807,0,0
798,-783,0,0,0,0,0,0,0,0,0,-1,2022,1807,0,0
805,-783,0,0,0,0,0,0,0,0,0,-1,2029,1807,0,0
812,-783,0,0,0,0,0,0,0,0,0,-1,2036,1807,0,0
-700,-790,0,0,0,0,0,0,0,0,0,-1,524,1814,0,0
-693,-790,0,0,0,0,0,0,0,0,0,-1,531,1814,0,0
-686,-790,0,0,0,0,0,0,0,0,0,-1,538,1814,0,0
-679,-790,0,0,0,0,0,0,0,0,0,-1,545,1814,0,0
-672,-790,0,0,0,0,0,0,0,0,0,-1,552,1814,0,0
-665,-790,0,0,0,0,0,0,0,0,0,-1,559,1814,0,0
-658,-790,0,0,0,0,0,0,0,0,0,-1,566,1814,0,0
-651,-790,0,0,0,0,0,0,0,0,0,-1,573,1814,0,0
-644,-790,0,0,0,0,0,0,0,0,0,-1,580,1814,0,0
-637,-790,0,0,0,0,0,0,0,0,0,-1,587,1814,0,0
-630,-790,0,0,0,0,0,0,0,0,0,-1,594,1814,0,0
-623,-790,0,0,0,0,0,0,0,0,0,-1,601,1814,0,0
-616,-790,0,0,0,0,0,0,0,0,0,-1,608,1814,0,0
-609,-790,0,0,0,0,0,0,0,0,0,-1,615,1814,0,0
-602,-790,0,0,0,0,0,0,0,0,0,-1,622,1814,0,0
-595,-790,0,0,0,0,0,0,0,0,0,-1,629,1814,0,0
-588,-790,0,0,0,0,0,0,0,0,0,-1,636,1814,0,0
-581,-790,0,0,0,0,0,0,0,0,0,-1,643,1814,0,0
-574,-790,0,0,0,0,0,0,0,0,0,-1,650,1814,0,0
-567,-790,0,0,0,0,0,0,0,0,0,-1,657,1814,0,0
-560,-790,0,0,0,0,0,0,0,0,0,-1,664,1814,0,0
-553,-790,0,0,0,0,0,0,0,0,0,-1,671,1814,0,0
-546,-790,0,0,0,0,0,0,0,0,0,-1,678,1814,0,0
-539,-790,0,0,0,0,0,0,0,0,0,-1,685,1814,0,0
-532,-790,0,0,0,0,0,0,0,0,0,-1,692,1814,0,0
-525,-790,0,0,0,0,0,0,0,0,0,-1,699,1814,0,0
-518,-790,0,0,0,0,0,0,0,0,0,-1,706,1814,0,0
-511,-790,0,0,0,0,0,0,0,0,0,-1,713,1814,0,0
-504,-790,0,0,0,0,0,0,0,0,0,-1,720,1814,0,0
-497,-790,0,0,0,0,0,0,0,0,0,-1,727,1814,0,0
-490,-790,0,0,0,0,0,0,0,0,0,-1,734,1814,0,0
-483,-790,0,0,0,0,0,0,0,0,0,-1,741,1814,0,0
-476,-790,0,0,0,0,0,0,0,0,0,-1,748,1814,0,0
-469,-790,0,0,0,0,0,0,0,0,0,-1,755,1814,0,0
-462,-790,0,0,0,0,0,0,0,0,0,-1,762,1814,0,0
-455,-790,0,0,0,0,0,0,0,0,0,-1,769,1814,0,0
-448,-790,0,0,0,0,0,0,0,0,0,-1,776,1814,0,0
-441,-790,0,0,0,0,0,0,0,0,0,-1,783,1814,0,0
-434,-790,0,0,0,0,0,0,0,0,0,-1,790,1814,0,0
-427,-790,0,0,0,0,0,0,0,0,0,-1,797,1814,0,0
-420,-790,0,0,0,0,0,0,0,0,0,-1,804,1814,0,0
-413,-790,0,0,0,0,0,0,0,0,0,-1,811,1814,0,0
-406,-790,0,0,0,0,0,0,0,0,0,-1,818,1814,0,0
-399,-790,0,0,0,0,0,0,0,0,0,-1,825,1814,0,0
-392,-790,0,0,0,0,0,0,0,0,0,-1,832,1814,0,0
-385,-790,0,0,0,0,0,0,0,0,0,-1,839,1814,0,0
-378,-790,0,0,0,0,0,0,0,0,0,-1,846,1814,0,0
-371,-790,0,0,0,0,0,0,0,0,0,-1,853,1814,0,0
-364,-790,0,0,0,0,0,0,0,0,0,-1,860,1814,0,0
-357,-790,0,0,0,0,0,0,0,0,0,-1,867,1814,0,0
-350,-790,0,0,0,0,0,0,0,0,0,-1,874,1814,0,0
-343,-790,0,0,0,0,0,0,0,0,0,-1,881,1814,0,0
-336,-790,0,0,0,0,0,0,0,0,0,-1,888,1814,0,0
-329,-790,0,0,0,0,0,0,0,0,0,-1,895,1814,0,0
-322,-790,0,0,0,0,0,0,0,0,0,-1,902,1814,0,0
-315,-790,0,0,0,0,0,0,0,0,0,-1,909,1814,0,0
-308,-790,0,0,0,0,0,0,0,0,0,-1,916,1814,0,0
-301,-790,0,0,0,0,0,0,0,0,0,-1,923,1814,0,0
-294,-790,0,0,0,0,0,0,0,0,0,-1,930,1814,0,0
-287,-790,0,0,0,0,0,0,0,0,0,-1,937,1814,0,0
-280,-790,0,0,0,0,0,0,0,0,0,-1,944,1814,0,0
-273,-790,0,0,0,0,0,0,0,0,0,-1,951,1814,0,0
-266,-790,0,0,0,0,0,0,0,0,0,-1,958,1814,0,0
-259,-790,0,0,0,0,0,0,0,0,0,-1,965,1814,0,0
-252,-790,0,0,0,0,0,0,0,0,0,-1,972,1814,0,0
-245,-790,0,0,0,0,0,0,0,0,0,-1,979,1814,0,0
-238,-790,0,0,0,0,0,0,0,0,0,-1,986,1814,0,0
-231,-790,0,0,0,0,0,0,0,0,0,-1,993,1814,0,0
-224,-790,0,0,0,0,0,0,0,0,0,-1,1000,1814,0,0
-217,-790,0,0,0,0,0,0,0,0,0,-1,1007,1814,0,0
-210,-790,0,0,0,0,0,0,0,0,0,-1,1014,1814,0,0
-203,-790,0,0,0,0,0,0,0,0,0,-1,1021,1814,0,0
-196,-790,0,0,0,0,0,0,0,0,0,-1,1028,1814,0,0
-189,-790,0,0,0,0,0,0,0,0,0,-1,1035,1814,0,0
-182,-790,0,0,0,0,0,0,0,0,0,-1,1042,1814,0,0
-175,-790,0,0,0,0,0,0,0,0,0,-1,1049,1814,0,0
-168,-790,0,0,0,0,0,0,0,0,0,-1,1056,1814,0,0
-161,-790,0,0,0,0,0,0,0,0,0,-1,1063,1814,0,0
-154,-790,0,0,0,0,0,0,0,0,0,-1,1070,1814,0,0
-147,-790,0,0,0,0,0,0,0,0,0,-1,1077,1814,0,0
-140,-790,0,0,0,0,0,0,0,0,0,-1,1084,1814,0,0
-133,-790,0,0,0,0,0,0,0,0,0,-1,1091,1814,0,0
-126,-790,0,0,0,0,0,0,0,0,0,-1,1098,1814,0,0
-119,-790,0,0,0,0,0,0,0,0,0,-1,1105,1814,0,0
-112,-790,0,0,0,0,0,0,0,0,0,-1,1112,1814,0,0
-105,-790,0,0,0,0,0,0,0,0,0,-1,1119,1814,0,0
-98,-790,0,0,0,0,0,0,0,0,0,-1,1126,1814,0,0
-91,-790,0,0,0,0,0,0,0,0,0,-1,1133,1814,0,0
-84,-790,0,0,0,0,0,0,0,0,0,-1,1140,1814,0,0
-77,-790,-0.969238,5.30847,0,0,0,0,0,0,0,-1,1147,1814,-0.969277,-5.3085
-70,-790,-1.23169,4.98914,0,0,0,0,0,0,0,-1,1154,1814,-1.23163,-4.98916
-63,-790,-1.69128,4.32263,0,0,0,0,0,0,0,-1,1161,1814,-1.69128,-4.32258
-56,-790,-2.24756,3.75305,0,0,0,0,0,0,0,-1,1168,1814,-2.24758,-3.75302
-49,-790,-3.11011,3.35779,0,0,0,0,0,0,0,-1,1175,1814,-3.11006,-3.35781
-42,-790,0.593262,1.19165,0,0,0,0,0,0,0,-1,1182,1814,0.593225,-1.19165
-35,-790,0.307129,-0.20105,0,0,0,0,0,0,0,-1,1189,1814,0.307178,0.201006
-28,-790,-2.78467,0.785156,0,0,0,0,0,0,0,-1,1196,1814,-2.78471,-0.785183
-21,-790,9.42773,66.3077,0,0,0,0,0,0,0,-1,1203,1814,9.42771,-66.3077
-14,-790,11.1937,70.0918,0,0,0,0,0,0,0,-1,1210,1814,11.1938,-70.0918
-7,-790,11.2582,69.7017,-0.00221546,-0.0270955,0.0653535,0.0518714,-0.0811823,0.691349,0.0774375,0.0487536,1217,1814,11.2582,-69.7016
0,-790,11.2478,69.2582,0.00289649,-0.0288675,0.0535598,0.0428794,-0.0688505,0.641264,0.0650856,0.0444951,1224,1814,11.2478,-69.2582
7,-790,11.1287,68.6825,0.00737456,-0.0284915,0.041028,0.0342175,-0.0553344,0.579364,0.0521798,0.0430025,1231,1814,11.1287,-68.6824
14,-790,9.61963,70.2319,0,0,0,0,0,0,0,-1,1238,1814,9.61962,-70.2319
21,-790,8.98315,70.7793,0,0,0,0,0,0,0,-1,1245,1814,8.98311,-70.7793
28,-790,10.745,68.564,0,0,0,0,0,0,0,-1,1252,1814,10.745,-68.5639
35,-790,10.8535,68.4313,0.00451818,-0.0282773,-0.0106971,0.00769885,-0.031458,-0.289014,0.0239543,0.0471567,1259,1814,10.8535,-68.4313
42,-790,11.073,68.7209,0.00101152,-0.0274984,-0.019358,0.0107968,-0.0372837,-0.468032,0.0291295,0.0457797,1266,1814,11.073,-68.721
49,-790,11.2371,69.0684,-0.00302632,-0.027373,-0.0276969,0.0150544,-0.0454538,-0.578346,0.0363744,0.0488458,1273,1814,11.237,-69.0684
56,-790,11.3741,69.5662,-0.00784468,-0.0275475,-0.0335271,0.0172484,-0.0526406,-0.642503,0.0420397,0.0482141,1280,1814,11.3742,-69.5661
63,-790,10.0901,66.7502,-0.0119613,-0.0255224,-0.0367452,0.0186237,-0.0561074,-0.69416,0.0449187,0.0425697,1287,1814,10.0901,-66.7503
70,-790,9.58691,67.2502,-0.0142822,-0.0203358,-0.0374025,0.0202157,-0.0548337,-0.745024,0.04484,0.0419681,1294,1814,9.5869,-67.2502
77,-790,9.61292,67.1516,-0.0149972,-0.0112022,-0.037348,0.0242965,-0.0504958,-0.810779,0.0440556,0.0434563,1301,1814,9.6129,-67.1516
84,-790,9.52917,67.2023,-0.0156644,-0.00221578,-0.0365049,0.0281789,-0.0460591,-0.876479,0.0432738,0.0447955,1308,1814,9.52917,-67.2023
91,-790,9.74463,67.3142,-0.0146338,0.00891459,-0.0358085,0.034835,-0.0405542,-0.944235,0.0435677,0.047427,1315,1814,9.74462,-67.3142
98,-790,9.75476,67.1782,-0.0121564,0.0227337,-0.0356491,0.0449773,-0.0344,-1.01295,0.045964,0.0469306,1322,1814,9.75481,-67.1782
105,-790,9.76929,67.0531,0,0,0,0,0,0,0,-1,1329,1814,9.76923,-67.0531
112,-790,8.24902,65.312,-0.00667172,0.0578482,-0.0361313,0.0740256,-0.0228491,-1.14982,0.0584743,0.04844,1336,1814,8.24897,-65.3121
119,-790,8.16919,65.1653,-0.00318017,0.078667,-0.0362793,0.0924328,-0.016946,-1.20814,0.0679783,0.0465953,1343,1814,8.16914,-65.1653
126,-790,8.15039,65.1498,0.000374368,0.101882,-0.0364057,0.113589,-0.0113324,-1.25968,0.0797722,0.0488587,1350,1814,8.15045,-65.1498
133,-790,8.09631,65.4102,0,0,0,0,0,0,0,-1,1357,1814,8.09629,-65.4102
140,-790,7.9375,65.4023,0,0,0,0,0,0,0,-1,1364,1814,7.93746,-65.4023
147,-790,7.78027,65.0953,0,0,0,0,0,0,0,-1,1371,1814,7.78025,-65.0954
154,-790,40.215,13.2396,0,0,0,0,0,0,0,-1,1378,1814,40.2149,-13.2396
161,-790,39.3429,13.0336,0,0,0,0,0,0,0,-1,1385,1814,39.3429,-13.0336
168,-790,7.04077,2.23279,0,0,0,0,0,0,0,-1,1392,1814,7.04082,-2.23275
175,-790,9.03918,3.98535,0,0,0,0,0,0,0,-1,1399,1814,9.0392,-3.98535
182,-790,8.96997,5.67896,0,0,0,0,0,0,0,-1,1406,1814,8.97001,-5.6789
189,-790,8.59729,6.86975,0,0,0,0,0,0,0,-1,1413,1814,8.59728,-6.86972
196,-790,8.21924,9.29053,0,0,0,0,0,0,0,-1,1420,1814,8.21924,-9.29048
203,-790,0,0,0,0,0,0,0,0,0,-1,1427,1814,0,0
210,-790,0,0,0,0,0,0,0,0,0,-1,1434,1814,0,0
217,-790,0,0,0,0,0,0,0,0,0,-1,1441,1814,0,0
224,-790,0,0,0,0,0,0,0,0,0,-1,1448,1814,0,0
231,-790,0,0,0,0,0,0,0,0,0,-1,1455,1814,0,0
238,-790,0,0,0,0,0,0,0,0,0,-1,1462,1814,0,0
245,-790,0,0,0,0,0,0,0,0,0,-1,1469,1814,0,0
252,-790,0,0,0,0,0,0,0,0,0,-1,1476,1814,0,0
259,-790,0,0,0,0,0,0,0,0,0,-1,1483,1814,0,0
266,-790,0,0,0,0,0,0,0,0,0,-1,1490,1814,0,0
273,-790,0,0,0,0,0,0,0,0,0,-1,1497,1814,0,0
280,-790,0,0,0,0,0,0,0,0,0,-1,1504,1814,0,0
287,-790,0,0,0,0,0,0,0,0,0,-1,1511,1814,0,0
294,-790,0,0,0,0,0,0,0,0,0,-1,1518,1814,0,0
301,-790,0,0,0,0,0,0,0,0,0,-1,1525,1814,0,0
308,-790,0,0,0,0,0,0,0,0,0,-1,1532,1814,0,0
315,-790,0,0,0,0,0,0,0,0,0,-1,1539,1814,0,0
322,-790,0,0,0,0,0,0,0,0,0,-1,1546,1814,0,0
329,-790,0,0,0,0,0,0,0,0,0,-1,1553,1814,0,0
336,-790,0,0,0,0,0,0,0,0,0,-1,1560,1814,0,0
343,-790,0,0,0,0,0,0,0,0,0,-1,1567,1814,0,0
350,-790,0,0,0,0,0,0,0,0,0,-1,1574,1814,0,0
357,-790,0,0,0,0,0,0,0,0,0,-1,1581,1814,0,0
364,-790,0,0,0,0,0,0,0,0,0,-1,1588,1814,0,0
371,-790,0,0,0,0,0,0,0,0,0,-1,1595,1814,0,0
378,-790,0,0,0,0,0,0,0,0,0,-1,1602,1814,0,0
385,-790,0,0,0,0,0,0,0,0,0,-1,1609,1814,0,0
392,-790,0,0,0,0,0,0,0,0,0,-1,1616,1814,0,0
399,-790,0,0,0,0,0,0,0,0,0,-1,1623,1814,0,0
406,-790,0,0,0,0,0,0,0,0,0,-1,1630,1814,0,0
413,-790,0,0,0,0,0,0,0,0,0,-1,1637,1814,0,0
420,-790,0,0,0,0,0,0,0,0,0,-1,1644,1814,0,0
427,-790,0,0,0,0,0,0,0,0,0,-1,1651,1814,0,0
434,-790,0,0,0,0,0,0,0,0,0,-1,1658,1814,0,0
441,-790,0,0,0,0,0,0,0,0,0,-1,1665,1814,0,0
448,-790,0,0,0,0,0,0,0,0,0,-1,1672,1814,0,0
455,-790,0,0,0,0,0,0,0,0,0,-1,1679,1814,0,0
462,-790,0,0,0,0,0,0,0,0,0,-1,1686,1814,0,0
469,-790,0,0,0,0,0,0,0,0,0,-1,1693,1814,0,0
476,-790,0,0,0,0,0,0,0,0,0,-1,1700,1814,0,0
483,-790,0,0,0,0,0,0,0,0,0,-1,1707,1814,0,0
490,-790,0,0,0,0,0,0,0,0,0,-1,1714,1814,0,0
497,-790,0,0,0,0,0,0,0,0,0,-1,1721,1814,0,0
504,-790,0,0,0,0,0,0,0,0,0,-1,1728,1814,0,0
511,-790,0,0,0,0,0,0,0,0,0,-1,1735,1814,0,0
518,-790,0,0,0,0,0,0,0,0,0,-1,1742,1814,0,0
525,-790,0,0,0,0,0,0,0,0,0,-1,1749,1814,0,0
532,-790,0,0,0,0,0,0,0,0,0,-1,1756,1814,0,0
539,-790,0,0,0,0,0,0,0,0,0,-1,1763,1814,0,0
546,-790,0,0,0,0,0,0,0,0,0,-1,1770,1814,0,0
553,-790,0,0,0,0,0,0,0,0,0,-1,1777,1814,0,0
560,-790,0,0,0,0,0,0,0,0,0,-1,1784,1814,0,0
567,-790,0,0,0,0,0,0,0,0,0,-1,1791,1814,0,0
574,-790,0,0,0,0,0,0,0,0,0,-1,1798,1814,0,0
581,-790,0,0,0,0,0,0,0,0,0,-1,1805,1814,0,0
588,-790,0,0,0,0,0,0,0,0,0,-1,1812,1814,0,0
595,-790,0,0,0,0,0,0,0,0,0,-1,1819,1814,0,0
602,-790,0,0,0,0,0,0,0,0,0,-1,1826,1814,0,0
609,-790,0,0,0,0,0,0,0,0,0,-1,1833,1814,0,0
616,-790,0,0,0,0,0,0,0,0,0,-1,1840,1814,0,0
623,-790,0,0,0,0,0,0,0,0,0,-1,1847,1814,0,0
630,-790,0,0,0,0,0,0,0,0,0,-1,1854,1814,0,0
637,-790,0,0,0,0,0,0,0,0,0,-1,1861,1814,0,0
644,-790,0,0,0,0,0,0,0,0,0,-1,1868,1814,0,0
651,-790,0,0,0,0,0,0,0,0,0,-1,1875,1814,0,0
658,-790,0,0,0,0,0,0,0,0,0,-1,1882,1814,0,0
665,-790,0,0,0,0,0,0,0,0,0,-1,1889,1814,0,0
672,-790,0,0,0,0,0,0,0,0,0,-1,1896,1814,0,0
679,-790,0,0,0,0,0,0,0,0,0,-1,1903,1814,0,0
686,-790,0,0,0,0,0,0,0,0,0,-1,1910,1814,0,0
693,-790,0,0,0,0,0,0,0,0,0,-1,1917,1814,0,0
700,-790,0,0,0,0,0,0,0,0,0,-1,1924,1814,0,0
707,-790,0,0,0,0,0,0,0,0,0,-1,1931,1814,0,0
714,-790,0,0,0,0,0,0,0,0,0,-1,1938,1814,0,0
721,-790,0,0,0,0,0,0,0,0,0,-1,1945,1814,0,0
728,-790,0,0,0,0,0,0,0,0,0,-1,1952,1814,0,0
735,-790,0,0,0,0,0,0,0,0,0,-1,1959,1814,0,0
742,-790,0,0,0,0,0,0,0,0,0,-1,1966,1814,0,0
749,-790,0,0,0,0,0,0,0,0,0,-1,1973,1814,0,0
756,-790,0,0,0,0,0,0,0,0,0,-1,1980,1814,0,0
763,-790,0,0,0,0,0,0,0,0,0,-1,1987,1814,0,0
770,-790,0,0,0,0,0,0,0,0,0,-1,1994,1814,0,0
777,-790,0,0,0,0,0,0,0,0,0,-1,2001,1814,0,0
784,-790,0,0,0,0,0,0,0,0,0,-1,2008,1814,0,0
791,-790,0,0,0,0,0,0,0,0,0,-1,2015,1814,0,0
798,-790,0,0,0,0,0,0,0,0,0,-1,2022,1814,0,0
805,-790,0,0,0,0,0,0,0,0,0,-1,2029,1814,0,0
812,-790,0,0,0,0,0,0,0,0,0,-1,2036,1814,0,0
-700,-797,0,0,0,0,0,0,0,0,0,-1,524,1821,0,0
-693,-797,0,0,0,0,0,0,0,0,0,-1,531,1821,0,0
-686,-797,0,0,0,0,0,0,0,0,0,-1,538,1821,0,0
-679,-797,0,0,0,0,0,0,0,0,0,-1,545,1821,0,0
-672,-797,0,0,0,0,0,0,0,0,0,-1,552,1821,0,0
-665,-797,0,0,0,0,0,0,0,0,0,-1,559,1821,0,0
-658,-797,0,0,0,0,0,0,0,0,0,-1,566,1821,0,0
-651,-797,0,0,0,0,0,0,0,0,0,-1,573,1821,0,0
-644,-797,0,0,0,0,0,0,0,0,0,-1,580,1821,0,0
-637,-797,0,0,0,0,0,0,0,0,0,-1,587,1821,0,0
-630,-797,0,0,0,0,0,0,0,0,0,-1,594,1821,0,0
-623,-797,0,0,0,0,0,0,0,0,0,-1,601,1821,0,0
-616,-797,0,0,0,0,0,0,0,0,0,-1,608,1821,0,0
-609,-797,0,0,0,0,0,0,0,0,0,-1,615,1821,0,0
-602,-797,0,0,0,0,0,0,0,0,0,-1,622,1821,0,0
-595,-797,0,0,0,0,0,0,0,0,0,-1,629,1821,0,0
-588,-797,0,0,0,0,0,0,0,0,0,-1,636,1821,0,0
-581,-797,0,0,0,0,0,0,0,0,0,-1,643,1821,0,0
-574,-797,0,0,0,0,0,0,0,0,0,-1,650,1821,0,0
-567,-797,0,0,0,0,0,0,0,0,0,-1,657,1821,0,0
-560,-797,0,0,0,0,0,0,0,0,0,-1,664,1821,0,0
-553,-797,0,0,0,0,0,0,0,0,0,-1,671,1821,0,0
-546,-797,0,0,0,0,0,0,0,0,0,-1,678,1821,0,0
-539,-797,0,0,0,0,0,0,0,0,0,-1,685,1821,0,0
-532,-797,0,0,0,0,0,0,0,0,0,-1,692,1821,0,0
-525,-797,0,0,0,0,0,0,0,0,0,-1,699,1821,0,0
-518,-797,0,0,0,0,0,0,0,0,0,-1,706,1821,0,0
-511,-797,0,0,0,0,0,0,0,0,0,-1,713,1821,0,0
-504,-797,0,0,0,0,0,0,0,0,0,-1,720,1821,0,0
-497,-797,0,0,0,0,0,0,0,0,0,-1,727,1821,0,0
-490,-797,0,0,0,0,0,0,0,0,0,-1,734,1821,0,0
-483,-797,0,0,0,0,0,0,0,0,0,-1,741,1821,0,0
-476,-797,0,0,0,0,0,0,0,0,0,-1,748,1821,0,0
-469,-797,0,0,0,0,0,0,0,0,0,-1,755,1821,0,0
-462,-797,0,0,0,0,0,0,0,0,0,-1,762,1821,0,0
-455,-797,0,0,0,0,0,0,0,0,0,-1,769,1821,0,0
-448,-797,0,0,0,0,0,0,0,0,0,-1,776,1821,0,0
-441,-797,0,0,0,0,0,0,0,0,0,-1,783,1821,0,0
-434,-797,0,0,0,0,0,0,0,0,0,-1,790,1821,0,0
-427,-797,0,0,0,0,0,0,0,0,0,-1,797,1821,0,0
-420,-797,0,0,0,0,0,0,0,0,0,-1,804,1821,0,0
-413,-797,0,0,0,0,0,0,0,0,0,-1,811,1821,0,0
-406,-797,0,0,0,0,0,0,0,0,0,-1,818,1821,0,0
-399,-797,0,0,0,0,0,0,0,0,0,-1,825,1821,0,0
-392,-797,0,0,0,0,0,0,0,0,0,-1,832,1821,0,0
-385,-797,0,0,0,0,0,0,0,0,0,-1,839,1821,0,0
-378,-797,0,0,0,0,0,0,0,0,0,-1,846,1821,0,0
-371,-797,0,0,0,0,0,0,0,0,0,-1,853,1821,0,0
-364,-797,0,0,0,0,0,0,0,0,0,-1,860,1821,0,0
-357,-797,0,0,0,0,0,0,0,0,0,-1,867,1821,0,0
-350,-797,0,0,0,0,0,0,0,0,0,-1,874,1821,0,0
-343,-797,0,0,0,0,0,0,0,0,0,-1,881,1821,0,0
-336,-797,0,0,0,0,0,0,0,0,0,-1,888,1821,0,0
-329,-797,0,0,0,0,0,0,0,0,0,-1,895,1821,0,0
-322,-797,0,0,0,0,0,0,0,0,0,-1,902,1821,0,0
-315,-797,0,0,0,0,0,0,0,0,0,-1,909,1821,0,0
-308,-797,0,0,0,0,0,0,0,0,0,-1,916,1821,0,0
-301,-797,0,0,0,0,0,0,0,0,0,-1,923,1821,0,0
-294,-797,0,0,0,0,0,0,0,0,0,-1,930,1821,0,0
-287,-797,0,0,0,0,0,0,0,0,0,-1,937,1821,0,0
-280,-797,0,0,0,0,0,0,0,0,0,-1,944,1821,0,0
-273,-797,0,0,0,0,0,0,0,0,0,-1,951,1821,0,0
-266,-797,0,0,0,0,0,0,0,0,0,-1,958,1821,0,0
-259,-797,0,0,0,0,0,0,0,0,0,-1,965,1821,0,0
-252,-797,0,0,0,0,0,0,0,0,0,-1,972,1821,0,0
-245,-797,0,0,0,0,0,0,0,0,0,-1,979,1821,0,0
-238,-797,0,0,0,0,0,0,0,0,0,-1,986,1821,0,0
-231,-797,0,0,0,0,0,0,0,0,0,-1,993,1821,0,0
-224,-797,0,0,0,0,0,0,0,0,0,-1,1000,1821,0,0
-217,-797,0,0,0,0,0,0,0,0,0,-1,1007,1821,0,0
-210,-797,0,0,0,0,0,0,0,0,0,-1,1014,1821,0,0
-203,-797,0,0,0,0,0,0,0,0,0,-1,1021,1821,0,0
-196,-797,0,0,0,0,0,0,0,0,0,-1,1028,1821,0,0
-189,-797,0,0,0,0,0,0,0,0,0,-1,1035,1821,0,0
-182,-797,0,0,0,0,0,0,0,0,0,-1,1042,1821,0,0
-175,-797,0,0,0,0,0,0,0,0,0,-1,1049,1821,0,0
-168,-797,0,0,0,0,0,0,0,0,0,-1,1056,1821,0,0
-161,-797,0,0,0,0,0,0,0,0,0,-1,1063,1821,0,0
-154,-797,0,0,0,0,0,0,0,0,0,-1,1070,1821,0,0
-147,-797,0,0,0,0,0,0,0,0,0,-1,1077,1821,0,0
-140,-797,0,0,0,0,0,0,0,0,0,-1,1084,1821,0,0
-133,-797,0,0,0,0,0,0,0,0,0,-1,1091,1821,0,0
-126,-797,0,0,0,0,0,0,0,0,0,-1,1098,1821,0,0
-119,-797,0,0,0,0,0,0,0,0,0,-1,1105,1821,0,0
-112,-797,0,0,0,0,0,0,0,0,0,-1,1112,1821,0,0
-105,-797,0,0,0,0,0,0,0,0,0,-1,1119,1821,0,0
-98,-797,0,0,0,0,0,0,0,0,0,-1,1126,1821,0,0
-91,-797,0,0,0,0,0,0,0,0,0,-1,1133,1821,0,0
-84,-797,0,0,0,0,0,0,0,0,0,-1,1140,1821,0,0
-77,-797,0,0,0,0,0,0,0,0,0,-1,1147,1821,0,0
-70,-797,0,0,0,0,0,0,0,0,0,-1,1154,1821,0,0
-63,-797,0,0,0,0,0,0,0,0,0,-1,1161,1821,0,0
-56,-797,0,0,0,0,0,0,0,0,0,-1,1168,1821,0,0
-49,-797,0,0,0,0,0,0,0,0,0,-1,1175,1821,0,0
-42,-797,0.579834,0.692871,0,0,0,0,0,0,0,-1,1182,1821,0.579856,-0.692816
-35,-797,-0.185425,5.55396,0,0,0,0,0,0,0,-1,1189,1821,-0.18542,-5.55396
-28,-797,-0.310181,4.71509,0,0,0,0,0,0,0,-1,1196,1821,-0.310228,-4.71503
-21,-797,9.2428,70.5554,0,0,0,0,0,0,0,-1,1203,1821,9.24286,-70.5554
-14,-797,9.45801,70.2953,0,0,0,0,0,0,0,-1,1210,1821,9.45798,-70.2953
-7,-797,9.60657,70.0043,0.000485546,-0.0304937,0.0823473,0.0687874,-0.0987955,0.692434,0.0972697,0.0492264,1217,1821,9.60657,-70.0043
0,-797,9.71802,69.5359,0.00742803,-0.0326821,0.0679231,0.0581949,-0.083449,0.641846,0.0822103,0.0484264,1224,1821,9.71802,-69.5359
7,-797,9.88074,69.1477,0.0132434,-0.0321495,0.0534783,0.0486421,-0.0675483,0.584715,0.0673779,0.0458975,1231,1821,9.88075,-69.1477
14,-797,9.89441,70.3544,0,0,0,0,0,0,0,-1,1238,1821,9.89435,-70.3543
21,-797,9.2937,70.9464,0,0,0,0,0,0,0,-1,1245,1821,9.29373,-70.9464
28,-797,8.60352,71.3613,0,0,0,0,0,0,0,-1,1252,1821,8.60353,-71.3614
35,-797,11.2264,68.1241,0,0,0,0,0,0,0,-1,1259,1821,11.2264,-68.1241
42,-797,11.447,68.5939,0.00425558,-0.0395167,-0.0188192,0.0112341,-0.0464951,-0.355098,0.0353417,0.0486648,1266,1821,11.447,-68.5938
49,-797,11.5673,68.9818,-0.000797118,-0.041199,-0.0292627,0.0145601,-0.0565562,-0.483295,0.0433798,0.0489368,1273,1821,11.5673,-68.9818
56,-797,11.7882,69.5131,-0.00690506,-0.0428816,-0.0367538,0.0160263,-0.065813,-0.557822,0.0500796,0.0454542,1280,1821,11.7882,-69.513
63,-797,11.8284,70.26,-0.0123519,-0.0415731,-0.0409342,0.016501,-0.0704261,-0.613981,0.0533092,0.0404744,1287,1821,11.8284,-70.2601
70,-797,9.85864,66.6534,-0.0157897,-0.0364692,-0.0418133,0.0169433,-0.0692022,-0.664188,0.0526984,0.0427652,1294,1821,9.85869,-66.6535
77,-797,9.80933,67.5369,-0.0170748,-0.0260738,-0.0419175,0.020584,-0.0637326,-0.731932,0.0507605,0.0436985,1301,1821,9.80927,-67.5369
84,-797,10.0203,67.021,-0.0176006,-0.0147816,-0.0411726,0.0250056,-0.0573878,-0.802509,0.0487791,0.0452441,1308,1821,10.0203,-67.021
91,-797,9.87292,67.4119,-0.0159066,2.22898e-06,-0.0406367,0.0334557,-0.0493601,-0.882048,0.0481068,0.0457463,1315,1821,9.87293,-67.4119
98,-797,9.89343,67.0654,0,0,0,0,0,0,0,-1,1322,1821,9.89337,-67.0655
105,-797,8.7915,64.5289,0,0,0,0,0,0,0,-1,1329,1821,8.79152,-64.529
112,-797,8.66589,64.5387,-0.00588687,0.0668576,-0.0421678,0.0861725,-0.0252018,-1.14127,0.0674373,0.0461373,1336,1821,8.66592,-64.5387
119,-797,8.7251,64.3314,-0.001401,0.0966403,-0.0432057,0.112963,-0.0177237,-1.20958,0.0818587,0.0429583,1343,1821,8.72511,-64.3314
126,-797,8.93677,64.1476,0.00352725,0.130335,-0.0441618,0.144199,-0.0103367,-1.2666,0.0997567,0.0461234,1350,1821,8.93677,-64.1476
133,-797,9.24829,64.2075,0,0,0,0,0,0,0,-1,1357,1821,9.24829,-64.2076
140,-797,8.54834,64.0643,0,0,0,0,0,0,0,-1,1364,1821,8.54838,-64.0644
147,-797,8.328,63.6344,0,0,0,0,0,0,0,-1,1371,1821,8.32803,-63.6344
154,-797,40.2623,8.88733,0,0,0,0,0,0,0,-1,1378,1821,40.2623,-8.88731
161,-797,42.2798,8.17371,0,0,0,0,0,0,0,-1,1385,1821,42.2798,-8.17367
168,-797,0,0,0,0,0,0,0,0,0,-1,1392,1821,0,0
175,-797,0,0,0,0,0,0,0,0,0,-1,1399,1821,0,0
182,-797,0,0,0,0,0,0,0,0,0,-1,1406,1821,0,0
189,-797,0,0,0,0,0,0,0,0,0,-1,1413,1821,0,0
196,-797,0,0,0,0,0,0,0,0,0,-1,1420,1821,0,0
203,-797,0,0,0,0,0,0,0,0,0,-1,1427,1821,0,0
210,-797,0,0,0,0,0,0,0,0,0,-1,1434,1821,0,0
217,-797,0,0,0,0,0,0,0,0,0,-1,1441,1821,0,0
224,-797,0,0,0,0,0,0,0,0,0,-1,1448,1821,0,0
231,-797,0,0,0,0,0,0,0,0,0,-1,1455,1821,0,0
238,-797,0,0,0,0,0,0,0,0,0,-1,1462,1821,0,0
245,-797,0,0,0,0,0,0,0,0,0,-1,1469,1821,0,0
252,-797,0,0,0,0,0,0,0,0,0,-1,1476,1821,0,0
259,-797,0,0,0,0,0,0,0,0,0,-1,1483,1821,0,0
266,-797,0,0,0,0,0,0,0,0,0,-1,1490,1821,0,0
273,-797,0,0,0,0,0,0,0,0,0,-1,1497,1821,0,0
280,-797,0,0,0,0,0,0,0,0,0,-1,1504,1821,0,0
287,-797,0,0,0,0,0,0,0,0,0,-1,1511,1821,0,0
294,-797,0,0,0,0,0,0,0,0,0,-1,1518,1821,0,0
301,-797,0,0,0,0,0,0,0,0,0,-1,1525,1821,0,0
308,-797,0,0,0,0,0,0,0,0,0,-1,1532,1821,0,0
315,-797,0,0,0,0,0,0,0,0,0,-1,1539,1821,0,0
322,-797,0,0,0,0,0,0,0,0,0,-1,1546,1821,0,0
329,-797,0,0,0,0,0,0,0,0,0,-1,1553,1821,0,0
336,-797,0,0,0,0,0,0,0,0,0,-1,1560,1821,0,0
343,-797,0,0,0,0,0,0,0,0,0,-1,1567,1821,0,0
350,-797,0,0,0,0,0,0,0,0,0,-1,1574,1821,0,0
357,-797,0,0,0,0,0,0,0,0,0,-1,1581,1821,0,0
364,-797,0,0,0,0,0,0,0,0,0,-1,1588,1821,0,0
371,-797,0,0,0,0,0,0,0,0,0,-1,1595,1821,0,0
378,-797,0,0,0,0,0,0,0,0,0,-1,1602,1821,0,0
385,-797,0,0,0,0,0,0,0,0,0,-1,1609,1821,0,0
392,-797,0,0,0,0,0,0,0,0,0,-1,1616,1821,0,0
399,-797,0,0,0,0,0,0,0,0,0,-1,1623,1821,0,0
406,-797,0,0,0,0,0,0,0,0,0,-1,1630,1821,0,0
413,-797,0,0,0,0,0,0,0,0,0,-1,1637,1821,0,0
420,-797,0,0,0,0,0,0,0,0,0,-1,1644,1821,0,0
427,-797,0,0,0,0,0,0,0,0,0,-1,1651,1821,0,0
434,-797,0,0,0,0,0,0,0,0,0,-1,1658,1821,0,0
441,-797,0,0,0,0,0,0,0,0,0,-1,1665,1821,0,0
448,-797,0,0,0,0,0,0,0,0,0,-1,1672,1821,0,0
455,-797,0,0,0,0,0,0,0,0,0,-1,1679,1821,0,0
462,-797,0,0,0,0,0,0,0,0,0,-1,1686,1821,0,0
469,-797,0,0,0,0,0,0,0,0,0,-1,1693,1821,0,0
476,-797,0,0,0,0,0,0,0,0,0,-1,1700,1821,0,0
483,-797,0,0,0,0,0,0,0,0,0,-1,1707,1821,0,0
490,-797,0,0,0,0,0,0,0,0,0,-1,1714,1821,0,0
497,-797,0,0,0,0,0,0,0,0,0,-1,1721,1821,0,0
504,-797,0,0,0,0,0,0,0,0,0,-1,1728,1821,0,0
511,-797,0,0,0,0,0,0,0,0,0,-1,1735,1821,0,0
518,-797,0,0,0,0,0,0,0,0,0,-1,1742,1821,0,0
525,-797,0,0,0,0,0,0,0,0,0,-1,1749,1821,0,0
532,-797,0,0,0,0,0,0,0,0,0,-1,1756,1821,0,0
539,-797,0,0,0,0,0,0,0,0,0,-1,1763,1821,0,0
546,-797,0,0,0,0,0,0,0,0,0,-1,1770,1821,0,0
553,-797,0,0,0,0,0,0,0,0,0,-1,1777,1821,0,0
560,-797,0,0,0,0,0,0,0,0,0,-1,1784,1821,0,0
567,-797,0,0,0,0,0,0,0,0,0,-1,1791,1821,0,0
574,-797,0,0,0,0,0,0,0,0,0,-1,1798,1821,0,0
581,-797,0,0,0,0,0,0,0,0,0,-1,1805,1821,0,0
588,-797,0,0,0,0,0,0,0,0,0,-1,1812,1821,0,0
595,-797,0,0,0,0,0,0,0,0,0,-1,1819,1821,0,0
602,-797,0,0,0,0,0,0,0,0,0,-1,1826,1821,0,0
609,-797,0,0,0,0,0,0,0,0,0,-1,1833,1821,0,0
616,-797,0,0,0,0,0,0,0,0,0,-1,1840,1821,0,0
623,-797,0,0,0,0,0,0,0,0,0,-1,1847,1821,0,0
630,-797,0,0,0,0,0,0,0,0,0,-1,1854,1821,0,0
637,-797,0,0,0,0,0,0,0,0,0,-1,1861,1821,0,0
644,-797,0,0,0,0,0,0,0,0,0,-1,1868,1821,0,0
651,-797,0,0,0,0,0,0,0,0,0,-1,1875,1821,0,0
658,-797,0,0,0,0,0,0,0,0,0,-1,1882,1821,0,0
665,-797,0,0,0,0,0,0,0,0,0,-1,1889,1821,0,0
672,-797,0,0,0,0,0,0,0,0,0,-1,1896,1821,0,0
679,-797,0,0,0,0,0,0,0,0,0,-1,1903,1821,0,0
686,-797,0,0,0,0,0,0,0,0,0,-1,1910,1821,0,0
693,-797,0,0,0,0,0,0,0,0,0,-1,1917,1821,0,0
700,-797,0,0,0,0,0,0,0,0,0,-1,1924,1821,0,0
707,-797,0,0,0,0,0,0,0,0,0,-1,1931,1821,0,0
714,-797,0,0,0,0,0,0,0,0,0,-1,1938,1821,0,0
721,-797,0,0,0,0,0,0,0,0,0,-1,1945,1821,0,0
728,-797,0,0,0,0,0,0,0,0,0,-1,1952,1821,0,0
735,-797,0,0,0,0,0,0,0,0,0,-1,1959,1821,0,0
742,-797,0,0,0,0,0,0,0,0,0,-1,1966,1821,0,0
749,-797,0,0,0,0,0,0,0,0,0,-1,1973,1821,0,0
756,-797,0,0,0,0,0,0,0,0,0,-1,1980,1821,0,0
763,-797,0,0,0,0,0,0,0,0,0,-1,1987,1821,0,0
770,-797,0,0,0,0,0,0,0,0,0,-1,1994,1821,0,0
777,-797,0,0,0,0,0,0,0,0,0,-1,2001,1821,0,0
784,-797,0,0,0,0,0,0,0,0,0,-1,2008,1821,0,0
791,-797,0,0,0,0,0,0,0,0,0,-1,2015,1821,0,0
798,-797,0,0,0,0,0,0,0,0,0,-1,2022,1821,0,0
805,-797,0,0,0,0,0,0,0,0,0,-1,2029,1821,0,0
812,-797,0,0,0,0,0,0,0,0,0,-1,2036,1821,0,0
-700,-804,0,0,0,0,0,0,0,0,0,-1,524,1828,0,0
-693,-804,0,0,0,0,0,0,0,0,0,-1,531,1828,0,0
-686,-804,0,0,0,0,0,0,0,0,0,-1,538,1828,0,0
-679,-804,0,0,0,0,0,0,0,0,0,-1,545,1828,0,0
-672,-804,0,0,0,0,0,0,0,0,0,-1,552,1828,0,0
-665,-804,0,0,0,0,0,0,0,0,0,-1,559,1828,0,0
-658,-804,0,0,0,0,0,0,0,0,0,-1,566,1828,0,0
-651,-804,0,0,0,0,0,0,0,0,0,-1,573,1828,0,0
-644,-804,0,0,0,0,0,0,0,0,0,-1,580,1828,0,0
-637,-804,0,0,0,0,0,0,0,0,0,-1,587,1828,0,0
-630,-804,0,0,0,0,0,0,0,0,0,-1,594,1828,0,0
-623,-804,0,0,0,0,0,0,0,0,0,-1,601,1828,0,0
-616,-804,0,0,0,0,0,0,0,0,0,-1,608,1828,0,0
-609,-804,0,0,0,0,0,0,0,0,0,-1,615,1828,0,0
-602,-804,0,0,0,0,0,0,0,0,0,-1,622,1828,0,0
-595,-804,0,0,0,0,0,0,0,0,0,-1,629,1828,0,0
-588,-804,0,0,0,0,0,0,0,0,0,-1,636,1828,0,0
-581,-804,0,0,0,0,0,0,0,0,0,-1,643,1828,0,0
-574,-804,0,0,0,0,0,0,0,0,0,-1,650,1828,0,0
-567,-804,0,0,0,0,0,0,0,0,0,-1,657,1828,0,0
-560,-804,0,0,0,0,0,0,0,0,0,-1,664,1828,0,0
-553,-804,0,0,0,0,0,0,0,0,0,-1,671,1828,0,0
-546,-804,0,0,0,0,0,0,0,0,0,-1,678,1828,0,0
-539,-804,0,0,0,0,0,0,0,0,0,-1,685,1828,0,0
-532,-804,0,0,0,0,0,0,0,0,0,-1,692,1828,0,0
-525,-804,0,0,0,0,0,0,0,0,0,-1,699,1828,0,0
-518,-804,0,0,0,0,0,0,0,0,0,-1,706,1828,0,0
-511,-804,0,0,0,0,0,0,0,0,0,-1,713,1828,0,0
-504,-804,0,0,0,0,0,0,0,0,0,-1,720,1828,0,0
-497,-804,0,0,0,0,0,0,0,0,0,-1,727,1828,0,0
-490,-804,0,0,0,0,0,0,0,0,0,-1,734,1828,0,0
-483,-804,0,0,0,0,0,0,0,0,0,-1,741,1828,0,0
-476,-804,0,0,0,0,0,0,0,0,0,-1,748,1828,0,0
-469,-804,0,0,0,0,0,0,0,0,0,-1,755,1828,0,0
-462,-804,0,0,0,0,0,0,0,0,0,-1,762,1828,0,0
-455,-804,0,0,0,0,0,0,0,0,0,-1,769,1828,0,0
-448,-804,0,0,0,0,0,0,0,0,0,-1,776,1828,0,0
-441,-804,0,0,0,0,0,0,0,0,0,-1,783,1828,0,0
-434,-804,0,0,0,0,0,0,0,0,0,-1,790,1828,0,0
-427,-804,0,0,0,0,0,0,0,0,0,-1,797,1828,0,0
-420,-804,0,0,0,0,0,0,0,0,0,-1,804,1828,0,0
-413,-804,0,0,0,0,0,0,0,0,0,-1,811,1828,0,0
-406,-804,0,0,0,0,0,0,0,0,0,-1,818,1828,0,0
-399,-804,0,0,0,0,0,0,0,0,0,-1,825,1828,0,0
-392,-804,0,0,0,0,0,0,0,0,0,-1,832,1828,0,0
-385,-804,0,0,0,0,0,0,0,0,0,-1,839,1828,0,0
-378,-804,0,0,0,0,0,0,0,0,0,-1,846,1828,0,0
-371,-804,0,0,0,0,0,0,0,0,0,-1,853,1828,0,0
-364,-804,0,0,0,0,0,0,0,0,0,-1,860,1828,0,0
-357,-804,0,0,0,0,0,0,0,0,0,-1,867,1828,0,0
-350,-804,0,0,0,0,0,0,0,0,0,-1,874,1828,0,0
-343,-804,0,0,0,0,0,0,0,0,0,-1,881,1828,0,0
-336,-804,0,0,0,0,0,0,0,0,0,-1,888,1828,0,0
-329,-804,0,0,0,0,0,0,0,0,0,-1,895,1828,0,0
-322,-804,0,0,0,0,0,0,0,0,0,-1,902,1828,0,0
-315,-804,0,0,0,0,0,0,0,0,0,-1,909,1828,0,0
-308,-804,0,0,0,0,0,0,0,0,0,-1,916,1828,0,0
-301,-804,0,0,0,0,0,0,0,0,0,-1,923,1828,0,0
-294,-804,0,0,0,0,0,0,0,0,0,-1,930,1828,0,0
-287,-804,0,0,0,0,0,0,0,0,0,-1,937,1828,0,0
-280,-804,0,0,0,0,0,0,0,0,0,-1,944,1828,0,0
-273,-804,0,0,0,0,0,0,0,0,0,-1,951,1828,0,0
-266,-804,0,0,0,0,0,0,0,0,0,-1,958,1828,0,0
-259,-804,0,0,0,0,0,0,0,0,0,-1,965,1828,0,0
-252,-804,0,0,0,0,0,0,0,0,0,-1,972,1828,0,0
-245,-804,0,0,0,0,0,0,0,0,0,-1,979,1828,0,0
-238,-804,0,0,0,0,0,0,0,0,0,-1,986,1828,0,0
-231,-804,0,0,0,0,0,0,0,0,0,-1,993,1828,0,0
-224,-804,0,0,0,0,0,0,0,0,0,-1,1000,1828,0,0
-217,-804,0,0,0,0,0,0,0,0,0,-1,1007,1828,0,0
-210,-804,0,0,0,0,0,0,0,0,0,-1,1014,1828,0,0
-203,-804,0,0,0,0,0,0,0,0,0,-1,1021,1828,0,0
-196,-804,0,0,0,0,0,0,0,0,0,-1,1028,1828,0,0
-189,-804,0,0,0,0,0,0,0,0,0,-1,1035,1828,0,0
-182,-804,0,0,0,0,0,0,0,0,0,-1,1042,1828,0,0
-175,-804,0,0,0,0,0,0,0,0,0,-1,1049,1828,0,0
-168,-804,0,0,0,0,0,0,0,0,0,-1,1056,1828,0,0
-161,-804,0,0,0,0,0,0,0,0,0,-1,1063,1828,0,0
-154,-804,0,0,0,0,0,0,0,0,0,-1,1070,1828,0,0
-147,-804,0,0,0,0,0,0,0,0,0,-1,1077,1828,0,0
-140,-804,0,0,0,0,0,0,0,0,0,-1,1084,1828,0,0
-133,-804,0,0,0,0,0,0,0,0,0,-1,1091,1828,0,0
-126,-804,0,0,0,0,0,0,0,0,0,-1,1098,1828,0,0
-119,-804,0,0,0,0,0,0,0,0,0,-1,1105,1828,0,0
-112,-804,0,0,0,0,0,0,0,0,0,-1,1112,1828,0,0
-105,-804,0,0,0,0,0,0,0,0,0,-1,1119,1828,0,0
-98,-804,0,0,0,0,0,0,0,0,0,-1,1126,1828,0,0
-91,-804,0,0,0,0,0,0,0,0,0,-1,1133,1828,0,0
-84,-804,0,0,0,0,0,0,0,0,0,-1,1140,1828,0,0
-77,-804,0,0,0,0,0,0,0,0,0,-1,1147,1828,0,0
-70,-804,0,0,0,0,0,0,0,0,0,-1,1154,1828,0,0
-63,-804,0,0,0,0,0,0,0,0,0,-1,1161,1828,0,0
-56,-804,0,0,0,0,0,0,0,0,0,-1,1168,1828,0,0
-49,-804,0,0,0,0,0,0,0,0,0,-1,1175,1828,0,0
-42,-804,0,0,0,0,0,0,0,0,0,-1,1182,1828,0,0
-35,-804,0,0,0,0,0,0,0,0,0,-1,1189,1828,0,0
-28,-804,0,0,0,0,0,0,0,0,0,-1,1196,1828,0,0
-21,-804,0,0,0,0,0,0,0,0,0,-1,1203,1828,0,0
-14,-804,0,0,0,0,0,0,0,0,0,-1,1210,1828,0,0
-7,-804,0,0,0,0,0,0,0,0,0,-1,1217,1828,0,0
0,-804,0,0,0,0,0,0,0,0,0,-1,1224,1828,0,0
7,-804,0,0,0,0,0,0,0,0,0,-1,1231,1828,0,0
14,-804,0,0,0,0,0,0,0,0,0,-1,1238,1828,0,0
21,-804,0,0,0,0,0,0,0,0,0,-1,1245,1828,0,0
28,-804,0,0,0,0,0,0,0,0,0,-1,1252,1828,0,0
35,-804,8.5697,66.141,0,0,0,0,0,0,0,-1,1259,1828,8.56976,-66.1409
42,-804,11.8401,68.4471,0,0,0,0,0,0,0,-1,1266,1828,11.84,-68.4471
49,-804,11.7314,69.2516,0.00196294,-0.0603052,-0.0280034,0.012704,-0.0710462,-0.366255,0.0521175,0.0471277,1273,1828,11.7314,-69.2516
56,-804,12.1064,69.598,-0.00548024,-0.0646519,-0.0376036,0.0127811,-0.0829133,-0.452084,0.0599915,0.0449699,1280,1828,12.1065,-69.598
63,-804,12.0114,70.076,-0.0125797,-0.0653047,-0.0431694,0.0116402,-0.0895246,-0.511282,0.0639174,0.046418,1287,1828,12.0113,-70.076
70,-804,12.0229,70.3862,-0.0177213,-0.0617665,-0.0444699,0.00988038,-0.0893682,-0.555488,0.0631305,0.0478538,1294,1828,12.023,-70.3862
77,-804,10.2496,68.4081,-0.0200602,-0.0514452,-0.0449064,0.0118166,-0.083322,-0.617307,0.0598768,0.0450069,1301,1828,10.2497,-68.408
84,-804,9.70544,68.6437,-0.0204105,-0.038328,-0.0445044,0.0160278,-0.0747664,-0.686075,0.0559573,0.0443814,1308,1828,9.70544,-68.6437
91,-804,0,0,0,0,0,0,0,0,0,-1,1315,1828,0,0
98,-804,0,0,0,0,0,0,0,0,0,-1,1322,1828,0,0
105,-804,0,0,0,0,0,0,0,0,0,-1,1329,1828,0,0
112,-804,0,0,0,0,0,0,0,0,0,-1,1336,1828,0,0
119,-804,0,0,0,0,0,0,0,0,0,-1,1343,1828,0,0
126,-804,0,0,0,0,0,0,0,0,0,-1,1350,1828,0,0
133,-804,0,0,0,0,0,0,0,0,0,-1,1357,1828,0,0
140,-804,0,0,0,0,0,0,0,0,0,-1,1364,1828,0,0
147,-804,0,0,0,0,0,0,0,0,0,-1,1371,1828,0,0
154,-804,0,0,0,0,0,0,0,0,0,-1,1378,1828,0,0
161,-804,0,0,0,0,0,0,0,0,0,-1,1385,1828,0,0
168,-804,0,0,0,0,0,0,0,0,0,-1,1392,1828,0,0
175,-804,0,0,0,0,0,0,0,0,0,-1,1399,1828,0,0
182,-804,0,0,0,0,0,0,0,0,0,-1,1406,1828,0,0
189,-804,0,0,0,0,0,0,0,0,0,-1,1413,1828,0,0
196,-804,0,0,0,0,0,0,0,0,0,-1,1420,1828,0,0
203,-804,0,0,0,0,0,0,0,0,0,-1,1427,1828,0,0
210,-804,0,0,0,0,0,0,0,0,0,-1,1434,1828,0,0
217,-804,0,0,0,0,0,0,0,0,0,-1,1441,1828,0,0
224,-804,0,0,0,0,0,0,0,0,0,-1,1448,1828,0,0
231,-804,0,0,0,0,0,0,0,0,0,-1,1455,1828,0,0
238,-804,0,0,0,0,0,0,0,0,0,-1,1462,1828,0,0
245,-804,0,0,0,0,0,0,0,0,0,-1,1469,1828,0,0
252,-804,0,0,0,0,0,0,0,0,0,-1,1476,1828,0,0
259,-804,0,0,0,0,0,0,0,0,0,-1,1483,1828,0,0
266,-804,0,0,0,0,0,0,0,0,0,-1,1490,1828,0,0
273,-804,0,0,0,0,0,0,0,0,0,-1,1497,1828,0,0
280,-804,0,0,0,0,0,0,0,0,0,-1,1504,1828,0,0
287,-804,0,0,0,0,0,0,0,0,0,-1,1511,1828,0,0
294,-804,0,0,0,0,0,0,0,0,0,-1,1518,1828,0,0
301,-804,0,0,0,0,0,0,0,0,0,-1,1525,1828,0,0
308,-804,0,0,0,0,0,0,0,0,0,-1,1532,1828,0,0
315,-804,0,0,0,0,0,0,0,0,0,-1,1539,1828,0,0
322,-804,0,0,0,0,0,0,0,0,0,-1,1546,1828,0,0
329,-804,0,0,0,0,0,0,0,0,0,-1,1553,1828,0,0
336,-804,0,0,0,0,0,0,0,0,0,-1,1560,1828,0,0
343,-804,0,0,0,0,0,0,0,0,0,-1,1567,1828,0,0
350,-804,0,0,0,0,0,0,0,0,0,-1,1574,1828,0,0
357,-804,0,0,0,0,0,0,0,0,0,-1,1581,1828,0,0
364,-804,0,0,0,0,0,0,0,0,0,-1,1588,1828,0,0
371,-804,0,0,0,0,0,0,0,0,0,-1,1595,1828,0,0
378,-804,0,0,0,0,0,0,0,0,0,-1,1602,1828,0,0
385,-804,0,0,0,0,0,0,0,0,0,-1,1609,1828,0,0
392,-804,0,0,0,0,0,0,0,0,0,-1,1616,1828,0,0
399,-804,0,0,0,0,0,0,0,0,0,-1,1623,1828,0,0
406,-804,0,0,0,0,0,0,0,0,0,-1,1630,1828,0,0
413,-804,0,0,0,0,0,0,0,0,0,-1,1637,1828,0,0
420,-804,0,0,0,0,0,0,0,0,0,-1,1644,1828,0,0
427,-804,0,0,0,0,0,0,0,0,0,-1,1651,1828,0,0
434,-804,0,0,0,0,0,0,0,0,0,-1,1658,1828,0,0
441,-804,0,0,0,0,0,0,0,0,0,-1,1665,1828,0,0
448,-804,0,0,0,0,0,0,0,0,0,-1,1672,1828,0,0
455,-804,0,0,0,0,0,0,0,0,0,-1,1679,1828,0,0
462,-804,0,0,0,0,0,0,0,0,0,-1,1686,1828,0,0
469,-804,0,0,0,0,0,0,0,0,0,-1,1693,1828,0,0
476,-804,0,0,0,0,0,0,0,0,0,-1,1700,1828,0,0
483,-804,0,0,0,0,0,0,0,0,0,-1,1707,1828,0,0
490,-804,0,0,0,0,0,0,0,0,0,-1,1714,1828,0,0
497,-804,0,0,0,0,0,0,0,0,0,-1,1721,1828,0,0
504,-804,0,0,0,0,0,0,0,0,0,-1,1728,1828,0,0
511,-804,0,0,0,0,0,0,0,0,0,-1,1735,1828,0,0
518,-804,0,0,0,0,0,0,0,0,0,-1,1742,1828,0,0
525,-804,0,0,0,0,0,0,0,0,0,-1,1749,1828,0,0
532,-804,0,0,0,0,0,0,0,0,0,-1,1756,1828,0,0
539,-804,0,0,0,0,0,0,0,0,0,-1,1763,1828,0,0
546,-804,0,0,0,0,0,0,0,0,0,-1,1770,1828,0,0
553,-804,0,0,0,0,0,0,0,0,0,-1,1777,1828,0,0
560,-804,0,0,0,0,0,0,0,0,0,-1,1784,1828,0,0
567,-804,0,0,0,0,0,0,0,0,0,-1,1791,1828,0,0
574,-804,0,0,0,0,0,0,0,0,0,-1,1798,1828,0,0
581,-804,0,0,0,0,0,0,0,0,0,-1,1805,1828,0,0
588,-804,0,0,0,0,0,0,0,0,0,-1,1812,1828,0,0
595,-804,0,0,0,0,0,0,0,0,0,-1,1819,1828,0,0
602,-804,0,0,0,0,0,0,0,0,0,-1,1826,1828,0,0
609,-804,0,0,0,0,0,0,0,0,0,-1,1833,1828,0,0
616,-804,0,0,0,0,0,0,0,0,0,-1,1840,1828,0,0
623,-804,0,0,0,0,0,0,0,0,0,-1,1847,1828,0,0
630,-804,0,0,0,0,0,0,0,0,0,-1,1854,1828,0,0
637,-804,0,0,0,0,0,0,0,0,0,-1,1861,1828,0,0
644,-804,0,0,0,0,0,0,0,0,0,-1,1868,1828,0,0
651,-804,0,0,0,0,0,0,0,0,0,-1,1875,1828,0,0
658,-804,0,0,0,0,0,0,0,0,0,-1,1882,1828,0,0
665,-804,0,0,0,0,0,0,0,0,0,-1,1889,1828,0,0
672,-804,0,0,0,0,0,0,0,0,0,-1,1896,1828,0,0
679,-804,0,0,0,0,0,0,0,0,0,-1,1903,1828,0,0
686,-804,0,0,0,0,0,0,0,0,0,-1,1910,1828,0,0
693,-804,0,0,0,0,0,0,0,0,0,-1,1917,1828,0,0
700,-804,0,0,0,0,0,0,0,0,0,-1,1924,1828,0,0
707,-804,0,0,0,0,0,0,0,0,0,-1,1931,1828,0,0
714,-804,0,0,0,0,0,0,0,0,0,-1,1938,1828,0,0
721,-804,0,0,0,0,0,0,0,0,0,-1,1945,1828,0,0
728,-804,0,0,0,0,0,0,0,0,0,-1,1952,1828,0,0
735,-804,0,0,0,0,0,0,0,0,0,-1,1959,1828,0,0
742,-804,0,0,0,0,0,0,0,0,0,-1,1966,1828,0,0
749,-804,0,0,0,0,0,0,0,0,0,-1,1973,1828,0,0
756,-804,0,0,0,0,0,0,0,0,0,-1,1980,1828,0,0
763,-804,0,0,0,0,0,0,0,0,0,-1,1987,1828,0,0
770,-804,0,0,0,0,0,0,0,0,0,-1,1994,1828,0,0
777,-804,0,0,0,0,0,0,0,0,0,-1,2001,1828,0,0
784,-804,0,0,0,0,0,0,0,0,0,-1,2008,1828,0,0
791,-804,0,0,0,0,0,0,0,0,0,-1,2015,1828,0,0
798,-804,0,0,0,0,0,0,0,0,0,-1,2022,1828,0,0
805,-804,0,0,0,0,0,0,0,0,0,-1,2029,1828,0,0
812,-804,0,0,0,0,0,0,0,0,0,-1,2036,1828,0,0

